
 stresses (elem, integ.pnt.,sxx,syy,szz,sxy,sxz,syz) for set ELALL and time  0.1000000E+01

         1   1 -2.071076E+06 -6.336796E+04 -7.564199E+04 -3.095730E+04 -5.196524E+04  2.599487E+00
         1   2 -2.062504E+06 -8.581217E+02 -3.460794E+04 -1.101759E+04 -3.367734E+04  5.995610E-01
         1   3 -2.071010E+06  2.943366E+03 -2.018604E+04  8.922804E+03 -1.538923E+04 -2.218878E-01
         1   4 -2.071077E+06 -6.336977E+04 -7.564225E+04  2.811142E-09 -5.196524E+04 -1.434138E-10
         1   5 -2.062504E+06 -8.583506E+02 -3.460798E+04  4.549777E-09 -3.367734E+04 -6.074174E-10
         1   6 -2.071010E+06  2.943216E+03 -2.018606E+04  1.166866E-08 -1.538923E+04 -1.011005E-09
         1   7 -2.071076E+06 -6.336796E+04 -7.564199E+04  3.095730E+04 -5.196524E+04 -2.599487E+00
         1   8 -2.062504E+06 -8.581217E+02 -3.460794E+04  1.101759E+04 -3.367734E+04 -5.995610E-01
         1   9 -2.071010E+06  2.943366E+03 -2.018604E+04 -8.922804E+03 -1.538923E+04  2.218878E-01
         1  10 -2.071079E+06 -6.336869E+04 -7.564708E+04 -3.095730E+04 -1.168213E-09 -2.001485E-10
         1  11 -2.062505E+06 -8.584274E+02 -3.461008E+04 -1.101759E+04  7.299772E-10 -9.181085E-10
         1  12 -2.071010E+06  2.943302E+03 -2.018649E+04  8.922804E+03  3.614070E-09 -1.528971E-09
         1  13 -2.071080E+06 -6.337050E+04 -7.564734E+04 -1.503575E-09 -3.359910E-11 -3.045653E-13
         1  14 -2.062505E+06 -8.586563E+02 -3.461011E+04  4.440560E-09  5.264126E-10 -2.742001E-10
         1  15 -2.071010E+06  2.943152E+03 -2.018651E+04  1.775977E-09 -5.514172E-10 -9.744074E-10
         1  16 -2.071079E+06 -6.336869E+04 -7.564708E+04  3.095730E+04  9.754465E-10  2.697641E-10
         1  17 -2.062505E+06 -8.584274E+02 -3.461008E+04  1.101759E+04  6.252556E-10  3.301316E-10
         1  18 -2.071010E+06  2.943302E+03 -2.018649E+04 -8.922804E+03 -6.516591E-10 -4.834358E-10
         1  19 -2.071076E+06 -6.336796E+04 -7.564199E+04 -3.095730E+04  5.196524E+04 -2.599487E+00
         1  20 -2.062504E+06 -8.581217E+02 -3.460794E+04 -1.101759E+04  3.367734E+04 -5.995610E-01
         1  21 -2.071010E+06  2.943366E+03 -2.018604E+04  8.922804E+03  1.538923E+04  2.218878E-01
         1  22 -2.071077E+06 -6.336977E+04 -7.564225E+04  7.062855E-09  5.196524E+04  1.589236E-10
         1  23 -2.062504E+06 -8.583506E+02 -3.460798E+04  2.698999E-11  3.367734E+04  4.941493E-11
         1  24 -2.071010E+06  2.943216E+03 -2.018606E+04  2.376595E-10  1.538923E+04 -9.417008E-10
         1  25 -2.071076E+06 -6.336796E+04 -7.564199E+04  3.095730E+04  5.196524E+04  2.599487E+00
         1  26 -2.062504E+06 -8.581217E+02 -3.460794E+04  1.101759E+04  3.367734E+04  5.995610E-01
         1  27 -2.071010E+06  2.943366E+03 -2.018604E+04 -8.922804E+03  1.538923E+04 -2.218878E-01
         2   1 -2.067529E+06 -3.237665E+03 -1.599833E+04 -1.116384E+03 -1.255690E+04  2.265211E-02
         2   2 -2.066842E+06  6.582919E+01 -8.699362E+03 -2.461356E+02 -8.198234E+03  3.260675E-03
         2   3 -2.067521E+06  1.873053E+02 -5.040585E+03  6.241103E+02 -3.839548E+03 -3.872172E-03
         2   4 -2.067529E+06 -3.237667E+03 -1.599833E+04  8.917032E-09 -1.255690E+04  5.277916E-12
         2   5 -2.066842E+06  6.582907E+01 -8.699362E+03  4.148323E-09 -8.198234E+03  1.738331E-09
         2   6 -2.067521E+06  1.873045E+02 -5.040585E+03  1.769608E-08 -3.839548E+03 -2.236878E-10
         2   7 -2.067529E+06 -3.237665E+03 -1.599833E+04  1.116384E+03 -1.255690E+04 -2.265211E-02
         2   8 -2.066842E+06  6.582919E+01 -8.699362E+03  2.461356E+02 -8.198234E+03 -3.260672E-03
         2   9 -2.067521E+06  1.873053E+02 -5.040585E+03 -6.241104E+02 -3.839548E+03  3.872172E-03
         2  10 -2.067529E+06 -3.237707E+03 -1.599863E+04 -1.116384E+03 -1.059078E-09 -8.119231E-10
         2  11 -2.066842E+06  6.581107E+01 -8.699489E+03 -2.461356E+02 -1.183134E-09  6.807657E-10
         2  12 -2.067521E+06  1.873013E+02 -5.040612E+03  6.241104E+02  8.521031E-10  5.897676E-10
         2  13 -2.067529E+06 -3.237709E+03 -1.599863E+04 -5.681904E-09 -9.285985E-10 -5.296425E-10
         2  14 -2.066842E+06  6.581096E+01 -8.699489E+03  5.335714E-09 -9.593989E-10  8.177035E-10
         2  15 -2.067521E+06  1.873006E+02 -5.040612E+03  7.206630E-09 -1.456152E-09  4.930369E-10
         2  16 -2.067529E+06 -3.237707E+03 -1.599863E+04  1.116384E+03 -4.218468E-11 -3.990445E-10
         2  17 -2.066842E+06  6.581107E+01 -8.699489E+03  2.461356E+02  2.561697E-10  8.565047E-10
         2  18 -2.067521E+06  1.873013E+02 -5.040612E+03 -6.241103E+02 -1.554461E-09  5.932020E-10
         2  19 -2.067529E+06 -3.237665E+03 -1.599833E+04 -1.116384E+03  1.255690E+04 -2.265211E-02
         2  20 -2.066842E+06  6.582919E+01 -8.699362E+03 -2.461356E+02  8.198234E+03 -3.260674E-03
         2  21 -2.067521E+06  1.873053E+02 -5.040585E+03  6.241103E+02  3.839548E+03  3.872173E-03
         2  22 -2.067529E+06 -3.237667E+03 -1.599833E+04 -3.057260E-09  1.255690E+04 -1.081090E-09
         2  23 -2.066842E+06  6.582907E+01 -8.699362E+03  4.379331E-09  8.198234E+03 -4.679023E-11
         2  24 -2.067521E+06  1.873045E+02 -5.040585E+03  1.235393E-08  3.839548E+03  1.158055E-09
         2  25 -2.067529E+06 -3.237665E+03 -1.599833E+04  1.116384E+03  1.255690E+04  2.265211E-02
         2  26 -2.066842E+06  6.582919E+01 -8.699362E+03  2.461356E+02  8.198234E+03  3.260673E-03
         2  27 -2.067521E+06  1.873053E+02 -5.040585E+03 -6.241103E+02  3.839548E+03 -3.872171E-03
         3   1 -2.067260E+06 -1.309370E+02 -3.880943E+03  7.423977E+01 -3.054585E+03 -3.664403E-04
         3   2 -2.067164E+06  3.301043E+01 -2.266847E+03  6.774033E+01 -1.932239E+03 -2.115055E-04
         3   3 -2.067259E+06  1.972128E+01 -1.429561E+03  6.124101E+01 -8.099081E+02 -8.014815E-05
         3   4 -2.067260E+06 -1.309370E+02 -3.880943E+03 -1.001923E-08 -3.054585E+03 -8.235122E-10
         3   5 -2.067164E+06  3.301042E+01 -2.266847E+03 -6.254893E-09 -1.932239E+03  2.912728E-10
         3   6 -2.067259E+06  1.972128E+01 -1.429561E+03  2.889832E-09 -8.099081E+02 -2.790788E-10
         3   7 -2.067260E+06 -1.309370E+02 -3.880943E+03 -7.423977E+01 -3.054585E+03  3.664386E-04
         3   8 -2.067164E+06  3.301043E+01 -2.266847E+03 -6.774033E+01 -1.932239E+03  2.115057E-04
         3   9 -2.067259E+06  1.972128E+01 -1.429561E+03 -6.124101E+01 -8.099081E+02  8.014775E-05
         3  10 -2.067260E+06 -1.309395E+02 -3.880961E+03  7.423977E+01 -2.124888E-09 -1.624370E-10
         3  11 -2.067164E+06  3.300942E+01 -2.266854E+03  6.774033E+01 -5.486665E-10 -4.596250E-10
         3  12 -2.067259E+06  1.972111E+01 -1.429562E+03  6.124101E+01 -1.663633E-09 -2.467022E-10
         3  13 -2.067260E+06 -1.309396E+02 -3.880961E+03 -1.218819E-08 -2.139041E-09  6.333460E-11
         3  14 -2.067164E+06  3.300941E+01 -2.266854E+03 -5.164115E-09 -2.690187E-09  6.523252E-11
         3  15 -2.067259E+06  1.972110E+01 -1.429562E+03  2.381192E-09  1.479604E-09  1.941313E-11
         3  16 -2.067260E+06 -1.309395E+02 -3.880961E+03 -7.423977E+01 -2.035596E-09  3.594003E-10
         3  17 -2.067164E+06  3.300942E+01 -2.266854E+03 -6.774033E+01 -5.941889E-10  4.945594E-10
         3  18 -2.067259E+06  1.972111E+01 -1.429562E+03 -6.124101E+01 -5.294400E-10  3.960438E-10
         3  19 -2.067260E+06 -1.309370E+02 -3.880943E+03  7.423977E+01  3.054585E+03  3.664400E-04
         3  20 -2.067164E+06  3.301043E+01 -2.266847E+03  6.774033E+01  1.932239E+03  2.115053E-04
         3  21 -2.067259E+06  1.972128E+01 -1.429561E+03  6.124101E+01  8.099081E+02  8.014732E-05
         3  22 -2.067260E+06 -1.309370E+02 -3.880943E+03 -5.759018E-09  3.054585E+03  9.455090E-10
         3  23 -2.067164E+06  3.301042E+01 -2.266847E+03 -4.102737E-09  1.932239E+03 -1.489168E-10
         3  24 -2.067259E+06  1.972128E+01 -1.429561E+03  5.077686E-09  8.099081E+02  3.233944E-10
         3  25 -2.067260E+06 -1.309370E+02 -3.880943E+03 -7.423977E+01  3.054585E+03 -3.664381E-04
         3  26 -2.067164E+06  3.301043E+01 -2.266847E+03 -6.774033E+01  1.932239E+03 -2.115052E-04
         3  27 -2.067259E+06  1.972128E+01 -1.429561E+03 -6.124101E+01  8.099081E+02 -8.014735E-05
         4   1 -2.067231E+06  5.466520E+00 -1.191661E+03  2.842771E+01 -5.734733E+02 -2.634304E-05
         4   2 -2.067198E+06  1.570450E+01 -9.744042E+02  3.365603E+00 -9.231937E+01 -5.010085E-07
         4   3 -2.067231E+06  1.199083E+01 -1.074672E+03 -2.169688E+01  3.888417E+02 -1.363284E-05
         4   4 -2.067231E+06  5.466519E+00 -1.191661E+03  4.555123E-09 -5.734733E+02  5.214421E-11
         4   5 -2.067198E+06  1.570450E+01 -9.744042E+02 -7.753320E-09 -9.231937E+01  7.819143E-10
         4   6 -2.067231E+06  1.199083E+01 -1.074672E+03  4.704811E-09  3.888417E+02 -7.774507E-10
         4   7 -2.067231E+06  5.466520E+00 -1.191661E+03 -2.842771E+01 -5.734733E+02  2.634299E-05
         4   8 -2.067198E+06  1.570450E+01 -9.744042E+02 -3.365603E+00 -9.231937E+01  5.025521E-07
         4   9 -2.067231E+06  1.199083E+01 -1.074672E+03  2.169688E+01  3.888417E+02  1.363117E-05
         4  10 -2.067231E+06  5.466432E+00 -1.191662E+03  2.842771E+01 -7.787526E-10 -2.405760E-11
         4  11 -2.067198E+06  1.570449E+01 -9.744042E+02  3.365603E+00 -9.484424E-10  2.772808E-10
         4  12 -2.067231E+06  1.199079E+01 -1.074672E+03 -2.169688E+01  2.209496E-09 -4.555703E-10
         4  13 -2.067231E+06  5.466430E+00 -1.191662E+03  2.491167E-09 -2.279172E-09  1.353220E-10
         4  14 -2.067198E+06  1.570449E+01 -9.744042E+02 -3.551909E-09 -4.446154E-10  2.295182E-11
         4  15 -2.067231E+06  1.199079E+01 -1.074672E+03 -6.929993E-09 -2.585088E-09 -1.041551E-09
         4  16 -2.067231E+06  5.466432E+00 -1.191662E+03 -2.842771E+01 -1.391222E-09  2.617254E-10
         4  17 -2.067198E+06  1.570449E+01 -9.744042E+02 -3.365603E+00  2.059981E-09 -1.058698E-10
         4  18 -2.067231E+06  1.199079E+01 -1.074672E+03  2.169688E+01 -2.826057E-09 -1.576599E-09
         4  19 -2.067231E+06  5.466520E+00 -1.191661E+03  2.842771E+01  5.734733E+02  2.634307E-05
         4  20 -2.067198E+06  1.570450E+01 -9.744042E+02  3.365603E+00  9.231937E+01  5.016227E-07
         4  21 -2.067231E+06  1.199083E+01 -1.074672E+03 -2.169688E+01 -3.888417E+02  1.363207E-05
         4  22 -2.067231E+06  5.466519E+00 -1.191661E+03  8.993830E-09  5.734733E+02  2.342383E-10
         4  23 -2.067198E+06  1.570450E+01 -9.744042E+02 -5.863661E-09  9.231937E+01 -7.924195E-10
         4  24 -2.067231E+06  1.199083E+01 -1.074672E+03 -2.184019E-09 -3.888417E+02 -1.328774E-09
         4  25 -2.067231E+06  5.466520E+00 -1.191661E+03 -2.842771E+01  5.734733E+02 -2.634295E-05
         4  26 -2.067198E+06  1.570450E+01 -9.744042E+02 -3.365603E+00  9.231937E+01 -5.032321E-07
         4  27 -2.067231E+06  1.199083E+01 -1.074672E+03  2.169688E+01 -3.888417E+02 -1.363457E-05
         5   1 -2.067245E+06  1.159008E+01 -1.245656E+03 -3.157025E+01  5.989842E+02 -3.055786E-05
         5   2 -2.067180E+06  3.034962E+01 -1.897651E+03 -7.694043E+01  1.536242E+03 -1.909983E-04
         5   3 -2.067246E+06  1.232745E+01 -3.170559E+03 -1.223107E+02  2.473499E+03 -4.888636E-04
         5   4 -2.067245E+06  1.159008E+01 -1.245656E+03  1.039787E-09  5.989842E+02 -1.598049E-09
         5   5 -2.067180E+06  3.034961E+01 -1.897651E+03  1.461879E-09  1.536242E+03 -7.519096E-10
         5   6 -2.067246E+06  1.232743E+01 -3.170559E+03  4.317751E-09  2.473499E+03  1.075048E-09
         5   7 -2.067245E+06  1.159008E+01 -1.245656E+03  3.157025E+01  5.989842E+02  3.055463E-05
         5   8 -2.067180E+06  3.034962E+01 -1.897651E+03  7.694043E+01  1.536242E+03  1.909965E-04
         5   9 -2.067246E+06  1.232745E+01 -3.170559E+03  1.223107E+02  2.473499E+03  4.888658E-04
         5  10 -2.067245E+06  1.158999E+01 -1.245657E+03 -3.157025E+01  1.659371E-09 -9.717885E-10
         5  11 -2.067180E+06  3.034899E+01 -1.897655E+03 -7.694043E+01  4.911203E-10 -5.938853E-10
         5  12 -2.067246E+06  1.232580E+01 -3.170571E+03 -1.223107E+02  2.671136E-09  9.392661E-10
         5  13 -2.067245E+06  1.158998E+01 -1.245657E+03 -9.779694E-10 -3.041400E-09 -1.378298E-09
         5  14 -2.067180E+06  3.034898E+01 -1.897655E+03 -6.947243E-09 -1.520699E-09 -6.235475E-10
         5  15 -2.067246E+06  1.232578E+01 -3.170571E+03 -7.544533E-09 -3.964863E-10  5.227981E-10
         5  16 -2.067245E+06  1.158999E+01 -1.245657E+03  3.157025E+01 -6.972004E-10 -1.831371E-09
         5  17 -2.067180E+06  3.034899E+01 -1.897655E+03  7.694043E+01  7.867038E-11 -5.617827E-10
         5  18 -2.067246E+06  1.232580E+01 -3.170571E+03  1.223107E+02 -1.334500E-09  2.025730E-10
         5  19 -2.067245E+06  1.159008E+01 -1.245656E+03 -3.157025E+01 -5.989842E+02  3.055586E-05
         5  20 -2.067180E+06  3.034962E+01 -1.897651E+03 -7.694043E+01 -1.536242E+03  1.909975E-04
         5  21 -2.067246E+06  1.232745E+01 -3.170559E+03 -1.223107E+02 -2.473499E+03  4.888657E-04
         5  22 -2.067245E+06  1.159008E+01 -1.245656E+03 -9.401790E-09 -5.989842E+02 -1.118357E-09
         5  23 -2.067180E+06  3.034961E+01 -1.897651E+03 -1.319581E-08 -1.536242E+03 -5.249209E-10
         5  24 -2.067246E+06  1.232743E+01 -3.170559E+03 -1.402852E-08 -2.473499E+03 -5.420576E-11
         5  25 -2.067245E+06  1.159008E+01 -1.245656E+03  3.157025E+01 -5.989842E+02 -3.055835E-05
         5  26 -2.067180E+06  3.034962E+01 -1.897651E+03  7.694043E+01 -1.536242E+03 -1.909982E-04
         5  27 -2.067246E+06  1.232745E+01 -3.170559E+03  1.223107E+02 -2.473499E+03 -4.888660E-04
         6   1 -2.067352E+06  5.694723E+01 -4.135874E+03 -2.276573E+02  3.131867E+03 -1.152118E-03
         6   2 -2.067051E+06  1.033200E+02 -7.134912E+03 -2.394946E+02  6.665012E+03 -2.579343E-03
         6   3 -2.067357E+06 -4.322700E+02 -1.258536E+04 -2.513319E+02  1.019808E+04 -4.141703E-03
         6   4 -2.067352E+06  5.694713E+01 -4.135874E+03 -5.579214E-08  3.131867E+03  2.438789E-09
         6   5 -2.067051E+06  1.033199E+02 -7.134912E+03 -3.006808E-09  6.665012E+03  2.923721E-09
         6   6 -2.067357E+06 -4.322702E+02 -1.258536E+04  6.378664E-08  1.019808E+04  6.580048E-10
         6   7 -2.067352E+06  5.694723E+01 -4.135874E+03  2.276573E+02  3.131867E+03  1.152122E-03
         6   8 -2.067051E+06  1.033200E+02 -7.134912E+03  2.394946E+02  6.665012E+03  2.579348E-03
         6   9 -2.067357E+06 -4.322700E+02 -1.258536E+04  2.513319E+02  1.019808E+04  4.141704E-03
         6  10 -2.067352E+06  5.694459E+01 -4.135893E+03 -2.276573E+02  1.687587E-08  2.199266E-09
         6  11 -2.067051E+06  1.033080E+02 -7.134996E+03 -2.394946E+02 -1.018005E-09  2.468600E-09
         6  12 -2.067357E+06 -4.322981E+02 -1.258555E+04 -2.513319E+02 -1.696752E-08 -2.375624E-10
         6  13 -2.067352E+06  5.694449E+01 -4.135893E+03  5.091538E-09 -1.195240E-10  1.657682E-09
         6  14 -2.067051E+06  1.033079E+02 -7.134996E+03  7.021841E-11 -7.247560E-10  2.422743E-09
         6  15 -2.067357E+06 -4.322982E+02 -1.258555E+04 -1.193232E-09  2.919940E-09  2.584501E-10
         6  16 -2.067352E+06  5.694459E+01 -4.135893E+03  2.276573E+02 -1.746527E-08  1.200763E-09
         6  17 -2.067051E+06  1.033080E+02 -7.134996E+03  2.394946E+02  3.100481E-10  2.444442E-09
         6  18 -2.067357E+06 -4.322981E+02 -1.258555E+04  2.513319E+02  1.714776E-08  6.071033E-10
         6  19 -2.067352E+06  5.694723E+01 -4.135874E+03 -2.276573E+02 -3.131867E+03  1.152122E-03
         6  20 -2.067051E+06  1.033200E+02 -7.134912E+03 -2.394946E+02 -6.665012E+03  2.579347E-03
         6  21 -2.067357E+06 -4.322700E+02 -1.258536E+04 -2.513319E+02 -1.019808E+04  4.141703E-03
         6  22 -2.067352E+06  5.694713E+01 -4.135874E+03  6.815468E-08 -3.131867E+03  8.963785E-10
         6  23 -2.067051E+06  1.033199E+02 -7.134912E+03  9.591130E-09 -6.665012E+03  1.871435E-09
         6  24 -2.067357E+06 -4.322702E+02 -1.258536E+04 -5.678888E-08 -1.019808E+04 -1.623126E-10
         6  25 -2.067352E+06  5.694723E+01 -4.135874E+03  2.276573E+02 -3.131867E+03 -1.152120E-03
         6  26 -2.067051E+06  1.033200E+02 -7.134912E+03  2.394946E+02 -6.665012E+03 -2.579344E-03
         6  27 -2.067357E+06 -4.322700E+02 -1.258536E+04  2.513319E+02 -1.019808E+04 -4.141703E-03
         7   1 -2.068219E+06  6.144166E+02 -1.644694E+04 -2.060448E+03  1.275177E+04 -4.245662E-02
         7   2 -2.065987E+06  2.153249E+02 -2.854753E+04  8.059363E+02  2.705613E+04  3.523529E-02
         7   3 -2.068244E+06 -1.065541E+04 -5.260073E+04  3.672389E+03  4.136045E+04  2.454403E-01
         7   4 -2.068219E+06  6.144086E+02 -1.644694E+04 -6.976384E-09  1.275177E+04 -2.590429E-10
         7   5 -2.065987E+06  2.153236E+02 -2.854753E+04 -1.113769E-08  2.705613E+04  5.142916E-11
         7   6 -2.068244E+06 -1.065544E+04 -5.260073E+04  8.147228E-11  4.136045E+04 -6.299565E-10
         7   7 -2.068219E+06  6.144166E+02 -1.644694E+04  2.060448E+03  1.275177E+04  4.245662E-02
         7   8 -2.065987E+06  2.153249E+02 -2.854753E+04 -8.059363E+02  2.705613E+04 -3.523529E-02
         7   9 -2.068244E+06 -1.065541E+04 -5.260073E+04 -3.672389E+03  4.136045E+04 -2.454403E-01
         7  10 -2.068219E+06  6.143728E+02 -1.644725E+04 -2.060448E+03 -2.931345E-09 -1.371957E-09
         7  11 -2.065988E+06  2.151275E+02 -2.854891E+04  8.059363E+02 -2.551215E-09 -1.108798E-09
         7  12 -2.068246E+06 -1.065587E+04 -5.260395E+04  3.672389E+03 -2.440803E-09 -3.244496E-10
         7  13 -2.068219E+06  6.143648E+02 -1.644725E+04  1.709988E-09  5.183927E-11 -7.873633E-10
         7  14 -2.065988E+06  2.151263E+02 -2.854891E+04  2.857775E-09 -2.245222E-09 -5.536303E-10
         7  15 -2.068246E+06 -1.065590E+04 -5.260395E+04 -7.285012E-09  4.908935E-11 -6.338011E-10
         7  16 -2.068219E+06  6.143728E+02 -1.644725E+04  2.060448E+03  3.107742E-09 -2.547563E-10
         7  17 -2.065988E+06  2.151275E+02 -2.854891E+04 -8.059363E+02  4.398087E-09 -9.967670E-11
         7  18 -2.068246E+06 -1.065587E+04 -5.260395E+04 -3.672389E+03  9.586826E-10 -9.297257E-10
         7  19 -2.068219E+06  6.144166E+02 -1.644694E+04 -2.060448E+03 -1.275177E+04  4.245661E-02
         7  20 -2.065987E+06  2.153249E+02 -2.854753E+04  8.059363E+02 -2.705613E+04 -3.523530E-02
         7  21 -2.068244E+06 -1.065541E+04 -5.260073E+04  3.672389E+03 -4.136045E+04 -2.454403E-01
         7  22 -2.068219E+06  6.144086E+02 -1.644694E+04  1.471541E-08 -1.275177E+04 -1.346761E-09
         7  23 -2.065987E+06  2.153236E+02 -2.854753E+04  6.115470E-09 -2.705613E+04 -1.176904E-09
         7  24 -2.068244E+06 -1.065544E+04 -5.260073E+04  5.848809E-09 -4.136045E+04 -6.523639E-10
         7  25 -2.068219E+06  6.144166E+02 -1.644694E+04  2.060448E+03 -1.275177E+04 -4.245662E-02
         7  26 -2.065987E+06  2.153249E+02 -2.854753E+04 -8.059363E+02 -2.705613E+04  3.523529E-02
         7  27 -2.068244E+06 -1.065541E+04 -5.260073E+04 -3.672389E+03 -4.136045E+04  2.454403E-01
         8   1 -2.079698E+06  9.687440E+03 -6.639126E+04 -2.936587E+04  5.067274E+04 -2.404568E+00
         8   2 -2.051707E+06 -2.822655E+03 -1.138548E+05  3.625793E+04  1.108511E+05  6.494448E+00
         8   3 -2.079905E+06 -2.085184E+05 -2.488789E+05  1.018776E+05  1.710300E+05  2.815524E+01
         8   4 -2.079699E+06  9.685814E+03 -6.639149E+04 -8.253629E-09  5.067274E+04 -9.585274E-10
         8   5 -2.051708E+06 -2.825133E+03 -1.138552E+05 -3.070797E-10  1.108511E+05 -7.478248E-10
         8   6 -2.079916E+06 -2.085379E+05 -2.488817E+05 -1.730538E-10  1.710300E+05 -2.606657E-10
         8   7 -2.079698E+06  9.687440E+03 -6.639126E+04  2.936587E+04  5.067274E+04  2.404568E+00
         8   8 -2.051707E+06 -2.822655E+03 -1.138548E+05 -3.625793E+04  1.108511E+05 -6.494448E+00
         8   9 -2.079905E+06 -2.085184E+05 -2.488789E+05 -1.018776E+05  1.710300E+05 -2.815524E+01
         8  10 -2.079701E+06  9.686748E+03 -6.639610E+04 -2.936587E+04 -6.216589E-10 -4.800429E-10
         8  11 -2.051720E+06 -2.825967E+03 -1.138780E+05  3.625793E+04 -1.182503E-09 -1.055032E-09
         8  12 -2.079936E+06 -2.085262E+05 -2.489340E+05  1.018776E+05  2.329676E-10 -3.622456E-10
         8  13 -2.079702E+06  9.685122E+03 -6.639633E+04 -3.898756E-09 -3.228028E-09 -6.901147E-10
         8  14 -2.051722E+06 -2.828446E+03 -1.138783E+05  2.984380E-09 -1.522313E-09 -5.695698E-10
         8  15 -2.079947E+06 -2.085458E+05 -2.489368E+05  1.988803E-10 -1.406096E-10 -1.662248E-10
         8  16 -2.079701E+06  9.686748E+03 -6.639610E+04  2.936587E+04 -2.409452E-11 -8.355444E-10
         8  17 -2.051720E+06 -2.825967E+03 -1.138780E+05 -3.625793E+04  1.176478E-09 -2.580013E-10
         8  18 -2.079936E+06 -2.085262E+05 -2.489340E+05 -1.018776E+05 -8.022462E-10  2.818080E-11
         8  19 -2.079698E+06  9.687440E+03 -6.639126E+04 -2.936587E+04 -5.067274E+04  2.404568E+00
         8  20 -2.051707E+06 -2.822655E+03 -1.138548E+05  3.625793E+04 -1.108511E+05 -6.494448E+00
         8  21 -2.079905E+06 -2.085184E+05 -2.488789E+05  1.018776E+05 -1.710300E+05 -2.815524E+01
         8  22 -2.079699E+06  9.685814E+03 -6.639149E+04  2.562111E-09 -5.067274E+04 -4.253639E-10
         8  23 -2.051708E+06 -2.825133E+03 -1.138552E+05 -3.407264E-09 -1.108511E+05 -3.893612E-10
         8  24 -2.079916E+06 -2.085379E+05 -2.488817E+05  3.038860E-10 -1.710300E+05 -5.059008E-11
         8  25 -2.079698E+06  9.687440E+03 -6.639126E+04  2.936587E+04 -5.067274E+04 -2.404568E+00
         8  26 -2.051707E+06 -2.822655E+03 -1.138548E+05 -3.625793E+04 -1.108511E+05  6.494448E+00
         8  27 -2.079905E+06 -2.085184E+05 -2.488789E+05 -1.018776E+05 -1.710300E+05  2.815524E+01
         9   1  1.690940E+06  5.401577E+06  1.658605E+06 -1.055740E+06  7.537904E+04  5.006202E+05
         9   2  1.228653E+06  4.302853E+06  1.123059E+06 -8.553831E+05  2.376728E+05  2.212110E+05
         9   3  9.415552E+05  3.287629E+06  8.127285E+05 -9.243362E+05  2.445639E+05 -5.771718E+04
         9   4  1.942599E+05 -6.585911E+05  2.193585E+05 -9.315539E+05  7.617417E+04  1.528822E+05
         9   5  3.034721E+04 -6.789476E+05  1.037756E+05 -7.971548E+05  2.381830E+05  9.947796E+04
         9   6  3.375760E+03 -6.553263E+05  5.771578E+04 -9.320569E+05  2.442795E+05  4.604014E+04
         9   7 -1.304943E+06 -6.684923E+06 -1.221996E+06 -8.085394E+05  7.683708E+04 -1.915056E+05
         9   8 -1.169496E+06 -5.637225E+06 -9.167695E+05 -7.393700E+05  2.386733E+05 -2.130323E+04
         9   9 -9.357145E+05 -4.583330E+06 -6.979670E+05 -9.397029E+05  2.439914E+05  1.491557E+05
         9  10  1.690867E+06  5.401308E+06  1.658127E+06 -1.055770E+06  2.373366E-10 -1.053875E-09
         9  11  1.228579E+06  4.302786E+06  1.122861E+06 -8.554254E+05  6.307242E-10  8.507931E-10
         9  12  9.414902E+05  3.287609E+06  8.126100E+05 -9.243249E+05 -9.723127E-10  1.862708E-09
         9  13  1.942473E+05 -6.586178E+05  2.193036E+05 -9.315633E+05 -3.141072E-10  5.057938E-11
         9  14  3.028361E+04 -6.789735E+05  1.036502E+05 -7.971740E+05  8.792016E-10  9.529277E-11
         9  15  3.311109E+03 -6.553446E+05  5.759961E+04 -9.320659E+05 -9.122563E-10  1.422080E-10
         9  16 -1.304959E+06 -6.684964E+06 -1.222076E+06 -8.085275E+05  1.805146E-09  1.127844E-09
         9  17 -1.169557E+06 -5.637240E+06 -9.168773E+05 -7.393659E+05  3.424473E-10 -7.625658E-10
         9  18 -9.357845E+05 -4.583370E+06 -6.981212E+05 -9.397324E+05  1.704853E-09 -1.791321E-09
         9  19  1.690940E+06  5.401577E+06  1.658605E+06 -1.055740E+06 -7.537904E+04 -5.006202E+05
         9  20  1.228653E+06  4.302853E+06  1.123059E+06 -8.553831E+05 -2.376728E+05 -2.212110E+05
         9  21  9.415552E+05  3.287629E+06  8.127285E+05 -9.243362E+05 -2.445639E+05  5.771718E+04
         9  22  1.942599E+05 -6.585911E+05  2.193585E+05 -9.315539E+05 -7.617417E+04 -1.528822E+05
         9  23  3.034721E+04 -6.789476E+05  1.037756E+05 -7.971548E+05 -2.381830E+05 -9.947796E+04
         9  24  3.375760E+03 -6.553263E+05  5.771578E+04 -9.320569E+05 -2.442795E+05 -4.604014E+04
         9  25 -1.304943E+06 -6.684923E+06 -1.221996E+06 -8.085394E+05 -7.683708E+04  1.915056E+05
         9  26 -1.169496E+06 -5.637225E+06 -9.167695E+05 -7.393700E+05 -2.386733E+05  2.130323E+04
         9  27 -9.357145E+05 -4.583330E+06 -6.979670E+05 -9.397029E+05 -2.439914E+05 -1.491557E+05
        10   1  7.786130E+05  2.556315E+06  6.587172E+05 -9.457398E+05  2.018276E+05 -3.845266E+04
        10   2  5.191982E+05  1.497843E+06  4.268956E+05 -8.019935E+05  1.449840E+05 -6.065833E+04
        10   3  2.690411E+05  4.441846E+05  2.113473E+05 -9.369185E+05  8.060379E+04 -8.296843E+04
        10   4  1.233331E+04 -6.636587E+05  4.374662E+04 -9.340787E+05  2.015736E+05  3.822906E+04
        10   5  6.166230E+03 -6.638654E+05  2.241402E+04 -7.947327E+05  1.446070E+05  2.690382E+04
        10   6  7.448951E+03 -6.621905E+05  9.869304E+03 -9.341124E+05  8.008829E+04  1.543790E+04
        10   7 -7.545535E+05 -3.873652E+06 -5.716727E+05 -9.224618E+05  2.013216E+05  1.145233E+05
        10   8 -5.071317E+05 -2.821042E+06 -3.822403E+05 -7.874899E+05  1.442311E+05  1.141692E+05
        10   9 -2.542070E+05 -1.767355E+06 -1.916214E+05 -9.313091E+05  7.957308E+04  1.136737E+05
        10  10  7.785689E+05  2.556303E+06  6.586380E+05 -9.457336E+05  8.675667E-11  5.850335E-10
        10  11  5.191747E+05  1.497833E+06  4.268493E+05 -8.019865E+05  2.499059E-11 -2.091577E-09
        10  12  2.690323E+05  4.441755E+05  2.113222E+05 -9.369131E+05 -8.900539E-10 -3.693037E-09
        10  13  1.228928E+04 -6.636711E+05  4.366749E+04 -9.340849E+05  1.959627E-09  1.504368E-10
        10  14  6.143580E+03 -6.638718E+05  2.237335E+04 -7.947358E+05  7.886290E-10 -9.900035E-12
        10  15  7.441999E+03 -6.621924E+05  9.856797E+03 -9.341134E+05 -3.091628E-10 -4.865545E-11
        10  16 -7.546006E+05 -3.873677E+06 -5.717738E+05 -9.224805E+05 -4.448737E-10 -3.302813E-10
        10  17 -5.071576E+05 -2.821062E+06 -3.823041E+05 -7.875032E+05  1.559557E-09  2.017185E-09
        10  18 -2.542173E+05 -1.767370E+06 -1.916577E+05 -9.313164E+05 -1.147676E-09  3.755434E-09
        10  19  7.786130E+05  2.556315E+06  6.587172E+05 -9.457398E+05 -2.018276E+05  3.845266E+04
        10  20  5.191982E+05  1.497843E+06  4.268956E+05 -8.019935E+05 -1.449840E+05  6.065833E+04
        10  21  2.690411E+05  4.441846E+05  2.113473E+05 -9.369185E+05 -8.060379E+04  8.296843E+04
        10  22  1.233331E+04 -6.636587E+05  4.374662E+04 -9.340787E+05 -2.015736E+05 -3.822906E+04
        10  23  6.166230E+03 -6.638654E+05  2.241402E+04 -7.947327E+05 -1.446070E+05 -2.690382E+04
        10  24  7.448951E+03 -6.621905E+05  9.869304E+03 -9.341124E+05 -8.008829E+04 -1.543790E+04
        10  25 -7.545535E+05 -3.873652E+06 -5.716727E+05 -9.224618E+05 -2.013216E+05 -1.145233E+05
        10  26 -5.071317E+05 -2.821042E+06 -3.822403E+05 -7.874899E+05 -1.442311E+05 -1.141692E+05
        10  27 -2.542070E+05 -1.767355E+06 -1.916214E+05 -9.313091E+05 -7.957308E+04 -1.136737E+05
        11   1  9.911333E+04 -2.745773E+05  6.801763E+04 -9.327198E+05  3.703016E+04 -9.167824E+04
        11   2 -1.586818E+05 -1.321309E+06 -1.589202E+05 -7.967815E+05 -1.161199E+04 -1.728997E+04
        11   3 -4.382090E+05 -2.384455E+06 -4.404977E+05 -9.373479E+05 -1.021378E+04  5.713638E+04
        11   4  8.705550E+03 -6.634916E+05  4.975362E+03 -9.335951E+05  3.645726E+04  1.373457E+04
        11   5  4.293227E+03 -6.612487E+05 -4.693446E+03 -7.953943E+05 -1.178523E+04  1.611568E+04
        11   6 -9.259913E+03 -6.639446E+05 -1.891703E+04 -9.336773E+05 -1.001169E+04  1.866128E+04
        11   7 -8.170393E+04 -1.052232E+06 -5.802929E+04 -9.344696E+05  3.588381E+04  1.190836E+05
        11   8  1.672379E+05 -7.831440E+02  1.495079E+05 -7.940048E+05 -1.195821E+04  4.955667E+04
        11   9  4.194704E+05  1.059274E+06  4.024523E+05 -9.299911E+05 -9.810403E+03 -1.992061E+04
        11  10  9.910961E+04 -2.745867E+05  6.799928E+04 -9.327171E+05 -2.491561E-09  2.136563E-09
        11  11 -1.586820E+05 -1.321310E+06 -1.589210E+05 -7.967816E+05  6.763315E-10  9.569971E-10
        11  12 -4.382099E+05 -2.384458E+06 -4.405040E+05 -9.373474E+05  9.789367E-11 -1.082046E-09
        11  13  8.704071E+03 -6.634922E+05  4.972507E+03 -9.335955E+05 -1.567085E-09 -1.173697E-11
        11  14  4.293009E+03 -6.612490E+05 -4.694194E+03 -7.953941E+05 -1.833603E-10  1.360954E-10
        11  15 -9.260114E+03 -6.639450E+05 -1.891787E+04 -9.336772E+05  6.611929E-10  4.039702E-11
        11  16 -8.170914E+04 -1.052247E+06 -5.805843E+04 -9.344730E+05 -9.643057E-11 -1.893780E-09
        11  17  1.672371E+05 -7.858181E+02  1.495030E+05 -7.940043E+05  4.669993E-10 -7.491412E-10
        11  18  4.194702E+05  1.059273E+06  4.024513E+05 -9.299913E+05 -3.388408E-10  1.122114E-09
        11  19  9.911333E+04 -2.745773E+05  6.801763E+04 -9.327198E+05 -3.703016E+04  9.167824E+04
        11  20 -1.586818E+05 -1.321309E+06 -1.589202E+05 -7.967815E+05  1.161199E+04  1.728997E+04
        11  21 -4.382090E+05 -2.384455E+06 -4.404977E+05 -9.373479E+05  1.021378E+04 -5.713638E+04
        11  22  8.705550E+03 -6.634916E+05  4.975362E+03 -9.335951E+05 -3.645726E+04 -1.373457E+04
        11  23  4.293227E+03 -6.612487E+05 -4.693446E+03 -7.953943E+05  1.178523E+04 -1.611568E+04
        11  24 -9.259913E+03 -6.639446E+05 -1.891703E+04 -9.336773E+05  1.001169E+04 -1.866128E+04
        11  25 -8.170393E+04 -1.052232E+06 -5.802929E+04 -9.344696E+05 -3.588381E+04 -1.190836E+05
        11  26  1.672379E+05 -7.831440E+02  1.495079E+05 -7.940048E+05  1.195821E+04 -4.955667E+04
        11  27  4.194704E+05  1.059274E+06  4.024523E+05 -9.299911E+05  9.810403E+03  1.992061E+04
        12   1 -2.715714E+06 -6.997946E+05 -3.021688E+05 -1.052593E+06 -1.837498E+05 -6.810324E+04
        12   2 -2.681679E+06 -4.224104E+05 -1.330799E+05 -1.053751E+06 -1.158521E+05 -4.158332E+04
        12   3 -2.727777E+06 -3.639951E+05 -7.261732E+04 -1.010458E+06 -4.718349E+04 -1.710808E+04
        12   4 -2.725684E+06 -6.023555E+05 -2.850462E+05 -9.510829E+05 -1.819692E+05 -6.747349E+04
        12   5 -2.670187E+06 -3.831394E+05 -1.239353E+05 -1.014448E+06 -1.159209E+05 -4.161735E+04
        12   6 -2.694454E+06 -3.825412E+05 -6.998218E+04 -1.033365E+06 -4.909840E+04 -1.782306E+04
        12   7 -2.735629E+06 -5.048640E+05 -2.679173E+05 -8.495695E+05 -1.801888E+05 -6.684303E+04
        12   8 -2.658692E+06 -3.438614E+05 -1.147899E+05 -9.751424E+05 -1.159896E+05 -4.165139E+04
        12   9 -2.661129E+06 -4.010836E+05 -6.734639E+04 -1.056274E+06 -5.101344E+04 -1.853784E+04
        12  10 -2.715752E+06 -6.998087E+05 -3.022413E+05 -1.052603E+06  6.311629E-11 -1.209858E-10
        12  11 -2.681694E+06 -4.224159E+05 -1.331085E+05 -1.053755E+06 -2.930783E-09 -1.176699E-09
        12  12 -2.727779E+06 -3.639960E+05 -7.262208E+04 -1.010458E+06 -2.380641E-09 -1.477314E-09
        12  13 -2.725721E+06 -6.023693E+05 -2.851173E+05 -9.510928E+05 -2.172819E-09 -2.551597E-10
        12  14 -2.670202E+06 -3.831449E+05 -1.239639E+05 -1.014451E+06 -2.091601E-10 -7.770147E-10
        12  15 -2.694457E+06 -3.825422E+05 -6.998734E+04 -1.033366E+06 -1.700926E-09 -1.042806E-09
        12  16 -2.735665E+06 -5.048776E+05 -2.679871E+05 -8.495793E+05  5.687363E-10 -2.533514E-10
        12  17 -2.658706E+06 -3.438669E+05 -1.148186E+05 -9.751463E+05  1.793702E-09 -1.623816E-10
        12  18 -2.661131E+06 -4.010846E+05 -6.735196E+04 -1.056275E+06  3.087740E-09 -4.334019E-10
        12  19 -2.715714E+06 -6.997946E+05 -3.021688E+05 -1.052593E+06  1.837498E+05  6.810324E+04
        12  20 -2.681679E+06 -4.224104E+05 -1.330799E+05 -1.053751E+06  1.158521E+05  4.158332E+04
        12  21 -2.727777E+06 -3.639951E+05 -7.261732E+04 -1.010458E+06  4.718349E+04  1.710808E+04
        12  22 -2.725684E+06 -6.023555E+05 -2.850462E+05 -9.510829E+05  1.819692E+05  6.747349E+04
        12  23 -2.670187E+06 -3.831394E+05 -1.239353E+05 -1.014448E+06  1.159209E+05  4.161735E+04
        12  24 -2.694454E+06 -3.825412E+05 -6.998218E+04 -1.033365E+06  4.909840E+04  1.782306E+04
        12  25 -2.735629E+06 -5.048640E+05 -2.679173E+05 -8.495695E+05  1.801888E+05  6.684303E+04
        12  26 -2.658692E+06 -3.438614E+05 -1.147899E+05 -9.751424E+05  1.159896E+05  4.165139E+04
        12  27 -2.661129E+06 -4.010836E+05 -6.734639E+04 -1.056274E+06  5.101344E+04  1.853784E+04
        13   1 -2.671309E+06 -4.019959E+05 -5.266640E+04 -1.021097E+06 -3.854100E+04 -1.515231E+04
        13   2 -2.647181E+06 -3.733513E+05 -1.955573E+04 -1.010182E+06 -2.345082E+04 -1.120701E+04
        13   3 -2.621528E+06 -3.653238E+05 -6.562743E+02 -1.005884E+06 -8.326715E+03 -7.348772E+03
        13   4 -2.685508E+06 -4.030042E+05 -5.532139E+04 -1.020565E+06 -3.984487E+04 -1.564151E+04
        13   5 -2.685389E+06 -3.865119E+05 -2.850150E+04 -1.019569E+06 -2.483338E+04 -1.172546E+04
        13   6 -2.683730E+06 -3.906214E+05 -1.582995E+04 -1.025192E+06 -9.788607E+03 -7.896904E+03
        13   7 -2.699706E+06 -4.040124E+05 -5.797637E+04 -1.020032E+06 -4.114871E+04 -1.613072E+04
        13   8 -2.723596E+06 -3.996724E+05 -3.744731E+04 -1.028956E+06 -2.621583E+04 -1.224388E+04
        13   9 -2.745928E+06 -4.159184E+05 -3.100373E+04 -1.044497E+06 -1.125032E+04 -8.444957E+03
        13  10 -2.671310E+06 -4.019965E+05 -5.266964E+04 -1.021098E+06  1.278344E-10 -9.283408E-10
        13  11 -2.647182E+06 -3.733516E+05 -1.955700E+04 -1.010182E+06 -2.711467E-09 -3.173651E-10
        13  12 -2.621528E+06 -3.653238E+05 -6.565070E+02 -1.005884E+06 -2.502835E-09 -1.322359E-10
        13  13 -2.685509E+06 -4.030048E+05 -5.532485E+04 -1.020565E+06  2.863689E-10 -9.610387E-10
        13  14 -2.685390E+06 -3.865122E+05 -2.850293E+04 -1.019569E+06 -1.396501E-09 -7.328764E-10
        13  15 -2.683730E+06 -3.906215E+05 -1.583025E+04 -1.025192E+06 -2.266971E-09 -2.724470E-10
        13  16 -2.699708E+06 -4.040131E+05 -5.798006E+04 -1.020033E+06  1.955658E-09 -8.520522E-10
        13  17 -2.723597E+06 -3.996728E+05 -3.744890E+04 -1.028956E+06  8.696211E-10 -1.072982E-09
        13  18 -2.745928E+06 -4.159185E+05 -3.100410E+04 -1.044497E+06  5.667926E-10 -5.166161E-10
        13  19 -2.671309E+06 -4.019959E+05 -5.266640E+04 -1.021097E+06  3.854100E+04  1.515231E+04
        13  20 -2.647181E+06 -3.733513E+05 -1.955573E+04 -1.010182E+06  2.345082E+04  1.120701E+04
        13  21 -2.621528E+06 -3.653238E+05 -6.562743E+02 -1.005884E+06  8.326715E+03  7.348772E+03
        13  22 -2.685508E+06 -4.030042E+05 -5.532139E+04 -1.020565E+06  3.984487E+04  1.564151E+04
        13  23 -2.685389E+06 -3.865119E+05 -2.850150E+04 -1.019569E+06  2.483338E+04  1.172546E+04
        13  24 -2.683730E+06 -3.906214E+05 -1.582995E+04 -1.025192E+06  9.788607E+03  7.896904E+03
        13  25 -2.699706E+06 -4.040124E+05 -5.797637E+04 -1.020032E+06  4.114871E+04  1.613072E+04
        13  26 -2.723596E+06 -3.996724E+05 -3.744731E+04 -1.028956E+06  2.621583E+04  1.224388E+04
        13  27 -2.745928E+06 -4.159184E+05 -3.100373E+04 -1.044497E+06  1.125032E+04  8.444957E+03
        14   1 -2.597587E+06 -3.598094E+05  8.500096E+03 -1.000830E+06 -5.780059E+03 -7.470141E+03
        14   2 -2.575230E+06 -3.454525E+05  2.006708E+04 -9.892412E+05 -1.893488E+03 -7.827915E+03
        14   3 -2.545616E+06 -3.398321E+05  2.898441E+04 -9.867271E+05  1.990263E+03 -8.177009E+03
        14   4 -2.682985E+06 -3.917002E+05 -1.204291E+04 -1.024346E+06 -7.208144E+03 -8.005689E+03
        14   5 -2.686567E+06 -3.870235E+05 -6.599274E+03 -1.019922E+06 -3.314333E+03 -8.360880E+03
        14   6 -2.682894E+06 -3.910849E+05 -3.810974E+03 -1.024574E+06  5.764995E+02 -8.707444E+03
        14   7 -2.768378E+06 -4.235908E+05 -3.258671E+04 -1.047858E+06 -8.636030E+03 -8.541162E+03
        14   8 -2.797894E+06 -4.285940E+05 -3.326680E+04 -1.050599E+06 -4.734912E+03 -8.893744E+03
        14   9 -2.820155E+06 -4.423367E+05 -3.660796E+04 -1.062414E+06 -8.369316E+02 -9.237754E+03
        14  10 -2.597587E+06 -3.598094E+05  8.499928E+03 -1.000830E+06 -1.005018E-09  1.385938E-10
        14  11 -2.575230E+06 -3.454526E+05  2.006696E+04 -9.892413E+05 -2.158447E-09 -5.115010E-10
        14  12 -2.545616E+06 -3.398322E+05  2.898428E+04 -9.867271E+05 -3.077833E-09 -9.554554E-10
        14  13 -2.682985E+06 -3.917003E+05 -1.204313E+04 -1.024346E+06 -1.224954E-09 -4.937767E-10
        14  14 -2.686567E+06 -3.870236E+05 -6.599426E+03 -1.019922E+06 -1.989401E-09 -7.444471E-10
        14  15 -2.682894E+06 -3.910850E+05 -3.811117E+03 -1.024574E+06 -1.612296E-09 -3.005330E-11
        14  16 -2.768378E+06 -4.235909E+05 -3.258699E+04 -1.047858E+06  1.187757E-09 -1.149842E-09
        14  17 -2.797894E+06 -4.285941E+05 -3.326699E+04 -1.050599E+06 -1.426770E-09 -9.041186E-10
        14  18 -2.820155E+06 -4.423368E+05 -3.660813E+04 -1.062414E+06  1.854142E-09  1.077806E-09
        14  19 -2.597587E+06 -3.598094E+05  8.500096E+03 -1.000830E+06  5.780059E+03  7.470141E+03
        14  20 -2.575230E+06 -3.454525E+05  2.006708E+04 -9.892412E+05  1.893488E+03  7.827915E+03
        14  21 -2.545616E+06 -3.398321E+05  2.898441E+04 -9.867271E+05 -1.990263E+03  8.177009E+03
        14  22 -2.682985E+06 -3.917002E+05 -1.204291E+04 -1.024346E+06  7.208144E+03  8.005689E+03
        14  23 -2.686567E+06 -3.870235E+05 -6.599274E+03 -1.019922E+06  3.314333E+03  8.360880E+03
        14  24 -2.682894E+06 -3.910849E+05 -3.810974E+03 -1.024574E+06 -5.764995E+02  8.707444E+03
        14  25 -2.768378E+06 -4.235908E+05 -3.258671E+04 -1.047858E+06  8.636030E+03  8.541162E+03
        14  26 -2.797894E+06 -4.285940E+05 -3.326680E+04 -1.050599E+06  4.734912E+03  8.893744E+03
        14  27 -2.820155E+06 -4.423367E+05 -3.660796E+04 -1.062414E+06  8.369316E+02  9.237754E+03
        15   1 -2.524309E+06 -3.320093E+05  3.503570E+04 -9.809168E+05  2.881276E+03 -8.886224E+03
        15   2 -2.502837E+06 -3.187569E+05  4.192077E+04 -9.695781E+05  4.475794E+03 -1.006062E+04
        15   3 -2.473771E+06 -3.132972E+05  4.804251E+04 -9.671232E+05  6.063821E+03 -1.121635E+04
        15   4 -2.682851E+06 -3.910810E+05 -3.005224E+03 -1.024456E+06  1.481543E+03 -9.411494E+03
        15   5 -2.686646E+06 -3.871777E+05 -2.065585E+03 -1.020016E+06  3.092393E+03 -1.057995E+04
        15   6 -2.682851E+06 -3.910706E+05 -1.902409E+03 -1.024460E+06  4.696714E+03 -1.172976E+04
        15   7 -2.841366E+06 -4.501504E+05 -4.104755E+04 -1.067984E+06  8.221368E+01 -9.936612E+03
        15   8 -2.870421E+06 -4.555960E+05 -4.605423E+04 -1.070440E+06  1.709443E+03 -1.109912E+04
        15   9 -2.891889E+06 -4.688412E+05 -5.185069E+04 -1.081780E+06  3.330105E+03 -1.224298E+04
        15  10 -2.524309E+06 -3.320094E+05  3.503554E+04 -9.809168E+05 -1.495768E-09 -1.711121E-10
        15  11 -2.502837E+06 -3.187570E+05  4.192054E+04 -9.695780E+05  1.092515E-09  8.608304E-11
        15  12 -2.473771E+06 -3.132974E+05  4.804221E+04 -9.671231E+05 -2.012942E-09  2.218093E-10
        15  13 -2.682851E+06 -3.910811E+05 -3.005394E+03 -1.024456E+06 -2.083831E-09  2.900286E-10
        15  14 -2.686646E+06 -3.871779E+05 -2.065813E+03 -1.020016E+06 -1.902426E-09 -3.380516E-11
        15  15 -2.682851E+06 -3.910708E+05 -1.902709E+03 -1.024460E+06 -2.214961E-09  3.090347E-10
        15  16 -2.841366E+06 -4.501506E+05 -4.104773E+04 -1.067984E+06 -2.676397E-10  6.420858E-10
        15  17 -2.870421E+06 -4.555961E+05 -4.605446E+04 -1.070440E+06  2.806764E-09  1.358933E-10
        15  18 -2.891889E+06 -4.688413E+05 -5.185099E+04 -1.081780E+06 -2.891437E-10  4.989672E-10
        15  19 -2.524309E+06 -3.320093E+05  3.503570E+04 -9.809168E+05 -2.881276E+03  8.886224E+03
        15  20 -2.502837E+06 -3.187569E+05  4.192077E+04 -9.695781E+05 -4.475794E+03  1.006062E+04
        15  21 -2.473771E+06 -3.132972E+05  4.804251E+04 -9.671232E+05 -6.063821E+03  1.121635E+04
        15  22 -2.682851E+06 -3.910810E+05 -3.005224E+03 -1.024456E+06 -1.481543E+03  9.411494E+03
        15  23 -2.686646E+06 -3.871777E+05 -2.065585E+03 -1.020016E+06 -3.092393E+03  1.057995E+04
        15  24 -2.682851E+06 -3.910706E+05 -1.902409E+03 -1.024460E+06 -4.696714E+03  1.172976E+04
        15  25 -2.841366E+06 -4.501504E+05 -4.104755E+04 -1.067984E+06 -8.221368E+01  9.936612E+03
        15  26 -2.870421E+06 -4.555960E+05 -4.605423E+04 -1.070440E+06 -1.709443E+03  1.109912E+04
        15  27 -2.891889E+06 -4.688412E+05 -5.185069E+04 -1.081780E+06 -3.330105E+03  1.224298E+04
        16   1 -2.453404E+06 -3.056013E+05  5.294186E+04 -9.614623E+05  6.705782E+03 -1.198210E+04
        16   2 -2.432815E+06 -2.929206E+05  5.770405E+04 -9.505965E+05  8.732235E+03 -1.292293E+04
        16   3 -2.405019E+06 -2.877451E+05  6.135811E+04 -9.482458E+05  1.074905E+04 -1.383632E+04
        16   4 -2.682939E+06 -3.909998E+05 -2.067708E+03 -1.024382E+06  5.357555E+03 -1.248856E+04
        16   5 -2.686545E+06 -3.872655E+05 -2.994661E+03 -1.020118E+06  7.407850E+03 -1.342069E+04
        16   6 -2.682950E+06 -3.910412E+05 -5.048984E+03 -1.024369E+06  9.448448E+03 -1.432541E+04
        16   7 -2.912420E+06 -4.763941E+05 -5.708077E+04 -1.087281E+06  4.009880E+03 -1.299482E+04
        16   8 -2.940211E+06 -4.816058E+05 -6.369804E+04 -1.089614E+06  6.084056E+03 -1.391824E+04
        16   9 -2.960805E+06 -4.943325E+05 -7.146206E+04 -1.100462E+06  8.148478E+03 -1.481426E+04
        16  10 -2.453404E+06 -3.056015E+05  5.294150E+04 -9.614622E+05 -9.590719E-11  1.179667E-10
        16  11 -2.432815E+06 -2.929208E+05  5.770360E+04 -9.505964E+05  9.876473E-10 -9.860605E-10
        16  12 -2.405019E+06 -2.877454E+05  6.135753E+04 -9.482457E+05 -2.825726E-09 -5.791616E-10
        16  13 -2.682939E+06 -3.910000E+05 -2.068055E+03 -1.024382E+06 -1.871226E-09 -1.945254E-10
        16  14 -2.686545E+06 -3.872657E+05 -2.995102E+03 -1.020118E+06  3.525517E-10 -1.088919E-09
        16  15 -2.682950E+06 -3.910415E+05 -5.049537E+03 -1.024369E+06 -4.846248E-10 -6.809100E-10
        16  16 -2.912420E+06 -4.763943E+05 -5.708112E+04 -1.087281E+06 -6.234891E-10 -4.500581E-10
        16  17 -2.940211E+06 -4.816061E+05 -6.369847E+04 -1.089613E+06 -3.766763E-10 -1.002983E-09
        16  18 -2.960805E+06 -4.943327E+05 -7.146259E+04 -1.100461E+06  1.570637E-09 -3.521990E-10
        16  19 -2.453404E+06 -3.056013E+05  5.294186E+04 -9.614623E+05 -6.705782E+03  1.198210E+04
        16  20 -2.432815E+06 -2.929206E+05  5.770405E+04 -9.505965E+05 -8.732235E+03  1.292293E+04
        16  21 -2.405019E+06 -2.877451E+05  6.135811E+04 -9.482458E+05 -1.074905E+04  1.383632E+04
        16  22 -2.682939E+06 -3.909998E+05 -2.067708E+03 -1.024382E+06 -5.357555E+03  1.248856E+04
        16  23 -2.686545E+06 -3.872655E+05 -2.994661E+03 -1.020118E+06 -7.407850E+03  1.342069E+04
        16  24 -2.682950E+06 -3.910412E+05 -5.048984E+03 -1.024369E+06 -9.448448E+03  1.432541E+04
        16  25 -2.912420E+06 -4.763941E+05 -5.708077E+04 -1.087281E+06 -4.009880E+03  1.299482E+04
        16  26 -2.940211E+06 -4.816058E+05 -6.369804E+04 -1.089614E+06 -6.084056E+03  1.391824E+04
        16  27 -2.960805E+06 -4.943325E+05 -7.146206E+04 -1.100462E+06 -8.148478E+03  1.481426E+04
        17   1 -2.385734E+06 -2.804703E+05  6.459424E+04 -9.431084E+05  1.200804E+04 -1.432151E+04
        17   2 -2.366042E+06 -2.683136E+05  6.472844E+04 -9.326087E+05  1.839835E+04 -1.351936E+04
        17   3 -2.340603E+06 -2.645365E+05  6.014250E+04 -9.299969E+05  2.476721E+04 -1.265788E+04
        17   4 -2.683226E+06 -3.908643E+05 -6.619542E+03 -1.024371E+06  1.072523E+04 -1.480409E+04
        17   5 -2.686183E+06 -3.872407E+05 -1.183873E+04 -1.020216E+06  1.716555E+04 -1.398346E+04
        17   6 -2.683404E+06 -3.920078E+05 -2.181964E+04 -1.023949E+06  2.358417E+04 -1.310356E+04
        17   7 -2.980630E+06 -5.012521E+05 -7.783973E+04 -1.105599E+06  9.443090E+03 -1.528642E+04
        17   8 -3.006221E+06 -5.061603E+05 -8.841308E+04 -1.107781E+06  1.593345E+04 -1.444729E+04
        17   9 -3.026086E+06 -5.194702E+05 -1.037898E+05 -1.117853E+06  2.240185E+04 -1.354898E+04
        17  10 -2.385734E+06 -2.804706E+05  6.459358E+04 -9.431082E+05 -1.392811E-10 -3.552653E-11
        17  11 -2.366043E+06 -2.683139E+05  6.472746E+04 -9.326085E+05  1.500231E-09  8.959966E-11
        17  12 -2.340604E+06 -2.645368E+05  6.014105E+04 -9.299967E+05 -2.005371E-09  1.446422E-09
        17  13 -2.683226E+06 -3.908645E+05 -6.620169E+03 -1.024371E+06 -8.919491E-10 -2.425401E-11
        17  14 -2.686184E+06 -3.872410E+05 -1.183965E+04 -1.020215E+06  2.657459E-10 -2.322970E-11
        17  15 -2.683404E+06 -3.920081E+05 -2.182101E+04 -1.023948E+06  1.438959E-09  4.200523E-10
        17  16 -2.980630E+06 -5.012523E+05 -7.784034E+04 -1.105598E+06  1.826433E-10 -3.070128E-10
        17  17 -3.006221E+06 -5.061606E+05 -8.841395E+04 -1.107781E+06 -1.182641E-09  2.408962E-10
        17  18 -3.026086E+06 -5.194705E+05 -1.037911E+05 -1.117852E+06 -2.319063E-11 -2.792447E-10
        17  19 -2.385734E+06 -2.804703E+05  6.459424E+04 -9.431084E+05 -1.200804E+04  1.432151E+04
        17  20 -2.366042E+06 -2.683136E+05  6.472844E+04 -9.326087E+05 -1.839835E+04  1.351936E+04
        17  21 -2.340603E+06 -2.645365E+05  6.014250E+04 -9.299969E+05 -2.476721E+04  1.265788E+04
        17  22 -2.683226E+06 -3.908643E+05 -6.619542E+03 -1.024371E+06 -1.072523E+04  1.480409E+04
        17  23 -2.686183E+06 -3.872407E+05 -1.183873E+04 -1.020216E+06 -1.716555E+04  1.398346E+04
        17  24 -2.683404E+06 -3.920078E+05 -2.181964E+04 -1.023949E+06 -2.358417E+04  1.310356E+04
        17  25 -2.980630E+06 -5.012521E+05 -7.783973E+04 -1.105599E+06 -9.443090E+03  1.528642E+04
        17  26 -3.006221E+06 -5.061603E+05 -8.841308E+04 -1.107781E+06 -1.593345E+04  1.444729E+04
        17  27 -3.026086E+06 -5.194702E+05 -1.037898E+05 -1.117853E+06 -2.240185E+04  1.354898E+04
        18   1 -2.321261E+06 -2.583679E+05  5.768845E+04 -9.294905E+05  2.925846E+04 -1.192010E+04
        18   2 -2.303556E+06 -2.429030E+05  3.961439E+04 -9.133130E+05  5.542048E+04 -3.404579E+03
        18   3 -2.291136E+06 -2.565237E+05 -3.731028E+03 -8.996588E+05  8.135027E+04  5.731800E+03
        18   4 -2.684922E+06 -3.898801E+05 -2.873162E+04 -1.025296E+06  2.793441E+04 -1.241883E+04
        18   5 -2.683852E+06 -3.865447E+05 -5.182667E+04 -1.019812E+06  5.463606E+04 -3.701050E+03
        18   6 -2.688182E+06 -4.124130E+05 -1.006343E+05 -1.016851E+06  8.110460E+04  5.636859E+03
        18   7 -3.048453E+06 -5.213856E+05 -1.151617E+05 -1.121051E+06  2.661121E+04 -1.291727E+04
        18   8 -3.064004E+06 -5.301754E+05 -1.432786E+05 -1.126250E+06  5.385216E+04 -3.997323E+03
        18   9 -3.085071E+06 -5.682865E+05 -1.975495E+05 -1.133973E+06  8.085908E+04  5.541984E+03
        18  10 -2.321262E+06 -2.583683E+05  5.768657E+04 -9.294902E+05  6.798562E-09  4.760736E-09
        18  11 -2.303559E+06 -2.429038E+05  3.960858E+04 -9.133129E+05  9.474475E-10  1.129504E-09
        18  12 -2.291143E+06 -2.565255E+05 -3.743574E+03 -8.996591E+05 -6.258676E-09 -3.319239E-09
        18  13 -2.684922E+06 -3.898805E+05 -2.873338E+04 -1.025295E+06 -4.338038E-10  9.832740E-10
        18  14 -2.683855E+06 -3.865455E+05 -5.183233E+04 -1.019811E+06  5.584840E-10  1.498175E-09
        18  15 -2.688189E+06 -4.124148E+05 -1.006468E+05 -1.016851E+06 -5.325575E-10 -1.464151E-10
        18  16 -3.048453E+06 -5.213860E+05 -1.151633E+05 -1.121050E+06 -7.439138E-09 -2.731854E-09
        18  17 -3.064007E+06 -5.301762E+05 -1.432841E+05 -1.126250E+06  2.591927E-09  1.677059E-09
        18  18 -3.085078E+06 -5.682883E+05 -1.975619E+05 -1.133973E+06  6.770198E-09  3.708710E-09
        18  19 -2.321261E+06 -2.583679E+05  5.768845E+04 -9.294905E+05 -2.925846E+04  1.192010E+04
        18  20 -2.303556E+06 -2.429030E+05  3.961439E+04 -9.133130E+05 -5.542048E+04  3.404579E+03
        18  21 -2.291136E+06 -2.565237E+05 -3.731028E+03 -8.996588E+05 -8.135027E+04 -5.731800E+03
        18  22 -2.684922E+06 -3.898801E+05 -2.873162E+04 -1.025296E+06 -2.793441E+04  1.241883E+04
        18  23 -2.683852E+06 -3.865447E+05 -5.182667E+04 -1.019812E+06 -5.463606E+04  3.701050E+03
        18  24 -2.688182E+06 -4.124130E+05 -1.006343E+05 -1.016851E+06 -8.110460E+04 -5.636859E+03
        18  25 -3.048453E+06 -5.213856E+05 -1.151617E+05 -1.121051E+06 -2.661121E+04  1.291727E+04
        18  26 -3.064004E+06 -5.301754E+05 -1.432786E+05 -1.126250E+06 -5.385216E+04  3.997323E+03
        18  27 -3.085071E+06 -5.682865E+05 -1.975495E+05 -1.133973E+06 -8.085908E+04 -5.541984E+03
        19   1 -2.243859E+06 -2.598113E+05 -2.699858E+04 -9.715175E+05  1.019089E+05  1.130296E+04
        19   2 -2.264888E+06 -1.706162E+05 -1.188356E+05 -8.374589E+05  2.103808E+05  5.448786E+04
        19   3 -2.437986E+06 -4.671641E+05 -3.963232E+05 -6.116691E+05  3.139590E+05  1.106851E+05
        19   4 -2.704604E+06 -3.750335E+05 -1.273097E+05 -1.039973E+06  9.786754E+04  9.790961E+03
        19   5 -2.655972E+06 -3.806579E+05 -2.254620E+05 -1.010755E+06  2.178883E+05  5.728742E+04
        19   6 -2.761856E+06 -7.745389E+05 -5.185396E+05 -8.897589E+05  3.330244E+05  1.177512E+05
        19   7 -3.165130E+06 -4.902597E+05 -2.276309E+05 -1.108394E+06  9.382947E+04  8.279276E+03
        19   8 -3.046891E+06 -5.906316E+05 -3.321000E+05 -1.183934E+06  2.253905E+05  6.008305E+04
        19   9 -3.085537E+06 -1.081644E+06 -6.407511E+05 -1.167663E+06  3.520792E+05  1.247989E+05
        19  10 -2.243870E+06 -2.598143E+05 -2.701841E+04 -9.715184E+05 -2.180351E-09 -1.156137E-09
        19  11 -2.264937E+06 -1.706313E+05 -1.189247E+05 -8.374682E+05 -1.927953E-09  1.950815E-10
        19  12 -2.438095E+06 -4.672038E+05 -3.965323E+05 -6.116972E+05 -3.765638E-10  3.788851E-11
        19  13 -2.704614E+06 -3.750362E+05 -1.273280E+05 -1.039973E+06  1.219940E-09 -4.339906E-10
        19  14 -2.656024E+06 -3.806742E+05 -2.255579E+05 -1.010765E+06  5.677888E-10 -1.277390E-09
        19  15 -2.761979E+06 -7.745838E+05 -5.187752E+05 -8.897906E+05 -3.439183E-10 -8.556050E-11
        19  16 -3.165139E+06 -4.902622E+05 -2.276476E+05 -1.108394E+06  4.774455E-10  5.896771E-10
        19  17 -3.046947E+06 -5.906492E+05 -3.322028E+05 -1.183945E+06  1.143020E-09 -2.423751E-10
        19  18 -3.085675E+06 -1.081694E+06 -6.410148E+05 -1.167699E+06  7.453920E-10 -8.695709E-11
        19  19 -2.243859E+06 -2.598113E+05 -2.699858E+04 -9.715175E+05 -1.019089E+05 -1.130296E+04
        19  20 -2.264888E+06 -1.706162E+05 -1.188356E+05 -8.374589E+05 -2.103808E+05 -5.448786E+04
        19  21 -2.437986E+06 -4.671641E+05 -3.963232E+05 -6.116691E+05 -3.139590E+05 -1.106851E+05
        19  22 -2.704604E+06 -3.750335E+05 -1.273097E+05 -1.039973E+06 -9.786754E+04 -9.790961E+03
        19  23 -2.655972E+06 -3.806579E+05 -2.254620E+05 -1.010755E+06 -2.178883E+05 -5.728742E+04
        19  24 -2.761856E+06 -7.745389E+05 -5.185396E+05 -8.897589E+05 -3.330244E+05 -1.177512E+05
        19  25 -3.165130E+06 -4.902597E+05 -2.276309E+05 -1.108394E+06 -9.382947E+04 -8.279276E+03
        19  26 -3.046891E+06 -5.906316E+05 -3.321000E+05 -1.183934E+06 -2.253905E+05 -6.008305E+04
        19  27 -3.085537E+06 -1.081644E+06 -6.407511E+05 -1.167663E+06 -3.520792E+05 -1.247989E+05
        20   1 -6.901017E+05  3.338848E+04  3.985735E+04  1.633361E+04  2.741449E+04  7.220254E-01
        20   2 -6.946025E+05  4.587098E+02  1.823928E+04  5.813807E+03  1.777322E+04  1.666166E-01
        20   3 -6.901140E+05 -1.549570E+03  1.063388E+04 -4.705736E+03  8.132081E+03 -6.170457E-02
        20   4 -6.901019E+05  3.338798E+04  3.985728E+04  1.057229E-09  2.741449E+04 -1.797373E-10
        20   5 -6.946026E+05  4.586462E+02  1.823927E+04 -4.399547E-11  1.777322E+04 -1.708872E-10
        20   6 -6.901140E+05 -1.549612E+03  1.063387E+04  4.572452E-10  8.132081E+03  6.026275E-10
        20   7 -6.901017E+05  3.338848E+04  3.985735E+04 -1.633361E+04  2.741449E+04 -7.220254E-01
        20   8 -6.946025E+05  4.587098E+02  1.823928E+04 -5.813807E+03  1.777322E+04 -1.666166E-01
        20   9 -6.901140E+05 -1.549570E+03  1.063388E+04  4.705736E+03  8.132081E+03  6.170457E-02
        20  10 -6.901025E+05  3.338828E+04  3.985594E+04  1.633361E+04  1.454647E-09 -1.648251E-11
        20  11 -6.946029E+05  4.586249E+02  1.823869E+04  5.813807E+03 -9.794849E-10  9.792605E-12
        20  12 -6.901141E+05 -1.549588E+03  1.063375E+04 -4.705736E+03 -8.310362E-10 -2.434399E-11
        20  13 -6.901027E+05  3.338777E+04  3.985587E+04 -1.079322E-09 -9.883596E-10  4.704554E-11
        20  14 -6.946029E+05  4.585613E+02  1.823868E+04  6.412845E-09 -5.299350E-10  1.076011E-10
        20  15 -6.901141E+05 -1.549630E+03  1.063375E+04 -9.580920E-11 -1.347940E-09  2.909839E-12
        20  16 -6.901025E+05  3.338828E+04  3.985594E+04 -1.633361E+04 -1.568250E-09  1.051397E-10
        20  17 -6.946029E+05  4.586249E+02  1.823869E+04 -5.813807E+03 -1.570247E-09  2.354136E-10
        20  18 -6.901141E+05 -1.549588E+03  1.063375E+04  4.705736E+03  1.782084E-09  4.895965E-11
        20  19 -6.901017E+05  3.338848E+04  3.985735E+04  1.633361E+04 -2.741449E+04 -7.220254E-01
        20  20 -6.946025E+05  4.587098E+02  1.823928E+04  5.813807E+03 -1.777322E+04 -1.666166E-01
        20  21 -6.901140E+05 -1.549570E+03  1.063388E+04 -4.705736E+03 -8.132081E+03  6.170457E-02
        20  22 -6.901019E+05  3.338798E+04  3.985728E+04  5.403916E-09 -2.741449E+04  2.677762E-10
        20  23 -6.946026E+05  4.586462E+02  1.823927E+04  4.255305E-09 -1.777322E+04  3.972763E-10
        20  24 -6.901140E+05 -1.549612E+03  1.063387E+04  1.117348E-08 -8.132081E+03 -6.046632E-10
        20  25 -6.901017E+05  3.338848E+04  3.985735E+04 -1.633361E+04 -2.741449E+04  7.220254E-01
        20  26 -6.946025E+05  4.587098E+02  1.823928E+04 -5.813807E+03 -1.777322E+04  1.666166E-01
        20  27 -6.901140E+05 -1.549570E+03  1.063388E+04  4.705736E+03 -8.132081E+03 -6.170457E-02
        21   1 -6.919503E+05  1.704681E+03  8.423124E+03  5.877191E+02  6.638524E+03  6.291161E-03
        21   2 -6.923097E+05 -3.408885E+01  4.567121E+03  1.284047E+02  4.349103E+03  9.004723E-04
        21   3 -6.919518E+05 -9.809187E+01  2.621626E+03 -3.309171E+02  2.059654E+03 -1.099012E-03
        21   4 -6.919503E+05  1.704680E+03  8.423124E+03 -2.871872E-09  6.638524E+03  7.268838E-10
        21   5 -6.923097E+05 -3.408888E+01  4.567121E+03 -4.561814E-09  4.349103E+03  2.297220E-10
        21   6 -6.919518E+05 -9.809207E+01  2.621626E+03 -3.818735E-09  2.059654E+03  4.139257E-10
        21   7 -6.919503E+05  1.704681E+03  8.423124E+03 -5.877191E+02  6.638524E+03 -6.291160E-03
        21   8 -6.923097E+05 -3.408885E+01  4.567121E+03 -1.284047E+02  4.349103E+03 -9.004719E-04
        21   9 -6.919518E+05 -9.809187E+01  2.621626E+03  3.309171E+02  2.059654E+03  1.099013E-03
        21  10 -6.919504E+05  1.704669E+03  8.423041E+03  5.877191E+02 -8.269560E-10  1.568854E-10
        21  11 -6.923097E+05 -3.409393E+01  4.567085E+03  1.284047E+02 -2.978315E-10  3.777486E-10
        21  12 -6.919518E+05 -9.809301E+01  2.621618E+03 -3.309171E+02  2.232485E-09 -1.050791E-10
        21  13 -6.919504E+05  1.704668E+03  8.423041E+03 -2.809859E-09 -2.002849E-09  5.732579E-11
        21  14 -6.923097E+05 -3.409397E+01  4.567085E+03 -7.794984E-09 -2.589800E-10  1.974114E-10
        21  15 -6.919518E+05 -9.809321E+01  2.621618E+03 -9.018074E-09 -1.288139E-09  1.156556E-11
        21  16 -6.919504E+05  1.704669E+03  8.423041E+03 -5.877191E+02 -2.581337E-10 -2.524746E-11
        21  17 -6.923097E+05 -3.409393E+01  4.567085E+03 -1.284047E+02 -5.921847E-10 -1.613985E-11
        21  18 -6.919518E+05 -9.809301E+01  2.621618E+03  3.309171E+02 -1.707339E-09  1.739093E-10
        21  19 -6.919503E+05  1.704681E+03  8.423124E+03  5.877191E+02 -6.638524E+03 -6.291161E-03
        21  20 -6.923097E+05 -3.408885E+01  4.567121E+03  1.284047E+02 -4.349103E+03 -9.004714E-04
        21  21 -6.919518E+05 -9.809187E+01  2.621626E+03 -3.309171E+02 -2.059654E+03  1.099012E-03
        21  22 -6.919503E+05  1.704680E+03  8.423124E+03  8.020982E-09 -6.638524E+03 -6.030422E-10
        21  23 -6.923097E+05 -3.408888E+01  4.567121E+03 -1.318465E-08 -4.349103E+03  1.732350E-10
        21  24 -6.919518E+05 -9.809207E+01  2.621626E+03 -1.232588E-08 -2.059654E+03 -3.940791E-10
        21  25 -6.919503E+05  1.704681E+03  8.423124E+03 -5.877191E+02 -6.638524E+03  6.291159E-03
        21  26 -6.923097E+05 -3.408885E+01  4.567121E+03 -1.284047E+02 -4.349103E+03  9.004717E-04
        21  27 -6.919518E+05 -9.809187E+01  2.621626E+03  3.309171E+02 -2.059654E+03 -1.099013E-03
        22   1 -6.920900E+05  6.919371E+01  1.997722E+03 -4.124264E+01  1.652959E+03 -1.099253E-04
        22   2 -6.921376E+05 -1.597926E+01  1.109113E+03 -4.030879E+01  1.103426E+03 -7.171914E-05
        22   3 -6.920903E+05 -8.263313E+00  6.017969E+02 -3.937494E+01  5.538942E+02 -3.516659E-05
        22   4 -6.920900E+05  6.919370E+01  1.997722E+03  2.274228E-09  1.652959E+03  3.980872E-10
        22   5 -6.921376E+05 -1.597926E+01  1.109113E+03 -1.527915E-09  1.103426E+03 -1.247583E-11
        22   6 -6.920903E+05 -8.263316E+00  6.017969E+02  5.170661E-09  5.538942E+02  2.453738E-11
        22   7 -6.920900E+05  6.919371E+01  1.997722E+03  4.124264E+01  1.652959E+03  1.099262E-04
        22   8 -6.921376E+05 -1.597926E+01  1.109113E+03  4.030879E+01  1.103426E+03  7.171901E-05
        22   9 -6.920903E+05 -8.263313E+00  6.017969E+02  3.937494E+01  5.538942E+02  3.516672E-05
        22  10 -6.920900E+05  6.919297E+01  1.997717E+03 -4.124264E+01 -5.635678E-10 -3.853691E-10
        22  11 -6.921376E+05 -1.597958E+01  1.109111E+03 -4.030879E+01 -6.839510E-10 -2.655629E-10
        22  12 -6.920903E+05 -8.263395E+00  6.017963E+02 -3.937494E+01 -8.990638E-10 -3.397354E-10
        22  13 -6.920900E+05  6.919297E+01  1.997717E+03  2.627864E-10 -1.068266E-09  1.154164E-10
        22  14 -6.921376E+05 -1.597959E+01  1.109111E+03  2.685226E-09 -8.889806E-10  1.760332E-10
        22  15 -6.920903E+05 -8.263398E+00  6.017963E+02  8.051778E-10 -8.156520E-10 -7.634233E-10
        22  16 -6.920900E+05  6.919297E+01  1.997717E+03  4.124264E+01 -1.061705E-09  5.336471E-10
        22  17 -6.921376E+05 -1.597958E+01  1.109111E+03  4.030879E+01 -4.011330E-10  5.679054E-10
        22  18 -6.920903E+05 -8.263395E+00  6.017963E+02  3.937494E+01 -5.171646E-10 -1.175232E-09
        22  19 -6.920900E+05  6.919371E+01  1.997722E+03 -4.124264E+01 -1.652959E+03  1.099247E-04
        22  20 -6.921376E+05 -1.597926E+01  1.109113E+03 -4.030879E+01 -1.103426E+03  7.171868E-05
        22  21 -6.920903E+05 -8.263313E+00  6.017969E+02 -3.937494E+01 -5.538942E+02  3.516583E-05
        22  22 -6.920900E+05  6.919370E+01  1.997722E+03 -3.912513E-09 -1.652959E+03 -1.872217E-10
        22  23 -6.921376E+05 -1.597926E+01  1.109113E+03 -3.875724E-09 -1.103426E+03  4.031132E-10
        22  24 -6.920903E+05 -8.263316E+00  6.017969E+02  6.928854E-09 -5.538942E+02 -1.575313E-09
        22  25 -6.920900E+05  6.919371E+01  1.997722E+03  4.124264E+01 -1.652959E+03 -1.099250E-04
        22  26 -6.921376E+05 -1.597926E+01  1.109113E+03  4.030879E+01 -1.103426E+03 -7.171795E-05
        22  27 -6.920903E+05 -8.263313E+00  6.017969E+02  3.937494E+01 -5.538942E+02 -3.516908E-05
        23   1 -6.921088E+05 -1.381287E+00  4.271448E+02 -2.278897E+01  4.611464E+02 -1.694542E-05
        23   2 -6.921147E+05 -2.553109E+00  1.623974E+02 -1.953091E+01  3.808629E+02 -1.199571E-05
        23   3 -6.921089E+05  1.166753E+00 -4.881778E+01 -1.627289E+01  3.005806E+02 -7.886114E-06
        23   4 -6.921088E+05 -1.381288E+00  4.271448E+02  8.832329E-09  4.611464E+02 -3.198262E-10
        23   5 -6.921147E+05 -2.553110E+00  1.623974E+02  3.249843E-09  3.808629E+02 -7.429036E-10
        23   6 -6.921089E+05  1.166753E+00 -4.881778E+01  3.061238E-09  3.005806E+02  6.130703E-10
        23   7 -6.921088E+05 -1.381287E+00  4.271448E+02  2.278897E+01  4.611464E+02  1.694484E-05
        23   8 -6.921147E+05 -2.553109E+00  1.623974E+02  1.953091E+01  3.808629E+02  1.199413E-05
        23   9 -6.921089E+05  1.166753E+00 -4.881778E+01  1.627289E+01  3.005806E+02  7.887304E-06
        23  10 -6.921088E+05 -1.381344E+00  4.271444E+02 -2.278897E+01 -9.843960E-10 -6.008833E-10
        23  11 -6.921147E+05 -2.553148E+00  1.623971E+02 -1.953091E+01 -2.084003E-09 -3.859024E-10
        23  12 -6.921089E+05  1.166729E+00 -4.881795E+01 -1.627289E+01 -7.022598E-10  1.052318E-09
        23  13 -6.921088E+05 -1.381345E+00  4.271444E+02  2.624562E-09 -1.201767E-09 -8.923171E-10
        23  14 -6.921147E+05 -2.553149E+00  1.623971E+02  4.515724E-09 -9.515825E-10  1.044259E-10
        23  15 -6.921089E+05  1.166728E+00 -4.881795E+01  3.168455E-09 -1.266576E-09  8.056904E-10
        23  16 -6.921088E+05 -1.381344E+00  4.271444E+02  2.278897E+01  2.160935E-09 -1.202651E-09
        23  17 -6.921147E+05 -2.553148E+00  1.623971E+02  1.953091E+01 -2.134215E-10  5.747204E-10
        23  18 -6.921089E+05  1.166729E+00 -4.881795E+01  1.627289E+01 -1.085903E-09  5.531386E-10
        23  19 -6.921088E+05 -1.381287E+00  4.271448E+02 -2.278897E+01 -4.611464E+02  1.694421E-05
        23  20 -6.921147E+05 -2.553109E+00  1.623974E+02 -1.953091E+01 -3.808629E+02  1.199506E-05
        23  21 -6.921089E+05  1.166753E+00 -4.881778E+01 -1.627289E+01 -3.005806E+02  7.888334E-06
        23  22 -6.921088E+05 -1.381288E+00  4.271448E+02  1.150915E-08 -4.611464E+02 -1.471042E-09
        23  23 -6.921147E+05 -2.553110E+00  1.623974E+02 -4.978828E-09 -3.808629E+02  9.724100E-10
        23  24 -6.921089E+05  1.166753E+00 -4.881778E+01  3.569016E-09 -3.005806E+02  1.020840E-09
        23  25 -6.921088E+05 -1.381287E+00  4.271448E+02  2.278897E+01 -4.611464E+02 -1.694730E-05
        23  26 -6.921147E+05 -2.553109E+00  1.623974E+02  1.953091E+01 -3.808629E+02 -1.199312E-05
        23  27 -6.921089E+05  1.166753E+00 -4.881778E+01  1.627289E+01 -3.005806E+02 -7.886284E-06
        24   1 -6.921180E+05  9.155865E-01 -1.559184E+02 -1.714398E+01  3.191458E+02 -8.820701E-06
        24   2 -6.921035E+05  6.615339E+00 -4.157605E+02 -2.662247E+01  5.246164E+02 -2.252007E-05
        24   3 -6.921181E+05  2.964796E+00 -8.118197E+02 -3.610111E+01  7.300899E+02 -4.250101E-05
        24   4 -6.921180E+05  9.155860E-01 -1.559184E+02  3.946003E-09  3.191458E+02  1.181841E-09
        24   5 -6.921035E+05  6.615338E+00 -4.157605E+02 -7.705953E-09  5.246164E+02  3.240406E-10
        24   6 -6.921181E+05  2.964794E+00 -8.118197E+02 -2.674718E-09  7.300899E+02 -1.308637E-09
        24   7 -6.921180E+05  9.155865E-01 -1.559184E+02  1.714398E+01  3.191458E+02  8.823115E-06
        24   8 -6.921035E+05  6.615339E+00 -4.157605E+02  2.662247E+01  5.246164E+02  2.252062E-05
        24   9 -6.921181E+05  2.964796E+00 -8.118197E+02  3.610111E+01  7.300899E+02  4.249840E-05
        24  10 -6.921180E+05  9.155591E-01 -1.559186E+02 -1.714398E+01  6.357015E-10  1.194667E-09
        24  11 -6.921035E+05  6.615265E+00 -4.157610E+02 -2.662247E+01 -1.102765E-09 -1.081013E-10
        24  12 -6.921181E+05  2.964653E+00 -8.118207E+02 -3.610111E+01 -1.142524E-09 -5.538478E-10
        24  13 -6.921180E+05  9.155585E-01 -1.559186E+02  3.681114E-09 -2.178575E-09  5.794139E-10
        24  14 -6.921035E+05  6.615264E+00 -4.157610E+02 -1.106947E-08 -3.964370E-09 -3.415059E-10
        24  15 -6.921181E+05  2.964650E+00 -8.118207E+02 -9.663640E-09 -3.160260E-09 -5.976769E-10
        24  16 -6.921180E+05  9.155591E-01 -1.559186E+02  1.714398E+01 -1.599921E-09  2.230427E-11
        24  17 -6.921035E+05  6.615265E+00 -4.157610E+02  2.662247E+01 -1.194681E-09 -5.120907E-10
        24  18 -6.921181E+05  2.964653E+00 -8.118207E+02  3.610111E+01 -1.313075E-09 -6.593734E-10
        24  19 -6.921180E+05  9.155865E-01 -1.559184E+02 -1.714398E+01 -3.191458E+02  8.822980E-06
        24  20 -6.921035E+05  6.615339E+00 -4.157605E+02 -2.662247E+01 -5.246164E+02  2.251984E-05
        24  21 -6.921181E+05  2.964796E+00 -8.118197E+02 -3.610111E+01 -7.300899E+02  4.249993E-05
        24  22 -6.921180E+05  9.155859E-01 -1.559184E+02  1.199493E-08 -3.191458E+02 -3.279685E-11
        24  23 -6.921035E+05  6.615338E+00 -4.157605E+02 -4.383276E-10 -5.246164E+02 -9.790423E-10
        24  24 -6.921181E+05  2.964794E+00 -8.118197E+02 -4.818606E-09 -7.300899E+02  1.169856E-10
        24  25 -6.921180E+05  9.155865E-01 -1.559184E+02  1.714398E+01 -3.191458E+02 -8.823200E-06
        24  26 -6.921035E+05  6.615339E+00 -4.157605E+02  2.662247E+01 -5.246164E+02 -2.252176E-05
        24  27 -6.921181E+05  2.964796E+00 -8.118197E+02  3.610111E+01 -7.300899E+02 -4.249970E-05
        25   1 -6.921483E+05  1.501748E+01 -1.092510E+03 -6.484896E+01  9.018319E+02 -9.430231E-05
        25   2 -6.920660E+05  2.798617E+01 -1.937790E+03 -6.745037E+01  1.861900E+03 -2.025017E-04
        25   3 -6.921488E+05 -1.186311E+02 -3.448530E+03 -7.005179E+01  2.821967E+03 -3.187565E-04
        25   4 -6.921483E+05  1.501747E+01 -1.092510E+03  5.105718E-09  9.018319E+02 -1.161406E-09
        25   5 -6.920660E+05  2.798616E+01 -1.937790E+03  3.567743E-09  1.861900E+03  5.160225E-10
        25   6 -6.921488E+05 -1.186311E+02 -3.448530E+03  3.102238E-09  2.821967E+03  7.218619E-10
        25   7 -6.921483E+05  1.501748E+01 -1.092510E+03  6.484896E+01  9.018319E+02  9.430009E-05
        25   8 -6.920660E+05  2.798617E+01 -1.937790E+03  6.745037E+01  1.861900E+03  2.025026E-04
        25   9 -6.921488E+05 -1.186311E+02 -3.448530E+03  7.005179E+01  2.821967E+03  3.187579E-04
        25  10 -6.921483E+05  1.501726E+01 -1.092512E+03 -6.484896E+01 -1.933929E-09 -1.652782E-11
        25  11 -6.920660E+05  2.798524E+01 -1.937797E+03 -6.745037E+01  1.339015E-09  6.390238E-10
        25  12 -6.921488E+05 -1.186332E+02 -3.448545E+03 -7.005179E+01 -6.608779E-10 -5.099131E-12
        25  13 -6.921483E+05  1.501725E+01 -1.092512E+03 -3.208100E-09 -3.071374E-09 -1.020306E-10
        25  14 -6.920660E+05  2.798523E+01 -1.937797E+03 -2.899664E-09 -1.250076E-10  5.700908E-10
        25  15 -6.921488E+05 -1.186333E+02 -3.448545E+03  9.205076E-11 -1.826553E-09 -1.579623E-10
        25  16 -6.921483E+05  1.501726E+01 -1.092512E+03  6.484896E+01 -1.350749E-09 -1.221908E-10
        25  17 -6.920660E+05  2.798524E+01 -1.937797E+03  6.745037E+01 -2.434840E-09  5.128538E-10
        25  18 -6.921488E+05 -1.186332E+02 -3.448545E+03  7.005179E+01  2.282465E-10 -2.822140E-10
        25  19 -6.921483E+05  1.501748E+01 -1.092510E+03 -6.484896E+01 -9.018319E+02  9.430237E-05
        25  20 -6.920660E+05  2.798617E+01 -1.937790E+03 -6.745037E+01 -1.861900E+03  2.025031E-04
        25  21 -6.921488E+05 -1.186311E+02 -3.448530E+03 -7.005179E+01 -2.821967E+03  3.187566E-04
        25  22 -6.921483E+05  1.501747E+01 -1.092510E+03 -2.896961E-09 -9.018319E+02  9.605700E-10
        25  23 -6.920660E+05  2.798616E+01 -1.937790E+03 -3.982647E-09 -1.861900E+03  6.159678E-10
        25  24 -6.921488E+05 -1.186311E+02 -3.448530E+03  1.321938E-08 -2.821967E+03 -1.049376E-09
        25  25 -6.921483E+05  1.501748E+01 -1.092510E+03  6.484896E+01 -9.018319E+02 -9.430047E-05
        25  26 -6.920660E+05  2.798617E+01 -1.937790E+03  6.745037E+01 -1.861900E+03 -2.025018E-04
        25  27 -6.921488E+05 -1.186311E+02 -3.448530E+03  7.005179E+01 -2.821967E+03 -3.187586E-04
        26   1 -6.923857E+05  1.685952E+02 -4.514669E+03 -5.673416E+02  3.523152E+03 -3.223037E-03
        26   2 -6.917711E+05  5.865814E+01 -7.847553E+03  2.208614E+02  7.457100E+03  2.655696E-03
        26   3 -6.923881E+05 -2.926101E+03 -1.446237E+04  1.009055E+03  1.139097E+04  1.853379E-02
        26   4 -6.923857E+05  1.685946E+02 -4.514669E+03 -1.006550E-09  3.523152E+03 -1.678631E-10
        26   5 -6.917711E+05  5.865805E+01 -7.847553E+03 -1.980223E-09  7.457100E+03 -1.251254E-09
        26   6 -6.923881E+05 -2.926102E+03 -1.446237E+04  5.656385E-09  1.139097E+04 -2.987573E-10
        26   7 -6.923857E+05  1.685952E+02 -4.514669E+03  5.673416E+02  3.523152E+03  3.223037E-03
        26   8 -6.917711E+05  5.865814E+01 -7.847553E+03 -2.208614E+02  7.457100E+03 -2.655699E-03
        26   9 -6.923881E+05 -2.926101E+03 -1.446237E+04 -1.009055E+03  1.139097E+04 -1.853380E-02
        26  10 -6.923857E+05  1.685919E+02 -4.514692E+03 -5.673416E+02 -1.832038E-09 -5.101010E-10
        26  11 -6.917711E+05  5.864319E+01 -7.847657E+03  2.208614E+02 -1.244506E-09 -2.625041E-10
        26  12 -6.923882E+05 -2.926135E+03 -1.446261E+04  1.009055E+03 -1.191896E-09  9.025075E-10
        26  13 -6.923857E+05  1.685913E+02 -4.514692E+03  1.223536E-09 -1.043033E-09 -5.393668E-10
        26  14 -6.917711E+05  5.864310E+01 -7.847657E+03 -7.700418E-10 -8.271850E-10 -9.408407E-11
        26  15 -6.923882E+05 -2.926137E+03 -1.446261E+04  1.006853E-09 -1.067028E-09  6.110143E-10
        26  16 -6.923857E+05  1.685919E+02 -4.514692E+03  5.673416E+02  7.974137E-10 -5.584288E-10
        26  17 -6.917711E+05  5.864319E+01 -7.847657E+03 -2.208614E+02  1.833710E-09  5.885140E-11
        26  18 -6.923882E+05 -2.926135E+03 -1.446261E+04 -1.009055E+03  1.550639E-09  2.689866E-10
        26  19 -6.923857E+05  1.685952E+02 -4.514669E+03 -5.673416E+02 -3.523152E+03  3.223036E-03
        26  20 -6.917711E+05  5.865814E+01 -7.847553E+03  2.208614E+02 -7.457100E+03 -2.655697E-03
        26  21 -6.923881E+05 -2.926101E+03 -1.446237E+04  1.009055E+03 -1.139097E+04 -1.853379E-02
        26  22 -6.923857E+05  1.685946E+02 -4.514669E+03  9.909475E-09 -3.523152E+03 -9.015619E-10
        26  23 -6.917711E+05  5.865805E+01 -7.847553E+03 -1.716383E-09 -7.457100E+03  1.078982E-09
        26  24 -6.923881E+05 -2.926102E+03 -1.446237E+04  3.610161E-09 -1.139097E+04  1.509455E-09
        26  25 -6.923857E+05  1.685952E+02 -4.514669E+03  5.673416E+02 -3.523152E+03 -3.223038E-03
        26  26 -6.917711E+05  5.865814E+01 -7.847553E+03 -2.208614E+02 -7.457100E+03  2.655699E-03
        26  27 -6.923881E+05 -2.926101E+03 -1.446237E+04 -1.009055E+03 -1.139097E+04  1.853380E-02
        27   1 -6.955398E+05  2.660196E+03 -1.825543E+04 -8.077334E+03  1.395510E+04 -1.817574E-01
        27   2 -6.878350E+05 -7.870618E+02 -3.130583E+04  9.979879E+03  3.050530E+04  4.908920E-01
        27   3 -6.955590E+05 -5.730840E+04 -6.840755E+04  2.803705E+04  4.705579E+04  2.127322E+00
        27   4 -6.955398E+05  2.660073E+03 -1.825545E+04  4.434974E-09  1.395510E+04  2.521944E-10
        27   5 -6.878351E+05 -7.872491E+02 -3.130586E+04 -2.844289E-09  3.050530E+04  2.637149E-11
        27   6 -6.955598E+05 -5.730988E+04 -6.840776E+04  3.877461E-09  4.705579E+04 -7.998069E-11
        27   7 -6.955398E+05  2.660196E+03 -1.825543E+04  8.077334E+03  1.395510E+04  1.817574E-01
        27   8 -6.878350E+05 -7.870618E+02 -3.130583E+04 -9.979879E+03  3.050530E+04 -4.908920E-01
        27   9 -6.955590E+05 -5.730840E+04 -6.840755E+04 -2.803705E+04  4.705579E+04 -2.127322E+00
        27  10 -6.955400E+05  2.660143E+03 -1.825580E+04 -8.077334E+03 -7.298445E-10  7.324080E-10
        27  11 -6.878360E+05 -7.873119E+02 -3.130758E+04  9.979879E+03  6.299527E-10 -6.610603E-10
        27  12 -6.955614E+05 -5.730900E+04 -6.841172E+04  2.803705E+04 -1.023730E-10 -3.978999E-10
        27  13 -6.955400E+05  2.660020E+03 -1.825582E+04  4.184797E-09 -2.374380E-09  5.103497E-10
        27  14 -6.878361E+05 -7.874993E+02 -3.130761E+04 -1.842233E-09 -3.694449E-10 -1.926211E-10
        27  15 -6.955622E+05 -5.731048E+04 -6.841193E+04  1.835581E-09 -1.424363E-09 -1.501248E-10
        27  16 -6.955400E+05  2.660143E+03 -1.825580E+04  8.077334E+03 -5.357406E-10  2.849117E-10
        27  17 -6.878360E+05 -7.873119E+02 -3.130758E+04 -9.979879E+03 -9.299094E-10  2.557272E-10
        27  18 -6.955614E+05 -5.730900E+04 -6.841172E+04 -2.803705E+04 -9.913372E-10  9.911128E-11
        27  19 -6.955398E+05  2.660196E+03 -1.825543E+04 -8.077334E+03 -1.395510E+04  1.817574E-01
        27  20 -6.878350E+05 -7.870618E+02 -3.130583E+04  9.979879E+03 -3.050530E+04 -4.908920E-01
        27  21 -6.955590E+05 -5.730840E+04 -6.840755E+04  2.803705E+04 -4.705579E+04 -2.127322E+00
        27  22 -6.955398E+05  2.660073E+03 -1.825545E+04  3.932512E-09 -1.395510E+04  7.711907E-10
        27  23 -6.878351E+05 -7.872491E+02 -3.130586E+04 -2.993544E-09 -3.050530E+04 -4.090325E-10
        27  24 -6.955598E+05 -5.730988E+04 -6.840776E+04  4.351610E-09 -4.705579E+04 -2.301810E-10
        27  25 -6.955398E+05  2.660196E+03 -1.825543E+04  8.077334E+03 -1.395510E+04 -1.817574E-01
        27  26 -6.878350E+05 -7.870618E+02 -3.130583E+04 -9.979879E+03 -3.050530E+04  4.908920E-01
        27  27 -6.955590E+05 -5.730840E+04 -6.840755E+04 -2.803705E+04 -4.705579E+04  2.127322E+00
        28   1  6.539316E+05  2.196204E+06  6.946170E+05 -2.902445E+05  1.988066E+04  2.657743E+05
        28   2  3.332136E+05  1.910907E+06  4.445745E+05 -1.619397E+05  6.096458E+04  1.475815E+05
        28   3  2.579795E+05  1.702738E+06  3.327601E+05 -1.287404E+05  5.902661E+04  2.942721E+04
        28   4  2.564361E+05  5.939959E+05  3.072369E+05 -1.635273E+05  1.996284E+04  2.052937E+05
        28   5  3.295765E+03  5.591032E+05  1.452952E+05 -1.160771E+05  6.100002E+04  1.286781E+05
        28   6 -1.128342E+04  5.942585E+05  9.295809E+04 -1.637067E+05  5.900401E+04  5.204846E+04
        28   7 -1.411851E+05 -1.005830E+06 -8.030525E+04 -3.713676E+04  2.002056E+04  1.449678E+05
        28   8 -3.267372E+05 -7.909933E+05 -1.540946E+05 -7.031465E+04  6.103273E+04  1.098152E+05
        28   9 -2.806224E+05 -5.130661E+05 -1.469141E+05 -1.986094E+05  5.897885E+04  7.462989E+04
        28  10  6.539123E+05  2.196128E+06  6.944840E+05 -2.902488E+05 -9.976813E-12  3.212187E-09
        28  11  3.332038E+05  1.910883E+06  4.445267E+05 -1.619470E+05 -1.344066E-09 -7.595106E-09
        28  12  2.579756E+05  1.702736E+06  3.327519E+05 -1.287418E+05  9.298699E-10 -1.534120E-08
        28  13  2.564244E+05  5.939506E+05  3.071570E+05 -1.635306E+05  5.054736E-10 -3.757822E-11
        28  14  3.287327E+03  5.590844E+05  1.452572E+05 -1.160834E+05  1.305692E-09 -8.638332E-13
        28  15 -1.128789E+04  5.942547E+05  9.294646E+04 -1.637092E+05  4.118025E-09 -3.948717E-10
        28  16 -1.411912E+05 -1.005853E+06 -8.034556E+04 -3.713909E+04 -1.101755E-09 -3.152590E-09
        28  17 -3.267445E+05 -7.910073E+05 -1.541243E+05 -7.032005E+04  3.759154E-09  7.634462E-09
        28  18 -2.806276E+05 -5.130730E+05 -1.469311E+05 -1.986129E+05  1.853284E-09  1.551299E-08
        28  19  6.539316E+05  2.196204E+06  6.946170E+05 -2.902445E+05 -1.988066E+04 -2.657743E+05
        28  20  3.332136E+05  1.910907E+06  4.445745E+05 -1.619397E+05 -6.096458E+04 -1.475815E+05
        28  21  2.579795E+05  1.702738E+06  3.327601E+05 -1.287404E+05 -5.902661E+04 -2.942721E+04
        28  22  2.564361E+05  5.939959E+05  3.072369E+05 -1.635273E+05 -1.996284E+04 -2.052937E+05
        28  23  3.295765E+03  5.591032E+05  1.452952E+05 -1.160771E+05 -6.100002E+04 -1.286781E+05
        28  24 -1.128342E+04  5.942585E+05  9.295809E+04 -1.637067E+05 -5.900401E+04 -5.204846E+04
        28  25 -1.411851E+05 -1.005830E+06 -8.030525E+04 -3.713676E+04 -2.002056E+04 -1.449678E+05
        28  26 -3.267372E+05 -7.909933E+05 -1.540946E+05 -7.031465E+04 -6.103273E+04 -1.098152E+05
        28  27 -2.806224E+05 -5.130661E+05 -1.469141E+05 -1.986094E+05 -5.897885E+04 -7.462989E+04
        29   1  2.345984E+05  1.492930E+06  2.780959E+05 -1.715022E+05  4.721937E+04  2.771100E+04
        29   2  1.617458E+05  1.242324E+06  2.064419E+05 -1.166329E+05  3.555438E+04 -5.035899E+03
        29   3  1.125212E+05  1.001744E+06  1.619347E+05 -1.584169E+05  2.237116E+04 -3.778286E+04
        29   4  1.275518E+04  5.809274E+05  7.991204E+04 -1.640059E+05  4.720949E+04  3.820991E+04
        29   5 -1.910537E+02  5.761148E+05  6.228530E+04 -1.156794E+05  3.553768E+04  6.957265E+03
        29   6  1.025148E+04  5.810260E+05  7.079522E+04 -1.640100E+05  2.234736E+04 -2.430798E+04
        29   7 -2.091429E+05 -3.302967E+05 -1.183211E+05 -1.565204E+05  4.719986E+04  4.869359E+04
        29   8 -1.621571E+05 -8.967794E+04 -8.189707E+04 -1.147268E+05  3.552101E+04  1.893775E+04
        29   9 -9.202965E+04  1.604743E+05 -2.035409E+04 -1.695993E+05  2.232330E+04 -1.084208E+04
        29  10  2.345958E+05  1.492929E+06  2.780903E+05 -1.715033E+05  5.945048E-10  1.634870E-08
        29  11  1.617444E+05  1.242323E+06  2.064395E+05 -1.166327E+05  5.011688E-10  6.400984E-09
        29  12  1.125202E+05  1.001742E+06  1.619311E+05 -1.584162E+05 -9.810353E-10 -4.313138E-09
        29  13  1.275240E+04  5.809252E+05  7.990511E+04 -1.640074E+05  1.274477E-09 -3.636929E-10
        29  14 -1.924232E+02  5.761144E+05  6.228283E+04 -1.156796E+05  2.158806E-09 -3.487289E-11
        29  15  1.025079E+04  5.810253E+05  7.079317E+04 -1.640096E+05 -2.211810E-09 -6.458939E-10
        29  16 -2.091459E+05 -3.302999E+05 -1.183298E+05 -1.565222E+05  1.170423E-09 -1.589358E-08
        29  17 -1.621585E+05 -8.967866E+04 -8.190012E+04 -1.147273E+05  6.805644E-10 -6.354900E-09
        29  18 -9.203022E+04  1.604740E+05 -2.035525E+04 -1.695991E+05 -1.818304E-09  4.515589E-09
        29  19  2.345984E+05  1.492930E+06  2.780959E+05 -1.715022E+05 -4.721937E+04 -2.771100E+04
        29  20  1.617458E+05  1.242324E+06  2.064419E+05 -1.166329E+05 -3.555438E+04  5.035899E+03
        29  21  1.125212E+05  1.001744E+06  1.619347E+05 -1.584169E+05 -2.237116E+04  3.778286E+04
        29  22  1.275518E+04  5.809274E+05  7.991204E+04 -1.640059E+05 -4.720949E+04 -3.820991E+04
        29  23 -1.910537E+02  5.761148E+05  6.228530E+04 -1.156794E+05 -3.553768E+04 -6.957265E+03
        29  24  1.025148E+04  5.810260E+05  7.079522E+04 -1.640100E+05 -2.234736E+04  2.430798E+04
        29  25 -2.091429E+05 -3.302967E+05 -1.183211E+05 -1.565204E+05 -4.719986E+04 -4.869359E+04
        29  26 -1.621571E+05 -8.967794E+04 -8.189707E+04 -1.147268E+05 -3.552101E+04 -1.893775E+04
        29  27 -9.202965E+04  1.604743E+05 -2.035409E+04 -1.695993E+05 -2.232330E+04  1.084208E+04
        30   1  4.646061E+04  8.167531E+05  1.275226E+05 -1.927763E+05  1.317649E+04 -5.194634E+04
        30   2 -1.878770E+03  5.447094E+05  1.127117E+05 -7.965452E+04  1.677282E+03 -1.055640E+05
        30   3  1.387180E+05  3.265720E+05  1.799463E+05 -6.257442E+04 -7.114488E+02 -1.591454E+05
        30   4 -8.385415E+03  5.911978E+05  7.932599E+04 -1.639637E+05  1.314440E+04 -3.642364E+04
        30   5  3.168544E+03  5.635069E+05  1.183639E+05 -1.157637E+05  1.670628E+03 -9.880932E+04
        30   6  2.051539E+05  5.911417E+05  2.455142E+05 -1.635825E+05 -6.817278E+02 -1.611794E+05
        30   7 -6.323155E+04  3.656927E+05  3.112779E+04 -1.351618E+05  1.311374E+04 -2.090648E+04
        30   8  8.220743E+03  5.823076E+05  1.240171E+05 -1.518740E+05  1.663190E+03 -9.205447E+04
        30   9  2.716228E+05  8.557967E+05  3.110824E+05 -2.646337E+05 -6.513559E+02 -1.632142E+05
        30  10  4.645970E+04  8.167501E+05  1.275172E+05 -1.927757E+05 -1.648438E-09  3.191929E-09
        30  11 -1.881761E+03  5.446974E+05  1.126907E+05 -7.965437E+04  7.279028E-10 -1.018007E-10
        30  12  1.387112E+05  3.265448E+05  1.798987E+05 -6.257451E+04  7.209707E-10 -1.414602E-09
        30  13 -8.385956E+03  5.911964E+05  7.932317E+04 -1.639633E+05 -6.205986E-10 -5.035995E-10
        30  14  3.165923E+03  5.634964E+05  1.183456E+05 -1.157636E+05  2.157469E-09 -6.771636E-12
        30  15  2.051469E+05  5.911138E+05  2.454655E+05 -1.635826E+05  5.714065E-10 -6.542009E-10
        30  16 -6.323185E+04  3.656922E+05  3.112664E+04 -1.351616E+05 -6.904450E-10 -2.600216E-09
        30  17  8.218468E+03  5.822985E+05  1.240011E+05 -1.518739E+05  1.824823E-09  3.993450E-10
        30  18  2.716156E+05  8.557681E+05  3.110324E+05 -2.646338E+05 -4.084519E-10  1.728807E-09
        30  19  4.646061E+04  8.167531E+05  1.275226E+05 -1.927763E+05 -1.317649E+04  5.194634E+04
        30  20 -1.878770E+03  5.447094E+05  1.127117E+05 -7.965452E+04 -1.677282E+03  1.055640E+05
        30  21  1.387180E+05  3.265720E+05  1.799463E+05 -6.257442E+04  7.114488E+02  1.591454E+05
        30  22 -8.385415E+03  5.911978E+05  7.932599E+04 -1.639637E+05 -1.314440E+04  3.642364E+04
        30  23  3.168544E+03  5.635069E+05  1.183639E+05 -1.157637E+05 -1.670628E+03  9.880932E+04
        30  24  2.051539E+05  5.911417E+05  2.455142E+05 -1.635825E+05  6.817278E+02  1.611794E+05
        30  25 -6.323155E+04  3.656927E+05  3.112779E+04 -1.351618E+05 -1.311374E+04  2.090648E+04
        30  26  8.220743E+03  5.823076E+05  1.240171E+05 -1.518740E+05 -1.663190E+03  9.205447E+04
        30  27  2.716228E+05  8.557967E+05  3.110824E+05 -2.646337E+05  6.513559E+02  1.632142E+05
        31   1 -1.213300E+06 -2.888004E+05 -1.108022E+05 -4.658563E+05 -6.117589E+04 -2.187818E+04
        31   2 -1.195904E+06 -1.958060E+05 -5.359878E+04 -4.629025E+05 -3.858461E+04 -1.139354E+04
        31   3 -1.202165E+06 -1.754018E+05 -3.224503E+04 -4.482926E+05 -1.516855E+04 -3.107559E+03
        31   4 -1.163837E+06 -2.377447E+05 -9.126751E+04 -4.189654E+05 -5.860536E+04 -2.091831E+04
        31   5 -1.147238E+06 -1.664668E+05 -3.970468E+04 -4.379747E+05 -3.798718E+04 -1.117041E+04
        31   6 -1.153900E+06 -1.673853E+05 -2.242419E+04 -4.453288E+05 -1.654410E+04 -3.623003E+03
        31   7 -1.114371E+06 -1.866820E+05 -7.173291E+04 -3.720706E+05 -5.603467E+04 -1.995803E+04
        31   8 -1.098569E+06 -1.371262E+05 -2.581090E+04 -4.130449E+05 -3.738970E+04 -1.094724E+04
        31   9 -1.105632E+06 -1.593688E+05 -1.260341E+04 -4.423649E+05 -1.791976E+04 -4.138434E+03
        31  10 -1.213304E+06 -2.888019E+05 -1.108102E+05 -4.658574E+05  2.215282E-09  7.291107E-10
        31  11 -1.195906E+06 -1.958066E+05 -5.360183E+04 -4.629029E+05 -9.785517E-09 -3.608613E-09
        31  12 -1.202165E+06 -1.754018E+05 -3.224548E+04 -4.482927E+05 -1.381060E-08 -7.502740E-09
        31  13 -1.163841E+06 -2.377461E+05 -9.127480E+04 -4.189664E+05  5.339347E-10 -7.412536E-11
        31  14 -1.147239E+06 -1.664673E+05 -3.970763E+04 -4.379750E+05 -2.112819E-09 -9.502920E-10
        31  15 -1.153900E+06 -1.673854E+05 -2.242473E+04 -4.453288E+05 -4.855159E-09 -3.122001E-09
        31  16 -1.114374E+06 -1.866833E+05 -7.173957E+04 -3.720715E+05 -1.792991E-09 -8.319531E-10
        31  17 -1.098570E+06 -1.371267E+05 -2.581376E+04 -4.130453E+05  3.143875E-09  1.513961E-09
        31  18 -1.105633E+06 -1.593689E+05 -1.260405E+04 -4.423649E+05  7.325142E-09  1.307928E-09
        31  19 -1.213300E+06 -2.888004E+05 -1.108022E+05 -4.658563E+05  6.117589E+04  2.187818E+04
        31  20 -1.195904E+06 -1.958060E+05 -5.359878E+04 -4.629025E+05  3.858461E+04  1.139354E+04
        31  21 -1.202165E+06 -1.754018E+05 -3.224503E+04 -4.482926E+05  1.516855E+04  3.107559E+03
        31  22 -1.163837E+06 -2.377447E+05 -9.126751E+04 -4.189654E+05  5.860536E+04  2.091831E+04
        31  23 -1.147238E+06 -1.664668E+05 -3.970468E+04 -4.379747E+05  3.798718E+04  1.117041E+04
        31  24 -1.153900E+06 -1.673853E+05 -2.242419E+04 -4.453288E+05  1.654410E+04  3.623003E+03
        31  25 -1.114371E+06 -1.866820E+05 -7.173291E+04 -3.720706E+05  5.603467E+04  1.995803E+04
        31  26 -1.098569E+06 -1.371262E+05 -2.581090E+04 -4.130449E+05  3.738970E+04  1.094724E+04
        31  27 -1.105632E+06 -1.593688E+05 -1.260341E+04 -4.423649E+05  1.791976E+04  4.138434E+03
        32   1 -1.177792E+06 -1.852674E+05 -2.440081E+04 -4.500053E+05 -1.269459E+04 -3.057725E+03
        32   2 -1.163635E+06 -1.721209E+05 -1.195720E+04 -4.431019E+05 -7.649548E+03 -2.144026E+03
        32   3 -1.146683E+06 -1.678968E+05 -4.112018E+03 -4.409717E+05 -2.567272E+03 -1.328798E+03
        32   4 -1.151013E+06 -1.739458E+05 -1.772732E+04 -4.412491E+05 -1.341998E+04 -3.329722E+03
        32   5 -1.152138E+06 -1.675131E+05 -9.139042E+03 -4.396037E+05 -8.463181E+03 -2.449073E+03
        32   6 -1.150451E+06 -1.699853E+05 -5.078986E+03 -4.427316E+05 -3.469332E+03 -1.666974E+03
        32   7 -1.124233E+06 -1.626241E+05 -1.105383E+04 -4.324925E+05 -1.414541E+04 -3.601738E+03
        32   8 -1.140641E+06 -1.629053E+05 -6.320897E+03 -4.361054E+05 -9.276828E+03 -2.754126E+03
        32   9 -1.154220E+06 -1.720737E+05 -6.045933E+03 -4.444916E+05 -4.371372E+03 -2.005141E+03
        32  10 -1.177793E+06 -1.852674E+05 -2.440113E+04 -4.500053E+05  9.179254E-09  2.228182E-09
        32  11 -1.163635E+06 -1.721210E+05 -1.195732E+04 -4.431019E+05 -1.156925E-09  6.714287E-10
        32  12 -1.146683E+06 -1.678968E+05 -4.112033E+03 -4.409717E+05 -1.071581E-08 -3.420406E-09
        32  13 -1.151013E+06 -1.739459E+05 -1.772768E+04 -4.412491E+05 -2.784715E-09 -2.653550E-09
        32  14 -1.152138E+06 -1.675131E+05 -9.139188E+03 -4.396037E+05 -2.800307E-09 -5.226717E-10
        32  15 -1.150451E+06 -1.699853E+05 -5.079013E+03 -4.427316E+05 -5.390799E-09 -6.100230E-10
        32  16 -1.124233E+06 -1.626241E+05 -1.105423E+04 -4.324925E+05 -1.600583E-08 -7.754684E-09
        32  17 -1.140641E+06 -1.629053E+05 -6.321074E+03 -4.361054E+05 -2.503709E-09 -1.639557E-09
        32  18 -1.154220E+06 -1.720737E+05 -6.045977E+03 -4.444916E+05  6.407741E-09  2.223953E-09
        32  19 -1.177792E+06 -1.852674E+05 -2.440081E+04 -4.500053E+05  1.269459E+04  3.057725E+03
        32  20 -1.163635E+06 -1.721209E+05 -1.195720E+04 -4.431019E+05  7.649548E+03  2.144026E+03
        32  21 -1.146683E+06 -1.678968E+05 -4.112018E+03 -4.409717E+05  2.567272E+03  1.328798E+03
        32  22 -1.151013E+06 -1.739458E+05 -1.772732E+04 -4.412491E+05  1.341998E+04  3.329722E+03
        32  23 -1.152138E+06 -1.675131E+05 -9.139042E+03 -4.396037E+05  8.463181E+03  2.449073E+03
        32  24 -1.150451E+06 -1.699853E+05 -5.078986E+03 -4.427316E+05  3.469332E+03  1.666974E+03
        32  25 -1.124233E+06 -1.626241E+05 -1.105383E+04 -4.324925E+05  1.414541E+04  3.601738E+03
        32  26 -1.140641E+06 -1.629053E+05 -6.320897E+03 -4.361054E+05  9.276828E+03  2.754126E+03
        32  27 -1.154220E+06 -1.720737E+05 -6.045933E+03 -4.444916E+05  4.371372E+03  2.005141E+03
        33   1 -1.132714E+06 -1.637947E+05  3.699615E+02 -4.376392E+05 -1.663428E+03 -1.650979E+03
        33   2 -1.119039E+06 -1.551768E+05  5.882912E+03 -4.304727E+05 -2.353706E+02 -2.226236E+03
        33   3 -1.100695E+06 -1.517042E+05  1.054152E+04 -4.289036E+05  1.193660E+03 -2.803844E+03
        33   4 -1.150206E+06 -1.703373E+05 -3.865357E+03 -4.424697E+05 -2.536204E+03 -1.978183E+03
        33   5 -1.152526E+06 -1.676663E+05 -2.122024E+03 -4.397077E+05 -1.110317E+03 -2.554282E+03
        33   6 -1.150177E+06 -1.701401E+05 -1.231239E+03 -4.425432E+05  3.165200E+02 -3.132742E+03
        33   7 -1.167697E+06 -1.768800E+05 -8.100728E+03 -4.473001E+05 -3.408960E+03 -2.305380E+03
        33   8 -1.186012E+06 -1.801559E+05 -1.012715E+04 -4.489424E+05 -1.985222E+03 -2.882313E+03
        33   9 -1.199658E+06 -1.885761E+05 -1.300440E+04 -4.561821E+05 -5.605584E+02 -3.461617E+03
        33  10 -1.132714E+06 -1.637947E+05  3.699512E+02 -4.376392E+05  4.674202E-09  1.709755E-09
        33  11 -1.119039E+06 -1.551768E+05  5.882903E+03 -4.304727E+05  4.599013E-09  4.880641E-10
        33  12 -1.100695E+06 -1.517042E+05  1.054150E+04 -4.289036E+05 -5.201938E-09 -1.179335E-09
        33  13 -1.150206E+06 -1.703373E+05 -3.865377E+03 -4.424697E+05 -1.710294E-09 -8.322673E-10
        33  14 -1.152526E+06 -1.676663E+05 -2.122038E+03 -4.397077E+05 -2.879373E-09 -2.306040E-10
        33  15 -1.150177E+06 -1.701401E+05 -1.231258E+03 -4.425432E+05 -2.363729E-09 -7.612712E-10
        33  16 -1.167697E+06 -1.768800E+05 -8.100759E+03 -4.473001E+05 -9.017184E-09 -3.290620E-09
        33  17 -1.186012E+06 -1.801559E+05 -1.012717E+04 -4.489424E+05 -3.568503E-09 -1.534734E-09
        33  18 -1.199658E+06 -1.885761E+05 -1.300443E+04 -4.561821E+05 -1.847356E-09 -1.382547E-10
        33  19 -1.132714E+06 -1.637947E+05  3.699615E+02 -4.376392E+05  1.663428E+03  1.650979E+03
        33  20 -1.119039E+06 -1.551768E+05  5.882912E+03 -4.304727E+05  2.353706E+02  2.226236E+03
        33  21 -1.100695E+06 -1.517042E+05  1.054152E+04 -4.289036E+05 -1.193660E+03  2.803844E+03
        33  22 -1.150206E+06 -1.703373E+05 -3.865357E+03 -4.424697E+05  2.536204E+03  1.978183E+03
        33  23 -1.152526E+06 -1.676663E+05 -2.122024E+03 -4.397077E+05  1.110317E+03  2.554282E+03
        33  24 -1.150177E+06 -1.701401E+05 -1.231239E+03 -4.425432E+05 -3.165200E+02  3.132742E+03
        33  25 -1.167697E+06 -1.768800E+05 -8.100728E+03 -4.473001E+05  3.408960E+03  2.305380E+03
        33  26 -1.186012E+06 -1.801559E+05 -1.012715E+04 -4.489424E+05  1.985222E+03  2.882313E+03
        33  27 -1.199658E+06 -1.885761E+05 -1.300440E+04 -4.561821E+05  5.605584E+02  3.461617E+03
        34   1 -1.087499E+06 -1.468373E+05  1.404736E+04 -4.253104E+05  1.585383E+03 -3.304726E+03
        34   2 -1.074010E+06 -1.385142E+05  1.807773E+04 -4.181736E+05  2.286751E+03 -4.150413E+03
        34   3 -1.055713E+06 -1.350706E+05  2.185333E+04 -4.166144E+05  2.987106E+03 -4.993107E+03
        34   4 -1.150156E+06 -1.701468E+05 -9.754051E+02 -4.425146E+05  7.116971E+02 -3.632352E+03
        34   5 -1.152560E+06 -1.677047E+05 -6.818007E+02 -4.397267E+05  1.415692E+03 -4.477100E+03
        34   6 -1.150156E+06 -1.701426E+05 -6.449731E+02 -4.425164E+05  2.118667E+03 -5.318860E+03
        34   7 -1.212809E+06 -1.934555E+05 -1.599819E+04 -4.597169E+05 -1.618795E+02 -3.959937E+03
        34   8 -1.231104E+06 -1.968945E+05 -1.944158E+04 -4.612772E+05  5.447600E+02 -4.803739E+03
        34   9 -1.244591E+06 -2.052138E+05 -2.314386E+04 -4.684148E+05  1.250374E+03 -5.644557E+03
        34  10 -1.087499E+06 -1.468374E+05  1.404733E+04 -4.253104E+05 -5.749146E-09 -1.273171E-09
        34  11 -1.074010E+06 -1.385142E+05  1.807768E+04 -4.181736E+05 -3.492220E-09 -8.699559E-10
        34  12 -1.055713E+06 -1.350706E+05  2.185327E+04 -4.166144E+05 -1.842519E-09 -7.445073E-10
        34  13 -1.150156E+06 -1.701468E+05 -9.754308E+02 -4.425146E+05 -9.920839E-10 -9.504664E-10
        34  14 -1.152560E+06 -1.677047E+05 -6.818421E+02 -4.397267E+05 -2.802917E-09 -1.076004E-09
        34  15 -1.150156E+06 -1.701426E+05 -6.450347E+02 -4.425164E+05 -2.892282E-09 -1.318719E-09
        34  16 -1.212809E+06 -1.934555E+05 -1.599821E+04 -4.597169E+05 -2.096145E-09 -4.090516E-10
        34  17 -1.231104E+06 -1.968945E+05 -1.944163E+04 -4.612772E+05 -1.783725E-09 -8.986700E-10
        34  18 -1.244591E+06 -2.052138E+05 -2.314392E+04 -4.684148E+05 -1.232194E-11 -1.645920E-09
        34  19 -1.087499E+06 -1.468373E+05  1.404736E+04 -4.253104E+05 -1.585383E+03  3.304726E+03
        34  20 -1.074010E+06 -1.385142E+05  1.807773E+04 -4.181736E+05 -2.286751E+03  4.150413E+03
        34  21 -1.055713E+06 -1.350706E+05  2.185333E+04 -4.166144E+05 -2.987106E+03  4.993107E+03
        34  22 -1.150156E+06 -1.701468E+05 -9.754051E+02 -4.425146E+05 -7.116971E+02  3.632352E+03
        34  23 -1.152560E+06 -1.677047E+05 -6.818007E+02 -4.397267E+05 -1.415692E+03  4.477100E+03
        34  24 -1.150156E+06 -1.701426E+05 -6.449731E+02 -4.425164E+05 -2.118667E+03  5.318860E+03
        34  25 -1.212809E+06 -1.934555E+05 -1.599819E+04 -4.597169E+05  1.618795E+02  3.959937E+03
        34  26 -1.231104E+06 -1.968945E+05 -1.944158E+04 -4.612772E+05 -5.447600E+02  4.803739E+03
        34  27 -1.244591E+06 -2.052138E+05 -2.314386E+04 -4.684148E+05 -1.250374E+03  5.644557E+03
        35   1 -1.042694E+06 -1.302001E+05  2.501176E+04 -4.130370E+05  3.306817E+03 -5.514281E+03
        35   2 -1.029373E+06 -1.219927E+05  2.836346E+04 -4.059941E+05  4.181005E+03 -6.281778E+03
        35   3 -1.011333E+06 -1.186127E+05  3.132676E+04 -4.044553E+05  5.053063E+03 -7.043036E+03
        35   4 -1.150176E+06 -1.701285E+05 -7.092033E+02 -4.425014E+05  2.442108E+03 -5.838676E+03
        35   5 -1.152537E+06 -1.677209E+05 -1.042983E+03 -4.397469E+05  3.321742E+03 -6.604213E+03
        35   6 -1.150180E+06 -1.701421E+05 -1.769607E+03 -4.424970E+05  4.199230E+03 -7.363514E+03
        35   7 -1.257647E+06 -2.100563E+05 -2.643116E+04 -4.719612E+05  1.577558E+03 -6.163012E+03
        35   8 -1.275686E+06 -2.134482E+05 -3.045061E+04 -4.734937E+05  2.462663E+03 -6.926580E+03
        35   9 -1.289007E+06 -2.216702E+05 -3.486737E+04 -4.805309E+05  3.345606E+03 -7.683914E+03
        35  10 -1.042694E+06 -1.302002E+05  2.501168E+04 -4.130370E+05 -2.261802E-09 -9.159762E-10
        35  11 -1.029373E+06 -1.219927E+05  2.836335E+04 -4.059941E+05 -1.363005E-09  4.776851E-10
        35  12 -1.011333E+06 -1.186128E+05  3.132662E+04 -4.044553E+05 -3.784358E-10  6.708387E-10
        35  13 -1.150176E+06 -1.701286E+05 -7.092785E+02 -4.425013E+05  4.591366E-11 -1.049531E-09
        35  14 -1.152537E+06 -1.677209E+05 -1.043086E+03 -4.397469E+05  2.873323E-09  5.560114E-10
        35  15 -1.150180E+06 -1.701422E+05 -1.769742E+03 -4.424969E+05  3.355259E-10  1.021718E-09
        35  16 -1.257647E+06 -2.100564E+05 -2.643124E+04 -4.719612E+05  2.280941E-09 -8.147798E-10
        35  17 -1.275686E+06 -2.134482E+05 -3.045071E+04 -4.734937E+05  1.247607E-09  4.235856E-10
        35  18 -1.289007E+06 -2.216703E+05 -3.486750E+04 -4.805308E+05 -1.383687E-09  1.331400E-09
        35  19 -1.042694E+06 -1.302001E+05  2.501176E+04 -4.130370E+05 -3.306817E+03  5.514281E+03
        35  20 -1.029373E+06 -1.219927E+05  2.836346E+04 -4.059941E+05 -4.181005E+03  6.281778E+03
        35  21 -1.011333E+06 -1.186127E+05  3.132676E+04 -4.044553E+05 -5.053063E+03  7.043036E+03
        35  22 -1.150176E+06 -1.701285E+05 -7.092033E+02 -4.425014E+05 -2.442108E+03  5.838676E+03
        35  23 -1.152537E+06 -1.677209E+05 -1.042983E+03 -4.397469E+05 -3.321742E+03  6.604213E+03
        35  24 -1.150180E+06 -1.701421E+05 -1.769607E+03 -4.424970E+05 -4.199230E+03  7.363514E+03
        35  25 -1.257647E+06 -2.100563E+05 -2.643116E+04 -4.719612E+05 -1.577558E+03  6.163012E+03
        35  26 -1.275686E+06 -2.134482E+05 -3.045061E+04 -4.734937E+05 -2.462663E+03  6.926580E+03
        35  27 -1.289007E+06 -2.216702E+05 -3.486737E+04 -4.805309E+05 -3.345606E+03  7.683914E+03
        36   1 -9.985509E+05 -1.138410E+05  3.393986E+04 -4.010270E+05  5.597762E+03 -7.470489E+03
        36   2 -9.853770E+05 -1.057146E+05  3.572074E+04 -3.940238E+05  8.008708E+03 -7.636776E+03
        36   3 -9.679346E+05 -1.027817E+05  3.584715E+04 -3.923749E+05  1.041149E+04 -7.780530E+03
        36   4 -1.150263E+06 -1.700936E+05 -2.322973E+03 -4.425130E+05  4.744815E+03 -7.790691E+03
        36   5 -1.152425E+06 -1.676949E+05 -4.157359E+03 -4.397615E+05  7.175370E+03 -7.949726E+03
        36   6 -1.150323E+06 -1.704936E+05 -7.662094E+03 -4.423642E+05  9.597718E+03 -8.086242E+03
        36   7 -1.301952E+06 -2.263443E+05 -3.858726E+04 -4.839897E+05  3.892101E+03 -8.110806E+03
        36   8 -1.319446E+06 -2.296732E+05 -4.403747E+04 -4.854879E+05  6.342276E+03 -8.262584E+03
        36   9 -1.332679E+06 -2.382035E+05 -5.117399E+04 -4.923404E+05  8.784200E+03 -8.391858E+03
        36  10 -9.985509E+05 -1.138411E+05  3.393970E+04 -4.010269E+05  1.466851E-09  3.491271E-10
        36  11 -9.853771E+05 -1.057147E+05  3.572051E+04 -3.940238E+05 -2.722814E-09 -2.512880E-09
        36  12 -9.679347E+05 -1.027817E+05  3.584683E+04 -3.923749E+05 -3.975780E-09 -1.560047E-09
        36  13 -1.150264E+06 -1.700937E+05 -2.323130E+03 -4.425130E+05 -3.232066E-09 -1.915668E-10
        36  14 -1.152425E+06 -1.676949E+05 -4.157574E+03 -4.397614E+05 -1.707030E-09 -2.206901E-09
        36  15 -1.150323E+06 -1.704937E+05 -7.662390E+03 -4.423642E+05 -1.818196E-09 -9.807608E-10
        36  16 -1.301952E+06 -2.263444E+05 -3.858741E+04 -4.839897E+05 -3.914024E-09 -7.112773E-10
        36  17 -1.319446E+06 -2.296733E+05 -4.403768E+04 -4.854879E+05 -2.472779E-09 -1.909424E-09
        36  18 -1.332679E+06 -2.382036E+05 -5.117427E+04 -4.923403E+05  2.227644E-09 -5.303330E-10
        36  19 -9.985509E+05 -1.138410E+05  3.393986E+04 -4.010270E+05 -5.597762E+03  7.470489E+03
        36  20 -9.853770E+05 -1.057146E+05  3.572074E+04 -3.940238E+05 -8.008708E+03  7.636776E+03
        36  21 -9.679346E+05 -1.027817E+05  3.584715E+04 -3.923749E+05 -1.041149E+04  7.780530E+03
        36  22 -1.150263E+06 -1.700936E+05 -2.322973E+03 -4.425130E+05 -4.744815E+03  7.790691E+03
        36  23 -1.152425E+06 -1.676949E+05 -4.157359E+03 -4.397615E+05 -7.175370E+03  7.949726E+03
        36  24 -1.150323E+06 -1.704936E+05 -7.662094E+03 -4.423642E+05 -9.597718E+03  8.086242E+03
        36  25 -1.301952E+06 -2.263443E+05 -3.858726E+04 -4.839897E+05 -3.892101E+03  8.110806E+03
        36  26 -1.319446E+06 -2.296732E+05 -4.403747E+04 -4.854879E+05 -6.342276E+03  8.262584E+03
        36  27 -1.332679E+06 -2.382035E+05 -5.117399E+04 -4.923404E+05 -8.784200E+03  8.391858E+03
        37   1 -9.549713E+05 -9.833742E+04  3.649691E+04 -3.905247E+05  1.213860E+04 -7.782934E+03
        37   2 -9.423209E+05 -8.894513E+04  3.195970E+04 -3.814398E+05  2.137182E+04 -5.269526E+03
        37   3 -9.291806E+05 -9.203839E+04  1.865655E+04 -3.759037E+05  3.047557E+04 -2.410438E+03
        37   4 -1.150843E+06 -1.697624E+05 -1.008943E+04 -4.428512E+05  1.123228E+04 -8.123439E+03
        37   5 -1.151619E+06 -1.674345E+05 -1.819309E+04 -4.395977E+05  2.077265E+04 -5.494883E+03
        37   6 -1.151968E+06 -1.776551E+05 -3.530868E+04 -4.398931E+05  3.018331E+04 -2.520751E+03
        37   7 -1.346676E+06 -2.411850E+05 -5.667850E+04 -4.951628E+05  1.032627E+04 -8.463832E+03
        37   8 -1.360873E+06 -2.459203E+05 -6.834890E+04 -4.977375E+05  2.017371E+04 -5.720156E+03
        37   9 -1.374704E+06 -2.632669E+05 -8.927726E+04 -5.038610E+05  2.989117E+04 -2.631017E+03
        37  10 -9.549715E+05 -9.833752E+04  3.649652E+04 -3.905246E+05 -1.954896E-09  2.557619E-10
        37  11 -9.423214E+05 -8.894528E+04  3.195879E+04 -3.814397E+05  1.701096E-09  3.581824E-10
        37  12 -9.291816E+05 -9.203864E+04  1.865480E+04 -3.759036E+05 -3.230499E-10  4.473996E-10
        37  13 -1.150843E+06 -1.697625E+05 -1.008979E+04 -4.428511E+05 -6.114498E-11  1.404401E-10
        37  14 -1.151619E+06 -1.674346E+05 -1.819395E+04 -4.395976E+05 -1.111800E-09  3.870698E-10
        37  15 -1.151969E+06 -1.776553E+05 -3.531040E+04 -4.398931E+05  8.892347E-10  1.816514E-10
        37  16 -1.346676E+06 -2.411851E+05 -5.667884E+04 -4.951628E+05  7.032519E-10 -1.774405E-11
        37  17 -1.360873E+06 -2.459204E+05 -6.834972E+04 -4.977374E+05  1.913325E-10  7.972128E-10
        37  18 -1.374705E+06 -2.632672E+05 -8.927896E+04 -5.038609E+05 -1.184803E-11 -2.524709E-10
        37  19 -9.549713E+05 -9.833742E+04  3.649691E+04 -3.905247E+05 -1.213860E+04  7.782934E+03
        37  20 -9.423209E+05 -8.894513E+04  3.195970E+04 -3.814398E+05 -2.137182E+04  5.269526E+03
        37  21 -9.291806E+05 -9.203839E+04  1.865655E+04 -3.759037E+05 -3.047557E+04  2.410438E+03
        37  22 -1.150843E+06 -1.697624E+05 -1.008943E+04 -4.428512E+05 -1.123228E+04  8.123439E+03
        37  23 -1.151619E+06 -1.674345E+05 -1.819309E+04 -4.395977E+05 -2.077265E+04  5.494883E+03
        37  24 -1.151968E+06 -1.776551E+05 -3.530868E+04 -4.398931E+05 -3.018331E+04  2.520751E+03
        37  25 -1.346676E+06 -2.411850E+05 -5.667850E+04 -4.951628E+05 -1.032627E+04  8.463832E+03
        37  26 -1.360873E+06 -2.459203E+05 -6.834890E+04 -4.977375E+05 -2.017371E+04  5.720156E+03
        37  27 -1.374704E+06 -2.632669E+05 -8.927726E+04 -5.038610E+05 -2.989117E+04  2.631017E+03
        38   1 -9.062275E+05 -9.081430E+04  1.189792E+04 -3.993392E+05  3.879805E+04 -6.654892E+02
        38   2 -9.070621E+05 -5.554038E+04 -1.803595E+04 -3.488742E+05  7.407227E+04  1.370334E+04
        38   3 -9.582956E+05 -1.572608E+05 -1.108851E+05 -2.689399E+05  1.065158E+05  3.561111E+04
        38   4 -1.157754E+06 -1.645484E+05 -4.466729E+04 -4.479772E+05  3.628357E+04 -1.609061E+03
        38   5 -1.141807E+06 -1.654097E+05 -7.909579E+04 -4.364144E+05  7.830634E+04  1.529054E+04
        38   6 -1.177623E+06 -3.046452E+05 -1.818123E+05 -3.953761E+05  1.174983E+05  3.972464E+04
        38   7 -1.409219E+06 -2.382833E+05 -1.012366E+05 -4.966000E+05  3.377020E+04 -2.552422E+03
        38   8 -1.376496E+06 -2.752653E+05 -1.401601E+05 -5.239213E+05  8.253867E+04  1.687670E+04
        38   9 -1.396893E+06 -4.519847E+05 -2.527425E+05 -5.217613E+05  1.284765E+05  4.383368E+04
        38  10 -9.062291E+05 -9.081471E+04  1.189509E+04 -3.993392E+05  4.433774E-10  1.203398E-10
        38  11 -9.070680E+05 -5.554206E+04 -1.804663E+04 -3.488750E+05 -2.734494E-10  4.924244E-10
        38  12 -9.583081E+05 -1.572653E+05 -1.109088E+05 -2.689429E+05 -6.010635E-10  1.220003E-11
        38  13 -1.157755E+06 -1.645487E+05 -4.466977E+04 -4.479771E+05 -1.468150E-09  3.034017E-10
        38  14 -1.141813E+06 -1.654116E+05 -7.910778E+04 -4.364153E+05 -8.121680E-10 -6.829965E-10
        38  15 -1.177639E+06 -3.046506E+05 -1.818413E+05 -3.953799E+05  1.872015E-09  2.635909E-11
        38  16 -1.409220E+06 -2.382836E+05 -1.012388E+05 -4.965999E+05  4.470103E-10 -1.987327E-10
        38  17 -1.376503E+06 -2.752675E+05 -1.401735E+05 -5.239224E+05  5.270056E-11 -4.456958E-10
        38  18 -1.396911E+06 -4.519912E+05 -2.527773E+05 -5.217659E+05  2.614296E-10 -3.900152E-10
        38  19 -9.062275E+05 -9.081430E+04  1.189792E+04 -3.993392E+05 -3.879805E+04  6.654892E+02
        38  20 -9.070621E+05 -5.554038E+04 -1.803595E+04 -3.488742E+05 -7.407227E+04 -1.370334E+04
        38  21 -9.582956E+05 -1.572608E+05 -1.108851E+05 -2.689399E+05 -1.065158E+05 -3.561111E+04
        38  22 -1.157754E+06 -1.645484E+05 -4.466729E+04 -4.479772E+05 -3.628357E+04  1.609061E+03
        38  23 -1.141807E+06 -1.654097E+05 -7.909579E+04 -4.364144E+05 -7.830634E+04 -1.529054E+04
        38  24 -1.177623E+06 -3.046452E+05 -1.818123E+05 -3.953761E+05 -1.174983E+05 -3.972464E+04
        38  25 -1.409219E+06 -2.382833E+05 -1.012366E+05 -4.966000E+05 -3.377020E+04  2.552422E+03
        38  26 -1.376496E+06 -2.752653E+05 -1.401601E+05 -5.239213E+05 -8.253867E+04 -1.687670E+04
        38  27 -1.396893E+06 -4.519847E+05 -2.527425E+05 -5.217613E+05 -1.284765E+05 -4.383368E+04
        39   1 -1.097037E+05  4.455538E+04  5.318834E+04  2.180933E+04  3.659892E+04  1.285914E+00
        39   2 -1.157011E+05  6.154411E+02  2.434508E+04  7.763635E+03  2.372797E+04  2.967761E-01
        39   3 -1.097071E+05 -2.067384E+03  1.419738E+04 -6.281874E+03  1.085700E+04 -1.098747E-01
        39   4 -1.097043E+05  4.455448E+04  5.318821E+04  4.445663E-09  3.659892E+04 -1.302756E-10
        39   5 -1.157012E+05  6.153278E+02  2.434506E+04  2.818601E-09  2.372797E+04 -2.633413E-10
        39   6 -1.097071E+05 -2.067459E+03  1.419737E+04  1.459863E-09  1.085700E+04 -2.356287E-10
        39   7 -1.097037E+05  4.455538E+04  5.318834E+04 -2.180933E+04  3.659892E+04 -1.285914E+00
        39   8 -1.157011E+05  6.154411E+02  2.434508E+04 -7.763635E+03  2.372797E+04 -2.967761E-01
        39   9 -1.097071E+05 -2.067384E+03  1.419738E+04  6.281874E+03  1.085700E+04  1.098747E-01
        39  10 -1.097052E+05  4.455502E+04  5.318582E+04  2.180933E+04  9.144876E-10  3.005935E-11
        39  11 -1.157017E+05  6.152899E+02  2.434402E+04  7.763635E+03  7.839188E-10 -1.936407E-10
        39  12 -1.097072E+05 -2.067416E+03  1.419716E+04 -6.281874E+03 -3.316819E-10 -8.429014E-10
        39  13 -1.097057E+05  4.455412E+04  5.318570E+04  2.192929E-09 -4.206573E-12 -1.348750E-10
        39  14 -1.157018E+05  6.151766E+02  2.434401E+04  1.694369E-09 -2.626931E-09 -4.521453E-10
        39  15 -1.097072E+05 -2.067490E+03  1.419715E+04 -1.498507E-09  2.538889E-10 -5.544678E-10
        39  16 -1.097052E+05  4.455502E+04  5.318582E+04 -2.180933E+04  1.603686E-10 -3.133451E-10
        39  17 -1.157017E+05  6.152899E+02  2.434402E+04 -7.763635E+03 -7.369450E-10 -7.446042E-10
        39  18 -1.097072E+05 -2.067416E+03  1.419716E+04  6.281874E+03  4.160914E-10 -2.824797E-10
        39  19 -1.097037E+05  4.455538E+04  5.318834E+04  2.180933E+04 -3.659892E+04 -1.285914E+00
        39  20 -1.157011E+05  6.154411E+02  2.434508E+04  7.763635E+03 -2.372797E+04 -2.967761E-01
        39  21 -1.097071E+05 -2.067384E+03  1.419738E+04 -6.281874E+03 -1.085700E+04  1.098747E-01
        39  22 -1.097043E+05  4.455448E+04  5.318821E+04  2.096708E-09 -3.659892E+04 -1.383646E-10
        39  23 -1.157012E+05  6.153278E+02  2.434506E+04 -4.814951E-09 -2.372797E+04 -6.483774E-10
        39  24 -1.097071E+05 -2.067459E+03  1.419737E+04 -2.841492E-09 -1.085700E+04 -8.765633E-10
        39  25 -1.097037E+05  4.455538E+04  5.318834E+04 -2.180933E+04 -3.659892E+04  1.285914E+00
        39  26 -1.157011E+05  6.154411E+02  2.434508E+04 -7.763635E+03 -2.372797E+04  2.967761E-01
        39  27 -1.097071E+05 -2.067384E+03  1.419738E+04  6.281874E+03 -1.085700E+04 -1.098747E-01
        40   1 -1.121587E+05  2.274127E+03  1.124806E+04  7.845305E+02  8.861736E+03  1.120029E-02
        40   2 -1.126374E+05 -4.548014E+01  6.105802E+03  1.717201E+02  5.800440E+03  1.604658E-03
        40   3 -1.121590E+05 -1.310887E+02  3.515344E+03 -4.410823E+02  2.739202E+03 -1.946454E-03
        40   4 -1.121587E+05  2.274126E+03  1.124806E+04  5.039033E-09  8.861736E+03 -6.328871E-10
        40   5 -1.126374E+05 -4.548020E+01  6.105802E+03  4.210292E-09  5.800440E+03 -1.197681E-09
        40   6 -1.121590E+05 -1.310890E+02  3.515344E+03  2.680689E-08  2.739202E+03 -1.086728E-10
        40   7 -1.121587E+05  2.274127E+03  1.124806E+04 -7.845305E+02  8.861736E+03 -1.120029E-02
        40   8 -1.126374E+05 -4.548014E+01  6.105802E+03 -1.717201E+02  5.800440E+03 -1.604661E-03
        40   9 -1.121590E+05 -1.310887E+02  3.515344E+03  4.410823E+02  2.739202E+03  1.946453E-03
        40  10 -1.121588E+05  2.274106E+03  1.124792E+04  7.845305E+02  1.166342E-09 -8.755533E-10
        40  11 -1.126375E+05 -4.548918E+01  6.105739E+03  1.717201E+02 -4.207550E-10 -4.833405E-10
        40  12 -1.121590E+05 -1.310907E+02  3.515330E+03 -4.410823E+02  3.998959E-09 -7.536715E-10
        40  13 -1.121588E+05  2.274105E+03  1.124792E+04 -3.731722E-09 -1.074831E-09 -7.793447E-10
        40  14 -1.126375E+05 -4.548923E+01  6.105739E+03 -3.297926E-09  1.615396E-09 -1.057893E-09
        40  15 -1.121590E+05 -1.310911E+02  3.515330E+03 -3.940529E-09  2.928453E-10 -5.129478E-10
        40  16 -1.121588E+05  2.274106E+03  1.124792E+04 -7.845305E+02 -2.253563E-09 -6.836709E-10
        40  17 -1.126375E+05 -4.548918E+01  6.105739E+03 -1.717201E+02 -6.458888E-10 -1.621680E-09
        40  18 -1.121590E+05 -1.310907E+02  3.515330E+03  4.410823E+02 -3.846929E-09 -2.750940E-10
        40  19 -1.121587E+05  2.274127E+03  1.124806E+04  7.845305E+02 -8.861736E+03 -1.120029E-02
        40  20 -1.126374E+05 -4.548014E+01  6.105802E+03  1.717201E+02 -5.800440E+03 -1.604659E-03
        40  21 -1.121590E+05 -1.310887E+02  3.515344E+03 -4.410823E+02 -2.739202E+03  1.946452E-03
        40  22 -1.121587E+05  2.274126E+03  1.124806E+04  4.731178E-09 -8.861736E+03 -9.306443E-10
        40  23 -1.126374E+05 -4.548020E+01  6.105802E+03 -7.575641E-09 -5.800440E+03 -9.136530E-10
        40  24 -1.121590E+05 -1.310890E+02  3.515344E+03 -1.799576E-08 -2.739202E+03 -9.176955E-10
        40  25 -1.121587E+05  2.274127E+03  1.124806E+04 -7.845305E+02 -8.861736E+03  1.120029E-02
        40  26 -1.126374E+05 -4.548014E+01  6.105802E+03 -1.717201E+02 -5.800440E+03  1.604658E-03
        40  27 -1.121590E+05 -1.310887E+02  3.515344E+03  4.410823E+02 -2.739202E+03 -1.946454E-03
        41   1 -1.123431E+05  9.210592E+01  2.687201E+03 -5.441922E+01  2.192699E+03 -1.922339E-04
        41   2 -1.124075E+05 -2.189598E+01  1.515618E+03 -5.212100E+01  1.441666E+03 -1.210507E-04
        41   3 -1.123431E+05 -1.187510E+01  8.640730E+02 -4.982274E+01  6.906238E+02 -5.542967E-05
        41   4 -1.123431E+05  9.210591E+01  2.687201E+03 -1.223687E-07  2.192699E+03  1.319457E-09
        41   5 -1.124075E+05 -2.189599E+01  1.515618E+03 -3.477769E-09  1.441666E+03  2.987543E-09
        41   6 -1.123431E+05 -1.187511E+01  8.640730E+02  1.326468E-07  6.906238E+02  3.011104E-09
        41   7 -1.123431E+05  9.210592E+01  2.687201E+03  5.441922E+01  2.192699E+03  1.922365E-04
        41   8 -1.124075E+05 -2.189598E+01  1.515618E+03  5.212100E+01  1.441666E+03  1.210567E-04
        41   9 -1.123431E+05 -1.187510E+01  8.640730E+02  4.982274E+01  6.906238E+02  5.543568E-05
        41  10 -1.123431E+05  9.210463E+01  2.687192E+03 -5.441922E+01  3.611777E-08  3.954031E-10
        41  11 -1.124075E+05 -2.189654E+01  1.515614E+03 -5.212100E+01 -4.001707E-10  2.966884E-09
        41  12 -1.123431E+05 -1.187523E+01  8.640721E+02 -4.982274E+01 -3.865339E-08  2.333428E-09
        41  13 -1.123431E+05  9.210462E+01  2.687192E+03 -4.872095E-09  1.072721E-09  9.855638E-10
        41  14 -1.124075E+05 -2.189655E+01  1.515614E+03 -2.300417E-09  2.671950E-09  3.015961E-09
        41  15 -1.123431E+05 -1.187524E+01  8.640721E+02  2.424325E-09 -1.085006E-09  1.870861E-09
        41  16 -1.123431E+05  9.210463E+01  2.687192E+03  5.441922E+01 -3.775458E-08  1.572009E-09
        41  17 -1.124075E+05 -2.189654E+01  1.515614E+03  5.212100E+01 -1.484760E-10  3.066732E-09
        41  18 -1.123431E+05 -1.187523E+01  8.640721E+02  4.982274E+01  3.850338E-08  1.406579E-09
        41  19 -1.123431E+05  9.210592E+01  2.687201E+03 -5.441922E+01 -2.192699E+03  1.922347E-04
        41  20 -1.124075E+05 -2.189598E+01  1.515618E+03 -5.212100E+01 -1.441666E+03  1.210567E-04
        41  21 -1.123431E+05 -1.187510E+01  8.640730E+02 -4.982274E+01 -6.906238E+02  5.543433E-05
        41  22 -1.123431E+05  9.210591E+01  2.687201E+03  1.277010E-07 -2.192699E+03  6.513139E-10
        41  23 -1.124075E+05 -2.189599E+01  1.515618E+03 -3.277440E-09 -1.441666E+03  3.038279E-09
        41  24 -1.123431E+05 -1.187511E+01  8.640730E+02 -1.127214E-07 -6.906238E+02  7.318675E-10
        41  25 -1.123431E+05  9.210592E+01  2.687201E+03  5.441922E+01 -2.192699E+03 -1.922334E-04
        41  26 -1.124075E+05 -2.189598E+01  1.515618E+03  5.212100E+01 -1.441666E+03 -1.210506E-04
        41  27 -1.123431E+05 -1.187510E+01  8.640730E+02  4.982274E+01 -6.906238E+02 -5.543291E-05
        42   1 -1.123663E+05 -2.456552E+00  6.501684E+02 -2.740418E+01  5.539759E+02 -2.445543E-05
        42   2 -1.123787E+05 -5.671388E+00  3.557186E+02 -1.911065E+01  3.781498E+02 -1.164340E-05
        42   3 -1.123663E+05 -1.397435E+00  1.776273E+02 -1.081711E+01  2.023239E+02 -3.526511E-06
        42   4 -1.123663E+05 -2.456553E+00  6.501684E+02 -1.665302E-08  5.539759E+02  1.556117E-09
        42   5 -1.123787E+05 -5.671388E+00  3.557186E+02 -8.063819E-09  3.781498E+02 -7.556826E-10
        42   6 -1.123663E+05 -1.397435E+00  1.776273E+02 -5.397568E-09  2.023239E+02 -5.394273E-10
        42   7 -1.123663E+05 -2.456552E+00  6.501684E+02  2.740418E+01  5.539759E+02  2.445855E-05
        42   8 -1.123787E+05 -5.671388E+00  3.557186E+02  1.911065E+01  3.781498E+02  1.164185E-05
        42   9 -1.123663E+05 -1.397435E+00  1.776273E+02  1.081711E+01  2.023239E+02  3.525428E-06
        42  10 -1.123663E+05 -2.456634E+00  6.501678E+02 -2.740418E+01 -3.723680E-09  6.538166E-10
        42  11 -1.123787E+05 -5.671426E+00  3.557184E+02 -1.911065E+01 -1.595900E-09 -1.156660E-09
        42  12 -1.123663E+05 -1.397446E+00  1.776272E+02 -1.081711E+01 -2.042727E-09 -1.000625E-09
        42  13 -1.123663E+05 -2.456636E+00  6.501678E+02 -1.991996E-09  3.538194E-11  3.590354E-10
        42  14 -1.123787E+05 -5.671427E+00  3.557184E+02 -1.737402E-09 -5.587829E-10 -8.514562E-10
        42  15 -1.123663E+05 -1.397446E+00  1.776272E+02 -2.022060E-09 -1.570390E-10 -8.314378E-10
        42  16 -1.123663E+05 -2.456634E+00  6.501678E+02  2.740418E+01  4.773807E-09  7.135619E-11
        42  17 -1.123787E+05 -5.671426E+00  3.557184E+02  1.911065E+01  2.903834E-10 -5.444258E-10
        42  18 -1.123663E+05 -1.397446E+00  1.776272E+02  1.081711E+01  5.434698E-10 -6.540586E-10
        42  19 -1.123663E+05 -2.456552E+00  6.501684E+02 -2.740418E+01 -5.539759E+02  2.445672E-05
        42  20 -1.123787E+05 -5.671388E+00  3.557186E+02 -1.911065E+01 -3.781498E+02  1.164111E-05
        42  21 -1.123663E+05 -1.397435E+00  1.776273E+02 -1.081711E+01 -2.023239E+02  3.524501E-06
        42  22 -1.123663E+05 -2.456553E+00  6.501684E+02  2.774848E-08 -5.539759E+02 -8.376315E-10
        42  23 -1.123787E+05 -5.671388E+00  3.557186E+02  3.513141E-09 -3.781498E+02 -9.477595E-10
        42  24 -1.123663E+05 -1.397435E+00  1.776273E+02 -3.224537E-09 -2.023239E+02 -1.123555E-09
        42  25 -1.123663E+05 -2.456552E+00  6.501684E+02  2.740418E+01 -5.539759E+02 -2.445843E-05
        42  26 -1.123787E+05 -5.671388E+00  3.557186E+02  1.911065E+01 -3.781498E+02 -1.164298E-05
        42  27 -1.123663E+05 -1.397435E+00  1.776273E+02  1.081711E+01 -2.023239E+02 -3.526770E-06
        43   1 -1.123718E+05 -1.550916E+00  1.122858E+02 -9.583874E+00  1.760235E+02 -2.718134E-06
        43   2 -1.123718E+05 -7.877142E-02  3.020389E+00 -9.065261E+00  1.745566E+02 -2.550075E-06
        43   3 -1.123718E+05  2.071754E-01 -1.055873E+02 -8.546655E+00  1.730897E+02 -2.383239E-06
        43   4 -1.123718E+05 -1.550916E+00  1.122858E+02 -2.908600E-09  1.760235E+02 -2.814045E-10
        43   5 -1.123718E+05 -7.877158E-02  3.020389E+00 -4.080139E-09  1.745566E+02 -6.514145E-10
        43   6 -1.123718E+05  2.071753E-01 -1.055873E+02 -4.056448E-10  1.730897E+02 -1.189961E-10
        43   7 -1.123718E+05 -1.550916E+00  1.122858E+02  9.583874E+00  1.760235E+02  2.717544E-06
        43   8 -1.123718E+05 -7.877142E-02  3.020389E+00  9.065261E+00  1.745566E+02  2.548749E-06
        43   9 -1.123718E+05  2.071754E-01 -1.055873E+02  8.546655E+00  1.730897E+02  2.383000E-06
        43  10 -1.123718E+05 -1.550925E+00  1.122857E+02 -9.583874E+00 -6.158336E-10 -5.402396E-10
        43  11 -1.123718E+05 -7.877960E-02  3.020332E+00 -9.065261E+00 -7.252288E-10 -4.567089E-10
        43  12 -1.123718E+05  2.071674E-01 -1.055874E+02 -8.546655E+00 -8.481495E-10 -5.009307E-10
        43  13 -1.123718E+05 -1.550925E+00  1.122857E+02 -9.283261E-09 -1.032106E-09 -4.598098E-10
        43  14 -1.123718E+05 -7.877976E-02  3.020332E+00 -5.175468E-09  4.061252E-11 -3.041576E-10
        43  15 -1.123718E+05  2.071672E-01 -1.055874E+02  1.087228E-09 -7.403065E-10 -6.193084E-10
        43  16 -1.123718E+05 -1.550925E+00  1.122857E+02  9.583874E+00  3.413440E-10 -3.892844E-10
        43  17 -1.123718E+05 -7.877960E-02  3.020332E+00  9.065261E+00 -3.303387E-10 -1.495930E-10
        43  18 -1.123718E+05  2.071674E-01 -1.055874E+02  8.546655E+00 -1.758085E-10 -7.368532E-10
        43  19 -1.123718E+05 -1.550916E+00  1.122858E+02 -9.583874E+00 -1.760235E+02  2.717049E-06
        43  20 -1.123718E+05 -7.877141E-02  3.020389E+00 -9.065261E+00 -1.745566E+02  2.549185E-06
        43  21 -1.123718E+05  2.071754E-01 -1.055873E+02 -8.546655E+00 -1.730897E+02  2.382261E-06
        43  22 -1.123718E+05 -1.550916E+00  1.122858E+02  1.574068E-09 -1.760235E+02 -6.407773E-10
        43  23 -1.123718E+05 -7.877157E-02  3.020389E+00 -4.116026E-09 -1.745566E+02  4.381422E-11
        43  24 -1.123718E+05  2.071753E-01 -1.055873E+02  3.655185E-09 -1.730897E+02 -1.120295E-09
        43  25 -1.123718E+05 -1.550916E+00  1.122858E+02  9.583874E+00 -1.760235E+02 -2.718333E-06
        43  26 -1.123718E+05 -7.877141E-02  3.020389E+00  9.065261E+00 -1.745566E+02 -2.549082E-06
        43  27 -1.123718E+05  2.071754E-01 -1.055873E+02  8.546655E+00 -1.730897E+02 -2.384491E-06
        44   1 -1.123784E+05  2.319493E+00 -1.694139E+02 -1.376184E+01  1.978568E+02 -4.386356E-06
        44   2 -1.123636E+05  4.908885E+00 -3.427039E+02 -1.366746E+01  3.677114E+02 -8.096599E-06
        44   3 -1.123784E+05 -2.225634E+01 -6.340286E+02 -1.357309E+01  5.375685E+02 -1.175468E-05
        44   4 -1.123784E+05  2.319492E+00 -1.694139E+02  8.320507E-09  1.978568E+02  1.083194E-10
        44   5 -1.123636E+05  4.908884E+00 -3.427039E+02 -2.470014E-09  3.677114E+02  1.326741E-11
        44   6 -1.123784E+05 -2.225634E+01 -6.340286E+02 -5.721926E-09  5.375685E+02  3.005476E-10
        44   7 -1.123784E+05  2.319493E+00 -1.694139E+02  1.376184E+01  1.978568E+02  4.386570E-06
        44   8 -1.123636E+05  4.908885E+00 -3.427039E+02  1.366746E+01  3.677114E+02  8.096621E-06
        44   9 -1.123784E+05 -2.225634E+01 -6.340286E+02  1.357309E+01  5.375685E+02  1.175527E-05
        44  10 -1.123784E+05  2.319482E+00 -1.694139E+02 -1.376184E+01 -5.625387E-11 -4.517555E-10
        44  11 -1.123636E+05  4.908848E+00 -3.427042E+02 -1.366746E+01  1.080719E-10 -1.767779E-10
        44  12 -1.123784E+05 -2.225642E+01 -6.340292E+02 -1.357309E+01 -1.313631E-09  6.974548E-11
        44  13 -1.123784E+05  2.319482E+00 -1.694139E+02  9.553863E-09 -4.268791E-11 -5.870401E-10
        44  14 -1.123636E+05  4.908848E+00 -3.427042E+02 -1.290291E-09 -5.982575E-11 -1.387978E-11
        44  15 -1.123784E+05 -2.225642E+01 -6.340292E+02 -5.132065E-09 -5.158815E-10  3.210896E-10
        44  16 -1.123784E+05  2.319482E+00 -1.694139E+02  1.376184E+01  6.470247E-10 -7.251839E-10
        44  17 -1.123636E+05  4.908848E+00 -3.427042E+02  1.366746E+01  1.974755E-09  1.505601E-10
        44  18 -1.123784E+05 -2.225642E+01 -6.340292E+02  1.357309E+01  9.361395E-11  5.627051E-10
        44  19 -1.123784E+05  2.319493E+00 -1.694139E+02 -1.376184E+01 -1.978568E+02  4.385448E-06
        44  20 -1.123636E+05  4.908885E+00 -3.427039E+02 -1.366746E+01 -3.677114E+02  8.096282E-06
        44  21 -1.123784E+05 -2.225634E+01 -6.340286E+02 -1.357309E+01 -5.375685E+02  1.175484E-05
        44  22 -1.123784E+05  2.319492E+00 -1.694139E+02  1.078420E-08 -1.978568E+02 -1.282815E-09
        44  23 -1.123636E+05  4.908884E+00 -3.427039E+02 -1.187757E-09 -3.677114E+02 -4.019950E-11
        44  24 -1.123784E+05 -2.225634E+01 -6.340286E+02 -1.313792E-09 -5.375685E+02  3.429694E-10
        44  25 -1.123784E+05  2.319493E+00 -1.694139E+02  1.376184E+01 -1.978568E+02 -4.388030E-06
        44  26 -1.123636E+05  4.908885E+00 -3.427039E+02  1.366746E+01 -3.677114E+02 -8.096353E-06
        44  27 -1.123784E+05 -2.225634E+01 -6.340286E+02  1.357309E+01 -5.375685E+02 -1.175415E-05
        45   1 -1.124229E+05  3.140862E+01 -8.363889E+02 -1.065872E+02  6.670570E+02 -1.145422E-04
        45   2 -1.123080E+05  1.085943E+01 -1.463871E+03  4.103791E+01  1.401056E+03  9.262843E-05
        45   3 -1.124230E+05 -5.472643E+02 -2.703673E+03  1.886631E+02  2.135054E+03  6.489255E-04
        45   4 -1.124229E+05  3.140860E+01 -8.363889E+02 -3.888084E-09  6.670570E+02  7.728848E-10
        45   5 -1.123080E+05  1.085943E+01 -1.463871E+03  4.643136E-10  1.401056E+03  6.584771E-10
        45   6 -1.124230E+05 -5.472644E+02 -2.703673E+03 -5.413037E-09  2.135054E+03 -1.333743E-09
        45   7 -1.124229E+05  3.140862E+01 -8.363889E+02  1.065872E+02  6.670570E+02  1.145437E-04
        45   8 -1.123080E+05  1.085943E+01 -1.463871E+03 -4.103791E+01  1.401056E+03 -9.262717E-05
        45   9 -1.124230E+05 -5.472643E+02 -2.703673E+03 -1.886631E+02  2.135054E+03 -6.489281E-04
        45  10 -1.124229E+05  3.140850E+01 -8.363898E+02 -1.065872E+02 -1.795294E-10  2.848106E-10
        45  11 -1.123080E+05  1.085890E+01 -1.463875E+03  4.103791E+01  2.111620E-10  2.739687E-10
        45  12 -1.124230E+05 -5.472655E+02 -2.703682E+03  1.886631E+02  1.625830E-10 -4.953138E-10
        45  13 -1.124229E+05  3.140848E+01 -8.363898E+02  5.775459E-09 -1.081131E-09  3.403117E-10
        45  14 -1.123080E+05  1.085890E+01 -1.463875E+03  3.647899E-09 -1.919045E-11  1.721169E-10
        45  15 -1.124230E+05 -5.472656E+02 -2.703682E+03  4.423594E-10  1.728482E-11 -8.096564E-11
        45  16 -1.124229E+05  3.140850E+01 -8.363898E+02  1.065872E+02 -4.104593E-10  3.968142E-10
        45  17 -1.123080E+05  1.085890E+01 -1.463875E+03 -4.103791E+01  5.806901E-11  7.822274E-11
        45  18 -1.124230E+05 -5.472655E+02 -2.703682E+03 -1.886631E+02  1.460788E-09  3.264014E-10
        45  19 -1.124229E+05  3.140862E+01 -8.363889E+02 -1.065872E+02 -6.670570E+02  1.145428E-04
        45  20 -1.123080E+05  1.085943E+01 -1.463871E+03  4.103791E+01 -1.401056E+03 -9.262792E-05
        45  21 -1.124230E+05 -5.472643E+02 -2.703673E+03  1.886631E+02 -2.135054E+03 -6.489265E-04
        45  22 -1.124229E+05  3.140860E+01 -8.363889E+02  5.747853E-09 -6.670570E+02 -9.010189E-11
        45  23 -1.123080E+05  1.085943E+01 -1.463871E+03  2.523124E-09 -1.401056E+03 -3.115236E-10
        45  24 -1.124230E+05 -5.472644E+02 -2.703673E+03  3.337520E-09 -2.135054E+03  1.170230E-09
        45  25 -1.124229E+05  3.140862E+01 -8.363889E+02  1.065872E+02 -6.670570E+02 -1.145430E-04
        45  26 -1.123080E+05  1.085943E+01 -1.463871E+03 -4.103791E+01 -1.401056E+03  9.262731E-05
        45  27 -1.124230E+05 -5.472643E+02 -2.703673E+03 -1.886631E+02 -2.135054E+03  6.489288E-04
        46   1 -1.130130E+05  4.974990E+02 -3.414156E+03 -1.511810E+03  2.614684E+03 -6.368207E-03
        46   2 -1.115706E+05 -1.480769E+02 -5.856949E+03  1.868195E+03  5.711494E+03  1.718983E-02
        46   3 -1.130136E+05 -1.072142E+04 -1.279809E+04  5.248138E+03  8.808259E+03  7.447241E-02
        46   4 -1.130130E+05  4.974947E+02 -3.414156E+03  2.647964E-10  2.614684E+03 -1.361547E-09
        46   5 -1.115706E+05 -1.480835E+02 -5.856950E+03 -1.706264E-10  5.711494E+03  4.839638E-10
        46   6 -1.130136E+05 -1.072147E+04 -1.279810E+04  4.509066E-09  8.808259E+03  3.829860E-10
        46   7 -1.130130E+05  4.974990E+02 -3.414156E+03  1.511810E+03  2.614684E+03  6.368204E-03
        46   8 -1.115706E+05 -1.480769E+02 -5.856949E+03 -1.868195E+03  5.711494E+03 -1.718983E-02
        46   9 -1.130136E+05 -1.072142E+04 -1.279809E+04 -5.248138E+03  8.808259E+03 -7.447241E-02
        46  10 -1.130130E+05  4.974972E+02 -3.414168E+03 -1.511810E+03 -7.907520E-10 -3.811008E-10
        46  11 -1.115706E+05 -1.480857E+02 -5.857010E+03  1.868195E+03 -8.580486E-10  5.248782E-10
        46  12 -1.130136E+05 -1.072144E+04 -1.279824E+04  5.248138E+03 -1.957132E-10  2.828525E-10
        46  13 -1.130130E+05  4.974929E+02 -3.414169E+03 -7.427197E-10 -2.074066E-09 -7.293271E-11
        46  14 -1.115706E+05 -1.480923E+02 -5.857011E+03  1.997688E-09 -1.615381E-09  1.126589E-10
        46  15 -1.130137E+05 -1.072149E+04 -1.279824E+04 -2.260080E-09  1.090825E-09  6.090295E-11
        46  16 -1.130130E+05  4.974972E+02 -3.414168E+03  1.511810E+03  1.625224E-09  2.451650E-10
        46  17 -1.115706E+05 -1.480857E+02 -5.857010E+03 -1.868195E+03  7.974978E-11 -2.947497E-10
        46  18 -1.130136E+05 -1.072144E+04 -1.279824E+04 -5.248138E+03  8.181312E-10 -1.662692E-10
        46  19 -1.130130E+05  4.974990E+02 -3.414156E+03 -1.511810E+03 -2.614684E+03  6.368206E-03
        46  20 -1.115706E+05 -1.480769E+02 -5.856949E+03  1.868195E+03 -5.711494E+03 -1.718983E-02
        46  21 -1.130136E+05 -1.072142E+04 -1.279809E+04  5.248138E+03 -8.808259E+03 -7.447241E-02
        46  22 -1.130130E+05  4.974947E+02 -3.414156E+03  4.711321E-09 -2.614684E+03  1.219126E-09
        46  23 -1.115706E+05 -1.480835E+02 -5.856950E+03  9.361410E-10 -5.711494E+03 -2.570153E-10
        46  24 -1.130136E+05 -1.072147E+04 -1.279810E+04 -1.465923E-10 -8.808259E+03 -2.620923E-10
        46  25 -1.130130E+05  4.974990E+02 -3.414156E+03  1.511810E+03 -2.614684E+03 -6.368203E-03
        46  26 -1.115706E+05 -1.480769E+02 -5.856949E+03 -1.868195E+03 -5.711494E+03  1.718983E-02
        46  27 -1.130136E+05 -1.072142E+04 -1.279809E+04 -5.248138E+03 -8.808259E+03  7.447241E-02
        47   1  2.619602E+05  7.630873E+05  2.651290E+05 -1.204295E+05  1.086850E+04  6.639218E+04
        47   2  1.788277E+05  6.053649E+05  1.867866E+05 -7.799002E+04  3.286244E+04  3.030557E+04
        47   3  1.397870E+05  4.634968E+05  1.429672E+05 -9.340035E+04  3.098016E+04 -5.776256E+03
        47   4  4.298569E+04 -1.185746E+05  5.160448E+04 -9.908998E+04  1.087968E+04  3.376993E+04
        47   5  5.229550E+02 -1.244791E+05  2.492857E+04 -7.017308E+04  3.286996E+04  2.064587E+04
        47   6 -1.801889E+03 -1.185131E+05  1.685959E+04 -9.910660E+04  3.097299E+04  7.517571E+03
        47   7 -1.760436E+05 -9.995237E+05 -1.619718E+05 -7.778070E+04  1.088862E+04  1.193807E+03
        47   8 -1.778175E+05 -8.538259E+05 -1.369622E+05 -6.236534E+04  3.287724E+04  1.099739E+04
        47   9 -1.434130E+05 -7.002048E+05 -1.092675E+05 -1.048074E+05  3.096558E+04  2.079910E+04
        47  10  2.619589E+05  7.630826E+05  2.651205E+05 -1.204301E+05  6.032154E-10  9.576542E-12
        47  11  1.788263E+05  6.053636E+05  1.867829E+05 -7.799082E+04  1.004774E-09 -1.381927E-09
        47  12  1.397860E+05  4.634965E+05  1.429654E+05 -9.340020E+04 -3.714095E-09 -1.989183E-09
        47  13  4.298526E+04 -1.185759E+05  5.160212E+04 -9.909028E+04  5.891232E-11 -1.261916E-11
        47  14  5.216804E+02 -1.244799E+05  2.492573E+04 -7.017363E+04 -2.526653E-09 -3.517176E-10
        47  15 -1.802934E+03 -1.185134E+05  1.685768E+04 -9.910679E+04 -2.619104E-09 -1.546165E-10
        47  16 -1.760437E+05 -9.995237E+05 -1.619720E+05 -7.778071E+04  6.886758E-11 -1.363977E-11
        47  17 -1.778187E+05 -8.538263E+05 -1.369645E+05 -6.236564E+04  1.250607E-09  8.374787E-10
        47  18 -1.434141E+05 -7.002055E+05 -1.092701E+05 -1.048079E+05 -1.340282E-09  1.992096E-09
        47  19  2.619602E+05  7.630873E+05  2.651290E+05 -1.204295E+05 -1.086850E+04 -6.639218E+04
        47  20  1.788277E+05  6.053649E+05  1.867866E+05 -7.799002E+04 -3.286244E+04 -3.030557E+04
        47  21  1.397870E+05  4.634968E+05  1.429672E+05 -9.340035E+04 -3.098016E+04  5.776256E+03
        47  22  4.298569E+04 -1.185746E+05  5.160448E+04 -9.908998E+04 -1.087968E+04 -3.376993E+04
        47  23  5.229550E+02 -1.244791E+05  2.492857E+04 -7.017308E+04 -3.286996E+04 -2.064587E+04
        47  24 -1.801889E+03 -1.185131E+05  1.685959E+04 -9.910660E+04 -3.097299E+04 -7.517571E+03
        47  25 -1.760436E+05 -9.995237E+05 -1.619718E+05 -7.778070E+04 -1.088862E+04 -1.193807E+03
        47  26 -1.778175E+05 -8.538259E+05 -1.369622E+05 -6.236534E+04 -3.287724E+04 -1.099739E+04
        47  27 -1.434130E+05 -7.002048E+05 -1.092675E+05 -1.048074E+05 -3.096558E+04 -2.079910E+04
        48   1  1.147545E+05  3.418917E+05  1.157683E+05 -1.009330E+05  2.396279E+04 -1.683718E+03
        48   2  7.610916E+04  1.911359E+05  8.129996E+04 -7.001018E+04  1.671747E+04 -9.174168E+03
        48   3  4.269742E+04  4.261039E+04  5.299619E+04 -9.802711E+04  8.750791E+03 -1.666645E+04
        48   4  2.126063E+03 -1.206587E+05  1.512369E+04 -9.934457E+04  2.395880E+04  4.931415E+03
        48   5 -4.450818E+00 -1.216895E+05  1.354153E+04 -6.987358E+04  1.671168E+04 -1.863345E+03
        48   6  2.980788E+03 -1.206307E+05  1.764386E+04 -9.934383E+04  8.742990E+03 -8.661688E+03
        48   7 -1.105165E+05 -5.830085E+05 -8.553358E+04 -9.775727E+04  2.395484E+04  1.154168E+04
        48   8 -7.612450E+04 -4.344228E+05 -5.422252E+04 -6.973703E+04  1.670589E+04  5.443845E+03
        48   9 -3.673756E+04 -2.838467E+05 -1.770981E+04 -1.006602E+05  8.735154E+03 -6.589984E+02
        48  10  1.147539E+05  3.418915E+05  1.157672E+05 -1.009330E+05 -2.788940E-09  3.700564E-09
        48  11  7.610883E+04  1.911357E+05  8.129928E+04 -7.001005E+04 -3.870335E-10 -8.022308E-09
        48  12  4.269726E+04  4.261007E+04  5.299552E+04 -9.802699E+04  1.554910E-09 -1.499680E-08
        48  13  2.125440E+03 -1.206589E+05  1.512257E+04 -9.934466E+04 -2.468023E-09  2.592734E-11
        48  14 -4.751621E+00 -1.216895E+05  1.354100E+04 -6.987355E+04  2.073706E-09 -7.996077E-10
        48  15  2.980686E+03 -1.206308E+05  1.764357E+04 -9.934377E+04  1.702124E-09 -2.791077E-10
        48  16 -1.105172E+05 -5.830088E+05 -8.553491E+04 -9.775749E+04 -1.441597E-09 -3.522810E-09
        48  17 -7.612481E+04 -4.344229E+05 -5.422310E+04 -6.973710E+04  6.757975E-10  6.790624E-09
        48  18 -3.673764E+04 -2.838467E+05 -1.770996E+04 -1.006602E+05  4.710021E-10  1.499195E-08
        48  19  1.147545E+05  3.418917E+05  1.157683E+05 -1.009330E+05 -2.396279E+04  1.683718E+03
        48  20  7.610916E+04  1.911359E+05  8.129996E+04 -7.001018E+04 -1.671747E+04  9.174168E+03
        48  21  4.269742E+04  4.261039E+04  5.299619E+04 -9.802711E+04 -8.750791E+03  1.666645E+04
        48  22  2.126063E+03 -1.206587E+05  1.512369E+04 -9.934457E+04 -2.395880E+04 -4.931415E+03
        48  23 -4.450818E+00 -1.216895E+05  1.354153E+04 -6.987358E+04 -1.671168E+04  1.863345E+03
        48  24  2.980788E+03 -1.206307E+05  1.764386E+04 -9.934383E+04 -8.742990E+03  8.661688E+03
        48  25 -1.105165E+05 -5.830085E+05 -8.553358E+04 -9.775727E+04 -2.395484E+04 -1.154168E+04
        48  26 -7.612450E+04 -4.344228E+05 -5.422252E+04 -6.973703E+04 -1.670589E+04 -5.443845E+03
        48  27 -3.673756E+04 -2.838467E+05 -1.770981E+04 -1.006602E+05 -8.735154E+03  6.589984E+02
        49   1  8.310570E+03 -7.350461E+04  2.982039E+04 -1.073304E+05  2.942712E+03 -2.168473E+04
        49   2 -2.490280E+04 -2.302198E+05  8.344606E+03 -5.983214E+04 -3.456151E+03 -3.114250E+04
        49   3 -6.174607E+03 -3.728012E+05  5.987643E+03 -7.094807E+04 -1.905566E+03 -4.059134E+04
        49   4 -2.384756E+03 -1.176616E+05  2.060130E+04 -9.928380E+04  2.932287E+03 -1.171998E+04
        49   5  9.007271E+02 -1.253783E+05  3.238544E+04 -6.995242E+04 -3.457850E+03 -2.881137E+04
        49   6  5.744651E+04 -1.176670E+05  6.858550E+04 -9.923019E+04 -1.898619E+03 -4.589603E+04
        49   7 -1.307991E+04 -1.618165E+05  1.138252E+04 -9.123779E+04  2.922120E+03 -1.755928E+03
        49   8  2.670387E+04 -2.052645E+04  5.642563E+04 -8.007442E+04 -3.459626E+03 -2.647985E+04
        49   9  1.210658E+05  1.375282E+05  1.311791E+05 -1.275240E+05 -1.891191E+03 -5.120289E+04
        49  10  8.310434E+03 -7.350512E+04  2.981949E+04 -1.073303E+05  2.485050E-11  1.430459E-08
        49  11 -2.490307E+04 -2.302208E+05  8.342760E+03 -5.983222E+04  8.196413E-10  6.386834E-09
        49  12 -6.175053E+03 -3.728029E+05  5.984538E+03 -7.094813E+04  4.126640E-10 -2.023039E-09
        49  13 -2.384802E+03 -1.176618E+05  2.060103E+04 -9.928378E+04  2.970678E-09  2.150486E-11
        49  14  9.004914E+02 -1.253792E+05  3.238386E+04 -6.995250E+04  3.294848E-10 -9.342812E-10
        49  15  5.744594E+04 -1.176693E+05  6.858154E+04 -9.923027E+04 -1.383896E-09 -2.864009E-10
        49  16 -1.307992E+04 -1.618165E+05  1.138250E+04 -9.123779E+04  1.080764E-09 -1.407188E-08
        49  17  2.670367E+04 -2.052720E+04  5.642429E+04 -8.007450E+04  2.206229E-09 -7.759144E-09
        49  18  1.210651E+05  1.375254E+05  1.311742E+05 -1.275240E+05  1.007899E-09  2.010219E-09
        49  19  8.310570E+03 -7.350461E+04  2.982039E+04 -1.073304E+05 -2.942712E+03  2.168473E+04
        49  20 -2.490280E+04 -2.302198E+05  8.344606E+03 -5.983214E+04  3.456151E+03  3.114250E+04
        49  21 -6.174607E+03 -3.728012E+05  5.987643E+03 -7.094807E+04  1.905566E+03  4.059134E+04
        49  22 -2.384756E+03 -1.176616E+05  2.060130E+04 -9.928380E+04 -2.932287E+03  1.171998E+04
        49  23  9.007271E+02 -1.253783E+05  3.238544E+04 -6.995242E+04  3.457850E+03  2.881137E+04
        49  24  5.744651E+04 -1.176670E+05  6.858550E+04 -9.923019E+04  1.898619E+03  4.589603E+04
        49  25 -1.307991E+04 -1.618165E+05  1.138252E+04 -9.123779E+04 -2.922120E+03  1.755928E+03
        49  26  2.670387E+04 -2.052645E+04  5.642563E+04 -8.007442E+04  3.459626E+03  2.647985E+04
        49  27  1.210658E+05  1.375282E+05  1.311791E+05 -1.275240E+05  1.891191E+03  5.120289E+04
        50   1 -5.436081E+05 -1.401195E+05 -5.803786E+04 -2.079883E+05 -2.560781E+04 -8.253291E+03
        50   2 -5.291519E+05 -1.001832E+05 -3.289802E+04 -2.028713E+05 -1.614512E+04 -2.009727E+03
        50   3 -5.211599E+05 -9.050596E+04 -2.248532E+04 -1.965021E+05 -5.694755E+03  1.600635E+03
        50   4 -4.632303E+05 -9.772176E+04 -3.422731E+04 -1.735581E+05 -2.230416E+04 -7.015143E+03
        50   5 -4.583749E+05 -6.963519E+04 -1.489419E+04 -1.791289E+05 -1.520589E+04 -1.657738E+03
        50   6 -4.595140E+05 -7.133747E+04 -8.412822E+03 -1.834481E+05 -7.120109E+03  1.066267E+03
        50   7 -3.828471E+05 -5.532216E+04 -1.041771E+04 -1.391237E+05 -1.900009E+04 -5.776676E+03
        50   8 -3.875933E+05 -3.908643E+04  3.109160E+03 -1.553839E+05 -1.426655E+04 -1.305690E+03
        50   9 -3.978637E+05 -5.216881E+04  5.659563E+03 -1.703930E+05 -8.545627E+03  5.318575E+02
        50  10 -5.436089E+05 -1.401198E+05 -5.803922E+04 -2.079885E+05  9.543251E-10  4.184733E-12
        50  11 -5.291521E+05 -1.001833E+05 -3.289852E+04 -2.028713E+05  1.063791E-09 -4.784168E-10
        50  12 -5.211600E+05 -9.050597E+04 -2.248538E+04 -1.965021E+05 -1.256074E-09 -2.422575E-10
        50  13 -4.632309E+05 -9.772194E+04 -3.422834E+04 -1.735582E+05  2.738570E-11 -3.914778E-10
        50  14 -4.583752E+05 -6.963525E+04 -1.489463E+04 -1.791289E+05  2.113186E-09 -5.346592E-10
        50  15 -4.595140E+05 -7.133748E+04 -8.412919E+03 -1.834481E+05  1.112420E-09  2.185472E-10
        50  16 -3.828475E+05 -5.532229E+04 -1.041845E+04 -1.391238E+05  1.447463E-09 -6.739329E-10
        50  17 -3.875935E+05 -3.908649E+04  3.108774E+03 -1.553840E+05  9.742801E-10 -8.151450E-10
        50  18 -3.978638E+05 -5.216883E+04  5.659425E+03 -1.703930E+05  2.897672E-09  6.374436E-10
        50  19 -5.436081E+05 -1.401195E+05 -5.803786E+04 -2.079883E+05  2.560781E+04  8.253291E+03
        50  20 -5.291519E+05 -1.001832E+05 -3.289802E+04 -2.028713E+05  1.614512E+04  2.009727E+03
        50  21 -5.211599E+05 -9.050596E+04 -2.248532E+04 -1.965021E+05  5.694755E+03 -1.600635E+03
        50  22 -4.632303E+05 -9.772176E+04 -3.422731E+04 -1.735581E+05  2.230416E+04  7.015143E+03
        50  23 -4.583749E+05 -6.963519E+04 -1.489419E+04 -1.791289E+05  1.520589E+04  1.657738E+03
        50  24 -4.595140E+05 -7.133747E+04 -8.412822E+03 -1.834481E+05  7.120109E+03 -1.066267E+03
        50  25 -3.828471E+05 -5.532216E+04 -1.041771E+04 -1.391237E+05  1.900009E+04  5.776676E+03
        50  26 -3.875933E+05 -3.908643E+04  3.109160E+03 -1.553839E+05  1.426655E+04  1.305690E+03
        50  27 -3.978637E+05 -5.216881E+04  5.659563E+03 -1.703930E+05  8.545627E+03 -5.318575E+02
        51   1 -5.044565E+05 -9.142602E+04 -1.778802E+04 -1.950882E+05 -5.118494E+03  9.303036E+02
        51   2 -4.914101E+05 -8.171021E+04 -1.090900E+04 -1.884020E+05 -2.980460E+03  8.450413E+02
        51   3 -4.745452E+05 -7.813716E+04 -5.812108E+03 -1.866965E+05 -7.981349E+02  6.416561E+02
        51   4 -4.584165E+05 -7.381049E+04 -6.651184E+03 -1.819341E+05 -5.764090E+03  6.882506E+02
        51   5 -4.602312E+05 -7.000700E+04 -3.430802E+03 -1.797219E+05 -3.732022E+03  5.632842E+02
        51   6 -4.582066E+05 -7.232511E+04 -1.908418E+03 -1.824905E+05 -1.655735E+03  3.201761E+02
        51   7 -4.123743E+05 -5.619472E+04  4.485534E+03 -1.687790E+05 -6.409741E+03  4.461761E+02
        51   8 -4.290516E+05 -5.830381E+04  4.047251E+03 -1.710415E+05 -4.483619E+03  2.815136E+02
        51   9 -4.418682E+05 -6.651316E+04  1.995165E+03 -1.782845E+05 -2.513343E+03 -1.305618E+00
        51  10 -5.044565E+05 -9.142603E+04 -1.778807E+04 -1.950882E+05  7.411874E-10  3.814971E-10
        51  11 -4.914101E+05 -8.171022E+04 -1.090902E+04 -1.884020E+05 -3.928317E-10 -4.265994E-10
        51  12 -4.745452E+05 -7.813716E+04 -5.812110E+03 -1.866965E+05 -1.750100E-09 -1.974705E-10
        51  13 -4.584165E+05 -7.381050E+04 -6.651247E+03 -1.819341E+05  6.221768E-12  6.265580E-10
        51  14 -4.602312E+05 -7.000700E+04 -3.430829E+03 -1.797219E+05 -9.790171E-10  3.077057E-11
        51  15 -4.582066E+05 -7.232511E+04 -1.908423E+03 -1.824905E+05 -6.707087E-09 -5.244198E-10
        51  16 -4.123743E+05 -5.619473E+04  4.485457E+03 -1.687790E+05 -1.091027E-09  5.685563E-10
        51  17 -4.290516E+05 -5.830382E+04  4.047213E+03 -1.710415E+05 -2.591855E-09  2.319310E-10
        51  18 -4.418682E+05 -6.651316E+04  1.995153E+03 -1.782845E+05 -3.857760E-09 -1.109942E-09
        51  19 -5.044565E+05 -9.142602E+04 -1.778802E+04 -1.950882E+05  5.118494E+03 -9.303036E+02
        51  20 -4.914101E+05 -8.171021E+04 -1.090900E+04 -1.884020E+05  2.980460E+03 -8.450413E+02
        51  21 -4.745452E+05 -7.813716E+04 -5.812108E+03 -1.866965E+05  7.981349E+02 -6.416561E+02
        51  22 -4.584165E+05 -7.381049E+04 -6.651184E+03 -1.819341E+05  5.764090E+03 -6.882506E+02
        51  23 -4.602312E+05 -7.000700E+04 -3.430802E+03 -1.797219E+05  3.732022E+03 -5.632842E+02
        51  24 -4.582066E+05 -7.232511E+04 -1.908418E+03 -1.824905E+05  1.655735E+03 -3.201761E+02
        51  25 -4.123743E+05 -5.619472E+04  4.485534E+03 -1.687790E+05  6.409741E+03 -4.461761E+02
        51  26 -4.290516E+05 -5.830381E+04  4.047251E+03 -1.710415E+05  4.483619E+03 -2.815136E+02
        51  27 -4.418682E+05 -6.651316E+04  1.995165E+03 -1.782845E+05  2.513343E+03  1.305618E+00
        52   1 -4.617737E+05 -7.379575E+04 -2.277144E+03 -1.833874E+05 -3.575657E+02  1.804421E+02
        52   2 -4.489025E+05 -6.578273E+04  1.938402E+03 -1.765918E+05  3.921867E+02 -5.860927E+02
        52   3 -4.314905E+05 -6.249062E+04  5.828641E+03 -1.750947E+05  1.143781E+03 -1.357399E+03
        52   4 -4.581133E+05 -7.245873E+04 -1.453842E+03 -1.823943E+05 -1.180516E+03 -1.280446E+02
        52   5 -4.603786E+05 -7.006165E+04 -8.022068E+02 -1.797588E+05 -4.350729E+02 -8.962108E+02
        52   6 -4.581026E+05 -7.238478E+04 -4.724862E+02 -1.824219E+05  3.122000E+02 -1.669151E+03
        52   7 -4.544527E+05 -7.112167E+04 -6.305198E+02 -1.814013E+05 -2.003485E+03 -4.365385E+02
        52   8 -4.718547E+05 -7.434062E+04 -3.542868E+03 -1.829258E+05 -1.262328E+03 -1.206327E+03
        52   9 -4.847143E+05 -8.227901E+04 -6.773749E+03 -1.897490E+05 -5.193526E+02 -1.980892E+03
        52  10 -4.617737E+05 -7.379575E+04 -2.277145E+03 -1.833874E+05 -2.664405E-09 -3.040749E-10
        52  11 -4.489025E+05 -6.578274E+04  1.938401E+03 -1.765918E+05 -6.394565E-10  1.959025E-11
        52  12 -4.314905E+05 -6.249062E+04  5.828635E+03 -1.750947E+05  3.665913E-10  1.411854E-10
        52  13 -4.581133E+05 -7.245873E+04 -1.453844E+03 -1.823943E+05 -5.186254E-09 -5.024328E-10
        52  14 -4.603786E+05 -7.006165E+04 -8.022086E+02 -1.797588E+05 -5.162635E-10 -7.649969E-11
        52  15 -4.581026E+05 -7.238478E+04 -4.724916E+02 -1.824219E+05 -1.117442E-09 -3.866860E-10
        52  16 -4.544527E+05 -7.112167E+04 -6.305277E+02 -1.814013E+05 -3.378928E-09 -6.646535E-10
        52  17 -4.718547E+05 -7.434062E+04 -3.542874E+03 -1.829258E+05  2.637280E-10 -2.920300E-10
        52  18 -4.847143E+05 -8.227901E+04 -6.773757E+03 -1.897490E+05 -1.210642E-09 -4.781123E-10
        52  19 -4.617737E+05 -7.379575E+04 -2.277144E+03 -1.833874E+05  3.575657E+02 -1.804421E+02
        52  20 -4.489025E+05 -6.578273E+04  1.938402E+03 -1.765918E+05 -3.921867E+02  5.860927E+02
        52  21 -4.314905E+05 -6.249062E+04  5.828641E+03 -1.750947E+05 -1.143781E+03  1.357399E+03
        52  22 -4.581133E+05 -7.245873E+04 -1.453842E+03 -1.823943E+05  1.180516E+03  1.280446E+02
        52  23 -4.603786E+05 -7.006165E+04 -8.022068E+02 -1.797588E+05  4.350729E+02  8.962108E+02
        52  24 -4.581026E+05 -7.238478E+04 -4.724862E+02 -1.824219E+05 -3.122000E+02  1.669151E+03
        52  25 -4.544527E+05 -7.112167E+04 -6.305198E+02 -1.814013E+05  2.003485E+03  4.365385E+02
        52  26 -4.718547E+05 -7.434062E+04 -3.542868E+03 -1.829258E+05  1.262328E+03  1.206327E+03
        52  27 -4.847143E+05 -8.227901E+04 -6.773749E+03 -1.897490E+05  5.193526E+02  1.980892E+03
        53   1 -4.190010E+05 -5.785875E+04  9.001122E+03 -1.716857E+05  1.414097E+03 -1.870064E+03
        53   2 -4.061827E+05 -4.994659E+04  1.265345E+04 -1.648921E+05  1.899506E+03 -2.741019E+03
        53   3 -3.887660E+05 -4.666192E+04  1.620054E+04 -1.633968E+05  2.384729E+03 -3.611289E+03
        53   4 -4.580940E+05 -7.238867E+04 -3.799033E+02 -1.824129E+05  5.844680E+02 -2.181095E+03
        53   5 -4.603931E+05 -7.007441E+04 -2.808322E+02 -1.797640E+05  1.070459E+03 -3.051860E+03
        53   6 -4.580940E+05 -7.238760E+04 -2.874106E+02 -1.824134E+05  1.556264E+03 -3.921945E+03
        53   7 -4.971847E+05 -8.691819E+04 -9.760819E+03 -1.931393E+05 -2.450873E+02 -2.492098E+03
        53   8 -5.146002E+05 -9.020190E+04 -1.321524E+04 -1.946347E+05  2.414954E+02 -3.362669E+03
        53   9 -5.274178E+05 -9.811315E+04 -1.677586E+04 -2.014282E+05  7.278927E+02 -4.232566E+03
        53  10 -4.190010E+05 -5.785875E+04  9.001112E+03 -1.716857E+05 -1.222571E-09  3.024387E-11
        53  11 -4.061827E+05 -4.994660E+04  1.265343E+04 -1.648921E+05 -1.677795E-09  2.699322E-10
        53  12 -3.887661E+05 -4.666194E+04  1.620050E+04 -1.633968E+05 -1.657143E-09  3.481420E-10
        53  13 -4.580940E+05 -7.238868E+04 -3.799129E+02 -1.824129E+05 -2.251893E-09 -3.990574E-10
        53  14 -4.603931E+05 -7.007442E+04 -2.808519E+02 -1.797640E+05 -1.718638E-09  2.492329E-11
        53  15 -4.580940E+05 -7.238762E+04 -2.874441E+02 -1.824134E+05 -9.986592E-10  7.303372E-10
        53  16 -4.971847E+05 -8.691820E+04 -9.760831E+03 -1.931393E+05  2.677815E-10 -5.969609E-10
        53  17 -5.146002E+05 -9.020191E+04 -1.321526E+04 -1.946347E+05 -2.000756E-09  6.489266E-11
        53  18 -5.274178E+05 -9.811317E+04 -1.677590E+04 -2.014282E+05 -1.144164E-10  8.346840E-10
        53  19 -4.190010E+05 -5.785875E+04  9.001122E+03 -1.716857E+05 -1.414097E+03  1.870064E+03
        53  20 -4.061827E+05 -4.994659E+04  1.265345E+04 -1.648921E+05 -1.899506E+03  2.741019E+03
        53  21 -3.887660E+05 -4.666192E+04  1.620054E+04 -1.633968E+05 -2.384729E+03  3.611289E+03
        53  22 -4.580940E+05 -7.238867E+04 -3.799033E+02 -1.824129E+05 -5.844680E+02  2.181095E+03
        53  23 -4.603931E+05 -7.007441E+04 -2.808322E+02 -1.797640E+05 -1.070459E+03  3.051860E+03
        53  24 -4.580940E+05 -7.238760E+04 -2.874106E+02 -1.824134E+05 -1.556264E+03  3.921945E+03
        53  25 -4.971847E+05 -8.691819E+04 -9.760819E+03 -1.931393E+05  2.450873E+02  2.492098E+03
        53  26 -5.146002E+05 -9.020190E+04 -1.321524E+04 -1.946347E+05 -2.414954E+02  3.362669E+03
        53  27 -5.274178E+05 -9.811315E+04 -1.677586E+04 -2.014282E+05 -7.278927E+02  4.232566E+03
        54   1 -3.763334E+05 -4.202444E+04  1.923372E+04 -1.599907E+05  2.635882E+03 -4.128920E+03
        54   2 -3.635628E+05 -3.414669E+04  2.259661E+04 -1.532248E+05  3.228518E+03 -4.955796E+03
        54   3 -3.462282E+05 -3.088644E+04  2.577208E+04 -1.517365E+05  3.820427E+03 -5.780381E+03
        54   4 -4.581020E+05 -7.238380E+04 -3.267157E+02 -1.824097E+05  1.808529E+03 -4.439190E+03
        54   5 -4.603849E+05 -7.007859E+04 -5.012132E+02 -1.797696E+05  2.403159E+03 -5.265378E+03
        54   6 -4.581042E+05 -7.239135E+04 -8.646745E+02 -1.824074E+05  2.997055E+03 -6.089275E+03
        54   7 -5.398640E+05 -1.027427E+05 -1.988763E+04 -2.048261E+05  9.812952E+02 -4.749415E+03
        54   8 -5.571974E+05 -1.060097E+05 -2.359963E+04 -2.063107E+05  1.577943E+03 -5.574906E+03
        54   9 -5.699672E+05 -1.138951E+05 -2.750216E+04 -2.130731E+05  2.173849E+03 -6.398108E+03
        54  10 -3.763334E+05 -4.202446E+04  1.923368E+04 -1.599907E+05  4.509892E-10  6.190373E-10
        54  11 -3.635628E+05 -3.414672E+04  2.259654E+04 -1.532247E+05  5.120245E-10 -3.934699E-10
        54  12 -3.462282E+05 -3.088648E+04  2.577199E+04 -1.517365E+05 -4.934581E-10 -3.559891E-10
        54  13 -4.581020E+05 -7.238382E+04 -3.267589E+02 -1.824097E+05 -2.121845E-10  5.490229E-10
        54  14 -4.603849E+05 -7.007862E+04 -5.012762E+02 -1.797696E+05  4.871313E-10 -1.441190E-10
        54  15 -4.581042E+05 -7.239139E+04 -8.647610E+02 -1.824074E+05  1.941002E-09 -7.364271E-11
        54  16 -5.398640E+05 -1.027427E+05 -1.988768E+04 -2.048261E+05 -1.485482E-09  5.369155E-10
        54  17 -5.571974E+05 -1.060098E+05 -2.359970E+04 -2.063107E+05  8.465671E-10  2.497458E-10
        54  18 -5.699672E+05 -1.138952E+05 -2.750225E+04 -2.130731E+05  1.308865E-09  1.828427E-10
        54  19 -3.763334E+05 -4.202444E+04  1.923372E+04 -1.599907E+05 -2.635882E+03  4.128920E+03
        54  20 -3.635628E+05 -3.414669E+04  2.259661E+04 -1.532248E+05 -3.228518E+03  4.955796E+03
        54  21 -3.462282E+05 -3.088644E+04  2.577208E+04 -1.517365E+05 -3.820427E+03  5.780381E+03
        54  22 -4.581020E+05 -7.238380E+04 -3.267157E+02 -1.824097E+05 -1.808529E+03  4.439190E+03
        54  23 -4.603849E+05 -7.007859E+04 -5.012132E+02 -1.797696E+05 -2.403159E+03  5.265378E+03
        54  24 -4.581042E+05 -7.239135E+04 -8.646745E+02 -1.824074E+05 -2.997055E+03  6.089275E+03
        54  25 -5.398640E+05 -1.027427E+05 -1.988763E+04 -2.048261E+05 -9.812952E+02  4.749415E+03
        54  26 -5.571974E+05 -1.060097E+05 -2.359963E+04 -2.063107E+05 -1.577943E+03  5.574906E+03
        54  27 -5.699672E+05 -1.138951E+05 -2.750216E+04 -2.130731E+05 -2.173849E+03  6.398108E+03
        55   1 -3.338655E+05 -2.628045E+04  2.855385E+04 -1.483902E+05  4.188642E+03 -6.252081E+03
        55   2 -3.211265E+05 -1.841715E+04  3.116364E+04 -1.416219E+05  5.538371E+03 -6.784770E+03
        55   3 -3.040280E+05 -1.536227E+04  3.296480E+04 -1.400714E+05  6.882338E+03 -7.301432E+03
        55   4 -4.581417E+05 -7.237048E+04 -1.138561E+03 -1.824183E+05  3.363069E+03 -6.561846E+03
        55   5 -4.603346E+05 -7.006374E+04 -2.044127E+03 -1.797724E+05  4.726910E+03 -7.089330E+03
        55   6 -4.581713E+05 -7.256855E+04 -3.769719E+03 -1.823447E+05  6.084959E+03 -7.600794E+03
        55   7 -5.824032E+05 -1.184597E+05 -3.083227E+04 -2.164403E+05  2.537671E+03 -6.871545E+03
        55   8 -5.995238E+05 -1.217091E+05 -3.525339E+04 -2.179152E+05  3.915645E+03 -7.393816E+03
        55   9 -6.122910E+05 -1.297732E+05 -4.050595E+04 -2.246085E+05  5.287796E+03 -7.900074E+03
        55  10 -3.338655E+05 -2.628050E+04  2.855374E+04 -1.483902E+05 -9.005180E-10  4.844017E-11
        55  11 -3.211265E+05 -1.841721E+04  3.116350E+04 -1.416218E+05  1.222983E-09 -6.306149E-11
        55  12 -3.040281E+05 -1.536234E+04  3.296461E+04 -1.400714E+05  4.918517E-10  4.521351E-10
        55  13 -4.581417E+05 -7.237053E+04 -1.138663E+03 -1.824182E+05 -1.627341E-10  2.607246E-11
        55  14 -4.603346E+05 -7.006380E+04 -2.044263E+03 -1.797724E+05 -5.091559E-10 -4.835536E-10
        55  15 -4.581713E+05 -7.256862E+04 -3.769897E+03 -1.823447E+05 -2.495227E-10 -3.241222E-10
        55  16 -5.824032E+05 -1.184597E+05 -3.083237E+04 -2.164403E+05  1.453495E-09  2.500717E-11
        55  17 -5.995239E+05 -1.217092E+05 -3.525353E+04 -2.179152E+05  1.473310E-10 -4.936797E-10
        55  18 -6.122911E+05 -1.297732E+05 -4.050612E+04 -2.246085E+05 -1.342194E-09 -1.525655E-09
        55  19 -3.338655E+05 -2.628045E+04  2.855385E+04 -1.483902E+05 -4.188642E+03  6.252081E+03
        55  20 -3.211265E+05 -1.841715E+04  3.116364E+04 -1.416219E+05 -5.538371E+03  6.784770E+03
        55  21 -3.040280E+05 -1.536227E+04  3.296480E+04 -1.400714E+05 -6.882338E+03  7.301432E+03
        55  22 -4.581417E+05 -7.237048E+04 -1.138561E+03 -1.824183E+05 -3.363069E+03  6.561846E+03
        55  23 -4.603346E+05 -7.006374E+04 -2.044127E+03 -1.797724E+05 -4.726910E+03  7.089330E+03
        55  24 -4.581713E+05 -7.256855E+04 -3.769719E+03 -1.823447E+05 -6.084959E+03  7.600794E+03
        55  25 -5.824032E+05 -1.184597E+05 -3.083227E+04 -2.164403E+05 -2.537671E+03  6.871545E+03
        55  26 -5.995238E+05 -1.217091E+05 -3.525339E+04 -2.179152E+05 -3.915645E+03  7.393816E+03
        55  27 -6.122910E+05 -1.297732E+05 -4.050595E+04 -2.246085E+05 -5.287796E+03  7.900074E+03
        56   1 -2.915312E+05 -1.090171E+04  3.478520E+04 -1.374883E+05  7.877404E+03 -7.562804E+03
        56   2 -2.790048E+05 -2.383553E+03  3.432220E+04 -1.296716E+05  1.245952E+04 -6.791908E+03
        56   3 -2.639351E+05 -2.250918E+03  2.964560E+04 -1.262023E+05  1.692790E+04 -5.717137E+03
        56   4 -4.584237E+05 -7.221269E+04 -4.964552E+03 -1.825879E+05  6.993249E+03 -7.894780E+03
        56   5 -4.599429E+05 -6.993374E+04 -8.952631E+03 -1.796863E+05  1.184701E+04 -7.022060E+03
        56   6 -4.589737E+05 -7.609492E+04 -1.737058E+04 -1.811322E+05  1.658694E+04 -5.845468E+03
        56   7 -6.252878E+05 -1.335215E+05 -4.471606E+04 -2.276762E+05  6.109358E+03 -8.226659E+03
        56   8 -6.408487E+05 -1.374815E+05 -5.222983E+04 -2.296877E+05  1.123470E+04 -7.252138E+03
        56   9 -6.539756E+05 -1.499363E+05 -6.438983E+04 -2.360465E+05  1.624611E+04 -5.973755E+03
        56  10 -2.915313E+05 -1.090179E+04  3.478497E+04 -1.374883E+05  7.415732E-09  3.425116E-09
        56  11 -2.790049E+05 -2.383644E+03  3.432182E+04 -1.296715E+05  1.820653E-09  1.822515E-09
        56  12 -2.639355E+05 -2.251030E+03  2.964500E+04 -1.262022E+05 -8.518452E-09 -2.910611E-09
        56  13 -4.584238E+05 -7.221277E+04 -4.964761E+03 -1.825878E+05  9.451542E-10  5.327097E-10
        56  14 -4.599431E+05 -6.993383E+04 -8.952988E+03 -1.796862E+05 -1.272871E-10  2.151181E-09
        56  15 -4.589740E+05 -7.609503E+04 -1.737116E+04 -1.811321E+05 -2.916890E-09 -1.227682E-11
        56  16 -6.252879E+05 -1.335216E+05 -4.471626E+04 -2.276762E+05 -6.264996E-09 -2.399891E-09
        56  17 -6.408488E+05 -1.374816E+05 -5.223017E+04 -2.296877E+05 -2.605841E-10  2.393536E-09
        56  18 -6.539758E+05 -1.499364E+05 -6.439040E+04 -2.360465E+05  5.436486E-09  2.953936E-09
        56  19 -2.915312E+05 -1.090171E+04  3.478520E+04 -1.374883E+05 -7.877404E+03  7.562804E+03
        56  20 -2.790048E+05 -2.383553E+03  3.432220E+04 -1.296716E+05 -1.245952E+04  6.791908E+03
        56  21 -2.639351E+05 -2.250918E+03  2.964560E+04 -1.262023E+05 -1.692790E+04  5.717137E+03
        56  22 -4.584237E+05 -7.221269E+04 -4.964552E+03 -1.825879E+05 -6.993249E+03  7.894780E+03
        56  23 -4.599429E+05 -6.993374E+04 -8.952631E+03 -1.796863E+05 -1.184701E+04  7.022060E+03
        56  24 -4.589737E+05 -7.609492E+04 -1.737058E+04 -1.811322E+05 -1.658694E+04  5.845468E+03
        56  25 -6.252878E+05 -1.335215E+05 -4.471606E+04 -2.276762E+05 -6.109358E+03  8.226659E+03
        56  26 -6.408487E+05 -1.374815E+05 -5.222983E+04 -2.296877E+05 -1.123470E+04  7.252138E+03
        56  27 -6.539756E+05 -1.499363E+05 -6.438983E+04 -2.360465E+05 -1.624611E+04  5.973755E+03
        57   1 -2.464371E+05  6.586379E+02  2.767741E+04 -1.359907E+05  2.212764E+04 -5.061851E+03
        57   2 -2.406291E+05  2.190108E+04  1.516335E+04 -1.079144E+05  3.665194E+04  1.274409E+03
        57   3 -2.568466E+05 -2.587900E+04 -2.612476E+04 -6.787075E+04  4.864791E+04  1.434348E+04
        57   4 -4.618407E+05 -6.963517E+04 -2.197454E+04 -1.850877E+05  1.979370E+04 -5.938086E+03
        57   5 -4.550923E+05 -6.896653E+04 -3.890951E+04 -1.781397E+05  4.036073E+04  2.666054E+03
        57   6 -4.715769E+05 -1.385339E+05 -8.941590E+04 -1.592221E+05  5.839864E+04  1.800279E+04
        57   7 -6.771984E+05 -1.399281E+05 -7.162952E+04 -2.341703E+05  1.746065E+04 -6.814083E+03
        57   8 -6.695088E+05 -1.598267E+05 -9.298577E+04 -2.483414E+05  4.406813E+04  4.057003E+03
        57   9 -6.862583E+05 -2.511705E+05 -1.527106E+05 -2.505400E+05  6.814563E+04  2.165943E+04
        57  10 -2.464376E+05  6.584790E+02  2.767645E+04 -1.359906E+05 -4.949927E-09 -2.088508E-09
        57  11 -2.406305E+05  2.190072E+04  1.516082E+04 -1.079144E+05 -1.282221E-09 -3.513965E-10
        57  12 -2.568491E+05 -2.587985E+04 -2.612959E+04 -6.787131E+04  9.995699E-10  7.797944E-10
        57  13 -4.618412E+05 -6.963531E+04 -2.197534E+04 -1.850876E+05 -6.167190E-10 -1.172120E-09
        57  14 -4.550940E+05 -6.896697E+04 -3.891259E+04 -1.781398E+05 -3.020820E-10 -8.814791E-10
        57  15 -4.715807E+05 -1.385352E+05 -8.942293E+04 -1.592230E+05  1.028601E-10  1.109402E-10
        57  16 -6.771987E+05 -1.399283E+05 -7.163018E+04 -2.341702E+05 -4.691449E-10  5.903428E-10
        57  17 -6.695109E+05 -1.598273E+05 -9.298945E+04 -2.483416E+05  8.384306E-10 -1.909301E-10
        57  18 -6.862635E+05 -2.511723E+05 -1.527202E+05 -2.505412E+05  6.134291E-10  7.768658E-11
        57  19 -2.464371E+05  6.586379E+02  2.767741E+04 -1.359907E+05 -2.212764E+04  5.061851E+03
        57  20 -2.406291E+05  2.190108E+04  1.516335E+04 -1.079144E+05 -3.665194E+04 -1.274409E+03
        57  21 -2.568466E+05 -2.587900E+04 -2.612476E+04 -6.787075E+04 -4.864791E+04 -1.434348E+04
        57  22 -4.618407E+05 -6.963517E+04 -2.197454E+04 -1.850877E+05 -1.979370E+04  5.938086E+03
        57  23 -4.550923E+05 -6.896653E+04 -3.890951E+04 -1.781397E+05 -4.036073E+04 -2.666054E+03
        57  24 -4.715769E+05 -1.385339E+05 -8.941590E+04 -1.592221E+05 -5.839864E+04 -1.800279E+04
        57  25 -6.771984E+05 -1.399281E+05 -7.162952E+04 -2.341703E+05 -1.746065E+04  6.814083E+03
        57  26 -6.695088E+05 -1.598267E+05 -9.298577E+04 -2.483414E+05 -4.406813E+04 -4.057003E+03
        57  27 -6.862583E+05 -2.511705E+05 -1.527106E+05 -2.505400E+05 -6.814563E+04 -2.165943E+04
        58   1 -1.262122E+04  6.727514E+03  8.030034E+03  3.293228E+03  5.531279E+03  2.934143E-02
        58   2 -1.352634E+04  9.307041E+01  3.671709E+03  1.172078E+03  3.589789E+03  6.777345E-03
        58   3 -1.262128E+04 -3.120349E+02  2.134771E+03 -9.490988E+02  1.648269E+03 -2.519841E-03
        58   4 -1.262123E+04  6.727494E+03  8.030031E+03  4.963199E-09  5.531279E+03  2.762808E-10
        58   5 -1.352634E+04  9.306783E+01  3.671708E+03 -3.525745E-09  3.589789E+03  4.765390E-10
        58   6 -1.262128E+04 -3.120366E+02  2.134771E+03  4.139768E-09  1.648269E+03 -5.622879E-10
        58   7 -1.262122E+04  6.727514E+03  8.030034E+03 -3.293228E+03  5.531279E+03 -2.934142E-02
        58   8 -1.352634E+04  9.307041E+01  3.671709E+03 -1.172078E+03  3.589789E+03 -6.777344E-03
        58   9 -1.262128E+04 -3.120349E+02  2.134771E+03  9.490988E+02  1.648269E+03  2.519840E-03
        58  10 -1.262125E+04  6.727506E+03  8.029977E+03  3.293228E+03  1.965485E-11  5.968855E-10
        58  11 -1.352635E+04  9.306695E+01  3.671685E+03  1.172078E+03  4.245400E-11  1.130408E-09
        58  12 -1.262128E+04 -3.120357E+02  2.134766E+03 -9.490988E+02  2.707036E-09 -6.909535E-10
        58  13 -1.262126E+04  6.727485E+03  8.029974E+03 -2.310237E-09 -1.083185E-09  4.059056E-10
        58  14 -1.352636E+04  9.306437E+01  3.671684E+03  2.856255E-09 -1.620618E-09  8.164604E-10
        58  15 -1.262128E+04 -3.120374E+02  2.134766E+03 -5.439350E-09  2.160799E-09 -3.012358E-10
        58  16 -1.262125E+04  6.727506E+03  8.029977E+03 -3.293228E+03  1.860891E-09  2.143999E-10
        58  17 -1.352635E+04  9.306695E+01  3.671685E+03 -1.172078E+03 -3.245977E-10  4.987963E-10
        58  18 -1.262128E+04 -3.120357E+02  2.134766E+03  9.490988E+02 -1.639372E-09  8.703471E-11
        58  19 -1.262122E+04  6.727514E+03  8.030034E+03  3.293228E+03 -5.531279E+03 -2.934142E-02
        58  20 -1.352634E+04  9.307041E+01  3.671709E+03  1.172078E+03 -3.589789E+03 -6.777343E-03
        58  21 -1.262128E+04 -3.120349E+02  2.134771E+03 -9.490988E+02 -1.648269E+03  2.519840E-03
        58  22 -1.262123E+04  6.727494E+03  8.030031E+03  9.802198E-09 -5.531279E+03  5.347764E-10
        58  23 -1.352634E+04  9.306783E+01  3.671708E+03  4.930320E-09 -3.589789E+03  1.154217E-09
        58  24 -1.262128E+04 -3.120366E+02  2.134771E+03  8.662100E-10 -1.648269E+03 -4.000821E-11
        58  25 -1.262122E+04  6.727514E+03  8.030034E+03 -3.293228E+03 -5.531279E+03  2.934143E-02
        58  26 -1.352634E+04  9.307041E+01  3.671709E+03 -1.172078E+03 -3.589789E+03  6.777345E-03
        58  27 -1.262128E+04 -3.120349E+02  2.134771E+03  9.490988E+02 -1.648269E+03 -2.519840E-03
        59   1 -1.299174E+04  3.434506E+02  1.686099E+03  1.179450E+02  1.348912E+03  2.562678E-04
        59   2 -1.306328E+04 -6.501118E+00  8.997456E+02  2.475195E+01  8.976173E+02  3.578665E-05
        59   3 -1.299175E+04 -1.922690E+01  4.915171E+02 -6.844116E+01  4.463225E+02 -4.920326E-05
        59   4 -1.299174E+04  3.434506E+02  1.686099E+03 -8.531145E-10  1.348912E+03 -1.280266E-09
        59   5 -1.306328E+04 -6.501120E+00  8.997456E+02 -4.086578E-09  8.976173E+02 -9.854749E-10
        59   6 -1.299175E+04 -1.922691E+01  4.915171E+02  6.411338E-09  4.463225E+02  7.292718E-10
        59   7 -1.299174E+04  3.434506E+02  1.686099E+03 -1.179450E+02  1.348912E+03 -2.562703E-04
        59   8 -1.306328E+04 -6.501118E+00  8.997456E+02 -2.475195E+01  8.976173E+02 -3.578864E-05
        59   9 -1.299175E+04 -1.922690E+01  4.915171E+02  6.844116E+01  4.463225E+02  4.920472E-05
        59  10 -1.299174E+04  3.434502E+02  1.686096E+03  1.179450E+02 -4.500654E-10 -1.196050E-09
        59  11 -1.306328E+04 -6.501335E+00  8.997441E+02  2.475195E+01 -1.341749E-09 -1.967089E-10
        59  12 -1.299175E+04 -1.922695E+01  4.915168E+02 -6.844116E+01 -6.071756E-10 -1.233066E-10
        59  13 -1.299174E+04  3.434501E+02  1.686096E+03 -4.980796E-09 -1.082018E-09 -6.587705E-10
        59  14 -1.306328E+04 -6.501336E+00  8.997441E+02 -7.907617E-10 -2.699865E-09 -1.154903E-10
        59  15 -1.299175E+04 -1.922696E+01  4.915168E+02  9.322468E-09 -1.340111E-09 -8.356080E-11
        59  16 -1.299174E+04  3.434502E+02  1.686096E+03 -1.179450E+02 -1.701876E-09 -1.214581E-10
        59  17 -1.306328E+04 -6.501335E+00  8.997441E+02 -2.475195E+01  2.574702E-10 -3.479178E-11
        59  18 -1.299175E+04 -1.922695E+01  4.915168E+02  6.844116E+01 -2.682428E-10 -4.468178E-11
        59  19 -1.299174E+04  3.434506E+02  1.686099E+03  1.179450E+02 -1.348912E+03 -2.562702E-04
        59  20 -1.306328E+04 -6.501118E+00  8.997456E+02  2.475195E+01 -8.976173E+02 -3.578705E-05
        59  21 -1.299175E+04 -1.922690E+01  4.915171E+02 -6.844116E+01 -4.463225E+02  4.920299E-05
        59  22 -1.299174E+04  3.434506E+02  1.686099E+03 -6.954329E-09 -1.348912E+03 -3.748821E-11
        59  23 -1.306328E+04 -6.501120E+00  8.997456E+02 -5.033691E-09 -8.976173E+02  7.547750E-10
        59  24 -1.299175E+04 -1.922691E+01  4.915171E+02  1.178541E-10 -4.463225E+02 -8.963915E-10
        59  25 -1.299174E+04  3.434506E+02  1.686099E+03 -1.179450E+02 -1.348912E+03  2.562701E-04
        59  26 -1.306328E+04 -6.501118E+00  8.997456E+02 -2.475195E+01 -8.976173E+02  3.578858E-05
        59  27 -1.299175E+04 -1.922690E+01  4.915171E+02  6.844116E+01 -4.463225E+02 -4.920479E-05
        60   1 -1.302054E+04  1.428511E+01  3.537408E+02 -1.019387E+01  3.720957E+02 -6.109122E-06
        60   2 -1.302730E+04 -1.819773E+00  1.380268E+02 -1.251720E+01  3.035511E+02 -6.120821E-06
        60   3 -1.302054E+04  4.289446E-01 -2.847482E+01 -1.484049E+01  2.350077E+02 -5.617634E-06
        60   4 -1.302054E+04  1.428511E+01  3.537408E+02  9.206569E-09  3.720957E+02  5.700733E-10
        60   5 -1.302730E+04 -1.819774E+00  1.380268E+02 -8.674352E-10  3.035511E+02 -8.577789E-10
        60   6 -1.302054E+04  4.289442E-01 -2.847482E+01  4.944027E-09  2.350077E+02  4.296940E-10
        60   7 -1.302054E+04  1.428511E+01  3.537408E+02  1.019387E+01  3.720957E+02  6.110265E-06
        60   8 -1.302730E+04 -1.819774E+00  1.380268E+02  1.251720E+01  3.035511E+02  6.119106E-06
        60   9 -1.302054E+04  4.289446E-01 -2.847482E+01  1.484049E+01  2.350077E+02  5.618497E-06
        60  10 -1.302054E+04  1.428507E+01  3.537406E+02 -1.019387E+01  8.742293E-10 -1.019873E-10
        60  11 -1.302730E+04 -1.819798E+00  1.380266E+02 -1.251720E+01 -1.928983E-11  3.941887E-10
        60  12 -1.302054E+04  4.289298E-01 -2.847493E+01 -1.484049E+01 -5.915255E-10  7.372956E-10
        60  13 -1.302054E+04  1.428507E+01  3.537406E+02  5.959362E-09 -1.072514E-09 -2.207013E-10
        60  14 -1.302730E+04 -1.819799E+00  1.380266E+02 -7.258963E-10 -1.076969E-09  5.675465E-11
        60  15 -1.302054E+04  4.289294E-01 -2.847493E+01  8.743241E-09  1.760035E-09  1.032453E-09
        60  16 -1.302054E+04  1.428507E+01  3.537406E+02  1.019387E+01 -5.992905E-10 -3.388245E-10
        60  17 -1.302730E+04 -1.819798E+00  1.380266E+02  1.251720E+01  3.462311E-11 -2.804237E-10
        60  18 -1.302054E+04  4.289298E-01 -2.847493E+01  1.484049E+01  2.209078E-09  1.327402E-09
        60  19 -1.302054E+04  1.428511E+01  3.537408E+02 -1.019387E+01 -3.720957E+02  6.108923E-06
        60  20 -1.302730E+04 -1.819774E+00  1.380268E+02 -1.251720E+01 -3.035511E+02  6.121611E-06
        60  21 -1.302054E+04  4.289446E-01 -2.847482E+01 -1.484049E+01 -2.350077E+02  5.619117E-06
        60  22 -1.302054E+04  1.428511E+01  3.537408E+02  2.712303E-09 -3.720957E+02 -1.011587E-09
        60  23 -1.302730E+04 -1.819774E+00  1.380268E+02 -5.844072E-10 -3.035511E+02  9.714412E-10
        60  24 -1.302054E+04  4.289442E-01 -2.847482E+01  1.234516E-09 -2.350077E+02  1.635050E-09
        60  25 -1.302054E+04  1.428511E+01  3.537408E+02  1.019387E+01 -3.720957E+02 -6.110935E-06
        60  26 -1.302730E+04 -1.819774E+00  1.380268E+02  1.251720E+01 -3.035511E+02 -6.119674E-06
        60  27 -1.302054E+04  4.289446E-01 -2.847482E+01  1.484049E+01 -2.350077E+02 -5.615843E-06
        61   1 -1.302808E+04  1.214167E+00 -1.117585E+02 -1.219729E+01  2.478770E+02 -4.868610E-06
        61   2 -1.301787E+04  5.101952E+00 -3.120305E+02 -2.132221E+01  4.020060E+02 -1.380438E-05
        61   3 -1.302808E+04  7.578526E+00 -6.129995E+02 -3.044728E+01  5.561371E+02 -2.727345E-05
        61   4 -1.302808E+04  1.214167E+00 -1.117585E+02 -2.068994E-09  2.478770E+02  1.796479E-09
        61   5 -1.301787E+04  5.101951E+00 -3.120305E+02 -1.576250E-08  4.020060E+02  2.465271E-09
        61   6 -1.302808E+04  7.578524E+00 -6.129995E+02 -2.487895E-08  5.561371E+02  1.599744E-09
        61   7 -1.302808E+04  1.214167E+00 -1.117585E+02  1.219729E+01  2.478770E+02  4.872201E-06
        61   8 -1.301787E+04  5.101952E+00 -3.120305E+02  2.132221E+01  4.020060E+02  1.380931E-05
        61   9 -1.302808E+04  7.578526E+00 -6.129995E+02  3.044728E+01  5.561371E+02  2.727666E-05
        61  10 -1.302808E+04  1.214151E+00 -1.117586E+02 -1.219729E+01 -2.922150E-09  1.605744E-09
        61  11 -1.301787E+04  5.101909E+00 -3.120308E+02 -2.132221E+01 -5.644718E-09  2.371599E-09
        61  12 -1.302808E+04  7.578443E+00 -6.130001E+02 -3.044728E+01 -3.523987E-09  8.164809E-11
        61  13 -1.302808E+04  1.214150E+00 -1.117586E+02 -4.973341E-09  6.573259E-13  1.967457E-09
        61  14 -1.301787E+04  5.101908E+00 -3.120308E+02 -8.884758E-10  1.617925E-09  2.240346E-09
        61  15 -1.302808E+04  7.578441E+00 -6.130001E+02  1.042452E-09 -1.216725E-09  1.665863E-10
        61  16 -1.302808E+04  1.214151E+00 -1.117586E+02  1.219729E+01  1.841657E-09  2.329807E-09
        61  17 -1.301787E+04  5.101909E+00 -3.120308E+02  2.132221E+01  2.418430E-09  2.109223E-09
        61  18 -1.302808E+04  7.578443E+00 -6.130001E+02  3.044728E+01  3.120141E-09  2.514168E-10
        61  19 -1.302808E+04  1.214167E+00 -1.117585E+02 -1.219729E+01 -2.478770E+02  4.871824E-06
        61  20 -1.301787E+04  5.101952E+00 -3.120305E+02 -2.132221E+01 -4.020060E+02  1.380913E-05
        61  21 -1.302808E+04  7.578526E+00 -6.129995E+02 -3.044728E+01 -5.561371E+02  2.727361E-05
        61  22 -1.302808E+04  1.214167E+00 -1.117585E+02  1.150780E-08 -2.478770E+02  2.138383E-09
        61  23 -1.301787E+04  5.101951E+00 -3.120305E+02  1.721661E-08 -4.020060E+02  2.015123E-09
        61  24 -1.302808E+04  7.578524E+00 -6.129995E+02  2.750250E-08 -5.561371E+02 -1.266602E-09
        61  25 -1.302808E+04  1.214167E+00 -1.117585E+02  1.219729E+01 -2.478770E+02 -4.867547E-06
        61  26 -1.301787E+04  5.101952E+00 -3.120305E+02  2.132221E+01 -4.020060E+02 -1.380510E-05
        61  27 -1.302808E+04  7.578526E+00 -6.129995E+02  3.044728E+01 -5.561371E+02 -2.727615E-05
        62   1 -1.304624E+04  7.074635E+00 -8.276395E+02 -3.657578E+01  6.868398E+02 -4.046675E-05
        62   2 -1.299518E+04  2.347271E+01 -1.470586E+03 -7.124243E+01  1.413734E+03 -1.622384E-04
        62   3 -1.304624E+04  9.969754E+00 -2.594252E+03 -1.059091E+02  2.140628E+03 -3.651834E-04
        62   4 -1.304624E+04  7.074633E+00 -8.276395E+02  1.239469E-07  6.868398E+02 -1.308683E-09
        62   5 -1.299518E+04  2.347270E+01 -1.470586E+03 -3.362358E-09  1.413734E+03 -5.100926E-09
        62   6 -1.304624E+04  9.969733E+00 -2.594252E+03 -1.193635E-07  2.140628E+03 -2.170214E-09
        62   7 -1.304624E+04  7.074635E+00 -8.276395E+02  3.657578E+01  6.868398E+02  4.046413E-05
        62   8 -1.299518E+04  2.347271E+01 -1.470586E+03  7.124243E+01  1.413734E+03  1.622282E-04
        62   9 -1.304624E+04  9.969754E+00 -2.594252E+03  1.059091E+02  2.140628E+03  3.651790E-04
        62  10 -1.304624E+04  7.074509E+00 -8.276404E+02 -3.657578E+01 -3.824199E-08 -2.441339E-09
        62  11 -1.299518E+04  2.347217E+01 -1.470590E+03 -7.124243E+01 -1.588454E-09 -4.249877E-09
        62  12 -1.304625E+04  9.968524E+00 -2.594260E+03 -1.059091E+02  3.574789E-08 -2.026927E-09
        62  13 -1.304624E+04  7.074506E+00 -8.276404E+02  9.078865E-10 -1.086152E-09 -2.309455E-09
        62  14 -1.299518E+04  2.347216E+01 -1.470590E+03 -2.225041E-09 -2.701602E-09 -4.306785E-09
        62  15 -1.304625E+04  9.968503E+00 -2.594260E+03 -1.050059E-09 -9.441989E-10 -1.775760E-09
        62  16 -1.304624E+04  7.074509E+00 -8.276404E+02  3.657578E+01  3.581665E-08 -2.177624E-09
        62  17 -1.299518E+04  2.347217E+01 -1.470590E+03  7.124243E+01  1.586027E-09 -4.363795E-09
        62  18 -1.304625E+04  9.968524E+00 -2.594260E+03  1.059091E+02 -3.830216E-08 -1.524838E-09
        62  19 -1.304624E+04  7.074635E+00 -8.276395E+02 -3.657578E+01 -6.868398E+02  4.046186E-05
        62  20 -1.299518E+04  2.347271E+01 -1.470586E+03 -7.124243E+01 -1.413734E+03  1.622299E-04
        62  21 -1.304624E+04  9.969754E+00 -2.594252E+03 -1.059091E+02 -2.140628E+03  3.651793E-04
        62  22 -1.304624E+04  7.074633E+00 -8.276395E+02 -1.178233E-07 -6.868398E+02 -3.309963E-09
        62  23 -1.299518E+04  2.347270E+01 -1.470586E+03 -2.164842E-09 -1.413734E+03 -3.512475E-09
        62  24 -1.304624E+04  9.969733E+00 -2.594252E+03  1.264174E-07 -2.140628E+03 -1.385925E-09
        62  25 -1.304624E+04  7.074635E+00 -8.276395E+02  3.657578E+01 -6.868398E+02 -4.046850E-05
        62  26 -1.299518E+04  2.347271E+01 -1.470586E+03  7.124243E+01 -1.413734E+03 -1.622369E-04
        62  27 -1.304624E+04  9.969754E+00 -2.594252E+03  1.059091E+02 -2.140628E+03 -3.651821E-04
        63   1 -1.313614E+04  4.705503E+01 -3.423233E+03 -1.940322E+02  2.683747E+03 -8.387821E-04
        63   2 -1.288282E+04  8.622546E+01 -5.965950E+03 -2.036103E+02  5.640212E+03 -1.849816E-03
        63   3 -1.313613E+04 -3.612796E+02 -1.055510E+04 -2.131883E+02  8.596619E+03 -2.952055E-03
        63   4 -1.313614E+04  4.705496E+01 -3.423233E+03  2.148133E-08  2.683747E+03  1.449898E-10
        63   5 -1.288282E+04  8.622538E+01 -5.965950E+03  5.055960E-09  5.640212E+03  5.591914E-10
        63   6 -1.313613E+04 -3.612796E+02 -1.055510E+04  2.900517E-09  8.596619E+03  5.223537E-10
        63   7 -1.313614E+04  4.705503E+01 -3.423233E+03  1.940322E+02  2.683747E+03  8.387824E-04
        63   8 -1.288282E+04  8.622546E+01 -5.965950E+03  2.036103E+02  5.640212E+03  1.849817E-03
        63   9 -1.313613E+04 -3.612796E+02 -1.055510E+04  2.131883E+02  8.596619E+03  2.952056E-03
        63  10 -1.313614E+04  4.705309E+01 -3.423247E+03 -1.940322E+02  4.544312E-09 -1.717622E-10
        63  11 -1.288285E+04  8.621691E+01 -5.966010E+03 -2.036103E+02  8.821024E-10  9.420331E-10
        63  12 -1.313621E+04 -3.612994E+02 -1.055524E+04 -2.131883E+02  2.110694E-09  1.376556E-09
        63  13 -1.313614E+04  4.705302E+01 -3.423247E+03 -5.098513E-09 -1.080219E-09  3.094575E-10
        63  14 -1.288285E+04  8.621684E+01 -5.966010E+03 -4.585397E-09  1.081194E-09  1.184813E-09
        63  15 -1.313621E+04 -3.612995E+02 -1.055524E+04 -5.687676E-09 -5.363643E-10  7.643289E-10
        63  16 -1.313614E+04  4.705309E+01 -3.423247E+03  1.940322E+02 -5.618019E-09  7.911157E-10
        63  17 -1.288285E+04  8.621691E+01 -5.966010E+03  2.036103E+02 -1.677009E-09  1.429113E-09
        63  18 -1.313621E+04 -3.612994E+02 -1.055524E+04  2.131883E+02 -1.102519E-09  1.498905E-10
        63  19 -1.313614E+04  4.705503E+01 -3.423233E+03 -1.940322E+02 -2.683747E+03  8.387818E-04
        63  20 -1.288282E+04  8.622546E+01 -5.965950E+03 -2.036103E+02 -5.640212E+03  1.849818E-03
        63  21 -1.313613E+04 -3.612796E+02 -1.055510E+04 -2.131883E+02 -8.596619E+03  2.952058E-03
        63  22 -1.313614E+04  4.705496E+01 -3.423233E+03 -2.306265E-08 -2.683747E+03  4.740931E-10
        63  23 -1.288282E+04  8.622538E+01 -5.965950E+03 -1.638070E-08 -5.640212E+03  1.810648E-09
        63  24 -1.313613E+04 -3.612796E+02 -1.055510E+04 -2.429155E-09 -8.596619E+03  1.021583E-09
        63  25 -1.313614E+04  4.705503E+01 -3.423233E+03  1.940322E+02 -2.683747E+03 -8.387808E-04
        63  26 -1.288282E+04  8.622546E+01 -5.965950E+03  2.036103E+02 -5.640212E+03 -1.849814E-03
        63  27 -1.313613E+04 -3.612796E+02 -1.055510E+04  2.131883E+02 -8.596619E+03 -2.952056E-03
        64   1 -1.385809E+04  5.145073E+02 -1.380192E+04 -1.730486E+03  1.074293E+04 -2.994503E-02
        64   2 -1.198018E+04  1.784888E+02 -2.396186E+04  6.740751E+02  2.275780E+04  2.470990E-02
        64   3 -1.385771E+04 -8.922856E+03 -4.413446E+04  3.078691E+03  3.477267E+04  1.724395E-01
        64   4 -1.385809E+04  5.145017E+02 -1.380193E+04  1.027267E-08  1.074293E+04  5.039744E-10
        64   5 -1.198018E+04  1.784879E+02 -2.396186E+04  4.388296E-09  2.275780E+04  7.630329E-10
        64   6 -1.385772E+04 -8.922873E+03 -4.413447E+04 -2.034556E-09  3.477267E+04  9.242884E-10
        64   7 -1.385809E+04  5.145073E+02 -1.380192E+04  1.730486E+03  1.074293E+04  2.994503E-02
        64   8 -1.198018E+04  1.784888E+02 -2.396186E+04 -6.740751E+02  2.275780E+04 -2.470989E-02
        64   9 -1.385771E+04 -8.922856E+03 -4.413446E+04 -3.078691E+03  3.477267E+04 -1.724395E-01
        64  10 -1.385821E+04  5.144763E+02 -1.380214E+04 -1.730486E+03  1.284373E-09  9.349715E-10
        64  11 -1.198074E+04  1.783497E+02 -2.396284E+04  6.740751E+02 -1.647531E-10  8.149118E-11
        64  12 -1.385901E+04 -8.923180E+03 -4.413674E+04  3.078691E+03 -2.825777E-09  2.534198E-10
        64  13 -1.385821E+04  5.144707E+02 -1.380214E+04  4.835997E-09  9.465433E-12  3.134462E-10
        64  14 -1.198074E+04  1.783489E+02 -2.396284E+04  3.352025E-09 -2.156525E-09  2.872646E-10
        64  15 -1.385902E+04 -8.923198E+03 -4.413674E+04  4.560340E-09  4.020190E-10  6.744051E-10
        64  16 -1.385821E+04  5.144763E+02 -1.380214E+04  1.730486E+03 -1.293831E-09 -3.025585E-10
        64  17 -1.198074E+04  1.783497E+02 -2.396284E+04 -6.740751E+02 -1.995144E-09  4.965025E-10
        64  18 -1.385901E+04 -8.923180E+03 -4.413674E+04 -3.078691E+03  1.018354E-12  1.105477E-09
        64  19 -1.385809E+04  5.145073E+02 -1.380192E+04 -1.730486E+03 -1.074293E+04  2.994503E-02
        64  20 -1.198018E+04  1.784888E+02 -2.396186E+04  6.740751E+02 -2.275780E+04 -2.470989E-02
        64  21 -1.385771E+04 -8.922856E+03 -4.413446E+04  3.078691E+03 -3.477267E+04 -1.724395E-01
        64  22 -1.385809E+04  5.145017E+02 -1.380193E+04 -6.008063E-10 -1.074293E+04  1.241057E-10
        64  23 -1.198018E+04  1.784879E+02 -2.396186E+04  1.619098E-10 -2.275780E+04 -1.890919E-10
        64  24 -1.385772E+04 -8.922873E+03 -4.413447E+04  6.578613E-09 -3.477267E+04  4.215055E-10
        64  25 -1.385809E+04  5.145073E+02 -1.380192E+04  1.730486E+03 -1.074293E+04 -2.994503E-02
        64  26 -1.198018E+04  1.784888E+02 -2.396186E+04 -6.740751E+02 -2.275780E+04  2.470989E-02
        64  27 -1.385771E+04 -8.922856E+03 -4.413446E+04 -3.078691E+03 -3.477267E+04  1.724395E-01
        65   1 -2.347532E+04  8.113739E+03 -5.570304E+04 -2.465053E+04  4.260079E+04 -1.691544E+00
        65   2  4.687268E+01 -2.415007E+03 -9.550037E+04  3.046830E+04  9.310889E+04  4.569425E+00
        65   3 -2.346525E+04 -1.747998E+05 -2.086363E+05  8.558423E+04  1.436174E+05  1.979841E+01
        65   4 -2.347597E+04  8.112597E+03 -5.570320E+04 -1.881862E-09  4.260079E+04  4.477651E-10
        65   5  4.587587E+01 -2.416752E+03 -9.550062E+04  9.291639E-10  9.310889E+04 -4.890972E-10
        65   6 -2.347312E+04 -1.748136E+05 -2.086382E+05  5.355398E-09  1.436174E+05 -8.355760E-10
        65   7 -2.347532E+04  8.113739E+03 -5.570304E+04  2.465053E+04  4.260079E+04  1.691544E+00
        65   8  4.687268E+01 -2.415007E+03 -9.550037E+04 -3.046830E+04  9.310889E+04 -4.569425E+00
        65   9 -2.346525E+04 -1.747998E+05 -2.086363E+05 -8.558423E+04  1.436174E+05 -1.979841E+01
        65  10 -2.347727E+04  8.113252E+03 -5.570645E+04 -2.465053E+04  1.289963E-09  2.298104E-10
        65  11  3.756239E+01 -2.417335E+03 -9.551666E+04  3.046830E+04  5.585789E-10 -2.481488E-10
        65  12 -2.348740E+04 -1.748054E+05 -2.086750E+05  8.558423E+04 -1.947810E-09 -1.677679E-10
        65  13 -2.347792E+04  8.112110E+03 -5.570661E+04 -1.202264E-09 -4.651618E-11  2.867485E-10
        65  14  3.656559E+01 -2.419079E+03 -9.551691E+04  5.163321E-09  1.706856E-11 -7.597505E-10
        65  15 -2.349527E+04 -1.748191E+05 -2.086770E+05  1.831237E-09  2.781842E-10 -3.800678E-10
        65  16 -2.347727E+04  8.113252E+03 -5.570645E+04  2.465053E+04 -1.312707E-09  3.331217E-10
        65  17  3.756239E+01 -2.417335E+03 -9.551666E+04 -3.046830E+04 -2.037589E-11 -1.344411E-09
        65  18 -2.348740E+04 -1.748054E+05 -2.086750E+05 -8.558423E+04  1.524140E-09 -5.798802E-10
        65  19 -2.347532E+04  8.113739E+03 -5.570304E+04 -2.465053E+04 -4.260079E+04  1.691544E+00
        65  20  4.687268E+01 -2.415007E+03 -9.550037E+04  3.046830E+04 -9.310889E+04 -4.569425E+00
        65  21 -2.346525E+04 -1.747998E+05 -2.086363E+05  8.558423E+04 -1.436174E+05 -1.979841E+01
        65  22 -2.347597E+04  8.112597E+03 -5.570320E+04  9.173017E-09 -4.260079E+04  1.237044E-10
        65  23  4.587587E+01 -2.416752E+03 -9.550062E+04 -2.991961E-10 -9.310889E+04 -1.042765E-09
        65  24 -2.347312E+04 -1.748136E+05 -2.086382E+05  4.767710E-09 -1.436174E+05 -1.626905E-10
        65  25 -2.347532E+04  8.113739E+03 -5.570304E+04  2.465053E+04 -4.260079E+04 -1.691544E+00
        65  26  4.687268E+01 -2.415007E+03 -9.550037E+04 -3.046830E+04 -9.310889E+04  4.569425E+00
        65  27 -2.346525E+04 -1.747998E+05 -2.086363E+05 -8.558423E+04 -1.436174E+05  1.979841E+01
        66   1  1.290397E+05  4.799294E+05  1.272882E+05 -4.803305E+04  6.263764E+03  2.393976E+04
        66   2  1.036128E+05  4.103360E+05  9.795983E+04 -3.295334E+04  1.928438E+04  9.139217E+03
        66   3  8.669396E+04  3.448437E+05  8.039933E+04 -4.383628E+04  1.911665E+04 -5.660817E+03
        66   4  6.711479E+03 -1.265422E+04  8.093324E+03 -4.466518E+04  6.266440E+03  5.098445E+03
        66   5  6.531623E+01 -1.359637E+04  4.056364E+03 -3.168419E+04  1.928685E+04  2.969059E+03
        66   6 -2.681564E+02 -1.263745E+04  2.993846E+03 -4.466660E+04  1.911496E+04  8.386551E+02
        66   7 -1.156343E+05 -5.050154E+05 -1.111176E+05 -4.129997E+04  6.268913E+03 -1.372798E+04
        66   8 -1.034942E+05 -4.373609E+05 -8.985809E+04 -3.041591E+04  1.928929E+04 -3.196936E+03
        66   9 -8.723869E+04 -3.699986E+05 -7.441906E+04 -4.549642E+04  1.911325E+04  7.334437E+03
        66  10  1.290395E+05  4.799287E+05  1.272870E+05 -4.803317E+04 -4.406189E-10  2.136600E-10
        66  11  1.036123E+05  4.103358E+05  9.795897E+04 -3.295348E+04  1.038058E-09 -3.959717E-10
        66  12  8.669356E+04  3.448435E+05  8.039858E+04 -4.383619E+04 -1.287282E-11 -6.547388E-10
        66  13  6.711430E+03 -1.265425E+04  8.093201E+03 -4.466520E+04  9.170324E-11  1.052648E-12
        66  14  6.491442E+01 -1.359647E+04  4.055648E+03 -3.168424E+04  4.779289E-10  2.068815E-10
        66  15 -2.685489E+02 -1.263755E+04  2.993158E+03 -4.466661E+04 -6.116474E-10 -5.440573E-10
        66  16 -1.156344E+05 -5.050156E+05 -1.111181E+05 -4.129990E+04 -1.520757E-09 -1.449477E-10
        66  17 -1.034946E+05 -4.373610E+05 -8.985881E+04 -3.041586E+04 -5.847743E-10  5.996473E-10
        66  18 -8.723910E+04 -3.699987E+05 -7.441985E+04 -4.549653E+04 -3.510289E-09  4.938194E-10
        66  19  1.290397E+05  4.799294E+05  1.272882E+05 -4.803305E+04 -6.263764E+03 -2.393976E+04
        66  20  1.036128E+05  4.103360E+05  9.795983E+04 -3.295334E+04 -1.928438E+04 -9.139217E+03
        66  21  8.669396E+04  3.448437E+05  8.039933E+04 -4.383628E+04 -1.911665E+04  5.660817E+03
        66  22  6.711479E+03 -1.265422E+04  8.093324E+03 -4.466518E+04 -6.266440E+03 -5.098445E+03
        66  23  6.531623E+01 -1.359637E+04  4.056364E+03 -3.168419E+04 -1.928685E+04 -2.969059E+03
        66  24 -2.681564E+02 -1.263745E+04  2.993846E+03 -4.466660E+04 -1.911496E+04 -8.386551E+02
        66  25 -1.156343E+05 -5.050154E+05 -1.111176E+05 -4.129997E+04 -6.268913E+03  1.372798E+04
        66  26 -1.034942E+05 -4.373609E+05 -8.985809E+04 -3.041591E+04 -1.928929E+04  3.196936E+03
        66  27 -8.723869E+04 -3.699986E+05 -7.441906E+04 -4.549642E+04 -1.911325E+04 -7.334437E+03
        67   1  7.423375E+04  2.906556E+05  6.888109E+04 -4.516699E+04  1.577110E+04 -2.410979E+03
        67   2  5.744612E+04  2.229539E+05  5.412943E+04 -3.157290E+04  1.261467E+04 -4.433475E+03
        67   3  4.188471E+04  1.558148E+05  4.099781E+04 -4.453377E+04  8.913371E+03 -6.457040E+03
        67   4  3.165579E+02 -1.294815E+04  2.849279E+03 -4.479784E+04  1.577043E+04  3.593532E+02
        67   5 -2.560272E+00 -1.317717E+04  2.987020E+03 -3.151994E+04  1.261334E+04 -1.139473E+03
        67   6  8.141697E+02 -1.293866E+04  4.381682E+03 -4.479759E+04  8.911271E+03 -2.639579E+03
        67   7 -7.360674E+04 -3.164655E+05 -6.318803E+04 -4.442886E+04  1.576976E+04  3.128349E+03
        67   8 -5.745492E+04 -2.492559E+05 -4.815867E+04 -3.146700E+04  1.261201E+04  2.153295E+03
        67   9 -4.025825E+04 -1.816654E+05 -3.223609E+04 -4.506133E+04  8.909168E+03  1.176858E+03
        67  10  7.423348E+04  2.906555E+05  6.888062E+04 -4.516696E+04 -5.397667E-10  5.506495E-09
        67  11  5.744594E+04  2.229538E+05  5.412910E+04 -3.157286E+04  1.321462E-09 -4.987279E-09
        67  12  4.188461E+04  1.558148E+05  4.099758E+04 -4.453372E+04 -2.708752E-10 -1.227581E-08
        67  13  3.162908E+02 -1.294821E+04  2.848811E+03 -4.479785E+04 -1.313525E-09  1.013481E-11
        67  14 -2.731460E+00 -1.317721E+04  2.986719E+03 -3.151993E+04  5.348624E-10  5.142713E-10
        67  15  8.140826E+02 -1.293869E+04  4.381520E+03 -4.479757E+04  1.574579E-09 -8.949831E-10
        67  16 -7.360701E+04 -3.164655E+05 -6.318851E+04 -4.442890E+04 -2.664206E-10 -4.885801E-09
        67  17 -5.745509E+04 -2.492560E+05 -4.815897E+04 -3.146702E+04 -3.089717E-10  5.480322E-09
        67  18 -4.025833E+04 -1.816654E+05 -3.223624E+04 -4.506134E+04  1.296225E-09  1.200471E-08
        67  19  7.423375E+04  2.906556E+05  6.888109E+04 -4.516699E+04 -1.577110E+04  2.410979E+03
        67  20  5.744612E+04  2.229539E+05  5.412943E+04 -3.157290E+04 -1.261467E+04  4.433475E+03
        67  21  4.188471E+04  1.558148E+05  4.099781E+04 -4.453377E+04 -8.913371E+03  6.457040E+03
        67  22  3.165579E+02 -1.294815E+04  2.849279E+03 -4.479784E+04 -1.577043E+04 -3.593532E+02
        67  23 -2.560272E+00 -1.317717E+04  2.987020E+03 -3.151994E+04 -1.261334E+04  1.139473E+03
        67  24  8.141697E+02 -1.293866E+04  4.381682E+03 -4.479759E+04 -8.911271E+03  2.639579E+03
        67  25 -7.360674E+04 -3.164655E+05 -6.318803E+04 -4.442886E+04 -1.576976E+04 -3.128349E+03
        67  26 -5.745492E+04 -2.492559E+05 -4.815867E+04 -3.146700E+04 -1.261201E+04 -2.153295E+03
        67  27 -4.025825E+04 -1.816654E+05 -3.223609E+04 -4.506133E+04 -8.909168E+03 -1.176858E+03
        68   1  2.733214E+04  1.030476E+05  3.001752E+04 -4.700855E+04  6.478357E+03 -7.388984E+03
        68   2  1.184259E+04  3.365950E+04  1.873461E+04 -2.885140E+04  2.909758E+03 -1.081809E+04
        68   3  1.047784E+04 -3.178124E+04  1.320690E+04 -3.721871E+04  4.955768E+02 -1.424639E+04
        68   4 -6.524093E+02 -1.212052E+04  5.272584E+03 -4.479310E+04  6.475936E+03 -3.406336E+03
        68   5  2.482642E+02 -1.418651E+04  8.588385E+03 -3.152626E+04  2.908015E+03 -7.943775E+03
        68   6  1.546644E+04 -1.211846E+04  1.842883E+04 -4.478342E+04  4.945936E+02 -1.248074E+04
        68   7 -2.863781E+04 -1.272761E+05 -1.947307E+04 -4.257806E+04  6.473542E+03  5.755841E+02
        68   8 -1.134618E+04 -6.203033E+04 -1.557937E+03 -3.420091E+04  2.906247E+03 -5.069678E+03
        68   9  2.045522E+04  7.544791E+03  2.365076E+04 -5.234837E+04  4.935675E+02 -1.071504E+04
        68  10  2.733208E+04  1.030475E+05  3.001734E+04 -4.700851E+04 -3.057451E-10  3.646117E-08
        68  11  1.184255E+04  3.365937E+04  1.873438E+04 -2.885137E+04 -1.428772E-09  9.165421E-09
        68  12  1.047779E+04 -3.178146E+04  1.320652E+04 -3.721871E+04  1.924381E-10 -1.956037E-08
        68  13 -6.524574E+02 -1.212054E+04  5.272483E+03 -4.479308E+04  1.578208E-09  2.343276E-11
        68  14  2.482381E+02 -1.418658E+04  8.588251E+03 -3.152624E+04 -1.124806E-09  6.329303E-10
        68  15  1.546640E+04 -1.211863E+04  1.842853E+04 -4.478342E+04 -4.296951E-11 -1.010290E-09
        68  16 -2.863785E+04 -1.272761E+05 -1.947314E+04 -4.257806E+04  5.024912E-10 -3.553363E-08
        68  17 -1.134620E+04 -6.203035E+04 -1.558001E+03 -3.420090E+04  1.285690E-09 -8.537766E-09
        68  18  2.045519E+04  7.544667E+03  2.365054E+04 -5.234836E+04 -4.082065E-10  1.924972E-08
        68  19  2.733214E+04  1.030476E+05  3.001752E+04 -4.700855E+04 -6.478357E+03  7.388984E+03
        68  20  1.184259E+04  3.365950E+04  1.873461E+04 -2.885140E+04 -2.909758E+03  1.081809E+04
        68  21  1.047784E+04 -3.178124E+04  1.320690E+04 -3.721871E+04 -4.955768E+02  1.424639E+04
        68  22 -6.524093E+02 -1.212052E+04  5.272584E+03 -4.479310E+04 -6.475936E+03  3.406336E+03
        68  23  2.482642E+02 -1.418651E+04  8.588385E+03 -3.152626E+04 -2.908015E+03  7.943775E+03
        68  24  1.546644E+04 -1.211846E+04  1.842883E+04 -4.478342E+04 -4.945936E+02  1.248074E+04
        68  25 -2.863781E+04 -1.272761E+05 -1.947307E+04 -4.257806E+04 -6.473542E+03 -5.755841E+02
        68  26 -1.134618E+04 -6.203033E+04 -1.557937E+03 -3.420091E+04 -2.906247E+03  5.069678E+03
        68  27  2.045522E+04  7.544791E+03  2.365076E+04 -5.234837E+04 -4.935675E+02  1.071504E+04
        69   1 -1.562205E+04  3.320794E+03  7.797472E+03 -1.157687E+04  2.321113E+02 -6.337597E+02
        69   2 -1.401491E+04  6.779548E+03  8.924719E+03 -1.078262E+04  4.737146E+02 -2.221587E+03
        69   3 -1.246228E+04  7.706674E+03  9.755920E+03 -1.017104E+04  3.085649E+02 -2.724753E+03
        69   4 -5.650699E+04 -1.102495E+04 -2.844129E+03 -2.167316E+04 -1.577920E+03 -1.312537E+03
        69   5 -5.622897E+04 -8.566880E+03 -1.239919E+03 -2.199272E+04 -3.614002E+02 -2.534786E+03
        69   6 -5.619863E+04 -8.833556E+03 -7.040743E+02 -2.249492E+04  4.483726E+02 -2.672336E+03
        69   7 -9.738993E+04 -2.537050E+04 -1.348575E+04 -3.176877E+04 -3.387803E+03 -1.991267E+03
        69   8 -9.844114E+04 -2.391316E+04 -1.140465E+04 -3.320211E+04 -1.196451E+03 -2.847962E+03
        69   9 -9.993323E+04 -2.537369E+04 -1.116425E+04 -3.481804E+04  5.881701E+02 -2.619923E+03
        69  10 -1.562205E+04  3.320794E+03  7.797471E+03 -1.157687E+04  3.846104E-10  4.118453E-11
        69  11 -1.401491E+04  6.779542E+03  8.924709E+03 -1.078262E+04  1.031935E-09  3.203128E-10
        69  12 -1.246228E+04  7.706666E+03  9.755905E+03 -1.017104E+04 -7.485174E-10  4.202604E-10
        69  13 -5.650700E+04 -1.102495E+04 -2.844137E+03 -2.167316E+04 -2.197766E-09  4.705982E-11
        69  14 -5.622898E+04 -8.566887E+03 -1.239931E+03 -2.199273E+04 -2.208560E-09  1.354289E-10
        69  15 -5.619863E+04 -8.833564E+03 -7.040881E+02 -2.249492E+04  1.613222E-09  1.602686E-11
        69  16 -9.738994E+04 -2.537051E+04 -1.348578E+04 -3.176878E+04  9.356386E-10  7.152543E-11
        69  17 -9.844115E+04 -2.391316E+04 -1.140467E+04 -3.320211E+04  2.173309E-10 -4.188632E-11
        69  18 -9.993324E+04 -2.537370E+04 -1.116426E+04 -3.481804E+04 -7.532576E-10 -3.420159E-10
        69  19 -1.562205E+04  3.320794E+03  7.797472E+03 -1.157687E+04 -2.321113E+02  6.337597E+02
        69  20 -1.401491E+04  6.779548E+03  8.924719E+03 -1.078262E+04 -4.737146E+02  2.221587E+03
        69  21 -1.246228E+04  7.706674E+03  9.755920E+03 -1.017104E+04 -3.085649E+02  2.724753E+03
        69  22 -5.650699E+04 -1.102495E+04 -2.844129E+03 -2.167316E+04  1.577920E+03  1.312537E+03
        69  23 -5.622897E+04 -8.566880E+03 -1.239919E+03 -2.199272E+04  3.614002E+02  2.534786E+03
        69  24 -5.619863E+04 -8.833556E+03 -7.040743E+02 -2.249492E+04 -4.483726E+02  2.672336E+03
        69  25 -9.738993E+04 -2.537050E+04 -1.348575E+04 -3.176877E+04  3.387803E+03  1.991267E+03
        69  26 -9.844114E+04 -2.391316E+04 -1.140465E+04 -3.320211E+04  1.196451E+03  2.847962E+03
        69  27 -9.993323E+04 -2.537369E+04 -1.116425E+04 -3.481804E+04 -5.881701E+02  2.619923E+03
        70   1 -1.055892E+04  7.848918E+03  1.035183E+04 -9.903793E+03  7.083802E+02 -2.540304E+03
        70   2 -8.915063E+03  8.997138E+03  1.102470E+04 -9.044095E+03  8.826302E+02 -2.678082E+03
        70   3 -6.737879E+03  9.438800E+03  1.158633E+04 -8.834615E+03  1.038701E+03 -2.767366E+03
        70   4 -5.611743E+04 -9.029259E+03 -5.595658E+02 -2.235801E+04  5.265453E+02 -2.608519E+03
        70   5 -5.637119E+04 -8.609983E+03 -2.978981E+02 -2.205605E+04  7.443732E+02 -2.729957E+03
        70   6 -5.610024E+04 -8.905937E+03 -1.819997E+02 -2.240434E+04  9.440209E+02 -2.802899E+03
        70   7 -1.016738E+05 -2.590726E+04 -1.147109E+04 -3.481138E+04  3.447253E+02 -2.676727E+03
        70   8 -1.038248E+05 -2.621684E+04 -1.162058E+04 -3.506702E+04  6.061286E+02 -2.781827E+03
        70   9 -1.054597E+05 -2.725032E+04 -1.195037E+04 -3.597294E+04  8.493497E+02 -2.838429E+03
        70  10 -1.055892E+04  7.848911E+03  1.035182E+04 -9.903791E+03  1.650219E-09  3.445046E-10
        70  11 -8.915066E+03  8.997130E+03  1.102469E+04 -9.044093E+03 -3.116427E-09 -2.938050E-10
        70  12 -6.737883E+03  9.438792E+03  1.158631E+04 -8.834613E+03 -2.186722E-11 -6.390678E-11
        70  13 -5.611743E+04 -9.029267E+03 -5.595791E+02 -2.235801E+04  8.386942E-11 -2.336621E-10
        70  14 -5.637119E+04 -8.609992E+03 -2.979131E+02 -2.205605E+04 -4.880756E-10 -1.382325E-10
        70  15 -5.610024E+04 -8.905946E+03 -1.820161E+02 -2.240434E+04  1.824942E-09  9.205203E-10
        70  16 -1.016738E+05 -2.590727E+04 -1.147111E+04 -3.481138E+04 -1.998985E-09 -8.321817E-10
        70  17 -1.038248E+05 -2.621685E+04 -1.162060E+04 -3.506702E+04 -2.433393E-10 -1.932924E-10
        70  18 -1.054597E+05 -2.725032E+04 -1.195039E+04 -3.597294E+04  4.530145E-09  2.024001E-09
        70  19 -1.055892E+04  7.848918E+03  1.035183E+04 -9.903793E+03 -7.083802E+02  2.540304E+03
        70  20 -8.915063E+03  8.997138E+03  1.102470E+04 -9.044095E+03 -8.826302E+02  2.678082E+03
        70  21 -6.737879E+03  9.438800E+03  1.158633E+04 -8.834615E+03 -1.038701E+03  2.767366E+03
        70  22 -5.611743E+04 -9.029259E+03 -5.595658E+02 -2.235801E+04 -5.265453E+02  2.608519E+03
        70  23 -5.637119E+04 -8.609983E+03 -2.978981E+02 -2.205605E+04 -7.443732E+02  2.729957E+03
        70  24 -5.610024E+04 -8.905937E+03 -1.819997E+02 -2.240434E+04 -9.440209E+02  2.802899E+03
        70  25 -1.016738E+05 -2.590726E+04 -1.147109E+04 -3.481138E+04 -3.447253E+02  2.676727E+03
        70  26 -1.038248E+05 -2.621684E+04 -1.162058E+04 -3.506702E+04 -6.061286E+02  2.781827E+03
        70  27 -1.054597E+05 -2.725032E+04 -1.195037E+04 -3.597294E+04 -8.493497E+02  2.838429E+03
        71   1 -5.131119E+03  1.000461E+04  1.201060E+04 -8.408847E+03  1.103906E+03 -2.815877E+03
        71   2 -3.498961E+03  1.101736E+04  1.248858E+04 -7.545807E+03  1.208527E+03 -2.913582E+03
        71   3 -1.287950E+03  1.143506E+04  1.292089E+04 -7.356322E+03  1.312297E+03 -3.008990E+03
        71   4 -5.609327E+04 -8.916476E+03 -1.519616E+02 -2.239548E+04  9.949691E+02 -2.856760E+03
        71   5 -5.638207E+04 -8.615193E+03 -1.235352E+02 -2.206004E+04  1.101650E+03 -2.953698E+03
        71   6 -5.609238E+04 -8.909385E+03 -1.424069E+02 -2.239819E+04  1.207479E+03 -3.048338E+03
        71   7 -1.070534E+05 -2.783760E+04 -1.231488E+04 -3.638123E+04  8.860407E+02 -2.897641E+03
        71   8 -1.092629E+05 -2.824773E+04 -1.273599E+04 -3.657328E+04  9.947821E+02 -2.993811E+03
        71   9 -1.108942E+05 -2.925375E+04 -1.320601E+04 -3.743894E+04  1.102671E+03 -3.087682E+03
        71  10 -5.131123E+03  1.000460E+04  1.201059E+04 -8.408844E+03  3.678553E-09  1.037445E-09
        71  11 -3.498965E+03  1.101735E+04  1.248856E+04 -7.545804E+03  1.537265E-10 -3.012120E-10
        71  12 -1.287954E+03  1.143505E+04  1.292087E+04 -7.356319E+03 -1.350458E-09 -2.031417E-10
        71  13 -5.609327E+04 -8.916485E+03 -1.519788E+02 -2.239548E+04  2.944635E-09  8.275641E-10
        71  14 -5.638208E+04 -8.615203E+03 -1.235538E+02 -2.206004E+04 -1.460079E-09 -4.676243E-10
        71  15 -5.609239E+04 -8.909396E+03 -1.424271E+02 -2.239819E+04 -2.083800E-09  2.203948E-10
        71  16 -1.070534E+05 -2.783761E+04 -1.231490E+04 -3.638123E+04  2.888794E-10  6.469015E-10
        71  17 -1.092629E+05 -2.824774E+04 -1.273600E+04 -3.657328E+04 -6.846631E-10 -6.005027E-10
        71  18 -1.108942E+05 -2.925376E+04 -1.320603E+04 -3.743894E+04  1.013382E-09  6.523229E-10
        71  19 -5.131119E+03  1.000461E+04  1.201060E+04 -8.408847E+03 -1.103906E+03  2.815877E+03
        71  20 -3.498961E+03  1.101736E+04  1.248858E+04 -7.545807E+03 -1.208527E+03  2.913582E+03
        71  21 -1.287950E+03  1.143506E+04  1.292089E+04 -7.356322E+03 -1.312297E+03  3.008990E+03
        71  22 -5.609327E+04 -8.916476E+03 -1.519616E+02 -2.239548E+04 -9.949691E+02  2.856760E+03
        71  23 -5.638207E+04 -8.615193E+03 -1.235352E+02 -2.206004E+04 -1.101650E+03  2.953698E+03
        71  24 -5.609238E+04 -8.909385E+03 -1.424069E+02 -2.239819E+04 -1.207479E+03  3.048338E+03
        71  25 -1.070534E+05 -2.783760E+04 -1.231488E+04 -3.638123E+04 -8.860407E+02  2.897641E+03
        71  26 -1.092629E+05 -2.824773E+04 -1.273599E+04 -3.657328E+04 -9.947821E+02  2.993811E+03
        71  27 -1.108942E+05 -2.925375E+04 -1.320601E+04 -3.743894E+04 -1.102671E+03  3.087682E+03
        72   1  2.909499E+02  1.202258E+04  1.328426E+04 -6.924119E+03  1.364324E+03 -3.066996E+03
        72   2  1.927457E+03  1.302473E+04  1.362994E+04 -6.066009E+03  1.544398E+03 -3.133036E+03
        72   3  4.131166E+03  1.343677E+04  1.387402E+04 -5.883473E+03  1.724396E+03 -3.198840E+03
        72   4 -5.609549E+04 -8.910226E+03 -1.695579E+02 -2.239798E+04  1.258953E+03 -3.106555E+03
        72   5 -5.637872E+04 -8.613425E+03 -2.738408E+02 -2.206085E+04  1.439223E+03 -3.172525E+03
        72   6 -5.609488E+04 -8.906724E+03 -4.798903E+02 -2.239924E+04  1.619417E+03 -3.238260E+03
        72   7 -1.124782E+05 -2.984260E+04 -1.362345E+04 -3.787041E+04  1.153593E+03 -3.146109E+03
        72   8 -1.146813E+05 -3.025127E+04 -1.417781E+04 -3.805428E+04  1.334058E+03 -3.212010E+03
        72   9 -1.163175E+05 -3.125004E+04 -1.483411E+04 -3.891361E+04  1.514449E+03 -3.277675E+03
        72  10  2.909454E+02  1.202257E+04  1.328423E+04 -6.924116E+03  1.690331E-09  1.595243E-09
        72  11  1.927452E+03  1.302472E+04  1.362991E+04 -6.066005E+03 -7.457014E-09 -1.752398E-09
        72  12  4.131160E+03  1.343676E+04  1.387399E+04 -5.883469E+03 -1.006951E-08 -5.604459E-09
        72  13 -5.609549E+04 -8.910236E+03 -1.695790E+02 -2.239798E+04  2.227921E-10  8.057572E-10
        72  14 -5.637873E+04 -8.613436E+03 -2.738636E+02 -2.206085E+04  3.048005E-09  5.842022E-10
        72  15 -5.609488E+04 -8.906736E+03 -4.799150E+02 -2.239924E+04  2.700774E-09 -8.184679E-10
        72  16 -1.124782E+05 -2.984261E+04 -1.362347E+04 -3.787041E+04 -2.837008E-09 -1.367652E-10
        72  17 -1.146814E+05 -3.025128E+04 -1.417783E+04 -3.805427E+04  8.483612E-09  2.531909E-09
        72  18 -1.163175E+05 -3.125005E+04 -1.483414E+04 -3.891360E+04  1.639594E-08  3.732151E-09
        72  19  2.909499E+02  1.202258E+04  1.328426E+04 -6.924119E+03 -1.364324E+03  3.066996E+03
        72  20  1.927457E+03  1.302473E+04  1.362994E+04 -6.066009E+03 -1.544398E+03  3.133036E+03
        72  21  4.131166E+03  1.343677E+04  1.387402E+04 -5.883473E+03 -1.724396E+03  3.198840E+03
        72  22 -5.609549E+04 -8.910226E+03 -1.695579E+02 -2.239798E+04 -1.258953E+03  3.106555E+03
        72  23 -5.637872E+04 -8.613425E+03 -2.738408E+02 -2.206085E+04 -1.439223E+03  3.172525E+03
        72  24 -5.609488E+04 -8.906724E+03 -4.798903E+02 -2.239924E+04 -1.619417E+03  3.238260E+03
        72  25 -1.124782E+05 -2.984260E+04 -1.362345E+04 -3.787041E+04 -1.153593E+03  3.146109E+03
        72  26 -1.146813E+05 -3.025127E+04 -1.417781E+04 -3.805428E+04 -1.334058E+03  3.212010E+03
        72  27 -1.163175E+05 -3.125004E+04 -1.483411E+04 -3.891361E+04 -1.514449E+03  3.277675E+03
        73   1  5.696429E+03  1.401906E+04  1.410675E+04 -5.461328E+03  1.842824E+03 -3.231926E+03
        73   2  7.372037E+03  1.501994E+04  1.404464E+04 -4.609839E+03  2.457830E+03 -3.134131E+03
        73   3  9.544718E+03  1.539294E+04  1.354913E+04 -4.444819E+03  3.072709E+03 -3.035966E+03
        73   4 -5.610964E+04 -8.908019E+03 -6.363262E+02 -2.240441E+04  1.737863E+03 -3.271342E+03
        73   5 -5.635877E+04 -8.598965E+03 -1.147030E+03 -2.205934E+04  2.353140E+03 -3.173450E+03
        73   6 -5.611094E+04 -8.917822E+03 -2.091387E+03 -2.240070E+04  2.968291E+03 -3.075189E+03
        73   7 -1.179116E+05 -3.183471E+04 -1.537959E+04 -3.934587E+04  1.632913E+03 -3.310754E+03
        73   8 -1.200856E+05 -3.221759E+04 -1.633900E+04 -3.950722E+04  2.248461E+03 -3.212765E+03
        73   9 -1.217627E+05 -3.322841E+04 -1.773231E+04 -4.035495E+04  2.863884E+03 -3.114406E+03
        73  10  5.696423E+03  1.401905E+04  1.410672E+04 -5.461323E+03  1.480491E-08  3.391680E-09
        73  11  7.372028E+03  1.501993E+04  1.404461E+04 -4.609832E+03  6.547313E-09  1.269444E-09
        73  12  9.544705E+03  1.539292E+04  1.354910E+04 -4.444811E+03 -3.318486E-09 -3.341233E-10
        73  13 -5.610965E+04 -8.908031E+03 -6.363520E+02 -2.240441E+04  2.961590E-09 -1.399361E-09
        73  14 -5.635878E+04 -8.598977E+03 -1.147059E+03 -2.205934E+04 -1.955844E-09 -8.563532E-10
        73  15 -5.611095E+04 -8.917835E+03 -2.091421E+03 -2.240069E+04  8.611129E-10  2.627477E-10
        73  16 -1.179116E+05 -3.183472E+04 -1.537961E+04 -3.934587E+04 -1.206724E-08 -6.178441E-09
        73  17 -1.200856E+05 -3.221760E+04 -1.633903E+04 -3.950722E+04 -7.573866E-09 -1.950755E-09
        73  18 -1.217627E+05 -3.322842E+04 -1.773234E+04 -4.035494E+04  2.063645E-09  1.646713E-09
        73  19  5.696429E+03  1.401906E+04  1.410675E+04 -5.461328E+03 -1.842824E+03  3.231926E+03
        73  20  7.372037E+03  1.501994E+04  1.404464E+04 -4.609839E+03 -2.457830E+03  3.134131E+03
        73  21  9.544718E+03  1.539294E+04  1.354913E+04 -4.444819E+03 -3.072709E+03  3.035966E+03
        73  22 -5.610964E+04 -8.908019E+03 -6.363262E+02 -2.240441E+04 -1.737863E+03  3.271342E+03
        73  23 -5.635877E+04 -8.598965E+03 -1.147030E+03 -2.205934E+04 -2.353140E+03  3.173450E+03
        73  24 -5.611094E+04 -8.917822E+03 -2.091387E+03 -2.240070E+04 -2.968291E+03  3.075189E+03
        73  25 -1.179116E+05 -3.183471E+04 -1.537959E+04 -3.934587E+04 -1.632913E+03  3.310754E+03
        73  26 -1.200856E+05 -3.221759E+04 -1.633900E+04 -3.950722E+04 -2.248461E+03  3.212765E+03
        73  27 -1.217627E+05 -3.322841E+04 -1.773231E+04 -4.035495E+04 -2.863884E+03  3.114406E+03
        74   1  1.110526E+04  1.594403E+04  1.324325E+04 -4.141443E+03  3.502366E+03 -2.952422E+03
        74   2  1.292483E+04  1.703156E+04  1.143040E+04 -3.179653E+03  6.064738E+03 -2.121958E+03
        74   3  1.478702E+04  1.693097E+04  7.592444E+03 -2.854017E+03  8.625307E+03 -1.286713E+03
        74   4 -5.618986E+04 -8.883657E+03 -2.784879E+03 -2.244922E+04  3.396689E+03 -2.992120E+03
        74   5 -5.624461E+04 -8.528614E+03 -5.045334E+03 -2.204131E+04  5.963095E+03 -2.160147E+03
        74   6 -5.625759E+04 -9.362586E+03 -9.334265E+03 -2.226958E+04  8.527684E+03 -1.323398E+03
        74   7 -1.234805E+05 -3.371103E+04 -1.881333E+04 -4.075519E+04  3.291025E+03 -3.031813E+03
        74   8 -1.254091E+05 -3.408839E+04 -2.152136E+04 -4.090100E+04  5.861465E+03 -2.198330E+03
        74   9 -1.272968E+05 -3.565565E+04 -2.626123E+04 -4.168303E+04  8.430073E+03 -1.360077E+03
        74  10  1.110524E+04  1.594402E+04  1.324321E+04 -4.141434E+03  1.112886E-09  1.684049E-09
        74  11  1.292479E+04  1.703154E+04  1.143033E+04 -3.179642E+03 -5.028162E-10  1.070998E-09
        74  12  1.478693E+04  1.693094E+04  7.592301E+03 -2.854008E+03  1.133490E-09  6.113319E-10
        74  13 -5.618987E+04 -8.883670E+03 -2.784917E+03 -2.244921E+04  8.549999E-10  6.909009E-10
        74  14 -5.624465E+04 -8.528629E+03 -5.045409E+03 -2.204129E+04 -1.348353E-10  4.328700E-10
        74  15 -5.625767E+04 -9.362608E+03 -9.334405E+03 -2.226957E+04  6.725702E-10  3.134420E-10
        74  16 -1.234805E+05 -3.371105E+04 -1.881337E+04 -4.075519E+04 -8.194032E-11  1.075682E-10
        74  17 -1.254092E+05 -3.408840E+04 -2.152144E+04 -4.090099E+04 -1.295636E-09 -6.267617E-10
        74  18 -1.272969E+05 -3.565567E+04 -2.626137E+04 -4.168302E+04  6.354325E-10 -6.994523E-11
        74  19  1.110526E+04  1.594403E+04  1.324325E+04 -4.141443E+03 -3.502366E+03  2.952422E+03
        74  20  1.292483E+04  1.703156E+04  1.143040E+04 -3.179653E+03 -6.064738E+03  2.121958E+03
        74  21  1.478702E+04  1.693097E+04  7.592444E+03 -2.854017E+03 -8.625307E+03  1.286713E+03
        74  22 -5.618986E+04 -8.883657E+03 -2.784879E+03 -2.244922E+04 -3.396689E+03  2.992120E+03
        74  23 -5.624461E+04 -8.528614E+03 -5.045334E+03 -2.204131E+04 -5.963095E+03  2.160147E+03
        74  24 -5.625759E+04 -9.362586E+03 -9.334265E+03 -2.226958E+04 -8.527684E+03  1.323398E+03
        74  25 -1.234805E+05 -3.371103E+04 -1.881333E+04 -4.075519E+04 -3.291025E+03  3.031813E+03
        74  26 -1.254091E+05 -3.408839E+04 -2.152136E+04 -4.090100E+04 -5.861465E+03  2.198330E+03
        74  27 -1.272968E+05 -3.565565E+04 -2.626123E+04 -4.168303E+04 -8.430073E+03  1.360077E+03
        75   1  1.692544E+04  1.719932E+04  5.007619E+03 -4.396641E+03  1.041758E+04 -7.014292E+02
        75   2  1.854447E+04  2.008043E+04 -4.417538E+03 -6.693427E+02  2.161674E+04  3.399670E+03
        75   3  1.570094E+04  1.268534E+04 -2.475003E+04  4.437740E+03  3.277755E+04  7.603239E+03
        75   4 -5.685672E+04 -8.506754E+03 -1.229995E+04 -2.290245E+04  1.028978E+04 -7.494140E+02
        75   5 -5.529308E+04 -8.160859E+03 -2.218514E+04 -2.178982E+04  2.157961E+04  3.385654E+03
        75   6 -5.821055E+04 -1.811007E+04 -4.305049E+04 -1.929743E+04  3.283107E+04  7.623073E+03
        75   7 -1.306339E+05 -3.421275E+04 -2.960801E+04 -4.140642E+04  1.016200E+04 -7.973938E+02
        75   8 -1.291254E+05 -3.640175E+04 -3.995321E+04 -4.290803E+04  2.154249E+04  3.371640E+03
        75   9 -1.321166E+05 -4.890469E+04 -6.135137E+04 -4.302989E+04  3.288458E+04  7.642904E+03
        75  10  1.692532E+04  1.719929E+04  5.007414E+03 -4.396635E+03 -1.098065E-09  1.639493E-10
        75  11  1.854396E+04  2.008029E+04 -4.418438E+03 -6.694019E+02  1.006907E-08  4.185968E-09
        75  12  1.569977E+04  1.268499E+04 -2.475216E+04  4.437539E+03  1.697258E-08  6.684514E-09
        75  13 -5.685684E+04 -8.506783E+03 -1.230015E+04 -2.290244E+04  3.922741E-10  5.446050E-10
        75  14 -5.529358E+04 -8.160996E+03 -2.218604E+04 -2.178987E+04  4.497196E-09  5.293587E-10
        75  15 -5.821172E+04 -1.811042E+04 -4.305263E+04 -1.929763E+04  1.512351E-09  2.198054E-09
        75  16 -1.306340E+05 -3.421278E+04 -2.960821E+04 -4.140642E+04  5.357015E-09  1.234139E-09
        75  17 -1.291259E+05 -3.640189E+04 -3.995410E+04 -4.290809E+04 -3.972441E-09 -1.317796E-09
        75  18 -1.321178E+05 -4.890504E+04 -6.135351E+04 -4.303010E+04 -1.186351E-08 -2.518524E-09
        75  19  1.692544E+04  1.719932E+04  5.007619E+03 -4.396641E+03 -1.041758E+04  7.014292E+02
        75  20  1.854447E+04  2.008043E+04 -4.417538E+03 -6.693427E+02 -2.161674E+04 -3.399670E+03
        75  21  1.570094E+04  1.268534E+04 -2.475003E+04  4.437740E+03 -3.277755E+04 -7.603239E+03
        75  22 -5.685672E+04 -8.506754E+03 -1.229995E+04 -2.290245E+04 -1.028978E+04  7.494140E+02
        75  23 -5.529308E+04 -8.160859E+03 -2.218514E+04 -2.178982E+04 -2.157961E+04 -3.385654E+03
        75  24 -5.821055E+04 -1.811007E+04 -4.305049E+04 -1.929743E+04 -3.283107E+04 -7.623073E+03
        75  25 -1.306339E+05 -3.421275E+04 -2.960801E+04 -4.140642E+04 -1.016200E+04  7.973938E+02
        75  26 -1.291254E+05 -3.640175E+04 -3.995321E+04 -4.290803E+04 -2.154249E+04 -3.371640E+03
        75  27 -1.321166E+05 -4.890469E+04 -6.135137E+04 -4.302989E+04 -3.288458E+04 -7.642904E+03
        76   1  3.034688E+04  9.127358E+03 -3.589888E+04 -2.795990E+04  4.045092E+04  1.016887E+04
        76   2  1.637589E+04  4.395810E+04 -7.707709E+04  2.685796E+04  8.993249E+04  2.926894E+04
        76   3 -6.480424E+04 -8.480616E+04 -1.998085E+05  1.228002E+05  1.385557E+05  5.065874E+04
        76   4 -6.518810E+04 -2.233889E+03 -5.446117E+04 -2.925152E+04  3.982717E+04  9.936537E+03
        76   5 -4.340978E+04 -5.591557E+03 -9.641423E+04 -1.776193E+04  9.135479E+04  2.979804E+04
        76   6 -8.926189E+04 -1.729706E+05 -2.215483E+05  3.485710E+04  1.420266E+05  5.194001E+04
        76   7 -1.607128E+05 -1.359462E+04 -7.302349E+04 -3.054390E+04  3.920353E+04  9.704179E+03
        76   8 -1.031894E+05 -5.513429E+04 -1.157512E+05 -6.237616E+04  9.277694E+04  3.032692E+04
        76   9 -1.137033E+05 -2.610980E+05 -2.432843E+05 -5.307653E+04  1.454974E+05  5.322009E+04
        76  10  3.034509E+04  9.126807E+03 -3.590215E+04 -2.796023E+04 -1.052857E-08 -3.559454E-09
        76  11  1.636698E+04  4.395501E+04 -7.709390E+04  2.685584E+04 -3.638084E-09 -2.347860E-09
        76  12 -6.482555E+04 -8.481406E+04 -1.998494E+05  1.227945E+05  3.833081E-09  6.046376E-10
        76  13 -6.518983E+04 -2.234421E+03 -5.446434E+04 -2.925184E+04  2.252262E-09  1.158294E-09
        76  14 -4.341898E+04 -5.594751E+03 -9.643159E+04 -1.776412E+04  2.271663E-09  2.221479E-09
        76  15 -8.928428E+04 -1.729789E+05 -2.215913E+05  3.485116E+04  9.034605E-10  5.989041E-10
        76  16 -1.607145E+05 -1.359513E+04 -7.302656E+04 -3.054420E+04  1.440076E-08  7.436274E-09
        76  17 -1.031989E+05 -5.513759E+04 -1.157691E+05 -6.237843E+04  1.049922E-08  4.710620E-09
        76  18 -1.137268E+05 -2.611067E+05 -2.433294E+05 -5.308277E+04 -1.317001E-09 -7.483117E-10
        76  19  3.034688E+04  9.127358E+03 -3.589888E+04 -2.795990E+04 -4.045092E+04 -1.016887E+04
        76  20  1.637589E+04  4.395810E+04 -7.707709E+04  2.685796E+04 -8.993249E+04 -2.926894E+04
        76  21 -6.480424E+04 -8.480616E+04 -1.998085E+05  1.228002E+05 -1.385557E+05 -5.065874E+04
        76  22 -6.518810E+04 -2.233889E+03 -5.446117E+04 -2.925152E+04 -3.982717E+04 -9.936537E+03
        76  23 -4.340978E+04 -5.591557E+03 -9.641423E+04 -1.776193E+04 -9.135479E+04 -2.979804E+04
        76  24 -8.926189E+04 -1.729706E+05 -2.215483E+05  3.485710E+04 -1.420266E+05 -5.194001E+04
        76  25 -1.607128E+05 -1.359462E+04 -7.302349E+04 -3.054390E+04 -3.920353E+04 -9.704179E+03
        76  26 -1.031894E+05 -5.513429E+04 -1.157512E+05 -6.237616E+04 -9.277694E+04 -3.032692E+04
        76  27 -1.137033E+05 -2.610980E+05 -2.432843E+05 -5.307653E+04 -1.454974E+05 -5.322009E+04
        77   1  1.948467E+05  1.930678E+06  2.070968E+05 -7.749686E+04  4.794371E+03  1.098964E+05
        77   2  9.328153E+04  1.907401E+06  1.276590E+05 -3.718785E+04  1.616975E+04  6.472588E+04
        77   3  7.200701E+04  1.910061E+06  9.764429E+04  9.001761E+02  1.955281E+04  1.955672E+04
        77   4  1.148812E+05  1.606604E+06  1.307447E+05 -9.164453E+03  4.807365E+03  8.769874E+04
        77   5  1.828072E+04  1.594676E+06  6.479986E+04 -8.061679E+03  1.617448E+04  5.407210E+04
        77   6 -1.267904E+01  1.606694E+06  4.029010E+04 -9.178501E+03  1.955314E+04  2.044515E+04
        77   7  3.492591E+04  1.282638E+06  5.438969E+04  5.913218E+04  4.815492E+03  6.551260E+04
        77   8 -5.672287E+04  1.282045E+06  1.936559E+03  2.104958E+04  1.617822E+04  4.342356E+04
        77   9 -7.203734E+04  1.303415E+06 -1.706811E+04 -1.925214E+04  1.955344E+04  2.133316E+04
        77  10  1.948435E+05  1.930665E+06  2.070742E+05 -7.749728E+04 -2.253929E-09  1.026512E-09
        77  11  9.328013E+04  1.907396E+06  1.276507E+05 -3.718869E+04 -6.599447E-11 -5.847540E-11
        77  12  7.200650E+04  1.910060E+06  9.764285E+04  8.998684E+02  6.475633E-11  1.148181E-10
        77  13  1.148791E+05  1.606596E+06  1.307302E+05 -9.164792E+03  3.226032E-10 -4.185290E-11
        77  14  1.827966E+04  1.594672E+06  6.479388E+04 -8.062383E+03 -1.715632E-09 -1.104175E-10
        77  15 -1.320175E+01  1.606693E+06  4.028860E+04 -9.178822E+03  1.376418E-09 -3.169843E-11
        77  16  3.492473E+04  1.282633E+06  5.438160E+04  5.913193E+04  2.163500E-10 -8.914394E-10
        77  17 -5.672365E+04  1.282043E+06  1.932531E+03  2.104901E+04  1.134365E-09 -2.388397E-10
        77  18 -7.203788E+04  1.303415E+06 -1.706968E+04 -1.925248E+04  2.719144E-10  3.869244E-11
        77  19  1.948467E+05  1.930678E+06  2.070968E+05 -7.749686E+04 -4.794371E+03 -1.098964E+05
        77  20  9.328153E+04  1.907401E+06  1.276590E+05 -3.718785E+04 -1.616975E+04 -6.472588E+04
        77  21  7.200701E+04  1.910061E+06  9.764429E+04  9.001761E+02 -1.955281E+04 -1.955672E+04
        77  22  1.148812E+05  1.606604E+06  1.307447E+05 -9.164453E+03 -4.807365E+03 -8.769874E+04
        77  23  1.828072E+04  1.594676E+06  6.479986E+04 -8.061679E+03 -1.617448E+04 -5.407210E+04
        77  24 -1.267904E+01  1.606694E+06  4.029010E+04 -9.178501E+03 -1.955314E+04 -2.044515E+04
        77  25  3.492591E+04  1.282638E+06  5.438969E+04  5.913218E+04 -4.815492E+03 -6.551260E+04
        77  26 -5.672287E+04  1.282045E+06  1.936559E+03  2.104958E+04 -1.617822E+04 -4.342356E+04
        77  27 -7.203734E+04  1.303415E+06 -1.706811E+04 -1.925214E+04 -1.955344E+04 -2.133316E+04
        78   1  7.453766E+04  1.898347E+06  9.026616E+04 -1.169330E+04  1.919810E+04  1.529913E+04
        78   2  6.853467E+04  1.886454E+06  8.205078E+04 -8.016067E+03  1.912407E+04 -4.109005E+02
        78   3  6.964029E+04  1.878386E+06  8.582127E+04 -6.971397E+03  1.805928E+04 -1.612108E+04
        78   4  4.236855E+03  1.602159E+06  3.436861E+04 -9.268345E+03  1.919905E+04  1.469094E+04
        78   5  7.413173E+02  1.600371E+06  2.860161E+04 -7.952208E+03  1.912459E+04  4.168197E+02
        78   6  4.107678E+03  1.602161E+06  3.382884E+04 -9.268665E+03  1.805928E+04 -1.385769E+04
        78   7 -6.606902E+04  1.306055E+06 -2.153280E+04 -6.844571E+03  1.919999E+04  1.408303E+04
        78   8 -6.705674E+04  1.314367E+06 -2.485106E+04 -7.888373E+03  1.912511E+04  1.244169E+03
        78   9 -6.142934E+04  1.326010E+06 -1.816691E+04 -1.156488E+04  1.805926E+04 -1.159527E+04
        78  10  7.453720E+04  1.898347E+06  9.026503E+04 -1.169353E+04 -1.086492E-09 -2.508545E-10
        78  11  6.853427E+04  1.886454E+06  8.205009E+04 -8.016061E+03 -5.570863E-10 -2.225065E-09
        78  12  6.963987E+04  1.878385E+06  8.582017E+04 -6.971163E+03 -1.795519E-09 -2.708988E-09
        78  13  4.236402E+03  1.602159E+06  3.436751E+04 -9.268572E+03  9.988537E-10 -1.720774E-10
        78  14  7.409243E+02  1.600371E+06  2.860093E+04 -7.952214E+03  1.055817E-09 -5.947151E-10
        78  15  4.107276E+03  1.602161E+06  3.382787E+04 -9.268464E+03 -1.520565E-09  5.055878E-11
        78  16 -6.606947E+04  1.306055E+06 -2.153387E+04 -6.844789E+03  7.632022E-10  3.366589E-10
        78  17 -6.705714E+04  1.314367E+06 -2.485175E+04 -7.888392E+03  1.362587E-09  1.500572E-09
        78  18 -6.142972E+04  1.326010E+06 -1.816777E+04 -1.156471E+04  3.385399E-10  3.081849E-09
        78  19  7.453766E+04  1.898347E+06  9.026616E+04 -1.169330E+04 -1.919810E+04 -1.529913E+04
        78  20  6.853467E+04  1.886454E+06  8.205078E+04 -8.016067E+03 -1.912407E+04  4.109005E+02
        78  21  6.964029E+04  1.878386E+06  8.582127E+04 -6.971397E+03 -1.805928E+04  1.612108E+04
        78  22  4.236855E+03  1.602159E+06  3.436861E+04 -9.268345E+03 -1.919905E+04 -1.469094E+04
        78  23  7.413173E+02  1.600371E+06  2.860161E+04 -7.952208E+03 -1.912459E+04 -4.168197E+02
        78  24  4.107678E+03  1.602161E+06  3.382884E+04 -9.268665E+03 -1.805928E+04  1.385769E+04
        78  25 -6.606902E+04  1.306055E+06 -2.153280E+04 -6.844571E+03 -1.919999E+04 -1.408303E+04
        78  26 -6.705674E+04  1.314367E+06 -2.485106E+04 -7.888373E+03 -1.912511E+04 -1.244169E+03
        78  27 -6.142934E+04  1.326010E+06 -1.816691E+04 -1.156488E+04 -1.805926E+04  1.159527E+04
        79   1  6.402063E+04  1.876334E+06  9.027481E+04 -1.921401E+04  1.760128E+04 -2.060370E+04
        79   2  7.986378E+04  1.854296E+06  1.148384E+05  2.033265E+04  1.384121E+04 -6.206565E+04
        79   3  1.732410E+05  1.857020E+06  1.857265E+05  5.695738E+04  4.032627E+03 -1.035303E+05
        79   4 -3.872366E+00  1.606543E+06  3.945424E+04 -9.340771E+03  1.760121E+04 -1.951460E+04
        79   5  1.775389E+04  1.594874E+06  6.307014E+04 -7.858358E+03  1.384043E+04 -5.224271E+04
        79   6  1.115441E+05  1.606460E+06  1.269656E+05 -9.298076E+03  4.035062E+03 -8.497343E+04
        79   7 -6.403223E+04  1.336823E+06 -1.136947E+04  5.280910E+02  1.760116E+04 -1.842596E+04
        79   8 -4.435708E+04  1.335519E+06  1.129928E+04 -3.603738E+04  1.383876E+04 -4.242377E+04
        79   9  4.985940E+04  1.355968E+06  6.820409E+04 -7.552670E+04  4.033548E+03 -6.642396E+04
        79  10  6.402018E+04  1.876333E+06  9.027343E+04 -1.921372E+04 -1.534881E-09  4.516219E-10
        79  11  7.986254E+04  1.854292E+06  1.148308E+05  2.033334E+04 -9.842500E-10 -6.105450E-10
        79  12  1.732381E+05  1.857008E+06  1.857064E+05  5.695772E+04  1.002287E-09  6.275612E-10
        79  13 -4.307178E+00  1.606543E+06  3.945294E+04 -9.340495E+03 -2.188942E-09 -2.219986E-10
        79  14  1.775295E+04  1.594871E+06  6.306467E+04 -7.857777E+03 -4.579646E-10 -9.623197E-10
        79  15  1.115421E+05  1.606452E+06  1.269521E+05 -9.297800E+03  1.224651E-09 -6.971737E-11
        79  16 -6.403265E+04  1.336822E+06 -1.137069E+04  5.283521E+02 -1.255963E-09 -1.449998E-11
        79  17 -4.435776E+04  1.335517E+06  1.129555E+04 -3.603691E+04  4.944393E-10 -5.765839E-10
        79  18  4.985820E+04  1.355963E+06  6.819579E+04 -7.552648E+04 -2.997416E-10 -2.828629E-10
        79  19  6.402063E+04  1.876334E+06  9.027481E+04 -1.921401E+04 -1.760128E+04  2.060370E+04
        79  20  7.986378E+04  1.854296E+06  1.148384E+05  2.033265E+04 -1.384121E+04  6.206565E+04
        79  21  1.732410E+05  1.857020E+06  1.857265E+05  5.695738E+04 -4.032627E+03  1.035303E+05
        79  22 -3.872366E+00  1.606543E+06  3.945424E+04 -9.340771E+03 -1.760121E+04  1.951460E+04
        79  23  1.775389E+04  1.594874E+06  6.307014E+04 -7.858358E+03 -1.384043E+04  5.224271E+04
        79  24  1.115441E+05  1.606460E+06  1.269656E+05 -9.298076E+03 -4.035062E+03  8.497343E+04
        79  25 -6.403223E+04  1.336823E+06 -1.136947E+04  5.280910E+02 -1.760116E+04  1.842596E+04
        79  26 -4.435708E+04  1.335519E+06  1.129928E+04 -3.603738E+04 -1.383876E+04  4.242377E+04
        79  27  4.985940E+04  1.355968E+06  6.820409E+04 -7.552670E+04 -4.033548E+03  6.642396E+04
        80   1 -1.866560E+06 -4.051677E+05 -3.524570E+05 -4.241777E+04  5.730765E+04  3.199032E+04
        80   2 -1.691493E+06 -5.315853E+05 -3.804658E+05 -6.247572E+04  6.316403E+04  1.008909E+05
        80   3 -1.474181E+06 -4.942639E+05 -3.710464E+05 -1.571731E+05  6.922805E+04  1.072934E+05
        80   4  5.151189E+05  1.860324E+05  2.234348E+05 -1.285464E+05  1.536162E+05  3.227492E+04
        80   5  4.890331E+05  1.183638E+03  1.020709E+05 -9.098518E+04  9.946832E+04  1.009514E+05
        80   6  5.154105E+05 -9.826190E+03  5.968476E+04 -1.280374E+05  4.553079E+04  1.072295E+05
        80   7  2.902029E+06  7.768520E+05  7.989590E+05 -2.150107E+05  2.502929E+05  3.253226E+04
        80   8  2.674010E+06  5.336362E+05  5.843194E+05 -1.195986E+05  1.358984E+05  1.010084E+05
        80   9  2.508725E+06  4.743533E+05  4.901836E+05 -9.880813E+04  2.175830E+04  1.071636E+05
        80  10 -1.866564E+06 -4.051697E+05 -3.524651E+05 -4.241925E+04 -4.199837E-10  2.316229E-10
        80  11 -1.691500E+06 -5.315973E+05 -3.804925E+05 -6.248086E+04  2.940171E-10  5.550813E-10
        80  12 -1.474190E+06 -4.942776E+05 -3.710770E+05 -1.571791E+05 -1.020687E-09  1.078200E-09
        80  13  5.150933E+05  1.860250E+05  2.233885E+05 -1.285504E+05 -1.097259E-09  7.904473E-11
        80  14  4.890197E+05  1.170037E+03  1.020332E+05 -9.099327E+04  7.189810E-10  6.410696E-10
        80  15  5.154052E+05 -9.839097E+03  5.965925E+04 -1.280414E+05 -6.605520E-10  8.834429E-10
        80  16  2.901961E+06  7.768342E+05  7.988398E+05 -2.150173E+05 -8.608170E-11  1.266455E-10
        80  17  2.673988E+06  5.336203E+05  5.842657E+05 -1.196096E+05 -1.435266E-09  5.951413E-10
        80  18  2.508721E+06  4.743408E+05  4.901611E+05 -9.881001E+04  3.910413E-10  7.635702E-10
        80  19 -1.866560E+06 -4.051677E+05 -3.524570E+05 -4.241777E+04 -5.730765E+04 -3.199032E+04
        80  20 -1.691493E+06 -5.315853E+05 -3.804658E+05 -6.247572E+04 -6.316403E+04 -1.008909E+05
        80  21 -1.474181E+06 -4.942639E+05 -3.710464E+05 -1.571731E+05 -6.922805E+04 -1.072934E+05
        80  22  5.151189E+05  1.860324E+05  2.234348E+05 -1.285464E+05 -1.536162E+05 -3.227492E+04
        80  23  4.890331E+05  1.183638E+03  1.020709E+05 -9.098518E+04 -9.946832E+04 -1.009514E+05
        80  24  5.154105E+05 -9.826190E+03  5.968476E+04 -1.280374E+05 -4.553079E+04 -1.072295E+05
        80  25  2.902029E+06  7.768520E+05  7.989590E+05 -2.150107E+05 -2.502929E+05 -3.253226E+04
        80  26  2.674010E+06  5.336362E+05  5.843194E+05 -1.195986E+05 -1.358984E+05 -1.010084E+05
        80  27  2.508725E+06  4.743533E+05  4.901836E+05 -9.880813E+04 -2.175830E+04 -1.071636E+05
        81   1 -1.328776E+06 -4.381964E+05 -3.516685E+05 -1.273391E+05  4.313966E+04  9.566012E+04
        81   2 -1.137055E+06 -4.000103E+05 -3.295494E+05 -9.086061E+04  3.305472E+04  8.791214E+04
        81   3 -9.406852E+05 -3.529083E+05 -2.983759E+05 -1.308509E+05  2.294988E+04  7.735610E+04
        81   4  5.050030E+05  8.538387E+03  4.726222E+04 -1.285785E+05  3.714743E+04  9.563070E+04
        81   5  5.025634E+05 -9.152729E+02  2.559775E+04 -9.034596E+04  2.433635E+04  8.788703E+04
        81   6  5.051975E+05 -9.925206E+02  1.486054E+04 -1.285693E+05  1.150848E+04  7.733880E+04
        81   7  2.341938E+06  4.550501E+05  4.459917E+05 -1.298223E+05  3.113758E+04  9.560135E+04
        81   8  2.144706E+06  3.980022E+05  3.805855E+05 -8.983031E+04  1.559516E+04  8.786194E+04
        81   9  1.953043E+06  3.507852E+05  3.279732E+05 -1.262823E+05  4.073253E+01  7.732144E+04
        81  10 -1.328780E+06 -4.382068E+05 -3.516892E+05 -1.273424E+05 -1.973856E-10  7.421699E-10
        81  11 -1.137058E+06 -4.000189E+05 -3.295660E+05 -9.086295E+04 -9.588876E-11 -6.090465E-11
        81  12 -9.406874E+05 -3.529149E+05 -2.983881E+05 -1.308524E+05 -1.462453E-09  1.878456E-11
        81  13  5.049990E+05  8.528193E+03  4.724244E+04 -1.285813E+05  1.069247E-09  4.563692E-10
        81  14  5.025606E+05 -9.237283E+02  2.558212E+04 -9.034768E+04  5.762025E-10 -1.760136E-10
        81  15  5.051958E+05 -9.989807E+02  1.484905E+04 -1.285701E+05  1.083660E-09  1.546018E-10
        81  16  2.341934E+06  4.550400E+05  4.459727E+05 -1.298247E+05  2.114023E-10  3.314227E-10
        81  17  2.144704E+06  3.979938E+05  3.805706E+05 -8.983142E+04 -4.773888E-10 -7.600877E-11
        81  18  1.953042E+06  3.507788E+05  3.279620E+05 -1.262823E+05  1.263021E-09  3.781171E-11
        81  19 -1.328776E+06 -4.381964E+05 -3.516685E+05 -1.273391E+05 -4.313966E+04 -9.566012E+04
        81  20 -1.137055E+06 -4.000103E+05 -3.295494E+05 -9.086061E+04 -3.305472E+04 -8.791214E+04
        81  21 -9.406852E+05 -3.529083E+05 -2.983759E+05 -1.308509E+05 -2.294988E+04 -7.735610E+04
        81  22  5.050030E+05  8.538387E+03  4.726222E+04 -1.285785E+05 -3.714743E+04 -9.563070E+04
        81  23  5.025634E+05 -9.152729E+02  2.559775E+04 -9.034596E+04 -2.433635E+04 -8.788703E+04
        81  24  5.051975E+05 -9.925206E+02  1.486054E+04 -1.285693E+05 -1.150848E+04 -7.733880E+04
        81  25  2.341938E+06  4.550501E+05  4.459917E+05 -1.298223E+05 -3.113758E+04 -9.560135E+04
        81  26  2.144706E+06  3.980022E+05  3.805855E+05 -8.983031E+04 -1.559516E+04 -8.786194E+04
        81  27  1.953043E+06  3.507852E+05  3.279732E+05 -1.262823E+05 -4.073253E+01 -7.732144E+04
        82   1 -7.878859E+05 -3.143298E+05 -2.676824E+05 -1.289296E+05  1.982484E+04  7.053422E+04
        82   2 -5.952542E+05 -2.677231E+05 -2.312446E+05 -9.053526E+04  1.674467E+04  5.938605E+04
        82   3 -4.016686E+05 -2.205638E+05 -1.925730E+05 -1.283277E+05  1.364852E+04  4.812544E+04
        82   4  5.043722E+05 -1.182983E+01  1.136666E+04 -1.285103E+05  9.199748E+03  7.052227E+04
        82   5  5.039660E+05 -3.143802E+02  6.467763E+03 -9.042104E+04  6.004227E+03  5.938062E+04
        82   6  5.044997E+05 -4.245161E+01  3.880775E+03 -1.285105E+05  2.793675E+03  4.812676E+04
        82   7  1.798199E+06  3.141962E+05  2.903176E+05 -1.280900E+05 -1.447190E+03  7.051032E+04
        82   8  1.604321E+06  2.670147E+05  2.441090E+05 -9.030649E+04 -4.754990E+03  5.937519E+04
        82   9  1.411439E+06  2.204247E+05  2.002861E+05 -1.286934E+05 -8.076813E+03  4.812808E+04
        82  10 -7.878877E+05 -3.143353E+05 -2.676925E+05 -1.289308E+05 -5.847306E-10  2.725779E-10
        82  11 -5.952554E+05 -2.677269E+05 -2.312518E+05 -9.053606E+04 -4.545660E-10  2.002734E-10
        82  12 -4.016695E+05 -2.205664E+05 -1.925777E+05 -1.283283E+05  1.181433E-10  8.321908E-11
        82  13  5.043707E+05 -1.719450E+01  1.135715E+04 -1.285108E+05  2.226306E-11 -6.591235E-11
        82  14  5.039650E+05 -3.181772E+02  6.461068E+03 -9.042133E+04  5.369884E-10 -1.066982E-10
        82  15  5.044990E+05 -4.494151E+01  3.876406E+03 -1.285106E+05 -7.464640E-10 -6.995203E-10
        82  16  1.798198E+06  3.141908E+05  2.903082E+05 -1.280899E+05  5.701989E-10  1.996826E-10
        82  17  1.604320E+06  2.670109E+05  2.441024E+05 -9.030626E+04 -1.960417E-09 -8.859377E-11
        82  18  1.411438E+06  2.204222E+05  2.002816E+05 -1.286931E+05  2.841303E-11 -6.865729E-10
        82  19 -7.878859E+05 -3.143298E+05 -2.676824E+05 -1.289296E+05 -1.982484E+04 -7.053422E+04
        82  20 -5.952542E+05 -2.677231E+05 -2.312446E+05 -9.053526E+04 -1.674467E+04 -5.938605E+04
        82  21 -4.016686E+05 -2.205638E+05 -1.925730E+05 -1.283277E+05 -1.364852E+04 -4.812544E+04
        82  22  5.043722E+05 -1.182983E+01  1.136666E+04 -1.285103E+05 -9.199748E+03 -7.052227E+04
        82  23  5.039660E+05 -3.143802E+02  6.467763E+03 -9.042104E+04 -6.004227E+03 -5.938062E+04
        82  24  5.044997E+05 -4.245161E+01  3.880775E+03 -1.285105E+05 -2.793675E+03 -4.812676E+04
        82  25  1.798199E+06  3.141962E+05  2.903176E+05 -1.280900E+05  1.447190E+03 -7.051032E+04
        82  26  1.604321E+06  2.670147E+05  2.441090E+05 -9.030649E+04  4.754990E+03 -5.937519E+04
        82  27  1.411439E+06  2.204247E+05  2.002861E+05 -1.286934E+05  8.076813E+03 -4.812808E+04
        83   1 -2.487718E+05 -1.830500E+05 -1.592598E+05 -1.281955E+05  1.297416E+04  4.154923E+04
        83   2 -5.627937E+04 -1.362843E+05 -1.191848E+05 -9.019760E+04  1.198067E+04  3.028635E+04
        83   3  1.363845E+05 -8.937691E+04 -7.843716E+04 -1.281675E+05  1.097915E+04  1.902582E+04
        83   4  5.043768E+05  2.164879E+01  3.031648E+03 -1.284627E+05  2.164623E+03  4.155361E+04
        83   5  5.043425E+05  5.250566E+01  2.002835E+03 -9.048086E+04  1.170720E+03  3.029405E+04
        83   6  5.044413E+05  2.263995E+02  1.646560E+03 -1.284626E+05  1.690910E+02  1.903697E+04
        83   7  1.258059E+06  1.830561E+05  1.652901E+05 -1.287301E+05 -8.657851E+03  4.155800E+04
        83   8  1.065260E+06  1.363686E+05  1.231723E+05 -9.076429E+04 -9.648857E+03  3.030176E+04
        83   9  8.726253E+05  8.982078E+04  8.172260E+04 -1.287579E+05 -1.064729E+04  1.904813E+04
        83  10 -2.487724E+05 -1.830519E+05 -1.592633E+05 -1.281959E+05  1.873235E-11  4.391948E-11
        83  11 -5.627977E+04 -1.362853E+05 -1.191868E+05 -9.019789E+04  1.783446E-09 -8.265354E-11
        83  12  1.363843E+05 -8.937733E+04 -7.843806E+04 -1.281677E+05  1.141232E-09 -1.013360E-10
        83  13  5.043764E+05  1.979289E+01  3.028394E+03 -1.284628E+05 -1.012483E-09 -5.227399E-10
        83  14  5.043422E+05  5.151957E+01  2.001108E+03 -9.048089E+04  4.684443E-10 -1.345350E-10
        83  15  5.044412E+05  2.260103E+02  1.645879E+03 -1.284626E+05  1.254161E-09  2.517736E-10
        83  16  1.258058E+06  1.830542E+05  1.652868E+05 -1.287298E+05 -2.402263E-10 -7.593402E-10
        83  17  1.065259E+06  1.363676E+05  1.231704E+05 -9.076405E+04 -8.361678E-10 -1.670409E-10
        83  18  8.726251E+05  8.982036E+04  8.172170E+04 -1.287577E+05 -5.495855E-10  1.063769E-10
        83  19 -2.487718E+05 -1.830500E+05 -1.592598E+05 -1.281955E+05 -1.297416E+04 -4.154923E+04
        83  20 -5.627937E+04 -1.362843E+05 -1.191848E+05 -9.019760E+04 -1.198067E+04 -3.028635E+04
        83  21  1.363845E+05 -8.937691E+04 -7.843716E+04 -1.281675E+05 -1.097915E+04 -1.902582E+04
        83  22  5.043768E+05  2.164879E+01  3.031648E+03 -1.284627E+05 -2.164623E+03 -4.155361E+04
        83  23  5.043425E+05  5.250566E+01  2.002835E+03 -9.048086E+04 -1.170720E+03 -3.029405E+04
        83  24  5.044413E+05  2.263995E+02  1.646560E+03 -1.284626E+05 -1.690910E+02 -1.903697E+04
        83  25  1.258059E+06  1.830561E+05  1.652901E+05 -1.287301E+05  8.657851E+03 -4.155800E+04
        83  26  1.065260E+06  1.363686E+05  1.231723E+05 -9.076429E+04  9.648857E+03 -3.030176E+04
        83  27  8.726253E+05  8.982078E+04  8.172260E+04 -1.287579E+05  1.064729E+04 -1.904813E+04
        84   1  2.891463E+05 -5.200236E+04 -4.434840E+04 -1.282694E+05  1.066866E+04  1.247484E+04
        84   2  4.815674E+05 -5.399953E+03 -2.899126E+03 -9.042953E+04  9.645714E+03  1.225612E+03
        84   3  6.740207E+05  4.136426E+04  3.920945E+04 -1.284672E+05  8.622146E+03 -1.001908E+04
        84   4  5.044308E+05  2.346226E+02  1.644544E+03 -1.284435E+05 -1.385715E+02  1.248708E+04
        84   5  5.044336E+05  1.590543E+02  2.041281E+03 -9.050478E+04 -1.158756E+03  1.237913E+03
        84   6  5.044332E+05  2.469795E+02  3.096463E+03 -1.284434E+05 -2.179252E+03 -1.000658E+04
        84   7  7.197591E+05  5.246864E+04  4.763524E+04 -1.286176E+05 -1.094950E+04  1.249932E+04
        84   8  5.273005E+05  5.718090E+03  6.982095E+03 -9.058005E+04 -1.196362E+04  1.250217E+03
        84   9  3.348730E+05 -4.087211E+04 -3.301774E+04 -1.284196E+05 -1.297774E+04 -9.994078E+03
        84  10  2.891462E+05 -5.200256E+04 -4.434890E+04 -1.282695E+05 -1.667037E-09 -3.167529E-12
        84  11  4.815673E+05 -5.399980E+03 -2.899304E+03 -9.042954E+04  4.812556E-09  4.860758E-10
        84  12  6.740206E+05  4.136414E+04  3.920912E+04 -1.284671E+05  1.345492E-08  1.054075E-09
        84  13  5.044307E+05  2.344551E+02  1.644251E+03 -1.284435E+05 -5.250805E-11  4.192992E-10
        84  14  5.044336E+05  1.590523E+02  2.041275E+03 -9.050478E+04 -8.589828E-11  7.343267E-10
        84  15  5.044332E+05  2.468707E+02  3.096266E+03 -1.284434E+05  1.607008E-10  1.258217E-09
        84  16  7.197589E+05  5.246844E+04  4.763472E+04 -1.286175E+05  2.197838E-09  1.241083E-10
        84  17  5.273004E+05  5.718050E+03  6.981823E+03 -9.058003E+04 -7.520755E-09  4.362121E-10
        84  18  3.348728E+05 -4.087226E+04 -3.301824E+04 -1.284197E+05 -1.364739E-08  9.093061E-10
        84  19  2.891463E+05 -5.200236E+04 -4.434840E+04 -1.282694E+05 -1.066866E+04 -1.247484E+04
        84  20  4.815674E+05 -5.399953E+03 -2.899126E+03 -9.042953E+04 -9.645714E+03 -1.225612E+03
        84  21  6.740207E+05  4.136426E+04  3.920945E+04 -1.284672E+05 -8.622146E+03  1.001908E+04
        84  22  5.044308E+05  2.346226E+02  1.644544E+03 -1.284435E+05  1.385715E+02 -1.248708E+04
        84  23  5.044336E+05  1.590543E+02  2.041281E+03 -9.050478E+04  1.158756E+03 -1.237913E+03
        84  24  5.044332E+05  2.469795E+02  3.096463E+03 -1.284434E+05  2.179252E+03  1.000658E+04
        84  25  7.197591E+05  5.246864E+04  4.763524E+04 -1.286176E+05  1.094950E+04 -1.249932E+04
        84  26  5.273005E+05  5.718090E+03  6.982095E+03 -9.058005E+04  1.196362E+04 -1.250217E+03
        84  27  3.348730E+05 -4.087211E+04 -3.301774E+04 -1.284196E+05  1.297774E+04  9.994078E+03
        85   1  8.269620E+05  7.867304E+04  7.414472E+04 -1.285250E+05  8.008083E+03 -1.657413E+04
        85   2  1.019349E+06  1.251957E+05  1.179376E+05 -9.059345E+04  4.615538E+03 -2.779834E+04
        85   3  1.212318E+06  1.723753E+05  1.640792E+05 -1.286040E+05  1.229121E+03 -3.893240E+04
        85   4  5.045363E+05  1.986463E+02  3.952752E+03 -1.284588E+05 -2.825164E+03 -1.656251E+04
        85   5  5.042383E+05  5.257809E+00  6.644415E+03 -9.048557E+04 -6.129978E+03 -2.778997E+04
        85   6  5.044762E+05  4.570387E+02  1.162767E+04 -1.284582E+05 -9.427644E+03 -3.892712E+04
        85   7  1.822080E+05 -7.828258E+04 -6.624501E+04 -1.283926E+05 -1.365286E+04 -1.655089E+04
        85   8 -1.062325E+04 -1.252026E+05 -1.046640E+05 -9.037771E+04 -1.686671E+04 -2.778161E+04
        85   9 -2.028953E+05 -1.714941E+05 -1.408529E+05 -1.283126E+05 -2.007244E+04 -3.892185E+04
        85  10  8.269619E+05  7.867273E+04  7.414408E+04 -1.285249E+05 -1.629617E-08  6.288052E-10
        85  11  1.019349E+06  1.251949E+05  1.179361E+05 -9.059334E+04 -6.971031E-09 -2.988681E-10
        85  12  1.212317E+06  1.723737E+05  1.640764E+05 -1.286039E+05  2.485952E-09 -6.114195E-10
        85  13  5.045362E+05  1.983495E+02  3.952221E+03 -1.284588E+05 -1.057910E-09  4.495776E-10
        85  14  5.042381E+05  4.418205E+00  6.642893E+03 -9.048571E+04 -5.349857E-10 -5.648340E-10
        85  15  5.044757E+05  4.553872E+02  1.162465E+04 -1.284585E+05 -1.573252E-09 -1.029943E-09
        85  16  1.822078E+05 -7.828293E+04 -6.624588E+04 -1.283927E+05  1.524291E-08  7.541473E-10
        85  17 -1.062376E+04 -1.252035E+05 -1.046660E+05 -9.037809E+04  8.433631E-09 -6.242402E-10
        85  18 -2.028961E+05 -1.714958E+05 -1.408565E+05 -1.283132E+05 -2.422406E-09 -1.062225E-09
        85  19  8.269620E+05  7.867304E+04  7.414472E+04 -1.285250E+05 -8.008083E+03  1.657413E+04
        85  20  1.019349E+06  1.251957E+05  1.179376E+05 -9.059345E+04 -4.615538E+03  2.779834E+04
        85  21  1.212318E+06  1.723753E+05  1.640792E+05 -1.286040E+05 -1.229121E+03  3.893240E+04
        85  22  5.045363E+05  1.986463E+02  3.952752E+03 -1.284588E+05  2.825164E+03  1.656251E+04
        85  23  5.042383E+05  5.257809E+00  6.644415E+03 -9.048557E+04  6.129978E+03  2.778997E+04
        85  24  5.044762E+05  4.570387E+02  1.162767E+04 -1.284582E+05  9.427644E+03  3.892712E+04
        85  25  1.822080E+05 -7.828258E+04 -6.624501E+04 -1.283926E+05  1.365286E+04  1.655089E+04
        85  26 -1.062325E+04 -1.252026E+05 -1.046640E+05 -9.037771E+04  1.686671E+04  2.778161E+04
        85  27 -2.028953E+05 -1.714941E+05 -1.408529E+05 -1.283126E+05  2.007244E+04  3.892185E+04
        86   1  1.366400E+06  2.088061E+05  2.016882E+05 -1.269900E+05 -5.205443E+02 -4.566089E+04
        86   2  1.557295E+06  2.558357E+05  2.542832E+05 -9.135186E+04 -1.575065E+04 -5.632389E+04
        86   3  1.753039E+06  3.128822E+05  3.193475E+05 -1.317658E+05 -3.097247E+04 -6.485538E+04
        86   4  5.052957E+05 -5.259568E+02  1.518637E+04 -1.284842E+05 -1.179738E+04 -4.565813E+04
        86   5  5.030013E+05 -3.811025E+02  2.623526E+04 -9.045314E+04 -2.495803E+04 -5.632826E+04
        86   6  5.051694E+05  9.434349E+03  4.833409E+04 -1.284813E+05 -3.810573E+04 -6.486520E+04
        86   7 -3.551133E+05 -2.099069E+05 -1.713590E+05 -1.299761E+05 -2.305881E+04 -4.565531E+04
        86   8 -5.502506E+05 -2.566711E+05 -2.018782E+05 -8.955582E+04 -3.414998E+04 -5.633267E+04
        86   9 -7.412425E+05 -2.941165E+05 -2.227721E+05 -1.252034E+05 -4.522481E+04 -6.487511E+04
        86  10  1.366399E+06  2.088039E+05  2.016843E+05 -1.269900E+05 -1.827949E-09 -2.095659E-10
        86  11  1.557293E+06  2.558322E+05  2.542768E+05 -9.135258E+04 -3.012809E-10  4.303081E-10
        86  12  1.753036E+06  3.128774E+05  3.193378E+05 -1.317674E+05  1.299059E-09  1.108215E-10
        86  13  5.052950E+05 -5.282334E+02  1.518219E+04 -1.284846E+05 -2.178548E-09 -4.201465E-10
        86  14  5.029997E+05 -3.846777E+02  2.622813E+04 -9.045428E+04 -1.065601E-09  8.757055E-11
        86  15  5.051667E+05  9.429440E+03  4.832346E+04 -1.284833E+05 -2.291114E-10 -2.515250E-11
        86  16 -3.551144E+05 -2.099093E+05 -1.713640E+05 -1.299769E+05 -5.461896E-11 -8.751497E-10
        86  17 -5.502528E+05 -2.566748E+05 -2.018864E+05 -8.955737E+04 -6.775626E-10 -6.724181E-11
        86  18 -7.412459E+05 -2.941216E+05 -2.227839E+05 -1.252058E+05 -8.704034E-10 -2.271117E-10
        86  19  1.366400E+06  2.088061E+05  2.016882E+05 -1.269900E+05  5.205443E+02  4.566089E+04
        86  20  1.557295E+06  2.558357E+05  2.542832E+05 -9.135186E+04  1.575065E+04  5.632389E+04
        86  21  1.753039E+06  3.128822E+05  3.193475E+05 -1.317658E+05  3.097247E+04  6.485538E+04
        86  22  5.052957E+05 -5.259568E+02  1.518637E+04 -1.284842E+05  1.179738E+04  4.565813E+04
        86  23  5.030013E+05 -3.811025E+02  2.623526E+04 -9.045314E+04  2.495803E+04  5.632826E+04
        86  24  5.051694E+05  9.434349E+03  4.833409E+04 -1.284813E+05  3.810573E+04  6.486520E+04
        86  25 -3.551133E+05 -2.099069E+05 -1.713590E+05 -1.299761E+05  2.305881E+04  4.565531E+04
        86  26 -5.502506E+05 -2.566711E+05 -2.018782E+05 -8.955582E+04  3.414998E+04  5.633267E+04
        86  27 -7.412425E+05 -2.941165E+05 -2.227721E+05 -1.252034E+05  4.522481E+04  6.487511E+04
        87   1  1.918653E+06  3.315553E+05  3.642445E+05 -1.007005E+05 -2.608697E+04 -7.519722E+04
        87   2  2.083279E+06  3.906815E+05  4.567136E+05 -1.233636E+05 -1.269698E+05 -7.306217E+04
        87   3  2.308256E+06  6.350263E+05  6.612280E+05 -2.205394E+05 -2.279580E+05 -2.360204E+04
        87   4  5.157729E+05 -9.289472E+03  6.102438E+04 -1.280912E+05 -4.669264E+04 -7.521387E+04
        87   5  4.893866E+05  1.995679E+03  1.044733E+05 -9.093132E+04 -1.019054E+05 -7.306280E+04
        87   6  5.155469E+05  1.908302E+05  2.284490E+05 -1.282720E+05 -1.571857E+05 -2.355153E+04
        87   7 -8.852620E+05 -3.502609E+05 -2.423102E+05 -1.554193E+05 -6.725240E+04 -7.522873E+04
        87   8 -1.102135E+06 -3.868567E+05 -2.479208E+05 -5.858333E+04 -7.690425E+04 -7.306083E+04
        87   9 -1.274202E+06 -2.535654E+05 -2.045366E+05 -3.627169E+04 -8.661609E+04 -2.348001E+04
        87  10  1.918651E+06  3.315490E+05  3.642326E+05 -1.007021E+05  1.493114E-10 -1.071998E-11
        87  11  2.083260E+06  3.906715E+05  4.566734E+05 -1.233711E+05 -8.496967E-11  3.275623E-11
        87  12  2.308200E+06  6.350118E+05  6.611297E+05 -2.205437E+05  5.179207E-10 -1.462930E-10
        87  13  5.157690E+05 -9.296134E+03  6.100965E+04 -1.280941E+05 -1.042513E-11 -1.721364E-10
        87  14  4.893740E+05  1.987159E+03  1.044438E+05 -9.093731E+04 -1.029972E-09 -1.454870E-10
        87  15  5.155202E+05  1.908230E+05  2.284016E+05 -1.282750E+05 -3.402188E-10  4.025974E-11
        87  16 -8.852683E+05 -3.502682E+05 -2.423294E+05 -1.554234E+05  4.428854E-10 -2.231106E-10
        87  17 -1.102143E+06 -3.868640E+05 -2.479420E+05 -5.858786E+04 -9.137489E-10  2.938695E-10
        87  18 -1.274211E+06 -2.535680E+05 -2.045517E+05 -3.627332E+04  2.422042E-10  4.926548E-11
        87  19  1.918653E+06  3.315553E+05  3.642445E+05 -1.007005E+05  2.608697E+04  7.519722E+04
        87  20  2.083279E+06  3.906815E+05  4.567136E+05 -1.233636E+05  1.269698E+05  7.306217E+04
        87  21  2.308256E+06  6.350263E+05  6.612280E+05 -2.205394E+05  2.279580E+05  2.360204E+04
        87  22  5.157729E+05 -9.289472E+03  6.102438E+04 -1.280912E+05  4.669264E+04  7.521387E+04
        87  23  4.893866E+05  1.995679E+03  1.044733E+05 -9.093132E+04  1.019054E+05  7.306280E+04
        87  24  5.155469E+05  1.908302E+05  2.284490E+05 -1.282720E+05  1.571857E+05  2.355153E+04
        87  25 -8.852620E+05 -3.502609E+05 -2.423102E+05 -1.554193E+05  6.725240E+04  7.522873E+04
        87  26 -1.102135E+06 -3.868567E+05 -2.479208E+05 -5.858333E+04  7.690425E+04  7.306083E+04
        87  27 -1.274202E+06 -2.535654E+05 -2.045366E+05 -3.627169E+04  8.661609E+04  2.348001E+04
        88   1  2.642788E+04 -3.339466E+05  4.205873E+04 -1.462617E+05 -4.931154E+03  4.688797E+04
        88   2 -8.760023E+04 -5.102366E+05 -3.975429E+04 -8.953043E+04 -1.895678E+04  2.895632E+04
        88   3 -1.326582E+05 -6.674483E+05 -9.278756E+04 -9.865422E+04 -2.952377E+04  1.104495E+04
        88   4  7.549016E+04 -1.340259E+05  8.901795E+04 -1.103181E+05 -4.984828E+03  6.209038E+04
        88   5  1.560587E+03 -1.438625E+05  4.006937E+04 -7.753262E+04 -1.899782E+04  4.083300E+04
        88   6 -2.839218E+03 -1.340696E+05  2.220925E+04 -1.105931E+05 -2.955186E+04  1.959165E+04
        88   7  1.245546E+05  6.593501E+04  1.359760E+05 -7.436281E+04 -5.036732E+03  7.729765E+04
        88   8  9.071314E+04  2.226382E+05  1.198856E+05 -6.552752E+04 -1.903839E+04  5.271659E+04
        88   9  1.269616E+05  3.995770E+05  1.371896E+05 -1.225421E+05 -2.958027E+04  2.814560E+04
        88  10  2.642726E+04 -3.339490E+05  4.205456E+04 -1.462615E+05  1.170982E-09  2.758809E-09
        88  11 -8.760084E+04 -5.102376E+05 -3.975654E+04 -8.952999E+04  3.721111E-09  3.030254E-10
        88  12 -1.326592E+05 -6.674487E+05 -9.278943E+04 -9.865396E+04  1.923751E-09 -2.870157E-09
        88  13  7.548910E+04 -1.340300E+05  8.901065E+04 -1.103178E+05  4.252108E-10 -4.535861E-12
        88  14  1.559752E+03 -1.438644E+05  4.006556E+04 -7.753200E+04  9.834854E-10 -3.553099E-11
        88  15 -2.840259E+03 -1.340702E+05  2.220688E+04 -1.105926E+05  5.328182E-11 -5.293641E-11
        88  16  1.245530E+05  6.592858E+04  1.359647E+05 -7.436249E+04  3.835522E-10 -2.790734E-09
        88  17  9.071201E+04  2.226351E+05  1.198797E+05 -6.552671E+04  4.504770E-10 -3.721310E-10
        88  18  1.269604E+05  3.995760E+05  1.371865E+05 -1.225414E+05 -1.168605E-10  2.876973E-09
        88  19  2.642788E+04 -3.339466E+05  4.205873E+04 -1.462617E+05  4.931154E+03 -4.688797E+04
        88  20 -8.760023E+04 -5.102366E+05 -3.975429E+04 -8.953043E+04  1.895678E+04 -2.895632E+04
        88  21 -1.326582E+05 -6.674483E+05 -9.278756E+04 -9.865422E+04  2.952377E+04 -1.104495E+04
        88  22  7.549016E+04 -1.340259E+05  8.901795E+04 -1.103181E+05  4.984828E+03 -6.209038E+04
        88  23  1.560587E+03 -1.438625E+05  4.006937E+04 -7.753262E+04  1.899782E+04 -4.083300E+04
        88  24 -2.839218E+03 -1.340696E+05  2.220925E+04 -1.105931E+05  2.955186E+04 -1.959165E+04
        88  25  1.245546E+05  6.593501E+04  1.359760E+05 -7.436281E+04  5.036732E+03 -7.729765E+04
        88  26  9.071314E+04  2.226382E+05  1.198856E+05 -6.552752E+04  1.903839E+04 -5.271659E+04
        88  27  1.269616E+05  3.995770E+05  1.371896E+05 -1.225421E+05  2.958027E+04 -2.814560E+04
        89   1 -1.576342E+05 -8.042055E+05 -1.279600E+05 -1.098484E+05 -3.506509E+04  6.551199E+03
        89   2 -2.024290E+05 -9.712760E+05 -1.741099E+05 -7.612451E+04 -4.451759E+04  5.185450E+03
        89   3 -2.447572E+05 -1.137789E+06 -2.188242E+05 -1.081481E+05 -5.204621E+04  3.834730E+03
        89   4  4.558660E+03 -1.382764E+05  1.671207E+04 -1.104943E+05 -3.509606E+04  1.655593E+04
        89   5  2.824268E+02 -1.387450E+05  6.346988E+03 -7.763218E+04 -4.453831E+04  1.334245E+04
        89   6 -1.205359E+03 -1.383602E+05 -1.297374E+03 -1.105119E+05 -5.205797E+04  1.014368E+04
        89   7  1.667222E+05  5.280693E+05  1.613580E+05 -1.111406E+05 -3.512704E+04  2.657125E+04
        89   8  2.029480E+05  6.944372E+05  1.867628E+05 -7.914136E+04 -4.455906E+04  2.151025E+04
        89   9  2.422801E+05  8.620060E+05  2.161698E+05 -1.128788E+05 -5.206977E+04  1.646265E+04
        89  10 -1.576355E+05 -8.042059E+05 -1.279624E+05 -1.098482E+05 -2.612608E-11  8.152398E-10
        89  11 -2.024311E+05 -9.712765E+05 -1.741136E+05 -7.612433E+04  1.146363E-10  3.688031E-10
        89  12 -2.447601E+05 -1.137790E+06 -2.188294E+05 -1.081480E+05  3.472663E-10 -1.999063E-10
        89  13  4.557264E+03 -1.382770E+05  1.670924E+04 -1.104939E+05 -5.597303E-10 -2.702597E-11
        89  14  2.802492E+02 -1.387457E+05  6.342926E+03 -7.763170E+04  7.954617E-10  8.925204E-11
        89  15 -1.208297E+03 -1.383611E+05 -1.302659E+03 -1.105115E+05  1.778213E-10  1.027358E-10
        89  16  1.667207E+05  5.280682E+05  1.613544E+05 -1.111398E+05 -7.543924E-10 -9.420445E-10
        89  17  2.029457E+05  6.944362E+05  1.867583E+05 -7.914059E+04  2.122938E-10 -3.584457E-10
        89  18  2.422771E+05  8.620050E+05  2.161642E+05 -1.128782E+05 -1.188647E-09  3.795651E-10
        89  19 -1.576342E+05 -8.042055E+05 -1.279600E+05 -1.098484E+05  3.506509E+04 -6.551199E+03
        89  20 -2.024290E+05 -9.712760E+05 -1.741099E+05 -7.612451E+04  4.451759E+04 -5.185450E+03
        89  21 -2.447572E+05 -1.137789E+06 -2.188242E+05 -1.081481E+05  5.204621E+04 -3.834730E+03
        89  22  4.558660E+03 -1.382764E+05  1.671207E+04 -1.104943E+05  3.509606E+04 -1.655593E+04
        89  23  2.824268E+02 -1.387450E+05  6.346988E+03 -7.763218E+04  4.453831E+04 -1.334245E+04
        89  24 -1.205359E+03 -1.383602E+05 -1.297374E+03 -1.105119E+05  5.205797E+04 -1.014368E+04
        89  25  1.667222E+05  5.280693E+05  1.613580E+05 -1.111406E+05  3.512704E+04 -2.657125E+04
        89  26  2.029480E+05  6.944372E+05  1.867628E+05 -7.914136E+04  4.455906E+04 -2.151025E+04
        89  27  2.422801E+05  8.620060E+05  2.161698E+05 -1.128788E+05  5.206977E+04 -1.646265E+04
        90   1 -2.740610E+05 -1.272854E+06 -2.500122E+05 -1.039082E+05 -6.077656E+04 -6.915705E+03
        90   2 -3.173512E+05 -1.433125E+06 -3.004321E+05 -8.067883E+04 -5.951463E+04  3.751832E+04
        90   3 -3.918306E+05 -1.606768E+06 -3.875704E+05 -1.213903E+05 -1.922104E+04  8.200432E+04
        90   4  1.789308E+03 -1.401409E+05 -4.585108E+03 -1.100898E+05 -6.081435E+04  1.048225E+04
        90   5 -4.062790E+02 -1.367661E+05 -1.318669E+04 -7.815208E+04 -5.946113E+04  1.753525E+04
        90   6 -2.725861E+04 -1.402700E+05 -3.249732E+04 -1.101511E+05 -1.911161E+04  2.465396E+04
        90   7  2.775550E+05  9.937783E+05  2.407668E+05 -1.162819E+05 -6.085246E+04  2.791157E+04
        90   8  3.164254E+05  1.161165E+06  2.739560E+05 -7.561904E+04 -5.940786E+04 -2.489168E+03
        90   9  3.371580E+05  1.328204E+06  3.224336E+05 -9.888422E+04 -1.900440E+04 -3.283176E+04
        90  10 -2.740650E+05 -1.272855E+06 -2.500192E+05 -1.039085E+05 -8.056716E-10  7.210259E-10
        90  11 -3.173554E+05 -1.433127E+06 -3.004414E+05 -8.067703E+04 -1.752985E-09  3.985704E-10
        90  12 -3.918328E+05 -1.606775E+06 -3.875838E+05 -1.213890E+05  1.783606E-10  1.851447E-10
        90  13  1.785308E+03 -1.401420E+05 -4.592264E+03 -1.100893E+05 -1.511817E-09  1.189717E-10
        90  14 -4.101578E+02 -1.367673E+05 -1.319391E+04 -7.815124E+04 -7.050278E-10  9.014632E-11
        90  15 -2.725916E+04 -1.402708E+05 -3.249915E+04 -1.101508E+05 -4.075121E-11 -2.846661E-11
        90  16  2.775508E+05  9.937765E+05  2.407584E+05 -1.162806E+05 -8.033108E-10 -5.996986E-10
        90  17  3.164216E+05  1.161164E+06  2.739494E+05 -7.561916E+04 -5.656092E-10 -4.264873E-10
        90  18  3.371573E+05  1.328203E+06  3.224309E+05 -9.888472E+04  2.461723E-10 -1.028398E-10
        90  19 -2.740610E+05 -1.272854E+06 -2.500122E+05 -1.039082E+05  6.077656E+04  6.915705E+03
        90  20 -3.173512E+05 -1.433125E+06 -3.004321E+05 -8.067883E+04  5.951463E+04 -3.751832E+04
        90  21 -3.918306E+05 -1.606768E+06 -3.875704E+05 -1.213903E+05  1.922104E+04 -8.200432E+04
        90  22  1.789308E+03 -1.401409E+05 -4.585108E+03 -1.100898E+05  6.081435E+04 -1.048225E+04
        90  23 -4.062790E+02 -1.367661E+05 -1.318669E+04 -7.815208E+04  5.946113E+04 -1.753525E+04
        90  24 -2.725861E+04 -1.402700E+05 -3.249732E+04 -1.101511E+05  1.911161E+04 -2.465396E+04
        90  25  2.775550E+05  9.937783E+05  2.407668E+05 -1.162819E+05  6.085246E+04 -2.791157E+04
        90  26  3.164254E+05  1.161165E+06  2.739560E+05 -7.561904E+04  5.940786E+04  2.489168E+03
        90  27  3.371580E+05  1.328204E+06  3.224336E+05 -9.888422E+04  1.900440E+04  3.283176E+04
        91   1 -3.367062E+06 -1.262348E+06 -7.601740E+05 -1.201726E+06 -2.569731E+05 -6.723879E+04
        91   2 -3.232775E+06 -9.292841E+05 -5.290462E+05 -1.154173E+06 -1.683737E+05  3.101438E+04
        91   3 -3.149465E+06 -8.465805E+05 -4.370169E+05 -1.101457E+06 -5.991298E+04  7.695525E+04
        91   4 -1.610554E+06 -4.995301E+05 -2.718136E+05 -6.204571E+05 -1.832497E+05 -3.937796E+04
        91   5 -1.574706E+06 -2.745859E+05 -1.184024E+05 -6.624741E+05 -1.412764E+05  4.122592E+04
        91   6 -1.580333E+06 -2.903958E+05 -6.674902E+04 -6.993961E+05 -7.949516E+04  6.954980E+04
        91   7  1.489763E+05  2.637637E+05  2.162785E+05 -3.759818E+04 -1.092962E+05 -1.140077E+04
        91   8  8.609773E+04  3.803914E+05  2.920308E+05 -1.695428E+05 -1.140995E+05  5.147129E+04
        91   9 -8.744841E+03  2.659082E+05  3.033488E+05 -2.964297E+05 -9.913148E+04  6.212632E+04
        91  10 -3.367134E+06 -1.262371E+06 -7.603074E+05 -1.201740E+06 -1.559817E-09  3.468689E-11
        91  11 -3.232806E+06 -9.292928E+05 -5.291015E+05 -1.154169E+06 -6.685081E-10  1.736676E-10
        91  12 -3.149470E+06 -8.465878E+05 -4.370348E+05 -1.101453E+06  2.373078E-09  8.672716E-10
        91  13 -1.610591E+06 -4.995409E+05 -2.718798E+05 -6.204629E+05 -1.075556E-09 -6.856829E-11
        91  14 -1.574727E+06 -2.745931E+05 -1.184432E+05 -6.624694E+05 -3.400870E-09 -6.434272E-12
        91  15 -1.580341E+06 -2.904027E+05 -6.676999E+04 -6.993917E+05  2.302203E-09  6.704908E-10
        91  16  1.489634E+05  2.637604E+05  2.162558E+05 -3.759918E+04 -9.111453E-10 -1.385008E-10
        91  17  8.608305E+04  3.803851E+05  2.920013E+05 -1.695381E+05  1.173139E-09  3.871593E-11
        91  18 -8.756422E+03  2.659014E+05  3.033231E+05 -2.964247E+05  3.082998E-09  7.365480E-10
        91  19 -3.367062E+06 -1.262348E+06 -7.601740E+05 -1.201726E+06  2.569731E+05  6.723879E+04
        91  20 -3.232775E+06 -9.292841E+05 -5.290462E+05 -1.154173E+06  1.683737E+05 -3.101438E+04
        91  21 -3.149465E+06 -8.465805E+05 -4.370169E+05 -1.101457E+06  5.991298E+04 -7.695525E+04
        91  22 -1.610554E+06 -4.995301E+05 -2.718136E+05 -6.204571E+05  1.832497E+05  3.937796E+04
        91  23 -1.574706E+06 -2.745859E+05 -1.184024E+05 -6.624741E+05  1.412764E+05 -4.122592E+04
        91  24 -1.580333E+06 -2.903958E+05 -6.674902E+04 -6.993961E+05  7.949516E+04 -6.954980E+04
        91  25  1.489763E+05  2.637637E+05  2.162785E+05 -3.759818E+04  1.092962E+05  1.140077E+04
        91  26  8.609773E+04  3.803914E+05  2.920308E+05 -1.695428E+05  1.140995E+05 -5.147129E+04
        91  27 -8.744841E+03  2.659082E+05  3.033488E+05 -2.964297E+05  9.913148E+04 -6.212632E+04
        92   1 -2.998113E+06 -8.472384E+05 -3.969033E+05 -1.085001E+06 -6.316648E+04  6.453326E+04
        92   2 -2.875198E+06 -7.567511E+05 -3.354624E+05 -1.021092E+06 -4.499771E+04  6.469692E+04
        92   3 -2.714157E+06 -7.224955E+05 -2.890545E+05 -1.004691E+06 -2.592892E+04  6.243909E+04
        92   4 -1.571230E+06 -3.104496E+05 -5.279029E+04 -6.879526E+05 -6.738107E+04  6.292806E+04
        92   5 -1.589575E+06 -2.764707E+05 -2.727535E+04 -6.664588E+05 -5.134632E+04  6.229389E+04
        92   6 -1.569375E+06 -2.982768E+05 -1.507059E+04 -6.924764E+05 -3.441640E+04  5.923916E+04
        92   7 -1.423287E+05  2.264907E+05  2.911709E+05 -2.900679E+05 -7.160618E+04  6.131886E+04
        92   8 -3.023051E+05  2.039300E+05  2.807915E+05 -3.111527E+05 -5.770928E+04  5.988545E+04
        92   9 -4.232837E+05  1.260339E+05  2.588202E+05 -3.797353E+05 -4.292103E+04  5.603288E+04
        92  10 -2.998118E+06 -8.472439E+05 -3.969186E+05 -1.084998E+06  3.831405E-09  1.382491E-09
        92  11 -2.875202E+06 -7.567561E+05 -3.354740E+05 -1.021090E+06  1.259720E-09  4.530767E-10
        92  12 -2.714158E+06 -7.224999E+05 -2.890631E+05 -1.004689E+06  1.286633E-09 -4.798989E-12
        92  13 -1.571236E+06 -3.104550E+05 -5.280626E+04 -6.879492E+05  1.017442E-09  5.743789E-10
        92  14 -1.589579E+06 -2.764756E+05 -2.728759E+04 -6.664562E+05  1.682064E-09  9.437843E-11
        92  15 -1.569377E+06 -2.982809E+05 -1.507940E+04 -6.924748E+05 -1.450190E-10  2.841318E-10
        92  16 -1.423352E+05  2.264853E+05  2.911542E+05 -2.900643E+05  2.383859E-09  2.469809E-10
        92  17 -3.023097E+05  2.039252E+05  2.807785E+05 -3.111500E+05 -1.383725E-09  8.248901E-11
        92  18 -4.232866E+05  1.260300E+05  2.588108E+05 -3.797334E+05 -1.140123E-09  1.040203E-09
        92  19 -2.998113E+06 -8.472384E+05 -3.969033E+05 -1.085001E+06  6.316648E+04 -6.453326E+04
        92  20 -2.875198E+06 -7.567511E+05 -3.354624E+05 -1.021092E+06  4.499771E+04 -6.469692E+04
        92  21 -2.714157E+06 -7.224955E+05 -2.890545E+05 -1.004691E+06  2.592892E+04 -6.243909E+04
        92  22 -1.571230E+06 -3.104496E+05 -5.279029E+04 -6.879526E+05  6.738107E+04 -6.292806E+04
        92  23 -1.589575E+06 -2.764707E+05 -2.727535E+04 -6.664588E+05  5.134632E+04 -6.229389E+04
        92  24 -1.569375E+06 -2.982768E+05 -1.507059E+04 -6.924764E+05  3.441640E+04 -5.923916E+04
        92  25 -1.423287E+05  2.264907E+05  2.911709E+05 -2.900679E+05  7.160618E+04 -6.131886E+04
        92  26 -3.023051E+05  2.039300E+05  2.807915E+05 -3.111527E+05  5.770928E+04 -5.988545E+04
        92  27 -4.232837E+05  1.260339E+05  2.588202E+05 -3.797353E+05  4.292103E+04 -5.603288E+04
        93   1 -2.591788E+06 -6.802180E+05 -2.558289E+05 -9.728152E+05 -2.241062E+04  5.759837E+04
        93   2 -2.467252E+06 -6.021188E+05 -2.158799E+05 -9.066999E+05 -1.580370E+04  4.998921E+04
        93   3 -2.298037E+06 -5.697392E+05 -1.784837E+05 -8.919819E+05 -9.147496E+03  4.221661E+04
        93   4 -1.568446E+06 -2.995483E+05 -1.147632E+04 -6.919904E+05 -3.026618E+04  5.463994E+04
        93   5 -1.590685E+06 -2.762658E+05 -6.288736E+03 -6.664367E+05 -2.379953E+04  4.698336E+04
        93   6 -1.568239E+06 -2.986705E+05 -3.539213E+03 -6.922831E+05 -1.728451E+04  3.916323E+04
        93   7 -5.440609E+05  8.119580E+04  2.328009E+05 -4.107423E+05 -3.813589E+04  5.167621E+04
        93   8 -7.133544E+05  4.964048E+04  2.032463E+05 -4.258640E+05 -3.180767E+04  4.397290E+04
        93   9 -8.379154E+05 -2.756610E+04  1.713657E+05 -4.923709E+05 -2.543193E+04  3.610596E+04
        93  10 -2.591789E+06 -6.802217E+05 -2.558361E+05 -9.728142E+05  1.967376E-09  1.767103E-10
        93  11 -2.467253E+06 -6.021216E+05 -2.158850E+05 -9.066993E+05 -4.121303E-09 -1.399322E-09
        93  12 -2.298037E+06 -5.697411E+05 -1.784872E+05 -8.919816E+05 -1.849019E-09 -1.177913E-09
        93  13 -1.568447E+06 -2.995518E+05 -1.148364E+04 -6.919891E+05 -2.002278E-09 -5.711212E-10
        93  14 -1.590686E+06 -2.762684E+05 -6.293944E+03 -6.664358E+05 -2.710899E-10 -1.591203E-09
        93  15 -1.568240E+06 -2.986722E+05 -3.542653E+03 -6.922825E+05 -1.252495E-09 -1.217245E-09
        93  16 -5.440632E+05  8.119255E+04  2.327931E+05 -4.107408E+05 -3.159927E-09 -4.844435E-10
        93  17 -7.133560E+05  4.963813E+04  2.032408E+05 -4.258629E+05 -2.652817E-09 -1.537635E-09
        93  18 -8.379164E+05 -2.756767E+04  1.713621E+05 -4.923702E+05  1.395701E-10 -1.058074E-09
        93  19 -2.591788E+06 -6.802180E+05 -2.558289E+05 -9.728152E+05  2.241062E+04 -5.759837E+04
        93  20 -2.467252E+06 -6.021188E+05 -2.158799E+05 -9.066999E+05  1.580370E+04 -4.998921E+04
        93  21 -2.298037E+06 -5.697392E+05 -1.784837E+05 -8.919819E+05  9.147496E+03 -4.221661E+04
        93  22 -1.568446E+06 -2.995483E+05 -1.147632E+04 -6.919904E+05  3.026618E+04 -5.463994E+04
        93  23 -1.590685E+06 -2.762658E+05 -6.288736E+03 -6.664367E+05  2.379953E+04 -4.698336E+04
        93  24 -1.568239E+06 -2.986705E+05 -3.539213E+03 -6.922831E+05  1.728451E+04 -3.916323E+04
        93  25 -5.440609E+05  8.119580E+04  2.328009E+05 -4.107423E+05  3.813589E+04 -5.167621E+04
        93  26 -7.133544E+05  4.964048E+04  2.032463E+05 -4.258640E+05  3.180767E+04 -4.397290E+04
        93  27 -8.379154E+05 -2.756610E+04  1.713657E+05 -4.923709E+05  2.543193E+04 -3.610596E+04
        94   1 -2.175427E+06 -5.243210E+05 -1.474159E+05 -8.587206E+05 -6.640132E+03  3.712045E+04
        94   2 -2.049111E+06 -4.461132E+05 -1.113032E+05 -7.917171E+05 -2.310227E+03  2.836169E+04
        94   3 -1.877235E+06 -4.135400E+05 -7.586645E+04 -7.770185E+05  2.026337E+03  1.956749E+04
        94   4 -1.568039E+06 -2.988445E+05 -2.761905E+03 -6.923993E+05 -1.478325E+04  3.406735E+04
        94   5 -1.590773E+06 -2.759450E+05 -1.781522E+03 -6.662657E+05 -1.048427E+04  2.529975E+04
        94   6 -1.567970E+06 -2.986743E+05 -1.453274E+03 -6.924434E+05 -6.178951E+03  1.649680E+04
        94   7 -9.602781E+05 -7.333990E+04  1.418672E+05 -5.259278E+05 -2.293512E+04  3.101097E+04
        94   8 -1.132227E+06 -1.057626E+05  1.077248E+05 -5.407301E+05 -1.866488E+04  2.223537E+04
        94   9 -1.258614E+06 -1.838037E+05  7.295191E+04 -6.078311E+05 -1.438858E+04  1.342448E+04
        94  10 -2.175427E+06 -5.243225E+05 -1.474185E+05 -8.587204E+05 -1.343598E-10 -2.393003E-10
        94  11 -2.049112E+06 -4.461141E+05 -1.113047E+05 -7.917171E+05 -1.814929E-10  5.538783E-10
        94  12 -1.877235E+06 -4.135404E+05 -7.586718E+04 -7.770185E+05 -1.565546E-09  5.874668E-10
        94  13 -1.568039E+06 -2.988458E+05 -2.764494E+03 -6.923989E+05  6.212745E-10 -4.478917E-10
        94  14 -1.590773E+06 -2.759457E+05 -1.782930E+03 -6.662655E+05  1.948329E-09  2.832255E-10
        94  15 -1.567970E+06 -2.986746E+05 -1.453857E+03 -6.924433E+05  5.336159E-10  1.023887E-09
        94  16 -9.602789E+05 -7.334107E+04  1.418645E+05 -5.259273E+05  2.907820E-10 -4.636499E-10
        94  17 -1.132227E+06 -1.057632E+05  1.077232E+05 -5.407297E+05  1.484178E-09  6.936373E-11
        94  18 -1.258615E+06 -1.838039E+05  7.295118E+04 -6.078309E+05  3.374525E-10  1.074010E-09
        94  19 -2.175427E+06 -5.243210E+05 -1.474159E+05 -8.587206E+05  6.640132E+03 -3.712045E+04
        94  20 -2.049111E+06 -4.461132E+05 -1.113032E+05 -7.917171E+05  2.310227E+03 -2.836169E+04
        94  21 -1.877235E+06 -4.135400E+05 -7.586645E+04 -7.770185E+05 -2.026337E+03 -1.956749E+04
        94  22 -1.568039E+06 -2.988445E+05 -2.761905E+03 -6.923993E+05  1.478325E+04 -3.406735E+04
        94  23 -1.590773E+06 -2.759450E+05 -1.781522E+03 -6.662657E+05  1.048427E+04 -2.529975E+04
        94  24 -1.567970E+06 -2.986743E+05 -1.453274E+03 -6.924434E+05  6.178951E+03 -1.649680E+04
        94  25 -9.602781E+05 -7.333990E+04  1.418672E+05 -5.259278E+05  2.293512E+04 -3.101097E+04
        94  26 -1.132227E+06 -1.057626E+05  1.077248E+05 -5.407301E+05  1.866488E+04 -2.223537E+04
        94  27 -1.258614E+06 -1.838037E+05  7.295191E+04 -6.078311E+05  1.438858E+04 -1.342448E+04
        95   1 -1.753607E+06 -3.675600E+05 -4.534114E+04 -7.433681E+05  4.279833E+03  1.433136E+04
        95   2 -1.626488E+06 -2.891111E+05 -1.055136E+04 -6.760332E+05  8.708483E+03  5.539532E+03
        95   3 -1.453720E+06 -2.565279E+05  2.347330E+04 -6.613109E+05  1.313647E+04 -3.250838E+03
        95   4 -1.567937E+06 -2.987218E+05 -1.502499E+03 -6.925090E+05 -3.939707E+03  1.125630E+04
        95   5 -1.590749E+06 -2.757921E+05 -2.005336E+03 -6.661957E+05  4.893366E+02  2.464745E+03
        95   6 -1.567933E+06 -2.987298E+05 -3.272518E+03 -6.925041E+05  4.917439E+03 -6.325381E+03
        95   7 -1.382230E+06 -2.298807E+05  4.233433E+04 -6.416356E+05 -1.216198E+04  8.180221E+03
        95   8 -1.555008E+06 -2.624728E+05  6.541005E+03 -6.563574E+05 -7.730422E+03 -6.102726E+02
        95   9 -1.682135E+06 -3.409314E+05 -3.001949E+04 -7.236924E+05 -3.300085E+03 -9.399364E+03
        95  10 -1.753607E+06 -3.675602E+05 -4.534156E+04 -7.433682E+05  1.223094E-10  1.112623E-09
        95  11 -1.626488E+06 -2.891112E+05 -1.055156E+04 -6.760333E+05  2.599101E-10 -1.172753E-10
        95  12 -1.453721E+06 -2.565279E+05  2.347295E+04 -6.613109E+05  1.550185E-09 -2.720857E-11
        95  13 -1.567937E+06 -2.987220E+05 -1.502766E+03 -6.925090E+05 -2.630027E-10  7.607718E-10
        95  14 -1.590749E+06 -2.757921E+05 -2.005348E+03 -6.661957E+05  3.190411E-10 -3.329263E-10
        95  15 -1.567933E+06 -2.987298E+05 -3.272639E+03 -6.925040E+05  1.290754E-09  3.653010E-10
        95  16 -1.382231E+06 -2.298808E+05  4.233393E+04 -6.416355E+05 -1.493533E-09  2.331095E-10
        95  17 -1.555008E+06 -2.624728E+05  6.540892E+03 -6.563574E+05 -1.657143E-11 -1.073964E-10
        95  18 -1.682135E+06 -3.409315E+05 -3.001967E+04 -7.236924E+05  3.937179E-09  5.755422E-10
        95  19 -1.753607E+06 -3.675600E+05 -4.534114E+04 -7.433681E+05 -4.279833E+03 -1.433136E+04
        95  20 -1.626488E+06 -2.891111E+05 -1.055136E+04 -6.760332E+05 -8.708483E+03 -5.539532E+03
        95  21 -1.453720E+06 -2.565279E+05  2.347330E+04 -6.613109E+05 -1.313647E+04  3.250838E+03
        95  22 -1.567937E+06 -2.987218E+05 -1.502499E+03 -6.925090E+05  3.939707E+03 -1.125630E+04
        95  23 -1.590749E+06 -2.757921E+05 -2.005336E+03 -6.661957E+05 -4.893366E+02 -2.464745E+03
        95  24 -1.567933E+06 -2.987298E+05 -3.272518E+03 -6.925041E+05 -4.917439E+03  6.325381E+03
        95  25 -1.382230E+06 -2.298807E+05  4.233433E+04 -6.416356E+05  1.216198E+04 -8.180221E+03
        95  26 -1.555008E+06 -2.624728E+05  6.541005E+03 -6.563574E+05  7.730422E+03  6.102726E+02
        95  27 -1.682135E+06 -3.409314E+05 -3.001949E+04 -7.236924E+05  3.300085E+03  9.399364E+03
        96   1 -1.330080E+06 -2.104943E+05  5.306349E+04 -6.277021E+05  1.576950E+04 -8.354091E+03
        96   2 -1.203256E+06 -1.322079E+05  8.490650E+04 -5.603604E+05  2.288550E+04 -1.609348E+04
        96   3 -1.031519E+06 -1.004445E+05  1.137781E+05 -5.453332E+05  2.996912E+04 -2.372888E+04
        96   4 -1.568079E+06 -2.986442E+05 -4.258282E+03 -6.925315E+05  7.535659E+03 -1.143486E+04
        96   5 -1.590596E+06 -2.757958E+05 -7.580008E+03 -6.662197E+05  1.474050E+04 -1.914338E+04
        96   6 -1.568238E+06 -2.994909E+05 -1.394368E+04 -6.922323E+05  2.191200E+04 -2.674816E+04
        96   7 -1.806019E+06 -3.867888E+05 -6.158292E+04 -7.573372E+05 -6.946180E+02 -1.451429E+04
        96   8 -1.977783E+06 -4.193719E+05 -1.000761E+05 -7.720178E+05  6.601109E+03 -2.219118E+04
        96   9 -2.104669E+06 -4.985165E+05 -1.416856E+05 -8.390152E+05  1.386248E+04 -2.976461E+04
        96  10 -1.330081E+06 -2.104945E+05  5.306289E+04 -6.277020E+05  1.398770E-09  4.889651E-10
        96  11 -1.203257E+06 -1.322083E+05  8.490503E+04 -5.603602E+05 -4.859193E-10  5.174577E-10
        96  12 -1.031521E+06 -1.004454E+05  1.137754E+05 -5.453326E+05 -1.780792E-09 -3.267763E-10
        96  13 -1.568080E+06 -2.986444E+05 -4.258634E+03 -6.925314E+05  2.412990E-09  8.617113E-10
        96  14 -1.590596E+06 -2.757962E+05 -7.581105E+03 -6.662195E+05  2.336082E-10  9.137550E-10
        96  15 -1.568239E+06 -2.994918E+05 -1.394593E+04 -6.922318E+05 -5.734452E-10 -3.436405E-10
        96  16 -1.806019E+06 -3.867891E+05 -6.158332E+04 -7.573372E+05  1.976412E-09  9.137985E-10
        96  17 -1.977784E+06 -4.193724E+05 -1.000772E+05 -7.720177E+05 -1.200873E-09  7.501195E-10
        96  18 -2.104670E+06 -4.985175E+05 -1.416876E+05 -8.390149E+05  3.917293E-10 -5.740396E-11
        96  19 -1.330080E+06 -2.104943E+05  5.306349E+04 -6.277021E+05 -1.576950E+04  8.354091E+03
        96  20 -1.203256E+06 -1.322079E+05  8.490650E+04 -5.603604E+05 -2.288550E+04  1.609348E+04
        96  21 -1.031519E+06 -1.004445E+05  1.137781E+05 -5.453332E+05 -2.996912E+04  2.372888E+04
        96  22 -1.568079E+06 -2.986442E+05 -4.258282E+03 -6.925315E+05 -7.535659E+03  1.143486E+04
        96  23 -1.590596E+06 -2.757958E+05 -7.580008E+03 -6.662197E+05 -1.474050E+04  1.914338E+04
        96  24 -1.568238E+06 -2.994909E+05 -1.394368E+04 -6.922323E+05 -2.191200E+04  2.674816E+04
        96  25 -1.806019E+06 -3.867888E+05 -6.158292E+04 -7.573372E+05  6.946180E+02  1.451429E+04
        96  26 -1.977783E+06 -4.193719E+05 -1.000761E+05 -7.720178E+05 -6.601109E+03  2.219118E+04
        96  27 -2.104669E+06 -4.985165E+05 -1.416856E+05 -8.390152E+05 -1.386248E+04  2.976461E+04
        97   1 -9.079914E+05 -5.501527E+04  1.396353E+05 -5.145023E+05  3.508475E+04 -2.802791E+04
        97   2 -7.833026E+05  2.507068E+04  1.598330E+05 -4.437562E+05  5.350019E+04 -3.094017E+04
        97   3 -6.204824E+05  4.596088E+04  1.649792E+05 -4.215049E+05  7.124912E+04 -3.203537E+04
        97   4 -1.569243E+06 -2.980843E+05 -1.833983E+04 -6.930088E+05  2.653588E+04 -3.123359E+04
        97   5 -1.589210E+06 -2.756202E+05 -3.311593E+04 -6.660364E+05  4.655734E+04 -3.354898E+04
        97   6 -1.571397E+06 -3.126927E+05 -6.423503E+04 -6.875740E+05  6.590796E+04 -3.404768E+04
        97   7 -2.230064E+06 -5.411264E+05 -1.763472E+05 -8.713437E+05  1.799689E+04 -3.443566E+04
        97   8 -2.394474E+06 -5.762647E+05 -2.261125E+05 -8.880535E+05  3.962427E+04 -3.615409E+04
        97   9 -2.521413E+06 -6.712760E+05 -2.935158E+05 -9.532690E+05  6.057567E+04 -3.605656E+04
        97  10 -9.079929E+05 -5.501645E+04  1.396315E+05 -5.145015E+05 -9.171938E-09 -4.214936E-09
        97  11 -7.833059E+05  2.506889E+04  1.598259E+05 -4.437549E+05  4.492836E-09  3.014602E-10
        97  12 -6.204881E+05  4.595842E+04  1.649678E+05 -4.215031E+05  1.188102E-08  3.684627E-09
        97  13 -1.569244E+06 -2.980856E+05 -1.834298E+04 -6.930081E+05  2.794949E-09 -4.606719E-10
        97  14 -1.589212E+06 -2.756219E+05 -3.312212E+04 -6.660352E+05  4.582316E-09  3.676102E-10
        97  15 -1.571402E+06 -3.126951E+05 -6.424537E+04 -6.875722E+05  1.925509E-09  2.334830E-10
        97  16 -2.230065E+06 -5.411278E+05 -1.763500E+05 -8.713432E+05  1.387327E-08  3.426887E-09
        97  17 -2.394476E+06 -5.762665E+05 -2.261179E+05 -8.880523E+05  6.534557E-09  2.708869E-10
        97  18 -2.521418E+06 -6.712784E+05 -2.935251E+05 -9.532672E+05 -7.162100E-09 -3.026019E-09
        97  19 -9.079914E+05 -5.501527E+04  1.396353E+05 -5.145023E+05 -3.508475E+04  2.802791E+04
        97  20 -7.833026E+05  2.507068E+04  1.598330E+05 -4.437562E+05 -5.350019E+04  3.094017E+04
        97  21 -6.204824E+05  4.596088E+04  1.649792E+05 -4.215049E+05 -7.124912E+04  3.203537E+04
        97  22 -1.569243E+06 -2.980843E+05 -1.833983E+04 -6.930088E+05 -2.653588E+04  3.123359E+04
        97  23 -1.589210E+06 -2.756202E+05 -3.311593E+04 -6.660364E+05 -4.655734E+04  3.354898E+04
        97  24 -1.571397E+06 -3.126927E+05 -6.423503E+04 -6.875740E+05 -6.590796E+04  3.404768E+04
        97  25 -2.230064E+06 -5.411264E+05 -1.763472E+05 -8.713437E+05 -1.799689E+04  3.443566E+04
        97  26 -2.394474E+06 -5.762647E+05 -2.261125E+05 -8.880535E+05 -3.962427E+04  3.615409E+04
        97  27 -2.521413E+06 -6.712760E+05 -2.935158E+05 -9.532690E+05 -6.057567E+04  3.605656E+04
        98   1 -4.798588E+05  8.536493E+04  1.757020E+05 -4.363115E+05  9.645772E+04 -3.260642E+04
        98   2 -3.832206E+05  2.112194E+05  1.526728E+05 -2.923301E+05  1.379400E+05 -1.596275E+04
        98   3 -3.376581E+05  5.772028E+04  3.374228E+04 -1.348749E+05  1.645680E+05  4.016765E+04
        98   4 -1.582214E+06 -2.885418E+05 -8.123856E+04 -7.018683E+05  7.946690E+04 -3.899131E+04
        98   5 -1.571268E+06 -2.726663E+05 -1.439654E+05 -6.607316E+05  1.562880E+05 -9.082875E+03
        98   6 -1.618625E+06 -5.434883E+05 -3.307940E+05 -6.060960E+05  2.182284E+05  6.033327E+04
        98   7 -2.683358E+06 -6.624094E+05 -3.382592E+05 -9.670155E+05  6.250900E+04 -4.536633E+04
        98   8 -2.757909E+06 -7.563764E+05 -4.407124E+05 -1.028463E+06  1.745975E+05 -2.220554E+03
        98   9 -2.897959E+06 -1.144316E+06 -6.954741E+05 -1.076347E+06  2.717672E+05  8.042731E+04
        98  10 -4.798690E+05  8.536129E+04  1.756826E+05 -4.363089E+05  1.247228E-09  1.513342E-10
        98  11 -3.832411E+05  2.112140E+05  1.526365E+05 -2.923283E+05 -4.609968E-10  9.150268E-10
        98  12 -3.376876E+05  5.771127E+04  3.368832E+04 -1.348802E+05 -6.036398E-11  4.090966E-10
        98  13 -1.582221E+06 -2.885452E+05 -8.125329E+04 -7.018658E+05  4.632411E-10  2.899450E-10
        98  14 -1.571294E+06 -2.726730E+05 -1.440116E+05 -6.607305E+05  5.973501E-11  1.405579E-09
        98  15 -1.618677E+06 -5.435050E+05 -3.308906E+05 -6.061066E+05  8.029823E-10  2.040850E-10
        98  16 -2.683362E+06 -6.624127E+05 -3.382705E+05 -9.670132E+05 -1.317030E-09  3.805853E-10
        98  17 -2.757942E+06 -7.563846E+05 -4.407699E+05 -1.028462E+06 -1.358760E-10  4.532906E-10
        98  18 -2.898041E+06 -1.144343E+06 -6.956258E+05 -1.076365E+06  3.210414E-10  1.425982E-10
        98  19 -4.798588E+05  8.536493E+04  1.757020E+05 -4.363115E+05 -9.645772E+04  3.260642E+04
        98  20 -3.832206E+05  2.112194E+05  1.526728E+05 -2.923301E+05 -1.379400E+05  1.596275E+04
        98  21 -3.376581E+05  5.772028E+04  3.374228E+04 -1.348749E+05 -1.645680E+05 -4.016765E+04
        98  22 -1.582214E+06 -2.885418E+05 -8.123856E+04 -7.018683E+05 -7.946690E+04  3.899131E+04
        98  23 -1.571268E+06 -2.726663E+05 -1.439654E+05 -6.607316E+05 -1.562880E+05  9.082875E+03
        98  24 -1.618625E+06 -5.434883E+05 -3.307940E+05 -6.060960E+05 -2.182284E+05 -6.033327E+04
        98  25 -2.683358E+06 -6.624094E+05 -3.382592E+05 -9.670155E+05 -6.250900E+04  4.536633E+04
        98  26 -2.757909E+06 -7.563764E+05 -4.407124E+05 -1.028463E+06 -1.745975E+05  2.220554E+03
        98  27 -2.897959E+06 -1.144316E+06 -6.954741E+05 -1.076347E+06 -2.717672E+05 -8.042731E+04
        99   1 -1.192628E+06 -1.974129E+05 -1.681009E+05 -1.569634E+04  3.924851E+04  1.647446E+04
        99   2 -1.102712E+06 -2.737946E+05 -1.898561E+05 -3.004644E+04  3.895084E+04  5.201888E+04
        99   3 -9.884309E+05 -2.550206E+05 -1.875434E+05 -8.313214E+04  3.870119E+04  5.527079E+04
        99   4  3.728404E+04  1.080239E+05  1.292880E+05 -6.741948E+04  8.892116E+04  1.653915E+04
        99   5  2.247168E+04  1.138218E+03  5.912332E+04 -4.799050E+04  5.762266E+04  5.203086E+04
        99   6  3.735098E+04 -5.304020E+03  3.452271E+04 -6.729047E+04  2.637442E+04  5.525635E+04
        99   7  1.268592E+06  4.133615E+05  4.265791E+05 -1.192460E+05  1.386919E+05  1.659549E+04
        99   8  1.148841E+06  2.759871E+05  3.080260E+05 -6.596778E+04  7.632790E+04  5.204174E+04
        99   9  1.064122E+06  2.443440E+05  2.565271E+05 -5.142236E+04  1.402751E+04  5.524129E+04
        99  10 -1.192630E+06 -1.974136E+05 -1.681043E+05 -1.569686E+04 -3.006088E-10  7.899271E-11
        99  11 -1.102714E+06 -2.737979E+05 -1.898640E+05 -3.004807E+04  1.606949E-09 -3.999560E-10
        99  12 -9.884333E+05 -2.550243E+05 -1.875519E+05 -8.313386E+04 -1.047622E-09  4.044634E-10
        99  13  3.727547E+04  1.080215E+05  1.292726E+05 -6.742066E+04 -6.593426E-13 -4.848002E-10
        99  14  2.246739E+04  1.134419E+03  5.911200E+04 -4.799292E+04 -1.006410E-09 -5.325604E-12
        99  15  3.734941E+04 -5.307486E+03  3.451567E+04 -6.729164E+04 -6.128631E-10  4.199084E-10
        99  16  1.268571E+06  4.133560E+05  4.265425E+05 -1.192478E+05 -1.482392E-10  5.164667E-10
        99  17  1.148834E+06  2.759827E+05  3.080100E+05 -6.597097E+04 -1.476036E-09 -8.938005E-11
        99  18  1.064121E+06  2.443407E+05  2.565210E+05 -5.142298E+04  7.281581E-10  4.751489E-10
        99  19 -1.192628E+06 -1.974129E+05 -1.681009E+05 -1.569634E+04 -3.924851E+04 -1.647446E+04
        99  20 -1.102712E+06 -2.737946E+05 -1.898561E+05 -3.004644E+04 -3.895084E+04 -5.201888E+04
        99  21 -9.884309E+05 -2.550206E+05 -1.875434E+05 -8.313214E+04 -3.870119E+04 -5.527079E+04
        99  22  3.728404E+04  1.080239E+05  1.292880E+05 -6.741948E+04 -8.892116E+04 -1.653915E+04
        99  23  2.247168E+04  1.138218E+03  5.912332E+04 -4.799050E+04 -5.762266E+04 -5.203086E+04
        99  24  3.735098E+04 -5.304020E+03  3.452271E+04 -6.729047E+04 -2.637442E+04 -5.525635E+04
        99  25  1.268592E+06  4.133615E+05  4.265791E+05 -1.192460E+05 -1.386919E+05 -1.659549E+04
        99  26  1.148841E+06  2.759871E+05  3.080260E+05 -6.596778E+04 -7.632790E+04 -5.204174E+04
        99  27  1.064122E+06  2.443440E+05  2.565271E+05 -5.142236E+04 -1.402751E+04 -5.524129E+04
       100   1 -9.129064E+05 -2.247547E+05 -1.780800E+05 -6.611819E+04  2.470418E+04  4.923573E+04
       100   2 -8.123803E+05 -2.053585E+05 -1.676619E+05 -4.736800E+04  1.868647E+04  4.516046E+04
       100   3 -7.094938E+05 -1.807596E+05 -1.519590E+05 -6.869384E+04  1.266290E+04  3.962235E+04
       100   4  3.136351E+04  5.283852E+03  2.734581E+04 -6.762194E+04  2.152281E+04  4.922848E+04
       100   5  3.009369E+04 -2.842901E+02  1.483266E+04 -4.758490E+04  1.409192E+04  4.515468E+04
       100   6  3.141453E+04 -4.087711E+02  8.579440E+03 -6.762034E+04  6.656123E+03  3.961897E+04
       100   7  9.764701E+05  2.352632E+05  2.327182E+05 -6.912806E+04  1.833664E+04  4.922125E+04
       100   8  8.732344E+05  2.047430E+05  1.972851E+05 -4.780212E+04  9.491207E+03  4.514890E+04
       100   9  7.728384E+05  1.799058E+05  1.690854E+05 -6.654551E+04  6.422643E+02  3.961558E+04
       100  10 -9.129077E+05 -2.247574E+05 -1.780857E+05 -6.611917E+04  2.939782E-10  3.661868E-10
       100  11 -8.123812E+05 -2.053607E+05 -1.676664E+05 -4.736868E+04  1.439784E-09 -3.243864E-10
       100  12 -7.094944E+05 -1.807613E+05 -1.519622E+05 -6.869425E+04  5.457719E-10 -3.367805E-10
       100  13  3.136236E+04  5.281125E+03  2.734038E+04 -6.762279E+04 -5.180969E-12  1.677272E-10
       100  14  3.009293E+04 -2.865330E+02  1.482845E+04 -4.758541E+04 -5.017689E-10  2.059082E-10
       100  15  3.141406E+04 -4.104686E+02  8.576407E+03 -6.762055E+04 -1.463527E-09 -3.814068E-10
       100  16  9.764691E+05  2.352605E+05  2.327130E+05 -6.912879E+04 -2.716615E-09  6.010988E-10
       100  17  8.732337E+05  2.047407E+05  1.972811E+05 -4.780246E+04 -2.852724E-09 -2.216655E-10
       100  18  7.728380E+05  1.799041E+05  1.690824E+05 -6.654553E+04 -5.769058E-10 -3.423109E-10
       100  19 -9.129064E+05 -2.247547E+05 -1.780800E+05 -6.611819E+04 -2.470418E+04 -4.923573E+04
       100  20 -8.123803E+05 -2.053585E+05 -1.676619E+05 -4.736800E+04 -1.868647E+04 -4.516046E+04
       100  21 -7.094938E+05 -1.807596E+05 -1.519590E+05 -6.869384E+04 -1.266290E+04 -3.962235E+04
       100  22  3.136351E+04  5.283852E+03  2.734581E+04 -6.762194E+04 -2.152281E+04 -4.922848E+04
       100  23  3.009369E+04 -2.842901E+02  1.483266E+04 -4.758490E+04 -1.409192E+04 -4.515468E+04
       100  24  3.141453E+04 -4.087711E+02  8.579440E+03 -6.762034E+04 -6.656123E+03 -3.961897E+04
       100  25  9.764701E+05  2.352632E+05  2.327182E+05 -6.912806E+04 -1.833664E+04 -4.922125E+04
       100  26  8.732344E+05  2.047430E+05  1.972851E+05 -4.780212E+04 -9.491207E+03 -4.514890E+04
       100  27  7.728384E+05  1.799058E+05  1.690854E+05 -6.654551E+04 -6.422643E+02 -3.961558E+04
       101   1 -6.291810E+05 -1.604429E+05 -1.360001E+05 -6.771413E+04  1.091400E+04  3.604129E+04
       101   2 -5.276981E+05 -1.359791E+05 -1.170622E+05 -4.758780E+04  9.129743E+03  3.017495E+04
       101   3 -4.258140E+05 -1.111962E+05 -9.686351E+04 -6.758141E+04  7.341154E+03  2.424284E+04
       101   4  3.095335E+04  1.454856E+02  6.566059E+03 -6.763084E+04  5.321661E+03  3.603927E+04
       101   5  3.076917E+04 -9.222831E+01  3.735457E+03 -4.757202E+04  3.472107E+03  3.017468E+04
       101   6  3.098723E+04  8.638402E-01  2.210038E+03 -6.763096E+04  1.618508E+03  2.424440E+04
       101   7  6.914972E+05  1.607051E+05  1.491066E+05 -6.754743E+04 -2.765506E+02  3.603724E+04
       101   8  5.895294E+05  1.357741E+05  1.245147E+05 -4.755619E+04 -2.190553E+03  3.017442E+04
       101   9  4.879843E+05  1.111841E+05  1.012713E+05 -6.768051E+04 -4.108296E+03  2.424596E+04
       101  10 -6.291814E+05 -1.604443E+05 -1.360028E+05 -6.771445E+04 -1.315466E-09 -1.068173E-10
       101  11 -5.276984E+05 -1.359801E+05 -1.170640E+05 -4.758802E+04 -9.599907E-11 -3.625674E-11
       101  12 -4.258142E+05 -1.111968E+05 -9.686472E+04 -6.758156E+04  2.690405E-10 -2.686455E-10
       101  13  3.095297E+04  1.440832E+02  6.563565E+03 -6.763100E+04 -2.154379E-09 -2.730705E-10
       101  14  3.076892E+04 -9.320930E+01  3.733724E+03 -4.757210E+04 -2.714598E-09 -5.228787E-10
       101  15  3.098707E+04  2.319377E-01  2.208929E+03 -6.763099E+04 -1.707125E-09  2.337003E-10
       101  16  6.914969E+05  1.607037E+05  1.491042E+05 -6.754742E+04 -1.400238E-09 -6.470122E-10
       101  17  5.895292E+05  1.357731E+05  1.245130E+05 -4.755613E+04  3.926502E-10 -1.080389E-09
       101  18  4.879842E+05  1.111835E+05  1.012701E+05 -6.768043E+04 -1.345270E-09 -2.958713E-10
       101  19 -6.291810E+05 -1.604429E+05 -1.360001E+05 -6.771413E+04 -1.091400E+04 -3.604129E+04
       101  20 -5.276981E+05 -1.359791E+05 -1.170622E+05 -4.758780E+04 -9.129743E+03 -3.017495E+04
       101  21 -4.258140E+05 -1.111962E+05 -9.686351E+04 -6.758141E+04 -7.341154E+03 -2.424284E+04
       101  22  3.095335E+04  1.454856E+02  6.566059E+03 -6.763084E+04 -5.321661E+03 -3.603927E+04
       101  23  3.076917E+04 -9.222831E+01  3.735457E+03 -4.757202E+04 -3.472107E+03 -3.017468E+04
       101  24  3.098723E+04  8.638402E-01  2.210038E+03 -6.763096E+04 -1.618508E+03 -2.424440E+04
       101  25  6.914972E+05  1.607051E+05  1.491066E+05 -6.754743E+04  2.765506E+02 -3.603724E+04
       101  26  5.895294E+05  1.357741E+05  1.245147E+05 -4.755619E+04  2.190553E+03 -3.017442E+04
       101  27  4.879843E+05  1.111841E+05  1.012713E+05 -6.768051E+04  4.108296E+03 -2.424596E+04
       102   1 -3.451358E+05 -9.140563E+04 -7.932944E+04 -6.754124E+04  6.966064E+03  2.077446E+04
       102   2 -2.434844E+05 -6.672730E+04 -5.823615E+04 -4.748485E+04  6.423639E+03  1.482882E+04
       102   3 -1.417688E+05 -4.198708E+04 -3.678243E+04 -6.754047E+04  5.879140E+03  8.880481E+03
       102   4  3.092532E+04  3.047304E+01  1.717227E+03 -6.762942E+04  1.261966E+03  2.077682E+04
       102   5  3.090544E+04  2.507219E+01  1.099586E+03 -4.757395E+04  7.162636E+02  1.483205E+04
       102   6  3.094196E+04  8.307399E+01  8.451383E+02 -6.762941E+04  1.685739E+02  8.884603E+03
       102   7  4.071194E+05  9.145729E+04  8.275570E+04 -6.771763E+04 -4.445541E+03  2.077919E+04
       102   8  3.053661E+05  6.677250E+04  6.043098E+04 -4.766307E+04 -4.993601E+03  1.483528E+04
       102   9  2.036807E+05  4.215127E+04  3.847103E+04 -6.771837E+04 -5.543561E+03  8.888727E+03
       102  10 -3.451360E+05 -9.140611E+04 -7.933034E+04 -6.754135E+04  6.005935E-10 -9.526821E-11
       102  11 -2.434845E+05 -6.672755E+04 -5.823664E+04 -4.748493E+04 -6.534845E-10  2.520393E-10
       102  12 -1.417689E+05 -4.198718E+04 -3.678264E+04 -6.754051E+04  2.550340E-10 -1.422316E-10
       102  13  3.092520E+04  3.000906E+01  1.716413E+03 -6.762944E+04  7.068903E-12 -2.858124E-10
       102  14  3.090538E+04  2.483581E+01  1.099171E+03 -4.757396E+04 -2.734656E-09  5.996375E-10
       102  15  3.094194E+04  8.298922E+01  8.449900E+02 -6.762941E+04  1.880395E-09  5.982909E-11
       102  16  4.071193E+05  9.145682E+04  8.275485E+04 -6.771755E+04 -6.059127E-10  3.086983E-10
       102  17  3.053660E+05  6.677225E+04  6.043052E+04 -4.766302E+04  2.584269E-09  3.989153E-10
       102  18  2.036807E+05  4.215118E+04  3.847083E+04 -6.771833E+04 -7.843109E-10  1.108104E-10
       102  19 -3.451358E+05 -9.140563E+04 -7.932944E+04 -6.754124E+04 -6.966064E+03 -2.077446E+04
       102  20 -2.434844E+05 -6.672730E+04 -5.823615E+04 -4.748485E+04 -6.423639E+03 -1.482882E+04
       102  21 -1.417688E+05 -4.198708E+04 -3.678243E+04 -6.754047E+04 -5.879140E+03 -8.880481E+03
       102  22  3.092532E+04  3.047304E+01  1.717227E+03 -6.762942E+04 -1.261966E+03 -2.077682E+04
       102  23  3.090544E+04  2.507219E+01  1.099586E+03 -4.757395E+04 -7.162636E+02 -1.483205E+04
       102  24  3.094196E+04  8.307399E+01  8.451383E+02 -6.762941E+04 -1.685739E+02 -8.884603E+03
       102  25  4.071194E+05  9.145729E+04  8.275570E+04 -6.771763E+04  4.445541E+03 -2.077919E+04
       102  26  3.053661E+05  6.677250E+04  6.043098E+04 -4.766307E+04  4.993601E+03 -1.483528E+04
       102  27  2.036807E+05  4.215127E+04  3.847103E+04 -6.771837E+04  5.543561E+03 -8.888727E+03
       103   1 -6.102117E+04 -2.222725E+04 -1.878634E+04 -6.758194E+04  5.725543E+03  5.417866E+03
       103   2  4.066267E+04  2.420420E+03  3.051438E+03 -4.755685E+04  5.251768E+03 -5.294307E+02
       103   3  1.423704E+05  2.713250E+04  2.519720E+04 -6.764250E+04  4.777984E+03 -6.474465E+03
       103   4  3.093690E+04  8.499466E+01  8.146521E+02 -6.762938E+04  1.488586E+01  5.422250E+03
       103   5  3.093047E+04  5.318675E+01  9.468540E+02 -4.757398E+04 -4.571914E+02 -5.250982E+02
       103   6  3.093630E+04  8.570753E+01  1.385743E+03 -6.762937E+04 -9.292037E+02 -6.470146E+03
       103   7  1.229030E+05  2.239671E+04  2.041528E+04 -6.767682E+04 -5.696605E+03  5.426634E+03
       103   8  2.119843E+04 -2.314035E+03 -1.157613E+03 -4.759112E+04 -6.166063E+03 -5.207654E+02
       103   9 -8.048602E+04 -2.696188E+04 -2.242631E+04 -6.761623E+04 -6.635382E+03 -6.465827E+03
       103  10 -6.102122E+04 -2.222729E+04 -1.878645E+04 -6.758197E+04 -8.550307E-10  2.724565E-10
       103  11  4.066264E+04  2.420412E+03  3.051385E+03 -4.755685E+04  3.531644E-10  1.101751E-09
       103  12  1.423704E+05  2.713245E+04  2.519707E+04 -6.764248E+04  1.492813E-09 -1.437733E-09
       103  13  3.093689E+04  8.496309E+01  8.145969E+02 -6.762938E+04  1.937141E-12  1.048617E-11
       103  14  3.093047E+04  5.318640E+01  9.468531E+02 -4.757398E+04 -1.651210E-09 -6.283783E-10
       103  15  3.093629E+04  8.566234E+01  1.385663E+03 -6.762937E+04 -1.357968E-09 -6.276753E-10
       103  16  1.229030E+05  2.239667E+04  2.041516E+04 -6.767679E+04  4.404368E-11  2.715475E-10
       103  17  2.119839E+04 -2.314045E+03 -1.157685E+03 -4.759112E+04 -5.826032E-12 -7.711829E-10
       103  18 -8.048608E+04 -2.696194E+04 -2.242647E+04 -6.761627E+04 -2.730056E-09 -4.712468E-10
       103  19 -6.102117E+04 -2.222725E+04 -1.878634E+04 -6.758194E+04 -5.725543E+03 -5.417866E+03
       103  20  4.066267E+04  2.420420E+03  3.051438E+03 -4.755685E+04 -5.251768E+03  5.294307E+02
       103  21  1.423704E+05  2.713250E+04  2.519720E+04 -6.764250E+04 -4.777984E+03  6.474465E+03
       103  22  3.093690E+04  8.499466E+01  8.146521E+02 -6.762938E+04 -1.488586E+01 -5.422250E+03
       103  23  3.093047E+04  5.318675E+01  9.468540E+02 -4.757398E+04  4.571914E+02  5.250982E+02
       103  24  3.093630E+04  8.570753E+01  1.385743E+03 -6.762937E+04  9.292037E+02  6.470146E+03
       103  25  1.229030E+05  2.239671E+04  2.041528E+04 -6.767682E+04  5.696605E+03 -5.426634E+03
       103  26  2.119843E+04 -2.314035E+03 -1.157613E+03 -4.759112E+04  6.166063E+03  5.207654E+02
       103  27 -8.048602E+04 -2.696188E+04 -2.242631E+04 -6.761623E+04  6.635382E+03  6.465827E+03
       104   1  2.231878E+05  4.686774E+04  4.358695E+04 -6.764724E+04  4.506771E+03 -9.940184E+03
       104   2  3.247840E+05  7.147947E+04  6.647228E+04 -4.760818E+04  3.003051E+03 -1.587212E+04
       104   3  4.266312E+05  9.637627E+04  9.039922E+04 -6.767944E+04  1.501241E+03 -2.175179E+04
       104   4  3.097987E+04  6.517747E+01  1.752760E+03 -6.762956E+04 -1.215679E+03 -9.936154E+03
       104   5  3.085454E+04 -3.461365E+00  2.924511E+03 -4.757375E+04 -2.668995E+03 -1.586908E+04
       104   6  3.096204E+04  2.049802E+02  5.103620E+03 -6.762941E+04 -4.120160E+03 -2.174969E+04
       104   7 -1.611934E+05 -4.673982E+04 -4.008352E+04 -6.761188E+04 -6.936381E+03 -9.932124E+03
       104   8 -2.629937E+05 -7.149207E+04 -6.062825E+04 -4.753932E+04 -8.338391E+03 -1.586604E+04
       104   9 -3.645601E+05 -9.597659E+04 -8.020108E+04 -6.757938E+04 -9.738029E+03 -2.174758E+04
       104  10  2.231877E+05  4.686763E+04  4.358673E+04 -6.764720E+04  6.166579E-10 -1.540015E-09
       104  11  3.247839E+05  7.147919E+04  6.647179E+04 -4.760814E+04  2.266189E-09  3.640250E-10
       104  12  4.266311E+05  9.637576E+04  9.039833E+04 -6.767942E+04 -7.050066E-10  1.206237E-09
       104  13  3.097985E+04  6.507106E+01  1.752572E+03 -6.762957E+04 -1.084482E-09 -5.789650E-10
       104  14  3.085447E+04 -3.733705E+00  2.924024E+03 -4.757378E+04  1.584616E-09 -2.965569E-10
       104  15  3.096190E+04  2.044677E+02  5.102699E+03 -6.762948E+04 -2.207072E-10  6.358230E-10
       104  16 -1.611934E+05 -4.673994E+04 -4.008380E+04 -6.761193E+04 -1.061772E-09 -3.180087E-10
       104  17 -2.629939E+05 -7.149236E+04 -6.062886E+04 -4.753942E+04  6.908122E-11  3.156084E-10
       104  18 -3.645603E+05 -9.597713E+04 -8.020215E+04 -6.757956E+04  1.277919E-10  6.829059E-10
       104  19  2.231878E+05  4.686774E+04  4.358695E+04 -6.764724E+04 -4.506771E+03  9.940184E+03
       104  20  3.247840E+05  7.147947E+04  6.647228E+04 -4.760818E+04 -3.003051E+03  1.587212E+04
       104  21  4.266312E+05  9.637627E+04  9.039922E+04 -6.767944E+04 -1.501241E+03  2.175179E+04
       104  22  3.097987E+04  6.517747E+01  1.752760E+03 -6.762956E+04  1.215679E+03  9.936154E+03
       104  23  3.085454E+04 -3.461365E+00  2.924511E+03 -4.757375E+04  2.668995E+03  1.586908E+04
       104  24  3.096204E+04  2.049802E+02  5.103620E+03 -6.762941E+04  4.120160E+03  2.174969E+04
       104  25 -1.611934E+05 -4.673982E+04 -4.008352E+04 -6.761188E+04  6.936381E+03  9.932124E+03
       104  26 -2.629937E+05 -7.149207E+04 -6.062825E+04 -4.753932E+04  8.338391E+03  1.586604E+04
       104  27 -3.645601E+05 -9.597659E+04 -8.020108E+04 -6.757938E+04  9.738029E+03  2.174758E+04
       105   1  5.078206E+05  1.157007E+05  1.099308E+05 -6.695390E+04  7.917328E+02 -2.530510E+04
       105   2  6.085375E+05  1.404954E+05  1.366741E+05 -4.800830E+04 -6.097684E+03 -3.092040E+04
       105   3  7.113544E+05  1.697218E+05  1.690248E+05 -6.913179E+04 -1.298415E+04 -3.537840E+04
       105   4  3.131700E+04 -2.228258E+02  6.659405E+03 -6.762080E+04 -5.158792E+03 -2.530370E+04
       105   5  3.034923E+04 -1.312922E+02  1.150964E+04 -4.758458E+04 -1.093168E+04 -3.092120E+04
       105   6  3.128196E+04  4.201875E+03  2.119673E+04 -6.761959E+04 -1.670053E+04 -3.538089E+04
       105   7 -4.449736E+05 -1.161613E+05 -9.662538E+04 -6.828713E+04 -1.110481E+04 -2.530229E+04
       105   8 -5.475255E+05 -1.407800E+05 -1.136746E+05 -4.716123E+04 -1.576124E+04 -3.092201E+04
       105   9 -6.483571E+05 -1.613487E+05 -1.266589E+05 -6.610904E+04 -2.041290E+04 -3.538339E+04
       105  10  5.078204E+05  1.157000E+05  1.099296E+05 -6.695389E+04  4.781267E-10  1.044227E-09
       105  11  6.085372E+05  1.404943E+05  1.366722E+05 -4.800845E+04  9.223507E-10 -4.300418E-10
       105  12  7.113538E+05  1.697204E+05  1.690221E+05 -6.913216E+04 -1.849312E-10 -1.626335E-10
       105  13  3.131679E+04 -2.235205E+02  6.658152E+03 -6.762090E+04  3.842112E-12  8.345162E-10
       105  14  3.034885E+04 -1.323510E+02  1.150761E+04 -4.758486E+04 -2.045358E-11 -1.007669E-10
       105  15  3.128132E+04  4.200456E+03  2.119385E+04 -6.762007E+04 -2.680208E-10 -2.910387E-10
       105  16 -4.449739E+05 -1.161620E+05 -9.662681E+04 -6.828736E+04 -2.732217E-09  6.567526E-10
       105  17 -5.475260E+05 -1.407811E+05 -1.136768E+05 -4.716163E+04 -2.323819E-10 -4.527266E-10
       105  18 -6.483579E+05 -1.613501E+05 -1.266621E+05 -6.610962E+04 -2.626273E-10 -4.602632E-10
       105  19  5.078206E+05  1.157007E+05  1.099308E+05 -6.695390E+04 -7.917328E+02  2.530510E+04
       105  20  6.085375E+05  1.404954E+05  1.366741E+05 -4.800830E+04  6.097684E+03  3.092040E+04
       105  21  7.113544E+05  1.697218E+05  1.690248E+05 -6.913179E+04  1.298415E+04  3.537840E+04
       105  22  3.131700E+04 -2.228258E+02  6.659405E+03 -6.762080E+04  5.158792E+03  2.530370E+04
       105  23  3.034923E+04 -1.312922E+02  1.150964E+04 -4.758458E+04  1.093168E+04  3.092120E+04
       105  24  3.128196E+04  4.201875E+03  2.119673E+04 -6.761959E+04  1.670053E+04  3.538089E+04
       105  25 -4.449736E+05 -1.161613E+05 -9.662538E+04 -6.828713E+04  1.110481E+04  2.530229E+04
       105  26 -5.475255E+05 -1.407800E+05 -1.136746E+05 -4.716123E+04  1.576124E+04  3.092201E+04
       105  27 -6.483571E+05 -1.613487E+05 -1.266589E+05 -6.610904E+04  2.041290E+04  3.538339E+04
       106   1  7.974699E+05  1.811859E+05  1.915061E+05 -5.548109E+04 -9.498468E+03 -4.086603E+04
       106   2  8.859712E+05  2.112900E+05  2.363870E+05 -6.232804E+04 -5.828400E+04 -3.953621E+04
       106   3  1.001597E+06  3.234320E+05  3.335681E+05 -1.081376E+05 -1.070967E+05 -1.267991E+04
       106   4  3.592005E+04 -3.999959E+03  2.675729E+04 -6.736513E+04 -2.046406E+04 -4.086983E+04
       106   5  2.445072E+04  9.792541E+02  4.582984E+04 -4.790152E+04 -4.468709E+04 -3.953731E+04
       106   6  3.586825E+04  8.379400E+04  1.001901E+05 -6.739789E+04 -6.892735E+04 -1.266654E+04
       106   7 -7.250853E+05 -1.892235E+05 -1.380254E+05 -7.923438E+04 -3.141638E+04 -4.087321E+04
       106   8 -8.363763E+05 -2.093806E+05 -1.447724E+05 -3.349526E+04 -3.110878E+04 -3.953778E+04
       106   9 -9.290021E+05 -1.559051E+05 -1.332484E+05 -2.672177E+04 -3.081706E+04 -1.264816E+04
       106  10  7.974694E+05  1.811841E+05  1.915028E+05 -5.548141E+04 -7.057036E-10  2.405780E-10
       106  11  8.859671E+05  2.112874E+05  2.363777E+05 -6.232990E+04 -1.672711E-09  3.603864E-10
       106  12  1.001585E+06  3.234287E+05  3.335463E+05 -1.081387E+05  7.911979E-10 -1.515169E-11
       106  13  3.591915E+04 -4.001865E+03  2.675336E+04 -6.736580E+04  1.091815E-09  2.829081E-10
       106  14  2.444816E+04  9.770393E+02  4.582315E+04 -4.790294E+04  3.575210E-11  1.148161E-09
       106  15  3.586311E+04  8.379255E+04  1.001809E+05 -6.739859E+04  2.938683E-10  1.832328E-10
       106  16 -7.250869E+05 -1.892256E+05 -1.380304E+05 -7.923541E+04  9.730873E-11  1.381837E-10
       106  17 -8.363778E+05 -2.093825E+05 -1.447772E+05 -3.349625E+04  9.245323E-11  8.856528E-10
       106  18 -9.290032E+05 -1.559055E+05 -1.332505E+05 -2.672209E+04 -4.917272E-10  1.523730E-10
       106  19  7.974699E+05  1.811859E+05  1.915061E+05 -5.548109E+04  9.498468E+03  4.086603E+04
       106  20  8.859712E+05  2.112900E+05  2.363870E+05 -6.232804E+04  5.828400E+04  3.953621E+04
       106  21  1.001597E+06  3.234320E+05  3.335681E+05 -1.081376E+05  1.070967E+05  1.267991E+04
       106  22  3.592005E+04 -3.999959E+03  2.675729E+04 -6.736513E+04  2.046406E+04  4.086983E+04
       106  23  2.445072E+04  9.792541E+02  4.582984E+04 -4.790152E+04  4.468709E+04  3.953731E+04
       106  24  3.586825E+04  8.379400E+04  1.001901E+05 -6.739789E+04  6.892735E+04  1.266654E+04
       106  25 -7.250853E+05 -1.892235E+05 -1.380254E+05 -7.923438E+04  3.141638E+04  4.087321E+04
       106  26 -8.363763E+05 -2.093806E+05 -1.447724E+05 -3.349526E+04  3.110878E+04  3.953778E+04
       106  27 -9.290021E+05 -1.559051E+05 -1.332484E+05 -2.672177E+04  3.081706E+04  1.264816E+04
       107   1  5.840352E+05  1.950754E+06  5.854288E+05 -5.100547E+05  1.962458E+04  1.949727E+05
       107   2  3.405614E+05  1.449679E+06  3.487283E+05 -4.009646E+05  5.829267E+04  8.715934E+04
       107   3  2.023710E+05  9.887576E+05  2.083315E+05 -4.160708E+05  4.936806E+04 -2.065127E+04
       107   4  1.375847E+05  1.494394E+05  1.544432E+05 -4.261349E+05  1.987261E+04  1.050675E+05
       107   5  2.309696E+04  1.355810E+05  7.535561E+04 -3.642151E+05  5.836320E+04  6.605259E+04
       107   6  2.111922E+03  1.498503E+05  4.499033E+04 -4.264704E+05  4.923144E+04  2.695324E+04
       107   7 -3.090710E+05 -1.648877E+06 -2.767377E+05 -3.424563E+05  2.009684E+04  1.542098E+04
       107   8 -2.944724E+05 -1.176882E+06 -1.981095E+05 -3.275431E+05  5.843133E+04  4.498959E+04
       107   9 -1.981876E+05 -6.883772E+05 -1.183757E+05 -4.368550E+05  4.909311E+04  7.449490E+04
       107  10  5.840246E+05  1.950713E+06  5.853568E+05 -5.100578E+05 -3.545132E-10  1.290059E-09
       107  11  3.405557E+05  1.449670E+06  3.487076E+05 -4.009687E+05  1.251850E-09 -1.559051E-09
       107  12  2.023682E+05  9.887565E+05  2.083261E+05 -4.160700E+05  1.123910E-09 -6.308095E-10
       107  13  1.375813E+05  1.494274E+05  1.544217E+05 -4.261366E+05 -1.049165E-09  4.765117E-10
       107  14  2.309212E+04  1.355754E+05  7.534100E+04 -3.642182E+05  2.867978E-09 -2.908690E-11
       107  15  2.109123E+03  1.498488E+05  4.498440E+04 -4.264715E+05 -6.411352E-11  4.214280E-10
       107  16 -3.090715E+05 -1.648877E+06 -2.767390E+05 -3.424566E+05 -9.553995E-11 -1.485503E-09
       107  17 -2.944766E+05 -1.176885E+06 -1.981198E+05 -3.275452E+05  1.958628E-09  1.453086E-09
       107  18 -1.981917E+05 -6.883838E+05 -1.183907E+05 -4.368579E+05  1.423257E-09  5.829465E-10
       107  19  5.840352E+05  1.950754E+06  5.854288E+05 -5.100547E+05 -1.962458E+04 -1.949727E+05
       107  20  3.405614E+05  1.449679E+06  3.487283E+05 -4.009646E+05 -5.829267E+04 -8.715934E+04
       107  21  2.023710E+05  9.887576E+05  2.083315E+05 -4.160708E+05 -4.936806E+04  2.065127E+04
       107  22  1.375847E+05  1.494394E+05  1.544432E+05 -4.261349E+05 -1.987261E+04 -1.050675E+05
       107  23  2.309696E+04  1.355810E+05  7.535561E+04 -3.642151E+05 -5.836320E+04 -6.605259E+04
       107  24  2.111922E+03  1.498503E+05  4.499033E+04 -4.264704E+05 -4.923144E+04 -2.695324E+04
       107  25 -3.090710E+05 -1.648877E+06 -2.767377E+05 -3.424563E+05 -2.009684E+04 -1.542098E+04
       107  26 -2.944724E+05 -1.176882E+06 -1.981095E+05 -3.275431E+05 -5.843133E+04 -4.498959E+04
       107  27 -1.981876E+05 -6.883772E+05 -1.183757E+05 -4.368550E+05 -4.909311E+04 -7.449490E+04
       108   1  1.295792E+05  6.555580E+05  1.369238E+05 -4.304650E+05  2.972192E+04 -1.905980E+04
       108   2  9.962837E+03  1.735695E+05  3.289684E+04 -3.637712E+05  2.152551E+03 -3.282754E+04
       108   3 -1.025210E+05 -3.053352E+05 -6.059649E+04 -4.239765E+05 -2.552463E+04 -4.658611E+04
       108   4  7.370335E+03  1.443162E+05  3.698207E+04 -4.270213E+05  2.960167E+04  2.063809E+04
       108   5  2.681135E+03  1.429020E+05  2.715430E+04 -3.635763E+05  2.031701E+03  7.018670E+03
       108   6  5.112174E+03  1.443259E+05  2.776472E+04 -4.270283E+05 -2.564655E+04 -6.601687E+03
       108   7 -1.148534E+05 -3.666718E+05 -6.296624E+04 -4.235803E+05  2.948180E+04  6.030403E+04
       108   8 -4.599770E+03  1.122389E+05  2.141769E+04 -3.633814E+05  1.910872E+03  4.686296E+04
       108   9  1.127340E+05  5.941843E+05  1.161221E+05 -4.300823E+05 -2.576881E+04  3.341109E+04
       108  10  1.295782E+05  6.555574E+05  1.369214E+05 -4.304646E+05  7.545394E-10  1.399496E-09
       108  11  9.962543E+03  1.735683E+05  3.289481E+04 -3.637712E+05  1.030055E-09 -2.753811E-09
       108  12 -1.025223E+05 -3.053377E+05 -6.060179E+04 -4.239774E+05  1.605541E-10 -2.015447E-09
       108  13  7.369279E+03  1.443155E+05  3.697962E+04 -4.270218E+05  1.492214E-09  6.189544E-10
       108  14  2.681117E+03  1.429020E+05  2.715420E+04 -3.635763E+05  3.139011E-09 -8.591239E-11
       108  15  5.111456E+03  1.443257E+05  2.776341E+04 -4.270285E+05  1.955387E-09  5.976628E-10
       108  16 -1.148553E+05 -3.666760E+05 -6.297472E+04 -4.235817E+05  8.481432E-10 -1.815078E-09
       108  17 -4.600363E+03  1.122365E+05  2.141356E+04 -3.633814E+05  2.987878E-09  2.455794E-09
       108  18  1.127330E+05  5.941829E+05  1.161188E+05 -4.300816E+05  9.208776E-10  2.000305E-09
       108  19  1.295792E+05  6.555580E+05  1.369238E+05 -4.304650E+05 -2.972192E+04  1.905980E+04
       108  20  9.962837E+03  1.735695E+05  3.289684E+04 -3.637712E+05 -2.152551E+03  3.282754E+04
       108  21 -1.025210E+05 -3.053352E+05 -6.059649E+04 -4.239765E+05  2.552463E+04  4.658611E+04
       108  22  7.370335E+03  1.443162E+05  3.698207E+04 -4.270213E+05 -2.960167E+04 -2.063809E+04
       108  23  2.681135E+03  1.429020E+05  2.715430E+04 -3.635763E+05 -2.031701E+03 -7.018670E+03
       108  24  5.112174E+03  1.443259E+05  2.776472E+04 -4.270283E+05  2.564655E+04  6.601687E+03
       108  25 -1.148534E+05 -3.666718E+05 -6.296624E+04 -4.235803E+05 -2.948180E+04 -6.030403E+04
       108  26 -4.599770E+03  1.122389E+05  2.141769E+04 -3.633814E+05 -1.910872E+03 -4.686296E+04
       108  27  1.127340E+05  5.941843E+05  1.161221E+05 -4.300823E+05  2.576881E+04 -3.341109E+04
       109   1 -1.835349E+05 -6.295810E+05 -1.210306E+05 -4.316095E+05 -4.515502E+04 -5.884264E+04
       109   2 -2.887885E+05 -1.112489E+06 -2.153559E+05 -3.417752E+05 -5.529077E+04 -1.613411E+04
       109   3 -3.508717E+05 -1.590295E+06 -3.268254E+05 -3.762849E+05 -1.925235E+04  2.662516E+04
       109   4  2.190304E+03  1.472572E+05  3.072225E+04 -4.264830E+05 -4.529445E+04 -1.125775E+04
       109   5  1.399925E+04  1.388716E+05  4.581347E+04 -3.642308E+05 -5.523082E+04 -3.497692E+04
       109   6  8.047334E+04  1.468682E+05  8.989404E+04 -4.262869E+05 -1.903917E+04 -5.861223E+04
       109   7  1.878806E+05  9.246795E+05  1.824548E+05 -4.213494E+05 -4.543300E+04  3.638542E+04
       109   8  3.166888E+05  1.391717E+06  3.068980E+05 -3.867311E+05 -5.516959E+04 -5.385708E+04
       109   9  5.116118E+05  1.886820E+06  5.064281E+05 -4.764272E+05 -1.881261E+04 -1.440874E+05
       109  10 -1.835381E+05 -6.295853E+05 -1.210410E+05 -4.316116E+05 -6.669975E-10  7.816792E-10
       109  11 -2.887919E+05 -1.112490E+06 -2.153622E+05 -3.417759E+05  4.471644E-10 -2.104932E-09
       109  12 -3.508723E+05 -1.590296E+06 -3.268275E+05 -3.762845E+05 -1.782063E-10 -9.043371E-10
       109  13  2.188067E+03  1.472565E+05  3.071815E+04 -4.264834E+05 -6.144298E-10  6.927224E-10
       109  14  1.399565E+04  1.388695E+05  4.580543E+04 -3.642323E+05 -5.784797E-10 -2.648492E-11
       109  15  8.047203E+04  1.468644E+05  8.988690E+04 -4.262878E+05 -4.008441E-10  3.960049E-10
       109  16  1.878781E+05  9.246775E+05  1.824485E+05 -4.213480E+05  6.804773E-10 -1.031647E-09
       109  17  3.166848E+05  1.391713E+06  3.068868E+05 -3.867335E+05  9.380744E-10  1.979153E-09
       109  18  5.116058E+05  1.886798E+06  5.063885E+05 -4.764293E+05  9.056081E-10  7.161834E-10
       109  19 -1.835349E+05 -6.295810E+05 -1.210306E+05 -4.316095E+05  4.515502E+04  5.884264E+04
       109  20 -2.887885E+05 -1.112489E+06 -2.153559E+05 -3.417752E+05  5.529077E+04  1.613411E+04
       109  21 -3.508717E+05 -1.590295E+06 -3.268254E+05 -3.762849E+05  1.925235E+04 -2.662516E+04
       109  22  2.190304E+03  1.472572E+05  3.072225E+04 -4.264830E+05  4.529445E+04  1.125775E+04
       109  23  1.399925E+04  1.388716E+05  4.581347E+04 -3.642308E+05  5.523082E+04  3.497692E+04
       109  24  8.047334E+04  1.468682E+05  8.989404E+04 -4.262869E+05  1.903917E+04  5.861223E+04
       109  25  1.878806E+05  9.246795E+05  1.824548E+05 -4.213494E+05  4.543300E+04 -3.638542E+04
       109  26  3.166888E+05  1.391717E+06  3.068980E+05 -3.867311E+05  5.516959E+04  5.385708E+04
       109  27  5.116118E+05  1.886820E+06  5.064281E+05 -4.764272E+05  1.881261E+04  1.440874E+05
       110   1 -2.749087E+06 -9.849254E+05 -5.777286E+05 -1.015407E+06 -2.453927E+05 -7.631530E+04
       110   2 -2.662786E+06 -6.460486E+05 -3.561597E+05 -9.939040E+05 -1.581767E+05 -9.087017E+03
       110   3 -2.653675E+06 -5.688987E+05 -2.728930E+05 -9.409142E+05 -6.028648E+04  2.986484E+04
       110   4 -1.845103E+06 -5.315098E+05 -3.146020E+05 -6.534951E+05 -2.059389E+05 -6.151209E+04
       110   5 -1.791772E+06 -2.820571E+05 -1.368783E+05 -7.147667E+05 -1.439589E+05 -3.754397E+03
       110   6 -1.810485E+06 -2.891317E+05 -7.726420E+04 -7.445919E+05 -7.132222E+04  2.571419E+04
       110   7 -9.402835E+05 -7.783628E+04 -5.154560E+04 -2.910409E+05 -1.664217E+05 -4.666695E+04
       110   8 -9.200014E+05  8.204226E+04  8.234363E+04 -4.352521E+05 -1.297192E+05  1.588724E+03
       110   9 -9.665916E+05 -9.349998E+03  1.183162E+05 -5.480424E+05 -8.237427E+04  2.155896E+04
       110  10 -2.749153E+06 -9.849480E+05 -5.778534E+05 -1.015422E+06  5.267610E-11 -1.102986E-10
       110  11 -2.662813E+06 -6.460555E+05 -3.562071E+05 -9.939052E+05  2.271783E-09 -3.733406E-10
       110  12 -2.653679E+06 -5.689007E+05 -2.729015E+05 -9.409128E+05 -1.624981E-10 -1.729499E-10
       110  13 -1.845149E+06 -5.315253E+05 -3.146891E+05 -6.535054E+05  4.392506E-11  4.893985E-11
       110  14 -1.791795E+06 -2.820627E+05 -1.369173E+05 -7.147671E+05 -5.925907E-10 -3.419316E-10
       110  15 -1.810490E+06 -2.891337E+05 -7.727502E+04 -7.445904E+05  1.830821E-10  1.980615E-10
       110  16 -9.403139E+05 -7.784607E+04 -5.160184E+04 -2.910472E+05  7.215482E-11  1.469409E-10
       110  17 -9.200195E+05  8.203773E+04  8.231196E+04 -4.352519E+05  1.795088E-10  3.218075E-10
       110  18 -9.665990E+05 -9.352319E+03  1.183026E+05 -5.480410E+05 -7.240036E-10  2.510382E-10
       110  19 -2.749087E+06 -9.849254E+05 -5.777286E+05 -1.015407E+06  2.453927E+05  7.631530E+04
       110  20 -2.662786E+06 -6.460486E+05 -3.561597E+05 -9.939040E+05  1.581767E+05  9.087017E+03
       110  21 -2.653675E+06 -5.688987E+05 -2.728930E+05 -9.409142E+05  6.028648E+04 -2.986484E+04
       110  22 -1.845103E+06 -5.315098E+05 -3.146020E+05 -6.534951E+05  2.059389E+05  6.151209E+04
       110  23 -1.791772E+06 -2.820571E+05 -1.368783E+05 -7.147667E+05  1.439589E+05  3.754397E+03
       110  24 -1.810485E+06 -2.891317E+05 -7.726420E+04 -7.445919E+05  7.132222E+04 -2.571419E+04
       110  25 -9.402835E+05 -7.783628E+04 -5.154560E+04 -2.910409E+05  1.664217E+05  4.666695E+04
       110  26 -9.200014E+05  8.204226E+04  8.234363E+04 -4.352521E+05  1.297192E+05 -1.588724E+03
       110  27 -9.665916E+05 -9.349998E+03  1.183162E+05 -5.480424E+05  8.237427E+04 -2.155896E+04
       111   1 -2.544750E+06 -5.940686E+05 -2.409474E+05 -9.401262E+05 -5.674786E+04  2.482694E+04
       111   2 -2.470204E+06 -5.324078E+05 -1.900458E+05 -9.025961E+05 -3.825441E+04  2.760577E+04
       111   3 -2.376666E+06 -5.109884E+05 -1.556384E+05 -8.921155E+05 -1.927054E+04  2.907480E+04
       111   4 -1.800276E+06 -3.120340E+05 -6.108580E+04 -7.308801E+05 -5.947041E+04  2.379921E+04
       111   5 -1.808884E+06 -2.851473E+05 -3.149102E+04 -7.199258E+05 -4.213125E+04  2.614665E+04
       111   6 -1.798271E+06 -2.982607E+05 -1.745766E+04 -7.360232E+05 -2.430449E+04  2.718382E+04
       111   7 -1.055246E+06 -2.995365E+04  1.187360E+05 -5.214015E+05 -6.219652E+04  2.277009E+04
       111   8 -1.147127E+06 -3.785388E+04  1.270325E+05 -5.370767E+05 -4.601260E+04  2.468582E+04
       111   9 -1.219543E+06 -8.551124E+04  1.206991E+05 -5.797987E+05 -2.934356E+04  2.529097E+04
       111  10 -2.544754E+06 -5.940701E+05 -2.409546E+05 -9.401251E+05  3.296331E-10  1.490006E-10
       111  11 -2.470206E+06 -5.324090E+05 -1.900500E+05 -9.025952E+05 -2.834871E-10 -4.669263E-10
       111  12 -2.376666E+06 -5.109895E+05 -1.556407E+05 -8.921151E+05 -1.986931E-10 -3.091155E-10
       111  13 -1.800280E+06 -3.120356E+05 -6.109352E+04 -7.308789E+05  1.478833E-10 -4.725240E-11
       111  14 -1.808886E+06 -2.851485E+05 -3.149564E+04 -7.199249E+05  1.129963E-09 -1.019349E-10
       111  15 -1.798271E+06 -2.982616E+05 -1.746016E+04 -7.360227E+05 -4.849012E-10 -5.379032E-10
       111  16 -1.055250E+06 -2.995524E+04  1.187277E+05 -5.214003E+05 -2.368760E-10  3.302247E-11
       111  17 -1.147129E+06 -3.785510E+04  1.270274E+05 -5.370758E+05 -1.258530E-09 -2.268908E-11
       111  18 -1.219544E+06 -8.551215E+04  1.206962E+05 -5.797981E+05  6.060081E-10 -6.658793E-10
       111  19 -2.544750E+06 -5.940686E+05 -2.409474E+05 -9.401262E+05  5.674786E+04 -2.482694E+04
       111  20 -2.470204E+06 -5.324078E+05 -1.900458E+05 -9.025961E+05  3.825441E+04 -2.760577E+04
       111  21 -2.376666E+06 -5.109884E+05 -1.556384E+05 -8.921155E+05  1.927054E+04 -2.907480E+04
       111  22 -1.800276E+06 -3.120340E+05 -6.108580E+04 -7.308801E+05  5.947041E+04 -2.379921E+04
       111  23 -1.808884E+06 -2.851473E+05 -3.149102E+04 -7.199258E+05  4.213125E+04 -2.614665E+04
       111  24 -1.798271E+06 -2.982607E+05 -1.745766E+04 -7.360232E+05  2.430449E+04 -2.718382E+04
       111  25 -1.055246E+06 -2.995365E+04  1.187360E+05 -5.214015E+05  6.219652E+04 -2.277009E+04
       111  26 -1.147127E+06 -3.785388E+04  1.270325E+05 -5.370767E+05  4.601260E+04 -2.468582E+04
       111  27 -1.219543E+06 -8.551124E+04  1.206991E+05 -5.797987E+05  2.934356E+04 -2.529097E+04
       112   1 -2.302417E+06 -4.872325E+05 -1.337852E+05 -8.736418E+05 -1.595209E+04  2.666163E+04
       112   2 -2.227899E+06 -4.404375E+05 -1.070544E+05 -8.343535E+05 -1.028045E+04  2.277162E+04
       112   3 -2.127288E+06 -4.213041E+05 -8.327813E+04 -8.257146E+05 -4.579386E+03  1.879496E+04
       112   4 -1.797301E+06 -2.996050E+05 -1.327417E+04 -7.352803E+05 -2.064500E+04  2.489976E+04
       112   5 -1.810284E+06 -2.853990E+05 -7.239216E+03 -7.200924E+05 -1.504797E+04  2.098326E+04
       112   6 -1.797167E+06 -2.988388E+05 -4.097453E+03 -7.355559E+05 -9.422078E+03  1.697996E+04
       112   7 -1.291934E+06 -1.119604E+05  1.072178E+05 -5.968166E+05 -2.534206E+04  2.313634E+04
       112   8 -1.392496E+06 -1.303483E+05  9.256342E+04 -6.057612E+05 -1.981900E+04  1.919360E+04
       112   9 -1.466937E+06 -1.763653E+05  7.507585E+04 -6.453530E+05 -1.426761E+04  1.516390E+04
       112  10 -2.302417E+06 -4.872334E+05 -1.337870E+05 -8.736414E+05  1.909989E-09  6.162925E-11
       112  11 -2.227899E+06 -4.404381E+05 -1.070555E+05 -8.343533E+05  6.272062E-09  1.369572E-09
       112  12 -2.127288E+06 -4.213044E+05 -8.327883E+04 -8.257146E+05  2.628023E-09  1.746028E-09
       112  13 -1.797302E+06 -2.996057E+05 -1.327613E+04 -7.352798E+05 -6.406270E-11  1.009010E-10
       112  14 -1.810285E+06 -2.853995E+05 -7.240468E+03 -7.200922E+05  2.070381E-09  1.294450E-09
       112  15 -1.797168E+06 -2.988391E+05 -4.098161E+03 -7.355558E+05  1.416294E-09  6.279876E-10
       112  16 -1.291934E+06 -1.119611E+05  1.072156E+05 -5.968161E+05  2.699206E-09  2.813110E-10
       112  17 -1.392497E+06 -1.303488E+05  9.256199E+04 -6.057609E+05  1.273358E-09  1.034310E-09
       112  18 -1.466937E+06 -1.763656E+05  7.507504E+04 -6.453529E+05  1.309602E-10 -2.391891E-10
       112  19 -2.302417E+06 -4.872325E+05 -1.337852E+05 -8.736418E+05  1.595209E+04 -2.666163E+04
       112  20 -2.227899E+06 -4.404375E+05 -1.070544E+05 -8.343535E+05  1.028045E+04 -2.277162E+04
       112  21 -2.127288E+06 -4.213041E+05 -8.327813E+04 -8.257146E+05  4.579386E+03 -1.879496E+04
       112  22 -1.797301E+06 -2.996050E+05 -1.327417E+04 -7.352803E+05  2.064500E+04 -2.489976E+04
       112  23 -1.810284E+06 -2.853990E+05 -7.239216E+03 -7.200924E+05  1.504797E+04 -2.098326E+04
       112  24 -1.797167E+06 -2.988388E+05 -4.097453E+03 -7.355559E+05  9.422078E+03 -1.697996E+04
       112  25 -1.291934E+06 -1.119604E+05  1.072178E+05 -5.968166E+05  2.534206E+04 -2.313634E+04
       112  26 -1.392496E+06 -1.303483E+05  9.256342E+04 -6.057612E+05  1.981900E+04 -1.919360E+04
       112  27 -1.466937E+06 -1.763653E+05  7.507585E+04 -6.453530E+05  1.426761E+04 -1.516390E+04
       113   1 -2.054216E+06 -3.943596E+05 -6.433571E+04 -8.059399E+05 -2.799987E+03  1.587213E+04
       113   2 -1.979072E+06 -3.479270E+05 -4.230444E+04 -7.661443E+05  2.446710E+02  1.084244E+04
       113   3 -1.876977E+06 -3.286484E+05 -2.104331E+04 -7.574522E+05  3.293606E+03  5.797539E+03
       113   4 -1.797000E+06 -2.989533E+05 -3.175206E+03 -7.355680E+05 -7.643726E+03  1.405740E+04
       113   5 -1.810464E+06 -2.853512E+05 -2.016580E+03 -7.200229E+05 -4.612400E+03  9.023318E+03
       113   6 -1.796983E+06 -2.989001E+05 -1.617176E+03 -7.355835E+05 -1.576990E+03  3.974038E+03
       113   7 -1.539717E+06 -2.035421E+05  5.798087E+04 -6.651692E+05 -1.248967E+04  1.224184E+04
       113   8 -1.641829E+06 -2.227740E+05  3.826892E+04 -6.738905E+05 -9.470868E+03  7.203677E+03
       113   9 -1.716983E+06 -2.691521E+05  1.780813E+04 -7.137126E+05 -6.448172E+03  2.150317E+03
       113  10 -2.054216E+06 -3.943599E+05 -6.433620E+04 -8.059399E+05  3.501151E-10  5.127737E-10
       113  11 -1.979073E+06 -3.479271E+05 -4.230466E+04 -7.661443E+05  4.544682E-09 -1.337615E-11
       113  12 -1.876977E+06 -3.286484E+05 -2.104339E+04 -7.574522E+05  1.256628E-09 -3.164911E-10
       113  13 -1.797000E+06 -2.989536E+05 -3.175687E+03 -7.355679E+05  6.604274E-10  6.051585E-11
       113  14 -1.810464E+06 -2.853513E+05 -2.016773E+03 -7.200229E+05  4.708989E-09  1.501599E-10
       113  15 -1.796983E+06 -2.989002E+05 -1.617210E+03 -7.355835E+05  1.520596E-09 -8.268199E-10
       113  16 -1.539718E+06 -2.035423E+05  5.798030E+04 -6.651691E+05  2.858759E-09  5.848715E-10
       113  17 -1.641829E+06 -2.227741E+05  3.826866E+04 -6.738905E+05  2.385212E-09  1.053785E-09
       113  18 -1.716984E+06 -2.691521E+05  1.780804E+04 -7.137126E+05 -3.987748E-09 -1.116798E-09
       113  19 -2.054216E+06 -3.943596E+05 -6.433571E+04 -8.059399E+05  2.799987E+03 -1.587213E+04
       113  20 -1.979072E+06 -3.479270E+05 -4.230444E+04 -7.661443E+05 -2.446710E+02 -1.084244E+04
       113  21 -1.876977E+06 -3.286484E+05 -2.104331E+04 -7.574522E+05 -3.293606E+03 -5.797539E+03
       113  22 -1.797000E+06 -2.989533E+05 -3.175206E+03 -7.355680E+05  7.643726E+03 -1.405740E+04
       113  23 -1.810464E+06 -2.853512E+05 -2.016580E+03 -7.200229E+05  4.612400E+03 -9.023318E+03
       113  24 -1.796983E+06 -2.989001E+05 -1.617176E+03 -7.355835E+05  1.576990E+03 -3.974038E+03
       113  25 -1.539717E+06 -2.035421E+05  5.798087E+04 -6.651692E+05  1.248967E+04 -1.224184E+04
       113  26 -1.641829E+06 -2.227740E+05  3.826892E+04 -6.738905E+05  9.470868E+03 -7.203677E+03
       113  27 -1.716983E+06 -2.691521E+05  1.780813E+04 -7.137126E+05  6.448172E+03 -2.150317E+03
       114   1 -1.803610E+06 -3.013353E+05 -2.917095E+03 -7.374498E+05  4.751111E+03  2.736092E+03
       114   2 -1.728316E+06 -2.548780E+05  1.748225E+04 -6.975727E+05  7.841690E+03 -2.298894E+03
       114   3 -1.626045E+06 -2.356199E+05  3.707903E+04 -6.888555E+05  1.092990E+04 -7.324783E+03
       114   4 -1.796977E+06 -2.989101E+05 -1.639968E+03 -7.355967E+05 -1.223856E+02  9.116090E+02
       114   5 -1.810465E+06 -2.853276E+05 -2.137627E+03 -7.200084E+05  2.975674E+03 -4.120945E+03
       114   6 -1.796986E+06 -2.989474E+05 -3.443850E+03 -7.355844E+05  6.071181E+03 -9.144422E+03
       114   7 -1.790343E+06 -2.964848E+05 -3.627087E+02 -7.337435E+05 -4.996021E+03 -9.129263E+02
       114   8 -1.892608E+06 -3.157771E+05 -2.175822E+04 -7.424418E+05 -1.889710E+03 -5.942760E+03
       114   9 -1.967900E+06 -3.622737E+05 -4.396928E+04 -7.823021E+05  1.213866E+03 -1.096354E+04
       114  10 -1.803610E+06 -3.013353E+05 -2.917151E+03 -7.374498E+05 -3.366859E-09 -1.398486E-09
       114  11 -1.728316E+06 -2.548780E+05  1.748212E+04 -6.975727E+05  3.383888E-10  1.040991E-09
       114  12 -1.626045E+06 -2.356200E+05  3.707870E+04 -6.888555E+05  8.827732E-10  8.707973E-10
       114  13 -1.796977E+06 -2.989101E+05 -1.639969E+03 -7.355967E+05 -1.568820E-09 -1.294292E-09
       114  14 -1.810465E+06 -2.853276E+05 -2.137676E+03 -7.200084E+05 -6.518269E-10  7.429774E-10
       114  15 -1.796986E+06 -2.989475E+05 -3.444076E+03 -7.355844E+05 -1.150738E-09  8.754420E-10
       114  16 -1.790344E+06 -2.964848E+05 -3.627574E+02 -7.337435E+05 -2.052785E-09 -5.572585E-10
       114  17 -1.892608E+06 -3.157771E+05 -2.175829E+04 -7.424418E+05  2.197940E-10 -7.323489E-10
       114  18 -1.967900E+06 -3.622738E+05 -4.396951E+04 -7.823021E+05 -1.951199E-11  6.333860E-10
       114  19 -1.803610E+06 -3.013353E+05 -2.917095E+03 -7.374498E+05 -4.751111E+03 -2.736092E+03
       114  20 -1.728316E+06 -2.548780E+05  1.748225E+04 -6.975727E+05 -7.841690E+03  2.298894E+03
       114  21 -1.626045E+06 -2.356199E+05  3.707903E+04 -6.888555E+05 -1.092990E+04  7.324783E+03
       114  22 -1.796977E+06 -2.989101E+05 -1.639968E+03 -7.355967E+05  1.223856E+02 -9.116090E+02
       114  23 -1.810465E+06 -2.853276E+05 -2.137627E+03 -7.200084E+05 -2.975674E+03  4.120945E+03
       114  24 -1.796986E+06 -2.989474E+05 -3.443850E+03 -7.355844E+05 -6.071181E+03  9.144422E+03
       114  25 -1.790343E+06 -2.964848E+05 -3.627087E+02 -7.337435E+05  4.996021E+03  9.129263E+02
       114  26 -1.892608E+06 -3.157771E+05 -2.175822E+04 -7.424418E+05  1.889710E+03  5.942760E+03
       114  27 -1.967900E+06 -3.622737E+05 -4.396928E+04 -7.823021E+05 -1.213866E+03  1.096354E+04
       115   1 -1.553035E+06 -2.083948E+05  5.412457E+04 -6.690340E+05  1.276800E+04 -1.023549E+04
       115   2 -1.478157E+06 -1.621469E+05  7.140277E+04 -6.292514E+05  1.868099E+04 -1.415833E+04
       115   3 -1.377145E+06 -1.437516E+05  8.555229E+04 -6.202816E+05  2.456898E+04 -1.800533E+04
       115   4 -1.797151E+06 -2.988476E+05 -4.469243E+03 -7.356039E+05  7.905672E+03 -1.205695E+04
       115   5 -1.810275E+06 -2.853224E+05 -7.925195E+03 -7.200478E+05  1.388359E+04 -1.595665E+04
       115   6 -1.797286E+06 -2.996637E+05 -1.456221E+04 -7.353076E+05  1.983597E+04 -1.978071E+04
       115   7 -2.041202E+06 -3.892944E+05 -6.306594E+04 -8.021486E+05  3.045524E+03 -1.387759E+04
       115   8 -2.142281E+06 -4.084894E+05 -8.726050E+04 -8.107993E+05  9.089013E+03 -1.775392E+04
       115   9 -2.217255E+06 -4.555647E+05 -1.146903E+05 -8.502635E+05  1.510641E+04 -2.155479E+04
       115  10 -1.553035E+06 -2.083950E+05  5.412407E+04 -6.690339E+05  1.102843E-10  9.530636E-10
       115  11 -1.478157E+06 -1.621472E+05  7.140174E+04 -6.292512E+05  1.677458E-10  3.382976E-10
       115  12 -1.377146E+06 -1.437521E+05  8.555055E+04 -6.202812E+05  4.496461E-10 -7.774316E-10
       115  13 -1.797151E+06 -2.988477E+05 -4.469633E+03 -7.356038E+05  1.242702E-10  9.694768E-10
       115  14 -1.810275E+06 -2.853227E+05 -7.926035E+03 -7.200476E+05 -5.915832E-10 -1.852729E-10
       115  15 -1.797287E+06 -2.996642E+05 -1.456369E+04 -7.353073E+05 -4.013861E-10 -7.512211E-10
       115  16 -2.041202E+06 -3.892946E+05 -6.306632E+04 -8.021486E+05 -1.626200E-10  7.572552E-10
       115  17 -2.142281E+06 -4.084898E+05 -8.726125E+04 -8.107992E+05  1.130686E-09  7.847639E-10
       115  18 -2.217256E+06 -4.555652E+05 -1.146916E+05 -8.502632E+05 -1.290632E-09 -8.147985E-10
       115  19 -1.553035E+06 -2.083948E+05  5.412457E+04 -6.690340E+05 -1.276800E+04  1.023549E+04
       115  20 -1.478157E+06 -1.621469E+05  7.140277E+04 -6.292514E+05 -1.868099E+04  1.415833E+04
       115  21 -1.377145E+06 -1.437516E+05  8.555229E+04 -6.202816E+05 -2.456898E+04  1.800533E+04
       115  22 -1.797151E+06 -2.988476E+05 -4.469243E+03 -7.356039E+05 -7.905672E+03  1.205695E+04
       115  23 -1.810275E+06 -2.853224E+05 -7.925195E+03 -7.200478E+05 -1.388359E+04  1.595665E+04
       115  24 -1.797286E+06 -2.996637E+05 -1.456221E+04 -7.353076E+05 -1.983597E+04  1.978071E+04
       115  25 -2.041202E+06 -3.892944E+05 -6.306594E+04 -8.021486E+05 -3.045524E+03  1.387759E+04
       115  26 -2.142281E+06 -4.084894E+05 -8.726050E+04 -8.107993E+05 -9.089013E+03  1.775392E+04
       115  27 -2.217255E+06 -4.555647E+05 -1.146903E+05 -8.502635E+05 -1.510641E+04  2.155479E+04
       116   1 -1.304176E+06 -1.172010E+05  9.874390E+04 -6.034516E+05  2.878947E+04 -2.009200E+04
       116   2 -1.231073E+06 -6.892689E+04  1.038722E+05 -5.600290E+05  4.713205E+04 -1.893786E+04
       116   3 -1.139074E+06 -6.200861E+04  9.275712E+04 -5.436536E+05  6.502890E+04 -1.657813E+04
       116   4 -1.798323E+06 -2.982199E+05 -1.915928E+04 -7.361625E+05  2.373863E+04 -2.198747E+04
       116   5 -1.808751E+06 -2.849780E+05 -3.455615E+04 -7.198179E+05  4.314516E+04 -2.043650E+04
       116   6 -1.800510E+06 -3.133163E+05 -6.705337E+04 -7.305256E+05  6.210328E+04 -1.768054E+04
       116   7 -2.292227E+06 -4.792234E+05 -1.370799E+05 -8.687778E+05  1.869218E+04 -2.388135E+04
       116   8 -2.386096E+06 -5.010040E+05 -1.730083E+05 -8.794703E+05  3.916231E+04 -2.193361E+04
       116   9 -2.461507E+06 -5.645869E+05 -2.268952E+05 -9.172129E+05  5.918105E+04 -1.878161E+04
       116  10 -1.304177E+06 -1.172017E+05  9.874158E+04 -6.034511E+05 -3.215551E-10 -8.242896E-10
       116  11 -1.231075E+06 -6.892787E+04  1.038673E+05 -5.600283E+05  6.989922E-10  1.880650E-10
       116  12 -1.139079E+06 -6.201004E+04  9.274865E+04 -5.436528E+05  8.098042E-10 -3.427196E-10
       116  13 -1.798324E+06 -2.982206E+05 -1.916125E+04 -7.361621E+05  7.978715E-10 -6.731537E-10
       116  14 -1.808753E+06 -2.849790E+05 -3.456044E+04 -7.198172E+05  8.325433E-10 -2.676879E-10
       116  15 -1.800514E+06 -3.133177E+05 -6.706122E+04 -7.305247E+05  1.081061E-09 -6.500979E-10
       116  16 -2.292228E+06 -4.792241E+05 -1.370817E+05 -8.687774E+05 -3.277225E-10 -5.287516E-10
       116  17 -2.386098E+06 -5.010049E+05 -1.730120E+05 -8.794696E+05 -6.664481E-10 -6.767488E-10
       116  18 -2.461511E+06 -5.645883E+05 -2.269024E+05 -9.172120E+05 -2.634707E-10 -9.140353E-10
       116  19 -1.304176E+06 -1.172010E+05  9.874390E+04 -6.034516E+05 -2.878947E+04  2.009200E+04
       116  20 -1.231073E+06 -6.892689E+04  1.038722E+05 -5.600290E+05 -4.713205E+04  1.893786E+04
       116  21 -1.139074E+06 -6.200861E+04  9.275712E+04 -5.436536E+05 -6.502890E+04  1.657813E+04
       116  22 -1.798323E+06 -2.982199E+05 -1.915928E+04 -7.361625E+05 -2.373863E+04  2.198747E+04
       116  23 -1.808751E+06 -2.849780E+05 -3.455615E+04 -7.198179E+05 -4.314516E+04  2.043650E+04
       116  24 -1.800510E+06 -3.133163E+05 -6.705337E+04 -7.305256E+05 -6.210328E+04  1.768054E+04
       116  25 -2.292227E+06 -4.792234E+05 -1.370799E+05 -8.687778E+05 -1.869218E+04  2.388135E+04
       116  26 -2.386096E+06 -5.010040E+05 -1.730083E+05 -8.794703E+05 -3.916231E+04  2.193361E+04
       116  27 -2.461507E+06 -5.645869E+05 -2.268952E+05 -9.172129E+05 -5.918105E+04  1.878161E+04
       117   1 -1.047922E+06 -4.173992E+04  9.105003E+04 -5.747575E+05  8.544501E+04 -1.508844E+04
       117   2 -1.002387E+06  5.483865E+04  4.918746E+04 -4.539304E+05  1.421785E+05  7.704614E+03
       117   3 -1.033279E+06 -1.233897E+05 -1.037483E+05 -2.963899E+05  1.891160E+05  5.657197E+04
       117   4 -1.811658E+06 -2.882368E+05 -8.481549E+04 -7.456557E+05  7.484454E+04 -1.906891E+04
       117   5 -1.790024E+06 -2.814670E+05 -1.502356E+05 -7.140550E+05  1.548771E+05  1.246261E+04
       117   6 -1.849595E+06 -5.543714E+05 -3.453412E+05 -6.457178E+05  2.251003E+05  7.006416E+04
       117   7 -2.574819E+06 -5.347273E+05 -2.607204E+05 -9.163788E+05  6.425820E+04 -2.304570E+04
       117   8 -2.577036E+06 -6.176720E+05 -3.497068E+05 -9.738581E+05  1.675579E+05  1.721174E+04
       117   9 -2.665209E+06 -9.850880E+05 -5.869876E+05 -9.945604E+05  2.610323E+05  8.351857E+04
       117  10 -1.047930E+06 -4.174212E+04  9.103587E+04 -5.747564E+05 -3.725373E-10 -7.972463E-10
       117  11 -1.002409E+06  5.483315E+04  4.914930E+04 -4.539313E+05  1.869054E-10  1.374982E-09
       117  12 -1.033318E+06 -1.234028E+05 -1.038217E+05 -2.963985E+05  1.367422E-10  7.262301E-10
       117  13 -1.811664E+06 -2.882387E+05 -8.482672E+04 -7.456546E+05 -1.609632E-09 -1.385011E-10
       117  14 -1.790050E+06 -2.814736E+05 -1.502812E+05 -7.140566E+05 -1.114778E-09  1.003857E-09
       117  15 -1.849651E+06 -5.543904E+05 -3.454460E+05 -6.457305E+05  7.619905E-10  3.321784E-10
       117  16 -2.574824E+06 -5.347290E+05 -2.607292E+05 -9.163776E+05 -2.098119E-10 -5.576197E-11
       117  17 -2.577067E+06 -6.176799E+05 -3.497604E+05 -9.738605E+05 -1.105932E-09 -1.552168E-10
       117  18 -2.665285E+06 -9.851139E+05 -5.871295E+05 -9.945781E+05 -8.392865E-10 -6.893502E-10
       117  19 -1.047922E+06 -4.173992E+04  9.105003E+04 -5.747575E+05 -8.544501E+04  1.508844E+04
       117  20 -1.002387E+06  5.483865E+04  4.918746E+04 -4.539304E+05 -1.421785E+05 -7.704614E+03
       117  21 -1.033279E+06 -1.233897E+05 -1.037483E+05 -2.963899E+05 -1.891160E+05 -5.657197E+04
       117  22 -1.811658E+06 -2.882368E+05 -8.481549E+04 -7.456557E+05 -7.484454E+04  1.906891E+04
       117  23 -1.790024E+06 -2.814670E+05 -1.502356E+05 -7.140550E+05 -1.548771E+05 -1.246261E+04
       117  24 -1.849595E+06 -5.543714E+05 -3.453412E+05 -6.457178E+05 -2.251003E+05 -7.006416E+04
       117  25 -2.574819E+06 -5.347273E+05 -2.607204E+05 -9.163788E+05 -6.425820E+04  2.304570E+04
       117  26 -2.577036E+06 -6.176720E+05 -3.497068E+05 -9.738581E+05 -1.675579E+05 -1.721174E+04
       117  27 -2.665209E+06 -9.850880E+05 -5.869876E+05 -9.945604E+05 -2.610323E+05 -8.351857E+04
       118   1 -3.901657E+05 -3.423110E+04 -8.453802E+03  2.031011E+04  6.886996E+04  7.910708E+03
       118   2 -3.515820E+05 -1.299749E+05 -5.743913E+04 -5.142693E+03  5.123940E+04  2.484134E+04
       118   3 -2.850892E+05 -1.237971E+05 -6.943674E+04 -5.057269E+04  3.361740E+04  2.621067E+04
       118   4  2.019032E+05  1.127201E+05  1.346498E+05 -3.461007E+04  9.265668E+04  7.919719E+03
       118   5  1.866790E+05  1.479013E+03  6.162504E+04 -2.459154E+04  6.006709E+04  2.484252E+04
       118   6  2.019294E+05 -5.296339E+03  3.595061E+04 -3.454781E+04  2.748853E+04  2.620807E+04
       118   7  7.943005E+05  2.596573E+05  2.777320E+05 -8.958286E+04  1.164660E+05  7.924518E+03
       118   8  7.252116E+05  1.329149E+05  1.806718E+05 -4.405749E+04  6.890232E+04  2.484315E+04
       118   9  6.891712E+05  1.131897E+05  1.413242E+05 -1.851019E+04  2.135491E+04  2.620516E+04
       118  10 -3.901708E+05 -3.423244E+04 -8.462838E+03  2.030967E+04 -1.406383E-09  1.440929E-10
       118  11 -3.515850E+05 -1.299763E+05 -5.744523E+04 -5.143718E+03 -7.237565E-10 -3.351842E-10
       118  12 -2.850906E+05 -1.237981E+05 -6.944016E+04 -5.057340E+04 -3.247727E-10  1.001581E-10
       118  13  2.018940E+05  1.127177E+05  1.346335E+05 -3.461066E+04  1.077133E-09 -4.189082E-12
       118  14  1.866749E+05  1.477382E+03  6.161710E+04 -2.459275E+04 -1.664530E-09 -7.628115E-10
       118  15  2.019284E+05 -5.297280E+03  3.594790E+04 -3.454839E+04 -1.659789E-09  3.074387E-10
       118  16  7.942859E+05  2.596536E+05  2.777064E+05 -8.958360E+04 -4.867177E-10 -1.579087E-10
       118  17  7.252063E+05  1.329130E+05  1.806617E+05 -4.405887E+04  1.089687E-09 -1.797797E-10
       118  18  6.891706E+05  1.131889E+05  1.413220E+05 -1.851064E+04  5.668956E-10  3.220397E-10
       118  19 -3.901657E+05 -3.423110E+04 -8.453802E+03  2.031011E+04 -6.886996E+04 -7.910708E+03
       118  20 -3.515820E+05 -1.299749E+05 -5.743913E+04 -5.142693E+03 -5.123940E+04 -2.484134E+04
       118  21 -2.850892E+05 -1.237971E+05 -6.943674E+04 -5.057269E+04 -3.361740E+04 -2.621067E+04
       118  22  2.019032E+05  1.127201E+05  1.346498E+05 -3.461007E+04 -9.265668E+04 -7.919719E+03
       118  23  1.866790E+05  1.479013E+03  6.162504E+04 -2.459154E+04 -6.006709E+04 -2.484252E+04
       118  24  2.019294E+05 -5.296339E+03  3.595061E+04 -3.454781E+04 -2.748853E+04 -2.620807E+04
       118  25  7.943005E+05  2.596573E+05  2.777320E+05 -8.958286E+04 -1.164660E+05 -7.924518E+03
       118  26  7.252116E+05  1.329149E+05  1.806718E+05 -4.405749E+04 -6.890232E+04 -2.484315E+04
       118  27  6.891712E+05  1.131897E+05  1.413242E+05 -1.851019E+04 -2.135491E+04 -2.620516E+04
       119   1 -2.494223E+05 -1.026894E+05 -6.831263E+04 -3.279536E+04  2.414898E+04  2.319367E+04
       119   2 -1.983679E+05 -9.573710E+04 -6.959768E+04 -2.401746E+04  1.707612E+04  2.104262E+04
       119   3 -1.449470E+05 -8.324445E+04 -6.487786E+04 -3.580863E+04  1.000166E+04  1.818814E+04
       119   4  1.957151E+05  5.700645E+03  2.848279E+04 -3.469555E+04  2.243448E+04  2.319197E+04
       119   5  1.944814E+05 -1.530352E+02  1.546519E+04 -2.441111E+04  1.468139E+04  2.104135E+04
       119   6  1.957284E+05 -3.502880E+02  8.921659E+03 -3.469484E+04  6.927305E+03  1.818748E+04
       119   7  6.410383E+05  1.140775E+05  1.252664E+05 -3.659713E+04  2.071877E+04  2.319028E+04
       119   8  5.874755E+05  9.542083E+04  1.005189E+05 -2.480502E+04  1.228517E+04  2.104009E+04
       119   9  5.365128E+05  8.253622E+04  8.271432E+04 -3.358043E+04  3.851281E+03  1.818681E+04
       119  10 -2.494231E+05 -1.026901E+05 -6.831474E+04 -3.279581E+04 -1.746022E-09 -2.910675E-11
       119  11 -1.983684E+05 -9.573765E+04 -6.959906E+04 -2.401774E+04  7.078496E-10 -3.107725E-10
       119  12 -1.449472E+05 -8.324484E+04 -6.487867E+04 -3.580877E+04  2.121006E-09 -1.673589E-09
       119  13  1.957144E+05  5.699932E+03  2.848084E+04 -3.469597E+04 -1.079290E-09  3.651221E-10
       119  14  1.944810E+05 -1.535685E+02  1.546395E+04 -2.441136E+04  2.167991E-09 -1.553026E-10
       119  15  1.957283E+05 -3.506561E+02  8.920947E+03 -3.469494E+04 -1.515536E-09 -1.279951E-09
       119  16  6.410377E+05  1.140768E+05  1.252645E+05 -3.659751E+04  2.542929E-10  8.179189E-10
       119  17  5.874753E+05  9.542032E+04  1.005178E+05 -2.480523E+04  1.023511E-10  2.245766E-11
       119  18  5.365127E+05  8.253586E+04  8.271367E+04 -3.358048E+04 -3.209354E-09 -8.423493E-10
       119  19 -2.494223E+05 -1.026894E+05 -6.831263E+04 -3.279536E+04 -2.414898E+04 -2.319367E+04
       119  20 -1.983679E+05 -9.573710E+04 -6.959768E+04 -2.401746E+04 -1.707612E+04 -2.104262E+04
       119  21 -1.449470E+05 -8.324445E+04 -6.487786E+04 -3.580863E+04 -1.000166E+04 -1.818814E+04
       119  22  1.957151E+05  5.700645E+03  2.848279E+04 -3.469555E+04 -2.243448E+04 -2.319197E+04
       119  23  1.944814E+05 -1.530352E+02  1.546519E+04 -2.441111E+04 -1.468139E+04 -2.104135E+04
       119  24  1.957284E+05 -3.502880E+02  8.921659E+03 -3.469484E+04 -6.927305E+03 -1.818748E+04
       119  25  6.410383E+05  1.140775E+05  1.252664E+05 -3.659713E+04 -2.071877E+04 -2.319028E+04
       119  26  5.874755E+05  9.542083E+04  1.005189E+05 -2.480502E+04 -1.228517E+04 -2.104009E+04
       119  27  5.365128E+05  8.253622E+04  8.271432E+04 -3.358043E+04 -3.851281E+03 -1.818681E+04
       120   1 -1.039660E+05 -7.254168E+04 -5.775216E+04 -3.482048E+04  8.412019E+03  1.635522E+04
       120   2 -5.199111E+04 -6.016029E+04 -4.954607E+04 -2.451791E+04  6.520535E+03  1.334520E+04
       120   3  3.269100E+02 -4.746378E+04 -4.002603E+04 -3.478505E+04  4.627955E+03  1.030458E+04
       120   4  1.952596E+05  2.173639E+02  6.828629E+03 -3.469527E+04  5.539045E+03  1.635486E+04
       120   5  1.950912E+05 -6.230747E+01  3.878673E+03 -2.441070E+04  3.617205E+03  1.334524E+04
       120   6  1.952675E+05 -2.181419E+01  2.263058E+03 -3.469535E+04  1.694423E+03  1.030504E+04
       120   7  4.945693E+05  7.297052E+04  7.140416E+04 -3.457001E+04  2.664705E+03  1.635450E+04
       120   8  4.422308E+05  6.003165E+04  5.729983E+04 -2.430345E+04  7.127352E+02  1.334528E+04
       120   9  3.902438E+05  4.741764E+04  4.454991E+04 -3.460561E+04 -1.240017E+03  1.030549E+04
       120  10 -1.039661E+05 -7.254199E+04 -5.775279E+04 -3.482059E+04 -2.627954E-09 -8.392514E-10
       120  11 -5.199120E+04 -6.016049E+04 -4.954649E+04 -2.451798E+04 -1.575484E-09  1.707761E-09
       120  12  3.268585E+02 -4.746390E+04 -4.002627E+04 -3.478509E+04  2.364746E-09  7.869549E-10
       120  13  1.952595E+05  2.170684E+02  6.828069E+03 -3.469535E+04 -1.077060E-09 -6.846654E-10
       120  14  1.950911E+05 -6.250225E+01  3.878314E+03 -2.441074E+04 -1.584734E-09  1.124503E-09
       120  15  1.952675E+05 -2.192901E+01  2.262853E+03 -3.469536E+04  3.791628E-10  3.861746E-10
       120  16  4.945692E+05  7.297023E+04  7.140365E+04 -3.457004E+04  9.974775E-10 -5.156785E-10
       120  17  4.422307E+05  6.003146E+04  5.729950E+04 -2.430346E+04  2.434769E-09  6.913434E-10
       120  18  3.902438E+05  4.741753E+04  4.454971E+04 -3.460560E+04 -7.177637E-10  2.551247E-10
       120  19 -1.039660E+05 -7.254168E+04 -5.775216E+04 -3.482048E+04 -8.412019E+03 -1.635522E+04
       120  20 -5.199111E+04 -6.016029E+04 -4.954607E+04 -2.451791E+04 -6.520535E+03 -1.334520E+04
       120  21  3.269100E+02 -4.746378E+04 -4.002603E+04 -3.478505E+04 -4.627955E+03 -1.030458E+04
       120  22  1.952596E+05  2.173639E+02  6.828629E+03 -3.469527E+04 -5.539045E+03 -1.635486E+04
       120  23  1.950912E+05 -6.230747E+01  3.878673E+03 -2.441070E+04 -3.617205E+03 -1.334524E+04
       120  24  1.952675E+05 -2.181419E+01  2.263058E+03 -3.469535E+04 -1.694423E+03 -1.030504E+04
       120  25  4.945693E+05  7.297052E+04  7.140416E+04 -3.457001E+04 -2.664705E+03 -1.635450E+04
       120  26  4.422308E+05  6.003165E+04  5.729983E+04 -2.430345E+04 -7.127352E+02 -1.334528E+04
       120  27  3.902438E+05  4.741764E+04  4.454991E+04 -3.460561E+04  1.240017E+03 -1.030549E+04
       121   1  4.165265E+04 -3.731446E+04 -3.131008E+04 -3.472892E+04  4.255924E+03  8.527771E+03
       121   2  9.372121E+04 -2.468054E+04 -2.086398E+04 -2.443584E+04  3.727972E+03  5.481884E+03
       121   3  1.458596E+05 -1.201758E+04 -1.006925E+04 -3.469276E+04  3.199599E+03  2.435147E+03
       121   4  1.952091E+05  3.659829E+00  1.743549E+03 -3.469102E+04  1.332162E+03  8.528398E+03
       121   5  1.951770E+05 -5.974993E+00  1.069079E+03 -2.441613E+04  8.031652E+02  5.482671E+03
       121   6  1.952123E+05  1.373778E+01  7.439525E+02 -3.469102E+04  2.737903E+02  2.436105E+03
       121   7  3.487877E+05  3.732024E+04  3.479583E+04 -3.465310E+04 -1.592312E+03  8.529023E+03
       121   8  2.966425E+05  2.466792E+04  2.300156E+04 -2.439641E+04 -2.122113E+03  5.483457E+03
       121   9  2.445673E+05  1.204490E+04  1.155704E+04 -3.468929E+04 -2.652248E+03  2.437062E+03
       121  10  4.165262E+04 -3.731455E+04 -3.131025E+04 -3.472895E+04 -1.219272E-09 -5.816894E-10
       121  11  9.372119E+04 -2.468058E+04 -2.086406E+04 -2.443586E+04 -2.555311E-10 -6.205338E-10
       121  12  1.458595E+05 -1.201759E+04 -1.006928E+04 -3.469276E+04 -3.856202E-10  4.091631E-10
       121  13  1.952091E+05  3.581242E+00  1.743409E+03 -3.469103E+04 -1.141263E-09 -2.157651E-10
       121  14  1.951770E+05 -6.007448E+00  1.069021E+03 -2.441613E+04  1.636708E-09 -7.021700E-10
       121  15  1.952123E+05  1.373138E+01  7.439412E+02 -3.469102E+04  6.554093E-10 -1.870129E-10
       121  16  3.487877E+05  3.732016E+04  3.479569E+04 -3.465309E+04  2.355011E-10 -6.263630E-10
       121  17  2.966425E+05  2.466788E+04  2.300150E+04 -2.439640E+04  7.555725E-10 -2.684613E-10
       121  18  2.445673E+05  1.204489E+04  1.155701E+04 -3.468929E+04  1.365630E-09 -5.623628E-10
       121  19  4.165265E+04 -3.731446E+04 -3.131008E+04 -3.472892E+04 -4.255924E+03 -8.527771E+03
       121  20  9.372121E+04 -2.468054E+04 -2.086398E+04 -2.443584E+04 -3.727972E+03 -5.481884E+03
       121  21  1.458596E+05 -1.201758E+04 -1.006925E+04 -3.469276E+04 -3.199599E+03 -2.435147E+03
       121  22  1.952091E+05  3.659829E+00  1.743549E+03 -3.469102E+04 -1.332162E+03 -8.528398E+03
       121  23  1.951770E+05 -5.974993E+00  1.069079E+03 -2.441613E+04 -8.031652E+02 -5.482671E+03
       121  24  1.952123E+05  1.373778E+01  7.439525E+02 -3.469102E+04 -2.737903E+02 -2.436105E+03
       121  25  3.487877E+05  3.732024E+04  3.479583E+04 -3.465310E+04  1.592312E+03 -8.529023E+03
       121  26  2.966425E+05  2.466792E+04  2.300156E+04 -2.439641E+04  2.122113E+03 -5.483457E+03
       121  27  2.445673E+05  1.204490E+04  1.155704E+04 -3.468929E+04  2.652248E+03 -2.437062E+03
       122   1  1.872196E+05 -1.899503E+03 -9.100706E+02 -3.469747E+04  3.070347E+03  6.617425E+02
       122   2  2.393006E+05  1.073074E+04  1.021697E+04 -2.441759E+04  2.731950E+03 -2.384492E+03
       122   3  2.914197E+05  2.338110E+04  2.156570E+04 -3.468445E+04  2.393695E+03 -5.429738E+03
       122   4  1.952059E+05  1.378844E+01  6.718215E+02 -3.469037E+04  1.446043E+02  6.627293E+02
       122   5  1.951871E+05  3.027726E+00  6.810645E+02 -2.441695E+04 -1.929217E+02 -2.383582E+03
       122   6  1.952045E+05  1.259882E+01  9.116890E+02 -3.469036E+04 -5.302784E+02 -5.428896E+03
       122   7  2.031923E+05  1.927081E+03  2.253743E+03 -3.468327E+04 -2.781176E+03  6.637160E+02
       122   8  1.510754E+05 -1.072480E+04 -8.854923E+03 -2.441631E+04 -3.117589E+03 -2.382673E+03
       122   9  9.899804E+04 -2.335651E+04 -1.974283E+04 -3.469627E+04 -3.453805E+03 -5.428054E+03
       122  10  1.872196E+05 -1.899506E+03 -9.100891E+02 -3.469747E+04 -1.246727E-09  6.131878E-10
       122  11  2.393006E+05  1.073073E+04  1.021694E+04 -2.441758E+04  3.055500E-10  6.280111E-11
       122  12  2.914197E+05  2.338107E+04  2.156564E+04 -3.468444E+04 -1.272993E-09 -9.554185E-11
       122  13  1.952059E+05  1.378796E+01  6.718206E+02 -3.469037E+04 -7.669294E-11  6.645345E-10
       122  14  1.951871E+05  3.021614E+00  6.810538E+02 -2.441695E+04 -1.701504E-09  6.741009E-10
       122  15  1.952045E+05  1.256709E+01  9.116331E+02 -3.469037E+04 -3.318617E-09 -3.319784E-10
       122  16  2.031923E+05  1.927079E+03  2.253727E+03 -3.468326E+04  4.192271E-10  1.603606E-11
       122  17  1.510754E+05 -1.072481E+04 -8.854952E+03 -2.441631E+04 -5.734863E-10  8.399787E-10
       122  18  9.899802E+04 -2.335654E+04 -1.974291E+04 -3.469629E+04 -8.358197E-10  1.655399E-10
       122  19  1.872196E+05 -1.899503E+03 -9.100706E+02 -3.469747E+04 -3.070347E+03 -6.617425E+02
       122  20  2.393006E+05  1.073074E+04  1.021697E+04 -2.441759E+04 -2.731950E+03  2.384492E+03
       122  21  2.914197E+05  2.338110E+04  2.156570E+04 -3.468445E+04 -2.393695E+03  5.429738E+03
       122  22  1.952059E+05  1.378844E+01  6.718215E+02 -3.469037E+04 -1.446043E+02 -6.627293E+02
       122  23  1.951871E+05  3.027726E+00  6.810645E+02 -2.441695E+04  1.929217E+02  2.383582E+03
       122  24  1.952045E+05  1.259882E+01  9.116890E+02 -3.469036E+04  5.302784E+02  5.428896E+03
       122  25  2.031923E+05  1.927081E+03  2.253743E+03 -3.468327E+04  2.781176E+03 -6.637160E+02
       122  26  1.510754E+05 -1.072480E+04 -8.854923E+03 -2.441631E+04  3.117589E+03  2.382673E+03
       122  27  9.899804E+04 -2.335651E+04 -1.974283E+04 -3.469627E+04  3.453805E+03  5.428054E+03
       123   1  3.328283E+05  3.348886E+04  3.101126E+04 -3.466862E+04  2.217938E+03 -7.205510E+03
       123   2  3.848825E+05  4.611316E+04  4.284881E+04 -2.438436E+04  1.281437E+03 -1.024511E+04
       123   3  4.371040E+05  5.889469E+04  5.533531E+04 -3.465611E+04  3.455521E+02 -1.325673E+04
       123   4  1.952297E+05  2.494899E-01  1.125076E+03 -3.469250E+04 -7.149217E+02 -7.204783E+03
       123   5  1.951470E+05 -2.425908E+01  1.833831E+03 -2.441428E+04 -1.624433E+03 -1.024470E+04
       123   6  1.952237E+05  1.037932E+02  3.172829E+03 -3.469246E+04 -2.533251E+03 -1.325663E+04
       123   7  5.764900E+04 -3.348961E+04 -2.876221E+04 -3.471637E+04 -3.647141E+03 -7.204057E+03
       123   8  5.445401E+03 -4.616405E+04 -3.918325E+04 -2.444419E+04 -4.529427E+03 -1.024430E+04
       123   9 -4.660159E+04 -5.869095E+04 -4.899307E+04 -3.472879E+04 -5.410948E+03 -1.325653E+04
       123  10  3.328282E+05  3.348880E+04  3.101115E+04 -3.466861E+04 -1.557607E-10  1.460331E-10
       123  11  3.848824E+05  4.611305E+04  4.284861E+04 -2.438435E+04 -1.045842E-09 -2.445850E-10
       123  12  4.371040E+05  5.889450E+04  5.533498E+04 -3.465611E+04  9.397190E-10 -1.076523E-10
       123  13  1.952297E+05  1.936062E-01  1.124977E+03 -3.469250E+04 -2.083732E-09 -2.275452E-10
       123  14  1.951470E+05 -2.437250E+01  1.833629E+03 -2.441429E+04 -9.827056E-10 -3.585765E-10
       123  15  1.952237E+05  1.036028E+02  3.172487E+03 -3.469249E+04  1.159921E-09 -4.889063E-10
       123  16  5.764897E+04 -3.348967E+04 -2.876233E+04 -3.471639E+04 -2.222938E-10  2.791208E-10
       123  17  5.445351E+03 -4.616417E+04 -3.918349E+04 -2.444422E+04 -4.698628E-10 -2.830457E-10
       123  18 -4.660167E+04 -5.869115E+04 -4.899345E+04 -3.472885E+04 -6.833278E-10 -1.084905E-09
       123  19  3.328283E+05  3.348886E+04  3.101126E+04 -3.466862E+04 -2.217938E+03  7.205510E+03
       123  20  3.848825E+05  4.611316E+04  4.284881E+04 -2.438436E+04 -1.281437E+03  1.024511E+04
       123  21  4.371040E+05  5.889469E+04  5.533531E+04 -3.465611E+04 -3.455521E+02  1.325673E+04
       123  22  1.952297E+05  2.494899E-01  1.125076E+03 -3.469250E+04  7.149217E+02  7.204783E+03
       123  23  1.951470E+05 -2.425908E+01  1.833831E+03 -2.441428E+04  1.624433E+03  1.024470E+04
       123  24  1.952237E+05  1.037932E+02  3.172829E+03 -3.469246E+04  2.533251E+03  1.325663E+04
       123  25  5.764900E+04 -3.348961E+04 -2.876221E+04 -3.471637E+04  3.647141E+03  7.204057E+03
       123  26  5.445401E+03 -4.616405E+04 -3.918325E+04 -2.444419E+04  4.529427E+03  1.024430E+04
       123  27 -4.660159E+04 -5.869095E+04 -4.899307E+04 -3.472879E+04  5.410948E+03  1.325653E+04
       124   1  4.787654E+05  6.875935E+04  6.550796E+04 -3.420238E+04 -1.157549E+02 -1.508259E+04
       124   2  5.303538E+05  8.151808E+04  7.975338E+04 -2.460940E+04 -4.307484E+03 -1.795162E+04
       124   3  5.832067E+05  9.699175E+04  9.741292E+04 -3.557401E+04 -8.498483E+03 -2.018298E+04
       124   4  1.954404E+05 -1.587943E+02  4.131163E+03 -3.469286E+04 -3.177371E+03 -1.508274E+04
       124   5  1.948569E+05 -7.690296E+01  7.134559E+03 -2.441375E+04 -6.754859E+03 -1.795233E+04
       124   6  1.954294E+05  2.614444E+03  1.312711E+04 -3.469285E+04 -1.033127E+04 -2.018410E+04
       124   7 -8.780921E+04 -6.908224E+04 -5.725037E+04 -3.518311E+04 -6.237608E+03 -1.508288E+04
       124   8 -1.405345E+05 -8.167932E+04 -6.549092E+04 -2.421821E+04 -9.200929E+03 -1.795304E+04
       124   9 -1.922070E+05 -9.177282E+04 -7.116768E+04 -3.381226E+04 -1.216293E+04 -2.018522E+04
       124  10  4.787653E+05  6.875911E+04  6.550753E+04 -3.420238E+04 -7.128796E-10 -2.896364E-10
       124  11  5.303537E+05  8.151773E+04  7.975274E+04 -2.460946E+04 -1.949555E-09 -7.365341E-11
       124  12  5.832065E+05  9.699129E+04  9.741202E+04 -3.557414E+04 -9.575619E-10  7.245358E-10
       124  13  1.954404E+05 -1.590413E+02  4.130717E+03 -3.469290E+04 -2.162559E-09 -5.787474E-10
       124  14  1.948567E+05 -7.726132E+01  7.133868E+03 -2.441385E+04 -2.117998E-09 -8.727551E-12
       124  15  1.954292E+05  2.613977E+03  1.312615E+04 -3.469302E+04  6.871219E-10  4.839371E-10
       124  16 -8.780931E+04 -6.908249E+04 -5.725087E+04 -3.518318E+04 -3.312699E-10 -9.440631E-10
       124  17 -1.405347E+05 -8.167968E+04 -6.549169E+04 -2.421835E+04  4.860962E-10  5.526703E-11
       124  18 -1.922072E+05 -9.177330E+04 -7.116873E+04 -3.381246E+04  8.255600E-10  3.925517E-10
       124  19  4.787654E+05  6.875935E+04  6.550796E+04 -3.420238E+04  1.157549E+02  1.508259E+04
       124  20  5.303538E+05  8.151808E+04  7.975338E+04 -2.460940E+04  4.307484E+03  1.795162E+04
       124  21  5.832067E+05  9.699175E+04  9.741292E+04 -3.557401E+04  8.498483E+03  2.018298E+04
       124  22  1.954404E+05 -1.587943E+02  4.131163E+03 -3.469286E+04  3.177371E+03  1.508274E+04
       124  23  1.948569E+05 -7.690296E+01  7.134559E+03 -2.441375E+04  6.754859E+03  1.795233E+04
       124  24  1.954294E+05  2.614444E+03  1.312711E+04 -3.469285E+04  1.033127E+04  2.018410E+04
       124  25 -8.780921E+04 -6.908224E+04 -5.725037E+04 -3.518311E+04  6.237608E+03  1.508288E+04
       124  26 -1.405345E+05 -8.167932E+04 -6.549092E+04 -2.421821E+04  9.200929E+03  1.795304E+04
       124  27 -1.922070E+05 -9.177282E+04 -7.116768E+04 -3.381226E+04  1.216293E+04  2.018522E+04
       125   1  6.279287E+05  1.020206E+05  1.094993E+05 -2.716829E+04 -6.823839E+03 -2.307893E+04
       125   2  6.721924E+05  1.180616E+05  1.347409E+05 -3.351596E+04 -3.538299E+04 -2.211863E+04
       125   3  7.328772E+05  1.845736E+05  1.911994E+05 -5.985321E+04 -6.395206E+04 -7.063001E+03
       125   4  1.982947E+05 -2.455010E+03  1.656634E+04 -3.456145E+04 -1.266065E+04 -2.308102E+04
       125   5  1.912451E+05  6.562567E+02  2.838440E+04 -2.457680E+04 -2.766681E+04 -2.211785E+04
       125   6  1.982751E+05  5.190748E+04  6.202483E+04 -3.458112E+04 -4.268016E+04 -7.055930E+03
       125   7 -2.311660E+05 -1.069425E+05 -7.637737E+04 -4.194944E+04 -1.849347E+04 -2.308298E+04
       125   8 -2.894862E+05 -1.167643E+05 -7.798611E+04 -1.564466E+04 -1.995652E+04 -2.211684E+04
       125   9 -3.360637E+05 -8.077693E+04 -6.716821E+04 -9.330869E+03 -2.142647E+04 -7.047127E+03
       125  10  6.279285E+05  1.020200E+05  1.094982E+05 -2.716842E+04 -1.189681E-09  1.187447E-09
       125  11  6.721909E+05  1.180607E+05  1.347376E+05 -3.351659E+04 -2.437881E-09  1.008402E-09
       125  12  7.328728E+05  1.845725E+05  1.911917E+05 -5.985357E+04  5.910834E-10  5.316727E-10
       125  13  1.982944E+05 -2.455625E+03  1.656504E+04 -3.456169E+04 -1.361799E-10  4.457006E-10
       125  14  1.912441E+05  6.555260E+02  2.838204E+04 -2.457730E+04  1.102549E-09  8.660936E-10
       125  15  1.982731E+05  5.190693E+04  6.202131E+04 -3.458136E+04  9.187701E-11  6.443813E-11
       125  16 -2.311665E+05 -1.069432E+05 -7.637901E+04 -4.194978E+04  1.342020E-09  3.890300E-10
       125  17 -2.894867E+05 -1.167649E+05 -7.798778E+04 -1.564502E+04  2.217772E-10  3.832294E-10
       125  18 -3.360642E+05 -8.077710E+04 -6.716917E+04 -9.330990E+03 -3.742620E-10  6.183777E-10
       125  19  6.279287E+05  1.020206E+05  1.094993E+05 -2.716829E+04  6.823839E+03  2.307893E+04
       125  20  6.721924E+05  1.180616E+05  1.347409E+05 -3.351596E+04  3.538299E+04  2.211863E+04
       125  21  7.328772E+05  1.845736E+05  1.911994E+05 -5.985321E+04  6.395206E+04  7.063001E+03
       125  22  1.982947E+05 -2.455010E+03  1.656634E+04 -3.456145E+04  1.266065E+04  2.308102E+04
       125  23  1.912451E+05  6.562567E+02  2.838440E+04 -2.457680E+04  2.766681E+04  2.211785E+04
       125  24  1.982751E+05  5.190748E+04  6.202483E+04 -3.458112E+04  4.268016E+04  7.055930E+03
       125  25 -2.311660E+05 -1.069425E+05 -7.637737E+04 -4.194944E+04  1.849347E+04  2.308298E+04
       125  26 -2.894862E+05 -1.167643E+05 -7.798611E+04 -1.564466E+04  1.995652E+04  2.211684E+04
       125  27 -3.360637E+05 -8.077693E+04 -6.716821E+04 -9.330869E+03  2.142647E+04  7.047127E+03
       126   1  5.504596E+05  1.861495E+06  5.491269E+05 -3.382531E+05  2.298114E+04  1.123953E+05
       126   2  3.729147E+05  1.381976E+06  3.694991E+05 -2.301672E+05  6.695634E+04  4.286862E+04
       126   3  2.564597E+05  9.270497E+05  2.503390E+05 -3.033766E+05  5.574160E+04 -2.667452E+04
       126   4  5.524732E+04 -1.326928E+05  6.555714E+04 -3.091437E+05  2.309096E+04  4.356413E+04
       126   5  1.015985E+03 -1.401076E+05  3.116211E+04 -2.185358E+05  6.699803E+04  2.720476E+04
       126   6 -1.242797E+03 -1.322775E+05  2.044415E+04 -3.092364E+05  5.565835E+04  1.077547E+04
       126   7 -4.402511E+05 -2.123243E+06 -4.182813E+05 -2.801258E+05  2.319457E+04 -2.504725E+04
       126   8 -3.710390E+05 -1.660032E+06 -3.073184E+05 -2.069317E+05  6.703921E+04  1.157876E+04
       126   9 -2.590187E+05 -1.190550E+06 -2.095123E+05 -3.150852E+05  5.557431E+04  4.816247E+04
       126  10  5.504556E+05  1.861481E+06  5.491023E+05 -3.382552E+05  6.288745E-10  1.505599E-09
       126  11  3.729094E+05  1.381973E+06  3.694872E+05 -2.301695E+05  1.221864E-09 -1.625288E-09
       126  12  2.564562E+05  9.270481E+05  2.503318E+05 -3.033754E+05  1.390590E-09 -1.505574E-09
       126  13  5.524623E+04 -1.326950E+05  6.555257E+04 -3.091446E+05 -7.659931E-10 -2.289731E-11
       126  14  1.010965E+03 -1.401096E+05  3.115228E+04 -2.185372E+05  9.950162E-10 -1.640088E-09
       126  15 -1.246155E+03 -1.322785E+05  2.043811E+04 -3.092369E+05 -9.910527E-10 -6.244465E-10
       126  16 -4.402519E+05 -2.123244E+06 -4.182835E+05 -2.801253E+05  1.441866E-10 -1.317938E-09
       126  17 -3.710438E+05 -1.660034E+06 -3.073271E+05 -2.069323E+05  1.109352E-09 -8.441882E-10
       126  18 -2.590226E+05 -1.190553E+06 -2.095225E+05 -3.150874E+05  1.249782E-09  1.426690E-09
       126  19  5.504596E+05  1.861495E+06  5.491269E+05 -3.382531E+05 -2.298114E+04 -1.123953E+05
       126  20  3.729147E+05  1.381976E+06  3.694991E+05 -2.301672E+05 -6.695634E+04 -4.286862E+04
       126  21  2.564597E+05  9.270497E+05  2.503390E+05 -3.033766E+05 -5.574160E+04  2.667452E+04
       126  22  5.524732E+04 -1.326928E+05  6.555714E+04 -3.091437E+05 -2.309096E+04 -4.356413E+04
       126  23  1.015985E+03 -1.401076E+05  3.116211E+04 -2.185358E+05 -6.699803E+04 -2.720476E+04
       126  24 -1.242797E+03 -1.322775E+05  2.044415E+04 -3.092364E+05 -5.565835E+04 -1.077547E+04
       126  25 -4.402511E+05 -2.123243E+06 -4.182813E+05 -2.801258E+05 -2.319457E+04  2.504725E+04
       126  26 -3.710390E+05 -1.660032E+06 -3.073184E+05 -2.069317E+05 -6.703921E+04 -1.157876E+04
       126  27 -2.590187E+05 -1.190550E+06 -2.095123E+05 -3.150852E+05 -5.557431E+04 -4.816247E+04
       127   1  1.712881E+05  5.519290E+05  1.675163E+05 -3.124686E+05  3.529400E+04 -1.466985E+04
       127   2  5.454480E+04  8.441965E+04  6.237340E+04 -2.182641E+05  1.182853E+04 -2.254712E+04
       127   3 -5.597385E+04 -3.812371E+05 -3.633321E+04 -3.078496E+05 -1.214457E+04 -3.042645E+04
       127   4  3.952439E+03 -1.351735E+05  1.782016E+04 -3.097637E+05  3.523924E+04  7.638480E+03
       127   5  9.277544E+02 -1.359250E+05  1.464206E+04 -2.178675E+05  1.177008E+04  2.460778E+02
       127   6  4.058215E+03 -1.351123E+05  1.757431E+04 -3.097636E+05 -1.220749E+04 -7.154096E+03
       127   7 -1.634143E+05 -8.218326E+05 -1.319025E+05 -3.070615E+05  3.518465E+04  2.992245E+04
       127   8 -5.269222E+04 -3.562230E+05 -3.309021E+04 -2.174709E+05  1.171166E+04  2.303129E+04
       127   9  6.408654E+04  1.110705E+05  7.148018E+04 -3.116784E+05 -1.227054E+04  1.612737E+04
       127  10  1.712867E+05  5.519285E+05  1.675136E+05 -3.124682E+05 -5.710420E-11  1.117888E-09
       127  11  5.454452E+04  8.441907E+04  6.237218E+04 -2.182639E+05 -1.893433E-10 -2.270742E-09
       127  12 -5.597426E+04 -3.812382E+05 -3.633523E+04 -3.078499E+05  1.143341E-09 -3.851948E-10
       127  13  3.951089E+03 -1.351739E+05  1.781771E+04 -3.097639E+05  8.589328E-10 -5.470948E-12
       127  14  9.276056E+02 -1.359251E+05  1.464180E+04 -2.178675E+05  1.616610E-09 -2.488074E-09
       127  15  4.058041E+03 -1.351124E+05  1.757393E+04 -3.097637E+05  2.337788E-10 -7.797720E-10
       127  16 -1.634159E+05 -8.218339E+05 -1.319065E+05 -3.070624E+05  1.133546E-09 -5.431981E-10
       127  17 -5.269251E+04 -3.562236E+05 -3.309146E+04 -2.174712E+05  8.364639E-10 -1.442087E-09
       127  18  6.408630E+04  1.110702E+05  7.147941E+04 -3.116782E+05  5.944316E-10  3.367652E-10
       127  19  1.712881E+05  5.519290E+05  1.675163E+05 -3.124686E+05 -3.529400E+04  1.466985E+04
       127  20  5.454480E+04  8.441965E+04  6.237340E+04 -2.182641E+05 -1.182853E+04  2.254712E+04
       127  21 -5.597385E+04 -3.812371E+05 -3.633321E+04 -3.078496E+05  1.214457E+04  3.042645E+04
       127  22  3.952439E+03 -1.351735E+05  1.782016E+04 -3.097637E+05 -3.523924E+04 -7.638480E+03
       127  23  9.277544E+02 -1.359250E+05  1.464206E+04 -2.178675E+05 -1.177008E+04 -2.460778E+02
       127  24  4.058215E+03 -1.351123E+05  1.757431E+04 -3.097636E+05  1.220749E+04  7.154096E+03
       127  25 -1.634143E+05 -8.218326E+05 -1.319025E+05 -3.070615E+05 -3.518465E+04 -2.992245E+04
       127  26 -5.269222E+04 -3.562230E+05 -3.309021E+04 -2.174709E+05 -1.171166E+04 -2.303129E+04
       127  27  6.408654E+04  1.110705E+05  7.148018E+04 -3.116784E+05  1.227054E+04 -1.612737E+04
       128   1 -1.514066E+05 -7.500164E+05 -1.145549E+05 -3.156258E+05 -3.168860E+04 -4.530360E+04
       128   2 -2.631993E+05 -1.220051E+06 -2.109049E+05 -2.073181E+05 -4.630805E+04 -1.911929E+04
       128   3 -3.318286E+05 -1.682892E+06 -3.136524E+05 -2.808906E+05 -1.686967E+04  7.122274E+03
       128   4 -9.303677E+02 -1.323544E+05  2.004848E+04 -3.093603E+05 -3.177942E+04 -1.024113E+04
       128   5  1.380363E+03 -1.396501E+05  3.045099E+04 -2.183809E+05 -4.628595E+04 -2.631219E+04
       128   6  5.416292E+04 -1.326489E+05  6.380682E+04 -3.092495E+05 -1.677056E+04 -4.230625E+04
       128   7  1.495214E+05  4.856683E+05  1.546336E+05 -3.030881E+05 -3.186948E+04  2.485581E+04
       128   8  2.658810E+05  9.418400E+05  2.717337E+05 -2.294624E+05 -4.626362E+04 -3.351746E+04
       128   9  4.399814E+05  1.419798E+06  4.411012E+05 -3.376780E+05 -1.666707E+04 -9.185803E+04
       128  10 -1.514083E+05 -7.500189E+05 -1.145607E+05 -3.156269E+05  1.103080E-09 -1.103936E-09
       128  11 -2.632017E+05 -1.220052E+06 -2.109096E+05 -2.073188E+05  1.007569E-09 -3.219013E-09
       128  12 -3.318289E+05 -1.682893E+06 -3.136530E+05 -2.808905E+05 -4.569895E-10 -2.235340E-10
       128  13 -9.314805E+02 -1.323548E+05  2.004638E+04 -3.093605E+05 -6.607387E-10  2.139553E-12
       128  14  1.377876E+03 -1.396514E+05  3.044566E+04 -2.183819E+05  3.270089E-10 -2.122772E-09
       128  15  5.416214E+04 -1.326509E+05  6.380293E+04 -3.092501E+05 -8.277097E-10 -5.105545E-10
       128  16  1.495201E+05  4.856673E+05  1.546305E+05 -3.030875E+05 -2.301006E-10  1.661485E-09
       128  17  2.658784E+05  9.418382E+05  2.717276E+05 -2.294637E+05 -1.878930E-10  2.160481E-10
       128  18  4.399789E+05  1.419789E+06  4.410848E+05 -3.376792E+05 -5.461594E-10  7.683626E-11
       128  19 -1.514066E+05 -7.500164E+05 -1.145549E+05 -3.156258E+05  3.168860E+04  4.530360E+04
       128  20 -2.631993E+05 -1.220051E+06 -2.109049E+05 -2.073181E+05  4.630805E+04  1.911929E+04
       128  21 -3.318286E+05 -1.682892E+06 -3.136524E+05 -2.808906E+05  1.686967E+04 -7.122274E+03
       128  22 -9.303677E+02 -1.323544E+05  2.004848E+04 -3.093603E+05  3.177942E+04  1.024113E+04
       128  23  1.380363E+03 -1.396501E+05  3.045099E+04 -2.183809E+05  4.628595E+04  2.631219E+04
       128  24  5.416292E+04 -1.326489E+05  6.380682E+04 -3.092495E+05  1.677056E+04  4.230625E+04
       128  25  1.495214E+05  4.856683E+05  1.546336E+05 -3.030881E+05  3.186948E+04 -2.485581E+04
       128  26  2.658810E+05  9.418400E+05  2.717337E+05 -2.294624E+05  4.626362E+04  3.351746E+04
       128  27  4.399814E+05  1.419798E+06  4.411012E+05 -3.376780E+05  1.666707E+04  9.185803E+04
       129   1 -1.604956E+06 -5.517550E+05 -3.127266E+05 -5.993265E+05 -1.369233E+05 -4.338013E+04
       129   2 -1.555101E+06 -3.584251E+05 -1.877007E+05 -5.864259E+05 -8.786034E+04 -7.862201E+03
       129   3 -1.548596E+06 -3.143424E+05 -1.402630E+05 -5.561175E+05 -3.338366E+04  1.326802E+04
       129   4 -1.151057E+06 -3.169380E+05 -1.793047E+05 -4.099154E+05 -1.170919E+05 -3.594636E+04
       129   5 -1.120882E+06 -1.745248E+05 -7.801528E+04 -4.445442E+05 -8.091021E+04 -5.257013E+03
       129   6 -1.131463E+06 -1.787522E+05 -4.405261E+04 -4.617780E+05 -3.931956E+04  1.103950E+04
       129   7 -6.969468E+05 -8.204789E+04 -4.590091E+04 -2.203611E+05 -9.724471E+04 -2.850148E+04
       129   8 -6.864740E+05  9.404586E+03  3.165545E+04 -3.025663E+05 -7.395477E+04 -2.649199E+03
       129   9 -7.141548E+05 -4.315842E+04  5.214707E+04 -3.673846E+05 -4.525984E+04  8.809797E+03
       129  10 -1.604977E+06 -5.517620E+05 -3.127655E+05 -5.993313E+05 -9.644338E-10  1.840610E-10
       129  11 -1.555110E+06 -3.584272E+05 -1.877153E+05 -5.864265E+05  1.768103E-09 -1.425131E-10
       129  12 -1.548597E+06 -3.143429E+05 -1.402655E+05 -5.561171E+05  1.214022E-10  4.545957E-10
       129  13 -1.151072E+06 -3.169431E+05 -1.793329E+05 -4.099188E+05  7.982598E-10  3.251159E-10
       129  14 -1.120889E+06 -1.745266E+05 -7.802766E+04 -4.445446E+05 -6.843051E-10  2.862760E-10
       129  15 -1.131464E+06 -1.787527E+05 -4.405575E+04 -4.617777E+05  7.639381E-12  1.571348E-10
       129  16 -6.969571E+05 -8.205130E+04 -4.592023E+04 -2.203633E+05 -4.051921E-10 -1.056606E-10
       129  17 -6.864799E+05  9.403108E+03  3.164514E+04 -3.025665E+05  1.159508E-09  1.714603E-10
       129  18 -7.141570E+05 -4.315905E+04  5.214307E+04 -3.673843E+05 -5.278152E-10  9.333472E-11
       129  19 -1.604956E+06 -5.517550E+05 -3.127266E+05 -5.993265E+05  1.369233E+05  4.338013E+04
       129  20 -1.555101E+06 -3.584251E+05 -1.877007E+05 -5.864259E+05  8.786034E+04  7.862201E+03
       129  21 -1.548596E+06 -3.143424E+05 -1.402630E+05 -5.561175E+05  3.338366E+04 -1.326802E+04
       129  22 -1.151057E+06 -3.169380E+05 -1.793047E+05 -4.099154E+05  1.170919E+05  3.594636E+04
       129  23 -1.120882E+06 -1.745248E+05 -7.801528E+04 -4.445442E+05  8.091021E+04  5.257013E+03
       129  24 -1.131463E+06 -1.787522E+05 -4.405261E+04 -4.617780E+05  3.931956E+04 -1.103950E+04
       129  25 -6.969468E+05 -8.204789E+04 -4.590091E+04 -2.203611E+05  9.724471E+04  2.850148E+04
       129  26 -6.864740E+05  9.404586E+03  3.165545E+04 -3.025663E+05  7.395477E+04  2.649199E+03
       129  27 -7.141548E+05 -4.315842E+04  5.214707E+04 -3.673846E+05  4.525984E+04 -8.809797E+03
       130   1 -1.486064E+06 -3.284848E+05 -1.218498E+05 -5.555413E+05 -3.091781E+04  1.071811E+04
       130   2 -1.443239E+06 -2.932617E+05 -9.284212E+04 -5.340248E+05 -2.040222E+04  1.215352E+04
       130   3 -1.389552E+06 -2.810475E+05 -7.318453E+04 -5.280542E+05 -9.640894E+03  1.293285E+04
       130   4 -1.125685E+06 -1.917479E+05 -3.482666E+04 -4.538930E+05 -3.260799E+04  1.008264E+04
       130   5 -1.130615E+06 -1.763974E+05 -1.795485E+04 -4.475809E+05 -2.267566E+04  1.129980E+04
       130   6 -1.124566E+06 -1.839364E+05 -9.965703E+03 -4.568150E+05 -1.249850E+04  1.186068E+04
       130   7 -7.651779E+05 -5.500050E+04  5.218694E+04 -3.521903E+05 -3.429923E+04  9.446746E+03
       130   8 -8.178948E+05 -5.952626E+04  5.692510E+04 -3.610973E+05 -2.495035E+04  1.044561E+04
       130   9 -8.595125E+05 -8.682150E+04  5.324770E+04 -3.855486E+05 -1.535743E+04  1.078803E+04
       130  10 -1.486065E+06 -3.284852E+05 -1.218519E+05 -5.555411E+05  9.514513E-10  6.035534E-10
       130  11 -1.443239E+06 -2.932620E+05 -9.284318E+04 -5.340246E+05 -1.282858E-09  1.495414E-10
       130  12 -1.389552E+06 -2.810477E+05 -7.318502E+04 -5.280541E+05 -1.107661E-09  4.436045E-10
       130  13 -1.125686E+06 -1.917483E+05 -3.482885E+04 -4.538927E+05  3.386416E-10  9.919867E-11
       130  14 -1.130616E+06 -1.763977E+05 -1.795606E+04 -4.475807E+05  2.202020E-10  6.996175E-11
       130  15 -1.124566E+06 -1.839366E+05 -9.966261E+03 -4.568149E+05 -4.770255E-10  3.792728E-10
       130  16 -7.651792E+05 -5.500092E+04  5.218456E+04 -3.521900E+05 -1.756289E-09 -1.224131E-10
       130  17 -8.178955E+05 -5.952655E+04  5.692372E+04 -3.610971E+05 -6.745987E-10  8.556096E-12
       130  18 -8.595128E+05 -8.682169E+04  5.324704E+04 -3.855485E+05 -1.124626E-10  1.485392E-10
       130  19 -1.486064E+06 -3.284848E+05 -1.218498E+05 -5.555413E+05  3.091781E+04 -1.071811E+04
       130  20 -1.443239E+06 -2.932617E+05 -9.284212E+04 -5.340248E+05  2.040222E+04 -1.215352E+04
       130  21 -1.389552E+06 -2.810475E+05 -7.318453E+04 -5.280542E+05  9.640894E+03 -1.293285E+04
       130  22 -1.125685E+06 -1.917479E+05 -3.482666E+04 -4.538930E+05  3.260799E+04 -1.008264E+04
       130  23 -1.130615E+06 -1.763974E+05 -1.795485E+04 -4.475809E+05  2.267566E+04 -1.129980E+04
       130  24 -1.124566E+06 -1.839364E+05 -9.965703E+03 -4.568150E+05  1.249850E+04 -1.186068E+04
       130  25 -7.651779E+05 -5.500050E+04  5.218694E+04 -3.521903E+05  3.429923E+04 -9.446746E+03
       130  26 -8.178948E+05 -5.952626E+04  5.692510E+04 -3.610973E+05  2.495035E+04 -1.044561E+04
       130  27 -8.595125E+05 -8.682150E+04  5.324770E+04 -3.855486E+05  1.535743E+04 -1.078803E+04
       131   1 -1.347238E+06 -2.674900E+05 -6.073217E+04 -5.174878E+05 -7.735462E+03  1.157132E+04
       131   2 -1.304912E+06 -2.409710E+05 -4.556879E+04 -4.951957E+05 -4.507262E+03  9.360152E+03
       131   3 -1.247815E+06 -2.301503E+05 -3.209358E+04 -4.902980E+05 -1.266080E+03  7.112699E+03
       131   4 -1.124048E+06 -1.846683E+05 -7.580074E+03 -4.563498E+05 -1.041194E+04  1.056738E+04
       131   5 -1.131402E+06 -1.766179E+05 -4.143447E+03 -4.477272E+05 -7.215601E+03  8.344601E+03
       131   6 -1.123983E+06 -1.842595E+05 -2.369416E+03 -4.564997E+05 -4.006471E+03  6.085492E+03
       131   7 -9.008064E+05 -1.018426E+05  4.556880E+04 -3.951914E+05 -1.308949E+04  9.563032E+03
       131   8 -9.578614E+05 -1.122625E+05  3.727989E+04 -4.002464E+05 -9.924773E+03  7.328738E+03
       131   9 -1.000136E+06 -1.383677E+05  2.735367E+04 -4.226954E+05 -6.747457E+03  5.058063E+03
       131  10 -1.347238E+06 -2.674901E+05 -6.073254E+04 -5.174877E+05  1.534967E-09  5.793878E-10
       131  11 -1.304912E+06 -2.409711E+05 -4.556899E+04 -4.951957E+05  3.763289E-09  7.340984E-10
       131  12 -1.247815E+06 -2.301503E+05 -3.209368E+04 -4.902979E+05  2.190168E-09  1.285876E-09
       131  13 -1.124048E+06 -1.846684E+05 -7.580487E+03 -4.563497E+05  1.926641E-09  5.862940E-10
       131  14 -1.131402E+06 -1.766180E+05 -4.143676E+03 -4.477271E+05  4.026686E-09  8.845195E-10
       131  15 -1.123983E+06 -1.842596E+05 -2.369515E+03 -4.564997E+05  1.447673E-09  7.129826E-10
       131  16 -9.008066E+05 -1.018428E+05  4.556831E+04 -3.951913E+05  8.315162E-10  6.707990E-10
       131  17 -9.578616E+05 -1.122626E+05  3.727960E+04 -4.002463E+05  3.673446E-09  8.696511E-10
       131  18 -1.000136E+06 -1.383677E+05  2.735354E+04 -4.226954E+05  4.300924E-10  3.865283E-10
       131  19 -1.347238E+06 -2.674900E+05 -6.073217E+04 -5.174878E+05  7.735462E+03 -1.157132E+04
       131  20 -1.304912E+06 -2.409710E+05 -4.556879E+04 -4.951957E+05  4.507262E+03 -9.360152E+03
       131  21 -1.247815E+06 -2.301503E+05 -3.209358E+04 -4.902980E+05  1.266080E+03 -7.112699E+03
       131  22 -1.124048E+06 -1.846683E+05 -7.580074E+03 -4.563498E+05  1.041194E+04 -1.056738E+04
       131  23 -1.131402E+06 -1.766179E+05 -4.143447E+03 -4.477272E+05  7.215601E+03 -8.344601E+03
       131  24 -1.123983E+06 -1.842595E+05 -2.369416E+03 -4.564997E+05  4.006471E+03 -6.085492E+03
       131  25 -9.008064E+05 -1.018426E+05  4.556880E+04 -3.951914E+05  1.308949E+04 -9.563032E+03
       131  26 -9.578614E+05 -1.122625E+05  3.727989E+04 -4.002464E+05  9.924773E+03 -7.328738E+03
       131  27 -1.000136E+06 -1.383677E+05  2.735367E+04 -4.226954E+05  6.747457E+03 -5.058063E+03
       132   1 -1.206546E+06 -2.149130E+05 -2.140470E+04 -4.790909E+05 -2.561395E+02  5.464327E+03
       132   2 -1.164179E+06 -1.887541E+05 -9.022380E+03 -4.566539E+05  1.498258E+03  2.643233E+03
       132   3 -1.106634E+06 -1.779030E+05  2.896576E+03 -4.517389E+05  3.253601E+03 -1.807568E+02
       132   4 -1.123910E+06 -1.843025E+05 -1.851428E+03 -4.564791E+05 -2.992078E+03  4.438922E+03
       132   5 -1.131495E+06 -1.766409E+05 -1.221894E+03 -4.477203E+05 -1.240301E+03  1.616914E+03
       132   6 -1.123906E+06 -1.842867E+05 -1.053644E+03 -4.564846E+05  5.123581E+02 -1.207994E+03
       132   7 -1.041266E+06 -1.536917E+05  1.770134E+04 -4.338645E+05 -5.728407E+03  3.413371E+03
       132   8 -1.098811E+06 -1.645276E+05  6.578493E+03 -4.387864E+05 -3.979002E+03  5.905425E+02
       132   9 -1.141178E+06 -1.906703E+05 -5.003804E+03 -4.612301E+05 -2.228775E+03 -2.235191E+03
       132  10 -1.206546E+06 -2.149130E+05 -2.140475E+04 -4.790909E+05  2.417059E-09  1.152106E-09
       132  11 -1.164179E+06 -1.887541E+05 -9.022397E+03 -4.566539E+05  5.846704E-09  1.632438E-09
       132  12 -1.106634E+06 -1.779030E+05  2.896556E+03 -4.517389E+05  5.345729E-09  3.666872E-12
       132  13 -1.123910E+06 -1.843026E+05 -1.851482E+03 -4.564790E+05  1.289633E-09  8.013108E-10
       132  14 -1.131495E+06 -1.766409E+05 -1.221902E+03 -4.477203E+05  3.615134E-09  1.235582E-09
       132  15 -1.123906E+06 -1.842867E+05 -1.053647E+03 -4.564846E+05  2.027481E-09  4.352360E-11
       132  16 -1.041266E+06 -1.536917E+05  1.770126E+04 -4.338645E+05  1.016214E-09  1.106993E-09
       132  17 -1.098811E+06 -1.645276E+05  6.578463E+03 -4.387864E+05  1.627592E-09  8.778102E-10
       132  18 -1.141178E+06 -1.906703E+05 -5.003823E+03 -4.612301E+05 -4.499783E-10 -2.748298E-11
       132  19 -1.206546E+06 -2.149130E+05 -2.140470E+04 -4.790909E+05  2.561395E+02 -5.464327E+03
       132  20 -1.164179E+06 -1.887541E+05 -9.022380E+03 -4.566539E+05 -1.498258E+03 -2.643233E+03
       132  21 -1.106634E+06 -1.779030E+05  2.896576E+03 -4.517389E+05 -3.253601E+03  1.807568E+02
       132  22 -1.123910E+06 -1.843025E+05 -1.851428E+03 -4.564791E+05  2.992078E+03 -4.438922E+03
       132  23 -1.131495E+06 -1.766409E+05 -1.221894E+03 -4.477203E+05  1.240301E+03 -1.616914E+03
       132  24 -1.123906E+06 -1.842867E+05 -1.053644E+03 -4.564846E+05 -5.123581E+02  1.207994E+03
       132  25 -1.041266E+06 -1.536917E+05  1.770134E+04 -4.338645E+05  5.728407E+03 -3.413371E+03
       132  26 -1.098811E+06 -1.645276E+05  6.578493E+03 -4.387864E+05  3.979002E+03 -5.905425E+02
       132  27 -1.141178E+06 -1.906703E+05 -5.003804E+03 -4.612301E+05  2.228775E+03  2.235191E+03
       133   1 -1.065417E+06 -1.625439E+05  1.303148E+04 -4.404726E+05  4.098047E+03 -1.891423E+03
       133   2 -1.023109E+06 -1.364435E+05  2.433650E+04 -4.180627E+05  5.999012E+03 -4.656572E+03
       133   3 -9.656664E+05 -1.256382E+05  3.506741E+04 -4.131481E+05  7.898113E+03 -7.415073E+03
       133   4 -1.123916E+06 -1.842820E+05 -1.108935E+03 -4.564798E+05  1.358162E+03 -2.918202E+03
       133   5 -1.131486E+06 -1.766470E+05 -1.533484E+03 -4.477273E+05  3.264778E+03 -5.681479E+03
       133   6 -1.123923E+06 -1.843084E+05 -2.536354E+03 -4.564714E+05  5.169456E+03 -8.438120E+03
       133   7 -1.182413E+06 -2.060200E+05 -1.524976E+04 -4.724858E+05 -1.381473E+03 -3.944886E+03
       133   8 -1.239852E+06 -2.168500E+05 -2.740456E+04 -4.773875E+05  5.310385E+02 -6.706201E+03
       133   9 -1.282156E+06 -2.429772E+05 -4.014216E+04 -4.997849E+05  2.441538E+03 -9.460890E+03
       133  10 -1.065417E+06 -1.625439E+05  1.303144E+04 -4.404726E+05 -1.928230E-10 -7.858748E-10
       133  11 -1.023109E+06 -1.364436E+05  2.433640E+04 -4.180626E+05  1.998693E-09  6.491359E-10
       133  12 -9.656665E+05 -1.256382E+05  3.506719E+04 -4.131480E+05 -8.962961E-11  4.894235E-10
       133  13 -1.123916E+06 -1.842820E+05 -1.108955E+03 -4.564798E+05  1.238939E-09 -3.758762E-10
       133  14 -1.131486E+06 -1.766470E+05 -1.533564E+03 -4.477273E+05 -2.784681E-10  8.866948E-11
       133  15 -1.123923E+06 -1.843085E+05 -2.536538E+03 -4.564713E+05  1.321536E-09 -9.324162E-11
       133  16 -1.182413E+06 -2.060201E+05 -1.524979E+04 -4.724858E+05  4.454204E-10  4.040586E-10
       133  17 -1.239852E+06 -2.168500E+05 -2.740464E+04 -4.773875E+05  1.027540E-09  4.337442E-10
       133  18 -1.282156E+06 -2.429773E+05 -4.014234E+04 -4.997849E+05 -1.299078E-09 -8.404309E-10
       133  19 -1.065417E+06 -1.625439E+05  1.303148E+04 -4.404726E+05 -4.098047E+03  1.891423E+03
       133  20 -1.023109E+06 -1.364435E+05  2.433650E+04 -4.180627E+05 -5.999012E+03  4.656572E+03
       133  21 -9.656664E+05 -1.256382E+05  3.506741E+04 -4.131481E+05 -7.898113E+03  7.415073E+03
       133  22 -1.123916E+06 -1.842820E+05 -1.108935E+03 -4.564798E+05 -1.358162E+03  2.918202E+03
       133  23 -1.131486E+06 -1.766470E+05 -1.533484E+03 -4.477273E+05 -3.264778E+03  5.681479E+03
       133  24 -1.123923E+06 -1.843084E+05 -2.536354E+03 -4.564714E+05 -5.169456E+03  8.438120E+03
       133  25 -1.182413E+06 -2.060200E+05 -1.524976E+04 -4.724858E+05  1.381473E+03  3.944886E+03
       133  26 -1.239852E+06 -2.168500E+05 -2.740456E+04 -4.773875E+05 -5.310385E+02  6.706201E+03
       133  27 -1.282156E+06 -2.429772E+05 -4.014216E+04 -4.997849E+05 -2.441538E+03  9.460890E+03
       134   1 -9.246914E+05 -1.103636E+05  4.442854E+04 -4.020437E+05  9.048013E+03 -9.004342E+03
       134   2 -8.825596E+05 -8.434611E+04  5.348387E+04 -3.796557E+05  1.309185E+04 -1.093359E+04
       134   3 -8.258964E+05 -7.415160E+04  6.020288E+04 -3.745573E+05  1.712071E+04 -1.281889E+04
       134   4 -1.124038E+06 -1.842429E+05 -3.310857E+03 -4.564967E+05  6.316134E+03 -1.002882E+04
       134   5 -1.131344E+06 -1.766200E+05 -5.898847E+03 -4.477436E+05  1.039786E+04 -1.194437E+04
       134   6 -1.124129E+06 -1.848285E+05 -1.085403E+04 -4.562812E+05  1.446436E+04 -1.381604E+04
       134   7 -1.323342E+06 -2.581187E+05 -5.105258E+04 -5.109333E+05  3.585239E+03 -1.105294E+04
       134   8 -1.380065E+06 -2.688893E+05 -6.528579E+04 -5.158063E+05  7.705045E+03 -1.295471E+04
       134   9 -1.422275E+06 -2.954995E+05 -8.191760E+04 -5.379697E+05  1.180939E+04 -1.481268E+04
       134  10 -9.246915E+05 -1.103637E+05  4.442824E+04 -4.020436E+05  5.446552E-11 -4.253506E-10
       134  11 -8.825598E+05 -8.434628E+04  5.348333E+04 -3.796556E+05 -9.635835E-10  5.251306E-10
       134  12 -8.258967E+05 -7.415186E+04  6.020202E+04 -3.745571E+05 -7.047566E-10 -4.696226E-11
       134  13 -1.124038E+06 -1.842430E+05 -3.311121E+03 -4.564967E+05 -9.269335E-10 -5.102662E-10
       134  14 -1.131344E+06 -1.766202E+05 -5.899318E+03 -4.477435E+05  1.773623E-09  5.937700E-10
       134  15 -1.124129E+06 -1.848288E+05 -1.085479E+04 -4.562811E+05 -6.799240E-10  1.706459E-10
       134  16 -1.323342E+06 -2.581188E+05 -5.105283E+04 -5.109333E+05 -3.350171E-10 -1.610269E-10
       134  17 -1.380065E+06 -2.688895E+05 -6.528622E+04 -5.158062E+05  1.077442E-09  2.590855E-10
       134  18 -1.422275E+06 -2.954998E+05 -8.191827E+04 -5.379695E+05  5.306506E-10  3.867951E-10
       134  19 -9.246914E+05 -1.103636E+05  4.442854E+04 -4.020437E+05 -9.048013E+03  9.004342E+03
       134  20 -8.825596E+05 -8.434611E+04  5.348387E+04 -3.796557E+05 -1.309185E+04  1.093359E+04
       134  21 -8.258964E+05 -7.415160E+04  6.020288E+04 -3.745573E+05 -1.712071E+04  1.281889E+04
       134  22 -1.124038E+06 -1.842429E+05 -3.310857E+03 -4.564967E+05 -6.316134E+03  1.002882E+04
       134  23 -1.131344E+06 -1.766200E+05 -5.898847E+03 -4.477436E+05 -1.039786E+04  1.194437E+04
       134  24 -1.124129E+06 -1.848285E+05 -1.085403E+04 -4.562812E+05 -1.446436E+04  1.381604E+04
       134  25 -1.323342E+06 -2.581187E+05 -5.105258E+04 -5.109333E+05 -3.585239E+03  1.105294E+04
       134  26 -1.380065E+06 -2.688893E+05 -6.528579E+04 -5.158063E+05 -7.705045E+03  1.295471E+04
       134  27 -1.422275E+06 -2.954995E+05 -8.191760E+04 -5.379697E+05 -1.180939E+04  1.481268E+04
       135   1 -7.846843E+05 -5.932492E+04  6.676328E+04 -3.656621E+05  2.001947E+04 -1.380305E+04
       135   2 -7.434196E+05 -3.155597E+04  6.687375E+04 -3.403610E+05  3.347507E+04 -1.195763E+04
       135   3 -6.929301E+05 -2.984765E+04  5.476818E+04 -3.297365E+05  4.665167E+04 -9.362113E+03
       135   4 -1.124871E+06 -1.837858E+05 -1.428660E+04 -4.569593E+05  1.715761E+04 -1.487766E+04
       135   5 -1.130216E+06 -1.762890E+05 -2.576197E+04 -4.475227E+05  3.127796E+04 -1.278363E+04
       135   6 -1.126475E+06 -1.949907E+05 -4.998689E+04 -4.527640E+05  4.511828E+04 -9.939761E+03
       135   7 -1.464942E+06 -3.082387E+05 -9.534430E+04 -5.482109E+05  1.429747E+04 -1.595165E+04
       135   8 -1.516864E+06 -3.210110E+05 -1.184086E+05 -5.546234E+05  2.908234E+04 -1.360907E+04
       135   9 -1.559835E+06 -3.601189E+05 -1.547565E+05 -5.757129E+05  4.358605E+04 -1.051695E+04
       135  10 -7.846848E+05 -5.932523E+04  6.676217E+04 -3.656619E+05 -6.031940E-10 -9.038520E-10
       135  11 -7.434209E+05 -3.155642E+04  6.687138E+04 -3.403607E+05  2.496126E-09  7.298411E-10
       135  12 -6.929325E+05 -2.984833E+04  5.476392E+04 -3.297362E+05  6.248861E-09  3.728414E-09
       135  13 -1.124872E+06 -1.837861E+05 -1.428757E+04 -4.569591E+05 -1.177592E-09 -3.666512E-10
       135  14 -1.130217E+06 -1.762895E+05 -2.576412E+04 -4.475224E+05  5.469894E-10 -4.352566E-10
       135  15 -1.126477E+06 -1.949913E+05 -4.999091E+04 -4.527637E+05  2.538858E-09  1.317059E-09
       135  16 -1.464942E+06 -3.082390E+05 -9.534516E+04 -5.482107E+05 -6.462359E-10  3.690776E-11
       135  17 -1.516865E+06 -3.210114E+05 -1.184105E+05 -5.546231E+05 -3.373704E-09 -1.629774E-09
       135  18 -1.559837E+06 -3.601195E+05 -1.547602E+05 -5.757125E+05 -3.574305E-09 -9.485482E-10
       135  19 -7.846843E+05 -5.932492E+04  6.676328E+04 -3.656621E+05 -2.001947E+04  1.380305E+04
       135  20 -7.434196E+05 -3.155597E+04  6.687375E+04 -3.403610E+05 -3.347507E+04  1.195763E+04
       135  21 -6.929301E+05 -2.984765E+04  5.476818E+04 -3.297365E+05 -4.665167E+04  9.362113E+03
       135  22 -1.124871E+06 -1.837858E+05 -1.428660E+04 -4.569593E+05 -1.715761E+04  1.487766E+04
       135  23 -1.130216E+06 -1.762890E+05 -2.576197E+04 -4.475227E+05 -3.127796E+04  1.278363E+04
       135  24 -1.126475E+06 -1.949907E+05 -4.998689E+04 -4.527640E+05 -4.511828E+04  9.939761E+03
       135  25 -1.464942E+06 -3.082387E+05 -9.534430E+04 -5.482109E+05 -1.429747E+04  1.595165E+04
       135  26 -1.516864E+06 -3.210110E+05 -1.184086E+05 -5.546234E+05 -2.908234E+04  1.360907E+04
       135  27 -1.559835E+06 -3.601189E+05 -1.547565E+05 -5.757129E+05 -4.358605E+04  1.051695E+04
       136   1 -6.376657E+05 -1.958670E+04  5.050591E+04 -3.565441E+05  6.069178E+04 -7.755806E+03
       136   2 -6.160595E+05  4.463787E+04  1.538923E+04 -2.730332E+05  1.056026E+05  1.041493E+04
       136   3 -6.564978E+05 -9.212369E+04 -1.046737E+05 -1.571244E+05  1.443499E+05  4.499205E+04
       136   4 -1.134722E+06 -1.763826E+05 -6.323229E+04 -4.641379E+05  5.431597E+04 -1.014977E+04
       136   5 -1.116288E+06 -1.735340E+05 -1.119765E+05 -4.431007E+05  1.139098E+05  1.352909E+04
       136   6 -1.162884E+06 -3.746978E+05 -2.573691E+05 -3.896523E+05  1.673348E+05  5.360887E+04
       136   7 -1.631534E+06 -3.331770E+05 -1.769866E+05 -5.716610E+05  4.794570E+04 -1.254238E+04
       136   8 -1.616260E+06 -3.916588E+05 -2.393605E+05 -6.130324E+05  1.222097E+05  1.663940E+04
       136   9 -1.668986E+06 -6.571414E+05 -4.100822E+05 -6.219728E+05  1.902986E+05  6.220921E+04
       136  10 -6.376697E+05 -1.958775E+04  5.049887E+04 -3.565437E+05 -5.507342E-09 -3.279811E-10
       136  11 -6.160715E+05  4.463475E+04  1.536805E+04 -2.730341E+05  1.910469E-10  1.424353E-09
       136  12 -6.565207E+05 -9.213147E+04 -1.047167E+05 -1.571296E+05  4.166485E-09  2.953638E-09
       136  13 -1.134725E+06 -1.763835E+05 -6.323803E+04 -4.641375E+05  3.329101E-09  3.100256E-09
       136  14 -1.116302E+06 -1.735377E+05 -1.120013E+05 -4.431020E+05  4.129682E-09  1.075392E-09
       136  15 -1.162915E+06 -3.747084E+05 -2.574272E+05 -3.896596E+05  2.031080E-09  7.387518E-10
       136  16 -1.631536E+06 -3.331778E+05 -1.769912E+05 -5.716605E+05  1.029375E-08  5.416897E-09
       136  17 -1.616276E+06 -3.916631E+05 -2.393892E+05 -6.130340E+05  4.171535E-09  2.842213E-09
       136  18 -1.669026E+06 -6.571553E+05 -4.101577E+05 -6.219823E+05 -3.707895E-09 -2.060619E-10
       136  19 -6.376657E+05 -1.958670E+04  5.050591E+04 -3.565441E+05 -6.069178E+04  7.755806E+03
       136  20 -6.160595E+05  4.463787E+04  1.538923E+04 -2.730332E+05 -1.056026E+05 -1.041493E+04
       136  21 -6.564978E+05 -9.212369E+04 -1.046737E+05 -1.571244E+05 -1.443499E+05 -4.499205E+04
       136  22 -1.134722E+06 -1.763826E+05 -6.323229E+04 -4.641379E+05 -5.431597E+04  1.014977E+04
       136  23 -1.116288E+06 -1.735340E+05 -1.119765E+05 -4.431007E+05 -1.139098E+05 -1.352909E+04
       136  24 -1.162884E+06 -3.746978E+05 -2.573691E+05 -3.896523E+05 -1.673348E+05 -5.360887E+04
       136  25 -1.631534E+06 -3.331770E+05 -1.769866E+05 -5.716610E+05 -4.794570E+04  1.254238E+04
       136  26 -1.616260E+06 -3.916588E+05 -2.393605E+05 -6.130324E+05 -1.222097E+05 -1.663940E+04
       136  27 -1.668986E+06 -6.571414E+05 -4.100822E+05 -6.219728E+05 -1.902986E+05 -6.220921E+04
       137   1 -9.722526E+04 -2.126872E+04 -9.318980E+03  8.195328E+03  3.063103E+04  3.917247E+03
       137   2 -7.771706E+04 -6.454897E+04 -3.087619E+04 -3.143477E+03  2.312474E+04  1.232915E+04
       137   3 -4.555927E+04 -6.128808E+04 -3.590485E+04 -2.429385E+04  1.562205E+04  1.302368E+04
       137   4  1.964125E+05  5.161430E+04  6.164266E+04 -1.697022E+04  4.242755E+04  3.922071E+03
       137   5  1.894524E+05  6.900472E+02  2.821107E+04 -1.205240E+04  2.750743E+04  1.233038E+04
       137   6  1.964213E+05 -2.418094E+03  1.645012E+04 -1.694533E+04  1.259135E+04  1.302241E+04
       137   7  4.901308E+05  1.244935E+05  1.325990E+05 -4.214771E+04  5.422962E+04  3.925938E+03
       137   8  4.566888E+05  6.592457E+04  8.729403E+04 -2.096520E+04  3.189199E+04  1.233148E+04
       137   9  4.384571E+05  5.644823E+04  6.880168E+04 -9.593912E+03  9.559487E+03  1.302106E+04
       137  10 -9.722627E+04 -2.126898E+04 -9.320772E+03  8.195232E+03 -1.584285E-08 -8.835270E-10
       137  11 -7.771768E+04 -6.454928E+04 -3.087748E+04 -3.143706E+03 -5.023851E-10 -7.199598E-10
       137  12 -4.555958E+04 -6.128832E+04 -3.590563E+04 -2.429402E+04  1.756029E-08 -7.185942E-10
       137  13  1.964106E+05  5.161380E+04  6.163925E+04 -1.697035E+04 -2.094099E-09 -1.643394E-10
       137  14  1.894516E+05  6.896809E+02  2.820936E+04 -1.205267E+04  1.166488E-09 -1.235223E-09
       137  15  1.964211E+05 -2.418318E+03  1.644950E+04 -1.694546E+04  2.788984E-10 -6.277990E-10
       137  16  4.901277E+05  1.244927E+05  1.325934E+05 -4.214788E+04  1.655581E-08 -3.561869E-10
       137  17  4.566876E+05  6.592413E+04  8.729183E+04 -2.096552E+04 -7.971779E-10 -1.498970E-09
       137  18  4.384569E+05  5.644802E+04  6.880119E+04 -9.594012E+03 -1.795501E-08  7.680623E-10
       137  19 -9.722526E+04 -2.126872E+04 -9.318980E+03  8.195328E+03 -3.063103E+04 -3.917247E+03
       137  20 -7.771706E+04 -6.454897E+04 -3.087619E+04 -3.143477E+03 -2.312474E+04 -1.232915E+04
       137  21 -4.555927E+04 -6.128808E+04 -3.590485E+04 -2.429385E+04 -1.562205E+04 -1.302368E+04
       137  22  1.964125E+05  5.161430E+04  6.164266E+04 -1.697022E+04 -4.242755E+04 -3.922071E+03
       137  23  1.894524E+05  6.900472E+02  2.821107E+04 -1.205240E+04 -2.750743E+04 -1.233038E+04
       137  24  1.964213E+05 -2.418094E+03  1.645012E+04 -1.694533E+04 -1.259135E+04 -1.302241E+04
       137  25  4.901308E+05  1.244935E+05  1.325990E+05 -4.214771E+04 -5.422962E+04 -3.925938E+03
       137  26  4.566888E+05  6.592457E+04  8.729403E+04 -2.096520E+04 -3.189199E+04 -1.233148E+04
       137  27  4.384571E+05  5.644823E+04  6.880168E+04 -9.593912E+03 -9.559487E+03 -1.302106E+04
       138   1 -2.780442E+04 -5.128375E+04 -3.510450E+04 -1.616477E+04  1.112019E+04  1.153511E+04
       138   2 -2.654544E+03 -4.766934E+04 -3.530279E+04 -1.180374E+04  7.916688E+03  1.048152E+04
       138   3  2.356437E+04 -4.152762E+04 -3.277898E+04 -1.755609E+04  4.712854E+03  9.078899E+03
       138   4  1.935775E+05  2.614945E+03  1.302860E+04 -1.701914E+04  1.027974E+04  1.153453E+04
       138   5  1.930162E+05 -6.650321E+01  7.060171E+03 -1.196220E+04  6.740006E+03  1.048098E+04
       138   6  1.935811E+05 -1.627890E+02  4.046529E+03 -1.701842E+04  3.200071E+03  9.078433E+03
       138   7  4.150054E+05  5.651039E+04  6.115877E+04 -1.787381E+04  9.438989E+03  1.153395E+04
       138   8  3.887228E+05  4.753380E+04  4.942086E+04 -1.212071E+04  5.562958E+03  1.048043E+04
       138   9  3.636249E+05  4.120014E+04  4.087033E+04 -1.648061E+04  1.686878E+03  9.077965E+03
       138  10 -2.780459E+04 -5.128392E+04 -3.510499E+04 -1.616488E+04  2.448008E-09 -1.179813E-10
       138  11 -2.654641E+03 -4.766947E+04 -3.530311E+04 -1.180381E+04  1.699241E-09  8.096368E-10
       138  12  2.356433E+04 -4.152772E+04 -3.277918E+04 -1.755612E+04 -3.156029E-09  8.441619E-10
       138  13  1.935774E+05  2.614774E+03  1.302815E+04 -1.701923E+04  5.840784E-11  1.229277E-09
       138  14  1.930161E+05 -6.663337E+01  7.059879E+03 -1.196226E+04 -4.160690E-10  1.333755E-09
       138  15  1.935811E+05 -1.628803E+02  4.046354E+03 -1.701845E+04 -1.504577E-09  4.906085E-10
       138  16  4.150053E+05  5.651022E+04  6.115835E+04 -1.787390E+04 -4.335566E-09  1.578631E-09
       138  17  3.887227E+05  4.753368E+04  4.942059E+04 -1.212076E+04  4.892184E-10  1.570372E-09
       138  18  3.636249E+05  4.120005E+04  4.087017E+04 -1.648062E+04 -9.671087E-10  5.179387E-10
       138  19 -2.780442E+04 -5.128375E+04 -3.510450E+04 -1.616477E+04 -1.112019E+04 -1.153511E+04
       138  20 -2.654544E+03 -4.766934E+04 -3.530279E+04 -1.180374E+04 -7.916688E+03 -1.048152E+04
       138  21  2.356437E+04 -4.152762E+04 -3.277898E+04 -1.755609E+04 -4.712854E+03 -9.078899E+03
       138  22  1.935775E+05  2.614945E+03  1.302860E+04 -1.701914E+04 -1.027974E+04 -1.153453E+04
       138  23  1.930162E+05 -6.650321E+01  7.060171E+03 -1.196220E+04 -6.740006E+03 -1.048098E+04
       138  24  1.935811E+05 -1.627890E+02  4.046529E+03 -1.701842E+04 -3.200071E+03 -9.078433E+03
       138  25  4.150054E+05  5.651039E+04  6.115877E+04 -1.787381E+04 -9.438989E+03 -1.153395E+04
       138  26  3.887228E+05  4.753380E+04  4.942086E+04 -1.212071E+04 -5.562958E+03 -1.048043E+04
       138  27  3.636249E+05  4.120014E+04  4.087033E+04 -1.648061E+04 -1.686878E+03 -9.077965E+03
       139   1  4.372920E+04 -3.628609E+04 -2.921735E+04 -1.710205E+04  3.985465E+03  8.177542E+03
       139   2  6.929208E+04 -3.018873E+04 -2.512022E+04 -1.203972E+04  3.163428E+03  6.697843E+03
       139   3  9.500558E+04 -2.395309E+04 -2.045141E+04 -1.708755E+04  2.341148E+03  5.202931E+03
       139   4  1.933662E+05  9.634891E+01  3.076536E+03 -1.701793E+04  2.572695E+03  8.177171E+03
       139   5  1.932908E+05 -3.061203E+01  1.689114E+03 -1.196291E+04  1.735850E+03  6.697567E+03
       139   6  1.933682E+05 -1.662490E+01  8.836555E+02 -1.701793E+04  8.987943E+02  5.202754E+03
       139   7  3.430242E+05  3.647732E+04  3.536911E+04 -1.693379E+04  1.159589E+03  8.176800E+03
       139   8  3.173039E+05  3.012650E+04  2.849755E+04 -1.188609E+04  3.079898E+02  6.697291E+03
       139   9  2.917399E+05  2.391920E+04  2.221815E+04 -1.694829E+04 -5.437850E+02  5.202577E+03
       139  10  4.372917E+04 -3.628617E+04 -2.921751E+04 -1.710208E+04 -4.260356E-09  1.403950E-09
       139  11  6.929206E+04 -3.018878E+04 -2.512032E+04 -1.203974E+04 -2.038288E-09  2.012724E-09
       139  12  9.500557E+04 -2.395312E+04 -2.045147E+04 -1.708756E+04 -5.830445E-09  7.819152E-10
       139  13  1.933662E+05  9.627533E+01  3.076398E+03 -1.701795E+04 -1.147025E-09  1.077663E-09
       139  14  1.932907E+05 -3.066101E+01  1.689024E+03 -1.196292E+04 -4.298470E-09  2.123074E-09
       139  15  1.933682E+05 -1.665418E+01  8.836031E+02 -1.701793E+04 -1.064118E-09  8.126920E-10
       139  16  3.430242E+05  3.647725E+04  3.536898E+04 -1.693380E+04  1.703739E-09  9.220469E-10
       139  17  3.173039E+05  3.012645E+04  2.849746E+04 -1.188609E+04  1.801272E-09  2.005152E-09
       139  18  2.917399E+05  2.391917E+04  2.221810E+04 -1.694829E+04  3.674212E-09  1.123494E-09
       139  19  4.372920E+04 -3.628609E+04 -2.921735E+04 -1.710205E+04 -3.985465E+03 -8.177542E+03
       139  20  6.929208E+04 -3.018873E+04 -2.512022E+04 -1.203972E+04 -3.163428E+03 -6.697843E+03
       139  21  9.500558E+04 -2.395309E+04 -2.045141E+04 -1.708755E+04 -2.341148E+03 -5.202931E+03
       139  22  1.933662E+05  9.634891E+01  3.076536E+03 -1.701793E+04 -2.572695E+03 -8.177171E+03
       139  23  1.932908E+05 -3.061203E+01  1.689114E+03 -1.196291E+04 -1.735850E+03 -6.697567E+03
       139  24  1.933682E+05 -1.662490E+01  8.836555E+02 -1.701793E+04 -8.987943E+02 -5.202754E+03
       139  25  3.430242E+05  3.647732E+04  3.536911E+04 -1.693379E+04 -1.159589E+03 -8.176800E+03
       139  26  3.173039E+05  3.012650E+04  2.849755E+04 -1.188609E+04 -3.079898E+02 -6.697291E+03
       139  27  2.917399E+05  2.391920E+04  2.221815E+04 -1.694829E+04  5.437850E+02 -5.202577E+03
       140   1  1.153220E+05 -1.896539E+04 -1.619760E+04 -1.705870E+04  2.202762E+03  4.329413E+03
       140   2  1.409296E+05 -1.274830E+04 -1.118866E+04 -1.200349E+04  2.134327E+03  2.832011E+03
       140   3  1.665514E+05 -6.526135E+03 -6.133179E+03 -1.705098E+04  2.065793E+03  1.334194E+03
       140   4  1.933380E+05 -5.851203E+00  5.972872E+02 -1.701629E+04  7.653151E+02  4.329280E+03
       140   5  1.933318E+05 -4.162978E+00  1.395161E+02 -1.196497E+04  6.964283E+02  2.831920E+03
       140   6  1.933388E+05  2.611282E+00 -2.715057E+02 -1.701629E+04  6.274446E+02  1.334146E+03
       140   7  2.713597E+05  1.895329E+04  1.739182E+04 -1.697387E+04 -6.723095E+02  4.329148E+03
       140   8  2.457366E+05  1.273980E+04  1.146754E+04 -1.192645E+04 -7.415904E+02  2.831828E+03
       140   9  2.201269E+05  6.531311E+03  5.590132E+03 -1.698160E+04 -8.109653E+02  1.334097E+03
       140  10  1.153219E+05 -1.896541E+04 -1.619764E+04 -1.705870E+04 -3.769126E-08 -1.781825E-09
       140  11  1.409296E+05 -1.274831E+04 -1.118868E+04 -1.200350E+04 -1.219739E-09 -4.581582E-09
       140  12  1.665514E+05 -6.526138E+03 -6.133191E+03 -1.705098E+04  3.519313E-08 -2.544437E-09
       140  13  1.933380E+05 -5.871489E+00  5.972509E+02 -1.701629E+04  7.441998E-12 -1.520347E-09
       140  14  1.933318E+05 -4.171721E+00  1.395001E+02 -1.196497E+04 -2.722088E-09 -4.527052E-09
       140  15  1.933388E+05  2.609264E+00 -2.715098E+02 -1.701629E+04 -1.663055E-09 -2.549727E-09
       140  16  2.713597E+05  1.895327E+04  1.739179E+04 -1.697387E+04  3.638869E-08 -1.406797E-09
       140  17  2.457366E+05  1.273979E+04  1.146752E+04 -1.192644E+04 -1.010819E-09 -4.516041E-09
       140  18  2.201269E+05  6.531309E+03  5.590128E+03 -1.698160E+04 -3.690558E-08 -2.562381E-09
       140  19  1.153220E+05 -1.896539E+04 -1.619760E+04 -1.705870E+04 -2.202762E+03 -4.329413E+03
       140  20  1.409296E+05 -1.274830E+04 -1.118866E+04 -1.200349E+04 -2.134327E+03 -2.832011E+03
       140  21  1.665514E+05 -6.526135E+03 -6.133179E+03 -1.705098E+04 -2.065793E+03 -1.334194E+03
       140  22  1.933380E+05 -5.851203E+00  5.972872E+02 -1.701629E+04 -7.653151E+02 -4.329280E+03
       140  23  1.933318E+05 -4.162978E+00  1.395161E+02 -1.196497E+04 -6.964283E+02 -2.831920E+03
       140  24  1.933388E+05  2.611282E+00 -2.715057E+02 -1.701629E+04 -6.274446E+02 -1.334146E+03
       140  25  2.713597E+05  1.895329E+04  1.739182E+04 -1.697387E+04  6.723095E+02 -4.329148E+03
       140  26  2.457366E+05  1.273980E+04  1.146754E+04 -1.192645E+04  7.415904E+02 -2.831828E+03
       140  27  2.201269E+05  6.531311E+03  5.590132E+03 -1.698160E+04  8.109653E+02 -1.334097E+03
       141   1  1.868678E+05 -1.552622E+03 -1.823863E+03 -1.705356E+04  2.135741E+03  4.623795E+02
       141   2  2.125165E+05  4.675649E+03  3.046923E+03 -1.202754E+04  2.676641E+03 -1.035194E+03
       141   3  2.380910E+05  1.087886E+04  7.559731E+03 -1.710201E+04  3.217598E+03 -2.532283E+03
       141   4  1.933194E+05  2.136872E+00 -5.002726E+02 -1.701582E+04  6.974734E+02  4.623394E+02
       141   5  1.933568E+05  1.622140E+01 -1.094874E+03 -1.196557E+04  1.238792E+03 -1.035250E+03
       141   6  1.933192E+05  5.203349E+00 -2.047752E+03 -1.701583E+04  1.780144E+03 -2.532354E+03
       141   7  1.997710E+05  1.556894E+03  8.233231E+02 -1.697808E+04 -7.408090E+02  4.622991E+02
       141   8  1.741973E+05 -4.643229E+03 -5.236685E+03 -1.190360E+04 -1.990144E+02 -1.035307E+03
       141   9  1.485493E+05 -1.086858E+04 -1.165534E+04 -1.692965E+04  3.427928E+02 -2.532425E+03
       141  10  1.868678E+05 -1.552623E+03 -1.823872E+03 -1.705356E+04  3.954563E-10  1.091687E-11
       141  11  2.125165E+05  4.675646E+03  3.046908E+03 -1.202753E+04  7.507059E-09  2.208870E-09
       141  12  2.380910E+05  1.087885E+04  7.559700E+03 -1.710201E+04  1.423064E-08  2.438099E-09
       141  13  1.933194E+05  2.136512E+00 -5.002739E+02 -1.701582E+04  1.356304E-10 -8.583762E-11
       141  14  1.933567E+05  1.621984E+01 -1.094879E+03 -1.196557E+04 -1.469397E-09  1.929628E-09
       141  15  1.933192E+05  5.195612E+00 -2.047770E+03 -1.701582E+04 -6.331971E-10  2.581899E-09
       141  16  1.997710E+05  1.556894E+03  8.233217E+02 -1.697808E+04  1.506499E-10 -2.038351E-10
       141  17  1.741973E+05 -4.643231E+03 -5.236687E+03 -1.190360E+04 -9.366633E-09  1.686026E-09
       141  18  1.485493E+05 -1.086859E+04 -1.165536E+04 -1.692965E+04 -1.491590E-08  2.700885E-09
       141  19  1.868678E+05 -1.552622E+03 -1.823863E+03 -1.705356E+04 -2.135741E+03 -4.623795E+02
       141  20  2.125165E+05  4.675649E+03  3.046923E+03 -1.202754E+04 -2.676641E+03  1.035194E+03
       141  21  2.380910E+05  1.087886E+04  7.559731E+03 -1.710201E+04 -3.217598E+03  2.532283E+03
       141  22  1.933194E+05  2.136872E+00 -5.002726E+02 -1.701582E+04 -6.974734E+02 -4.623394E+02
       141  23  1.933568E+05  1.622140E+01 -1.094874E+03 -1.196557E+04 -1.238792E+03  1.035250E+03
       141  24  1.933192E+05  5.203349E+00 -2.047752E+03 -1.701583E+04 -1.780144E+03  2.532354E+03
       141  25  1.997710E+05  1.556894E+03  8.233231E+02 -1.697808E+04  7.408090E+02 -4.622991E+02
       141  26  1.741973E+05 -4.643229E+03 -5.236685E+03 -1.190360E+04  1.990144E+02  1.035307E+03
       141  27  1.485493E+05 -1.086858E+04 -1.165534E+04 -1.692965E+04 -3.427928E+02  2.532425E+03
       142   1  2.583591E+05  1.588342E+04  1.141240E+04 -1.717380E+04  3.653523E+03 -3.405229E+03
       142   2  2.841879E+05  2.213212E+04  1.480254E+04 -1.212374E+04  6.026690E+03 -4.899413E+03
       142   3  3.096150E+05  2.798656E+04  1.655073E+04 -1.718006E+04  8.400071E+03 -6.379921E+03
       142   4  1.932455E+05  3.488208E+01 -2.733484E+03 -1.701716E+04  2.211720E+03 -3.405327E+03
       142   5  1.934471E+05  6.561550E+01 -4.814118E+03 -1.196392E+04  4.597684E+03 -4.899583E+03
       142   6  1.932445E+05 -3.000645E+02 -8.545684E+03 -1.701716E+04  6.983768E+03 -6.380160E+03
       142   7  1.281359E+05 -1.581393E+04 -1.687961E+04 -1.686054E+04  7.700665E+02 -3.405425E+03
       142   8  1.027141E+05 -2.200143E+04 -2.443125E+04 -1.180413E+04  3.168885E+03 -4.899754E+03
       142   9  7.688669E+04 -2.858758E+04 -3.364289E+04 -1.685429E+04  5.567726E+03 -6.380400E+03
       142  10  2.583591E+05  1.588340E+04  1.141235E+04 -1.717379E+04 -1.204231E-08  2.334659E-09
       142  11  2.841878E+05  2.213208E+04  1.480242E+04 -1.212371E+04 -1.208120E-08  7.785371E-10
       142  12  3.096149E+05  2.798650E+04  1.655052E+04 -1.718002E+04 -1.009000E-08 -2.276175E-09
       142  13  1.932455E+05  3.486832E+01 -2.733515E+03 -1.701716E+04  9.140992E-12  2.390416E-09
       142  14  1.934471E+05  6.558405E+01 -4.814203E+03 -1.196390E+04  4.755386E-10  5.415393E-10
       142  15  1.932444E+05 -3.001213E+02 -8.545852E+03 -1.701712E+04 -8.224833E-10 -2.279355E-09
       142  16  1.281359E+05 -1.581395E+04 -1.687964E+04 -1.686054E+04  1.340364E-08  2.314090E-09
       142  17  1.027141E+05 -2.200145E+04 -2.443132E+04 -1.180412E+04  1.287152E-08  4.396085E-10
       142  18  7.688664E+04 -2.858763E+04 -3.364302E+04 -1.685426E+04  9.444112E-09 -2.137864E-09
       142  19  2.583591E+05  1.588342E+04  1.141240E+04 -1.717380E+04 -3.653523E+03  3.405229E+03
       142  20  2.841879E+05  2.213212E+04  1.480254E+04 -1.212374E+04 -6.026690E+03  4.899413E+03
       142  21  3.096150E+05  2.798656E+04  1.655073E+04 -1.718006E+04 -8.400071E+03  6.379921E+03
       142  22  1.932455E+05  3.488208E+01 -2.733484E+03 -1.701716E+04 -2.211720E+03  3.405327E+03
       142  23  1.934471E+05  6.561550E+01 -4.814118E+03 -1.196392E+04 -4.597684E+03  4.899583E+03
       142  24  1.932445E+05 -3.000645E+02 -8.545684E+03 -1.701716E+04 -6.983768E+03  6.380160E+03
       142  25  1.281359E+05 -1.581393E+04 -1.687961E+04 -1.686054E+04 -7.700665E+02  3.405425E+03
       142  26  1.027141E+05 -2.200143E+04 -2.443125E+04 -1.180413E+04 -3.168885E+03  4.899754E+03
       142  27  7.688669E+04 -2.858758E+04 -3.364289E+04 -1.685429E+04 -5.567726E+03  6.380400E+03
       143   1  3.294014E+05  3.367425E+04  1.844483E+04 -1.840646E+04  1.022825E+04 -7.277014E+03
       143   2  3.565579E+05  3.963136E+04  1.572646E+04 -1.139395E+04  1.967267E+04 -8.686234E+03
       143   3  3.807372E+05  3.853299E+04  5.102053E+03 -1.448405E+04  2.911769E+04 -9.783860E+03
       143   4  1.926596E+05  4.092777E+02 -1.118160E+04 -1.701678E+04  8.722476E+03 -7.277307E+03
       143   5  1.941748E+05  1.343817E+02 -1.942584E+04 -1.196461E+04  1.846375E+04 -8.686646E+03
       143   6  1.926591E+05 -7.248809E+03 -3.578395E+04 -1.701534E+04  2.820525E+04 -9.784410E+03
       143   7  5.593530E+04 -3.285692E+04 -4.080913E+04 -1.562741E+04  7.217029E+03 -7.277607E+03
       143   8  3.181642E+04 -3.936434E+04 -5.457970E+04 -1.253513E+04  1.725515E+04 -8.687055E+03
       143   9  4.614175E+03 -5.303293E+04 -7.667206E+04 -1.954586E+04  2.729309E+04 -9.784952E+03
       143  10  3.294012E+05  3.367417E+04  1.844453E+04 -1.840640E+04  1.291484E-08 -2.876182E-09
       143  11  3.565575E+05  3.963118E+04  1.572560E+04 -1.139381E+04  7.818132E-09 -6.045635E-10
       143  12  3.807362E+05  3.853266E+04  5.100281E+03 -1.448382E+04 -4.267975E-09  9.120724E-10
       143  13  1.926595E+05  4.092005E+02 -1.118184E+04 -1.701673E+04 -2.155349E-09 -2.630599E-09
       143  14  1.941744E+05  1.342092E+02 -1.942662E+04 -1.196449E+04 -3.751023E-09 -5.252492E-10
       143  15  1.926582E+05 -7.249125E+03 -3.578562E+04 -1.701512E+04 -7.098545E-10  1.003265E-09
       143  16  5.593523E+04 -3.285699E+04 -4.080932E+04 -1.562737E+04 -1.420997E-08 -2.327477E-09
       143  17  3.181608E+04 -3.936450E+04 -5.458040E+04 -1.253501E+04 -6.375259E-09  2.928255E-10
       143  18  4.613349E+03 -5.303323E+04 -7.667364E+04 -1.954564E+04  1.158654E-09  1.009095E-09
       143  19  3.294014E+05  3.367425E+04  1.844483E+04 -1.840646E+04 -1.022825E+04  7.277014E+03
       143  20  3.565579E+05  3.963136E+04  1.572646E+04 -1.139395E+04 -1.967267E+04  8.686234E+03
       143  21  3.807372E+05  3.853299E+04  5.102053E+03 -1.448405E+04 -2.911769E+04  9.783860E+03
       143  22  1.926596E+05  4.092777E+02 -1.118160E+04 -1.701678E+04 -8.722476E+03  7.277307E+03
       143  23  1.941748E+05  1.343817E+02 -1.942584E+04 -1.196461E+04 -1.846375E+04  8.686646E+03
       143  24  1.926591E+05 -7.248809E+03 -3.578395E+04 -1.701534E+04 -2.820525E+04  9.784410E+03
       143  25  5.593530E+04 -3.285692E+04 -4.080913E+04 -1.562741E+04 -7.217029E+03  7.277607E+03
       143  26  3.181642E+04 -3.936434E+04 -5.457970E+04 -1.253513E+04 -1.725515E+04  8.687055E+03
       143  27  4.614175E+03 -5.303293E+04 -7.667206E+04 -1.954586E+04 -2.729309E+04  9.784952E+03
       144   1  3.935277E+05  5.729467E+04 -2.344645E+01 -3.690365E+04  3.741989E+04 -1.120153E+04
       144   2  4.377705E+05  5.513660E+04 -2.571197E+04  1.273246E+04  7.178482E+04 -1.072457E+04
       144   3  4.450699E+05 -7.707012E+04 -1.062626E+05  5.259554E+04  1.061490E+05 -3.366597E+03
       144   4  1.848607E+05  6.559919E+03 -4.516489E+04 -1.695635E+04  3.455384E+04 -1.120139E+04
       144   5  2.039209E+05 -1.982968E+03 -7.743841E+04 -1.204281E+04  7.551032E+04 -1.072642E+04
       144   6  1.848739E+05 -1.417527E+05 -1.691648E+05 -1.690232E+04  1.164640E+05 -3.374230E+03
       144   7 -2.376453E+04 -4.417621E+04 -9.030866E+04  2.984154E+03  3.168873E+04 -1.120142E+04
       144   8 -2.987644E+04 -5.910391E+04 -1.291679E+05 -3.680864E+04  7.923443E+04 -1.072857E+04
       144   9 -7.524965E+04 -2.064221E+05 -2.320689E+05 -8.637098E+04  1.267747E+05 -3.384175E+03
       144  10  3.935261E+05  5.729416E+04 -2.631190E+01 -3.690331E+04 -6.435263E-11  8.541709E-10
       144  11  4.377650E+05  5.513509E+04 -2.572187E+04  1.273308E+04 -8.700654E-10 -5.025712E-10
       144  12  4.450578E+05 -7.707315E+04 -1.062838E+05  5.259583E+04 -1.521341E-09 -2.002933E-10
       144  13  1.848594E+05  6.559464E+03 -4.516736E+04 -1.695604E+04 -2.760850E-10 -2.295363E-10
       144  14  2.039147E+05 -1.984622E+03 -7.744934E+04 -1.204216E+04  7.976982E-10  9.259173E-10
       144  15  1.848594E+05 -1.417564E+05 -1.691903E+05 -1.690200E+04  1.066205E-09 -1.106702E-10
       144  16 -2.376564E+04 -4.417661E+04 -9.031078E+04  2.984440E+03  8.521956E-10  4.495295E-10
       144  17 -2.988321E+04 -5.910572E+04 -1.291799E+05 -3.680796E+04  9.248420E-11 -3.057095E-11
       144  18 -7.526692E+04 -2.064264E+05 -2.320992E+05 -8.637063E+04  1.237288E-09 -6.479664E-10
       144  19  3.935277E+05  5.729467E+04 -2.344645E+01 -3.690365E+04 -3.741989E+04  1.120153E+04
       144  20  4.377705E+05  5.513660E+04 -2.571197E+04  1.273246E+04 -7.178482E+04  1.072457E+04
       144  21  4.450699E+05 -7.707012E+04 -1.062626E+05  5.259554E+04 -1.061490E+05  3.366597E+03
       144  22  1.848607E+05  6.559919E+03 -4.516489E+04 -1.695635E+04 -3.455384E+04  1.120139E+04
       144  23  2.039209E+05 -1.982968E+03 -7.743841E+04 -1.204281E+04 -7.551032E+04  1.072642E+04
       144  24  1.848739E+05 -1.417527E+05 -1.691648E+05 -1.690232E+04 -1.164640E+05  3.374230E+03
       144  25 -2.376453E+04 -4.417621E+04 -9.030866E+04  2.984154E+03 -3.168873E+04  1.120142E+04
       144  26 -2.987644E+04 -5.910391E+04 -1.291679E+05 -3.680864E+04 -7.923443E+04  1.072857E+04
       144  27 -7.524965E+04 -2.064221E+05 -2.320689E+05 -8.637098E+04 -1.267747E+05  3.384175E+03
       145   1  3.547660E+05  1.338427E+06  3.476556E+05 -2.147655E+05  1.630966E+04  5.433406E+04
       145   2  2.637595E+05  1.016570E+06  2.434987E+05 -1.508911E+05  4.762377E+04  1.518195E+04
       145   3  1.861879E+05  7.033065E+05  1.681696E+05 -2.102075E+05  4.028191E+04 -2.398577E+04
       145   4  7.205713E+03 -6.104928E+04  8.282659E+03 -2.102479E+05  1.636348E+04  5.677827E+03
       145   5  2.283447E+02 -6.198318E+04  3.794249E+03 -1.486509E+05  4.764517E+04  3.710007E+03
       145   6  2.569357E+02 -6.084749E+04  2.356180E+03 -2.102563E+05  4.024106E+04  1.706644E+03
       145   7 -3.404970E+05 -1.458735E+06 -3.312227E+05 -2.057397E+05  1.641667E+04 -4.286924E+04
       145   8 -2.633815E+05 -1.139451E+06 -2.359823E+05 -1.464142E+05  4.766651E+04 -7.742255E+03
       145   9 -1.857123E+05 -8.244527E+05 -1.634896E+05 -2.103047E+05  4.020018E+04  2.736788E+04
       145  10  3.547650E+05  1.338424E+06  3.476496E+05 -2.147662E+05 -1.784758E-09  1.179065E-09
       145  11  2.637570E+05  1.016569E+06  2.434941E+05 -1.508917E+05 -3.390373E-10  2.768293E-10
       145  12  1.861860E+05  7.033055E+05  1.681655E+05 -2.102068E+05 -5.833548E-10 -8.606574E-10
       145  13  7.205417E+03 -6.104939E+04  8.282095E+03 -2.102480E+05 -1.064747E-09 -1.470745E-11
       145  14  2.259033E+02 -6.198381E+04  3.789957E+03 -1.486511E+05  8.851066E-10  1.184327E-09
       145  15  2.551961E+02 -6.084793E+04  2.353132E+03 -2.102564E+05 -2.086316E-09 -2.408733E-09
       145  16 -3.404977E+05 -1.458737E+06 -3.312266E+05 -2.057392E+05  1.181450E-09 -3.973436E-11
       145  17 -2.633839E+05 -1.139452E+06 -2.359866E+05 -1.464139E+05  1.354933E-09  9.207237E-10
       145  18 -1.857142E+05 -8.244539E+05 -1.634941E+05 -2.103056E+05 -2.797293E-09  1.495645E-10
       145  19  3.547660E+05  1.338427E+06  3.476556E+05 -2.147655E+05 -1.630966E+04 -5.433406E+04
       145  20  2.637595E+05  1.016570E+06  2.434987E+05 -1.508911E+05 -4.762377E+04 -1.518195E+04
       145  21  1.861879E+05  7.033065E+05  1.681696E+05 -2.102075E+05 -4.028191E+04  2.398577E+04
       145  22  7.205713E+03 -6.104928E+04  8.282659E+03 -2.102479E+05 -1.636348E+04 -5.677827E+03
       145  23  2.283447E+02 -6.198318E+04  3.794249E+03 -1.486509E+05 -4.764517E+04 -3.710007E+03
       145  24  2.569357E+02 -6.084749E+04  2.356180E+03 -2.102563E+05 -4.024106E+04 -1.706644E+03
       145  25 -3.404970E+05 -1.458735E+06 -3.312227E+05 -2.057397E+05 -1.641667E+04  4.286924E+04
       145  26 -2.633815E+05 -1.139451E+06 -2.359823E+05 -1.464142E+05 -4.766651E+04  7.742255E+03
       145  27 -1.857123E+05 -8.244527E+05 -1.634896E+05 -2.103047E+05 -4.020018E+04 -2.736788E+04
       146   1  1.254807E+05  4.499506E+05  1.132688E+05 -2.114244E+05  2.629993E+04 -1.372969E+04
       146   2  4.770756E+04  1.328531E+05  4.325119E+04 -1.484484E+05  1.039166E+04 -1.479525E+04
       146   3 -2.918188E+04 -1.842518E+05 -2.597262E+04 -2.103783E+05 -5.964445E+03 -1.586499E+04
       146   4  9.873721E+02 -6.127526E+04  1.914060E+03 -2.106329E+05  2.627361E+04  1.334819E+03
       146   5  4.993516E+02 -6.116884E+04  1.225177E+03 -1.481791E+05  1.036302E+04  6.962485E+02
       146   6  8.270957E+02 -6.123866E+04  1.037402E+03 -2.106333E+05 -5.995809E+03  5.297628E+01
       146   7 -1.235232E+05 -5.722558E+05 -1.094555E+05 -2.098420E+05  2.624732E+04  1.638709E+04
       146   8 -4.671122E+04 -2.551550E+05 -4.080217E+04 -1.479098E+05  1.033440E+04  1.618297E+04
       146   9  3.083519E+04  6.178917E+04  2.804745E+04 -2.108883E+05 -6.027182E+03  1.597406E+04
       146  10  1.254799E+05  4.499502E+05  1.132671E+05 -2.114241E+05  1.259825E-09  3.677829E-09
       146  11  4.770739E+04  1.328529E+05  4.325058E+04 -1.484483E+05  1.914795E-10  1.006960E-09
       146  12 -2.918198E+04 -1.842521E+05 -2.597316E+04 -2.103784E+05 -3.605179E-10 -2.201190E-09
       146  13  9.866304E+02 -6.127545E+04  1.912760E+03 -2.106329E+05 -9.224884E-10  4.661081E-11
       146  14  4.992361E+02 -6.116887E+04  1.224974E+03 -1.481791E+05  2.307512E-09  1.828286E-09
       146  15  8.270571E+02 -6.123867E+04  1.037334E+03 -2.106333E+05  4.199386E-10 -2.808185E-09
       146  16 -1.235240E+05 -5.722562E+05 -1.094573E+05 -2.098423E+05 -1.504361E-09 -1.233637E-09
       146  17 -4.671141E+04 -2.551553E+05 -4.080287E+04 -1.479099E+05  1.729503E-09  7.654572E-10
       146  18  3.083508E+04  6.178889E+04  2.804690E+04 -2.108882E+05 -9.521870E-10  1.411766E-09
       146  19  1.254807E+05  4.499506E+05  1.132688E+05 -2.114244E+05 -2.629993E+04  1.372969E+04
       146  20  4.770756E+04  1.328531E+05  4.325119E+04 -1.484484E+05 -1.039166E+04  1.479525E+04
       146  21 -2.918188E+04 -1.842518E+05 -2.597262E+04 -2.103783E+05  5.964445E+03  1.586499E+04
       146  22  9.873721E+02 -6.127526E+04  1.914060E+03 -2.106329E+05 -2.627361E+04 -1.334819E+03
       146  23  4.993516E+02 -6.116884E+04  1.225177E+03 -1.481791E+05 -1.036302E+04 -6.962485E+02
       146  24  8.270957E+02 -6.123866E+04  1.037402E+03 -2.106333E+05  5.995809E+03 -5.297628E+01
       146  25 -1.235232E+05 -5.722558E+05 -1.094555E+05 -2.098420E+05 -2.624732E+04 -1.638709E+04
       146  26 -4.671122E+04 -2.551550E+05 -4.080217E+04 -1.479098E+05 -1.033440E+04 -1.618297E+04
       146  27  3.083519E+04  6.178917E+04  2.804745E+04 -2.108883E+05  6.027182E+03 -1.597406E+04
       147   1 -9.085676E+04 -4.366443E+05 -8.085914E+04 -2.101002E+05 -1.917255E+04 -2.375669E+04
       147   2 -1.685829E+05 -7.516469E+05 -1.530459E+05 -1.473570E+05 -2.942477E+04  3.231191E+03
       147   3 -2.488340E+05 -1.070958E+06 -2.435209E+05 -2.083019E+05 -1.086669E+04  3.024345E+04
       147   4  6.448799E+02 -6.113920E+04  1.032399E+03 -2.103609E+05 -1.921724E+04 -1.516901E+02
       147   5  3.876063E+02 -6.140231E+04  1.212346E+03 -1.485199E+05 -2.941573E+04 -7.972934E+02
       147   6  2.411891E+03 -6.126878E+04  2.308290E+03 -2.103581E+05 -1.081838E+04 -1.404249E+03
       147   7  9.213744E+04  3.144993E+05  8.291754E+04 -2.106217E+05 -1.926195E+04  2.346741E+04
       147   8  1.693257E+05  6.292866E+05  1.554407E+05 -1.496839E+05 -2.940668E+04 -4.830213E+03
       147   9  2.535832E+05  9.493537E+05  2.480672E+05 -2.124172E+05 -1.076991E+04 -3.310335E+04
       147  10 -9.085730E+04 -4.366450E+05 -8.086089E+04 -2.101005E+05 -5.709810E-10  3.597004E-09
       147  11 -1.685839E+05 -7.516471E+05 -1.530476E+05 -1.473569E+05  1.819734E-09  1.801363E-09
       147  12 -2.488344E+05 -1.070959E+06 -2.435228E+05 -2.083016E+05 -5.744796E-11 -4.226664E-10
       147  13  6.444833E+02 -6.113930E+04  1.031705E+03 -2.103609E+05 -1.981788E-10  5.039569E-11
       147  14  3.866770E+02 -6.140255E+04  1.210719E+03 -1.485199E+05  3.262681E-09  1.581661E-09
       147  15  2.411765E+03 -6.126881E+04  2.308066E+03 -2.103581E+05  4.851371E-10 -2.017641E-09
       147  16  9.213689E+04  3.144986E+05  8.291581E+04 -2.106214E+05 -5.613221E-10 -9.608009E-10
       147  17  1.693248E+05  6.292863E+05  1.554390E+05 -1.496840E+05  1.072957E-09 -2.524708E-10
       147  18  2.535828E+05  9.493525E+05  2.480650E+05 -2.124174E+05  1.085624E-09 -2.086515E-10
       147  19 -9.085676E+04 -4.366443E+05 -8.085914E+04 -2.101002E+05  1.917255E+04  2.375669E+04
       147  20 -1.685829E+05 -7.516469E+05 -1.530459E+05 -1.473570E+05  2.942477E+04 -3.231191E+03
       147  21 -2.488340E+05 -1.070958E+06 -2.435209E+05 -2.083019E+05  1.086669E+04 -3.024345E+04
       147  22  6.448799E+02 -6.113920E+04  1.032399E+03 -2.103609E+05  1.921724E+04  1.516901E+02
       147  23  3.876063E+02 -6.140231E+04  1.212346E+03 -1.485199E+05  2.941573E+04  7.972934E+02
       147  24  2.411891E+03 -6.126878E+04  2.308290E+03 -2.103581E+05  1.081838E+04  1.404249E+03
       147  25  9.213744E+04  3.144993E+05  8.291754E+04 -2.106217E+05  1.926195E+04 -2.346741E+04
       147  26  1.693257E+05  6.292866E+05  1.554407E+05 -1.496839E+05  2.940668E+04  4.830213E+03
       147  27  2.535832E+05  9.493537E+05  2.480672E+05 -2.124172E+05  1.076991E+04  3.310335E+04
       148   1 -6.875985E+05 -2.722258E+05 -1.603500E+05 -2.581688E+05 -5.409605E+04 -1.434475E+04
       148   2 -6.422372E+05 -1.904701E+05 -1.061501E+05 -2.392186E+05 -3.453143E+04  5.353108E+03
       148   3 -6.021414E+05 -1.686283E+05 -8.184944E+04 -2.260270E+05 -1.079920E+04  1.396339E+04
       148   4 -3.212776E+05 -1.134806E+05 -5.863158E+04 -1.368044E+05 -3.941096E+04 -8.832270E+03
       148   5 -3.164402E+05 -6.192121E+04 -2.552170E+04 -1.424027E+05 -2.979563E+04  7.129813E+03
       148   6 -3.148885E+05 -6.829029E+04 -1.441239E+04 -1.537634E+05 -1.601601E+04  1.200507E+04
       148   7  4.517693E+04  4.528650E+04  4.307586E+04 -1.537028E+04 -2.471627E+04 -3.314939E+03
       148   8  9.462930E+03  6.663894E+04  5.509887E+04 -4.553912E+04 -2.505711E+04  8.907682E+03
       148   9 -2.755373E+04  3.205123E+04  5.301905E+04 -8.147045E+04 -2.123545E+04  1.004590E+04
       148  10 -6.876017E+05 -2.722268E+05 -1.603559E+05 -2.581694E+05 -4.569195E-10 -1.984637E-10
       148  11 -6.422385E+05 -1.904704E+05 -1.061524E+05 -2.392184E+05 -9.085211E-10  7.796072E-10
       148  12 -6.021416E+05 -1.686286E+05 -8.185003E+04 -2.260269E+05 -8.542282E-10  1.946152E-10
       148  13 -3.212793E+05 -1.134811E+05 -5.863465E+04 -1.368047E+05 -2.374002E-09  9.500039E-10
       148  14 -3.164412E+05 -6.192150E+04 -2.552347E+04 -1.424026E+05  2.451715E-10  1.044884E-09
       148  15 -3.148888E+05 -6.829051E+04 -1.441315E+04 -1.537633E+05 -8.830201E-10 -6.679010E-10
       148  16  4.517627E+04  4.528632E+04  4.307470E+04 -1.537035E+04  1.979164E-09  7.866704E-10
       148  17  9.462234E+03  6.663869E+04  5.509754E+04 -4.553894E+04  8.240649E-10  1.240902E-09
       148  18 -2.755424E+04  3.205100E+04  5.301802E+04 -8.147027E+04 -2.656901E-09 -9.103142E-10
       148  19 -6.875985E+05 -2.722258E+05 -1.603500E+05 -2.581688E+05  5.409605E+04  1.434475E+04
       148  20 -6.422372E+05 -1.904701E+05 -1.061501E+05 -2.392186E+05  3.453143E+04 -5.353108E+03
       148  21 -6.021414E+05 -1.686283E+05 -8.184944E+04 -2.260270E+05  1.079920E+04 -1.396339E+04
       148  22 -3.212776E+05 -1.134806E+05 -5.863158E+04 -1.368044E+05  3.941096E+04  8.832270E+03
       148  23 -3.164402E+05 -6.192121E+04 -2.552170E+04 -1.424027E+05  2.979563E+04 -7.129813E+03
       148  24 -3.148885E+05 -6.829029E+04 -1.441239E+04 -1.537634E+05  1.601601E+04 -1.200507E+04
       148  25  4.517693E+04  4.528650E+04  4.307586E+04 -1.537028E+04  2.471627E+04  3.314939E+03
       148  26  9.462930E+03  6.663894E+04  5.509887E+04 -4.553912E+04  2.505711E+04 -8.907682E+03
       148  27 -2.755373E+04  3.205123E+04  5.301905E+04 -8.147045E+04  2.123545E+04 -1.004590E+04
       149   1 -5.540305E+05 -1.630520E+05 -6.938885E+04 -2.182909E+05 -1.122227E+04  1.065236E+04
       149   2 -5.117830E+05 -1.340482E+05 -5.183614E+04 -1.962913E+05 -6.891816E+03  9.540671E+03
       149   3 -4.558569E+05 -1.227878E+05 -3.754414E+04 -1.910218E+05 -2.375325E+03  7.931626E+03
       149   4 -3.129608E+05 -7.257411E+04 -1.139686E+04 -1.512310E+05 -1.315558E+04  9.926494E+03
       149   5 -3.196599E+05 -6.246580E+04 -5.883290E+03 -1.433448E+05 -9.270686E+03  8.647979E+03
       149   6 -3.125940E+05 -7.001199E+04 -3.276178E+03 -1.521895E+05 -5.200061E+03  6.872076E+03
       149   7 -7.183469E+04  1.790768E+04  4.659055E+04 -8.414771E+04 -1.508969E+04  9.200319E+03
       149   8 -1.275001E+05  9.119243E+03  4.006691E+04 -9.038338E+04 -1.165036E+04  7.754984E+03
       149   9 -1.693100E+05 -1.723456E+04  3.099054E+04 -1.133488E+05 -8.025522E+03  5.812259E+03
       149  10 -5.540307E+05 -1.630521E+05 -6.938930E+04 -2.182908E+05 -2.439544E-09 -8.639082E-10
       149  11 -5.117830E+05 -1.340483E+05 -5.183640E+04 -1.962912E+05  1.950585E-09 -6.152792E-10
       149  12 -4.558569E+05 -1.227878E+05 -3.754427E+04 -1.910218E+05  9.524808E-11 -2.469049E-10
       149  13 -3.129610E+05 -7.257426E+04 -1.139737E+04 -1.512309E+05 -1.859061E-09 -9.877503E-10
       149  14 -3.196600E+05 -6.246590E+04 -5.883592E+03 -1.433447E+05  4.450275E-11 -3.824706E-10
       149  15 -3.125940E+05 -7.001204E+04 -3.276317E+03 -1.521894E+05  8.449393E-10 -3.260936E-10
       149  16 -7.183496E+04  1.790753E+04  4.658996E+04 -8.414760E+04 -1.858702E-09 -1.079110E-09
       149  17 -1.275003E+05  9.119142E+03  4.006655E+04 -9.038331E+04 -1.758959E-09 -4.573236E-10
       149  18 -1.693101E+05 -1.723461E+04  3.099035E+04 -1.133488E+05 -2.764626E-10 -3.770817E-10
       149  19 -5.540305E+05 -1.630520E+05 -6.938885E+04 -2.182909E+05  1.122227E+04 -1.065236E+04
       149  20 -5.117830E+05 -1.340482E+05 -5.183614E+04 -1.962913E+05  6.891816E+03 -9.540671E+03
       149  21 -4.558569E+05 -1.227878E+05 -3.754414E+04 -1.910218E+05  2.375325E+03 -7.931626E+03
       149  22 -3.129608E+05 -7.257411E+04 -1.139686E+04 -1.512310E+05  1.315558E+04 -9.926494E+03
       149  23 -3.196599E+05 -6.246580E+04 -5.883290E+03 -1.433448E+05  9.270686E+03 -8.647979E+03
       149  24 -3.125940E+05 -7.001199E+04 -3.276178E+03 -1.521895E+05  5.200061E+03 -6.872076E+03
       149  25 -7.183469E+04  1.790768E+04  4.659055E+04 -8.414771E+04  1.508969E+04 -9.200319E+03
       149  26 -1.275001E+05  9.119243E+03  4.006691E+04 -9.038338E+04  1.165036E+04 -7.754984E+03
       149  27 -1.693100E+05 -1.723456E+04  3.099054E+04 -1.133488E+05  8.025522E+03 -5.812259E+03
       150   1 -4.146114E+05 -1.081394E+05 -2.672624E+04 -1.800556E+05 -1.381774E+03  6.247735E+03
       150   2 -3.726267E+05 -8.208213E+04 -1.396903E+04 -1.578319E+05  4.583358E+02  3.522940E+03
       150   3 -3.156683E+05 -7.131144E+04 -1.786889E+03 -1.529220E+05  2.306757E+03  7.753076E+02
       150   4 -3.124296E+05 -7.024650E+04 -2.501110E+03 -1.520323E+05 -4.061239E+03  5.242820E+03
       150   5 -3.199070E+05 -6.253837E+04 -1.393577E+03 -1.433998E+05 -2.241580E+03  2.510459E+03
       150   6 -3.124091E+05 -7.011266E+04 -8.446438E+02 -1.520818E+05 -4.136790E+02 -2.447480E+02
       150   7 -2.102374E+05 -3.235287E+04  2.172331E+04 -1.240048E+05 -6.741183E+03  4.237726E+03
       150   8 -2.671848E+05 -4.299447E+04  1.118167E+04 -1.289665E+05 -4.941739E+03  1.497888E+03
       150   9 -3.091499E+05 -6.891388E+04  9.762734E+01 -1.512415E+05 -3.134116E+03 -1.264804E+03
       150  10 -4.146114E+05 -1.081394E+05 -2.672632E+04 -1.800556E+05  1.415310E-09 -8.134806E-13
       150  11 -3.726267E+05 -8.208215E+04 -1.396906E+04 -1.578319E+05  1.611368E-09 -1.509985E-11
       150  12 -3.156683E+05 -7.131144E+04 -1.786900E+03 -1.529220E+05 -1.996694E-09 -3.998145E-10
       150  13 -3.124296E+05 -7.024653E+04 -2.501193E+03 -1.520323E+05  1.109527E-10 -3.518591E-10
       150  14 -3.199070E+05 -6.253838E+04 -1.393598E+03 -1.433997E+05  7.158447E-10 -2.226440E-10
       150  15 -3.124091E+05 -7.011266E+04 -8.446442E+02 -1.520818E+05 -2.566874E-10  2.828783E-10
       150  16 -2.102374E+05 -3.235290E+04  2.172319E+04 -1.240048E+05 -1.355961E-09 -5.846750E-10
       150  17 -2.671848E+05 -4.299448E+04  1.118162E+04 -1.289665E+05  2.631150E-10 -3.019616E-10
       150  18 -3.091499E+05 -6.891389E+04  9.760586E+01 -1.512415E+05  4.872467E-10  8.159015E-10
       150  19 -4.146114E+05 -1.081394E+05 -2.672624E+04 -1.800556E+05  1.381774E+03 -6.247735E+03
       150  20 -3.726267E+05 -8.208213E+04 -1.396903E+04 -1.578319E+05 -4.583358E+02 -3.522940E+03
       150  21 -3.156683E+05 -7.131144E+04 -1.786889E+03 -1.529220E+05 -2.306757E+03 -7.753076E+02
       150  22 -3.124296E+05 -7.024650E+04 -2.501110E+03 -1.520323E+05  4.061239E+03 -5.242820E+03
       150  23 -3.199070E+05 -6.253837E+04 -1.393577E+03 -1.433998E+05  2.241580E+03 -2.510459E+03
       150  24 -3.124091E+05 -7.011266E+04 -8.446438E+02 -1.520818E+05  4.136790E+02  2.447480E+02
       150  25 -2.102374E+05 -3.235287E+04  2.172331E+04 -1.240048E+05  6.741183E+03 -4.237726E+03
       150  26 -2.671848E+05 -4.299447E+04  1.118167E+04 -1.289665E+05  4.941739E+03 -1.497888E+03
       150  27 -3.091499E+05 -6.891388E+04  9.762734E+01 -1.512415E+05  3.134116E+03  1.264804E+03
       151   1 -2.748339E+05 -5.613704E+04  8.435120E+03 -1.417639E+05  3.087892E+03 -9.403601E+02
       151   2 -2.329051E+05 -3.024361E+04  2.019259E+04 -1.195250E+05  4.503598E+03 -3.854326E+03
       151   3 -1.758938E+05 -1.948431E+04  3.173698E+04 -1.146120E+05  5.919628E+03 -6.767987E+03
       151   4 -3.123922E+05 -7.012217E+04 -6.981330E+02 -1.520689E+05  3.741186E+02 -1.957942E+03
       151   5 -3.199335E+05 -6.255616E+04 -5.685737E+02 -1.434052E+05  1.789874E+03 -4.872076E+03
       151   6 -3.123960E+05 -7.012528E+04 -6.524598E+02 -1.520692E+05  3.205916E+03 -7.785889E+03
       151   7 -3.499494E+05 -8.410732E+04 -9.831549E+03 -1.623733E+05 -2.339499E+03 -2.975465E+03
       151   8 -4.069541E+05 -9.486806E+04 -2.133018E+04 -1.672823E+05 -9.234274E+02 -5.889668E+03
       151   9 -4.488776E+05 -1.207642E+05 -3.304263E+04 -1.895183E+05  4.928928E+02 -8.803532E+03
       151  10 -2.748339E+05 -5.613705E+04  8.435101E+03 -1.417639E+05 -6.321590E-10  1.659561E-10
       151  11 -2.329051E+05 -3.024363E+04  2.019252E+04 -1.195250E+05 -6.778308E-11 -1.815671E-10
       151  12 -1.758939E+05 -1.948437E+04  3.173682E+04 -1.146120E+05 -3.383508E-10 -8.140319E-10
       151  13 -3.123922E+05 -7.012218E+04 -6.981404E+02 -1.520689E+05 -3.922811E-11  1.379485E-10
       151  14 -3.199335E+05 -6.255619E+04 -5.686243E+02 -1.434052E+05  5.786088E-11 -5.927903E-10
       151  15 -3.123960E+05 -7.012535E+04 -6.525930E+02 -1.520692E+05  7.095005E-10 -3.314198E-10
       151  16 -3.499494E+05 -8.410733E+04 -9.831576E+03 -1.623733E+05  1.585069E-10  8.817418E-11
       151  17 -4.069541E+05 -9.486810E+04 -2.133024E+04 -1.672823E+05 -1.432774E-09 -9.977073E-10
       151  18 -4.488777E+05 -1.207642E+05 -3.304278E+04 -1.895183E+05 -4.283392E-10  7.009092E-11
       151  19 -2.748339E+05 -5.613704E+04  8.435120E+03 -1.417639E+05 -3.087892E+03  9.403601E+02
       151  20 -2.329051E+05 -3.024361E+04  2.019259E+04 -1.195250E+05 -4.503598E+03  3.854326E+03
       151  21 -1.758938E+05 -1.948431E+04  3.173698E+04 -1.146120E+05 -5.919628E+03  6.767987E+03
       151  22 -3.123922E+05 -7.012217E+04 -6.981330E+02 -1.520689E+05 -3.741186E+02  1.957942E+03
       151  23 -3.199335E+05 -6.255616E+04 -5.685737E+02 -1.434052E+05 -1.789874E+03  4.872076E+03
       151  24 -3.123960E+05 -7.012528E+04 -6.524598E+02 -1.520692E+05 -3.205916E+03  7.785889E+03
       151  25 -3.499494E+05 -8.410732E+04 -9.831549E+03 -1.623733E+05  2.339499E+03  2.975465E+03
       151  26 -4.069541E+05 -9.486806E+04 -2.133018E+04 -1.672823E+05  9.234274E+02  5.889668E+03
       151  27 -4.488776E+05 -1.207642E+05 -3.304263E+04 -1.895183E+05 -4.928928E+02  8.803532E+03
       152   1 -1.351458E+05 -4.294653E+03  4.168243E+04 -1.034528E+05  6.695720E+03 -8.481227E+03
       152   2 -9.328818E+04  2.155244E+04  5.280876E+04 -8.124201E+04  8.445442E+03 -1.126472E+04
       152   3 -3.640328E+04  3.226499E+04  6.347233E+04 -7.632464E+04  1.019445E+04 -1.404307E+04
       152   4 -3.124097E+05 -7.012062E+04 -7.722562E+02 -1.520647E+05  3.983443E+03 -9.498784E+03
       152   5 -3.199275E+05 -6.257092E+04 -1.249621E+03 -1.434118E+05  5.737249E+03 -1.228122E+04
       152   6 -3.124205E+05 -7.015697E+04 -2.192790E+03 -1.520535E+05  7.490292E+03 -1.505855E+04
       152   7 -4.896437E+05 -1.359448E+05 -4.322952E+04 -2.006643E+05  1.271991E+03 -1.051603E+04
       152   8 -5.465186E+05 -1.466917E+05 -5.531242E+04 -2.055617E+05  3.030100E+03 -1.329734E+04
       152   9 -5.883667E+05 -1.725753E+05 -6.786464E+04 -2.277531E+05  4.787395E+03 -1.607355E+04
       152  10 -1.351459E+05 -4.294742E+03  4.168221E+04 -1.034527E+05  3.139790E-10 -4.513077E-10
       152  11 -9.328829E+04  2.155229E+04  5.280839E+04 -8.124194E+04 -1.344245E-09  4.142320E-10
       152  12 -3.640344E+04  3.226475E+04  6.347176E+04 -7.632452E+04 -3.029240E-10 -1.993697E-10
       152  13 -3.124098E+05 -7.012072E+04 -7.724555E+02 -1.520647E+05 -1.219733E-09  1.130199E-10
       152  14 -3.199276E+05 -6.257109E+04 -1.249966E+03 -1.434117E+05 -1.794674E-09  1.036134E-10
       152  15 -3.124206E+05 -7.015723E+04 -2.193321E+03 -1.520535E+05 -1.672347E-09 -2.924211E-11
       152  16 -4.896437E+05 -1.359449E+05 -4.322973E+04 -2.006643E+05 -8.382116E-10  5.533820E-10
       152  17 -5.465186E+05 -1.466919E+05 -5.531277E+04 -2.055616E+05 -2.165102E-09  5.911038E-10
       152  18 -5.883668E+05 -1.725756E+05 -6.786516E+04 -2.277530E+05 -5.619778E-10  5.752236E-10
       152  19 -1.351458E+05 -4.294653E+03  4.168243E+04 -1.034528E+05 -6.695720E+03  8.481227E+03
       152  20 -9.328818E+04  2.155244E+04  5.280876E+04 -8.124201E+04 -8.445442E+03  1.126472E+04
       152  21 -3.640328E+04  3.226499E+04  6.347233E+04 -7.632464E+04 -1.019445E+04  1.404307E+04
       152  22 -3.124097E+05 -7.012062E+04 -7.722562E+02 -1.520647E+05 -3.983443E+03  9.498784E+03
       152  23 -3.199275E+05 -6.257092E+04 -1.249621E+03 -1.434118E+05 -5.737249E+03  1.228122E+04
       152  24 -3.124205E+05 -7.015697E+04 -2.192790E+03 -1.520535E+05 -7.490292E+03  1.505855E+04
       152  25 -4.896437E+05 -1.359448E+05 -4.322952E+04 -2.006643E+05 -1.271991E+03  1.051603E+04
       152  26 -5.465186E+05 -1.466917E+05 -5.531242E+04 -2.055617E+05 -3.030100E+03  1.329734E+04
       152  27 -5.883667E+05 -1.725753E+05 -6.786464E+04 -2.277531E+05 -4.787395E+03  1.607355E+04
       153   1  4.208445E+03  4.739799E+04  7.280123E+04 -6.529740E+04  1.128226E+04 -1.563701E+04
       153   2  4.602432E+04  7.326325E+04  8.203876E+04 -4.302890E+04  1.498161E+04 -1.766548E+04
       153   3  1.023857E+05  8.347105E+04  8.921870E+04 -3.792228E+04  1.866612E+04 -1.964933E+04
       153   4 -3.125143E+05 -7.011110E+04 -2.897872E+03 -1.520893E+05  8.569565E+03 -1.665606E+04
       153   5 -3.198253E+05 -6.254559E+04 -5.225434E+03 -1.434099E+05  1.230710E+04 -1.867092E+04
       153   6 -3.126005E+05 -7.064551E+04 -9.641398E+03 -1.518934E+05  1.602958E+04 -2.064122E+04
       153   7 -6.291328E+05 -1.876114E+05 -7.860287E+04 -2.388396E+05  5.858423E+03 -1.767453E+04
       153   8 -6.855391E+05 -1.983438E+05 -9.249836E+04 -2.437363E+05  9.634331E+03 -1.967571E+04
       153   9 -7.274150E+05 -2.247496E+05 -1.085136E+05 -2.657950E+05  1.339498E+04 -2.163239E+04
       153  10  4.208243E+03  4.739769E+04  7.280053E+04 -6.529725E+04 -1.168646E-09 -3.767091E-10
       153  11  4.602400E+04  7.326286E+04  8.203775E+04 -4.302868E+04 -2.212072E-09  3.581229E-10
       153  12  1.023852E+05  8.347054E+04  8.921732E+04 -3.792199E+04 -7.557909E-10  5.333212E-11
       153  13 -3.125145E+05 -7.011142E+04 -2.898531E+03 -1.520892E+05 -2.137624E-09 -4.608847E-11
       153  14 -3.198256E+05 -6.254601E+04 -5.226374E+03 -1.434097E+05  2.246803E-10 -3.289541E-10
       153  15 -3.126009E+05 -7.064604E+04 -9.642682E+03 -1.518931E+05 -1.137484E-09 -6.879576E-10
       153  16 -6.291330E+05 -1.876117E+05 -7.860352E+04 -2.388395E+05 -1.256252E-09  1.534406E-10
       153  17 -6.855393E+05 -1.983443E+05 -9.249927E+04 -2.437361E+05 -1.440329E-09 -1.650290E-09
       153  18 -7.274153E+05 -2.247501E+05 -1.085148E+05 -2.657947E+05 -8.641568E-10 -8.586208E-10
       153  19  4.208445E+03  4.739799E+04  7.280123E+04 -6.529740E+04 -1.128226E+04  1.563701E+04
       153  20  4.602432E+04  7.326325E+04  8.203876E+04 -4.302890E+04 -1.498161E+04  1.766548E+04
       153  21  1.023857E+05  8.347105E+04  8.921870E+04 -3.792228E+04 -1.866612E+04  1.964933E+04
       153  22 -3.125143E+05 -7.011110E+04 -2.897872E+03 -1.520893E+05 -8.569565E+03  1.665606E+04
       153  23 -3.198253E+05 -6.254559E+04 -5.225434E+03 -1.434099E+05 -1.230710E+04  1.867092E+04
       153  24 -3.126005E+05 -7.064551E+04 -9.641398E+03 -1.518934E+05 -1.602958E+04  2.064122E+04
       153  25 -6.291328E+05 -1.876114E+05 -7.860287E+04 -2.388396E+05 -5.858423E+03  1.767453E+04
       153  26 -6.855391E+05 -1.983438E+05 -9.249836E+04 -2.437363E+05 -9.634331E+03  1.967571E+04
       153  27 -7.274150E+05 -2.247496E+05 -1.085136E+05 -2.657950E+05 -1.339498E+04  2.163239E+04
       154   1  1.434165E+05  9.827460E+04  9.610691E+04 -2.880062E+04  2.139643E+04 -2.070346E+04
       154   2  1.847029E+05  1.258743E+05  9.751596E+04 -3.801047E+03  3.327237E+04 -1.940110E+04
       154   3  2.359738E+05  1.286880E+05  8.824321E+04  6.273492E+03  4.481827E+04 -1.721249E+04
       154   4 -3.132356E+05 -6.973985E+04 -1.269608E+04 -1.525160E+05  1.850379E+04 -2.179210E+04
       154   5 -3.188602E+05 -6.224598E+04 -2.291087E+04 -1.431835E+05  3.116647E+04 -2.019507E+04
       154   6 -3.146631E+05 -7.970173E+04 -4.443814E+04 -1.487784E+05  4.349807E+04 -1.771186E+04
       154   7 -7.696836E+05 -2.377415E+05 -1.215147E+05 -2.761496E+05  1.561345E+04 -2.287990E+04
       154   8 -8.221731E+05 -2.503482E+05 -1.433564E+05 -2.824632E+05  2.906242E+04 -2.098834E+04
       154   9 -8.649995E+05 -2.880673E+05 -1.771418E+05 -3.037042E+05  4.217913E+04 -1.821075E+04
       154  10  1.434159E+05  9.827401E+04  9.610524E+04 -2.880026E+04  1.705348E-09  2.056950E-10
       154  11  1.847016E+05  1.258736E+05  9.751317E+04 -3.800527E+03 -2.749584E-09  4.644017E-10
       154  12  2.359715E+05  1.286872E+05  8.823888E+04  6.274113E+03 -4.232820E-09 -7.543044E-10
       154  13 -3.132361E+05 -6.974045E+04 -1.269762E+04 -1.525156E+05 -1.378224E-09 -1.078391E-09
       154  14 -3.188613E+05 -6.224668E+04 -2.291346E+04 -1.431830E+05 -1.191469E-09 -2.671015E-09
       154  15 -3.146652E+05 -7.970257E+04 -4.444229E+04 -1.487778E+05 -3.425214E-10  4.934313E-10
       154  16 -7.696840E+05 -2.377422E+05 -1.215161E+05 -2.761494E+05 -1.863066E-09 -1.651821E-09
       154  17 -8.221741E+05 -2.503489E+05 -1.433589E+05 -2.824628E+05  1.814073E-10 -2.024545E-09
       154  18 -8.650015E+05 -2.880681E+05 -1.771458E+05 -3.037035E+05  3.804877E-09  1.055223E-09
       154  19  1.434165E+05  9.827460E+04  9.610691E+04 -2.880062E+04 -2.139643E+04  2.070346E+04
       154  20  1.847029E+05  1.258743E+05  9.751596E+04 -3.801047E+03 -3.327237E+04  1.940110E+04
       154  21  2.359738E+05  1.286880E+05  8.824321E+04  6.273492E+03 -4.481827E+04  1.721249E+04
       154  22 -3.132356E+05 -6.973985E+04 -1.269608E+04 -1.525160E+05 -1.850379E+04  2.179210E+04
       154  23 -3.188602E+05 -6.224598E+04 -2.291087E+04 -1.431835E+05 -3.116647E+04  2.019507E+04
       154  24 -3.146631E+05 -7.970173E+04 -4.443814E+04 -1.487784E+05 -4.349807E+04  1.771186E+04
       154  25 -7.696836E+05 -2.377415E+05 -1.215147E+05 -2.761496E+05 -1.561345E+04  2.287990E+04
       154  26 -8.221731E+05 -2.503482E+05 -1.433564E+05 -2.824632E+05 -2.906242E+04  2.098834E+04
       154  27 -8.649995E+05 -2.880673E+05 -1.771418E+05 -3.037042E+05 -4.217913E+04  1.821075E+04
       155   1  2.899545E+05  1.395213E+05  8.533584E+04 -1.615601E+04  5.907833E+04 -1.586603E+04
       155   2  3.138443E+05  1.998067E+05  5.627092E+04  6.058187E+04  9.409286E+04 -4.975254E+02
       155   3  2.852545E+05  8.087364E+04 -4.460044E+04  1.643020E+05  1.217049E+05  3.452634E+04
       155   4 -3.219879E+05 -6.318746E+04 -5.621234E+04 -1.588953E+05  5.193187E+04 -1.855619E+04
       155   5 -3.064840E+05 -5.983003E+04 -9.954538E+04 -1.392355E+05  1.045695E+05  3.440531E+03
       155   6 -3.470255E+05 -2.393022E+05 -2.287094E+05 -9.257889E+04  1.497981E+05  4.509368E+04
       155   7 -9.335586E+05 -2.658875E+05 -1.977851E+05 -3.015147E+05  4.479309E+04 -2.124418E+04
       155   8 -9.264233E+05 -3.194088E+05 -2.553900E+05 -3.388595E+05  1.150347E+05  7.373042E+03
       155   9 -9.788883E+05 -5.593420E+05 -4.128497E+05 -3.491869E+05  1.778594E+05  5.563972E+04
       155  10  2.899507E+05  1.395201E+05  8.532881E+04 -1.615526E+04  6.992928E-10  5.675047E-10
       155  11  3.138348E+05  1.998043E+05  5.625429E+04  6.058191E+04  3.225022E-09 -2.666511E-09
       155  12  2.852382E+05  8.086838E+04 -4.463050E+04  1.642986E+05  1.306014E-09 -2.599787E-09
       155  13 -3.219908E+05 -6.318856E+04 -5.621805E+04 -1.588945E+05  1.178366E-09 -1.656919E-09
       155  14 -3.064957E+05 -5.983298E+04 -9.956597E+04 -1.392358E+05  1.624169E-09  5.097182E-09
       155  15 -3.470502E+05 -2.393105E+05 -2.287555E+05 -9.258433E+04  7.331584E-10  1.711541E-09
       155  16 -9.335609E+05 -2.658886E+05 -1.977897E+05 -3.015139E+05  2.550668E-09  1.153334E-09
       155  17 -9.264376E+05 -3.194124E+05 -2.554151E+05 -3.388602E+05  1.328605E-09  5.072669E-09
       155  18 -9.789231E+05 -5.593538E+05 -4.129151E+05 -3.491949E+05  7.963140E-10  3.942677E-10
       155  19  2.899545E+05  1.395213E+05  8.533584E+04 -1.615601E+04 -5.907833E+04  1.586603E+04
       155  20  3.138443E+05  1.998067E+05  5.627092E+04  6.058187E+04 -9.409286E+04  4.975254E+02
       155  21  2.852545E+05  8.087364E+04 -4.460044E+04  1.643020E+05 -1.217049E+05 -3.452634E+04
       155  22 -3.219879E+05 -6.318746E+04 -5.621234E+04 -1.588953E+05 -5.193187E+04  1.855619E+04
       155  23 -3.064840E+05 -5.983003E+04 -9.954538E+04 -1.392355E+05 -1.045695E+05 -3.440531E+03
       155  24 -3.470255E+05 -2.393022E+05 -2.287094E+05 -9.257889E+04 -1.497981E+05 -4.509368E+04
       155  25 -9.335586E+05 -2.658875E+05 -1.977851E+05 -3.015147E+05 -4.479309E+04  2.124418E+04
       155  26 -9.264233E+05 -3.194088E+05 -2.553900E+05 -3.388595E+05 -1.150347E+05 -7.373042E+03
       155  27 -9.788883E+05 -5.593420E+05 -4.128497E+05 -3.491869E+05 -1.778594E+05 -5.563972E+04
       156   1  2.151563E+05  2.021376E+06  2.239651E+05  2.209686E+04  8.238054E+03  1.190782E+05
       156   2  1.451815E+05  2.106394E+06  1.671233E+05  4.517428E+04  3.025939E+04  7.267749E+04
       156   3  1.505013E+05  2.216347E+06  1.592796E+05  9.470398E+04  4.223356E+04  2.626903E+04
       156   4  1.066489E+05  1.580489E+06  1.217176E+05  8.585146E+04  8.264584E+03  8.003505E+04
       156   5  1.683513E+04  1.569302E+06  6.152625E+04  7.259508E+04  3.027650E+04  4.814979E+04
       156   6 -1.719139E+02  1.580534E+06  4.028537E+04  8.578764E+04  4.224266E+04  1.626227E+04
       156   7 -1.856131E+03  1.139792E+06  1.946498E+04  1.495606E+05  8.283130E+03  4.101930E+04
       156   8 -1.115255E+05  1.032489E+06 -4.408212E+04  9.999174E+04  3.029146E+04  2.364278E+04
       156   9 -1.508681E+05  9.451106E+05 -7.872586E+04  7.688067E+04  4.225205E+04  6.265455E+03
       156  10  2.151525E+05  2.021361E+06  2.239384E+05  2.209607E+04  9.356061E-10  1.238745E-09
       156  11  1.451791E+05  2.106388E+06  1.671116E+05  4.517251E+04  4.459790E-10 -1.285253E-09
       156  12  1.504992E+05  2.216345E+06  1.592749E+05  9.470308E+04 -4.836377E-10 -4.684234E-10
       156  13  1.066471E+05  1.580482E+06  1.217055E+05  8.585092E+04  2.011080E-10 -4.388872E-10
       156  14  1.683352E+04  1.569299E+06  6.152018E+04  7.259391E+04 -7.867493E-10 -1.367553E-09
       156  15 -1.739020E+02  1.580533E+06  4.028152E+04  8.578709E+04  8.146414E-10 -1.686948E-10
       156  16 -1.856655E+03  1.139790E+06  1.946169E+04  1.495603E+05  1.319616E-10 -5.785598E-10
       156  17 -1.115267E+05  1.032488E+06 -4.408490E+04  9.999116E+04  1.964298E-09 -5.751444E-10
       156  18 -1.508700E+05  9.451101E+05 -7.872929E+04  7.688046E+04  1.092086E-09  9.509130E-10
       156  19  2.151563E+05  2.021376E+06  2.239651E+05  2.209686E+04 -8.238054E+03 -1.190782E+05
       156  20  1.451815E+05  2.106394E+06  1.671233E+05  4.517428E+04 -3.025939E+04 -7.267749E+04
       156  21  1.505013E+05  2.216347E+06  1.592796E+05  9.470398E+04 -4.223356E+04 -2.626903E+04
       156  22  1.066489E+05  1.580489E+06  1.217176E+05  8.585146E+04 -8.264584E+03 -8.003505E+04
       156  23  1.683513E+04  1.569302E+06  6.152625E+04  7.259508E+04 -3.027650E+04 -4.814979E+04
       156  24 -1.719139E+02  1.580534E+06  4.028537E+04  8.578764E+04 -4.224266E+04 -1.626227E+04
       156  25 -1.856131E+03  1.139792E+06  1.946498E+04  1.495606E+05 -8.283130E+03 -4.101930E+04
       156  26 -1.115255E+05  1.032489E+06 -4.408212E+04  9.999174E+04 -3.029146E+04 -2.364278E+04
       156  27 -1.508681E+05  9.451106E+05 -7.872586E+04  7.688067E+04 -4.225205E+04 -6.265455E+03
       157   1  1.699841E+05  2.278146E+06  1.673519E+05  8.262320E+04  4.638903E+04  2.247941E+04
       157   2  1.900412E+05  2.373831E+06  1.829414E+05  7.229085E+04  5.342938E+04  1.703006E+03
       157   3  2.188190E+05  2.474556E+06  2.142412E+05  8.785992E+04  5.770299E+04 -1.907537E+04
       157   4  3.652643E+03  1.576491E+06  3.582995E+04  8.567697E+04  4.640165E+04  1.032605E+04
       157   5  6.261779E+02  1.574292E+06  3.360360E+04  7.272583E+04  5.344206E+04 -6.436420E+03
       157   6  5.632586E+03  1.576436E+06  4.431773E+04  8.567775E+04  5.771418E+04 -2.319772E+04
       157   7 -1.627071E+05  8.753094E+05 -9.571272E+04  8.872726E+04  4.641415E+04 -1.813967E+03
       157   8 -1.888255E+05  7.753696E+05 -1.157614E+05  7.316033E+04  5.345475E+04 -1.456566E+04
       157   9 -2.076008E+05  6.790910E+05 -1.256414E+05  8.349894E+04  5.772540E+04 -2.731424E+04
       157  10  1.699817E+05  2.278145E+06  1.673469E+05  8.262236E+04 -8.867659E-10 -6.075024E-09
       157  11  1.900381E+05  2.373831E+06  1.829360E+05  7.229078E+04 -1.217192E-09  3.996466E-09
       157  12  2.188153E+05  2.474555E+06  2.142342E+05  8.786080E+04 -7.746871E-11  1.718047E-08
       157  13  3.650301E+03  1.576490E+06  3.582570E+04  8.567658E+04 -1.615570E-10 -9.630060E-10
       157  14  6.230977E+02  1.574292E+06  3.359815E+04  7.272611E+04  1.624011E-09 -2.109277E-09
       157  15  5.628862E+03  1.576434E+06  4.431045E+04  8.567883E+04 -5.917356E-10  1.166233E-10
       157  16 -1.627094E+05  8.753089E+05 -9.571678E+04  8.872732E+04  2.420886E-10  6.949689E-09
       157  17 -1.888287E+05  7.753686E+05 -1.157671E+05  7.316096E+04 -2.371957E-09 -6.997578E-09
       157  18 -2.076046E+05  6.790893E+05 -1.256491E+05  8.350021E+04  1.210002E-10 -1.621840E-08
       157  19  1.699841E+05  2.278146E+06  1.673519E+05  8.262320E+04 -4.638903E+04 -2.247941E+04
       157  20  1.900412E+05  2.373831E+06  1.829414E+05  7.229085E+04 -5.342938E+04 -1.703006E+03
       157  21  2.188190E+05  2.474556E+06  2.142412E+05  8.785992E+04 -5.770299E+04  1.907537E+04
       157  22  3.652643E+03  1.576491E+06  3.582995E+04  8.567697E+04 -4.640165E+04 -1.032605E+04
       157  23  6.261779E+02  1.574292E+06  3.360360E+04  7.272583E+04 -5.344206E+04  6.436420E+03
       157  24  5.632586E+03  1.576436E+06  4.431773E+04  8.567775E+04 -5.771418E+04  2.319772E+04
       157  25 -1.627071E+05  8.753094E+05 -9.571272E+04  8.872726E+04 -4.641415E+04  1.813967E+03
       157  26 -1.888255E+05  7.753696E+05 -1.157614E+05  7.316033E+04 -5.345475E+04  1.456566E+04
       157  27 -2.076008E+05  6.790910E+05 -1.256414E+05  8.349894E+04 -5.772540E+04  2.731424E+04
       158   1  2.290570E+05  2.548913E+06  2.366769E+05  7.026627E+04  6.156571E+04 -2.122755E+04
       158   2  2.796943E+05  2.628077E+06  3.033866E+05  1.123436E+05  5.365176E+04 -1.094519E+05
       158   3  4.461698E+05  2.747867E+06  4.563868E+05  1.789520E+05  1.658893E+04 -1.977478E+05
       158   4 -3.836403E+02  1.582876E+06  5.343373E+04  8.533033E+04  6.158377E+04 -3.066497E+04
       158   5  2.500539E+04  1.566095E+06  8.872461E+04  7.317501E+04  5.362162E+04 -7.672578E+04
       158   6  1.590286E+05  1.582691E+06  1.811596E+05  8.554163E+04  1.650328E+04 -1.228393E+05
       158   7 -2.298779E+05  6.177374E+05 -1.298506E+05  1.003707E+05  6.160140E+04 -4.008809E+04
       158   8 -2.297469E+05  5.051883E+05 -1.259908E+05  3.407472E+04  5.358734E+04 -4.405427E+04
       158   9 -1.281734E+05  4.187881E+05 -9.413561E+04 -7.692764E+03  1.639512E+04 -4.806993E+04
       158  10  2.290528E+05  2.548911E+06  2.366689E+05  7.026732E+04  2.476203E-10 -7.397187E-08
       158  11  2.796880E+05  2.628063E+06  3.033588E+05  1.123483E+05  1.163528E-09 -1.582549E-08
       158  12  4.461590E+05  2.747825E+06  4.563131E+05  1.789546E+05 -1.097310E-10  5.205743E-08
       158  13 -3.879677E+02  1.582874E+06  5.342483E+04  8.533185E+04  4.876497E-10 -1.230922E-09
       158  14  2.500072E+04  1.566088E+06  8.870816E+04  7.317832E+04 -6.182596E-10 -2.871293E-09
       158  15  1.590243E+05  1.582674E+06  1.811308E+05  8.554326E+04  1.071678E-09 -6.432070E-11
       158  16 -2.298824E+05  6.177346E+05 -1.298608E+05  1.003726E+05  8.276548E-10  7.529813E-08
       158  17 -2.297505E+05  5.051854E+05 -1.259998E+05  3.407662E+04  3.442180E-09  1.098745E-08
       158  18 -1.281743E+05  4.187856E+05 -9.414045E+04 -7.692129E+03  1.447860E-09 -5.067608E-08
       158  19  2.290570E+05  2.548913E+06  2.366769E+05  7.026627E+04 -6.156571E+04  2.122755E+04
       158  20  2.796943E+05  2.628077E+06  3.033866E+05  1.123436E+05 -5.365176E+04  1.094519E+05
       158  21  4.461698E+05  2.747867E+06  4.563868E+05  1.789520E+05 -1.658893E+04  1.977478E+05
       158  22 -3.836403E+02  1.582876E+06  5.343373E+04  8.533033E+04 -6.158377E+04  3.066497E+04
       158  23  2.500539E+04  1.566095E+06  8.872461E+04  7.317501E+04 -5.362162E+04  7.672578E+04
       158  24  1.590286E+05  1.582691E+06  1.811596E+05  8.554163E+04 -1.650328E+04  1.228393E+05
       158  25 -2.298779E+05  6.177374E+05 -1.298506E+05  1.003707E+05 -6.160140E+04  4.008809E+04
       158  26 -2.297469E+05  5.051883E+05 -1.259908E+05  3.407472E+04 -5.358734E+04  4.405427E+04
       158  27 -1.281734E+05  4.187881E+05 -9.413561E+04 -7.692764E+03 -1.639512E+04  4.806993E+04
       159   1 -2.330927E+05 -1.316731E+05 -9.259482E+04  3.654796E+03  8.541644E+04  1.566741E+04
       159   2 -1.388583E+05 -2.577037E+05 -1.471444E+05 -2.509770E+04  6.869488E+04  4.897437E+04
       159   3 -5.858688E+03 -2.394061E+05 -1.546355E+05 -9.720906E+04  5.201055E+04  5.121893E+04
       159   4  9.466250E+05  1.609288E+05  1.924569E+05 -7.417794E+04  1.324841E+05  1.571490E+04
       159   5  9.247691E+05  1.916904E+03  8.807073E+04 -5.241676E+04  8.587937E+04  4.898171E+04
       159   6  9.467699E+05 -7.726858E+03  5.141276E+04 -7.400392E+04  3.931712E+04  5.120731E+04
       159   7  2.127632E+06  4.534533E+05  4.774206E+05 -1.521594E+05  1.796408E+05  1.575055E+04
       159   8  1.989455E+06  2.614644E+05  3.232176E+05 -7.978338E+04  1.030929E+05  4.898754E+04
       159   9  1.900251E+06  2.238947E+05  2.574081E+05 -5.076277E+04  2.660444E+04  5.119474E+04
       159  10 -2.331006E+05 -1.316753E+05 -9.260899E+04  3.653718E+03 -6.665119E-10  8.331813E-11
       159  11 -1.388641E+05 -2.577075E+05 -1.471578E+05 -2.510041E+04 -5.919172E-11  2.229198E-10
       159  12 -5.862298E+03 -2.394097E+05 -1.546455E+05 -9.721120E+04 -2.668055E-10  3.294179E-10
       159  13  9.466062E+05  1.609239E+05  1.924235E+05 -7.417961E+04  1.980758E-11  1.304921E-10
       159  14  9.247605E+05  1.912350E+03  8.805238E+04 -5.242015E+04  2.519243E-10  4.015521E-10
       159  15  9.467675E+05 -7.730090E+03  5.140492E+04 -7.400554E+04  3.050210E-10  2.608673E-10
       159  16  2.127598E+06  4.534445E+05  4.773597E+05 -1.521617E+05 -5.033926E-11  2.379342E-10
       159  17  1.989443E+06  2.614589E+05  3.231932E+05 -7.978744E+04  1.917000E-10  5.070831E-10
       159  18  1.900250E+06  2.238916E+05  2.574019E+05 -5.076387E+04  2.365674E-10  1.649843E-10
       159  19 -2.330927E+05 -1.316731E+05 -9.259482E+04  3.654796E+03 -8.541644E+04 -1.566741E+04
       159  20 -1.388583E+05 -2.577037E+05 -1.471444E+05 -2.509770E+04 -6.869488E+04 -4.897437E+04
       159  21 -5.858688E+03 -2.394061E+05 -1.546355E+05 -9.720906E+04 -5.201055E+04 -5.121893E+04
       159  22  9.466250E+05  1.609288E+05  1.924569E+05 -7.417794E+04 -1.324841E+05 -1.571490E+04
       159  23  9.247691E+05  1.916904E+03  8.807073E+04 -5.241676E+04 -8.587937E+04 -4.898171E+04
       159  24  9.467699E+05 -7.726858E+03  5.141276E+04 -7.400392E+04 -3.931712E+04 -5.120731E+04
       159  25  2.127632E+06  4.534533E+05  4.774206E+05 -1.521594E+05 -1.796408E+05 -1.575055E+04
       159  26  1.989455E+06  2.614644E+05  3.232176E+05 -7.978338E+04 -1.030929E+05 -4.898754E+04
       159  27  1.900251E+06  2.238947E+05  2.574081E+05 -5.076277E+04 -2.660444E+04 -5.119474E+04
       160   1  7.526449E+04 -2.019120E+05 -1.467354E+05 -7.170147E+04  3.594764E+04  4.491558E+04
       160   2  1.855731E+05 -1.827954E+05 -1.402843E+05 -5.169507E+04  2.620546E+04  4.016179E+04
       160   3  2.993430E+05 -1.558258E+05 -1.254765E+05 -7.580614E+04  1.645679E+04  3.401865E+04
       160   4  9.378643E+05  8.007781E+03  4.073279E+04 -7.421853E+04  3.208441E+04  4.490911E+04
       160   5  9.360550E+05 -3.062512E+02  2.212441E+04 -5.216063E+04  2.099396E+04  4.015702E+04
       160   6  9.379230E+05 -5.392455E+02  1.279909E+04 -7.421656E+04  9.898755E+03  3.401634E+04
       160   7  1.801161E+06  2.178784E+05  2.281566E+05 -7.673916E+04  2.821585E+04  4.490269E+04
       160   8  1.687065E+06  1.821457E+05  1.844998E+05 -5.262677E+04  1.577624E+04  4.015226E+04
       160   9  1.576885E+06  1.547204E+05  1.510506E+05 -7.262530E+04  3.334064E+03  3.401399E+04
       160  10  7.526256E+04 -2.019145E+05 -1.467416E+05 -7.170277E+04 -6.955901E-10  2.197964E-10
       160  11  1.855719E+05 -1.827973E+05 -1.402886E+05 -5.169592E+04  4.297792E-10 -4.205908E-11
       160  12  2.993424E+05 -1.558271E+05 -1.254791E+05 -7.580659E+04  1.314075E-10 -2.980263E-10
       160  13  9.378626E+05  8.005338E+03  4.072707E+04 -7.421969E+04  4.586482E-10  1.101590E-10
       160  14  9.360541E+05 -3.081018E+02  2.212055E+04 -5.216131E+04 -6.728266E-10 -8.693218E-11
       160  15  9.379226E+05 -5.405149E+02  1.279673E+04 -7.421683E+04  8.414098E-10 -2.327715E-10
       160  16  1.801160E+06  2.178760E+05  2.281513E+05 -7.674018E+04  2.988934E-10 -2.223585E-11
       160  17  1.687064E+06  1.821439E+05  1.844963E+05 -5.262728E+04 -1.854156E-10 -1.448500E-10
       160  18  1.576885E+06  1.547191E+05  1.510484E+05 -7.262539E+04 -4.549635E-10 -2.342845E-10
       160  19  7.526449E+04 -2.019120E+05 -1.467354E+05 -7.170147E+04 -3.594764E+04 -4.491558E+04
       160  20  1.855731E+05 -1.827954E+05 -1.402843E+05 -5.169507E+04 -2.620546E+04 -4.016179E+04
       160  21  2.993430E+05 -1.558258E+05 -1.254765E+05 -7.580614E+04 -1.645679E+04 -3.401865E+04
       160  22  9.378643E+05  8.007781E+03  4.073279E+04 -7.421853E+04 -3.208441E+04 -4.490911E+04
       160  23  9.360550E+05 -3.062512E+02  2.212441E+04 -5.216063E+04 -2.099396E+04 -4.015702E+04
       160  24  9.379230E+05 -5.392455E+02  1.279909E+04 -7.421656E+04 -9.898755E+03 -3.401634E+04
       160  25  1.801161E+06  2.178784E+05  2.281566E+05 -7.673916E+04 -2.821585E+04 -4.490269E+04
       160  26  1.687065E+06  1.821457E+05  1.844998E+05 -5.262677E+04 -1.577624E+04 -4.015226E+04
       160  27  1.576885E+06  1.547204E+05  1.510506E+05 -7.262530E+04 -3.334064E+03 -3.401399E+04
       161   1  3.872383E+05 -1.333605E+05 -1.087715E+05 -7.431882E+04  1.404963E+04  3.010917E+04
       161   2  4.982328E+05 -1.067424E+05 -8.918041E+04 -5.234451E+04  1.131684E+04  2.368038E+04
       161   3  6.097529E+05 -7.966666E+04 -6.768681E+04 -7.423121E+04  8.580154E+03  1.719919E+04
       161   4  9.372454E+05  2.785860E+02  9.811153E+03 -7.416054E+04  7.904224E+03  3.010809E+04
       161   5  9.369987E+05 -9.750653E+01  5.622398E+03 -5.223107E+04  5.118396E+03  2.368079E+04
       161   6  9.372761E+05 -6.037849E+00  3.372232E+03 -7.416073E+04  2.329145E+03  1.720116E+04
       161   7  1.487536E+06  1.338979E+05  1.283761E+05 -7.400210E+04  1.753454E+03  3.010699E+04
       161   8  1.375945E+06  1.065348E+05  1.004140E+05 -5.211753E+04 -1.084367E+03  2.368120E+04
       161   9  1.264900E+06  7.964751E+04  7.442503E+04 -7.409019E+04 -3.925115E+03  1.720313E+04
       161  10  3.872379E+05 -1.333616E+05 -1.087736E+05 -7.431916E+04 -3.243944E-10 -2.753328E-10
       161  11  4.982325E+05 -1.067431E+05 -8.918171E+04 -5.234473E+04  2.541172E-10 -2.154080E-10
       161  12  6.097527E+05 -7.966699E+04 -6.768751E+04 -7.423133E+04  6.915907E-10 -2.081896E-10
       161  13  9.372450E+05  2.775954E+02  9.809331E+03 -7.416073E+04 -5.766635E-10 -1.857100E-10
       161  14  9.369985E+05 -9.811601E+01  5.621294E+03 -5.223117E+04  4.120454E-11 -5.109450E-12
       161  15  9.372760E+05 -6.357173E+00  3.371666E+03 -7.416076E+04  8.562113E-11  1.148551E-10
       161  16  1.487536E+06  1.338969E+05  1.283744E+05 -7.400214E+04 -3.511910E-11 -1.560401E-10
       161  17  1.375945E+06  1.065342E+05  1.004129E+05 -5.211751E+04 -5.928978E-10  1.455804E-10
       161  18  1.264900E+06  7.964719E+04  7.442445E+04 -7.409014E+04 -6.644498E-10  3.802939E-10
       161  19  3.872383E+05 -1.333605E+05 -1.087715E+05 -7.431882E+04 -1.404963E+04 -3.010917E+04
       161  20  4.982328E+05 -1.067424E+05 -8.918041E+04 -5.234451E+04 -1.131684E+04 -2.368038E+04
       161  21  6.097529E+05 -7.966666E+04 -6.768681E+04 -7.423121E+04 -8.580154E+03 -1.719919E+04
       161  22  9.372454E+05  2.785860E+02  9.811153E+03 -7.416054E+04 -7.904224E+03 -3.010809E+04
       161  23  9.369987E+05 -9.750653E+01  5.622398E+03 -5.223107E+04 -5.118396E+03 -2.368079E+04
       161  24  9.372761E+05 -6.037849E+00  3.372232E+03 -7.416073E+04 -2.329145E+03 -1.720116E+04
       161  25  1.487536E+06  1.338979E+05  1.283761E+05 -7.400210E+04 -1.753454E+03 -3.010699E+04
       161  26  1.375945E+06  1.065348E+05  1.004140E+05 -5.211753E+04  1.084367E+03 -2.368120E+04
       161  27  1.264900E+06  7.964751E+04  7.442503E+04 -7.409019E+04  3.925115E+03 -1.720313E+04
       162   1  6.977753E+05 -5.808881E+04 -4.874386E+04 -7.414259E+04  8.007830E+03  1.341735E+04
       162   2  8.086209E+05 -3.121839E+04 -2.593373E+04 -5.227004E+04  7.101827E+03  6.937209E+03
       162   3  9.195767E+05 -4.287984E+03 -2.528742E+03 -7.411607E+04  6.194637E+03  4.576496E+02
       162   4  9.371923E+05  3.356048E+01  2.667794E+03 -7.412935E+04  1.781149E+03  1.341992E+04
       162   5  9.371482E+05  1.461387E+01  1.828807E+03 -5.227034E+04  8.748604E+02  6.940205E+03
       162   6  9.372010E+05  5.592599E+01  1.584545E+03 -7.412936E+04 -3.245849E+01  4.611131E+02
       162   7  1.176663E+06  5.815219E+04  5.407624E+04 -7.411609E+04 -4.447897E+03  1.342249E+04
       162   8  1.065691E+06  3.124655E+04  2.959051E+04 -5.227063E+04 -5.353377E+03  6.943200E+03
       162   9  9.548257E+05  4.399835E+03  5.697956E+03 -7.414266E+04 -6.259729E+03  4.645767E+02
       162  10  6.977752E+05 -5.808902E+04 -4.874432E+04 -7.414268E+04  4.136736E-12 -1.356693E-10
       162  11  8.086208E+05 -3.121845E+04 -2.593392E+04 -5.227008E+04  5.041256E-10 -7.477535E-11
       162  12  9.195767E+05 -4.287995E+03 -2.528814E+03 -7.411607E+04  8.160210E-10 -1.358461E-10
       162  13  9.371922E+05  3.336615E+01  2.667449E+03 -7.412937E+04 -1.060299E-09  1.019773E-10
       162  14  9.371482E+05  1.456192E+01  1.828715E+03 -5.227034E+04 -4.772069E-10  1.136707E-10
       162  15  9.372010E+05  5.592576E+01  1.584544E+03 -7.412936E+04 -2.942597E-10 -1.669369E-10
       162  16  1.176663E+06  5.815200E+04  5.407587E+04 -7.411604E+04  4.129926E-10  4.192852E-10
       162  17  1.065691E+06  3.124649E+04  2.959037E+04 -5.227060E+04 -7.055139E-10  3.379668E-11
       162  18  9.548257E+05  4.399824E+03  5.697882E+03 -7.414266E+04 -1.065504E-09 -4.484673E-10
       162  19  6.977753E+05 -5.808881E+04 -4.874386E+04 -7.414259E+04 -8.007830E+03 -1.341735E+04
       162  20  8.086209E+05 -3.121839E+04 -2.593373E+04 -5.227004E+04 -7.101827E+03 -6.937209E+03
       162  21  9.195767E+05 -4.287984E+03 -2.528742E+03 -7.411607E+04 -6.194637E+03 -4.576496E+02
       162  22  9.371923E+05  3.356048E+01  2.667794E+03 -7.412935E+04 -1.781149E+03 -1.341992E+04
       162  23  9.371482E+05  1.461387E+01  1.828807E+03 -5.227034E+04 -8.748604E+02 -6.940205E+03
       162  24  9.372010E+05  5.592599E+01  1.584545E+03 -7.412936E+04  3.245849E+01 -4.611131E+02
       162  25  1.176663E+06  5.815219E+04  5.407624E+04 -7.411609E+04  4.447897E+03 -1.342249E+04
       162  26  1.065691E+06  3.124655E+04  2.959051E+04 -5.227063E+04  5.353377E+03 -6.943200E+03
       162  27  9.548257E+05  4.399835E+03  5.697956E+03 -7.414266E+04  6.259729E+03 -4.645767E+02
       163   1  1.007575E+06  1.721487E+04  1.715103E+04 -7.414664E+04  5.899661E+03 -3.313107E+03
       163   2  1.118464E+06  4.405919E+04  4.132179E+04 -5.225488E+04  4.829802E+03 -9.792869E+03
       163   3  1.229492E+06  7.096979E+04  6.619578E+04 -7.409353E+04  3.761192E+03 -1.627453E+04
       163   4  9.372068E+05  5.564617E+01  1.646689E+03 -7.413229E+04 -3.285015E+02 -3.309700E+03
       163   5  9.371369E+05  3.759691E+00  2.161619E+03 -5.226668E+04 -1.400430E+03 -9.790113E+03
       163   6  9.371944E+05  1.927342E+01  3.381737E+03 -7.413227E+04 -2.470924E+03 -1.627238E+04
       163   7  8.668430E+05 -1.710389E+04 -1.385781E+04 -7.411794E+04 -6.555967E+03 -3.306292E+03
       163   8  7.558405E+05 -4.405381E+04 -3.700035E+04 -5.227847E+04 -7.628869E+03 -9.787357E+03
       163   9  6.449775E+05 -7.093682E+04 -5.943716E+04 -7.417097E+04 -8.700151E+03 -1.627023E+04
       163  10  1.007575E+06  1.721485E+04  1.715094E+04 -7.414663E+04 -5.312005E-11 -2.446508E-11
       163  11  1.118464E+06  4.405908E+04  4.132157E+04 -5.225484E+04  1.533897E-10  2.740354E-10
       163  12  1.229491E+06  7.096950E+04  6.619526E+04 -7.409348E+04 -2.982654E-10  6.004472E-10
       163  13  9.372068E+05  5.563437E+01  1.646668E+03 -7.413229E+04 -8.466674E-11 -2.545483E-11
       163  14  9.371368E+05  3.656197E+00  2.161435E+03 -5.226669E+04  1.124692E-09  3.869173E-10
       163  15  9.371943E+05  1.898731E+01  3.381228E+03 -7.413230E+04  4.052592E-11  4.284434E-10
       163  16  8.668430E+05 -1.710391E+04 -1.385791E+04 -7.411795E+04  7.793784E-10 -4.160959E-10
       163  17  7.558404E+05 -4.405393E+04 -3.700064E+04 -5.227853E+04 -6.401345E-11  2.798884E-10
       163  18  6.449773E+05 -7.093712E+04 -5.943780E+04 -7.417108E+04  3.669515E-10  1.934755E-10
       163  19  1.007575E+06  1.721487E+04  1.715103E+04 -7.414664E+04 -5.899661E+03  3.313107E+03
       163  20  1.118464E+06  4.405919E+04  4.132179E+04 -5.225488E+04 -4.829802E+03  9.792869E+03
       163  21  1.229492E+06  7.096979E+04  6.619578E+04 -7.409353E+04 -3.761192E+03  1.627453E+04
       163  22  9.372068E+05  5.564617E+01  1.646689E+03 -7.413229E+04  3.285015E+02  3.309700E+03
       163  23  9.371369E+05  3.759691E+00  2.161619E+03 -5.226668E+04  1.400430E+03  9.790113E+03
       163  24  9.371944E+05  1.927342E+01  3.381737E+03 -7.413227E+04  2.470924E+03  1.627238E+04
       163  25  8.668430E+05 -1.710389E+04 -1.385781E+04 -7.411794E+04  6.555967E+03  3.306292E+03
       163  26  7.558405E+05 -4.405381E+04 -3.700035E+04 -5.227847E+04  7.628869E+03  9.787357E+03
       163  27  6.449775E+05 -7.093682E+04 -5.943716E+04 -7.417097E+04  8.700151E+03  1.627023E+04
       164   1  1.317816E+06  9.246635E+04  8.681946E+04 -7.404278E+04  3.087942E+03 -2.005764E+04
       164   2  1.428885E+06  1.193629E+05  1.136085E+05 -5.202575E+04 -6.242058E+02 -2.654017E+04
       164   3  1.540667E+06  1.468765E+05  1.429767E+05 -7.391467E+04 -4.333072E+03 -3.296920E+04
       164   4  9.373073E+05 -3.205022E+01  4.349359E+03 -7.417160E+04 -3.171339E+03 -2.005620E+04
       164   5  9.369423E+05 -1.396004E+02  7.376548E+03 -5.221745E+04 -6.829874E+03 -2.654048E+04
       164   6  9.372725E+05  3.622676E+02  1.294834E+04 -7.417137E+04 -1.048448E+04 -3.297119E+04
       164   7  5.569341E+05 -9.253999E+04 -7.812920E+04 -7.430031E+04 -9.426840E+03 -2.005476E+04
       164   8  4.452267E+05 -1.196580E+05 -9.886953E+04 -5.240897E+04 -1.303070E+04 -2.654078E+04
       164   9  3.342196E+05 -1.461758E+05 -1.171013E+05 -7.442780E+04 -1.663000E+04 -3.297318E+04
       164  10  1.317816E+06  9.246592E+04  8.681868E+04 -7.404273E+04  7.849519E-10  1.393256E-10
       164  11  1.428884E+06  1.193621E+05  1.136072E+05 -5.202576E+04  5.575334E-10 -6.407610E-10
       164  12  1.540666E+06  1.468753E+05  1.429747E+05 -7.391478E+04  2.228834E-10 -3.759914E-10
       164  13  9.373072E+05 -3.248506E+01  4.348584E+03 -7.417165E+04  1.717488E-11  7.369648E-11
       164  14  9.369421E+05 -1.403697E+02  7.375136E+03 -5.221759E+04 -6.914065E-10 -4.713168E-10
       164  15  9.372721E+05  3.610702E+02  1.294609E+04 -7.417165E+04  2.463128E-10 -4.984326E-10
       164  16  5.569339E+05 -9.254045E+04 -7.813013E+04 -7.430046E+04 -6.757116E-10  6.389367E-11
       164  17  4.452264E+05 -1.196588E+05 -9.887117E+04 -5.240925E+04 -6.038243E-10 -7.369262E-11
       164  18  3.342190E+05 -1.461771E+05 -1.171039E+05 -7.442824E+04  5.162512E-10 -4.497340E-10
       164  19  1.317816E+06  9.246635E+04  8.681946E+04 -7.404278E+04 -3.087942E+03  2.005764E+04
       164  20  1.428885E+06  1.193629E+05  1.136085E+05 -5.202575E+04  6.242058E+02  2.654017E+04
       164  21  1.540667E+06  1.468765E+05  1.429767E+05 -7.391467E+04  4.333072E+03  3.296920E+04
       164  22  9.373073E+05 -3.205022E+01  4.349359E+03 -7.417160E+04  3.171339E+03  2.005620E+04
       164  23  9.369423E+05 -1.396004E+02  7.376548E+03 -5.221745E+04  6.829874E+03  2.654048E+04
       164  24  9.372725E+05  3.622676E+02  1.294834E+04 -7.417137E+04  1.048448E+04  3.297119E+04
       164  25  5.569341E+05 -9.253999E+04 -7.812920E+04 -7.430031E+04  9.426840E+03  2.005476E+04
       164  26  4.452267E+05 -1.196580E+05 -9.886953E+04 -5.240897E+04  1.303070E+04  2.654078E+04
       164  27  3.342196E+05 -1.461758E+05 -1.171013E+05 -7.442780E+04  1.663000E+04  3.297318E+04
       165   1  1.630352E+06  1.674646E+05  1.666477E+05 -7.207334E+04 -6.534055E+03 -3.688621E+04
       165   2  1.740128E+06  1.950302E+05  2.031796E+05 -5.273377E+04 -2.262174E+04 -4.301895E+04
       165   3  1.854987E+06  2.335206E+05  2.529509E+05 -7.756629E+04 -3.870768E+04 -4.770420E+04
       165   4  9.381670E+05 -7.175456E+02  1.691037E+04 -7.422960E+04 -1.311788E+04 -3.688960E+04
       165   5  9.357178E+05 -3.872662E+02  2.927087E+04 -5.214398E+04 -2.779613E+04 -4.302480E+04
       165   6  9.381020E+05  1.063283E+04  5.390594E+04 -7.423344E+04 -4.246977E+04 -4.771174E+04
       165   7  2.464305E+05 -1.689313E+05 -1.328552E+05 -7.638341E+04 -1.969446E+04 -3.689294E+04
       165   8  1.319134E+05 -1.958474E+05 -1.446761E+05 -5.155499E+04 -3.296390E+04 -4.303066E+04
       165   9  2.200344E+04 -2.123104E+05 -1.451891E+05 -7.090564E+04 -4.622635E+04 -4.771933E+04
       165  10  1.630352E+06  1.674632E+05  1.666450E+05 -7.207353E+04 -2.630119E-10 -2.645678E-10
       165  11  1.740127E+06  1.950281E+05  2.031752E+05 -5.273456E+04 -6.541818E-13 -1.784186E-10
       165  12  1.854985E+06  2.335177E+05  2.529438E+05 -7.756777E+04 -1.149194E-09  3.652259E-11
       165  13  9.381665E+05 -7.190538E+02  1.690749E+04 -7.422999E+04 -6.478655E-10 -3.600930E-10
       165  14  9.357165E+05 -3.894620E+02  2.926594E+04 -5.214495E+04  4.446792E-10  6.246502E-11
       165  15  9.380995E+05  1.062990E+04  5.389827E+04 -7.423508E+04 -3.405307E-11  1.499400E-10
       165  16  2.464298E+05 -1.689328E+05 -1.328584E+05 -7.638399E+04 -3.164627E-11 -3.067606E-10
       165  17  1.319117E+05 -1.958497E+05 -1.446816E+05 -5.155614E+04  2.199660E-10 -1.646159E-10
       165  18  2.200053E+04 -2.123135E+05 -1.451974E+05 -7.090742E+04 -8.754146E-10  4.556779E-10
       165  19  1.630352E+06  1.674646E+05  1.666477E+05 -7.207334E+04  6.534055E+03  3.688621E+04
       165  20  1.740128E+06  1.950302E+05  2.031796E+05 -5.273377E+04  2.262174E+04  4.301895E+04
       165  21  1.854987E+06  2.335206E+05  2.529509E+05 -7.756629E+04  3.870768E+04  4.770420E+04
       165  22  9.381670E+05 -7.175456E+02  1.691037E+04 -7.422960E+04  1.311788E+04  3.688960E+04
       165  23  9.357178E+05 -3.872662E+02  2.927087E+04 -5.214398E+04  2.779613E+04  4.302480E+04
       165  24  9.381020E+05  1.063283E+04  5.390594E+04 -7.423344E+04  4.246977E+04  4.771174E+04
       165  25  2.464305E+05 -1.689313E+05 -1.328552E+05 -7.638341E+04  1.969446E+04  3.689294E+04
       165  26  1.319134E+05 -1.958474E+05 -1.446761E+05 -5.155499E+04  3.296390E+04  4.303066E+04
       165  27  2.200344E+04 -2.123104E+05 -1.451891E+05 -7.090564E+04  4.622635E+04  4.771933E+04
       166   1  1.957127E+06  2.345067E+05  2.856326E+05 -4.326618E+04 -3.904740E+04 -5.411500E+04
       166   2  2.039484E+06  2.752642E+05  3.636063E+05 -8.872040E+04 -1.319469E+05 -5.155715E+04
       166   3  2.185107E+06  5.189229E+05  5.527667E+05 -1.776352E+05 -2.249187E+05 -1.660162E+04
       166   4  9.498826E+05 -1.018425E+04  6.804239E+04 -7.400386E+04 -5.204151E+04 -5.412925E+04
       166   5  9.208266E+05  2.605001E+03  1.165852E+05 -5.241205E+04 -1.136763E+05 -5.155139E+04
       166   6  9.497116E+05  2.130595E+05  2.547496E+05 -7.426841E+04 -1.753617E+05 -1.656969E+04
       166   7 -5.640977E+04 -2.549384E+05 -1.496067E+05 -1.046913E+05 -6.501482E+04 -5.414223E+04
       166   8 -1.966613E+05 -2.701330E+05 -1.305110E+05 -1.616997E+04 -9.543802E+04 -5.154351E+04
       166   9 -2.842633E+05 -9.287330E+04 -4.336153E+04  2.889222E+04 -1.259024E+05 -1.652130E+04
       166  10  1.957125E+06  2.345032E+05  2.856243E+05 -4.326788E+04  7.810828E-10  3.423778E-10
       166  11  2.039465E+06  2.752567E+05  3.635687E+05 -8.872588E+04 -2.682431E-10  1.260817E-10
       166  12  2.185052E+06  5.189091E+05  5.526715E+05 -1.776382E+05  1.198016E-09 -2.006166E-10
       166  13  9.498789E+05 -1.018812E+04  6.803180E+04 -7.400613E+04 -1.077716E-09  2.890669E-10
       166  14  9.208121E+05  2.598683E+03  1.165559E+05 -5.241677E+04 -6.325146E-10 -3.640742E-11
       166  15  9.496786E+05  2.130510E+05  2.546914E+05 -7.427075E+04 -1.011329E-09  2.862014E-11
       166  16 -5.641510E+04 -2.549427E+05 -1.496202E+05 -1.046941E+05  2.625505E-12  4.439835E-10
       166  17 -1.966718E+05 -2.701383E+05 -1.305332E+05 -1.617393E+04 -8.811511E-10  6.833661E-10
       166  18 -2.842804E+05 -9.287785E+04 -4.339185E+04  2.889055E+04  1.177607E-10  6.449187E-11
       166  19  1.957127E+06  2.345067E+05  2.856326E+05 -4.326618E+04  3.904740E+04  5.411500E+04
       166  20  2.039484E+06  2.752642E+05  3.636063E+05 -8.872040E+04  1.319469E+05  5.155715E+04
       166  21  2.185107E+06  5.189229E+05  5.527667E+05 -1.776352E+05  2.249187E+05  1.660162E+04
       166  22  9.498826E+05 -1.018425E+04  6.804239E+04 -7.400386E+04  5.204151E+04  5.412925E+04
       166  23  9.208266E+05  2.605001E+03  1.165852E+05 -5.241205E+04  1.136763E+05  5.155139E+04
       166  24  9.497116E+05  2.130595E+05  2.547496E+05 -7.426841E+04  1.753617E+05  1.656969E+04
       166  25 -5.640977E+04 -2.549384E+05 -1.496067E+05 -1.046913E+05  6.501482E+04  5.414223E+04
       166  26 -1.966613E+05 -2.701330E+05 -1.305110E+05 -1.616997E+04  9.543802E+04  5.154351E+04
       166  27 -2.842633E+05 -9.287330E+04 -4.336153E+04  2.889222E+04  1.259024E+05  1.652130E+04
       167   1  1.554009E+05  7.324035E+05  1.631619E+05 -1.250561E+05  4.106198E+03  5.481154E+04
       167   2  6.538276E+04  5.762003E+05  8.810286E+04 -7.946790E+04  1.089207E+04  2.794621E+04
       167   3  2.618727E+04  4.359990E+05  4.318460E+04 -9.167508E+04  5.750759E+03  1.067597E+03
       167   4  5.277944E+04  3.199993E+05  6.273000E+04 -9.879454E+04  4.129537E+03  4.259231E+04
       167   5  9.459723E+02  3.130121E+05  2.917110E+04 -6.994472E+04  1.089414E+04  2.719580E+04
       167   6 -2.039848E+03  3.200304E+05  1.780708E+04 -9.888782E+04  5.730727E+03  1.177957E+04
       167   7 -4.985195E+04 -9.224811E+04 -3.771335E+04 -7.255041E+04  4.151852E+03  3.038117E+04
       167   8 -6.349521E+04  4.988858E+04 -2.976499E+04 -6.042559E+04  1.089619E+04  2.644570E+04
       167   9 -3.026760E+04  2.040748E+05 -7.570782E+03 -1.060992E+05  5.710444E+03  2.248957E+04
       167  10  1.554001E+05  7.324003E+05  1.631562E+05 -1.250563E+05 -3.610706E-10  1.956804E-10
       167  11  6.538243E+04  5.761994E+05  8.810117E+04 -7.946815E+04 -1.251947E-09  1.081800E-10
       167  12  2.618723E+04  4.359990E+05  4.318453E+04 -9.167509E+04 -7.748843E-10 -5.358254E-10
       167  13  5.277894E+04  3.199974E+05  6.272656E+04 -9.879468E+04  5.028079E-10 -6.494659E-11
       167  14  9.456463E+02  3.130113E+05  2.916949E+04 -6.994496E+04  2.718755E-10  1.413372E-11
       167  15 -2.039920E+03  3.200302E+05  1.780676E+04 -9.888788E+04  5.735537E-10 -3.292111E-11
       167  16 -4.985221E+04 -9.224910E+04 -3.771511E+04 -7.255051E+04  8.487120E-10 -1.946051E-10
       167  17 -6.349552E+04  4.988780E+04 -2.976652E+04 -6.042582E+04  2.283383E-09  1.018201E-11
       167  18 -3.026777E+04  2.040742E+05 -7.571793E+03 -1.060993E+05  2.772762E-11  4.913305E-10
       167  19  1.554009E+05  7.324035E+05  1.631619E+05 -1.250561E+05 -4.106198E+03 -5.481154E+04
       167  20  6.538276E+04  5.762003E+05  8.810286E+04 -7.946790E+04 -1.089207E+04 -2.794621E+04
       167  21  2.618727E+04  4.359990E+05  4.318460E+04 -9.167508E+04 -5.750759E+03 -1.067597E+03
       167  22  5.277944E+04  3.199993E+05  6.273000E+04 -9.879454E+04 -4.129537E+03 -4.259231E+04
       167  23  9.459723E+02  3.130121E+05  2.917110E+04 -6.994472E+04 -1.089414E+04 -2.719580E+04
       167  24 -2.039848E+03  3.200304E+05  1.780708E+04 -9.888782E+04 -5.730727E+03 -1.177957E+04
       167  25 -4.985195E+04 -9.224811E+04 -3.771335E+04 -7.255041E+04 -4.151852E+03 -3.038117E+04
       167  26 -6.349521E+04  4.988858E+04 -2.976499E+04 -6.042559E+04 -1.089619E+04 -2.644570E+04
       167  27 -3.026760E+04  2.040748E+05 -7.570782E+03 -1.060992E+05 -5.710444E+03 -2.248957E+04
       168   1  2.527937E+03  3.152572E+05  1.441579E+04 -1.000988E+05 -3.086630E+02  1.624149E+03
       168   2 -3.632915E+04  1.664978E+05 -2.267874E+04 -6.974165E+04 -8.007381E+03 -2.979133E+03
       168   3 -7.141352E+04  1.906573E+04 -5.589300E+04 -9.771633E+04 -1.536130E+04 -7.579321E+03
       168   4  2.975787E+03  3.172229E+05  1.471519E+04 -9.898214E+04 -3.229394E+02  9.191560E+03
       168   5  1.683628E+02  3.165343E+05  9.812292E+03 -6.981839E+04 -8.020377E+03  4.256227E+03
       168   6  1.192374E+03  3.172103E+05  9.021236E+03 -9.898536E+04 -1.537312E+04 -6.770697E+02
       168   7  3.423672E+03  3.191887E+05  1.501481E+04 -9.786545E+04 -3.371885E+02  1.675899E+04
       168   8  3.666441E+04  4.665921E+05  4.230219E+04 -6.989514E+04 -8.033372E+03  1.149331E+04
       168   9  7.379240E+04  6.154382E+05  7.393031E+04 -1.002550E+05 -1.538495E+04  6.228453E+03
       168  10  2.527936E+03  3.152572E+05  1.441578E+04 -1.000988E+05 -9.770496E-10  4.401861E-11
       168  11 -3.632922E+04  1.664978E+05 -2.267888E+04 -6.974167E+04 -5.694385E-10  1.982663E-10
       168  12 -7.141379E+04  1.906560E+04 -5.589355E+04 -9.771642E+04  1.056590E-12  3.356962E-10
       168  13  2.975764E+03  3.172228E+05  1.471503E+04 -9.898214E+04 -8.804248E-10  2.004945E-11
       168  14  1.682889E+02  3.165343E+05  9.812138E+03 -6.981837E+04  2.505170E-10 -4.835209E-11
       168  15  1.192120E+03  3.172102E+05  9.020791E+03 -9.898537E+04 -6.276759E-10  1.172181E-10
       168  16  3.423596E+03  3.191884E+05  1.501428E+04 -9.786544E+04 -4.381545E-10 -7.687918E-11
       168  17  3.666431E+04  4.665919E+05  4.230182E+04 -6.989507E+04 -5.766196E-10 -1.290261E-10
       168  18  7.379213E+04  6.154381E+05  7.392980E+04 -1.002549E+05  3.132578E-10 -3.342896E-10
       168  19  2.527937E+03  3.152572E+05  1.441579E+04 -1.000988E+05  3.086630E+02 -1.624149E+03
       168  20 -3.632915E+04  1.664978E+05 -2.267874E+04 -6.974165E+04  8.007381E+03  2.979133E+03
       168  21 -7.141352E+04  1.906573E+04 -5.589300E+04 -9.771633E+04  1.536130E+04  7.579321E+03
       168  22  2.975787E+03  3.172229E+05  1.471519E+04 -9.898214E+04  3.229394E+02 -9.191560E+03
       168  23  1.683628E+02  3.165343E+05  9.812292E+03 -6.981839E+04  8.020377E+03 -4.256227E+03
       168  24  1.192374E+03  3.172103E+05  9.021236E+03 -9.898536E+04  1.537312E+04  6.770697E+02
       168  25  3.423672E+03  3.191887E+05  1.501481E+04 -9.786545E+04  3.371885E+02 -1.675899E+04
       168  26  3.666441E+04  4.665921E+05  4.230219E+04 -6.989514E+04  8.033372E+03 -1.149331E+04
       168  27  7.379240E+04  6.154382E+05  7.393031E+04 -1.002550E+05  1.538495E+04 -6.228453E+03
       169   1 -1.018144E+05 -9.814033E+04 -8.096112E+04 -1.010568E+05 -2.198933E+04 -1.450892E+04
       169   2 -1.372262E+05 -2.476552E+05 -1.127553E+05 -6.581061E+04 -2.504555E+04 -2.184671E+03
       169   3 -1.568609E+05 -3.949030E+05 -1.486527E+05 -8.809441E+04 -8.509937E+03  1.016209E+04
       169   4 -5.246556E+02  3.181121E+05  9.329240E+03 -9.881365E+04 -2.200955E+04 -2.195374E+03
       169   5  4.027779E+02  3.153337E+05  1.233665E+04 -7.003579E+04 -2.503401E+04 -8.676675E+03
       169   6  2.036454E+04  3.180599E+05  2.429642E+04 -9.878336E+04 -8.474840E+03 -1.513231E+04
       169   7  1.007538E+05  7.345275E+05  9.960986E+04 -9.656889E+04 -2.202968E+04  1.012632E+04
       169   8  1.380104E+05  8.786184E+05  1.374090E+05 -7.426472E+04 -2.502238E+04 -1.517450E+04
       169   9  1.975534E+05  1.031489E+06  1.972113E+05 -1.094844E+05 -8.438894E+03 -4.045568E+04
       169  10 -1.018150E+05 -9.814068E+04 -8.096243E+04 -1.010571E+05  6.502604E-10  1.956893E-10
       169  11 -1.372269E+05 -2.476554E+05 -1.127565E+05 -6.581065E+04  1.067108E-09 -8.021073E-12
       169  12 -1.568610E+05 -3.949031E+05 -1.486530E+05 -8.809434E+04  3.000381E-10 -4.306834E-10
       169  13 -5.251772E+02  3.181120E+05  9.328321E+03 -9.881369E+04  4.377164E-10 -3.174429E-11
       169  14  4.020846E+02  3.153334E+05  1.233533E+04 -7.003596E+04  2.911508E-11  4.817845E-12
       169  15  2.036440E+04  3.180596E+05  2.429585E+04 -9.878346E+04  3.218373E-10 -1.803735E-11
       169  16  1.007532E+05  7.345272E+05  9.960875E+04 -9.656871E+04 -4.186910E-10 -6.226157E-11
       169  17  1.380097E+05  8.786180E+05  1.374074E+05 -7.426502E+04  6.207293E-10 -1.933261E-13
       169  18  1.975529E+05  1.031487E+06  1.972081E+05 -1.094847E+05  3.950240E-10  2.987939E-10
       169  19 -1.018144E+05 -9.814033E+04 -8.096112E+04 -1.010568E+05  2.198933E+04  1.450892E+04
       169  20 -1.372262E+05 -2.476552E+05 -1.127553E+05 -6.581061E+04  2.504555E+04  2.184671E+03
       169  21 -1.568609E+05 -3.949030E+05 -1.486527E+05 -8.809441E+04  8.509937E+03 -1.016209E+04
       169  22 -5.246556E+02  3.181121E+05  9.329240E+03 -9.881365E+04  2.200955E+04  2.195374E+03
       169  23  4.027779E+02  3.153337E+05  1.233665E+04 -7.003579E+04  2.503401E+04  8.676675E+03
       169  24  2.036454E+04  3.180599E+05  2.429642E+04 -9.878336E+04  8.474840E+03  1.513231E+04
       169  25  1.007538E+05  7.345275E+05  9.960986E+04 -9.656889E+04  2.202968E+04 -1.012632E+04
       169  26  1.380104E+05  8.786184E+05  1.374090E+05 -7.426472E+04  2.502238E+04  1.517450E+04
       169  27  1.975534E+05  1.031489E+06  1.972113E+05 -1.094844E+05  8.438894E+03  4.045568E+04
       170   1 -1.533388E+06 -6.267139E+05 -3.994491E+05 -5.606675E+05 -1.697380E+05 -5.269672E+04
       170   2 -1.477354E+06 -3.952428E+05 -2.476332E+05 -5.476327E+05 -1.096217E+05 -5.963627E+03
       170   3 -1.475795E+06 -3.429345E+05 -1.911741E+05 -5.115096E+05 -4.213208E+04  2.122182E+04
       170   4 -9.048013E+05 -3.122562E+05 -2.168816E+05 -3.095138E+05 -1.421235E+05 -4.232475E+04
       170   5 -8.674499E+05 -1.409270E+05 -9.438145E+04 -3.524639E+05 -9.950050E+04 -2.163100E+03
       170   6 -8.810388E+05 -1.452018E+05 -5.329045E+04 -3.723472E+05 -4.951196E+04  1.844534E+04
       170   7 -2.758181E+05  2.322058E+03 -3.434963E+04 -5.810142E+04 -1.144785E+05 -3.193261E+04
       170   8 -2.571760E+05  1.134409E+05  5.884096E+04 -1.571112E+05 -8.936843E+04  1.642620E+03
       170   9 -2.859296E+05  5.254006E+04  8.457023E+04 -2.330704E+05 -5.689958E+04  1.566667E+04
       170  10 -1.533420E+06 -6.267246E+05 -3.995087E+05 -5.606747E+05 -6.399163E-10  1.622496E-11
       170  11 -1.477367E+06 -3.952461E+05 -2.476559E+05 -5.476333E+05 -1.148440E-09  6.617166E-11
       170  12 -1.475797E+06 -3.429355E+05 -1.911783E+05 -5.115088E+05  7.704620E-10 -4.991455E-10
       170  13 -9.048235E+05 -3.122635E+05 -2.169230E+05 -3.095187E+05  4.004249E-10  1.257933E-10
       170  14 -8.674605E+05 -1.409297E+05 -9.440009E+04 -3.524641E+05  1.084208E-09 -5.353617E-11
       170  15 -8.810415E+05 -1.452028E+05 -5.329570E+04 -3.723464E+05 -4.160234E-10 -6.405855E-10
       170  16 -2.758324E+05  2.317443E+03 -3.437618E+04 -5.810437E+04  4.764575E-10  1.759640E-10
       170  17 -2.571845E+05  1.134387E+05  5.882594E+04 -1.571111E+05  7.367433E-10 -1.111250E-11
       170  18 -2.859331E+05  5.253892E+04  8.456368E+04 -2.330696E+05 -1.988737E-10 -7.747936E-10
       170  19 -1.533388E+06 -6.267139E+05 -3.994491E+05 -5.606675E+05  1.697380E+05  5.269672E+04
       170  20 -1.477354E+06 -3.952428E+05 -2.476332E+05 -5.476327E+05  1.096217E+05  5.963627E+03
       170  21 -1.475795E+06 -3.429345E+05 -1.911741E+05 -5.115096E+05  4.213208E+04 -2.122182E+04
       170  22 -9.048013E+05 -3.122562E+05 -2.168816E+05 -3.095138E+05  1.421235E+05  4.232475E+04
       170  23 -8.674499E+05 -1.409270E+05 -9.438145E+04 -3.524639E+05  9.950050E+04  2.163100E+03
       170  24 -8.810388E+05 -1.452018E+05 -5.329045E+04 -3.723472E+05  4.951196E+04 -1.844534E+04
       170  25 -2.758181E+05  2.322058E+03 -3.434963E+04 -5.810142E+04  1.144785E+05  3.193261E+04
       170  26 -2.571760E+05  1.134409E+05  5.884096E+04 -1.571112E+05  8.936843E+04 -1.642620E+03
       170  27 -2.859296E+05  5.254006E+04  8.457023E+04 -2.330704E+05  5.689958E+04 -1.566667E+04
       171   1 -1.404494E+06 -3.616751E+05 -1.701018E+05 -5.119364E+05 -3.978188E+04  1.789448E+04
       171   2 -1.357256E+06 -3.217969E+05 -1.361858E+05 -4.882862E+05 -2.714361E+04  2.011599E+04
       171   3 -1.298465E+06 -3.081388E+05 -1.136340E+05 -4.815406E+05 -1.417172E+04  2.144730E+04
       171   4 -8.740485E+05 -1.609179E+05 -4.212955E+04 -3.628120E+05 -4.138896E+04  1.728789E+04
       171   5 -8.792245E+05 -1.431595E+05 -2.172156E+04 -3.561310E+05 -2.953995E+04  1.921374E+04
       171   6 -8.726894E+05 -1.514590E+05 -1.204394E+04 -3.663555E+05 -1.735847E+04  2.024924E+04
       171   7 -3.433259E+05  3.986067E+04  8.582123E+04 -2.135713E+05 -4.299751E+04  1.668072E+04
       171   8 -4.009658E+05  3.549463E+04  9.272606E+04 -2.238827E+05 -3.193829E+04  1.831073E+04
       171   9 -4.467315E+05  5.233495E+03  8.953373E+04 -2.510982E+05 -2.054762E+04  1.905030E+04
       171  10 -1.404496E+06 -3.616758E+05 -1.701054E+05 -5.119358E+05 -4.447789E-10 -1.092393E-09
       171  11 -1.357257E+06 -3.217975E+05 -1.361879E+05 -4.882858E+05  2.299142E-10  2.912728E-10
       171  12 -1.298466E+06 -3.081393E+05 -1.136353E+05 -4.815404E+05  1.801186E-10  3.648507E-10
       171  13 -8.740505E+05 -1.609187E+05 -4.213333E+04 -3.628114E+05 -1.432645E-09 -5.903435E-10
       171  14 -8.792256E+05 -1.431601E+05 -2.172389E+04 -3.561305E+05 -8.638396E-10  2.967922E-10
       171  15 -8.726899E+05 -1.514595E+05 -1.204527E+04 -3.663553E+05 -6.784083E-10  1.563491E-10
       171  16 -3.433280E+05  3.985988E+04  8.581723E+04 -2.135707E+05  8.818614E-10 -2.451746E-11
       171  17 -4.009670E+05  3.549400E+04  9.272352E+04 -2.238822E+05 -5.705834E-10  2.168984E-10
       171  18 -4.467320E+05  5.232992E+03  8.953225E+04 -2.510979E+05  5.577517E-11 -4.925102E-12
       171  19 -1.404494E+06 -3.616751E+05 -1.701018E+05 -5.119364E+05  3.978188E+04 -1.789448E+04
       171  20 -1.357256E+06 -3.217969E+05 -1.361858E+05 -4.882862E+05  2.714361E+04 -2.011599E+04
       171  21 -1.298465E+06 -3.081388E+05 -1.136340E+05 -4.815406E+05  1.417172E+04 -2.144730E+04
       171  22 -8.740485E+05 -1.609179E+05 -4.212955E+04 -3.628120E+05  4.138896E+04 -1.728789E+04
       171  23 -8.792245E+05 -1.431595E+05 -2.172156E+04 -3.561310E+05  2.953995E+04 -1.921374E+04
       171  24 -8.726894E+05 -1.514590E+05 -1.204394E+04 -3.663555E+05  1.735847E+04 -2.024924E+04
       171  25 -3.433259E+05  3.986067E+04  8.582123E+04 -2.135713E+05  4.299751E+04 -1.668072E+04
       171  26 -4.009658E+05  3.549463E+04  9.272606E+04 -2.238827E+05  3.193829E+04 -1.831073E+04
       171  27 -4.467315E+05  5.233495E+03  8.953373E+04 -2.510982E+05  2.054762E+04 -1.905030E+04
       172   1 -1.251707E+06 -2.933694E+05 -9.966486E+04 -4.699446E+05 -1.196388E+04  1.997121E+04
       172   2 -1.205027E+06 -2.640266E+05 -8.255103E+04 -4.453405E+05 -8.189842E+03  1.762463E+04
       172   3 -1.142056E+06 -2.520571E+05 -6.746358E+04 -4.398993E+05 -4.398321E+03  1.522726E+04
       172   4 -8.720591E+05 -1.523448E+05 -9.153489E+03 -3.657947E+05 -1.490367E+04  1.886643E+04
       172   5 -8.801657E+05 -1.434080E+05 -4.983892E+03 -3.563061E+05 -1.117356E+04  1.650408E+04
       172   6 -8.719746E+05 -1.518348E+05 -2.804703E+03 -3.659805E+05 -7.426212E+03  1.409089E+04
       172   7 -4.922684E+05 -1.131000E+04  8.134752E+04 -2.615868E+05 -1.784543E+04  1.776091E+04
       172   8 -5.552001E+05 -2.278233E+04  7.257542E+04 -2.672294E+05 -1.415897E+04  1.538289E+04
       172   9 -6.018220E+05 -5.160796E+04  6.184852E+04 -2.920328E+05 -1.045552E+04  1.295398E+04
       172  10 -1.251707E+06 -2.933698E+05 -9.966588E+04 -4.699444E+05 -1.098302E-09 -4.349909E-11
       172  11 -1.205028E+06 -2.640269E+05 -8.255174E+04 -4.453404E+05 -6.545447E-10  1.160480E-10
       172  12 -1.142056E+06 -2.520573E+05 -6.746406E+04 -4.398992E+05 -5.765037E-11 -1.697299E-10
       172  13 -8.720595E+05 -1.523452E+05 -9.154575E+03 -3.657945E+05  2.693919E-11 -4.960097E-11
       172  14 -8.801659E+05 -1.434083E+05 -4.984638E+03 -3.563059E+05 -1.043578E-09  6.705141E-11
       172  15 -8.719747E+05 -1.518350E+05 -2.805180E+03 -3.659804E+05  5.532930E-10  2.072360E-11
       172  16 -4.922688E+05 -1.131042E+04  8.134633E+04 -2.615866E+05  3.122602E-10 -9.398444E-12
       172  17 -5.552003E+05 -2.278264E+04  7.257459E+04 -2.672293E+05 -7.364603E-11 -6.608578E-11
       172  18 -6.018221E+05 -5.160817E+04  6.184800E+04 -2.920327E+05  3.155246E-10  2.473245E-10
       172  19 -1.251707E+06 -2.933694E+05 -9.966486E+04 -4.699446E+05  1.196388E+04 -1.997121E+04
       172  20 -1.205027E+06 -2.640266E+05 -8.255103E+04 -4.453405E+05  8.189842E+03 -1.762463E+04
       172  21 -1.142056E+06 -2.520571E+05 -6.746358E+04 -4.398993E+05  4.398321E+03 -1.522726E+04
       172  22 -8.720591E+05 -1.523448E+05 -9.153489E+03 -3.657947E+05  1.490367E+04 -1.886643E+04
       172  23 -8.801657E+05 -1.434080E+05 -4.983892E+03 -3.563061E+05  1.117356E+04 -1.650408E+04
       172  24 -8.719746E+05 -1.518348E+05 -2.804703E+03 -3.659805E+05  7.426212E+03 -1.409089E+04
       172  25 -4.922684E+05 -1.131000E+04  8.134752E+04 -2.615868E+05  1.784543E+04 -1.776091E+04
       172  26 -5.552001E+05 -2.278233E+04  7.257542E+04 -2.672294E+05  1.415897E+04 -1.538289E+04
       172  27 -6.018220E+05 -5.160796E+04  6.184852E+04 -2.920328E+05  1.045552E+04 -1.295398E+04
       173   1 -1.096453E+06 -2.352334E+05 -5.558305E+04 -4.275220E+05 -3.256337E+03  1.341548E+04
       173   2 -1.049591E+06 -2.062645E+05 -4.174994E+04 -4.026862E+05 -1.321912E+03  1.029413E+04
       173   3 -9.859120E+05 -1.942419E+05 -2.842142E+04 -3.972281E+05  6.145057E+02  7.165122E+03
       173   4 -8.718772E+05 -1.518964E+05 -2.158777E+03 -3.659684E+05 -6.280041E+03  1.228103E+04
       173   5 -8.802780E+05 -1.434071E+05 -1.330532E+03 -3.562838E+05 -4.352272E+03  9.157547E+03
       173   6 -8.718661E+05 -1.518632E+05 -1.001754E+03 -3.659780E+05 -2.422583E+03  6.026411E+03
       173   7 -6.472499E+05 -6.855526E+04  5.126225E+04 -3.043942E+05 -9.304953E+03  1.114612E+04
       173   8 -7.109366E+05 -8.054750E+04  3.908698E+04 -3.098697E+05 -7.383540E+03  8.020628E+03
       173   9 -7.578073E+05 -1.094836E+05  2.641701E+04 -3.347227E+05 -5.460280E+03  4.887472E+03
       173  10 -1.096453E+06 -2.352336E+05 -5.558341E+04 -4.275219E+05  2.103021E-10 -8.216527E-11
       173  11 -1.049591E+06 -2.062646E+05 -4.175015E+04 -4.026862E+05  2.997111E-10 -1.289365E-10
       173  12 -9.859120E+05 -1.942419E+05 -2.842152E+04 -3.972281E+05 -1.489063E-10  4.243171E-12
       173  13 -8.718773E+05 -1.518965E+05 -2.159135E+03 -3.659684E+05  5.371683E-10 -1.161419E-10
       173  14 -8.802781E+05 -1.434072E+05 -1.330726E+03 -3.562837E+05  1.560678E-10 -1.463691E-10
       173  15 -8.718661E+05 -1.518632E+05 -1.001833E+03 -3.659780E+05 -2.834857E-13  5.340321E-11
       173  16 -6.472500E+05 -6.855542E+04  5.126185E+04 -3.043942E+05 -7.685662E-10 -3.143414E-11
       173  17 -7.109366E+05 -8.054759E+04  3.908675E+04 -3.098697E+05  6.186528E-10 -1.551405E-10
       173  18 -7.578074E+05 -1.094836E+05  2.641691E+04 -3.347227E+05  1.157235E-10  7.654409E-11
       173  19 -1.096453E+06 -2.352334E+05 -5.558305E+04 -4.275220E+05  3.256337E+03 -1.341548E+04
       173  20 -1.049591E+06 -2.062645E+05 -4.174994E+04 -4.026862E+05  1.321912E+03 -1.029413E+04
       173  21 -9.859120E+05 -1.942419E+05 -2.842142E+04 -3.972281E+05 -6.145057E+02 -7.165122E+03
       173  22 -8.718772E+05 -1.518964E+05 -2.158777E+03 -3.659684E+05  6.280041E+03 -1.228103E+04
       173  23 -8.802780E+05 -1.434071E+05 -1.330532E+03 -3.562838E+05  4.352272E+03 -9.157547E+03
       173  24 -8.718661E+05 -1.518632E+05 -1.001754E+03 -3.659780E+05  2.422583E+03 -6.026411E+03
       173  25 -6.472499E+05 -6.855526E+04  5.126225E+04 -3.043942E+05  9.304953E+03 -1.114612E+04
       173  26 -7.109366E+05 -8.054750E+04  3.908698E+04 -3.098697E+05  7.383540E+03 -8.020628E+03
       173  27 -7.578073E+05 -1.094836E+05  2.641701E+04 -3.347227E+05  5.460280E+03 -4.887472E+03
       174   1 -9.402198E+05 -1.772325E+05 -1.710782E+04 -3.847532E+05  1.520455E+03  5.257472E+03
       174   2 -8.932144E+05 -1.482153E+05 -4.285495E+03 -3.598446E+05  3.383925E+03  2.094288E+03
       174   3 -8.293531E+05 -1.361828E+05  8.085978E+03 -3.543709E+05  5.247061E+03 -1.068160E+03
       174   4 -8.718554E+05 -1.518728E+05 -9.784913E+02 -3.659896E+05 -1.519429E+03  4.117848E+03
       174   5 -8.802823E+05 -1.433851E+05 -1.193649E+03 -3.562697E+05  3.445869E+02  9.548950E+02
       174   6 -8.718566E+05 -1.518825E+05 -1.860007E+03 -3.659859E+05  2.208213E+03 -2.207337E+03
       174   7 -8.034867E+05 -1.265128E+05  1.515045E+04 -3.472242E+05 -4.559661E+03  2.978092E+03
       174   8 -8.673500E+05 -1.385549E+05  1.898224E+03 -3.526947E+05 -2.694820E+03 -1.845242E+02
       174   9 -9.143584E+05 -1.675821E+05 -1.180614E+04 -3.776002E+05 -8.304240E+02 -3.346436E+03
       174  10 -9.402198E+05 -1.772325E+05 -1.710788E+04 -3.847532E+05  3.857407E-10  2.198641E-10
       174  11 -8.932144E+05 -1.482154E+05 -4.285525E+03 -3.598446E+05 -3.634025E-10  2.045566E-10
       174  12 -8.293532E+05 -1.361828E+05  8.085924E+03 -3.543708E+05 -2.632061E-10  3.259018E-12
       174  13 -8.718554E+05 -1.518728E+05 -9.785275E+02 -3.659896E+05  2.743062E-10  2.113792E-10
       174  14 -8.802823E+05 -1.433851E+05 -1.193651E+03 -3.562697E+05 -7.517786E-10  1.105968E-10
       174  15 -8.718566E+05 -1.518825E+05 -1.860026E+03 -3.659859E+05 -5.386670E-12  1.135349E-11
       174  16 -8.034867E+05 -1.265128E+05  1.515040E+04 -3.472241E+05 -1.363266E-10  9.669556E-11
       174  17 -8.673500E+05 -1.385549E+05  1.898211E+03 -3.526947E+05 -2.079177E-10  7.571534E-11
       174  18 -9.143584E+05 -1.675821E+05 -1.180616E+04 -3.776002E+05 -6.159154E-10  7.531144E-11
       174  19 -9.402198E+05 -1.772325E+05 -1.710782E+04 -3.847532E+05 -1.520455E+03 -5.257472E+03
       174  20 -8.932144E+05 -1.482153E+05 -4.285495E+03 -3.598446E+05 -3.383925E+03 -2.094288E+03
       174  21 -8.293531E+05 -1.361828E+05  8.085978E+03 -3.543709E+05 -5.247061E+03  1.068160E+03
       174  22 -8.718554E+05 -1.518728E+05 -9.784913E+02 -3.659896E+05  1.519429E+03 -4.117848E+03
       174  23 -8.802823E+05 -1.433851E+05 -1.193649E+03 -3.562697E+05 -3.445869E+02 -9.548950E+02
       174  24 -8.718566E+05 -1.518825E+05 -1.860007E+03 -3.659859E+05 -2.208213E+03  2.207337E+03
       174  25 -8.034867E+05 -1.265128E+05  1.515045E+04 -3.472242E+05  4.559661E+03 -2.978092E+03
       174  26 -8.673500E+05 -1.385549E+05  1.898224E+03 -3.526947E+05  2.694820E+03  1.845242E+02
       174  27 -9.143584E+05 -1.675821E+05 -1.180614E+04 -3.776002E+05  8.304240E+02  3.346436E+03
       175   1 -7.836651E+05 -1.191714E+05  1.884214E+04 -3.419646E+05  6.344977E+03 -2.907201E+03
       175   2 -7.366467E+05 -9.013784E+04  3.003612E+04 -3.170005E+05  9.688113E+03 -5.502810E+03
       175   3 -6.731543E+05 -7.851078E+04  3.955991E+04 -3.113842E+05  1.301933E+04 -8.064162E+03
       175   4 -8.719256E+05 -1.518467E+05 -2.396592E+03 -3.660163E+05  3.299344E+03 -4.049018E+03
       175   5 -8.801907E+05 -1.433474E+05 -4.215739E+03 -3.562654E+05  6.672471E+03 -6.633713E+03
       175   6 -8.719905E+05 -1.522611E+05 -7.729006E+03 -3.658638E+05  1.003346E+04 -9.184208E+03
       175   7 -9.601784E+05 -1.845214E+05 -2.363585E+04 -3.900649E+05  2.541832E+02 -5.190658E+03
       175   8 -1.023714E+06 -1.965554E+05 -3.846893E+04 -3.955220E+05  3.657596E+03 -7.764330E+03
       175   9 -1.070786E+06 -2.260083E+05 -5.502042E+04 -4.203272E+05  7.048658E+03 -1.030386E+04
       175  10 -7.836652E+05 -1.191714E+05  1.884205E+04 -3.419645E+05 -1.254044E-10 -6.260604E-11
       175  11 -7.366468E+05 -9.013790E+04  3.003588E+04 -3.170004E+05 -8.951343E-10 -1.253152E-10
       175  12 -6.731545E+05 -7.851089E+04  3.955947E+04 -3.113841E+05 -1.730729E-10  1.147629E-10
       175  13 -8.719257E+05 -1.518467E+05 -2.396643E+03 -3.660163E+05  2.806224E-11 -1.098635E-10
       175  14 -8.801907E+05 -1.433475E+05 -4.215905E+03 -3.562654E+05  9.309549E-10  8.844515E-12
       175  15 -8.719906E+05 -1.522613E+05 -7.729354E+03 -3.658637E+05  3.432061E-10  3.372186E-10
       175  16 -9.601784E+05 -1.845215E+05 -2.363590E+04 -3.900649E+05 -1.223446E-10 -9.761643E-11
       175  17 -1.023714E+06 -1.965555E+05 -3.846907E+04 -3.955219E+05  4.780918E-10  2.801840E-12
       175  18 -1.070786E+06 -2.260084E+05 -5.502071E+04 -4.203272E+05  3.002787E-10  4.833914E-10
       175  19 -7.836651E+05 -1.191714E+05  1.884214E+04 -3.419646E+05 -6.344977E+03  2.907201E+03
       175  20 -7.366467E+05 -9.013784E+04  3.003612E+04 -3.170005E+05 -9.688113E+03  5.502810E+03
       175  21 -6.731543E+05 -7.851078E+04  3.955991E+04 -3.113842E+05 -1.301933E+04  8.064162E+03
       175  22 -8.719256E+05 -1.518467E+05 -2.396592E+03 -3.660163E+05 -3.299344E+03  4.049018E+03
       175  23 -8.801907E+05 -1.433474E+05 -4.215739E+03 -3.562654E+05 -6.672471E+03  6.633713E+03
       175  24 -8.719905E+05 -1.522611E+05 -7.729006E+03 -3.658638E+05 -1.003346E+04  9.184208E+03
       175  25 -9.601784E+05 -1.845214E+05 -2.363585E+04 -3.900649E+05 -2.541832E+02  5.190658E+03
       175  26 -1.023714E+06 -1.965554E+05 -3.846893E+04 -3.955220E+05 -3.657596E+03  7.764330E+03
       175  27 -1.070786E+06 -2.260083E+05 -5.502042E+04 -4.203272E+05 -7.048658E+03  1.030386E+04
       176   1 -6.271836E+05 -6.177131E+04  4.833535E+04 -3.005085E+05  1.539812E+04 -9.477915E+03
       176   2 -5.806967E+05 -3.144232E+04  5.319907E+04 -2.734291E+05  2.529668E+04 -9.413845E+03
       176   3 -5.214486E+05 -2.579490E+04  4.947300E+04 -2.638670E+05  3.494771E+04 -8.683557E+03
       176   4 -8.725101E+05 -1.515259E+05 -1.016549E+04 -3.663510E+05  1.222423E+04 -1.066877E+04
       176   5 -8.793989E+05 -1.431085E+05 -1.831797E+04 -3.561000E+05  2.271600E+04 -1.038289E+04
       176   6 -8.736501E+05 -1.594948E+05 -3.553449E+04 -3.633688E+05  3.295936E+04 -9.430990E+03
       176   7 -1.117778E+06 -2.412772E+05 -6.867098E+04 -4.321703E+05  9.051700E+03 -1.185913E+04
       176   8 -1.178013E+06 -2.547685E+05 -8.984170E+04 -4.387348E+05  2.013667E+04 -1.135142E+04
       176   9 -1.225729E+06 -2.931847E+05 -1.205511E+05 -4.628187E+05  3.097224E+04 -1.017794E+04
       176  10 -6.271839E+05 -6.177147E+04  4.833473E+04 -3.005084E+05  7.157680E-10  4.480809E-10
       176  11 -5.806974E+05 -3.144258E+04  5.319770E+04 -2.734289E+05 -4.412804E-11 -4.757854E-10
       176  12 -5.214500E+05 -2.579530E+04  4.947056E+04 -2.638667E+05  1.781691E-10 -7.301399E-10
       176  13 -8.725103E+05 -1.515261E+05 -1.016599E+04 -3.663509E+05 -1.319740E-10  2.465880E-10
       176  14 -8.793995E+05 -1.431088E+05 -1.831915E+04 -3.560998E+05 -1.758358E-10 -3.307377E-10
       176  15 -8.736513E+05 -1.594952E+05 -3.553670E+04 -3.633686E+05  8.444565E-10 -7.130222E-10
       176  16 -1.117778E+06 -2.412774E+05 -6.867140E+04 -4.321702E+05 -7.928339E-10  1.000895E-10
       176  17 -1.178014E+06 -2.547687E+05 -8.984270E+04 -4.387346E+05 -3.296721E-10 -1.637877E-10
       176  18 -1.225730E+06 -2.931851E+05 -1.205531E+05 -4.628184E+05 -1.238331E-10 -5.222011E-10
       176  19 -6.271836E+05 -6.177131E+04  4.833535E+04 -3.005085E+05 -1.539812E+04  9.477915E+03
       176  20 -5.806967E+05 -3.144232E+04  5.319907E+04 -2.734291E+05 -2.529668E+04  9.413845E+03
       176  21 -5.214486E+05 -2.579490E+04  4.947300E+04 -2.638670E+05 -3.494771E+04  8.683557E+03
       176  22 -8.725101E+05 -1.515259E+05 -1.016549E+04 -3.663510E+05 -1.222423E+04  1.066877E+04
       176  23 -8.793989E+05 -1.431085E+05 -1.831797E+04 -3.561000E+05 -2.271600E+04  1.038289E+04
       176  24 -8.736501E+05 -1.594948E+05 -3.553449E+04 -3.633688E+05 -3.295936E+04  9.430990E+03
       176  25 -1.117778E+06 -2.412772E+05 -6.867098E+04 -4.321703E+05 -9.051700E+03  1.185913E+04
       176  26 -1.178013E+06 -2.547685E+05 -8.984170E+04 -4.387348E+05 -2.013667E+04  1.135142E+04
       176  27 -1.225729E+06 -2.931847E+05 -1.205511E+05 -4.628187E+05 -3.097224E+04  1.017794E+04
       177   1 -4.653952E+05 -1.225111E+04  5.041178E+04 -2.782933E+05  4.620331E+04 -8.201857E+03
       177   2 -4.329670E+05  4.397001E+04  3.066880E+04 -2.099271E+05  7.559022E+04  3.193682E+03
       177   3 -4.379585E+05 -4.823329E+04 -4.728542E+04 -1.255467E+05  9.946262E+04  2.927491E+04
       177   4 -8.795327E+05 -1.462531E+05 -4.494827E+04 -3.714295E+05  3.987380E+04 -1.057783E+04
       177   5 -8.694833E+05 -1.411883E+05 -7.959707E+04 -3.529781E+05  8.242246E+04  5.755395E+03
       177   6 -8.995092E+05 -2.872279E+05 -1.829279E+05 -3.185053E+05  1.194524E+05  3.677372E+04
       177   7 -1.293498E+06 -2.802518E+05 -1.403188E+05 -4.645130E+05  3.354894E+04 -1.295259E+04
       177   8 -1.305809E+06 -3.263169E+05 -1.898778E+05 -4.959317E+05  8.924945E+04  8.314507E+03
       177   9 -1.360843E+06 -5.261465E+05 -3.185893E+05 -5.113159E+05  1.394260E+05  4.426115E+04
       177  10 -4.653975E+05 -1.225176E+04  5.040764E+04 -2.782930E+05 -5.409929E-10 -4.524292E-10
       177  11 -4.329731E+05  4.396846E+04  3.065804E+04 -2.099273E+05 -4.711684E-11  3.651045E-10
       177  12 -4.379693E+05 -4.823687E+04 -4.730563E+04 -1.255490E+05  1.897186E-10  5.108859E-11
       177  13 -8.795344E+05 -1.462537E+05 -4.495147E+04 -3.714291E+05 -6.642218E-11 -4.539701E-10
       177  14 -8.694907E+05 -1.411902E+05 -7.960992E+04 -3.529785E+05  4.798214E-10  5.086025E-10
       177  15 -8.995249E+05 -2.872332E+05 -1.829573E+05 -3.185089E+05  5.742308E-10  1.362465E-10
       177  16 -1.293499E+06 -2.802523E+05 -1.403213E+05 -4.645127E+05  3.326598E-10 -3.227195E-10
       177  17 -1.305818E+06 -3.263191E+05 -1.898929E+05 -4.959323E+05 -6.273413E-10 -1.648370E-10
       177  18 -1.360864E+06 -5.261538E+05 -3.186296E+05 -5.113209E+05 -2.629978E-10  2.055862E-11
       177  19 -4.653952E+05 -1.225111E+04  5.041178E+04 -2.782933E+05 -4.620331E+04  8.201857E+03
       177  20 -4.329670E+05  4.397001E+04  3.066880E+04 -2.099271E+05 -7.559022E+04 -3.193682E+03
       177  21 -4.379585E+05 -4.823329E+04 -4.728542E+04 -1.255467E+05 -9.946262E+04 -2.927491E+04
       177  22 -8.795327E+05 -1.462531E+05 -4.494827E+04 -3.714295E+05 -3.987380E+04  1.057783E+04
       177  23 -8.694833E+05 -1.411883E+05 -7.959707E+04 -3.529781E+05 -8.242246E+04 -5.755395E+03
       177  24 -8.995092E+05 -2.872279E+05 -1.829279E+05 -3.185053E+05 -1.194524E+05 -3.677372E+04
       177  25 -1.293498E+06 -2.802518E+05 -1.403188E+05 -4.645130E+05 -3.354894E+04  1.295259E+04
       177  26 -1.305809E+06 -3.263169E+05 -1.898778E+05 -4.959317E+05 -8.924945E+04 -8.314507E+03
       177  27 -1.360843E+06 -5.261465E+05 -3.185893E+05 -5.113159E+05 -1.394260E+05 -4.426115E+04
       178   1 -8.827709E+05 -2.125400E+05 -1.747199E+05 -1.552104E+04  6.145492E+04  1.918166E+04
       178   2 -7.699382E+05 -3.176574E+05 -2.098798E+05 -3.607100E+04  5.588489E+04  6.028855E+04
       178   3 -6.235500E+05 -2.943264E+05 -2.091772E+05 -1.059520E+05  5.037000E+04  6.353516E+04
       178   4  5.568271E+05  1.447821E+05  1.732778E+05 -8.508399E+04  1.192268E+05  1.925341E+04
       178   5  5.370078E+05  1.546927E+03  7.925314E+04 -6.034023E+04  7.727642E+04  6.029888E+04
       178   6  5.569640E+05 -7.077760E+03  4.628362E+04 -8.491658E+04  3.538574E+04  6.351909E+04
       178   7  1.998338E+06  5.019730E+05  5.211421E+05 -1.548095E+05  1.771320E+05  1.931215E+04
       178   8  1.845552E+06  3.206387E+05  3.682826E+05 -8.466152E+04  9.871238E+04  6.030754E+04
       178   9  1.738788E+06  2.800806E+05  3.016629E+05 -6.384067E+04  2.037329E+04  6.350201E+04
       178  10 -8.827751E+05 -2.125414E+05 -1.747277E+05 -1.552199E+04  8.381404E-10  2.249870E-10
       178  11 -7.699425E+05 -3.176622E+05 -2.098925E+05 -3.607372E+04  3.894944E-10 -4.284922E-10
       178  12 -6.235538E+05 -2.943314E+05 -2.091896E+05 -1.059546E+05 -1.043964E-09  1.721940E-11
       178  13  5.568117E+05  1.447779E+05  1.732505E+05 -8.508583E+04 -5.943886E-11 -5.166908E-10
       178  14  5.370004E+05  1.541420E+03  7.923509E+04 -6.034399E+04 -3.141763E-10 -8.712298E-11
       178  15  5.569616E+05 -7.082430E+03  4.627368E+04 -8.491839E+04 -3.176835E-10  1.213068E-10
       178  16  1.998305E+06  5.019642E+05  5.210827E+05 -1.548122E+05 -5.231920E-11  6.042518E-10
       178  17  1.845541E+06  3.206322E+05  3.682575E+05 -8.466631E+04 -1.580955E-09 -1.825616E-10
       178  18  1.738786E+06  2.800762E+05  3.016545E+05 -6.384171E+04  7.705504E-10  2.233377E-10
       178  19 -8.827709E+05 -2.125400E+05 -1.747199E+05 -1.552104E+04 -6.145492E+04 -1.918166E+04
       178  20 -7.699382E+05 -3.176574E+05 -2.098798E+05 -3.607100E+04 -5.588489E+04 -6.028855E+04
       178  21 -6.235500E+05 -2.943264E+05 -2.091772E+05 -1.059520E+05 -5.037000E+04 -6.353516E+04
       178  22  5.568271E+05  1.447821E+05  1.732778E+05 -8.508399E+04 -1.192268E+05 -1.925341E+04
       178  23  5.370078E+05  1.546927E+03  7.925314E+04 -6.034023E+04 -7.727642E+04 -6.029888E+04
       178  24  5.569640E+05 -7.077760E+03  4.628362E+04 -8.491658E+04 -3.538574E+04 -6.351909E+04
       178  25  1.998338E+06  5.019730E+05  5.211421E+05 -1.548095E+05 -1.771320E+05 -1.931215E+04
       178  26  1.845552E+06  3.206387E+05  3.682826E+05 -8.466152E+04 -9.871238E+04 -6.030754E+04
       178  27  1.738788E+06  2.800806E+05  3.016629E+05 -6.384067E+04 -2.037329E+04 -6.350201E+04
       179   1 -5.285619E+05 -2.552535E+05 -1.976342E+05 -8.303199E+04  3.311870E+04  5.614086E+04
       179   2 -4.018344E+05 -2.312580E+05 -1.855948E+05 -5.951248E+04  2.479682E+04  5.082943E+04
       179   3 -2.719314E+05 -2.002362E+05 -1.663024E+05 -8.654427E+04  1.646588E+04  4.381609E+04
       179   4  5.489334E+05  7.111185E+03  3.666338E+04 -8.523111E+04  2.887613E+04  5.613193E+04
       179   5  5.472529E+05 -3.489821E+02  1.989780E+04 -5.995760E+04  1.890537E+04  5.082308E+04
       179   6  5.490104E+05 -5.032962E+02  1.151959E+04 -8.523027E+04  8.927225E+03  4.381352E+04
       179   7  1.627517E+06  2.693989E+05  2.708916E+05 -8.743413E+04  2.462625E+04  5.612304E+04
       179   8  1.497186E+06  2.305006E+05  2.253370E+05 -6.040339E+04  1.300501E+04  5.081674E+04
       179   9  1.370585E+06  1.991852E+05  1.893017E+05 -8.391442E+04  1.378721E+03  4.381093E+04
       179  10 -5.285639E+05 -2.552572E+05 -1.976422E+05 -8.303349E+04 -1.074708E-09  1.236517E-10
       179  11 -4.018358E+05 -2.312610E+05 -1.856008E+05 -5.951349E+04 -9.679364E-10  1.922713E-11
       179  12 -2.719322E+05 -2.002384E+05 -1.663065E+05 -8.654486E+04 -2.730109E-10 -2.926630E-10
       179  13  5.489317E+05  7.107577E+03  3.665589E+04 -8.523242E+04 -1.162846E-09 -1.858601E-10
       179  14  5.472518E+05 -3.518524E+02  1.989227E+04 -5.995837E+04  4.044486E-10  1.275547E-10
       179  15  5.490098E+05 -5.053795E+02  1.151583E+04 -8.523058E+04  6.508584E-10 -1.369170E-10
       179  16  1.627516E+06  2.693953E+05  2.708846E+05 -8.743525E+04  1.748425E-10  3.538857E-10
       179  17  1.497185E+06  2.304978E+05  2.253319E+05 -6.040392E+04  6.842321E-10  1.611838E-11
       179  18  1.370584E+06  1.991831E+05  1.892981E+05 -8.391447E+04  1.084697E-09 -8.047178E-11
       179  19 -5.285619E+05 -2.552535E+05 -1.976342E+05 -8.303199E+04 -3.311870E+04 -5.614086E+04
       179  20 -4.018344E+05 -2.312580E+05 -1.855948E+05 -5.951248E+04 -2.479682E+04 -5.082943E+04
       179  21 -2.719314E+05 -2.002362E+05 -1.663024E+05 -8.654427E+04 -1.646588E+04 -4.381609E+04
       179  22  5.489334E+05  7.111185E+03  3.666338E+04 -8.523111E+04 -2.887613E+04 -5.613193E+04
       179  23  5.472529E+05 -3.489821E+02  1.989780E+04 -5.995760E+04 -1.890537E+04 -5.082308E+04
       179  24  5.490104E+05 -5.032962E+02  1.151959E+04 -8.523027E+04 -8.927225E+03 -4.381352E+04
       179  25  1.627517E+06  2.693989E+05  2.708916E+05 -8.743413E+04 -2.462625E+04 -5.612304E+04
       179  26  1.497186E+06  2.305006E+05  2.253370E+05 -6.040339E+04 -1.300501E+04 -5.081674E+04
       179  27  1.370585E+06  1.991852E+05  1.893017E+05 -8.391442E+04 -1.378721E+03 -4.381093E+04
       180   1 -1.709339E+05 -1.746436E+05 -1.463945E+05 -8.520438E+04  1.417530E+04  3.932173E+04
       180   2 -4.345368E+04 -1.439593E+05 -1.228511E+05 -5.995994E+04  1.174430E+04  3.194507E+04
       180   3  8.453115E+04 -1.128303E+05 -9.759965E+04 -8.509594E+04  9.307417E+03  2.449979E+04
       180   4  5.483922E+05  2.396559E+02  8.824234E+03 -8.519302E+04  7.132610E+03  3.932092E+04
       180   5  5.481649E+05 -8.661783E+01  5.045392E+03 -6.000437E+04  4.632432E+03  3.194661E+04
       180   6  5.484380E+05  4.426258E+01  3.021300E+03 -8.519326E+04  2.126864E+03  2.450377E+04
       180   7  1.268204E+06  1.750888E+05  1.640126E+05 -8.518158E+04  8.187124E+01  3.932012E+04
       180   8  1.140112E+06  1.437630E+05  1.329213E+05 -6.004878E+04 -2.486118E+03  3.194816E+04
       180   9  1.012547E+06  1.129046E+05  1.036296E+05 -8.529059E+04 -5.058982E+03  2.450774E+04
       180  10 -1.709345E+05 -1.746453E+05 -1.463978E+05 -8.520483E+04 -1.198889E-09 -2.487417E-11
       180  11 -4.345410E+04 -1.439604E+05 -1.228532E+05 -5.996024E+04  1.150060E-09  4.884356E-10
       180  12  8.453089E+04 -1.128310E+05 -9.760094E+04 -8.509613E+04  8.686346E-10 -4.029618E-10
       180  13  5.483917E+05  2.379815E+02  8.821232E+03 -8.519325E+04  1.574248E-14 -9.423919E-11
       180  14  5.481646E+05 -8.771981E+01  5.043434E+03 -6.000449E+04 -3.938212E-11  4.327138E-10
       180  15  5.484379E+05  4.361643E+01  3.020163E+03 -8.519330E+04 -1.111626E-10  2.241180E-10
       180  16  1.268204E+06  1.750872E+05  1.640097E+05 -8.518158E+04  9.305908E-10  2.538430E-10
       180  17  1.140112E+06  1.437619E+05  1.329194E+05 -6.004872E+04 -3.684160E-10 -1.017878E-10
       180  18  1.012547E+06  1.129040E+05  1.036284E+05 -8.529049E+04 -7.220401E-10 -5.987027E-10
       180  19 -1.709339E+05 -1.746436E+05 -1.463945E+05 -8.520438E+04 -1.417530E+04 -3.932173E+04
       180  20 -4.345368E+04 -1.439593E+05 -1.228511E+05 -5.995994E+04 -1.174430E+04 -3.194507E+04
       180  21  8.453115E+04 -1.128303E+05 -9.759965E+04 -8.509594E+04 -9.307417E+03 -2.449979E+04
       180  22  5.483922E+05  2.396559E+02  8.824234E+03 -8.519302E+04 -7.132610E+03 -3.932092E+04
       180  23  5.481649E+05 -8.661783E+01  5.045392E+03 -6.000437E+04 -4.632432E+03 -3.194661E+04
       180  24  5.484380E+05  4.426258E+01  3.021300E+03 -8.519326E+04 -2.126864E+03 -2.450377E+04
       180  25  1.268204E+06  1.750888E+05  1.640126E+05 -8.518158E+04 -8.187124E+01 -3.932012E+04
       180  26  1.140112E+06  1.437630E+05  1.329213E+05 -6.004878E+04  2.486118E+03 -3.194816E+04
       180  27  1.012547E+06  1.129046E+05  1.036296E+05 -8.529059E+04  5.058982E+03 -2.450774E+04
       181   1  1.856925E+05 -8.802699E+04 -7.565169E+04 -8.503954E+04  8.788800E+03  2.015223E+04
       181   2  3.130984E+05 -5.713258E+04 -4.923245E+04 -5.993627E+04  7.990991E+03  1.270275E+04
       181   3  4.405712E+05 -2.614138E+04 -2.228940E+04 -8.508595E+04  7.190895E+03  5.253418E+03
       181   4  5.483573E+05  8.347291E+01  2.378787E+03 -8.516526E+04  1.635256E+03  2.015721E+04
       181   5  5.483396E+05  6.130162E+01  1.606372E+03 -6.003936E+04  8.365862E+02  1.270863E+04
       181   6  5.483753E+05  1.374242E+02  1.359048E+03 -8.516526E+04  3.578739E+01  5.260271E+03
       181   7  9.111458E+05  8.818533E+04  8.040174E+04 -8.529103E+04 -5.522406E+03  2.016218E+04
       181   8  7.836329E+05  5.725156E+04  5.244211E+04 -6.014248E+04 -6.320492E+03  1.271452E+04
       181   9  6.561905E+05  2.641548E+04  2.500698E+04 -8.524457E+04 -7.120547E+03  5.267126E+03
       181  10  1.856923E+05 -8.802744E+04 -7.565260E+04 -8.503969E+04 -3.234087E-10 -2.971702E-10
       181  11  3.130982E+05 -5.713277E+04 -4.923287E+04 -5.993635E+04  1.019179E-09 -1.901132E-10
       181  12  4.405711E+05 -2.614143E+04 -2.228954E+04 -8.508598E+04  8.086643E-10 -4.711289E-10
       181  13  5.483572E+05  8.303576E+01  2.378018E+03 -8.516529E+04 -4.232379E-10 -1.009570E-09
       181  14  5.483396E+05  6.112796E+01  1.606067E+03 -6.003937E+04 -1.245583E-09  6.549900E-11
       181  15  5.483753E+05  1.373945E+02  1.358996E+03 -8.516526E+04 -4.236610E-10 -3.878794E-10
       181  16  9.111457E+05  8.818488E+04  8.040092E+04 -8.529094E+04 -2.057661E-10 -5.549550E-10
       181  17  7.836328E+05  5.725138E+04  5.244173E+04 -6.014242E+04 -1.299765E-10  3.002617E-11
       181  18  6.561904E+05  2.641544E+04  2.500683E+04 -8.524454E+04 -4.837951E-10 -3.041203E-10
       181  19  1.856925E+05 -8.802699E+04 -7.565169E+04 -8.503954E+04 -8.788800E+03 -2.015223E+04
       181  20  3.130984E+05 -5.713258E+04 -4.923245E+04 -5.993627E+04 -7.990991E+03 -1.270275E+04
       181  21  4.405712E+05 -2.614138E+04 -2.228940E+04 -8.508595E+04 -7.190895E+03 -5.253418E+03
       181  22  5.483573E+05  8.347291E+01  2.378787E+03 -8.516526E+04 -1.635256E+03 -2.015721E+04
       181  23  5.483396E+05  6.130162E+01  1.606372E+03 -6.003936E+04 -8.365862E+02 -1.270863E+04
       181  24  5.483753E+05  1.374242E+02  1.359048E+03 -8.516526E+04 -3.578739E+01 -5.260271E+03
       181  25  9.111458E+05  8.818533E+04  8.040174E+04 -8.529103E+04  5.522406E+03 -2.016218E+04
       181  26  7.836329E+05  5.725156E+04  5.244211E+04 -6.014248E+04  6.320492E+03 -1.271452E+04
       181  27  6.561905E+05  2.641548E+04  2.500698E+04 -8.524457E+04  7.120547E+03 -5.267126E+03
       182   1  5.417038E+05 -1.412986E+03  3.024838E+02 -8.515061E+04  6.935970E+03  9.185109E+02
       182   2  6.690946E+05  2.942298E+04  2.787649E+04 -6.006731E+04  6.045377E+03 -6.527563E+03
       182   3  7.965508E+05  6.036382E+04  5.603167E+04 -8.521859E+04  5.155691E+03 -1.397237E+04
       182   4  5.483767E+05  1.385669E+02  1.391295E+03 -8.516156E+04 -2.188291E+02  9.255057E+02
       182   5  5.483480E+05  7.235972E+01  1.786815E+03 -6.004398E+04 -1.108791E+03 -6.521081E+03
       182   6  5.483674E+05  1.114046E+02  2.763116E+03 -8.516155E+04 -1.997667E+03 -1.396634E+04
       182   7  5.550498E+05  1.690145E+03  2.480297E+03 -8.517252E+04 -7.373702E+03  9.325007E+02
       182   8  4.276151E+05 -2.927919E+04 -2.430353E+04 -6.002064E+04 -8.261586E+03 -6.514599E+03
       182   9  3.002419E+05 -6.014501E+04 -5.050885E+04 -8.510451E+04 -9.148208E+03 -1.396031E+04
       182  10  5.417037E+05 -1.412999E+03  3.023919E+02 -8.515062E+04 -4.086782E-10  1.469841E-10
       182  11  6.690945E+05  2.942292E+04  2.787635E+04 -6.006728E+04 -9.124356E-10  1.169849E-09
       182  12  7.965507E+05  6.036360E+04  5.603126E+04 -8.521853E+04 -3.819436E-10 -2.041386E-10
       182  13  5.483767E+05  1.385659E+02  1.391293E+03 -8.516156E+04 -1.077193E-09  2.544129E-11
       182  14  5.483480E+05  7.231371E+01  1.786732E+03 -6.004398E+04 -7.160244E-10 -3.522235E-10
       182  15  5.483673E+05  1.111940E+02  2.762742E+03 -8.516157E+04 -1.812181E-09  3.121175E-10
       182  16  5.550497E+05  1.690129E+03  2.480193E+03 -8.517251E+04 -4.223192E-10  4.353061E-10
       182  17  4.276151E+05 -2.927925E+04 -2.430374E+04 -6.002068E+04 -3.812733E-10  5.087483E-11
       182  18  3.002417E+05 -6.014524E+04 -5.050937E+04 -8.510462E+04 -9.466904E-11  5.677722E-11
       182  19  5.417038E+05 -1.412986E+03  3.024838E+02 -8.515061E+04 -6.935970E+03 -9.185109E+02
       182  20  6.690946E+05  2.942298E+04  2.787649E+04 -6.006731E+04 -6.045377E+03  6.527563E+03
       182  21  7.965508E+05  6.036382E+04  5.603167E+04 -8.521859E+04 -5.155691E+03  1.397237E+04
       182  22  5.483767E+05  1.385669E+02  1.391295E+03 -8.516156E+04  2.188291E+02 -9.255057E+02
       182  23  5.483480E+05  7.235972E+01  1.786815E+03 -6.004398E+04  1.108791E+03  6.521081E+03
       182  24  5.483674E+05  1.114046E+02  2.763116E+03 -8.516155E+04  1.997667E+03  1.396634E+04
       182  25  5.550498E+05  1.690145E+03  2.480297E+03 -8.517252E+04  7.373702E+03 -9.325007E+02
       182  26  4.276151E+05 -2.927919E+04 -2.430353E+04 -6.002064E+04  8.261586E+03  6.514599E+03
       182  27  3.002419E+05 -6.014501E+04 -5.050885E+04 -8.510451E+04  9.148208E+03  1.396031E+04
       183   1  8.978823E+05  8.506298E+04  7.938384E+04 -8.521295E+04  4.606396E+03 -1.831457E+04
       183   2  1.025292E+06  1.158936E+05  1.090700E+05 -6.004021E+04  1.567346E+03 -2.574956E+04
       183   3  1.153253E+06  1.472764E+05  1.408674E+05 -8.519016E+04 -1.467963E+03 -3.312031E+04
       183   4  5.484602E+05  6.851284E+01  3.544691E+03 -8.518160E+04 -2.571802E+03 -1.830925E+04
       183   5  5.481783E+05 -5.841513E+01  5.992536E+03 -6.001890E+04 -5.547688E+03 -2.574622E+04
       183   6  5.484229E+05  3.573209E+02  1.050962E+04 -8.518125E+04 -8.519227E+03 -3.311887E+04
       183   7  1.991525E+05 -8.493401E+04 -7.230155E+04 -8.515024E+04 -9.746017E+03 -1.830394E+04
       183   8  7.127857E+04 -1.160254E+05 -9.709824E+04 -5.999757E+04 -1.265734E+04 -2.574289E+04
       183   9 -5.606381E+04 -1.465858E+05 -1.198695E+05 -8.517229E+04 -1.556372E+04 -3.311743E+04
       183  10  8.978822E+05  8.506262E+04  7.938317E+04 -8.521288E+04 -1.340271E-09 -2.543128E-10
       183  11  1.025291E+06  1.158929E+05  1.090688E+05 -6.004018E+04  1.901340E-11  2.807692E-10
       183  12  1.153253E+06  1.472753E+05  1.408654E+05 -8.519020E+04 -1.023499E-09  2.106286E-10
       183  13  5.484601E+05  6.815099E+01  3.544048E+03 -8.518164E+04 -1.167650E-09  2.331977E-10
       183  14  5.481781E+05 -5.913539E+01  5.991233E+03 -6.001902E+04  5.232226E-10 -3.283091E-10
       183  15  5.484226E+05  3.561233E+02  1.050743E+04 -8.518148E+04  7.881467E-10 -1.976894E-10
       183  16  1.991524E+05 -8.493439E+04 -7.230236E+04 -8.515039E+04 -5.768984E-10 -8.528791E-11
       183  17  7.127822E+04 -1.160262E+05 -9.709979E+04 -5.999783E+04 -4.105950E-10  3.782053E-10
       183  18 -5.606437E+04 -1.465870E+05 -1.198721E+05 -8.517271E+04 -1.561601E-10 -3.256555E-11
       183  19  8.978823E+05  8.506298E+04  7.938384E+04 -8.521295E+04 -4.606396E+03  1.831457E+04
       183  20  1.025292E+06  1.158936E+05  1.090700E+05 -6.004021E+04 -1.567346E+03  2.574956E+04
       183  21  1.153253E+06  1.472764E+05  1.408674E+05 -8.519016E+04  1.467963E+03  3.312031E+04
       183  22  5.484602E+05  6.851284E+01  3.544691E+03 -8.518160E+04  2.571802E+03  1.830925E+04
       183  23  5.481783E+05 -5.841513E+01  5.992536E+03 -6.001890E+04  5.547688E+03  2.574622E+04
       183  24  5.484229E+05  3.573209E+02  1.050962E+04 -8.518125E+04  8.519227E+03  3.311887E+04
       183  25  1.991525E+05 -8.493401E+04 -7.230155E+04 -8.515024E+04  9.746017E+03  1.830394E+04
       183  26  7.127857E+04 -1.160254E+05 -9.709824E+04 -5.999757E+04  1.265734E+04  2.574289E+04
       183  27 -5.606381E+04 -1.465858E+05 -1.198695E+05 -8.517229E+04  1.556372E+04  3.311743E+04
       184   1  1.255590E+06  1.712008E+05  1.666521E+05 -8.370759E+04 -3.148983E+03 -3.759425E+04
       184   2  1.381712E+06  2.025233E+05  2.042588E+05 -6.069608E+04 -1.657879E+04 -4.462381E+04
       184   3  1.512052E+06  2.428209E+05  2.528843E+05 -8.814350E+04 -3.000443E+04 -5.008625E+04
       184   4  5.491540E+05 -5.234020E+02  1.372574E+04 -8.521216E+04 -1.065805E+04 -3.759423E+04
       184   5  5.471454E+05 -3.074594E+02  2.374414E+04 -5.998023E+04 -2.256667E+04 -4.462744E+04
       184   6  5.490851E+05  8.628946E+03  4.373809E+04 -8.521098E+04 -3.446843E+04 -5.009259E+04
       184   7 -1.568148E+05 -1.722805E+05 -1.392301E+05 -8.671492E+04 -1.815870E+04 -3.759418E+04
       184   8 -2.867686E+05 -2.031841E+05 -1.568116E+05 -5.926531E+04 -2.854661E+04 -4.463109E+04
       184   9 -4.130139E+05 -2.256243E+05 -1.654634E+05 -8.228302E+04 -3.892558E+04 -5.009899E+04
       184  10  1.255590E+06  1.711993E+05  1.666495E+05 -8.370769E+04  5.345362E-10  2.488137E-10
       184  11  1.381711E+06  2.025211E+05  2.042545E+05 -6.069668E+04 -1.023625E-11 -1.545397E-10
       184  12  1.512050E+06  2.428179E+05  2.528779E+05 -8.814471E+04 -1.312651E-09 -1.081671E-10
       184  13  5.491535E+05 -5.249506E+02  1.372287E+04 -8.521248E+04  1.068833E-09  1.183719E-10
       184  14  5.471443E+05 -3.097353E+02  2.373944E+04 -5.998104E+04  3.447064E-10 -1.585575E-10
       184  15  5.490832E+05  8.625932E+03  4.373114E+04 -8.521237E+04  7.526231E-10 -5.694060E-12
       184  16 -1.568155E+05 -1.722821E+05 -1.392334E+05 -8.671547E+04 -1.166579E-10 -1.576310E-10
       184  17 -2.867700E+05 -2.031865E+05 -1.568169E+05 -5.926633E+04 -7.241128E-10 -1.875179E-10
       184  18 -4.130162E+05 -2.256274E+05 -1.654710E+05 -8.228459E+04  7.748256E-10  5.035915E-11
       184  19  1.255590E+06  1.712008E+05  1.666521E+05 -8.370759E+04  3.148983E+03  3.759425E+04
       184  20  1.381712E+06  2.025233E+05  2.042588E+05 -6.069608E+04  1.657879E+04  4.462381E+04
       184  21  1.512052E+06  2.428209E+05  2.528843E+05 -8.814350E+04  3.000443E+04  5.008625E+04
       184  22  5.491540E+05 -5.234020E+02  1.372574E+04 -8.521216E+04  1.065805E+04  3.759423E+04
       184  23  5.471454E+05 -3.074594E+02  2.374414E+04 -5.998023E+04  2.256667E+04  4.462744E+04
       184  24  5.490851E+05  8.628946E+03  4.373809E+04 -8.521098E+04  3.446843E+04  5.009259E+04
       184  25 -1.568148E+05 -1.722805E+05 -1.392301E+05 -8.671492E+04  1.815870E+04  3.759418E+04
       184  26 -2.867686E+05 -2.031841E+05 -1.568116E+05 -5.926531E+04  2.854661E+04  4.463109E+04
       184  27 -4.130139E+05 -2.256243E+05 -1.654634E+05 -8.228302E+04  3.892558E+04  5.009899E+04
       185   1  1.624569E+06  2.507288E+05  2.855903E+05 -6.019063E+04 -2.785468E+04 -5.722396E+04
       185   2  1.727510E+06  2.928725E+05  3.580685E+05 -8.992253E+04 -1.114500E+05 -5.483586E+04
       185   3  1.883374E+06  5.012005E+05  5.265338E+05 -1.689901E+05 -1.951090E+05 -1.760162E+04
       185   4  5.586535E+05 -8.281929E+03  5.521259E+04 -8.492424E+04 -4.223581E+04 -5.723436E+04
       185   5  5.349984E+05  2.034383E+03  9.458018E+04 -6.033113E+04 -9.222900E+04 -5.483561E+04
       185   6  5.585186E+05  1.728720E+05  2.067279E+05 -8.506371E+04 -1.422638E+05 -1.757528E+04
       185   7 -5.061963E+05 -2.673652E+05 -1.752313E+05 -1.096149E+05 -5.659259E+04 -5.724362E+04
       185   8 -6.561850E+05 -2.888958E+05 -1.689940E+05 -3.079726E+04 -7.304430E+04 -5.483353E+04
       185   9 -7.647141E+05 -1.555564E+05 -1.131893E+05 -1.316827E+03 -8.953051E+04 -1.753469E+04
       185  10  1.624568E+06  2.507251E+05  2.855827E+05 -6.019191E+04 -5.790832E-10  1.381823E-10
       185  11  1.727496E+06  2.928660E+05  3.580396E+05 -8.992744E+04  5.808718E-10 -1.742572E-10
       185  12  1.883333E+06  5.011900E+05  5.264619E+05 -1.689929E+05 -8.255842E-10 -2.756100E-10
       185  13  5.586507E+05 -8.285927E+03  5.520309E+04 -8.492619E+04 -8.955003E-10  4.810043E-10
       185  14  5.349885E+05  2.028872E+03  9.455855E+04 -6.033520E+04 -2.100850E-09  1.044054E-09
       185  15  5.584968E+05  1.728662E+05  2.066893E+05 -8.506572E+04 -4.043708E-10 -2.389641E-10
       185  16 -5.062007E+05 -2.673695E+05 -1.752435E+05 -1.096175E+05  3.021658E-10  2.347609E-10
       185  17 -6.561916E+05 -2.889005E+05 -1.690097E+05 -3.080049E+04 -1.154109E-09 -2.043855E-10
       185  18 -7.647228E+05 -1.555589E+05 -1.132050E+05 -1.318092E+03 -3.677262E-10 -6.274280E-10
       185  19  1.624569E+06  2.507288E+05  2.855903E+05 -6.019063E+04  2.785468E+04  5.722396E+04
       185  20  1.727510E+06  2.928725E+05  3.580685E+05 -8.992253E+04  1.114500E+05  5.483586E+04
       185  21  1.883374E+06  5.012005E+05  5.265338E+05 -1.689901E+05  1.951090E+05  1.760162E+04
       185  22  5.586535E+05 -8.281929E+03  5.521259E+04 -8.492424E+04  4.223581E+04  5.723436E+04
       185  23  5.349984E+05  2.034383E+03  9.458018E+04 -6.033113E+04  9.222900E+04  5.483561E+04
       185  24  5.585186E+05  1.728720E+05  2.067279E+05 -8.506371E+04  1.422638E+05  1.757528E+04
       185  25 -5.061963E+05 -2.673652E+05 -1.752313E+05 -1.096149E+05  5.659259E+04  5.724362E+04
       185  26 -6.561850E+05 -2.888958E+05 -1.689940E+05 -3.079726E+04  7.304430E+04  5.483353E+04
       185  27 -7.647141E+05 -1.555564E+05 -1.131893E+05 -1.316827E+03  8.953051E+04  1.753469E+04
       186   1  3.549365E+05  1.285120E+06  3.642390E+05 -2.955221E+05  1.107101E+04  9.839569E+04
       186   2  1.757622E+05  8.894735E+05  2.050217E+05 -1.948252E+05  2.961737E+04  4.378316E+04
       186   3  7.819756E+04  5.208707E+05  1.015887E+05 -2.431077E+05  1.660664E+04 -1.085904E+04
       186   4  8.245738E+04  1.894437E+05  9.758247E+04 -2.537011E+05  1.115107E+04  6.545368E+04
       186   5  1.804674E+03  1.786798E+05  4.599939E+04 -1.793071E+05  2.962687E+04  4.122151E+04
       186   6 -2.439971E+03  1.896108E+05  2.918316E+04 -2.538870E+05  1.653387E+04  1.692571E+04
       186   7 -1.901032E+05 -9.051333E+05 -1.691561E+05 -2.119532E+05  1.122678E+04  3.256948E+04
       186   8 -1.721864E+05 -5.316433E+05 -1.130547E+05 -1.638066E+05  2.963624E+04  3.866274E+04
       186   9 -8.308394E+04 -1.415445E+05 -4.322605E+04 -2.646604E+05  1.646012E+04  4.469583E+04
       186  10  3.549337E+05  1.285110E+06  3.642206E+05 -2.955230E+05 -8.707205E-12  9.153593E-10
       186  11  1.757607E+05  8.894712E+05  2.050165E+05 -1.948262E+05 -1.442286E-09 -1.078872E-09
       186  12  7.819723E+04  5.208705E+05  1.015880E+05 -2.431076E+05  7.367026E-10 -7.283077E-10
       186  13  8.245609E+04  1.894391E+05  9.757419E+04 -2.537017E+05  3.170182E-10 -5.195506E-10
       186  14  1.803275E+03  1.786778E+05  4.599455E+04 -1.793081E+05  1.061704E-09  2.517336E-11
       186  15 -2.440342E+03  1.896104E+05  2.918211E+04 -2.538872E+05  1.713928E-09 -9.030967E-10
       186  16 -1.901036E+05 -9.051345E+05 -1.691584E+05 -2.119535E+05  2.608421E-10 -2.217540E-10
       186  17 -1.721877E+05 -5.316451E+05 -1.130592E+05 -1.638075E+05  2.744785E-09  1.433760E-09
       186  18 -8.308476E+04 -1.415467E+05 -4.323032E+04 -2.646610E+05  2.085760E-10  1.218059E-09
       186  19  3.549365E+05  1.285120E+06  3.642390E+05 -2.955221E+05 -1.107101E+04 -9.839569E+04
       186  20  1.757622E+05  8.894735E+05  2.050217E+05 -1.948252E+05 -2.961737E+04 -4.378316E+04
       186  21  7.819756E+04  5.208707E+05  1.015887E+05 -2.431077E+05 -1.660664E+04  1.085904E+04
       186  22  8.245738E+04  1.894437E+05  9.758247E+04 -2.537011E+05 -1.115107E+04 -6.545368E+04
       186  23  1.804674E+03  1.786798E+05  4.599939E+04 -1.793071E+05 -2.962687E+04 -4.122151E+04
       186  24 -2.439971E+03  1.896108E+05  2.918316E+04 -2.538870E+05 -1.653387E+04 -1.692571E+04
       186  25 -1.901032E+05 -9.051333E+05 -1.691561E+05 -2.119532E+05 -1.122678E+04 -3.256948E+04
       186  26 -1.721864E+05 -5.316433E+05 -1.130547E+05 -1.638066E+05 -2.963624E+04 -3.866274E+04
       186  27 -8.308394E+04 -1.415445E+05 -4.322605E+04 -2.646604E+05 -1.646012E+04 -4.469583E+04
       187   1  1.194519E+04  2.125454E+05  3.114228E+04 -2.561818E+05  9.169784E+02 -6.873368E+03
       187   2 -8.556169E+04 -1.703205E+05 -5.790945E+04 -1.784334E+05 -1.889375E+04 -1.559405E+04
       187   3 -1.756023E+05 -5.507962E+05 -1.396168E+05 -2.510548E+05 -3.788933E+04 -2.429901E+04
       187   4  5.245500E+03  1.853435E+05  2.490287E+04 -2.541469E+05  8.648143E+02  1.256058E+04
       187   5  6.808600E+02  1.841086E+05  1.886443E+04 -1.789671E+05 -1.893976E+04  3.050727E+03
       187   6  3.726722E+03  1.852632E+05  2.072327E+04 -2.541505E+05 -3.792982E+04 -6.448557E+03
       187   7 -1.454023E+03  1.581431E+05  1.866483E+04 -2.521121E+05  8.127763E+02  3.199369E+04
       187   8  8.691530E+04  5.386563E+05  9.563215E+04 -1.795011E+05 -1.898578E+04  2.170601E+04
       187   9  1.830199E+05  9.218313E+05  1.810320E+05 -2.572494E+05 -3.797047E+04  1.142280E+04
       187  10  1.194518E+04  2.125454E+05  3.114219E+04 -2.561818E+05 -6.194682E-10  4.799184E-10
       187  11 -8.556214E+04 -1.703208E+05 -5.791057E+04 -1.784336E+05 -7.900114E-10 -1.652070E-09
       187  12 -1.756040E+05 -5.507972E+05 -1.396206E+05 -2.510556E+05 -7.111201E-10 -1.104408E-09
       187  13  5.245457E+03  1.853434E+05  2.490257E+04 -2.541469E+05 -3.016233E-10 -6.348404E-10
       187  14  6.804724E+02  1.841085E+05  1.886374E+04 -1.789671E+05  1.148411E-10  6.114437E-11
       187  15  3.725166E+03  1.852628E+05  2.072049E+04 -2.541507E+05 -1.095336E-09 -8.726743E-10
       187  16 -1.454299E+03  1.581421E+05  1.866290E+04 -2.521121E+05 -1.033916E-09  5.688002E-10
       187  17  8.691479E+04  5.386557E+05  9.563059E+04 -1.795008E+05 -3.718371E-10  2.065140E-09
       187  18  1.830184E+05  9.218308E+05  1.810291E+05 -2.572491E+05 -2.910104E-10  1.520240E-09
       187  19  1.194519E+04  2.125454E+05  3.114228E+04 -2.561818E+05 -9.169784E+02  6.873368E+03
       187  20 -8.556169E+04 -1.703205E+05 -5.790945E+04 -1.784334E+05  1.889375E+04  1.559405E+04
       187  21 -1.756023E+05 -5.507962E+05 -1.396168E+05 -2.510548E+05  3.788933E+04  2.429901E+04
       187  22  5.245500E+03  1.853435E+05  2.490287E+04 -2.541469E+05 -8.648143E+02 -1.256058E+04
       187  23  6.808600E+02  1.841086E+05  1.886443E+04 -1.789671E+05  1.893976E+04 -3.050727E+03
       187  24  3.726722E+03  1.852632E+05  2.072327E+04 -2.541505E+05  3.792982E+04  6.448557E+03
       187  25 -1.454023E+03  1.581431E+05  1.866483E+04 -2.521121E+05 -8.127763E+02 -3.199369E+04
       187  26  8.691530E+04  5.386563E+05  9.563215E+04 -1.795011E+05  1.898578E+04 -2.170601E+04
       187  27  1.830199E+05  9.218313E+05  1.810320E+05 -2.572494E+05  3.797047E+04 -1.142280E+04
       188   1 -2.548780E+05 -8.520985E+05 -2.028000E+05 -2.600731E+05 -5.490502E+04 -4.156721E+04
       188   2 -3.459686E+05 -1.238153E+06 -2.817356E+05 -1.675169E+05 -6.303297E+04 -1.161427E+04
       188   3 -3.905174E+05 -1.616192E+06 -3.685463E+05 -2.232541E+05 -2.146508E+04  1.838165E+04
       188   4 -1.610857E+03  1.881958E+05  2.299404E+04 -2.537085E+05 -5.497107E+04 -1.003299E+04
       188   5  9.614811E+02  1.799732E+05  3.362335E+04 -1.795293E+05 -6.299360E+04 -2.773885E+04
       188   6  5.830109E+04  1.878708E+05  6.947190E+04 -2.536130E+05 -2.137296E+04 -4.538327E+04
       188   7  2.515853E+05  1.229508E+06  2.487273E+05 -2.473324E+05 -5.503640E+04  2.155343E+04
       188   8  3.477559E+05  1.599978E+06  3.488579E+05 -1.915684E+05 -6.295367E+04 -4.389985E+04
       188   9  5.068858E+05  1.994920E+06  5.072707E+05 -2.840589E+05 -2.127475E+04 -1.093331E+05
       188  10 -2.548817E+05 -8.521011E+05 -2.028089E+05 -2.600750E+05 -6.567268E-10  7.142286E-10
       188  11 -3.459729E+05 -1.238154E+06 -2.817433E+05 -1.675175E+05  9.158752E-10 -5.517813E-10
       188  12 -3.905180E+05 -1.616192E+06 -3.685478E+05 -2.232538E+05  3.900470E-10 -4.119654E-10
       188  13 -1.614129E+03  1.881948E+05  2.298817E+04 -2.537090E+05  1.563374E-11 -5.047029E-10
       188  14  9.570124E+02  1.799713E+05  3.361444E+04 -1.795307E+05  2.258230E-10 -6.575920E-11
       188  15  5.830005E+04  1.878685E+05  6.946717E+04 -2.536137E+05  2.021325E-10 -4.265390E-10
       188  16  2.515820E+05  1.229507E+06  2.487207E+05 -2.473314E+05 -9.614905E-10  1.531470E-10
       188  17  3.477511E+05  1.599975E+06  3.488469E+05 -1.915706E+05  6.667509E-10  6.857571E-10
       188  18  5.068822E+05  1.994907E+06  5.072474E+05 -2.840607E+05  6.241885E-10  4.786137E-10
       188  19 -2.548780E+05 -8.520985E+05 -2.028000E+05 -2.600731E+05  5.490502E+04  4.156721E+04
       188  20 -3.459686E+05 -1.238153E+06 -2.817356E+05 -1.675169E+05  6.303297E+04  1.161427E+04
       188  21 -3.905174E+05 -1.616192E+06 -3.685463E+05 -2.232541E+05  2.146508E+04 -1.838165E+04
       188  22 -1.610857E+03  1.881958E+05  2.299404E+04 -2.537085E+05  5.497107E+04  1.003299E+04
       188  23  9.614811E+02  1.799732E+05  3.362335E+04 -1.795293E+05  6.299360E+04  2.773885E+04
       188  24  5.830109E+04  1.878708E+05  6.947190E+04 -2.536130E+05  2.137296E+04  4.538327E+04
       188  25  2.515853E+05  1.229508E+06  2.487273E+05 -2.473324E+05  5.503640E+04 -2.155343E+04
       188  26  3.477559E+05  1.599978E+06  3.488579E+05 -1.915684E+05  6.295367E+04  4.389985E+04
       188  27  5.068858E+05  1.994920E+06  5.072707E+05 -2.840589E+05  2.127475E+04  1.093331E+05
       189   1 -2.573258E+06 -9.845637E+05 -6.018263E+05 -9.473583E+05 -2.546898E+05 -7.900973E+04
       189   2 -2.483651E+06 -6.336524E+05 -3.721298E+05 -9.249613E+05 -1.642465E+05 -8.787959E+03
       189   3 -2.473868E+06 -5.537007E+05 -2.858206E+05 -8.700739E+05 -6.259759E+04  3.175616E+04
       189   4 -1.622558E+06 -5.096080E+05 -3.255300E+05 -5.686124E+05 -2.132238E+05 -6.345091E+04
       189   5 -1.567451E+06 -2.514660E+05 -1.416469E+05 -6.319745E+05 -1.492697E+05 -3.170800E+03
       189   6 -1.586761E+06 -2.588195E+05 -7.995632E+04 -6.628908E+05 -7.412938E+04  2.741857E+04
       189   7 -6.709361E+05 -3.437175E+04 -4.931145E+04 -1.892702E+05 -1.716878E+05 -4.784608E+04
       189   8 -6.504135E+05  1.308388E+05  8.877010E+04 -3.385716E+05 -1.342688E+05  2.457954E+03
       189   9 -6.988770E+05  3.607833E+04  1.258543E+05 -4.554553E+05 -8.567908E+04  2.307592E+04
       189  10 -2.573329E+06 -9.845879E+05 -6.019606E+05 -9.473745E+05  2.635610E-11 -1.943370E-10
       189  11 -2.483680E+06 -6.336598E+05 -3.721808E+05 -9.249625E+05 -7.528646E-11 -9.531955E-10
       189  12 -2.473872E+06 -5.537028E+05 -2.858298E+05 -8.700723E+05  8.642522E-11 -4.986693E-10
       189  13 -1.622608E+06 -5.096246E+05 -3.256233E+05 -5.686233E+05 -3.882410E-11 -1.198746E-10
       189  14 -1.567475E+06 -2.514720E+05 -1.416889E+05 -6.319749E+05  1.122485E-09 -6.218834E-10
       189  15 -1.586767E+06 -2.588218E+05 -7.996808E+04 -6.628892E+05  1.326185E-09 -8.110976E-11
       189  16 -6.709684E+05 -3.438214E+04 -4.937122E+04 -1.892768E+05  3.619747E-10 -3.584478E-11
       189  17 -6.504328E+05  1.308339E+05  8.873618E+04 -3.385713E+05  1.591497E-09  2.447239E-10
       189  18 -6.988850E+05  3.607579E+04  1.258395E+05 -4.554537E+05  4.121623E-10  6.016224E-11
       189  19 -2.573258E+06 -9.845637E+05 -6.018263E+05 -9.473583E+05  2.546898E+05  7.900973E+04
       189  20 -2.483651E+06 -6.336524E+05 -3.721298E+05 -9.249613E+05  1.642465E+05  8.787959E+03
       189  21 -2.473868E+06 -5.537007E+05 -2.858206E+05 -8.700739E+05  6.259759E+04 -3.175616E+04
       189  22 -1.622558E+06 -5.096080E+05 -3.255300E+05 -5.686124E+05  2.132238E+05  6.345091E+04
       189  23 -1.567451E+06 -2.514660E+05 -1.416469E+05 -6.319745E+05  1.492697E+05  3.170800E+03
       189  24 -1.586761E+06 -2.588195E+05 -7.995632E+04 -6.628908E+05  7.412938E+04 -2.741857E+04
       189  25 -6.709361E+05 -3.437175E+04 -4.931145E+04 -1.892702E+05  1.716878E+05  4.784608E+04
       189  26 -6.504135E+05  1.308388E+05  8.877010E+04 -3.385716E+05  1.342688E+05 -2.457954E+03
       189  27 -6.988770E+05  3.607833E+04  1.258543E+05 -4.554553E+05  8.567908E+04 -2.307592E+04
       190   1 -2.361012E+06 -5.796706E+05 -2.527526E+05 -8.691902E+05 -5.904825E+04  2.645033E+04
       190   2 -2.283827E+06 -5.158280E+05 -2.000540E+05 -8.303195E+05 -3.990315E+04  2.934957E+04
       190   3 -2.186959E+06 -4.936377E+05 -1.644267E+05 -8.194549E+05 -2.024534E+04  3.087903E+04
       190   4 -1.576212E+06 -2.824971E+05 -6.321428E+04 -6.486847E+05 -6.184568E+04  2.539395E+04
       190   5 -1.585137E+06 -2.546690E+05 -3.258938E+04 -6.373426E+05 -4.390713E+04  2.784235E+04
       190   6 -1.574138E+06 -2.682405E+05 -1.806043E+04 -6.540087E+05 -2.545891E+04  2.892052E+04
       190   7 -7.907950E+05  1.472708E+04  1.262797E+05 -4.279212E+05 -6.464694E+04  2.433606E+04
       190   8 -8.859585E+05  6.526607E+03  1.348403E+05 -4.441663E+05 -4.791602E+04  2.633328E+04
       190   9 -9.609444E+05 -4.281892E+04  1.282789E+05 -4.884142E+05 -3.067810E+04  2.695995E+04
       190  10 -2.361016E+06 -5.796723E+05 -2.527605E+05 -8.691889E+05  1.195548E-09  1.336380E-10
       190  11 -2.283829E+06 -5.158293E+05 -2.000586E+05 -8.303185E+05  1.201514E-10 -1.964029E-10
       190  12 -2.186960E+06 -4.936389E+05 -1.644293E+05 -8.194544E+05 -1.930060E-10 -2.076004E-10
       190  13 -1.576216E+06 -2.824988E+05 -6.322269E+04 -6.486834E+05 -1.456042E-10 -3.802735E-11
       190  14 -1.585139E+06 -2.546703E+05 -3.259446E+04 -6.373416E+05 -6.586701E-10 -2.421743E-10
       190  15 -1.574139E+06 -2.682416E+05 -1.806322E+04 -6.540081E+05 -2.754903E-10 -2.248529E-10
       190  16 -7.907997E+05  1.472532E+04  1.262708E+05 -4.279199E+05 -1.476628E-09 -2.882205E-10
       190  17 -8.859611E+05  6.525246E+03  1.348347E+05 -4.441653E+05 -7.071807E-10 -4.168852E-10
       190  18 -9.609456E+05 -4.281996E+04  1.282758E+05 -4.884136E+05 -1.598169E-10 -5.077326E-11
       190  19 -2.361012E+06 -5.796706E+05 -2.527526E+05 -8.691902E+05  5.904825E+04 -2.645033E+04
       190  20 -2.283827E+06 -5.158280E+05 -2.000540E+05 -8.303195E+05  3.990315E+04 -2.934957E+04
       190  21 -2.186959E+06 -4.936377E+05 -1.644267E+05 -8.194549E+05  2.024534E+04 -3.087903E+04
       190  22 -1.576212E+06 -2.824971E+05 -6.321428E+04 -6.486847E+05  6.184568E+04 -2.539395E+04
       190  23 -1.585137E+06 -2.546690E+05 -3.258938E+04 -6.373426E+05  4.390713E+04 -2.784235E+04
       190  24 -1.574138E+06 -2.682405E+05 -1.806043E+04 -6.540087E+05  2.545891E+04 -2.892052E+04
       190  25 -7.907950E+05  1.472708E+04  1.262797E+05 -4.279212E+05  6.464694E+04 -2.433606E+04
       190  26 -8.859585E+05  6.526607E+03  1.348403E+05 -4.441663E+05  4.791602E+04 -2.633328E+04
       190  27 -9.609444E+05 -4.281892E+04  1.282789E+05 -4.884142E+05  3.067810E+04 -2.695995E+04
       191   1 -2.110188E+06 -4.690622E+05 -1.418273E+05 -8.003339E+05 -1.682114E+04  2.837876E+04
       191   2 -2.033181E+06 -4.207067E+05 -1.141907E+05 -7.597310E+05 -1.096525E+04  2.435739E+04
       191   3 -1.929207E+06 -4.009289E+05 -8.960089E+04 -7.507967E+05 -5.079825E+03  2.024819E+04
       191   4 -1.573148E+06 -2.696183E+05 -1.372822E+04 -6.532261E+05 -2.167275E+04  2.655731E+04
       191   5 -1.586565E+06 -2.549385E+05 -7.473935E+03 -6.375340E+05 -1.589224E+04  2.250932E+04
       191   6 -1.573008E+06 -2.688204E+05 -4.204211E+03 -6.535128E+05 -1.008279E+04  1.837334E+04
       191   7 -1.035824E+06 -7.015509E+04  1.143493E+05 -5.060027E+05 -2.652890E+04  2.473415E+04
       191   8 -1.139751E+06 -8.915642E+04  9.922852E+04 -5.152568E+05 -2.082309E+04  2.065981E+04
       191   9 -1.216682E+06 -1.367024E+05  8.118385E+04 -5.561774E+05 -1.508892E+04  1.649730E+04
       191  10 -2.110188E+06 -4.690631E+05 -1.418293E+05 -8.003336E+05  8.698477E-10  3.232038E-10
       191  11 -2.033181E+06 -4.207073E+05 -1.141921E+05 -7.597307E+05 -5.973200E-10  2.715146E-10
       191  12 -1.929207E+06 -4.009294E+05 -8.960171E+04 -7.507967E+05 -2.717016E-10  1.937922E-10
       191  13 -1.573149E+06 -2.696192E+05 -1.373043E+04 -6.532256E+05  5.783996E-10 -1.299148E-10
       191  14 -1.586566E+06 -2.549391E+05 -7.475361E+03 -6.375337E+05 -1.825752E-10  2.689203E-10
       191  15 -1.573008E+06 -2.688208E+05 -4.205035E+03 -6.535126E+05  3.169088E-10  8.305517E-11
       191  16 -1.035825E+06 -7.015594E+04  1.143469E+05 -5.060022E+05 -8.126749E-10 -4.953431E-10
       191  17 -1.139752E+06 -8.915700E+04  9.922690E+04 -5.152565E+05  5.985510E-11 -4.372978E-10
       191  18 -1.216682E+06 -1.367028E+05  8.118291E+04 -5.561772E+05 -4.836920E-10  5.753398E-10
       191  19 -2.110188E+06 -4.690622E+05 -1.418273E+05 -8.003339E+05  1.682114E+04 -2.837876E+04
       191  20 -2.033181E+06 -4.207067E+05 -1.141907E+05 -7.597310E+05  1.096525E+04 -2.435739E+04
       191  21 -1.929207E+06 -4.009289E+05 -8.960089E+04 -7.507967E+05  5.079825E+03 -2.024819E+04
       191  22 -1.573148E+06 -2.696183E+05 -1.372822E+04 -6.532261E+05  2.167275E+04 -2.655731E+04
       191  23 -1.586565E+06 -2.549385E+05 -7.473935E+03 -6.375340E+05  1.589224E+04 -2.250932E+04
       191  24 -1.573008E+06 -2.688204E+05 -4.204211E+03 -6.535128E+05  1.008279E+04 -1.837334E+04
       191  25 -1.035824E+06 -7.015509E+04  1.143493E+05 -5.060027E+05  2.652890E+04 -2.473415E+04
       191  26 -1.139751E+06 -8.915642E+04  9.922852E+04 -5.152568E+05  2.082309E+04 -2.065981E+04
       191  27 -1.216682E+06 -1.367024E+05  8.118385E+04 -5.561774E+05  1.508892E+04 -1.649730E+04
       192   1 -1.853754E+06 -3.731055E+05 -7.003109E+04 -7.303703E+05 -3.249651E+03  1.722728E+04
       192   2 -1.776162E+06 -3.251707E+05 -4.724486E+04 -6.892799E+05 -1.491866E+02  1.201864E+04
       192   3 -1.670743E+06 -3.052635E+05 -2.522131E+04 -6.803010E+05  2.955171E+03  6.795160E+03
       192   4 -1.572840E+06 -2.689332E+05 -3.237506E+03 -6.535189E+05 -8.252163E+03  1.535334E+04
       192   5 -1.586741E+06 -2.548919E+05 -1.997909E+03 -6.374703E+05 -5.164660E+03  1.014055E+04
       192   6 -1.572821E+06 -2.688754E+05 -1.510109E+03 -6.535356E+05 -2.073443E+03  4.912897E+03
       192   7 -1.291848E+06 -1.647553E+05  6.355052E+04 -5.766359E+05 -1.325714E+04  1.347848E+04
       192   8 -1.397285E+06 -1.846108E+05  4.324641E+04 -5.856465E+05 -1.018179E+04  8.261837E+03
       192   9 -1.474890E+06 -2.324868E+05  2.220034E+04 -6.267664E+05 -7.102896E+03  3.030320E+03
       192  10 -1.853754E+06 -3.731058E+05 -7.003167E+04 -7.303702E+05  4.613900E-10 -3.410408E-11
       192  11 -1.776162E+06 -3.251708E+05 -4.724513E+04 -6.892799E+05 -5.072043E-09 -1.282319E-09
       192  12 -1.670743E+06 -3.052636E+05 -2.522141E+04 -6.803010E+05 -2.789765E-09 -1.054645E-11
       192  13 -1.572840E+06 -2.689334E+05 -3.238077E+03 -6.535188E+05 -1.965002E-09 -6.173918E-10
       192  14 -1.586742E+06 -2.548920E+05 -1.998153E+03 -6.374703E+05 -3.305083E-09 -7.733931E-10
       192  15 -1.572821E+06 -2.688754E+05 -1.510163E+03 -6.535356E+05 -8.886251E-10 -3.243689E-11
       192  16 -1.291848E+06 -1.647555E+05  6.354984E+04 -5.766357E+05 -4.078016E-09 -2.635685E-10
       192  17 -1.397285E+06 -1.846109E+05  4.324609E+04 -5.856464E+05 -3.826486E-09 -1.354556E-09
       192  18 -1.474890E+06 -2.324868E+05  2.220023E+04 -6.267664E+05 -2.356549E-10 -1.078064E-09
       192  19 -1.853754E+06 -3.731055E+05 -7.003109E+04 -7.303703E+05  3.249651E+03 -1.722728E+04
       192  20 -1.776162E+06 -3.251707E+05 -4.724486E+04 -6.892799E+05  1.491866E+02 -1.201864E+04
       192  21 -1.670743E+06 -3.052635E+05 -2.522131E+04 -6.803010E+05 -2.955171E+03 -6.795160E+03
       192  22 -1.572840E+06 -2.689332E+05 -3.237506E+03 -6.535189E+05  8.252163E+03 -1.535334E+04
       192  23 -1.586741E+06 -2.548919E+05 -1.997909E+03 -6.374703E+05  5.164660E+03 -1.014055E+04
       192  24 -1.572821E+06 -2.688754E+05 -1.510109E+03 -6.535356E+05  2.073443E+03 -4.912897E+03
       192  25 -1.291848E+06 -1.647553E+05  6.355052E+04 -5.766359E+05  1.325714E+04 -1.347848E+04
       192  26 -1.397285E+06 -1.846108E+05  4.324641E+04 -5.856465E+05  1.018179E+04 -8.261837E+03
       192  27 -1.474890E+06 -2.324868E+05  2.220034E+04 -6.267664E+05  7.102896E+03 -3.030320E+03
       193   1 -1.595024E+06 -2.770865E+05 -6.467388E+03 -6.596605E+05  4.428714E+03  3.623827E+03
       193   2 -1.517265E+06 -2.291154E+05  1.477553E+04 -6.184740E+05  7.426228E+03 -1.646946E+03
       193   3 -1.411624E+06 -2.092138E+05  3.533597E+04 -6.094652E+05  1.042196E+04 -6.910899E+03
       193   4 -1.572808E+06 -2.688871E+05 -1.478945E+03 -6.535494E+05 -6.033177E+02  1.740428E+03
       193   5 -1.586748E+06 -2.548668E+05 -1.814872E+03 -6.374534E+05  2.399692E+03 -3.528584E+03
       193   6 -1.572817E+06 -2.689188E+05 -2.837944E+03 -6.535395E+05  5.400754E+03 -8.790787E+03
       193   7 -1.550591E+06 -2.606876E+05  3.509608E+03 -6.474381E+05 -5.635571E+03 -1.430552E+02
       193   8 -1.656226E+06 -2.806179E+05 -1.840557E+04 -6.564310E+05 -2.626244E+03 -5.409998E+03
       193   9 -1.733984E+06 -3.286220E+05 -4.101361E+04 -6.976032E+05  3.809721E+02 -1.067015E+04
       193  10 -1.595025E+06 -2.770865E+05 -6.467450E+03 -6.596605E+05 -3.636683E-11  1.003323E-09
       193  11 -1.517265E+06 -2.291154E+05  1.477542E+04 -6.184740E+05  7.173598E-10  8.620910E-10
       193  12 -1.411624E+06 -2.092139E+05  3.533568E+04 -6.094652E+05  9.168928E-10  1.108237E-10
       193  13 -1.572808E+06 -2.688871E+05 -1.478952E+03 -6.535494E+05 -2.621119E-10 -3.191246E-10
       193  14 -1.586748E+06 -2.548668E+05 -1.814906E+03 -6.374534E+05  3.401684E-10  4.096279E-10
       193  15 -1.572817E+06 -2.689189E+05 -2.838144E+03 -6.535394E+05  2.315226E-10 -7.190770E-10
       193  16 -1.550592E+06 -2.606876E+05  3.509548E+03 -6.474381E+05 -1.059291E-09 -9.268171E-10
       193  17 -1.656226E+06 -2.806179E+05 -1.840564E+04 -6.564310E+05 -2.194057E-10 -3.580219E-10
       193  18 -1.733984E+06 -3.286221E+05 -4.101383E+04 -6.976032E+05 -9.212085E-10 -1.977572E-09
       193  19 -1.595024E+06 -2.770865E+05 -6.467388E+03 -6.596605E+05 -4.428714E+03 -3.623827E+03
       193  20 -1.517265E+06 -2.291154E+05  1.477553E+04 -6.184740E+05 -7.426228E+03  1.646946E+03
       193  21 -1.411624E+06 -2.092138E+05  3.533597E+04 -6.094652E+05 -1.042196E+04  6.910899E+03
       193  22 -1.572808E+06 -2.688871E+05 -1.478945E+03 -6.535494E+05  6.033177E+02 -1.740428E+03
       193  23 -1.586748E+06 -2.548668E+05 -1.814872E+03 -6.374534E+05 -2.399692E+03  3.528584E+03
       193  24 -1.572817E+06 -2.689188E+05 -2.837944E+03 -6.535395E+05 -5.400754E+03  8.790787E+03
       193  25 -1.550591E+06 -2.606876E+05  3.509608E+03 -6.474381E+05  5.635571E+03  1.430552E+02
       193  26 -1.656226E+06 -2.806179E+05 -1.840557E+04 -6.564310E+05  2.626244E+03  5.409998E+03
       193  27 -1.733984E+06 -3.286220E+05 -4.101361E+04 -6.976032E+05 -3.809721E+02  1.067015E+04
       194   1 -1.336142E+06 -1.810794E+05  5.318978E+04 -5.889452E+05  1.218441E+04 -9.969864E+03
       194   2 -1.258749E+06 -1.332899E+05  7.184256E+04 -5.478361E+05  1.742770E+04 -1.435213E+04
       194   3 -1.154149E+06 -1.140869E+05  8.796195E+04 -5.386092E+05  2.264668E+04 -1.866035E+04
       194   4 -1.572949E+06 -2.688364E+05 -3.657387E+03 -6.535520E+05  7.157575E+03 -1.185232E+04
       194   5 -1.586600E+06 -2.548737E+05 -6.446564E+03 -6.374870E+05  1.246463E+04 -1.621196E+04
       194   6 -1.573065E+06 -2.695119E+05 -1.182048E+04 -6.533083E+05  1.774689E+04 -2.049768E+04
       194   7 -1.809698E+06 -3.565891E+05 -6.050820E+04 -7.181360E+05  2.132860E+03 -1.373399E+04
       194   8 -1.914343E+06 -3.764499E+05 -8.474335E+04 -7.270946E+05  7.504427E+03 -1.807071E+04
       194   9 -1.991807E+06 -4.249254E+05 -1.116160E+05 -7.679375E+05  1.285067E+04 -2.233367E+04
       194  10 -1.336142E+06 -1.810796E+05  5.318931E+04 -5.889451E+05 -3.008148E-09 -1.147814E-09
       194  11 -1.258750E+06 -1.332902E+05  7.184160E+04 -5.478359E+05  5.981771E-09  2.491897E-09
       194  12 -1.154150E+06 -1.140874E+05  8.796033E+04 -5.386088E+05  1.383728E-08  7.056023E-09
       194  13 -1.572949E+06 -2.688366E+05 -3.657747E+03 -6.535519E+05 -1.011865E-09 -7.171208E-10
       194  14 -1.586600E+06 -2.548740E+05 -6.447350E+03 -6.374868E+05 -9.057256E-13 -2.175408E-10
       194  15 -1.573065E+06 -2.695124E+05 -1.182186E+04 -6.533080E+05  1.083307E-09  1.567223E-09
       194  16 -1.809698E+06 -3.565893E+05 -6.050856E+04 -7.181360E+05  2.577481E-09 -4.049418E-10
       194  17 -1.914343E+06 -3.764503E+05 -8.474407E+04 -7.270945E+05 -5.932971E-09 -1.585124E-09
       194  18 -1.991808E+06 -4.249260E+05 -1.116173E+05 -7.679372E+05 -1.216739E-08 -3.443720E-09
       194  19 -1.336142E+06 -1.810794E+05  5.318978E+04 -5.889452E+05 -1.218441E+04  9.969864E+03
       194  20 -1.258749E+06 -1.332899E+05  7.184256E+04 -5.478361E+05 -1.742770E+04  1.435213E+04
       194  21 -1.154149E+06 -1.140869E+05  8.796195E+04 -5.386092E+05 -2.264668E+04  1.866035E+04
       194  22 -1.572949E+06 -2.688364E+05 -3.657387E+03 -6.535520E+05 -7.157575E+03  1.185232E+04
       194  23 -1.586600E+06 -2.548737E+05 -6.446564E+03 -6.374870E+05 -1.246463E+04  1.621196E+04
       194  24 -1.573065E+06 -2.695119E+05 -1.182048E+04 -6.533083E+05 -1.774689E+04  2.049768E+04
       194  25 -1.809698E+06 -3.565891E+05 -6.050820E+04 -7.181360E+05 -2.132860E+03  1.373399E+04
       194  26 -1.914343E+06 -3.764499E+05 -8.474335E+04 -7.270946E+05 -7.504427E+03  1.807071E+04
       194  27 -1.991807E+06 -4.249254E+05 -1.116160E+05 -7.679375E+05 -1.285067E+04  2.233367E+04
       195   1 -1.078777E+06 -8.651394E+04  1.026511E+05 -5.205149E+05  2.641116E+04 -2.104592E+04
       195   2 -1.002949E+06 -3.712946E+04  1.114450E+05 -4.764964E+05  4.149754E+04 -2.132866E+04
       195   3 -9.057518E+05 -2.719821E+04  1.072483E+05 -4.612518E+05  5.613169E+04 -2.038849E+04
       195   4 -1.573912E+06 -2.683339E+05 -1.554481E+04 -6.539898E+05  2.118361E+04 -2.300710E+04
       195   5 -1.585372E+06 -2.546259E+05 -2.803174E+04 -6.373122E+05  3.735290E+04 -2.288605E+04
       195   6 -1.575692E+06 -2.805973E+05 -5.437863E+04 -6.494139E+05  5.306770E+04 -2.154240E+04
       195   7 -2.068802E+06 -4.501380E+05 -1.337582E+05 -7.873682E+05  1.596059E+04 -2.496662E+04
       195   8 -2.167456E+06 -4.720970E+05 -1.675326E+05 -7.979896E+05  3.321250E+04 -2.444183E+04
       195   9 -2.245182E+06 -5.339594E+05 -2.160376E+05 -8.373883E+05  5.000732E+04 -2.269491E+04
       195  10 -1.078778E+06 -8.651460E+04  1.026489E+05 -5.205145E+05 -1.173160E-08 -2.882451E-09
       195  11 -1.002951E+06 -3.713041E+04  1.114409E+05 -4.764956E+05 -6.406843E-09 -1.988011E-09
       195  12 -9.057553E+05 -2.719950E+04  1.072416E+05 -4.612509E+05  3.385718E-09  1.856914E-10
       195  13 -1.573912E+06 -2.683346E+05 -1.554664E+04 -6.539894E+05  9.632512E-10  1.833072E-09
       195  14 -1.585373E+06 -2.546268E+05 -2.803535E+04 -6.373115E+05  9.149360E-10  7.041040E-10
       195  15 -1.575695E+06 -2.805985E+05 -5.438480E+04 -6.494130E+05  3.491417E-10 -6.593087E-10
       195  16 -2.068803E+06 -4.501388E+05 -1.337599E+05 -7.873678E+05  1.417037E-08  6.510079E-09
       195  17 -2.167457E+06 -4.720979E+05 -1.675358E+05 -7.979889E+05  6.653621E-09  2.971864E-09
       195  18 -2.245185E+06 -5.339606E+05 -2.160433E+05 -8.373874E+05 -2.495933E-09 -1.405262E-09
       195  19 -1.078777E+06 -8.651394E+04  1.026511E+05 -5.205149E+05 -2.641116E+04  2.104592E+04
       195  20 -1.002949E+06 -3.712946E+04  1.114450E+05 -4.764964E+05 -4.149754E+04  2.132866E+04
       195  21 -9.057518E+05 -2.719821E+04  1.072483E+05 -4.612518E+05 -5.613169E+04  2.038849E+04
       195  22 -1.573912E+06 -2.683339E+05 -1.554481E+04 -6.539898E+05 -2.118361E+04  2.300710E+04
       195  23 -1.585372E+06 -2.546259E+05 -2.803174E+04 -6.373122E+05 -3.735290E+04  2.288605E+04
       195  24 -1.575692E+06 -2.805973E+05 -5.437863E+04 -6.494139E+05 -5.306770E+04  2.154240E+04
       195  25 -2.068802E+06 -4.501380E+05 -1.337582E+05 -7.873682E+05 -1.596059E+04  2.496662E+04
       195  26 -2.167456E+06 -4.720970E+05 -1.675326E+05 -7.979896E+05 -3.321250E+04  2.444183E+04
       195  27 -2.245182E+06 -5.339594E+05 -2.160376E+05 -8.373883E+05 -5.000732E+04  2.269491E+04
       196   1 -8.156986E+05 -4.716338E+03  1.095436E+05 -4.819368E+05  7.474194E+04 -1.976437E+04
       196   2 -7.626711E+05  8.366967E+04  8.093484E+04 -3.754614E+05  1.158213E+05 -2.958879E+03
       196   3 -7.648036E+05 -5.549769E+04 -3.383995E+04 -2.457925E+05  1.469183E+05  4.041165E+04
       196   4 -1.584782E+06 -2.602158E+05 -6.877977E+04 -6.616160E+05  6.384818E+04 -2.385565E+04
       196   5 -1.570148E+06 -2.518835E+05 -1.218402E+05 -6.327091E+05  1.286982E+05  1.868676E+03
       196   6 -1.615515E+06 -4.760180E+05 -2.800254E+05 -5.805935E+05  1.835530E+05  5.416230E+04
       196   7 -2.353285E+06 -5.157034E+05 -2.471439E+05 -8.411061E+05  5.296904E+04 -2.794280E+04
       196   8 -2.376972E+06 -5.873451E+05 -3.246653E+05 -8.896351E+05  1.415567E+05  6.687507E+03
       196   9 -2.465483E+06 -8.963189E+05 -5.262703E+05 -9.149222E+05  2.201320E+05  6.787713E+04
       196  10 -8.157047E+05 -4.718258E+03  1.095324E+05 -4.819357E+05 -8.529821E-10 -1.405895E-09
       196  11 -7.626855E+05  8.366606E+04  8.090958E+04 -3.754611E+05 -7.743124E-10  1.237782E-10
       196  12 -7.648272E+05 -5.550525E+04 -3.388364E+04 -2.457973E+05 -7.233702E-10 -4.964770E-11
       196  13 -1.584787E+06 -2.602175E+05 -6.878851E+04 -6.616147E+05  8.084837E-10 -6.384712E-10
       196  14 -1.570166E+06 -2.518879E+05 -1.218714E+05 -6.327093E+05 -9.851938E-10 -9.000040E-10
       196  15 -1.615552E+06 -4.760302E+05 -2.800944E+05 -5.806015E+05 -2.012433E-10  2.428950E-11
       196  16 -2.353288E+06 -5.157050E+05 -2.471507E+05 -8.411049E+05  6.560569E-10 -4.276932E-10
       196  17 -2.376994E+06 -5.873505E+05 -3.247032E+05 -8.896359E+05  2.004452E-10 -4.139540E-10
       196  18 -2.465536E+06 -8.963369E+05 -5.263705E+05 -9.149343E+05  1.366120E-10 -7.562910E-11
       196  19 -8.156986E+05 -4.716338E+03  1.095436E+05 -4.819368E+05 -7.474194E+04  1.976437E+04
       196  20 -7.626711E+05  8.366967E+04  8.093484E+04 -3.754614E+05 -1.158213E+05  2.958879E+03
       196  21 -7.648036E+05 -5.549769E+04 -3.383995E+04 -2.457925E+05 -1.469183E+05 -4.041165E+04
       196  22 -1.584782E+06 -2.602158E+05 -6.877977E+04 -6.616160E+05 -6.384818E+04  2.385565E+04
       196  23 -1.570148E+06 -2.518835E+05 -1.218402E+05 -6.327091E+05 -1.286982E+05 -1.868676E+03
       196  24 -1.615515E+06 -4.760180E+05 -2.800254E+05 -5.805935E+05 -1.835530E+05 -5.416230E+04
       196  25 -2.353285E+06 -5.157034E+05 -2.471439E+05 -8.411061E+05 -5.296904E+04  2.794280E+04
       196  26 -2.376972E+06 -5.873451E+05 -3.246653E+05 -8.896351E+05 -1.415567E+05 -6.687507E+03
       196  27 -2.465483E+06 -8.963189E+05 -5.262703E+05 -9.149222E+05 -2.201320E+05 -6.787713E+04
       197   1 -2.081418E+05 -3.670281E+04  1.251318E+04  4.527561E+04  1.385677E+05  1.382177E+04
       197   2 -1.421361E+05 -2.253288E+05 -8.702470E+04 -5.606577E+03  1.013404E+05  4.312788E+04
       197   3 -2.127605E+04 -2.155059E+05 -1.126325E+05 -9.210203E+04  6.413652E+04  4.538411E+04
       197   4  8.220966E+05  2.187335E+05  2.614005E+05 -6.107866E+04  1.799339E+05  1.384242E+04
       197   5  7.925308E+05  2.800705E+03  1.196430E+05 -4.317387E+04  1.166508E+05  4.312969E+04
       197   6  8.222323E+05 -1.034327E+04  6.981138E+04 -6.087463E+04  5.340012E+04  4.537713E+04
       197   7  1.853333E+06  4.741360E+05  5.102244E+05 -1.676102E+05  2.213683E+05  1.384890E+04
       197   8  1.728017E+06  2.308769E+05  3.262584E+05 -8.079851E+04  1.319839E+05  4.312966E+04
       197   9  1.666410E+06  1.947761E+05  2.522140E+05 -2.960429E+04  4.264929E+04  4.536907E+04
       197  10 -2.081625E+05 -3.670817E+04  1.247673E+04  4.527407E+04 -1.940708E-10  2.565259E-10
       197  11 -1.421476E+05 -2.253335E+05 -8.704749E+04 -5.610098E+03  1.588281E-09 -6.719622E-10
       197  12 -2.128102E+04 -2.155092E+05 -1.126441E+05 -9.210438E+04 -3.835592E-11 -3.565207E-10
       197  13  8.220618E+05  2.187246E+05  2.613394E+05 -6.108067E+04 -5.472410E-10  7.148132E-11
       197  14  7.925157E+05  2.795059E+03  1.196140E+05 -4.317792E+04 -1.469071E-09 -1.332433E-09
       197  15  8.222287E+05 -1.034625E+04  6.980215E+04 -6.087658E+04 -4.792357E-10 -2.918292E-10
       197  16  1.853281E+06  4.741227E+05  5.101322E+05 -1.676127E+05  2.800365E-10 -1.106876E-10
       197  17  1.727998E+06  2.308702E+05  3.262223E+05 -8.080309E+04 -7.847789E-10 -2.731292E-10
       197  18  1.666408E+06  1.947734E+05  2.522067E+05 -2.960585E+04 -1.043899E-09 -6.406793E-10
       197  19 -2.081418E+05 -3.670281E+04  1.251318E+04  4.527561E+04 -1.385677E+05 -1.382177E+04
       197  20 -1.421361E+05 -2.253288E+05 -8.702470E+04 -5.606577E+03 -1.013404E+05 -4.312788E+04
       197  21 -2.127605E+04 -2.155059E+05 -1.126325E+05 -9.210203E+04 -6.413652E+04 -4.538411E+04
       197  22  8.220966E+05  2.187335E+05  2.614005E+05 -6.107866E+04 -1.799339E+05 -1.384242E+04
       197  23  7.925308E+05  2.800705E+03  1.196430E+05 -4.317387E+04 -1.166508E+05 -4.312969E+04
       197  24  8.222323E+05 -1.034327E+04  6.981138E+04 -6.087463E+04 -5.340012E+04 -4.537713E+04
       197  25  1.853333E+06  4.741360E+05  5.102244E+05 -1.676102E+05 -2.213683E+05 -1.384890E+04
       197  26  1.728017E+06  2.308769E+05  3.262584E+05 -8.079851E+04 -1.319839E+05 -4.312966E+04
       197  27  1.666410E+06  1.947761E+05  2.522140E+05 -2.960429E+04 -4.264929E+04 -4.536907E+04
       198   1  4.069635E+04 -1.762618E+05 -1.119244E+05 -5.746384E+04  4.662786E+04  4.008026E+04
       198   2  1.305057E+05 -1.650278E+05 -1.165286E+05 -4.220460E+04  3.274826E+04  3.625674E+04
       198   3  2.249961E+05 -1.430131E+05 -1.093609E+05 -6.322381E+04  1.886348E+04  3.122224E+04
       198   4  8.101554E+05  1.100573E+04  5.530972E+04 -6.107547E+04  4.357951E+04  4.007517E+04
       198   5  8.077430E+05 -3.340132E+02  3.003678E+04 -4.293661E+04  2.852004E+04  3.625303E+04
       198   6  8.102025E+05 -6.955946E+02  1.734353E+04 -6.107335E+04  1.345743E+04  3.122043E+04
       198   7  1.580169E+06  1.982341E+05  2.225085E+05 -6.469166E+04  4.052742E+04  4.007013E+04
       198   8  1.485410E+06  1.643295E+05  1.765750E+05 -4.366943E+04  2.428727E+04  3.624934E+04
       198   9  1.395730E+06  1.415994E+05  1.440277E+05 -5.892083E+04  8.046358E+03  3.121858E+04
       198  10  4.069358E+04 -1.762641E+05 -1.119315E+05 -5.746534E+04  1.377380E-09 -9.627031E-10
       198  11  1.305042E+05 -1.650295E+05 -1.165331E+05 -4.220556E+04  1.585564E-09 -7.427605E-10
       198  12  2.249955E+05 -1.430143E+05 -1.093634E+05 -6.322428E+04  7.955627E-11  1.009721E-10
       198  13  8.101530E+05  1.100350E+04  5.530314E+04 -6.107687E+04 -6.140424E-10 -8.310182E-10
       198  14  8.077418E+05 -3.356431E+02  3.003279E+04 -4.293744E+04 -1.148938E-09 -8.941542E-10
       198  15  8.102021E+05 -6.966902E+02  1.734136E+04 -6.107369E+04  1.033550E-10  1.655146E-10
       198  16  1.580167E+06  1.982319E+05  2.225024E+05 -6.469297E+04 -9.741288E-10 -5.839093E-10
       198  17  1.485409E+06  1.643279E+05  1.765714E+05 -4.367014E+04 -1.849745E-09 -1.223800E-09
       198  18  1.395730E+06  1.415983E+05  1.440257E+05 -5.892103E+04 -8.527993E-10  2.286667E-10
       198  19  4.069635E+04 -1.762618E+05 -1.119244E+05 -5.746384E+04 -4.662786E+04 -4.008026E+04
       198  20  1.305057E+05 -1.650278E+05 -1.165286E+05 -4.220460E+04 -3.274826E+04 -3.625674E+04
       198  21  2.249961E+05 -1.430131E+05 -1.093609E+05 -6.322381E+04 -1.886348E+04 -3.122224E+04
       198  22  8.101554E+05  1.100573E+04  5.530972E+04 -6.107547E+04 -4.357951E+04 -4.007517E+04
       198  23  8.077430E+05 -3.340132E+02  3.003678E+04 -4.293661E+04 -2.852004E+04 -3.625303E+04
       198  24  8.102025E+05 -6.955946E+02  1.734353E+04 -6.107335E+04 -1.345743E+04 -3.122043E+04
       198  25  1.580169E+06  1.982341E+05  2.225085E+05 -6.469166E+04 -4.052742E+04 -4.007013E+04
       198  26  1.485410E+06  1.643295E+05  1.765750E+05 -4.366943E+04 -2.428727E+04 -3.624934E+04
       198  27  1.395730E+06  1.415994E+05  1.440277E+05 -5.892083E+04 -8.046358E+03 -3.121858E+04
       199   1  2.969538E+05 -1.240984E+05 -9.722392E+04 -6.125551E+04  1.580444E+04  2.800051E+04
       199   2  3.881309E+05 -1.024235E+05 -8.337586E+04 -4.316696E+04  1.210398E+04  2.271578E+04
       199   3  4.799946E+05 -8.012783E+04 -6.695461E+04 -6.116806E+04  8.400200E+03  1.738512E+04
       199   4  8.092894E+05  4.086120E+02  1.328050E+04 -6.103231E+04  1.075649E+04  2.799960E+04
       199   5  8.089596E+05 -1.249307E+02  7.562667E+03 -4.298834E+04  7.008705E+03  2.271605E+04
       199   6  8.093143E+05 -2.988441E+01  4.448843E+03 -6.103255E+04  3.258141E+03  1.738662E+04
       199   7  1.321871E+06  1.248983E+05  1.237696E+05 -6.080889E+04  5.704426E+03  2.799868E+04
       199   8  1.229954E+06  1.021620E+05  9.849082E+04 -4.280958E+04  1.910027E+03  2.271632E+04
       199   9  1.138736E+06  8.006090E+04  7.584594E+04 -6.089696E+04 -1.886607E+03  1.738812E+04
       199  10  2.969533E+05 -1.240993E+05 -9.722587E+04 -6.125587E+04  1.875942E-08  9.122057E-10
       199  11  3.881306E+05 -1.024241E+05 -8.337711E+04 -4.316718E+04  2.787501E-10  1.441671E-09
       199  12  4.799944E+05 -8.012817E+04 -6.695531E+04 -6.116818E+04 -1.999276E-08  1.757631E-09
       199  13  8.092891E+05  4.077388E+02  1.327881E+04 -6.103255E+04  1.647975E-11  1.150225E-09
       199  14  8.089594E+05 -1.254982E+02  7.561604E+03 -4.298847E+04 -1.154429E-09  1.591761E-09
       199  15  8.093142E+05 -3.021200E+01  4.448255E+03 -6.103260E+04  9.572701E-10  1.388760E-09
       199  16  1.321871E+06  1.248975E+05  1.237680E+05 -6.080902E+04 -1.928899E-08  1.275840E-09
       199  17  1.229954E+06  1.021614E+05  9.848984E+04 -4.280962E+04  2.761608E-10  1.908242E-09
       199  18  1.138736E+06  8.006058E+04  7.584537E+04 -6.089693E+04  2.021468E-08  1.563340E-09
       199  19  2.969538E+05 -1.240984E+05 -9.722392E+04 -6.125551E+04 -1.580444E+04 -2.800051E+04
       199  20  3.881309E+05 -1.024235E+05 -8.337586E+04 -4.316696E+04 -1.210398E+04 -2.271578E+04
       199  21  4.799946E+05 -8.012783E+04 -6.695461E+04 -6.116806E+04 -8.400200E+03 -1.738512E+04
       199  22  8.092894E+05  4.086120E+02  1.328050E+04 -6.103231E+04 -1.075649E+04 -2.799960E+04
       199  23  8.089596E+05 -1.249307E+02  7.562667E+03 -4.298834E+04 -7.008705E+03 -2.271605E+04
       199  24  8.093143E+05 -2.988441E+01  4.448843E+03 -6.103255E+04 -3.258141E+03 -1.738662E+04
       199  25  1.321871E+06  1.248983E+05  1.237696E+05 -6.080889E+04 -5.704426E+03 -2.799868E+04
       199  26  1.229954E+06  1.021620E+05  9.849082E+04 -4.280958E+04 -1.910027E+03 -2.271632E+04
       199  27  1.138736E+06  8.006090E+04  7.584594E+04 -6.089696E+04  1.886607E+03 -1.738812E+04
       200   1  5.523567E+05 -6.235688E+04 -5.178471E+04 -6.104501E+04  7.663269E+03  1.427380E+04
       200   2  6.434872E+05 -4.026104E+04 -3.359512E+04 -4.303886E+04  6.576947E+03  8.943886E+03
       200   3  7.347552E+05 -1.809727E+04 -1.468934E+04 -6.098821E+04  5.489394E+03  3.615278E+03
       200   4  8.092004E+05  2.104210E+01  3.454353E+03 -6.100290E+04  2.542525E+03  1.427581E+04
       200   5  8.091404E+05  4.351321E-01  2.192650E+03 -4.302545E+04  1.456717E+03  8.946351E+03
       200   6  8.092098E+05  4.807337E+01  1.646705E+03 -6.100292E+04  3.698315E+02  3.618231E+03
       200   7  1.066106E+06  6.239465E+04  5.868965E+04 -6.096076E+04 -2.580307E+03  1.427781E+04
       200   8  9.748195E+05  4.026012E+04  3.797889E+04 -4.301203E+04 -3.664861E+03  8.948816E+03
       200   9  8.836697E+05  1.819306E+04  1.798251E+04 -6.101764E+04 -4.750337E+03  3.621183E+03
       200  10  5.523565E+05 -6.235711E+04 -5.178520E+04 -6.104510E+04 -1.455803E-09  7.127384E-10
       200  11  6.434871E+05 -4.026114E+04 -3.359535E+04 -4.303891E+04 -4.137202E-10 -5.031439E-10
       200  12  7.347551E+05 -1.809730E+04 -1.468942E+04 -6.098822E+04 -3.052019E-09 -3.725227E-10
       200  13  8.092004E+05  2.082143E+01  3.453957E+03 -6.100293E+04  2.635025E-10  9.048585E-10
       200  14  8.091404E+05  3.485834E-01  2.192495E+03 -4.302546E+04  1.059217E-09 -1.284446E-09
       200  15  8.092098E+05  4.805927E+01  1.646680E+03 -6.100292E+04 -5.957128E-10 -1.002637E-09
       200  16  1.066106E+06  6.239443E+04  5.868925E+04 -6.096073E+04  2.626410E-09 -1.600335E-10
       200  17  9.748195E+05  4.026003E+04  3.797872E+04 -4.301201E+04  1.446872E-09 -9.884405E-10
       200  18  8.836697E+05  1.819304E+04  1.798244E+04 -6.101763E+04  2.877709E-09 -1.358055E-09
       200  19  5.523567E+05 -6.235688E+04 -5.178471E+04 -6.104501E+04 -7.663269E+03 -1.427380E+04
       200  20  6.434872E+05 -4.026104E+04 -3.359512E+04 -4.303886E+04 -6.576947E+03 -8.943886E+03
       200  21  7.347552E+05 -1.809727E+04 -1.468934E+04 -6.098821E+04 -5.489394E+03 -3.615278E+03
       200  22  8.092004E+05  2.104210E+01  3.454353E+03 -6.100290E+04 -2.542525E+03 -1.427581E+04
       200  23  8.091404E+05  4.351321E-01  2.192650E+03 -4.302545E+04 -1.456717E+03 -8.946351E+03
       200  24  8.092098E+05  4.807337E+01  1.646705E+03 -6.100292E+04 -3.698315E+02 -3.618231E+03
       200  25  1.066106E+06  6.239465E+04  5.868965E+04 -6.096076E+04  2.580307E+03 -1.427781E+04
       200  26  9.748195E+05  4.026012E+04  3.797889E+04 -4.301203E+04  3.664861E+03 -8.948816E+03
       200  27  8.836697E+05  1.819306E+04  1.798251E+04 -6.101764E+04  4.750337E+03 -3.621183E+03
       201   1  8.070885E+05 -4.149000E+02  1.365786E+03 -6.100578E+04  5.194635E+03  5.148438E+02
       201   2  8.982088E+05  2.165470E+04  2.101889E+04 -4.302463E+04  4.310767E+03 -4.811381E+03
       201   3  9.894273E+05  4.378283E+04  4.125089E+04 -6.098116E+04  3.427364E+03 -1.013743E+04
       201   4  8.092027E+05  4.840131E+01  1.570097E+03 -6.099916E+04  7.558684E+01  5.178635E+02
       201   5  8.091543E+05  1.359916E+01  1.782271E+03 -4.303015E+04 -8.083337E+02 -4.808631E+03
       201   6  8.091977E+05  3.818719E+01  2.574032E+03 -6.099915E+04 -1.691662E+03 -1.013492E+04
       201   7  8.113170E+05  5.117166E+02  1.774507E+03 -6.099254E+04 -5.043478E+03  5.208831E+02
       201   8  7.201073E+05 -2.162801E+04 -1.745472E+04 -4.303568E+04 -5.926711E+03 -4.805880E+03
       201   9  6.289986E+05 -4.370857E+04 -3.610462E+04 -6.101713E+04 -6.809226E+03 -1.013241E+04
       201  10  8.070885E+05 -4.149076E+02  1.365735E+03 -6.100579E+04 -6.822456E-10 -1.512260E-10
       201  11  8.982087E+05  2.165467E+04  2.101882E+04 -4.302461E+04  4.624782E-10 -3.184806E-10
       201  12  9.894273E+05  4.378272E+04  4.125068E+04 -6.098113E+04  5.142640E-10 -1.871105E-10
       201  13  8.092027E+05  4.840102E+01  1.570097E+03 -6.099916E+04 -1.403274E-09  3.030732E-10
       201  14  8.091543E+05  1.357414E+01  1.782226E+03 -4.303016E+04 -1.247153E-09  2.799300E-10
       201  15  8.091976E+05  3.807608E+01  2.573833E+03 -6.099916E+04  6.376228E-10 -1.056277E-09
       201  16  8.113170E+05  5.117094E+02  1.774459E+03 -6.099254E+04  1.241619E-09 -4.065384E-10
       201  17  7.201072E+05 -2.162804E+04 -1.745483E+04 -4.303570E+04 -7.514029E-10  9.007328E-11
       201  18  6.289985E+05 -4.370869E+04 -3.610490E+04 -6.101718E+04 -6.681801E-11 -7.008279E-10
       201  19  8.070885E+05 -4.149000E+02  1.365786E+03 -6.100578E+04 -5.194635E+03 -5.148438E+02
       201  20  8.982088E+05  2.165470E+04  2.101889E+04 -4.302463E+04 -4.310767E+03  4.811381E+03
       201  21  9.894273E+05  4.378283E+04  4.125089E+04 -6.098116E+04 -3.427364E+03  1.013743E+04
       201  22  8.092027E+05  4.840131E+01  1.570097E+03 -6.099916E+04 -7.558684E+01 -5.178635E+02
       201  23  8.091543E+05  1.359916E+01  1.782271E+03 -4.303015E+04  8.083337E+02  4.808631E+03
       201  24  8.091977E+05  3.818719E+01  2.574032E+03 -6.099915E+04  1.691662E+03  1.013492E+04
       201  25  8.113170E+05  5.117166E+02  1.774507E+03 -6.099254E+04  5.043478E+03 -5.208831E+02
       201  26  7.201073E+05 -2.162801E+04 -1.745472E+04 -4.303568E+04  5.926711E+03  4.805880E+03
       201  27  6.289986E+05 -4.370857E+04 -3.610462E+04 -6.101713E+04  6.809226E+03  1.013241E+04
       202   1  1.061947E+06  6.144710E+04  5.806790E+04 -6.094838E+04  2.918976E+03 -1.324459E+04
       202   2  1.153135E+06  8.353604E+04  7.972554E+04 -4.291384E+04  1.972768E+02 -1.856736E+04
       202   3  1.244813E+06  1.060855E+05  1.032691E+05 -6.090817E+04 -2.522617E+03 -2.384641E+04
       202   4  8.092757E+05  1.688411E+00  3.244033E+03 -6.101965E+04 -2.219343E+03 -1.324245E+04
       202   5  8.090284E+05 -7.369746E+01  5.399616E+03 -4.300450E+04 -4.898038E+03 -1.856624E+04
       202   6  8.092556E+05  3.043947E+02  9.412031E+03 -6.101945E+04 -7.574537E+03 -2.384626E+04
       202   7  5.566643E+05 -6.144793E+04 -5.158354E+04 -6.109088E+04 -7.355601E+03 -1.324031E+04
       202   8  4.650333E+05 -8.369121E+04 -6.893321E+04 -4.309510E+04 -9.990570E+03 -1.856511E+04
       202   9  3.738761E+05 -1.054891E+05 -8.445608E+04 -6.113063E+04 -1.262297E+04 -2.384611E+04
       202  10  1.061947E+06  6.144691E+04  5.806755E+04 -6.094835E+04 -1.122478E-09  3.005664E-10
       202  11  1.153135E+06  8.353567E+04  7.972490E+04 -4.291384E+04 -7.298679E-10 -3.207006E-10
       202  12  1.244813E+06  1.060849E+05  1.032680E+05 -6.090822E+04 -1.009585E-09  2.132033E-10
       202  13  8.092756E+05  1.498706E+00  3.243694E+03 -6.101968E+04 -7.770334E-10 -5.595297E-10
       202  14  8.090283E+05 -7.407419E+01  5.398923E+03 -4.300458E+04 -8.340759E-10 -3.093891E-10
       202  15  8.092553E+05  3.037685E+02  9.410855E+03 -6.101959E+04 -1.197937E-09  2.007727E-10
       202  16  5.566642E+05 -6.144813E+04 -5.158397E+04 -6.109096E+04  7.768067E-10  8.464248E-11
       202  17  4.650331E+05 -8.369161E+04 -6.893405E+04 -4.309525E+04  2.038371E-09  1.247156E-10
       202  18  3.738758E+05 -1.054898E+05 -8.445744E+04 -6.113087E+04  4.681403E-11  6.953726E-11
       202  19  1.061947E+06  6.144710E+04  5.806790E+04 -6.094838E+04 -2.918976E+03  1.324459E+04
       202  20  1.153135E+06  8.353604E+04  7.972554E+04 -4.291384E+04 -1.972768E+02  1.856736E+04
       202  21  1.244813E+06  1.060855E+05  1.032691E+05 -6.090817E+04  2.522617E+03  2.384641E+04
       202  22  8.092757E+05  1.688411E+00  3.244033E+03 -6.101965E+04  2.219343E+03  1.324245E+04
       202  23  8.090284E+05 -7.369746E+01  5.399616E+03 -4.300450E+04  4.898038E+03  1.856624E+04
       202  24  8.092556E+05  3.043947E+02  9.412031E+03 -6.101945E+04  7.574537E+03  2.384626E+04
       202  25  5.566643E+05 -6.144793E+04 -5.158354E+04 -6.109088E+04  7.355601E+03  1.324031E+04
       202  26  4.650333E+05 -8.369121E+04 -6.893321E+04 -4.309510E+04  9.990570E+03  1.856511E+04
       202  27  3.738761E+05 -1.054891E+05 -8.445608E+04 -6.113063E+04  1.262297E+04  2.384611E+04
       203   1  1.318256E+06  1.230754E+05  1.222988E+05 -5.959104E+04 -4.103542E+03 -2.705289E+04
       203   2  1.408431E+06  1.456312E+05  1.510414E+05 -4.352758E+04 -1.583681E+04 -3.209467E+04
       203   3  1.502245E+06  1.761307E+05  1.894226E+05 -6.365916E+04 -2.756851E+04 -3.601350E+04
       203   4  8.099013E+05 -4.767315E+02  1.227391E+04 -6.105645E+04 -9.487803E+03 -2.705350E+04
       203   5  8.081575E+05 -2.352233E+02  2.122408E+04 -4.295809E+04 -2.013207E+04 -3.209705E+04
       203   6  8.098613E+05  7.766627E+03  3.906474E+04 -6.105663E+04 -3.077307E+04 -3.601719E+04
       203   7  3.017891E+05 -1.240458E+05 -9.776622E+04 -6.252062E+04 -1.486772E+04 -2.705408E+04
       203   8  2.082219E+05 -1.461254E+05 -1.086145E+05 -4.238916E+04 -2.442324E+04 -3.209943E+04
       203   9  1.179258E+05 -1.606291E+05 -1.113217E+05 -5.845704E+04 -3.397410E+04 -3.602092E+04
       203  10  1.318255E+06  1.230746E+05  1.222974E+05 -5.959113E+04 -6.543174E-10 -4.287971E-11
       203  11  1.408430E+06  1.456300E+05  1.510390E+05 -4.352799E+04  7.357922E-10 -3.169703E-10
       203  12  1.502244E+06  1.761291E+05  1.894187E+05 -6.365996E+04 -8.732053E-10 -6.083276E-10
       203  13  8.099010E+05 -4.775419E+02  1.227236E+04 -6.105666E+04 -5.639247E-10  1.110251E-10
       203  14  8.081568E+05 -2.364387E+02  2.122139E+04 -4.295861E+04 -1.535415E-10  1.689950E-11
       203  15  8.098599E+05  7.764980E+03  3.906052E+04 -6.105752E+04  5.628459E-10 -4.932799E-10
       203  16  3.017887E+05 -1.240467E+05 -9.776801E+04 -6.252095E+04  3.789005E-10 -6.665665E-11
       203  17  2.082209E+05 -1.461266E+05 -1.086176E+05 -4.238979E+04  5.194042E-10  3.115324E-10
       203  18  1.179242E+05 -1.606308E+05 -1.113263E+05 -5.845803E+04  3.223841E-11 -3.803333E-11
       203  19  1.318256E+06  1.230754E+05  1.222988E+05 -5.959104E+04  4.103542E+03  2.705289E+04
       203  20  1.408431E+06  1.456312E+05  1.510414E+05 -4.352758E+04  1.583681E+04  3.209467E+04
       203  21  1.502245E+06  1.761307E+05  1.894226E+05 -6.365916E+04  2.756851E+04  3.601350E+04
       203  22  8.099013E+05 -4.767315E+02  1.227391E+04 -6.105645E+04  9.487803E+03  2.705350E+04
       203  23  8.081575E+05 -2.352233E+02  2.122408E+04 -4.295809E+04  2.013207E+04  3.209705E+04
       203  24  8.098613E+05  7.766627E+03  3.906474E+04 -6.105663E+04  3.077307E+04  3.601719E+04
       203  25  3.017891E+05 -1.240458E+05 -9.776622E+04 -6.252062E+04  1.486772E+04  2.705408E+04
       203  26  2.082219E+05 -1.461254E+05 -1.086145E+05 -4.238916E+04  2.442324E+04  3.209943E+04
       203  27  1.179258E+05 -1.606291E+05 -1.113217E+05 -5.845704E+04  3.397410E+04  3.602092E+04
       204   1  1.584708E+06  1.788793E+05  2.149091E+05 -3.883546E+04 -2.736901E+04 -4.114285E+04
       204   2  1.654783E+06  2.110362E+05  2.739046E+05 -6.976312E+04 -9.618526E+04 -3.942489E+04
       204   3  1.770891E+06  3.905015E+05  4.145115E+05 -1.362008E+05 -1.650373E+05 -1.264882E+04
       204   4  8.183929E+05 -7.314157E+03  4.930383E+04 -6.087556E+04 -3.770953E+04 -4.114902E+04
       204   5  7.973897E+05  1.951486E+03  8.447835E+04 -4.317769E+04 -8.237311E+04 -3.942454E+04
       204   6  8.182851E+05  1.544412E+05  1.845774E+05 -6.098366E+04 -1.270599E+05 -1.263720E+04
       204   7  5.262898E+04 -1.935444E+05 -1.163355E+05 -8.288817E+04 -4.803745E+04 -4.115446E+04
       204   8 -5.931695E+04 -2.071798E+05 -1.049921E+05 -1.662940E+04 -6.857971E+04 -3.942303E+04
       204   9 -1.334778E+05 -8.166311E+04 -4.541316E+04  1.411786E+04 -8.914037E+04 -1.261641E+04
       204  10  1.584707E+06  1.788773E+05  2.149045E+05 -3.883637E+04 -4.635838E-10 -4.823018E-10
       204  11  1.654773E+06  2.110320E+05  2.738844E+05 -6.976617E+04  3.801357E-10 -5.411591E-11
       204  12  1.770862E+06  3.904941E+05  4.144602E+05 -1.362025E+05  6.785742E-10  4.224413E-10
       204  13  8.183909E+05 -7.316357E+03  4.929797E+04 -6.087681E+04 -2.179147E-09 -1.238611E-09
       204  14  7.973820E+05  1.947997E+03  8.446269E+04 -4.318031E+04 -4.508265E-10 -2.121914E-10
       204  15  8.182677E+05  1.544367E+05  1.845468E+05 -6.098496E+04  6.780206E-10 -4.046821E-10
       204  16  5.262604E+04 -1.935469E+05 -1.163431E+05 -8.288977E+04  6.834899E-10 -4.885386E-10
       204  17 -5.932242E+04 -2.071827E+05 -1.050039E+05 -1.663158E+04 -3.751649E-11 -8.325274E-10
       204  18 -1.334864E+05 -8.166541E+04 -4.542839E+04  1.411695E+04 -2.507404E-10  6.278251E-10
       204  19  1.584708E+06  1.788793E+05  2.149091E+05 -3.883546E+04  2.736901E+04  4.114285E+04
       204  20  1.654783E+06  2.110362E+05  2.739046E+05 -6.976312E+04  9.618526E+04  3.942489E+04
       204  21  1.770891E+06  3.905015E+05  4.145115E+05 -1.362008E+05  1.650373E+05  1.264882E+04
       204  22  8.183929E+05 -7.314157E+03  4.930383E+04 -6.087556E+04  3.770953E+04  4.114902E+04
       204  23  7.973897E+05  1.951486E+03  8.447835E+04 -4.317769E+04  8.237311E+04  3.942454E+04
       204  24  8.182851E+05  1.544412E+05  1.845774E+05 -6.098366E+04  1.270599E+05  1.263720E+04
       204  25  5.262898E+04 -1.935444E+05 -1.163355E+05 -8.288817E+04  4.803745E+04  4.115446E+04
       204  26 -5.931695E+04 -2.071798E+05 -1.049921E+05 -1.662940E+04  6.857971E+04  3.942303E+04
       204  27 -1.334778E+05 -8.166311E+04 -4.541316E+04  1.411786E+04  8.914037E+04  1.261641E+04
       205   1  5.517387E+05  1.875544E+06  5.434119E+05 -5.226946E+05  2.105525E+04  1.470839E+05
       205   2  3.497787E+05  1.320821E+06  3.300268E+05 -4.287889E+05  6.145553E+04  5.258700E+04
       205   3  2.081650E+05  7.934363E+05  1.930677E+05 -4.747355E+05  5.030685E+04 -4.190058E+04
       205   4  6.990726E+04 -6.913391E+04  7.778196E+04 -4.789268E+05  2.127918E+04  5.181836E+04
       205   5  1.227734E+04 -7.601156E+04  3.880700E+04 -4.090769E+05  6.151844E+04  3.179286E+04
       205   6  2.183418E+03 -6.865480E+04  2.469938E+04 -4.790778E+05  5.016309E+04  1.169241E+04
       205   7 -4.121868E+05 -2.010330E+06 -3.880805E+05 -4.352933E+05  2.149015E+04 -4.315086E+04
       205   8 -3.253469E+05 -1.470998E+06 -2.525186E+05 -3.894083E+05  6.158012E+04  1.104461E+04
       205   9 -2.038412E+05 -9.300273E+05 -1.436937E+05 -4.834132E+05  5.001845E+04  6.521268E+04
       205  10  5.517324E+05  1.875520E+06  5.433705E+05 -5.226971E+05  1.072713E-09  2.084171E-09
       205  11  3.497739E+05  1.320817E+06  3.300145E+05 -4.287915E+05  1.081365E-09 -7.768271E-10
       205  12  2.081618E+05  7.934337E+05  1.930596E+05 -4.747338E+05 -2.705135E-10 -3.871226E-09
       205  13  6.990605E+04 -6.913692E+04  7.777606E+04 -4.789277E+05  3.637545E-11  7.475194E-10
       205  14  1.227300E+04 -7.601366E+04  3.879798E+04 -4.090785E+05  3.717358E-11 -1.903128E-09
       205  15  2.180679E+03 -6.865563E+04  2.469440E+04 -4.790783E+05  6.495053E-10  6.334225E-10
       205  16 -4.121877E+05 -2.010332E+06 -3.880848E+05 -4.352925E+05  1.071519E-09 -2.146126E-09
       205  17 -3.253510E+05 -1.470999E+06 -2.525260E+05 -3.894088E+05  3.660754E-09  1.286797E-09
       205  18 -2.038450E+05 -9.300325E+05 -1.437064E+05 -4.834159E+05 -1.549905E-09  2.787277E-09
       205  19  5.517387E+05  1.875544E+06  5.434119E+05 -5.226946E+05 -2.105525E+04 -1.470839E+05
       205  20  3.497787E+05  1.320821E+06  3.300268E+05 -4.287889E+05 -6.145553E+04 -5.258700E+04
       205  21  2.081650E+05  7.934363E+05  1.930677E+05 -4.747355E+05 -5.030685E+04  4.190058E+04
       205  22  6.990726E+04 -6.913391E+04  7.778196E+04 -4.789268E+05 -2.127918E+04 -5.181836E+04
       205  23  1.227734E+04 -7.601156E+04  3.880700E+04 -4.090769E+05 -6.151844E+04 -3.179286E+04
       205  24  2.183418E+03 -6.865480E+04  2.469938E+04 -4.790778E+05 -5.016309E+04 -1.169241E+04
       205  25 -4.121868E+05 -2.010330E+06 -3.880805E+05 -4.352933E+05 -2.149015E+04  4.315086E+04
       205  26 -3.253469E+05 -1.470998E+06 -2.525186E+05 -3.894083E+05 -6.158012E+04 -1.104461E+04
       205  27 -2.038412E+05 -9.300273E+05 -1.436937E+05 -4.834132E+05 -5.001845E+04 -6.521268E+04
       206   1  1.229721E+05  4.223556E+05  1.184878E+05 -4.821519E+05  2.817907E+04 -3.702201E+04
       206   2 -8.616108E+03 -1.189979E+05  9.952433E+03 -4.082113E+05 -3.002906E+03 -4.617716E+04
       206   3 -1.351802E+05 -6.583053E+05 -9.157378E+04 -4.770192E+05 -3.402085E+04 -5.532315E+04
       206   4  4.831355E+03 -7.131794E+04  2.141139E+04 -4.796980E+05  2.805095E+04  8.043754E+03
       206   5  2.490330E+03 -7.222931E+04  1.870532E+04 -4.083245E+05 -3.128996E+03 -1.362921E+03
       206   6  5.231606E+03 -7.133423E+04  2.318555E+04 -4.796968E+05 -3.414559E+04 -1.076798E+04
       206   7 -1.133230E+05 -5.647538E+05 -7.566923E+04 -4.772459E+05  2.792311E+04  5.307447E+04
       206   8  1.359772E+04 -2.545429E+04  2.746567E+04 -4.084377E+05 -3.255097E+03  4.345461E+04
       206   9  1.456237E+05  5.159718E+05  1.379358E+05 -4.823766E+05 -3.427064E+04  3.382843E+04
       206  10  1.229709E+05  4.223539E+05  1.184837E+05 -4.821511E+05  2.144725E-10  1.370982E-09
       206  11 -8.616691E+03 -1.190002E+05  9.948408E+03 -4.082114E+05  1.895518E-09 -5.229920E-10
       206  12 -1.351822E+05 -6.583089E+05 -9.158172E+04 -4.770208E+05  4.924587E-10 -1.725719E-09
       206  13  4.830492E+03 -7.131822E+04  2.140979E+04 -4.796982E+05 -5.232311E-10  1.097040E-09
       206  14  2.490319E+03 -7.222931E+04  1.870530E+04 -4.083245E+05 -2.557883E-09 -2.395689E-09
       206  15  5.230323E+03 -7.133467E+04  2.318314E+04 -4.796971E+05 -3.330645E-11  6.847038E-10
       206  16 -1.133246E+05 -5.647570E+05 -7.567600E+04 -4.772471E+05 -1.392160E-09 -1.375013E-09
       206  17  1.359720E+04 -2.545632E+04  2.746210E+04 -4.084375E+05 -1.312944E-09  5.054455E-10
       206  18  1.456222E+05  5.159703E+05  1.379315E+05 -4.823757E+05  8.953715E-11  6.930994E-10
       206  19  1.229721E+05  4.223556E+05  1.184878E+05 -4.821519E+05 -2.817907E+04  3.702201E+04
       206  20 -8.616108E+03 -1.189979E+05  9.952433E+03 -4.082113E+05  3.002906E+03  4.617716E+04
       206  21 -1.351802E+05 -6.583053E+05 -9.157378E+04 -4.770192E+05  3.402085E+04  5.532315E+04
       206  22  4.831355E+03 -7.131794E+04  2.141139E+04 -4.796980E+05 -2.805095E+04 -8.043754E+03
       206  23  2.490330E+03 -7.222931E+04  1.870532E+04 -4.083245E+05  3.128996E+03  1.362921E+03
       206  24  5.231606E+03 -7.133423E+04  2.318555E+04 -4.796968E+05  3.414559E+04  1.076798E+04
       206  25 -1.133230E+05 -5.647538E+05 -7.566923E+04 -4.772459E+05 -2.792311E+04 -5.307447E+04
       206  26  1.359772E+04 -2.545429E+04  2.746567E+04 -4.084377E+05  3.255097E+03 -4.345461E+04
       206  27  1.456237E+05  5.159718E+05  1.379358E+05 -4.823766E+05  3.427064E+04 -3.382843E+04
       207   1 -2.261860E+05 -1.023134E+06 -1.586637E+05 -4.842657E+05 -5.609637E+04 -6.821167E+04
       207   2 -3.461207E+05 -1.564950E+06 -2.655888E+05 -3.866159E+05 -6.648566E+04 -1.369530E+04
       207   3 -4.244409E+05 -2.103373E+06 -3.977284E+05 -4.287103E+05 -2.292331E+04  4.084783E+04
       207   4  2.117443E+03 -6.816941E+04  2.744871E+04 -4.790468E+05 -5.623794E+04 -1.473605E+04
       207   5  1.395401E+04 -7.670142E+04  4.449199E+04 -4.091101E+05 -6.641525E+04 -3.778951E+04
       207   6  8.083606E+04 -6.868006E+04  9.021655E+04 -4.788747E+05 -2.270468E+04 -6.076860E+04
       207   7  2.303678E+05  8.876780E+05  2.135285E+05 -4.738188E+05 -5.637847E+04  3.882013E+04
       207   8  3.738894E+05  1.413649E+06  3.544533E+05 -4.316574E+05 -6.634321E+04 -6.194054E+04
       207   9  5.858265E+05  1.969841E+06  5.779081E+05 -5.292013E+05 -2.247005E+04 -1.627173E+05
       207  10 -2.261906E+05 -1.023140E+06 -1.586784E+05 -4.842688E+05  9.178547E-10  1.484736E-09
       207  11 -3.461255E+05 -1.564951E+06 -2.655975E+05 -3.866166E+05  1.857511E-09 -3.565791E-10
       207  12 -4.244419E+05 -2.103375E+06 -3.977325E+05 -4.287095E+05  1.177623E-10 -2.028248E-09
       207  13  2.113988E+03 -6.817049E+04  2.744235E+04 -4.790475E+05  9.333389E-10  1.057023E-09
       207  14  1.394889E+04 -7.670414E+04  4.448101E+04 -4.091121E+05 -2.060934E-09 -1.839539E-09
       207  15  8.083451E+04 -6.868416E+04  9.020863E+04 -4.788758E+05  5.652989E-11  4.669358E-10
       207  16  2.303640E+05  8.876755E+05  2.135197E+05 -4.738170E+05 -5.896517E-10 -1.209691E-09
       207  17  3.738837E+05  1.413644E+06  3.544378E+05 -4.316607E+05  2.650061E-09  4.780120E-10
       207  18  5.858188E+05  1.969813E+06  5.778576E+05 -5.292042E+05  7.764473E-10  1.178680E-09
       207  19 -2.261860E+05 -1.023134E+06 -1.586637E+05 -4.842657E+05  5.609637E+04  6.821167E+04
       207  20 -3.461207E+05 -1.564950E+06 -2.655888E+05 -3.866159E+05  6.648566E+04  1.369530E+04
       207  21 -4.244409E+05 -2.103373E+06 -3.977284E+05 -4.287103E+05  2.292331E+04 -4.084783E+04
       207  22  2.117443E+03 -6.816941E+04  2.744871E+04 -4.790468E+05  5.623794E+04  1.473605E+04
       207  23  1.395401E+04 -7.670142E+04  4.449199E+04 -4.091101E+05  6.641525E+04  3.778951E+04
       207  24  8.083606E+04 -6.868006E+04  9.021655E+04 -4.788747E+05  2.270468E+04  6.076860E+04
       207  25  2.303678E+05  8.876780E+05  2.135285E+05 -4.738188E+05  5.637847E+04 -3.882013E+04
       207  26  3.738894E+05  1.413649E+06  3.544533E+05 -4.316574E+05  6.634321E+04  6.194054E+04
       207  27  5.858265E+05  1.969841E+06  5.779081E+05 -5.292013E+05  2.247005E+04  1.627173E+05
       208   1 -2.238842E+06 -8.842520E+05 -4.945922E+05 -8.576634E+05 -2.011932E+05 -5.536975E+04
       208   2 -2.133558E+06 -6.593192E+05 -3.210570E+05 -8.146810E+05 -1.277380E+05  1.770205E+04
       208   3 -2.061011E+06 -5.725698E+05 -2.449387E+05 -7.698233E+05 -4.183381E+04  5.778053E+04
       208   4 -1.114729E+06 -3.768920E+05 -1.848066E+05 -4.635433E+05 -1.256237E+05 -2.697641E+04
       208   5 -1.092525E+06 -2.401102E+05 -8.384698E+04 -4.915494E+05 -9.645189E+04  2.944530E+04
       208   6 -1.094181E+06 -2.326085E+05 -4.504058E+04 -5.177097E+05 -5.485892E+04  5.287847E+04
       208   7  1.062588E+04  1.307100E+05  1.248814E+05 -6.872467E+04 -4.990558E+04  1.498881E+03
       208   8 -5.039112E+04  1.792399E+05  1.532951E+05 -1.678992E+05 -6.510903E+04  4.121433E+04
       208   9 -1.263836E+05  1.074150E+05  1.548120E+05 -2.652384E+05 -6.790609E+04  4.796893E+04
       208  10 -2.238886E+06 -8.842663E+05 -4.946743E+05 -8.576724E+05  2.141745E-10  1.489466E-10
       208  11 -2.133575E+06 -6.593239E+05 -3.210884E+05 -8.146792E+05  3.507429E-10  2.542091E-10
       208  12 -2.061014E+06 -5.725738E+05 -2.449483E+05 -7.698214E+05 -1.143083E-09  3.247852E-11
       208  13 -1.114746E+06 -3.768970E+05 -1.848377E+05 -4.635460E+05 -6.619806E-10 -5.301953E-11
       208  14 -1.092535E+06 -2.401136E+05 -8.386611E+04 -4.915471E+05  4.378889E-10 -1.553582E-09
       208  15 -1.094185E+06 -2.326123E+05 -4.505149E+04 -5.177074E+05 -5.126879E-10  1.981869E-10
       208  16  1.062321E+04  1.307093E+05  1.248768E+05 -6.872461E+04 -4.842002E-10 -5.709100E-10
       208  17 -5.039612E+04  1.792370E+05  1.532840E+05 -1.678970E+05  1.662799E-09  2.610416E-10
       208  18 -1.263891E+05  1.074113E+05  1.547990E+05 -2.652358E+05 -1.614991E-12  3.053236E-10
       208  19 -2.238842E+06 -8.842520E+05 -4.945922E+05 -8.576634E+05  2.011932E+05  5.536975E+04
       208  20 -2.133558E+06 -6.593192E+05 -3.210570E+05 -8.146810E+05  1.277380E+05 -1.770205E+04
       208  21 -2.061011E+06 -5.725698E+05 -2.449387E+05 -7.698233E+05  4.183381E+04 -5.778053E+04
       208  22 -1.114729E+06 -3.768920E+05 -1.848066E+05 -4.635433E+05  1.256237E+05  2.697641E+04
       208  23 -1.092525E+06 -2.401102E+05 -8.384698E+04 -4.915494E+05  9.645189E+04 -2.944530E+04
       208  24 -1.094181E+06 -2.326085E+05 -4.504058E+04 -5.177097E+05  5.485892E+04 -5.287847E+04
       208  25  1.062588E+04  1.307100E+05  1.248814E+05 -6.872467E+04  4.990558E+04 -1.498881E+03
       208  26 -5.039112E+04  1.792399E+05  1.532951E+05 -1.678992E+05  6.510903E+04 -4.121433E+04
       208  27 -1.263836E+05  1.074150E+05  1.548120E+05 -2.652384E+05  6.790609E+04 -4.796893E+04
       209   1 -1.962620E+06 -5.617235E+05 -2.176628E+05 -7.569198E+05 -4.151664E+04  5.170517E+04
       209   2 -1.858615E+06 -5.009479E+05 -1.750887E+05 -7.119369E+05 -2.744025E+04  5.066392E+04
       209   3 -1.734416E+06 -4.690011E+05 -1.428119E+05 -6.930638E+05 -1.258040E+04  4.752635E+04
       209   4 -1.088327E+06 -2.390283E+05 -3.455566E+04 -5.130587E+05 -4.758567E+04  4.941775E+04
       209   5 -1.098258E+06 -2.220136E+05 -1.825784E+04 -5.010687E+05 -3.631457E+04  4.732697E+04
       209   6 -1.087447E+06 -2.332641E+05 -1.001980E+04 -5.151909E+05 -2.426293E+04  4.314035E+04
       209   7 -2.132506E+05  8.373286E+04  1.485101E+05 -2.688793E+05 -5.366391E+04  4.712683E+04
       209   8 -3.373096E+05  5.696880E+04  1.385423E+05 -2.899621E+05 -4.520057E+04  4.398563E+04
       209   9 -4.400521E+05  2.505260E+03  1.227498E+05 -3.371484E+05 -3.595849E+04  3.874951E+04
       209  10 -1.962622E+06 -5.617268E+05 -2.176711E+05 -7.569181E+05  7.379248E-10  3.518035E-10
       209  11 -1.858617E+06 -5.009509E+05 -1.750950E+05 -7.119358E+05  3.640552E-10 -2.981126E-10
       209  12 -1.734417E+06 -4.690035E+05 -1.428164E+05 -6.930633E+05 -5.340225E-10 -4.218890E-10
       209  13 -1.088330E+06 -2.390315E+05 -3.456450E+04 -5.130568E+05  2.861866E-11  1.834292E-10
       209  14 -1.098260E+06 -2.220163E+05 -1.826452E+04 -5.010673E+05 -9.174034E-10 -2.673024E-10
       209  15 -1.087448E+06 -2.332663E+05 -1.002440E+04 -5.151901E+05 -3.904952E-10 -2.874280E-10
       209  16 -2.132542E+05  8.372971E+04  1.485005E+05 -2.688773E+05 -2.239036E-10  9.525704E-11
       209  17 -3.373123E+05  5.696618E+04  1.385348E+05 -2.899605E+05 -1.337185E-10 -1.117164E-11
       209  18 -4.400538E+05  2.503302E+03  1.227445E+05 -3.371473E+05  9.682359E-10 -9.978677E-11
       209  19 -1.962620E+06 -5.617235E+05 -2.176628E+05 -7.569198E+05  4.151664E+04 -5.170517E+04
       209  20 -1.858615E+06 -5.009479E+05 -1.750887E+05 -7.119369E+05  2.744025E+04 -5.066392E+04
       209  21 -1.734416E+06 -4.690011E+05 -1.428119E+05 -6.930638E+05  1.258040E+04 -4.752635E+04
       209  22 -1.088327E+06 -2.390283E+05 -3.455566E+04 -5.130587E+05  4.758567E+04 -4.941775E+04
       209  23 -1.098258E+06 -2.220136E+05 -1.825784E+04 -5.010687E+05  3.631457E+04 -4.732697E+04
       209  24 -1.087447E+06 -2.332641E+05 -1.001980E+04 -5.151909E+05  2.426293E+04 -4.314035E+04
       209  25 -2.132506E+05  8.373286E+04  1.485101E+05 -2.688793E+05  5.366391E+04 -4.712683E+04
       209  26 -3.373096E+05  5.696880E+04  1.385423E+05 -2.899621E+05  4.520057E+04 -4.398563E+04
       209  27 -4.400521E+05  2.505260E+03  1.227498E+05 -3.371484E+05  3.595849E+04 -3.874951E+04
       210   1 -1.653775E+06 -4.405555E+05 -1.233697E+05 -6.714826E+05 -9.699888E+03  4.285140E+04
       210   2 -1.550005E+06 -3.862964E+05 -9.651033E+04 -6.259906E+05 -4.268149E+03  3.525917E+04
       210   3 -1.422812E+06 -3.560472E+05 -7.138800E+04 -6.077400E+05  1.213444E+03  2.752374E+04
       210   4 -1.087001E+06 -2.335352E+05 -7.551626E+03 -5.149754E+05 -2.096221E+04  3.862523E+04
       210   5 -1.098689E+06 -2.214440E+05 -4.160103E+03 -5.013831E+05 -1.572157E+04  3.096411E+04
       210   6 -1.086934E+06 -2.333259E+05 -2.354215E+03 -5.150369E+05 -1.043158E+04  2.315971E+04
       210   7 -5.198912E+05 -2.648595E+04  1.082519E+05 -3.583346E+05 -3.223570E+04  3.439489E+04
       210   8 -6.471615E+05 -5.657381E+04  8.818078E+04 -3.766913E+05 -2.718401E+04  2.666568E+04
       210   9 -7.509390E+05 -1.105950E+05  6.667434E+04 -4.222874E+05 -2.208339E+04  1.879315E+04
       210  10 -1.653776E+06 -4.405575E+05 -1.233734E+05 -6.714823E+05 -3.565744E-10 -1.136115E-10
       210  11 -1.550005E+06 -3.862977E+05 -9.651270E+04 -6.259905E+05 -6.067442E-10 -7.755145E-10
       210  12 -1.422812E+06 -3.560480E+05 -7.138943E+04 -6.077400E+05  7.006708E-10 -4.210890E-10
       210  13 -1.087002E+06 -2.335369E+05 -7.555253E+03 -5.149747E+05  1.106706E-09 -1.318188E-10
       210  14 -1.098690E+06 -2.214451E+05 -4.162368E+03 -5.013827E+05  2.750859E-10 -2.025618E-11
       210  15 -1.086934E+06 -2.333265E+05 -2.355427E+03 -5.150367E+05 -6.089828E-10 -5.384368E-10
       210  16 -5.198927E+05 -2.648750E+04  1.082477E+05 -3.583338E+05  1.396468E-09 -4.333548E-10
       210  17 -6.471625E+05 -5.657477E+04  8.817806E+04 -3.766907E+05 -2.356104E-10 -7.043569E-10
       210  18 -7.509396E+05 -1.105955E+05  6.667276E+04 -4.222871E+05  1.259144E-10 -2.183499E-10
       210  19 -1.653775E+06 -4.405555E+05 -1.233697E+05 -6.714826E+05  9.699888E+03 -4.285140E+04
       210  20 -1.550005E+06 -3.862964E+05 -9.651033E+04 -6.259906E+05  4.268149E+03 -3.525917E+04
       210  21 -1.422812E+06 -3.560472E+05 -7.138800E+04 -6.077400E+05 -1.213444E+03 -2.752374E+04
       210  22 -1.087001E+06 -2.335352E+05 -7.551626E+03 -5.149754E+05  2.096221E+04 -3.862523E+04
       210  23 -1.098689E+06 -2.214440E+05 -4.160103E+03 -5.013831E+05  1.572157E+04 -3.096411E+04
       210  24 -1.086934E+06 -2.333259E+05 -2.354215E+03 -5.150369E+05  1.043158E+04 -2.315971E+04
       210  25 -5.198912E+05 -2.648595E+04  1.082519E+05 -3.583346E+05  3.223570E+04 -3.439489E+04
       210  26 -6.471615E+05 -5.657381E+04  8.818078E+04 -3.766913E+05  2.718401E+04 -2.666568E+04
       210  27 -7.509390E+05 -1.105950E+05  6.667434E+04 -4.222874E+05  2.208339E+04 -1.879315E+04
       211   1 -1.342805E+06 -3.267558E+05 -5.381704E+04 -5.857282E+05  3.429981E+03  2.260851E+04
       211   2 -1.238878E+06 -2.726056E+05 -2.982350E+04 -5.400762E+05  7.267712E+03  1.418692E+04
       211   3 -1.111212E+06 -2.422789E+05 -6.277430E+03 -5.217375E+05  1.110846E+04  5.753638E+03
       211   4 -1.086866E+06 -2.333364E+05 -1.822926E+03 -5.150319E+05 -8.197765E+03  1.825210E+04
       211   5 -1.098724E+06 -2.214184E+05 -1.168836E+03 -5.013731E+05 -4.376379E+03  9.825263E+03
       211   6 -1.086853E+06 -2.333217E+05 -9.494553E+02 -5.150328E+05 -5.520861E+02  1.386705E+03
       211   7 -8.308613E+05 -1.399121E+05  5.016793E+04 -4.443092E+05 -1.983059E+04  1.389378E+04
       211   8 -9.585493E+05 -1.702295E+05  2.748540E+04 -4.626619E+05 -1.602330E+04  5.462550E+03
       211   9 -1.062494E+06 -2.243642E+05  4.379120E+03 -5.083277E+05 -1.221322E+04 -2.980448E+03
       211  10 -1.342805E+06 -3.267564E+05 -5.381802E+04 -5.857282E+05  9.146319E-10 -9.108046E-10
       211  11 -1.238878E+06 -2.726059E+05 -2.982398E+04 -5.400762E+05 -2.711892E-10 -7.545875E-10
       211  12 -1.111212E+06 -2.422789E+05 -6.277725E+03 -5.217376E+05 -5.269890E-10 -3.626687E-10
       211  13 -1.086866E+06 -2.333368E+05 -1.823678E+03 -5.150318E+05  1.531371E-09  2.046479E-10
       211  14 -1.098724E+06 -2.214185E+05 -1.169053E+03 -5.013731E+05 -1.249805E-09 -1.399000E-10
       211  15 -1.086853E+06 -2.333217E+05 -9.494595E+02 -5.150328E+05  1.139711E-09  5.899869E-10
       211  16 -8.308618E+05 -1.399124E+05  5.016683E+04 -4.443090E+05 -1.181228E-09 -6.580604E-10
       211  17 -9.585496E+05 -1.702296E+05  2.748487E+04 -4.626618E+05  1.674265E-09 -1.125165E-10
       211  18 -1.062494E+06 -2.243643E+05  4.378822E+03 -5.083277E+05  4.001682E-10  6.402194E-10
       211  19 -1.342805E+06 -3.267558E+05 -5.381704E+04 -5.857282E+05 -3.429981E+03 -2.260851E+04
       211  20 -1.238878E+06 -2.726056E+05 -2.982350E+04 -5.400762E+05 -7.267712E+03 -1.418692E+04
       211  21 -1.111212E+06 -2.422789E+05 -6.277430E+03 -5.217375E+05 -1.110846E+04 -5.753638E+03
       211  22 -1.086866E+06 -2.333364E+05 -1.822926E+03 -5.150319E+05  8.197765E+03 -1.825210E+04
       211  23 -1.098724E+06 -2.214184E+05 -1.168836E+03 -5.013731E+05  4.376379E+03 -9.825263E+03
       211  24 -1.086853E+06 -2.333217E+05 -9.494553E+02 -5.150328E+05  5.520861E+02 -1.386705E+03
       211  25 -8.308613E+05 -1.399121E+05  5.016793E+04 -4.443092E+05  1.983059E+04 -1.389378E+04
       211  26 -9.585493E+05 -1.702295E+05  2.748540E+04 -4.626619E+05  1.602330E+04 -5.462550E+03
       211  27 -1.062494E+06 -2.243642E+05  4.379120E+03 -5.083277E+05  1.221322E+04  2.980448E+03
       212   1 -1.031174E+06 -2.129246E+05  1.076183E+04 -4.996760E+05  1.315697E+04  7.714896E+02
       212   2 -9.272382E+05 -1.587985E+05  3.377208E+04 -4.540168E+05  1.702129E+04 -7.649923E+03
       212   3 -7.995703E+05 -1.284888E+05  5.631760E+04 -4.356685E+05  2.088248E+04 -1.605867E+04
       212   4 -1.086856E+06 -2.333218E+05 -9.695186E+02 -5.150324E+05  1.496123E+03 -3.595629E+03
       212   5 -1.098723E+06 -2.214194E+05 -1.280713E+03 -5.013742E+05  5.375902E+03 -1.201234E+04
       212   6 -1.086873E+06 -2.333381E+05 -2.068866E+03 -5.150327E+05  9.252416E+03 -2.041637E+04
       212   7 -1.142535E+06 -2.537186E+05 -1.270045E+04 -5.303875E+05 -1.016360E+04 -7.962325E+03
       212   8 -1.270176E+06 -2.840375E+05 -3.633423E+04 -5.487192E+05 -6.265973E+03 -1.637344E+04
       212   9 -1.374089E+06 -3.381794E+05 -6.045827E+04 -5.943623E+05 -2.371766E+03 -2.477188E+04
       212  10 -1.031174E+06 -2.129246E+05  1.076150E+04 -4.996760E+05  1.279173E-09  4.454321E-10
       212  11 -9.272385E+05 -1.587987E+05  3.377142E+04 -4.540167E+05  2.720481E-10 -5.443107E-10
       212  12 -7.995709E+05 -1.284892E+05  5.631630E+04 -4.356682E+05 -6.003004E-10 -7.136468E-10
       212  13 -1.086856E+06 -2.333218E+05 -9.695470E+02 -5.150324E+05  5.357429E-10  9.674986E-11
       212  14 -1.098723E+06 -2.214196E+05 -1.281038E+03 -5.013742E+05 -1.141660E-10 -5.653124E-10
       212  15 -1.086874E+06 -2.333385E+05 -2.069810E+03 -5.150326E+05  2.346640E-10 -2.260856E-10
       212  16 -1.142535E+06 -2.537187E+05 -1.270076E+04 -5.303875E+05 -9.874851E-10 -2.163502E-11
       212  17 -1.270176E+06 -2.840378E+05 -3.633480E+04 -5.487193E+05  6.042641E-10 -3.470588E-10
       212  18 -1.374089E+06 -3.381800E+05 -6.045943E+04 -5.943623E+05  1.127891E-09 -1.656352E-10
       212  19 -1.031174E+06 -2.129246E+05  1.076183E+04 -4.996760E+05 -1.315697E+04 -7.714896E+02
       212  20 -9.272382E+05 -1.587985E+05  3.377208E+04 -4.540168E+05 -1.702129E+04  7.649923E+03
       212  21 -7.995703E+05 -1.284888E+05  5.631760E+04 -4.356685E+05 -2.088248E+04  1.605867E+04
       212  22 -1.086856E+06 -2.333218E+05 -9.695186E+02 -5.150324E+05 -1.496123E+03  3.595629E+03
       212  23 -1.098723E+06 -2.214194E+05 -1.280713E+03 -5.013742E+05 -5.375902E+03  1.201234E+04
       212  24 -1.086873E+06 -2.333381E+05 -2.068866E+03 -5.150327E+05 -9.252416E+03  2.041637E+04
       212  25 -1.142535E+06 -2.537186E+05 -1.270045E+04 -5.303875E+05  1.016360E+04  7.962325E+03
       212  26 -1.270176E+06 -2.840375E+05 -3.633423E+04 -5.487192E+05  6.265973E+03  1.637344E+04
       212  27 -1.374089E+06 -3.381794E+05 -6.045827E+04 -5.943623E+05  2.371766E+03  2.477188E+04
       213   1 -7.196714E+05 -9.917838E+04  7.272777E+04 -4.136539E+05  2.318332E+04 -2.093854E+04
       213   2 -6.159054E+05 -4.517833E+04  9.393219E+04 -3.680750E+05  2.859210E+04 -2.869018E+04
       213   3 -4.887069E+05 -1.513083E+04  1.134648E+05 -3.497232E+05  3.395057E+04 -3.629409E+04
       213   4 -1.086951E+06 -2.333254E+05 -2.692472E+03 -5.150381E+05  1.153458E+04 -2.530448E+04
       213   5 -1.098676E+06 -2.214440E+05 -4.791196E+03 -5.013858E+05  1.713808E+04 -3.298621E+04
       213   6 -1.087023E+06 -2.335579E+05 -8.717778E+03 -5.149686E+05  2.269079E+04 -4.052028E+04
       213   7 -1.454094E+06 -3.674622E+05 -7.811993E+04 -6.163678E+05 -1.068310E+02 -2.966768E+04
       213   8 -1.581209E+06 -3.976909E+05 -1.035265E+05 -6.346013E+05  5.693595E+03 -3.727868E+04
       213   9 -1.684972E+06 -4.519549E+05 -1.309181E+05 -6.800669E+05  1.144268E+04 -4.474210E+04
       213  10 -7.196721E+05 -9.917899E+04  7.272594E+04 -4.136535E+05 -8.624287E-10 -2.167918E-10
       213  11 -6.159065E+05 -4.517943E+04  9.392911E+04 -3.680743E+05 -1.573178E-09  1.811387E-10
       213  12 -4.887085E+05 -1.513255E+04  1.134602E+05 -3.497222E+05 -1.143236E-09  2.272101E-10
       213  13 -1.086951E+06 -2.333261E+05 -2.693925E+03 -5.150379E+05 -4.525018E-11 -4.546771E-11
       213  14 -1.098677E+06 -2.214453E+05 -4.793791E+03 -5.013853E+05  2.772602E-10  5.365702E-10
       213  15 -1.087024E+06 -2.335598E+05 -8.721828E+03 -5.149679E+05 -1.816093E-09  6.007534E-10
       213  16 -1.454095E+06 -3.674631E+05 -7.812159E+04 -6.163678E+05  2.012308E-10  2.161701E-10
       213  17 -1.581210E+06 -3.976924E+05 -1.035292E+05 -6.346012E+05  6.250870E-10  1.726794E-10
       213  18 -1.684972E+06 -4.519571E+05 -1.309221E+05 -6.800665E+05  9.297704E-10  1.337467E-09
       213  19 -7.196714E+05 -9.917838E+04  7.272777E+04 -4.136539E+05 -2.318332E+04  2.093854E+04
       213  20 -6.159054E+05 -4.517833E+04  9.393219E+04 -3.680750E+05 -2.859210E+04  2.869018E+04
       213  21 -4.887069E+05 -1.513083E+04  1.134648E+05 -3.497232E+05 -3.395057E+04  3.629409E+04
       213  22 -1.086951E+06 -2.333254E+05 -2.692472E+03 -5.150381E+05 -1.153458E+04  2.530448E+04
       213  23 -1.098676E+06 -2.214440E+05 -4.791196E+03 -5.013858E+05 -1.713808E+04  3.298621E+04
       213  24 -1.087023E+06 -2.335579E+05 -8.717778E+03 -5.149686E+05 -2.269079E+04  4.052028E+04
       213  25 -1.454094E+06 -3.674622E+05 -7.811993E+04 -6.163678E+05  1.068310E+02  2.966768E+04
       213  26 -1.581209E+06 -3.976909E+05 -1.035265E+05 -6.346013E+05 -5.693595E+03  3.727868E+04
       213  27 -1.684972E+06 -4.519549E+05 -1.309181E+05 -6.800669E+05 -1.144268E+04  4.474210E+04
       214   1 -4.088933E+05  1.379693E+04  1.275647E+05 -3.286890E+05  3.790153E+04 -4.056058E+04
       214   2 -3.062303E+05  6.833775E+04  1.420844E+05 -2.812299E+05  4.848967E+04 -4.525731E+04
       214   3 -1.827167E+05  9.446201E+04  1.495750E+05 -2.597315E+05  5.827915E+04 -4.780596E+04
       214   4 -1.087539E+06 -2.332509E+05 -1.157432E+04 -5.152295E+05  2.620914E+04 -4.495133E+04
       214   5 -1.098172E+06 -2.220744E+05 -2.109130E+04 -5.010143E+05  3.967630E+04 -4.857249E+04
       214   6 -1.088543E+06 -2.398933E+05 -3.992846E+04 -5.127673E+05  5.234280E+04 -5.004468E+04
       214   7 -1.765706E+06 -4.802591E+05 -1.507350E+05 -7.015807E+05  1.453059E+04 -4.933695E+04
       214   8 -1.889470E+06 -5.124331E+05 -1.842993E+05 -7.205396E+05  3.087504E+04 -5.188312E+04
       214   9 -1.993536E+06 -5.741802E+05 -2.294781E+05 -7.654633E+05  4.641571E+04 -5.227988E+04
       214  10 -4.088952E+05  1.379478E+04  1.275589E+05 -3.286878E+05  9.346128E-10  8.078399E-10
       214  11 -3.062334E+05  6.833492E+04  1.420761E+05 -2.812281E+05 -7.241622E-10 -1.615682E-11
       214  12 -1.827209E+05  9.445865E+04  1.495643E+05 -2.597293E+05 -2.193017E-09  1.389225E-10
       214  13 -1.087540E+06 -2.332533E+05 -1.157941E+04 -5.152286E+05  2.789781E-10  4.304923E-10
       214  14 -1.098175E+06 -2.220774E+05 -2.109869E+04 -5.010127E+05  8.904857E-10 -8.436239E-11
       214  15 -1.088546E+06 -2.398968E+05 -3.993831E+04 -5.127652E+05  4.857272E-10  5.750182E-10
       214  16 -1.765707E+06 -4.802618E+05 -1.507400E+05 -7.015801E+05 -1.588843E-09  2.446600E-10
       214  17 -1.889472E+06 -5.124363E+05 -1.843062E+05 -7.205383E+05  3.021232E-10 -1.773456E-10
       214  18 -1.993539E+06 -5.741837E+05 -2.294873E+05 -7.654613E+05  2.127592E-09  1.083118E-09
       214  19 -4.088933E+05  1.379693E+04  1.275647E+05 -3.286890E+05 -3.790153E+04  4.056058E+04
       214  20 -3.062303E+05  6.833775E+04  1.420844E+05 -2.812299E+05 -4.848967E+04  4.525731E+04
       214  21 -1.827167E+05  9.446201E+04  1.495750E+05 -2.597315E+05 -5.827915E+04  4.780596E+04
       214  22 -1.087539E+06 -2.332509E+05 -1.157432E+04 -5.152295E+05 -2.620914E+04  4.495133E+04
       214  23 -1.098172E+06 -2.220744E+05 -2.109130E+04 -5.010143E+05 -3.967630E+04  4.857249E+04
       214  24 -1.088543E+06 -2.398933E+05 -3.992846E+04 -5.127673E+05 -5.234280E+04  5.004468E+04
       214  25 -1.765706E+06 -4.802591E+05 -1.507350E+05 -7.015807E+05 -1.453059E+04  4.933695E+04
       214  26 -1.889470E+06 -5.124331E+05 -1.842993E+05 -7.205396E+05 -3.087504E+04  5.188312E+04
       214  27 -1.993536E+06 -5.741802E+05 -2.294781E+05 -7.654633E+05 -4.641571E+04  5.227988E+04
       215   1 -9.483248E+04  1.171812E+05  1.542297E+05 -2.590523E+05  7.351677E+04 -4.828207E+04
       215   2 -2.265331E+04  1.917727E+05  1.470245E+05 -1.532617E+05  7.632274E+04 -3.896941E+04
       215   3  2.753997E+04  1.295992E+05  1.041362E+05 -4.137595E+04  6.640871E+04  4.136401E+03
       215   4 -1.095261E+06 -2.325162E+05 -5.204488E+04 -5.181956E+05  6.043403E+04 -5.320626E+04
       215   5 -1.091584E+06 -2.429005E+05 -9.687753E+04 -4.899514E+05  1.087401E+05 -2.679571E+04
       215   6 -1.119014E+06 -3.992224E+05 -2.135425E+05 -4.556025E+05  1.443093E+05  3.343464E+04
       215   7 -2.094666E+06 -5.821534E+05 -2.583711E+05 -7.769635E+05  4.737399E+04 -5.812285E+04
       215   8 -2.159344E+06 -6.774115E+05 -3.408479E+05 -8.260816E+05  1.410969E+05 -1.465010E+04
       215   9 -2.264236E+06 -9.277462E+05 -5.313114E+05 -8.690620E+05  2.220517E+05  6.264236E+04
       215  10 -9.483890E+04  1.171772E+05  1.542151E+05 -2.590494E+05 -1.276274E-10  4.097339E-10
       215  11 -2.265997E+04  1.917695E+05  1.470107E+05 -1.532593E+05 -1.043964E-09 -5.819269E-10
       215  12  2.753523E+04  1.295980E+05  1.041278E+05 -4.137617E+04  6.894628E-10  4.722700E-10
       215  13 -1.095265E+06 -2.325202E+05 -5.205706E+04 -5.181930E+05  7.730578E-10  1.707970E-10
       215  14 -1.091597E+06 -2.429044E+05 -9.690113E+04 -4.899491E+05  2.055460E-10 -5.236138E-10
       215  15 -1.119037E+06 -3.992292E+05 -2.135839E+05 -4.556064E+05 -3.577214E-10 -1.277810E-10
       215  16 -2.094669E+06 -5.821577E+05 -2.583816E+05 -7.769613E+05 -1.032818E-09  1.131312E-09
       215  17 -2.159366E+06 -6.774171E+05 -3.408859E+05 -8.260800E+05  9.343657E-10  8.750087E-10
       215  18 -2.264290E+06 -9.277637E+05 -5.314119E+05 -8.690732E+05 -1.524817E-10  1.093039E-09
       215  19 -9.483248E+04  1.171812E+05  1.542297E+05 -2.590523E+05 -7.351677E+04  4.828207E+04
       215  20 -2.265331E+04  1.917727E+05  1.470245E+05 -1.532617E+05 -7.632274E+04  3.896941E+04
       215  21  2.753997E+04  1.295992E+05  1.041362E+05 -4.137595E+04 -6.640871E+04 -4.136401E+03
       215  22 -1.095261E+06 -2.325162E+05 -5.204488E+04 -5.181956E+05 -6.043403E+04  5.320626E+04
       215  23 -1.091584E+06 -2.429005E+05 -9.687753E+04 -4.899514E+05 -1.087401E+05  2.679571E+04
       215  24 -1.119014E+06 -3.992224E+05 -2.135425E+05 -4.556025E+05 -1.443093E+05 -3.343464E+04
       215  25 -2.094666E+06 -5.821534E+05 -2.583711E+05 -7.769635E+05 -4.737399E+04  5.812285E+04
       215  26 -2.159344E+06 -6.774115E+05 -3.408479E+05 -8.260816E+05 -1.410969E+05  1.465010E+04
       215  27 -2.264236E+06 -9.277462E+05 -5.313114E+05 -8.690620E+05 -2.220517E+05 -6.264236E+04
       216   1 -2.561888E+05 -1.018921E+05 -6.882554E+04 -9.174238E+03  6.257952E+04  1.472804E+04
       216   2 -1.494926E+05 -2.033184E+05 -1.047028E+05 -5.001031E+04  5.553895E+04  4.752018E+04
       216   3 -1.531718E+04 -1.993869E+05 -1.096260E+05 -1.210439E+05  4.852290E+04  5.308017E+04
       216   4  8.209994E+05  1.643454E+05  1.866036E+05 -1.058770E+05  1.295510E+05  1.477128E+04
       216   5  8.039586E+05  2.599154E+04  8.904751E+04 -9.073213E+04  8.324925E+04  4.752814E+04
       216   6  8.211362E+05 -2.940285E+02  4.965050E+04 -1.057752E+05  3.697593E+04  5.307062E+04
       216   7  1.899283E+06  4.305374E+05  4.419740E+05 -2.027486E+05  1.966381E+05  1.479363E+04
       216   8  1.758280E+06  2.552516E+05  2.827541E+05 -1.315177E+05  1.110012E+05  4.753247E+04
       216   9  1.658264E+06  1.987588E+05  2.088961E+05 -9.048546E+04  2.541375E+04  5.306051E+04
       216  10 -2.561931E+05 -1.018934E+05 -6.883331E+04 -9.174980E+03  3.730428E-10 -7.658142E-10
       216  11 -1.494965E+05 -2.033217E+05 -1.047128E+05 -5.001244E+04 -8.690457E-10  6.927267E-10
       216  12 -1.532047E+04 -1.993906E+05 -1.096357E+05 -1.210460E+05 -3.586301E-09 -1.582439E-10
       216  13  8.209814E+05  1.643407E+05  1.865717E+05 -1.058786E+05 -7.669265E-10  6.995254E-10
       216  14  8.039506E+05  2.598726E+04  8.903026E+04 -9.073532E+04  9.321303E-10  2.808283E-10
       216  15  8.211339E+05 -2.974208E+02  4.964264E+04 -1.057768E+05 -1.982923E-09 -4.416409E-11
       216  16  1.899241E+06  4.305268E+05  4.419012E+05 -2.027509E+05 -3.020299E-10  5.586265E-10
       216  17  1.758266E+06  2.552459E+05  2.827268E+05 -1.315220E+05 -1.427842E-10  2.633740E-10
       216  18  1.658263E+06  1.987556E+05  2.088896E+05 -9.048654E+04  2.758236E-09  1.649340E-09
       216  19 -2.561888E+05 -1.018921E+05 -6.882554E+04 -9.174238E+03 -6.257952E+04 -1.472804E+04
       216  20 -1.494926E+05 -2.033184E+05 -1.047028E+05 -5.001031E+04 -5.553895E+04 -4.752018E+04
       216  21 -1.531718E+04 -1.993869E+05 -1.096260E+05 -1.210439E+05 -4.852290E+04 -5.308017E+04
       216  22  8.209994E+05  1.643454E+05  1.866036E+05 -1.058770E+05 -1.295510E+05 -1.477128E+04
       216  23  8.039586E+05  2.599154E+04  8.904751E+04 -9.073213E+04 -8.324925E+04 -4.752814E+04
       216  24  8.211362E+05 -2.940285E+02  4.965050E+04 -1.057752E+05 -3.697593E+04 -5.307062E+04
       216  25  1.899283E+06  4.305374E+05  4.419740E+05 -2.027486E+05 -1.966381E+05 -1.479363E+04
       216  26  1.758280E+06  2.552516E+05  2.827541E+05 -1.315177E+05 -1.110012E+05 -4.753247E+04
       216  27  1.658264E+06  1.987588E+05  2.088961E+05 -9.048546E+04 -2.541375E+04 -5.306051E+04
       217   1  5.994117E+04 -1.732794E+05 -1.049598E+05 -1.042205E+05  3.713256E+04  4.830318E+04
       217   2  1.785581E+05 -1.500797E+05 -9.740642E+04 -9.003317E+04  2.941840E+04  4.264974E+04
       217   3  2.994081E+05 -1.223844E+05 -8.368344E+04 -1.074551E+05  2.169982E+04  3.505829E+04
       217   4  8.141508E+05  6.128893E+03  3.822654E+04 -1.061120E+05  3.041490E+04  4.829605E+04
       217   5  8.128281E+05  4.068989E+02  2.109425E+04 -9.030818E+04  1.989749E+04  4.264422E+04
       217   6  8.142066E+05 -3.362694E+02  1.206980E+04 -1.061113E+05  9.377117E+03  3.505533E+04
       217   7  1.568909E+06  1.855040E+05  1.813876E+05 -1.080059E+05  2.368926E+04  4.828897E+04
       217   8  1.447487E+06  1.508704E+05  1.395780E+05 -9.058347E+04  1.036709E+04  4.263871E+04
       217   9  1.329262E+06  1.216967E+05  1.078124E+05 -1.047662E+05 -2.955541E+03  3.505231E+04
       217  10  5.993906E+04 -1.732823E+05 -1.049668E+05 -1.042219E+05 -1.597945E-12  8.941264E-11
       217  11  1.785567E+05 -1.500819E+05 -9.741147E+04 -9.003419E+04  1.665242E-09  6.244179E-10
       217  12  2.994073E+05 -1.223859E+05 -8.368664E+04 -1.074557E+05 -3.833501E-10 -6.223877E-10
       217  13  8.141492E+05  6.126139E+03  3.822042E+04 -1.061132E+05 -1.341145E-09  1.020515E-09
       217  14  8.128272E+05  4.048391E+02  2.109009E+04 -9.030887E+04  4.864858E-10  3.218243E-10
       217  15  8.142062E+05 -3.376131E+02  1.206733E+04 -1.061115E+05 -5.369797E-10 -3.745892E-10
       217  16  1.568908E+06  1.855013E+05  1.813822E+05 -1.080069E+05 -9.613044E-10  9.459357E-10
       217  17  1.447487E+06  1.508684E+05  1.395744E+05 -9.058383E+04 -2.237942E-09 -4.378468E-10
       217  18  1.329261E+06  1.216954E+05  1.078100E+05 -1.047662E+05 -8.166519E-10  9.357354E-11
       217  19  5.994117E+04 -1.732794E+05 -1.049598E+05 -1.042205E+05 -3.713256E+04 -4.830318E+04
       217  20  1.785581E+05 -1.500797E+05 -9.740642E+04 -9.003317E+04 -2.941840E+04 -4.264974E+04
       217  21  2.994081E+05 -1.223844E+05 -8.368344E+04 -1.074551E+05 -2.169982E+04 -3.505829E+04
       217  22  8.141508E+05  6.128893E+03  3.822654E+04 -1.061120E+05 -3.041490E+04 -4.829605E+04
       217  23  8.128281E+05  4.068989E+02  2.109425E+04 -9.030818E+04 -1.989749E+04 -4.264422E+04
       217  24  8.142066E+05 -3.362694E+02  1.206980E+04 -1.061113E+05 -9.377117E+03 -3.505533E+04
       217  25  1.568909E+06  1.855040E+05  1.813876E+05 -1.080059E+05 -2.368926E+04 -4.828897E+04
       217  26  1.447487E+06  1.508704E+05  1.395780E+05 -9.058347E+04 -1.036709E+04 -4.263871E+04
       217  27  1.329262E+06  1.216967E+05  1.078124E+05 -1.047662E+05  2.955541E+03 -3.505231E+04
       218   1  3.799169E+05 -1.027554E+05 -7.100986E+04 -1.065969E+05  1.947805E+04  3.007222E+04
       218   2  4.992042E+05 -7.460897E+04 -5.295903E+04 -9.063400E+04  1.709182E+04  2.169249E+04
       218   3  6.188870E+05 -4.627330E+04 -3.330211E+04 -1.063238E+05  1.470299E+04  1.317772E+04
       218   4  8.137143E+05 -1.608024E+01  9.173868E+03 -1.061216E+05  7.505949E+03  3.007062E+04
       218   5  8.135187E+05 -1.553586E+02  5.223621E+03 -9.029585E+04  4.922471E+03  2.169241E+04
       218   6  8.137399E+05 -7.045973E+01  3.015407E+03 -1.061218E+05  2.336828E+03  1.317921E+04
       218   7  1.247694E+06  1.027126E+05  8.935028E+04 -1.056460E+05 -4.474296E+03  3.006900E+04
       218   8  1.127929E+06  7.429268E+04  6.340268E+04 -8.995751E+04 -7.252877E+03  2.169231E+04
       218   9  1.008630E+06  4.613027E+04  3.933188E+04 -1.059197E+05 -1.003311E+04  1.318069E+04
       218  10  3.799162E+05 -1.027565E+05 -7.101227E+04 -1.065973E+05 -2.778678E-10 -4.487444E-10
       218  11  4.992038E+05 -7.460955E+04 -5.296046E+04 -9.063430E+04  2.573935E-10  4.088059E-10
       218  12  6.188867E+05 -4.627354E+04 -3.330284E+04 -1.063239E+05  1.818681E-11 -3.922903E-10
       218  13  8.137140E+05 -1.706676E+01  9.172062E+03 -1.061218E+05 -2.598891E-10 -1.154960E-10
       218  14  8.135186E+05 -1.558706E+02  5.222691E+03 -9.029593E+04  1.090507E-09  8.551452E-11
       218  15  8.137399E+05 -7.064779E+01  3.015070E+03 -1.061218E+05 -3.504219E-10 -1.422931E-10
       218  16  1.247694E+06  1.027116E+05  8.934854E+04 -1.056459E+05 -5.197725E-10  2.384587E-10
       218  17  1.127929E+06  7.429216E+04  6.340170E+04 -8.995738E+04 -2.693303E-10 -5.102972E-10
       218  18  1.008630E+06  4.613006E+04  3.933136E+04 -1.059196E+05 -1.176244E-09 -2.879367E-10
       218  19  3.799169E+05 -1.027554E+05 -7.100986E+04 -1.065969E+05 -1.947805E+04 -3.007222E+04
       218  20  4.992042E+05 -7.460897E+04 -5.295903E+04 -9.063400E+04 -1.709182E+04 -2.169249E+04
       218  21  6.188870E+05 -4.627330E+04 -3.330211E+04 -1.063238E+05 -1.470299E+04 -1.317772E+04
       218  22  8.137143E+05 -1.608024E+01  9.173868E+03 -1.061216E+05 -7.505949E+03 -3.007062E+04
       218  23  8.135187E+05 -1.553586E+02  5.223621E+03 -9.029585E+04 -4.922471E+03 -2.169241E+04
       218  24  8.137399E+05 -7.045973E+01  3.015407E+03 -1.061218E+05 -2.336828E+03 -1.317921E+04
       218  25  1.247694E+06  1.027126E+05  8.935028E+04 -1.056460E+05  4.474296E+03 -3.006900E+04
       218  26  1.127929E+06  7.429268E+04  6.340268E+04 -8.995751E+04  7.252877E+03 -2.169231E+04
       218  27  1.008630E+06  4.613027E+04  3.933188E+04 -1.059197E+05  1.003311E+04 -1.318069E+04
       219   1  6.996587E+05 -2.699085E+04 -1.850911E+04 -1.062686E+05  1.419482E+04  8.183511E+03
       219   2  8.190307E+05  1.244806E+03  2.331030E+03 -9.039983E+04  1.354755E+04 -3.828724E+02
       219   3  9.385084E+05  2.948819E+04  2.359447E+04 -1.061707E+05  1.290018E+04 -8.958436E+03
       219   4  8.136729E+05 -4.651192E+01  2.295492E+03 -1.061191E+05  1.854777E+03  8.185453E+03
       219   5  8.136267E+05 -3.357321E+01  1.337982E+03 -9.029929E+04  1.192939E+03 -3.809723E+02
       219   6  8.136728E+05 -1.029103E+01  8.129741E+02 -1.061192E+05  5.311313E+02 -8.956546E+03
       219   7  9.277001E+05  2.689717E+04  2.310014E+04 -1.059696E+05 -1.048747E+04  8.187389E+03
       219   8  8.082230E+05 -1.311872E+03  3.455056E+02 -9.019876E+04 -1.116156E+04 -3.790762E+02
       219   9  6.888526E+05 -2.950957E+04 -2.196858E+04 -1.060676E+05 -1.183550E+04 -8.954658E+03
       219  10  6.996584E+05 -2.699097E+04 -1.850961E+04 -1.062687E+05  8.851570E-11 -7.600264E-10
       219  11  8.190305E+05  1.244756E+03  2.330686E+03 -9.039982E+04  8.775555E-10 -4.236394E-10
       219  12  9.385082E+05  2.948806E+04  2.359401E+04 -1.061706E+05  1.032899E-09 -4.035200E-10
       219  13  8.136729E+05 -4.658482E+01  2.295359E+03 -1.061191E+05 -5.133684E-10 -4.308819E-10
       219  14  8.136267E+05 -3.357375E+01  1.337979E+03 -9.029929E+04 -1.452019E-10 -2.442478E-10
       219  15  8.136728E+05 -1.037728E+01  8.128228E+02 -1.061191E+05 -8.556244E-10 -3.373953E-10
       219  16  9.276999E+05  2.689707E+04  2.309981E+04 -1.059696E+05  1.134197E-10 -1.307521E-10
       219  17  8.082229E+05 -1.311905E+03  3.452716E+02 -9.019876E+04 -2.289069E-10  1.025243E-10
       219  18  6.888524E+05 -2.950969E+04 -2.196899E+04 -1.060677E+05 -1.179127E-10  1.009873E-10
       219  19  6.996587E+05 -2.699085E+04 -1.850911E+04 -1.062686E+05 -1.419482E+04 -8.183511E+03
       219  20  8.190307E+05  1.244806E+03  2.331030E+03 -9.039983E+04 -1.354755E+04  3.828724E+02
       219  21  9.385084E+05  2.948819E+04  2.359447E+04 -1.061707E+05 -1.290018E+04  8.958436E+03
       219  22  8.136729E+05 -4.651192E+01  2.295492E+03 -1.061191E+05 -1.854777E+03 -8.185453E+03
       219  23  8.136267E+05 -3.357321E+01  1.337982E+03 -9.029929E+04 -1.192939E+03  3.809723E+02
       219  24  8.136728E+05 -1.029103E+01  8.129741E+02 -1.061192E+05 -5.311313E+02  8.956546E+03
       219  25  9.277001E+05  2.689717E+04  2.310014E+04 -1.059696E+05  1.048747E+04 -8.187389E+03
       219  26  8.082230E+05 -1.311872E+03  3.455056E+02 -9.019876E+04  1.116156E+04  3.790762E+02
       219  27  6.888526E+05 -2.950957E+04 -2.196858E+04 -1.060676E+05  1.183550E+04  8.954658E+03
       220   1  1.019353E+06  4.873945E+04  3.894370E+04 -1.061745E+05  1.276992E+04 -1.395292E+04
       220   2  1.138857E+06  7.695303E+04  6.056462E+04 -9.030339E+04  1.252871E+04 -2.252994E+04
       220   3  1.258432E+06  1.051657E+05  8.234718E+04 -1.060947E+05  1.228979E+04 -3.109925E+04
       220   4  8.136593E+05 -1.450293E+01  6.527983E+02 -1.061244E+05  3.968163E+02 -1.395152E+04
       220   5  8.136190E+05 -4.133593E+01  4.668317E+02 -9.029270E+04  1.656990E+02 -2.253017E+04
       220   6  8.136342E+05 -7.024701E+01  4.353054E+02 -1.061244E+05 -6.308080E+01 -3.110107E+04
       220   7  6.080065E+05 -4.877080E+04 -3.763933E+04 -1.060744E+05 -1.197230E+04 -1.395012E+04
       220   8  4.884838E+05 -7.704166E+04 -5.963479E+04 -9.028202E+04 -1.219101E+04 -2.253040E+04
       220   9  3.690285E+05 -1.053174E+05 -8.148418E+04 -1.061541E+05 -1.240735E+04 -3.110289E+04
       220  10  1.019353E+06  4.873919E+04  3.894303E+04 -1.061744E+05 -5.101055E-09 -1.909472E-10
       220  11  1.138857E+06  7.695245E+04  6.056337E+04 -9.030316E+04  9.660487E-09  6.951608E-10
       220  12  1.258431E+06  1.051646E+05  8.234508E+04 -1.060944E+05  1.901155E-08  1.032563E-09
       220  13  8.136593E+05 -1.471207E+01  6.524321E+02 -1.061244E+05  3.236657E-11 -3.470984E-11
       220  14  8.136189E+05 -4.188123E+01  4.658774E+02 -9.029270E+04  5.469385E-11  6.784446E-10
       220  15  8.136339E+05 -7.128610E+01  4.334870E+02 -1.061244E+05 -1.195577E-09  1.182685E-09
       220  16  6.080063E+05 -4.877105E+04 -3.763996E+04 -1.060745E+05  4.425307E-09  2.378920E-10
       220  17  4.884835E+05 -7.704224E+04 -5.963603E+04 -9.028224E+04 -6.844363E-09  8.960790E-10
       220  18  3.690280E+05 -1.053184E+05 -8.148629E+04 -1.061544E+05 -2.020490E-08  1.140456E-09
       220  19  1.019353E+06  4.873945E+04  3.894370E+04 -1.061745E+05 -1.276992E+04  1.395292E+04
       220  20  1.138857E+06  7.695303E+04  6.056462E+04 -9.030339E+04 -1.252871E+04  2.252994E+04
       220  21  1.258432E+06  1.051657E+05  8.234718E+04 -1.060947E+05 -1.228979E+04  3.109925E+04
       220  22  8.136593E+05 -1.450293E+01  6.527983E+02 -1.061244E+05 -3.968163E+02  1.395152E+04
       220  23  8.136190E+05 -4.133593E+01  4.668317E+02 -9.029270E+04 -1.656990E+02  2.253017E+04
       220  24  8.136342E+05 -7.024701E+01  4.353054E+02 -1.061244E+05  6.308080E+01  3.110107E+04
       220  25  6.080065E+05 -4.877080E+04 -3.763933E+04 -1.060744E+05  1.197230E+04  1.395012E+04
       220  26  4.884838E+05 -7.704166E+04 -5.963479E+04 -9.028202E+04  1.219101E+04  2.253040E+04
       220  27  3.690285E+05 -1.053174E+05 -8.148418E+04 -1.061541E+05  1.240735E+04  3.110289E+04
       221   1  1.339443E+06  1.244307E+05  9.791732E+04 -1.060790E+05  1.224912E+04 -3.609874E+04
       221   2  1.459174E+06  1.526805E+05  1.200177E+05 -9.010498E+04  1.168757E+04 -4.460441E+04
       221   3  1.579096E+06  1.809852E+05  1.425180E+05 -1.058545E+05  1.113044E+04 -5.293832E+04
       221   4  8.136364E+05 -8.960773E+01  4.712515E+02 -1.061382E+05 -1.445852E+02 -3.610200E+04
       221   5  8.135433E+05 -1.517902E+02  6.401651E+02 -9.027546E+04 -4.590438E+02 -4.461083E+04
       221   6  8.135862E+05 -2.009064E+02  1.038186E+03 -1.061382E+05 -7.689759E+02 -5.294779E+04
       221   7  2.880971E+05 -1.246256E+05 -9.698587E+04 -1.061974E+05 -1.252809E+04 -3.610526E+04
       221   8  1.683162E+05 -1.530078E+05 -1.187543E+05 -9.044575E+04 -1.259338E+04 -4.461725E+04
       221   9  4.864395E+04 -1.814203E+05 -1.404656E+05 -1.064215E+05 -1.265413E+04 -5.295724E+04
       221  10  1.339443E+06  1.244292E+05  9.791459E+04 -1.060786E+05 -1.972901E-08  1.047453E-09
       221  11  1.459173E+06  1.526784E+05  1.200137E+05 -9.010456E+04 -8.568633E-09 -3.004533E-10
       221  12  1.579095E+06  1.809821E+05  1.425125E+05 -1.058541E+05  3.059325E-09 -1.234952E-10
       221  13  8.136361E+05 -9.100784E+01  4.688012E+02 -1.061382E+05  5.659306E-10  7.953486E-10
       221  14  8.135428E+05 -1.539281E+02  6.364234E+02 -9.027548E+04 -1.321110E-09 -6.152909E-10
       221  15  8.135855E+05 -2.039182E+02  1.032914E+03 -1.061382E+05  1.654249E-09 -8.038857E-10
       221  16  2.880966E+05 -1.246271E+05 -9.698861E+04 -1.061978E+05  1.903648E-08  3.334825E-10
       221  17  1.683155E+05 -1.530100E+05 -1.187583E+05 -9.044621E+04  7.283320E-09 -1.158562E-09
       221  18  4.864302E+04 -1.814234E+05 -1.404712E+05 -1.064221E+05 -3.572402E-09 -1.039201E-09
       221  19  1.339443E+06  1.244307E+05  9.791732E+04 -1.060790E+05 -1.224912E+04  3.609874E+04
       221  20  1.459174E+06  1.526805E+05  1.200177E+05 -9.010498E+04 -1.168757E+04  4.460441E+04
       221  21  1.579096E+06  1.809852E+05  1.425180E+05 -1.058545E+05 -1.113044E+04  5.293832E+04
       221  22  8.136364E+05 -8.960773E+01  4.712515E+02 -1.061382E+05  1.445852E+02  3.610200E+04
       221  23  8.135433E+05 -1.517902E+02  6.401651E+02 -9.027546E+04  4.590438E+02  4.461083E+04
       221  24  8.135862E+05 -2.009064E+02  1.038186E+03 -1.061382E+05  7.689759E+02  5.294779E+04
       221  25  2.880971E+05 -1.246256E+05 -9.698587E+04 -1.061974E+05  1.252809E+04  3.610526E+04
       221  26  1.683162E+05 -1.530078E+05 -1.187543E+05 -9.044575E+04  1.259338E+04  4.461725E+04
       221  27  4.864395E+04 -1.814203E+05 -1.404656E+05 -1.064215E+05  1.265413E+04  5.295724E+04
       222   1  1.660517E+06  2.002906E+05  1.584474E+05 -1.056720E+05  1.138709E+04 -5.793043E+04
       222   2  1.780261E+06  2.288707E+05  1.824789E+05 -8.979935E+04  6.624466E+03 -6.524206E+04
       222   3  1.901128E+06  2.586020E+05  2.099415E+05 -1.056047E+05  1.864452E+03 -7.003899E+04
       222   4  8.136364E+05 -2.636382E+02  1.344503E+03 -1.061282E+05 -9.753294E+02 -5.794242E+04
       222   5  8.133591E+05 -2.578860E+02  2.285195E+03 -9.028787E+04 -2.107307E+03 -6.525628E+04
       222   6  8.135607E+05  2.708674E+02  4.141126E+03 -1.061285E+05 -3.235722E+03 -7.005350E+04
       222   7 -3.255049E+04 -2.008589E+05 -1.557881E+05 -1.065838E+05 -1.332136E+04 -5.795441E+04
       222   8 -1.526403E+05 -2.294402E+05 -1.779482E+05 -9.077570E+04 -1.082586E+04 -6.527051E+04
       222   9 -2.728686E+05 -2.581292E+05 -2.017116E+05 -1.066516E+05 -8.327197E+03 -7.006803E+04
       222  10  1.660516E+06  2.002870E+05  1.584409E+05 -1.056714E+05 -6.228027E-10  1.382260E-10
       222  11  1.780260E+06  2.288662E+05  1.824709E+05 -8.979901E+04  2.497815E-09  3.599656E-11
       222  12  1.901127E+06  2.585967E+05  2.099323E+05 -1.056046E+05  2.123882E-09 -1.720143E-09
       222  13  8.136355E+05 -2.672450E+02  1.338189E+03 -1.061283E+05  1.574177E-09 -4.690437E-10
       222  14  8.133579E+05 -2.624617E+02  2.277181E+03 -9.028798E+04 -4.371184E-10 -5.785855E-10
       222  15  8.135594E+05  2.655928E+02  4.131881E+03 -1.061287E+05 -1.197929E-09 -1.062098E-09
       222  16 -3.255159E+04 -2.008625E+05 -1.557947E+05 -1.065844E+05  1.320212E-09 -8.713786E-10
       222  17 -1.526416E+05 -2.294448E+05 -1.779564E+05 -9.077627E+04 -1.223362E-09  1.144461E-09
       222  18 -2.728700E+05 -2.581345E+05 -2.017210E+05 -1.066520E+05 -1.631129E-09  2.608443E-10
       222  19  1.660517E+06  2.002906E+05  1.584474E+05 -1.056720E+05 -1.138709E+04  5.793043E+04
       222  20  1.780261E+06  2.288707E+05  1.824789E+05 -8.979935E+04 -6.624466E+03  6.524206E+04
       222  21  1.901128E+06  2.586020E+05  2.099415E+05 -1.056047E+05 -1.864452E+03  7.003899E+04
       222  22  8.136364E+05 -2.636382E+02  1.344503E+03 -1.061282E+05  9.753294E+02  5.794242E+04
       222  23  8.133591E+05 -2.578860E+02  2.285195E+03 -9.028787E+04  2.107307E+03  6.525628E+04
       222  24  8.135607E+05  2.708674E+02  4.141126E+03 -1.061285E+05  3.235722E+03  7.005350E+04
       222  25 -3.255049E+04 -2.008589E+05 -1.557881E+05 -1.065838E+05  1.332136E+04  5.795441E+04
       222  26 -1.526403E+05 -2.294402E+05 -1.779482E+05 -9.077570E+04  1.082586E+04  6.527051E+04
       222  27 -2.728686E+05 -2.581292E+05 -2.017116E+05 -1.066516E+05  8.327197E+03  7.006803E+04
       223   1  1.985012E+06  2.777130E+05  2.274888E+05 -1.031265E+05  7.460140E+03 -7.475386E+04
       223   2  2.099780E+06  3.114649E+05  2.700246E+05 -9.406073E+04 -4.858673E+04 -6.503320E+04
       223   3  2.227444E+06  3.663088E+05  3.543125E+05 -1.147480E+05 -1.047120E+05 -1.995246E+04
       223   4  8.143190E+05 -4.718701E+02  5.379261E+03 -1.056956E+05 -3.943490E+03 -7.477679E+04
       223   5  8.122406E+05  2.319135E+03  9.595242E+03 -9.083026E+04 -8.916230E+03 -6.499399E+04
       223   6  8.142148E+05  1.737366E+04  2.017637E+04 -1.057176E+05 -1.395435E+04 -1.981879E+04
       223   7 -3.550558E+05 -2.787367E+05 -2.167910E+05 -1.082600E+05 -1.532618E+04 -7.479966E+04
       223   8 -4.737209E+05 -3.069284E+05 -2.509140E+05 -8.760697E+04  3.067380E+04 -6.495433E+04
       223   9 -5.971668E+05 -3.316996E+05 -3.140671E+05 -9.670841E+04  7.659843E+04 -1.968235E+04
       223  10  1.985011E+06  2.777070E+05  2.274782E+05 -1.031261E+05  5.227299E-10 -3.254208E-09
       223  11  2.099776E+06  3.114597E+05  2.700122E+05 -9.406327E+04  8.352305E-10 -4.750006E-09
       223  12  2.227433E+06  3.663054E+05  3.542912E+05 -1.147497E+05 -2.361258E-09 -1.565321E-09
       223  13  8.143175E+05 -4.778809E+02  5.368720E+03 -1.056958E+05  2.223134E-10 -5.665889E-09
       223  14  8.122393E+05  2.314576E+03  9.587151E+03 -9.083072E+04 -1.532851E-11  2.030494E-09
       223  15  8.142145E+05  1.737318E+04  2.017527E+04 -1.057179E+05 -6.821205E-10 -4.706579E-10
       223  16 -3.550575E+05 -2.787428E+05 -2.168019E+05 -1.082609E+05 -3.728448E-10 -8.525797E-10
       223  17 -4.737230E+05 -3.069332E+05 -2.509237E+05 -8.760537E+04 -7.811970E-10  1.176316E-09
       223  18 -5.971732E+05 -3.317016E+05 -3.140789E+05 -9.670719E+04  2.663497E-09 -1.950438E-09
       223  19  1.985012E+06  2.777130E+05  2.274888E+05 -1.031265E+05 -7.460140E+03  7.475386E+04
       223  20  2.099780E+06  3.114649E+05  2.700246E+05 -9.406073E+04  4.858673E+04  6.503320E+04
       223  21  2.227444E+06  3.663088E+05  3.543125E+05 -1.147480E+05  1.047120E+05  1.995246E+04
       223  22  8.143190E+05 -4.718701E+02  5.379261E+03 -1.056956E+05  3.943490E+03  7.477679E+04
       223  23  8.122406E+05  2.319135E+03  9.595242E+03 -9.083026E+04  8.916230E+03  6.499399E+04
       223  24  8.142148E+05  1.737366E+04  2.017637E+04 -1.057176E+05  1.395435E+04  1.981879E+04
       223  25 -3.550558E+05 -2.787367E+05 -2.167910E+05 -1.082600E+05  1.532618E+04  7.479966E+04
       223  26 -4.737209E+05 -3.069284E+05 -2.509140E+05 -8.760697E+04 -3.067380E+04  6.495433E+04
       223  27 -5.971668E+05 -3.316996E+05 -3.140671E+05 -9.670841E+04 -7.659843E+04  1.968235E+04
       224   1  5.268749E+05  2.089100E+06  5.122516E+05 -4.545485E+05  2.295794E+04  1.239507E+05
       224   2  3.705359E+05  1.587888E+06  3.301129E+05 -3.813158E+05  6.869590E+04  3.917606E+04
       224   3  2.471217E+05  1.106025E+06  2.112592E+05 -4.347166E+05  6.162186E+04 -4.559309E+04
       224   4  2.880408E+04  7.709892E+04  3.162128E+04 -4.352118E+05  2.316196E+04  2.001929E+04
       224   5  5.387127E+03  7.436090E+04  1.658461E+04 -3.719171E+05  6.876882E+04  1.153954E+04
       224   6  1.733276E+03  7.757329E+04  1.199108E+04 -4.352658E+05  6.150770E+04  2.996920E+03
       224   7 -4.695525E+05 -1.931176E+06 -4.492535E+05 -4.159350E+05  2.335995E+04 -8.357772E+04
       224   8 -3.599062E+05 -1.436998E+06 -2.970655E+05 -3.625399E+05  6.884101E+04 -1.603091E+04
       224   9 -2.437170E+05 -9.498581E+05 -1.873179E+05 -4.358132E+05  6.139332E+04  5.150835E+04
       224  10  5.268702E+05  2.089083E+06  5.122218E+05 -4.545508E+05  2.463821E-10  2.431324E-09
       224  11  3.705304E+05  1.587885E+06  3.301012E+05 -3.813180E+05  6.515637E-11 -9.297258E-10
       224  12  2.471171E+05  1.106021E+06  2.112482E+05 -4.347144E+05 -1.040344E-09 -4.857911E-09
       224  13  2.880340E+04  7.709834E+04  3.161952E+04 -4.352122E+05  4.708513E-10 -2.868878E-11
       224  14  5.382012E+03  7.435948E+04  1.657547E+04 -3.719177E+05  8.166257E-10  1.618215E-09
       224  15  1.729211E+03  7.757227E+04  1.198395E+04 -4.352660E+05  1.752731E-10 -2.473809E-10
       224  16 -4.695549E+05 -1.931183E+06 -4.492677E+05 -4.159334E+05  5.173225E-10 -1.159523E-09
       224  17 -3.599113E+05 -1.436999E+06 -2.970749E+05 -3.625390E+05  2.437066E-09  1.934967E-09
       224  18 -2.437217E+05 -9.498619E+05 -1.873300E+05 -4.358157E+05 -1.386837E-10  5.508305E-09
       224  19  5.268749E+05  2.089100E+06  5.122516E+05 -4.545485E+05 -2.295794E+04 -1.239507E+05
       224  20  3.705359E+05  1.587888E+06  3.301129E+05 -3.813158E+05 -6.869590E+04 -3.917606E+04
       224  21  2.471217E+05  1.106025E+06  2.112592E+05 -4.347166E+05 -6.162186E+04  4.559309E+04
       224  22  2.880408E+04  7.709892E+04  3.162128E+04 -4.352118E+05 -2.316196E+04 -2.001929E+04
       224  23  5.387127E+03  7.436090E+04  1.658461E+04 -3.719171E+05 -6.876882E+04 -1.153954E+04
       224  24  1.733276E+03  7.757329E+04  1.199108E+04 -4.352658E+05 -6.150770E+04 -2.996920E+03
       224  25 -4.695525E+05 -1.931176E+06 -4.492535E+05 -4.159350E+05 -2.335995E+04  8.357772E+04
       224  26 -3.599062E+05 -1.436998E+06 -2.970655E+05 -3.625399E+05 -6.884101E+04  1.603091E+04
       224  27 -2.437170E+05 -9.498581E+05 -1.873179E+05 -4.358132E+05 -6.139332E+04 -5.150835E+04
       225   1  1.683858E+05  7.702349E+05  1.458046E+05 -4.380629E+05  4.157594E+04 -3.863015E+04
       225   2  5.012551E+04  2.787351E+05  5.035762E+04 -3.713678E+05  1.369105E+04 -4.589250E+04
       225   3 -6.448240E+04 -2.112534E+05 -3.962118E+04 -4.342837E+05 -1.489809E+04 -5.315584E+04
       225   4  2.834797E+03  7.660951E+04  1.136521E+04 -4.359179E+05  4.147515E+04  1.072083E+03
       225   5  2.019077E+03  7.609027E+04  1.242641E+04 -3.711094E+05  1.358461E+04 -5.187422E+03
       225   6  4.693698E+03  7.667373E+04  1.826079E+04 -4.359132E+05 -1.501087E+04 -1.145337E+04
       225   7 -1.627440E+05 -6.165507E+05 -1.230909E+05 -4.337748E+05  4.137456E+04  4.073100E+04
       225   8 -4.608885E+04 -1.265113E+05 -2.550035E+04 -3.708511E+05  1.347818E+04  3.550470E+04
       225   9  7.386562E+04  3.646837E+05  7.614507E+04 -4.375435E+05 -1.512384E+04  3.026806E+04
       225  10  1.683835E+05  7.702328E+05  1.457986E+05 -4.380616E+05 -6.825812E-10  1.069510E-09
       225  11  5.012475E+04  2.787328E+05  5.035331E+04 -3.713673E+05  1.357530E-09 -1.432464E-09
       225  12 -6.448340E+04 -2.112565E+05 -3.962691E+04 -4.342843E+05  4.569247E-10 -3.198255E-09
       225  13  2.832949E+03  7.660905E+04  1.136198E+04 -4.359179E+05 -6.308876E-10 -8.885502E-12
       225  14  2.018871E+03  7.609020E+04  1.242601E+04 -3.711094E+05  9.234278E-10  2.179326E-09
       225  15  4.693421E+03  7.667353E+04  1.826012E+04 -4.359134E+05 -1.518251E-09 -2.714515E-10
       225  16 -1.627463E+05 -6.165529E+05 -1.230972E+05 -4.337762E+05 -6.726852E-10  1.059542E-09
       225  17 -4.608938E+04 -1.265127E+05 -2.550306E+04 -3.708515E+05  1.450735E-09  1.985686E-09
       225  18  7.386513E+04  3.646826E+05  7.614292E+04 -4.375431E+05 -5.314107E-10  3.959168E-09
       225  19  1.683858E+05  7.702349E+05  1.458046E+05 -4.380629E+05 -4.157594E+04  3.863015E+04
       225  20  5.012551E+04  2.787351E+05  5.035762E+04 -3.713678E+05 -1.369105E+04  4.589250E+04
       225  21 -6.448240E+04 -2.112534E+05 -3.962118E+04 -4.342837E+05  1.489809E+04  5.315584E+04
       225  22  2.834797E+03  7.660951E+04  1.136521E+04 -4.359179E+05 -4.147515E+04 -1.072083E+03
       225  23  2.019077E+03  7.609027E+04  1.242641E+04 -3.711094E+05 -1.358461E+04  5.187422E+03
       225  24  4.693698E+03  7.667373E+04  1.826079E+04 -4.359132E+05  1.501087E+04  1.145337E+04
       225  25 -1.627440E+05 -6.165507E+05 -1.230909E+05 -4.337748E+05 -4.137456E+04 -4.073100E+04
       225  26 -4.608885E+04 -1.265113E+05 -2.550035E+04 -3.708511E+05 -1.347818E+04 -3.550470E+04
       225  27  7.386562E+04  3.646837E+05  7.614507E+04 -4.375435E+05  1.512384E+04 -3.026806E+04
       226   1 -1.469788E+05 -5.423692E+05 -9.990423E+04 -4.405874E+05 -3.499240E+04 -6.328944E+04
       226   2 -2.555795E+05 -1.034953E+06 -1.937149E+05 -3.522095E+05 -4.747327E+04 -2.157934E+04
       226   3 -3.262227E+05 -1.523553E+06 -3.053129E+05 -3.911007E+05 -1.700216E+04  2.016264E+04
       226   4  1.923845E+03  7.958110E+04  2.265000E+04 -4.354096E+05 -3.511981E+04 -1.461840E+04
       226   5  1.255862E+04  7.217928E+04  3.868963E+04 -3.717158E+05 -4.743497E+04 -3.470536E+04
       226   6  7.185255E+04  7.923158E+04  7.986039E+04 -4.352580E+05 -1.683638E+04 -5.472748E+04
       226   7  1.508044E+05  7.019072E+05  1.451943E+05 -4.302261E+05 -3.524631E+04  3.410040E+04
       226   8  2.806194E+05  1.180472E+06  2.710265E+05 -3.912565E+05 -4.739590E+04 -4.785440E+04
       226   9  4.697507E+05  1.684387E+06  4.648731E+05 -4.795280E+05 -1.666020E+04 -1.298104E+05
       226  10 -1.469812E+05 -5.423739E+05 -9.991407E+04 -4.405892E+05  2.953808E-10  3.191469E-09
       226  11 -2.555820E+05 -1.034954E+06 -1.937200E+05 -3.522103E+05  2.858538E-09  2.536378E-10
       226  12 -3.262231E+05 -1.523553E+06 -3.053142E+05 -3.911005E+05  6.926099E-10 -2.715350E-09
       226  13  1.922463E+03  7.958054E+04  2.264727E+04 -4.354100E+05  8.422431E-10 -5.854754E-11
       226  14  1.255588E+04  7.217738E+04  3.868313E+04 -3.717171E+05 -1.274813E-09  1.819742E-09
       226  15  7.185144E+04  7.922828E+04  7.985423E+04 -4.352588E+05  1.076699E-09 -2.116888E-10
       226  16  1.508028E+05  7.019056E+05  1.451898E+05 -4.302251E+05 -1.363039E-09 -1.006681E-09
       226  17  2.806163E+05  1.180469E+06  2.710180E+05 -3.912584E+05  2.332051E-09  2.377571E-10
       226  18  4.697459E+05  1.684369E+06  4.648409E+05 -4.795297E+05  1.292912E-09  3.064439E-09
       226  19 -1.469788E+05 -5.423692E+05 -9.990423E+04 -4.405874E+05  3.499240E+04  6.328944E+04
       226  20 -2.555795E+05 -1.034953E+06 -1.937149E+05 -3.522095E+05  4.747327E+04  2.157934E+04
       226  21 -3.262227E+05 -1.523553E+06 -3.053129E+05 -3.911007E+05  1.700216E+04 -2.016264E+04
       226  22  1.923845E+03  7.958110E+04  2.265000E+04 -4.354096E+05  3.511981E+04  1.461840E+04
       226  23  1.255862E+04  7.217928E+04  3.868963E+04 -3.717158E+05  4.743497E+04  3.470536E+04
       226  24  7.185255E+04  7.923158E+04  7.986039E+04 -4.352580E+05  1.683638E+04  5.472748E+04
       226  25  1.508044E+05  7.019072E+05  1.451943E+05 -4.302261E+05  3.524631E+04 -3.410040E+04
       226  26  2.806194E+05  1.180472E+06  2.710265E+05 -3.912565E+05  4.739590E+04  4.785440E+04
       226  27  4.697507E+05  1.684387E+06  4.648731E+05 -4.795280E+05  1.666020E+04  1.298104E+05
       227   1 -1.413895E+06 -6.221099E+05 -3.590708E+05 -5.658015E+05 -1.580839E+05 -4.730174E+04
       227   2 -1.336094E+06 -4.276523E+05 -2.187439E+05 -5.330052E+05 -9.911607E+04  1.541768E+03
       227   3 -1.289195E+06 -3.538198E+05 -1.571217E+05 -4.946064E+05 -3.249127E+04  3.007420E+04
       227   4 -7.445886E+05 -2.930129E+05 -1.693634E+05 -3.031992E+05 -1.130235E+05 -3.038424E+04
       227   5 -7.224848E+05 -1.693180E+05 -7.683018E+04 -3.308220E+05 -8.136021E+04  8.205830E+03
       227   6 -7.258222E+05 -1.607773E+05 -4.128782E+04 -3.528600E+05 -4.205300E+04  2.647951E+04
       227   7 -7.483281E+04  3.621282E+04  2.030911E+04 -4.031033E+04 -6.791050E+04 -1.343273E+04
       227   8 -1.084917E+05  8.907802E+04  6.505925E+04 -1.284441E+05 -6.358541E+04  1.487932E+04
       227   9 -1.621221E+05  3.228239E+04  7.453072E+04 -2.109985E+05 -5.162415E+04  2.288183E+04
       227  10 -1.413922E+06 -6.221191E+05 -3.591221E+05 -5.658075E+05 -2.032862E-08 -8.214108E-09
       227  11 -1.336105E+06 -4.276549E+05 -2.187624E+05 -5.330051E+05 -4.960907E-09 -2.671062E-09
       227  12 -1.289196E+06 -3.538210E+05 -1.571253E+05 -4.946056E+05  1.777086E-08  7.013898E-09
       227  13 -7.446026E+05 -2.930174E+05 -1.693892E+05 -3.032019E+05 -3.039178E-09 -1.272916E-09
       227  14 -7.224920E+05 -1.693198E+05 -7.684276E+04 -3.308214E+05 -5.843917E-09 -3.077566E-09
       227  15 -7.258243E+05 -1.607786E+05 -4.129246E+04 -3.528591E+05 -1.407800E-09 -2.028562E-09
       227  16 -7.483781E+04  3.621139E+04  2.030010E+04 -4.031107E+04  1.623205E-08  5.676445E-09
       227  17 -1.084962E+05  8.907669E+04  6.505123E+04 -1.284433E+05 -5.213157E-09 -3.594232E-09
       227  18 -1.621251E+05  3.228111E+04  7.452473E+04 -2.109975E+05 -2.209629E-08 -8.867468E-09
       227  19 -1.413895E+06 -6.221099E+05 -3.590708E+05 -5.658015E+05  1.580839E+05  4.730174E+04
       227  20 -1.336094E+06 -4.276523E+05 -2.187439E+05 -5.330052E+05  9.911607E+04 -1.541768E+03
       227  21 -1.289195E+06 -3.538198E+05 -1.571217E+05 -4.946064E+05  3.249127E+04 -3.007420E+04
       227  22 -7.445886E+05 -2.930129E+05 -1.693634E+05 -3.031992E+05  1.130235E+05  3.038424E+04
       227  23 -7.224848E+05 -1.693180E+05 -7.683018E+04 -3.308220E+05  8.136021E+04 -8.205830E+03
       227  24 -7.258222E+05 -1.607773E+05 -4.128782E+04 -3.528600E+05  4.205300E+04 -2.647951E+04
       227  25 -7.483281E+04  3.621282E+04  2.030911E+04 -4.031033E+04  6.791050E+04  1.343273E+04
       227  26 -1.084917E+05  8.907802E+04  6.505925E+04 -1.284441E+05  6.358541E+04 -1.487932E+04
       227  27 -1.621221E+05  3.228239E+04  7.453072E+04 -2.109985E+05  5.162415E+04 -2.288183E+04
       228   1 -1.212670E+06 -3.488199E+05 -1.349242E+05 -4.864478E+05 -3.047741E+04  2.626018E+04
       228   2 -1.134714E+06 -3.024319E+05 -1.007486E+05 -4.528201E+05 -1.862655E+04  2.552095E+04
       228   3 -1.042112E+06 -2.783699E+05 -7.535265E+04 -4.386097E+05 -6.293742E+03  2.349637E+04
       228   4 -7.205738E+05 -1.665615E+05 -3.167449E+04 -3.484559E+05 -3.574648E+04  2.427856E+04
       228   5 -7.276851E+05 -1.529701E+05 -1.673024E+04 -3.397162E+05 -2.561940E+04  2.289355E+04
       228   6 -7.198134E+05 -1.613604E+05 -9.192810E+03 -3.503964E+05 -1.501195E+04  2.022307E+04
       228   7 -2.282328E+05  1.571681E+04  7.156110E+04 -2.103636E+05 -4.102002E+04  2.229523E+04
       228   8 -3.204859E+05 -3.494173E+03  6.727963E+04 -2.265438E+05 -3.261719E+04  2.026429E+04
       228   9 -3.974052E+05 -4.434151E+04  5.696267E+04 -2.621402E+05 -2.373511E+04  1.694794E+04
       228  10 -1.212672E+06 -3.488208E+05 -1.349273E+05 -4.864472E+05  2.168529E-09  1.368493E-09
       228  11 -1.134715E+06 -3.024327E+05 -1.007504E+05 -4.528197E+05 -1.083888E-09  1.699141E-09
       228  12 -1.042112E+06 -2.783705E+05 -7.535376E+04 -4.386096E+05  2.267913E-09  1.897804E-09
       228  13 -7.205753E+05 -1.665625E+05 -3.167800E+04 -3.484552E+05 -1.574822E-09  1.701338E-09
       228  14 -7.276860E+05 -1.529709E+05 -1.673246E+04 -3.397157E+05  7.449575E-11 -2.080205E-10
       228  15 -7.198137E+05 -1.613609E+05 -9.194002E+03 -3.503961E+05  6.134137E-09  2.473826E-09
       228  16 -2.282348E+05  1.571583E+04  7.155701E+04 -2.103629E+05 -3.957321E-09 -1.401882E-09
       228  17 -3.204871E+05 -3.494899E+03  6.727686E+04 -2.265432E+05 -1.205665E-09 -1.910058E-10
       228  18 -3.974059E+05 -4.434197E+04  5.696108E+04 -2.621399E+05  6.901743E-09  2.856837E-09
       228  19 -1.212670E+06 -3.488199E+05 -1.349242E+05 -4.864478E+05  3.047741E+04 -2.626018E+04
       228  20 -1.134714E+06 -3.024319E+05 -1.007486E+05 -4.528201E+05  1.862655E+04 -2.552095E+04
       228  21 -1.042112E+06 -2.783699E+05 -7.535265E+04 -4.386097E+05  6.293742E+03 -2.349637E+04
       228  22 -7.205738E+05 -1.665615E+05 -3.167449E+04 -3.484559E+05  3.574648E+04 -2.427856E+04
       228  23 -7.276851E+05 -1.529701E+05 -1.673024E+04 -3.397162E+05  2.561940E+04 -2.289355E+04
       228  24 -7.198134E+05 -1.613604E+05 -9.192810E+03 -3.503964E+05  1.501195E+04 -2.022307E+04
       228  25 -2.282328E+05  1.571681E+04  7.156110E+04 -2.103636E+05  4.102002E+04 -2.229523E+04
       228  26 -3.204859E+05 -3.494173E+03  6.727963E+04 -2.265438E+05  3.261719E+04 -2.026429E+04
       228  27 -3.974052E+05 -4.434151E+04  5.696267E+04 -2.621402E+05  2.373511E+04 -1.694794E+04
       229   1 -9.817436E+05 -2.572778E+05 -6.042284E+04 -4.225365E+05 -3.854133E+03  2.012043E+04
       229   2 -9.042866E+05 -2.168191E+05 -3.984988E+04 -3.886053E+05  5.342932E+02  1.455793E+04
       229   3 -8.094340E+05 -1.943167E+05 -2.083031E+04 -3.749878E+05  4.953075E+03  8.911755E+03
       229   4 -7.194260E+05 -1.615967E+05 -6.927405E+03 -3.501654E+05 -1.230783E+04  1.694720E+04
       229   5 -7.281164E+05 -1.525647E+05 -3.819536E+03 -3.400293E+05 -8.031618E+03  1.134341E+04
       229   6 -7.193965E+05 -1.614666E+05 -2.175534E+03 -3.502093E+05 -3.725367E+03  5.655865E+03
       229   7 -4.570375E+05 -6.590986E+04  4.656482E+04 -2.777661E+05 -2.076538E+04  1.377254E+04
       229   8 -5.519148E+05 -8.830787E+04  3.220933E+04 -2.914408E+05 -1.660011E+04  8.127923E+03
       229   9 -6.293513E+05 -1.286160E+05  1.647894E+04 -3.254276E+05 -1.240510E+04  2.399496E+03
       229  10 -9.817437E+05 -2.572782E+05 -6.042362E+04 -4.225364E+05  7.613589E-09  3.349586E-09
       229  11 -9.042866E+05 -2.168194E+05 -3.985028E+04 -3.886053E+05  1.558869E-09  4.307851E-10
       229  12 -8.094340E+05 -1.943168E+05 -2.083051E+04 -3.749878E+05  1.215125E-09 -6.707062E-11
       229  13 -7.194262E+05 -1.615971E+05 -6.928229E+03 -3.501652E+05  5.228807E-09  1.931557E-09
       229  14 -7.281165E+05 -1.525648E+05 -3.819898E+03 -3.400293E+05 -6.218150E-11  6.204620E-10
       229  15 -7.193965E+05 -1.614666E+05 -2.175620E+03 -3.502093E+05 -3.956643E-10 -3.468086E-10
       229  16 -4.570380E+05 -6.591018E+04  4.656365E+04 -2.777659E+05  1.868935E-09  1.302199E-09
       229  17 -5.519152E+05 -8.830801E+04  3.220869E+04 -2.914407E+05 -2.945246E-09  2.205623E-10
       229  18 -6.293515E+05 -1.286160E+05  1.647864E+04 -3.254275E+05 -2.035819E-09 -2.545150E-10
       229  19 -9.817436E+05 -2.572778E+05 -6.042284E+04 -4.225365E+05  3.854133E+03 -2.012043E+04
       229  20 -9.042866E+05 -2.168191E+05 -3.984988E+04 -3.886053E+05 -5.342932E+02 -1.455793E+04
       229  21 -8.094340E+05 -1.943167E+05 -2.083031E+04 -3.749878E+05 -4.953075E+03 -8.911755E+03
       229  22 -7.194260E+05 -1.615967E+05 -6.927405E+03 -3.501654E+05  1.230783E+04 -1.694720E+04
       229  23 -7.281164E+05 -1.525647E+05 -3.819536E+03 -3.400293E+05  8.031618E+03 -1.134341E+04
       229  24 -7.193965E+05 -1.614666E+05 -2.175534E+03 -3.502093E+05  3.725367E+03 -5.655865E+03
       229  25 -4.570375E+05 -6.590986E+04  4.656482E+04 -2.777661E+05  2.076538E+04 -1.377254E+04
       229  26 -5.519148E+05 -8.830787E+04  3.220933E+04 -2.914408E+05  1.660011E+04 -8.127923E+03
       229  27 -6.293513E+05 -1.286160E+05  1.647894E+04 -3.254276E+05  1.240510E+04 -2.399496E+03
       230   1 -7.498309E+05 -1.724974E+05 -7.660706E+03 -3.585610E+05  6.665586E+03  5.276021E+03
       230   2 -6.724868E+05 -1.321969E+05  1.028060E+04 -3.245598E+05  9.635784E+03 -9.489106E+02
       230   3 -5.774798E+05 -1.096437E+05  2.780601E+04 -3.108691E+05  1.260770E+04 -7.177226E+03
       230   4 -7.193478E+05 -1.614740E+05 -1.691352E+03 -3.501900E+05 -1.997527E+03  2.026052E+03
       230   5 -7.281781E+05 -1.526114E+05 -1.106638E+03 -3.400292E+05  9.673277E+02 -4.201178E+03
       230   6 -7.193538E+05 -1.614967E+05 -9.341906E+02 -3.501827E+05  3.933809E+03 -1.043179E+04
       230   7 -6.888633E+05 -1.504503E+05  4.278350E+03 -3.418185E+05 -1.066117E+04 -1.224112E+03
       230   8 -7.838662E+05 -1.730256E+05 -1.249377E+04 -3.554974E+05 -7.700327E+03 -7.453143E+03
       230   9 -8.612070E+05 -2.133480E+05 -2.967508E+04 -3.894880E+05 -4.737956E+03 -1.368556E+04
       230  10 -7.498310E+05 -1.724975E+05 -7.660842E+03 -3.585610E+05  1.116297E-09  1.296009E-10
       230  11 -6.724869E+05 -1.321969E+05  1.028042E+04 -3.245598E+05 -1.069740E-09  8.389468E-11
       230  12 -5.774800E+05 -1.096438E+05  2.780561E+04 -3.108690E+05  9.235788E-10  8.869082E-10
       230  13 -7.193478E+05 -1.614740E+05 -1.691367E+03 -3.501900E+05 -9.619395E-10 -4.833828E-10
       230  14 -7.281781E+05 -1.526114E+05 -1.106673E+03 -3.400292E+05  4.292915E-10 -9.741352E-10
       230  15 -7.193539E+05 -1.614969E+05 -9.344241E+02 -3.501826E+05 -2.787655E-10 -3.004971E-10
       230  16 -6.888634E+05 -1.504503E+05  4.278133E+03 -3.418185E+05 -1.438502E-09 -1.281843E-09
       230  17 -7.838663E+05 -1.730257E+05 -1.249399E+04 -3.554974E+05 -8.935345E-10 -1.333572E-09
       230  18 -8.612070E+05 -2.133482E+05 -2.967548E+04 -3.894880E+05 -1.390224E-09 -1.228311E-09
       230  19 -7.498309E+05 -1.724974E+05 -7.660706E+03 -3.585610E+05 -6.665586E+03 -5.276021E+03
       230  20 -6.724868E+05 -1.321969E+05  1.028060E+04 -3.245598E+05 -9.635784E+03  9.489106E+02
       230  21 -5.774798E+05 -1.096437E+05  2.780601E+04 -3.108691E+05 -1.260770E+04  7.177226E+03
       230  22 -7.193478E+05 -1.614740E+05 -1.691352E+03 -3.501900E+05  1.997527E+03 -2.026052E+03
       230  23 -7.281781E+05 -1.526114E+05 -1.106638E+03 -3.400292E+05 -9.673277E+02  4.201178E+03
       230  24 -7.193538E+05 -1.614967E+05 -9.341906E+02 -3.501827E+05 -3.933809E+03  1.043179E+04
       230  25 -6.888633E+05 -1.504503E+05  4.278350E+03 -3.418185E+05  1.066117E+04  1.224112E+03
       230  26 -7.838662E+05 -1.730256E+05 -1.249377E+04 -3.554974E+05  7.700327E+03  7.453143E+03
       230  27 -8.612070E+05 -2.133480E+05 -2.967508E+04 -3.894880E+05  4.737956E+03  1.368556E+04
       231   1 -5.179822E+05 -8.780102E+04  4.044613E+04 -2.944284E+05  1.417027E+04 -1.086559E+04
       231   2 -4.407380E+05 -4.754003E+04  5.742118E+04 -2.604556E+05  1.722712E+04 -1.705367E+04
       231   3 -3.458504E+05 -2.500520E+04  7.391889E+04 -2.467640E+05  2.028131E+04 -2.322909E+04
       231   4 -7.193642E+05 -1.614966E+05 -9.720886E+02 -3.501768E+05  5.499026E+03 -1.411964E+04
       231   5 -7.281902E+05 -1.526433E+05 -1.323947E+03 -3.400336E+05  8.571502E+03 -2.030319E+04
       231   6 -7.193832E+05 -1.615201E+05 -2.165472E+03 -3.501749E+05  1.164123E+04 -2.647413E+04
       231   7 -9.207027E+05 -2.351882E+05 -4.239165E+04 -4.059081E+05 -3.169123E+03 -1.737252E+04
       231   8 -1.015557E+06 -2.577395E+05 -6.007297E+04 -4.195775E+05 -7.980102E+01 -2.355110E+04
       231   9 -1.092775E+06 -2.980243E+05 -7.825738E+04 -4.535292E+05  3.006681E+03 -2.971710E+04
       231  10 -5.179824E+05 -8.780120E+04  4.044553E+04 -2.944283E+05  1.908483E-08  8.129454E-09
       231  11 -4.407384E+05 -4.754042E+04  5.742008E+04 -2.604554E+05  1.277422E-08  7.669223E-09
       231  12 -3.458510E+05 -2.500589E+04  7.391710E+04 -2.467636E+05 -4.550449E-10  1.516540E-09
       231  13 -7.193642E+05 -1.614969E+05 -9.725199E+02 -3.501768E+05  2.283928E-09  1.557828E-09
       231  14 -7.281904E+05 -1.526438E+05 -1.324860E+03 -3.400335E+05  3.754711E-09  3.614611E-09
       231  15 -7.193836E+05 -1.615209E+05 -2.167043E+03 -3.501747E+05 -2.090999E-09  2.965111E-09
       231  16 -9.207028E+05 -2.351885E+05 -4.239224E+04 -4.059081E+05 -1.414689E-08 -5.200586E-09
       231  17 -1.015557E+06 -2.577401E+05 -6.007402E+04 -4.195775E+05 -4.815753E-09  9.934621E-10
       231  18 -1.092775E+06 -2.980252E+05 -7.825906E+04 -4.535291E+05  1.111948E-10  3.199269E-09
       231  19 -5.179822E+05 -8.780102E+04  4.044613E+04 -2.944284E+05 -1.417027E+04  1.086559E+04
       231  20 -4.407380E+05 -4.754003E+04  5.742118E+04 -2.604556E+05 -1.722712E+04  1.705367E+04
       231  21 -3.458504E+05 -2.500520E+04  7.391889E+04 -2.467640E+05 -2.028131E+04  2.322909E+04
       231  22 -7.193642E+05 -1.614966E+05 -9.720886E+02 -3.501768E+05 -5.499026E+03  1.411964E+04
       231  23 -7.281902E+05 -1.526433E+05 -1.323947E+03 -3.400336E+05 -8.571502E+03  2.030319E+04
       231  24 -7.193832E+05 -1.615201E+05 -2.165472E+03 -3.501749E+05 -1.164123E+04  2.647413E+04
       231  25 -9.207027E+05 -2.351882E+05 -4.239165E+04 -4.059081E+05  3.169123E+03  1.737252E+04
       231  26 -1.015557E+06 -2.577395E+05 -6.007297E+04 -4.195775E+05  7.980102E+01  2.355110E+04
       231  27 -1.092775E+06 -2.980243E+05 -7.825738E+04 -4.535292E+05 -3.006681E+03  2.971710E+04
       232   1 -2.865172E+05 -3.216083E+03  8.590675E+04 -2.303916E+05  2.211716E+04 -2.680628E+04
       232   2 -2.093817E+05  3.696040E+04  1.010110E+05 -1.964864E+05  2.685219E+04 -3.228463E+04
       232   3 -1.149198E+05  5.923434E+04  1.143267E+05 -1.828035E+05  3.154359E+04 -3.763638E+04
       232   4 -7.194631E+05 -1.615102E+05 -2.826808E+03 -3.501878E+05  1.346046E+04 -3.005870E+04
       232   5 -7.281380E+05 -1.526501E+05 -5.039623E+03 -3.400410E+05  1.836257E+04 -3.547672E+04
       232   6 -7.195265E+05 -1.617276E+05 -9.174263E+03 -3.501206E+05  2.322066E+04 -4.076818E+04
       232   7 -1.152216E+06 -3.197885E+05 -9.156965E+04 -4.699068E+05  4.810258E+03 -3.330869E+04
       232   8 -1.246615E+06 -3.422370E+05 -1.111031E+05 -4.834841E+05  9.880613E+03 -3.866593E+04
       232   9 -1.323752E+06 -3.826567E+05 -1.326922E+05 -5.172861E+05  1.490651E+04 -4.389669E+04
       232  10 -2.865179E+05 -3.216986E+03  8.590448E+04 -2.303911E+05 -2.137240E-08 -7.196797E-09
       232  11 -2.093827E+05  3.695908E+04  1.010077E+05 -1.964857E+05 -8.988005E-09 -3.608349E-09
       232  12 -1.149212E+05  5.923255E+04  1.143221E+05 -1.828025E+05  1.885157E-09  9.376557E-10
       232  13 -7.194635E+05 -1.615113E+05 -2.828845E+03 -3.501875E+05 -3.398788E-09  7.412157E-10
       232  14 -7.281387E+05 -1.526515E+05 -5.042620E+03 -3.400404E+05 -4.386359E-11 -3.417570E-10
       232  15 -7.195275E+05 -1.617295E+05 -9.178398E+03 -3.501199E+05  2.370349E-09 -2.816252E-09
       232  16 -1.152216E+06 -3.197897E+05 -9.157178E+04 -4.699066E+05  1.753091E-08  8.709644E-09
       232  17 -1.246616E+06 -3.422386E+05 -1.111060E+05 -4.834838E+05  9.760445E-09  2.387570E-09
       232  18 -1.323753E+06 -3.826588E+05 -1.326962E+05 -5.172856E+05 -1.709278E-09 -1.680481E-09
       232  19 -2.865172E+05 -3.216083E+03  8.590675E+04 -2.303916E+05 -2.211716E+04  2.680628E+04
       232  20 -2.093817E+05  3.696040E+04  1.010110E+05 -1.964864E+05 -2.685219E+04  3.228463E+04
       232  21 -1.149198E+05  5.923434E+04  1.143267E+05 -1.828035E+05 -3.154359E+04  3.763638E+04
       232  22 -7.194631E+05 -1.615102E+05 -2.826808E+03 -3.501878E+05 -1.346046E+04  3.005870E+04
       232  23 -7.281380E+05 -1.526501E+05 -5.039623E+03 -3.400410E+05 -1.836257E+04  3.547672E+04
       232  24 -7.195265E+05 -1.617276E+05 -9.174263E+03 -3.501206E+05 -2.322066E+04  4.076818E+04
       232  25 -1.152216E+06 -3.197885E+05 -9.156965E+04 -4.699068E+05 -4.810258E+03  3.330869E+04
       232  26 -1.246615E+06 -3.422370E+05 -1.111031E+05 -4.834841E+05 -9.880613E+03  3.866593E+04
       232  27 -1.323752E+06 -3.826567E+05 -1.326922E+05 -5.172861E+05 -1.490651E+04  4.389669E+04
       233   1 -5.556149E+04  8.064461E+04  1.239130E+05 -1.674590E+05  3.504678E+04 -4.059574E+04
       233   2  2.068951E+04  1.214866E+05  1.318869E+05 -1.314861E+05  4.578843E+04 -4.285658E+04
       233   3  1.114950E+05  1.395815E+05  1.320459E+05 -1.144793E+05  5.583380E+04 -4.325104E+04
       233   4 -7.200477E+05 -1.614102E+05 -1.218122E+04 -3.504111E+05  2.634307E+04 -4.387236E+04
       233   5 -7.275859E+05 -1.532470E+05 -2.219233E+04 -3.396345E+05  3.958612E+04 -4.519595E+04
       233   6 -7.210781E+05 -1.683355E+05 -4.201027E+04 -3.478298E+05  5.213114E+04 -4.465246E+04
       233   7 -1.384086E+06 -4.034307E+05 -1.482993E+05 -5.331844E+05  1.764932E+04 -4.714529E+04
       233   8 -1.475290E+06 -4.279337E+05 -1.763014E+05 -5.475520E+05  3.339181E+04 -4.753230E+04
       233   9 -1.552942E+06 -4.761916E+05 -2.161039E+05 -5.808908E+05  4.843380E+04 -4.605185E+04
       233  10 -5.556325E+04  8.064251E+04  1.239076E+05 -1.674579E+05 -1.128422E-09  7.520660E-10
       233  11  2.068676E+04  1.214840E+05  1.318795E+05 -1.314845E+05 -1.408997E-09  1.381565E-09
       233  12  1.114911E+05  1.395786E+05  1.320365E+05 -1.144774E+05 -2.038173E-09 -2.753234E-11
       233  13 -7.200490E+05 -1.614124E+05 -1.218614E+04 -3.504102E+05  1.238509E-09 -1.484809E-09
       233  14 -7.275882E+05 -1.532496E+05 -2.219911E+04 -3.396331E+05  4.583821E-10 -1.759761E-09
       233  15 -7.210815E+05 -1.683383E+05 -4.201913E+04 -3.478279E+05 -1.049016E-11 -8.327230E-10
       233  16 -1.384087E+06 -4.034331E+05 -1.483041E+05 -5.331837E+05  1.624821E-09 -1.007240E-09
       233  17 -1.475291E+06 -4.279365E+05 -1.763077E+05 -5.475507E+05  1.802640E-09 -4.384417E-10
       233  18 -1.552945E+06 -4.761945E+05 -2.161123E+05 -5.808890E+05  1.656033E-09 -1.730892E-09
       233  19 -5.556149E+04  8.064461E+04  1.239130E+05 -1.674590E+05 -3.504678E+04  4.059574E+04
       233  20  2.068951E+04  1.214866E+05  1.318869E+05 -1.314861E+05 -4.578843E+04  4.285658E+04
       233  21  1.114950E+05  1.395815E+05  1.320459E+05 -1.144793E+05 -5.583380E+04  4.325104E+04
       233  22 -7.200477E+05 -1.614102E+05 -1.218122E+04 -3.504111E+05 -2.634307E+04  4.387236E+04
       233  23 -7.275859E+05 -1.532470E+05 -2.219233E+04 -3.396345E+05 -3.958612E+04  4.519595E+04
       233  24 -7.210781E+05 -1.683355E+05 -4.201027E+04 -3.478298E+05 -5.213114E+04  4.465246E+04
       233  25 -1.384086E+06 -4.034307E+05 -1.482993E+05 -5.331844E+05 -1.764932E+04  4.714529E+04
       233  26 -1.475290E+06 -4.279337E+05 -1.763014E+05 -5.475520E+05 -3.339181E+04  4.753230E+04
       233  27 -1.552942E+06 -4.761916E+05 -2.161039E+05 -5.808908E+05 -4.843380E+04  4.605185E+04
       234   1  1.794379E+05  1.543521E+05  1.317577E+05 -1.206568E+05  6.997453E+04 -4.260607E+04
       234   2  2.244126E+05  2.164536E+05  1.144865E+05 -2.269727E+04  8.123401E+04 -2.993137E+04
       234   3  2.376006E+05  1.399505E+05  5.313141E+04  8.964839E+04  8.140018E+04  1.216940E+04
       234   4 -7.280596E+05 -1.606482E+05 -5.476003E+04 -3.536426E+05  6.004133E+04 -4.635265E+04
       234   5 -7.206926E+05 -1.749702E+05 -1.019096E+05 -3.278659E+05  1.109246E+05 -1.876011E+04
       234   6 -7.530569E+05 -3.358939E+05 -2.246231E+05 -2.876905E+05  1.507006E+05  3.827597E+04
       234   7 -1.634715E+06 -4.756011E+05 -2.413198E+05 -5.863235E+05  5.012377E+04 -5.009410E+04
       234   8 -1.664873E+06 -5.662515E+05 -3.183569E+05 -6.325803E+05  1.405660E+05 -7.612532E+03
       234   9 -1.742694E+06 -8.114642E+05 -5.024395E+05 -6.644107E+05  2.198785E+05  6.430734E+04
       234  10  1.794321E+05  1.543488E+05  1.317451E+05 -1.206544E+05 -6.724728E-10  3.256907E-10
       234  11  2.244052E+05  2.164509E+05  1.144725E+05 -2.269531E+04  2.280836E-10 -3.484711E-09
       234  12  2.375935E+05  1.399486E+05  5.311869E+04  8.964760E+04 -1.283151E-09  1.659620E-09
       234  13 -7.280641E+05 -1.606515E+05 -5.477084E+04 -3.536404E+05 -2.007962E-10 -1.262440E-09
       234  14 -7.207059E+05 -1.749739E+05 -1.019334E+05 -3.278642E+05  2.296069E-09  4.506182E-09
       234  15 -7.530817E+05 -3.359016E+05 -2.246686E+05 -2.876951E+05  3.126775E-10  3.963907E-09
       234  16 -1.634718E+06 -4.756044E+05 -2.413292E+05 -5.863215E+05 -1.146130E-09  1.958291E-10
       234  17 -1.664894E+06 -5.662568E+05 -3.183943E+05 -6.325794E+05 -1.180090E-09  4.505558E-09
       234  18 -1.742748E+06 -8.114817E+05 -5.025384E+05 -6.644221E+05 -2.032916E-09  1.090593E-09
       234  19  1.794379E+05  1.543521E+05  1.317577E+05 -1.206568E+05 -6.997453E+04  4.260607E+04
       234  20  2.244126E+05  2.164536E+05  1.144865E+05 -2.269727E+04 -8.123401E+04  2.993137E+04
       234  21  2.376006E+05  1.399505E+05  5.313141E+04  8.964839E+04 -8.140018E+04 -1.216940E+04
       234  22 -7.280596E+05 -1.606482E+05 -5.476003E+04 -3.536426E+05 -6.004133E+04  4.635265E+04
       234  23 -7.206926E+05 -1.749702E+05 -1.019096E+05 -3.278659E+05 -1.109246E+05  1.876011E+04
       234  24 -7.530569E+05 -3.358939E+05 -2.246231E+05 -2.876905E+05 -1.507006E+05 -3.827597E+04
       234  25 -1.634715E+06 -4.756011E+05 -2.413198E+05 -5.863235E+05 -5.012377E+04  5.009410E+04
       234  26 -1.664873E+06 -5.662515E+05 -3.183569E+05 -6.325803E+05 -1.405660E+05  7.612532E+03
       234  27 -1.742694E+06 -8.114642E+05 -5.024395E+05 -6.644107E+05 -2.198785E+05 -6.430734E+04
       235   1  1.383276E+06  1.926852E+05  1.696315E+05  1.640078E+04  8.364175E+03 -1.598742E+04
       235   2  1.316610E+06  2.364366E+05  1.650903E+05  3.597771E+04 -8.272127E+03 -5.310902E+04
       235   3  1.239932E+06  2.311257E+05  1.591649E+05  7.271548E+04 -2.495490E+04 -6.249322E+04
       235   4  2.685751E+05 -8.249904E+04 -9.372929E+04  6.363811E+04 -6.506336E+04 -1.613228E+04
       235   5  2.770801E+05 -1.314188E+04 -4.475741E+04  5.496487E+04 -4.170999E+04 -5.318886E+04
       235   6  2.686099E+05  1.679981E+02 -2.493249E+04  6.345475E+04 -1.840437E+04 -6.248537E+04
       235   7 -8.449691E+05 -3.577607E+05 -3.571545E+05  1.107897E+05 -1.383599E+05 -1.628843E+04
       235   8 -7.614186E+05 -2.627852E+05 -2.546564E+05  7.391911E+04 -7.509298E+04 -5.327083E+04
       235   9 -7.018035E+05 -2.308445E+05 -2.090717E+05  5.420825E+04 -1.186382E+04 -6.247771E+04
       235  10  1.383276E+06  1.926849E+05  1.696308E+05  1.640089E+04  4.024581E-09 -5.494195E-10
       235  11  1.316609E+06  2.364336E+05  1.650849E+05  3.597736E+04  3.608885E-09 -4.027709E-09
       235  12  1.239931E+06  2.311213E+05  1.591564E+05  7.271423E+04  4.535114E-10 -4.464893E-09
       235  13  2.685705E+05 -8.250046E+04 -9.373773E+04  6.363727E+04  9.474356E-11  1.420833E-09
       235  14  2.770775E+05 -1.314538E+04 -4.476600E+04  5.496308E+04 -2.549496E-10 -3.078938E-09
       235  15  2.686085E+05  1.637140E+02 -2.494046E+04  6.345382E+04  2.935680E-10 -6.453993E-10
       235  16 -8.449897E+05 -3.577661E+05 -3.571910E+05  1.107879E+05 -3.813654E-09  2.555216E-10
       235  17 -7.614254E+05 -2.627898E+05 -2.546724E+05  7.391589E+04 -4.333396E-09 -7.114919E-09
       235  18 -7.018047E+05 -2.308487E+05 -2.090793E+05  5.420765E+04  2.145077E-11 -6.558827E-09
       235  19  1.383276E+06  1.926852E+05  1.696315E+05  1.640078E+04 -8.364175E+03  1.598742E+04
       235  20  1.316610E+06  2.364366E+05  1.650903E+05  3.597771E+04  8.272127E+03  5.310902E+04
       235  21  1.239932E+06  2.311257E+05  1.591649E+05  7.271548E+04  2.495490E+04  6.249322E+04
       235  22  2.685751E+05 -8.249904E+04 -9.372929E+04  6.363811E+04  6.506336E+04  1.613228E+04
       235  23  2.770801E+05 -1.314188E+04 -4.475741E+04  5.496487E+04  4.170999E+04  5.318886E+04
       235  24  2.686099E+05  1.679981E+02 -2.493249E+04  6.345475E+04  1.840437E+04  6.248537E+04
       235  25 -8.449691E+05 -3.577607E+05 -3.571545E+05  1.107897E+05  1.383599E+05  1.628843E+04
       235  26 -7.614186E+05 -2.627852E+05 -2.546564E+05  7.391911E+04  7.509298E+04  5.327083E+04
       235  27 -7.018035E+05 -2.308445E+05 -2.090717E+05  5.420825E+04  1.186382E+04  6.247771E+04
       236   1  1.194085E+06  2.160840E+05  1.551283E+05  6.450972E+04 -1.672995E+04 -5.974198E+04
       236   2  1.123351E+06  2.015462E+05  1.478639E+05  5.598073E+04 -1.428614E+04 -5.764015E+04
       236   3  1.051815E+06  1.851220E+05  1.385388E+05  6.616794E+04 -1.185043E+04 -5.356052E+04
       236   4  2.721120E+05 -3.015012E+03 -1.919968E+04  6.383260E+04 -1.511787E+04 -5.974537E+04
       236   5  2.727815E+05 -1.250500E+02 -1.060467E+04  5.446899E+04 -9.828526E+03 -5.763486E+04
       236   6  2.721498E+05  3.833307E+02 -6.047973E+03  6.382323E+04 -4.546952E+03 -5.354521E+04
       236   7 -6.490421E+05 -2.221635E+05 -1.935652E+05  6.315596E+04 -1.350812E+04 -5.974877E+04
       236   8 -5.770889E+05 -2.018379E+05 -1.691040E+05  5.295889E+04 -5.376849E+03 -5.762957E+04
       236   9 -5.069273E+05 -1.843901E+05 -1.506601E+05  6.148110E+04  2.747608E+03 -5.352994E+04
       236  10  1.194084E+06  2.160801E+05  1.551210E+05  6.450892E+04 -6.222257E-09 -5.499373E-09
       236  11  1.123350E+06  2.015426E+05  1.478572E+05  5.598007E+04 -2.047870E-09  3.082469E-09
       236  12  1.051814E+06  1.851189E+05  1.385331E+05  6.616743E+04 -2.389939E-09  2.774999E-09
       236  13  2.721108E+05 -3.018906E+03 -1.920682E+04  6.383187E+04 -1.066382E-09 -4.121990E-09
       236  14  2.727805E+05 -1.286433E+02 -1.061109E+04  5.446854E+04 -1.996346E-10  3.504153E-10
       236  15  2.721490E+05  3.802460E+02 -6.053400E+03  6.382304E+04 -5.911331E-11 -2.394769E-09
       236  16 -6.490433E+05 -2.221674E+05 -1.935723E+05  6.315531E+04  5.993164E-09  2.757448E-10
       236  17 -5.770899E+05 -2.018415E+05 -1.691103E+05  5.295864E+04  1.665563E-09  2.062778E-09
       236  18 -5.069281E+05 -1.843932E+05 -1.506655E+05  6.148122E+04  2.281979E-09  4.946424E-10
       236  19  1.194085E+06  2.160840E+05  1.551283E+05  6.450972E+04  1.672995E+04  5.974198E+04
       236  20  1.123351E+06  2.015462E+05  1.478639E+05  5.598073E+04  1.428614E+04  5.764015E+04
       236  21  1.051815E+06  1.851220E+05  1.385388E+05  6.616794E+04  1.185043E+04  5.356052E+04
       236  22  2.721120E+05 -3.015012E+03 -1.919968E+04  6.383260E+04  1.511787E+04  5.974537E+04
       236  23  2.727815E+05 -1.250500E+02 -1.060467E+04  5.446899E+04  9.828526E+03  5.763486E+04
       236  24  2.721498E+05  3.833307E+02 -6.047973E+03  6.382323E+04  4.546952E+03  5.354521E+04
       236  25 -6.490421E+05 -2.221635E+05 -1.935652E+05  6.315596E+04  1.350812E+04  5.974877E+04
       236  26 -5.770889E+05 -2.018379E+05 -1.691040E+05  5.295889E+04  5.376849E+03  5.762957E+04
       236  27 -5.069273E+05 -1.843901E+05 -1.506601E+05  6.148110E+04 -2.747608E+03  5.352994E+04
       237   1  1.003882E+06  1.735066E+05  1.307288E+05  6.570253E+04 -1.056269E+04 -5.060471E+04
       237   2  9.330166E+05  1.567538E+05  1.195650E+05  5.615537E+04 -9.481219E+03 -4.571670E+04
       237   3  8.619472E+05  1.400465E+05  1.076888E+05  6.539897E+04 -8.403052E+03 -4.069017E+04
       237   4  2.723993E+05  2.481210E+02 -4.594701E+03  6.384151E+04 -3.616512E+03 -5.058915E+04
       237   5  2.725361E+05  3.098279E+02 -2.608530E+03  5.444535E+04 -2.337051E+03 -4.569866E+04
       237   6  2.724295E+05  3.827469E+02 -1.472972E+03  6.384113E+04 -1.060777E+03 -4.066958E+04
       237   7 -4.585657E+05 -1.730409E+05 -1.399404E+05  6.198233E+04  3.321708E+03 -5.057361E+04
       237   8 -3.875220E+05 -1.561590E+05 -1.248001E+05  5.273686E+04  4.799723E+03 -4.568065E+04
       237   9 -3.167516E+05 -1.393008E+05 -1.106492E+05  6.228453E+04  6.274714E+03 -4.064901E+04
       237  10  1.003882E+06  1.735038E+05  1.307238E+05  6.570210E+04 -2.626782E-08  3.442353E-09
       237  11  9.330159E+05  1.567515E+05  1.195609E+05  5.615502E+04  5.047977E-09  1.922964E-09
       237  12  8.619466E+05  1.400447E+05  1.076856E+05  6.539869E+04  2.946906E-08 -1.518848E-09
       237  13  2.723986E+05  2.453690E+02 -4.599535E+03  6.384136E+04 -1.315142E-09 -5.805774E-09
       237  14  2.725355E+05  3.075836E+02 -2.612465E+03  5.444526E+04  1.434376E-09  2.509115E-09
       237  15  2.724291E+05  3.809702E+02 -1.476083E+03  6.384110E+04 -3.559498E-10  5.106512E-09
       237  16 -4.585664E+05 -1.730437E+05 -1.399452E+05  6.198247E+04  2.610802E-08  2.344763E-09
       237  17 -3.875226E+05 -1.561612E+05 -1.248041E+05  5.273704E+04 -5.064711E-09  3.109952E-09
       237  18 -3.167521E+05 -1.393026E+05 -1.106523E+05  6.228473E+04 -2.915212E-08 -1.789605E-10
       237  19  1.003882E+06  1.735066E+05  1.307288E+05  6.570253E+04  1.056269E+04  5.060471E+04
       237  20  9.330166E+05  1.567538E+05  1.195650E+05  5.615537E+04  9.481219E+03  4.571670E+04
       237  21  8.619472E+05  1.400465E+05  1.076888E+05  6.539897E+04  8.403052E+03  4.069017E+04
       237  22  2.723993E+05  2.481210E+02 -4.594701E+03  6.384151E+04  3.616512E+03  5.058915E+04
       237  23  2.725361E+05  3.098279E+02 -2.608530E+03  5.444535E+04  2.337051E+03  4.569866E+04
       237  24  2.724295E+05  3.827469E+02 -1.472972E+03  6.384113E+04  1.060777E+03  4.066958E+04
       237  25 -4.585657E+05 -1.730409E+05 -1.399404E+05  6.198233E+04 -3.321708E+03  5.057361E+04
       237  26 -3.875220E+05 -1.561590E+05 -1.248001E+05  5.273686E+04 -4.799723E+03  4.568065E+04
       237  27 -3.167516E+05 -1.393008E+05 -1.106492E+05  6.228453E+04 -6.274714E+03  4.064901E+04
       238   1  8.139676E+05  1.286128E+05  9.884623E+04  6.527137E+04 -8.149826E+03 -3.772570E+04
       238   2  7.431735E+05  1.118173E+05  8.641812E+04  5.571741E+04 -7.883875E+03 -3.264764E+04
       238   3  6.722576E+05  9.514862E+04  7.381581E+04  6.493297E+04 -7.619989E+03 -2.756185E+04
       238   4  2.724656E+05  3.857375E+02 -1.102374E+03  6.383644E+04 -8.362330E+02 -3.770421E+04
       238   5  2.725413E+05  3.398846E+02 -5.896765E+02  5.445124E+04 -5.598137E+02 -3.262473E+04
       238   6  2.724872E+05  4.189638E+02 -2.589794E+02  6.383639E+04 -2.854308E+02 -2.753751E+04
       238   7 -2.687524E+05 -1.278580E+05 -1.010630E+05  6.240254E+04  6.471155E+03 -3.768274E+04
       238   8 -1.978764E+05 -1.111501E+05 -8.760653E+04  5.318587E+04  6.758845E+03 -3.260185E+04
       238   9 -1.271284E+05 -9.431981E+04 -7.434029E+04  6.274040E+04  7.044531E+03 -2.751320E+04
       238  10  8.139672E+05  1.286112E+05  9.884343E+04  6.527112E+04  3.067853E-09 -2.498521E-10
       238  11  7.431732E+05  1.118161E+05  8.641600E+04  5.571721E+04  4.647486E-09  1.162635E-08
       238  12  6.722574E+05  9.514779E+04  7.381428E+04  6.493280E+04  5.295795E-10  9.178162E-09
       238  13  2.724652E+05  3.842106E+02 -1.105047E+03  6.383641E+04 -2.010039E-11  1.578285E-09
       238  14  2.725410E+05  3.387415E+02 -5.916775E+02  5.445123E+04  6.305345E-10  1.004654E-08
       238  15  2.724870E+05  4.181494E+02 -2.604048E+02  6.383639E+04  2.199838E-10  2.328402E-09
       238  16 -2.687528E+05 -1.278595E+05 -1.010657E+05  6.240274E+04 -3.818966E-09  4.999619E-10
       238  17 -1.978768E+05 -1.111513E+05 -8.760861E+04  5.318605E+04 -4.492630E-09  1.416822E-09
       238  18 -1.271287E+05 -9.432064E+04 -7.434180E+04  6.274056E+04  6.097997E-11 -5.569995E-10
       238  19  8.139676E+05  1.286128E+05  9.884623E+04  6.527137E+04  8.149826E+03  3.772570E+04
       238  20  7.431735E+05  1.118173E+05  8.641812E+04  5.571741E+04  7.883875E+03  3.264764E+04
       238  21  6.722576E+05  9.514862E+04  7.381581E+04  6.493297E+04  7.619989E+03  2.756185E+04
       238  22  2.724656E+05  3.857375E+02 -1.102374E+03  6.383644E+04  8.362330E+02  3.770421E+04
       238  23  2.725413E+05  3.398846E+02 -5.896765E+02  5.445124E+04  5.598137E+02  3.262473E+04
       238  24  2.724872E+05  4.189638E+02 -2.589794E+02  6.383639E+04  2.854308E+02  2.753751E+04
       238  25 -2.687524E+05 -1.278580E+05 -1.010630E+05  6.240254E+04 -6.471155E+03  3.768274E+04
       238  26 -1.978764E+05 -1.111501E+05 -8.760653E+04  5.318587E+04 -6.758845E+03  3.260185E+04
       238  27 -1.271284E+05 -9.431981E+04 -7.434029E+04  6.274040E+04 -7.044531E+03  2.751320E+04
       239   1  6.243232E+05  8.373300E+04  6.474089E+04  6.480992E+04 -7.590684E+03 -2.460017E+04
       239   2  5.536006E+05  6.694310E+04  5.205526E+04  5.525528E+04 -7.650012E+03 -1.951536E+04
       239   3  4.827682E+05  5.028774E+04  3.940018E+04  6.445715E+04 -7.710520E+03 -1.443457E+04
       239   4  2.724981E+05  4.256708E+02 -1.333676E+02  6.383344E+04 -2.597616E+02 -2.457519E+04
       239   5  2.725609E+05  3.670529E+02  9.770837E+01  5.445493E+04 -3.252082E+02 -1.948959E+04
       239   6  2.725111E+05  4.445170E+02  3.637865E+02  6.383342E+04 -3.918400E+02 -1.440799E+04
       239   7 -7.920683E+04 -8.288868E+04 -6.501256E+04  6.285742E+04  7.067119E+03 -2.455023E+04
       239   8 -8.402106E+03 -6.621348E+04 -5.186294E+04  5.365489E+04  6.996368E+03 -1.946382E+04
       239   9  6.229684E+04 -4.940121E+04 -3.867427E+04  6.320987E+04  6.924426E+03 -1.438141E+04
       239  10  6.243230E+05  8.373233E+04  6.473964E+04  6.480977E+04  1.617672E-08  1.926331E-09
       239  11  5.536004E+05  6.694268E+04  5.205443E+04  5.525516E+04 -2.653922E-09 -1.086627E-09
       239  12  4.827680E+05  5.028750E+04  3.939967E+04  6.445706E+04 -2.829172E-08 -1.217532E-09
       239  13  2.724980E+05  4.250222E+02 -1.345028E+02  6.383344E+04  1.255829E-09  1.070811E-08
       239  14  2.725608E+05  3.666450E+02  9.699428E+01  5.445493E+04  3.566326E-11  2.393748E-09
       239  15  2.725110E+05  4.442940E+02  3.633961E+02  6.383342E+04  1.128180E-09 -2.165895E-09
       239  16 -7.920705E+04 -8.288934E+04 -6.501378E+04  6.285756E+04 -1.689737E-08  4.646100E-09
       239  17 -8.402260E+03 -6.621390E+04 -5.186374E+04  5.365500E+04  3.335288E-09 -2.762537E-09
       239  18  6.229674E+04 -4.940145E+04 -3.867475E+04  6.320995E+04  2.684374E-08 -1.647786E-09
       239  19  6.243232E+05  8.373300E+04  6.474089E+04  6.480992E+04  7.590684E+03  2.460017E+04
       239  20  5.536006E+05  6.694310E+04  5.205526E+04  5.525528E+04  7.650012E+03  1.951536E+04
       239  21  4.827682E+05  5.028774E+04  3.940018E+04  6.445715E+04  7.710520E+03  1.443457E+04
       239  22  2.724981E+05  4.256708E+02 -1.333676E+02  6.383344E+04  2.597616E+02  2.457519E+04
       239  23  2.725609E+05  3.670529E+02  9.770837E+01  5.445493E+04  3.252082E+02  1.948959E+04
       239  24  2.725111E+05  4.445170E+02  3.637865E+02  6.383342E+04  3.918400E+02  1.440799E+04
       239  25 -7.920683E+04 -8.288868E+04 -6.501256E+04  6.285742E+04 -7.067119E+03  2.455023E+04
       239  26 -8.402106E+03 -6.621348E+04 -5.186294E+04  5.365489E+04 -6.996368E+03  1.946382E+04
       239  27  6.229684E+04 -4.940121E+04 -3.867427E+04  6.320987E+04 -6.924426E+03  1.438141E+04
       240   1  4.348815E+05  3.887310E+04  3.037253E+04  6.433325E+04 -7.809296E+03 -1.147550E+04
       240   2  3.641778E+05  2.207126E+04  1.791616E+04  5.478620E+04 -8.255763E+03 -6.416444E+03
       240   3  2.934094E+05  5.438688E+03  5.747070E+03  6.398286E+04 -8.702402E+03 -1.405379E+03
       240   4  2.725268E+05  4.446650E+02  5.308371E+02  6.383055E+04 -4.836457E+02 -1.144856E+04
       240   5  2.725577E+05  3.700674E+02  1.005577E+03  5.445856E+04 -9.995923E+02 -6.389498E+03
       240   6  2.725310E+05  4.770016E+02  1.815730E+03  6.383043E+04 -1.515757E+03 -1.378420E+03
       240   7  1.101979E+05 -3.798524E+04 -2.931173E+04  6.332797E+04  6.840141E+03 -1.142163E+04
       240   8  1.809459E+05 -2.133158E+04 -1.590516E+04  5.413097E+04  6.255536E+03 -6.362558E+03
       240   9  2.516531E+05 -4.484683E+03 -2.115435E+03  6.367801E+04  5.670652E+03 -1.351465E+03
       240  10  4.348814E+05  3.887295E+04  3.037216E+04  6.433317E+04  4.144342E-08  6.298244E-09
       240  11  3.641777E+05  2.207120E+04  1.791596E+04  5.478615E+04  1.078461E-08  4.515695E-09
       240  12  2.934093E+05  5.438666E+03  5.746924E+03  6.398285E+04 -3.162979E-08  5.601433E-09
       240  13  2.725268E+05  4.445241E+02  5.305903E+02  6.383055E+04 -1.095582E-09  3.097073E-09
       240  14  2.725577E+05  3.700232E+02  1.005498E+03  5.445856E+04  1.062866E-09  3.024909E-09
       240  15  2.725310E+05  4.769990E+02  1.815722E+03  6.383043E+04  3.922812E-10  5.085746E-09
       240  16  1.101978E+05 -3.798539E+04 -2.931207E+04  6.332803E+04 -4.204959E-08  5.278956E-09
       240  17  1.809458E+05 -2.133163E+04 -1.590531E+04  5.413100E+04 -9.223346E-09 -6.739032E-09
       240  18  2.516530E+05 -4.484693E+03 -2.115499E+03  6.367801E+04  3.202471E-08  8.691889E-10
       240  19  4.348815E+05  3.887310E+04  3.037253E+04  6.433325E+04  7.809296E+03  1.147550E+04
       240  20  3.641778E+05  2.207126E+04  1.791616E+04  5.478620E+04  8.255763E+03  6.416444E+03
       240  21  2.934094E+05  5.438688E+03  5.747070E+03  6.398286E+04  8.702402E+03  1.405379E+03
       240  22  2.725268E+05  4.446650E+02  5.308371E+02  6.383055E+04  4.836457E+02  1.144856E+04
       240  23  2.725577E+05  3.700674E+02  1.005577E+03  5.445856E+04  9.995923E+02  6.389498E+03
       240  24  2.725310E+05  4.770016E+02  1.815730E+03  6.383043E+04  1.515757E+03  1.378420E+03
       240  25  1.101979E+05 -3.798524E+04 -2.931173E+04  6.332797E+04 -6.840141E+03  1.142163E+04
       240  26  1.809459E+05 -2.133158E+04 -1.590516E+04  5.413097E+04 -6.255536E+03  6.362558E+03
       240  27  2.516531E+05 -4.484683E+03 -2.115435E+03  6.367801E+04 -5.670652E+03  1.351465E+03
       241   1  2.455996E+05 -6.041175E+03 -2.871661E+03  6.400756E+04 -9.202645E+03  1.546330E+03
       241   2  1.747539E+05 -2.272816E+04 -1.426976E+04  5.411419E+04 -1.036551E+04  6.280575E+03
       241   3  1.041387E+05 -3.844558E+04 -2.471321E+04  6.292395E+04 -1.152548E+04  1.034921E+04
       241   4  2.726305E+05  4.160963E+02  2.401516E+03  6.382232E+04 -1.898187E+03  1.573729E+03
       241   5  2.724327E+05  5.026092E+02  4.219848E+03  5.446842E+04 -4.020478E+03  6.304112E+03
       241   6  2.726256E+05  1.724993E+03  7.658268E+03  6.381740E+04 -6.139989E+03  1.036895E+04
       241   7  2.996623E+05  6.873353E+03  7.674860E+03  6.363706E+04  5.406582E+03  1.601122E+03
       241   8  3.701208E+05  2.373284E+04  2.270919E+04  5.482270E+04  2.325526E+03  6.327654E+03
       241   9  4.411398E+05  4.189391E+04  4.002855E+04  6.471107E+04 -7.530691E+02  1.038869E+04
       241  10  2.455995E+05 -6.041200E+03 -2.871825E+03  6.400758E+04 -6.582198E-09  7.768489E-09
       241  11  1.747538E+05 -2.272823E+04 -1.427004E+04  5.411425E+04  3.847676E-09  1.693805E-09
       241  12  1.041386E+05 -3.844574E+04 -2.471366E+04  6.292404E+04  5.809826E-09  2.645781E-09
       241  13  2.726305E+05  4.160927E+02  2.401505E+03  6.382232E+04  1.064247E-09  3.646048E-09
       241  14  2.724327E+05  5.025622E+02  4.219743E+03  5.446844E+04 -6.017003E-10  2.948100E-09
       241  15  2.726255E+05  1.724867E+03  7.657995E+03  6.381745E+04  7.545753E-10 -3.855940E-09
       241  16  2.996623E+05  6.873342E+03  7.674800E+03  6.363705E+04  5.873028E-09  3.641314E-09
       241  17  3.701207E+05  2.373280E+04  2.270910E+04  5.482269E+04 -3.415844E-09 -2.125376E-09
       241  18  4.411398E+05  4.189379E+04  4.002834E+04  6.471108E+04 -5.270667E-09 -9.454098E-09
       241  19  2.455996E+05 -6.041175E+03 -2.871661E+03  6.400756E+04  9.202645E+03 -1.546330E+03
       241  20  1.747539E+05 -2.272816E+04 -1.426976E+04  5.411419E+04  1.036551E+04 -6.280575E+03
       241  21  1.041387E+05 -3.844558E+04 -2.471321E+04  6.292395E+04  1.152548E+04 -1.034921E+04
       241  22  2.726305E+05  4.160963E+02  2.401516E+03  6.382232E+04  1.898187E+03 -1.573729E+03
       241  23  2.724327E+05  5.026092E+02  4.219848E+03  5.446842E+04  4.020478E+03 -6.304112E+03
       241  24  2.726256E+05  1.724993E+03  7.658268E+03  6.381740E+04  6.139989E+03 -1.036895E+04
       241  25  2.996623E+05  6.873353E+03  7.674860E+03  6.363706E+04 -5.406582E+03 -1.601122E+03
       241  26  3.701208E+05  2.373284E+04  2.270919E+04  5.482270E+04 -2.325526E+03 -6.327654E+03
       241  27  4.411398E+05  4.189391E+04  4.002855E+04  6.471107E+04  7.530691E+02 -1.038869E+04
       242   1  5.723885E+04 -5.123718E+04 -3.179217E+04  6.610461E+04 -1.450422E+04  1.321598E+04
       242   2 -1.571032E+04 -6.349206E+04 -4.109443E+04  4.555539E+04 -1.035181E+04  1.345910E+04
       242   3 -8.427352E+04 -5.547274E+04 -4.806129E+04  4.311012E+04 -6.167423E+03  4.377144E+03
       242   4  2.740266E+05  4.372711E+02  9.949569E+03  6.370553E+04 -7.464900E+03  1.324161E+04
       242   5  2.706632E+05  5.638958E+03  1.785166E+04  5.459484E+04 -1.674287E+04  1.343535E+04
       242   6  2.740097E+05  3.344076E+04  3.741196E+04  6.358669E+04 -2.598874E+04  4.306139E+03
       242   7  4.908596E+05  5.210899E+04  5.168932E+04  6.130554E+04 -4.231816E+02  1.326718E+04
       242   8  5.571148E+05  7.476511E+04  7.679353E+04  6.363846E+04 -2.313682E+04  1.341143E+04
       242   9  6.324123E+05  1.223467E+05  1.228779E+05  8.407504E+04 -4.582144E+04  4.233848E+03
       242  10  5.723857E+04 -5.123743E+04 -3.179289E+04  6.610477E+04 -2.952634E-08  2.975537E-09
       242  11 -1.571049E+04 -6.349228E+04 -4.109497E+04  4.555551E+04  5.286236E-10 -1.314307E-09
       242  12 -8.427356E+04 -5.547277E+04 -4.806140E+04  4.311014E+04  2.333560E-08  6.807522E-10
       242  13  2.740265E+05  4.370678E+02  9.949134E+03  6.370561E+04  2.330757E-09  5.862014E-09
       242  14  2.706629E+05  5.638689E+03  1.785079E+04  5.459502E+04  1.867350E-09 -9.505545E-09
       242  15  2.740090E+05  3.344056E+04  3.741065E+04  6.358678E+04  1.154155E-09  4.314426E-09
       242  16  4.908595E+05  5.210880E+04  5.168899E+04  6.130555E+04  3.062901E-08 -1.118753E-09
       242  17  5.571142E+05  7.476478E+04  7.679219E+04  6.363871E+04 -1.253463E-10 -3.656532E-09
       242  18  6.324101E+05  1.223461E+05  1.228739E+05  8.407520E+04 -2.355255E-08 -3.101038E-09
       242  19  5.723885E+04 -5.123718E+04 -3.179217E+04  6.610461E+04  1.450422E+04 -1.321598E+04
       242  20 -1.571032E+04 -6.349206E+04 -4.109443E+04  4.555539E+04  1.035181E+04 -1.345910E+04
       242  21 -8.427352E+04 -5.547274E+04 -4.806129E+04  4.311012E+04  6.167423E+03 -4.377144E+03
       242  22  2.740266E+05  4.372711E+02  9.949569E+03  6.370553E+04  7.464900E+03 -1.324161E+04
       242  23  2.706632E+05  5.638958E+03  1.785166E+04  5.459484E+04  1.674287E+04 -1.343535E+04
       242  24  2.740097E+05  3.344076E+04  3.741196E+04  6.358669E+04  2.598874E+04 -4.306139E+03
       242  25  4.908596E+05  5.210899E+04  5.168932E+04  6.130554E+04  4.231816E+02 -1.326718E+04
       242  26  5.571148E+05  7.476511E+04  7.679353E+04  6.363846E+04  2.313682E+04 -1.341143E+04
       242  27  6.324123E+05  1.223467E+05  1.228779E+05  8.407504E+04  4.582144E+04 -4.233848E+03
       243   1  2.304922E+05  1.729336E+06  2.326094E+05 -1.808956E+05  7.828078E+03  7.955468E+04
       243   2  1.359426E+05  1.560872E+06  1.443881E+05 -1.395598E+05  2.383819E+04  3.486063E+04
       243   3  8.744434E+04  1.409583E+06  9.670476E+04 -1.393457E+05  2.194584E+04 -9.854560E+03
       243   4  6.103928E+04  1.045183E+06  6.930047E+04 -1.436374E+05  7.907129E+03  4.364867E+04
       243   5  1.003676E+04  1.038877E+06  3.648776E+04 -1.231415E+05  2.386224E+04  2.480573E+04
       243   6  6.291492E+02  1.045264E+06  2.631189E+04 -1.437639E+05  2.191102E+04  5.929710E+03
       243   7 -1.084417E+05  3.614623E+05 -9.403586E+04 -1.064201E+05  7.981929E+03  7.781944E+03
       243   8 -1.158853E+05  5.171407E+05 -7.142679E+04 -1.067371E+05  2.388577E+04  1.475910E+04
       243   9 -8.619371E+04  6.810735E+05 -4.408623E+04 -1.481794E+05  2.187597E+04  2.170494E+04
       243  10  2.304904E+05  1.729329E+06  2.325975E+05 -1.808961E+05  6.122953E-10  2.460145E-08
       243  11  1.359417E+05  1.560870E+06  1.443847E+05 -1.395604E+05 -9.526853E-10 -6.407171E-09
       243  12  8.744380E+04  1.409583E+06  9.670367E+04 -1.393455E+05 -8.115332E-11 -2.592774E-08
       243  13  6.103870E+04  1.045180E+06  6.929678E+04 -1.436377E+05  1.845661E-09 -2.040739E-09
       243  14  1.003598E+04  1.038876E+06  3.648554E+04 -1.231420E+05  2.982751E-09 -4.418173E-09
       243  15  6.286239E+02  1.045264E+06  2.631092E+04 -1.437640E+05  7.694464E-10 -2.703402E-10
       243  16 -1.084417E+05  3.614623E+05 -9.403610E+04 -1.064201E+05 -9.040686E-10 -2.254651E-08
       243  17 -1.158860E+05  5.171404E+05 -7.142827E+04 -1.067373E+05  2.107629E-09 -2.562907E-10
       243  18 -8.619435E+04  6.810729E+05 -4.408801E+04 -1.481798E+05 -5.835965E-10  2.769565E-08
       243  19  2.304922E+05  1.729336E+06  2.326094E+05 -1.808956E+05 -7.828078E+03 -7.955468E+04
       243  20  1.359426E+05  1.560872E+06  1.443881E+05 -1.395598E+05 -2.383819E+04 -3.486063E+04
       243  21  8.744434E+04  1.409583E+06  9.670476E+04 -1.393457E+05 -2.194584E+04  9.854560E+03
       243  22  6.103928E+04  1.045183E+06  6.930047E+04 -1.436374E+05 -7.907129E+03 -4.364867E+04
       243  23  1.003676E+04  1.038877E+06  3.648776E+04 -1.231415E+05 -2.386224E+04 -2.480573E+04
       243  24  6.291492E+02  1.045264E+06  2.631189E+04 -1.437639E+05 -2.191102E+04 -5.929710E+03
       243  25 -1.084417E+05  3.614623E+05 -9.403586E+04 -1.064201E+05 -7.981929E+03 -7.781944E+03
       243  26 -1.158853E+05  5.171407E+05 -7.142679E+04 -1.067371E+05 -2.388577E+04 -1.475910E+04
       243  27 -8.619371E+04  6.810735E+05 -4.408623E+04 -1.481794E+05 -2.187597E+04 -2.170494E+04
       244   1  6.359710E+04  1.298609E+06  7.436646E+04 -1.464619E+05  1.544579E+04 -1.093204E+04
       244   2  2.397803E+04  1.137331E+06  4.552761E+04 -1.228408E+05  6.466450E+03 -2.521144E+04
       244   3 -8.757941E+03  9.794385E+05  2.763750E+04 -1.413374E+05 -2.844471E+03 -3.948895E+04
       244   4  2.703791E+03  1.043182E+06  2.504963E+04 -1.439665E+05  1.541673E+04  1.825289E+03
       244   5  1.263616E+03  1.041546E+06  2.761809E+04 -1.229032E+05  6.435840E+03 -1.197506E+04
       244   6  6.625040E+03  1.043187E+06  4.080363E+04 -1.439574E+05 -2.876606E+03 -2.577700E+04
       244   7 -5.819329E+04  7.878176E+05 -2.426962E+04 -1.414720E+05  1.538776E+04  1.457750E+04
       244   8 -2.145123E+04  9.457698E+05  9.708829E+03 -1.229656E+05  6.405225E+03  1.259334E+03
       244   9  2.200789E+04  1.106939E+06  5.397025E+04 -1.465777E+05 -2.908855E+03 -1.206366E+04
       244  10  6.359682E+04  1.298609E+06  7.436578E+04 -1.464617E+05 -5.903597E-10 -2.265615E-09
       244  11  2.397781E+04  1.137331E+06  4.552634E+04 -1.228406E+05  6.261073E-10 -6.801051E-09
       244  12 -8.758368E+03  9.794368E+05  2.763456E+04 -1.413375E+05 -1.467454E-10  1.516987E-09
       244  13  2.703534E+03  1.043182E+06  2.504918E+04 -1.439665E+05  1.053629E-10 -1.934409E-09
       244  14  1.263533E+03  1.041546E+06  2.761774E+04 -1.229031E+05  1.021450E-09 -4.708589E-09
       244  15  6.624853E+03  1.043186E+06  4.080237E+04 -1.439575E+05  6.368323E-11 -2.467599E-10
       244  16 -5.819360E+04  7.878173E+05 -2.427047E+04 -1.414722E+05  7.520466E-10  4.952927E-09
       244  17 -2.145128E+04  9.457698E+05  9.708749E+03 -1.229656E+05  2.437803E-09 -3.708004E-10
       244  18  2.200784E+04  1.106939E+06  5.396996E+04 -1.465778E+05  1.056779E-09  6.471020E-11
       244  19  6.359710E+04  1.298609E+06  7.436646E+04 -1.464619E+05 -1.544579E+04  1.093204E+04
       244  20  2.397803E+04  1.137331E+06  4.552761E+04 -1.228408E+05 -6.466450E+03  2.521144E+04
       244  21 -8.757941E+03  9.794385E+05  2.763750E+04 -1.413374E+05  2.844471E+03  3.948895E+04
       244  22  2.703791E+03  1.043182E+06  2.504963E+04 -1.439665E+05 -1.541673E+04 -1.825289E+03
       244  23  1.263616E+03  1.041546E+06  2.761809E+04 -1.229032E+05 -6.435840E+03  1.197506E+04
       244  24  6.625040E+03  1.043187E+06  4.080363E+04 -1.439574E+05  2.876606E+03  2.577700E+04
       244  25 -5.819329E+04  7.878176E+05 -2.426962E+04 -1.414720E+05 -1.538776E+04 -1.457750E+04
       244  26 -2.145123E+04  9.457698E+05  9.708829E+03 -1.229656E+05 -6.405225E+03 -1.259334E+03
       244  27  2.200789E+04  1.106939E+06  5.397025E+04 -1.465777E+05  2.908855E+03  1.206366E+04
       245   1 -4.060484E+04  8.773088E+05  1.654096E+04 -1.577403E+05 -9.361684E+03 -4.855821E+04
       245   2 -5.437196E+04  7.030899E+05  1.745595E+04 -8.270447E+04 -1.370109E+04 -7.469377E+04
       245   3  3.647704E+04  5.582720E+05  6.148964E+04 -4.896960E+04 -4.840555E+03 -1.007951E+05
       245   4  5.925968E+02  1.049716E+06  5.069385E+04 -1.438329E+05 -9.399678E+03 -3.271954E+04
       245   5  2.572988E+04  1.033338E+06  8.697919E+04 -1.230166E+05 -1.368850E+04 -7.790655E+04
       245   6  1.587426E+05  1.049604E+06  1.795761E+05 -1.434877E+05 -4.776048E+03 -1.230667E+05
       245   7  4.178910E+04  1.222152E+06  8.484633E+04 -1.299216E+05 -9.436958E+03 -1.687656E+04
       245   8  1.058307E+05  1.363693E+06  1.564972E+05 -1.633504E+05 -1.367551E+04 -8.112101E+04
       245   9  2.810241E+05  1.541176E+06  2.976521E+05 -2.380808E+05 -4.704798E+03 -1.453558E+05
       245  10 -4.060556E+04  8.773063E+05  1.653637E+04 -1.577407E+05  5.763928E-10 -3.070415E-10
       245  11 -5.437365E+04  7.030839E+05  1.744512E+04 -8.270529E+04  1.356762E-09 -5.848258E-09
       245  12  3.647429E+04  5.582611E+05  6.147052E+04 -4.896999E+04  2.918325E-10  2.575854E-10
       245  13  5.922150E+02  1.049715E+06  5.069168E+04 -1.438332E+05  1.498550E-09 -1.959481E-09
       245  14  2.572806E+04  1.033332E+06  8.696745E+04 -1.230174E+05 -1.435616E-09 -3.883076E-09
       245  15  1.587385E+05  1.049587E+06  1.795477E+05 -1.434882E+05  9.924127E-11 -5.286647E-10
       245  16  4.178893E+04  1.222152E+06  8.484563E+04 -1.299217E+05  6.950499E-10  2.889585E-09
       245  17  1.058288E+05  1.363686E+06  1.564845E+05 -1.633513E+05  1.149070E-09 -7.889739E-10
       245  18  2.810185E+05  1.541153E+06  2.976124E+05 -2.380813E+05  8.539525E-10  1.121533E-09
       245  19 -4.060484E+04  8.773088E+05  1.654096E+04 -1.577403E+05  9.361684E+03  4.855821E+04
       245  20 -5.437196E+04  7.030899E+05  1.745595E+04 -8.270447E+04  1.370109E+04  7.469377E+04
       245  21  3.647704E+04  5.582720E+05  6.148964E+04 -4.896960E+04  4.840555E+03  1.007951E+05
       245  22  5.925968E+02  1.049716E+06  5.069385E+04 -1.438329E+05  9.399678E+03  3.271954E+04
       245  23  2.572988E+04  1.033338E+06  8.697919E+04 -1.230166E+05  1.368850E+04  7.790655E+04
       245  24  1.587426E+05  1.049604E+06  1.795761E+05 -1.434877E+05  4.776048E+03  1.230667E+05
       245  25  4.178910E+04  1.222152E+06  8.484633E+04 -1.299216E+05  9.436958E+03  1.687656E+04
       245  26  1.058307E+05  1.363693E+06  1.564972E+05 -1.633504E+05  1.367551E+04  8.112101E+04
       245  27  2.810241E+05  1.541176E+06  2.976521E+05 -2.380808E+05  4.704798E+03  1.453558E+05
       246   1  1.463907E+06  4.604185E+05  2.305015E+05  5.139878E+05  5.274963E+04  2.561320E+03
       246   2  1.391721E+06  4.424495E+05  1.897543E+05  4.872459E+05  3.561429E+04 -4.334834E+04
       246   3  1.306007E+06  4.297104E+05  1.688287E+05  4.805424E+05  8.195629E+03 -6.196685E+04
       246   4  4.612726E+05  9.623208E+04 -2.798304E+04  2.519413E+05 -1.231657E+04 -2.198617E+04
       246   5  4.732656E+05  1.081619E+05 -1.272089E+04  2.378182E+05  7.422724E+03 -5.399779E+04
       246   6  4.644232E+05  1.180173E+05 -6.822187E+03  2.437362E+05  1.686599E+04 -5.869960E+04
       246   7 -5.403519E+05 -2.678937E+05 -2.865242E+05 -9.721575E+03 -7.726576E+04 -4.649290E+04
       246   8 -4.443245E+05 -2.260596E+05 -2.152405E+05 -1.127054E+04 -2.072331E+04 -6.463068E+04
       246   9 -3.764347E+05 -1.936123E+05 -1.825105E+05  7.226873E+03  2.552370E+04 -5.543721E+04
       246  10  1.463904E+06  4.604178E+05  2.304962E+05  5.139877E+05  2.453690E-09 -8.779819E-10
       246  11  1.391719E+06  4.424471E+05  1.897484E+05  4.872472E+05 -2.152940E-09 -6.342668E-09
       246  12  1.306006E+06  4.297062E+05  1.688214E+05  4.805428E+05 -3.656510E-09 -4.342430E-09
       246  13  4.612723E+05  9.623152E+04 -2.798424E+04  2.519411E+05 -3.245284E-10 -9.945050E-10
       246  14  4.732647E+05  1.081588E+05 -1.272648E+04  2.378185E+05 -1.282418E-09 -4.724884E-09
       246  15  4.644220E+05  1.180135E+05 -6.829198E+03  2.437370E+05  1.026573E-09 -1.046653E-10
       246  16 -5.403589E+05 -2.678976E+05 -2.865395E+05 -9.724469E+03 -2.647489E-09  3.606536E-10
       246  17 -4.443261E+05 -2.260642E+05 -2.152491E+05 -1.127162E+04  2.639160E-09 -3.919753E-09
       246  18 -3.764363E+05 -1.936157E+05 -1.825175E+05  7.228014E+03  4.963923E-09  1.197163E-09
       246  19  1.463907E+06  4.604185E+05  2.305015E+05  5.139878E+05 -5.274963E+04 -2.561320E+03
       246  20  1.391721E+06  4.424495E+05  1.897543E+05  4.872459E+05 -3.561429E+04  4.334834E+04
       246  21  1.306007E+06  4.297104E+05  1.688287E+05  4.805424E+05 -8.195629E+03  6.196685E+04
       246  22  4.612726E+05  9.623208E+04 -2.798304E+04  2.519413E+05  1.231657E+04  2.198617E+04
       246  23  4.732656E+05  1.081619E+05 -1.272089E+04  2.378182E+05 -7.422724E+03  5.399779E+04
       246  24  4.644232E+05  1.180173E+05 -6.822187E+03  2.437362E+05 -1.686599E+04  5.869960E+04
       246  25 -5.403519E+05 -2.678937E+05 -2.865242E+05 -9.721575E+03  7.726576E+04  4.649290E+04
       246  26 -4.443245E+05 -2.260596E+05 -2.152405E+05 -1.127054E+04  2.072331E+04  6.463068E+04
       246  27 -3.764347E+05 -1.936123E+05 -1.825105E+05  7.226873E+03 -2.552370E+04  5.543721E+04
       247   1  1.256333E+06  4.081158E+05  1.596258E+05  4.650080E+05  1.344240E+04 -5.590934E+04
       247   2  1.190016E+06  3.740697E+05  1.446943E+05  4.359777E+05  1.140593E+04 -5.327856E+04
       247   3  1.108658E+06  3.549497E+05  1.303946E+05  4.242774E+05  8.719595E+03 -4.893767E+04
       247   4  4.650121E+05  1.173691E+05 -5.234617E+03  2.447750E+05  1.631216E+04 -5.483204E+04
       247   5  4.728472E+05  1.106044E+05 -2.770211E+03  2.359398E+05  1.658497E+04 -5.132657E+04
       247   6  4.651795E+05  1.183091E+05 -1.503212E+03  2.444340E+05  1.620745E+04 -4.610994E+04
       247   7 -3.256754E+05 -1.733272E+05 -1.701304E+05  2.479827E+04  1.917801E+04 -5.375622E+04
       247   8 -2.437972E+05 -1.528178E+05 -1.502621E+05  3.611389E+04  2.175761E+04 -4.937702E+04
       247   9 -1.778746E+05 -1.182955E+05 -1.334222E+05  6.476245E+04  2.368697E+04 -4.328537E+04
       247  10  1.256332E+06  4.081124E+05  1.596196E+05  4.650086E+05 -1.703968E-09 -2.261763E-09
       247  11  1.190015E+06  3.740666E+05  1.446887E+05  4.359782E+05 -2.248006E-09 -4.064775E-09
       247  12  1.108657E+06  3.549471E+05  1.303900E+05  4.242778E+05 -1.781319E-09 -3.170776E-09
       247  13  4.650110E+05  1.173658E+05 -5.240769E+03  2.447757E+05 -1.413074E-09  2.038332E-09
       247  14  4.728462E+05  1.106015E+05 -2.775680E+03  2.359405E+05 -1.139815E-09 -1.086131E-08
       247  15  4.651786E+05  1.183067E+05 -1.507702E+03  2.444347E+05 -5.528980E-10 -9.560233E-10
       247  16 -3.256766E+05 -1.733304E+05 -1.701365E+05  2.479910E+04  4.525313E-09  1.456887E-09
       247  17 -2.437984E+05 -1.528205E+05 -1.502676E+05  3.611475E+04  1.029526E-09 -4.675260E-09
       247  18 -1.778757E+05 -1.182977E+05 -1.334267E+05  6.476327E+04  1.410246E-09  2.072107E-09
       247  19  1.256333E+06  4.081158E+05  1.596258E+05  4.650080E+05 -1.344240E+04  5.590934E+04
       247  20  1.190016E+06  3.740697E+05  1.446943E+05  4.359777E+05 -1.140593E+04  5.327856E+04
       247  21  1.108658E+06  3.549497E+05  1.303946E+05  4.242774E+05 -8.719595E+03  4.893767E+04
       247  22  4.650121E+05  1.173691E+05 -5.234617E+03  2.447750E+05 -1.631216E+04  5.483204E+04
       247  23  4.728472E+05  1.106044E+05 -2.770211E+03  2.359398E+05 -1.658497E+04  5.132657E+04
       247  24  4.651795E+05  1.183091E+05 -1.503212E+03  2.444340E+05 -1.620745E+04  4.610994E+04
       247  25 -3.256754E+05 -1.733272E+05 -1.701304E+05  2.479827E+04 -1.917801E+04  5.375622E+04
       247  26 -2.437972E+05 -1.528178E+05 -1.502621E+05  3.611389E+04 -2.175761E+04  4.937702E+04
       247  27 -1.778746E+05 -1.182955E+05 -1.334222E+05  6.476245E+04 -2.368697E+04  4.328537E+04
       248   1  1.057985E+06  3.361439E+05  1.199775E+05  4.100941E+05  8.089312E+03 -4.550277E+04
       248   2  9.922173E+05  3.016951E+05  1.055880E+05  3.810197E+05  6.240053E+03 -4.012326E+04
       248   3  9.112984E+05  2.824341E+05  9.109195E+04  3.691401E+05  4.349339E+03 -3.464243E+04
       248   4  4.652375E+05  1.182900E+05 -1.126114E+03  2.444747E+05  1.520338E+04 -4.281501E+04
       248   5  4.728505E+05  1.107528E+05 -5.980058E+02  2.358674E+05  1.349097E+04 -3.738169E+04
       248   6  4.652776E+05  1.183769E+05 -2.856738E+02  2.444540E+05  1.173710E+04 -3.184697E+04
       248   7 -1.271446E+05 -9.953148E+04 -1.222462E+05  7.900232E+04  2.231010E+04 -4.013003E+04
       248   8 -4.623947E+04 -8.016580E+04 -1.067976E+05  9.082705E+04  2.073537E+04 -3.464260E+04
       248   9  1.945763E+04 -4.566425E+04 -9.167424E+04  1.198495E+05  1.911920E+04 -2.905366E+04
       248  10  1.057984E+06  3.361417E+05  1.199735E+05  4.100944E+05 -3.334378E-09  1.027203E-09
       248  11  9.922168E+05  3.016933E+05  1.055849E+05  3.810199E+05 -2.115913E-09  2.547011E-09
       248  12  9.112980E+05  2.824328E+05  9.108966E+04  3.691403E+05 -2.485587E-09  3.469966E-09
       248  13  4.652367E+05  1.182880E+05 -1.129994E+03  2.444752E+05  1.539570E-09 -1.001675E-10
       248  14  4.728499E+05  1.107513E+05 -6.009746E+02  2.358678E+05  2.341417E-09  1.562645E-09
       248  15  4.652772E+05  1.183758E+05 -2.878392E+02  2.444543E+05  1.882541E-10  1.074130E-08
       248  16 -1.271456E+05 -9.953335E+04 -1.222501E+05  7.900304E+04  4.154164E-09  6.146395E-09
       248  17 -4.624026E+04 -8.016720E+04 -1.068006E+05  9.082763E+04  2.413019E-09 -1.138452E-09
       248  18  1.945701E+04 -4.566525E+04 -9.167652E+04  1.198500E+05  1.466577E-09 -1.479773E-09
       248  19  1.057985E+06  3.361439E+05  1.199775E+05  4.100941E+05 -8.089312E+03  4.550277E+04
       248  20  9.922173E+05  3.016951E+05  1.055880E+05  3.810197E+05 -6.240053E+03  4.012326E+04
       248  21  9.112984E+05  2.824341E+05  9.109195E+04  3.691401E+05 -4.349339E+03  3.464243E+04
       248  22  4.652375E+05  1.182900E+05 -1.126114E+03  2.444747E+05 -1.520338E+04  4.281501E+04
       248  23  4.728505E+05  1.107528E+05 -5.980058E+02  2.358674E+05 -1.349097E+04  3.738169E+04
       248  24  4.652776E+05  1.183769E+05 -2.856738E+02  2.444540E+05 -1.173710E+04  3.184697E+04
       248  25 -1.271446E+05 -9.953148E+04 -1.222462E+05  7.900232E+04 -2.231010E+04  4.013003E+04
       248  26 -4.623947E+04 -8.016580E+04 -1.067976E+05  9.082705E+04 -2.073537E+04  3.464260E+04
       248  27  1.945763E+04 -4.566425E+04 -9.167424E+04  1.198495E+05 -1.911920E+04  2.905366E+04
       249   1  8.607611E+05  2.637858E+05  8.042988E+04  3.550402E+05  3.212742E+03 -3.143435E+04
       249   2  7.952085E+05  2.293871E+05  6.587618E+04  3.260203E+05  1.149871E+03 -2.598196E+04
       249   3  7.145217E+05  2.101482E+05  5.132623E+04  3.141452E+05 -9.157536E+02 -2.052724E+04
       249   4  4.652956E+05  1.183777E+05 -1.833460E+02  2.444456E+05  1.057119E+04 -2.864898E+04
       249   5  4.728766E+05  1.108164E+05 -8.443794E+00  2.358708E+05  8.511385E+03 -2.319416E+04
       249   6  4.653163E+05  1.184137E+05  1.672291E+02  2.444389E+05  6.448825E+03 -1.773701E+04
       249   7  6.999096E+04 -2.701648E+04 -8.080424E+04  1.339161E+05  1.792459E+04 -2.586553E+04
       249   8  1.506527E+05 -7.744674E+03 -6.589776E+04  1.457649E+05  1.586876E+04 -2.040793E+04
       249   9  2.161768E+05  2.668548E+04 -5.099419E+04  1.747589E+05  1.381016E+04 -1.494801E+04
       249  10  8.607608E+05  2.637847E+05  8.042801E+04  3.550403E+05  1.804030E-09  1.336924E-08
       249  11  7.952083E+05  2.293864E+05  6.587491E+04  3.260203E+05  1.888037E-09  1.433060E-08
       249  12  7.145215E+05  2.101478E+05  5.132544E+04  3.141452E+05  1.181992E-09 -7.915030E-11
       249  13  4.652953E+05  1.183768E+05 -1.850989E+02  2.444459E+05 -2.264561E-09  1.744768E-09
       249  14  4.728763E+05  1.108158E+05 -9.591189E+00  2.358709E+05  1.648005E-10  4.359604E-09
       249  15  4.653162E+05  1.184134E+05  1.665595E+02  2.444390E+05  4.867854E-09  6.620894E-09
       249  16  6.999044E+04 -2.701728E+04 -8.080610E+04  1.339165E+05 -4.930819E-09 -2.197263E-09
       249  17  1.506524E+05 -7.745189E+03 -6.589902E+04  1.457651E+05 -1.175143E-09 -8.397649E-09
       249  18  2.161765E+05  2.668519E+04 -5.099497E+04  1.747591E+05  1.048836E-08  6.819481E-09
       249  19  8.607611E+05  2.637858E+05  8.042988E+04  3.550402E+05 -3.212742E+03  3.143435E+04
       249  20  7.952085E+05  2.293871E+05  6.587618E+04  3.260203E+05 -1.149871E+03  2.598196E+04
       249  21  7.145217E+05  2.101482E+05  5.132623E+04  3.141452E+05  9.157536E+02  2.052724E+04
       249  22  4.652956E+05  1.183777E+05 -1.833460E+02  2.444456E+05 -1.057119E+04  2.864898E+04
       249  23  4.728766E+05  1.108164E+05 -8.443794E+00  2.358708E+05 -8.511385E+03  2.319416E+04
       249  24  4.653163E+05  1.184137E+05  1.672291E+02  2.444389E+05 -6.448825E+03  1.773701E+04
       249  25  6.999096E+04 -2.701648E+04 -8.080424E+04  1.339161E+05 -1.792459E+04  2.586553E+04
       249  26  1.506527E+05 -7.744674E+03 -6.589776E+04  1.457649E+05 -1.586876E+04  2.040793E+04
       249  27  2.161768E+05  2.668548E+04 -5.099419E+04  1.747589E+05 -1.381016E+04  1.494801E+04
       250   1  6.640953E+05  1.915269E+05  4.068029E+04  3.000711E+05 -2.151132E+03 -1.736458E+04
       250   2  5.986330E+05  1.571500E+05  2.626756E+04  2.710955E+05 -4.486646E+03 -1.201559E+04
       250   3  5.180726E+05  1.379248E+05  1.205672E+04  2.592465E+05 -6.820912E+03 -6.671730E+03
       250   4  4.653314E+05  1.184155E+05  2.676076E+02  2.444364E+05  5.209172E+03 -1.457543E+04
       250   5  4.728846E+05  1.108389E+05  5.571146E+02  2.358749E+05  2.866552E+03 -9.228627E+03
       250   6  4.653370E+05  1.184158E+05  1.054405E+03  2.444387E+05  5.251462E+02 -3.886957E+03
       250   7  2.666067E+05  4.530707E+04 -4.014728E+04  1.888176E+05  1.256700E+04 -1.178723E+04
       250   8  3.471521E+05  6.452914E+04 -2.515406E+04  2.006609E+05  1.021818E+04 -6.442260E+03
       250   9  4.126042E+05  9.890704E+04 -9.947830E+03  2.296321E+05  7.870534E+03 -1.102441E+03
       250  10  6.640952E+05  1.915266E+05  4.067972E+04  3.000711E+05  6.515423E-09  6.928134E-10
       250  11  5.986329E+05  1.571498E+05  2.626726E+04  2.710954E+05 -3.174710E-09  6.373111E-09
       250  12  5.180726E+05  1.379247E+05  1.205655E+04  2.592465E+05 -4.734846E-09 -2.276016E-09
       250  13  4.653313E+05  1.184153E+05  2.671573E+02  2.444364E+05  2.748758E-09  3.740127E-09
       250  14  4.728846E+05  1.108388E+05  5.569391E+02  2.358750E+05 -3.604969E-09  2.863701E-09
       250  15  4.653370E+05  1.184158E+05  1.054376E+03  2.444387E+05 -1.831230E-09  6.511072E-09
       250  16  2.666065E+05  4.530688E+04 -4.014784E+04  1.888178E+05  5.963959E-09  9.251654E-09
       250  17  3.471520E+05  6.452907E+04 -2.515433E+04  2.006610E+05 -4.449214E-10  5.031819E-09
       250  18  4.126042E+05  9.890703E+04 -9.947948E+03  2.296321E+05  2.365901E-09  2.289362E-09
       250  19  6.640953E+05  1.915269E+05  4.068029E+04  3.000711E+05  2.151132E+03  1.736458E+04
       250  20  5.986330E+05  1.571500E+05  2.626756E+04  2.710955E+05  4.486646E+03  1.201559E+04
       250  21  5.180726E+05  1.379248E+05  1.205672E+04  2.592465E+05  6.820912E+03  6.671730E+03
       250  22  4.653314E+05  1.184155E+05  2.676076E+02  2.444364E+05 -5.209172E+03  1.457543E+04
       250  23  4.728846E+05  1.108389E+05  5.571146E+02  2.358749E+05 -2.866552E+03  9.228627E+03
       250  24  4.653370E+05  1.184158E+05  1.054405E+03  2.444387E+05 -5.251462E+02  3.886957E+03
       250  25  2.666067E+05  4.530707E+04 -4.014728E+04  1.888176E+05 -1.256700E+04  1.178723E+04
       250  26  3.471521E+05  6.452914E+04 -2.515406E+04  2.006609E+05 -1.021818E+04  6.442260E+03
       250  27  4.126042E+05  9.890704E+04 -9.947830E+03  2.296321E+05 -7.870534E+03  1.102441E+03
       251   1  4.677053E+05  1.193276E+05  1.682158E+03  2.452217E+05 -8.241083E+03 -3.580706E+03
       251   2  4.021614E+05  8.493497E+04 -1.187699E+04  2.162630E+05 -1.150371E+04  1.385926E+03
       251   3  3.216875E+05  6.581440E+04 -2.450818E+04  2.044418E+05 -1.474325E+04  6.293412E+03
       251   4  4.653731E+05  1.184114E+05  1.416950E+03  2.444541E+05 -8.830919E+02 -7.913511E+02
       251   5  4.728350E+05  1.107966E+05  2.584214E+03  2.358747E+05 -4.226299E+03  4.144438E+03
       251   6  4.653772E+05  1.184690E+05  4.742999E+03  2.444304E+05 -7.546588E+03  9.021059E+03
       251   7  4.630410E+05  1.174953E+05  1.151979E+03  2.436866E+05  6.474814E+03  1.997969E+03
       251   8  5.435139E+05  1.366588E+05  1.704539E+04  2.554886E+05  3.052004E+03  6.903284E+03
       251   9  6.090894E+05  1.711259E+05  3.399367E+04  2.844278E+05 -3.480812E+02  1.174940E+04
       251  10  4.677053E+05  1.193276E+05  1.682006E+03  2.452217E+05 -2.687041E-08 -9.870564E-09
       251  11  4.021612E+05  8.493494E+04 -1.187724E+04  2.162630E+05 -6.497176E-09 -7.096710E-09
       251  12  3.216873E+05  6.581430E+04 -2.450867E+04  2.044419E+05  1.678704E-08  2.130107E-09
       251  13  4.653731E+05  1.184114E+05  1.416947E+03  2.444541E+05 -3.247617E-09  3.029735E-10
       251  14  4.728350E+05  1.107966E+05  2.584148E+03  2.358748E+05 -7.239684E-09 -2.263274E-09
       251  15  4.653771E+05  1.184689E+05  4.742739E+03  2.444304E+05 -6.304564E-10 -4.891298E-09
       251  16  4.630410E+05  1.174953E+05  1.151893E+03  2.436866E+05  2.227859E-08  1.131313E-08
       251  17  5.435138E+05  1.366587E+05  1.704528E+04  2.554886E+05 -4.270601E-09 -9.276728E-09
       251  18  6.090893E+05  1.711257E+05  3.399341E+04  2.844278E+05 -1.955044E-08 -1.192696E-08
       251  19  4.677053E+05  1.193276E+05  1.682158E+03  2.452217E+05  8.241083E+03  3.580706E+03
       251  20  4.021614E+05  8.493497E+04 -1.187699E+04  2.162630E+05  1.150371E+04 -1.385926E+03
       251  21  3.216875E+05  6.581440E+04 -2.450818E+04  2.044418E+05  1.474325E+04 -6.293412E+03
       251  22  4.653731E+05  1.184114E+05  1.416950E+03  2.444541E+05  8.830919E+02  7.913511E+02
       251  23  4.728350E+05  1.107966E+05  2.584214E+03  2.358747E+05  4.226299E+03 -4.144438E+03
       251  24  4.653772E+05  1.184690E+05  4.742999E+03  2.444304E+05  7.546588E+03 -9.021059E+03
       251  25  4.630410E+05  1.174953E+05  1.151979E+03  2.436866E+05 -6.474814E+03 -1.997969E+03
       251  26  5.435139E+05  1.366588E+05  1.704539E+04  2.554886E+05 -3.052004E+03 -6.903284E+03
       251  27  6.090894E+05  1.711259E+05  3.399367E+04  2.844278E+05  3.480812E+02 -1.174940E+04
       252   1  2.711492E+05  4.738426E+04 -3.368222E+04  1.909498E+05 -1.704112E+04  9.067212E+03
       252   2  2.057474E+05  1.252488E+04 -4.363460E+04  1.608575E+05 -2.343368E+04  1.237673E+04
       252   3  1.268536E+05 -4.480048E+03 -4.950873E+04  1.473470E+05 -2.946448E+04  1.473690E+04
       252   4  4.656330E+05  1.183076E+05  6.309448E+03  2.446038E+05 -9.640954E+03  1.187162E+04
       252   5  4.724978E+05  1.109961E+05  1.149085E+04  2.356510E+05 -1.731744E+04  1.469353E+04
       252   6  4.661185E+05  1.217913E+05  2.176643E+04  2.432770E+05 -2.463280E+04  1.656611E+04
       252   7  6.601555E+05  1.892340E+05  4.629937E+04  2.982732E+05 -2.238290E+03  1.467694E+04
       252   8  7.393202E+05  2.094732E+05  6.661242E+04  3.104739E+05 -1.119840E+04  1.701140E+04
       252   9  8.054985E+05  2.480720E+05  9.303464E+04  3.392548E+05 -1.979830E+04  1.839640E+04
       252  10  2.711489E+05  4.738409E+04 -3.368292E+04  1.909499E+05 -2.695036E-08 -1.660312E-08
       252  11  2.057467E+05  1.252457E+04 -4.363592E+04  1.608578E+05 -9.369623E-09 -4.947350E-09
       252  12  1.268526E+05 -4.480514E+03 -4.951077E+04  1.473473E+05  1.634704E-08  7.866890E-09
       252  13  4.656328E+05  1.183074E+05  6.309008E+03  2.446038E+05 -2.870671E-09 -1.331969E-08
       252  14  4.724974E+05  1.109958E+05  1.148988E+04  2.356512E+05 -3.661599E-09 -7.737233E-09
       252  15  4.661178E+05  1.217908E+05  2.176477E+04  2.432773E+05 -7.208128E-10 -1.300074E-08
       252  16  6.601555E+05  1.892338E+05  4.629896E+04  2.982732E+05  2.493359E-08  1.169377E-08
       252  17  7.393200E+05  2.094729E+05  6.661164E+04  3.104740E+05 -7.626585E-12 -5.270173E-09
       252  18  8.054980E+05  2.480715E+05  9.303327E+04  3.392551E+05 -2.145414E-08 -1.283352E-08
       252  19  2.711492E+05  4.738426E+04 -3.368222E+04  1.909498E+05  1.704112E+04 -9.067212E+03
       252  20  2.057474E+05  1.252488E+04 -4.363460E+04  1.608575E+05  2.343368E+04 -1.237673E+04
       252  21  1.268536E+05 -4.480048E+03 -4.950873E+04  1.473470E+05  2.946448E+04 -1.473690E+04
       252  22  4.656330E+05  1.183076E+05  6.309448E+03  2.446038E+05  9.640954E+03 -1.187162E+04
       252  23  4.724978E+05  1.109961E+05  1.149085E+04  2.356510E+05  1.731744E+04 -1.469353E+04
       252  24  4.661185E+05  1.217913E+05  2.176643E+04  2.432770E+05  2.463280E+04 -1.656611E+04
       252  25  6.601555E+05  1.892340E+05  4.629937E+04  2.982732E+05  2.238290E+03 -1.467694E+04
       252  26  7.393202E+05  2.094732E+05  6.661242E+04  3.104739E+05  1.119840E+04 -1.701140E+04
       252  27  8.054985E+05  2.480720E+05  9.303464E+04  3.392548E+05  1.979830E+04 -1.839640E+04
       253   1  7.155485E+04 -1.947333E+04 -5.362476E+04  1.449778E+05 -3.725308E+04  1.565047E+04
       253   2  2.195959E+04 -6.563197E+04 -5.059260E+04  8.265764E+04 -4.400459E+04  1.127221E+04
       253   3 -1.702778E+04 -3.370580E+04 -2.457213E+04  1.972343E+04 -4.503180E+04 -8.228916E+03
       253   4  4.696992E+05  1.178291E+05  2.837806E+04  2.463374E+05 -2.921819E+04  1.869294E+04
       253   5  4.688585E+05  1.220813E+05  5.278167E+04  2.294813E+05 -5.637699E+04  6.583841E+03
       253   6  4.826446E+05  2.084266E+05  1.163358E+05  2.120134E+05 -7.781566E+04 -2.064401E+04
       253   7  8.680099E+05  2.551418E+05  1.103741E+05  3.477558E+05 -2.117763E+04  2.173723E+04
       253   8  9.159606E+05  3.098269E+05  1.561431E+05  3.764075E+05 -6.875899E+04  1.890742E+03
       253   9  9.825630E+05  4.506243E+05  2.572233E+05  4.044574E+05 -1.106279E+05 -3.307692E+04
       253  10  7.155330E+04 -1.947396E+04 -5.362782E+04  1.449783E+05 -4.754385E-11  5.526866E-09
       253  11  2.195747E+04 -6.563262E+04 -5.059647E+04  8.265804E+04 -4.132173E-10  8.317232E-09
       253  12 -1.702997E+04 -3.370642E+04 -2.457607E+04  1.972314E+04  1.296000E-09  5.614059E-09
       253  13  4.696982E+05  1.178285E+05  2.837580E+04  2.463378E+05  5.247071E-10 -6.284839E-09
       253  14  4.688551E+05  1.220805E+05  5.277562E+04  2.294816E+05 -1.418272E-09  6.723830E-09
       253  15  4.826380E+05  2.084245E+05  1.163237E+05  2.120121E+05 -5.851495E-10  1.940024E-09
       253  16  8.680093E+05  2.551412E+05  1.103724E+05  3.477562E+05 -1.426554E-09 -2.367123E-09
       253  17  9.159555E+05  3.098257E+05  1.561342E+05  3.764076E+05 -2.366714E-09 -1.020270E-09
       253  18  9.825496E+05  4.506198E+05  2.571983E+05  4.044545E+05 -1.934931E-09 -6.087881E-09
       253  19  7.155485E+04 -1.947333E+04 -5.362476E+04  1.449778E+05  3.725308E+04 -1.565047E+04
       253  20  2.195959E+04 -6.563197E+04 -5.059260E+04  8.265764E+04  4.400459E+04 -1.127221E+04
       253  21 -1.702778E+04 -3.370580E+04 -2.457213E+04  1.972343E+04  4.503180E+04  8.228916E+03
       253  22  4.696992E+05  1.178291E+05  2.837806E+04  2.463374E+05  2.921819E+04 -1.869294E+04
       253  23  4.688585E+05  1.220813E+05  5.278167E+04  2.294813E+05  5.637699E+04 -6.583841E+03
       253  24  4.826446E+05  2.084266E+05  1.163358E+05  2.120134E+05  7.781566E+04  2.064401E+04
       253  25  8.680099E+05  2.551418E+05  1.103741E+05  3.477558E+05  2.117763E+04 -2.173723E+04
       253  26  9.159606E+05  3.098269E+05  1.561431E+05  3.764075E+05  6.875899E+04 -1.890742E+03
       253  27  9.825630E+05  4.506243E+05  2.572233E+05  4.044574E+05  1.106279E+05  3.307692E+04
       254   1  4.921601E+04 -5.086094E+03 -8.212239E+03 -2.000401E+03 -1.086537E+04 -5.183203E+02
       254   2  4.335373E+04  7.619098E+03 -1.076534E+03  1.153492E+03 -7.583669E+03 -1.455837E+03
       254   3  3.362396E+04  6.663860E+03  5.047263E+02  7.347346E+03 -4.305787E+03 -1.302502E+03
       254   4  9.321092E+03 -1.493672E+04 -1.787253E+04  5.226360E+03 -1.229932E+04 -5.234013E+02
       254   5  1.134601E+04 -1.816716E+02 -8.180285E+03  3.679279E+03 -7.970640E+03 -1.457214E+03
       254   6  9.321329E+03  7.306921E+02 -4.769811E+03  5.172206E+03 -3.645727E+03 -1.300199E+03
       254   7 -3.057225E+04 -2.478726E+04 -2.753289E+04  1.245265E+04 -1.373318E+04 -5.285158E+02
       254   8 -2.066073E+04 -7.982486E+03 -1.528410E+04  6.204934E+03 -8.357592E+03 -1.458594E+03
       254   9 -1.498074E+04 -5.202497E+03 -1.004438E+04  2.997151E+03 -2.985693E+03 -1.297900E+03
       254  10  4.921588E+04 -5.086126E+03 -8.212462E+03 -2.000406E+03 -7.282760E-09  1.228601E-09
       254  11  4.335366E+04  7.619080E+03 -1.076646E+03  1.153483E+03 -1.604960E-09  1.132127E-08
       254  12  3.362394E+04  6.663853E+03  5.046883E+02  7.347342E+03  2.340880E-09  1.437385E-09
       254  13  9.320929E+03 -1.493676E+04 -1.787281E+04  5.226355E+03 -1.081152E-09 -5.706091E-09
       254  14  1.134595E+04 -1.816909E+02 -8.180409E+03  3.679270E+03 -1.487543E-09 -1.596029E-08
       254  15  9.321314E+03  7.306867E+02 -4.769839E+03  5.172202E+03 -2.273018E-12  2.912779E-09
       254  16 -3.057246E+04 -2.478731E+04 -2.753324E+04  1.245265E+04  7.596124E-09  1.237615E-09
       254  17 -2.066080E+04 -7.982507E+03 -1.528423E+04  6.204924E+03  9.901552E-10  1.012571E-08
       254  18 -1.498075E+04 -5.202501E+03 -1.004440E+04  2.997148E+03 -2.837349E-09  3.708815E-09
       254  19  4.921601E+04 -5.086094E+03 -8.212239E+03 -2.000401E+03  1.086537E+04  5.183203E+02
       254  20  4.335373E+04  7.619098E+03 -1.076534E+03  1.153492E+03  7.583669E+03  1.455837E+03
       254  21  3.362396E+04  6.663860E+03  5.047263E+02  7.347346E+03  4.305787E+03  1.302502E+03
       254  22  9.321092E+03 -1.493672E+04 -1.787253E+04  5.226360E+03  1.229932E+04  5.234013E+02
       254  23  1.134601E+04 -1.816716E+02 -8.180285E+03  3.679279E+03  7.970640E+03  1.457214E+03
       254  24  9.321329E+03  7.306921E+02 -4.769811E+03  5.172206E+03  3.645727E+03  1.300199E+03
       254  25 -3.057225E+04 -2.478726E+04 -2.753289E+04  1.245265E+04  1.373318E+04  5.285158E+02
       254  26 -2.066073E+04 -7.982486E+03 -1.528410E+04  6.204934E+03  8.357592E+03  1.458594E+03
       254  27 -1.498074E+04 -5.202497E+03 -1.004438E+04  2.997151E+03  2.985693E+03  1.297900E+03
       255   1  2.828032E+04  3.686357E+03  1.692883E+02  4.975085E+03 -3.327209E+03 -9.487187E+02
       255   2  2.069334E+04  2.566147E+03  2.031636E+02  3.631027E+03 -2.348691E+03 -5.554747E+02
       255   3  1.277220E+04  7.247583E+02 -5.864211E+02  5.343623E+03 -1.370374E+03 -1.127401E+02
       255   4  1.014512E+04 -7.281159E+02 -3.778289E+03  5.191024E+03 -2.976656E+03 -9.475033E+02
       255   5  1.031644E+04  4.076289E+01 -2.048881E+03  3.661285E+03 -1.950659E+03 -5.540909E+02
       255   6  1.014516E+04  8.018032E+01 -1.175960E+03  5.188209E+03 -9.248541E+02 -1.111879E+02
       255   7 -7.989775E+03 -5.142611E+03 -7.725886E+03  5.406956E+03 -2.626113E+03 -9.462878E+02
       255   8 -6.036165E+01 -2.484629E+03 -4.300932E+03  3.691543E+03 -1.552635E+03 -5.527071E+02
       255   9  7.518130E+03 -5.643979E+02 -1.765498E+03  5.032795E+03 -4.793360E+02 -1.096360E+02
       255  10  2.828030E+04  3.686354E+03  1.692658E+02  4.975083E+03 -1.863963E-10 -5.321883E-09
       255  11  2.069333E+04  2.566146E+03  2.031527E+02  3.631026E+03 -1.319728E-09  2.482491E-09
       255  12  1.277220E+04  7.247578E+02 -5.864247E+02  5.343623E+03  5.403374E-10  1.017104E-08
       255  13  1.014511E+04 -7.281192E+02 -3.778308E+03  5.191022E+03  1.058699E-09  1.125831E-08
       255  14  1.031643E+04  4.076154E+01 -2.048889E+03  3.661284E+03 -1.463120E-09 -2.079057E-08
       255  15  1.014516E+04  8.018007E+01 -1.175961E+03  5.188209E+03 -5.288050E-10  8.503602E-09
       255  16 -7.989782E+03 -5.142614E+03 -7.725901E+03  5.406954E+03 -2.928244E-10 -5.057176E-09
       255  17 -6.036432E+01 -2.484630E+03 -4.300937E+03  3.691542E+03 -2.380649E-11 -1.810084E-09
       255  18  7.518130E+03 -5.643980E+02 -1.765498E+03  5.032795E+03 -1.166264E-09  2.268854E-09
       255  19  2.828032E+04  3.686357E+03  1.692883E+02  4.975085E+03  3.327209E+03  9.487187E+02
       255  20  2.069334E+04  2.566147E+03  2.031636E+02  3.631027E+03  2.348691E+03  5.554747E+02
       255  21  1.277220E+04  7.247583E+02 -5.864211E+02  5.343623E+03  1.370374E+03  1.127401E+02
       255  22  1.014512E+04 -7.281159E+02 -3.778289E+03  5.191024E+03  2.976656E+03  9.475033E+02
       255  23  1.031644E+04  4.076289E+01 -2.048881E+03  3.661285E+03  1.950659E+03  5.540909E+02
       255  24  1.014516E+04  8.018032E+01 -1.175960E+03  5.188209E+03  9.248541E+02  1.111879E+02
       255  25 -7.989775E+03 -5.142611E+03 -7.725886E+03  5.406956E+03  2.626113E+03  9.462878E+02
       255  26 -6.036165E+01 -2.484629E+03 -4.300932E+03  3.691543E+03  1.552635E+03  5.527071E+02
       255  27  7.518130E+03 -5.643979E+02 -1.765498E+03  5.032795E+03  4.793360E+02  1.096360E+02
       256   1  6.677465E+03 -8.570941E+02 -1.678348E+03  5.198447E+03 -1.174725E+03  1.557771E+02
       256   2 -1.042902E+03 -2.711436E+03 -2.935691E+03  3.648921E+03 -9.322324E+02  6.072065E+02
       256   3 -8.826599E+03 -4.585854E+03 -4.362273E+03  5.156792E+03 -6.897407E+02  1.060878E+03
       256   4  1.020715E+04  5.213584E+00 -8.958778E+02  5.189178E+03 -7.432519E+02  1.572800E+02
       256   5  1.023894E+04  3.267734E+01 -4.967777E+02  3.660419E+03 -4.986061E+02  6.087140E+02
       256   6  1.020709E+04  3.972278E+01 -2.683809E+02  5.189053E+03 -2.539582E+02  1.062390E+03
       256   7  1.373684E+04  8.675205E+02 -1.134082E+02  5.179908E+03 -3.117765E+02  1.587828E+02
       256   8  2.152091E+04  2.776782E+03  1.942129E+03  3.671916E+03 -6.497212E+01  6.102215E+02
       256   9  2.924112E+04  4.665276E+03  3.825491E+03  5.221314E+03  1.818375E+02  1.063902E+03
       256  10  6.677463E+03 -8.570945E+02 -1.678350E+03  5.198447E+03  6.527424E-10 -4.955565E-09
       256  11 -1.042903E+03 -2.711436E+03 -2.935693E+03  3.648922E+03  5.528141E-09 -1.748237E-09
       256  12 -8.826600E+03 -4.585855E+03 -4.362276E+03  5.156792E+03  9.424284E-09 -6.270671E-10
       256  13  1.020715E+04  5.213409E+00 -8.958789E+02  5.189178E+03 -1.080778E-09  9.434132E-10
       256  14  1.023894E+04  3.267687E+01 -4.967789E+02  3.660419E+03 -1.466620E-09 -1.007125E-08
       256  15  1.020709E+04  3.972155E+01 -2.683831E+02  5.189053E+03  1.529360E-09 -3.430330E-10
       256  16  1.373684E+04  8.675205E+02 -1.134084E+02  5.179908E+03 -1.122109E-09 -8.721531E-09
       256  17  2.152091E+04  2.776782E+03  1.942128E+03  3.671916E+03 -6.862712E-09  3.875323E-09
       256  18  2.924112E+04  4.665275E+03  3.825489E+03  5.221314E+03 -9.548627E-09  9.067600E-09
       256  19  6.677465E+03 -8.570941E+02 -1.678348E+03  5.198447E+03  1.174725E+03 -1.557771E+02
       256  20 -1.042902E+03 -2.711436E+03 -2.935691E+03  3.648921E+03  9.322324E+02 -6.072065E+02
       256  21 -8.826599E+03 -4.585854E+03 -4.362273E+03  5.156792E+03  6.897407E+02 -1.060878E+03
       256  22  1.020715E+04  5.213584E+00 -8.958778E+02  5.189178E+03  7.432519E+02 -1.572800E+02
       256  23  1.023894E+04  3.267734E+01 -4.967777E+02  3.660419E+03  4.986061E+02 -6.087140E+02
       256  24  1.020709E+04  3.972278E+01 -2.683809E+02  5.189053E+03  2.539582E+02 -1.062390E+03
       256  25  1.373684E+04  8.675205E+02 -1.134082E+02  5.179908E+03  3.117765E+02 -1.587828E+02
       256  26  2.152091E+04  2.776782E+03  1.942129E+03  3.671916E+03  6.497212E+01 -6.102215E+02
       256  27  2.924112E+04  4.665276E+03  3.825491E+03  5.221314E+03 -1.818375E+02 -1.063902E+03
       257   1 -1.497446E+04 -6.095157E+03 -5.657353E+03  5.133355E+03 -6.487346E+02  1.325118E+03
       257   2 -2.271384E+04 -7.987022E+03 -7.191659E+03  3.583122E+03 -6.162838E+02  1.778585E+03
       257   3 -3.047888E+04 -9.859895E+03 -8.748574E+03  5.090625E+03 -5.838155E+02  2.232149E+03
       257   4  1.021545E+04  3.662027E+01 -1.894141E+02  5.189166E+03 -2.135847E+02  1.326625E+03
       257   5  1.022824E+04  2.627279E+01 -6.895344E+01  3.660304E+03 -1.810434E+02  1.780084E+03
       257   6  1.021529E+04  3.490501E+01  2.883744E+01  5.189167E+03 -1.484841E+02  2.233640E+03
       257   7  3.540595E+04  6.168356E+03  5.278487E+03  5.244979E+03  2.215825E+02  1.328131E+03
       257   8  4.317134E+04  8.039496E+03  7.053689E+03  3.737489E+03  2.542198E+02  1.781583E+03
       257   9  5.091103E+04  9.929597E+03  8.806152E+03  5.287715E+03  2.868754E+02  2.235132E+03
       257  10 -1.497446E+04 -6.095159E+03 -5.657357E+03  5.133356E+03 -8.823374E-09 -5.923343E-09
       257  11 -2.271384E+04 -7.987026E+03 -7.191666E+03  3.583123E+03 -2.037766E-08 -6.321810E-10
       257  12 -3.047889E+04 -9.859901E+03 -8.748584E+03  5.090626E+03 -2.300795E-08 -3.106545E-09
       257  13  1.021545E+04  3.661837E+01 -1.894175E+02  5.189167E+03 -1.043304E-09  1.048803E-09
       257  14  1.022824E+04  2.626938E+01 -6.895946E+01  3.660304E+03 -3.773759E-10 -6.634344E-09
       257  15  1.021529E+04  3.489965E+01  2.882802E+01  5.189167E+03 -2.776295E-10 -1.032438E-08
       257  16  3.540595E+04  6.168354E+03  5.278484E+03  5.244979E+03  8.160444E-09  4.342886E-09
       257  17  4.317134E+04  8.039493E+03  7.053682E+03  3.737488E+03  1.999606E-08  6.428215E-09
       257  18  5.091102E+04  9.929591E+03  8.806142E+03  5.287714E+03  2.388490E-08  5.478255E-10
       257  19 -1.497446E+04 -6.095157E+03 -5.657353E+03  5.133355E+03  6.487346E+02 -1.325118E+03
       257  20 -2.271384E+04 -7.987022E+03 -7.191659E+03  3.583122E+03  6.162838E+02 -1.778585E+03
       257  21 -3.047888E+04 -9.859895E+03 -8.748574E+03  5.090625E+03  5.838155E+02 -2.232149E+03
       257  22  1.021545E+04  3.662027E+01 -1.894141E+02  5.189166E+03  2.135847E+02 -1.326625E+03
       257  23  1.022824E+04  2.627279E+01 -6.895344E+01  3.660304E+03  1.810434E+02 -1.780084E+03
       257  24  1.021529E+04  3.490501E+01  2.883744E+01  5.189167E+03  1.484841E+02 -2.233640E+03
       257  25  3.540595E+04  6.168356E+03  5.278487E+03  5.244979E+03 -2.215825E+02 -1.328131E+03
       257  26  4.317134E+04  8.039496E+03  7.053689E+03  3.737489E+03 -2.542198E+02 -1.781583E+03
       257  27  5.091103E+04  9.929597E+03  8.806152E+03  5.287715E+03 -2.868754E+02 -2.235132E+03
       258   1 -3.663115E+04 -1.136611E+04 -1.007249E+04  5.075415E+03 -5.945836E+02  2.496082E+03
       258   2 -4.438097E+04 -1.326137E+04 -1.160412E+04  3.531500E+03 -6.958900E+02  2.949164E+03
       258   3 -5.213644E+04 -1.513112E+04 -1.306941E+04  5.046024E+03 -7.971624E+02  3.401959E+03
       258   4  1.021961E+04  3.497176E+01  7.916559E+01  5.189325E+03 -1.591855E+02  2.497567E+03
       258   5  1.022236E+04  2.131081E+01  2.024026E+02  3.660114E+03 -2.607820E+02  2.950635E+03
       258   6  1.021935E+04  3.318848E+01  3.921392E+02  5.189325E+03 -3.623458E+02  3.403415E+03
       258   7  5.707243E+04  1.143590E+04  1.023069E+04  5.303241E+03  2.762450E+02  2.499052E+03
       258   8  6.482850E+04  1.330380E+04  1.200874E+04  3.788736E+03  1.743637E+02  2.952106E+03
       258   9  7.257879E+04  1.519724E+04  1.385346E+04  5.332638E+03  7.251387E+01  3.404872E+03
       258  10 -3.663115E+04 -1.136611E+04 -1.007250E+04  5.075417E+03  8.691704E-09 -1.900915E-09
       258  11 -4.438098E+04 -1.326138E+04 -1.160413E+04  3.531502E+03  5.772584E-09 -9.427931E-09
       258  12 -5.213644E+04 -1.513113E+04 -1.306943E+04  5.046026E+03 -6.442039E-09 -4.971711E-09
       258  13  1.021961E+04  3.496505E+01  7.915382E+01  5.189325E+03 -3.190805E-11  6.491027E-09
       258  14  1.022236E+04  2.130145E+01  2.023861E+02  3.660114E+03 -9.064524E-10 -3.925670E-09
       258  15  1.021934E+04  3.317600E+01  3.921172E+02  5.189326E+03  8.504551E-10 -4.502972E-09
       258  16  5.707242E+04  1.143590E+04  1.023068E+04  5.303241E+03 -9.193133E-09  2.751822E-09
       258  17  6.482849E+04  1.330379E+04  1.200873E+04  3.788736E+03 -6.254452E-09 -1.539921E-08
       258  18  7.257878E+04  1.519723E+04  1.385344E+04  5.332638E+03  4.948536E-09 -9.072684E-09
       258  19 -3.663115E+04 -1.136611E+04 -1.007249E+04  5.075415E+03  5.945836E+02 -2.496082E+03
       258  20 -4.438097E+04 -1.326137E+04 -1.160412E+04  3.531500E+03  6.958900E+02 -2.949164E+03
       258  21 -5.213644E+04 -1.513112E+04 -1.306941E+04  5.046024E+03  7.971624E+02 -3.401959E+03
       258  22  1.021961E+04  3.497176E+01  7.916559E+01  5.189325E+03  1.591855E+02 -2.497567E+03
       258  23  1.022236E+04  2.131081E+01  2.024026E+02  3.660114E+03  2.607820E+02 -2.950635E+03
       258  24  1.021935E+04  3.318848E+01  3.921392E+02  5.189325E+03  3.623458E+02 -3.403415E+03
       258  25  5.707243E+04  1.143590E+04  1.023069E+04  5.303241E+03 -2.762450E+02 -2.499052E+03
       258  26  6.482850E+04  1.330380E+04  1.200874E+04  3.788736E+03 -1.743637E+02 -2.952106E+03
       258  27  7.257879E+04  1.519724E+04  1.385346E+04  5.332638E+03 -7.251387E+01 -3.404872E+03
       259   1 -5.827922E+04 -1.664333E+04 -1.430868E+04  5.044360E+03 -8.829507E+02  3.666180E+03
       259   2 -6.606271E+04 -1.854256E+04 -1.555874E+04  3.498533E+03 -1.340263E+03  4.116277E+03
       259   3 -7.378668E+04 -2.034542E+04 -1.649271E+04  5.010129E+03 -1.797512E+03  4.559573E+03
       259   4  1.023394E+04  2.731403E+01  5.269845E+02  5.189170E+03 -4.461814E+02  3.667633E+03
       259   5  1.020340E+04  1.008142E+01  9.330595E+02  3.660360E+03 -9.100729E+02  4.117690E+03
       259   6  1.023357E+04  9.038019E+01  1.659806E+03  5.188950E+03 -1.373907E+03  4.560945E+03
       259   7  7.875150E+04  1.669764E+04  1.536238E+04  5.333992E+03 -9.364507E+00  3.669087E+03
       259   8  8.647497E+04  1.856233E+04  1.742452E+04  3.822202E+03 -4.798308E+02  4.119102E+03
       259   9  9.426046E+04  2.052571E+04  1.981190E+04  5.367790E+03 -9.502452E+02  4.562317E+03
       259  10 -5.827922E+04 -1.664334E+04 -1.430871E+04  5.044362E+03 -1.301245E-08 -1.429267E-09
       259  11 -6.606272E+04 -1.854257E+04 -1.555878E+04  3.498537E+03 -4.553913E-09 -7.583517E-09
       259  12 -7.378669E+04 -2.034544E+04 -1.649275E+04  5.010136E+03  3.579244E-09  6.251470E-10
       259  13  1.023394E+04  2.729953E+01  5.269589E+02  5.189171E+03 -1.068071E-09 -4.633951E-09
       259  14  1.020339E+04  1.006299E+01  9.330261E+02  3.660363E+03 -4.683347E-09  2.566753E-09
       259  15  1.023357E+04  9.035735E+01  1.659763E+03  5.188955E+03 -1.733329E-09  4.575312E-10
       259  16  7.875150E+04  1.669763E+04  1.536235E+04  5.333993E+03  1.181190E-08  8.029972E-09
       259  17  8.647497E+04  1.856232E+04  1.742449E+04  3.822204E+03  2.443602E-09 -2.526579E-09
       259  18  9.426045E+04  2.052569E+04  1.981186E+04  5.367794E+03 -4.284591E-09  4.632329E-09
       259  19 -5.827922E+04 -1.664333E+04 -1.430868E+04  5.044360E+03  8.829507E+02 -3.666180E+03
       259  20 -6.606271E+04 -1.854256E+04 -1.555874E+04  3.498533E+03  1.340263E+03 -4.116277E+03
       259  21 -7.378668E+04 -2.034542E+04 -1.649271E+04  5.010129E+03  1.797512E+03 -4.559573E+03
       259  22  1.023394E+04  2.731403E+01  5.269845E+02  5.189170E+03  4.461814E+02 -3.667633E+03
       259  23  1.020340E+04  1.008142E+01  9.330595E+02  3.660360E+03  9.100729E+02 -4.117690E+03
       259  24  1.023357E+04  9.038019E+01  1.659806E+03  5.188950E+03  1.373907E+03 -4.560945E+03
       259  25  7.875150E+04  1.669764E+04  1.536238E+04  5.333992E+03  9.364507E+00 -3.669087E+03
       259  26  8.647497E+04  1.856233E+04  1.742452E+04  3.822202E+03  4.798308E+02 -4.119102E+03
       259  27  9.426046E+04  2.052571E+04  1.981190E+04  5.367790E+03  9.502452E+02 -4.562317E+03
       260   1 -7.983557E+04 -2.198802E+04 -1.734777E+04  5.234199E+03 -2.178802E+03  4.834255E+03
       260   2 -8.786421E+04 -2.383341E+04 -1.742445E+04  3.311166E+03 -3.928448E+03  5.239169E+03
       260   3 -9.534282E+04 -2.430145E+04 -1.602276E+04  4.437344E+03 -5.677536E+03  5.493599E+03
       260   4  1.034761E+04 -4.776956E+01  2.172763E+03  5.188534E+03 -1.712497E+03  4.835757E+03
       260   5  1.005989E+04 -5.840501E+00  3.775508E+03  3.661493E+03 -3.606860E+03  5.240168E+03
       260   6  1.034716E+04  1.438422E+03  6.956944E+03  5.183627E+03 -5.500686E+03  5.494104E+03
       260   7  1.005384E+05  2.189194E+04  2.169282E+04  5.142857E+03 -1.246125E+03  4.837259E+03
       260   8  1.079930E+05  2.382109E+04  2.497490E+04  4.011868E+03 -3.285221E+03  5.241167E+03
       260   9  1.160476E+05  2.717756E+04  2.993598E+04  5.930030E+03 -5.323806E+03  5.494609E+03
       260  10 -7.983558E+04 -2.198805E+04 -1.734783E+04  5.234207E+03  2.782058E-09  1.224984E-09
       260  11 -8.786423E+04 -2.383344E+04 -1.742453E+04  3.311183E+03 -2.102395E-09  3.094518E-09
       260  12 -9.534286E+04 -2.430150E+04 -1.602288E+04  4.437369E+03 -3.321251E-09 -9.478640E-09
       260  13  1.034760E+04 -4.779546E+01  2.172714E+03  5.188541E+03 -2.144253E-09 -3.735012E-09
       260  14  1.005987E+04 -5.873480E+00  3.775432E+03  3.661508E+03 -8.839821E-10  8.639093E-09
       260  15  1.034712E+04  1.438382E+03  6.956830E+03  5.183651E+03 -2.799165E-09  3.110250E-09
       260  16  1.005384E+05  2.189192E+04  2.169277E+04  5.142862E+03 -4.598895E-09 -3.430482E-09
       260  17  1.079930E+05  2.382106E+04  2.497482E+04  4.011882E+03 -1.060414E-12 -8.195885E-09
       260  18  1.160476E+05  2.717752E+04  2.993587E+04  5.930054E+03  1.083517E-09  5.211135E-09
       260  19 -7.983557E+04 -2.198802E+04 -1.734777E+04  5.234199E+03  2.178802E+03 -4.834255E+03
       260  20 -8.786421E+04 -2.383341E+04 -1.742445E+04  3.311166E+03  3.928448E+03 -5.239169E+03
       260  21 -9.534282E+04 -2.430145E+04 -1.602276E+04  4.437344E+03  5.677536E+03 -5.493599E+03
       260  22  1.034761E+04 -4.776956E+01  2.172763E+03  5.188534E+03  1.712497E+03 -4.835757E+03
       260  23  1.005989E+04 -5.840501E+00  3.775508E+03  3.661493E+03  3.606860E+03 -5.240168E+03
       260  24  1.034716E+04  1.438422E+03  6.956944E+03  5.183627E+03  5.500686E+03 -5.494104E+03
       260  25  1.005384E+05  2.189194E+04  2.169282E+04  5.142857E+03  1.246125E+03 -4.837259E+03
       260  26  1.079930E+05  2.382109E+04  2.497490E+04  4.011868E+03  3.285221E+03 -5.241167E+03
       260  27  1.160476E+05  2.717756E+04  2.993598E+04  5.930030E+03  5.323806E+03 -5.494609E+03
       261   1 -1.000959E+05 -2.845349E+04 -1.542940E+04  8.775015E+03 -7.854701E+03  6.013592E+03
       261   2 -1.112537E+05 -2.880045E+04 -1.134062E+04 -1.396994E+03 -1.262782E+04  5.504868E+03
       261   3 -1.155603E+05 -4.159527E+03  2.100786E+03 -8.722441E+03 -1.739026E+04  1.678019E+03
       261   4  1.186409E+04 -1.247309E+03  8.781425E+03  5.164450E+03 -6.736610E+03  6.017193E+03
       261   5  8.162571E+03  4.019922E+02  1.505732E+04  3.695044E+03 -1.469605E+04  5.498053E+03
       261   6  1.186378E+04  2.758947E+04  3.289734E+04  5.072030E+03 -2.264488E+04  1.660942E+03
       261   7  1.238359E+05  2.595810E+04  3.299152E+04  1.553215E+03 -5.618320E+03  6.020781E+03
       261   8  1.275922E+05  2.960356E+04  4.145440E+04  8.788063E+03 -1.676467E+04  5.491205E+03
       261   9  1.393032E+05  5.933800E+04  6.369293E+04  1.886933E+04 -2.790057E+04  1.643633E+03
       261  10 -1.000960E+05 -2.845354E+04 -1.542958E+04  8.775054E+03 -1.880032E-10 -5.848632E-09
       261  11 -1.112539E+05 -2.880052E+04 -1.134098E+04 -1.396938E+03  3.542694E-09  1.228040E-09
       261  12 -1.155606E+05 -4.159611E+03  2.100213E+03 -8.722417E+03  3.649765E-09  7.436788E-09
       261  13  1.186403E+04 -1.247360E+03  8.781271E+03  5.164483E+03 -2.161070E-09 -4.523262E-10
       261  14  8.162331E+03  4.019018E+02  1.505685E+04  3.695109E+03 -3.364022E-10  7.690192E-09
       261  15  1.186323E+04  2.758933E+04  3.289637E+04  5.072060E+03 -7.902056E-10  5.625360E-09
       261  16  1.238358E+05  2.595805E+04  3.299139E+04  1.553242E+03 -1.638550E-09  7.944936E-09
       261  17  1.275919E+05  2.960346E+04  4.145382E+04  8.788138E+03 -4.005976E-09  6.736304E-09
       261  18  1.393023E+05  5.933779E+04  6.369147E+04  1.886937E+04 -4.215253E-09 -7.271067E-10
       261  19 -1.000959E+05 -2.845349E+04 -1.542940E+04  8.775015E+03  7.854701E+03 -6.013592E+03
       261  20 -1.112537E+05 -2.880045E+04 -1.134062E+04 -1.396994E+03  1.262782E+04 -5.504868E+03
       261  21 -1.155603E+05 -4.159527E+03  2.100786E+03 -8.722441E+03  1.739026E+04 -1.678019E+03
       261  22  1.186409E+04 -1.247309E+03  8.781425E+03  5.164450E+03  6.736610E+03 -6.017193E+03
       261  23  8.162571E+03  4.019922E+02  1.505732E+04  3.695044E+03  1.469605E+04 -5.498053E+03
       261  24  1.186378E+04  2.758947E+04  3.289734E+04  5.072030E+03  2.264488E+04 -1.660942E+03
       261  25  1.238359E+05  2.595810E+04  3.299152E+04  1.553215E+03  5.618320E+03 -6.020781E+03
       261  26  1.275922E+05  2.960356E+04  4.145440E+04  8.788063E+03  1.676467E+04 -5.491205E+03
       261  27  1.393032E+05  5.933800E+04  6.369293E+04  1.886933E+04  2.790057E+04 -1.643633E+03
       262   1 -2.903604E+05 -1.200886E+06 -2.995250E+05  1.548532E+05 -9.935860E+03 -9.224159E+04
       262   2 -1.675676E+05 -1.016859E+06 -1.946904E+05  9.684644E+04 -3.012416E+04 -4.670893E+04
       262   3 -1.208904E+05 -8.571234E+05 -1.384820E+05  1.053606E+05 -2.691276E+04 -1.086009E+03
       262   4 -7.820415E+04 -3.491882E+05 -9.273185E+04  1.148504E+05 -1.002580E+04 -6.185726E+04
       262   5 -1.631136E+03 -3.389496E+05 -4.396832E+04  8.171250E+04 -3.014460E+04 -3.872559E+04
       262   6  2.766567E+03 -3.491059E+05 -2.822386E+04  1.150992E+05 -2.687151E+04 -1.551763E+04
       262   7  1.339050E+05  5.031776E+05  1.140131E+05  7.479293E+04 -1.011960E+04 -3.143126E+04
       262   8  1.642750E+05  3.393898E+05  1.067255E+05  6.656213E+04 -3.016542E+04 -3.073359E+04
       262   9  1.264069E+05  1.591547E+05  8.201970E+04  1.248459E+05 -2.683074E+04 -2.996091E+04
       262  10 -2.903628E+05 -1.200895E+06 -2.995412E+05  1.548524E+05 -1.133372E-09 -1.133625E-10
       262  11 -1.675692E+05 -1.016862E+06 -1.946962E+05  9.684530E+04 -5.518629E-09  7.030444E-09
       262  12 -1.208911E+05 -8.571236E+05 -1.384833E+05  1.053606E+05  7.233307E-10  3.588986E-10
       262  13 -7.820529E+04 -3.491923E+05 -9.273923E+04  1.148499E+05  7.349971E-10  9.456177E-09
       262  14 -1.632514E+03 -3.389515E+05 -4.397285E+04  8.171156E+04 -4.509320E-09 -6.834477E-09
       262  15  2.765727E+03 -3.491063E+05 -2.822567E+04  1.150988E+05 -1.690342E-09 -5.208349E-10
       262  16  1.339046E+05  5.031765E+05  1.140111E+05  7.479267E+04 -1.164118E-09  5.347607E-09
       262  17  1.642738E+05  3.393885E+05  1.067220E+05  6.656138E+04 -1.476570E-09 -2.795932E-09
       262  18  1.264059E+05  1.591535E+05  8.201666E+04  1.248453E+05 -3.549952E-09  1.585757E-09
       262  19 -2.903604E+05 -1.200886E+06 -2.995250E+05  1.548532E+05  9.935860E+03  9.224159E+04
       262  20 -1.675676E+05 -1.016859E+06 -1.946904E+05  9.684644E+04  3.012416E+04  4.670893E+04
       262  21 -1.208904E+05 -8.571234E+05 -1.384820E+05  1.053606E+05  2.691276E+04  1.086009E+03
       262  22 -7.820415E+04 -3.491882E+05 -9.273185E+04  1.148504E+05  1.002580E+04  6.185726E+04
       262  23 -1.631136E+03 -3.389496E+05 -4.396832E+04  8.171250E+04  3.014460E+04  3.872559E+04
       262  24  2.766567E+03 -3.491059E+05 -2.822386E+04  1.150992E+05  2.687151E+04  1.551763E+04
       262  25  1.339050E+05  5.031776E+05  1.140131E+05  7.479293E+04  1.011960E+04  3.143126E+04
       262  26  1.642750E+05  3.393898E+05  1.067255E+05  6.656213E+04  3.016542E+04  3.073359E+04
       262  27  1.264069E+05  1.591547E+05  8.201970E+04  1.248459E+05  2.683074E+04  2.996091E+04
       263   1 -9.480137E+04 -7.159078E+05 -1.051580E+05  1.181043E+05 -1.914353E+04 -3.329974E+03
       263   2 -4.867710E+04 -5.425002E+05 -6.233578E+04  8.187119E+04 -1.063819E+04  6.798616E+03
       263   3 -1.017704E+04 -3.717973E+05 -2.790797E+04  1.134355E+05 -1.671507E+03  1.692899E+04
       263   4 -4.430223E+03 -3.451395E+05 -2.437475E+04  1.153156E+05 -1.912145E+04 -1.129699E+04
       263   5 -3.031979E+02 -3.438017E+05 -1.927294E+04  8.141818E+04 -1.061584E+04 -1.607830E+03
       263   6 -3.720584E+03 -3.451189E+05 -2.225635E+04  1.153175E+05 -1.648991E+03  8.080401E+03
       263   7  8.593183E+04  2.575796E+04  5.640050E+04  1.125254E+05 -1.909930E+04 -1.926870E+04
       263   8  4.806813E+04 -1.450660E+05  2.378782E+04  8.096503E+04 -1.059349E+04 -1.001693E+04
       263   9  2.735885E+03 -3.184396E+05 -1.660448E+04  1.171995E+05 -1.626528E+03 -7.685653E+02
       263  10 -9.480176E+04 -7.159079E+05 -1.051587E+05  1.181042E+05  1.592708E-09 -3.123175E-09
       263  11 -4.867723E+04 -5.425003E+05 -6.233608E+04  8.187125E+04 -1.776176E-09  7.419420E-09
       263  12 -1.017712E+04 -3.717976E+05 -2.790851E+04  1.134356E+05  1.882869E-10 -2.000349E-09
       263  13 -4.430650E+03 -3.451397E+05 -2.437568E+04  1.153155E+05  4.554790E-10  6.165993E-09
       263  14 -3.033196E+02 -3.438018E+05 -1.927315E+04  8.141816E+04 -1.422647E-09 -6.691218E-09
       263  15 -3.720604E+03 -3.451190E+05 -2.225648E+04  1.153175E+05 -1.279444E-09 -1.490941E-09
       263  16  8.593134E+04  2.575747E+04  5.639912E+04  1.125251E+05 -2.072932E-09  5.166371E-09
       263  17  4.806798E+04 -1.450662E+05  2.378742E+04  8.096495E+04 -8.704190E-10 -3.864349E-09
       263  18  2.735882E+03 -3.184396E+05 -1.660448E+04  1.171995E+05 -1.726953E-10  9.956808E-10
       263  19 -9.480137E+04 -7.159078E+05 -1.051580E+05  1.181043E+05  1.914353E+04  3.329974E+03
       263  20 -4.867710E+04 -5.425002E+05 -6.233578E+04  8.187119E+04  1.063819E+04 -6.798616E+03
       263  21 -1.017704E+04 -3.717973E+05 -2.790797E+04  1.134355E+05  1.671507E+03 -1.692899E+04
       263  22 -4.430223E+03 -3.451395E+05 -2.437475E+04  1.153156E+05  1.912145E+04  1.129699E+04
       263  23 -3.031979E+02 -3.438017E+05 -1.927294E+04  8.141818E+04  1.061584E+04  1.607830E+03
       263  24 -3.720584E+03 -3.451189E+05 -2.225635E+04  1.153175E+05  1.648991E+03 -8.080401E+03
       263  25  8.593183E+04  2.575796E+04  5.640050E+04  1.125254E+05  1.909930E+04  1.926870E+04
       263  26  4.806813E+04 -1.450660E+05  2.378782E+04  8.096503E+04  1.059349E+04  1.001693E+04
       263  27  2.735885E+03 -3.184396E+05 -1.660448E+04  1.171995E+05  1.626528E+03  7.685653E+02
       264   1  2.915522E+04 -2.379394E+05 -8.244636E+02  1.241196E+05  5.310540E+03  2.422443E+04
       264   2  6.767552E+04 -5.827967E+04  2.545208E+04  6.946680E+04  1.149902E+04  3.139709E+04
       264   3  4.728335E+04  1.062570E+05  3.244159E+04  8.193027E+04  4.432142E+03  3.853450E+04
       264   4  2.263287E+03 -3.483896E+05 -2.507733E+04  1.152174E+05  5.341629E+03  1.190139E+04
       264   5 -1.332101E+03 -3.397242E+05 -3.770209E+04  8.156213E+04  1.149894E+04  3.178947E+04
       264   6 -6.606353E+04 -3.484295E+05 -7.845497E+04  1.150301E+05  4.398649E+03  5.163992E+04
       264   7 -2.462908E+04 -4.588278E+05 -4.933032E+04  1.063168E+05  5.373075E+03 -4.194872E+02
       264   8 -7.034460E+04 -6.210947E+05 -1.008612E+05  9.365197E+04  1.149887E+04  3.218167E+04
       264   9 -1.794216E+05 -8.029249E+05 -1.893654E+05  1.481058E+05  4.366541E+03  6.473575E+04
       264  10  2.915503E+04 -2.379400E+05 -8.256197E+02  1.241195E+05  2.159315E-09  3.642276E-10
       264  11  6.767511E+04 -5.828077E+04  2.544998E+04  6.946651E+04  1.081797E-09  5.142955E-09
       264  12  4.728293E+04  1.062554E+05  3.243876E+04  8.193013E+04  9.917025E-10  1.929842E-09
       264  13  2.263219E+03 -3.483897E+05 -2.507765E+04  1.152174E+05  1.295647E-09  2.718777E-09
       264  14 -1.332514E+03 -3.397253E+05 -3.770424E+04  8.156184E+04 -1.736358E-09 -5.696015E-09
       264  15 -6.606427E+04 -3.484324E+05 -7.846002E+04  1.150299E+05  9.308840E-10 -1.745732E-09
       264  16 -2.462911E+04 -4.588279E+05 -4.933037E+04  1.063168E+05 -1.358968E-09  1.979997E-09
       264  17 -7.034502E+04 -6.210958E+05 -1.008634E+05  9.365167E+04  1.818474E-09 -3.632007E-09
       264  18 -1.794227E+05 -8.029294E+05 -1.893733E+05  1.481055E+05  1.616050E-09 -2.481266E-11
       264  19  2.915522E+04 -2.379394E+05 -8.244636E+02  1.241196E+05 -5.310540E+03 -2.422443E+04
       264  20  6.767552E+04 -5.827967E+04  2.545208E+04  6.946680E+04 -1.149902E+04 -3.139709E+04
       264  21  4.728335E+04  1.062570E+05  3.244159E+04  8.193027E+04 -4.432142E+03 -3.853450E+04
       264  22  2.263287E+03 -3.483896E+05 -2.507733E+04  1.152174E+05 -5.341629E+03 -1.190139E+04
       264  23 -1.332101E+03 -3.397242E+05 -3.770209E+04  8.156213E+04 -1.149894E+04 -3.178947E+04
       264  24 -6.606353E+04 -3.484295E+05 -7.845497E+04  1.150301E+05 -4.398649E+03 -5.163992E+04
       264  25 -2.462908E+04 -4.588278E+05 -4.933032E+04  1.063168E+05 -5.373075E+03  4.194872E+02
       264  26 -7.034460E+04 -6.210947E+05 -1.008612E+05  9.365197E+04 -1.149887E+04 -3.218167E+04
       264  27 -1.794216E+05 -8.029249E+05 -1.893654E+05  1.481058E+05 -4.366541E+03 -6.473575E+04
       265   1  2.855184E+05  9.509201E+04  5.038889E+04  1.149284E+05  3.028294E+04  1.133327E+04
       265   2  2.782053E+05  4.838838E+04  2.204503E+04  1.142953E+05  1.902945E+04  6.896093E+03
       265   3  2.834603E+05  3.824476E+04  1.159793E+04  1.070063E+05  7.611342E+03  2.893921E+03
       265   4  2.846185E+05  7.790438E+04  4.685304E+04  9.751680E+04  2.995229E+04  1.120695E+04
       265   5  2.757901E+05  4.165595E+04  2.039289E+04  1.076699E+05  1.908953E+04  6.918640E+03
       265   6  2.794524E+05  4.188942E+04  1.151985E+04  1.111669E+05  8.062067E+03  3.064800E+03
       265   7  2.837193E+05  6.071853E+04  4.331741E+04  8.010573E+04  2.962165E+04  1.108065E+04
       265   8  2.733749E+05  3.492375E+04  1.874077E+04  1.010445E+05  1.914962E+04  6.941184E+03
       265   9  2.754445E+05  4.553423E+04  1.144179E+04  1.153276E+05  8.512791E+03  3.235689E+03
       265  10  2.855174E+05  9.509162E+04  5.038693E+04  1.149281E+05 -4.873012E-09  3.145223E-09
       265  11  2.782049E+05  4.838823E+04  2.204426E+04  1.142952E+05 -7.959991E-09  6.544120E-11
       265  12  2.834602E+05  3.824473E+04  1.159780E+04  1.070063E+05 -2.769756E-09  1.007659E-08
       265  13  2.846175E+05  7.790401E+04  4.685112E+04  9.751653E+04 -1.751241E-09 -6.649381E-09
       265  14  2.757897E+05  4.165580E+04  2.039211E+04  1.076698E+05 -6.332547E-09 -1.367849E-08
       265  15  2.794523E+05  4.188939E+04  1.151971E+04  1.111669E+05 -1.439343E-09  3.940077E-09
       265  16  2.837183E+05  6.071817E+04  4.331553E+04  8.010546E+04  1.538760E-09  2.351015E-09
       265  17  2.733745E+05  3.492360E+04  1.873999E+04  1.010444E+05 -5.285251E-09  1.254792E-08
       265  18  2.754444E+05  4.553419E+04  1.144163E+04  1.153275E+05 -1.933837E-09 -2.952890E-09
       265  19  2.855184E+05  9.509201E+04  5.038889E+04  1.149284E+05 -3.028294E+04 -1.133327E+04
       265  20  2.782053E+05  4.838838E+04  2.204503E+04  1.142953E+05 -1.902945E+04 -6.896093E+03
       265  21  2.834603E+05  3.824476E+04  1.159793E+04  1.070063E+05 -7.611342E+03 -2.893921E+03
       265  22  2.846185E+05  7.790438E+04  4.685304E+04  9.751680E+04 -2.995229E+04 -1.120695E+04
       265  23  2.757901E+05  4.165595E+04  2.039289E+04  1.076699E+05 -1.908953E+04 -6.918640E+03
       265  24  2.794524E+05  4.188942E+04  1.151985E+04  1.111669E+05 -8.062067E+03 -3.064800E+03
       265  25  2.837193E+05  6.071853E+04  4.331741E+04  8.010573E+04 -2.962165E+04 -1.108065E+04
       265  26  2.733749E+05  3.492375E+04  1.874077E+04  1.010445E+05 -1.914962E+04 -6.941184E+03
       265  27  2.754445E+05  4.553423E+04  1.144179E+04  1.153276E+05 -8.512791E+03 -3.235689E+03
       266   1  2.724397E+05  4.386608E+04  7.901624E+03  1.082354E+05  6.181351E+03  2.658145E+03
       266   2  2.667175E+05  3.804987E+04  1.964561E+03  1.054977E+05  3.643843E+03  2.117085E+03
       266   3  2.600921E+05  3.626830E+04 -1.635015E+03  1.045631E+05  1.098980E+03  1.595615E+03
       266   4  2.779896E+05  4.523179E+04  9.107211E+03  1.090471E+05  6.503288E+03  2.780132E+03
       266   5  2.782979E+05  4.220358E+04  4.697375E+03  1.085294E+05  3.983346E+03  2.245733E+03
       266   6  2.776994E+05  4.320647E+04  2.611093E+03  1.098148E+05  1.456031E+03  1.730912E+03
       266   7  2.835396E+05  4.659749E+04  1.031280E+04  1.098587E+05  6.825228E+03  2.902120E+03
       266   8  2.898784E+05  4.635728E+04  7.430171E+03  1.115611E+05  4.322855E+03  2.374384E+03
       266   9  2.953069E+05  5.014464E+04  6.857151E+03  1.150666E+05  1.813091E+03  1.866213E+03
       266  10  2.724396E+05  4.386606E+04  7.901539E+03  1.082354E+05  9.144565E-09  9.141514E-09
       266  11  2.667175E+05  3.804986E+04  1.964528E+03  1.054977E+05  1.666080E-09  1.189714E-09
       266  12  2.600921E+05  3.626829E+04 -1.635022E+03  1.045631E+05 -9.785244E-09 -5.748648E-09
       266  13  2.779896E+05  4.523177E+04  9.107117E+03  1.090471E+05  4.024891E-10 -4.363073E-11
       266  14  2.782979E+05  4.220357E+04  4.697336E+03  1.085294E+05 -1.149393E-09 -1.424986E-08
       266  15  2.776994E+05  4.320647E+04  2.611083E+03  1.098148E+05  7.799062E-10 -2.277905E-10
       266  16  2.835395E+05  4.659747E+04  1.031269E+04  1.098587E+05 -9.425012E-09 -1.218841E-08
       266  17  2.898783E+05  4.635726E+04  7.430125E+03  1.115611E+05  1.883966E-09 -1.653285E-08
       266  18  2.953069E+05  5.014463E+04  6.857138E+03  1.150666E+05  9.789142E-09  7.698791E-09
       266  19  2.724397E+05  4.386608E+04  7.901624E+03  1.082354E+05 -6.181351E+03 -2.658145E+03
       266  20  2.667175E+05  3.804987E+04  1.964561E+03  1.054977E+05 -3.643843E+03 -2.117085E+03
       266  21  2.600921E+05  3.626830E+04 -1.635015E+03  1.045631E+05 -1.098980E+03 -1.595615E+03
       266  22  2.779896E+05  4.523179E+04  9.107211E+03  1.090471E+05 -6.503288E+03 -2.780132E+03
       266  23  2.782979E+05  4.220358E+04  4.697375E+03  1.085294E+05 -3.983346E+03 -2.245733E+03
       266  24  2.776994E+05  4.320647E+04  2.611093E+03  1.098148E+05 -1.456031E+03 -1.730912E+03
       266  25  2.835396E+05  4.659749E+04  1.031280E+04  1.098587E+05 -6.825228E+03 -2.902120E+03
       266  26  2.898784E+05  4.635728E+04  7.430171E+03  1.115611E+05 -4.322855E+03 -2.374384E+03
       266  27  2.953069E+05  5.014464E+04  6.857151E+03  1.150666E+05 -1.813091E+03 -1.866213E+03
       267   1  2.544225E+05  3.471267E+04 -3.567045E+03  1.032469E+05  6.491788E+02  1.688256E+03
       267   2  2.489247E+05  3.120243E+04 -5.977807E+03  1.003601E+05 -4.467855E+01  1.872974E+03
       267   3  2.415606E+05  2.980374E+04 -7.950220E+03  9.970847E+04 -7.389611E+02  2.058859E+03
       267   4  2.775732E+05  4.338709E+04  1.986997E+03  1.096807E+05  1.000677E+03  1.821444E+03
       267   5  2.784991E+05  4.228050E+04  1.090086E+03  1.085824E+05  3.078500E+02  2.006545E+03
       267   6  2.775586E+05  4.328530E+04  6.307425E+02  1.097192E+05 -3.854071E+02  2.192812E+03
       267   7  3.007245E+05  5.206160E+04  7.541034E+03  1.161147E+05  1.352192E+03  1.954638E+03
       267   8  3.080744E+05  5.335866E+04  8.157939E+03  1.168050E+05  6.603978E+02  2.140124E+03
       267   9  3.135579E+05  5.676696E+04  9.211614E+03  1.197306E+05 -3.183064E+01  2.326773E+03
       267  10  2.544225E+05  3.471267E+04 -3.567051E+03  1.032469E+05 -4.120338E-10 -7.993212E-09
       267  11  2.489247E+05  3.120243E+04 -5.977813E+03  1.003601E+05 -1.752714E-09 -7.734919E-09
       267  12  2.415606E+05  2.980374E+04 -7.950229E+03  9.970847E+04 -2.673437E-09  3.579091E-09
       267  13  2.775732E+05  4.338709E+04  1.986989E+03  1.096807E+05  2.084839E-11  5.485150E-10
       267  14  2.784991E+05  4.228049E+04  1.090079E+03  1.085824E+05  2.306770E-09 -5.512133E-09
       267  15  2.775586E+05  4.328530E+04  6.307332E+02  1.097192E+05 -8.937315E-10  7.410919E-09
       267  16  3.007245E+05  5.206160E+04  7.541023E+03  1.161147E+05  1.934027E-10  7.479785E-09
       267  17  3.080744E+05  5.335865E+04  8.157930E+03  1.168050E+05  3.947343E-10  6.240046E-09
       267  18  3.135579E+05  5.676696E+04  9.211604E+03  1.197306E+05  9.007187E-11 -1.390078E-10
       267  19  2.544225E+05  3.471267E+04 -3.567045E+03  1.032469E+05 -6.491788E+02 -1.688256E+03
       267  20  2.489247E+05  3.120243E+04 -5.977807E+03  1.003601E+05  4.467855E+01 -1.872974E+03
       267  21  2.415606E+05  2.980374E+04 -7.950220E+03  9.970847E+04  7.389611E+02 -2.058859E+03
       267  22  2.775732E+05  4.338709E+04  1.986997E+03  1.096807E+05 -1.000677E+03 -1.821444E+03
       267  23  2.784991E+05  4.228050E+04  1.090086E+03  1.085824E+05 -3.078500E+02 -2.006545E+03
       267  24  2.775586E+05  4.328530E+04  6.307425E+02  1.097192E+05  3.854071E+02 -2.192812E+03
       267  25  3.007245E+05  5.206160E+04  7.541034E+03  1.161147E+05 -1.352192E+03 -1.954638E+03
       267  26  3.080744E+05  5.335866E+04  8.157939E+03  1.168050E+05 -6.603978E+02 -2.140124E+03
       267  27  3.135579E+05  5.676696E+04  9.211614E+03  1.197306E+05  3.183064E+01 -2.326773E+03
       268   1  2.362250E+05  2.783809E+04 -9.394352E+03  9.825066E+04 -9.190646E+02  2.252371E+03
       268   2  2.307504E+05  2.443558E+04 -1.106722E+04  9.534225E+04 -1.239510E+03  2.581053E+03
       268   3  2.233138E+05  2.303400E+04 -1.261004E+04  9.468885E+04 -1.560124E+03  2.910282E+03
       268   4  2.775421E+05  4.329419E+04  4.981181E+02  1.097109E+05 -5.653818E+02  2.386366E+03
       268   5  2.785227E+05  4.229176E+04  3.433507E+02  1.085842E+05 -8.853540E+02  2.715213E+03
       268   6  2.775412E+05  4.329012E+04  3.182510E+02  1.097123E+05 -1.205498E+03  3.044609E+03
       268   7  3.188607E+05  5.875034E+04  1.039041E+04  1.211718E+05 -2.116751E+02  2.520369E+03
       268   8  3.262973E+05  6.014811E+04  1.175375E+04  1.218270E+05 -5.311682E+02  2.849385E+03
       268   9  3.317718E+05  6.354656E+04  1.324641E+04  1.247371E+05 -8.508362E+02  3.178949E+03
       268  10  2.362250E+05  2.783809E+04 -9.394363E+03  9.825066E+04  1.065097E-08  7.113837E-09
       268  11  2.307504E+05  2.443557E+04 -1.106723E+04  9.534225E+04  2.770287E-09  3.353813E-09
       268  12  2.233138E+05  2.303399E+04 -1.261006E+04  9.468885E+04 -1.308455E-08  4.182038E-10
       268  13  2.775421E+05  4.329419E+04  4.981068E+02  1.097109E+05  1.542420E-09  3.090766E-09
       268  14  2.785227E+05  4.229175E+04  3.433353E+02  1.085842E+05  3.282503E-09  7.097883E-09
       268  15  2.775412E+05  4.329011E+04  3.182309E+02  1.097123E+05  2.061968E-09 -2.727433E-09
       268  16  3.188607E+05  5.875033E+04  1.039039E+04  1.211718E+05 -1.078805E-08  2.761219E-09
       268  17  3.262973E+05  6.014810E+04  1.175374E+04  1.218270E+05  2.803019E-09  6.588471E-09
       268  18  3.317718E+05  6.354655E+04  1.324638E+04  1.247371E+05  1.435029E-08 -2.424075E-09
       268  19  2.362250E+05  2.783809E+04 -9.394352E+03  9.825066E+04  9.190646E+02 -2.252371E+03
       268  20  2.307504E+05  2.443558E+04 -1.106722E+04  9.534225E+04  1.239510E+03 -2.581053E+03
       268  21  2.233138E+05  2.303400E+04 -1.261004E+04  9.468885E+04  1.560124E+03 -2.910282E+03
       268  22  2.775421E+05  4.329419E+04  4.981181E+02  1.097109E+05  5.653818E+02 -2.386366E+03
       268  23  2.785227E+05  4.229176E+04  3.433507E+02  1.085842E+05  8.853540E+02 -2.715213E+03
       268  24  2.775412E+05  4.329012E+04  3.182510E+02  1.097123E+05  1.205498E+03 -3.044609E+03
       268  25  3.188607E+05  5.875034E+04  1.039041E+04  1.211718E+05  2.116751E+02 -2.520369E+03
       268  26  3.262973E+05  6.014811E+04  1.175375E+04  1.218270E+05  5.311682E+02 -2.849385E+03
       268  27  3.317718E+05  6.354656E+04  1.324641E+04  1.247371E+05  8.508362E+02 -3.178949E+03
       269   1  2.179873E+05  2.104209E+04 -1.389797E+04  9.322352E+04 -1.703069E+03  3.118825E+03
       269   2  2.124796E+05  1.762727E+04 -1.526723E+04  9.030247E+04 -2.103248E+03  3.419189E+03
       269   3  2.050150E+05  1.622982E+04 -1.644561E+04  8.964960E+04 -2.503535E+03  3.719984E+03
       269   4  2.775421E+05  4.329246E+04  3.469091E+02  1.097157E+05 -1.347871E+03  3.253359E+03
       269   5  2.785207E+05  4.228552E+04  5.025257E+02  1.085810E+05 -1.747704E+03  3.553837E+03
       269   6  2.775424E+05  4.329587E+04  8.487268E+02  1.097143E+05 -2.147646E+03  3.854743E+03
       269   7  3.371003E+05  6.554309E+04  1.459152E+04  1.262094E+05 -9.926352E+02  3.387908E+03
       269   8  3.445660E+05  6.694402E+04  1.627191E+04  1.268612E+05 -1.392119E+03  3.688499E+03
       269   9  3.500746E+05  7.036215E+04  1.814258E+04  1.297811E+05 -1.791714E+03  3.989518E+03
       269  10  2.179873E+05  2.104208E+04 -1.389799E+04  9.322352E+04  7.228113E-09  8.104331E-09
       269  11  2.124796E+05  1.762725E+04 -1.526726E+04  9.030248E+04  6.222064E-09 -1.936253E-09
       269  12  2.050150E+05  1.622980E+04 -1.644565E+04  8.964960E+04 -5.065534E-09 -1.323718E-08
       269  13  2.775421E+05  4.329245E+04  3.468858E+02  1.097157E+05  5.063029E-10  2.218217E-08
       269  14  2.785207E+05  4.228550E+04  5.024963E+02  1.085810E+05  2.982299E-09  6.547856E-09
       269  15  2.775424E+05  4.329585E+04  8.486902E+02  1.097144E+05  4.241165E-09  1.667121E-09
       269  16  3.371003E+05  6.554308E+04  1.459150E+04  1.262094E+05 -4.601785E-09 -5.347416E-09
       269  17  3.445660E+05  6.694400E+04  1.627188E+04  1.268612E+05  4.845361E-09  3.137858E-09
       269  18  3.500746E+05  7.036213E+04  1.814254E+04  1.297811E+05  1.158014E-08  1.318397E-08
       269  19  2.179873E+05  2.104209E+04 -1.389797E+04  9.322352E+04  1.703069E+03 -3.118825E+03
       269  20  2.124796E+05  1.762727E+04 -1.526723E+04  9.030247E+04  2.103248E+03 -3.419189E+03
       269  21  2.050150E+05  1.622982E+04 -1.644561E+04  8.964960E+04  2.503535E+03 -3.719984E+03
       269  22  2.775421E+05  4.329246E+04  3.469091E+02  1.097157E+05  1.347871E+03 -3.253359E+03
       269  23  2.785207E+05  4.228552E+04  5.025257E+02  1.085810E+05  1.747704E+03 -3.553837E+03
       269  24  2.775424E+05  4.329587E+04  8.487268E+02  1.097143E+05  2.147646E+03 -3.854743E+03
       269  25  3.371003E+05  6.554309E+04  1.459152E+04  1.262094E+05  9.926352E+02 -3.387908E+03
       269  26  3.445660E+05  6.694402E+04  1.627191E+04  1.268612E+05  1.392119E+03 -3.688499E+03
       269  27  3.500746E+05  7.036215E+04  1.814258E+04  1.297811E+05  1.791714E+03 -3.989518E+03
       270   1  1.996603E+05  1.423884E+04 -1.750494E+04  8.822296E+04 -2.756046E+03  3.889157E+03
       270   2  1.940620E+05  1.076888E+04 -1.816528E+04  8.524114E+04 -3.893172E+03  3.911129E+03
       270   3  1.866700E+05  9.544720E+03 -1.803066E+04  8.452043E+04 -5.027875E+03  3.926823E+03
       270   4  2.775696E+05  4.328493E+04  1.112905E+03  1.097361E+05 -2.397339E+03  4.024971E+03
       270   5  2.784790E+05  4.225432E+04  1.987637E+03  1.085702E+05 -3.540246E+03  4.044732E+03
       270   6  2.775958E+05  4.347069E+04  3.661872E+03  1.096655E+05 -4.680739E+03  4.058211E+03
       270   7  3.554854E+05  7.233162E+04  1.973043E+04  1.312518E+05 -2.038581E+03  4.160805E+03
       270   8  3.629032E+05  7.374037E+04  2.214011E+04  1.319023E+05 -3.187267E+03  4.178355E+03
       270   9  3.685299E+05  7.739727E+04  2.535382E+04  1.348140E+05 -4.333548E+03  4.189621E+03
       270  10  1.996603E+05  1.423882E+04 -1.750498E+04  8.822297E+04 -1.574448E-09 -8.128521E-09
       270  11  1.940620E+05  1.076886E+04 -1.816534E+04  8.524115E+04  2.394773E-09 -3.396576E-09
       270  12  1.866700E+05  9.544696E+03 -1.803074E+04  8.452045E+04  3.900546E-09  7.331031E-09
       270  13  2.775696E+05  4.328491E+04  1.112864E+03  1.097361E+05  5.091425E-10  5.127892E-09
       270  14  2.784789E+05  4.225430E+04  1.987583E+03  1.085702E+05  2.849959E-09 -5.328703E-09
       270  15  2.775958E+05  4.347067E+04  3.661799E+03  1.096655E+05  1.668586E-09 -3.240523E-09
       270  16  3.554854E+05  7.233160E+04  1.973039E+04  1.312518E+05  1.288912E-09  1.765211E-08
       270  17  3.629032E+05  7.374035E+04  2.214005E+04  1.319023E+05 -2.459934E-09 -4.791023E-09
       270  18  3.685298E+05  7.739725E+04  2.535375E+04  1.348140E+05  6.176038E-10 -1.746116E-09
       270  19  1.996603E+05  1.423884E+04 -1.750494E+04  8.822296E+04  2.756046E+03 -3.889157E+03
       270  20  1.940620E+05  1.076888E+04 -1.816528E+04  8.524114E+04  3.893172E+03 -3.911129E+03
       270  21  1.866700E+05  9.544720E+03 -1.803066E+04  8.452043E+04  5.027875E+03 -3.926823E+03
       270  22  2.775696E+05  4.328493E+04  1.112905E+03  1.097361E+05  2.397339E+03 -4.024971E+03
       270  23  2.784790E+05  4.225432E+04  1.987637E+03  1.085702E+05  3.540246E+03 -4.044732E+03
       270  24  2.775958E+05  4.347069E+04  3.661872E+03  1.096655E+05  4.680739E+03 -4.058211E+03
       270  25  3.554854E+05  7.233162E+04  1.973043E+04  1.312518E+05  2.038581E+03 -4.160805E+03
       270  26  3.629032E+05  7.374037E+04  2.214011E+04  1.319023E+05  3.187267E+03 -4.178355E+03
       270  27  3.685299E+05  7.739727E+04  2.535382E+04  1.348140E+05  4.333548E+03 -4.189621E+03
       271   1  1.810467E+05  7.656360E+03 -1.819438E+04  8.380561E+04 -5.849343E+03  3.898367E+03
       271   2  1.754932E+05  3.452981E+03 -1.589624E+04  7.972613E+04 -1.024538E+04  2.646163E+03
       271   3  1.698826E+05  5.040659E+03 -9.411557E+03  7.712966E+04 -1.458078E+04  1.234067E+03
       271   4  2.778266E+05  4.314009E+04  4.821669E+03  1.099183E+05 -5.453553E+03  4.048168E+03
       271   5  2.781086E+05  4.210473E+04  8.688963E+03  1.084668E+05 -9.994079E+03  2.741216E+03
       271   6  2.783621E+05  4.688850E+04  1.685680E+04  1.084983E+05 -1.447405E+04  1.274345E+03
       271   7  3.746151E+05  7.862424E+04  2.783691E+04  1.360345E+05 -5.057697E+03  4.197993E+03
       271   8  3.807346E+05  8.075730E+04  3.327340E+04  1.372119E+05 -9.742736E+03  2.836286E+03
       271   9  3.868537E+05  8.873762E+04  4.312445E+04  1.398721E+05 -1.436730E+04  1.314630E+03
       271  10  1.810467E+05  7.656335E+03 -1.819447E+04  8.380563E+04 -1.113217E-08 -1.847936E-09
       271  11  1.754931E+05  3.452945E+03 -1.589645E+04  7.972615E+04 -4.062019E-09  1.587960E-08
       271  12  1.698824E+05  5.040600E+03 -9.411959E+03  7.712968E+04  1.177702E-08  4.482754E-09
       271  13  2.778265E+05  4.314007E+04  4.821582E+03  1.099183E+05 -1.618325E-09 -6.884291E-09
       271  14  2.781085E+05  4.210470E+04  8.688761E+03  1.084669E+05  1.452839E-09  1.813671E-08
       271  15  2.783618E+05  4.688844E+04  1.685641E+04  1.084983E+05  4.340389E-10  2.264129E-09
       271  16  3.746151E+05  7.862421E+04  2.783683E+04  1.360345E+05  9.985979E-09  9.522840E-09
       271  17  3.807345E+05  8.075726E+04  3.327320E+04  1.372119E+05 -4.204278E-09 -7.418957E-09
       271  18  3.868535E+05  8.873757E+04  4.312405E+04  1.398721E+05 -1.146934E-08 -7.856771E-09
       271  19  1.810467E+05  7.656360E+03 -1.819438E+04  8.380561E+04  5.849343E+03 -3.898367E+03
       271  20  1.754932E+05  3.452981E+03 -1.589624E+04  7.972613E+04  1.024538E+04 -2.646163E+03
       271  21  1.698826E+05  5.040659E+03 -9.411557E+03  7.712966E+04  1.458078E+04 -1.234067E+03
       271  22  2.778266E+05  4.314009E+04  4.821669E+03  1.099183E+05  5.453553E+03 -4.048168E+03
       271  23  2.781086E+05  4.210473E+04  8.688963E+03  1.084668E+05  9.994079E+03 -2.741216E+03
       271  24  2.783621E+05  4.688850E+04  1.685680E+04  1.084983E+05  1.447405E+04 -1.274345E+03
       271  25  3.746151E+05  7.862424E+04  2.783691E+04  1.360345E+05  5.057697E+03 -4.197993E+03
       271  26  3.807346E+05  8.075730E+04  3.327340E+04  1.372119E+05  9.742736E+03 -2.836286E+03
       271  27  3.868537E+05  8.873762E+04  4.312445E+04  1.398721E+05  1.436730E+04 -1.314630E+03
       272   1  1.592162E+05  4.688557E+03 -6.089705E+03  8.841607E+04 -1.856461E+04  3.698352E+02
       272   2  1.599440E+05 -1.212225E+04  8.249298E+03  6.448479E+04 -3.534642E+04 -6.543470E+03
       272   3  1.848713E+05  3.627388E+04  5.257862E+04  2.630950E+04 -5.076211E+04 -1.706582E+04
       272   4  2.810894E+05  4.068230E+04  2.132474E+04  1.124022E+05 -1.738547E+04  8.163998E+02
       272   5  2.734430E+05  4.110968E+04  3.775270E+04  1.068995E+05 -3.741666E+04 -7.327881E+03
       272   6  2.906338E+05  1.073785E+05  8.674280E+04  8.715494E+04 -5.608155E+04 -1.908208E+04
       272   7  4.029777E+05  7.667608E+04  4.873840E+04  1.363921E+05 -1.620609E+04  1.263016E+03
       272   8  3.869542E+05  9.434441E+04  6.725481E+04  1.493216E+05 -3.948728E+04 -8.112532E+03
       272   9  3.964077E+05  1.784920E+05  1.209056E+05  1.480110E+05 -6.140186E+04 -2.109935E+04
       272  10  1.592159E+05  4.688465E+03 -6.090353E+03  8.841608E+04 -5.106299E-09  8.776814E-09
       272  11  1.599427E+05 -1.212263E+04  8.246871E+03  6.448461E+04 -3.762331E-09  1.062603E-08
       272  12  1.848685E+05  3.627288E+04  5.257324E+04  2.630880E+04  2.275602E-09  9.800319E-09
       272  13  2.810890E+05  4.068222E+04  2.132418E+04  1.124022E+05  2.266957E-09  5.245699E-10
       272  14  2.734415E+05  4.110925E+04  3.774997E+04  1.068993E+05 -5.186489E-09  1.190830E-08
       272  15  2.906304E+05  1.073772E+05  8.673621E+04  8.715408E+04  4.430343E-10  5.700480E-09
       272  16  4.029774E+05  7.667601E+04  4.873791E+04  1.363921E+05  6.804544E-09 -5.641013E-09
       272  17  3.869525E+05  9.434392E+04  6.725176E+04  1.493214E+05  4.379008E-10  5.742126E-09
       272  18  3.964035E+05  1.784905E+05  1.208977E+05  1.480099E+05 -4.039462E-09  1.141372E-09
       272  19  1.592162E+05  4.688557E+03 -6.089705E+03  8.841607E+04  1.856461E+04 -3.698352E+02
       272  20  1.599440E+05 -1.212225E+04  8.249298E+03  6.448479E+04  3.534642E+04  6.543470E+03
       272  21  1.848713E+05  3.627388E+04  5.257862E+04  2.630950E+04  5.076211E+04  1.706582E+04
       272  22  2.810894E+05  4.068230E+04  2.132474E+04  1.124022E+05  1.738547E+04 -8.163998E+02
       272  23  2.734430E+05  4.110968E+04  3.775270E+04  1.068995E+05  3.741666E+04  7.327881E+03
       272  24  2.906338E+05  1.073785E+05  8.674280E+04  8.715494E+04  5.608155E+04  1.908208E+04
       272  25  4.029777E+05  7.667608E+04  4.873840E+04  1.363921E+05  1.620609E+04 -1.263016E+03
       272  26  3.869542E+05  9.434441E+04  6.725481E+04  1.493216E+05  3.948728E+04  8.112532E+03
       272  27  3.964077E+05  1.784920E+05  1.209056E+05  1.480110E+05  6.140186E+04  2.109935E+04
       273   1 -5.936286E+04 -4.337856E+05 -6.408060E+04  2.575324E+04 -1.508036E+03 -2.705727E+04
       273   2 -2.681339E+04 -4.136139E+05 -4.032228E+04  1.375705E+04 -4.872407E+03 -1.522676E+04
       273   3 -2.120055E+04 -4.016688E+05 -3.100065E+04  7.889230E+03 -4.915536E+03 -3.385310E+03
       273   4 -2.840733E+04 -3.096601E+05 -3.400903E+04  1.152836E+04 -1.522356E+03 -2.227357E+04
       273   5 -4.295447E+02 -3.058212E+05 -1.642961E+04  8.509843E+03 -4.877166E+03 -1.362841E+04
       273   6  1.167155E+03 -3.096545E+05 -1.107224E+04  1.162008E+04 -4.910651E+03 -4.972727E+03
       273   7  2.547824E+03 -1.855200E+05 -3.938384E+03 -2.699365E+03 -1.536893E+03 -1.748891E+04
       273   8  2.595361E+04 -1.980176E+05  7.462356E+03  3.261721E+03 -4.881952E+03 -1.202979E+04
       273   9  2.353435E+04 -2.176323E+05  8.855689E+03  1.535150E+04 -4.905786E+03 -6.560376E+03
       273  10 -5.936306E+04 -4.337863E+05 -6.408198E+04  2.575320E+04 -1.006681E-09 -3.498243E-09
       273  11 -2.681347E+04 -4.136142E+05 -4.032276E+04  1.375699E+04 -8.389639E-09  3.086901E-09
       273  12 -2.120058E+04 -4.016688E+05 -3.100072E+04  7.889217E+03 -3.968947E-09 -7.600950E-09
       273  13 -2.840747E+04 -3.096606E+05 -3.400997E+04  1.152833E+04 -1.023369E-09 -6.738945E-09
       273  14 -4.296201E+02 -3.058214E+05 -1.643001E+04  8.509790E+03 -7.069094E-09  6.664861E-09
       273  15  1.167122E+03 -3.096546E+05 -1.107233E+04  1.162006E+04 -5.906664E-09 -1.945884E-09
       273  16  2.547739E+03 -1.855204E+05 -3.938963E+03 -2.699387E+03 -1.596806E-09 -3.254071E-09
       273  17  2.595355E+04 -1.980177E+05  7.462039E+03  3.261673E+03 -1.430225E-09  7.574639E-09
       273  18  2.353432E+04 -2.176323E+05  8.855563E+03  1.535147E+04 -6.700322E-09  2.981619E-09
       273  19 -5.936286E+04 -4.337856E+05 -6.408060E+04  2.575324E+04  1.508036E+03  2.705727E+04
       273  20 -2.681339E+04 -4.136139E+05 -4.032228E+04  1.375705E+04  4.872407E+03  1.522676E+04
       273  21 -2.120055E+04 -4.016688E+05 -3.100065E+04  7.889230E+03  4.915536E+03  3.385310E+03
       273  22 -2.840733E+04 -3.096601E+05 -3.400903E+04  1.152836E+04  1.522356E+03  2.227357E+04
       273  23 -4.295447E+02 -3.058212E+05 -1.642961E+04  8.509843E+03  4.877166E+03  1.362841E+04
       273  24  1.167155E+03 -3.096545E+05 -1.107224E+04  1.162008E+04  4.910651E+03  4.972727E+03
       273  25  2.547824E+03 -1.855200E+05 -3.938384E+03 -2.699365E+03  1.536893E+03  1.748891E+04
       273  26  2.595361E+04 -1.980176E+05  7.462356E+03  3.261721E+03  4.881952E+03  1.202979E+04
       273  27  2.353435E+04 -2.176323E+05  8.855689E+03  1.535150E+04  4.905786E+03  6.560376E+03
       274   1 -2.068769E+04 -3.873646E+05 -2.713866E+04  1.269869E+04 -4.105835E+03 -2.631146E+03
       274   2 -1.531707E+04 -3.705606E+05 -2.249548E+04  8.582245E+03 -3.372058E+03  1.946781E+03
       274   3 -1.329510E+04 -3.551402E+05 -2.165974E+04  1.081112E+04 -2.492266E+03  6.525198E+03
       274   4 -1.408635E+03 -3.082520E+05 -9.922282E+03  1.164435E+04 -4.103823E+03 -3.278805E+03
       274   5  1.562576E+01 -3.075721E+05 -8.846033E+03  8.470972E+03 -3.369653E+03  1.159441E+03
       274   6 -1.884291E+03 -3.082516E+05 -1.147991E+04  1.164291E+04 -2.489461E+03  5.598061E+03
       274   7  1.787000E+04 -2.291335E+05  7.293727E+03  1.058987E+04 -4.101809E+03 -3.926545E+03
       274   8  1.534806E+04 -2.445798E+05  4.803178E+03  8.359689E+03 -3.367247E+03  3.720218E+02
       274   9  9.526377E+03 -2.613609E+05 -1.300206E+03  1.247475E+04 -2.486658E+03  4.670855E+03
       274  10 -2.068771E+04 -3.873647E+05 -2.713871E+04  1.269868E+04 -1.392018E-09 -8.131573E-09
       274  11 -1.531708E+04 -3.705606E+05 -2.249551E+04  8.582251E+03  1.180523E-09  4.957499E-10
       274  12 -1.329512E+04 -3.551402E+05 -2.165983E+04  1.081114E+04  2.431244E-09 -9.988738E-09
       274  13 -1.408656E+03 -3.082520E+05 -9.922333E+03  1.164434E+04 -3.701501E-09 -6.579280E-09
       274  14  1.561321E+01 -3.075721E+05 -8.846057E+03  8.470975E+03 -1.267635E-09  5.480035E-09
       274  15 -1.884306E+03 -3.082516E+05 -1.147998E+04  1.164292E+04  2.352297E-10 -4.042756E-09
       274  16  1.786998E+04 -2.291335E+05  7.293666E+03  1.058986E+04 -4.615160E-09  4.785974E-10
       274  17  1.534804E+04 -2.445798E+05  4.803157E+03  8.359690E+03 -3.195638E-09  8.255191E-09
       274  18  9.526364E+03 -2.613609E+05 -1.300258E+03  1.247476E+04 -1.882163E-09  5.887673E-09
       274  19 -2.068769E+04 -3.873646E+05 -2.713866E+04  1.269869E+04  4.105835E+03  2.631146E+03
       274  20 -1.531707E+04 -3.705606E+05 -2.249548E+04  8.582245E+03  3.372058E+03 -1.946781E+03
       274  21 -1.329510E+04 -3.551402E+05 -2.165974E+04  1.081112E+04  2.492266E+03 -6.525198E+03
       274  22 -1.408635E+03 -3.082520E+05 -9.922282E+03  1.164435E+04  4.103823E+03  3.278805E+03
       274  23  1.562576E+01 -3.075721E+05 -8.846033E+03  8.470972E+03  3.369653E+03 -1.159441E+03
       274  24 -1.884291E+03 -3.082516E+05 -1.147991E+04  1.164291E+04  2.489461E+03 -5.598061E+03
       274  25  1.787000E+04 -2.291335E+05  7.293727E+03  1.058987E+04  4.101809E+03  3.926545E+03
       274  26  1.534806E+04 -2.445798E+05  4.803178E+03  8.359689E+03  3.367247E+03 -3.720218E+02
       274  27  9.526377E+03 -2.613609E+05 -1.300206E+03  1.247475E+04  2.486658E+03 -4.670855E+03
       275   1 -6.714619E+03 -3.442131E+05 -2.072413E+04  1.694330E+04 -1.927514E+03  8.502155E+03
       275   2 -4.873050E+03 -3.231411E+05 -2.489446E+04  1.977553E+03 -1.058966E+03  1.949607E+04
       275   3 -3.756841E+04 -3.120881E+05 -4.484759E+04 -6.702116E+03 -3.012133E+02  3.048976E+04
       275   4  1.598553E+03 -3.101788E+05 -1.339333E+04  1.166104E+04 -1.924830E+03  7.584062E+03
       275   5 -5.506666E+02 -3.051628E+05 -2.103336E+04  8.459805E+03 -1.056331E+03  1.868415E+04
       275   6 -3.725529E+04 -3.101846E+05 -4.452988E+04  1.154463E+04 -2.982115E+02  2.978375E+04
       275   7  9.911752E+03 -2.761434E+05 -6.062573E+03  6.378487E+03 -1.922130E+03  6.665921E+03
       275   8  3.771855E+03 -2.871841E+05 -1.717225E+04  1.494225E+04 -1.053714E+03  1.787221E+04
       275   9 -3.694091E+04 -3.082805E+05 -4.421199E+04  2.979144E+04 -2.952512E+02  2.907774E+04
       275  10 -6.714642E+03 -3.442132E+05 -2.072428E+04  1.694331E+04  4.313395E-09 -9.795064E-09
       275  11 -4.873154E+03 -3.231415E+05 -2.489517E+04  1.977570E+03  7.216504E-09  1.793493E-09
       275  12 -3.756866E+04 -3.120891E+05 -4.484934E+04 -6.702108E+03  1.596792E-09 -5.051707E-09
       275  13  1.598533E+03 -3.101789E+05 -1.339344E+04  1.166105E+04  3.374890E-09 -6.446315E-09
       275  14 -5.507616E+02 -3.051631E+05 -2.103402E+04  8.459821E+03  4.070163E-09  6.488245E-09
       275  15 -3.725553E+04 -3.101856E+05 -4.453155E+04  1.154464E+04  2.339929E-09 -6.437716E-09
       275  16  9.911736E+03 -2.761435E+05 -6.062664E+03  6.378498E+03 -2.347540E-10  2.770512E-11
       275  17  3.771768E+03 -2.871844E+05 -1.717285E+04  1.494226E+04  5.567178E-09  1.555680E-08
       275  18 -3.694114E+04 -3.082814E+05 -4.421358E+04  2.979144E+04  6.052565E-10 -3.480973E-10
       275  19 -6.714619E+03 -3.442131E+05 -2.072413E+04  1.694330E+04  1.927514E+03 -8.502155E+03
       275  20 -4.873050E+03 -3.231411E+05 -2.489446E+04  1.977553E+03  1.058966E+03 -1.949607E+04
       275  21 -3.756841E+04 -3.120881E+05 -4.484759E+04 -6.702116E+03  3.012133E+02 -3.048976E+04
       275  22  1.598553E+03 -3.101788E+05 -1.339333E+04  1.166104E+04  1.924830E+03 -7.584062E+03
       275  23 -5.506666E+02 -3.051628E+05 -2.103336E+04  8.459805E+03  1.056331E+03 -1.868415E+04
       275  24 -3.725529E+04 -3.101846E+05 -4.452988E+04  1.154463E+04  2.982115E+02 -2.978375E+04
       275  25  9.911752E+03 -2.761434E+05 -6.062573E+03  6.378487E+03  1.922130E+03 -6.665921E+03
       275  26  3.771855E+03 -2.871841E+05 -1.717225E+04  1.494225E+04  1.053714E+03 -1.787221E+04
       275  27 -3.694091E+04 -3.082805E+05 -4.421199E+04  2.979144E+04  2.952512E+02 -2.907774E+04
       276   1 -2.865568E+05 -1.402319E+05 -1.267785E+05 -2.147169E+04  6.124623E+03  9.844133E+03
       276   2 -2.262599E+05 -1.641483E+05 -1.252292E+05 -2.282323E+04  1.217497E+04  3.109544E+04
       276   3 -1.572308E+05 -1.507922E+05 -1.182720E+05 -4.871838E+04  1.824675E+04  3.288925E+04
       276   4  4.538243E+05  4.356540E+04  5.214452E+04 -4.231597E+04  3.587795E+04  9.873071E+03
       276   5  4.478628E+05  4.658114E+02  2.385270E+04 -3.002615E+04  2.324661E+04  3.110172E+04
       276   6  4.538596E+05 -2.141297E+03  1.393055E+04 -4.227742E+04  1.063616E+04  3.288263E+04
       276   7  1.194709E+06  2.273248E+05  2.310318E+05 -6.318531E+04  6.566664E+04  9.899995E+03
       276   8  1.122410E+06  1.650496E+05  1.729070E+05 -3.723706E+04  3.433013E+04  3.110774E+04
       276   9  1.065301E+06  1.464851E+05  1.461112E+05 -3.583006E+04  3.018177E+03  3.287585E+04
       276  10 -2.865568E+05 -1.402321E+05 -1.267787E+05 -2.147174E+04 -1.785911E-10  1.047743E-10
       276  11 -2.262603E+05 -1.641493E+05 -1.252313E+05 -2.282353E+04 -6.118545E-10  1.283354E-10
       276  12 -1.572315E+05 -1.507935E+05 -1.182747E+05 -4.871887E+04 -8.460576E-11  1.005686E-10
       276  13  4.538229E+05  4.356495E+04  5.214192E+04 -4.231626E+04 -1.389108E-10  8.012428E-11
       276  14  4.478619E+05  4.646275E+02  2.384987E+04 -3.002673E+04 -3.342194E-10  8.255363E-11
       276  15  4.538592E+05 -2.142489E+03  1.392830E+04 -4.227770E+04 -3.239632E-10 -1.243609E-11
       276  16  1.194705E+06  2.273235E+05  2.310235E+05 -6.318583E+04  9.613358E-12  4.199526E-11
       276  17  1.122409E+06  1.650482E+05  1.729030E+05 -3.723792E+04  4.940759E-10  5.737892E-11
       276  18  1.065300E+06  1.464840E+05  1.461091E+05 -3.583014E+04 -1.695106E-11 -1.410859E-10
       276  19 -2.865568E+05 -1.402319E+05 -1.267785E+05 -2.147169E+04 -6.124623E+03 -9.844133E+03
       276  20 -2.262599E+05 -1.641483E+05 -1.252292E+05 -2.282323E+04 -1.217497E+04 -3.109544E+04
       276  21 -1.572308E+05 -1.507922E+05 -1.182720E+05 -4.871838E+04 -1.824675E+04 -3.288925E+04
       276  22  4.538243E+05  4.356540E+04  5.214452E+04 -4.231597E+04 -3.587795E+04 -9.873071E+03
       276  23  4.478628E+05  4.658114E+02  2.385270E+04 -3.002615E+04 -2.324661E+04 -3.110172E+04
       276  24  4.538596E+05 -2.141297E+03  1.393055E+04 -4.227742E+04 -1.063616E+04 -3.288263E+04
       276  25  1.194709E+06  2.273248E+05  2.310318E+05 -6.318531E+04 -6.566664E+04 -9.899995E+03
       276  26  1.122410E+06  1.650496E+05  1.729070E+05 -3.723706E+04 -3.433013E+04 -3.110774E+04
       276  27  1.065301E+06  1.464851E+05  1.461112E+05 -3.583006E+04 -3.018177E+03 -3.287585E+04
       277   1 -1.081701E+05 -1.341083E+05 -1.106231E+05 -4.188388E+04  1.076416E+04  2.915534E+04
       277   2 -4.452762E+04 -1.206388E+05 -1.012603E+05 -2.978778E+04  8.604350E+03  2.653727E+04
       277   3  2.001260E+04 -1.051301E+05 -8.995754E+04 -4.292807E+04  6.442655E+03  2.304256E+04
       277   4  4.514448E+05  2.127366E+03  1.103729E+04 -4.244167E+04  8.678171E+03  2.915241E+04
       277   5  4.509351E+05 -1.154695E+02  5.995344E+03 -2.982374E+04  5.674397E+03  2.653475E+04
       277   6  4.514648E+05 -1.734921E+02  3.477893E+03 -4.244091E+04  2.668960E+03  2.304079E+04
       277   7  1.011353E+06  1.383422E+05  1.326789E+05 -4.300000E+04  6.590321E+03  2.914948E+04
       277   8  9.466282E+05  1.203916E+05  1.132365E+05 -2.985974E+04  2.742136E+03  2.653223E+04
       277   9  8.830917E+05  1.047709E+05  9.690232E+04 -4.195340E+04 -1.107322E+03  2.303901E+04
       277  10 -1.081705E+05 -1.341092E+05 -1.106249E+05 -4.188413E+04 -8.480574E-11  6.702480E-11
       277  11 -4.452789E+04 -1.206396E+05 -1.012618E+05 -2.978796E+04 -2.992182E-10 -3.086110E-12
       277  12  2.001241E+04 -1.051307E+05 -8.995861E+04 -4.292819E+04  3.987288E-11  4.185665E-11
       277  13  4.514445E+05  2.126433E+03  1.103555E+04 -4.244188E+04 -2.794473E-10 -3.886803E-11
       277  14  4.509349E+05 -1.162343E+02  5.993960E+03 -2.982386E+04 -2.346173E-10  5.517218E-11
       277  15  4.514647E+05 -1.740642E+02  3.476882E+03 -4.244096E+04  1.916945E-10  1.864583E-10
       277  16  1.011353E+06  1.383413E+05  1.326773E+05 -4.300015E+04  3.855372E-10 -5.473519E-11
       277  17  9.466280E+05  1.203909E+05  1.132351E+05 -2.985980E+04  4.759185E-11  2.956398E-10
       277  18  8.830916E+05  1.047703E+05  9.690132E+04 -4.195338E+04  2.602075E-10  2.361064E-10
       277  19 -1.081701E+05 -1.341083E+05 -1.106231E+05 -4.188388E+04 -1.076416E+04 -2.915534E+04
       277  20 -4.452762E+04 -1.206388E+05 -1.012603E+05 -2.978778E+04 -8.604350E+03 -2.653727E+04
       277  21  2.001260E+04 -1.051301E+05 -8.995754E+04 -4.292807E+04 -6.442655E+03 -2.304256E+04
       277  22  4.514448E+05  2.127366E+03  1.103729E+04 -4.244167E+04 -8.678171E+03 -2.915241E+04
       277  23  4.509351E+05 -1.154695E+02  5.995344E+03 -2.982374E+04 -5.674397E+03 -2.653475E+04
       277  24  4.514648E+05 -1.734921E+02  3.477893E+03 -4.244091E+04 -2.668960E+03 -2.304079E+04
       277  25  1.011353E+06  1.383422E+05  1.326789E+05 -4.300000E+04 -6.590321E+03 -2.914948E+04
       277  26  9.466282E+05  1.203916E+05  1.132365E+05 -2.985974E+04 -2.742136E+03 -2.653223E+04
       277  27  8.830917E+05  1.047709E+05  9.690232E+04 -4.195340E+04  1.107322E+03 -2.303901E+04
       278   1  7.060479E+04 -9.249354E+04 -7.947426E+04 -4.251136E+04  5.646093E+03  2.079566E+04
       278   2  1.343537E+05 -7.709239E+04 -6.694698E+04 -2.989590E+04  4.916410E+03  1.711149E+04
       278   3  1.982654E+05 -6.157502E+04 -5.390756E+04 -4.245011E+04  4.185230E+03  1.339128E+04
       278   4  4.512798E+05  4.960159E+01  2.671071E+03 -4.242641E+04  2.127184E+03  2.079443E+04
       278   5  4.512031E+05 -4.387675E+01  1.545654E+03 -2.984198E+04  1.362332E+03  1.711088E+04
       278   6  4.512921E+05 -1.462786E+01  9.568770E+02 -4.242643E+04  5.960582E+02  1.339131E+04
       278   7  8.320909E+05  9.258321E+04  8.480790E+04 -4.234141E+04 -1.393854E+03  2.079319E+04
       278   8  7.681466E+05  7.699803E+04  7.003239E+04 -2.978802E+04 -2.193534E+03  1.711026E+04
       278   9  7.043789E+05  6.154154E+04  5.581756E+04 -4.240273E+04 -2.994556E+03  1.339133E+04
       278  10  7.060464E+04 -9.249401E+04 -7.947514E+04 -4.251146E+04 -2.811066E-10  8.557196E-11
       278  11  1.343536E+05 -7.709271E+04 -6.694757E+04 -2.989597E+04 -7.302307E-10  6.937462E-11
       278  12  1.982653E+05 -6.157522E+04 -5.390793E+04 -4.245016E+04  1.425283E-10 -3.733230E-12
       278  13  4.512797E+05  4.913595E+01  2.670250E+03 -4.242645E+04 -2.921124E-10  5.501736E-11
       278  14  4.512030E+05 -4.419171E+01  1.545100E+03 -2.984199E+04 -2.995828E-11  1.431335E-10
       278  15  4.512920E+05 -1.482057E+01  9.565393E+02 -4.242643E+04  2.007848E-10  1.134442E-10
       278  16  8.320908E+05  9.258275E+04  8.480709E+04 -4.234138E+04  2.231009E-10  6.970940E-11
       278  17  7.681465E+05  7.699771E+04  7.003183E+04 -2.978799E+04 -1.711911E-10 -4.728849E-11
       278  18  7.043788E+05  6.154134E+04  5.581720E+04 -4.240269E+04  1.589301E-10  1.757775E-10
       278  19  7.060479E+04 -9.249354E+04 -7.947426E+04 -4.251136E+04 -5.646093E+03 -2.079566E+04
       278  20  1.343537E+05 -7.709239E+04 -6.694698E+04 -2.989590E+04 -4.916410E+03 -1.711149E+04
       278  21  1.982654E+05 -6.157502E+04 -5.390756E+04 -4.245011E+04 -4.185230E+03 -1.339128E+04
       278  22  4.512798E+05  4.960159E+01  2.671071E+03 -4.242641E+04 -2.127184E+03 -2.079443E+04
       278  23  4.512031E+05 -4.387675E+01  1.545654E+03 -2.984198E+04 -1.362332E+03 -1.711088E+04
       278  24  4.512921E+05 -1.462786E+01  9.568770E+02 -4.242643E+04 -5.960582E+02 -1.339131E+04
       278  25  8.320909E+05  9.258321E+04  8.480790E+04 -4.234141E+04  1.393854E+03 -2.079319E+04
       278  26  7.681466E+05  7.699803E+04  7.003239E+04 -2.978802E+04  2.193534E+03 -1.711026E+04
       278  27  7.043789E+05  6.154154E+04  5.581756E+04 -4.240273E+04  2.994556E+03 -1.339133E+04
       279   1  2.488481E+05 -4.918632E+04 -4.279471E+04 -4.241685E+04  4.014131E+03  1.121849E+04
       279   2  3.125162E+05 -3.373559E+04 -2.939033E+04 -2.984592E+04  3.720638E+03  7.495288E+03
       279   3  3.762292E+05 -1.826993E+04 -1.579179E+04 -4.239220E+04  3.426479E+03  3.772115E+03
       279   4  4.512693E+05 -2.822045E+00  7.791707E+02 -4.241487E+04  4.387888E+02  1.121879E+04
       279   5  4.512519E+05 -3.300254E+00  5.939138E+02 -2.985643E+04  1.450489E+02  7.495864E+03
       279   6  4.512746E+05  1.117006E+01  6.027874E+02 -4.241487E+04 -1.493264E+02  3.772975E+03
       279   7  6.537290E+05  4.917800E+04  4.435070E+04 -4.241289E+04 -3.137703E+03  1.121910E+04
       279   8  5.900056E+05  3.372773E+04  3.057707E+04 -2.986695E+04 -3.431328E+03  7.496440E+03
       279   9  5.263252E+05  1.829190E+04  1.699708E+04 -4.243754E+04 -3.725559E+03  3.773835E+03
       279  10  2.488480E+05 -4.918646E+04 -4.279498E+04 -4.241688E+04  1.471937E-10 -5.241989E-11
       279  11  3.125162E+05 -3.373565E+04 -2.939046E+04 -2.984594E+04 -2.926845E-10 -5.662552E-11
       279  12  3.762292E+05 -1.826995E+04 -1.579184E+04 -4.239221E+04  9.176853E-11 -1.087644E-10
       279  13  4.512692E+05 -2.957279E+00  7.789337E+02 -4.241487E+04  4.142299E-11  3.863568E-11
       279  14  4.512518E+05 -3.360609E+00  5.938082E+02 -2.985643E+04  1.848362E-10  1.007783E-10
       279  15  4.512746E+05  1.115476E+01  6.027606E+02 -4.241487E+04 -2.131261E-10 -2.313236E-11
       279  16  6.537290E+05  4.917786E+04  4.435044E+04 -4.241286E+04  1.842830E-10  1.831085E-10
       279  17  5.900056E+05  3.372766E+04  3.057694E+04 -2.986693E+04  8.034139E-11  6.741243E-12
       279  18  5.263252E+05  1.829188E+04  1.699702E+04 -4.243753E+04 -6.356357E-10 -5.627872E-11
       279  19  2.488481E+05 -4.918632E+04 -4.279471E+04 -4.241685E+04 -4.014131E+03 -1.121849E+04
       279  20  3.125162E+05 -3.373559E+04 -2.939033E+04 -2.984592E+04 -3.720638E+03 -7.495288E+03
       279  21  3.762292E+05 -1.826993E+04 -1.579179E+04 -4.239220E+04 -3.426479E+03 -3.772115E+03
       279  22  4.512693E+05 -2.822045E+00  7.791707E+02 -4.241487E+04 -4.387888E+02 -1.121879E+04
       279  23  4.512519E+05 -3.300254E+00  5.939138E+02 -2.985643E+04 -1.450489E+02 -7.495864E+03
       279  24  4.512746E+05  1.117006E+01  6.027874E+02 -4.241487E+04  1.493264E+02 -3.772975E+03
       279  25  6.537290E+05  4.917800E+04  4.435070E+04 -4.241289E+04  3.137703E+03 -1.121910E+04
       279  26  5.900056E+05  3.372773E+04  3.057707E+04 -2.986695E+04  3.431328E+03 -7.496440E+03
       279  27  5.263252E+05  1.829190E+04  1.699708E+04 -4.243754E+04  3.725559E+03 -3.773835E+03
       280   1  4.267762E+05 -5.910346E+03 -4.444399E+03 -4.239473E+04  3.309301E+03  1.605513E+03
       280   2  4.904107E+05  9.517280E+03  9.446985E+03 -2.982856E+04  2.821264E+03 -2.116092E+03
       280   3  5.541090E+05  2.497044E+04  2.365931E+04 -4.236570E+04  2.333355E+03 -5.836688E+03
       280   4  4.512800E+05  1.180395E+01  6.745384E+02 -4.241188E+04 -2.659901E+02  1.606435E+03
       280   5  4.512494E+05 -3.438429E+00  9.839550E+02 -2.986017E+04 -7.531973E+02 -2.115256E+03
       280   6  4.512784E+05  6.950440E+00  1.613882E+03 -4.241187E+04 -1.240227E+03 -5.835923E+03
       280   7  4.757844E+05  5.933922E+03  5.793490E+03 -4.242903E+04 -3.841420E+03  1.607356E+03
       280   8  4.120894E+05 -9.524252E+03 -7.479118E+03 -2.989177E+04 -4.327436E+03 -2.114420E+03
       280   9  3.484579E+05 -2.495722E+04 -2.043211E+04 -4.245803E+04 -4.813225E+03 -5.835158E+03
       280  10  4.267762E+05 -5.910352E+03 -4.444424E+03 -4.239473E+04 -1.773539E-10 -1.671851E-10
       280  11  4.904107E+05  9.517274E+03  9.446962E+03 -2.982856E+04 -5.218190E-10 -1.103386E-10
       280  12  5.541090E+05  2.497040E+04  2.365924E+04 -4.236569E+04 -4.600800E-10 -3.405262E-12
       280  13  4.512800E+05  1.180116E+01  6.745334E+02 -4.241188E+04 -5.759729E-11 -3.621519E-11
       280  14  4.512494E+05 -3.443387E+00  9.839455E+02 -2.986017E+04 -6.249925E-11  3.373791E-13
       280  15  4.512784E+05  6.913447E+00  1.613815E+03 -4.241187E+04 -1.705305E-10  1.133068E-10
       280  16  4.757844E+05  5.933916E+03  5.793458E+03 -4.242902E+04  1.434044E-10 -7.215767E-11
       280  17  4.120894E+05 -9.524261E+03 -7.479162E+03 -2.989178E+04 -9.921956E-12 -9.287735E-13
       280  18  3.484578E+05 -2.495726E+04 -2.043222E+04 -4.245805E+04  3.717743E-11  2.070888E-11
       280  19  4.267762E+05 -5.910346E+03 -4.444399E+03 -4.239473E+04 -3.309301E+03 -1.605513E+03
       280  20  4.904107E+05  9.517280E+03  9.446985E+03 -2.982856E+04 -2.821264E+03  2.116092E+03
       280  21  5.541090E+05  2.497044E+04  2.365931E+04 -4.236570E+04 -2.333355E+03  5.836688E+03
       280  22  4.512800E+05  1.180395E+01  6.745384E+02 -4.241188E+04  2.659901E+02 -1.606435E+03
       280  23  4.512494E+05 -3.438429E+00  9.839550E+02 -2.986017E+04  7.531973E+02  2.115256E+03
       280  24  4.512784E+05  6.950440E+00  1.613882E+03 -4.241187E+04  1.240227E+03  5.835923E+03
       280  25  4.757844E+05  5.933922E+03  5.793490E+03 -4.242903E+04  3.841420E+03 -1.607356E+03
       280  26  4.120894E+05 -9.524252E+03 -7.479118E+03 -2.989177E+04  4.327436E+03  2.114420E+03
       280  27  3.484579E+05 -2.495722E+04 -2.043211E+04 -4.245803E+04  4.813225E+03  5.835158E+03
       281   1  6.047340E+05  3.730997E+04  3.542099E+04 -4.232798E+04  2.008975E+03 -8.006391E+03
       281   2  6.683265E+05  5.273405E+04  5.052721E+04 -2.974647E+04  1.935271E+02 -1.172181E+04
       281   3  7.322441E+05  6.845849E+04  6.689096E+04 -4.230016E+04 -1.621094E+03 -1.540527E+04
       281   4  4.513327E+05 -1.662235E+01  2.097368E+03 -4.241906E+04 -1.576019E+03 -8.005783E+03
       281   5  4.511698E+05 -5.530850E+01  3.598822E+03 -2.985116E+04 -3.360334E+03 -1.172164E+04
       281   6  4.513239E+05  2.015798E+02  6.336972E+03 -4.241899E+04 -5.143641E+03 -1.540553E+04
       281   7  2.979535E+05 -3.734477E+04 -3.122761E+04 -4.251012E+04 -5.160139E+03 -8.005173E+03
       281   8  2.340574E+05 -5.284777E+04 -4.333231E+04 -2.995581E+04 -6.912969E+03 -1.172148E+04
       281   9  1.704779E+05 -6.806052E+04 -5.422162E+04 -4.253776E+04 -8.664617E+03 -1.540579E+04
       281  10  6.047340E+05  3.730990E+04  3.542086E+04 -4.232796E+04 -2.441447E-10  1.101287E-10
       281  11  6.683265E+05  5.273391E+04  5.052695E+04 -2.974647E+04 -3.447375E-11  1.700335E-10
       281  12  7.322440E+05  6.845824E+04  6.689051E+04 -4.230018E+04 -4.578533E-10 -1.053113E-11
       281  13  4.513327E+05 -1.669186E+01  2.097243E+03 -4.241907E+04  6.174315E-11  1.066253E-11
       281  14  4.511698E+05 -5.545910E+01  3.598543E+03 -2.985119E+04  7.668708E-11 -3.252957E-11
       281  15  4.513238E+05  2.013178E+02  6.336477E+03 -4.241905E+04  3.754121E-10 -8.076868E-11
       281  16  2.979534E+05 -3.734485E+04 -3.122778E+04 -4.251015E+04  9.328833E-11  1.337502E-11
       281  17  2.340573E+05 -5.284793E+04 -4.333266E+04 -2.995587E+04  7.496910E-11 -1.689703E-10
       281  18  1.704777E+05 -6.806079E+04 -5.422220E+04 -4.253787E+04  1.169945E-10 -1.105464E-10
       281  19  6.047340E+05  3.730997E+04  3.542099E+04 -4.232798E+04 -2.008975E+03  8.006391E+03
       281  20  6.683265E+05  5.273405E+04  5.052721E+04 -2.974647E+04 -1.935271E+02  1.172181E+04
       281  21  7.322441E+05  6.845849E+04  6.689096E+04 -4.230016E+04  1.621094E+03  1.540527E+04
       281  22  4.513327E+05 -1.662235E+01  2.097368E+03 -4.241906E+04  1.576019E+03  8.005783E+03
       281  23  4.511698E+05 -5.530850E+01  3.598822E+03 -2.985116E+04  3.360334E+03  1.172164E+04
       281  24  4.513239E+05  2.015798E+02  6.336972E+03 -4.241899E+04  5.143641E+03  1.540553E+04
       281  25  2.979535E+05 -3.734477E+04 -3.122761E+04 -4.251012E+04  5.160139E+03  8.005173E+03
       281  26  2.340574E+05 -5.284777E+04 -4.333231E+04 -2.995581E+04  6.912969E+03  1.172148E+04
       281  27  1.704779E+05 -6.806052E+04 -5.422162E+04 -4.253776E+04  8.664617E+03  1.540579E+04
       282   1  7.833881E+05  8.031820E+04  8.010485E+04 -4.139163E+04 -2.689118E+03 -1.763764E+04
       282   2  8.461335E+05  9.601929E+04  9.994040E+04 -3.019910E+04 -1.062037E+04 -2.115550E+04
       282   3  9.113177E+05  1.170908E+05  1.262903E+05 -4.418027E+04 -1.855112E+04 -2.391302E+04
       282   4  4.517597E+05 -3.256657E+02  8.280209E+03 -4.242740E+04 -6.432413E+03 -1.763827E+04
       282   5  4.505965E+05 -1.470533E+02  1.435193E+04 -2.984049E+04 -1.362895E+04 -2.115686E+04
       282   6  4.517420E+05  5.276758E+03  2.643112E+04 -4.242809E+04 -2.082418E+04 -2.391491E+04
       282   7  1.202344E+05 -8.097678E+04 -6.355092E+04 -4.346260E+04 -1.017374E+04 -1.763889E+04
       282   8  5.520623E+04 -9.632372E+04 -7.124579E+04 -2.948210E+04 -1.663565E+04 -2.115823E+04
       282   9 -7.635902E+03 -1.065513E+05 -7.344064E+04 -4.067723E+04 -2.309559E+04 -2.391682E+04
       282  10  7.833881E+05  8.031786E+04  8.010426E+04 -4.139167E+04 -2.343853E-10 -7.323947E-11
       282  11  8.461333E+05  9.601878E+04  9.993935E+04 -3.019929E+04 -3.234852E-10  1.212602E-11
       282  12  9.113172E+05  1.170901E+05  1.262886E+05 -4.418062E+04  1.072586E-10 -2.119255E-10
       282  13  4.517596E+05 -3.260110E+02  8.279546E+03 -4.242749E+04  2.288496E-10 -2.757079E-11
       282  14  4.505962E+05 -1.475839E+02  1.435074E+04 -2.984072E+04 -3.482229E-10  3.810714E-11
       282  15  4.517414E+05  5.276027E+03  2.642923E+04 -4.242849E+04  5.069569E-11 -1.563047E-10
       282  16  1.202342E+05 -8.097714E+04 -6.355170E+04 -4.346275E+04  2.900255E-10  3.400460E-11
       282  17  5.520581E+04 -9.632427E+04 -7.124715E+04 -2.948239E+04  1.473035E-10  6.157660E-11
       282  18 -7.636629E+03 -1.065520E+05 -7.344272E+04 -4.067767E+04 -1.207214E-10 -5.221547E-11
       282  19  7.833881E+05  8.031820E+04  8.010485E+04 -4.139163E+04  2.689118E+03  1.763764E+04
       282  20  8.461335E+05  9.601929E+04  9.994040E+04 -3.019910E+04  1.062037E+04  2.115550E+04
       282  21  9.113177E+05  1.170908E+05  1.262903E+05 -4.418027E+04  1.855112E+04  2.391302E+04
       282  22  4.517597E+05 -3.256657E+02  8.280209E+03 -4.242740E+04  6.432413E+03  1.763827E+04
       282  23  4.505965E+05 -1.470533E+02  1.435193E+04 -2.984049E+04  1.362895E+04  2.115686E+04
       282  24  4.517420E+05  5.276758E+03  2.643112E+04 -4.242809E+04  2.082418E+04  2.391491E+04
       282  25  1.202344E+05 -8.097678E+04 -6.355092E+04 -4.346260E+04  1.017374E+04  1.763889E+04
       282  26  5.520623E+04 -9.632372E+04 -7.124579E+04 -2.948210E+04  1.663565E+04  2.115823E+04
       282  27 -7.635902E+03 -1.065513E+05 -7.344064E+04 -4.067723E+04  2.309559E+04  2.391682E+04
       283   1  9.683888E+05  1.192712E+05  1.438353E+05 -2.737902E+04 -1.844552E+04 -2.743199E+04
       283   2  1.017296E+06  1.414062E+05  1.840714E+05 -4.804674E+04 -6.491540E+04 -2.638417E+04
       283   3  1.097299E+06  2.632408E+05  2.794826E+05 -9.330979E+04 -1.114038E+05 -8.464643E+03
       283   4  4.575113E+05 -4.928317E+03  3.336159E+04 -4.228310E+04 -2.551531E+04 -2.743551E+04
       283   5  4.433383E+05  1.354952E+03  5.718047E+04 -3.001742E+04 -5.574649E+04 -2.638311E+04
       283   6  4.574668E+05  1.045673E+05  1.249351E+05 -4.234382E+04 -8.599022E+04 -8.456927E+03
       283   7 -5.312089E+04 -1.291441E+05 -7.712727E+04 -5.717478E+04 -3.257936E+04 -2.743870E+04
       283   8 -1.303115E+05 -1.387172E+05 -6.973031E+04 -1.200496E+04 -4.658594E+04 -2.638152E+04
       283   9 -1.819842E+05 -5.412590E+04 -2.963798E+04  8.569475E+03 -6.060264E+04 -8.445044E+03
       283  10  9.683882E+05  1.192703E+05  1.438333E+05 -2.737943E+04 -1.545601E-10 -8.095044E-11
       283  11  1.017291E+06  1.414044E+05  1.840622E+05 -4.804812E+04 -1.216729E-09 -3.471630E-12
       283  12  1.097285E+06  2.632374E+05  2.794592E+05 -9.331054E+04 -6.819874E-11 -1.406471E-11
       283  13  4.575104E+05 -4.929300E+03  3.335896E+04 -4.228367E+04  2.693568E-10 -1.465135E-10
       283  14  4.433347E+05  1.353371E+03  5.717332E+04 -3.001860E+04 -8.708891E-10 -1.080457E-10
       283  15  4.574589E+05  1.045653E+05  1.249211E+05 -4.234441E+04 -4.546583E-10 -7.848053E-12
       283  16 -5.312223E+04 -1.291452E+05 -7.713068E+04 -5.717550E+04  1.683814E-10 -1.147679E-10
       283  17 -1.303140E+05 -1.387186E+05 -6.973569E+04 -1.200595E+04  8.476353E-11  2.498571E-10
       283  18 -1.819881E+05 -5.412696E+04 -2.964502E+04  8.569063E+03  1.279796E-10  8.826972E-12
       283  19  9.683888E+05  1.192712E+05  1.438353E+05 -2.737902E+04  1.844552E+04  2.743199E+04
       283  20  1.017296E+06  1.414062E+05  1.840714E+05 -4.804674E+04  6.491540E+04  2.638417E+04
       283  21  1.097299E+06  2.632408E+05  2.794826E+05 -9.330979E+04  1.114038E+05  8.464643E+03
       283  22  4.575113E+05 -4.928317E+03  3.336159E+04 -4.228310E+04  2.551531E+04  2.743551E+04
       283  23  4.433383E+05  1.354952E+03  5.718047E+04 -3.001742E+04  5.574649E+04  2.638311E+04
       283  24  4.574668E+05  1.045673E+05  1.249351E+05 -4.234382E+04  8.599022E+04  8.456927E+03
       283  25 -5.312089E+04 -1.291441E+05 -7.712727E+04 -5.717478E+04  3.257936E+04  2.743870E+04
       283  26 -1.303115E+05 -1.387172E+05 -6.973031E+04 -1.200496E+04  4.658594E+04  2.638152E+04
       283  27 -1.819842E+05 -5.412590E+04 -2.963798E+04  8.569475E+03  6.060264E+04  8.445044E+03
       284   1  1.764563E+05  1.016076E+06  1.852620E+05 -1.201879E+05  5.014536E+03  6.539788E+04
       284   2  8.149290E+04  8.721096E+05  1.060087E+05 -7.476407E+04  1.411794E+04  3.550709E+04
       284   3  4.494174E+04  7.465066E+05  6.077183E+04 -8.178132E+04  1.009174E+04  5.605942E+03
       284   4  6.083514E+04  5.510084E+05  7.227203E+04 -9.005514E+04  5.037928E+03  5.035788E+04
       284   5  1.001272E+03  5.429436E+05  3.263294E+04 -6.387872E+04  1.412249E+04  3.309828E+04
       284   6 -2.591834E+03  5.510512E+05  1.826330E+04 -9.014087E+04  1.007616E+04  1.582169E+04
       284   7 -5.479842E+04  8.614024E+04 -4.073227E+04 -5.994493E+04  5.059872E+03  3.532909E+04
       284   8 -7.949727E+04  2.138787E+05 -4.074951E+04 -5.299916E+04  1.412695E+04  3.069072E+04
       284   9 -5.012762E+04  3.556320E+05 -2.424709E+04 -9.849774E+04  1.006031E+04  2.603426E+04
       284  10  1.764551E+05  1.016071E+06  1.852539E+05 -1.201881E+05 -6.908037E-11 -4.432342E-10
       284  11  8.149235E+04  8.721082E+05  1.060060E+05 -7.476447E+04 -7.156576E-10  1.098209E-10
       284  12  4.494162E+04  7.465066E+05  6.077158E+04 -8.178137E+04  5.873131E-10  6.325339E-10
       284  13  6.083443E+04  5.510056E+05  7.226722E+04 -9.005535E+04  1.852239E-10 -7.977843E-11
       284  14  1.000764E+03  5.429424E+05  3.263051E+04 -6.387910E+04 -1.877561E-09  2.620096E-10
       284  15 -2.592010E+03  5.510509E+05  1.826264E+04 -9.014100E+04  4.455728E-10 -9.721407E-12
       284  16 -5.479879E+04  8.613889E+04 -4.073466E+04 -5.994508E+04 -3.477835E-10  4.436584E-10
       284  17 -7.949774E+04  2.138777E+05 -4.075166E+04 -5.299951E+04 -3.135233E-10  2.806736E-11
       284  18 -5.012791E+04  3.556312E+05 -2.424855E+04 -9.849795E+04  8.811891E-11 -6.696660E-10
       284  19  1.764563E+05  1.016076E+06  1.852620E+05 -1.201879E+05 -5.014536E+03 -6.539788E+04
       284  20  8.149290E+04  8.721096E+05  1.060087E+05 -7.476407E+04 -1.411794E+04 -3.550709E+04
       284  21  4.494174E+04  7.465066E+05  6.077183E+04 -8.178132E+04 -1.009174E+04 -5.605942E+03
       284  22  6.083514E+04  5.510084E+05  7.227203E+04 -9.005514E+04 -5.037928E+03 -5.035788E+04
       284  23  1.001272E+03  5.429436E+05  3.263294E+04 -6.387872E+04 -1.412249E+04 -3.309828E+04
       284  24 -2.591834E+03  5.510512E+05  1.826330E+04 -9.014087E+04 -1.007616E+04 -1.582169E+04
       284  25 -5.479842E+04  8.614024E+04 -4.073227E+04 -5.994493E+04 -5.059872E+03 -3.532909E+04
       284  26 -7.949727E+04  2.138787E+05 -4.074951E+04 -5.299916E+04 -1.412695E+04 -3.069072E+04
       284  27 -5.012762E+04  3.556320E+05 -2.424709E+04 -9.849774E+04 -1.006031E+04 -2.603426E+04
       285   1  2.490159E+04  6.358471E+05  3.314456E+04 -9.121943E+04  4.411984E+03  6.637369E+03
       285   2 -1.113047E+04  5.008790E+05 -4.313754E+03 -6.398877E+04 -2.481723E+03  3.857165E+03
       285   3 -4.491503E+04  3.666671E+05 -3.944788E+04 -8.975878E+04 -9.269671E+03  1.078114E+03
       285   4  3.411211E+03  5.476297E+05  1.386860E+04 -9.024155E+04  4.401582E+03  1.331455E+04
       285   5  1.450633E+02  5.472502E+05  5.724816E+03 -6.374467E+04 -2.491769E+03  1.043294E+04
       285   6 -8.544872E+02  5.476286E+05 -2.246033E+01 -9.024807E+04 -9.279421E+03  7.551903E+03
       285   7 -1.807966E+04  4.594198E+05 -5.407653E+03 -8.926379E+04  4.391201E+03  1.999079E+04
       285   8  1.142048E+04  5.936236E+05  1.576342E+04 -6.350055E+04 -2.501809E+03  1.700920E+04
       285   9  4.320391E+04  7.286209E+05  3.940115E+04 -9.073749E+04 -9.289180E+03  1.402755E+04
       285  10  2.490156E+04  6.358470E+05  3.314444E+04 -9.121946E+04  1.120377E-11 -6.625629E-10
       285  11 -1.113048E+04  5.008790E+05 -4.313794E+03 -6.398876E+04  1.336366E-10 -2.923821E-10
       285  12 -4.491512E+04  3.666671E+05 -3.944805E+04 -8.975877E+04 -7.883744E-10  1.768285E-10
       285  13  3.411142E+03  5.476295E+05  1.386823E+04 -9.024159E+04  1.861054E-10 -3.953913E-12
       285  14  1.450275E+02  5.472501E+05  5.724600E+03 -6.374465E+04  5.699663E-10 -1.392912E-10
       285  15 -8.545950E+02  5.476285E+05 -2.272922E+01 -9.024801E+04  9.065971E-10 -1.575748E-10
       285  16 -1.807979E+04  4.594193E+05 -5.408440E+03 -8.926387E+04  4.100089E-10  6.667242E-10
       285  17  1.142039E+04  5.936233E+05  1.576287E+04 -6.350051E+04 -8.514041E-10  2.535891E-10
       285  18  4.320376E+04  7.286206E+05  3.940062E+04 -9.073739E+04 -6.642241E-10 -1.193540E-10
       285  19  2.490159E+04  6.358471E+05  3.314456E+04 -9.121943E+04 -4.411984E+03 -6.637369E+03
       285  20 -1.113047E+04  5.008790E+05 -4.313754E+03 -6.398877E+04  2.481723E+03 -3.857165E+03
       285  21 -4.491503E+04  3.666671E+05 -3.944788E+04 -8.975878E+04  9.269671E+03 -1.078114E+03
       285  22  3.411211E+03  5.476297E+05  1.386860E+04 -9.024155E+04 -4.401582E+03 -1.331455E+04
       285  23  1.450633E+02  5.472502E+05  5.724816E+03 -6.374467E+04  2.491769E+03 -1.043294E+04
       285  24 -8.544872E+02  5.476286E+05 -2.246033E+01 -9.024807E+04  9.279421E+03 -7.551903E+03
       285  25 -1.807966E+04  4.594198E+05 -5.407653E+03 -8.926379E+04 -4.391201E+03 -1.999079E+04
       285  26  1.142048E+04  5.936236E+05  1.576342E+04 -6.350055E+04  2.501809E+03 -1.700920E+04
       285  27  4.320391E+04  7.286209E+05  3.940115E+04 -9.073749E+04  9.289180E+03 -1.402755E+04
       286   1 -6.892359E+04  2.581574E+05 -6.500345E+04 -8.713170E+04 -1.512281E+04 -3.057713E+03
       286   2 -1.032371E+05  1.269619E+05 -1.022599E+05 -6.658926E+04 -1.855374E+04  1.633429E+04
       286   3 -1.567233E+05 -1.163484E+04 -1.569569E+05 -9.846249E+04 -6.477081E+03  3.573974E+04
       286   4  1.218512E+03  5.463746E+05 -2.433224E+03 -9.010985E+04 -1.513828E+04  7.657945E+03
       286   5 -1.473165E+02  5.487763E+05 -8.428042E+03 -6.391471E+04 -1.854717E+04  1.216371E+04
       286   6 -1.809443E+04  5.463467E+05 -2.152469E+04 -9.013445E+04 -6.452834E+03  1.668755E+04
       286   7  7.135520E+04  8.346699E+05  6.013248E+04 -9.308936E+04 -1.515385E+04  1.837851E+04
       286   8  1.029305E+05  9.707566E+05  8.539278E+04 -6.123825E+04 -1.854063E+04  7.990334E+03
       286   9  1.205121E+05  1.104613E+06  1.138865E+05 -8.179881E+04 -6.429109E+03 -2.381711E+03
       286  10 -6.892383E+04  2.581573E+05 -6.500389E+04 -8.713174E+04 -1.401617E-11  9.448401E-11
       286  11 -1.032375E+05  1.269615E+05 -1.022610E+05 -6.658901E+04  2.613956E-10  1.126863E-10
       286  12 -1.567237E+05 -1.163622E+04 -1.569594E+05 -9.846230E+04 -2.424587E-10  8.235106E-11
       286  13  1.218250E+03  5.463745E+05 -2.433765E+03 -9.010976E+04 -1.025089E-09  8.193515E-11
       286  14 -1.477256E+02  5.487761E+05 -8.428966E+03 -6.391452E+04  4.868635E-10 -7.820620E-11
       286  15 -1.809455E+04  5.463464E+05 -2.152529E+04 -9.013437E+04 -2.874529E-10  5.186107E-11
       286  16  7.135487E+04  8.346695E+05  6.013141E+04 -9.308914E+04  2.375802E-10 -1.942755E-10
       286  17  1.029301E+05  9.707565E+05  8.539201E+04 -6.123813E+04  1.024183E-10 -1.603851E-10
       286  18  1.205120E+05  1.104613E+06  1.138864E+05 -8.179882E+04 -3.828797E-10 -3.892508E-11
       286  19 -6.892359E+04  2.581574E+05 -6.500345E+04 -8.713170E+04  1.512281E+04  3.057713E+03
       286  20 -1.032371E+05  1.269619E+05 -1.022599E+05 -6.658926E+04  1.855374E+04 -1.633429E+04
       286  21 -1.567233E+05 -1.163484E+04 -1.569569E+05 -9.846249E+04  6.477081E+03 -3.573974E+04
       286  22  1.218512E+03  5.463746E+05 -2.433224E+03 -9.010985E+04  1.513828E+04 -7.657945E+03
       286  23 -1.473165E+02  5.487763E+05 -8.428042E+03 -6.391471E+04  1.854717E+04 -1.216371E+04
       286  24 -1.809443E+04  5.463467E+05 -2.152469E+04 -9.013445E+04  6.452834E+03 -1.668755E+04
       286  25  7.135520E+04  8.346699E+05  6.013248E+04 -9.308936E+04  1.515385E+04 -1.837851E+04
       286  26  1.029305E+05  9.707566E+05  8.539278E+04 -6.123825E+04  1.854063E+04 -7.990334E+03
       286  27  1.205121E+05  1.104613E+06  1.138865E+05 -8.179881E+04  6.429109E+03  2.381711E+03
       287   1 -8.669738E+05 -3.963986E+05 -2.686449E+05 -3.128163E+05 -1.142371E+05 -3.537826E+04
       287   2 -8.318724E+05 -2.425875E+05 -1.674269E+05 -3.053609E+05 -7.391300E+04 -3.800731E+03
       287   3 -8.342543E+05 -2.081381E+05 -1.302226E+05 -2.814056E+05 -2.864231E+04  1.464295E+04
       287   4 -4.426559E+05 -1.846094E+05 -1.455946E+05 -1.435959E+05 -9.547396E+04 -2.833156E+04
       287   5 -4.171487E+05 -7.003885E+04 -6.336452E+04 -1.729227E+05 -6.692304E+04 -1.176044E+03
       287   6 -4.267616E+05 -7.245598E+04 -3.578312E+04 -1.857599E+05 -3.342886E+04  1.284330E+04
       287   7 -1.815892E+04  2.723353E+04 -2.256079E+04  2.574141E+04 -7.669689E+04 -2.127568E+04
       287   8 -2.254379E+03  1.025335E+05  4.068425E+04 -4.040007E+04 -5.992799E+04  1.451067E+03
       287   9 -1.910281E+04  6.323068E+04  5.864570E+04 -9.006008E+04 -3.821885E+04  1.104266E+04
       287  10 -8.669882E+05 -3.964034E+05 -2.686718E+05 -3.128196E+05  1.207362E-10 -5.493377E-11
       287  11 -8.318783E+05 -2.425890E+05 -1.674372E+05 -3.053611E+05 -4.709831E-10 -1.084150E-10
       287  12 -8.342552E+05 -2.081386E+05 -1.302245E+05 -2.814053E+05  2.392751E-10 -1.292420E-10
       287  13 -4.426659E+05 -1.846127E+05 -1.456132E+05 -1.435981E+05  8.759184E-10  3.804812E-11
       287  14 -4.171535E+05 -7.004006E+04 -6.337295E+04 -1.729228E+05 -1.390025E-10  1.003552E-11
       287  15 -4.267628E+05 -7.245645E+04 -3.578553E+04 -1.857595E+05  7.630196E-11 -2.645493E-10
       287  16 -1.816536E+04  2.723147E+04 -2.257270E+04  2.574009E+04  1.753315E-11  6.979528E-11
       287  17 -2.258236E+03  1.025325E+05  4.067750E+04 -4.040000E+04  3.126158E-10  1.114641E-11
       287  18 -1.910441E+04  6.323016E+04  5.864273E+04 -9.005974E+04 -4.526919E-10 -3.413715E-10
       287  19 -8.669738E+05 -3.963986E+05 -2.686449E+05 -3.128163E+05  1.142371E+05  3.537826E+04
       287  20 -8.318724E+05 -2.425875E+05 -1.674269E+05 -3.053609E+05  7.391300E+04  3.800731E+03
       287  21 -8.342543E+05 -2.081381E+05 -1.302226E+05 -2.814056E+05  2.864231E+04 -1.464295E+04
       287  22 -4.426559E+05 -1.846094E+05 -1.455946E+05 -1.435959E+05  9.547396E+04  2.833156E+04
       287  23 -4.171487E+05 -7.003885E+04 -6.336452E+04 -1.729227E+05  6.692304E+04  1.176044E+03
       287  24 -4.267616E+05 -7.245598E+04 -3.578312E+04 -1.857599E+05  3.342886E+04 -1.284330E+04
       287  25 -1.815892E+04  2.723353E+04 -2.256079E+04  2.574141E+04  7.669689E+04  2.127568E+04
       287  26 -2.254379E+03  1.025335E+05  4.068425E+04 -4.040007E+04  5.992799E+04 -1.451067E+03
       287  27 -1.910281E+04  6.323068E+04  5.864570E+04 -9.006008E+04  3.821885E+04 -1.104266E+04
       288   1 -7.889830E+05 -2.216818E+05 -1.167223E+05 -2.823991E+05 -2.711404E+04  1.251658E+04
       288   2 -7.600212E+05 -1.966523E+05 -9.472918E+04 -2.679987E+05 -1.870337E+04  1.420669E+04
       288   3 -7.243267E+05 -1.882171E+05 -8.036478E+04 -2.638052E+05 -1.007050E+04  1.530423E+04
       288   4 -4.220827E+05 -8.298576E+04 -2.828836E+04 -1.793353E+05 -2.801328E+04  1.217751E+04
       288   5 -4.250507E+05 -7.157489E+04 -1.458661E+04 -1.754193E+05 -2.013033E+04  1.366976E+04
       288   6 -4.211801E+05 -7.665125E+04 -8.091645E+03 -1.817108E+05 -1.202563E+04  1.456940E+04
       288   7 -5.505074E+04  5.572023E+04  6.013515E+04 -7.621611E+04 -2.891310E+04  1.183821E+04
       288   8 -8.996873E+04  5.351069E+04  6.554783E+04 -8.279436E+04 -2.155812E+04  1.313252E+04
       288   9 -1.179408E+05  3.492120E+04  6.417532E+04 -9.957969E+04 -1.398182E+04  1.383420E+04
       288  10 -7.889838E+05 -2.216822E+05 -1.167240E+05 -2.823988E+05 -5.721995E-10 -2.613846E-10
       288  11 -7.600217E+05 -1.966526E+05 -9.473022E+04 -2.679985E+05  8.828138E-11  5.613576E-11
       288  12 -7.243268E+05 -1.882174E+05 -8.036541E+04 -2.638051E+05 -8.442977E-12  6.793176E-11
       288  13 -4.220836E+05 -8.298613E+04 -2.829011E+04 -1.793350E+05  3.254159E-10 -2.273190E-10
       288  14 -4.250512E+05 -7.157520E+04 -1.458773E+04 -1.754191E+05 -8.924590E-10 -3.341521E-11
       288  15 -4.211803E+05 -7.665152E+04 -8.092315E+03 -1.817107E+05  2.347894E-11  1.555436E-10
       288  16 -5.505167E+04  5.571986E+04  6.013332E+04 -7.621583E+04  1.029983E-10 -2.085090E-10
       288  17 -8.996928E+04  5.351038E+04  6.554663E+04 -8.279414E+04 -1.961437E-10  7.016482E-11
       288  18 -1.179411E+05  3.492094E+04  6.417459E+04 -9.957953E+04 -5.944154E-11  2.618946E-10
       288  19 -7.889830E+05 -2.216818E+05 -1.167223E+05 -2.823991E+05  2.711404E+04 -1.251658E+04
       288  20 -7.600212E+05 -1.966523E+05 -9.472918E+04 -2.679987E+05  1.870337E+04 -1.420669E+04
       288  21 -7.243267E+05 -1.882171E+05 -8.036478E+04 -2.638052E+05  1.007050E+04 -1.530423E+04
       288  22 -4.220827E+05 -8.298576E+04 -2.828836E+04 -1.793353E+05  2.801328E+04 -1.217751E+04
       288  23 -4.250507E+05 -7.157489E+04 -1.458661E+04 -1.754193E+05  2.013033E+04 -1.366976E+04
       288  24 -4.211801E+05 -7.665125E+04 -8.091645E+03 -1.817108E+05  1.202563E+04 -1.456940E+04
       288  25 -5.505074E+04  5.572023E+04  6.013515E+04 -7.621611E+04  2.891310E+04 -1.183821E+04
       288  26 -8.996873E+04  5.351069E+04  6.554783E+04 -8.279436E+04  2.155812E+04 -1.313252E+04
       288  27 -1.179408E+05  3.492120E+04  6.417532E+04 -9.957969E+04  1.398182E+04 -1.383420E+04
       289   1 -6.957525E+05 -1.793421E+05 -7.168495E+04 -2.567728E+05 -8.636319E+03  1.443376E+04
       289   2 -6.673600E+05 -1.614836E+05 -6.102299E+04 -2.418235E+05 -6.182403E+03  1.307096E+04
       289   3 -6.291057E+05 -1.542177E+05 -5.172142E+04 -2.385152E+05 -3.717753E+03  1.167759E+04
       289   4 -4.207701E+05 -7.723159E+04 -6.150021E+03 -1.813171E+05 -1.042165E+04  1.376293E+04
       289   5 -4.256768E+05 -7.177150E+04 -3.351342E+03 -1.755580E+05 -7.994365E+03  1.239045E+04
       289   6 -4.207175E+05 -7.689821E+04 -1.891408E+03 -1.814398E+05 -5.556450E+03  1.098740E+04
       289   7 -1.457126E+05  2.488423E+04  5.937946E+04 -1.058310E+05 -1.220785E+04  1.309177E+04
       289   8 -1.839362E+05  1.794442E+04  5.431592E+04 -1.092692E+05 -9.807091E+03  1.170966E+04
       289   9 -2.122873E+05  4.238761E+02  4.793517E+04 -1.243472E+05 -7.395809E+03  1.029695E+04
       289  10 -6.957527E+05 -1.793423E+05 -7.168548E+04 -2.567727E+05 -5.115006E-10  5.776329E-11
       289  11 -6.673601E+05 -1.614838E+05 -6.102338E+04 -2.418234E+05 -9.854600E-11  1.390820E-10
       289  12 -6.291058E+05 -1.542178E+05 -5.172171E+04 -2.385151E+05  3.158567E-10 -4.905673E-11
       289  13 -4.207703E+05 -7.723182E+04 -6.150581E+03 -1.813170E+05  6.988344E-11  1.938991E-10
       289  14 -4.256769E+05 -7.177168E+04 -3.351750E+03 -1.755579E+05  4.436990E-10  3.573671E-11
       289  15 -4.207176E+05 -7.689834E+04 -1.891692E+03 -1.814397E+05  2.975003E-10 -1.148076E-10
       289  16 -1.457128E+05  2.488400E+04  5.937886E+04 -1.058309E+05  1.830052E-10  2.663787E-10
       289  17 -1.839364E+05  1.794425E+04  5.431548E+04 -1.092691E+05  4.093839E-10  7.054184E-12
       289  18 -2.122874E+05  4.237476E+02  4.793487E+04 -1.243472E+05  4.795982E-11 -1.936855E-10
       289  19 -6.957525E+05 -1.793421E+05 -7.168495E+04 -2.567728E+05  8.636319E+03 -1.443376E+04
       289  20 -6.673600E+05 -1.614836E+05 -6.102299E+04 -2.418235E+05  6.182403E+03 -1.307096E+04
       289  21 -6.291057E+05 -1.542177E+05 -5.172142E+04 -2.385152E+05  3.717753E+03 -1.167759E+04
       289  22 -4.207701E+05 -7.723159E+04 -6.150021E+03 -1.813171E+05  1.042165E+04 -1.376293E+04
       289  23 -4.256768E+05 -7.177150E+04 -3.351342E+03 -1.755580E+05  7.994365E+03 -1.239045E+04
       289  24 -4.207175E+05 -7.689821E+04 -1.891408E+03 -1.814398E+05  5.556450E+03 -1.098740E+04
       289  25 -1.457126E+05  2.488423E+04  5.937946E+04 -1.058310E+05  1.220785E+04 -1.309177E+04
       289  26 -1.839362E+05  1.794442E+04  5.431592E+04 -1.092692E+05  9.807091E+03 -1.170966E+04
       289  27 -2.122873E+05  4.238761E+02  4.793517E+04 -1.243472E+05  7.395809E+03 -1.029695E+04
       290   1 -6.014453E+05 -1.440175E+05 -4.448010E+04 -2.309998E+05 -2.999210E+03  1.058857E+04
       290   2 -5.730379E+05 -1.264636E+05 -3.605365E+04 -2.159458E+05 -1.776113E+03  8.716417E+03
       290   3 -5.344464E+05 -1.191811E+05 -2.797036E+04 -2.126332E+05 -5.520997E+02  6.840568E+03
       290   4 -4.206597E+05 -7.693187E+04 -1.459167E+03 -1.814223E+05 -4.832945E+03  9.900403E+03
       290   5 -4.257480E+05 -7.178667E+04 -9.099357E+02 -1.755543E+05 -3.613030E+03  8.027252E+03
       290   6 -4.206536E+05 -7.691246E+04 -7.014654E+02 -1.814281E+05 -2.392231E+03  6.150403E+03
       290   7 -2.398407E+05 -9.843526E+03  4.155970E+04 -1.318315E+05 -6.667271E+03  9.212015E+03
       290   8 -2.784362E+05 -1.710805E+04  3.423234E+04 -1.351540E+05 -5.450428E+03  7.337907E+03
       290   9 -3.068479E+05 -3.464287E+04  2.656650E+04 -1.502179E+05 -4.232729E+03  5.460099E+03
       290  10 -6.014453E+05 -1.440177E+05 -4.448032E+04 -2.309998E+05  8.274560E-12 -2.081493E-10
       290  11 -5.730379E+05 -1.264637E+05 -3.605380E+04 -2.159457E+05 -3.471703E-10 -2.042827E-10
       290  12 -5.344464E+05 -1.191812E+05 -2.797045E+04 -2.126332E+05 -5.976926E-10 -6.556279E-11
       290  13 -4.206597E+05 -7.693198E+04 -1.459395E+03 -1.814223E+05 -2.011850E-10 -3.508690E-10
       290  14 -4.257481E+05 -7.178674E+04 -9.100813E+02 -1.755543E+05 -9.490837E-12 -8.961515E-11
       290  15 -4.206536E+05 -7.691251E+04 -7.015472E+02 -1.814281E+05 -2.480951E-10 -3.778088E-11
       290  16 -2.398408E+05 -9.843629E+03  4.155946E+04 -1.318314E+05 -1.383861E-10 -2.324168E-10
       290  17 -2.784363E+05 -1.710812E+04  3.423218E+04 -1.351539E+05  1.085566E-10 -1.403227E-10
       290  18 -3.068479E+05 -3.464291E+04  2.656642E+04 -1.502178E+05  3.325957E-10  5.557154E-11
       290  19 -6.014453E+05 -1.440175E+05 -4.448010E+04 -2.309998E+05  2.999210E+03 -1.058857E+04
       290  20 -5.730379E+05 -1.264636E+05 -3.605365E+04 -2.159458E+05  1.776113E+03 -8.716417E+03
       290  21 -5.344464E+05 -1.191811E+05 -2.797036E+04 -2.126332E+05  5.520997E+02 -6.840568E+03
       290  22 -4.206597E+05 -7.693187E+04 -1.459167E+03 -1.814223E+05  4.832945E+03 -9.900403E+03
       290  23 -4.257480E+05 -7.178667E+04 -9.099357E+02 -1.755543E+05  3.613030E+03 -8.027252E+03
       290  24 -4.206536E+05 -7.691246E+04 -7.014654E+02 -1.814281E+05  2.392231E+03 -6.150403E+03
       290  25 -2.398407E+05 -9.843526E+03  4.155970E+04 -1.318315E+05  6.667271E+03 -9.212015E+03
       290  26 -2.784362E+05 -1.710805E+04  3.423234E+04 -1.351540E+05  5.450428E+03 -7.337907E+03
       290  27 -3.068479E+05 -3.464287E+04  2.656650E+04 -1.502179E+05  4.232729E+03 -5.460099E+03
       291   1 -5.067800E+05 -1.088824E+05 -2.113114E+04 -2.050751E+05  1.276167E+01  5.691724E+03
       291   2 -4.782935E+05 -9.130419E+04 -1.341090E+04 -1.899837E+05  1.215229E+03  3.804029E+03
       291   3 -4.396065E+05 -8.401903E+04 -6.018836E+03 -1.866653E+05  2.417634E+03  1.916022E+03
       291   4 -4.206485E+05 -7.691750E+04 -6.950791E+02 -1.814344E+05 -1.828762E+03  5.001124E+03
       291   5 -4.257480E+05 -7.177302E+04 -8.698328E+02 -1.755469E+05 -6.265624E+02  3.113401E+03
       291   6 -4.206483E+05 -7.692164E+04 -1.372509E+03 -1.814325E+05  5.755533E+02  1.225359E+03
       291   7 -3.345101E+05 -4.495220E+04  1.974034E+04 -1.577910E+05 -3.670555E+03  4.310423E+03
       291   8 -3.731999E+05 -5.224164E+04  1.167105E+04 -1.611088E+05 -2.468523E+03  2.422710E+03
       291   9 -4.016895E+05 -6.982419E+04  3.273833E+03 -1.761996E+05 -1.266599E+03  5.346684E+02
       291  10 -5.067800E+05 -1.088825E+05 -2.113120E+04 -2.050751E+05 -5.352457E-11  1.775554E-10
       291  11 -4.782935E+05 -9.130421E+04 -1.341093E+04 -1.899838E+05  4.048372E-10  1.247859E-10
       291  12 -4.396065E+05 -8.401904E+04 -6.018854E+03 -1.866653E+05  5.245583E-10 -7.977262E-11
       291  13 -4.206486E+05 -7.691753E+04 -6.951324E+02 -1.814344E+05 -2.828913E-10  2.221097E-10
       291  14 -4.257481E+05 -7.177303E+04 -8.698518E+02 -1.755469E+05 -1.143647E-10  9.286842E-11
       291  15 -4.206483E+05 -7.692164E+04 -1.372512E+03 -1.814325E+05  2.128215E-10 -1.664446E-10
       291  16 -3.345101E+05 -4.495222E+04  1.974028E+04 -1.577910E+05 -7.097939E-11  5.370280E-11
       291  17 -3.731999E+05 -5.224165E+04  1.167103E+04 -1.611088E+05  8.691011E-11  4.173302E-11
       291  18 -4.016895E+05 -6.982419E+04  3.273829E+03 -1.761996E+05 -3.564998E-10 -1.872522E-10
       291  19 -5.067800E+05 -1.088824E+05 -2.113114E+04 -2.050751E+05 -1.276167E+01 -5.691724E+03
       291  20 -4.782935E+05 -9.130419E+04 -1.341090E+04 -1.899837E+05 -1.215229E+03 -3.804029E+03
       291  21 -4.396065E+05 -8.401903E+04 -6.018836E+03 -1.866653E+05 -2.417634E+03 -1.916022E+03
       291  22 -4.206485E+05 -7.691750E+04 -6.950791E+02 -1.814344E+05  1.828762E+03 -5.001124E+03
       291  23 -4.257480E+05 -7.177302E+04 -8.698328E+02 -1.755469E+05  6.265624E+02 -3.113401E+03
       291  24 -4.206483E+05 -7.692164E+04 -1.372509E+03 -1.814325E+05 -5.755533E+02 -1.225359E+03
       291  25 -3.345101E+05 -4.495220E+04  1.974034E+04 -1.577910E+05  3.670555E+03 -4.310423E+03
       291  26 -3.731999E+05 -5.224164E+04  1.167105E+04 -1.611088E+05  2.468523E+03 -2.422710E+03
       291  27 -4.016895E+05 -6.982419E+04  3.273833E+03 -1.761996E+05  1.266599E+03 -5.346684E+02
       292   1 -4.119151E+05 -7.372020E+04  4.200451E+02 -1.791644E+05  3.130428E+03  8.196105E+02
       292   2 -3.833388E+05 -5.608736E+04  6.963426E+03 -1.639999E+05  5.448039E+03 -6.468700E+02
       292   3 -3.448299E+05 -4.908795E+04  1.226084E+04 -1.605771E+05  7.759840E+03 -2.097355E+03
       292   4 -4.206945E+05 -7.690057E+04 -1.774044E+03 -1.814620E+05  1.283714E+03  1.272131E+02
       292   5 -4.256806E+05 -7.173111E+04 -3.127593E+03 -1.755355E+05  3.615512E+03 -1.334008E+03
       292   6 -4.207379E+05 -7.719799E+04 -5.738371E+03 -1.813512E+05  5.941403E+03 -2.779260E+03
       292   7 -4.294738E+05 -8.008093E+04 -3.968125E+03 -1.837597E+05 -5.629705E+02 -5.651742E+02
       292   8 -4.680205E+05 -8.737468E+04 -1.321869E+04 -1.870704E+05  1.783126E+03 -2.021093E+03
       292   9 -4.966396E+05 -1.053075E+05 -2.373787E+04 -2.021229E+05  4.123216E+03 -3.461071E+03
       292  10 -4.119151E+05 -7.372021E+04  4.200254E+02 -1.791644E+05 -2.331386E-12 -1.560655E-10
       292  11 -3.833389E+05 -5.608737E+04  6.963369E+03 -1.639999E+05 -2.502191E-11  1.543520E-10
       292  12 -3.448300E+05 -4.908797E+04  1.226072E+04 -1.605771E+05 -1.478324E-10  1.998915E-10
       292  13 -4.206945E+05 -7.690057E+04 -1.774048E+03 -1.814620E+05 -7.659518E-11 -8.387687E-11
       292  14 -4.256806E+05 -7.173111E+04 -3.127621E+03 -1.755355E+05 -5.721557E-10 -2.908387E-11
       292  15 -4.207379E+05 -7.719801E+04 -5.738452E+03 -1.813512E+05 -5.366010E-10  1.144603E-10
       292  16 -4.294738E+05 -8.008094E+04 -3.968126E+03 -1.837597E+05  4.709322E-11 -2.376739E-11
       292  17 -4.680205E+05 -8.737469E+04 -1.321871E+04 -1.870704E+05 -1.684893E-10  6.576859E-11
       292  18 -4.966397E+05 -1.053075E+05 -2.373792E+04 -2.021229E+05  2.560699E-11  3.058688E-10
       292  19 -4.119151E+05 -7.372020E+04  4.200451E+02 -1.791644E+05 -3.130428E+03 -8.196105E+02
       292  20 -3.833388E+05 -5.608736E+04  6.963426E+03 -1.639999E+05 -5.448039E+03  6.468700E+02
       292  21 -3.448299E+05 -4.908795E+04  1.226084E+04 -1.605771E+05 -7.759840E+03  2.097355E+03
       292  22 -4.206945E+05 -7.690057E+04 -1.774044E+03 -1.814620E+05 -1.283714E+03 -1.272131E+02
       292  23 -4.256806E+05 -7.173111E+04 -3.127593E+03 -1.755355E+05 -3.615512E+03  1.334008E+03
       292  24 -4.207379E+05 -7.719799E+04 -5.738371E+03 -1.813512E+05 -5.941403E+03  2.779260E+03
       292  25 -4.294738E+05 -8.008093E+04 -3.968125E+03 -1.837597E+05  5.629705E+02  5.651742E+02
       292  26 -4.680205E+05 -8.737468E+04 -1.321869E+04 -1.870704E+05 -1.783126E+03  2.021093E+03
       292  27 -4.966396E+05 -1.053075E+05 -2.373787E+04 -2.021229E+05 -4.123216E+03  3.461071E+03
       293   1 -3.168069E+05 -3.896137E+04  1.726615E+04 -1.541996E+05  9.384064E+03 -2.884648E+03
       293   2 -2.884317E+05 -2.026766E+04  1.914233E+04 -1.373779E+05  1.671061E+04 -2.375240E+03
       293   3 -2.528562E+05 -1.769923E+04  1.453340E+04 -1.310239E+05  2.390814E+04 -1.519416E+03
       293   4 -4.211108E+05 -7.666660E+04 -7.549481E+03 -1.817306E+05  7.464825E+03 -3.604415E+03
       293   5 -4.250967E+05 -7.152138E+04 -1.360049E+04 -1.753915E+05  1.510081E+04 -2.979181E+03
       293   6 -4.219462E+05 -8.256449E+04 -2.638334E+04 -1.795210E+05  2.260737E+04 -2.007667E+03
       293   7 -5.254045E+05 -1.143714E+05 -3.236603E+04 -2.092576E+05  5.545928E+03 -4.324063E+03
       293   8 -5.617436E+05 -1.227738E+05 -4.634477E+04 -2.133975E+05  1.349138E+04 -3.582975E+03
       293   9 -5.910078E+05 -1.474273E+05 -6.730219E+04 -2.280059E+05  2.130699E+04 -2.495763E+03
       293  10 -3.168070E+05 -3.896140E+04  1.726597E+04 -1.541995E+05  2.274088E-10  2.752401E-10
       293  11 -2.884320E+05 -2.026774E+04  1.914180E+04 -1.373779E+05 -3.564122E-10 -5.826155E-11
       293  12 -2.528568E+05 -1.769938E+04  1.453232E+04 -1.310238E+05 -9.494471E-11 -7.314928E-11
       293  13 -4.211109E+05 -7.666663E+04 -7.549610E+03 -1.817306E+05 -3.993127E-10  5.351196E-11
       293  14 -4.250970E+05 -7.152146E+04 -1.360094E+04 -1.753914E+05 -2.167837E-10 -8.596699E-11
       293  15 -4.219467E+05 -8.256463E+04 -2.638431E+04 -1.795209E+05  9.047653E-13  6.031079E-11
       293  16 -5.254046E+05 -1.143714E+05 -3.236612E+04 -2.092576E+05 -2.508990E-10 -1.557944E-11
       293  17 -5.617438E+05 -1.227739E+05 -4.634514E+04 -2.133975E+05 -1.614214E-10 -2.370873E-11
       293  18 -5.910083E+05 -1.474274E+05 -6.730306E+04 -2.280058E+05  1.979727E-10  1.333596E-10
       293  19 -3.168069E+05 -3.896137E+04  1.726615E+04 -1.541996E+05 -9.384064E+03  2.884648E+03
       293  20 -2.884317E+05 -2.026766E+04  1.914233E+04 -1.373779E+05 -1.671061E+04  2.375240E+03
       293  21 -2.528562E+05 -1.769923E+04  1.453340E+04 -1.310239E+05 -2.390814E+04  1.519416E+03
       293  22 -4.211108E+05 -7.666660E+04 -7.549481E+03 -1.817306E+05 -7.464825E+03  3.604415E+03
       293  23 -4.250967E+05 -7.152138E+04 -1.360049E+04 -1.753915E+05 -1.510081E+04  2.979181E+03
       293  24 -4.219462E+05 -8.256449E+04 -2.638334E+04 -1.795210E+05 -2.260737E+04  2.007667E+03
       293  25 -5.254045E+05 -1.143714E+05 -3.236603E+04 -2.092576E+05 -5.545928E+03  4.324063E+03
       293  26 -5.617436E+05 -1.227738E+05 -4.634477E+04 -2.133975E+05 -1.349138E+04  3.582975E+03
       293  27 -5.910078E+05 -1.474273E+05 -6.730219E+04 -2.280059E+05 -2.130699E+04  2.495763E+03
       294   1 -2.171823E+05 -9.895012E+03  1.393767E+04 -1.434536E+05  3.112278E+04 -9.699099E+02
       294   2 -1.987815E+05  2.820532E+04 -2.814226E+03 -9.568141E+04  5.593691E+04  8.196075E+03
       294   3 -2.107872E+05 -4.246027E+04 -6.505861E+04 -3.373927E+04  7.786048E+04  2.506974E+04
       294   4 -4.262765E+05 -7.277700E+04 -3.337400E+04 -1.855539E+05  2.753934E+04 -2.313781E+03
       294   5 -4.177640E+05 -7.002580E+04 -5.908987E+04 -1.730075E+05  5.926697E+04  9.443571E+03
       294   6 -4.410462E+05 -1.774385E+05 -1.357906E+05 -1.462894E+05  8.810252E+04  2.890639E+04
       294   7 -6.353271E+05 -1.356590E+05 -8.068826E+04 -2.276428E+05  2.395722E+04 -3.657373E+03
       294   8 -6.366963E+05 -1.682462E+05 -1.153688E+05 -2.503060E+05  6.259573E+04  1.069035E+04
       294   9 -6.712439E+05 -3.123837E+05 -2.065256E+05 -2.587926E+05  9.834027E+04  3.273942E+04
       294  10 -2.171833E+05 -9.895273E+03  1.393585E+04 -1.434536E+05 -3.539160E-12  1.252134E-10
       294  11 -1.987848E+05  2.820440E+04 -2.820235E+03 -9.568178E+04 -1.619761E-10  9.176423E-11
       294  12 -2.107939E+05 -4.246257E+04 -6.507119E+04 -3.374084E+04 -2.306749E-11 -6.505858E-12
       294  13 -4.262774E+05 -7.277721E+04 -3.337544E+04 -1.855538E+05 -2.524774E-12  7.836171E-11
       294  14 -4.177678E+05 -7.002684E+04 -5.909664E+04 -1.730080E+05  9.415391E-11  1.114706E-10
       294  15 -4.410548E+05 -1.774414E+05 -1.358067E+05 -1.462915E+05 -4.940109E-12  6.499371E-12
       294  16 -6.353277E+05 -1.356592E+05 -8.068937E+04 -2.276427E+05 -6.043672E-12  3.893560E-11
       294  17 -6.367006E+05 -1.682474E+05 -1.153764E+05 -2.503065E+05  3.681414E-10 -1.220736E-11
       294  18 -6.712546E+05 -3.123874E+05 -2.065458E+05 -2.587952E+05  1.707444E-10  2.152846E-12
       294  19 -2.171823E+05 -9.895012E+03  1.393767E+04 -1.434536E+05 -3.112278E+04  9.699099E+02
       294  20 -1.987815E+05  2.820532E+04 -2.814226E+03 -9.568141E+04 -5.593691E+04 -8.196075E+03
       294  21 -2.107872E+05 -4.246027E+04 -6.505861E+04 -3.373927E+04 -7.786048E+04 -2.506974E+04
       294  22 -4.262765E+05 -7.277700E+04 -3.337400E+04 -1.855539E+05 -2.753934E+04  2.313781E+03
       294  23 -4.177640E+05 -7.002580E+04 -5.908987E+04 -1.730075E+05 -5.926697E+04 -9.443571E+03
       294  24 -4.410462E+05 -1.774385E+05 -1.357906E+05 -1.462894E+05 -8.810252E+04 -2.890639E+04
       294  25 -6.353271E+05 -1.356590E+05 -8.068826E+04 -2.276428E+05 -2.395722E+04  3.657373E+03
       294  26 -6.366963E+05 -1.682462E+05 -1.153688E+05 -2.503060E+05 -6.259573E+04 -1.069035E+04
       294  27 -6.712439E+05 -3.123837E+05 -2.065256E+05 -2.587926E+05 -9.834027E+04 -3.273942E+04
       295   1 -5.502561E+05 -1.406121E+05 -1.163875E+05 -1.672220E+04  3.890010E+04  1.238131E+04
       295   2 -4.671958E+05 -2.050014E+05 -1.360425E+05 -2.792325E+04  3.591867E+04  3.880524E+04
       295   3 -3.629747E+05 -1.874379E+05 -1.332158E+05 -7.483795E+04  3.295351E+04  4.042355E+04
       295   4  3.892295E+05  9.266169E+04  1.107746E+05 -6.172116E+04  7.623004E+04  1.240069E+04
       295   5  3.766332E+05  1.109678E+03  5.068214E+04 -4.384595E+04  4.942042E+04  3.880554E+04
       295   6  3.892929E+05 -4.416317E+03  2.958868E+04 -6.167919E+04  2.262902E+04  4.041964E+04
       295   7  1.329529E+06  3.258794E+05  3.378796E+05 -1.067886E+05  1.136163E+05  1.241465E+04
       295   8  1.221128E+06  2.071738E+05  2.373636E+05 -5.979059E+04  6.294028E+04  3.880516E+04
       295   9  1.142092E+06  1.785686E+05  1.923601E+05 -4.850424E+04  1.229218E+04  4.041530E+04
       295  10 -5.502578E+05 -1.406127E+05 -1.163906E+05 -1.672259E+04 -2.527682E-10  1.460344E-10
       295  11 -4.671976E+05 -2.050034E+05 -1.360477E+05 -2.792437E+04 -4.783889E-10 -1.475848E-11
       295  12 -3.629763E+05 -1.874399E+05 -1.332209E+05 -7.483902E+04  8.680384E-12 -8.741090E-11
       295  13  3.892232E+05  9.265997E+04  1.107634E+05 -6.172192E+04 -1.838125E-11 -1.406444E-10
       295  14  3.766301E+05  1.107405E+03  5.067472E+04 -4.384749E+04 -6.572344E-10  1.163255E-10
       295  15  3.892919E+05 -4.418209E+03  2.958465E+04 -6.167992E+04 -5.014359E-10 -7.718377E-12
       295  16  1.329516E+06  3.258758E+05  3.378551E+05 -1.067897E+05  4.402569E-10  3.297927E-10
       295  17  1.221123E+06  2.071711E+05  2.373533E+05 -5.979255E+04  1.193659E-10  5.079111E-11
       295  18  1.142092E+06  1.785668E+05  1.923567E+05 -4.850464E+04 -4.020659E-10 -1.927951E-11
       295  19 -5.502561E+05 -1.406121E+05 -1.163875E+05 -1.672220E+04 -3.890010E+04 -1.238131E+04
       295  20 -4.671958E+05 -2.050014E+05 -1.360425E+05 -2.792325E+04 -3.591867E+04 -3.880524E+04
       295  21 -3.629747E+05 -1.874379E+05 -1.332158E+05 -7.483795E+04 -3.295351E+04 -4.042355E+04
       295  22  3.892295E+05  9.266169E+04  1.107746E+05 -6.172116E+04 -7.623004E+04 -1.240069E+04
       295  23  3.766332E+05  1.109678E+03  5.068214E+04 -4.384595E+04 -4.942042E+04 -3.880554E+04
       295  24  3.892929E+05 -4.416317E+03  2.958868E+04 -6.167919E+04 -2.262902E+04 -4.041964E+04
       295  25  1.329529E+06  3.258794E+05  3.378796E+05 -1.067886E+05 -1.136163E+05 -1.241465E+04
       295  26  1.221128E+06  2.071738E+05  2.373636E+05 -5.979059E+04 -6.294028E+04 -3.880516E+04
       295  27  1.142092E+06  1.785686E+05  1.923601E+05 -4.850424E+04 -1.229218E+04 -4.041530E+04
       296   1 -2.935374E+05 -1.603660E+05 -1.239255E+05 -6.026376E+04  2.175277E+04  3.528370E+04
       296   2 -2.014886E+05 -1.423832E+05 -1.138543E+05 -4.314632E+04  1.645015E+04  3.128597E+04
       296   3 -1.075166E+05 -1.199052E+05 -9.918211E+04 -6.266949E+04  1.114309E+04  2.616936E+04
       296   4  3.841673E+05  4.645927E+03  2.344218E+04 -6.189571E+04  1.846644E+04  3.528093E+04
       296   5  3.831351E+05 -1.493443E+02  1.273349E+04 -4.357706E+04  1.208348E+04  3.128469E+04
       296   6  3.842016E+05 -2.646037E+02  7.371562E+03 -6.189671E+04  5.696844E+03  2.617007E+04
       296   7  1.062303E+06  1.696274E+05  1.707824E+05 -6.352944E+04  1.517656E+04  3.527817E+04
       296   8  9.680797E+05  1.420620E+05  1.393011E+05 -4.400819E+04  7.712743E+03  3.128342E+04
       296   9  8.761467E+05  1.193601E+05  1.139110E+05 -6.112329E+04  2.463410E+02  2.617076E+04
       296  10 -2.935382E+05 -1.603675E+05 -1.239287E+05 -6.026438E+04 -3.348675E-10 -1.267960E-10
       296  11 -2.014892E+05 -1.423844E+05 -1.138566E+05 -4.314673E+04  2.946407E-10 -6.439258E-11
       296  12 -1.075169E+05 -1.199060E+05 -9.918363E+04 -6.266972E+04 -2.906661E-10  4.440436E-12
       296  13  3.841666E+05  4.644498E+03  2.343920E+04 -6.189624E+04 -8.850468E-10 -4.051188E-11
       296  14  3.831347E+05 -1.504347E+02  1.273138E+04 -4.357736E+04 -2.004095E-10 -1.472003E-10
       296  15  3.842014E+05 -2.653480E+02  7.370214E+03 -6.189683E+04 -7.878734E-10 -1.267931E-10
       296  16  1.062302E+06  1.696260E+05  1.707796E+05 -6.352987E+04 -3.129171E-10 -2.582927E-11
       296  17  9.680793E+05  1.420609E+05  1.392991E+05 -4.400838E+04 -1.887741E-10  8.338613E-11
       296  18  8.761465E+05  1.193593E+05  1.139097E+05 -6.112329E+04  2.187171E-12 -3.058103E-10
       296  19 -2.935374E+05 -1.603660E+05 -1.239255E+05 -6.026376E+04 -2.175277E+04 -3.528370E+04
       296  20 -2.014886E+05 -1.423832E+05 -1.138543E+05 -4.314632E+04 -1.645015E+04 -3.128597E+04
       296  21 -1.075166E+05 -1.199052E+05 -9.918211E+04 -6.266949E+04 -1.114309E+04 -2.616936E+04
       296  22  3.841673E+05  4.645927E+03  2.344218E+04 -6.189571E+04 -1.846644E+04 -3.528093E+04
       296  23  3.831351E+05 -1.493443E+02  1.273349E+04 -4.357706E+04 -1.208348E+04 -3.128469E+04
       296  24  3.842016E+05 -2.646037E+02  7.371562E+03 -6.189671E+04 -5.696844E+03 -2.617007E+04
       296  25  1.062303E+06  1.696274E+05  1.707824E+05 -6.352944E+04 -1.517656E+04 -3.527817E+04
       296  26  9.680797E+05  1.420620E+05  1.393011E+05 -4.400819E+04 -7.712743E+03 -3.128342E+04
       296  27  8.761467E+05  1.193601E+05  1.139110E+05 -6.112329E+04 -2.463410E+02 -2.617076E+04
       297   1 -3.415823E+04 -1.014011E+05 -8.449180E+04 -6.185544E+04  9.670381E+03  2.291869E+04
       297   2  5.847488E+04 -7.910922E+04 -6.705545E+04 -4.356448E+04  8.104565E+03  1.755663E+04
       297   3  1.513816E+05 -5.652927E+04 -4.853061E+04 -6.186132E+04  6.536357E+03  1.214703E+04
       297   4  3.838108E+05  2.071187E+02  5.654294E+03 -6.188495E+04  4.546997E+03  2.292007E+04
       297   5  3.836834E+05 -2.130693E+01  3.251591E+03 -4.359171E+04  2.934190E+03  1.755896E+04
       297   6  3.838292E+05  4.677776E+01  1.969562E+03 -6.188511E+04  1.319219E+03  1.215034E+04
       297   7  8.019440E+05  1.018039E+05  9.579019E+04 -6.191446E+04 -5.797890E+02  2.292145E+04
       297   8  7.089911E+05  7.905965E+04  7.355248E+04 -4.361894E+04 -2.238856E+03  1.756129E+04
       297   9  6.163274E+05  5.661926E+04  5.246660E+04 -6.190889E+04 -3.899847E+03  1.215366E+04
       297  10 -3.415847E+04 -1.014017E+05 -8.449296E+04 -6.185562E+04 -4.251366E-10 -2.569630E-10
       297  11  5.847473E+04 -7.910957E+04 -6.705616E+04 -4.356460E+04 -3.495928E-10 -2.415634E-10
       297  12  1.513816E+05 -5.652944E+04 -4.853096E+04 -6.186138E+04 -3.906368E-11 -4.579696E-10
       297  13  3.838107E+05  2.065489E+02  5.653268E+03 -6.188504E+04 -5.344153E-10 -2.247951E-10
       297  14  3.836833E+05 -2.164038E+01  3.250995E+03 -4.359175E+04  2.835320E-11  3.717996E-10
       297  15  3.838291E+05  4.661873E+01  1.969281E+03 -6.188512E+04 -6.620180E-10  3.284127E-10
       297  16  8.019438E+05  1.018033E+05  9.578920E+04 -6.191445E+04 -2.466242E-10 -2.003366E-10
       297  17  7.089911E+05  7.905931E+04  7.355189E+04 -4.361891E+04 -6.254078E-10  5.895502E-11
       297  18  6.163274E+05  5.661910E+04  5.246630E+04 -6.190885E+04 -2.093633E-10 -2.041342E-10
       297  19 -3.415823E+04 -1.014011E+05 -8.449180E+04 -6.185544E+04 -9.670381E+03 -2.291869E+04
       297  20  5.847488E+04 -7.910922E+04 -6.705545E+04 -4.356448E+04 -8.104565E+03 -1.755663E+04
       297  21  1.513816E+05 -5.652927E+04 -4.853061E+04 -6.186132E+04 -6.536357E+03 -1.214703E+04
       297  22  3.838108E+05  2.071187E+02  5.654294E+03 -6.188495E+04 -4.546997E+03 -2.292007E+04
       297  23  3.836834E+05 -2.130693E+01  3.251591E+03 -4.359171E+04 -2.934190E+03 -1.755896E+04
       297  24  3.838292E+05  4.677776E+01  1.969562E+03 -6.188511E+04 -1.319219E+03 -1.215034E+04
       297  25  8.019440E+05  1.018039E+05  9.579019E+04 -6.191446E+04  5.797890E+02 -2.292145E+04
       297  26  7.089911E+05  7.905965E+04  7.355248E+04 -4.361894E+04  2.238856E+03 -1.756129E+04
       297  27  6.163274E+05  5.661926E+04  5.246660E+04 -6.190889E+04  3.899847E+03 -1.215366E+04
       298   1  2.249324E+05 -3.850524E+04 -3.250495E+04 -6.184337E+04  6.197706E+03  8.987797E+03
       298   2  3.175920E+05 -1.604822E+04 -1.318307E+04 -4.358931E+04  5.642642E+03  3.571108E+03
       298   3  4.102886E+05  6.469875E+03  6.500457E+03 -6.188153E+04  5.087067E+03 -1.847135E+03
       298   4  3.837817E+05  6.972540E+01  1.573754E+03 -6.187605E+04  9.965261E+02  8.991453E+03
       298   5  3.837682E+05  4.246516E+01  1.119913E+03 -4.360303E+04  4.395443E+02  3.574941E+03
       298   6  3.837854E+05  7.744162E+01  1.029570E+03 -6.187605E+04 -1.178681E+02 -1.843092E+03
       298   7  5.426546E+05  3.864305E+04  3.565109E+04 -6.190873E+04 -4.205965E+03  8.995108E+03
       298   8  4.499486E+05  1.613288E+04  1.542274E+04 -4.361675E+04 -4.764100E+03  3.578774E+03
       298   9  3.572829E+05 -6.315022E+03 -4.441253E+03 -6.187058E+04 -5.322585E+03 -1.839050E+03
       298  10  2.249324E+05 -3.850533E+04 -3.250517E+04 -6.184341E+04 -4.261170E-10 -1.612224E-10
       298  11  3.175919E+05 -1.604824E+04 -1.318316E+04 -4.358933E+04 -8.443836E-10  1.050132E-10
       298  12  4.102885E+05  6.469865E+03  6.500402E+03 -6.188152E+04 -1.400355E-10  2.785789E-10
       298  13  3.837816E+05  6.963830E+01  1.573600E+03 -6.187605E+04 -7.093660E-10 -6.960606E-10
       298  14  3.837682E+05  4.245138E+01  1.119889E+03 -4.360303E+04  1.449636E-10  2.162536E-10
       298  15  3.837854E+05  7.743796E+01  1.029564E+03 -6.187605E+04 -7.621767E-11 -2.791804E-11
       298  16  5.426546E+05  3.864296E+04  3.565090E+04 -6.190870E+04 -8.987607E-11 -1.444644E-10
       298  17  4.499486E+05  1.613286E+04  1.542267E+04 -4.361674E+04 -5.332069E-10 -3.958254E-11
       298  18  3.572829E+05 -6.315033E+03 -4.441312E+03 -6.187058E+04 -1.968526E-10 -3.542608E-10
       298  19  2.249324E+05 -3.850524E+04 -3.250495E+04 -6.184337E+04 -6.197706E+03 -8.987797E+03
       298  20  3.175920E+05 -1.604822E+04 -1.318307E+04 -4.358931E+04 -5.642642E+03 -3.571108E+03
       298  21  4.102886E+05  6.469875E+03  6.500457E+03 -6.188153E+04 -5.087067E+03  1.847135E+03
       298  22  3.837817E+05  6.972540E+01  1.573754E+03 -6.187605E+04 -9.965261E+02 -8.991453E+03
       298  23  3.837682E+05  4.246516E+01  1.119913E+03 -4.360303E+04 -4.395443E+02 -3.574941E+03
       298  24  3.837854E+05  7.744162E+01  1.029570E+03 -6.187605E+04  1.178681E+02  1.843092E+03
       298  25  5.426546E+05  3.864305E+04  3.565109E+04 -6.190873E+04  4.205965E+03 -8.995108E+03
       298  26  4.499486E+05  1.613288E+04  1.542274E+04 -4.361675E+04  4.764100E+03 -3.578774E+03
       298  27  3.572829E+05 -6.315022E+03 -4.441253E+03 -6.187058E+04  5.322585E+03  1.839050E+03
       299   1  4.838840E+05  2.446268E+04  2.299081E+04 -6.192094E+04  4.891643E+03 -5.001103E+03
       299   2  5.765709E+05  4.690156E+04  4.318220E+04 -4.364048E+04  4.139063E+03 -1.041974E+04
       299   3  6.693401E+05  6.941019E+04  6.386929E+04 -6.191794E+04  3.387640E+03 -1.583794E+04
       299   4  3.837927E+05  7.675458E+01  1.103559E+03 -6.187885E+04 -3.142962E+02 -4.997174E+03
       299   5  3.837509E+05  2.501917E+01  1.514094E+03 -4.359954E+04 -1.066652E+03 -1.041638E+04
       299   6  3.837819E+05  4.316698E+01  2.420165E+03 -6.187884E+04 -1.817743E+03 -1.583513E+04
       299   7  2.837108E+05 -2.430982E+04 -2.078420E+04 -6.183676E+04 -5.519407E+03 -4.993245E+03
       299   8  1.909658E+05 -4.685396E+04 -4.015611E+04 -4.355860E+04 -6.270774E+03 -1.041303E+04
       299   9  9.830030E+04 -6.932920E+04 -5.903364E+04 -6.183974E+04 -7.020766E+03 -1.583232E+04
       299  10  4.838840E+05  2.446264E+04  2.299072E+04 -6.192092E+04 -9.554778E-11  7.539342E-10
       299  11  5.765708E+05  4.690144E+04  4.318197E+04 -4.364045E+04 -1.383716E-10  9.233495E-10
       299  12  6.693401E+05  6.940992E+04  6.386879E+04 -6.191790E+04  9.756465E-10 -7.352537E-10
       299  13  3.837927E+05  7.672774E+01  1.103511E+03 -6.187885E+04  2.946663E-10  2.311629E-10
       299  14  3.837508E+05  2.490234E+01  1.513888E+03 -4.359955E+04 -2.484393E-10 -5.269052E-10
       299  15  3.837818E+05  4.289678E+01  2.419688E+03 -6.187886E+04 -4.113264E-10 -1.462434E-10
       299  16  2.837108E+05 -2.430986E+04 -2.078430E+04 -6.183678E+04 -8.235061E-10  1.020737E-10
       299  17  1.909657E+05 -4.685409E+04 -4.015639E+04 -4.355865E+04 -5.913271E-10 -3.687979E-10
       299  18  9.830018E+04 -6.932948E+04 -5.903420E+04 -6.183983E+04 -9.096524E-10 -1.141982E-10
       299  19  4.838840E+05  2.446268E+04  2.299081E+04 -6.192094E+04 -4.891643E+03  5.001103E+03
       299  20  5.765709E+05  4.690156E+04  4.318220E+04 -4.364048E+04 -4.139063E+03  1.041974E+04
       299  21  6.693401E+05  6.941019E+04  6.386929E+04 -6.191794E+04 -3.387640E+03  1.583794E+04
       299  22  3.837927E+05  7.675458E+01  1.103559E+03 -6.187885E+04  3.142962E+02  4.997174E+03
       299  23  3.837509E+05  2.501917E+01  1.514094E+03 -4.359954E+04  1.066652E+03  1.041638E+04
       299  24  3.837819E+05  4.316698E+01  2.420165E+03 -6.187884E+04  1.817743E+03  1.583513E+04
       299  25  2.837108E+05 -2.430982E+04 -2.078420E+04 -6.183676E+04  5.519407E+03  4.993245E+03
       299  26  1.909658E+05 -4.685396E+04 -4.015611E+04 -4.355860E+04  6.270774E+03  1.041303E+04
       299  27  9.830030E+04 -6.932920E+04 -5.903364E+04 -6.183974E+04  7.020766E+03  1.583232E+04
       300   1  7.431119E+05  8.738441E+04  8.100885E+04 -6.187988E+04  2.904016E+03 -1.899911E+04
       300   2  8.357756E+05  1.098269E+05  1.030376E+05 -4.353171E+04  2.073006E+02 -2.440970E+04
       300   3  9.289500E+05  1.327401E+05  1.269438E+05 -6.180907E+04 -2.486817E+03 -2.976772E+04
       300   4  3.838650E+05  5.577919E+00  3.128735E+03 -6.189412E+04 -2.320969E+03 -1.899687E+04
       300   5  3.836051E+05 -8.493301E+01  5.330800E+03 -4.358043E+04 -4.965766E+03 -2.440882E+04
       300   6  3.838393E+05  2.870775E+02  9.375592E+03 -6.189391E+04 -7.607573E+03 -2.976814E+04
       300   7  2.473904E+04 -8.738177E+04 -7.475895E+04 -6.190833E+04 -7.542973E+03 -1.899463E+04
       300   8 -6.837365E+04 -1.100103E+05 -9.238803E+04 -4.362909E+04 -1.013512E+04 -2.440793E+04
       300   9 -1.609926E+05 -1.321855E+05 -1.082100E+05 -6.197863E+04 -1.272390E+04 -2.976856E+04
       300  10  7.431118E+05  8.738402E+04  8.100815E+04 -6.187983E+04  1.536304E-10 -9.821583E-10
       300  11  8.357754E+05  1.098263E+05  1.030365E+05 -4.353170E+04 -8.899663E-11 -2.164950E-10
       300  12  9.289497E+05  1.327392E+05  1.269421E+05 -6.180913E+04 -1.328980E-09  5.798010E-10
       300  13  3.838649E+05  5.188875E+00  3.128047E+03 -6.189416E+04 -3.554006E-10 -9.853763E-11
       300  14  3.836049E+05 -8.557953E+01  5.329633E+03 -4.358053E+04 -1.603842E-10 -5.106404E-10
       300  15  3.838390E+05  2.861102E+02  9.373817E+03 -6.189409E+04  2.983196E-12  5.397436E-11
       300  16  2.473888E+04 -8.738217E+04 -7.475974E+04 -6.190845E+04 -5.437833E-10 -2.250890E-11
       300  17 -6.837392E+04 -1.100109E+05 -9.238934E+04 -4.362929E+04 -7.839838E-10  3.499672E-10
       300  18 -1.609930E+05 -1.321865E+05 -1.082120E+05 -6.197894E+04  5.584399E-10 -4.775417E-11
       300  19  7.431119E+05  8.738441E+04  8.100885E+04 -6.187988E+04 -2.904016E+03  1.899911E+04
       300  20  8.357756E+05  1.098269E+05  1.030376E+05 -4.353171E+04 -2.073006E+02  2.440970E+04
       300  21  9.289500E+05  1.327401E+05  1.269438E+05 -6.180907E+04  2.486817E+03  2.976772E+04
       300  22  3.838650E+05  5.577919E+00  3.128735E+03 -6.189412E+04  2.320969E+03  1.899687E+04
       300  23  3.836051E+05 -8.493301E+01  5.330800E+03 -4.358043E+04  4.965766E+03  2.440882E+04
       300  24  3.838393E+05  2.870775E+02  9.375592E+03 -6.189391E+04  7.607573E+03  2.976814E+04
       300  25  2.473904E+04 -8.738177E+04 -7.475895E+04 -6.190833E+04  7.542973E+03  1.899463E+04
       300  26 -6.837365E+04 -1.100103E+05 -9.238803E+04 -4.362909E+04  1.013512E+04  2.440793E+04
       300  27 -1.609926E+05 -1.321855E+05 -1.082100E+05 -6.197863E+04  1.272390E+04  2.976856E+04
       301   1  1.003533E+06  1.500102E+05  1.462381E+05 -6.045761E+04 -4.027364E+03 -3.303347E+04
       301   2  1.094933E+06  1.728684E+05  1.752871E+05 -4.410493E+04 -1.588732E+04 -3.811554E+04
       301   3  1.190049E+06  2.037069E+05  2.140802E+05 -6.445204E+04 -2.774496E+04 -4.193519E+04
       301   4  3.844885E+05 -4.965422E+02  1.224907E+04 -6.191043E+04 -9.514322E+03 -3.303486E+04
       301   5  3.827167E+05 -2.684415E+02  2.120971E+04 -4.355962E+04 -2.014980E+04 -3.811901E+04
       301   6  3.844459E+05  7.734189E+03  3.907355E+04 -6.191092E+04 -3.078123E+04 -4.194011E+04
       301   7 -2.341964E+05 -1.510285E+05 -1.217626E+05 -6.336176E+04 -1.499588E+04 -3.303622E+04
       301   8 -3.290243E+05 -1.734388E+05 -1.328977E+05 -4.301493E+04 -2.440745E+04 -3.812248E+04
       301   9 -4.205491E+05 -1.882815E+05 -1.359718E+05 -5.937314E+04 -3.381360E+04 -4.194507E+04
       301  10  1.003532E+06  1.500090E+05  1.462360E+05 -6.045772E+04 -3.409783E-10  7.130847E-10
       301  11  1.094932E+06  1.728668E+05  1.752839E+05 -4.410542E+04  7.169988E-10  2.802622E-10
       301  12  1.190047E+06  2.037048E+05  2.140754E+05 -6.445298E+04 -1.295913E-10  4.301962E-12
       301  13  3.844882E+05 -4.977386E+02  1.224685E+04 -6.191069E+04 -5.343486E-10  3.145033E-10
       301  14  3.827159E+05 -2.701111E+02  2.120621E+04 -4.356024E+04 -2.148995E-10 -3.746503E-11
       301  15  3.844444E+05  7.732045E+03  3.906846E+04 -6.191196E+04  3.076224E-10 -1.515098E-10
       301  16 -2.341969E+05 -1.510297E+05 -1.217651E+05 -6.336215E+04  5.727555E-11  5.247615E-11
       301  17 -3.290254E+05 -1.734405E+05 -1.329015E+05 -4.301568E+04 -3.260132E-10  1.280630E-10
       301  18 -4.205508E+05 -1.882837E+05 -1.359772E+05 -5.937428E+04  3.979378E-11 -2.709999E-10
       301  19  1.003533E+06  1.500102E+05  1.462381E+05 -6.045761E+04  4.027364E+03  3.303347E+04
       301  20  1.094933E+06  1.728684E+05  1.752871E+05 -4.410493E+04  1.588732E+04  3.811554E+04
       301  21  1.190049E+06  2.037069E+05  2.140802E+05 -6.445204E+04  2.774496E+04  4.193519E+04
       301  22  3.844885E+05 -4.965422E+02  1.224907E+04 -6.191043E+04  9.514322E+03  3.303486E+04
       301  23  3.827167E+05 -2.684415E+02  2.120971E+04 -4.355962E+04  2.014980E+04  3.811901E+04
       301  24  3.844459E+05  7.734189E+03  3.907355E+04 -6.191092E+04  3.078123E+04  4.194011E+04
       301  25 -2.341964E+05 -1.510285E+05 -1.217626E+05 -6.336176E+04  1.499588E+04  3.303622E+04
       301  26 -3.290243E+05 -1.734388E+05 -1.328977E+05 -4.301493E+04  2.440745E+04  3.812248E+04
       301  27 -4.205491E+05 -1.882815E+05 -1.359718E+05 -5.937314E+04  3.381360E+04  4.194507E+04
       302   1  1.273478E+06  2.066549E+05  2.396520E+05 -3.951616E+04 -2.671297E+04 -4.733808E+04
       302   2  1.344189E+06  2.390650E+05  2.993328E+05 -7.031163E+04 -9.838900E+04 -4.484575E+04
       302   3  1.461548E+06  4.194110E+05  4.426757E+05 -1.368386E+05 -1.701118E+05 -1.433172E+04
       302   4  3.929839E+05 -7.364645E+03  4.932218E+04 -6.166119E+04 -3.771728E+04 -4.734671E+04
       302   5  3.719320E+05  1.890676E+03  8.451423E+04 -4.386386E+04 -8.239179E+04 -4.484327E+04
       302   6  3.929033E+05  1.545158E+05  1.847052E+05 -6.179051E+04 -1.270988E+05 -1.430964E+04
       302   7 -4.867827E+05 -2.214334E+05 -1.410529E+05 -8.377448E+04 -4.870620E+04 -4.735456E+04
       302   8 -5.994414E+05 -2.353444E+05 -1.303613E+05 -1.745804E+04 -6.641923E+04 -4.483943E+04
       302   9 -6.746830E+05 -1.104404E+05 -7.333693E+04  1.312798E+04 -8.415931E+04 -1.427717E+04
       302  10  1.273477E+06  2.066523E+05  2.396465E+05 -3.951717E+04  9.853671E-11  2.453583E-10
       302  11  1.344178E+06  2.390602E+05  2.993109E+05 -7.031518E+04 -8.331331E-10  1.631539E-10
       302  12  1.461517E+06  4.194030E+05  4.426210E+05 -1.368405E+05 -2.447411E-11 -1.609353E-10
       302  13  3.929817E+05 -7.367434E+03  4.931530E+04 -6.166262E+04  3.908258E-10  3.434840E-10
       302  14  3.719241E+05  1.886695E+03  8.449770E+04 -4.386683E+04 -2.597874E-10  1.275152E-09
       302  15  3.928859E+05  1.545113E+05  1.846745E+05 -6.179197E+04 -1.223663E-10 -1.914299E-10
       302  16 -4.867859E+05 -2.214364E+05 -1.410615E+05 -8.377634E+04  4.600460E-10 -1.678778E-10
       302  17 -5.994467E+05 -2.353477E+05 -1.303734E+05 -1.746044E+04  5.894964E-11  1.080763E-10
       302  18 -6.746907E+05 -1.104425E+05 -7.335063E+04  1.312701E+04  1.322718E-10 -4.361547E-10
       302  19  1.273478E+06  2.066549E+05  2.396520E+05 -3.951616E+04  2.671297E+04  4.733808E+04
       302  20  1.344189E+06  2.390650E+05  2.993328E+05 -7.031163E+04  9.838900E+04  4.484575E+04
       302  21  1.461548E+06  4.194110E+05  4.426757E+05 -1.368386E+05  1.701118E+05  1.433172E+04
       302  22  3.929839E+05 -7.364645E+03  4.932218E+04 -6.166119E+04  3.771728E+04  4.734671E+04
       302  23  3.719320E+05  1.890676E+03  8.451423E+04 -4.386386E+04  8.239179E+04  4.484327E+04
       302  24  3.929033E+05  1.545158E+05  1.847052E+05 -6.179051E+04  1.270988E+05  1.430964E+04
       302  25 -4.867827E+05 -2.214334E+05 -1.410529E+05 -8.377448E+04  4.870620E+04  4.735456E+04
       302  26 -5.994414E+05 -2.353444E+05 -1.303613E+05 -1.745804E+04  6.641923E+04  4.483943E+04
       302  27 -6.746830E+05 -1.104404E+05 -7.333693E+04  1.312798E+04  8.415931E+04  1.427717E+04
       303   1  2.353209E+05  9.043332E+05  2.429525E+05 -1.844754E+05  7.314435E+03  7.086898E+04
       303   2  1.158349E+05  6.620027E+05  1.378793E+05 -1.200434E+05  1.976909E+04  3.405321E+04
       303   3  5.562623E+04  4.391603E+05  7.153367E+04 -1.462685E+05  1.207897E+04 -2.769434E+03
       303   4  6.040484E+04  2.008255E+05  7.180090E+04 -1.544236E+05  7.342813E+03  4.923270E+04
       303   5  1.039116E+03  1.928092E+05  3.301782E+04 -1.091322E+05  1.977355E+04  3.179496E+04
       303   6 -2.379969E+03  2.008956E+05  1.954223E+04 -1.544949E+05  1.205491E+04  1.433643E+04
       303   7 -1.145440E+05 -5.022283E+05 -9.938437E+04 -1.244058E+05  7.369119E+03  2.762081E+04
       303   8 -1.137713E+05 -2.761792E+05 -7.185742E+04 -9.822922E+04  1.977792E+04  2.953839E+04
       303   9 -6.038953E+04 -3.731523E+04 -3.245150E+04 -1.627181E+05  1.203040E+04  3.143582E+04
       303  10  2.353195E+05  9.043278E+05  2.429430E+05 -1.844758E+05 -1.023968E-10  1.322859E-10
       303  11  1.158342E+05  6.620013E+05  1.378764E+05 -1.200440E+05 -5.939210E-10 -6.786820E-10
       303  12  5.562607E+04  4.391602E+05  7.153338E+04 -1.462684E+05  2.263003E-10 -1.821872E-10
       303  13  6.040413E+04  2.008228E+05  7.179624E+04 -1.544239E+05  3.835011E-10 -2.687607E-10
       303  14  1.038424E+03  1.928080E+05  3.301518E+04 -1.091327E+05 -7.306682E-10  7.940554E-11
       303  15 -2.380180E+03  2.008953E+05  1.954157E+04 -1.544951E+05  5.911248E-10 -4.499039E-10
       303  16 -1.145443E+05 -5.022291E+05 -9.938591E+04 -1.244059E+05  3.094687E-11  2.325172E-10
       303  17 -1.137719E+05 -2.761803E+05 -7.185979E+04 -9.822969E+04  1.566039E-10  7.594875E-10
       303  18 -6.038995E+04 -3.731633E+04 -3.245362E+04 -1.627185E+05 -3.451383E-10  2.704381E-10
       303  19  2.353209E+05  9.043332E+05  2.429525E+05 -1.844754E+05 -7.314435E+03 -7.086898E+04
       303  20  1.158349E+05  6.620027E+05  1.378793E+05 -1.200434E+05 -1.976909E+04 -3.405321E+04
       303  21  5.562623E+04  4.391603E+05  7.153367E+04 -1.462685E+05 -1.207897E+04  2.769434E+03
       303  22  6.040484E+04  2.008255E+05  7.180090E+04 -1.544236E+05 -7.342813E+03 -4.923270E+04
       303  23  1.039116E+03  1.928092E+05  3.301782E+04 -1.091322E+05 -1.977355E+04 -3.179496E+04
       303  24 -2.379969E+03  2.008956E+05  1.954223E+04 -1.544949E+05 -1.205491E+04 -1.433643E+04
       303  25 -1.145440E+05 -5.022283E+05 -9.938437E+04 -1.244058E+05 -7.369119E+03 -2.762081E+04
       303  26 -1.137713E+05 -2.761792E+05 -7.185742E+04 -9.822922E+04 -1.977792E+04 -2.953839E+04
       303  27 -6.038953E+04 -3.731523E+04 -3.245150E+04 -1.627181E+05 -1.203040E+04 -3.143582E+04
       304   1  1.644767E+04  2.508054E+05  2.744662E+04 -1.558414E+05  2.461361E+03 -1.998181E+02
       304   2 -4.337165E+04  1.786343E+04 -2.966000E+04 -1.089390E+05 -9.560672E+03 -4.398831E+03
       304   3 -9.967976E+04 -2.138481E+05 -8.322238E+04 -1.535571E+05 -2.117100E+04 -8.593133E+03
       304   4  3.454733E+03  1.976057E+05  1.568786E+04 -1.546677E+05  2.444274E+03  1.154738E+04
       304   5  2.034482E+02  1.969689E+05  9.131923E+03 -1.089104E+05 -9.575930E+03  6.951632E+03
       304   6  5.355598E+02  1.975815E+05  6.398800E+03 -1.546717E+05 -2.118465E+04  2.359080E+03
       304   7 -9.538311E+03  1.444090E+05  3.929435E+03 -1.534941E+05  2.427231E+03  2.329358E+04
       304   8  4.377649E+04  3.761047E+05  4.792243E+04 -1.088818E+05 -9.591185E+03  1.830532E+04
       304   9  1.007397E+05  6.091701E+05  9.601027E+04 -1.557869E+05 -2.119834E+04  1.331846E+04
       304  10  1.644766E+04  2.508054E+05  2.744661E+04 -1.558414E+05  2.480626E-11 -3.418455E-10
       304  11 -4.337175E+04  1.786338E+04 -2.966021E+04 -1.089390E+05 -1.993941E-10 -1.104889E-09
       304  12 -9.968026E+04 -2.138483E+05 -8.322336E+04 -1.535572E+05 -5.126262E-10 -4.699758E-10
       304  13  3.454690E+03  1.976056E+05  1.568759E+04 -1.546677E+05  6.199822E-11 -2.805029E-10
       304  14  2.033368E+02  1.969688E+05  9.131660E+03 -1.089104E+05  6.956983E-10 -6.733224E-11
       304  15  5.350764E+02  1.975814E+05  6.397946E+03 -1.546716E+05  7.377431E-10 -4.722878E-10
       304  16 -9.538463E+03  1.444084E+05  3.928404E+03 -1.534941E+05 -2.138138E-10  8.835796E-10
       304  17  4.377631E+04  3.761044E+05  4.792163E+04 -1.088817E+05 -4.878533E-10  1.348816E-09
       304  18  1.007392E+05  6.091698E+05  9.600909E+04 -1.557867E+05 -6.987116E-10  7.001058E-10
       304  19  1.644767E+04  2.508054E+05  2.744662E+04 -1.558414E+05 -2.461361E+03  1.998181E+02
       304  20 -4.337165E+04  1.786343E+04 -2.966000E+04 -1.089390E+05  9.560672E+03  4.398831E+03
       304  21 -9.967976E+04 -2.138481E+05 -8.322238E+04 -1.535571E+05  2.117100E+04  8.593133E+03
       304  22  3.454733E+03  1.976057E+05  1.568786E+04 -1.546677E+05 -2.444274E+03 -1.154738E+04
       304  23  2.034482E+02  1.969689E+05  9.131923E+03 -1.089104E+05  9.575930E+03 -6.951632E+03
       304  24  5.355598E+02  1.975815E+05  6.398800E+03 -1.546717E+05  2.118465E+04 -2.359080E+03
       304  25 -9.538311E+03  1.444090E+05  3.929435E+03 -1.534941E+05 -2.427231E+03 -2.329358E+04
       304  26  4.377649E+04  3.761047E+05  4.792243E+04 -1.088818E+05  9.591185E+03 -1.830532E+04
       304  27  1.007397E+05  6.091701E+05  9.601027E+04 -1.557869E+05  2.119834E+04 -1.331846E+04
       305   1 -1.451586E+05 -3.988581E+05 -1.237805E+05 -1.548378E+05 -3.146843E+04 -1.769713E+04
       305   2 -2.020440E+05 -6.302138E+05 -1.782928E+05 -1.073111E+05 -3.666212E+04  7.531561E+03
       305   3 -2.564941E+05 -8.641370E+05 -2.486260E+05 -1.500900E+05 -1.254821E+04  3.276864E+04
       305   4  7.957197E+01  1.977654E+05  5.713179E+03 -1.544011E+05 -3.148996E+04  1.315635E+03
       305   5  1.334832E+02  1.965773E+05  5.553437E+03 -1.092491E+05 -3.664997E+04 -1.568859E+03
       305   6  7.505461E+03  1.976512E+05  9.103504E+03 -1.543950E+05 -1.252005E+04 -4.434961E+03
       305   7  1.452944E+05  7.947236E+05  1.351870E+05 -1.539639E+05 -3.151145E+04  2.034644E+04
       305   8  2.022648E+05  1.024007E+06  1.893573E+05 -1.111896E+05 -3.663776E+04 -1.068127E+04
       305   9  2.714230E+05  1.260473E+06  2.667568E+05 -1.587070E+05 -1.249140E+04 -4.170206E+04
       305  10 -1.451597E+05 -3.988587E+05 -1.237829E+05 -1.548383E+05  1.400122E-10  2.844172E-10
       305  11 -2.020455E+05 -6.302143E+05 -1.782954E+05 -1.073108E+05  2.068481E-11 -3.438097E-10
       305  12 -2.564945E+05 -8.641382E+05 -2.486283E+05 -1.500897E+05 -4.830666E-11 -4.420522E-11
       305  13  7.850661E+01  1.977651E+05  5.711312E+03 -1.544011E+05 -1.088433E-09 -2.194868E-10
       305  14  1.320400E+02  1.965769E+05  5.550908E+03 -1.092492E+05  4.325929E-10 -1.025310E-10
       305  15  7.505287E+03  1.976511E+05  9.103173E+03 -1.543950E+05 -8.920693E-11 -1.651307E-10
       305  16  1.452932E+05  7.947229E+05  1.351843E+05 -1.539633E+05 -4.022072E-10  7.902523E-11
       305  17  2.022633E+05  1.024006E+06  1.893546E+05 -1.111899E+05  3.745181E-10  2.876777E-10
       305  18  2.714223E+05  1.260471E+06  2.667533E+05 -1.587075E+05 -2.157700E-10  1.944779E-10
       305  19 -1.451586E+05 -3.988581E+05 -1.237805E+05 -1.548378E+05  3.146843E+04  1.769713E+04
       305  20 -2.020440E+05 -6.302138E+05 -1.782928E+05 -1.073111E+05  3.666212E+04 -7.531561E+03
       305  21 -2.564941E+05 -8.641370E+05 -2.486260E+05 -1.500900E+05  1.254821E+04 -3.276864E+04
       305  22  7.957197E+01  1.977654E+05  5.713179E+03 -1.544011E+05  3.148996E+04 -1.315635E+03
       305  23  1.334832E+02  1.965773E+05  5.553437E+03 -1.092491E+05  3.664997E+04  1.568859E+03
       305  24  7.505461E+03  1.976512E+05  9.103504E+03 -1.543950E+05  1.252005E+04  4.434961E+03
       305  25  1.452944E+05  7.947236E+05  1.351870E+05 -1.539639E+05  3.151145E+04 -2.034644E+04
       305  26  2.022648E+05  1.024007E+06  1.893573E+05 -1.111896E+05  3.663776E+04  1.068127E+04
       305  27  2.714230E+05  1.260473E+06  2.667568E+05 -1.587070E+05  1.249140E+04  4.170206E+04
       306   1 -1.336250E+06 -5.052548E+05 -3.093313E+05 -4.941855E+05 -1.400306E+05 -4.506281E+04
       306   2 -1.296910E+06 -3.122735E+05 -1.843691E+05 -4.871911E+05 -9.014237E+04 -1.007678E+04
       306   3 -1.306655E+06 -2.696540E+05 -1.387418E+05 -4.571229E+05 -3.529681E+04  1.173442E+04
       306   4 -9.226430E+05 -2.831261E+05 -1.862700E+05 -3.131492E+05 -1.213985E+05 -3.807928E+04
       306   5 -8.891195E+05 -1.373721E+05 -8.105051E+04 -3.516261E+05 -8.331001E+04 -7.515347E+03
       306   6 -9.023037E+05 -1.395900E+05 -4.576819E+04 -3.670404E+05 -4.026766E+04  9.867881E+03
       306   7 -5.088563E+05 -6.092564E+04 -6.322302E+04 -1.319857E+05 -1.027527E+05 -3.108559E+04
       306   8 -4.811627E+05  3.755634E+04  2.225482E+04 -2.159747E+05 -7.647277E+04 -4.951431E+03
       306   9 -4.977926E+05 -9.524390E+03  4.719423E+04 -2.769093E+05 -4.524201E+04  8.000441E+03
       306  10 -1.336272E+06 -5.052623E+05 -3.093720E+05 -4.941906E+05  2.683154E-09  6.483129E-10
       306  11 -1.296919E+06 -3.122758E+05 -1.843846E+05 -4.871919E+05 -6.171974E-09 -3.494685E-09
       306  12 -1.306656E+06 -2.696545E+05 -1.387444E+05 -4.571226E+05 -1.507971E-08 -7.283891E-09
       306  13 -9.226593E+05 -2.831317E+05 -1.863005E+05 -3.131530E+05  6.656985E-10  2.354202E-10
       306  14 -8.891270E+05 -1.373741E+05 -8.106368E+04 -3.516266E+05  4.040173E-10 -5.973266E-10
       306  15 -9.023055E+05 -1.395905E+05 -4.577143E+04 -3.670401E+05 -3.365947E-09 -2.753312E-09
       306  16 -5.088679E+05 -6.092952E+04 -6.324469E+04 -1.319883E+05 -1.593109E-09 -3.029008E-10
       306  17 -4.811690E+05  3.755475E+04  2.224377E+04 -2.159750E+05  6.402524E-09  2.298000E-09
       306  18 -4.977948E+05 -9.525008E+03  4.719027E+04 -2.769090E+05  8.278603E-09  1.849305E-09
       306  19 -1.336250E+06 -5.052548E+05 -3.093313E+05 -4.941855E+05  1.400306E+05  4.506281E+04
       306  20 -1.296910E+06 -3.122735E+05 -1.843691E+05 -4.871911E+05  9.014237E+04  1.007678E+04
       306  21 -1.306655E+06 -2.696540E+05 -1.387418E+05 -4.571229E+05  3.529681E+04 -1.173442E+04
       306  22 -9.226430E+05 -2.831261E+05 -1.862700E+05 -3.131492E+05  1.213985E+05  3.807928E+04
       306  23 -8.891195E+05 -1.373721E+05 -8.105051E+04 -3.516261E+05  8.331001E+04  7.515347E+03
       306  24 -9.023037E+05 -1.395900E+05 -4.576819E+04 -3.670404E+05  4.026766E+04 -9.867881E+03
       306  25 -5.088563E+05 -6.092564E+04 -6.322302E+04 -1.319857E+05  1.027527E+05  3.108559E+04
       306  26 -4.811627E+05  3.755634E+04  2.225482E+04 -2.159747E+05  7.647277E+04  4.951431E+03
       306  27 -4.977926E+05 -9.524390E+03  4.719423E+04 -2.769093E+05  4.524201E+04 -8.000441E+03
       307   1 -1.253742E+06 -2.887993E+05 -1.224834E+05 -4.597949E+05 -3.246814E+04  9.960944E+03
       307   2 -1.221659E+06 -2.598927E+05 -9.585988E+04 -4.440142E+05 -2.191649E+04  1.222074E+04
       307   3 -1.182750E+06 -2.504026E+05 -7.888891E+04 -4.392611E+05 -1.113977E+04  1.388090E+04
       307   4 -8.963276E+05 -1.530637E+05 -3.618135E+04 -3.588185E+05 -3.354755E+04  9.554574E+03
       307   5 -8.992152E+05 -1.393580E+05 -1.864959E+04 -3.548215E+05 -2.352869E+04  1.161488E+04
       307   6 -8.951706E+05 -1.449600E+05 -1.034349E+04 -3.618526E+05 -1.328546E+04  1.307539E+04
       307   7 -5.387844E+05 -1.731700E+04  5.011184E+04 -2.577881E+05 -3.462765E+04  9.147937E+03
       307   8 -5.766672E+05 -1.881532E+04  5.855339E+04 -2.655862E+05 -2.514180E+04  1.100868E+04
       307   9 -6.075090E+05 -3.951200E+04  5.819601E+04 -2.844116E+05 -1.543222E+04  1.226949E+04
       307  10 -1.253743E+06 -2.887997E+05 -1.224856E+05 -4.597946E+05  8.924936E-09  2.161008E-09
       307  11 -1.221660E+06 -2.598930E+05 -9.586106E+04 -4.440140E+05  6.317649E-09  2.192798E-09
       307  12 -1.182750E+06 -2.504029E+05 -7.888950E+04 -4.392609E+05 -1.908226E-09 -2.356220E-10
       307  13 -8.963289E+05 -1.530641E+05 -3.618364E+04 -3.588183E+05 -3.231238E-09 -2.780947E-09
       307  14 -8.992159E+05 -1.393583E+05 -1.865089E+04 -3.548213E+05 -3.466140E-10 -4.204595E-10
       307  15 -8.951709E+05 -1.449602E+05 -1.034414E+04 -3.618524E+05 -9.991668E-11  6.634716E-10
       307  16 -5.387857E+05 -1.731741E+04  5.010943E+04 -2.577878E+05 -1.556551E-08 -7.681869E-09
       307  17 -5.766679E+05 -1.881562E+04  5.855198E+04 -2.655860E+05 -6.005638E-09 -3.057918E-09
       307  18 -6.075093E+05 -3.951223E+04  5.819528E+04 -2.844114E+05  2.150319E-09  1.637000E-09
       307  19 -1.253742E+06 -2.887993E+05 -1.224834E+05 -4.597949E+05  3.246814E+04 -9.960944E+03
       307  20 -1.221659E+06 -2.598927E+05 -9.585988E+04 -4.440142E+05  2.191649E+04 -1.222074E+04
       307  21 -1.182750E+06 -2.504026E+05 -7.888891E+04 -4.392611E+05  1.113977E+04 -1.388090E+04
       307  22 -8.963276E+05 -1.530637E+05 -3.618135E+04 -3.588185E+05  3.354755E+04 -9.554574E+03
       307  23 -8.992152E+05 -1.393580E+05 -1.864959E+04 -3.548215E+05  2.352869E+04 -1.161488E+04
       307  24 -8.951706E+05 -1.449600E+05 -1.034349E+04 -3.618526E+05  1.328546E+04 -1.307539E+04
       307  25 -5.387844E+05 -1.731700E+04  5.011184E+04 -2.577881E+05  3.462765E+04 -9.147937E+03
       307  26 -5.766672E+05 -1.881532E+04  5.855339E+04 -2.655862E+05  2.514180E+04 -1.100868E+04
       307  27 -6.075090E+05 -3.951200E+04  5.819601E+04 -2.844116E+05  1.543222E+04 -1.226949E+04
       308   1 -1.150936E+06 -2.408362E+05 -6.894614E+04 -4.315916E+05 -9.338875E+03  1.300477E+04
       308   2 -1.119433E+06 -2.209915E+05 -5.664569E+04 -4.150427E+05 -6.339024E+03  1.159649E+04
       308   3 -1.077076E+06 -2.129517E+05 -4.608227E+04 -4.114027E+05 -3.327051E+03  1.015408E+04
       308   4 -8.946354E+05 -1.457131E+05 -7.859025E+03 -3.613603E+05 -1.131835E+04  1.226185E+04
       308   5 -9.000320E+05 -1.396026E+05 -4.274374E+03 -3.549835E+05 -8.348213E+03  1.084276E+04
       308   6 -8.945703E+05 -1.452909E+05 -2.402589E+03 -3.615160E+05 -5.366086E+03  9.389497E+03
       308   7 -6.382711E+05 -5.058591E+04  5.322301E+04 -2.911029E+05 -1.329870E+04  1.151861E+04
       308   8 -6.805837E+05 -5.821031E+04  4.809348E+04 -2.949049E+05 -1.035818E+04  1.008874E+04
       308   9 -7.120309E+05 -7.762736E+04  4.127495E+04 -3.116157E+05 -7.405786E+03  8.624665E+03
       308  10 -1.150936E+06 -2.408364E+05 -6.894662E+04 -4.315915E+05  1.338373E-09  8.020929E-10
       308  11 -1.119433E+06 -2.209917E+05 -5.664601E+04 -4.150426E+05  4.923655E-10  3.385731E-10
       308  12 -1.077076E+06 -2.129519E+05 -4.608248E+04 -4.114027E+05  2.791545E-11  1.407870E-10
       308  13 -8.946356E+05 -1.457133E+05 -7.859548E+03 -3.613602E+05 -2.448600E-10  5.727358E-10
       308  14 -9.000321E+05 -1.396027E+05 -4.274726E+03 -3.549834E+05  9.057310E-11  1.929599E-11
       308  15 -8.945703E+05 -1.452910E+05 -2.402809E+03 -3.615160E+05 -2.861008E-10 -3.016089E-11
       308  16 -6.382713E+05 -5.058610E+04  5.322243E+04 -2.911028E+05 -1.415290E-09  2.302546E-10
       308  17 -6.805838E+05 -5.821045E+04  4.809309E+04 -2.949049E+05 -6.587093E-10 -1.878737E-10
       308  18 -7.120309E+05 -7.762745E+04  4.127471E+04 -3.116157E+05 -5.988999E-11  1.133472E-10
       308  19 -1.150936E+06 -2.408362E+05 -6.894614E+04 -4.315916E+05  9.338875E+03 -1.300477E+04
       308  20 -1.119433E+06 -2.209915E+05 -5.664569E+04 -4.150427E+05  6.339024E+03 -1.159649E+04
       308  21 -1.077076E+06 -2.129517E+05 -4.608227E+04 -4.114027E+05  3.327051E+03 -1.015408E+04
       308  22 -8.946354E+05 -1.457131E+05 -7.859025E+03 -3.613603E+05  1.131835E+04 -1.226185E+04
       308  23 -9.000320E+05 -1.396026E+05 -4.274374E+03 -3.549835E+05  8.348213E+03 -1.084276E+04
       308  24 -8.945703E+05 -1.452909E+05 -2.402589E+03 -3.615160E+05  5.366086E+03 -9.389497E+03
       308  25 -6.382711E+05 -5.058591E+04  5.322301E+04 -2.911029E+05  1.329870E+04 -1.151861E+04
       308  26 -6.805837E+05 -5.821031E+04  4.809348E+04 -2.949049E+05  1.035818E+04 -1.008874E+04
       308  27 -7.120309E+05 -7.762736E+04  4.127495E+04 -3.116157E+05  7.405786E+03 -8.624665E+03
       309   1 -1.046340E+06 -2.016497E+05 -3.796085E+04 -4.030796E+05 -2.483773E+03  8.962048E+03
       309   2 -1.014760E+06 -1.821515E+05 -2.848373E+04 -3.863607E+05 -1.067867E+03  6.902713E+03
       309   3 -9.718838E+05 -1.740664E+05 -1.943320E+04 -3.826990E+05  3.496000E+02  4.838054E+03
       309   4 -8.944890E+05 -1.453383E+05 -1.843956E+03 -3.614977E+05 -4.519982E+03  8.198681E+03
       309   5 -9.001342E+05 -1.396225E+05 -1.124299E+03 -3.549721E+05 -3.108703E+03  6.137786E+03
       309   6 -8.944833E+05 -1.453184E+05 -8.273928E+02 -3.615039E+05 -1.695904E+03  4.071562E+03
       309   7 -7.426146E+05 -8.902540E+04  3.427129E+04 -3.199065E+05 -6.556733E+03  7.435110E+03
       309   8 -7.854952E+05 -9.709258E+04  2.623412E+04 -3.235783E+05 -5.149944E+03  5.372707E+03
       309   9 -8.170773E+05 -1.165702E+05  1.777788E+04 -3.403065E+05 -3.741675E+03  3.304970E+03
       309  10 -1.046341E+06 -2.016498E+05 -3.796101E+04 -4.030796E+05  2.753708E-10  1.231692E-10
       309  11 -1.014760E+06 -1.821516E+05 -2.848382E+04 -3.863607E+05  7.451747E-10  5.932868E-11
       309  12 -9.718838E+05 -1.740664E+05 -1.943324E+04 -3.826990E+05  4.106345E-10  4.375067E-10
       309  13 -8.944890E+05 -1.453384E+05 -1.844121E+03 -3.614977E+05  2.903525E-10 -8.732710E-12
       309  14 -9.001342E+05 -1.396225E+05 -1.124388E+03 -3.549721E+05  1.132315E-10 -1.960557E-10
       309  15 -8.944833E+05 -1.453184E+05 -8.274293E+02 -3.615039E+05 -3.042486E-10  1.688044E-10
       309  16 -7.426146E+05 -8.902547E+04  3.427111E+04 -3.199065E+05 -2.750402E-10 -5.647844E-11
       309  17 -7.854953E+05 -9.709261E+04  2.623401E+04 -3.235782E+05 -5.257657E-10 -1.736111E-10
       309  18 -8.170773E+05 -1.165702E+05  1.777783E+04 -3.403065E+05 -1.739102E-10  8.969206E-11
       309  19 -1.046340E+06 -2.016497E+05 -3.796085E+04 -4.030796E+05  2.483773E+03 -8.962048E+03
       309  20 -1.014760E+06 -1.821515E+05 -2.848373E+04 -3.863607E+05  1.067867E+03 -6.902713E+03
       309  21 -9.718838E+05 -1.740664E+05 -1.943320E+04 -3.826990E+05 -3.496000E+02 -4.838054E+03
       309  22 -8.944890E+05 -1.453383E+05 -1.843956E+03 -3.614977E+05  4.519982E+03 -8.198681E+03
       309  23 -9.001342E+05 -1.396225E+05 -1.124299E+03 -3.549721E+05  3.108703E+03 -6.137786E+03
       309  24 -8.944833E+05 -1.453184E+05 -8.273928E+02 -3.615039E+05  1.695904E+03 -4.071562E+03
       309  25 -7.426146E+05 -8.902540E+04  3.427129E+04 -3.199065E+05  6.556733E+03 -7.435110E+03
       309  26 -7.854952E+05 -9.709258E+04  2.623412E+04 -3.235783E+05  5.149944E+03 -5.372707E+03
       309  27 -8.170773E+05 -1.165702E+05  1.777788E+04 -3.403065E+05  3.741675E+03 -3.304970E+03
       310   1 -9.411007E+05 -1.626135E+05 -1.179660E+04 -3.743004E+05  9.835481E+02  3.562269E+03
       310   2 -9.094344E+05 -1.430812E+05 -3.165478E+03 -3.575303E+05  2.307678E+03  1.457937E+03
       310   3 -8.664327E+05 -1.349850E+05  5.109856E+03 -3.538546E+05  3.631585E+03 -6.458270E+02
       310   4 -8.944745E+05 -1.453252E+05 -7.957916E+02 -3.615115E+05 -1.063763E+03  2.795160E+03
       310   5 -9.001416E+05 -1.396111E+05 -9.438213E+02 -3.549623E+05  2.608099E+02  6.909996E+02
       310   6 -8.944755E+05 -1.453335E+05 -1.448181E+03 -3.615083E+05  1.585125E+03 -1.412596E+03
       310   7 -8.478458E+05 -1.280366E+05  1.020495E+04 -3.487216E+05 -3.111253E+03  2.027983E+03
       310   8 -8.908486E+05 -1.361409E+05  1.277854E+03 -3.523942E+05 -1.786098E+03 -7.595299E+01
       310   9 -9.225175E+05 -1.556821E+05 -8.006257E+03 -3.691616E+05 -4.612353E+02 -2.179328E+03
       310  10 -9.411007E+05 -1.626135E+05 -1.179663E+04 -3.743004E+05  5.126313E-10  3.449793E-10
       310  11 -9.094344E+05 -1.430812E+05 -3.165492E+03 -3.575303E+05  3.762407E-11  6.232070E-10
       310  12 -8.664327E+05 -1.349850E+05  5.109830E+03 -3.538546E+05  7.574316E-11  3.891532E-10
       310  13 -8.944745E+05 -1.453252E+05 -7.958084E+02 -3.615115E+05 -1.242554E-10  6.241761E-11
       310  14 -9.001416E+05 -1.396111E+05 -9.438223E+02 -3.549623E+05  2.901945E-10  3.937443E-10
       310  15 -8.944755E+05 -1.453336E+05 -1.448190E+03 -3.615083E+05 -1.422527E-11  9.150811E-11
       310  16 -8.478458E+05 -1.280366E+05  1.020493E+04 -3.487216E+05 -6.681770E-10  1.460554E-11
       310  17 -8.908486E+05 -1.361409E+05  1.277848E+03 -3.523942E+05 -2.183559E-10 -1.581611E-10
       310  18 -9.225175E+05 -1.556821E+05 -8.006266E+03 -3.691616E+05 -6.705548E-11 -4.253858E-10
       310  19 -9.411007E+05 -1.626135E+05 -1.179660E+04 -3.743004E+05 -9.835481E+02 -3.562269E+03
       310  20 -9.094344E+05 -1.430812E+05 -3.165478E+03 -3.575303E+05 -2.307678E+03 -1.457937E+03
       310  21 -8.664327E+05 -1.349850E+05  5.109856E+03 -3.538546E+05 -3.631585E+03  6.458270E+02
       310  22 -8.944745E+05 -1.453252E+05 -7.957916E+02 -3.615115E+05  1.063763E+03 -2.795160E+03
       310  23 -9.001416E+05 -1.396111E+05 -9.438213E+02 -3.549623E+05 -2.608099E+02 -6.909996E+02
       310  24 -8.944755E+05 -1.453335E+05 -1.448181E+03 -3.615083E+05 -1.585125E+03  1.412596E+03
       310  25 -8.478458E+05 -1.280366E+05  1.020495E+04 -3.487216E+05  3.111253E+03 -2.027983E+03
       310  26 -8.908486E+05 -1.361409E+05  1.277854E+03 -3.523942E+05  1.786098E+03  7.595299E+01
       310  27 -9.225175E+05 -1.556821E+05 -8.006257E+03 -3.691616E+05  4.612353E+02  2.179328E+03
       311   1 -8.356635E+05 -1.235345E+05  1.230356E+04 -3.455142E+05  4.407334E+03 -1.870753E+03
       311   2 -8.039725E+05 -1.039804E+05  1.966821E+04 -3.286976E+05  6.868244E+03 -3.540696E+03
       311   3 -7.612391E+05 -9.619283E+04  2.573932E+04 -3.249143E+05  9.320938E+03 -5.187557E+03
       311   4 -8.945279E+05 -1.453065E+05 -1.859438E+03 -3.615330E+05  2.356193E+03 -2.639314E+03
       311   5 -9.000700E+05 -1.395785E+05 -3.258922E+03 -3.549577E+05  4.837424E+03 -4.301790E+03
       311   6 -8.945750E+05 -1.456211E+05 -5.968197E+03 -3.614164E+05  7.310344E+03 -5.941218E+03
       311   7 -9.533885E+05 -1.670782E+05 -1.602259E+04 -3.775503E+05  3.052746E+02 -3.407794E+03
       311   8 -9.961582E+05 -1.751758E+05 -2.618671E+04 -3.812141E+05  2.806947E+03 -5.062757E+03
       311   9 -1.027894E+06 -1.950485E+05 -3.767716E+04 -3.979115E+05  5.300210E+03 -6.694707E+03
       311  10 -8.356635E+05 -1.235345E+05  1.230352E+04 -3.455142E+05 -2.287673E-10  2.550934E-10
       311  11 -8.039726E+05 -1.039805E+05  1.966810E+04 -3.286976E+05 -4.034511E-10  2.134299E-10
       311  12 -7.612392E+05 -9.619288E+04  2.573911E+04 -3.249143E+05  5.512170E-10  3.634623E-10
       311  13 -8.945279E+05 -1.453065E+05 -1.859462E+03 -3.615330E+05  2.813129E-10  2.631773E-10
       311  14 -9.000700E+05 -1.395785E+05 -3.259000E+03 -3.549577E+05 -5.694410E-10  1.033441E-10
       311  15 -8.945751E+05 -1.456212E+05 -5.968364E+03 -3.614164E+05 -8.568963E-11 -1.325856E-10
       311  16 -9.533885E+05 -1.670782E+05 -1.602261E+04 -3.775503E+05  2.085871E-10  1.438411E-10
       311  17 -9.961582E+05 -1.751759E+05 -2.618677E+04 -3.812141E+05  9.669241E-11  7.927916E-10
       311  18 -1.027894E+06 -1.950485E+05 -3.767730E+04 -3.979115E+05 -2.801559E-10 -1.688978E-10
       311  19 -8.356635E+05 -1.235345E+05  1.230356E+04 -3.455142E+05 -4.407334E+03  1.870753E+03
       311  20 -8.039725E+05 -1.039804E+05  1.966821E+04 -3.286976E+05 -6.868244E+03  3.540696E+03
       311  21 -7.612391E+05 -9.619283E+04  2.573932E+04 -3.249143E+05 -9.320938E+03  5.187557E+03
       311  22 -8.945279E+05 -1.453065E+05 -1.859438E+03 -3.615330E+05 -2.356193E+03  2.639314E+03
       311  23 -9.000700E+05 -1.395785E+05 -3.258922E+03 -3.549577E+05 -4.837424E+03  4.301790E+03
       311  24 -8.945750E+05 -1.456211E+05 -5.968197E+03 -3.614164E+05 -7.310344E+03  5.941218E+03
       311  25 -9.533885E+05 -1.670782E+05 -1.602259E+04 -3.775503E+05 -3.052746E+02  3.407794E+03
       311  26 -9.961582E+05 -1.751758E+05 -2.618671E+04 -3.812141E+05 -2.806947E+03  5.062757E+03
       311  27 -1.027894E+06 -1.950485E+05 -3.767716E+04 -3.979115E+05 -5.300210E+03  6.694707E+03
       312   1 -7.302396E+05 -8.495140E+04  3.140803E+04 -3.177593E+05  1.106359E+04 -6.087069E+03
       312   2 -6.989184E+05 -6.438313E+04  3.388400E+04 -2.992987E+05  1.864408E+04 -5.703034E+03
       312   3 -6.594325E+05 -6.122606E+04  2.967835E+04 -2.924817E+05  2.605781E+04 -4.871517E+03
       312   4 -8.949753E+05 -1.450564E+05 -7.848921E+03 -3.617969E+05  8.926800E+03 -6.888156E+03
       312   5 -8.994541E+05 -1.393807E+05 -1.413791E+04 -3.548259E+05  1.690658E+04 -6.354778E+03
       312   6 -8.958495E+05 -1.511972E+05 -2.742691E+04 -3.594996E+05  2.471911E+04 -5.374047E+03
       312   7 -1.059684E+06 -2.051598E+05 -4.710780E+04 -4.058239E+05  6.790631E+03 -7.689021E+03
       312   8 -1.099949E+06 -2.143750E+05 -6.216257E+04 -4.103366E+05  1.516968E+04 -7.006287E+03
       312   9 -1.132210E+06 -2.411631E+05 -8.453593E+04 -4.264935E+05  2.338097E+04 -5.876355E+03
       312  10 -7.302398E+05 -8.495148E+04  3.140773E+04 -3.177593E+05  7.087501E-11  8.603716E-11
       312  11 -6.989188E+05 -6.438325E+04  3.388328E+04 -2.992986E+05  1.695099E-10  8.044088E-11
       312  12 -6.594332E+05 -6.122627E+04  2.967703E+04 -2.924816E+05 -2.077875E-10 -1.127951E-10
       312  13 -8.949754E+05 -1.450565E+05 -7.849160E+03 -3.617968E+05  4.106412E-11 -1.375132E-10
       312  14 -8.994544E+05 -1.393808E+05 -1.413852E+04 -3.548258E+05 -2.765184E-10  1.051849E-10
       312  15 -8.958502E+05 -1.511973E+05 -2.742811E+04 -3.594994E+05 -1.375287E-10  1.160839E-11
       312  16 -1.059684E+06 -2.051599E+05 -4.710800E+04 -4.058239E+05 -4.817249E-11 -1.544489E-10
       312  17 -1.099949E+06 -2.143751E+05 -6.216310E+04 -4.103365E+05 -4.211425E-10 -1.930280E-10
       312  18 -1.132210E+06 -2.411633E+05 -8.453702E+04 -4.264934E+05  2.703346E-10  2.360378E-10
       312  19 -7.302396E+05 -8.495140E+04  3.140803E+04 -3.177593E+05 -1.106359E+04  6.087069E+03
       312  20 -6.989184E+05 -6.438313E+04  3.388400E+04 -2.992987E+05 -1.864408E+04  5.703034E+03
       312  21 -6.594325E+05 -6.122606E+04  2.967835E+04 -2.924817E+05 -2.605781E+04  4.871517E+03
       312  22 -8.949753E+05 -1.450564E+05 -7.848921E+03 -3.617969E+05 -8.926800E+03  6.888156E+03
       312  23 -8.994541E+05 -1.393807E+05 -1.413791E+04 -3.548259E+05 -1.690658E+04  6.354778E+03
       312  24 -8.958495E+05 -1.511972E+05 -2.742691E+04 -3.594996E+05 -2.471911E+04  5.374047E+03
       312  25 -1.059684E+06 -2.051598E+05 -4.710780E+04 -4.058239E+05 -6.790631E+03  7.689021E+03
       312  26 -1.099949E+06 -2.143750E+05 -6.216257E+04 -4.103366E+05 -1.516968E+04  7.006287E+03
       312  27 -1.132210E+06 -2.411631E+05 -8.453593E+04 -4.264935E+05 -2.338097E+04  5.876355E+03
       313   1 -6.206371E+05 -5.243331E+04  2.938446E+04 -3.048786E+05  3.419063E+04 -4.340283E+03
       313   2 -6.000044E+05 -1.186565E+04  1.267945E+04 -2.544605E+05  5.819474E+04  4.900403E+03
       313   3 -6.101299E+05 -8.457156E+04 -5.000876E+04 -1.899000E+05  7.849684E+04  2.401352E+04
       313   4 -9.003800E+05 -1.409846E+05 -3.469329E+04 -3.657320E+05  2.993472E+04 -5.936135E+03
       313   5 -8.918034E+05 -1.378689E+05 -6.143327E+04 -3.523997E+05  6.278891E+04  6.621509E+03
       313   6 -9.157639E+05 -2.498197E+05 -1.411923E+05 -3.249230E+05  9.193900E+04  2.905028E+04
       313   7 -1.180047E+06 -2.295359E+05 -9.877658E+04 -4.265631E+05  2.568086E+04 -7.531482E+03
       313   8 -1.183516E+06 -2.638574E+05 -1.355525E+05 -4.502938E+05  6.738073E+04  8.341402E+03
       313   9 -1.221296E+06 -4.150258E+05 -2.323826E+05 -4.598744E+05  1.053738E+05  3.408151E+04
       313  10 -6.206384E+05 -5.243365E+04  2.938222E+04 -3.048785E+05 -4.855869E-10 -2.483891E-11
       313  11 -6.000081E+05 -1.186659E+04  1.267303E+04 -2.544607E+05  4.426296E-11  2.485648E-10
       313  12 -6.101367E+05 -8.457383E+04 -5.002143E+04 -1.899016E+05 -9.691599E-11  1.321957E-10
       313  13 -9.003810E+05 -1.409849E+05 -3.469505E+04 -3.657318E+05 -1.417336E-10 -4.984923E-11
       313  14 -8.918077E+05 -1.378700E+05 -6.144077E+04 -3.524000E+05  4.089946E-10  8.638559E-12
       313  15 -9.157732E+05 -2.498229E+05 -1.412098E+05 -3.249252E+05 -1.638098E-10  4.124396E-11
       313  16 -1.180048E+06 -2.295361E+05 -9.877793E+04 -4.265630E+05  3.554635E-10  4.760899E-11
       313  17 -1.183521E+06 -2.638587E+05 -1.355612E+05 -4.502943E+05 -1.917100E-10 -7.621873E-11
       313  18 -1.221309E+06 -4.150301E+05 -2.324057E+05 -4.598773E+05 -6.422681E-11 -1.185894E-10
       313  19 -6.206371E+05 -5.243331E+04  2.938446E+04 -3.048786E+05 -3.419063E+04  4.340283E+03
       313  20 -6.000044E+05 -1.186565E+04  1.267945E+04 -2.544605E+05 -5.819474E+04 -4.900403E+03
       313  21 -6.101299E+05 -8.457156E+04 -5.000876E+04 -1.899000E+05 -7.849684E+04 -2.401352E+04
       313  22 -9.003800E+05 -1.409846E+05 -3.469329E+04 -3.657320E+05 -2.993472E+04  5.936135E+03
       313  23 -8.918034E+05 -1.378689E+05 -6.143327E+04 -3.523997E+05 -6.278891E+04 -6.621509E+03
       313  24 -9.157639E+05 -2.498197E+05 -1.411923E+05 -3.249230E+05 -9.193900E+04 -2.905028E+04
       313  25 -1.180047E+06 -2.295359E+05 -9.877658E+04 -4.265631E+05 -2.568086E+04  7.531482E+03
       313  26 -1.183516E+06 -2.638574E+05 -1.355525E+05 -4.502938E+05 -6.738073E+04 -8.341402E+03
       313  27 -1.221296E+06 -4.150258E+05 -2.323826E+05 -4.598744E+05 -1.053738E+05 -3.408151E+04
       314   1 -8.226990E+04 -6.747183E+03  4.988150E+04  5.786587E+04  1.683453E+05  1.417977E+04
       314   2 -1.244371E+04 -2.300174E+05 -7.131286E+04 -3.091321E+03  1.211317E+05  4.404843E+04
       314   3  1.221906E+05 -2.203028E+05 -1.034341E+05 -1.030996E+05  7.393701E+04  4.602918E+04
       314   4  9.782704E+05  2.561440E+05  3.060879E+05 -6.686779E+04  2.107157E+05  1.418757E+04
       314   5  9.436885E+05  3.320950E+03  1.401088E+05 -4.723956E+04  1.366150E+05  4.404622E+04
       314   6  9.784459E+05 -1.207404E+04  8.175191E+04 -6.665318E+04  6.254509E+04  4.602401E+04
       314   7  2.039876E+06  5.190129E+05  5.622289E+05 -1.918154E+05  2.531581E+05  1.417837E+04
       314   8  1.900679E+06  2.366053E+05  3.514760E+05 -9.145670E+04  1.521218E+05  4.404183E+04
       314   9  1.835392E+06  1.961114E+05  2.668957E+05 -3.015590E+04  5.113764E+04  4.601751E+04
       314  10 -8.230038E+04 -6.755007E+03  4.982786E+04  5.786395E+04 -3.983720E-10  3.623958E-10
       314  11 -1.245999E+04 -2.300234E+05 -7.134408E+04 -3.095619E+03 -6.563518E-10 -2.726470E-10
       314  12  1.221841E+05 -2.203065E+05 -1.034484E+05 -1.031023E+05 -2.264686E-10 -1.806931E-11
       314  13  9.782227E+05  2.561319E+05  3.060042E+05 -6.687020E+04  2.439436E-10  1.697782E-10
       314  14  9.436680E+05  3.313865E+03  1.400701E+05 -4.724441E+04 -1.226395E-09 -9.535572E-10
       314  15  9.784412E+05 -1.207736E+04  8.174059E+04 -6.665549E+04  9.389046E-11 -1.356027E-11
       314  16  2.039807E+06  5.189955E+05  5.621085E+05 -1.918183E+05  7.133447E-10 -6.590938E-11
       314  17  1.900653E+06  2.365970E+05  3.514290E+05 -9.146209E+04  1.832289E-10 -6.347450E-11
       314  18  1.835389E+06  1.961084E+05  2.668869E+05 -3.015779E+04 -1.277236E-10 -2.875499E-10
       314  19 -8.226990E+04 -6.747183E+03  4.988150E+04  5.786587E+04 -1.683453E+05 -1.417977E+04
       314  20 -1.244371E+04 -2.300174E+05 -7.131286E+04 -3.091321E+03 -1.211317E+05 -4.404843E+04
       314  21  1.221906E+05 -2.203028E+05 -1.034341E+05 -1.030996E+05 -7.393701E+04 -4.602918E+04
       314  22  9.782704E+05  2.561440E+05  3.060879E+05 -6.686779E+04 -2.107157E+05 -1.418757E+04
       314  23  9.436885E+05  3.320950E+03  1.401088E+05 -4.723956E+04 -1.366150E+05 -4.404622E+04
       314  24  9.784459E+05 -1.207404E+04  8.175191E+04 -6.665318E+04 -6.254509E+04 -4.602401E+04
       314  25  2.039876E+06  5.190129E+05  5.622289E+05 -1.918154E+05 -2.531581E+05 -1.417837E+04
       314  26  1.900679E+06  2.366053E+05  3.514760E+05 -9.145670E+04 -1.521218E+05 -4.404183E+04
       314  27  1.835392E+06  1.961114E+05  2.668957E+05 -3.015590E+04 -5.113764E+04 -4.601751E+04
       315   1  1.889874E+05 -1.757438E+05 -1.037127E+05 -6.251663E+04  5.450301E+04  4.036555E+04
       315   2  2.869922E+05 -1.643661E+05 -1.107723E+05 -4.608816E+04  3.807895E+04  3.608925E+04
       315   3  3.904712E+05 -1.403345E+05 -1.039385E+05 -6.932016E+04  2.164878E+04  3.056658E+04
       315   4  9.643046E+05  1.291922E+04  6.477163E+04 -6.684402E+04  5.104191E+04  4.036051E+04
       315   5  9.614975E+05 -3.635728E+02  3.518336E+04 -4.701485E+04  3.340057E+04  3.608595E+04
       315   6  9.643589E+05 -7.898098E+02  2.032000E+04 -6.684296E+04  1.575575E+04  3.056552E+04
       315   7  1.740185E+06  2.015425E+05  2.332201E+05 -7.117690E+04  4.757652E+04  4.035552E+04
       315   8  1.636429E+06  1.636090E+05  1.811122E+05 -4.794255E+04  2.871716E+04  3.608267E+04
       315   9  1.538555E+06  1.387332E+05  1.445591E+05 -6.436340E+04  9.857348E+03  3.056440E+04
       315  10  1.889837E+05 -1.757463E+05 -1.037213E+05 -6.251840E+04 -1.198479E-09 -4.112045E-10
       315  11  2.869903E+05 -1.643679E+05 -1.107775E+05 -4.608927E+04 -6.033229E-11 -2.006404E-10
       315  12  3.904704E+05 -1.403356E+05 -1.039411E+05 -6.932070E+04  1.155921E-10  7.928943E-12
       315  13  9.643013E+05  1.291677E+04  6.476368E+04 -6.684568E+04 -2.102775E-10 -3.230102E-10
       315  14  9.614959E+05 -3.652708E+02  3.517882E+04 -4.701582E+04 -9.336603E-11 -4.278000E-10
       315  15  9.643584E+05 -7.908801E+02  2.031778E+04 -6.684334E+04  4.100450E-10 -3.017314E-11
       315  16  1.740182E+06  2.015402E+05  2.332127E+05 -7.117845E+04  1.240445E-09 -1.806341E-10
       315  17  1.636428E+06  1.636074E+05  1.811082E+05 -4.794338E+04 -3.573787E-10 -5.257041E-10
       315  18  1.538555E+06  1.387322E+05  1.445571E+05 -6.436364E+04  9.592609E-11 -1.804195E-10
       315  19  1.889874E+05 -1.757438E+05 -1.037127E+05 -6.251663E+04 -5.450301E+04 -4.036555E+04
       315  20  2.869922E+05 -1.643661E+05 -1.107723E+05 -4.608816E+04 -3.807895E+04 -3.608925E+04
       315  21  3.904712E+05 -1.403345E+05 -1.039385E+05 -6.932016E+04 -2.164878E+04 -3.056658E+04
       315  22  9.643046E+05  1.291922E+04  6.477163E+04 -6.684402E+04 -5.104191E+04 -4.036051E+04
       315  23  9.614975E+05 -3.635728E+02  3.518336E+04 -4.701485E+04 -3.340057E+04 -3.608595E+04
       315  24  9.643589E+05 -7.898098E+02  2.032000E+04 -6.684296E+04 -1.575575E+04 -3.056552E+04
       315  25  1.740185E+06  2.015425E+05  2.332201E+05 -7.117690E+04 -4.757652E+04 -4.035552E+04
       315  26  1.636429E+06  1.636090E+05  1.811122E+05 -4.794255E+04 -2.871716E+04 -3.608267E+04
       315  27  1.538555E+06  1.387332E+05  1.445591E+05 -6.436340E+04 -9.857348E+03 -3.056440E+04
       316   1  4.690368E+05 -1.195828E+05 -9.098954E+04 -6.702752E+04  1.811229E+04  2.705247E+04
       316   2  5.686596E+05 -9.595017E+04 -7.629997E+04 -4.727703E+04  1.375897E+04  2.127431E+04
       316   3  6.690668E+05 -7.158694E+04 -5.858935E+04 -6.696027E+04  9.402113E+03  1.544950E+04
       316   4  9.632911E+05  5.020621E+02  1.556562E+04 -6.679327E+04  1.258977E+04  2.705230E+04
       316   5  9.629139E+05 -1.295256E+02  8.880505E+03 -4.707733E+04  8.187976E+03  2.127535E+04
       316   6  9.633173E+05 -2.259486E+01  5.247756E+03 -6.679362E+04  3.783330E+03  1.545181E+04
       316   7  1.457775E+06  1.205709E+05  1.221065E+05 -6.655880E+04  7.062914E+03  2.705213E+04
       316   8  1.357314E+06  9.568091E+04  9.405191E+04 -4.687749E+04  2.613494E+03  2.127639E+04
       316   9  1.257649E+06  7.153604E+04  6.907982E+04 -6.662688E+04 -1.838078E+03  1.545412E+04
       316  10  4.690362E+05 -1.195837E+05 -9.099153E+04 -6.702791E+04  6.164726E-11  1.196714E-10
       316  11  5.686593E+05 -9.595071E+04 -7.630118E+04 -4.727727E+04  2.897843E-10  4.283809E-10
       316  12  6.690666E+05 -7.158722E+04 -5.858996E+04 -6.696039E+04  1.494889E-10  1.284192E-10
       316  13  9.632908E+05  5.012334E+02  1.556394E+04 -6.679354E+04  2.356980E-10  2.707905E-10
       316  14  9.629137E+05 -1.300299E+02  8.879528E+03 -4.707748E+04 -2.310482E-10  3.642231E-10
       316  15  9.633173E+05 -2.285520E+01  5.247280E+03 -6.679367E+04  6.349016E-10 -2.089574E-11
       316  16  1.457774E+06  1.205701E+05  1.221050E+05 -6.655896E+04  2.752592E-10  3.299303E-10
       316  17  1.357314E+06  9.568042E+04  9.405105E+04 -4.687754E+04 -8.303950E-10  6.201232E-10
       316  18  1.257649E+06  7.153579E+04  6.907936E+04 -6.662685E+04 -9.176617E-10  4.851560E-10
       316  19  4.690368E+05 -1.195828E+05 -9.098954E+04 -6.702752E+04 -1.811229E+04 -2.705247E+04
       316  20  5.686596E+05 -9.595017E+04 -7.629997E+04 -4.727703E+04 -1.375897E+04 -2.127431E+04
       316  21  6.690668E+05 -7.158694E+04 -5.858935E+04 -6.696027E+04 -9.402113E+03 -1.544950E+04
       316  22  9.632911E+05  5.020621E+02  1.556562E+04 -6.679327E+04 -1.258977E+04 -2.705230E+04
       316  23  9.629139E+05 -1.295256E+02  8.880505E+03 -4.707733E+04 -8.187976E+03 -2.127535E+04
       316  24  9.633173E+05 -2.259486E+01  5.247756E+03 -6.679362E+04 -3.783330E+03 -1.545181E+04
       316  25  1.457775E+06  1.205709E+05  1.221065E+05 -6.655880E+04 -7.062914E+03 -2.705213E+04
       316  26  1.357314E+06  9.568091E+04  9.405191E+04 -4.687749E+04 -2.613494E+03 -2.127639E+04
       316  27  1.257649E+06  7.153604E+04  6.907982E+04 -6.662688E+04  1.838078E+03 -1.545412E+04
       317   1  7.481322E+05 -5.216913E+04 -4.208189E+04 -6.682722E+04  8.533750E+03  1.205046E+04
       317   2  8.477377E+05 -2.803143E+04 -2.226580E+04 -4.715012E+04  7.218744E+03  6.226264E+03
       317   3  9.475024E+05 -3.813290E+03 -1.585114E+03 -6.676827E+04  5.902712E+03  4.026233E+02
       317   4  9.631862E+05  3.629436E+01  4.095842E+03 -6.676302E+04  2.936898E+03  1.205325E+04
       317   5  9.631151E+05  4.926299E+00  2.655298E+03 -4.711563E+04  1.621617E+03  6.229393E+03
       317   6  9.631935E+05  5.452855E+01  2.079495E+03 -6.676305E+04  3.055177E+02  4.061297E+02
       317   7  1.178284E+06  5.223871E+04  5.027099E+04 -6.669880E+04 -2.661864E+03  1.205603E+04
       317   8  1.078505E+06  2.804042E+04  2.757573E+04 -4.708114E+04 -3.976534E+03  6.232522E+03
       317   9  9.788850E+05  3.922346E+03  5.744205E+03 -6.675784E+04 -5.291817E+03  4.096360E+02
       317  10  7.481321E+05 -5.216931E+04 -4.208230E+04 -6.682730E+04 -6.211720E-10 -6.554827E-11
       317  11  8.477377E+05 -2.803148E+04 -2.226597E+04 -4.715015E+04 -1.604863E-10  4.548358E-10
       317  12  9.475023E+05 -3.813299E+03 -1.585179E+03 -6.676827E+04 -4.174067E-10  4.621172E-10
       317  13  9.631861E+05  3.613596E+01  4.095553E+03 -6.676305E+04  1.656520E-10  3.088067E-10
       317  14  9.631151E+05  4.883905E+00  2.655220E+03 -4.711564E+04 -1.102469E-10 -5.923284E-10
       317  15  9.631935E+05  5.452835E+01  2.079495E+03 -6.676305E+04 -8.645619E-11 -3.390501E-10
       317  16  1.178284E+06  5.223855E+04  5.027070E+04 -6.669877E+04  6.180875E-10 -8.510062E-10
       317  17  1.078505E+06  2.804038E+04  2.757562E+04 -4.708112E+04 -8.963587E-10 -4.661958E-10
       317  18  9.788850E+05  3.922339E+03  5.744153E+03 -6.675784E+04  1.030353E-09 -6.453149E-10
       317  19  7.481322E+05 -5.216913E+04 -4.208189E+04 -6.682722E+04 -8.533750E+03 -1.205046E+04
       317  20  8.477377E+05 -2.803143E+04 -2.226580E+04 -4.715012E+04 -7.218744E+03 -6.226264E+03
       317  21  9.475024E+05 -3.813290E+03 -1.585114E+03 -6.676827E+04 -5.902712E+03 -4.026233E+02
       317  22  9.631862E+05  3.629436E+01  4.095842E+03 -6.676302E+04 -2.936898E+03 -1.205325E+04
       317  23  9.631151E+05  4.926299E+00  2.655298E+03 -4.711563E+04 -1.621617E+03 -6.229393E+03
       317  24  9.631935E+05  5.452855E+01  2.079495E+03 -6.676305E+04 -3.055177E+02 -4.061297E+02
       317  25  1.178284E+06  5.223871E+04  5.027099E+04 -6.669880E+04  2.661864E+03 -1.205603E+04
       317  26  1.078505E+06  2.804042E+04  2.757573E+04 -4.708114E+04  3.976534E+03 -6.232522E+03
       317  27  9.788850E+05  3.922346E+03  5.744205E+03 -6.675784E+04  5.291817E+03 -4.096360E+02
       318   1  1.026590E+06  1.551337E+04  1.600665E+04 -6.679482E+04  5.527186E+03 -2.986521E+03
       318   2  1.126250E+06  3.963858E+04  3.766471E+04 -4.711138E+04  4.322376E+03 -8.810527E+03
       318   3  1.226059E+06  6.383718E+04  6.011397E+04 -6.673594E+04  3.118554E+03 -1.463640E+04
       318   4  9.631905E+05  5.408665E+01  2.038890E+03 -6.676612E+04 -7.100277E+01 -2.983060E+03
       318   5  9.631156E+05  3.891127E+00  2.434069E+03 -4.711180E+04 -1.277721E+03 -8.807593E+03
       318   6  9.631805E+05  2.841880E+01  3.622616E+03 -6.676610E+04 -2.483262E+03 -1.463395E+04
       318   7  8.997951E+05 -1.540545E+04 -1.192900E+04 -6.673742E+04 -5.668627E+03 -2.979599E+03
       318   8  8.000056E+05 -3.963253E+04 -3.279803E+04 -4.711221E+04 -6.876368E+03 -8.804658E+03
       318   9  7.003673E+05 -6.378485E+04 -5.287266E+04 -6.679624E+04 -8.082743E+03 -1.463151E+04
       318  10  1.026590E+06  1.551336E+04  1.600658E+04 -6.679481E+04 -4.033298E-10 -7.281972E-11
       318  11  1.126250E+06  3.963849E+04  3.766453E+04 -4.711135E+04  4.254486E-10 -4.369175E-10
       318  12  1.226058E+06  6.383695E+04  6.011354E+04 -6.673590E+04  7.196088E-10 -4.170892E-10
       318  13  9.631905E+05  5.407709E+01  2.038873E+03 -6.676612E+04 -4.467599E-11  6.726846E-10
       318  14  9.631155E+05  3.807350E+00  2.433920E+03 -4.711181E+04 -1.450306E-09  4.391707E-10
       318  15  9.631804E+05  2.818708E+01  3.622202E+03 -6.676613E+04  2.791928E-10 -9.700168E-10
       318  16  8.997950E+05 -1.540547E+04 -1.192908E+04 -6.673744E+04  4.593909E-10  1.703135E-10
       318  17  8.000056E+05 -3.963263E+04 -3.279826E+04 -4.711225E+04 -6.361279E-10  4.737365E-10
       318  18  7.003672E+05 -6.378510E+04 -5.287319E+04 -6.679633E+04 -6.610054E-10 -3.355672E-10
       318  19  1.026590E+06  1.551337E+04  1.600665E+04 -6.679482E+04 -5.527186E+03  2.986521E+03
       318  20  1.126250E+06  3.963858E+04  3.766471E+04 -4.711138E+04 -4.322376E+03  8.810527E+03
       318  21  1.226059E+06  6.383718E+04  6.011397E+04 -6.673594E+04 -3.118554E+03  1.463640E+04
       318  22  9.631905E+05  5.408665E+01  2.038890E+03 -6.676612E+04  7.100277E+01  2.983060E+03
       318  23  9.631156E+05  3.891127E+00  2.434069E+03 -4.711180E+04  1.277721E+03  8.807593E+03
       318  24  9.631805E+05  2.841880E+01  3.622616E+03 -6.676610E+04  2.483262E+03  1.463395E+04
       318  25  8.997951E+05 -1.540545E+04 -1.192900E+04 -6.673742E+04  5.668627E+03  2.979599E+03
       318  26  8.000056E+05 -3.963253E+04 -3.279803E+04 -4.711221E+04  6.876368E+03  8.804658E+03
       318  27  7.003673E+05 -6.378485E+04 -5.287266E+04 -6.679624E+04  8.082743E+03  1.463151E+04
       319   1  1.305463E+06  8.315369E+04  7.876112E+04 -6.667979E+04  2.397955E+03 -1.803692E+04
       319   2  1.405270E+06  1.073266E+05  1.032370E+05 -4.690167E+04 -1.477300E+03 -2.386388E+04
       319   3  1.505794E+06  1.321471E+05  1.304010E+05 -6.658574E+04 -5.350089E+03 -2.964302E+04
       319   4  9.632940E+05 -2.398694E+01  4.601374E+03 -6.680065E+04 -3.228461E+03 -1.803505E+04
       319   5  9.629300E+05 -1.264226E+02  7.716486E+03 -4.706856E+04 -7.055722E+03 -2.386342E+04
       319   6  9.632653E+05  4.111896E+02  1.348802E+04 -6.680038E+04 -1.087991E+04 -2.964393E+04
       319   7  6.212349E+05 -8.320938E+04 -6.956521E+04 -6.692142E+04 -8.851822E+03 -1.803318E+04
       319   8  5.207739E+05 -1.075923E+05 -8.781543E+04 -4.723531E+04 -1.263023E+04 -2.386297E+04
       319   9  4.210126E+05 -1.313441E+05 -1.034422E+05 -6.701480E+04 -1.640497E+04 -2.964484E+04
       319  10  1.305463E+06  8.315334E+04  7.876050E+04 -6.667976E+04 -9.551404E-10  3.524642E-10
       319  11  1.405269E+06  1.073260E+05  1.032359E+05 -4.690170E+04  1.874794E-11  1.866492E-10
       319  12  1.505794E+06  1.321462E+05  1.303993E+05 -6.658587E+04 -7.540720E-10  5.363424E-10
       319  13  9.632939E+05 -2.433918E+01  4.600743E+03 -6.680070E+04 -2.587093E-10 -5.219347E-10
       319  14  9.629298E+05 -1.270477E+02  7.715322E+03 -4.706870E+04  1.178887E-09 -2.803638E-10
       319  15  9.632650E+05  4.102138E+02  1.348614E+04 -6.680064E+04 -1.511102E-10  2.082669E-10
       319  16  6.212347E+05 -8.320975E+04 -6.956597E+04 -6.692155E+04  1.724111E-10  1.115041E-10
       319  17  5.207735E+05 -1.075929E+05 -8.781680E+04 -4.723555E+04 -2.464497E-10 -9.223287E-11
       319  18  4.210121E+05 -1.313451E+05 -1.034443E+05 -6.701519E+04  4.083675E-10 -2.180009E-10
       319  19  1.305463E+06  8.315369E+04  7.876112E+04 -6.667979E+04 -2.397955E+03  1.803692E+04
       319  20  1.405270E+06  1.073266E+05  1.032370E+05 -4.690167E+04  1.477300E+03  2.386388E+04
       319  21  1.505794E+06  1.321471E+05  1.304010E+05 -6.658574E+04  5.350089E+03  2.964302E+04
       319  22  9.632940E+05 -2.398694E+01  4.601374E+03 -6.680065E+04  3.228461E+03  1.803505E+04
       319  23  9.629300E+05 -1.264226E+02  7.716486E+03 -4.706856E+04  7.055722E+03  2.386342E+04
       319  24  9.632653E+05  4.111896E+02  1.348802E+04 -6.680038E+04  1.087991E+04  2.964393E+04
       319  25  6.212349E+05 -8.320938E+04 -6.956521E+04 -6.692142E+04  8.851822E+03  1.803318E+04
       319  26  5.207739E+05 -1.075923E+05 -8.781543E+04 -4.723531E+04  1.263023E+04  2.386297E+04
       319  27  4.210126E+05 -1.313441E+05 -1.034422E+05 -6.701480E+04  1.640497E+04  2.964484E+04
       320   1  1.586539E+06  1.505061E+05  1.522296E+05 -6.468676E+04 -7.703322E+03 -3.316435E+04
       320   2  1.684933E+06  1.753526E+05  1.868122E+05 -4.773310E+04 -2.424000E+04 -3.867654E+04
       320   3  1.788505E+06  2.115327E+05  2.350151E+05 -7.050228E+04 -4.077532E+04 -4.288779E+04
       320   4  9.641914E+05 -7.087114E+02  1.759854E+04 -6.685785E+04 -1.362210E+04 -3.316634E+04
       320   5  9.616849E+05 -3.515914E+02  3.044722E+04 -4.699628E+04 -2.889150E+04 -3.868069E+04
       320   6  9.641358E+05  1.112856E+04  5.604952E+04 -6.685995E+04 -4.415689E+04 -4.289353E+04
       320   7  3.422066E+05 -1.519490E+05 -1.170553E+05 -6.902671E+04 -1.953504E+04 -3.316828E+04
       320   8  2.389270E+05 -1.760902E+05 -1.259486E+05 -4.626033E+04 -3.353764E+04 -3.868485E+04
       320   9  1.404022E+05 -1.893204E+05 -1.229565E+05 -6.322253E+04 -4.753402E+04 -4.289931E+04
       320  10  1.586539E+06  1.505049E+05  1.522274E+05 -6.468697E+04  4.837773E-10  3.262141E-10
       320  11  1.684932E+06  1.753508E+05  1.868083E+05 -4.773385E+04 -1.685064E-09 -1.670298E-10
       320  12  1.788503E+06  2.115303E+05  2.350085E+05 -7.050369E+04 -7.249272E-10 -7.205208E-10
       320  13  9.641909E+05 -7.099429E+02  1.759612E+04 -6.685821E+04 -5.555429E-10 -4.586453E-11
       320  14  9.616836E+05 -3.534225E+02  3.044284E+04 -4.699718E+04 -7.816429E-10 -1.626944E-11
       320  15  9.641333E+05  1.112606E+04  5.604240E+04 -6.686147E+04 -7.439313E-10 -3.535360E-10
       320  16  3.422059E+05 -1.519503E+05 -1.170581E+05 -6.902723E+04 -3.077345E-10 -2.786235E-10
       320  17  2.389254E+05 -1.760921E+05 -1.259536E+05 -4.626138E+04 -4.560834E-10 -8.125353E-11
       320  18  1.403993E+05 -1.893230E+05 -1.229643E+05 -6.322417E+04 -3.434248E-10  3.608861E-10
       320  19  1.586539E+06  1.505061E+05  1.522296E+05 -6.468676E+04  7.703322E+03  3.316435E+04
       320  20  1.684933E+06  1.753526E+05  1.868122E+05 -4.773310E+04  2.424000E+04  3.867654E+04
       320  21  1.788505E+06  2.115327E+05  2.350151E+05 -7.050228E+04  4.077532E+04  4.288779E+04
       320  22  9.641914E+05 -7.087114E+02  1.759854E+04 -6.685785E+04  1.362210E+04  3.316634E+04
       320  23  9.616849E+05 -3.515914E+02  3.044722E+04 -4.699628E+04  2.889150E+04  3.868069E+04
       320  24  9.641358E+05  1.112856E+04  5.604952E+04 -6.685995E+04  4.415689E+04  4.289353E+04
       320  25  3.422066E+05 -1.519490E+05 -1.170553E+05 -6.902671E+04  1.953504E+04  3.316828E+04
       320  26  2.389270E+05 -1.760902E+05 -1.259486E+05 -4.626033E+04  3.353764E+04  3.868485E+04
       320  27  1.404022E+05 -1.893204E+05 -1.229565E+05 -6.322253E+04  4.753402E+04  4.289931E+04
       321   1  1.882005E+06  2.095005E+05  2.663853E+05 -3.493517E+04 -4.242787E+04 -4.865387E+04
       321   2  1.952061E+06  2.479801E+05  3.433349E+05 -8.529067E+04 -1.346273E+05 -4.634175E+04
       321   3  2.086999E+06  4.966324E+05  5.328169E+05 -1.747342E+05 -2.268819E+05 -1.489570E+04
       321   4  9.763766E+05 -1.050411E+04  7.074210E+04 -6.666033E+04 -5.411014E+04 -4.866330E+04
       321   5  9.462463E+05  2.806612E+03  1.212209E+05 -4.723112E+04 -1.181972E+05 -4.634116E+04
       321   6  9.762131E+05  2.215854E+05  2.648439E+05 -6.687826E+04 -1.823204E+05 -1.488459E+04
       321   7  7.151831E+04 -2.305588E+05 -1.249485E+05 -9.833877E+04 -6.577559E+04 -4.867156E+04
       321   8 -5.862261E+04 -2.424292E+05 -1.009535E+05 -9.233954E+03 -1.017933E+05 -4.633857E+04
       321   9 -1.334181E+05 -5.350656E+04 -3.203605E+03  4.078435E+04 -1.378379E+05 -1.485806E+04
       321  10  1.882003E+06  2.094974E+05  2.663775E+05 -3.493683E+04  1.884532E-10 -4.378764E-10
       321  11  1.952041E+06  2.479730E+05  3.432969E+05 -8.529569E+04  3.509586E-10  2.239372E-10
       321  12  2.086943E+06  4.966184E+05  5.327201E+05 -1.747369E+05  4.242191E-10  7.086728E-10
       321  13  9.763728E+05 -1.050743E+04  7.073215E+04 -6.666245E+04 -1.203618E-09 -1.237457E-09
       321  14  9.462307E+05  2.800562E+03  1.211907E+05 -4.723553E+04 -2.663644E-10  1.278848E-10
       321  15  9.761774E+05  2.215762E+05  2.647811E+05 -6.688044E+04 -1.005205E-11 -4.315301E-10
       321  16  7.151302E+04 -2.305625E+05 -1.249611E+05 -9.834135E+04 -7.284696E-10  8.830406E-11
       321  17 -5.863431E+04 -2.424343E+05 -1.009770E+05 -9.237754E+03 -7.856836E-10 -5.910462E-10
       321  18 -1.334385E+05 -5.351190E+04 -3.239730E+03  4.078270E+04 -6.898581E-10  1.016220E-09
       321  19  1.882005E+06  2.095005E+05  2.663853E+05 -3.493517E+04  4.242787E+04  4.865387E+04
       321  20  1.952061E+06  2.479801E+05  3.433349E+05 -8.529067E+04  1.346273E+05  4.634175E+04
       321  21  2.086999E+06  4.966324E+05  5.328169E+05 -1.747342E+05  2.268819E+05  1.489570E+04
       321  22  9.763766E+05 -1.050411E+04  7.074210E+04 -6.666033E+04  5.411014E+04  4.866330E+04
       321  23  9.462463E+05  2.806612E+03  1.212209E+05 -4.723112E+04  1.181972E+05  4.634116E+04
       321  24  9.762131E+05  2.215854E+05  2.648439E+05 -6.687826E+04  1.823204E+05  1.488459E+04
       321  25  7.151831E+04 -2.305588E+05 -1.249485E+05 -9.833877E+04  6.577559E+04  4.867156E+04
       321  26 -5.862261E+04 -2.424292E+05 -1.009535E+05 -9.233954E+03  1.017933E+05  4.633857E+04
       321  27 -1.334181E+05 -5.350656E+04 -3.203605E+03  4.078435E+04  1.378379E+05  1.485806E+04
       322   1  2.814773E+05  8.974419E+05  3.088756E+05 -2.292391E+05  4.464283E+03  1.360465E+05
       322   2  7.116624E+04  6.451895E+05  1.503806E+05 -1.356762E+05  1.082867E+04  7.538467E+04
       322   3  6.112494E+03  4.368872E+05  6.759027E+04 -1.320717E+05  1.934042E+03  1.472355E+04
       322   4  1.539020E+05  3.855446E+05  1.838813E+05 -1.532388E+05  4.501500E+03  1.226496E+05
       322   5  2.392061E+03  3.648794E+05  8.717212E+04 -1.083863E+05  1.083025E+04  7.667880E+04
       322   6 -6.368401E+03  3.856088E+05  5.601788E+04 -1.534753E+05  1.906323E+03  3.068602E+04
       322   7  2.632908E+04 -1.261014E+05  5.887160E+04 -7.730108E+04  4.535462E+03  1.092638E+05
       322   8 -6.638474E+04  8.464389E+04  2.395898E+04 -8.110874E+04  1.083194E+04  7.797235E+04
       322   9 -1.884762E+04  3.343343E+05  4.444653E+04 -1.748770E+05  1.877502E+03  4.664718E+04
       322  10  2.814723E+05  8.974221E+05  3.088409E+05 -2.292396E+05 -5.332457E-10 -6.973215E-10
       322  11  7.116459E+04  6.451834E+05  1.503697E+05 -1.356768E+05 -8.452570E-10 -1.305816E-09
       322  12  6.112432E+03  4.368870E+05  6.758986E+04 -1.320718E+05  7.704020E-10  1.323574E-09
       322  13  1.538980E+05  3.855285E+05  1.838530E+05 -1.532392E+05  2.901847E-10  4.813759E-12
       322  14  2.390358E+03  3.648731E+05  8.716086E+04 -1.083869E+05 -1.088496E-09 -1.518079E-09
       322  15 -6.368658E+03  3.856078E+05  5.601610E+04 -1.534753E+05  8.873860E-10 -4.860382E-10
       322  16  2.632585E+04 -1.261143E+05  5.884912E+04 -7.730148E+04 -1.244514E-10  1.064234E-09
       322  17 -6.638649E+04  8.463733E+04  2.394733E+04 -8.110942E+04  2.522847E-10 -8.718145E-10
       322  18 -1.884820E+04  3.343320E+05  4.444243E+04 -1.748771E+05  1.576602E-12 -1.286296E-09
       322  19  2.814773E+05  8.974419E+05  3.088756E+05 -2.292391E+05 -4.464283E+03 -1.360465E+05
       322  20  7.116624E+04  6.451895E+05  1.503806E+05 -1.356762E+05 -1.082867E+04 -7.538467E+04
       322  21  6.112494E+03  4.368872E+05  6.759027E+04 -1.320717E+05 -1.934042E+03 -1.472355E+04
       322  22  1.539020E+05  3.855446E+05  1.838813E+05 -1.532388E+05 -4.501500E+03 -1.226496E+05
       322  23  2.392061E+03  3.648794E+05  8.717212E+04 -1.083863E+05 -1.083025E+04 -7.667880E+04
       322  24 -6.368401E+03  3.856088E+05  5.601788E+04 -1.534753E+05 -1.906323E+03 -3.068602E+04
       322  25  2.632908E+04 -1.261014E+05  5.887160E+04 -7.730108E+04 -4.535462E+03 -1.092638E+05
       322  26 -6.638474E+04  8.464389E+04  2.395898E+04 -8.110874E+04 -1.083194E+04 -7.797235E+04
       322  27 -1.884762E+04  3.343343E+05  4.444653E+04 -1.748770E+05 -1.877502E+03 -4.664718E+04
       323   1 -2.412712E+04  2.457128E+05  1.989349E+04 -1.574062E+05 -7.227639E+03  1.026834E+04
       323   2 -8.809409E+04  1.259841E+04 -4.019113E+04 -1.079345E+05 -1.932785E+04 -8.126104E+03
       323   3 -1.377768E+05 -2.147531E+05 -8.479950E+04 -1.491549E+05 -3.059884E+04 -2.650739E+04
       323   4  7.941278E+03  3.777017E+05  4.837006E+04 -1.535799E+05 -7.247923E+03  2.231957E+04
       323   5  8.938167E+00  3.747520E+05  3.823950E+04 -1.082373E+05 -1.934441E+04  3.120746E+03
       323   6  6.499564E+03  3.776526E+05  4.414236E+04 -1.535821E+05 -3.061185E+04 -1.607151E+04
       323   7  4.000866E+04  5.097073E+05  7.684616E+04 -1.497528E+05 -7.268057E+03  3.437332E+04
       323   8  8.810337E+04  7.370289E+05  1.166628E+05 -1.085403E+05 -1.936098E+04  1.437407E+04
       323   9  1.507527E+05  9.703875E+05  1.730636E+05 -1.580135E+05 -3.062500E+04 -5.625786E+03
       323  10 -2.412721E+04  2.457127E+05  1.989320E+04 -1.574061E+05  2.792282E-10 -1.093266E-09
       323  11 -8.809451E+04  1.259824E+04 -4.019195E+04 -1.079346E+05  3.409818E-10 -2.382609E-09
       323  12 -1.377780E+05 -2.147541E+05 -8.480258E+04 -1.491555E+05 -7.128829E-10  4.614769E-11
       323  13  7.941088E+03  3.777012E+05  4.836903E+04 -1.535798E+05  5.431664E-10  1.965777E-11
       323  14  8.533687E+00  3.747519E+05  3.823878E+04 -1.082373E+05  9.230205E-10 -1.571876E-09
       323  15  6.498488E+03  3.776520E+05  4.414012E+04 -1.535825E+05  8.573322E-10 -5.188117E-10
       323  16  4.000829E+04  5.097061E+05  7.684384E+04 -1.497526E+05  5.278426E-10  1.483612E-09
       323  17  8.810291E+04  7.370286E+05  1.166617E+05 -1.085401E+05 -9.433426E-10  1.181669E-10
       323  18  1.507517E+05  9.703872E+05  1.730618E+05 -1.580136E+05 -4.749850E-10  1.416622E-11
       323  19 -2.412712E+04  2.457128E+05  1.989349E+04 -1.574062E+05  7.227639E+03 -1.026834E+04
       323  20 -8.809409E+04  1.259841E+04 -4.019113E+04 -1.079345E+05  1.932785E+04  8.126104E+03
       323  21 -1.377768E+05 -2.147531E+05 -8.479950E+04 -1.491549E+05  3.059884E+04  2.650739E+04
       323  22  7.941278E+03  3.777017E+05  4.837006E+04 -1.535799E+05  7.247923E+03 -2.231957E+04
       323  23  8.938168E+00  3.747520E+05  3.823950E+04 -1.082373E+05  1.934441E+04 -3.120746E+03
       323  24  6.499564E+03  3.776526E+05  4.414236E+04 -1.535821E+05  3.061185E+04  1.607151E+04
       323  25  4.000866E+04  5.097073E+05  7.684616E+04 -1.497528E+05  7.268057E+03 -3.437332E+04
       323  26  8.810337E+04  7.370289E+05  1.166628E+05 -1.085403E+05  1.936098E+04 -1.437407E+04
       323  27  1.507527E+05  9.703875E+05  1.730636E+05 -1.580135E+05  3.062500E+04  5.625786E+03
       324   1 -1.942325E+05 -3.919417E+05 -1.185239E+05 -1.706318E+05 -4.114863E+04 -4.345752E+04
       324   2 -2.437480E+05 -6.376579E+05 -1.482740E+05 -8.507369E+04 -4.495196E+04 -5.038858E+04
       324   3 -1.780290E+05 -8.534247E+05 -1.446602E+05 -8.886307E+04 -1.501946E+04 -5.729470E+04
       324   4 -5.402711E+03  3.841806E+05  4.974207E+04 -1.533106E+05 -4.117266E+04 -2.364591E+04
       324   5  1.738384E+03  3.663724E+05  7.466054E+04 -1.085892E+05 -4.493241E+04 -6.298808E+04
       324   6  1.296330E+05  3.840217E+05  1.553992E+05 -1.531933E+05 -1.497987E+04 -1.023091E+05
       324   7  1.833886E+05  1.160870E+06  2.179738E+05 -1.359672E+05 -4.119557E+04 -3.809831E+03
       324   8  2.471587E+05  1.371345E+06  2.975333E+05 -1.321428E+05 -4.491193E+04 -7.560767E+04
       324   9  4.371993E+05  1.622881E+06  4.553581E+05 -2.176519E+05 -1.493100E+04 -1.474130E+05
       324  10 -1.942348E+05 -3.919442E+05 -1.185306E+05 -1.706332E+05 -5.208175E-11 -1.317171E-10
       324  11 -2.437508E+05 -6.376612E+05 -1.482826E+05 -8.507551E+04 -2.731331E-11 -1.093057E-09
       324  12 -1.780302E+05 -8.534283E+05 -1.446668E+05 -8.886376E+04 -1.423152E-10  4.563203E-11
       324  13 -5.404682E+03  3.841795E+05  4.973783E+04 -1.533114E+05 -7.156264E-10  7.782440E-11
       324  14  1.735151E+03  3.663676E+05  7.464929E+04 -1.085914E+05  5.091666E-10 -9.401395E-10
       324  15  1.296300E+05  3.840104E+05  1.553791E+05 -1.531946E+05 -5.557094E-11 -1.332691E-10
       324  16  1.833868E+05  1.160869E+06  2.179706E+05 -1.359673E+05  3.517460E-10  3.704026E-10
       324  17  2.471550E+05  1.371338E+06  2.975188E+05 -1.321455E+05 -1.520649E-11 -3.833135E-10
       324  18  4.371932E+05  1.622857E+06  4.553169E+05 -2.176537E+05 -3.840480E-10 -1.420933E-11
       324  19 -1.942325E+05 -3.919417E+05 -1.185239E+05 -1.706318E+05  4.114863E+04  4.345752E+04
       324  20 -2.437480E+05 -6.376579E+05 -1.482740E+05 -8.507369E+04  4.495196E+04  5.038858E+04
       324  21 -1.780290E+05 -8.534247E+05 -1.446602E+05 -8.886307E+04  1.501946E+04  5.729470E+04
       324  22 -5.402711E+03  3.841806E+05  4.974207E+04 -1.533106E+05  4.117266E+04  2.364591E+04
       324  23  1.738384E+03  3.663724E+05  7.466054E+04 -1.085892E+05  4.493241E+04  6.298808E+04
       324  24  1.296330E+05  3.840217E+05  1.553992E+05 -1.531933E+05  1.497987E+04  1.023091E+05
       324  25  1.833886E+05  1.160870E+06  2.179738E+05 -1.359672E+05  4.119557E+04  3.809831E+03
       324  26  2.471587E+05  1.371345E+06  2.975333E+05 -1.321428E+05  4.491193E+04  7.560767E+04
       324  27  4.371993E+05  1.622881E+06  4.553581E+05 -2.176519E+05  1.493100E+04  1.474130E+05
       325   1 -2.586622E+06 -1.003886E+06 -5.608716E+05 -1.011421E+06 -2.711456E+05 -8.622298E+04
       325   2 -2.512746E+06 -6.748275E+05 -3.297562E+05 -9.796131E+05 -1.717762E+05 -1.356431E+04
       325   3 -2.510231E+06 -5.561871E+05 -2.343900E+05 -9.188913E+05 -6.284237E+04  3.375456E+04
       325   4 -1.782346E+06 -5.537095E+05 -3.226318E+05 -6.399937E+05 -2.127021E+05 -6.431853E+04
       325   5 -1.732148E+06 -3.259786E+05 -1.463051E+05 -7.017257E+05 -1.473285E+05 -4.398033E+03
       325   6 -1.746458E+06 -3.017915E+05 -7.861283E+04 -7.345801E+05 -7.240600E+04  3.015731E+04
       325   7 -9.773865E+05 -1.032193E+05 -8.443937E+04 -2.680558E+05 -1.541770E+05 -4.234815E+04
       325   8 -9.509214E+05  2.300388E+04  3.710705E+04 -4.234882E+05 -1.228476E+05  4.786793E+03
       325   9 -9.820787E+05 -4.736941E+04  7.713752E+04 -5.500682E+05 -8.198244E+04  2.655627E+04
       325  10 -2.586703E+06 -1.003914E+06 -5.610244E+05 -1.011440E+06 -5.115130E-10 -7.351016E-11
       325  11 -2.512777E+06 -6.748357E+05 -3.298122E+05 -9.796150E+05 -5.510896E-10  3.568037E-10
       325  12 -2.510235E+06 -5.561894E+05 -2.343996E+05 -9.188895E+05  2.218445E-09  6.144826E-11
       325  13 -1.782396E+06 -5.537261E+05 -3.227249E+05 -6.400048E+05  5.965335E-10  2.630934E-10
       325  14 -1.732172E+06 -3.259845E+05 -1.463460E+05 -7.017262E+05  7.967096E-11 -1.026395E-09
       325  15 -1.746464E+06 -3.017939E+05 -7.862440E+04 -7.345784E+05 -4.727693E-10 -6.062053E-10
       325  16 -9.774125E+05 -1.032276E+05 -8.448749E+04 -2.680610E+05  7.669833E-10  2.289195E-10
       325  17 -9.509376E+05  2.299980E+04  3.707860E+04 -4.234877E+05 -2.418783E-10  7.245026E-10
       325  18 -9.820861E+05 -4.737197E+04  7.712356E+04 -5.500665E+05 -2.184700E-09 -1.385712E-09
       325  19 -2.586622E+06 -1.003886E+06 -5.608716E+05 -1.011421E+06  2.711456E+05  8.622298E+04
       325  20 -2.512746E+06 -6.748275E+05 -3.297562E+05 -9.796131E+05  1.717762E+05  1.356431E+04
       325  21 -2.510231E+06 -5.561871E+05 -2.343900E+05 -9.188913E+05  6.284237E+04 -3.375456E+04
       325  22 -1.782346E+06 -5.537095E+05 -3.226318E+05 -6.399937E+05  2.127021E+05  6.431853E+04
       325  23 -1.732148E+06 -3.259786E+05 -1.463051E+05 -7.017257E+05  1.473285E+05  4.398033E+03
       325  24 -1.746458E+06 -3.017915E+05 -7.861283E+04 -7.345801E+05  7.240600E+04 -3.015731E+04
       325  25 -9.773865E+05 -1.032193E+05 -8.443937E+04 -2.680558E+05  1.541770E+05  4.234815E+04
       325  26 -9.509214E+05  2.300388E+04  3.710705E+04 -4.234882E+05  1.228476E+05 -4.786793E+03
       325  27 -9.820787E+05 -4.736941E+04  7.713752E+04 -5.500682E+05  8.198244E+04 -2.655627E+04
       326   1 -2.420391E+06 -5.670626E+05 -2.038536E+05 -9.186642E+05 -5.755987E+04  3.120719E+04
       326   2 -2.343693E+06 -5.163321E+05 -1.560850E+05 -8.860788E+05 -3.791163E+04  3.410580E+04
       326   3 -2.255279E+06 -4.915093E+05 -1.241506E+05 -8.717291E+05 -1.765599E+04  3.538630E+04
       326   4 -1.736575E+06 -3.127333E+05 -6.030505E+04 -7.260604E+05 -6.178341E+04  2.961515E+04
       326   5 -1.741922E+06 -2.950569E+05 -3.183984E+04 -7.187836E+05 -4.429224E+04  3.170587E+04
       326   6 -1.735124E+06 -3.028517E+05 -1.748137E+04 -7.297436E+05 -2.619663E+04  3.217818E+04
       326   7 -1.052280E+06 -5.836177E+04  8.321806E+04 -5.332590E+05 -6.601195E+04  2.802117E+04
       326   8 -1.139781E+06 -7.375152E+04  9.238580E+04 -5.513385E+05 -5.067949E+04  2.930343E+04
       326   9 -1.214694E+06 -1.141742E+05  8.917310E+04 -5.876496E+05 -3.474493E+04  2.896725E+04
       326  10 -2.420394E+06 -5.670645E+05 -2.038617E+05 -9.186628E+05 -5.080191E-10 -8.548487E-10
       326  11 -2.343695E+06 -5.163337E+05 -1.560898E+05 -8.860778E+05 -6.479391E-11 -4.446792E-10
       326  12 -2.255280E+06 -4.915107E+05 -1.241536E+05 -8.717286E+05  1.345177E-09  6.817657E-10
       326  13 -1.736580E+06 -3.127353E+05 -6.031388E+04 -7.260589E+05 -2.250753E-11 -8.434209E-10
       326  14 -1.741925E+06 -2.950585E+05 -3.184541E+04 -7.187824E+05  8.563889E-10 -6.421172E-10
       326  15 -1.735125E+06 -3.028530E+05 -1.748461E+04 -7.297429E+05 -4.606766E-10  2.455426E-10
       326  16 -1.052285E+06 -5.836378E+04  8.320839E+04 -5.332575E+05 -3.265768E-10 -6.986276E-10
       326  17 -1.139784E+06 -7.375313E+04  9.237936E+04 -5.513373E+05 -4.081017E-10 -6.192822E-10
       326  18 -1.214695E+06 -1.141754E+05  8.916926E+04 -5.876488E+05 -1.803715E-09 -2.345285E-10
       326  19 -2.420391E+06 -5.670626E+05 -2.038536E+05 -9.186642E+05  5.755987E+04 -3.120719E+04
       326  20 -2.343693E+06 -5.163321E+05 -1.560850E+05 -8.860788E+05  3.791163E+04 -3.410580E+04
       326  21 -2.255279E+06 -4.915093E+05 -1.241506E+05 -8.717291E+05  1.765599E+04 -3.538630E+04
       326  22 -1.736575E+06 -3.127333E+05 -6.030505E+04 -7.260604E+05  6.178341E+04 -2.961515E+04
       326  23 -1.741922E+06 -2.950569E+05 -3.183984E+04 -7.187836E+05  4.429224E+04 -3.170587E+04
       326  24 -1.735124E+06 -3.028517E+05 -1.748137E+04 -7.297436E+05  2.619663E+04 -3.217818E+04
       326  25 -1.052280E+06 -5.836177E+04  8.321806E+04 -5.332590E+05  6.601195E+04 -2.802117E+04
       326  26 -1.139781E+06 -7.375152E+04  9.238580E+04 -5.513385E+05  5.067949E+04 -2.930343E+04
       326  27 -1.214694E+06 -1.141742E+05  8.917310E+04 -5.876496E+05  3.474493E+04 -2.896725E+04
       327   1 -2.195315E+06 -4.715365E+05 -1.074129E+05 -8.563355E+05 -1.413091E+04  3.249813E+04
       327   2 -2.119108E+06 -4.316700E+05 -8.427711E+04 -8.230895E+05 -8.055304E+03  2.773446E+04
       327   3 -2.026093E+06 -4.096429E+05 -6.403537E+04 -8.098385E+05 -1.938301E+03  2.285521E+04
       327   4 -1.734379E+06 -3.033161E+05 -1.316524E+04 -7.293169E+05 -2.235669E+04  2.940948E+04
       327   5 -1.742762E+06 -2.942851E+05 -7.234375E+03 -7.193596E+05 -1.643406E+04  2.459009E+04
       327   6 -1.734316E+06 -3.030633E+05 -4.075141E+03 -7.293997E+05 -1.047062E+04  1.965498E+04
       327   7 -1.273219E+06 -1.350765E+05  8.107291E+04 -6.022100E+05 -3.058912E+04  2.631835E+04
       327   8 -1.366268E+06 -1.568878E+05  6.980184E+04 -6.155710E+05 -2.481833E+04  2.144367E+04
       327   9 -1.442452E+06 -1.964766E+05  5.588102E+04 -6.489259E+05 -1.900726E+04  1.645314E+04
       327  10 -2.195316E+06 -4.715377E+05 -1.074153E+05 -8.563351E+05  2.317216E-08  9.779396E-09
       327  11 -2.119108E+06 -4.316709E+05 -8.427868E+04 -8.230893E+05 -3.777650E-09  1.069816E-09
       327  12 -2.026093E+06 -4.096434E+05 -6.403636E+04 -8.098385E+05 -2.491951E-08 -8.189517E-09
       327  13 -1.734379E+06 -3.033171E+05 -1.316780E+04 -7.293164E+05 -4.686931E-10  8.358935E-10
       327  14 -1.742762E+06 -2.942859E+05 -7.236018E+03 -7.193592E+05 -2.386834E-09  1.261838E-09
       327  15 -1.734316E+06 -3.030638E+05 -4.076072E+03 -7.293995E+05 -1.532565E-09  5.773944E-10
       327  16 -1.273220E+06 -1.350775E+05  8.106985E+04 -6.022093E+05 -2.526365E-08 -8.103206E-09
       327  17 -1.366269E+06 -1.568885E+05  6.979982E+04 -6.155706E+05 -2.463082E-09  1.325338E-09
       327  18 -1.442452E+06 -1.964770E+05  5.587983E+04 -6.489256E+05  2.382974E-08  9.738035E-09
       327  19 -2.195315E+06 -4.715365E+05 -1.074129E+05 -8.563355E+05  1.413091E+04 -3.249813E+04
       327  20 -2.119108E+06 -4.316700E+05 -8.427711E+04 -8.230895E+05  8.055304E+03 -2.773446E+04
       327  21 -2.026093E+06 -4.096429E+05 -6.403537E+04 -8.098385E+05  1.938301E+03 -2.285521E+04
       327  22 -1.734379E+06 -3.033161E+05 -1.316524E+04 -7.293169E+05  2.235669E+04 -2.940948E+04
       327  23 -1.742762E+06 -2.942851E+05 -7.234375E+03 -7.193596E+05  1.643406E+04 -2.459009E+04
       327  24 -1.734316E+06 -3.030633E+05 -4.075141E+03 -7.293997E+05  1.047062E+04 -1.965498E+04
       327  25 -1.273219E+06 -1.350765E+05  8.107291E+04 -6.022100E+05  3.058912E+04 -2.631835E+04
       327  26 -1.366268E+06 -1.568878E+05  6.980184E+04 -6.155710E+05  2.481833E+04 -2.144367E+04
       327  27 -1.442452E+06 -1.964766E+05  5.588102E+04 -6.489259E+05  1.900726E+04 -1.645314E+04
       328   1 -1.967337E+06 -3.881947E+05 -5.058707E+04 -7.937138E+05  3.689636E+01  1.938038E+04
       328   2 -1.891034E+06 -3.484567E+05 -3.226119E+04 -7.602289E+05  3.402071E+03  1.340480E+04
       328   3 -1.797371E+06 -3.262370E+05 -1.467339E+04 -7.468118E+05  6.770790E+03  7.417114E+03
       328   4 -1.734205E+06 -3.030872E+05 -3.132579E+03 -7.293794E+05 -8.487376E+03  1.618392E+04
       328   5 -1.742879E+06 -2.943333E+05 -1.948469E+03 -7.193408E+05 -5.138533E+03  1.020290E+04
       328   6 -1.734197E+06 -3.030949E+05 -1.489432E+03 -7.293727E+05 -1.786279E+03  4.209726E+03
       328   7 -1.501019E+06 -2.179758E+05  4.431898E+04 -6.650232E+05 -1.701503E+04  1.298618E+04
       328   8 -1.594701E+06 -2.402081E+05  2.836344E+04 -6.784437E+05 -1.368134E+04  7.000176E+03
       328   9 -1.671018E+06 -2.799523E+05  1.169476E+04 -7.119318E+05 -1.034435E+04  1.001962E+03
       328  10 -1.967337E+06 -3.881951E+05 -5.058778E+04 -7.937138E+05 -1.145766E-09 -3.814584E-10
       328  11 -1.891034E+06 -3.484569E+05 -3.226155E+04 -7.602289E+05 -3.317736E-10 -8.495193E-10
       328  12 -1.797372E+06 -3.262371E+05 -1.467358E+04 -7.468118E+05 -1.717850E-09 -1.093029E-09
       328  13 -1.734205E+06 -3.030875E+05 -3.133206E+03 -7.293793E+05 -7.865074E-10 -3.823902E-10
       328  14 -1.742879E+06 -2.943335E+05 -1.948714E+03 -7.193408E+05 -8.006358E-12 -8.408382E-10
       328  15 -1.734197E+06 -3.030950E+05 -1.489471E+03 -7.293727E+05  5.351135E-10 -2.661631E-10
       328  16 -1.501019E+06 -2.179760E+05  4.431812E+04 -6.650230E+05  1.340377E-09  1.413637E-10
       328  17 -1.594701E+06 -2.402082E+05  2.836300E+04 -6.784436E+05  1.147445E-09 -8.461510E-11
       328  18 -1.671019E+06 -2.799523E+05  1.169455E+04 -7.119318E+05  1.650165E-09 -2.613516E-10
       328  19 -1.967337E+06 -3.881947E+05 -5.058707E+04 -7.937138E+05 -3.689636E+01 -1.938038E+04
       328  20 -1.891034E+06 -3.484567E+05 -3.226119E+04 -7.602289E+05 -3.402071E+03 -1.340480E+04
       328  21 -1.797371E+06 -3.262370E+05 -1.467339E+04 -7.468118E+05 -6.770790E+03 -7.417114E+03
       328  22 -1.734205E+06 -3.030872E+05 -3.132579E+03 -7.293794E+05  8.487376E+03 -1.618392E+04
       328  23 -1.742879E+06 -2.943333E+05 -1.948469E+03 -7.193408E+05  5.138533E+03 -1.020290E+04
       328  24 -1.734197E+06 -3.030949E+05 -1.489432E+03 -7.293727E+05  1.786279E+03 -4.209726E+03
       328  25 -1.501019E+06 -2.179758E+05  4.431898E+04 -6.650232E+05  1.701503E+04 -1.298618E+04
       328  26 -1.594701E+06 -2.402081E+05  2.836344E+04 -6.784437E+05  1.368134E+04 -7.000176E+03
       328  27 -1.671018E+06 -2.799523E+05  1.169476E+04 -7.119318E+05  1.034435E+04 -1.001962E+03
       329   1 -1.738594E+06 -3.046684E+05 -2.111299E+03 -7.306156E+05  8.407387E+03  3.806010E+03
       329   2 -1.662239E+06 -2.648999E+05  1.467644E+04 -6.971109E+05  1.168468E+04 -2.217867E+03
       329   3 -1.568506E+06 -2.426517E+05  3.079511E+04 -6.836846E+05  1.495931E+04 -8.233074E+03
       329   4 -1.734193E+06 -3.030963E+05 -1.466310E+03 -7.293747E+05 -1.515309E+02  5.980151E+02
       329   5 -1.742879E+06 -2.943283E+05 -1.817498E+03 -7.193378E+05  3.136624E+03 -5.422165E+03
       329   6 -1.734197E+06 -3.030835E+05 -2.846414E+03 -7.293821E+05  6.421973E+03 -1.143370E+04
       329   7 -1.729792E+06 -3.015242E+05 -8.210062E+02 -7.281338E+05 -8.710510E+03 -2.610003E+03
       329   8 -1.823512E+06 -3.237560E+05 -1.831136E+04 -7.415618E+05 -5.410200E+03 -8.626005E+03
       329   9 -1.899859E+06 -3.635124E+05 -3.648864E+04 -7.750679E+05 -2.112843E+03 -1.463338E+04
       329  10 -1.738595E+06 -3.046684E+05 -2.111460E+03 -7.306156E+05  7.565533E-11 -4.920433E-10
       329  11 -1.662239E+06 -2.648999E+05  1.467618E+04 -6.971109E+05  4.396866E-12 -1.036741E-09
       329  12 -1.568506E+06 -2.426519E+05  3.079457E+04 -6.836845E+05 -1.607459E-09 -1.003475E-09
       329  13 -1.734193E+06 -3.030963E+05 -1.466311E+03 -7.293747E+05  1.499569E-10 -7.228739E-10
       329  14 -1.742879E+06 -2.943283E+05 -1.817571E+03 -7.193378E+05 -1.940813E-10 -7.871295E-10
       329  15 -1.734197E+06 -3.030836E+05 -2.846737E+03 -7.293820E+05 -1.135258E-11  1.874330E-10
       329  16 -1.729792E+06 -3.015242E+05 -8.211621E+02 -7.281338E+05  6.990678E-10 -7.079025E-10
       329  17 -1.823512E+06 -3.237560E+05 -1.831156E+04 -7.415618E+05  1.962498E-10 -9.142572E-10
       329  18 -1.899859E+06 -3.635126E+05 -3.648905E+04 -7.750679E+05  6.253963E-10  6.262952E-10
       329  19 -1.738594E+06 -3.046684E+05 -2.111299E+03 -7.306156E+05 -8.407387E+03 -3.806010E+03
       329  20 -1.662239E+06 -2.648999E+05  1.467644E+04 -6.971109E+05 -1.168468E+04  2.217867E+03
       329  21 -1.568506E+06 -2.426517E+05  3.079511E+04 -6.836846E+05 -1.495931E+04  8.233074E+03
       329  22 -1.734193E+06 -3.030963E+05 -1.466310E+03 -7.293747E+05  1.515309E+02 -5.980151E+02
       329  23 -1.742879E+06 -2.943283E+05 -1.817498E+03 -7.193378E+05 -3.136624E+03  5.422165E+03
       329  24 -1.734197E+06 -3.030835E+05 -2.846414E+03 -7.293821E+05 -6.421973E+03  1.143370E+04
       329  25 -1.729792E+06 -3.015242E+05 -8.210062E+02 -7.281338E+05  8.710510E+03  2.610003E+03
       329  26 -1.823512E+06 -3.237560E+05 -1.831136E+04 -7.415618E+05  5.410200E+03  8.626005E+03
       329  27 -1.899859E+06 -3.635124E+05 -3.648864E+04 -7.750679E+05  2.112843E+03  1.463338E+04
       330   1 -1.509851E+06 -2.211249E+05  4.248257E+04 -6.675643E+05  1.689848E+04 -1.172534E+04
       330   2 -1.433553E+06 -1.814708E+05  5.677626E+04 -6.341561E+05  2.235933E+04 -1.686333E+04
       330   3 -1.340312E+06 -1.595815E+05  6.869094E+04 -6.207721E+05  2.778302E+04 -2.189509E+04
       330   4 -1.734293E+06 -3.030633E+05 -3.680999E+03 -7.294025E+05  8.350391E+03 -1.493053E+04
       330   5 -1.742772E+06 -2.942770E+05 -6.496960E+03 -7.193513E+05  1.395121E+04 -2.001750E+04
       330   6 -1.734346E+06 -3.032859E+05 -1.180465E+04 -7.293287E+05  1.951438E+04 -2.499833E+04
       330   7 -1.958685E+06 -3.849981E+05 -4.984737E+04 -7.912204E+05 -1.944284E+02 -1.813451E+04
       330   8 -2.051894E+06 -4.070757E+05 -6.977513E+04 -8.045075E+05  5.547568E+03 -2.316999E+04
       330   9 -2.128220E+06 -4.469774E+05 -9.230789E+04 -8.378216E+05  1.125140E+04 -2.809947E+04
       330  10 -1.509852E+06 -2.211252E+05  4.248177E+04 -6.675642E+05  9.334029E-11  1.846186E-10
       330  11 -1.433553E+06 -1.814712E+05  5.677479E+04 -6.341558E+05 -1.086401E-09  8.889286E-11
       330  12 -1.340313E+06 -1.595822E+05  6.868859E+04 -6.207716E+05 -1.975062E-09 -3.324551E-10
       330  13 -1.734293E+06 -3.030635E+05 -3.681549E+03 -7.294024E+05 -2.436519E-10  3.824499E-10
       330  14 -1.742772E+06 -2.942775E+05 -6.498078E+03 -7.193511E+05  5.502549E-10  6.803266E-10
       330  15 -1.734347E+06 -3.032867E+05 -1.180653E+04 -7.293283E+05 -7.655593E-10  4.098565E-10
       330  16 -1.958685E+06 -3.849984E+05 -4.984799E+04 -7.912204E+05 -1.899441E-10  6.262974E-10
       330  17 -2.051894E+06 -4.070763E+05 -6.977620E+04 -8.045074E+05  1.027308E-09  5.747807E-10
       330  18 -2.128220E+06 -4.469782E+05 -9.230961E+04 -8.378213E+05  1.394455E-09  1.428115E-09
       330  19 -1.509851E+06 -2.211249E+05  4.248257E+04 -6.675643E+05 -1.689848E+04  1.172534E+04
       330  20 -1.433553E+06 -1.814708E+05  5.677626E+04 -6.341561E+05 -2.235933E+04  1.686333E+04
       330  21 -1.340312E+06 -1.595815E+05  6.869094E+04 -6.207721E+05 -2.778302E+04  2.189509E+04
       330  22 -1.734293E+06 -3.030633E+05 -3.680999E+03 -7.294025E+05 -8.350391E+03  1.493053E+04
       330  23 -1.742772E+06 -2.942770E+05 -6.496960E+03 -7.193513E+05 -1.395121E+04  2.001750E+04
       330  24 -1.734346E+06 -3.032859E+05 -1.180465E+04 -7.293287E+05 -1.951438E+04  2.499833E+04
       330  25 -1.958685E+06 -3.849981E+05 -4.984737E+04 -7.912204E+05  1.944284E+02  1.813451E+04
       330  26 -2.051894E+06 -4.070757E+05 -6.977513E+04 -8.045075E+05 -5.547568E+03  2.316999E+04
       330  27 -2.128220E+06 -4.469774E+05 -9.230789E+04 -8.378216E+05 -1.125140E+04  2.809947E+04
       331   1 -1.281679E+06 -1.385847E+05  7.727069E+04 -6.060264E+05  3.166672E+04 -2.465501E+04
       331   2 -1.206491E+06 -9.816822E+04  8.198861E+04 -5.699587E+05  4.611363E+04 -2.563109E+04
       331   3 -1.118187E+06 -8.201983E+04  7.566358E+04 -5.523495E+05  6.000067E+04 -2.510311E+04
       331   4 -1.735017E+06 -3.028720E+05 -1.567095E+04 -7.297148E+05  2.310264E+04 -2.787018E+04
       331   5 -1.742018E+06 -2.949625E+05 -2.853034E+04 -7.188332E+05  3.955983E+04 -2.809430E+04
       331   6 -1.736314E+06 -3.117268E+05 -5.403690E+04 -7.264141E+05  5.545523E+04 -2.681438E+04
       331   7 -2.188140E+06 -4.671417E+05 -1.086219E+05 -8.533191E+05  1.454536E+04 -3.108286E+04
       331   8 -2.277250E+06 -4.917322E+05 -1.390641E+05 -8.675886E+05  3.301212E+04 -3.055520E+04
       331   9 -2.354054E+06 -5.414011E+05 -1.837594E+05 -9.003187E+05  5.091462E+04 -2.852378E+04
       331  10 -1.281680E+06 -1.385856E+05  7.726766E+04 -6.060257E+05 -3.975681E-10  1.670762E-10
       331  11 -1.206494E+06 -9.816950E+04  8.198338E+04 -5.699577E+05 -7.633267E-10 -8.058006E-11
       331  12 -1.118191E+06 -8.202147E+04  7.565562E+04 -5.523483E+05 -1.316774E-09  7.557539E-11
       331  13 -1.735018E+06 -3.028730E+05 -1.567341E+04 -7.297143E+05 -1.637579E-11  4.228975E-10
       331  14 -1.742020E+06 -2.949638E+05 -2.853477E+04 -7.188323E+05 -9.595747E-10 -1.440256E-10
       331  15 -1.736317E+06 -3.117284E+05 -5.404404E+04 -7.264129E+05  6.111004E-10 -3.073638E-10
       331  16 -2.188140E+06 -4.671428E+05 -1.086241E+05 -8.533187E+05  5.663673E-12  7.121640E-10
       331  17 -2.277252E+06 -4.917335E+05 -1.390679E+05 -8.675878E+05  1.751544E-09 -1.468869E-10
       331  18 -2.354057E+06 -5.414027E+05 -1.837659E+05 -9.003176E+05  1.904793E-09 -6.465600E-10
       331  19 -1.281679E+06 -1.385847E+05  7.727069E+04 -6.060264E+05 -3.166672E+04  2.465501E+04
       331  20 -1.206491E+06 -9.816822E+04  8.198861E+04 -5.699587E+05 -4.611363E+04  2.563109E+04
       331  21 -1.118187E+06 -8.201983E+04  7.566358E+04 -5.523495E+05 -6.000067E+04  2.510311E+04
       331  22 -1.735017E+06 -3.028720E+05 -1.567095E+04 -7.297148E+05 -2.310264E+04  2.787018E+04
       331  23 -1.742018E+06 -2.949625E+05 -2.853034E+04 -7.188332E+05 -3.955983E+04  2.809430E+04
       331  24 -1.736314E+06 -3.117268E+05 -5.403690E+04 -7.264141E+05 -5.545523E+04  2.681438E+04
       331  25 -2.188140E+06 -4.671417E+05 -1.086219E+05 -8.533191E+05 -1.454536E+04  3.108286E+04
       331  26 -2.277250E+06 -4.917322E+05 -1.390641E+05 -8.675886E+05 -3.301212E+04  3.055520E+04
       331  27 -2.354054E+06 -5.414011E+05 -1.837594E+05 -9.003187E+05 -5.091462E+04  2.852378E+04
       332   1 -1.049070E+06 -6.986961E+04  7.153463E+04 -5.656846E+05  7.464574E+04 -2.412574E+04
       332   2 -1.013128E+06 -2.634354E+03  3.785500E+04 -4.488063E+05  1.101943E+05 -5.334429E+03
       332   3 -1.026802E+06 -1.131659E+05 -6.795024E+04 -3.081580E+05  1.368790E+05  3.705001E+04
       332   4 -1.745179E+06 -3.019122E+05 -7.044056E+04 -7.340344E+05  6.512534E+04 -2.770378E+04
       332   5 -1.733249E+06 -3.226845E+05 -1.310933E+05 -7.035686E+05  1.323603E+05  2.979794E+03
       332   6 -1.777325E+06 -5.276690E+05 -2.890944E+05 -6.493211E+05  1.907188E+05  5.725606E+04
       332   7 -2.440796E+06 -5.339362E+05 -2.124408E+05 -9.022196E+05  5.561642E+04 -3.127843E+04
       332   8 -2.452821E+06 -6.426176E+05 -3.000710E+05 -9.580314E+05  1.544982E+05  1.127853E+04
       332   9 -2.527219E+06 -9.418908E+05 -5.102681E+05 -9.900319E+05  2.444856E+05  7.740570E+04
       332  10 -1.049076E+06 -6.987173E+04  7.152305E+04 -5.656832E+05 -2.292091E-09  4.001792E-10
       332  11 -1.013141E+06 -2.637650E+03  3.783210E+04 -4.488058E+05 -6.456898E-10  4.641662E-10
       332  12 -1.026822E+06 -1.131725E+05 -6.798810E+04 -3.081621E+05 -3.500505E-10  1.993253E-09
       332  13 -1.745184E+06 -3.019141E+05 -7.044998E+04 -7.340329E+05  2.993606E-11 -1.378058E-10
       332  14 -1.733268E+06 -3.226892E+05 -1.311264E+05 -7.035690E+05  9.483207E-10 -8.181999E-12
       332  15 -1.777365E+06 -5.276823E+05 -2.891691E+05 -6.493300E+05 -1.552516E-09  9.498810E-11
       332  16 -2.440800E+06 -5.339381E+05 -2.124485E+05 -9.022182E+05  2.228540E-09 -5.589305E-11
       332  17 -2.452847E+06 -6.426242E+05 -3.001162E+05 -9.580328E+05  1.973547E-09  4.950518E-10
       332  18 -2.527285E+06 -9.419134E+05 -5.103922E+05 -9.900472E+05 -1.435608E-09  4.133179E-10
       332  19 -1.049070E+06 -6.986961E+04  7.153463E+04 -5.656846E+05 -7.464574E+04  2.412574E+04
       332  20 -1.013128E+06 -2.634354E+03  3.785500E+04 -4.488063E+05 -1.101943E+05  5.334429E+03
       332  21 -1.026802E+06 -1.131659E+05 -6.795024E+04 -3.081580E+05 -1.368790E+05 -3.705001E+04
       332  22 -1.745179E+06 -3.019122E+05 -7.044056E+04 -7.340344E+05 -6.512534E+04  2.770378E+04
       332  23 -1.733249E+06 -3.226845E+05 -1.310933E+05 -7.035686E+05 -1.323603E+05 -2.979794E+03
       332  24 -1.777325E+06 -5.276690E+05 -2.890944E+05 -6.493211E+05 -1.907188E+05 -5.725606E+04
       332  25 -2.440796E+06 -5.339362E+05 -2.124408E+05 -9.022196E+05 -5.561642E+04  3.127843E+04
       332  26 -2.452821E+06 -6.426176E+05 -3.000710E+05 -9.580314E+05 -1.544982E+05 -1.127853E+04
       332  27 -2.527219E+06 -9.418908E+05 -5.102681E+05 -9.900319E+05 -2.444856E+05 -7.740570E+04
       333   1 -1.308885E+05 -3.686158E+04  4.701261E+03  2.966107E+04  1.162020E+05  1.184528E+04
       333   2 -6.233821E+04 -1.924861E+05 -7.578987E+04 -1.067119E+04  8.553983E+04  3.673107E+04
       333   3  5.227771E+04 -1.811119E+05 -9.450776E+04 -8.605419E+04  5.490040E+04  3.808855E+04
       333   4  7.608443E+05  1.842371E+05  2.201983E+05 -5.984786E+04  1.515743E+05  1.187004E+04
       333   5  7.359421E+05  2.355553E+03  1.007872E+05 -4.222752E+04  9.826005E+04  3.673557E+04
       333   6  7.609536E+05 -8.727643E+03  5.880670E+04 -5.964995E+04  4.497509E+04  3.808065E+04
       333   7  1.653324E+06  4.053087E+05  4.356475E+05 -1.494859E+05  1.869971E+05  1.188460E+04
       333   8  1.534820E+06  1.971581E+05  2.773261E+05 -7.382501E+04  1.109964E+05  3.673877E+04
       333   9  1.470102E+06  1.636261E+05  2.120921E+05 -3.321523E+04  3.503859E+04  3.807191E+04
       333  10 -1.309030E+05 -3.686536E+04  4.675618E+03  2.965996E+04  1.462097E-09 -1.137293E-09
       333  11 -6.234643E+04 -1.924895E+05 -7.580616E+04 -1.067372E+04 -1.824781E-09  6.839019E-10
       333  12  5.227408E+04 -1.811143E+05 -9.451615E+04 -8.605587E+04 -2.843589E-09 -6.094900E-10
       333  13  7.608196E+05  1.842308E+05  2.201549E+05 -5.984931E+04  8.056089E-10  8.627618E-10
       333  14  7.359314E+05  2.351515E+03  1.007665E+05 -4.223042E+04 -3.178936E-10 -3.869185E-11
       333  15  7.609511E+05 -8.729743E+03  5.880017E+04 -5.965133E+04  3.285554E-10 -7.685690E-10
       333  16  1.653286E+06  4.052992E+05  4.355817E+05 -1.494877E+05 -1.656534E-10  6.993049E-10
       333  17  1.534806E+06  1.971534E+05  2.773005E+05 -7.382829E+04  1.656224E-09  3.605083E-11
       333  18  1.470101E+06  1.636243E+05  2.120871E+05 -3.321631E+04  3.170635E-09  1.734631E-09
       333  19 -1.308885E+05 -3.686158E+04  4.701261E+03  2.966107E+04 -1.162020E+05 -1.184528E+04
       333  20 -6.233821E+04 -1.924861E+05 -7.578987E+04 -1.067119E+04 -8.553983E+04 -3.673107E+04
       333  21  5.227771E+04 -1.811119E+05 -9.450776E+04 -8.605419E+04 -5.490040E+04 -3.808855E+04
       333  22  7.608443E+05  1.842371E+05  2.201983E+05 -5.984786E+04 -1.515743E+05 -1.187004E+04
       333  23  7.359421E+05  2.355553E+03  1.007872E+05 -4.222752E+04 -9.826005E+04 -3.673557E+04
       333  24  7.609536E+05 -8.727643E+03  5.880670E+04 -5.964995E+04 -4.497509E+04 -3.808065E+04
       333  25  1.653324E+06  4.053087E+05  4.356475E+05 -1.494859E+05 -1.869971E+05 -1.188460E+04
       333  26  1.534820E+06  1.971581E+05  2.773261E+05 -7.382501E+04 -1.109964E+05 -3.673877E+04
       333  27  1.470102E+06  1.636261E+05  2.120921E+05 -3.321523E+04 -3.503859E+04 -3.807191E+04
       334   1  1.147258E+05 -1.455429E+05 -9.165989E+04 -5.689034E+04  3.994376E+04  3.312092E+04
       334   2  2.033068E+05 -1.329312E+05 -9.275377E+04 -4.148943E+04  2.828516E+04  2.918663E+04
       334   3  2.958183E+05 -1.112697E+05 -8.396196E+04 -6.174667E+04  1.662245E+04  2.419654E+04
       334   4  7.507814E+05  9.256121E+03  4.659045E+04 -5.983805E+04  3.670460E+04  3.311633E+04
       334   5  7.487523E+05 -2.867045E+02  2.530168E+04 -4.200803E+04  2.402010E+04  2.918291E+04
       334   6  7.508187E+05 -6.068630E+02  1.460249E+04 -5.983383E+04  1.133316E+04  2.419404E+04
       334   7  1.387216E+06  1.640284E+05  1.848166E+05 -6.278887E+04  3.346215E+04  3.311178E+04
       334   8  1.294477E+06  1.323382E+05  1.433396E+05 -4.252710E+04  1.975134E+04  2.917919E+04
       334   9  1.206013E+06  1.100423E+05  1.131547E+05 -5.791959E+04  6.040046E+03  2.419151E+04
       334  10  1.147238E+05 -1.455445E+05 -9.166495E+04 -5.689140E+04  7.362788E-10 -5.013486E-10
       334  11  2.033057E+05 -1.329323E+05 -9.275688E+04 -4.149010E+04 -5.441525E-10  8.220579E-11
       334  12  2.958179E+05 -1.112704E+05 -8.396358E+04 -6.174699E+04 -9.512593E-10 -5.915289E-10
       334  13  7.507797E+05  9.254582E+03  4.658586E+04 -5.983903E+04  7.648346E-10  1.147665E-09
       334  14  7.487514E+05 -2.877740E+02  2.529900E+04 -4.200859E+04 -1.219908E-09  4.324858E-10
       334  15  7.508184E+05 -6.075263E+02  1.460114E+04 -5.983406E+04 -4.849139E-10 -8.314649E-10
       334  16  1.387215E+06  1.640269E+05  1.848125E+05 -6.278976E+04 -6.336395E-10  1.105251E-09
       334  17  1.294476E+06  1.323372E+05  1.433372E+05 -4.252756E+04  1.497095E-09  1.407883E-10
       334  18  1.206013E+06  1.100417E+05  1.131536E+05 -5.791970E+04  1.671738E-10 -4.056800E-10
       334  19  1.147258E+05 -1.455429E+05 -9.165989E+04 -5.689034E+04 -3.994376E+04 -3.312092E+04
       334  20  2.033068E+05 -1.329312E+05 -9.275377E+04 -4.148943E+04 -2.828516E+04 -2.918663E+04
       334  21  2.958183E+05 -1.112697E+05 -8.396196E+04 -6.174667E+04 -1.662245E+04 -2.419654E+04
       334  22  7.507814E+05  9.256121E+03  4.659045E+04 -5.983805E+04 -3.670460E+04 -3.311633E+04
       334  23  7.487523E+05 -2.867045E+02  2.530168E+04 -4.200803E+04 -2.402010E+04 -2.918291E+04
       334  24  7.508187E+05 -6.068630E+02  1.460249E+04 -5.983383E+04 -1.133316E+04 -2.419404E+04
       334  25  1.387216E+06  1.640284E+05  1.848166E+05 -6.278887E+04 -3.346215E+04 -3.311178E+04
       334  26  1.294477E+06  1.323382E+05  1.433396E+05 -4.252710E+04 -1.975134E+04 -2.917919E+04
       334  27  1.206013E+06  1.100423E+05  1.131547E+05 -5.791959E+04 -6.040046E+03 -2.419151E+04
       335   1  3.667235E+05 -9.282126E+04 -7.144675E+04 -6.008857E+04  1.403990E+04  2.103853E+04
       335   2  4.565371E+05 -7.140016E+04 -5.701054E+04 -4.228474E+04  1.093401E+04  1.582867E+04
       335   3  5.469284E+05 -4.948432E+04 -4.041990E+04 -6.000363E+04  7.825864E+03  1.057648E+04
       335   4  7.500501E+05  3.226325E+02  1.117814E+04 -5.980527E+04  9.060398E+03  2.103679E+04
       335   5  7.497696E+05 -1.190063E+02  6.356269E+03 -4.204445E+04  5.911751E+03  1.582773E+04
       335   6  7.500674E+05 -5.807657E+01  3.717808E+03 -5.980534E+04  2.761296E+03  1.057638E+04
       335   7  1.133515E+06  9.345688E+04  9.379447E+04 -5.952180E+04  4.077862E+03  2.103504E+04
       335   8  1.043083E+06  7.115650E+04  6.971809E+04 -4.180405E+04  8.871559E+02  1.582678E+04
       335   9  9.532451E+05  4.936545E+04  4.785315E+04 -5.960699E+04 -2.304906E+03  1.057627E+04
       335  10  3.667232E+05 -9.282179E+04 -7.144795E+04 -6.008881E+04 -1.059652E-09 -3.978511E-10
       335  11  4.565369E+05 -7.140046E+04 -5.701124E+04 -4.228488E+04 -1.051897E-09  2.319884E-11
       335  12  5.469283E+05 -4.948446E+04 -4.042023E+04 -6.000369E+04  4.638585E-10 -9.968348E-11
       335  13  7.500499E+05  3.221351E+02  1.117715E+04 -5.980543E+04  8.573832E-10 -2.882949E-10
       335  14  7.497695E+05 -1.192848E+02  6.355733E+03 -4.204453E+04 -3.607256E-10  2.359545E-10
       335  15  7.500673E+05 -5.819878E+01  3.717584E+03 -5.980537E+04 -1.219385E-09 -2.951266E-11
       335  16  1.133515E+06  9.345640E+04  9.379361E+04 -5.952187E+04  4.540464E-10  4.657719E-11
       335  17  1.043083E+06  7.115623E+04  6.971762E+04 -4.180407E+04 -6.898248E-10  2.989440E-10
       335  18  9.532450E+05  4.936533E+04  4.785293E+04 -5.960697E+04 -5.344069E-10  5.637958E-11
       335  19  3.667235E+05 -9.282126E+04 -7.144675E+04 -6.008857E+04 -1.403990E+04 -2.103853E+04
       335  20  4.565371E+05 -7.140016E+04 -5.701054E+04 -4.228474E+04 -1.093401E+04 -1.582867E+04
       335  21  5.469284E+05 -4.948432E+04 -4.041990E+04 -6.000363E+04 -7.825864E+03 -1.057648E+04
       335  22  7.500501E+05  3.226325E+02  1.117814E+04 -5.980527E+04 -9.060398E+03 -2.103679E+04
       335  23  7.497696E+05 -1.190063E+02  6.356269E+03 -4.204445E+04 -5.911751E+03 -1.582773E+04
       335  24  7.500674E+05 -5.807657E+01  3.717808E+03 -5.980534E+04 -2.761296E+03 -1.057638E+04
       335  25  1.133515E+06  9.345688E+04  9.379447E+04 -5.952180E+04 -4.077862E+03 -2.103504E+04
       335  26  1.043083E+06  7.115650E+04  6.971809E+04 -4.180405E+04 -8.871559E+02 -1.582678E+04
       335  27  9.532451E+05  4.936545E+04  4.785315E+04 -5.960699E+04  2.304906E+03 -1.057627E+04
       336   1  6.182546E+05 -3.198173E+04 -2.533796E+04 -5.989780E+04  7.213608E+03  7.511199E+03
       336   2  7.081251E+05 -1.018267E+04 -7.247834E+03 -4.212642E+04  6.335688E+03  2.256084E+03
       336   3  7.981298E+05  1.164355E+04  1.142058E+04 -5.981157E+04  5.457363E+03 -3.000310E+03
       336   4  7.499721E+05 -1.636847E+01  2.871464E+03 -5.979084E+04  2.165555E+03  7.511384E+03
       336   5  7.499107E+05 -2.683899E+01  1.779702E+03 -4.206266E+04  1.285863E+03  2.256372E+03
       336   6  7.499747E+05 -9.776340E+00  1.267135E+03 -5.979087E+04  4.058912E+02 -2.999890E+03
       336   7  8.817060E+05  3.194787E+04  3.107998E+04 -5.968386E+04 -2.883553E+03  7.511568E+03
       336   8  7.916980E+05  1.012889E+04  1.080723E+04 -4.199889E+04 -3.764296E+03  2.256659E+03
       336   9  7.018218E+05 -1.166323E+04 -8.886341E+03 -5.977017E+04 -4.645195E+03 -2.999470E+03
       336  10  6.182546E+05 -3.198180E+04 -2.533817E+04 -5.989784E+04 -7.804825E-10  8.099342E-11
       336  11  7.081250E+05 -1.018269E+04 -7.247919E+03 -4.212643E+04 -7.589975E-10  6.891990E-10
       336  12  7.981298E+05  1.164353E+04  1.142050E+04 -5.981156E+04 -7.193576E-10  2.416484E-11
       336  13  7.499721E+05 -1.643034E+01  2.871349E+03 -5.979086E+04 -1.077309E-09  8.261107E-11
       336  14  7.499107E+05 -2.684491E+01  1.779689E+03 -4.206266E+04 -1.528683E-10  2.507470E-10
       336  15  7.499747E+05 -9.786051E+00  1.267118E+03 -5.979087E+04  2.192486E-10 -8.642434E-11
       336  16  8.817060E+05  3.194781E+04  3.107986E+04 -5.968384E+04  6.027320E-10  1.682649E-10
       336  17  7.916980E+05  1.012888E+04  1.080719E+04 -4.199889E+04 -1.805146E-10  3.327412E-10
       336  18  7.018218E+05 -1.166325E+04 -8.886398E+03 -5.977018E+04  2.407408E-10  2.937997E-10
       336  19  6.182546E+05 -3.198173E+04 -2.533796E+04 -5.989780E+04 -7.213608E+03 -7.511199E+03
       336  20  7.081251E+05 -1.018267E+04 -7.247834E+03 -4.212642E+04 -6.335688E+03 -2.256084E+03
       336  21  7.981298E+05  1.164355E+04  1.142058E+04 -5.981157E+04 -5.457363E+03  3.000310E+03
       336  22  7.499721E+05 -1.636847E+01  2.871464E+03 -5.979084E+04 -2.165555E+03 -7.511384E+03
       336  23  7.499107E+05 -2.683899E+01  1.779702E+03 -4.206266E+04 -1.285863E+03 -2.256372E+03
       336  24  7.499747E+05 -9.776340E+00  1.267135E+03 -5.979087E+04 -4.058912E+02  2.999890E+03
       336  25  8.817060E+05  3.194787E+04  3.107998E+04 -5.968386E+04  2.883553E+03 -7.511568E+03
       336  26  7.916980E+05  1.012889E+04  1.080723E+04 -4.199889E+04  3.764296E+03 -2.256659E+03
       336  27  7.018218E+05 -1.166323E+04 -8.886341E+03 -5.977017E+04  4.645195E+03  2.999470E+03
       337   1  8.695230E+05  2.909305E+04  2.723988E+04 -5.981552E+04  5.237907E+03 -6.060120E+03
       337   2  9.595084E+05  5.090182E+04  4.649947E+04 -4.202392E+04  4.634332E+03 -1.131920E+04
       337   3  1.049606E+06  7.272102E+04  6.615823E+04 -5.972311E+04  4.032018E+03 -1.658025E+04
       337   4  7.499675E+05 -1.112140E+01  1.165554E+03 -5.979868E+04  1.844449E+02 -6.059846E+03
       337   5  7.499093E+05 -3.241937E+01  1.224848E+03 -4.205291E+04 -4.212035E+02 -1.131953E+04
       337   6  7.499562E+05 -4.245301E+01  1.685037E+03 -5.979867E+04 -1.025505E+03 -1.658116E+04
       337   7  6.304255E+05 -2.911623E+04 -2.490953E+04 -5.978183E+04 -4.868058E+03 -6.059572E+03
       337   8  5.403515E+05 -5.096954E+04 -4.405228E+04 -4.208188E+04 -5.475057E+03 -1.131986E+04
       337   9  4.503905E+05 -7.281181E+04 -6.279332E+04 -5.987418E+04 -6.080623E+03 -1.658207E+04
       337  10  8.695230E+05  2.909300E+04  2.723975E+04 -5.981549E+04 -6.778830E-10 -2.915825E-10
       337  11  9.595084E+05  5.090168E+04  4.649919E+04 -4.202388E+04 -7.096333E-10 -7.708890E-12
       337  12  1.049606E+06  7.272072E+04  6.615768E+04 -5.972306E+04 -4.133060E-10 -3.278289E-10
       337  13  7.499675E+05 -1.116086E+01  1.165485E+03 -5.979868E+04  1.071993E-09  2.255178E-11
       337  14  7.499093E+05 -3.255706E+01  1.224606E+03 -4.205291E+04 -5.132931E-11  1.020269E-10
       337  15  7.499561E+05 -4.274863E+01  1.684519E+03 -5.979868E+04 -6.418815E-10 -2.621567E-10
       337  16  6.304254E+05 -2.911627E+04 -2.490965E+04 -5.978186E+04  4.697522E-10  1.952268E-10
       337  17  5.403514E+05 -5.096969E+04 -4.405258E+04 -4.208193E+04 -6.472133E-10 -3.089956E-11
       337  18  4.503904E+05 -7.281211E+04 -6.279391E+04 -5.987426E+04  1.352987E-10 -4.201666E-11
       337  19  8.695230E+05  2.909305E+04  2.723988E+04 -5.981552E+04 -5.237907E+03  6.060120E+03
       337  20  9.595084E+05  5.090182E+04  4.649947E+04 -4.202392E+04 -4.634332E+03  1.131920E+04
       337  21  1.049606E+06  7.272102E+04  6.615823E+04 -5.972311E+04 -4.032018E+03  1.658025E+04
       337  22  7.499675E+05 -1.112140E+01  1.165554E+03 -5.979868E+04 -1.844449E+02  6.059846E+03
       337  23  7.499093E+05 -3.241937E+01  1.224848E+03 -4.205291E+04  4.212035E+02  1.131953E+04
       337  24  7.499562E+05 -4.245301E+01  1.685037E+03 -5.979867E+04  1.025505E+03  1.658116E+04
       337  25  6.304255E+05 -2.911623E+04 -2.490953E+04 -5.978183E+04  4.868058E+03  6.059572E+03
       337  26  5.403515E+05 -5.096954E+04 -4.405228E+04 -4.208188E+04  5.475057E+03  1.131986E+04
       337  27  4.503905E+05 -7.281181E+04 -6.279332E+04 -5.987418E+04  6.080623E+03  1.658207E+04
       338   1  1.121254E+06  9.018802E+04  8.252798E+04 -5.968912E+04  3.713232E+03 -1.965149E+04
       338   2  1.211466E+06  1.120526E+05  1.031529E+05 -4.178843E+04  1.964048E+03 -2.491304E+04
       338   3  1.302078E+06  1.341782E+05  1.250017E+05 -5.951918E+04  2.175821E+02 -3.012705E+04
       338   4  7.500080E+05 -6.836097E+01  2.097660E+03 -5.983010E+04 -1.367209E+03 -1.965298E+04
       338   5  7.498021E+05 -1.202050E+02  3.437154E+03 -4.201357E+04 -3.069834E+03 -2.491584E+04
       338   6  7.499824E+05  8.182362E+01  5.969496E+03 -5.983010E+04 -4.769494E+03 -3.013111E+04
       338   7  3.788910E+05 -9.033383E+04 -7.834075E+04 -5.997099E+04 -6.444656E+03 -1.965448E+04
       338   8  2.883381E+05 -1.123071E+05 -9.629110E+04 -4.223854E+04 -8.100029E+03 -2.491864E+04
       338   9  1.981728E+05 -1.340345E+05 -1.130805E+05 -6.014075E+04 -9.752202E+03 -3.013517E+04
       338  10  1.121254E+06  9.018760E+04  8.252722E+04 -5.968906E+04 -1.289576E-09  3.025348E-10
       338  11  1.211466E+06  1.120520E+05  1.031517E+05 -4.178839E+04 -1.875683E-09  1.828369E-10
       338  12  1.302078E+06  1.341772E+05  1.250000E+05 -5.951917E+04  1.058240E-09  1.343544E-12
       338  13  7.500079E+05 -6.877638E+01  2.096931E+03 -5.983012E+04  4.796993E-10  1.245113E-10
       338  14  7.498019E+05 -1.208744E+02  3.435970E+03 -4.201363E+04  6.539984E-11  7.755877E-11
       338  15  7.499821E+05  8.084225E+01  5.967747E+03 -5.983021E+04  8.396689E-10 -5.141101E-10
       338  16  3.788909E+05 -9.033425E+04 -7.834155E+04 -5.997109E+04  9.586147E-10 -2.444772E-10
       338  17  2.883379E+05 -1.123077E+05 -9.629239E+04 -4.223870E+04 -3.422052E-10 -2.989258E-10
       338  18  1.981724E+05 -1.340355E+05 -1.130824E+05 -6.014099E+04 -8.326894E-10 -3.180640E-10
       338  19  1.121254E+06  9.018802E+04  8.252798E+04 -5.968912E+04 -3.713232E+03  1.965149E+04
       338  20  1.211466E+06  1.120526E+05  1.031529E+05 -4.178843E+04 -1.964048E+03  2.491304E+04
       338  21  1.302078E+06  1.341782E+05  1.250017E+05 -5.951918E+04 -2.175821E+02  3.012705E+04
       338  22  7.500080E+05 -6.836097E+01  2.097660E+03 -5.983010E+04  1.367209E+03  1.965298E+04
       338  23  7.498021E+05 -1.202050E+02  3.437154E+03 -4.201357E+04  3.069834E+03  2.491584E+04
       338  24  7.499824E+05  8.182362E+01  5.969496E+03 -5.983010E+04  4.769494E+03  3.013111E+04
       338  25  3.788910E+05 -9.033383E+04 -7.834075E+04 -5.997099E+04  6.444656E+03  1.965448E+04
       338  26  2.883381E+05 -1.123071E+05 -9.629110E+04 -4.223854E+04  8.100029E+03  2.491864E+04
       338  27  1.981728E+05 -1.340345E+05 -1.130805E+05 -6.014075E+04  9.752202E+03  3.013517E+04
       339   1  1.374524E+06  1.512630E+05  1.428030E+05 -5.864422E+04 -6.226130E+02 -3.331101E+04
       339   2  1.464315E+06  1.734955E+05  1.680626E+05 -4.190359E+04 -8.561592E+03 -3.826611E+04
       339   3  1.556653E+06  2.008062E+05  1.998048E+05 -6.097666E+04 -1.649884E+04 -4.197118E+04
       339   4  7.503961E+05 -4.168878E+02  7.780221E+03 -5.986960E+04 -5.980399E+03 -3.331630E+04
       339   5  7.492088E+05 -2.713287E+02  1.342672E+04 -4.196360E+04 -1.271033E+04 -3.827256E+04
       339   6  7.503531E+05  4.746702E+03  2.472228E+04 -5.987363E+04 -1.943737E+04 -4.197811E+04
       339   7  1.266329E+05 -1.521225E+05 -1.272655E+05 -6.109377E+04 -1.133288E+04 -3.332156E+04
       339   8  3.458168E+04 -1.740718E+05 -1.412394E+05 -4.202361E+04 -1.685436E+04 -3.827900E+04
       339   9 -5.533817E+04 -1.913558E+05 -1.503990E+05 -5.877216E+04 -2.237213E+04 -4.198506E+04
       339  10  1.374524E+06  1.512618E+05  1.428009E+05 -5.864424E+04  5.987974E-10 -6.026529E-10
       339  11  1.464314E+06  1.734939E+05  1.680597E+05 -4.190386E+04  1.434922E-10 -8.863010E-10
       339  12  1.556652E+06  2.008042E+05  1.998010E+05 -6.097721E+04  2.232717E-09 -1.555625E-09
       339  13  7.503957E+05 -4.180898E+02  7.778067E+03 -5.986976E+04  5.559227E-10 -7.066864E-10
       339  14  7.492082E+05 -2.729455E+02  1.342366E+04 -4.196399E+04 -4.696502E-10 -1.148695E-09
       339  15  7.503523E+05  4.744708E+03  2.471826E+04 -5.987428E+04  7.535865E-10 -1.389293E-09
       339  16  1.266325E+05 -1.521237E+05 -1.272678E+05 -6.109407E+04  6.065300E-10 -5.618793E-10
       339  17  3.458098E+04 -1.740735E+05 -1.412427E+05 -4.202413E+04 -8.292976E-10  1.297067E-09
       339  18 -5.533918E+04 -1.913578E+05 -1.504033E+05 -5.877292E+04 -1.407585E-09 -3.851360E-10
       339  19  1.374524E+06  1.512630E+05  1.428030E+05 -5.864422E+04  6.226130E+02  3.331101E+04
       339  20  1.464315E+06  1.734955E+05  1.680626E+05 -4.190359E+04  8.561592E+03  3.826611E+04
       339  21  1.556653E+06  2.008062E+05  1.998048E+05 -6.097666E+04  1.649884E+04  4.197118E+04
       339  22  7.503961E+05 -4.168878E+02  7.780221E+03 -5.986960E+04  5.980399E+03  3.331630E+04
       339  23  7.492088E+05 -2.713287E+02  1.342672E+04 -4.196360E+04  1.271033E+04  3.827256E+04
       339  24  7.503531E+05  4.746702E+03  2.472228E+04 -5.987363E+04  1.943737E+04  4.197811E+04
       339  25  1.266329E+05 -1.521225E+05 -1.272655E+05 -6.109377E+04  1.133288E+04  3.332156E+04
       339  26  3.458168E+04 -1.740718E+05 -1.412394E+05 -4.202361E+04  1.685436E+04  3.827900E+04
       339  27 -5.533817E+04 -1.913558E+05 -1.503990E+05 -5.877216E+04  2.237213E+04  4.198506E+04
       340   1  1.635335E+06  2.089129E+05  2.212530E+05 -4.506090E+04 -1.294186E+04 -4.728872E+04
       340   2  1.711933E+06  2.374625E+05  2.675687E+05 -5.823072E+04 -6.805466E+04 -4.475075E+04
       340   3  1.819912E+06  3.612506E+05  3.735970E+05 -1.064379E+05 -1.232294E+05 -1.433263E+04
       340   4  7.557614E+05 -4.810291E+03  3.120387E+04 -5.965909E+04 -2.382306E+04 -4.730571E+04
       340   5  7.423356E+05  1.047841E+03  5.343643E+04 -4.221926E+04 -5.207544E+04 -4.473444E+04
       340   6  7.556730E+05  9.756538E+04  1.168019E+05 -5.981402E+04 -8.037960E+04 -1.426890E+04
       340   7 -1.230869E+05 -2.185836E+05 -1.588905E+05 -7.423654E+04 -3.468908E+04 -4.732221E+04
       340   8 -2.263844E+05 -2.354288E+05 -1.607526E+05 -2.623333E+04 -3.612078E+04 -4.471730E+04
       340   9 -3.075246E+05 -1.661931E+05 -1.400661E+05 -1.327051E+04 -3.760270E+04 -1.419869E+04
       340  10  1.635334E+06  2.089105E+05  2.212485E+05 -4.506139E+04  1.413889E-09 -2.579704E-09
       340  11  1.711927E+06  2.374591E+05  2.675562E+05 -5.823317E+04 -1.614637E-09 -4.923003E-09
       340  12  1.819896E+06  3.612463E+05  3.735682E+05 -1.064393E+05 -1.971941E-09 -1.356521E-09
       340  13  7.557601E+05 -4.812847E+03  3.119860E+04 -5.966000E+04 -2.307448E-10 -6.137901E-09
       340  14  7.423322E+05  1.044964E+03  5.342758E+04 -4.222114E+04  2.113969E-09  2.241186E-09
       340  15  7.556660E+05  9.756343E+04  1.167894E+05 -5.981495E+04  9.296944E-11 -3.959531E-10
       340  16 -1.230888E+05 -2.185863E+05 -1.588970E+05 -7.423786E+04 -8.269880E-10 -1.503958E-09
       340  17 -2.263863E+05 -2.354313E+05 -1.607588E+05 -2.623463E+04 -1.443123E-10  2.077438E-09
       340  18 -3.075262E+05 -1.661937E+05 -1.400692E+05 -1.327094E+04  1.727016E-09 -1.900526E-09
       340  19  1.635335E+06  2.089129E+05  2.212530E+05 -4.506090E+04  1.294186E+04  4.728872E+04
       340  20  1.711933E+06  2.374625E+05  2.675687E+05 -5.823072E+04  6.805466E+04  4.475075E+04
       340  21  1.819912E+06  3.612506E+05  3.735970E+05 -1.064379E+05  1.232294E+05  1.433263E+04
       340  22  7.557614E+05 -4.810291E+03  3.120387E+04 -5.965909E+04  2.382306E+04  4.730571E+04
       340  23  7.423356E+05  1.047841E+03  5.343643E+04 -4.221926E+04  5.207544E+04  4.473444E+04
       340  24  7.556730E+05  9.756538E+04  1.168019E+05 -5.981402E+04  8.037960E+04  1.426890E+04
       340  25 -1.230869E+05 -2.185836E+05 -1.588905E+05 -7.423654E+04  3.468908E+04  4.732221E+04
       340  26 -2.263844E+05 -2.354288E+05 -1.607526E+05 -2.623333E+04  3.612078E+04  4.471730E+04
       340  27 -3.075246E+05 -1.661931E+05 -1.400661E+05 -1.327051E+04  3.760270E+04  1.419869E+04
       341   1  7.878770E+05  2.968732E+06  7.819159E+05 -5.691076E+05  3.217806E+04  1.425571E+05
       341   2  5.176229E+05  2.147120E+06  5.057864E+05 -3.925309E+05  9.123744E+04  4.469960E+04
       341   3  3.198103E+05  1.356553E+06  3.111776E+05 -5.292276E+05  6.829137E+04 -5.320866E+04
       341   4  6.202749E+04  4.446394E+04  7.247889E+04 -5.338508E+05  3.243800E+04  4.630127E+04
       341   5  1.996744E+03  3.653124E+04  3.593352E+04 -3.772770E+05  9.131308E+04  2.756376E+04
       341   6  8.880841E+02  4.546811E+04  2.624676E+04 -5.340163E+05  6.806372E+04  8.646972E+03
       341   7 -6.644402E+05 -2.871998E+06 -6.375401E+05 -4.987519E+05  3.268782E+04 -4.950457E+04
       341   8 -5.139303E+05 -2.069912E+06 -4.341968E+05 -3.620711E+05  9.138805E+04  1.048528E+04
       341   9 -3.181458E+05 -1.263999E+06 -2.587725E+05 -5.387927E+05  6.783482E+04  7.037388E+04
       341  10  7.878704E+05  2.968710E+06  7.818759E+05 -5.691113E+05  1.675930E-10  2.168125E-09
       341  11  5.176134E+05  2.147116E+06  5.057671E+05 -3.925342E+05 -3.396286E-10  9.339102E-10
       341  12  3.198046E+05  1.356548E+06  3.111636E+05 -5.292247E+05  8.803593E-11 -5.423126E-10
       341  13  6.202579E+04  4.446136E+04  7.247288E+04 -5.338520E+05  1.757731E-09 -2.838592E-12
       341  14  1.987584E+03  3.652818E+04  3.591641E+04 -3.772791E+05  8.616648E-11  2.668775E-09
       341  15  8.830886E+02  4.546678E+04  2.623791E+04 -5.340168E+05 -4.056627E-10 -5.177230E-09
       341  16 -6.644420E+05 -2.872000E+06 -6.375467E+05 -4.987506E+05  4.410994E-10  4.888495E-10
       341  17 -5.139393E+05 -2.069914E+06 -4.342127E+05 -3.620719E+05  2.700386E-09  2.014947E-09
       341  18 -3.181521E+05 -1.264005E+06 -2.587905E+05 -5.387965E+05 -1.520582E-09 -1.280170E-09
       341  19  7.878770E+05  2.968732E+06  7.819159E+05 -5.691076E+05 -3.217806E+04 -1.425571E+05
       341  20  5.176229E+05  2.147120E+06  5.057864E+05 -3.925309E+05 -9.123744E+04 -4.469960E+04
       341  21  3.198103E+05  1.356553E+06  3.111776E+05 -5.292276E+05 -6.829137E+04  5.320866E+04
       341  22  6.202749E+04  4.446394E+04  7.247889E+04 -5.338508E+05 -3.243800E+04 -4.630127E+04
       341  23  1.996744E+03  3.653124E+04  3.593352E+04 -3.772770E+05 -9.131308E+04 -2.756376E+04
       341  24  8.880841E+02  4.546811E+04  2.624676E+04 -5.340163E+05 -6.806372E+04 -8.646972E+03
       341  25 -6.644402E+05 -2.871998E+06 -6.375401E+05 -4.987519E+05 -3.268782E+04  4.950457E+04
       341  26 -5.139303E+05 -2.069912E+06 -4.341968E+05 -3.620711E+05 -9.138805E+04 -1.048528E+04
       341  27 -3.181458E+05 -1.263999E+06 -2.587725E+05 -5.387927E+05 -6.783482E+04 -7.037388E+04
       342   1  1.695208E+05  7.119916E+05  1.707477E+05 -5.388214E+05  3.401381E+04 -3.529445E+04
       342   2 -3.035492E+04 -9.358656E+04 -4.309596E+03 -3.757419E+05 -7.026073E+03 -4.761191E+04
       342   3 -2.193042E+05 -8.965807E+05 -1.692605E+05 -5.295167E+05 -4.774959E+04 -5.990607E+04
       342   4  6.415901E+03  4.244967E+04  2.460235E+04 -5.347603E+05  3.385603E+04  4.317021E+03
       342   5  2.496441E+03  4.140489E+04  2.492944E+04 -3.763316E+05 -7.178290E+03 -8.325497E+03
       342   6  9.596478E+03  4.238510E+04  3.560805E+04 -5.347477E+05 -4.789834E+04 -2.096005E+04
       342   7 -1.567180E+05 -6.266692E+05 -1.215641E+05 -5.307031E+05  3.369866E+04  4.388635E+04
       342   8  3.534743E+04  1.764168E+05  5.417319E+04 -3.769215E+05 -7.330562E+03  3.096935E+04
       342   9  2.384394E+05  9.821810E+05  2.404292E+05 -5.399855E+05 -4.804762E+04  1.804421E+04
       342  10  1.695193E+05  7.119899E+05  1.707432E+05 -5.388204E+05 -1.512163E-10  5.589826E-09
       342  11 -3.035558E+04 -9.358901E+04 -4.313951E+03 -3.757422E+05  2.615209E-09  2.349527E-09
       342  12 -2.193076E+05 -8.965852E+05 -1.692715E+05 -5.295190E+05 -1.636610E-09 -2.426660E-09
       342  13  6.414665E+03  4.244934E+04  2.460016E+04 -5.347604E+05 -4.571842E-10  1.007614E-10
       342  14  2.496367E+03  4.140480E+04  2.492921E+04 -3.763317E+05  3.811246E-09  3.588745E-09
       342  15  9.593895E+03  4.238401E+04  3.560291E+04 -5.347485E+05  2.512625E-09 -5.385330E-09
       342  16 -1.567197E+05 -6.266716E+05 -1.215699E+05 -5.307043E+05 -5.952137E-10 -2.542131E-10
       342  17  3.534711E+04  1.764157E+05  5.417129E+04 -3.769213E+05 -5.708068E-10  1.260853E-09
       342  18  2.384368E+05  9.821800E+05  2.404243E+05 -5.399848E+05 -1.340994E-09  7.942781E-10
       342  19  1.695208E+05  7.119916E+05  1.707477E+05 -5.388214E+05 -3.401381E+04  3.529445E+04
       342  20 -3.035492E+04 -9.358656E+04 -4.309596E+03 -3.757419E+05  7.026073E+03  4.761191E+04
       342  21 -2.193042E+05 -8.965807E+05 -1.692605E+05 -5.295167E+05  4.774959E+04  5.990607E+04
       342  22  6.415901E+03  4.244967E+04  2.460235E+04 -5.347603E+05 -3.385603E+04 -4.317021E+03
       342  23  2.496441E+03  4.140489E+04  2.492944E+04 -3.763316E+05  7.178290E+03  8.325497E+03
       342  24  9.596478E+03  4.238510E+04  3.560805E+04 -5.347477E+05  4.789834E+04  2.096005E+04
       342  25 -1.567180E+05 -6.266692E+05 -1.215641E+05 -5.307031E+05 -3.369866E+04 -4.388635E+04
       342  26  3.534743E+04  1.764168E+05  5.417319E+04 -3.769215E+05  7.330562E+03 -3.096935E+04
       342  27  2.384394E+05  9.821810E+05  2.404292E+05 -5.399855E+05  4.804762E+04 -1.804421E+04
       343   1 -3.871175E+05 -1.530188E+06 -3.007649E+05 -5.471084E+05 -8.239536E+04 -9.047907E+04
       343   2 -5.793935E+05 -2.344037E+06 -4.612169E+05 -3.511501E+05 -1.039873E+05 -4.119865E+04
       343   3 -6.694637E+05 -3.137834E+06 -6.282971E+05 -4.682769E+05 -3.644447E+04  8.188047E+03
       343   4 -2.401504E+03  4.916816E+04  4.267675E+04 -5.339708E+05 -8.261770E+04 -2.736368E+04
       343   5  2.477919E+03  3.152537E+04  6.845232E+04 -3.773321E+05 -1.038936E+05 -6.350455E+04
       343   6  1.242220E+05  4.803661E+04  1.469100E+05 -5.336580E+05 -3.619394E+04 -9.947719E+04
       343   7  3.821520E+05  1.630876E+06  3.859843E+05 -5.207962E+05 -8.283702E+04  3.591054E+04
       343   8  5.839683E+05  2.412364E+06  5.977701E+05 -4.036104E+05 -1.037982E+05 -8.589477E+04
       343   9  9.171808E+05  3.243234E+06  9.214270E+05 -5.993681E+05 -3.592150E+04 -2.076945E+05
       343  10 -3.871270E+05 -1.530198E+06 -3.007931E+05 -5.471144E+05 -4.826567E-10  5.053041E-09
       343  11 -5.794056E+05 -2.344042E+06 -4.612405E+05 -3.511536E+05  2.196737E-09  3.197776E-09
       343  12 -6.694652E+05 -3.137835E+06 -6.282997E+05 -4.682766E+05  6.205654E-10 -6.366398E-10
       343  13 -2.409038E+03  4.916552E+04  4.266251E+04 -5.339726E+05 -2.819255E-09 -7.654359E-12
       343  14  2.465240E+03  3.151814E+04  6.842444E+04 -3.773374E+05  2.811004E-09  2.489679E-09
       343  15  1.242179E+05  4.802563E+04  1.468890E+05 -5.336609E+05  3.581231E-10 -2.385660E-09
       343  16  3.821443E+05  1.630873E+06  3.859690E+05 -5.207939E+05  3.526606E-10 -4.137520E-10
       343  17  5.839547E+05  2.412353E+06  5.977360E+05 -4.036176E+05  2.150086E-09 -1.020267E-09
       343  18  9.171679E+05  3.243187E+06  9.213439E+05 -5.993741E+05  1.306150E-10 -1.099882E-10
       343  19 -3.871175E+05 -1.530188E+06 -3.007649E+05 -5.471084E+05  8.239536E+04  9.047907E+04
       343  20 -5.793935E+05 -2.344037E+06 -4.612169E+05 -3.511501E+05  1.039873E+05  4.119865E+04
       343  21 -6.694637E+05 -3.137834E+06 -6.282971E+05 -4.682769E+05  3.644447E+04 -8.188047E+03
       343  22 -2.401504E+03  4.916816E+04  4.267675E+04 -5.339708E+05  8.261770E+04  2.736368E+04
       343  23  2.477919E+03  3.152537E+04  6.845232E+04 -3.773321E+05  1.038936E+05  6.350455E+04
       343  24  1.242220E+05  4.803661E+04  1.469100E+05 -5.336580E+05  3.619394E+04  9.947719E+04
       343  25  3.821520E+05  1.630876E+06  3.859843E+05 -5.207962E+05  8.283702E+04 -3.591054E+04
       343  26  5.839683E+05  2.412364E+06  5.977701E+05 -4.036104E+05  1.037982E+05  8.589477E+04
       343  27  9.171808E+05  3.243234E+06  9.214270E+05 -5.993681E+05  3.592150E+04  2.076945E+05
       344   1 -1.805838E+06 -7.279773E+05 -4.074484E+05 -7.111778E+05 -1.836632E+05 -5.576269E+04
       344   2 -1.729729E+06 -5.056125E+05 -2.473697E+05 -6.791026E+05 -1.157820E+05 -6.035149E+02
       344   3 -1.693414E+06 -4.226049E+05 -1.786173E+05 -6.362297E+05 -3.960129E+04  3.256979E+04
       344   4 -1.085022E+06 -3.645359E+05 -2.014926E+05 -4.192787E+05 -1.340595E+05 -3.712799E+04
       344   5 -1.056887E+06 -2.191796E+05 -9.139446E+04 -4.542213E+05 -9.571461E+04  6.933489E+03
       344   6 -1.062629E+06 -2.072491E+05 -4.911131E+04 -4.783875E+05 -4.908564E+04  2.900031E+04
       344   7 -3.636618E+05 -9.193400E+02  4.428636E+03 -1.270260E+05 -8.439223E+04 -1.845073E+04
       344   8 -3.835767E+05  6.733455E+04  6.455350E+04 -2.290993E+05 -7.562355E+04  1.448250E+04
       344   9 -4.314362E+05  8.126502E+03  8.037455E+04 -3.204028E+05 -5.858039E+04  2.542754E+04
       344  10 -1.805875E+06 -7.279897E+05 -4.075179E+05 -7.111860E+05  1.112534E-10 -1.946445E-11
       344  11 -1.729743E+06 -5.056161E+05 -2.473949E+05 -6.791026E+05  4.783779E-09  2.034257E-09
       344  12 -1.693416E+06 -4.226065E+05 -1.786223E+05 -6.362287E+05  6.267502E-09  9.903662E-10
       344  13 -1.085041E+06 -3.645423E+05 -2.015290E+05 -4.192827E+05  2.716685E-09  7.299518E-10
       344  14 -1.056897E+06 -2.191821E+05 -9.141179E+04 -4.542208E+05  6.951607E-09  1.806840E-09
       344  15 -1.062631E+06 -2.072507E+05 -4.911742E+04 -4.783863E+05  2.872915E-09 -6.831109E-10
       344  16 -3.636695E+05 -9.216193E+02  4.414603E+03 -1.270273E+05  5.346668E-09  1.405469E-09
       344  17 -3.835829E+05  6.733279E+04  6.454235E+04 -2.290984E+05  7.945801E-09  1.475716E-09
       344  18 -4.314400E+05  8.124887E+03  8.036689E+04 -3.204016E+05  7.896651E-10  8.585905E-10
       344  19 -1.805838E+06 -7.279773E+05 -4.074484E+05 -7.111778E+05  1.836632E+05  5.576269E+04
       344  20 -1.729729E+06 -5.056125E+05 -2.473697E+05 -6.791026E+05  1.157820E+05  6.035149E+02
       344  21 -1.693414E+06 -4.226049E+05 -1.786173E+05 -6.362297E+05  3.960129E+04 -3.256979E+04
       344  22 -1.085022E+06 -3.645359E+05 -2.014926E+05 -4.192787E+05  1.340595E+05  3.712799E+04
       344  23 -1.056887E+06 -2.191796E+05 -9.139446E+04 -4.542213E+05  9.571461E+04 -6.933489E+03
       344  24 -1.062629E+06 -2.072491E+05 -4.911131E+04 -4.783875E+05  4.908564E+04 -2.900031E+04
       344  25 -3.636618E+05 -9.193400E+02  4.428636E+03 -1.270260E+05  8.439223E+04  1.845073E+04
       344  26 -3.835767E+05  6.733455E+04  6.455350E+04 -2.290993E+05  7.562355E+04 -1.448250E+04
       344  27 -4.314362E+05  8.126502E+03  8.037455E+04 -3.204028E+05  5.858039E+04 -2.542754E+04
       345   1 -1.614786E+06 -4.211863E+05 -1.548237E+05 -6.299110E+05 -3.704478E+04  2.900893E+04
       345   2 -1.538019E+06 -3.743254E+05 -1.179407E+05 -5.968959E+05 -2.355536E+04  2.918888E+04
       345   3 -1.447425E+06 -3.503531E+05 -9.135802E+04 -5.828014E+05 -9.542356E+03  2.797365E+04
       345   4 -1.056404E+06 -2.141193E+05 -3.767576E+04 -4.731277E+05 -4.188734E+04  2.718504E+04
       345   5 -1.063047E+06 -1.997701E+05 -1.989757E+04 -4.648203E+05 -3.026610E+04  2.666458E+04
       345   6 -1.055496E+06 -2.079350E+05 -1.092971E+04 -4.754359E+05 -1.812312E+04  2.474882E+04
       345   7 -4.977061E+05 -7.026275E+03  7.945409E+04 -3.162145E+05 -4.673456E+04  2.535936E+04
       345   8 -5.878431E+05 -2.519530E+04  7.813389E+04 -3.326512E+05 -3.698238E+04  2.413818E+04
       345   9 -6.634063E+05 -6.550338E+04  6.949182E+04 -3.680072E+05 -2.670980E+04  2.152182E+04
       345  10 -1.614788E+06 -4.211875E+05 -1.548279E+05 -6.299102E+05  3.053471E-09 -1.040977E-09
       345  11 -1.538020E+06 -3.743265E+05 -1.179433E+05 -5.968953E+05  1.080890E-10 -1.350076E-11
       345  12 -1.447426E+06 -3.503539E+05 -9.135966E+04 -5.828012E+05 -1.512934E-09 -2.405369E-10
       345  13 -1.056406E+06 -2.141206E+05 -3.768045E+04 -4.731268E+05 -1.735374E-09  1.929843E-09
       345  14 -1.063048E+06 -1.997711E+05 -1.990063E+04 -4.648197E+05 -6.343581E-10 -1.733344E-09
       345  15 -1.055497E+06 -2.079357E+05 -1.093148E+04 -4.754356E+05  1.306788E-11  4.731342E-10
       345  16 -4.977087E+05 -7.027551E+03  7.944878E+04 -3.162136E+05 -1.684263E-09 -7.579721E-12
       345  17 -5.878447E+05 -2.519630E+04  7.813022E+04 -3.326504E+05  4.257497E-10 -5.640154E-10
       345  18 -6.634072E+05 -6.550407E+04  6.948961E+04 -3.680067E+05  1.496356E-09  8.820957E-10
       345  19 -1.614786E+06 -4.211863E+05 -1.548237E+05 -6.299110E+05  3.704478E+04 -2.900893E+04
       345  20 -1.538019E+06 -3.743254E+05 -1.179407E+05 -5.968959E+05  2.355536E+04 -2.918888E+04
       345  21 -1.447425E+06 -3.503531E+05 -9.135802E+04 -5.828014E+05  9.542356E+03 -2.797365E+04
       345  22 -1.056404E+06 -2.141193E+05 -3.767576E+04 -4.731277E+05  4.188734E+04 -2.718504E+04
       345  23 -1.063047E+06 -1.997701E+05 -1.989757E+04 -4.648203E+05  3.026610E+04 -2.666458E+04
       345  24 -1.055496E+06 -2.079350E+05 -1.092971E+04 -4.754359E+05  1.812312E+04 -2.474882E+04
       345  25 -4.977061E+05 -7.026275E+03  7.945409E+04 -3.162145E+05  4.673456E+04 -2.535936E+04
       345  26 -5.878431E+05 -2.519530E+04  7.813389E+04 -3.326512E+05  3.698238E+04 -2.413818E+04
       345  27 -6.634063E+05 -6.550338E+04  6.949182E+04 -3.680072E+05  2.670980E+04 -2.152182E+04
       346   1 -1.387835E+06 -3.297370E+05 -7.619344E+04 -5.670519E+05 -6.897535E+03  2.474006E+04
       346   2 -1.311540E+06 -2.898376E+05 -5.527330E+04 -5.336435E+05 -2.179102E+03  1.942392E+04
       346   3 -1.218162E+06 -2.676791E+05 -3.618970E+04 -5.202430E+05  2.572976E+03  1.401424E+04
       346   4 -1.055031E+06 -2.082197E+05 -8.234162E+03 -4.751654E+05 -1.519605E+04  2.162224E+04
       346   5 -1.063562E+06 -1.992817E+05 -4.534145E+03 -4.651870E+05 -1.060250E+04  1.626031E+04
       346   6 -1.054993E+06 -2.080595E+05 -2.570839E+03 -4.752185E+05 -5.975676E+03  1.080478E+04
       346   7 -7.221136E+05 -8.669315E+04  5.971975E+04 -3.832334E+05 -2.349935E+04  1.850262E+04
       346   8 -8.155223E+05 -1.087209E+05  4.620188E+04 -3.967054E+05 -1.902949E+04  1.309537E+04
       346   9 -8.917978E+05 -1.484381E+05  3.104658E+04 -4.301833E+05 -1.452668E+04  7.594448E+03
       346  10 -1.387835E+06 -3.297377E+05 -7.619468E+04 -5.670517E+05 -1.203115E-09  4.940672E-10
       346  11 -1.311540E+06 -2.898380E+05 -5.527401E+04 -5.336435E+05 -6.280453E-10  5.632594E-10
       346  12 -1.218162E+06 -2.676793E+05 -3.619008E+04 -5.202431E+05  3.812433E-10  3.596687E-10
       346  13 -1.055032E+06 -2.082203E+05 -8.235474E+03 -4.751651E+05  2.366368E-10 -2.076994E-10
       346  14 -1.063562E+06 -1.992820E+05 -4.534853E+03 -4.651868E+05  2.202600E-11  1.085284E-09
       346  15 -1.054993E+06 -2.080596E+05 -2.571125E+03 -4.752184E+05  8.053519E-11 -1.115034E-10
       346  16 -7.221143E+05 -8.669367E+04  5.971806E+04 -3.832331E+05  5.440443E-10  9.547927E-10
       346  17 -8.155227E+05 -1.087212E+05  4.620087E+04 -3.967052E+05  8.806186E-11  6.322112E-10
       346  18 -8.917980E+05 -1.484382E+05  3.104608E+04 -4.301832E+05 -4.586577E-10  1.435628E-10
       346  19 -1.387835E+06 -3.297370E+05 -7.619344E+04 -5.670519E+05  6.897535E+03 -2.474006E+04
       346  20 -1.311540E+06 -2.898376E+05 -5.527330E+04 -5.336435E+05  2.179102E+03 -1.942392E+04
       346  21 -1.218162E+06 -2.676791E+05 -3.618970E+04 -5.202430E+05 -2.572976E+03 -1.401424E+04
       346  22 -1.055031E+06 -2.082197E+05 -8.234162E+03 -4.751654E+05  1.519605E+04 -2.162224E+04
       346  23 -1.063562E+06 -1.992817E+05 -4.534145E+03 -4.651870E+05  1.060250E+04 -1.626031E+04
       346  24 -1.054993E+06 -2.080595E+05 -2.570839E+03 -4.752185E+05  5.975676E+03 -1.080478E+04
       346  25 -7.221136E+05 -8.669315E+04  5.971975E+04 -3.832334E+05  2.349935E+04 -1.850262E+04
       346  26 -8.155223E+05 -1.087209E+05  4.620188E+04 -3.967054E+05  1.902949E+04 -1.309537E+04
       346  27 -8.917978E+05 -1.484381E+05  3.104658E+04 -4.301833E+05  1.452668E+04 -7.594448E+03
       347   1 -1.159410E+06 -2.461715E+05 -2.310021E+04 -5.040568E+05  4.325042E+03  1.045402E+04
       347   2 -1.083172E+06 -2.064219E+05 -5.267422E+03 -4.705411E+05  7.349385E+03  4.352653E+03
       347   3 -9.895231E+05 -1.841837E+05  1.208406E+04 -4.570508E+05  1.037569E+04 -1.754142E+03
       347   4 -1.054931E+06 -2.080703E+05 -1.989973E+03 -4.752003E+05 -4.209597E+03  7.250193E+03
       347   5 -1.063632E+06 -1.993220E+05 -1.276313E+03 -4.651827E+05 -1.193139E+03  1.145930E+03
       347   6 -1.054931E+06 -2.080848E+05 -1.038332E+03 -4.751940E+05  1.825178E+03 -4.963772E+03
       347   7 -9.504391E+05 -1.699678E+05  1.912027E+04 -4.463390E+05 -1.274585E+04  4.045769E+03
       347   8 -1.044092E+06 -1.922218E+05  2.715114E+03 -4.598240E+05 -9.735988E+03 -2.060913E+03
       347   9 -1.120334E+06 -2.319856E+05 -1.416063E+04 -4.933354E+05 -6.724371E+03 -8.173039E+03
       347  10 -1.159410E+06 -2.461717E+05 -2.310045E+04 -5.040569E+05 -3.789452E-10 -3.322340E-10
       347  11 -1.083172E+06 -2.064220E+05 -5.267559E+03 -4.705411E+05 -1.962097E-09 -2.875649E-10
       347  12 -9.895232E+05 -1.841837E+05  1.208386E+04 -4.570508E+05 -1.133389E-09 -4.068719E-10
       347  13 -1.054931E+06 -2.080704E+05 -1.990105E+03 -4.752003E+05 -5.036365E-10 -1.351692E-11
       347  14 -1.063632E+06 -1.993220E+05 -1.276318E+03 -4.651827E+05  3.995407E-10 -4.881496E-10
       347  15 -1.054931E+06 -2.080849E+05 -1.038385E+03 -4.751940E+05  5.462405E-10  2.300559E-10
       347  16 -9.504393E+05 -1.699678E+05  1.911993E+04 -4.463389E+05  9.119552E-10 -3.802020E-10
       347  17 -1.044092E+06 -1.922219E+05  2.714927E+03 -4.598241E+05  3.282097E-11 -3.122505E-11
       347  18 -1.120334E+06 -2.319856E+05 -1.416084E+04 -4.933354E+05  2.692400E-10  9.381287E-10
       347  19 -1.159410E+06 -2.461715E+05 -2.310021E+04 -5.040568E+05 -4.325042E+03 -1.045402E+04
       347  20 -1.083172E+06 -2.064219E+05 -5.267422E+03 -4.705411E+05 -7.349385E+03 -4.352653E+03
       347  21 -9.895231E+05 -1.841837E+05  1.208406E+04 -4.570508E+05 -1.037569E+04  1.754142E+03
       347  22 -1.054931E+06 -2.080703E+05 -1.989973E+03 -4.752003E+05  4.209597E+03 -7.250193E+03
       347  23 -1.063632E+06 -1.993220E+05 -1.276313E+03 -4.651827E+05  1.193139E+03 -1.145930E+03
       347  24 -1.054931E+06 -2.080848E+05 -1.038332E+03 -4.751940E+05 -1.825178E+03  4.963772E+03
       347  25 -9.504391E+05 -1.699678E+05  1.912027E+04 -4.463390E+05  1.274585E+04 -4.045769E+03
       347  26 -1.044092E+06 -1.922218E+05  2.715114E+03 -4.598240E+05  9.735988E+03  2.060913E+03
       347  27 -1.120334E+06 -2.319856E+05 -1.416063E+04 -4.933354E+05  6.724371E+03  8.173039E+03
       348   1 -9.308529E+05 -1.626341E+05  2.457161E+04 -4.408401E+05  1.193614E+04 -5.385340E+03
       348   2 -8.546868E+05 -1.229166E+05  4.132655E+04 -4.073491E+05  1.499816E+04 -1.147218E+04
       348   3 -7.611265E+05 -1.006914E+05  5.757417E+04 -3.938613E+05  1.805718E+04 -1.754701E+04
       348   4 -1.054938E+06 -2.080836E+05 -1.059575E+03 -4.751895E+05  3.387679E+03 -8.594453E+03
       348   5 -1.063637E+06 -1.993408E+05 -1.397496E+03 -4.651868E+05  6.464694E+03 -1.467663E+04
       348   6 -1.054951E+06 -2.080941E+05 -2.254623E+03 -4.751906E+05  9.538609E+03 -2.074682E+04
       348   7 -1.179007E+06 -2.535314E+05 -2.669099E+04 -5.095322E+05 -5.158877E+03 -1.180285E+04
       348   8 -1.272542E+06 -2.757612E+05 -4.412346E+04 -5.230065E+05 -2.065682E+03 -1.787992E+04
       348   9 -1.348689E+06 -3.154903E+05 -6.208810E+04 -5.564848E+05  1.024317E+03 -2.394504E+04
       348  10 -9.308531E+05 -1.626341E+05  2.457129E+04 -4.408401E+05 -4.205566E-11 -1.172974E-10
       348  11 -8.546871E+05 -1.229168E+05  4.132588E+04 -4.073490E+05 -7.805697E-10  7.205241E-10
       348  12 -7.611269E+05 -1.006918E+05  5.757298E+04 -3.938611E+05  1.159633E-09 -8.968380E-11
       348  13 -1.054938E+06 -2.080837E+05 -1.059735E+03 -4.751894E+05 -1.937941E-10  4.251263E-10
       348  14 -1.063637E+06 -1.993410E+05 -1.397979E+03 -4.651867E+05  8.493779E-11 -5.512284E-10
       348  15 -1.054951E+06 -2.080946E+05 -2.255602E+03 -4.751904E+05 -8.114255E-10 -2.141329E-12
       348  16 -1.179007E+06 -2.535315E+05 -2.669130E+04 -5.095322E+05  6.095705E-10  4.121941E-10
       348  17 -1.272542E+06 -2.757616E+05 -4.412407E+04 -5.230065E+05 -3.025383E-10 -2.197559E-10
       348  18 -1.348689E+06 -3.154909E+05 -6.208918E+04 -5.564848E+05 -5.490255E-10 -1.600554E-09
       348  19 -9.308529E+05 -1.626341E+05  2.457161E+04 -4.408401E+05 -1.193614E+04  5.385340E+03
       348  20 -8.546868E+05 -1.229166E+05  4.132655E+04 -4.073491E+05 -1.499816E+04  1.147218E+04
       348  21 -7.611265E+05 -1.006914E+05  5.757417E+04 -3.938613E+05 -1.805718E+04  1.754701E+04
       348  22 -1.054938E+06 -2.080836E+05 -1.059575E+03 -4.751895E+05 -3.387679E+03  8.594453E+03
       348  23 -1.063637E+06 -1.993408E+05 -1.397496E+03 -4.651868E+05 -6.464694E+03  1.467663E+04
       348  24 -1.054951E+06 -2.080941E+05 -2.254623E+03 -4.751906E+05 -9.538609E+03  2.074682E+04
       348  25 -1.179007E+06 -2.535314E+05 -2.669099E+04 -5.095322E+05  5.158877E+03  1.180285E+04
       348  26 -1.272542E+06 -2.757612E+05 -4.412346E+04 -5.230065E+05  2.065682E+03  1.787992E+04
       348  27 -1.348689E+06 -3.154903E+05 -6.208810E+04 -5.564848E+05 -1.024317E+03  2.394504E+04
       349   1 -7.026281E+05 -7.919973E+04  6.937282E+04 -3.777252E+05  1.988671E+04 -2.106804E+04
       349   2 -6.265895E+05 -3.959276E+04  8.416236E+04 -3.443245E+05  2.468762E+04 -2.642467E+04
       349   3 -5.335028E+05 -1.765705E+04  9.708288E+04 -3.308632E+05  2.944734E+04 -3.166281E+04
       349   4 -1.055034E+06 -2.080798E+05 -2.934716E+03 -4.752030E+05  1.135482E+04 -2.427377E+04
       349   5 -1.063568E+06 -1.993318E+05 -5.214902E+03 -4.651985E+05  1.631217E+04 -2.957363E+04
       349   6 -1.055092E+06 -2.082878E+05 -9.489002E+03 -4.751373E+05  2.122793E+04 -3.475508E+04
       349   7 -1.407312E+06 -3.369493E+05 -7.524832E+04 -5.726297E+05  2.828145E+03 -2.747754E+04
       349   8 -1.500348E+06 -3.590540E+05 -9.460113E+04 -5.859933E+05  7.943095E+03 -3.272021E+04
       349   9 -1.576396E+06 -3.988940E+05 -1.160733E+05 -6.192983E+05  1.301601E+04 -3.784454E+04
       349  10 -7.026287E+05 -7.920032E+04  6.937124E+04 -3.777249E+05 -7.903872E-09 -3.394263E-09
       349  11 -6.265904E+05 -3.959367E+04  8.415991E+04 -3.443240E+05  1.487352E-08  7.065078E-09
       349  12 -5.335040E+05 -1.765836E+04  9.707937E+04 -3.308625E+05  3.548235E-08  1.720736E-08
       349  13 -1.055035E+06 -2.080804E+05 -2.936065E+03 -4.752028E+05  1.154421E-11 -8.122466E-10
       349  14 -1.063569E+06 -1.993328E+05 -5.217044E+03 -4.651981E+05  1.139129E-10  5.179333E-10
       349  15 -1.055093E+06 -2.082892E+05 -9.492117E+03 -4.751367E+05  2.523591E-09  1.274813E-09
       349  16 -1.407313E+06 -3.369501E+05 -7.524975E+04 -5.726296E+05  7.570385E-09  1.857387E-09
       349  17 -1.500349E+06 -3.590551E+05 -9.460326E+04 -5.859931E+05 -1.417976E-08 -6.296658E-09
       349  18 -1.576397E+06 -3.988956E+05 -1.160763E+05 -6.192979E+05 -3.307220E-08 -9.934670E-09
       349  19 -7.026281E+05 -7.919973E+04  6.937282E+04 -3.777252E+05 -1.988671E+04  2.106804E+04
       349  20 -6.265895E+05 -3.959276E+04  8.416236E+04 -3.443245E+05 -2.468762E+04  2.642467E+04
       349  21 -5.335028E+05 -1.765705E+04  9.708288E+04 -3.308632E+05 -2.944734E+04  3.166281E+04
       349  22 -1.055034E+06 -2.080798E+05 -2.934716E+03 -4.752030E+05 -1.135482E+04  2.427377E+04
       349  23 -1.063568E+06 -1.993318E+05 -5.214902E+03 -4.651985E+05 -1.631217E+04  2.957363E+04
       349  24 -1.055092E+06 -2.082878E+05 -9.489002E+03 -4.751373E+05 -2.122793E+04  3.475508E+04
       349  25 -1.407312E+06 -3.369493E+05 -7.524832E+04 -5.726297E+05 -2.828145E+03  2.747754E+04
       349  26 -1.500348E+06 -3.590540E+05 -9.460113E+04 -5.859933E+05 -7.943095E+03  3.272021E+04
       349  27 -1.576396E+06 -3.988940E+05 -1.160733E+05 -6.192983E+05 -1.301601E+04  3.784454E+04
       350   1 -4.750224E+05  3.420802E+03  1.063868E+05 -3.158106E+05  3.295112E+04 -3.455771E+04
       350   2 -3.999477E+05  4.366170E+04  1.136907E+05 -2.802991E+05  4.426488E+04 -3.657557E+04
       350   3 -3.107691E+05  6.117131E+04  1.126737E+05 -2.634234E+05  5.493861E+04 -3.687787E+04
       350   4 -1.055633E+06 -2.079546E+05 -1.259836E+04 -4.754372E+05  2.438688E+04 -3.778105E+04
       350   5 -1.062981E+06 -1.999301E+05 -2.294714E+04 -4.647838E+05  3.799841E+04 -3.893777E+04
       350   6 -1.056693E+06 -2.151007E+05 -4.344797E+04 -4.727717E+05  5.096819E+04 -3.837848E+04
       350   7 -1.635902E+06 -4.193042E+05 -1.316018E+05 -6.349276E+05  1.583120E+04 -4.100123E+04
       350   8 -1.725565E+06 -4.434851E+05 -1.596085E+05 -6.490871E+05  3.173912E+04 -4.129727E+04
       350   9 -1.802046E+06 -4.913235E+05 -1.995998E+05 -6.818870E+05  4.700289E+04 -3.987713E+04
       350  10 -4.750239E+05  3.419229E+03  1.063825E+05 -3.158097E+05 -3.651657E-08 -9.226711E-09
       350  11 -3.999502E+05  4.365974E+04  1.136846E+05 -2.802978E+05 -1.735571E-08 -3.689995E-09
       350  12 -3.107727E+05  6.116904E+04  1.126655E+05 -2.634218E+05  5.452411E-09  2.319625E-09
       350  13 -1.055634E+06 -2.079563E+05 -1.260216E+04 -4.754365E+05  9.813437E-10  2.684524E-09
       350  14 -1.062983E+06 -1.999321E+05 -2.295270E+04 -4.647826E+05  8.687632E-10  3.918347E-10
       350  15 -1.056696E+06 -2.151030E+05 -4.345562E+04 -4.727702E+05  2.790241E-10 -9.553794E-10
       350  16 -1.635902E+06 -4.193061E+05 -1.316054E+05 -6.349271E+05  3.959411E-08  1.724831E-08
       350  17 -1.725566E+06 -4.434872E+05 -1.596136E+05 -6.490860E+05  1.501087E-08  7.687998E-09
       350  18 -1.802049E+06 -4.913258E+05 -1.996069E+05 -6.818855E+05 -4.917140E-09 -5.154267E-09
       350  19 -4.750224E+05  3.420802E+03  1.063868E+05 -3.158106E+05 -3.295112E+04  3.455771E+04
       350  20 -3.999477E+05  4.366170E+04  1.136907E+05 -2.802991E+05 -4.426488E+04  3.657557E+04
       350  21 -3.107691E+05  6.117131E+04  1.126737E+05 -2.634234E+05 -5.493861E+04  3.687787E+04
       350  22 -1.055633E+06 -2.079546E+05 -1.259836E+04 -4.754372E+05 -2.438688E+04  3.778105E+04
       350  23 -1.062981E+06 -1.999301E+05 -2.294714E+04 -4.647838E+05 -3.799841E+04  3.893777E+04
       350  24 -1.056693E+06 -2.151007E+05 -4.344797E+04 -4.727717E+05 -5.096819E+04  3.837848E+04
       350  25 -1.635902E+06 -4.193042E+05 -1.316018E+05 -6.349276E+05 -1.583120E+04  4.100123E+04
       350  26 -1.725565E+06 -4.434851E+05 -1.596085E+05 -6.490871E+05 -3.173912E+04  4.129727E+04
       350  27 -1.802046E+06 -4.913235E+05 -1.995998E+05 -6.818870E+05 -4.700289E+04  3.987713E+04
       351   1 -2.435886E+05  7.527850E+04  1.117510E+05 -2.707385E+05  6.873638E+04 -3.625761E+04
       351   2 -2.007219E+05  1.373662E+05  9.149758E+04 -1.709018E+05  8.551520E+04 -2.268451E+04
       351   3 -1.924701E+05  5.583837E+04  2.192690E+04 -5.533337E+04  9.212097E+04  1.788337E+04
       351   4 -1.063887E+06 -2.071659E+05 -5.663533E+04 -4.788178E+05  5.905880E+04 -3.990602E+04
       351   5 -1.055875E+06 -2.223405E+05 -1.054005E+05 -4.525811E+05  1.121608E+05 -1.266063E+04
       351   6 -1.089770E+06 -3.884720E+05 -2.323582E+05 -4.106016E+05  1.550771E+05  4.159169E+04
       351   7 -1.883496E+06 -4.895738E+05 -2.250557E+05 -6.866518E+05  4.939501E+04 -4.355000E+04
       351   8 -1.910267E+06 -5.819209E+05 -3.023404E+05 -7.338779E+05  1.387664E+05 -2.656580E+03
       351   9 -1.986222E+06 -8.325258E+05 -4.866933E+05 -7.653349E+05  2.179323E+05  6.523470E+04
       351  10 -2.435940E+05  7.527582E+04  1.117396E+05 -2.707365E+05 -8.758878E-10 -9.286675E-10
       351  11 -2.007299E+05  1.373637E+05  9.148286E+04 -1.709002E+05  5.807490E-11 -4.859186E-09
       351  12 -1.924793E+05  5.583575E+04  2.191034E+04 -5.533470E+04 -2.018001E-09  3.853799E-10
       351  13 -1.063891E+06 -2.071685E+05 -5.664488E+04 -4.788159E+05  1.138908E-09 -2.616718E-09
       351  14 -1.055888E+06 -2.223441E+05 -1.054245E+05 -4.525799E+05 -2.753150E-10  3.127374E-09
       351  15 -1.089796E+06 -3.884803E+05 -2.324067E+05 -4.106068E+05 -7.101257E-10  3.618159E-09
       351  16 -1.883499E+06 -4.895765E+05 -2.250639E+05 -6.866501E+05  2.315781E-09 -8.344006E-10
       351  17 -1.910287E+06 -5.819261E+05 -3.023767E+05 -7.338776E+05 -1.626715E-09  3.321159E-09
       351  18 -1.986275E+06 -8.325432E+05 -4.867909E+05 -7.653464E+05  9.862542E-11  1.440015E-09
       351  19 -2.435886E+05  7.527850E+04  1.117510E+05 -2.707385E+05 -6.873638E+04  3.625761E+04
       351  20 -2.007219E+05  1.373662E+05  9.149758E+04 -1.709018E+05 -8.551520E+04  2.268451E+04
       351  21 -1.924701E+05  5.583837E+04  2.192690E+04 -5.533337E+04 -9.212097E+04 -1.788337E+04
       351  22 -1.063887E+06 -2.071659E+05 -5.663533E+04 -4.788178E+05 -5.905880E+04  3.990602E+04
       351  23 -1.055875E+06 -2.223405E+05 -1.054005E+05 -4.525811E+05 -1.121608E+05  1.266063E+04
       351  24 -1.089770E+06 -3.884720E+05 -2.323582E+05 -4.106016E+05 -1.550771E+05 -4.159169E+04
       351  25 -1.883496E+06 -4.895738E+05 -2.250557E+05 -6.866518E+05 -4.939501E+04  4.355000E+04
       351  26 -1.910267E+06 -5.819209E+05 -3.023404E+05 -7.338779E+05 -1.387664E+05  2.656580E+03
       351  27 -1.986222E+06 -8.325258E+05 -4.866933E+05 -7.653349E+05 -2.179323E+05 -6.523470E+04
       352   1  1.614098E+05  4.373781E+04  1.614092E+04 -2.804644E+04 -7.176512E+04 -9.050847E+03
       352   2  1.294326E+05  1.479078E+05  6.975769E+04  9.134382E+02 -5.354969E+04 -2.850640E+04
       352   3  6.806812E+04  1.438509E+05  8.450048E+04  4.747744E+04 -3.537145E+04 -3.068459E+04
       352   4 -4.994524E+05 -1.201050E+05 -1.434750E+05  2.976571E+04 -9.870069E+04 -9.113578E+03
       352   5 -4.832798E+05 -1.634549E+03 -6.568443E+04  2.082352E+04 -6.392750E+04 -2.853350E+04
       352   6 -4.994067E+05  5.669767E+03 -3.830023E+04  2.948801E+04 -2.918917E+04 -3.067060E+04
       352   7 -1.159906E+06 -2.839667E+05 -3.031176E+05  8.751593E+04 -1.256076E+05 -9.181363E+03
       352   8 -1.095640E+06 -1.512005E+05 -2.011491E+05  4.071352E+04 -7.429515E+04 -2.856128E+04
       352   9 -1.066578E+06 -1.325315E+05 -1.611198E+05  1.151505E+04 -2.301245E+04 -3.065697E+04
       352  10  1.614042E+05  4.373634E+04  1.613109E+04 -2.804697E+04  6.640546E-10 -3.316356E-10
       352  11  1.294293E+05  1.479061E+05  6.975077E+04  9.122090E+02  1.241908E-10 -3.668123E-09
       352  12  6.806653E+04  1.438495E+05  8.449636E+04  4.747657E+04  1.683754E-09 -3.418316E-09
       352  13 -4.994629E+05 -1.201077E+05 -1.434934E+05  2.976499E+04  3.622744E-10  1.734104E-09
       352  14 -4.832844E+05 -1.636522E+03 -6.569364E+04  2.082205E+04 -9.042001E-10 -1.290252E-09
       352  15 -4.994078E+05  5.668528E+03 -3.830360E+04  2.948729E+04  9.113968E-10  6.544633E-10
       352  16 -1.159923E+06 -2.839710E+05 -3.031474E+05  8.751500E+04 -8.372798E-10  8.115123E-10
       352  17 -1.095646E+06 -1.512029E+05 -2.011610E+05  4.071181E+04  2.369535E-10 -6.171236E-09
       352  18 -1.066579E+06 -1.325326E+05 -1.611225E+05  1.151448E+04 -1.749283E-09 -6.007705E-09
       352  19  1.614098E+05  4.373781E+04  1.614092E+04 -2.804644E+04  7.176512E+04  9.050847E+03
       352  20  1.294326E+05  1.479078E+05  6.975769E+04  9.134382E+02  5.354969E+04  2.850640E+04
       352  21  6.806812E+04  1.438509E+05  8.450048E+04  4.747744E+04  3.537145E+04  3.068459E+04
       352  22 -4.994524E+05 -1.201050E+05 -1.434750E+05  2.976571E+04  9.870069E+04  9.113578E+03
       352  23 -4.832798E+05 -1.634549E+03 -6.568443E+04  2.082352E+04  6.392750E+04  2.853350E+04
       352  24 -4.994067E+05  5.669767E+03 -3.830023E+04  2.948801E+04  2.918917E+04  3.067060E+04
       352  25 -1.159906E+06 -2.839667E+05 -3.031176E+05  8.751593E+04  1.256076E+05  9.181363E+03
       352  26 -1.095640E+06 -1.512005E+05 -2.011491E+05  4.071352E+04  7.429515E+04  2.856128E+04
       352  27 -1.066578E+06 -1.325315E+05 -1.611198E+05  1.151505E+04  2.301245E+04  3.065697E+04
       353   1  3.734575E+04  1.230676E+05  8.494188E+04  2.863743E+04 -2.510238E+04 -2.770620E+04
       353   2 -8.146374E+03  1.178173E+05  8.817854E+04  2.104597E+04 -1.759149E+04 -2.596595E+04
       353   3 -5.610847E+04  1.067830E+05  8.506988E+04  3.185391E+04 -1.008446E+04 -2.343433E+04
       353   4 -4.928041E+05 -6.035275E+03 -3.034986E+04  2.974391E+04 -2.381602E+04 -2.770476E+04
       353   5 -4.914932E+05  1.890105E+02 -1.649154E+04  2.053497E+04 -1.555180E+04 -2.596198E+04
       353   6 -4.927872E+05  4.958047E+02 -9.505830E+03  2.972642E+04 -7.290876E+03 -2.342757E+04
       353   7 -1.022690E+06 -1.351568E+05 -1.456584E+05  3.084926E+04 -2.253074E+04 -2.770332E+04
       353   8 -9.746207E+05 -1.174547E+05 -1.211755E+05  2.002422E+04 -1.351368E+04 -2.595800E+04
       353   9 -9.292868E+05 -1.058040E+05 -1.040928E+05  2.760031E+04 -4.499228E+03 -2.342083E+04
       353  10  3.734487E+04  1.230666E+05  8.493925E+04  2.863687E+04 -1.479041E-09 -4.644954E-09
       353  11 -8.146887E+03  1.178165E+05  8.817669E+04  2.104560E+04 -1.032817E-08  2.097716E-09
       353  12 -5.610873E+04  1.067824E+05  8.506865E+04  3.185372E+04 -1.449935E-08  2.335811E-09
       353  13 -4.928049E+05 -6.036251E+03 -3.035237E+04  2.974338E+04 -5.400927E-10 -3.323350E-09
       353  14 -4.914937E+05  1.882219E+02 -1.649326E+04  2.053464E+04 -3.037186E-09 -5.185694E-10
       353  15 -4.927874E+05  4.952012E+02 -9.506961E+03  2.972628E+04 -3.612215E-10 -3.315142E-09
       353  16 -1.022691E+06 -1.351578E+05 -1.456608E+05  3.084875E+04  1.040775E-09 -4.262858E-10
       353  17 -9.746211E+05 -1.174555E+05 -1.211771E+05  2.002394E+04  9.288351E-09  2.565724E-10
       353  18 -9.292870E+05 -1.058046E+05 -1.040939E+05  2.760023E+04  1.439513E-08 -1.102667E-09
       353  19  3.734575E+04  1.230676E+05  8.494188E+04  2.863743E+04  2.510238E+04  2.770620E+04
       353  20 -8.146374E+03  1.178173E+05  8.817854E+04  2.104597E+04  1.759149E+04  2.596595E+04
       353  21 -5.610847E+04  1.067830E+05  8.506988E+04  3.185391E+04  1.008446E+04  2.343433E+04
       353  22 -4.928041E+05 -6.035275E+03 -3.034986E+04  2.974391E+04  2.381602E+04  2.770476E+04
       353  23 -4.914932E+05  1.890105E+02 -1.649154E+04  2.053497E+04  1.555180E+04  2.596198E+04
       353  24 -4.927872E+05  4.958047E+02 -9.505830E+03  2.972642E+04  7.290876E+03  2.342757E+04
       353  25 -1.022690E+06 -1.351568E+05 -1.456584E+05  3.084926E+04  2.253074E+04  2.770332E+04
       353  26 -9.746207E+05 -1.174547E+05 -1.211755E+05  2.002422E+04  1.351368E+04  2.595800E+04
       353  27 -9.292868E+05 -1.058040E+05 -1.040928E+05  2.760031E+04  4.499228E+03  2.342083E+04
       354   1 -9.286958E+04  9.706998E+04  7.901326E+04  3.078512E+04 -8.392421E+03 -2.177196E+04
       354   2 -1.396631E+05  8.592010E+04  7.207785E+04  2.143183E+04 -6.379396E+03 -1.906487E+04
       354   3 -1.868695E+05  7.455837E+04  6.375518E+04  3.061663E+04 -4.367812E+03 -1.631716E+04
       354   4 -4.922953E+05 -1.032786E+02 -7.283405E+03  2.976222E+04 -5.816559E+03 -2.176545E+04
       354   5 -4.920791E+05  1.629069E+02 -4.153635E+03  2.049237E+04 -3.765821E+03 -1.905775E+04
       354   6 -4.922847E+05  2.105765E+02 -2.437992E+03  2.976126E+04 -1.716375E+03 -1.630940E+04
       354   7 -8.915711E+05 -9.728706E+04 -9.358948E+04  2.873987E+04 -3.242331E+03 -2.175896E+04
       354   8 -8.443784E+05 -8.560248E+04 -8.039246E+04  1.955337E+04 -1.153710E+03 -1.905063E+04
       354   9 -7.976124E+05 -7.414338E+04 -6.863669E+04  2.890625E+04  9.337745E+02 -1.630164E+04
       354  10 -9.286978E+04  9.706945E+04  7.901224E+04  3.078498E+04  1.233478E-08  3.593954E-09
       354  11 -1.396632E+05  8.591970E+04  7.207709E+04  2.143173E+04  5.463659E-09  2.897916E-09
       354  12 -1.868696E+05  7.455808E+04  6.375465E+04  3.061658E+04  4.585558E-10 -3.226857E-10
       354  13 -4.922955E+05 -1.037963E+02 -7.284358E+03  2.976212E+04  3.591330E-10 -4.016945E-09
       354  14 -4.920792E+05  1.625131E+02 -4.154344E+03  2.049232E+04 -1.888337E-09  4.016745E-09
       354  15 -4.922848E+05  2.102901E+02 -2.438497E+03  2.976124E+04  2.743706E-10  7.493182E-09
       354  16 -8.915712E+05 -9.728757E+04 -9.359039E+04  2.873981E+04 -1.154786E-08  1.366556E-09
       354  17 -8.443785E+05 -8.560287E+04 -8.039314E+04  1.955335E+04 -6.513897E-09  5.272957E-09
       354  18 -7.976124E+05 -7.414367E+04 -6.863719E+04  2.890626E+04 -4.639772E-10  2.836607E-09
       354  19 -9.286958E+04  9.706998E+04  7.901326E+04  3.078512E+04  8.392421E+03  2.177196E+04
       354  20 -1.396631E+05  8.592010E+04  7.207785E+04  2.143183E+04  6.379396E+03  1.906487E+04
       354  21 -1.868695E+05  7.455837E+04  6.375518E+04  3.061663E+04  4.367812E+03  1.631716E+04
       354  22 -4.922953E+05 -1.032786E+02 -7.283405E+03  2.976222E+04  5.816559E+03  2.176545E+04
       354  23 -4.920791E+05  1.629069E+02 -4.153635E+03  2.049237E+04  3.765821E+03  1.905775E+04
       354  24 -4.922847E+05  2.105765E+02 -2.437992E+03  2.976126E+04  1.716375E+03  1.630940E+04
       354  25 -8.915711E+05 -9.728706E+04 -9.358948E+04  2.873987E+04  3.242331E+03  2.175896E+04
       354  26 -8.443784E+05 -8.560248E+04 -8.039246E+04  1.955337E+04  1.153710E+03  1.905063E+04
       354  27 -7.976124E+05 -7.414338E+04 -6.863669E+04  2.890625E+04 -9.337745E+02  1.630164E+04
       355   1 -2.242417E+05  6.537559E+04  5.594012E+04  3.049241E+04 -3.974883E+03 -1.470898E+04
       355   2 -2.713456E+05  5.387750E+04  4.654535E+04  2.105090E+04 -3.387925E+03 -1.194941E+04
       355   3 -3.186335E+05  4.247980E+04  3.676142E+04  3.022619E+04 -2.801780E+03 -9.185161E+03
       355   4 -4.922278E+05  1.868506E+02 -1.898150E+03  2.977900E+04 -1.330068E+03 -1.470098E+04
       355   5 -4.921309E+05  1.478786E+02 -1.213191E+03  2.047037E+04 -7.389635E+02 -1.194107E+04
       355   6 -4.922215E+05  2.084954E+02 -9.205332E+02  2.977893E+04 -1.486274E+02 -9.176473E+03
       355   7 -7.601465E+05 -6.500662E+04 -5.974064E+04  2.906585E+04  1.313620E+03 -1.469297E+04
       355   8 -7.128703E+05 -5.358496E+04 -4.897459E+04  1.989001E+04  1.909068E+03 -1.193273E+04
       355   9 -6.657811E+05 -4.206480E+04 -3.860426E+04  2.933177E+04  2.503793E+03 -9.167789E+03
       355  10 -2.242418E+05  6.537536E+04  5.593969E+04  3.049236E+04  7.073167E-09  6.463353E-10
       355  11 -2.713457E+05  5.387734E+04  4.654506E+04  2.105086E+04 -9.126144E-09  8.331086E-09
       355  12 -3.186336E+05  4.247971E+04  3.676125E+04  3.022617E+04 -1.737153E-08  6.375072E-09
       355  13 -4.922279E+05  1.866181E+02 -1.898560E+03  2.977898E+04  1.350279E-11  2.145661E-09
       355  14 -4.921309E+05  1.477253E+02 -1.213460E+03  2.047036E+04 -1.564055E-09  9.788845E-09
       355  15 -4.922215E+05  2.084050E+02 -9.206914E+02  2.977893E+04 -8.455978E-10 -7.921851E-10
       355  16 -7.601465E+05 -6.500686E+04 -5.974105E+04  2.906586E+04 -6.558396E-09  2.408656E-09
       355  17 -7.128703E+05 -5.358511E+04 -4.897487E+04  1.989003E+04  7.701012E-09  1.296496E-09
       355  18 -6.657811E+05 -4.206490E+04 -3.860443E+04  2.933179E+04  1.688749E-08 -2.129720E-09
       355  19 -2.242417E+05  6.537559E+04  5.594012E+04  3.049241E+04  3.974883E+03  1.470898E+04
       355  20 -2.713456E+05  5.387750E+04  4.654535E+04  2.105090E+04  3.387925E+03  1.194941E+04
       355  21 -3.186335E+05  4.247980E+04  3.676142E+04  3.022619E+04  2.801780E+03  9.185161E+03
       355  22 -4.922278E+05  1.868506E+02 -1.898150E+03  2.977900E+04  1.330068E+03  1.470098E+04
       355  23 -4.921309E+05  1.478786E+02 -1.213191E+03  2.047037E+04  7.389635E+02  1.194107E+04
       355  24 -4.922215E+05  2.084954E+02 -9.205332E+02  2.977893E+04  1.486274E+02  9.176473E+03
       355  25 -7.601465E+05 -6.500662E+04 -5.974064E+04  2.906585E+04 -1.313620E+03  1.469297E+04
       355  26 -7.128703E+05 -5.358496E+04 -4.897459E+04  1.989001E+04 -1.909068E+03  1.193273E+04
       355  27 -6.657811E+05 -4.206480E+04 -3.860426E+04  2.933177E+04 -2.503793E+03  9.167789E+03
       356   1 -3.561798E+05  3.329149E+04  2.841045E+04  3.013525E+04 -2.644916E+03 -7.574884E+03
       356   2 -4.033837E+05  2.175545E+04  1.816961E+04  2.066007E+04 -2.146881E+03 -4.806321E+03
       356   3 -4.507789E+05  1.032615E+04  7.594062E+03  2.984712E+04 -1.649178E+03 -2.037322E+03
       356   4 -4.922201E+05  2.097345E+02 -8.872164E+02  2.978898E+04  9.872544E+00 -7.566049E+03
       356   5 -4.921224E+05  1.588392E+02 -1.026922E+03  2.045778E+04  5.081824E+02 -4.797357E+03
       356   6 -4.922176E+05  2.149411E+02 -1.501301E+03  2.978897E+04  1.006198E+03 -2.028222E+03
       356   7 -6.282429E+05 -3.287324E+04 -3.018594E+04  2.944277E+04  2.664087E+03 -7.557216E+03
       356   8 -5.808537E+05 -2.143829E+04 -2.022389E+04  2.025552E+04  3.162871E+03 -4.788394E+03
       356   9 -5.336547E+05 -9.896378E+03 -1.059674E+04  2.973081E+04  3.661398E+03 -2.019121E+03
       356  10 -3.561798E+05  3.329143E+04  2.841033E+04  3.013523E+04  2.141710E-08  1.270633E-10
       356  11 -4.033837E+05  2.175543E+04  1.816956E+04  2.066006E+04  8.151515E-09 -1.847410E-09
       356  12 -4.507789E+05  1.032614E+04  7.594049E+03  2.984712E+04 -3.947114E-09 -2.916330E-09
       356  13 -4.922201E+05  2.096731E+02 -8.873240E+02  2.978898E+04 -3.967894E-10  8.365582E-09
       356  14 -4.921224E+05  1.588144E+02 -1.026966E+03  2.045778E+04 -1.718759E-09  1.750008E-09
       356  15 -4.922176E+05  2.149365E+02 -1.501310E+03  2.978897E+04 -1.725302E-09 -3.174156E-09
       356  16 -6.282429E+05 -3.287330E+04 -3.018606E+04  2.944279E+04 -2.046103E-08  3.070083E-09
       356  17 -5.808538E+05 -2.143832E+04 -2.022396E+04  2.025553E+04 -9.680864E-09 -4.292468E-09
       356  18 -5.336547E+05 -9.896386E+03 -1.059677E+04  2.973082E+04  3.750401E-09 -5.025764E-09
       356  19 -3.561798E+05  3.329149E+04  2.841045E+04  3.013525E+04  2.644916E+03  7.574884E+03
       356  20 -4.033837E+05  2.175545E+04  1.816961E+04  2.066007E+04  2.146881E+03  4.806321E+03
       356  21 -4.507789E+05  1.032615E+04  7.594062E+03  2.984712E+04  1.649178E+03  2.037322E+03
       356  22 -4.922201E+05  2.097345E+02 -8.872164E+02  2.978898E+04 -9.872544E+00  7.566049E+03
       356  23 -4.921224E+05  1.588392E+02 -1.026922E+03  2.045778E+04 -5.081824E+02  4.797357E+03
       356  24 -4.922176E+05  2.149411E+02 -1.501301E+03  2.978897E+04 -1.006198E+03  2.028222E+03
       356  25 -6.282429E+05 -3.287324E+04 -3.018594E+04  2.944277E+04 -2.664087E+03  7.557216E+03
       356  26 -5.808537E+05 -2.143829E+04 -2.022389E+04  2.025552E+04 -3.162871E+03  4.788394E+03
       356  27 -5.336547E+05 -9.896378E+03 -1.059674E+04  2.973081E+04 -3.661398E+03  2.019121E+03
       357   1 -4.884149E+05  1.144127E+03 -1.196780E+03  2.970323E+04 -1.353771E+03 -4.229705E+02
       357   2 -5.355297E+05 -1.038997E+04 -1.258223E+04  2.024229E+04  2.293586E+02  2.346114E+03
       357   3 -5.830395E+05 -2.205709E+04 -2.506997E+04  2.944875E+04  1.812579E+03  5.095099E+03
       357   4 -4.922619E+05  2.349225E+02 -1.897456E+03  2.978982E+04  1.307346E+03 -4.138294E+02
       357   5 -4.920659E+05  1.904325E+02 -3.175531E+03  2.045654E+04  2.871209E+03  2.355120E+03
       357   6 -4.922636E+05  1.644371E+01 -5.542324E+03  2.979058E+04  4.435283E+03  5.103981E+03
       357   7 -4.961088E+05 -6.742785E+02 -2.598106E+03  2.987640E+04  3.968446E+03 -4.046876E+02
       357   8 -4.486004E+05  1.077072E+04  6.231083E+03  2.067080E+04  5.513243E+03  2.364128E+03
       357   9 -4.014800E+05  2.208944E+04  1.398487E+04  3.013245E+04  7.058365E+03  5.112865E+03
       357  10 -4.884149E+05  1.144126E+03 -1.196783E+03  2.970323E+04 -5.363740E-09  4.222006E-09
       357  11 -5.355297E+05 -1.038998E+04 -1.258224E+04  2.024229E+04 -4.085236E-09  1.672715E-09
       357  12 -5.830395E+05 -2.205712E+04 -2.507003E+04  2.944874E+04 -6.258920E-10  9.004586E-10
       357  13 -4.922619E+05  2.349219E+02 -1.897459E+03  2.978982E+04 -6.512135E-12  5.197287E-10
       357  14 -4.920659E+05  1.904243E+02 -3.175557E+03  2.045654E+04 -2.357506E-09  4.825063E-09
       357  15 -4.922637E+05  1.641046E+01 -5.542410E+03  2.979056E+04  4.505505E-10  1.850388E-09
       357  16 -4.961089E+05 -6.742829E+02 -2.598136E+03  2.987640E+04  5.348475E-09  1.215127E-09
       357  17 -4.486004E+05  1.077070E+04  6.231015E+03  2.067079E+04  3.970659E-09 -9.216908E-09
       357  18 -4.014801E+05  2.208940E+04  1.398472E+04  3.013242E+04  1.100273E-09 -1.209891E-09
       357  19 -4.884149E+05  1.144127E+03 -1.196780E+03  2.970323E+04  1.353771E+03  4.229705E+02
       357  20 -5.355297E+05 -1.038997E+04 -1.258223E+04  2.024229E+04 -2.293586E+02 -2.346114E+03
       357  21 -5.830395E+05 -2.205709E+04 -2.506997E+04  2.944875E+04 -1.812579E+03 -5.095099E+03
       357  22 -4.922619E+05  2.349225E+02 -1.897456E+03  2.978982E+04 -1.307346E+03  4.138294E+02
       357  23 -4.920659E+05  1.904325E+02 -3.175531E+03  2.045654E+04 -2.871209E+03 -2.355120E+03
       357  24 -4.922636E+05  1.644371E+01 -5.542324E+03  2.979058E+04 -4.435283E+03 -5.103981E+03
       357  25 -4.961088E+05 -6.742785E+02 -2.598106E+03  2.987640E+04 -3.968446E+03  4.046876E+02
       357  26 -4.486004E+05  1.077072E+04  6.231083E+03  2.067080E+04 -5.513243E+03 -2.364128E+03
       357  27 -4.014800E+05  2.208944E+04  1.398487E+04  3.013245E+04 -7.058365E+03 -5.112865E+03
       358   1 -6.209831E+05 -3.080070E+04 -3.512612E+04  2.854776E+04  2.810686E+03  6.743488E+03
       358   2 -6.671565E+05 -4.251507E+04 -5.057388E+04  2.038587E+04  9.491706E+03  9.408481E+03
       358   3 -7.154738E+05 -5.875483E+04 -7.154031E+04  3.085160E+04  1.617404E+04  1.163975E+04
       358   4 -4.926387E+05  4.728596E+02 -7.226577E+03  2.977702E+04  5.554399E+03  6.752683E+03
       358   5 -4.916057E+05  2.282680E+02 -1.251772E+04  2.047152E+04  1.182090E+04  9.416020E+03
       358   6 -4.926463E+05 -4.468836E+03 -2.303827E+04  2.979341E+04  1.808923E+04  1.164567E+04
       358   7 -3.642788E+05  3.174534E+04  2.067201E+04  3.100652E+04  8.298672E+03  6.761888E+03
       358   8 -3.160259E+05  4.296957E+04  2.553663E+04  2.055717E+04  1.415075E+04  9.423560E+03
       358   9 -2.697722E+05  4.981387E+04  2.546081E+04  2.873481E+04  2.000509E+04  1.165159E+04
       358  10 -6.209831E+05 -3.080075E+04 -3.512622E+04  2.854774E+04 -6.310948E-09  5.454128E-09
       358  11 -6.671566E+05 -4.251519E+04 -5.057421E+04  2.038580E+04 -1.694887E-09  1.418370E-10
       358  12 -7.154741E+05 -5.875505E+04 -7.154106E+04  3.085145E+04  4.966944E-09  4.311216E-09
       358  13 -4.926387E+05  4.728024E+02 -7.226721E+03  2.977699E+04  5.105000E-10  2.068877E-09
       358  14 -4.916058E+05  2.281352E+02 -1.251815E+04  2.047143E+04 -1.773980E-09  3.158798E-09
       358  15 -4.926467E+05 -4.469069E+03 -2.303914E+04  2.979324E+04 -3.879172E-10 -2.425983E-09
       358  16 -3.642789E+05  3.174527E+04  2.067179E+04  3.100648E+04  6.667145E-09  9.869825E-10
       358  17 -3.160261E+05  4.296942E+04  2.553609E+04  2.055706E+04  8.768514E-10 -3.938832E-09
       358  18 -2.697727E+05  4.981362E+04  2.545980E+04  2.873462E+04 -4.938704E-09 -9.528630E-09
       358  19 -6.209831E+05 -3.080070E+04 -3.512612E+04  2.854776E+04 -2.810686E+03 -6.743488E+03
       358  20 -6.671565E+05 -4.251507E+04 -5.057388E+04  2.038587E+04 -9.491706E+03 -9.408481E+03
       358  21 -7.154738E+05 -5.875483E+04 -7.154031E+04  3.085160E+04 -1.617404E+04 -1.163975E+04
       358  22 -4.926387E+05  4.728596E+02 -7.226577E+03  2.977702E+04 -5.554399E+03 -6.752683E+03
       358  23 -4.916057E+05  2.282680E+02 -1.251772E+04  2.047152E+04 -1.182090E+04 -9.416020E+03
       358  24 -4.926463E+05 -4.468836E+03 -2.303827E+04  2.979341E+04 -1.808923E+04 -1.164567E+04
       358  25 -3.642788E+05  3.174534E+04  2.067201E+04  3.100652E+04 -8.298672E+03 -6.761888E+03
       358  26 -3.160259E+05  4.296957E+04  2.553663E+04  2.055717E+04 -1.415075E+04 -9.423560E+03
       358  27 -2.697722E+05  4.981387E+04  2.546081E+04  2.873481E+04 -2.000509E+04 -1.165159E+04
       359   1 -7.580980E+05 -5.909903E+04 -8.553367E+04  1.614721E+04  1.755824E+04  1.400380E+04
       359   2 -7.923308E+05 -7.606991E+04 -1.178784E+05  3.580142E+04  5.302358E+04  1.416132E+04
       359   3 -8.527949E+05 -1.790017E+05 -1.948445E+05  7.375077E+04  8.851490E+04  4.811839E+03
       359   4 -4.976604E+05  4.419228E+03 -2.907252E+04  2.963691E+04  2.216609E+04  1.401862E+04
       359   5 -4.853575E+05 -1.141381E+03 -4.984828E+04  2.063628E+04  4.852238E+04  1.414539E+04
       359   6 -4.976919E+05 -9.105957E+04 -1.089018E+05  2.993277E+04  7.490774E+04  4.763986E+03
       359   7 -2.371587E+05  6.793367E+04  2.738477E+04  4.313229E+04  2.677584E+04  1.403363E+04
       359   8 -1.782955E+05  7.378169E+04  1.817617E+04  5.463468E+03  4.401897E+04  1.412968E+04
       359   9 -1.424689E+05 -3.119193E+03 -2.296651E+04 -1.391048E+04  6.129280E+04  4.718072E+03
       359  10 -7.580984E+05 -5.909933E+04 -8.553462E+04  1.614701E+04 -1.723700E-09  4.026820E-09
       359  11 -7.923339E+05 -7.607088E+04 -1.178840E+05  3.580082E+04 -1.429137E-09 -3.428637E-09
       359  12 -8.528034E+05 -1.790039E+05 -1.948593E+05  7.375042E+04  8.182204E-10 -1.914917E-09
       359  13 -4.976610E+05  4.418885E+03 -2.907381E+04  2.963666E+04 -3.388320E-10  3.596226E-09
       359  14 -4.853601E+05 -1.142229E+03 -4.985308E+04  2.063572E+04 -2.106487E-09 -7.368070E-09
       359  15 -4.976980E+05 -9.106110E+04 -1.089124E+05  2.993248E+04 -9.647401E-10  3.705804E-09
       359  16 -2.371595E+05  6.793326E+04  2.738305E+04  4.313199E+04  2.373267E-09  1.306402E-09
       359  17 -1.782976E+05  7.378096E+04  1.817215E+04  5.462967E+03  1.059014E-09  3.677729E-09
       359  18 -1.424729E+05 -3.120226E+03 -2.297362E+04 -1.391071E+04 -6.138470E-10 -1.260032E-09
       359  19 -7.580980E+05 -5.909903E+04 -8.553367E+04  1.614721E+04 -1.755824E+04 -1.400380E+04
       359  20 -7.923308E+05 -7.606991E+04 -1.178784E+05  3.580142E+04 -5.302358E+04 -1.416132E+04
       359  21 -8.527949E+05 -1.790017E+05 -1.948445E+05  7.375077E+04 -8.851490E+04 -4.811839E+03
       359  22 -4.976604E+05  4.419228E+03 -2.907252E+04  2.963691E+04 -2.216609E+04 -1.401862E+04
       359  23 -4.853575E+05 -1.141381E+03 -4.984828E+04  2.063628E+04 -4.852238E+04 -1.414539E+04
       359  24 -4.976919E+05 -9.105957E+04 -1.089018E+05  2.993277E+04 -7.490774E+04 -4.763986E+03
       359  25 -2.371587E+05  6.793367E+04  2.738477E+04  4.313229E+04 -2.677584E+04 -1.403363E+04
       359  26 -1.782955E+05  7.378169E+04  1.817617E+04  5.463468E+03 -4.401897E+04 -1.412968E+04
       359  27 -1.424689E+05 -3.119193E+03 -2.296651E+04 -1.391048E+04 -6.129280E+04 -4.718072E+03
       360   1  4.057063E+05  2.031244E+06  4.225998E+05 -2.677768E+05  1.244876E+04  1.326579E+05
       360   2  2.052196E+05  1.704436E+06  2.557909E+05 -1.693521E+05  3.587218E+04  6.455299E+04
       360   3  1.235238E+05  1.415756E+06  1.628371E+05 -1.904807E+05  2.734504E+04 -3.589770E+03
       360   4  1.221287E+05  8.900104E+05  1.456952E+05 -2.059309E+05  1.255308E+04  9.481203E+04
       360   5  2.211043E+03  8.737228E+05  7.092497E+04 -1.463139E+05  3.589612E+04  5.751505E+04
       360   6 -4.157555E+03  8.902119E+05  4.873282E+04 -2.062400E+05  2.727788E+04  2.014536E+04
       360   7 -1.615297E+05 -2.500266E+05 -1.312960E+05 -1.441978E+05  1.265000E+04  5.703523E+04
       360   8 -2.008423E+05  4.365296E+04 -1.139836E+05 -1.233064E+05  3.591955E+04  5.048635E+04
       360   9 -1.318558E+05  3.649285E+05 -6.538565E+04 -2.219856E+05  2.720949E+04  4.386070E+04
       360  10  4.057014E+05  2.031225E+06  4.225665E+05 -2.677781E+05 -7.418128E-10 -9.581735E-11
       360  11  2.052171E+05  1.704431E+06  2.557807E+05 -1.693540E+05 -2.927849E-10 -1.406241E-09
       360  12  1.235230E+05  1.415755E+06  1.628356E+05 -1.904806E+05  1.621100E-09  1.717542E-09
       360  13  1.221261E+05  8.900007E+05  1.456781E+05 -2.059318E+05  8.848143E-10 -2.719891E-09
       360  14  2.208772E+03  8.737189E+05  7.091634E+04 -1.463156E+05 -7.469950E-10 -4.776652E-09
       360  15 -4.158464E+03  8.902112E+05  4.873066E+04 -2.062404E+05  5.090830E-10  5.802013E-10
       360  16 -1.615307E+05 -2.500301E+05 -1.313024E+05 -1.441983E+05 -4.784766E-10 -1.840071E-11
       360  17 -2.008444E+05  4.364988E+04 -1.139908E+05 -1.233078E+05  6.581996E-10 -8.674715E-09
       360  18 -1.318572E+05  3.649262E+05 -6.539066E+04 -2.219865E+05  1.428610E-11 -4.652886E-09
       360  19  4.057063E+05  2.031244E+06  4.225998E+05 -2.677768E+05 -1.244876E+04 -1.326579E+05
       360  20  2.052196E+05  1.704436E+06  2.557909E+05 -1.693521E+05 -3.587218E+04 -6.455299E+04
       360  21  1.235238E+05  1.415756E+06  1.628371E+05 -1.904807E+05 -2.734504E+04  3.589770E+03
       360  22  1.221287E+05  8.900104E+05  1.456952E+05 -2.059309E+05 -1.255308E+04 -9.481203E+04
       360  23  2.211043E+03  8.737228E+05  7.092497E+04 -1.463139E+05 -3.589612E+04 -5.751505E+04
       360  24 -4.157555E+03  8.902119E+05  4.873282E+04 -2.062400E+05 -2.727788E+04 -2.014536E+04
       360  25 -1.615297E+05 -2.500266E+05 -1.312960E+05 -1.441978E+05 -1.265000E+04 -5.703523E+04
       360  26 -2.008423E+05  4.365296E+04 -1.139836E+05 -1.233064E+05 -3.591955E+04 -5.048635E+04
       360  27 -1.318558E+05  3.649285E+05 -6.538565E+04 -2.219856E+05 -2.720949E+04 -4.386070E+04
       361   1  7.515234E+04  1.165030E+06  1.054679E+05 -2.110060E+05  1.424161E+04 -2.480377E+03
       361   2 -5.875505E+03  8.550596E+05  3.532292E+04 -1.457392E+05 -1.334760E+03 -2.303520E+04
       361   3 -7.110840E+04  5.510162E+05 -1.770017E+04 -2.013270E+05 -1.684987E+04 -4.357964E+04
       361   4  6.790342E+03  8.842624E+05  4.424983E+04 -2.064522E+05  1.419720E+04  1.257658E+04
       361   5  5.135448E+02  8.813350E+05  4.100856E+04 -1.460215E+05 -1.378587E+03 -8.037913E+03
       361   6  1.004723E+04  8.842546E+05  5.493436E+04 -2.064426E+05 -1.689313E+04 -2.865183E+04
       361   7 -6.157670E+04  6.035692E+05 -1.697208E+04 -2.019003E+05  1.415299E+04  2.762682E+04
       361   8  6.902670E+03  9.076116E+05  4.669501E+04 -1.463037E+05 -1.422427E+03  6.960000E+03
       361   9  9.119570E+04  1.217597E+06  1.275631E+05 -2.115609E+05 -1.693663E+04 -1.371611E+04
       361  10  7.515212E+04  1.165030E+06  1.054675E+05 -2.110060E+05  9.131751E-10 -4.896844E-10
       361  11 -5.875649E+03  8.550590E+05  3.532193E+04 -1.457393E+05  1.268432E-09 -2.789613E-09
       361  12 -7.110922E+04  5.510141E+05 -1.770427E+04 -2.013276E+05 -5.300260E-10  8.430156E-10
       361  13  6.790083E+03  8.842621E+05  4.424915E+04 -2.064523E+05  2.907219E-10 -2.811511E-09
       361  14  5.135255E+02  8.813350E+05  4.100844E+04 -1.460215E+05  1.716100E-09 -6.795861E-09
       361  15  1.004671E+04  8.842536E+05  5.493228E+04 -2.064430E+05  2.868409E-09  2.639102E-10
       361  16 -6.157712E+04  6.035683E+05 -1.697389E+04 -2.019006E+05  5.863224E-10  4.169729E-10
       361  17  6.902655E+03  9.076116E+05  4.669491E+04 -1.463037E+05 -2.163348E-09 -8.865722E-09
       361  18  9.119534E+04  1.217597E+06  1.275622E+05 -2.115611E+05 -1.295274E-10 -3.936318E-09
       361  19  7.515234E+04  1.165030E+06  1.054679E+05 -2.110060E+05 -1.424161E+04  2.480377E+03
       361  20 -5.875505E+03  8.550596E+05  3.532292E+04 -1.457392E+05  1.334760E+03  2.303520E+04
       361  21 -7.110840E+04  5.510162E+05 -1.770017E+04 -2.013270E+05  1.684987E+04  4.357964E+04
       361  22  6.790342E+03  8.842624E+05  4.424983E+04 -2.064522E+05 -1.419720E+04 -1.257658E+04
       361  23  5.135448E+02  8.813350E+05  4.100856E+04 -1.460215E+05  1.378587E+03  8.037913E+03
       361  24  1.004723E+04  8.842546E+05  5.493436E+04 -2.064426E+05  1.689313E+04  2.865183E+04
       361  25 -6.157670E+04  6.035692E+05 -1.697208E+04 -2.019003E+05 -1.415299E+04 -2.762682E+04
       361  26  6.902670E+03  9.076116E+05  4.669501E+04 -1.463037E+05  1.422427E+03 -6.960000E+03
       361  27  9.119570E+04  1.217597E+06  1.275631E+05 -2.115609E+05  1.693663E+04  1.371611E+04
       362   1 -1.475529E+05  3.158948E+05 -6.082313E+04 -2.305424E+05 -3.000067E+04 -6.221688E+04
       362   2 -2.128844E+05 -1.337487E+04 -9.399000E+04 -1.127469E+05 -3.830490E+04 -8.429004E+04
       362   3 -1.140618E+05 -2.990132E+05 -7.183026E+04 -1.144224E+05 -1.330060E+04 -1.062763E+05
       362   4 -7.117432E+03  8.938080E+05  6.465645E+04 -2.062501E+05 -3.007021E+04 -3.823249E+04
       362   5  3.048895E+03  8.691904E+05  1.025114E+05 -1.463043E+05 -3.827608E+04 -9.235022E+04
       362   6  1.827870E+05  8.935713E+05  2.178579E+05 -2.057935E+05 -1.319054E+04 -1.463937E+05
       362   7  1.332986E+05  1.472037E+06  1.901186E+05 -1.819348E+05 -3.013783E+04 -1.422606E+04
       362   8  2.189335E+05  1.752484E+06  2.989650E+05 -1.799094E+05 -3.824641E+04 -1.004217E+05
       362   9  4.795630E+05  2.087475E+06  5.074536E+05 -2.973398E+05 -1.306880E+04 -1.865878E+05
       362  10 -1.475549E+05  3.158904E+05 -6.083210E+04 -2.305439E+05  3.220559E-10 -1.147856E-09
       362  11 -2.128879E+05 -1.338290E+04 -9.400611E+04 -1.127495E+05  4.690211E-11 -2.694193E-09
       362  12 -1.140650E+05 -2.990254E+05 -7.185183E+04 -1.144235E+05 -7.767499E-10  4.801959E-10
       362  13 -7.118796E+03  8.938062E+05  6.465200E+04 -2.062511E+05 -9.866639E-10 -2.552047E-09
       362  14  3.045035E+03  8.691808E+05  1.024927E+05 -1.463071E+05  2.764283E-10 -5.787454E-09
       362  15  1.827811E+05  8.935483E+05  2.178173E+05 -2.057951E+05 -7.525236E-10  2.021490E-10
       362  16  1.332976E+05  1.472036E+06  1.901165E+05 -1.819351E+05  1.853762E-09  1.126039E-09
       362  17  2.189292E+05  1.752473E+06  2.989433E+05 -1.799125E+05  1.119088E-10 -6.912878E-09
       362  18  4.795535E+05  2.087437E+06  5.073880E+05 -2.973417E+05 -1.014398E-09 -2.569776E-09
       362  19 -1.475529E+05  3.158948E+05 -6.082313E+04 -2.305424E+05  3.000067E+04  6.221688E+04
       362  20 -2.128844E+05 -1.337487E+04 -9.399000E+04 -1.127469E+05  3.830490E+04  8.429004E+04
       362  21 -1.140618E+05 -2.990132E+05 -7.183026E+04 -1.144224E+05  1.330060E+04  1.062763E+05
       362  22 -7.117432E+03  8.938080E+05  6.465645E+04 -2.062501E+05  3.007021E+04  3.823249E+04
       362  23  3.048895E+03  8.691904E+05  1.025114E+05 -1.463043E+05  3.827608E+04  9.235022E+04
       362  24  1.827870E+05  8.935713E+05  2.178579E+05 -2.057935E+05  1.319054E+04  1.463937E+05
       362  25  1.332986E+05  1.472037E+06  1.901186E+05 -1.819348E+05  3.013783E+04  1.422606E+04
       362  26  2.189335E+05  1.752484E+06  2.989650E+05 -1.799094E+05  3.824641E+04  1.004217E+05
       362  27  4.795630E+05  2.087475E+06  5.074536E+05 -2.973398E+05  1.306880E+04  1.865878E+05
       363   1  5.814923E+05  2.041645E+05  1.180604E+05  1.867744E+05  4.956964E+03 -7.454351E+03
       363   2  5.460643E+05  2.107617E+05  1.133690E+05  1.676647E+05  4.870091E+03 -2.763920E+04
       363   3  4.914022E+05  2.078022E+05  1.077295E+05  1.684725E+05 -1.301118E+03 -3.169617E+04
       363   4  4.370952E+03 -1.650580E+03 -3.324162E+04  4.080556E+04 -1.815155E+04 -1.617495E+04
       363   5  1.725990E+04  1.735605E+04 -1.448193E+04  2.602151E+04 -3.733313E+03 -3.088953E+04
       363   6  8.030993E+03  2.392233E+04 -8.168478E+03  3.115804E+04  4.597530E+03 -2.946966E+04
       363   7 -5.724177E+05 -2.074497E+05 -1.845664E+05 -1.050419E+05 -4.123599E+04 -2.488758E+04
       363   8 -5.112632E+05 -1.760308E+05 -1.423517E+05 -1.155119E+05 -1.232863E+04 -3.413696E+04
       363   9 -4.751076E+05 -1.599377E+05 -1.240831E+05 -1.060580E+05  1.049118E+04 -2.724512E+04
       363  10  5.814923E+05  2.041645E+05  1.180602E+05  1.867745E+05  3.358143E-09 -9.060873E-10
       363  11  5.460641E+05  2.107609E+05  1.133676E+05  1.676648E+05  1.827719E-09 -6.401460E-09
       363  12  4.914019E+05  2.078011E+05  1.077276E+05  1.684725E+05  2.546005E-09  1.125587E-10
       363  13  4.370528E+03 -1.650949E+03 -3.324273E+04  4.080532E+04  2.295411E-09  1.937001E-09
       363  14  1.725963E+04  1.735502E+04 -1.448375E+04  2.602141E+04  2.207402E-09 -4.004881E-09
       363  15  8.030737E+03  2.392139E+04 -8.170149E+03  3.115815E+04  8.337863E-10  2.284776E-09
       363  16 -5.724197E+05 -2.074508E+05 -1.845707E+05 -1.050428E+05 -2.829995E-09  9.657634E-10
       363  17 -5.112637E+05 -1.760321E+05 -1.423542E+05 -1.155122E+05 -4.205192E-11 -2.192587E-09
       363  18 -4.751079E+05 -1.599386E+05 -1.240847E+05 -1.060577E+05  5.019158E-11 -4.081819E-09
       363  19  5.814923E+05  2.041645E+05  1.180604E+05  1.867744E+05 -4.956964E+03  7.454351E+03
       363  20  5.460643E+05  2.107617E+05  1.133690E+05  1.676647E+05 -4.870091E+03  2.763920E+04
       363  21  4.914022E+05  2.078022E+05  1.077295E+05  1.684725E+05  1.301118E+03  3.169617E+04
       363  22  4.370952E+03 -1.650580E+03 -3.324162E+04  4.080556E+04  1.815155E+04  1.617495E+04
       363  23  1.725990E+04  1.735605E+04 -1.448193E+04  2.602151E+04  3.733313E+03  3.088953E+04
       363  24  8.030993E+03  2.392233E+04 -8.168478E+03  3.115804E+04 -4.597530E+03  2.946966E+04
       363  25 -5.724177E+05 -2.074497E+05 -1.845664E+05 -1.050419E+05  4.123599E+04  2.488758E+04
       363  26 -5.112632E+05 -1.760308E+05 -1.423517E+05 -1.155119E+05  1.232863E+04  3.413696E+04
       363  27 -4.751076E+05 -1.599377E+05 -1.240831E+05 -1.060580E+05 -1.049118E+04  2.724512E+04
       364   1  4.613309E+05  1.900044E+05  1.020087E+05  1.572679E+05  3.417236E+03 -2.657926E+04
       364   2  4.268878E+05  1.701931E+05  9.492710E+04  1.388207E+05  3.860462E+03 -2.459378E+04
       364   3  3.793558E+05  1.615991E+05  8.672839E+04  1.348986E+05  4.030415E+03 -2.188939E+04
       364   4  8.950477E+03  2.167204E+04 -6.457868E+03  3.278677E+04  4.527684E+03 -2.616128E+04
       364   5  1.566978E+04  1.686360E+04 -3.332560E+03  2.524794E+04  5.616637E+03 -2.393123E+04
       364   6  9.170410E+03  2.314439E+04 -1.836847E+03  3.223434E+04  6.432307E+03 -2.098199E+04
       364   7 -4.432297E+05 -1.466468E+05 -1.149400E+05 -9.161263E+04  5.637258E+03 -2.574363E+04
       364   8 -3.953817E+05 -1.364541E+05 -1.016048E+05 -8.825671E+04  7.371551E+03 -2.326916E+04
       364   9 -3.608792E+05 -1.153003E+05 -9.041201E+04 -7.037421E+04  8.832639E+03 -2.007519E+04
       364  10  4.613307E+05  1.900036E+05  1.020074E+05  1.572679E+05  1.776681E-09  6.327645E-10
       364  11  4.268876E+05  1.701925E+05  9.492594E+04  1.388208E+05 -6.157681E-10  3.586049E-10
       364  12  3.793557E+05  1.615986E+05  8.672745E+04  1.348987E+05 -2.596816E-09 -2.027346E-09
       364  13  8.950271E+03  2.167130E+04 -6.459193E+03  3.278687E+04  1.041320E-09 -3.031399E-09
       364  14  1.566960E+04  1.686297E+04 -3.333696E+03  2.524805E+04  2.046099E-11 -1.075824E-08
       364  15  9.170248E+03  2.314391E+04 -1.837752E+03  3.223445E+04 -1.077293E-09 -4.354950E-09
       364  16 -4.432299E+05 -1.466475E+05 -1.149413E+05 -9.161252E+04  1.763320E-10 -5.150572E-09
       364  17 -3.953819E+05 -1.364547E+05 -1.016059E+05 -8.825657E+04  4.136788E-10 -5.825309E-09
       364  18 -3.608794E+05 -1.153007E+05 -9.041291E+04 -7.037407E+04  3.493698E-09  3.506229E-09
       364  19  4.613309E+05  1.900044E+05  1.020087E+05  1.572679E+05 -3.417236E+03  2.657926E+04
       364  20  4.268878E+05  1.701931E+05  9.492710E+04  1.388207E+05 -3.860462E+03  2.459378E+04
       364  21  3.793558E+05  1.615991E+05  8.672839E+04  1.348986E+05 -4.030415E+03  2.188939E+04
       364  22  8.950477E+03  2.167204E+04 -6.457868E+03  3.278677E+04 -4.527684E+03  2.616128E+04
       364  23  1.566978E+04  1.686360E+04 -3.332560E+03  2.524794E+04 -5.616637E+03  2.393123E+04
       364  24  9.170410E+03  2.314439E+04 -1.836847E+03  3.223434E+04 -6.432307E+03  2.098199E+04
       364  25 -4.432297E+05 -1.466468E+05 -1.149400E+05 -9.161263E+04 -5.637258E+03  2.574363E+04
       364  26 -3.953817E+05 -1.364541E+05 -1.016048E+05 -8.825671E+04 -7.371551E+03  2.326916E+04
       364  27 -3.608792E+05 -1.153003E+05 -9.041201E+04 -7.037421E+04 -8.832639E+03  2.007519E+04
       365   1  3.459960E+05  1.487284E+05  7.890983E+04  1.255281E+05  3.930484E+03 -2.019711E+04
       365   2  3.115382E+05  1.273747E+05  6.994466E+04  1.071410E+05  3.348710E+03 -1.761914E+04
       365   3  2.644901E+05  1.184932E+05  6.071108E+04  1.029758E+05  2.753859E+03 -1.500976E+04
       365   4  9.252195E+03  2.302156E+04 -1.392291E+03  3.233147E+04  6.118203E+03 -1.937036E+04
       365   5  1.556246E+04  1.683699E+04 -7.445253E+02  2.520379E+04  5.564604E+03 -1.678124E+04
       365   6  9.274394E+03  2.311937E+04 -3.877282E+02  3.229807E+04  4.997945E+03 -1.416069E+04
       365   7 -3.273774E+05 -1.026763E+05 -8.170208E+04 -6.081872E+04  8.304619E+03 -1.854410E+04
       365   8 -2.803264E+05 -9.369431E+04 -7.144002E+04 -5.669789E+04  7.779347E+03 -1.594378E+04
       365   9 -2.458780E+05 -7.225017E+04 -6.149160E+04 -3.835362E+04  7.241038E+03 -1.331199E+04
       365  10  3.459959E+05  1.487279E+05  7.890903E+04  1.255282E+05 -1.192566E-09 -3.020346E-09
       365  11  3.115381E+05  1.273744E+05  6.994405E+04  1.071411E+05 -4.896701E-09  5.675132E-09
       365  12  2.644900E+05  1.184929E+05  6.071064E+04  1.029759E+05 -3.134395E-09  7.355890E-09
       365  13  9.252054E+03  2.302114E+04 -1.393066E+03  3.233156E+04 -1.789874E-09  2.603045E-09
       365  14  1.556235E+04  1.683668E+04 -7.451127E+02  2.520387E+04 -1.007648E-09  3.361537E-09
       365  15  9.274313E+03  2.311915E+04 -3.881520E+02  3.229812E+04 -2.890149E-09  4.341150E-09
       365  16 -3.273775E+05 -1.026767E+05 -8.170285E+04 -6.081859E+04  1.249003E-09  7.583199E-09
       365  17 -2.803265E+05 -9.369460E+04 -7.144061E+04 -5.669779E+04  6.862889E-10  1.740619E-09
       365  18 -2.458781E+05 -7.225038E+04 -6.149203E+04 -3.835354E+04 -1.011431E-09  4.050562E-09
       365  19  3.459960E+05  1.487284E+05  7.890983E+04  1.255281E+05 -3.930484E+03  2.019711E+04
       365  20  3.115382E+05  1.273747E+05  6.994466E+04  1.071410E+05 -3.348710E+03  1.761914E+04
       365  21  2.644901E+05  1.184932E+05  6.071108E+04  1.029758E+05 -2.753859E+03  1.500976E+04
       365  22  9.252195E+03  2.302156E+04 -1.392291E+03  3.233147E+04 -6.118203E+03  1.937036E+04
       365  23  1.556246E+04  1.683699E+04 -7.445253E+02  2.520379E+04 -5.564604E+03  1.678124E+04
       365  24  9.274394E+03  2.311937E+04 -3.877282E+02  3.229807E+04 -4.997945E+03  1.416069E+04
       365  25 -3.273774E+05 -1.026763E+05 -8.170208E+04 -6.081872E+04 -8.304619E+03  1.854410E+04
       365  26 -2.803264E+05 -9.369431E+04 -7.144002E+04 -5.669789E+04 -7.779347E+03  1.594378E+04
       365  27 -2.458780E+05 -7.225017E+04 -6.149160E+04 -3.835362E+04 -7.241038E+03  1.331199E+04
       366   1  2.309374E+05  1.058991E+05  5.252555E+04  9.370070E+04  2.269352E+03 -1.353498E+04
       366   2  1.964922E+05  8.445243E+04  4.311374E+04  7.531839E+04  1.379494E+03 -1.103054E+04
       366   3  1.494984E+05  7.555399E+04  3.366532E+04  7.113546E+04  4.885733E+02 -8.525126E+03
       366   4  9.285049E+03  2.311459E+04 -2.759100E+02  3.230304E+04  4.503552E+03 -1.268939E+04
       366   5  1.556391E+04  1.684907E+04 -1.038673E+02  2.520141E+04  3.614577E+03 -1.018433E+04
       366   6  9.291885E+03  2.313150E+04  3.075847E+01  3.229859E+04  2.724542E+03 -7.678272E+03
       366   7 -2.123185E+05 -5.966631E+04 -5.308087E+04 -2.907464E+04  6.736883E+03 -1.184414E+04
       366   8 -1.653314E+05 -5.075170E+04 -4.332368E+04 -2.490213E+04  5.848945E+03 -9.338380E+03
       366   9 -1.308944E+05 -2.928926E+04 -3.360501E+04 -6.530094E+03  4.959949E+03 -6.831631E+03
       366  10  2.309373E+05  1.058989E+05  5.252520E+04  9.370072E+04 -1.204039E-09  7.534841E-09
       366  11  1.964922E+05  8.445230E+04  4.311350E+04  7.531840E+04 -1.706588E-09 -1.226568E-09
       366  12  1.494983E+05  7.555391E+04  3.366518E+04  7.113547E+04 -3.737058E-10 -2.298436E-09
       366  13  9.284984E+03  2.311441E+04 -2.762507E+02  3.230309E+04 -2.326348E-09  4.722480E-09
       366  14  1.556387E+04  1.684896E+04 -1.040868E+02  2.520144E+04 -3.637740E-10  6.466597E-09
       366  15  9.291861E+03  2.313144E+04  3.063373E+01  3.229860E+04  1.870951E-09  5.057198E-10
       366  16 -2.123186E+05 -5.966647E+04 -5.308122E+04 -2.907458E+04 -2.067482E-09  2.570153E-09
       366  17 -1.653315E+05 -5.075180E+04 -4.332391E+04 -2.490208E+04 -1.351039E-09  7.619475E-10
       366  18 -1.308944E+05 -2.928932E+04 -3.360514E+04 -6.530067E+03 -1.752130E-09  6.440345E-09
       366  19  2.309374E+05  1.058991E+05  5.252555E+04  9.370070E+04 -2.269352E+03  1.353498E+04
       366  20  1.964922E+05  8.445243E+04  4.311374E+04  7.531839E+04 -1.379494E+03  1.103054E+04
       366  21  1.494984E+05  7.555399E+04  3.366532E+04  7.113546E+04 -4.885733E+02  8.525126E+03
       366  22  9.285049E+03  2.311459E+04 -2.759100E+02  3.230304E+04 -4.503552E+03  1.268939E+04
       366  23  1.556391E+04  1.684907E+04 -1.038673E+02  2.520141E+04 -3.614577E+03  1.018433E+04
       366  24  9.291885E+03  2.313150E+04  3.075847E+01  3.229859E+04 -2.724542E+03  7.678272E+03
       366  25 -2.123185E+05 -5.966631E+04 -5.308087E+04 -2.907464E+04 -6.736883E+03  1.184414E+04
       366  26 -1.653314E+05 -5.075170E+04 -4.332368E+04 -2.490213E+04 -5.848945E+03  9.338380E+03
       366  27 -1.308944E+05 -2.928926E+04 -3.360501E+04 -6.530094E+03 -4.959949E+03  6.831631E+03
       367   1  1.159477E+05  6.297109E+04  2.543211E+04  6.186385E+04 -6.985375E+01 -7.081682E+03
       367   2  8.150756E+04  4.151087E+04  1.601761E+04  4.348275E+04 -1.141336E+03 -4.644645E+03
       367   3  3.453493E+04  3.261511E+04  6.701541E+03  3.929943E+04 -2.212698E+03 -2.208554E+03
       367   4  9.297751E+03  2.313263E+04  9.552438E+01  3.230031E+04  2.165681E+03 -6.234863E+03
       367   5  1.556564E+04  1.685417E+04  2.624547E+02  2.520039E+04  1.093340E+03 -3.798039E+03
       367   6  9.300320E+03  2.314061E+04  5.287641E+02  3.229792E+04  2.110859E+01 -1.362160E+03
       367   7 -9.734150E+04 -1.670520E+04 -2.524201E+04  2.741241E+03  4.400808E+03 -5.388198E+03
       367   8 -5.037213E+04 -7.802277E+03 -1.549305E+04  6.919753E+03  3.327763E+03 -2.951529E+03
       367   9 -1.593365E+04  1.366616E+04 -5.644041E+03  2.529667E+04  2.254816E+03 -5.158040E+02
       367  10  1.159477E+05  6.297104E+04  2.543202E+04  6.186385E+04 -7.538614E-10 -9.331198E-10
       367  11  8.150755E+04  4.151085E+04  1.601757E+04  4.348275E+04  1.434668E-10  1.501686E-09
       367  12  3.453492E+04  3.261510E+04  6.701523E+03  3.929942E+04  2.432630E-09 -6.497875E-09
       367  13  9.297736E+03  2.313259E+04  9.544251E+01  3.230032E+04 -2.485098E-09 -6.572475E-09
       367  14  1.556564E+04  1.685415E+04  2.624254E+02  2.520039E+04  7.459432E-10 -1.947323E-10
       367  15  9.300319E+03  2.314061E+04  5.287606E+02  3.229792E+04  9.710785E-11  1.944415E-09
       367  16 -9.734152E+04 -1.670523E+04 -2.524210E+04  2.741260E+03  1.744027E-09  5.987132E-09
       367  17 -5.037215E+04 -7.802289E+03 -1.549308E+04  6.919760E+03 -8.872546E-10  5.111704E-09
       367  18 -1.593366E+04  1.366616E+04 -5.644051E+03  2.529667E+04 -1.627191E-09 -5.218839E-09
       367  19  1.159477E+05  6.297109E+04  2.543211E+04  6.186385E+04  6.985375E+01  7.081682E+03
       367  20  8.150756E+04  4.151087E+04  1.601761E+04  4.348275E+04  1.141336E+03  4.644645E+03
       367  21  3.453493E+04  3.261511E+04  6.701541E+03  3.929943E+04  2.212698E+03  2.208554E+03
       367  22  9.297751E+03  2.313263E+04  9.552438E+01  3.230031E+04 -2.165681E+03  6.234863E+03
       367  23  1.556564E+04  1.685417E+04  2.624547E+02  2.520039E+04 -1.093340E+03  3.798039E+03
       367  24  9.300320E+03  2.314061E+04  5.287641E+02  3.229792E+04 -2.110859E+01  1.362160E+03
       367  25 -9.734150E+04 -1.670520E+04 -2.524201E+04  2.741241E+03 -4.400808E+03  5.388198E+03
       367  26 -5.037213E+04 -7.802277E+03 -1.549305E+04  6.919753E+03 -3.327763E+03  2.951529E+03
       367  27 -1.593365E+04  1.366616E+04 -5.644041E+03  2.529667E+04 -2.254816E+03  5.158040E+02
       368   1  9.927253E+02  2.003927E+04 -1.406957E+03  3.005856E+04 -2.869836E+03 -8.008411E+02
       368   2 -3.348516E+04 -1.449758E+03 -1.039047E+04  1.165144E+04 -4.451581E+03  1.438053E+03
       368   3 -8.037517E+04 -1.022928E+04 -1.885722E+04  7.429143E+03 -6.026068E+03  3.658544E+03
       368   4  9.321860E+03  2.313182E+04  7.165316E+02  3.231079E+04 -6.306427E+02  4.760046E+01
       368   5  1.553506E+04  1.683595E+04  1.317481E+03  2.519559E+04 -2.229106E+03  2.280070E+03
       368   6  9.337842E+03  2.325264E+04  2.448453E+03  3.226439E+04 -3.820364E+03  4.494133E+03
       368   7  1.765103E+04  2.622436E+04  2.840024E+03  3.456304E+04  1.608572E+03  8.960498E+02
       368   8  6.455768E+04  3.512185E+04  1.302528E+04  3.874071E+04 -6.439198E+00  3.122160E+03
       368   9  9.905933E+04  5.673533E+04  2.375370E+04  5.710304E+04 -1.614303E+03  5.329857E+03
       368  10  9.927163E+02  2.003927E+04 -1.406973E+03  3.005856E+04  4.058443E-10  2.562989E-09
       368  11 -3.348518E+04 -1.449765E+03 -1.039051E+04  1.165145E+04  2.589584E-10  1.718766E-09
       368  12 -8.037521E+04 -1.022930E+04 -1.885732E+04  7.429161E+03 -1.861886E-09 -2.917785E-10
       368  13  9.321859E+03  2.313182E+04  7.165309E+02  3.231079E+04  1.425920E-09 -4.497620E-09
       368  14  1.553505E+04  1.683595E+04  1.317462E+03  2.519559E+04  3.109440E-09 -2.869627E-09
       368  15  9.337821E+03  2.325262E+04  2.448388E+03  3.226441E+04  2.308486E-10  2.937319E-09
       368  16  1.765103E+04  2.622436E+04  2.840018E+03  3.456304E+04 -5.315401E-10  1.853640E-09
       368  17  6.455768E+04  3.512184E+04  1.302526E+04  3.874071E+04  2.518261E-09  7.774718E-10
       368  18  9.905932E+04  5.673530E+04  2.375364E+04  5.710305E+04 -1.494547E-09  2.481781E-09
       368  19  9.927253E+02  2.003927E+04 -1.406957E+03  3.005856E+04  2.869836E+03  8.008411E+02
       368  20 -3.348516E+04 -1.449758E+03 -1.039047E+04  1.165144E+04  4.451581E+03 -1.438053E+03
       368  21 -8.037517E+04 -1.022928E+04 -1.885722E+04  7.429143E+03  6.026068E+03 -3.658544E+03
       368  22  9.321860E+03  2.313182E+04  7.165316E+02  3.231079E+04  6.306427E+02 -4.760046E+01
       368  23  1.553506E+04  1.683595E+04  1.317481E+03  2.519559E+04  2.229106E+03 -2.280070E+03
       368  24  9.337842E+03  2.325264E+04  2.448453E+03  3.226439E+04  3.820364E+03 -4.494133E+03
       368  25  1.765103E+04  2.622436E+04  2.840024E+03  3.456304E+04 -1.608572E+03 -8.960498E+02
       368  26  6.455768E+04  3.512185E+04  1.302528E+04  3.874071E+04  6.439198E+00 -3.122160E+03
       368  27  9.905933E+04  5.673533E+04  2.375370E+04  5.710304E+04  1.614303E+03 -5.329857E+03
       369   1 -1.140790E+05 -2.272877E+04 -2.635132E+04 -1.330100E+03 -7.166193E+03  4.924789E+03
       369   2 -1.485008E+05 -4.468986E+04 -3.339874E+04 -2.043887E+04 -1.064895E+04  6.331913E+03
       369   3 -1.941879E+05 -5.162975E+04 -3.785356E+04 -2.589978E+04 -1.397397E+04  7.324833E+03
       369   4  9.498305E+03  2.302662E+04  3.229910E+03  3.243035E+04 -4.837478E+03  5.806875E+03
       369   5  1.527263E+04  1.673100E+04  5.826622E+03  2.513208E+04 -8.693506E+03  7.072325E+03
       369   6  9.853565E+03  2.552962E+04  1.131138E+04  3.148067E+04 -1.239200E+04  7.923559E+03
       369   7  1.330908E+05  6.878304E+04  3.281004E+04  6.619689E+04 -2.508257E+03  6.689147E+03
       369   8  1.790723E+05  7.815371E+04  4.504993E+04  7.071387E+04 -6.737508E+03  7.812949E+03
       369   9  2.139352E+05  1.026919E+05  6.047297E+04  8.887809E+04 -1.080946E+04  8.522504E+03
       369  10 -1.140791E+05 -2.272881E+04 -2.635146E+04 -1.330071E+03  3.378575E-09  2.670103E-09
       369  11 -1.485010E+05 -4.468993E+04 -3.339903E+04 -2.043881E+04 -9.077238E-09 -4.768463E-09
       369  12 -1.941881E+05 -5.162986E+04 -3.785403E+04 -2.589969E+04 -1.782758E-08 -8.665499E-09
       369  13  9.498271E+03  2.302658E+04  3.229802E+03  3.243038E+04 -2.364528E-09  1.546126E-09
       369  14  1.527253E+04  1.673093E+04  5.826386E+03  2.513213E+04 -1.638574E-09 -2.383443E-09
       369  15  9.853383E+03  2.552951E+04  1.131097E+04  3.148075E+04 -3.321624E-09 -2.378176E-09
       369  16  1.330908E+05  6.878299E+04  3.280995E+04  6.619690E+04 -7.876118E-09  3.964273E-09
       369  17  1.790722E+05  7.815363E+04  4.504973E+04  7.071391E+04  4.199866E-09  4.052510E-09
       369  18  2.139351E+05  1.026918E+05  6.047262E+04  8.887816E+04  1.004176E-08  1.268356E-08
       369  19 -1.140790E+05 -2.272877E+04 -2.635132E+04 -1.330100E+03  7.166193E+03 -4.924789E+03
       369  20 -1.485008E+05 -4.468986E+04 -3.339874E+04 -2.043887E+04  1.064895E+04 -6.331913E+03
       369  21 -1.941879E+05 -5.162975E+04 -3.785356E+04 -2.589978E+04  1.397397E+04 -7.324833E+03
       369  22  9.498305E+03  2.302662E+04  3.229910E+03  3.243035E+04  4.837478E+03 -5.806875E+03
       369  23  1.527263E+04  1.673100E+04  5.826622E+03  2.513208E+04  8.693506E+03 -7.072325E+03
       369  24  9.853565E+03  2.552962E+04  1.131138E+04  3.148067E+04  1.239200E+04 -7.923559E+03
       369  25  1.330908E+05  6.878304E+04  3.281004E+04  6.619689E+04  2.508257E+03 -6.689147E+03
       369  26  1.790723E+05  7.815371E+04  4.504993E+04  7.071387E+04  6.737508E+03 -7.812949E+03
       369  27  2.139352E+05  1.026919E+05  6.047297E+04  8.887809E+04  1.080946E+04 -8.522504E+03
       370   1 -2.313537E+05 -6.311984E+04 -4.264687E+04 -2.670970E+04 -1.940885E+04  7.889994E+03
       370   2 -2.612388E+05 -9.342376E+04 -4.257304E+04 -5.879144E+04 -2.468721E+04  6.102400E+03
       370   3 -2.870135E+05 -7.020345E+04 -2.725293E+04 -8.803665E+04 -2.644847E+04 -4.979115E+03
       370   4  1.173610E+04  2.130989E+04  1.431171E+04  3.404476E+04 -1.507121E+04  9.532099E+03
       370   5  1.205961E+04  1.610656E+04  2.533365E+04  2.415394E+04 -2.870568E+04  4.580516E+03
       370   6  1.814197E+04  6.607175E+04  5.822347E+04  1.710102E+04 -3.882444E+04 -9.663399E+03
       370   7  2.548863E+05  1.057426E+05  7.126680E+04  9.482051E+04 -1.073168E+04  1.117481E+04
       370   8  2.854317E+05  1.256451E+05  9.323450E+04  1.071336E+05 -3.272606E+04  3.057787E+03
       370   9  3.233859E+05  2.023625E+05  1.436909E+05  1.222881E+05 -5.120695E+04 -1.435120E+04
       370  10 -2.313541E+05 -6.312001E+04 -4.264770E+04 -2.670958E+04  4.445163E-09  1.705561E-09
       370  11 -2.612394E+05 -9.342396E+04 -4.257426E+04 -5.879132E+04  9.199488E-09  1.293303E-08
       370  12 -2.870142E+05 -7.020367E+04 -2.725430E+04 -8.803675E+04  5.425072E-09  7.952744E-09
       370  13  1.173583E+04  2.130973E+04  1.431111E+04  3.404488E+04 -3.477761E-09 -5.676993E-09
       370  14  1.205872E+04  1.610631E+04  2.533206E+04  2.415405E+04 -5.843695E-10  8.775125E-09
       370  15  1.814032E+04  6.607125E+04  5.822046E+04  1.710072E+04 -5.352560E-10  1.499288E-09
       370  16  2.548862E+05  1.057425E+05  7.126635E+04  9.482061E+04 -1.211509E-08  7.280896E-09
       370  17  2.854306E+05  1.256448E+05  9.323247E+04  1.071337E+05 -1.275214E-08  2.710435E-09
       370  18  3.233831E+05  2.023616E+05  1.436856E+05  1.222875E+05 -6.891282E-09 -3.787636E-09
       370  19 -2.313537E+05 -6.311984E+04 -4.264687E+04 -2.670970E+04  1.940885E+04 -7.889994E+03
       370  20 -2.612388E+05 -9.342376E+04 -4.257304E+04 -5.879144E+04  2.468721E+04 -6.102400E+03
       370  21 -2.870135E+05 -7.020345E+04 -2.725293E+04 -8.803665E+04  2.644847E+04  4.979115E+03
       370  22  1.173610E+04  2.130989E+04  1.431171E+04  3.404476E+04  1.507121E+04 -9.532099E+03
       370  23  1.205961E+04  1.610656E+04  2.533365E+04  2.415394E+04  2.870568E+04 -4.580516E+03
       370  24  1.814197E+04  6.607175E+04  5.822347E+04  1.710102E+04  3.882444E+04  9.663399E+03
       370  25  2.548863E+05  1.057426E+05  7.126680E+04  9.482051E+04  1.073168E+04 -1.117481E+04
       370  26  2.854317E+05  1.256451E+05  9.323450E+04  1.071336E+05  3.272606E+04 -3.057787E+03
       370  27  3.233859E+05  2.023625E+05  1.436909E+05  1.222881E+05  5.120695E+04  1.435120E+04
       371   1  1.309913E+05  4.544801E+04  3.411728E+04 -2.009903E+02 -2.300028E+04 -4.946521E+03
       371   2  1.028726E+05  8.092497E+04  4.873004E+04  7.771733E+03 -1.899123E+04 -1.544425E+04
       371   3  6.397098E+04  7.558042E+04  5.053754E+04  2.851828E+04 -1.501158E+04 -1.624895E+04
       371   4 -2.371889E+05 -4.582715E+04 -5.485050E+04  2.145454E+04 -3.772898E+04 -4.992058E+03
       371   5 -2.309798E+05 -5.604711E+02 -2.511098E+04  1.499264E+04 -2.441945E+04 -1.546205E+04
       371   6 -2.371766E+05  2.257034E+03 -1.464226E+04  2.130542E+04 -1.113887E+04 -1.623685E+04
       371   7 -6.052436E+05 -1.371103E+05 -1.438269E+05  4.309709E+04 -5.244898E+04 -5.038636E+03
       371   8 -5.647279E+05 -8.205319E+04 -9.895873E+04  2.220953E+04 -2.984478E+04 -1.547998E+04
       371   9 -5.382389E+05 -7.107216E+04 -7.982737E+04  1.409604E+04 -7.268005E+03 -1.622484E+04
       371  10  1.309907E+05  4.544785E+04  3.411624E+04 -2.010819E+02 -8.450522E-09  2.033801E-09
       371  11  1.028722E+05  8.092462E+04  4.872891E+04  7.771496E+03 -1.216230E-09  1.267108E-08
       371  12  6.397067E+04  7.558008E+04  5.053662E+04  2.851808E+04  6.195815E-09  4.502700E-09
       371  13 -2.371904E+05 -4.582756E+04 -5.485322E+04  2.145438E+04 -3.683375E-10 -5.602606E-09
       371  14 -2.309805E+05 -5.608879E+02 -2.511255E+04  1.499233E+04 -1.255730E-09 -6.386495E-09
       371  15 -2.371768E+05  2.256717E+03 -1.464299E+04  2.130528E+04 -8.215722E-10  2.372959E-09
       371  16 -6.052466E+05 -1.371111E+05 -1.438321E+05  4.309687E+04  9.208922E-09  1.125206E-09
       371  17 -5.647289E+05 -8.205369E+04 -9.896085E+04  2.220916E+04  6.740378E-10  8.460583E-09
       371  18 -5.382390E+05 -7.107246E+04 -7.982797E+04  1.409595E+04 -6.518578E-09 -1.149146E-09
       371  19  1.309913E+05  4.544801E+04  3.411728E+04 -2.009903E+02  2.300028E+04  4.946521E+03
       371  20  1.028726E+05  8.092497E+04  4.873004E+04  7.771733E+03  1.899123E+04  1.544425E+04
       371  21  6.397098E+04  7.558042E+04  5.053754E+04  2.851828E+04  1.501158E+04  1.624895E+04
       371  22 -2.371889E+05 -4.582715E+04 -5.485050E+04  2.145454E+04  3.772898E+04  4.992058E+03
       371  23 -2.309798E+05 -5.604711E+02 -2.511098E+04  1.499264E+04  2.441945E+04  1.546205E+04
       371  24 -2.371766E+05  2.257034E+03 -1.464226E+04  2.130542E+04  1.113887E+04  1.623685E+04
       371  25 -6.052436E+05 -1.371103E+05 -1.438269E+05  4.309709E+04  5.244898E+04  5.038636E+03
       371  26 -5.647279E+05 -8.205319E+04 -9.895873E+04  2.220953E+04  2.984478E+04  1.547998E+04
       371  27 -5.382389E+05 -7.107216E+04 -7.982737E+04  1.409604E+04  7.268005E+03  1.622484E+04
       372   1  3.978592E+04  6.460847E+04  4.807873E+04  2.130357E+04 -1.021159E+04 -1.432895E+04
       372   2  6.848980E+03  5.877474E+04  4.588082E+04  1.528007E+04 -7.478378E+03 -1.293137E+04
       372   3 -2.706843E+04  5.080182E+04  4.134843E+04  2.241894E+04 -4.747322E+03 -1.109228E+04
       372   4 -2.346520E+05 -2.216944E+03 -1.160250E+04  2.143365E+04 -9.087701E+03 -1.432574E+04
       372   5 -2.341213E+05  1.373607E+02 -6.302871E+03  1.484811E+04 -5.931925E+03 -1.292655E+04
       372   6 -2.346466E+05  2.784332E+02 -3.632168E+03  2.142529E+04 -2.778166E+03 -1.108578E+04
       372   7 -5.090194E+05 -6.904735E+04 -7.128823E+04  2.156362E+04 -7.964304E+03 -1.432252E+04
       372   8 -4.750371E+05 -5.850386E+04 -5.849000E+04  1.441627E+04 -4.386065E+03 -1.292173E+04
       372   9 -4.421842E+05 -5.024780E+04 -4.861532E+04  2.043195E+04 -8.096587E+02 -1.107928E+04
       372  10  3.978575E+04  6.460822E+04  4.807815E+04  2.130345E+04 -1.919564E-09 -2.323889E-09
       372  11  6.848876E+03  5.877455E+04  4.588040E+04  1.527999E+04 -4.222240E-10  2.929241E-09
       372  12 -2.706849E+04  5.080168E+04  4.134816E+04  2.241890E+04  5.691217E-09  7.672636E-09
       372  13 -2.346522E+05 -2.217187E+03 -1.160304E+04  2.143355E+04  8.840009E-10  1.047764E-08
       372  14 -2.341214E+05  1.371719E+02 -6.303251E+03  1.484804E+04 -9.898571E-10 -1.546591E-08
       372  15 -2.346466E+05  2.782991E+02 -3.632413E+03  2.142527E+04 -8.408533E-10  9.197406E-09
       372  16 -5.090195E+05 -6.904759E+04 -7.128873E+04  2.156352E+04  3.464101E-09 -5.742808E-09
       372  17 -4.750372E+05 -5.850404E+04 -5.849035E+04  1.441622E+04 -3.234813E-10 -2.583532E-09
       372  18 -4.421843E+05 -5.024793E+04 -4.861555E+04  2.043194E+04 -6.193569E-09 -4.587030E-10
       372  19  3.978592E+04  6.460847E+04  4.807873E+04  2.130357E+04  1.021159E+04  1.432895E+04
       372  20  6.848980E+03  5.877474E+04  4.588082E+04  1.528007E+04  7.478378E+03  1.293137E+04
       372  21 -2.706843E+04  5.080182E+04  4.134843E+04  2.241894E+04  4.747322E+03  1.109228E+04
       372  22 -2.346520E+05 -2.216944E+03 -1.160250E+04  2.143365E+04  9.087701E+03  1.432574E+04
       372  23 -2.341213E+05  1.373607E+02 -6.302871E+03  1.484811E+04  5.931925E+03  1.292655E+04
       372  24 -2.346466E+05  2.784332E+02 -3.632168E+03  2.142529E+04  2.778166E+03  1.108578E+04
       372  25 -5.090194E+05 -6.904735E+04 -7.128823E+04  2.156362E+04  7.964304E+03  1.432252E+04
       372  26 -4.750371E+05 -5.850386E+04 -5.849000E+04  1.441627E+04  4.386065E+03  1.292173E+04
       372  27 -4.421842E+05 -5.024780E+04 -4.861532E+04  2.043195E+04  8.096587E+02  1.107928E+04
       373   1 -5.346248E+04  4.407000E+04  3.628624E+04  2.196704E+04 -4.062482E+03 -9.916150E+03
       373   2 -8.683568E+04  3.601582E+04  3.032226E+04  1.527734E+04 -3.305151E+03 -7.981064E+03
       373   3 -1.204238E+05  2.792968E+04  2.383131E+04  2.179437E+04 -2.548272E+03 -6.025046E+03
       373   4 -2.344583E+05  4.932785E+01 -2.781509E+03  2.143751E+04 -2.217106E+03 -9.909949E+03
       373   5 -2.343473E+05  1.255300E+02 -1.581643E+03  1.483385E+04 -1.439922E+03 -7.974643E+03
       373   6 -2.344552E+05  1.664807E+02 -9.225042E+02  2.143710E+04 -6.631493E+02 -6.018398E+03
       373   7 -4.154233E+05 -4.397350E+04 -4.185118E+04  2.090811E+04 -3.722592E+02 -9.903751E+03
       373   8 -3.818384E+05 -3.576619E+04 -3.348682E+04  1.439044E+04  4.248706E+02 -7.968223E+03
       373   9 -3.484744E+05 -2.759758E+04 -2.567708E+04  2.107988E+04  1.221631E+03 -6.011751E+03
       373  10 -5.346252E+04  4.406989E+04  3.628603E+04  2.196701E+04  3.469448E-09 -3.786252E-09
       373  11 -8.683571E+04  3.601575E+04  3.032212E+04  1.527732E+04 -2.084203E-09 -5.057197E-09
       373  12 -1.204238E+05  2.792964E+04  2.383123E+04  2.179436E+04 -4.198839E-09 -2.114520E-09
       373  13 -2.344583E+05  4.922108E+01 -2.781703E+03  2.143749E+04  1.580586E-11 -2.160219E-09
       373  14 -2.343473E+05  1.254612E+02 -1.581766E+03  1.483384E+04 -1.509038E-09 -1.299154E-09
       373  15 -2.344552E+05  1.664417E+02 -9.225731E+02  2.143710E+04  1.237557E-10 -1.165896E-09
       373  16 -4.154233E+05 -4.397361E+04 -4.185137E+04  2.090811E+04 -2.475805E-09 -6.486242E-09
       373  17 -3.818384E+05 -3.576626E+04 -3.348694E+04  1.439045E+04  1.973877E-09  6.789711E-09
       373  18 -3.484744E+05 -2.759762E+04 -2.567716E+04  2.107989E+04  3.484142E-09  9.825333E-09
       373  19 -5.346248E+04  4.407000E+04  3.628624E+04  2.196704E+04  4.062482E+03  9.916150E+03
       373  20 -8.683568E+04  3.601582E+04  3.032226E+04  1.527734E+04  3.305151E+03  7.981064E+03
       373  21 -1.204238E+05  2.792968E+04  2.383131E+04  2.179437E+04  2.548272E+03  6.025046E+03
       373  22 -2.344583E+05  4.932785E+01 -2.781509E+03  2.143751E+04  2.217106E+03  9.909949E+03
       373  23 -2.343473E+05  1.255300E+02 -1.581643E+03  1.483385E+04  1.439922E+03  7.974643E+03
       373  24 -2.344552E+05  1.664807E+02 -9.225042E+02  2.143710E+04  6.631493E+02  6.018398E+03
       373  25 -4.154233E+05 -4.397350E+04 -4.185118E+04  2.090811E+04  3.722592E+02  9.903751E+03
       373  26 -3.818384E+05 -3.576619E+04 -3.348682E+04  1.439044E+04 -4.248706E+02  7.968223E+03
       373  27 -3.484744E+05 -2.759758E+04 -2.567708E+04  2.107988E+04 -1.221631E+03  6.011751E+03
       374   1 -1.470119E+05  2.140907E+04  1.810135E+04  2.170295E+04 -2.399684E+03 -4.882260E+03
       374   2 -1.804629E+05  1.323261E+04  1.121790E+04  1.499226E+04 -2.189842E+03 -2.922198E+03
       374   3 -2.140364E+05  5.142025E+03  4.191279E+03  2.150136E+04 -1.980144E+03 -9.609236E+02
       374   4 -2.344328E+05  1.571662E+02 -7.127248E+02  2.144010E+04 -5.196677E+02 -4.875565E+03
       374   5 -2.343704E+05  1.161334E+02 -4.408062E+02  1.483017E+04 -3.087348E+02 -2.915444E+03
       374   6 -2.344317E+05  1.608423E+02 -3.127976E+02  2.144009E+04 -9.793533E+01 -9.541068E+02
       374   7 -3.218466E+05 -2.109524E+04 -1.952724E+04  2.117729E+04  1.360088E+03 -4.868870E+03
       374   8 -2.882751E+05 -1.300053E+04 -1.209967E+04  1.466809E+04  1.572211E+03 -2.908691E+03
       374   9 -2.548266E+05 -4.820366E+03 -4.816886E+03  2.137882E+04  1.784212E+03 -9.472902E+02
       374  10 -1.470120E+05  2.140904E+04  1.810130E+04  2.170294E+04  2.803871E-09 -7.208302E-09
       374  11 -1.804629E+05  1.323260E+04  1.121787E+04  1.499225E+04 -6.456008E-09 -7.816056E-10
       374  12 -2.140364E+05  5.142023E+03  4.191270E+03  2.150136E+04 -9.039808E-09  3.460920E-09
       374  13 -2.344329E+05  1.571406E+02 -7.127700E+02  2.144010E+04  1.213584E-12  2.036505E-09
       374  14 -2.343704E+05  1.161243E+02 -4.408224E+02  1.483017E+04 -2.544299E-09 -8.378428E-09
       374  15 -2.344317E+05  1.608413E+02 -3.127993E+02  2.144009E+04 -1.254885E-10 -2.668921E-09
       374  16 -3.218466E+05 -2.109526E+04 -1.952729E+04  2.117730E+04 -1.392323E-09  3.005944E-09
       374  17 -2.882751E+05 -1.300054E+04 -1.209969E+04  1.466810E+04  5.600567E-09  1.104956E-08
       374  18 -2.548266E+05 -4.820368E+03 -4.816894E+03  2.137882E+04  8.881798E-09  3.686675E-09
       374  19 -1.470119E+05  2.140907E+04  1.810135E+04  2.170295E+04  2.399684E+03  4.882260E+03
       374  20 -1.804629E+05  1.323261E+04  1.121790E+04  1.499226E+04  2.189842E+03  2.922198E+03
       374  21 -2.140364E+05  5.142025E+03  4.191279E+03  2.150136E+04  1.980144E+03  9.609236E+02
       374  22 -2.344328E+05  1.571662E+02 -7.127248E+02  2.144010E+04  5.196677E+02  4.875565E+03
       374  23 -2.343704E+05  1.161334E+02 -4.408062E+02  1.483017E+04  3.087348E+02  2.915444E+03
       374  24 -2.344317E+05  1.608423E+02 -3.127976E+02  2.144009E+04  9.793533E+01  9.541068E+02
       374  25 -3.218466E+05 -2.109524E+04 -1.952724E+04  2.117729E+04 -1.360088E+03  4.868870E+03
       374  26 -2.882751E+05 -1.300053E+04 -1.209967E+04  1.466809E+04 -1.572211E+03  2.908691E+03
       374  27 -2.548266E+05 -4.820366E+03 -4.816886E+03  2.137882E+04 -1.784212E+03  9.472902E+02
       375   1 -2.406562E+05 -1.372711E+03 -1.726908E+03  2.142579E+04 -1.929903E+03  1.807457E+02
       375   2 -2.741120E+05 -9.555263E+03 -8.897320E+03  1.471706E+04 -1.786473E+03  2.141973E+03
       375   3 -3.076810E+05 -1.764870E+04 -1.616698E+04  2.122939E+04 -1.642954E+03  4.102111E+03
       375   4 -2.344296E+05  1.609397E+02 -2.871760E+02  2.144035E+04 -4.769506E+01  1.875672E+02
       375   5 -2.343727E+05  1.143893E+02 -3.022952E+02  1.482985E+04  9.463581E+01  2.148746E+03
       375   6 -2.344304E+05  1.570789E+02 -4.159953E+02  2.144036E+04  2.370635E+02  4.108840E+03
       375   7 -2.282030E+05  1.694590E+03  1.152567E+03  2.145491E+04  1.834532E+03  1.943887E+02
       375   8 -1.946319E+05  9.783939E+03  8.292650E+03  1.494265E+04  1.975863E+03  2.155520E+03
       375   9 -1.611747E+05  1.796251E+04  1.533468E+04  2.165135E+04  2.117300E+03  4.115571E+03
       375  10 -2.406562E+05 -1.372712E+03 -1.726915E+03  2.142579E+04  2.280612E-09  4.310509E-09
       375  11 -2.741120E+05 -9.555268E+03 -8.897335E+03  1.471706E+04 -1.748905E-09 -6.172580E-09
       375  12 -3.076810E+05 -1.764872E+04 -1.616701E+04  2.122939E+04 -6.331846E-09 -6.433257E-09
       375  13 -2.344296E+05  1.609397E+02 -2.871761E+02  2.144035E+04  3.446231E-10  8.792085E-09
       375  14 -2.343727E+05  1.143843E+02 -3.023039E+02  1.482985E+04 -2.710482E-09 -4.679118E-09
       375  15 -2.344304E+05  1.570607E+02 -4.160271E+02  2.144036E+04 -1.180044E-09 -6.466098E-09
       375  16 -2.282030E+05  1.694589E+03  1.152560E+03  2.145491E+04 -1.371423E-09  5.103734E-11
       375  17 -1.946319E+05  9.783933E+03  8.292633E+03  1.494264E+04  2.099798E-10 -1.533608E-08
       375  18 -1.611748E+05  1.796249E+04  1.533464E+04  2.165134E+04  5.749854E-09 -9.550833E-09
       375  19 -2.406562E+05 -1.372711E+03 -1.726908E+03  2.142579E+04  1.929903E+03 -1.807457E+02
       375  20 -2.741120E+05 -9.555263E+03 -8.897320E+03  1.471706E+04  1.786473E+03 -2.141973E+03
       375  21 -3.076810E+05 -1.764870E+04 -1.616698E+04  2.122939E+04  1.642954E+03 -4.102111E+03
       375  22 -2.344296E+05  1.609397E+02 -2.871760E+02  2.144035E+04  4.769506E+01 -1.875672E+02
       375  23 -2.343727E+05  1.143893E+02 -3.022952E+02  1.482985E+04 -9.463581E+01 -2.148746E+03
       375  24 -2.344304E+05  1.570789E+02 -4.159953E+02  2.144036E+04 -2.370635E+02 -4.108840E+03
       375  25 -2.282030E+05  1.694590E+03  1.152567E+03  2.145491E+04 -1.834532E+03 -1.943887E+02
       375  26 -1.946319E+05  9.783939E+03  8.292650E+03  1.494265E+04 -1.975863E+03 -2.155520E+03
       375  27 -1.611747E+05  1.796251E+04  1.533468E+04  2.165135E+04 -2.117300E+03 -4.115571E+03
       376   1 -3.343018E+05 -2.415640E+04 -2.220877E+04  2.114219E+04 -1.567743E+03  5.244870E+03
       376   2 -3.677033E+05 -3.233131E+04 -2.969587E+04  1.445180E+04 -1.133352E+03  7.200661E+03
       376   3 -4.012662E+05 -4.048438E+04 -3.748704E+04  2.096903E+04 -6.985902E+02  9.136336E+03
       376   4 -2.344412E+05  1.619351E+02 -5.168009E+02  2.143727E+04  3.171698E+02  5.251561E+03
       376   5 -2.343633E+05  1.163629E+02 -8.519337E+02  1.483367E+04  7.323077E+02  7.207142E+03
       376   6 -2.344440E+05  9.618221E+01 -1.477546E+03  2.143750E+04  1.147839E+03  9.142612E+03
       376   7 -1.345712E+05  2.447962E+04  2.117459E+04  2.173240E+04  2.202382E+03  5.258253E+03
       376   8 -1.010066E+05  3.256286E+04  2.799096E+04  1.521560E+04  2.598363E+03  7.213624E+03
       376   9 -6.759553E+04  4.067491E+04  3.453032E+04  2.190607E+04  2.994759E+03  9.148890E+03
       376  10 -3.343018E+05 -2.415643E+04 -2.220883E+04  2.114219E+04 -8.452078E-09  9.292100E-10
       376  11 -3.677034E+05 -3.233137E+04 -2.969597E+04  1.445181E+04 -3.028557E-09 -7.124773E-09
       376  12 -4.012663E+05 -4.048447E+04 -3.748720E+04  2.096904E+04  6.427463E-09 -3.003990E-09
       376  13 -2.344412E+05  1.619055E+02 -5.168529E+02  2.143727E+04 -5.299286E-10  9.459041E-10
       376  14 -2.343633E+05  1.163070E+02 -8.520323E+02  1.483366E+04 -1.893238E-09  3.986562E-09
       376  15 -2.344440E+05  9.609211E+01 -1.477706E+03  2.143749E+04 -4.372622E-10  4.057468E-09
       376  16 -1.345713E+05  2.447958E+04  2.117453E+04  2.173239E+04  9.613381E-09  6.393978E-09
       376  17 -1.010066E+05  3.256281E+04  2.799085E+04  1.521558E+04  2.533541E-09 -6.305131E-09
       376  18 -6.759556E+04  4.067482E+04  3.453015E+04  2.190605E+04 -6.048217E-09  6.682346E-09
       376  19 -3.343018E+05 -2.415640E+04 -2.220877E+04  2.114219E+04  1.567743E+03 -5.244870E+03
       376  20 -3.677033E+05 -3.233131E+04 -2.969587E+04  1.445180E+04  1.133352E+03 -7.200661E+03
       376  21 -4.012662E+05 -4.048438E+04 -3.748704E+04  2.096903E+04  6.985902E+02 -9.136336E+03
       376  22 -2.344412E+05  1.619351E+02 -5.168009E+02  2.143727E+04 -3.171698E+02 -5.251561E+03
       376  23 -2.343633E+05  1.163629E+02 -8.519337E+02  1.483367E+04 -7.323077E+02 -7.207142E+03
       376  24 -2.344440E+05  9.618221E+01 -1.477546E+03  2.143750E+04 -1.147839E+03 -9.142612E+03
       376  25 -1.345712E+05  2.447962E+04  2.117459E+04  2.173240E+04 -2.202382E+03 -5.258253E+03
       376  26 -1.010066E+05  3.256286E+04  2.799096E+04  1.521560E+04 -2.598363E+03 -7.213624E+03
       376  27 -6.759553E+04  4.067491E+04  3.453032E+04  2.190607E+04 -2.994759E+03 -9.148890E+03
       377   1 -4.279453E+05 -4.686767E+04 -4.384876E+04  2.068227E+04 -5.219839E+02  1.031000E+04
       377   2 -4.610407E+05 -5.508643E+04 -5.245965E+04  1.436098E+04  1.548940E+03  1.215276E+04
       377   3 -4.947990E+05 -6.450075E+04 -6.274108E+04  2.120819E+04  3.621662E+03  1.357037E+04
       377   4 -2.345426E+05  2.166497E+02 -1.923669E+03  2.142750E+04  1.443473E+03  1.031658E+04
       377   5 -2.342486E+05  1.174692E+02 -3.330683E+03  1.484562E+04  3.107030E+03  1.215771E+04
       377   6 -2.345475E+05 -1.106148E+03 -6.124749E+03  2.143196E+04  4.772493E+03  1.357377E+04
       377   7 -4.110474E+04  4.729850E+04  3.999921E+04  2.217294E+04  3.409535E+03  1.032315E+04
       377   8 -7.408244E+03  5.531797E+04  4.579524E+04  1.533041E+04  4.665681E+03  1.216265E+04
       377   9  2.576757E+04  6.228396E+04  5.048753E+04  2.165578E+04  5.923801E+03  1.357717E+04
       377  10 -4.279453E+05 -4.686779E+04 -4.384896E+04  2.068228E+04  8.461637E-09 -2.793298E-09
       377  11 -4.610408E+05 -5.508659E+04 -5.245994E+04  1.436097E+04 -1.051802E-08  9.728207E-09
       377  12 -4.947990E+05 -6.450096E+04 -6.274145E+04  2.120815E+04 -1.912851E-08 -2.486892E-09
       377  13 -2.345426E+05  2.165349E+02 -1.923873E+03  2.142749E+04 -3.625943E-10 -7.934152E-09
       377  14 -2.342487E+05  1.173079E+02 -3.330978E+03  1.484559E+04 -2.609052E-09  9.419382E-09
       377  15 -2.345475E+05 -1.106352E+03 -6.125138E+03  2.143191E+04 -4.106280E-10 -1.158777E-09
       377  16 -4.110478E+04  4.729838E+04  3.999899E+04  2.217291E+04 -7.235162E-09 -7.552146E-09
       377  17 -7.408307E+03  5.531781E+04  4.579492E+04  1.533036E+04  8.929806E-09 -1.648341E-08
       377  18  2.576748E+04  6.228375E+04  5.048711E+04  2.165572E+04  1.866609E-08  9.490457E-10
       377  19 -4.279453E+05 -4.686767E+04 -4.384876E+04  2.068227E+04  5.219839E+02 -1.031000E+04
       377  20 -4.610407E+05 -5.508643E+04 -5.245965E+04  1.436098E+04 -1.548940E+03 -1.215276E+04
       377  21 -4.947990E+05 -6.450075E+04 -6.274108E+04  2.120819E+04 -3.621662E+03 -1.357037E+04
       377  22 -2.345426E+05  2.166497E+02 -1.923669E+03  2.142750E+04 -1.443473E+03 -1.031658E+04
       377  23 -2.342486E+05  1.174692E+02 -3.330683E+03  1.484562E+04 -3.107030E+03 -1.215771E+04
       377  24 -2.345475E+05 -1.106148E+03 -6.124749E+03  2.143196E+04 -4.772493E+03 -1.357377E+04
       377  25 -4.110474E+04  4.729850E+04  3.999921E+04  2.217294E+04 -3.409535E+03 -1.032315E+04
       377  26 -7.408244E+03  5.531797E+04  4.579524E+04  1.533041E+04 -4.665681E+03 -1.216265E+04
       377  27  2.576757E+04  6.228396E+04  5.048753E+04  2.165578E+04 -5.923801E+03 -1.357717E+04
       378   1 -5.228490E+05 -6.862254E+04 -6.986131E+04  1.719490E+04  2.055906E+03  1.544200E+04
       378   2 -5.522562E+05 -7.833790E+04 -8.399621E+04  1.843884E+04  1.802042E+04  1.478036E+04
       378   3 -5.897898E+05 -1.119665E+05 -1.145207E+05  3.244170E+04  3.401196E+04  4.781656E+03
       378   4 -2.358782E+05  1.252899E+03 -7.727733E+03  2.131863E+04  5.852180E+03  1.545390E+04
       378   5 -2.325985E+05 -2.579918E+02 -1.325329E+04  1.497890E+04  1.286259E+04  1.476337E+04
       378   6 -2.358876E+05 -2.412042E+04 -2.894355E+04  2.139834E+04  1.990120E+04  4.737549E+03
       378   7  5.117013E+04  7.112296E+04  5.440101E+04  2.544424E+04  9.650187E+03  1.546584E+04
       378   8  8.715480E+04  7.781510E+04  5.748342E+04  1.151708E+04  7.702134E+03  1.474644E+04
       378   9  1.181300E+05  6.371709E+04  5.662546E+04  1.034858E+04  5.782405E+03  4.693957E+03
       378  10 -5.228491E+05 -6.862280E+04 -6.986176E+04  1.719487E+04  1.972737E-08  1.308349E-10
       378  11 -5.522566E+05 -7.833823E+04 -8.399723E+04  1.843862E+04  1.143415E-08 -7.264215E-10
       378  12 -5.897910E+05 -1.119668E+05 -1.145229E+05  3.244156E+04  2.421681E-09  7.521328E-09
       378  13 -2.358783E+05  1.252633E+03 -7.728246E+03  2.131856E+04 -4.265580E-11  6.559358E-09
       378  14 -2.325987E+05 -2.582703E+02 -1.325401E+04  1.497875E+04 -1.699628E-09  8.955100E-09
       378  15 -2.358880E+05 -2.412055E+04 -2.894433E+04  2.139826E+04 -3.930465E-11 -1.519446E-09
       378  16  5.116996E+04  7.112268E+04  5.440039E+04  2.544412E+04 -1.857893E-08  3.126089E-09
       378  17  8.715467E+04  7.781485E+04  5.748290E+04  1.151699E+04 -1.274658E-08  9.537977E-09
       378  18  1.181299E+05  6.371706E+04  5.662536E+04  1.034855E+04 -3.200868E-09 -1.020261E-09
       378  19 -5.228490E+05 -6.862254E+04 -6.986131E+04  1.719490E+04 -2.055906E+03 -1.544200E+04
       378  20 -5.522562E+05 -7.833790E+04 -8.399621E+04  1.843884E+04 -1.802042E+04 -1.478036E+04
       378  21 -5.897898E+05 -1.119665E+05 -1.145207E+05  3.244170E+04 -3.401196E+04 -4.781656E+03
       378  22 -2.358782E+05  1.252899E+03 -7.727733E+03  2.131863E+04 -5.852180E+03 -1.545390E+04
       378  23 -2.325985E+05 -2.579918E+02 -1.325329E+04  1.497890E+04 -1.286259E+04 -1.476337E+04
       378  24 -2.358876E+05 -2.412042E+04 -2.894355E+04  2.139834E+04 -1.990120E+04 -4.737549E+03
       378  25  5.117013E+04  7.112296E+04  5.440101E+04  2.544424E+04 -9.650187E+03 -1.546584E+04
       378  26  8.715480E+04  7.781510E+04  5.748342E+04  1.151708E+04 -7.702134E+03 -1.474644E+04
       378  27  1.181300E+05  6.371709E+04  5.662546E+04  1.034858E+04 -5.782405E+03 -4.693957E+03
       379   1 -2.116576E+05 -8.441178E+05 -2.060713E+05  1.916331E+05 -8.684356E+03 -5.351463E+04
       379   2 -1.426157E+05 -6.369386E+05 -1.279858E+05  1.592239E+05 -2.577091E+04 -1.950610E+04
       379   3 -9.043721E+04 -4.379568E+05 -7.623107E+04  1.792728E+05 -2.220744E+04  1.457441E+04
       379   4 -1.794643E+04 -6.336990E+04 -1.903750E+04  1.801644E+05 -8.785444E+03 -1.421646E+04
       379   5 -3.581065E+03 -6.179684E+04 -8.339628E+03  1.539577E+05 -2.579305E+04 -9.904358E+03
       379   6 -9.088103E+02 -6.329470E+04 -3.326409E+03  1.802083E+05 -2.215868E+04 -5.532341E+03
       379   7  1.757218E+05  7.179406E+05  1.679591E+05  1.686815E+05 -8.887927E+03  2.513097E+04
       379   8  1.354327E+05  5.136586E+05  1.112887E+05  1.486866E+05 -2.581534E+04 -2.938560E+02
       379   9  8.861140E+04  3.115031E+05  6.957312E+04  1.811445E+05 -2.210999E+04 -2.565096E+04
       379  10 -2.116585E+05 -8.441209E+05 -2.060769E+05  1.916327E+05  4.795395E-13  2.293167E-09
       379  11 -1.426166E+05 -6.369392E+05 -1.279877E+05  1.592235E+05  6.062960E-10 -3.499748E-10
       379  12 -9.043780E+04 -4.379572E+05 -7.623240E+04  1.792731E+05  2.232952E-09 -1.183354E-09
       379  13 -1.794657E+04 -6.337014E+04 -1.903803E+04  1.801643E+05  1.816536E-09  5.221032E-09
       379  14 -3.581806E+03 -6.179713E+04 -8.341063E+03  1.539575E+05 -2.100372E-09 -6.581432E-09
       379  15 -9.093457E+02 -6.329487E+04 -3.327389E+03  1.802082E+05  3.935964E-10  2.170131E-09
       379  16  1.757215E+05  7.179399E+05  1.679577E+05  1.686817E+05  8.146249E-10  3.459302E-10
       379  17  1.354320E+05  5.136584E+05  1.112875E+05  1.486866E+05  2.068941E-09 -6.208901E-09
       379  18  8.861070E+04  3.115023E+05  6.957097E+04  1.811440E+05 -2.613686E-09 -1.286153E-09
       379  19 -2.116576E+05 -8.441178E+05 -2.060713E+05  1.916331E+05  8.684356E+03  5.351463E+04
       379  20 -1.426157E+05 -6.369386E+05 -1.279858E+05  1.592239E+05  2.577091E+04  1.950610E+04
       379  21 -9.043721E+04 -4.379568E+05 -7.623107E+04  1.792728E+05  2.220744E+04 -1.457441E+04
       379  22 -1.794643E+04 -6.336990E+04 -1.903750E+04  1.801644E+05  8.785444E+03  1.421646E+04
       379  23 -3.581065E+03 -6.179684E+04 -8.339628E+03  1.539577E+05  2.579305E+04  9.904358E+03
       379  24 -9.088103E+02 -6.329470E+04 -3.326409E+03  1.802083E+05  2.215868E+04  5.532341E+03
       379  25  1.757218E+05  7.179406E+05  1.679591E+05  1.686815E+05  8.887927E+03 -2.513097E+04
       379  26  1.354327E+05  5.136586E+05  1.112887E+05  1.486866E+05  2.581534E+04  2.938560E+02
       379  27  8.861140E+04  3.115031E+05  6.957312E+04  1.811445E+05  2.210999E+04  2.565096E+04
       380   1 -5.810128E+04 -2.987888E+05 -4.760077E+04  1.808424E+05 -1.389584E+04  1.146114E+04
       380   2 -8.612844E+03 -9.604752E+04 -4.041628E+03  1.538257E+05 -2.255607E+03  1.056549E+04
       380   3  4.108876E+04  1.072676E+05  4.024113E+04  1.804460E+05  9.500325E+03  9.669515E+03
       380   4 -1.608425E+03 -6.247034E+04 -1.510689E+03  1.804614E+05 -1.385656E+04 -5.210480E+03
       380   5 -7.050978E+02 -6.275007E+04  2.192164E+03  1.536453E+05 -2.216107E+03 -6.274768E+03
       380   6  4.430675E+02 -6.246576E+04  6.736914E+03  1.804662E+05  9.539930E+03 -7.339102E+03
       380   7  5.488123E+04  1.739024E+05  4.457777E+04  1.800803E+05 -1.381726E+04 -2.188831E+04
       380   8  7.202737E+03 -2.945094E+04  8.426975E+03  1.534650E+05 -2.176599E+03 -2.311591E+04
       380   9 -4.020422E+04 -2.321709E+05 -2.676762E+04  1.804863E+05  9.579539E+03 -2.434317E+04
       380  10 -5.810152E+04 -2.987890E+05 -4.760138E+04  1.808425E+05  3.046698E-09  1.019110E-08
       380  11 -8.612880E+03 -9.604764E+04 -4.041848E+03  1.538257E+05  1.920522E-09 -4.051215E-09
       380  12  4.108864E+04  1.072674E+05  4.024078E+04  1.804459E+05  5.133330E-10 -2.252861E-08
       380  13 -1.608638E+03 -6.247042E+04 -1.511100E+03  1.804613E+05  7.047225E-10  4.605833E-09
       380  14 -7.051136E+02 -6.275012E+04  2.192081E+03  1.536453E+05  3.419816E-09 -8.329943E-09
       380  15  4.429553E+02 -6.246584E+04  6.736641E+03  1.804662E+05  2.522263E-09  5.175104E-09
       380  16  5.488090E+04  1.739018E+05  4.457651E+04  1.800800E+05 -2.105385E-09 -8.768240E-09
       380  17  7.202588E+03 -2.945152E+04  8.425962E+03  1.534649E+05  7.997379E-10  5.673482E-09
       380  18 -4.020448E+04 -2.321716E+05 -2.676891E+04  1.804865E+05 -8.235223E-10  1.905264E-08
       380  19 -5.810128E+04 -2.987888E+05 -4.760077E+04  1.808424E+05  1.389584E+04 -1.146114E+04
       380  20 -8.612844E+03 -9.604752E+04 -4.041628E+03  1.538257E+05  2.255607E+03 -1.056549E+04
       380  21  4.108876E+04  1.072676E+05  4.024113E+04  1.804460E+05 -9.500325E+03 -9.669515E+03
       380  22 -1.608425E+03 -6.247034E+04 -1.510689E+03  1.804614E+05  1.385656E+04  5.210480E+03
       380  23 -7.050978E+02 -6.275007E+04  2.192164E+03  1.536453E+05  2.216107E+03  6.274768E+03
       380  24  4.430675E+02 -6.246576E+04  6.736914E+03  1.804662E+05 -9.539930E+03  7.339102E+03
       380  25  5.488123E+04  1.739024E+05  4.457777E+04  1.800803E+05  1.381726E+04  2.188831E+04
       380  26  7.202737E+03 -2.945094E+04  8.426975E+03  1.534650E+05  2.176599E+03  2.311591E+04
       380  27 -4.020422E+04 -2.321709E+05 -2.676762E+04  1.804863E+05 -9.579539E+03  2.434317E+04
       381   1  7.274695E+04  2.470970E+05  6.972447E+04  1.764839E+05  1.781047E+04  1.163583E+04
       381   2  1.276073E+05  4.442991E+05  1.243753E+05  1.614874E+05  2.238008E+04 -2.513674E+04
       381   3  2.102385E+05  6.536682E+05  2.099832E+05  1.991253E+05  7.952439E+03 -6.197542E+04
       381   4 -9.350202E+02 -6.096186E+04  9.437416E+03  1.802260E+05  1.785850E+04 -8.501010E+03
       381   5  4.625300E+03 -6.468956E+04  1.809269E+04  1.539532E+05  2.236391E+04 -1.789664E+04
       381   6  3.322085E+04 -6.102647E+04  3.870833E+04  1.803137E+05  7.866315E+03 -2.734623E+04
       381   7 -7.462244E+04 -3.689288E+05 -5.085267E+04  1.839663E+05  1.790629E+04 -2.862807E+04
       381   8 -1.183730E+05 -5.734330E+05 -8.820403E+04  1.464253E+05  2.234755E+04 -1.066237E+04
       381   9 -1.438318E+05 -7.752501E+05 -1.325980E+05  1.615240E+05  7.778049E+03  7.243304E+03
       381  10  7.274657E+04  2.470968E+05  6.972362E+04  1.764837E+05  1.582459E-11  2.410385E-08
       381  11  1.276066E+05  4.442983E+05  1.243732E+05  1.614879E+05 -1.727498E-09  1.323714E-08
       381  12  2.102374E+05  6.536641E+05  2.099759E+05  1.991257E+05 -1.568794E-09 -2.879035E-09
       381  13 -9.353822E+02 -6.096202E+04  9.436680E+03  1.802262E+05 -2.033059E-09  6.752747E-09
       381  14  4.624677E+03 -6.469004E+04  1.809115E+04  1.539535E+05  6.440924E-10 -8.083551E-09
       381  15  3.322059E+04 -6.102729E+04  3.870680E+04  1.803138E+05 -7.452320E-10  5.836433E-09
       381  16 -7.462300E+04 -3.689298E+05 -5.085481E+04  1.839667E+05 -9.087330E-11 -2.322826E-08
       381  17 -1.183736E+05 -5.734333E+05 -8.820518E+04  1.464255E+05  1.645601E-09 -1.398256E-08
       381  18 -1.438319E+05 -7.752502E+05 -1.325982E+05  1.615240E+05 -1.733459E-10  2.983327E-09
       381  19  7.274695E+04  2.470970E+05  6.972447E+04  1.764839E+05 -1.781047E+04 -1.163583E+04
       381  20  1.276073E+05  4.442991E+05  1.243753E+05  1.614874E+05 -2.238008E+04  2.513674E+04
       381  21  2.102385E+05  6.536682E+05  2.099832E+05  1.991253E+05 -7.952439E+03  6.197542E+04
       381  22 -9.350202E+02 -6.096186E+04  9.437416E+03  1.802260E+05 -1.785850E+04  8.501010E+03
       381  23  4.625300E+03 -6.468956E+04  1.809269E+04  1.539532E+05 -2.236391E+04  1.789664E+04
       381  24  3.322085E+04 -6.102647E+04  3.870833E+04  1.803137E+05 -7.866315E+03  2.734623E+04
       381  25 -7.462244E+04 -3.689288E+05 -5.085267E+04  1.839663E+05 -1.790629E+04  2.862807E+04
       381  26 -1.183730E+05 -5.734330E+05 -8.820403E+04  1.464253E+05 -2.234755E+04  1.066237E+04
       381  27 -1.438318E+05 -7.752501E+05 -1.325980E+05  1.615240E+05 -7.778049E+03 -7.243304E+03
       382   1  5.804527E+05  2.315311E+05  1.436838E+05  2.152496E+05  6.134443E+04  1.926017E+04
       382   2  5.586460E+05  1.466558E+05  8.830388E+04  2.098182E+05  3.953893E+04  2.544628E+03
       382   3  5.560933E+05  1.272663E+05  6.742237E+04  1.965876E+05  1.510135E+04 -7.211175E+03
       382   4  3.569226E+05  1.188019E+05  7.868671E+04  1.249828E+05  5.154357E+04  1.554766E+04
       382   5  3.435865E+05  5.642391E+04  3.424630E+04  1.403369E+05  3.600420E+04  1.205608E+03
       382   6  3.482707E+05  5.830135E+04  1.934655E+04  1.478895E+05  1.783142E+04 -6.177675E+03
       382   7  1.334469E+05  6.090567E+03  1.368643E+04  3.475082E+04  4.174673E+04  1.183778E+04
       382   8  1.285741E+05 -3.380087E+04 -1.981460E+04  7.087894E+04  3.247081E+04 -1.327637E+02
       382   9  1.404894E+05 -1.066315E+04 -2.873253E+04  9.920488E+04  2.056051E+04 -5.144449E+03
       382  10  5.804485E+05  2.315297E+05  1.436760E+05  2.152486E+05  7.626635E-10  2.575814E-09
       382  11  5.586443E+05  1.466554E+05  8.830093E+04  2.098181E+05 -1.055774E-08 -6.213607E-09
       382  12  5.560931E+05  1.272662E+05  6.742184E+04  1.965877E+05 -1.305428E-08  2.099326E-09
       382  13  3.569197E+05  1.188009E+05  7.868127E+04  1.249822E+05  7.696265E-10 -8.972086E-09
       382  14  3.435851E+05  5.642356E+04  3.424386E+04  1.403368E+05 -2.291821E-10  1.193640E-08
       382  15  3.482704E+05  5.830122E+04  1.934588E+04  1.478896E+05  1.195543E-09  1.258322E-09
       382  16  1.334450E+05  6.089949E+03  1.368289E+04  3.475042E+04 -1.458070E-09 -4.967239E-10
       382  17  1.285730E+05 -3.380115E+04 -1.981659E+04  7.087894E+04  8.460377E-09  1.103636E-08
       382  18  1.404889E+05 -1.066329E+04 -2.873337E+04  9.920496E+04  1.473323E-08  3.017634E-09
       382  19  5.804527E+05  2.315311E+05  1.436838E+05  2.152496E+05 -6.134443E+04 -1.926017E+04
       382  20  5.586460E+05  1.466558E+05  8.830388E+04  2.098182E+05 -3.953893E+04 -2.544628E+03
       382  21  5.560933E+05  1.272663E+05  6.742237E+04  1.965876E+05 -1.510135E+04  7.211175E+03
       382  22  3.569226E+05  1.188019E+05  7.868671E+04  1.249828E+05 -5.154357E+04 -1.554766E+04
       382  23  3.435865E+05  5.642391E+04  3.424630E+04  1.403369E+05 -3.600420E+04 -1.205608E+03
       382  24  3.482707E+05  5.830135E+04  1.934655E+04  1.478895E+05 -1.783142E+04  6.177675E+03
       382  25  1.334469E+05  6.090567E+03  1.368643E+04  3.475082E+04 -4.174673E+04 -1.183778E+04
       382  26  1.285741E+05 -3.380087E+04 -1.981460E+04  7.087894E+04 -3.247081E+04  1.327637E+02
       382  27  1.404894E+05 -1.066315E+04 -2.873253E+04  9.920488E+04 -2.056051E+04  5.144449E+03
       383   1  5.289720E+05  1.335992E+05  5.946926E+04  1.963098E+05  1.419828E+04 -5.974173E+03
       383   2  5.107095E+05  1.184347E+05  4.686540E+04  1.871348E+05  9.585035E+03 -6.700147E+03
       383   3  4.878612E+05  1.132214E+05  3.838408E+04  1.845274E+05  4.855003E+03 -7.117870E+03
       383   4  3.457746E+05  6.395291E+04  1.529346E+04  1.443702E+05  1.486054E+04 -5.723693E+03
       383   5  3.478533E+05  5.730758E+04  7.885629E+03  1.417300E+05  1.052573E+04 -6.344102E+03
       383   6  3.452911E+05  6.055881E+04  4.380582E+03  1.456571E+05  6.073962E+03 -6.656287E+03
       383   7  1.626106E+05 -5.690584E+03 -2.888479E+04  9.244469E+04  1.552260E+04 -5.473297E+03
       383   8  1.850239E+05 -3.817386E+03 -3.109594E+04  9.633616E+04  1.146615E+04 -5.988160E+03
       383   9  2.027419E+05  7.897867E+03 -2.962416E+04  1.067951E+05  7.292611E+03 -6.194820E+03
       383  10  5.289717E+05  1.335991E+05  5.946881E+04  1.963099E+05  2.554290E-08  1.601527E-08
       383  11  5.107094E+05  1.184347E+05  4.686515E+04  1.871349E+05  8.929265E-09 -2.105839E-09
       383  12  4.878611E+05  1.132213E+05  3.838394E+04  1.845274E+05 -9.355723E-09 -7.036534E-09
       383  13  3.457744E+05  6.395281E+04  1.529298E+04  1.443703E+05  1.880830E-09  6.953625E-10
       383  14  3.478532E+05  5.730751E+04  7.885345E+03  1.417300E+05  2.964118E-09 -1.484910E-08
       383  15  3.452910E+05  6.055875E+04  4.380430E+03  1.456571E+05  7.748154E-10 -3.724136E-09
       383  16  1.626103E+05 -5.690681E+03 -2.888530E+04  9.244476E+04 -2.272300E-08 -1.584262E-08
       383  17  1.850237E+05 -3.817460E+03 -3.109626E+04  9.633621E+04 -6.666642E-09 -1.836031E-08
       383  18  2.027418E+05  7.897812E+03 -2.962434E+04  1.067951E+05  1.229978E-08  1.006113E-08
       383  19  5.289720E+05  1.335992E+05  5.946926E+04  1.963098E+05 -1.419828E+04  5.974173E+03
       383  20  5.107095E+05  1.184347E+05  4.686540E+04  1.871348E+05 -9.585035E+03  6.700147E+03
       383  21  4.878612E+05  1.132214E+05  3.838408E+04  1.845274E+05 -4.855003E+03  7.117870E+03
       383  22  3.457746E+05  6.395291E+04  1.529346E+04  1.443702E+05 -1.486054E+04  5.723693E+03
       383  23  3.478533E+05  5.730758E+04  7.885629E+03  1.417300E+05 -1.052573E+04  6.344102E+03
       383  24  3.452911E+05  6.055881E+04  4.380582E+03  1.456571E+05 -6.073962E+03  6.656287E+03
       383  25  1.626106E+05 -5.690584E+03 -2.888479E+04  9.244469E+04 -1.552260E+04  5.473297E+03
       383  26  1.850239E+05 -3.817386E+03 -3.109594E+04  9.633616E+04 -1.146615E+04  5.988160E+03
       383  27  2.027419E+05  7.897867E+03 -2.962416E+04  1.067951E+05 -7.292611E+03  6.194820E+03
       384   1  4.699972E+05  1.074809E+05  3.309184E+04  1.800058E+05  4.039087E+03 -6.545093E+03
       384   2  4.522439E+05  9.628046E+04  2.665890E+04  1.706109E+05  2.643093E+03 -5.635862E+03
       384   3  4.282552E+05  9.173354E+04  2.096557E+04  1.684808E+05  1.242236E+03 -4.714288E+03
       384   4  3.450840E+05  6.085776E+04  3.330377E+03  1.454264E+05  5.164363E+03 -6.118930E+03
       384   5  3.481916E+05  5.744948E+04  1.818353E+03  1.418255E+05  3.779670E+03 -5.205326E+03
       384   6  3.450616E+05  6.069273E+04  1.037228E+03  1.454895E+05  2.390084E+03 -4.279390E+03
       384   7  2.201855E+05  1.423549E+04 -2.643239E+04  1.108531E+05  6.289397E+03 -5.692857E+03
       384   8  2.441498E+05  1.861918E+04 -2.302305E+04  1.130445E+05  4.916043E+03 -4.774867E+03
       384   9  2.618749E+05  2.965242E+04 -1.889161E+04  1.225010E+05  3.537764E+03 -3.844555E+03
       384  10  4.699972E+05  1.074809E+05  3.309173E+04  1.800058E+05 -5.924340E-09 -1.182585E-08
       384  11  4.522439E+05  9.628042E+04  2.665883E+04  1.706109E+05 -3.432622E-09 -6.866720E-10
       384  12  4.282551E+05  9.173352E+04  2.096552E+04  1.684808E+05 -1.744812E-09  9.218319E-09
       384  13  3.450839E+05  6.085772E+04  3.330256E+03  1.454264E+05 -4.753017E-10  6.071288E-10
       384  14  3.481916E+05  5.744944E+04  1.818275E+03  1.418256E+05  1.201096E-09 -3.340974E-09
       384  15  3.450616E+05  6.069271E+04  1.037183E+03  1.454895E+05  1.920118E-10  7.772176E-09
       384  16  2.201854E+05  1.423544E+04 -2.643252E+04  1.108531E+05  4.779887E-09  9.307700E-09
       384  17  2.441498E+05  1.861915E+04 -2.302314E+04  1.130445E+05  3.079565E-10  8.532026E-09
       384  18  2.618749E+05  2.965240E+04 -1.889166E+04  1.225010E+05 -7.571479E-10 -2.782559E-10
       384  19  4.699972E+05  1.074809E+05  3.309184E+04  1.800058E+05 -4.039087E+03  6.545093E+03
       384  20  4.522439E+05  9.628046E+04  2.665890E+04  1.706109E+05 -2.643093E+03  5.635862E+03
       384  21  4.282552E+05  9.173354E+04  2.096557E+04  1.684808E+05 -1.242236E+03  4.714288E+03
       384  22  3.450840E+05  6.085776E+04  3.330377E+03  1.454264E+05 -5.164363E+03  6.118930E+03
       384  23  3.481916E+05  5.744948E+04  1.818353E+03  1.418255E+05 -3.779670E+03  5.205326E+03
       384  24  3.450616E+05  6.069273E+04  1.037228E+03  1.454895E+05 -2.390084E+03  4.279390E+03
       384  25  2.201855E+05  1.423549E+04 -2.643239E+04  1.108531E+05 -6.289397E+03  5.692857E+03
       384  26  2.441498E+05  1.861918E+04 -2.302305E+04  1.130445E+05 -4.916043E+03  4.774867E+03
       384  27  2.618749E+05  2.965242E+04 -1.889161E+04  1.225010E+05 -3.537764E+03  3.844555E+03
       385   1  4.110380E+05  8.532881E+04  1.649129E+04  1.637408E+05  8.138337E+02 -4.028430E+03
       385   2  3.934030E+05  7.434985E+04  1.130827E+04  1.543441E+05  7.236079E+01 -2.856150E+03
       385   3  3.693865E+05  6.980968E+04  6.321986E+03  1.522126E+05 -6.691604E+02 -1.683912E+03
       385   4  3.450382E+05  6.070188E+04  8.064807E+02  1.454685E+05  1.956736E+03 -3.595367E+03
       385   5  3.482294E+05  5.748101E+04  5.224764E+02  1.418366E+05  1.215243E+03 -2.423059E+03
       385   6  3.450385E+05  6.069897E+04  4.352618E+02  1.454699E+05  4.736884E+02 -1.250792E+03
       385   7  2.790431E+05  3.607539E+04 -1.487854E+04  1.271980E+05  3.099500E+03 -3.162357E+03
       385   8  3.030578E+05  4.061232E+04 -1.026345E+04  1.293299E+05  2.358034E+03 -1.990002E+03
       385   9  3.206910E+05  5.158825E+04 -5.451536E+03  1.387274E+05  1.616494E+03 -8.176881E+02
       385  10  4.110380E+05  8.532879E+04  1.649126E+04  1.637408E+05  7.162641E-09  4.736044E-09
       385  11  3.934030E+05  7.434984E+04  1.130825E+04  1.543441E+05  1.342604E-09  5.429410E-09
       385  12  3.693865E+05  6.980968E+04  6.321980E+03  1.522126E+05 -8.804803E-09 -7.721496E-09
       385  13  3.450382E+05  6.070186E+04  8.064492E+02  1.454685E+05  1.556355E-09 -8.236500E-11
       385  14  3.482294E+05  5.748100E+04  5.224626E+02  1.418366E+05  1.958869E-09  7.653954E-09
       385  15  3.450385E+05  6.069897E+04  4.352584E+02  1.454699E+05  2.668446E-09 -5.735476E-09
       385  16  2.790431E+05  3.607538E+04 -1.487858E+04  1.271980E+05 -5.969680E-09  1.057517E-09
       385  17  3.030578E+05  4.061231E+04 -1.026347E+04  1.293299E+05  2.658086E-09  4.450806E-09
       385  18  3.206910E+05  5.158825E+04 -5.451542E+03  1.387274E+05  9.699991E-09 -2.067638E-09
       385  19  4.110380E+05  8.532881E+04  1.649129E+04  1.637408E+05 -8.138337E+02  4.028430E+03
       385  20  3.934030E+05  7.434985E+04  1.130827E+04  1.543441E+05 -7.236079E+01  2.856150E+03
       385  21  3.693865E+05  6.980968E+04  6.321986E+03  1.522126E+05  6.691604E+02  1.683912E+03
       385  22  3.450382E+05  6.070188E+04  8.064807E+02  1.454685E+05 -1.956736E+03  3.595367E+03
       385  23  3.482294E+05  5.748101E+04  5.224764E+02  1.418366E+05 -1.215243E+03  2.423059E+03
       385  24  3.450385E+05  6.069897E+04  4.352618E+02  1.454699E+05 -4.736884E+02  1.250792E+03
       385  25  2.790431E+05  3.607539E+04 -1.487854E+04  1.271980E+05 -3.099500E+03  3.162357E+03
       385  26  3.030578E+05  4.061232E+04 -1.026345E+04  1.293299E+05 -2.358034E+03  1.990002E+03
       385  27  3.206910E+05  5.158825E+04 -5.451536E+03  1.387274E+05 -1.616494E+03  8.176881E+02
       386   1  3.522428E+05  6.338212E+04  2.098206E+03  1.474752E+05 -1.022806E+03 -9.722249E+02
       386   2  3.346152E+05  5.241172E+04 -2.644258E+03  1.380826E+05 -1.804296E+03  1.844228E+02
       386   3  3.106158E+05  4.788047E+04 -7.159322E+03  1.359523E+05 -2.585612E+03  1.340791E+03
       386   4  3.450407E+05  6.069847E+04  4.497714E+02  1.454695E+05  1.197858E+02 -5.391928E+02
       386   5  3.482271E+05  5.748129E+04  6.035668E+02  1.418375E+05 -6.620022E+02  6.173285E+02
       386   6  3.450412E+05  6.070323E+04  9.849742E+02  1.454676E+05 -1.443626E+03  1.773566E+03
       386   7  3.378386E+05  5.801483E+04 -1.198661E+03  1.434637E+05  1.262362E+03 -1.061662E+02
       386   8  3.618391E+05  6.255087E+04  3.851374E+03  1.455924E+05  4.803160E+02  1.050243E+03
       386   9  3.794676E+05  7.352600E+04  9.129141E+03  1.549833E+05 -3.015763E+02  2.206366E+03
       386  10  3.522428E+05  6.338212E+04  2.098203E+03  1.474752E+05  1.209443E-08  4.121555E-09
       386  11  3.346152E+05  5.241172E+04 -2.644265E+03  1.380826E+05  3.311943E-09 -1.211989E-08
       386  12  3.106158E+05  4.788047E+04 -7.159338E+03  1.359523E+05 -1.205411E-08 -7.013064E-09
       386  13  3.450407E+05  6.069847E+04  4.497708E+02  1.454695E+05 -8.865898E-11  1.091435E-08
       386  14  3.482271E+05  5.748129E+04  6.035653E+02  1.418375E+05  1.673324E-10 -2.298798E-09
       386  15  3.450412E+05  6.070322E+04  9.849644E+02  1.454676E+05 -2.592166E-09  2.317036E-09
       386  16  3.378386E+05  5.801483E+04 -1.198664E+03  1.434637E+05 -1.273124E-08 -2.951911E-09
       386  17  3.618391E+05  6.255087E+04  3.851371E+03  1.455924E+05  5.081185E-10  1.167134E-08
       386  18  3.794676E+05  7.352599E+04  9.129132E+03  1.549833E+05  9.686876E-09  1.386526E-08
       386  19  3.522428E+05  6.338212E+04  2.098206E+03  1.474752E+05  1.022806E+03  9.722249E+02
       386  20  3.346152E+05  5.241172E+04 -2.644258E+03  1.380826E+05  1.804296E+03 -1.844228E+02
       386  21  3.106158E+05  4.788047E+04 -7.159322E+03  1.359523E+05  2.585612E+03 -1.340791E+03
       386  22  3.450407E+05  6.069847E+04  4.497714E+02  1.454695E+05 -1.197858E+02  5.391928E+02
       386  23  3.482271E+05  5.748129E+04  6.035668E+02  1.418375E+05  6.620022E+02 -6.173285E+02
       386  24  3.450412E+05  6.070323E+04  9.849742E+02  1.454676E+05  1.443626E+03 -1.773566E+03
       386  25  3.378386E+05  5.801483E+04 -1.198661E+03  1.434637E+05 -1.262362E+03  1.061662E+02
       386  26  3.618391E+05  6.255087E+04  3.851374E+03  1.455924E+05 -4.803160E+02 -1.050243E+03
       386  27  3.794676E+05  7.352600E+04  9.129141E+03  1.549833E+05  3.015763E+02 -2.206366E+03
       387   1  2.934651E+05  4.146421E+04 -1.110207E+04  1.312682E+05 -3.057714E+03  2.009164E+03
       387   2  2.757484E+05  3.043826E+04 -1.501406E+04  1.218144E+05 -4.665049E+03  2.851242E+03
       387   3  2.518506E+05  2.610666E+04 -1.801974E+04  1.196098E+05 -6.267997E+03  3.682213E+03
       387   4  3.450735E+05  6.068966E+04  1.282497E+03  1.454913E+05 -1.911671E+03  2.443454E+03
       387   5  3.481776E+05  5.744649E+04  2.275320E+03  1.418267E+05 -3.529169E+03  3.281620E+03
       387   6  3.451024E+05  6.089975E+04  4.182556E+03  1.454111E+05 -5.142317E+03  4.108667E+03
       387   7  3.966848E+05  7.991541E+04  1.366695E+04  1.597155E+05 -7.655193E+02  2.877785E+03
       387   8  4.206122E+05  8.445516E+04  1.956438E+04  1.618411E+05 -2.393141E+03  3.712055E+03
       387   9  4.383630E+05  9.569349E+04  2.638424E+04  1.712160E+05 -4.016453E+03  4.535191E+03
       387  10  2.934650E+05  4.146420E+04 -1.110209E+04  1.312682E+05  7.852587E-09  1.287427E-09
       387  11  2.757484E+05  3.043825E+04 -1.501411E+04  1.218145E+05  9.088240E-09  2.909331E-09
       387  12  2.518505E+05  2.610663E+04 -1.801984E+04  1.196098E+05 -3.569127E-09  2.379227E-09
       387  13  3.450735E+05  6.068965E+04  1.282479E+03  1.454913E+05 -5.438820E-10  3.974661E-09
       387  14  3.481776E+05  5.744647E+04  2.275276E+03  1.418267E+05  1.278128E-09 -1.638364E-08
       387  15  3.451024E+05  6.089973E+04  4.182475E+03  1.454112E+05 -3.009805E-09 -8.111009E-09
       387  16  3.966848E+05  7.991540E+04  1.366693E+04  1.597155E+05 -8.763374E-09  8.327626E-09
       387  17  4.206121E+05  8.445515E+04  1.956434E+04  1.618411E+05 -2.966365E-09 -5.019320E-09
       387  18  4.383629E+05  9.569346E+04  2.638417E+04  1.712160E+05 -2.027057E-09  6.645783E-09
       387  19  2.934651E+05  4.146421E+04 -1.110207E+04  1.312682E+05  3.057714E+03 -2.009164E+03
       387  20  2.757484E+05  3.043826E+04 -1.501406E+04  1.218144E+05  4.665049E+03 -2.851242E+03
       387  21  2.518506E+05  2.610666E+04 -1.801974E+04  1.196098E+05  6.267997E+03 -3.682213E+03
       387  22  3.450735E+05  6.068966E+04  1.282497E+03  1.454913E+05  1.911671E+03 -2.443454E+03
       387  23  3.481776E+05  5.744649E+04  2.275320E+03  1.418267E+05  3.529169E+03 -3.281620E+03
       387  24  3.451024E+05  6.089975E+04  4.182556E+03  1.454111E+05  5.142317E+03 -4.108667E+03
       387  25  3.966848E+05  7.991541E+04  1.366695E+04  1.597155E+05  7.655193E+02 -2.877785E+03
       387  26  4.206122E+05  8.445516E+04  1.956438E+04  1.618411E+05  2.393141E+03 -3.712055E+03
       387  27  4.383630E+05  9.569349E+04  2.638424E+04  1.712160E+05  4.016453E+03 -4.535191E+03
       388   1  2.343931E+05  1.981101E+04 -2.093201E+04  1.157406E+05 -7.415585E+03  4.123593E+03
       388   2  2.167182E+05  7.943979E+03 -2.147967E+04  1.050359E+05 -1.265630E+04  3.520186E+03
       388   3  1.948331E+05  6.802439E+03 -1.731106E+04  1.006947E+05 -1.779463E+04  2.647628E+03
       388   4  3.453659E+05  6.052265E+04  5.505392E+03  1.457000E+05 -6.208316E+03  4.580911E+03
       388   5  3.477520E+05  5.727237E+04  9.916667E+03  1.417084E+05 -1.169220E+04  3.885255E+03
       388   6  3.459753E+05  6.479484E+04  1.923616E+04  1.440800E+05 -1.707390E+04  2.920386E+03
       388   7  4.563503E+05  1.012349E+05  3.194175E+04  1.756642E+05 -5.000819E+03  5.038312E+03
       388   8  4.788028E+05  1.066021E+05  4.131176E+04  1.783881E+05 -1.072787E+04  4.250409E+03
       388   9  4.971409E+05  1.227895E+05  5.578191E+04  1.874753E+05 -1.635298E+04  3.193222E+03
       388  10  2.343930E+05  1.981098E+04 -2.093214E+04  1.157406E+05 -1.687469E-08 -5.140576E-09
       388  11  2.167180E+05  7.943923E+03 -2.148000E+04  1.050359E+05 -7.236643E-09  9.048281E-09
       388  12  1.948327E+05  6.802347E+03 -1.731166E+04  1.006948E+05  6.866850E-09  8.655604E-09
       388  13  3.453659E+05  6.052262E+04  5.505280E+03  1.457001E+05 -2.255054E-09 -1.808797E-09
       388  14  3.477518E+05  5.727232E+04  9.916382E+03  1.417085E+05 -6.906571E-09  1.753231E-08
       388  15  3.459749E+05  6.479475E+04  1.923560E+04  1.440801E+05  4.022809E-09  4.042654E-09
       388  16  4.563503E+05  1.012348E+05  3.194166E+04  1.756642E+05  6.933011E-09  1.507575E-08
       388  17  4.788027E+05  1.066020E+05  4.131151E+04  1.783881E+05  4.446718E-09  1.349056E-09
       388  18  4.971406E+05  1.227895E+05  5.578139E+04  1.874753E+05 -3.210839E-09 -7.450943E-09
       388  19  2.343931E+05  1.981101E+04 -2.093201E+04  1.157406E+05  7.415585E+03 -4.123593E+03
       388  20  2.167182E+05  7.943979E+03 -2.147967E+04  1.050359E+05  1.265630E+04 -3.520186E+03
       388  21  1.948331E+05  6.802439E+03 -1.731106E+04  1.006947E+05  1.779463E+04 -2.647628E+03
       388  22  3.453659E+05  6.052265E+04  5.505392E+03  1.457000E+05  6.208316E+03 -4.580911E+03
       388  23  3.477520E+05  5.727237E+04  9.916667E+03  1.417084E+05  1.169220E+04 -3.885255E+03
       388  24  3.459753E+05  6.479484E+04  1.923616E+04  1.440800E+05  1.707390E+04 -2.920386E+03
       388  25  4.563503E+05  1.012349E+05  3.194175E+04  1.756642E+05  5.000819E+03 -5.038312E+03
       388  26  4.788028E+05  1.066021E+05  4.131176E+04  1.783881E+05  1.072787E+04 -4.250409E+03
       388  27  4.971409E+05  1.227895E+05  5.578191E+04  1.874753E+05  1.635298E+04 -3.193222E+03
       389   1  1.715670E+05  2.250749E+03 -1.614838E+04  1.104840E+05 -2.316984E+04  2.095818E+03
       389   2  1.611167E+05 -2.399991E+04 -3.240407E+03  7.720620E+04 -4.068516E+04 -4.792894E+03
       389   3  1.738663E+05  2.789295E+04  4.249776E+04  3.228800E+04 -5.590059E+04 -1.775460E+04
       389   4  3.490984E+05  5.770316E+04  2.433473E+04  1.485241E+05 -2.064479E+04  3.052316E+03
       389   5  3.424084E+05  5.614496E+04  4.307845E+04  1.399346E+05 -4.362777E+04 -5.908276E+03
       389   6  3.599909E+05  1.337972E+05  9.897925E+04  1.197073E+05 -6.431137E+04 -2.094257E+04
       389   7  5.266617E+05  1.131560E+05  6.481602E+04  1.865732E+05 -1.811895E+04  4.009005E+03
       389   8  5.237316E+05  1.362954E+05  8.939429E+04  2.026805E+05 -4.657129E+04 -7.024149E+03
       389   9  5.461489E+05  2.397173E+05  1.554568E+05  2.071531E+05 -7.272474E+04 -2.413273E+04
       389  10  1.715664E+05  2.250600E+03 -1.614940E+04  1.104841E+05 -3.279567E-09  1.052453E-08
       389  11  1.611149E+05 -2.400037E+04 -3.243560E+03  7.720605E+04 -2.822691E-09  1.519190E-08
       389  12  1.738629E+05  2.789177E+04  4.249130E+04  3.228720E+04  4.118135E-09  9.237409E-09
       389  13  3.490980E+05  5.770304E+04  2.433392E+04  1.485242E+05  3.409579E-09  2.489124E-09
       389  14  3.424063E+05  5.614441E+04  4.307481E+04  1.399344E+05  6.968947E-10  2.089873E-08
       389  15  3.599863E+05  1.337956E+05  9.897066E+04  1.197063E+05 -1.264232E-09  8.735145E-09
       389  16  5.266613E+05  1.131558E+05  6.481537E+04  1.865732E+05  1.021897E-08 -2.402026E-09
       389  17  5.237292E+05  1.362948E+05  8.939012E+04  2.026802E+05 -2.998112E-09  6.784754E-09
       389  18  5.461431E+05  2.397153E+05  1.554457E+05  2.071517E+05 -5.903702E-09  4.886655E-09
       389  19  1.715670E+05  2.250749E+03 -1.614838E+04  1.104840E+05  2.316984E+04 -2.095818E+03
       389  20  1.611167E+05 -2.399991E+04 -3.240407E+03  7.720620E+04  4.068516E+04  4.792894E+03
       389  21  1.738663E+05  2.789295E+04  4.249776E+04  3.228800E+04  5.590059E+04  1.775460E+04
       389  22  3.490984E+05  5.770316E+04  2.433473E+04  1.485241E+05  2.064479E+04 -3.052316E+03
       389  23  3.424084E+05  5.614496E+04  4.307845E+04  1.399346E+05  4.362777E+04  5.908276E+03
       389  24  3.599909E+05  1.337972E+05  9.897925E+04  1.197073E+05  6.431137E+04  2.094257E+04
       389  25  5.266617E+05  1.131560E+05  6.481602E+04  1.865732E+05  1.811895E+04 -4.009005E+03
       389  26  5.237316E+05  1.362954E+05  8.939429E+04  2.026805E+05  4.657129E+04  7.024149E+03
       389  27  5.461489E+05  2.397173E+05  1.554568E+05  2.071531E+05  7.272474E+04  2.413273E+04
       390   1 -1.273936E+05 -6.289132E+05 -1.270006E+05  9.313635E+04 -4.987463E+03 -2.539371E+04
       390   2 -8.050943E+04 -4.978423E+05 -8.065942E+04  6.367006E+04 -1.411363E+04 -8.985049E+03
       390   3 -4.846418E+04 -3.722150E+05 -4.865946E+04  8.416923E+04 -1.037082E+04  7.464332E+03
       390   4 -1.388067E+04 -1.727488E+05 -1.605759E+04  8.559067E+04 -5.028883E+03 -1.051488E+04
       390   5 -5.355255E+02 -1.710792E+05 -7.769122E+03  6.062777E+04 -1.411999E+04 -6.447510E+03
       390   6  1.197026E+02 -1.727227E+05 -5.242490E+03  8.562974E+04 -1.034495E+04 -2.343100E+03
       390   7  9.961721E+04  2.836062E+05  9.487125E+04  7.803954E+04 -5.070650E+03  4.374868E+03
       390   8  7.943115E+04  1.557834E+05  6.511451E+04  5.758392E+04 -1.412639E+04 -3.908648E+03
       390   9  4.870101E+04  2.680705E+04  3.817246E+04  8.709074E+04 -1.031912E+04 -1.215364E+04
       390  10 -1.273938E+05 -6.289139E+05 -1.270019E+05  9.313625E+04 -2.021935E-09 -6.433652E-09
       390  11 -8.050966E+04 -4.978424E+05 -8.065995E+04  6.366996E+04 -5.236018E-09  8.346404E-09
       390  12 -4.846431E+04 -3.722151E+05 -4.865977E+04  8.416930E+04 -4.695243E-10 -3.801217E-09
       390  13 -1.388073E+04 -1.727489E+05 -1.605784E+04  8.559062E+04 -9.521562E-10 -4.208983E-09
       390  14 -5.357507E+02 -1.710793E+05 -7.769575E+03  6.062770E+04 -8.059633E-09  5.016073E-09
       390  15  1.195862E+02 -1.727228E+05 -5.242702E+03  8.562972E+04 -1.483927E-10 -3.369095E-10
       390  16  9.961717E+04  2.836062E+05  9.487116E+04  7.803956E+04 -2.321500E-09  1.095038E-09
       390  17  7.943094E+04  1.557833E+05  6.511410E+04  5.758388E+04 -5.014891E-09  6.098049E-09
       390  18  4.870085E+04  2.680686E+04  3.817198E+04  8.709064E+04  4.889003E-10  1.064673E-09
       390  19 -1.273936E+05 -6.289132E+05 -1.270006E+05  9.313635E+04  4.987463E+03  2.539371E+04
       390  20 -8.050943E+04 -4.978423E+05 -8.065942E+04  6.367006E+04  1.411363E+04  8.985049E+03
       390  21 -4.846418E+04 -3.722150E+05 -4.865946E+04  8.416923E+04  1.037082E+04 -7.464332E+03
       390  22 -1.388067E+04 -1.727488E+05 -1.605759E+04  8.559067E+04  5.028883E+03  1.051488E+04
       390  23 -5.355255E+02 -1.710792E+05 -7.769122E+03  6.062777E+04  1.411999E+04  6.447510E+03
       390  24  1.197026E+02 -1.727227E+05 -5.242490E+03  8.562974E+04  1.034495E+04  2.343100E+03
       390  25  9.961721E+04  2.836062E+05  9.487125E+04  7.803954E+04  5.070650E+03 -4.374868E+03
       390  26  7.943115E+04  1.557834E+05  6.511451E+04  5.758392E+04  1.412639E+04  3.908648E+03
       390  27  4.870101E+04  2.680705E+04  3.817246E+04  8.709074E+04  1.031912E+04  1.215364E+04
       391   1 -2.479732E+04 -2.693179E+05 -2.596103E+04  8.636284E+04 -4.920486E+03  4.809250E+03
       391   2  7.268006E+03 -1.408175E+05  2.503702E+03  6.039331E+04  1.641319E+03  6.877077E+03
       391   3  3.749352E+04 -1.267947E+04  2.924102E+04  8.497669E+04  8.131365E+03  8.945375E+03
       391   4 -1.088508E+03 -1.720667E+05 -4.708896E+03  8.575030E+04 -4.904061E+03 -1.528070E+03
       391   5 -2.901207E+02 -1.718729E+05 -4.224616E+03  6.047336E+04  1.657710E+03  6.081150E+02
       391   6 -1.342477E+03 -1.720691E+05 -5.514666E+03  8.574964E+04  8.147667E+03  2.744362E+03
       391   7  2.261970E+04 -7.480647E+04  1.654282E+04  8.513766E+04 -4.887625E+03 -7.866371E+03
       391   8 -7.848291E+03 -2.029274E+05 -1.095284E+04  6.055342E+04  1.674100E+03 -5.660537E+03
       391   9 -4.018014E+04 -3.314348E+05 -4.027174E+04  8.652240E+04  8.163957E+03 -3.455080E+03
       391  10 -2.479735E+04 -2.693180E+05 -2.596112E+04  8.636286E+04  9.129738E-10 -1.554160E-08
       391  11  7.267991E+03 -1.408175E+05  2.503608E+03  6.039330E+04  2.789461E-09 -4.869396E-09
       391  12  3.749342E+04 -1.267957E+04  2.924075E+04  8.497663E+04  5.263254E-10 -1.307563E-08
       391  13 -1.088534E+03 -1.720667E+05 -4.708946E+03  8.575029E+04  2.206657E-09 -3.730658E-09
       391  14 -2.901238E+02 -1.718729E+05 -4.224622E+03  6.047336E+04  2.607894E-09  3.807261E-09
       391  15 -1.342550E+03 -1.720691E+05 -5.514805E+03  8.574962E+04  3.250473E-09 -2.161004E-09
       391  16  2.261966E+04 -7.480655E+04  1.654265E+04  8.513763E+04  1.936260E-09  6.434191E-09
       391  17 -7.848302E+03 -2.029274E+05 -1.095291E+04  6.055342E+04 -1.550407E-09  1.346273E-08
       391  18 -4.018021E+04 -3.314349E+05 -4.027188E+04  8.652242E+04  1.337533E-09  4.507363E-09
       391  19 -2.479732E+04 -2.693179E+05 -2.596103E+04  8.636284E+04  4.920486E+03 -4.809250E+03
       391  20  7.268006E+03 -1.408175E+05  2.503702E+03  6.039331E+04 -1.641319E+03 -6.877077E+03
       391  21  3.749352E+04 -1.267947E+04  2.924102E+04  8.497669E+04 -8.131365E+03 -8.945375E+03
       391  22 -1.088508E+03 -1.720667E+05 -4.708896E+03  8.575030E+04  4.904061E+03  1.528070E+03
       391  23 -2.901207E+02 -1.718729E+05 -4.224616E+03  6.047336E+04 -1.657710E+03 -6.081150E+02
       391  24 -1.342477E+03 -1.720691E+05 -5.514666E+03  8.574964E+04 -8.147667E+03 -2.744362E+03
       391  25  2.261970E+04 -7.480647E+04  1.654282E+04  8.513766E+04  4.887625E+03  7.866371E+03
       391  26 -7.848291E+03 -2.029274E+05 -1.095284E+04  6.055342E+04 -1.674100E+03  5.660537E+03
       391  27 -4.018014E+04 -3.314348E+05 -4.027174E+04  8.652240E+04 -8.163957E+03  3.455080E+03
       392   1  6.403044E+04  8.870679E+04  5.041017E+04  8.759405E+04  1.368024E+04  1.385304E+04
       392   2  9.449866E+04  2.181472E+05  7.641538E+04  5.667057E+04  1.704070E+04  5.350931E+03
       392   3  1.104707E+05  3.454994E+05  1.044180E+05  7.561908E+04  5.955680E+03 -3.195244E+03
       392   4  3.323558E+02 -1.729945E+05 -6.441931E+03  8.561326E+04  1.370741E+04  3.711133E+03
       392   5 -6.154004E+02 -1.707537E+05 -1.015140E+04  6.064907E+04  1.703112E+04  9.078307E+03
       392   6 -1.847100E+04 -1.730256E+05 -2.149608E+04  8.555980E+04  5.905121E+03  1.440289E+04
       392   7 -6.337020E+04 -4.346312E+05 -6.329773E+04  8.363336E+04  1.373465E+04 -6.426551E+03
       392   8 -9.573965E+04 -5.595136E+05 -9.672758E+04  6.462513E+04  1.702158E+04  1.280337E+04
       392   9 -1.474320E+05 -6.913044E+05 -1.474284E+05  9.549235E+04  5.855104E+03  3.198637E+04
       392  10  6.403019E+04  8.870653E+04  5.040945E+04  8.759390E+04  2.488638E-09 -7.814984E-09
       392  11  9.449834E+04  2.181471E+05  7.641478E+04  5.667050E+04  4.283908E-09  3.480197E-09
       392  12  1.104707E+05  3.454994E+05  1.044179E+05  7.561909E+04  8.588201E-10 -3.469439E-09
       392  13  3.321504E+02 -1.729945E+05 -6.442310E+03  8.561322E+04  6.057521E-10 -6.044980E-09
       392  14 -6.157340E+02 -1.707539E+05 -1.015210E+04  6.064894E+04  4.489364E-09  7.399006E-09
       392  15 -1.847109E+04 -1.730258E+05 -2.149653E+04  8.555973E+04  6.006023E-10 -1.925040E-09
       392  16 -6.337041E+04 -4.346313E+05 -6.329816E+04  8.363343E+04  2.973674E-09 -2.446190E-09
       392  17 -9.574001E+04 -5.595138E+05 -9.672843E+04  6.462496E+04  3.914729E-09  1.131487E-08
       392  18 -1.474323E+05 -6.913055E+05 -1.474304E+05  9.549220E+04  2.606963E-10 -3.744477E-09
       392  19  6.403044E+04  8.870679E+04  5.041017E+04  8.759405E+04 -1.368024E+04 -1.385304E+04
       392  20  9.449866E+04  2.181472E+05  7.641538E+04  5.667057E+04 -1.704070E+04 -5.350931E+03
       392  21  1.104707E+05  3.454994E+05  1.044180E+05  7.561908E+04 -5.955680E+03  3.195244E+03
       392  22  3.323558E+02 -1.729945E+05 -6.441931E+03  8.561326E+04 -1.370741E+04 -3.711133E+03
       392  23 -6.154004E+02 -1.707537E+05 -1.015140E+04  6.064907E+04 -1.703112E+04 -9.078307E+03
       392  24 -1.847100E+04 -1.730256E+05 -2.149608E+04  8.555980E+04 -5.905121E+03 -1.440289E+04
       392  25 -6.337020E+04 -4.346312E+05 -6.329773E+04  8.363336E+04 -1.373465E+04  6.426551E+03
       392  26 -9.573965E+04 -5.595136E+05 -9.672758E+04  6.462513E+04 -1.702158E+04 -1.280337E+04
       392  27 -1.474320E+05 -6.913044E+05 -1.474284E+05  9.549235E+04 -5.855104E+03 -3.198637E+04
       393   1  1.712372E+05 -1.277051E+05 -1.198974E+05 -2.096470E+04 -7.986671E+03  7.926688E+03
       393   2  2.164317E+05 -1.328715E+05 -1.098034E+05 -1.823260E+04  1.268424E+03  2.518241E+04
       393   3  2.644342E+05 -1.225076E+05 -1.018328E+05 -3.309641E+04  1.053965E+04  2.691501E+04
       393   4  7.642170E+05  1.945220E+04  2.331035E+04 -3.013040E+04  1.603678E+04  7.948528E+03
       393   5  7.615344E+05  1.790485E+02  1.066082E+04 -2.132492E+04  1.038477E+04  2.518772E+04
       393   6  7.642394E+05 -9.849046E+02  6.231548E+03 -3.011424E+04  4.748056E+03  2.691009E+04
       393   7  1.357520E+06  1.665845E+05  1.664952E+05 -3.930495E+04  4.008309E+04  7.969648E+03
       393   8  1.306915E+06  1.332097E+05  1.311071E+05 -2.442004E+04  1.950902E+04  2.519294E+04
       393   9  1.264279E+06  1.205214E+05  1.142812E+05 -2.712966E+04 -1.048136E+03  2.690512E+04
       393  10  1.712371E+05 -1.277052E+05 -1.198977E+05 -2.096465E+04  8.041109E-12 -3.284640E-12
       393  11  2.164315E+05 -1.328722E+05 -1.098046E+05 -1.823262E+04 -6.334432E-11 -1.049079E-10
       393  12  2.644339E+05 -1.225085E+05 -1.018343E+05 -3.309664E+04 -3.130884E-10 -2.675484E-11
       393  13  7.642167E+05  1.945206E+04  2.330975E+04 -3.013050E+04 -5.272765E-10 -3.469388E-11
       393  14  7.615341E+05  1.783381E+02  1.065943E+04 -2.132513E+04 -4.299721E-10 -2.804700E-11
       393  15  7.642392E+05 -9.856886E+02  6.230144E+03 -3.011434E+04 -1.407993E-10 -8.089215E-12
       393  16  1.357518E+06  1.665840E+05  1.664920E+05 -3.930520E+04  2.668665E-10 -2.912835E-12
       393  17  1.306914E+06  1.332089E+05  1.311052E+05 -2.442043E+04 -3.982155E-10  3.755909E-12
       393  18  1.264279E+06  1.205206E+05  1.142798E+05 -2.712964E+04  1.282520E-10  8.752140E-11
       393  19  1.712372E+05 -1.277051E+05 -1.198974E+05 -2.096470E+04  7.986671E+03 -7.926688E+03
       393  20  2.164317E+05 -1.328715E+05 -1.098034E+05 -1.823260E+04 -1.268424E+03 -2.518241E+04
       393  21  2.644342E+05 -1.225076E+05 -1.018328E+05 -3.309641E+04 -1.053965E+04 -2.691501E+04
       393  22  7.642170E+05  1.945220E+04  2.331035E+04 -3.013040E+04 -1.603678E+04 -7.948528E+03
       393  23  7.615344E+05  1.790485E+02  1.066082E+04 -2.132492E+04 -1.038477E+04 -2.518772E+04
       393  24  7.642394E+05 -9.849046E+02  6.231548E+03 -3.011424E+04 -4.748056E+03 -2.691009E+04
       393  25  1.357520E+06  1.665845E+05  1.664952E+05 -3.930495E+04 -4.008309E+04 -7.969648E+03
       393  26  1.306915E+06  1.332097E+05  1.311071E+05 -2.442004E+04 -1.950902E+04 -2.519294E+04
       393  27  1.264279E+06  1.205214E+05  1.142812E+05 -2.712966E+04  1.048136E+03 -2.690512E+04
       394   1  3.003696E+05 -1.116914E+05 -9.562377E+04 -3.006011E+04  5.249167E+03  2.411093E+04
       394   2  3.461065E+05 -1.014212E+05 -8.750060E+04 -2.123440E+04  4.573054E+03  2.232678E+04
       394   3  3.922217E+05 -9.029264E+04 -7.870570E+04 -3.048331E+04  3.895981E+03  1.984675E+04
       394   4  7.631581E+05  9.253676E+02  4.938745E+03 -3.022493E+04  3.872237E+03  2.410893E+04
       394   5  7.629182E+05 -7.173653E+01  2.686146E+03 -2.118781E+04  2.526937E+03  2.232492E+04
       394   6  7.631704E+05 -9.454496E+01  1.569237E+03 -3.022455E+04  1.180726E+03  1.984525E+04
       394   7  1.226147E+06  1.135279E+05  1.054885E+05 -3.038990E+04  2.494294E+03  2.410693E+04
       394   8  1.179893E+06  1.012663E+05  9.286261E+04 -2.114120E+04  4.794646E+02  2.232306E+04
       394   9  1.134248E+06  9.009448E+04  8.183604E+04 -2.996564E+04 -1.536129E+03  1.984376E+04
       394  10  3.003694E+05 -1.116920E+05 -9.562492E+04 -3.006021E+04  4.140878E-12  6.647047E-11
       394  11  3.461063E+05 -1.014218E+05 -8.750158E+04 -2.123448E+04 -1.207367E-11  6.020568E-11
       394  12  3.922216E+05 -9.029307E+04 -7.870647E+04 -3.048337E+04 -5.104008E-11  2.580163E-11
       394  13  7.631580E+05  9.247392E+02  4.937624E+03 -3.022501E+04 -2.846730E-10  9.140860E-11
       394  14  7.629181E+05 -7.227363E+01  2.685197E+03 -2.118786E+04 -3.157940E-10  9.014568E-11
       394  15  7.631703E+05 -9.496840E+01  1.568494E+03 -3.022457E+04 -9.088080E-11  4.967483E-11
       394  16  1.226147E+06  1.135273E+05  1.054874E+05 -3.038995E+04  2.098808E-10  1.476424E-10
       394  17  1.179893E+06  1.012658E+05  9.286168E+04 -2.114121E+04 -2.325657E-10  1.527129E-10
       394  18  1.134248E+06  9.009405E+04  8.183530E+04 -2.996561E+04 -1.869587E-11  1.094255E-10
       394  19  3.003696E+05 -1.116914E+05 -9.562377E+04 -3.006011E+04 -5.249167E+03 -2.411093E+04
       394  20  3.461065E+05 -1.014212E+05 -8.750060E+04 -2.123440E+04 -4.573054E+03 -2.232678E+04
       394  21  3.922217E+05 -9.029264E+04 -7.870570E+04 -3.048331E+04 -3.895981E+03 -1.984675E+04
       394  22  7.631581E+05  9.253676E+02  4.938745E+03 -3.022493E+04 -3.872237E+03 -2.410893E+04
       394  23  7.629182E+05 -7.173653E+01  2.686146E+03 -2.118781E+04 -2.526937E+03 -2.232492E+04
       394  24  7.631704E+05 -9.454496E+01  1.569237E+03 -3.022455E+04 -1.180726E+03 -1.984525E+04
       394  25  1.226147E+06  1.135279E+05  1.054885E+05 -3.038990E+04 -2.494294E+03 -2.410693E+04
       394  26  1.179893E+06  1.012663E+05  9.286261E+04 -2.114120E+04 -4.794646E+02 -2.232306E+04
       394  27  1.134248E+06  9.009448E+04  8.183604E+04 -2.996564E+04  1.536129E+03 -1.984376E+04
       395   1  4.284333E+05 -8.132355E+04 -7.099971E+04 -3.026724E+04  3.444335E+03  1.823530E+04
       395   2  4.739301E+05 -7.030998E+04 -6.175185E+04 -2.126356E+04  3.112811E+03  1.561026E+04
       395   3  5.195157E+05 -5.924728E+04 -5.226859E+04 -3.021264E+04  2.780336E+03  1.295944E+04
       395   4  7.630871E+05  5.972238E+00  1.212344E+03 -3.019764E+04  9.357778E+02  1.823416E+04
       395   5  7.630451E+05 -3.160382E+01  7.214491E+02 -2.122151E+04  5.792478E+02  1.560953E+04
       395   6  7.630951E+05 -1.545179E+01  4.834502E+02 -3.019764E+04  2.217916E+02  1.295912E+04
       395   7  1.097846E+06  8.132813E+04  7.341782E+04 -3.012799E+04 -1.574112E+03  1.823303E+04
       395   8  1.052239E+06  7.024127E+04  6.318983E+04 -2.117944E+04 -1.955478E+03  1.560879E+04
       395   9  1.006730E+06  5.921246E+04  5.323199E+04 -3.018263E+04 -2.337743E+03  1.295880E+04
       395  10  4.284332E+05 -8.132391E+04 -7.100036E+04 -3.026729E+04 -1.011280E-10 -1.112579E-10
       395  11  4.739300E+05 -7.031024E+04 -6.175233E+04 -2.126360E+04  4.211429E-11  1.553768E-10
       395  12  5.195157E+05 -5.924746E+04 -5.226892E+04 -3.021267E+04  1.169909E-11 -1.258401E-11
       395  13  7.630870E+05  5.614844E+00  1.211718E+03 -3.019765E+04 -1.331423E-10  1.015857E-10
       395  14  7.630451E+05 -3.186565E+01  7.209904E+02 -2.122152E+04 -3.285144E-11  8.565640E-11
       395  15  7.630950E+05 -1.563221E+01  4.831344E+02 -3.019764E+04 -6.960832E-11  4.680700E-11
       395  16  1.097846E+06  8.132778E+04  7.341719E+04 -3.012797E+04  1.095544E-10  9.397735E-11
       395  17  1.052239E+06  7.024100E+04  6.318937E+04 -2.117941E+04 -1.349176E-10  1.598312E-10
       395  18  1.006730E+06  5.921228E+04  5.323166E+04 -3.018260E+04 -8.805098E-11  1.359997E-10
       395  19  4.284333E+05 -8.132355E+04 -7.099971E+04 -3.026724E+04 -3.444335E+03 -1.823530E+04
       395  20  4.739301E+05 -7.030998E+04 -6.175185E+04 -2.126356E+04 -3.112811E+03 -1.561026E+04
       395  21  5.195157E+05 -5.924728E+04 -5.226859E+04 -3.021264E+04 -2.780336E+03 -1.295944E+04
       395  22  7.630871E+05  5.972238E+00  1.212344E+03 -3.019764E+04 -9.357778E+02 -1.823416E+04
       395  23  7.630451E+05 -3.160382E+01  7.214491E+02 -2.122151E+04 -5.792478E+02 -1.560953E+04
       395  24  7.630951E+05 -1.545179E+01  4.834502E+02 -3.019764E+04 -2.217916E+02 -1.295912E+04
       395  25  1.097846E+06  8.132813E+04  7.341782E+04 -3.012799E+04  1.574112E+03 -1.823303E+04
       395  26  1.052239E+06  7.024127E+04  6.318983E+04 -2.117944E+04  1.955478E+03 -1.560879E+04
       395  27  1.006730E+06  5.921246E+04  5.323199E+04 -3.018263E+04  2.337743E+03 -1.295880E+04
       396   1  5.555416E+05 -5.043100E+04 -4.429422E+04 -3.017800E+04  2.685029E+03  1.141216E+04
       396   2  6.008233E+05 -3.944370E+04 -3.466187E+04 -2.123311E+04  2.489621E+03  8.763783E+03
       396   3  6.461408E+05 -2.844839E+04 -2.489903E+04 -3.014959E+04  2.293671E+03  6.117493E+03
       396   4  7.630856E+05 -9.406999E+00  4.211812E+02 -3.017738E+04  1.399074E+02  1.141204E+04
       396   5  7.630713E+05 -7.890474E+00  3.918889E+02 -2.124684E+04 -5.364913E+01  8.763886E+03
       396   6  7.630899E+05  1.258925E+00  4.916540E+02 -3.017738E+04 -2.477332E+02  6.117830E+03
       396   7  9.706699E+05  5.040936E+04  4.513407E+04 -3.017676E+04 -2.406053E+03  1.141191E+04
       396   8  9.253440E+05  3.942619E+04  3.544412E+04 -2.126057E+04 -2.597574E+03  8.763990E+03
       396   9  8.800519E+05  2.845000E+04  2.588155E+04 -3.020517E+04 -2.789609E+03  6.118167E+03
       396  10  5.555416E+05 -5.043114E+04 -4.429448E+04 -3.017802E+04  1.119987E-11 -7.972053E-11
       396  11  6.008233E+05 -3.944379E+04 -3.466203E+04 -2.123313E+04  1.357947E-10 -9.415911E-11
       396  12  6.461408E+05 -2.844843E+04 -2.489911E+04 -3.014960E+04  1.848801E-10 -5.869929E-11
       396  13  7.630855E+05 -9.546904E+00  4.209363E+02 -3.017738E+04 -5.278992E-11  9.352476E-12
       396  14  7.630713E+05 -7.972980E+00  3.917446E+02 -2.124684E+04  4.909746E-11  8.532500E-11
       396  15  7.630899E+05  1.218703E+00  4.915835E+02 -3.017737E+04  1.228516E-10  6.110946E-12
       396  16  9.706699E+05  5.040922E+04  4.513382E+04 -3.017673E+04  1.220721E-11  8.546865E-11
       396  17  9.253440E+05  3.942611E+04  3.544396E+04 -2.126055E+04 -5.358871E-11  5.257472E-11
       396  18  8.800518E+05  2.844996E+04  2.588146E+04 -3.020516E+04 -9.701824E-11  4.001139E-11
       396  19  5.555416E+05 -5.043100E+04 -4.429422E+04 -3.017800E+04 -2.685029E+03 -1.141216E+04
       396  20  6.008233E+05 -3.944370E+04 -3.466187E+04 -2.123311E+04 -2.489621E+03 -8.763783E+03
       396  21  6.461408E+05 -2.844839E+04 -2.489903E+04 -3.014959E+04 -2.293671E+03 -6.117493E+03
       396  22  7.630856E+05 -9.406999E+00  4.211812E+02 -3.017738E+04 -1.399074E+02 -1.141204E+04
       396  23  7.630713E+05 -7.890474E+00  3.918889E+02 -2.124684E+04  5.364913E+01 -8.763886E+03
       396  24  7.630899E+05  1.258925E+00  4.916540E+02 -3.017738E+04  2.477332E+02 -6.117830E+03
       396  25  9.706699E+05  5.040936E+04  4.513407E+04 -3.017676E+04  2.406053E+03 -1.141191E+04
       396  26  9.253440E+05  3.942619E+04  3.544412E+04 -2.126057E+04  2.597574E+03 -8.763990E+03
       396  27  8.800519E+05  2.845000E+04  2.588155E+04 -3.020517E+04  2.789609E+03 -6.118167E+03
       397   1  6.820476E+05 -1.967168E+04 -1.678998E+04 -3.013970E+04  2.192732E+03  4.578674E+03
       397   2  7.272124E+05 -8.722439E+03 -6.795970E+03 -2.121338E+04  1.721279E+03  1.936640E+03
       397   3  7.724404E+05  2.249829E+03  3.508833E+03 -3.010480E+04  1.249677E+03 -7.036922E+02
       397   4  7.630977E+05  2.153358E+00  5.942934E+02 -3.016773E+04 -3.466621E+02  4.579097E+03
       397   5  7.630676E+05 -8.199248E+00  9.497631E+02 -2.125889E+04 -8.165856E+02  1.937110E+03
       397   6  7.630985E+05  4.333797E+00  1.615030E+03 -3.016772E+04 -1.286625E+03 -7.031682E+02
       397   7  8.441541E+05  1.967556E+04  1.797821E+04 -3.019577E+04 -2.886383E+03  4.579521E+03
       397   8  7.989240E+05  8.705959E+03  8.695445E+03 -2.130440E+04 -3.354595E+03  1.937580E+03
       397   9  7.537567E+05 -2.241164E+03 -2.787528E+02 -3.023065E+04 -3.822890E+03 -7.026436E+02
       397  10  6.820476E+05 -1.967170E+04 -1.679003E+04 -3.013970E+04 -2.097636E-10 -6.061432E-11
       397  11  7.272124E+05 -8.722444E+03 -6.795983E+03 -2.121338E+04  7.575376E-11  5.086088E-11
       397  12  7.724404E+05  2.249828E+03  3.508829E+03 -3.010480E+04  1.006663E-10 -6.701400E-11
       397  13  7.630977E+05  2.130801E+00  5.942537E+02 -3.016773E+04  1.012538E-11  3.045579E-11
       397  14  7.630676E+05 -8.203458E+00  9.497548E+02 -2.125889E+04  8.638643E-12  1.268682E-11
       397  15  7.630985E+05  4.332822E+00  1.615026E+03 -3.016772E+04  1.401198E-11 -1.319233E-10
       397  16  8.441541E+05  1.967554E+04  1.797815E+04 -3.019576E+04  6.263704E-11  2.632895E-12
       397  17  7.989240E+05  8.705952E+03  8.695416E+03 -2.130440E+04  9.302579E-11 -8.032575E-11
       397  18  7.537567E+05 -2.241168E+03 -2.787812E+02 -3.023065E+04 -1.016412E-10  1.478200E-11
       397  19  6.820476E+05 -1.967168E+04 -1.678998E+04 -3.013970E+04 -2.192732E+03 -4.578674E+03
       397  20  7.272124E+05 -8.722439E+03 -6.795970E+03 -2.121338E+04 -1.721279E+03 -1.936640E+03
       397  21  7.724404E+05  2.249829E+03  3.508833E+03 -3.010480E+04 -1.249677E+03  7.036922E+02
       397  22  7.630977E+05  2.153358E+00  5.942934E+02 -3.016773E+04  3.466621E+02 -4.579097E+03
       397  23  7.630676E+05 -8.199248E+00  9.497631E+02 -2.125889E+04  8.165856E+02 -1.937110E+03
       397  24  7.630985E+05  4.333797E+00  1.615030E+03 -3.016772E+04  1.286625E+03  7.031682E+02
       397  25  8.441541E+05  1.967556E+04  1.797821E+04 -3.019577E+04  2.886383E+03 -4.579521E+03
       397  26  7.989240E+05  8.705959E+03  8.695445E+03 -2.130440E+04  3.354595E+03 -1.937580E+03
       397  27  7.537567E+05 -2.241164E+03 -2.787528E+02 -3.023065E+04  3.822890E+03  7.026436E+02
       398   1  8.083676E+05  1.099481E+04  1.200685E+04 -3.005962E+04  9.190122E+02 -2.242540E+03
       398   2  8.534402E+05  2.193208E+04  2.319861E+04 -2.114156E+04 -9.133970E+02 -4.878798E+03
       398   3  8.988256E+05  3.317298E+04  3.565685E+04 -3.005226E+04 -2.745621E+03 -7.495621E+03
       398   4  7.631530E+05 -1.854608E+01  2.114639E+03 -3.017023E+04 -1.623916E+03 -2.242038E+03
       398   5  7.629971E+05 -4.823927E+01  3.657784E+03 -2.125574E+04 -3.437465E+03 -4.878431E+03
       398   6  7.631496E+05  2.227902E+02  6.454775E+03 -3.017016E+04 -5.250700E+03 -7.495380E+03
       398   7  7.179403E+05 -1.103203E+04 -7.777668E+03 -3.028084E+04 -4.166661E+03 -2.241536E+03
       398   8  6.725617E+05 -2.202909E+04 -1.588350E+04 -2.136991E+04 -5.961171E+03 -4.878063E+03
       398   9  6.274909E+05 -3.272860E+04 -2.274836E+04 -3.028805E+04 -7.755240E+03 -7.495138E+03
       398  10  8.083676E+05  1.099480E+04  1.200683E+04 -3.005962E+04 -7.924698E-11 -5.453054E-11
       398  11  8.534402E+05  2.193205E+04  2.319856E+04 -2.114156E+04  1.756561E-11  6.596623E-12
       398  12  8.988256E+05  3.317292E+04  3.565673E+04 -3.005227E+04  1.432996E-10 -8.319518E-12
       398  13  7.631530E+05 -1.855219E+01  2.114624E+03 -3.017024E+04  3.959986E-11 -1.645873E-10
       398  14  7.629971E+05 -4.826800E+01  3.657717E+03 -2.125575E+04  3.258214E-11 -4.282106E-11
       398  15  7.631496E+05  2.227225E+02  6.454618E+03 -3.017020E+04  8.243925E-11  3.458342E-11
       398  16  7.179402E+05 -1.103204E+04 -7.777710E+03 -3.028085E+04  7.781914E-11  4.334984E-11
       398  17  6.725616E+05 -2.202913E+04 -1.588361E+04 -2.136993E+04  5.759764E-11 -7.571655E-12
       398  18  6.274908E+05 -3.272868E+04 -2.274857E+04 -3.028809E+04  1.507057E-11  4.897848E-11
       398  19  8.083676E+05  1.099481E+04  1.200685E+04 -3.005962E+04 -9.190122E+02  2.242540E+03
       398  20  8.534402E+05  2.193208E+04  2.319861E+04 -2.114156E+04  9.133970E+02  4.878798E+03
       398  21  8.988256E+05  3.317298E+04  3.565685E+04 -3.005226E+04  2.745621E+03  7.495621E+03
       398  22  7.631530E+05 -1.854608E+01  2.114639E+03 -3.017023E+04  1.623916E+03  2.242038E+03
       398  23  7.629971E+05 -4.823927E+01  3.657784E+03 -2.125574E+04  3.437465E+03  4.878431E+03
       398  24  7.631496E+05  2.227902E+02  6.454775E+03 -3.017016E+04  5.250700E+03  7.495380E+03
       398  25  7.179403E+05 -1.103203E+04 -7.777668E+03 -3.028084E+04  4.166661E+03  2.241536E+03
       398  26  6.725617E+05 -2.202909E+04 -1.588350E+04 -2.136991E+04  5.961171E+03  4.878063E+03
       398  27  6.274909E+05 -3.272860E+04 -2.274836E+04 -3.028805E+04  7.755240E+03  7.495138E+03
       399   1  9.352339E+05  4.142260E+04  4.563484E+04 -2.913676E+04 -3.922653E+03 -9.073280E+03
       399   2  9.794422E+05  5.263314E+04  6.159016E+04 -2.165815E+04 -1.171229E+04 -1.158948E+04
       399   3  1.026036E+06  6.926894E+04  8.397046E+04 -3.205030E+04 -1.950203E+04 -1.364009E+04
       399   4  7.635914E+05 -3.124296E+02  8.436671E+03 -3.017957E+04 -6.564134E+03 -9.073152E+03
       399   5  7.624328E+05 -1.171038E+02  1.463544E+04 -2.124395E+04 -1.390403E+04 -1.158970E+04
       399   6  7.635807E+05  5.426716E+03  2.694887E+04 -3.017934E+04 -2.124346E+04 -1.364061E+04
       399   7  5.919764E+05 -4.204939E+04 -2.876322E+04 -3.122208E+04 -9.204894E+03 -9.073014E+03
       399   8  5.454675E+05 -5.287045E+04 -3.232206E+04 -2.082989E+04 -1.609501E+04 -1.158993E+04
       399   9  5.011896E+05 -5.842005E+04 -3.007683E+04 -2.830919E+04 -2.298416E+04 -1.364114E+04
       399  10  9.352339E+05  4.142251E+04  4.563466E+04 -2.913679E+04 -7.957836E-11  8.703182E-11
       399  11  9.794420E+05  5.263296E+04  6.158965E+04 -2.165826E+04  1.894977E-10  4.653328E-11
       399  12  1.026036E+06  6.926864E+04  8.396940E+04 -3.205051E+04  1.798725E-11  1.823439E-11
       399  13  7.635913E+05 -3.125296E+02  8.436436E+03 -3.017961E+04 -9.354070E-11  7.003808E-11
       399  14  7.624325E+05 -1.172999E+02  1.463482E+04 -2.124408E+04  6.488612E-11  8.583357E-11
       399  15  7.635802E+05  5.426395E+03  2.694767E+04 -3.017958E+04  7.764999E-12  1.162555E-10
       399  16  5.919763E+05 -4.204951E+04 -2.876354E+04 -3.122214E+04  2.470881E-11  5.041447E-11
       399  17  5.454672E+05 -5.287066E+04 -3.232280E+04 -2.083004E+04 -1.222635E-10  1.511160E-11
       399  18  5.011890E+05 -5.842039E+04 -3.007817E+04 -2.830944E+04  2.536592E-11  1.567190E-10
       399  19  9.352339E+05  4.142260E+04  4.563484E+04 -2.913676E+04  3.922653E+03  9.073280E+03
       399  20  9.794422E+05  5.263314E+04  6.159016E+04 -2.165815E+04  1.171229E+04  1.158948E+04
       399  21  1.026036E+06  6.926894E+04  8.397046E+04 -3.205030E+04  1.950203E+04  1.364009E+04
       399  22  7.635914E+05 -3.124296E+02  8.436671E+03 -3.017957E+04  6.564134E+03  9.073152E+03
       399  23  7.624328E+05 -1.171038E+02  1.463544E+04 -2.124395E+04  1.390403E+04  1.158970E+04
       399  24  7.635807E+05  5.426716E+03  2.694887E+04 -3.017934E+04  2.124346E+04  1.364061E+04
       399  25  5.919764E+05 -4.204939E+04 -2.876322E+04 -3.122208E+04  9.204894E+03  9.073014E+03
       399  26  5.454675E+05 -5.287045E+04 -3.232206E+04 -2.082989E+04  1.609501E+04  1.158993E+04
       399  27  5.011896E+05 -5.842005E+04 -3.007683E+04 -2.830919E+04  2.298416E+04  1.364114E+04
       400   1  1.068311E+06  6.766876E+04  9.864264E+04 -1.502624E+04 -2.133914E+04 -1.601083E+04
       400   2  1.098876E+06  8.534452E+04  1.343491E+05 -3.990281E+04 -6.214263E+04 -1.572160E+04
       400   3  1.159902E+06  2.035070E+05  2.217201E+05 -8.233216E+04 -1.029530E+05 -5.071324E+03
       400   4  7.694587E+05 -4.969056E+03  3.401362E+04 -3.010203E+04 -2.602810E+04 -1.601122E+04
       400   5  7.550605E+05  1.453609E+03  5.830902E+04 -2.133913E+04 -5.686034E+04 -1.572309E+04
       400   6  7.694090E+05  1.066602E+05  1.273686E+05 -3.012603E+04 -8.769583E+04 -5.075755E+03
       400   7  4.706905E+05 -7.761190E+04 -3.062048E+04 -4.517047E+04 -3.071484E+04 -1.601139E+04
       400   8  4.113564E+05 -8.244394E+04 -1.773806E+04 -2.785843E+03 -5.158094E+04 -1.572427E+04
       400   9  3.790616E+05  9.812678E+03  3.300851E+04  2.204720E+04 -7.244814E+04 -5.077627E+03
       400  10  1.068311E+06  6.766836E+04  9.864130E+04 -1.502651E+04  8.948479E-12  8.403124E-11
       400  11  1.098871E+06  8.534322E+04  1.343414E+05 -3.990359E+04  2.032704E-11 -1.403131E-10
       400  12  1.159890E+06  2.035042E+05  2.217002E+05 -8.233258E+04 -7.144611E-11 -7.092257E-11
       400  13  7.694579E+05 -4.969513E+03  3.401187E+04 -3.010236E+04 -6.801499E-11  8.215769E-12
       400  14  7.550570E+05  1.452476E+03  5.830249E+04 -2.133985E+04 -1.854827E-10  4.280931E-11
       400  15  7.694007E+05  1.066582E+05  1.273541E+05 -3.012639E+04 -2.589460E-10  4.915791E-13
       400  16  4.706894E+05 -7.761243E+04 -3.062274E+04 -4.517087E+04  1.762995E-10  1.677841E-10
       400  17  4.113535E+05 -8.244492E+04 -1.774352E+04 -2.786496E+03  1.048863E-10  2.512256E-10
       400  18  3.790560E+05  9.811243E+03  3.299860E+04  2.204690E+04  1.268238E-11  5.052917E-11
       400  19  1.068311E+06  6.766876E+04  9.864264E+04 -1.502624E+04  2.133914E+04  1.601083E+04
       400  20  1.098876E+06  8.534452E+04  1.343491E+05 -3.990281E+04  6.214263E+04  1.572160E+04
       400  21  1.159902E+06  2.035070E+05  2.217201E+05 -8.233216E+04  1.029530E+05  5.071324E+03
       400  22  7.694587E+05 -4.969056E+03  3.401362E+04 -3.010203E+04  2.602810E+04  1.601122E+04
       400  23  7.550605E+05  1.453609E+03  5.830902E+04 -2.133913E+04  5.686034E+04  1.572309E+04
       400  24  7.694090E+05  1.066602E+05  1.273686E+05 -3.012603E+04  8.769583E+04  5.075755E+03
       400  25  4.706905E+05 -7.761190E+04 -3.062048E+04 -4.517047E+04  3.071484E+04  1.601139E+04
       400  26  4.113564E+05 -8.244394E+04 -1.773806E+04 -2.785843E+03  5.158094E+04  1.572427E+04
       400  27  3.790616E+05  9.812678E+03  3.300851E+04  2.204720E+04  7.244814E+04  5.077627E+03
       401   1 -2.529319E+05 -1.024943E+05 -9.917180E+04 -2.448476E+04 -1.480482E+04  5.594295E+03
       401   2 -2.134559E+05 -9.357223E+04 -8.334611E+04 -1.787042E+04 -4.856881E+03  1.764768E+04
       401   3 -1.750835E+05 -8.410041E+04 -7.385182E+04 -2.603822E+04  5.095344E+03  1.856001E+04
       401   4  1.700103E+05  2.547473E+03  3.070945E+03 -2.565742E+04  2.107421E+03  5.599065E+03
       401   5  1.696388E+05 -8.260413E-01  1.401053E+03 -1.826630E+04  1.363988E+03  1.764801E+04
       401   6  1.700192E+05 -1.430828E+02  8.254919E+02 -2.565687E+04  6.243451E+02  1.855902E+04
       401   7  5.931167E+05  1.075763E+05  1.053019E+05 -2.683090E+04  1.903114E+04  5.603769E+03
       401   8  5.528706E+05  9.356071E+04  8.613929E+04 -1.866243E+04  7.588652E+03  1.764833E+04
       401   9  5.152337E+05  8.380639E+04  7.549581E+04 -2.527531E+04 -3.849106E+03  1.855801E+04
       401  10 -2.529322E+05 -1.024944E+05 -9.917227E+04 -2.448470E+04 -4.255573E-11  1.290043E-10
       401  11 -2.134560E+05 -9.357257E+04 -8.334674E+04 -1.787035E+04 -5.329682E-11 -5.727855E-11
       401  12 -1.750836E+05 -8.410078E+04 -7.385251E+04 -2.603830E+04 -8.168050E-11 -6.341938E-11
       401  13  1.700103E+05  2.547438E+03  3.070878E+03 -2.565743E+04 -1.964851E-10 -4.668168E-11
       401  14  1.696387E+05 -1.161013E+00  1.400464E+03 -1.826632E+04 -5.058012E-11 -1.051935E-10
       401  15  1.700191E+05 -1.434528E+02  8.248439E+02 -2.565688E+04 -1.182880E-10 -7.859396E-11
       401  16  5.931163E+05  1.075762E+05  1.053012E+05 -2.683098E+04  1.288979E-10  1.587399E-10
       401  17  5.528704E+05  9.356036E+04  8.613860E+04 -1.866254E+04 -1.753345E-10  2.583684E-11
       401  18  5.152336E+05  8.380602E+04  7.549514E+04 -2.527525E+04 -2.745363E-11  1.039256E-12
       401  19 -2.529319E+05 -1.024943E+05 -9.917180E+04 -2.448476E+04  1.480482E+04 -5.594295E+03
       401  20 -2.134559E+05 -9.357223E+04 -8.334611E+04 -1.787042E+04  4.856881E+03 -1.764768E+04
       401  21 -1.750835E+05 -8.410041E+04 -7.385182E+04 -2.603822E+04 -5.095344E+03 -1.856001E+04
       401  22  1.700103E+05  2.547473E+03  3.070945E+03 -2.565742E+04 -2.107421E+03 -5.599065E+03
       401  23  1.696388E+05 -8.260413E-01  1.401053E+03 -1.826630E+04 -1.363988E+03 -1.764801E+04
       401  24  1.700192E+05 -1.430828E+02  8.254919E+02 -2.565687E+04 -6.243451E+02 -1.855902E+04
       401  25  5.931167E+05  1.075763E+05  1.053019E+05 -2.683090E+04 -1.903114E+04 -5.603769E+03
       401  26  5.528706E+05  9.356071E+04  8.613929E+04 -1.866243E+04 -7.588652E+03 -1.764833E+04
       401  27  5.152337E+05  8.380639E+04  7.549581E+04 -2.527531E+04  3.849106E+03 -1.855801E+04
       402   1 -1.441653E+05 -7.635317E+04 -6.763097E+04 -2.571932E+04  1.817583E+03  1.635685E+04
       402   2 -1.054232E+05 -6.698659E+04 -5.923878E+04 -1.810851E+04  2.120605E+03  1.473981E+04
       402   3 -6.668356E+04 -5.756880E+04 -5.102582E+04 -2.575617E+04  2.422944E+03  1.261848E+04
       402   4  1.698742E+05  1.120689E+02  6.557972E+02 -2.576286E+04  5.077288E+02  1.635625E+04
       402   5  1.698377E+05 -1.552344E+01  3.622545E+02 -1.813384E+04  3.266094E+02  1.473949E+04
       402   6  1.698806E+05 -7.924423E+00  2.255665E+02 -2.576287E+04  1.447814E+02  1.261854E+04
       402   7  4.840063E+05  7.657077E+04  6.893667E+04 -2.580642E+04 -8.027798E+02  1.635565E+04
       402   8  4.451697E+05  6.695054E+04  5.995880E+04 -1.815917E+04 -1.468171E+03  1.473917E+04
       402   9  4.064973E+05  5.754925E+04  5.147365E+04 -2.576957E+04 -2.134237E+03  1.261861E+04
       402  10 -1.441654E+05 -7.635346E+04 -6.763148E+04 -2.571935E+04 -2.632603E-10 -6.383613E-11
       402  11 -1.054232E+05 -6.698683E+04 -5.923919E+04 -1.810854E+04 -2.996948E-11  6.146339E-11
       402  12 -6.668361E+04 -5.756897E+04 -5.102613E+04 -2.575620E+04  3.142441E-10 -5.546472E-11
       402  13  1.698742E+05  1.117816E+02  6.552939E+02 -2.576287E+04 -2.523906E-10  2.010719E-11
       402  14  1.698376E+05 -1.575678E+01  3.618460E+02 -1.813384E+04 -4.389202E-11 -6.532070E-12
       402  15  1.698806E+05 -8.095425E+00  2.252672E+02 -2.576287E+04  1.947815E-11 -6.522930E-11
       402  16  4.840062E+05  7.657048E+04  6.893616E+04 -2.580640E+04  1.459531E-10  9.066525E-11
       402  17  4.451696E+05  6.695031E+04  5.995839E+04 -1.815915E+04  2.222690E-10  7.722061E-11
       402  18  4.064973E+05  5.754908E+04  5.147334E+04 -2.576955E+04 -2.063152E-10  4.880056E-12
       402  19 -1.441653E+05 -7.635317E+04 -6.763097E+04 -2.571932E+04 -1.817583E+03 -1.635685E+04
       402  20 -1.054232E+05 -6.698659E+04 -5.923878E+04 -1.810851E+04 -2.120605E+03 -1.473981E+04
       402  21 -6.668356E+04 -5.756880E+04 -5.102582E+04 -2.575617E+04 -2.422944E+03 -1.261848E+04
       402  22  1.698742E+05  1.120689E+02  6.557972E+02 -2.576286E+04 -5.077288E+02 -1.635625E+04
       402  23  1.698377E+05 -1.552344E+01  3.622545E+02 -1.813384E+04 -3.266094E+02 -1.473949E+04
       402  24  1.698806E+05 -7.924423E+00  2.255665E+02 -2.576287E+04 -1.447814E+02 -1.261854E+04
       402  25  4.840063E+05  7.657077E+04  6.893667E+04 -2.580642E+04  8.027798E+02 -1.635565E+04
       402  26  4.451697E+05  6.695054E+04  5.995880E+04 -1.815917E+04  1.468171E+03 -1.473917E+04
       402  27  4.064973E+05  5.754925E+04  5.147365E+04 -2.576957E+04  2.134237E+03 -1.261861E+04
       403   1 -3.594827E+04 -5.003677E+04 -4.422902E+04 -2.573300E+04  2.242191E+03  1.126060E+04
       403   2  2.732598E+03 -4.064931E+04 -3.600067E+04 -1.810269E+04  2.195712E+03  9.026640E+03
       403   3  4.142389E+04 -3.125029E+04 -2.773923E+04 -2.573036E+04  2.148764E+03  6.770544E+03
       403   4  1.698688E+05  6.466424E+00  1.836480E+02 -2.576279E+04  1.083352E+02  1.126080E+04
       403   5  1.698644E+05  1.502751E+00  1.365069E+02 -1.813393E+04  4.052521E+01  9.027044E+03
       403   6  1.698727E+05  1.189006E+01  1.372938E+02 -2.576279E+04 -2.774957E+01  6.771160E+03
       403   7  3.757257E+05  5.004692E+04  4.459383E+04 -2.579260E+04 -2.026219E+03  1.126100E+04
       403   8  3.370224E+05  4.065048E+04  3.627204E+04 -1.816517E+04 -2.115234E+03  9.027448E+03
       403   9  2.983369E+05  3.127298E+04  2.801286E+04 -2.579523E+04 -2.204708E+03  6.771776E+03
       403  10 -3.594830E+04 -5.003691E+04 -4.422926E+04 -2.573302E+04 -1.634719E-11 -7.368888E-11
       403  11  2.732571E+03 -4.064940E+04 -3.600083E+04 -1.810270E+04 -6.630821E-12  3.054124E-11
       403  12  4.142388E+04 -3.125034E+04 -2.773933E+04 -2.573037E+04  2.869483E-10 -1.745818E-10
       403  13  1.698688E+05  6.330243E+00  1.834096E+02 -2.576280E+04  8.580618E-11 -1.210321E-10
       403  14  1.698643E+05  1.415240E+00  1.363538E+02 -1.813393E+04 -1.230548E-10  1.527393E-10
       403  15  1.698726E+05  1.184082E+01  1.372076E+02 -2.576279E+04  5.272455E-11  1.879405E-10
       403  16  3.757256E+05  5.004678E+04  4.459358E+04 -2.579258E+04  1.856874E-10  3.960749E-11
       403  17  3.370223E+05  4.065039E+04  3.627188E+04 -1.816516E+04  3.345604E-10 -2.609123E-11
       403  18  2.983369E+05  3.127293E+04  2.801276E+04 -2.579522E+04 -2.606704E-10 -1.335102E-10
       403  19 -3.594827E+04 -5.003677E+04 -4.422902E+04 -2.573300E+04 -2.242191E+03 -1.126060E+04
       403  20  2.732598E+03 -4.064931E+04 -3.600067E+04 -1.810269E+04 -2.195712E+03 -9.026640E+03
       403  21  4.142389E+04 -3.125029E+04 -2.773923E+04 -2.573036E+04 -2.148764E+03 -6.770544E+03
       403  22  1.698688E+05  6.466424E+00  1.836480E+02 -2.576279E+04 -1.083352E+02 -1.126080E+04
       403  23  1.698644E+05  1.502751E+00  1.365069E+02 -1.813393E+04 -4.052521E+01 -9.027044E+03
       403  24  1.698727E+05  1.189006E+01  1.372938E+02 -2.576279E+04  2.774957E+01 -6.771160E+03
       403  25  3.757257E+05  5.004692E+04  4.459383E+04 -2.579260E+04  2.026219E+03 -1.126100E+04
       403  26  3.370224E+05  4.065048E+04  3.627204E+04 -1.816517E+04  2.115234E+03 -9.027448E+03
       403  27  2.983369E+05  3.127298E+04  2.801286E+04 -2.579523E+04  2.204708E+03 -6.771776E+03
       404   1  7.212945E+04 -2.373754E+04 -2.087234E+04 -2.573331E+04  2.115121E+03  5.452334E+03
       404   2  1.107874E+05 -1.436102E+04 -1.255319E+04 -1.811254E+04  2.006672E+03  3.192264E+03
       404   3  1.494519E+05 -4.973580E+03 -4.163653E+03 -2.573925E+04  1.898055E+03  9.314731E+02
       404   4  1.698727E+05  1.343022E+01  1.520715E+02 -2.576050E+04 -5.447353E+01  5.453032E+03
       404   5  1.698704E+05  8.345174E+00  2.196532E+02 -1.813680E+04 -1.636683E+02  3.193031E+03
       404   6  1.698740E+05  1.453949E+01  3.583408E+02 -2.576049E+04 -2.730249E+02  9.323150E+02
       404   7  2.676249E+05  2.376377E+04  2.117594E+04 -2.578768E+04 -2.224404E+03  5.453730E+03
       404   8  2.289567E+05  1.437748E+04  1.299231E+04 -1.816106E+04 -2.334213E+03  3.193799E+03
       404   9  1.902966E+05  5.002634E+03  4.880326E+03 -2.578173E+04 -2.444176E+03  9.331571E+02
       404  10  7.212944E+04 -2.373757E+04 -2.087240E+04 -2.573332E+04 -7.785930E-11 -4.313187E-11
       404  11  1.107874E+05 -1.436103E+04 -1.255322E+04 -1.811255E+04 -1.714565E-10  1.189804E-10
       404  12  1.494519E+05 -4.973582E+03 -4.163661E+03 -2.573926E+04  3.108015E-10  6.216946E-11
       404  13  1.698727E+05  1.339829E+01  1.520156E+02 -2.576050E+04  1.890306E-10 -3.147511E-10
       404  14  1.698704E+05  8.334218E+00  2.196340E+02 -1.813680E+04 -5.779418E-11  6.459944E-11
       404  15  1.698740E+05  1.453853E+01  3.583390E+02 -2.576049E+04  8.498945E-11 -1.460180E-10
       404  16  2.676248E+05  2.376374E+04  2.117587E+04 -2.578767E+04  6.996978E-11  1.933855E-12
       404  17  2.289567E+05  1.437747E+04  1.299228E+04 -1.816105E+04  1.919122E-10  8.064537E-11
       404  18  1.902965E+05  5.002631E+03  4.880313E+03 -2.578173E+04 -1.772574E-10 -2.477453E-10
       404  19  7.212945E+04 -2.373754E+04 -2.087234E+04 -2.573331E+04 -2.115121E+03 -5.452334E+03
       404  20  1.107874E+05 -1.436102E+04 -1.255319E+04 -1.811254E+04 -2.006672E+03 -3.192264E+03
       404  21  1.494519E+05 -4.973580E+03 -4.163653E+03 -2.573925E+04 -1.898055E+03 -9.314731E+02
       404  22  1.698727E+05  1.343022E+01  1.520715E+02 -2.576050E+04  5.447353E+01 -5.453032E+03
       404  23  1.698704E+05  8.345174E+00  2.196532E+02 -1.813680E+04  1.636683E+02 -3.193031E+03
       404  24  1.698740E+05  1.453949E+01  3.583408E+02 -2.576049E+04  2.730249E+02 -9.323150E+02
       404  25  2.676249E+05  2.376377E+04  2.117594E+04 -2.578768E+04  2.224404E+03 -5.453730E+03
       404  26  2.289567E+05  1.437748E+04  1.299231E+04 -1.816106E+04  2.334213E+03 -3.193799E+03
       404  27  1.902966E+05  5.002634E+03  4.880326E+03 -2.578173E+04  2.444176E+03 -9.331571E+02
       405   1  1.801585E+05  2.535194E+03  2.794146E+03 -2.574525E+04  1.822720E+03 -3.845045E+02
       405   2  2.187970E+05  1.190066E+04  1.137793E+04 -1.811238E+04  1.426246E+03 -2.645019E+03
       405   3  2.574838E+05  2.129188E+04  2.022329E+04 -2.572644E+04  1.029878E+03 -4.904781E+03
       405   4  1.698830E+05  1.482037E+01  4.656518E+02 -2.576041E+04 -3.483795E+02 -3.836587E+02
       405   5  1.698594E+05 -4.663237E-01  7.990323E+02 -1.813691E+04 -7.441782E+02 -2.644235E+03
       405   6  1.698819E+05  9.832826E+00  1.393431E+03 -2.576040E+04 -1.139848E+03 -4.904055E+03
       405   7  1.596077E+05 -2.505558E+03 -1.862831E+03 -2.577556E+04 -2.519443E+03 -3.828128E+02
       405   8  1.209240E+05 -1.190175E+04 -9.779992E+03 -1.816143E+04 -2.914434E+03 -2.643452E+03
       405   9  8.228722E+04 -2.127272E+04 -1.743686E+04 -2.579436E+04 -3.309272E+03 -4.903328E+03
       405  10  1.801585E+05  2.535193E+03  2.794139E+03 -2.574525E+04 -1.658911E-10  2.431324E-10
       405  11  2.187970E+05  1.190065E+04  1.137792E+04 -1.811238E+04 -3.452179E-11  5.135088E-10
       405  12  2.574838E+05  2.129186E+04  2.022324E+04 -2.572643E+04  6.481721E-10 -3.107909E-10
       405  13  1.698830E+05  1.482018E+01  4.656513E+02 -2.576041E+04  4.869226E-11 -1.396307E-11
       405  14  1.698594E+05 -4.739812E-01  7.990182E+02 -1.813691E+04  2.209368E-10 -2.062717E-10
       405  15  1.698819E+05  9.806650E+00  1.393383E+03 -2.576041E+04 -1.009569E-10  3.377202E-11
       405  16  1.596077E+05 -2.505560E+03 -1.862843E+03 -2.577556E+04  4.676795E-11  1.053123E-11
       405  17  1.209240E+05 -1.190176E+04 -9.780021E+03 -1.816144E+04  2.915414E-10 -1.101015E-10
       405  18  8.228720E+04 -2.127275E+04 -1.743693E+04 -2.579438E+04 -4.090287E-10  8.529039E-11
       405  19  1.801585E+05  2.535194E+03  2.794146E+03 -2.574525E+04 -1.822720E+03  3.845045E+02
       405  20  2.187970E+05  1.190066E+04  1.137793E+04 -1.811238E+04 -1.426246E+03  2.645019E+03
       405  21  2.574838E+05  2.129188E+04  2.022329E+04 -2.572644E+04 -1.029878E+03  4.904781E+03
       405  22  1.698830E+05  1.482037E+01  4.656518E+02 -2.576041E+04  3.483795E+02  3.836587E+02
       405  23  1.698594E+05 -4.663237E-01  7.990323E+02 -1.813691E+04  7.441782E+02  2.644235E+03
       405  24  1.698819E+05  9.832826E+00  1.393431E+03 -2.576040E+04  1.139848E+03  4.904055E+03
       405  25  1.596077E+05 -2.505558E+03 -1.862831E+03 -2.577556E+04  2.519443E+03  3.828128E+02
       405  26  1.209240E+05 -1.190175E+04 -9.779992E+03 -1.816143E+04  2.914434E+03  2.643452E+03
       405  27  8.228722E+04 -2.127272E+04 -1.743686E+04 -2.579436E+04  3.309272E+03  4.903328E+03
       406   1  2.882422E+05  2.878174E+04  2.751592E+04 -2.568885E+04  7.447333E+02 -6.222628E+03
       406   2  3.267943E+05  3.813794E+04  3.712900E+04 -1.805698E+04 -8.572963E+02 -8.477867E+03
       406   3  3.656227E+05  4.776556E+04  4.785179E+04 -2.568118E+04 -2.458990E+03 -1.071151E+04
       406   4  1.699305E+05 -1.057247E+01  1.834762E+03 -2.576249E+04 -1.431776E+03 -6.221976E+03
       406   5  1.697930E+05 -4.139051E+01  3.188752E+03 -1.813430E+04 -3.012765E+03 -8.477415E+03
       406   6  1.699267E+05  1.957366E+02  5.638130E+03 -2.576241E+04 -4.593321E+03 -1.071125E+04
       406   7  5.163192E+04 -2.880381E+04 -2.384721E+04 -2.583612E+04 -3.607877E+03 -6.221324E+03
       406   8  1.281472E+04 -3.822234E+04 -3.075294E+04 -1.821160E+04 -5.167697E+03 -8.476961E+03
       406   9 -2.573333E+04 -4.737660E+04 -3.657777E+04 -2.584361E+04 -6.726989E+03 -1.071099E+04
       406  10  2.882422E+05  2.878170E+04  2.751584E+04 -2.568884E+04  1.625511E-10 -3.496440E-10
       406  11  3.267943E+05  3.813786E+04  3.712886E+04 -1.805698E+04  2.444582E-10 -1.957266E-11
       406  12  3.656226E+05  4.776543E+04  4.785156E+04 -2.568120E+04  6.356088E-11  1.044244E-11
       406  13  1.699305E+05 -1.061459E+01  1.834685E+03 -2.576250E+04 -8.876246E-12  3.862889E-11
       406  14  1.697929E+05 -4.147012E+01  3.188600E+03 -1.813432E+04  2.962981E-11 -1.991006E-10
       406  15  1.699266E+05  1.956077E+02  5.637875E+03 -2.576245E+04  1.193549E-10 -1.310406E-10
       406  16  5.163189E+04 -2.880385E+04 -2.384731E+04 -2.583614E+04 -3.039034E-10  9.059823E-11
       406  17  1.281467E+04 -3.822242E+04 -3.075312E+04 -1.821163E+04  7.554932E-11  2.019897E-10
       406  18 -2.573341E+04 -4.737674E+04 -3.657807E+04 -2.584367E+04  6.058659E-11 -1.237834E-11
       406  19  2.882422E+05  2.878174E+04  2.751592E+04 -2.568885E+04 -7.447333E+02  6.222628E+03
       406  20  3.267943E+05  3.813794E+04  3.712900E+04 -1.805698E+04  8.572963E+02  8.477867E+03
       406  21  3.656227E+05  4.776556E+04  4.785179E+04 -2.568118E+04  2.458990E+03  1.071151E+04
       406  22  1.699305E+05 -1.057247E+01  1.834762E+03 -2.576249E+04  1.431776E+03  6.221976E+03
       406  23  1.697930E+05 -4.139051E+01  3.188752E+03 -1.813430E+04  3.012765E+03  8.477415E+03
       406  24  1.699267E+05  1.957366E+02  5.638130E+03 -2.576241E+04  4.593321E+03  1.071125E+04
       406  25  5.163192E+04 -2.880381E+04 -2.384721E+04 -2.583612E+04  3.607877E+03  6.221324E+03
       406  26  1.281472E+04 -3.822234E+04 -3.075294E+04 -1.821160E+04  5.167697E+03  8.476961E+03
       406  27 -2.573333E+04 -4.737660E+04 -3.657777E+04 -2.584361E+04  6.726989E+03  1.071099E+04
       407   1  3.967651E+05  5.481228E+04  5.642339E+04 -2.487140E+04 -3.465121E+03 -1.206788E+04
       407   2  4.344578E+05  6.438697E+04  7.018961E+04 -1.851239E+04 -1.035484E+04 -1.419096E+04
       407   3  4.742583E+05  7.872732E+04  8.963455E+04 -2.740927E+04 -1.724424E+04 -1.582240E+04
       407   4  1.703137E+05 -2.730097E+02  7.372272E+03 -2.576255E+04 -5.740181E+03 -1.206775E+04
       407   5  1.692974E+05 -1.060279E+02  1.279325E+04 -1.813416E+04 -1.215521E+04 -1.419122E+04
       407   6  1.703068E+05  4.745792E+03  2.356544E+04 -2.576200E+04 -1.856950E+04 -1.582297E+04
       407   7 -5.608950E+04 -5.536168E+04 -4.168187E+04 -2.665336E+04 -8.014423E+03 -1.206760E+04
       407   8 -9.579707E+04 -6.460367E+04 -4.460726E+04 -1.775609E+04 -1.395482E+04 -1.419148E+04
       407   9 -1.335581E+05 -6.924185E+04 -4.250919E+04 -2.411555E+04 -1.989412E+04 -1.582355E+04
       407  10  3.967650E+05  5.481212E+04  5.642309E+04 -2.487143E+04  5.397963E-11  1.240399E-10
       407  11  4.344576E+05  6.438673E+04  7.018903E+04 -1.851251E+04  3.511657E-10 -3.012296E-11
       407  12  4.742579E+05  7.872697E+04  8.963352E+04 -2.740949E+04  2.317920E-10 -2.870388E-11
       407  13  1.703137E+05 -2.731749E+02  7.371937E+03 -2.576260E+04 -1.854576E-10  8.307856E-11
       407  14  1.692972E+05 -1.062838E+02  1.279260E+04 -1.813430E+04 -1.564083E-10  1.596816E-10
       407  15  1.703064E+05  4.745430E+03  2.356432E+04 -2.576224E+04  1.909340E-10 -8.442350E-11
       407  16 -5.608961E+04 -5.536186E+04 -4.168226E+04 -2.665344E+04 -4.362647E-11  6.902717E-11
       407  17 -9.579733E+04 -6.460394E+04 -4.460801E+04 -1.775625E+04  3.008828E-11  3.727852E-11
       407  18 -1.335586E+05 -6.924223E+04 -4.251040E+04 -2.411581E+04 -2.260589E-10 -1.066320E-10
       407  19  3.967651E+05  5.481228E+04  5.642339E+04 -2.487140E+04  3.465121E+03  1.206788E+04
       407  20  4.344578E+05  6.438697E+04  7.018961E+04 -1.851239E+04  1.035484E+04  1.419096E+04
       407  21  4.742583E+05  7.872732E+04  8.963455E+04 -2.740927E+04  1.724424E+04  1.582240E+04
       407  22  1.703137E+05 -2.730097E+02  7.372272E+03 -2.576255E+04  5.740181E+03  1.206775E+04
       407  23  1.692974E+05 -1.060279E+02  1.279325E+04 -1.813416E+04  1.215521E+04  1.419122E+04
       407  24  1.703068E+05  4.745792E+03  2.356544E+04 -2.576200E+04  1.856950E+04  1.582297E+04
       407  25 -5.608950E+04 -5.536168E+04 -4.168187E+04 -2.665336E+04  8.014423E+03  1.206760E+04
       407  26 -9.579707E+04 -6.460367E+04 -4.460726E+04 -1.775609E+04  1.395482E+04  1.419148E+04
       407  27 -1.335581E+05 -6.924185E+04 -4.250919E+04 -2.411555E+04  1.989412E+04  1.582355E+04
       408   1  5.104621E+05  7.712058E+04  1.022118E+05 -1.248358E+04 -1.834015E+04 -1.800459E+04
       408   2  5.359086E+05  9.233270E+04  1.334890E+05 -3.449108E+04 -5.575400E+04 -1.717256E+04
       408   3  5.883241E+05  1.957663E+05  2.111776E+05 -7.131207E+04 -9.317463E+04 -5.469703E+03
       408   4  1.754465E+05 -4.351012E+03  2.974476E+04 -2.565912E+04 -2.275165E+04 -1.800504E+04
       408   5  1.628550E+05  1.258939E+03  5.099488E+04 -1.826219E+04 -4.971107E+04 -1.717386E+04
       408   6  1.754310E+05  9.330171E+04  1.114147E+05 -2.567614E+04 -7.667410E+04 -5.472461E+03
       408   7 -1.594634E+05 -8.582935E+04 -4.272872E+04 -3.882746E+04 -2.716080E+04 -1.800530E+04
       408   8 -2.100680E+05 -8.982319E+04 -3.150755E+04 -2.043162E+03 -4.367173E+04 -1.717484E+04
       408   9 -2.373014E+05 -9.167402E+03  1.164168E+04  1.992936E+04 -6.018449E+04 -5.472797E+03
       408  10  5.104616E+05  7.712014E+04  1.022105E+05 -1.248384E+04 -1.834759E-10 -8.653172E-12
       408  11  5.359052E+05  9.233155E+04  1.334826E+05 -3.449185E+04  1.839134E-10  5.861149E-12
       408  12  5.883148E+05  1.957640E+05  2.111612E+05 -7.131248E+04 -1.540425E-11 -3.220735E-11
       408  13  1.754458E+05 -4.351499E+03  2.974318E+04 -2.565945E+04 -2.569498E-10 -3.011552E-11
       408  14  1.628523E+05  1.257959E+03  5.098968E+04 -1.826288E+04  2.496510E-10  2.563526E-10
       408  15  1.754247E+05  9.330010E+04  1.114036E+05 -2.567648E+04 -2.430875E-11 -1.524010E-11
       408  16 -1.594643E+05 -8.582989E+04 -4.273072E+04 -3.882785E+04  4.724020E-11 -1.126462E-10
       408  17 -2.100702E+05 -8.982402E+04 -3.151169E+04 -2.043766E+03  1.593991E-11  3.611690E-11
       408  18 -2.373053E+05 -9.168407E+03  1.163481E+04  1.992909E+04  5.140772E-11 -9.446079E-11
       408  19  5.104621E+05  7.712058E+04  1.022118E+05 -1.248358E+04  1.834015E+04  1.800459E+04
       408  20  5.359086E+05  9.233270E+04  1.334890E+05 -3.449108E+04  5.575400E+04  1.717256E+04
       408  21  5.883241E+05  1.957663E+05  2.111776E+05 -7.131207E+04  9.317463E+04  5.469703E+03
       408  22  1.754465E+05 -4.351012E+03  2.974476E+04 -2.565912E+04  2.275165E+04  1.800504E+04
       408  23  1.628550E+05  1.258939E+03  5.099488E+04 -1.826219E+04  4.971107E+04  1.717386E+04
       408  24  1.754310E+05  9.330171E+04  1.114147E+05 -2.567614E+04  7.667410E+04  5.472461E+03
       408  25 -1.594634E+05 -8.582935E+04 -4.272872E+04 -3.882746E+04  2.716080E+04  1.800530E+04
       408  26 -2.100680E+05 -8.982319E+04 -3.150755E+04 -2.043162E+03  4.367173E+04  1.717484E+04
       408  27 -2.373014E+05 -9.167402E+03  1.164168E+04  1.992936E+04  6.018449E+04  5.472797E+03
       409   1 -1.421723E+06 -2.208281E+05 -2.369309E+05 -8.527146E+04 -1.009690E+05  6.317067E+03
       409   2 -1.352339E+06 -1.066768E+05 -1.499199E+05 -4.331810E+04 -5.975471E+04  1.974277E+04
       409   3 -1.311929E+06 -8.712661E+04 -1.134231E+05 -2.234233E+04 -1.853240E+04  2.022266E+04
       409   4 -9.354108E+05 -9.984802E+04 -1.191415E+05 -3.639138E+04 -8.194222E+04  6.313330E+03
       409   5 -9.219789E+05 -1.411406E+03 -5.453004E+04 -2.590855E+04 -5.311633E+04  1.974084E+04
       409   6 -9.353504E+05  4.610948E+03 -3.179524E+04 -3.640623E+04 -2.428689E+04  2.022237E+04
       409   7 -4.488763E+05  2.112392E+04 -1.366433E+03  1.252718E+04 -6.290055E+04  6.312600E+03
       409   8 -4.914451E+05  1.038426E+05  4.084861E+04 -8.486777E+03 -4.647338E+04  1.973927E+04
       409   9 -5.586377E+05  9.633987E+04  4.982439E+04 -5.047879E+04 -3.004482E+04  2.022234E+04
       409  10 -1.421734E+06 -2.208309E+05 -2.369502E+05 -8.527094E+04 -4.828422E-11 -4.313974E-12
       409  11 -1.352343E+06 -1.066781E+05 -1.499273E+05 -4.331715E+04  3.862026E-10 -1.020659E-10
       409  12 -1.311930E+06 -8.712714E+04 -1.134245E+05 -2.234203E+04 -3.689345E-10  8.347193E-11
       409  13 -9.354181E+05 -9.984987E+04 -1.191542E+05 -3.639096E+04 -1.992440E-11 -2.560852E-11
       409  14 -9.219820E+05 -1.412583E+03 -5.453609E+04 -2.590771E+04  4.717483E-10 -2.495362E-10
       409  15 -9.353512E+05  4.610350E+03 -3.179712E+04 -3.640584E+04  1.335043E-10  1.252601E-10
       409  16 -4.488806E+05  2.112281E+04 -1.373948E+03  1.252750E+04  9.900806E-12 -1.169707E-10
       409  17 -4.914475E+05  1.038416E+05  4.084382E+04 -8.486038E+03  2.907586E-10 -1.644296E-10
       409  18 -5.586388E+05  9.633919E+04  4.982193E+04 -5.047830E+04  5.823824E-10  9.269022E-11
       409  19 -1.421723E+06 -2.208281E+05 -2.369309E+05 -8.527146E+04  1.009690E+05 -6.317067E+03
       409  20 -1.352339E+06 -1.066768E+05 -1.499199E+05 -4.331810E+04  5.975471E+04 -1.974277E+04
       409  21 -1.311929E+06 -8.712661E+04 -1.134231E+05 -2.234233E+04  1.853240E+04 -2.022266E+04
       409  22 -9.354108E+05 -9.984802E+04 -1.191415E+05 -3.639138E+04  8.194222E+04 -6.313330E+03
       409  23 -9.219789E+05 -1.411406E+03 -5.453004E+04 -2.590855E+04  5.311633E+04 -1.974084E+04
       409  24 -9.353504E+05  4.610948E+03 -3.179524E+04 -3.640623E+04  2.428689E+04 -2.022237E+04
       409  25 -4.488763E+05  2.112392E+04 -1.366433E+03  1.252718E+04  6.290055E+04 -6.312600E+03
       409  26 -4.914451E+05  1.038426E+05  4.084861E+04 -8.486777E+03  4.647338E+04 -1.973927E+04
       409  27 -5.586377E+05  9.633987E+04  4.982439E+04 -5.047879E+04  3.004482E+04 -2.022234E+04
       410   1 -1.262409E+06 -8.618693E+04 -9.760824E+04 -3.831623E+04 -1.772736E+04  1.732228E+04
       410   2 -1.206068E+06 -6.745117E+04 -7.380602E+04 -2.604683E+04 -1.030295E+04  1.484547E+04
       410   3 -1.151953E+06 -5.381401E+04 -5.611548E+04 -3.554607E+04 -2.879016E+03  1.177419E+04
       410   4 -9.298675E+05 -5.113427E+03 -2.519363E+04 -3.657804E+04 -1.982263E+04  1.732175E+04
       410   5 -9.287970E+05  9.497521E+01 -1.368095E+04 -2.569349E+04 -1.296473E+04  1.484545E+04
       410   6 -9.298529E+05  3.053045E+02 -7.883149E+03 -3.657708E+04 -6.107933E+03  1.177477E+04
       410   7 -5.972223E+05  7.595273E+04  4.721437E+04 -3.483890E+04 -2.191901E+04  1.732121E+04
       410   8 -6.514533E+05  6.763603E+04  4.643956E+04 -2.533998E+04 -1.562767E+04  1.484543E+04
       410   9 -7.077069E+05  5.442135E+04  4.034628E+04 -3.760845E+04 -9.337991E+03  1.177537E+04
       410  10 -1.262409E+06 -8.618733E+04 -9.760940E+04 -3.831598E+04 -1.315017E-10  1.917658E-10
       410  11 -1.206069E+06 -6.745143E+04 -7.380663E+04 -2.604671E+04 -4.480201E-10  3.949059E-11
       410  12 -1.151953E+06 -5.381416E+04 -5.611576E+04 -3.554604E+04  3.314309E-10 -9.648772E-11
       410  13 -9.298680E+05 -5.113855E+03 -2.519493E+04 -3.657776E+04  6.136501E-11  2.010808E-10
       410  14 -9.287973E+05  9.469346E+01 -1.368168E+04 -2.569333E+04 -5.940050E-11  1.203683E-10
       410  15 -9.298530E+05  3.051457E+02 -7.883479E+03 -3.657702E+04  3.226132E-10  6.183672E-11
       410  16 -5.972229E+05  7.595228E+04  4.721290E+04 -3.483859E+04  9.773641E-12  2.357102E-10
       410  17 -6.514536E+05  6.763573E+04  4.643868E+04 -2.533979E+04  2.541668E-10  2.504197E-10
       410  18 -7.077070E+05  5.442118E+04  4.034585E+04 -3.760836E+04 -1.524527E-10 -1.205585E-10
       410  19 -1.262409E+06 -8.618693E+04 -9.760824E+04 -3.831623E+04  1.772736E+04 -1.732228E+04
       410  20 -1.206068E+06 -6.745117E+04 -7.380602E+04 -2.604683E+04  1.030295E+04 -1.484547E+04
       410  21 -1.151953E+06 -5.381401E+04 -5.611548E+04 -3.554607E+04  2.879016E+03 -1.177419E+04
       410  22 -9.298675E+05 -5.113427E+03 -2.519363E+04 -3.657804E+04  1.982263E+04 -1.732175E+04
       410  23 -9.287970E+05  9.497521E+01 -1.368095E+04 -2.569349E+04  1.296473E+04 -1.484545E+04
       410  24 -9.298529E+05  3.053045E+02 -7.883149E+03 -3.657708E+04  6.107933E+03 -1.177477E+04
       410  25 -5.972223E+05  7.595273E+04  4.721437E+04 -3.483890E+04  2.191901E+04 -1.732121E+04
       410  26 -6.514533E+05  6.763603E+04  4.643956E+04 -2.533998E+04  1.562767E+04 -1.484543E+04
       410  27 -7.077069E+05  5.442135E+04  4.034628E+04 -3.760845E+04  9.337991E+03 -1.177537E+04
       411   1 -1.107520E+06 -4.353408E+04 -4.445694E+04 -3.644804E+04 -1.815862E+03  9.839628E+03
       411   2 -1.051882E+06 -2.979063E+04 -2.996942E+04 -2.551219E+04 -8.991232E+01  6.625863E+03
       411   3 -9.965439E+05 -1.631819E+04 -1.667759E+04 -3.647874E+04  1.635725E+03  3.382302E+03
       411   4 -9.294430E+05 -1.933259E+02 -6.035634E+03 -3.660711E+04 -4.882995E+03  9.840381E+03
       411   5 -9.292911E+05  6.320584E+01 -3.428518E+03 -2.565599E+04 -3.185300E+03  6.626832E+03
       411   6 -9.294379E+05  5.372238E+01 -1.997222E+03 -3.660699E+04 -1.488068E+03  3.383501E+03
       411   7 -7.513361E+05  4.314535E+04  3.238384E+04 -3.676622E+04 -7.950998E+03  9.841136E+03
       411   8 -8.066861E+05  2.991606E+04  2.311153E+04 -2.579981E+04 -6.281291E+03  6.627803E+03
       411   9 -8.623277E+05  1.642534E+04  1.268291E+04 -3.673526E+04 -4.612194E+03  3.384700E+03
       411  10 -1.107520E+06 -4.353419E+04 -4.445713E+04 -3.644802E+04 -7.811429E-10 -4.382358E-10
       411  11 -1.051882E+06 -2.979068E+04 -2.996951E+04 -2.551219E+04 -1.559591E-10 -1.426973E-10
       411  12 -9.965439E+05 -1.631820E+04 -1.667761E+04 -3.647875E+04  7.568670E-10  1.064699E-10
       411  13 -9.294431E+05 -1.934362E+02 -6.035860E+03 -3.660707E+04  1.845328E-10 -7.040521E-11
       411  14 -9.292911E+05  6.315598E+01 -3.428619E+03 -2.565597E+04 -2.819302E-10 -9.978985E-11
       411  15 -9.294379E+05  5.370950E+01 -1.997248E+03 -3.660699E+04 -9.169843E-11 -2.371469E-10
       411  16 -7.513362E+05  4.314522E+04  3.238354E+04 -3.676616E+04  3.748496E-10  5.140374E-11
       411  17 -8.066861E+05  2.991600E+04  2.311137E+04 -2.579977E+04  2.876894E-10  2.394269E-10
       411  18 -8.623277E+05  1.642532E+04  1.268285E+04 -3.673525E+04 -3.164239E-10  6.671579E-11
       411  19 -1.107520E+06 -4.353408E+04 -4.445694E+04 -3.644804E+04  1.815862E+03 -9.839628E+03
       411  20 -1.051882E+06 -2.979063E+04 -2.996942E+04 -2.551219E+04  8.991232E+01 -6.625863E+03
       411  21 -9.965439E+05 -1.631819E+04 -1.667759E+04 -3.647874E+04 -1.635725E+03 -3.382302E+03
       411  22 -9.294430E+05 -1.933259E+02 -6.035634E+03 -3.660711E+04  4.882995E+03 -9.840381E+03
       411  23 -9.292911E+05  6.320584E+01 -3.428518E+03 -2.565599E+04  3.185300E+03 -6.626832E+03
       411  24 -9.294379E+05  5.372238E+01 -1.997222E+03 -3.660699E+04  1.488068E+03 -3.383501E+03
       411  25 -7.513361E+05  4.314535E+04  3.238384E+04 -3.676622E+04  7.950998E+03 -9.841136E+03
       411  26 -8.066861E+05  2.991606E+04  2.311153E+04 -2.579981E+04  6.281291E+03 -6.627803E+03
       411  27 -8.623277E+05  1.642534E+04  1.268291E+04 -3.673526E+04  4.612194E+03 -3.384700E+03
       412   1 -9.523512E+05 -5.528216E+03 -6.356952E+03 -3.654870E+04  1.947505E+03  1.486909E+03
       412   2 -8.967602E+05  7.968548E+03  6.107858E+03 -2.562291E+04  2.413859E+03 -1.764354E+03
       412   3 -8.412457E+05  2.146025E+04  1.826285E+04 -3.662303E+04  2.880383E+03 -5.015868E+03
       412   4 -9.293882E+05  3.272090E+01 -1.539907E+03 -3.661232E+04 -1.169899E+03  1.488154E+03
       412   5 -9.293490E+05  3.348221E+01 -9.455279E+02 -2.564933E+04 -7.038946E+02 -1.763171E+03
       412   6 -9.293891E+05  2.943674E+01 -6.606007E+02 -3.661231E+04 -2.377605E+02 -5.014736E+03
       412   7 -9.064246E+05  5.593629E+03  3.277145E+03 -3.667595E+04 -4.287417E+03  1.489400E+03
       412   8 -9.619367E+05 -7.901648E+03 -7.998940E+03 -2.567574E+04 -3.821486E+03 -1.761988E+03
       412   9 -1.017525E+06 -2.140188E+04 -1.958447E+04 -3.660159E+04 -3.355467E+03 -5.013605E+03
       412  10 -9.523512E+05 -5.528220E+03 -6.356963E+03 -3.654870E+04 -1.841706E-10  6.031568E-11
       412  11 -8.967602E+05  7.968543E+03  6.107841E+03 -2.562290E+04  5.270512E-11  4.487024E-10
       412  12 -8.412457E+05  2.146022E+04  1.826279E+04 -3.662302E+04  1.302546E-10  3.821764E-10
       412  13 -9.293882E+05  3.271815E+01 -1.539914E+03 -3.661232E+04  4.238737E-10  2.715231E-10
       412  14 -9.293490E+05  3.347874E+01 -9.455347E+02 -2.564933E+04 -1.360019E-10 -1.249209E-10
       412  15 -9.293891E+05  2.940973E+01 -6.606480E+02 -3.661231E+04 -1.209612E-10 -4.266385E-11
       412  16 -9.064247E+05  5.593622E+03  3.277106E+03 -3.667594E+04 -3.733226E-10 -7.199425E-10
       412  17 -9.619367E+05 -7.901655E+03 -7.998973E+03 -2.567575E+04  3.235879E-10  1.092311E-11
       412  18 -1.017525E+06 -2.140191E+04 -1.958454E+04 -3.660161E+04 -2.303148E-10 -3.009555E-10
       412  19 -9.523512E+05 -5.528216E+03 -6.356952E+03 -3.654870E+04 -1.947505E+03 -1.486909E+03
       412  20 -8.967602E+05  7.968548E+03  6.107858E+03 -2.562291E+04 -2.413859E+03  1.764354E+03
       412  21 -8.412457E+05  2.146025E+04  1.826285E+04 -3.662303E+04 -2.880383E+03  5.015868E+03
       412  22 -9.293882E+05  3.272090E+01 -1.539907E+03 -3.661232E+04  1.169899E+03 -1.488154E+03
       412  23 -9.293490E+05  3.348221E+01 -9.455279E+02 -2.564933E+04  7.038946E+02  1.763171E+03
       412  24 -9.293891E+05  2.943674E+01 -6.606007E+02 -3.661231E+04  2.377605E+02  5.014736E+03
       412  25 -9.064246E+05  5.593629E+03  3.277145E+03 -3.667595E+04  4.287417E+03 -1.489400E+03
       412  26 -9.619367E+05 -7.901648E+03 -7.998940E+03 -2.567574E+04  3.821486E+03  1.761988E+03
       412  27 -1.017525E+06 -2.140188E+04 -1.958447E+04 -3.660159E+04  3.355467E+03  5.013605E+03
       413   1 -7.971246E+05  3.226169E+04  2.818132E+04 -3.662796E+04  2.991333E+03 -6.907662E+03
       413   2 -7.416937E+05  4.570910E+04  4.000122E+04 -2.571070E+04  3.288086E+03 -1.015303E+04
       413   3 -6.863005E+05  5.915840E+04  5.162701E+04 -3.666288E+04  3.585606E+03 -1.339183E+04
       413   4 -9.293826E+05  2.866041E+01 -5.984347E+02 -3.659984E+04 -1.244367E+02 -6.906651E+03
       413   5 -9.293654E+05  1.656721E+01 -6.152932E+02 -2.566492E+04  1.784464E+02 -1.015236E+04
       413   6 -9.293889E+05  5.678184E+00 -8.302673E+02 -3.659985E+04  4.820703E+02 -1.339147E+04
       413   7 -1.061624E+06 -3.220552E+04 -2.937920E+04 -3.657173E+04 -3.239550E+03 -6.905640E+03
       413   8 -1.117004E+06 -4.567829E+04 -4.123386E+04 -2.561915E+04 -2.930265E+03 -1.015168E+04
       413   9 -1.172422E+06 -5.915094E+04 -5.329099E+04 -3.653683E+04 -2.620266E+03 -1.339112E+04
       413  10 -7.971246E+05  3.226163E+04  2.818121E+04 -3.662794E+04 -1.407357E-10  4.148632E-11
       413  11 -7.416938E+05  4.570899E+04  4.000101E+04 -2.571067E+04 -4.057101E-10 -2.286946E-10
       413  12 -6.863005E+05  5.915820E+04  5.162665E+04 -3.666284E+04 -2.697278E-11 -3.093342E-10
       413  13 -9.293827E+05  2.860921E+01 -5.985244E+02 -3.659984E+04  4.859198E-10  4.490841E-10
       413  14 -9.293654E+05  1.645657E+01 -6.154869E+02 -2.566492E+04  4.622060E-10  3.261806E-10
       413  15 -9.293890E+05  5.485635E+00 -8.306046E+02 -3.659984E+04 -5.123185E-10 -4.568077E-10
       413  16 -1.061624E+06 -3.220558E+04 -2.937931E+04 -3.657174E+04  1.190230E-10  3.077247E-11
       413  17 -1.117004E+06 -4.567840E+04 -4.123407E+04 -2.561918E+04  6.493829E-10  1.921324E-10
       413  18 -1.172422E+06 -5.915113E+04 -5.329134E+04 -3.653686E+04 -2.260816E-10 -2.267309E-10
       413  19 -7.971246E+05  3.226169E+04  2.818132E+04 -3.662796E+04 -2.991333E+03  6.907662E+03
       413  20 -7.416937E+05  4.570910E+04  4.000122E+04 -2.571070E+04 -3.288086E+03  1.015303E+04
       413  21 -6.863005E+05  5.915840E+04  5.162701E+04 -3.666288E+04 -3.585606E+03  1.339183E+04
       413  22 -9.293826E+05  2.866041E+01 -5.984347E+02 -3.659984E+04  1.244367E+02  6.906651E+03
       413  23 -9.293654E+05  1.656721E+01 -6.152932E+02 -2.566492E+04 -1.784464E+02  1.015236E+04
       413  24 -9.293889E+05  5.678184E+00 -8.302673E+02 -3.659985E+04 -4.820703E+02  1.339147E+04
       413  25 -1.061624E+06 -3.220552E+04 -2.937920E+04 -3.657173E+04  3.239550E+03  6.905640E+03
       413  26 -1.117004E+06 -4.567829E+04 -4.123386E+04 -2.561915E+04  2.930265E+03  1.015168E+04
       413  27 -1.172422E+06 -5.915094E+04 -5.329099E+04 -3.653683E+04  2.620266E+03  1.339112E+04
       414   1 -6.423942E+05  6.992025E+04  6.124281E+04 -3.665529E+04  3.757224E+03 -1.527777E+04
       414   2 -5.872792E+05  8.328362E+04  7.234853E+04 -2.576927E+04  4.547063E+03 -1.849414E+04
       414   3 -5.322571E+05  9.652736E+04  8.291757E+04 -3.660816E+04  5.338322E+03 -2.166365E+04
       414   4 -9.294083E+05  1.398846E+01 -1.024973E+03 -3.656780E+04  6.491389E+02 -1.527770E+04
       414   5 -9.293619E+05  3.188786E+00 -1.685118E+03 -2.570499E+04  1.483377E+03 -1.849467E+04
       414   6 -9.294200E+05 -1.350799E+02 -2.913178E+03 -3.656783E+04  2.318968E+03 -2.166476E+04
       414   7 -1.216345E+06 -6.989773E+04 -6.329764E+04 -3.648035E+04 -2.457527E+03 -1.527763E+04
       414   8 -1.271334E+06 -8.328498E+04 -7.572567E+04 -2.564074E+04 -1.578642E+03 -1.849521E+04
       414   9 -1.326435E+06 -9.680793E+04 -8.875323E+04 -3.652752E+04 -6.984801E+02 -2.166587E+04
       414  10 -6.423943E+05  6.992000E+04  6.124235E+04 -3.665525E+04 -5.898858E-11  5.680210E-13
       414  11 -5.872793E+05  8.328325E+04  7.234784E+04 -2.576920E+04 -2.207177E-10 -5.770729E-11
       414  12 -5.322573E+05  9.652685E+04  8.291664E+04 -3.660807E+04  1.625264E-10 -1.116551E-10
       414  13 -9.294083E+05  1.373782E+01 -1.025412E+03 -3.656779E+04 -3.100558E-10 -1.745607E-10
       414  14 -9.293620E+05  2.821051E+00 -1.685765E+03 -2.570497E+04 -5.532828E-10  2.116738E-10
       414  15 -9.294201E+05 -1.355851E+02 -2.914070E+03 -3.656779E+04  8.259556E-11 -9.366139E-11
       414  16 -1.216345E+06 -6.989798E+04 -6.329809E+04 -3.648038E+04  4.376534E-10  8.723420E-11
       414  17 -1.271335E+06 -8.328534E+04 -7.572632E+04 -2.564077E+04 -5.385530E-10  1.102601E-10
       414  18 -1.326435E+06 -9.680844E+04 -8.875412E+04 -3.652753E+04 -4.566193E-10 -6.332975E-11
       414  19 -6.423942E+05  6.992025E+04  6.124281E+04 -3.665529E+04 -3.757224E+03  1.527777E+04
       414  20 -5.872792E+05  8.328362E+04  7.234853E+04 -2.576927E+04 -4.547063E+03  1.849414E+04
       414  21 -5.322571E+05  9.652736E+04  8.291757E+04 -3.660816E+04 -5.338322E+03  2.166365E+04
       414  22 -9.294083E+05  1.398846E+01 -1.024973E+03 -3.656780E+04 -6.491389E+02  1.527770E+04
       414  23 -9.293619E+05  3.188786E+00 -1.685118E+03 -2.570499E+04 -1.483377E+03  1.849467E+04
       414  24 -9.294200E+05 -1.350799E+02 -2.913178E+03 -3.656783E+04 -2.318968E+03  2.166476E+04
       414  25 -1.216345E+06 -6.989773E+04 -6.329764E+04 -3.648035E+04  2.457527E+03  1.527763E+04
       414  26 -1.271334E+06 -8.328498E+04 -7.572567E+04 -2.564074E+04  1.578642E+03  1.849521E+04
       414  27 -1.326435E+06 -9.680793E+04 -8.875323E+04 -3.652752E+04  6.984801E+02  2.166587E+04
       415   1 -4.888581E+05  1.074251E+05  9.173586E+04 -3.694440E+04  6.155798E+03 -2.359695E+04
       415   2 -4.339365E+05  1.205614E+05  1.007315E+05 -2.547882E+04  8.638077E+03 -2.655473E+04
       415   3 -3.798039E+05  1.314432E+05  1.075679E+05 -3.548398E+04  1.112198E+04 -2.866555E+04
       415   4 -9.296122E+05  1.008159E+02 -3.789979E+03 -3.651162E+04  2.909629E+03 -2.359853E+04
       415   5 -9.291548E+05 -1.569256E+01 -6.567466E+03 -2.577535E+04  6.202183E+03 -2.655697E+04
       415   6 -9.296310E+05 -2.528526E+03 -1.206874E+04 -3.651092E+04  9.496143E+03 -2.866813E+04
       415   7 -1.370184E+06 -1.072363E+05 -9.932735E+04 -3.607916E+04 -3.342645E+02 -2.360011E+04
       415   8 -1.424143E+06 -1.206090E+05 -1.138810E+05 -2.607164E+04  3.768205E+03 -2.655920E+04
       415   9 -1.479174E+06 -1.365203E+05 -1.317234E+05 -3.753695E+04  7.871727E+03 -2.867070E+04
       415  10 -4.888583E+05  1.074245E+05  9.173475E+04 -3.694428E+04  2.261667E-10 -2.312892E-10
       415  11 -4.339368E+05  1.205606E+05  1.007300E+05 -2.547864E+04 -3.578098E-10 -3.940752E-10
       415  12 -3.798042E+05  1.314423E+05  1.075661E+05 -3.548373E+04 -1.208738E-09  4.157182E-10
       415  13 -9.296124E+05  1.002159E+02 -3.791041E+03 -3.651157E+04 -1.510163E-11 -3.671629E-10
       415  14 -9.291551E+05 -1.645991E+01 -6.568863E+03 -2.577521E+04 -3.683549E-10 -8.889578E-11
       415  15 -9.296313E+05 -2.529433E+03 -1.207045E+04 -3.651070E+04 -4.552278E-11  4.216155E-10
       415  16 -1.370184E+06 -1.072369E+05 -9.932839E+04 -3.607917E+04 -5.031916E-10 -2.989682E-10
       415  17 -1.424143E+06 -1.206098E+05 -1.138823E+05 -2.607156E+04  1.969926E-11 -2.993267E-10
       415  18 -1.479175E+06 -1.365212E+05 -1.317251E+05 -3.753677E+04  8.154476E-10  8.770553E-10
       415  19 -4.888581E+05  1.074251E+05  9.173586E+04 -3.694440E+04 -6.155798E+03  2.359695E+04
       415  20 -4.339365E+05  1.205614E+05  1.007315E+05 -2.547882E+04 -8.638077E+03  2.655473E+04
       415  21 -3.798039E+05  1.314432E+05  1.075679E+05 -3.548398E+04 -1.112198E+04  2.866555E+04
       415  22 -9.296122E+05  1.008159E+02 -3.789979E+03 -3.651162E+04 -2.909629E+03  2.359853E+04
       415  23 -9.291548E+05 -1.569256E+01 -6.567466E+03 -2.577535E+04 -6.202183E+03  2.655697E+04
       415  24 -9.296310E+05 -2.528526E+03 -1.206874E+04 -3.651092E+04 -9.496143E+03  2.866813E+04
       415  25 -1.370184E+06 -1.072363E+05 -9.932735E+04 -3.607916E+04  3.342645E+02  2.360011E+04
       415  26 -1.424143E+06 -1.206090E+05 -1.138810E+05 -2.607164E+04 -3.768205E+03  2.655920E+04
       415  27 -1.479174E+06 -1.365203E+05 -1.317234E+05 -3.753695E+04 -7.871727E+03  2.867070E+04
       416   1 -3.388924E+05  1.465543E+05  1.132313E+05 -4.275245E+04  1.846292E+04 -3.196432E+04
       416   2 -2.801670E+05  1.570475E+05  1.167438E+05 -1.740216E+04  1.463765E+04 -2.987713E+04
       416   3 -2.310478E+05  1.264215E+05  1.125059E+05 -1.236802E+04  1.079390E+04 -9.401682E+03
       416   4 -9.322499E+05  2.118662E+03 -1.522602E+04 -3.626446E+04  1.163561E+04 -3.196998E+04
       416   5 -9.259284E+05 -7.772349E+02 -2.612559E+04 -2.608621E+04  2.544823E+04 -2.987160E+04
       416   6 -9.322928E+05 -4.788062E+04 -5.704350E+04 -3.622577E+04  3.924201E+04 -9.376158E+03
       416   7 -1.525276E+06 -1.423400E+05 -1.437040E+05 -2.978279E+04  4.814736E+03 -3.197579E+04
       416   8 -1.571300E+06 -1.586297E+05 -1.690203E+05 -3.476119E+04  3.624767E+04 -2.986637E+04
       416   9 -1.633085E+06 -2.222163E+05 -2.266249E+05 -6.005657E+04  6.765806E+04 -9.352809E+03
       416  10 -3.388930E+05  1.465531E+05  1.132287E+05 -4.275197E+04  6.075085E-10  7.656648E-10
       416  11 -2.801675E+05  1.570464E+05  1.167417E+05 -1.740180E+04  2.493172E-10  4.301665E-10
       416  12 -2.310480E+05  1.264214E+05  1.125055E+05 -1.236794E+04 -3.171731E-10  6.054356E-10
       416  13 -9.322503E+05  2.117528E+03 -1.522820E+04 -3.626416E+04  3.655682E-10 -2.445325E-10
       416  14 -9.259294E+05 -7.783668E+02 -2.612848E+04 -2.608560E+04 -4.023363E-10  5.236297E-10
       416  15 -9.322945E+05 -4.788113E+04 -5.704657E+04 -3.622548E+04 -1.837774E-10 -2.826641E-10
       416  16 -1.525277E+06 -1.423411E+05 -1.437060E+05 -2.978266E+04 -3.806192E-10  8.083977E-10
       416  17 -1.571301E+06 -1.586310E+05 -1.690244E+05 -3.476032E+04 -3.867064E-10 -1.027898E-10
       416  18 -1.633090E+06 -2.222176E+05 -2.266337E+05 -6.005606E+04 -4.408679E-10  8.085505E-10
       416  19 -3.388924E+05  1.465543E+05  1.132313E+05 -4.275245E+04 -1.846292E+04  3.196432E+04
       416  20 -2.801670E+05  1.570475E+05  1.167438E+05 -1.740216E+04 -1.463765E+04  2.987713E+04
       416  21 -2.310478E+05  1.264215E+05  1.125059E+05 -1.236802E+04 -1.079390E+04  9.401682E+03
       416  22 -9.322499E+05  2.118662E+03 -1.522602E+04 -3.626446E+04 -1.163561E+04  3.196998E+04
       416  23 -9.259284E+05 -7.772349E+02 -2.612559E+04 -2.608621E+04 -2.544823E+04  2.987160E+04
       416  24 -9.322928E+05 -4.788062E+04 -5.704350E+04 -3.622577E+04 -3.924201E+04  9.376158E+03
       416  25 -1.525276E+06 -1.423400E+05 -1.437040E+05 -2.978279E+04 -4.814736E+03  3.197579E+04
       416  26 -1.571300E+06 -1.586297E+05 -1.690203E+05 -3.476119E+04 -3.624767E+04  2.986637E+04
       416  27 -1.633085E+06 -2.222163E+05 -2.266249E+05 -6.005657E+04 -6.765806E+04  9.352809E+03
       417   1  6.188946E+05  1.780601E+05  2.446470E+05  1.148366E+05  2.435614E+05  7.959528E+03
       417   2  6.439075E+05 -1.230613E+05  6.180142E+04  2.566397E+04  1.648496E+05  2.405046E+04
       417   3  7.538155E+05 -1.262256E+05  4.710448E+03 -8.944881E+04  8.613925E+04  2.452673E+04
       417   4  1.210423E+06  3.244029E+05  3.875060E+05 -4.373476E+04  2.668154E+05  7.918394E+03
       417   5  1.166823E+06  4.433772E+03  1.774285E+05 -3.062789E+04  1.729992E+05  2.404032E+04
       417   6  1.210629E+06 -1.513789E+04  1.034968E+05 -4.345785E+04  7.919569E+04  2.452757E+04
       417   7  1.802325E+06  4.708151E+05  5.303555E+05 -2.024576E+05  2.900913E+05  7.865438E+03
       417   8  1.690000E+06  1.319224E+05  2.930408E+05 -8.696771E+04  1.811555E+05  2.402871E+04
       417   9  1.667642E+06  9.594403E+04  2.022722E+05  2.567346E+03  7.224707E+04  2.452738E+04
       417  10  6.188309E+05  1.780441E+05  2.445355E+05  1.148351E+05  1.256650E-09 -1.151761E-09
       417  11  6.438782E+05 -1.230692E+05  6.174932E+04  2.566078E+04 -2.702990E-10  1.025526E-11
       417  12  7.538074E+05 -1.262283E+05  4.695389E+03 -8.945051E+04 -3.061812E-09 -4.356738E-10
       417  13  1.210346E+06  3.243838E+05  3.873723E+05 -4.373646E+04 -1.818607E-10  5.044474E-10
       417  14  1.166791E+06  4.425136E+03  1.773713E+05 -3.063124E+04  3.995402E-13 -3.399079E-10
       417  15  1.210622E+06 -1.514022E+04  1.034839E+05 -4.345941E+04 -7.004888E-10 -5.159300E-10
       417  16  1.802235E+06  4.707925E+05  5.301977E+05 -2.024595E+05 -5.294790E-10  3.903343E-10
       417  17  1.689965E+06  1.319130E+05  2.929782E+05 -8.697121E+04  7.827102E-10 -1.152367E-10
       417  18  1.667636E+06  9.594199E+04  2.022613E+05  2.565920E+03  3.468209E-09  1.725027E-09
       417  19  6.188946E+05  1.780601E+05  2.446470E+05  1.148366E+05 -2.435614E+05 -7.959528E+03
       417  20  6.439075E+05 -1.230613E+05  6.180142E+04  2.566397E+04 -1.648496E+05 -2.405046E+04
       417  21  7.538155E+05 -1.262256E+05  4.710448E+03 -8.944881E+04 -8.613925E+04 -2.452673E+04
       417  22  1.210423E+06  3.244029E+05  3.875060E+05 -4.373476E+04 -2.668154E+05 -7.918394E+03
       417  23  1.166823E+06  4.433772E+03  1.774285E+05 -3.062789E+04 -1.729992E+05 -2.404032E+04
       417  24  1.210629E+06 -1.513789E+04  1.034968E+05 -4.345785E+04 -7.919569E+04 -2.452757E+04
       417  25  1.802325E+06  4.708151E+05  5.303555E+05 -2.024576E+05 -2.900913E+05 -7.865438E+03
       417  26  1.690000E+06  1.319224E+05  2.930408E+05 -8.696771E+04 -1.811555E+05 -2.402871E+04
       417  27  1.667642E+06  9.594403E+04  2.022722E+05  2.567346E+03 -7.224707E+04 -2.452738E+04
       418   1  7.891480E+05 -8.168875E+04 -5.667957E+03 -3.803173E+04  6.712309E+04  2.101143E+04
       418   2  8.520825E+05 -8.232404E+04 -2.838142E+04 -2.936979E+04  4.546253E+04  1.802810E+04
       418   3  9.219392E+05 -6.683636E+04 -3.295600E+04 -4.684622E+04  2.379923E+04  1.434681E+04
       418   4  1.192744E+06  1.647007E+04  8.200490E+04 -4.357596E+04  6.463040E+04  2.100851E+04
       418   5  1.189246E+06 -3.804796E+02  4.455638E+04 -3.050373E+04  4.228533E+04  1.802594E+04
       418   6  1.192779E+06 -9.955225E+02  2.571183E+04 -4.356847E+04  1.993978E+04  1.434528E+04
       418   7  1.596492E+06  1.146182E+05  1.696681E+05 -4.912386E+04  6.213609E+04  2.100564E+04
       418   8  1.526516E+06  8.155560E+04  1.174875E+05 -3.163831E+04  3.910642E+04  1.802378E+04
       418   9  1.463688E+06  6.484052E+04  8.437537E+04 -4.028928E+04  1.607868E+04  1.434371E+04
       418  10  7.891431E+05 -8.169044E+04 -5.677243E+03 -3.803287E+04  7.169087E-10 -1.533126E-10
       418  11  8.520802E+05 -8.232494E+04 -2.838591E+04 -2.937045E+04  5.006000E-10  1.380322E-10
       418  12  9.219385E+05 -6.683673E+04 -3.295745E+04 -4.684650E+04 -7.058177E-10 -3.313883E-10
       418  13  1.192739E+06  1.646848E+04  8.199624E+04 -4.357706E+04  7.778331E-11  1.098743E-09
       418  14  1.189244E+06 -3.813077E+02  4.455242E+04 -3.050435E+04  3.911818E-10  4.538877E-10
       418  15  1.192779E+06 -9.958502E+02  2.571070E+04 -4.356870E+04 -6.024126E-10 -6.992608E-10
       418  16  1.596488E+06  1.146167E+05  1.696600E+05 -4.912491E+04 -6.262717E-10  1.101794E-09
       418  17  1.526515E+06  8.155484E+04  1.174840E+05 -3.163888E+04 -1.437444E-10  4.422927E-11
       418  18  1.463687E+06  6.484023E+04  8.437450E+04 -4.028947E+04  3.480183E-10 -2.795007E-10
       418  19  7.891480E+05 -8.168875E+04 -5.667957E+03 -3.803173E+04 -6.712309E+04 -2.101143E+04
       418  20  8.520825E+05 -8.232404E+04 -2.838142E+04 -2.936979E+04 -4.546253E+04 -1.802810E+04
       418  21  9.219392E+05 -6.683636E+04 -3.295600E+04 -4.684622E+04 -2.379923E+04 -1.434681E+04
       418  22  1.192744E+06  1.647007E+04  8.200490E+04 -4.357596E+04 -6.463040E+04 -2.100851E+04
       418  23  1.189246E+06 -3.804796E+02  4.455638E+04 -3.050373E+04 -4.228533E+04 -1.802594E+04
       418  24  1.192779E+06 -9.955225E+02  2.571183E+04 -4.356847E+04 -1.993978E+04 -1.434528E+04
       418  25  1.596492E+06  1.146182E+05  1.696681E+05 -4.912386E+04 -6.213609E+04 -2.100564E+04
       418  26  1.526516E+06  8.155560E+04  1.174875E+05 -3.163831E+04 -3.910642E+04 -1.802378E+04
       418  27  1.463688E+06  6.484052E+04  8.437537E+04 -4.028928E+04 -1.607868E+04 -1.434371E+04
       419   1  9.730830E+05 -5.238792E+04 -2.730565E+04 -4.398413E+04  1.958634E+04  1.203995E+04
       419   2  1.038572E+06 -3.720434E+04 -2.168760E+04 -3.094311E+04  1.405184E+04  8.222104E+03
       419   3  1.105031E+06 -2.113869E+04 -1.224389E+04 -4.390145E+04  8.516188E+03  4.376949E+03
       419   4  1.191438E+06  6.310387E+02  1.969492E+04 -4.354003E+04  1.593469E+04  1.203869E+04
       419   5  1.190957E+06 -1.824739E+02  1.122423E+04 -3.054053E+04  1.037195E+04  8.221134E+03
       419   6  1.191448E+06 -1.089816E+02  6.597775E+03 -4.353999E+04  4.808637E+03  4.376292E+03
       419   7  1.409837E+06  5.364688E+04  6.669275E+04 -4.309578E+04  1.228177E+04  1.203742E+04
       419   8  1.343364E+06  3.683787E+04  4.413475E+04 -3.013784E+04  6.691170E+03  8.220160E+03
       419   9  1.277871E+06  2.092024E+04  2.543904E+04 -4.317848E+04  1.100577E+03  4.375631E+03
       419  10  9.730825E+05 -5.238818E+04 -2.730664E+04 -4.398432E+04 -5.467673E-10 -2.768651E-10
       419  11  1.038572E+06 -3.720446E+04 -2.168810E+04 -3.094321E+04 -9.242563E-10 -3.013875E-10
       419  12  1.105031E+06 -2.113873E+04 -1.224406E+04 -4.390148E+04 -9.566352E-11 -1.789343E-10
       419  13  1.191437E+06  6.308150E+02  1.969417E+04 -4.354019E+04 -6.802301E-10 -3.626408E-10
       419  14  1.190957E+06 -1.825754E+02  1.122390E+04 -3.054060E+04 -2.584729E-10  2.451479E-10
       419  15  1.191448E+06 -1.090083E+02  6.597696E+03 -4.354001E+04 -1.012586E-09 -3.362622E-10
       419  16  1.409837E+06  5.364669E+04  6.669219E+04 -4.309590E+04 -2.639818E-11 -3.673402E-11
       419  17  1.343364E+06  3.683778E+04  4.413454E+04 -3.013789E+04 -5.533205E-10 -1.104631E-10
       419  18  1.277871E+06  2.092022E+04  2.543901E+04 -4.317849E+04 -1.567011E-10  2.420369E-10
       419  19  9.730830E+05 -5.238792E+04 -2.730565E+04 -4.398413E+04 -1.958634E+04 -1.203995E+04
       419  20  1.038572E+06 -3.720434E+04 -2.168760E+04 -3.094311E+04 -1.405184E+04 -8.222104E+03
       419  21  1.105031E+06 -2.113869E+04 -1.224389E+04 -4.390145E+04 -8.516188E+03 -4.376949E+03
       419  22  1.191438E+06  6.310387E+02  1.969492E+04 -4.354003E+04 -1.593469E+04 -1.203869E+04
       419  23  1.190957E+06 -1.824739E+02  1.122423E+04 -3.054053E+04 -1.037195E+04 -8.221134E+03
       419  24  1.191448E+06 -1.089816E+02  6.597775E+03 -4.353999E+04 -4.808637E+03 -4.376292E+03
       419  25  1.409837E+06  5.364688E+04  6.669275E+04 -4.309578E+04 -1.228177E+04 -1.203742E+04
       419  26  1.343364E+06  3.683787E+04  4.413475E+04 -3.013784E+04 -6.691170E+03 -8.220160E+03
       419  27  1.277871E+06  2.092024E+04  2.543904E+04 -4.317848E+04 -1.100577E+03 -4.375631E+03
       420   1  1.157147E+06 -8.295746E+03 -2.061022E+03 -4.372327E+04  7.445755E+03  2.134134E+03
       420   2  1.222904E+06  7.644420E+03  1.011657E+04 -3.065214E+04  5.835320E+03 -1.712856E+03
       420   3  1.288904E+06  2.362891E+04  2.335586E+04 -4.354220E+04  4.224847E+03 -5.562408E+03
       420   4  1.191286E+06 -3.875254E+01  5.129332E+03 -4.353168E+04  3.748868E+03  2.133553E+03
       420   5  1.191167E+06 -6.483995E+01  3.264179E+03 -3.055105E+04  2.135683E+03 -1.713512E+03
       420   6  1.191286E+06 -4.617761E+01  2.462340E+03 -4.353171E+04  5.226258E+02 -5.563123E+03
       420   7  1.225426E+06  8.218173E+03  1.231967E+04 -4.334007E+04  5.178157E+01  2.132970E+03
       420   8  1.159431E+06 -7.774159E+03 -3.588219E+03 -3.044997E+04 -1.563768E+03 -1.714169E+03
       420   9  1.093677E+06 -2.372188E+04 -1.843168E+04 -4.352122E+04 -3.179023E+03 -5.563838E+03
       420  10  1.157147E+06 -8.295765E+03 -2.061134E+03 -4.372329E+04 -8.598927E-11 -1.459843E-10
       420  11  1.222904E+06  7.644407E+03  1.011650E+04 -3.065213E+04 -3.659280E-10 -2.975724E-11
       420  12  1.288904E+06  2.362887E+04  2.335577E+04 -4.354218E+04 -7.277075E-10 -1.707014E-10
       420  13  1.191286E+06 -3.876119E+01  5.129297E+03 -4.353169E+04 -1.590283E-10 -1.050984E-10
       420  14  1.191167E+06 -6.484433E+01  3.264165E+03 -3.055105E+04 -5.310510E-10 -1.101809E-10
       420  15  1.191286E+06 -4.621094E+01  2.462281E+03 -4.353171E+04  2.724110E-10  2.196562E-10
       420  16  1.225426E+06  8.218168E+03  1.231966E+04 -4.334007E+04  3.206453E-10  2.864301E-10
       420  17  1.159431E+06 -7.774162E+03 -3.588229E+03 -3.044998E+04 -2.465155E-10 -8.273081E-11
       420  18  1.093677E+06 -2.372192E+04 -1.843176E+04 -4.352124E+04  3.584202E-10  1.949033E-10
       420  19  1.157147E+06 -8.295746E+03 -2.061022E+03 -4.372327E+04 -7.445755E+03 -2.134134E+03
       420  20  1.222904E+06  7.644420E+03  1.011657E+04 -3.065214E+04 -5.835320E+03  1.712856E+03
       420  21  1.288904E+06  2.362891E+04  2.335586E+04 -4.354220E+04 -4.224847E+03  5.562408E+03
       420  22  1.191286E+06 -3.875254E+01  5.129332E+03 -4.353168E+04 -3.748868E+03 -2.133553E+03
       420  23  1.191167E+06 -6.483995E+01  3.264179E+03 -3.055105E+04 -2.135683E+03  1.713512E+03
       420  24  1.191286E+06 -4.617761E+01  2.462340E+03 -4.353171E+04 -5.226258E+02  5.563123E+03
       420  25  1.225426E+06  8.218173E+03  1.231967E+04 -4.334007E+04 -5.178157E+01 -2.132970E+03
       420  26  1.159431E+06 -7.774159E+03 -3.588219E+03 -3.044997E+04  1.563768E+03  1.714169E+03
       420  27  1.093677E+06 -2.372188E+04 -1.843168E+04 -4.352122E+04  3.179023E+03  5.563838E+03
       421   1  1.341224E+06  3.640970E+04  3.491312E+04 -4.353257E+04  3.791347E+03 -7.804401E+03
       421   2  1.407208E+06  5.240260E+04  4.933883E+04 -3.041613E+04  2.464097E+03 -1.166158E+04
       421   3  1.473413E+06  6.842226E+04  6.464184E+04 -4.334330E+04  1.137728E+03 -1.552407E+04
       421   4  1.191279E+06 -4.761811E+01  2.358406E+03 -4.355013E+04  8.506926E+01 -7.805275E+03
       421   5  1.191165E+06 -7.135162E+01  2.696120E+03 -3.052804E+04 -1.247089E+03 -1.166291E+04
       421   6  1.191270E+06 -6.718957E+01  3.914878E+03 -4.355011E+04 -2.578229E+03 -1.552584E+04
       421   7  1.041355E+06 -3.650641E+04 -3.019760E+04 -4.356768E+04 -3.620327E+03 -7.806148E+03
       421   8  9.751663E+05 -5.254837E+04 -4.394929E+04 -3.063990E+04 -4.957004E+03 -1.166424E+04
       421   9  9.092008E+05 -6.856185E+04 -5.681670E+04 -4.375682E+04 -6.292523E+03 -1.552761E+04
       421  10  1.341224E+06  3.640963E+04  3.491298E+04 -4.353255E+04 -8.070750E-10  1.420723E-11
       421  11  1.407208E+06  5.240245E+04  4.933856E+04 -3.041611E+04  3.622791E-10  9.034739E-10
       421  12  1.473413E+06  6.842200E+04  6.464139E+04 -4.334328E+04 -1.826260E-10 -1.419767E-11
       421  13  1.191279E+06 -4.768356E+01  2.358291E+03 -4.355013E+04  6.611040E-10  7.235203E-10
       421  14  1.191165E+06 -7.149819E+01  2.695861E+03 -3.052805E+04  3.884645E-10  9.124695E-10
       421  15  1.191270E+06 -6.745035E+01  3.914412E+03 -4.355014E+04 -2.807591E-10  1.012451E-10
       421  16  1.041355E+06 -3.650648E+04 -3.019774E+04 -4.356770E+04  8.390398E-10  6.803057E-10
       421  17  9.751663E+05 -5.254852E+04 -4.394960E+04 -3.063995E+04 -4.506898E-10  3.724936E-10
       421  18  9.092007E+05 -6.856212E+04 -5.681723E+04 -4.375690E+04 -3.868461E-10  1.065334E-10
       421  19  1.341224E+06  3.640970E+04  3.491312E+04 -4.353257E+04 -3.791347E+03  7.804401E+03
       421  20  1.407208E+06  5.240260E+04  4.933883E+04 -3.041613E+04 -2.464097E+03  1.166158E+04
       421  21  1.473413E+06  6.842226E+04  6.464184E+04 -4.334330E+04 -1.137728E+03  1.552407E+04
       421  22  1.191279E+06 -4.761811E+01  2.358406E+03 -4.355013E+04 -8.506926E+01  7.805275E+03
       421  23  1.191165E+06 -7.135162E+01  2.696120E+03 -3.052804E+04  1.247089E+03  1.166291E+04
       421  24  1.191270E+06 -6.718957E+01  3.914878E+03 -4.355011E+04  2.578229E+03  1.552584E+04
       421  25  1.041355E+06 -3.650641E+04 -3.019760E+04 -4.356768E+04  3.620327E+03  7.806148E+03
       421  26  9.751663E+05 -5.254837E+04 -4.394929E+04 -3.063990E+04  4.957004E+03  1.166424E+04
       421  27  9.092008E+05 -6.856185E+04 -5.681670E+04 -4.375682E+04  6.292523E+03  1.552761E+04
       422   1  1.526158E+06  8.122046E+04  7.738991E+04 -4.324460E+04  3.604242E+02 -1.778189E+04
       422   2  1.592386E+06  9.729900E+04  9.489380E+04 -3.003228E+04 -3.753496E+03 -2.165559E+04
       422   3  1.659401E+06  1.140143E+05  1.152500E+05 -4.306944E+04 -7.865933E+03 -2.549747E+04
       422   4  1.191387E+06 -1.214137E+02  4.939502E+03 -4.359586E+04 -3.377800E+03 -1.778406E+04
       422   5  1.190988E+06 -1.862303E+02  8.236229E+03 -3.047070E+04 -7.458891E+03 -2.165859E+04
       422   6  1.191368E+06  3.809978E+02  1.436435E+04 -4.359604E+04 -1.153807E+04 -2.550127E+04
       422   7  8.567210E+05 -8.147067E+04 -6.751750E+04 -4.394694E+04 -7.114038E+03 -1.778623E+04
       422   8  7.897414E+05 -9.768205E+04 -7.843080E+04 -3.090884E+04 -1.116193E+04 -2.166158E+04
       422   9  7.235407E+05 -1.132667E+05 -8.653413E+04 -4.412227E+04 -1.520748E+04 -2.550505E+04
       422  10  1.526158E+06  8.122012E+04  7.738931E+04 -4.324459E+04 -9.133442E-10  4.150487E-10
       422  11  1.592386E+06  9.729850E+04  9.489289E+04 -3.003235E+04 -1.136030E-09 -7.835282E-10
       422  12  1.659401E+06  1.140136E+05  1.152486E+05 -4.306960E+04  5.205075E-10  1.026600E-11
       422  13  1.191387E+06 -1.217565E+02  4.938886E+03 -4.359591E+04 -4.888365E-10  7.776922E-11
       422  14  1.190988E+06 -1.867492E+02  8.235243E+03 -3.047083E+04 -7.514730E-10  1.591681E-10
       422  15  1.191368E+06  3.802634E+02  1.436287E+04 -4.359628E+04 -7.953917E-10 -1.250247E-10
       422  16  8.567209E+05 -8.147102E+04 -6.751819E+04 -4.394704E+04  7.650262E-10 -2.558836E-10
       422  17  7.897411E+05 -9.768259E+04 -7.843192E+04 -3.090904E+04 -7.633733E-10  8.155307E-11
       422  18  7.235403E+05 -1.132674E+05 -8.653579E+04 -4.412259E+04 -8.544446E-10  4.502360E-10
       422  19  1.526158E+06  8.122046E+04  7.738991E+04 -4.324460E+04 -3.604242E+02  1.778189E+04
       422  20  1.592386E+06  9.729900E+04  9.489380E+04 -3.003228E+04  3.753496E+03  2.165559E+04
       422  21  1.659401E+06  1.140143E+05  1.152500E+05 -4.306944E+04  7.865933E+03  2.549747E+04
       422  22  1.191387E+06 -1.214137E+02  4.939502E+03 -4.359586E+04  3.377800E+03  1.778406E+04
       422  23  1.190988E+06 -1.862303E+02  8.236229E+03 -3.047070E+04  7.458891E+03  2.165859E+04
       422  24  1.191368E+06  3.809978E+02  1.436435E+04 -4.359604E+04  1.153807E+04  2.550127E+04
       422  25  8.567210E+05 -8.147067E+04 -6.751750E+04 -4.394694E+04  7.114038E+03  1.778623E+04
       422  26  7.897414E+05 -9.768205E+04 -7.843080E+04 -3.090884E+04  1.116193E+04  2.166158E+04
       422  27  7.235407E+05 -1.132667E+05 -8.653413E+04 -4.412227E+04  1.520748E+04  2.550505E+04
       423   1  1.713575E+06  1.258105E+05  1.314165E+05 -4.102422E+04 -1.048410E+04 -2.785638E+04
       423   2  1.778347E+06  1.426038E+05  1.596311E+05 -3.087491E+04 -2.769331E+04 -3.151511E+04
       423   3  1.848518E+06  1.713426E+05  2.020530E+05 -4.725904E+04 -4.490343E+04 -3.418967E+04
       423   4  1.192347E+06 -8.053470E+02  1.873014E+04 -4.365579E+04 -1.445606E+04 -2.786099E+04
       423   5  1.189710E+06 -3.695791E+02  3.240382E+04 -3.039443E+04 -3.070471E+04 -3.152017E+04
       423   6  1.192307E+06  1.185240E+04  5.962857E+04 -4.366770E+04 -4.695243E+04 -3.419490E+04
       423   7  6.713737E+05 -1.274390E+05 -9.397228E+04 -4.628516E+04 -1.842472E+04 -2.786557E+04
       423   8  6.013981E+05 -1.433658E+05 -9.484393E+04 -2.991448E+04 -3.371329E+04 -3.152523E+04
       423   9  5.364989E+05 -1.476662E+05 -8.282146E+04 -4.008029E+04 -4.899927E+04 -3.420015E+04
       423  10  1.713574E+06  1.258096E+05  1.314149E+05 -4.102446E+04  5.178252E-10 -3.032942E-10
       423  11  1.778346E+06  1.426025E+05  1.596278E+05 -3.087561E+04  6.357062E-10 -6.475161E-10
       423  12  1.848516E+06  1.713408E+05  2.020470E+05 -4.726027E+04  4.469787E-10 -1.480455E-09
       423  13  1.192346E+06 -8.062370E+02  1.872829E+04 -4.365611E+04 -5.400278E-10 -3.327353E-10
       423  14  1.189709E+06 -3.708991E+02  3.240018E+04 -3.039521E+04 -9.430534E-10 -8.934172E-10
       423  15  1.192304E+06  1.185055E+04  5.962224E+04 -4.366899E+04 -4.541486E-10 -1.046869E-09
       423  16  6.713731E+05 -1.274399E+05 -9.397437E+04 -4.628557E+04 -1.936673E-10  7.656509E-11
       423  17  6.013966E+05 -1.433671E+05 -9.484794E+04 -2.991533E+04 -4.714447E-10  1.654159E-09
       423  18  5.364960E+05 -1.476681E+05 -8.282817E+04 -4.008164E+04 -2.721009E-10 -2.209643E-10
       423  19  1.713575E+06  1.258105E+05  1.314165E+05 -4.102422E+04  1.048410E+04  2.785638E+04
       423  20  1.778347E+06  1.426038E+05  1.596311E+05 -3.087491E+04  2.769331E+04  3.151511E+04
       423  21  1.848518E+06  1.713426E+05  2.020530E+05 -4.725904E+04  4.490343E+04  3.418967E+04
       423  22  1.192347E+06 -8.053470E+02  1.873014E+04 -4.365579E+04  1.445606E+04  2.786099E+04
       423  23  1.189710E+06 -3.695791E+02  3.240382E+04 -3.039443E+04  3.070471E+04  3.152017E+04
       423  24  1.192307E+06  1.185240E+04  5.962857E+04 -4.366770E+04  4.695243E+04  3.419490E+04
       423  25  6.713737E+05 -1.274390E+05 -9.397228E+04 -4.628516E+04  1.842472E+04  2.786557E+04
       423  26  6.013981E+05 -1.433658E+05 -9.484393E+04 -2.991448E+04  3.371329E+04  3.152523E+04
       423  27  5.364989E+05 -1.476662E+05 -8.282146E+04 -4.008029E+04  4.899927E+04  3.420015E+04
       424   1  1.915939E+06  1.615331E+05  2.287277E+05 -9.514157E+03 -4.917425E+04 -3.826762E+04
       424   2  1.951222E+06  1.925718E+05  3.006475E+05 -7.088220E+04 -1.387478E+05 -3.604439E+04
       424   3  2.053883E+06  4.456168E+05  4.863266E+05 -1.585341E+05 -2.283745E+05 -1.166167E+04
       424   4  1.205316E+06 -1.113901E+04  7.525200E+04 -4.350824E+04 -5.753999E+04 -3.827855E+04
       424   5  1.173362E+06  3.083669E+03  1.289706E+05 -3.056181E+04 -1.257326E+05 -3.603741E+04
       424   6  1.205148E+06  2.357378E+05  2.817072E+05 -4.388759E+04 -1.939648E+05 -1.164572E+04
       424   7  4.951695E+05 -1.838400E+05 -7.825271E+04 -7.746311E+04 -6.589628E+04 -3.828858E+04
       424   8  3.960690E+05 -1.864388E+05 -4.274199E+04  9.707426E+03 -1.127333E+05 -3.602875E+04
       424   9  3.571013E+05  2.585668E+04  7.704798E+04  7.060183E+04 -1.596017E+05 -1.161710E+04
       424  10  1.915936E+06  1.615309E+05  2.287205E+05 -9.515671E+03  7.669676E-10 -2.505703E-09
       424  11  1.951202E+06  1.925652E+05  3.006090E+05 -7.088623E+04 -1.007368E-09 -4.802662E-09
       424  12  2.053827E+06  4.456027E+05  4.862287E+05 -1.585362E+05 -3.405145E-09 -1.469072E-09
       424  13  1.205312E+06 -1.114147E+04  7.524303E+04 -4.351001E+04 -2.070842E-09 -6.682730E-09
       424  14  1.173345E+06  3.078040E+03  1.289385E+05 -3.056546E+04  2.757353E-10  2.473246E-09
       424  15  1.205108E+06  2.357276E+05  2.816364E+05 -4.388941E+04 -6.795187E-10 -2.011511E-10
       424  16  4.951645E+05 -1.838428E+05 -7.826362E+04 -7.746515E+04 -6.006766E-10 -1.486591E-09
       424  17  3.960550E+05 -1.864436E+05 -4.276830E+04  9.704155E+03 -2.337240E-10  1.741498E-09
       424  18  3.570739E+05  2.584970E+04  7.699988E+04  7.060033E+04  2.390872E-09 -1.801786E-09
       424  19  1.915939E+06  1.615331E+05  2.287277E+05 -9.514157E+03  4.917425E+04  3.826762E+04
       424  20  1.951222E+06  1.925718E+05  3.006475E+05 -7.088220E+04  1.387478E+05  3.604439E+04
       424  21  2.053883E+06  4.456168E+05  4.863266E+05 -1.585341E+05  2.283745E+05  1.166167E+04
       424  22  1.205316E+06 -1.113901E+04  7.525200E+04 -4.350824E+04  5.753999E+04  3.827855E+04
       424  23  1.173362E+06  3.083669E+03  1.289706E+05 -3.056181E+04  1.257326E+05  3.603741E+04
       424  24  1.205148E+06  2.357378E+05  2.817072E+05 -4.388759E+04  1.939648E+05  1.164572E+04
       424  25  4.951695E+05 -1.838400E+05 -7.825271E+04 -7.746311E+04  6.589628E+04  3.828858E+04
       424  26  3.960690E+05 -1.864388E+05 -4.274199E+04  9.707426E+03  1.127333E+05  3.602875E+04
       424  27  3.571013E+05  2.585668E+04  7.704798E+04  7.060183E+04  1.596017E+05  1.161710E+04
       425   1  4.041245E+05  1.588128E+05  1.410618E+05  1.983883E+04  9.968109E+03 -1.267477E+04
       425   2  3.444016E+05  1.883211E+05  1.334274E+05  3.300281E+04 -4.739751E+03 -4.198109E+04
       425   3  2.776357E+05  1.818669E+05  1.264200E+05  6.147374E+04 -1.948714E+04 -4.906301E+04
       425   4 -4.856862E+05 -6.108955E+04 -6.945872E+04  5.468151E+04 -4.817648E+04 -1.279303E+04
       425   5 -4.793530E+05 -9.677902E+03 -3.315879E+04  4.695898E+04 -3.087588E+04 -4.204291E+04
       425   6 -4.856393E+05  1.854692E+02 -1.847224E+04  5.454518E+04 -1.361612E+04 -4.905394E+04
       425   7 -1.374759E+06 -2.810422E+05 -2.800207E+05  8.947363E+04 -1.062382E+05 -1.291791E+04
       425   8 -1.302459E+06 -2.077179E+05 -1.997774E+05  6.089592E+04 -5.697799E+04 -4.210595E+04
       425   9 -1.248352E+06 -1.815300E+05 -1.633904E+05  4.762498E+04 -7.752140E+03 -4.904500E+04
       425  10  4.041243E+05  1.588126E+05  1.410613E+05  1.983894E+04  1.168319E-09 -5.057647E-10
       425  11  3.444011E+05  1.883192E+05  1.334241E+05  3.300265E+04  1.209857E-09 -4.466013E-09
       425  12  2.776346E+05  1.818643E+05  1.264148E+05  6.147297E+04 -4.068848E-10 -3.813680E-09
       425  13 -4.856887E+05 -6.109035E+04 -6.946340E+04  5.468102E+04 -1.734745E-10  1.466335E-09
       425  14 -4.793545E+05 -9.680056E+03 -3.316390E+04  4.695793E+04 -1.063044E-09 -3.064482E-09
       425  15 -4.856401E+05  1.828361E+02 -1.847711E+04  5.454464E+04  1.910789E-09 -2.921601E-11
       425  16 -1.374771E+06 -2.810454E+05 -2.800423E+05  8.947252E+04 -2.624323E-09  1.657277E-10
       425  17 -1.302463E+06 -2.077206E+05 -1.997868E+05  6.089399E+04 -2.335056E-09 -7.153312E-09
       425  18 -1.248353E+06 -1.815326E+05 -1.633950E+05  4.762468E+04 -5.834342E-10 -6.312571E-09
       425  19  4.041245E+05  1.588128E+05  1.410618E+05  1.983883E+04 -9.968109E+03  1.267477E+04
       425  20  3.444016E+05  1.883211E+05  1.334274E+05  3.300281E+04  4.739751E+03  4.198109E+04
       425  21  2.776357E+05  1.818669E+05  1.264200E+05  6.147374E+04  1.948714E+04  4.906301E+04
       425  22 -4.856862E+05 -6.108955E+04 -6.945872E+04  5.468151E+04  4.817648E+04  1.279303E+04
       425  23 -4.793530E+05 -9.677902E+03 -3.315879E+04  4.695898E+04  3.087588E+04  4.204291E+04
       425  24 -4.856393E+05  1.854692E+02 -1.847224E+04  5.454518E+04  1.361612E+04  4.905394E+04
       425  25 -1.374759E+06 -2.810422E+05 -2.800207E+05  8.947363E+04  1.062382E+05  1.291791E+04
       425  26 -1.302459E+06 -2.077179E+05 -1.997774E+05  6.089592E+04  5.697799E+04  4.210595E+04
       425  27 -1.248352E+06 -1.815300E+05 -1.633904E+05  4.762498E+04  7.752140E+03  4.904500E+04
       426   1  2.365958E+05  1.690202E+05  1.220463E+05  5.541432E+04 -1.311236E+04 -4.660225E+04
       426   2  1.736890E+05  1.557086E+05  1.145596E+05  4.766768E+04 -1.148343E+04 -4.447020E+04
       426   3  1.101912E+05  1.410385E+05  1.056649E+05  5.657292E+04 -9.860573E+03 -4.074688E+04
       426   4 -4.830445E+05 -2.177257E+03 -1.422602E+04  5.486814E+04 -1.118389E+04 -4.660204E+04
       426   5 -4.825341E+05 -4.208861E+01 -7.859657E+03  4.653832E+04 -7.266739E+03 -4.446322E+04
       426   6 -4.830161E+05  3.363452E+02 -4.492310E+03  5.486150E+04 -3.355458E+03 -4.073232E+04
       426   7 -1.202185E+06 -1.734050E+05 -1.505214E+05  5.432229E+04 -9.257590E+03 -4.660183E+04
       426   8 -1.138340E+06 -1.558176E+05 -1.302972E+05  4.540990E+04 -3.054388E+03 -4.445626E+04
       426   9 -1.075882E+06 -1.403860E+05 -1.146642E+05  5.315152E+04  3.143603E+03 -4.071779E+04
       426  10  2.365950E+05  1.690178E+05  1.220419E+05  5.541383E+04 -7.665932E-09 -4.472005E-09
       426  11  1.736883E+05  1.557065E+05  1.145556E+05  4.766727E+04 -2.137014E-09  1.973474E-09
       426  12  1.101906E+05  1.410367E+05  1.056616E+05  5.657259E+04 -1.216540E-09  3.345496E-09
       426  13 -4.830452E+05 -2.179622E+03 -1.423034E+04  5.486772E+04  1.849757E-11 -3.347242E-09
       426  14 -4.825347E+05 -4.422522E+01 -7.863471E+03  4.653806E+04 -1.689001E-09 -4.044185E-10
       426  15 -4.830166E+05  3.345610E+02 -4.495448E+03  5.486139E+04  2.442718E-09 -3.525184E-09
       426  16 -1.202186E+06 -1.734073E+05 -1.505256E+05  5.432195E+04  6.144147E-09 -1.903648E-10
       426  17 -1.138341E+06 -1.558198E+05 -1.303010E+05  4.540979E+04  5.180069E-10  2.601668E-09
       426  18 -1.075883E+06 -1.403878E+05 -1.146673E+05  5.315162E+04 -2.752926E-10  4.173770E-10
       426  19  2.365958E+05  1.690202E+05  1.220463E+05  5.541432E+04  1.311236E+04  4.660225E+04
       426  20  1.736890E+05  1.557086E+05  1.145596E+05  4.766768E+04  1.148343E+04  4.447020E+04
       426  21  1.101912E+05  1.410385E+05  1.056649E+05  5.657292E+04  9.860573E+03  4.074688E+04
       426  22 -4.830445E+05 -2.177257E+03 -1.422602E+04  5.486814E+04  1.118389E+04  4.660204E+04
       426  23 -4.825341E+05 -4.208861E+01 -7.859657E+03  4.653832E+04  7.266739E+03  4.446322E+04
       426  24 -4.830161E+05  3.363452E+02 -4.492310E+03  5.486150E+04  3.355458E+03  4.073232E+04
       426  25 -1.202185E+06 -1.734050E+05 -1.505214E+05  5.432229E+04  9.257590E+03  4.660183E+04
       426  26 -1.138340E+06 -1.558176E+05 -1.302972E+05  4.540990E+04  3.054388E+03  4.445626E+04
       426  27 -1.075882E+06 -1.403860E+05 -1.146642E+05  5.315152E+04 -3.143603E+03  4.071779E+04
       427   1  6.744974E+04  1.306992E+05  9.847642E+04  5.622657E+04 -8.893729E+03 -3.810992E+04
       427   2  4.173758E+03  1.157134E+05  8.819727E+04  4.768747E+04 -8.101025E+03 -3.372549E+04
       427   3 -5.927526E+04  1.007735E+05  7.739124E+04  5.593781E+04 -7.310559E+03 -2.922396E+04
       427   4 -4.828316E+05  2.351161E+02 -3.420479E+03  5.489329E+04 -2.665307E+03 -3.809525E+04
       427   5 -4.827183E+05  2.740672E+02 -1.962341E+03  4.649804E+04 -1.705026E+03 -3.370910E+04
       427   6 -4.828113E+05  3.299292E+02 -1.147985E+03  5.489303E+04 -7.469053E+02 -2.920580E+04
       427   7 -1.032819E+06 -1.302462E+05 -1.053299E+05  5.356100E+04  3.557739E+03 -3.808060E+04
       427   8 -9.693804E+05 -1.151788E+05 -9.213174E+04  4.530941E+04  4.686086E+03 -3.369273E+04
       427   9 -9.061733E+05 -1.001239E+05 -7.969460E+04  5.384884E+04  5.812385E+03 -2.918766E+04
       427  10  6.744927E+04  1.306976E+05  9.847354E+04  5.622630E+04 -6.490776E-09  4.481941E-09
       427  11  4.173382E+03  1.157121E+05  8.819501E+04  4.768725E+04 -1.960665E-10  3.800635E-09
       427  12 -5.927555E+04  1.007726E+05  7.738953E+04  5.593764E+04  2.842058E-09 -3.909761E-10
       427  13 -4.828320E+05  2.335561E+02 -3.423219E+03  5.489320E+04  2.000647E-10 -4.098621E-09
       427  14 -4.827186E+05  2.728465E+02 -1.964481E+03  4.649800E+04 -1.606713E-09  3.995262E-09
       427  15 -4.828115E+05  3.290133E+02 -1.149589E+03  5.489301E+04  2.638016E-09  7.204111E-09
       427  16 -1.032820E+06 -1.302478E+05 -1.053327E+05  5.356111E+04  5.026450E-09  1.416102E-09
       427  17 -9.693808E+05 -1.151800E+05 -9.213391E+04  4.530954E+04 -1.151099E-09  5.350046E-09
       427  18 -9.061736E+05 -1.001249E+05 -7.969626E+04  5.384898E+04 -3.806047E-09  2.168297E-09
       427  19  6.744974E+04  1.306992E+05  9.847642E+04  5.622657E+04  8.893729E+03  3.810992E+04
       427  20  4.173758E+03  1.157134E+05  8.819727E+04  4.768747E+04  8.101025E+03  3.372549E+04
       427  21 -5.927526E+04  1.007735E+05  7.739124E+04  5.593781E+04  7.310559E+03  2.922396E+04
       427  22 -4.828316E+05  2.351161E+02 -3.420479E+03  5.489329E+04  2.665307E+03  3.809525E+04
       427  23 -4.827183E+05  2.740672E+02 -1.962341E+03  4.649804E+04  1.705026E+03  3.370910E+04
       427  24 -4.828113E+05  3.299292E+02 -1.147985E+03  5.489303E+04  7.469053E+02  2.920580E+04
       427  25 -1.032819E+06 -1.302462E+05 -1.053299E+05  5.356100E+04 -3.557739E+03  3.808060E+04
       427  26 -9.693804E+05 -1.151788E+05 -9.213174E+04  4.530941E+04 -4.686086E+03  3.369273E+04
       427  27 -9.061733E+05 -1.001239E+05 -7.969460E+04  5.384884E+04 -5.812385E+03  2.918766E+04
       428   1 -1.022133E+05  9.053055E+04  6.939402E+04  5.583756E+04 -7.117132E+03 -2.656944E+04
       428   2 -1.656382E+05  7.546901E+04  5.811015E+04  4.726645E+04 -6.863724E+03 -2.201644E+04
       428   3 -2.291801E+05  6.051066E+04  4.665670E+04  5.552399E+04 -6.611589E+03 -1.745307E+04
       428   4 -4.827862E+05  3.311157E+02 -8.920453E+02  5.490175E+04 -5.698118E+02 -2.655070E+04
       428   5 -4.827173E+05  2.919822E+02 -5.684244E+02  4.648715E+04 -3.019836E+02 -2.199682E+04
       428   6 -4.827730E+05  3.534448E+02 -4.248250E+02  5.490170E+04 -3.540369E+01 -1.743256E+04
       428   7 -8.632185E+05 -8.987657E+04 -7.118398E+04  5.396641E+04  5.973599E+03 -2.653197E+04
       428   8 -7.996989E+05 -7.489078E+04 -5.925104E+04  4.570819E+04  6.256492E+03 -2.197721E+04
       428   9 -7.363036E+05 -5.980744E+04 -4.750891E+04  5.427963E+04  6.538164E+03 -1.741206E+04
       428  10 -1.022136E+05  9.052978E+04  6.939260E+04  5.583741E+04 -4.933016E-10  5.515785E-10
       428  11 -1.656384E+05  7.546848E+04  5.810915E+04  4.726632E+04 -5.539138E-10  9.868556E-09
       428  12 -2.291802E+05  6.051033E+04  4.665605E+04  5.552389E+04 -3.311320E-09  7.886162E-09
       428  13 -4.827864E+05  3.303588E+02 -8.933703E+02  5.490173E+04 -4.877857E-12  1.659830E-09
       428  14 -4.827175E+05  2.914627E+02 -5.693337E+02  4.648715E+04 -1.870222E-09  9.843887E-09
       428  15 -4.827731E+05  3.531186E+02 -4.253959E+02  5.490170E+04  2.876945E-09  2.635882E-09
       428  16 -8.632187E+05 -8.987734E+04 -7.118537E+04  5.396654E+04 -6.289549E-10  1.115036E-09
       428  17 -7.996991E+05 -7.489131E+04 -5.925203E+04  4.570830E+04 -1.403637E-09  1.121958E-09
       428  18 -7.363037E+05 -5.980778E+04 -4.750956E+04  5.427972E+04  1.835479E-09  1.095786E-09
       428  19 -1.022133E+05  9.053055E+04  6.939402E+04  5.583756E+04  7.117132E+03  2.656944E+04
       428  20 -1.656382E+05  7.546901E+04  5.811015E+04  4.726645E+04  6.863724E+03  2.201644E+04
       428  21 -2.291801E+05  6.051066E+04  4.665670E+04  5.552399E+04  6.611589E+03  1.745307E+04
       428  22 -4.827862E+05  3.311157E+02 -8.920453E+02  5.490175E+04  5.698118E+02  2.655070E+04
       428  23 -4.827173E+05  2.919822E+02 -5.684244E+02  4.648715E+04  3.019836E+02  2.199682E+04
       428  24 -4.827730E+05  3.534448E+02 -4.248250E+02  5.490170E+04  3.540369E+01  1.743256E+04
       428  25 -8.632185E+05 -8.987657E+04 -7.118398E+04  5.396641E+04 -5.973599E+03  2.653197E+04
       428  26 -7.996989E+05 -7.489078E+04 -5.925104E+04  4.570819E+04 -6.256492E+03  2.197721E+04
       428  27 -7.363036E+05 -5.980744E+04 -4.750891E+04  5.427963E+04 -6.538164E+03  1.741206E+04
       429   1 -2.722003E+05  5.025486E+04  3.841006E+04  5.542246E+04 -6.545771E+03 -1.479349E+04
       429   2 -3.356849E+05  3.517538E+04  2.674210E+04  4.682456E+04 -6.327840E+03 -1.022459E+04
       429   3 -3.993009E+05  2.019872E+04  1.492237E+04  5.507816E+04 -6.110485E+03 -5.657922E+03
       429   4 -4.827711E+05  3.577911E+02 -4.063048E+02  5.490672E+04  3.174220E+01 -1.477262E+04
       429   5 -4.827012E+05  3.163942E+02 -4.630126E+02  4.648083E+04  2.461367E+02 -1.020334E+04
       429   6 -4.827650E+05  3.788469E+02 -6.688516E+02  5.490667E+04  4.599780E+02 -5.636290E+03
       429   7 -6.932988E+05 -4.954178E+04 -3.922434E+04  5.439113E+04  6.607082E+03 -1.475175E+04
       429   8 -6.296964E+05 -3.454381E+04 -2.766887E+04  4.613718E+04  6.818597E+03 -1.018209E+04
       429   9 -5.662223E+05 -1.944140E+04 -1.626021E+04  5.473520E+04  7.029580E+03 -5.614661E+03
       429  10 -2.722004E+05  5.025461E+04  3.840957E+04  5.542238E+04  1.003945E-08  1.771343E-09
       429  11 -3.356850E+05  3.517526E+04  2.674183E+04  4.682451E+04  4.566175E-09 -4.367182E-09
       429  12 -3.993009E+05  2.019867E+04  1.492224E+04  5.507813E+04 -6.032731E-09 -3.874017E-09
       429  13 -4.827711E+05  3.575568E+02 -4.067148E+02  5.490672E+04 -4.914671E-10  8.250697E-09
       429  14 -4.827012E+05  3.162824E+02 -4.632083E+02  4.648084E+04 -1.812512E-09 -1.166416E-09
       429  15 -4.827650E+05  3.788127E+02 -6.689116E+02  5.490667E+04  2.822971E-09 -5.528436E-09
       429  16 -6.932989E+05 -4.954203E+04 -3.922483E+04  5.439121E+04 -1.177230E-08  4.472340E-09
       429  17 -6.296965E+05 -3.454393E+04 -2.766915E+04  4.613723E+04 -5.934647E-09 -3.450480E-09
       429  18 -5.662224E+05 -1.944145E+04 -1.626036E+04  5.473523E+04  4.636453E-09 -4.099177E-09
       429  19 -2.722003E+05  5.025486E+04  3.841006E+04  5.542246E+04  6.545771E+03  1.479349E+04
       429  20 -3.356849E+05  3.517538E+04  2.674210E+04  4.682456E+04  6.327840E+03  1.022459E+04
       429  21 -3.993009E+05  2.019872E+04  1.492237E+04  5.507816E+04  6.110485E+03  5.657922E+03
       429  22 -4.827711E+05  3.577911E+02 -4.063048E+02  5.490672E+04 -3.174220E+01  1.477262E+04
       429  23 -4.827012E+05  3.163942E+02 -4.630126E+02  4.648083E+04 -2.461367E+02  1.020334E+04
       429  24 -4.827650E+05  3.788469E+02 -6.688516E+02  5.490667E+04 -4.599780E+02  5.636290E+03
       429  25 -6.932988E+05 -4.954178E+04 -3.922434E+04  5.439113E+04 -6.607082E+03  1.475175E+04
       429  26 -6.296964E+05 -3.454381E+04 -2.766887E+04  4.613718E+04 -6.818597E+03  1.018209E+04
       429  27 -5.662223E+05 -1.944140E+04 -1.626021E+04  5.473520E+04 -7.029580E+03  5.614661E+03
       430   1 -4.423651E+05  9.936077E+03  6.474672E+03  5.495341E+04 -5.992541E+03 -2.996332E+03
       430   2 -5.058174E+05 -5.151694E+03 -5.729841E+03  4.633648E+04 -5.228627E+03  1.550787E+03
       430   3 -5.694932E+05 -2.020639E+04 -1.846045E+04  5.457256E+04 -4.464527E+03  6.041997E+03
       430   4 -4.827817E+05  3.847735E+02 -8.443646E+02  5.490689E+04  5.881105E+02 -2.974569E+03
       430   5 -4.826755E+05  3.439524E+02 -1.411006E+03  4.648048E+04  1.271281E+03  1.572218E+03
       430   6 -4.827829E+05  3.504266E+02 -2.447644E+03  5.490701E+04  1.954715E+03  6.063107E+03
       430   7 -5.231966E+05 -9.166599E+03 -8.163303E+03  5.486036E+04  7.168345E+03 -2.952805E+03
       430   8 -4.595331E+05  5.839591E+03  2.907966E+03  4.662448E+04  7.771426E+03  1.593653E+03
       430   9 -3.960651E+05  2.090684E+04  1.356501E+04  5.524151E+04  8.374831E+03  6.084222E+03
       430  10 -4.423652E+05  9.936058E+03  6.474587E+03  5.495339E+04 -3.052683E-09  2.014144E-09
       430  11 -5.058174E+05 -5.151704E+03 -5.729897E+03  4.633649E+04 -1.460141E-09  4.036061E-10
       430  12 -5.694933E+05 -2.020643E+04 -1.846056E+04  5.457258E+04 -4.643153E-09  4.532551E-09
       430  13 -4.827817E+05  3.847639E+02 -8.443819E+02  5.490689E+04  1.531679E-10 -1.644039E-09
       430  14 -4.826755E+05  3.439493E+02 -1.411014E+03  4.648048E+04 -1.654210E-09 -4.403120E-10
       430  15 -4.827829E+05  3.503861E+02 -2.447720E+03  5.490700E+04  2.876622E-09  3.457925E-09
       430  16 -5.231966E+05 -9.166622E+03 -8.163416E+03  5.486038E+04  1.049208E-09  1.320062E-09
       430  17 -4.595331E+05  5.839572E+03  2.907847E+03  4.662447E+04  3.278508E-10 -1.021429E-08
       430  18 -3.960652E+05  2.090678E+04  1.356481E+04  5.524147E+04  3.228160E-09 -1.096909E-09
       430  19 -4.423651E+05  9.936077E+03  6.474672E+03  5.495341E+04  5.992541E+03  2.996332E+03
       430  20 -5.058174E+05 -5.151694E+03 -5.729841E+03  4.633648E+04  5.228627E+03 -1.550787E+03
       430  21 -5.694932E+05 -2.020639E+04 -1.846045E+04  5.457256E+04  4.464527E+03 -6.041997E+03
       430  22 -4.827817E+05  3.847735E+02 -8.443646E+02  5.490689E+04 -5.881105E+02  2.974569E+03
       430  23 -4.826755E+05  3.439524E+02 -1.411006E+03  4.648048E+04 -1.271281E+03 -1.572218E+03
       430  24 -4.827829E+05  3.504266E+02 -2.447644E+03  5.490701E+04 -1.954715E+03 -6.063107E+03
       430  25 -5.231966E+05 -9.166599E+03 -8.163303E+03  5.486036E+04 -7.168345E+03  2.952805E+03
       430  26 -4.595331E+05  5.839591E+03  2.907966E+03  4.662448E+04 -7.771426E+03 -1.593653E+03
       430  27 -3.960651E+05  2.090684E+04  1.356501E+04  5.524151E+04 -8.374831E+03 -6.084222E+03
       431   1 -6.126890E+05 -3.040618E+04 -2.750950E+04  5.422728E+04 -4.112809E+03  8.697985E+03
       431   2 -6.757284E+05 -4.576729E+04 -4.186986E+04  4.613414E+04 -2.032654E+02  1.287568E+04
       431   3 -7.397541E+05 -6.254199E+04 -5.916488E+04  5.484154E+04  3.708918E+03  1.626978E+04
       431   4 -4.829140E+05  4.286197E+02 -3.211557E+03  5.489416E+04  2.444028E+03  8.719378E+03
       431   5 -4.825210E+05  1.533199E+02 -5.607068E+03  4.649690E+04  5.226654E+03  1.289292E+04
       431   6 -4.829230E+05 -1.339485E+03 -1.015371E+04  5.489990E+04  8.012323E+03  1.628301E+04
       431   7 -3.531225E+05  3.126247E+04  2.108582E+04  5.556116E+04  9.002202E+03  8.740782E+03
       431   8 -2.892774E+05  4.607178E+04  3.065422E+04  4.685975E+04  1.065822E+04  1.291017E+04
       431   9 -2.260283E+05  5.985915E+04  3.885455E+04  5.495823E+04  1.231747E+04  1.629623E+04
       431  10 -6.126891E+05 -3.040627E+04 -2.750967E+04  5.422731E+04  4.252473E-08  9.573640E-09
       431  11 -6.757284E+05 -4.576747E+04 -4.187017E+04  4.613414E+04  4.632557E-10  2.061010E-09
       431  12 -7.397542E+05 -6.254228E+04 -5.916541E+04  5.484149E+04 -4.677789E-08  6.926108E-09
       431  13 -4.829140E+05  4.285365E+02 -3.211711E+03  5.489414E+04  5.232856E-11  4.990968E-09
       431  14 -4.825211E+05  1.531341E+02 -5.607432E+03  4.649685E+04 -1.763080E-09  9.263894E-09
       431  15 -4.829232E+05 -1.339787E+03 -1.015433E+04  5.489979E+04  3.100761E-09  2.297501E-09
       431  16 -3.531226E+05  3.126237E+04  2.108552E+04  5.556110E+04 -4.438629E-08  4.830286E-09
       431  17 -2.892776E+05  4.607157E+04  3.065369E+04  4.685964E+04 -1.492092E-09  3.630267E-09
       431  18 -2.260286E+05  5.985882E+04  3.885376E+04  5.495807E+04  4.549809E-08 -7.084597E-09
       431  19 -6.126890E+05 -3.040618E+04 -2.750950E+04  5.422728E+04  4.112809E+03 -8.697985E+03
       431  20 -6.757284E+05 -4.576729E+04 -4.186986E+04  4.613414E+04  2.032654E+02 -1.287568E+04
       431  21 -7.397541E+05 -6.254199E+04 -5.916488E+04  5.484154E+04 -3.708918E+03 -1.626978E+04
       431  22 -4.829140E+05  4.286197E+02 -3.211557E+03  5.489416E+04 -2.444028E+03 -8.719378E+03
       431  23 -4.825210E+05  1.533199E+02 -5.607068E+03  4.649690E+04 -5.226654E+03 -1.289292E+04
       431  24 -4.829230E+05 -1.339485E+03 -1.015371E+04  5.489990E+04 -8.012323E+03 -1.628301E+04
       431  25 -3.531225E+05  3.126247E+04  2.108582E+04  5.556116E+04 -9.002202E+03 -8.740782E+03
       431  26 -2.892774E+05  4.607178E+04  3.065422E+04  4.685975E+04 -1.065822E+04 -1.291017E+04
       431  27 -2.260283E+05  5.985915E+04  3.885455E+04  5.495823E+04 -1.231747E+04 -1.629623E+04
       432   1 -7.850260E+05 -7.126844E+04 -7.066432E+04  5.004678E+04  3.498746E+03  1.883266E+04
       432   2 -8.427215E+05 -9.400023E+04 -9.776016E+04  5.680467E+04  3.156485E+04  1.777865E+04
       432   3 -9.122786E+05 -1.491322E+05 -1.512628E+05  7.974002E+04  5.965984E+04  5.762084E+03
       432   4 -4.847763E+05  3.538732E+02 -1.318484E+04  5.473740E+04  9.744141E+03  1.885172E+04
       432   5 -4.802298E+05 -6.704213E+03 -2.365953E+04  4.671547E+04  2.204582E+04  1.774791E+04
       432   6 -4.848016E+05 -4.341316E+04 -4.957815E+04  5.487201E+04  3.437952E+04  5.683119E+03
       432   7 -1.844395E+05  7.197095E+04  4.429068E+04  5.943027E+04  1.599249E+04  1.887087E+04
       432   8 -1.176126E+05  8.058403E+04  5.043455E+04  3.662016E+04  1.252132E+04  1.771749E+04
       432   9 -5.715385E+04  6.229548E+04  5.209652E+04  2.998665E+04  9.081856E+03  5.606211E+03
       432  10 -7.850261E+05 -7.126882E+04 -7.066501E+04  5.004673E+04 -9.572689E-09  4.951138E-09
       432  11 -8.427227E+05 -9.400084E+04 -9.776263E+04  5.680422E+04 -2.251239E-09 -1.343291E-09
       432  12 -9.122824E+05 -1.491332E+05 -1.512696E+05  7.973974E+04 -9.087287E-10  2.155595E-11
       432  13 -4.847765E+05  3.534662E+02 -1.318569E+04  5.473725E+04 -3.758481E-10  7.131009E-09
       432  14 -4.802304E+05 -6.704682E+03 -2.366104E+04  4.671515E+04 -1.256534E-09 -9.488638E-09
       432  15 -4.848028E+05 -4.341352E+04 -4.958044E+04  5.487185E+04  2.242134E-09  2.697940E-09
       432  16 -1.844398E+05  7.197050E+04  4.428953E+04  5.943003E+04  7.661376E-09  1.154877E-09
       432  17 -1.176129E+05  8.058365E+04  5.043366E+04  3.661998E+04  8.957852E-10  1.669004E-09
       432  18 -5.715394E+04  6.229543E+04  5.209631E+04  2.998661E+04 -6.073200E-10  1.121386E-11
       432  19 -7.850260E+05 -7.126844E+04 -7.066432E+04  5.004678E+04 -3.498746E+03 -1.883266E+04
       432  20 -8.427215E+05 -9.400023E+04 -9.776016E+04  5.680467E+04 -3.156485E+04 -1.777865E+04
       432  21 -9.122786E+05 -1.491322E+05 -1.512628E+05  7.974002E+04 -5.965984E+04 -5.762084E+03
       432  22 -4.847763E+05  3.538732E+02 -1.318484E+04  5.473740E+04 -9.744141E+03 -1.885172E+04
       432  23 -4.802298E+05 -6.704213E+03 -2.365953E+04  4.671547E+04 -2.204582E+04 -1.774791E+04
       432  24 -4.848016E+05 -4.341316E+04 -4.957815E+04  5.487201E+04 -3.437952E+04 -5.683119E+03
       432  25 -1.844395E+05  7.197095E+04  4.429068E+04  5.943027E+04 -1.599249E+04 -1.887087E+04
       432  26 -1.176126E+05  8.058403E+04  5.043455E+04  3.662016E+04 -1.252132E+04 -1.771749E+04
       432  27 -5.715385E+04  6.229548E+04  5.209652E+04  2.998665E+04 -9.081856E+03 -5.606211E+03
       433   1 -8.437898E+04  5.574487E+04  4.641656E+04  2.869244E+03 -1.434404E+04 -4.932274E+03
       433   2 -1.118184E+05  8.138008E+04  5.472130E+04  7.976318E+03 -1.332352E+04 -1.550577E+04
       433   3 -1.472242E+05  7.587777E+04  5.458805E+04  2.502574E+04 -1.233148E+04 -1.642649E+04
       433   4 -4.516451E+05 -3.536248E+04 -4.234499E+04  1.940911E+04 -2.911736E+04 -4.976669E+03
       433   5 -4.468473E+05 -4.246616E+02 -1.938696E+04  1.338108E+04 -1.883563E+04 -1.552341E+04
       433   6 -4.516305E+05  1.757534E+03 -1.130515E+04  1.929609E+04 -8.582155E+03 -1.641508E+04
       433   7 -8.187867E+05 -1.264785E+05 -1.311152E+05  3.593908E+04 -4.388197E+04 -5.021865E+03
       433   8 -7.817712E+05 -8.223684E+04 -9.350201E+04  1.878280E+04 -2.434479E+04 -1.554115E+04
       433   9 -7.559498E+05 -7.236871E+04 -7.720378E+04  1.356922E+04 -4.834648E+03 -1.640373E+04
       433  10 -8.437920E+04  5.574479E+04  4.641613E+04  2.869187E+03  1.018875E-08  2.270234E-09
       433  11 -1.118187E+05  8.137978E+04  5.472051E+04  7.976152E+03 -2.605090E-09  1.279753E-08
       433  12 -1.472244E+05  7.587744E+04  5.458726E+04  2.502558E+04 -1.850870E-08  6.435162E-09
       433  13 -4.516460E+05 -3.536274E+04 -4.234663E+04  1.940900E+04 -1.433688E-09 -2.673490E-09
       433  14 -4.468478E+05 -4.250156E+02 -1.938808E+04  1.338084E+04 -9.564428E-10 -9.504513E-09
       433  15 -4.516307E+05  1.757225E+03 -1.130580E+04  1.929598E+04 -9.121242E-10  1.307685E-09
       433  16 -8.187888E+05 -1.264791E+05 -1.311189E+05  3.593890E+04 -9.582859E-09  6.265746E-10
       433  17 -7.817719E+05 -8.223725E+04 -9.350358E+04  1.878250E+04  2.227313E-10  7.335374E-09
       433  18 -7.559499E+05 -7.236901E+04 -7.720433E+04  1.356915E+04  1.757901E-08  1.981569E-09
       433  19 -8.437898E+04  5.574487E+04  4.641656E+04  2.869244E+03  1.434404E+04  4.932274E+03
       433  20 -1.118184E+05  8.138008E+04  5.472130E+04  7.976318E+03  1.332352E+04  1.550577E+04
       433  21 -1.472242E+05  7.587777E+04  5.458805E+04  2.502574E+04  1.233148E+04  1.642649E+04
       433  22 -4.516451E+05 -3.536248E+04 -4.234499E+04  1.940911E+04  2.911736E+04  4.976669E+03
       433  23 -4.468473E+05 -4.246616E+02 -1.938696E+04  1.338108E+04  1.883563E+04  1.552341E+04
       433  24 -4.516305E+05  1.757534E+03 -1.130515E+04  1.929609E+04  8.582155E+03  1.641508E+04
       433  25 -8.187867E+05 -1.264785E+05 -1.311152E+05  3.593908E+04  4.388197E+04  5.021865E+03
       433  26 -7.817712E+05 -8.223684E+04 -9.350201E+04  1.878280E+04  2.434479E+04  1.554115E+04
       433  27 -7.559498E+05 -7.236871E+04 -7.720378E+04  1.356922E+04  4.834648E+03  1.640373E+04
       434   1 -1.703989E+05  6.632703E+04  5.178839E+04  1.948098E+04 -8.014154E+03 -1.457981E+04
       434   2 -2.014776E+05  6.042726E+04  4.879941E+04  1.370987E+04 -5.998028E+03 -1.329804E+04
       434   3 -2.333050E+05  5.290705E+04  4.407423E+04  2.032387E+04 -3.983963E+03 -1.157517E+04
       434   4 -4.496827E+05 -1.695806E+03 -8.959669E+03  1.942625E+04 -6.999701E+03 -1.457703E+04
       434   5 -4.492679E+05  1.161309E+02 -4.871721E+03  1.323035E+04 -4.561228E+03 -1.329368E+04
       434   6 -4.496770E+05  2.337501E+02 -2.814138E+03  1.941989E+04 -2.124724E+03 -1.156916E+04
       434   7 -7.288932E+05 -6.972382E+04 -6.971240E+04  1.937148E+04 -5.985698E+03 -1.457424E+04
       434   8 -6.970006E+05 -6.019906E+04 -5.854649E+04  1.275098E+04 -3.124995E+03 -1.328933E+04
       434   9 -6.660051E+05 -5.244265E+04 -4.970527E+04  1.851620E+04 -2.661236E+02 -1.156316E+04
       434  10 -1.703990E+05  6.632678E+04  5.178787E+04  1.948089E+04 -2.304759E-09 -4.854536E-10
       434  11 -2.014777E+05  6.042706E+04  4.879901E+04  1.370981E+04 -9.031520E-10  5.908426E-09
       434  12 -2.333050E+05  5.290690E+04  4.407394E+04  2.032383E+04 -9.334034E-10  7.258822E-09
       434  13 -4.496828E+05 -1.696048E+03 -8.960161E+03  1.942617E+04 -2.156411E-09  1.316137E-08
       434  14 -4.492680E+05  1.159356E+02 -4.872092E+03  1.323030E+04 -8.637040E-10 -2.343856E-08
       434  15 -4.496771E+05  2.336052E+02 -2.814398E+03  1.941987E+04 -1.295766E-09  9.360640E-09
       434  16 -7.288933E+05 -6.972406E+04 -6.971286E+04  1.937141E+04  3.968773E-09 -7.139574E-09
       434  17 -6.970006E+05 -6.019925E+04 -5.854684E+04  1.275094E+04 -7.585734E-10 -6.507103E-09
       434  18 -6.660051E+05 -5.244279E+04 -4.970553E+04  1.851619E+04 -3.583763E-10  2.306648E-09
       434  19 -1.703989E+05  6.632703E+04  5.178839E+04  1.948098E+04  8.014154E+03  1.457981E+04
       434  20 -2.014776E+05  6.042726E+04  4.879941E+04  1.370987E+04  5.998028E+03  1.329804E+04
       434  21 -2.333050E+05  5.290705E+04  4.407423E+04  2.032387E+04  3.983963E+03  1.157517E+04
       434  22 -4.496827E+05 -1.695806E+03 -8.959669E+03  1.942625E+04  6.999701E+03  1.457703E+04
       434  23 -4.492679E+05  1.161309E+02 -4.871721E+03  1.323035E+04  4.561228E+03  1.329368E+04
       434  24 -4.496770E+05  2.337501E+02 -2.814138E+03  1.941989E+04  2.124724E+03  1.156916E+04
       434  25 -7.288932E+05 -6.972382E+04 -6.971240E+04  1.937148E+04  5.985698E+03  1.457424E+04
       434  26 -6.970006E+05 -6.019906E+04 -5.854649E+04  1.275098E+04  3.124995E+03  1.328933E+04
       434  27 -6.660051E+05 -5.244265E+04 -4.970527E+04  1.851620E+04  2.661236E+02  1.156316E+04
       435   1 -2.582087E+05  4.660235E+04  3.915537E+04  1.997376E+04 -3.427341E+03 -1.046533E+04
       435   2 -2.896929E+05  3.898586E+04  3.331197E+04  1.366628E+04 -2.836869E+03 -8.642507E+03
       435   3 -3.213555E+05  3.136060E+04  2.705812E+04  1.981515E+04 -2.246851E+03 -6.797790E+03
       435   4 -4.495323E+05  5.708929E+01 -2.161224E+03  1.943752E+04 -1.690106E+03 -1.045962E+04
       435   5 -4.494394E+05  1.098843E+02 -1.246023E+03  1.320908E+04 -1.078821E+03 -8.636567E+03
       435   6 -4.495291E+05  1.504400E+02 -7.556892E+02  1.943719E+04 -4.679608E+02 -6.791617E+03
       435   7 -6.408215E+05 -4.649058E+04 -4.347997E+04  1.890142E+04  4.660013E+01 -1.045390E+04
       435   8 -6.091620E+05 -3.876777E+04 -3.580552E+04  1.275199E+04  6.787799E+02 -8.630629E+03
       435   9 -5.776872E+05 -3.106081E+04 -2.857047E+04  1.905930E+04  1.310567E+03 -6.785446E+03
       435  10 -2.582087E+05  4.660222E+04  3.915514E+04  1.997373E+04 -1.346353E-08 -8.928903E-09
       435  11 -2.896929E+05  3.898577E+04  3.331182E+04  1.366626E+04 -7.413528E-10 -6.696880E-09
       435  12 -3.213555E+05  3.136055E+04  2.705803E+04  1.981514E+04  1.070520E-08 -1.117429E-09
       435  13 -4.495323E+05  5.697107E+01 -2.161435E+03  1.943750E+04 -1.712619E-09 -2.435958E-09
       435  14 -4.494394E+05  1.098039E+02 -1.246165E+03  1.320908E+04 -1.694559E-09 -1.144864E-08
       435  15 -4.495291E+05  1.503904E+02 -7.557763E+02  1.943719E+04 -1.060738E-09 -1.174863E-09
       435  16 -6.408215E+05 -4.649070E+04 -4.348017E+04  1.890142E+04  1.471576E-08 -5.075708E-09
       435  17 -6.091620E+05 -3.876785E+04 -3.580566E+04  1.275199E+04 -1.377149E-09  4.106748E-09
       435  18 -5.776872E+05 -3.106086E+04 -2.857056E+04  1.905930E+04 -1.218142E-08  7.672332E-09
       435  19 -2.582087E+05  4.660235E+04  3.915537E+04  1.997376E+04  3.427341E+03  1.046533E+04
       435  20 -2.896929E+05  3.898586E+04  3.331197E+04  1.366628E+04  2.836869E+03  8.642507E+03
       435  21 -3.213555E+05  3.136060E+04  2.705812E+04  1.981515E+04  2.246851E+03  6.797790E+03
       435  22 -4.495323E+05  5.708929E+01 -2.161224E+03  1.943752E+04  1.690106E+03  1.045962E+04
       435  23 -4.494394E+05  1.098843E+02 -1.246023E+03  1.320908E+04  1.078821E+03  8.636567E+03
       435  24 -4.495291E+05  1.504400E+02 -7.556892E+02  1.943719E+04  4.679608E+02  6.791617E+03
       435  25 -6.408215E+05 -4.649058E+04 -4.347997E+04  1.890142E+04 -4.660013E+01  1.045390E+04
       435  26 -6.091620E+05 -3.876777E+04 -3.580552E+04  1.275199E+04 -6.787799E+02  8.630629E+03
       435  27 -5.776872E+05 -3.106081E+04 -2.857047E+04  1.905930E+04 -1.310567E+03  6.785446E+03
       436   1 -3.464580E+05  2.520589E+04  2.159783E+04  1.973754E+04 -2.123219E+03 -5.718996E+03
       436   2 -3.780457E+05  1.748440E+04  1.500600E+04  1.340010E+04 -1.913277E+03 -3.868103E+03
       436   3 -4.097491E+05  9.844223E+03  8.271730E+03  1.954784E+04 -1.703514E+03 -2.015443E+03
       436   4 -4.495132E+05  1.432598E+02 -6.079953E+02  1.944368E+04 -3.486702E+02 -5.712767E+03
       436   5 -4.494541E+05  1.058406E+02 -4.412200E+02  1.320103E+04 -1.371035E+02 -3.861799E+03
       436   6 -4.495118E+05  1.494935E+02 -4.179934E+02  1.944365E+04  7.429531E+01 -2.009061E+03
       436   7 -5.525583E+05 -2.492006E+04 -2.281444E+04  1.914985E+04  1.425588E+03 -5.706539E+03
       436   8 -5.208576E+05 -1.727306E+04 -1.588873E+04  1.300198E+04  1.638868E+03 -3.855496E+03
       436   9 -4.892730E+05 -9.545340E+03 -9.107801E+03  1.933947E+04  1.851992E+03 -2.002679E+03
       436  10 -3.464580E+05  2.520585E+04  2.159776E+04  1.973753E+04  5.622837E-09 -5.379791E-09
       436  11 -3.780458E+05  1.748439E+04  1.500596E+04  1.340009E+04 -3.772704E-09  1.956556E-09
       436  12 -4.097491E+05  9.844218E+03  8.271717E+03  1.954784E+04 -1.131117E-08  4.177513E-09
       436  13 -4.495132E+05  1.432247E+02 -6.080568E+02  1.944367E+04 -2.025201E-09  2.223317E-09
       436  14 -4.494541E+05  1.058245E+02 -4.412480E+02  1.320103E+04 -1.559097E-09 -2.779879E-09
       436  15 -4.495118E+05  1.494892E+02 -4.180010E+02  1.944365E+04 -8.573219E-10 -5.620382E-09
       436  16 -5.525583E+05 -2.492010E+04 -2.281450E+04  1.914986E+04 -4.391521E-09  1.062245E-09
       436  17 -5.208576E+05 -1.727308E+04 -1.588876E+04  1.300199E+04  1.483394E-09  1.273525E-08
       436  18 -4.892730E+05 -9.545345E+03 -9.107815E+03  1.933947E+04  1.003978E-08  5.579134E-09
       436  19 -3.464580E+05  2.520589E+04  2.159783E+04  1.973754E+04  2.123219E+03  5.718996E+03
       436  20 -3.780457E+05  1.748440E+04  1.500600E+04  1.340010E+04  1.913277E+03  3.868103E+03
       436  21 -4.097491E+05  9.844223E+03  8.271730E+03  1.954784E+04  1.703514E+03  2.015443E+03
       436  22 -4.495132E+05  1.432598E+02 -6.079953E+02  1.944368E+04  3.486702E+02  5.712767E+03
       436  23 -4.494541E+05  1.058406E+02 -4.412200E+02  1.320103E+04  1.371035E+02  3.861799E+03
       436  24 -4.495118E+05  1.494935E+02 -4.179934E+02  1.944365E+04 -7.429531E+01  2.009061E+03
       436  25 -5.525583E+05 -2.492006E+04 -2.281444E+04  1.914985E+04 -1.425588E+03  5.706539E+03
       436  26 -5.208576E+05 -1.727306E+04 -1.588873E+04  1.300198E+04 -1.638868E+03  3.855496E+03
       436  27 -4.892730E+05 -9.545340E+03 -9.107801E+03  1.933947E+04 -1.851992E+03  2.002679E+03
       437   1 -4.349043E+05  3.687812E+03  2.617913E+03  1.947701E+04 -1.628522E+03 -9.366492E+02
       437   2 -4.664994E+05 -4.039398E+03 -4.328338E+03  1.312995E+04 -1.318118E+03  9.171547E+02
       437   3 -4.982262E+05 -1.169018E+04 -1.148421E+04  1.927503E+04 -1.007694E+03  2.770022E+03
       437   4 -4.495151E+05  1.495471E+02 -4.548816E+02  1.944517E+04  1.495377E+02 -9.302492E+02
       437   5 -4.494488E+05  1.106225E+02 -6.395894E+02  1.319912E+04  4.589956E+02  9.235325E+02
       437   6 -4.495155E+05  1.482320E+02 -1.033351E+03  1.944517E+04  7.684906E+02  2.776381E+03
       437   7 -4.641256E+05 -3.388730E+03 -3.527676E+03  1.941333E+04  1.927556E+03 -9.238492E+02
       437   8 -4.323979E+05  4.260626E+03  3.049154E+03  1.326829E+04  2.236158E+03  9.299107E+02
       437   9 -4.008025E+05  1.198649E+04  9.417382E+03  1.961533E+04  2.544812E+03  2.782742E+03
       437  10 -4.349043E+05  3.687810E+03  2.617906E+03  1.947700E+04  1.194193E-09 -1.238619E-10
       437  11 -4.664994E+05 -4.039400E+03 -4.328343E+03  1.312996E+04 -1.564285E-09 -6.432819E-09
       437  12 -4.982262E+05 -1.169019E+04 -1.148423E+04  1.927504E+04 -9.339795E-09 -5.234615E-09
       437  13 -4.495151E+05  1.495462E+02 -4.548833E+02  1.944517E+04 -2.329953E-09  9.162809E-09
       437  14 -4.494488E+05  1.106215E+02 -6.395914E+02  1.319912E+04 -2.204874E-09 -8.198185E-09
       437  15 -4.495155E+05  1.482236E+02 -1.033366E+03  1.944517E+04 -1.020817E-09 -5.940352E-09
       437  16 -4.641256E+05 -3.388732E+03 -3.527685E+03  1.941333E+04 -4.271944E-10  1.487805E-09
       437  17 -4.323979E+05  4.260623E+03  3.049143E+03  1.326828E+04  1.077160E-10 -1.237264E-08
       437  18 -4.008025E+05  1.198648E+04  9.417355E+03  1.961532E+04  8.396058E-09 -6.879107E-09
       437  19 -4.349043E+05  3.687812E+03  2.617913E+03  1.947701E+04  1.628522E+03  9.366492E+02
       437  20 -4.664994E+05 -4.039398E+03 -4.328338E+03  1.312995E+04  1.318118E+03 -9.171547E+02
       437  21 -4.982262E+05 -1.169018E+04 -1.148421E+04  1.927503E+04  1.007694E+03 -2.770022E+03
       437  22 -4.495151E+05  1.495471E+02 -4.548816E+02  1.944517E+04 -1.495377E+02  9.302492E+02
       437  23 -4.494488E+05  1.106225E+02 -6.395894E+02  1.319912E+04 -4.589956E+02 -9.235325E+02
       437  24 -4.495155E+05  1.482320E+02 -1.033351E+03  1.944517E+04 -7.684906E+02 -2.776381E+03
       437  25 -4.641256E+05 -3.388730E+03 -3.527676E+03  1.941333E+04 -1.927556E+03  9.238492E+02
       437  26 -4.323979E+05  4.260626E+03  3.049154E+03  1.326829E+04 -2.236158E+03 -9.299107E+02
       437  27 -4.008025E+05  1.198649E+04  9.417382E+03  1.961533E+04 -2.544812E+03 -2.782742E+03
       438   1 -5.234011E+05 -1.783101E+04 -1.740309E+04  1.916934E+04 -8.017287E+02  3.850194E+03
       438   2 -5.548814E+05 -2.554230E+04 -2.511271E+04  1.284638E+04  3.446736E+02  5.700706E+03
       438   3 -5.866425E+05 -3.335472E+04 -3.362004E+04  1.899857E+04  1.491336E+03  7.532803E+03
       438   4 -4.495484E+05  1.621870E+02 -1.337623E+03  1.944119E+04  9.785666E+02  3.856530E+03
       438   5 -4.494105E+05  1.298702E+02 -2.291758E+03  1.320397E+04  2.107451E+03  5.706874E+03
       438   6 -4.495508E+05 -3.151455E-01 -4.031152E+03  1.944177E+04  3.236652E+03  7.538807E+03
       438   7 -3.756907E+05  1.815502E+04  1.472752E+04  1.971306E+04  2.759071E+03  3.862868E+03
       438   8 -3.439292E+05  2.580131E+04  2.052854E+04  1.356162E+04  3.870524E+03  5.713043E+03
       438   9 -3.124414E+05  3.335285E+04  2.555664E+04  1.988506E+04  4.982350E+03  7.544814E+03
       438  10 -5.234011E+05 -1.783103E+04 -1.740311E+04  1.916935E+04 -8.133270E-09 -3.707007E-09
       438  11 -5.548814E+05 -2.554233E+04 -2.511277E+04  1.284638E+04 -2.943360E-09 -8.636214E-09
       438  12 -5.866425E+05 -3.335478E+04 -3.362015E+04  1.899856E+04  6.451265E-10 -4.300594E-09
       438  13 -4.495484E+05  1.621708E+02 -1.337653E+03  1.944119E+04 -1.926296E-09  6.409019E-10
       438  14 -4.494105E+05  1.298340E+02 -2.291827E+03  1.320396E+04 -2.095356E-09 -2.875880E-09
       438  15 -4.495508E+05 -3.789757E-01 -4.031278E+03  1.944175E+04 -1.290839E-09 -3.282813E-09
       438  16 -3.756907E+05  1.815501E+04  1.472748E+04  1.971305E+04  8.850703E-09  9.298750E-09
       438  17 -3.439292E+05  2.580127E+04  2.052845E+04  1.356160E+04  1.822703E-09 -5.616913E-09
       438  18 -3.124414E+05  3.335278E+04  2.555649E+04  1.988503E+04 -1.663462E-09  3.381032E-09
       438  19 -5.234011E+05 -1.783101E+04 -1.740309E+04  1.916934E+04  8.017287E+02 -3.850194E+03
       438  20 -5.548814E+05 -2.554230E+04 -2.511271E+04  1.284638E+04 -3.446736E+02 -5.700706E+03
       438  21 -5.866425E+05 -3.335472E+04 -3.362004E+04  1.899857E+04 -1.491336E+03 -7.532803E+03
       438  22 -4.495484E+05  1.621870E+02 -1.337623E+03  1.944119E+04 -9.785666E+02 -3.856530E+03
       438  23 -4.494105E+05  1.298702E+02 -2.291758E+03  1.320397E+04 -2.107451E+03 -5.706874E+03
       438  24 -4.495508E+05 -3.151454E-01 -4.031152E+03  1.944177E+04 -3.236652E+03 -7.538807E+03
       438  25 -3.756907E+05  1.815502E+04  1.472752E+04  1.971306E+04 -2.759071E+03 -3.862868E+03
       438  26 -3.439292E+05  2.580131E+04  2.052854E+04  1.356162E+04 -3.870524E+03 -5.713043E+03
       438  27 -3.124414E+05  3.335285E+04  2.555664E+04  1.988506E+04 -4.982350E+03 -7.544814E+03
       439   1 -6.120074E+05 -3.916588E+04 -4.044054E+04  1.834265E+04  2.201274E+03  8.640877E+03
       439   2 -6.427587E+05 -4.699817E+04 -5.110161E+04  1.297875E+04  7.136029E+03  1.039676E+04
       439   3 -6.750761E+05 -5.814847E+04 -6.582975E+04  2.004275E+04  1.207219E+04  1.177393E+04
       439   4 -4.498247E+05  3.326519E+02 -5.264526E+03  1.942773E+04  4.051592E+03  8.647158E+03
       439   5 -4.490756E+05  1.560338E+02 -9.133241E+03  1.322002E+04  8.624336E+03  1.040160E+04
       439   6 -4.498302E+05 -3.274957E+03 -1.681646E+04  1.944003E+04  1.319873E+04  1.177738E+04
       439   7 -2.876173E+05  3.982945E+04  2.990994E+04  2.051307E+04  5.902387E+03  8.653444E+03
       439   8 -2.553574E+05  4.730775E+04  3.283291E+04  1.346135E+04  1.011310E+04  1.040644E+04
       439   9 -2.245365E+05  5.159519E+04  3.219379E+04  1.883705E+04  1.432567E+04  1.178082E+04
       439  10 -6.120074E+05 -3.916596E+04 -4.044069E+04  1.834263E+04  9.212969E-09 -2.077263E-09
       439  11 -6.427588E+05 -4.699830E+04 -5.110191E+04  1.297869E+04  2.063497E-09  1.169103E-08
       439  12 -6.750763E+05 -5.814866E+04 -6.583028E+04  2.004264E+04 -1.337792E-09 -3.598700E-10
       439  13 -4.498247E+05  3.325672E+02 -5.264697E+03  1.942770E+04 -1.570550E-09 -9.435633E-09
       439  14 -4.490757E+05  1.558976E+02 -9.133584E+03  1.321995E+04 -2.331248E-09  5.470218E-09
       439  15 -4.498304E+05 -3.275152E+03 -1.681705E+04  1.943991E+04 -1.218224E-09 -1.650509E-09
       439  16 -2.876173E+05  3.982936E+04  2.990973E+04  2.051303E+04 -8.189792E-09 -7.950008E-09
       439  17 -2.553575E+05  4.730761E+04  3.283251E+04  1.346126E+04 -4.343420E-09 -1.576367E-08
       439  18 -2.245368E+05  5.159499E+04  3.219315E+04  1.883691E+04  2.005436E-10  1.719753E-09
       439  19 -6.120074E+05 -3.916588E+04 -4.044054E+04  1.834265E+04 -2.201274E+03 -8.640877E+03
       439  20 -6.427587E+05 -4.699817E+04 -5.110161E+04  1.297875E+04 -7.136029E+03 -1.039676E+04
       439  21 -6.750761E+05 -5.814847E+04 -6.582975E+04  2.004275E+04 -1.207219E+04 -1.177393E+04
       439  22 -4.498247E+05  3.326519E+02 -5.264526E+03  1.942773E+04 -4.051592E+03 -8.647158E+03
       439  23 -4.490756E+05  1.560338E+02 -9.133241E+03  1.322002E+04 -8.624336E+03 -1.040160E+04
       439  24 -4.498302E+05 -3.274957E+03 -1.681646E+04  1.944003E+04 -1.319873E+04 -1.177738E+04
       439  25 -2.876173E+05  3.982945E+04  2.990994E+04  2.051307E+04 -5.902387E+03 -8.653444E+03
       439  26 -2.553574E+05  4.730775E+04  3.283291E+04  1.346135E+04 -1.011310E+04 -1.040644E+04
       439  27 -2.245365E+05  5.159519E+04  3.219379E+04  1.883705E+04 -1.432567E+04 -1.178082E+04
       440   1 -7.038631E+05 -5.781780E+04 -7.546017E+04  9.297246E+03  1.269991E+04  1.350432E+04
       440   2 -7.257772E+05 -6.949750E+04 -9.865352E+04  2.427516E+04  3.989031E+04  1.306576E+04
       440   3 -7.670574E+05 -1.441618E+05 -1.553219E+05  5.137612E+04  6.710438E+04  4.335729E+03
       440   4 -4.534912E+05  3.213738E+03 -2.122302E+04  1.930992E+04  1.617443E+04  1.351563E+04
       440   5 -4.445123E+05 -8.421349E+02 -3.639289E+04  1.335925E+04  3.541837E+04  1.305018E+04
       440   6 -4.535120E+05 -6.648812E+04 -7.950722E+04  1.953311E+04  5.468783E+04  4.293106E+03
       440   7 -2.030602E+05  6.424150E+04  3.301049E+04  2.932664E+04  1.965034E+04  1.352705E+04
       440   8 -1.631730E+05  6.780838E+04  2.586300E+04  2.438273E+03  3.094442E+04  1.303476E+04
       440   9 -1.398740E+05  1.118232E+04 -3.698420E+03 -1.232612E+04  4.226502E+04  4.251770E+03
       440  10 -7.038633E+05 -5.781804E+04 -7.546081E+04  9.297107E+03  2.474111E-08 -4.078395E-09
       440  11 -7.257790E+05 -6.949811E+04 -9.865684E+04  2.427474E+04  5.307038E-09 -2.678788E-09
       440  12 -7.670623E+05 -1.441630E+05 -1.553304E+05  5.137589E+04 -1.699499E-08  6.230361E-09
       440  13 -4.534915E+05  3.213472E+03 -2.122386E+04  1.930974E+04 -1.743657E-09  1.862996E-10
       440  14 -4.445137E+05 -8.426549E+02 -3.639557E+04  1.335887E+04 -1.657836E-09 -2.657541E-09
       440  15 -4.535152E+05 -6.648895E+04 -7.951288E+04  1.953292E+04 -1.222114E-09  6.598739E-09
       440  16 -2.030606E+05  6.424120E+04  3.300942E+04  2.932643E+04 -2.380624E-08  4.202645E-09
       440  17 -1.631741E+05  6.780794E+04  2.586088E+04  2.437948E+03 -6.875172E-09  8.227747E-09
       440  18 -1.398759E+05  1.118182E+04 -3.701812E+03 -1.232627E+04  1.548910E-08 -1.178795E-09
       440  19 -7.038631E+05 -5.781780E+04 -7.546017E+04  9.297246E+03 -1.269991E+04 -1.350432E+04
       440  20 -7.257772E+05 -6.949750E+04 -9.865352E+04  2.427516E+04 -3.989031E+04 -1.306576E+04
       440  21 -7.670574E+05 -1.441618E+05 -1.553219E+05  5.137612E+04 -6.710438E+04 -4.335729E+03
       440  22 -4.534912E+05  3.213738E+03 -2.122302E+04  1.930992E+04 -1.617443E+04 -1.351563E+04
       440  23 -4.445123E+05 -8.421349E+02 -3.639289E+04  1.335925E+04 -3.541837E+04 -1.305018E+04
       440  24 -4.535120E+05 -6.648812E+04 -7.950722E+04  1.953311E+04 -5.468783E+04 -4.293106E+03
       440  25 -2.030602E+05  6.424150E+04  3.301049E+04  2.932664E+04 -1.965034E+04 -1.352705E+04
       440  26 -1.631730E+05  6.780838E+04  2.586300E+04  2.438273E+03 -3.094442E+04 -1.303476E+04
       440  27 -1.398740E+05  1.118232E+04 -3.698420E+03 -1.232612E+04 -4.226502E+04 -4.251770E+03
