    1C
    1UUSER                                                              
    1UDATE              11.october.2022                                 
    1UTIME              17:31:42                                        
    1UHOST                                                              
    1UPGM               CalculiX                                        
    1UVERSION           Version 2.20                             
    1UCOMPILETIME       Sun Jul 31 18:08:37 CEST 2022                    
    1UDIR                                                               
    1UDBN                                                               
    1UMAT    1MESH_MATERIAL                                             
    2C                           841                                     1
 -1         1 0.00000E+00 0.00000E+00 0.00000E+00
 -1         2 1.66667E-02 0.00000E+00 0.00000E+00
 -1         3 3.33333E-02 0.00000E+00 0.00000E+00
 -1         4 5.00000E-02 0.00000E+00 0.00000E+00
 -1         5 6.66667E-02 0.00000E+00 0.00000E+00
 -1         8 0.00000E+00 6.25000E-03 0.00000E+00
 -1         9 1.66667E-02 6.25000E-03 0.00000E+00
 -1        10 3.33333E-02 6.25000E-03 0.00000E+00
 -1        11 5.00000E-02 6.25000E-03 0.00000E+00
 -1        12 6.66667E-02 6.25000E-03 0.00000E+00
 -1        15 0.00000E+00 1.25000E-02 0.00000E+00
 -1        16 1.66667E-02 1.25000E-02 0.00000E+00
 -1        17 3.33333E-02 1.25000E-02 0.00000E+00
 -1        18 5.00000E-02 1.25000E-02 0.00000E+00
 -1        19 6.66667E-02 1.25000E-02 0.00000E+00
 -1        20 8.33333E-02 1.25000E-02 0.00000E+00
 -1        21 1.00000E-01 1.25000E-02 0.00000E+00
 -1        22 0.00000E+00 1.87500E-02 0.00000E+00
 -1        23 1.66667E-02 1.87500E-02 0.00000E+00
 -1        24 3.33333E-02 1.87500E-02 0.00000E+00
 -1        25 5.00000E-02 1.87500E-02 0.00000E+00
 -1        26 6.66667E-02 1.87500E-02 0.00000E+00
 -1        27 8.33333E-02 1.87500E-02 0.00000E+00
 -1        28 1.00000E-01 1.87500E-02 0.00000E+00
 -1        29 0.00000E+00 2.50000E-02 0.00000E+00
 -1        30 1.66667E-02 2.50000E-02 0.00000E+00
 -1        31 3.33333E-02 2.50000E-02 0.00000E+00
 -1        32 5.00000E-02 2.50000E-02 0.00000E+00
 -1        33 6.66667E-02 2.50000E-02 0.00000E+00
 -1        34 8.33333E-02 2.50000E-02 0.00000E+00
 -1        35 1.00000E-01 2.50000E-02 0.00000E+00
 -1        36 1.04167E-03 0.00000E+00 0.00000E+00
 -1        37 2.08333E-03 0.00000E+00 0.00000E+00
 -1        38 3.12500E-03 0.00000E+00 0.00000E+00
 -1        39 4.16667E-03 0.00000E+00 0.00000E+00
 -1        40 5.20833E-03 0.00000E+00 0.00000E+00
 -1        41 6.25000E-03 0.00000E+00 0.00000E+00
 -1        42 7.29167E-03 0.00000E+00 0.00000E+00
 -1        43 8.33333E-03 0.00000E+00 0.00000E+00
 -1        44 9.37500E-03 0.00000E+00 0.00000E+00
 -1        45 1.04167E-02 0.00000E+00 0.00000E+00
 -1        46 1.14583E-02 0.00000E+00 0.00000E+00
 -1        47 1.25000E-02 0.00000E+00 0.00000E+00
 -1        48 1.35417E-02 0.00000E+00 0.00000E+00
 -1        49 1.45833E-02 0.00000E+00 0.00000E+00
 -1        50 1.56250E-02 0.00000E+00 0.00000E+00
 -1        51 0.00000E+00 1.04167E-03 0.00000E+00
 -1        52 0.00000E+00 2.08333E-03 0.00000E+00
 -1        53 0.00000E+00 3.12500E-03 0.00000E+00
 -1        54 0.00000E+00 4.16667E-03 0.00000E+00
 -1        55 0.00000E+00 5.20833E-03 0.00000E+00
 -1        56 1.04167E-03 3.90630E-04 0.00000E+00
 -1        57 2.08333E-03 7.81250E-04 0.00000E+00
 -1        58 3.12500E-03 1.17188E-03 0.00000E+00
 -1        59 4.16667E-03 1.56250E-03 0.00000E+00
 -1        60 5.20833E-03 1.95312E-03 0.00000E+00
 -1        61 6.25000E-03 2.34375E-03 0.00000E+00
 -1        62 7.29167E-03 2.73438E-03 0.00000E+00
 -1        63 8.33333E-03 3.12500E-03 0.00000E+00
 -1        64 9.37500E-03 3.51563E-03 0.00000E+00
 -1        65 1.04167E-02 3.90625E-03 0.00000E+00
 -1        66 1.14583E-02 4.29688E-03 0.00000E+00
 -1        67 1.25000E-02 4.68750E-03 0.00000E+00
 -1        68 1.35417E-02 5.07813E-03 0.00000E+00
 -1        69 1.45833E-02 5.46875E-03 0.00000E+00
 -1        70 1.56250E-02 5.85938E-03 0.00000E+00
 -1        71 1.77083E-02 0.00000E+00 0.00000E+00
 -1        72 1.87500E-02 0.00000E+00 0.00000E+00
 -1        73 1.97917E-02 0.00000E+00 0.00000E+00
 -1        74 2.08333E-02 0.00000E+00 0.00000E+00
 -1        75 2.18750E-02 0.00000E+00 0.00000E+00
 -1        76 2.29167E-02 0.00000E+00 0.00000E+00
 -1        77 2.39583E-02 0.00000E+00 0.00000E+00
 -1        78 2.50000E-02 0.00000E+00 0.00000E+00
 -1        79 2.60417E-02 0.00000E+00 0.00000E+00
 -1        80 2.70833E-02 0.00000E+00 0.00000E+00
 -1        81 2.81250E-02 0.00000E+00 0.00000E+00
 -1        82 2.91667E-02 0.00000E+00 0.00000E+00
 -1        83 3.02083E-02 0.00000E+00 0.00000E+00
 -1        84 3.12500E-02 0.00000E+00 0.00000E+00
 -1        85 3.22917E-02 0.00000E+00 0.00000E+00
 -1        86 1.66667E-02 1.04167E-03 0.00000E+00
 -1        87 1.66667E-02 2.08333E-03 0.00000E+00
 -1        88 1.66667E-02 3.12500E-03 0.00000E+00
 -1        89 1.66667E-02 4.16667E-03 0.00000E+00
 -1        90 1.66667E-02 5.20833E-03 0.00000E+00
 -1        91 1.77083E-02 3.90630E-04 0.00000E+00
 -1        92 1.87500E-02 7.81250E-04 0.00000E+00
 -1        93 1.97917E-02 1.17188E-03 0.00000E+00
 -1        94 2.08333E-02 1.56250E-03 0.00000E+00
 -1        95 2.18750E-02 1.95312E-03 0.00000E+00
 -1        96 2.29167E-02 2.34375E-03 0.00000E+00
 -1        97 2.39583E-02 2.73438E-03 0.00000E+00
 -1        98 2.50000E-02 3.12500E-03 0.00000E+00
 -1        99 2.60417E-02 3.51563E-03 0.00000E+00
 -1       100 2.70833E-02 3.90625E-03 0.00000E+00
 -1       101 2.81250E-02 4.29688E-03 0.00000E+00
 -1       102 2.91667E-02 4.68750E-03 0.00000E+00
 -1       103 3.02083E-02 5.07813E-03 0.00000E+00
 -1       104 3.12500E-02 5.46875E-03 0.00000E+00
 -1       105 3.22917E-02 5.85938E-03 0.00000E+00
 -1       106 3.43750E-02 0.00000E+00 0.00000E+00
 -1       107 3.54167E-02 0.00000E+00 0.00000E+00
 -1       108 3.64583E-02 0.00000E+00 0.00000E+00
 -1       109 3.75000E-02 0.00000E+00 0.00000E+00
 -1       110 3.85417E-02 0.00000E+00 0.00000E+00
 -1       111 3.95833E-02 0.00000E+00 0.00000E+00
 -1       112 4.06250E-02 0.00000E+00 0.00000E+00
 -1       113 4.16667E-02 0.00000E+00 0.00000E+00
 -1       114 4.27083E-02 0.00000E+00 0.00000E+00
 -1       115 4.37500E-02 0.00000E+00 0.00000E+00
 -1       116 4.47917E-02 0.00000E+00 0.00000E+00
 -1       117 4.58333E-02 0.00000E+00 0.00000E+00
 -1       118 4.68750E-02 0.00000E+00 0.00000E+00
 -1       119 4.79167E-02 0.00000E+00 0.00000E+00
 -1       120 4.89583E-02 0.00000E+00 0.00000E+00
 -1       121 3.33333E-02 1.04167E-03 0.00000E+00
 -1       122 3.33333E-02 2.08333E-03 0.00000E+00
 -1       123 3.33333E-02 3.12500E-03 0.00000E+00
 -1       124 3.33333E-02 4.16667E-03 0.00000E+00
 -1       125 3.33333E-02 5.20833E-03 0.00000E+00
 -1       126 3.43750E-02 3.90630E-04 0.00000E+00
 -1       127 3.54167E-02 7.81250E-04 0.00000E+00
 -1       128 3.64583E-02 1.17188E-03 0.00000E+00
 -1       129 3.75000E-02 1.56250E-03 0.00000E+00
 -1       130 3.85417E-02 1.95312E-03 0.00000E+00
 -1       131 3.95833E-02 2.34375E-03 0.00000E+00
 -1       132 4.06250E-02 2.73438E-03 0.00000E+00
 -1       133 4.16667E-02 3.12500E-03 0.00000E+00
 -1       134 4.27083E-02 3.51563E-03 0.00000E+00
 -1       135 4.37500E-02 3.90625E-03 0.00000E+00
 -1       136 4.47917E-02 4.29688E-03 0.00000E+00
 -1       137 4.58333E-02 4.68750E-03 0.00000E+00
 -1       138 4.68750E-02 5.07813E-03 0.00000E+00
 -1       139 4.79167E-02 5.46875E-03 0.00000E+00
 -1       140 4.89583E-02 5.85938E-03 0.00000E+00
 -1       141 5.10417E-02 0.00000E+00 0.00000E+00
 -1       142 5.20833E-02 0.00000E+00 0.00000E+00
 -1       143 5.31250E-02 0.00000E+00 0.00000E+00
 -1       144 5.41667E-02 0.00000E+00 0.00000E+00
 -1       145 5.52083E-02 0.00000E+00 0.00000E+00
 -1       146 5.62500E-02 0.00000E+00 0.00000E+00
 -1       147 5.72917E-02 0.00000E+00 0.00000E+00
 -1       148 5.83333E-02 0.00000E+00 0.00000E+00
 -1       149 5.93750E-02 0.00000E+00 0.00000E+00
 -1       150 6.04167E-02 0.00000E+00 0.00000E+00
 -1       151 6.14583E-02 0.00000E+00 0.00000E+00
 -1       152 6.25000E-02 0.00000E+00 0.00000E+00
 -1       153 6.35417E-02 0.00000E+00 0.00000E+00
 -1       154 6.45833E-02 0.00000E+00 0.00000E+00
 -1       155 6.56250E-02 0.00000E+00 0.00000E+00
 -1       156 5.00000E-02 1.04167E-03 0.00000E+00
 -1       157 5.00000E-02 2.08333E-03 0.00000E+00
 -1       158 5.00000E-02 3.12500E-03 0.00000E+00
 -1       159 5.00000E-02 4.16667E-03 0.00000E+00
 -1       160 5.00000E-02 5.20833E-03 0.00000E+00
 -1       161 5.10417E-02 3.90630E-04 0.00000E+00
 -1       162 5.20833E-02 7.81250E-04 0.00000E+00
 -1       163 5.31250E-02 1.17188E-03 0.00000E+00
 -1       164 5.41667E-02 1.56250E-03 0.00000E+00
 -1       165 5.52083E-02 1.95312E-03 0.00000E+00
 -1       166 5.62500E-02 2.34375E-03 0.00000E+00
 -1       167 5.72917E-02 2.73438E-03 0.00000E+00
 -1       168 5.83333E-02 3.12500E-03 0.00000E+00
 -1       169 5.93750E-02 3.51563E-03 0.00000E+00
 -1       170 6.04167E-02 3.90625E-03 0.00000E+00
 -1       171 6.14583E-02 4.29688E-03 0.00000E+00
 -1       172 6.25000E-02 4.68750E-03 0.00000E+00
 -1       173 6.35417E-02 5.07813E-03 0.00000E+00
 -1       174 6.45833E-02 5.46875E-03 0.00000E+00
 -1       175 6.56250E-02 5.85938E-03 0.00000E+00
 -1       191 6.66667E-02 1.04167E-03 0.00000E+00
 -1       192 6.66667E-02 2.08333E-03 0.00000E+00
 -1       193 6.66667E-02 3.12500E-03 0.00000E+00
 -1       194 6.66667E-02 4.16667E-03 0.00000E+00
 -1       195 6.66667E-02 5.20833E-03 0.00000E+00
 -1       251 1.04167E-03 6.25000E-03 0.00000E+00
 -1       252 2.08333E-03 6.25000E-03 0.00000E+00
 -1       253 3.12500E-03 6.25000E-03 0.00000E+00
 -1       254 4.16667E-03 6.25000E-03 0.00000E+00
 -1       255 5.20833E-03 6.25000E-03 0.00000E+00
 -1       256 6.25000E-03 6.25000E-03 0.00000E+00
 -1       257 7.29167E-03 6.25000E-03 0.00000E+00
 -1       258 8.33333E-03 6.25000E-03 0.00000E+00
 -1       259 9.37500E-03 6.25000E-03 0.00000E+00
 -1       260 1.04167E-02 6.25000E-03 0.00000E+00
 -1       261 1.14583E-02 6.25000E-03 0.00000E+00
 -1       262 1.25000E-02 6.25000E-03 0.00000E+00
 -1       263 1.35417E-02 6.25000E-03 0.00000E+00
 -1       264 1.45833E-02 6.25000E-03 0.00000E+00
 -1       265 1.56250E-02 6.25000E-03 0.00000E+00
 -1       266 0.00000E+00 7.29167E-03 0.00000E+00
 -1       267 0.00000E+00 8.33333E-03 0.00000E+00
 -1       268 0.00000E+00 9.37500E-03 0.00000E+00
 -1       269 0.00000E+00 1.04167E-02 0.00000E+00
 -1       270 0.00000E+00 1.14583E-02 0.00000E+00
 -1       271 1.04167E-03 6.64063E-03 0.00000E+00
 -1       272 2.08333E-03 7.03125E-03 0.00000E+00
 -1       273 3.12500E-03 7.42188E-03 0.00000E+00
 -1       274 4.16667E-03 7.81250E-03 0.00000E+00
 -1       275 5.20833E-03 8.20313E-03 0.00000E+00
 -1       276 6.25000E-03 8.59375E-03 0.00000E+00
 -1       277 7.29167E-03 8.98438E-03 0.00000E+00
 -1       278 8.33333E-03 9.37500E-03 0.00000E+00
 -1       279 9.37500E-03 9.76562E-03 0.00000E+00
 -1       280 1.04167E-02 1.01562E-02 0.00000E+00
 -1       281 1.14583E-02 1.05469E-02 0.00000E+00
 -1       282 1.25000E-02 1.09375E-02 0.00000E+00
 -1       283 1.35417E-02 1.13281E-02 0.00000E+00
 -1       284 1.45833E-02 1.17188E-02 0.00000E+00
 -1       285 1.56250E-02 1.21094E-02 0.00000E+00
 -1       286 1.77083E-02 6.25000E-03 0.00000E+00
 -1       287 1.87500E-02 6.25000E-03 0.00000E+00
 -1       288 1.97917E-02 6.25000E-03 0.00000E+00
 -1       289 2.08333E-02 6.25000E-03 0.00000E+00
 -1       290 2.18750E-02 6.25000E-03 0.00000E+00
 -1       291 2.29167E-02 6.25000E-03 0.00000E+00
 -1       292 2.39583E-02 6.25000E-03 0.00000E+00
 -1       293 2.50000E-02 6.25000E-03 0.00000E+00
 -1       294 2.60417E-02 6.25000E-03 0.00000E+00
 -1       295 2.70833E-02 6.25000E-03 0.00000E+00
 -1       296 2.81250E-02 6.25000E-03 0.00000E+00
 -1       297 2.91667E-02 6.25000E-03 0.00000E+00
 -1       298 3.02083E-02 6.25000E-03 0.00000E+00
 -1       299 3.12500E-02 6.25000E-03 0.00000E+00
 -1       300 3.22917E-02 6.25000E-03 0.00000E+00
 -1       301 1.66667E-02 7.29167E-03 0.00000E+00
 -1       302 1.66667E-02 8.33333E-03 0.00000E+00
 -1       303 1.66667E-02 9.37500E-03 0.00000E+00
 -1       304 1.66667E-02 1.04167E-02 0.00000E+00
 -1       305 1.66667E-02 1.14583E-02 0.00000E+00
 -1       306 1.77083E-02 6.64063E-03 0.00000E+00
 -1       307 1.87500E-02 7.03125E-03 0.00000E+00
 -1       308 1.97917E-02 7.42188E-03 0.00000E+00
 -1       309 2.08333E-02 7.81250E-03 0.00000E+00
 -1       310 2.18750E-02 8.20313E-03 0.00000E+00
 -1       311 2.29167E-02 8.59375E-03 0.00000E+00
 -1       312 2.39583E-02 8.98438E-03 0.00000E+00
 -1       313 2.50000E-02 9.37500E-03 0.00000E+00
 -1       314 2.60417E-02 9.76562E-03 0.00000E+00
 -1       315 2.70833E-02 1.01562E-02 0.00000E+00
 -1       316 2.81250E-02 1.05469E-02 0.00000E+00
 -1       317 2.91667E-02 1.09375E-02 0.00000E+00
 -1       318 3.02083E-02 1.13281E-02 0.00000E+00
 -1       319 3.12500E-02 1.17188E-02 0.00000E+00
 -1       320 3.22917E-02 1.21094E-02 0.00000E+00
 -1       321 3.43750E-02 6.25000E-03 0.00000E+00
 -1       322 3.54167E-02 6.25000E-03 0.00000E+00
 -1       323 3.64583E-02 6.25000E-03 0.00000E+00
 -1       324 3.75000E-02 6.25000E-03 0.00000E+00
 -1       325 3.85417E-02 6.25000E-03 0.00000E+00
 -1       326 3.95833E-02 6.25000E-03 0.00000E+00
 -1       327 4.06250E-02 6.25000E-03 0.00000E+00
 -1       328 4.16667E-02 6.25000E-03 0.00000E+00
 -1       329 4.27083E-02 6.25000E-03 0.00000E+00
 -1       330 4.37500E-02 6.25000E-03 0.00000E+00
 -1       331 4.47917E-02 6.25000E-03 0.00000E+00
 -1       332 4.58333E-02 6.25000E-03 0.00000E+00
 -1       333 4.68750E-02 6.25000E-03 0.00000E+00
 -1       334 4.79167E-02 6.25000E-03 0.00000E+00
 -1       335 4.89583E-02 6.25000E-03 0.00000E+00
 -1       336 3.33333E-02 7.29167E-03 0.00000E+00
 -1       337 3.33333E-02 8.33333E-03 0.00000E+00
 -1       338 3.33333E-02 9.37500E-03 0.00000E+00
 -1       339 3.33333E-02 1.04167E-02 0.00000E+00
 -1       340 3.33333E-02 1.14583E-02 0.00000E+00
 -1       341 3.43750E-02 6.64063E-03 0.00000E+00
 -1       342 3.54167E-02 7.03125E-03 0.00000E+00
 -1       343 3.64583E-02 7.42188E-03 0.00000E+00
 -1       344 3.75000E-02 7.81250E-03 0.00000E+00
 -1       345 3.85417E-02 8.20313E-03 0.00000E+00
 -1       346 3.95833E-02 8.59375E-03 0.00000E+00
 -1       347 4.06250E-02 8.98438E-03 0.00000E+00
 -1       348 4.16667E-02 9.37500E-03 0.00000E+00
 -1       349 4.27083E-02 9.76562E-03 0.00000E+00
 -1       350 4.37500E-02 1.01562E-02 0.00000E+00
 -1       351 4.47917E-02 1.05469E-02 0.00000E+00
 -1       352 4.58333E-02 1.09375E-02 0.00000E+00
 -1       353 4.68750E-02 1.13281E-02 0.00000E+00
 -1       354 4.79167E-02 1.17188E-02 0.00000E+00
 -1       355 4.89583E-02 1.21094E-02 0.00000E+00
 -1       356 5.10417E-02 6.25000E-03 0.00000E+00
 -1       357 5.20833E-02 6.25000E-03 0.00000E+00
 -1       358 5.31250E-02 6.25000E-03 0.00000E+00
 -1       359 5.41667E-02 6.25000E-03 0.00000E+00
 -1       360 5.52083E-02 6.25000E-03 0.00000E+00
 -1       361 5.62500E-02 6.25000E-03 0.00000E+00
 -1       362 5.72917E-02 6.25000E-03 0.00000E+00
 -1       363 5.83333E-02 6.25000E-03 0.00000E+00
 -1       364 5.93750E-02 6.25000E-03 0.00000E+00
 -1       365 6.04167E-02 6.25000E-03 0.00000E+00
 -1       366 6.14583E-02 6.25000E-03 0.00000E+00
 -1       367 6.25000E-02 6.25000E-03 0.00000E+00
 -1       368 6.35417E-02 6.25000E-03 0.00000E+00
 -1       369 6.45833E-02 6.25000E-03 0.00000E+00
 -1       370 6.56250E-02 6.25000E-03 0.00000E+00
 -1       371 5.00000E-02 7.29167E-03 0.00000E+00
 -1       372 5.00000E-02 8.33333E-03 0.00000E+00
 -1       373 5.00000E-02 9.37500E-03 0.00000E+00
 -1       374 5.00000E-02 1.04167E-02 0.00000E+00
 -1       375 5.00000E-02 1.14583E-02 0.00000E+00
 -1       376 5.10417E-02 6.64063E-03 0.00000E+00
 -1       377 5.20833E-02 7.03125E-03 0.00000E+00
 -1       378 5.31250E-02 7.42188E-03 0.00000E+00
 -1       379 5.41667E-02 7.81250E-03 0.00000E+00
 -1       380 5.52083E-02 8.20313E-03 0.00000E+00
 -1       381 5.62500E-02 8.59375E-03 0.00000E+00
 -1       382 5.72917E-02 8.98438E-03 0.00000E+00
 -1       383 5.83333E-02 9.37500E-03 0.00000E+00
 -1       384 5.93750E-02 9.76562E-03 0.00000E+00
 -1       385 6.04167E-02 1.01562E-02 0.00000E+00
 -1       386 6.14583E-02 1.05469E-02 0.00000E+00
 -1       387 6.25000E-02 1.09375E-02 0.00000E+00
 -1       388 6.35417E-02 1.13281E-02 0.00000E+00
 -1       389 6.45833E-02 1.17188E-02 0.00000E+00
 -1       390 6.56250E-02 1.21094E-02 0.00000E+00
 -1       406 6.66667E-02 7.29167E-03 0.00000E+00
 -1       407 6.66667E-02 8.33333E-03 0.00000E+00
 -1       408 6.66667E-02 9.37500E-03 0.00000E+00
 -1       409 6.66667E-02 1.04167E-02 0.00000E+00
 -1       410 6.66667E-02 1.14583E-02 0.00000E+00
 -1       466 1.04167E-03 1.25000E-02 0.00000E+00
 -1       467 2.08333E-03 1.25000E-02 0.00000E+00
 -1       468 3.12500E-03 1.25000E-02 0.00000E+00
 -1       469 4.16667E-03 1.25000E-02 0.00000E+00
 -1       470 5.20833E-03 1.25000E-02 0.00000E+00
 -1       471 6.25000E-03 1.25000E-02 0.00000E+00
 -1       472 7.29167E-03 1.25000E-02 0.00000E+00
 -1       473 8.33333E-03 1.25000E-02 0.00000E+00
 -1       474 9.37500E-03 1.25000E-02 0.00000E+00
 -1       475 1.04167E-02 1.25000E-02 0.00000E+00
 -1       476 1.14583E-02 1.25000E-02 0.00000E+00
 -1       477 1.25000E-02 1.25000E-02 0.00000E+00
 -1       478 1.35417E-02 1.25000E-02 0.00000E+00
 -1       479 1.45833E-02 1.25000E-02 0.00000E+00
 -1       480 1.56250E-02 1.25000E-02 0.00000E+00
 -1       481 0.00000E+00 1.35417E-02 0.00000E+00
 -1       482 0.00000E+00 1.45833E-02 0.00000E+00
 -1       483 0.00000E+00 1.56250E-02 0.00000E+00
 -1       484 0.00000E+00 1.66667E-02 0.00000E+00
 -1       485 0.00000E+00 1.77083E-02 0.00000E+00
 -1       486 1.04167E-03 1.28906E-02 0.00000E+00
 -1       487 2.08333E-03 1.32813E-02 0.00000E+00
 -1       488 3.12500E-03 1.36719E-02 0.00000E+00
 -1       489 4.16667E-03 1.40625E-02 0.00000E+00
 -1       490 5.20833E-03 1.44531E-02 0.00000E+00
 -1       491 6.25000E-03 1.48437E-02 0.00000E+00
 -1       492 7.29167E-03 1.52344E-02 0.00000E+00
 -1       493 8.33333E-03 1.56250E-02 0.00000E+00
 -1       494 9.37500E-03 1.60156E-02 0.00000E+00
 -1       495 1.04167E-02 1.64062E-02 0.00000E+00
 -1       496 1.14583E-02 1.67969E-02 0.00000E+00
 -1       497 1.25000E-02 1.71875E-02 0.00000E+00
 -1       498 1.35417E-02 1.75781E-02 0.00000E+00
 -1       499 1.45833E-02 1.79687E-02 0.00000E+00
 -1       500 1.56250E-02 1.83594E-02 0.00000E+00
 -1       501 1.77083E-02 1.25000E-02 0.00000E+00
 -1       502 1.87500E-02 1.25000E-02 0.00000E+00
 -1       503 1.97917E-02 1.25000E-02 0.00000E+00
 -1       504 2.08333E-02 1.25000E-02 0.00000E+00
 -1       505 2.18750E-02 1.25000E-02 0.00000E+00
 -1       506 2.29167E-02 1.25000E-02 0.00000E+00
 -1       507 2.39583E-02 1.25000E-02 0.00000E+00
 -1       508 2.50000E-02 1.25000E-02 0.00000E+00
 -1       509 2.60417E-02 1.25000E-02 0.00000E+00
 -1       510 2.70833E-02 1.25000E-02 0.00000E+00
 -1       511 2.81250E-02 1.25000E-02 0.00000E+00
 -1       512 2.91667E-02 1.25000E-02 0.00000E+00
 -1       513 3.02083E-02 1.25000E-02 0.00000E+00
 -1       514 3.12500E-02 1.25000E-02 0.00000E+00
 -1       515 3.22917E-02 1.25000E-02 0.00000E+00
 -1       516 1.66667E-02 1.35417E-02 0.00000E+00
 -1       517 1.66667E-02 1.45833E-02 0.00000E+00
 -1       518 1.66667E-02 1.56250E-02 0.00000E+00
 -1       519 1.66667E-02 1.66667E-02 0.00000E+00
 -1       520 1.66667E-02 1.77083E-02 0.00000E+00
 -1       521 1.77083E-02 1.28906E-02 0.00000E+00
 -1       522 1.87500E-02 1.32813E-02 0.00000E+00
 -1       523 1.97917E-02 1.36719E-02 0.00000E+00
 -1       524 2.08333E-02 1.40625E-02 0.00000E+00
 -1       525 2.18750E-02 1.44531E-02 0.00000E+00
 -1       526 2.29167E-02 1.48437E-02 0.00000E+00
 -1       527 2.39583E-02 1.52344E-02 0.00000E+00
 -1       528 2.50000E-02 1.56250E-02 0.00000E+00
 -1       529 2.60417E-02 1.60156E-02 0.00000E+00
 -1       530 2.70833E-02 1.64062E-02 0.00000E+00
 -1       531 2.81250E-02 1.67969E-02 0.00000E+00
 -1       532 2.91667E-02 1.71875E-02 0.00000E+00
 -1       533 3.02083E-02 1.75781E-02 0.00000E+00
 -1       534 3.12500E-02 1.79687E-02 0.00000E+00
 -1       535 3.22917E-02 1.83594E-02 0.00000E+00
 -1       536 3.43750E-02 1.25000E-02 0.00000E+00
 -1       537 3.54167E-02 1.25000E-02 0.00000E+00
 -1       538 3.64583E-02 1.25000E-02 0.00000E+00
 -1       539 3.75000E-02 1.25000E-02 0.00000E+00
 -1       540 3.85417E-02 1.25000E-02 0.00000E+00
 -1       541 3.95833E-02 1.25000E-02 0.00000E+00
 -1       542 4.06250E-02 1.25000E-02 0.00000E+00
 -1       543 4.16667E-02 1.25000E-02 0.00000E+00
 -1       544 4.27083E-02 1.25000E-02 0.00000E+00
 -1       545 4.37500E-02 1.25000E-02 0.00000E+00
 -1       546 4.47917E-02 1.25000E-02 0.00000E+00
 -1       547 4.58333E-02 1.25000E-02 0.00000E+00
 -1       548 4.68750E-02 1.25000E-02 0.00000E+00
 -1       549 4.79167E-02 1.25000E-02 0.00000E+00
 -1       550 4.89583E-02 1.25000E-02 0.00000E+00
 -1       551 3.33333E-02 1.35417E-02 0.00000E+00
 -1       552 3.33333E-02 1.45833E-02 0.00000E+00
 -1       553 3.33333E-02 1.56250E-02 0.00000E+00
 -1       554 3.33333E-02 1.66667E-02 0.00000E+00
 -1       555 3.33333E-02 1.77083E-02 0.00000E+00
 -1       556 3.43750E-02 1.28906E-02 0.00000E+00
 -1       557 3.54167E-02 1.32813E-02 0.00000E+00
 -1       558 3.64583E-02 1.36719E-02 0.00000E+00
 -1       559 3.75000E-02 1.40625E-02 0.00000E+00
 -1       560 3.85417E-02 1.44531E-02 0.00000E+00
 -1       561 3.95833E-02 1.48437E-02 0.00000E+00
 -1       562 4.06250E-02 1.52344E-02 0.00000E+00
 -1       563 4.16667E-02 1.56250E-02 0.00000E+00
 -1       564 4.27083E-02 1.60156E-02 0.00000E+00
 -1       565 4.37500E-02 1.64062E-02 0.00000E+00
 -1       566 4.47917E-02 1.67969E-02 0.00000E+00
 -1       567 4.58333E-02 1.71875E-02 0.00000E+00
 -1       568 4.68750E-02 1.75781E-02 0.00000E+00
 -1       569 4.79167E-02 1.79687E-02 0.00000E+00
 -1       570 4.89583E-02 1.83594E-02 0.00000E+00
 -1       571 5.10417E-02 1.25000E-02 0.00000E+00
 -1       572 5.20833E-02 1.25000E-02 0.00000E+00
 -1       573 5.31250E-02 1.25000E-02 0.00000E+00
 -1       574 5.41667E-02 1.25000E-02 0.00000E+00
 -1       575 5.52083E-02 1.25000E-02 0.00000E+00
 -1       576 5.62500E-02 1.25000E-02 0.00000E+00
 -1       577 5.72917E-02 1.25000E-02 0.00000E+00
 -1       578 5.83333E-02 1.25000E-02 0.00000E+00
 -1       579 5.93750E-02 1.25000E-02 0.00000E+00
 -1       580 6.04167E-02 1.25000E-02 0.00000E+00
 -1       581 6.14583E-02 1.25000E-02 0.00000E+00
 -1       582 6.25000E-02 1.25000E-02 0.00000E+00
 -1       583 6.35417E-02 1.25000E-02 0.00000E+00
 -1       584 6.45833E-02 1.25000E-02 0.00000E+00
 -1       585 6.56250E-02 1.25000E-02 0.00000E+00
 -1       586 5.00000E-02 1.35417E-02 0.00000E+00
 -1       587 5.00000E-02 1.45833E-02 0.00000E+00
 -1       588 5.00000E-02 1.56250E-02 0.00000E+00
 -1       589 5.00000E-02 1.66667E-02 0.00000E+00
 -1       590 5.00000E-02 1.77083E-02 0.00000E+00
 -1       591 5.10417E-02 1.28906E-02 0.00000E+00
 -1       592 5.20833E-02 1.32813E-02 0.00000E+00
 -1       593 5.31250E-02 1.36719E-02 0.00000E+00
 -1       594 5.41667E-02 1.40625E-02 0.00000E+00
 -1       595 5.52083E-02 1.44531E-02 0.00000E+00
 -1       596 5.62500E-02 1.48437E-02 0.00000E+00
 -1       597 5.72917E-02 1.52344E-02 0.00000E+00
 -1       598 5.83333E-02 1.56250E-02 0.00000E+00
 -1       599 5.93750E-02 1.60156E-02 0.00000E+00
 -1       600 6.04167E-02 1.64062E-02 0.00000E+00
 -1       601 6.14583E-02 1.67969E-02 0.00000E+00
 -1       602 6.25000E-02 1.71875E-02 0.00000E+00
 -1       603 6.35417E-02 1.75781E-02 0.00000E+00
 -1       604 6.45833E-02 1.79687E-02 0.00000E+00
 -1       605 6.56250E-02 1.83594E-02 0.00000E+00
 -1       606 6.77083E-02 1.25000E-02 0.00000E+00
 -1       607 6.87500E-02 1.25000E-02 0.00000E+00
 -1       608 6.97917E-02 1.25000E-02 0.00000E+00
 -1       609 7.08333E-02 1.25000E-02 0.00000E+00
 -1       610 7.18750E-02 1.25000E-02 0.00000E+00
 -1       611 7.29167E-02 1.25000E-02 0.00000E+00
 -1       612 7.39583E-02 1.25000E-02 0.00000E+00
 -1       613 7.50000E-02 1.25000E-02 0.00000E+00
 -1       614 7.60417E-02 1.25000E-02 0.00000E+00
 -1       615 7.70833E-02 1.25000E-02 0.00000E+00
 -1       616 7.81250E-02 1.25000E-02 0.00000E+00
 -1       617 7.91667E-02 1.25000E-02 0.00000E+00
 -1       618 8.02083E-02 1.25000E-02 0.00000E+00
 -1       619 8.12500E-02 1.25000E-02 0.00000E+00
 -1       620 8.22917E-02 1.25000E-02 0.00000E+00
 -1       621 6.66667E-02 1.35417E-02 0.00000E+00
 -1       622 6.66667E-02 1.45833E-02 0.00000E+00
 -1       623 6.66667E-02 1.56250E-02 0.00000E+00
 -1       624 6.66667E-02 1.66667E-02 0.00000E+00
 -1       625 6.66667E-02 1.77083E-02 0.00000E+00
 -1       626 6.77083E-02 1.28906E-02 0.00000E+00
 -1       627 6.87500E-02 1.32813E-02 0.00000E+00
 -1       628 6.97917E-02 1.36719E-02 0.00000E+00
 -1       629 7.08333E-02 1.40625E-02 0.00000E+00
 -1       630 7.18750E-02 1.44531E-02 0.00000E+00
 -1       631 7.29167E-02 1.48437E-02 0.00000E+00
 -1       632 7.39583E-02 1.52344E-02 0.00000E+00
 -1       633 7.50000E-02 1.56250E-02 0.00000E+00
 -1       634 7.60417E-02 1.60156E-02 0.00000E+00
 -1       635 7.70833E-02 1.64062E-02 0.00000E+00
 -1       636 7.81250E-02 1.67969E-02 0.00000E+00
 -1       637 7.91667E-02 1.71875E-02 0.00000E+00
 -1       638 8.02083E-02 1.75781E-02 0.00000E+00
 -1       639 8.12500E-02 1.79687E-02 0.00000E+00
 -1       640 8.22917E-02 1.83594E-02 0.00000E+00
 -1       641 8.43750E-02 1.25000E-02 0.00000E+00
 -1       642 8.54167E-02 1.25000E-02 0.00000E+00
 -1       643 8.64583E-02 1.25000E-02 0.00000E+00
 -1       644 8.75000E-02 1.25000E-02 0.00000E+00
 -1       645 8.85417E-02 1.25000E-02 0.00000E+00
 -1       646 8.95833E-02 1.25000E-02 0.00000E+00
 -1       647 9.06250E-02 1.25000E-02 0.00000E+00
 -1       648 9.16667E-02 1.25000E-02 0.00000E+00
 -1       649 9.27083E-02 1.25000E-02 0.00000E+00
 -1       650 9.37500E-02 1.25000E-02 0.00000E+00
 -1       651 9.47917E-02 1.25000E-02 0.00000E+00
 -1       652 9.58333E-02 1.25000E-02 0.00000E+00
 -1       653 9.68750E-02 1.25000E-02 0.00000E+00
 -1       654 9.79167E-02 1.25000E-02 0.00000E+00
 -1       655 9.89583E-02 1.25000E-02 0.00000E+00
 -1       656 8.33333E-02 1.35417E-02 0.00000E+00
 -1       657 8.33333E-02 1.45833E-02 0.00000E+00
 -1       658 8.33333E-02 1.56250E-02 0.00000E+00
 -1       659 8.33333E-02 1.66667E-02 0.00000E+00
 -1       660 8.33333E-02 1.77083E-02 0.00000E+00
 -1       661 8.43750E-02 1.28906E-02 0.00000E+00
 -1       662 8.54167E-02 1.32813E-02 0.00000E+00
 -1       663 8.64583E-02 1.36719E-02 0.00000E+00
 -1       664 8.75000E-02 1.40625E-02 0.00000E+00
 -1       665 8.85417E-02 1.44531E-02 0.00000E+00
 -1       666 8.95833E-02 1.48437E-02 0.00000E+00
 -1       667 9.06250E-02 1.52344E-02 0.00000E+00
 -1       668 9.16667E-02 1.56250E-02 0.00000E+00
 -1       669 9.27083E-02 1.60156E-02 0.00000E+00
 -1       670 9.37500E-02 1.64062E-02 0.00000E+00
 -1       671 9.47917E-02 1.67969E-02 0.00000E+00
 -1       672 9.58333E-02 1.71875E-02 0.00000E+00
 -1       673 9.68750E-02 1.75781E-02 0.00000E+00
 -1       674 9.79167E-02 1.79687E-02 0.00000E+00
 -1       675 9.89583E-02 1.83594E-02 0.00000E+00
 -1       676 1.00000E-01 1.35417E-02 0.00000E+00
 -1       677 1.00000E-01 1.45833E-02 0.00000E+00
 -1       678 1.00000E-01 1.56250E-02 0.00000E+00
 -1       679 1.00000E-01 1.66667E-02 0.00000E+00
 -1       680 1.00000E-01 1.77083E-02 0.00000E+00
 -1       681 1.04167E-03 1.87500E-02 0.00000E+00
 -1       682 2.08333E-03 1.87500E-02 0.00000E+00
 -1       683 3.12500E-03 1.87500E-02 0.00000E+00
 -1       684 4.16667E-03 1.87500E-02 0.00000E+00
 -1       685 5.20833E-03 1.87500E-02 0.00000E+00
 -1       686 6.25000E-03 1.87500E-02 0.00000E+00
 -1       687 7.29167E-03 1.87500E-02 0.00000E+00
 -1       688 8.33333E-03 1.87500E-02 0.00000E+00
 -1       689 9.37500E-03 1.87500E-02 0.00000E+00
 -1       690 1.04167E-02 1.87500E-02 0.00000E+00
 -1       691 1.14583E-02 1.87500E-02 0.00000E+00
 -1       692 1.25000E-02 1.87500E-02 0.00000E+00
 -1       693 1.35417E-02 1.87500E-02 0.00000E+00
 -1       694 1.45833E-02 1.87500E-02 0.00000E+00
 -1       695 1.56250E-02 1.87500E-02 0.00000E+00
 -1       696 0.00000E+00 1.97917E-02 0.00000E+00
 -1       697 0.00000E+00 2.08333E-02 0.00000E+00
 -1       698 0.00000E+00 2.18750E-02 0.00000E+00
 -1       699 0.00000E+00 2.29167E-02 0.00000E+00
 -1       700 0.00000E+00 2.39583E-02 0.00000E+00
 -1       701 1.04167E-03 1.91406E-02 0.00000E+00
 -1       702 2.08333E-03 1.95312E-02 0.00000E+00
 -1       703 3.12500E-03 1.99219E-02 0.00000E+00
 -1       704 4.16667E-03 2.03125E-02 0.00000E+00
 -1       705 5.20833E-03 2.07031E-02 0.00000E+00
 -1       706 6.25000E-03 2.10938E-02 0.00000E+00
 -1       707 7.29167E-03 2.14844E-02 0.00000E+00
 -1       708 8.33333E-03 2.18750E-02 0.00000E+00
 -1       709 9.37500E-03 2.22656E-02 0.00000E+00
 -1       710 1.04167E-02 2.26563E-02 0.00000E+00
 -1       711 1.14583E-02 2.30469E-02 0.00000E+00
 -1       712 1.25000E-02 2.34375E-02 0.00000E+00
 -1       713 1.35417E-02 2.38281E-02 0.00000E+00
 -1       714 1.45833E-02 2.42187E-02 0.00000E+00
 -1       715 1.56250E-02 2.46094E-02 0.00000E+00
 -1       716 1.77083E-02 1.87500E-02 0.00000E+00
 -1       717 1.87500E-02 1.87500E-02 0.00000E+00
 -1       718 1.97917E-02 1.87500E-02 0.00000E+00
 -1       719 2.08333E-02 1.87500E-02 0.00000E+00
 -1       720 2.18750E-02 1.87500E-02 0.00000E+00
 -1       721 2.29167E-02 1.87500E-02 0.00000E+00
 -1       722 2.39583E-02 1.87500E-02 0.00000E+00
 -1       723 2.50000E-02 1.87500E-02 0.00000E+00
 -1       724 2.60417E-02 1.87500E-02 0.00000E+00
 -1       725 2.70833E-02 1.87500E-02 0.00000E+00
 -1       726 2.81250E-02 1.87500E-02 0.00000E+00
 -1       727 2.91667E-02 1.87500E-02 0.00000E+00
 -1       728 3.02083E-02 1.87500E-02 0.00000E+00
 -1       729 3.12500E-02 1.87500E-02 0.00000E+00
 -1       730 3.22917E-02 1.87500E-02 0.00000E+00
 -1       731 1.66667E-02 1.97917E-02 0.00000E+00
 -1       732 1.66667E-02 2.08333E-02 0.00000E+00
 -1       733 1.66667E-02 2.18750E-02 0.00000E+00
 -1       734 1.66667E-02 2.29167E-02 0.00000E+00
 -1       735 1.66667E-02 2.39583E-02 0.00000E+00
 -1       736 1.77083E-02 1.91406E-02 0.00000E+00
 -1       737 1.87500E-02 1.95312E-02 0.00000E+00
 -1       738 1.97917E-02 1.99219E-02 0.00000E+00
 -1       739 2.08333E-02 2.03125E-02 0.00000E+00
 -1       740 2.18750E-02 2.07031E-02 0.00000E+00
 -1       741 2.29167E-02 2.10938E-02 0.00000E+00
 -1       742 2.39583E-02 2.14844E-02 0.00000E+00
 -1       743 2.50000E-02 2.18750E-02 0.00000E+00
 -1       744 2.60417E-02 2.22656E-02 0.00000E+00
 -1       745 2.70833E-02 2.26563E-02 0.00000E+00
 -1       746 2.81250E-02 2.30469E-02 0.00000E+00
 -1       747 2.91667E-02 2.34375E-02 0.00000E+00
 -1       748 3.02083E-02 2.38281E-02 0.00000E+00
 -1       749 3.12500E-02 2.42187E-02 0.00000E+00
 -1       750 3.22917E-02 2.46094E-02 0.00000E+00
 -1       751 3.43750E-02 1.87500E-02 0.00000E+00
 -1       752 3.54167E-02 1.87500E-02 0.00000E+00
 -1       753 3.64583E-02 1.87500E-02 0.00000E+00
 -1       754 3.75000E-02 1.87500E-02 0.00000E+00
 -1       755 3.85417E-02 1.87500E-02 0.00000E+00
 -1       756 3.95833E-02 1.87500E-02 0.00000E+00
 -1       757 4.06250E-02 1.87500E-02 0.00000E+00
 -1       758 4.16667E-02 1.87500E-02 0.00000E+00
 -1       759 4.27083E-02 1.87500E-02 0.00000E+00
 -1       760 4.37500E-02 1.87500E-02 0.00000E+00
 -1       761 4.47917E-02 1.87500E-02 0.00000E+00
 -1       762 4.58333E-02 1.87500E-02 0.00000E+00
 -1       763 4.68750E-02 1.87500E-02 0.00000E+00
 -1       764 4.79167E-02 1.87500E-02 0.00000E+00
 -1       765 4.89583E-02 1.87500E-02 0.00000E+00
 -1       766 3.33333E-02 1.97917E-02 0.00000E+00
 -1       767 3.33333E-02 2.08333E-02 0.00000E+00
 -1       768 3.33333E-02 2.18750E-02 0.00000E+00
 -1       769 3.33333E-02 2.29167E-02 0.00000E+00
 -1       770 3.33333E-02 2.39583E-02 0.00000E+00
 -1       771 3.43750E-02 1.91406E-02 0.00000E+00
 -1       772 3.54167E-02 1.95312E-02 0.00000E+00
 -1       773 3.64583E-02 1.99219E-02 0.00000E+00
 -1       774 3.75000E-02 2.03125E-02 0.00000E+00
 -1       775 3.85417E-02 2.07031E-02 0.00000E+00
 -1       776 3.95833E-02 2.10938E-02 0.00000E+00
 -1       777 4.06250E-02 2.14844E-02 0.00000E+00
 -1       778 4.16667E-02 2.18750E-02 0.00000E+00
 -1       779 4.27083E-02 2.22656E-02 0.00000E+00
 -1       780 4.37500E-02 2.26563E-02 0.00000E+00
 -1       781 4.47917E-02 2.30469E-02 0.00000E+00
 -1       782 4.58333E-02 2.34375E-02 0.00000E+00
 -1       783 4.68750E-02 2.38281E-02 0.00000E+00
 -1       784 4.79167E-02 2.42187E-02 0.00000E+00
 -1       785 4.89583E-02 2.46094E-02 0.00000E+00
 -1       786 5.10417E-02 1.87500E-02 0.00000E+00
 -1       787 5.20833E-02 1.87500E-02 0.00000E+00
 -1       788 5.31250E-02 1.87500E-02 0.00000E+00
 -1       789 5.41667E-02 1.87500E-02 0.00000E+00
 -1       790 5.52083E-02 1.87500E-02 0.00000E+00
 -1       791 5.62500E-02 1.87500E-02 0.00000E+00
 -1       792 5.72917E-02 1.87500E-02 0.00000E+00
 -1       793 5.83333E-02 1.87500E-02 0.00000E+00
 -1       794 5.93750E-02 1.87500E-02 0.00000E+00
 -1       795 6.04167E-02 1.87500E-02 0.00000E+00
 -1       796 6.14583E-02 1.87500E-02 0.00000E+00
 -1       797 6.25000E-02 1.87500E-02 0.00000E+00
 -1       798 6.35417E-02 1.87500E-02 0.00000E+00
 -1       799 6.45833E-02 1.87500E-02 0.00000E+00
 -1       800 6.56250E-02 1.87500E-02 0.00000E+00
 -1       801 5.00000E-02 1.97917E-02 0.00000E+00
 -1       802 5.00000E-02 2.08333E-02 0.00000E+00
 -1       803 5.00000E-02 2.18750E-02 0.00000E+00
 -1       804 5.00000E-02 2.29167E-02 0.00000E+00
 -1       805 5.00000E-02 2.39583E-02 0.00000E+00
 -1       806 5.10417E-02 1.91406E-02 0.00000E+00
 -1       807 5.20833E-02 1.95312E-02 0.00000E+00
 -1       808 5.31250E-02 1.99219E-02 0.00000E+00
 -1       809 5.41667E-02 2.03125E-02 0.00000E+00
 -1       810 5.52083E-02 2.07031E-02 0.00000E+00
 -1       811 5.62500E-02 2.10938E-02 0.00000E+00
 -1       812 5.72917E-02 2.14844E-02 0.00000E+00
 -1       813 5.83333E-02 2.18750E-02 0.00000E+00
 -1       814 5.93750E-02 2.22656E-02 0.00000E+00
 -1       815 6.04167E-02 2.26563E-02 0.00000E+00
 -1       816 6.14583E-02 2.30469E-02 0.00000E+00
 -1       817 6.25000E-02 2.34375E-02 0.00000E+00
 -1       818 6.35417E-02 2.38281E-02 0.00000E+00
 -1       819 6.45833E-02 2.42187E-02 0.00000E+00
 -1       820 6.56250E-02 2.46094E-02 0.00000E+00
 -1       821 6.77083E-02 1.87500E-02 0.00000E+00
 -1       822 6.87500E-02 1.87500E-02 0.00000E+00
 -1       823 6.97917E-02 1.87500E-02 0.00000E+00
 -1       824 7.08333E-02 1.87500E-02 0.00000E+00
 -1       825 7.18750E-02 1.87500E-02 0.00000E+00
 -1       826 7.29167E-02 1.87500E-02 0.00000E+00
 -1       827 7.39583E-02 1.87500E-02 0.00000E+00
 -1       828 7.50000E-02 1.87500E-02 0.00000E+00
 -1       829 7.60417E-02 1.87500E-02 0.00000E+00
 -1       830 7.70833E-02 1.87500E-02 0.00000E+00
 -1       831 7.81250E-02 1.87500E-02 0.00000E+00
 -1       832 7.91667E-02 1.87500E-02 0.00000E+00
 -1       833 8.02083E-02 1.87500E-02 0.00000E+00
 -1       834 8.12500E-02 1.87500E-02 0.00000E+00
 -1       835 8.22917E-02 1.87500E-02 0.00000E+00
 -1       836 6.66667E-02 1.97917E-02 0.00000E+00
 -1       837 6.66667E-02 2.08333E-02 0.00000E+00
 -1       838 6.66667E-02 2.18750E-02 0.00000E+00
 -1       839 6.66667E-02 2.29167E-02 0.00000E+00
 -1       840 6.66667E-02 2.39583E-02 0.00000E+00
 -1       841 6.77083E-02 1.91406E-02 0.00000E+00
 -1       842 6.87500E-02 1.95312E-02 0.00000E+00
 -1       843 6.97917E-02 1.99219E-02 0.00000E+00
 -1       844 7.08333E-02 2.03125E-02 0.00000E+00
 -1       845 7.18750E-02 2.07031E-02 0.00000E+00
 -1       846 7.29167E-02 2.10938E-02 0.00000E+00
 -1       847 7.39583E-02 2.14844E-02 0.00000E+00
 -1       848 7.50000E-02 2.18750E-02 0.00000E+00
 -1       849 7.60417E-02 2.22656E-02 0.00000E+00
 -1       850 7.70833E-02 2.26563E-02 0.00000E+00
 -1       851 7.81250E-02 2.30469E-02 0.00000E+00
 -1       852 7.91667E-02 2.34375E-02 0.00000E+00
 -1       853 8.02083E-02 2.38281E-02 0.00000E+00
 -1       854 8.12500E-02 2.42187E-02 0.00000E+00
 -1       855 8.22917E-02 2.46094E-02 0.00000E+00
 -1       856 8.43750E-02 1.87500E-02 0.00000E+00
 -1       857 8.54167E-02 1.87500E-02 0.00000E+00
 -1       858 8.64583E-02 1.87500E-02 0.00000E+00
 -1       859 8.75000E-02 1.87500E-02 0.00000E+00
 -1       860 8.85417E-02 1.87500E-02 0.00000E+00
 -1       861 8.95833E-02 1.87500E-02 0.00000E+00
 -1       862 9.06250E-02 1.87500E-02 0.00000E+00
 -1       863 9.16667E-02 1.87500E-02 0.00000E+00
 -1       864 9.27083E-02 1.87500E-02 0.00000E+00
 -1       865 9.37500E-02 1.87500E-02 0.00000E+00
 -1       866 9.47917E-02 1.87500E-02 0.00000E+00
 -1       867 9.58333E-02 1.87500E-02 0.00000E+00
 -1       868 9.68750E-02 1.87500E-02 0.00000E+00
 -1       869 9.79167E-02 1.87500E-02 0.00000E+00
 -1       870 9.89583E-02 1.87500E-02 0.00000E+00
 -1       871 8.33333E-02 1.97917E-02 0.00000E+00
 -1       872 8.33333E-02 2.08333E-02 0.00000E+00
 -1       873 8.33333E-02 2.18750E-02 0.00000E+00
 -1       874 8.33333E-02 2.29167E-02 0.00000E+00
 -1       875 8.33333E-02 2.39583E-02 0.00000E+00
 -1       876 8.43750E-02 1.91406E-02 0.00000E+00
 -1       877 8.54167E-02 1.95312E-02 0.00000E+00
 -1       878 8.64583E-02 1.99219E-02 0.00000E+00
 -1       879 8.75000E-02 2.03125E-02 0.00000E+00
 -1       880 8.85417E-02 2.07031E-02 0.00000E+00
 -1       881 8.95833E-02 2.10938E-02 0.00000E+00
 -1       882 9.06250E-02 2.14844E-02 0.00000E+00
 -1       883 9.16667E-02 2.18750E-02 0.00000E+00
 -1       884 9.27083E-02 2.22656E-02 0.00000E+00
 -1       885 9.37500E-02 2.26563E-02 0.00000E+00
 -1       886 9.47917E-02 2.30469E-02 0.00000E+00
 -1       887 9.58333E-02 2.34375E-02 0.00000E+00
 -1       888 9.68750E-02 2.38281E-02 0.00000E+00
 -1       889 9.79167E-02 2.42187E-02 0.00000E+00
 -1       890 9.89583E-02 2.46094E-02 0.00000E+00
 -1       891 1.00000E-01 1.97917E-02 0.00000E+00
 -1       892 1.00000E-01 2.08333E-02 0.00000E+00
 -1       893 1.00000E-01 2.18750E-02 0.00000E+00
 -1       894 1.00000E-01 2.29167E-02 0.00000E+00
 -1       895 1.00000E-01 2.39583E-02 0.00000E+00
 -1       896 1.04167E-03 2.50000E-02 0.00000E+00
 -1       897 2.08333E-03 2.50000E-02 0.00000E+00
 -1       898 3.12500E-03 2.50000E-02 0.00000E+00
 -1       899 4.16667E-03 2.50000E-02 0.00000E+00
 -1       900 5.20833E-03 2.50000E-02 0.00000E+00
 -1       901 6.25000E-03 2.50000E-02 0.00000E+00
 -1       902 7.29167E-03 2.50000E-02 0.00000E+00
 -1       903 8.33333E-03 2.50000E-02 0.00000E+00
 -1       904 9.37500E-03 2.50000E-02 0.00000E+00
 -1       905 1.04167E-02 2.50000E-02 0.00000E+00
 -1       906 1.14583E-02 2.50000E-02 0.00000E+00
 -1       907 1.25000E-02 2.50000E-02 0.00000E+00
 -1       908 1.35417E-02 2.50000E-02 0.00000E+00
 -1       909 1.45833E-02 2.50000E-02 0.00000E+00
 -1       910 1.56250E-02 2.50000E-02 0.00000E+00
 -1       911 1.77083E-02 2.50000E-02 0.00000E+00
 -1       912 1.87500E-02 2.50000E-02 0.00000E+00
 -1       913 1.97917E-02 2.50000E-02 0.00000E+00
 -1       914 2.08333E-02 2.50000E-02 0.00000E+00
 -1       915 2.18750E-02 2.50000E-02 0.00000E+00
 -1       916 2.29167E-02 2.50000E-02 0.00000E+00
 -1       917 2.39583E-02 2.50000E-02 0.00000E+00
 -1       918 2.50000E-02 2.50000E-02 0.00000E+00
 -1       919 2.60417E-02 2.50000E-02 0.00000E+00
 -1       920 2.70833E-02 2.50000E-02 0.00000E+00
 -1       921 2.81250E-02 2.50000E-02 0.00000E+00
 -1       922 2.91667E-02 2.50000E-02 0.00000E+00
 -1       923 3.02083E-02 2.50000E-02 0.00000E+00
 -1       924 3.12500E-02 2.50000E-02 0.00000E+00
 -1       925 3.22917E-02 2.50000E-02 0.00000E+00
 -1       926 3.43750E-02 2.50000E-02 0.00000E+00
 -1       927 3.54167E-02 2.50000E-02 0.00000E+00
 -1       928 3.64583E-02 2.50000E-02 0.00000E+00
 -1       929 3.75000E-02 2.50000E-02 0.00000E+00
 -1       930 3.85417E-02 2.50000E-02 0.00000E+00
 -1       931 3.95833E-02 2.50000E-02 0.00000E+00
 -1       932 4.06250E-02 2.50000E-02 0.00000E+00
 -1       933 4.16667E-02 2.50000E-02 0.00000E+00
 -1       934 4.27083E-02 2.50000E-02 0.00000E+00
 -1       935 4.37500E-02 2.50000E-02 0.00000E+00
 -1       936 4.47917E-02 2.50000E-02 0.00000E+00
 -1       937 4.58333E-02 2.50000E-02 0.00000E+00
 -1       938 4.68750E-02 2.50000E-02 0.00000E+00
 -1       939 4.79167E-02 2.50000E-02 0.00000E+00
 -1       940 4.89583E-02 2.50000E-02 0.00000E+00
 -1       941 5.10417E-02 2.50000E-02 0.00000E+00
 -1       942 5.20833E-02 2.50000E-02 0.00000E+00
 -1       943 5.31250E-02 2.50000E-02 0.00000E+00
 -1       944 5.41667E-02 2.50000E-02 0.00000E+00
 -1       945 5.52083E-02 2.50000E-02 0.00000E+00
 -1       946 5.62500E-02 2.50000E-02 0.00000E+00
 -1       947 5.72917E-02 2.50000E-02 0.00000E+00
 -1       948 5.83333E-02 2.50000E-02 0.00000E+00
 -1       949 5.93750E-02 2.50000E-02 0.00000E+00
 -1       950 6.04167E-02 2.50000E-02 0.00000E+00
 -1       951 6.14583E-02 2.50000E-02 0.00000E+00
 -1       952 6.25000E-02 2.50000E-02 0.00000E+00
 -1       953 6.35417E-02 2.50000E-02 0.00000E+00
 -1       954 6.45833E-02 2.50000E-02 0.00000E+00
 -1       955 6.56250E-02 2.50000E-02 0.00000E+00
 -1       956 6.77083E-02 2.50000E-02 0.00000E+00
 -1       957 6.87500E-02 2.50000E-02 0.00000E+00
 -1       958 6.97917E-02 2.50000E-02 0.00000E+00
 -1       959 7.08333E-02 2.50000E-02 0.00000E+00
 -1       960 7.18750E-02 2.50000E-02 0.00000E+00
 -1       961 7.29167E-02 2.50000E-02 0.00000E+00
 -1       962 7.39583E-02 2.50000E-02 0.00000E+00
 -1       963 7.50000E-02 2.50000E-02 0.00000E+00
 -1       964 7.60417E-02 2.50000E-02 0.00000E+00
 -1       965 7.70833E-02 2.50000E-02 0.00000E+00
 -1       966 7.81250E-02 2.50000E-02 0.00000E+00
 -1       967 7.91667E-02 2.50000E-02 0.00000E+00
 -1       968 8.02083E-02 2.50000E-02 0.00000E+00
 -1       969 8.12500E-02 2.50000E-02 0.00000E+00
 -1       970 8.22917E-02 2.50000E-02 0.00000E+00
 -1       971 8.43750E-02 2.50000E-02 0.00000E+00
 -1       972 8.54167E-02 2.50000E-02 0.00000E+00
 -1       973 8.64583E-02 2.50000E-02 0.00000E+00
 -1       974 8.75000E-02 2.50000E-02 0.00000E+00
 -1       975 8.85417E-02 2.50000E-02 0.00000E+00
 -1       976 8.95833E-02 2.50000E-02 0.00000E+00
 -1       977 9.06250E-02 2.50000E-02 0.00000E+00
 -1       978 9.16667E-02 2.50000E-02 0.00000E+00
 -1       979 9.27083E-02 2.50000E-02 0.00000E+00
 -1       980 9.37500E-02 2.50000E-02 0.00000E+00
 -1       981 9.47917E-02 2.50000E-02 0.00000E+00
 -1       982 9.58333E-02 2.50000E-02 0.00000E+00
 -1       983 9.68750E-02 2.50000E-02 0.00000E+00
 -1       984 9.79167E-02 2.50000E-02 0.00000E+00
 -1       985 9.89583E-02 2.50000E-02 0.00000E+00
 -3
    3C                           440                                     1
 -1         1   12    0    1
 -2         1        37        36
 -1         2   12    0    1
 -2        37        39        38
 -1         3   12    0    1
 -2        39        41        40
 -1         4   12    0    1
 -2        41        43        42
 -1         5   12    0    1
 -2        43        45        44
 -1         6   12    0    1
 -2        45        47        46
 -1         7   12    0    1
 -2        47        49        48
 -1         8   12    0    1
 -2        49         2        50
 -1         9   12    0    1
 -2         1        52        51
 -1        10   12    0    1
 -2        52        54        53
 -1        11   12    0    1
 -2        54         8        55
 -1        12   12    0    1
 -2         1        57        56
 -1        13   12    0    1
 -2        57        59        58
 -1        14   12    0    1
 -2        59        61        60
 -1        15   12    0    1
 -2        61        63        62
 -1        16   12    0    1
 -2        63        65        64
 -1        17   12    0    1
 -2        65        67        66
 -1        18   12    0    1
 -2        67        69        68
 -1        19   12    0    1
 -2        69         9        70
 -1        20   12    0    1
 -2         2        72        71
 -1        21   12    0    1
 -2        72        74        73
 -1        22   12    0    1
 -2        74        76        75
 -1        23   12    0    1
 -2        76        78        77
 -1        24   12    0    1
 -2        78        80        79
 -1        25   12    0    1
 -2        80        82        81
 -1        26   12    0    1
 -2        82        84        83
 -1        27   12    0    1
 -2        84         3        85
 -1        28   12    0    1
 -2         2        87        86
 -1        29   12    0    1
 -2        87        89        88
 -1        30   12    0    1
 -2        89         9        90
 -1        31   12    0    1
 -2         2        92        91
 -1        32   12    0    1
 -2        92        94        93
 -1        33   12    0    1
 -2        94        96        95
 -1        34   12    0    1
 -2        96        98        97
 -1        35   12    0    1
 -2        98       100        99
 -1        36   12    0    1
 -2       100       102       101
 -1        37   12    0    1
 -2       102       104       103
 -1        38   12    0    1
 -2       104        10       105
 -1        39   12    0    1
 -2         3       107       106
 -1        40   12    0    1
 -2       107       109       108
 -1        41   12    0    1
 -2       109       111       110
 -1        42   12    0    1
 -2       111       113       112
 -1        43   12    0    1
 -2       113       115       114
 -1        44   12    0    1
 -2       115       117       116
 -1        45   12    0    1
 -2       117       119       118
 -1        46   12    0    1
 -2       119         4       120
 -1        47   12    0    1
 -2         3       122       121
 -1        48   12    0    1
 -2       122       124       123
 -1        49   12    0    1
 -2       124        10       125
 -1        50   12    0    1
 -2         3       127       126
 -1        51   12    0    1
 -2       127       129       128
 -1        52   12    0    1
 -2       129       131       130
 -1        53   12    0    1
 -2       131       133       132
 -1        54   12    0    1
 -2       133       135       134
 -1        55   12    0    1
 -2       135       137       136
 -1        56   12    0    1
 -2       137       139       138
 -1        57   12    0    1
 -2       139        11       140
 -1        58   12    0    1
 -2         4       142       141
 -1        59   12    0    1
 -2       142       144       143
 -1        60   12    0    1
 -2       144       146       145
 -1        61   12    0    1
 -2       146       148       147
 -1        62   12    0    1
 -2       148       150       149
 -1        63   12    0    1
 -2       150       152       151
 -1        64   12    0    1
 -2       152       154       153
 -1        65   12    0    1
 -2       154         5       155
 -1        66   12    0    1
 -2         4       157       156
 -1        67   12    0    1
 -2       157       159       158
 -1        68   12    0    1
 -2       159        11       160
 -1        69   12    0    1
 -2         4       162       161
 -1        70   12    0    1
 -2       162       164       163
 -1        71   12    0    1
 -2       164       166       165
 -1        72   12    0    1
 -2       166       168       167
 -1        73   12    0    1
 -2       168       170       169
 -1        74   12    0    1
 -2       170       172       171
 -1        75   12    0    1
 -2       172       174       173
 -1        76   12    0    1
 -2       174        12       175
 -1        77   12    0    1
 -2         5       192       191
 -1        78   12    0    1
 -2       192       194       193
 -1        79   12    0    1
 -2       194        12       195
 -1        80   12    0    1
 -2         8       252       251
 -1        81   12    0    1
 -2       252       254       253
 -1        82   12    0    1
 -2       254       256       255
 -1        83   12    0    1
 -2       256       258       257
 -1        84   12    0    1
 -2       258       260       259
 -1        85   12    0    1
 -2       260       262       261
 -1        86   12    0    1
 -2       262       264       263
 -1        87   12    0    1
 -2       264         9       265
 -1        88   12    0    1
 -2         8       267       266
 -1        89   12    0    1
 -2       267       269       268
 -1        90   12    0    1
 -2       269        15       270
 -1        91   12    0    1
 -2         8       272       271
 -1        92   12    0    1
 -2       272       274       273
 -1        93   12    0    1
 -2       274       276       275
 -1        94   12    0    1
 -2       276       278       277
 -1        95   12    0    1
 -2       278       280       279
 -1        96   12    0    1
 -2       280       282       281
 -1        97   12    0    1
 -2       282       284       283
 -1        98   12    0    1
 -2       284        16       285
 -1        99   12    0    1
 -2         9       287       286
 -1       100   12    0    1
 -2       287       289       288
 -1       101   12    0    1
 -2       289       291       290
 -1       102   12    0    1
 -2       291       293       292
 -1       103   12    0    1
 -2       293       295       294
 -1       104   12    0    1
 -2       295       297       296
 -1       105   12    0    1
 -2       297       299       298
 -1       106   12    0    1
 -2       299        10       300
 -1       107   12    0    1
 -2         9       302       301
 -1       108   12    0    1
 -2       302       304       303
 -1       109   12    0    1
 -2       304        16       305
 -1       110   12    0    1
 -2         9       307       306
 -1       111   12    0    1
 -2       307       309       308
 -1       112   12    0    1
 -2       309       311       310
 -1       113   12    0    1
 -2       311       313       312
 -1       114   12    0    1
 -2       313       315       314
 -1       115   12    0    1
 -2       315       317       316
 -1       116   12    0    1
 -2       317       319       318
 -1       117   12    0    1
 -2       319        17       320
 -1       118   12    0    1
 -2        10       322       321
 -1       119   12    0    1
 -2       322       324       323
 -1       120   12    0    1
 -2       324       326       325
 -1       121   12    0    1
 -2       326       328       327
 -1       122   12    0    1
 -2       328       330       329
 -1       123   12    0    1
 -2       330       332       331
 -1       124   12    0    1
 -2       332       334       333
 -1       125   12    0    1
 -2       334        11       335
 -1       126   12    0    1
 -2        10       337       336
 -1       127   12    0    1
 -2       337       339       338
 -1       128   12    0    1
 -2       339        17       340
 -1       129   12    0    1
 -2        10       342       341
 -1       130   12    0    1
 -2       342       344       343
 -1       131   12    0    1
 -2       344       346       345
 -1       132   12    0    1
 -2       346       348       347
 -1       133   12    0    1
 -2       348       350       349
 -1       134   12    0    1
 -2       350       352       351
 -1       135   12    0    1
 -2       352       354       353
 -1       136   12    0    1
 -2       354        18       355
 -1       137   12    0    1
 -2        11       357       356
 -1       138   12    0    1
 -2       357       359       358
 -1       139   12    0    1
 -2       359       361       360
 -1       140   12    0    1
 -2       361       363       362
 -1       141   12    0    1
 -2       363       365       364
 -1       142   12    0    1
 -2       365       367       366
 -1       143   12    0    1
 -2       367       369       368
 -1       144   12    0    1
 -2       369        12       370
 -1       145   12    0    1
 -2        11       372       371
 -1       146   12    0    1
 -2       372       374       373
 -1       147   12    0    1
 -2       374        18       375
 -1       148   12    0    1
 -2        11       377       376
 -1       149   12    0    1
 -2       377       379       378
 -1       150   12    0    1
 -2       379       381       380
 -1       151   12    0    1
 -2       381       383       382
 -1       152   12    0    1
 -2       383       385       384
 -1       153   12    0    1
 -2       385       387       386
 -1       154   12    0    1
 -2       387       389       388
 -1       155   12    0    1
 -2       389        19       390
 -1       156   12    0    1
 -2        12       407       406
 -1       157   12    0    1
 -2       407       409       408
 -1       158   12    0    1
 -2       409        19       410
 -1       159   12    0    1
 -2        15       467       466
 -1       160   12    0    1
 -2       467       469       468
 -1       161   12    0    1
 -2       469       471       470
 -1       162   12    0    1
 -2       471       473       472
 -1       163   12    0    1
 -2       473       475       474
 -1       164   12    0    1
 -2       475       477       476
 -1       165   12    0    1
 -2       477       479       478
 -1       166   12    0    1
 -2       479        16       480
 -1       167   12    0    1
 -2        15       482       481
 -1       168   12    0    1
 -2       482       484       483
 -1       169   12    0    1
 -2       484        22       485
 -1       170   12    0    1
 -2        15       487       486
 -1       171   12    0    1
 -2       487       489       488
 -1       172   12    0    1
 -2       489       491       490
 -1       173   12    0    1
 -2       491       493       492
 -1       174   12    0    1
 -2       493       495       494
 -1       175   12    0    1
 -2       495       497       496
 -1       176   12    0    1
 -2       497       499       498
 -1       177   12    0    1
 -2       499        23       500
 -1       178   12    0    1
 -2        16       502       501
 -1       179   12    0    1
 -2       502       504       503
 -1       180   12    0    1
 -2       504       506       505
 -1       181   12    0    1
 -2       506       508       507
 -1       182   12    0    1
 -2       508       510       509
 -1       183   12    0    1
 -2       510       512       511
 -1       184   12    0    1
 -2       512       514       513
 -1       185   12    0    1
 -2       514        17       515
 -1       186   12    0    1
 -2        16       517       516
 -1       187   12    0    1
 -2       517       519       518
 -1       188   12    0    1
 -2       519        23       520
 -1       189   12    0    1
 -2        16       522       521
 -1       190   12    0    1
 -2       522       524       523
 -1       191   12    0    1
 -2       524       526       525
 -1       192   12    0    1
 -2       526       528       527
 -1       193   12    0    1
 -2       528       530       529
 -1       194   12    0    1
 -2       530       532       531
 -1       195   12    0    1
 -2       532       534       533
 -1       196   12    0    1
 -2       534        24       535
 -1       197   12    0    1
 -2        17       537       536
 -1       198   12    0    1
 -2       537       539       538
 -1       199   12    0    1
 -2       539       541       540
 -1       200   12    0    1
 -2       541       543       542
 -1       201   12    0    1
 -2       543       545       544
 -1       202   12    0    1
 -2       545       547       546
 -1       203   12    0    1
 -2       547       549       548
 -1       204   12    0    1
 -2       549        18       550
 -1       205   12    0    1
 -2        17       552       551
 -1       206   12    0    1
 -2       552       554       553
 -1       207   12    0    1
 -2       554        24       555
 -1       208   12    0    1
 -2        17       557       556
 -1       209   12    0    1
 -2       557       559       558
 -1       210   12    0    1
 -2       559       561       560
 -1       211   12    0    1
 -2       561       563       562
 -1       212   12    0    1
 -2       563       565       564
 -1       213   12    0    1
 -2       565       567       566
 -1       214   12    0    1
 -2       567       569       568
 -1       215   12    0    1
 -2       569        25       570
 -1       216   12    0    1
 -2        18       572       571
 -1       217   12    0    1
 -2       572       574       573
 -1       218   12    0    1
 -2       574       576       575
 -1       219   12    0    1
 -2       576       578       577
 -1       220   12    0    1
 -2       578       580       579
 -1       221   12    0    1
 -2       580       582       581
 -1       222   12    0    1
 -2       582       584       583
 -1       223   12    0    1
 -2       584        19       585
 -1       224   12    0    1
 -2        18       587       586
 -1       225   12    0    1
 -2       587       589       588
 -1       226   12    0    1
 -2       589        25       590
 -1       227   12    0    1
 -2        18       592       591
 -1       228   12    0    1
 -2       592       594       593
 -1       229   12    0    1
 -2       594       596       595
 -1       230   12    0    1
 -2       596       598       597
 -1       231   12    0    1
 -2       598       600       599
 -1       232   12    0    1
 -2       600       602       601
 -1       233   12    0    1
 -2       602       604       603
 -1       234   12    0    1
 -2       604        26       605
 -1       235   12    0    1
 -2        19       607       606
 -1       236   12    0    1
 -2       607       609       608
 -1       237   12    0    1
 -2       609       611       610
 -1       238   12    0    1
 -2       611       613       612
 -1       239   12    0    1
 -2       613       615       614
 -1       240   12    0    1
 -2       615       617       616
 -1       241   12    0    1
 -2       617       619       618
 -1       242   12    0    1
 -2       619        20       620
 -1       243   12    0    1
 -2        19       622       621
 -1       244   12    0    1
 -2       622       624       623
 -1       245   12    0    1
 -2       624        26       625
 -1       246   12    0    1
 -2        19       627       626
 -1       247   12    0    1
 -2       627       629       628
 -1       248   12    0    1
 -2       629       631       630
 -1       249   12    0    1
 -2       631       633       632
 -1       250   12    0    1
 -2       633       635       634
 -1       251   12    0    1
 -2       635       637       636
 -1       252   12    0    1
 -2       637       639       638
 -1       253   12    0    1
 -2       639        27       640
 -1       254   12    0    1
 -2        20       642       641
 -1       255   12    0    1
 -2       642       644       643
 -1       256   12    0    1
 -2       644       646       645
 -1       257   12    0    1
 -2       646       648       647
 -1       258   12    0    1
 -2       648       650       649
 -1       259   12    0    1
 -2       650       652       651
 -1       260   12    0    1
 -2       652       654       653
 -1       261   12    0    1
 -2       654        21       655
 -1       262   12    0    1
 -2        20       657       656
 -1       263   12    0    1
 -2       657       659       658
 -1       264   12    0    1
 -2       659        27       660
 -1       265   12    0    1
 -2        20       662       661
 -1       266   12    0    1
 -2       662       664       663
 -1       267   12    0    1
 -2       664       666       665
 -1       268   12    0    1
 -2       666       668       667
 -1       269   12    0    1
 -2       668       670       669
 -1       270   12    0    1
 -2       670       672       671
 -1       271   12    0    1
 -2       672       674       673
 -1       272   12    0    1
 -2       674        28       675
 -1       273   12    0    1
 -2        21       677       676
 -1       274   12    0    1
 -2       677       679       678
 -1       275   12    0    1
 -2       679        28       680
 -1       276   12    0    1
 -2        22       682       681
 -1       277   12    0    1
 -2       682       684       683
 -1       278   12    0    1
 -2       684       686       685
 -1       279   12    0    1
 -2       686       688       687
 -1       280   12    0    1
 -2       688       690       689
 -1       281   12    0    1
 -2       690       692       691
 -1       282   12    0    1
 -2       692       694       693
 -1       283   12    0    1
 -2       694        23       695
 -1       284   12    0    1
 -2        22       697       696
 -1       285   12    0    1
 -2       697       699       698
 -1       286   12    0    1
 -2       699        29       700
 -1       287   12    0    1
 -2        22       702       701
 -1       288   12    0    1
 -2       702       704       703
 -1       289   12    0    1
 -2       704       706       705
 -1       290   12    0    1
 -2       706       708       707
 -1       291   12    0    1
 -2       708       710       709
 -1       292   12    0    1
 -2       710       712       711
 -1       293   12    0    1
 -2       712       714       713
 -1       294   12    0    1
 -2       714        30       715
 -1       295   12    0    1
 -2        23       717       716
 -1       296   12    0    1
 -2       717       719       718
 -1       297   12    0    1
 -2       719       721       720
 -1       298   12    0    1
 -2       721       723       722
 -1       299   12    0    1
 -2       723       725       724
 -1       300   12    0    1
 -2       725       727       726
 -1       301   12    0    1
 -2       727       729       728
 -1       302   12    0    1
 -2       729        24       730
 -1       303   12    0    1
 -2        23       732       731
 -1       304   12    0    1
 -2       732       734       733
 -1       305   12    0    1
 -2       734        30       735
 -1       306   12    0    1
 -2        23       737       736
 -1       307   12    0    1
 -2       737       739       738
 -1       308   12    0    1
 -2       739       741       740
 -1       309   12    0    1
 -2       741       743       742
 -1       310   12    0    1
 -2       743       745       744
 -1       311   12    0    1
 -2       745       747       746
 -1       312   12    0    1
 -2       747       749       748
 -1       313   12    0    1
 -2       749        31       750
 -1       314   12    0    1
 -2        24       752       751
 -1       315   12    0    1
 -2       752       754       753
 -1       316   12    0    1
 -2       754       756       755
 -1       317   12    0    1
 -2       756       758       757
 -1       318   12    0    1
 -2       758       760       759
 -1       319   12    0    1
 -2       760       762       761
 -1       320   12    0    1
 -2       762       764       763
 -1       321   12    0    1
 -2       764        25       765
 -1       322   12    0    1
 -2        24       767       766
 -1       323   12    0    1
 -2       767       769       768
 -1       324   12    0    1
 -2       769        31       770
 -1       325   12    0    1
 -2        24       772       771
 -1       326   12    0    1
 -2       772       774       773
 -1       327   12    0    1
 -2       774       776       775
 -1       328   12    0    1
 -2       776       778       777
 -1       329   12    0    1
 -2       778       780       779
 -1       330   12    0    1
 -2       780       782       781
 -1       331   12    0    1
 -2       782       784       783
 -1       332   12    0    1
 -2       784        32       785
 -1       333   12    0    1
 -2        25       787       786
 -1       334   12    0    1
 -2       787       789       788
 -1       335   12    0    1
 -2       789       791       790
 -1       336   12    0    1
 -2       791       793       792
 -1       337   12    0    1
 -2       793       795       794
 -1       338   12    0    1
 -2       795       797       796
 -1       339   12    0    1
 -2       797       799       798
 -1       340   12    0    1
 -2       799        26       800
 -1       341   12    0    1
 -2        25       802       801
 -1       342   12    0    1
 -2       802       804       803
 -1       343   12    0    1
 -2       804        32       805
 -1       344   12    0    1
 -2        25       807       806
 -1       345   12    0    1
 -2       807       809       808
 -1       346   12    0    1
 -2       809       811       810
 -1       347   12    0    1
 -2       811       813       812
 -1       348   12    0    1
 -2       813       815       814
 -1       349   12    0    1
 -2       815       817       816
 -1       350   12    0    1
 -2       817       819       818
 -1       351   12    0    1
 -2       819        33       820
 -1       352   12    0    1
 -2        26       822       821
 -1       353   12    0    1
 -2       822       824       823
 -1       354   12    0    1
 -2       824       826       825
 -1       355   12    0    1
 -2       826       828       827
 -1       356   12    0    1
 -2       828       830       829
 -1       357   12    0    1
 -2       830       832       831
 -1       358   12    0    1
 -2       832       834       833
 -1       359   12    0    1
 -2       834        27       835
 -1       360   12    0    1
 -2        26       837       836
 -1       361   12    0    1
 -2       837       839       838
 -1       362   12    0    1
 -2       839        33       840
 -1       363   12    0    1
 -2        26       842       841
 -1       364   12    0    1
 -2       842       844       843
 -1       365   12    0    1
 -2       844       846       845
 -1       366   12    0    1
 -2       846       848       847
 -1       367   12    0    1
 -2       848       850       849
 -1       368   12    0    1
 -2       850       852       851
 -1       369   12    0    1
 -2       852       854       853
 -1       370   12    0    1
 -2       854        34       855
 -1       371   12    0    1
 -2        27       857       856
 -1       372   12    0    1
 -2       857       859       858
 -1       373   12    0    1
 -2       859       861       860
 -1       374   12    0    1
 -2       861       863       862
 -1       375   12    0    1
 -2       863       865       864
 -1       376   12    0    1
 -2       865       867       866
 -1       377   12    0    1
 -2       867       869       868
 -1       378   12    0    1
 -2       869        28       870
 -1       379   12    0    1
 -2        27       872       871
 -1       380   12    0    1
 -2       872       874       873
 -1       381   12    0    1
 -2       874        34       875
 -1       382   12    0    1
 -2        27       877       876
 -1       383   12    0    1
 -2       877       879       878
 -1       384   12    0    1
 -2       879       881       880
 -1       385   12    0    1
 -2       881       883       882
 -1       386   12    0    1
 -2       883       885       884
 -1       387   12    0    1
 -2       885       887       886
 -1       388   12    0    1
 -2       887       889       888
 -1       389   12    0    1
 -2       889        35       890
 -1       390   12    0    1
 -2        28       892       891
 -1       391   12    0    1
 -2       892       894       893
 -1       392   12    0    1
 -2       894        35       895
 -1       393   12    0    1
 -2        29       897       896
 -1       394   12    0    1
 -2       897       899       898
 -1       395   12    0    1
 -2       899       901       900
 -1       396   12    0    1
 -2       901       903       902
 -1       397   12    0    1
 -2       903       905       904
 -1       398   12    0    1
 -2       905       907       906
 -1       399   12    0    1
 -2       907       909       908
 -1       400   12    0    1
 -2       909        30       910
 -1       401   12    0    1
 -2        30       912       911
 -1       402   12    0    1
 -2       912       914       913
 -1       403   12    0    1
 -2       914       916       915
 -1       404   12    0    1
 -2       916       918       917
 -1       405   12    0    1
 -2       918       920       919
 -1       406   12    0    1
 -2       920       922       921
 -1       407   12    0    1
 -2       922       924       923
 -1       408   12    0    1
 -2       924        31       925
 -1       409   12    0    1
 -2        31       927       926
 -1       410   12    0    1
 -2       927       929       928
 -1       411   12    0    1
 -2       929       931       930
 -1       412   12    0    1
 -2       931       933       932
 -1       413   12    0    1
 -2       933       935       934
 -1       414   12    0    1
 -2       935       937       936
 -1       415   12    0    1
 -2       937       939       938
 -1       416   12    0    1
 -2       939        32       940
 -1       417   12    0    1
 -2        32       942       941
 -1       418   12    0    1
 -2       942       944       943
 -1       419   12    0    1
 -2       944       946       945
 -1       420   12    0    1
 -2       946       948       947
 -1       421   12    0    1
 -2       948       950       949
 -1       422   12    0    1
 -2       950       952       951
 -1       423   12    0    1
 -2       952       954       953
 -1       424   12    0    1
 -2       954        33       955
 -1       425   12    0    1
 -2        33       957       956
 -1       426   12    0    1
 -2       957       959       958
 -1       427   12    0    1
 -2       959       961       960
 -1       428   12    0    1
 -2       961       963       962
 -1       429   12    0    1
 -2       963       965       964
 -1       430   12    0    1
 -2       965       967       966
 -1       431   12    0    1
 -2       967       969       968
 -1       432   12    0    1
 -2       969        34       970
 -1       433   12    0    1
 -2        34       972       971
 -1       434   12    0    1
 -2       972       974       973
 -1       435   12    0    1
 -2       974       976       975
 -1       436   12    0    1
 -2       976       978       977
 -1       437   12    0    1
 -2       978       980       979
 -1       438   12    0    1
 -2       980       982       981
 -1       439   12    0    1
 -2       982       984       983
 -1       440   12    0    1
 -2       984        35       985
 -3
    1PSTEP                         1           1           1          
  100CL  101 1.000000000         841                     0    1           1
 -4  DISP        4    1
 -5  D1          1    2    1    0
 -5  D2          1    2    2    0
 -5  D3          1    2    3    0
 -5  ALL         1    2    0    0    1ALL
 -1         1 5.97003E-05 0.00000E+00 0.00000E+00
 -1         2 4.81671E-05 0.00000E+00 0.00000E+00
 -1         3 4.42984E-05 0.00000E+00 0.00000E+00
 -1         4 4.36644E-05 0.00000E+00 0.00000E+00
 -1         5 4.36186E-05 0.00000E+00 0.00000E+00
 -1         8 3.69937E-05-1.45654E-06 0.00000E+00
 -1         9 3.97397E-05 1.13513E-06 0.00000E+00
 -1        10 3.98783E-05-2.71366E-07 0.00000E+00
 -1        11 4.09426E-05-3.14737E-08 0.00000E+00
 -1        12 4.20377E-05 3.31806E-06 0.00000E+00
 -1        15 1.89044E-05-1.78066E-06 0.00000E+00
 -1        16 2.40786E-05 1.38501E-06 0.00000E+00
 -1        17 2.70885E-05-5.84390E-07 0.00000E+00
 -1        18 3.15493E-05-1.67682E-07 0.00000E+00
 -1        19 3.60632E-05 6.57215E-06 0.00000E+00
 -1        20 3.75088E-05 6.01541E-05 0.00000E+00
 -1        21 3.74679E-05 1.16737E-04 0.00000E+00
 -1        22 8.60758E-06-1.13557E-06 0.00000E+00
 -1        23 1.11053E-05 1.73816E-06 0.00000E+00
 -1        24 1.32088E-05-7.71452E-07 0.00000E+00
 -1        25 1.85125E-05-3.45807E-08 0.00000E+00
 -1        26 2.26543E-05 8.70817E-06 0.00000E+00
 -1        27 1.98572E-05 5.94275E-05 0.00000E+00
 -1        28 1.84614E-05 1.16072E-04 0.00000E+00
 -1        29 0.00000E+00 0.00000E+00 0.00000E+00
 -1        30 4.24439E-06 2.13788E-06 0.00000E+00
 -1        31 5.17841E-06-3.16894E-08 0.00000E+00
 -1        32 0.00000E+00 0.00000E+00 0.00000E+00
 -1        33 6.56194E-06 1.04920E-05 0.00000E+00
 -1        34 3.80765E-06 5.92708E-05 0.00000E+00
 -1        35 1.21428E-06 1.15692E-04 0.00000E+00
 -1        36 5.89836E-05-1.42275E-21 0.00000E+00
 -1        37 5.82615E-05-3.38813E-21 0.00000E+00
 -1        38 5.75390E-05-3.16976E-21 2.64698E-23
 -1        39 5.68158E-05 1.99185E-21 0.00000E+00
 -1        40 5.60925E-05-6.81597E-21-2.64698E-23
 -1        41 5.53691E-05-1.03497E-20 1.32349E-23
 -1        42 5.46456E-05-5.20131E-21-2.64698E-23
 -1        43 5.39221E-05-1.95215E-21-1.32349E-23
 -1        44 5.31986E-05 1.02570E-21 0.00000E+00
 -1        45 5.24753E-05 4.51310E-21 0.00000E+00
 -1        46 5.17521E-05 1.38834E-20-2.64698E-23
 -1        47 5.10293E-05 1.54584E-20-1.32349E-23
 -1        48 5.03071E-05 1.89457E-20 0.00000E+00
 -1        49 4.95870E-05 1.66892E-20 0.00000E+00
 -1        50 4.88680E-05 6.94170E-21-1.32349E-23
 -1        51 5.81329E-05-2.55515E-07-9.92617E-24
 -1        52 5.51452E-05-4.96396E-07-4.96308E-24
 -1        53 5.11331E-05-7.37089E-07 8.27181E-25
 -1        54 4.65011E-05-9.77807E-07 1.65436E-24
 -1        55 4.16538E-05-1.21842E-06 0.00000E+00
 -1        56 5.86599E-05-4.22383E-07 0.00000E+00
 -1        57 5.76055E-05-8.71283E-07 0.00000E+00
 -1        58 5.65502E-05-1.32042E-06-2.64698E-23
 -1        59 5.54853E-05-1.75155E-06 0.00000E+00
 -1        60 5.44058E-05-2.14521E-06 2.64698E-23
 -1        61 5.33047E-05-2.48273E-06 0.00000E+00
 -1        62 5.21755E-05-2.74556E-06 0.00000E+00
 -1        63 5.10114E-05-2.91556E-06 0.00000E+00
 -1        64 4.98057E-05-2.97482E-06 0.00000E+00
 -1        65 4.85521E-05-2.90591E-06 0.00000E+00
 -1        66 4.72442E-05-2.69174E-06 0.00000E+00
 -1        67 4.58763E-05-2.31569E-06 0.00000E+00
 -1        68 4.44427E-05-1.76167E-06 0.00000E+00
 -1        69 4.29410E-05-1.01321E-06 0.00000E+00
 -1        70 4.13628E-05-5.66276E-08 0.00000E+00
 -1        71 4.79215E-05-4.21035E-21 6.61744E-24
 -1        72 4.76787E-05-7.30897E-21 0.00000E+00
 -1        73 4.74361E-05-6.89538E-21 0.00000E+00
 -1        74 4.71938E-05-9.55063E-21 3.30872E-24
 -1        75 4.69517E-05-9.26111E-21 6.61744E-24
 -1        76 4.67096E-05-8.67712E-21 0.00000E+00
 -1        77 4.64675E-05-3.56846E-21 0.00000E+00
 -1        78 4.62255E-05-1.08195E-21 3.30872E-24
 -1        79 4.59835E-05 8.17254E-22 6.61744E-24
 -1        80 4.57415E-05-1.59480E-21 0.00000E+00
 -1        81 4.54995E-05-3.54695E-21 0.00000E+00
 -1        82 4.52577E-05-2.83888E-21 0.00000E+00
 -1        83 4.50161E-05-1.76686E-21 0.00000E+00
 -1        84 4.47750E-05-5.24433E-22-3.30872E-24
 -1        85 4.45342E-05-4.99617E-22 0.00000E+00
 -1        86 4.77157E-05 1.74054E-07 0.00000E+00
 -1        87 4.66888E-05 3.69568E-07 0.00000E+00
 -1        88 4.52315E-05 5.65381E-07 3.30872E-24
 -1        89 4.34901E-05 7.61340E-07 0.00000E+00
 -1        90 4.16109E-05 9.56793E-07 0.00000E+00
 -1        91 4.77231E-05-1.95869E-07 0.00000E+00
 -1        92 4.72830E-05-4.22856E-07 0.00000E+00
 -1        93 4.68492E-05-6.67268E-07-1.32349E-23
 -1        94 4.64168E-05-9.17881E-07 0.00000E+00
 -1        95 4.59821E-05-1.16308E-06 1.32349E-23
 -1        96 4.55410E-05-1.39143E-06 0.00000E+00
 -1        97 4.50893E-05-1.59154E-06 1.32349E-23
 -1        98 4.46227E-05-1.75207E-06-6.61744E-24
 -1        99 4.41370E-05-1.86176E-06-1.32349E-23
 -1       100 4.36281E-05-1.90939E-06 6.61744E-24
 -1       101 4.30919E-05-1.88384E-06 0.00000E+00
 -1       102 4.25243E-05-1.77407E-06-6.61744E-24
 -1       103 4.19215E-05-1.56918E-06-1.32349E-23
 -1       104 4.12805E-05-1.25802E-06 0.00000E+00
 -1       105 4.05964E-05-8.30373E-07 1.32349E-23
 -1       106 4.42543E-05-1.92237E-21 3.30872E-24
 -1       107 4.42140E-05-4.38571E-21-8.27181E-25
 -1       108 4.41740E-05-7.38858E-21-1.65436E-24
 -1       109 4.41344E-05-9.92224E-21 0.00000E+00
 -1       110 4.40950E-05-5.37585E-21-1.65436E-24
 -1       111 4.40556E-05 4.28852E-21-8.27181E-25
 -1       112 4.40163E-05 5.66826E-21-1.65436E-24
 -1       113 4.39770E-05 4.98955E-21 8.27181E-25
 -1       114 4.39377E-05 1.39711E-21-1.65436E-24
 -1       115 4.38984E-05-7.89957E-23 0.00000E+00
 -1       116 4.38592E-05 5.99127E-21-8.27181E-25
 -1       117 4.38199E-05 4.98335E-21-4.13590E-25
 -1       118 4.37807E-05 2.60769E-21 0.00000E+00
 -1       119 4.37416E-05 2.60562E-22 4.13590E-25
 -1       120 4.37025E-05-1.87770E-22 0.00000E+00
 -1       121 4.40435E-05-4.71088E-08 3.30872E-24
 -1       122 4.34777E-05-9.07109E-08 4.13590E-25
 -1       123 4.26890E-05-1.34381E-07 1.65436E-24
 -1       124 4.17667E-05-1.78296E-07 0.00000E+00
 -1       125 4.08002E-05-2.22416E-07-3.30872E-24
 -1       126 4.41270E-05-9.77773E-08-6.61744E-24
 -1       127 4.39670E-05-2.33609E-07 0.00000E+00
 -1       128 4.38168E-05-3.95970E-07 0.00000E+00
 -1       129 4.36722E-05-5.74174E-07 3.30872E-24
 -1       130 4.35294E-05-7.57384E-07 6.61744E-24
 -1       131 4.33844E-05-9.34829E-07 3.30872E-24
 -1       132 4.32332E-05-1.09574E-06 0.00000E+00
 -1       133 4.30718E-05-1.22938E-06-3.30872E-24
 -1       134 4.28961E-05-1.32501E-06 0.00000E+00
 -1       135 4.27021E-05-1.37191E-06 0.00000E+00
 -1       136 4.24860E-05-1.35940E-06 0.00000E+00
 -1       137 4.22437E-05-1.27681E-06-3.30872E-24
 -1       138 4.19713E-05-1.11353E-06 0.00000E+00
 -1       139 4.16655E-05-8.58799E-07-1.65436E-24
 -1       140 4.13217E-05-5.02286E-07-3.30872E-24
 -1       141 4.36591E-05-2.96402E-21 4.13590E-25
 -1       142 4.36544E-05-9.66393E-21 0.00000E+00
 -1       143 4.36498E-05-1.68510E-20 2.06795E-25
 -1       144 4.36452E-05-2.18328E-20-1.03398E-25
 -1       145 4.36406E-05-2.28466E-20 0.00000E+00
 -1       146 4.36361E-05-1.94368E-20 5.16988E-26
 -1       147 4.36315E-05-1.58065E-20 0.00000E+00
 -1       148 4.36270E-05-1.00849E-20 0.00000E+00
 -1       149 4.36225E-05-2.38652E-21 0.00000E+00
 -1       150 4.36181E-05 4.25160E-21-1.29247E-26
 -1       151 4.36139E-05 3.10022E-21 2.06795E-25
 -1       152 4.36099E-05 1.71743E-22 0.00000E+00
 -1       153 4.36065E-05 1.73501E-22 8.27181E-25
 -1       154 4.36049E-05-1.43199E-21-1.65436E-24
 -1       155 4.36042E-05-1.82952E-21 6.61744E-24
 -1       156 4.35294E-05-5.31818E-09 0.00000E+00
 -1       157 4.32136E-05-1.01200E-08 0.00000E+00
 -1       158 4.27568E-05-1.49785E-08 4.13590E-25
 -1       159 4.21993E-05-1.99719E-08-1.80946E-25
 -1       160 4.15812E-05-2.50566E-08 0.00000E+00
 -1       161 4.36385E-05 6.93384E-10-4.13590E-25
 -1       162 4.36045E-05 2.23862E-08 2.06795E-25
 -1       163 4.35621E-05 6.65701E-08-4.13590E-25
 -1       164 4.35107E-05 1.34604E-07 0.00000E+00
 -1       165 4.34498E-05 2.27863E-07 4.13590E-25
 -1       166 4.33789E-05 3.47716E-07 2.06795E-25
 -1       167 4.32976E-05 4.95526E-07 4.13590E-25
 -1       168 4.32053E-05 6.72656E-07-2.06795E-25
 -1       169 4.31014E-05 8.80473E-07-8.27181E-25
 -1       170 4.29857E-05 1.12035E-06-2.06795E-25
 -1       171 4.28575E-05 1.39364E-06 2.06795E-25
 -1       172 4.27166E-05 1.70180E-06-5.16988E-26
 -1       173 4.25626E-05 2.04621E-06-8.27181E-25
 -1       174 4.23964E-05 2.42875E-06 8.27181E-25
 -1       175 4.22164E-05 2.85033E-06 0.00000E+00
 -1       191 4.35657E-05 5.46434E-07 1.32349E-23
 -1       192 4.34238E-05 1.10212E-06 0.00000E+00
 -1       193 4.31961E-05 1.65888E-06-1.32349E-23
 -1       194 4.28866E-05 2.21565E-06 6.61744E-24
 -1       195 4.24991E-05 2.77136E-06 0.00000E+00
 -1       251 3.71444E-05 1.65390E-06 0.00000E+00
 -1       252 3.73139E-05 3.83451E-06 0.00000E+00
 -1       253 3.74859E-05 5.19926E-06-8.27181E-25
 -1       254 3.76606E-05 5.86413E-06 8.27181E-25
 -1       255 3.78361E-05 5.94463E-06 0.00000E+00
 -1       256 3.80119E-05 5.55602E-06 1.65436E-24
 -1       257 3.81878E-05 4.81336E-06-6.61744E-24
 -1       258 3.83635E-05 3.83151E-06 0.00000E+00
 -1       259 3.85391E-05 2.72521E-06 0.00000E+00
 -1       260 3.87147E-05 1.60917E-06 0.00000E+00
 -1       261 3.88902E-05 5.98053E-07 0.00000E+00
 -1       262 3.90655E-05-1.93403E-07 3.30872E-24
 -1       263 3.92404E-05-6.50359E-07 0.00000E+00
 -1       264 3.94134E-05-6.57863E-07 0.00000E+00
 -1       265 3.95852E-05-1.00606E-07 0.00000E+00
 -1       266 3.32561E-05-1.51948E-06 0.00000E+00
 -1       267 2.96749E-05-1.57535E-06 0.00000E+00
 -1       268 2.63497E-05-1.62992E-06-3.30872E-24
 -1       269 2.33801E-05-1.68240E-06 0.00000E+00
 -1       270 2.08657E-05-1.73337E-06 0.00000E+00
 -1       271 3.51674E-05 1.48481E-06 0.00000E+00
 -1       272 3.36418E-05 3.57028E-06 1.32349E-23
 -1       273 3.23987E-05 4.90453E-06 0.00000E+00
 -1       274 3.13977E-05 5.58882E-06 0.00000E+00
 -1       275 3.06015E-05 5.72653E-06 0.00000E+00
 -1       276 2.99708E-05 5.42197E-06 1.32349E-23
 -1       277 2.94664E-05 4.78030E-06-2.64698E-23
 -1       278 2.90484E-05 3.90750E-06 0.00000E+00
 -1       279 2.86772E-05 2.90995E-06 2.64698E-23
 -1       280 2.83128E-05 1.89439E-06 1.32349E-23
 -1       281 2.79154E-05 9.67595E-07-1.32349E-23
 -1       282 2.74453E-05 2.36135E-07 6.61744E-24
 -1       283 2.68630E-05-1.93754E-07 0.00000E+00
 -1       284 2.61310E-05-2.16002E-07 0.00000E+00
 -1       285 2.52079E-05 2.73480E-07-6.61744E-24
 -1       286 3.97376E-05 2.53139E-06 0.00000E+00
 -1       287 3.97456E-05 3.44775E-06 0.00000E+00
 -1       288 3.97544E-05 3.94362E-06 0.00000E+00
 -1       289 3.97644E-05 4.07975E-06 0.00000E+00
 -1       290 3.97748E-05 3.91677E-06 0.00000E+00
 -1       291 3.97854E-05 3.51535E-06 0.00000E+00
 -1       292 3.97960E-05 2.93613E-06 0.00000E+00
 -1       293 3.98065E-05 2.23977E-06-6.78547E-26
 -1       294 3.98170E-05 1.48692E-06 0.00000E+00
 -1       295 3.98275E-05 7.38226E-07 0.00000E+00
 -1       296 3.98380E-05 5.43287E-08 0.00000E+00
 -1       297 3.98483E-05-5.04120E-07 0.00000E+00
 -1       298 3.98585E-05-8.76463E-07 0.00000E+00
 -1       299 3.98679E-05-1.00209E-06 4.13590E-25
 -1       300 3.98768E-05-8.20282E-07-4.13590E-25
 -1       301 3.74566E-05 1.16816E-06-1.65436E-24
 -1       302 3.47991E-05 1.21158E-06 0.00000E+00
 -1       303 3.19487E-05 1.25604E-06 0.00000E+00
 -1       304 2.90894E-05 1.30100E-06 0.00000E+00
 -1       305 2.64055E-05 1.34578E-06 0.00000E+00
 -1       306 3.85019E-05 2.28711E-06-1.32349E-23
 -1       307 3.74115E-05 2.97714E-06 0.00000E+00
 -1       308 3.64686E-05 3.27190E-06 0.00000E+00
 -1       309 3.56486E-05 3.23156E-06-1.32349E-23
 -1       310 3.49302E-05 2.91821E-06 0.00000E+00
 -1       311 3.42903E-05 2.39409E-06 1.32349E-23
 -1       312 3.37057E-05 1.72187E-06 0.00000E+00
 -1       313 3.31530E-05 9.64595E-07-1.32349E-23
 -1       314 3.26084E-05 1.85481E-07-2.64698E-23
 -1       315 3.20484E-05-5.52186E-07 0.00000E+00
 -1       316 3.14493E-05-1.18523E-06 0.00000E+00
 -1       317 3.07881E-05-1.65069E-06 0.00000E+00
 -1       318 3.00413E-05-1.88595E-06 2.64698E-23
 -1       319 2.91879E-05-1.82837E-06 6.61744E-24
 -1       320 2.82030E-05-1.41728E-06 0.00000E+00
 -1       321 3.99340E-05 3.79160E-07 1.65436E-24
 -1       322 3.99997E-05 8.00227E-07 2.06795E-25
 -1       323 4.00660E-05 1.02243E-06 0.00000E+00
 -1       324 4.01335E-05 1.07697E-06 8.27181E-25
 -1       325 4.02013E-05 9.94943E-07 1.65436E-24
 -1       326 4.02693E-05 8.07468E-07 0.00000E+00
 -1       327 4.03374E-05 5.45622E-07-1.65436E-24
 -1       328 4.04055E-05 2.40478E-07 8.27181E-25
 -1       329 4.04736E-05-7.68979E-08-1.65436E-24
 -1       330 4.05418E-05-3.75452E-07 0.00000E+00
 -1       331 4.06099E-05-6.24118E-07-3.30872E-24
 -1       332 4.06779E-05-7.91820E-07 0.00000E+00
 -1       333 4.07458E-05-8.47473E-07 0.00000E+00
 -1       334 4.08131E-05-7.59986E-07 0.00000E+00
 -1       335 4.08801E-05-4.98194E-07 0.00000E+00
 -1       336 3.84441E-05-3.25671E-07 2.06795E-24
 -1       337 3.63615E-05-3.76227E-07 0.00000E+00
 -1       338 3.39065E-05-4.27334E-07 0.00000E+00
 -1       339 3.13575E-05-4.78624E-07-1.65436E-24
 -1       340 2.89926E-05-5.29657E-07-6.61744E-24
 -1       341 3.91921E-05 2.14749E-07-1.32349E-23
 -1       342 3.85778E-05 4.69271E-07 0.00000E+00
 -1       343 3.80353E-05 5.30883E-07 0.00000E+00
 -1       344 3.75504E-05 4.34171E-07-6.61744E-24
 -1       345 3.71113E-05 2.14630E-07-1.32349E-23
 -1       346 3.67046E-05-9.23869E-08-6.61744E-24
 -1       347 3.63173E-05-4.51407E-07-1.32349E-23
 -1       348 3.59362E-05-8.26898E-07-6.61744E-24
 -1       349 3.55479E-05-1.18330E-06 0.00000E+00
 -1       350 3.51392E-05-1.48511E-06-6.61744E-24
 -1       351 3.46969E-05-1.69686E-06-1.32349E-23
 -1       352 3.42080E-05-1.78320E-06 0.00000E+00
 -1       353 3.36594E-05-1.70897E-06-1.32349E-23
 -1       354 3.30397E-05-1.43875E-06 0.00000E+00
 -1       355 3.23345E-05-9.38418E-07 6.61744E-24
 -1       356 4.10044E-05 4.98388E-07 1.29247E-26
 -1       357 4.10708E-05 9.14369E-07-8.27181E-25
 -1       358 4.11374E-05 1.23151E-06 1.65436E-24
 -1       359 4.12046E-05 1.46515E-06 0.00000E+00
 -1       360 4.12720E-05 1.63058E-06-1.65436E-24
 -1       361 4.13395E-05 1.74309E-06 8.27181E-25
 -1       362 4.14070E-05 1.81796E-06 1.65436E-24
 -1       363 4.14746E-05 1.87047E-06-8.27181E-25
 -1       364 4.15422E-05 1.91588E-06 0.00000E+00
 -1       365 4.16099E-05 1.96948E-06 8.27181E-25
 -1       366 4.16777E-05 2.04651E-06 0.00000E+00
 -1       367 4.17458E-05 2.16228E-06 1.65436E-24
 -1       368 4.18143E-05 2.33204E-06-3.30872E-24
 -1       369 4.18842E-05 2.57109E-06 0.00000E+00
 -1       370 4.19548E-05 2.89475E-06 0.00000E+00
 -1       371 3.98982E-05-5.41323E-08 0.00000E+00
 -1       372 3.83943E-05-7.66483E-08-2.06795E-25
 -1       373 3.66185E-05-9.94944E-08-4.13590E-25
 -1       374 3.47598E-05-1.22416E-07-4.13590E-25
 -1       375 3.30075E-05-1.45167E-07 0.00000E+00
 -1       376 4.06320E-05 4.05587E-07-3.30872E-24
 -1       377 4.03796E-05 6.74652E-07 0.00000E+00
 -1       378 4.01764E-05 8.11807E-07 0.00000E+00
 -1       379 4.00091E-05 8.52038E-07 0.00000E+00
 -1       380 3.98648E-05 8.30571E-07 0.00000E+00
 -1       381 3.97303E-05 7.82562E-07 0.00000E+00
 -1       382 3.95926E-05 7.43181E-07 0.00000E+00
 -1       383 3.94384E-05 7.47582E-07-1.65436E-24
 -1       384 3.92547E-05 8.30901E-07 0.00000E+00
 -1       385 3.90282E-05 1.02824E-06 0.00000E+00
 -1       386 3.87460E-05 1.37466E-06 0.00000E+00
 -1       387 3.83949E-05 1.90520E-06 0.00000E+00
 -1       388 3.79621E-05 2.65479E-06 1.65436E-24
 -1       389 3.74358E-05 3.65871E-06-8.27181E-25
 -1       390 3.68017E-05 4.95125E-06 0.00000E+00
 -1       406 4.15505E-05 3.85622E-06 0.00000E+00
 -1       407 4.09102E-05 4.40277E-06 0.00000E+00
 -1       408 4.00786E-05 4.94999E-06 0.00000E+00
 -1       409 3.90184E-05 5.49651E-06 6.61744E-24
 -1       410 3.76920E-05 6.04104E-06 0.00000E+00
 -1       466 1.92133E-05-5.07487E-07 6.61744E-24
 -1       467 1.95368E-05 3.12663E-07 0.00000E+00
 -1       468 1.98613E-05 7.45896E-07-6.61744E-24
 -1       469 2.01877E-05 8.59132E-07 0.00000E+00
 -1       470 2.05145E-05 7.18951E-07 6.61744E-24
 -1       471 2.08415E-05 3.91699E-07 0.00000E+00
 -1       472 2.11687E-05-5.64158E-08 0.00000E+00
 -1       473 2.14959E-05-5.59317E-07-6.61744E-24
 -1       474 2.18230E-05-1.05098E-06-1.32349E-23
 -1       475 2.21502E-05-1.46536E-06 6.61744E-24
 -1       476 2.24772E-05-1.73634E-06 0.00000E+00
 -1       477 2.28038E-05-1.79768E-06-6.61744E-24
 -1       478 2.31297E-05-1.58294E-06 0.00000E+00
 -1       479 2.34533E-05-1.02547E-06 0.00000E+00
 -1       480 2.37755E-05-5.82093E-08 0.00000E+00
 -1       481 1.71750E-05-1.67696E-06 0.00000E+00
 -1       482 1.53336E-05-1.56895E-06 1.65436E-24
 -1       483 1.34680E-05-1.46075E-06 0.00000E+00
 -1       484 1.16663E-05-1.35212E-06-8.27181E-25
 -1       485 1.00170E-05-1.24320E-06 3.30872E-24
 -1       486 1.80482E-05-5.30268E-07 6.61744E-24
 -1       487 1.72952E-05 3.97399E-07 0.00000E+00
 -1       488 1.66466E-05 1.04528E-06 0.00000E+00
 -1       489 1.60868E-05 1.45137E-06 0.00000E+00
 -1       490 1.56027E-05 1.65481E-06-1.32349E-23
 -1       491 1.51796E-05 1.69455E-06 6.61744E-24
 -1       492 1.48031E-05 1.60974E-06-1.32349E-23
 -1       493 1.44585E-05 1.43966E-06 6.61744E-24
 -1       494 1.41312E-05 1.22364E-06 0.00000E+00
 -1       495 1.38063E-05 1.00113E-06 6.61744E-24
 -1       496 1.34692E-05 8.11527E-07-1.32349E-23
 -1       497 1.31053E-05 6.94267E-07 0.00000E+00
 -1       498 1.26999E-05 6.88679E-07 0.00000E+00
 -1       499 1.22395E-05 8.34308E-07 0.00000E+00
 -1       500 1.17084E-05 1.16982E-06 0.00000E+00
 -1       501 2.42533E-05 2.77717E-06 1.65436E-24
 -1       502 2.44413E-05 3.61229E-06 8.27181E-25
 -1       503 2.46303E-05 3.96578E-06 0.00000E+00
 -1       504 2.48210E-05 3.91431E-06-3.30872E-24
 -1       505 2.50120E-05 3.53424E-06 3.30872E-24
 -1       506 2.52032E-05 2.90176E-06-3.30872E-24
 -1       507 2.53943E-05 2.09296E-06 0.00000E+00
 -1       508 2.55855E-05 1.18381E-06-3.30872E-24
 -1       509 2.57766E-05 2.50250E-07 6.61744E-24
 -1       510 2.59678E-05-6.31808E-07 3.30872E-24
 -1       511 2.61588E-05-1.38644E-06 0.00000E+00
 -1       512 2.63497E-05-1.93762E-06-6.61744E-24
 -1       513 2.65401E-05-2.20923E-06 0.00000E+00
 -1       514 2.67288E-05-2.12505E-06 6.61744E-24
 -1       515 2.69164E-05-1.60856E-06 0.00000E+00
 -1       516 2.19167E-05 1.43870E-06 0.00000E+00
 -1       517 1.94522E-05 1.49873E-06 0.00000E+00
 -1       518 1.69114E-05 1.55885E-06 6.20385E-25
 -1       519 1.45219E-05 1.61953E-06 0.00000E+00
 -1       520 1.25113E-05 1.68085E-06 0.00000E+00
 -1       521 2.29163E-05 2.60950E-06-1.32349E-23
 -1       522 2.19093E-05 3.34862E-06 6.61744E-24
 -1       523 2.10576E-05 3.67154E-06 0.00000E+00
 -1       524 2.03356E-05 3.64060E-06 0.00000E+00
 -1       525 1.97216E-05 3.32002E-06-2.64698E-23
 -1       526 1.91915E-05 2.77410E-06 1.32349E-23
 -1       527 1.87213E-05 2.06761E-06 0.00000E+00
 -1       528 1.82869E-05 1.26559E-06 1.32349E-23
 -1       529 1.78638E-05 4.33292E-07 0.00000E+00
 -1       530 1.74276E-05-3.63960E-07-1.32349E-23
 -1       531 1.69540E-05-1.06093E-06-2.64698E-23
 -1       532 1.64190E-05-1.59255E-06-6.61744E-24
 -1       533 1.57983E-05-1.89406E-06 0.00000E+00
 -1       534 1.50697E-05-1.90076E-06 0.00000E+00
 -1       535 1.42077E-05-1.54954E-06 0.00000E+00
 -1       536 2.73468E-05 5.18402E-07 4.13590E-25
 -1       537 2.76244E-05 1.22305E-06-3.30872E-24
 -1       538 2.79033E-05 1.58383E-06 6.61744E-24
 -1       539 2.81845E-05 1.65580E-06 3.30872E-24
 -1       540 2.84664E-05 1.49372E-06 0.00000E+00
 -1       541 2.87487E-05 1.15220E-06-3.30872E-24
 -1       542 2.90311E-05 6.85681E-07 0.00000E+00
 -1       543 2.93136E-05 1.48533E-07-3.30872E-24
 -1       544 2.95961E-05-4.04934E-07 0.00000E+00
 -1       545 2.98785E-05-9.20439E-07 3.30872E-24
 -1       546 3.01609E-05-1.34366E-06 0.00000E+00
 -1       547 3.04430E-05-1.62020E-06 0.00000E+00
 -1       548 3.07246E-05-1.69555E-06 0.00000E+00
 -1       549 3.10047E-05-1.51506E-06 0.00000E+00
 -1       550 3.12839E-05-1.02383E-06 0.00000E+00
 -1       551 2.50851E-05-6.18666E-07 2.48154E-24
 -1       552 2.26836E-05-6.48070E-07-4.13590E-25
 -1       553 2.00883E-05-6.77223E-07 1.65436E-24
 -1       554 1.75065E-05-7.06449E-07 0.00000E+00
 -1       555 1.51452E-05-7.36056E-07 0.00000E+00
 -1       556 2.62367E-05 3.33842E-07 0.00000E+00
 -1       557 2.55066E-05 8.87017E-07 0.00000E+00
 -1       558 2.48912E-05 1.12954E-06 1.32349E-23
 -1       559 2.43712E-05 1.11375E-06-6.61744E-24
 -1       560 2.39279E-05 8.92270E-07-1.32349E-23
 -1       561 2.35417E-05 5.17775E-07 0.00000E+00
 -1       562 2.31930E-05 4.29822E-08 0.00000E+00
 -1       563 2.28620E-05-4.79315E-07-6.61744E-24
 -1       564 2.25291E-05-9.96301E-07 0.00000E+00
 -1       565 2.21744E-05-1.45518E-06 0.00000E+00
 -1       566 2.17783E-05-1.80316E-06 0.00000E+00
 -1       567 2.13212E-05-1.98752E-06 6.61744E-24
 -1       568 2.07834E-05-1.95564E-06-6.61744E-24
 -1       569 2.01466E-05-1.65483E-06 0.00000E+00
 -1       570 1.93912E-05-1.03282E-06 6.61744E-24
 -1       571 3.18150E-05 6.98753E-07 1.65436E-24
 -1       572 3.20944E-05 1.29313E-06-1.65436E-24
 -1       573 3.23760E-05 1.65991E-06 0.00000E+00
 -1       574 3.26592E-05 1.84497E-06-3.30872E-24
 -1       575 3.29429E-05 1.89410E-06 6.61744E-24
 -1       576 3.32270E-05 1.85314E-06 0.00000E+00
 -1       577 3.35111E-05 1.76793E-06 0.00000E+00
 -1       578 3.37953E-05 1.68426E-06 0.00000E+00
 -1       579 3.40795E-05 1.64796E-06 0.00000E+00
 -1       580 3.43637E-05 1.70484E-06 6.61744E-24
 -1       581 3.46479E-05 1.90077E-06-1.32349E-23
 -1       582 3.49320E-05 2.28166E-06 0.00000E+00
 -1       583 3.52159E-05 2.89346E-06 0.00000E+00
 -1       584 3.54994E-05 3.78210E-06 0.00000E+00
 -1       585 3.57823E-05 4.99360E-06-1.32349E-23
 -1       586 2.98332E-05-1.45299E-07 0.00000E+00
 -1       587 2.76857E-05-1.21351E-07 0.00000E+00
 -1       588 2.52921E-05-9.76872E-08 0.00000E+00
 -1       589 2.28403E-05-7.45191E-08 0.00000E+00
 -1       590 2.05185E-05-5.19146E-08 0.00000E+00
 -1       591 3.09125E-05 6.41371E-07 0.00000E+00
 -1       592 3.03439E-05 1.23098E-06-6.61744E-24
 -1       593 2.98401E-05 1.64302E-06-1.32349E-23
 -1       594 2.93869E-05 1.91665E-06 0.00000E+00
 -1       595 2.89704E-05 2.09130E-06-1.32349E-23
 -1       596 2.85761E-05 2.20625E-06-6.61744E-24
 -1       597 2.81893E-05 2.30078E-06 0.00000E+00
 -1       598 2.77955E-05 2.41417E-06 0.00000E+00
 -1       599 2.73798E-05 2.58569E-06 6.61744E-24
 -1       600 2.69276E-05 2.85456E-06 3.30872E-24
 -1       601 2.64242E-05 3.25998E-06 0.00000E+00
 -1       602 2.58552E-05 3.84112E-06 3.30872E-24
 -1       603 2.52060E-05 4.63708E-06 0.00000E+00
 -1       604 2.44631E-05 5.68708E-06 0.00000E+00
 -1       605 2.36124E-05 7.03003E-06 0.00000E+00
 -1       606 3.61655E-05 8.63797E-06-6.61744E-24
 -1       607 3.62604E-05 1.10004E-05 0.00000E+00
 -1       608 3.63537E-05 1.36338E-05 0.00000E+00
 -1       609 3.64456E-05 1.65110E-05 6.61744E-24
 -1       610 3.65366E-05 1.96047E-05 0.00000E+00
 -1       611 3.66269E-05 2.28879E-05 6.61744E-24
 -1       612 3.67166E-05 2.63331E-05-6.61744E-24
 -1       613 3.68059E-05 2.99133E-05 1.65436E-24
 -1       614 3.68947E-05 3.36014E-05-3.30872E-24
 -1       615 3.69833E-05 3.73699E-05-1.65436E-24
 -1       616 3.70717E-05 4.11920E-05 0.00000E+00
 -1       617 3.71598E-05 4.50403E-05 0.00000E+00
 -1       618 3.72479E-05 4.88877E-05 1.65436E-24
 -1       619 3.73358E-05 5.27071E-05 0.00000E+00
 -1       620 3.74235E-05 5.64715E-05 8.27181E-25
 -1       621 3.39981E-05 6.92761E-06 0.00000E+00
 -1       622 3.17843E-05 7.28747E-06-1.98523E-23
 -1       623 2.94820E-05 7.64740E-06 0.00000E+00
 -1       624 2.71523E-05 8.00639E-06-3.30872E-24
 -1       625 2.48563E-05 8.36366E-06 0.00000E+00
 -1       626 3.54885E-05 8.72641E-06-1.32349E-23
 -1       627 3.47957E-05 1.11876E-05 0.00000E+00
 -1       628 3.39985E-05 1.39245E-05 0.00000E+00
 -1       629 3.31094E-05 1.69036E-05-3.30872E-24
 -1       630 3.21413E-05 2.00916E-05 6.61744E-24
 -1       631 3.11067E-05 2.34552E-05-3.30872E-24
 -1       632 3.00182E-05 2.69611E-05-6.61744E-24
 -1       633 2.88884E-05 3.05759E-05 3.30872E-24
 -1       634 2.77299E-05 3.42666E-05 0.00000E+00
 -1       635 2.65553E-05 3.79997E-05-3.30872E-24
 -1       636 2.53770E-05 4.17421E-05 0.00000E+00
 -1       637 2.42076E-05 4.54606E-05 0.00000E+00
 -1       638 2.30596E-05 4.91220E-05 0.00000E+00
 -1       639 2.19449E-05 5.26927E-05 0.00000E+00
 -1       640 2.08759E-05 5.61397E-05 1.65436E-24
 -1       641 3.75078E-05 6.37498E-05 0.00000E+00
 -1       642 3.75054E-05 6.73591E-05 0.00000E+00
 -1       643 3.75030E-05 7.09775E-05-2.06795E-25
 -1       644 3.75003E-05 7.46003E-05-1.03398E-25
 -1       645 3.74977E-05 7.82230E-05-1.03398E-25
 -1       646 3.74950E-05 8.18408E-05-2.58494E-26
 -1       647 3.74924E-05 8.54492E-05 5.16988E-26
 -1       648 3.74897E-05 8.90435E-05-3.23117E-27
 -1       649 3.74872E-05 9.26191E-05-5.16988E-26
 -1       650 3.74847E-05 9.61714E-05-2.58494E-26
 -1       651 3.74823E-05 9.96958E-05 0.00000E+00
 -1       652 3.74799E-05 1.03188E-04 0.00000E+00
 -1       653 3.74776E-05 1.06642E-04 0.00000E+00
 -1       654 3.74751E-05 1.10055E-04-2.06795E-25
 -1       655 3.74726E-05 1.13422E-04 0.00000E+00
 -1       656 3.41843E-05 6.00365E-05-3.30872E-24
 -1       657 3.11490E-05 5.99133E-05 0.00000E+00
 -1       658 2.83013E-05 5.97904E-05 0.00000E+00
 -1       659 2.55384E-05 5.96677E-05 0.00000E+00
 -1       660 2.27578E-05 5.95450E-05 0.00000E+00
 -1       661 3.62641E-05 6.37826E-05 1.65436E-24
 -1       662 3.50216E-05 6.74158E-05 1.65436E-24
 -1       663 3.37797E-05 7.10478E-05 3.30872E-24
 -1       664 3.25404E-05 7.46743E-05-1.65436E-24
 -1       665 3.13051E-05 7.82904E-05 0.00000E+00
 -1       666 3.00755E-05 8.18917E-05 0.00000E+00
 -1       667 2.88533E-05 8.54735E-05 0.00000E+00
 -1       668 2.76402E-05 8.90314E-05 0.00000E+00
 -1       669 2.64379E-05 9.25606E-05 3.30872E-24
 -1       670 2.52482E-05 9.60566E-05 0.00000E+00
 -1       671 2.40728E-05 9.95148E-05 3.30872E-24
 -1       672 2.29133E-05 1.02930E-04 1.65436E-24
 -1       673 2.17715E-05 1.06299E-04 0.00000E+00
 -1       674 2.06485E-05 1.09616E-04 0.00000E+00
 -1       675 1.95466E-05 1.12876E-04-1.65436E-24
 -1       676 3.42170E-05 1.16627E-04 3.30872E-24
 -1       677 3.10121E-05 1.16515E-04 0.00000E+00
 -1       678 2.78437E-05 1.16404E-04 3.30872E-24
 -1       679 2.47022E-05 1.16292E-04 0.00000E+00
 -1       680 2.15780E-05 1.16181E-04-1.65436E-24
 -1       681 8.75999E-06-1.31075E-07 3.30872E-24
 -1       682 8.91644E-06 5.86136E-07 0.00000E+00
 -1       683 9.07327E-06 1.05368E-06 0.00000E+00
 -1       684 9.23063E-06 1.30983E-06 0.00000E+00
 -1       685 9.38816E-06 1.39272E-06 3.30872E-24
 -1       686 9.54577E-06 1.34044E-06-1.65436E-24
 -1       687 9.70341E-06 1.19099E-06-6.61744E-24
 -1       688 9.86105E-06 9.82359E-07-1.65436E-24
 -1       689 1.00187E-05 7.52492E-07 0.00000E+00
 -1       690 1.01763E-05 5.39329E-07 0.00000E+00
 -1       691 1.03338E-05 3.80820E-07 0.00000E+00
 -1       692 1.04911E-05 3.14935E-07 0.00000E+00
 -1       693 1.06481E-05 3.79686E-07 0.00000E+00
 -1       694 1.08040E-05 6.13119E-07 0.00000E+00
 -1       695 1.09593E-05 1.05342E-06 0.00000E+00
 -1       696 7.25689E-06-9.51661E-07 0.00000E+00
 -1       697 5.76606E-06-7.62626E-07-3.30872E-24
 -1       698 4.21481E-06-5.73296E-07-6.61744E-24
 -1       699 2.68333E-06-3.83120E-07 0.00000E+00
 -1       700 1.25185E-06-1.92533E-07 6.61744E-24
 -1       701 8.04875E-06-1.36493E-07 0.00000E+00
 -1       702 7.56008E-06 6.43470E-07-1.65436E-24
 -1       703 7.14323E-06 1.23097E-06 0.00000E+00
 -1       704 6.78855E-06 1.64923E-06 3.30872E-24
 -1       705 6.48812E-06 1.92212E-06 0.00000E+00
 -1       706 6.23313E-06 2.07334E-06 0.00000E+00
 -1       707 6.01479E-06 2.12663E-06 0.00000E+00
 -1       708 5.82421E-06 2.10580E-06 0.00000E+00
 -1       709 5.65250E-06 2.03467E-06 0.00000E+00
 -1       710 5.49074E-06 1.93710E-06-3.30872E-24
 -1       711 5.33002E-06 1.83698E-06-6.61744E-24
 -1       712 5.16151E-06 1.75820E-06 0.00000E+00
 -1       713 4.97635E-06 1.72465E-06 0.00000E+00
 -1       714 4.76648E-06 1.76048E-06 0.00000E+00
 -1       715 4.52222E-06 1.88922E-06 0.00000E+00
 -1       716 1.12291E-05 2.34594E-06-6.20385E-25
 -1       717 1.13611E-05 2.59406E-06 8.27181E-25
 -1       718 1.14937E-05 2.53717E-06 0.00000E+00
 -1       719 1.16271E-05 2.23082E-06-1.65436E-24
 -1       720 1.17608E-05 1.73037E-06-3.30872E-24
 -1       721 1.18946E-05 1.09115E-06 0.00000E+00
 -1       722 1.20284E-05 3.68465E-07 0.00000E+00
 -1       723 1.21622E-05-3.82463E-07 0.00000E+00
 -1       724 1.22960E-05-1.10639E-06 0.00000E+00
 -1       725 1.24298E-05-1.74805E-06-1.65436E-24
 -1       726 1.25635E-05-2.25219E-06 0.00000E+00
 -1       727 1.26970E-05-2.56346E-06 0.00000E+00
 -1       728 1.28301E-05-2.62646E-06 0.00000E+00
 -1       729 1.29616E-05-2.38574E-06 3.30872E-24
 -1       730 1.30920E-05-1.78562E-06 0.00000E+00
 -1       731 1.00011E-05 1.80007E-06 8.27181E-25
 -1       732 8.69711E-06 1.86698E-06 0.00000E+00
 -1       733 7.33101E-06 1.93412E-06 0.00000E+00
 -1       734 6.04134E-06 2.00189E-06-8.27181E-25
 -1       735 4.96667E-06 2.07001E-06 8.27181E-25
 -1       736 1.04892E-05 2.32488E-06 6.61744E-24
 -1       737 9.93964E-06 2.69288E-06 0.00000E+00
 -1       738 9.46027E-06 2.87211E-06-1.32349E-23
 -1       739 9.04037E-06 2.88809E-06-6.61744E-24
 -1       740 8.67135E-06 2.76727E-06 0.00000E+00
 -1       741 8.34349E-06 2.53589E-06 0.00000E+00
 -1       742 8.04709E-06 2.22032E-06 0.00000E+00
 -1       743 7.77227E-06 1.84702E-06 0.00000E+00
 -1       744 7.50914E-06 1.44249E-06-1.32349E-23
 -1       745 7.24781E-06 1.03329E-06 6.61744E-24
 -1       746 6.97835E-06 6.45971E-07-1.32349E-23
 -1       747 6.69096E-06 3.07083E-07 6.61744E-24
 -1       748 6.37582E-06 4.31280E-08 0.00000E+00
 -1       749 6.02394E-06-1.19223E-07 0.00000E+00
 -1       750 5.62469E-06-1.53959E-07-6.61744E-24
 -1       751 1.35168E-05 2.40761E-07-1.65436E-24
 -1       752 1.38474E-05 8.45777E-07 1.65436E-24
 -1       753 1.41795E-05 1.10304E-06 0.00000E+00
 -1       754 1.45143E-05 1.07272E-06 0.00000E+00
 -1       755 1.48498E-05 8.14671E-07-6.61744E-24
 -1       756 1.51857E-05 3.88549E-07 6.61744E-24
 -1       757 1.55218E-05-1.46148E-07 0.00000E+00
 -1       758 1.58580E-05-7.30027E-07 0.00000E+00
 -1       759 1.61942E-05-1.30373E-06 1.32349E-23
 -1       760 1.65303E-05-1.80791E-06 6.61744E-24
 -1       761 1.68664E-05-2.18315E-06 0.00000E+00
 -1       762 1.72020E-05-2.36987E-06 0.00000E+00
 -1       763 1.75370E-05-2.30838E-06 0.00000E+00
 -1       764 1.78696E-05-1.93873E-06 0.00000E+00
 -1       765 1.82009E-05-1.20064E-06 0.00000E+00
 -1       766 1.17124E-05-6.57652E-07 4.13590E-25
 -1       767 1.00967E-05-5.31006E-07 4.13590E-25
 -1       768 8.49835E-06-4.03925E-07 1.65436E-24
 -1       769 7.05448E-06-2.76391E-07-3.10193E-25
 -1       770 5.90247E-06-1.48761E-07 0.00000E+00
 -1       771 1.21239E-05 4.47275E-08 1.32349E-23
 -1       772 1.11199E-05 5.73288E-07 0.00000E+00
 -1       773 1.02039E-05 8.58293E-07-5.29396E-23
 -1       774 9.36225E-06 9.38053E-07-1.32349E-23
 -1       775 8.58221E-06 8.51399E-07-2.64698E-23
 -1       776 7.84965E-06 6.36977E-07 1.32349E-23
 -1       777 7.15031E-06 3.33496E-07 2.64698E-23
 -1       778 6.46973E-06-2.02604E-08-1.32349E-23
 -1       779 5.79346E-06-3.85476E-07 2.64698E-23
 -1       780 5.10699E-06-7.23333E-07 1.32349E-23
 -1       781 4.39586E-06-9.95015E-07 0.00000E+00
 -1       782 3.64580E-06-1.16175E-06 1.32349E-23
 -1       783 2.84256E-06-1.18483E-06 2.64698E-23
 -1       784 1.97329E-06-1.02535E-06-6.61744E-24
 -1       785 1.02409E-06-6.44920E-07 1.32349E-23
 -1       786 1.87537E-05 1.18255E-06-2.48154E-24
 -1       787 1.90112E-05 2.05963E-06-3.30872E-24
 -1       788 1.92699E-05 2.65004E-06-6.61744E-24
 -1       789 1.95307E-05 3.00784E-06-3.30872E-24
 -1       790 1.97920E-05 3.18686E-06 6.61744E-24
 -1       791 2.00537E-05 3.24084E-06 3.30872E-24
 -1       792 2.03156E-05 3.22341E-06-6.61744E-24
 -1       793 2.05775E-05 3.18817E-06 0.00000E+00
 -1       794 2.08394E-05 3.18868E-06 0.00000E+00
 -1       795 2.11013E-05 3.27856E-06-3.30872E-24
 -1       796 2.13631E-05 3.51146E-06 0.00000E+00
 -1       797 2.16247E-05 3.94116E-06 0.00000E+00
 -1       798 2.18858E-05 4.62157E-06-6.61744E-24
 -1       799 2.21456E-05 5.60676E-06 0.00000E+00
 -1       800 2.24045E-05 6.95112E-06 0.00000E+00
 -1       801 1.60803E-05-2.91386E-08 1.65436E-24
 -1       802 1.27497E-05-2.07234E-08 4.13590E-25
 -1       803 8.99702E-06-1.35385E-08 0.00000E+00
 -1       804 5.30194E-06-6.82722E-09 0.00000E+00
 -1       805 2.14421E-06 8.51621E-10 0.00000E+00
 -1       806 1.76179E-05 1.06326E-06 0.00000E+00
 -1       807 1.67973E-05 1.91913E-06-6.61744E-24
 -1       808 1.60498E-05 2.57484E-06 1.32349E-23
 -1       809 1.53614E-05 3.06893E-06 0.00000E+00
 -1       810 1.47185E-05 3.44022E-06-1.32349E-23
 -1       811 1.41070E-05 3.72743E-06 0.00000E+00
 -1       812 1.35123E-05 3.96927E-06 1.32349E-23
 -1       813 1.29201E-05 4.20449E-06 0.00000E+00
 -1       814 1.23159E-05 4.47182E-06 1.32349E-23
 -1       815 1.16851E-05 4.80997E-06-6.61744E-24
 -1       816 1.10133E-05 5.25760E-06 0.00000E+00
 -1       817 1.02862E-05 5.85334E-06 6.61744E-24
 -1       818 9.48945E-06 6.63577E-06 1.32349E-23
 -1       819 8.60996E-06 7.64353E-06 0.00000E+00
 -1       820 7.63367E-06 8.91498E-06 6.61744E-24
 -1       821 2.24930E-05 1.08928E-05-1.24077E-24
 -1       822 2.23207E-05 1.33388E-05 8.27181E-25
 -1       823 2.21472E-05 1.60191E-05 0.00000E+00
 -1       824 2.19719E-05 1.89057E-05 1.65436E-24
 -1       825 2.17958E-05 2.19709E-05 3.30872E-24
 -1       826 2.16190E-05 2.51867E-05 0.00000E+00
 -1       827 2.14417E-05 2.85249E-05 3.30872E-24
 -1       828 2.12641E-05 3.19574E-05 0.00000E+00
 -1       829 2.10863E-05 3.54560E-05 0.00000E+00
 -1       830 2.09083E-05 3.89925E-05-3.30872E-24
 -1       831 2.07304E-05 4.25387E-05 0.00000E+00
 -1       832 2.05527E-05 4.60664E-05 0.00000E+00
 -1       833 2.03755E-05 4.95472E-05 0.00000E+00
 -1       834 2.01994E-05 5.29531E-05-1.65436E-24
 -1       835 2.00241E-05 5.62557E-05 0.00000E+00
 -1       836 2.02483E-05 9.00075E-06 0.00000E+00
 -1       837 1.74889E-05 9.30262E-06 3.30872E-24
 -1       838 1.45577E-05 9.60414E-06 0.00000E+00
 -1       839 1.16378E-05 9.90506E-06 0.00000E+00
 -1       840 8.91192E-06 1.02059E-05 0.00000E+00
 -1       841 2.18469E-05 1.08978E-05 0.00000E+00
 -1       842 2.09373E-05 1.33507E-05 0.00000E+00
 -1       843 1.99385E-05 1.60392E-05 0.00000E+00
 -1       844 1.88613E-05 1.89345E-05 8.27181E-25
 -1       845 1.77168E-05 2.20075E-05 0.00000E+00
 -1       846 1.65158E-05 2.52294E-05 4.13590E-25
 -1       847 1.52695E-05 2.85712E-05 0.00000E+00
 -1       848 1.39887E-05 3.20040E-05-4.13590E-25
 -1       849 1.26843E-05 3.54990E-05 0.00000E+00
 -1       850 1.13674E-05 3.90271E-05 0.00000E+00
 -1       851 1.00487E-05 4.25594E-05 2.06795E-25
 -1       852 8.73942E-06 4.60671E-05-7.75482E-26
 -1       853 7.45023E-06 4.95211E-05 0.00000E+00
 -1       854 6.19182E-06 5.28926E-05 0.00000E+00
 -1       855 4.97538E-06 5.61525E-05 0.00000E+00
 -1       856 1.97754E-05 6.25960E-05 0.00000E+00
 -1       857 1.96893E-05 6.59069E-05 0.00000E+00
 -1       858 1.96025E-05 6.93406E-05 0.00000E+00
 -1       859 1.95148E-05 7.28771E-05 8.27181E-25
 -1       860 1.94268E-05 7.64967E-05 3.30872E-24
 -1       861 1.93385E-05 8.01792E-05-8.27181E-25
 -1       862 1.92500E-05 8.39047E-05 0.00000E+00
 -1       863 1.91613E-05 8.76532E-05 0.00000E+00
 -1       864 1.90727E-05 9.14048E-05-3.30872E-24
 -1       865 1.89841E-05 9.51394E-05-1.65436E-24
 -1       866 1.88957E-05 9.88370E-05 0.00000E+00
 -1       867 1.88075E-05 1.02478E-04 1.65436E-24
 -1       868 1.87197E-05 1.06041E-04 0.00000E+00
 -1       869 1.86324E-05 1.09508E-04 1.65436E-24
 -1       870 1.85456E-05 1.12858E-04 0.00000E+00
 -1       871 1.70294E-05 5.94032E-05 0.00000E+00
 -1       872 1.43658E-05 5.93780E-05 0.00000E+00
 -1       873 1.17895E-05 5.93527E-05 0.00000E+00
 -1       874 9.22273E-06 5.93269E-05-3.10193E-25
 -1       875 6.58775E-06 5.93005E-05 1.24077E-24
 -1       876 1.88070E-05 6.26232E-05 3.30872E-24
 -1       877 1.77205E-05 6.59326E-05 1.65436E-24
 -1       878 1.65974E-05 6.93390E-05-3.30872E-24
 -1       879 1.54441E-05 7.28276E-05-1.65436E-24
 -1       880 1.42654E-05 7.63834E-05 3.30872E-24
 -1       881 1.30670E-05 7.99916E-05-1.65436E-24
 -1       882 1.18545E-05 8.36372E-05 0.00000E+00
 -1       883 1.06334E-05 8.73056E-05 0.00000E+00
 -1       884 9.40924E-06 9.09819E-05 0.00000E+00
 -1       885 8.18770E-06 9.46514E-05 0.00000E+00
 -1       886 6.97427E-06 9.82993E-05 0.00000E+00
 -1       887 5.77451E-06 1.01911E-04-1.65436E-24
 -1       888 4.59393E-06 1.05471E-04 0.00000E+00
 -1       889 3.43754E-06 1.08965E-04 1.65436E-24
 -1       890 2.31145E-06 1.12377E-04-1.65436E-24
 -1       891 1.54928E-05 1.16009E-04 0.00000E+00
 -1       892 1.26635E-05 1.15945E-04-8.27181E-25
 -1       893 9.89748E-06 1.15882E-04-1.65436E-24
 -1       894 7.11819E-06 1.15818E-04 0.00000E+00
 -1       895 4.24913E-06 1.15755E-04-1.24077E-24
 -1       896 2.64041E-07 9.25452E-07 0.00000E+00
 -1       897 5.29962E-07 1.61872E-06-3.30872E-24
 -1       898 7.96111E-07 2.10680E-06-6.61744E-24
 -1       899 1.06253E-06 2.41713E-06-3.30872E-24
 -1       900 1.32905E-06 2.57701E-06 6.61744E-24
 -1       901 1.59561E-06 2.61359E-06 0.00000E+00
 -1       902 1.86219E-06 2.55399E-06 0.00000E+00
 -1       903 2.12876E-06 2.42520E-06-3.30872E-24
 -1       904 2.39531E-06 2.25419E-06 0.00000E+00
 -1       905 2.66181E-06 2.06789E-06 0.00000E+00
 -1       906 2.92823E-06 1.89322E-06 0.00000E+00
 -1       907 3.19444E-06 1.75712E-06 0.00000E+00
 -1       908 3.46036E-06 1.68653E-06 0.00000E+00
 -1       909 3.72518E-06 1.70845E-06 3.30872E-24
 -1       910 3.98943E-06 1.84998E-06 0.00000E+00
 -1       911 4.30343E-06 2.42189E-06 0.00000E+00
 -1       912 4.36273E-06 2.54260E-06 8.27181E-25
 -1       913 4.42206E-06 2.52270E-06 0.00000E+00
 -1       914 4.48140E-06 2.38532E-06 0.00000E+00
 -1       915 4.54074E-06 2.15354E-06-1.65436E-24
 -1       916 4.60006E-06 1.85042E-06 8.27181E-25
 -1       917 4.65937E-06 1.49904E-06 0.00000E+00
 -1       918 4.71866E-06 1.12243E-06 0.00000E+00
 -1       919 4.77793E-06 7.43668E-07 1.65436E-24
 -1       920 4.83716E-06 3.85789E-07 0.00000E+00
 -1       921 4.89634E-06 7.18442E-08 0.00000E+00
 -1       922 4.95534E-06-1.75103E-07 0.00000E+00
 -1       923 5.01410E-06-3.31979E-07 0.00000E+00
 -1       924 5.07191E-06-3.75717E-07 0.00000E+00
 -1       925 5.12922E-06-2.83188E-07 8.27181E-25
 -1       926 4.86416E-06 1.96805E-07 0.00000E+00
 -1       927 4.54128E-06 2.41545E-07 0.00000E+00
 -1       928 4.21788E-06 1.34781E-07-1.32349E-23
 -1       929 3.89345E-06-9.05154E-08 0.00000E+00
 -1       930 3.56871E-06-4.01344E-07 0.00000E+00
 -1       931 3.24377E-06-7.64576E-07 6.61744E-24
 -1       932 2.91874E-06-1.14706E-06 1.32349E-23
 -1       933 2.59367E-06-1.51562E-06 0.00000E+00
 -1       934 2.26862E-06-1.83707E-06 0.00000E+00
 -1       935 1.94358E-06-2.07830E-06-6.61744E-24
 -1       936 1.61860E-06-2.20625E-06 6.61744E-24
 -1       937 1.29371E-06-2.18800E-06 3.30872E-24
 -1       938 9.68931E-07-1.99070E-06 6.61744E-24
 -1       939 6.44570E-07-1.58177E-06-3.30872E-24
 -1       940 3.20325E-07-9.28696E-07 6.61744E-24
 -1       941 3.80351E-07 9.46660E-07 1.65436E-24
 -1       942 7.89022E-07 1.67077E-06 3.30872E-24
 -1       943 1.19951E-06 2.21159E-06 0.00000E+00
 -1       944 1.61340E-06 2.60874E-06 0.00000E+00
 -1       945 2.02825E-06 2.90163E-06 1.32349E-23
 -1       946 2.44375E-06 3.12959E-06 6.61744E-24
 -1       947 2.85951E-06 3.33187E-06 0.00000E+00
 -1       948 3.27537E-06 3.54766E-06 0.00000E+00
 -1       949 3.69125E-06 3.81620E-06 0.00000E+00
 -1       950 4.10702E-06 4.17679E-06 0.00000E+00
 -1       951 4.52255E-06 4.66881E-06 0.00000E+00
 -1       952 4.93754E-06 5.33184E-06-6.61744E-24
 -1       953 5.35168E-06 6.20560E-06 0.00000E+00
 -1       954 5.76316E-06 7.33009E-06 0.00000E+00
 -1       955 6.17303E-06 8.74564E-06 6.61744E-24
 -1       956 6.39777E-06 1.26169E-05 2.48154E-24
 -1       957 6.22805E-06 1.49771E-05-1.65436E-24
 -1       958 6.05708E-06 1.75498E-05-1.65436E-24
 -1       959 5.88509E-06 2.03107E-05 0.00000E+00
 -1       960 5.71247E-06 2.32358E-05-3.30872E-24
 -1       961 5.53936E-06 2.63006E-05-1.65436E-24
 -1       962 5.36587E-06 2.94809E-05 6.61744E-24
 -1       963 5.19208E-06 3.27522E-05 1.65436E-24
 -1       964 5.01807E-06 3.60901E-05-3.30872E-24
 -1       965 4.84395E-06 3.94702E-05 0.00000E+00
 -1       966 4.66980E-06 4.28682E-05-6.61744E-24
 -1       967 4.49575E-06 4.62595E-05 0.00000E+00
 -1       968 4.32192E-06 4.96197E-05 0.00000E+00
 -1       969 4.14866E-06 5.29244E-05 3.30872E-24
 -1       970 3.97619E-06 5.61494E-05 0.00000E+00
 -1       971 3.64973E-06 6.23809E-05 3.30872E-24
 -1       972 3.48829E-06 6.56339E-05 1.65436E-24
 -1       973 3.32628E-06 6.90114E-05 0.00000E+00
 -1       974 3.16356E-06 7.24948E-05-1.65436E-24
 -1       975 3.00045E-06 7.60653E-05 0.00000E+00
 -1       976 2.83703E-06 7.97039E-05 1.65436E-24
 -1       977 2.67342E-06 8.33920E-05-6.61744E-24
 -1       978 2.50969E-06 8.71106E-05 3.30872E-24
 -1       979 2.34592E-06 9.08407E-05-6.61744E-24
 -1       980 2.18221E-06 9.45636E-05 0.00000E+00
 -1       981 2.01864E-06 9.82604E-05 0.00000E+00
 -1       982 1.85536E-06 1.01912E-04-3.30872E-24
 -1       983 1.69249E-06 1.05500E-04-3.30872E-24
 -1       984 1.53058E-06 1.09005E-04 1.65436E-24
 -1       985 1.36935E-06 1.12408E-04 3.30872E-24
 -3
    1PSTEP                         2           1           1          
  100CL  101 1.000000000         841                     0    1           1
 -4  STRESS      6    1
 -5  SXX         1    4    1    1
 -5  SYY         1    4    2    2
 -5  SZZ         1    4    3    3
 -5  SXY         1    4    1    2
 -5  SYZ         1    4    2    3
 -5  SZX         1    4    3    1
 -1         1-1.52265E+06-4.71180E+05-6.01356E+04-6.48859E+05-1.70985E-10-1.69772E-10
 -1         2-8.95952E+05 2.28887E+04 1.58855E+03-1.51682E+05-9.59517E-11 1.99452E-09
 -1         3-3.02322E+05-6.10238E+04 4.81455E+02-7.25219E+04-9.12905E-11-4.94765E-10
 -1         4-4.32008E+04-7.47767E+03 1.16581E+02-1.87334E+04 2.41656E-11 2.73430E-09
 -1         5 5.92945E+04 6.79627E+05-4.87899E+04-4.96813E+03 7.78527E-10-1.04825E-09
 -1         8-2.48515E+05-2.82018E+05 5.63023E+03-4.79415E+05 1.60071E-10-3.85626E-10
 -1         9-6.03775E+05-6.76203E+04-1.75909E+04-3.93901E+05 4.91430E-10-3.29480E-09
 -1        10-3.23984E+05-1.17758E+05 8.19024E+02-2.30740E+05 7.79589E-10-2.88370E-09
 -1        11-6.10889E+04-3.82515E+04 1.78859E+02-1.09013E+05-4.75211E-10-6.27703E-10
 -1        12 8.91400E+04 6.85682E+05-4.52175E+04 3.05438E+04 1.49487E-09 3.54941E-09
 -1        15 1.86656E+04 6.04735E+03 1.02008E+03-1.57682E+05-9.64064E-11-6.23913E-10
 -1        16-2.53581E+05-7.24157E+04-9.95370E+03-3.48693E+05 1.57343E-10 2.63996E-09
 -1        17-2.35580E+05-1.23590E+05 1.52902E+04-3.57206E+05 8.33097E-10-2.95889E-10
 -1        18-3.91686E+04-5.80727E+04-5.43188E+03-2.63289E+05-2.09123E-09 1.69772E-09
 -1        19 2.44806E+05 3.86992E+05-1.73268E+04 1.27765E+04 1.64315E-10-3.58341E-10
 -1        20 1.14938E+05-5.90320E+04-7.97232E+03 7.65250E+04 1.23462E-08-1.01454E-09
 -1        21-1.35797E+04-1.35948E+05-5.79851E+02 9.78234E+03 5.45097E-08-2.24858E-09
 -1        22 3.00602E+04 1.75169E+05 4.94712E+02-1.01970E+05 6.82121E-12-1.02045E-09
 -1        23-1.36290E+05-3.42360E+03 7.96465E+02-2.02475E+05 5.34934E-10-4.18368E-10
 -1        24-2.83727E+05-5.04249E+04 3.22522E+04-3.39912E+05-2.74061E-10-4.46259E-10
 -1        25-4.45470E+04-2.78421E+04 4.50513E+04-3.53073E+05-7.98839E-10-8.48862E-10
 -1        26-2.01066E+04 2.51718E+05 7.68056E+03-1.10475E+05 3.76303E-10-2.91523E-09
 -1        27-2.31871E+03-3.66480E+04-1.33203E+04 1.20461E+05 2.29344E-09-2.42653E-09
 -1        28-3.06323E+03-9.58557E+04-5.54016E+02 5.50626E+04 2.61093E-08-7.40342E-10
 -1        29 3.69904E+05 2.86707E+05 9.13407E+02-7.18021E+04 5.32054E-11 3.35149E-10
 -1        30 1.26679E+05 3.23848E+04 6.78108E+02-9.67226E+04 3.04624E-10-2.95586E-10
 -1        31-3.74858E+05 2.08984E+04 1.37153E+03-1.42812E+05 7.09569E-10-2.76486E-10
 -1        32-3.28833E+05-3.74050E+04 5.75358E+04-3.40597E+05-1.05355E-09 1.11868E-09
 -1        33-2.55331E+04 1.76685E+05 6.06421E+04-1.58431E+05 1.74460E-09 8.10815E-10
 -1        34-2.18870E+05-1.96258E+04 1.74149E+03 7.42931E+04-1.06782E-09-4.26667E-10
 -1        35-3.88610E+04-3.33916E+04-4.41205E+02 7.91371E+04 2.49240E-08 1.61284E-09
 -1        36-2.06261E+06-8.57835E+02-3.46080E+04-3.23962E-09-3.07499E-10 1.64800E-09
 -1        37-2.07226E+06-5.88706E+03-1.98961E+04 1.80025E-08-1.09488E-09 5.10317E-09
 -1        38-2.06695E+06 6.58172E+01-8.69973E+03-3.61651E-09 8.25577E-10 2.11185E-09
 -1        39-2.06757E+06-2.93466E+02-4.57785E+03-6.03492E-09 7.73459E-11-5.33726E-09
 -1        40-2.06727E+06 3.30112E+01-2.26696E+03-2.02412E-08 3.18149E-12-1.35026E-09
 -1        41-2.06720E+06-8.78489E+00-1.32310E+03-1.30132E-08-2.41193E-10 5.16947E-09
 -1        42-2.06730E+06 1.57052E+01-9.74456E+02-3.64872E-09-6.16440E-11-7.81277E-11
 -1        43-2.06719E+06 3.75520E+00-1.16796E+03 4.77147E-09-1.56181E-09 3.54271E-09
 -1        44-2.06728E+06 3.03514E+01-1.89775E+03-1.59186E-08-6.95598E-10 3.35768E-09
 -1        45-2.06734E+06-3.28418E+01-3.69041E+03-1.09671E-08 7.99056E-10-2.84541E-09
 -1        46-2.06715E+06 1.03330E+02-7.13522E+03-4.41867E-09 2.33704E-09 3.66799E-09
 -1        47-2.06855E+06-9.66852E+02-1.49006E+04-3.51707E-09-9.18768E-10 2.47064E-09
 -1        48-2.06609E+06 2.15410E+02-2.85479E+04-7.50816E-09-6.24416E-10 1.56069E-09
 -1        49-2.08399E+06-1.93737E+04-6.54342E+04-8.46558E-09-8.25562E-10 1.15688E-09
 -1        50-2.05179E+06-2.81480E+03-1.13840E+05-6.36646E-10-8.42572E-10 2.68483E-09
 -1        51 2.90385E+04-6.59059E+05 1.02769E+05-7.97596E+05-1.45519E-10 2.40107E-09
 -1        52 1.78569E+04-6.41860E+05 5.41431E+04-1.02431E+06 2.83762E-10-4.23461E-09
 -1        53 5.93902E+03-6.59762E+05 2.22842E+04-7.94790E+05-2.47383E-10 1.49157E-09
 -1        54 8.76176E+03-6.63234E+05 7.45098E+03-1.02635E+06-1.45519E-10 2.19916E-09
 -1        55 4.24237E+03-6.60597E+05-4.73176E+03-7.95433E+05-2.23736E-10-2.49020E-09
 -1        56-2.67030E+06-3.83143E+05-1.23916E+05-1.01449E+06-8.64020E-10 5.51518E-09
 -1        57-2.70077E+06-4.17536E+05-7.00956E+04-1.02627E+06-8.51287E-10 3.84443E-09
 -1        58-2.68552E+06-3.86531E+05-2.85018E+04-1.01962E+06-6.34373E-10-1.45337E-09
 -1        59-2.68166E+06-3.95179E+05-1.44625E+04-1.02766E+06-3.48564E-10-9.43373E-10
 -1        60-2.68669E+06-3.87042E+05-6.60050E+03-1.01997E+06-4.05635E-10 9.52696E-11
 -1        61-2.68027E+06-3.93778E+05-3.46232E+03-1.02748E+06 5.34101E-10-4.75848E-09
 -1        62-2.68675E+06-3.87195E+05-2.06747E+03-1.02006E+06 2.68756E-10-5.80030E-10
 -1        63-2.68028E+06-3.93564E+05-2.00775E+03-1.02727E+06 2.68301E-10 1.18189E-09
 -1        64-2.68663E+06-3.87281E+05-2.99843E+03-1.02015E+06-1.36697E-09 4.81577E-09
 -1        65-2.68074E+06-3.93502E+05-5.93140E+03-1.02707E+06-2.91038E-10 8.14725E-09
 -1        66-2.68623E+06-3.87254E+05-1.18447E+04-1.02023E+06 1.01863E-10 4.46562E-10
 -1        67-2.68367E+06-3.95632E+05-2.62354E+04-1.02686E+06 6.79847E-10-2.54659E-10
 -1        68-2.68386E+06-3.86554E+05-5.18339E+04-1.01981E+06 1.16847E-09 5.04224E-09
 -1        69-2.71885E+06-4.35869E+05-1.27526E+05-1.02378E+06-6.23004E-10 5.93718E-09
 -1        70-2.65591E+06-3.80587E+05-2.25397E+05-1.01070E+06 3.41970E-10-7.71252E-10
 -1        71-6.94637E+05 4.59296E+02 1.82409E+04 1.06349E-08 8.51944E-11-1.45701E-09
 -1        72-6.89388E+05 3.09938E+03 1.04778E+04 5.57088E-09-6.51632E-11 2.80068E-09
 -1        73-6.92344E+05-3.40692E+01 4.56740E+03-1.80117E-08 1.34799E-10 2.42608E-09
 -1        74-6.91858E+05 1.54632E+02 2.37100E+03-1.53660E-08-1.04513E-10 1.26420E-09
 -1        75-6.92172E+05-1.59789E+01 1.10917E+03-5.71731E-10 1.70065E-10 2.76447E-09
 -1        76-6.92054E+05 5.65381E+00 5.19986E+02 2.65694E-09-1.28353E-09-1.84986E-09
 -1        77-6.92149E+05-2.55316E+00 1.62406E+02-5.39413E-10 8.11061E-11-2.33088E-09
 -1        78-6.92089E+05 3.34313E-01-1.03053E+02 1.21967E-08 9.32071E-10 6.13026E-09
 -1        79-6.92138E+05 6.61563E+00-4.15782E+02-8.52700E-09-3.52065E-10-5.21027E-10
 -1        80-6.92138E+05-9.29249E+00-9.62042E+02-2.03884E-08-5.32234E-10 3.97462E-09
 -1        81-6.92101E+05 2.79868E+01-1.93789E+03 8.68346E-09 5.50627E-10 2.61014E-09
 -1        82-6.92472E+05-2.65319E+02-4.08699E+03 2.64569E-08-5.92509E-10 2.86923E-09
 -1        83-6.91806E+05 5.86459E+01-7.84789E+03-1.33066E-09-9.72524E-11 4.47471E-10
 -1        84-6.96712E+05-5.32002E+03-1.79888E+04-5.46106E-09 8.41108E-10-8.23024E-09
 -1        85-6.87868E+05-7.86882E+02-3.13060E+04-7.73389E-09-3.09386E-10 1.30785E-09
 -1        86 3.21262E+03 5.60592E+05 1.45241E+05-1.16176E+05-1.81899E-10 1.01136E-08
 -1        87 2.50462E+04 6.01646E+05 9.40812E+04-1.95773E+05-2.12140E-10 2.31012E-09
 -1        88-2.15312E+02 5.76510E+05 6.22690E+04-1.15687E+05-1.14687E-09 2.88310E-09
 -1        89 2.08467E+04 5.96994E+05 8.13382E+04-1.96123E+05-4.90218E-10 1.54114E-09
 -1        90 3.18103E+03 5.63570E+05 1.18388E+05-1.15780E+05-1.31695E-09-1.23214E-09
 -1        91-1.14729E+06-1.66474E+05-3.97046E+04-4.37994E+05-1.13414E-09-2.35377E-09
 -1        92-1.15514E+06-1.79345E+05-2.24551E+04-4.43935E+05-3.90480E-09-2.05932E-09
 -1        93-1.15220E+06-1.67522E+05-9.13942E+03-4.39626E+05 9.26548E-11 2.62389E-09
 -1        94-1.14900E+06-1.72222E+05-4.64018E+03-4.44414E+05-7.56728E-10-2.65749E-09
 -1        95-1.15258E+06-1.67675E+05-2.12229E+03-4.39729E+05-5.27621E-10 1.20242E-10
 -1        96-1.14854E+06-1.71793E+05-1.12071E+03-4.44378E+05-5.00677E-10-4.51934E-09
 -1        97-1.15261E+06-1.67713E+05-6.82036E+02-4.39746E+05-5.55474E-10-3.90821E-09
 -1        98-1.14852E+06-1.71745E+05-6.84762E+02-4.44335E+05-1.69894E-09-1.08253E-09
 -1        99-1.15258E+06-1.67728E+05-1.04396E+03-4.39764E+05 2.76941E-10-2.44768E-09
 -1       100-1.14866E+06-1.71753E+05-2.07981E+03-4.44301E+05 8.41283E-10-2.42812E-09
 -1       101-1.15246E+06-1.67702E+05-4.15912E+03-4.39774E+05-2.11821E-09-5.52836E-09
 -1       102-1.14965E+06-1.72532E+05-9.21152E+03-4.44267E+05 3.01043E-10-3.61979E-09
 -1       103-1.15164E+06-1.67440E+05-1.81959E+04-4.39605E+05 5.96401E-10-2.38924E-09
 -1       104-1.16196E+06-1.86631E+05-4.47304E+04-4.43195E+05-1.27841E-10 1.20417E-09
 -1       105-1.14181E+06-1.65403E+05-7.90933E+04-4.36407E+05 1.03682E-10-2.60843E-09
 -1       106-1.15706E+05 6.16338E+02 2.43474E+04 1.80626E-09-5.93536E-10-8.48559E-10
 -1       107-1.08771E+05 4.13463E+03 1.39891E+04-2.24902E-08-5.34446E-10 1.09731E-09
 -1       108-1.12643E+05-4.54519E+01 6.10619E+03 2.86177E-09-1.05386E-09 3.95721E-09
 -1       109-1.12066E+05 2.06082E+02 3.18315E+03 6.51340E-10-2.01891E-10 1.64300E-09
 -1       110-1.12413E+05-2.18954E+01 1.51570E+03-1.75817E-10 2.99758E-09 3.08523E-09
 -1       111-1.12325E+05 7.11075E+00 7.64890E+02 1.90589E-08 9.24806E-10 3.87386E-09
 -1       112-1.12384E+05-5.67156E+00 3.55738E+02-1.16246E-08-8.61776E-10-4.52094E-09
 -1       113-1.12360E+05-4.74520E-01 1.45924E+02-1.03761E-08-6.08605E-10-1.86535E-09
 -1       114-1.12377E+05-7.87817E-02 3.02059E+00 4.84645E-09-3.07442E-10-3.93850E-09
 -1       115-1.12376E+05-1.97756E+00-1.39105E+02 8.92003E-09-8.00916E-10 1.68608E-09
 -1       116-1.12369E+05 4.90886E+00-3.42722E+02 9.21615E-10-1.51779E-11 3.18181E-10
 -1       117-1.12439E+05-4.96647E+01-7.54850E+02-1.06648E-08 3.62694E-10-1.14458E-09
 -1       118-1.12314E+05 1.08551E+01-1.46395E+03 8.77808E-09 1.59296E-10-3.05670E-09
 -1       119-1.13233E+05-9.94963E+02-3.36368E+03 1.11928E-08-1.75930E-10-2.05023E-09
 -1       120-1.11576E+05-1.48157E+02-5.85723E+03 3.34478E-09 1.23585E-10 1.16324E-09
 -1       121 4.93242E+02-1.24064E+05 2.49035E+04-7.01857E+04 5.12955E-10-3.13958E-09
 -1       122 4.37025E+03-1.17048E+05 1.73171E+04-1.18685E+05 1.06866E-09-5.09044E-09
 -1       123-1.00248E+01-1.21612E+05 1.35376E+04-6.98778E+04 8.29004E-10 3.00133E-10
 -1       124 5.73655E+03-1.16221E+05 2.08309E+04-1.18905E+05 1.85355E-09 2.95836E-09
 -1       125 9.01047E+02-1.25368E+05 3.23878E+04-6.99594E+04 6.69388E-10 1.08980E-09
 -1       126-4.58394E+05-6.96382E+04-1.48951E+04-1.79136E+05-5.17957E-10 3.90355E-09
 -1       127-4.59048E+05-7.67445E+04-8.42360E+03-1.83984E+05 4.84988E-10 3.15777E-09
 -1       128-4.60253E+05-7.00105E+04-3.43108E+03-1.79731E+05-5.38819E-10 3.47575E-09
 -1       129-4.56730E+05-7.40934E+04-1.74407E+03-1.84187E+05-1.99776E-09-3.62796E-10
 -1       130-4.60402E+05-7.00652E+04-8.02293E+02-1.79768E+05-2.01112E-10 3.06585E-10
 -1       131-4.56555E+05-7.39364E+04-4.32749E+02-1.84178E+05 1.73486E-10 1.81444E-09
 -1       132-4.60413E+05-7.00777E+04-2.80959E+02-1.79772E+05 5.21140E-10-3.96972E-09
 -1       133-4.56548E+05-7.39229E+04-3.10691E+02-1.84165E+05 1.18257E-09-4.56242E-09
 -1       134-4.60400E+05-7.00815E+04-5.01698E+02-1.79775E+05-1.09139E-11-1.25738E-10
 -1       135-4.56605E+05-7.39349E+04-1.01822E+03-1.84155E+05-2.43290E-11-5.94468E-10
 -1       136-4.60342E+05-7.00662E+04-2.04540E+03-1.79775E+05-2.16460E-10 1.26124E-09
 -1       137-4.57079E+05-7.43267E+04-4.53203E+03-1.84145E+05-3.78350E-10 1.49043E-09
 -1       138-4.59939E+05-6.99353E+04-8.95485E+03-1.79684E+05 1.79170E-09 6.33918E-10
 -1       139-4.63143E+05-8.12440E+04-2.20037E+04-1.83597E+05-9.12109E-10-2.49202E-09
 -1       140-4.55075E+05-6.89633E+04-3.89119E+04-1.78128E+05-1.07298E-09 1.33878E-09
 -1       141-1.35270E+04 9.31477E+01 3.67194E+03-2.90396E-09 8.26819E-10-3.66390E-09
 -1       142-1.24805E+04 6.24344E+02 2.10160E+03-1.18325E-08-9.04355E-10-2.83217E-09
 -1       143-1.30639E+04-6.49788E+00 8.99796E+02-2.86997E-09-1.12264E-10-3.75508E-10
 -1       144-1.29795E+04 3.14134E+01 4.34729E+02 1.50794E-08-1.70672E-10-1.61128E-09
 -1       145-1.30279E+04-1.81966E+00 1.38034E+02-4.34561E-09 5.79918E-11 1.38618E-09
 -1       146-1.30249E+04 2.17407E+00-7.00345E+01 5.13376E-09 1.44762E-09 4.54688E-09
 -1       147-1.30185E+04 5.10223E+00-3.12047E+02-6.00382E-09 2.23956E-09 3.57562E-09
 -1       148-1.30571E+04 2.35988E+00-7.25127E+02-1.73665E-08-8.79273E-10-2.79844E-09
 -1       149-1.29958E+04 2.34740E+01-1.47066E+03-1.76318E-08-4.31810E-09 1.03864E-09
 -1       150-1.31921E+04-2.76659E+01-3.03945E+03 2.47731E-09-2.02558E-10 5.02496E-11
 -1       151-1.28834E+04 8.62322E+01-5.96622E+03 3.22207E-09 1.17406E-09 9.19272E-10
 -1       152-1.42070E+04-8.08478E+02-1.24999E+04-5.16309E-10 3.89731E-10 6.70229E-09
 -1       153-1.19803E+04 1.78536E+02-2.39623E+04 7.24907E-09 4.82720E-10-5.47516E-10
 -1       154-2.71333E+04-1.62219E+04-5.48899E+04 7.03585E-09 8.41338E-10-3.48700E-09
 -1       155 5.72780E+01-2.40977E+03-9.54911E+04 2.20098E-09-2.19281E-10-1.85901E-09
 -1       156 5.51653E+01-1.34560E+04 4.04752E+03-3.16868E+04-1.59616E-10 6.83031E-10
 -1       157 7.16101E+02-1.23133E+04 3.13950E+03-5.34836E+04-5.66615E-10-1.20053E-09
 -1       158-5.60142E+00-1.31328E+04 2.98457E+03-3.15218E+04-1.35969E-10 1.83036E-09
 -1       159 1.51896E+03-1.17479E+04 5.27738E+03-5.36412E+04-9.58380E-10 1.23691E-10
 -1       160 2.48282E+02-1.41839E+04 8.58885E+03-3.15281E+04-9.50422E-11 1.40369E-09
 -1       161-5.62302E+04-8.56721E+03-1.24006E+03-2.19932E+04 1.33923E-10-2.90501E-09
 -1       162-5.60869E+04-9.35382E+03-7.06050E+02-2.26201E+04-1.13801E-10-2.73531E-09
 -1       163-5.63719E+04-8.61020E+03-2.97975E+02-2.20563E+04-2.28283E-10-2.81767E-09
 -1       164-5.59074E+04-9.12071E+03-1.72525E+02-2.26220E+04 1.57752E-09 4.39104E-09
 -1       165-5.63830E+04-8.61561E+03-1.23807E+02-2.20603E+04-6.56314E-10 2.83399E-09
 -1       166-5.58980E+04-9.10655E+03-1.57679E+02-2.26211E+04 7.14579E-10-3.31553E-09
 -1       167-5.63786E+04-8.61360E+03-2.74003E+02-2.20608E+04 9.71113E-10-1.48020E-10
 -1       168-5.59194E+04-9.10881E+03-5.64230E+02-2.26270E+04-1.52886E-09 5.43633E-09
 -1       169-5.63582E+04-8.59916E+03-1.14732E+03-2.20591E+04-3.45267E-10-1.53739E-09
 -1       170-5.60501E+04-9.16889E+03-2.47804E+03-2.26559E+04 2.55693E-09 4.22341E-09
 -1       171-5.62433E+04-8.52871E+03-5.04579E+03-2.20408E+04-1.79966E-10 9.97034E-10
 -1       172-5.71969E+04-1.01843E+04-1.12243E+04-2.27088E+04 1.90428E-09 3.21961E-10
 -1       173-5.52911E+04-8.16090E+03-2.21860E+04-2.17889E+04 2.12776E-09 5.64251E-09
 -1       174-7.20570E+04-2.75026E+04-5.45300E+04-2.15909E+04 2.63458E-09 2.85581E-10
 -1       175-4.33971E+04-5.58081E+03-9.64038E+04-1.77560E+04 2.51566E-09 4.47108E-09
 -1       191 1.82828E+04 1.59484E+06 6.48057E+04-8.07446E+03-4.51109E-10 3.82079E-09
 -1       192 7.95201E+03 1.60903E+06 3.95202E+04-1.00285E+04 1.80535E-10 1.93177E-09
 -1       193 7.37774E+02 1.60052E+06 2.86009E+04-7.95266E+03-1.17387E-09-1.98997E-09
 -1       194 7.73808E+03 1.60883E+06 3.87760E+04-1.02367E+04-5.59339E-11-5.27371E-09
 -1       195 1.77572E+04 1.59501E+06 6.30768E+04-7.84923E+03-2.12822E-09 1.27056E-09
 -1       251 4.92787E+05 9.27792E+02 1.01858E+05-9.10802E+04 3.09228E-10-2.32467E-09
 -1       252 5.22632E+05 1.61460E+04 5.87354E+04-1.53380E+05 6.49379E-10-6.18456E-10
 -1       253 5.04706E+05-1.05868E+03 2.54757E+04-9.03494E+04-1.01863E-10-1.29876E-09
 -1       254 5.07223E+05 3.67297E+02 1.34227E+04-1.53970E+05 6.16637E-10 8.10815E-10
 -1       255 5.04949E+05-3.78962E+02 6.41277E+03-9.04258E+04 2.87400E-10 3.46245E-09
 -1       256 5.05123E+05 5.67914E+01 3.47938E+03-1.53839E+05-5.63887E-11 3.65708E-09
 -1       257 5.04626E+05 3.52392E+01 1.98843E+03-9.04863E+04-3.00133E-10-9.30413E-10
 -1       258 5.04492E+05 2.92196E+02 1.65821E+03-1.53755E+05 2.64208E-10-1.15324E-09
 -1       259 5.04471E+05 1.58379E+02 2.04120E+03-9.05101E+04 5.41718E-11-5.09317E-11
 -1       260 5.04588E+05 3.37590E+02 3.56180E+03-1.53750E+05 1.32741E-09-4.13775E-09
 -1       261 5.04483E+05-9.40514E+00 6.63254E+03-9.04908E+04 5.02041E-10 5.50699E-10
 -1       262 5.06168E+05 9.47681E+02 1.37500E+04-1.53799E+05-1.03137E-09-1.87197E-09
 -1       263 5.03907E+05-4.40557E+02 2.61861E+04-9.04590E+04-1.92813E-10 1.93268E-09
 -1       264 5.21316E+05 1.73502E+04 6.00923E+04-1.53317E+05-5.09317E-10 1.78989E-09
 -1       265 4.91409E+05 1.86474E+03 1.04371E+05-9.10109E+04-7.02130E-10 8.07631E-10
 -1       266 1.55527E+03-1.43753E+05 4.00683E+04-7.75335E+04-1.16415E-10-1.35515E-10
 -1       267 7.61493E+03-1.32482E+05 2.15286E+04-1.32496E+05 2.85354E-10 3.34694E-10
 -1       268 2.45055E+02-1.38200E+05 6.31525E+03-7.76384E+04 2.51703E-10 1.41881E-10
 -1       269-1.71682E+03-1.39366E+05-3.60147E+03-1.31915E+05 3.34694E-10-3.00133E-10
 -1       270-5.01558E+02-1.35455E+05-1.32713E+04-7.81509E+04-9.82254E-11-9.24047E-10
 -1       271-1.57249E+06-2.74357E+05-1.18557E+05-6.61474E+05 1.50976E-10 1.45519E-10
 -1       272-1.57227E+06-3.35405E+05-6.68927E+04-7.05432E+05 1.07138E-09 6.13454E-09
 -1       273-1.58827E+06-2.76381E+05-2.73695E+04-6.65931E+05 9.71340E-10 3.92902E-09
 -1       274-1.55388E+06-3.14920E+05-1.37945E+04-7.08610E+05 1.35333E-09 1.90266E-09
 -1       275-1.59012E+06-2.76233E+05-6.33267E+03-6.66210E+05-1.72440E-09-3.88627E-09
 -1       276-1.55267E+06-3.13887E+05-3.20708E+03-7.09471E+05-4.46562E-10-1.28307E-09
 -1       277-1.59067E+06-2.75946E+05-1.79366E+03-6.66226E+05 2.61934E-10-9.86233E-11
 -1       278-1.55265E+06-3.13921E+05-1.49298E+03-7.09926E+05 1.19007E-09-1.73532E-09
 -1       279-1.59082E+06-2.75806E+05-2.00563E+03-6.66226E+05 5.48880E-10 2.26601E-09
 -1       280-1.55283E+06-3.14015E+05-3.82445E+03-7.09997E+05 8.33893E-10 4.90036E-09
 -1       281-1.59054E+06-2.75799E+05-7.58818E+03-6.66200E+05 6.15728E-10 1.16052E-09
 -1       282-1.55447E+06-3.15436E+05-1.67569E+04-7.09659E+05-7.56700E-10 1.87720E-09
 -1       283-1.58874E+06-2.75594E+05-3.31535E+04-6.65848E+05 5.49335E-10 3.11775E-09
 -1       284-1.57679E+06-3.40796E+05-8.13813E+04-7.06800E+05 9.05857E-10-5.69344E-10
 -1       285-1.57015E+06-2.72518E+05-1.44028E+05-6.60196E+05 2.91948E-10-5.67525E-10
 -1       286 2.34669E+04 1.07140E+03 5.90697E+04-4.80219E+04 1.58252E-09 1.34423E-09
 -1       287 4.04940E+04 9.75618E+03 3.39973E+04-8.05595E+04 1.71258E-09-7.53062E-10
 -1       288 3.06545E+04-3.22143E+02 1.48009E+04-4.75877E+04-1.87356E-10-5.43969E-09
 -1       289 3.20625E+04 4.01503E+02 7.76280E+03-8.09871E+04-3.78350E-10-1.80444E-09
 -1       290 3.10183E+04-1.08922E+02 3.72136E+03-4.75747E+04-7.27596E-12 7.72616E-10
 -1       291 3.11638E+04 5.81539E+01 1.98054E+03-8.09992E+04 7.40783E-10 2.18870E-09
 -1       292 3.09693E+04 2.09068E+01 1.09616E+03-4.75767E+04 1.02136E-09 1.28830E-09
 -1       293 3.09599E+04 1.08476E+02 8.36039E+02-8.09972E+04 8.33097E-10 2.74304E-09
 -1       294 3.09354E+04 5.30012E+01 9.46855E+02-4.75768E+04 3.53339E-10 1.56297E-09
 -1       295 3.10123E+04 1.21311E+02 1.58523E+03-8.09974E+04 3.53793E-10-3.83079E-09
 -1       296 3.09270E+04-8.21241E+00 2.92068E+03-4.75765E+04 5.48425E-10-1.06411E-10
 -1       297 3.16392E+04 4.22724E+02 6.03310E+03-8.09861E+04 2.23008E-09 4.86125E-09
 -1       298 3.06156E+04-1.49190E+02 1.14949E+04-4.75875E+04-9.09495E-12 5.17139E-09
 -1       299 3.81345E+04 7.68808E+03 2.63554E+04-8.06487E+04-2.65572E-10-2.23611E-09
 -1       300 2.50349E+04 9.40216E+02 4.57989E+04-4.79221E+04 4.40195E-10-2.89583E-09
 -1       301 2.30080E+04 1.37025E+05 7.52881E+04-3.64310E+05-5.82077E-10 2.76486E-10
 -1       302 1.18063E+04 1.52531E+05 4.35490E+04-4.68578E+05 1.36788E-09 5.71890E-09
 -1       303 2.67801E+03 1.42987E+05 2.71586E+04-3.63596E+05-7.09406E-10 1.71678E-09
 -1       304 8.08019E+03 1.49218E+05 3.08381E+04-4.68611E+05 1.64437E-09 1.95450E-09
 -1       305 1.39126E+04 1.40186E+05 4.57450E+04-3.64294E+05-9.68612E-10 5.32236E-09
 -1       306-1.79121E+06-2.81968E+05-1.36903E+05-7.14482E+05 3.09228E-10-3.46336E-09
 -1       307-1.81121E+06-3.33347E+05-7.73936E+04-7.43052E+05 6.29370E-10 3.28328E-10
 -1       308-1.80861E+06-2.85133E+05-3.15156E+04-7.19812E+05-2.72848E-10 2.15005E-09
 -1       309-1.78978E+06-3.09233E+05-1.59510E+04-7.45499E+05-5.34783E-10-4.65661E-10
 -1       310-1.81023E+06-2.85403E+05-7.24938E+03-7.20069E+05 8.30369E-10 1.49157E-09
 -1       311-1.78809E+06-3.07960E+05-3.69473E+03-7.45817E+05 1.02364E-09-2.35377E-09
 -1       312-1.81053E+06-2.85364E+05-2.01857E+03-7.20049E+05 1.16142E-09 3.17766E-09
 -1       313-1.78792E+06-3.07946E+05-1.64518E+03-7.45942E+05-1.22714E-09-3.47632E-09
 -1       314-1.81055E+06-2.85342E+05-2.13842E+03-7.20042E+05-1.14073E-09-2.03090E-09
 -1       315-1.78811E+06-3.08004E+05-4.01992E+03-7.45902E+05 7.79210E-10 2.53658E-09
 -1       316-1.81027E+06-2.85330E+05-7.93141E+03-7.20046E+05 8.16726E-10 4.02179E-09
 -1       317-1.78995E+06-3.09455E+05-1.75020E+04-7.45673E+05-1.00090E-09 5.52973E-09
 -1       318-1.80856E+06-2.84971E+05-3.45748E+04-7.19740E+05-9.36780E-11-1.45519E-09
 -1       319-1.81341E+06-3.36038E+05-8.49562E+04-7.43174E+05-7.77163E-10-1.68802E-09
 -1       320-1.78957E+06-2.81381E+05-1.50245E+05-7.13816E+05-8.39009E-11 8.65839E-10
 -1       321 1.86920E+05 1.46746E+03 6.16205E+04-2.46078E+04 4.72937E-11 9.04038E-10
 -1       322 2.04477E+05 1.03982E+04 3.54182E+04-4.13641E+04-2.62389E-10 2.50020E-09
 -1       323 1.94613E+05-1.61187E+02 1.54592E+04-2.44126E+04-1.40972E-10 1.60162E-09
 -1       324 1.96036E+05 5.01473E+02 8.08059E+03-4.15495E+04-1.78261E-09-1.65983E-09
 -1       325 1.95150E+05-6.55825E+01 3.87610E+03-2.44121E+04 1.18143E-09 7.43057E-10
 -1       326 1.95322E+05 2.95161E+01 2.02308E+03-4.15451E+04-4.98403E-10-6.09361E-10
 -1       327 1.95196E+05-6.56737E+00 1.06865E+03-2.44175E+04-7.67841E-10-7.41920E-10
 -1       328 1.95218E+05 2.28996E+01 7.12848E+02-4.15389E+04 1.62686E-10-3.43198E-09
 -1       329 1.95199E+05 2.87698E+00 6.81000E+02-2.44184E+04 4.88399E-10-9.20863E-11
 -1       330 1.95252E+05 2.69780E+01 1.02820E+03-4.15407E+04-4.10182E-10 1.21577E-09
 -1       331 1.95186E+05-2.62104E+01 1.83228E+03-2.44157E+04 1.63709E-11-1.62913E-09
 -1       332 1.95597E+05 2.35044E+02 3.74650E+03-4.15437E+04-6.62112E-10 4.29873E-09
 -1       333 1.94956E+05-8.29003E+01 7.12980E+03-2.44152E+04-4.54747E-12 2.25054E-09
 -1       334 1.99524E+05 4.77586E+03 1.63210E+04-4.13786E+04 7.73070E-10 3.97870E-09
 -1       335 1.91436E+05 6.44516E+02 2.83758E+04-2.45844E+04 1.23691E-10-1.50976E-10
 -1       336 8.80164E+02-1.38251E+05 3.10419E+04-2.18575E+05 1.88629E-09 4.80213E-10
 -1       337 6.89393E+03-1.30391E+05 2.08083E+04-3.70336E+05 4.28918E-09-1.38971E-09
 -1       338 9.21115E+02-1.35825E+05 1.46387E+04-2.17881E+05 2.05910E-09-2.07820E-10
 -1       339 6.99952E+03-1.31008E+05 2.04549E+04-3.70492E+05 5.30054E-09 3.75167E-09
 -1       340 1.30924E+03-1.38684E+05 3.03884E+04-2.18413E+05 1.21327E-09 3.80533E-09
 -1       341-1.12077E+06-1.74506E+05-7.80215E+04-4.44484E+05 2.83762E-10 2.51021E-10
 -1       342-1.13202E+06-2.04010E+05-4.41165E+04-4.61029E+05 2.47383E-10 8.18090E-10
 -1       343-1.13059E+06-1.76400E+05-1.79611E+04-4.47570E+05-1.33241E-10-4.92128E-09
 -1       344-1.11984E+06-1.90184E+05-9.10364E+03-4.62237E+05-3.81988E-11 9.42009E-10
 -1       345-1.13143E+06-1.76625E+05-4.14522E+03-4.47739E+05 2.33740E-10 3.97154E-09
 -1       346-1.11890E+06-1.89411E+05-2.14378E+03-4.62298E+05 8.89713E-10 1.43200E-09
 -1       347-1.13155E+06-1.76650E+05-1.22206E+03-4.47742E+05 1.64721E-09 2.37151E-09
 -1       348-1.11881E+06-1.89375E+05-1.09264E+03-4.62302E+05-1.61816E-09 5.81053E-10
 -1       349-1.13153E+06-1.76655E+05-1.53445E+03-4.47746E+05 6.43468E-11-6.88942E-10
 -1       350-1.11896E+06-1.89414E+05-2.97098E+03-4.62269E+05-8.95170E-10-1.45519E-10
 -1       351-1.13135E+06-1.76625E+05-5.90243E+03-4.47745E+05 1.62800E-10-6.48470E-10
 -1       352-1.12033E+06-1.90527E+05-1.30462E+04-4.62187E+05-4.80213E-10 1.23237E-09
 -1       353-1.13015E+06-1.76288E+05-2.57709E+04-4.47494E+05-8.41737E-10-1.28057E-09
 -1       354-1.13776E+06-2.10435E+05-6.33272E+04-4.60537E+05 4.00405E-09-1.64255E-09
 -1       355-1.11612E+06-1.73495E+05-1.11976E+05-4.43006E+05-2.50839E-09 3.07773E-09
 -1       356 1.89519E+05 6.87306E+02 2.82105E+04-1.20565E+04-8.85393E-10 8.70386E-10
 -1       357 1.97543E+05 4.76671E+03 1.62059E+04-2.02985E+04-3.81988E-10-1.34742E-09
 -1       358 1.93056E+05-6.85163E+01 7.05885E+03-1.19629E+04 9.01764E-10 1.62072E-09
 -1       359 1.93699E+05 2.25926E+02 3.65573E+03-2.03879E+04 4.45425E-10-2.40175E-09
 -1       360 1.93313E+05-3.14365E+01 1.68850E+03-1.19636E+04 2.36787E-09 2.30330E-09
 -1       361 1.93379E+05 3.87464E+00 7.48555E+02-2.03853E+04 5.22959E-10 5.05418E-09
 -1       362 1.93344E+05-4.31990E+00 1.39396E+02-1.19657E+04-4.41537E-09-1.73895E-09
 -1       363 1.93311E+05-5.64645E-01-3.88406E+02-2.03826E+04-9.18362E-10 9.35984E-10
 -1       364 1.93367E+05 1.61912E+01-1.09495E+03-1.19663E+04 1.77300E-09-7.52607E-10
 -1       365 1.93197E+05-2.57585E+01-2.41521E+03-2.03837E+04 2.78669E-09-1.28853E-09
 -1       366 1.93463E+05 6.51725E+01-4.81472E+03-1.19647E+04 4.27917E-10-6.11180E-10
 -1       367 1.92384E+05-6.64201E+02-1.01243E+04-2.03849E+04-3.30692E-09 1.49157E-10
 -1       368 1.94206E+05 1.32988E+02-1.94276E+04-1.19653E+04-2.29193E-10 7.33053E-10
 -1       369 1.81925E+05-1.31690E+04-4.45045E+04-2.03066E+04 2.51930E-10-3.01225E-09
 -1       370 2.03981E+05-1.98172E+03-7.74357E+04-1.20353E+04 6.48924E-10 2.17915E-09
 -1       371 1.59767E+02-6.10535E+04 3.73282E+03-1.48663E+05-4.91127E-10 1.80626E-09
 -1       372 1.41472E+03-6.04567E+04 2.34649E+03-2.51789E+05-2.50475E-09-1.50158E-09
 -1       373 4.95453E+02-6.11105E+04 1.22261E+03-1.48188E+05-3.12866E-10 4.82760E-09
 -1       374 1.11254E+03-6.11334E+04 1.11645E+03-2.51921E+05-2.89583E-09 1.72122E-09
 -1       375 3.57717E+02-6.10052E+04 1.18531E+03-1.48530E+05-1.44610E-10 4.48563E-09
 -1       376-3.16366E+05-6.19148E+04-2.55285E+04-1.42369E+05 2.34422E-10 1.00044E-10
 -1       377-3.11671E+05-7.99229E+04-1.44327E+04-1.57384E+05-1.51522E-09-1.33707E-09
 -1       378-3.19644E+05-6.24668E+04-5.88569E+03-1.43339E+05-4.77030E-10-3.64480E-10
 -1       379-3.07672E+05-7.54384E+04-2.99634E+03-1.57841E+05-2.81034E-10-3.03186E-09
 -1       380-3.19920E+05-6.25414E+04-1.39384E+03-1.43406E+05-6.84395E-11-9.98966E-10
 -1       381-3.07378E+05-7.51745E+04-7.82831E+02-1.57847E+05 3.58000E-10 4.60614E-09
 -1       382-3.19942E+05-6.25587E+04-5.68925E+02-1.43410E+05-7.13044E-10 3.60160E-09
 -1       383-3.07353E+05-7.51613E+04-7.19939E+02-1.57824E+05-2.80124E-10 1.95178E-09
 -1       384-3.19902E+05-6.25719E+04-1.25320E+03-1.43402E+05 2.76032E-10-2.57796E-09
 -1       385-3.07451E+05-7.52234E+04-2.58841E+03-1.57793E+05 1.56615E-09 6.67796E-10
 -1       386-3.19727E+05-6.25397E+04-5.23244E+03-1.43372E+05-2.56478E-09-2.02817E-09
 -1       387-3.08593E+05-7.62628E+04-1.15937E+04-1.57743E+05 1.18189E-09-3.86217E-09
 -1       388-3.18666E+05-6.22336E+04-2.29259E+04-1.43105E+05 1.10686E-09-1.71349E-09
 -1       389-3.24016E+05-9.39761E+04-5.62925E+04-1.56278E+05 2.70438E-09 1.26511E-09
 -1       390-3.06165E+05-5.97786E+04-9.95573E+04-1.39078E+05 3.80669E-09 1.94268E-09
 -1       406 1.68274E+04 1.56962E+06 6.15259E+04 7.25812E+04-2.73576E-09 3.37604E-09
 -1       407 7.27713E+03 1.58327E+06 4.01481E+04 9.44558E+04 8.81300E-10 1.11049E-09
 -1       408 5.97404E+02 1.57489E+06 3.35863E+04 7.27292E+04-4.86216E-09 7.74889E-10
 -1       409 1.05749E+04 1.58658E+06 5.18509E+04 9.38683E+04 5.65251E-10 3.23780E-09
 -1       410 2.49600E+04 1.56708E+06 8.86982E+04 7.32374E+04-7.62520E-09 4.72573E-09
 -1       466 9.25709E+05 1.86220E+03 8.80324E+04-5.24613E+04 2.56478E-10 1.60071E-09
 -1       467 9.50847E+05 1.46903E+04 5.06393E+04-8.86475E+04 4.72937E-11 1.09139E-09
 -1       468 9.36546E+05-3.36202E+02 2.21003E+04-5.21638E+04-2.27374E-10-1.41335E-09
 -1       469 9.38519E+05 6.75071E+02 1.15954E+04-8.88467E+04-3.69255E-10-8.17636E-10
 -1       470 9.37200E+05-1.07887E+02 5.61390E+03-5.22340E+04 6.82121E-11-2.01362E-09
 -1       471 9.37359E+05 7.55237E+01 3.04918E+03-8.87385E+04 2.60570E-10-1.99543E-09
 -1       472 9.37212E+05 1.35256E+01 1.82810E+03-5.22734E+04 2.00544E-10 1.10322E-09
 -1       473 9.37200E+05 8.16626E+01 1.62751E+03-8.87030E+04-1.34150E-10-2.90720E-09
 -1       474 9.37213E+05 1.80822E+00 2.16019E+03-5.22697E+04 2.65572E-10-2.60570E-10
 -1       475 9.37435E+05 6.94808E+01 3.90286E+03-8.87558E+04 4.45652E-10 2.92266E-09
 -1       476 9.37182E+05-1.52579E+02 7.36593E+03-5.22202E+04 6.73026E-11 7.10770E-10
 -1       477 9.38928E+05 8.86744E+02 1.53138E+04-8.88763E+04 5.27507E-11 7.69376E-10
 -1       478 9.36274E+05-4.21511E+02 2.92438E+04-5.21472E+04-6.73026E-11-4.45652E-10
 -1       479 9.55142E+05 1.94853E+04 6.70193E+04-8.86653E+04-9.84073E-10-6.82121E-11
 -1       480 9.21866E+05 2.54980E+03 1.16552E+05-5.24727E+04-7.38510E-10 8.14907E-10
 -1       481 9.42758E+02 3.13089E+05 2.91700E+04-6.99534E+04 2.61934E-10 4.95675E-11
 -1       482 5.38968E+03 3.21172E+05 1.77915E+04-1.18290E+05-1.89289E-10 1.86719E-09
 -1       483 1.66801E+02 3.16575E+05 9.81164E+03-6.98226E+04 3.34239E-11 1.37334E-09
 -1       484 2.48946E+03 3.18887E+05 9.84435E+03-1.18207E+05 1.32786E-10 1.56069E-09
 -1       485 3.84563E+02 3.15602E+05 1.23209E+04-7.00434E+04 1.34605E-10-1.11595E-09
 -1       486-8.67175E+05-1.40885E+05-9.43957E+04-3.52326E+05-4.54747E-12 1.38971E-09
 -1       487-8.82151E+05-1.75191E+05-5.33695E+04-3.70763E+05-9.27685E-10 3.55703E-09
 -1       488-8.79078E+05-1.43152E+05-2.17350E+04-3.56071E+05 2.57387E-10 1.75714E-09
 -1       489-8.67444E+05-1.58472E+05-1.10000E+04-3.72263E+05 1.49157E-10-1.01113E-09
 -1       490-8.80122E+05-1.43409E+05-4.99022E+03-3.56289E+05-3.27418E-11 3.45153E-10
 -1       491-8.66318E+05-1.57540E+05-2.52220E+03-3.72377E+05-2.26919E-10 2.02704E-10
 -1       492-8.80297E+05-1.43412E+05-1.33210E+03-3.56292E+05-3.06045E-10-1.36384E-09
 -1       493-8.66209E+05-1.57514E+05-1.00062E+03-3.72437E+05 3.72893E-10-2.91493E-10
 -1       494-8.80325E+05-1.43392E+05-1.19377E+03-3.56287E+05 9.37916E-11 9.85892E-10
 -1       495-8.66297E+05-1.57562E+05-2.16209E+03-3.72461E+05-1.82354E-10 1.97633E-09
 -1       496-8.80216E+05-1.43353E+05-4.21701E+03-3.56276E+05-2.39197E-10-8.19909E-10
 -1       497-8.67247E+05-1.58372E+05-9.28477E+03-3.72428E+05 3.17641E-10-1.70849E-09
 -1       498-8.79368E+05-1.43110E+05-1.83237E+04-3.56088E+05-3.34694E-10-2.96495E-10
 -1       499-8.79634E+05-1.72507E+05-4.50126E+04-3.71229E+05-5.74801E-10 4.69299E-10
 -1       500-8.69361E+05-1.41167E+05-7.96031E+04-3.52912E+05 2.56023E-10 0.00000E+00
 -1       501 5.38378E+05 1.45822E+03 7.91832E+04-6.03889E+04 1.45155E-09 1.18780E-09
 -1       502 5.61125E+05 1.31086E+04 4.55781E+04-1.01674E+05 6.40284E-10 2.60206E-09
 -1       503 5.47991E+05-3.97000E+02 1.98578E+04-5.99612E+04-3.74712E-10-1.08230E-09
 -1       504 5.49795E+05 5.91441E+02 1.04282E+04-1.02028E+05-6.93035E-10-1.50067E-10
 -1       505 5.48472E+05-1.05408E+02 5.02963E+03-6.00078E+04 9.24047E-10 6.40284E-10
 -1       506 5.48596E+05 1.29762E+02 2.72462E+03-1.01948E+05 4.45652E-10-1.54114E-09
 -1       507 5.48416E+05 5.80938E+01 1.60386E+03-6.00429E+04 8.03084E-10-1.14369E-09
 -1       508 5.48368E+05 1.78126E+02 1.38580E+03-1.01908E+05 8.27924E-10-1.05729E-09
 -1       509 5.48392E+05 7.13064E+01 1.78618E+03-6.00475E+04 8.86303E-10 3.10183E-09
 -1       510 5.48552E+05 1.70724E+02 3.18495E+03-1.01929E+05 1.80262E-09 2.61480E-10
 -1       511 5.48389E+05-7.07191E+01 5.98244E+03-6.00223E+04 5.47516E-10 6.59611E-10
 -1       512 5.49843E+05 7.93788E+02 1.24288E+04-1.01990E+05 1.05501E-09 1.33224E-09
 -1       513 5.47723E+05-3.44520E+02 2.37140E+04-5.99841E+04 2.71029E-10-9.58607E-10
 -1       514 5.63170E+05 1.58130E+04 5.43794E+04-1.01655E+05-4.91127E-11-3.18732E-09
 -1       515 5.36146E+05 1.96465E+03 9.45297E+04-6.03849E+04-4.25644E-10 1.92085E-09
 -1       516 1.77471E+03 1.79127E+05 4.59754E+04-1.79337E+05-1.42063E-09 1.81899E-09
 -1       517 9.34307E+03 1.91462E+05 2.94850E+04-3.03903E+05-5.69344E-10 4.58385E-09
 -1       518 6.71517E+02 1.84262E+05 1.88585E+04-1.78978E+05-1.86174E-09 3.10047E-09
 -1       519 6.94943E+03 1.90380E+05 2.36634E+04-3.03689E+05-1.70985E-10-1.49521E-09
 -1       520 8.45060E+02 1.81591E+05 3.35209E+04-1.79565E+05-1.35879E-09-1.02591E-09
 -1       521-1.56681E+06-2.51366E+05-1.41675E+05-6.31653E+05 8.24912E-10 6.54836E-11
 -1       522-1.58746E+06-3.04573E+05-8.00890E+04-6.61298E+05 5.01132E-10-1.97724E-09
 -1       523-1.58481E+06-2.54650E+05-3.26168E+04-6.37208E+05-1.38243E-10-1.90630E-09
 -1       524-1.56535E+06-2.79582E+05-1.65001E+04-6.63798E+05 5.91172E-11 2.12094E-09
 -1       525-1.58648E+06-2.54939E+05-7.48550E+03-6.37498E+05-9.27685E-11-3.87445E-10
 -1       526-1.56364E+06-2.78237E+05-3.78124E+03-6.64108E+05 8.19000E-10-1.45087E-09
 -1       527-1.58679E+06-2.54903E+05-2.00017E+03-6.37490E+05-1.23464E-09-4.67935E-09
 -1       528-1.56347E+06-2.78214E+05-1.50967E+03-6.64235E+05-6.81325E-10-6.19366E-10
 -1       529-1.58682E+06-2.54879E+05-1.81531E+03-6.37483E+05-8.64929E-10-1.48702E-09
 -1       530-1.56361E+06-2.78263E+05-3.29951E+03-6.64203E+05-6.12090E-10-4.77939E-10
 -1       531-1.58659E+06-2.54880E+05-6.45295E+03-6.37482E+05 1.02318E-09 1.41154E-09
 -1       532-1.56508E+06-2.79438E+05-1.42031E+04-6.63983E+05 2.63708E-09 1.52613E-09
 -1       533-1.58516E+06-2.54617E+05-2.80509E+04-6.37228E+05 4.87489E-10-2.98314E-10
 -1       534-1.58411E+06-3.00935E+05-6.88935E+04-6.61836E+05-1.22054E-09 2.08456E-09
 -1       535-1.56967E+06-2.51809E+05-1.21863E+05-6.32467E+05 2.48292E-10 9.53150E-10
 -1       536 7.93272E+05 2.76739E+03 1.19630E+05-4.32261E+04-6.73026E-11 2.37196E-09
 -1       537 8.27362E+05 2.01094E+04 6.87679E+04-7.29080E+04-1.74259E-09 1.28603E-09
 -1       538 8.08146E+05-3.58223E+02 3.00185E+04-4.29394E+04-1.01136E-09-5.51154E-10
 -1       539 8.10873E+05 9.55909E+02 1.57088E+04-7.31096E+04 7.53062E-10-5.88443E-10
 -1       540 8.09141E+05-1.34423E+02 7.55503E+03-4.29906E+04 1.83991E-09 9.27685E-11
 -1       541 8.09425E+05 7.35632E+01 3.99003E+03-7.30227E+04 1.00772E-09-1.54614E-09
 -1       542 8.09205E+05-1.15982E+00 2.19148E+03-4.30279E+04-1.26556E-09-2.41926E-09
 -1       543 8.09209E+05 7.23875E+01 1.61986E+03-7.29810E+04-4.19504E-10-3.78350E-10
 -1       544 8.09204E+05 1.30347E+01 1.78197E+03-4.30327E+04 2.63753E-11-4.27008E-10
 -1       545 8.09333E+05 8.04248E+01 2.93739E+03-7.30019E+04-9.15179E-10 1.67711E-09
 -1       546 8.09164E+05-8.00901E+01 5.39450E+03-4.30069E+04 4.00178E-10 1.76874E-09
 -1       547 8.10371E+05 6.93598E+02 1.11234E+04-7.30727E+04 3.83807E-10 2.76430E-10
 -1       548 8.08482E+05-2.54322E+02 2.12092E+04-4.29608E+04 1.30967E-10 2.30193E-09
 -1       549 8.22069E+05 1.41937E+04 4.85678E+04-7.28866E+04-9.82254E-11-4.40650E-10
 -1       550 7.98012E+05 1.91850E+03 8.44585E+04-4.32126E+04-1.31513E-09 2.65209E-09
 -1       551 1.21677E+04-7.43897E+04 3.87194E+04-4.09141E+05-3.48155E-09-1.02955E-09
 -1       552 7.31067E+03-6.70344E+04 2.44069E+04-5.26470E+05-3.99086E-09 2.46291E-09
 -1       553 2.48621E+03-7.21338E+04 1.87096E+04-4.08347E+05-4.78758E-09 2.46325E-09
 -1       554 7.98156E+03-6.63040E+04 2.68533E+04-5.26428E+05-3.72529E-09 1.92813E-10
 -1       555 1.38310E+04-7.48657E+04 4.43945E+04-4.09183E+05-3.71529E-09-9.20409E-10
 -1       556-1.09165E+06-2.39999E+05-8.38944E+04-4.91138E+05-4.56566E-10 2.28465E-09
 -1       557-1.08956E+06-2.51942E+05-4.31445E+04-5.22926E+05 4.20187E-10 9.56788E-10
 -1       558-1.09781E+06-2.21983E+05-1.82803E+04-5.00894E+05 6.18456E-11-1.16506E-09
 -1       559-1.07945E+06-2.41667E+05-8.99817E+03-5.23984E+05-3.27418E-10 2.36923E-10
 -1       560-1.09856E+06-2.21439E+05-4.16666E+03-5.01337E+05-7.45786E-10-3.35535E-09
 -1       561-1.07892E+06-2.41268E+05-2.11334E+03-5.24086E+05 3.63798E-12-2.36560E-09
 -1       562-1.09876E+06-2.21428E+05-1.16927E+03-5.01390E+05 1.45519E-11-8.43102E-10
 -1       563-1.07891E+06-2.41251E+05-9.67159E+02-5.24121E+05-5.09772E-10-2.59024E-09
 -1       564-1.09875E+06-2.21428E+05-1.28121E+03-5.01387E+05-1.09594E-09-1.81899E-12
 -1       565-1.07893E+06-2.41269E+05-2.40946E+03-5.24078E+05-6.47560E-10 1.73168E-09
 -1       566-1.09853E+06-2.21438E+05-4.79971E+03-5.01330E+05-1.96451E-10-3.30874E-09
 -1       567-1.07955E+06-2.41731E+05-1.03918E+04-5.23984E+05 6.96673E-10-1.46974E-09
 -1       568-1.09768E+06-2.22039E+05-2.11150E+04-5.00823E+05-4.05635E-10 2.86309E-09
 -1       569-1.09123E+06-2.53662E+05-4.98585E+04-5.22866E+05 1.99452E-09 2.89583E-09
 -1       570-1.09065E+06-2.42770E+05-9.69218E+04-4.89505E+05-7.80346E-10-1.04774E-09
 -1       571 8.04736E+05 2.59576E+04 8.90298E+04-9.07924E+04 1.07502E-09 1.26784E-09
 -1       572 8.24272E+05 1.08877E+04 4.68998E+04-1.16211E+05-4.00178E-10-3.32057E-09
 -1       573 8.13198E+05 3.88703E+02 2.10838E+04-9.03129E+04-5.69344E-10-3.16322E-09
 -1       574 8.14625E+05 2.15082E+02 1.08023E+04-1.16654E+05-3.10138E-10-4.89854E-09
 -1       575 8.13644E+05-1.59880E+02 5.22146E+03-9.03004E+04-2.39197E-10-3.72347E-09
 -1       576 8.13773E+05-2.66429E+01 2.67753E+03-1.16665E+05-6.45741E-10-1.15779E-09
 -1       577 8.13672E+05-3.37186E+01 1.33846E+03-9.03041E+04-5.06475E-10-1.51067E-09
 -1       578 8.13675E+05-5.13726E+00 7.38513E+02-1.16668E+05-4.65889E-10 5.17502E-10
 -1       579 8.13750E+05-4.61474E+01 4.64224E+02-9.02975E+04 8.18545E-10-1.93450E-09
 -1       580 8.13820E+05-8.40331E+01 4.54014E+02-1.16692E+05 1.76351E-09-2.45564E-10
 -1       581 8.13925E+05-1.70362E+02 6.28535E+02-9.02801E+04-1.55887E-09-2.39106E-09
 -1       582 8.14201E+05-2.18083E+02 1.20191E+03-1.16696E+05-1.00590E-09-7.16682E-10
 -1       583 8.14157E+05-3.00098E+02 2.25704E+03-9.02920E+04-4.11092E-10-5.54792E-10
 -1       584 8.15685E+05 7.15040E+02 5.06160E+03-1.16141E+05-5.61158E-09-3.41061E-10
 -1       585 8.13599E+05 2.23448E+03 9.53312E+03-9.08413E+04 1.01863E-09 2.10639E-09
 -1       586 5.25935E+03 7.62422E+04 1.64826E+04-3.71957E+05 4.86580E-09-2.59024E-09
 -1       587 4.03082E+03 7.87837E+04 1.22737E+04-4.78285E+05 2.23008E-09-5.57702E-09
 -1       588 2.01389E+03 7.62075E+04 1.24286E+04-3.71130E+05 6.05360E-09 3.78350E-10
 -1       589 7.04712E+03 8.08062E+04 2.17845E+04-4.78454E+05 2.71393E-09 5.91172E-11
 -1       590 1.24889E+04 7.32234E+04 3.86341E+04-3.71770E+05 4.96311E-09 5.20231E-10
 -1       591-7.22194E+05-1.69270E+05-7.68445E+04-3.30674E+05-2.62685E-09-7.04313E-09
 -1       592-7.23362E+05-1.77266E+05-3.95408E+04-3.56340E+05 1.40972E-10-1.35969E-09
 -1       593-7.27577E+05-1.52966E+05-1.67369E+04-3.39676E+05 5.09317E-10 2.44654E-10
 -1       594-7.14067E+05-1.67750E+05-8.25045E+03-3.57000E+05 3.73666E-09 6.80456E-09
 -1       595-7.28124E+05-1.52570E+05-3.82074E+03-3.40035E+05 2.56478E-10-2.08945E-09
 -1       596-7.13497E+05-1.67400E+05-1.95521E+03-3.56961E+05-1.18234E-10 5.03405E-10
 -1       597-7.28209E+05-1.52619E+05-1.10660E+03-3.40044E+05-6.55007E-10-2.54704E-09
 -1       598-7.13425E+05-1.67401E+05-9.61920E+02-3.56923E+05 7.28960E-10-3.45972E-09
 -1       599-7.28153E+05-1.52645E+05-1.32676E+03-3.40022E+05 3.42243E-09 4.79213E-09
 -1       600-7.13437E+05-1.67428E+05-2.52877E+03-3.56870E+05 4.00632E-10-1.32786E-09
 -1       601-7.27939E+05-1.52637E+05-5.04862E+03-3.39965E+05-1.71713E-09 1.90994E-10
 -1       602-7.14124E+05-1.67911E+05-1.09374E+04-3.56833E+05 2.79306E-09-1.65619E-09
 -1       603-7.27142E+05-1.53214E+05-2.22141E+04-3.39459E+05 4.44925E-09-1.86810E-09
 -1       604-7.26424E+05-1.80513E+05-5.24525E+04-3.55862E+05-3.55067E-09-1.70985E-10
 -1       605-7.19946E+05-1.74852E+05-1.01939E+05-3.27500E+05 2.45745E-09 2.56478E-09
 -1       606 2.77956E+05-1.31955E+04-4.47969E+04 5.49400E+04-1.39880E-08 3.34637E-10
 -1       607 2.68024E+05-5.43422E+03-2.35752E+04 6.96216E+04-3.07773E-09-2.52294E-09
 -1       608 2.73380E+05-1.57610E+02-1.06269E+04 5.44735E+04 1.18453E-08-2.12640E-09
 -1       609 2.72466E+05 1.33091E+02-5.42233E+03 7.00830E+04-4.28918E-09-2.42107E-09
 -1       610 2.72904E+05 2.90504E+02-2.62114E+03 5.44496E+04-2.06255E-08-3.46745E-09
 -1       611 2.72631E+05 4.00319E+02-1.30292E+03 7.00977E+04-3.56413E-08 1.94632E-09
 -1       612 2.72736E+05 3.30071E+02-5.95942E+02 5.44548E+04-1.58616E-08 1.83672E-09
 -1       613 2.72554E+05 4.60753E+02-1.99307E+02 7.00875E+04-2.14022E-08-1.40153E-09
 -1       614 2.72640E+05 3.63535E+02 9.55844E+01 5.44581E+04-2.17642E-09-4.96038E-09
 -1       615 2.72506E+05 4.95135E+02 4.50948E+02 7.00798E+04 1.77947E-08-4.32010E-11
 -1       616 2.72580E+05 3.69667E+02 1.00553E+03 5.44615E+04-6.66159E-09-4.84306E-09
 -1       617 2.72624E+05 5.73366E+02 2.14572E+03 7.00654E+04 2.73641E-09-6.52653E-09
 -1       618 2.72456E+05 5.02143E+02 4.21987E+03 5.44714E+04-9.54515E-10-1.35924E-09
 -1       619 2.74527E+05 2.72953E+03 9.40003E+03 6.99005E+04-8.12179E-10 3.12320E-09
 -1       620 2.70744E+05 5.63547E+03 1.78497E+04 5.46016E+04 6.77210E-09-1.85992E-10
 -1       621 1.00240E+04 1.03915E+06 3.64791E+04-1.23161E+05-9.66611E-09-1.37516E-09
 -1       622 5.04833E+03 1.04691E+06 2.69459E+04-1.57739E+05 5.72072E-10 3.90173E-09
 -1       623 1.26303E+03 1.04161E+06 2.76200E+04-1.22910E+05-1.10103E-08-1.38471E-09
 -1       624 1.14990E+04 1.05240E+06 4.86702E+04-1.57809E+05 2.91038E-10 2.13140E-09
 -1       625 2.57358E+04 1.03349E+06 8.69900E+04-1.23046E+05-1.08921E-08-1.73350E-09
 -1       626 4.74012E+05 1.08223E+05-1.27559E+04 2.38113E+05-2.56841E-09 2.58296E-10
 -1       627 4.59422E+05 1.21322E+05-6.54550E+03 2.50132E+05-1.57161E-09 1.60389E-09
 -1       628 4.73310E+05 1.10648E+05-2.78992E+03 2.36129E+05 4.94765E-10 6.25187E-09
 -1       629 4.60412E+05 1.23326E+05-1.35211E+03 2.50307E+05 1.84618E-08 5.12921E-09
 -1       630 4.73107E+05 1.10779E+05-6.07354E+02 2.35973E+05 2.21553E-09 2.60115E-10
 -1       631 4.60362E+05 1.23442E+05-2.41190E+02 2.50221E+05-1.03882E-08-3.30431E-09
 -1       632 4.72992E+05 1.10831E+05-1.16539E+01 2.35920E+05-1.25692E-08 4.89678E-09
 -1       633 4.60306E+05 1.23468E+05 2.18985E+02 2.50155E+05-1.62754E-09 1.52329E-08
 -1       634 4.72923E+05 1.10846E+05 5.56603E+02 2.35893E+05 4.61387E-09-2.26009E-10
 -1       635 4.60331E+05 1.23478E+05 1.25102E+03 2.50148E+05 1.16620E-08 5.17821E-09
 -1       636 4.72865E+05 1.10803E+05 2.58439E+03 2.35889E+05-1.91396E-08-4.44652E-09
 -1       637 4.60780E+05 1.23702E+05 5.65713E+03 2.50230E+05-1.00304E-08-1.95996E-10
 -1       638 4.72583E+05 1.11007E+05 1.14888E+04 2.35688E+05 8.73570E-09-6.23004E-09
 -1       639 4.67331E+05 1.30173E+05 2.71655E+04 2.49900E+05 2.18643E-09-3.63616E-09
 -1       640 4.69055E+05 1.22118E+05 5.27788E+04 2.29580E+05 6.19139E-09-3.97085E-09
 -1       641 1.13474E+04-1.81816E+02-8.18070E+03 3.67937E+03-1.73318E-08 3.23098E-09
 -1       642 9.00112E+03-1.34633E+03-4.69963E+03 6.19387E+03-1.29708E-08 2.17221E-09
 -1       643 1.03171E+04 4.07517E+01-2.04899E+03 3.66150E+03-1.28173E-08 2.39879E-09
 -1       644 1.01080E+04-2.59847E+01-1.06339E+03 6.20732E+03-1.15208E-09 4.46948E-09
 -1       645 1.02396E+04 3.26710E+01-4.96810E+02 3.66063E+03 2.72536E-10 6.97980E-10
 -1       646 1.01963E+04 4.05418E+01-2.31362E+02 6.20810E+03-5.28942E-09 2.95884E-09
 -1       647 1.02296E+04 2.62158E+01-6.90069E+01 3.66052E+03 1.25367E-08 1.05271E-09
 -1       648 1.02133E+04 4.22622E+01 5.43269E+01 6.20842E+03 3.77361E-08-1.49885E-09
 -1       649 1.02252E+04 2.11534E+01 2.02277E+02 3.66033E+03 1.84506E-08-1.44956E-09
 -1       650 1.02387E+04 4.58190E+01 4.64227E+02 6.20839E+03 2.41026E-08 3.93078E-09
 -1       651 1.02085E+04 9.77426E+00 9.32844E+02 3.66058E+03 9.63610E-09 4.04265E-09
 -1       652 1.04021E+04 1.67341E+02 1.96676E+03 6.20665E+03 8.95193E-09 8.10644E-09
 -1       653 1.00679E+04-6.33397E+00 3.77529E+03 3.66174E+03 9.33187E-09 4.16208E-09
 -1       654 1.24441E+04 2.59507E+03 8.65225E+03 6.16235E+03-2.23026E-08 3.23553E-09
 -1       655 8.17447E+03 4.01692E+02 1.50579E+04 3.69609E+03 1.25704E-08 5.09317E-11
 -1       656-1.65702E+03-3.38598E+05-4.39922E+04 8.17016E+04-2.49165E-08-4.23825E-09
 -1       657-8.28789E+03-3.50808E+05-2.86172E+04 1.37615E+05-1.61672E-08 3.21961E-09
 -1       658-3.05937E+02-3.43779E+05-1.92760E+04 8.14227E+04-2.22713E-08 6.77574E-10
 -1       659-7.15160E+03-3.50086E+05-2.56628E+04 1.37766E+05-2.02258E-08 1.39065E-09
 -1       660-1.33687E+03-3.39669E+05-3.77072E+04 8.15604E+04-2.28483E-08-1.38107E-09
 -1       661 2.75805E+05 4.16590E+04 2.03948E+04 1.07675E+05 1.34528E-08-6.40739E-09
 -1       662 2.80286E+05 4.78380E+04 1.15334E+04 1.10231E+05-2.16442E-08 4.09273E-12
 -1       663 2.78312E+05 4.22057E+04 4.69765E+03 1.08535E+05 1.25773E-08 2.98451E-09
 -1       664 2.77143E+05 4.41789E+04 2.38515E+03 1.10470E+05 1.35922E-08-1.09119E-09
 -1       665 2.78514E+05 4.22827E+04 1.09012E+03 1.08588E+05 1.49694E-08-2.83613E-09
 -1       666 2.76901E+05 4.39663E+04 5.73239E+02 1.10462E+05 6.81439E-10-1.73065E-09
 -1       667 2.78539E+05 4.22940E+04 3.43245E+02 1.08590E+05 1.18717E-08 3.17357E-10
 -1       668 2.76880E+05 4.39590E+04 3.36210E+02 1.10465E+05-1.00340E-08-4.10660E-09
 -1       669 2.78538E+05 4.22879E+04 5.02266E+02 1.08588E+05 7.35690E-09 6.79643E-09
 -1       670 2.76923E+05 4.39865E+04 9.96533E+02 1.10483E+05 9.42532E-09 1.21457E-09
 -1       671 2.78499E+05 4.22570E+04 1.98741E+03 1.08578E+05-8.61291E-09 3.29237E-10
 -1       672 2.77366E+05 4.43892E+04 4.40084E+03 1.10513E+05-9.57743E-09-2.59649E-09
 -1       673 2.78131E+05 4.21076E+04 8.68896E+03 1.08476E+05-1.16207E-08-5.69071E-09
 -1       674 2.83206E+05 5.11473E+04 2.13490E+04 1.10056E+05 1.45954E-08 6.63385E-09
 -1       675 2.73469E+05 4.11157E+04 3.77563E+04 1.06911E+05 4.74847E-09 5.52973E-10
 -1       676-4.30261E+02-3.05827E+05-1.64308E+04 8.50951E+03 2.12767E-08-7.90806E-09
 -1       677-2.88565E+03-3.10440E+05-1.13704E+04 1.37180E+04 3.37885E-08-9.52014E-10
 -1       678 1.53819E+01-3.07584E+05-8.84667E+03 8.47144E+03 2.98542E-10 2.68756E-10
 -1       679-3.66396E+03-3.11101E+05-1.35453E+04 1.37650E+04 5.57975E-09 1.31541E-09
 -1       680-5.50671E+02-3.05177E+05-2.10339E+04 8.46034E+03 9.99717E-09 4.00587E-09
 -1       681 4.48241E+05 4.41245E+02 2.38325E+04-3.00348E+04 9.09495E-11-2.86491E-11
 -1       682 4.55068E+05 3.93013E+03 1.37202E+04-5.06468E+04-1.09139E-10-6.96673E-10
 -1       683 4.51151E+05-1.28560E+02 5.98437E+03-2.98254E+04 1.21872E-10-6.53927E-10
 -1       684 4.51683E+05 1.51344E+02 3.15190E+03-5.08325E+04-1.27329E-10-4.48836E-10
 -1       685 4.51305E+05-4.92574E+01 1.54113E+03-2.98437E+04 8.27640E-11 4.63615E-10
 -1       686 4.51336E+05 5.91189E+00 8.75661E+02-5.08001E+04 2.72848E-11-2.46246E-10
 -1       687 4.51291E+05-4.38938E+00 5.93049E+02-2.98582E+04 6.32099E-11 1.40290E-10
 -1       688 4.51276E+05 1.96107E+01 6.43250E+02-5.07819E+04-2.12424E-10-3.30147E-10
 -1       689 4.51274E+05-3.59122E+00 9.83920E+02-2.98619E+04-1.27898E-10 2.05091E-10
 -1       690 4.51362E+05 3.17239E+01 1.87435E+03-5.07871E+04 1.35060E-10 1.59844E-10
 -1       691 4.51231E+05-5.78701E+01 3.59686E+03-2.98528E+04 8.59472E-11-9.64292E-10
 -1       692 4.52034E+05 4.64863E+02 7.49936E+03-5.08062E+04-2.13731E-11-1.60966E-09
 -1       693 4.50743E+05-1.55345E+02 1.43458E+04-2.98423E+04-4.27463E-11-1.07138E-09
 -1       694 4.59894E+05 9.63211E+03 3.28662E+04-5.06353E+04-7.56700E-10 1.54159E-10
 -1       695 4.43622E+05 1.34056E+03 5.71728E+04-3.00339E+04-5.05679E-10-9.49512E-10
 -1       696 9.96297E+02 5.43062E+05 3.26307E+04-6.38885E+04-1.09139E-11-1.20781E-09
 -1       697 5.85612E+03 5.52151E+05 1.77573E+04-1.07764E+05 1.28239E-10-6.03677E-10
 -1       698 1.44654E+02 5.47285E+05 5.72501E+03-6.37484E+04-1.06184E-10 1.41074E-09
 -1       699-1.11112E+03 5.46338E+05-1.63516E+03-1.07745E+05-1.30285E-10 1.93427E-09
 -1       700-1.57982E+02 5.48947E+05-8.43784E+03-6.39165E+04-1.35515E-10 1.66528E-09
 -1       701-4.17023E+05-7.00207E+04-6.33725E+04-1.72860E+05 3.84262E-11-6.98492E-10
 -1       702-4.27902E+05-9.22613E+04-3.58322E+04-1.84346E+05-2.11003E-10-6.83940E-10
 -1       703-4.24978E+05-7.15716E+04-1.45934E+04-1.75390E+05-1.27329E-11-1.00226E-09
 -1       704-4.18043E+05-8.10090E+04-7.38954E+03-1.85285E+05 2.13731E-10-1.38607E-09
 -1       705-4.25650E+05-7.17718E+04-3.35491E+03-1.75547E+05-4.54747E-12-2.30330E-10
 -1       706-4.17296E+05-8.03633E+04-1.70250E+03-1.85317E+05-9.45874E-11-5.35010E-10
 -1       707-4.25751E+05-7.17889E+04-9.11097E+02-1.75556E+05-7.27596E-11 4.87375E-10
 -1       708-4.17229E+05-8.03371E+04-7.05862E+02-1.85341E+05 6.63931E-11 6.98535E-10
 -1       709-4.25767E+05-7.17765E+04-8.70056E+02-1.75555E+05 1.00272E-10 5.34101E-10
 -1       710-4.17297E+05-8.03750E+04-1.59820E+03-1.85367E+05-2.04068E-10-7.69091E-10
 -1       711-4.25700E+05-7.17346E+04-3.12782E+03-1.75544E+05 1.13459E-10-2.38742E-11
 -1       712-4.17999E+05-8.09923E+04-6.89374E+03-1.85386E+05 3.54134E-10-1.60071E-10
 -1       713-4.25102E+05-7.15239E+04-1.36021E+04-1.75394E+05 4.20641E-11 1.91903E-10
 -1       714-4.27160E+05-9.15416E+04-3.34181E+04-1.84601E+05 1.00897E-10 7.03039E-10
 -1       715-4.17739E+05-7.00185E+04-5.90900E+04-1.72992E+05-1.54614E-10 1.04410E-09
 -1       716 3.77212E+05 1.07291E+03 5.06538E+04-4.38677E+04 7.74889E-10-1.50976E-10
 -1       717 3.91673E+05 8.50027E+03 2.91449E+04-7.38284E+04-4.00178E-10-1.03955E-09
 -1       718 3.83425E+05-1.67596E+02 1.27186E+04-4.35798E+04 5.09317E-11 5.06589E-10
 -1       719 3.84545E+05 4.44420E+02 6.68027E+03-7.40924E+04-6.98947E-10 5.98675E-10
 -1       720 3.83788E+05-2.70493E+01 3.24691E+03-4.35942E+04 6.22094E-10 3.59705E-10
 -1       721 3.83868E+05 1.04047E+02 1.78898E+03-7.40671E+04 8.86075E-10 4.24961E-10
 -1       722 3.83794E+05 4.20839E+01 1.11974E+03-4.36056E+04 9.42464E-10-2.97405E-10
 -1       723 3.83791E+05 1.02164E+02 1.07440E+03-7.40593E+04 1.00363E-09-5.92536E-10
 -1       724 3.83802E+05 2.29043E+01 1.51244E+03-4.36021E+04 3.08773E-10 6.45741E-11
 -1       725 3.83981E+05 8.49483E+01 2.80087E+03-7.40819E+04 7.84894E-10 1.43564E-09
 -1       726 3.83787E+05-9.58841E+01 5.32175E+03-4.35828E+04-5.18412E-11 5.20004E-10
 -1       727 3.85077E+05 6.72154E+02 1.10905E+04-7.41204E+04 9.13133E-10 7.25777E-10
 -1       728 3.83135E+05-2.95357E+02 2.11881E+04-4.35624E+04 2.72848E-10-4.74756E-10
 -1       729 3.96841E+05 1.41595E+04 4.85824E+04-7.38231E+04-5.29326E-10-9.23137E-11
 -1       730 3.72697E+05 1.84594E+03 8.44840E+04-4.39027E+04-4.52928E-10-4.94765E-10
 -1       731 1.02675E+03 1.93007E+05 3.30088E+04-1.09148E+05-8.29459E-10-5.47516E-10
 -1       732 6.10428E+03 2.02134E+05 1.93445E+04-1.84939E+05-2.96268E-10-1.70019E-09
 -1       733 2.00767E+02 1.97021E+05 9.13054E+03-1.08917E+05-1.11049E-09 1.26238E-09
 -1       734 1.36075E+03 1.98433E+05 6.38005E+03-1.84834E+05 1.06411E-10 1.21145E-09
 -1       735 9.33427E+01 1.97135E+05 5.51766E+03-1.09258E+05-9.37689E-10 1.65892E-09
 -1       736-8.89019E+05-1.37353E+05-8.10548E+04-3.51570E+05 2.68301E-11-1.80080E-09
 -1       737-9.04391E+05-1.64346E+05-4.58331E+04-3.64571E+05-3.36513E-09-5.72891E-09
 -1       738-8.99172E+05-1.39358E+05-1.86558E+04-3.54804E+05-5.13865E-11 4.45652E-11
 -1       739-8.91763E+05-1.49953E+05-9.44537E+03-3.65767E+05 1.26556E-09 2.00089E-10
 -1       740-9.00037E+05-1.39607E+05-4.27729E+03-3.54985E+05-6.91216E-11-1.59389E-10
 -1       741-8.90774E+05-1.49146E+05-2.15745E+03-3.65822E+05 6.18456E-10 1.04779E-09
 -1       742-9.00168E+05-1.39629E+05-1.12516E+03-3.54985E+05 5.13865E-10 6.36192E-10
 -1       743-8.90669E+05-1.49122E+05-8.20159E+02-3.65852E+05 4.61569E-10 2.54090E-10
 -1       744-9.00186E+05-1.39618E+05-9.43871E+02-3.54980E+05-4.34852E-10-7.37259E-10
 -1       745-8.90733E+05-1.49160E+05-1.67996E+03-3.65869E+05 2.04352E-10 1.85992E-10
 -1       746-9.00107E+05-1.39585E+05-3.25962E+03-3.54972E+05 7.95353E-10 5.31145E-10
 -1       747-8.91475E+05-1.49785E+05-7.16905E+03-3.65857E+05 1.45519E-10 5.61613E-10
 -1       748-8.99464E+05-1.39385E+05-1.41405E+04-3.54830E+05-7.88987E-11-3.00133E-11
 -1       749-9.01043E+05-1.60707E+05-3.47421E+04-3.64970E+05-2.12822E-10-4.09273E-11
 -1       750-8.91772E+05-1.37861E+05-6.14357E+04-3.52378E+05-2.73303E-10 3.92902E-10
 -1       751 9.44476E+05 3.29074E+03 1.40104E+05-4.73024E+04 1.43700E-10 1.73895E-09
 -1       752 9.84362E+05 2.35844E+04 8.05303E+04-7.98110E+04-1.48793E-09-1.59162E-09
 -1       753 9.61906E+05-3.87520E+02 3.51660E+04-4.70179E+04-6.02085E-10-1.80262E-09
 -1       754 9.65082E+05 1.14800E+03 1.84087E+04-7.99955E+04-4.29281E-10-2.87400E-10
 -1       755 9.63087E+05-1.37894E+02 8.87395E+03-4.70799E+04 7.00311E-10 5.04770E-10
 -1       756 9.63416E+05 1.00808E+02 4.71782E+03-7.98971E+04-3.41970E-10-6.63022E-10
 -1       757 9.63177E+05 4.04945E+00 2.65479E+03-4.71184E+04-6.57337E-10 8.76753E-10
 -1       758 9.63199E+05 8.37136E+01 2.07382E+03-7.98628E+04-8.20819E-11 2.69847E-09
 -1       759 9.63188E+05 2.31235E+00 2.43295E+03-4.71145E+04 1.08230E-10 1.30422E-09
 -1       760 9.63407E+05 8.32870E+01 4.15160E+03-7.99097E+04-1.23509E-09 2.35741E-09
 -1       761 9.63134E+05-1.36912E+02 7.70801E+03-4.70711E+04 3.91083E-10 8.71012E-10
 -1       762 9.64895E+05 9.64633E+02 1.59448E+04-8.00231E+04 6.28461E-10-5.36602E-10
 -1       763 9.62145E+05-3.79200E+02 3.04261E+04-4.69993E+04 1.45519E-10-1.27693E-09
 -1       764 9.81647E+05 2.03468E+04 6.96833E+04-7.98425E+04 5.11136E-10 9.74978E-10
 -1       765 9.47102E+05 2.76602E+03 1.21202E+05-4.72881E+04-1.72440E-09 1.81899E-09
 -1       766 2.39441E+03 3.64984E+05 8.71825E+04-1.08409E+05 1.32059E-09-1.53796E-09
 -1       767 1.54273E+04 3.89499E+05 5.67951E+04-1.83639E+05 3.26372E-09 7.97399E-10
 -1       768 1.18032E+00 3.74890E+05 3.82355E+04-1.08244E+05 1.15324E-09 1.41790E-09
 -1       769 1.31256E+04 3.88137E+05 5.09014E+04-1.83435E+05 3.08319E-09 1.54796E-09
 -1       770 1.68600E+03 3.67197E+05 7.46200E+04-1.08632E+05 3.45608E-11 1.51522E-09
 -1       771-1.73169E+06-3.25867E+05-1.46310E+05-7.01464E+05 1.11868E-10 8.73115E-10
 -1       772-1.74721E+06-3.27796E+05-7.52962E+04-7.34982E+05-1.12777E-09 6.16637E-10
 -1       773-1.74170E+06-2.95045E+05-3.18540E+04-7.18694E+05-8.40373E-10 1.79716E-09
 -1       774-1.72955E+06-3.09568E+05-1.56896E+04-7.36056E+05 5.61158E-10 6.40512E-10
 -1       775-1.74272E+06-2.94289E+05-7.23911E+03-7.19346E+05 1.57888E-09-2.08979E-09
 -1       776-1.72844E+06-3.08927E+05-3.64704E+03-7.36023E+05 8.20364E-10 2.44620E-09
 -1       777-1.74294E+06-2.94346E+05-1.94919E+03-7.19369E+05-2.91038E-11 2.24827E-09
 -1       778-1.72834E+06-3.08925E+05-1.49125E+03-7.36037E+05-7.79664E-10-1.60981E-10
 -1       779-1.74296E+06-2.94342E+05-1.81750E+03-7.19371E+05 4.38092E-10 2.71120E-09
 -1       780-1.72843E+06-3.08928E+05-3.30220E+03-7.36043E+05 7.00311E-10 8.63565E-10
 -1       781-1.74277E+06-2.94285E+05-6.50070E+03-7.19354E+05 1.45519E-11-2.02817E-10
 -1       782-1.72943E+06-3.09504E+05-1.40655E+04-7.36083E+05 4.33829E-10-1.06593E-09
 -1       783-1.74186E+06-2.94956E+05-2.85413E+04-7.18770E+05-4.27463E-10 2.64481E-09
 -1       784-1.74528E+06-3.25833E+05-6.74719E+04-7.35112E+05 2.30102E-10 1.48975E-09
 -1       785-1.73286E+06-3.22589E+05-1.31096E+05-7.03348E+05-4.03816E-10 1.04774E-09
 -1       786 7.36491E+05 2.33111E+03 1.00778E+05-4.22661E+04 1.08957E-09-1.54250E-09
 -1       787 7.65194E+05 1.69222E+04 5.79303E+04-7.14891E+04-1.19599E-09-2.54295E-09
 -1       788 7.49026E+05-3.02436E+02 2.52902E+04-4.20106E+04-3.32875E-10-4.58385E-10
 -1       789 7.51318E+05 7.79853E+02 1.32263E+04-7.16790E+04-4.58840E-10-1.01863E-09
 -1       790 7.49877E+05-1.23686E+02 6.35270E+03-4.20468E+04 5.86624E-10 9.03583E-10
 -1       791 7.50126E+05 2.17121E+01 3.32784E+03-7.16256E+04-1.91903E-10-1.18325E-09
 -1       792 7.49952E+05-2.70753E+01 1.77968E+03-4.20651E+04 3.49814E-10 1.50885E-09
 -1       793 7.49982E+05-1.35364E+00 1.22506E+03-7.16173E+04-2.12367E-10 1.31513E-09
 -1       794 7.49984E+05-3.48834E+01 1.22287E+03-4.20553E+04-3.15140E-10-1.26829E-09
 -1       795 7.50119E+05-3.01153E+01 1.90812E+03-7.16663E+04 3.50155E-10 2.79215E-10
 -1       796 7.50009E+05-1.31602E+02 3.42759E+03-4.20158E+04-9.64064E-10-3.57727E-09
 -1       797 7.50880E+05 3.04144E+02 7.04850E+03-7.17547E+04-1.04046E-09-1.55637E-09
 -1       798 7.49648E+05-2.98515E+02 1.34041E+04-4.19658E+04-7.02130E-10-9.38599E-10
 -1       799 7.58431E+05 8.78064E+03 3.07320E+04-7.15470E+04-4.92673E-09 9.27685E-11
 -1       800 7.43109E+05 9.98784E+02 5.33977E+04-4.22438E+04 1.88811E-09 9.82254E-11
 -1       801 1.72792E+03 4.01796E+04 3.56928E+04-3.77347E+05-1.75169E-09 1.26965E-09
 -1       802 1.06031E+04 4.76671E+04 2.74483E+04-6.39395E+05-5.30417E-09-3.89264E-09
 -1       803 2.48335E+03 4.16267E+04 2.49245E+04-3.76355E+05-7.96717E-10 4.33010E-09
 -1       804 1.58726E+04 5.28425E+04 4.28240E+04-6.39295E+05-6.08270E-09-4.58931E-09
 -1       805 2.14475E+03 3.61182E+04 6.81581E+04-3.77449E+05-2.32831E-10 3.26690E-09
 -1       806-1.05654E+06-2.19116E+05-9.14078E+04-4.54040E+05 3.48132E-09 3.34694E-09
 -1       807-1.06089E+06-2.25661E+05-4.70366E+04-4.81126E+05 1.39244E-09-1.89266E-09
 -1       808-1.06290E+06-1.99763E+05-1.99064E+04-4.64765E+05-6.49379E-10 4.86580E-10
 -1       809-1.04983E+06-2.14326E+05-9.80921E+03-4.81891E+05 1.38698E-09-1.18189E-09
 -1       810-1.06356E+06-1.99287E+05-4.53654E+03-4.65189E+05-2.73758E-10 2.53351E-10
 -1       811-1.04915E+06-2.13914E+05-2.30655E+03-4.81863E+05-9.24956E-10-5.54792E-11
 -1       812-1.06368E+06-1.99332E+05-1.27613E+03-4.65205E+05 9.93623E-11-8.74934E-10
 -1       813-1.04909E+06-2.13910E+05-1.05834E+03-4.81843E+05 1.31490E-09-1.40517E-09
 -1       814-1.06365E+06-1.99347E+05-1.39895E+03-4.65194E+05-9.21773E-10 2.52294E-09
 -1       815-1.04913E+06-2.13924E+05-2.62718E+03-4.81807E+05-1.50976E-09 1.56069E-09
 -1       816-1.06345E+06-1.99327E+05-5.22124E+03-4.65155E+05-9.47693E-10 3.34694E-10
 -1       817-1.04988E+06-2.14403E+05-1.13102E+04-4.81787E+05 7.80710E-09-2.28101E-09
 -1       818-1.06266E+06-1.99908E+05-2.29644E+04-4.64656E+05 5.82804E-09-4.34375E-09
 -1       819-1.06262E+06-2.27454E+05-5.42475E+04-4.80843E+05-5.25324E-09 8.58563E-10
 -1       820-1.05528E+06-2.22237E+05-1.05421E+05-4.52281E+05 1.28421E-09-3.92902E-10
 -1       821-4.83006E+05-1.65273E+03-6.56997E+04 2.08076E+04-1.22909E-08 1.48975E-09
 -1       822-5.01666E+05-1.10367E+04-3.77485E+04 3.56087E+04-3.67436E-09-3.67072E-09
 -1       823-4.91334E+05 1.76558E+02-1.65028E+04 2.05366E+04 9.87529E-09-1.94177E-09
 -1       824-4.92890E+05-3.83241E+02-8.61930E+03 3.58996E+04-6.69661E-09-4.47017E-10
 -1       825-4.92006E+05 1.56300E+02-4.15953E+03 2.04940E+04-1.82317E-08-1.13232E-10
 -1       826-4.92274E+05 1.95859E+02-2.19133E+03 3.59619E+04-3.03444E-08-1.74623E-09
 -1       827-4.92117E+05 1.45266E+02-1.21549E+03 2.04717E+04-1.67001E-08-8.19227E-10
 -1       828-4.92246E+05 2.43531E+02-9.10216E+02 3.59962E+04-2.56036E-08-2.78624E-09
 -1       829-4.92140E+05 1.58391E+02-1.02735E+03 2.04590E+04-4.16026E-09-9.65201E-10
 -1       830-4.92318E+05 2.37487E+02-1.71598E+03 3.60099E+04 1.26346E-08-1.75805E-09
 -1       831-4.92088E+05 1.90303E+02-3.17578E+03 2.04578E+04-1.08903E-08-1.41461E-09
 -1       832-4.92834E+05-1.75946E+02-6.55247E+03 3.59975E+04-1.85264E-09-1.87725E-09
 -1       833-4.91605E+05 2.26584E+02-1.25196E+04 2.04728E+04 9.09495E-10-1.80808E-09
 -1       834-4.99539E+05-8.24234E+03-2.86506E+04 3.58520E+04 5.51245E-09-2.74076E-09
 -1       835-4.85305E+05-1.14531E+03-4.98518E+04 2.06306E+04 5.14592E-09-1.09139E-09
 -1       836 2.17481E+03 8.74335E+05 7.08977E+04-1.46354E+05-4.00541E-09-1.57888E-09
 -1       837 1.34460E+04 8.93739E+05 5.02775E+04-2.46415E+05 5.08817E-09-9.42237E-10
 -1       838 5.11999E+02 8.81410E+05 4.10105E+04-1.46031E+05-3.59432E-09 3.10411E-09
 -1       839 1.87743E+04 8.98273E+05 6.51935E+04-2.46399E+05 5.42059E-09-4.71118E-10
 -1       840 3.01351E+03 8.69879E+05 1.02491E+05-1.46361E+05-3.87809E-09 2.65572E-10
 -1       841 1.74957E+04 1.73726E+04-1.44977E+04 2.61146E+04-4.00360E-09-4.98767E-09
 -1       842 3.02951E+03 2.43396E+04-8.18314E+03 3.71256E+04-1.02464E-08-2.25384E-09
 -1       843 1.58098E+04 1.68748E+04-3.34251E+03 2.53062E+04 1.49930E-08-3.30601E-10
 -1       844 5.02597E+03 2.71165E+04-1.67807E+03 3.70774E+04 7.76708E-09-3.98791E-09
 -1       845 1.56362E+04 1.68436E+04-7.49443E+02 2.52350E+04-2.80215E-09-1.48020E-10
 -1       846 5.13433E+03 2.72944E+04-3.39074E+02 3.70527E+04-2.15482E-08 2.58797E-09
 -1       847 1.55926E+04 1.68523E+04-1.05604E+02 2.52142E+04-9.64292E-09-5.12370E-09
 -1       848 5.12588E+03 2.73183E+04 6.34906E+01 3.70357E+04 5.34942E-09 9.00265E-09
 -1       849 1.55703E+04 1.68554E+04 2.62164E+02 2.52034E+04 1.38311E-09 9.25968E-09
 -1       850 5.15163E+03 2.73400E+04 6.33088E+02 3.70363E+04 3.41583E-09-4.45209E-09
 -1       851 1.55383E+04 1.68371E+04 1.31743E+03 2.51980E+04-6.19104E-09-2.62730E-09
 -1       852 5.46789E+03 2.76007E+04 2.94627E+03 3.70539E+04 4.90672E-09 9.56788E-10
 -1       853 1.52957E+04 1.67336E+04 5.82535E+03 2.51427E+04 1.64619E-09 6.01722E-09
 -1       854 9.49026E+03 3.20566E+04 1.43276E+04 3.66874E+04-4.54020E-09-2.38651E-09
 -1       855 1.21226E+04 1.61153E+04 2.53314E+04 2.41841E+04-9.07721E-09-1.66619E-09
 -1       856-2.30904E+05-5.66613E+02-2.51169E+04 1.49900E+04-1.23864E-08 9.10404E-10
 -1       857-2.38084E+05-4.11109E+03-1.44300E+04 2.56839E+04-9.68976E-09-3.85262E-09
 -1       858-2.34087E+05 1.34246E+02-6.30585E+03 1.48491E+04-1.19462E-08-1.96769E-09
 -1       859-2.34726E+05-3.98007E+01-3.29202E+03 2.58252E+04-9.99489E-09-6.24823E-10
 -1       860-2.34342E+05 1.24365E+02-1.58272E+03 1.48348E+04-4.74074E-09-7.60338E-10
 -1       861-2.34484E+05 1.77985E+02-8.25956E+02 2.58423E+04-1.81572E-08-3.63298E-09
 -1       862-2.34379E+05 1.15966E+02-4.40967E+02 1.48311E+04 1.27204E-08-3.17152E-09
 -1       863-2.34461E+05 1.90628E+02-3.01885E+02 2.58463E+04 4.00622E-08-2.68153E-09
 -1       864-2.34383E+05 1.14292E+02-3.02389E+02 1.48307E+04 1.48369E-08-4.80895E-10
 -1       865-2.34466E+05 1.82746E+02-4.70999E+02 2.58428E+04 8.46603E-09-2.27919E-09
 -1       866-2.34361E+05 1.15408E+02-8.52797E+02 1.48346E+04-2.27692E-09 1.69052E-10
 -1       867-2.34584E+05 6.30147E+01-1.74581E+03 2.58275E+04-8.60564E-09-3.04388E-09
 -1       868-2.34220E+05 1.14709E+02-3.33323E+03 1.48466E+04 1.37111E-08-1.46019E-09
 -1       869-2.36338E+05-2.09332E+03-7.61663E+03 2.56916E+04-7.45831E-09-5.97709E-10
 -1       870-2.32530E+05-2.63828E+02-1.32589E+04 1.49781E+04 1.36879E-08-8.68567E-10
 -1       871-3.60008E+03-6.15264E+04-8.35518E+03 1.53961E+05-1.85992E-09-1.89175E-10
 -1       872-2.07887E+03-6.32358E+04-2.68319E+03 1.98014E+05 5.70890E-09 1.70530E-10
 -1       873-7.05769E+02-6.27385E+04 2.19276E+03 1.53654E+05-3.39060E-09 4.05930E-09
 -1       874 1.29717E+03-6.03529E+04 8.69141E+03 1.98043E+05 7.12316E-09-1.88311E-09
 -1       875 4.61113E+03-6.44758E+04 1.80820E+04 1.53968E+05-5.10954E-09 1.59071E-09
 -1       876 3.43644E+05 5.64344E+04 3.42476E+04 1.40364E+05 6.52324E-09-4.91127E-10
 -1       877 3.48675E+05 6.93289E+04 1.93673E+04 1.47502E+05-2.09061E-08 7.98991E-10
 -1       878 3.47893E+05 5.73124E+04 7.88476E+03 1.41746E+05 1.55314E-08 1.99498E-09
 -1       879 3.43342E+05 6.32300E+04 3.99948E+03 1.47936E+05 2.12374E-08 1.96042E-09
 -1       880 3.48218E+05 5.74530E+04 1.81778E+03 1.41836E+05 1.72590E-08-2.14152E-09
 -1       881 3.42936E+05 6.28653E+04 9.36358E+02 1.47901E+05-8.63611E-09-6.68976E-09
 -1       882 3.48249E+05 5.74841E+04 5.22398E+02 1.41845E+05 6.11533E-09 2.61979E-09
 -1       883 3.42900E+05 6.28421E+04 4.47266E+02 1.47885E+05-2.83334E-08 4.33994E-09
 -1       884 3.48245E+05 5.74842E+04 6.03573E+02 1.41845E+05-1.94146E-08 6.37192E-09
 -1       885 3.42951E+05 6.28685E+04 1.15189E+03 1.47898E+05 2.84540E-08-1.95962E-09
 -1       886 3.48200E+05 5.74498E+04 2.27520E+03 1.41836E+05 2.54431E-10-4.95993E-09
 -1       887 3.43463E+05 6.33252E+04 5.02553E+03 1.47934E+05-1.98727E-08-1.57515E-08
 -1       888 3.47784E+05 5.72765E+04 9.91640E+03 1.41722E+05-1.99516E-08-4.21187E-09
 -1       889 3.50150E+05 7.10186E+04 2.43620E+04 1.47403E+05 1.45578E-08-3.18141E-09
 -1       890 3.42454E+05 5.61546E+04 4.30816E+04 1.39956E+05 6.66068E-09-2.55022E-09
 -1       891-5.42155E+02-1.71000E+05-7.77539E+03 6.06297E+04 2.89492E-09-2.49474E-09
 -1       892-1.87124E+03-1.72993E+05-5.38621E+03 1.02443E+05 1.84618E-08 2.55091E-09
 -1       893-2.90520E+02-1.71876E+05-4.22503E+03 6.04769E+04 9.28139E-09 1.07207E-10
 -1       894-2.28355E+03-1.73312E+05-6.51081E+03 1.02421E+05 2.64563E-08 2.28465E-09
 -1       895-6.24541E+02-1.70640E+05-1.01600E+04 6.06502E+04 1.43536E-08 5.16411E-09
 -1       896 7.61804E+05 1.62699E+02 1.06469E+04-2.13286E+04-9.27685E-11-9.13644E-10
 -1       897 7.64829E+05 1.72610E+03 6.13650E+03-3.61104E+04-3.04681E-11 5.11591E-10
 -1       898 7.63093E+05-8.09842E+01 2.67828E+03-2.11890E+04-6.18456E-11-5.29326E-10
 -1       899 7.63292E+05 4.79092E+01 1.42445E+03-3.62142E+04-1.03228E-10 1.55524E-10
 -1       900 7.63149E+05-3.60566E+01 7.17664E+02-2.12227E+04-3.09228E-11-1.87356E-10
 -1       901 7.63120E+05-7.16049E+00 4.55543E+02-3.61553E+04 1.25056E-11 8.23093E-11
 -1       902 7.63131E+05-9.31705E+00 3.90700E+02-2.12481E+04-5.36602E-11 1.13687E-12
 -1       903 7.63086E+05 6.95350E+00 5.46574E+02-3.61179E+04 9.82254E-11-2.32490E-10
 -1       904 7.63107E+05-8.30337E+00 9.49747E+02-2.12601E+04 3.12639E-11 2.73758E-10
 -1       905 7.63157E+05 2.94503E+01 1.88388E+03-3.61090E+04 1.26221E-10-8.34461E-11
 -1       906 7.63042E+05-4.87044E+01 3.65762E+03-2.12570E+04 5.57066E-11 1.99748E-10
 -1       907 7.63794E+05 4.95535E+02 7.64135E+03-3.61236E+04 3.93356E-11 1.63254E-10
 -1       908 7.62509E+05-1.19547E+02 1.46344E+04-2.12452E+04-5.18412E-11 9.36780E-11
 -1       909 7.71728E+05 9.87585E+03 3.35106E+04-3.60360E+04 2.34650E-10-2.36014E-10
 -1       910 7.55195E+05 1.45124E+03 5.83121E+04-2.13496E+04-3.19233E-10-2.43745E-10
 -1       911 1.69762E+05-9.05695E+00 1.39384E+03-1.82676E+04 6.27551E-11-3.34694E-10
 -1       912 1.70163E+05 2.15403E+02 8.12281E+02-3.07154E+04-2.83762E-10 6.02540E-11
 -1       913 1.69906E+05-1.95779E+01 3.58765E+02-1.81349E+04-1.07320E-10 1.15961E-10
 -1       914 1.69921E+05 1.26997E+01 2.08624E+02-3.08479E+04 4.36557E-11 1.30171E-10
 -1       915 1.69895E+05-1.41835E-03 1.35230E+02-1.81350E+04 3.37877E-10 4.38718E-10
 -1       916 1.69878E+05 1.67804E+01 1.45600E+02-3.08449E+04 2.30671E-10-2.10207E-10
 -1       917 1.69882E+05 8.13455E+00 2.19499E+02-1.81379E+04 5.08180E-10 4.69299E-10
 -1       918 1.69880E+05 2.13103E+01 4.14885E+02-3.08419E+04 2.93547E-10-4.55429E-10
 -1       919 1.69870E+05-6.19160E-01 7.98960E+02-1.81380E+04 2.17028E-10 6.76437E-11
 -1       920 1.69960E+05 3.26632E+01 1.63044E+03-3.08444E+04 5.77757E-10-4.46789E-10
 -1       921 1.69821E+05-4.27181E+01 3.18780E+03-1.81353E+04 1.70985E-10 5.89893E-10
 -1       922 1.70531E+05 4.34382E+02 6.67592E+03-3.08468E+04 4.67935E-10 2.17767E-10
 -1       923 1.69361E+05-1.09713E+02 1.27909E+04-1.81353E+04 1.60071E-10 1.55978E-10
 -1       924 1.77482E+05 8.63854E+03 2.93054E+04-3.07144E+04-1.83718E-10 3.01725E-10
 -1       925 1.62975E+05 1.25452E+03 5.09952E+04-1.82718E+04-1.81899E-11-1.12777E-10
 -1       926-9.21876E+05-1.42006E+03-5.45376E+04-2.58992E+04 5.41149E-10-1.81899E-11
 -1       927-9.37293E+05-9.28736E+03-3.13354E+04-4.36230E+04-2.18279E-11 5.91172E-10
 -1       928-9.28782E+05 9.08127E+01-1.36850E+04-2.56949E+04 3.18323E-11-3.90628E-10
 -1       929-9.29984E+05-4.47114E+02-7.14365E+03-4.38694E+04-9.01082E-10-9.10291E-10
 -1       930-9.29325E+05 6.23561E+01-3.42939E+03-2.56575E+04 1.93722E-10 2.12992E-10
 -1       931-9.29438E+05 1.62805E+01-1.78618E+03-4.39130E+04-2.64606E-10-4.63160E-10
 -1       932-9.29394E+05 3.33726E+01-9.45640E+02-2.56508E+04-6.88942E-11 1.90084E-10
 -1       933-9.29360E+05 2.93277E+01-6.33699E+02-4.39041E+04-1.18689E-10-1.13914E-10
 -1       934-9.29383E+05 1.46457E+01-6.16953E+02-2.56664E+04 1.71894E-10 4.21778E-10
 -1       935-9.29332E+05-5.67221E+00-9.37859E+02-4.38484E+04-7.56245E-10-6.23686E-10
 -1       936-9.29316E+05-3.07191E+00-1.69058E+03-2.57065E+04 1.69166E-10-1.29603E-11
 -1       937-9.29515E+05-2.66511E+02-3.44301E+03-4.37383E+04 3.01497E-10-7.49878E-10
 -1       938-9.29008E+05-2.88217E+01-6.57912E+03-2.57767E+04 8.36735E-11-1.09048E-09
 -1       939-9.32916E+05-4.54276E+03-1.50116E+04-4.33585E+04 1.16961E-09 8.00355E-11
 -1       940-9.25648E+05-8.00482E+02-2.61466E+04-2.60799E+04-6.76664E-10 2.80124E-10
 -1       941 1.16714E+06 4.45156E+03 1.77477E+05-3.06721E+04 7.83984E-10-2.83762E-10
 -1       942 1.21753E+06 2.99943E+04 1.01959E+05-5.21499E+04-2.92857E-10-1.26602E-09
 -1       943 1.18940E+06-3.86011E+02 4.45564E+04-3.05058E+04-4.55657E-10-4.78394E-10
 -1       944 1.19344E+06 1.45160E+03 2.32982E+04-5.22404E+04-5.54337E-10-5.91172E-10
 -1       945 1.19104E+06-1.83752E+02 1.12239E+04-3.05422E+04 5.11136E-10 3.29237E-10
 -1       946 1.19152E+06 2.80637E+01 5.92232E+03-5.21943E+04 8.96307E-10 1.92858E-09
 -1       947 1.19123E+06-6.49714E+01 3.26430E+03-3.05528E+04 3.04908E-10 9.44510E-10
 -1       948 1.19132E+06-3.45833E+01 2.42648E+03-5.22069E+04 6.35509E-10 8.71296E-10
 -1       949 1.19126E+06-7.38922E+01 2.69412E+03-3.05298E+04-6.64386E-10-2.21485E-09
 -1       950 1.19152E+06-2.71675E+01 4.46907E+03-5.22871E+04 1.61162E-09 1.89425E-09
 -1       951 1.19118E+06-1.94793E+02 8.22940E+03-3.04722E+04-1.50885E-09-2.05432E-09
 -1       952 1.19300E+06 9.60426E+02 1.69760E+04-5.24194E+04-1.12777E-09 3.42311E-10
 -1       953 1.19004E+06-3.87677E+02 3.23911E+04-3.03962E+04-1.23327E-09-6.00267E-10
 -1       954 1.21063E+06 2.16605E+04 7.41308E+04-5.23332E+04-6.14455E-09 8.18545E-12
 -1       955 1.17391E+06 3.06793E+03 1.28976E+05-3.06076E+04 4.65661E-10-5.67525E-10
 -1       956-4.78835E+05-9.71209E+03-3.31844E+04 4.69452E+04-1.32131E-08 2.43620E-09
 -1       957-4.86148E+05-3.96257E+03-1.74661E+04 6.00297E+04-3.85353E-09-2.89401E-09
 -1       958-4.82209E+05-6.15454E+01-7.87305E+03 4.65418E+04 1.11595E-08-4.20187E-10
 -1       959-4.82841E+05 1.57405E+02-4.02971E+03 6.04499E+04-5.07771E-09-2.56932E-09
 -1       960-4.82549E+05 2.63531E+02-1.96921E+03 4.65012E+04-1.69803E-08 1.29239E-09
 -1       961-4.82705E+05 3.48327E+02-1.03040E+03 6.04990E+04-3.08319E-08-1.81899E-11
 -1       962-4.82659E+05 2.87507E+02-5.71241E+02 4.64899E+04-7.39965E-09 2.18188E-09
 -1       963-4.82754E+05 3.87499E+02-4.18678E+02 6.05157E+04-1.73982E-08-1.20463E-09
 -1       964-4.82706E+05 3.15414E+02-4.63544E+02 4.64834E+04-6.35691E-09 1.39789E-09
 -1       965-4.82810E+05 4.10960E+02-7.62139E+02 6.05221E+04 1.40298E-08-3.52247E-09
 -1       966-4.82698E+05 3.43905E+02-1.41098E+03 4.64830E+04-1.15717E-08 2.03636E-09
 -1       967-4.82989E+05 3.20220E+02-2.87803E+03 6.05070E+04 1.61890E-10-2.14141E-09
 -1       968-4.82514E+05 1.51566E+02-5.60844E+03 4.64995E+04 5.02951E-09 1.92199E-09
 -1       969-4.85421E+05-2.58518E+03-1.24608E+04 6.03058E+04 5.44833E-09-2.30847E-09
 -1       970-4.80148E+05-6.71107E+03-2.36653E+04 4.67125E+04 1.32331E-09 5.78439E-10
 -1       971-4.46782E+05-4.30978E+02-1.93930E+04 1.33792E+04-1.81344E-08-2.99224E-09
 -1       972-4.52306E+05-3.15487E+03-1.11423E+04 2.34094E+04-1.12486E-08 1.72804E-09
 -1       973-4.49242E+05 1.12840E+02-4.87479E+03 1.32313E+04-1.20654E-08-3.76713E-09
 -1       974-4.49722E+05-7.58185E+00-2.55378E+03 2.35681E+04-2.17983E-09 1.12175E-09
 -1       975-4.49442E+05 1.08521E+02-1.24726E+03 1.32100E+04 2.17688E-09-4.30123E-09
 -1       976-4.49543E+05 1.63977E+02-6.88690E+02 2.35967E+04-8.07802E-09 2.54136E-09
 -1       977-4.49472E+05 1.05559E+02-4.41481E+02 1.32018E+04 1.13114E-08-4.70197E-09
 -1       978-4.49537E+05 1.76323E+02-4.39276E+02 2.36066E+04 4.25538E-08 2.60570E-10
 -1       979-4.49471E+05 1.10596E+02-6.39641E+02 1.31999E+04 2.34224E-08-5.44492E-09
 -1       980-4.49580E+05 1.63206E+02-1.19741E+03 2.36036E+04 1.70867E-08 9.77082E-10
 -1       981-4.49424E+05 1.29270E+02-2.29239E+03 1.32048E+04 9.72022E-10-4.05552E-09
 -1       982-4.49949E+05-1.43043E+02-4.77075E+03 2.35838E+04 4.34557E-09 1.83518E-09
 -1       983-4.49068E+05 1.54011E+02-9.13536E+03 1.32209E+04 2.79897E-09-5.02132E-09
 -1       984-4.54845E+05-6.03218E+03-2.09147E+04 2.34539E+04-1.54087E-08 1.19394E-09
 -1       985-4.44471E+05-8.46020E+02-3.63968E+04 1.33556E+04-3.47427E-09-4.11637E-09
 -3
 9999
