
 stresses (elem, integ.pnt.,sxx,syy,szz,sxy,sxz,syz) for set ELALL and time  0.1000000E+01

         1   1 -2.109860E+06 -7.063157E+04 -8.455633E+04 -3.401791E+04 -5.806654E+04  3.192058E+00
         1   2 -2.100172E+06 -3.855388E+02 -3.859641E+04 -1.198578E+04 -3.765035E+04  7.292384E-01
         1   3 -2.109785E+06  3.379002E+03 -2.258135E+04  1.004715E+04 -1.723393E+04 -2.798134E-01
         1   4 -2.109861E+06 -7.063375E+04 -8.455664E+04  3.378071E-09 -5.806654E+04  1.587018E-10
         1   5 -2.100172E+06 -3.858096E+02 -3.859645E+04  7.319580E-10 -3.765035E+04  3.006983E-10
         1   6 -2.109785E+06  3.378812E+03 -2.258138E+04  4.535811E-09 -1.723393E+04 -3.419870E-10
         1   7 -2.109860E+06 -7.063157E+04 -8.455633E+04  3.401791E+04 -5.806654E+04 -3.192058E+00
         1   8 -2.100172E+06 -3.855388E+02 -3.859641E+04  1.198578E+04 -3.765035E+04 -7.292384E-01
         1   9 -2.109785E+06  3.379002E+03 -2.258135E+04 -1.004715E+04 -1.723393E+04  2.798134E-01
         1  10 -2.109864E+06 -7.063248E+04 -8.456269E+04 -3.401791E+04 -1.165022E-09 -8.098980E-11
         1  11 -2.100174E+06 -3.859209E+02 -3.859909E+04 -1.198578E+04 -6.866391E-10  8.084024E-12
         1  12 -2.109786E+06  3.378922E+03 -2.258191E+04  1.004715E+04 -1.165340E-09  5.922600E-10
         1  13 -2.109865E+06 -7.063466E+04 -8.456300E+04 -9.155565E-10  1.176809E-09  2.112564E-11
         1  14 -2.100174E+06 -3.861918E+02 -3.859913E+04 -2.443771E-09 -1.182079E-11  1.793209E-10
         1  15 -2.109786E+06  3.378731E+03 -2.258194E+04  3.552132E-09 -8.367379E-10  4.101501E-10
         1  16 -2.109864E+06 -7.063248E+04 -8.456269E+04  3.401791E+04  4.761017E-10  1.227876E-10
         1  17 -2.100174E+06 -3.859209E+02 -3.859909E+04  1.198578E+04 -2.531102E-09  3.141474E-10
         1  18 -2.109786E+06  3.378922E+03 -2.258191E+04 -1.004715E+04  1.219024E-09  1.621662E-10
         1  19 -2.109860E+06 -7.063157E+04 -8.455633E+04 -3.401791E+04  5.806654E+04 -3.192058E+00
         1  20 -2.100172E+06 -3.855388E+02 -3.859641E+04 -1.198578E+04  3.765035E+04 -7.292384E-01
         1  21 -2.109785E+06  3.379002E+03 -2.258135E+04  1.004715E+04  1.723393E+04  2.798134E-01
         1  22 -2.109861E+06 -7.063375E+04 -8.455664E+04  5.551138E-09  5.806654E+04 -1.328572E-10
         1  23 -2.100172E+06 -3.858096E+02 -3.859645E+04  8.222635E-10  3.765035E+04 -3.176545E-11
         1  24 -2.109785E+06  3.378812E+03 -2.258138E+04  8.993399E-09  1.723393E+04  1.130919E-09
         1  25 -2.109860E+06 -7.063157E+04 -8.455633E+04  3.401791E+04  5.806654E+04  3.192058E+00
         1  26 -2.100172E+06 -3.855388E+02 -3.859641E+04  1.198578E+04  3.765035E+04  7.292384E-01
         1  27 -2.109785E+06  3.379002E+03 -2.258135E+04 -1.004715E+04  1.723393E+04 -2.798134E-01
         2   1 -2.105857E+06 -3.737580E+03 -1.792459E+04 -1.294592E+03 -1.405142E+04  2.939624E-02
         2   2 -2.105069E+06  9.689819E+01 -9.724606E+03 -2.911181E+02 -9.175895E+03  4.316741E-03
         2   3 -2.105848E+06  2.165794E+02 -5.635475E+03  7.123531E+02 -4.300338E+03 -4.950361E-03
         2   4 -2.105857E+06 -3.737583E+03 -1.792459E+04 -1.554483E-09 -1.405142E+04 -5.185104E-11
         2   5 -2.105069E+06  9.689803E+01 -9.724606E+03  1.920313E-09 -9.175895E+03  8.733336E-10
         2   6 -2.105848E+06  2.165785E+02 -5.635475E+03 -1.862014E-09 -4.300338E+03 -2.954626E-10
         2   7 -2.105857E+06 -3.737580E+03 -1.792459E+04  1.294592E+03 -1.405142E+04 -2.939624E-02
         2   8 -2.105069E+06  9.689819E+01 -9.724606E+03  2.911181E+02 -9.175895E+03 -4.316740E-03
         2   9 -2.105848E+06  2.165794E+02 -5.635475E+03 -7.123531E+02 -4.300338E+03  4.950361E-03
         2  10 -2.105857E+06 -3.737633E+03 -1.792496E+04 -1.294592E+03 -8.336634E-10  5.294872E-10
         2  11 -2.105069E+06  9.687549E+01 -9.724764E+03 -2.911181E+02 -1.561300E-10 -2.308561E-10
         2  12 -2.105848E+06  2.165744E+02 -5.635510E+03  7.123531E+02 -8.005497E-11 -6.482835E-10
         2  13 -2.105857E+06 -3.737636E+03 -1.792496E+04 -1.020920E-08 -2.104564E-09  4.259232E-10
         2  14 -2.105069E+06  9.687533E+01 -9.724764E+03  3.998951E-09 -2.571310E-09  9.307107E-11
         2  15 -2.105848E+06  2.165735E+02 -5.635510E+03 -3.314188E-09 -5.825850E-10 -2.560048E-10
         2  16 -2.105857E+06 -3.737633E+03 -1.792496E+04  1.294592E+03  2.368436E-10  4.194387E-10
         2  17 -2.105069E+06  9.687549E+01 -9.724764E+03  2.911181E+02 -1.297541E-09  3.418267E-10
         2  18 -2.105848E+06  2.165744E+02 -5.635510E+03 -7.123531E+02 -3.625376E-10  1.258836E-10
         2  19 -2.105857E+06 -3.737580E+03 -1.792459E+04 -1.294592E+03  1.405142E+04 -2.939624E-02
         2  20 -2.105069E+06  9.689819E+01 -9.724606E+03 -2.911181E+02  9.175895E+03 -4.316741E-03
         2  21 -2.105848E+06  2.165794E+02 -5.635475E+03  7.123531E+02  4.300338E+03  4.950360E-03
         2  22 -2.105857E+06 -3.737583E+03 -1.792459E+04 -3.815798E-09  1.405142E+04  8.241993E-10
         2  23 -2.105069E+06  9.689803E+01 -9.724606E+03 -3.809084E-10  9.175895E+03 -7.098986E-10
         2  24 -2.105848E+06  2.165785E+02 -5.635475E+03  8.192586E-09  4.300338E+03 -1.822158E-10
         2  25 -2.105857E+06 -3.737580E+03 -1.792459E+04  1.294592E+03  1.405142E+04  2.939624E-02
         2  26 -2.105069E+06  9.689819E+01 -9.724606E+03  2.911181E+02  9.175895E+03  4.316740E-03
         2  27 -2.105848E+06  2.165794E+02 -5.635475E+03 -7.123531E+02  4.300338E+03 -4.950361E-03
         3   1 -2.105548E+06 -1.614380E+02 -4.339065E+03  7.350115E+01 -3.423041E+03 -4.065799E-04
         3   2 -2.105439E+06  3.635213E+01 -2.524821E+03  7.172024E+01 -2.172674E+03 -2.518110E-04
         3   3 -2.105546E+06  2.160240E+01 -1.579801E+03  6.993937E+01 -9.223244E+02 -1.042417E-04
         3   4 -2.105548E+06 -1.614380E+02 -4.339065E+03 -6.539358E-09 -3.423041E+03 -6.505999E-10
         3   5 -2.105439E+06  3.635212E+01 -2.524821E+03 -3.334912E-09 -2.172674E+03  1.381291E-10
         3   6 -2.105546E+06  2.160239E+01 -1.579801E+03  1.036952E-08 -9.223244E+02  2.584390E-10
         3   7 -2.105548E+06 -1.614380E+02 -4.339065E+03 -7.350115E+01 -3.423041E+03  4.065783E-04
         3   8 -2.105439E+06  3.635213E+01 -2.524821E+03 -7.172024E+01 -2.172674E+03  2.518108E-04
         3   9 -2.105546E+06  2.160240E+01 -1.579801E+03 -6.993937E+01 -9.223244E+02  1.042425E-04
         3  10 -2.105548E+06 -1.614411E+02 -4.339087E+03  7.350115E+01 -3.006823E-09 -5.405529E-10
         3  11 -2.105439E+06  3.635086E+01 -2.524829E+03  7.172024E+01  3.510938E-09 -7.866078E-11
         3  12 -2.105546E+06  2.160217E+01 -1.579802E+03  6.993937E+01 -1.167780E-09  2.455482E-10
         3  13 -2.105548E+06 -1.614411E+02 -4.339087E+03 -8.735581E-09 -1.028487E-09 -4.411407E-10
         3  14 -2.105439E+06  3.635085E+01 -2.524829E+03 -5.442936E-09 -1.076058E-09 -4.005923E-10
         3  15 -2.105546E+06  2.160216E+01 -1.579802E+03  5.566563E-10 -1.311361E-09  5.502134E-11
         3  16 -2.105548E+06 -1.614411E+02 -4.339087E+03 -7.350115E+01 -2.941989E-10 -4.503352E-10
         3  17 -2.105439E+06  3.635086E+01 -2.524829E+03 -7.172024E+01  7.338319E-10 -8.375013E-10
         3  18 -2.105546E+06  2.160217E+01 -1.579802E+03 -6.993937E+01 -7.568880E-10 -1.884773E-11
         3  19 -2.105548E+06 -1.614380E+02 -4.339065E+03  7.350115E+01  3.423041E+03  4.065790E-04
         3  20 -2.105439E+06  3.635213E+01 -2.524821E+03  7.172024E+01  2.172674E+03  2.518108E-04
         3  21 -2.105546E+06  2.160240E+01 -1.579801E+03  6.993937E+01  9.223244E+02  1.042425E-04
         3  22 -2.105548E+06 -1.614380E+02 -4.339065E+03  8.433109E-09  3.423041E+03 -2.271721E-10
         3  23 -2.105439E+06  3.635212E+01 -2.524821E+03 -3.238318E-09  2.172674E+03 -1.077990E-09
         3  24 -2.105546E+06  2.160239E+01 -1.579801E+03  2.019326E-09  9.223244E+02 -1.611986E-10
         3  25 -2.105548E+06 -1.614380E+02 -4.339065E+03 -7.350115E+01  3.423041E+03 -4.065794E-04
         3  26 -2.105439E+06  3.635213E+01 -2.524821E+03 -7.172024E+01  2.172674E+03 -2.518127E-04
         3  27 -2.105546E+06  2.160240E+01 -1.579801E+03 -6.993937E+01  9.223244E+02 -1.042429E-04
         4   1 -2.105514E+06  4.112142E+00 -1.307466E+03  3.138356E+01 -6.620035E+02 -3.357379E-05
         4   2 -2.105478E+06  1.610721E+01 -1.044750E+03  5.722244E+00 -1.460888E+02 -1.350815E-06
         4   3 -2.105514E+06  1.160080E+01 -1.122898E+03 -1.993945E+01  3.698335E+02 -1.191448E-05
         4   4 -2.105514E+06  4.112140E+00 -1.307466E+03  8.612138E-09 -6.620035E+02  3.429863E-11
         4   5 -2.105478E+06  1.610721E+01 -1.044750E+03  6.842932E-10 -1.460888E+02  1.519605E-10
         4   6 -2.105514E+06  1.160080E+01 -1.122898E+03 -5.181725E-10  3.698335E+02  1.748314E-09
         4   7 -2.105514E+06  4.112142E+00 -1.307466E+03 -3.138356E+01 -6.620035E+02  3.357350E-05
         4   8 -2.105478E+06  1.610721E+01 -1.044750E+03 -5.722244E+00 -1.460888E+02  1.350870E-06
         4   9 -2.105514E+06  1.160080E+01 -1.122898E+03  1.993945E+01  3.698335E+02  1.191814E-05
         4  10 -2.105514E+06  4.112024E+00 -1.307467E+03  3.138356E+01  2.866913E-09 -1.178937E-10
         4  11 -2.105478E+06  1.610721E+01 -1.044750E+03  5.722244E+00  1.301829E-09 -2.349336E-10
         4  12 -2.105514E+06  1.160077E+01 -1.122898E+03 -1.993945E+01 -1.286954E-09  1.998759E-09
         4  13 -2.105514E+06  4.112022E+00 -1.307467E+03 -4.535777E-09 -1.959471E-10 -9.033233E-11
         4  14 -2.105478E+06  1.610721E+01 -1.044750E+03 -3.445657E-09 -4.428767E-10 -2.225245E-10
         4  15 -2.105514E+06  1.160076E+01 -1.122898E+03  2.469935E-09  1.048599E-09  1.516912E-09
         4  16 -2.105514E+06  4.112024E+00 -1.307467E+03 -3.138356E+01 -2.037199E-09  8.236957E-12
         4  17 -2.105478E+06  1.610721E+01 -1.044750E+03 -5.722244E+00  2.764525E-09 -3.369311E-10
         4  18 -2.105514E+06  1.160077E+01 -1.122898E+03  1.993945E+01  4.300802E-09  1.081607E-09
         4  19 -2.105514E+06  4.112142E+00 -1.307466E+03  3.138356E+01  6.620035E+02  3.357378E-05
         4  20 -2.105478E+06  1.610721E+01 -1.044750E+03  5.722244E+00  1.460888E+02  1.350608E-06
         4  21 -2.105514E+06  1.160080E+01 -1.122898E+03 -1.993945E+01 -3.698335E+02  1.191863E-05
         4  22 -2.105514E+06  4.112140E+00 -1.307466E+03  3.837519E-09  6.620035E+02 -2.303060E-10
         4  23 -2.105478E+06  1.610721E+01 -1.044750E+03 -3.267166E-09  1.460888E+02 -6.274871E-10
         4  24 -2.105514E+06  1.160080E+01 -1.122898E+03  2.805690E-09 -3.698335E+02  1.299093E-09
         4  25 -2.105514E+06  4.112142E+00 -1.307466E+03 -3.138356E+01  6.620035E+02 -3.357407E-05
         4  26 -2.105478E+06  1.610721E+01 -1.044750E+03 -5.722244E+00  1.460888E+02 -1.351939E-06
         4  27 -2.105514E+06  1.160080E+01 -1.122898E+03  1.993945E+01 -3.698335E+02 -1.191613E-05
         5   1 -2.105528E+06  1.131949E+01 -1.288730E+03 -3.050353E+01  5.881956E+02 -2.899225E-05
         5   2 -2.105461E+06  2.976491E+01 -1.940301E+03 -7.468936E+01  1.546567E+03 -1.866678E-04
         5   3 -2.105529E+06  7.608943E+00 -3.227549E+03 -1.188752E+02  2.504937E+03 -4.812042E-04
         5   4 -2.105528E+06  1.131949E+01 -1.288730E+03 -9.761327E-09  5.881956E+02  1.627233E-09
         5   5 -2.105461E+06  2.976490E+01 -1.940301E+03  1.474346E-08  1.546567E+03 -7.816441E-10
         5   6 -2.105529E+06  7.608916E+00 -3.227549E+03  5.566661E-08  2.504937E+03 -2.579546E-09
         5   7 -2.105528E+06  1.131949E+01 -1.288730E+03  3.050353E+01  5.881956E+02  2.899556E-05
         5   8 -2.105461E+06  2.976491E+01 -1.940301E+03  7.468936E+01  1.546567E+03  1.866658E-04
         5   9 -2.105529E+06  7.608943E+00 -3.227549E+03  1.188752E+02  2.504937E+03  4.811993E-04
         5  10 -2.105528E+06  1.131940E+01 -1.288731E+03 -3.050353E+01  2.684433E-09  1.684056E-09
         5  11 -2.105461E+06  2.976426E+01 -1.940305E+03 -7.468936E+01 -5.932620E-09 -9.314237E-10
         5  12 -2.105529E+06  7.607251E+00 -3.227561E+03 -1.188752E+02 -1.562935E-08 -1.693115E-09
         5  13 -2.105528E+06  1.131940E+01 -1.288731E+03  2.302579E-09  2.342406E-09  1.544647E-09
         5  14 -2.105461E+06  2.976425E+01 -1.940305E+03  4.322135E-09  3.323319E-09 -5.270192E-10
         5  15 -2.105529E+06  7.607225E+00 -3.227561E+03 -4.973751E-09  3.978193E-09 -1.383771E-09
         5  16 -2.105528E+06  1.131940E+01 -1.288731E+03  3.050353E+01 -2.723606E-09  1.341510E-09
         5  17 -2.105461E+06  2.976426E+01 -1.940305E+03  7.468936E+01  8.915566E-09 -2.129026E-10
         5  18 -2.105529E+06  7.607252E+00 -3.227561E+03  1.188752E+02  1.578917E-08 -1.282513E-09
         5  19 -2.105528E+06  1.131949E+01 -1.288730E+03 -3.050353E+01 -5.881956E+02  2.899615E-05
         5  20 -2.105461E+06  2.976491E+01 -1.940301E+03 -7.468936E+01 -1.546567E+03  1.866661E-04
         5  21 -2.105529E+06  7.608943E+00 -3.227549E+03 -1.188752E+02 -2.504937E+03  4.812012E-04
         5  22 -2.105528E+06  1.131949E+01 -1.288730E+03  3.372718E-08 -5.881956E+02  1.473231E-09
         5  23 -2.105461E+06  2.976490E+01 -1.940301E+03 -3.970172E-09 -1.546567E+03 -2.254051E-10
         5  24 -2.105529E+06  7.608916E+00 -3.227549E+03 -4.677884E-08 -2.504937E+03 -2.315191E-10
         5  25 -2.105528E+06  1.131949E+01 -1.288730E+03  3.050353E+01 -5.881956E+02 -2.899323E-05
         5  26 -2.105461E+06  2.976491E+01 -1.940301E+03  7.468936E+01 -1.546567E+03 -1.866669E-04
         5  27 -2.105529E+06  7.608943E+00 -3.227549E+03  1.188752E+02 -2.504937E+03 -4.812017E-04
         6   1 -2.105639E+06  5.767647E+01 -4.205119E+03 -2.317487E+02  3.174438E+03 -1.188840E-03
         6   2 -2.105328E+06  1.039914E+02 -7.246529E+03 -2.286743E+02  6.763678E+03 -2.499417E-03
         6   3 -2.105644E+06 -4.831936E+02 -1.278895E+04 -2.256001E+02  1.035285E+04 -3.774309E-03
         6   4 -2.105639E+06  5.767637E+01 -4.205119E+03 -4.627338E-08  3.174438E+03 -1.831187E-09
         6   5 -2.105328E+06  1.039913E+02 -7.246529E+03 -1.172521E-08  6.763678E+03  5.010282E-10
         6   6 -2.105644E+06 -4.831937E+02 -1.278895E+04  2.554262E-08  1.035285E+04  3.422837E-10
         6   7 -2.105639E+06  5.767647E+01 -4.205119E+03  2.317487E+02  3.174438E+03  1.188837E-03
         6   8 -2.105328E+06  1.039914E+02 -7.246529E+03  2.286743E+02  6.763678E+03  2.499418E-03
         6   9 -2.105644E+06 -4.831936E+02 -1.278895E+04  2.256001E+02  1.035285E+04  3.774310E-03
         6  10 -2.105639E+06  5.767376E+01 -4.205138E+03 -2.317487E+02  1.451102E-08 -1.034600E-09
         6  11 -2.105328E+06  1.039790E+02 -7.246616E+03 -2.286743E+02  8.549557E-09 -1.514935E-10
         6  12 -2.105644E+06 -4.832225E+02 -1.278915E+04 -2.256001E+02 -1.803917E-09  7.712145E-10
         6  13 -2.105639E+06  5.767365E+01 -4.205138E+03  4.032898E-09  8.186775E-10 -1.144341E-09
         6  14 -2.105328E+06  1.039789E+02 -7.246616E+03  1.817235E-09 -6.946091E-10 -1.722931E-10
         6  15 -2.105644E+06 -4.832226E+02 -1.278915E+04  6.587588E-09  1.706854E-09  6.255543E-10
         6  16 -2.105639E+06  5.767376E+01 -4.205138E+03  2.317487E+02 -1.400929E-08 -1.171338E-09
         6  17 -2.105328E+06  1.039790E+02 -7.246616E+03  2.286743E+02 -5.242563E-09 -2.855538E-10
         6  18 -2.105644E+06 -4.832225E+02 -1.278915E+04  2.256001E+02  4.214929E-09  4.765166E-10
         6  19 -2.105639E+06  5.767647E+01 -4.205119E+03 -2.317487E+02 -3.174438E+03  1.188838E-03
         6  20 -2.105328E+06  1.039914E+02 -7.246529E+03 -2.286743E+02 -6.763678E+03  2.499417E-03
         6  21 -2.105644E+06 -4.831936E+02 -1.278895E+04 -2.256001E+02 -1.035285E+04  3.774311E-03
         6  22 -2.105639E+06  5.767637E+01 -4.205119E+03  7.585201E-08 -3.174438E+03 -4.645842E-10
         6  23 -2.105328E+06  1.039913E+02 -7.246529E+03  2.395770E-08 -6.763678E+03 -9.320167E-10
         6  24 -2.105644E+06 -4.831937E+02 -1.278895E+04 -8.029592E-09 -1.035285E+04  9.717806E-10
         6  25 -2.105639E+06  5.767647E+01 -4.205119E+03  2.317487E+02 -3.174438E+03 -1.188839E-03
         6  26 -2.105328E+06  1.039914E+02 -7.246529E+03  2.286743E+02 -6.763678E+03 -2.499419E-03
         6  27 -2.105644E+06 -4.831936E+02 -1.278895E+04  2.256001E+02 -1.035285E+04 -3.774309E-03
         7   1 -2.106542E+06  6.450211E+02 -1.670099E+04 -2.132928E+03  1.294595E+04 -4.462201E-02
         7   2 -2.104219E+06  2.882233E+02 -2.896549E+04  8.657560E+02  2.746917E+04  3.843070E-02
         7   3 -2.106568E+06 -1.116136E+04 -5.348111E+04  3.864511E+03  4.199235E+04  2.622421E-01
         7   4 -2.106542E+06  6.450126E+02 -1.670099E+04  1.336694E-08  1.294595E+04  6.598583E-10
         7   5 -2.104219E+06  2.882219E+02 -2.896549E+04  3.095051E-09  2.746917E+04  1.744337E-09
         7   6 -2.106569E+06 -1.116138E+04 -5.348112E+04 -1.777735E-09  4.199235E+04 -8.956508E-11
         7   7 -2.106542E+06  6.450211E+02 -1.670099E+04  2.132928E+03  1.294595E+04  4.462202E-02
         7   8 -2.104219E+06  2.882233E+02 -2.896549E+04 -8.657560E+02  2.746917E+04 -3.843070E-02
         7   9 -2.106568E+06 -1.116136E+04 -5.348111E+04 -3.864511E+03  4.199235E+04 -2.622421E-01
         7  10 -2.106542E+06  6.449760E+02 -1.670131E+04 -2.132928E+03 -1.192031E-10  1.160892E-09
         7  11 -2.104220E+06  2.880199E+02 -2.896691E+04  8.657560E+02 -1.384842E-09  5.466621E-10
         7  12 -2.106570E+06 -1.116183E+04 -5.348444E+04  3.864511E+03 -4.193969E-10 -4.314108E-10
         7  13 -2.106542E+06  6.449674E+02 -1.670131E+04  1.334593E-08  1.299330E-09  9.121424E-10
         7  14 -2.104220E+06  2.880185E+02 -2.896691E+04  9.406558E-09 -9.484334E-11  6.431331E-10
         7  15 -2.106570E+06 -1.116186E+04 -5.348444E+04 -5.831678E-09 -1.504514E-10 -3.720187E-10
         7  16 -2.106542E+06  6.449760E+02 -1.670131E+04  2.132928E+03  1.632476E-09  8.811079E-10
         7  17 -2.104220E+06  2.880199E+02 -2.896691E+04 -8.657560E+02  2.769061E-10  6.938517E-10
         7  18 -2.106570E+06 -1.116183E+04 -5.348444E+04 -3.864511E+03 -8.596593E-11 -3.928271E-10
         7  19 -2.106542E+06  6.450211E+02 -1.670099E+04 -2.132928E+03 -1.294595E+04  4.462202E-02
         7  20 -2.104219E+06  2.882233E+02 -2.896549E+04  8.657560E+02 -2.746917E+04 -3.843070E-02
         7  21 -2.106568E+06 -1.116136E+04 -5.348111E+04  3.864511E+03 -4.199235E+04 -2.622422E-01
         7  22 -2.106542E+06  6.450126E+02 -1.670099E+04  1.765229E-08 -1.294595E+04  1.194925E-09
         7  23 -2.104219E+06  2.882219E+02 -2.896549E+04  2.813632E-09 -2.746917E+04 -4.550689E-10
         7  24 -2.106569E+06 -1.116138E+04 -5.348112E+04  4.107547E-09 -4.199235E+04 -6.210437E-10
         7  25 -2.106542E+06  6.450211E+02 -1.670099E+04  2.132928E+03 -1.294595E+04 -4.462201E-02
         7  26 -2.104219E+06  2.882233E+02 -2.896549E+04 -8.657560E+02 -2.746917E+04  3.843070E-02
         7  27 -2.106568E+06 -1.116136E+04 -5.348111E+04 -3.864511E+03 -4.199235E+04  2.622421E-01
         8   1 -2.118298E+06  1.009123E+04 -6.739480E+04 -3.000349E+04  5.148776E+04 -2.496443E+00
         8   2 -2.089593E+06 -1.150014E+03 -1.152187E+05  3.579115E+04  1.124482E+05  6.503586E+00
         8   3 -2.118511E+06 -2.108955E+05 -2.524446E+05  1.015816E+05  1.734092E+05  2.846566E+01
         8   4 -2.118299E+06  1.008954E+04 -6.739504E+04  6.800393E-09  5.148776E+04 -1.074976E-09
         8   5 -2.089595E+06 -1.152429E+03 -1.152190E+05 -5.037098E-09  1.124482E+05 -6.409083E-10
         8   6 -2.118523E+06 -2.109149E+05 -2.524474E+05 -5.058327E-09  1.734092E+05 -2.107372E-10
         8   7 -2.118298E+06  1.009123E+04 -6.739480E+04  3.000349E+04  5.148776E+04  2.496443E+00
         8   8 -2.089593E+06 -1.150014E+03 -1.152187E+05 -3.579115E+04  1.124482E+05 -6.503586E+00
         8   9 -2.118511E+06 -2.108955E+05 -2.524446E+05 -1.015816E+05  1.734092E+05 -2.846566E+01
         8  10 -2.118301E+06  1.009052E+04 -6.739980E+04 -3.000349E+04 -2.437092E-10 -5.226661E-10
         8  11 -2.089607E+06 -1.153422E+03 -1.152425E+05  3.579115E+04  6.786783E-10  1.751581E-10
         8  12 -2.118544E+06 -2.109036E+05 -2.525013E+05  1.015816E+05 -1.254311E-10  1.228849E-10
         8  13 -2.118302E+06  1.008882E+04 -6.740004E+04 -1.669300E-08 -1.109589E-09 -5.051514E-10
         8  14 -2.089608E+06 -1.155838E+03 -1.152428E+05 -6.048056E-09  6.313653E-10  1.010553E-10
         8  15 -2.118555E+06 -2.109230E+05 -2.525041E+05 -8.307240E-09 -3.015842E-09  1.208148E-10
         8  16 -2.118301E+06  1.009052E+04 -6.739980E+04  3.000349E+04  7.125306E-10 -3.816414E-10
         8  17 -2.089607E+06 -1.153422E+03 -1.152425E+05 -3.579115E+04  6.551322E-10  4.723596E-11
         8  18 -2.118544E+06 -2.109036E+05 -2.525013E+05 -1.015816E+05 -1.106032E-09  1.772588E-10
         8  19 -2.118298E+06  1.009123E+04 -6.739480E+04 -3.000349E+04 -5.148776E+04  2.496443E+00
         8  20 -2.089593E+06 -1.150014E+03 -1.152187E+05  3.579115E+04 -1.124482E+05 -6.503586E+00
         8  21 -2.118511E+06 -2.108955E+05 -2.524446E+05  1.015816E+05 -1.734092E+05 -2.846566E+01
         8  22 -2.118299E+06  1.008954E+04 -6.739504E+04  7.281696E-10 -5.148776E+04  6.691950E-11
         8  23 -2.089595E+06 -1.152429E+03 -1.152190E+05 -1.351374E-08 -1.124482E+05  8.086387E-10
         8  24 -2.118523E+06 -2.109149E+05 -2.524474E+05 -4.867060E-09 -1.734092E+05  4.356488E-10
         8  25 -2.118298E+06  1.009123E+04 -6.739480E+04  3.000349E+04 -5.148776E+04 -2.496443E+00
         8  26 -2.089593E+06 -1.150014E+03 -1.152187E+05 -3.579115E+04 -1.124482E+05  6.503586E+00
         8  27 -2.118511E+06 -2.108955E+05 -2.524446E+05 -1.015816E+05 -1.734092E+05  2.846566E+01
         9   1  1.712917E+06  5.496201E+06  1.678474E+06 -1.065312E+06  7.657973E+04  5.134951E+05
         9   2  1.250367E+06  4.402603E+06  1.137822E+06 -8.673321E+05  2.423218E+05  2.279587E+05
         9   3  9.633590E+05  3.393395E+06  8.264395E+05 -9.325449E+05  2.514310E+05 -5.707984E+04
         9   4  1.961593E+05 -6.467632E+05  2.210371E+05 -9.390317E+05  7.740635E+04  1.539557E+05
         9   5  3.185324E+04 -6.670680E+05  1.048768E+05 -8.076975E+05  2.428584E+05  1.000421E+05
         9   6  3.883951E+03 -6.434517E+05  5.842772E+04 -9.395445E+05  2.511550E+05  4.610163E+04
         9   7 -1.323184E+06 -6.754945E+06 -1.238542E+06 -8.139580E+05  7.809400E+04 -2.020731E+05
         9   8 -1.188246E+06 -5.712357E+06 -9.293594E+05 -7.485251E+05  2.433736E+05 -2.685698E+04
         9   9 -9.565405E+05 -4.664611E+06 -7.102773E+05 -9.464718E+05  2.508755E+05  1.486301E+05
         9  10  1.712840E+06  5.495918E+06  1.677971E+06 -1.065344E+06  1.650961E-09  1.060617E-10
         9  11  1.250290E+06  4.402532E+06  1.137615E+06 -8.673765E+05  6.359572E-10 -4.648997E-11
         9  12  9.632903E+05  3.393375E+06  8.263147E+05 -9.325334E+05  2.958216E-09  1.564801E-11
         9  13  1.961465E+05 -6.467903E+05  2.209812E+05 -9.390413E+05  1.777623E-11  1.681828E-11
         9  14  3.178720E+04 -6.670947E+05  1.047470E+05 -8.077171E+05  2.666465E-09  7.845281E-11
         9  15  3.815641E+03 -6.434709E+05  5.830514E+04 -9.395538E+05  1.397007E-09 -7.862251E-11
         9  16 -1.323202E+06 -6.754990E+06 -1.238631E+06 -8.139453E+05 -5.478240E-10 -4.370788E-11
         9  17 -1.188309E+06 -5.712374E+06 -9.294720E+05 -7.485198E+05 -1.913192E-09  2.578025E-11
         9  18 -9.566141E+05 -4.664652E+06 -7.104376E+05 -9.465019E+05  3.107058E-10  1.008423E-10
         9  19  1.712917E+06  5.496201E+06  1.678474E+06 -1.065312E+06 -7.657973E+04 -5.134951E+05
         9  20  1.250367E+06  4.402603E+06  1.137822E+06 -8.673321E+05 -2.423218E+05 -2.279587E+05
         9  21  9.633590E+05  3.393395E+06  8.264395E+05 -9.325449E+05 -2.514310E+05  5.707984E+04
         9  22  1.961593E+05 -6.467632E+05  2.210371E+05 -9.390317E+05 -7.740635E+04 -1.539557E+05
         9  23  3.185324E+04 -6.670680E+05  1.048768E+05 -8.076975E+05 -2.428584E+05 -1.000421E+05
         9  24  3.883951E+03 -6.434517E+05  5.842772E+04 -9.395445E+05 -2.511550E+05 -4.610163E+04
         9  25 -1.323184E+06 -6.754945E+06 -1.238542E+06 -8.139580E+05 -7.809400E+04  2.020731E+05
         9  26 -1.188246E+06 -5.712357E+06 -9.293594E+05 -7.485251E+05 -2.433736E+05  2.685698E+04
         9  27 -9.565405E+05 -4.664611E+06 -7.102773E+05 -9.464718E+05 -2.508755E+05 -1.486301E+05
        10   1  8.017359E+05  2.668948E+06  6.741206E+05 -9.537230E+05  2.093558E+05 -3.861824E+04
        10   2  5.438022E+05  1.615879E+06  4.442320E+05 -8.129148E+05  1.530448E+05 -6.217033E+04
        10   3  2.954782E+05  5.679543E+05  2.316015E+05 -9.448093E+05  8.867292E+04 -8.583006E+04
        10   4  1.243673E+04 -6.517189E+05  4.439342E+04 -9.416019E+05  2.091065E+05  3.819431E+04
        10   5  6.276011E+03 -6.519800E+05  2.320601E+04 -8.052392E+05  1.526643E+05  2.647886E+04
        10   6  7.751634E+03 -6.501828E+05  1.112948E+04 -9.416353E+05  8.814439E+04  1.461750E+04
        10   7 -7.775041E+05 -3.961759E+06 -5.858037E+05 -9.295282E+05  2.088592E+05  1.146068E+05
        10   8 -5.315411E+05 -2.914845E+06 -3.980079E+05 -7.975836E+05  1.522851E+05  1.148130E+05
        10   9 -2.800528E+05 -1.866854E+06 -2.093632E+05 -9.384649E+05  8.761622E+04  1.148735E+05
        10  10  8.016885E+05  2.668935E+06  6.740356E+05 -9.537165E+05  2.226625E-09 -6.693313E-10
        10  11  5.437761E+05  1.615868E+06  4.441808E+05 -8.129072E+05  1.656531E-09  1.553050E-09
        10  12  2.954678E+05  5.679443E+05  2.315730E+05 -9.448032E+05  3.384771E-10  4.079272E-09
        10  13  1.238938E+04 -6.517322E+05  4.430848E+04 -9.416083E+05 -1.318673E-09  3.157187E-11
        10  14  6.250795E+03 -6.519870E+05  2.316089E+04 -8.052425E+05 -3.506972E-10  5.997535E-11
        10  15  7.743233E+03 -6.501851E+05  1.111447E+04 -9.416363E+05 -3.699042E-09  2.185951E-11
        10  16 -7.775546E+05 -3.961785E+06 -5.859107E+05 -9.295476E+05  5.331832E-10  6.758871E-10
        10  17 -5.315696E+05 -2.914866E+06 -3.980764E+05 -7.975977E+05 -6.541590E-10 -1.801598E-09
        10  18 -2.800646E+05 -1.866870E+06 -2.094025E+05 -9.384730E+05 -1.325132E-10 -4.149233E-09
        10  19  8.017359E+05  2.668948E+06  6.741206E+05 -9.537230E+05 -2.093558E+05  3.861824E+04
        10  20  5.438022E+05  1.615879E+06  4.442320E+05 -8.129148E+05 -1.530448E+05  6.217033E+04
        10  21  2.954782E+05  5.679543E+05  2.316015E+05 -9.448093E+05 -8.867292E+04  8.583006E+04
        10  22  1.243673E+04 -6.517189E+05  4.439342E+04 -9.416019E+05 -2.091065E+05 -3.819431E+04
        10  23  6.276011E+03 -6.519800E+05  2.320601E+04 -8.052392E+05 -1.526643E+05 -2.647886E+04
        10  24  7.751634E+03 -6.501828E+05  1.112948E+04 -9.416353E+05 -8.814439E+04 -1.461750E+04
        10  25 -7.775041E+05 -3.961759E+06 -5.858037E+05 -9.295282E+05 -2.088592E+05 -1.146068E+05
        10  26 -5.315411E+05 -2.914845E+06 -3.980079E+05 -7.975836E+05 -1.522851E+05 -1.148130E+05
        10  27 -2.800528E+05 -1.866854E+06 -2.093632E+05 -9.384649E+05 -8.761622E+04 -1.148735E+05
        11   1  1.272490E+05 -1.435571E+05  9.089598E+04 -9.412384E+05  4.527182E+04 -9.385146E+04
        11   2 -1.279593E+05 -1.185586E+06 -1.314984E+05 -8.063930E+05 -4.670645E+03 -2.484025E+04
        11   3 -4.006796E+05 -2.242296E+06 -4.039685E+05 -9.422900E+05 -8.085667E+03  4.420792E+04
        11   4  8.812938E+03 -6.512600E+05  6.559571E+03 -9.411673E+05  4.468744E+04  1.270295E+04
        11   5  5.266267E+03 -6.494994E+05 -1.917923E+03 -8.058360E+05 -4.874319E+03  1.362662E+04
        11   6 -3.890425E+03 -6.516257E+05 -1.312273E+04 -9.412269E+05 -7.927529E+03  1.470361E+04
        11   7 -1.096304E+05 -1.158684E+06 -7.774193E+04 -9.410959E+05  4.410276E+04  1.191731E+05
        11   8  1.384716E+05 -1.131464E+05  1.276475E+05 -8.052781E+05 -5.077818E+03  5.212664E+04
        11   9  3.927110E+05  9.413563E+05  3.775401E+05 -9.401563E+05 -7.769740E+03 -1.487642E+04
        11  10  1.272445E+05 -1.435671E+05  9.087561E+04 -9.412350E+05 -3.545860E-09  2.472060E-08
        11  11 -1.279595E+05 -1.185587E+06 -1.314996E+05 -8.063931E+05 -1.752639E-09  1.814777E-09
        11  12 -4.006802E+05 -2.242298E+06 -4.039723E+05 -9.422897E+05 -2.045885E-09 -2.047471E-08
        11  13  8.810750E+03 -6.512607E+05  6.555511E+03 -9.411678E+05 -1.952596E-09  1.007815E-10
        11  14  5.266192E+03 -6.494996E+05 -1.918316E+03 -8.058360E+05 -3.943546E-09  1.164820E-10
        11  15 -3.890550E+03 -6.516259E+05 -1.312325E+04 -9.412268E+05 -1.327308E-09  1.886120E-11
        11  16 -1.096364E+05 -1.158700E+06 -7.777236E+04 -9.411002E+05 -1.984583E-09 -2.453477E-08
        11  17  1.384709E+05 -1.131493E+05  1.276424E+05 -8.052779E+05 -1.945915E-09 -1.624172E-09
        11  18  3.927109E+05  9.413560E+05  3.775395E+05 -9.401564E+05 -2.184595E-09  2.062445E-08
        11  19  1.272490E+05 -1.435571E+05  9.089598E+04 -9.412384E+05 -4.527182E+04  9.385146E+04
        11  20 -1.279593E+05 -1.185586E+06 -1.314984E+05 -8.063930E+05  4.670645E+03  2.484025E+04
        11  21 -4.006796E+05 -2.242296E+06 -4.039685E+05 -9.422900E+05  8.085667E+03 -4.420792E+04
        11  22  8.812938E+03 -6.512600E+05  6.559571E+03 -9.411673E+05 -4.468744E+04 -1.270295E+04
        11  23  5.266267E+03 -6.494994E+05 -1.917923E+03 -8.058360E+05  4.874319E+03 -1.362662E+04
        11  24 -3.890425E+03 -6.516257E+05 -1.312273E+04 -9.412269E+05  7.927529E+03 -1.470361E+04
        11  25 -1.096304E+05 -1.158684E+06 -7.774193E+04 -9.410959E+05 -4.410276E+04 -1.191731E+05
        11  26  1.384716E+05 -1.131464E+05  1.276475E+05 -8.052781E+05  5.077818E+03 -5.212664E+04
        11  27  3.927110E+05  9.413563E+05  3.775401E+05 -9.401563E+05  7.769740E+03  1.487642E+04
        12   1 -2.776744E+06 -7.224065E+05 -3.179796E+05 -1.074140E+06 -1.921031E+05 -7.103780E+04
        12   2 -2.739900E+06 -4.320715E+05 -1.409085E+05 -1.076078E+06 -1.212519E+05 -4.301035E+04
        12   3 -2.787399E+06 -3.732711E+05 -7.802811E+04 -1.031265E+06 -4.949416E+04 -1.738820E+04
        12   4 -2.776127E+06 -6.184106E+05 -2.975129E+05 -9.671070E+05 -1.899035E+05 -7.025364E+04
        12   5 -2.717896E+06 -3.883356E+05 -1.290598E+05 -1.033342E+06 -1.211703E+05 -4.298851E+04
        12   6 -2.743584E+06 -3.893894E+05 -7.311394E+04 -1.052832E+06 -5.152732E+04 -1.814720E+04
        12   7 -2.775483E+06 -5.143580E+05 -2.770397E+05 -8.600685E+05 -1.877039E+05 -6.946855E+04
        12   8 -2.695888E+06 -3.445919E+05 -1.172105E+05 -9.906036E+05 -1.210887E+05 -4.296665E+04
        12   9 -2.699765E+06 -4.055040E+05 -6.819905E+04 -1.074400E+06 -5.356064E+04 -1.890599E+04
        12  10 -2.776785E+06 -7.224219E+05 -3.180588E+05 -1.074151E+06  2.243699E-10 -1.617155E-10
        12  11 -2.739917E+06 -4.320775E+05 -1.409398E+05 -1.076082E+06 -2.222357E-09 -1.012080E-09
        12  12 -2.787402E+06 -3.732721E+05 -7.803331E+04 -1.031266E+06 -5.942083E-10 -4.624096E-10
        12  13 -2.776167E+06 -6.184256E+05 -2.975903E+05 -9.671178E+05 -1.149893E-09 -2.164711E-10
        12  14 -2.717912E+06 -3.883416E+05 -1.290910E+05 -1.033346E+06 -2.479407E-09 -8.590132E-10
        12  15 -2.743587E+06 -3.893905E+05 -7.311957E+04 -1.052832E+06  1.139804E-09 -7.197971E-10
        12  16 -2.775523E+06 -5.143727E+05 -2.771153E+05 -8.600791E+05  6.325828E-11 -3.913440E-10
        12  17 -2.695904E+06 -3.445979E+05 -1.172417E+05 -9.906078E+05 -2.050840E-09 -6.389352E-10
        12  18 -2.699768E+06 -4.055051E+05 -6.820515E+04 -1.074401E+06 -1.145372E-09 -8.842886E-10
        12  19 -2.776744E+06 -7.224065E+05 -3.179796E+05 -1.074140E+06  1.921031E+05  7.103780E+04
        12  20 -2.739900E+06 -4.320715E+05 -1.409085E+05 -1.076078E+06  1.212519E+05  4.301035E+04
        12  21 -2.787399E+06 -3.732711E+05 -7.802811E+04 -1.031265E+06  4.949416E+04  1.738820E+04
        12  22 -2.776127E+06 -6.184106E+05 -2.975129E+05 -9.671070E+05  1.899035E+05  7.025364E+04
        12  23 -2.717896E+06 -3.883356E+05 -1.290598E+05 -1.033342E+06  1.211703E+05  4.298851E+04
        12  24 -2.743584E+06 -3.893894E+05 -7.311394E+04 -1.052832E+06  5.152732E+04  1.814720E+04
        12  25 -2.775483E+06 -5.143580E+05 -2.770397E+05 -8.600685E+05  1.877039E+05  6.946855E+04
        12  26 -2.695888E+06 -3.445919E+05 -1.172105E+05 -9.906036E+05  1.210887E+05  4.296665E+04
        12  27 -2.699765E+06 -4.055040E+05 -6.819905E+04 -1.074400E+06  5.356064E+04  1.890599E+04
        13   1 -2.727559E+06 -4.134624E+05 -5.709825E+04 -1.042160E+06 -4.048658E+04 -1.538940E+04
        13   2 -2.702074E+06 -3.826649E+05 -2.224138E+04 -1.030539E+06 -2.472017E+04 -1.125023E+04
        13   3 -2.674876E+06 -3.742961E+05 -2.391178E+03 -1.026060E+06 -8.913514E+03 -7.214735E+03
        13   4 -2.734218E+06 -4.113319E+05 -5.789082E+04 -1.039214E+06 -4.179621E+04 -1.588078E+04
        13   5 -2.734125E+06 -3.934501E+05 -2.974717E+04 -1.038138E+06 -2.612091E+04 -1.177547E+04
        13   6 -2.732302E+06 -3.979793E+05 -1.653725E+04 -1.044203E+06 -1.040607E+04 -7.774323E+03
        13   7 -2.740878E+06 -4.092013E+05 -5.868337E+04 -1.036269E+06 -4.310583E+04 -1.637218E+04
        13   8 -2.766176E+06 -4.042353E+05 -3.725297E+04 -1.045736E+06 -2.752156E+04 -1.230069E+04
        13   9 -2.789724E+06 -4.216618E+05 -3.068340E+04 -1.062345E+06 -1.189846E+04 -8.333835E+03
        13  10 -2.727561E+06 -4.134631E+05 -5.710180E+04 -1.042160E+06 -3.508344E-10 -1.255260E-10
        13  11 -2.702074E+06 -3.826652E+05 -2.224278E+04 -1.030539E+06 -5.656704E-10  6.729933E-10
        13  12 -2.674876E+06 -3.742962E+05 -2.391426E+03 -1.026060E+06 -2.036133E-09  4.641578E-10
        13  13 -2.734220E+06 -4.113326E+05 -5.789460E+04 -1.039215E+06  1.092562E-09 -1.253160E-10
        13  14 -2.734126E+06 -3.934505E+05 -2.974872E+04 -1.038138E+06  1.563862E-09  6.649332E-10
        13  15 -2.732302E+06 -3.979794E+05 -1.653757E+04 -1.044203E+06 -1.505943E-10  4.667073E-10
        13  16 -2.740880E+06 -4.092021E+05 -5.868738E+04 -1.036269E+06  6.144217E-10 -1.408756E-10
        13  17 -2.766176E+06 -4.042357E+05 -3.725469E+04 -1.045736E+06  5.416959E-09  6.161660E-10
        13  18 -2.789724E+06 -4.216620E+05 -3.068380E+04 -1.062345E+06  1.018695E-10  5.614081E-10
        13  19 -2.727559E+06 -4.134624E+05 -5.709825E+04 -1.042160E+06  4.048658E+04  1.538940E+04
        13  20 -2.702074E+06 -3.826649E+05 -2.224138E+04 -1.030539E+06  2.472017E+04  1.125023E+04
        13  21 -2.674876E+06 -3.742961E+05 -2.391178E+03 -1.026060E+06  8.913514E+03  7.214735E+03
        13  22 -2.734218E+06 -4.113319E+05 -5.789082E+04 -1.039214E+06  4.179621E+04  1.588078E+04
        13  23 -2.734125E+06 -3.934501E+05 -2.974717E+04 -1.038138E+06  2.612091E+04  1.177547E+04
        13  24 -2.732302E+06 -3.979793E+05 -1.653725E+04 -1.044203E+06  1.040607E+04  7.774323E+03
        13  25 -2.740878E+06 -4.092013E+05 -5.868337E+04 -1.036269E+06  4.310583E+04  1.637218E+04
        13  26 -2.766176E+06 -4.042353E+05 -3.725297E+04 -1.045736E+06  2.752156E+04  1.230069E+04
        13  27 -2.789724E+06 -4.216618E+05 -3.068340E+04 -1.062345E+06  1.189846E+04  8.333835E+03
        14   1 -2.649117E+06 -3.684097E+05  7.365672E+03 -1.020629E+06 -6.255905E+03 -7.344325E+03
        14   2 -2.625533E+06 -3.530246E+05  1.960197E+04 -1.008231E+06 -2.196657E+03 -7.718020E+03
        14   3 -2.594057E+06 -3.471557E+05  2.905491E+04 -1.005679E+06  1.859889E+03 -8.083259E+03
        14   4 -2.731507E+06 -3.991788E+05 -1.259131E+04 -1.043281E+06 -7.709750E+03 -7.889497E+03
        14   5 -2.735401E+06 -3.940720E+05 -6.888578E+03 -1.038487E+06 -3.643663E+03 -8.260761E+03
        14   6 -2.731405E+06 -3.984830E+05 -3.974556E+03 -1.043540E+06  4.195478E+02 -8.623631E+03
        14   7 -2.813892E+06 -4.299479E+05 -3.254904E+04 -1.065932E+06 -9.163401E+03 -8.434595E+03
        14   8 -2.845258E+06 -4.351190E+05 -3.338028E+04 -1.068739E+06 -5.090402E+03 -8.803402E+03
        14   9 -2.868734E+06 -4.498092E+05 -3.700563E+04 -1.081394E+06 -1.020454E+03 -9.163873E+03
        14  10 -2.649117E+06 -3.684097E+05  7.365496E+03 -1.020629E+06 -1.946357E-09  1.127442E-10
        14  11 -2.625533E+06 -3.530246E+05  1.960185E+04 -1.008231E+06 -1.377962E-09 -6.417658E-10
        14  12 -2.594057E+06 -3.471558E+05  2.905478E+04 -1.005679E+06 -1.131104E-09 -1.274610E-09
        14  13 -2.731507E+06 -3.991789E+05 -1.259154E+04 -1.043282E+06 -1.007607E-09 -4.971668E-11
        14  14 -2.735401E+06 -3.940721E+05 -6.888732E+03 -1.038487E+06 -2.870756E-09 -7.041518E-10
        14  15 -2.731405E+06 -3.984830E+05 -3.974696E+03 -1.043540E+06 -4.581624E-09 -4.520343E-10
        14  16 -2.813892E+06 -4.299480E+05 -3.254934E+04 -1.065932E+06  8.888584E-10 -3.025321E-10
        14  17 -2.845258E+06 -4.351191E+05 -3.338047E+04 -1.068740E+06  1.714262E-09 -1.066740E-09
        14  18 -2.868734E+06 -4.498093E+05 -3.700579E+04 -1.081394E+06  1.988461E-09  6.109533E-11
        14  19 -2.649117E+06 -3.684097E+05  7.365672E+03 -1.020629E+06  6.255905E+03  7.344325E+03
        14  20 -2.625533E+06 -3.530246E+05  1.960197E+04 -1.008231E+06  2.196657E+03  7.718020E+03
        14  21 -2.594057E+06 -3.471557E+05  2.905491E+04 -1.005679E+06 -1.859889E+03  8.083259E+03
        14  22 -2.731507E+06 -3.991788E+05 -1.259131E+04 -1.043281E+06  7.709750E+03  7.889497E+03
        14  23 -2.735401E+06 -3.940720E+05 -6.888578E+03 -1.038487E+06  3.643663E+03  8.260761E+03
        14  24 -2.731405E+06 -3.984830E+05 -3.974556E+03 -1.043540E+06 -4.195478E+02  8.623631E+03
        14  25 -2.813892E+06 -4.299479E+05 -3.254904E+04 -1.065932E+06  9.163401E+03  8.434595E+03
        14  26 -2.845258E+06 -4.351190E+05 -3.338028E+04 -1.068739E+06  5.090402E+03  8.803402E+03
        14  27 -2.868734E+06 -4.498092E+05 -3.700563E+04 -1.081394E+06  1.020454E+03  9.163873E+03
        15   1 -2.571131E+06 -3.387395E+05  3.557686E+04 -9.994311E+05  2.789247E+03 -8.824968E+03
        15   2 -2.548489E+06 -3.245828E+05  4.290789E+04 -9.873022E+05  4.447010E+03 -1.005471E+04
        15   3 -2.517595E+06 -3.188922E+05  4.944610E+04 -9.848195E+05  6.097842E+03 -1.126448E+04
        15   4 -2.731360E+06 -3.984822E+05 -3.131470E+03 -1.043410E+06  1.363548E+03 -9.359950E+03
        15   5 -2.735484E+06 -3.942401E+05 -2.141675E+03 -1.038590E+06  3.038331E+03 -1.058350E+04
        15   6 -2.731360E+06 -3.984677E+05 -1.958388E+03 -1.043416E+06  4.706142E+03 -1.178711E+04
        15   7 -2.891562E+06 -4.582224E+05 -4.184127E+04 -1.087377E+06 -6.173578E+01 -9.894776E+03
        15   8 -2.922443E+06 -4.638947E+05 -4.719364E+04 -1.089863E+06  1.630121E+03 -1.111213E+04
        15   9 -2.945079E+06 -4.780402E+05 -5.336642E+04 -1.101994E+06  3.314961E+03 -1.230954E+04
        15  10 -2.571131E+06 -3.387396E+05  3.557670E+04 -9.994311E+05 -1.226870E-09 -1.101484E-09
        15  11 -2.548490E+06 -3.245829E+05  4.290766E+04 -9.873022E+05 -3.676103E-09  2.507135E-10
        15  12 -2.517595E+06 -3.188923E+05  4.944579E+04 -9.848195E+05 -2.133893E-09  1.092827E-09
        15  13 -2.731360E+06 -3.984822E+05 -3.131638E+03 -1.043410E+06 -2.004951E-09 -1.534199E-10
        15  14 -2.735484E+06 -3.942402E+05 -2.141903E+03 -1.038590E+06 -7.124797E-09  3.930806E-10
        15  15 -2.731360E+06 -3.984678E+05 -1.958690E+03 -1.043416E+06 -2.518490E-09  6.587709E-10
        15  16 -2.891562E+06 -4.582225E+05 -4.184145E+04 -1.087377E+06  1.456150E-09  5.863651E-10
        15  17 -2.922443E+06 -4.638948E+05 -4.719388E+04 -1.089863E+06 -3.329488E-10  1.019748E-09
        15  18 -2.945079E+06 -4.780404E+05 -5.336672E+04 -1.101994E+06  5.398870E-10  1.469725E-10
        15  19 -2.571131E+06 -3.387395E+05  3.557686E+04 -9.994311E+05 -2.789247E+03  8.824968E+03
        15  20 -2.548489E+06 -3.245828E+05  4.290789E+04 -9.873022E+05 -4.447010E+03  1.005471E+04
        15  21 -2.517595E+06 -3.188922E+05  4.944610E+04 -9.848195E+05 -6.097842E+03  1.126448E+04
        15  22 -2.731360E+06 -3.984822E+05 -3.131470E+03 -1.043410E+06 -1.363548E+03  9.359950E+03
        15  23 -2.735484E+06 -3.942401E+05 -2.141675E+03 -1.038590E+06 -3.038331E+03  1.058350E+04
        15  24 -2.731360E+06 -3.984677E+05 -1.958388E+03 -1.043416E+06 -4.706142E+03  1.178711E+04
        15  25 -2.891562E+06 -4.582224E+05 -4.184127E+04 -1.087377E+06  6.173578E+01  9.894776E+03
        15  26 -2.922443E+06 -4.638947E+05 -4.719364E+04 -1.089863E+06 -1.630121E+03  1.111213E+04
        15  27 -2.945079E+06 -4.780402E+05 -5.336642E+04 -1.101994E+06 -3.314961E+03  1.230954E+04
        16   1 -2.495702E+06 -3.106099E+05  5.476145E+04 -9.787330E+05  6.762355E+03 -1.206601E+04
        16   2 -2.474029E+06 -2.970860E+05  5.988375E+04 -9.671226E+05  8.843532E+03 -1.306005E+04
        16   3 -2.444526E+06 -2.917035E+05  6.387320E+04 -9.647421E+05  1.091430E+04 -1.402443E+04
        16   4 -2.731456E+06 -3.983877E+05 -2.121225E+03 -1.043328E+06  5.390485E+03 -1.258135E+04
        16   5 -2.735374E+06 -3.943405E+05 -3.058204E+03 -1.038704E+06  7.496798E+03 -1.356623E+04
        16   6 -2.731469E+06 -3.984400E+05 -5.148310E+03 -1.043311E+06  9.592637E+03 -1.452146E+04
        16   7 -2.967153E+06 -4.861611E+05 -5.900766E+04 -1.107900E+06  4.019192E+03 -1.309647E+04
        16   8 -2.996651E+06 -4.915903E+05 -6.600517E+04 -1.110258E+06  6.150684E+03 -1.407217E+04
        16   9 -3.018331E+06 -5.051714E+05 -7.417624E+04 -1.121846E+06  8.271639E+03 -1.501824E+04
        16  10 -2.495702E+06 -3.106101E+05  5.476109E+04 -9.787330E+05  2.731000E-09  1.807235E-09
        16  11 -2.474029E+06 -2.970862E+05  5.988328E+04 -9.671225E+05 -5.517118E-09 -2.903721E-09
        16  12 -2.444526E+06 -2.917038E+05  6.387260E+04 -9.647420E+05 -1.164962E-08 -7.064846E-09
        16  13 -2.731456E+06 -3.983879E+05 -2.121577E+03 -1.043328E+06 -1.715089E-09  4.370057E-10
        16  14 -2.735374E+06 -3.943407E+05 -3.058655E+03 -1.038704E+06  1.232450E-09 -5.397972E-10
        16  15 -2.731469E+06 -3.984403E+05 -5.148879E+03 -1.043311E+06  1.852636E-09 -2.579351E-09
        16  16 -2.967153E+06 -4.861613E+05 -5.900801E+04 -1.107900E+06 -2.861297E-09 -9.160065E-10
        16  17 -2.996651E+06 -4.915905E+05 -6.600561E+04 -1.110258E+06  5.272997E-09  1.709600E-09
        16  18 -3.018331E+06 -5.051716E+05 -7.417680E+04 -1.121846E+06  1.114017E-08  2.079638E-09
        16  19 -2.495702E+06 -3.106099E+05  5.476145E+04 -9.787330E+05 -6.762355E+03  1.206601E+04
        16  20 -2.474029E+06 -2.970860E+05  5.988375E+04 -9.671226E+05 -8.843532E+03  1.306005E+04
        16  21 -2.444526E+06 -2.917035E+05  6.387320E+04 -9.647421E+05 -1.091430E+04  1.402443E+04
        16  22 -2.731456E+06 -3.983877E+05 -2.121225E+03 -1.043328E+06 -5.390485E+03  1.258135E+04
        16  23 -2.735374E+06 -3.943405E+05 -3.058204E+03 -1.038704E+06 -7.496798E+03  1.356623E+04
        16  24 -2.731469E+06 -3.984400E+05 -5.148310E+03 -1.043311E+06 -9.592637E+03  1.452146E+04
        16  25 -2.967153E+06 -4.861611E+05 -5.900766E+04 -1.107900E+06 -4.019192E+03  1.309647E+04
        16  26 -2.996651E+06 -4.915903E+05 -6.600517E+04 -1.110258E+06 -6.150684E+03  1.407217E+04
        16  27 -3.018331E+06 -5.051714E+05 -7.417624E+04 -1.121846E+06 -8.271639E+03  1.501824E+04
        17   1 -2.423833E+06 -2.838824E+05  6.746564E+04 -9.592280E+05  1.220338E+04 -1.453852E+04
        17   2 -2.403178E+06 -2.709375E+05  6.784082E+04 -9.480241E+05  1.872391E+04 -1.375299E+04
        17   3 -2.376262E+06 -2.670680E+05  6.338177E+04 -9.453298E+05  2.522154E+04 -1.290400E+04
        17   4 -2.731764E+06 -3.982381E+05 -6.744787E+03 -1.043307E+06  1.090061E+04 -1.502864E+04
        17   5 -2.734987E+06 -3.943249E+05 -1.205604E+04 -1.038818E+06  1.747323E+04 -1.422387E+04
        17   6 -2.731959E+06 -3.994988E+05 -2.224488E+04 -1.042840E+06  2.402269E+04 -1.335571E+04
        17   7 -3.039600E+06 -5.125872E+05 -8.096217E+04 -1.127347E+06  9.598539E+03 -1.551850E+04
        17   8 -3.066684E+06 -5.177044E+05 -9.196073E+04 -1.129568E+06  1.622329E+04 -1.469447E+04
        17   9 -3.087528E+06 -5.319200E+05 -1.078803E+05 -1.140299E+06  2.282459E+04 -1.380713E+04
        17  10 -2.423833E+06 -2.838827E+05  6.746497E+04 -9.592278E+05  1.407533E-08  2.057141E-09
        17  11 -2.403179E+06 -2.709378E+05  6.783981E+04 -9.480239E+05  7.004502E-09  2.427969E-09
        17  12 -2.376262E+06 -2.670684E+05  6.338026E+04 -9.453295E+05 -1.734347E-09  2.520512E-10
        17  13 -2.731764E+06 -3.982383E+05 -6.745434E+03 -1.043306E+06  2.284065E-09 -2.290778E-09
        17  14 -2.734987E+06 -3.943252E+05 -1.205699E+04 -1.038818E+06 -5.553769E-10  1.327225E-10
        17  15 -2.731960E+06 -3.994992E+05 -2.224630E+04 -1.042840E+06 -1.419716E-09  9.412764E-10
        17  16 -3.039600E+06 -5.125875E+05 -8.096280E+04 -1.127347E+06 -1.235638E-08 -7.009216E-09
        17  17 -3.066685E+06 -5.177047E+05 -9.196163E+04 -1.129568E+06 -8.565293E-09 -2.659521E-09
        17  18 -3.087529E+06 -5.319204E+05 -1.078816E+05 -1.140299E+06 -8.178006E-10  1.378032E-09
        17  19 -2.423833E+06 -2.838824E+05  6.746564E+04 -9.592280E+05 -1.220338E+04  1.453852E+04
        17  20 -2.403178E+06 -2.709375E+05  6.784082E+04 -9.480241E+05 -1.872391E+04  1.375299E+04
        17  21 -2.376262E+06 -2.670680E+05  6.338177E+04 -9.453298E+05 -2.522154E+04  1.290400E+04
        17  22 -2.731764E+06 -3.982381E+05 -6.744787E+03 -1.043307E+06 -1.090061E+04  1.502864E+04
        17  23 -2.734987E+06 -3.943249E+05 -1.205604E+04 -1.038818E+06 -1.747323E+04  1.422387E+04
        17  24 -2.731959E+06 -3.994988E+05 -2.224488E+04 -1.042840E+06 -2.402269E+04  1.335571E+04
        17  25 -3.039600E+06 -5.125872E+05 -8.096217E+04 -1.127347E+06 -9.598539E+03  1.551850E+04
        17  26 -3.066684E+06 -5.177044E+05 -9.196073E+04 -1.129568E+06 -1.622329E+04  1.469447E+04
        17  27 -3.087528E+06 -5.319200E+05 -1.078803E+05 -1.140299E+06 -2.282459E+04  1.380713E+04
        18   1 -2.355579E+06 -2.603974E+05  6.115892E+04 -9.447338E+05  2.980734E+04 -1.216961E+04
        18   2 -2.337056E+06 -2.439458E+05  4.299169E+04 -9.277063E+05  5.646146E+04 -3.524138E+03
        18   3 -2.323902E+06 -2.584813E+05 -1.183508E+03 -9.134100E+05  8.287305E+04  5.769838E+03
        18   4 -2.733546E+06 -3.971898E+05 -2.926467E+04 -1.044265E+06  2.846088E+04 -1.267686E+04
        18   5 -2.732517E+06 -3.934790E+05 -5.273557E+04 -1.038460E+06  5.566387E+04 -3.825681E+03
        18   6 -2.736974E+06 -4.208763E+05 -1.026639E+05 -1.035387E+06  8.262339E+04  5.673228E+03
        18   7 -3.111373E+06 -5.339749E+05 -1.196991E+05 -1.143742E+06  2.711531E+04 -1.318380E+04
        18   8 -3.127823E+06 -5.430003E+05 -1.484747E+05 -1.149149E+06  5.486683E+04 -4.127012E+03
        18   9 -3.149877E+06 -5.832542E+05 -2.041573E+05 -1.157287E+06  8.237390E+04  5.576687E+03
        18  10 -2.355580E+06 -2.603978E+05  6.115697E+04 -9.447335E+05  6.785030E-11  9.873560E-10
        18  11 -2.337060E+06 -2.439467E+05  4.298566E+04 -9.277062E+05  1.824141E-09  9.361680E-10
        18  12 -2.323909E+06 -2.584831E+05 -1.196527E+03 -9.134104E+05  1.513202E-09  3.274958E-10
        18  13 -2.733547E+06 -3.971902E+05 -2.926650E+04 -1.044264E+06 -2.273805E-09  8.757144E-10
        18  14 -2.732520E+06 -3.934798E+05 -5.274144E+04 -1.038460E+06 -1.301040E-09  8.212488E-10
        18  15 -2.736982E+06 -4.208782E+05 -1.026769E+05 -1.035387E+06  3.066262E-09 -7.323359E-10
        18  16 -3.111374E+06 -5.339753E+05 -1.197008E+05 -1.143741E+06 -2.318887E-09  9.453659E-10
        18  17 -3.127826E+06 -5.430011E+05 -1.484804E+05 -1.149149E+06  5.831156E-10  7.739917E-10
        18  18 -3.149884E+06 -5.832561E+05 -2.041702E+05 -1.157288E+06  8.690957E-10 -3.241325E-10
        18  19 -2.355579E+06 -2.603974E+05  6.115892E+04 -9.447338E+05 -2.980734E+04  1.216961E+04
        18  20 -2.337056E+06 -2.439458E+05  4.299169E+04 -9.277063E+05 -5.646146E+04  3.524138E+03
        18  21 -2.323902E+06 -2.584813E+05 -1.183508E+03 -9.134100E+05 -8.287305E+04 -5.769838E+03
        18  22 -2.733546E+06 -3.971898E+05 -2.926467E+04 -1.044265E+06 -2.846088E+04  1.267686E+04
        18  23 -2.732517E+06 -3.934790E+05 -5.273557E+04 -1.038460E+06 -5.566387E+04  3.825681E+03
        18  24 -2.736974E+06 -4.208763E+05 -1.026639E+05 -1.035387E+06 -8.262339E+04 -5.673228E+03
        18  25 -3.111373E+06 -5.339749E+05 -1.196991E+05 -1.143742E+06 -2.711531E+04  1.318380E+04
        18  26 -3.127823E+06 -5.430003E+05 -1.484747E+05 -1.149149E+06 -5.486683E+04  4.127012E+03
        18  27 -3.149877E+06 -5.832542E+05 -2.041573E+05 -1.157287E+06 -8.237390E+04 -5.576687E+03
        19   1 -2.274724E+06 -2.608590E+05 -2.452931E+04 -9.871673E+05  1.040474E+05  1.143908E+04
        19   2 -2.293747E+06 -1.681751E+05 -1.172855E+05 -8.524905E+05  2.143512E+05  5.524246E+04
        19   3 -2.468950E+06 -4.729481E+05 -4.001515E+05 -6.235313E+05  3.195670E+05  1.125722E+05
        19   4 -2.753737E+06 -3.818012E+05 -1.296664E+05 -1.059364E+06  9.981884E+04  9.856727E+03
        19   5 -2.703495E+06 -3.846732E+05 -2.288883E+05 -1.030234E+06  2.218241E+05  5.802924E+04
        19   6 -2.811920E+06 -7.875588E+05 -5.276234E+05 -9.067719E+05  3.387505E+05  1.196823E+05
        19   7 -3.232514E+06 -5.027477E+05 -2.348146E+05 -1.131523E+06  9.559384E+04  8.274734E+03
        19   8 -3.113064E+06 -6.011015E+05 -3.405040E+05 -1.207852E+06  2.292917E+05  6.081203E+04
        19   9 -3.154688E+06 -1.101894E+06 -6.550920E+05 -1.189815E+06  3.579226E+05  1.267737E+05
        19  10 -2.274736E+06 -2.608621E+05 -2.454998E+04 -9.871682E+05 -5.643900E-11 -6.498514E-10
        19  11 -2.293797E+06 -1.681908E+05 -1.173780E+05 -8.525000E+05  5.853966E-09  1.420953E-09
        19  12 -2.469063E+06 -4.729893E+05 -4.003681E+05 -6.235603E+05  2.177477E-09  1.470752E-09
        19  13 -2.753747E+06 -3.818040E+05 -1.296854E+05 -1.059365E+06  4.056941E-09  2.086540E-10
        19  14 -2.703549E+06 -3.846901E+05 -2.289876E+05 -1.030244E+06  2.434061E-09  2.073726E-09
        19  15 -2.812048E+06 -7.876052E+05 -5.278672E+05 -9.068047E+05  2.011666E-09  1.116107E-09
        19  16 -3.232524E+06 -5.027503E+05 -2.348319E+05 -1.131523E+06  5.516553E-09  7.269913E-10
        19  17 -3.113122E+06 -6.011197E+05 -3.406103E+05 -1.207863E+06  2.301423E-09  1.902542E-09
        19  18 -3.154831E+06 -1.101946E+06 -6.553645E+05 -1.189851E+06  1.541969E-10  3.356755E-11
        19  19 -2.274724E+06 -2.608590E+05 -2.452931E+04 -9.871673E+05 -1.040474E+05 -1.143908E+04
        19  20 -2.293747E+06 -1.681751E+05 -1.172855E+05 -8.524905E+05 -2.143512E+05 -5.524246E+04
        19  21 -2.468950E+06 -4.729481E+05 -4.001515E+05 -6.235313E+05 -3.195670E+05 -1.125722E+05
        19  22 -2.753737E+06 -3.818012E+05 -1.296664E+05 -1.059364E+06 -9.981884E+04 -9.856727E+03
        19  23 -2.703495E+06 -3.846732E+05 -2.288883E+05 -1.030234E+06 -2.218241E+05 -5.802924E+04
        19  24 -2.811920E+06 -7.875588E+05 -5.276234E+05 -9.067719E+05 -3.387505E+05 -1.196823E+05
        19  25 -3.232514E+06 -5.027477E+05 -2.348146E+05 -1.131523E+06 -9.559384E+04 -8.274734E+03
        19  26 -3.113064E+06 -6.011015E+05 -3.405040E+05 -1.207852E+06 -2.292917E+05 -6.081203E+04
        19  27 -3.154688E+06 -1.101894E+06 -6.550920E+05 -1.189815E+06 -3.579226E+05 -1.267737E+05
        20   1 -7.089301E+05  3.364449E+04  4.027947E+04  1.622652E+04  2.769383E+04  7.246212E-01
        20   2 -7.135288E+05  1.902531E+02  1.838988E+04  5.717934E+03  1.796317E+04  1.656251E-01
        20   3 -7.089429E+05 -1.608342E+03  1.075489E+04 -4.790389E+03  8.232642E+03 -6.359321E-02
        20   4 -7.089304E+05  3.364399E+04  4.027940E+04  5.959100E-09  2.769383E+04  5.258707E-10
        20   5 -7.135289E+05  1.901916E+02  1.838987E+04  7.066758E-09  1.796317E+04  7.798210E-10
        20   6 -7.089429E+05 -1.608385E+03  1.075488E+04  9.256434E-09  8.232642E+03 -1.385986E-09
        20   7 -7.089301E+05  3.364449E+04  4.027947E+04 -1.622652E+04  2.769383E+04 -7.246212E-01
        20   8 -7.135288E+05  1.902531E+02  1.838988E+04 -5.717934E+03  1.796317E+04 -1.656251E-01
        20   9 -7.089429E+05 -1.608342E+03  1.075489E+04  4.790389E+03  8.232642E+03  6.359321E-02
        20  10 -7.089309E+05  3.364428E+04  4.027803E+04  1.622652E+04  1.037370E-09 -1.573935E-10
        20  11 -7.135292E+05  1.901663E+02  1.838928E+04  5.717934E+03 -4.643941E-10 -6.938571E-10
        20  12 -7.089429E+05 -1.608360E+03  1.075476E+04 -4.790389E+03 -8.482138E-10 -9.330921E-10
        20  13 -7.089312E+05  3.364379E+04  4.027796E+04  1.643966E-09  5.640709E-11  1.643123E-11
        20  14 -7.135292E+05  1.901048E+02  1.838927E+04  1.552073E-09 -1.615021E-09 -2.808828E-10
        20  15 -7.089429E+05 -1.608403E+03  1.075476E+04  6.300959E-09 -3.079856E-09 -1.188049E-09
        20  16 -7.089309E+05  3.364428E+04  4.027803E+04 -1.622652E+04 -1.029329E-10  1.615996E-10
        20  17 -7.135292E+05  1.901663E+02  1.838928E+04 -5.717934E+03  1.144361E-09  3.387114E-11
        20  18 -7.089429E+05 -1.608360E+03  1.075476E+04  4.790389E+03 -1.328335E-09 -1.428668E-09
        20  19 -7.089301E+05  3.364449E+04  4.027947E+04  1.622652E+04 -2.769383E+04 -7.246212E-01
        20  20 -7.135288E+05  1.902531E+02  1.838988E+04  5.717934E+03 -1.796317E+04 -1.656251E-01
        20  21 -7.089429E+05 -1.608342E+03  1.075489E+04 -4.790389E+03 -8.232642E+03  6.359321E-02
        20  22 -7.089304E+05  3.364399E+04  4.027940E+04  8.102995E-09 -2.769383E+04 -4.719528E-10
        20  23 -7.135289E+05  1.901916E+02  1.838987E+04  4.654877E-09 -1.796317E+04 -1.351770E-09
        20  24 -7.089429E+05 -1.608385E+03  1.075488E+04  1.548104E-08 -8.232642E+03 -9.754167E-10
        20  25 -7.089301E+05  3.364449E+04  4.027947E+04 -1.622652E+04 -2.769383E+04  7.246212E-01
        20  26 -7.135288E+05  1.902531E+02  1.838988E+04 -5.717934E+03 -1.796317E+04  1.656251E-01
        20  27 -7.089429E+05 -1.608342E+03  1.075489E+04  4.790389E+03 -8.232642E+03 -6.359321E-02
        21   1 -7.108166E+05  1.779006E+03  8.532586E+03  6.162212E+02  6.715298E+03  6.672736E-03
        21   2 -7.111893E+05 -4.557148E+01  4.616938E+03  1.374835E+02  4.399388E+03  9.753163E-04
        21   3 -7.108181E+05 -1.026124E+02  2.652286E+03 -3.412620E+02  2.083449E+03 -1.146496E-03
        21   4 -7.108166E+05  1.779005E+03  8.532586E+03 -3.248052E-09  6.715298E+03 -1.057482E-09
        21   5 -7.111893E+05 -4.557152E+01  4.616938E+03  5.565407E-09  4.399388E+03  1.408046E-09
        21   6 -7.108181E+05 -1.026126E+02  2.652286E+03  3.349367E-09  2.083449E+03  2.112316E-10
        21   7 -7.108166E+05  1.779006E+03  8.532586E+03 -6.162212E+02  6.715298E+03 -6.672738E-03
        21   8 -7.111893E+05 -4.557148E+01  4.616938E+03 -1.374835E+02  4.399388E+03 -9.753135E-04
        21   9 -7.108181E+05 -1.026124E+02  2.652286E+03  3.412620E+02  2.083449E+03  1.146497E-03
        21  10 -7.108166E+05  1.778993E+03  8.532501E+03  6.162212E+02 -2.484682E-09 -7.724708E-10
        21  11 -7.111893E+05 -4.557669E+01  4.616901E+03  1.374835E+02 -2.251396E-09 -1.953896E-10
        21  12 -7.108181E+05 -1.026136E+02  2.652278E+03 -3.412620E+02  1.073073E-09  1.125686E-10
        21  13 -7.108166E+05  1.778993E+03  8.532501E+03 -5.053451E-09  6.983540E-11 -1.050607E-09
        21  14 -7.111893E+05 -4.557672E+01  4.616901E+03  3.552926E-09  2.425866E-09  8.709412E-11
        21  15 -7.108181E+05 -1.026138E+02  2.652278E+03  3.013979E-09 -1.985847E-09  2.958590E-10
        21  16 -7.108166E+05  1.778993E+03  8.532501E+03 -6.162212E+02  1.946346E-09 -1.337437E-09
        21  17 -7.111893E+05 -4.557669E+01  4.616901E+03 -1.374835E+02  8.251219E-10  3.506900E-10
        21  18 -7.108181E+05 -1.026136E+02  2.652278E+03  3.412620E+02 -2.280768E-10  5.196917E-10
        21  19 -7.108166E+05  1.779006E+03  8.532586E+03  6.162212E+02 -6.715298E+03 -6.672737E-03
        21  20 -7.111893E+05 -4.557148E+01  4.616938E+03  1.374835E+02 -4.399388E+03 -9.753166E-04
        21  21 -7.108181E+05 -1.026124E+02  2.652286E+03 -3.412620E+02 -2.083449E+03  1.146497E-03
        21  22 -7.108166E+05  1.779005E+03  8.532586E+03  3.894122E-09 -6.715298E+03 -1.040960E-09
        21  23 -7.111893E+05 -4.557152E+01  4.616938E+03  3.696935E-09 -4.399388E+03 -1.245926E-09
        21  24 -7.108181E+05 -1.026126E+02  2.652286E+03  3.236895E-09 -2.083449E+03  3.694476E-10
        21  25 -7.108166E+05  1.779006E+03  8.532586E+03 -6.162212E+02 -6.715298E+03  6.672735E-03
        21  26 -7.111893E+05 -4.557148E+01  4.616938E+03 -1.374835E+02 -4.399388E+03  9.753141E-04
        21  27 -7.108181E+05 -1.026124E+02  2.652286E+03  3.412620E+02 -2.083449E+03 -1.146496E-03
        22   1 -7.109616E+05  7.703777E+01  2.022510E+03 -3.697778E+01  1.671998E+03 -9.969712E-05
        22   2 -7.110106E+05 -1.604068E+01  1.122175E+03 -3.841999E+01  1.115859E+03 -6.913105E-05
        22   3 -7.109619E+05 -8.371375E+00  6.094099E+02 -3.986220E+01  5.597198E+02 -3.597736E-05
        22   4 -7.109616E+05  7.703777E+01  2.022510E+03  1.671659E-09  1.671998E+03 -1.066442E-09
        22   5 -7.110106E+05 -1.604068E+01  1.122175E+03  2.002149E-09  1.115859E+03 -1.038494E-09
        22   6 -7.109619E+05 -8.371378E+00  6.094099E+02  5.563687E-09  5.597198E+02  3.353072E-10
        22   7 -7.109616E+05  7.703777E+01  2.022510E+03  3.697778E+01  1.671998E+03  9.969502E-05
        22   8 -7.110106E+05 -1.604068E+01  1.122175E+03  3.841999E+01  1.115859E+03  6.912898E-05
        22   9 -7.109619E+05 -8.371375E+00  6.094099E+02  3.986220E+01  5.597198E+02  3.597808E-05
        22  10 -7.109616E+05  7.703702E+01  2.022505E+03 -3.697778E+01  1.630661E-09  4.802603E-11
        22  11 -7.110106E+05 -1.604102E+01  1.122172E+03 -3.841999E+01  3.366245E-09 -2.125572E-10
        22  12 -7.109619E+05 -8.371459E+00  6.094093E+02 -3.986220E+01  1.093871E-10 -3.995499E-10
        22  13 -7.109616E+05  7.703702E+01  2.022505E+03  1.524503E-09  2.119699E-09 -4.709225E-11
        22  14 -7.110106E+05 -1.604102E+01  1.122172E+03 -2.339198E-09 -8.754454E-10 -4.743698E-10
        22  15 -7.109619E+05 -8.371462E+00  6.094093E+02  2.414628E-09  6.371064E-10 -3.612396E-10
        22  16 -7.109616E+05  7.703702E+01  2.022505E+03  3.697778E+01 -6.113562E-10 -1.080186E-10
        22  17 -7.110106E+05 -1.604102E+01  1.122172E+03  3.841999E+01 -2.028821E-09 -7.378052E-10
        22  18 -7.109619E+05 -8.371459E+00  6.094093E+02  3.986220E+01 -8.125628E-10 -3.418292E-10
        22  19 -7.109616E+05  7.703777E+01  2.022510E+03 -3.697778E+01 -1.671998E+03  9.969736E-05
        22  20 -7.110106E+05 -1.604068E+01  1.122175E+03 -3.841999E+01 -1.115859E+03  6.913076E-05
        22  21 -7.109619E+05 -8.371375E+00  6.094099E+02 -3.986220E+01 -5.597198E+02  3.597673E-05
        22  22 -7.109616E+05  7.703777E+01  2.022510E+03  1.364730E-09 -1.671998E+03  9.854078E-10
        22  23 -7.110106E+05 -1.604068E+01  1.122175E+03  1.933827E-09 -1.115859E+03  1.167637E-10
        22  24 -7.109619E+05 -8.371378E+00  6.094099E+02  3.852960E-09 -5.597198E+02 -1.064558E-09
        22  25 -7.109616E+05  7.703777E+01  2.022510E+03  3.697778E+01 -1.671998E+03 -9.969538E-05
        22  26 -7.110106E+05 -1.604068E+01  1.122175E+03  3.841999E+01 -1.115859E+03 -6.913046E-05
        22  27 -7.109619E+05 -8.371375E+00  6.094099E+02  3.986220E+01 -5.597198E+02 -3.597886E-05
        23   1 -7.109810E+05 -6.648973E-01  4.330338E+02 -2.212901E+01  4.657903E+02 -1.662011E-05
        23   2 -7.109870E+05 -2.511542E+00  1.657229E+02 -1.903236E+01  3.838548E+02 -1.177948E-05
        23   3 -7.109811E+05  1.048690E+00 -4.684945E+01 -1.593577E+01  3.019205E+02 -7.757461E-06
        23   4 -7.109810E+05 -6.648983E-01  4.330338E+02  6.817812E-09  4.657903E+02  8.068636E-10
        23   5 -7.109870E+05 -2.511543E+00  1.657229E+02  6.687038E-09  3.838548E+02  6.023509E-10
        23   6 -7.109811E+05  1.048690E+00 -4.684945E+01  1.720729E-09  3.019205E+02  1.005680E-09
        23   7 -7.109810E+05 -6.648973E-01  4.330338E+02  2.212901E+01  4.657903E+02  1.662166E-05
        23   8 -7.109870E+05 -2.511542E+00  1.657229E+02  1.903236E+01  3.838548E+02  1.178068E-05
        23   9 -7.109811E+05  1.048690E+00 -4.684945E+01  1.593577E+01  3.019205E+02  7.759543E-06
        23  10 -7.109810E+05 -6.649557E-01  4.330334E+02 -2.212901E+01  8.072387E-11  5.760418E-11
        23  11 -7.109870E+05 -2.511582E+00  1.657226E+02 -1.903236E+01  1.722305E-09  5.717197E-10
        23  12 -7.109811E+05  1.048666E+00 -4.684962E+01 -1.593577E+01  1.562270E-09 -3.501706E-10
        23  13 -7.109810E+05 -6.649566E-01  4.330334E+02  2.642541E-09 -1.621402E-10 -1.194816E-12
        23  14 -7.109870E+05 -2.511583E+00  1.657226E+02  2.363557E-09 -1.486496E-09  2.742747E-10
        23  15 -7.109811E+05  1.048665E+00 -4.684962E+01 -4.377523E-09 -8.725056E-10 -1.798669E-10
        23  16 -7.109810E+05 -6.649557E-01  4.330334E+02  2.212901E+01  1.191719E-09 -7.517728E-12
        23  17 -7.109870E+05 -2.511582E+00  1.657226E+02  1.903236E+01  1.699243E-11 -3.743747E-11
        23  18 -7.109811E+05  1.048666E+00 -4.684962E+01  1.593577E+01 -2.213419E-09  5.840060E-11
        23  19 -7.109810E+05 -6.648974E-01  4.330338E+02 -2.212901E+01 -4.657903E+02  1.662018E-05
        23  20 -7.109870E+05 -2.511542E+00  1.657229E+02 -1.903236E+01 -3.838548E+02  1.178080E-05
        23  21 -7.109811E+05  1.048690E+00 -4.684945E+01 -1.593577E+01 -3.019205E+02  7.756750E-06
        23  22 -7.109810E+05 -6.648983E-01  4.330338E+02  1.139777E-08 -4.657903E+02 -8.119646E-10
        23  23 -7.109870E+05 -2.511543E+00  1.657229E+02 -1.962026E-09 -3.838548E+02 -2.720256E-11
        23  24 -7.109811E+05  1.048690E+00 -4.684945E+01  1.365447E-09 -3.019205E+02 -1.397086E-09
        23  25 -7.109810E+05 -6.648974E-01  4.330338E+02  2.212901E+01 -4.657903E+02 -1.662186E-05
        23  26 -7.109870E+05 -2.511542E+00  1.657229E+02  1.903236E+01 -3.838548E+02 -1.178087E-05
        23  27 -7.109811E+05  1.048690E+00 -4.684945E+01  1.593577E+01 -3.019205E+02 -7.759491E-06
        24   1 -7.109902E+05  8.653019E-01 -1.543586E+02 -1.681678E+01  3.201621E+02 -8.681542E-06
        24   2 -7.109757E+05  6.337315E+00 -4.147181E+02 -2.574704E+01  5.251330E+02 -2.180223E-05
        24   3 -7.109904E+05  1.658074E+00 -8.111724E+02 -3.467744E+01  7.301070E+02 -4.082465E-05
        24   4 -7.109902E+05  8.653014E-01 -1.543586E+02  7.067114E-09  3.201621E+02  9.114881E-10
        24   5 -7.109757E+05  6.337314E+00 -4.147181E+02 -2.009144E-09  5.251330E+02  4.213876E-10
        24   6 -7.109904E+05  1.658071E+00 -8.111724E+02 -6.508523E-09  7.301070E+02  1.028569E-09
        24   7 -7.109902E+05  8.653019E-01 -1.543586E+02  1.681678E+01  3.201621E+02  8.683372E-06
        24   8 -7.109757E+05  6.337315E+00 -4.147181E+02  2.574704E+01  5.251330E+02  2.180286E-05
        24   9 -7.109904E+05  1.658073E+00 -8.111724E+02  3.467744E+01  7.301070E+02  4.082667E-05
        24  10 -7.109902E+05  8.652744E-01 -1.543588E+02 -1.681678E+01 -2.350261E-09 -6.395063E-10
        24  11 -7.109757E+05  6.337241E+00 -4.147186E+02 -2.574704E+01 -1.590085E-09  4.086467E-10
        24  12 -7.109904E+05  1.657930E+00 -8.111734E+02 -3.467744E+01 -1.084986E-09  7.375773E-10
        24  13 -7.109902E+05  8.652738E-01 -1.543588E+02 -1.238231E-09 -1.051438E-09  1.294185E-11
        24  14 -7.109757E+05  6.337240E+00 -4.147186E+02  2.354280E-09 -2.354460E-09  8.722741E-10
        24  15 -7.109904E+05  1.657928E+00 -8.111734E+02 -1.128617E-08 -3.957193E-09  5.377164E-10
        24  16 -7.109902E+05  8.652744E-01 -1.543588E+02  1.681678E+01  2.453513E-09  5.818745E-10
        24  17 -7.109757E+05  6.337241E+00 -4.147186E+02  2.574704E+01  1.180233E-09  1.302447E-09
        24  18 -7.109904E+05  1.657930E+00 -8.111734E+02  3.467744E+01 -4.386466E-10  4.113017E-10
        24  19 -7.109902E+05  8.653019E-01 -1.543586E+02 -1.681678E+01 -3.201621E+02  8.680469E-06
        24  20 -7.109757E+05  6.337315E+00 -4.147181E+02 -2.574704E+01 -5.251330E+02  2.180311E-05
        24  21 -7.109904E+05  1.658074E+00 -8.111724E+02 -3.467744E+01 -7.301070E+02  4.082603E-05
        24  22 -7.109902E+05  8.653014E-01 -1.543586E+02  9.836408E-09 -3.201621E+02 -8.907060E-10
        24  23 -7.109757E+05  6.337314E+00 -4.147181E+02  1.331221E-09 -5.251330E+02  1.327457E-09
        24  24 -7.109904E+05  1.658071E+00 -8.111724E+02 -2.602340E-09 -7.301070E+02  3.117231E-11
        24  25 -7.109902E+05  8.653019E-01 -1.543586E+02  1.681678E+01 -3.201621E+02 -8.682342E-06
        24  26 -7.109757E+05  6.337315E+00 -4.147181E+02  2.574704E+01 -5.251330E+02 -2.180048E-05
        24  27 -7.109904E+05  1.658074E+00 -8.111724E+02  3.467744E+01 -7.301070E+02 -4.082610E-05
        25   1 -7.110212E+05  1.497413E+01 -1.091703E+03 -6.501332E+01  9.016541E+02 -9.452298E-05
        25   2 -7.109375E+05  2.772580E+01 -1.936531E+03 -6.351661E+01  1.861329E+03 -1.906389E-04
        25   3 -7.110217E+05 -1.305440E+02 -3.449435E+03 -6.201990E+01  2.821003E+03 -2.821217E-04
        25   4 -7.110212E+05  1.497412E+01 -1.091703E+03  2.927400E-09  9.016541E+02  1.088286E-09
        25   5 -7.109375E+05  2.772580E+01 -1.936531E+03 -1.808310E-09  1.861329E+03  3.011317E-10
        25   6 -7.110217E+05 -1.305440E+02 -3.449435E+03 -6.286606E-10  2.821003E+03  4.843261E-11
        25   7 -7.110212E+05  1.497413E+01 -1.091703E+03  6.501332E+01  9.016541E+02  9.452519E-05
        25   8 -7.109375E+05  2.772580E+01 -1.936531E+03  6.351661E+01  1.861329E+03  1.906394E-04
        25   9 -7.110217E+05 -1.305440E+02 -3.449435E+03  6.201990E+01  2.821003E+03  2.821216E-04
        25  10 -7.110212E+05  1.497391E+01 -1.091705E+03 -6.501332E+01 -9.269861E-10  4.183856E-10
        25  11 -7.109375E+05  2.772487E+01 -1.936537E+03 -6.351661E+01  1.154476E-09 -1.381696E-10
        25  12 -7.110217E+05 -1.305462E+02 -3.449450E+03 -6.201990E+01 -1.939342E-09 -2.477468E-10
        25  13 -7.110212E+05  1.497390E+01 -1.091705E+03 -1.443385E-09 -2.033320E-09  1.189695E-10
        25  14 -7.109375E+05  2.772487E+01 -1.936537E+03  3.282050E-10 -2.281747E-09 -1.060714E-10
        25  15 -7.110217E+05 -1.305462E+02 -3.449450E+03  3.157543E-09 -2.908746E-09 -1.327408E-10
        25  16 -7.110212E+05  1.497391E+01 -1.091705E+03  6.501332E+01 -1.833148E-10 -2.041086E-10
        25  17 -7.109375E+05  2.772487E+01 -1.936537E+03  6.351661E+01 -3.635109E-10 -7.657432E-11
        25  18 -7.110217E+05 -1.305462E+02 -3.449450E+03  6.201990E+01  8.264149E-10 -1.833227E-11
        25  19 -7.110212E+05  1.497413E+01 -1.091703E+03 -6.501332E+01 -9.016541E+02  9.452389E-05
        25  20 -7.109375E+05  2.772580E+01 -1.936531E+03 -6.351661E+01 -1.861329E+03  1.906388E-04
        25  21 -7.110217E+05 -1.305440E+02 -3.449435E+03 -6.201990E+01 -2.821003E+03  2.821212E-04
        25  22 -7.110212E+05  1.497412E+01 -1.091703E+03 -1.515912E-09 -9.016541E+02 -8.584695E-10
        25  23 -7.109375E+05  2.772580E+01 -1.936531E+03  2.966718E-10 -1.861329E+03 -5.100038E-10
        25  24 -7.110217E+05 -1.305440E+02 -3.449435E+03  1.016534E-08 -2.821003E+03 -2.994773E-10
        25  25 -7.110212E+05  1.497413E+01 -1.091703E+03  6.501332E+01 -9.016541E+02 -9.452573E-05
        25  26 -7.109375E+05  2.772580E+01 -1.936531E+03  6.351661E+01 -1.861329E+03 -1.906397E-04
        25  27 -7.110217E+05 -1.305440E+02 -3.449435E+03  6.201990E+01 -2.821003E+03 -2.821219E-04
        26   1 -7.112648E+05  1.742529E+02 -4.512953E+03 -5.781880E+02  3.521900E+03 -3.283584E-03
        26   2 -7.106349E+05  7.743165E+01 -7.838895E+03  2.336241E+02  7.454083E+03  2.808104E-03
        26   3 -7.112672E+05 -3.017477E+03 -1.447650E+04  1.045426E+03  1.138619E+04  1.919434E-02
        26   4 -7.112648E+05  1.742523E+02 -4.512953E+03 -4.575076E-09  3.521900E+03 -2.257041E-10
        26   5 -7.106349E+05  7.743154E+01 -7.838895E+03  4.388606E-09  7.454083E+03 -7.115050E-10
        26   6 -7.112672E+05 -3.017479E+03 -1.447650E+04  2.590866E-09  1.138619E+04 -4.298925E-10
        26   7 -7.112648E+05  1.742529E+02 -4.512953E+03  5.781880E+02  3.521900E+03  3.283583E-03
        26   8 -7.106349E+05  7.743165E+01 -7.838895E+03 -2.336241E+02  7.454083E+03 -2.808106E-03
        26   9 -7.112672E+05 -3.017477E+03 -1.447650E+04 -1.045426E+03  1.138619E+04 -1.919434E-02
        26  10 -7.112648E+05  1.742496E+02 -4.512976E+03 -5.781880E+02 -1.888030E-09 -2.149243E-10
        26  11 -7.106349E+05  7.741671E+01 -7.839000E+03  2.336241E+02 -8.489614E-10 -3.164743E-10
        26  12 -7.112674E+05 -3.017512E+03 -1.447674E+04  1.045426E+03 -5.263361E-10 -9.327909E-10
        26  13 -7.112648E+05  1.742489E+02 -4.512976E+03 -3.304217E-10  8.409024E-12 -1.853621E-10
        26  14 -7.106349E+05  7.741661E+01 -7.839000E+03  5.425336E-09 -8.119463E-10 -3.833239E-10
        26  15 -7.112674E+05 -3.017514E+03 -1.447674E+04  3.629698E-09 -1.337826E-10 -5.129968E-10
        26  16 -7.112648E+05  1.742496E+02 -4.512976E+03  5.781880E+02  1.337086E-09 -1.342665E-10
        26  17 -7.106349E+05  7.741671E+01 -7.839000E+03 -2.336241E+02  2.243889E-09 -3.829501E-10
        26  18 -7.112674E+05 -3.017512E+03 -1.447674E+04 -1.045426E+03 -2.282265E-09 -1.050765E-10
        26  19 -7.112648E+05  1.742529E+02 -4.512953E+03 -5.781880E+02 -3.521900E+03  3.283583E-03
        26  20 -7.106349E+05  7.743165E+01 -7.838895E+03  2.336241E+02 -7.454083E+03 -2.808105E-03
        26  21 -7.112672E+05 -3.017477E+03 -1.447650E+04  1.045426E+03 -1.138619E+04 -1.919434E-02
        26  22 -7.112648E+05  1.742523E+02 -4.512953E+03  8.253489E-09 -3.521900E+03 -1.467768E-10
        26  23 -7.106349E+05  7.743154E+01 -7.838895E+03  8.621709E-09 -7.454083E+03 -7.835196E-11
        26  24 -7.112672E+05 -3.017479E+03 -1.447650E+04  4.154374E-09 -1.138619E+04 -6.064036E-10
        26  25 -7.112648E+05  1.742529E+02 -4.512953E+03  5.781880E+02 -3.521900E+03 -3.283584E-03
        26  26 -7.106349E+05  7.743165E+01 -7.838895E+03 -2.336241E+02 -7.454083E+03  2.808105E-03
        26  27 -7.112672E+05 -3.017477E+03 -1.447650E+04 -1.045426E+03 -1.138619E+04  1.919434E-02
        27   1 -7.144449E+05  2.728344E+03 -1.824419E+04 -8.125156E+03  1.396024E+04 -1.829062E-01
        27   2 -7.066663E+05 -3.223978E+02 -3.119003E+04  9.698933E+03  3.046583E+04  4.764694E-01
        27   3 -7.144647E+05 -5.706322E+04 -6.831237E+04  2.752298E+04  4.697170E+04  2.084646E+00
        27   4 -7.144450E+05  2.728220E+03 -1.824421E+04  5.732277E-09  1.396024E+04  2.236691E-10
        27   5 -7.066664E+05 -3.225748E+02 -3.119005E+04  1.792054E-09  3.046583E+04  9.216000E-10
        27   6 -7.144655E+05 -5.706465E+04 -6.831257E+04  6.992856E-09  4.697170E+04  3.380766E-10
        27   7 -7.144449E+05  2.728344E+03 -1.824419E+04  8.125156E+03  1.396024E+04  1.829062E-01
        27   8 -7.066663E+05 -3.223978E+02 -3.119003E+04 -9.698933E+03  3.046583E+04 -4.764694E-01
        27   9 -7.144647E+05 -5.706322E+04 -6.831237E+04 -2.752298E+04  4.697170E+04 -2.084646E+00
        27  10 -7.144451E+05  2.728292E+03 -1.824456E+04 -8.125156E+03 -2.012657E-09 -4.712373E-10
        27  11 -7.066673E+05 -3.226474E+02 -3.119177E+04  9.698933E+03  9.609436E-10  7.688511E-10
        27  12 -7.144671E+05 -5.706382E+04 -6.831652E+04  2.752298E+04  1.254645E-09  4.083989E-10
        27  13 -7.144452E+05  2.728168E+03 -1.824457E+04 -4.817936E-09 -1.321384E-09 -2.196396E-10
        27  14 -7.066674E+05 -3.228243E+02 -3.119180E+04 -6.775165E-09 -3.881283E-10  3.843795E-10
        27  15 -7.144679E+05 -5.706524E+04 -6.831672E+04 -1.191307E-09 -2.711502E-10  1.981749E-10
        27  16 -7.144451E+05  2.728292E+03 -1.824456E+04  8.125156E+03 -3.641296E-10  5.632279E-11
        27  17 -7.066673E+05 -3.226474E+02 -3.119177E+04 -9.698933E+03 -1.800061E-09 -4.237479E-11
        27  18 -7.144671E+05 -5.706382E+04 -6.831652E+04 -2.752298E+04 -1.701903E-10 -8.614770E-12
        27  19 -7.144449E+05  2.728344E+03 -1.824419E+04 -8.125156E+03 -1.396024E+04  1.829062E-01
        27  20 -7.066663E+05 -3.223978E+02 -3.119003E+04  9.698933E+03 -3.046583E+04 -4.764694E-01
        27  21 -7.144647E+05 -5.706322E+04 -6.831237E+04  2.752298E+04 -4.697170E+04 -2.084646E+00
        27  22 -7.144450E+05  2.728220E+03 -1.824421E+04 -2.452250E-09 -1.396024E+04 -6.536915E-10
        27  23 -7.066664E+05 -3.225748E+02 -3.119005E+04 -8.883323E-09 -3.046583E+04 -1.631590E-10
        27  24 -7.144655E+05 -5.706465E+04 -6.831257E+04  2.461321E-09 -4.697170E+04  6.133630E-11
        27  25 -7.144449E+05  2.728344E+03 -1.824419E+04  8.125156E+03 -1.396024E+04 -1.829062E-01
        27  26 -7.066663E+05 -3.223978E+02 -3.119003E+04 -9.698933E+03 -3.046583E+04  4.764694E-01
        27  27 -7.144647E+05 -5.706322E+04 -6.831237E+04 -2.752298E+04 -4.697170E+04  2.084646E+00
        28   1  6.510382E+05  2.174772E+06  6.938061E+05 -2.802187E+05  1.951151E+04  2.666900E+05
        28   2  3.277060E+05  1.900226E+06  4.446271E+05 -1.525263E+05  5.984884E+04  1.490826E+05
        28   3  2.568628E+05  1.704494E+06  3.350536E+05 -1.177901E+05  5.799765E+04  3.151108E+04
        28   4  2.601419E+05  5.994378E+05  3.125908E+05 -1.535050E+05  1.959183E+04  2.088032E+05
        28   5  1.234039E+03  5.635357E+05  1.474852E+05 -1.071287E+05  5.988319E+04  1.309542E+05
        28   6 -1.178887E+04  5.996890E+05  9.462227E+04 -1.536838E+05  5.797607E+04  5.309104E+04
        28   7 -1.308743E+05 -9.735935E+05 -6.878184E+04 -2.711247E+04  1.964874E+04  1.510619E+05
        28   8 -3.253509E+05 -7.714866E+05 -1.497658E+05 -6.182925E+04  5.991495E+04  1.128641E+05
        28   9 -2.805162E+05 -5.039705E+05 -1.458798E+05 -1.895126E+05  5.795197E+04  7.463312E+04
        28  10  6.510188E+05  2.174696E+06  6.936721E+05 -2.802229E+05 -4.066435E-10  1.943447E-09
        28  11  3.276962E+05  1.900201E+06  4.445787E+05 -1.525335E+05 -1.779249E-09 -3.294892E-10
        28  12  2.568589E+05  1.704492E+06  3.350454E+05 -1.177915E+05 -8.019544E-10 -2.206436E-09
        28  13  2.601298E+05  5.993909E+05  3.125082E+05 -1.535083E+05 -3.745209E-10  7.658501E-11
        28  14  1.225587E+03  5.635164E+05  1.474463E+05 -1.071350E+05  2.219241E-09  1.884184E-10
        28  15 -1.179324E+04  5.996851E+05  9.461066E+04 -1.536863E+05  2.170564E-09  3.929634E-10
        28  16 -1.308808E+05 -9.736181E+05 -6.882551E+04 -2.711486E+04  1.200701E-09 -1.980075E-09
        28  17 -3.253582E+05 -7.715012E+05 -1.497965E+05 -6.183470E+04  2.221286E-09 -5.332125E-10
        28  18 -2.805214E+05 -5.039774E+05 -1.458966E+05 -1.895161E+05  2.486451E-09  2.324708E-09
        28  19  6.510382E+05  2.174772E+06  6.938061E+05 -2.802187E+05 -1.951151E+04 -2.666900E+05
        28  20  3.277060E+05  1.900226E+06  4.446271E+05 -1.525263E+05 -5.984884E+04 -1.490826E+05
        28  21  2.568628E+05  1.704494E+06  3.350536E+05 -1.177901E+05 -5.799765E+04 -3.151108E+04
        28  22  2.601419E+05  5.994378E+05  3.125908E+05 -1.535050E+05 -1.959183E+04 -2.088032E+05
        28  23  1.234039E+03  5.635357E+05  1.474852E+05 -1.071287E+05 -5.988319E+04 -1.309542E+05
        28  24 -1.178887E+04  5.996890E+05  9.462227E+04 -1.536838E+05 -5.797607E+04 -5.309104E+04
        28  25 -1.308743E+05 -9.735935E+05 -6.878184E+04 -2.711247E+04 -1.964874E+04 -1.510619E+05
        28  26 -3.253509E+05 -7.714866E+05 -1.497658E+05 -6.182925E+04 -5.991495E+04 -1.128641E+05
        28  27 -2.805162E+05 -5.039705E+05 -1.458798E+05 -1.895126E+05 -5.795197E+04 -7.463312E+04
        29   1  2.361895E+05  1.501053E+06  2.814815E+05 -1.617855E+05  4.659648E+04  2.944069E+04
        29   2  1.653149E+05  1.261863E+06  2.115815E+05 -1.077553E+05  3.569083E+04 -3.810820E+03
        29   3  1.194716E+05  1.033124E+06  1.695111E+05 -1.481301E+05  2.325069E+04 -3.706268E+04
        29   4  1.336317E+04  5.860054E+05  8.142230E+04 -1.539589E+05  4.658797E+04  3.895656E+04
        29   5 -3.800872E+02  5.809743E+05  6.329022E+04 -1.067566E+05  3.567568E+04  7.179292E+03
        29   6  1.067309E+04  5.861009E+05  7.199207E+04 -1.539632E+05  2.322866E+04 -2.461046E+04
        29   7 -2.095187E+05 -3.282595E+05 -1.186871E+05 -1.461436E+05  4.657970E+04  4.845858E+04
        29   8 -1.661057E+05 -9.948047E+04 -8.502841E+04 -1.057589E+05  3.566056E+04  1.815752E+04
        29   9 -9.813850E+04  1.392647E+05 -2.553835E+04 -1.597919E+05  2.320638E+04 -1.216708E+04
        29  10  2.361870E+05  1.501052E+06  2.814758E+05 -1.617866E+05 -1.916941E-10 -8.949088E-10
        29  11  1.653135E+05  1.261863E+06  2.115791E+05 -1.077552E+05 -6.623998E-10 -1.233641E-09
        29  12  1.194707E+05  1.033123E+06  1.695075E+05 -1.481294E+05 -1.457163E-09 -3.841673E-10
        29  13  1.336043E+04  5.860032E+05  8.141537E+04 -1.539604E+05  9.705643E-10  6.671500E-10
        29  14 -3.814680E+02  5.809739E+05  6.328773E+04 -1.067569E+05 -3.597240E-10  4.300901E-10
        29  15  1.067235E+04  5.861001E+05  7.198992E+04 -1.539627E+05 -1.015542E-09  6.820389E-10
        29  16 -2.095217E+05 -3.282626E+05 -1.186956E+05 -1.461454E+05  3.502639E-10  7.201591E-10
        29  17 -1.661072E+05 -9.948116E+04 -8.503142E+04 -1.057594E+05 -2.042138E-09 -7.657751E-10
        29  18 -9.813912E+04  1.392644E+05 -2.553964E+04 -1.597917E+05 -5.384507E-10  5.471073E-10
        29  19  2.361895E+05  1.501053E+06  2.814815E+05 -1.617855E+05 -4.659648E+04 -2.944069E+04
        29  20  1.653149E+05  1.261863E+06  2.115815E+05 -1.077553E+05 -3.569083E+04  3.810820E+03
        29  21  1.194716E+05  1.033124E+06  1.695111E+05 -1.481301E+05 -2.325069E+04  3.706268E+04
        29  22  1.336317E+04  5.860054E+05  8.142230E+04 -1.539589E+05 -4.658797E+04 -3.895656E+04
        29  23 -3.800872E+02  5.809743E+05  6.329022E+04 -1.067566E+05 -3.567568E+04 -7.179292E+03
        29  24  1.067309E+04  5.861009E+05  7.199207E+04 -1.539632E+05 -2.322866E+04  2.461046E+04
        29  25 -2.095187E+05 -3.282595E+05 -1.186871E+05 -1.461436E+05 -4.657970E+04 -4.845858E+04
        29  26 -1.661057E+05 -9.948047E+04 -8.502841E+04 -1.057589E+05 -3.566056E+04 -1.815752E+04
        29  27 -9.813850E+04  1.392647E+05 -2.553835E+04 -1.597919E+05 -2.320638E+04  1.216708E+04
        30   1  5.421991E+04  8.550814E+05  1.363072E+05 -1.834455E+05  1.465435E+04 -5.105932E+04
        30   2  7.374734E+03  5.938783E+05  1.241770E+05 -7.126569E+04  3.502809E+03 -1.071328E+05
        30   3  1.549416E+05  3.882558E+05  1.970568E+05 -5.291432E+04 -6.299632E+01 -1.631726E+05
        30   4 -8.743531E+03  5.964890E+05  8.055534E+04 -1.539309E+05  1.462469E+04 -3.695577E+04
        30   5  1.504391E+03  5.681018E+05  1.197786E+05 -1.068287E+05  3.495432E+03 -1.001469E+05
        30   6  2.073805E+05  5.964382E+05  2.489371E+05 -1.535337E+05 -3.634080E+01 -1.633246E+05
        30   7 -7.170803E+04  3.379615E+05  2.480073E+04 -1.244288E+05  1.459635E+04 -2.285800E+04
        30   8 -4.361207E+03  5.423288E+05  1.153810E+05 -1.423902E+05  3.487256E+03 -9.316121E+04
        30   9  2.598541E+05  8.046816E+05  3.008196E+05 -2.541868E+05 -9.643830E+00 -1.634767E+05
        30  10  5.421898E+04  8.550786E+05  1.363019E+05 -1.834449E+05 -1.201608E-09  4.012666E-10
        30  11  7.371644E+03  5.938660E+05  1.241554E+05 -7.126539E+04 -6.812358E-10 -4.847679E-10
        30  12  1.549344E+05  3.882272E+05  1.970068E+05 -5.291433E+04 -1.947950E-10 -3.018162E-10
        30  13 -8.744127E+03  5.964874E+05  8.055237E+04 -1.539305E+05 -1.976917E-10  9.273713E-10
        30  14  1.501689E+03  5.680911E+05  1.197597E+05 -1.068284E+05  2.365280E-09  5.808582E-10
        30  15  2.073733E+05  5.964096E+05  2.488871E+05 -1.535337E+05 -9.332228E-10  5.975776E-10
        30  16 -7.170840E+04  3.379609E+05  2.479934E+04 -1.244286E+05  8.383556E-10 -6.371627E-10
        30  17 -4.363547E+03  5.423195E+05  1.153647E+05 -1.423900E+05 -4.031645E-10 -1.792267E-09
        30  18  2.598469E+05  8.046529E+05  3.007695E+05 -2.541868E+05  4.952859E-10  4.915648E-10
        30  19  5.421991E+04  8.550814E+05  1.363072E+05 -1.834455E+05 -1.465435E+04  5.105932E+04
        30  20  7.374734E+03  5.938783E+05  1.241770E+05 -7.126569E+04 -3.502809E+03  1.071328E+05
        30  21  1.549416E+05  3.882558E+05  1.970568E+05 -5.291432E+04  6.299632E+01  1.631726E+05
        30  22 -8.743531E+03  5.964890E+05  8.055534E+04 -1.539309E+05 -1.462469E+04  3.695577E+04
        30  23  1.504391E+03  5.681018E+05  1.197786E+05 -1.068287E+05 -3.495432E+03  1.001469E+05
        30  24  2.073805E+05  5.964382E+05  2.489371E+05 -1.535337E+05  3.634080E+01  1.633246E+05
        30  25 -7.170803E+04  3.379615E+05  2.480073E+04 -1.244288E+05 -1.459635E+04  2.285800E+04
        30  26 -4.361207E+03  5.423288E+05  1.153810E+05 -1.423902E+05 -3.487256E+03  9.316121E+04
        30  27  2.598541E+05  8.046816E+05  3.008196E+05 -2.541868E+05  9.643830E+00  1.634767E+05
        31   1 -1.243464E+06 -2.950884E+05 -1.136228E+05 -4.764306E+05 -6.250442E+04 -2.233561E+04
        31   2 -1.225560E+06 -1.998969E+05 -5.510507E+04 -4.737367E+05 -3.947245E+04 -1.160303E+04
        31   3 -1.232077E+06 -1.798105E+05 -3.342771E+04 -4.589777E+05 -1.558669E+04 -3.146369E+03
        31   4 -1.191276E+06 -2.428588E+05 -9.331400E+04 -4.286501E+05 -5.990129E+04 -2.136362E+04
        31   5 -1.174193E+06 -1.696008E+05 -4.050250E+04 -4.481350E+05 -3.886048E+04 -1.137447E+04
        31   6 -1.181133E+06 -1.710503E+05 -2.294944E+04 -4.555558E+05 -1.696579E+04 -3.663123E+03
        31   7 -1.139083E+06 -1.906221E+05 -7.300533E+04 -3.808654E+05 -5.729798E+04 -2.039122E+04
        31   8 -1.122823E+06 -1.393034E+05 -2.590028E+04 -4.225313E+05 -3.824846E+04 -1.114587E+04
        31   9 -1.130186E+06 -1.622902E+05 -1.247125E+04 -4.521339E+05 -1.834501E+04 -4.179865E+03
        31  10 -1.243468E+06 -2.950899E+05 -1.136311E+05 -4.764317E+05  7.952488E-10  7.966153E-11
        31  11 -1.225562E+06 -1.998974E+05 -5.510825E+04 -4.737371E+05  8.204494E-10  8.519331E-11
        31  12 -1.232077E+06 -1.798106E+05 -3.342818E+04 -4.589778E+05  2.923734E-09 -2.186181E-10
        31  13 -1.191280E+06 -2.428603E+05 -9.332162E+04 -4.286512E+05 -2.426219E-11 -6.592126E-11
        31  14 -1.174194E+06 -1.696014E+05 -4.050558E+04 -4.481354E+05  4.386909E-11 -1.969196E-10
        31  15 -1.181133E+06 -1.710504E+05 -2.295001E+04 -4.555559E+05  2.141718E-09 -2.389354E-10
        31  16 -1.139087E+06 -1.906235E+05 -7.301230E+04 -3.808663E+05 -1.735904E-09 -1.905654E-10
        31  17 -1.122825E+06 -1.393039E+05 -2.590326E+04 -4.225316E+05  1.845342E-10 -2.956008E-10
        31  18 -1.130186E+06 -1.622903E+05 -1.247192E+04 -4.521340E+05  5.600579E-10 -2.310169E-10
        31  19 -1.243464E+06 -2.950884E+05 -1.136228E+05 -4.764306E+05  6.250442E+04  2.233561E+04
        31  20 -1.225560E+06 -1.998969E+05 -5.510507E+04 -4.737367E+05  3.947245E+04  1.160303E+04
        31  21 -1.232077E+06 -1.798105E+05 -3.342771E+04 -4.589777E+05  1.558669E+04  3.146369E+03
        31  22 -1.191276E+06 -2.428588E+05 -9.331400E+04 -4.286501E+05  5.990129E+04  2.136362E+04
        31  23 -1.174193E+06 -1.696008E+05 -4.050250E+04 -4.481350E+05  3.886048E+04  1.137447E+04
        31  24 -1.181133E+06 -1.710503E+05 -2.294944E+04 -4.555558E+05  1.696579E+04  3.663123E+03
        31  25 -1.139083E+06 -1.906221E+05 -7.300533E+04 -3.808654E+05  5.729798E+04  2.039122E+04
        31  26 -1.122823E+06 -1.393034E+05 -2.590028E+04 -4.225313E+05  3.824846E+04  1.114587E+04
        31  27 -1.130186E+06 -1.622902E+05 -1.247125E+04 -4.521339E+05  1.834501E+04  4.179865E+03
        32   1 -1.207036E+06 -1.901205E+05 -2.540239E+04 -4.607066E+05 -1.305374E+04 -3.089665E+03
        32   2 -1.192753E+06 -1.765271E+05 -1.265063E+04 -4.536816E+05 -7.902074E+03 -2.128941E+03
        32   3 -1.175611E+06 -1.723046E+05 -4.651792E+03 -4.515696E+05 -2.711785E+03 -1.270371E+03
        32   4 -1.178174E+06 -1.779403E+05 -1.817201E+04 -4.513030E+05 -1.375398E+04 -3.352232E+03
        32   5 -1.179315E+06 -1.711720E+05 -9.343971E+03 -4.496293E+05 -8.691542E+03 -2.424924E+03
        32   6 -1.177580E+06 -1.737570E+05 -5.197855E+03 -4.528689E+05 -3.590673E+03 -1.599854E+03
        32   7 -1.149310E+06 -1.657599E+05 -1.094162E+04 -4.418988E+05 -1.445425E+04 -3.614818E+03
        32   8 -1.165877E+06 -1.658170E+05 -6.037332E+03 -4.455769E+05 -9.481026E+03 -2.720915E+03
        32   9 -1.179549E+06 -1.752093E+05 -5.743905E+03 -4.541681E+05 -4.469546E+03 -1.929328E+03
        32  10 -1.207036E+06 -1.901206E+05 -2.540273E+04 -4.607066E+05  2.983374E-09 -3.962009E-10
        32  11 -1.192753E+06 -1.765271E+05 -1.265076E+04 -4.536816E+05  1.376663E-09 -6.799177E-10
        32  12 -1.175611E+06 -1.723046E+05 -4.651809E+03 -4.515696E+05  1.447181E-09 -8.167385E-12
        32  13 -1.178174E+06 -1.779404E+05 -1.817239E+04 -4.513030E+05 -8.845426E-10 -2.699817E-10
        32  14 -1.179315E+06 -1.711721E+05 -9.344125E+03 -4.496293E+05 -8.142022E-10 -6.677654E-10
        32  15 -1.177580E+06 -1.737570E+05 -5.197884E+03 -4.528689E+05  1.325905E-10 -2.220937E-10
        32  16 -1.149311E+06 -1.657600E+05 -1.094203E+04 -4.418989E+05 -2.629818E-09 -1.820395E-10
        32  17 -1.165877E+06 -1.658170E+05 -6.037515E+03 -4.455769E+05 -9.057394E-10 -2.913926E-10
        32  18 -1.179549E+06 -1.752094E+05 -5.743949E+03 -4.541681E+05 -1.180263E-09 -4.873240E-10
        32  19 -1.207036E+06 -1.901205E+05 -2.540239E+04 -4.607066E+05  1.305374E+04  3.089665E+03
        32  20 -1.192753E+06 -1.765271E+05 -1.265063E+04 -4.536816E+05  7.902074E+03  2.128941E+03
        32  21 -1.175611E+06 -1.723046E+05 -4.651792E+03 -4.515696E+05  2.711785E+03  1.270371E+03
        32  22 -1.178174E+06 -1.779403E+05 -1.817201E+04 -4.513030E+05  1.375398E+04  3.352232E+03
        32  23 -1.179315E+06 -1.711720E+05 -9.343971E+03 -4.496293E+05  8.691542E+03  2.424924E+03
        32  24 -1.177580E+06 -1.737570E+05 -5.197855E+03 -4.528689E+05  3.590673E+03  1.599854E+03
        32  25 -1.149310E+06 -1.657599E+05 -1.094162E+04 -4.418988E+05  1.445425E+04  3.614818E+03
        32  26 -1.165877E+06 -1.658170E+05 -6.037332E+03 -4.455769E+05  9.481026E+03  2.720915E+03
        32  27 -1.179549E+06 -1.752093E+05 -5.743905E+03 -4.541681E+05  4.469546E+03  1.929328E+03
        33   1 -1.161247E+06 -1.681272E+05 -3.641082E+01 -4.481576E+05 -1.792763E+03 -1.585831E+03
        33   2 -1.147475E+06 -1.593199E+05  5.590804E+03 -4.408407E+05 -3.412127E+02 -2.148982E+03
        33   3 -1.128866E+06 -1.558624E+05  1.033897E+04 -4.393236E+05  1.111354E+03 -2.714598E+03
        33   4 -1.177323E+06 -1.741400E+05 -3.959163E+03 -4.525889E+05 -2.641103E+03 -1.903868E+03
        33   5 -1.179727E+06 -1.713561E+05 -2.170318E+03 -4.497297E+05 -1.191767E+03 -2.467876E+03
        33   6 -1.177292E+06 -1.739215E+05 -1.258692E+03 -4.526704E+05  2.585600E+02 -3.034360E+03
        33   7 -1.193400E+06 -1.801529E+05 -7.881961E+03 -4.570202E+05 -3.489423E+03 -2.221897E+03
        33   8 -1.211978E+06 -1.833923E+05 -9.931617E+03 -4.586184E+05 -2.042283E+03 -2.786756E+03
        33   9 -1.225716E+06 -1.919807E+05 -1.285674E+04 -4.660165E+05 -5.941752E+02 -3.354100E+03
        33  10 -1.161247E+06 -1.681272E+05 -3.642160E+01 -4.481576E+05  1.154788E-09  2.067019E-10
        33  11 -1.147475E+06 -1.593199E+05  5.590795E+03 -4.408407E+05  1.878112E-09  1.422216E-10
        33  12 -1.128866E+06 -1.558624E+05  1.033895E+04 -4.393236E+05  1.152138E-09  1.996150E-10
        33  13 -1.177323E+06 -1.741400E+05 -3.959183E+03 -4.525889E+05 -1.301990E-09 -1.432892E-10
        33  14 -1.179727E+06 -1.713561E+05 -2.170333E+03 -4.497297E+05 -1.675623E-09  8.992995E-11
        33  15 -1.177292E+06 -1.739215E+05 -1.258709E+03 -4.526704E+05 -2.181875E-09 -3.737100E-10
        33  16 -1.193400E+06 -1.801529E+05 -7.881993E+03 -4.570202E+05 -9.781985E-10 -3.245982E-10
        33  17 -1.211978E+06 -1.833924E+05 -9.931639E+03 -4.586184E+05 -2.975163E-09  1.668422E-11
        33  18 -1.225716E+06 -1.919807E+05 -1.285676E+04 -4.660165E+05 -1.308731E-09 -1.166534E-09
        33  19 -1.161247E+06 -1.681272E+05 -3.641082E+01 -4.481576E+05  1.792763E+03  1.585831E+03
        33  20 -1.147475E+06 -1.593199E+05  5.590804E+03 -4.408407E+05  3.412127E+02  2.148982E+03
        33  21 -1.128866E+06 -1.558624E+05  1.033897E+04 -4.393236E+05 -1.111354E+03  2.714598E+03
        33  22 -1.177323E+06 -1.741400E+05 -3.959163E+03 -4.525889E+05  2.641103E+03  1.903868E+03
        33  23 -1.179727E+06 -1.713561E+05 -2.170318E+03 -4.497297E+05  1.191767E+03  2.467876E+03
        33  24 -1.177292E+06 -1.739215E+05 -1.258692E+03 -4.526704E+05 -2.585600E+02  3.034360E+03
        33  25 -1.193400E+06 -1.801529E+05 -7.881961E+03 -4.570202E+05  3.489423E+03  2.221897E+03
        33  26 -1.211978E+06 -1.833923E+05 -9.931617E+03 -4.586184E+05  2.042283E+03  2.786756E+03
        33  27 -1.225716E+06 -1.919807E+05 -1.285674E+04 -4.660165E+05  5.941752E+02  3.354100E+03
        34   1 -1.115315E+06 -1.508653E+05  1.395830E+04 -4.356366E+05  1.506301E+03 -3.212409E+03
        34   2 -1.101739E+06 -1.423811E+05  1.806425E+04 -4.283511E+05  2.212824E+03 -4.052745E+03
        34   3 -1.083177E+06 -1.389565E+05  2.191022E+04 -4.268469E+05  2.918281E+03 -4.889938E+03
        34   4 -1.177270E+06 -1.739297E+05 -9.967178E+02 -4.526395E+05  6.570502E+02 -3.530866E+03
        34   5 -1.179762E+06 -1.713970E+05 -6.944843E+02 -4.497500E+05  1.366263E+03 -4.370238E+03
        34   6 -1.177270E+06 -1.739241E+05 -6.542849E+02 -4.526418E+05  2.074402E+03 -5.206473E+03
        34   7 -1.239220E+06 -1.969935E+05 -1.595176E+04 -4.696405E+05 -1.920958E+02 -3.849283E+03
        34   8 -1.257780E+06 -2.004121E+05 -1.945348E+04 -4.711462E+05  5.198241E+02 -4.687685E+03
        34   9 -1.271355E+06 -2.088910E+05 -2.321938E+04 -4.784331E+05  1.230664E+03 -5.522954E+03
        34  10 -1.115315E+06 -1.508653E+05  1.395828E+04 -4.356366E+05 -8.888025E-10 -3.063831E-10
        34  11 -1.101739E+06 -1.423812E+05  1.806421E+04 -4.283511E+05  6.506309E-09  6.733938E-10
        34  12 -1.083177E+06 -1.389565E+05  2.191016E+04 -4.268469E+05  2.625559E-09 -1.803017E-10
        34  13 -1.177270E+06 -1.739297E+05 -9.967421E+02 -4.526395E+05  8.046412E-10  5.638696E-11
        34  14 -1.179762E+06 -1.713970E+05 -6.945236E+02 -4.497500E+05  2.575715E-09  1.035063E-09
        34  15 -1.177270E+06 -1.739241E+05 -6.543438E+02 -4.526418E+05 -1.378038E-09 -1.207561E-09
        34  16 -1.239220E+06 -1.969935E+05 -1.595179E+04 -4.696405E+05  4.499470E-09  4.620106E-10
        34  17 -1.257780E+06 -2.004121E+05 -1.945352E+04 -4.711462E+05  3.138989E-09  1.161970E-09
        34  18 -1.271355E+06 -2.088911E+05 -2.321944E+04 -4.784331E+05 -2.844245E-09 -2.124281E-09
        34  19 -1.115315E+06 -1.508653E+05  1.395830E+04 -4.356366E+05 -1.506301E+03  3.212409E+03
        34  20 -1.101739E+06 -1.423811E+05  1.806425E+04 -4.283511E+05 -2.212824E+03  4.052745E+03
        34  21 -1.083177E+06 -1.389565E+05  2.191022E+04 -4.268469E+05 -2.918281E+03  4.889938E+03
        34  22 -1.177270E+06 -1.739297E+05 -9.967178E+02 -4.526395E+05 -6.570502E+02  3.530866E+03
        34  23 -1.179762E+06 -1.713970E+05 -6.944843E+02 -4.497500E+05 -1.366263E+03  4.370238E+03
        34  24 -1.177270E+06 -1.739241E+05 -6.542849E+02 -4.526418E+05 -2.074402E+03  5.206473E+03
        34  25 -1.239220E+06 -1.969935E+05 -1.595176E+04 -4.696405E+05  1.920958E+02  3.849283E+03
        34  26 -1.257780E+06 -2.004121E+05 -1.945348E+04 -4.711462E+05 -5.198241E+02  4.687685E+03
        34  27 -1.271355E+06 -2.088910E+05 -2.321938E+04 -4.784331E+05 -1.230664E+03  5.522954E+03
        35   1 -1.069818E+06 -1.339542E+05  2.517386E+04 -4.231766E+05  3.238626E+03 -5.408669E+03
        35   2 -1.056422E+06 -1.255957E+05  2.858708E+04 -4.159914E+05  4.116536E+03 -6.170652E+03
        35   3 -1.038135E+06 -1.222395E+05  3.160732E+04 -4.145063E+05  4.992199E+03 -6.926071E+03
        35   4 -1.177291E+06 -1.739085E+05 -7.180640E+02 -4.526252E+05  2.398584E+03 -5.723806E+03
        35   5 -1.179738E+06 -1.714151E+05 -1.053366E+03 -4.497721E+05  3.282084E+03 -6.483774E+03
        35   6 -1.177295E+06 -1.739254E+05 -1.786211E+03 -4.526196E+05  4.163320E+03 -7.237182E+03
        35   7 -1.284754E+06 -2.138622E+05 -2.661099E+04 -4.820692E+05  1.558696E+03 -6.038885E+03
        35   8 -1.303039E+06 -2.172336E+05 -3.069501E+04 -4.835468E+05  2.447810E+03 -6.796830E+03
        35   9 -1.316436E+06 -2.256100E+05 -3.518116E+04 -4.907250E+05  3.334644E+03 -7.548217E+03
        35  10 -1.069818E+06 -1.339543E+05  2.517379E+04 -4.231766E+05 -3.412265E-09 -2.347092E-09
        35  11 -1.056422E+06 -1.255958E+05  2.858698E+04 -4.159914E+05  5.814418E-10 -3.579279E-10
        35  12 -1.038136E+06 -1.222396E+05  3.160719E+04 -4.145063E+05 -1.671312E-09  1.416600E-10
        35  13 -1.177291E+06 -1.739085E+05 -7.181364E+02 -4.526252E+05 -2.992092E-09 -1.651253E-09
        35  14 -1.179738E+06 -1.714152E+05 -1.053466E+03 -4.497721E+05  1.658672E-09  9.900734E-11
        35  15 -1.177295E+06 -1.739255E+05 -1.786342E+03 -4.526195E+05 -1.893059E-10  1.787045E-10
        35  16 -1.284754E+06 -2.138622E+05 -2.661106E+04 -4.820692E+05 -1.485107E-09 -1.228611E-09
        35  17 -1.303039E+06 -2.172336E+05 -3.069511E+04 -4.835468E+05  1.908137E-09  1.955303E-10
        35  18 -1.316436E+06 -2.256101E+05 -3.518129E+04 -4.907250E+05  1.611192E-09  8.049634E-11
        35  19 -1.069818E+06 -1.339542E+05  2.517386E+04 -4.231766E+05 -3.238626E+03  5.408669E+03
        35  20 -1.056422E+06 -1.255957E+05  2.858708E+04 -4.159914E+05 -4.116536E+03  6.170652E+03
        35  21 -1.038135E+06 -1.222395E+05  3.160732E+04 -4.145063E+05 -4.992199E+03  6.926071E+03
        35  22 -1.177291E+06 -1.739085E+05 -7.180640E+02 -4.526252E+05 -2.398584E+03  5.723806E+03
        35  23 -1.179738E+06 -1.714151E+05 -1.053366E+03 -4.497721E+05 -3.282084E+03  6.483774E+03
        35  24 -1.177295E+06 -1.739254E+05 -1.786211E+03 -4.526196E+05 -4.163320E+03  7.237182E+03
        35  25 -1.284754E+06 -2.138622E+05 -2.661099E+04 -4.820692E+05 -1.558696E+03  6.038885E+03
        35  26 -1.303039E+06 -2.172336E+05 -3.069501E+04 -4.835468E+05 -2.447810E+03  6.796830E+03
        35  27 -1.316436E+06 -2.256100E+05 -3.518116E+04 -4.907250E+05 -3.334644E+03  7.548217E+03
        36   1 -1.025032E+06 -1.173424E+05  3.431601E+04 -4.109962E+05  5.538765E+03 -7.350065E+03
        36   2 -1.011802E+06 -1.090697E+05  3.613940E+04 -4.038526E+05  7.966288E+03 -7.504971E+03
        36   3 -9.941588E+05 -1.061917E+05  3.628415E+04 -4.022392E+05  1.038544E+04 -7.636778E+03
        36   4 -1.177383E+06 -1.738707E+05 -2.343512E+03 -4.526357E+05  4.710878E+03 -7.660861E+03
        36   5 -1.179620E+06 -1.713896E+05 -4.192352E+03 -4.497894E+05  7.157990E+03 -7.808521E+03
        36   6 -1.177447E+06 -1.743071E+05 -7.735701E+03 -4.524732E+05  9.596690E+03 -7.933097E+03
        36   7 -1.329710E+06 -2.303972E+05 -3.900452E+04 -4.942657E+05  3.883216E+03 -7.971572E+03
        36   8 -1.347410E+06 -2.337075E+05 -4.452616E+04 -4.957148E+05  6.349931E+03 -8.111981E+03
        36   9 -1.360703E+06 -2.424205E+05 -5.175826E+04 -5.026940E+05  8.808186E+03 -8.229323E+03
        36  10 -1.025032E+06 -1.173424E+05  3.431585E+04 -4.109961E+05  1.553259E-09 -1.264176E-10
        36  11 -1.011802E+06 -1.090698E+05  3.613918E+04 -4.038526E+05  1.083789E-09 -5.607301E-10
        36  12 -9.941590E+05 -1.061918E+05  3.628384E+04 -4.022391E+05 -1.137353E-09 -3.275364E-10
        36  13 -1.177383E+06 -1.738708E+05 -2.343664E+03 -4.526357E+05  1.169424E-10 -2.107580E-10
        36  14 -1.179620E+06 -1.713897E+05 -4.192563E+03 -4.497893E+05 -3.032367E-11 -1.021820E-10
        36  15 -1.177447E+06 -1.743072E+05 -7.735993E+03 -4.524732E+05 -3.024420E-09  3.388571E-10
        36  16 -1.329710E+06 -2.303973E+05 -3.900467E+04 -4.942657E+05 -1.146250E-10 -2.332527E-10
        36  17 -1.347410E+06 -2.337076E+05 -4.452636E+04 -4.957148E+05 -5.635660E-10  4.796304E-11
        36  18 -1.360703E+06 -2.424205E+05 -5.175853E+04 -5.026940E+05  6.233644E-10  1.145341E-09
        36  19 -1.025032E+06 -1.173424E+05  3.431601E+04 -4.109962E+05 -5.538765E+03  7.350065E+03
        36  20 -1.011802E+06 -1.090697E+05  3.613940E+04 -4.038526E+05 -7.966288E+03  7.504971E+03
        36  21 -9.941588E+05 -1.061917E+05  3.628415E+04 -4.022392E+05 -1.038544E+04  7.636778E+03
        36  22 -1.177383E+06 -1.738707E+05 -2.343512E+03 -4.526357E+05 -4.710878E+03  7.660861E+03
        36  23 -1.179620E+06 -1.713896E+05 -4.192352E+03 -4.497894E+05 -7.157990E+03  7.808521E+03
        36  24 -1.177447E+06 -1.743071E+05 -7.735701E+03 -4.524732E+05 -9.596690E+03  7.933097E+03
        36  25 -1.329710E+06 -2.303972E+05 -3.900452E+04 -4.942657E+05 -3.883216E+03  7.971572E+03
        36  26 -1.347410E+06 -2.337075E+05 -4.452616E+04 -4.957148E+05 -6.349931E+03  8.111981E+03
        36  27 -1.360703E+06 -2.424205E+05 -5.175826E+04 -5.026940E+05 -8.808186E+03  8.229323E+03
        37   1 -9.808739E+05 -1.016254E+05  3.701171E+04 -4.003855E+05  1.212550E+04 -7.632179E+03
        37   2 -9.681879E+05 -9.201426E+04  3.246796E+04 -3.911150E+05  2.144206E+04 -5.084438E+03
        37   3 -9.550275E+05 -9.544980E+04  1.898256E+04 -3.854566E+05  3.062820E+04 -2.188459E+03
        37   4 -1.177984E+06 -1.735226E+05 -1.017715E+04 -4.529852E+05  1.124299E+04 -7.963744E+03
        37   5 -1.178776E+06 -1.710762E+05 -1.833287E+04 -4.496394E+05  2.086113E+04 -5.302949E+03
        37   6 -1.179155E+06 -1.817386E+05 -3.567190E+04 -4.499058E+05  3.034859E+04 -2.294023E+03
        37   7 -1.375056E+06 -2.454173E+05 -5.736881E+04 -5.055699E+05  1.036079E+04 -8.295199E+03
        37   8 -1.389320E+06 -2.501346E+05 -6.913682E+04 -5.081455E+05  2.028042E+04 -5.521377E+03
        37   9 -1.403232E+06 -2.680226E+05 -9.032981E+04 -5.143331E+05  3.006910E+04 -2.399543E+03
        37  10 -9.808741E+05 -1.016255E+05  3.701132E+04 -4.003854E+05 -5.726390E-10  4.543000E-10
        37  11 -9.681884E+05 -9.201441E+04  3.246705E+04 -3.911149E+05  1.242511E-10  6.524335E-10
        37  12 -9.550285E+05 -9.545006E+04  1.898079E+04 -3.854565E+05 -6.509029E-10 -2.852603E-10
        37  13 -1.177984E+06 -1.735227E+05 -1.017750E+04 -4.529851E+05  1.023783E-09  4.868882E-10
        37  14 -1.178777E+06 -1.710764E+05 -1.833375E+04 -4.496393E+05 -1.593484E-09  6.021223E-10
        37  15 -1.179156E+06 -1.817389E+05 -3.567364E+04 -4.499057E+05  3.578242E-10  3.148147E-10
        37  16 -1.375056E+06 -2.454174E+05 -5.736914E+04 -5.055698E+05 -7.471779E-10  4.794326E-10
        37  17 -1.389320E+06 -2.501348E+05 -6.913765E+04 -5.081454E+05  9.906041E-10 -1.759835E-10
        37  18 -1.403233E+06 -2.680228E+05 -9.033152E+04 -5.143331E+05  5.573361E-10  3.476175E-10
        37  19 -9.808739E+05 -1.016254E+05  3.701171E+04 -4.003855E+05 -1.212550E+04  7.632179E+03
        37  20 -9.681879E+05 -9.201426E+04  3.246796E+04 -3.911150E+05 -2.144206E+04  5.084438E+03
        37  21 -9.550275E+05 -9.544980E+04  1.898256E+04 -3.854566E+05 -3.062820E+04  2.188459E+03
        37  22 -1.177984E+06 -1.735226E+05 -1.017715E+04 -4.529852E+05 -1.124299E+04  7.963744E+03
        37  23 -1.178776E+06 -1.710762E+05 -1.833287E+04 -4.496394E+05 -2.086113E+04  5.302949E+03
        37  24 -1.179155E+06 -1.817386E+05 -3.567190E+04 -4.499058E+05 -3.034859E+04  2.294023E+03
        37  25 -1.375056E+06 -2.454173E+05 -5.736881E+04 -5.055699E+05 -1.036079E+04  8.295199E+03
        37  26 -1.389320E+06 -2.501346E+05 -6.913682E+04 -5.081455E+05 -2.028042E+04  5.521377E+03
        37  27 -1.403232E+06 -2.680226E+05 -9.032981E+04 -5.143331E+05 -3.006910E+04  2.399543E+03
        38   1 -9.316306E+05 -9.392016E+04  1.227442E+04 -4.093303E+05  3.907072E+04 -4.279429E+02
        38   2 -9.318464E+05 -5.779563E+04 -1.773909E+04 -3.591331E+05  7.478256E+04  1.402185E+04
        38   3 -9.833843E+05 -1.614742E+05 -1.117076E+05 -2.789168E+05  1.076506E+05  3.604527E+04
        38   4 -1.185002E+06 -1.681731E+05 -4.505353E+04 -4.582117E+05  3.653932E+04 -1.377869E+03
        38   5 -1.168667E+06 -1.680527E+05 -7.952011E+04 -4.467694E+05  7.886048E+04  1.555047E+04
        38   6 -1.204991E+06 -3.090886E+05 -1.832047E+05 -4.053017E+05  1.183377E+05  4.004798E+04
        38   7 -1.438310E+06 -2.424269E+05 -1.023857E+05 -5.070779E+05  3.400904E+04 -2.327583E+03
        38   8 -1.405430E+06 -2.782963E+05 -1.413057E+05 -5.343723E+05  8.293671E+04  1.707810E+04
        38   9 -1.426539E+06 -4.566584E+05 -2.547050E+05 -5.316352E+05  1.290206E+05  4.404633E+04
        38  10 -9.316322E+05 -9.392057E+04  1.227155E+04 -4.093303E+05  5.549342E-10 -4.199472E-10
        38  11 -9.318525E+05 -5.779735E+04 -1.774999E+04 -3.591340E+05 -2.639287E-10 -1.880177E-10
        38  12 -9.833972E+05 -1.614787E+05 -1.117318E+05 -2.789199E+05  2.306653E-10 -5.277862E-11
        38  13 -1.185003E+06 -1.681734E+05 -4.505604E+04 -4.582117E+05 -3.785170E-10  2.716824E-10
        38  14 -1.168673E+06 -1.680547E+05 -7.953228E+04 -4.467704E+05 -2.683280E-10 -1.851376E-10
        38  15 -1.205007E+06 -3.090941E+05 -1.832341E+05 -4.053055E+05  3.867534E-10 -1.053687E-10
        38  16 -1.438312E+06 -2.424272E+05 -1.023879E+05 -5.070778E+05  4.925693E-10 -8.321552E-11
        38  17 -1.405438E+06 -2.782985E+05 -1.413193E+05 -5.343734E+05 -1.100121E-09 -6.338954E-10
        38  18 -1.426558E+06 -4.566650E+05 -2.547400E+05 -5.316398E+05  8.836053E-10 -1.671961E-10
        38  19 -9.316306E+05 -9.392016E+04  1.227442E+04 -4.093303E+05 -3.907072E+04  4.279429E+02
        38  20 -9.318464E+05 -5.779563E+04 -1.773909E+04 -3.591331E+05 -7.478256E+04 -1.402185E+04
        38  21 -9.833843E+05 -1.614742E+05 -1.117076E+05 -2.789168E+05 -1.076506E+05 -3.604527E+04
        38  22 -1.185002E+06 -1.681731E+05 -4.505353E+04 -4.582117E+05 -3.653932E+04  1.377869E+03
        38  23 -1.168667E+06 -1.680527E+05 -7.952011E+04 -4.467694E+05 -7.886048E+04 -1.555047E+04
        38  24 -1.204991E+06 -3.090886E+05 -1.832047E+05 -4.053017E+05 -1.183377E+05 -4.004798E+04
        38  25 -1.438310E+06 -2.424269E+05 -1.023857E+05 -5.070779E+05 -3.400904E+04  2.327583E+03
        38  26 -1.405430E+06 -2.782963E+05 -1.413057E+05 -5.343723E+05 -8.293671E+04 -1.707810E+04
        38  27 -1.426539E+06 -4.566584E+05 -2.547050E+05 -5.316352E+05 -1.290206E+05 -4.404633E+04
        39   1 -1.152695E+05  4.677397E+04  5.599890E+04  2.257246E+04  3.851788E+04  1.400704E+00
        39   2 -1.216533E+05  2.680024E+02  2.557241E+04  7.954943E+03  2.498444E+04  3.201946E-01
        39   3 -1.152731E+05 -2.235559E+03  1.495931E+04 -6.662365E+03  1.145098E+04 -1.229061E-01
        39   4 -1.152700E+05  4.677302E+04  5.599876E+04  8.253332E-09  3.851788E+04 -2.802405E-10
        39   5 -1.216534E+05  2.678835E+02  2.557239E+04  1.009279E-09  2.498444E+04 -5.330936E-10
        39   6 -1.152732E+05 -2.235643E+03  1.495930E+04  4.265291E-09  1.145098E+04 -1.275499E-11
        39   7 -1.152695E+05  4.677397E+04  5.599890E+04 -2.257246E+04  3.851788E+04 -1.400704E+00
        39   8 -1.216533E+05  2.680024E+02  2.557241E+04 -7.954943E+03  2.498444E+04 -3.201946E-01
        39   9 -1.152731E+05 -2.235559E+03  1.495931E+04  6.662365E+03  1.145098E+04  1.229061E-01
        39  10 -1.152711E+05  4.677358E+04  5.599611E+04  2.257246E+04  1.286803E-09 -1.357318E-10
        39  11 -1.216540E+05  2.678348E+02  2.557124E+04  7.954943E+03  7.993244E-10 -2.382173E-10
        39  12 -1.152733E+05 -2.235594E+03  1.495906E+04 -6.662365E+03 -2.701828E-10  2.032558E-10
        39  13 -1.152716E+05  4.677262E+04  5.599597E+04  1.035359E-08 -1.085366E-09 -8.408520E-11
        39  14 -1.216541E+05  2.677159E+02  2.557122E+04 -5.184658E-11 -1.008189E-09 -1.671758E-10
        39  15 -1.152733E+05 -2.235678E+03  1.495905E+04 -1.839689E-09 -2.763058E-10  6.518575E-11
        39  16 -1.152711E+05  4.677358E+04  5.599611E+04 -2.257246E+04  8.713068E-10 -3.461420E-11
        39  17 -1.216540E+05  2.678348E+02  2.557124E+04 -7.954943E+03 -1.286232E-09 -9.710341E-11
        39  18 -1.152733E+05 -2.235594E+03  1.495906E+04  6.662365E+03  9.590237E-10 -6.554115E-11
        39  19 -1.152695E+05  4.677397E+04  5.599890E+04  2.257246E+04 -3.851788E+04 -1.400704E+00
        39  20 -1.216533E+05  2.680024E+02  2.557241E+04  7.954943E+03 -2.498444E+04 -3.201946E-01
        39  21 -1.152731E+05 -2.235559E+03  1.495931E+04 -6.662365E+03 -1.145098E+04  1.229061E-01
        39  22 -1.152700E+05  4.677302E+04  5.599876E+04  3.840412E-09 -3.851788E+04  1.138485E-10
        39  23 -1.216534E+05  2.678835E+02  2.557239E+04 -3.266282E-09 -2.498444E+04  1.869683E-10
        39  24 -1.152732E+05 -2.235643E+03  1.495930E+04  4.436705E-09 -1.145098E+04  1.400409E-10
        39  25 -1.152695E+05  4.677397E+04  5.599890E+04 -2.257246E+04 -3.851788E+04  1.400704E+00
        39  26 -1.216533E+05  2.680024E+02  2.557241E+04 -7.954943E+03 -2.498444E+04  3.201946E-01
        39  27 -1.152731E+05 -2.235559E+03  1.495931E+04  6.662365E+03 -1.145098E+04 -1.229061E-01
        40   1 -1.178793E+05  2.472476E+03  1.187063E+04  8.569615E+02  9.339165E+03  1.289359E-02
        40   2 -1.183966E+05 -6.332491E+01  6.430486E+03  1.915148E+02  6.112961E+03  1.886072E-03
        40   3 -1.178796E+05 -1.428436E+02  3.705114E+03 -4.739234E+02  2.886817E+03 -2.204101E-03
        40   4 -1.178793E+05  2.472474E+03  1.187063E+04  5.918854E-10  9.339165E+03  1.302810E-11
        40   5 -1.183966E+05 -6.332498E+01  6.430486E+03 -5.126661E-09  6.112961E+03 -4.665038E-10
        40   6 -1.178796E+05 -1.428440E+02  3.705114E+03 -6.806768E-09  2.886817E+03  3.345027E-11
        40   7 -1.178793E+05  2.472476E+03  1.187063E+04 -8.569615E+02  9.339165E+03 -1.289359E-02
        40   8 -1.183966E+05 -6.332491E+01  6.430486E+03 -1.915148E+02  6.112961E+03 -1.886073E-03
        40   9 -1.178796E+05 -1.428436E+02  3.705114E+03  4.739234E+02  2.886817E+03  2.204101E-03
        40  10 -1.178794E+05  2.472452E+03  1.187046E+04  8.569615E+02 -9.273031E-10  4.741693E-10
        40  11 -1.183966E+05 -6.333495E+01  6.430416E+03  1.915148E+02 -2.865692E-09  2.435524E-10
        40  12 -1.178797E+05 -1.428458E+02  3.705098E+03 -4.739234E+02 -6.732368E-11 -5.604449E-10
        40  13 -1.178794E+05  2.472451E+03  1.187046E+04  2.712468E-09 -2.103273E-12  1.442661E-10
        40  14 -1.183966E+05 -6.333502E+01  6.430416E+03 -6.234996E-09  1.615393E-09 -7.816019E-12
        40  15 -1.178797E+05 -1.428462E+02  3.705098E+03 -8.722009E-09  6.938003E-10 -1.446581E-10
        40  16 -1.178794E+05  2.472452E+03  1.187046E+04 -8.569615E+02 -7.104755E-10 -1.843853E-10
        40  17 -1.183966E+05 -6.333495E+01  6.430416E+03 -1.915148E+02  1.841839E-10 -2.780472E-10
        40  18 -1.178797E+05 -1.428458E+02  3.705098E+03  4.739234E+02  1.085352E-09  2.838305E-10
        40  19 -1.178793E+05  2.472476E+03  1.187063E+04  8.569615E+02 -9.339165E+03 -1.289359E-02
        40  20 -1.183966E+05 -6.332491E+01  6.430486E+03  1.915148E+02 -6.112961E+03 -1.886072E-03
        40  21 -1.178796E+05 -1.428436E+02  3.705114E+03 -4.739234E+02 -2.886817E+03  2.204100E-03
        40  22 -1.178793E+05  2.472474E+03  1.187063E+04  9.137310E-09 -9.339165E+03  2.749437E-10
        40  23 -1.183966E+05 -6.332498E+01  6.430486E+03  1.949724E-10 -6.112961E+03  4.469727E-10
        40  24 -1.178796E+05 -1.428440E+02  3.705114E+03 -1.337172E-10 -2.886817E+03 -3.220744E-10
        40  25 -1.178793E+05  2.472476E+03  1.187063E+04 -8.569615E+02 -9.339165E+03  1.289359E-02
        40  26 -1.183966E+05 -6.332491E+01  6.430486E+03 -1.915148E+02 -6.112961E+03  1.886073E-03
        40  27 -1.178796E+05 -1.428436E+02  3.705114E+03  4.739234E+02 -2.886817E+03 -2.204101E-03
        41   1 -1.180788E+05  1.068667E+02  2.834209E+03 -5.078576E+01  2.310810E+03 -1.890647E-04
        41   2 -1.181479E+05 -2.287154E+01  1.597438E+03 -5.171284E+01  1.519041E+03 -1.265524E-04
        41   3 -1.180788E+05 -1.248614E+01  9.112610E+02 -5.263994E+01  7.272617E+02 -6.167498E-05
        41   4 -1.180788E+05  1.068667E+02  2.834209E+03  7.813170E-09  2.310810E+03  5.129649E-10
        41   5 -1.181479E+05 -2.287155E+01  1.597438E+03  9.230416E-10  1.519041E+03  6.387254E-10
        41   6 -1.180788E+05 -1.248615E+01  9.112610E+02  4.961519E-10  7.272617E+02  1.113484E-10
        41   7 -1.180788E+05  1.068667E+02  2.834209E+03  5.078576E+01  2.310810E+03  1.890657E-04
        41   8 -1.181479E+05 -2.287154E+01  1.597438E+03  5.171284E+01  1.519041E+03  1.265537E-04
        41   9 -1.180788E+05 -1.248614E+01  9.112610E+02  5.263994E+01  7.272617E+02  6.167521E-05
        41  10 -1.180788E+05  1.068653E+02  2.834199E+03 -5.078576E+01  4.785739E-10 -7.452153E-10
        41  11 -1.181479E+05 -2.287216E+01  1.597434E+03 -5.171284E+01  2.233687E-09 -1.559498E-10
        41  12 -1.180788E+05 -1.248628E+01  9.112600E+02 -5.263994E+01  1.163878E-09  3.074641E-10
        41  13 -1.180788E+05  1.068653E+02  2.834199E+03 -7.947125E-10  1.083235E-09 -1.780969E-10
        41  14 -1.181479E+05 -2.287217E+01  1.597434E+03 -3.338508E-09 -5.619723E-10 -4.718386E-11
        41  15 -1.180788E+05 -1.248629E+01  9.112600E+02 -1.234463E-08 -2.982760E-09  2.505456E-10
        41  16 -1.180788E+05  1.068653E+02  2.834199E+03  5.078576E+01  3.112067E-11  3.838410E-10
        41  17 -1.181479E+05 -2.287216E+01  1.597434E+03  5.171284E+01 -9.001587E-11  6.615223E-11
        41  18 -1.180788E+05 -1.248628E+01  9.112600E+02  5.263994E+01  1.093589E-09  1.990484E-10
        41  19 -1.180788E+05  1.068667E+02  2.834209E+03 -5.078576E+01 -2.310810E+03  1.890632E-04
        41  20 -1.181479E+05 -2.287154E+01  1.597438E+03 -5.171284E+01 -1.519041E+03  1.265521E-04
        41  21 -1.180788E+05 -1.248614E+01  9.112610E+02 -5.263994E+01 -7.272617E+02  6.167560E-05
        41  22 -1.180788E+05  1.068667E+02  2.834209E+03  7.828945E-09 -2.310810E+03 -8.688654E-10
        41  23 -1.181479E+05 -2.287155E+01  1.597438E+03 -4.369157E-09 -1.519041E+03 -7.331873E-10
        41  24 -1.180788E+05 -1.248615E+01  9.112610E+02 -1.225997E-08 -7.272617E+02  3.906596E-10
        41  25 -1.180788E+05  1.068667E+02  2.834209E+03  5.078576E+01 -2.310810E+03 -1.890650E-04
        41  26 -1.181479E+05 -2.287154E+01  1.597438E+03  5.171284E+01 -1.519041E+03 -1.265536E-04
        41  27 -1.180788E+05 -1.248614E+01  9.112610E+02  5.263994E+01 -7.272617E+02 -6.167485E-05
        42   1 -1.181037E+05 -1.515284E+00  6.861582E+02 -2.770227E+01  5.831574E+02 -2.602634E-05
        42   2 -1.181169E+05 -5.758201E+00  3.762805E+02 -1.937859E+01  3.971548E+02 -1.239977E-05
        42   3 -1.181037E+05 -1.421956E+00  1.896610E+02 -1.105490E+01  2.111523E+02 -3.760213E-06
        42   4 -1.181037E+05 -1.515286E+00  6.861582E+02  1.409126E-08  5.831574E+02 -5.013245E-10
        42   5 -1.181169E+05 -5.758202E+00  3.762805E+02  3.514424E-09  3.971548E+02 -7.510921E-10
        42   6 -1.181037E+05 -1.421956E+00  1.896610E+02  1.820491E-09  2.111523E+02  4.488628E-10
        42   7 -1.181037E+05 -1.515284E+00  6.861582E+02  2.770227E+01  5.831574E+02  2.602534E-05
        42   8 -1.181169E+05 -5.758201E+00  3.762805E+02  1.937859E+01  3.971548E+02  1.239824E-05
        42   9 -1.181037E+05 -1.421956E+00  1.896610E+02  1.105490E+01  2.111523E+02  3.761134E-06
        42  10 -1.181037E+05 -1.515376E+00  6.861575E+02 -2.770227E+01  2.520906E-09  5.921853E-11
        42  11 -1.181169E+05 -5.758243E+00  3.762802E+02 -1.937859E+01  1.006709E-10 -4.103035E-10
        42  12 -1.181037E+05 -1.421968E+00  1.896609E+02 -1.105490E+01 -2.345006E-09  3.596204E-10
        42  13 -1.181037E+05 -1.515377E+00  6.861575E+02  3.103162E-09 -1.040518E-09  2.177502E-11
        42  14 -1.181169E+05 -5.758244E+00  3.762802E+02  1.406456E-09 -1.098281E-09 -3.777638E-10
        42  15 -1.181037E+05 -1.421968E+00  1.896609E+02 -2.899876E-10 -2.556428E-11  4.524160E-10
        42  16 -1.181037E+05 -1.515376E+00  6.861575E+02  2.770227E+01 -9.464960E-10 -1.326812E-11
        42  17 -1.181169E+05 -5.758243E+00  3.762802E+02  1.937859E+01  1.826134E-09 -3.434520E-10
        42  18 -1.181037E+05 -1.421968E+00  1.896609E+02  1.105490E+01  1.925708E-09  5.499651E-10
        42  19 -1.181037E+05 -1.515284E+00  6.861582E+02 -2.770227E+01 -5.831574E+02  2.602646E-05
        42  20 -1.181169E+05 -5.758201E+00  3.762805E+02 -1.937859E+01 -3.971548E+02  1.239897E-05
        42  21 -1.181037E+05 -1.421956E+00  1.896610E+02 -1.105490E+01 -2.111523E+02  3.760939E-06
        42  22 -1.181037E+05 -1.515286E+00  6.861582E+02  2.883633E-09 -5.831574E+02  5.470974E-10
        42  23 -1.181169E+05 -5.758202E+00  3.762805E+02  2.530045E-09 -3.971548E+02 -6.749013E-12
        42  24 -1.181037E+05 -1.421956E+00  1.896610E+02  6.482833E-09 -2.111523E+02  4.527025E-10
        42  25 -1.181037E+05 -1.515284E+00  6.861582E+02  2.770227E+01 -5.831574E+02 -2.602539E-05
        42  26 -1.181169E+05 -5.758201E+00  3.762805E+02  1.937859E+01 -3.971548E+02 -1.239895E-05
        42  27 -1.181037E+05 -1.421956E+00  1.896610E+02  1.105490E+01 -2.111523E+02 -3.760051E-06
        43   1 -1.181095E+05 -1.538529E+00  1.216038E+02 -9.692473E+00  1.829205E+02 -2.855930E-06
        43   2 -1.181096E+05 -1.577410E-01  8.875482E+00 -8.987236E+00  1.785635E+02 -2.586217E-06
        43   3 -1.181095E+05 -3.003913E-02 -1.013300E+02 -8.282009E+00  1.742064E+02 -2.324943E-06
        43   4 -1.181095E+05 -1.538529E+00  1.216038E+02  6.740570E-09  1.829205E+02  5.273086E-10
        43   5 -1.181096E+05 -1.577411E-01  8.875482E+00  4.889668E-09  1.785635E+02 -5.430895E-10
        43   6 -1.181095E+05 -3.003924E-02 -1.013300E+02  5.191429E-09  1.742064E+02 -3.582485E-10
        43   7 -1.181095E+05 -1.538529E+00  1.216038E+02  9.692473E+00  1.829205E+02  2.856996E-06
        43   8 -1.181096E+05 -1.577410E-01  8.875482E+00  8.987236E+00  1.785635E+02  2.585130E-06
        43   9 -1.181095E+05 -3.003909E-02 -1.013300E+02  8.282009E+00  1.742064E+02  2.324210E-06
        43  10 -1.181095E+05 -1.538538E+00  1.216037E+02 -9.692473E+00  9.807524E-10  1.846350E-10
        43  11 -1.181096E+05 -1.577495E-01  8.875422E+00 -8.987236E+00  6.169233E-10 -9.887719E-10
        43  12 -1.181095E+05 -3.004726E-02 -1.013301E+02 -8.282009E+00 -2.047898E-09 -6.203347E-10
        43  13 -1.181095E+05 -1.538538E+00  1.216037E+02  2.064150E-09 -2.109056E-09  3.684664E-10
        43  14 -1.181096E+05 -1.577497E-01  8.875422E+00  5.002117E-10 -4.957747E-10 -6.808809E-10
        43  15 -1.181095E+05 -3.004739E-02 -1.013301E+02  2.165991E-09  6.090472E-10 -3.948258E-10
        43  16 -1.181095E+05 -1.538538E+00  1.216037E+02  9.692473E+00 -9.870621E-10  5.456838E-10
        43  17 -1.181096E+05 -1.577495E-01  8.875422E+00  8.987236E+00  2.110606E-10 -3.712015E-10
        43  18 -1.181095E+05 -3.004726E-02 -1.013301E+02  8.282009E+00 -4.633809E-10 -1.741690E-10
        43  19 -1.181095E+05 -1.538529E+00  1.216038E+02 -9.692473E+00 -1.829205E+02  2.856318E-06
        43  20 -1.181096E+05 -1.577409E-01  8.875482E+00 -8.987236E+00 -1.785635E+02  2.584273E-06
        43  21 -1.181095E+05 -3.003909E-02 -1.013300E+02 -8.282009E+00 -1.742064E+02  2.323700E-06
        43  22 -1.181095E+05 -1.538529E+00  1.216038E+02  1.031264E-08 -1.829205E+02  2.113342E-10
        43  23 -1.181096E+05 -1.577411E-01  8.875482E+00  5.801879E-09 -1.785635E+02 -8.112964E-10
        43  24 -1.181095E+05 -3.003922E-02 -1.013300E+02  5.599331E-09 -1.742064E+02 -4.317485E-10
        43  25 -1.181095E+05 -1.538529E+00  1.216038E+02  9.692473E+00 -1.829205E+02 -2.855899E-06
        43  26 -1.181096E+05 -1.577409E-01  8.875482E+00  8.987236E+00 -1.785635E+02 -2.585883E-06
        43  27 -1.181095E+05 -3.003910E-02 -1.013300E+02  8.282009E+00 -1.742064E+02 -2.324584E-06
        44   1 -1.181162E+05  2.281896E+00 -1.653902E+02 -1.374550E+01  1.982128E+02 -4.388939E-06
        44   2 -1.181013E+05  4.812840E+00 -3.382168E+02 -1.286570E+01  3.658896E+02 -7.582646E-06
        44   3 -1.181162E+05 -2.427760E+01 -6.281273E+02 -1.198589E+01  5.335688E+02 -1.030291E-05
        44   4 -1.181162E+05  2.281896E+00 -1.653902E+02  3.853460E-09  1.982128E+02  6.413685E-10
        44   5 -1.181013E+05  4.812840E+00 -3.382168E+02  2.522802E-09  3.658896E+02  1.460789E-09
        44   6 -1.181162E+05 -2.427760E+01 -6.281273E+02  2.537246E-09  5.335688E+02 -2.354053E-10
        44   7 -1.181162E+05  2.281896E+00 -1.653902E+02  1.374550E+01  1.982128E+02  4.390234E-06
        44   8 -1.181013E+05  4.812840E+00 -3.382168E+02  1.286570E+01  3.658896E+02  7.585561E-06
        44   9 -1.181162E+05 -2.427760E+01 -6.281273E+02  1.198589E+01  5.335688E+02  1.030242E-05
        44  10 -1.181162E+05  2.281885E+00 -1.653903E+02 -1.374550E+01  1.516222E-09  1.179274E-10
        44  11 -1.181013E+05  4.812804E+00 -3.382170E+02 -1.286570E+01 -8.492924E-10  6.383558E-10
        44  12 -1.181162E+05 -2.427767E+01 -6.281278E+02 -1.198589E+01 -2.325185E-10  1.977901E-10
        44  13 -1.181162E+05  2.281885E+00 -1.653903E+02 -1.591174E-10 -2.191246E-09  4.015178E-10
        44  14 -1.181013E+05  4.812804E+00 -3.382170E+02  3.538993E-09 -2.217834E-09  9.422747E-10
        44  15 -1.181162E+05 -2.427767E+01 -6.281278E+02  5.085099E-09 -2.584915E-10 -1.614808E-10
        44  16 -1.181162E+05  2.281885E+00 -1.653903E+02  1.374550E+01 -3.922858E-10  6.893185E-10
        44  17 -1.181013E+05  4.812804E+00 -3.382170E+02  1.286570E+01 -1.379206E-09  1.243607E-09
        44  18 -1.181162E+05 -2.427767E+01 -6.281278E+02  1.198589E+01  3.548544E-10 -5.159807E-10
        44  19 -1.181162E+05  2.281896E+00 -1.653902E+02 -1.374550E+01 -1.982128E+02  4.389194E-06
        44  20 -1.181013E+05  4.812840E+00 -3.382168E+02 -1.286570E+01 -3.658896E+02  7.583947E-06
        44  21 -1.181162E+05 -2.427760E+01 -6.281273E+02 -1.198589E+01 -5.335688E+02  1.030331E-05
        44  22 -1.181162E+05  2.281896E+00 -1.653902E+02 -2.020610E-09 -1.982128E+02  1.649326E-10
        44  23 -1.181013E+05  4.812840E+00 -3.382168E+02  2.482808E-10 -3.658896E+02  4.219603E-10
        44  24 -1.181162E+05 -2.427760E+01 -6.281273E+02  8.170230E-09 -5.335688E+02 -8.686109E-11
        44  25 -1.181162E+05  2.281896E+00 -1.653902E+02  1.374550E+01 -1.982128E+02 -4.388881E-06
        44  26 -1.181013E+05  4.812840E+00 -3.382168E+02  1.286570E+01 -3.658896E+02 -7.583099E-06
        44  27 -1.181162E+05 -2.427760E+01 -6.281273E+02  1.198589E+01 -5.335688E+02 -1.030349E-05
        45   1 -1.181615E+05  3.219341E+01 -8.285192E+02 -1.077315E+02  6.618021E+02 -1.148617E-04
        45   2 -1.180447E+05  1.424768E+01 -1.449767E+03  4.305504E+01  1.389212E+03  9.636045E-05
        45   3 -1.181616E+05 -5.596568E+02 -2.683645E+03  1.938417E+02  2.116622E+03  6.609889E-04
        45   4 -1.181615E+05  3.219339E+01 -8.285192E+02  4.669631E-09  6.618021E+02 -6.285935E-10
        45   5 -1.180447E+05  1.424768E+01 -1.449767E+03  6.186058E-09  1.389212E+03  2.692117E-10
        45   6 -1.181616E+05 -5.596568E+02 -2.683645E+03  4.471842E-09  2.116622E+03 -4.703313E-10
        45   7 -1.181615E+05  3.219341E+01 -8.285192E+02  1.077315E+02  6.618021E+02  1.148605E-04
        45   8 -1.180447E+05  1.424768E+01 -1.449767E+03 -4.305504E+01  1.389212E+03 -9.635997E-05
        45   9 -1.181616E+05 -5.596568E+02 -2.683645E+03 -1.938417E+02  2.116622E+03 -6.609898E-04
        45  10 -1.181615E+05  3.219330E+01 -8.285200E+02 -1.077315E+02 -2.481021E-09  9.699554E-11
        45  11 -1.180447E+05  1.424717E+01 -1.449771E+03  4.305504E+01 -1.757530E-09  3.072680E-10
        45  12 -1.181616E+05 -5.596580E+02 -2.683653E+03  1.938417E+02 -1.417280E-09 -2.306714E-10
        45  13 -1.181615E+05  3.219327E+01 -8.285200E+02  7.026837E-09  3.154896E-12 -4.810857E-10
        45  14 -1.180447E+05  1.424716E+01 -1.449771E+03  6.225494E-09 -1.098201E-09  8.401451E-11
        45  15 -1.181616E+05 -5.596580E+02 -2.683653E+03 -4.269216E-09 -1.867600E-09 -1.111299E-10
        45  16 -1.181615E+05  3.219330E+01 -8.285200E+02  1.077315E+02  8.215016E-10 -1.057168E-09
        45  17 -1.180447E+05  1.424717E+01 -1.449771E+03 -4.305504E+01 -1.204005E-09 -1.333323E-10
        45  18 -1.181616E+05 -5.596580E+02 -2.683653E+03 -1.938417E+02 -3.427380E-10  9.288303E-12
        45  19 -1.181615E+05  3.219341E+01 -8.285192E+02 -1.077315E+02 -6.618021E+02  1.148619E-04
        45  20 -1.180447E+05  1.424768E+01 -1.449767E+03  4.305504E+01 -1.389212E+03 -9.635989E-05
        45  21 -1.181616E+05 -5.596568E+02 -2.683645E+03  1.938417E+02 -2.116622E+03 -6.609894E-04
        45  22 -1.181615E+05  3.219339E+01 -8.285192E+02  7.691828E-10 -6.618021E+02 -3.350205E-10
        45  23 -1.180447E+05  1.424768E+01 -1.449767E+03  4.111083E-09 -1.389212E+03 -9.851406E-11
        45  24 -1.181616E+05 -5.596568E+02 -2.683645E+03 -8.259099E-11 -2.116622E+03  2.469842E-10
        45  25 -1.181615E+05  3.219341E+01 -8.285192E+02  1.077315E+02 -6.618021E+02 -1.148626E-04
        45  26 -1.180447E+05  1.424768E+01 -1.449767E+03 -4.305504E+01 -1.389212E+03  9.635967E-05
        45  27 -1.181616E+05 -5.596568E+02 -2.683645E+03 -1.938417E+02 -2.116622E+03  6.609898E-04
        46   1 -1.187515E+05  5.060184E+02 -3.383567E+03 -1.508155E+03  2.594086E+03 -6.302822E-03
        46   2 -1.173074E+05 -6.063989E+01 -5.786733E+03  1.800536E+03  5.656866E+03  1.640896E-02
        46   3 -1.187521E+05 -1.058680E+04 -1.267404E+04  5.109167E+03  8.719601E+03  7.177127E-02
        46   4 -1.187515E+05  5.060141E+02 -3.383568E+03  1.041576E-08  2.594086E+03 -8.181421E-10
        46   5 -1.173074E+05 -6.064598E+01 -5.786734E+03  2.235352E-09  5.656866E+03 -3.513782E-10
        46   6 -1.187522E+05 -1.058685E+04 -1.267405E+04  3.208517E-09  8.719601E+03 -6.398435E-11
        46   7 -1.187515E+05  5.060184E+02 -3.383567E+03  1.508155E+03  2.594086E+03  6.302821E-03
        46   8 -1.173074E+05 -6.063989E+01 -5.786733E+03 -1.800536E+03  5.656866E+03 -1.640896E-02
        46   9 -1.187521E+05 -1.058680E+04 -1.267404E+04 -5.109167E+03  8.719601E+03 -7.177127E-02
        46  10 -1.187515E+05  5.060166E+02 -3.383580E+03 -1.508155E+03 -5.313190E-10 -3.855062E-10
        46  11 -1.173074E+05 -6.064848E+01 -5.786793E+03  1.800536E+03  1.728077E-10 -5.948423E-11
        46  12 -1.187522E+05 -1.058682E+04 -1.267418E+04  5.109167E+03 -2.814532E-10  2.782939E-11
        46  13 -1.187515E+05  5.060123E+02 -3.383581E+03  3.957767E-09 -3.145760E-09 -3.102651E-10
        46  14 -1.173074E+05 -6.065457E+01 -5.786794E+03  2.261644E-09 -5.384591E-10 -2.391620E-10
        46  15 -1.187522E+05 -1.058687E+04 -1.267419E+04 -3.742423E-09  1.225167E-09 -6.866921E-11
        46  16 -1.187515E+05  5.060166E+02 -3.383580E+03  1.508155E+03 -5.193553E-10 -2.310914E-10
        46  17 -1.173074E+05 -6.064848E+01 -5.786793E+03 -1.800536E+03 -6.797864E-10 -4.177736E-10
        46  18 -1.187522E+05 -1.058682E+04 -1.267418E+04 -5.109167E+03  1.168649E-09 -1.646601E-10
        46  19 -1.187515E+05  5.060184E+02 -3.383567E+03 -1.508155E+03 -2.594086E+03  6.302822E-03
        46  20 -1.173074E+05 -6.063989E+01 -5.786733E+03  1.800536E+03 -5.656866E+03 -1.640896E-02
        46  21 -1.187521E+05 -1.058680E+04 -1.267404E+04  5.109167E+03 -8.719601E+03 -7.177127E-02
        46  22 -1.187515E+05  5.060141E+02 -3.383568E+03  1.042352E-08 -2.594086E+03  1.993543E-10
        46  23 -1.173074E+05 -6.064598E+01 -5.786734E+03  1.338212E-10 -5.656866E+03 -1.295960E-10
        46  24 -1.187522E+05 -1.058685E+04 -1.267405E+04  3.304611E-09 -8.719601E+03 -7.257697E-11
        46  25 -1.187515E+05  5.060184E+02 -3.383567E+03  1.508155E+03 -2.594086E+03 -6.302821E-03
        46  26 -1.173074E+05 -6.063989E+01 -5.786733E+03 -1.800536E+03 -5.656866E+03  1.640896E-02
        46  27 -1.187521E+05 -1.058680E+04 -1.267404E+04 -5.109167E+03 -8.719601E+03  7.177127E-02
        47   1  2.573827E+05  7.208915E+05  2.603112E+05 -1.159198E+05  1.073434E+04  6.286726E+04
        47   2  1.774583E+05  5.654994E+05  1.847665E+05 -7.415495E+04  3.239529E+04  2.841120E+04
        47   3  1.393497E+05  4.251857E+05  1.421172E+05 -9.097752E+04  3.038572E+04 -6.040773E+03
        47   4  4.002128E+04 -1.540785E+05  4.819708E+04 -9.631666E+04  1.074481E+04  3.147119E+04
        47   5  1.571005E+02 -1.596624E+05  2.327212E+04 -6.703014E+04  3.240249E+04  1.920903E+04
        47   6 -1.713850E+03 -1.540192E+05  1.585807E+04 -9.633202E+04  3.037863E+04  6.942498E+03
        47   7 -1.773943E+05 -1.028347E+06 -1.639684E+05 -7.674107E+04  1.075331E+04  1.191665E+02
        47   8 -1.771796E+05 -8.843338E+05 -1.382548E+05 -5.991367E+04  3.240948E+04  1.001749E+04
        47   9 -1.427995E+05 -7.329094E+05 -1.104205E+05 -1.016814E+05  3.037132E+04  1.991381E+04
        47  10  2.573815E+05  7.208872E+05  2.603036E+05 -1.159204E+05  1.132816E-10 -1.038081E-09
        47  11  1.774570E+05  5.654983E+05  1.847630E+05 -7.415569E+04  1.023111E-09  6.977278E-09
        47  12  1.393487E+05  4.251854E+05  1.421154E+05 -9.097737E+04 -1.670435E-09  1.326891E-08
        47  13  4.002089E+04 -1.540796E+05  4.819501E+04 -9.631693E+04  1.481839E-10  4.103981E-11
        47  14  1.558740E+02 -1.596631E+05  2.326945E+04 -6.703065E+04  2.900827E-09  2.013400E-10
        47  15 -1.714854E+03 -1.540195E+05  1.585625E+04 -9.633219E+04  8.637989E-10  1.678435E-10
        47  16 -1.773945E+05 -1.028347E+06 -1.639686E+05 -7.674107E+04  6.827395E-10  1.053028E-09
        47  17 -1.771807E+05 -8.843342E+05 -1.382570E+05 -5.991393E+04 -2.961733E-10 -7.284895E-09
        47  18 -1.428006E+05 -7.329100E+05 -1.104230E+05 -1.016819E+05 -5.689758E-10 -1.366212E-08
        47  19  2.573827E+05  7.208915E+05  2.603112E+05 -1.159198E+05 -1.073434E+04 -6.286726E+04
        47  20  1.774583E+05  5.654994E+05  1.847665E+05 -7.415495E+04 -3.239529E+04 -2.841120E+04
        47  21  1.393497E+05  4.251857E+05  1.421172E+05 -9.097752E+04 -3.038572E+04  6.040773E+03
        47  22  4.002128E+04 -1.540785E+05  4.819708E+04 -9.631666E+04 -1.074481E+04 -3.147119E+04
        47  23  1.571005E+02 -1.596624E+05  2.327212E+04 -6.703014E+04 -3.240249E+04 -1.920903E+04
        47  24 -1.713850E+03 -1.540192E+05  1.585807E+04 -9.633202E+04 -3.037863E+04 -6.942498E+03
        47  25 -1.773943E+05 -1.028347E+06 -1.639684E+05 -7.674107E+04 -1.075331E+04 -1.191665E+02
        47  26 -1.771796E+05 -8.843338E+05 -1.382548E+05 -5.991367E+04 -3.240948E+04 -1.001749E+04
        47  27 -1.427995E+05 -7.329094E+05 -1.104205E+05 -1.016814E+05 -3.037132E+04 -1.991381E+04
        48   1  1.141026E+05  3.036496E+05  1.149194E+05 -9.812382E+04  2.342436E+04 -1.777016E+03
        48   2  7.593824E+04  1.548337E+05  8.088303E+04 -6.686683E+04  1.637163E+04 -8.917644E+03
        48   3  4.297367E+04  8.191435E+03  5.277486E+04 -9.527105E+04  8.606940E+03 -1.606019E+04
        48   4  2.045780E+03 -1.560331E+05  1.428428E+04 -9.656654E+04  2.342055E+04  4.496462E+03
        48   5 -3.452185E+01 -1.570383E+05  1.288802E+04 -6.673476E+04  1.636608E+04 -1.974785E+03
        48   6  2.971641E+03 -1.560057E+05  1.695805E+04 -9.656572E+04  8.599436E+03 -8.449601E+03
        48   7 -1.100251E+05 -6.155179E+05 -8.636354E+04 -9.501037E+04  2.341677E+04  1.076535E+04
        48   8 -7.601373E+04 -4.688191E+05 -5.511267E+04 -6.660274E+04  1.636053E+04  4.964631E+03
        48   9 -3.703214E+04 -3.201775E+05 -1.886017E+04 -9.786002E+04  8.591900E+03 -8.409955E+02
        48  10  1.141020E+05  3.036495E+05  1.149184E+05 -9.812379E+04 -5.114891E-10 -1.252814E-08
        48  11  7.593793E+04  1.548336E+05  8.088238E+04 -6.686671E+04  2.948919E-09 -9.488475E-09
        48  12  4.297352E+04  8.191138E+03  5.277423E+04 -9.527094E+04  1.945846E-09 -3.158304E-10
        48  13  2.045185E+03 -1.560333E+05  1.428321E+04 -9.656662E+04 -1.968616E-10  3.666547E-10
        48  14 -3.481049E+01 -1.570384E+05  1.288751E+04 -6.673474E+04 -3.471367E-09  4.582278E-10
        48  15  2.971543E+03 -1.560058E+05  1.695777E+04 -9.656566E+04  1.634040E-09  3.110108E-10
        48  16 -1.100258E+05 -6.155182E+05 -8.636479E+04 -9.501057E+04 -8.078242E-10  1.253319E-08
        48  17 -7.601402E+04 -4.688192E+05 -5.511322E+04 -6.660281E+04  1.587466E-09  8.784531E-09
        48  18 -3.703222E+04 -3.201775E+05 -1.886031E+04 -9.786002E+04  1.429227E-09 -3.464780E-10
        48  19  1.141026E+05  3.036496E+05  1.149194E+05 -9.812382E+04 -2.342436E+04  1.777016E+03
        48  20  7.593824E+04  1.548337E+05  8.088303E+04 -6.686683E+04 -1.637163E+04  8.917644E+03
        48  21  4.297367E+04  8.191435E+03  5.277486E+04 -9.527105E+04 -8.606940E+03  1.606019E+04
        48  22  2.045780E+03 -1.560331E+05  1.428428E+04 -9.656654E+04 -2.342055E+04 -4.496462E+03
        48  23 -3.452185E+01 -1.570383E+05  1.288802E+04 -6.673476E+04 -1.636608E+04  1.974785E+03
        48  24  2.971641E+03 -1.560057E+05  1.695805E+04 -9.656572E+04 -8.599436E+03  8.449601E+03
        48  25 -1.100251E+05 -6.155179E+05 -8.636354E+04 -9.501037E+04 -2.341677E+04 -1.076535E+04
        48  26 -7.601373E+04 -4.688191E+05 -5.511267E+04 -6.660274E+04 -1.636053E+04 -4.964631E+03
        48  27 -3.703214E+04 -3.201775E+05 -1.886017E+04 -9.786002E+04 -8.591900E+03  8.409955E+02
        49   1  8.563122E+03 -1.080927E+05  2.931783E+04 -1.043384E+05  2.911674E+03 -2.096316E+04
        49   2 -2.471511E+04 -2.627365E+05  7.689155E+03 -5.730844E+04 -3.390831E+03 -3.009308E+04
        49   3 -7.198637E+03 -4.035808E+05  4.678337E+03 -6.962782E+04 -1.872623E+03 -3.921414E+04
        49   4 -2.360632E+03 -1.531113E+05  1.981870E+04 -9.650878E+04  2.901551E+03 -1.139845E+04
        49   5  4.223963E+02 -1.606336E+05  3.114064E+04 -6.681027E+04 -3.392523E+03 -2.785025E+04
        49   6  5.526518E+04 -1.531154E+05  6.616147E+04 -9.645633E+04 -1.865980E+03 -4.429528E+04
        49   7 -1.328424E+04 -1.981276E+05  1.031983E+04 -8.867972E+04  2.891669E+03 -1.834433E+03
        49   8  2.555952E+04 -5.852093E+04  5.459151E+04 -7.631367E+04 -3.394283E+03 -2.560706E+04
        49   9  1.177270E+05  9.740875E+04  1.276405E+05 -1.232957E+05 -1.858900E+03 -4.937847E+04
        49  10  8.562995E+03 -1.080932E+05  2.931698E+04 -1.043384E+05  1.344717E-10  4.587128E-10
        49  11 -2.471537E+04 -2.627374E+05  7.687431E+03 -5.730852E+04  1.893923E-09 -1.877771E-09
        49  12 -7.199054E+03 -4.035824E+05  4.675438E+03 -6.962788E+04 -3.771750E-10 -1.177830E-09
        49  13 -2.360675E+03 -1.531114E+05  1.981844E+04 -9.650876E+04  6.301541E-10  4.635684E-10
        49  14  4.221757E+02 -1.606345E+05  3.113916E+04 -6.681034E+04 -1.693430E-10  4.780342E-10
        49  15  5.526465E+04 -1.531175E+05  6.615778E+04 -9.645640E+04  1.553978E-09  2.659850E-10
        49  16 -1.328425E+04 -1.981276E+05  1.031981E+04 -8.867972E+04  5.882363E-10 -4.322736E-10
        49  17  2.555933E+04 -5.852164E+04  5.459025E+04 -7.631374E+04  5.928398E-10  1.133020E-09
        49  18  1.177264E+05  9.740613E+04  1.276359E+05 -1.232958E+05 -2.945901E-10  5.193786E-10
        49  19  8.563122E+03 -1.080927E+05  2.931783E+04 -1.043384E+05 -2.911674E+03  2.096316E+04
        49  20 -2.471511E+04 -2.627365E+05  7.689155E+03 -5.730844E+04  3.390831E+03  3.009308E+04
        49  21 -7.198637E+03 -4.035808E+05  4.678337E+03 -6.962782E+04  1.872623E+03  3.921414E+04
        49  22 -2.360632E+03 -1.531113E+05  1.981870E+04 -9.650878E+04 -2.901551E+03  1.139845E+04
        49  23  4.223963E+02 -1.606336E+05  3.114064E+04 -6.681027E+04  3.392523E+03  2.785025E+04
        49  24  5.526518E+04 -1.531154E+05  6.616147E+04 -9.645633E+04  1.865980E+03  4.429528E+04
        49  25 -1.328424E+04 -1.981276E+05  1.031983E+04 -8.867972E+04 -2.891669E+03  1.834433E+03
        49  26  2.555952E+04 -5.852093E+04  5.459151E+04 -7.631367E+04  3.394283E+03  2.560706E+04
        49  27  1.177270E+05  9.740875E+04  1.276405E+05 -1.232957E+05  1.858900E+03  4.937847E+04
        50   1 -5.599125E+05 -1.418634E+05 -5.788285E+04 -2.136317E+05 -2.525020E+04 -8.110867E+03
        50   2 -5.453823E+05 -1.022180E+05 -3.298855E+04 -2.085231E+05 -1.594399E+04 -1.915176E+03
        50   3 -5.371527E+05 -9.291808E+04 -2.269698E+04 -2.023131E+05 -5.640971E+03  1.622937E+03
        50   4 -4.782461E+05 -9.934801E+04 -3.377616E+04 -1.792352E+05 -2.201032E+04 -6.896605E+03
        50   5 -4.734965E+05 -7.141163E+04 -1.466450E+04 -1.846566E+05 -1.503067E+04 -1.572898E+03
        50   6 -4.745850E+05 -7.335807E+04 -8.310156E+03 -1.889773E+05 -7.054387E+03  1.093046E+03
        50   7 -3.965741E+05 -5.683082E+04 -9.670432E+03 -1.448345E+05 -1.877003E+04 -5.682031E+03
        50   8 -4.016059E+05 -4.060457E+04  3.659045E+03 -1.607876E+05 -1.411725E+04 -1.230563E+03
        50   9 -4.120131E+05 -5.379790E+04  6.076545E+03 -1.756403E+05 -8.467970E+03  5.631139E+02
        50  10 -5.599132E+05 -1.418636E+05 -5.788418E+04 -2.136319E+05  9.428384E-10 -8.955909E-11
        50  11 -5.453826E+05 -1.022180E+05 -3.298903E+04 -2.085231E+05 -1.564461E-09 -1.666888E-09
        50  12 -5.371527E+05 -9.291809E+04 -2.269705E+04 -2.023131E+05 -3.269034E-09 -8.194509E-10
        50  13 -4.782466E+05 -9.934819E+04 -3.377716E+04 -1.792353E+05  2.337698E-09 -7.514133E-10
        50  14 -4.734967E+05 -7.141169E+04 -1.466493E+04 -1.846566E+05 -1.151344E-09 -1.647507E-09
        50  15 -4.745851E+05 -7.335809E+04 -8.310252E+03 -1.889773E+05  1.044529E-09  1.072270E-10
        50  16 -3.965745E+05 -5.683095E+04 -9.671156E+03 -1.448346E+05 -1.486796E-09 -1.325412E-09
        50  17 -4.016061E+05 -4.060463E+04  3.658667E+03 -1.607876E+05 -2.430247E-10 -1.430926E-09
        50  18 -4.120131E+05 -5.379792E+04  6.076409E+03 -1.756403E+05  1.004408E-09  8.062347E-10
        50  19 -5.599125E+05 -1.418634E+05 -5.788285E+04 -2.136317E+05  2.525020E+04  8.110867E+03
        50  20 -5.453823E+05 -1.022180E+05 -3.298855E+04 -2.085231E+05  1.594399E+04  1.915176E+03
        50  21 -5.371527E+05 -9.291808E+04 -2.269698E+04 -2.023131E+05  5.640971E+03 -1.622937E+03
        50  22 -4.782461E+05 -9.934801E+04 -3.377616E+04 -1.792352E+05  2.201032E+04  6.896605E+03
        50  23 -4.734965E+05 -7.141163E+04 -1.466450E+04 -1.846566E+05  1.503067E+04  1.572898E+03
        50  24 -4.745850E+05 -7.335807E+04 -8.310156E+03 -1.889773E+05  7.054387E+03 -1.093046E+03
        50  25 -3.965741E+05 -5.683082E+04 -9.670432E+03 -1.448345E+05  1.877003E+04  5.682031E+03
        50  26 -4.016059E+05 -4.060457E+04  3.659045E+03 -1.607876E+05  1.411725E+04  1.230563E+03
        50  27 -4.120131E+05 -5.379790E+04  6.076545E+03 -1.756403E+05  8.467970E+03 -5.631139E+02
        51   1 -5.202584E+05 -9.376940E+04 -1.796193E+04 -2.008105E+05 -5.083890E+03  9.390876E+02
        51   2 -5.072314E+05 -8.392874E+04 -1.107721E+04 -1.940472E+05 -2.972778E+03  8.559725E+02
        51   3 -4.902702E+05 -8.040464E+04 -5.969957E+03 -1.923999E+05 -8.168971E+02  6.534520E+02
        51   4 -4.734989E+05 -7.586473E+04 -6.580732E+03 -1.874539E+05 -5.703376E+03  7.068251E+02
        51   5 -4.753692E+05 -7.195972E+04 -3.385819E+03 -1.851795E+05 -3.696697E+03  5.845807E+02
        51   6 -4.732850E+05 -7.435042E+04 -1.885442E+03 -1.880211E+05 -1.645321E+03  3.429128E+02
        51   7 -4.267371E+05 -5.795981E+04  4.800339E+03 -1.740964E+05 -6.322915E+03  4.745415E+02
        51   8 -4.435063E+05 -5.999073E+04  4.305429E+03 -1.763115E+05 -4.420652E+03  3.131756E+02
        51   9 -4.562998E+05 -6.829632E+04  2.198963E+03 -1.836423E+05 -2.473753E+03  3.237124E+01
        51  10 -5.202585E+05 -9.376941E+04 -1.796198E+04 -2.008105E+05 -1.018183E-09  1.128555E-09
        51  11 -5.072314E+05 -8.392874E+04 -1.107723E+04 -1.940472E+05 -1.043457E-09 -3.037468E-10
        51  12 -4.902702E+05 -8.040464E+04 -5.969959E+03 -1.923999E+05 -1.591387E-09 -5.470988E-10
        51  13 -4.734989E+05 -7.586474E+04 -6.580794E+03 -1.874539E+05 -1.262319E-09  4.098470E-10
        51  14 -4.753692E+05 -7.195973E+04 -3.385845E+03 -1.851795E+05 -1.827050E-09 -2.781710E-10
        51  15 -4.732850E+05 -7.435043E+04 -1.885447E+03 -1.880211E+05  9.239372E-10 -2.466582E-11
        51  16 -4.267371E+05 -5.795982E+04  4.800264E+03 -1.740964E+05 -2.082917E-09 -4.155985E-10
        51  17 -4.435064E+05 -5.999074E+04  4.305392E+03 -1.763115E+05  8.615566E-10 -6.602886E-10
        51  18 -4.562998E+05 -6.829632E+04  2.198951E+03 -1.836423E+05  2.164407E-09  7.503970E-10
        51  19 -5.202584E+05 -9.376940E+04 -1.796193E+04 -2.008105E+05  5.083890E+03 -9.390876E+02
        51  20 -5.072314E+05 -8.392874E+04 -1.107721E+04 -1.940472E+05  2.972778E+03 -8.559725E+02
        51  21 -4.902702E+05 -8.040464E+04 -5.969957E+03 -1.923999E+05  8.168971E+02 -6.534520E+02
        51  22 -4.734989E+05 -7.586473E+04 -6.580732E+03 -1.874539E+05  5.703376E+03 -7.068251E+02
        51  23 -4.753692E+05 -7.195972E+04 -3.385819E+03 -1.851795E+05  3.696697E+03 -5.845807E+02
        51  24 -4.732850E+05 -7.435042E+04 -1.885442E+03 -1.880211E+05  1.645321E+03 -3.429128E+02
        51  25 -4.267371E+05 -5.795981E+04  4.800339E+03 -1.740964E+05  6.322915E+03 -4.745415E+02
        51  26 -4.435063E+05 -5.999073E+04  4.305429E+03 -1.763115E+05  4.420652E+03 -3.131756E+02
        51  27 -4.562998E+05 -6.829632E+04  2.198963E+03 -1.836423E+05  2.473753E+03 -3.237124E+01
        52   1 -4.772685E+05 -7.598728E+04 -2.367092E+03 -1.890327E+05 -3.822933E+02  1.963713E+02
        52   2 -4.644203E+05 -6.788311E+04  1.875539E+03 -1.821531E+05  3.588591E+02 -5.613706E+02
        52   3 -4.469029E+05 -6.463498E+04  5.794833E+03 -1.807193E+05  1.101869E+03 -1.323926E+03
        52   4 -4.731908E+05 -7.449070E+04 -1.437754E+03 -1.879219E+05 -1.175407E+03 -1.009274E+02
        52   5 -4.755201E+05 -7.202349E+04 -7.927719E+02 -1.852137E+05 -4.384920E+02 -8.602731E+02
        52   6 -4.731795E+05 -7.441163E+04 -4.677903E+02 -1.879514E+05  3.002680E+02 -1.624435E+03
        52   7 -4.691131E+05 -7.299410E+04 -5.083964E+02 -1.868111E+05 -1.968539E+03 -3.982332E+02
        52   8 -4.866198E+05 -7.616392E+04 -3.461133E+03 -1.882742E+05 -1.235839E+03 -1.159174E+03
        52   9 -4.994556E+05 -8.418835E+04 -6.730546E+03 -1.951834E+05 -5.013053E+02 -1.924933E+03
        52  10 -4.772685E+05 -7.598728E+04 -2.367092E+03 -1.890327E+05  8.311330E-10  5.444102E-10
        52  11 -4.644203E+05 -6.788311E+04  1.875539E+03 -1.821531E+05 -1.944382E-09  5.231525E-10
        52  12 -4.469029E+05 -6.463499E+04  5.794828E+03 -1.807193E+05 -2.389071E-09  7.457717E-10
        52  13 -4.731908E+05 -7.449070E+04 -1.437757E+03 -1.879219E+05 -1.346796E-10  3.954008E-10
        52  14 -4.755201E+05 -7.202349E+04 -7.927737E+02 -1.852137E+05  1.450538E-09  1.036549E-10
        52  15 -4.731795E+05 -7.441164E+04 -4.677954E+02 -1.879514E+05  9.058589E-10  5.311829E-10
        52  16 -4.691131E+05 -7.299410E+04 -5.084040E+02 -1.868111E+05  1.656358E-09  2.860681E-10
        52  17 -4.866198E+05 -7.616392E+04 -3.461139E+03 -1.882742E+05 -1.210988E-09 -1.645852E-10
        52  18 -4.994556E+05 -8.418835E+04 -6.730553E+03 -1.951834E+05  2.533197E-09  5.238878E-10
        52  19 -4.772685E+05 -7.598728E+04 -2.367092E+03 -1.890327E+05  3.822933E+02 -1.963713E+02
        52  20 -4.644203E+05 -6.788311E+04  1.875539E+03 -1.821531E+05 -3.588591E+02  5.613706E+02
        52  21 -4.469029E+05 -6.463498E+04  5.794833E+03 -1.807193E+05 -1.101869E+03  1.323926E+03
        52  22 -4.731908E+05 -7.449070E+04 -1.437754E+03 -1.879219E+05  1.175407E+03  1.009274E+02
        52  23 -4.755201E+05 -7.202349E+04 -7.927719E+02 -1.852137E+05  4.384920E+02  8.602731E+02
        52  24 -4.731795E+05 -7.441163E+04 -4.677903E+02 -1.879514E+05 -3.002680E+02  1.624435E+03
        52  25 -4.691131E+05 -7.299410E+04 -5.083964E+02 -1.868111E+05  1.968539E+03  3.982332E+02
        52  26 -4.866198E+05 -7.616392E+04 -3.461133E+03 -1.882742E+05  1.235839E+03  1.159174E+03
        52  27 -4.994556E+05 -8.418835E+04 -6.730546E+03 -1.951834E+05  5.013053E+02  1.924933E+03
        53   1 -4.341893E+05 -5.991753E+04  9.040270E+03 -1.772507E+05  1.369166E+03 -1.830738E+03
        53   2 -4.213956E+05 -5.192117E+04  1.272362E+04 -1.703737E+05  1.850176E+03 -2.691244E+03
        53   3 -4.038744E+05 -4.868190E+04  1.630191E+04 -1.689428E+05  2.330980E+03 -3.551011E+03
        53   4 -4.731709E+05 -7.441596E+04 -3.768105E+02 -1.879419E+05  5.695621E+02 -2.130509E+03
        53   5 -4.755345E+05 -7.203669E+04 -2.800318E+02 -1.852192E+05  1.051185E+03 -2.990812E+03
        53   6 -4.731709E+05 -7.441448E+04 -2.887633E+02 -1.879425E+05  1.532604E+03 -3.850383E+03
        53   7 -5.121503E+05 -8.891399E+04 -9.793789E+03 -1.986323E+05 -2.299715E+02 -2.430253E+03
        53   8 -5.296702E+05 -9.215188E+04 -1.328381E+04 -2.000634E+05  2.522753E+02 -3.290350E+03
        53   9 -5.424633E+05 -1.001469E+05 -1.687993E+04 -2.069404E+05  7.343174E+02 -4.149720E+03
        53  10 -4.341893E+05 -5.991753E+04  9.040260E+03 -1.772507E+05 -1.302030E-09  8.802132E-10
        53  11 -4.213956E+05 -5.192117E+04  1.272360E+04 -1.703737E+05  4.703168E-09  1.079589E-09
        53  12 -4.038744E+05 -4.868191E+04  1.630187E+04 -1.689428E+05  2.030529E-09 -5.696846E-10
        53  13 -4.731709E+05 -7.441596E+04 -3.768196E+02 -1.879419E+05  1.590350E-09  8.142873E-10
        53  14 -4.755345E+05 -7.203670E+04 -2.800507E+02 -1.852192E+05  2.857092E-09  6.844389E-10
        53  15 -4.731709E+05 -7.441449E+04 -2.887956E+02 -1.879425E+05 -7.736578E-10 -3.642687E-10
        53  16 -5.121503E+05 -8.891400E+04 -9.793800E+03 -1.986323E+05  3.714767E-09  9.335446E-10
        53  17 -5.296702E+05 -9.215190E+04 -1.328383E+04 -2.000634E+05  4.333463E-09  7.217667E-10
        53  18 -5.424633E+05 -1.001470E+05 -1.687997E+04 -2.069404E+05 -5.496187E-09 -3.531818E-10
        53  19 -4.341893E+05 -5.991753E+04  9.040270E+03 -1.772507E+05 -1.369166E+03  1.830738E+03
        53  20 -4.213956E+05 -5.192117E+04  1.272362E+04 -1.703737E+05 -1.850176E+03  2.691244E+03
        53  21 -4.038744E+05 -4.868190E+04  1.630191E+04 -1.689428E+05 -2.330980E+03  3.551011E+03
        53  22 -4.731709E+05 -7.441596E+04 -3.768105E+02 -1.879419E+05 -5.695621E+02  2.130509E+03
        53  23 -4.755345E+05 -7.203669E+04 -2.800318E+02 -1.852192E+05 -1.051185E+03  2.990812E+03
        53  24 -4.731709E+05 -7.441448E+04 -2.887633E+02 -1.879425E+05 -1.532604E+03  3.850383E+03
        53  25 -5.121503E+05 -8.891399E+04 -9.793789E+03 -1.986323E+05  2.299715E+02  2.430253E+03
        53  26 -5.296702E+05 -9.215188E+04 -1.328381E+04 -2.000634E+05 -2.522753E+02  3.290350E+03
        53  27 -5.424633E+05 -1.001469E+05 -1.687993E+04 -2.069404E+05 -7.343174E+02  4.149720E+03
        54   1 -3.912218E+05 -4.395865E+04  1.940768E+04 -1.654775E+05  2.580044E+03 -4.062306E+03
        54   2 -3.784800E+05 -3.600001E+04  2.279932E+04 -1.586303E+05  3.171410E+03 -4.877302E+03
        54   3 -3.610480E+05 -3.278741E+04  2.600108E+04 -1.572060E+05  3.762009E+03 -5.689891E+03
        54   4 -4.731795E+05 -7.441012E+04 -3.292004E+02 -1.879384E+05  1.782827E+03 -4.361272E+03
        54   5 -4.755256E+05 -7.204146E+04 -5.068687E+02 -1.852254E+05  2.376240E+03 -5.175561E+03
        54   6 -4.731819E+05 -7.441932E+04 -8.760205E+02 -1.879354E+05  2.968876E+03 -5.987442E+03
        54   7 -5.551306E+05 -1.048611E+05 -2.006656E+04 -2.103965E+05  9.857258E+02 -4.660196E+03
        54   8 -5.725615E+05 -1.080822E+05 -2.381367E+04 -2.118167E+05  1.581207E+03 -5.473768E+03
        54   9 -5.853028E+05 -1.160501E+05 -2.775387E+04 -2.186597E+05  2.175903E+03 -6.284933E+03
        54  10 -3.912218E+05 -4.395867E+04  1.940763E+04 -1.654775E+05 -2.645438E-09 -1.412214E-09
        54  11 -3.784800E+05 -3.600004E+04  2.279926E+04 -1.586303E+05  1.237455E-09 -1.683665E-10
        54  12 -3.610480E+05 -3.278745E+04  2.600099E+04 -1.572059E+05 -3.140471E-09  3.583433E-10
        54  13 -4.731795E+05 -7.441014E+04 -3.292421E+02 -1.879384E+05 -1.834107E-09 -9.127544E-10
        54  14 -4.755256E+05 -7.204149E+04 -5.069296E+02 -1.852254E+05  6.630811E-10 -4.019469E-10
        54  15 -4.731820E+05 -7.441936E+04 -8.761044E+02 -1.879354E+05  2.047106E-09  5.558627E-10
        54  16 -5.551306E+05 -1.048611E+05 -2.006661E+04 -2.103965E+05 -4.129059E-09 -1.980740E-10
        54  17 -5.725616E+05 -1.080822E+05 -2.381373E+04 -2.118166E+05 -3.341840E-10 -4.749344E-10
        54  18 -5.853028E+05 -1.160502E+05 -2.775396E+04 -2.186597E+05  7.559629E-10  6.930969E-10
        54  19 -3.912218E+05 -4.395865E+04  1.940768E+04 -1.654775E+05 -2.580044E+03  4.062306E+03
        54  20 -3.784800E+05 -3.600001E+04  2.279932E+04 -1.586303E+05 -3.171410E+03  4.877302E+03
        54  21 -3.610480E+05 -3.278741E+04  2.600108E+04 -1.572060E+05 -3.762009E+03  5.689891E+03
        54  22 -4.731795E+05 -7.441012E+04 -3.292004E+02 -1.879384E+05 -1.782827E+03  4.361272E+03
        54  23 -4.755256E+05 -7.204146E+04 -5.068687E+02 -1.852254E+05 -2.376240E+03  5.175561E+03
        54  24 -4.731819E+05 -7.441932E+04 -8.760205E+02 -1.879354E+05 -2.968876E+03  5.987442E+03
        54  25 -5.551306E+05 -1.048611E+05 -2.006656E+04 -2.103965E+05 -9.857258E+02  4.660196E+03
        54  26 -5.725615E+05 -1.080822E+05 -2.381367E+04 -2.118167E+05 -1.581207E+03  5.473768E+03
        54  27 -5.853028E+05 -1.160501E+05 -2.775387E+04 -2.186597E+05 -2.175903E+03  6.284933E+03
        55   1 -3.484711E+05 -2.809780E+04  2.885129E+04 -1.538054E+05  4.129880E+03 -6.154430E+03
        55   2 -3.357684E+05 -2.015408E+04  3.147882E+04 -1.469550E+05  5.489375E+03 -6.670811E+03
        55   3 -3.185916E+05 -1.716274E+04  3.328190E+04 -1.454591E+05  6.843024E+03 -7.170933E+03
        55   4 -4.732211E+05 -7.439562E+04 -1.153439E+03 -1.879467E+05  3.334567E+03 -6.452844E+03
        55   5 -4.754726E+05 -7.202636E+04 -2.070891E+03 -1.852291E+05  4.708015E+03 -6.964078E+03
        55   6 -4.732534E+05 -7.461258E+04 -3.824079E+03 -1.878661E+05  6.075586E+03 -7.459061E+03
        55   7 -5.979564E+05 -1.206926E+05 -3.115948E+04 -2.220820E+05  2.539424E+03 -6.751194E+03
        55   8 -6.151580E+05 -1.238974E+05 -3.562213E+04 -2.234954E+05  3.926844E+03 -7.257274E+03
        55   9 -6.278915E+05 -1.320608E+05 -4.093180E+04 -2.302636E+05  5.308356E+03 -7.747110E+03
        55  10 -3.484711E+05 -2.809785E+04  2.885118E+04 -1.538054E+05  8.352279E-10  6.329484E-10
        55  11 -3.357684E+05 -2.015414E+04  3.147868E+04 -1.469550E+05  1.557109E-09  6.464342E-11
        55  12 -3.185917E+05 -1.716281E+04  3.328171E+04 -1.454590E+05 -1.536036E-09  3.603175E-10
        55  13 -4.732211E+05 -7.439567E+04 -1.153539E+03 -1.879467E+05 -1.289892E-09  6.019125E-10
        55  14 -4.754727E+05 -7.202642E+04 -2.071024E+03 -1.852290E+05 -9.427415E-10  2.205022E-10
        55  15 -4.732535E+05 -7.461265E+04 -3.824253E+03 -1.878661E+05  6.087695E-10  3.931870E-10
        55  16 -5.979564E+05 -1.206927E+05 -3.115958E+04 -2.220820E+05  2.207342E-10  4.790585E-10
        55  17 -6.151580E+05 -1.238975E+05 -3.562226E+04 -2.234954E+05 -1.591473E-09  3.632908E-10
        55  18 -6.278916E+05 -1.320608E+05 -4.093197E+04 -2.302636E+05  7.651008E-10  3.851356E-10
        55  19 -3.484711E+05 -2.809780E+04  2.885129E+04 -1.538054E+05 -4.129880E+03  6.154430E+03
        55  20 -3.357684E+05 -2.015408E+04  3.147882E+04 -1.469550E+05 -5.489375E+03  6.670811E+03
        55  21 -3.185916E+05 -1.716274E+04  3.328190E+04 -1.454591E+05 -6.843024E+03  7.170933E+03
        55  22 -4.732211E+05 -7.439562E+04 -1.153439E+03 -1.879467E+05 -3.334567E+03  6.452844E+03
        55  23 -4.754726E+05 -7.202636E+04 -2.070891E+03 -1.852291E+05 -4.708015E+03  6.964078E+03
        55  24 -4.732534E+05 -7.461258E+04 -3.824079E+03 -1.878661E+05 -6.075586E+03  7.459061E+03
        55  25 -5.979564E+05 -1.206926E+05 -3.115948E+04 -2.220820E+05 -2.539424E+03  6.751194E+03
        55  26 -6.151580E+05 -1.238974E+05 -3.562213E+04 -2.234954E+05 -3.926844E+03  7.257274E+03
        55  27 -6.278915E+05 -1.320608E+05 -4.093180E+04 -2.302636E+05 -5.308356E+03  7.747110E+03
        56   1 -3.058763E+05 -1.261970E+04  3.515845E+04 -1.428633E+05  7.846456E+03 -7.422796E+03
        56   2 -2.933931E+05 -3.979529E+03  3.467392E+04 -1.349345E+05  1.249214E+04 -6.618416E+03
        56   3 -2.783393E+05 -4.066723E+03  2.986526E+04 -1.314321E+05  1.702367E+04 -5.509059E+03
        56   4 -4.735149E+05 -7.422910E+04 -5.031712E+03 -1.881233E+05  6.991292E+03 -7.743894E+03
        56   5 -4.750611E+05 -7.186897E+04 -9.064873E+03 -1.851487E+05  1.190273E+04 -6.839897E+03
        56   6 -4.740902E+05 -7.828972E+04 -1.763378E+04 -1.866007E+05  1.669993E+04 -5.630930E+03
        56   7 -6.411249E+05 -1.358364E+05 -4.522369E+04 -2.333720E+05  6.136384E+03 -8.064898E+03
        56   8 -6.566963E+05 -1.397560E+05 -5.280608E+04 -2.353496E+05  1.131352E+04 -7.061308E+03
        56   9 -6.698041E+05 -1.525100E+05 -6.513595E+04 -2.417535E+05  1.637629E+04 -5.752759E+03
        56  10 -3.058763E+05 -1.261978E+04  3.515824E+04 -1.428632E+05 -7.145102E-10  4.888498E-10
        56  11 -2.933933E+05 -3.979618E+03  3.467354E+04 -1.349344E+05 -8.059153E-13  3.981503E-10
        56  12 -2.783396E+05 -4.066833E+03  2.986466E+04 -1.314321E+05 -2.808192E-10  4.459992E-11
        56  13 -4.735150E+05 -7.422918E+04 -5.031916E+03 -1.881232E+05  9.940815E-10  1.182674E-10
        56  14 -4.750612E+05 -7.186906E+04 -9.065228E+03 -1.851487E+05 -1.156367E-09 -2.688725E-10
        56  15 -4.740905E+05 -7.828983E+04 -1.763437E+04 -1.866006E+05  6.743459E-10 -3.728545E-11
        56  16 -6.411250E+05 -1.358365E+05 -4.522388E+04 -2.333720E+05  1.156609E-09 -3.137667E-10
        56  17 -6.566965E+05 -1.397561E+05 -5.280642E+04 -2.353496E+05  1.851195E-09 -6.530811E-10
        56  18 -6.698044E+05 -1.525101E+05 -6.513652E+04 -2.417535E+05  4.622888E-10 -2.418232E-10
        56  19 -3.058763E+05 -1.261970E+04  3.515845E+04 -1.428633E+05 -7.846456E+03  7.422796E+03
        56  20 -2.933931E+05 -3.979529E+03  3.467392E+04 -1.349345E+05 -1.249214E+04  6.618416E+03
        56  21 -2.783393E+05 -4.066723E+03  2.986526E+04 -1.314321E+05 -1.702367E+04  5.509059E+03
        56  22 -4.735149E+05 -7.422910E+04 -5.031712E+03 -1.881233E+05 -6.991292E+03  7.743894E+03
        56  23 -4.750611E+05 -7.186897E+04 -9.064873E+03 -1.851487E+05 -1.190273E+04  6.839897E+03
        56  24 -4.740902E+05 -7.828972E+04 -1.763378E+04 -1.866007E+05 -1.669993E+04  5.630930E+03
        56  25 -6.411249E+05 -1.358364E+05 -4.522369E+04 -2.333720E+05 -6.136384E+03  8.064898E+03
        56  26 -6.566963E+05 -1.397560E+05 -5.280608E+04 -2.353496E+05 -1.131352E+04  7.061308E+03
        56  27 -6.698041E+05 -1.525100E+05 -6.513595E+04 -2.417535E+05 -1.637629E+04  5.752759E+03
        57   1 -2.605363E+05 -9.919071E+02  2.792169E+04 -1.414864E+05  2.230452E+04 -4.843930E+03
        57   2 -2.545060E+05  2.074690E+04  1.525547E+04 -1.134148E+05  3.722916E+04  1.568616E+03
        57   3 -2.710539E+05 -2.830585E+04 -2.691741E+04 -7.307964E+04  4.962112E+04  1.472536E+04
        57   4 -4.769998E+05 -7.157329E+04 -2.227130E+04 -1.906862E+05  1.996684E+04 -5.721579E+03
        57   5 -4.700415E+05 -7.040204E+04 -3.930669E+04 -1.837478E+05  4.079271E+04  2.905764E+03
        57   6 -4.868414E+05 -1.412082E+05 -9.053429E+04 -1.645434E+05  5.908509E+04  1.827707E+04
        57   7 -6.934168E+05 -1.421539E+05 -7.246738E+04 -2.398716E+05  1.763005E+04 -6.598989E+03
        57   8 -6.855300E+05 -1.615436E+05 -9.387231E+04 -2.540569E+05  4.435490E+04  4.242245E+03
        57   9 -7.025795E+05 -2.540924E+05 -1.541548E+05 -2.559734E+05  6.854541E+04  2.182619E+04
        57  10 -2.605369E+05 -9.920659E+02  2.792071E+04 -1.414864E+05 -6.027723E-10  1.756001E-10
        57  11 -2.545075E+05  2.074652E+04  1.525286E+04 -1.134149E+05  2.318268E-09  1.006164E-09
        57  12 -2.710566E+05 -2.830675E+04 -2.692245E+04 -7.308023E+04  3.170708E-09  7.334622E-10
        57  13 -4.770002E+05 -7.157344E+04 -2.227211E+04 -1.906861E+05  2.100059E-09  3.704993E-10
        57  14 -4.700433E+05 -7.040249E+04 -3.930983E+04 -1.837479E+05  5.999076E-09  9.212766E-10
        57  15 -4.868452E+05 -1.412095E+05 -9.054148E+04 -1.645442E+05  1.485935E-09  4.645148E-10
        57  16 -6.934171E+05 -1.421540E+05 -7.246805E+04 -2.398715E+05  1.164923E-09  1.182621E-09
        57  17 -6.855321E+05 -1.615441E+05 -9.387604E+04 -2.540571E+05  5.239791E-09  1.791732E-09
        57  18 -7.025847E+05 -2.540941E+05 -1.541645E+05 -2.559746E+05  1.032143E-09  5.130666E-10
        57  19 -2.605363E+05 -9.919071E+02  2.792169E+04 -1.414864E+05 -2.230452E+04  4.843930E+03
        57  20 -2.545060E+05  2.074690E+04  1.525547E+04 -1.134148E+05 -3.722916E+04 -1.568616E+03
        57  21 -2.710539E+05 -2.830585E+04 -2.691741E+04 -7.307964E+04 -4.962112E+04 -1.472536E+04
        57  22 -4.769998E+05 -7.157329E+04 -2.227130E+04 -1.906862E+05 -1.996684E+04  5.721579E+03
        57  23 -4.700415E+05 -7.040204E+04 -3.930669E+04 -1.837478E+05 -4.079271E+04 -2.905764E+03
        57  24 -4.868414E+05 -1.412082E+05 -9.053429E+04 -1.645434E+05 -5.908509E+04 -1.827707E+04
        57  25 -6.934168E+05 -1.421539E+05 -7.246738E+04 -2.398716E+05 -1.763005E+04  6.598989E+03
        57  26 -6.855300E+05 -1.615436E+05 -9.387231E+04 -2.540569E+05 -4.435490E+04 -4.242245E+03
        57  27 -7.025795E+05 -2.540924E+05 -1.541548E+05 -2.559734E+05 -6.854541E+04 -2.182619E+04
        58   1 -1.029565E+04  8.200902E+03  9.817256E+03  3.957952E+03  6.758703E+03  4.308899E-02
        58   2 -1.141442E+04  4.715156E+01  4.479382E+03  1.394630E+03  4.387773E+03  9.856800E-03
        58   3 -1.029572E+04 -3.918461E+02  2.613846E+03 -1.168724E+03  2.016807E+03 -3.796717E-03
        58   4 -1.029567E+04  8.200873E+03  9.817252E+03  7.115350E-11  6.758703E+03 -2.503344E-10
        58   5 -1.141442E+04  4.714791E+01  4.479382E+03  1.928470E-09  4.387773E+03 -5.097446E-10
        58   6 -1.029573E+04 -3.918487E+02  2.613846E+03  3.247389E-09  2.016807E+03  4.784358E-11
        58   7 -1.029565E+04  8.200902E+03  9.817256E+03 -3.957952E+03  6.758703E+03 -4.308899E-02
        58   8 -1.141442E+04  4.715156E+01  4.479382E+03 -1.394630E+03  4.387773E+03 -9.856801E-03
        58   9 -1.029572E+04 -3.918461E+02  2.613846E+03  1.168724E+03  2.016807E+03  3.796717E-03
        58  10 -1.029570E+04  8.200890E+03  9.817170E+03  3.957952E+03 -1.053061E-09 -1.634212E-11
        58  11 -1.141444E+04  4.714639E+01  4.479346E+03  1.394630E+03 -2.176862E-10 -1.063271E-10
        58  12 -1.029573E+04 -3.918472E+02  2.613838E+03 -1.168724E+03 -2.411980E-10 -2.476169E-10
        58  13 -1.029572E+04  8.200860E+03  9.817166E+03  6.602772E-11 -1.079324E-09 -5.096147E-12
        58  14 -1.141444E+04  4.714274E+01  4.479345E+03  1.914274E-09  1.072521E-09 -4.942470E-11
        58  15 -1.029573E+04 -3.918498E+02  2.613838E+03  1.608733E-09  1.350698E-09 -1.372698E-10
        58  16 -1.029570E+04  8.200890E+03  9.817170E+03 -3.957952E+03 -5.633129E-10  1.787523E-12
        58  17 -1.141444E+04  4.714639E+01  4.479346E+03 -1.394630E+03  1.014285E-09  4.882938E-12
        58  18 -1.029573E+04 -3.918472E+02  2.613838E+03  1.168724E+03  1.176745E-09 -2.358444E-11
        58  19 -1.029565E+04  8.200902E+03  9.817256E+03  3.957952E+03 -6.758703E+03 -4.308899E-02
        58  20 -1.141442E+04  4.715156E+01  4.479382E+03  1.394630E+03 -4.387773E+03 -9.856800E-03
        58  21 -1.029572E+04 -3.918461E+02  2.613846E+03 -1.168724E+03 -2.016807E+03  3.796717E-03
        58  22 -1.029567E+04  8.200873E+03  9.817252E+03  2.214976E-09 -6.758703E+03  2.399221E-10
        58  23 -1.141442E+04  4.714791E+01  4.479382E+03  8.361812E-09 -4.387773E+03  4.099011E-10
        58  24 -1.029573E+04 -3.918487E+02  2.613846E+03  3.200390E-09 -2.016807E+03 -3.217266E-10
        58  25 -1.029565E+04  8.200902E+03  9.817256E+03 -3.957952E+03 -6.758703E+03  4.308899E-02
        58  26 -1.141442E+04  4.715156E+01  4.479382E+03 -1.394630E+03 -4.387773E+03  9.856801E-03
        58  27 -1.029572E+04 -3.918461E+02  2.613846E+03  1.168724E+03 -2.016807E+03 -3.796717E-03
        59   1 -1.075296E+04  4.335628E+02  2.068926E+03  1.497515E+02  1.648462E+03  3.976331E-04
        59   2 -1.084290E+04 -1.074999E+01  1.105093E+03  3.242305E+01  1.093832E+03  5.712606E-05
        59   3 -1.075297E+04 -2.449654E+01  6.099969E+02 -8.490542E+01  5.392014E+02 -7.374295E-05
        59   4 -1.075296E+04  4.335627E+02  2.068926E+03 -5.264091E-10  1.648462E+03  3.820792E-10
        59   5 -1.084290E+04 -1.074999E+01  1.105093E+03 -4.088192E-09  1.093832E+03  1.312243E-10
        59   6 -1.075297E+04 -2.449655E+01  6.099969E+02  1.773453E-09  5.392014E+02 -6.168211E-10
        59   7 -1.075296E+04  4.335628E+02  2.068926E+03 -1.497515E+02  1.648462E+03 -3.976323E-04
        59   8 -1.084290E+04 -1.074999E+01  1.105093E+03 -3.242305E+01  1.093832E+03 -5.712582E-05
        59   9 -1.075297E+04 -2.449654E+01  6.099969E+02  8.490542E+01  5.392014E+02  7.374172E-05
        59  10 -1.075296E+04  4.335621E+02  2.068921E+03  1.497515E+02  3.963286E-10 -2.052342E-10
        59  11 -1.084290E+04 -1.075031E+01  1.105091E+03  3.242305E+01  2.986949E-10 -8.430546E-11
        59  12 -1.075297E+04 -2.449662E+01  6.099963E+02 -8.490542E+01 -7.320421E-10 -2.714576E-10
        59  13 -1.075296E+04  4.335620E+02  2.068921E+03  3.947984E-09 -1.081495E-09  1.019334E-10
        59  14 -1.084290E+04 -1.075031E+01  1.105091E+03  1.458326E-10 -5.996617E-12  3.165937E-10
        59  15 -1.075297E+04 -2.449663E+01  6.099963E+02  1.728460E-09 -2.015847E-09 -5.835917E-10
        59  16 -1.075296E+04  4.335621E+02  2.068921E+03 -1.497515E+02  6.823784E-10  4.095640E-10
        59  17 -1.084290E+04 -1.075031E+01  1.105091E+03 -3.242305E+01 -1.651036E-09  7.191145E-10
        59  18 -1.075297E+04 -2.449662E+01  6.099963E+02  8.490542E+01 -2.228758E-09 -8.945778E-10
        59  19 -1.075296E+04  4.335628E+02  2.068926E+03  1.497515E+02 -1.648462E+03 -3.976335E-04
        59  20 -1.084290E+04 -1.074999E+01  1.105093E+03  3.242305E+01 -1.093832E+03 -5.712625E-05
        59  21 -1.075297E+04 -2.449654E+01  6.099969E+02 -8.490542E+01 -5.392014E+02  7.374239E-05
        59  22 -1.075296E+04  4.335627E+02  2.068926E+03 -1.934898E-10 -1.648462E+03 -1.784424E-10
        59  23 -1.084290E+04 -1.074999E+01  1.105093E+03 -4.235878E-09 -1.093832E+03  5.031735E-10
        59  24 -1.075297E+04 -2.449655E+01  6.099969E+02  3.299119E-09 -5.392014E+02 -5.505368E-10
        59  25 -1.075296E+04  4.335628E+02  2.068926E+03 -1.497515E+02 -1.648462E+03  3.976331E-04
        59  26 -1.084290E+04 -1.074999E+01  1.105093E+03 -3.242305E+01 -1.093832E+03  5.712727E-05
        59  27 -1.075297E+04 -2.449654E+01  6.099969E+02  8.490542E+01 -5.392014E+02 -7.374350E-05
        60   1 -1.078889E+04  1.908216E+01  4.444437E+02 -1.083725E+01  4.465737E+02 -7.795900E-06
        60   2 -1.079800E+04 -2.580666E+00  1.884116E+02 -1.362827E+01  3.530255E+02 -7.749702E-06
        60   3 -1.078889E+04 -5.112349E-02 -6.700774E-01 -1.641925E+01  2.594787E+02 -6.861293E-06
        60   4 -1.078889E+04  1.908216E+01  4.444437E+02  7.419424E-09  4.465737E+02 -8.680893E-10
        60   5 -1.079800E+04 -2.580667E+00  1.884116E+02  3.914181E-09  3.530255E+02 -1.148667E-10
        60   6 -1.078889E+04 -5.112398E-02 -6.700774E-01  9.293788E-09  2.594787E+02  1.489905E-09
        60   7 -1.078889E+04  1.908216E+01  4.444437E+02  1.083725E+01  4.465737E+02  7.794169E-06
        60   8 -1.079800E+04 -2.580666E+00  1.884116E+02  1.362827E+01  3.530255E+02  7.749472E-06
        60   9 -1.078889E+04 -5.112348E-02 -6.700774E-01  1.641925E+01  2.594787E+02  6.864277E-06
        60  10 -1.078889E+04  1.908210E+01  4.444433E+02 -1.083725E+01 -2.186313E-09 -1.691325E-10
        60  11 -1.079800E+04 -2.580700E+00  1.884114E+02 -1.362827E+01  6.986078E-10  2.019079E-10
        60  12 -1.078889E+04 -5.114154E-02 -6.702039E-01 -1.641925E+01  1.283519E-09  1.144875E-11
        60  13 -1.078889E+04  1.908210E+01  4.444433E+02  5.536304E-09 -1.073185E-09 -6.542329E-10
        60  14 -1.079800E+04 -2.580700E+00  1.884114E+02  7.238923E-09 -5.384848E-10  1.929988E-10
        60  15 -1.078889E+04 -5.114206E-02 -6.702040E-01 -5.059193E-09  1.219948E-09  2.177476E-10
        60  16 -1.078889E+04  1.908210E+01  4.444433E+02  1.083725E+01  5.771923E-10 -1.138292E-09
        60  17 -1.079800E+04 -2.580700E+00  1.884114E+02  1.362827E+01  1.468058E-09  1.849990E-10
        60  18 -1.078889E+04 -5.114155E-02 -6.702039E-01  1.641925E+01 -7.127852E-11  4.257170E-10
        60  19 -1.078889E+04  1.908216E+01  4.444437E+02 -1.083725E+01 -4.465737E+02  7.795563E-06
        60  20 -1.079800E+04 -2.580666E+00  1.884116E+02 -1.362827E+01 -3.530255E+02  7.750108E-06
        60  21 -1.078889E+04 -5.112346E-02 -6.700773E-01 -1.641925E+01 -2.594787E+02  6.861320E-06
        60  22 -1.078889E+04  1.908216E+01  4.444437E+02  7.961308E-09 -4.465737E+02 -4.404158E-10
        60  23 -1.079800E+04 -2.580667E+00  1.884116E+02  4.101913E-09 -3.530255E+02  5.010851E-10
        60  24 -1.078889E+04 -5.112397E-02 -6.700774E-01  4.819590E-09 -2.594787E+02 -1.054253E-09
        60  25 -1.078889E+04  1.908216E+01  4.444437E+02  1.083725E+01 -4.465737E+02 -7.796436E-06
        60  26 -1.079800E+04 -2.580666E+00  1.884116E+02  1.362827E+01 -3.530255E+02 -7.749110E-06
        60  27 -1.078889E+04 -5.112347E-02 -6.700774E-01  1.641925E+01 -2.594787E+02 -6.863425E-06
        61   1 -1.079734E+04  1.199204E+00 -9.161114E+01 -1.275837E+01  2.680266E+02 -5.507431E-06
        61   2 -1.078744E+04  4.727524E+00 -3.032541E+02 -2.146489E+01  4.178170E+02 -1.444708E-05
        61   3 -1.079734E+04  7.055766E+00 -6.127163E+02 -3.017155E+01  5.676095E+02 -2.758482E-05
        61   4 -1.079734E+04  1.199204E+00 -9.161114E+01  1.068903E-08  2.680266E+02  1.065028E-09
        61   5 -1.078744E+04  4.727523E+00 -3.032541E+02 -2.456235E-09  4.178170E+02 -6.985531E-10
        61   6 -1.079734E+04  7.055765E+00 -6.127163E+02  1.899384E-09  5.676095E+02  4.011244E-10
        61   7 -1.079734E+04  1.199204E+00 -9.161114E+01  1.275837E+01  2.680266E+02  5.509560E-06
        61   8 -1.078744E+04  4.727524E+00 -3.032541E+02  2.146489E+01  4.178170E+02  1.444568E-05
        61   9 -1.079734E+04  7.055766E+00 -6.127163E+02  3.017155E+01  5.676095E+02  2.758563E-05
        61  10 -1.079734E+04  1.199185E+00 -9.161128E+01 -1.275837E+01  1.766688E-09 -5.577740E-10
        61  11 -1.078744E+04  4.727477E+00 -3.032544E+02 -2.146489E+01 -5.223147E-10 -8.465250E-10
        61  12 -1.079734E+04  7.055680E+00 -6.127169E+02 -3.017155E+01 -7.271778E-10  5.757366E-10
        61  13 -1.079734E+04  1.199185E+00 -9.161128E+01 -2.402761E-09 -3.943963E-13 -2.018708E-10
        61  14 -1.078744E+04  4.727477E+00 -3.032544E+02 -2.398165E-10 -5.365461E-10 -4.472964E-10
        61  15 -1.079734E+04  7.055678E+00 -6.127169E+02 -3.461720E-09 -9.467095E-10  3.777832E-10
        61  16 -1.079734E+04  1.199185E+00 -9.161128E+01  1.275837E+01 -2.306256E-09  1.534219E-10
        61  17 -1.078744E+04  4.727477E+00 -3.032544E+02  2.146489E+01 -1.222712E-11 -4.634282E-11
        61  18 -1.079734E+04  7.055680E+00 -6.127169E+02  3.017155E+01 -1.189530E-11  1.799744E-10
        61  19 -1.079734E+04  1.199204E+00 -9.161114E+01 -1.275837E+01 -2.680266E+02  5.506318E-06
        61  20 -1.078744E+04  4.727524E+00 -3.032541E+02 -2.146489E+01 -4.178170E+02  1.444539E-05
        61  21 -1.079734E+04  7.055766E+00 -6.127163E+02 -3.017155E+01 -5.676095E+02  2.758597E-05
        61  22 -1.079734E+04  1.199204E+00 -9.161114E+01  3.891060E-09 -2.680266E+02 -1.468635E-09
        61  23 -1.078744E+04  4.727523E+00 -3.032541E+02 -1.773375E-10 -4.178170E+02 -1.958531E-10
        61  24 -1.079734E+04  7.055765E+00 -6.127163E+02  4.639478E-09 -5.676095E+02  3.543186E-10
        61  25 -1.079734E+04  1.199204E+00 -9.161114E+01  1.275837E+01 -2.680266E+02 -5.509258E-06
        61  26 -1.078744E+04  4.727524E+00 -3.032541E+02  2.146489E+01 -4.178170E+02 -1.444578E-05
        61  27 -1.079734E+04  7.055766E+00 -6.127163E+02  3.017155E+01 -5.676095E+02 -2.758526E-05
        62   1 -1.081598E+04  6.681424E+00 -8.313657E+02 -3.649257E+01  6.985998E+02 -4.106314E-05
        62   2 -1.076414E+04  2.271978E+01 -1.483604E+03 -6.967737E+01  1.431983E+03 -1.607171E-04
        62   3 -1.081599E+04  5.977914E+00 -2.621504E+03 -1.028622E+02  2.165366E+03 -3.587732E-04
        62   4 -1.081598E+04  6.681422E+00 -8.313657E+02  6.359412E-10  6.985998E+02  8.634324E-10
        62   5 -1.076414E+04  2.271977E+01 -1.483604E+03  1.712122E-09  1.431983E+03 -3.329059E-10
        62   6 -1.081599E+04  5.977894E+00 -2.621504E+03  4.673067E-09  2.165366E+03 -1.288591E-09
        62   7 -1.081598E+04  6.681424E+00 -8.313657E+02  3.649257E+01  6.985998E+02  4.106487E-05
        62   8 -1.076414E+04  2.271978E+01 -1.483604E+03  6.967737E+01  1.431983E+03  1.607164E-04
        62   9 -1.081599E+04  5.977914E+00 -2.621504E+03  1.028622E+02  2.165366E+03  3.587706E-04
        62  10 -1.081598E+04  6.681293E+00 -8.313666E+02 -3.649257E+01 -1.151680E-10  1.061293E-09
        62  11 -1.076414E+04  2.271923E+01 -1.483608E+03 -6.967737E+01  1.416213E-09  3.646556E-10
        62  12 -1.081599E+04  5.976655E+00 -2.621513E+03 -1.028622E+02  1.138147E-09 -8.202611E-11
        62  13 -1.081598E+04  6.681291E+00 -8.313666E+02 -1.620476E-09 -1.084604E-09  6.898047E-10
        62  14 -1.076414E+04  2.271922E+01 -1.483608E+03 -1.667410E-09 -2.700187E-09  1.073581E-10
        62  15 -1.081599E+04  5.976635E+00 -2.621513E+03 -1.176023E-09  2.677568E-10 -6.898932E-10
        62  16 -1.081598E+04  6.681293E+00 -8.313666E+02  3.649257E+01 -3.117433E-09  3.182317E-10
        62  17 -1.076414E+04  2.271923E+01 -1.483608E+03  6.967737E+01 -7.199410E-11 -1.496201E-10
        62  18 -1.081599E+04  5.976655E+00 -2.621513E+03  1.028622E+02 -7.318207E-10 -1.297563E-09
        62  19 -1.081598E+04  6.681424E+00 -8.313657E+02 -3.649257E+01 -6.985998E+02  4.106526E-05
        62  20 -1.076414E+04  2.271978E+01 -1.483604E+03 -6.967737E+01 -1.431983E+03  1.607178E-04
        62  21 -1.081599E+04  5.977914E+00 -2.621504E+03 -1.028622E+02 -2.165366E+03  3.587730E-04
        62  22 -1.081598E+04  6.681422E+00 -8.313657E+02 -6.030570E-09 -6.985998E+02  5.160991E-10
        62  23 -1.076414E+04  2.271977E+01 -1.483604E+03 -5.046844E-09 -1.431983E+03  5.477626E-10
        62  24 -1.081599E+04  5.977894E+00 -2.621504E+03  3.475497E-09 -2.165366E+03 -9.504575E-11
        62  25 -1.081598E+04  6.681424E+00 -8.313657E+02  3.649257E+01 -6.985998E+02 -4.106425E-05
        62  26 -1.076414E+04  2.271978E+01 -1.483604E+03  6.967737E+01 -1.431983E+03 -1.607167E-04
        62  27 -1.081599E+04  5.977914E+00 -2.621504E+03  1.028622E+02 -2.165366E+03 -3.587733E-04
        63   1 -1.090873E+04  4.739206E+01 -3.459510E+03 -1.968620E+02  2.714029E+03 -8.606150E-04
        63   2 -1.064821E+04  8.635402E+01 -6.029875E+03 -1.938672E+02  5.702907E+03 -1.780871E-03
        63   3 -1.090872E+04 -4.021238E+02 -1.067796E+04 -1.908725E+02  8.691726E+03 -2.672274E-03
        63   4 -1.090873E+04  4.739199E+01 -3.459510E+03  1.131013E-08  2.714029E+03 -8.852353E-10
        63   5 -1.064821E+04  8.635395E+01 -6.029875E+03  8.684665E-09  5.702907E+03  8.644272E-10
        63   6 -1.090872E+04 -4.021239E+02 -1.067796E+04  1.751481E-09  8.691726E+03  1.905255E-09
        63   7 -1.090873E+04  4.739206E+01 -3.459510E+03  1.968620E+02  2.714029E+03  8.606133E-04
        63   8 -1.064821E+04  8.635402E+01 -6.029875E+03  1.938672E+02  5.702907E+03  1.780873E-03
        63   9 -1.090872E+04 -4.021238E+02 -1.067796E+04  1.908725E+02  8.691726E+03  2.672278E-03
        63  10 -1.090874E+04  4.739008E+01 -3.459523E+03 -1.968620E+02 -1.378212E-09 -1.888905E-10
        63  11 -1.064824E+04  8.634529E+01 -6.029936E+03 -1.938672E+02 -6.564792E-10 -1.455293E-11
        63  12 -1.090880E+04 -4.021441E+02 -1.067811E+04 -1.908725E+02  1.527698E-09  5.546925E-10
        63  13 -1.090874E+04  4.739001E+01 -3.459523E+03  5.184023E-09  1.076178E-09 -4.620201E-10
        63  14 -1.064824E+04  8.634522E+01 -6.029936E+03 -1.988368E-09  3.747327E-12  5.409776E-10
        63  15 -1.090880E+04 -4.021441E+02 -1.067811E+04 -5.446599E-10 -6.715224E-10  4.347826E-10
        63  16 -1.090874E+04  4.739008E+01 -3.459523E+03  1.968620E+02  1.381745E-09 -7.346604E-10
        63  17 -1.064824E+04  8.634529E+01 -6.029936E+03  1.938672E+02  3.977408E-10  1.097613E-09
        63  18 -1.090880E+04 -4.021441E+02 -1.067811E+04  1.908725E+02 -4.515595E-10  3.153114E-10
        63  19 -1.090873E+04  4.739206E+01 -3.459510E+03 -1.968620E+02 -2.714029E+03  8.606147E-04
        63  20 -1.064821E+04  8.635402E+01 -6.029875E+03 -1.938672E+02 -5.702907E+03  1.780871E-03
        63  21 -1.090872E+04 -4.021238E+02 -1.067796E+04 -1.908725E+02 -8.691726E+03  2.672275E-03
        63  22 -1.090873E+04  4.739199E+01 -3.459510E+03  7.673383E-09 -2.714029E+03 -3.875203E-11
        63  23 -1.064821E+04  8.635395E+01 -6.029875E+03  1.339060E-09 -5.702907E+03  2.178733E-10
        63  24 -1.090872E+04 -4.021239E+02 -1.067796E+04  2.274499E-09 -8.691726E+03 -1.019020E-09
        63  25 -1.090873E+04  4.739206E+01 -3.459510E+03  1.968620E+02 -2.714029E+03 -8.606148E-04
        63  26 -1.064821E+04  8.635402E+01 -6.029875E+03  1.938672E+02 -5.702907E+03 -1.780871E-03
        63  27 -1.090872E+04 -4.021238E+02 -1.067796E+04  1.908725E+02 -8.691726E+03 -2.672277E-03
        64   1 -1.165791E+04  5.377845E+02 -1.395366E+04 -1.783661E+03  1.086161E+04 -3.120605E-02
        64   2 -9.711508E+03  2.383667E+02 -2.420775E+04  7.211046E+02  2.300780E+04  2.672417E-02
        64   3 -1.165750E+04 -9.305906E+03 -4.467984E+04  3.225927E+03  3.515400E+04  1.826671E-01
        64   4 -1.165792E+04  5.377786E+02 -1.395366E+04  5.092930E-09  1.086161E+04  1.337772E-09
        64   5 -9.711509E+03  2.383657E+02 -2.420775E+04  8.584859E-09  2.300780E+04 -3.043870E-10
        64   6 -1.165752E+04 -9.305925E+03 -4.467984E+04  1.046136E-08  3.515400E+04 -6.642109E-10
        64   7 -1.165791E+04  5.377845E+02 -1.395366E+04  1.783661E+03  1.086161E+04  3.120605E-02
        64   8 -9.711508E+03  2.383667E+02 -2.420775E+04 -7.211046E+02  2.300780E+04 -2.672417E-02
        64   9 -1.165750E+04 -9.305906E+03 -4.467984E+04 -3.225927E+03  3.515400E+04 -1.826671E-01
        64  10 -1.165804E+04  5.377529E+02 -1.395388E+04 -1.783661E+03  9.511175E-10  4.299660E-10
        64  11 -9.712077E+03  2.382246E+02 -2.420874E+04  7.211046E+02  4.663574E-10 -2.444799E-10
        64  12 -1.165883E+04 -9.306238E+03 -4.468216E+04  3.225927E+03  1.261987E-09 -5.698347E-12
        64  13 -1.165804E+04  5.377469E+02 -1.395388E+04 -1.468521E-09 -1.088526E-09  5.108207E-11
        64  14 -9.712077E+03  2.382236E+02 -2.420874E+04  7.459734E-09 -2.153372E-09 -2.946803E-10
        64  15 -1.165884E+04 -9.306257E+03 -4.468216E+04  2.387448E-09 -1.070987E-09 -3.979735E-10
        64  16 -1.165804E+04  5.377529E+02 -1.395388E+04  1.783661E+03 -9.472745E-10 -3.310954E-10
        64  17 -9.712077E+03  2.382246E+02 -2.420874E+04 -7.211046E+02 -1.547224E-09 -3.540550E-10
        64  18 -1.165883E+04 -9.306238E+03 -4.468216E+04 -3.225927E+03 -3.214532E-09 -7.874187E-10
        64  19 -1.165791E+04  5.377845E+02 -1.395366E+04 -1.783661E+03 -1.086161E+04  3.120605E-02
        64  20 -9.711508E+03  2.383667E+02 -2.420775E+04  7.211046E+02 -2.300780E+04 -2.672417E-02
        64  21 -1.165750E+04 -9.305906E+03 -4.467984E+04  3.225927E+03 -3.515400E+04 -1.826671E-01
        64  22 -1.165792E+04  5.377786E+02 -1.395366E+04  2.739938E-09 -1.086161E+04 -1.238656E-09
        64  23 -9.711509E+03  2.383657E+02 -2.420775E+04 -1.271102E-10 -2.300780E+04 -2.855886E-10
        64  24 -1.165752E+04 -9.305925E+03 -4.467984E+04 -2.455214E-09 -3.515400E+04 -1.305038E-10
        64  25 -1.165791E+04  5.377845E+02 -1.395366E+04  1.783661E+03 -1.086161E+04 -3.120605E-02
        64  26 -9.711508E+03  2.383667E+02 -2.420775E+04 -7.211046E+02 -2.300780E+04  2.672417E-02
        64  27 -1.165750E+04 -9.305906E+03 -4.467984E+04 -3.225927E+03 -3.515400E+04  1.826671E-01
        65   1 -2.146501E+04  8.416402E+03 -5.630158E+04 -2.507889E+04  4.310188E+04 -1.741176E+00
        65   2  2.553045E+03 -1.009131E+03 -9.622839E+04  2.994782E+04  9.404674E+04  4.536588E+00
        65   3 -2.145467E+04 -1.760295E+05 -2.107125E+05  8.497161E+04  1.449920E+05  1.984477E+01
        65   4 -2.146568E+04  8.415220E+03 -5.630175E+04  1.112575E-08  4.310188E+04 -3.863701E-10
        65   5  2.552082E+03 -1.010816E+03 -9.622863E+04 -1.048361E-09  9.404674E+04 -6.869773E-11
        65   6 -2.146242E+04 -1.760430E+05 -2.107145E+05  2.933458E-09  1.449920E+05 -5.548041E-10
        65   7 -2.146501E+04  8.416402E+03 -5.630158E+04  2.507889E+04  4.310188E+04  1.741176E+00
        65   8  2.553045E+03 -1.009131E+03 -9.622839E+04 -2.994782E+04  9.404674E+04 -4.536588E+00
        65   9 -2.145467E+04 -1.760295E+05 -2.107125E+05 -8.497161E+04  1.449920E+05 -1.984477E+01
        65  10 -2.146700E+04  8.415903E+03 -5.630507E+04 -2.507889E+04  4.691352E-10  1.855551E-10
        65  11  2.543547E+03 -1.011506E+03 -9.624501E+04  2.994782E+04 -9.479113E-10  7.177508E-11
        65  12 -2.147724E+04 -1.760351E+05 -2.107520E+05  8.497161E+04 -1.354242E-09  1.870217E-11
        65  13 -2.146768E+04  8.414721E+03 -5.630524E+04 -1.648416E-09  1.048860E-09 -1.662060E-10
        65  14  2.542584E+03 -1.013191E+03 -9.624525E+04  6.264944E-11  1.098634E-09  2.455673E-10
        65  15 -2.148500E+04 -1.760487E+05 -2.107540E+05  6.078780E-09 -1.605997E-09  1.287680E-10
        65  16 -2.146700E+04  8.415903E+03 -5.630507E+04  2.507889E+04  5.435104E-11 -4.991849E-10
        65  17  2.543547E+03 -1.011506E+03 -9.624501E+04 -2.994782E+04 -3.892104E-10  3.452172E-10
        65  18 -2.147724E+04 -1.760351E+05 -2.107520E+05 -8.497161E+04 -1.054631E-09  3.238124E-10
        65  19 -2.146501E+04  8.416402E+03 -5.630158E+04 -2.507889E+04 -4.310188E+04  1.741176E+00
        65  20  2.553045E+03 -1.009131E+03 -9.622839E+04  2.994782E+04 -9.404674E+04 -4.536588E+00
        65  21 -2.145467E+04 -1.760295E+05 -2.107125E+05  8.497161E+04 -1.449920E+05 -1.984477E+01
        65  22 -2.146568E+04  8.415220E+03 -5.630175E+04  6.548357E-10 -4.310188E+04  6.469887E-11
        65  23  2.552082E+03 -1.010816E+03 -9.622863E+04 -3.139305E-09 -9.404674E+04  5.729956E-10
        65  24 -2.146242E+04 -1.760430E+05 -2.107145E+05  1.083758E-08 -1.449920E+05  5.695440E-10
        65  25 -2.146501E+04  8.416402E+03 -5.630158E+04  2.507889E+04 -4.310188E+04 -1.741176E+00
        65  26  2.553045E+03 -1.009131E+03 -9.622839E+04 -2.994782E+04 -9.404674E+04  4.536588E+00
        65  27 -2.145467E+04 -1.760295E+05 -2.107125E+05 -8.497161E+04 -1.449920E+05  1.984477E+01
        66   1  1.284604E+05  4.694487E+05  1.266078E+05 -4.697334E+04  6.247848E+03  2.254794E+04
        66   2  1.040293E+05  3.997385E+05  9.814073E+04 -3.185020E+04  1.918865E+04  8.336218E+03
        66   3  8.715649E+04  3.338181E+05  8.082154E+04 -4.348176E+04  1.890309E+04 -5.875137E+03
        66   4  5.642689E+03 -2.500156E+04  6.837198E+03 -4.416786E+04  6.250444E+03  4.235129E+03
        66   5  4.159607E+00 -2.581235E+04  3.471596E+03 -3.079072E+04  1.919107E+04  2.413067E+03
        66   6 -2.230644E+02 -2.498480E+04  2.655591E+03 -4.416906E+04  1.890134E+04  5.899136E+02
        66   7 -1.171928E+05 -5.192278E+05 -1.129498E+05 -4.136461E+04  6.252876E+03 -1.406315E+04
        66   8 -1.040333E+05 -4.511943E+05 -9.120871E+04 -2.973195E+04  1.919347E+04 -3.506071E+03
        66   9 -8.761114E+04 -3.836670E+05 -7.551793E+04 -4.485595E+04  1.889959E+04  7.051277E+03
        66  10  1.284603E+05  4.694481E+05  1.266068E+05 -4.697345E+04  7.877736E-10  7.124320E-10
        66  11  1.040289E+05  3.997383E+05  9.813990E+04 -3.185033E+04  1.415066E-09 -1.904774E-10
        66  12  8.715609E+04  3.338179E+05  8.082080E+04 -4.348167E+04 -2.785836E-10 -5.105825E-10
        66  13  5.642642E+03 -2.500159E+04  6.837091E+03 -4.416789E+04  2.472545E-10  2.903423E-15
        66  14  3.762559E+00 -2.581245E+04  3.470893E+03 -3.079075E+04  1.138821E-09  1.044921E-10
        66  15 -2.234481E+02 -2.498490E+04  2.654919E+03 -4.416907E+04  7.354404E-10 -5.339659E-11
        66  16 -1.171929E+05 -5.192281E+05 -1.129502E+05 -4.136454E+04  1.323603E-09 -6.651721E-10
        66  17 -1.040337E+05 -4.511944E+05 -9.120942E+04 -2.973189E+04  3.315356E-10  2.293592E-10
        66  18 -8.761154E+04 -3.836671E+05 -7.551870E+04 -4.485606E+04 -9.515931E-10  5.287483E-10
        66  19  1.284604E+05  4.694487E+05  1.266078E+05 -4.697334E+04 -6.247848E+03 -2.254794E+04
        66  20  1.040293E+05  3.997385E+05  9.814073E+04 -3.185020E+04 -1.918865E+04 -8.336218E+03
        66  21  8.715649E+04  3.338181E+05  8.082154E+04 -4.348176E+04 -1.890309E+04  5.875137E+03
        66  22  5.642689E+03 -2.500156E+04  6.837198E+03 -4.416786E+04 -6.250444E+03 -4.235129E+03
        66  23  4.159607E+00 -2.581235E+04  3.471596E+03 -3.079072E+04 -1.919107E+04 -2.413067E+03
        66  24 -2.230644E+02 -2.498480E+04  2.655591E+03 -4.416906E+04 -1.890134E+04 -5.899136E+02
        66  25 -1.171928E+05 -5.192278E+05 -1.129498E+05 -4.136461E+04 -6.252876E+03  1.406315E+04
        66  26 -1.040333E+05 -4.511943E+05 -9.120871E+04 -2.973195E+04 -1.919347E+04  3.506071E+03
        66  27 -8.761114E+04 -3.836670E+05 -7.551793E+04 -4.485595E+04 -1.889959E+04 -7.051277E+03
        67   1  7.436253E+04  2.787377E+05  6.910365E+04 -4.465735E+04  1.552356E+04 -2.518844E+03
        67   2  5.753157E+04  2.107670E+05  5.432670E+04 -3.067793E+04  1.239636E+04 -4.444834E+03
        67   3  4.191263E+04  1.433420E+05  4.110325E+04 -4.403793E+04  8.729662E+03 -6.371922E+03
        67   4  2.713957E+02 -2.523996E+04  2.580037E+03 -4.429867E+04  1.552289E+04  1.573720E+02
        67   5 -8.440470E+00 -2.546208E+04  2.828835E+03 -3.062852E+04  1.239504E+04 -1.263098E+03
        67   6  8.365167E+02 -2.523050E+04  4.280598E+03 -4.429837E+04  8.727584E+03 -2.684868E+03
        67   7 -7.382590E+04 -3.291311E+05 -6.394915E+04 -4.394016E+04  1.552222E+04  2.832294E+03
        67   8 -5.755215E+04 -2.616389E+05 -4.867235E+04 -3.057911E+04  1.239372E+04  1.917444E+03
        67   9 -4.024148E+04 -1.937764E+05 -3.254371E+04 -4.455875E+04  8.725502E+03  1.001197E+03
        67  10  7.436227E+04  2.787376E+05  6.910318E+04 -4.465732E+04  1.749170E-09  9.799266E-10
        67  11  5.753140E+04  2.107670E+05  5.432637E+04 -3.067789E+04  1.029168E-09 -9.857907E-10
        67  12  4.191254E+04  1.433419E+05  4.110303E+04 -4.403788E+04  8.261599E-10 -6.371504E-10
        67  13  2.711370E+02 -2.524002E+04  2.579584E+03 -4.429867E+04  1.655645E-10 -1.040250E-11
        67  14 -8.605874E+00 -2.546212E+04  2.828543E+03 -3.062850E+04  2.664654E-09  2.604838E-10
        67  15  8.364330E+02 -2.523052E+04  4.280442E+03 -4.429836E+04  1.805360E-09 -6.683004E-11
        67  16 -7.382616E+04 -3.291311E+05 -6.394961E+04 -4.394019E+04 -1.485077E-09 -5.738801E-10
        67  17 -5.755232E+04 -2.616389E+05 -4.867264E+04 -3.057913E+04  2.086612E-10  1.113839E-09
        67  18 -4.024156E+04 -1.937764E+05 -3.254386E+04 -4.455875E+04 -6.849319E-10  7.024670E-10
        67  19  7.436253E+04  2.787377E+05  6.910365E+04 -4.465735E+04 -1.552356E+04  2.518844E+03
        67  20  5.753157E+04  2.107670E+05  5.432670E+04 -3.067793E+04 -1.239636E+04  4.444834E+03
        67  21  4.191263E+04  1.433420E+05  4.110325E+04 -4.403793E+04 -8.729662E+03  6.371922E+03
        67  22  2.713957E+02 -2.523996E+04  2.580037E+03 -4.429867E+04 -1.552289E+04 -1.573720E+02
        67  23 -8.440470E+00 -2.546208E+04  2.828835E+03 -3.062852E+04 -1.239504E+04  1.263098E+03
        67  24  8.365167E+02 -2.523050E+04  4.280598E+03 -4.429837E+04 -8.727584E+03  2.684868E+03
        67  25 -7.382590E+04 -3.291311E+05 -6.394915E+04 -4.394016E+04 -1.552222E+04 -2.832294E+03
        67  26 -5.755215E+04 -2.616389E+05 -4.867235E+04 -3.057911E+04 -1.239372E+04 -1.917444E+03
        67  27 -4.024148E+04 -1.937764E+05 -3.254371E+04 -4.455875E+04 -8.725502E+03 -1.001197E+03
        68   1  2.707422E+04  8.961745E+04  2.984365E+04 -4.651031E+04  6.307251E+03 -7.308512E+03
        68   2  1.138714E+04  1.994698E+04  1.838997E+04 -2.805546E+04  2.778580E+03 -1.065962E+04
        68   3  9.888800E+03 -4.577242E+04  1.265625E+04 -3.690848E+04  4.582104E+02 -1.400987E+04
        68   4 -6.661450E+02 -2.440753E+04  5.178600E+03 -4.429374E+04  6.304839E+03 -3.437647E+03
        68   5  1.229480E+02 -2.647732E+04  8.473661E+03 -3.063513E+04  2.776879E+03 -7.919798E+03
        68   6  1.529742E+04 -2.440544E+04  1.827391E+04 -4.428391E+04  4.572999E+02 -1.240143E+04
        68   7 -2.840735E+04 -1.384203E+05 -1.948716E+04 -4.207758E+04  6.302455E+03  4.325168E+02
        68   8 -1.114136E+04 -7.289955E+04 -1.442738E+03 -3.321459E+04  2.775156E+03 -5.180183E+03
        68   9  2.070621E+04 -3.037930E+03  2.389157E+04 -5.165960E+04  4.563511E+02 -1.079293E+04
        68  10  2.707417E+04  8.961739E+04  2.984348E+04 -4.651027E+04  1.062945E-09  1.577209E-09
        68  11  1.138710E+04  1.994685E+04  1.838974E+04 -2.805544E+04  2.291625E-09 -9.579441E-10
        68  12  9.888747E+03 -4.577263E+04  1.265588E+04 -3.690848E+04  1.146825E-09 -1.104518E-09
        68  13 -6.661909E+02 -2.440755E+04  5.178503E+03 -4.429372E+04  2.337298E-10  1.442189E-11
        68  14  1.229229E+02 -2.647739E+04  8.473528E+03 -3.063511E+04  1.785880E-09  3.242377E-10
        68  15  1.529738E+04 -2.440560E+04  1.827362E+04 -4.428391E+04 -1.053858E-09 -8.344648E-11
        68  16 -2.840739E+04 -1.384203E+05 -1.948724E+04 -4.207759E+04 -1.135699E-09 -9.418564E-10
        68  17 -1.114137E+04 -7.289958E+04 -1.442803E+03 -3.321458E+04 -9.238172E-10  1.129144E-09
        68  18  2.070618E+04 -3.038055E+03  2.389135E+04 -5.165959E+04  3.499040E-10  1.127011E-09
        68  19  2.707422E+04  8.961745E+04  2.984365E+04 -4.651031E+04 -6.307251E+03  7.308512E+03
        68  20  1.138714E+04  1.994698E+04  1.838997E+04 -2.805546E+04 -2.778580E+03  1.065962E+04
        68  21  9.888800E+03 -4.577242E+04  1.265625E+04 -3.690848E+04 -4.582104E+02  1.400987E+04
        68  22 -6.661450E+02 -2.440753E+04  5.178600E+03 -4.429374E+04 -6.304839E+03  3.437647E+03
        68  23  1.229480E+02 -2.647732E+04  8.473661E+03 -3.063513E+04 -2.776879E+03  7.919798E+03
        68  24  1.529742E+04 -2.440544E+04  1.827391E+04 -4.428391E+04 -4.572999E+02  1.240143E+04
        68  25 -2.840735E+04 -1.384203E+05 -1.948716E+04 -4.207758E+04 -6.302455E+03 -4.325168E+02
        68  26 -1.114136E+04 -7.289955E+04 -1.442738E+03 -3.321459E+04 -2.775156E+03  5.180183E+03
        68  27  2.070621E+04 -3.037930E+03  2.389157E+04 -5.165960E+04 -4.563511E+02  1.079293E+04
        69   1 -3.112964E+04 -1.744506E+03  5.114654E+03 -1.722858E+04 -5.746617E+02 -8.087094E+02
        69   2 -2.871255E+04  2.832928E+03  7.040651E+03 -1.607672E+04 -5.175958E+01 -2.018181E+03
        69   3 -2.631911E+04  4.043083E+03  8.245132E+03 -1.530398E+04  1.487350E+02 -2.367894E+03
        69   4 -6.446818E+04 -1.304828E+04 -3.489316E+03 -2.505425E+04 -2.031205E+03 -1.354925E+03
        69   5 -6.419290E+04 -9.948055E+03 -1.517256E+03 -2.536794E+04 -7.548837E+02 -2.281875E+03
        69   6 -6.409058E+04 -1.036438E+04 -8.635888E+02 -2.606071E+04  1.990384E+02 -2.349040E+03
        69   7 -9.780534E+04 -2.435193E+04 -1.209328E+04 -3.287949E+04 -3.487649E+03 -1.901110E+03
        69   8 -9.967189E+04 -2.272893E+04 -1.007522E+04 -3.465865E+04 -1.457962E+03 -2.545552E+03
        69   9 -1.018608E+05 -2.477178E+04 -9.972450E+03 -3.681687E+04  2.493386E+02 -2.330188E+03
        69  10 -3.112964E+04 -1.744507E+03  5.114652E+03 -1.722858E+04  1.882453E-10 -9.622592E-12
        69  11 -2.871255E+04  2.832923E+03  7.040643E+03 -1.607672E+04 -5.946816E-10  1.576388E-10
        69  12 -2.631911E+04  4.043077E+03  8.245122E+03 -1.530398E+04 -2.129169E-09 -2.563903E-10
        69  13 -6.446819E+04 -1.304828E+04 -3.489327E+03 -2.505426E+04 -5.281147E-11  1.415420E-10
        69  14 -6.419290E+04 -9.948061E+03 -1.517266E+03 -2.536794E+04 -2.216004E-09  1.741979E-10
        69  15 -6.409058E+04 -1.036439E+04 -8.635993E+02 -2.606071E+04 -1.269265E-09 -5.456788E-10
        69  16 -9.780535E+04 -2.435194E+04 -1.209331E+04 -3.287950E+04  3.133845E-10  3.133618E-10
        69  17 -9.967190E+04 -2.272894E+04 -1.007524E+04 -3.465865E+04 -6.665899E-10  1.895402E-10
        69  18 -1.018608E+05 -2.477178E+04 -9.972461E+03 -3.681687E+04 -3.842278E-09 -7.484249E-10
        69  19 -3.112964E+04 -1.744506E+03  5.114654E+03 -1.722858E+04  5.746617E+02  8.087094E+02
        69  20 -2.871255E+04  2.832928E+03  7.040651E+03 -1.607672E+04  5.175958E+01  2.018181E+03
        69  21 -2.631911E+04  4.043083E+03  8.245132E+03 -1.530398E+04 -1.487350E+02  2.367894E+03
        69  22 -6.446818E+04 -1.304828E+04 -3.489316E+03 -2.505425E+04  2.031205E+03  1.354925E+03
        69  23 -6.419290E+04 -9.948055E+03 -1.517256E+03 -2.536794E+04  7.548837E+02  2.281875E+03
        69  24 -6.409058E+04 -1.036438E+04 -8.635888E+02 -2.606071E+04 -1.990384E+02  2.349040E+03
        69  25 -9.780534E+04 -2.435193E+04 -1.209328E+04 -3.287949E+04  3.487649E+03  1.901110E+03
        69  26 -9.967189E+04 -2.272893E+04 -1.007522E+04 -3.465865E+04  1.457962E+03  2.545552E+03
        69  27 -1.018608E+05 -2.477178E+04 -9.972450E+03 -3.681687E+04 -2.493386E+02  2.330188E+03
        70   1 -2.356093E+04  4.356080E+03  9.054774E+03 -1.486404E+04  5.227324E+02 -2.247302E+03
        70   2 -2.117050E+04  6.021879E+03  1.001254E+04 -1.359706E+04  7.544064E+02 -2.407784E+03
        70   3 -1.797373E+04  6.651919E+03  1.081725E+04 -1.330745E+04  9.716493E+02 -2.529755E+03
        70   4 -6.398709E+04 -1.061477E+04 -6.868039E+02 -2.589363E+04  3.158332E+02 -2.324911E+03
        70   5 -6.437601E+04 -1.001542E+04 -3.627195E+02 -2.543426E+04  5.812436E+02 -2.472745E+03
        70   6 -6.396528E+04 -1.045855E+04 -2.184270E+02 -2.595229E+04  8.322212E+02 -2.582068E+03
        70   7 -1.044116E+05 -2.558549E+04 -1.042848E+04 -3.692254E+04  1.089491E+02 -2.402514E+03
        70   8 -1.075794E+05 -2.605250E+04 -1.073805E+04 -3.727064E+04  4.080949E+02 -2.537702E+03
        70   9 -1.099543E+05 -2.756870E+04 -1.125414E+04 -3.859616E+04  6.928056E+02 -2.634377E+03
        70  10 -2.356093E+04  4.356075E+03  9.054764E+03 -1.486403E+04 -5.091953E-09 -7.643646E-10
        70  11 -2.117050E+04  6.021872E+03  1.001253E+04 -1.359706E+04  1.231709E-09 -4.424357E-10
        70  12 -1.797373E+04  6.651912E+03  1.081724E+04 -1.330745E+04  1.013626E-09 -5.992476E-10
        70  13 -6.398709E+04 -1.061478E+04 -6.868142E+02 -2.589362E+04 -2.932966E-09 -8.383472E-10
        70  14 -6.437601E+04 -1.001543E+04 -3.627316E+02 -2.543425E+04 -3.005602E-10 -6.928773E-10
        70  15 -6.396529E+04 -1.045855E+04 -2.184408E+02 -2.595229E+04  1.825234E-09 -6.116211E-10
        70  16 -1.044116E+05 -2.558550E+04 -1.042849E+04 -3.692254E+04 -1.277281E-09 -9.460975E-10
        70  17 -1.075794E+05 -2.605250E+04 -1.073806E+04 -3.727063E+04  5.974897E-10 -9.634494E-10
        70  18 -1.099543E+05 -2.756870E+04 -1.125415E+04 -3.859616E+04  1.480725E-13 -5.473714E-10
        70  19 -2.356093E+04  4.356080E+03  9.054774E+03 -1.486404E+04 -5.227324E+02  2.247302E+03
        70  20 -2.117050E+04  6.021879E+03  1.001254E+04 -1.359706E+04 -7.544064E+02  2.407784E+03
        70  21 -1.797373E+04  6.651919E+03  1.081725E+04 -1.330745E+04 -9.716493E+02  2.529755E+03
        70  22 -6.398709E+04 -1.061477E+04 -6.868039E+02 -2.589363E+04 -3.158332E+02  2.324911E+03
        70  23 -6.437601E+04 -1.001542E+04 -3.627195E+02 -2.543426E+04 -5.812436E+02  2.472745E+03
        70  24 -6.396528E+04 -1.045855E+04 -2.184270E+02 -2.595229E+04 -8.322212E+02  2.582068E+03
        70  25 -1.044116E+05 -2.558549E+04 -1.042848E+04 -3.692254E+04 -1.089491E+02  2.402514E+03
        70  26 -1.075794E+05 -2.605250E+04 -1.073805E+04 -3.727064E+04 -4.080949E+02  2.537702E+03
        70  27 -1.099543E+05 -2.756870E+04 -1.125414E+04 -3.859616E+04 -6.928056E+02  2.634377E+03
        71   1 -1.559478E+04  7.496205E+03  1.144211E+04 -1.267458E+04  1.050714E+03 -2.608269E+03
        71   2 -1.322193E+04  8.986748E+03  1.214539E+04 -1.140129E+04  1.182821E+03 -2.753961E+03
        71   3 -9.979872E+03  9.587299E+03  1.279613E+04 -1.113621E+04  1.314240E+03 -2.897777E+03
        71   4 -6.395639E+04 -1.047246E+04 -1.799799E+02 -2.594116E+04  8.998998E+02 -2.664856E+03
        71   5 -6.439030E+04 -1.002281E+04 -1.392995E+02 -2.543874E+04  1.033644E+03 -2.809941E+03
        71   6 -6.395525E+04 -1.046348E+04 -1.524314E+02 -2.594458E+04  1.166699E+03 -2.953150E+03
        71   7 -1.123162E+05 -2.844118E+04 -1.180239E+04 -3.920694E+04  7.490963E+02 -2.721439E+03
        71   8 -1.155565E+05 -2.903235E+04 -1.242430E+04 -3.947527E+04  8.844778E+02 -2.865916E+03
        71   9 -1.179281E+05 -3.051419E+04 -1.310130E+04 -4.075187E+04  1.019170E+03 -3.008518E+03
        71  10 -1.559478E+04  7.496197E+03  1.144210E+04 -1.267458E+04  1.110477E-09 -3.909977E-10
        71  11 -1.322193E+04  8.986740E+03  1.214537E+04 -1.140128E+04 -1.637770E-10  3.350506E-10
        71  12 -9.979876E+03  9.587289E+03  1.279611E+04 -1.113621E+04 -2.066334E-09  1.867955E-10
        71  13 -6.395639E+04 -1.047247E+04 -1.799948E+02 -2.594115E+04 -8.800571E-10 -5.309954E-10
        71  14 -6.439030E+04 -1.002282E+04 -1.393163E+02 -2.543874E+04 -2.201442E-09  1.910089E-10
        71  15 -6.395525E+04 -1.046349E+04 -1.524503E+02 -2.594458E+04 -1.134081E-09  5.047248E-10
        71  16 -1.123162E+05 -2.844118E+04 -1.180241E+04 -3.920694E+04  2.351902E-10 -3.498104E-10
        71  17 -1.155565E+05 -2.903236E+04 -1.242432E+04 -3.947527E+04 -1.212584E-09 -1.718160E-10
        71  18 -1.179281E+05 -3.051420E+04 -1.310132E+04 -4.075187E+04 -2.266454E-10  9.255083E-10
        71  19 -1.559478E+04  7.496205E+03  1.144211E+04 -1.267458E+04 -1.050714E+03  2.608269E+03
        71  20 -1.322193E+04  8.986748E+03  1.214539E+04 -1.140129E+04 -1.182821E+03  2.753961E+03
        71  21 -9.979872E+03  9.587299E+03  1.279613E+04 -1.113621E+04 -1.314240E+03  2.897777E+03
        71  22 -6.395639E+04 -1.047246E+04 -1.799799E+02 -2.594116E+04 -8.998998E+02  2.664856E+03
        71  23 -6.439030E+04 -1.002281E+04 -1.392995E+02 -2.543874E+04 -1.033644E+03  2.809941E+03
        71  24 -6.395525E+04 -1.046348E+04 -1.524314E+02 -2.594458E+04 -1.166699E+03  2.953150E+03
        71  25 -1.123162E+05 -2.844118E+04 -1.180239E+04 -3.920694E+04 -7.490963E+02  2.721439E+03
        71  26 -1.155565E+05 -2.903235E+04 -1.242430E+04 -3.947527E+04 -8.844778E+02  2.865916E+03
        71  27 -1.179281E+05 -3.051419E+04 -1.310130E+04 -4.075187E+04 -1.019170E+03  3.008518E+03
        72   1 -7.635768E+03  1.046004E+04  1.335328E+04 -1.049486E+04  1.378950E+03 -2.985350E+03
        72   2 -5.260292E+03  1.193711E+04  1.391203E+04 -9.226539E+03  1.582328E+03 -3.101503E+03
        72   3 -2.026148E+03  1.253157E+04  1.436616E+04 -8.968264E+03  1.785632E+03 -3.217412E+03
        72   4 -6.395824E+04 -1.046443E+04 -1.781839E+02 -2.594410E+04  1.230995E+03 -3.040881E+03
        72   5 -6.438724E+04 -1.002157E+04 -2.817598E+02 -2.543967E+04  1.434569E+03 -3.156967E+03
        72   6 -6.395772E+04 -1.046131E+04 -4.901283E+02 -2.594524E+04  1.638069E+03 -3.272809E+03
        72   7 -1.202770E+05 -3.138848E+04 -1.370973E+04 -4.139192E+04  1.083056E+03 -3.096407E+03
        72   8 -1.235106E+05 -3.197993E+04 -1.447575E+04 -4.165135E+04  1.286825E+03 -3.212426E+03
        72   9 -1.258857E+05 -3.345399E+04 -1.534675E+04 -4.292072E+04  1.490522E+03 -3.328201E+03
        72  10 -7.635773E+03  1.046003E+04  1.335326E+04 -1.049486E+04 -1.085587E-09  4.652724E-10
        72  11 -5.260297E+03  1.193710E+04  1.391201E+04 -9.226535E+03 -6.625118E-11 -9.676035E-11
        72  12 -2.026154E+03  1.253155E+04  1.436613E+04 -8.968260E+03 -1.892436E-10 -4.314158E-10
        72  13 -6.395824E+04 -1.046444E+04 -1.782041E+02 -2.594410E+04 -1.209824E-09  3.832884E-10
        72  14 -6.438725E+04 -1.002158E+04 -2.817824E+02 -2.543966E+04  1.027957E-10 -4.737699E-10
        72  15 -6.395772E+04 -1.046132E+04 -4.901534E+02 -2.594523E+04 -2.581064E-09  1.116740E-10
        72  16 -1.202770E+05 -3.138849E+04 -1.370975E+04 -4.139191E+04 -2.658123E-09  3.163417E-10
        72  17 -1.235106E+05 -3.197994E+04 -1.447578E+04 -4.165134E+04  2.986321E-09 -4.086308E-10
        72  18 -1.258857E+05 -3.345400E+04 -1.534677E+04 -4.292072E+04 -1.172422E-09  8.028936E-10
        72  19 -7.635768E+03  1.046004E+04  1.335328E+04 -1.049486E+04 -1.378950E+03  2.985350E+03
        72  20 -5.260292E+03  1.193711E+04  1.391203E+04 -9.226539E+03 -1.582328E+03  3.101503E+03
        72  21 -2.026148E+03  1.253157E+04  1.436616E+04 -8.968264E+03 -1.785632E+03  3.217412E+03
        72  22 -6.395824E+04 -1.046443E+04 -1.781839E+02 -2.594410E+04 -1.230995E+03  3.040881E+03
        72  23 -6.438724E+04 -1.002157E+04 -2.817598E+02 -2.543967E+04 -1.434569E+03  3.156967E+03
        72  24 -6.395772E+04 -1.046131E+04 -4.901283E+02 -2.594524E+04 -1.638069E+03  3.272809E+03
        72  25 -1.202770E+05 -3.138848E+04 -1.370973E+04 -4.139192E+04 -1.083056E+03  3.096407E+03
        72  26 -1.235106E+05 -3.197993E+04 -1.447575E+04 -4.165135E+04 -1.286825E+03  3.212426E+03
        72  27 -1.258857E+05 -3.345399E+04 -1.534675E+04 -4.292072E+04 -1.490522E+03  3.328201E+03
        73   1  3.026888E+02  1.339908E+04  1.478872E+04 -8.337716E+03  1.917170E+03 -3.279822E+03
        73   2  2.715807E+03  1.487495E+04  1.493013E+04 -7.075214E+03  2.562002E+03 -3.229625E+03
        73   3  5.914884E+03  1.542719E+04  1.462928E+04 -6.832341E+03  3.206690E+03 -3.178992E+03
        73   4 -6.397293E+04 -1.046226E+04 -6.488524E+02 -2.595052E+04  1.769642E+03 -3.335211E+03
        73   5 -6.436682E+04 -1.000748E+04 -1.168020E+03 -2.543808E+04  2.414790E+03 -3.284902E+03
        73   6 -6.397488E+04 -1.047638E+04 -2.129728E+03 -2.594521E+04  3.059793E+03 -3.234158E+03
        73   7 -1.282441E+05 -3.432318E+04 -1.608663E+04 -4.356159E+04  1.622131E+03 -3.390593E+03
        73   8 -1.314450E+05 -3.488961E+04 -1.726650E+04 -4.379914E+04  2.267595E+03 -3.340174E+03
        73   9 -1.338602E+05 -3.637975E+04 -1.888919E+04 -4.505622E+04  2.912914E+03 -3.289319E+03
        73  10  3.026820E+02  1.339906E+04  1.478869E+04 -8.337711E+03  7.022912E-10 -8.050197E-11
        73  11  2.715798E+03  1.487494E+04  1.493010E+04 -7.075207E+03  1.449421E-09  8.424580E-11
        73  12  5.914870E+03  1.542717E+04  1.462924E+04 -6.832333E+03 -7.734693E-10 -2.962847E-10
        73  13 -6.397294E+04 -1.046227E+04 -6.488792E+02 -2.595052E+04 -1.189208E-09  2.757433E-10
        73  14 -6.436683E+04 -1.000750E+04 -1.168051E+03 -2.543807E+04 -2.652138E-09 -3.826541E-10
        73  15 -6.397489E+04 -1.047640E+04 -2.129765E+03 -2.594520E+04 -1.067758E-10 -3.399260E-10
        73  16 -1.282441E+05 -3.432319E+04 -1.608666E+04 -4.356159E+04 -8.293948E-10  3.371852E-10
        73  17 -1.314450E+05 -3.488962E+04 -1.726653E+04 -4.379913E+04 -1.210729E-09  2.756584E-10
        73  18 -1.338602E+05 -3.637976E+04 -1.888923E+04 -4.505621E+04 -2.117954E-10  1.489992E-10
        73  19  3.026888E+02  1.339908E+04  1.478872E+04 -8.337716E+03 -1.917170E+03  3.279822E+03
        73  20  2.715807E+03  1.487495E+04  1.493013E+04 -7.075214E+03 -2.562002E+03  3.229625E+03
        73  21  5.914884E+03  1.542719E+04  1.462928E+04 -6.832341E+03 -3.206690E+03  3.178992E+03
        73  22 -6.397293E+04 -1.046226E+04 -6.488524E+02 -2.595052E+04 -1.769642E+03  3.335211E+03
        73  23 -6.436682E+04 -1.000748E+04 -1.168020E+03 -2.543808E+04 -2.414790E+03  3.284902E+03
        73  24 -6.397488E+04 -1.047638E+04 -2.129728E+03 -2.594521E+04 -3.059793E+03  3.234158E+03
        73  25 -1.282441E+05 -3.432318E+04 -1.608663E+04 -4.356159E+04 -1.622131E+03  3.390593E+03
        73  26 -1.314450E+05 -3.488961E+04 -1.726650E+04 -4.379914E+04 -2.267595E+03  3.340174E+03
        73  27 -1.338602E+05 -3.637975E+04 -1.888919E+04 -4.505622E+04 -2.912914E+03  3.289319E+03
        74   1  8.240209E+03  1.626269E+04  1.450356E+04 -6.330137E+03  3.654881E+03 -3.122754E+03
        74   2  1.079468E+04  1.783561E+04  1.286341E+04 -4.945223E+03  6.281352E+03 -2.326778E+03
        74   3  1.365734E+04  1.787612E+04  9.150449E+03 -4.517255E+03  8.905759E+03 -1.525297E+03
        74   4 -6.405675E+04 -1.043689E+04 -2.834757E+03 -2.599705E+04  3.506541E+03 -3.178467E+03
        74   5 -6.424773E+04 -9.934143E+03 -5.134041E+03 -2.541956E+04  6.137542E+03 -2.380799E+03
        74   6 -6.413146E+04 -1.096480E+04 -9.509920E+03 -2.579906E+04  8.766461E+03 -1.577632E+03
        74   7 -1.363485E+05 -3.713613E+04 -2.017345E+04 -4.566188E+04  3.358220E+03 -3.234173E+03
        74   8 -1.392844E+05 -3.770344E+04 -2.313185E+04 -4.589160E+04  5.993752E+03 -2.434812E+03
        74   9 -1.419139E+05 -3.980516E+04 -2.817062E+04 -4.707833E+04  8.627182E+03 -1.629960E+03
        74  10  8.240192E+03  1.626268E+04  1.450352E+04 -6.330128E+03 -7.448133E-10 -4.212073E-10
        74  11  1.079463E+04  1.783559E+04  1.286333E+04 -4.945211E+03  1.508087E-09 -3.708442E-10
        74  12  1.365726E+04  1.787609E+04  9.150296E+03 -4.517244E+03  6.610244E-10 -2.124284E-10
        74  13 -6.405677E+04 -1.043691E+04 -2.834799E+03 -2.599704E+04 -3.487625E-11  4.227146E-11
        74  14 -6.424777E+04 -9.934159E+03 -5.134123E+03 -2.541955E+04  1.079919E-09  8.463770E-10
        74  15 -6.413154E+04 -1.096483E+04 -9.510069E+03 -2.579905E+04 -6.425300E-10 -9.579738E-10
        74  16 -1.363485E+05 -3.713614E+04 -2.017349E+04 -4.566188E+04  6.906115E-11  8.389556E-10
        74  17 -1.392844E+05 -3.770345E+04 -2.313193E+04 -4.589159E+04 -1.575932E-09  1.482983E-10
        74  18 -1.419139E+05 -3.980518E+04 -2.817076E+04 -4.707832E+04 -1.770923E-09  4.501407E-10
        74  19  8.240209E+03  1.626269E+04  1.450356E+04 -6.330137E+03 -3.654881E+03  3.122754E+03
        74  20  1.079468E+04  1.783561E+04  1.286341E+04 -4.945223E+03 -6.281352E+03  2.326778E+03
        74  21  1.365734E+04  1.787612E+04  9.150449E+03 -4.517255E+03 -8.905759E+03  1.525297E+03
        74  22 -6.405675E+04 -1.043689E+04 -2.834757E+03 -2.599705E+04 -3.506541E+03  3.178467E+03
        74  23 -6.424773E+04 -9.934143E+03 -5.134041E+03 -2.541956E+04 -6.137542E+03  2.380799E+03
        74  24 -6.413146E+04 -1.096480E+04 -9.509920E+03 -2.579906E+04 -8.766461E+03  1.577632E+03
        74  25 -1.363485E+05 -3.713613E+04 -2.017345E+04 -4.566188E+04 -3.358220E+03  3.234173E+03
        74  26 -1.392844E+05 -3.770344E+04 -2.313185E+04 -4.589160E+04 -5.993752E+03  2.434812E+03
        74  27 -1.419139E+05 -3.980516E+04 -2.817062E+04 -4.707833E+04 -8.627182E+03  1.629960E+03
        75   1  1.659853E+04  1.843319E+04  6.711401E+03 -5.966423E+03  1.074579E+04 -9.581733E+02
        75   2  1.895411E+04  2.192635E+04 -2.656323E+03 -1.717790E+03  2.215247E+04  3.165073E+03
        75   3  1.689092E+04  1.426287E+04 -2.323355E+04  3.730017E+03  3.351521E+04  7.405763E+03
        75   4 -6.475361E+04 -1.003893E+04 -1.252017E+04 -2.647201E+04  1.057163E+04 -1.023570E+03
        75   5 -6.324503E+04 -9.494070E+03 -2.255970E+04 -2.517805E+04  2.207962E+04  3.137631E+03
        75   6 -6.617600E+04 -2.012703E+04 -4.389012E+04 -2.268495E+04  3.354362E+04  7.416145E+03
        75   7 -1.460996E+05 -3.851092E+04 -3.175233E+04 -4.697535E+04  1.039749E+04 -1.088959E+03
        75   8 -1.454377E+05 -4.091400E+04 -4.246363E+04 -4.863550E+04  2.200677E+04  3.110192E+03
        75   9 -1.492361E+05 -5.451598E+04 -6.454723E+04 -4.909653E+04  3.357202E+04  7.426525E+03
        75  10  1.659841E+04  1.843316E+04  6.711182E+03 -5.966415E+03  4.049821E-10  2.358270E-10
        75  11  1.895358E+04  2.192621E+04 -2.657264E+03 -1.717846E+03 -4.752061E-10  7.162986E-10
        75  12  1.688970E+04  1.426251E+04 -2.323576E+04  3.729817E+03  2.372540E-09  9.477175E-10
        75  13 -6.475373E+04 -1.003896E+04 -1.252039E+04 -2.647200E+04  1.138100E-09 -4.282219E-10
        75  14 -6.324555E+04 -9.494212E+03 -2.256063E+04 -2.517810E+04  1.107843E-09 -2.263464E-10
        75  15 -6.617723E+04 -2.012739E+04 -4.389234E+04 -2.268515E+04  4.283871E-09  1.511273E-09
        75  16 -1.460997E+05 -3.851095E+04 -3.175254E+04 -4.697534E+04 -1.150798E-09 -3.358547E-10
        75  17 -1.454382E+05 -4.091414E+04 -4.246456E+04 -4.863556E+04  1.192332E-09  2.216437E-10
        75  18 -1.492373E+05 -5.451634E+04 -6.454945E+04 -4.909673E+04  7.226802E-09  2.154613E-09
        75  19  1.659853E+04  1.843319E+04  6.711401E+03 -5.966423E+03 -1.074579E+04  9.581733E+02
        75  20  1.895411E+04  2.192635E+04 -2.656323E+03 -1.717790E+03 -2.215247E+04 -3.165073E+03
        75  21  1.689092E+04  1.426287E+04 -2.323355E+04  3.730017E+03 -3.351521E+04 -7.405763E+03
        75  22 -6.475361E+04 -1.003893E+04 -1.252017E+04 -2.647201E+04 -1.057163E+04  1.023570E+03
        75  23 -6.324503E+04 -9.494070E+03 -2.255970E+04 -2.517805E+04 -2.207962E+04 -3.137631E+03
        75  24 -6.617600E+04 -2.012703E+04 -4.389012E+04 -2.268495E+04 -3.354362E+04 -7.416145E+03
        75  25 -1.460996E+05 -3.851092E+04 -3.175233E+04 -4.697535E+04 -1.039749E+04  1.088959E+03
        75  26 -1.454377E+05 -4.091400E+04 -4.246363E+04 -4.863550E+04 -2.200677E+04 -3.110192E+03
        75  27 -1.492361E+05 -5.451598E+04 -6.454723E+04 -4.909653E+04 -3.357202E+04 -7.426525E+03
        76   1  3.265412E+04  1.120274E+04 -3.434459E+04 -2.938293E+04  4.148164E+04  1.000261E+04
        76   2  2.000736E+04  4.774368E+04 -7.572312E+04  2.586452E+04  9.153139E+04  2.931684E+04
        76   3 -6.141287E+04 -8.428219E+04 -2.003669E+05  1.231657E+05  1.405989E+05  5.125079E+04
        76   4 -7.329073E+04 -3.543351E+03 -5.543317E+04 -3.300440E+04  4.072808E+04  9.721590E+03
        76   5 -5.088873E+04 -5.671291E+03 -9.781509E+04 -2.149662E+04  9.306076E+04  2.988614E+04
        76   6 -9.772981E+04 -1.768416E+05 -2.252790E+05  3.207030E+04  1.444137E+05  5.266099E+04
        76   7 -1.792232E+05 -1.828907E+04 -7.652189E+04 -3.662641E+04  3.997467E+04  9.440550E+03
        76   8 -1.217773E+05 -5.907892E+04 -1.199070E+05 -6.885094E+04  9.458993E+04  3.045519E+04
        76   9 -1.340295E+05 -2.693628E+05 -2.501874E+05 -5.901344E+04  1.482283E+05  5.406986E+04
        76  10  3.265224E+04  1.120217E+04 -3.434801E+04 -2.938326E+04  9.565065E-09  1.341066E-09
        76  11  1.999813E+04  4.774051E+04 -7.574048E+04  2.586236E+04  2.773365E-09 -8.744989E-10
        76  12 -6.143480E+04 -8.429031E+04 -2.004089E+05  1.231599E+05 -2.013276E-09 -1.669257E-09
        76  13 -7.329253E+04 -3.543897E+03 -5.543647E+04 -3.300472E+04  4.028070E-09  1.615553E-10
        76  14 -5.089827E+04 -5.674576E+03 -9.783305E+04 -2.149886E+04  9.575107E-10 -1.660215E-09
        76  15 -9.775295E+04 -1.768502E+05 -2.253234E+05  3.206417E+04 -1.270913E-09 -2.703003E-10
        76  16 -1.792250E+05 -1.828960E+04 -7.652506E+04 -3.662671E+04  2.180217E-09  3.212650E-10
        76  17 -1.217872E+05 -5.908232E+04 -1.199256E+05 -6.885326E+04 -2.416262E-09 -6.776607E-10
        76  18 -1.340539E+05 -2.693718E+05 -2.502342E+05 -5.901990E+04  1.445830E-09 -2.759961E-10
        76  19  3.265412E+04  1.120274E+04 -3.434459E+04 -2.938293E+04 -4.148164E+04 -1.000261E+04
        76  20  2.000736E+04  4.774368E+04 -7.572312E+04  2.586452E+04 -9.153139E+04 -2.931684E+04
        76  21 -6.141287E+04 -8.428219E+04 -2.003669E+05  1.231657E+05 -1.405989E+05 -5.125079E+04
        76  22 -7.329073E+04 -3.543351E+03 -5.543317E+04 -3.300440E+04 -4.072808E+04 -9.721590E+03
        76  23 -5.088873E+04 -5.671291E+03 -9.781509E+04 -2.149662E+04 -9.306076E+04 -2.988614E+04
        76  24 -9.772981E+04 -1.768416E+05 -2.252790E+05  3.207030E+04 -1.444137E+05 -5.266099E+04
        76  25 -1.792232E+05 -1.828907E+04 -7.652189E+04 -3.662641E+04 -3.997467E+04 -9.440550E+03
        76  26 -1.217773E+05 -5.907892E+04 -1.199070E+05 -6.885094E+04 -9.458993E+04 -3.045519E+04
        76  27 -1.340295E+05 -2.693628E+05 -2.501874E+05 -5.901344E+04 -1.482283E+05 -5.406986E+04
        77   1  1.939586E+05  1.932224E+06  2.050885E+05 -7.343874E+04  5.044364E+03  1.080366E+05
        77   2  9.708565E+04  1.911749E+06  1.280999E+05 -3.489009E+04  1.709006E+04  6.353836E+04
        77   3  7.660204E+04  1.916151E+06  9.912246E+04  2.097946E+03  2.085740E+04  1.904143E+04
        77   4  1.106071E+05  1.594327E+06  1.255993E+05 -7.235411E+03  5.056793E+03  8.427469E+04
        77   5  1.830759E+04  1.582980E+06  6.236690E+04 -6.462650E+03  1.709484E+04  5.193276E+04
        77   6  3.079287E+02  1.594412E+06  3.873322E+04 -7.249332E+03  2.085792E+04  1.959063E+04
        77   7  2.726430E+04  1.256545E+06  4.610674E+04  5.893178E+04  5.064175E+03  6.052562E+04
        77   8 -6.047399E+04  1.254315E+06 -3.370587E+03  2.194948E+04  1.709856E+04  4.033317E+04
        77   9 -7.599184E+04  1.272773E+06 -2.166047E+04 -1.659165E+04  2.085843E+04  2.013955E+04
        77  10  1.939554E+05  1.932211E+06  2.050666E+05 -7.343918E+04  5.156781E-10  2.161307E-09
        77  11  9.708426E+04  1.911745E+06  1.280918E+05 -3.489096E+04  1.221142E-09 -1.305104E-10
        77  12  7.660148E+04  1.916151E+06  9.912097E+04  2.097627E+03  2.006618E-09 -2.263028E-09
        77  13  1.106052E+05  1.594319E+06  1.255860E+05 -7.235754E+03  4.066135E-10  3.457294E-11
        77  14  1.830656E+04  1.582977E+06  6.236130E+04 -6.463365E+03  1.870918E-09 -1.339107E-10
        77  15  3.073585E+02  1.594412E+06  3.873168E+04 -7.249661E+03  1.543207E-09  2.315187E-10
        77  16  2.726329E+04  1.256542E+06  4.609983E+04  5.893153E+04  1.003401E-09 -2.177175E-09
        77  17 -6.047474E+04  1.254313E+06 -3.374187E+03  2.194893E+04  3.588297E-10  2.053156E-11
        77  18 -7.599242E+04  1.272772E+06 -2.166205E+04 -1.659199E+04 -5.517536E-10  2.151184E-09
        77  19  1.939586E+05  1.932224E+06  2.050885E+05 -7.343874E+04 -5.044364E+03 -1.080366E+05
        77  20  9.708565E+04  1.911749E+06  1.280999E+05 -3.489009E+04 -1.709006E+04 -6.353836E+04
        77  21  7.660204E+04  1.916151E+06  9.912246E+04  2.097946E+03 -2.085740E+04 -1.904143E+04
        77  22  1.106071E+05  1.594327E+06  1.255993E+05 -7.235411E+03 -5.056793E+03 -8.427469E+04
        77  23  1.830759E+04  1.582980E+06  6.236690E+04 -6.462650E+03 -1.709484E+04 -5.193276E+04
        77  24  3.079287E+02  1.594412E+06  3.873322E+04 -7.249332E+03 -2.085792E+04 -1.959063E+04
        77  25  2.726430E+04  1.256545E+06  4.610674E+04  5.893178E+04 -5.064175E+03 -6.052562E+04
        77  26 -6.047399E+04  1.254315E+06 -3.370587E+03  2.194948E+04 -1.709856E+04 -4.033317E+04
        77  27 -7.599184E+04  1.272773E+06 -2.166047E+04 -1.659165E+04 -2.085843E+04 -2.013955E+04
        78   1  7.906242E+04  1.906219E+06  9.222195E+04 -9.721133E+03  2.063165E+04  1.502107E+04
        78   2  7.373381E+04  1.896661E+06  8.466493E+04 -6.415571E+03  2.073759E+04 -3.153251E+02
        78   3  7.528322E+04  1.890824E+06  8.879377E+04 -5.107332E+03  1.975433E+04 -1.565193E+04
        78   4  4.124053E+03  1.590108E+06  3.301994E+04 -7.344818E+03  2.063278E+04  1.406632E+04
        78   5  7.708624E+02  1.588386E+06  2.751559E+04 -6.346309E+03  2.073828E+04  3.343808E+02
        78   6  4.019852E+03  1.590109E+06  3.258876E+04 -7.345155E+03  1.975443E+04 -1.339795E+04
        78   7 -7.082006E+04  1.274093E+06 -2.618638E+04 -4.969734E+03  2.063391E+04  1.311204E+04
        78   8 -7.219752E+04  1.280203E+06 -2.963775E+04 -6.277075E+03  2.073898E+04  9.837732E+02
        78   9 -6.724870E+04  1.289482E+06 -2.362011E+04 -9.581862E+03  1.975452E+04 -1.114503E+04
        78  10  7.906191E+04  1.906218E+06  9.222072E+04 -9.721382E+03  8.735167E-10  9.296831E-10
        78  11  7.373335E+04  1.896661E+06  8.466412E+04 -6.415566E+03  1.352345E-09 -1.355349E-09
        78  12  7.528274E+04  1.890824E+06  8.879258E+04 -5.107083E+03  4.728912E-10 -2.418957E-09
        78  13  4.123542E+03  1.590107E+06  3.301877E+04 -7.345051E+03  1.056451E-09  2.377247E-11
        78  14  7.704003E+02  1.588386E+06  2.751478E+04 -6.346314E+03  1.018954E-09 -6.338031E-10
        78  15  4.019385E+03  1.590109E+06  3.258769E+04 -7.344942E+03 -1.736524E-09  5.662420E-10
        78  16 -7.082057E+04  1.274093E+06 -2.618751E+04 -4.969952E+03 -1.547771E-09 -1.004957E-09
        78  17 -7.219798E+04  1.280203E+06 -2.963856E+04 -6.277091E+03 -1.199306E-11  1.026872E-09
        78  18 -6.724916E+04  1.289481E+06 -2.362107E+04 -9.581685E+03 -1.041799E-09  2.406399E-09
        78  19  7.906242E+04  1.906219E+06  9.222195E+04 -9.721133E+03 -2.063165E+04 -1.502107E+04
        78  20  7.373381E+04  1.896661E+06  8.466493E+04 -6.415571E+03 -2.073759E+04  3.153251E+02
        78  21  7.528322E+04  1.890824E+06  8.879377E+04 -5.107332E+03 -1.975433E+04  1.565193E+04
        78  22  4.124053E+03  1.590108E+06  3.301994E+04 -7.344818E+03 -2.063278E+04 -1.406632E+04
        78  23  7.708624E+02  1.588386E+06  2.751559E+04 -6.346309E+03 -2.073828E+04 -3.343808E+02
        78  24  4.019852E+03  1.590109E+06  3.258876E+04 -7.345155E+03 -1.975443E+04  1.339795E+04
        78  25 -7.082006E+04  1.274093E+06 -2.618638E+04 -4.969734E+03 -2.063391E+04 -1.311204E+04
        78  26 -7.219752E+04  1.280203E+06 -2.963775E+04 -6.277075E+03 -2.073898E+04 -9.837732E+02
        78  27 -6.724870E+04  1.289482E+06 -2.362011E+04 -9.581862E+03 -1.975452E+04  1.114503E+04
        79   1  7.045315E+04  1.890181E+06  9.344835E+04 -1.665404E+04  1.935644E+04 -1.983278E+04
        79   2  8.671426E+04  1.870853E+06  1.181953E+05  2.139491E+04  1.530881E+04 -6.142143E+04
        79   3  1.771929E+05  1.875477E+06  1.885198E+05  5.711015E+04  4.473410E+03 -1.030136E+05
        79   4  3.073457E+02  1.594293E+06  3.806459E+04 -7.427682E+03  1.935656E+04 -1.884461E+04
        79   5  1.786848E+04  1.583137E+06  6.098143E+04 -6.239187E+03  1.530738E+04 -5.046795E+04
        79   6  1.079337E+05  1.594213E+06  1.225783E+05 -7.384696E+03  4.473927E+03 -8.209452E+04
        79   7 -6.984319E+04  1.298490E+06 -1.732290E+04  1.794187E+03  1.935670E+04 -1.785690E+04
        79   8 -5.097941E+04  1.295502E+06  3.764344E+03 -3.386025E+04  1.530498E+04 -3.951944E+04
        79   9  3.868466E+04  1.313031E+06  5.663532E+04 -7.185022E+04  4.470110E+03 -6.118482E+04
        79  10  7.045264E+04  1.890180E+06  9.344691E+04 -1.665373E+04  1.190653E-10  3.432759E-09
        79  11  8.671300E+04  1.870849E+06  1.181877E+05  2.139567E+04  2.852521E-09  5.900340E-10
        79  12  1.771901E+05  1.875466E+06  1.884999E+05  5.711052E+04 -3.184348E-10 -1.762453E-09
        79  13  3.068481E+02  1.594293E+06  3.806322E+04 -7.427388E+03 -8.155629E-10  2.694999E-10
        79  14  1.786754E+04  1.583135E+06  6.097622E+04 -6.238565E+03  1.954191E-09 -1.025691E-09
        79  15  1.079319E+05  1.594206E+06  1.225657E+05 -7.384400E+03  8.478266E-10  4.742997E-10
        79  16 -6.984367E+04  1.298490E+06 -1.732420E+04  1.794465E+03 -3.436005E-09 -3.617854E-09
        79  17 -5.098008E+04  1.295500E+06  3.760975E+03 -3.385976E+04 -1.113771E-09 -1.022578E-09
        79  18  3.868364E+04  1.313027E+06  5.662826E+04 -7.185000E+04  2.773130E-10  1.760130E-09
        79  19  7.045315E+04  1.890181E+06  9.344835E+04 -1.665404E+04 -1.935644E+04  1.983278E+04
        79  20  8.671426E+04  1.870853E+06  1.181953E+05  2.139491E+04 -1.530881E+04  6.142143E+04
        79  21  1.771929E+05  1.875477E+06  1.885198E+05  5.711015E+04 -4.473410E+03  1.030136E+05
        79  22  3.073457E+02  1.594293E+06  3.806459E+04 -7.427682E+03 -1.935656E+04  1.884461E+04
        79  23  1.786848E+04  1.583137E+06  6.098143E+04 -6.239187E+03 -1.530738E+04  5.046795E+04
        79  24  1.079337E+05  1.594213E+06  1.225783E+05 -7.384696E+03 -4.473927E+03  8.209452E+04
        79  25 -6.984319E+04  1.298490E+06 -1.732290E+04  1.794187E+03 -1.935670E+04  1.785690E+04
        79  26 -5.097941E+04  1.295502E+06  3.764344E+03 -3.386025E+04 -1.530498E+04  3.951944E+04
        79  27  3.868466E+04  1.313031E+06  5.663532E+04 -7.185022E+04 -4.470110E+03  6.118482E+04
        80   1 -1.918490E+06 -4.146653E+05 -3.619211E+05 -4.441666E+04  5.820340E+04  3.218048E+04
        80   2 -1.741331E+06 -5.405364E+05 -3.898362E+05 -6.187621E+04  6.364631E+04  1.012306E+05
        80   3 -1.521387E+06 -5.013387E+05 -3.796930E+05 -1.569197E+05  6.930502E+04  1.070545E+05
        80   4  4.938175E+05  1.842966E+05  2.220446E+05 -1.281676E+05  1.525913E+05  3.246905E+04
        80   5  4.675353E+05 -3.781825E+02  1.011847E+05 -8.912682E+04  9.884870E+04  1.012910E+05
        80   6  4.941111E+05 -1.003169E+04  5.936216E+04 -1.276430E+05  4.532455E+04  1.069887E+05
        80   7  2.911487E+06  7.828650E+05  8.056297E+05 -2.122495E+05  2.473448E+05  3.273160E+04
        80   8  2.680964E+06  5.394535E+05  5.919068E+05 -1.164782E+05  1.341747E+05  1.013482E+05
        80   9  2.513424E+06  4.810087E+05  4.981761E+05 -9.827115E+04  2.126690E+04  1.069208E+05
        80  10 -1.918494E+06 -4.146674E+05 -3.619294E+05 -4.441817E+04 -3.836926E-10  1.896914E-10
        80  11 -1.741338E+06 -5.405485E+05 -3.898631E+05 -6.188140E+04 -1.002795E-09  9.428918E-12
        80  12 -1.521395E+06 -5.013523E+05 -3.797236E+05 -1.569257E+05 -2.597222E-11 -2.856032E-10
        80  13  4.937923E+05  1.842892E+05  2.219989E+05 -1.281716E+05 -6.031667E-10  1.489734E-10
        80  14  4.675220E+05 -3.918237E+02  1.011471E+05 -8.913488E+04  9.016577E-10  1.732015E-10
        80  15  4.941058E+05 -1.004454E+04  5.933679E+04 -1.276469E+05  7.221351E-10 -1.692000E-10
        80  16  2.911422E+06  7.828475E+05  8.055133E+05 -2.122560E+05  2.845940E-10  2.404179E-10
        80  17  2.680942E+06  5.394377E+05  5.918538E+05 -1.164892E+05  6.204038E-10  2.863749E-10
        80  18  2.513421E+06  4.809963E+05  4.981537E+05 -9.827298E+04 -8.696855E-10 -4.310253E-10
        80  19 -1.918490E+06 -4.146653E+05 -3.619211E+05 -4.441666E+04 -5.820340E+04 -3.218048E+04
        80  20 -1.741331E+06 -5.405364E+05 -3.898362E+05 -6.187621E+04 -6.364631E+04 -1.012306E+05
        80  21 -1.521387E+06 -5.013387E+05 -3.796930E+05 -1.569197E+05 -6.930502E+04 -1.070545E+05
        80  22  4.938175E+05  1.842966E+05  2.220446E+05 -1.281676E+05 -1.525913E+05 -3.246905E+04
        80  23  4.675353E+05 -3.781825E+02  1.011847E+05 -8.912682E+04 -9.884870E+04 -1.012910E+05
        80  24  4.941111E+05 -1.003169E+04  5.936216E+04 -1.276430E+05 -4.532455E+04 -1.069887E+05
        80  25  2.911487E+06  7.828650E+05  8.056297E+05 -2.122495E+05 -2.473448E+05 -3.273160E+04
        80  26  2.680964E+06  5.394535E+05  5.919068E+05 -1.164782E+05 -1.341747E+05 -1.013482E+05
        80  27  2.513424E+06  4.810087E+05  4.981761E+05 -9.827115E+04 -2.126690E+04 -1.069208E+05
        81   1 -1.372067E+06 -4.438422E+05 -3.591838E+05 -1.269139E+05  4.278176E+04  9.511686E+04
        81   2 -1.178101E+06 -4.053480E+05 -3.363328E+05 -8.901939E+04  3.270756E+04  8.737266E+04
        81   3 -9.793185E+05 -3.575724E+05 -3.043264E+05 -1.304760E+05  2.261278E+04  7.681284E+04
        81   4  4.836570E+05  8.763951E+03  4.707910E+04 -1.281759E+05  3.694937E+04  9.508743E+04
        81   5  4.811409E+05 -9.895423E+02  2.543950E+04 -8.850225E+04  2.420916E+04  8.734758E+04
        81   6  4.838544E+05 -1.012061E+03  1.478616E+04 -1.281661E+05  1.145152E+04  7.679566E+04
        81   7  2.342609E+06  4.611403E+05  4.531335E+05 -1.294426E+05  3.109961E+04  9.505808E+04
        81   8  2.142965E+06  4.031859E+05  3.870466E+05 -8.798413E+04  1.568824E+04  8.732253E+04
        81   9  1.949035E+06  3.554059E+05  3.337704E+05 -1.258508E+05  2.642360E+02  7.677842E+04
        81  10 -1.372072E+06 -4.438524E+05 -3.592043E+05 -1.269172E+05  2.534645E-10 -1.139716E-10
        81  11 -1.178104E+06 -4.053565E+05 -3.363492E+05 -8.902169E+04  7.107531E-10  3.123406E-10
        81  12 -9.793206E+05 -3.575788E+05 -3.043384E+05 -1.304774E+05  1.669663E-09 -4.701850E-10
        81  13  4.836531E+05  8.753873E+03  4.705954E+04 -1.281787E+05 -8.597539E-10 -4.373850E-10
        81  14  4.811382E+05 -9.978945E+02  2.542405E+04 -8.850395E+04 -4.192618E-10  1.895826E-10
        81  15  4.838526E+05 -1.018431E+03  1.477483E+04 -1.281669E+05  1.415916E-09 -1.061788E-10
        81  16  2.342605E+06  4.611303E+05  4.531147E+05 -1.294449E+05 -2.299648E-10 -4.409840E-10
        81  17  2.142962E+06  4.031776E+05  3.870318E+05 -8.798523E+04 -2.536791E-09 -1.846666E-10
        81  18  1.949033E+06  3.553996E+05  3.337593E+05 -1.258508E+05 -7.260716E-10  1.755091E-11
        81  19 -1.372067E+06 -4.438422E+05 -3.591838E+05 -1.269139E+05 -4.278176E+04 -9.511686E+04
        81  20 -1.178101E+06 -4.053480E+05 -3.363328E+05 -8.901939E+04 -3.270756E+04 -8.737266E+04
        81  21 -9.793185E+05 -3.575724E+05 -3.043264E+05 -1.304760E+05 -2.261278E+04 -7.681284E+04
        81  22  4.836570E+05  8.763951E+03  4.707910E+04 -1.281759E+05 -3.694937E+04 -9.508743E+04
        81  23  4.811409E+05 -9.895423E+02  2.543950E+04 -8.850225E+04 -2.420916E+04 -8.734758E+04
        81  24  4.838544E+05 -1.012061E+03  1.478616E+04 -1.281661E+05 -1.145152E+04 -7.679566E+04
        81  25  2.342609E+06  4.611403E+05  4.531335E+05 -1.294426E+05 -3.109961E+04 -9.505808E+04
        81  26  2.142965E+06  4.031859E+05  3.870466E+05 -8.798413E+04 -1.568824E+04 -8.732253E+04
        81  27  1.949035E+06  3.554059E+05  3.337704E+05 -1.258508E+05 -2.642360E+02 -7.677842E+04
        82   1 -8.225626E+05 -3.179243E+05 -2.725025E+05 -1.284888E+05  1.948666E+04  6.999656E+04
        82   2 -6.276298E+05 -2.707286E+05 -2.352772E+05 -8.866492E+04  1.642042E+04  5.887687E+04
        82   3 -4.317113E+05 -2.229401E+05 -1.958123E+05 -1.278914E+05  1.333773E+04  4.764552E+04
        82   4  4.830055E+05  1.829200E+01  1.131492E+04 -1.281032E+05  9.154211E+03  6.998478E+04
        82   5  4.825850E+05 -3.148407E+02  6.430787E+03 -8.858232E+04  5.976055E+03  5.887162E+04
        82   6  4.831347E+05 -3.370111E+01  3.861998E+03 -1.281034E+05  2.782400E+03  4.764705E+04
        82   7  1.790173E+06  3.178479E+05  2.950308E+05 -1.277166E+05 -1.199721E+03  6.997300E+04
        82   8  1.593956E+06  2.700172E+05  2.480653E+05 -8.849943E+04 -4.486767E+03  5.886638E+04
        82   9  1.398765E+06  2.228171E+05  2.034863E+05 -1.283154E+05 -7.788298E+03  4.764859E+04
        82  10 -8.225643E+05 -3.179297E+05 -2.725124E+05 -1.284899E+05 -8.042793E-10 -5.696977E-10
        82  11 -6.276310E+05 -2.707324E+05 -2.352842E+05 -8.866570E+04 -1.196944E-09 -1.550401E-10
        82  12 -4.317121E+05 -2.229426E+05 -1.958169E+05 -1.278919E+05 -2.273624E-10  5.657357E-11
        82  13  4.830041E+05  1.300873E+01  1.130556E+04 -1.281037E+05 -1.045415E-09 -2.460766E-10
        82  14  4.825840E+05 -3.185730E+02  6.424205E+03 -8.858261E+04 -5.489085E-10  3.981939E-10
        82  15  4.831341E+05 -3.614162E+01  3.857716E+03 -1.281035E+05 -1.616463E-09  7.206272E-11
        82  16  1.790171E+06  3.178427E+05  2.950216E+05 -1.277165E+05  8.479157E-10  8.984060E-11
        82  17  1.593955E+06  2.700135E+05  2.480587E+05 -8.849922E+04  9.169318E-10  4.902692E-10
        82  18  1.398764E+06  2.228146E+05  2.034819E+05 -1.283151E+05 -3.652153E-10 -1.571426E-10
        82  19 -8.225626E+05 -3.179243E+05 -2.725025E+05 -1.284888E+05 -1.948666E+04 -6.999656E+04
        82  20 -6.276298E+05 -2.707286E+05 -2.352772E+05 -8.866492E+04 -1.642042E+04 -5.887687E+04
        82  21 -4.317113E+05 -2.229401E+05 -1.958123E+05 -1.278914E+05 -1.333773E+04 -4.764552E+04
        82  22  4.830055E+05  1.829200E+01  1.131492E+04 -1.281032E+05 -9.154211E+03 -6.998478E+04
        82  23  4.825850E+05 -3.148407E+02  6.430787E+03 -8.858232E+04 -5.976055E+03 -5.887162E+04
        82  24  4.831347E+05 -3.370111E+01  3.861998E+03 -1.281034E+05 -2.782400E+03 -4.764705E+04
        82  25  1.790173E+06  3.178479E+05  2.950308E+05 -1.277166E+05  1.199721E+03 -6.997300E+04
        82  26  1.593956E+06  2.700172E+05  2.480653E+05 -8.849943E+04  4.486767E+03 -5.886638E+04
        82  27  1.398765E+06  2.228171E+05  2.034863E+05 -1.283154E+05  7.788298E+03 -4.764859E+04
        83   1 -2.748511E+05 -1.844077E+05 -1.613886E+05 -1.277574E+05  1.266628E+04  4.108694E+04
        83   2 -8.004412E+04 -1.370284E+05 -1.205353E+05 -8.833929E+04  1.167806E+04  2.985500E+04
        83   3  1.149295E+05 -8.949491E+04 -7.901167E+04 -1.277439E+05  1.068163E+04  1.862541E+04
        83   4  4.830063E+05  3.232110E+01  3.015941E+03 -1.280537E+05  2.156231E+03  4.109156E+04
        83   5  4.829751E+05  5.847849E+01  1.991271E+03 -8.864446E+04  1.167596E+03  2.986291E+04
        83   6  4.830713E+05  2.401801E+02  1.636894E+03 -1.280536E+05  1.710428E+02  1.863677E+04
        83   7  1.241403E+06  1.844344E+05  1.673867E+05 -1.283502E+05 -8.366480E+03  4.109618E+04
        83   8  1.046292E+06  1.371244E+05  1.244993E+05 -8.894982E+04 -9.352278E+03  2.987084E+04
        83   9  8.513402E+05  8.996629E+04  8.227765E+04 -1.283635E+05 -1.034569E+04  1.864814E+04
        83  10 -2.748518E+05 -1.844096E+05 -1.613921E+05 -1.277578E+05  3.864882E-10  2.335010E-10
        83  11 -8.004451E+04 -1.370294E+05 -1.205372E+05 -8.833957E+04  5.965074E-10  2.830603E-10
        83  12  1.149293E+05 -8.949532E+04 -7.901253E+04 -1.277440E+05 -2.577354E-10  3.972986E-12
        83  13  4.830058E+05  3.050625E+01  3.012758E+03 -1.280537E+05 -2.225514E-09 -8.634080E-11
        83  14  4.829748E+05  5.752027E+01  1.989592E+03 -8.864449E+04 -1.305872E-10  5.923825E-10
        83  15  4.830712E+05  2.398070E+02  1.636241E+03 -1.280536E+05  5.845587E-10  6.750408E-11
        83  16  1.241402E+06  1.844326E+05  1.673834E+05 -1.283499E+05  1.148133E-09  2.805757E-11
        83  17  1.046291E+06  1.371234E+05  1.244974E+05 -8.894959E+04 -2.227622E-09  2.107316E-10
        83  18  8.513400E+05  8.996588E+04  8.227679E+04 -1.283633E+05 -7.043972E-11 -3.909615E-10
        83  19 -2.748511E+05 -1.844077E+05 -1.613886E+05 -1.277574E+05 -1.266628E+04 -4.108694E+04
        83  20 -8.004412E+04 -1.370284E+05 -1.205353E+05 -8.833929E+04 -1.167806E+04 -2.985500E+04
        83  21  1.149295E+05 -8.949491E+04 -7.901167E+04 -1.277439E+05 -1.068163E+04 -1.862541E+04
        83  22  4.830063E+05  3.232110E+01  3.015941E+03 -1.280537E+05 -2.156231E+03 -4.109156E+04
        83  23  4.829751E+05  5.847849E+01  1.991271E+03 -8.864446E+04 -1.167596E+03 -2.986291E+04
        83  24  4.830713E+05  2.401801E+02  1.636894E+03 -1.280536E+05 -1.710428E+02 -1.863677E+04
        83  25  1.241403E+06  1.844344E+05  1.673867E+05 -1.283502E+05  8.366480E+03 -4.109618E+04
        83  26  1.046292E+06  1.371244E+05  1.244993E+05 -8.894982E+04  9.352278E+03 -2.987084E+04
        83  27  8.513402E+05  8.996629E+04  8.227765E+04 -1.283635E+05  1.034569E+04 -1.864814E+04
        84   1  2.716555E+05 -5.110650E+04 -4.381876E+04 -1.278555E+05  1.037279E+04  1.209244E+04
        84   2  4.663981E+05 -3.892061E+03 -1.599656E+03 -8.860054E+04  9.356866E+03  8.740827E+02
        84   3  6.611596E+05  4.349792E+04  4.127371E+04 -1.280758E+05  8.340407E+03 -1.033987E+04
        84   4  4.830595E+05  2.475657E+02  1.633689E+03 -1.280340E+05 -1.351351E+02  1.210488E+04
        84   5  4.830690E+05  1.657475E+02  2.026338E+03 -8.866891E+04 -1.148484E+03  8.865448E+02
        84   6  4.830612E+05  2.612623E+02  3.072619E+03 -1.280339E+05 -2.162065E+03 -1.032724E+04
        84   7  6.945057E+05  5.159876E+04  4.708394E+04 -1.282125E+05 -1.064658E+04  1.211732E+04
        84   8  4.997404E+05  4.223597E+03  5.652729E+03 -8.873729E+04 -1.165411E+04  8.990091E+02
        84   9  3.049928E+05 -4.297741E+04 -3.512990E+04 -1.279921E+05 -1.266157E+04 -1.031461E+04
        84  10  2.716553E+05 -5.110669E+04 -4.381924E+04 -1.278556E+05  1.411932E-10 -3.590853E-10
        84  11  4.663980E+05 -3.892085E+03 -1.599822E+03 -8.860054E+04 -2.462400E-10 -5.575502E-10
        84  12  6.611595E+05  4.349779E+04  4.127337E+04 -1.280757E+05 -4.699181E-10  5.969240E-10
        84  13  4.830594E+05  2.474083E+02  1.633414E+03 -1.280340E+05  1.986131E-09 -3.996157E-10
        84  14  4.830690E+05  1.657463E+02  2.026334E+03 -8.866891E+04 -2.318281E-09 -2.152377E-10
        84  15  4.830612E+05  2.611465E+02  3.072410E+03 -1.280340E+05  1.222850E-09  5.979488E-10
        84  16  6.945055E+05  5.159857E+04  4.708345E+04 -1.282124E+05  1.317500E-09 -6.384137E-10
        84  17  4.997402E+05  4.223559E+03  5.652473E+03 -8.873728E+04 -6.128684E-11 -8.001283E-11
        84  18  3.049926E+05 -4.297757E+04 -3.513040E+04 -1.279922E+05  2.236070E-10  1.275122E-11
        84  19  2.716555E+05 -5.110650E+04 -4.381876E+04 -1.278555E+05 -1.037279E+04 -1.209244E+04
        84  20  4.663981E+05 -3.892061E+03 -1.599656E+03 -8.860054E+04 -9.356866E+03 -8.740827E+02
        84  21  6.611596E+05  4.349792E+04  4.127371E+04 -1.280758E+05 -8.340407E+03  1.033987E+04
        84  22  4.830595E+05  2.475657E+02  1.633689E+03 -1.280340E+05  1.351351E+02 -1.210488E+04
        84  23  4.830690E+05  1.657475E+02  2.026338E+03 -8.866891E+04  1.148484E+03 -8.865448E+02
        84  24  4.830612E+05  2.612623E+02  3.072619E+03 -1.280339E+05  2.162065E+03  1.032724E+04
        84  25  6.945057E+05  5.159876E+04  4.708394E+04 -1.282125E+05  1.064658E+04 -1.211732E+04
        84  26  4.997404E+05  4.223597E+03  5.652729E+03 -8.873729E+04  1.165411E+04 -8.990091E+02
        84  27  3.049928E+05 -4.297741E+04 -3.512990E+04 -1.279921E+05  1.266157E+04  1.031461E+04
        85   1  8.180756E+05  8.181836E+04  7.730758E+04 -1.281397E+05  7.731502E+03 -1.687742E+04
        85   2  1.012785E+06  1.289520E+05  1.218500E+05 -8.879344E+04  4.367577E+03 -2.807218E+04
        85   3  1.208081E+06  1.767849E+05  1.687322E+05 -1.282471E+05  1.010131E+03 -3.917695E+04
        85   4  4.831670E+05  2.093951E+02  3.921851E+03 -1.280505E+05 -2.803205E+03 -1.686571E+04
        85   5  4.828660E+05  7.053351E+00  6.588590E+03 -8.864822E+04 -6.081630E+03 -2.806380E+04
        85   6  4.831050E+05  4.928099E+02  1.153961E+04 -1.280499E+05 -9.352553E+03 -3.917172E+04
        85   7  1.483635E+05 -8.140699E+04 -6.947027E+04 -1.279613E+05 -1.333230E+04 -1.685399E+04
        85   8 -4.678996E+04 -1.289564E+05 -1.086892E+05 -8.850305E+04 -1.652204E+04 -2.805542E+04
        85   9 -2.413787E+05 -1.758339E+05 -1.456839E+05 -1.278529E+05 -1.970331E+04 -3.916650E+04
        85  10  8.180755E+05  8.181803E+04  7.730693E+04 -1.281396E+05  2.591364E-11  6.357599E-10
        85  11  1.012785E+06  1.289511E+05  1.218485E+05 -8.879334E+04 -2.319386E-09  2.865382E-11
        85  12  1.208081E+06  1.767832E+05  1.687294E+05 -1.282471E+05  8.556181E-10 -6.599948E-10
        85  13  4.831669E+05  2.090875E+02  3.921302E+03 -1.280505E+05 -1.152599E-09  1.829629E-10
        85  14  4.828658E+05  6.197486E+00  6.587040E+03 -8.864836E+04 -1.138126E-09 -4.453404E-11
        85  15  4.831045E+05  4.911383E+02  1.153656E+04 -1.280502E+05 -4.420422E-10 -6.878770E-10
        85  16  1.483632E+05 -8.140735E+04 -6.947113E+04 -1.279615E+05  6.571215E-10  3.140609E-10
        85  17 -4.679046E+04 -1.289573E+05 -1.086912E+05 -8.850343E+04 -1.530870E-10  8.819007E-11
        85  18 -2.413795E+05 -1.758357E+05 -1.456875E+05 -1.278535E+05 -8.293709E-11 -2.899591E-10
        85  19  8.180756E+05  8.181836E+04  7.730758E+04 -1.281397E+05 -7.731502E+03  1.687742E+04
        85  20  1.012785E+06  1.289520E+05  1.218500E+05 -8.879344E+04 -4.367577E+03  2.807218E+04
        85  21  1.208081E+06  1.767849E+05  1.687322E+05 -1.282471E+05 -1.010131E+03  3.917695E+04
        85  22  4.831670E+05  2.093951E+02  3.921851E+03 -1.280505E+05  2.803205E+03  1.686571E+04
        85  23  4.828660E+05  7.053351E+00  6.588590E+03 -8.864822E+04  6.081630E+03  2.806380E+04
        85  24  4.831050E+05  4.928099E+02  1.153961E+04 -1.280499E+05  9.352553E+03  3.917172E+04
        85  25  1.483635E+05 -8.140699E+04 -6.947027E+04 -1.279613E+05  1.333230E+04  1.685399E+04
        85  26 -4.678996E+04 -1.289564E+05 -1.086892E+05 -8.850305E+04  1.652204E+04  2.805542E+04
        85  27 -2.413787E+05 -1.758339E+05 -1.456839E+05 -1.278529E+05  1.970331E+04  3.916650E+04
        86   1  1.366169E+06  2.141835E+05  2.074111E+05 -1.265872E+05 -7.069576E+02 -4.589833E+04
        86   2  1.559358E+06  2.617752E+05  2.606475E+05 -8.955233E+04 -1.579315E+04 -5.655374E+04
        86   3  1.757494E+06  3.197156E+05  3.263493E+05 -1.314396E+05 -3.087047E+04 -6.505880E+04
        86   4  4.839433E+05 -5.394717E+02  1.506335E+04 -1.280787E+05 -1.170327E+04 -4.589566E+04
        86   5  4.815959E+05 -4.525288E+02  2.599664E+04 -8.861237E+04 -2.475328E+04 -5.655832E+04
        86   6  4.838141E+05  9.643147E+03  4.799943E+04 -1.280759E+05 -3.778975E+04 -6.506889E+04
        86   7 -3.975540E+05 -2.153140E+05 -1.773307E+05 -1.295678E+05 -2.268418E+04 -4.589293E+04
        86   8 -5.950794E+05 -2.627572E+05 -2.087236E+05 -8.767392E+04 -3.369807E+04 -5.656293E+04
        86   9 -7.883497E+05 -3.005373E+05 -2.304483E+05 -1.247190E+05 -4.469499E+04 -6.507906E+04
        86  10  1.366168E+06  2.141812E+05  2.074071E+05 -1.265873E+05 -1.877047E-10 -4.614726E-10
        86  11  1.559357E+06  2.617717E+05  2.606410E+05 -8.955305E+04 -8.288945E-10  2.087302E-10
        86  12  1.757492E+06  3.197108E+05  3.263396E+05 -1.314412E+05  1.792862E-09 -7.682308E-10
        86  13  4.839426E+05 -5.417710E+02  1.505913E+04 -1.280791E+05 -1.193856E-09 -2.325550E-10
        86  14  4.815944E+05 -4.561291E+02  2.598948E+04 -8.861350E+04  1.623687E-09  2.195162E-10
        86  15  4.838114E+05  9.638216E+03  4.798879E+04 -1.280779E+05  6.040348E-10 -4.831823E-10
        86  16 -3.975551E+05 -2.153164E+05 -1.773356E+05 -1.295687E+05  1.170019E-09 -3.159891E-10
        86  17 -5.950815E+05 -2.627610E+05 -2.087318E+05 -8.767546E+04 -4.657695E-10  3.817112E-10
        86  18 -7.883529E+05 -3.005423E+05 -2.304600E+05 -1.247214E+05 -8.342487E-10 -2.034951E-10
        86  19  1.366169E+06  2.141835E+05  2.074111E+05 -1.265872E+05  7.069576E+02  4.589833E+04
        86  20  1.559358E+06  2.617752E+05  2.606475E+05 -8.955233E+04  1.579315E+04  5.655374E+04
        86  21  1.757494E+06  3.197156E+05  3.263493E+05 -1.314396E+05  3.087047E+04  6.505880E+04
        86  22  4.839433E+05 -5.394717E+02  1.506335E+04 -1.280787E+05  1.170327E+04  4.589566E+04
        86  23  4.815959E+05 -4.525288E+02  2.599664E+04 -8.861237E+04  2.475328E+04  5.655832E+04
        86  24  4.838141E+05  9.643147E+03  4.799943E+04 -1.280759E+05  3.778975E+04  6.506889E+04
        86  25 -3.975540E+05 -2.153140E+05 -1.773307E+05 -1.295678E+05  2.268418E+04  4.589293E+04
        86  26 -5.950794E+05 -2.627572E+05 -2.087236E+05 -8.767392E+04  3.369807E+04  5.656293E+04
        86  27 -7.883497E+05 -3.005373E+05 -2.304483E+05 -1.247190E+05  4.469499E+04  6.507906E+04
        87   1  1.927110E+06  3.390045E+05  3.720688E+05 -1.003193E+05 -2.552742E+04 -7.565059E+04
        87   2  2.094059E+06  3.972622E+05  4.641894E+05 -1.202400E+05 -1.254791E+05 -7.387056E+04
        87   3  2.321480E+06  6.413372E+05  6.679174E+05 -2.175766E+05 -2.255402E+05 -2.392090E+04
        87   4  4.944295E+05 -9.463276E+03  6.050809E+04 -1.276905E+05 -4.634238E+04 -7.566810E+04
        87   5  4.679517E+05  4.038416E+02  1.032553E+05 -8.908379E+04 -1.009671E+05 -7.387044E+04
        87   6  4.942016E+05  1.884849E+05  2.263326E+05 -1.278819E+05 -1.556633E+05 -2.386541E+04
        87   7 -9.363283E+05 -3.580640E+05 -2.511735E+05 -1.549978E+05 -6.710995E+04 -7.568380E+04
        87   8 -1.155691E+06 -3.966290E+05 -2.578404E+05 -5.801022E+04 -7.651802E+04 -7.386790E+04
        87   9 -1.330005E+06 -2.645780E+05 -2.154688E+05 -3.845194E+04 -8.599024E+04 -2.378974E+04
        87  10  1.927107E+06  3.389981E+05  3.720569E+05 -1.003209E+05  3.419205E-10 -8.537654E-10
        87  11  2.094041E+06  3.972521E+05  4.641496E+05 -1.202474E+05 -2.764976E-10 -2.318374E-11
        87  12  2.321425E+06  6.413230E+05  6.678210E+05 -2.175810E+05  9.977566E-10 -1.095591E-10
        87  13  4.944257E+05 -9.470002E+03  6.049329E+04 -1.276933E+05  5.570910E-11 -7.362298E-10
        87  14  4.679393E+05  3.952456E+02  1.032259E+05 -8.908979E+04 -4.216612E-10 -3.194290E-10
        87  15  4.941755E+05  1.884778E+05  2.262861E+05 -1.278849E+05  6.870250E-10  2.523040E-11
        87  16 -9.363347E+05 -3.580714E+05 -2.511928E+05 -1.550019E+05 -7.731292E-10 -4.864090E-10
        87  17 -1.155699E+06 -3.966364E+05 -2.578617E+05 -5.801478E+04 -4.151675E-10  2.706324E-11
        87  18 -1.330013E+06 -2.645806E+05 -2.154838E+05 -3.845359E+04  8.753753E-11 -6.018133E-11
        87  19  1.927110E+06  3.390045E+05  3.720688E+05 -1.003193E+05  2.552742E+04  7.565059E+04
        87  20  2.094059E+06  3.972622E+05  4.641894E+05 -1.202400E+05  1.254791E+05  7.387056E+04
        87  21  2.321480E+06  6.413372E+05  6.679174E+05 -2.175766E+05  2.255402E+05  2.392090E+04
        87  22  4.944295E+05 -9.463276E+03  6.050809E+04 -1.276905E+05  4.634238E+04  7.566810E+04
        87  23  4.679517E+05  4.038416E+02  1.032553E+05 -8.908379E+04  1.009671E+05  7.387044E+04
        87  24  4.942016E+05  1.884849E+05  2.263326E+05 -1.278819E+05  1.556633E+05  2.386541E+04
        87  25 -9.363283E+05 -3.580640E+05 -2.511735E+05 -1.549978E+05  6.710995E+04  7.568380E+04
        87  26 -1.155691E+06 -3.966290E+05 -2.578404E+05 -5.801022E+04  7.651802E+04  7.386790E+04
        87  27 -1.330005E+06 -2.645780E+05 -2.154688E+05 -3.845194E+04  8.599024E+04  2.378974E+04
        88   1  2.213228E+04 -3.624239E+05  3.833294E+04 -1.430389E+05 -5.166342E+03  4.792745E+04
        88   2 -9.327622E+04 -5.365715E+05 -4.398908E+04 -8.573739E+04 -1.959662E+04  3.002162E+04
        88   3 -1.373752E+05 -6.910761E+05 -9.696781E+04 -9.499068E+04 -2.999539E+04  1.213866E+04
        88   4  7.687310E+04 -1.397049E+05  9.092850E+04 -1.070256E+05 -5.222579E+03  6.339997E+04
        88   5  9.515102E+02 -1.498640E+05  4.082993E+04 -7.389726E+04 -1.963805E+04  4.171489E+04
        88   6 -3.024142E+03 -1.397503E+05  2.269754E+04 -1.073144E+05 -3.002190E+04  2.004851E+04
        88   7  1.316154E+05  8.306321E+04  1.435223E+05 -7.099934E+04 -5.277009E+03  7.887802E+04
        88   8  9.516988E+04  2.369842E+05  1.256405E+05 -6.204953E+04 -1.967902E+04  5.341534E+04
        88   9  1.313073E+05  4.118613E+05  1.423451E+05 -1.196489E+05 -3.004871E+04  2.796529E+04
        88  10  2.213164E+04 -3.624264E+05  3.832857E+04 -1.430387E+05  9.803216E-10  1.324277E-09
        88  11 -9.327687E+04 -5.365726E+05 -4.399150E+04 -8.573692E+04  1.220875E-09 -1.012883E-10
        88  12 -1.373762E+05 -6.910765E+05 -9.696977E+04 -9.499039E+04 -6.893444E-10 -1.600109E-09
        88  13  7.687199E+04 -1.397092E+05  9.092090E+04 -1.070254E+05 -2.716097E-11 -2.314501E-11
        88  14  9.506290E+02 -1.498660E+05  4.082594E+04 -7.389660E+04  3.645462E-09  1.135101E-11
        88  15 -3.025218E+03 -1.397509E+05  2.269509E+04 -1.073139E+05  7.031315E-10  8.006601E-11
        88  16  1.316137E+05  8.305653E+04  1.435105E+05 -7.099900E+04  5.201016E-10 -1.414656E-09
        88  17  9.516870E+04  2.369810E+05  1.256344E+05 -6.204868E+04  1.196546E-09  3.309090E-10
        88  18  1.313061E+05  4.118603E+05  1.423419E+05 -1.196482E+05 -7.840271E-10  1.551072E-09
        88  19  2.213228E+04 -3.624239E+05  3.833294E+04 -1.430389E+05  5.166342E+03 -4.792745E+04
        88  20 -9.327622E+04 -5.365715E+05 -4.398908E+04 -8.573739E+04  1.959662E+04 -3.002162E+04
        88  21 -1.373752E+05 -6.910761E+05 -9.696781E+04 -9.499068E+04  2.999539E+04 -1.213866E+04
        88  22  7.687310E+04 -1.397049E+05  9.092850E+04 -1.070256E+05  5.222579E+03 -6.339997E+04
        88  23  9.515102E+02 -1.498640E+05  4.082993E+04 -7.389726E+04  1.963805E+04 -4.171489E+04
        88  24 -3.024142E+03 -1.397503E+05  2.269754E+04 -1.073144E+05  3.002190E+04 -2.004851E+04
        88  25  1.316154E+05  8.306321E+04  1.435223E+05 -7.099934E+04  5.277009E+03 -7.887802E+04
        88  26  9.516988E+04  2.369842E+05  1.256405E+05 -6.204953E+04  1.967902E+04 -5.341534E+04
        88  27  1.313073E+05  4.118613E+05  1.423451E+05 -1.196489E+05  3.004871E+04 -2.796529E+04
        89   1 -1.619655E+05 -8.278361E+05 -1.324197E+05 -1.065394E+05 -3.531584E+04  7.382136E+03
        89   2 -2.064535E+05 -9.925089E+05 -1.785208E+05 -7.244834E+04 -4.453986E+04  5.918745E+03
        89   3 -2.482984E+05 -1.156566E+06 -2.230779E+05 -1.047889E+05 -5.182467E+04  4.470717E+03
        89   4  4.766336E+03 -1.440894E+05  1.710889E+04 -1.072069E+05 -3.534597E+04  1.693145E+04
        89   5  2.489874E+02 -1.445846E+05  6.473665E+03 -7.400346E+04 -4.455976E+04  1.365209E+04
        89   6 -1.309130E+03 -1.441730E+05 -1.354499E+03 -1.072259E+05 -5.183564E+04  1.038774E+04
        89   7  1.714670E+05  5.400957E+05  1.666096E+05 -1.078747E+05 -3.537611E+04  2.649115E+04
        89   8  2.069036E+05  7.040143E+05  1.914251E+05 -7.556017E+04 -4.457969E+04  2.139587E+04
        89   9  2.456117E+05  8.691807E+05  2.203069E+05 -1.096661E+05 -5.184666E+04  1.631430E+04
        89  10 -1.619668E+05 -8.278365E+05 -1.324222E+05 -1.065392E+05 -7.283523E-10  9.871209E-10
        89  11 -2.064556E+05 -9.925094E+05 -1.785246E+05 -7.244813E+04  3.718682E-10  2.922047E-10
        89  12 -2.483013E+05 -1.156567E+06 -2.230830E+05 -1.047887E+05 -1.581424E-10 -2.522928E-10
        89  13  4.764918E+03 -1.440901E+05  1.710601E+04 -1.072064E+05  1.468295E-09  1.180159E-10
        89  14  2.468054E+02 -1.445853E+05  6.469584E+03 -7.400297E+04  1.178363E-09  9.195373E-11
        89  15 -1.312044E+03 -1.441738E+05 -1.359750E+03 -1.072254E+05  5.502328E-10  1.867901E-10
        89  16  1.714655E+05  5.400946E+05  1.666059E+05 -1.078739E+05 -1.443563E-09 -1.047355E-09
        89  17  2.069014E+05  7.040132E+05  1.914205E+05 -7.555940E+04  5.792076E-10 -2.309951E-10
        89  18  2.456088E+05  8.691797E+05  2.203014E+05 -1.096654E+05 -2.727859E-10  4.867232E-10
        89  19 -1.619655E+05 -8.278361E+05 -1.324197E+05 -1.065394E+05  3.531584E+04 -7.382136E+03
        89  20 -2.064535E+05 -9.925089E+05 -1.785208E+05 -7.244834E+04  4.453986E+04 -5.918745E+03
        89  21 -2.482984E+05 -1.156566E+06 -2.230779E+05 -1.047889E+05  5.182467E+04 -4.470717E+03
        89  22  4.766336E+03 -1.440894E+05  1.710889E+04 -1.072069E+05  3.534597E+04 -1.693145E+04
        89  23  2.489874E+02 -1.445846E+05  6.473665E+03 -7.400346E+04  4.455976E+04 -1.365209E+04
        89  24 -1.309130E+03 -1.441730E+05 -1.354499E+03 -1.072259E+05  5.183564E+04 -1.038774E+04
        89  25  1.714670E+05  5.400957E+05  1.666096E+05 -1.078747E+05  3.537611E+04 -2.649115E+04
        89  26  2.069036E+05  7.040143E+05  1.914251E+05 -7.556017E+04  4.457969E+04 -2.139587E+04
        89  27  2.456117E+05  8.691807E+05  2.203069E+05 -1.096661E+05  5.184666E+04 -1.631430E+04
        90   1 -2.774078E+05 -1.291523E+06 -2.544211E+05 -1.004408E+05 -6.055917E+04 -6.456058E+03
        90   2 -3.199528E+05 -1.449308E+06 -3.042816E+05 -7.697911E+04 -5.948066E+04  3.733015E+04
        90   3 -3.944619E+05 -1.620551E+06 -3.906273E+05 -1.181619E+05 -1.923334E+04  8.117031E+04
        90   4  1.865809E+03 -1.460166E+05 -4.705591E+03 -1.068066E+05 -6.059729E+04  1.074248E+04
        90   5 -2.062774E+02 -1.425288E+05 -1.347443E+04 -7.451831E+04 -5.942778E+04  1.795565E+04
        90   6 -2.784921E+04 -1.461440E+05 -3.327977E+04 -1.068702E+05 -1.912521E+04  2.523613E+04
        90   7  2.810524E+05  1.000722E+06  2.449321E+05 -1.131834E+05 -6.063573E+04  2.797237E+04
        90   8  3.194247E+05  1.165847E+06  2.772275E+05 -7.205129E+04 -5.937512E+04 -1.459278E+03
        90   9  3.386062E+05  1.330260E+06  3.239230E+05 -9.555047E+04 -1.901926E+04 -3.083080E+04
        90  10 -2.774118E+05 -1.291524E+06 -2.544281E+05 -1.004411E+05  2.778313E-11 -2.857469E-10
        90  11 -3.199570E+05 -1.449311E+06 -3.042908E+05 -7.697732E+04  7.060113E-10 -3.667949E-11
        90  12 -3.944641E+05 -1.620558E+06 -3.906404E+05 -1.181607E+05  6.227234E-10  8.862034E-11
        90  13  1.861835E+03 -1.460177E+05 -4.712708E+03 -1.068061E+05 -4.195165E-10  2.291069E-10
        90  14 -2.101559E+02 -1.425301E+05 -1.348167E+04 -7.451745E+04 -1.355569E-09  1.847890E-11
        90  15 -2.784977E+04 -1.461448E+05 -3.328165E+04 -1.068698E+05  2.936026E-10  4.261911E-11
        90  16  2.810483E+05  1.000720E+06  2.449238E+05 -1.131821E+05 -7.887910E-10  3.698994E-10
        90  17  3.194209E+05  1.165846E+06  2.772208E+05 -7.205136E+04 -1.329474E-10  6.115227E-11
        90  18  3.386056E+05  1.330258E+06  3.239205E+05 -9.555094E+04 -1.494988E-10 -6.035313E-11
        90  19 -2.774078E+05 -1.291523E+06 -2.544211E+05 -1.004408E+05  6.055917E+04  6.456058E+03
        90  20 -3.199528E+05 -1.449308E+06 -3.042816E+05 -7.697911E+04  5.948066E+04 -3.733015E+04
        90  21 -3.944619E+05 -1.620551E+06 -3.906273E+05 -1.181619E+05  1.923334E+04 -8.117031E+04
        90  22  1.865809E+03 -1.460166E+05 -4.705591E+03 -1.068066E+05  6.059729E+04 -1.074248E+04
        90  23 -2.062774E+02 -1.425288E+05 -1.347443E+04 -7.451831E+04  5.942778E+04 -1.795565E+04
        90  24 -2.784921E+04 -1.461440E+05 -3.327977E+04 -1.068702E+05  1.912521E+04 -2.523613E+04
        90  25  2.810524E+05  1.000722E+06  2.449321E+05 -1.131834E+05  6.063573E+04 -2.797237E+04
        90  26  3.194247E+05  1.165847E+06  2.772275E+05 -7.205129E+04  5.937512E+04  1.459278E+03
        90  27  3.386062E+05  1.330260E+06  3.239230E+05 -9.555047E+04  1.901926E+04  3.083080E+04
        91   1 -3.438162E+06 -1.284007E+06 -7.749867E+05 -1.224778E+06 -2.606272E+05 -6.851261E+04
        91   2 -3.302382E+06 -9.419497E+05 -5.395596E+05 -1.177448E+06 -1.709479E+05  3.026025E+04
        91   3 -3.219415E+06 -8.600498E+05 -4.463681E+05 -1.124269E+06 -6.120074E+04  7.619169E+04
        91   4 -1.660343E+06 -5.116235E+05 -2.800560E+05 -6.363629E+05 -1.884746E+05 -4.123909E+04
        91   5 -1.623070E+06 -2.787457E+05 -1.217207E+05 -6.798545E+05 -1.447007E+05  4.015261E+04
        91   6 -1.629240E+06 -2.965436E+05 -6.883841E+04 -7.175698E+05 -8.091315E+04  6.873585E+04
        91   7  1.205716E+05  2.612479E+05  2.145978E+05 -4.631798E+04 -1.160939E+05 -1.385020E+04
        91   8  5.904293E+04  3.847425E+05  2.958999E+05 -1.809987E+05 -1.183754E+05  5.007817E+04
        91   9 -3.654755E+04  2.670825E+05  3.085145E+05 -3.099426E+05 -1.006808E+05  6.126164E+04
        91  10 -3.438237E+06 -1.284031E+06 -7.751240E+05 -1.224793E+06 -1.697549E-10  7.172954E-12
        91  11 -3.302414E+06 -9.419585E+05 -5.396164E+05 -1.177444E+06 -3.109223E-10  5.597791E-11
        91  12 -3.219420E+06 -8.600570E+05 -4.463860E+05 -1.124266E+06  1.328706E-10  1.307872E-10
        91  13 -1.660382E+06 -5.116349E+05 -2.801262E+05 -6.363692E+05 -1.605707E-09  2.196777E-10
        91  14 -1.623093E+06 -2.787531E+05 -1.217632E+05 -6.798498E+05  6.891622E-10  1.579102E-10
        91  15 -1.629249E+06 -2.965504E+05 -6.885959E+04 -7.175654E+05  1.069430E-09 -3.128868E-10
        91  16  1.205571E+05  2.612440E+05  2.145721E+05 -4.631927E+04  5.616482E-10  2.644656E-10
        91  17  5.902721E+04  3.847360E+05  2.958689E+05 -1.809939E+05  9.547714E-11  2.581376E-10
        91  18 -3.655943E+04  2.670757E+05  3.084884E+05 -3.099376E+05  1.065705E-11 -7.700704E-10
        91  19 -3.438162E+06 -1.284007E+06 -7.749867E+05 -1.224778E+06  2.606272E+05  6.851261E+04
        91  20 -3.302382E+06 -9.419497E+05 -5.395596E+05 -1.177448E+06  1.709479E+05 -3.026025E+04
        91  21 -3.219415E+06 -8.600498E+05 -4.463681E+05 -1.124269E+06  6.120074E+04 -7.619169E+04
        91  22 -1.660343E+06 -5.116235E+05 -2.800560E+05 -6.363629E+05  1.884746E+05  4.123909E+04
        91  23 -1.623070E+06 -2.787457E+05 -1.217207E+05 -6.798545E+05  1.447007E+05 -4.015261E+04
        91  24 -1.629240E+06 -2.965436E+05 -6.883841E+04 -7.175698E+05  8.091315E+04 -6.873585E+04
        91  25  1.205716E+05  2.612479E+05  2.145978E+05 -4.631798E+04  1.160939E+05  1.385020E+04
        91  26  5.904293E+04  3.847425E+05  2.958999E+05 -1.809987E+05  1.183754E+05 -5.007817E+04
        91  27 -3.654755E+04  2.670825E+05  3.085145E+05 -3.099426E+05  1.006808E+05 -6.126164E+04
        92   1 -3.064076E+06 -8.617413E+05 -4.051112E+05 -1.107523E+06 -6.435141E+04  6.357093E+04
        92   2 -2.940472E+06 -7.689319E+05 -3.422394E+05 -1.042441E+06 -4.579536E+04  6.393541E+04
        92   3 -2.777516E+06 -7.347942E+05 -2.949342E+05 -1.026402E+06 -2.632711E+04  6.184535E+04
        92   4 -1.619836E+06 -3.177646E+05 -5.453228E+04 -7.055436E+05 -6.840884E+04  6.202471E+04
        92   5 -1.638734E+06 -2.821774E+05 -2.810515E+04 -6.834271E+05 -5.195987E+04  6.160145E+04
        92   6 -1.617868E+06 -3.048190E+05 -1.554145E+04 -7.103576E+05 -3.460371E+04  5.872457E+04
        92   7 -1.735306E+05  2.263667E+05  2.958892E+05 -3.027074E+05 -7.247650E+04  6.047458E+04
        92   8 -3.353117E+05  2.046994E+05  2.859044E+05 -3.237240E+05 -5.813849E+04  5.926217E+04
        92   9 -4.568787E+05  1.252496E+05  2.637544E+05 -3.937734E+05 -4.289726E+04  5.559751E+04
        92  10 -3.064082E+06 -8.617467E+05 -4.051266E+05 -1.107520E+06 -1.408180E-09 -6.278870E-10
        92  11 -2.940476E+06 -7.689368E+05 -3.422511E+05 -1.042439E+06 -7.146103E-10  7.698123E-10
        92  12 -2.777517E+06 -7.347985E+05 -2.949427E+05 -1.026401E+06 -8.472837E-10  3.299062E-10
        92  13 -1.619842E+06 -3.177699E+05 -5.454830E+04 -7.055402E+05 -7.589382E-10 -1.206847E-10
        92  14 -1.638738E+06 -2.821822E+05 -2.811735E+04 -6.834245E+05 -5.281566E-11  5.597885E-10
        92  15 -1.617870E+06 -3.048230E+05 -1.555017E+04 -7.103559E+05 -9.710687E-11 -3.081737E-11
        92  16 -1.735372E+05  2.263614E+05  2.958725E+05 -3.027039E+05  2.011264E-09  1.159365E-10
        92  17 -3.353163E+05  2.046947E+05  2.858914E+05 -3.237212E+05  1.554553E-10  6.399541E-10
        92  18 -4.568815E+05  1.252458E+05  2.637451E+05 -3.937715E+05 -6.414230E-10 -2.824653E-10
        92  19 -3.064076E+06 -8.617413E+05 -4.051112E+05 -1.107523E+06  6.435141E+04 -6.357093E+04
        92  20 -2.940472E+06 -7.689319E+05 -3.422394E+05 -1.042441E+06  4.579536E+04 -6.393541E+04
        92  21 -2.777516E+06 -7.347942E+05 -2.949342E+05 -1.026402E+06  2.632711E+04 -6.184535E+04
        92  22 -1.619836E+06 -3.177646E+05 -5.453228E+04 -7.055436E+05  6.840884E+04 -6.202471E+04
        92  23 -1.638734E+06 -2.821774E+05 -2.810515E+04 -6.834271E+05  5.195987E+04 -6.160145E+04
        92  24 -1.617868E+06 -3.048190E+05 -1.554145E+04 -7.103576E+05  3.460371E+04 -5.872457E+04
        92  25 -1.735306E+05  2.263667E+05  2.958892E+05 -3.027074E+05  7.247650E+04 -6.047458E+04
        92  26 -3.353117E+05  2.046994E+05  2.859044E+05 -3.237240E+05  5.813849E+04 -5.926217E+04
        92  27 -4.568787E+05  1.252496E+05  2.637544E+05 -3.937734E+05  4.289726E+04 -5.559751E+04
        93   1 -2.651852E+06 -6.915349E+05 -2.606428E+05 -9.937596E+05 -2.275651E+04  5.703234E+04
        93   2 -2.526457E+06 -6.118310E+05 -2.198823E+05 -9.262414E+05 -1.605992E+04  4.948730E+04
        93   3 -2.354728E+06 -5.795897E+05 -1.817641E+05 -9.120115E+05 -9.312318E+03  4.177320E+04
        93   4 -1.616880E+06 -3.062204E+05 -1.184643E+04 -7.098417E+05 -3.038999E+04  5.415731E+04
        93   5 -1.639939E+06 -2.820270E+05 -6.484260E+03 -6.833570E+05 -2.383464E+04  4.656450E+04
        93   6 -1.616661E+06 -3.052631E+05 -3.648535E+03 -7.101636E+05 -1.722924E+04  3.880252E+04
        93   7 -5.808435E+05  7.916952E+04  2.368717E+05 -4.254912E+05 -3.803738E+04  5.127706E+04
        93   8 -7.526432E+05  4.783111E+04  2.068557E+05 -4.401566E+05 -3.162148E+04  4.363717E+04
        93   9 -8.780575E+05 -3.090036E+04  1.744260E+05 -5.080978E+05 -2.515641E+04  3.582802E+04
        93  10 -2.651854E+06 -6.915385E+05 -2.606499E+05 -9.937586E+05 -1.468764E-09 -5.480997E-10
        93  11 -2.526458E+06 -6.118337E+05 -2.198873E+05 -9.262408E+05 -4.643444E-10 -4.801343E-10
        93  12 -2.354729E+06 -5.795916E+05 -1.817675E+05 -9.120112E+05 -6.152260E-10 -9.292952E-10
        93  13 -1.616882E+06 -3.062238E+05 -1.185367E+04 -7.098404E+05 -9.669496E-10 -4.862646E-10
        93  14 -1.639941E+06 -2.820295E+05 -6.489398E+03 -6.833562E+05 -1.587339E-09 -3.950968E-12
        93  15 -1.616662E+06 -3.052648E+05 -3.651920E+03 -7.101631E+05 -2.313300E-09 -9.131348E-10
        93  16 -5.808457E+05  7.916631E+04  2.368641E+05 -4.254897E+05  1.088993E-09 -1.114448E-10
        93  17 -7.526448E+05  4.782880E+04  2.068502E+05 -4.401555E+05 -1.339568E-09 -1.394369E-10
        93  18 -8.780585E+05 -3.090190E+04  1.744224E+05 -5.080970E+05 -3.627931E-09 -9.946040E-10
        93  19 -2.651852E+06 -6.915349E+05 -2.606428E+05 -9.937596E+05  2.275651E+04 -5.703234E+04
        93  20 -2.526457E+06 -6.118310E+05 -2.198823E+05 -9.262414E+05  1.605992E+04 -4.948730E+04
        93  21 -2.354728E+06 -5.795897E+05 -1.817641E+05 -9.120115E+05  9.312318E+03 -4.177320E+04
        93  22 -1.616880E+06 -3.062204E+05 -1.184643E+04 -7.098417E+05  3.038999E+04 -5.415731E+04
        93  23 -1.639939E+06 -2.820270E+05 -6.484260E+03 -6.833570E+05  2.383464E+04 -4.656450E+04
        93  24 -1.616661E+06 -3.052631E+05 -3.648535E+03 -7.101636E+05  1.722924E+04 -3.880252E+04
        93  25 -5.808435E+05  7.916952E+04  2.368717E+05 -4.254912E+05  3.803738E+04 -5.127706E+04
        93  26 -7.526432E+05  4.783111E+04  2.068557E+05 -4.401566E+05  3.162148E+04 -4.363717E+04
        93  27 -8.780575E+05 -3.090036E+04  1.744260E+05 -5.080978E+05  2.515641E+04 -3.582802E+04
        94   1 -2.228715E+06 -5.329117E+05 -1.496440E+05 -8.778661E+05 -6.792317E+03  3.669351E+04
        94   2 -2.101387E+06 -4.530877E+05 -1.128160E+05 -8.093685E+05 -2.440461E+03  2.796151E+04
        94   3 -1.926762E+06 -4.206420E+05 -7.668612E+04 -7.951735E+05  1.918670E+03  1.919196E+04
        94   4 -1.616444E+06 -3.054621E+05 -2.848604E+03 -7.102935E+05 -1.471629E+04  3.372277E+04
        94   5 -1.640045E+06 -2.816859E+05 -1.836145E+03 -6.831627E+05 -1.039638E+04  2.498157E+04
        94   6 -1.616374E+06 -3.052817E+05 -1.496921E+03 -7.103412E+05 -6.069510E+03  1.620287E+04
        94   7 -1.003796E+06 -7.798430E+04  1.439211E+05 -5.425685E+05 -2.264886E+04  3.074882E+04
        94   8 -1.178494E+06 -1.102697E+05  1.091280E+05 -5.568717E+05 -1.835873E+04  2.199922E+04
        94   9 -1.305895E+06 -1.899165E+05  7.368415E+04 -6.254714E+05 -1.406194E+04  1.321220E+04
        94  10 -2.228715E+06 -5.329131E+05 -1.496466E+05 -8.778659E+05 -4.387408E-09 -1.169781E-09
        94  11 -2.101387E+06 -4.530886E+05 -1.128175E+05 -8.093684E+05 -6.839405E-10  2.226980E-10
        94  12 -1.926762E+06 -4.206424E+05 -7.668682E+04 -7.951736E+05 -2.459230E-10 -6.774048E-11
        94  13 -1.616445E+06 -3.054633E+05 -2.851146E+03 -7.102931E+05 -3.024570E-09 -8.745727E-10
        94  14 -1.640045E+06 -2.816866E+05 -1.837520E+03 -6.831625E+05  5.267154E-10  4.427780E-10
        94  15 -1.616374E+06 -3.052820E+05 -1.497483E+03 -7.103411E+05  9.717622E-10 -8.103863E-11
        94  16 -1.003797E+06 -7.798545E+04  1.439184E+05 -5.425680E+05  2.000764E-10  7.026731E-11
        94  17 -1.178494E+06 -1.102703E+05  1.091265E+05 -5.568714E+05  5.227327E-10 -1.991640E-10
        94  18 -1.305895E+06 -1.899167E+05  7.368345E+04 -6.254712E+05  4.221543E-10 -6.285799E-10
        94  19 -2.228715E+06 -5.329117E+05 -1.496440E+05 -8.778661E+05  6.792317E+03 -3.669351E+04
        94  20 -2.101387E+06 -4.530877E+05 -1.128160E+05 -8.093685E+05  2.440461E+03 -2.796151E+04
        94  21 -1.926762E+06 -4.206420E+05 -7.668612E+04 -7.951735E+05 -1.918670E+03 -1.919196E+04
        94  22 -1.616444E+06 -3.054621E+05 -2.848604E+03 -7.102935E+05  1.471629E+04 -3.372277E+04
        94  23 -1.640045E+06 -2.816859E+05 -1.836145E+03 -6.831627E+05  1.039638E+04 -2.498157E+04
        94  24 -1.616374E+06 -3.052817E+05 -1.496921E+03 -7.103412E+05  6.069510E+03 -1.620287E+04
        94  25 -1.003796E+06 -7.798430E+04  1.439211E+05 -5.425685E+05  2.264886E+04 -3.074882E+04
        94  26 -1.178494E+06 -1.102697E+05  1.091280E+05 -5.568717E+05  1.835873E+04 -2.199922E+04
        94  27 -1.305895E+06 -1.899165E+05  7.368415E+04 -6.254714E+05  1.406194E+04 -1.321220E+04
        95   1 -1.799629E+06 -3.733359E+05 -4.510200E+04 -7.605952E+05  4.176819E+03  1.396592E+04
        95   2 -1.671446E+06 -2.932491E+05 -9.629324E+03 -6.917350E+05  8.629773E+03  5.197360E+03
        95   3 -1.495864E+06 -2.607952E+05  2.505376E+04 -6.775149E+05  1.308203E+04 -3.569480E+03
        95   4 -1.616336E+06 -3.053351E+05 -1.547458E+03 -7.104130E+05 -3.826064E+03  1.097230E+04
        95   5 -1.640025E+06 -2.815253E+05 -2.064298E+03 -6.830845E+05  6.274801E+02  2.204057E+03
        95   6 -1.616334E+06 -3.053503E+05 -3.370044E+03 -7.104055E+05  5.080039E+03 -6.562496E+03
        95   7 -1.433009E+06 -2.373315E+05  4.200529E+04 -6.602169E+05 -1.183157E+04  7.977699E+03
        95   8 -1.608601E+06 -2.698013E+05  5.501030E+03 -6.744335E+05 -7.375346E+03 -7.894472E+02
        95   9 -1.736792E+06 -3.499051E+05 -3.179515E+04 -7.432908E+05 -2.920397E+03 -9.554930E+03
        95  10 -1.799629E+06 -3.733361E+05 -4.510240E+04 -7.605952E+05 -9.585576E-10 -7.881946E-10
        95  11 -1.671446E+06 -2.932491E+05 -9.629515E+03 -6.917350E+05  3.918404E-10 -8.218844E-11
        95  12 -1.495864E+06 -2.607953E+05  2.505342E+04 -6.775148E+05 -7.621891E-10  3.473346E-10
        95  13 -1.616336E+06 -3.053352E+05 -1.547712E+03 -7.104130E+05  1.375514E-10 -7.066316E-10
        95  14 -1.640025E+06 -2.815253E+05 -2.064308E+03 -6.830845E+05 -6.896295E-10 -1.512990E-10
        95  15 -1.616334E+06 -3.053504E+05 -3.370173E+03 -7.104055E+05 -9.889176E-10  6.506742E-10
        95  16 -1.433009E+06 -2.373316E+05  4.200490E+04 -6.602168E+05  1.236628E-09 -1.219918E-13
        95  17 -1.608601E+06 -2.698013E+05  5.500926E+03 -6.744335E+05  4.760970E-10  3.084494E-11
        95  18 -1.736792E+06 -3.499052E+05 -3.179534E+04 -7.432909E+05  5.381946E-11  8.262440E-10
        95  19 -1.799629E+06 -3.733359E+05 -4.510200E+04 -7.605952E+05 -4.176819E+03 -1.396592E+04
        95  20 -1.671446E+06 -2.932491E+05 -9.629324E+03 -6.917350E+05 -8.629773E+03 -5.197360E+03
        95  21 -1.495864E+06 -2.607952E+05  2.505376E+04 -6.775149E+05 -1.308203E+04  3.569480E+03
        95  22 -1.616336E+06 -3.053351E+05 -1.547458E+03 -7.104130E+05  3.826064E+03 -1.097230E+04
        95  23 -1.640025E+06 -2.815253E+05 -2.064298E+03 -6.830845E+05 -6.274801E+02 -2.204057E+03
        95  24 -1.616334E+06 -3.053503E+05 -3.370044E+03 -7.104055E+05 -5.080039E+03  6.562496E+03
        95  25 -1.433009E+06 -2.373315E+05  4.200529E+04 -6.602169E+05  1.183157E+04 -7.977699E+03
        95  26 -1.608601E+06 -2.698013E+05  5.501030E+03 -6.744335E+05  7.375346E+03  7.894472E+02
        95  27 -1.736792E+06 -3.499051E+05 -3.179515E+04 -7.432908E+05  2.920397E+03  9.554930E+03
        96   1 -1.368728E+06 -2.134254E+05  5.567487E+04 -6.429813E+05  1.572997E+04 -8.658892E+03
        96   2 -1.240901E+06 -1.335196E+05  8.810039E+04 -5.741211E+05  2.295132E+04 -1.634239E+04
        96   3 -1.066469E+06 -1.019629E+05  1.174484E+05 -5.595518E+05  3.013917E+04 -2.391798E+04
        96   4 -1.616491E+06 -3.052502E+05 -4.383233E+03 -7.104323E+05  7.713276E+03 -1.165811E+04
        96   5 -1.639860E+06 -2.815334E+05 -7.801267E+03 -6.831158E+05  1.502440E+04 -1.931046E+04
        96   6 -1.616663E+06 -3.061865E+05 -1.436819E+04 -7.101003E+05  2.230102E+04 -2.685517E+04
        96   7 -1.864188E+06 -3.970695E+05 -6.444460E+04 -7.778579E+05 -2.998043E+02 -1.465599E+04
        96   8 -2.038658E+06 -4.295350E+05 -1.037134E+05 -7.920456E+05  7.103109E+03 -2.227644E+04
        96   9 -2.166556E+06 -5.103887E+05 -1.462062E+05 -8.605268E+05  1.447046E+04 -2.978952E+04
        96  10 -1.368729E+06 -2.134255E+05  5.567426E+04 -6.429812E+05  4.244236E-10  9.611631E-10
        96  11 -1.240902E+06 -1.335200E+05  8.809890E+04 -5.741208E+05 -6.790478E-10 -1.612255E-10
        96  12 -1.066470E+06 -1.019637E+05  1.174456E+05 -5.595512E+05 -8.371329E-10 -3.863199E-10
        96  13 -1.616491E+06 -3.052504E+05 -4.383600E+03 -7.104322E+05 -1.348674E-10  4.528020E-10
        96  14 -1.639861E+06 -2.815339E+05 -7.802392E+03 -6.831155E+05  3.270615E-10  3.053594E-10
        96  15 -1.616664E+06 -3.061874E+05 -1.437047E+04 -7.100998E+05  6.927553E-10 -2.925477E-11
        96  16 -1.864188E+06 -3.970698E+05 -6.444500E+04 -7.778579E+05 -7.503754E-10  1.671141E-10
        96  17 -2.038658E+06 -4.295355E+05 -1.037144E+05 -7.920455E+05 -5.065150E-10 -9.613876E-10
        96  18 -2.166556E+06 -5.103897E+05 -1.462082E+05 -8.605265E+05  1.573788E-09  8.144666E-10
        96  19 -1.368728E+06 -2.134254E+05  5.567487E+04 -6.429813E+05 -1.572997E+04  8.658892E+03
        96  20 -1.240901E+06 -1.335196E+05  8.810039E+04 -5.741211E+05 -2.295132E+04  1.634239E+04
        96  21 -1.066469E+06 -1.019629E+05  1.174484E+05 -5.595518E+05 -3.013917E+04  2.391798E+04
        96  22 -1.616491E+06 -3.052502E+05 -4.383233E+03 -7.104323E+05 -7.713276E+03  1.165811E+04
        96  23 -1.639860E+06 -2.815334E+05 -7.801267E+03 -6.831158E+05 -1.502440E+04  1.931046E+04
        96  24 -1.616663E+06 -3.061865E+05 -1.436819E+04 -7.101003E+05 -2.230102E+04  2.685517E+04
        96  25 -1.864188E+06 -3.970695E+05 -6.444460E+04 -7.778579E+05  2.998043E+02  1.465599E+04
        96  26 -2.038658E+06 -4.295350E+05 -1.037134E+05 -7.920456E+05 -7.103109E+03  2.227644E+04
        96  27 -2.166556E+06 -5.103887E+05 -1.462062E+05 -8.605268E+05 -1.447046E+04  2.978952E+04
        97   1 -9.395072E+05 -5.522346E+04  1.442131E+05 -5.280004E+05  3.534220E+04 -2.818164E+04
        97   2 -8.139853E+05  2.660416E+04  1.646219E+05 -4.556221E+05  5.425698E+04 -3.089452E+04
        97   3 -6.491028E+05  4.651109E+04  1.693206E+05 -4.333765E+05  7.249209E+04 -3.175355E+04
        97   4 -1.617725E+06 -3.046418E+05 -1.888021E+04 -7.109291E+05  2.700009E+04 -3.130983E+04
        97   5 -1.638373E+06 -2.812702E+05 -3.406102E+04 -6.829676E+05  4.751104E+04 -3.342964E+04
        97   6 -1.620011E+06 -3.201599E+05 -6.623669E+04 -7.051546E+05  6.733783E+04 -3.369601E+04
        97   7 -2.295491E+06 -5.540321E+05 -1.820079E+05 -8.936776E+05  1.866787E+04 -3.443441E+04
        97   8 -2.462089E+06 -5.890964E+05 -2.327944E+05 -9.100380E+05  4.077483E+04 -3.596108E+04
        97   9 -2.589985E+06 -6.867578E+05 -3.018641E+05 -9.765426E+05  6.219230E+04 -3.563508E+04
        97  10 -9.395088E+05 -5.522464E+04  1.442093E+05 -5.279996E+05 -4.833434E-10  7.347758E-11
        97  11 -8.139887E+05  2.660235E+04  1.646146E+05 -4.556207E+05 -4.350902E-10  6.312417E-11
        97  12 -6.491087E+05  4.650860E+04  1.693088E+05 -4.333747E+05  1.124610E-09 -8.922616E-11
        97  13 -1.617726E+06 -3.046430E+05 -1.888343E+04 -7.109284E+05  5.547840E-10  4.077215E-10
        97  14 -1.638376E+06 -2.812720E+05 -3.406737E+04 -6.829664E+05  1.805441E-09 -4.881562E-11
        97  15 -1.620016E+06 -3.201623E+05 -6.624735E+04 -7.051528E+05  8.130244E-10 -4.831311E-10
        97  16 -2.295492E+06 -5.540334E+05 -1.820108E+05 -8.936771E+05 -2.468855E-10  3.485617E-10
        97  17 -2.462091E+06 -5.890982E+05 -2.327999E+05 -9.100368E+05  4.508213E-10  1.281866E-10
        97  18 -2.589989E+06 -6.867602E+05 -3.018738E+05 -9.765408E+05  1.980181E-10 -6.480048E-10
        97  19 -9.395072E+05 -5.522346E+04  1.442131E+05 -5.280004E+05 -3.534220E+04  2.818164E+04
        97  20 -8.139853E+05  2.660416E+04  1.646219E+05 -4.556221E+05 -5.425698E+04  3.089452E+04
        97  21 -6.491028E+05  4.651109E+04  1.693206E+05 -4.333765E+05 -7.249209E+04  3.175355E+04
        97  22 -1.617725E+06 -3.046418E+05 -1.888021E+04 -7.109291E+05 -2.700009E+04  3.130983E+04
        97  23 -1.638373E+06 -2.812702E+05 -3.406102E+04 -6.829676E+05 -4.751104E+04  3.342964E+04
        97  24 -1.620011E+06 -3.201599E+05 -6.623669E+04 -7.051546E+05 -6.733783E+04  3.369601E+04
        97  25 -2.295491E+06 -5.540321E+05 -1.820079E+05 -8.936776E+05 -1.866787E+04  3.443441E+04
        97  26 -2.462089E+06 -5.890964E+05 -2.327944E+05 -9.100380E+05 -4.077483E+04  3.596108E+04
        97  27 -2.589985E+06 -6.867578E+05 -3.018641E+05 -9.765426E+05 -6.219230E+04  3.563508E+04
        98   1 -5.046273E+05  8.738804E+04  1.805384E+05 -4.492571E+05  9.842925E+04 -3.226099E+04
        98   2 -4.067762E+05  2.169911E+05  1.563298E+05 -3.030048E+05  1.424224E+05 -1.498260E+04
        98   3 -3.624704E+05  5.571561E+04  3.170396E+04 -1.424245E+05  1.713083E+05  4.245025E+04
        98   4 -1.631169E+06 -2.946454E+05 -8.363274E+04 -7.201434E+05  8.132708E+04 -3.868811E+04
        98   5 -1.619507E+06 -2.764203E+05 -1.477324E+05 -6.781525E+05  1.603487E+05 -8.260962E+03
        98   6 -1.668569E+06 -5.563764E+05 -3.402155E+05 -6.218062E+05  2.242355E+05  6.234186E+04
        98   7 -2.756447E+06 -6.766392E+05 -3.478887E+05 -9.906031E+05  6.425878E+04 -4.510511E+04
        98   8 -2.830775E+06 -7.696514E+05 -4.519090E+05 -1.052604E+06  1.782365E+05 -1.556790E+03
        98   9 -2.972972E+06 -1.168076E+06 -7.122855E+05 -1.100183E+06  2.770404E+05  8.216168E+04
        98  10 -5.046379E+05  8.738432E+04  1.805183E+05 -4.492545E+05  3.076878E-11 -3.932986E-10
        98  11 -4.067981E+05  2.169854E+05  1.562912E+05 -3.030031E+05 -2.331003E-10  1.379914E-10
        98  12 -3.625024E+05  5.570579E+04  3.164538E+04 -1.424304E+05  3.602443E-10  5.027950E-10
        98  13 -1.631176E+06 -2.946488E+05 -8.364800E+04 -7.201408E+05  1.043503E-09 -2.482475E-10
        98  14 -1.619535E+06 -2.764273E+05 -1.477810E+05 -6.781514E+05 -2.094141E-09  6.793176E-10
        98  15 -1.668624E+06 -5.563942E+05 -3.403176E+05 -6.218175E+05 -4.466852E-10  5.528379E-10
        98  16 -2.756452E+06 -6.766424E+05 -3.479002E+05 -9.906008E+05  1.744224E-09 -2.515746E-10
        98  17 -2.830809E+06 -7.696599E+05 -4.519689E+05 -1.052604E+06 -1.101255E-09  3.349455E-10
        98  18 -2.973056E+06 -1.168104E+06 -7.124433E+05 -1.100201E+06 -3.935415E-10  1.186808E-10
        98  19 -5.046273E+05  8.738804E+04  1.805384E+05 -4.492571E+05 -9.842925E+04  3.226099E+04
        98  20 -4.067762E+05  2.169911E+05  1.563298E+05 -3.030048E+05 -1.424224E+05  1.498260E+04
        98  21 -3.624704E+05  5.571561E+04  3.170396E+04 -1.424245E+05 -1.713083E+05 -4.245025E+04
        98  22 -1.631169E+06 -2.946454E+05 -8.363274E+04 -7.201434E+05 -8.132708E+04  3.868811E+04
        98  23 -1.619507E+06 -2.764203E+05 -1.477324E+05 -6.781525E+05 -1.603487E+05  8.260962E+03
        98  24 -1.668569E+06 -5.563764E+05 -3.402155E+05 -6.218062E+05 -2.242355E+05 -6.234186E+04
        98  25 -2.756447E+06 -6.766392E+05 -3.478887E+05 -9.906031E+05 -6.425878E+04  4.510511E+04
        98  26 -2.830775E+06 -7.696514E+05 -4.519090E+05 -1.052604E+06 -1.782365E+05  1.556790E+03
        98  27 -2.972972E+06 -1.168076E+06 -7.122855E+05 -1.100183E+06 -2.770404E+05 -8.216168E+04
        99   1 -1.220751E+06 -2.025311E+05 -1.727467E+05 -1.593277E+04  4.091571E+04  1.669115E+04
        99   2 -1.129873E+06 -2.805096E+05 -1.954994E+05 -2.948043E+04  4.006159E+04  5.257830E+04
        99   3 -1.013866E+06 -2.607609E+05 -1.931700E+05 -8.332935E+04  3.925846E+04  5.558342E+04
        99   4  3.339133E+04  1.089901E+05  1.308355E+05 -6.728656E+04  8.994839E+04  1.675834E+04
        99   5  1.821813E+04  2.523194E+02  5.968878E+04 -4.707035E+04  5.831569E+04  5.259069E+04
        99   6  3.345973E+04 -5.513642E+03  3.496404E+04 -6.714841E+04  2.673633E+04  5.556823E+04
        99   7  1.288983E+06  4.204075E+05  4.343152E+05 -1.187450E+05  1.390798E+05  1.681735E+04
        99   8  1.167542E+06  2.809263E+05  3.147963E+05 -6.469352E+04  7.660313E+04  5.260202E+04
        99   9  1.081816E+06  2.496618E+05  2.630329E+05 -5.093992E+04  1.419329E+04  5.555239E+04
        99  10 -1.220753E+06 -2.025318E+05 -1.727504E+05 -1.593332E+04  1.609188E-09  1.251685E-10
        99  11 -1.129876E+06 -2.805130E+05 -1.955076E+05 -2.948213E+04 -5.734123E-10 -6.110927E-10
        99  12 -1.013869E+06 -2.607647E+05 -1.931787E+05 -8.333111E+04 -1.911185E-09  2.685781E-10
        99  13  3.338257E+04  1.089877E+05  1.308198E+05 -6.728777E+04  1.292884E-09 -4.556375E-10
        99  14  1.821374E+04  2.484364E+02  5.967719E+04 -4.707282E+04 -3.726408E-10  3.290327E-11
        99  15  3.345814E+04 -5.517150E+03  3.495689E+04 -6.714961E+04 -1.573337E-09  3.191235E-11
        99  16  1.288963E+06  4.204020E+05  4.342784E+05 -1.187469E+05 -9.351102E-10  6.439158E-10
        99  17  1.167535E+06  2.809218E+05  3.147801E+05 -6.469676E+04 -1.553647E-09 -2.433114E-10
        99  18  1.081815E+06  2.496584E+05  2.630267E+05 -5.094056E+04  1.613325E-09 -9.543837E-11
        99  19 -1.220751E+06 -2.025311E+05 -1.727467E+05 -1.593277E+04 -4.091571E+04 -1.669115E+04
        99  20 -1.129873E+06 -2.805096E+05 -1.954994E+05 -2.948043E+04 -4.006159E+04 -5.257830E+04
        99  21 -1.013866E+06 -2.607609E+05 -1.931700E+05 -8.332935E+04 -3.925846E+04 -5.558342E+04
        99  22  3.339133E+04  1.089901E+05  1.308355E+05 -6.728656E+04 -8.994839E+04 -1.675834E+04
        99  23  1.821813E+04  2.523194E+02  5.968878E+04 -4.707035E+04 -5.831569E+04 -5.259069E+04
        99  24  3.345973E+04 -5.513642E+03  3.496404E+04 -6.714841E+04 -2.673633E+04 -5.556823E+04
        99  25  1.288983E+06  4.204075E+05  4.343152E+05 -1.187450E+05 -1.390798E+05 -1.681735E+04
        99  26  1.167542E+06  2.809263E+05  3.147963E+05 -6.469352E+04 -7.660313E+04 -5.260202E+04
        99  27  1.081816E+06  2.496618E+05  2.630329E+05 -5.093992E+04 -1.419329E+04 -5.555239E+04
       100   1 -9.363080E+05 -2.295052E+05 -1.832252E+05 -6.591327E+04  2.488704E+04  4.937021E+04
       100   2 -8.345054E+05 -2.100439E+05 -1.726167E+05 -4.643565E+04  1.875183E+04  4.530290E+04
       100   3 -7.302233E+05 -1.850668E+05 -1.565628E+05 -6.859024E+04  1.261051E+04  3.975912E+04
       100   4  2.733910E+04  5.521431E+03  2.773899E+04 -6.748052E+04  2.180063E+04  4.936281E+04
       100   5  2.601262E+04 -3.295001E+02  1.501332E+04 -4.666538E+04  1.427428E+04  4.529698E+04
       100   6  2.739147E+04 -4.277546E+02  8.692464E+03 -6.747867E+04  6.742790E+03  3.975564E+04
       100   7  9.918564E+05  2.404860E+05  2.386469E+05 -6.905032E+04  1.870948E+04  4.935543E+04
       100   8  8.872251E+05  2.093357E+05  2.025988E+05 -4.689546E+04  9.790579E+03  4.529106E+04
       100   9  7.855445E+05  1.841732E+05  1.739133E+05 -6.636570E+04  8.679894E+02  3.975214E+04
       100  10 -9.363093E+05 -2.295080E+05 -1.832309E+05 -6.591426E+04  1.033909E-09  1.436093E-10
       100  11 -8.345063E+05 -2.100462E+05 -1.726212E+05 -4.643633E+04 -3.535476E-09 -5.065432E-10
       100  12 -7.302239E+05 -1.850686E+05 -1.565661E+05 -6.859065E+04 -2.097335E-09 -2.067668E-10
       100  13  2.733794E+04  5.518687E+03  2.773352E+04 -6.748139E+04 -2.066027E-09 -2.408656E-10
       100  14  2.601185E+04 -3.317582E+02  1.500908E+04 -4.666590E+04  5.867973E-11 -5.064086E-10
       100  15  2.739099E+04 -4.294640E+02  8.689408E+03 -6.747889E+04 -1.714494E-09 -6.948875E-10
       100  16  9.918554E+05  2.404833E+05  2.386417E+05 -6.905106E+04 -1.174982E-09 -2.739977E-10
       100  17  8.872245E+05  2.093334E+05  2.025948E+05 -4.689582E+04 -1.693054E-09 -9.867629E-10
       100  18  7.855441E+05  1.841715E+05  1.739104E+05 -6.636573E+04 -1.144159E-10 -9.458881E-10
       100  19 -9.363080E+05 -2.295052E+05 -1.832252E+05 -6.591327E+04 -2.488704E+04 -4.937021E+04
       100  20 -8.345054E+05 -2.100439E+05 -1.726167E+05 -4.643565E+04 -1.875183E+04 -4.530290E+04
       100  21 -7.302233E+05 -1.850668E+05 -1.565628E+05 -6.859024E+04 -1.261051E+04 -3.975912E+04
       100  22  2.733910E+04  5.521431E+03  2.773899E+04 -6.748052E+04 -2.180063E+04 -4.936281E+04
       100  23  2.601262E+04 -3.295001E+02  1.501332E+04 -4.666538E+04 -1.427428E+04 -4.529698E+04
       100  24  2.739147E+04 -4.277546E+02  8.692464E+03 -6.747867E+04 -6.742790E+03 -3.975564E+04
       100  25  9.918564E+05  2.404860E+05  2.386469E+05 -6.905032E+04 -1.870948E+04 -4.935543E+04
       100  26  8.872251E+05  2.093357E+05  2.025988E+05 -4.689546E+04 -9.790579E+03 -4.529106E+04
       100  27  7.855445E+05  1.841732E+05  1.739133E+05 -6.636570E+04 -8.679894E+02 -3.975214E+04
       101   1 -6.477431E+05 -1.641511E+05 -1.400237E+05 -6.755814E+04  1.083464E+04  3.617643E+04
       101   2 -5.449310E+05 -1.393570E+05 -1.206954E+05 -4.665675E+04  9.024376E+03  3.031890E+04
       101   3 -4.416988E+05 -1.142153E+05 -1.000806E+05 -6.743073E+04  7.209591E+03  2.439556E+04
       101   4  2.691038E+04  1.667559E+02  6.656659E+03 -6.748908E+04  5.390709E+03  3.617433E+04
       101   5  2.671747E+04 -9.522661E+01  3.784074E+03 -4.665263E+04  3.516631E+03  3.031859E+04
       101   6  2.694524E+04  1.701589E+00  2.241480E+03 -6.748920E+04  1.638321E+03  2.439710E+04
       101   7  7.019910E+05  1.644545E+05  1.533099E+05 -6.741991E+04 -5.906303E+01  3.617223E+04
       101   8  5.986725E+05  1.391448E+05  1.282441E+05 -4.664846E+04 -1.996125E+03  3.031828E+04
       101   9  4.957951E+05  1.142041E+05  1.045504E+05 -6.754768E+04 -3.937105E+03  2.439865E+04
       101  10 -6.477436E+05 -1.641526E+05 -1.400264E+05 -6.755845E+04 -1.697864E-09  6.051751E-10
       101  11 -5.449314E+05 -1.393580E+05 -1.206973E+05 -4.665697E+04 -1.375716E-09  7.313768E-10
       101  12 -4.416990E+05 -1.142159E+05 -1.000818E+05 -6.743087E+04  1.871967E-09 -3.025045E-10
       101  13  2.691000E+04  1.653429E+02  6.654145E+03 -6.748924E+04 -2.159024E-09 -9.826312E-11
       101  14  2.671721E+04 -9.621703E+01  3.782323E+03 -4.665271E+04  1.039173E-09  4.553963E-10
       101  15  2.694508E+04  1.061694E+00  2.240356E+03 -6.748923E+04 -1.634791E-11  1.532796E-10
       101  16  7.019907E+05  1.644531E+05  1.533074E+05 -6.741991E+04  5.774338E-11 -7.032952E-10
       101  17  5.986723E+05  1.391438E+05  1.282423E+05 -4.664841E+04  4.752548E-10 -7.255972E-11
       101  18  4.957949E+05  1.142034E+05  1.045493E+05 -6.754761E+04  5.096593E-10 -5.101190E-11
       101  19 -6.477431E+05 -1.641511E+05 -1.400237E+05 -6.755814E+04 -1.083464E+04 -3.617643E+04
       101  20 -5.449310E+05 -1.393570E+05 -1.206954E+05 -4.665675E+04 -9.024376E+03 -3.031890E+04
       101  21 -4.416988E+05 -1.142153E+05 -1.000806E+05 -6.743073E+04 -7.209591E+03 -2.439556E+04
       101  22  2.691038E+04  1.667559E+02  6.656659E+03 -6.748908E+04 -5.390709E+03 -3.617433E+04
       101  23  2.671747E+04 -9.522661E+01  3.784074E+03 -4.665263E+04 -3.516631E+03 -3.031859E+04
       101  24  2.694524E+04  1.701589E+00  2.241480E+03 -6.748920E+04 -1.638321E+03 -2.439710E+04
       101  25  7.019910E+05  1.644545E+05  1.533099E+05 -6.741991E+04  5.906303E+01 -3.617223E+04
       101  26  5.986725E+05  1.391448E+05  1.282441E+05 -4.664846E+04  1.996125E+03 -3.031828E+04
       101  27  4.957951E+05  1.142041E+05  1.045504E+05 -6.754768E+04  3.937105E+03 -2.439865E+04
       102   1 -3.588335E+05 -9.386276E+04 -8.194680E+04 -6.738779E+04  6.829138E+03  2.093247E+04
       102   2 -2.558420E+05 -6.883148E+04 -6.042554E+04 -4.655525E+04  6.276971E+03  1.499634E+04
       102   3 -1.527854E+05 -4.373265E+04 -3.853660E+04 -6.739016E+04  5.722622E+03  9.057514E+03
       102   4  2.688028E+04  3.364895E+01  1.742834E+03 -6.748768E+04  1.276636E+03  2.093484E+04
       102   5  2.686043E+04  2.591622E+01  1.118922E+03 -4.665453E+04  7.212571E+02  1.499960E+04
       102   6  2.689752E+04  8.725937E+01  8.654429E+02 -6.748767E+04  1.637856E+02  9.061684E+03
       102   7  4.127338E+05  9.392023E+04  8.542372E+04 -6.758761E+04 -4.279271E+03  2.093722E+04
       102   8  3.096378E+05  6.887803E+04  6.265871E+04 -4.675384E+04 -4.836955E+03  1.500285E+04
       102   9  2.066107E+05  4.390503E+04  4.026564E+04 -6.758520E+04 -5.396640E+03  9.065855E+03
       102  10 -3.588337E+05 -9.386325E+04 -8.194772E+04 -6.738790E+04 -1.122059E-09 -1.704818E-10
       102  11 -2.558421E+05 -6.883174E+04 -6.042604E+04 -4.655533E+04  1.124022E-09  5.346333E-10
       102  12 -1.527855E+05 -4.373275E+04 -3.853681E+04 -6.739021E+04  1.253902E-09  3.342822E-11
       102  13  2.688016E+04  3.317788E+01  1.742007E+03 -6.748770E+04  2.092626E-09 -2.849388E-10
       102  14  2.686037E+04  2.567448E+01  1.118498E+03 -4.665454E+04 -1.159109E-09  6.735061E-10
       102  15  2.689749E+04  8.717118E+01  8.652885E+02 -6.748767E+04  4.395641E-10 -2.157033E-11
       102  16  4.127336E+05  9.391975E+04  8.542286E+04 -6.758754E+04  7.510792E-10  1.959791E-10
       102  17  3.096377E+05  6.887778E+04  6.265824E+04 -4.675378E+04 -1.671935E-09  5.012710E-10
       102  18  2.066107E+05  4.390493E+04  4.026543E+04 -6.758516E+04 -1.573014E-09  2.444021E-12
       102  19 -3.588335E+05 -9.386276E+04 -8.194680E+04 -6.738779E+04 -6.829138E+03 -2.093247E+04
       102  20 -2.558420E+05 -6.883148E+04 -6.042554E+04 -4.655525E+04 -6.276971E+03 -1.499634E+04
       102  21 -1.527854E+05 -4.373265E+04 -3.853660E+04 -6.739016E+04 -5.722622E+03 -9.057514E+03
       102  22  2.688028E+04  3.364895E+01  1.742834E+03 -6.748768E+04 -1.276636E+03 -2.093484E+04
       102  23  2.686043E+04  2.591622E+01  1.118922E+03 -4.665453E+04 -7.212571E+02 -1.499960E+04
       102  24  2.689752E+04  8.725937E+01  8.654429E+02 -6.748767E+04 -1.637856E+02 -9.061684E+03
       102  25  4.127338E+05  9.392023E+04  8.542372E+04 -6.758761E+04  4.279271E+03 -2.093722E+04
       102  26  3.096378E+05  6.887803E+04  6.265871E+04 -4.675384E+04  4.836955E+03 -1.500285E+04
       102  27  2.066107E+05  4.390503E+04  4.026564E+04 -6.758520E+04  5.396640E+03 -9.065855E+03
       103   1 -6.984644E+04 -2.341319E+04 -1.993247E+04 -6.743468E+04  5.565022E+03  5.600437E+03
       103   2  3.317984E+04  1.587710E+03  2.350264E+03 -4.663529E+04  5.074647E+03 -3.373333E+02
       103   3  1.362279E+05  2.665929E+04  2.495196E+04 -6.750222E+04  4.584233E+03 -6.272869E+03
       103   4  2.689219E+04  8.909807E+01  8.373001E+02 -6.748769E+04  6.091628E+00  5.604880E+03
       103   5  2.688707E+04  5.523314E+01  9.802047E+02 -4.665451E+04 -4.826614E+02 -3.329321E+02
       103   6  2.689181E+04  9.199881E+01  1.440842E+03 -6.748767E+04 -9.713736E+02 -6.268470E+03
       103   7  1.236397E+05  2.359079E+04  2.160664E+04 -6.754070E+04 -5.553693E+03  5.609322E+03
       103   8  2.059439E+04 -1.477230E+03 -3.897414E+02 -4.667372E+04 -6.039914E+03 -3.285305E+02
       103   9 -8.243294E+04 -2.647606E+04 -2.207086E+04 -6.747312E+04 -6.526015E+03 -6.264070E+03
       103  10 -6.984648E+04 -2.341323E+04 -1.993259E+04 -6.743470E+04 -1.648998E-09  3.942500E-11
       103  11  3.317981E+04  1.587703E+03  2.350216E+03 -4.663529E+04 -3.621860E-09  3.351641E-10
       103  12  1.362278E+05  2.665924E+04  2.495184E+04 -6.750220E+04  7.913844E-10 -1.153051E-09
       103  13  2.689219E+04  8.906433E+01  8.372411E+02 -6.748769E+04 -1.170467E-09  3.751343E-11
       103  14  2.688707E+04  5.523295E+01  9.802040E+02 -4.665451E+04 -8.566112E-11 -4.396824E-10
       103  15  2.689180E+04  9.195636E+01  1.440767E+03 -6.748768E+04 -7.852802E-10 -2.107084E-10
       103  16  1.236397E+05  2.359075E+04  2.160653E+04 -6.754067E+04 -6.480988E-10  4.753816E-10
       103  17  2.059435E+04 -1.477239E+03 -3.898102E+02 -4.667372E+04 -1.264085E-09  2.264429E-10
       103  18 -8.243300E+04 -2.647611E+04 -2.207101E+04 -6.747315E+04 -5.319459E-10 -1.325672E-10
       103  19 -6.984644E+04 -2.341319E+04 -1.993247E+04 -6.743468E+04 -5.565022E+03 -5.600437E+03
       103  20  3.317984E+04  1.587710E+03  2.350264E+03 -4.663529E+04 -5.074647E+03  3.373333E+02
       103  21  1.362279E+05  2.665929E+04  2.495196E+04 -6.750222E+04 -4.584233E+03  6.272869E+03
       103  22  2.689219E+04  8.909807E+01  8.373001E+02 -6.748769E+04 -6.091628E+00 -5.604880E+03
       103  23  2.688707E+04  5.523314E+01  9.802047E+02 -4.665451E+04  4.826614E+02  3.329321E+02
       103  24  2.689181E+04  9.199881E+01  1.440842E+03 -6.748767E+04  9.713736E+02  6.268470E+03
       103  25  1.236397E+05  2.359079E+04  2.160664E+04 -6.754070E+04  5.553693E+03 -5.609322E+03
       103  26  2.059439E+04 -1.477230E+03 -3.897414E+02 -4.667372E+04  6.039914E+03  3.285305E+02
       103  27 -8.243294E+04 -2.647606E+04 -2.207086E+04 -6.747312E+04  6.526015E+03  6.264070E+03
       104   1  2.192407E+05  4.695159E+04  4.396353E+04 -6.750648E+04  4.301635E+03 -9.733202E+03
       104   2  3.221722E+05  7.191489E+04  6.733280E+04 -4.669793E+04  2.738412E+03 -1.565624E+04
       104   3  4.253668E+05  9.719438E+04  9.178925E+04 -6.755508E+04  1.177145E+03 -2.152729E+04
       104   4  2.693843E+04  6.896543E+01  1.824165E+03 -6.748784E+04 -1.269326E+03 -9.729089E+03
       104   5  2.680698E+04 -3.074229E+00  3.046429E+03 -4.665431E+04 -2.783629E+03 -1.565311E+04
       104   6  2.692042E+04  2.333699E+02  5.322704E+03 -6.748767E+04 -4.295725E+03 -2.152510E+04
       104   7 -1.653291E+05 -4.681611E+04 -4.031733E+04 -6.746920E+04 -6.838582E+03 -9.724974E+03
       104   8 -2.684764E+05 -7.192681E+04 -6.124506E+04 -4.661068E+04 -8.303078E+03 -1.564999E+04
       104   9 -3.713770E+05 -9.673813E+04 -8.115320E+04 -6.742027E+04 -9.765130E+03 -2.152292E+04
       104  10  2.192406E+05  4.695148E+04  4.396332E+04 -6.750644E+04  8.042510E-10 -1.190568E-09
       104  11  3.221721E+05  7.191462E+04  6.733233E+04 -4.669790E+04 -4.520287E-10 -4.934885E-10
       104  12  4.253666E+05  9.719388E+04  9.178838E+04 -6.755506E+04 -8.294676E-10  1.604302E-10
       104  13  2.693840E+04  6.886335E+01  1.823984E+03 -6.748785E+04 -2.246947E-09 -4.301943E-10
       104  14  2.680691E+04 -3.339425E+00  3.045954E+03 -4.665434E+04  1.004837E-09 -9.600893E-10
       104  15  2.692027E+04  2.328674E+02  5.321798E+03 -6.748774E+04 -2.907232E-10 -4.259047E-10
       104  16 -1.653292E+05 -4.681623E+04 -4.031760E+04 -6.746925E+04 -1.914697E-09 -4.466333E-10
       104  17 -2.684765E+05 -7.192709E+04 -6.124565E+04 -4.661079E+04 -1.297983E-09 -5.138601E-11
       104  18 -3.713772E+05 -9.673865E+04 -8.115425E+04 -6.742044E+04  5.066082E-11 -3.629088E-10
       104  19  2.192407E+05  4.695159E+04  4.396353E+04 -6.750648E+04 -4.301635E+03  9.733202E+03
       104  20  3.221722E+05  7.191489E+04  6.733280E+04 -4.669793E+04 -2.738412E+03  1.565624E+04
       104  21  4.253668E+05  9.719438E+04  9.178925E+04 -6.755508E+04 -1.177145E+03  2.152729E+04
       104  22  2.693843E+04  6.896543E+01  1.824165E+03 -6.748784E+04  1.269326E+03  9.729089E+03
       104  23  2.680698E+04 -3.074229E+00  3.046429E+03 -4.665431E+04  2.783629E+03  1.565311E+04
       104  24  2.692042E+04  2.333699E+02  5.322704E+03 -6.748767E+04  4.295725E+03  2.152510E+04
       104  25 -1.653291E+05 -4.681611E+04 -4.031733E+04 -6.746920E+04  6.838582E+03  9.724974E+03
       104  26 -2.684764E+05 -7.192681E+04 -6.124506E+04 -4.661068E+04  8.303078E+03  1.564999E+04
       104  27 -3.713770E+05 -9.673813E+04 -8.115320E+04 -6.742027E+04  9.765130E+03  2.152292E+04
       105   1  5.087733E+05  1.170331E+05  1.119873E+05 -6.677170E+04  4.289275E+02 -2.508007E+04
       105   2  6.107677E+05  1.421638E+05  1.393481E+05 -4.713123E+04 -6.680560E+03 -3.069953E+04
       105   3  7.149876E+05  1.720929E+05  1.725520E+05 -6.911574E+04 -1.378699E+04 -3.515826E+04
       105   4  2.730081E+04 -2.387704E+02  6.941518E+03 -6.747924E+04 -5.378364E+03 -2.507858E+04
       105   5  2.626792E+04 -1.638501E+02  1.198869E+04 -4.666496E+04 -1.139565E+04 -3.070026E+04
       105   6  2.726523E+04  4.523969E+03  2.212563E+04 -6.747789E+04 -1.740873E+04 -3.516071E+04
       105   7 -4.539545E+05 -1.175260E+05 -9.811811E+04 -6.818618E+04 -1.118121E+04 -2.507708E+04
       105   8 -5.579118E+05 -1.425141E+05 -1.153911E+05 -4.619909E+04 -1.610635E+04 -3.070101E+04
       105   9 -6.600146E+05 -1.630765E+05 -1.283293E+05 -6.584183E+04 -2.102651E+04 -3.516318E+04
       105  10  5.087731E+05  1.170324E+05  1.119861E+05 -6.677170E+04 -1.411550E-09  6.439356E-10
       105  11  6.107674E+05  1.421627E+05  1.393462E+05 -4.713140E+04 -7.074348E-10 -7.047478E-11
       105  12  7.149870E+05  1.720915E+05  1.725493E+05 -6.911613E+04  1.747166E-09 -7.232848E-10
       105  13  2.730061E+04 -2.394535E+02  6.940282E+03 -6.747935E+04  1.022292E-09  4.282085E-10
       105  14  2.626753E+04 -1.648971E+02  1.198667E+04 -4.666524E+04 -3.466100E-11  6.673498E-10
       105  15  2.726457E+04  4.522560E+03  2.212274E+04 -6.747838E+04  6.731074E-10 -1.991743E-10
       105  16 -4.539548E+05 -1.175268E+05 -9.811952E+04 -6.818641E+04  1.632809E-10  1.813653E-10
       105  17 -5.579124E+05 -1.425152E+05 -1.153934E+05 -4.619949E+04 -3.258440E-10  6.931261E-10
       105  18 -6.600154E+05 -1.630779E+05 -1.283325E+05 -6.584243E+04 -1.652314E-09  3.973251E-10
       105  19  5.087733E+05  1.170331E+05  1.119873E+05 -6.677170E+04 -4.289275E+02  2.508007E+04
       105  20  6.107677E+05  1.421638E+05  1.393481E+05 -4.713123E+04  6.680560E+03  3.069953E+04
       105  21  7.149876E+05  1.720929E+05  1.725520E+05 -6.911574E+04  1.378699E+04  3.515826E+04
       105  22  2.730081E+04 -2.387704E+02  6.941518E+03 -6.747924E+04  5.378364E+03  2.507858E+04
       105  23  2.626792E+04 -1.638501E+02  1.198869E+04 -4.666496E+04  1.139565E+04  3.070026E+04
       105  24  2.726523E+04  4.523969E+03  2.212563E+04 -6.747789E+04  1.740873E+04  3.516071E+04
       105  25 -4.539545E+05 -1.175260E+05 -9.811811E+04 -6.818618E+04  1.118121E+04  2.507708E+04
       105  26 -5.579118E+05 -1.425141E+05 -1.153911E+05 -4.619909E+04  1.610635E+04  3.070101E+04
       105  27 -6.600146E+05 -1.630765E+05 -1.283293E+05 -6.584183E+04  2.102651E+04  3.516318E+04
       106   1  8.035183E+05  1.835083E+05  1.957855E+05 -5.476527E+04 -1.029478E+04 -4.077138E+04
       106   2  8.927850E+05  2.135287E+05  2.414998E+05 -6.159761E+04 -5.972034E+04 -3.967892E+04
       106   3  1.010332E+06  3.297991E+05  3.409872E+05 -1.089601E+05 -1.091736E+05 -1.275841E+04
       106   4  3.214317E+04 -4.271520E+03  2.788587E+04 -6.722549E+04 -2.134874E+04 -4.077508E+04
       106   5  2.006612E+04  3.144063E+02  4.761429E+04 -4.697932E+04 -4.654079E+04 -3.968020E+04
       106   6  3.209063E+04  8.700869E+04  1.043340E+05 -6.726060E+04 -7.175043E+04 -1.274528E+04
       106   7 -7.386741E+05 -1.920901E+05 -1.400489E+05 -7.967002E+04 -3.238915E+04 -4.077835E+04
       106   8 -8.519420E+05 -2.129505E+05 -1.463179E+05 -3.238182E+04 -3.337950E+04 -3.968087E+04
       106   9 -9.452704E+05 -1.558444E+05 -1.323818E+05 -2.562705E+04 -3.438585E+04 -1.272713E+04
       106  10  8.035177E+05  1.835064E+05  1.957821E+05 -5.476561E+04  6.636435E-10 -4.765890E-10
       106  11  8.927808E+05  2.135261E+05  2.414901E+05 -6.159952E+04 -4.237689E-10  3.866971E-10
       106  12  1.010319E+06  3.297957E+05  3.409646E+05 -1.089612E+05 -2.866133E-10  6.993186E-11
       106  13  3.214223E+04 -4.273428E+03  2.788189E+04 -6.722619E+04  3.563442E-11 -1.938732E-10
       106  14  2.006337E+04  3.121339E+02  4.760726E+04 -4.698081E+04  1.675313E-09  6.776500E-10
       106  15  3.208505E+04  8.700713E+04  1.043240E+05 -6.726134E+04  2.540340E-10 -1.350125E-11
       106  16 -7.386756E+05 -1.920922E+05 -1.400540E+05 -7.967108E+04 -7.051931E-10  8.286643E-11
       106  17 -8.519436E+05 -2.129525E+05 -1.463229E+05 -3.238288E+04 -3.843852E-10 -3.855139E-12
       106  18 -9.452717E+05 -1.558449E+05 -1.323843E+05 -2.562741E+04  5.949136E-11 -2.913776E-10
       106  19  8.035183E+05  1.835083E+05  1.957855E+05 -5.476527E+04  1.029478E+04  4.077138E+04
       106  20  8.927850E+05  2.135287E+05  2.414998E+05 -6.159761E+04  5.972034E+04  3.967892E+04
       106  21  1.010332E+06  3.297991E+05  3.409872E+05 -1.089601E+05  1.091736E+05  1.275841E+04
       106  22  3.214317E+04 -4.271520E+03  2.788587E+04 -6.722549E+04  2.134874E+04  4.077508E+04
       106  23  2.006612E+04  3.144063E+02  4.761429E+04 -4.697932E+04  4.654079E+04  3.968020E+04
       106  24  3.209063E+04  8.700869E+04  1.043340E+05 -6.726060E+04  7.175043E+04  1.274528E+04
       106  25 -7.386741E+05 -1.920901E+05 -1.400489E+05 -7.967002E+04  3.238915E+04  4.077835E+04
       106  26 -8.519420E+05 -2.129505E+05 -1.463179E+05 -3.238182E+04  3.337950E+04  3.968087E+04
       106  27 -9.452704E+05 -1.558444E+05 -1.323818E+05 -2.562705E+04  3.438585E+04  1.272713E+04
       107   1  5.659400E+05  1.866803E+06  5.677175E+05 -4.982635E+05  1.864876E+04  1.934133E+05
       107   2  3.272611E+05  1.387236E+06  3.366658E+05 -3.922068E+05  5.551214E+04  8.739460E+04
       107   3  1.934031E+05  9.474486E+05  2.006434E+05 -4.028793E+05  4.714101E+04 -1.862505E+04
       107   4  1.395811E+05  1.466214E+05  1.563538E+05 -4.127391E+05  1.889406E+04  1.064061E+05
       107   5  2.431102E+04  1.327249E+05  7.642939E+04 -3.545582E+05  5.558121E+04  6.685806E+04
       107   6  2.475954E+03  1.469977E+05  4.555773E+04 -4.130846E+05  4.700839E+04  2.722692E+04
       107   7 -2.869615E+05 -1.570822E+06 -2.551867E+05 -3.274497E+05  1.911587E+04  1.963814E+04
       107   8 -2.787338E+05 -1.120294E+06 -1.838906E+05 -3.169855E+05  5.564787E+04  4.636215E+04
       107   9 -1.884878E+05 -6.528336E+05 -1.095501E+05 -4.232758E+05  4.687415E+04  7.302115E+04
       107  10  5.659296E+05  1.866763E+06  5.676468E+05 -4.982664E+05  6.185594E-10 -2.589946E-10
       107  11  3.272558E+05  1.387227E+06  3.366456E+05 -3.922107E+05  1.494988E-09  1.517723E-10
       107  12  1.934006E+05  9.474477E+05  2.006386E+05 -4.028785E+05 -6.591570E-10  1.593851E-10
       107  13  1.395777E+05  1.466092E+05  1.563319E+05 -4.127407E+05 -1.444447E-09 -5.441273E-10
       107  14  2.430650E+04  1.327193E+05  7.641517E+04 -3.545612E+05 -3.781943E-10  1.180953E-11
       107  15  2.473381E+03  1.469963E+05  4.555218E+04 -4.130856E+05  4.528995E-10 -1.243515E-09
       107  16 -2.869620E+05 -1.570823E+06 -2.551881E+05 -3.274500E+05  7.883456E-11 -1.163352E-11
       107  17 -2.787377E+05 -1.120297E+06 -1.839005E+05 -3.169875E+05 -2.183139E-10  8.544123E-10
       107  18 -1.884916E+05 -6.528399E+05 -1.095643E+05 -4.232786E+05  2.424263E-10  2.272166E-10
       107  19  5.659400E+05  1.866803E+06  5.677175E+05 -4.982635E+05 -1.864876E+04 -1.934133E+05
       107  20  3.272611E+05  1.387236E+06  3.366658E+05 -3.922068E+05 -5.551214E+04 -8.739460E+04
       107  21  1.934031E+05  9.474486E+05  2.006434E+05 -4.028793E+05 -4.714101E+04  1.862505E+04
       107  22  1.395811E+05  1.466214E+05  1.563538E+05 -4.127391E+05 -1.889406E+04 -1.064061E+05
       107  23  2.431102E+04  1.327249E+05  7.642939E+04 -3.545582E+05 -5.558121E+04 -6.685806E+04
       107  24  2.475954E+03  1.469977E+05  4.555773E+04 -4.130846E+05 -4.700839E+04 -2.722692E+04
       107  25 -2.869615E+05 -1.570822E+06 -2.551867E+05 -3.274497E+05 -1.911587E+04 -1.963814E+04
       107  26 -2.787338E+05 -1.120294E+06 -1.838906E+05 -3.169855E+05 -5.564787E+04 -4.636215E+04
       107  27 -1.884878E+05 -6.528336E+05 -1.095501E+05 -4.232758E+05 -4.687415E+04 -7.302115E+04
       108   1  1.241701E+05  6.301199E+05  1.324610E+05 -4.170941E+05  2.844889E+04 -1.776521E+04
       108   2  9.675667E+03  1.693637E+05  3.294205E+04 -3.541564E+05  2.073805E+03 -3.169678E+04
       108   3 -9.763115E+04 -2.882612E+05 -5.591285E+04 -4.105452E+05 -2.440654E+04 -4.561944E+04
       108   4  7.452390E+03  1.414609E+05  3.741396E+04 -4.136118E+05  2.833139E+04  2.084731E+04
       108   5  2.714985E+03  1.400131E+05  2.748861E+04 -3.539531E+05  1.955717E+03  7.063639E+03
       108   6  5.151835E+03  1.414698E+05  2.813164E+04 -4.136189E+05 -2.452563E+04 -6.720889E+03
       108   7 -1.092788E+05 -3.469658E+05 -5.763882E+04 -4.101321E+05  2.821428E+04  5.943013E+04
       108   8 -4.244940E+03  1.106665E+05  2.204079E+04 -3.537498E+05  1.837651E+03  4.582227E+04
       108   9  1.079245E+05  5.713812E+05  1.121730E+05 -4.166947E+05 -2.464505E+04  3.220401E+04
       108  10  1.241692E+05  6.301193E+05  1.324589E+05 -4.170937E+05  3.665121E-10  1.096795E-09
       108  11  9.675393E+03  1.693626E+05  3.294016E+04 -3.541563E+05  8.017193E-10  3.550979E-10
       108  12 -9.763235E+04 -2.882636E+05 -5.591789E+04 -4.105461E+05 -2.001004E-10 -9.893994E-10
       108  13  7.451410E+03  1.414602E+05  3.741163E+04 -4.136123E+05  5.834027E-10 -6.209467E-10
       108  14  2.714967E+03  1.400130E+05  2.748851E+04 -3.539531E+05  2.651456E-09 -3.973778E-11
       108  15  5.151177E+03  1.414696E+05  2.813043E+04 -4.136191E+05  5.950338E-10 -1.406020E-09
       108  16 -1.092806E+05 -3.469699E+05 -5.764697E+04 -4.101334E+05 -3.449988E-10 -1.480849E-09
       108  17 -4.245507E+03  1.106643E+05  2.203683E+04 -3.537498E+05  6.227981E-10  1.107422E-09
       108  18  1.079236E+05  5.713800E+05  1.121699E+05 -4.166941E+05  4.168548E-10  1.392581E-09
       108  19  1.241701E+05  6.301199E+05  1.324610E+05 -4.170941E+05 -2.844889E+04  1.776521E+04
       108  20  9.675667E+03  1.693637E+05  3.294205E+04 -3.541564E+05 -2.073805E+03  3.169678E+04
       108  21 -9.763115E+04 -2.882612E+05 -5.591285E+04 -4.105452E+05  2.440654E+04  4.561944E+04
       108  22  7.452390E+03  1.414609E+05  3.741396E+04 -4.136118E+05 -2.833139E+04 -2.084731E+04
       108  23  2.714985E+03  1.400131E+05  2.748861E+04 -3.539531E+05 -1.955717E+03 -7.063639E+03
       108  24  5.151835E+03  1.414698E+05  2.813164E+04 -4.136189E+05  2.452563E+04  6.720889E+03
       108  25 -1.092788E+05 -3.469658E+05 -5.763882E+04 -4.101321E+05 -2.821428E+04 -5.943013E+04
       108  26 -4.244940E+03  1.106665E+05  2.204079E+04 -3.537498E+05 -1.837651E+03 -4.582227E+04
       108  27  1.079245E+05  5.713812E+05  1.121730E+05 -4.166947E+05  2.464505E+04 -3.220401E+04
       109   1 -1.746479E+05 -5.966632E+05 -1.128997E+05 -4.181517E+05 -4.309071E+04 -5.728757E+04
       109   2 -2.741573E+05 -1.058540E+06 -2.020087E+05 -3.315565E+05 -5.264130E+04 -1.721858E+04
       109   3 -3.299894E+05 -1.514870E+06 -3.064127E+05 -3.618339E+05 -1.831420E+04  2.290301E+04
       109   4  2.383094E+03  1.444101E+05  3.116915E+04 -4.130968E+05 -4.322598E+04 -1.143079E+04
       109   5  1.474592E+04  1.360044E+05  4.659762E+04 -3.545761E+05 -5.258283E+04 -3.554232E+04
       109   6  8.189070E+04  1.440542E+05  9.130193E+04 -4.128944E+05 -1.810407E+04 -5.957161E+04
       109   7  1.793824E+05  8.860155E+05  1.752200E+05 -4.080353E+05 -4.336041E+04  3.447954E+04
       109   8  3.035602E+05  1.331902E+06  2.951271E+05 -3.776395E+05 -5.252308E+04 -5.390073E+04
       109   9  4.935838E+05  1.805523E+06  4.888484E+05 -4.640899E+05 -1.788070E+04 -1.422659E+05
       109  10 -1.746507E+05 -5.966672E+05 -1.129094E+05 -4.181536E+05 -1.212621E-09 -1.301135E-10
       109  11 -2.741604E+05 -1.058541E+06 -2.020145E+05 -3.315572E+05  5.306435E-11  6.912817E-10
       109  12 -3.299899E+05 -1.514871E+06 -3.064143E+05 -3.618335E+05 -8.921702E-11  6.244383E-10
       109  13  2.381052E+03  1.444095E+05  3.116539E+04 -4.130972E+05 -1.701736E-09 -6.769840E-10
       109  14  1.474261E+04  1.360023E+05  4.659004E+04 -3.545776E+05 -5.754307E-10  2.504099E-11
       109  15  8.188940E+04  1.440503E+05  9.129464E+04 -4.128953E+05 -1.030082E-10 -1.005167E-09
       109  16  1.793801E+05  8.860137E+05  1.752142E+05 -4.080341E+05 -1.342603E-10 -3.302763E-10
       109  17  3.035565E+05  1.331899E+06  2.951165E+05 -3.776418E+05 -8.207252E-10  7.683952E-10
       109  18  4.935780E+05  1.805501E+06  4.888099E+05 -4.640920E+05  2.977034E-10 -2.930037E-10
       109  19 -1.746479E+05 -5.966632E+05 -1.128997E+05 -4.181517E+05  4.309071E+04  5.728757E+04
       109  20 -2.741573E+05 -1.058540E+06 -2.020087E+05 -3.315565E+05  5.264130E+04  1.721858E+04
       109  21 -3.299894E+05 -1.514870E+06 -3.064127E+05 -3.618339E+05  1.831420E+04 -2.290301E+04
       109  22  2.383094E+03  1.444101E+05  3.116915E+04 -4.130968E+05  4.322598E+04  1.143079E+04
       109  23  1.474592E+04  1.360044E+05  4.659762E+04 -3.545761E+05  5.258283E+04  3.554232E+04
       109  24  8.189070E+04  1.440542E+05  9.130193E+04 -4.128944E+05  1.810407E+04  5.957161E+04
       109  25  1.793824E+05  8.860155E+05  1.752200E+05 -4.080353E+05  4.336041E+04 -3.447954E+04
       109  26  3.035602E+05  1.331902E+06  2.951271E+05 -3.776395E+05  5.252308E+04  5.390073E+04
       109  27  4.935838E+05  1.805523E+06  4.888484E+05 -4.640899E+05  1.788070E+04  1.422659E+05
       110   1 -2.820478E+06 -1.007151E+06 -5.930093E+05 -1.038659E+06 -2.507994E+05 -7.813095E+04
       110   2 -2.732302E+06 -6.585521E+05 -3.659709E+05 -1.017939E+06 -1.618354E+05 -9.816339E+03
       110   3 -2.724271E+06 -5.821813E+05 -2.812848E+05 -9.642125E+05 -6.198542E+04  2.966693E+04
       110   4 -1.895848E+06 -5.445534E+05 -3.237902E+05 -6.698139E+05 -2.117888E+05 -6.349331E+04
       110   5 -1.840546E+06 -2.865303E+05 -1.405569E+05 -7.330968E+05 -1.479044E+05 -4.591202E+03
       110   6 -1.860263E+06 -2.955530E+05 -7.959766E+04 -7.634161E+05 -7.315206E+04  2.546662E+04
       110   7 -9.703462E+05 -8.168979E+04 -5.464517E+04 -3.004040E+05 -1.727141E+05 -4.881344E+04
       110   8 -9.479963E+05  8.560278E+04  8.479413E+04 -4.478610E+05 -1.339515E+05  6.444308E+02
       110   9 -9.955185E+05 -8.909951E+03  1.220381E+05 -5.623819E+05 -8.433562E+04  2.126158E+04
       110  10 -2.820548E+06 -1.007174E+06 -5.931397E+05 -1.038674E+06  8.043593E-10 -4.156887E-10
       110  11 -2.732330E+06 -6.585593E+05 -3.660205E+05 -1.017940E+06 -4.380411E-09 -2.488195E-09
       110  12 -2.724276E+06 -5.821833E+05 -2.812937E+05 -9.642110E+05 -4.211258E-09 -1.752940E-09
       110  13 -1.895898E+06 -5.445699E+05 -3.238824E+05 -6.698247E+05 -1.129992E-09 -7.987656E-10
       110  14 -1.840569E+06 -2.865362E+05 -1.405981E+05 -7.330974E+05 -6.496668E-09 -1.234352E-09
       110  15 -1.860269E+06 -2.955552E+05 -7.960895E+04 -7.634146E+05 -4.556623E-09 -1.714442E-09
       110  16 -9.703789E+05 -8.170038E+04 -5.470581E+04 -3.004108E+05 -3.497699E-09 -1.238194E-09
       110  17 -9.480156E+05  8.559795E+04  8.476036E+04 -4.478609E+05 -3.187945E-09 -2.890976E-09
       110  18 -9.955262E+05 -8.912346E+03  1.220239E+05 -5.623804E+05 -2.812768E-09 -1.738766E-09
       110  19 -2.820478E+06 -1.007151E+06 -5.930093E+05 -1.038659E+06  2.507994E+05  7.813095E+04
       110  20 -2.732302E+06 -6.585521E+05 -3.659709E+05 -1.017939E+06  1.618354E+05  9.816339E+03
       110  21 -2.724271E+06 -5.821813E+05 -2.812848E+05 -9.642125E+05  6.198542E+04 -2.966693E+04
       110  22 -1.895848E+06 -5.445534E+05 -3.237902E+05 -6.698139E+05  2.117888E+05  6.349331E+04
       110  23 -1.840546E+06 -2.865303E+05 -1.405569E+05 -7.330968E+05  1.479044E+05  4.591202E+03
       110  24 -1.860263E+06 -2.955530E+05 -7.959766E+04 -7.634161E+05  7.315206E+04 -2.546662E+04
       110  25 -9.703462E+05 -8.168979E+04 -5.464517E+04 -3.004040E+05  1.727141E+05  4.881344E+04
       110  26 -9.479963E+05  8.560278E+04  8.479413E+04 -4.478610E+05  1.339515E+05 -6.444308E+02
       110  27 -9.955185E+05 -8.909951E+03  1.220381E+05 -5.623819E+05  8.433562E+04 -2.126158E+04
       111   1 -2.612129E+06 -6.090060E+05 -2.484421E+05 -9.634360E+05 -5.827716E+04  2.452906E+04
       111   2 -2.536902E+06 -5.453181E+05 -1.961374E+05 -9.251562E+05 -3.931781E+04  2.751668E+04
       111   3 -2.442109E+06 -5.238898E+05 -1.609575E+05 -9.148099E+05 -1.985659E+04  2.916385E+04
       111   4 -1.849723E+06 -3.197663E+05 -6.303336E+04 -7.490301E+05 -6.089568E+04  2.354016E+04
       111   5 -1.858556E+06 -2.914357E+05 -3.241197E+04 -7.377967E+05 -4.308689E+04  2.609782E+04
       111   6 -1.847592E+06 -3.051232E+05 -1.798468E+04 -7.544990E+05 -2.477915E+04  2.731454E+04
       111   7 -1.086736E+06 -3.047885E+04  1.223331E+05 -5.343803E+05 -6.351771E+04  2.254989E+04
       111   8 -1.179750E+06 -3.751915E+04  1.312800E+05 -5.502492E+05 -4.686046E+04  2.467726E+04
       111   9 -1.252725E+06 -8.633395E+04  1.249624E+05 -5.940487E+05 -2.970687E+04  2.546335E+04
       111  10 -2.612133E+06 -6.090075E+05 -2.484497E+05 -9.634349E+05 -3.286319E-09 -4.713767E-10
       111  11 -2.536904E+06 -5.453193E+05 -1.961417E+05 -9.251553E+05  2.679989E-10  9.082576E-10
       111  12 -2.442110E+06 -5.238908E+05 -1.609598E+05 -9.148095E+05 -2.777672E-09 -1.972466E-10
       111  13 -1.849727E+06 -3.197679E+05 -6.304138E+04 -7.490290E+05 -8.086398E-10 -5.321365E-10
       111  14 -1.858558E+06 -2.914370E+05 -3.241674E+04 -7.377958E+05  5.109800E-10  2.147203E-10
       111  15 -1.847593E+06 -3.051241E+05 -1.798723E+04 -7.544985E+05 -2.873848E-09 -2.878833E-10
       111  16 -1.086741E+06 -3.048048E+04  1.223245E+05 -5.343792E+05 -4.440189E-10 -7.676165E-10
       111  17 -1.179752E+06 -3.752040E+04  1.312748E+05 -5.502483E+05  4.757676E-10 -5.573454E-11
       111  18 -1.252726E+06 -8.633488E+04  1.249595E+05 -5.940480E+05 -3.472128E-09 -4.295816E-10
       111  19 -2.612129E+06 -6.090060E+05 -2.484421E+05 -9.634360E+05  5.827716E+04 -2.452906E+04
       111  20 -2.536902E+06 -5.453181E+05 -1.961374E+05 -9.251562E+05  3.931781E+04 -2.751668E+04
       111  21 -2.442109E+06 -5.238898E+05 -1.609575E+05 -9.148099E+05  1.985659E+04 -2.916385E+04
       111  22 -1.849723E+06 -3.197663E+05 -6.303336E+04 -7.490301E+05  6.089568E+04 -2.354016E+04
       111  23 -1.858556E+06 -2.914357E+05 -3.241197E+04 -7.377967E+05  4.308689E+04 -2.609782E+04
       111  24 -1.847592E+06 -3.051232E+05 -1.798468E+04 -7.544990E+05  2.477915E+04 -2.731454E+04
       111  25 -1.086736E+06 -3.047885E+04  1.223331E+05 -5.343803E+05  6.351771E+04 -2.254989E+04
       111  26 -1.179750E+06 -3.751915E+04  1.312800E+05 -5.502492E+05  4.686046E+04 -2.467726E+04
       111  27 -1.252725E+06 -8.633395E+04  1.249624E+05 -5.940487E+05  2.970687E+04 -2.546335E+04
       112   1 -2.365616E+06 -4.995838E+05 -1.383654E+05 -8.958553E+05 -1.647129E+04  2.677033E+04
       112   2 -2.290366E+06 -4.516576E+05 -1.109989E+05 -8.556229E+05 -1.068958E+04  2.292358E+04
       112   3 -2.187989E+06 -4.325512E+05 -8.669131E+04 -8.472488E+05 -4.877097E+03  1.898614E+04
       112   4 -1.846565E+06 -3.066000E+05 -1.368738E+04 -7.537062E+05 -2.104367E+04  2.505360E+04
       112   5 -1.860059E+06 -2.917734E+05 -7.455319E+03 -7.379293E+05 -1.533796E+04  2.117987E+04
       112   6 -1.846419E+06 -3.057503E+05 -4.219468E+03 -7.540127E+05 -9.602064E+03  1.721530E+04
       112   7 -1.327249E+06 -1.135984E+05  1.109703E+05 -6.114493E+05 -2.562019E+04  2.333531E+04
       112   8 -1.429568E+06 -1.318763E+05  9.607482E+04 -6.201613E+05 -1.998986E+04  1.943485E+04
       112   9 -1.504730E+06 -1.789407E+05  7.824433E+04 -6.607295E+05 -1.432989E+04  1.544339E+04
       112  10 -2.365617E+06 -4.995847E+05 -1.383673E+05 -8.958550E+05 -3.840617E-09 -1.047190E-09
       112  11 -2.290366E+06 -4.516582E+05 -1.110001E+05 -8.556227E+05  3.375667E-10 -6.258828E-10
       112  12 -2.187990E+06 -4.325516E+05 -8.669203E+04 -8.472487E+05  6.369703E-10 -1.142030E-09
       112  13 -1.846566E+06 -3.066008E+05 -1.368939E+04 -7.537058E+05 -3.263919E-09 -8.872701E-10
       112  14 -1.860059E+06 -2.917739E+05 -7.456603E+03 -7.379291E+05  1.464320E-10 -5.530363E-10
       112  15 -1.846419E+06 -3.057506E+05 -4.220197E+03 -7.540126E+05 -5.817720E-10 -9.144577E-10
       112  16 -1.327250E+06 -1.135992E+05  1.109681E+05 -6.114488E+05 -2.095816E-09 -3.616734E-10
       112  17 -1.429568E+06 -1.318768E+05  9.607336E+04 -6.201610E+05  6.540420E-10 -5.294533E-10
       112  18 -1.504731E+06 -1.789410E+05  7.824350E+04 -6.607293E+05 -1.608044E-10 -6.329999E-10
       112  19 -2.365616E+06 -4.995838E+05 -1.383654E+05 -8.958553E+05  1.647129E+04 -2.677033E+04
       112  20 -2.290366E+06 -4.516576E+05 -1.109989E+05 -8.556229E+05  1.068958E+04 -2.292358E+04
       112  21 -2.187989E+06 -4.325512E+05 -8.669131E+04 -8.472488E+05  4.877097E+03 -1.898614E+04
       112  22 -1.846565E+06 -3.066000E+05 -1.368738E+04 -7.537062E+05  2.104367E+04 -2.505360E+04
       112  23 -1.860059E+06 -2.917734E+05 -7.455319E+03 -7.379293E+05  1.533796E+04 -2.117987E+04
       112  24 -1.846419E+06 -3.057503E+05 -4.219468E+03 -7.540127E+05  9.602064E+03 -1.721530E+04
       112  25 -1.327249E+06 -1.135984E+05  1.109703E+05 -6.114493E+05  2.562019E+04 -2.333531E+04
       112  26 -1.429568E+06 -1.318763E+05  9.607482E+04 -6.201613E+05  1.998986E+04 -1.943485E+04
       112  27 -1.504730E+06 -1.789407E+05  7.824433E+04 -6.607295E+05  1.432989E+04 -1.544339E+04
       113   1 -2.112673E+06 -4.047857E+05 -6.705687E+04 -8.268924E+05 -3.078507E+03  1.606732E+04
       113   2 -2.036711E+06 -3.572542E+05 -4.452175E+04 -7.860929E+05 -1.949089E+00  1.104309E+04
       113   3 -1.932690E+06 -3.379967E+05 -2.278068E+04 -7.776756E+05  3.079313E+03  6.002238E+03
       113   4 -1.846238E+06 -3.058829E+05 -3.270497E+03 -7.540300E+05 -7.805207E+03  1.429652E+04
       113   5 -1.860255E+06 -2.917167E+05 -2.074641E+03 -7.378470E+05 -4.742830E+03  9.267605E+03
       113   6 -1.846219E+06 -3.058213E+05 -1.661203E+03 -7.540484E+05 -1.675950E+03  4.222079E+03
       113   7 -1.579731E+06 -2.069748E+05  6.051104E+04 -6.811389E+05 -1.253413E+04  1.252488E+04
       113   8 -1.683769E+06 -2.261776E+05  4.036987E+04 -6.895891E+05 -9.485142E+03  7.491587E+03
       113   9 -1.759742E+06 -2.736461E+05  1.945733E+04 -7.304186E+05 -6.431843E+03  2.441685E+03
       113  10 -2.112673E+06 -4.047860E+05 -6.705738E+04 -8.268923E+05 -1.975199E-09 -1.343050E-09
       113  11 -2.036711E+06 -3.572543E+05 -4.452198E+04 -7.860929E+05 -1.920663E-09 -2.035790E-11
       113  12 -1.932690E+06 -3.379968E+05 -2.278076E+04 -7.776756E+05  1.198090E-10 -7.406943E-10
       113  13 -1.846238E+06 -3.058831E+05 -3.270995E+03 -7.540299E+05 -2.712619E-09 -1.178443E-09
       113  14 -1.860255E+06 -2.917168E+05 -2.074844E+03 -7.378470E+05 -7.399644E-10 -4.575384E-11
       113  15 -1.846219E+06 -3.058214E+05 -1.661242E+03 -7.540484E+05  5.732153E-11 -7.106331E-10
       113  16 -1.579732E+06 -2.069750E+05  6.051045E+04 -6.811388E+05  4.194460E-10 -1.880423E-10
       113  17 -1.683769E+06 -2.261777E+05  4.036960E+04 -6.895890E+05 -1.134614E-10 -4.719953E-10
       113  18 -1.759742E+06 -2.736461E+05  1.945724E+04 -7.304186E+05 -1.365264E-09 -4.193540E-11
       113  19 -2.112673E+06 -4.047857E+05 -6.705687E+04 -8.268924E+05  3.078507E+03 -1.606732E+04
       113  20 -2.036711E+06 -3.572542E+05 -4.452175E+04 -7.860929E+05  1.949089E+00 -1.104309E+04
       113  21 -1.932690E+06 -3.379967E+05 -2.278068E+04 -7.776756E+05 -3.079313E+03 -6.002238E+03
       113  22 -1.846238E+06 -3.058829E+05 -3.270497E+03 -7.540300E+05  7.805207E+03 -1.429652E+04
       113  23 -1.860255E+06 -2.917167E+05 -2.074641E+03 -7.378470E+05  4.742830E+03 -9.267605E+03
       113  24 -1.846219E+06 -3.058213E+05 -1.661203E+03 -7.540484E+05  1.675950E+03 -4.222079E+03
       113  25 -1.579731E+06 -2.069748E+05  6.051104E+04 -6.811389E+05  1.253413E+04 -1.252488E+04
       113  26 -1.683769E+06 -2.261776E+05  4.036987E+04 -6.895891E+05  9.485142E+03 -7.491587E+03
       113  27 -1.759742E+06 -2.736461E+05  1.945733E+04 -7.304186E+05  6.431843E+03 -2.441685E+03
       114   1 -1.857026E+06 -3.098143E+05 -3.970584E+03 -7.570623E+05  4.546030E+03  2.938850E+03
       114   2 -1.780887E+06 -2.622498E+05  1.689238E+04 -7.161648E+05  7.666195E+03 -2.094392E+03
       114   3 -1.676656E+06 -2.430151E+05  3.693062E+04 -7.077189E+05  1.078391E+04 -7.118321E+03
       114   4 -1.846211E+06 -3.058337E+05 -1.683347E+03 -7.540644E+05 -2.125574E+02  1.157563E+03
       114   5 -1.860257E+06 -2.916889E+05 -2.190975E+03 -7.378291E+05  2.915081E+03 -3.873238E+03
       114   6 -1.846221E+06 -3.058772E+05 -3.529300E+03 -7.540498E+05  6.040081E+03 -8.894750E+03
       114   7 -1.835395E+06 -3.018529E+05  6.040321E+02 -7.510664E+05 -4.971314E+03 -6.237882E+02
       114   8 -1.939622E+06 -3.211279E+05 -2.127500E+04 -7.594912E+05 -1.835437E+03 -5.651863E+03
       114   9 -2.015759E+06 -3.687381E+05 -4.399174E+04 -8.003697E+05  1.297611E+03 -1.067067E+04
       114  10 -1.857026E+06 -3.098144E+05 -3.970639E+03 -7.570623E+05  5.571818E-11 -1.306030E-09
       114  11 -1.780887E+06 -2.622498E+05  1.689226E+04 -7.161648E+05 -5.894006E-09 -1.870413E-10
       114  12 -1.676656E+06 -2.430152E+05  3.693030E+04 -7.077189E+05 -3.431661E-09 -1.085384E-10
       114  13 -1.846211E+06 -3.058337E+05 -1.683349E+03 -7.540644E+05 -1.529257E-09 -1.033892E-09
       114  14 -1.860257E+06 -2.916889E+05 -2.191019E+03 -7.378291E+05 -5.358247E-09  2.556666E-10
       114  15 -1.846221E+06 -3.058773E+05 -3.529517E+03 -7.540498E+05 -2.597233E-09 -2.604706E-10
       114  16 -1.835395E+06 -3.018529E+05  6.039848E+02 -7.510664E+05 -2.855561E-09  3.557930E-11
       114  17 -1.939622E+06 -3.211280E+05 -2.127507E+04 -7.594912E+05 -2.097892E-09  8.479698E-13
       114  18 -2.015759E+06 -3.687382E+05 -4.399196E+04 -8.003696E+05 -2.754710E-10 -2.054992E-10
       114  19 -1.857026E+06 -3.098143E+05 -3.970584E+03 -7.570623E+05 -4.546030E+03 -2.938850E+03
       114  20 -1.780887E+06 -2.622498E+05  1.689238E+04 -7.161648E+05 -7.666195E+03  2.094392E+03
       114  21 -1.676656E+06 -2.430151E+05  3.693062E+04 -7.077189E+05 -1.078391E+04  7.118321E+03
       114  22 -1.846211E+06 -3.058337E+05 -1.683347E+03 -7.540644E+05  2.125574E+02 -1.157563E+03
       114  23 -1.860257E+06 -2.916889E+05 -2.190975E+03 -7.378291E+05 -2.915081E+03  3.873238E+03
       114  24 -1.846221E+06 -3.058772E+05 -3.529300E+03 -7.540498E+05 -6.040081E+03  8.894750E+03
       114  25 -1.835395E+06 -3.018529E+05  6.040321E+02 -7.510664E+05  4.971314E+03  6.237882E+02
       114  26 -1.939622E+06 -3.211279E+05 -2.127500E+04 -7.594912E+05  1.835437E+03  5.651863E+03
       114  27 -2.015759E+06 -3.687381E+05 -4.399174E+04 -8.003697E+05 -1.297611E+03  1.067067E+04
       115   1 -1.601368E+06 -2.149190E+05  5.463154E+04 -6.872976E+05  1.263924E+04 -1.002790E+04
       115   2 -1.525688E+06 -1.675755E+05  7.228784E+04 -6.464979E+05  1.865078E+04 -1.392160E+04
       115   3 -1.422816E+06 -1.492764E+05  8.671987E+04 -6.377579E+05  2.463657E+04 -1.773712E+04
       115   4 -1.846395E+06 -3.057636E+05 -4.577902E+03 -7.540697E+05  7.891819E+03 -1.180614E+04
       115   5 -1.860054E+06 -2.916844E+05 -8.115260E+03 -7.378744E+05  1.396855E+04 -1.567661E+04
       115   6 -1.846543E+06 -3.066637E+05 -1.492953E+04 -7.537422E+05  2.001897E+04 -1.946910E+04
       115   7 -2.091357E+06 -3.966024E+05 -6.379035E+04 -8.208165E+05  3.146535E+03 -1.358358E+04
       115   8 -2.194307E+06 -4.157849E+05 -8.852592E+04 -8.292056E+05  9.289099E+03 -1.743058E+04
       115   9 -2.270094E+06 -4.640398E+05 -1.165929E+05 -8.696552E+05  1.540477E+04 -2.119982E+04
       115  10 -1.601368E+06 -2.149191E+05  5.463105E+04 -6.872975E+05  8.221696E-10  6.169709E-10
       115  11 -1.525689E+06 -1.675758E+05  7.228682E+04 -6.464977E+05 -6.092309E-10 -6.969422E-11
       115  12 -1.422817E+06 -1.492769E+05  8.671814E+04 -6.377575E+05 -2.281891E-11 -5.421937E-10
       115  13 -1.846395E+06 -3.057638E+05 -4.578281E+03 -7.540696E+05 -1.134685E-09 -2.065136E-10
       115  14 -1.860055E+06 -2.916847E+05 -8.116088E+03 -7.378743E+05 -6.017222E-10 -5.652949E-10
       115  15 -1.846543E+06 -3.066642E+05 -1.493099E+04 -7.537418E+05 -2.676855E-10 -4.015387E-10
       115  16 -2.091357E+06 -3.966026E+05 -6.379071E+04 -8.208164E+05 -9.581521E-10 -4.072267E-10
       115  17 -2.194308E+06 -4.157853E+05 -8.852666E+04 -8.292055E+05 -7.075880E-10  2.652097E-10
       115  18 -2.270095E+06 -4.640404E+05 -1.165942E+05 -8.696549E+05  3.469523E-10 -1.341782E-10
       115  19 -1.601368E+06 -2.149190E+05  5.463154E+04 -6.872976E+05 -1.263924E+04  1.002790E+04
       115  20 -1.525688E+06 -1.675755E+05  7.228784E+04 -6.464979E+05 -1.865078E+04  1.392160E+04
       115  21 -1.422816E+06 -1.492764E+05  8.671987E+04 -6.377579E+05 -2.463657E+04  1.773712E+04
       115  22 -1.846395E+06 -3.057636E+05 -4.577902E+03 -7.540697E+05 -7.891819E+03  1.180614E+04
       115  23 -1.860054E+06 -2.916844E+05 -8.115260E+03 -7.378744E+05 -1.396855E+04  1.567661E+04
       115  24 -1.846543E+06 -3.066637E+05 -1.492953E+04 -7.537422E+05 -2.001897E+04  1.946910E+04
       115  25 -2.091357E+06 -3.966024E+05 -6.379035E+04 -8.208165E+05 -3.146535E+03  1.358358E+04
       115  26 -2.194307E+06 -4.157849E+05 -8.852592E+04 -8.292056E+05 -9.289099E+03  1.743058E+04
       115  27 -2.270094E+06 -4.640398E+05 -1.165929E+05 -8.696552E+05 -1.540477E+04  2.119982E+04
       116   1 -1.347599E+06 -1.218745E+05  1.004665E+05 -6.205252E+05  2.893158E+04 -1.980418E+04
       116   2 -1.273802E+06 -7.236117E+04  1.056696E+05 -5.759647E+05  4.771309E+04 -1.849758E+04
       116   3 -1.180492E+06 -6.628214E+04  9.402619E+04 -5.593961E+05  6.604235E+04 -1.596727E+04
       116   4 -1.847631E+06 -3.050892E+05 -1.962453E+04 -7.546529E+05  2.398984E+04 -2.165863E+04
       116   5 -1.858431E+06 -2.912393E+05 -3.536111E+04 -7.376750E+05  4.382343E+04 -1.995970E+04
       116   6 -1.849942E+06 -3.210466E+05 -6.879254E+04 -7.486941E+05  6.320200E+04 -1.703770E+04
       116   7 -2.347416E+06 -4.882884E+05 -1.397337E+05 -8.886829E+05  1.905245E+04 -2.351150E+04
       116   8 -2.442720E+06 -5.100918E+05 -1.764165E+05 -8.992455E+05  3.993777E+04 -2.142031E+04
       116   9 -2.518944E+06 -5.757730E+05 -2.316438E+05 -9.378030E+05  6.036498E+04 -1.810681E+04
       116  10 -1.347600E+06 -1.218751E+05  1.004642E+05 -6.205248E+05  2.511460E-10 -2.610633E-10
       116  11 -1.273804E+06 -7.236215E+04  1.056647E+05 -5.759640E+05  1.003260E-09  8.900150E-11
       116  12 -1.180497E+06 -6.628359E+04  9.401751E+04 -5.593952E+05  2.587062E-10 -1.503576E-10
       116  13 -1.847632E+06 -3.050899E+05 -1.962649E+04 -7.546525E+05 -4.061302E-10 -2.412599E-11
       116  14 -1.858433E+06 -2.912402E+05 -3.536547E+04 -7.376743E+05 -1.361655E-09  1.059328E-10
       116  15 -1.849946E+06 -3.210480E+05 -6.880061E+04 -7.486933E+05 -7.082046E-10  8.472787E-12
       116  16 -2.347416E+06 -4.882891E+05 -1.397354E+05 -8.886825E+05 -8.007318E-10  1.004847E-10
       116  17 -2.442722E+06 -5.100927E+05 -1.764204E+05 -8.992448E+05 -1.687542E-09 -6.595713E-11
       116  18 -2.518948E+06 -5.757744E+05 -2.316513E+05 -9.378021E+05 -6.815109E-10 -3.381647E-10
       116  19 -1.347599E+06 -1.218745E+05  1.004665E+05 -6.205252E+05 -2.893158E+04  1.980418E+04
       116  20 -1.273802E+06 -7.236117E+04  1.056696E+05 -5.759647E+05 -4.771309E+04  1.849758E+04
       116  21 -1.180492E+06 -6.628214E+04  9.402619E+04 -5.593961E+05 -6.604235E+04  1.596727E+04
       116  22 -1.847631E+06 -3.050892E+05 -1.962453E+04 -7.546529E+05 -2.398984E+04  2.165863E+04
       116  23 -1.858431E+06 -2.912393E+05 -3.536111E+04 -7.376750E+05 -4.382343E+04  1.995970E+04
       116  24 -1.849942E+06 -3.210466E+05 -6.879254E+04 -7.486941E+05 -6.320200E+04  1.703770E+04
       116  25 -2.347416E+06 -4.882884E+05 -1.397337E+05 -8.886829E+05 -1.905245E+04  2.351150E+04
       116  26 -2.442720E+06 -5.100918E+05 -1.764165E+05 -8.992455E+05 -3.993777E+04  2.142031E+04
       116  27 -2.518944E+06 -5.757730E+05 -2.316438E+05 -9.378030E+05 -6.036498E+04  1.810681E+04
       117   1 -1.086666E+06 -4.493287E+04  9.256773E+04 -5.917105E+05  8.697913E+04 -1.441673E+04
       117   2 -1.039805E+06  5.478546E+04  4.973242E+04 -4.694442E+05  1.458929E+05  8.935937E+03
       117   3 -1.072079E+06 -1.303770E+05 -1.082283E+05 -3.091978E+05  1.948963E+05  5.866676E+04
       117   4 -1.861383E+06 -2.946853E+05 -8.687367E+04 -7.644783E+05  7.630848E+04 -1.842334E+04
       117   5 -1.838836E+06 -2.857579E+05 -1.533828E+05 -7.324380E+05  1.581968E+05  1.354547E+04
       117   6 -1.900146E+06 -5.665257E+05 -3.533790E+05 -6.623934E+05  2.301613E+05  7.188762E+04
       117   7 -2.635510E+06 -5.444316E+05 -2.663559E+05 -9.370667E+05  6.565226E+04 -2.242620E+04
       117   8 -2.637227E+06 -6.261993E+05 -3.565480E+05 -9.951027E+05  1.704834E+05  1.814632E+04
       117   9 -2.727493E+06 -1.002405E+06 -5.985857E+05 -1.015092E+06  2.653742E+05  8.507108E+04
       117  10 -1.086674E+06 -4.493513E+04  9.255311E+04 -5.917095E+05 -4.071718E-10 -5.707178E-10
       117  11 -1.039828E+06  5.477965E+04  4.969220E+04 -4.694452E+05 -1.938417E-10 -1.591324E-10
       117  12 -1.072120E+06 -1.303909E+05 -1.083062E+05 -3.092070E+05  4.196995E-10 -3.529677E-10
       117  13 -1.861390E+06 -2.946872E+05 -8.688527E+04 -7.644772E+05 -1.225668E-09 -2.941294E-10
       117  14 -1.838863E+06 -2.857648E+05 -1.534303E+05 -7.324397E+05 -2.566454E-10  3.002031E-10
       117  15 -1.900205E+06 -5.665455E+05 -3.534886E+05 -6.624067E+05  1.133367E-09  8.690736E-11
       117  16 -2.635515E+06 -5.444333E+05 -2.663650E+05 -9.370655E+05 -2.287901E-11 -1.338377E-10
       117  17 -2.637258E+06 -6.262075E+05 -3.566035E+05 -9.951052E+05 -1.654374E-09  1.484623E-10
       117  18 -2.727571E+06 -1.002431E+06 -5.987323E+05 -1.015110E+06  5.708742E-10 -2.471602E-10
       117  19 -1.086666E+06 -4.493287E+04  9.256773E+04 -5.917105E+05 -8.697913E+04  1.441673E+04
       117  20 -1.039805E+06  5.478546E+04  4.973242E+04 -4.694442E+05 -1.458929E+05 -8.935937E+03
       117  21 -1.072079E+06 -1.303770E+05 -1.082283E+05 -3.091978E+05 -1.948963E+05 -5.866676E+04
       117  22 -1.861383E+06 -2.946853E+05 -8.687367E+04 -7.644783E+05 -7.630848E+04  1.842334E+04
       117  23 -1.838836E+06 -2.857579E+05 -1.533828E+05 -7.324380E+05 -1.581968E+05 -1.354547E+04
       117  24 -1.900146E+06 -5.665257E+05 -3.533790E+05 -6.623934E+05 -2.301613E+05 -7.188762E+04
       117  25 -2.635510E+06 -5.444316E+05 -2.663559E+05 -9.370667E+05 -6.565226E+04  2.242620E+04
       117  26 -2.637227E+06 -6.261993E+05 -3.565480E+05 -9.951027E+05 -1.704834E+05 -1.814632E+04
       117  27 -2.727493E+06 -1.002405E+06 -5.985857E+05 -1.015092E+06 -2.653742E+05 -8.507108E+04
       118   1 -3.936367E+05 -3.089188E+04 -4.327790E+03  2.160940E+04  7.221612E+04  7.826922E+03
       118   2 -3.560601E+05 -1.304548E+05 -5.596557E+04 -4.191066E+03  5.328794E+04  2.451074E+04
       118   3 -2.893206E+05 -1.237787E+05 -6.868965E+04 -5.035853E+04  3.436831E+04  2.572112E+04
       118   4  1.958761E+05  1.154527E+05  1.383128E+05 -3.384440E+04  9.514034E+04  7.835406E+03
       118   5  1.800646E+05  5.833269E+02  6.315539E+04 -2.362911E+04  6.170782E+04  2.451180E+04
       118   6  1.959018E+05 -5.583883E+03  3.695746E+04 -3.377840E+04  2.828645E+04  2.571857E+04
       118   7  7.857144E+05  2.617837E+05  2.809320E+05 -8.935109E+04  1.180862E+05  7.839792E+03
       118   8  7.164586E+05  1.316035E+05  1.822589E+05 -4.308417E+04  7.013488E+04  2.451234E+04
       118   9  6.813454E+05  1.125963E+05  1.425907E+05 -1.718515E+04  2.219990E+04  2.571570E+04
       118  10 -3.936423E+05 -3.089335E+04 -4.337712E+03  2.160895E+04  6.258666E-10  1.991711E-10
       118  11 -3.560633E+05 -1.304562E+05 -5.597203E+04 -4.192118E+03 -8.266721E-10 -4.490938E-10
       118  12 -2.893220E+05 -1.237797E+05 -6.869312E+04 -5.035924E+04 -6.688923E-10 -4.524670E-10
       118  13  1.958664E+05  1.154502E+05  1.382956E+05 -3.384500E+04  9.456509E-11  1.167921E-10
       118  14  1.800604E+05  5.816598E+02  6.314711E+04 -2.363033E+04 -2.169332E-09 -7.302715E-10
       118  15  1.959007E+05 -5.584808E+03  3.695472E+04 -3.377898E+04 -8.106043E-10 -5.048005E-10
       118  16  7.856995E+05  2.617799E+05  2.809057E+05 -8.935184E+04 -7.473440E-10  5.411604E-11
       118  17  7.164531E+05  1.316015E+05  1.822486E+05 -4.308555E+04 -1.009539E-10  3.031202E-13
       118  18  6.813447E+05  1.125955E+05  1.425886E+05 -1.718561E+04 -8.312822E-10 -7.318393E-10
       118  19 -3.936367E+05 -3.089188E+04 -4.327790E+03  2.160940E+04 -7.221612E+04 -7.826922E+03
       118  20 -3.560601E+05 -1.304548E+05 -5.596557E+04 -4.191066E+03 -5.328794E+04 -2.451074E+04
       118  21 -2.893206E+05 -1.237787E+05 -6.868965E+04 -5.035853E+04 -3.436831E+04 -2.572112E+04
       118  22  1.958761E+05  1.154527E+05  1.383128E+05 -3.384440E+04 -9.514034E+04 -7.835406E+03
       118  23  1.800646E+05  5.833269E+02  6.315539E+04 -2.362911E+04 -6.170782E+04 -2.451180E+04
       118  24  1.959018E+05 -5.583883E+03  3.695746E+04 -3.377840E+04 -2.828645E+04 -2.571857E+04
       118  25  7.857144E+05  2.617837E+05  2.809320E+05 -8.935109E+04 -1.180862E+05 -7.839792E+03
       118  26  7.164586E+05  1.316035E+05  1.822589E+05 -4.308417E+04 -7.013488E+04 -2.451234E+04
       118  27  6.813454E+05  1.125963E+05  1.425907E+05 -1.718515E+04 -2.219990E+04 -2.571570E+04
       119   1 -2.536384E+05 -1.019639E+05 -6.763036E+04 -3.189363E+04  2.470153E+04  2.268555E+04
       119   2 -2.030359E+05 -9.548653E+04 -6.936972E+04 -2.302364E+04  1.738379E+04  2.057906E+04
       119   3 -1.499286E+05 -8.305307E+04 -6.484025E+04 -3.508954E+04  1.006445E+04  1.777930E+04
       119   4  1.894563E+05  6.050426E+03  2.932713E+04 -3.392217E+04  2.306747E+04  2.268389E+04
       119   5  1.881557E+05 -1.940489E+02  1.589064E+04 -2.345428E+04  1.509577E+04  2.057782E+04
       119   6  1.894694E+05 -3.710285E+02  9.173817E+03 -3.392135E+04  7.123085E+03  1.777865E+04
       119   7  6.327349E+05  1.140516E+05  1.262727E+05 -3.595217E+04  2.143225E+04  2.268224E+04
       119   8  5.794907E+05  9.508827E+04  1.011418E+05 -2.388519E+04  1.280633E+04  2.057658E+04
       119   9  5.289755E+05  8.230336E+04  8.318099E+04 -3.275251E+04  4.180134E+03  1.777799E+04
       119  10 -2.536392E+05 -1.019646E+05 -6.763248E+04 -3.189408E+04 -2.116646E-09 -5.215253E-10
       119  11 -2.030364E+05 -9.548707E+04 -6.937108E+04 -2.302393E+04 -1.071483E-09  3.660098E-11
       119  12 -1.499288E+05 -8.305344E+04 -6.484103E+04 -3.508968E+04  9.333444E-10 -4.388111E-10
       119  13  1.894556E+05  6.049730E+03  2.932516E+04 -3.392259E+04  3.868437E-11 -5.451750E-10
       119  14  1.881553E+05 -1.945648E+02  1.588942E+04 -2.345453E+04 -5.142432E-10 -5.598442E-11
       119  15  1.894693E+05 -3.713815E+02  9.173128E+03 -3.392145E+04 -8.350308E-10 -5.709777E-10
       119  16  6.327343E+05  1.140509E+05  1.262709E+05 -3.595256E+04 -1.434812E-10 -4.718282E-10
       119  17  5.794904E+05  9.508777E+04  1.011407E+05 -2.388540E+04  2.252594E-09 -2.451591E-10
       119  18  5.289754E+05  8.230302E+04  8.318036E+04 -3.275257E+04 -1.443748E-09 -7.009142E-10
       119  19 -2.536384E+05 -1.019639E+05 -6.763036E+04 -3.189363E+04 -2.470153E+04 -2.268555E+04
       119  20 -2.030359E+05 -9.548653E+04 -6.936972E+04 -2.302364E+04 -1.738379E+04 -2.057906E+04
       119  21 -1.499286E+05 -8.305307E+04 -6.484025E+04 -3.508954E+04 -1.006445E+04 -1.777930E+04
       119  22  1.894563E+05  6.050426E+03  2.932713E+04 -3.392217E+04 -2.306747E+04 -2.268389E+04
       119  23  1.881557E+05 -1.940489E+02  1.589064E+04 -2.345428E+04 -1.509577E+04 -2.057782E+04
       119  24  1.894694E+05 -3.710285E+02  9.173817E+03 -3.392135E+04 -7.123085E+03 -1.777865E+04
       119  25  6.327349E+05  1.140516E+05  1.262727E+05 -3.595217E+04 -2.143225E+04 -2.268224E+04
       119  26  5.794907E+05  9.508827E+04  1.011418E+05 -2.388519E+04 -1.280633E+04 -2.057658E+04
       119  27  5.289755E+05  8.230336E+04  8.318099E+04 -3.275251E+04 -4.180134E+03 -1.777799E+04
       120   1 -1.087125E+05 -7.222328E+04 -5.765284E+04 -3.403453E+04  8.435869E+03  1.598308E+04
       120   2 -5.712927E+04 -5.995221E+04 -4.954460E+04 -2.355757E+04  6.488637E+03  1.303838E+04
       120   3 -5.186895E+03 -4.733356E+04 -4.007786E+04 -3.401480E+04  4.540307E+03  1.006381E+04
       120   4  1.889745E+05  2.480757E+02  7.026121E+03 -3.392129E+04  5.695598E+03  1.598273E+04
       120   5  1.887981E+05 -6.343843E+01  3.987342E+03 -2.345449E+04  3.719420E+03  1.303841E+04
       120   6  1.889822E+05 -2.256921E+01  2.326462E+03 -3.392137E+04  1.742303E+03  1.006424E+04
       120   7  4.867446E+05  7.271356E+04  7.169982E+04 -3.380800E+04  2.954029E+03  1.598238E+04
       120   8  4.347822E+05  5.982132E+04  5.751569E+04 -2.335136E+04  9.491197E+02  1.303844E+04
       120   9  3.831867E+05  4.728591E+04  4.472853E+04 -3.382790E+04 -1.056566E+03  1.006468E+04
       120  10 -1.087127E+05 -7.222357E+04 -5.765346E+04 -3.403464E+04 -1.853316E-09 -1.189455E-10
       120  11 -5.712937E+04 -5.995241E+04 -4.954500E+04 -2.355764E+04  5.852703E-10  9.204837E-10
       120  12 -5.186945E+03 -4.733367E+04 -4.007808E+04 -3.401484E+04  1.217664E-09  4.990088E-10
       120  13  1.889744E+05  2.477926E+02  7.025580E+03 -3.392137E+04 -2.292049E-12 -1.289812E-10
       120  14  1.887980E+05 -6.362471E+01  3.986996E+03 -2.345452E+04  2.100690E-11  1.140392E-09
       120  15  1.889822E+05 -2.267880E+01  2.326266E+03 -3.392138E+04 -1.717629E-10  3.047376E-10
       120  16  4.867446E+05  7.271328E+04  7.169932E+04 -3.380803E+04  1.568816E-09 -1.089719E-10
       120  17  4.347821E+05  5.982114E+04  5.751537E+04 -2.335137E+04 -1.936968E-09  1.425196E-09
       120  18  3.831867E+05  4.728581E+04  4.472834E+04 -3.382789E+04 -2.244696E-09  4.699520E-10
       120  19 -1.087125E+05 -7.222328E+04 -5.765284E+04 -3.403453E+04 -8.435869E+03 -1.598308E+04
       120  20 -5.712927E+04 -5.995221E+04 -4.954460E+04 -2.355757E+04 -6.488637E+03 -1.303838E+04
       120  21 -5.186895E+03 -4.733356E+04 -4.007786E+04 -3.401480E+04 -4.540307E+03 -1.006381E+04
       120  22  1.889745E+05  2.480757E+02  7.026121E+03 -3.392129E+04 -5.695598E+03 -1.598273E+04
       120  23  1.887981E+05 -6.343843E+01  3.987342E+03 -2.345449E+04 -3.719420E+03 -1.303841E+04
       120  24  1.889822E+05 -2.256921E+01  2.326462E+03 -3.392137E+04 -1.742303E+03 -1.006424E+04
       120  25  4.867446E+05  7.271356E+04  7.169982E+04 -3.380800E+04 -2.954029E+03 -1.598238E+04
       120  26  4.347822E+05  5.982132E+04  5.751569E+04 -2.335136E+04 -9.491197E+02 -1.303844E+04
       120  27  3.831867E+05  4.728591E+04  4.472853E+04 -3.382790E+04  1.056566E+03 -1.006468E+04
       121   1  3.639672E+04 -3.710559E+04 -3.125979E+04 -3.395382E+04  4.158376E+03  8.325720E+03
       121   2  8.808016E+04 -2.455235E+04 -2.084133E+04 -2.347945E+04  3.615995E+03  5.346405E+03
       121   3  1.398355E+05 -1.196751E+04 -1.006426E+04 -3.391880E+04  3.073194E+03  2.366281E+03
       121   4  1.889208E+05  6.015647E+00  1.792441E+03 -3.391687E+04  1.370027E+03  8.326322E+03
       121   5  1.888876E+05 -6.027034E+00  1.098087E+03 -2.346012E+04  8.266622E+02  5.347162E+03
       121   6  1.889240E+05  1.383763E+01  7.630070E+02 -3.391688E+04  2.829219E+02  2.367204E+03
       121   7  3.414668E+05  3.711608E+04  3.484332E+04 -3.387992E+04 -1.418997E+03  8.326924E+03
       121   8  2.897046E+05  2.453963E+04  2.303692E+04 -2.344078E+04 -1.963117E+03  5.347920E+03
       121   9  2.380146E+05  1.199503E+04  1.159016E+04 -3.391496E+04 -2.507568E+03  2.368127E+03
       121  10  3.639668E+04 -3.710566E+04 -3.125995E+04 -3.395385E+04 -5.365833E-10 -2.570826E-10
       121  11  8.808014E+04 -2.455239E+04 -2.084141E+04 -2.347946E+04  6.830166E-10 -3.166337E-10
       121  12  1.398355E+05 -1.196752E+04 -1.006429E+04 -3.391881E+04 -1.117639E-09  2.063619E-10
       121  13  1.889208E+05  5.940690E+00  1.792308E+03 -3.391688E+04 -9.860961E-11 -2.299443E-10
       121  14  1.888876E+05 -6.057923E+00  1.098032E+03 -2.346012E+04  1.220403E-12 -9.272988E-10
       121  15  1.889240E+05  1.383159E+01  7.629964E+02 -3.391688E+04 -1.420220E-09 -5.339217E-10
       121  16  3.414667E+05  3.711601E+04  3.484318E+04 -3.387991E+04 -1.013434E-09 -9.651757E-10
       121  17  2.897046E+05  2.453960E+04  2.303686E+04 -2.344077E+04 -2.740641E-09 -1.013622E-09
       121  18  2.380146E+05  1.199502E+04  1.159014E+04 -3.391495E+04  2.420439E-10 -1.030508E-09
       121  19  3.639672E+04 -3.710559E+04 -3.125979E+04 -3.395382E+04 -4.158376E+03 -8.325720E+03
       121  20  8.808016E+04 -2.455235E+04 -2.084133E+04 -2.347945E+04 -3.615995E+03 -5.346405E+03
       121  21  1.398355E+05 -1.196751E+04 -1.006426E+04 -3.391880E+04 -3.073194E+03 -2.366281E+03
       121  22  1.889208E+05  6.015647E+00  1.792441E+03 -3.391687E+04 -1.370027E+03 -8.326322E+03
       121  23  1.888876E+05 -6.027034E+00  1.098087E+03 -2.346012E+04 -8.266622E+02 -5.347162E+03
       121  24  1.889240E+05  1.383763E+01  7.630070E+02 -3.391688E+04 -2.829219E+02 -2.367204E+03
       121  25  3.414668E+05  3.711608E+04  3.484332E+04 -3.387992E+04  1.418997E+03 -8.326924E+03
       121  26  2.897046E+05  2.453963E+04  2.303692E+04 -2.344078E+04  1.963117E+03 -5.347920E+03
       121  27  2.380146E+05  1.199503E+04  1.159016E+04 -3.391496E+04  2.507568E+03 -2.368127E+03
       122   1  1.814557E+05 -1.773989E+03 -7.911993E+02 -3.392340E+04  2.940754E+03  6.316541E+02
       122   2  2.331522E+05  1.077773E+04  1.032657E+04 -2.346207E+04  2.595042E+03 -2.347978E+03
       122   3  2.848877E+05  2.335094E+04  2.167105E+04 -3.391114E+04  2.249473E+03 -5.326661E+03
       122   4  1.889173E+05  1.390215E+01  6.882627E+02 -3.391621E+04  1.505442E+02  6.326051E+02
       122   5  1.888980E+05  2.894264E+00  6.959588E+02 -2.346096E+04 -1.943498E+02 -2.347103E+03
       122   6  1.889159E+05  1.358243E+01  9.300884E+02 -3.391620E+04 -5.390736E+02 -5.325851E+03
       122   7  1.963789E+05  1.801794E+03  2.167751E+03 -3.390902E+04 -2.639698E+03  6.335560E+02
       122   8  1.446457E+05 -1.077207E+04 -8.934741E+03 -2.345985E+04 -2.983546E+03 -2.346228E+03
       122   9  9.295282E+04 -2.332438E+04 -1.981139E+04 -3.392126E+04 -3.327195E+03 -5.325042E+03
       122  10  1.814557E+05 -1.773992E+03 -7.912163E+02 -3.392340E+04  7.541820E-11 -1.013343E-10
       122  11  2.331522E+05  1.077773E+04  1.032655E+04 -2.346206E+04 -1.108618E-09 -7.170777E-10
       122  12  2.848877E+05  2.335091E+04  2.167098E+04 -3.391113E+04  6.131234E-10  4.993956E-10
       122  13  1.889173E+05  1.390171E+01  6.882619E+02 -3.391621E+04  9.752311E-10  2.035894E-10
       122  14  1.888980E+05  2.888338E+00  6.959484E+02 -2.346096E+04 -1.019712E-10  2.487938E-10
       122  15  1.889159E+05  1.355189E+01  9.300346E+02 -3.391621E+04 -7.945285E-10 -6.017182E-11
       122  16  1.963789E+05  1.801792E+03  2.167737E+03 -3.390902E+04 -1.212323E-09 -1.791485E-10
       122  17  1.446457E+05 -1.077208E+04 -8.934768E+03 -2.345985E+04 -1.734745E-09  7.395733E-10
       122  18  9.295280E+04 -2.332441E+04 -1.981146E+04 -3.392128E+04 -3.300088E-10  9.188469E-11
       122  19  1.814557E+05 -1.773989E+03 -7.911993E+02 -3.392340E+04 -2.940754E+03 -6.316541E+02
       122  20  2.331522E+05  1.077773E+04  1.032657E+04 -2.346207E+04 -2.595042E+03  2.347978E+03
       122  21  2.848877E+05  2.335094E+04  2.167105E+04 -3.391114E+04 -2.249473E+03  5.326661E+03
       122  22  1.889173E+05  1.390215E+01  6.882627E+02 -3.391621E+04 -1.505442E+02 -6.326051E+02
       122  23  1.888980E+05  2.894264E+00  6.959588E+02 -2.346096E+04  1.943498E+02  2.347103E+03
       122  24  1.889159E+05  1.358243E+01  9.300884E+02 -3.391620E+04  5.390736E+02  5.325851E+03
       122  25  1.963789E+05  1.801794E+03  2.167751E+03 -3.390902E+04  2.639698E+03 -6.335560E+02
       122  26  1.446457E+05 -1.077207E+04 -8.934741E+03 -2.345985E+04  2.983546E+03  2.346228E+03
       122  27  9.295282E+04 -2.332438E+04 -1.981139E+04 -3.392126E+04  3.327195E+03  5.325042E+03
       123   1  3.265580E+05  3.353287E+04  3.123671E+04 -3.389364E+04  2.070040E+03 -7.063722E+03
       123   2  3.782256E+05  4.607879E+04  4.307879E+04 -2.343080E+04  1.117500E+03 -1.003724E+04
       123   3  4.300663E+05  5.879521E+04  5.558362E+04 -3.388814E+04  1.655736E+02 -1.298342E+04
       123   4  1.889422E+05 -8.030505E-02  1.147018E+03 -3.391845E+04 -7.273010E+02 -7.063025E+03
       123   5  1.888566E+05 -2.475436E+01  1.868302E+03 -2.345815E+04 -1.654108E+03 -1.003686E+04
       123   6  1.889363E+05  1.166198E+02  3.234519E+03 -3.391841E+04 -2.580222E+03 -1.298333E+04
       123   7  5.134424E+04 -3.353429E+04 -2.894379E+04 -3.394326E+04 -3.524030E+03 -7.062329E+03
       123   8 -4.787860E+02 -4.613067E+04 -3.934430E+04 -2.348548E+04 -4.424881E+03 -1.003647E+04
       123   9 -5.213914E+04 -5.856581E+04 -4.911802E+04 -3.394866E+04 -5.324966E+03 -1.298325E+04
       123  10  3.265579E+05  3.353281E+04  3.123660E+04 -3.389362E+04  3.707939E-10  1.112117E-09
       123  11  3.782256E+05  4.607868E+04  4.307859E+04 -2.343079E+04 -7.576200E-10  1.310171E-12
       123  12  4.300663E+05  5.879502E+04  5.558330E+04 -3.388814E+04 -7.480646E-11 -1.181409E-11
       123  13  1.889422E+05 -1.340214E-01  1.146923E+03 -3.391846E+04 -1.035582E-09  3.437731E-10
       123  14  1.888566E+05 -2.486328E+01  1.868108E+03 -2.345816E+04 -2.610977E-09  1.510864E-10
       123  15  1.889363E+05  1.164370E+02  3.234190E+03 -3.391844E+04 -3.346328E-10  3.324431E-11
       123  16  5.134421E+04 -3.353434E+04 -2.894390E+04 -3.394328E+04 -5.102318E-10  5.060793E-10
       123  17 -4.788341E+02 -4.613079E+04 -3.934453E+04 -2.348552E+04  4.884104E-10  5.783409E-10
       123  18 -5.213922E+04 -5.856600E+04 -4.911839E+04 -3.394872E+04 -6.592847E-10 -7.606982E-11
       123  19  3.265580E+05  3.353287E+04  3.123671E+04 -3.389364E+04 -2.070040E+03  7.063722E+03
       123  20  3.782256E+05  4.607879E+04  4.307879E+04 -2.343080E+04 -1.117500E+03  1.003724E+04
       123  21  4.300663E+05  5.879521E+04  5.558362E+04 -3.388814E+04 -1.655736E+02  1.298342E+04
       123  22  1.889422E+05 -8.030508E-02  1.147018E+03 -3.391845E+04  7.273010E+02  7.063025E+03
       123  23  1.888566E+05 -2.475436E+01  1.868302E+03 -2.345815E+04  1.654108E+03  1.003686E+04
       123  24  1.889363E+05  1.166198E+02  3.234519E+03 -3.391841E+04  2.580222E+03  1.298333E+04
       123  25  5.134424E+04 -3.353429E+04 -2.894379E+04 -3.394326E+04  3.524030E+03  7.062329E+03
       123  26 -4.787860E+02 -4.613067E+04 -3.934430E+04 -2.348548E+04  4.424881E+03  1.003647E+04
       123  27 -5.213914E+04 -5.856581E+04 -4.911802E+04 -3.394866E+04  5.324966E+03  1.298325E+04
       124   1  4.719987E+05  6.871438E+04  6.588833E+04 -3.340875E+04 -3.078954E+02 -1.477245E+04
       124   2  5.231806E+05  8.138358E+04  8.016824E+04 -2.366739E+04 -4.542991E+03 -1.758544E+04
       124   3  5.756741E+05  9.692701E+04  9.793069E+04 -3.484983E+04 -8.777359E+03 -1.976929E+04
       124   4  1.891630E+05 -1.669407E+02  4.208647E+03 -3.391926E+04 -3.236428E+03 -1.477261E+04
       124   5  1.885539E+05 -9.528814E+01  7.262628E+03 -2.345706E+04 -6.880547E+03 -1.758614E+04
       124   6  1.891522E+05  2.749199E+03  1.339037E+04 -3.391929E+04 -1.052359E+04 -1.977038E+04
       124   7 -9.359766E+04 -6.905357E+04 -5.747582E+04 -3.442954E+04 -6.163644E+03 -1.477275E+04
       124   8 -1.459678E+05 -8.158159E+04 -6.564969E+04 -2.324684E+04 -9.216858E+03 -1.758684E+04
       124   9 -1.972298E+05 -9.143857E+04 -7.115899E+04 -3.298932E+04 -1.226875E+04 -1.977148E+04
       124  10  4.719986E+05  6.871414E+04  6.588792E+04 -3.340876E+04 -1.253697E-09 -9.914405E-11
       124  11  5.231805E+05  8.138324E+04  8.016762E+04 -2.366746E+04 -1.812324E-09 -1.810015E-10
       124  12  5.756739E+05  9.692657E+04  9.792982E+04 -3.484997E+04 -9.367568E-10 -2.672835E-10
       124  13  1.891630E+05 -1.671778E+02  4.208217E+03 -3.391930E+04  1.067255E-09 -1.912596E-10
       124  14  1.885538E+05 -9.563298E+01  7.261958E+03 -2.345715E+04  1.654279E-09 -2.402430E-10
       124  15  1.891520E+05  2.748749E+03  1.338942E+04 -3.391945E+04  1.230565E-09 -5.917341E-10
       124  16 -9.359776E+04 -6.905382E+04 -5.747630E+04 -3.442961E+04 -2.954331E-10 -3.859177E-10
       124  17 -1.459680E+05 -8.158194E+04 -6.565043E+04 -2.324697E+04 -1.505959E-09 -3.782794E-10
       124  18 -1.972301E+05 -9.143903E+04 -7.116001E+04 -3.298952E+04 -1.286662E-09 -8.397678E-10
       124  19  4.719987E+05  6.871438E+04  6.588833E+04 -3.340875E+04  3.078954E+02  1.477245E+04
       124  20  5.231806E+05  8.138358E+04  8.016824E+04 -2.366739E+04  4.542991E+03  1.758544E+04
       124  21  5.756741E+05  9.692701E+04  9.793069E+04 -3.484983E+04  8.777359E+03  1.976929E+04
       124  22  1.891630E+05 -1.669407E+02  4.208647E+03 -3.391926E+04  3.236428E+03  1.477261E+04
       124  23  1.885539E+05 -9.528814E+01  7.262628E+03 -2.345706E+04  6.880547E+03  1.758614E+04
       124  24  1.891522E+05  2.749199E+03  1.339037E+04 -3.391929E+04  1.052359E+04  1.977038E+04
       124  25 -9.359766E+04 -6.905357E+04 -5.747582E+04 -3.442954E+04  6.163644E+03  1.477275E+04
       124  26 -1.459678E+05 -8.158159E+04 -6.564969E+04 -2.324684E+04  9.216858E+03  1.758684E+04
       124  27 -1.972298E+05 -9.143857E+04 -7.115899E+04 -3.298932E+04  1.226875E+04  1.977148E+04
       125   1  6.207238E+05  1.017821E+05  1.101580E+05 -2.621222E+04 -7.121878E+03 -2.267950E+04
       125   2  6.644376E+05  1.174102E+05  1.353453E+05 -3.246332E+04 -3.552661E+04 -2.185226E+04
       125   3  7.249102E+05  1.849249E+05  1.920039E+05 -5.908843E+04 -6.394134E+04 -6.994417E+03
       125   4  1.920965E+05 -2.563844E+03  1.687170E+04 -3.379160E+04 -1.290657E+04 -2.268160E+04
       125   5  1.848434E+05  2.406143E+02  2.881802E+04 -2.361530E+04 -2.815751E+04 -2.185148E+04
       125   6  1.920773E+05  5.267025E+04  6.311834E+04 -3.381243E+04 -4.341575E+04 -6.987386E+03
       125   7 -2.363586E+05 -1.069217E+05 -7.642546E+04 -4.136568E+04 -1.868733E+04 -2.268356E+04
       125   8 -2.945361E+05 -1.169442E+05 -7.772334E+04 -1.477421E+04 -2.079404E+04 -2.185048E+04
       125   9 -3.404941E+05 -7.960252E+04 -6.578568E+04 -8.558201E+03 -2.290769E+04 -6.978683E+03
       125  10  6.207237E+05  1.017815E+05  1.101569E+05 -2.621235E+04 -2.520653E-09 -1.331946E-11
       125  11  6.644361E+05  1.174093E+05  1.353420E+05 -3.246394E+04  3.190117E-10  4.115238E-10
       125  12  7.249058E+05  1.849237E+05  1.919961E+05 -5.908879E+04 -3.474517E-10  4.170893E-10
       125  13  1.920962E+05 -2.564441E+03  1.687042E+04 -3.379183E+04 -9.507765E-11 -6.625180E-10
       125  14  1.848424E+05  2.398888E+02  2.881563E+04 -2.361580E+04  5.902757E-10  4.835369E-10
       125  15  1.920752E+05  5.266969E+04  6.311470E+04 -3.381268E+04  5.726090E-10  3.888846E-11
       125  16 -2.363591E+05 -1.069224E+05 -7.642708E+04 -4.136603E+04  5.673727E-10 -6.225609E-10
       125  17 -2.945367E+05 -1.169448E+05 -7.772505E+04 -1.477457E+04  6.522991E-10  2.985622E-10
       125  18 -3.404947E+05 -7.960271E+04 -6.578676E+04 -8.558330E+03  1.970329E-10  7.162008E-10
       125  19  6.207238E+05  1.017821E+05  1.101580E+05 -2.621222E+04  7.121878E+03  2.267950E+04
       125  20  6.644376E+05  1.174102E+05  1.353453E+05 -3.246332E+04  3.552661E+04  2.185226E+04
       125  21  7.249102E+05  1.849249E+05  1.920039E+05 -5.908843E+04  6.394134E+04  6.994417E+03
       125  22  1.920965E+05 -2.563844E+03  1.687170E+04 -3.379160E+04  1.290657E+04  2.268160E+04
       125  23  1.848434E+05  2.406143E+02  2.881802E+04 -2.361530E+04  2.815751E+04  2.185148E+04
       125  24  1.920773E+05  5.267025E+04  6.311834E+04 -3.381243E+04  4.341575E+04  6.987386E+03
       125  25 -2.363586E+05 -1.069217E+05 -7.642546E+04 -4.136568E+04  1.868733E+04  2.268356E+04
       125  26 -2.945361E+05 -1.169442E+05 -7.772334E+04 -1.477421E+04  2.079404E+04  2.185048E+04
       125  27 -3.404941E+05 -7.960252E+04 -6.578568E+04 -8.558201E+03  2.290769E+04  6.978683E+03
       126   1  5.501366E+05  1.832655E+06  5.487941E+05 -3.325771E+05  2.298454E+04  1.088498E+05
       126   2  3.745071E+05  1.352575E+06  3.710623E+05 -2.228836E+05  6.683248E+04  4.119792E+04
       126   3  2.583389E+05  8.964474E+05  2.521771E+05 -2.995298E+05  5.529863E+04 -2.647455E+04
       126   4  5.281452E+04 -1.696343E+05  6.282207E+04 -3.049932E+05  2.309248E+04  4.177017E+04
       126   5  5.431392E+02 -1.768281E+05  2.975903E+04 -2.118607E+05  6.687341E+04  2.613426E+04
       126   6 -1.186812E+03 -1.692201E+05  1.954746E+04 -3.050829E+05  5.521497E+04  1.042570E+04
       126   7 -4.447969E+05 -2.168258E+06 -4.234223E+05 -2.774963E+05  2.319470E+04 -2.509436E+04
       126   8 -3.735792E+05 -1.704053E+06 -3.116903E+05 -2.008639E+05  6.691386E+04  1.110719E+04
       126   9 -2.607872E+05 -1.233821E+06 -2.131456E+05 -3.106254E+05  5.513056E+04  4.726347E+04
       126  10  5.501329E+05  1.832642E+06  5.487709E+05 -3.325791E+05  1.999830E-11  1.049927E-09
       126  11  3.745018E+05  1.352572E+06  3.710508E+05 -2.228858E+05  7.329837E-10 -2.683655E-09
       126  12  2.583354E+05  8.964458E+05  2.521701E+05 -2.995286E+05 -1.807547E-10 -9.232742E-10
       126  13  5.281348E+04 -1.696364E+05  6.281778E+04 -3.049940E+05 -8.413832E-10  5.179662E-10
       126  14  5.381532E+02 -1.768301E+05  2.974934E+04 -2.118621E+05  1.896060E-09  8.829715E-10
       126  15 -1.190115E+03 -1.692210E+05  1.954153E+04 -3.050833E+05  9.123351E-10  5.940531E-10
       126  16 -4.447976E+05 -2.168259E+06 -4.234245E+05 -2.774958E+05 -7.300918E-10 -1.143488E-09
       126  17 -3.735840E+05 -1.704055E+06 -3.116989E+05 -2.008645E+05  1.175423E-09  1.188230E-09
       126  18 -2.607911E+05 -1.233825E+06 -2.131555E+05 -3.106275E+05  1.182548E-09 -7.933791E-10
       126  19  5.501366E+05  1.832655E+06  5.487941E+05 -3.325771E+05 -2.298454E+04 -1.088498E+05
       126  20  3.745071E+05  1.352575E+06  3.710623E+05 -2.228836E+05 -6.683248E+04 -4.119792E+04
       126  21  2.583389E+05  8.964474E+05  2.521771E+05 -2.995298E+05 -5.529863E+04  2.647455E+04
       126  22  5.281452E+04 -1.696343E+05  6.282207E+04 -3.049932E+05 -2.309248E+04 -4.177017E+04
       126  23  5.431392E+02 -1.768281E+05  2.975903E+04 -2.118607E+05 -6.687341E+04 -2.613426E+04
       126  24 -1.186812E+03 -1.692201E+05  1.954746E+04 -3.050829E+05 -5.521497E+04 -1.042570E+04
       126  25 -4.447969E+05 -2.168258E+06 -4.234223E+05 -2.774963E+05 -2.319470E+04  2.509436E+04
       126  26 -3.735792E+05 -1.704053E+06 -3.116903E+05 -2.008639E+05 -6.691386E+04 -1.110719E+04
       126  27 -2.607872E+05 -1.233821E+06 -2.131456E+05 -3.106254E+05 -5.513056E+04 -4.726347E+04
       127   1  1.715871E+05  5.156037E+05  1.677119E+05 -3.083085E+05  3.479748E+04 -1.408653E+04
       127   2  5.448024E+04  4.722524E+04  6.183023E+04 -2.116049E+05  1.159861E+04 -2.156379E+04
       127   3 -5.642874E+04 -4.194134E+05 -3.789404E+04 -3.037222E+05 -1.210198E+04 -2.904347E+04
       127   4  3.938976E+03 -1.720378E+05  1.702094E+04 -3.056070E+05  3.474367E+04  7.415661E+03
       127   5  8.924277E+02 -1.727345E+05  1.386974E+04 -2.111953E+05  1.154118E+04  4.055778E+02
       127   6  3.977534E+03 -1.719771E+05  1.656253E+04 -3.056070E+05 -1.216381E+04 -6.612361E+03
       127   7 -1.637405E+05 -8.592359E+05 -1.336970E+05 -3.029081E+05  3.469002E+04  2.889434E+04
       127   8 -5.269834E+04 -3.926479E+05 -3.409184E+04 -2.107857E+05  1.148378E+04  2.236726E+04
       127   9  6.437998E+04  7.551754E+04  7.101725E+04 -3.074925E+05 -1.222577E+04  1.582758E+04
       127  10  1.715858E+05  5.156032E+05  1.677093E+05 -3.083081E+05  1.450812E-10 -1.218127E-09
       127  11  5.447997E+04  4.722471E+04  6.182910E+04 -2.116047E+05  4.271062E-10  2.618465E-09
       127  12 -5.642912E+04 -4.194143E+05 -3.789591E+04 -3.037225E+05 -1.084319E-09  1.305109E-08
       127  13  3.937665E+03 -1.720382E+05  1.701856E+04 -3.056072E+05  1.621076E-09  1.087622E-09
       127  14  8.922847E+02 -1.727346E+05  1.386949E+04 -2.111953E+05 -5.728380E-10  1.298003E-09
       127  15  3.977363E+03 -1.719772E+05  1.656217E+04 -3.056071E+05 -1.680206E-09  8.394209E-10
       127  16 -1.637420E+05 -8.592372E+05 -1.337008E+05 -3.029089E+05 -2.934756E-10  1.126803E-09
       127  17 -5.269862E+04 -3.926485E+05 -3.409303E+04 -2.107860E+05 -6.934365E-12 -4.759774E-09
       127  18  6.437975E+04  7.551723E+04  7.101649E+04 -3.074924E+05 -1.873194E-09 -1.476051E-08
       127  19  1.715871E+05  5.156037E+05  1.677119E+05 -3.083085E+05 -3.479748E+04  1.408653E+04
       127  20  5.448024E+04  4.722524E+04  6.183023E+04 -2.116049E+05 -1.159861E+04  2.156379E+04
       127  21 -5.642874E+04 -4.194134E+05 -3.789404E+04 -3.037222E+05  1.210198E+04  2.904347E+04
       127  22  3.938976E+03 -1.720378E+05  1.702094E+04 -3.056070E+05 -3.474367E+04 -7.415661E+03
       127  23  8.924277E+02 -1.727345E+05  1.386974E+04 -2.111953E+05 -1.154118E+04 -4.055778E+02
       127  24  3.977534E+03 -1.719771E+05  1.656253E+04 -3.056070E+05  1.216381E+04  6.612361E+03
       127  25 -1.637405E+05 -8.592359E+05 -1.336970E+05 -3.029081E+05 -3.469002E+04 -2.889434E+04
       127  26 -5.269834E+04 -3.926479E+05 -3.409184E+04 -2.107857E+05 -1.148378E+04 -2.236726E+04
       127  27  6.437998E+04  7.551754E+04  7.101725E+04 -3.074925E+05  1.222577E+04 -1.582758E+04
       128   1 -1.531830E+05 -7.941621E+05 -1.180757E+05 -3.110033E+05 -3.165612E+04 -4.397908E+04
       128   2 -2.658295E+05 -1.264770E+06 -2.156109E+05 -2.014454E+05 -4.644175E+04 -1.758529E+04
       128   3 -3.377428E+05 -1.728842E+06 -3.202942E+05 -2.788144E+05 -1.693660E+04  8.868310E+03
       128   4 -8.118803E+02 -1.693751E+05  1.883515E+04 -3.052063E+05 -3.174700E+04 -9.531873E+03
       128   5  9.144461E+02 -1.762707E+05  2.842788E+04 -2.117064E+05 -4.641991E+04 -2.455182E+04
       128   6  5.053920E+04 -1.696696E+05  5.964164E+04 -3.051014E+05 -1.683824E+04 -3.949197E+04
       128   7  1.515339E+05  4.557802E+05  1.557268E+05 -2.994031E+05 -3.183719E+04  2.494961E+04
       128   8  2.675778E+05  9.133339E+05  2.723919E+05 -2.219849E+05 -4.639786E+04 -3.153042E+04
       128   9  4.386455E+05  1.391731E+06  4.394099E+05 -3.314531E+05 -1.673593E+04 -8.797355E+04
       128  10 -1.531846E+05 -7.941644E+05 -1.180812E+05 -3.110044E+05 -2.242580E-09 -1.459712E-08
       128  11 -2.658319E+05 -1.264771E+06 -2.156156E+05 -2.014461E+05 -4.575518E-10 -1.153533E-08
       128  12 -3.377432E+05 -1.728842E+06 -3.202949E+05 -2.788143E+05 -4.078215E-10  1.859502E-09
       128  13 -8.129871E+02 -1.693755E+05  1.883309E+04 -3.052065E+05 -2.690386E-09  1.241160E-09
       128  14  9.119700E+02 -1.762720E+05  2.842270E+04 -2.117073E+05 -2.329306E-09  1.062467E-09
       128  15  5.053847E+04 -1.696713E+05  5.963817E+04 -3.051019E+05 -6.127745E-10  5.040249E-10
       128  16  1.515327E+05  4.557793E+05  1.557237E+05 -2.994025E+05 -1.777793E-09  1.466405E-08
       128  17  2.675753E+05  9.133322E+05  2.723860E+05 -2.219860E+05 -2.063203E-09  9.830929E-09
       128  18  4.386431E+05  1.391723E+06  4.393949E+05 -3.314543E+05 -2.161216E-10 -3.129666E-09
       128  19 -1.531830E+05 -7.941621E+05 -1.180757E+05 -3.110033E+05  3.165612E+04  4.397908E+04
       128  20 -2.658295E+05 -1.264770E+06 -2.156109E+05 -2.014454E+05  4.644175E+04  1.758529E+04
       128  21 -3.377428E+05 -1.728842E+06 -3.202942E+05 -2.788144E+05  1.693660E+04 -8.868310E+03
       128  22 -8.118803E+02 -1.693751E+05  1.883515E+04 -3.052063E+05  3.174700E+04  9.531873E+03
       128  23  9.144461E+02 -1.762707E+05  2.842788E+04 -2.117064E+05  4.641991E+04  2.455182E+04
       128  24  5.053920E+04 -1.696696E+05  5.964164E+04 -3.051014E+05  1.683824E+04  3.949197E+04
       128  25  1.515339E+05  4.557802E+05  1.557268E+05 -2.994031E+05  3.183719E+04 -2.494961E+04
       128  26  2.675778E+05  9.133339E+05  2.723919E+05 -2.219849E+05  4.639786E+04  3.153042E+04
       128  27  4.386455E+05  1.391731E+06  4.394099E+05 -3.314531E+05  1.673593E+04  8.797355E+04
       129   1 -1.627084E+06 -5.526461E+05 -3.125672E+05 -6.061179E+05 -1.367994E+05 -4.348997E+04
       129   2 -1.577626E+06 -3.582436E+05 -1.873674E+05 -5.941058E+05 -8.786277E+04 -8.391361E+03
       129   3 -1.572350E+06 -3.156367E+05 -1.402555E+05 -5.640785E+05 -3.359084E+04  1.252821E+04
       129   4 -1.178862E+06 -3.205859E+05 -1.806338E+05 -4.189352E+05 -1.178429E+05 -3.638435E+04
       129   5 -1.148164E+06 -1.764620E+05 -7.841471E+04 -4.540140E+05 -8.128206E+04 -5.924675E+03
       129   6 -1.159154E+06 -1.816269E+05 -4.442278E+04 -4.710905E+05 -3.939045E+04  1.035084E+04
       129   7 -7.304337E+05 -8.845406E+04 -4.871829E+04 -2.316128E+05 -9.887154E+04 -2.926824E+04
       129   8 -7.185171E+05  5.347833E+03  3.052344E+04 -3.138284E+05 -7.469637E+04 -3.455534E+03
       129   9 -7.457869E+05 -4.761384E+04  5.139925E+04 -3.780499E+05 -4.519431E+04  8.172344E+03
       129  10 -1.627105E+06 -5.526532E+05 -3.126060E+05 -6.061228E+05 -3.844774E-10 -4.043268E-12
       129  11 -1.577634E+06 -3.582457E+05 -1.873820E+05 -5.941064E+05 -1.788105E-10 -7.934982E-10
       129  12 -1.572351E+06 -3.156372E+05 -1.402579E+05 -5.640782E+05  8.738409E-10 -8.671332E-10
       129  13 -1.178877E+06 -3.205910E+05 -1.806624E+05 -4.189387E+05 -1.434758E-09  2.265631E-10
       129  14 -1.148171E+06 -1.764638E+05 -7.842722E+04 -4.540144E+05 -5.176270E-10 -2.316318E-10
       129  15 -1.159156E+06 -1.816274E+05 -4.442590E+04 -4.710901E+05 -8.505449E-10 -8.146691E-10
       129  16 -7.304444E+05 -8.845761E+04 -4.873830E+04 -2.316151E+05  9.028351E-10 -1.798931E-11
       129  17 -7.185231E+05  5.346320E+03  3.051292E+04 -3.138286E+05  2.092070E-10 -4.387441E-12
       129  18 -7.457891E+05 -4.761446E+04  5.139528E+04 -3.780496E+05 -5.105155E-10 -6.482655E-10
       129  19 -1.627084E+06 -5.526461E+05 -3.125672E+05 -6.061179E+05  1.367994E+05  4.348997E+04
       129  20 -1.577626E+06 -3.582436E+05 -1.873674E+05 -5.941058E+05  8.786277E+04  8.391361E+03
       129  21 -1.572350E+06 -3.156367E+05 -1.402555E+05 -5.640785E+05  3.359084E+04 -1.252821E+04
       129  22 -1.178862E+06 -3.205859E+05 -1.806338E+05 -4.189352E+05  1.178429E+05  3.638435E+04
       129  23 -1.148164E+06 -1.764620E+05 -7.841471E+04 -4.540140E+05  8.128206E+04  5.924675E+03
       129  24 -1.159154E+06 -1.816269E+05 -4.442278E+04 -4.710905E+05  3.939045E+04 -1.035084E+04
       129  25 -7.304337E+05 -8.845406E+04 -4.871829E+04 -2.316128E+05  9.887154E+04  2.926824E+04
       129  26 -7.185171E+05  5.347833E+03  3.052344E+04 -3.138284E+05  7.469637E+04  3.455534E+03
       129  27 -7.457869E+05 -4.761384E+04  5.139925E+04 -3.780499E+05  4.519431E+04 -8.172344E+03
       130   1 -1.509751E+06 -3.305462E+05 -1.218175E+05 -5.636287E+05 -3.103183E+04  1.004471E+04
       130   2 -1.467887E+06 -2.952193E+05 -9.277058E+04 -5.423863E+05 -2.049341E+04  1.158337E+04
       130   3 -1.415238E+06 -2.833778E+05 -7.322348E+04 -5.366724E+05 -9.712191E+03  1.247384E+04
       130   4 -1.153320E+06 -1.950709E+05 -3.517647E+04 -4.629869E+05 -3.261092E+04  9.450950E+03
       130   5 -1.158186E+06 -1.793218E+05 -1.808864E+04 -4.567429E+05 -2.263414E+04  1.077945E+04
       130   6 -1.152156E+06 -1.869431E+05 -1.005033E+04 -4.660277E+05 -1.241545E+04  1.145955E+04
       130   7 -7.967629E+05 -5.958526E+04  5.145511E+04 -3.622919E+05 -3.419099E+04  8.856800E+03
       130   8 -8.483913E+05 -6.341770E+04  5.658603E+04 -3.710607E+05 -2.477603E+04  9.975086E+03
       130   9 -8.890075E+05 -9.050452E+04  5.311743E+04 -3.953564E+05 -1.511994E+04  1.044481E+04
       130  10 -1.509753E+06 -3.305465E+05 -1.218195E+05 -5.636284E+05  8.407725E-10 -7.114776E-10
       130  11 -1.467887E+06 -2.952195E+05 -9.277162E+04 -5.423861E+05 -7.311244E-11  1.877807E-10
       130  12 -1.415238E+06 -2.833780E+05 -7.322395E+04 -5.366723E+05  8.729657E-10 -3.042270E-10
       130  13 -1.153321E+06 -1.950712E+05 -3.517864E+04 -4.629867E+05  2.017741E-10 -4.577759E-10
       130  14 -1.158187E+06 -1.793221E+05 -1.808982E+04 -4.567428E+05  3.006283E-09  1.469444E-10
       130  15 -1.152157E+06 -1.869432E+05 -1.005087E+04 -4.660276E+05 -5.610649E-10  3.667888E-10
       130  16 -7.967642E+05 -5.958566E+04  5.145276E+04 -3.622917E+05 -5.387135E-10 -2.716088E-10
       130  17 -8.483920E+05 -6.341797E+04  5.658468E+04 -3.710605E+05 -1.182086E-09  2.128382E-10
       130  18 -8.890078E+05 -9.050470E+04  5.311679E+04 -3.953562E+05 -1.181736E-09  4.478956E-10
       130  19 -1.509751E+06 -3.305462E+05 -1.218175E+05 -5.636287E+05  3.103183E+04 -1.004471E+04
       130  20 -1.467887E+06 -2.952193E+05 -9.277058E+04 -5.423863E+05  2.049341E+04 -1.158337E+04
       130  21 -1.415238E+06 -2.833778E+05 -7.322348E+04 -5.366724E+05  9.712191E+03 -1.247384E+04
       130  22 -1.153320E+06 -1.950709E+05 -3.517647E+04 -4.629869E+05  3.261092E+04 -9.450950E+03
       130  23 -1.158186E+06 -1.793218E+05 -1.808864E+04 -4.567429E+05  2.263414E+04 -1.077945E+04
       130  24 -1.152156E+06 -1.869431E+05 -1.005033E+04 -4.660277E+05  1.241545E+04 -1.145955E+04
       130  25 -7.967629E+05 -5.958526E+04  5.145511E+04 -3.622919E+05  3.419099E+04 -8.856800E+03
       130  26 -8.483913E+05 -6.341770E+04  5.658603E+04 -3.710607E+05  2.477603E+04 -9.975086E+03
       130  27 -8.890075E+05 -9.050452E+04  5.311743E+04 -3.953564E+05  1.511994E+04 -1.044481E+04
       131   1 -1.373038E+06 -2.699707E+05 -6.073884E+04 -5.261835E+05 -7.814875E+03  1.117387E+04
       131   2 -1.331689E+06 -2.436946E+05 -4.568253E+04 -5.041036E+05 -4.606258E+03  9.067898E+03
       131   3 -1.275494E+06 -2.332460E+05 -3.233776E+04 -4.995124E+05 -1.384633E+03  6.925603E+03
       131   4 -1.151621E+06 -1.877278E+05 -7.651587E+03 -4.655382E+05 -1.033807E+04  1.022739E+04
       131   5 -1.159010E+06 -1.795949E+05 -4.178315E+03 -4.568751E+05 -7.160527E+03  8.110094E+03
       131   6 -1.151552E+06 -1.872836E+05 -2.391610E+03 -4.657015E+05 -3.970163E+03  5.956424E+03
       131   7 -9.301545E+05 -1.054810E+05  4.543244E+04 -4.048729E+05 -1.286226E+04  9.280539E+03
       131   8 -9.863022E+05 -1.154931E+05  3.732388E+04 -4.096345E+05 -9.715577E+03  7.151998E+03
       131   9 -1.027595E+06 -1.413201E+05  2.755344E+04 -4.318845E+05 -6.556258E+03  4.987036E+03
       131  10 -1.373039E+06 -2.699709E+05 -6.073919E+04 -5.261835E+05 -4.628301E-10 -3.385066E-10
       131  11 -1.331689E+06 -2.436947E+05 -4.568273E+04 -5.041036E+05 -2.586792E-09 -9.109369E-10
       131  12 -1.275494E+06 -2.332461E+05 -3.233785E+04 -4.995124E+05 -3.136775E-10 -2.362480E-10
       131  13 -1.151622E+06 -1.877279E+05 -7.651985E+03 -4.655382E+05 -9.508592E-10 -3.781662E-10
       131  14 -1.159010E+06 -1.795950E+05 -4.178535E+03 -4.568751E+05 -2.643052E-09 -8.631017E-10
       131  15 -1.151552E+06 -1.872837E+05 -2.391707E+03 -4.657015E+05  1.949905E-09  2.920068E-10
       131  16 -9.301547E+05 -1.054811E+05  4.543197E+04 -4.048728E+05 -2.682121E-09 -5.016358E-10
       131  17 -9.863024E+05 -1.154931E+05  3.732360E+04 -4.096345E+05 -2.247593E-09 -7.503564E-10
       131  18 -1.027595E+06 -1.413202E+05  2.755331E+04 -4.318845E+05  2.751420E-09  1.123784E-09
       131  19 -1.373038E+06 -2.699707E+05 -6.073884E+04 -5.261835E+05  7.814875E+03 -1.117387E+04
       131  20 -1.331689E+06 -2.436946E+05 -4.568253E+04 -5.041036E+05  4.606258E+03 -9.067898E+03
       131  21 -1.275494E+06 -2.332460E+05 -3.233776E+04 -4.995124E+05  1.384633E+03 -6.925603E+03
       131  22 -1.151621E+06 -1.877278E+05 -7.651587E+03 -4.655382E+05  1.033807E+04 -1.022739E+04
       131  23 -1.159010E+06 -1.795949E+05 -4.178315E+03 -4.568751E+05  7.160527E+03 -8.110094E+03
       131  24 -1.151552E+06 -1.872836E+05 -2.391610E+03 -4.657015E+05  3.970163E+03 -5.956424E+03
       131  25 -9.301545E+05 -1.054810E+05  4.543244E+04 -4.048729E+05  1.286226E+04 -9.280539E+03
       131  26 -9.863022E+05 -1.154931E+05  3.732388E+04 -4.096345E+05  9.715577E+03 -7.151998E+03
       131  27 -1.027595E+06 -1.413201E+05  2.755344E+04 -4.318845E+05  6.556258E+03 -4.987036E+03
       132   1 -1.234367E+06 -2.180629E+05 -2.162007E+04 -4.883545E+05 -3.927982E+02  5.335877E+03
       132   2 -1.192966E+06 -1.921779E+05 -9.372973E+03 -4.661188E+05  1.332762E+03  2.616289E+03
       132   3 -1.136292E+06 -1.817019E+05  2.403823E+03 -4.615164E+05  3.059313E+03 -1.063290E+02
       132   4 -1.151475E+06 -1.873322E+05 -1.870716E+03 -4.656802E+05 -2.974019E+03  4.368443E+03
       132   5 -1.159109E+06 -1.796184E+05 -1.237876E+03 -4.568664E+05 -1.251122E+03  1.647925E+03
       132   6 -1.151472E+06 -1.873133E+05 -1.073214E+03 -4.656868E+05  4.727047E+02 -1.075628E+03
       132   7 -1.068577E+06 -1.566010E+05  1.787812E+04 -4.430031E+05 -5.555611E+03  3.400871E+03
       132   8 -1.125251E+06 -1.670589E+05  6.897112E+03 -4.476136E+05 -3.835145E+03  6.795092E+02
       132   9 -1.166651E+06 -1.929246E+05 -4.550196E+03 -4.698570E+05 -2.113810E+03 -2.044892E+03
       132  10 -1.234367E+06 -2.180629E+05 -2.162012E+04 -4.883545E+05  2.500734E-09  8.181492E-10
       132  11 -1.192966E+06 -1.921779E+05 -9.372989E+03 -4.661188E+05 -3.783543E-09 -1.363467E-09
       132  12 -1.136292E+06 -1.817019E+05  2.403805E+03 -4.615164E+05 -3.577382E-09 -3.164311E-10
       132  13 -1.151475E+06 -1.873322E+05 -1.870769E+03 -4.656801E+05  2.050931E-09  1.350624E-10
       132  14 -1.159109E+06 -1.796184E+05 -1.237884E+03 -4.568664E+05 -3.292679E-09 -1.431297E-09
       132  15 -1.151472E+06 -1.873133E+05 -1.073216E+03 -4.656868E+05 -3.640326E-09 -6.696711E-10
       132  16 -1.068577E+06 -1.566011E+05  1.787804E+04 -4.430031E+05 -1.755799E-09 -5.084308E-10
       132  17 -1.125251E+06 -1.670589E+05  6.897084E+03 -4.476135E+05 -4.095517E-09 -1.767838E-09
       132  18 -1.166651E+06 -1.929246E+05 -4.550212E+03 -4.698570E+05 -1.296141E-10 -4.012266E-10
       132  19 -1.234367E+06 -2.180629E+05 -2.162007E+04 -4.883545E+05  3.927982E+02 -5.335877E+03
       132  20 -1.192966E+06 -1.921779E+05 -9.372973E+03 -4.661188E+05 -1.332762E+03 -2.616289E+03
       132  21 -1.136292E+06 -1.817019E+05  2.403823E+03 -4.615164E+05 -3.059313E+03  1.063290E+02
       132  22 -1.151475E+06 -1.873322E+05 -1.870716E+03 -4.656802E+05  2.974019E+03 -4.368443E+03
       132  23 -1.159109E+06 -1.796184E+05 -1.237876E+03 -4.568664E+05  1.251122E+03 -1.647925E+03
       132  24 -1.151472E+06 -1.873133E+05 -1.073214E+03 -4.656868E+05 -4.727047E+02  1.075628E+03
       132  25 -1.068577E+06 -1.566010E+05  1.787812E+04 -4.430031E+05  5.555611E+03 -3.400871E+03
       132  26 -1.125251E+06 -1.670589E+05  6.897112E+03 -4.476136E+05  3.835145E+03 -6.795092E+02
       132  27 -1.166651E+06 -1.929246E+05 -4.550196E+03 -4.698570E+05  2.113810E+03  2.044892E+03
       133   1 -1.095215E+06 -1.663849E+05  1.256266E+04 -4.502941E+05  3.885902E+03 -1.758474E+03
       133   2 -1.053873E+06 -1.405619E+05  2.371363E+04 -4.280851E+05  5.769480E+03 -4.418007E+03
       133   3 -9.973053E+05 -1.301365E+05  3.427448E+04 -4.234816E+05  7.651131E+03 -7.070782E+03
       133   4 -1.151482E+06 -1.873082E+05 -1.132595E+03 -4.656820E+05  1.300614E+03 -2.727323E+03
       133   5 -1.159098E+06 -1.796242E+05 -1.572301E+03 -4.568736E+05  3.189802E+03 -5.384985E+03
       133   6 -1.151490E+06 -1.873390E+05 -2.606316E+03 -4.656719E+05  5.076989E+03 -8.035900E+03
       133   7 -1.207747E+06 -2.082316E+05 -1.482824E+04 -4.810688E+05 -1.284448E+03 -3.696088E+03
       133   8 -1.264312E+06 -2.186860E+05 -2.685927E+04 -4.856579E+05  6.105778E+02 -6.351793E+03
       133   9 -1.305651E+06 -2.445402E+05 -3.948907E+04 -5.078529E+05  2.503529E+03 -9.000763E+03
       133  10 -1.095215E+06 -1.663849E+05  1.256263E+04 -4.502941E+05  5.560301E-10  9.392101E-10
       133  11 -1.053873E+06 -1.405620E+05  2.371353E+04 -4.280850E+05 -8.788071E-10 -8.483060E-10
       133  12 -9.973054E+05 -1.301365E+05  3.427427E+04 -4.234816E+05 -2.192366E-10 -8.249453E-12
       133  13 -1.151482E+06 -1.873083E+05 -1.132612E+03 -4.656820E+05 -1.060940E-09 -3.284289E-11
       133  14 -1.159098E+06 -1.796242E+05 -1.572374E+03 -4.568735E+05  7.283767E-10 -5.879627E-10
       133  15 -1.151490E+06 -1.873391E+05 -2.606486E+03 -4.656719E+05 -1.021106E-09 -1.184554E-10
       133  16 -1.207747E+06 -2.082317E+05 -1.482826E+04 -4.810688E+05 -3.390067E-10 -3.238961E-10
       133  17 -1.264312E+06 -2.186861E+05 -2.685935E+04 -4.856579E+05 -9.587611E-11  1.948476E-11
       133  18 -1.305652E+06 -2.445403E+05 -3.948924E+04 -5.078529E+05  1.781970E-09 -1.915166E-10
       133  19 -1.095215E+06 -1.663849E+05  1.256266E+04 -4.502941E+05 -3.885902E+03  1.758474E+03
       133  20 -1.053873E+06 -1.405619E+05  2.371363E+04 -4.280851E+05 -5.769480E+03  4.418007E+03
       133  21 -9.973053E+05 -1.301365E+05  3.427448E+04 -4.234816E+05 -7.651131E+03  7.070782E+03
       133  22 -1.151482E+06 -1.873082E+05 -1.132595E+03 -4.656820E+05 -1.300614E+03  2.727323E+03
       133  23 -1.159098E+06 -1.796242E+05 -1.572301E+03 -4.568736E+05 -3.189802E+03  5.384985E+03
       133  24 -1.151490E+06 -1.873390E+05 -2.606316E+03 -4.656719E+05 -5.076989E+03  8.035900E+03
       133  25 -1.207747E+06 -2.082316E+05 -1.482824E+04 -4.810688E+05  1.284448E+03  3.696088E+03
       133  26 -1.264312E+06 -2.186860E+05 -2.685927E+04 -4.856579E+05 -6.105778E+02  6.351793E+03
       133  27 -1.305651E+06 -2.445402E+05 -3.948907E+04 -5.078529E+05 -2.503529E+03  9.000763E+03
       134   1 -9.564815E+05 -1.149071E+05  4.363879E+04 -4.124349E+05  8.792461E+03 -8.597855E+03
       134   2 -9.153281E+05 -8.916383E+04  5.247811E+04 -3.902412E+05  1.288338E+04 -1.039718E+04
       134   3 -8.595920E+05 -7.940234E+04  5.889961E+04 -3.854236E+05  1.695936E+04 -1.215275E+04
       134   4 -1.151610E+06 -1.872649E+05 -3.402367E+03 -4.656998E+05  6.215223E+03 -9.564346E+03
       134   5 -1.158946E+06 -1.795939E+05 -6.062318E+03 -4.568917E+05  1.034286E+04 -1.135037E+04
       134   6 -1.151710E+06 -1.879129E+05 -1.117005E+04 -4.654609E+05  1.445532E+04 -1.309274E+04
       134   7 -1.346699E+06 -2.596194E+05 -5.044578E+04 -5.189490E+05  3.638894E+03 -1.053050E+04
       134   8 -1.402505E+06 -2.700197E+05 -6.460685E+04 -5.235181E+05  7.803434E+03 -1.230316E+04
       134   9 -1.443745E+06 -2.964178E+05 -8.124618E+04 -5.454641E+05  1.195256E+04 -1.403224E+04
       134  10 -9.564816E+05 -1.149072E+05  4.363850E+04 -4.124349E+05 -1.537379E-09  5.119611E-10
       134  11 -9.153283E+05 -8.916399E+04  5.247760E+04 -3.902411E+05 -4.098607E-10  4.809858E-10
       134  12 -8.595923E+05 -7.940258E+04  5.889879E+04 -3.854234E+05 -3.815548E-10  6.212402E-10
       134  13 -1.151610E+06 -1.872650E+05 -3.402612E+03 -4.656998E+05 -6.681677E-11  6.750361E-11
       134  14 -1.158946E+06 -1.795941E+05 -6.062761E+03 -4.568916E+05 -6.476843E-10  6.715562E-10
       134  15 -1.151710E+06 -1.879131E+05 -1.117077E+04 -4.654607E+05 -1.621922E-09  5.933792E-10
       134  16 -1.346699E+06 -2.596196E+05 -5.044602E+04 -5.189490E+05  7.666924E-10 -5.706362E-11
       134  17 -1.402505E+06 -2.700198E+05 -6.460725E+04 -5.235180E+05  1.092517E-09  6.624874E-10
       134  18 -1.443745E+06 -2.964181E+05 -8.124682E+04 -5.454640E+05  3.387348E-10  4.199060E-10
       134  19 -9.564815E+05 -1.149071E+05  4.363879E+04 -4.124349E+05 -8.792461E+03  8.597855E+03
       134  20 -9.153281E+05 -8.916383E+04  5.247811E+04 -3.902412E+05 -1.288338E+04  1.039718E+04
       134  21 -8.595920E+05 -7.940234E+04  5.889961E+04 -3.854236E+05 -1.695936E+04  1.215275E+04
       134  22 -1.151610E+06 -1.872649E+05 -3.402367E+03 -4.656998E+05 -6.215223E+03  9.564346E+03
       134  23 -1.158946E+06 -1.795939E+05 -6.062318E+03 -4.568917E+05 -1.034286E+04  1.135037E+04
       134  24 -1.151710E+06 -1.879129E+05 -1.117005E+04 -4.654609E+05 -1.445532E+04  1.309274E+04
       134  25 -1.346699E+06 -2.596194E+05 -5.044578E+04 -5.189490E+05 -3.638894E+03  1.053050E+04
       134  26 -1.402505E+06 -2.700197E+05 -6.460685E+04 -5.235181E+05 -7.803434E+03  1.230316E+04
       134  27 -1.443745E+06 -2.964178E+05 -8.124618E+04 -5.454641E+05 -1.195256E+04  1.403224E+04
       135   1 -8.185073E+05 -6.462747E+04  6.539010E+04 -3.767378E+05  1.989128E+04 -1.305973E+04
       135   2 -7.782425E+05 -3.698231E+04  6.504012E+04 -3.514982E+05  3.370909E+04 -1.097755E+04
       135   3 -7.290365E+05 -3.628891E+04  5.195663E+04 -3.408181E+05  4.725287E+04 -8.158614E+03
       135   4 -1.152489E+06 -1.867743E+05 -1.468978E+04 -4.661902E+05  1.718413E+04 -1.407624E+04
       135   5 -1.157743E+06 -1.791758E+05 -2.646278E+04 -4.566843E+05  3.163809E+04 -1.175616E+04
       135   6 -1.154189E+06 -1.986613E+05 -5.148027E+04 -4.617389E+05  4.581698E+04 -8.699588E+03
       135   7 -1.486359E+06 -3.089138E+05 -9.477729E+04 -5.555987E+05  1.447858E+04 -1.509218E+04
       135   8 -1.537101E+06 -3.213586E+05 -1.179763E+05 -5.618115E+05  2.956847E+04 -1.253423E+04
       135   9 -1.579164E+06 -3.610193E+05 -1.549313E+05 -5.825840E+05  4.438216E+04 -9.240143E+03
       135  10 -8.185078E+05 -6.462776E+04  6.538904E+04 -3.767376E+05  6.508811E-10  9.979474E-10
       135  11 -7.782438E+05 -3.698274E+04  6.503776E+04 -3.514979E+05  2.476648E-09  1.254012E-09
       135  12 -7.290389E+05 -3.628958E+04  5.195230E+04 -3.408178E+05  1.197224E-09  3.328869E-10
       135  13 -1.152489E+06 -1.867746E+05 -1.469071E+04 -4.661900E+05  4.485189E-10  7.564711E-10
       135  14 -1.157744E+06 -1.791762E+05 -2.646493E+04 -4.566840E+05  3.826798E-09  9.046989E-10
       135  15 -1.154191E+06 -1.986619E+05 -5.148437E+04 -4.617386E+05  6.403797E-10  6.475219E-10
       135  16 -1.486359E+06 -3.089141E+05 -9.477811E+04 -5.555986E+05  2.101620E-09  3.430245E-10
       135  17 -1.537102E+06 -3.213590E+05 -1.179782E+05 -5.618112E+05  2.362351E-09  7.976856E-10
       135  18 -1.579167E+06 -3.610199E+05 -1.549352E+05 -5.825837E+05  1.540554E-09  7.803161E-10
       135  19 -8.185073E+05 -6.462747E+04  6.539010E+04 -3.767378E+05 -1.989128E+04  1.305973E+04
       135  20 -7.782425E+05 -3.698231E+04  6.504012E+04 -3.514982E+05 -3.370909E+04  1.097755E+04
       135  21 -7.290365E+05 -3.628891E+04  5.195663E+04 -3.408181E+05 -4.725287E+04  8.158614E+03
       135  22 -1.152489E+06 -1.867743E+05 -1.468978E+04 -4.661902E+05 -1.718413E+04  1.407624E+04
       135  23 -1.157743E+06 -1.791758E+05 -2.646278E+04 -4.566843E+05 -3.163809E+04  1.175616E+04
       135  24 -1.154189E+06 -1.986613E+05 -5.148027E+04 -4.617389E+05 -4.581698E+04  8.699588E+03
       135  25 -1.486359E+06 -3.089138E+05 -9.477729E+04 -5.555987E+05 -1.447858E+04  1.509218E+04
       135  26 -1.537101E+06 -3.213586E+05 -1.179763E+05 -5.618115E+05 -2.956847E+04  1.253423E+04
       135  27 -1.579164E+06 -3.610193E+05 -1.549313E+05 -5.825840E+05 -4.438216E+04  9.240143E+03
       136   1 -6.734471E+05 -2.590372E+04  4.741065E+04 -3.691753E+05  6.149487E+04 -6.439836E+03
       136   2 -6.523165E+05  3.983043E+04  1.089787E+04 -2.852005E+05  1.086860E+05  1.239291E+04
       136   3 -6.963180E+05 -1.031251E+05 -1.143014E+05 -1.669490E+05  1.498390E+05  4.729900E+04
       136   4 -1.162676E+06 -1.790364E+05 -6.501580E+04 -4.736618E+05  5.527401E+04 -8.775375E+03
       136   5 -1.143122E+06 -1.749146E+05 -1.147593E+05 -4.526189E+05  1.164867E+05  1.531662E+04
       136   6 -1.191556E+06 -3.823801E+05 -2.643685E+05 -3.972856E+05  1.716560E+05  5.547559E+04
       136   7 -1.651669E+06 -3.321682E+05 -1.774579E+05 -5.780812E+05  4.905846E+04 -1.110965E+04
       136   8 -1.633681E+06 -3.896139E+05 -2.404343E+05 -6.199060E+05  1.242805E+05  1.823675E+04
       136   9 -1.686521E+06 -6.615056E+05 -4.144525E+05 -6.274204E+05  1.934535E+05  6.363662E+04
       136  10 -6.734512E+05 -2.590478E+04  4.740346E+04 -3.691750E+05  6.419666E-10  2.127615E-10
       136  11 -6.523292E+05  3.982709E+04  1.087535E+04 -2.852015E+05 -1.614335E-10  6.821336E-10
       136  12 -6.963427E+05 -1.031335E+05 -1.143478E+05 -1.669547E+05  4.652035E-11  1.163725E-09
       136  13 -1.162680E+06 -1.790373E+05 -6.502169E+04 -4.736615E+05  1.177825E-09  4.029043E-11
       136  14 -1.143137E+06 -1.749185E+05 -1.147853E+05 -4.526204E+05 -6.470108E-10 -3.674976E-10
       136  15 -1.191588E+06 -3.823913E+05 -2.644298E+05 -3.972932E+05 -2.493435E-10 -4.359425E-11
       136  16 -1.651672E+06 -3.321690E+05 -1.774627E+05 -5.780807E+05 -1.186045E-09  7.612367E-10
       136  17 -1.633698E+06 -3.896185E+05 -2.404640E+05 -6.199079E+05 -9.518720E-10 -3.182372E-11
       136  18 -1.686562E+06 -6.615201E+05 -4.145307E+05 -6.274303E+05 -7.135600E-10  3.057467E-10
       136  19 -6.734471E+05 -2.590372E+04  4.741065E+04 -3.691753E+05 -6.149487E+04  6.439836E+03
       136  20 -6.523165E+05  3.983043E+04  1.089787E+04 -2.852005E+05 -1.086860E+05 -1.239291E+04
       136  21 -6.963180E+05 -1.031251E+05 -1.143014E+05 -1.669490E+05 -1.498390E+05 -4.729900E+04
       136  22 -1.162676E+06 -1.790364E+05 -6.501580E+04 -4.736618E+05 -5.527401E+04  8.775375E+03
       136  23 -1.143122E+06 -1.749146E+05 -1.147593E+05 -4.526189E+05 -1.164867E+05 -1.531662E+04
       136  24 -1.191556E+06 -3.823801E+05 -2.643685E+05 -3.972856E+05 -1.716560E+05 -5.547559E+04
       136  25 -1.651669E+06 -3.321682E+05 -1.774579E+05 -5.780812E+05 -4.905846E+04  1.110965E+04
       136  26 -1.633681E+06 -3.896139E+05 -2.404343E+05 -6.199060E+05 -1.242805E+05 -1.823675E+04
       136  27 -1.686521E+06 -6.615056E+05 -4.144525E+05 -6.274204E+05 -1.934535E+05 -6.363662E+04
       137   1 -1.031398E+05 -2.115630E+04 -8.560954E+03  8.604560E+03  3.274192E+04  4.009433E+03
       137   2 -8.307036E+04 -6.699334E+04 -3.162326E+04 -3.012313E+03  2.455183E+04  1.258187E+04
       137   3 -4.950638E+04 -6.328111E+04 -3.695894E+04 -2.509218E+04  1.636549E+04  1.320521E+04
       137   4  1.996122E+05  5.400440E+04  6.468459E+04 -1.735237E+04  4.450409E+04  4.014255E+03
       137   5  1.922274E+05  2.851882E+02  2.953496E+04 -1.210796E+04  2.886802E+04  1.258306E+04
       137   6  1.996216E+05 -2.605353E+03  1.727579E+04 -1.732567E+04  1.323619E+04  1.320390E+04
       137   7  5.024497E+05  1.291610E+05  1.379244E+05 -4.332200E+04  5.627196E+04  4.018092E+03
       137   8  4.675961E+05  6.755891E+04  9.068858E+04 -2.120770E+04  3.318610E+04  1.258412E+04
       137   9  4.488078E+05  5.806652E+04  7.150687E+04 -9.556011E+03  1.010565E+04  1.320252E+04
       137  10 -1.031409E+05 -2.115661E+04 -8.562999E+03  8.604454E+03  6.101568E-10 -7.194275E-10
       137  11 -8.307105E+04 -6.699367E+04 -3.162469E+04 -3.012562E+03  5.225900E-12 -2.935445E-10
       137  12 -4.950671E+04 -6.328137E+04 -3.695977E+04 -2.509236E+04 -8.877075E-10 -4.621905E-10
       137  13  1.996101E+05  5.400385E+04  6.468084E+04 -1.735251E+04  1.438987E-10  2.974877E-10
       137  14  1.922265E+05  2.847946E+02  2.953310E+04 -1.210825E+04 -9.440119E-10 -2.515276E-10
       137  15  1.996213E+05 -2.605587E+03  1.727514E+04 -1.732581E+04  1.272835E-09 -6.077199E-10
       137  16  5.024463E+05  1.291601E+05  1.379185E+05 -4.332218E+04 -8.655617E-10  3.904639E-10
       137  17  4.675949E+05  6.755845E+04  9.068621E+04 -2.120803E+04  1.407305E-09  6.586871E-11
       137  18  4.488077E+05  5.806630E+04  7.150635E+04 -9.556118E+03  6.485840E-10  4.422675E-10
       137  19 -1.031398E+05 -2.115630E+04 -8.560954E+03  8.604560E+03 -3.274192E+04 -4.009433E+03
       137  20 -8.307036E+04 -6.699334E+04 -3.162326E+04 -3.012313E+03 -2.455183E+04 -1.258187E+04
       137  21 -4.950638E+04 -6.328111E+04 -3.695894E+04 -2.509218E+04 -1.636549E+04 -1.320521E+04
       137  22  1.996122E+05  5.400440E+04  6.468459E+04 -1.735237E+04 -4.450409E+04 -4.014255E+03
       137  23  1.922274E+05  2.851882E+02  2.953496E+04 -1.210796E+04 -2.886802E+04 -1.258306E+04
       137  24  1.996216E+05 -2.605353E+03  1.727579E+04 -1.732567E+04 -1.323619E+04 -1.320390E+04
       137  25  5.024497E+05  1.291610E+05  1.379244E+05 -4.332200E+04 -5.627196E+04 -4.018092E+03
       137  26  4.675961E+05  6.755891E+04  9.068858E+04 -2.120770E+04 -3.318610E+04 -1.258412E+04
       137  27  4.488078E+05  5.806652E+04  7.150687E+04 -9.556011E+03 -1.010565E+04 -1.320252E+04
       138   1 -3.085571E+04 -5.260725E+04 -3.606213E+04 -1.646638E+04  1.164087E+04  1.164524E+04
       138   2 -4.774995E+03 -4.898993E+04 -3.634281E+04 -1.183787E+04  8.257227E+03  1.056218E+04
       138   3  2.246205E+04 -4.259703E+04 -3.372167E+04 -1.797265E+04  4.873212E+03  9.122816E+03
       138   4  1.966083E+05  2.834422E+03  1.370452E+04 -1.739972E+04  1.079756E+04  1.164465E+04
       138   5  1.960036E+05 -8.734870E+01  7.411597E+03 -1.201781E+04  7.079165E+03  1.056163E+04
       138   6  1.966121E+05 -1.759955E+02  4.252103E+03 -1.739894E+04  3.360544E+03  9.122355E+03
       138   7  4.241208E+05  5.827265E+04  6.346805E+04 -1.833340E+04  9.953939E+03  1.164405E+04
       138   8  3.968199E+05  4.881256E+04  5.116359E+04 -1.219781E+04  5.900726E+03  1.056108E+04
       138   9  3.707905E+05  4.224303E+04  4.222406E+04 -1.682507E+04  1.847456E+03  9.121892E+03
       138  10 -3.085589E+04 -5.260743E+04 -3.606264E+04 -1.646649E+04 -6.216261E-10 -2.328205E-10
       138  11 -4.775098E+03 -4.899007E+04 -3.634315E+04 -1.183794E+04 -9.278018E-10  9.766183E-11
       138  12  2.246200E+04 -4.259713E+04 -3.372187E+04 -1.797269E+04  1.294903E-09  1.211236E-11
       138  13  1.966082E+05  2.834245E+03  1.370405E+04 -1.739982E+04  1.166193E-10  4.590796E-10
       138  14  1.960035E+05 -8.748195E+01  7.411293E+03 -1.201787E+04  1.408930E-10  3.917781E-10
       138  15  1.966121E+05 -1.760879E+02  4.251925E+03 -1.739897E+04  2.683110E-10 -2.980798E-10
       138  16  4.241206E+05  5.827247E+04  6.346761E+04 -1.833349E+04 -1.098713E-10  2.019906E-10
       138  17  3.968199E+05  4.881243E+04  5.116331E+04 -1.219786E+04 -1.030639E-09  1.867076E-10
       138  18  3.707905E+05  4.224294E+04  4.222389E+04 -1.682508E+04 -1.284020E-09 -3.962845E-10
       138  19 -3.085571E+04 -5.260725E+04 -3.606213E+04 -1.646638E+04 -1.164087E+04 -1.164524E+04
       138  20 -4.774995E+03 -4.898993E+04 -3.634281E+04 -1.183787E+04 -8.257227E+03 -1.056218E+04
       138  21  2.246205E+04 -4.259703E+04 -3.372167E+04 -1.797265E+04 -4.873212E+03 -9.122816E+03
       138  22  1.966083E+05  2.834422E+03  1.370452E+04 -1.739972E+04 -1.079756E+04 -1.164465E+04
       138  23  1.960036E+05 -8.734870E+01  7.411597E+03 -1.201781E+04 -7.079165E+03 -1.056163E+04
       138  24  1.966121E+05 -1.759955E+02  4.252103E+03 -1.739894E+04 -3.360544E+03 -9.122355E+03
       138  25  4.241208E+05  5.827265E+04  6.346805E+04 -1.833340E+04 -9.953939E+03 -1.164405E+04
       138  26  3.968199E+05  4.881256E+04  5.116359E+04 -1.219781E+04 -5.900726E+03 -1.056108E+04
       138  27  3.707905E+05  4.224303E+04  4.222406E+04 -1.682507E+04 -1.847456E+03 -9.121892E+03
       139   1  4.367279E+04 -3.705993E+04 -2.994001E+04 -1.747731E+04  4.110395E+03  8.199534E+03
       139   2  7.020093E+04 -3.073700E+04 -2.566898E+04 -1.209460E+04  3.244269E+03  6.685813E+03
       139   3  9.689044E+04 -2.425765E+04 -2.079295E+04 -1.746986E+04  2.377882E+03  5.156733E+03
       139   4  1.963804E+05  1.128718E+02  3.235729E+03 -1.739801E+04  2.701205E+03  8.199171E+03
       139   5  1.962996E+05 -3.161771E+01  1.777190E+03 -1.201909E+04  1.820483E+03  6.685549E+03
       139   6  1.963825E+05 -1.706040E+01  9.337856E+02 -1.739800E+04  9.395368E+02  5.156572E+03
       139   7  3.491098E+05  3.728413E+04  3.641008E+04 -1.731868E+04  1.291673E+03  8.198808E+03
       139   8  3.224133E+05  3.067271E+04  2.922242E+04 -1.194356E+04  3.964117E+02  6.685285E+03
       139   9  2.958838E+05  2.422288E+04  2.265993E+04 -1.732613E+04 -4.990357E+02  5.156410E+03
       139  10  4.367276E+04 -3.706001E+04 -2.994017E+04 -1.747734E+04 -3.794375E-10 -5.092911E-10
       139  11  7.020090E+04 -3.073705E+04 -2.566909E+04 -1.209462E+04 -1.999884E-09 -1.213401E-09
       139  12  9.689043E+04 -2.425768E+04 -2.079301E+04 -1.746987E+04 -7.234562E-11 -4.165630E-11
       139  13  1.963804E+05  1.127977E+02  3.235589E+03 -1.739803E+04 -5.454900E-11 -3.715712E-10
       139  14  1.962996E+05 -3.166661E+01  1.777100E+03 -1.201910E+04 -2.137087E-09 -2.485825E-10
       139  15  1.963825E+05 -1.708920E+01  9.337339E+02 -1.739800E+04 -1.595327E-09 -2.004213E-10
       139  16  3.491098E+05  3.728406E+04  3.640995E+04 -1.731869E+04 -7.654378E-10 -2.074288E-10
       139  17  3.224133E+05  3.067266E+04  2.922233E+04 -1.194356E+04 -1.927429E-09  3.273941E-10
       139  18  2.958838E+05  2.422285E+04  2.265988E+04 -1.732613E+04 -1.746926E-09 -5.897186E-11
       139  19  4.367279E+04 -3.705993E+04 -2.994001E+04 -1.747731E+04 -4.110395E+03 -8.199534E+03
       139  20  7.020093E+04 -3.073700E+04 -2.566898E+04 -1.209460E+04 -3.244269E+03 -6.685813E+03
       139  21  9.689044E+04 -2.425765E+04 -2.079295E+04 -1.746986E+04 -2.377882E+03 -5.156733E+03
       139  22  1.963804E+05  1.128718E+02  3.235729E+03 -1.739801E+04 -2.701205E+03 -8.199171E+03
       139  23  1.962996E+05 -3.161771E+01  1.777190E+03 -1.201909E+04 -1.820483E+03 -6.685549E+03
       139  24  1.963825E+05 -1.706040E+01  9.337856E+02 -1.739800E+04 -9.395368E+02 -5.156572E+03
       139  25  3.491098E+05  3.728413E+04  3.641008E+04 -1.731868E+04 -1.291673E+03 -8.198808E+03
       139  26  3.224133E+05  3.067271E+04  2.922242E+04 -1.194356E+04 -3.964117E+02 -6.685285E+03
       139  27  2.958838E+05  2.422288E+04  2.265993E+04 -1.732613E+04  4.990357E+02 -5.156410E+03
       140   1  1.182653E+05 -1.900287E+04 -1.628505E+04 -1.743808E+04  2.231490E+03  4.263360E+03
       140   2  1.448412E+05 -1.254430E+04 -1.104906E+04 -1.205943E+04  2.153239E+03  2.731993E+03
       140   3  1.714327E+05 -6.079473E+03 -5.759886E+03 -1.743037E+04  2.074885E+03  1.200217E+03
       140   4  1.963502E+05 -4.579065E+00  6.348965E+02 -1.739616E+04  7.981789E+02  4.263244E+03
       140   5  1.963434E+05 -4.131539E+00  1.592956E+02 -1.202140E+04  7.194878E+02  2.731918E+03
       140   6  1.963511E+05  2.582998E+00 -2.629224E+02 -1.739617E+04  6.406969E+02  1.200185E+03
       140   7  2.744409E+05  1.899331E+04  1.755449E+04 -1.735424E+04 -6.353104E+02  4.263128E+03
       140   8  2.478481E+05  1.253586E+04  1.136750E+04 -1.198336E+04 -7.143808E+02  2.731843E+03
       140   9  2.212701E+05  6.084598E+03  5.234011E+03 -1.736196E+04 -7.935476E+02  1.200153E+03
       140  10  1.182652E+05 -1.900289E+04 -1.628509E+04 -1.743809E+04  1.547296E-10  6.924886E-10
       140  11  1.448412E+05 -1.254431E+04 -1.104908E+04 -1.205944E+04 -1.322525E-09  7.271970E-10
       140  12  1.714327E+05 -6.079476E+03 -5.759897E+03 -1.743037E+04  2.991366E-10  5.022952E-10
       140  13  1.963502E+05 -4.598755E+00  6.348611E+02 -1.739617E+04 -1.067862E-09  2.045415E-10
       140  14  1.963434E+05 -4.139693E+00  1.592806E+02 -1.202140E+04 -3.796131E-09  1.261921E-10
       140  15  1.963511E+05  2.581341E+00 -2.629258E+02 -1.739617E+04 -7.038141E-10  1.812037E-11
       140  16  2.744409E+05  1.899329E+04  1.755445E+04 -1.735424E+04 -1.727401E-09 -3.749278E-10
       140  17  2.478481E+05  1.253586E+04  1.136748E+04 -1.198336E+04 -3.250600E-10 -6.620079E-10
       140  18  2.212701E+05  6.084597E+03  5.234007E+03 -1.736196E+04 -1.010241E-09 -5.076572E-10
       140  19  1.182653E+05 -1.900287E+04 -1.628505E+04 -1.743808E+04 -2.231490E+03 -4.263360E+03
       140  20  1.448412E+05 -1.254430E+04 -1.104906E+04 -1.205943E+04 -2.153239E+03 -2.731993E+03
       140  21  1.714327E+05 -6.079473E+03 -5.759886E+03 -1.743037E+04 -2.074885E+03 -1.200217E+03
       140  22  1.963502E+05 -4.579065E+00  6.348965E+02 -1.739616E+04 -7.981789E+02 -4.263244E+03
       140  23  1.963434E+05 -4.131539E+00  1.592956E+02 -1.202140E+04 -7.194878E+02 -2.731918E+03
       140  24  1.963511E+05  2.582998E+00 -2.629224E+02 -1.739617E+04 -6.406969E+02 -1.200185E+03
       140  25  2.744409E+05  1.899331E+04  1.755449E+04 -1.735424E+04  6.353104E+02 -4.263128E+03
       140  26  2.478481E+05  1.253586E+04  1.136750E+04 -1.198336E+04  7.143808E+02 -2.731843E+03
       140  27  2.212701E+05  6.084598E+03  5.234011E+03 -1.736196E+04  7.935476E+02 -1.200153E+03
       141   1  1.928085E+05 -8.406329E+02 -1.188468E+03 -1.743321E+04  2.143660E+03  3.086377E+02
       141   2  2.194271E+05  5.629903E+03  3.919115E+03 -1.208249E+04  2.686573E+03 -1.222909E+03
       141   3  2.459706E+05  1.207324E+04  8.666847E+03 -1.747928E+04  3.229553E+03 -2.753984E+03
       141   4  1.963311E+05  2.233299E+00 -4.960527E+02 -1.739572E+04  7.095379E+02  3.086134E+02
       141   5  1.963689E+05  1.576675E+01 -1.098832E+03 -1.202196E+04  1.252842E+03 -1.222954E+03
       141   6  1.963309E+05  2.066217E+00 -2.061742E+03 -1.739573E+04  1.796190E+03 -2.754046E+03
       141   7  1.998538E+05  8.450998E+02  1.963697E+02 -1.735823E+04 -7.245921E+02  3.085890E+02
       141   8  1.733112E+05 -5.598404E+03 -6.116803E+03 -1.196143E+04 -1.808359E+02 -1.222998E+03
       141   9  1.466934E+05 -1.206927E+04 -1.279047E+04 -1.731219E+04  3.629411E+02 -2.754108E+03
       141  10  1.928085E+05 -8.406342E+02 -1.188477E+03 -1.743321E+04  7.623576E-10 -2.121865E-11
       141  11  2.194271E+05  5.629900E+03  3.919098E+03 -1.208249E+04 -1.188642E-09 -6.097997E-10
       141  12  2.459706E+05  1.207323E+04  8.666813E+03 -1.747927E+04  6.812712E-11  3.607843E-11
       141  13  1.963311E+05  2.233062E+00 -4.960539E+02 -1.739572E+04 -9.306292E-10 -1.452351E-10
       141  14  1.963689E+05  1.576472E+01 -1.098838E+03 -1.202196E+04 -3.889810E-10 -2.147362E-10
       141  15  1.963309E+05  2.057206E+00 -2.061763E+03 -1.739573E+04  4.548412E-10  1.527290E-10
       141  16  1.998538E+05  8.450996E+02  1.963685E+02 -1.735823E+04 -1.825750E-09 -3.812752E-10
       141  17  1.733112E+05 -5.598406E+03 -6.116806E+03 -1.196143E+04 -3.671911E-10  5.619052E-11
       141  18  1.466934E+05 -1.206928E+04 -1.279048E+04 -1.731219E+04  1.322986E-09  2.223979E-10
       141  19  1.928085E+05 -8.406329E+02 -1.188468E+03 -1.743321E+04 -2.143660E+03 -3.086377E+02
       141  20  2.194271E+05  5.629903E+03  3.919115E+03 -1.208249E+04 -2.686573E+03  1.222909E+03
       141  21  2.459706E+05  1.207324E+04  8.666847E+03 -1.747928E+04 -3.229553E+03  2.753984E+03
       141  22  1.963311E+05  2.233299E+00 -4.960527E+02 -1.739572E+04 -7.095379E+02 -3.086134E+02
       141  23  1.963689E+05  1.576675E+01 -1.098832E+03 -1.202196E+04 -1.252842E+03  1.222954E+03
       141  24  1.963309E+05  2.066217E+00 -2.061742E+03 -1.739573E+04 -1.796190E+03  2.754046E+03
       141  25  1.998538E+05  8.450998E+02  1.963697E+02 -1.735823E+04  7.245921E+02 -3.085890E+02
       141  26  1.733112E+05 -5.598404E+03 -6.116803E+03 -1.196143E+04  1.808359E+02  1.222998E+03
       141  27  1.466934E+05 -1.206927E+04 -1.279047E+04 -1.731219E+04 -3.629411E+02  2.754108E+03
       142   1  2.672980E+05  1.734668E+04  1.278057E+04 -1.755592E+04  3.668580E+03 -3.646830E+03
       142   2  2.941037E+05  2.383824E+04  1.639938E+04 -1.217114E+04  6.060340E+03 -5.175145E+03
       142   3  3.204981E+05  2.990377E+04  1.835635E+04 -1.754099E+04  8.452340E+03 -6.689364E+03
       142   4  1.962552E+05  3.513413E+01 -2.753121E+03 -1.739734E+04  2.230640E+03 -3.646922E+03
       142   5  1.964615E+05  6.532168E+01 -4.850533E+03 -1.201997E+04  4.635237E+03 -5.175317E+03
       142   6  1.962540E+05 -3.326921E+02 -8.618813E+03 -1.739733E+04  7.039973E+03 -6.689611E+03
       142   7  1.252170E+05 -1.727675E+04 -1.828711E+04 -1.723878E+04  7.928631E+02 -3.647015E+03
       142   8  9.882831E+04 -2.370823E+04 -2.610101E+04 -1.186883E+04  3.210354E+03 -5.175489E+03
       142   9  7.202429E+04 -3.057017E+04 -3.559489E+04 -1.725370E+04  5.627884E+03 -6.689860E+03
       142  10  2.672980E+05  1.734666E+04  1.278052E+04 -1.755591E+04 -3.406054E-10  5.028857E-10
       142  11  2.941037E+05  2.383820E+04  1.639926E+04 -1.217112E+04 -3.693540E-10  1.539704E-10
       142  12  3.204980E+05  2.990370E+04  1.835613E+04 -1.754094E+04 -1.977372E-10  3.705306E-10
       142  13  1.962551E+05  3.511851E+01 -2.753155E+03 -1.739733E+04  1.070184E-09  5.569719E-10
       142  14  1.964615E+05  6.528715E+01 -4.850624E+03 -1.201995E+04  2.096981E-09  5.872082E-10
       142  15  1.962539E+05 -3.327535E+02 -8.618991E+03 -1.739729E+04 -1.090009E-10  1.112726E-10
       142  16  1.252170E+05 -1.727676E+04 -1.828714E+04 -1.723877E+04  9.084642E-10  4.337105E-10
       142  17  9.882829E+04 -2.370826E+04 -2.610108E+04 -1.186881E+04  1.483791E-09  7.927178E-10
       142  18  7.202424E+04 -3.057023E+04 -3.559503E+04 -1.725367E+04  1.130973E-09  4.497645E-11
       142  19  2.672980E+05  1.734668E+04  1.278057E+04 -1.755592E+04 -3.668580E+03  3.646830E+03
       142  20  2.941037E+05  2.383824E+04  1.639938E+04 -1.217114E+04 -6.060340E+03  5.175145E+03
       142  21  3.204981E+05  2.990377E+04  1.835635E+04 -1.754099E+04 -8.452340E+03  6.689364E+03
       142  22  1.962552E+05  3.513413E+01 -2.753121E+03 -1.739734E+04 -2.230640E+03  3.646922E+03
       142  23  1.964615E+05  6.532168E+01 -4.850533E+03 -1.201997E+04 -4.635237E+03  5.175317E+03
       142  24  1.962540E+05 -3.326921E+02 -8.618813E+03 -1.739733E+04 -7.039973E+03  6.689611E+03
       142  25  1.252170E+05 -1.727675E+04 -1.828711E+04 -1.723878E+04 -7.928631E+02  3.647015E+03
       142  26  9.882831E+04 -2.370823E+04 -2.610101E+04 -1.186883E+04 -3.210354E+03  5.175489E+03
       142  27  7.202429E+04 -3.057017E+04 -3.559489E+04 -1.725370E+04 -5.627884E+03  6.689860E+03
       143   1  3.413291E+05  3.590719E+04  2.050141E+04 -1.882475E+04  1.029934E+04 -7.608746E+03
       143   2  3.695120E+05  4.213854E+04  1.797629E+04 -1.141081E+04  1.981579E+04 -9.052548E+03
       143   3  3.946191E+05  4.094908E+04  7.407458E+03 -1.474931E+04  2.933290E+04 -1.017149E+04
       143   4  1.956490E+05  4.263233E+02 -1.127018E+04 -1.739735E+04  8.792425E+03 -7.609053E+03
       143   5  1.972139E+05  1.814763E+02 -1.956608E+04 -1.202019E+04  1.861052E+04 -9.052984E+03
       143   6  1.956483E+05 -7.537973E+03 -3.611696E+04 -1.739579E+04  2.842887E+04 -1.017208E+04
       143   7  4.998872E+04 -3.505594E+04 -4.304304E+04 -1.597029E+04  7.285861E+03 -7.609367E+03
       143   8  2.494354E+04 -4.177756E+04 -5.711022E+04 -1.262940E+04  1.740558E+04 -9.053418E+03
       143   9 -3.285397E+03 -5.602764E+04 -7.964376E+04 -2.004141E+04  2.752513E+04 -1.017265E+04
       143  10  3.413289E+05  3.590710E+04  2.050110E+04 -1.882468E+04 -1.851736E-09 -5.949784E-11
       143  11  3.695115E+05  4.213835E+04  1.797540E+04 -1.141066E+04 -1.582592E-09 -6.455300E-10
       143  12  3.946181E+05  4.094874E+04  7.405647E+03 -1.474907E+04 -6.156342E-10  2.099985E-10
       143  13  1.956489E+05  4.262404E+02 -1.127043E+04 -1.739729E+04  1.082272E-09 -4.607701E-10
       143  14  1.972135E+05  1.812953E+02 -1.956688E+04 -1.202005E+04 -1.590078E-09 -8.477731E-10
       143  15  1.956474E+05 -7.538301E+03 -3.611867E+04 -1.739555E+04  1.214945E-09 -1.541921E-10
       143  16  4.998865E+04 -3.505602E+04 -4.304325E+04 -1.597025E+04  5.966938E-10 -6.578874E-10
       143  17  2.494319E+04 -4.177773E+04 -5.711094E+04 -1.262927E+04 -1.157912E-09 -3.432563E-10
       143  18 -3.286239E+03 -5.602795E+04 -7.964538E+04 -2.004118E+04  1.590826E-10 -2.696236E-10
       143  19  3.413291E+05  3.590719E+04  2.050141E+04 -1.882475E+04 -1.029934E+04  7.608746E+03
       143  20  3.695120E+05  4.213854E+04  1.797629E+04 -1.141081E+04 -1.981579E+04  9.052548E+03
       143  21  3.946191E+05  4.094908E+04  7.407458E+03 -1.474931E+04 -2.933290E+04  1.017149E+04
       143  22  1.956490E+05  4.263233E+02 -1.127018E+04 -1.739735E+04 -8.792425E+03  7.609053E+03
       143  23  1.972139E+05  1.814763E+02 -1.956608E+04 -1.202019E+04 -1.861052E+04  9.052984E+03
       143  24  1.956483E+05 -7.537973E+03 -3.611696E+04 -1.739579E+04 -2.842887E+04  1.017208E+04
       143  25  4.998872E+04 -3.505594E+04 -4.304304E+04 -1.597029E+04 -7.285861E+03  7.609367E+03
       143  26  2.494354E+04 -4.177756E+04 -5.711022E+04 -1.262940E+04 -1.740558E+04  9.053418E+03
       143  27 -3.285397E+03 -5.602764E+04 -7.964376E+04 -2.004141E+04 -2.752513E+04  1.017265E+04
       144   1  4.083531E+05  6.048532E+04  2.509770E+03 -3.756470E+04  3.784126E+04 -1.166719E+04
       144   2  4.539084E+05  5.948385E+04 -2.296701E+04  1.218701E+04  7.226827E+04 -1.121542E+04
       144   3  4.618682E+05 -7.416122E+04 -1.039935E+05  5.152548E+04  1.066942E+05 -3.526418E+03
       144   4  1.877201E+05  6.783279E+03 -4.551257E+04 -1.733582E+04  3.485517E+04 -1.166711E+04
       144   5  2.071214E+05 -8.424499E+02 -7.779409E+04 -1.210029E+04  7.604156E+04 -1.121717E+04
       144   6  1.877335E+05 -1.423211E+05 -1.703336E+05 -1.727814E+04  1.172248E+05 -3.533640E+03
       144   7 -3.286644E+04 -4.692044E+04 -9.353757E+04  2.885773E+03  3.187012E+04 -1.166722E+04
       144   8 -3.960748E+04 -6.117066E+04 -1.326246E+05 -3.637785E+04  7.981335E+04 -1.121921E+04
       144   9 -8.632227E+04 -2.104686E+05 -2.366762E+05 -8.605129E+04  1.277508E+05 -3.543197E+03
       144  10  4.083516E+05  6.048478E+04  2.506825E+03 -3.756434E+04  1.271586E-09  2.552001E-10
       144  11  4.539028E+05  5.948232E+04 -2.297706E+04  1.218767E+04 -1.400916E-09 -1.264774E-09
       144  12  4.618560E+05 -7.416428E+04 -1.040149E+05  5.152578E+04 -2.111076E-09 -4.987258E-10
       144  13  1.877188E+05  6.782807E+03 -4.551511E+04 -1.733549E+04 -2.367597E-10 -1.047720E-09
       144  14  2.071152E+05 -8.441369E+02 -7.780519E+04 -1.209961E+04  1.914425E-09  7.732716E-10
       144  15  1.877187E+05 -1.423248E+05 -1.703595E+05 -1.727780E+04 -3.444007E-10 -1.838936E-10
       144  16 -3.286756E+04 -4.692086E+04 -9.353974E+04  2.886073E+03 -1.449661E-09 -2.767389E-10
       144  17 -3.961436E+04 -6.117250E+04 -1.326368E+05 -3.637713E+04 -1.053643E-09  5.655226E-10
       144  18 -8.633980E+04 -2.104730E+05 -2.367069E+05 -8.605093E+04  9.610515E-10 -4.859596E-10
       144  19  4.083531E+05  6.048532E+04  2.509770E+03 -3.756470E+04 -3.784126E+04  1.166719E+04
       144  20  4.539084E+05  5.948385E+04 -2.296701E+04  1.218701E+04 -7.226827E+04  1.121542E+04
       144  21  4.618682E+05 -7.416122E+04 -1.039935E+05  5.152548E+04 -1.066942E+05  3.526418E+03
       144  22  1.877201E+05  6.783279E+03 -4.551257E+04 -1.733582E+04 -3.485517E+04  1.166711E+04
       144  23  2.071214E+05 -8.424499E+02 -7.779409E+04 -1.210029E+04 -7.604156E+04  1.121717E+04
       144  24  1.877335E+05 -1.423211E+05 -1.703336E+05 -1.727814E+04 -1.172248E+05  3.533640E+03
       144  25 -3.286644E+04 -4.692044E+04 -9.353757E+04  2.885773E+03 -3.187012E+04  1.166722E+04
       144  26 -3.960748E+04 -6.117066E+04 -1.326246E+05 -3.637785E+04 -7.981335E+04  1.121921E+04
       144  27 -8.632227E+04 -2.104686E+05 -2.366762E+05 -8.605129E+04 -1.277508E+05  3.543197E+03
       145   1  3.559548E+05  1.332567E+06  3.492179E+05 -2.129643E+05  1.624163E+04  5.347886E+04
       145   2  2.639873E+05  1.008992E+06  2.448334E+05 -1.469761E+05  4.729019E+04  1.505231E+04
       145   3  1.860099E+05  6.940574E+05  1.689439E+05 -2.080548E+05  3.963445E+04 -2.339150E+04
       145   4  7.835194E+03 -6.889728E+04  9.048692E+03 -2.081774E+05  1.629466E+04  6.264528E+03
       145   5  1.715414E+02 -6.993036E+04  4.086532E+03 -1.446426E+05  4.731102E+04  4.138084E+03
       145   6  2.229957E+02 -6.869587E+04  2.455680E+03 -2.081867E+05  3.959325E+04  1.974706E+03
       145   7 -3.404274E+05 -1.468566E+06 -3.312540E+05 -2.034006E+05  1.634704E+04 -4.084372E+04
       145   8 -2.637232E+05 -1.147769E+06 -2.367329E+05 -1.423129E+05  4.733180E+04 -6.757410E+03
       145   9 -1.856023E+05 -8.309031E+05 -1.640652E+05 -2.083181E+05  3.955200E+04  2.731017E+04
       145  10  3.559537E+05  1.332564E+06  3.492120E+05 -2.129650E+05  1.567524E-10  9.590724E-10
       145  11  2.639849E+05  1.008991E+06  2.448287E+05 -1.469766E+05  2.985708E-10 -1.821580E-09
       145  12  1.860081E+05  6.940564E+05  1.689400E+05 -2.080540E+05 -2.471699E-10  2.109966E-10
       145  13  7.834898E+03 -6.889740E+04  9.048119E+03 -2.081775E+05 -1.000377E-09  2.171114E-13
       145  14  1.691333E+02 -6.993098E+04  4.082294E+03 -1.446428E+05  1.803125E-09  6.437536E-10
       145  15  2.213113E+02 -6.869630E+04  2.452727E+03 -2.081868E+05  1.191299E-09 -1.581232E-10
       145  16 -3.404281E+05 -1.468568E+06 -3.312576E+05 -2.034001E+05 -3.750415E-10 -1.578568E-10
       145  17 -2.637256E+05 -1.147769E+06 -2.367372E+05 -1.423126E+05 -9.515928E-10  2.126030E-09
       145  18 -1.856042E+05 -8.309043E+05 -1.640696E+05 -2.083190E+05  2.100549E-10 -9.727578E-11
       145  19  3.559548E+05  1.332567E+06  3.492179E+05 -2.129643E+05 -1.624163E+04 -5.347886E+04
       145  20  2.639873E+05  1.008992E+06  2.448334E+05 -1.469761E+05 -4.729019E+04 -1.505231E+04
       145  21  1.860099E+05  6.940574E+05  1.689439E+05 -2.080548E+05 -3.963445E+04  2.339150E+04
       145  22  7.835194E+03 -6.889728E+04  9.048692E+03 -2.081774E+05 -1.629466E+04 -6.264528E+03
       145  23  1.715414E+02 -6.993036E+04  4.086532E+03 -1.446426E+05 -4.731102E+04 -4.138084E+03
       145  24  2.229957E+02 -6.869587E+04  2.455680E+03 -2.081867E+05 -3.959325E+04 -1.974706E+03
       145  25 -3.404274E+05 -1.468566E+06 -3.312540E+05 -2.034006E+05 -1.634704E+04  4.084372E+04
       145  26 -2.637232E+05 -1.147769E+06 -2.367329E+05 -1.423129E+05 -4.733180E+04  6.757410E+03
       145  27 -1.856023E+05 -8.309031E+05 -1.640652E+05 -2.083181E+05 -3.955200E+04 -2.731017E+04
       146   1  1.241613E+05  4.358463E+05  1.125861E+05 -2.093498E+05  2.558181E+04 -1.299266E+04
       146   2  4.583530E+04  1.170757E+05  4.162407E+04 -1.444540E+05  9.792380E+03 -1.393705E+04
       146   3 -3.164429E+04 -2.017545E+05 -2.863870E+04 -2.083135E+05 -6.422290E+03 -1.488556E+04
       146   4  1.047190E+03 -6.917661E+04  1.932582E+03 -2.085569E+05  2.555579E+04  1.593981E+03
       146   5  4.957655E+02 -6.904732E+04  1.045673E+03 -1.441785E+05  9.764182E+03  1.044765E+03
       146   6  7.284751E+02 -6.914159E+04  5.876861E+02 -2.085576E+05 -6.453079E+03  4.909696E+02
       146   7 -1.220838E+05 -5.739604E+05 -1.087356E+05 -2.077645E+05  2.552981E+04  1.616890E+04
       146   8 -4.484595E+04 -2.551374E+05 -3.953397E+04 -1.439031E+05  9.735993E+03  1.602215E+04
       146   9  3.310019E+04  6.348824E+04  2.981389E+04 -2.088018E+05 -6.483877E+03  1.587075E+04
       146  10  1.241605E+05  4.358459E+05  1.125845E+05 -2.093496E+05 -9.224220E-10  1.450324E-09
       146  11  4.583515E+04  1.170754E+05  4.162353E+04 -1.444539E+05 -1.509364E-09 -2.085235E-09
       146  12 -3.164440E+04 -2.017547E+05 -2.863920E+04 -2.083136E+05  5.769531E-10  2.510815E-09
       146  13  1.046488E+03 -6.917678E+04  1.931350E+03 -2.085570E+05 -1.499324E-10  2.146471E-11
       146  14  4.956629E+02 -6.904735E+04  1.045492E+03 -1.441785E+05 -8.613699E-10  9.415654E-10
       146  15  7.284303E+02 -6.914161E+04  5.876074E+02 -2.085576E+05 -1.175938E-10 -2.709962E-10
       146  16 -1.220846E+05 -5.739609E+05 -1.087373E+05 -2.077649E+05 -4.793739E-10  1.867044E-10
       146  17 -4.484612E+04 -2.551377E+05 -3.953463E+04 -1.439032E+05 -1.440979E-09  2.524802E-09
       146  18  3.310008E+04  6.348796E+04  2.981333E+04 -2.088017E+05 -1.053417E-09 -2.399755E-09
       146  19  1.241613E+05  4.358463E+05  1.125861E+05 -2.093498E+05 -2.558181E+04  1.299266E+04
       146  20  4.583530E+04  1.170757E+05  4.162407E+04 -1.444540E+05 -9.792380E+03  1.393705E+04
       146  21 -3.164429E+04 -2.017545E+05 -2.863870E+04 -2.083135E+05  6.422290E+03  1.488556E+04
       146  22  1.047190E+03 -6.917661E+04  1.932582E+03 -2.085569E+05 -2.555579E+04 -1.593981E+03
       146  23  4.957655E+02 -6.904732E+04  1.045673E+03 -1.441785E+05 -9.764182E+03 -1.044765E+03
       146  24  7.284751E+02 -6.914159E+04  5.876861E+02 -2.085576E+05  6.453079E+03 -4.909696E+02
       146  25 -1.220838E+05 -5.739604E+05 -1.087356E+05 -2.077645E+05 -2.552981E+04 -1.616890E+04
       146  26 -4.484595E+04 -2.551374E+05 -3.953397E+04 -1.439031E+05 -9.735993E+03 -1.602215E+04
       146  27  3.310019E+04  6.348824E+04  2.981389E+04 -2.088018E+05  6.483877E+03 -1.587075E+04
       147   1 -9.436122E+04 -4.590726E+05 -8.504285E+04 -2.077146E+05 -1.969400E+04 -2.293679E+04
       147   2 -1.726790E+05 -7.755301E+05 -1.582517E+05 -1.436734E+05 -3.002203E+04  4.362506E+03
       147   3 -2.552930E+05 -1.096784E+06 -2.503967E+05 -2.071723E+05 -1.107138E+04  3.168732E+04
       147   4  7.450513E+02 -6.915210E+04  4.387253E+02 -2.082849E+05 -1.973874E+04  3.664892E+02
       147   5  3.485508E+02 -6.915036E+04  1.423148E+02 -1.445195E+05 -3.001274E+04  2.865536E+02
       147   6  4.196363E+02 -6.928450E+04 -6.133726E+01 -2.082852E+05 -1.102304E+04  2.466566E+02
       147   7  9.584145E+04  3.209119E+05  8.591310E+04 -2.088554E+05 -1.978351E+04  2.368423E+04
       147   8  1.733421E+05  6.376943E+05  1.585048E+05 -1.453664E+05 -3.000345E+04 -3.793993E+03
       147   9  2.560550E+05  9.591818E+05  2.502010E+05 -2.093994E+05 -1.097463E+04 -3.124598E+04
       147  10 -9.436177E+04 -4.590732E+05 -8.504457E+04 -2.077150E+05 -1.857837E-10  1.730078E-09
       147  11 -1.726800E+05 -7.755303E+05 -1.582534E+05 -1.436733E+05 -1.218550E-09 -2.961676E-09
       147  12 -2.552934E+05 -1.096786E+06 -2.503988E+05 -2.071721E+05  4.450355E-10 -9.414456E-11
       147  13  7.446329E+02 -6.915220E+04  4.379929E+02 -2.082849E+05  4.533798E-10 -1.809327E-11
       147  14  3.475835E+02 -6.915060E+04  1.406220E+02 -1.445195E+05  4.893139E-10  8.180177E-10
       147  15  4.195058E+02 -6.928454E+04 -6.156570E+01 -2.082852E+05 -2.193936E-10 -1.520685E-10
       147  16  9.584088E+04  3.209112E+05  8.591131E+04 -2.088550E+05 -7.313375E-10  2.406684E-11
       147  17  1.733411E+05  6.376941E+05  1.585031E+05 -1.453664E+05 -1.565930E-09  3.425256E-09
       147  18  2.560546E+05  9.591807E+05  2.501990E+05 -2.093997E+05 -5.607670E-10  1.569343E-10
       147  19 -9.436122E+04 -4.590726E+05 -8.504285E+04 -2.077146E+05  1.969400E+04  2.293679E+04
       147  20 -1.726790E+05 -7.755301E+05 -1.582517E+05 -1.436734E+05  3.002203E+04 -4.362506E+03
       147  21 -2.552930E+05 -1.096784E+06 -2.503967E+05 -2.071723E+05  1.107138E+04 -3.168732E+04
       147  22  7.450513E+02 -6.915210E+04  4.387253E+02 -2.082849E+05  1.973874E+04 -3.664892E+02
       147  23  3.485508E+02 -6.915036E+04  1.423148E+02 -1.445195E+05  3.001274E+04 -2.865536E+02
       147  24  4.196363E+02 -6.928450E+04 -6.133726E+01 -2.082852E+05  1.102304E+04 -2.466566E+02
       147  25  9.584145E+04  3.209119E+05  8.591310E+04 -2.088554E+05  1.978351E+04 -2.368423E+04
       147  26  1.733421E+05  6.376943E+05  1.585048E+05 -1.453664E+05  3.000345E+04  3.793993E+03
       147  27  2.560550E+05  9.591818E+05  2.502010E+05 -2.093994E+05  1.097463E+04  3.124598E+04
       148   1 -7.114672E+05 -2.774835E+05 -1.634794E+05 -2.661602E+05 -5.582999E+04 -1.506591E+04
       148   2 -6.667311E+05 -1.926307E+05 -1.077079E+05 -2.477580E+05 -3.571330E+04  4.669675E+03
       148   3 -6.284052E+05 -1.709565E+05 -8.307201E+04 -2.344046E+05 -1.146322E+04  1.340923E+04
       148   4 -3.480506E+05 -1.189055E+05 -6.225130E+04 -1.446661E+05 -4.168423E+04 -9.755885E+03
       148   5 -3.424175E+05 -6.433016E+04 -2.703536E+04 -1.511269E+05 -3.118710E+04  6.367745E+03
       148   6 -3.412791E+05 -7.101229E+04 -1.531709E+04 -1.626405E+05 -1.655986E+04  1.149598E+04
       148   7  1.549743E+04  3.969469E+04  3.896596E+04 -2.310255E+04 -2.752930E+04 -4.441164E+03
       148   8 -1.799872E+04  6.398161E+04  5.362929E+04 -5.444835E+04 -2.665832E+04  8.066927E+03
       148   9 -5.407126E+04  2.893518E+04  5.243218E+04 -9.084716E+04 -2.165907E+04  9.581907E+03
       148  10 -7.114706E+05 -2.774845E+05 -1.634857E+05 -2.661608E+05 -7.630491E-10 -4.099979E-10
       148  11 -6.667325E+05 -1.926310E+05 -1.077103E+05 -2.477579E+05 -3.337658E-09  5.322239E-11
       148  12 -6.284054E+05 -1.709567E+05 -8.307259E+04 -2.344045E+05  2.997731E-10  5.037703E-11
       148  13 -3.480525E+05 -1.189061E+05 -6.225475E+04 -1.446664E+05 -1.172616E-09  4.376868E-11
       148  14 -3.424185E+05 -6.433046E+04 -2.703727E+04 -1.511268E+05 -1.051943E-09  8.522697E-12
       148  15 -3.412794E+05 -7.101251E+04 -1.531785E+04 -1.626403E+05  7.884949E-10 -6.926194E-10
       148  16  1.549661E+04  3.969446E+04  3.896449E+04 -2.310264E+04  8.445218E-10  2.054070E-11
       148  17 -1.799950E+04  6.398135E+04  5.362784E+04 -5.444818E+04  4.484207E-11 -1.862361E-10
       148  18 -5.407179E+04  2.893495E+04  5.243112E+04 -9.084700E+04 -6.488726E-10 -4.800924E-10
       148  19 -7.114672E+05 -2.774835E+05 -1.634794E+05 -2.661602E+05  5.582999E+04  1.506591E+04
       148  20 -6.667311E+05 -1.926307E+05 -1.077079E+05 -2.477580E+05  3.571330E+04 -4.669675E+03
       148  21 -6.284052E+05 -1.709565E+05 -8.307201E+04 -2.344046E+05  1.146322E+04 -1.340923E+04
       148  22 -3.480506E+05 -1.189055E+05 -6.225130E+04 -1.446661E+05  4.168423E+04  9.755885E+03
       148  23 -3.424175E+05 -6.433016E+04 -2.703536E+04 -1.511269E+05  3.118710E+04 -6.367745E+03
       148  24 -3.412791E+05 -7.101229E+04 -1.531709E+04 -1.626405E+05  1.655986E+04 -1.149598E+04
       148  25  1.549743E+04  3.969469E+04  3.896596E+04 -2.310255E+04  2.752930E+04  4.441164E+03
       148  26 -1.799872E+04  6.398161E+04  5.362929E+04 -5.444835E+04  2.665832E+04 -8.066927E+03
       148  27 -5.407126E+04  2.893518E+04  5.243218E+04 -9.084716E+04  2.165907E+04 -9.581907E+03
       149   1 -5.799474E+05 -1.661710E+05 -7.041795E+04 -2.269143E+05 -1.177179E+04  1.016947E+04
       149   2 -5.385996E+05 -1.371238E+05 -5.264087E+04 -2.051281E+05 -7.300769E+03  9.208175E+03
       149   3 -4.835920E+05 -1.262004E+05 -3.832756E+04 -2.001268E+05 -2.644898E+03  7.752755E+03
       149   4 -3.392336E+05 -7.567615E+04 -1.213180E+04 -1.598894E+05 -1.358337E+04  9.489268E+03
       149   5 -3.459047E+05 -6.525324E+04 -6.246156E+03 -1.520219E+05 -9.543827E+03  8.366416E+03
       149   6 -3.388321E+05 -7.286785E+04 -3.481111E+03 -1.609402E+05 -5.319746E+03  6.749404E+03
       149   7 -9.846365E+04  1.482259E+04  4.614974E+04 -9.284112E+04 -1.539571E+04  8.808775E+03
       149   8 -1.531730E+05  6.620018E+03  4.014586E+04 -9.890079E+04 -1.178764E+04  7.524371E+03
       149   9 -1.940508E+05 -1.953367E+04  3.136403E+04 -1.217452E+05 -7.995287E+03  5.745799E+03
       149  10 -5.799476E+05 -1.661711E+05 -7.041840E+04 -2.269142E+05 -3.004933E-10 -1.239879E-10
       149  11 -5.385997E+05 -1.371239E+05 -5.264113E+04 -2.051280E+05  1.763680E-09  1.170735E-10
       149  12 -4.835920E+05 -1.262005E+05 -3.832769E+04 -2.001268E+05  3.394026E-11 -2.899345E-10
       149  13 -3.392338E+05 -7.567630E+04 -1.213231E+04 -1.598893E+05 -4.852607E-11 -1.178321E-10
       149  14 -3.459048E+05 -6.525334E+04 -6.246459E+03 -1.520219E+05 -9.434130E-10 -1.087489E-10
       149  15 -3.388322E+05 -7.286791E+04 -3.481250E+03 -1.609402E+05  9.125075E-10 -1.716357E-11
       149  16 -9.846393E+04  1.482244E+04  4.614915E+04 -9.284101E+04 -5.951412E-10 -5.588895E-10
       149  17 -1.531731E+05  6.619920E+03  4.014549E+04 -9.890072E+04  3.955903E-10 -4.018732E-11
       149  18 -1.940509E+05 -1.953373E+04  3.136385E+04 -1.217451E+05 -7.064413E-10  3.695437E-10
       149  19 -5.799474E+05 -1.661710E+05 -7.041795E+04 -2.269143E+05  1.177179E+04 -1.016947E+04
       149  20 -5.385996E+05 -1.371238E+05 -5.264087E+04 -2.051281E+05  7.300769E+03 -9.208175E+03
       149  21 -4.835920E+05 -1.262004E+05 -3.832756E+04 -2.001268E+05  2.644898E+03 -7.752755E+03
       149  22 -3.392336E+05 -7.567615E+04 -1.213180E+04 -1.598894E+05  1.358337E+04 -9.489268E+03
       149  23 -3.459047E+05 -6.525324E+04 -6.246156E+03 -1.520219E+05  9.543827E+03 -8.366416E+03
       149  24 -3.388321E+05 -7.286785E+04 -3.481111E+03 -1.609402E+05  5.319746E+03 -6.749404E+03
       149  25 -9.846365E+04  1.482259E+04  4.614974E+04 -9.284112E+04  1.539571E+04 -8.808775E+03
       149  26 -1.531730E+05  6.620018E+03  4.014586E+04 -9.890079E+04  1.178764E+04 -7.524371E+03
       149  27 -1.940508E+05 -1.953367E+04  3.136403E+04 -1.217452E+05  7.995287E+03 -5.745799E+03
       150   1 -4.424150E+05 -1.116456E+05 -2.742920E+04 -1.892149E+05 -1.642802E+03  6.133685E+03
       150   2 -4.013502E+05 -8.581974E+04 -1.472705E+04 -1.671754E+05  2.038711E+02  3.519401E+03
       150   3 -3.452162E+05 -7.541113E+04 -2.637004E+03 -1.625707E+05  2.058844E+03  8.822971E+02
       150   4 -3.386539E+05 -7.313255E+04 -2.659345E+03 -1.607654E+05 -4.172240E+03  5.185019E+03
       150   5 -3.461777E+05 -6.534937E+04 -1.478292E+03 -1.520760E+05 -2.345472E+03  2.563374E+03
       150   6 -3.386306E+05 -7.297939E+04 -8.933015E+02 -1.608220E+05 -5.104763E+02 -8.109988E+01
       150   7 -2.348821E+05 -3.461873E+04  2.210975E+04 -1.323115E+05 -6.702137E+03  4.236181E+03
       150   8 -2.910023E+05 -4.487883E+04  1.177023E+04 -1.369753E+05 -4.895056E+03  1.607258E+03
       150   9 -3.320450E+05 -7.054766E+04  8.504158E+02 -1.590734E+05 -3.079813E+03 -1.044503E+03
       150  10 -4.424150E+05 -1.116457E+05 -2.742927E+04 -1.892149E+05 -1.395565E-09 -1.867197E-10
       150  11 -4.013502E+05 -8.581976E+04 -1.472707E+04 -1.671754E+05 -1.481952E-09  6.311665E-10
       150  12 -3.452162E+05 -7.541113E+04 -2.637013E+03 -1.625707E+05  2.939920E-09  3.216983E-10
       150  13 -3.386539E+05 -7.313258E+04 -2.659428E+03 -1.607653E+05  2.454534E-10 -3.123657E-11
       150  14 -3.461777E+05 -6.534938E+04 -1.478315E+03 -1.520760E+05  3.519760E-10  6.339187E-11
       150  15 -3.386306E+05 -7.297939E+04 -8.933020E+02 -1.608220E+05  3.107653E-09  7.484328E-10
       150  16 -2.348821E+05 -3.461876E+04  2.210963E+04 -1.323115E+05  6.144246E-10  1.805550E-10
       150  17 -2.910024E+05 -4.487884E+04  1.177018E+04 -1.369753E+05  2.069010E-09 -1.386969E-10
       150  18 -3.320450E+05 -7.054766E+04  8.503959E+02 -1.590734E+05  1.061324E-09  1.085039E-09
       150  19 -4.424150E+05 -1.116456E+05 -2.742920E+04 -1.892149E+05  1.642802E+03 -6.133685E+03
       150  20 -4.013502E+05 -8.581974E+04 -1.472705E+04 -1.671754E+05 -2.038711E+02 -3.519401E+03
       150  21 -3.452162E+05 -7.541113E+04 -2.637004E+03 -1.625707E+05 -2.058844E+03 -8.822971E+02
       150  22 -3.386539E+05 -7.313255E+04 -2.659345E+03 -1.607654E+05  4.172240E+03 -5.185019E+03
       150  23 -3.461777E+05 -6.534937E+04 -1.478292E+03 -1.520760E+05  2.345472E+03 -2.563374E+03
       150  24 -3.386306E+05 -7.297939E+04 -8.933015E+02 -1.608220E+05  5.104763E+02  8.109988E+01
       150  25 -2.348821E+05 -3.461873E+04  2.210975E+04 -1.323115E+05  6.702137E+03 -4.236181E+03
       150  26 -2.910023E+05 -4.487883E+04  1.177023E+04 -1.369753E+05  4.895056E+03 -1.607258E+03
       150  27 -3.320450E+05 -7.054766E+04  8.504158E+02 -1.590734E+05  3.079813E+03  1.044503E+03
       151   1 -3.044858E+05 -6.027061E+04  7.630950E+03 -1.514482E+05  2.826393E+03 -7.755075E+02
       151   2 -2.634796E+05 -3.463005E+04  1.927400E+04 -1.293914E+05  4.218879E+03 -3.589866E+03
       151   3 -2.072845E+05 -2.423480E+04  3.069418E+04 -1.247858E+05  5.611645E+03 -6.403864E+03
       151   4 -3.386121E+05 -7.299079E+04 -7.363416E+02 -1.608078E+05  2.637354E+02 -1.736425E+03
       151   5 -3.462064E+05 -6.536848E+04 -5.935174E+02 -1.520817E+05  1.656327E+03 -4.550916E+03
       151   6 -3.386154E+05 -7.299248E+04 -6.739574E+02 -1.608085E+05  3.049161E+03 -7.365031E+03
       151   7 -3.727375E+05 -8.571100E+04 -9.103772E+03 -1.701670E+05 -2.298790E+03 -2.697294E+03
       151   8 -4.289262E+05 -9.610634E+04 -2.046144E+04 -1.747692E+05 -9.058446E+02 -5.511824E+03
       151   9 -4.699274E+05 -1.217482E+05 -3.204278E+04 -1.968237E+05  4.873052E+02 -8.325963E+03
       151  10 -3.044858E+05 -6.027061E+04  7.630934E+03 -1.514482E+05  4.900677E-09  4.119038E-10
       151  11 -2.634796E+05 -3.463006E+04  1.927394E+04 -1.293914E+05  9.445116E-10  2.794771E-11
       151  12 -2.072845E+05 -2.423486E+04  3.069404E+04 -1.247858E+05  9.078155E-10 -4.775603E-10
       151  13 -3.386121E+05 -7.299080E+04 -7.363474E+02 -1.608078E+05  3.025491E-09  6.605476E-10
       151  14 -3.462064E+05 -6.536851E+04 -5.935614E+02 -1.520817E+05  6.629344E-10  1.317375E-10
       151  15 -3.386155E+05 -7.299254E+04 -6.740768E+02 -1.608085E+05 -3.726577E-10 -1.516165E-10
       151  16 -3.727375E+05 -8.571101E+04 -9.103796E+03 -1.701670E+05  1.407755E-09  8.942318E-10
       151  17 -4.289262E+05 -9.610637E+04 -2.046149E+04 -1.747692E+05 -9.381772E-10  1.640430E-10
       151  18 -4.699274E+05 -1.217483E+05 -3.204291E+04 -1.968237E+05  1.691401E-10  2.308867E-10
       151  19 -3.044858E+05 -6.027061E+04  7.630950E+03 -1.514482E+05 -2.826393E+03  7.755075E+02
       151  20 -2.634796E+05 -3.463005E+04  1.927400E+04 -1.293914E+05 -4.218879E+03  3.589866E+03
       151  21 -2.072845E+05 -2.423480E+04  3.069418E+04 -1.247858E+05 -5.611645E+03  6.403864E+03
       151  22 -3.386121E+05 -7.299079E+04 -7.363416E+02 -1.608078E+05 -2.637354E+02  1.736425E+03
       151  23 -3.462064E+05 -6.536848E+04 -5.935174E+02 -1.520817E+05 -1.656327E+03  4.550916E+03
       151  24 -3.386154E+05 -7.299248E+04 -6.739574E+02 -1.608085E+05 -3.049161E+03  7.365031E+03
       151  25 -3.727375E+05 -8.571100E+04 -9.103772E+03 -1.701670E+05  2.298790E+03  2.697294E+03
       151  26 -4.289262E+05 -9.610634E+04 -2.046144E+04 -1.747692E+05  9.058446E+02  5.511824E+03
       151  27 -4.699274E+05 -1.217482E+05 -3.204278E+04 -1.968237E+05 -4.873052E+02  8.325963E+03
       152   1 -1.666482E+05 -9.075624E+03  4.067318E+04 -1.136620E+05  6.370507E+03 -8.060432E+03
       152   2 -1.257201E+05  1.651304E+04  5.166129E+04 -9.163662E+04  8.099845E+03 -1.074288E+04
       152   3 -6.966311E+04  2.685659E+04  6.217386E+04 -8.702536E+04  9.828354E+03 -1.342000E+04
       152   4 -3.386300E+05 -7.298667E+04 -7.947961E+02 -1.608034E+05  3.809537E+03 -9.021213E+03
       152   5 -3.461988E+05 -6.538347E+04 -1.280530E+03 -1.520894E+05  5.543043E+03 -1.170255E+04
       152   6 -3.386410E+05 -7.302659E+04 -2.244914E+03 -1.607907E+05  7.275667E+03 -1.437857E+04
       152   7 -5.105837E+05 -1.368961E+05 -4.226523E+04 -2.079332E+05  1.249324E+03 -9.981710E+03
       152   8 -5.666319E+05 -1.472775E+05 -5.422657E+04 -2.125233E+05  2.987200E+03 -1.266186E+04
       152   9 -6.075517E+05 -1.729064E+05 -6.667015E+04 -2.345283E+05  4.724143E+03 -1.533671E+04
       152  10 -1.666483E+05 -9.075705E+03  4.067298E+04 -1.136619E+05 -1.611897E-10 -2.169108E-10
       152  11 -1.257202E+05  1.651290E+04  5.166095E+04 -9.163655E+04  1.822627E-10  8.005434E-10
       152  12 -6.966326E+04  2.685637E+04  6.217335E+04 -8.702525E+04 -2.234602E-09  5.853233E-10
       152  13 -3.386301E+05 -7.298676E+04 -7.949763E+02 -1.608033E+05 -4.380903E-12  7.456111E-12
       152  14 -3.461989E+05 -6.538362E+04 -1.280845E+03 -1.520893E+05 -1.046532E-09  1.114539E-10
       152  15 -3.386411E+05 -7.302682E+04 -2.245402E+03 -1.607906E+05 -1.445851E-09  2.087014E-10
       152  16 -5.105838E+05 -1.368962E+05 -4.226542E+04 -2.079332E+05 -7.160842E-10  3.910456E-10
       152  17 -5.666319E+05 -1.472777E+05 -5.422689E+04 -2.125233E+05  6.605662E-11  7.214077E-11
       152  18 -6.075518E+05 -1.729066E+05 -6.667063E+04 -2.345282E+05  1.386325E-09  1.637633E-10
       152  19 -1.666482E+05 -9.075624E+03  4.067318E+04 -1.136620E+05 -6.370507E+03  8.060432E+03
       152  20 -1.257201E+05  1.651304E+04  5.166129E+04 -9.163662E+04 -8.099845E+03  1.074288E+04
       152  21 -6.966311E+04  2.685659E+04  6.217386E+04 -8.702536E+04 -9.828354E+03  1.342000E+04
       152  22 -3.386300E+05 -7.298667E+04 -7.947961E+02 -1.608034E+05 -3.809537E+03  9.021213E+03
       152  23 -3.461988E+05 -6.538347E+04 -1.280530E+03 -1.520894E+05 -5.543043E+03  1.170255E+04
       152  24 -3.386410E+05 -7.302659E+04 -2.244914E+03 -1.607907E+05 -7.275667E+03  1.437857E+04
       152  25 -5.105837E+05 -1.368961E+05 -4.226523E+04 -2.079332E+05 -1.249324E+03  9.981710E+03
       152  26 -5.666319E+05 -1.472775E+05 -5.422657E+04 -2.125233E+05 -2.987200E+03  1.266186E+04
       152  27 -6.075517E+05 -1.729064E+05 -6.667015E+04 -2.345283E+05 -4.724143E+03  1.533671E+04
       153   1 -2.917525E+04  4.195426E+04  7.151873E+04 -7.604685E+04  1.090453E+04 -1.495477E+04
       153   2  1.169641E+04  6.756257E+04  8.057036E+04 -5.395930E+04  1.462918E+04 -1.686475E+04
       153   3  6.718245E+04  7.735588E+04  8.750295E+04 -4.913383E+04  1.833907E+04 -1.873044E+04
       153   4 -3.387393E+05 -7.297320E+04 -2.964882E+03 -1.608285E+05  8.343613E+03 -1.591679E+04
       153   5 -3.460884E+05 -6.535507E+04 -5.343351E+03 -1.520892E+05  1.210517E+04 -1.781360E+04
       153   6 -3.388324E+05 -7.355967E+04 -9.870686E+03 -1.606129E+05  1.585175E+04 -1.966618E+04
       153   7 -6.482040E+05 -1.878923E+05 -7.745421E+04 -2.455706E+05  5.784126E+03 -1.687827E+04
       153   8 -7.037434E+05 -1.982626E+05 -9.126554E+04 -2.501669E+05  9.582765E+03 -1.876184E+04
       153   9 -7.446832E+05 -2.244633E+05 -1.072561E+05 -2.720255E+05  1.336621E+04 -2.060126E+04
       153  10 -2.917544E+04  4.195399E+04  7.151808E+04 -7.604672E+04  2.950430E-10  1.720224E-10
       153  11  1.169610E+04  6.756221E+04  8.056942E+04 -5.395911E+04 -1.872915E-10 -6.881677E-10
       153  12  6.718200E+04  7.735542E+04  8.750166E+04 -4.913356E+04 -7.865095E-10  1.117343E-09
       153  13 -3.387395E+05 -7.297349E+04 -2.965489E+03 -1.608284E+05 -8.178279E-11  1.498620E-10
       153  14 -3.460886E+05 -6.535545E+04 -5.344223E+03 -1.520890E+05 -5.231683E-10 -5.628316E-11
       153  15 -3.388328E+05 -7.356015E+04 -9.871885E+03 -1.606127E+05 -1.225146E-09 -1.419400E-09
       153  16 -6.482041E+05 -1.878926E+05 -7.745481E+04 -2.455705E+05 -5.535140E-10  4.726755E-10
       153  17 -7.037436E+05 -1.982630E+05 -9.126638E+04 -2.501668E+05 -3.315512E-10 -2.937217E-10
       153  18 -7.446835E+05 -2.244638E+05 -1.072572E+05 -2.720253E+05  1.023054E-09  1.159479E-11
       153  19 -2.917525E+04  4.195426E+04  7.151873E+04 -7.604685E+04 -1.090453E+04  1.495477E+04
       153  20  1.169641E+04  6.756257E+04  8.057036E+04 -5.395930E+04 -1.462918E+04  1.686475E+04
       153  21  6.718245E+04  7.735588E+04  8.750295E+04 -4.913383E+04 -1.833907E+04  1.873044E+04
       153  22 -3.387393E+05 -7.297320E+04 -2.964882E+03 -1.608285E+05 -8.343613E+03  1.591679E+04
       153  23 -3.460884E+05 -6.535507E+04 -5.343351E+03 -1.520892E+05 -1.210517E+04  1.781360E+04
       153  24 -3.388324E+05 -7.355967E+04 -9.870686E+03 -1.606129E+05 -1.585175E+04  1.966618E+04
       153  25 -6.482040E+05 -1.878923E+05 -7.745421E+04 -2.455706E+05 -5.784126E+03  1.687827E+04
       153  26 -7.037434E+05 -1.982626E+05 -9.126554E+04 -2.501669E+05 -9.582765E+03  1.876184E+04
       153  27 -7.446832E+05 -2.244633E+05 -1.072561E+05 -2.720255E+05 -1.336621E+04  2.060126E+04
       154   1  1.081111E+05  9.212001E+04  9.435567E+04 -4.018512E+04  2.108651E+04 -1.971545E+04
       154   2  1.484364E+05  1.195884E+05  9.540147E+04 -1.526134E+04  3.322931E+04 -1.821805E+04
       154   3  1.985456E+05  1.215105E+05  8.536038E+04 -5.197405E+03  4.504832E+04 -1.585113E+04
       154   4 -3.394959E+05 -7.257466E+04 -1.298631E+04 -1.612783E+05  1.834627E+04 -2.074671E+04
       154   5 -3.450623E+05 -6.497889E+04 -2.341064E+04 -1.518750E+05  3.124119E+04 -1.896760E+04
       154   6 -3.410009E+05 -8.308635E+04 -4.552524E+04 -1.573338E+05  4.381127E+04 -1.631909E+04
       154   7 -7.869072E+05 -2.372573E+05 -1.203435E+05 -2.822932E+05  1.560816E+04 -2.177719E+04
       154   8 -8.383212E+05 -2.495289E+05 -1.422410E+05 -2.883901E+05  2.925477E+04 -1.971651E+04
       154   9 -8.802593E+05 -2.876600E+05 -1.764326E+05 -3.093489E+05  4.257538E+04 -1.678659E+04
       154  10  1.081105E+05  9.211947E+04  9.435411E+04 -4.018478E+04  2.315144E-09  1.775249E-09
       154  11  1.484352E+05  1.195878E+05  9.539878E+04 -1.526086E+04 -6.669544E-10  4.176345E-10
       154  12  1.985434E+05  1.215097E+05  8.535609E+04 -5.196830E+03 -2.724015E-09 -1.116252E-09
       154  13 -3.394964E+05 -7.257521E+04 -1.298775E+04 -1.612780E+05  3.949023E-12 -1.596335E-10
       154  14 -3.450634E+05 -6.497954E+04 -2.341315E+04 -1.518745E+05 -9.216891E-10 -8.352024E-10
       154  15 -3.410030E+05 -8.308716E+04 -4.552935E+04 -1.573332E+05 -9.699206E-10  4.031524E-10
       154  16 -7.869075E+05 -2.372578E+05 -1.203448E+05 -2.822929E+05 -1.468665E-09 -7.871766E-10
       154  17 -8.383222E+05 -2.495296E+05 -1.422433E+05 -2.883896E+05 -1.592922E-09  7.955056E-10
       154  18 -8.802613E+05 -2.876608E+05 -1.764365E+05 -3.093483E+05  1.053289E-09  2.415509E-09
       154  19  1.081111E+05  9.212001E+04  9.435567E+04 -4.018512E+04 -2.108651E+04  1.971545E+04
       154  20  1.484364E+05  1.195884E+05  9.540147E+04 -1.526134E+04 -3.322931E+04  1.821805E+04
       154  21  1.985456E+05  1.215105E+05  8.536038E+04 -5.197405E+03 -4.504832E+04  1.585113E+04
       154  22 -3.394959E+05 -7.257466E+04 -1.298631E+04 -1.612783E+05 -1.834627E+04  2.074671E+04
       154  23 -3.450623E+05 -6.497889E+04 -2.341064E+04 -1.518750E+05 -3.124119E+04  1.896760E+04
       154  24 -3.410009E+05 -8.308635E+04 -4.552524E+04 -1.573338E+05 -4.381127E+04  1.631909E+04
       154  25 -7.869072E+05 -2.372573E+05 -1.203435E+05 -2.822932E+05 -1.560816E+04  2.177719E+04
       154  26 -8.383212E+05 -2.495289E+05 -1.422410E+05 -2.883901E+05 -2.925477E+04  1.971651E+04
       154  27 -8.802593E+05 -2.876600E+05 -1.764326E+05 -3.093489E+05 -4.257538E+04  1.678659E+04
       155   1  2.527619E+05  1.324780E+05  8.227786E+04 -2.882040E+04  5.942905E+04 -1.442960E+04
       155   2  2.762544E+05  1.939052E+05  5.212780E+04  4.804876E+04  9.642864E+04  1.421846E+03
       155   3  2.449017E+05  7.011283E+04 -5.285574E+04  1.532943E+05  1.261809E+05  3.651757E+04
       155   4 -3.484970E+05 -6.576257E+04 -5.749403E+04 -1.678859E+05  5.243806E+04 -1.706099E+04
       155   5 -3.321404E+05 -6.124203E+04 -1.014830E+05 -1.482605E+05  1.062570E+05  5.115791E+03
       155   6 -3.740370E+05 -2.453949E+05 -2.336947E+05 -1.002436E+05  1.528221E+05  4.653708E+04
       155   7 -9.493975E+05 -2.639955E+05 -1.972899E+05 -3.068371E+05  4.545444E+04 -1.969033E+04
       155   8 -9.401615E+05 -3.163333E+05 -2.551214E+05 -3.443833E+05  1.160747E+05  8.804616E+03
       155   9 -9.925753E+05 -5.607687E+05 -4.145638E+05 -3.535173E+05  1.794339E+05  5.653658E+04
       155  10  2.527580E+05  1.324768E+05  8.227083E+04 -2.881971E+04 -1.021934E-09 -7.826595E-10
       155  11  2.762445E+05  1.939027E+05  5.211033E+04  4.804865E+04  4.043583E-11  4.264911E-09
       155  12  2.448842E+05  7.010713E+04 -5.288815E+04  1.532906E+05  4.046479E-10 -1.373801E-09
       155  13 -3.485000E+05 -6.576362E+04 -5.749974E+04 -1.678852E+05 -2.848274E-11 -1.406292E-09
       155  14 -3.321525E+05 -6.124509E+04 -1.015043E+05 -1.482609E+05  1.164796E-09 -8.969604E-10
       155  15 -3.740627E+05 -2.454035E+05 -2.337427E+05 -1.002493E+05 -3.423335E-10  1.653713E-09
       155  16 -9.493999E+05 -2.639965E+05 -1.972945E+05 -3.068364E+05  2.505397E-10  5.793486E-10
       155  17 -9.401760E+05 -3.163370E+05 -2.551469E+05 -3.443841E+05 -4.818702E-10  1.029492E-10
       155  18 -9.926108E+05 -5.607808E+05 -4.146304E+05 -3.535255E+05 -2.043934E-10 -3.024855E-10
       155  19  2.527619E+05  1.324780E+05  8.227786E+04 -2.882040E+04 -5.942905E+04  1.442960E+04
       155  20  2.762544E+05  1.939052E+05  5.212780E+04  4.804876E+04 -9.642864E+04 -1.421846E+03
       155  21  2.449017E+05  7.011283E+04 -5.285574E+04  1.532943E+05 -1.261809E+05 -3.651757E+04
       155  22 -3.484970E+05 -6.576257E+04 -5.749403E+04 -1.678859E+05 -5.243806E+04  1.706099E+04
       155  23 -3.321404E+05 -6.124203E+04 -1.014830E+05 -1.482605E+05 -1.062570E+05 -5.115791E+03
       155  24 -3.740370E+05 -2.453949E+05 -2.336947E+05 -1.002436E+05 -1.528221E+05 -4.653708E+04
       155  25 -9.493975E+05 -2.639955E+05 -1.972899E+05 -3.068371E+05 -4.545444E+04  1.969033E+04
       155  26 -9.401615E+05 -3.163333E+05 -2.551214E+05 -3.443833E+05 -1.160747E+05 -8.804616E+03
       155  27 -9.925753E+05 -5.607687E+05 -4.145638E+05 -3.535173E+05 -1.794339E+05 -5.653658E+04
       156   1  2.179573E+05  2.034809E+06  2.256321E+05  1.801833E+04  8.545165E+03  1.179752E+05
       156   2  1.497302E+05  2.112343E+06  1.683662E+05  4.099976E+04  3.119345E+04  7.147815E+04
       156   3  1.533437E+05  2.213959E+06  1.592975E+05  8.801284E+04  4.310876E+04  2.497324E+04
       156   4  1.027455E+05  1.566722E+06  1.170236E+05  7.986609E+04  8.573608E+03  7.685987E+04
       156   5  1.686893E+04  1.556068E+06  5.934832E+04  6.781895E+04  3.121201E+04  4.612777E+04
       156   6  1.287887E+02  1.566764E+06  3.895741E+04  7.980070E+04  4.311823E+04  1.539273E+04
       156   7 -1.246651E+04  1.098848E+06  8.408785E+03  1.416670E+05  8.593895E+03  3.577518E+04
       156   8 -1.160080E+05  1.000091E+06 -4.968171E+04  9.461369E+04  3.122839E+04  2.079954E+04
       156   9 -1.531098E+05  9.199744E+05 -8.140011E+04  7.159735E+04  4.312796E+04  5.821924E+03
       156  10  2.179535E+05  2.034794E+06  2.256059E+05  1.801752E+04  4.241188E-10  1.546293E-09
       156  11  1.497278E+05  2.112337E+06  1.683548E+05  4.099796E+04 -9.586088E-10 -1.564904E-09
       156  12  1.533416E+05  2.213958E+06  1.592929E+05  8.801197E+04  1.561841E-09 -3.688311E-09
       156  13  1.027438E+05  1.566715E+06  1.170124E+05  7.986556E+04 -7.737556E-10  5.090537E-10
       156  14  1.686731E+04  1.556065E+06  5.934250E+04  6.781779E+04  1.936693E-10 -1.416775E-09
       156  15  1.267277E+02  1.566764E+06  3.895347E+04  7.980017E+04 -1.146826E-09  7.985671E-10
       156  16 -1.246693E+04  1.098846E+06  8.406246E+03  1.416668E+05 -6.815121E-10 -1.664568E-09
       156  17 -1.160091E+05  1.000090E+06 -4.968435E+04  9.461317E+04  2.043508E-09  1.017971E-09
       156  18 -1.531118E+05  9.199739E+05 -8.140367E+04  7.159715E+04 -7.121718E-10  3.680444E-09
       156  19  2.179573E+05  2.034809E+06  2.256321E+05  1.801833E+04 -8.545165E+03 -1.179752E+05
       156  20  1.497302E+05  2.112343E+06  1.683662E+05  4.099976E+04 -3.119345E+04 -7.147815E+04
       156  21  1.533437E+05  2.213959E+06  1.592975E+05  8.801284E+04 -4.310876E+04 -2.497324E+04
       156  22  1.027455E+05  1.566722E+06  1.170236E+05  7.986609E+04 -8.573608E+03 -7.685987E+04
       156  23  1.686893E+04  1.556068E+06  5.934832E+04  6.781895E+04 -3.121201E+04 -4.612777E+04
       156  24  1.287887E+02  1.566764E+06  3.895741E+04  7.980070E+04 -4.311823E+04 -1.539273E+04
       156  25 -1.246651E+04  1.098848E+06  8.408785E+03  1.416670E+05 -8.593895E+03 -3.577518E+04
       156  26 -1.160080E+05  1.000091E+06 -4.968171E+04  9.461369E+04 -3.122839E+04 -2.079954E+04
       156  27 -1.531098E+05  9.199744E+05 -8.140011E+04  7.159735E+04 -4.312796E+04 -5.821924E+03
       157   1  1.710527E+05  2.270312E+06  1.663665E+05  7.663092E+04  4.700303E+04  2.141320E+04
       157   2  1.893453E+05  2.358109E+06  1.806210E+05  6.752441E+04  5.361863E+04  8.764711E+02
       157   3  2.162049E+05  2.450867E+06  2.103903E+05  8.184473E+04  5.741929E+04 -1.966246E+04
       157   4  3.554796E+03  1.562938E+06  3.472669E+04  7.967770E+04  4.701601E+04  9.647383E+03
       157   5  6.843815E+02  1.560792E+06  3.284891E+04  6.796403E+04  5.363121E+04 -6.738322E+03
       157   6  5.669249E+03  1.562887E+06  4.362096E+04  7.967867E+04  5.742986E+04 -2.312337E+04
       157   7 -1.639717E+05  8.560470E+05 -9.693388E+04  8.272099E+04  4.702888E+04 -2.105418E+03
       157   8 -1.880128E+05  7.640892E+05 -1.149497E+05  6.840318E+04  5.364379E+04 -1.434361E+04
       157   9 -2.049120E+05  6.756660E+05 -1.231826E+05  7.751591E+04  5.744048E+04 -2.657945E+04
       157  10  1.710503E+05  2.270311E+06  1.663615E+05  7.663011E+04  1.096095E-09 -1.753021E-09
       157  11  1.893422E+05  2.358108E+06  1.806156E+05  6.752438E+04  1.568927E-09 -1.807127E-09
       157  12  2.162013E+05  2.450866E+06  2.103833E+05  8.184564E+04  5.228260E-10 -3.043130E-10
       157  13  3.552396E+03  1.562937E+06  3.472235E+04  7.967734E+04 -8.688574E-10  8.113695E-10
       157  14  6.812785E+02  1.560791E+06  3.284342E+04  6.796432E+04  1.071504E-09 -2.324439E-09
       157  15  5.665562E+03  1.562886E+06  4.361376E+04  7.967974E+04 -2.062312E-09  1.507452E-09
       157  16 -1.639741E+05  8.560464E+05 -9.693805E+04  8.272107E+04 -1.800981E-09  1.731687E-09
       157  17 -1.880159E+05  7.640882E+05 -1.149555E+05  6.840380E+04 -5.112786E-10  9.546906E-10
       157  18 -2.049157E+05  6.756644E+05 -1.231902E+05  7.751714E+04 -1.115503E-09  2.190674E-10
       157  19  1.710527E+05  2.270312E+06  1.663665E+05  7.663092E+04 -4.700303E+04 -2.141320E+04
       157  20  1.893453E+05  2.358109E+06  1.806210E+05  6.752441E+04 -5.361863E+04 -8.764711E+02
       157  21  2.162049E+05  2.450867E+06  2.103903E+05  8.184473E+04 -5.741929E+04  1.966246E+04
       157  22  3.554796E+03  1.562938E+06  3.472669E+04  7.967770E+04 -4.701601E+04 -9.647383E+03
       157  23  6.843815E+02  1.560792E+06  3.284891E+04  6.796403E+04 -5.363121E+04  6.738322E+03
       157  24  5.669249E+03  1.562887E+06  4.362096E+04  7.967867E+04 -5.742986E+04  2.312337E+04
       157  25 -1.639717E+05  8.560470E+05 -9.693388E+04  8.272099E+04 -4.702888E+04  2.105418E+03
       157  26 -1.880128E+05  7.640892E+05 -1.149497E+05  6.840318E+04 -5.364379E+04  1.434361E+04
       157  27 -2.049120E+05  6.756660E+05 -1.231826E+05  7.751591E+04 -5.744048E+04  2.657945E+04
       158   1  2.255346E+05  2.519421E+06  2.317648E+05  6.486405E+04  6.086520E+04 -2.203622E+04
       158   2  2.746442E+05  2.590998E+06  2.968042E+05  1.078104E+05  5.264047E+04 -1.091127E+05
       158   3  4.370669E+05  2.702402E+06  4.467556E+05  1.728290E+05  1.622231E+04 -1.962579E+05
       158   4  9.217919E+01  1.569201E+06  5.275309E+04  7.933563E+04  6.088225E+04 -3.047211E+04
       158   5  2.584747E+04  1.552764E+06  8.792763E+04  6.840980E+04  5.260890E+04 -7.609087E+04
       158   6  1.578292E+05  1.569024E+06  1.793530E+05  7.954760E+04  1.613573E+04 -1.217610E+05
       158   7 -2.254018E+05  6.198508E+05 -1.262979E+05  9.378479E+04  6.089892E+04 -3.889543E+04
       158   8 -2.230091E+05  5.155583E+05 -1.209991E+05  2.907639E+04  5.257312E+04 -4.312294E+04
       158   9 -1.214642E+05  4.368530E+05 -8.811263E+04 -1.356283E+04  1.602678E+04 -4.739859E+04
       158  10  2.255305E+05  2.519419E+06  2.317570E+05  6.486513E+04 -1.391235E-09 -9.124362E-10
       158  11  2.746380E+05  2.590985E+06  2.967767E+05  1.078150E+05 -2.451726E-10 -2.072897E-09
       158  12  4.370563E+05  2.702361E+06  4.466830E+05  1.728315E+05 -9.508763E-10 -1.156048E-09
       158  13  8.794732E+01  1.569199E+06  5.274438E+04  7.933712E+04 -8.469826E-10  1.699038E-09
       158  14  2.584295E+04  1.552757E+06  8.791157E+04  6.841303E+04 -1.492625E-09 -2.829296E-09
       158  15  1.578249E+05  1.569008E+06  1.793247E+05  7.954918E+04  4.109125E-10  1.959975E-09
       158  16 -2.254062E+05  6.198481E+05 -1.263077E+05  9.378670E+04 -1.033602E-09  8.490281E-10
       158  17 -2.230125E+05  5.155555E+05 -1.210078E+05  2.907822E+04  7.054136E-10  6.409630E-10
       158  18 -1.214651E+05  4.368505E+05 -8.811733E+04 -1.356222E+04 -2.095072E-10  4.616758E-10
       158  19  2.255346E+05  2.519421E+06  2.317648E+05  6.486405E+04 -6.086520E+04  2.203622E+04
       158  20  2.746442E+05  2.590998E+06  2.968042E+05  1.078104E+05 -5.264047E+04  1.091127E+05
       158  21  4.370669E+05  2.702402E+06  4.467556E+05  1.728290E+05 -1.622231E+04  1.962579E+05
       158  22  9.217919E+01  1.569201E+06  5.275309E+04  7.933563E+04 -6.088225E+04  3.047211E+04
       158  23  2.584747E+04  1.552764E+06  8.792763E+04  6.840980E+04 -5.260890E+04  7.609087E+04
       158  24  1.578292E+05  1.569024E+06  1.793530E+05  7.954760E+04 -1.613573E+04  1.217610E+05
       158  25 -2.254018E+05  6.198508E+05 -1.262979E+05  9.378479E+04 -6.089892E+04  3.889543E+04
       158  26 -2.230091E+05  5.155583E+05 -1.209991E+05  2.907639E+04 -5.257312E+04  4.312294E+04
       158  27 -1.214642E+05  4.368530E+05 -8.811263E+04 -1.356283E+04 -1.602678E+04  4.739859E+04
       159   1 -2.221193E+05 -1.305376E+05 -9.053548E+04  4.418158E+03  8.939764E+04  1.565229E+04
       159   2 -1.276583E+05 -2.606434E+05 -1.478694E+05 -2.400570E+04  7.115750E+04  4.878215E+04
       159   3  7.098043E+03 -2.412061E+05 -1.558459E+05 -9.734531E+04  5.295478E+04  5.070451E+04
       159   4  9.644493E+05  1.638177E+05  1.964789E+05 -7.367348E+04  1.352028E+05  1.569857E+04
       159   5  9.418843E+05  6.278496E+02  8.970283E+04 -5.113062E+04  8.768604E+04  4.878897E+04
       159   6  9.645974E+05 -8.089918E+03  5.252918E+04 -7.349262E+04  4.021234E+04  5.069301E+04
       159   7  2.152322E+06  4.580944E+05  4.834035E+05 -1.519152E+05  1.810950E+05  1.573329E+04
       159   8  2.012496E+06  2.618248E+05  3.272053E+05 -7.830300E+04  1.042426E+05  4.879436E+04
       159   9  1.922957E+06  2.249676E+05  2.608502E+05 -4.960275E+04  2.745046E+04  5.068054E+04
       159  10 -2.221280E+05 -1.305400E+05 -9.055096E+04  4.417031E+03 -7.534416E-10  1.486302E-11
       159  11 -1.276644E+05 -2.606473E+05 -1.478834E+05 -2.400850E+04  1.830175E-10 -1.340594E-10
       159  12  7.094340E+03 -2.412096E+05 -1.558560E+05 -9.734747E+04 -7.682277E-10  6.205324E-11
       159  13  9.644296E+05  1.638125E+05  1.964442E+05 -7.367519E+04  4.243369E-11 -4.587061E-11
       159  14  9.418754E+05  6.232320E+02  8.968393E+04 -5.113406E+04 -1.876076E-09 -7.876193E-12
       159  15  9.645950E+05 -8.093112E+03  5.252132E+04 -7.349426E+04 -4.156222E-10  1.442654E-10
       159  16  2.152287E+06  4.580853E+05  4.833417E+05 -1.519175E+05  9.625303E-11 -6.870867E-11
       159  17  2.012484E+06  2.618193E+05  3.271805E+05 -7.830709E+04  3.522125E-10 -8.400859E-11
       159  18  1.922955E+06  2.249647E+05  2.608440E+05 -4.960387E+04 -1.909134E-10  1.922241E-10
       159  19 -2.221193E+05 -1.305376E+05 -9.053548E+04  4.418158E+03 -8.939764E+04 -1.565229E+04
       159  20 -1.276583E+05 -2.606434E+05 -1.478694E+05 -2.400570E+04 -7.115750E+04 -4.878215E+04
       159  21  7.098043E+03 -2.412061E+05 -1.558459E+05 -9.734531E+04 -5.295478E+04 -5.070451E+04
       159  22  9.644493E+05  1.638177E+05  1.964789E+05 -7.367348E+04 -1.352028E+05 -1.569857E+04
       159  23  9.418843E+05  6.278496E+02  8.970283E+04 -5.113062E+04 -8.768604E+04 -4.878897E+04
       159  24  9.645974E+05 -8.089918E+03  5.252918E+04 -7.349262E+04 -4.021234E+04 -5.069301E+04
       159  25  2.152322E+06  4.580944E+05  4.834035E+05 -1.519152E+05 -1.810950E+05 -1.573329E+04
       159  26  2.012496E+06  2.618248E+05  3.272053E+05 -7.830300E+04 -1.042426E+05 -4.879436E+04
       159  27  1.922957E+06  2.249676E+05  2.608502E+05 -4.960275E+04 -2.745046E+04 -5.068054E+04
       160   1  8.989859E+04 -2.024085E+05 -1.475963E+05 -7.100532E+04  3.654096E+04  4.428424E+04
       160   2  2.010159E+05 -1.835537E+05 -1.413178E+05 -5.037214E+04  2.651623E+04  3.954811E+04
       160   3  3.157769E+05 -1.563034E+05 -1.263613E+05 -7.533731E+04  1.648482E+04  3.342961E+04
       160   4  9.554154E+05  8.453461E+03  4.168329E+04 -7.369253E+04  3.278903E+04  4.427791E+04
       160   5  9.535188E+05 -3.627042E+02  2.259370E+04 -5.089422E+04  2.145554E+04  3.954349E+04
       160   6  9.554747E+05 -5.626174E+02  1.308090E+04 -7.369047E+04  1.011716E+04  3.342747E+04
       160   7  1.821633E+06  2.192656E+05  2.309176E+05 -7.638357E+04  2.903190E+04  4.427162E+04
       160   8  1.706552E+06  1.827907E+05  1.864713E+05 -5.141696E+04  1.638878E+04  3.953889E+04
       160   9  1.595556E+06  1.551511E+05  1.524986E+05 -7.204190E+04  3.743034E+03  3.342529E+04
       160  10  8.989663E+04 -2.024110E+05 -1.476025E+05 -7.100662E+04  7.678819E-10 -8.722367E-11
       160  11  2.010147E+05 -1.835555E+05 -1.413221E+05 -5.037298E+04 -5.073459E-10 -2.143755E-10
       160  12  3.157763E+05 -1.563047E+05 -1.263639E+05 -7.533775E+04 -3.716940E-10  1.611758E-10
       160  13  9.554137E+05  8.451067E+03  4.167758E+04 -7.369370E+04 -6.191155E-10  2.116135E-11
       160  14  9.535179E+05 -3.645075E+02  2.258990E+04 -5.089491E+04 -5.922295E-10 -1.698103E-10
       160  15  9.554743E+05 -5.638453E+02  1.307861E+04 -7.369075E+04 -5.548919E-11  1.562546E-10
       160  16  1.821632E+06  2.192633E+05  2.309123E+05 -7.638460E+04 -4.897465E-10  1.899778E-10
       160  17  1.706551E+06  1.827889E+05  1.864679E+05 -5.141748E+04 -6.320787E-12 -7.104003E-11
       160  18  1.595555E+06  1.551499E+05  1.524965E+05 -7.204200E+04  3.325375E-10  2.173395E-10
       160  19  8.989859E+04 -2.024085E+05 -1.475963E+05 -7.100532E+04 -3.654096E+04 -4.428424E+04
       160  20  2.010159E+05 -1.835537E+05 -1.413178E+05 -5.037214E+04 -2.651623E+04 -3.954811E+04
       160  21  3.157769E+05 -1.563034E+05 -1.263613E+05 -7.533731E+04 -1.648482E+04 -3.342961E+04
       160  22  9.554154E+05  8.453461E+03  4.168329E+04 -7.369253E+04 -3.278903E+04 -4.427791E+04
       160  23  9.535188E+05 -3.627042E+02  2.259370E+04 -5.089422E+04 -2.145554E+04 -3.954349E+04
       160  24  9.554747E+05 -5.626174E+02  1.308090E+04 -7.369047E+04 -1.011716E+04 -3.342747E+04
       160  25  1.821633E+06  2.192656E+05  2.309176E+05 -7.638357E+04 -2.903190E+04 -4.427162E+04
       160  26  1.706552E+06  1.827907E+05  1.864713E+05 -5.141696E+04 -1.638878E+04 -3.953889E+04
       160  27  1.595556E+06  1.551511E+05  1.524986E+05 -7.204190E+04 -3.743034E+03 -3.342529E+04
       161   1  4.055517E+05 -1.332781E+05 -1.091641E+05 -7.375855E+04  1.402954E+04  2.954122E+04
       161   2  5.173837E+05 -1.064665E+05 -8.933417E+04 -5.107220E+04  1.123253E+04  2.315667E+04
       161   3  6.297604E+05 -7.915149E+04 -6.754886E+04 -7.369649E+04  8.431567E+03  1.672111E+04
       161   4  9.547629E+05  3.228039E+02  1.003344E+04 -7.362754E+04  8.078556E+03  2.954028E+04
       161   5  9.545070E+05 -9.623016E+01  5.745159E+03 -5.097329E+04  5.231018E+03  2.315721E+04
       161   6  9.547936E+05 -2.526796E+00  3.446566E+03 -7.362774E+04  2.380016E+03  1.672319E+04
       161   7  1.504257E+06  1.339038E+05  1.292131E+05 -7.349638E+04  2.122381E+03  2.953934E+04
       161   8  1.391809E+06  1.062614E+05  1.008132E+05 -5.087428E+04 -7.746622E+02  2.315775E+04
       161   9  1.279926E+06  7.913943E+04  7.443575E+04 -7.355894E+04 -3.674661E+03  1.672527E+04
       161  10  4.055513E+05 -1.332791E+05 -1.091661E+05 -7.375889E+04  7.320446E-11  2.826128E-10
       161  11  5.173834E+05 -1.064671E+05 -8.933542E+04 -5.107241E+04 -5.178268E-10  1.233970E-11
       161  12  6.297603E+05 -7.915181E+04 -6.754952E+04 -7.369660E+04  1.685847E-11 -4.532324E-10
       161  13  9.547626E+05  3.218489E+02  1.003168E+04 -7.362773E+04 -8.047572E-11  3.270349E-10
       161  14  9.545068E+05 -9.681360E+01  5.744100E+03 -5.097339E+04 -5.386791E-10  9.338394E-11
       161  15  9.547935E+05 -2.828766E+00  3.446030E+03 -7.362778E+04 -7.038381E-10 -2.413852E-10
       161  16  1.504257E+06  1.339028E+05  1.292115E+05 -7.349643E+04 -9.546129E-10  3.584261E-10
       161  17  1.391809E+06  1.062608E+05  1.008122E+05 -5.087427E+04 -3.763467E-10  9.681940E-11
       161  18  1.279926E+06  7.913913E+04  7.443520E+04 -7.355890E+04 -8.713476E-10 -9.599224E-11
       161  19  4.055517E+05 -1.332781E+05 -1.091641E+05 -7.375855E+04 -1.402954E+04 -2.954122E+04
       161  20  5.173837E+05 -1.064665E+05 -8.933417E+04 -5.107220E+04 -1.123253E+04 -2.315667E+04
       161  21  6.297604E+05 -7.915149E+04 -6.754886E+04 -7.369649E+04 -8.431567E+03 -1.672111E+04
       161  22  9.547629E+05  3.228039E+02  1.003344E+04 -7.362754E+04 -8.078556E+03 -2.954028E+04
       161  23  9.545070E+05 -9.623016E+01  5.745159E+03 -5.097329E+04 -5.231018E+03 -2.315721E+04
       161  24  9.547936E+05 -2.526796E+00  3.446566E+03 -7.362774E+04 -2.380016E+03 -1.672319E+04
       161  25  1.504257E+06  1.339038E+05  1.292131E+05 -7.349638E+04 -2.122381E+03 -2.953934E+04
       161  26  1.391809E+06  1.062614E+05  1.008132E+05 -5.087428E+04  7.746622E+02 -2.315775E+04
       161  27  1.279926E+06  7.913943E+04  7.443575E+04 -7.355894E+04  3.674661E+03 -1.672527E+04
       162   1  7.196588E+05 -5.708543E+04 -4.807620E+04 -7.360177E+04  7.847095E+03  1.296648E+04
       162   2  8.313317E+05 -2.998798E+04 -2.494895E+04 -5.101416E+04  6.920776E+03  6.533448E+03
       162   3  9.431144E+05 -2.824311E+03 -1.213222E+03 -7.358267E+04  5.993290E+03  1.010753E+02
       162   4  9.547058E+05  4.102340E+01  2.727042E+03 -7.359368E+04  1.819978E+03  1.296915E+04
       162   5  9.546619E+05  1.719520E+01  1.869308E+03 -5.101590E+04  8.934510E+02  6.536513E+03
       162   6  9.547142E+05  5.985401E+01  1.619898E+03 -7.359370E+04 -3.408047E+01  1.045858E+02
       162   7  1.189805E+06  5.716386E+04  5.352715E+04 -7.358558E+04 -4.209388E+03  1.297181E+04
       162   8  1.078006E+06  3.002138E+04  2.868680E+04 -5.101764E+04 -5.135054E+03  6.539578E+03
       162   9  9.663142E+05  2.944029E+03  4.453144E+03 -7.360473E+04 -6.061563E+03  1.080965E+02
       162  10  7.196586E+05 -5.708563E+04 -4.807663E+04 -7.360185E+04 -5.134711E-10 -4.256701E-10
       162  11  8.313316E+05 -2.998803E+04 -2.494912E+04 -5.101420E+04 -4.747708E-10 -3.699732E-11
       162  12  9.431144E+05 -2.824321E+03 -1.213290E+03 -7.358267E+04 -6.146057E-11  1.482650E-10
       162  13  9.547057E+05  4.084182E+01  2.726719E+03 -7.359370E+04 -1.025958E-09 -3.067569E-10
       162  14  9.546618E+05  1.714909E+01  1.869227E+03 -5.101591E+04 -1.137302E-09  1.573585E-10
       162  15  9.547142E+05  5.985400E+01  1.619898E+03 -7.359370E+04 -1.568021E-09  2.978071E-10
       162  16  1.189805E+06  5.716367E+04  5.352680E+04 -7.358554E+04  4.140981E-10 -9.804143E-11
       162  17  1.078006E+06  3.002133E+04  2.868667E+04 -5.101761E+04  3.663057E-10  5.236089E-11
       162  18  9.663141E+05  2.944019E+03  4.453075E+03 -7.360472E+04 -6.306519E-10  1.587573E-10
       162  19  7.196588E+05 -5.708543E+04 -4.807620E+04 -7.360177E+04 -7.847095E+03 -1.296648E+04
       162  20  8.313317E+05 -2.998798E+04 -2.494895E+04 -5.101416E+04 -6.920776E+03 -6.533448E+03
       162  21  9.431144E+05 -2.824311E+03 -1.213222E+03 -7.358267E+04 -5.993290E+03 -1.010753E+02
       162  22  9.547058E+05  4.102340E+01  2.727042E+03 -7.359368E+04 -1.819978E+03 -1.296915E+04
       162  23  9.546619E+05  1.719520E+01  1.869308E+03 -5.101590E+04 -8.934510E+02 -6.536513E+03
       162  24  9.547142E+05  5.985401E+01  1.619898E+03 -7.359370E+04  3.408047E+01 -1.045858E+02
       162  25  1.189805E+06  5.716386E+04  5.352715E+04 -7.358558E+04  4.209388E+03 -1.297181E+04
       162  26  1.078006E+06  3.002138E+04  2.868680E+04 -5.101764E+04  5.135054E+03 -6.539578E+03
       162  27  9.663142E+05  2.944029E+03  4.453144E+03 -7.360473E+04  6.061563E+03 -1.080965E+02
       163   1  1.032989E+06  1.916138E+04  1.901167E+04 -7.361656E+04  5.691872E+03 -3.642243E+03
       163   2  1.144716E+06  4.623788E+04  4.353281E+04 -5.100554E+04  4.598098E+03 -1.007526E+04
       163   3  1.256585E+06  7.338737E+04  6.877382E+04 -7.356774E+04  3.505659E+03 -1.651070E+04
       163   4  9.547204E+05  5.948029E+01  1.683728E+03 -7.359781E+04 -3.367557E+02 -3.638803E+03
       163   5  9.546488E+05  4.889448E+00  2.210378E+03 -5.101076E+04 -1.433009E+03 -1.007250E+04
       163   6  9.547074E+05  2.450465E+01  3.459179E+03 -7.359778E+04 -2.527735E+03 -1.650856E+04
       163   7  8.764574E+05 -1.904281E+04 -1.564445E+04 -7.357905E+04 -6.364633E+03 -3.635363E+03
       163   8  7.646152E+05 -4.623047E+04 -3.911408E+04 -5.101598E+04 -7.462296E+03 -1.006973E+04
       163   9  6.529153E+05 -7.334435E+04 -6.186072E+04 -7.362780E+04 -8.558239E+03 -1.650642E+04
       163  10  1.032989E+06  1.916136E+04  1.901158E+04 -7.361655E+04  4.966606E-10  9.591639E-11
       163  11  1.144716E+06  4.623776E+04  4.353258E+04 -5.100551E+04  2.169914E-10  4.613696E-11
       163  12  1.256585E+06  7.338708E+04  6.877328E+04 -7.356769E+04 -2.768349E-10  2.482581E-10
       163  13  9.547204E+05  5.946603E+01  1.683703E+03 -7.359781E+04 -1.138297E-09  2.227785E-10
       163  14  9.546488E+05  4.779902E+00  2.210183E+03 -5.101078E+04 -1.667648E-09 -3.096421E-11
       163  15  9.547073E+05  2.421015E+01  3.458655E+03 -7.359781E+04 -1.257365E-09  7.077237E-11
       163  16  8.764574E+05 -1.904284E+04 -1.564455E+04 -7.357907E+04 -5.991441E-10 -6.475471E-11
       163  17  7.646151E+05 -4.623059E+04 -3.911437E+04 -5.101604E+04 -7.169546E-10 -3.377272E-10
       163  18  6.529151E+05 -7.334466E+04 -6.186137E+04 -7.362791E+04 -3.427582E-10 -2.092310E-10
       163  19  1.032989E+06  1.916138E+04  1.901167E+04 -7.361656E+04 -5.691872E+03  3.642243E+03
       163  20  1.144716E+06  4.623788E+04  4.353281E+04 -5.100554E+04 -4.598098E+03  1.007526E+04
       163  21  1.256585E+06  7.338737E+04  6.877382E+04 -7.356774E+04 -3.505659E+03  1.651070E+04
       163  22  9.547204E+05  5.948029E+01  1.683728E+03 -7.359781E+04  3.367557E+02  3.638803E+03
       163  23  9.546488E+05  4.889448E+00  2.210378E+03 -5.101076E+04  1.433009E+03  1.007250E+04
       163  24  9.547074E+05  2.450465E+01  3.459179E+03 -7.359778E+04  2.527735E+03  1.650856E+04
       163  25  8.764574E+05 -1.904281E+04 -1.564445E+04 -7.357905E+04  6.364633E+03  3.635363E+03
       163  26  7.646152E+05 -4.623047E+04 -3.911408E+04 -5.101598E+04  7.462296E+03  1.006973E+04
       163  27  6.529153E+05 -7.334435E+04 -6.186072E+04 -7.362780E+04  8.558239E+03  1.650642E+04
       164   1  1.346817E+06  9.536756E+04  8.996863E+04 -7.351441E+04  2.817257E+03 -2.026746E+04
       164   2  1.458755E+06  1.225064E+05  1.171730E+05 -5.077559E+04 -9.762178E+02 -2.670607E+04
       164   3  1.571438E+06  1.503202E+05  1.470254E+05 -7.340829E+04 -4.766267E+03 -3.309237E+04
       164   4  9.548261E+05 -3.234377E+01  4.448655E+03 -7.364219E+04 -3.243975E+03 -2.026605E+04
       164   5  9.544444E+05 -1.433490E+02  7.543060E+03 -5.095519E+04 -6.986096E+03 -2.670643E+04
       164   6  9.547903E+05  4.135205E+02  1.325241E+04 -7.364196E+04 -1.072413E+04 -3.309443E+04
       164   7  5.629784E+05 -9.544243E+04 -8.108044E+04 -7.376988E+04 -9.301435E+03 -2.026464E+04
       164   8  4.503719E+05 -1.228099E+05 -1.021020E+05 -5.113462E+04 -1.299116E+04 -2.670679E+04
       164   9  3.384986E+05 -1.495183E+05 -1.205431E+05 -7.387537E+04 -1.667615E+04 -3.309649E+04
       164  10  1.346817E+06  9.536711E+04  8.996784E+04 -7.351436E+04  3.709866E-10  2.131481E-10
       164  11  1.458755E+06  1.225056E+05  1.171717E+05 -5.077561E+04  5.952210E-10 -1.195677E-11
       164  12  1.571438E+06  1.503191E+05  1.470233E+05 -7.340842E+04  6.993928E-10 -6.212725E-10
       164  13  9.548260E+05 -3.278783E+01  4.447863E+03 -7.364225E+04 -4.778488E-10 -9.572391E-12
       164  14  9.544442E+05 -1.441283E+02  7.541628E+03 -5.095534E+04  1.171900E-09 -5.329722E-11
       164  15  9.547899E+05  4.123131E+02  1.325014E+04 -7.364224E+04 -1.653577E-10 -5.074264E-10
       164  16  5.629782E+05 -9.544289E+04 -8.108137E+04 -7.377003E+04 -1.277532E-10 -3.926671E-11
       164  17  4.503715E+05 -1.228107E+05 -1.021037E+05 -5.113490E+04 -6.515239E-10 -1.430741E-10
       164  18  3.384980E+05 -1.495196E+05 -1.205457E+05 -7.387581E+04 -5.544372E-10 -4.640009E-10
       164  19  1.346817E+06  9.536756E+04  8.996863E+04 -7.351441E+04 -2.817257E+03  2.026746E+04
       164  20  1.458755E+06  1.225064E+05  1.171730E+05 -5.077559E+04  9.762178E+02  2.670607E+04
       164  21  1.571438E+06  1.503202E+05  1.470254E+05 -7.340829E+04  4.766267E+03  3.309237E+04
       164  22  9.548261E+05 -3.234377E+01  4.448655E+03 -7.364219E+04  3.243975E+03  2.026605E+04
       164  23  9.544444E+05 -1.433490E+02  7.543060E+03 -5.095519E+04  6.986096E+03  2.670643E+04
       164  24  9.547903E+05  4.135205E+02  1.325241E+04 -7.364196E+04  1.072413E+04  3.309443E+04
       164  25  5.629784E+05 -9.544243E+04 -8.108044E+04 -7.376988E+04  9.301435E+03  2.026464E+04
       164  26  4.503719E+05 -1.228099E+05 -1.021020E+05 -5.113462E+04  1.299116E+04  2.670679E+04
       164  27  3.384986E+05 -1.495183E+05 -1.205431E+05 -7.387537E+04  1.667615E+04  3.309649E+04
       165   1  1.663128E+06  1.713199E+05  1.713386E+05 -7.145772E+04 -7.018292E+03 -3.699155E+04
       165   2  1.773747E+06  1.991043E+05  2.084799E+05 -5.151038E+04 -2.341299E+04 -4.309982E+04
       165   3  1.889689E+06  2.385239E+05  2.592419E+05 -7.724169E+04 -3.980585E+04 -4.775240E+04
       165   4  9.557308E+05 -7.571422E+02  1.729685E+04 -7.370916E+04 -1.341774E+04 -3.699503E+04
       165   5  9.531582E+05 -4.703432E+02  2.991545E+04 -5.087047E+04 -2.842933E+04 -4.310579E+04
       165   6  9.556641E+05  1.122204E+04  5.520904E+04 -7.371359E+04 -4.343614E+04 -4.776008E+04
       165   7  2.488020E+05 -1.728673E+05 -1.367748E+05 -7.595799E+04 -1.981000E+04 -3.699847E+04
       165   8  1.331991E+05 -2.000895E+05 -1.486892E+05 -5.023145E+04 -3.343913E+04 -4.311178E+04
       165   9  2.245361E+04 -2.161377E+05 -1.488764E+05 -7.019092E+04 -4.706101E+04 -4.776780E+04
       165  10  1.663127E+06  1.713184E+05  1.713360E+05 -7.145793E+04 -1.098046E-09 -3.631644E-10
       165  11  1.773746E+06  1.991021E+05  2.084753E+05 -5.151119E+04 -6.444065E-11  8.977878E-10
       165  12  1.889687E+06  2.385210E+05  2.592346E+05 -7.724322E+04 -2.709513E-10  3.886777E-10
       165  13  9.557303E+05 -7.586608E+02  1.729394E+04 -7.370956E+04  4.195406E-10 -2.877858E-10
       165  14  9.531568E+05 -4.725561E+02  2.991044E+04 -5.087146E+04 -5.046648E-10  7.946047E-10
       165  15  9.556614E+05  1.121909E+04  5.520121E+04 -7.371526E+04  7.873883E-10  2.478729E-10
       165  16  2.488012E+05 -1.728689E+05 -1.367781E+05 -7.595858E+04  1.338884E-09 -9.386694E-11
       165  17  1.331974E+05 -2.000918E+05 -1.486948E+05 -5.023261E+04 -3.248326E-10  3.815618E-10
       165  18  2.245062E+04 -2.161408E+05 -1.488848E+05 -7.019274E+04 -1.524101E-09  1.962106E-10
       165  19  1.663128E+06  1.713199E+05  1.713386E+05 -7.145772E+04  7.018292E+03  3.699155E+04
       165  20  1.773747E+06  1.991043E+05  2.084799E+05 -5.151038E+04  2.341299E+04  4.309982E+04
       165  21  1.889689E+06  2.385239E+05  2.592419E+05 -7.724169E+04  3.980585E+04  4.775240E+04
       165  22  9.557308E+05 -7.571422E+02  1.729685E+04 -7.370916E+04  1.341774E+04  3.699503E+04
       165  23  9.531582E+05 -4.703432E+02  2.991545E+04 -5.087047E+04  2.842933E+04  4.310579E+04
       165  24  9.556641E+05  1.122204E+04  5.520904E+04 -7.371359E+04  4.343614E+04  4.776008E+04
       165  25  2.488020E+05 -1.728673E+05 -1.367748E+05 -7.595799E+04  1.981000E+04  3.699847E+04
       165  26  1.331991E+05 -2.000895E+05 -1.486892E+05 -5.023145E+04  3.343913E+04  4.311178E+04
       165  27  2.245361E+04 -2.161377E+05 -1.488764E+05 -7.019092E+04  4.706101E+04  4.776780E+04
       166   1  1.994229E+06  2.389313E+05  2.926654E+05 -4.183425E+04 -4.013454E+04 -5.431869E+04
       166   2  2.076733E+06  2.787049E+05  3.714491E+05 -8.715472E+04 -1.339938E+05 -5.201001E+04
       166   3  2.224386E+06  5.282428E+05  5.637652E+05 -1.775249E+05 -2.279286E+05 -1.679588E+04
       166   4  9.678204E+05 -1.068426E+04  6.957697E+04 -7.349622E+04 -5.326792E+04 -5.433357E+04
       166   5  9.377920E+05  8.897130E+02  1.188424E+05 -5.112009E+04 -1.161600E+05 -5.200396E+04
       166   6  9.676442E+05  2.170536E+05  2.602877E+05 -7.378122E+04 -1.791056E+05 -1.676227E+04
       166   7 -5.760090E+04 -2.603658E+05 -1.535733E+05 -1.051054E+05 -6.637986E+04 -5.434712E+04
       166   8 -1.999388E+05 -2.770078E+05 -1.338430E+05 -1.515242E+04 -9.835835E+04 -5.199585E+04
       166   9 -2.876298E+05 -9.420871E+04 -4.328814E+04  2.975202E+04 -1.303805E+05 -1.671238E+04
       166  10  1.994226E+06  2.389277E+05  2.926568E+05 -4.183601E+04  1.960658E-10  3.580034E-10
       166  11  2.076713E+06  2.786972E+05  3.714103E+05 -8.716033E+04 -9.725209E-10  1.114697E-10
       166  12  2.224331E+06  5.282286E+05  5.636674E+05 -1.775280E+05 -2.357094E-10 -1.733981E-10
       166  13  9.678165E+05 -1.068820E+04  6.956610E+04 -7.349855E+04 -5.556001E-10  6.218506E-11
       166  14  9.377768E+05  8.831920E+02  1.188119E+05 -5.112496E+04  1.583415E-09 -1.295209E-10
       166  15  9.676098E+05  2.170447E+05  2.602269E+05 -7.378363E+04  2.459469E-10  5.838546E-11
       166  16 -5.760643E+04 -2.603701E+05 -1.535871E+05 -1.051083E+05  1.536298E-10 -7.139111E-11
       166  17 -1.999499E+05 -2.770133E+05 -1.338662E+05 -1.515654E+04 -5.690504E-10  4.829640E-10
       166  18 -2.876481E+05 -9.421358E+04 -4.332062E+04  2.975026E+04  6.923321E-10  4.038244E-11
       166  19  1.994229E+06  2.389313E+05  2.926654E+05 -4.183425E+04  4.013454E+04  5.431869E+04
       166  20  2.076733E+06  2.787049E+05  3.714491E+05 -8.715472E+04  1.339938E+05  5.201001E+04
       166  21  2.224386E+06  5.282428E+05  5.637652E+05 -1.775249E+05  2.279286E+05  1.679588E+04
       166  22  9.678204E+05 -1.068426E+04  6.957697E+04 -7.349622E+04  5.326792E+04  5.433357E+04
       166  23  9.377920E+05  8.897130E+02  1.188424E+05 -5.112009E+04  1.161600E+05  5.200396E+04
       166  24  9.676442E+05  2.170536E+05  2.602877E+05 -7.378122E+04  1.791056E+05  1.676227E+04
       166  25 -5.760090E+04 -2.603658E+05 -1.535733E+05 -1.051054E+05  6.637986E+04  5.434712E+04
       166  26 -1.999388E+05 -2.770078E+05 -1.338430E+05 -1.515242E+04  9.835835E+04  5.199585E+04
       166  27 -2.876298E+05 -9.420871E+04 -4.328814E+04  2.975202E+04  1.303805E+05  1.671238E+04
       167   1  1.536845E+05  7.242972E+05  1.617053E+05 -1.221168E+05  4.023422E+03  5.429345E+04
       167   2  6.378974E+04  5.696601E+05  8.716328E+04 -7.627970E+04  1.064179E+04  2.788829E+04
       167   3  2.533070E+04  4.311111E+05  4.261475E+04 -8.908138E+04  5.513809E+03  1.469619E+03
       167   4  5.267750E+04  3.184486E+05  6.279474E+04 -9.626734E+04  4.045997E+03  4.262098E+04
       167   5  5.144855E+02  3.113782E+05  2.913402E+04 -6.699628E+04  1.064369E+04  2.722849E+04
       167   6 -2.108858E+03  3.184788E+05  1.783719E+04 -9.636168E+04  5.494233E+03  1.181626E+04
       167   7 -4.833907E+04 -8.724817E+04 -3.612689E+04 -7.043470E+04  4.067609E+03  3.095610E+04
       167   8 -6.276501E+04  5.315847E+04 -2.889945E+04 -5.771674E+04  1.064557E+04  2.656897E+04
       167   9 -2.954900E+04  2.058587E+05 -6.940722E+03 -1.036406E+05  5.474413E+03  2.216105E+04
       167  10  1.536837E+05  7.242940E+05  1.616997E+05 -1.221170E+05  4.504106E-11 -2.664716E-10
       167  11  6.378941E+04  5.696592E+05  8.716161E+04 -7.627993E+04 -1.414423E-09 -1.829959E-10
       167  12  2.533067E+04  4.311110E+05  4.261469E+04 -8.908138E+04 -1.241013E-09 -3.183430E-10
       167  13  5.267699E+04  3.184467E+05  6.279130E+04 -9.626748E+04  9.148471E-10 -1.307784E-10
       167  14  5.141649E+02  3.113774E+05  2.913241E+04 -6.699651E+04 -6.291969E-10  6.162524E-11
       167  15 -2.108928E+03  3.184786E+05  1.783687E+04 -9.636173E+04 -1.921962E-10 -6.684024E-11
       167  16 -4.833934E+04 -8.724921E+04 -3.612872E+04 -7.043480E+04 -8.953986E-11  2.531355E-10
       167  17 -6.276532E+04  5.315768E+04 -2.890099E+04 -5.771696E+04  1.737675E-09  2.787396E-10
       167  18 -2.954917E+04  2.058582E+05 -6.941701E+03 -1.036407E+05  1.981990E-11  3.389256E-10
       167  19  1.536845E+05  7.242972E+05  1.617053E+05 -1.221168E+05 -4.023422E+03 -5.429345E+04
       167  20  6.378974E+04  5.696601E+05  8.716328E+04 -7.627970E+04 -1.064179E+04 -2.788829E+04
       167  21  2.533070E+04  4.311111E+05  4.261475E+04 -8.908138E+04 -5.513809E+03 -1.469619E+03
       167  22  5.267750E+04  3.184486E+05  6.279474E+04 -9.626734E+04 -4.045997E+03 -4.262098E+04
       167  23  5.144855E+02  3.113782E+05  2.913402E+04 -6.699628E+04 -1.064369E+04 -2.722849E+04
       167  24 -2.108858E+03  3.184788E+05  1.783719E+04 -9.636168E+04 -5.494233E+03 -1.181626E+04
       167  25 -4.833907E+04 -8.724817E+04 -3.612689E+04 -7.043470E+04 -4.067609E+03 -3.095610E+04
       167  26 -6.276501E+04  5.315847E+04 -2.889945E+04 -5.771674E+04 -1.064557E+04 -2.656897E+04
       167  27 -2.954900E+04  2.058587E+05 -6.940722E+03 -1.036406E+05 -5.474413E+03 -2.216105E+04
       168   1  1.717754E+03  3.100324E+05  1.363292E+04 -9.760243E+04 -4.551818E+02  2.004403E+03
       168   2 -3.689944E+04  1.628617E+05 -2.332982E+04 -6.680037E+04 -7.972794E+03 -2.611863E+03
       168   3 -7.157538E+04  1.705523E+04 -5.636288E+04 -9.515770E+04 -1.514461E+04 -7.225014E+03
       168   4  3.059314E+03  3.156423E+05  1.475898E+04 -9.645163E+04 -4.689305E+02  9.213654E+03
       168   5  1.367543E+02  3.149358E+05  9.817238E+03 -6.687421E+04 -7.985280E+03  4.272703E+03
       168   6  1.212844E+03  3.156298E+05  9.031632E+03 -9.645500E+04 -1.515593E+04 -6.661831E+02
       168   7  4.400905E+03  3.212524E+05  1.588522E+04 -9.530081E+04 -4.826525E+02  1.642297E+04
       168   8  3.717143E+04  4.670316E+05  4.296309E+04 -6.694805E+04 -7.997766E+03  1.115893E+04
       168   9  7.399514E+04  6.142879E+05  7.442090E+04 -9.775289E+04 -1.516727E+04  5.895763E+03
       168  10  1.717752E+03  3.100324E+05  1.363291E+04 -9.760243E+04 -1.336707E-09  1.130764E-10
       168  11 -3.689951E+04  1.628617E+05 -2.332996E+04 -6.680039E+04 -6.803159E-10  3.094050E-10
       168  12 -7.157564E+04  1.705511E+04 -5.636341E+04 -9.515779E+04 -4.242645E-10  2.736782E-10
       168  13  3.059291E+03  3.156423E+05  1.475882E+04 -9.645162E+04 -4.446155E-10  5.558279E-11
       168  14  1.366810E+02  3.149357E+05  9.817084E+03 -6.687418E+04  3.413934E-12  6.934074E-11
       168  15  1.212597E+03  3.156297E+05  9.031199E+03 -9.645501E+04 -4.917593E-10  3.253890E-11
       168  16  4.400832E+03  3.212521E+05  1.588472E+04 -9.530081E+04 -1.583091E-10 -3.520675E-11
       168  17  3.717133E+04  4.670314E+05  4.296273E+04 -6.694797E+04 -7.010636E-10 -1.188131E-10
       168  18  7.399489E+04  6.142878E+05  7.442040E+04 -9.775282E+04 -8.011027E-11 -2.485884E-10
       168  19  1.717754E+03  3.100324E+05  1.363292E+04 -9.760243E+04  4.551818E+02 -2.004403E+03
       168  20 -3.689944E+04  1.628617E+05 -2.332982E+04 -6.680037E+04  7.972794E+03  2.611863E+03
       168  21 -7.157538E+04  1.705523E+04 -5.636288E+04 -9.515770E+04  1.514461E+04  7.225014E+03
       168  22  3.059314E+03  3.156423E+05  1.475898E+04 -9.645163E+04  4.689305E+02 -9.213654E+03
       168  23  1.367543E+02  3.149358E+05  9.817238E+03 -6.687421E+04  7.985280E+03 -4.272703E+03
       168  24  1.212844E+03  3.156298E+05  9.031632E+03 -9.645500E+04  1.515593E+04  6.661831E+02
       168  25  4.400905E+03  3.212524E+05  1.588522E+04 -9.530081E+04  4.826525E+02 -1.642297E+04
       168  26  3.717143E+04  4.670316E+05  4.296309E+04 -6.694805E+04  7.997766E+03 -1.115893E+04
       168  27  7.399514E+04  6.142879E+05  7.442090E+04 -9.775289E+04  1.516727E+04 -5.895763E+03
       169   1 -1.021175E+05 -1.004544E+05 -8.165301E+04 -9.854855E+04 -2.171984E+04 -1.420849E+04
       169   2 -1.372976E+05 -2.484445E+05 -1.131159E+05 -6.296060E+04 -2.483521E+04 -2.421179E+03
       169   3 -1.563825E+05 -3.940189E+05 -1.482530E+05 -8.575512E+04 -8.448574E+03  9.389020E+03
       169   4 -5.417777E+02  3.165351E+05  9.330218E+03 -9.628897E+04 -2.173975E+04 -2.188801E+03
       169   5  2.318245E+02  3.137308E+05  1.229214E+04 -6.708486E+04 -2.482401E+04 -8.652960E+03
       169   6  2.026142E+04  3.164838E+05  2.425059E+04 -9.625864E+04 -8.414420E+03 -1.509125E+04
       169   7  1.010225E+05  7.336879E+05  1.003035E+05 -9.402776E+04 -2.175957E+04  9.838855E+03
       169   8  1.377398E+05  8.762008E+05  1.376805E+05 -7.121277E+04 -2.481274E+04 -1.489032E+04
       169   9  1.968690E+05  1.027449E+06  1.967201E+05 -1.067740E+05 -8.379459E+03 -3.959945E+04
       169  10 -1.021181E+05 -1.004548E+05 -8.165427E+04 -9.854880E+04  5.538176E-12  7.473562E-10
       169  11 -1.372982E+05 -2.484446E+05 -1.131170E+05 -6.296065E+04  8.464944E-10  2.545266E-10
       169  12 -1.563826E+05 -3.940190E+05 -1.482533E+05 -8.575505E+04  4.487755E-12 -5.136521E-10
       169  13 -5.422866E+02  3.165350E+05  9.329320E+03 -9.628900E+04  7.369273E-10 -2.358294E-11
       169  14  2.311425E+02  3.137306E+05  1.229084E+04 -6.708503E+04  4.944192E-10 -3.298084E-11
       169  15  2.026128E+04  3.164836E+05  2.425003E+04 -9.625874E+04 -1.947033E-10  4.946586E-11
       169  16  1.010220E+05  7.336876E+05  1.003024E+05 -9.402759E+04 -9.308215E-10 -7.086181E-10
       169  17  1.377391E+05  8.762004E+05  1.376789E+05 -7.121306E+04  8.829115E-10 -3.433698E-10
       169  18  1.968685E+05  1.027447E+06  1.967170E+05 -1.067743E+05  4.569622E-10  4.520996E-10
       169  19 -1.021175E+05 -1.004544E+05 -8.165301E+04 -9.854855E+04  2.171984E+04  1.420849E+04
       169  20 -1.372976E+05 -2.484445E+05 -1.131159E+05 -6.296060E+04  2.483521E+04  2.421179E+03
       169  21 -1.563825E+05 -3.940189E+05 -1.482530E+05 -8.575512E+04  8.448574E+03 -9.389020E+03
       169  22 -5.417777E+02  3.165351E+05  9.330218E+03 -9.628897E+04  2.173975E+04  2.188801E+03
       169  23  2.318245E+02  3.137308E+05  1.229214E+04 -6.708486E+04  2.482401E+04  8.652960E+03
       169  24  2.026142E+04  3.164838E+05  2.425059E+04 -9.625864E+04  8.414420E+03  1.509125E+04
       169  25  1.010225E+05  7.336879E+05  1.003035E+05 -9.402776E+04  2.175957E+04 -9.838855E+03
       169  26  1.377398E+05  8.762008E+05  1.376805E+05 -7.121277E+04  2.481274E+04  1.489032E+04
       169  27  1.968690E+05  1.027449E+06  1.967201E+05 -1.067740E+05  8.379459E+03  3.959945E+04
       170   1 -1.544329E+06 -6.277489E+05 -4.012738E+05 -5.631963E+05 -1.705097E+05 -5.316814E+04
       170   2 -1.488380E+06 -3.933781E+05 -2.483185E+05 -5.511685E+05 -1.101957E+05 -6.809092E+03
       170   3 -1.488318E+06 -3.424819E+05 -1.919012E+05 -5.151035E+05 -4.258708E+04  2.021170E+04
       170   4 -9.213659E+05 -3.156078E+05 -2.200398E+05 -3.138407E+05 -1.440258E+05 -4.322124E+04
       170   5 -8.830939E+05 -1.409986E+05 -9.553828E+04 -3.576674E+05 -1.005830E+05 -3.199596E+03
       170   6 -8.972965E+05 -1.464267E+05 -5.411975E+04 -3.774787E+05 -4.985312E+04  1.747805E+04
       170   7 -2.980130E+05 -3.347601E+03 -3.884096E+04 -6.423043E+04 -1.175130E+05 -3.325510E+04
       170   8 -2.774438E+05  1.114319E+05  5.721278E+04 -1.639855E+05 -9.096011E+04  4.147929E+02
       170   9 -3.059269E+05  4.963679E+04  8.363876E+04 -2.397417E+05 -5.712673E+04  1.474228E+04
       170  10 -1.544361E+06 -6.277598E+05 -4.013339E+05 -5.632036E+05 -5.677602E-10  1.245123E-10
       170  11 -1.488393E+06 -3.933815E+05 -2.483415E+05 -5.511691E+05 -4.600078E-10  5.885094E-10
       170  12 -1.488320E+06 -3.424828E+05 -1.919053E+05 -5.151028E+05  5.515977E-10  1.606224E-10
       170  13 -9.213887E+05 -3.156154E+05 -2.200824E+05 -3.138457E+05 -6.026389E-10  1.611523E-10
       170  14 -8.831048E+05 -1.410014E+05 -9.555734E+04 -3.576677E+05  1.113368E-09  3.736308E-10
       170  15 -8.972992E+05 -1.464277E+05 -5.412500E+04 -3.774780E+05  4.062862E-10  3.518848E-11
       170  16 -2.980282E+05 -3.352499E+03 -3.886900E+04 -6.423357E+04  7.781322E-11  2.034585E-10
       170  17 -2.774527E+05  1.114296E+05  5.719722E+04 -1.639855E+05  9.024229E-11  1.222302E-10
       170  18 -3.059304E+05  4.963568E+04  8.363222E+04 -2.397410E+05 -3.027673E-10 -1.103746E-10
       170  19 -1.544329E+06 -6.277489E+05 -4.012738E+05 -5.631963E+05  1.705097E+05  5.316814E+04
       170  20 -1.488380E+06 -3.933781E+05 -2.483185E+05 -5.511685E+05  1.101957E+05  6.809092E+03
       170  21 -1.488318E+06 -3.424819E+05 -1.919012E+05 -5.151035E+05  4.258708E+04 -2.021170E+04
       170  22 -9.213659E+05 -3.156078E+05 -2.200398E+05 -3.138407E+05  1.440258E+05  4.322124E+04
       170  23 -8.830939E+05 -1.409986E+05 -9.553828E+04 -3.576674E+05  1.005830E+05  3.199596E+03
       170  24 -8.972965E+05 -1.464267E+05 -5.411975E+04 -3.774787E+05  4.985312E+04 -1.747805E+04
       170  25 -2.980130E+05 -3.347601E+03 -3.884096E+04 -6.423043E+04  1.175130E+05  3.325510E+04
       170  26 -2.774438E+05  1.114319E+05  5.721278E+04 -1.639855E+05  9.096011E+04 -4.147929E+02
       170  27 -3.059269E+05  4.963679E+04  8.363876E+04 -2.397417E+05  5.712673E+04 -1.474228E+04
       171   1 -1.416510E+06 -3.623186E+05 -1.706716E+05 -5.157058E+05 -4.008415E+04  1.694884E+04
       171   2 -1.370099E+06 -3.220626E+05 -1.364851E+05 -4.922517E+05 -2.733061E+04  1.929970E+04
       171   3 -1.312192E+06 -3.087459E+05 -1.139209E+05 -4.857477E+05 -1.424623E+04  2.076790E+04
       171   4 -8.901902E+05 -1.627983E+05 -4.285478E+04 -3.676069E+05 -4.158917E+04  1.638067E+04
       171   5 -8.953032E+05 -1.444518E+05 -2.203865E+04 -3.609880E+05 -2.959825E+04  1.844584E+04
       171   6 -8.887672E+05 -1.528874E+05 -1.223185E+04 -3.713205E+05 -1.727764E+04  1.962820E+04
       171   7 -3.635980E+05  3.674307E+04  8.494071E+04 -2.193933E+05 -4.309557E+04  1.581196E+04
       171   8 -4.202838E+05  3.317545E+04  9.239129E+04 -2.296327E+05 -3.186778E+04  1.759127E+04
       171   9 -4.651628E+05  2.983425E+03  8.944477E+04 -2.568220E+05 -2.031132E+04  1.848767E+04
       171  10 -1.416512E+06 -3.623193E+05 -1.706752E+05 -5.157053E+05 -1.774706E-10 -2.946679E-10
       171  11 -1.370100E+06 -3.220632E+05 -1.364873E+05 -4.922512E+05  5.740162E-10 -1.273090E-10
       171  12 -1.312192E+06 -3.087464E+05 -1.139221E+05 -4.857475E+05 -1.228831E-09 -8.206805E-10
       171  13 -8.901921E+05 -1.627990E+05 -4.285854E+04 -3.676064E+05  2.612806E-10 -3.224879E-11
       171  14 -8.953042E+05 -1.444524E+05 -2.204094E+04 -3.609876E+05  4.419040E-10 -8.399100E-11
       171  15 -8.887676E+05 -1.528879E+05 -1.223313E+04 -3.713202E+05 -2.591412E-09 -9.305306E-10
       171  16 -3.636000E+05  3.674231E+04  8.493675E+04 -2.193927E+05  3.947194E-10  2.776532E-10
       171  17 -4.202850E+05  3.317484E+04  9.238880E+04 -2.296322E+05  1.558703E-10  5.619782E-11
       171  18 -4.651633E+05  2.982947E+03  8.944335E+04 -2.568217E+05 -3.735689E-09 -1.127801E-09
       171  19 -1.416510E+06 -3.623186E+05 -1.706716E+05 -5.157058E+05  4.008415E+04 -1.694884E+04
       171  20 -1.370099E+06 -3.220626E+05 -1.364851E+05 -4.922517E+05  2.733061E+04 -1.929970E+04
       171  21 -1.312192E+06 -3.087459E+05 -1.139209E+05 -4.857477E+05  1.424623E+04 -2.076790E+04
       171  22 -8.901902E+05 -1.627983E+05 -4.285478E+04 -3.676069E+05  4.158917E+04 -1.638067E+04
       171  23 -8.953032E+05 -1.444518E+05 -2.203865E+04 -3.609880E+05  2.959825E+04 -1.844584E+04
       171  24 -8.887672E+05 -1.528874E+05 -1.223185E+04 -3.713205E+05  1.727764E+04 -1.962820E+04
       171  25 -3.635980E+05  3.674307E+04  8.494071E+04 -2.193933E+05  4.309557E+04 -1.581196E+04
       171  26 -4.202838E+05  3.317545E+04  9.239129E+04 -2.296327E+05  3.186778E+04 -1.759127E+04
       171  27 -4.651628E+05  2.983425E+03  8.944477E+04 -2.568220E+05  2.031132E+04 -1.848767E+04
       172   1 -1.265324E+06 -2.940872E+05 -9.984054E+04 -4.741858E+05 -1.203119E+04  1.935461E+04
       172   2 -1.219499E+06 -2.648651E+05 -8.274836E+04 -4.496977E+05 -8.254148E+03  1.711537E+04
       172   3 -1.157222E+06 -2.532494E+05 -6.772425E+04 -4.445690E+05 -4.459524E+03  1.482518E+04
       172   4 -8.881129E+05 -1.538436E+05 -9.304649E+03 -3.707257E+05 -1.481603E+04  1.830802E+04
       172   5 -8.962964E+05 -1.447670E+05 -5.059985E+03 -3.611476E+05 -1.108191E+04  1.605336E+04
       172   6 -8.880220E+05 -1.532872E+05 -2.848182E+03 -3.709290E+05 -7.330467E+03  1.374769E+04
       172   7 -5.107610E+05 -1.359009E+04  8.122087E+04 -2.672083E+05 -1.760271E+04  1.726074E+04
       172   8 -5.729911E+05 -2.466194E+04  7.262054E+04 -2.725557E+05 -1.391127E+04  1.499076E+04
       172   9 -6.187516E+05 -5.332053E+04  6.202221E+04 -2.972603E+05 -1.020275E+04  1.266970E+04
       172  10 -1.265324E+06 -2.940877E+05 -9.984151E+04 -4.741856E+05 -3.876820E-09 -1.479339E-09
       172  11 -1.219499E+06 -2.648655E+05 -8.274904E+04 -4.496976E+05 -1.449821E-09  3.523394E-10
       172  12 -1.157222E+06 -2.532497E+05 -6.772470E+04 -4.445689E+05  1.132352E-09  3.594325E-10
       172  13 -8.881132E+05 -1.538441E+05 -9.305691E+03 -3.707255E+05 -2.816710E-09 -9.329682E-10
       172  14 -8.962966E+05 -1.447673E+05 -5.060699E+03 -3.611474E+05  1.839825E-10  5.518505E-11
       172  15 -8.880221E+05 -1.532874E+05 -2.848638E+03 -3.709289E+05 -1.672071E-10 -8.281356E-11
       172  16 -5.107615E+05 -1.359049E+04  8.121973E+04 -2.672080E+05 -1.143257E-09 -3.529105E-10
       172  17 -5.729914E+05 -2.466223E+04  7.261976E+04 -2.725555E+05  3.799000E-10 -3.009745E-12
       172  18 -6.187517E+05 -5.332073E+04  6.202171E+04 -2.972602E+05 -1.076061E-09 -4.005454E-10
       172  19 -1.265324E+06 -2.940872E+05 -9.984054E+04 -4.741858E+05  1.203119E+04 -1.935461E+04
       172  20 -1.219499E+06 -2.648651E+05 -8.274836E+04 -4.496977E+05  8.254148E+03 -1.711537E+04
       172  21 -1.157222E+06 -2.532494E+05 -6.772425E+04 -4.445690E+05  4.459524E+03 -1.482518E+04
       172  22 -8.881129E+05 -1.538436E+05 -9.304649E+03 -3.707257E+05  1.481603E+04 -1.830802E+04
       172  23 -8.962964E+05 -1.447670E+05 -5.059985E+03 -3.611476E+05  1.108191E+04 -1.605336E+04
       172  24 -8.880220E+05 -1.532872E+05 -2.848182E+03 -3.709290E+05  7.330467E+03 -1.374769E+04
       172  25 -5.107610E+05 -1.359009E+04  8.122087E+04 -2.672083E+05  1.760271E+04 -1.726074E+04
       172  26 -5.729911E+05 -2.466194E+04  7.262054E+04 -2.725557E+05  1.391127E+04 -1.499076E+04
       172  27 -6.187516E+05 -5.332053E+04  6.202221E+04 -2.972603E+05  1.020275E+04 -1.266970E+04
       173   1 -1.111550E+06 -2.364052E+05 -5.575056E+04 -4.321864E+05 -3.331493E+03  1.306978E+04
       173   2 -1.065527E+06 -2.075957E+05 -4.199269E+04 -4.074500E+05 -1.421484E+03  1.004494E+04
       173   3 -1.002497E+06 -1.959298E+05 -2.874813E+04 -4.023121E+05  4.906235E+02  7.012189E+03
       173   4 -8.879200E+05 -1.533565E+05 -2.192976E+03 -3.709164E+05 -6.198373E+03  1.199415E+04
       173   5 -8.964160E+05 -1.447667E+05 -1.351041E+03 -3.611221E+05 -4.295073E+03  8.967159E+03
       173   6 -8.879086E+05 -1.533196E+05 -1.017243E+03 -3.709275E+05 -2.389747E+03  5.932245E+03
       173   7 -6.642389E+05 -7.030387E+04  5.136133E+04 -3.096260E+05 -9.066395E+03  1.091810E+04
       173   8 -7.272762E+05 -8.193556E+04  3.928868E+04 -3.147826E+05 -7.169524E+03  7.889057E+03
       173   9 -7.733069E+05 -1.107084E+05  2.671272E+04 -3.395376E+05 -5.270698E+03  4.852084E+03
       173  10 -1.111550E+06 -2.364054E+05 -5.575090E+04 -4.321863E+05 -4.563132E-11 -3.878591E-10
       173  11 -1.065527E+06 -2.075958E+05 -4.199289E+04 -4.074500E+05 -5.344316E-10 -5.015932E-11
       173  12 -1.002497E+06 -1.959299E+05 -2.874823E+04 -4.023121E+05 -6.544407E-10  1.942627E-10
       173  13 -8.879201E+05 -1.533567E+05 -2.193318E+03 -3.709163E+05 -3.133565E-11 -1.620112E-10
       173  14 -8.964161E+05 -1.447668E+05 -1.351227E+03 -3.611221E+05 -9.683841E-10  1.668265E-10
       173  15 -8.879086E+05 -1.533196E+05 -1.017320E+03 -3.709275E+05 -6.419536E-10  4.014741E-10
       173  16 -6.642391E+05 -7.030402E+04  5.136095E+04 -3.096259E+05 -1.803025E-10 -7.046771E-11
       173  17 -7.272763E+05 -8.193564E+04  3.928847E+04 -3.147826E+05  1.284896E-10  2.063610E-10
       173  18 -7.733070E+05 -1.107085E+05  2.671262E+04 -3.395376E+05  2.875475E-10  4.465618E-10
       173  19 -1.111550E+06 -2.364052E+05 -5.575056E+04 -4.321864E+05  3.331493E+03 -1.306978E+04
       173  20 -1.065527E+06 -2.075957E+05 -4.199269E+04 -4.074500E+05  1.421484E+03 -1.004494E+04
       173  21 -1.002497E+06 -1.959298E+05 -2.874813E+04 -4.023121E+05 -4.906235E+02 -7.012189E+03
       173  22 -8.879200E+05 -1.533565E+05 -2.192976E+03 -3.709164E+05  6.198373E+03 -1.199415E+04
       173  23 -8.964160E+05 -1.447667E+05 -1.351041E+03 -3.611221E+05  4.295073E+03 -8.967159E+03
       173  24 -8.879086E+05 -1.533196E+05 -1.017243E+03 -3.709275E+05  2.389747E+03 -5.932245E+03
       173  25 -6.642389E+05 -7.030387E+04  5.136133E+04 -3.096260E+05  9.066395E+03 -1.091810E+04
       173  26 -7.272762E+05 -8.193556E+04  3.928868E+04 -3.147826E+05  7.169524E+03 -7.889057E+03
       173  27 -7.733069E+05 -1.107084E+05  2.671272E+04 -3.395376E+05  5.270698E+03 -4.852084E+03
       174   1 -9.567265E+05 -1.788819E+05 -1.734548E+04 -3.898233E+05  1.379023E+03  5.159127E+03
       174   2 -9.105521E+05 -1.500218E+05 -4.612493E+03 -3.650076E+05  3.217268E+03  2.091455E+03
       174   3 -8.473271E+05 -1.383477E+05  7.661717E+03 -3.598531E+05  5.055205E+03 -9.755610E+02
       174   4 -8.878969E+05 -1.533303E+05 -9.936602E+02 -3.709402E+05 -1.504213E+03  4.078240E+03
       174   5 -8.964214E+05 -1.447435E+05 -1.212025E+03 -3.611065E+05  3.345014E+02  1.010773E+03
       174   6 -8.878985E+05 -1.533430E+05 -1.889446E+03 -3.709353E+05  2.172852E+03 -2.056054E+03
       174   7 -8.190629E+05 -1.277786E+05  1.535776E+04 -3.520551E+05 -4.387782E+03  2.997227E+03
       174   8 -8.822905E+05 -1.394652E+05  2.188464E+03 -3.572054E+05 -2.548336E+03 -6.993648E+01
       174   9 -9.284684E+05 -1.683382E+05 -1.144075E+04 -3.820170E+05 -7.093100E+02 -3.136477E+03
       174  10 -9.567265E+05 -1.788819E+05 -1.734553E+04 -3.898233E+05 -4.180567E-10  3.480977E-10
       174  11 -9.105521E+05 -1.500219E+05 -4.612521E+03 -3.650076E+05 -2.727081E-10  7.912254E-11
       174  12 -8.473271E+05 -1.383477E+05  7.661667E+03 -3.598530E+05 -1.499521E-10 -1.222543E-11
       174  13 -8.878969E+05 -1.533304E+05 -9.936956E+02 -3.709401E+05  4.325463E-10  3.764633E-10
       174  14 -8.964214E+05 -1.447435E+05 -1.212027E+03 -3.611065E+05  7.738224E-10 -9.260861E-11
       174  15 -8.878985E+05 -1.533430E+05 -1.889463E+03 -3.709353E+05 -2.881233E-10  6.736273E-11
       174  16 -8.190629E+05 -1.277786E+05  1.535771E+04 -3.520551E+05  3.718418E-10  2.136435E-10
       174  17 -8.822905E+05 -1.394652E+05  2.188452E+03 -3.572054E+05  7.772872E-10  1.631844E-10
       174  18 -9.284684E+05 -1.683382E+05 -1.144077E+04 -3.820170E+05  2.332268E-10  1.247028E-10
       174  19 -9.567265E+05 -1.788819E+05 -1.734548E+04 -3.898233E+05 -1.379023E+03 -5.159127E+03
       174  20 -9.105521E+05 -1.500218E+05 -4.612493E+03 -3.650076E+05 -3.217268E+03 -2.091455E+03
       174  21 -8.473271E+05 -1.383477E+05  7.661717E+03 -3.598531E+05 -5.055205E+03  9.755610E+02
       174  22 -8.878969E+05 -1.533303E+05 -9.936602E+02 -3.709402E+05  1.504213E+03 -4.078240E+03
       174  23 -8.964214E+05 -1.447435E+05 -1.212025E+03 -3.611065E+05 -3.345014E+02 -1.010773E+03
       174  24 -8.878985E+05 -1.533430E+05 -1.889446E+03 -3.709353E+05 -2.172852E+03  2.056054E+03
       174  25 -8.190629E+05 -1.277786E+05  1.535776E+04 -3.520551E+05  4.387782E+03 -2.997227E+03
       174  26 -8.822905E+05 -1.394652E+05  2.188464E+03 -3.572054E+05  2.548336E+03  6.993648E+01
       174  27 -9.284684E+05 -1.683382E+05 -1.144075E+04 -3.820170E+05  7.093100E+02  3.136477E+03
       175   1 -8.015570E+05 -1.212946E+05  1.849967E+04 -3.474378E+05  6.138367E+03 -2.759174E+03
       175   2 -7.553732E+05 -9.241189E+04  2.957898E+04 -3.225585E+05  9.480981E+03 -5.250468E+03
       175   3 -6.925406E+05 -8.117443E+04  3.895115E+04 -3.172416E+05  1.281173E+04 -7.707709E+03
       175   4 -8.879701E+05 -1.533024E+05 -2.433776E+03 -3.709680E+05  3.249252E+03 -3.842293E+03
       175   5 -8.963254E+05 -1.447034E+05 -4.280009E+03 -3.611025E+05  6.620925E+03 -6.323008E+03
       175   6 -8.880402E+05 -1.537559E+05 -7.856576E+03 -3.708008E+05  9.980524E+03 -8.769726E+03
       175   7 -9.743757E+05 -1.853097E+05 -2.336774E+04 -3.944953E+05  3.605753E+02 -4.925249E+03
       175   8 -1.037257E+06 -1.969933E+05 -3.814031E+04 -3.996384E+05  3.761583E+03 -7.395280E+03
       175   9 -1.083501E+06 -2.263343E+05 -5.466677E+04 -4.243444E+05  7.150300E+03 -9.831375E+03
       175  10 -8.015570E+05 -1.212946E+05  1.849958E+04 -3.474378E+05  2.673549E-10  8.425577E-11
       175  11 -7.553734E+05 -9.241194E+04  2.957876E+04 -3.225584E+05 -4.134906E-10 -1.338039E-10
       175  12 -6.925408E+05 -8.117454E+04  3.895073E+04 -3.172415E+05 -1.300769E-10 -4.608251E-11
       175  13 -8.879701E+05 -1.533024E+05 -2.433824E+03 -3.709680E+05 -1.530527E-11 -5.967058E-12
       175  14 -8.963254E+05 -1.447034E+05 -4.280166E+03 -3.611025E+05 -4.471660E-10 -2.060893E-10
       175  15 -8.880403E+05 -1.537560E+05 -7.856908E+03 -3.708008E+05  1.699108E-10  2.253530E-12
       175  16 -9.743757E+05 -1.853097E+05 -2.336778E+04 -3.944953E+05 -3.872607E-10 -1.463651E-10
       175  17 -1.037257E+06 -1.969934E+05 -3.814044E+04 -3.996384E+05 -6.172617E-11 -3.501836E-10
       175  18 -1.083501E+06 -2.263344E+05 -5.466704E+04 -4.243444E+05 -5.057684E-10  1.414425E-10
       175  19 -8.015570E+05 -1.212946E+05  1.849967E+04 -3.474378E+05 -6.138367E+03  2.759174E+03
       175  20 -7.553732E+05 -9.241189E+04  2.957898E+04 -3.225585E+05 -9.480981E+03  5.250468E+03
       175  21 -6.925406E+05 -8.117443E+04  3.895115E+04 -3.172416E+05 -1.281173E+04  7.707709E+03
       175  22 -8.879701E+05 -1.533024E+05 -2.433776E+03 -3.709680E+05 -3.249252E+03  3.842293E+03
       175  23 -8.963254E+05 -1.447034E+05 -4.280009E+03 -3.611025E+05 -6.620925E+03  6.323008E+03
       175  24 -8.880402E+05 -1.537559E+05 -7.856576E+03 -3.708008E+05 -9.980524E+03  8.769726E+03
       175  25 -9.743757E+05 -1.853097E+05 -2.336774E+04 -3.944953E+05 -3.605753E+02  4.925249E+03
       175  26 -1.037257E+06 -1.969933E+05 -3.814031E+04 -3.996384E+05 -3.761583E+03  7.395280E+03
       175  27 -1.083501E+06 -2.263343E+05 -5.466677E+04 -4.243444E+05 -7.150300E+03  9.831375E+03
       176   1 -6.464698E+05 -6.439190E+04  4.778174E+04 -3.064422E+05  1.519245E+04 -9.061153E+03
       176   2 -6.008264E+05 -3.412289E+04  5.243635E+04 -2.793791E+05  2.522555E+04 -8.852072E+03
       176   3 -5.424333E+05 -2.919867E+04  4.824793E+04 -2.699283E+05  3.501421E+04 -7.985016E+03
       176   4 -8.885789E+05 -1.529627E+05 -1.032407E+04 -3.713182E+05  1.217414E+04 -1.019362E+04
       176   5 -8.954911E+05 -1.444065E+05 -1.858507E+04 -3.609482E+05  2.277827E+04 -9.771022E+03
       176   6 -8.897727E+05 -1.613129E+05 -3.614581E+04 -3.681930E+05  3.313707E+04 -8.690665E+03
       176   7 -1.130631E+06 -2.415304E+05 -6.843445E+04 -4.361717E+05  9.157091E+03 -1.132562E+04
       176   8 -1.190070E+06 -2.546840E+05 -8.961308E+04 -4.424822E+05  2.033225E+04 -1.068949E+04
       176   9 -1.236993E+06 -2.934172E+05 -1.205486E+05 -4.664070E+05  3.126108E+04 -9.395863E+03
       176  10 -6.464701E+05 -6.439205E+04  4.778115E+04 -3.064421E+05 -1.357971E-11  5.370961E-11
       176  11 -6.008271E+05 -3.412315E+04  5.243501E+04 -2.793789E+05 -5.936833E-10  2.114855E-10
       176  12 -5.424346E+05 -2.919906E+04  4.824550E+04 -2.699281E+05  5.049904E-10  2.347209E-10
       176  13 -8.885791E+05 -1.529629E+05 -1.032454E+04 -3.713181E+05 -2.303361E-10  2.598882E-10
       176  14 -8.954917E+05 -1.444067E+05 -1.858623E+04 -3.609480E+05 -8.993803E-11  3.547075E-10
       176  15 -8.897739E+05 -1.613132E+05 -3.614802E+04 -3.681927E+05  6.881237E-10 -9.446035E-12
       176  16 -1.130631E+06 -2.415306E+05 -6.843484E+04 -4.361716E+05 -2.369339E-10  3.841234E-10
       176  17 -1.190071E+06 -2.546843E+05 -8.961407E+04 -4.424820E+05  9.311850E-10  4.105203E-10
       176  18 -1.236994E+06 -2.934176E+05 -1.205506E+05 -4.664068E+05 -9.638419E-11  1.007617E-10
       176  19 -6.464698E+05 -6.439190E+04  4.778174E+04 -3.064422E+05 -1.519245E+04  9.061153E+03
       176  20 -6.008264E+05 -3.412289E+04  5.243635E+04 -2.793791E+05 -2.522555E+04  8.852072E+03
       176  21 -5.424333E+05 -2.919867E+04  4.824793E+04 -2.699283E+05 -3.501421E+04  7.985016E+03
       176  22 -8.885789E+05 -1.529627E+05 -1.032407E+04 -3.713182E+05 -1.217414E+04  1.019362E+04
       176  23 -8.954911E+05 -1.444065E+05 -1.858507E+04 -3.609482E+05 -2.277827E+04  9.771022E+03
       176  24 -8.897727E+05 -1.613129E+05 -3.614581E+04 -3.681930E+05 -3.313707E+04  8.690665E+03
       176  25 -1.130631E+06 -2.415304E+05 -6.843445E+04 -4.361717E+05 -9.157091E+03  1.132562E+04
       176  26 -1.190070E+06 -2.546840E+05 -8.961308E+04 -4.424822E+05 -2.033225E+04  1.068949E+04
       176  27 -1.236993E+06 -2.934172E+05 -1.205486E+05 -4.664070E+05 -3.126108E+04  9.395863E+03
       177   1 -4.860877E+05 -1.544884E+04  4.917419E+04 -2.850572E+05  4.635756E+04 -7.445517E+03
       177   2 -4.539721E+05  4.153251E+04  2.886050E+04 -2.168512E+05  7.687496E+04  4.225705E+03
       177   3 -4.606187E+05 -5.380511E+04 -5.148357E+04 -1.318968E+05  1.019571E+05  3.037197E+04
       177   4 -8.957526E+05 -1.475192E+05 -4.564729E+04 -3.765380E+05  4.016411E+04 -9.770310E+03
       177   5 -8.852105E+05 -1.414551E+05 -8.057160E+04 -3.581166E+05  8.332835E+04  6.645161E+03
       177   6 -9.159847E+05 -2.902887E+05 -1.855896E+05 -3.229394E+05  1.210532E+05  3.753476E+04
       177   7 -1.305249E+06 -2.795865E+05 -1.404792E+05 -4.679680E+05  3.397515E+04 -1.209393E+04
       177   8 -1.316263E+06 -3.244137E+05 -1.900183E+05 -4.992870E+05  8.977684E+04  9.062188E+03
       177   9 -1.371139E+06 -5.266976E+05 -3.197141E+05 -5.138372E+05  1.401341E+05  4.468675E+04
       177  10 -4.860900E+05 -1.544948E+04  4.917004E+04 -2.850569E+05 -4.346512E-11 -6.922895E-11
       177  11 -4.539784E+05  4.153090E+04  2.884935E+04 -2.168515E+05 -3.814547E-10  1.843892E-10
       177  12 -4.606301E+05 -5.380889E+04 -5.150486E+04 -1.318993E+05  5.581165E-12  2.067887E-10
       177  13 -8.957544E+05 -1.475197E+05 -4.565051E+04 -3.765377E+05 -8.604639E-11  4.635713E-11
       177  14 -8.852180E+05 -1.414570E+05 -8.058476E+04 -3.581171E+05 -6.643339E-10  4.086591E-10
       177  15 -9.160008E+05 -2.902942E+05 -1.856198E+05 -3.229431E+05 -1.668985E-10  2.296522E-10
       177  16 -1.305250E+06 -2.795870E+05 -1.404816E+05 -4.679676E+05 -3.130170E-10  9.116157E-11
       177  17 -1.316272E+06 -3.244160E+05 -1.900337E+05 -4.992877E+05  3.782340E-10  1.254268E-10
       177  18 -1.371161E+06 -5.267051E+05 -3.197549E+05 -5.138423E+05 -1.621810E-10 -4.484260E-11
       177  19 -4.860877E+05 -1.544884E+04  4.917419E+04 -2.850572E+05 -4.635756E+04  7.445517E+03
       177  20 -4.539721E+05  4.153251E+04  2.886050E+04 -2.168512E+05 -7.687496E+04 -4.225705E+03
       177  21 -4.606187E+05 -5.380511E+04 -5.148357E+04 -1.318968E+05 -1.019571E+05 -3.037197E+04
       177  22 -8.957526E+05 -1.475192E+05 -4.564729E+04 -3.765380E+05 -4.016411E+04  9.770310E+03
       177  23 -8.852105E+05 -1.414551E+05 -8.057160E+04 -3.581166E+05 -8.332835E+04 -6.645161E+03
       177  24 -9.159847E+05 -2.902887E+05 -1.855896E+05 -3.229394E+05 -1.210532E+05 -3.753476E+04
       177  25 -1.305249E+06 -2.795865E+05 -1.404792E+05 -4.679680E+05 -3.397515E+04  1.209393E+04
       177  26 -1.316263E+06 -3.244137E+05 -1.900183E+05 -4.992870E+05 -8.977684E+04 -9.062188E+03
       177  27 -1.371139E+06 -5.266976E+05 -3.197141E+05 -5.138372E+05 -1.401341E+05 -4.468675E+04
       178   1 -9.209546E+05 -2.199920E+05 -1.820273E+05 -1.681064E+04  6.166379E+04  1.938955E+04
       178   2 -8.068833E+05 -3.248811E+05 -2.170023E+05 -3.562967E+04  5.601814E+04  6.080422E+04
       178   3 -6.589045E+05 -3.001961E+05 -2.157731E+05 -1.056522E+05  5.043092E+04  6.375542E+04
       178   4  5.435804E+05  1.436056E+05  1.723897E+05 -8.470778E+04  1.185658E+05  1.946413E+04
       178   5  5.236164E+05  3.475785E+02  7.865819E+04 -5.902366E+04  7.688429E+04  6.081499E+04
       178   6  5.437181E+05 -7.237570E+03  4.608339E+04 -8.453172E+04  3.526568E+04  6.373858E+04
       178   7  2.010094E+06  5.070656E+05  5.266673E+05 -1.527664E+05  1.756015E+05  1.952618E+04
       178   8  1.855770E+06  3.254588E+05  3.742104E+05 -8.246875E+04  9.779457E+04  6.082419E+04
       178   9  1.747698E+06  2.856267E+05  3.078542E+05 -6.336983E+04  2.007136E+04  6.372073E+04
       178  10 -9.209588E+05 -2.199934E+05 -1.820352E+05 -1.681160E+04  8.316201E-10  1.044811E-10
       178  11 -8.068876E+05 -3.248859E+05 -2.170152E+05 -3.563241E+04 -5.515410E-10 -8.141012E-10
       178  12 -6.589083E+05 -3.002012E+05 -2.157855E+05 -1.056548E+05 -1.188843E-09 -3.488112E-10
       178  13  5.435652E+05  1.436014E+05  1.723626E+05 -8.470964E+04 -6.649904E-11 -4.971006E-10
       178  14  5.236090E+05  3.420205E+02  7.864014E+04 -5.902742E+04 -1.607049E-09 -2.782084E-10
       178  15  5.437157E+05 -7.242267E+03  4.607341E+04 -8.453353E+04 -1.786070E-11 -2.693263E-10
       178  16  2.010061E+06  5.070570E+05  5.266088E+05 -1.527691E+05 -4.672629E-10  4.788415E-10
       178  17  1.855759E+06  3.254523E+05  3.741856E+05 -8.247354E+04 -9.199017E-11 -5.154405E-10
       178  18  1.747697E+06  2.856223E+05  3.078458E+05 -6.337086E+04 -6.181699E-10 -5.646158E-10
       178  19 -9.209546E+05 -2.199920E+05 -1.820273E+05 -1.681064E+04 -6.166379E+04 -1.938955E+04
       178  20 -8.068833E+05 -3.248811E+05 -2.170023E+05 -3.562967E+04 -5.601814E+04 -6.080422E+04
       178  21 -6.589045E+05 -3.001961E+05 -2.157731E+05 -1.056522E+05 -5.043092E+04 -6.375542E+04
       178  22  5.435804E+05  1.436056E+05  1.723897E+05 -8.470778E+04 -1.185658E+05 -1.946413E+04
       178  23  5.236164E+05  3.475785E+02  7.865819E+04 -5.902366E+04 -7.688429E+04 -6.081499E+04
       178  24  5.437181E+05 -7.237570E+03  4.608339E+04 -8.453172E+04 -3.526568E+04 -6.373858E+04
       178  25  2.010094E+06  5.070656E+05  5.266673E+05 -1.527664E+05 -1.756015E+05 -1.952618E+04
       178  26  1.855770E+06  3.254588E+05  3.742104E+05 -8.246875E+04 -9.779457E+04 -6.082419E+04
       178  27  1.747698E+06  2.856267E+05  3.078542E+05 -6.336983E+04 -2.007136E+04 -6.372073E+04
       179   1 -5.614609E+05 -2.601453E+05 -2.035059E+05 -8.258617E+04  3.286296E+04  5.617022E+04
       179   2 -4.334149E+05 -2.360336E+05 -1.910236E+05 -5.818516E+04  2.455407E+04  5.088195E+04
       179   3 -3.020933E+05 -2.046048E+05 -1.712177E+05 -8.617029E+04  1.623582E+04  4.388022E+04
       179   4  5.356467E+05  7.301663E+03  3.656193E+04 -8.484050E+04  2.875515E+04  5.616115E+04
       179   5  5.339199E+05 -4.041245E+02  1.979937E+04 -5.864960E+04  1.882728E+04  5.087546E+04
       179   6  5.357252E+05 -5.187236E+02  1.147389E+04 -8.483945E+04  8.891724E+03  4.387756E+04
       179   7  1.633882E+06  2.746684E+05  2.765569E+05 -8.709891E+04  2.464014E+04  5.615212E+04
       179   8  1.502132E+06  2.351632E+05  2.305662E+05 -5.911477E+04  1.309166E+04  5.086899E+04
       179   9  1.374201E+06  2.035207E+05  1.941235E+05 -8.350671E+04  1.537839E+03  4.387488E+04
       179  10 -5.614630E+05 -2.601490E+05 -2.035138E+05 -8.258766E+04 -4.087522E-10  8.159783E-11
       179  11 -4.334162E+05 -2.360366E+05 -1.910296E+05 -5.818616E+04 -4.654020E-10  4.137048E-10
       179  12 -3.020941E+05 -2.046069E+05 -1.712218E+05 -8.617086E+04 -1.235764E-10  6.966734E-10
       179  13  5.356450E+05  7.298053E+03  3.655444E+04 -8.484180E+04 -6.427554E-10 -2.550324E-10
       179  14  5.339188E+05 -4.069997E+02  1.979384E+04 -5.865038E+04 -8.628810E-11  3.697114E-10
       179  15  5.357246E+05 -5.208128E+02  1.147013E+04 -8.483976E+04 -3.147387E-10  2.952504E-10
       179  16  1.633880E+06  2.746649E+05  2.765499E+05 -8.710003E+04 -7.592021E-10 -2.207320E-10
       179  17  1.502131E+06  2.351604E+05  2.305610E+05 -5.911531E+04  2.042668E-10  2.480229E-10
       179  18  1.374201E+06  2.035186E+05  1.941198E+05 -8.350677E+04  4.160947E-10 -9.674134E-11
       179  19 -5.614609E+05 -2.601453E+05 -2.035059E+05 -8.258617E+04 -3.286296E+04 -5.617022E+04
       179  20 -4.334149E+05 -2.360336E+05 -1.910236E+05 -5.818516E+04 -2.455407E+04 -5.088195E+04
       179  21 -3.020933E+05 -2.046048E+05 -1.712177E+05 -8.617029E+04 -1.623582E+04 -4.388022E+04
       179  22  5.356467E+05  7.301663E+03  3.656193E+04 -8.484050E+04 -2.875515E+04 -5.616115E+04
       179  23  5.339199E+05 -4.041245E+02  1.979937E+04 -5.864960E+04 -1.882728E+04 -5.087546E+04
       179  24  5.357252E+05 -5.187236E+02  1.147389E+04 -8.483945E+04 -8.891724E+03 -4.387756E+04
       179  25  1.633882E+06  2.746684E+05  2.765569E+05 -8.709891E+04 -2.464014E+04 -5.615212E+04
       179  26  1.502132E+06  2.351632E+05  2.305662E+05 -5.911477E+04 -1.309166E+04 -5.086899E+04
       179  27  1.374201E+06  2.035207E+05  1.941235E+05 -8.350671E+04 -1.537839E+03 -4.387488E+04
       180   1 -1.986253E+05 -1.783335E+05 -1.505950E+05 -8.478070E+04  1.394234E+04  3.939577E+04
       180   2 -6.980827E+04 -1.473123E+05 -1.265728E+05 -5.863401E+04  1.151936E+04  3.204929E+04
       180   3  5.952700E+04 -1.158146E+05 -1.008384E+05 -8.468461E+04  9.090280E+03  2.463463E+04
       180   4  5.350908E+05  2.648592E+02  8.794259E+03 -8.479826E+04  7.104184E+03  3.939490E+04
       180   5  5.348576E+05 -8.793784E+01  5.023852E+03 -5.870128E+04  4.614059E+03  3.205080E+04
       180   6  5.351378E+05  4.778956E+01  3.010939E+03 -8.479850E+04  2.118319E+03  2.463860E+04
       180   7  1.269312E+06  1.788276E+05  1.681516E+05 -8.481577E+04  2.580500E+02  3.939404E+04
       180   8  1.139866E+06  1.471121E+05  1.365987E+05 -5.876855E+04 -2.297884E+03  3.205231E+04
       180   9  1.010960E+06  1.158951E+05  1.068468E+05 -8.491243E+04 -4.858915E+03  2.464258E+04
       180  10 -1.986259E+05 -1.783352E+05 -1.505983E+05 -8.478114E+04  1.157668E-09  3.596960E-10
       180  11 -6.980869E+04 -1.473134E+05 -1.265750E+05 -5.863431E+04  9.720389E-10 -6.366150E-10
       180  12  5.952675E+04 -1.158153E+05 -1.008397E+05 -8.468479E+04  1.114884E-09 -8.428939E-10
       180  13  5.350903E+05  2.631787E+02  8.791247E+03 -8.479849E+04 -5.722681E-10  1.452726E-10
       180  14  5.348573E+05 -8.904694E+01  5.021881E+03 -5.870140E+04  1.201771E-09 -1.830642E-10
       180  15  5.351376E+05  4.713631E+01  3.009790E+03 -8.479855E+04 -1.332005E-09 -1.389137E-10
       180  16  1.269311E+06  1.788259E+05  1.681487E+05 -8.481577E+04 -1.175804E-09 -1.272720E-10
       180  17  1.139866E+06  1.471110E+05  1.365968E+05 -5.876849E+04 -3.731840E-10 -1.012586E-10
       180  18  1.010960E+06  1.158945E+05  1.068456E+05 -8.491233E+04 -1.949269E-10 -8.891588E-10
       180  19 -1.986253E+05 -1.783335E+05 -1.505950E+05 -8.478070E+04 -1.394234E+04 -3.939577E+04
       180  20 -6.980827E+04 -1.473123E+05 -1.265728E+05 -5.863401E+04 -1.151936E+04 -3.204929E+04
       180  21  5.952700E+04 -1.158146E+05 -1.008384E+05 -8.468461E+04 -9.090280E+03 -2.463463E+04
       180  22  5.350908E+05  2.648592E+02  8.794259E+03 -8.479826E+04 -7.104184E+03 -3.939490E+04
       180  23  5.348576E+05 -8.793784E+01  5.023852E+03 -5.870128E+04 -4.614059E+03 -3.205080E+04
       180  24  5.351378E+05  4.778956E+01  3.010939E+03 -8.479850E+04 -2.118319E+03 -2.463860E+04
       180  25  1.269312E+06  1.788276E+05  1.681516E+05 -8.481577E+04 -2.580500E+02 -3.939404E+04
       180  26  1.139866E+06  1.471121E+05  1.365987E+05 -5.876855E+04  2.297884E+03 -3.205231E+04
       180  27  1.010960E+06  1.158951E+05  1.068468E+05 -8.491243E+04  4.858915E+03 -2.464258E+04
       181   1  1.631532E+05 -9.037534E+04 -7.819097E+04 -8.462519E+04  8.572969E+03  2.030531E+04
       181   2  2.918900E+05 -5.912449E+04 -5.129891E+04 -5.862293E+04  7.776505E+03  1.288781E+04
       181   3  4.206899E+05 -2.776881E+04 -2.388325E+04 -8.468072E+04  6.977637E+03  5.470656E+03
       181   4  5.350544E+05  8.955451E+01  2.371255E+03 -8.476836E+04  1.628318E+03  2.031031E+04
       181   5  5.350390E+05  6.377625E+01  1.602896E+03 -5.873895E+04  8.311635E+02  1.289374E+04
       181   6  5.350730E+05  1.443386E+02  1.359339E+03 -8.476835E+04  3.176655E+01  5.477577E+03
       181   7  9.070853E+05  9.054534E+04  8.292544E+04 -8.491158E+04 -5.320436E+03  2.031531E+04
       181   8  7.782435E+05  5.924815E+04  5.450135E+04 -5.885501E+04 -6.116861E+03  1.289967E+04
       181   9  6.494684E+05  2.805664E+04  2.660131E+04 -8.485600E+04 -6.915368E+03  5.484498E+03
       181  10  1.631531E+05 -9.037581E+04 -7.819188E+04 -8.462533E+04 -1.241967E-09 -4.965514E-10
       181  11  2.918899E+05 -5.912469E+04 -5.129934E+04 -5.862301E+04  1.596729E-09 -1.918158E-10
       181  12  4.206899E+05 -2.776886E+04 -2.388340E+04 -8.468075E+04  4.872783E-10  5.758246E-10
       181  13  5.350543E+05  8.911072E+01  2.370475E+03 -8.476839E+04  1.044586E-10 -1.192396E-09
       181  14  5.350390E+05  6.359750E+01  1.602582E+03 -5.873896E+04  1.812050E-10  4.544429E-10
       181  15  5.350730E+05  1.443064E+02  1.359283E+03 -8.476835E+04 -3.386056E-10  2.152420E-10
       181  16  9.070852E+05  9.054489E+04  8.292461E+04 -8.491150E+04 -1.309713E-10 -6.488799E-10
       181  17  7.782434E+05  5.924796E+04  5.450096E+04 -5.885494E+04 -5.314288E-10  3.298578E-10
       181  18  6.494684E+05  2.805659E+04  2.660116E+04 -8.485597E+04  5.030012E-12 -1.271246E-10
       181  19  1.631532E+05 -9.037534E+04 -7.819097E+04 -8.462519E+04 -8.572969E+03 -2.030531E+04
       181  20  2.918900E+05 -5.912449E+04 -5.129891E+04 -5.862293E+04 -7.776505E+03 -1.288781E+04
       181  21  4.206899E+05 -2.776881E+04 -2.388325E+04 -8.468072E+04 -6.977637E+03 -5.470656E+03
       181  22  5.350544E+05  8.955451E+01  2.371255E+03 -8.476836E+04 -1.628318E+03 -2.031031E+04
       181  23  5.350390E+05  6.377625E+01  1.602896E+03 -5.873895E+04 -8.311635E+02 -1.289374E+04
       181  24  5.350730E+05  1.443386E+02  1.359339E+03 -8.476835E+04 -3.176655E+01 -5.477577E+03
       181  25  9.070853E+05  9.054534E+04  8.292544E+04 -8.491158E+04  5.320436E+03 -2.031531E+04
       181  26  7.782435E+05  5.924815E+04  5.450135E+04 -5.885501E+04  6.116861E+03 -1.289967E+04
       181  27  6.494684E+05  2.805664E+04  2.660131E+04 -8.485600E+04  6.915368E+03 -5.484498E+03
       182   1  5.242811E+05 -2.409704E+03 -5.958082E+02 -8.474990E+04  6.722303E+03  1.154558E+03
       182   2  6.529994E+05  2.878197E+04  2.744956E+04 -5.877095E+04  5.828676E+03 -6.259148E+03
       182   3  7.817771E+05  6.008762E+04  5.607827E+04 -8.483113E+04  4.935949E+03 -1.367161E+04
       182   4  5.350742E+05  1.454492E+02  1.393064E+03 -8.476412E+04 -2.231895E+02  1.161632E+03
       182   5  5.350488E+05  7.627533E+01  1.792409E+03 -5.874425E+04 -1.116223E+03 -6.252573E+03
       182   6  5.350651E+05  1.214731E+02  2.774774E+03 -8.476410E+04 -2.008177E+03 -1.366547E+04
       182   7  5.458676E+05  2.700621E+03  3.382113E+03 -8.477833E+04 -7.168799E+03  1.168706E+03
       182   8  4.171113E+05 -2.863032E+04 -2.386539E+04 -5.871754E+04 -8.059821E+03 -6.245998E+03
       182   9  2.884102E+05 -5.984865E+04 -5.053214E+04 -8.469708E+04 -8.949583E+03 -1.365933E+04
       182  10  5.242810E+05 -2.409717E+03 -5.958956E+02 -8.474991E+04 -4.730390E-10  1.269190E-09
       182  11  6.529993E+05  2.878192E+04  2.744942E+04 -5.877092E+04  3.941315E-10  1.246738E-09
       182  12  7.817770E+05  6.008741E+04  5.607787E+04 -8.483107E+04  8.043401E-10 -8.909818E-10
       182  13  5.350742E+05  1.454477E+02  1.393062E+03 -8.476412E+04  1.633055E-09  5.013281E-10
       182  14  5.350487E+05  7.623300E+01  1.792333E+03 -5.874425E+04  4.224989E-10 -5.816733E-10
       182  15  5.350650E+05  1.212714E+02  2.774416E+03 -8.476412E+04 -6.176318E-10 -1.106707E-11
       182  16  5.458676E+05  2.700606E+03  3.382014E+03 -8.477832E+04 -1.280357E-10  2.770072E-10
       182  17  4.171112E+05 -2.863038E+04 -2.386559E+04 -5.871758E+04  1.022120E-10 -4.236819E-10
       182  18  2.884101E+05 -5.984888E+04 -5.053264E+04 -8.469718E+04 -1.129705E-09  6.844783E-12
       182  19  5.242811E+05 -2.409704E+03 -5.958082E+02 -8.474990E+04 -6.722303E+03 -1.154558E+03
       182  20  6.529994E+05  2.878197E+04  2.744956E+04 -5.877095E+04 -5.828676E+03  6.259148E+03
       182  21  7.817771E+05  6.008762E+04  5.607827E+04 -8.483113E+04 -4.935949E+03  1.367161E+04
       182  22  5.350742E+05  1.454492E+02  1.393064E+03 -8.476412E+04  2.231895E+02 -1.161632E+03
       182  23  5.350488E+05  7.627533E+01  1.792409E+03 -5.874425E+04  1.116223E+03  6.252573E+03
       182  24  5.350651E+05  1.214731E+02  2.774774E+03 -8.476410E+04  2.008177E+03  1.366547E+04
       182  25  5.458676E+05  2.700621E+03  3.382113E+03 -8.477833E+04  7.168799E+03 -1.168706E+03
       182  26  4.171113E+05 -2.863032E+04 -2.386539E+04 -5.871754E+04  8.059821E+03  6.245998E+03
       182  27  2.884102E+05 -5.984865E+04 -5.053214E+04 -8.469708E+04  8.949583E+03  1.365933E+04
       183   1  8.855725E+05  8.541409E+04  8.012839E+04 -8.482640E+04  4.384208E+03 -1.799516E+04
       183   2  1.014307E+06  1.166004E+05  1.102928E+05 -5.876347E+04  1.333560E+03 -2.539877E+04
       183   3  1.143603E+06  1.483810E+05  1.425857E+05 -8.483212E+04 -1.713252E+03 -3.273884E+04
       183   4  5.351610E+05  7.506529E+01  3.560101E+03 -8.478514E+04 -2.584782E+03 -1.798973E+04
       183   5  5.348742E+05 -5.587148E+01  6.018219E+03 -5.871794E+04 -5.574427E+03 -2.539532E+04
       183   6  5.351235E+05  3.983133E+02  1.056441E+04 -8.478476E+04 -8.559620E+03 -3.273728E+04
       183   7  1.848645E+05 -8.527211E+04 -7.301542E+04 -8.474389E+04 -9.549892E+03 -1.798431E+04
       183   8  5.565652E+04 -1.167274E+05 -9.826995E+04 -5.867240E+04 -1.247716E+04 -2.539187E+04
       183   9 -7.300959E+04 -1.476088E+05 -1.214787E+05 -8.473739E+04 -1.539937E+04 -3.273572E+04
       183  10  8.855724E+05  8.541374E+04  8.012775E+04 -8.482633E+04  6.600983E-10 -9.113459E-10
       183  11  1.014307E+06  1.165997E+05  1.102916E+05 -5.876345E+04  1.590958E-10 -4.286322E-11
       183  12  1.143603E+06  1.483799E+05  1.425837E+05 -8.483216E+04 -9.956874E-10  1.125090E-10
       183  13  5.351609E+05  7.471588E+01  3.559480E+03 -8.478518E+04 -1.050600E-10 -5.850939E-11
       183  14  5.348740E+05 -5.657253E+01  6.016948E+03 -5.871806E+04  1.173506E-09 -4.621839E-10
       183  15  5.351231E+05  3.971424E+02  1.056226E+04 -8.478499E+04  4.425169E-10  2.575061E-10
       183  16  1.848643E+05 -8.527248E+04 -7.301620E+04 -8.474402E+04 -2.008284E-10  1.147995E-11
       183  17  5.565618E+04 -1.167281E+05 -9.827145E+04 -5.867266E+04 -8.850991E-10  6.507138E-10
       183  18 -7.301013E+04 -1.476101E+05 -1.214812E+05 -8.473779E+04  1.713429E-09  1.018979E-09
       183  19  8.855725E+05  8.541409E+04  8.012839E+04 -8.482640E+04 -4.384208E+03  1.799516E+04
       183  20  1.014307E+06  1.166004E+05  1.102928E+05 -5.876347E+04 -1.333560E+03  2.539877E+04
       183  21  1.143603E+06  1.483810E+05  1.425857E+05 -8.483212E+04  1.713252E+03  3.273884E+04
       183  22  5.351610E+05  7.506529E+01  3.560101E+03 -8.478514E+04  2.584782E+03  1.798973E+04
       183  23  5.348742E+05 -5.587148E+01  6.018219E+03 -5.871794E+04  5.574427E+03  2.539532E+04
       183  24  5.351235E+05  3.983133E+02  1.056441E+04 -8.478476E+04  8.559620E+03  3.273728E+04
       183  25  1.848645E+05 -8.527211E+04 -7.301542E+04 -8.474389E+04  9.549892E+03  1.798431E+04
       183  26  5.565652E+04 -1.167274E+05 -9.826995E+04 -5.867240E+04  1.247716E+04  2.539187E+04
       183  27 -7.300959E+04 -1.476088E+05 -1.214787E+05 -8.473739E+04  1.539937E+04  3.273572E+04
       184   1  1.248438E+06  1.728817E+05  1.690739E+05 -8.328949E+04 -3.398130E+03 -3.720070E+04
       184   2  1.375847E+06  2.045217E+05  2.071614E+05 -5.944470E+04 -1.684441E+04 -4.421831E+04
       184   3  1.507592E+06  2.455506E+05  2.563844E+05 -8.788048E+04 -3.028632E+04 -4.966821E+04
       184   4  5.358790E+05 -5.390298E+02  1.378925E+04 -8.481859E+04 -1.070846E+04 -3.720054E+04
       184   5  5.338076E+05 -3.662269E+02  2.383424E+04 -5.867571E+04 -2.267048E+04 -4.422184E+04
       184   6  5.358095E+05  8.947622E+03  4.399735E+04 -8.481730E+04 -3.462541E+04 -4.967448E+04
       184   7 -1.762053E+05 -1.739934E+05 -1.415258E+05 -8.634584E+04 -1.801052E+04 -3.720035E+04
       184   8 -3.075681E+05 -2.053012E+05 -1.595353E+05 -5.790771E+04 -2.848876E+04 -4.422538E+04
       184   9 -4.350906E+05 -2.277182E+05 -1.684467E+05 -8.175893E+04 -3.895778E+04 -4.968080E+04
       184  10  1.248438E+06  1.728802E+05  1.690713E+05 -8.328959E+04 -2.538388E-10  2.865517E-10
       184  11  1.375846E+06  2.045196E+05  2.071572E+05 -5.944530E+04 -2.609884E-10 -1.891926E-10
       184  12  1.507591E+06  2.455477E+05  2.563780E+05 -8.788169E+04 -9.539413E-10 -2.210082E-10
       184  13  5.358785E+05 -5.405470E+02  1.378643E+04 -8.481891E+04 -5.553045E-10  5.284617E-10
       184  14  5.338066E+05 -3.684652E+02  2.382960E+04 -5.867651E+04 -1.807047E-09 -4.426961E-11
       184  15  5.358075E+05  8.944650E+03  4.399046E+04 -8.481869E+04 -2.916429E-10 -4.864997E-11
       184  16 -1.762060E+05 -1.739950E+05 -1.415290E+05 -8.634638E+04 -2.732544E-10  8.351878E-10
       184  17 -3.075695E+05 -2.053035E+05 -1.595405E+05 -5.790873E+04 -4.727670E-10 -2.964973E-10
       184  18 -4.350929E+05 -2.277213E+05 -1.684542E+05 -8.176049E+04  9.540127E-10 -5.321357E-11
       184  19  1.248438E+06  1.728817E+05  1.690739E+05 -8.328949E+04  3.398130E+03  3.720070E+04
       184  20  1.375847E+06  2.045217E+05  2.071614E+05 -5.944470E+04  1.684441E+04  4.421831E+04
       184  21  1.507592E+06  2.455506E+05  2.563844E+05 -8.788048E+04  3.028632E+04  4.966821E+04
       184  22  5.358790E+05 -5.390298E+02  1.378925E+04 -8.481859E+04  1.070846E+04  3.720054E+04
       184  23  5.338076E+05 -3.662269E+02  2.383424E+04 -5.867571E+04  2.267048E+04  4.422184E+04
       184  24  5.358095E+05  8.947622E+03  4.399735E+04 -8.481730E+04  3.462541E+04  4.967448E+04
       184  25 -1.762053E+05 -1.739934E+05 -1.415258E+05 -8.634584E+04  1.801052E+04  3.720035E+04
       184  26 -3.075681E+05 -2.053012E+05 -1.595353E+05 -5.790771E+04  2.848876E+04  4.422538E+04
       184  27 -4.350906E+05 -2.277182E+05 -1.684467E+05 -8.175893E+04  3.895778E+04  4.968080E+04
       185   1  1.622713E+06  2.535117E+05  2.897060E+05 -5.953637E+04 -2.797883E+04 -5.695998E+04
       185   2  1.726720E+06  2.948055E+05  3.621743E+05 -8.788421E+04 -1.111562E+05 -5.490173E+04
       185   3  1.884276E+06  5.048593E+05  5.310093E+05 -1.674288E+05 -1.943982E+05 -1.766901E+04
       185   4  5.455082E+05 -8.531126E+03  5.545251E+04 -8.453813E+04 -4.246178E+04 -5.697037E+04
       185   5  5.214928E+05  6.267514E+02  9.469282E+04 -5.901662E+04 -9.256547E+04 -5.490159E+04
       185   6  5.453733E+05  1.729778E+05  2.074617E+05 -8.468212E+04 -1.427117E+05 -1.764213E+04
       185   7 -5.306094E+05 -2.706484E+05 -1.788693E+05 -1.094961E+05 -5.691993E+04 -5.697960E+04
       185   8 -6.823790E+05 -2.936467E+05 -1.728772E+05 -3.020574E+04 -7.401023E+04 -5.489973E+04
       185   9 -7.918741E+05 -1.590073E+05 -1.162006E+05 -2.114359E+03 -9.113582E+04 -1.760149E+04
       185  10  1.622711E+06  2.535080E+05  2.896984E+05 -5.953766E+04 -4.455487E-10 -3.856985E-11
       185  11  1.726706E+06  2.947990E+05  3.621454E+05 -8.788912E+04 -6.633931E-10 -1.258004E-10
       185  12  1.884236E+06  5.048489E+05  5.309379E+05 -1.674315E+05  2.872835E-10 -2.533600E-10
       185  13  5.455054E+05 -8.535096E+03  5.544302E+04 -8.454008E+04 -3.742462E-10  3.541413E-10
       185  14  5.214828E+05  6.212158E+02  9.467107E+04 -5.902071E+04  1.614289E-09  1.081611E-09
       185  15  5.453514E+05  1.729720E+05  2.074229E+05 -8.468415E+04  5.134339E-10 -2.427875E-10
       185  16 -5.306138E+05 -2.706527E+05 -1.788815E+05 -1.094987E+05  5.867436E-10  2.497886E-10
       185  17 -6.823857E+05 -2.936514E+05 -1.728931E+05 -3.020901E+04  9.976669E-10 -7.095386E-11
       185  18 -7.918831E+05 -1.590099E+05 -1.162168E+05 -2.115651E+03 -2.570836E-10 -5.306237E-10
       185  19  1.622713E+06  2.535117E+05  2.897060E+05 -5.953637E+04  2.797883E+04  5.695998E+04
       185  20  1.726720E+06  2.948055E+05  3.621743E+05 -8.788421E+04  1.111562E+05  5.490173E+04
       185  21  1.884276E+06  5.048593E+05  5.310093E+05 -1.674288E+05  1.943982E+05  1.766901E+04
       185  22  5.455082E+05 -8.531126E+03  5.545251E+04 -8.453813E+04  4.246178E+04  5.697037E+04
       185  23  5.214928E+05  6.267514E+02  9.469282E+04 -5.901662E+04  9.256547E+04  5.490159E+04
       185  24  5.453733E+05  1.729778E+05  2.074617E+05 -8.468212E+04  1.427117E+05  1.764213E+04
       185  25 -5.306094E+05 -2.706484E+05 -1.788693E+05 -1.094961E+05  5.691993E+04  5.697960E+04
       185  26 -6.823790E+05 -2.936467E+05 -1.728772E+05 -3.020574E+04  7.401023E+04  5.489973E+04
       185  27 -7.918741E+05 -1.590073E+05 -1.162006E+05 -2.114359E+03  9.113582E+04  1.760149E+04
       186   1  3.432572E+05  1.232687E+06  3.536030E+05 -2.854491E+05  1.040153E+04  9.697208E+04
       186   2  1.646537E+05  8.466638E+05  1.967932E+05 -1.845351E+05  2.758585E+04  4.399451E+04
       186   3  6.989893E+04  4.879886E+05  9.525894E+04 -2.325520E+05  1.465374E+04 -9.014054E+03
       186   4  8.392186E+04  1.901589E+05  9.962978E+04 -2.435240E+05  1.047699E+04  6.680708E+04
       186   5  1.138670E+03  1.790500E+05  4.685355E+04 -1.691585E+05  2.759354E+04  4.209741E+04
       186   6 -2.633584E+03  1.903114E+05  2.979850E+04 -2.437179E+05  1.458358E+04  1.732469E+04
       186   7 -1.754867E+05 -8.513735E+05 -1.544181E+05 -2.016686E+05  1.054846E+04  3.669245E+04
       186   8 -1.624060E+05 -4.881489E+05 -1.031143E+05 -1.537982E+05  2.760116E+04  4.020231E+04
       186   9 -7.517117E+04 -1.072811E+05 -3.566468E+04 -2.548785E+05  1.451245E+04  4.365096E+04
       186  10  3.432546E+05  1.232677E+06  3.535852E+05 -2.854499E+05 -2.224784E-10  3.346031E-09
       186  11  1.646524E+05  8.466615E+05  1.967882E+05 -1.845361E+05 -5.928361E-10 -7.982517E-09
       186  12  6.989867E+04  4.879884E+05  9.525838E+04 -2.325519E+05  1.846400E-09 -1.492113E-08
       186  13  8.392054E+04  1.901541E+05  9.962118E+04 -2.435246E+05  1.219275E-09  1.067527E-09
       186  14  1.137377E+03  1.790479E+05  4.684879E+04 -1.691594E+05  8.407599E-10  7.107932E-10
       186  15 -2.633893E+03  1.903110E+05  2.979753E+04 -2.437182E+05  2.384945E-09  6.831553E-10
       186  16 -1.754872E+05 -8.513750E+05 -1.544209E+05 -2.016689E+05  7.136341E-11 -3.596028E-09
       186  17 -1.624073E+05 -4.881509E+05 -1.031188E+05 -1.537991E+05  2.828895E-09  5.240208E-09
       186  18 -7.517190E+04 -1.072833E+05 -3.566866E+04 -2.548790E+05  1.893048E-09  1.512302E-08
       186  19  3.432572E+05  1.232687E+06  3.536030E+05 -2.854491E+05 -1.040153E+04 -9.697208E+04
       186  20  1.646537E+05  8.466638E+05  1.967932E+05 -1.845351E+05 -2.758585E+04 -4.399451E+04
       186  21  6.989893E+04  4.879886E+05  9.525894E+04 -2.325520E+05 -1.465374E+04  9.014054E+03
       186  22  8.392186E+04  1.901589E+05  9.962978E+04 -2.435240E+05 -1.047699E+04 -6.680708E+04
       186  23  1.138670E+03  1.790500E+05  4.685355E+04 -1.691585E+05 -2.759354E+04 -4.209741E+04
       186  24 -2.633584E+03  1.903114E+05  2.979850E+04 -2.437179E+05 -1.458358E+04 -1.732469E+04
       186  25 -1.754867E+05 -8.513735E+05 -1.544181E+05 -2.016686E+05 -1.054846E+04 -3.669245E+04
       186  26 -1.624060E+05 -4.881489E+05 -1.031143E+05 -1.537982E+05 -2.760116E+04 -4.020231E+04
       186  27 -7.517117E+04 -1.072811E+05 -3.566468E+04 -2.548785E+05 -1.451245E+04 -4.365096E+04
       187   1  4.856872E+03  1.832814E+05  2.512884E+04 -2.460401E+05 -5.353599E+02 -5.427276E+03
       187   2 -9.064495E+04 -1.898998E+05 -6.244115E+04 -1.682723E+05 -1.961510E+04 -1.431389E+04
       187   3 -1.782271E+05 -5.605731E+05 -1.424461E+05 -2.407463E+05 -3.784261E+04 -2.318434E+04
       187   4  5.435051E+03  1.859180E+05  2.545039E+04 -2.439570E+05 -5.850695E+02  1.285452E+04
       187   5  5.927415E+02  1.846185E+05  1.921419E+04 -1.688415E+05 -1.965855E+04  3.163706E+03
       187   6  3.816302E+03  1.858359E+05  2.110614E+04 -2.439609E+05 -3.788045E+04 -6.516069E+03
       187   7  6.013425E+03  1.885553E+05  2.577319E+04 -2.418738E+05 -6.346562E+02  3.113639E+04
       187   8  9.182127E+04  5.592688E+05  1.008622E+05 -1.694110E+05 -1.970202E+04  2.065171E+04
       187   9  1.858227E+05  9.327672E+05  1.846256E+05 -2.471790E+05 -3.791843E+04  1.017201E+04
       187  10  4.856864E+03  1.832814E+05  2.512879E+04 -2.460401E+05  6.638376E-10  1.412218E-08
       187  11 -9.064542E+04 -1.899001E+05 -6.244226E+04 -1.682725E+05 -1.666482E-10  6.086706E-09
       187  12 -1.782288E+05 -5.605740E+05 -1.424498E+05 -2.407470E+05 -9.343538E-10 -2.585515E-09
       187  13  5.435006E+03  1.859178E+05  2.545008E+04 -2.439570E+05  1.278928E-09  1.238002E-09
       187  14  5.923238E+02  1.846183E+05  1.921344E+04 -1.688415E+05 -1.883016E-10  6.432616E-10
       187  15  3.814750E+03  1.858355E+05  2.110336E+04 -2.439611E+05 -7.940472E-10  6.487500E-10
       187  16  6.013165E+03  1.885542E+05  2.577137E+04 -2.418738E+05  1.538563E-09 -1.445965E-08
       187  17  9.182074E+04  5.592683E+05  1.008607E+05 -1.694107E+05 -9.974099E-10 -9.099163E-09
       187  18  1.858211E+05  9.327667E+05  1.846227E+05 -2.471787E+05  1.122785E-10  2.915243E-09
       187  19  4.856872E+03  1.832814E+05  2.512884E+04 -2.460401E+05  5.353599E+02  5.427276E+03
       187  20 -9.064495E+04 -1.898998E+05 -6.244115E+04 -1.682723E+05  1.961510E+04  1.431389E+04
       187  21 -1.782271E+05 -5.605731E+05 -1.424461E+05 -2.407463E+05  3.784261E+04  2.318434E+04
       187  22  5.435051E+03  1.859180E+05  2.545039E+04 -2.439570E+05  5.850695E+02 -1.285452E+04
       187  23  5.927415E+02  1.846185E+05  1.921419E+04 -1.688415E+05  1.965855E+04 -3.163706E+03
       187  24  3.816302E+03  1.858359E+05  2.110614E+04 -2.439609E+05  3.788045E+04  6.516069E+03
       187  25  6.013425E+03  1.885553E+05  2.577319E+04 -2.418738E+05  6.346562E+02 -3.113639E+04
       187  26  9.182127E+04  5.592688E+05  1.008622E+05 -1.694110E+05  1.970202E+04 -2.065171E+04
       187  27  1.858227E+05  9.327672E+05  1.846256E+05 -2.471790E+05  3.791843E+04 -1.017201E+04
       188   1 -2.568822E+05 -8.580882E+05 -2.051722E+05 -2.500655E+05 -5.450894E+04 -4.059810E+04
       188   2 -3.459879E+05 -1.234778E+06 -2.818616E+05 -1.575018E+05 -6.251682E+04 -1.250414E+04
       188   3 -3.867417E+05 -1.602743E+06 -3.647561E+05 -2.131707E+05 -2.127979E+04  1.563473E+04
       188   4 -1.736734E+03  1.888364E+05  2.338266E+04 -2.435349E+05 -5.457280E+04 -1.017211E+04
       188   5  4.635952E+02  1.804013E+05  3.405821E+04 -1.693854E+05 -6.247849E+04 -2.812558E+04
       188   6  5.895914E+04  1.885225E+05  7.050194E+04 -2.434384E+05 -2.119120E+04 -4.601734E+04
       188   7  2.533364E+05  1.236791E+06  2.518749E+05 -2.369923E+05 -5.463597E+04  2.030460E+04
       188   8  3.467796E+05  1.597450E+06  3.498532E+05 -1.812954E+05 -6.243962E+04 -4.378225E+04
       188   9  5.044293E+05  1.982731E+06  5.055426E+05 -2.737922E+05 -2.109674E+04 -1.078470E+05
       188  10 -2.568858E+05 -8.580908E+05 -2.051809E+05 -2.500673E+05 -9.282989E-10  1.391309E-09
       188  11 -3.459922E+05 -1.234779E+06 -2.818693E+05 -1.575025E+05  9.538447E-10 -5.737728E-11
       188  12 -3.867423E+05 -1.602743E+06 -3.647574E+05 -2.131705E+05  4.049721E-10 -6.841031E-10
       188  13 -1.739960E+03  1.888355E+05  2.337686E+04 -2.435353E+05  4.015386E-10  1.090186E-09
       188  14  4.591902E+02  1.803994E+05  3.404939E+04 -1.693868E+05  1.303444E-10  4.505157E-10
       188  15  5.895809E+04  1.885201E+05  7.049711E+04 -2.434391E+05  1.372109E-10  2.741649E-10
       188  16  2.533331E+05  1.236789E+06  2.518686E+05 -2.369914E+05 -8.388446E-10 -1.478791E-09
       188  17  3.467749E+05  1.597447E+06  3.498423E+05 -1.812976E+05  7.908730E-10 -1.968207E-09
       188  18  5.044257E+05  1.982719E+06  5.055200E+05 -2.737940E+05  2.971875E-10  6.003596E-10
       188  19 -2.568822E+05 -8.580882E+05 -2.051722E+05 -2.500655E+05  5.450894E+04  4.059810E+04
       188  20 -3.459879E+05 -1.234778E+06 -2.818616E+05 -1.575018E+05  6.251682E+04  1.250414E+04
       188  21 -3.867417E+05 -1.602743E+06 -3.647561E+05 -2.131707E+05  2.127979E+04 -1.563473E+04
       188  22 -1.736734E+03  1.888364E+05  2.338266E+04 -2.435349E+05  5.457280E+04  1.017211E+04
       188  23  4.635952E+02  1.804013E+05  3.405821E+04 -1.693854E+05  6.247849E+04  2.812558E+04
       188  24  5.895914E+04  1.885225E+05  7.050194E+04 -2.434384E+05  2.119120E+04  4.601734E+04
       188  25  2.533364E+05  1.236791E+06  2.518749E+05 -2.369923E+05  5.463597E+04 -2.030460E+04
       188  26  3.467796E+05  1.597450E+06  3.498532E+05 -1.812954E+05  6.243962E+04  4.378225E+04
       188  27  5.044293E+05  1.982731E+06  5.055426E+05 -2.737922E+05  2.109674E+04  1.078470E+05
       189   1 -2.634542E+06 -1.003536E+06 -6.152515E+05 -9.665552E+05 -2.584343E+05 -8.016032E+04
       189   2 -2.542693E+06 -6.450729E+05 -3.814364E+05 -9.445825E+05 -1.668503E+05 -9.009519E+03
       189   3 -2.532628E+06 -5.663506E+05 -2.940974E+05 -8.893088E+05 -6.381593E+04  3.182070E+04
       189   4 -1.659367E+06 -5.189659E+05 -3.320223E+05 -5.808659E+05 -2.173686E+05 -6.475011E+04
       189   5 -1.602940E+06 -2.541615E+05 -1.441464E+05 -6.454925E+05 -1.521630E+05 -3.500709E+03
       189   6 -1.622904E+06 -2.636433E+05 -8.163011E+04 -6.768650E+05 -7.552686E+04  2.741529E+04
       189   7 -6.832249E+05 -3.410738E+04 -4.887559E+04 -1.945553E+05 -1.762318E+05 -4.929358E+04
       189   8 -6.623073E+05  1.368717E+05  9.307382E+04 -3.459678E+05 -1.374513E+05  2.019696E+03
       189   9 -7.123632E+05  3.908126E+04  1.307802E+05 -4.641559E+05 -8.725647E+04  2.300460E+04
       189  10 -2.634616E+06 -1.003561E+06 -6.153897E+05 -9.665719E+05 -3.555996E-12 -3.085028E-10
       189  11 -2.542723E+06 -6.450805E+05 -3.814891E+05 -9.445837E+05  7.203892E-10 -8.931135E-12
       189  12 -2.532632E+06 -5.663527E+05 -2.941070E+05 -8.893071E+05  4.454637E-10  4.939293E-10
       189  13 -1.659419E+06 -5.189831E+05 -3.321193E+05 -5.808773E+05  5.353765E-10 -3.660592E-12
       189  14 -1.602965E+06 -2.541677E+05 -1.441900E+05 -6.454930E+05  2.194676E-09  1.887653E-10
       189  15 -1.622910E+06 -2.636456E+05 -8.164226E+04 -6.768633E+05  5.778606E-10  1.536942E-10
       189  16 -6.832589E+05 -3.411834E+04 -4.893859E+04 -1.945623E+05 -2.394290E-10  2.694100E-10
       189  17 -6.623276E+05  1.368666E+05  9.303827E+04 -3.459675E+05 -4.148172E-11 -6.638283E-10
       189  18 -7.123715E+05  3.907864E+04  1.307649E+05 -4.641543E+05  6.213498E-11 -2.780375E-10
       189  19 -2.634542E+06 -1.003536E+06 -6.152515E+05 -9.665552E+05  2.584343E+05  8.016032E+04
       189  20 -2.542693E+06 -6.450729E+05 -3.814364E+05 -9.445825E+05  1.668503E+05  9.009519E+03
       189  21 -2.532628E+06 -5.663506E+05 -2.940974E+05 -8.893088E+05  6.381593E+04 -3.182070E+04
       189  22 -1.659367E+06 -5.189659E+05 -3.320223E+05 -5.808659E+05  2.173686E+05  6.475011E+04
       189  23 -1.602940E+06 -2.541615E+05 -1.441464E+05 -6.454925E+05  1.521630E+05  3.500709E+03
       189  24 -1.622904E+06 -2.636433E+05 -8.163011E+04 -6.768650E+05  7.552686E+04 -2.741529E+04
       189  25 -6.832249E+05 -3.410738E+04 -4.887559E+04 -1.945553E+05  1.762318E+05  4.929358E+04
       189  26 -6.623073E+05  1.368717E+05  9.307382E+04 -3.459678E+05  1.374513E+05 -2.019696E+03
       189  27 -7.123632E+05  3.908126E+04  1.307802E+05 -4.641559E+05  8.725647E+04 -2.300460E+04
       190   1 -2.416398E+06 -5.933790E+05 -2.601567E+05 -8.881457E+05 -6.019772E+04  2.634237E+04
       190   2 -2.338128E+06 -5.273491E+05 -2.061769E+05 -8.482718E+05 -4.071162E+04  2.937556E+04
       190   3 -2.239358E+06 -5.050706E+05 -1.697709E+05 -8.375195E+05 -2.070013E+04  3.100480E+04
       190   4 -1.612109E+06 -2.884526E+05 -6.464314E+04 -6.620970E+05 -6.290890E+04  2.531815E+04
       190   5 -1.621386E+06 -2.591924E+05 -3.324139E+04 -6.503404E+05 -4.462745E+04  2.790127E+04
       190   6 -1.609925E+06 -2.734302E+05 -1.843848E+04 -6.677076E+05 -2.582375E+04  2.907996E+04
       190   7 -8.071733E+05  1.652684E+04  1.308232E+05 -4.357773E+05 -6.562390E+04  2.429243E+04
       190   8 -9.041324E+05  9.002422E+03  1.396569E+05 -4.521993E+05 -4.854821E+04  2.642511E+04
       190   9 -9.800977E+05 -4.176444E+04  1.328651E+05 -4.977396E+05 -3.095305E+04  2.715304E+04
       190  10 -2.416403E+06 -5.933807E+05 -2.601648E+05 -8.881444E+05  1.225643E-09  5.823723E-10
       190  11 -2.338130E+06 -5.273505E+05 -2.061817E+05 -8.482709E+05  4.753302E-10  3.683079E-10
       190  12 -2.239359E+06 -5.050717E+05 -1.697735E+05 -8.375189E+05  3.006202E-10  1.798020E-10
       190  13 -1.612114E+06 -2.884543E+05 -6.465180E+04 -6.620957E+05 -1.299573E-10  9.423467E-11
       190  14 -1.621389E+06 -2.591938E+05 -3.324660E+04 -6.503394E+05 -1.458515E-09  3.300529E-10
       190  15 -1.609926E+06 -2.734313E+05 -1.844132E+04 -6.677070E+05 -3.435766E-10  2.676555E-10
       190  16 -8.071780E+05  1.652505E+04  1.308140E+05 -4.357760E+05 -2.371030E-11 -2.027532E-10
       190  17 -9.041351E+05  9.001040E+03  1.396512E+05 -4.521983E+05 -4.401956E-10  3.520561E-10
       190  18 -9.800989E+05 -4.176549E+04  1.328620E+05 -4.977389E+05 -4.486244E-10  4.293881E-10
       190  19 -2.416398E+06 -5.933790E+05 -2.601567E+05 -8.881457E+05  6.019772E+04 -2.634237E+04
       190  20 -2.338128E+06 -5.273491E+05 -2.061769E+05 -8.482718E+05  4.071162E+04 -2.937556E+04
       190  21 -2.239358E+06 -5.050706E+05 -1.697709E+05 -8.375195E+05  2.070013E+04 -3.100480E+04
       190  22 -1.612109E+06 -2.884526E+05 -6.464314E+04 -6.620970E+05  6.290890E+04 -2.531815E+04
       190  23 -1.621386E+06 -2.591924E+05 -3.324139E+04 -6.503404E+05  4.462745E+04 -2.790127E+04
       190  24 -1.609925E+06 -2.734302E+05 -1.843848E+04 -6.677076E+05  2.582375E+04 -2.907996E+04
       190  25 -8.071733E+05  1.652684E+04  1.308232E+05 -4.357773E+05  6.562390E+04 -2.429243E+04
       190  26 -9.041324E+05  9.002422E+03  1.396569E+05 -4.521993E+05  4.854821E+04 -2.642511E+04
       190  27 -9.800977E+05 -4.176444E+04  1.328651E+05 -4.977396E+05  3.095305E+04 -2.715304E+04
       191   1 -2.159908E+06 -4.797521E+05 -1.463522E+05 -8.177838E+05 -1.722544E+04  2.849902E+04
       191   2 -2.081770E+06 -4.300002E+05 -1.180108E+05 -7.760008E+05 -1.128028E+04  2.448227E+04
       191   3 -1.975449E+06 -4.101537E+05 -9.279558E+04 -7.672977E+05 -5.304350E+03  2.037384E+04
       191   4 -1.608886E+06 -2.749304E+05 -1.402864E+04 -6.668798E+05 -2.197628E+04  2.671533E+04
       191   5 -1.622905E+06 -2.595471E+05 -7.628449E+03 -6.504969E+05 -1.610772E+04  2.267156E+04
       191   6 -1.608733E+06 -2.740526E+05 -4.291312E+03 -6.671960E+05 -1.020901E+04  1.853592E+04
       191   7 -1.057564E+06 -7.008855E+04  1.182721E+05 -5.158544E+05 -2.673169E+04  2.492993E+04
       191   8 -1.163830E+06 -8.907937E+04  1.027385E+05 -5.249084E+05 -2.093906E+04  2.085938E+04
       191   9 -1.241883E+06 -1.379417E+05  8.420365E+04 -5.670398E+05 -1.511687E+04  1.669682E+04
       191  10 -2.159909E+06 -4.797530E+05 -1.463543E+05 -8.177834E+05  3.289933E-10 -2.881731E-11
       191  11 -2.081770E+06 -4.300009E+05 -1.180121E+05 -7.760006E+05  5.287887E-10 -1.761412E-10
       191  12 -1.975449E+06 -4.101541E+05 -9.279641E+04 -7.672976E+05 -4.098209E-10 -3.737604E-10
       191  13 -1.608887E+06 -2.749313E+05 -1.403088E+04 -6.668794E+05  8.326545E-10  3.524452E-11
       191  14 -1.622905E+06 -2.595477E+05 -7.629902E+03 -6.504966E+05  1.435541E-09  1.693115E-10
       191  15 -1.608734E+06 -2.740530E+05 -4.292153E+03 -6.671958E+05 -5.419963E-10  1.174281E-11
       191  16 -1.057565E+06 -7.008940E+04  1.182696E+05 -5.158538E+05 -2.274637E-10 -1.326405E-10
       191  17 -1.163831E+06 -8.907995E+04  1.027369E+05 -5.249080E+05  7.736251E-10  1.093171E-10
       191  18 -1.241883E+06 -1.379420E+05  8.420270E+04 -5.670396E+05  5.507187E-10  9.607116E-11
       191  19 -2.159908E+06 -4.797521E+05 -1.463522E+05 -8.177838E+05  1.722544E+04 -2.849902E+04
       191  20 -2.081770E+06 -4.300002E+05 -1.180108E+05 -7.760008E+05  1.128028E+04 -2.448227E+04
       191  21 -1.975449E+06 -4.101537E+05 -9.279558E+04 -7.672977E+05  5.304350E+03 -2.037384E+04
       191  22 -1.608886E+06 -2.749304E+05 -1.402864E+04 -6.668798E+05  2.197628E+04 -2.671533E+04
       191  23 -1.622905E+06 -2.595471E+05 -7.628449E+03 -6.504969E+05  1.610772E+04 -2.267156E+04
       191  24 -1.608733E+06 -2.740526E+05 -4.291312E+03 -6.671960E+05  1.020901E+04 -1.853592E+04
       191  25 -1.057564E+06 -7.008855E+04  1.182721E+05 -5.158544E+05  2.673169E+04 -2.492993E+04
       191  26 -1.163830E+06 -8.907937E+04  1.027385E+05 -5.249084E+05  2.093906E+04 -2.085938E+04
       191  27 -1.241883E+06 -1.379417E+05  8.420365E+04 -5.670398E+05  1.511687E+04 -1.669682E+04
       192   1 -1.897316E+06 -3.813440E+05 -7.242954E+04 -7.461689E+05 -3.454638E+03  1.733948E+04
       192   2 -1.818516E+06 -3.320495E+05 -4.903292E+04 -7.038472E+05 -3.211592E+02  1.210686E+04
       192   3 -1.710610E+06 -3.120719E+05 -2.641640E+04 -6.951116E+05  2.816539E+03  6.858265E+03
       192   4 -1.608554E+06 -2.741820E+05 -3.305911E+03 -6.672065E+05 -8.359238E+03  1.550235E+04
       192   5 -1.623094E+06 -2.594920E+05 -2.039049E+03 -6.504220E+05 -5.239352E+03  1.026537E+04
       192   6 -1.608533E+06 -2.741158E+05 -1.540854E+03 -6.672261E+05 -2.115433E+03  5.012393E+03
       192   7 -1.319710E+06 -1.670142E+05  6.581176E+04 -5.882106E+05 -1.326633E+04  1.366430E+04
       192   8 -1.427634E+06 -1.869320E+05  4.495199E+04 -5.969816E+05 -1.015922E+04  8.423259E+03
       192   9 -1.506447E+06 -2.361592E+05  2.333387E+04 -6.393365E+05 -7.048266E+03  3.166199E+03
       192  10 -1.897316E+06 -3.813443E+05 -7.243013E+04 -7.461689E+05 -4.179417E-10 -4.504113E-10
       192  11 -1.818516E+06 -3.320497E+05 -4.903320E+04 -7.038472E+05 -3.677570E-10 -3.555101E-10
       192  12 -1.710610E+06 -3.120719E+05 -2.641651E+04 -6.951116E+05 -4.629815E-10 -3.229943E-10
       192  13 -1.608554E+06 -2.741823E+05 -3.306493E+03 -6.672064E+05 -1.968904E-10 -3.589627E-10
       192  14 -1.623094E+06 -2.594921E+05 -2.039298E+03 -6.504219E+05  3.744694E-10  1.130107E-10
       192  15 -1.608533E+06 -2.741158E+05 -1.540909E+03 -6.672261E+05 -3.601732E-10 -6.159115E-10
       192  16 -1.319710E+06 -1.670144E+05  6.581107E+04 -5.882104E+05  5.586628E-10  3.847740E-10
       192  17 -1.427634E+06 -1.869321E+05  4.495166E+04 -5.969815E+05  7.638584E-10  2.795668E-10
       192  18 -1.506447E+06 -2.361592E+05  2.333376E+04 -6.393365E+05  9.587841E-11 -5.178759E-10
       192  19 -1.897316E+06 -3.813440E+05 -7.242954E+04 -7.461689E+05  3.454638E+03 -1.733948E+04
       192  20 -1.818516E+06 -3.320495E+05 -4.903292E+04 -7.038472E+05  3.211592E+02 -1.210686E+04
       192  21 -1.710610E+06 -3.120719E+05 -2.641640E+04 -6.951116E+05 -2.816539E+03 -6.858265E+03
       192  22 -1.608554E+06 -2.741820E+05 -3.305911E+03 -6.672065E+05  8.359238E+03 -1.550235E+04
       192  23 -1.623094E+06 -2.594920E+05 -2.039049E+03 -6.504220E+05  5.239352E+03 -1.026537E+04
       192  24 -1.608533E+06 -2.741158E+05 -1.540854E+03 -6.672261E+05  2.115433E+03 -5.012393E+03
       192  25 -1.319710E+06 -1.670142E+05  6.581176E+04 -5.882106E+05  1.326633E+04 -1.366430E+04
       192  26 -1.427634E+06 -1.869320E+05  4.495199E+04 -5.969816E+05  1.015922E+04 -8.423259E+03
       192  27 -1.506447E+06 -2.361592E+05  2.333387E+04 -6.393365E+05  7.048266E+03 -3.166199E+03
       193   1 -1.632169E+06 -2.828665E+05 -6.869511E+03 -6.737436E+05  4.302476E+03  3.669158E+03
       193   2 -1.553183E+06 -2.335323E+05  1.495502E+04 -6.313132E+05  7.330553E+03 -1.628598E+03
       193   3 -1.445030E+06 -2.135638E+05  3.608173E+04 -6.225455E+05  1.035675E+04 -6.919204E+03
       193   4 -1.608519E+06 -2.741295E+05 -1.509050E+03 -6.672420E+05 -6.331592E+02  1.822065E+03
       193   5 -1.623101E+06 -2.594637E+05 -1.851398E+03 -6.504024E+05  2.400546E+03 -3.473883E+03
       193   6 -1.608529E+06 -2.741666E+05 -2.896323E+03 -6.672300E+05  5.432202E+03 -8.762693E+03
       193   7 -1.584868E+06 -2.653924E+05  3.851514E+03 -6.607401E+05 -5.569024E+03 -2.511455E+01
       193   8 -1.693015E+06 -2.853949E+05 -1.865812E+04 -6.694898E+05 -2.528869E+03 -5.318947E+03
       193   9 -1.772001E+06 -3.347676E+05 -4.187620E+04 -7.119039E+05  5.090681E+02 -1.060566E+04
       193  10 -1.632169E+06 -2.828665E+05 -6.869571E+03 -6.737436E+05 -1.290274E-09 -4.201032E-10
       193  11 -1.553183E+06 -2.335323E+05  1.495491E+04 -6.313132E+05 -3.901972E-10  8.801962E-10
       193  12 -1.445030E+06 -2.135639E+05  3.608143E+04 -6.225454E+05 -1.862732E-10 -4.169063E-11
       193  13 -1.608519E+06 -2.741295E+05 -1.509057E+03 -6.672420E+05 -7.936562E-10 -3.369398E-10
       193  14 -1.623101E+06 -2.594637E+05 -1.851431E+03 -6.504024E+05  1.391746E-09  1.812305E-09
       193  15 -1.608529E+06 -2.741667E+05 -2.896523E+03 -6.672300E+05  1.985944E-10  2.111866E-10
       193  16 -1.584868E+06 -2.653924E+05  3.851456E+03 -6.607401E+05  1.451035E-10  1.823460E-10
       193  17 -1.693015E+06 -2.853949E+05 -1.865819E+04 -6.694898E+05  1.498411E-10  1.907796E-09
       193  18 -1.772001E+06 -3.347677E+05 -4.187642E+04 -7.119039E+05 -4.297709E-10  2.171523E-10
       193  19 -1.632169E+06 -2.828665E+05 -6.869511E+03 -6.737436E+05 -4.302476E+03 -3.669158E+03
       193  20 -1.553183E+06 -2.335323E+05  1.495502E+04 -6.313132E+05 -7.330553E+03  1.628598E+03
       193  21 -1.445030E+06 -2.135638E+05  3.608173E+04 -6.225455E+05 -1.035675E+04  6.919204E+03
       193  22 -1.608519E+06 -2.741295E+05 -1.509050E+03 -6.672420E+05  6.331592E+02 -1.822065E+03
       193  23 -1.623101E+06 -2.594637E+05 -1.851398E+03 -6.504024E+05 -2.400546E+03  3.473883E+03
       193  24 -1.608529E+06 -2.741666E+05 -2.896323E+03 -6.672300E+05 -5.432202E+03  8.762693E+03
       193  25 -1.584868E+06 -2.653924E+05  3.851514E+03 -6.607401E+05  5.569024E+03  2.511455E+01
       193  26 -1.693015E+06 -2.853949E+05 -1.865812E+04 -6.694898E+05  2.528869E+03  5.318947E+03
       193  27 -1.772001E+06 -3.347676E+05 -4.187620E+04 -7.119039E+05 -5.090681E+02  1.060566E+04
       194   1 -1.366844E+06 -1.843994E+05  5.470784E+04 -6.013058E+05  1.213694E+04 -9.993716E+03
       194   2 -1.288272E+06 -1.352624E+05  7.387914E+04 -5.589602E+05  1.745705E+04 -1.438373E+04
       194   3 -1.181253E+06 -1.160508E+05  9.045050E+04 -5.499406E+05  2.275197E+04 -1.869689E+04
       194   4 -1.608668E+06 -2.740725E+05 -3.731208E+03 -6.672416E+05  7.206759E+03 -1.183979E+04
       194   5 -1.622944E+06 -2.594737E+05 -6.575699E+03 -6.504422E+05  1.259133E+04 -1.620694E+04
       194   6 -1.608794E+06 -2.748152E+05 -1.207206E+04 -6.669731E+05  1.795020E+04 -2.049738E+04
       194   7 -1.850432E+06 -3.637411E+05 -6.217414E+04 -7.331538E+05  2.278696E+03 -1.368507E+04
       194   8 -1.957504E+06 -3.836773E+05 -8.703864E+04 -7.418792E+05  7.728477E+03 -1.802908E+04
       194   9 -2.036156E+06 -4.335677E+05 -1.146084E+05 -7.839328E+05  1.315202E+04 -2.229653E+04
       194  10 -1.366845E+06 -1.843996E+05  5.470738E+04 -6.013057E+05 -1.750787E-10  1.080620E-10
       194  11 -1.288272E+06 -1.352627E+05  7.387818E+04 -5.589600E+05 -3.647737E-11  3.659944E-10
       194  12 -1.181253E+06 -1.160513E+05  9.044887E+04 -5.499402E+05  5.056451E-11  8.018193E-11
       194  13 -1.608668E+06 -2.740726E+05 -3.731569E+03 -6.672416E+05  1.345249E-10 -1.701095E-10
       194  14 -1.622944E+06 -2.594740E+05 -6.576490E+03 -6.504420E+05  6.389051E-10 -4.022470E-10
       194  15 -1.608794E+06 -2.748157E+05 -1.207345E+04 -6.669728E+05  2.675961E-10  1.421997E-10
       194  16 -1.850432E+06 -3.637413E+05 -6.217450E+04 -7.331537E+05  1.061513E-10  3.624448E-11
       194  17 -1.957504E+06 -3.836776E+05 -8.703936E+04 -7.418791E+05  6.507702E-10  6.480386E-10
       194  18 -2.036156E+06 -4.335682E+05 -1.146097E+05 -7.839326E+05  1.800647E-10  4.664125E-10
       194  19 -1.366844E+06 -1.843994E+05  5.470784E+04 -6.013058E+05 -1.213694E+04  9.993716E+03
       194  20 -1.288272E+06 -1.352624E+05  7.387914E+04 -5.589602E+05 -1.745705E+04  1.438373E+04
       194  21 -1.181253E+06 -1.160508E+05  9.045050E+04 -5.499406E+05 -2.275197E+04  1.869689E+04
       194  22 -1.608668E+06 -2.740725E+05 -3.731208E+03 -6.672416E+05 -7.206759E+03  1.183979E+04
       194  23 -1.622944E+06 -2.594737E+05 -6.575699E+03 -6.504422E+05 -1.259133E+04  1.620694E+04
       194  24 -1.608794E+06 -2.748152E+05 -1.207206E+04 -6.669731E+05 -1.795020E+04  2.049738E+04
       194  25 -1.850432E+06 -3.637411E+05 -6.217414E+04 -7.331538E+05 -2.278696E+03  1.368507E+04
       194  26 -1.957504E+06 -3.836773E+05 -8.703864E+04 -7.418792E+05 -7.728477E+03  1.802908E+04
       194  27 -2.036156E+06 -4.335677E+05 -1.146084E+05 -7.839328E+05 -1.315202E+04  2.229653E+04
       195   1 -1.103219E+06 -8.746626E+04  1.058373E+05 -5.312787E+05  2.657891E+04 -2.108534E+04
       195   2 -1.026317E+06 -3.663659E+04  1.149356E+05 -4.859472E+05  4.196946E+04 -2.129281E+04
       195   3 -9.271432E+05 -2.726224E+04  1.106152E+05 -4.705892E+05  5.689770E+04 -2.024957E+04
       195   4 -1.609681E+06 -2.735340E+05 -1.586096E+04 -6.676946E+05  2.144009E+04 -2.301318E+04
       195   5 -1.621640E+06 -2.591505E+05 -2.857527E+04 -6.502955E+05  3.790981E+04 -2.281834E+04
       195   6 -1.611555E+06 -2.864485E+05 -5.557504E+04 -6.628755E+05  5.391486E+04 -2.137312E+04
       195   7 -2.115889E+06 -4.595855E+05 -1.375779E+05 -8.040097E+05  1.630584E+04 -2.493935E+04
       195   8 -2.216610E+06 -4.816380E+05 -1.721117E+05 -8.144993E+05  3.385441E+04 -2.434226E+04
       195   9 -2.295499E+06 -5.455963E+05 -2.217992E+05 -8.549660E+05  5.093561E+04 -2.249528E+04
       195  10 -1.103220E+06 -8.746693E+04  1.058352E+05 -5.312782E+05  3.329537E-10  6.808110E-11
       195  11 -1.026319E+06 -3.663755E+04  1.149314E+05 -4.859464E+05 -4.149504E-11 -3.339312E-10
       195  12 -9.271468E+05 -2.726355E+04  1.106084E+05 -4.705883E+05 -7.822864E-10 -3.988155E-10
       195  13 -1.609682E+06 -2.735347E+05 -1.586282E+04 -6.676942E+05  1.658926E-10  3.096188E-10
       195  14 -1.621642E+06 -2.591514E+05 -2.857895E+04 -6.502948E+05  5.406016E-10 -7.172997E-11
       195  15 -1.611558E+06 -2.864497E+05 -5.558137E+04 -6.628746E+05 -7.189542E-10  2.014373E-10
       195  16 -2.115889E+06 -4.595862E+05 -1.375795E+05 -8.040094E+05 -5.704642E-10 -9.363581E-11
       195  17 -2.216611E+06 -4.816390E+05 -1.721149E+05 -8.144986E+05 -1.558984E-10 -2.225789E-11
       195  18 -2.295502E+06 -5.455976E+05 -2.218051E+05 -8.549650E+05  3.678198E-10  3.941733E-10
       195  19 -1.103219E+06 -8.746626E+04  1.058373E+05 -5.312787E+05 -2.657891E+04  2.108534E+04
       195  20 -1.026317E+06 -3.663659E+04  1.149356E+05 -4.859472E+05 -4.196946E+04  2.129281E+04
       195  21 -9.271432E+05 -2.726224E+04  1.106152E+05 -4.705892E+05 -5.689770E+04  2.024957E+04
       195  22 -1.609681E+06 -2.735340E+05 -1.586096E+04 -6.676946E+05 -2.144009E+04  2.301318E+04
       195  23 -1.621640E+06 -2.591505E+05 -2.857527E+04 -6.502955E+05 -3.790981E+04  2.281834E+04
       195  24 -1.611555E+06 -2.864485E+05 -5.557504E+04 -6.628755E+05 -5.391486E+04  2.137312E+04
       195  25 -2.115889E+06 -4.595855E+05 -1.375779E+05 -8.040097E+05 -1.630584E+04  2.493935E+04
       195  26 -2.216610E+06 -4.816380E+05 -1.721117E+05 -8.144993E+05 -3.385441E+04  2.434226E+04
       195  27 -2.295499E+06 -5.455963E+05 -2.217992E+05 -8.549660E+05 -5.093561E+04  2.249528E+04
       196   1 -8.341698E+05 -3.573889E+03  1.133761E+05 -4.918596E+05  7.601514E+04 -1.961245E+04
       196   2 -7.795172E+05  8.761582E+04  8.434906E+04 -3.840904E+05  1.184962E+05 -2.517708E+03
       196   3 -7.814866E+05 -5.641674E+04 -3.361398E+04 -2.527138E+05  1.507980E+05  4.166421E+04
       196   4 -1.620852E+06 -2.651058E+05 -7.017826E+04 -6.755531E+05  6.497983E+04 -2.375693E+04
       196   5 -1.605772E+06 -2.548371E+05 -1.239165E+05 -6.461414E+05  1.310883E+05  2.202900E+03
       196   6 -1.652134E+06 -4.846858E+05 -2.854421E+05 -5.931058E+05  1.870042E+05  5.525438E+04
       196   7 -2.406926E+06 -5.266255E+05 -2.537757E+05 -8.590490E+05  5.395968E+04 -2.789712E+04
       196   8 -2.431345E+06 -5.971963E+05 -3.322352E+05 -9.078576E+05  1.436621E+05  6.914828E+03
       196   9 -2.522004E+06 -9.127306E+05 -5.373332E+05 -9.330077E+05  2.231542E+05  6.880865E+04
       196  10 -8.341761E+05 -3.575854E+03  1.133645E+05 -4.918584E+05 -2.009571E-10  2.007324E-11
       196  11 -7.795323E+05  8.761204E+04  8.432263E+04 -3.840902E+05  3.977336E-11 -5.279964E-11
       196  12 -7.815115E+05 -5.642472E+04 -3.366004E+04 -2.527189E+05 -6.195702E-10  1.925735E-10
       196  13 -1.620857E+06 -2.651075E+05 -7.018727E+04 -6.755518E+05 -5.302709E-10  3.476400E-10
       196  14 -1.605791E+06 -2.548417E+05 -1.239489E+05 -6.461417E+05  5.969001E-10  2.754823E-10
       196  15 -1.652172E+06 -4.846985E+05 -2.855137E+05 -5.931142E+05  8.214325E-10  1.301943E-10
       196  16 -2.406930E+06 -5.266271E+05 -2.537826E+05 -8.590477E+05 -4.484361E-10  1.025679E-10
       196  17 -2.431367E+06 -5.972019E+05 -3.322742E+05 -9.078584E+05 -2.011643E-10 -2.000588E-10
       196  18 -2.522059E+06 -9.127491E+05 -5.374362E+05 -9.330201E+05 -1.657480E-10  1.020492E-10
       196  19 -8.341698E+05 -3.573889E+03  1.133761E+05 -4.918596E+05 -7.601514E+04  1.961245E+04
       196  20 -7.795172E+05  8.761582E+04  8.434906E+04 -3.840904E+05 -1.184962E+05  2.517708E+03
       196  21 -7.814866E+05 -5.641674E+04 -3.361398E+04 -2.527138E+05 -1.507980E+05 -4.166421E+04
       196  22 -1.620852E+06 -2.651058E+05 -7.017826E+04 -6.755531E+05 -6.497983E+04  2.375693E+04
       196  23 -1.605772E+06 -2.548371E+05 -1.239165E+05 -6.461414E+05 -1.310883E+05 -2.202900E+03
       196  24 -1.652134E+06 -4.846858E+05 -2.854421E+05 -5.931058E+05 -1.870042E+05 -5.525438E+04
       196  25 -2.406926E+06 -5.266255E+05 -2.537757E+05 -8.590490E+05 -5.395968E+04  2.789712E+04
       196  26 -2.431345E+06 -5.971963E+05 -3.322352E+05 -9.078576E+05 -1.436621E+05 -6.914828E+03
       196  27 -2.522004E+06 -9.127306E+05 -5.373332E+05 -9.330077E+05 -2.231542E+05 -6.880865E+04
       197   1 -1.850383E+05 -2.972589E+04  2.083584E+04  4.777787E+04  1.443979E+05  1.360647E+04
       197   2 -1.215685E+05 -2.250837E+05 -8.347374E+04 -3.688602E+03  1.048443E+05  4.232491E+04
       197   3 -1.036210E+03 -2.144187E+05 -1.104421E+05 -9.116464E+04  6.531418E+04  4.430626E+04
       197   4  8.348324E+05  2.231739E+05  2.674761E+05 -5.919395E+04  1.840470E+05  1.362534E+04
       197   5  8.042460E+05  1.060324E+03  1.221421E+05 -4.108482E+04  1.193768E+05  4.232643E+04
       197   6  8.349695E+05 -1.085858E+04  7.149016E+04 -5.897766E+04  5.473915E+04  4.429946E+04
       197   7  1.855682E+06  4.760419E+05  5.140538E+05 -1.663423E+05  2.237609E+05  1.363055E+04
       197   8  1.730863E+06  2.271519E+05  3.277062E+05 -7.853758E+04  1.339306E+05  4.232620E+04
       197   9  1.671632E+06  1.926591E+05  2.533815E+05 -2.674685E+04  4.415003E+04  4.429158E+04
       197  10 -1.850608E+05 -2.973169E+04  2.079629E+04  4.777629E+04 -5.226396E-10  3.571188E-10
       197  11 -1.215808E+05 -2.250886E+05 -8.349777E+04 -3.692177E+03 -5.581283E-10 -4.621500E-10
       197  12 -1.041319E+03 -2.144220E+05 -1.104538E+05 -9.116697E+04  3.411978E-10 -2.161067E-10
       197  13  8.347960E+05  2.231647E+05  2.674122E+05 -5.919597E+04 -1.065172E-09  2.720359E-10
       197  14  8.042303E+05  1.054580E+03  1.221120E+05 -4.108889E+04 -1.491352E-09 -9.057066E-10
       197  15  8.349658E+05 -1.086149E+04  7.148085E+04 -5.897962E+04 -1.385689E-09 -2.197689E-10
       197  16  1.855628E+06  4.760283E+05  5.139597E+05 -1.663447E+05  6.137477E-10  2.240506E-10
       197  17  1.730844E+06  2.271451E+05  3.276692E+05 -7.854214E+04  5.218077E-10  4.307393E-10
       197  18  1.671630E+06  1.926565E+05  2.533742E+05 -2.674842E+04 -1.783844E-09 -4.926828E-10
       197  19 -1.850383E+05 -2.972589E+04  2.083584E+04  4.777787E+04 -1.443979E+05 -1.360647E+04
       197  20 -1.215685E+05 -2.250837E+05 -8.347374E+04 -3.688602E+03 -1.048443E+05 -4.232491E+04
       197  21 -1.036210E+03 -2.144187E+05 -1.104421E+05 -9.116464E+04 -6.531418E+04 -4.430626E+04
       197  22  8.348324E+05  2.231739E+05  2.674761E+05 -5.919395E+04 -1.840470E+05 -1.362534E+04
       197  23  8.042460E+05  1.060324E+03  1.221421E+05 -4.108482E+04 -1.193768E+05 -4.232643E+04
       197  24  8.349695E+05 -1.085858E+04  7.149016E+04 -5.897766E+04 -5.473915E+04 -4.429946E+04
       197  25  1.855682E+06  4.760419E+05  5.140538E+05 -1.663423E+05 -2.237609E+05 -1.363055E+04
       197  26  1.730863E+06  2.271519E+05  3.277062E+05 -7.853758E+04 -1.339306E+05 -4.232620E+04
       197  27  1.671632E+06  1.926591E+05  2.533815E+05 -2.674685E+04 -4.415003E+04 -4.429158E+04
       198   1  6.033032E+04 -1.740561E+05 -1.099555E+05 -5.532430E+04  4.751056E+04  3.901057E+04
       198   2  1.485279E+05 -1.638811E+05 -1.155149E+05 -4.007043E+04  3.321300E+04  3.530325E+04
       198   3  2.416571E+05 -1.421645E+05 -1.088390E+05 -6.141369E+04  1.891033E+04  3.041052E+04
       198   4  8.224914E+05  1.163964E+04  5.673000E+04 -5.916498E+04  4.463699E+04  3.900563E+04
       198   5  8.199579E+05 -4.117379E+02  3.074437E+04 -4.086658E+04  2.921230E+04  3.529964E+04
       198   6  8.225378E+05 -7.335955E+02  1.776491E+04 -5.916245E+04  1.378455E+04  3.040872E+04
       198   7  1.585196E+06  1.972967E+05  2.233804E+05 -6.301045E+04  4.175991E+04  3.900072E+04
       198   8  1.491810E+06  1.630277E+05  1.769766E+05 -4.166360E+04  2.520731E+04  3.529603E+04
       198   9  1.403734E+06  1.406750E+05  1.443486E+05 -5.690905E+04  8.654043E+03  3.040688E+04
       198  10  6.032749E+04 -1.740583E+05 -1.099626E+05 -5.532580E+04 -1.030239E-09 -4.032749E-10
       198  11  1.485264E+05 -1.638827E+05 -1.155193E+05 -4.007138E+04 -1.261225E-09  2.266322E-10
       198  12  2.416565E+05 -1.421656E+05 -1.088414E+05 -6.141416E+04 -1.718171E-10 -4.715523E-10
       198  13  8.224888E+05  1.163747E+04  5.672340E+04 -5.916638E+04 -1.615895E-09 -3.416933E-10
       198  14  8.199567E+05 -4.133053E+02  3.074043E+04 -4.086741E+04 -1.077402E-09  1.120424E-10
       198  15  8.225373E+05 -7.346399E+02  1.776282E+04 -5.916279E+04  1.966930E-10 -1.421389E-10
       198  16  1.585194E+06  1.972946E+05  2.233743E+05 -6.301176E+04  1.432135E-09 -1.727255E-10
       198  17  1.491809E+06  1.630262E+05  1.769731E+05 -4.166431E+04 -5.776809E-10  1.701832E-11
       198  18  1.403734E+06  1.406740E+05  1.443468E+05 -5.690926E+04  7.199128E-11  1.729474E-10
       198  19  6.033032E+04 -1.740561E+05 -1.099555E+05 -5.532430E+04 -4.751056E+04 -3.901057E+04
       198  20  1.485279E+05 -1.638811E+05 -1.155149E+05 -4.007043E+04 -3.321300E+04 -3.530325E+04
       198  21  2.416571E+05 -1.421645E+05 -1.088390E+05 -6.141369E+04 -1.891033E+04 -3.041052E+04
       198  22  8.224914E+05  1.163964E+04  5.673000E+04 -5.916498E+04 -4.463699E+04 -3.900563E+04
       198  23  8.199579E+05 -4.117379E+02  3.074437E+04 -4.086658E+04 -2.921230E+04 -3.529964E+04
       198  24  8.225378E+05 -7.335955E+02  1.776491E+04 -5.916245E+04 -1.378455E+04 -3.040872E+04
       198  25  1.585196E+06  1.972967E+05  2.233804E+05 -6.301045E+04 -4.175991E+04 -3.900072E+04
       198  26  1.491810E+06  1.630277E+05  1.769766E+05 -4.166360E+04 -2.520731E+04 -3.529603E+04
       198  27  1.403734E+06  1.406750E+05  1.443486E+05 -5.690905E+04 -8.654043E+03 -3.040688E+04
       199   1  3.133550E+05 -1.231870E+05 -9.673858E+04 -5.931900E+04  1.578796E+04  2.728192E+04
       199   2  4.029956E+05 -1.019159E+05 -8.323914E+04 -4.109692E+04  1.199367E+04  2.216013E+04
       199   3  4.933520E+05 -7.996406E+04 -6.709001E+04 -5.926037E+04  8.196099E+03  1.699444E+04
       199   4  8.215774E+05  4.654208E+02  1.361171E+04 -5.911643E+04  1.101799E+04  2.728097E+04
       199   5  8.212327E+05 -1.275834E+02  7.744058E+03 -4.092453E+04  7.179360E+03  2.216032E+04
       199   6  8.216017E+05 -3.262018E+01  4.554831E+03 -5.911668E+04  3.337990E+03  1.699581E+04
       199   7  1.330042E+06  1.241007E+05  1.239467E+05 -5.891367E+04  6.244167E+03  2.728003E+04
       199   8  1.239634E+06  1.016491E+05  9.871687E+04 -4.075201E+04  2.361852E+03  2.216051E+04
       199   9  1.149952E+06  7.989167E+04  7.619327E+04 -5.897290E+04 -1.522654E+03  1.699718E+04
       199  10  3.133545E+05 -1.231878E+05 -9.674045E+04 -5.931935E+04 -9.693428E-10 -8.224074E-10
       199  11  4.029953E+05 -1.019165E+05 -8.324033E+04 -4.109713E+04 -5.018985E-10 -8.290372E-11
       199  12  4.933518E+05 -7.996439E+04 -6.709068E+04 -5.926049E+04 -6.977400E-10  7.177255E-10
       199  13  8.215771E+05  4.645887E+02  1.361008E+04 -5.911667E+04  5.891880E-10 -3.922542E-10
       199  14  8.212326E+05 -1.281248E+02  7.743038E+03 -4.092466E+04 -9.292540E-10 -1.129774E-10
       199  15  8.216016E+05 -3.293348E+01  4.554267E+03 -5.911673E+04  4.840182E-10  4.497717E-10
       199  16  1.330042E+06  1.240999E+05  1.239452E+05 -5.891381E+04 -6.034510E-10 -7.347556E-11
       199  17  1.239634E+06  1.016486E+05  9.871593E+04 -4.075205E+04 -1.251247E-09  4.265176E-12
       199  18  1.149952E+06  7.989136E+04  7.619272E+04 -5.897288E+04  1.304340E-09  6.713968E-10
       199  19  3.133550E+05 -1.231870E+05 -9.673858E+04 -5.931900E+04 -1.578796E+04 -2.728192E+04
       199  20  4.029956E+05 -1.019159E+05 -8.323914E+04 -4.109692E+04 -1.199367E+04 -2.216013E+04
       199  21  4.933520E+05 -7.996406E+04 -6.709001E+04 -5.926037E+04 -8.196099E+03 -1.699444E+04
       199  22  8.215774E+05  4.654208E+02  1.361171E+04 -5.911643E+04 -1.101799E+04 -2.728097E+04
       199  23  8.212327E+05 -1.275834E+02  7.744058E+03 -4.092453E+04 -7.179360E+03 -2.216032E+04
       199  24  8.216017E+05 -3.262018E+01  4.554831E+03 -5.911668E+04 -3.337990E+03 -1.699581E+04
       199  25  1.330042E+06  1.241007E+05  1.239467E+05 -5.891367E+04 -6.244167E+03 -2.728003E+04
       199  26  1.239634E+06  1.016491E+05  9.871687E+04 -4.075201E+04 -2.361852E+03 -2.216051E+04
       199  27  1.149952E+06  7.989167E+04  7.619327E+04 -5.897290E+04  1.522654E+03 -1.699718E+04
       200   1  5.654703E+05 -6.222576E+04 -5.189652E+04 -5.912545E+04  7.442596E+03  1.397991E+04
       200   2  6.550563E+05 -4.048288E+04 -3.394107E+04 -4.097762E+04  6.332058E+03  8.816552E+03
       200   3  7.447839E+05 -1.866759E+04 -1.525248E+04 -5.906951E+04  5.220292E+03  3.654786E+03
       200   4  8.214824E+05  2.395655E+01  3.536141E+03 -5.908444E+04  2.605686E+03  1.398177E+04
       200   5  8.214201E+05 -9.579192E-01  2.241132E+03 -4.096488E+04  1.495917E+03  8.818858E+03
       200   6  8.214916E+05  4.679246E+01  1.678658E+03 -5.908446E+04  3.850759E+02  3.657564E+03
       200   7  1.077556E+06  6.226936E+04  5.896500E+04 -5.904340E+04 -2.233189E+03  1.398364E+04
       200   8  9.878098E+05  4.047914E+04  3.842176E+04 -4.095213E+04 -3.341502E+03  8.821163E+03
       200   9  8.982047E+05  1.876080E+04  1.860952E+04 -5.909941E+04 -4.450730E+03  3.660342E+03
       200  10  5.654702E+05 -6.222598E+04 -5.189700E+04 -5.912553E+04 -1.394527E-10  5.581647E-10
       200  11  6.550562E+05 -4.048297E+04 -3.394129E+04 -4.097766E+04 -6.433596E-11  1.339632E-10
       200  12  7.447839E+05 -1.866762E+04 -1.525256E+04 -5.906953E+04 -1.687868E-09  4.224346E-10
       200  13  8.214823E+05  2.374472E+01  3.535761E+03 -5.908446E+04 -8.435483E-10  8.126803E-10
       200  14  8.214201E+05 -1.042066E+00  2.240981E+03 -4.096489E+04 -6.598651E-10 -6.193589E-10
       200  15  8.214916E+05  4.677805E+01  1.678632E+03 -5.908446E+04 -9.190171E-10 -2.485352E-10
       200  16  1.077556E+06  6.226914E+04  5.896463E+04 -5.904337E+04  2.971213E-10 -1.711889E-10
       200  17  9.878098E+05  4.047905E+04  3.842160E+04 -4.095211E+04 -7.184577E-10 -3.210752E-10
       200  18  8.982047E+05  1.876078E+04  1.860946E+04 -5.909940E+04  1.116244E-09 -6.199416E-10
       200  19  5.654703E+05 -6.222576E+04 -5.189652E+04 -5.912545E+04 -7.442596E+03 -1.397991E+04
       200  20  6.550563E+05 -4.048288E+04 -3.394107E+04 -4.097762E+04 -6.332058E+03 -8.816552E+03
       200  21  7.447839E+05 -1.866759E+04 -1.525248E+04 -5.906951E+04 -5.220292E+03 -3.654786E+03
       200  22  8.214824E+05  2.395655E+01  3.536141E+03 -5.908444E+04 -2.605686E+03 -1.398177E+04
       200  23  8.214201E+05 -9.579192E-01  2.241132E+03 -4.096488E+04 -1.495917E+03 -8.818858E+03
       200  24  8.214916E+05  4.679246E+01  1.678658E+03 -5.908446E+04 -3.850759E+02 -3.657564E+03
       200  25  1.077556E+06  6.226936E+04  5.896500E+04 -5.904340E+04  2.233189E+03 -1.398364E+04
       200  26  9.878098E+05  4.047914E+04  3.842176E+04 -4.095213E+04  3.341502E+03 -8.821163E+03
       200  27  8.982047E+05  1.876080E+04  1.860952E+04 -5.909941E+04  4.450730E+03 -3.660342E+03
       201   1  8.168658E+05 -1.026571E+03  8.430773E+02 -5.908571E+04  4.920151E+03  6.515654E+02
       201   2  9.064368E+05  2.069333E+04  2.029183E+04 -4.096472E+04  4.023931E+03 -4.507662E+03
       201   3  9.961074E+05  4.247482E+04  4.032817E+04 -5.906288E+04  3.128147E+03 -9.666810E+03
       201   4  8.214839E+05  4.712621E+01  1.597691E+03 -5.908009E+04  8.553704E+01  6.544123E+02
       201   5  8.214349E+05  1.260681E+01  1.807486E+03 -4.097035E+04 -8.108068E+02 -4.505064E+03
       201   6  8.214792E+05  4.052420E+01  2.605616E+03 -5.908007E+04 -1.706590E+03 -9.664432E+03
       201   7  8.261022E+05  1.120835E+03  2.352392E+03 -5.907446E+04 -4.749111E+03  6.572590E+02
       201   8  7.364397E+05 -2.066858E+04 -1.667720E+04 -4.097598E+04 -5.644892E+03 -4.502466E+03
       201   9  6.468796E+05 -4.239577E+04 -3.511865E+04 -5.909725E+04 -6.539986E+03 -9.662053E+03
       201  10  8.168657E+05 -1.026578E+03  8.430311E+02 -5.908571E+04 -1.760702E-09  4.028111E-10
       201  11  9.064368E+05  2.069330E+04  2.029176E+04 -4.096470E+04 -4.973924E-10 -3.354725E-12
       201  12  9.961074E+05  4.247472E+04  4.032797E+04 -5.906286E+04  4.768293E-10 -3.159321E-10
       201  13  8.214839E+05  4.712575E+01  1.597690E+03 -5.908009E+04 -2.879835E-10  1.019629E-09
       201  14  8.214348E+05  1.258483E+01  1.807447E+03 -4.097035E+04 -1.643098E-09  8.853984E-10
       201  15  8.214792E+05  4.042308E+01  2.605435E+03 -5.908008E+04 -1.746511E-09 -1.406273E-09
       201  16  8.261022E+05  1.120828E+03  2.352349E+03 -5.907446E+04  7.832956E-10  4.599158E-10
       201  17  7.364397E+05 -2.066861E+04 -1.667730E+04 -4.097600E+04 -9.356746E-10  9.361389E-10
       201  18  6.468796E+05 -4.239588E+04 -3.511890E+04 -5.909730E+04 -8.075470E-10 -1.332689E-09
       201  19  8.168658E+05 -1.026571E+03  8.430773E+02 -5.908571E+04 -4.920151E+03 -6.515654E+02
       201  20  9.064368E+05  2.069333E+04  2.029183E+04 -4.096472E+04 -4.023931E+03  4.507662E+03
       201  21  9.961074E+05  4.247482E+04  4.032817E+04 -5.906288E+04 -3.128147E+03  9.666810E+03
       201  22  8.214839E+05  4.712621E+01  1.597691E+03 -5.908009E+04 -8.553704E+01 -6.544123E+02
       201  23  8.214349E+05  1.260681E+01  1.807486E+03 -4.097035E+04  8.108068E+02  4.505064E+03
       201  24  8.214792E+05  4.052420E+01  2.605616E+03 -5.908007E+04  1.706590E+03  9.664432E+03
       201  25  8.261022E+05  1.120835E+03  2.352392E+03 -5.907446E+04  4.749111E+03 -6.572590E+02
       201  26  7.364397E+05 -2.066858E+04 -1.667720E+04 -4.097598E+04  5.644892E+03  4.502466E+03
       201  27  6.468796E+05 -4.239577E+04 -3.511865E+04 -5.909725E+04  6.539986E+03  9.662053E+03
       202   1  1.068380E+06  6.009485E+04  5.719652E+04 -5.902652E+04  2.613362E+03 -1.267683E+04
       202   2  1.158022E+06  8.183680E+04  7.867506E+04 -4.085946E+04 -1.352550E+02 -1.783394E+04
       202   3  1.248166E+06  1.040748E+05  1.020658E+05 -5.900891E+04 -2.882133E+03 -2.294929E+04
       202   4  8.215598E+05  5.645868E-01  3.281537E+03 -5.910195E+04 -2.240318E+03 -1.267481E+04
       202   5  8.213067E+05 -7.396369E+01  5.458533E+03 -4.094299E+04 -4.948828E+03 -1.783287E+04
       202   6  8.215405E+05  3.410159E+02  9.520687E+03 -5.910173E+04 -7.655211E+03 -2.294914E+04
       202   7  5.747962E+05 -6.009776E+04 -5.063703E+04 -5.917733E+04 -7.092096E+03 -1.267278E+04
       202   8  4.846974E+05 -8.199222E+04 -6.776469E+04 -4.102645E+04 -9.759828E+03 -1.783180E+04
       202   9  3.950854E+05 -1.034048E+05 -8.303517E+04 -5.919447E+04 -1.242506E+04 -2.294899E+04
       202  10  1.068380E+06  6.009467E+04  5.719620E+04 -5.902650E+04 -2.877658E-09  3.442186E-10
       202  11  1.158022E+06  8.183645E+04  7.867446E+04 -4.085947E+04 -4.054420E-10  1.762158E-10
       202  12  1.248166E+06  1.040742E+05  1.020648E+05 -5.900896E+04 -5.331754E-10 -1.905391E-11
       202  13  8.215597E+05  3.906604E-01  3.281225E+03 -5.910197E+04 -7.811888E-10 -1.111080E-09
       202  14  8.213066E+05 -7.431188E+01  5.457889E+03 -4.094306E+04  9.832475E-10 -2.374267E-10
       202  15  8.215403E+05  3.404344E+02  9.519587E+03 -5.910188E+04 -1.338898E-09  3.315724E-10
       202  16  5.747961E+05 -6.009794E+04 -5.063743E+04 -5.917740E+04  1.047987E-09 -1.051426E-09
       202  17  4.846973E+05 -8.199259E+04 -6.776547E+04 -4.102659E+04  3.360539E-10 -2.658473E-10
       202  18  3.950851E+05 -1.034054E+05 -8.303645E+04 -5.919470E+04 -6.832034E-10  4.901405E-10
       202  19  1.068380E+06  6.009485E+04  5.719652E+04 -5.902652E+04 -2.613362E+03  1.267683E+04
       202  20  1.158022E+06  8.183680E+04  7.867506E+04 -4.085946E+04  1.352550E+02  1.783394E+04
       202  21  1.248166E+06  1.040748E+05  1.020658E+05 -5.900891E+04  2.882133E+03  2.294929E+04
       202  22  8.215598E+05  5.645867E-01  3.281537E+03 -5.910195E+04  2.240318E+03  1.267481E+04
       202  23  8.213067E+05 -7.396369E+01  5.458533E+03 -4.094299E+04  4.948828E+03  1.783287E+04
       202  24  8.215405E+05  3.410159E+02  9.520687E+03 -5.910173E+04  7.655211E+03  2.294914E+04
       202  25  5.747962E+05 -6.009776E+04 -5.063703E+04 -5.917733E+04  7.092096E+03  1.267278E+04
       202  26  4.846974E+05 -8.199222E+04 -6.776469E+04 -4.102645E+04  9.759828E+03  1.783180E+04
       202  27  3.950854E+05 -1.034048E+05 -8.303517E+04 -5.919447E+04  1.242506E+04  2.294899E+04
       203   1  1.321399E+06  1.209721E+05  1.211694E+05 -5.762968E+04 -4.488044E+03 -2.606122E+04
       203   2  1.410001E+06  1.431522E+05  1.497809E+05 -4.150286E+04 -1.628063E+04 -3.095981E+04
       203   3  1.502354E+06  1.736880E+05  1.881728E+05 -6.187595E+04 -2.807170E+04 -3.476539E+04
       203   4  8.222107E+05 -4.957531E+02  1.240713E+04 -5.914256E+04 -9.589310E+03 -2.606178E+04
       203   5  8.204066E+05 -2.854481E+02  2.143788E+04 -4.089182E+04 -2.034802E+04 -3.096206E+04
       203   6  8.221718E+05  8.106876E+03  3.953911E+04 -5.914282E+04 -3.110354E+04 -3.476890E+04
       203   7  3.232553E+05 -1.219801E+05 -9.637000E+04 -6.065418E+04 -1.468653E+04 -2.606233E+04
       203   8  2.311376E+05 -1.437461E+05 -1.069259E+05 -4.028136E+04 -2.441160E+04 -3.096432E+04
       203   9  1.424222E+05 -1.575050E+05 -1.091225E+05 -5.641272E+04 -3.413210E+04 -3.477243E+04
       203  10  1.321399E+06  1.209714E+05  1.211681E+05 -5.762978E+04  7.426421E-10 -9.280719E-10
       203  11  1.410000E+06  1.431511E+05  1.497786E+05 -4.150327E+04  2.303423E-11 -1.506490E-09
       203  12  1.502353E+06  1.736865E+05  1.881690E+05 -6.187673E+04  9.406936E-10 -8.989321E-10
       203  13  8.222105E+05 -4.965074E+02  1.240568E+04 -5.914276E+04 -1.010009E-09 -5.167834E-10
       203  14  8.204059E+05 -2.865889E+02  2.143530E+04 -4.089233E+04 -9.297353E-10 -1.335022E-09
       203  15  8.221705E+05  8.105318E+03  3.953502E+04 -5.914369E+04 -7.281211E-10 -5.752641E-10
       203  16  3.232549E+05 -1.219809E+05 -9.637168E+04 -6.065449E+04 -1.226676E-09 -2.710121E-10
       203  17  2.311368E+05 -1.437473E+05 -1.069289E+05 -4.028197E+04  3.080096E-10 -1.284421E-09
       203  18  1.424206E+05 -1.575066E+05 -1.091269E+05 -5.641368E+04 -2.835639E-09 -1.433491E-10
       203  19  1.321399E+06  1.209721E+05  1.211694E+05 -5.762968E+04  4.488044E+03  2.606122E+04
       203  20  1.410001E+06  1.431522E+05  1.497809E+05 -4.150286E+04  1.628063E+04  3.095981E+04
       203  21  1.502354E+06  1.736880E+05  1.881728E+05 -6.187595E+04  2.807170E+04  3.476539E+04
       203  22  8.222107E+05 -4.957531E+02  1.240713E+04 -5.914256E+04  9.589310E+03  2.606178E+04
       203  23  8.204066E+05 -2.854481E+02  2.143788E+04 -4.089182E+04  2.034802E+04  3.096206E+04
       203  24  8.221718E+05  8.106876E+03  3.953911E+04 -5.914282E+04  3.110354E+04  3.476890E+04
       203  25  3.232553E+05 -1.219801E+05 -9.637000E+04 -6.065418E+04  1.468653E+04  2.606233E+04
       203  26  2.311376E+05 -1.437461E+05 -1.069259E+05 -4.028136E+04  2.441160E+04  3.096432E+04
       203  27  1.424222E+05 -1.575050E+05 -1.091225E+05 -5.641272E+04  3.413210E+04  3.477243E+04
       204   1  1.584749E+06  1.757966E+05  2.137430E+05 -3.656342E+04 -2.800675E+04 -3.986668E+04
       204   2  1.652994E+06  2.065895E+05  2.723005E+05 -6.721341E+04 -9.618999E+04 -3.842617E+04
       204   3  1.767968E+06  3.877854E+05  4.128323E+05 -1.337463E+05 -1.644082E+05 -1.236160E+04
       204   4  8.308707E+05 -7.575483E+03  4.982304E+04 -5.897592E+04 -3.814471E+04 -3.987260E+04
       204   5  8.094322E+05  7.136240E+02  8.510405E+04 -4.109305E+04 -8.318529E+04 -3.842598E+04
       204   6  8.307633E+05  1.554969E+05  1.863731E+05 -5.908700E+04 -1.282487E+05 -1.235094E+04
       204   7  7.752538E+04 -1.909833E+05 -1.141303E+05 -8.136093E+04 -4.827052E+04 -3.987778E+04
       204   8 -3.346564E+04 -2.052076E+05 -1.021356E+05 -1.500858E+04 -7.019797E+04 -3.842470E+04
       204   9 -1.056254E+05 -7.683389E+04 -4.014112E+04  1.545937E+04 -9.214326E+04 -1.233161E+04
       204  10  1.584748E+06  1.757947E+05  2.137385E+05 -3.656432E+04  1.832964E-08  2.949599E-10
       204  11  1.652984E+06  2.065854E+05  2.722804E+05 -6.721639E+04  1.524870E-09  1.601749E-09
       204  12  1.767939E+06  3.877780E+05  4.127813E+05 -1.337479E+05 -1.600926E-08  1.058460E-09
       204  13  8.308687E+05 -7.577581E+03  4.981732E+04 -5.897714E+04 -1.647049E-09 -1.161898E-10
       204  14  8.094244E+05  7.101831E+02  8.508828E+04 -4.109563E+04  9.629119E-12  1.550814E-09
       204  15  8.307456E+05  1.554924E+05  1.863419E+05 -5.908828E+04  1.422913E-09  2.342978E-10
       204  16  7.752245E+04 -1.909856E+05 -1.141376E+05 -8.136248E+04 -1.982249E-08  7.424655E-10
       204  17 -3.347133E+04 -2.052105E+05 -1.021476E+05 -1.501075E+04 -6.683780E-10  8.915323E-10
       204  18 -1.056345E+05 -7.683634E+04 -4.015736E+04  1.545845E+04  1.495317E-08  1.304651E-09
       204  19  1.584749E+06  1.757966E+05  2.137430E+05 -3.656342E+04  2.800675E+04  3.986668E+04
       204  20  1.652994E+06  2.065895E+05  2.723005E+05 -6.721341E+04  9.618999E+04  3.842617E+04
       204  21  1.767968E+06  3.877854E+05  4.128323E+05 -1.337463E+05  1.644082E+05  1.236160E+04
       204  22  8.308707E+05 -7.575483E+03  4.982304E+04 -5.897592E+04  3.814471E+04  3.987260E+04
       204  23  8.094322E+05  7.136240E+02  8.510405E+04 -4.109305E+04  8.318529E+04  3.842598E+04
       204  24  8.307633E+05  1.554969E+05  1.863731E+05 -5.908700E+04  1.282487E+05  1.235094E+04
       204  25  7.752538E+04 -1.909833E+05 -1.141303E+05 -8.136093E+04  4.827052E+04  3.987778E+04
       204  26 -3.346564E+04 -2.052076E+05 -1.021356E+05 -1.500858E+04  7.019797E+04  3.842470E+04
       204  27 -1.056254E+05 -7.683389E+04 -4.014112E+04  1.545937E+04  9.214326E+04  1.233161E+04
       205   1  5.468621E+05  1.838499E+06  5.383463E+05 -5.229043E+05  2.076520E+04  1.477325E+05
       205   2  3.467363E+05  1.291356E+06  3.264707E+05 -4.309151E+05  6.073139E+04  5.310267E+04
       205   3  2.066127E+05  7.714725E+05  1.910250E+05 -4.745439E+05  4.998533E+04 -4.151831E+04
       205   4  7.046415E+04 -8.439037E+04  7.820476E+04 -4.785680E+05  2.099239E+04  5.214006E+04
       205   5  1.283527E+04 -9.123644E+04  3.907310E+04 -4.108367E+05  6.079534E+04  3.198990E+04
       205   6  2.394629E+03 -8.392239E+04  2.480367E+04 -4.787213E+05  4.984181E+04  1.176529E+04
       205   7 -4.061899E+05 -2.003874E+06 -3.821629E+05 -4.343662E+05  2.120641E+04 -4.315837E+04
       205   8 -3.211858E+05 -1.472019E+06 -2.484275E+05 -3.908021E+05  6.085802E+04  1.092322E+04
       205   9 -2.018656E+05 -9.386091E+05 -1.414415E+05 -4.828921E+05  4.969744E+04  6.497716E+04
       205  10  5.468558E+05  1.838475E+06  5.383046E+05 -5.229068E+05 -4.619998E-10 -3.101770E-10
       205  11  3.467316E+05  1.291352E+06  3.264585E+05 -4.309177E+05 -2.091688E-09 -1.442362E-09
       205  12  2.066096E+05  7.714700E+05  1.910170E+05 -4.745422E+05 -1.059369E-10 -1.998732E-10
       205  13  7.046294E+04 -8.439341E+04  7.819881E+04 -4.785689E+05  1.238299E-09  1.579107E-09
       205  14  1.283103E+04 -9.123853E+04  3.906422E+04 -4.108383E+05 -7.046199E-10 -1.871946E-09
       205  15  2.391923E+03 -8.392320E+04  2.479874E+04 -4.787217E+05  4.992966E-10  1.256197E-09
       205  16 -4.061909E+05 -2.003876E+06 -3.821672E+05 -4.343655E+05  3.676509E-10 -5.368122E-10
       205  17 -3.211898E+05 -1.472020E+06 -2.484346E+05 -3.908027E+05  2.387221E-09 -3.251508E-10
       205  18 -2.018694E+05 -9.386143E+05 -1.414541E+05 -4.828947E+05 -8.930694E-10  2.832170E-10
       205  19  5.468621E+05  1.838499E+06  5.383463E+05 -5.229043E+05 -2.076520E+04 -1.477325E+05
       205  20  3.467363E+05  1.291356E+06  3.264707E+05 -4.309151E+05 -6.073139E+04 -5.310267E+04
       205  21  2.066127E+05  7.714725E+05  1.910250E+05 -4.745439E+05 -4.998533E+04  4.151831E+04
       205  22  7.046415E+04 -8.439037E+04  7.820476E+04 -4.785680E+05 -2.099239E+04 -5.214006E+04
       205  23  1.283527E+04 -9.123644E+04  3.907310E+04 -4.108367E+05 -6.079534E+04 -3.198990E+04
       205  24  2.394629E+03 -8.392239E+04  2.480367E+04 -4.787213E+05 -4.984181E+04 -1.176529E+04
       205  25 -4.061899E+05 -2.003874E+06 -3.821629E+05 -4.343662E+05 -2.120641E+04  4.315837E+04
       205  26 -3.211858E+05 -1.472019E+06 -2.484275E+05 -3.908021E+05 -6.085802E+04 -1.092322E+04
       205  27 -2.018656E+05 -9.386091E+05 -1.414415E+05 -4.828921E+05 -4.969744E+04 -6.497716E+04
       206   1  1.229343E+05  4.071189E+05  1.180363E+05 -4.818226E+05  2.825659E+04 -3.708713E+04
       206   2 -6.758545E+03 -1.267306E+05  1.143160E+04 -4.099914E+05 -2.514708E+03 -4.627917E+04
       206   3 -1.314303E+05 -6.585206E+05 -8.813563E+04 -4.766527E+05 -3.314553E+04 -5.546241E+04
       206   4  4.890267E+03 -8.656813E+04  2.146643E+04 -4.793371E+05  2.812771E+04  8.110784E+03
       206   5  2.549917E+03 -8.748589E+04  1.871900E+04 -4.100915E+05 -2.641804E+03 -1.301986E+03
       206   6  5.282969E+03 -8.658162E+04  2.316447E+04 -4.793359E+05 -3.327148E+04 -1.071343E+04
       206   7 -1.131673E+05 -5.800171E+05 -7.510750E+04 -4.768534E+05  2.799912E+04  5.327356E+04
       206   8  1.185938E+04 -4.823537E+04  2.601393E+04 -4.101917E+05 -2.768908E+03  4.367797E+04
       206   9  1.419778E+05  4.856759E+05  1.344566E+05 -4.820213E+05 -3.339775E+04  3.407590E+04
       206  10  1.229331E+05  4.071172E+05  1.180323E+05 -4.818217E+05  4.370386E-10 -9.632835E-10
       206  11 -6.759127E+03 -1.267329E+05  1.142756E+04 -4.099915E+05  3.365370E-10 -1.412539E-09
       206  12 -1.314323E+05 -6.585242E+05 -8.814349E+04 -4.766541E+05  1.023252E-09  8.691994E-10
       206  13  4.889400E+03 -8.656842E+04  2.146482E+04 -4.793373E+05  2.339125E-10  2.311318E-09
       206  14  2.549909E+03 -8.748590E+04  1.871898E+04 -4.100916E+05 -1.438271E-09 -2.249592E-09
       206  15  5.281749E+03 -8.658204E+04  2.316217E+04 -4.793362E+05 -2.491400E-10  1.403498E-09
       206  16 -1.131689E+05 -5.800204E+05 -7.511431E+04 -4.768546E+05 -9.149537E-10 -1.396296E-10
       206  17  1.185886E+04 -4.823742E+04  2.601033E+04 -4.101916E+05 -8.667390E-10 -1.131616E-09
       206  18  1.419763E+05  4.856743E+05  1.344523E+05 -4.820204E+05  3.353497E-11 -8.267431E-10
       206  19  1.229343E+05  4.071189E+05  1.180363E+05 -4.818226E+05 -2.825659E+04  3.708713E+04
       206  20 -6.758545E+03 -1.267306E+05  1.143160E+04 -4.099914E+05  2.514708E+03  4.627917E+04
       206  21 -1.314303E+05 -6.585206E+05 -8.813563E+04 -4.766527E+05  3.314553E+04  5.546241E+04
       206  22  4.890267E+03 -8.656813E+04  2.146643E+04 -4.793371E+05 -2.812771E+04 -8.110784E+03
       206  23  2.549917E+03 -8.748589E+04  1.871900E+04 -4.100915E+05  2.641804E+03  1.301986E+03
       206  24  5.282969E+03 -8.658162E+04  2.316447E+04 -4.793359E+05  3.327148E+04  1.071343E+04
       206  25 -1.131673E+05 -5.800171E+05 -7.510750E+04 -4.768534E+05 -2.799912E+04 -5.327356E+04
       206  26  1.185938E+04 -4.823537E+04  2.601393E+04 -4.101917E+05  2.768908E+03 -4.367797E+04
       206  27  1.419778E+05  4.856759E+05  1.344566E+05 -4.820213E+05  3.339775E+04 -3.407590E+04
       207   1 -2.205651E+05 -1.016687E+06 -1.535750E+05 -4.836980E+05 -5.481940E+04 -6.781920E+04
       207   2 -3.383230E+05 -1.550921E+06 -2.586372E+05 -3.880912E+05 -6.498051E+04 -1.379292E+04
       207   3 -4.151418E+05 -2.081892E+06 -3.887650E+05 -4.280147E+05 -2.240751E+04  4.026093E+04
       207   4  2.369870E+03 -8.346056E+04  2.743820E+04 -4.786951E+05 -5.496116E+04 -1.467339E+04
       207   5  1.452410E+04 -9.188228E+04  4.452927E+04 -4.108638E+05 -6.491027E+04 -3.773091E+04
       207   6  8.096522E+04 -8.395455E+04  9.011302E+04 -4.785209E+05 -2.218656E+04 -6.071433E+04
       207   7  2.252544E+05  8.506094E+05  2.084211E+05 -4.736837E+05 -5.510193E+04  3.855062E+04
       207   8  3.672377E+05  1.369179E+06  3.475816E+05 -4.336891E+05 -6.483837E+04 -6.172423E+04
       207   9  5.767967E+05  1.917675E+06  5.687480E+05 -5.291876E+05 -2.194959E+04 -1.620138E+05
       207  10 -2.205696E+05 -1.016693E+06 -1.535893E+05 -4.837010E+05  1.588857E-09 -2.119891E-10
       207  11 -3.383276E+05 -1.550923E+06 -2.586455E+05 -3.880919E+05  1.911386E-09 -1.031699E-09
       207  12 -4.151428E+05 -2.081894E+06 -3.887690E+05 -4.280139E+05  4.437786E-10 -5.474665E-10
       207  13  2.366568E+03 -8.346161E+04  2.743212E+04 -4.786958E+05  1.198089E-09  2.230019E-09
       207  14  1.451919E+04 -9.188495E+04  4.451867E+04 -4.108657E+05 -1.779386E-09 -1.976514E-09
       207  15  8.096370E+04 -8.395864E+04  9.010517E+04 -4.785220E+05  2.805261E-10  8.335382E-10
       207  16  2.252508E+05  8.506070E+05  2.084126E+05 -4.736820E+05 -3.342661E-10 -5.595213E-10
       207  17  3.672322E+05  1.369173E+06  3.475666E+05 -4.336923E+05  1.581935E-09 -1.222154E-09
       207  18  5.767892E+05  1.917647E+06  5.686979E+05 -5.291905E+05  7.492838E-10  2.810583E-10
       207  19 -2.205651E+05 -1.016687E+06 -1.535750E+05 -4.836980E+05  5.481940E+04  6.781920E+04
       207  20 -3.383230E+05 -1.550921E+06 -2.586372E+05 -3.880912E+05  6.498051E+04  1.379292E+04
       207  21 -4.151418E+05 -2.081892E+06 -3.887650E+05 -4.280147E+05  2.240751E+04 -4.026093E+04
       207  22  2.369870E+03 -8.346056E+04  2.743820E+04 -4.786951E+05  5.496116E+04  1.467339E+04
       207  23  1.452410E+04 -9.188228E+04  4.452927E+04 -4.108638E+05  6.491027E+04  3.773091E+04
       207  24  8.096522E+04 -8.395455E+04  9.011302E+04 -4.785209E+05  2.218656E+04  6.071433E+04
       207  25  2.252544E+05  8.506094E+05  2.084211E+05 -4.736837E+05  5.510193E+04 -3.855062E+04
       207  26  3.672377E+05  1.369179E+06  3.475816E+05 -4.336891E+05  6.483837E+04  6.172423E+04
       207  27  5.767967E+05  1.917675E+06  5.687480E+05 -5.291876E+05  2.194959E+04  1.620138E+05
       208   1 -2.248684E+06 -8.871421E+05 -4.941118E+05 -8.611511E+05 -1.995121E+05 -5.421999E+04
       208   2 -2.141140E+06 -6.684864E+05 -3.226363E+05 -8.172996E+05 -1.266617E+05  1.991231E+04
       208   3 -2.064160E+06 -5.825086E+05 -2.469146E+05 -7.731237E+05 -4.109700E+04  6.035154E+04
       208   4 -1.092245E+06 -3.706196E+05 -1.767495E+05 -4.612048E+05 -1.206638E+05 -2.458975E+04
       208   5 -1.071743E+06 -2.399270E+05 -8.034320E+04 -4.872462E+05 -9.379132E+04  3.225162E+04
       208   6 -1.072593E+06 -2.326742E+05 -4.308161E+04 -5.129923E+05 -5.423352E+04  5.540660E+04
       208   7  6.550621E+04  1.461459E+05  1.405109E+05 -6.053221E+04 -4.165599E+04  5.126739E+03
       208   8 -1.183771E+03  1.887783E+05  1.618792E+05 -1.566496E+05 -6.085972E+04  4.461850E+04
       208   9 -8.000708E+04  1.172280E+05  1.607042E+05 -2.524814E+05 -6.739284E+04  5.045386E+04
       208  10 -2.248728E+06 -8.871560E+05 -4.941925E+05 -8.611599E+05  1.934742E-09 -1.238685E-11
       208  11 -2.141157E+06 -6.684912E+05 -3.226673E+05 -8.172975E+05  6.448439E-10 -2.000907E-09
       208  12 -2.064162E+06 -5.825129E+05 -2.469246E+05 -7.731217E+05 -5.408724E-10 -1.598854E-09
       208  13 -1.092261E+06 -3.706242E+05 -1.767781E+05 -4.612072E+05 -1.176944E-09 -3.191631E-10
       208  14 -1.071752E+06 -2.399305E+05 -8.036170E+04 -4.872437E+05  2.345783E-09 -2.498586E-09
       208  15 -1.072597E+06 -2.326783E+05 -4.309290E+04 -5.129898E+05  4.299625E-10 -5.774245E-10
       208  16  6.550434E+04  1.461454E+05  1.405076E+05 -6.053204E+04 -1.315950E-09 -1.364661E-09
       208  17 -1.188281E+03  1.887752E+05  1.618685E+05 -1.566474E+05  3.653448E-10 -8.326557E-10
       208  18 -8.001264E+04  1.172241E+05  1.606909E+05 -2.524787E+05  1.386988E-09  5.348263E-10
       208  19 -2.248684E+06 -8.871421E+05 -4.941118E+05 -8.611511E+05  1.995121E+05  5.421999E+04
       208  20 -2.141140E+06 -6.684864E+05 -3.226363E+05 -8.172996E+05  1.266617E+05 -1.991231E+04
       208  21 -2.064160E+06 -5.825086E+05 -2.469146E+05 -7.731237E+05  4.109700E+04 -6.035154E+04
       208  22 -1.092245E+06 -3.706196E+05 -1.767495E+05 -4.612048E+05  1.206638E+05  2.458975E+04
       208  23 -1.071743E+06 -2.399270E+05 -8.034320E+04 -4.872462E+05  9.379132E+04 -3.225162E+04
       208  24 -1.072593E+06 -2.326742E+05 -4.308161E+04 -5.129923E+05  5.423352E+04 -5.540660E+04
       208  25  6.550621E+04  1.461459E+05  1.405109E+05 -6.053221E+04  4.165599E+04 -5.126739E+03
       208  26 -1.183771E+03  1.887783E+05  1.618792E+05 -1.566496E+05  6.085972E+04 -4.461850E+04
       208  27 -8.000708E+04  1.172280E+05  1.607042E+05 -2.524814E+05  6.739284E+04 -5.045386E+04
       209   1 -1.965565E+06 -5.698395E+05 -2.198114E+05 -7.593502E+05 -4.099073E+04  5.418370E+04
       209   2 -1.859340E+06 -5.084479E+05 -1.774977E+05 -7.136585E+05 -2.712303E+04  5.298074E+04
       209   3 -1.732725E+06 -4.757597E+05 -1.452480E+05 -6.942127E+05 -1.243749E+04  4.958940E+04
       209   4 -1.066983E+06 -2.385120E+05 -3.300968E+04 -5.087187E+05 -4.719700E+04  5.184403E+04
       209   5 -1.077043E+06 -2.216908E+05 -1.744517E+04 -4.966172E+05 -3.630753E+04  4.952674E+04
       209   6 -1.066132E+06 -2.329753E+05 -9.570185E+03 -5.107644E+05 -2.460318E+04  4.502165E+04
       209   7 -1.675721E+05  9.288565E+04  1.537491E+05 -2.577507E+05 -5.341295E+04  4.950069E+04
       209   8 -2.941192E+05  6.511757E+04  1.425755E+05 -2.793235E+05 -4.550447E+04  4.606806E+04
       209   9 -3.990864E+05  9.843893E+03  1.260844E+05 -3.271356E+05 -3.678285E+04  4.044870E+04
       209  10 -1.965567E+06 -5.698431E+05 -2.198201E+05 -7.593484E+05  3.239308E-10 -6.866005E-10
       209  11 -1.859341E+06 -5.084511E+05 -1.775043E+05 -7.136574E+05  6.326944E-10 -1.279250E-10
       209  12 -1.732726E+06 -4.757624E+05 -1.452530E+05 -6.942122E+05 -3.202592E-10 -1.812617E-11
       209  13 -1.066986E+06 -2.385155E+05 -3.301891E+04 -5.087167E+05 -5.202638E-10 -5.777369E-10
       209  14 -1.077045E+06 -2.216938E+05 -1.745225E+04 -4.966158E+05  6.422692E-10 -2.608770E-10
       209  15 -1.066133E+06 -2.329777E+05 -9.575129E+03 -5.107635E+05 -1.733221E-11 -2.272198E-10
       209  16 -1.675758E+05  9.288225E+04  1.537392E+05 -2.577486E+05 -2.027581E-10  2.869418E-10
       209  17 -2.941220E+05  6.511474E+04  1.425676E+05 -2.793218E+05  2.482850E-11 -4.195839E-10
       209  18 -3.990883E+05  9.841774E+03  1.260787E+05 -3.271344E+05  3.949159E-11 -6.267517E-10
       209  19 -1.965565E+06 -5.698395E+05 -2.198114E+05 -7.593502E+05  4.099073E+04 -5.418370E+04
       209  20 -1.859340E+06 -5.084479E+05 -1.774977E+05 -7.136585E+05  2.712303E+04 -5.298074E+04
       209  21 -1.732725E+06 -4.757597E+05 -1.452480E+05 -6.942127E+05  1.243749E+04 -4.958940E+04
       209  22 -1.066983E+06 -2.385120E+05 -3.300968E+04 -5.087187E+05  4.719700E+04 -5.184403E+04
       209  23 -1.077043E+06 -2.216908E+05 -1.744517E+04 -4.966172E+05  3.630753E+04 -4.952674E+04
       209  24 -1.066132E+06 -2.329753E+05 -9.570185E+03 -5.107644E+05  2.460318E+04 -4.502165E+04
       209  25 -1.675721E+05  9.288565E+04  1.537491E+05 -2.577507E+05  5.341295E+04 -4.950069E+04
       209  26 -2.941192E+05  6.511757E+04  1.425755E+05 -2.793235E+05  4.550447E+04 -4.606806E+04
       209  27 -3.990864E+05  9.843893E+03  1.260844E+05 -3.271356E+05  3.678285E+04 -4.044870E+04
       210   1 -1.650961E+06 -4.468504E+05 -1.258028E+05 -6.722769E+05 -9.581578E+03  4.476130E+04
       210   2 -1.544960E+06 -3.917493E+05 -9.882358E+04 -6.260875E+05 -4.146373E+03  3.692555E+04
       210   3 -1.415437E+06 -3.607328E+05 -7.352126E+04 -6.072318E+05  1.341817E+03  2.893768E+04
       210   4 -1.065704E+06 -2.332242E+05 -7.211895E+03 -5.105663E+05 -2.131887E+04  4.035660E+04
       210   5 -1.077442E+06 -2.210982E+05 -3.974269E+03 -4.969271E+05 -1.609021E+04  3.244635E+04
       210   6 -1.065634E+06 -2.330168E+05 -2.249967E+03 -5.106263E+05 -1.080905E+04  2.438393E+04
       210   7 -4.800878E+05 -1.956711E+04  1.113638E+05 -3.487134E+05 -3.306818E+04  3.594741E+04
       210   8 -6.096955E+05 -5.042783E+04  9.086526E+04 -3.676760E+05 -2.804378E+04  2.796351E+04
       210   9 -7.157052E+05 -1.052903E+05  6.901580E+04 -4.139704E+05 -2.296730E+04  1.982741E+04
       210  10 -1.650962E+06 -4.468526E+05 -1.258067E+05 -6.722765E+05  1.118319E-09  2.366133E-10
       210  11 -1.544961E+06 -3.917508E+05 -9.882617E+04 -6.260874E+05  2.014977E-09  1.595904E-10
       210  12 -1.415437E+06 -3.607337E+05 -7.352284E+04 -6.072319E+05  1.322140E-09  3.636955E-10
       210  13 -1.065705E+06 -2.332261E+05 -7.215807E+03 -5.105657E+05  9.085993E-11 -3.864204E-10
       210  14 -1.077442E+06 -2.210994E+05 -3.976733E+03 -4.969267E+05 -1.175936E-09 -3.465424E-10
       210  15 -1.065635E+06 -2.330175E+05 -2.251303E+03 -5.106261E+05 -8.623687E-10 -8.059875E-10
       210  16 -4.800893E+05 -1.956879E+04  1.113593E+05 -3.487124E+05 -1.339609E-09 -9.297502E-10
       210  17 -6.096965E+05 -5.042888E+04  9.086231E+04 -3.676754E+05 -1.177082E-10 -7.611568E-10
       210  18 -7.157059E+05 -1.052909E+05  6.901407E+04 -4.139700E+05 -1.187902E-09 -7.661136E-10
       210  19 -1.650961E+06 -4.468504E+05 -1.258028E+05 -6.722769E+05  9.581578E+03 -4.476130E+04
       210  20 -1.544960E+06 -3.917493E+05 -9.882358E+04 -6.260875E+05  4.146373E+03 -3.692555E+04
       210  21 -1.415437E+06 -3.607328E+05 -7.352126E+04 -6.072318E+05 -1.341817E+03 -2.893768E+04
       210  22 -1.065704E+06 -2.332242E+05 -7.211895E+03 -5.105663E+05  2.131887E+04 -4.035660E+04
       210  23 -1.077442E+06 -2.210982E+05 -3.974269E+03 -4.969271E+05  1.609021E+04 -3.244635E+04
       210  24 -1.065634E+06 -2.330168E+05 -2.249967E+03 -5.106263E+05  1.080905E+04 -2.438393E+04
       210  25 -4.800878E+05 -1.956711E+04  1.113638E+05 -3.487134E+05  3.306818E+04 -3.594741E+04
       210  26 -6.096955E+05 -5.042783E+04  9.086526E+04 -3.676760E+05  2.804378E+04 -2.796351E+04
       210  27 -7.157052E+05 -1.052903E+05  6.901580E+04 -4.139704E+05  2.296730E+04 -1.982741E+04
       211   1 -1.334270E+06 -3.310350E+05 -5.587171E+04 -5.848871E+05  3.591999E+03  2.388359E+04
       211   2 -1.228104E+06 -2.760417E+05 -3.165394E+04 -5.385404E+05  7.493018E+03  1.522597E+04
       211   3 -1.098112E+06 -2.449535E+05 -7.866770E+03 -5.195999E+05  1.139725E+04  6.555801E+03
       211   4 -1.065569E+06 -2.330261E+05 -1.743494E+03 -5.106225E+05 -8.540658E+03  1.933787E+04
       211   5 -1.077470E+06 -2.210658E+05 -1.121383E+03 -4.969175E+05 -4.657467E+03  1.067455E+04
       211   6 -1.065555E+06 -2.330083E+05 -9.160045E+02 -5.106241E+05 -7.711664E+02  1.998647E+03
       211   7 -7.967952E+05 -1.350117E+05  5.238122E+04 -4.363287E+05 -2.067887E+04  1.479008E+04
       211   8 -9.268114E+05 -1.660879E+05  2.941067E+04 -4.552852E+05 -1.681112E+04  6.121952E+03
       211   9 -1.032997E+06 -2.210627E+05  6.035407E+03 -5.016476E+05 -1.294037E+04 -2.558801E+03
       211  10 -1.334271E+06 -3.310357E+05 -5.587281E+04 -5.848871E+05 -2.327099E-09 -1.414815E-09
       211  11 -1.228104E+06 -2.760419E+05 -3.165448E+04 -5.385405E+05  9.818414E-09  3.652855E-09
       211  12 -1.098112E+06 -2.449536E+05 -7.867095E+03 -5.196000E+05  1.870378E-08  9.018970E-09
       211  13 -1.065569E+06 -2.330265E+05 -1.744334E+03 -5.106224E+05  4.693732E-10  2.304623E-10
       211  14 -1.077470E+06 -2.210659E+05 -1.121638E+03 -4.969175E+05  3.123333E-10  7.123477E-10
       211  15 -1.065555E+06 -2.330083E+05 -9.160131E+02 -5.106241E+05 -2.514860E-09  4.001270E-10
       211  16 -7.967957E+05 -1.350120E+05  5.238001E+04 -4.363284E+05  2.957824E-09  1.537332E-09
       211  17 -9.268117E+05 -1.660880E+05  2.941007E+04 -4.552851E+05 -1.001676E-08 -2.750054E-09
       211  18 -1.032997E+06 -2.210628E+05  6.035080E+03 -5.016476E+05 -2.186105E-08 -7.348602E-09
       211  19 -1.334270E+06 -3.310350E+05 -5.587171E+04 -5.848871E+05 -3.591999E+03 -2.388359E+04
       211  20 -1.228104E+06 -2.760417E+05 -3.165394E+04 -5.385404E+05 -7.493018E+03 -1.522597E+04
       211  21 -1.098112E+06 -2.449535E+05 -7.866770E+03 -5.195999E+05 -1.139725E+04 -6.555801E+03
       211  22 -1.065569E+06 -2.330261E+05 -1.743494E+03 -5.106225E+05  8.540658E+03 -1.933787E+04
       211  23 -1.077470E+06 -2.210658E+05 -1.121383E+03 -4.969175E+05  4.657467E+03 -1.067455E+04
       211  24 -1.065555E+06 -2.330083E+05 -9.160045E+02 -5.106241E+05  7.711664E+02 -1.998647E+03
       211  25 -7.967952E+05 -1.350117E+05  5.238122E+04 -4.363287E+05  2.067887E+04 -1.479008E+04
       211  26 -9.268114E+05 -1.660879E+05  2.941067E+04 -4.552852E+05  1.681112E+04 -6.121952E+03
       211  27 -1.032997E+06 -2.210627E+05  6.035407E+03 -5.016476E+05  1.294037E+04  2.558801E+03
       212   1 -1.016907E+06 -2.151957E+05  9.273243E+03 -4.972064E+05  1.349063E+04  1.438392E+03
       212   2 -9.107217E+05 -1.602251E+05  3.254383E+04 -4.508500E+05  1.742292E+04 -7.218617E+03
       212   3 -7.807172E+05 -1.291541E+05  5.536312E+04 -4.318998E+05  2.135194E+04 -1.586266E+04
       212   4 -1.065558E+06 -2.330085E+05 -9.384695E+02 -5.106242E+05  1.321620E+03 -3.119026E+03
       212   5 -1.077467E+06 -2.210639E+05 -1.246220E+03 -4.969184E+05  5.270012E+03 -1.177109E+04
       212   6 -1.065574E+06 -2.330237E+05 -2.018060E+03 -5.106249E+05  9.214993E+03 -2.041019E+04
       212   7 -1.114206E+06 -2.508210E+05 -1.114967E+04 -5.240410E+05 -1.084636E+04 -7.676058E+03
       212   8 -1.244183E+06 -2.819000E+05 -3.503683E+04 -5.429752E+05 -6.879330E+03 -1.632224E+04
       212   9 -1.350345E+06 -3.368854E+05 -5.940195E+04 -5.893160E+05 -2.915865E+03 -2.495544E+04
       212  10 -1.016907E+06 -2.151957E+05  9.272897E+03 -4.972064E+05 -2.152105E-08 -6.763144E-09
       212  11 -9.107220E+05 -1.602252E+05  3.254316E+04 -4.508499E+05  2.064212E-10 -7.727836E-10
       212  12 -7.807177E+05 -1.291545E+05  5.536179E+04 -4.318995E+05  1.308752E-08  2.056564E-09
       212  13 -1.065558E+06 -2.330085E+05 -9.384911E+02 -5.106242E+05  1.216223E-09  1.307457E-09
       212  14 -1.077467E+06 -2.210640E+05 -1.246532E+03 -4.969184E+05  7.414568E-09  1.995675E-09
       212  15 -1.065575E+06 -2.330242E+05 -2.019002E+03 -5.106248E+05  3.085859E-09  2.355553E-10
       212  16 -1.114206E+06 -2.508211E+05 -1.115000E+04 -5.240411E+05  2.422443E-08  9.190680E-09
       212  17 -1.244183E+06 -2.819003E+05 -3.503742E+04 -5.429753E+05  1.416886E-08  5.716920E-09
       212  18 -1.350345E+06 -3.368861E+05 -5.940313E+04 -5.893160E+05 -6.427011E-09 -2.752851E-09
       212  19 -1.016907E+06 -2.151957E+05  9.273243E+03 -4.972064E+05 -1.349063E+04 -1.438392E+03
       212  20 -9.107217E+05 -1.602251E+05  3.254383E+04 -4.508500E+05 -1.742292E+04  7.218617E+03
       212  21 -7.807172E+05 -1.291541E+05  5.536312E+04 -4.318998E+05 -2.135194E+04  1.586266E+04
       212  22 -1.065558E+06 -2.330085E+05 -9.384695E+02 -5.106242E+05 -1.321620E+03  3.119026E+03
       212  23 -1.077467E+06 -2.210639E+05 -1.246220E+03 -4.969184E+05 -5.270012E+03  1.177109E+04
       212  24 -1.065574E+06 -2.330237E+05 -2.018060E+03 -5.106249E+05 -9.214993E+03  2.041019E+04
       212  25 -1.114206E+06 -2.508210E+05 -1.114967E+04 -5.240410E+05  1.084636E+04  7.676058E+03
       212  26 -1.244183E+06 -2.819000E+05 -3.503683E+04 -5.429752E+05  6.879330E+03  1.632224E+04
       212  27 -1.350345E+06 -3.368854E+05 -5.940195E+04 -5.893160E+05  2.915865E+03  2.495544E+04
       213   1 -6.996394E+05 -9.943743E+04  7.189285E+04 -4.095498E+05  2.369437E+04 -2.087907E+04
       213   2 -5.936117E+05 -4.458635E+04  9.341093E+04 -3.632676E+05  2.911895E+04 -2.888202E+04
       213   3 -4.640511E+05 -1.376600E+04  1.133106E+05 -3.443130E+05  3.449067E+04 -3.673035E+04
       213   4 -1.065650E+06 -2.330123E+05 -2.627835E+03 -5.106308E+05  1.153756E+04 -2.543530E+04
       213   5 -1.077424E+06 -2.210888E+05 -4.678825E+03 -4.969290E+05  1.716957E+04 -3.336369E+04
       213   6 -1.065723E+06 -2.332413E+05 -8.514392E+03 -5.105629E+05  2.274826E+04 -4.113749E+04
       213   7 -1.431525E+06 -3.665770E+05 -7.715550E+04 -6.116575E+05 -6.116342E+02 -2.998869E+04
       213   8 -1.560997E+06 -3.975721E+05 -1.027802E+05 -6.304945E+05  5.230169E+03 -3.784163E+04
       213   9 -1.667021E+06 -4.526860E+05 -1.303569E+05 -6.766640E+05  1.101809E+04 -4.554006E+04
       213  10 -6.996402E+05 -9.943805E+04  7.189098E+04 -4.095494E+05  1.153226E-09 -1.518944E-09
       213  11 -5.936128E+05 -4.458748E+04  9.340777E+04 -3.632669E+05  9.454840E-10 -2.374460E-10
       213  12 -4.640528E+05 -1.376777E+04  1.133058E+05 -3.443120E+05  1.758385E-09  8.155388E-10
       213  13 -1.065650E+06 -2.330131E+05 -2.629300E+03 -5.106305E+05  8.566389E-10 -1.370760E-09
       213  14 -1.077425E+06 -2.210901E+05 -4.681469E+03 -4.969285E+05  1.437996E-09  2.157307E-10
       213  15 -1.065724E+06 -2.332433E+05 -8.518542E+03 -5.105622E+05  5.665092E-10 -7.954845E-10
       213  16 -1.431525E+06 -3.665779E+05 -7.715719E+04 -6.116575E+05  3.346281E-10 -2.082626E-10
       213  17 -1.560998E+06 -3.975737E+05 -1.027830E+05 -6.304944E+05 -2.895395E-10 -1.240435E-09
       213  18 -1.667022E+06 -4.526882E+05 -1.303610E+05 -6.766636E+05 -1.780742E-09 -2.033870E-09
       213  19 -6.996394E+05 -9.943743E+04  7.189285E+04 -4.095498E+05 -2.369437E+04  2.087907E+04
       213  20 -5.936117E+05 -4.458635E+04  9.341093E+04 -3.632676E+05 -2.911895E+04  2.888202E+04
       213  21 -4.640511E+05 -1.376600E+04  1.133106E+05 -3.443130E+05 -3.449067E+04  3.673035E+04
       213  22 -1.065650E+06 -2.330123E+05 -2.627835E+03 -5.106308E+05 -1.153756E+04  2.543530E+04
       213  23 -1.077424E+06 -2.210888E+05 -4.678825E+03 -4.969290E+05 -1.716957E+04  3.336369E+04
       213  24 -1.065723E+06 -2.332413E+05 -8.514392E+03 -5.105629E+05 -2.274826E+04  4.113749E+04
       213  25 -1.431525E+06 -3.665770E+05 -7.715550E+04 -6.116575E+05  6.116342E+02  2.998869E+04
       213  26 -1.560997E+06 -3.975721E+05 -1.027802E+05 -6.304945E+05 -5.230169E+03  3.784163E+04
       213  27 -1.667021E+06 -4.526860E+05 -1.303569E+05 -6.766640E+05 -1.101809E+04  4.554006E+04
       214   1 -3.830499E+05  1.558005E+04  1.275924E+05 -3.229009E+05  3.845424E+04 -4.113692E+04
       214   2 -2.781204E+05  7.095494E+04  1.426581E+05 -2.747662E+05  4.872763E+04 -4.615599E+04
       214   3 -1.521315E+05  9.800888E+04  1.510281E+05 -2.527285E+05  5.817739E+04 -4.896031E+04
       214   4 -1.066228E+06 -2.329543E+05 -1.130688E+04 -5.108121E+05  2.627581E+04 -4.570999E+04
       214   5 -1.076943E+06 -2.217492E+05 -2.061137E+04 -4.965525E+05  3.956808E+04 -4.960121E+04
       214   6 -1.067215E+06 -2.394717E+05 -3.901333E+04 -5.083975E+05  5.203473E+04 -5.127671E+04
       214   7 -1.748920E+06 -4.814480E+05 -1.502275E+05 -6.985311E+05  1.411189E+04 -5.027767E+04
       214   8 -1.875110E+06 -5.143986E+05 -1.839131E+05 -7.180749E+05  3.042121E+04 -5.304166E+04
       214   9 -1.981447E+06 -5.768820E+05 -2.291012E+05 -7.637195E+05  4.590175E+04 -5.358944E+04
       214  10 -3.830519E+05  1.557784E+04  1.275864E+05 -3.228996E+05  2.396759E-08  9.222539E-09
       214  11 -2.781236E+05  7.095202E+04  1.426497E+05 -2.747644E+05  4.094354E-09  2.639185E-09
       214  12 -1.521358E+05  9.800540E+04  1.510173E+05 -2.527262E+05 -1.968738E-08 -6.360294E-09
       214  13 -1.066229E+06 -2.329567E+05 -1.131210E+04 -5.108111E+05  2.911543E-09  7.420873E-10
       214  14 -1.076946E+06 -2.217523E+05 -2.061894E+04 -4.965509E+05  3.624699E-09  3.065969E-09
       214  15 -1.067219E+06 -2.394753E+05 -3.902336E+04 -5.083953E+05  2.102866E-09  1.092224E-09
       214  16 -1.748921E+06 -4.814507E+05 -1.502327E+05 -6.985305E+05 -1.858111E-08 -7.713212E-09
       214  17 -1.875111E+06 -5.144019E+05 -1.839201E+05 -7.180736E+05  3.934863E-09  2.484209E-09
       214  18 -1.981450E+06 -5.768856E+05 -2.291105E+05 -7.637175E+05  2.336590E-08  9.624423E-09
       214  19 -3.830499E+05  1.558005E+04  1.275924E+05 -3.229009E+05 -3.845424E+04  4.113692E+04
       214  20 -2.781204E+05  7.095494E+04  1.426581E+05 -2.747662E+05 -4.872763E+04  4.615599E+04
       214  21 -1.521315E+05  9.800888E+04  1.510281E+05 -2.527285E+05 -5.817739E+04  4.896031E+04
       214  22 -1.066228E+06 -2.329543E+05 -1.130688E+04 -5.108121E+05 -2.627581E+04  4.570999E+04
       214  23 -1.076943E+06 -2.217492E+05 -2.061137E+04 -4.965525E+05 -3.956808E+04  4.960121E+04
       214  24 -1.067215E+06 -2.394717E+05 -3.901333E+04 -5.083975E+05 -5.203473E+04  5.127671E+04
       214  25 -1.748920E+06 -4.814480E+05 -1.502275E+05 -6.985311E+05 -1.411189E+04  5.027767E+04
       214  26 -1.875110E+06 -5.143986E+05 -1.839131E+05 -7.180749E+05 -3.042121E+04  5.304166E+04
       214  27 -1.981447E+06 -5.768820E+05 -2.291012E+05 -7.637195E+05 -4.590175E+04  5.358944E+04
       215   1 -6.344324E+04  1.212617E+05  1.561436E+05 -2.507025E+05  7.315818E+04 -4.954026E+04
       215   2  1.116388E+04  1.958402E+05  1.507322E+05 -1.452941E+05  7.365590E+04 -4.082414E+04
       215   3  6.577332E+04  1.379150E+05  1.124698E+05 -3.494071E+04  6.132246E+04  1.979314E+03
       215   4 -1.073784E+06 -2.326255E+05 -5.091884E+04 -5.135206E+05  5.998164E+04 -5.449994E+04
       215   5 -1.070726E+06 -2.431900E+05 -9.494826E+04 -4.853929E+05  1.071467E+05 -2.824744E+04
       215   6 -1.097015E+06 -3.956582E+05 -2.089000E+05 -4.523113E+05  1.414637E+05  3.212035E+04
       215   7 -2.083079E+06 -5.864497E+05 -2.580332E+05 -7.759533E+05  4.682819E+04 -5.945185E+04
       215   8 -2.151415E+06 -6.820550E+05 -3.406977E+05 -8.249198E+05  1.405741E+05 -1.569999E+04
       215   9 -2.258433E+06 -9.289318E+05 -5.303614E+05 -8.688996E+05  2.214399E+05  6.216781E+04
       215  10 -6.344964E+04  1.212576E+05  1.561290E+05 -2.506995E+05 -7.594909E-10  1.042530E-10
       215  11  1.115761E+04  1.958369E+05  1.507189E+05 -1.452917E+05 -5.847414E-10  3.557316E-10
       215  12  6.576928E+04  1.379140E+05  1.124627E+05 -3.494080E+04  9.546814E-10  2.045562E-10
       215  13 -1.073788E+06 -2.326297E+05 -5.093118E+04 -5.135179E+05 -1.455959E-10 -3.158526E-10
       215  14 -1.070738E+06 -2.431939E+05 -9.497135E+04 -4.853904E+05  6.697352E-10 -3.962110E-10
       215  15 -1.097037E+06 -3.956647E+05 -2.089396E+05 -4.523150E+05  5.326164E-10 -1.738152E-10
       215  16 -2.083083E+06 -5.864540E+05 -2.580439E+05 -7.759511E+05  1.099515E-09  9.683224E-11
       215  17 -2.151436E+06 -6.820606E+05 -3.407355E+05 -8.249180E+05  1.190953E-09 -1.876314E-09
       215  18 -2.258487E+06 -9.289492E+05 -5.304612E+05 -8.689108E+05 -4.667774E-10 -1.365832E-10
       215  19 -6.344324E+04  1.212617E+05  1.561436E+05 -2.507025E+05 -7.315818E+04  4.954026E+04
       215  20  1.116388E+04  1.958402E+05  1.507322E+05 -1.452941E+05 -7.365590E+04  4.082414E+04
       215  21  6.577332E+04  1.379150E+05  1.124698E+05 -3.494071E+04 -6.132246E+04 -1.979314E+03
       215  22 -1.073784E+06 -2.326255E+05 -5.091884E+04 -5.135206E+05 -5.998164E+04  5.449994E+04
       215  23 -1.070726E+06 -2.431900E+05 -9.494826E+04 -4.853929E+05 -1.071467E+05  2.824744E+04
       215  24 -1.097015E+06 -3.956582E+05 -2.089000E+05 -4.523113E+05 -1.414637E+05 -3.212035E+04
       215  25 -2.083079E+06 -5.864497E+05 -2.580332E+05 -7.759533E+05 -4.682819E+04  5.945185E+04
       215  26 -2.151415E+06 -6.820550E+05 -3.406977E+05 -8.249198E+05 -1.405741E+05  1.569999E+04
       215  27 -2.258433E+06 -9.289318E+05 -5.303614E+05 -8.688996E+05 -2.214399E+05 -6.216781E+04
       216   1 -2.796505E+05 -1.078142E+05 -7.479696E+04 -1.245060E+04  5.954228E+04  1.502318E+04
       216   2 -1.701190E+05 -2.069928E+05 -1.082161E+05 -5.316024E+04  5.396374E+04  4.855237E+04
       216   3 -3.382113E+04 -2.029129E+05 -1.121584E+05 -1.241553E+05  4.841077E+04  5.440111E+04
       216   4  8.201504E+05  1.639746E+05  1.857742E+05 -1.095273E+05  1.290322E+05  1.506891E+04
       216   5  8.033540E+05  2.697767E+04  8.881409E+04 -9.433901E+04  8.288417E+04  4.856088E+04
       216   6  8.202900E+05  1.768262E+02  4.944470E+04 -1.094264E+05  3.676542E+04  5.439118E+04
       216   7  1.921093E+06  4.357148E+05  4.462846E+05 -2.067771E+05  1.986445E+05  1.509288E+04
       216   8  1.777735E+06  2.608962E+05  2.857993E+05 -1.355837E+05  1.118490E+05  4.856557E+04
       216   9  1.675105E+06  2.032248E+05  2.110161E+05 -9.467672E+04  2.510442E+04  5.438071E+04
       216  10 -2.796543E+05 -1.078154E+05 -7.480405E+04 -1.245132E+04  5.999232E-09 -6.776376E-10
       216  11 -1.701228E+05 -2.069961E+05 -1.082260E+05 -5.316235E+04 -9.291059E-09  4.831921E-10
       216  12 -3.382445E+04 -2.029167E+05 -1.121683E+05 -1.241574E+05 -2.257599E-08 -1.240340E-09
       216  13  8.201324E+05  1.639699E+05  1.857425E+05 -1.095289E+05  5.723466E-10  7.381959E-10
       216  14  8.033460E+05  2.697330E+04  8.879676E+04 -9.434225E+04 -1.434400E-09 -3.221539E-11
       216  15  8.202877E+05  1.732856E+02  4.943660E+04 -1.094280E+05 -6.172303E-10 -1.439169E-09
       216  16  1.921050E+06  4.357040E+05  4.462103E+05 -2.067795E+05 -4.199122E-09  5.900910E-10
       216  17  1.777721E+06  2.608903E+05  2.857714E+05 -1.355880E+05  1.027360E-08 -1.622080E-10
       216  18  1.675104E+06  2.032215E+05  2.110093E+05 -9.467782E+04  2.358595E-08  8.982770E-12
       216  19 -2.796505E+05 -1.078142E+05 -7.479696E+04 -1.245060E+04 -5.954228E+04 -1.502318E+04
       216  20 -1.701190E+05 -2.069928E+05 -1.082161E+05 -5.316024E+04 -5.396374E+04 -4.855237E+04
       216  21 -3.382113E+04 -2.029129E+05 -1.121584E+05 -1.241553E+05 -4.841077E+04 -5.440111E+04
       216  22  8.201504E+05  1.639746E+05  1.857742E+05 -1.095273E+05 -1.290322E+05 -1.506891E+04
       216  23  8.033540E+05  2.697767E+04  8.881409E+04 -9.433901E+04 -8.288417E+04 -4.856088E+04
       216  24  8.202900E+05  1.768262E+02  4.944470E+04 -1.094264E+05 -3.676542E+04 -5.439118E+04
       216  25  1.921093E+06  4.357148E+05  4.462846E+05 -2.067771E+05 -1.986445E+05 -1.509288E+04
       216  26  1.777735E+06  2.608962E+05  2.857993E+05 -1.355837E+05 -1.118490E+05 -4.856557E+04
       216  27  1.675105E+06  2.032248E+05  2.110161E+05 -9.467672E+04 -2.510442E+04 -5.438071E+04
       217   1  4.288931E+04 -1.769178E+05 -1.072407E+05 -1.078420E+05  3.715225E+04  4.961146E+04
       217   2  1.640095E+05 -1.531314E+05 -9.915144E+04 -9.360453E+04  2.965971E+04  4.386381E+04
       217   3  2.873219E+05 -1.249049E+05 -8.505016E+04 -1.111102E+05  2.216267E+04  3.609797E+04
       217   4  8.134108E+05  6.168286E+03  3.802200E+04 -1.097731E+05  3.024346E+04  4.960401E+04
       217   5  8.120957E+05  4.441324E+02  2.097929E+04 -9.390231E+04  1.978361E+04  4.385803E+04
       217   6  8.134688E+05 -3.281253E+02  1.200061E+04 -1.097723E+05  9.320714E+03  3.609487E+04
       217   7  1.584505E+06  1.892199E+05  1.832588E+05 -1.117066E+05  2.332629E+04  4.959661E+04
       217   8  1.460589E+06  1.539957E+05  1.410927E+05 -9.420040E+04  9.897461E+03  4.385226E+04
       217   9  1.339884E+06  1.242329E+05  1.090405E+05 -1.084332E+05 -3.531840E+03  3.609173E+04
       217  10  4.288717E+04 -1.769208E+05 -1.072479E+05 -1.078435E+05  2.064071E-08 -1.407939E-09
       217  11  1.640080E+05 -1.531337E+05 -9.915671E+04 -9.360558E+04  8.315971E-09 -5.282136E-10
       217  12  2.873210E+05 -1.249064E+05 -8.505354E+04 -1.111109E+05 -4.932424E-09 -2.384866E-10
       217  13  8.134092E+05  6.165397E+03  3.801566E+04 -1.097743E+05  7.507641E-10 -5.519782E-10
       217  14  8.120948E+05  4.419610E+02  2.097494E+04 -9.390301E+04  3.891973E-10 -4.689431E-10
       217  15  8.134684E+05 -3.295483E+02  1.199799E+04 -1.097726E+05  6.634935E-10 -2.905209E-10
       217  16  1.584504E+06  1.892171E+05  1.832532E+05 -1.117075E+05 -1.996875E-08 -6.540932E-10
       217  17  1.460588E+06  1.539936E+05  1.410889E+05 -9.420075E+04 -8.180648E-09 -7.302610E-10
       217  18  1.339884E+06  1.242315E+05  1.090380E+05 -1.084331E+05  3.471451E-09 -9.216103E-11
       217  19  4.288931E+04 -1.769178E+05 -1.072407E+05 -1.078420E+05 -3.715225E+04 -4.961146E+04
       217  20  1.640095E+05 -1.531314E+05 -9.915144E+04 -9.360453E+04 -2.965971E+04 -4.386381E+04
       217  21  2.873219E+05 -1.249049E+05 -8.505016E+04 -1.111102E+05 -2.216267E+04 -3.609797E+04
       217  22  8.134108E+05  6.168286E+03  3.802200E+04 -1.097731E+05 -3.024346E+04 -4.960401E+04
       217  23  8.120957E+05  4.441324E+02  2.097929E+04 -9.390231E+04 -1.978361E+04 -4.385803E+04
       217  24  8.134688E+05 -3.281253E+02  1.200061E+04 -1.097723E+05 -9.320714E+03 -3.609487E+04
       217  25  1.584505E+06  1.892199E+05  1.832588E+05 -1.117066E+05 -2.332629E+04 -4.959661E+04
       217  26  1.460589E+06  1.539957E+05  1.410927E+05 -9.420040E+04 -9.897461E+03 -4.385226E+04
       217  27  1.339884E+06  1.242329E+05  1.090405E+05 -1.084332E+05  3.531840E+03 -3.609173E+04
       218   1  3.691478E+05 -1.049990E+05 -7.223310E+04 -1.102634E+05  1.995120E+04  3.098324E+04
       218   2  4.909229E+05 -7.629871E+04 -5.387980E+04 -9.422894E+04  1.759706E+04  2.238159E+04
       218   3  6.130897E+05 -4.741181E+04 -3.394174E+04 -1.099887E+05  1.524023E+04  1.363564E+04
       218   4  8.129796E+05 -1.967837E+01  9.119969E+03 -1.097844E+05  7.461446E+03  3.098158E+04
       218   5  8.127853E+05 -1.582644E+02  5.192956E+03 -9.388786E+04  4.893171E+03  2.238153E+04
       218   6  8.130065E+05 -7.237723E+01  2.998324E+03 -1.097845E+05  2.322653E+03  1.363725E+04
       218   7  1.257003E+06  1.049486E+05  9.046558E+04 -1.093050E+05 -5.036993E+03  3.097990E+04
       218   8  1.134749E+06  7.597639E+04  6.426208E+04 -9.354659E+04 -7.817122E+03  2.238145E+04
       218   9  1.012962E+06  4.726487E+04  3.993735E+04 -1.095804E+05 -1.059897E+04  1.363884E+04
       218  10  3.691471E+05 -1.050002E+05 -7.223565E+04 -1.102639E+05 -5.204755E-10  4.202366E-10
       218  11  4.909224E+05 -7.629933E+04 -5.388133E+04 -9.422926E+04 -1.164215E-09  1.035450E-09
       218  12  6.130894E+05 -4.741208E+04 -3.394252E+04 -1.099888E+05  1.068251E-09  1.371623E-10
       218  13  8.129793E+05 -2.072446E+01  9.118060E+03 -1.097846E+05 -8.519569E-10  3.382799E-10
       218  14  8.127852E+05 -1.588089E+02  5.191969E+03 -9.388795E+04 -1.099345E-09  8.054686E-10
       218  15  8.130064E+05 -7.257846E+01  2.997964E+03 -1.097846E+05 -2.555133E-10  6.586960E-10
       218  16  1.257003E+06  1.049476E+05  9.046373E+04 -1.093049E+05 -4.688535E-10  4.107295E-10
       218  17  1.134748E+06  7.597583E+04  6.426102E+04 -9.354645E+04  1.032168E-09  7.184548E-10
       218  18  1.012962E+06  4.726464E+04  3.993678E+04 -1.095803E+05 -1.413558E-09  8.670255E-10
       218  19  3.691478E+05 -1.049990E+05 -7.223310E+04 -1.102634E+05 -1.995120E+04 -3.098324E+04
       218  20  4.909229E+05 -7.629871E+04 -5.387980E+04 -9.422894E+04 -1.759706E+04 -2.238159E+04
       218  21  6.130897E+05 -4.741181E+04 -3.394174E+04 -1.099887E+05 -1.524023E+04 -1.363564E+04
       218  22  8.129796E+05 -1.967837E+01  9.119969E+03 -1.097844E+05 -7.461446E+03 -3.098158E+04
       218  23  8.127853E+05 -1.582644E+02  5.192956E+03 -9.388786E+04 -4.893171E+03 -2.238153E+04
       218  24  8.130065E+05 -7.237723E+01  2.998324E+03 -1.097845E+05 -2.322653E+03 -1.363725E+04
       218  25  1.257003E+06  1.049486E+05  9.046558E+04 -1.093050E+05  5.036993E+03 -3.097990E+04
       218  26  1.134749E+06  7.597639E+04  6.426208E+04 -9.354659E+04  7.817122E+03 -2.238145E+04
       218  27  1.012962E+06  4.726487E+04  3.993735E+04 -1.095804E+05  1.059897E+04 -1.363884E+04
       219   1  6.951740E+05 -2.784255E+04 -1.902538E+04 -1.099332E+05  1.473405E+04  8.503922E+03
       219   2  8.170330E+05  9.433307E+02  2.083752E+03 -9.399276E+04  1.409124E+04 -2.983813E+02
       219   3  9.389981E+05  2.973651E+04  2.361325E+04 -1.098346E+05  1.344833E+04 -9.110657E+03
       219   4  8.129399E+05 -4.769936E+01  2.282947E+03 -1.097821E+05  1.843281E+03  8.506004E+03
       219   5  8.128938E+05 -3.410341E+01  1.331846E+03 -9.389100E+04  1.184447E+03 -2.963357E+02
       219   6  8.129399E+05 -1.033900E+01  8.112686E+02 -1.097822E+05  5.256348E+02 -9.108616E+03
       219   7  9.307197E+05  2.774646E+04  2.359135E+04 -1.096310E+05 -1.104987E+04  8.508079E+03
       219   8  8.087549E+05 -1.011449E+03  5.805654E+02 -9.378925E+04 -1.172226E+04 -2.942943E+02
       219   9  6.868974E+05 -2.975799E+04 -2.199072E+04 -1.097298E+05 -1.239452E+04 -9.106577E+03
       219  10  6.951737E+05 -2.784268E+04 -1.902593E+04 -1.099333E+05  2.861036E-10 -1.557440E-10
       219  11  8.170328E+05  9.432774E+02  2.083379E+03 -9.399276E+04 -1.998860E-09  2.242494E-10
       219  12  9.389979E+05  2.973637E+04  2.361276E+04 -1.098345E+05 -6.881408E-10 -4.972988E-10
       219  13  8.129399E+05 -4.777800E+01  2.282804E+03 -1.097821E+05 -1.055633E-09  1.829035E-10
       219  14  8.128938E+05 -3.410388E+01  1.331843E+03 -9.389100E+04 -2.303374E-09  2.094559E-10
       219  15  8.129399E+05 -1.042820E+01  8.111121E+02 -1.097822E+05 -1.557490E-09 -7.244608E-11
       219  16  9.307195E+05  2.774635E+04  2.359099E+04 -1.096310E+05 -2.105147E-10  7.344209E-10
       219  17  8.087548E+05 -1.011486E+03  5.803074E+02 -9.378925E+04  1.159739E-09  3.002549E-10
       219  18  6.868972E+05 -2.975812E+04 -2.199116E+04 -1.097298E+05  8.470798E-10  6.692833E-10
       219  19  6.951740E+05 -2.784255E+04 -1.902538E+04 -1.099332E+05 -1.473405E+04 -8.503922E+03
       219  20  8.170330E+05  9.433307E+02  2.083752E+03 -9.399276E+04 -1.409124E+04  2.983813E+02
       219  21  9.389981E+05  2.973651E+04  2.361325E+04 -1.098346E+05 -1.344833E+04  9.110657E+03
       219  22  8.129399E+05 -4.769936E+01  2.282947E+03 -1.097821E+05 -1.843281E+03 -8.506004E+03
       219  23  8.128938E+05 -3.410341E+01  1.331846E+03 -9.389100E+04 -1.184447E+03  2.963357E+02
       219  24  8.129399E+05 -1.033900E+01  8.112686E+02 -1.097822E+05 -5.256348E+02  9.108616E+03
       219  25  9.307197E+05  2.774646E+04  2.359135E+04 -1.096310E+05  1.104987E+04 -8.508079E+03
       219  26  8.087549E+05 -1.011449E+03  5.805654E+02 -9.378925E+04  1.172226E+04  2.942943E+02
       219  27  6.868974E+05 -2.975799E+04 -2.199072E+04 -1.097298E+05  1.239452E+04  9.106577E+03
       220   1  1.021155E+06  4.927336E+04  3.908233E+04 -1.098382E+05  1.331823E+04 -1.424319E+04
       220   2  1.143144E+06  7.803475E+04  6.096831E+04 -9.389559E+04  1.307329E+04 -2.305666E+04
       220   3  1.265206E+06  1.067955E+05  8.301849E+04 -1.097572E+05  1.283070E+04 -3.186130E+04
       220   4  8.129264E+05 -1.464107E+01  6.529595E+02 -1.097873E+05  3.914127E+02 -1.424165E+04
       220   5  8.128854E+05 -4.248503E+01  4.707815E+02 -9.388466E+04  1.583134E+02 -2.305683E+04
       220   6  8.129003E+05 -7.242912E+01  4.443524E+02 -1.097873E+05 -7.238489E+01 -3.186314E+04
       220   7  6.047400E+05 -4.930503E+04 -3.777759E+04 -1.097363E+05 -1.253119E+04 -1.424013E+04
       220   8  4.827324E+05 -7.812581E+04 -6.003056E+04 -9.387373E+04 -1.274999E+04 -2.305701E+04
       220   9  3.607929E+05 -1.069518E+05 -8.213743E+04 -1.098173E+05 -1.296634E+04 -3.186498E+04
       220  10  1.021155E+06  4.927310E+04  3.908162E+04 -1.098380E+05 -9.015416E-10 -4.865102E-10
       220  11  1.143144E+06  7.803414E+04  6.096699E+04 -9.389535E+04  4.188796E-10  2.611773E-11
       220  12  1.265206E+06  1.067944E+05  8.301627E+04 -1.097569E+05 -6.860635E-10 -4.856762E-10
       220  13  8.129264E+05 -1.485899E+01  6.525779E+02 -1.097873E+05  1.158638E-09 -1.717429E-10
       220  14  8.128852E+05 -4.305612E+01  4.697821E+02 -9.388466E+04 -5.039901E-10 -2.747922E-10
       220  15  8.129000E+05 -7.351975E+01  4.424438E+02 -1.097873E+05 -2.073701E-09 -3.326021E-10
       220  16  6.047398E+05 -4.930529E+04 -3.777827E+04 -1.097365E+05  1.101373E-11  3.341719E-10
       220  17  4.827320E+05 -7.812642E+04 -6.003187E+04 -9.387397E+04  9.301513E-10 -7.109458E-10
       220  18  3.607925E+05 -1.069529E+05 -8.213965E+04 -1.098176E+05 -9.626851E-11 -1.896998E-10
       220  19  1.021155E+06  4.927336E+04  3.908233E+04 -1.098382E+05 -1.331823E+04  1.424319E+04
       220  20  1.143144E+06  7.803475E+04  6.096831E+04 -9.389559E+04 -1.307329E+04  2.305666E+04
       220  21  1.265206E+06  1.067955E+05  8.301849E+04 -1.097572E+05 -1.283070E+04  3.186130E+04
       220  22  8.129264E+05 -1.464107E+01  6.529595E+02 -1.097873E+05 -3.914127E+02  1.424165E+04
       220  23  8.128854E+05 -4.248503E+01  4.707815E+02 -9.388466E+04 -1.583134E+02  2.305683E+04
       220  24  8.129003E+05 -7.242912E+01  4.443524E+02 -1.097873E+05  7.238489E+01  3.186314E+04
       220  25  6.047400E+05 -4.930503E+04 -3.777759E+04 -1.097363E+05  1.253119E+04  1.424013E+04
       220  26  4.827324E+05 -7.812581E+04 -6.003056E+04 -9.387373E+04  1.274999E+04  2.305701E+04
       220  27  3.607929E+05 -1.069518E+05 -8.213743E+04 -1.098173E+05  1.296634E+04  3.186498E+04
       221   1  1.347529E+06  1.263448E+05  9.871030E+04 -1.097401E+05  1.278903E+04 -3.699789E+04
       221   2  1.469740E+06  1.551412E+05  1.210886E+05 -9.369442E+04  1.219528E+04 -4.573258E+04
       221   3  1.592148E+06  1.839972E+05  1.438892E+05 -1.095110E+05  1.160607E+04 -5.428389E+04
       221   4  8.129025E+05 -9.277985E+01  4.837339E+02 -1.098004E+05 -1.558213E+02 -3.700124E+04
       221   5  8.128072E+05 -1.573631E+02  6.626350E+02 -9.386824E+04 -4.813410E+02 -4.573925E+04
       221   6  8.128502E+05 -2.076615E+02  1.078318E+03 -1.098004E+05 -8.022075E+02 -5.429374E+04
       221   7  2.785531E+05 -1.265465E+05 -9.775395E+04 -1.098607E+05 -1.308984E+04 -3.700459E+04
       221   8  1.562931E+05 -1.554803E+05 -1.197804E+05 -9.404188E+04 -1.314493E+04 -4.574591E+04
       221   9  3.414102E+04 -1.844468E+05 -1.417567E+05 -1.100893E+05 -1.319536E+04 -5.430358E+04
       221  10  1.347528E+06  1.263433E+05  9.870742E+04 -1.097397E+05 -9.427252E-10 -7.218186E-11
       221  11  1.469739E+06  1.551389E+05  1.210844E+05 -9.369397E+04 -1.705297E-09  8.525891E-11
       221  12  1.592147E+06  1.839940E+05  1.438834E+05 -1.095105E+05  1.349429E-09 -5.959065E-10
       221  13  8.129021E+05 -9.425058E+01  4.811600E+02 -1.098004E+05  5.177244E-10  6.973409E-12
       221  14  8.128067E+05 -1.596106E+02  6.587016E+02 -9.386826E+04 -8.739806E-10 -4.705529E-11
       221  15  8.128494E+05 -2.108283E+02  1.072775E+03 -1.098004E+05  7.355310E-10 -5.509284E-10
       221  16  2.785525E+05 -1.265480E+05 -9.775685E+04 -1.098610E+05 -9.711354E-11 -5.203368E-11
       221  17  1.562923E+05 -1.554826E+05 -1.197846E+05 -9.404236E+04 -8.765813E-10 -2.617819E-10
       221  18  3.414004E+04 -1.844501E+05 -1.417626E+05 -1.100899E+05 -2.564671E-09  1.512170E-10
       221  19  1.347529E+06  1.263448E+05  9.871030E+04 -1.097401E+05 -1.278903E+04  3.699789E+04
       221  20  1.469740E+06  1.551412E+05  1.210886E+05 -9.369442E+04 -1.219528E+04  4.573258E+04
       221  21  1.592148E+06  1.839972E+05  1.438892E+05 -1.095110E+05 -1.160607E+04  5.428389E+04
       221  22  8.129025E+05 -9.277985E+01  4.837339E+02 -1.098004E+05  1.558213E+02  3.700124E+04
       221  23  8.128072E+05 -1.573631E+02  6.626350E+02 -9.386824E+04  4.813410E+02  4.573925E+04
       221  24  8.128502E+05 -2.076615E+02  1.078318E+03 -1.098004E+05  8.022075E+02  5.429374E+04
       221  25  2.785531E+05 -1.265465E+05 -9.775395E+04 -1.098607E+05  1.308984E+04  3.700459E+04
       221  26  1.562931E+05 -1.554803E+05 -1.197804E+05 -9.404188E+04  1.314493E+04  4.574591E+04
       221  27  3.414102E+04 -1.844468E+05 -1.417567E+05 -1.100893E+05  1.319536E+04  5.430358E+04
       222   1  1.674884E+06  2.035888E+05  1.599612E+05 -1.093214E+05  1.185593E+04 -5.940148E+04
       222   2  1.797082E+06  2.327341E+05  1.843822E+05 -9.339158E+04  6.842103E+03 -6.687115E+04
       222   3  1.920453E+06  2.630885E+05  2.124122E+05 -1.092676E+05  1.830863E+03 -7.172794E+04
       222   4  8.129019E+05 -2.720126E+02  1.397661E+03 -1.097879E+05 -1.016554E+03 -5.941397E+04
       222   5  8.126166E+05 -2.618384E+02  2.378937E+03 -9.388367E+04 -2.195006E+03 -6.688597E+04
       222   6  8.128231E+05  2.939194E+02  4.311712E+03 -1.097883E+05 -3.369849E+03 -7.174303E+04
       222   7 -4.836038E+04 -2.041750E+05 -1.571959E+05 -1.102539E+05 -1.387168E+04 -5.942646E+04
       222   8 -1.709119E+05 -2.333130E+05 -1.796645E+05 -9.437505E+04 -1.121819E+04 -6.690078E+04
       222   9 -2.936241E+05 -2.625717E+05 -2.038421E+05 -1.103082E+05 -8.561531E+03 -7.175812E+04
       222  10  1.674883E+06  2.035850E+05  1.599543E+05 -1.093208E+05 -6.317223E-10 -1.038550E-09
       222  11  1.797081E+06  2.327293E+05  1.843737E+05 -9.339121E+04  3.617536E-10 -6.644233E-10
       222  12  1.920451E+06  2.630829E+05  2.124025E+05 -1.092675E+05 -7.529538E-10 -1.183945E-09
       222  13  8.129009E+05 -2.758049E+02  1.391023E+03 -1.097880E+05 -7.109135E-10 -5.672235E-10
       222  14  8.126154E+05 -2.666456E+02  2.370518E+03 -9.388379E+04  1.498236E-09 -7.641067E-10
       222  15  8.128217E+05  2.883872E+02  4.302014E+03 -1.097885E+05 -1.261485E-09 -1.058084E-09
       222  16 -4.836154E+04 -2.041788E+05 -1.572029E+05 -1.102545E+05 -4.786917E-10  1.652678E-10
       222  17 -1.709133E+05 -2.333179E+05 -1.796731E+05 -9.437565E+04 -7.442450E-10  1.246988E-09
       222  18 -2.936255E+05 -2.625772E+05 -2.038520E+05 -1.103087E+05 -2.025683E-10 -1.147410E-10
       222  19  1.674884E+06  2.035888E+05  1.599612E+05 -1.093214E+05 -1.185593E+04  5.940148E+04
       222  20  1.797082E+06  2.327341E+05  1.843822E+05 -9.339158E+04 -6.842103E+03  6.687115E+04
       222  21  1.920453E+06  2.630885E+05  2.124122E+05 -1.092676E+05 -1.830863E+03  7.172794E+04
       222  22  8.129019E+05 -2.720126E+02  1.397661E+03 -1.097879E+05  1.016554E+03  5.941397E+04
       222  23  8.126166E+05 -2.618384E+02  2.378937E+03 -9.388367E+04  2.195006E+03  6.688597E+04
       222  24  8.128231E+05  2.939194E+02  4.311712E+03 -1.097883E+05  3.369849E+03  7.174303E+04
       222  25 -4.836038E+04 -2.041750E+05 -1.571959E+05 -1.102539E+05  1.387168E+04  5.942646E+04
       222  26 -1.709119E+05 -2.333130E+05 -1.796645E+05 -9.437505E+04  1.121819E+04  6.690078E+04
       222  27 -2.936241E+05 -2.625717E+05 -2.038421E+05 -1.103082E+05  8.561531E+03  7.175812E+04
       223   1  2.005710E+06  2.825406E+05  2.303031E+05 -1.067438E+05  7.263647E+03 -7.641877E+04
       223   2  2.122752E+06  3.171719E+05  2.741546E+05 -9.791467E+04 -5.058748E+04 -6.629719E+04
       223   3  2.253086E+06  3.735291E+05  3.610885E+05 -1.189120E+05 -1.085190E+05 -2.031518E+04
       223   4  8.136040E+05 -4.339751E+02  5.607725E+03 -1.093431E+05 -4.106487E+03 -7.644217E+04
       223   5  8.114636E+05  2.547661E+03  1.002015E+04 -9.444154E+04 -9.295484E+03 -6.625653E+04
       223   6  8.134956E+05  1.815287E+04  2.102840E+04 -1.093659E+05 -1.455114E+04 -2.017713E+04
       223   7 -3.771328E+05 -2.834910E+05 -2.191496E+05 -1.119376E+05 -1.545537E+04 -7.646550E+04
       223   8 -4.981869E+05 -3.121817E+05 -2.541961E+05 -9.097626E+04  3.191124E+04 -6.621538E+04
       223   9 -6.241765E+05 -3.373664E+05 -3.191419E+05 -9.984260E+04  7.920070E+04 -2.003605E+04
       223  10  2.005708E+06  2.825343E+05  2.302920E+05 -1.067433E+05  1.168767E-09 -2.239794E-09
       223  11  2.122748E+06  3.171665E+05  2.741416E+05 -9.791737E+04 -2.874776E-09 -4.320909E-09
       223  12  2.253073E+06  3.735255E+05  3.610657E+05 -1.189138E+05 -2.782099E-09 -1.081303E-09
       223  13  8.136024E+05 -4.402568E+02  5.596708E+03 -1.093434E+05 -1.209283E-09 -5.433289E-09
       223  14  8.114624E+05  2.542922E+03  1.001174E+04 -9.444204E+04  1.213405E-09  2.309622E-09
       223  15  8.134952E+05  1.815238E+04  2.102723E+04 -1.093662E+05 -2.024884E-10 -4.233061E-10
       223  16 -3.771346E+05 -2.834974E+05 -2.191610E+05 -1.119385E+05 -2.073972E-10 -1.208855E-09
       223  17 -4.981892E+05 -3.121867E+05 -2.542063E+05 -9.097455E+04 -1.504328E-11  1.196710E-09
       223  18 -6.241834E+05 -3.373685E+05 -3.191544E+05 -9.984132E+04  3.050177E-09 -1.687802E-09
       223  19  2.005710E+06  2.825406E+05  2.303031E+05 -1.067438E+05 -7.263647E+03  7.641877E+04
       223  20  2.122752E+06  3.171719E+05  2.741546E+05 -9.791467E+04  5.058748E+04  6.629719E+04
       223  21  2.253086E+06  3.735291E+05  3.610885E+05 -1.189120E+05  1.085190E+05  2.031518E+04
       223  22  8.136040E+05 -4.339751E+02  5.607725E+03 -1.093431E+05  4.106487E+03  7.644217E+04
       223  23  8.114636E+05  2.547661E+03  1.002015E+04 -9.444154E+04  9.295484E+03  6.625653E+04
       223  24  8.134956E+05  1.815287E+04  2.102840E+04 -1.093659E+05  1.455114E+04  2.017713E+04
       223  25 -3.771328E+05 -2.834910E+05 -2.191496E+05 -1.119376E+05  1.545537E+04  7.646550E+04
       223  26 -4.981869E+05 -3.121817E+05 -2.541961E+05 -9.097626E+04 -3.191124E+04  6.621538E+04
       223  27 -6.241765E+05 -3.373664E+05 -3.191419E+05 -9.984260E+04 -7.920070E+04  2.003605E+04
       224   1  5.262264E+05  2.090318E+06  5.114016E+05 -4.618486E+05  2.280084E+04  1.253535E+05
       224   2  3.692333E+05  1.587920E+06  3.282999E+05 -3.893135E+05  6.825309E+04  3.968029E+04
       224   3  2.453736E+05  1.105036E+06  2.091176E+05 -4.416050E+05  6.125621E+04 -4.598572E+04
       224   4  2.938416E+04  8.306585E+04  3.217533E+04 -4.420658E+05  2.300857E+04  2.038001E+04
       224   5  5.692939E+03  8.030999E+04  1.690438E+04 -3.796753E+05  6.832686E+04  1.174034E+04
       224   6  1.845581E+03  8.354047E+04  1.219921E+04 -4.421210E+05  6.114073E+04  3.038554E+03
       224   7 -4.677421E+05 -1.920476E+06 -4.472930E+05 -4.223442E+05  2.321005E+04 -8.425650E+04
       224   8 -3.579904E+05 -1.425147E+06 -2.946112E+05 -3.700592E+05  6.839988E+04 -1.613311E+04
       224   9 -2.417431E+05 -9.369477E+05 -1.847586E+05 -4.426351E+05  6.102505E+04  5.198412E+04
       224  10  5.262217E+05  2.090301E+06  5.113711E+05 -4.618509E+05  3.639958E-10 -2.551179E-10
       224  11  3.692279E+05  1.587918E+06  3.282882E+05 -3.893157E+05  8.138395E-10 -1.025175E-09
       224  12  2.453690E+05  1.105033E+06  2.091066E+05 -4.416028E+05  4.109343E-10 -9.987762E-10
       224  13  2.938348E+04  8.306527E+04  3.217355E+04 -4.420662E+05 -4.773194E-10 -1.043379E-11
       224  14  5.687888E+03  8.030859E+04  1.689535E+04 -3.796760E+05  1.039952E-09  1.722023E-09
       224  15  1.841564E+03  8.353946E+04  1.219216E+04 -4.421211E+05  1.108388E-10  2.817141E-10
       224  16 -4.677446E+05 -1.920484E+06 -4.473074E+05 -4.223426E+05  6.388710E-10  1.948780E-10
       224  17 -3.579955E+05 -1.425149E+06 -2.946205E+05 -3.700583E+05  1.847472E-09  3.233301E-09
       224  18 -2.417478E+05 -9.369516E+05 -1.847707E+05 -4.426377E+05 -1.439501E-10 -4.285859E-10
       224  19  5.262264E+05  2.090318E+06  5.114016E+05 -4.618486E+05 -2.280084E+04 -1.253535E+05
       224  20  3.692333E+05  1.587920E+06  3.282999E+05 -3.893135E+05 -6.825309E+04 -3.968029E+04
       224  21  2.453736E+05  1.105036E+06  2.091176E+05 -4.416050E+05 -6.125621E+04  4.598572E+04
       224  22  2.938416E+04  8.306585E+04  3.217533E+04 -4.420658E+05 -2.300857E+04 -2.038001E+04
       224  23  5.692939E+03  8.030999E+04  1.690438E+04 -3.796753E+05 -6.832686E+04 -1.174034E+04
       224  24  1.845581E+03  8.354047E+04  1.219921E+04 -4.421210E+05 -6.114073E+04 -3.038554E+03
       224  25 -4.677421E+05 -1.920476E+06 -4.472930E+05 -4.223442E+05 -2.321005E+04  8.425650E+04
       224  26 -3.579904E+05 -1.425147E+06 -2.946112E+05 -3.700592E+05 -6.839988E+04  1.613311E+04
       224  27 -2.417431E+05 -9.369477E+05 -1.847586E+05 -4.426351E+05 -6.102505E+04 -5.198412E+04
       225   1  1.668198E+05  7.699653E+05  1.440813E+05 -4.449319E+05  4.126968E+04 -3.943619E+04
       225   2  4.838932E+04  2.773384E+05  4.891031E+04 -3.791033E+05  1.328422E+04 -4.680248E+04
       225   3 -6.634697E+04 -2.137388E+05 -4.071146E+04 -4.410811E+05 -1.539346E+04 -5.416941E+04
       225   4  2.898083E+03  8.257542E+04  1.155449E+04 -4.427737E+05  4.116667E+04  1.084267E+03
       225   5  2.082854E+03  8.203660E+04  1.263650E+04 -3.788676E+05  1.317566E+04 -5.280281E+03
       225   6  4.799884E+03  8.263757E+04  1.857312E+04 -4.427689E+05 -1.550825E+04 -1.165100E+04
       225   7 -1.610508E+05 -6.043570E+05 -1.209881E+05 -4.406174E+05  4.106387E+04  4.156093E+04
       225   8 -4.422487E+04 -1.132246E+05 -2.363245E+04 -3.786318E+05  1.306711E+04  3.622920E+04
       225   9  7.594232E+04  3.791017E+05  7.786007E+04 -4.444575E+05 -1.562323E+04  3.088731E+04
       225  10  1.668175E+05  7.699632E+05  1.440752E+05 -4.449306E+05  1.124233E-10  1.060777E-09
       225  11  4.838854E+04  2.773360E+05  4.890587E+04 -3.791028E+05 -6.226646E-11 -1.523403E-09
       225  12 -6.634802E+04 -2.137421E+05 -4.071743E+04 -4.410818E+05 -8.522362E-10 -1.416605E-09
       225  13  2.896263E+03  8.257496E+04  1.155130E+04 -4.427737E+05 -1.181992E-10  5.924048E-11
       225  14  2.082660E+03  8.203652E+04  1.263612E+04 -3.788675E+05  4.454420E-10  2.177282E-09
       225  15  4.799589E+03  8.263736E+04  1.857242E+04 -4.427691E+05 -6.062843E-10  2.730447E-10
       225  16 -1.610530E+05 -6.043593E+05 -1.209945E+05 -4.406188E+05 -4.294525E-10 -1.025317E-09
       225  17 -4.422541E+04 -1.132261E+05 -2.363524E+04 -3.786322E+05  1.763382E-09  3.664811E-09
       225  18  7.594180E+04  3.791006E+05  7.785782E+04 -4.444572E+05 -8.623107E-12 -2.469959E-10
       225  19  1.668198E+05  7.699653E+05  1.440813E+05 -4.449319E+05 -4.126968E+04  3.943619E+04
       225  20  4.838932E+04  2.773384E+05  4.891031E+04 -3.791033E+05 -1.328422E+04  4.680248E+04
       225  21 -6.634697E+04 -2.137388E+05 -4.071146E+04 -4.410811E+05  1.539346E+04  5.416941E+04
       225  22  2.898083E+03  8.257542E+04  1.155449E+04 -4.427737E+05 -4.116667E+04 -1.084267E+03
       225  23  2.082854E+03  8.203660E+04  1.263650E+04 -3.788676E+05 -1.317566E+04  5.280281E+03
       225  24  4.799884E+03  8.263757E+04  1.857312E+04 -4.427689E+05  1.550825E+04  1.165100E+04
       225  25 -1.610508E+05 -6.043570E+05 -1.209881E+05 -4.406174E+05 -4.106387E+04 -4.156093E+04
       225  26 -4.422487E+04 -1.132246E+05 -2.363245E+04 -3.786318E+05 -1.306711E+04 -3.622920E+04
       225  27  7.594232E+04  3.791017E+05  7.786007E+04 -4.444575E+05  1.562323E+04 -3.088731E+04
       226   1 -1.484830E+05 -5.441245E+05 -1.004224E+05 -4.473322E+05 -3.546519E+04 -6.410614E+04
       226   2 -2.568498E+05 -1.037781E+06 -1.941080E+05 -3.593530E+05 -4.776379E+04 -2.170037E+04
       226   3 -3.271852E+05 -1.527516E+06 -3.060132E+05 -3.968181E+05 -1.707412E+04  2.073579E+04
       226   4  2.154726E+03  8.556386E+04  2.306463E+04 -4.422604E+05 -3.559381E+04 -1.486695E+04
       226   5  1.327511E+04  7.809713E+04  3.946482E+04 -3.794781E+05 -4.772416E+04 -3.534084E+04
       226   6  7.331605E+04  8.520987E+04  8.131550E+04 -4.421064E+05 -1.690490E+04 -5.575077E+04
       226   7  1.527699E+05  7.156377E+05  1.465417E+05 -4.371830E+05 -3.572154E+04  3.442116E+04
       226   8  2.833217E+05  1.195155E+06  2.729693E+05 -3.996389E+05 -4.768369E+04 -4.900541E+04
       226   9  4.736385E+05  1.700338E+06  4.684824E+05 -4.875110E+05 -1.672478E+04 -1.324355E+05
       226  10 -1.484854E+05 -5.441293E+05 -1.004325E+05 -4.473340E+05  5.277141E-10  1.897372E-09
       226  11 -2.568524E+05 -1.037783E+06 -1.941131E+05 -3.593539E+05  9.914011E-10 -1.223285E-09
       226  12 -3.271856E+05 -1.527517E+06 -3.060145E+05 -3.968178E+05  6.172187E-11 -2.734301E-09
       226  13  2.153306E+03  8.556328E+04  2.306183E+04 -4.422608E+05  1.605376E-09  2.314666E-11
       226  14  1.327233E+04  7.809518E+04  3.945819E+04 -3.794794E+05 -1.383782E-09  1.867985E-09
       226  15  7.331491E+04  8.520645E+04  8.130911E+04 -4.421072E+05  8.401278E-11  1.800731E-10
       226  16  1.527682E+05  7.156361E+05  1.465371E+05 -4.371820E+05 -1.139263E-09 -1.652872E-09
       226  17  2.833186E+05  1.195152E+06  2.729605E+05 -3.996408E+05  5.332623E-11  3.148002E-09
       226  18  4.736335E+05  1.700319E+06  4.684490E+05 -4.875128E+05  1.550305E-10  1.437154E-09
       226  19 -1.484830E+05 -5.441245E+05 -1.004224E+05 -4.473322E+05  3.546519E+04  6.410614E+04
       226  20 -2.568498E+05 -1.037781E+06 -1.941080E+05 -3.593530E+05  4.776379E+04  2.170037E+04
       226  21 -3.271852E+05 -1.527516E+06 -3.060132E+05 -3.968181E+05  1.707412E+04 -2.073579E+04
       226  22  2.154726E+03  8.556386E+04  2.306463E+04 -4.422604E+05  3.559381E+04  1.486695E+04
       226  23  1.327511E+04  7.809713E+04  3.946482E+04 -3.794781E+05  4.772416E+04  3.534084E+04
       226  24  7.331605E+04  8.520987E+04  8.131550E+04 -4.421064E+05  1.690490E+04  5.575077E+04
       226  25  1.527699E+05  7.156377E+05  1.465417E+05 -4.371830E+05  3.572154E+04 -3.442116E+04
       226  26  2.833217E+05  1.195155E+06  2.729693E+05 -3.996389E+05  4.768369E+04  4.900541E+04
       226  27  4.736385E+05  1.700338E+06  4.684824E+05 -4.875110E+05  1.672478E+04  1.324355E+05
       227   1 -1.407420E+06 -6.221233E+05 -3.585118E+05 -5.641223E+05 -1.578679E+05 -4.707832E+04
       227   2 -1.329349E+06 -4.301576E+05 -2.188504E+05 -5.310907E+05 -9.893561E+04  2.139598E+03
       227   3 -1.281480E+06 -3.561298E+05 -1.572820E+05 -4.928787E+05 -3.229232E+04  3.090390E+04
       227   4 -7.295332E+05 -2.903053E+05 -1.668366E+05 -2.996478E+05 -1.114929E+05 -2.966610E+04
       227   5 -7.079858E+05 -1.690257E+05 -7.582491E+04 -3.266815E+05 -8.051609E+04  9.053111E+03
       227   6 -7.110523E+05 -1.600846E+05 -4.067644E+04 -3.485525E+05 -4.184153E+04  2.731368E+04
       227   7 -5.118506E+04  4.164232E+04  2.480321E+04 -3.488152E+04 -6.506317E+04 -1.221873E+04
       227   8 -8.622908E+04  9.216926E+04  6.717599E+04 -1.220730E+05 -6.207668E+04  1.597649E+04
       227   9 -1.402889E+05  3.597910E+04  7.591368E+04 -2.041072E+05 -5.140027E+04  2.372040E+04
       227  10 -1.407448E+06 -6.221324E+05 -3.585629E+05 -5.641283E+05  1.374411E-09  3.903523E-10
       227  11 -1.329359E+06 -4.301602E+05 -2.188688E+05 -5.310905E+05 -6.247535E-09 -4.736142E-09
       227  12 -1.281481E+06 -3.561311E+05 -1.572858E+05 -4.928779E+05 -8.101041E-09 -2.310823E-09
       227  13 -7.295468E+05 -2.903096E+05 -1.668616E+05 -2.996505E+05 -2.712875E-09 -2.315169E-10
       227  14 -7.079928E+05 -1.690275E+05 -7.583725E+04 -3.266809E+05 -5.275389E-09 -2.564545E-09
       227  15 -7.110543E+05 -1.600858E+05 -4.068113E+04 -3.485515E+05 -1.988548E-09 -1.586352E-09
       227  16 -5.118965E+04  4.164103E+04  2.479497E+04 -3.488216E+04 -7.304185E-09 -2.868049E-09
       227  17 -8.623328E+04  9.216795E+04  6.716826E+04 -1.220722E+05 -6.719045E-09 -2.030396E-09
       227  18 -1.402919E+05  3.597778E+04  7.590766E+04 -2.041062E+05  2.349729E-09  6.739800E-10
       227  19 -1.407420E+06 -6.221233E+05 -3.585118E+05 -5.641223E+05  1.578679E+05  4.707832E+04
       227  20 -1.329349E+06 -4.301576E+05 -2.188504E+05 -5.310907E+05  9.893561E+04 -2.139598E+03
       227  21 -1.281480E+06 -3.561298E+05 -1.572820E+05 -4.928787E+05  3.229232E+04 -3.090390E+04
       227  22 -7.295332E+05 -2.903053E+05 -1.668366E+05 -2.996478E+05  1.114929E+05  2.966610E+04
       227  23 -7.079858E+05 -1.690257E+05 -7.582491E+04 -3.266815E+05  8.051609E+04 -9.053111E+03
       227  24 -7.110523E+05 -1.600846E+05 -4.067644E+04 -3.485525E+05  4.184153E+04 -2.731368E+04
       227  25 -5.118506E+04  4.164232E+04  2.480321E+04 -3.488152E+04  6.506317E+04  1.221873E+04
       227  26 -8.622908E+04  9.216926E+04  6.717599E+04 -1.220730E+05  6.207668E+04 -1.597649E+04
       227  27 -1.402889E+05  3.597910E+04  7.591368E+04 -2.041072E+05  5.140027E+04 -2.372040E+04
       228   1 -1.205468E+06 -3.503540E+05 -1.352210E+05 -4.844718E+05 -3.030105E+04  2.712399E+04
       228   2 -1.127055E+06 -3.040337E+05 -1.012623E+05 -4.508460E+05 -1.850348E+04  2.636390E+04
       228   3 -1.034170E+06 -2.797477E+05 -7.602118E+04 -4.364152E+05 -6.209673E+03  2.428036E+04
       228   4 -7.058891E+05 -1.654839E+05 -3.116449E+04 -3.443588E+05 -3.563276E+04  2.511869E+04
       228   5 -7.129264E+05 -1.520794E+05 -1.646379E+04 -3.357178E+05 -2.563996E+04  2.368243E+04
       228   6 -7.051376E+05 -1.603487E+05 -9.043545E+03 -3.462744E+05 -1.515251E+04  2.092261E+04
       228   7 -2.060582E+05  1.940696E+04  7.287773E+04 -2.041422E+05 -4.096905E+04  2.311164E+04
       228   8 -2.986209E+05 -1.103052E+02  6.832617E+04 -2.205185E+05 -3.278156E+04  2.099903E+04
       228   9 -3.759909E+05 -4.094002E+04  5.792968E+04 -2.560888E+05 -2.410052E+04  1.756296E+04
       228  10 -1.205469E+06 -3.503550E+05 -1.352241E+05 -4.844712E+05 -1.240257E-09  3.556861E-10
       228  11 -1.127056E+06 -3.040346E+05 -1.012643E+05 -4.508456E+05 -1.443519E-09  4.116590E-10
       228  12 -1.034170E+06 -2.797483E+05 -7.602236E+04 -4.364151E+05 -1.644114E-09  4.530809E-10
       228  13 -7.058906E+05 -1.654849E+05 -3.116806E+04 -3.443581E+05 -1.362791E-09  7.637338E-10
       228  14 -7.129273E+05 -1.520802E+05 -1.646608E+04 -3.357173E+05 -4.654814E-10 -3.612169E-11
       228  15 -7.051380E+05 -1.603493E+05 -9.044799E+03 -3.462741E+05 -2.918663E-09  1.117513E-09
       228  16 -2.060602E+05  1.940593E+04  7.287357E+04 -2.041415E+05  6.596079E-10 -4.177061E-10
       228  17 -2.986222E+05 -1.110668E+02  6.832332E+04 -2.205180E+05  3.338691E-10  2.068512E-09
       228  18 -3.759916E+05 -4.094051E+04  5.792801E+04 -2.560884E+05  7.206711E-10  1.748363E-09
       228  19 -1.205468E+06 -3.503540E+05 -1.352210E+05 -4.844718E+05  3.030105E+04 -2.712399E+04
       228  20 -1.127055E+06 -3.040337E+05 -1.012623E+05 -4.508460E+05  1.850348E+04 -2.636390E+04
       228  21 -1.034170E+06 -2.797477E+05 -7.602118E+04 -4.364152E+05  6.209673E+03 -2.428036E+04
       228  22 -7.058891E+05 -1.654839E+05 -3.116449E+04 -3.443588E+05  3.563276E+04 -2.511869E+04
       228  23 -7.129264E+05 -1.520794E+05 -1.646379E+04 -3.357178E+05  2.563996E+04 -2.368243E+04
       228  24 -7.051376E+05 -1.603487E+05 -9.043545E+03 -3.462744E+05  1.515251E+04 -2.092261E+04
       228  25 -2.060582E+05  1.940696E+04  7.287773E+04 -2.041422E+05  4.096905E+04 -2.311164E+04
       228  26 -2.986209E+05 -1.103052E+02  6.832617E+04 -2.205185E+05  3.278156E+04 -2.099903E+04
       228  27 -3.759909E+05 -4.094002E+04  5.792968E+04 -2.560888E+05  2.410052E+04 -1.756296E+04
       229   1 -9.738722E+05 -2.586638E+05 -6.123952E+04 -4.203404E+05 -3.779558E+03  2.086001E+04
       229   2 -8.959541E+05 -2.182061E+05 -4.078675E+04 -3.864193E+05  6.089036E+02  1.522646E+04
       229   3 -8.008460E+05 -1.954914E+05 -2.186906E+04 -3.725704E+05  5.029286E+03  9.504935E+03
       229   4 -7.047557E+05 -1.605719E+05 -6.813600E+03 -3.460518E+05 -1.245655E+04  1.760287E+04
       229   5 -7.133441E+05 -1.516486E+05 -3.757089E+03 -3.360358E+05 -8.188050E+03  1.192515E+04
       229   6 -7.047262E+05 -1.604443E+05 -2.140012E+03 -3.460945E+05 -3.887941E+03  6.159403E+03
       229   7 -4.355645E+05 -6.247399E+04  4.760902E+04 -2.717334E+05 -2.113760E+04  1.434422E+04
       229   8 -5.307003E+05 -8.508847E+04  3.327103E+04 -2.856389E+05 -1.698775E+04  8.622827E+03
       229   9 -6.085976E+05 -1.253967E+05  1.758868E+04 -3.196150E+05 -1.280658E+04  2.813345E+03
       229  10 -9.738724E+05 -2.586642E+05 -6.124036E+04 -4.203404E+05 -1.260398E-10  6.707725E-10
       229  11 -8.959542E+05 -2.182063E+05 -4.078719E+04 -3.864193E+05 -2.519257E-09 -8.980574E-11
       229  12 -8.008460E+05 -1.954915E+05 -2.186928E+04 -3.725704E+05 -3.375573E-10  1.936821E-10
       229  13 -7.047560E+05 -1.605723E+05 -6.814474E+03 -3.460516E+05 -7.218985E-10  5.225325E-10
       229  14 -7.133442E+05 -1.516487E+05 -3.757482E+03 -3.360358E+05 -8.548947E-10  1.377451E-10
       229  15 -7.047262E+05 -1.604444E+05 -2.140112E+03 -3.460945E+05  4.196880E-09  1.805659E-09
       229  16 -4.355650E+05 -6.247433E+04  4.760779E+04 -2.717331E+05 -1.658744E-09  1.707991E-10
       229  17 -5.307006E+05 -8.508863E+04  3.327034E+04 -2.856387E+05  3.779616E-09 -4.910302E-11
       229  18 -6.085977E+05 -1.253968E+05  1.758836E+04 -3.196150E+05  1.044108E-08  3.544207E-09
       229  19 -9.738722E+05 -2.586638E+05 -6.123952E+04 -4.203404E+05  3.779558E+03 -2.086001E+04
       229  20 -8.959541E+05 -2.182061E+05 -4.078675E+04 -3.864193E+05 -6.089036E+02 -1.522646E+04
       229  21 -8.008460E+05 -1.954914E+05 -2.186906E+04 -3.725704E+05 -5.029286E+03 -9.504935E+03
       229  22 -7.047557E+05 -1.605719E+05 -6.813600E+03 -3.460518E+05  1.245655E+04 -1.760287E+04
       229  23 -7.133441E+05 -1.516486E+05 -3.757089E+03 -3.360358E+05  8.188050E+03 -1.192515E+04
       229  24 -7.047262E+05 -1.604443E+05 -2.140012E+03 -3.460945E+05  3.887941E+03 -6.159403E+03
       229  25 -4.355645E+05 -6.247399E+04  4.760902E+04 -2.717334E+05  2.113760E+04 -1.434422E+04
       229  26 -5.307003E+05 -8.508847E+04  3.327103E+04 -2.856389E+05  1.698775E+04 -8.622827E+03
       229  27 -6.085976E+05 -1.253967E+05  1.758868E+04 -3.196150E+05  1.280658E+04 -2.813345E+03
       230   1 -7.412987E+05 -1.737095E+05 -8.825428E+03 -3.561509E+05  6.751287E+03  5.826995E+03
       230   2 -6.634898E+05 -1.334073E+05  9.029007E+03 -3.221592E+05  9.739309E+03 -4.697919E+02
       230   3 -5.682263E+05 -1.106424E+05  2.647364E+04 -3.082374E+05  1.272920E+04 -6.770464E+03
       230   4 -7.046782E+05 -1.604517E+05 -1.663861E+03 -3.460758E+05 -2.150244E+03  2.487541E+03
       230   5 -7.134041E+05 -1.516939E+05 -1.088946E+03 -3.360353E+05  8.316622E+02 -3.811810E+03
       230   6 -7.046838E+05 -1.604738E+05 -9.196250E+02 -3.460685E+05  3.815339E+03 -1.011505E+04
       230   7 -6.680557E+05 -1.471935E+05  5.498069E+03 -3.360000E+05 -1.105241E+04 -8.521481E+02
       230   8 -7.633158E+05 -1.699802E+05 -1.120674E+04 -3.499104E+05 -8.075252E+03 -7.153551E+03
       230   9 -8.411219E+05 -2.103036E+05 -2.831347E+04 -3.838920E+05 -5.096415E+03 -1.345884E+04
       230  10 -7.412988E+05 -1.737096E+05 -8.825577E+03 -3.561510E+05 -1.539219E-08 -6.545694E-09
       230  11 -6.634899E+05 -1.334073E+05  9.028828E+03 -3.221592E+05  5.007381E-09 -1.712095E-09
       230  12 -5.682264E+05 -1.106425E+05  2.647325E+04 -3.082373E+05  2.437477E-08  7.126486E-09
       230  13 -7.046782E+05 -1.604517E+05 -1.663881E+03 -3.460758E+05  6.342603E-09  1.550845E-09
       230  14 -7.134041E+05 -1.516939E+05 -1.088975E+03 -3.360353E+05  2.520187E-09 -1.247715E-09
       230  15 -7.046838E+05 -1.604740E+05 -9.198446E+02 -3.460685E+05 -6.611823E-10 -1.137593E-09
       230  16 -6.680558E+05 -1.471936E+05  5.497838E+03 -3.360000E+05  2.615878E-08  9.390104E-09
       230  17 -7.633159E+05 -1.699803E+05 -1.120696E+04 -3.499104E+05  1.288753E-09 -6.497146E-10
       230  18 -8.411220E+05 -2.103038E+05 -2.831386E+04 -3.838920E+05 -2.409572E-08 -9.485486E-09
       230  19 -7.412987E+05 -1.737095E+05 -8.825428E+03 -3.561509E+05 -6.751287E+03 -5.826995E+03
       230  20 -6.634898E+05 -1.334073E+05  9.029007E+03 -3.221592E+05 -9.739309E+03  4.697919E+02
       230  21 -5.682263E+05 -1.106424E+05  2.647364E+04 -3.082374E+05 -1.272920E+04  6.770464E+03
       230  22 -7.046782E+05 -1.604517E+05 -1.663861E+03 -3.460758E+05  2.150244E+03 -2.487541E+03
       230  23 -7.134041E+05 -1.516939E+05 -1.088946E+03 -3.360353E+05 -8.316622E+02  3.811810E+03
       230  24 -7.046838E+05 -1.604738E+05 -9.196250E+02 -3.460685E+05 -3.815339E+03  1.011505E+04
       230  25 -6.680557E+05 -1.471935E+05  5.498069E+03 -3.360000E+05  1.105241E+04  8.521481E+02
       230  26 -7.633158E+05 -1.699802E+05 -1.120674E+04 -3.499104E+05  8.075252E+03  7.153551E+03
       230  27 -8.411219E+05 -2.103036E+05 -2.831347E+04 -3.838920E+05  5.096415E+03  1.345884E+04
       231   1 -5.087789E+05 -8.883703E+04  3.899677E+04 -2.918039E+05  1.430477E+04 -1.050024E+04
       231   2 -4.310606E+05 -4.857049E+04  5.590152E+04 -2.578377E+05  1.737734E+04 -1.676191E+04
       231   3 -3.359060E+05 -2.582189E+04  7.233661E+04 -2.439150E+05  2.044714E+04 -2.301081E+04
       231   4 -7.046937E+05 -1.604741E+05 -9.571872E+02 -3.460633E+05  5.393339E+03 -1.384437E+04
       231   5 -7.134160E+05 -1.517241E+05 -1.303914E+03 -3.360391E+05  8.481988E+03 -2.010135E+04
       231   6 -7.047123E+05 -1.604962E+05 -2.132992E+03 -3.460619E+05  1.156779E+04 -2.634559E+04
       231   7 -9.005673E+05 -2.321074E+05 -4.091233E+04 -4.003064E+05 -3.515000E+03 -1.718735E+04
       231   8 -9.956890E+05 -2.548709E+05 -5.851299E+04 -4.142076E+05 -4.090111E+02 -2.343916E+04
       231   9 -1.073381E+06 -2.951598E+05 -7.660980E+04 -4.481534E+05  2.694042E+03 -2.967827E+04
       231  10 -5.087791E+05 -8.883720E+04  3.899618E+04 -2.918038E+05  1.450437E-10 -2.065033E-10
       231  11 -4.310610E+05 -4.857087E+04  5.590043E+04 -2.578374E+05  5.584279E-10  1.799772E-09
       231  12 -3.359066E+05 -2.582257E+04  7.233483E+04 -2.439146E+05  2.224136E-09  1.224212E-09
       231  13 -7.046938E+05 -1.604744E+05 -9.576019E+02 -3.460632E+05  4.527656E-10  2.308958E-11
       231  14 -7.134162E+05 -1.517246E+05 -1.304809E+03 -3.360390E+05 -6.080182E-10  9.120374E-10
       231  15 -7.047127E+05 -1.604969E+05 -2.134547E+03 -3.460616E+05 -9.532121E-10  3.850789E-10
       231  16 -9.005674E+05 -2.321077E+05 -4.091290E+04 -4.003065E+05  3.612525E-10  4.317835E-10
       231  17 -9.956892E+05 -2.548715E+05 -5.851402E+04 -4.142076E+05 -5.587425E-10  9.520368E-10
       231  18 -1.073382E+06 -2.951608E+05 -7.661146E+04 -4.481533E+05 -2.671693E-09  6.423128E-10
       231  19 -5.087789E+05 -8.883703E+04  3.899677E+04 -2.918039E+05 -1.430477E+04  1.050024E+04
       231  20 -4.310606E+05 -4.857049E+04  5.590152E+04 -2.578377E+05 -1.737734E+04  1.676191E+04
       231  21 -3.359060E+05 -2.582189E+04  7.233661E+04 -2.439150E+05 -2.044714E+04  2.301081E+04
       231  22 -7.046937E+05 -1.604741E+05 -9.571872E+02 -3.460633E+05 -5.393339E+03  1.384437E+04
       231  23 -7.134160E+05 -1.517241E+05 -1.303914E+03 -3.360391E+05 -8.481988E+03  2.010135E+04
       231  24 -7.047123E+05 -1.604962E+05 -2.132992E+03 -3.460619E+05 -1.156779E+04  2.634559E+04
       231  25 -9.005673E+05 -2.321074E+05 -4.091233E+04 -4.003064E+05  3.515000E+03  1.718735E+04
       231  26 -9.956890E+05 -2.548709E+05 -5.851299E+04 -4.142076E+05  4.090111E+02  2.343916E+04
       231  27 -1.073381E+06 -2.951598E+05 -7.660980E+04 -4.481534E+05 -2.694042E+03  2.967827E+04
       232   1 -2.766122E+05 -4.067035E+03  8.421951E+04 -2.275474E+05  2.229276E+04 -2.663075E+04
       232   2 -1.989892E+05  3.612122E+04  9.928887E+04 -1.936446E+05  2.700697E+04 -3.219414E+04
       232   3 -1.042377E+05  5.861799E+04  1.126052E+05 -1.797314E+05  3.167592E+04 -3.762676E+04
       232   4 -7.047906E+05 -1.604871E+05 -2.784580E+03 -3.460753E+05  1.339608E+04 -2.997318E+04
       232   5 -7.133653E+05 -1.517290E+05 -4.964240E+03 -3.360458E+05  1.828596E+04 -3.547302E+04
       232   6 -7.048531E+05 -1.606992E+05 -9.036979E+03 -3.460101E+05  2.313020E+04 -4.084214E+04
       232   7 -1.132780E+06 -3.168916E+05 -8.979751E+04 -4.645277E+05  4.506004E+03 -3.331313E+04
       232   8 -1.227467E+06 -3.395559E+05 -1.092296E+05 -4.783374E+05  9.572756E+03 -3.874898E+04
       232   9 -1.305092E+06 -3.799838E+05 -1.306955E+05 -5.121389E+05  1.459344E+04 -4.405416E+04
       232  10 -2.766129E+05 -4.067930E+03  8.421724E+04 -2.275469E+05 -6.202496E-10 -2.822509E-10
       232  11 -1.989903E+05  3.611991E+04  9.928555E+04 -1.936439E+05  1.751414E-09  3.839096E-10
       232  12 -1.042391E+05  5.861620E+04  1.126007E+05 -1.797305E+05  6.023622E-10  8.261188E-10
       232  13 -7.047910E+05 -1.604881E+05 -2.786604E+03 -3.460750E+05 -8.394586E-10  6.477727E-10
       232  14 -7.133660E+05 -1.517305E+05 -4.967232E+03 -3.360452E+05 -1.963200E-10  4.927750E-10
       232  15 -7.048541E+05 -1.607012E+05 -9.041117E+03 -3.460094E+05  5.475191E-10 -7.490581E-10
       232  16 -1.132780E+06 -3.168928E+05 -8.979964E+04 -4.645276E+05 -1.180483E-09  9.836211E-10
       232  17 -1.227467E+06 -3.395576E+05 -1.092326E+05 -4.783371E+05  3.381204E-10 -2.804389E-10
       232  18 -1.305093E+06 -3.799860E+05 -1.306996E+05 -5.121384E+05  4.139528E-10 -2.136251E-09
       232  19 -2.766122E+05 -4.067035E+03  8.421951E+04 -2.275474E+05 -2.229276E+04  2.663075E+04
       232  20 -1.989892E+05  3.612122E+04  9.928887E+04 -1.936446E+05 -2.700697E+04  3.219414E+04
       232  21 -1.042377E+05  5.861799E+04  1.126052E+05 -1.797314E+05 -3.167592E+04  3.762676E+04
       232  22 -7.047906E+05 -1.604871E+05 -2.784580E+03 -3.460753E+05 -1.339608E+04  2.997318E+04
       232  23 -7.133653E+05 -1.517290E+05 -4.964240E+03 -3.360458E+05 -1.828596E+04  3.547302E+04
       232  24 -7.048531E+05 -1.606992E+05 -9.036979E+03 -3.460101E+05 -2.313020E+04  4.084214E+04
       232  25 -1.132780E+06 -3.168916E+05 -8.979751E+04 -4.645277E+05 -4.506004E+03  3.331313E+04
       232  26 -1.227467E+06 -3.395559E+05 -1.092296E+05 -4.783374E+05 -9.572756E+03  3.874898E+04
       232  27 -1.305092E+06 -3.799838E+05 -1.306955E+05 -5.121389E+05 -1.459344E+04  4.405416E+04
       233   1 -4.491253E+04  8.000115E+04  1.221298E+05 -1.643585E+05  3.516332E+04 -4.063192E+04
       233   2  3.183013E+04  1.208387E+05  1.302241E+05 -1.283983E+05  4.567387E+04 -4.302502E+04
       233   3  1.230045E+05  1.392654E+05  1.307215E+05 -1.112018E+05  5.547670E+04 -4.352153E+04
       233   4 -7.053668E+05 -1.603996E+05 -1.200140E+04 -3.462913E+05  2.623954E+04 -4.399110E+04
       233   5 -7.128296E+05 -1.523568E+05 -2.187120E+04 -3.356308E+05  3.933516E+04 -4.541557E+04
       233   6 -7.063857E+05 -1.672457E+05 -4.139588E+04 -3.437399E+05  5.172135E+04 -4.494270E+04
       233   7 -1.365378E+06 -4.007662E+05 -1.461557E+05 -5.280473E+05  1.732589E+04 -4.734653E+04
       233   8 -1.456922E+06 -4.255055E+05 -1.739954E+05 -5.426344E+05  3.300458E+04 -4.780305E+04
       233   9 -1.535071E+06 -4.736960E+05 -2.135497E+05 -5.759903E+05  4.797137E+04 -4.636182E+04
       233  10 -4.491430E+04  7.999905E+04  1.221244E+05 -1.643573E+05 -1.465740E-09 -5.489510E-11
       233  11  3.182739E+04  1.208361E+05  1.302167E+05 -1.283967E+05 -9.674947E-10  6.932871E-11
       233  12  1.230007E+05  1.392625E+05  1.307121E+05 -1.111999E+05 -3.428624E-10 -1.125732E-09
       233  13 -7.053681E+05 -1.604019E+05 -1.200633E+04 -3.462904E+05  1.479667E-10 -4.741809E-10
       233  14 -7.128318E+05 -1.523594E+05 -2.187798E+04 -3.356294E+05  1.383822E-09 -8.748470E-10
       233  15 -7.063892E+05 -1.672486E+05 -4.140470E+04 -3.437380E+05 -4.514925E-10  3.908172E-10
       233  16 -1.365379E+06 -4.007687E+05 -1.461605E+05 -5.280466E+05  1.238748E-09 -9.213913E-10
       233  17 -1.456924E+06 -4.255082E+05 -1.740018E+05 -5.426331E+05  5.038004E-10 -1.667134E-10
       233  18 -1.535074E+06 -4.736990E+05 -2.135581E+05 -5.759885E+05 -4.540482E-10  2.924535E-11
       233  19 -4.491253E+04  8.000115E+04  1.221298E+05 -1.643585E+05 -3.516332E+04  4.063192E+04
       233  20  3.183013E+04  1.208387E+05  1.302241E+05 -1.283983E+05 -4.567387E+04  4.302502E+04
       233  21  1.230045E+05  1.392654E+05  1.307215E+05 -1.112018E+05 -5.547670E+04  4.352153E+04
       233  22 -7.053668E+05 -1.603996E+05 -1.200140E+04 -3.462913E+05 -2.623954E+04  4.399110E+04
       233  23 -7.128296E+05 -1.523568E+05 -2.187120E+04 -3.356308E+05 -3.933516E+04  4.541557E+04
       233  24 -7.063857E+05 -1.672457E+05 -4.139588E+04 -3.437399E+05 -5.172135E+04  4.494270E+04
       233  25 -1.365378E+06 -4.007662E+05 -1.461557E+05 -5.280473E+05 -1.732589E+04  4.734653E+04
       233  26 -1.456922E+06 -4.255055E+05 -1.739954E+05 -5.426344E+05 -3.300458E+04  4.780305E+04
       233  27 -1.535071E+06 -4.736960E+05 -2.135497E+05 -5.759903E+05 -4.797137E+04  4.636182E+04
       234   1  1.905509E+05  1.540528E+05  1.305584E+05 -1.165257E+05  6.930063E+04 -4.291173E+04
       234   2  2.359898E+05  2.153992E+05  1.141082E+05 -1.910468E+04  7.942476E+04 -3.051568E+04
       234   3  2.508322E+05  1.416601E+05  5.529024E+04  9.207238E+04  7.852215E+04  1.113208E+04
       234   4 -7.132608E+05 -1.600612E+05 -5.403017E+04 -3.492864E+05  5.950209E+04 -4.660745E+04
       234   5 -7.062739E+05 -1.749000E+05 -1.007265E+05 -3.236502E+05  1.096747E+05 -1.913463E+04
       234   6 -7.379099E+05 -3.329014E+05 -2.216044E+05 -2.842461E+05  1.488069E+05  3.760752E+04
       234   7 -1.616236E+06 -4.741271E+05 -2.386598E+05 -5.817432E+05  4.971890E+04 -5.029810E+04
       234   8 -1.647617E+06 -5.650566E+05 -3.156113E+05 -6.277436E+05  1.398747E+05 -7.777641E+03
       234   9 -1.725635E+06 -8.071903E+05 -4.985598E+05 -6.599487E+05  2.189675E+05  6.400694E+04
       234  10  1.905452E+05  1.540496E+05  1.305460E+05 -1.165233E+05 -4.517731E-10 -9.609495E-10
       234  11  2.359828E+05  2.153965E+05  1.140946E+05 -1.910273E+04  4.725107E-10  3.948615E-10
       234  12  2.508255E+05  1.416584E+05  5.527842E+04  9.207167E+04  1.330459E-09  2.004441E-10
       234  13 -7.132652E+05 -1.600645E+05 -5.404091E+04 -3.492842E+05  1.434639E-09 -2.610270E-09
       234  14 -7.062869E+05 -1.749036E+05 -1.007498E+05 -3.236485E+05  6.510203E-10  5.655703E-10
       234  15 -7.379341E+05 -3.329089E+05 -2.216487E+05 -2.842506E+05  4.675571E-10  1.495367E-09
       234  16 -1.616239E+06 -4.741305E+05 -2.386692E+05 -5.817412E+05  6.344589E-10  1.496796E-09
       234  17 -1.647638E+06 -5.650619E+05 -3.156482E+05 -6.277427E+05 -5.573592E-10  5.319113E-10
       234  18 -1.725688E+06 -8.072076E+05 -4.986579E+05 -6.599600E+05 -7.407126E-10  6.747822E-10
       234  19  1.905509E+05  1.540528E+05  1.305584E+05 -1.165257E+05 -6.930063E+04  4.291173E+04
       234  20  2.359898E+05  2.153992E+05  1.141082E+05 -1.910468E+04 -7.942476E+04  3.051568E+04
       234  21  2.508322E+05  1.416601E+05  5.529024E+04  9.207238E+04 -7.852215E+04 -1.113208E+04
       234  22 -7.132608E+05 -1.600612E+05 -5.403017E+04 -3.492864E+05 -5.950209E+04  4.660745E+04
       234  23 -7.062739E+05 -1.749000E+05 -1.007265E+05 -3.236502E+05 -1.096747E+05  1.913463E+04
       234  24 -7.379099E+05 -3.329014E+05 -2.216044E+05 -2.842461E+05 -1.488069E+05 -3.760752E+04
       234  25 -1.616236E+06 -4.741271E+05 -2.386598E+05 -5.817432E+05 -4.971890E+04  5.029810E+04
       234  26 -1.647617E+06 -5.650566E+05 -3.156113E+05 -6.277436E+05 -1.398747E+05  7.777641E+03
       234  27 -1.725635E+06 -8.071903E+05 -4.985598E+05 -6.599487E+05 -2.189675E+05 -6.400694E+04
       235   1  1.366328E+06  1.894332E+05  1.664745E+05  1.516682E+04  8.786648E+03 -1.583100E+04
       235   2  1.301350E+06  2.332709E+05  1.620215E+05  3.523842E+04 -7.843734E+03 -5.269024E+04
       235   3  1.226513E+06  2.286730E+05  1.563359E+05  7.171723E+04 -2.451989E+04 -6.223431E+04
       235   4  2.634186E+05 -8.278682E+04 -9.384239E+04  6.289522E+04 -6.517097E+04 -1.597686E+04
       235   5  2.718509E+05 -1.371747E+04 -4.489228E+04  5.459893E+04 -4.176455E+04 -5.277086E+04
       235   6  2.634521E+05 -7.597302E+01 -2.497002E+04  6.271192E+04 -1.840515E+04 -6.222753E+04
       235   7 -8.383574E+05 -3.550820E+05 -3.542215E+05  1.105380E+05 -1.389981E+05 -1.613421E+04
       235   8 -7.566361E+05 -2.607690E+05 -2.518556E+05  7.392619E+04 -7.563028E+04 -5.285367E+04
       235   9 -6.987137E+05 -2.288785E+05 -2.063164E+05  5.372036E+04 -1.229964E+04 -6.222092E+04
       235  10  1.366328E+06  1.894329E+05  1.664739E+05  1.516693E+04  4.364346E-09 -9.988614E-10
       235  11  1.301349E+06  2.332679E+05  1.620162E+05  3.523809E+04  2.643520E-09 -4.821316E-09
       235  12  1.226511E+06  2.286687E+05  1.563275E+05  7.171600E+04  1.284757E-09 -4.873560E-09
       235  13  2.634140E+05 -8.278824E+04 -9.385085E+04  6.289439E+04 -4.051859E-10  1.195313E-09
       235  14  2.718482E+05 -1.372093E+04 -4.490079E+04  5.459715E+04  2.578924E-10 -3.417851E-09
       235  15  2.634507E+05 -8.022250E+01 -2.497794E+04  6.271100E+04  2.346225E-09 -6.370920E-10
       235  16 -8.383783E+05 -3.550875E+05 -3.542583E+05  1.105362E+05 -4.272640E-09  6.299072E-11
       235  17 -7.566430E+05 -2.607736E+05 -2.518716E+05  7.392297E+04 -1.336970E-09 -6.678811E-09
       235  18 -6.987149E+05 -2.288827E+05 -2.063239E+05  5.371974E+04 -2.238112E-10 -6.852595E-09
       235  19  1.366328E+06  1.894332E+05  1.664745E+05  1.516682E+04 -8.786648E+03  1.583100E+04
       235  20  1.301350E+06  2.332709E+05  1.620215E+05  3.523842E+04  7.843734E+03  5.269024E+04
       235  21  1.226513E+06  2.286730E+05  1.563359E+05  7.171723E+04  2.451989E+04  6.223431E+04
       235  22  2.634186E+05 -8.278682E+04 -9.384239E+04  6.289522E+04  6.517097E+04  1.597686E+04
       235  23  2.718509E+05 -1.371747E+04 -4.489228E+04  5.459893E+04  4.176455E+04  5.277086E+04
       235  24  2.634521E+05 -7.597302E+01 -2.497002E+04  6.271192E+04  1.840515E+04  6.222753E+04
       235  25 -8.383574E+05 -3.550820E+05 -3.542215E+05  1.105380E+05  1.389981E+05  1.613421E+04
       235  26 -7.566361E+05 -2.607690E+05 -2.518556E+05  7.392619E+04  7.563028E+04  5.285367E+04
       235  27 -6.987137E+05 -2.288785E+05 -2.063164E+05  5.372036E+04  1.229964E+04  6.222092E+04
       236   1  1.182028E+06  2.141563E+05  1.525604E+05  6.371469E+04 -1.654044E+04 -5.965359E+04
       236   2  1.113036E+06  2.000531E+05  1.456346E+05  5.558092E+04 -1.416859E+04 -5.769151E+04
       236   3  1.043255E+06  1.840704E+05  1.366969E+05  6.540380E+04 -1.180470E+04 -5.373422E+04
       236   4  2.669213E+05 -3.059549E+03 -1.920521E+04  6.308763E+04 -1.511922E+04 -5.965745E+04
       236   5  2.675904E+05 -1.499940E+02 -1.060635E+04  5.410382E+04 -9.828728E+03 -5.768661E+04
       236   6  2.669580E+05  3.721311E+02 -6.047703E+03  6.307822E+04 -4.545884E+03 -5.371922E+04
       236   7 -6.473768E+05 -2.203239E+05 -1.910072E+05  6.246099E+04 -1.370003E+04 -5.966133E+04
       236   8 -5.771636E+05 -2.003939E+05 -1.668771E+05  5.262830E+04 -5.494612E+03 -5.768173E+04
       236   9 -5.087553E+05 -1.833603E+05 -1.488169E+05  6.075520E+04  2.704107E+03 -5.370426E+04
       236  10  1.182026E+06  2.141524E+05  1.525532E+05  6.371389E+04 -5.010596E-09 -5.216205E-09
       236  11  1.113035E+06  2.000495E+05  1.456280E+05  5.558026E+04 -9.779337E-10  2.184877E-09
       236  12  1.043254E+06  1.840672E+05  1.366912E+05  6.540329E+04  3.553829E-11  2.238454E-09
       236  13  2.669201E+05 -3.063432E+03 -1.921233E+04  6.308690E+04 -6.464292E-10 -3.253529E-09
       236  14  2.675894E+05 -1.535937E+02 -1.061278E+04  5.410336E+04 -1.419572E-09  3.987125E-10
       236  15  2.669572E+05  3.690264E+02 -6.053166E+03  6.307803E+04 -4.641211E-10 -2.915696E-09
       236  16 -6.473779E+05 -2.203278E+05 -1.910143E+05  6.246033E+04  6.709338E-09 -7.839642E-11
       236  17 -5.771645E+05 -2.003975E+05 -1.668834E+05  5.262805E+04  1.760053E-09  2.238055E-09
       236  18 -5.087561E+05 -1.833634E+05 -1.488224E+05  6.075532E+04 -1.708113E-09  2.630151E-10
       236  19  1.182028E+06  2.141563E+05  1.525604E+05  6.371469E+04  1.654044E+04  5.965359E+04
       236  20  1.113036E+06  2.000531E+05  1.456346E+05  5.558092E+04  1.416859E+04  5.769151E+04
       236  21  1.043255E+06  1.840704E+05  1.366969E+05  6.540380E+04  1.180470E+04  5.373422E+04
       236  22  2.669213E+05 -3.059549E+03 -1.920521E+04  6.308763E+04  1.511922E+04  5.965745E+04
       236  23  2.675904E+05 -1.499940E+02 -1.060635E+04  5.410382E+04  9.828728E+03  5.768661E+04
       236  24  2.669580E+05  3.721311E+02 -6.047703E+03  6.307822E+04  4.545884E+03  5.371922E+04
       236  25 -6.473768E+05 -2.203239E+05 -1.910072E+05  6.246099E+04  1.370003E+04  5.966133E+04
       236  26 -5.771636E+05 -2.003939E+05 -1.668771E+05  5.262830E+04  5.494612E+03  5.768173E+04
       236  27 -5.087553E+05 -1.833603E+05 -1.488169E+05  6.075520E+04 -2.704107E+03  5.370426E+04
       237   1  9.967135E+05  1.728047E+05  1.292213E+05  6.494512E+04 -1.052682E+04 -5.084087E+04
       237   2  9.275867E+05  1.564851E+05  1.184721E+05  5.577892E+04 -9.455517E+03 -4.605340E+04
       237   3  8.582610E+05  1.402064E+05  1.070171E+05  6.464866E+04 -8.387428E+03 -4.112260E+04
       237   4  2.672078E+05  2.422192E+02 -4.593836E+03  6.309753E+04 -3.615818E+03 -5.082561E+04
       237   5  2.673426E+05  3.064352E+02 -2.608225E+03  5.407881E+04 -2.336111E+03 -4.603568E+04
       237   6  2.672373E+05  3.753537E+02 -1.473842E+03  6.309715E+04 -1.059506E+03 -4.110232E+04
       237   7 -4.617818E+05 -1.723505E+05 -1.384306E+05  6.125176E+04  3.287293E+03 -5.081038E+04
       237   8 -3.924786E+05 -1.558970E+05 -1.237062E+05  5.238022E+04  4.775935E+03 -4.601798E+04
       237   9 -3.234476E+05 -1.394755E+05 -1.099789E+05  6.154688E+04  6.261633E+03 -4.108207E+04
       237  10  9.967127E+05  1.728019E+05  1.292162E+05  6.494469E+04 -2.115488E-09  3.414057E-09
       237  11  9.275860E+05  1.564828E+05  1.184679E+05  5.577857E+04  2.215843E-09  2.092732E-09
       237  12  8.582604E+05  1.402046E+05  1.070138E+05  6.464838E+04  5.861241E-09 -6.141389E-10
       237  13  2.672071E+05  2.394414E+02 -4.598716E+03  6.309738E+04 -9.674387E-10 -3.815690E-09
       237  14  2.673420E+05  3.041577E+02 -2.612219E+03  5.407872E+04 -4.146599E-10  2.289096E-09
       237  15  2.672368E+05  3.735391E+02 -1.477019E+03  6.309712E+04 -3.534906E-11  5.815443E-09
       237  16 -4.617826E+05 -1.723532E+05 -1.384354E+05  6.125190E+04  2.861937E-09  2.746864E-09
       237  17 -3.924792E+05 -1.558992E+05 -1.237102E+05  5.238039E+04 -4.036807E-09  6.307013E-09
       237  18 -3.234481E+05 -1.394773E+05 -1.099822E+05  6.154709E+04 -5.606114E-09  2.138037E-09
       237  19  9.967135E+05  1.728047E+05  1.292213E+05  6.494512E+04  1.052682E+04  5.084087E+04
       237  20  9.275867E+05  1.564851E+05  1.184721E+05  5.577892E+04  9.455517E+03  4.605340E+04
       237  21  8.582610E+05  1.402064E+05  1.070171E+05  6.464866E+04  8.387428E+03  4.112260E+04
       237  22  2.672078E+05  2.422192E+02 -4.593836E+03  6.309753E+04  3.615818E+03  5.082561E+04
       237  23  2.673426E+05  3.064352E+02 -2.608225E+03  5.407881E+04  2.336111E+03  4.603568E+04
       237  24  2.672373E+05  3.753537E+02 -1.473842E+03  6.309715E+04  1.059506E+03  4.110232E+04
       237  25 -4.617818E+05 -1.723505E+05 -1.384306E+05  6.125176E+04 -3.287293E+03  5.081038E+04
       237  26 -3.924786E+05 -1.558970E+05 -1.237062E+05  5.238022E+04 -4.775935E+03  4.601798E+04
       237  27 -3.234476E+05 -1.394755E+05 -1.099789E+05  6.154688E+04 -6.261633E+03  4.108207E+04
       238   1  8.116694E+05  1.291179E+05  9.851555E+04  6.452534E+04 -8.133904E+03 -3.821211E+04
       238   2  7.426089E+05  1.127565E+05  8.651098E+04  5.535326E+04 -7.867379E+03 -3.322658E+04
       238   3  6.734319E+05  9.651623E+04  7.433214E+04  6.419790E+04 -7.602875E+03 -2.823266E+04
       238   4  2.672735E+05  3.779963E+02 -1.103639E+03  6.309291E+04 -8.344994E+02 -3.819095E+04
       238   5  2.673464E+05  3.343077E+02 -5.922539E+02  5.408414E+04 -5.563545E+02 -3.320400E+04
       238   6  2.672949E+05  4.095850E+02 -2.637412E+02  6.309287E+04 -2.802003E+02 -2.820867E+04
       238   7 -2.768347E+05 -1.283786E+05 -1.007347E+05  6.166153E+04  6.458682E+03 -3.816980E+04
       238   8 -2.076969E+05 -1.121007E+05 -8.770451E+04  5.281582E+04  6.749228E+03 -3.318145E+04
       238   9 -1.386821E+05 -9.570639E+04 -7.486620E+04  6.198844E+04  7.037815E+03 -2.818469E+04
       238  10  8.116689E+05  1.291163E+05  9.851269E+04  6.452509E+04  5.621763E-09  6.302440E-10
       238  11  7.426085E+05  1.127553E+05  8.650879E+04  5.535305E+04  1.417601E-09  8.877035E-09
       238  12  6.734317E+05  9.651536E+04  7.433053E+04  6.419773E+04 -4.133649E-09  8.188439E-09
       238  13  2.672731E+05  3.764297E+02 -1.106381E+03  6.309289E+04 -8.534641E-10  1.062468E-09
       238  14  2.673461E+05  3.331235E+02 -5.943265E+02  5.408412E+04 -1.341245E-09  7.942049E-09
       238  15  2.672947E+05  4.087304E+02 -2.652368E+02  6.309287E+04 -4.754674E-09  2.162363E-09
       238  16 -2.768351E+05 -1.283802E+05 -1.007375E+05  6.166173E+04 -2.856062E-09 -4.785608E-12
       238  17 -2.076973E+05 -1.121019E+05 -8.770667E+04  5.281600E+04 -1.892910E-09  2.043941E-09
       238  18 -1.386824E+05 -9.570726E+04 -7.486778E+04  6.198860E+04  2.524953E-09 -5.265309E-10
       238  19  8.116694E+05  1.291179E+05  9.851555E+04  6.452534E+04  8.133904E+03  3.821211E+04
       238  20  7.426089E+05  1.127565E+05  8.651098E+04  5.535326E+04  7.867379E+03  3.322658E+04
       238  21  6.734319E+05  9.651623E+04  7.433214E+04  6.419790E+04  7.602875E+03  2.823266E+04
       238  22  2.672735E+05  3.779963E+02 -1.103639E+03  6.309291E+04  8.344994E+02  3.819095E+04
       238  23  2.673464E+05  3.343077E+02 -5.922539E+02  5.408414E+04  5.563545E+02  3.320400E+04
       238  24  2.672949E+05  4.095850E+02 -2.637412E+02  6.309287E+04  2.802003E+02  2.820867E+04
       238  25 -2.768347E+05 -1.283786E+05 -1.007347E+05  6.166153E+04 -6.458682E+03  3.816980E+04
       238  26 -2.076969E+05 -1.121007E+05 -8.770451E+04  5.281582E+04 -6.749228E+03  3.318145E+04
       238  27 -1.386821E+05 -9.570639E+04 -7.486620E+04  6.198844E+04 -7.037815E+03  2.818469E+04
       239   1  6.268826E+05  8.544567E+04  6.559730E+04  6.408001E+04 -7.572231E+03 -2.532424E+04
       239   2  5.578908E+05  6.909059E+04  5.333251E+04  5.490773E+04 -7.625743E+03 -2.033092E+04
       239   3  4.887950E+05  5.286385E+04  4.109495E+04  6.374004E+04 -7.680435E+03 -1.534153E+04
       239   4  2.673059E+05  4.162019E+02 -1.395916E+02  6.309012E+04 -2.532198E+02 -2.529960E+04
       239   5  2.673658E+05  3.607024E+02  8.684939E+01  5.408757E+04 -3.128079E+02 -2.030546E+04
       239   6  2.673189E+05  4.350607E+02  3.449405E+02  6.309010E+04 -3.735809E+02 -1.531525E+04
       239   7 -9.214521E+04 -8.462054E+04 -6.588153E+04  6.210071E+04  7.061670E+03 -2.527497E+04
       239   8 -2.307730E+04 -6.837394E+04 -5.316206E+04  5.326774E+04  6.996798E+03 -2.028001E+04
       239   9  4.589055E+04 -5.199649E+04 -4.040689E+04  6.244036E+04  6.930737E+03 -1.528897E+04
       239  10  6.268823E+05  8.544496E+04  6.559599E+04  6.407986E+04 -1.240781E-08  1.835140E-09
       239  11  5.578906E+05  6.909013E+04  5.333162E+04  5.490761E+04  3.310613E-09 -2.362534E-09
       239  12  4.887948E+05  5.286358E+04  4.109440E+04  6.373995E+04  1.937418E-08 -2.142799E-09
       239  13  2.673057E+05  4.155145E+02 -1.407947E+02  6.309012E+04 -2.929330E-09  8.732157E-09
       239  14  2.673656E+05  3.602596E+02  8.607430E+01  5.408757E+04 -2.030533E-09 -1.788122E-09
       239  15  2.673189E+05  4.348088E+02  3.444994E+02  6.309010E+04 -2.380597E-09 -4.266208E-09
       239  16 -9.214543E+04 -8.462124E+04 -6.588282E+04  6.210085E+04  1.232134E-08  3.886318E-09
       239  17 -2.307746E+04 -6.837439E+04 -5.316292E+04  5.326785E+04 -5.872841E-09 -4.520081E-09
       239  18  4.589044E+04 -5.199676E+04 -4.040742E+04  6.244044E+04 -2.103439E-08 -6.055848E-09
       239  19  6.268826E+05  8.544567E+04  6.559730E+04  6.408001E+04  7.572231E+03  2.532424E+04
       239  20  5.578908E+05  6.909059E+04  5.333251E+04  5.490773E+04  7.625743E+03  2.033092E+04
       239  21  4.887950E+05  5.286385E+04  4.109495E+04  6.374004E+04  7.680435E+03  1.534153E+04
       239  22  2.673059E+05  4.162019E+02 -1.395916E+02  6.309012E+04  2.532198E+02  2.529960E+04
       239  23  2.673658E+05  3.607024E+02  8.684939E+01  5.408757E+04  3.128079E+02  2.030546E+04
       239  24  2.673189E+05  4.350607E+02  3.449405E+02  6.309010E+04  3.735809E+02  1.531525E+04
       239  25 -9.214521E+04 -8.462054E+04 -6.588153E+04  6.210071E+04 -7.061670E+03  2.527497E+04
       239  26 -2.307730E+04 -6.837394E+04 -5.316206E+04  5.326774E+04 -6.996798E+03  2.028001E+04
       239  27  4.589055E+04 -5.199649E+04 -4.040689E+04  6.244036E+04 -6.930737E+03  1.528897E+04
       240   1  4.422917E+05  4.179443E+04  3.240259E+04  6.362106E+04 -7.774396E+03 -1.243582E+04
       240   2  3.733200E+05  2.542854E+04  2.035345E+04  5.445558E+04 -8.199810E+03 -7.467896E+03
       240   3  3.042870E+05  9.224375E+03  8.577990E+03  6.328194E+04 -8.625450E+03 -2.546684E+03
       240   4  2.673343E+05  4.354420E+02  5.060249E+02  6.308724E+04 -4.611210E+02 -1.240917E+04
       240   5  2.673637E+05  3.649927E+02  9.624908E+02  5.409119E+04 -9.552679E+02 -7.441195E+03
       240   6  2.673389E+05  4.683806E+02  1.740250E+03  6.308713E+04 -1.449685E+03 -2.519930E+03
       240   7  9.240668E+04 -4.092524E+04 -3.139157E+04  6.255356E+04  6.850150E+03 -1.238252E+04
       240   8  1.614184E+05 -2.469916E+04 -1.842873E+04  5.372684E+04  6.288071E+03 -7.414500E+03
       240   9  2.303924E+05 -8.287664E+03 -5.097354E+03  6.289232E+04  5.725665E+03 -2.493178E+03
       240  10  4.422916E+05  4.179425E+04  3.240219E+04  6.362098E+04 -4.224192E-09  3.554683E-09
       240  11  3.733199E+05  2.542846E+04  2.035322E+04  5.445553E+04 -1.308795E-09  2.280018E-09
       240  12  3.042869E+05  9.224348E+03  8.577838E+03  6.328192E+04 -5.556276E-10  3.011797E-09
       240  13  2.673342E+05  4.352766E+02  5.057351E+02  6.308724E+04 -2.051850E-09  1.599668E-09
       240  14  2.673637E+05  3.649330E+02  9.623850E+02  5.409118E+04 -2.106264E-09  4.818294E-09
       240  15  2.673389E+05  4.683732E+02  1.740234E+03  6.308712E+04 -1.290269E-09  2.220498E-09
       240  16  9.240659E+04 -4.092542E+04 -3.139195E+04  6.255363E+04  3.086112E-09  3.677537E-09
       240  17  1.614183E+05 -2.469923E+04 -1.842891E+04  5.372688E+04  5.980006E-10 -7.414993E-09
       240  18  2.303923E+05 -8.287679E+03 -5.097428E+03  6.289233E+04 -8.084724E-10 -1.382872E-09
       240  19  4.422917E+05  4.179443E+04  3.240259E+04  6.362106E+04  7.774396E+03  1.243582E+04
       240  20  3.733200E+05  2.542854E+04  2.035345E+04  5.445558E+04  8.199810E+03  7.467896E+03
       240  21  3.042870E+05  9.224375E+03  8.577990E+03  6.328194E+04  8.625450E+03  2.546684E+03
       240  22  2.673343E+05  4.354420E+02  5.060249E+02  6.308724E+04  4.611210E+02  1.240917E+04
       240  23  2.673637E+05  3.649927E+02  9.624908E+02  5.409119E+04  9.552679E+02  7.441195E+03
       240  24  2.673389E+05  4.683806E+02  1.740250E+03  6.308713E+04  1.449685E+03  2.519930E+03
       240  25  9.240668E+04 -4.092524E+04 -3.139157E+04  6.255356E+04 -6.850150E+03  1.238252E+04
       240  26  1.614184E+05 -2.469916E+04 -1.842873E+04  5.372684E+04 -6.288071E+03  7.414500E+03
       240  27  2.303924E+05 -8.287664E+03 -5.097354E+03  6.289232E+04 -5.725665E+03  2.493178E+03
       241   1  2.578586E+05 -1.905551E+03  2.752097E+02  6.330347E+04 -9.099849E+03  3.493929E+02
       241   2  1.887545E+05 -1.815487E+04 -1.076482E+04  5.379908E+04 -1.021026E+04  5.003224E+03
       241   3  1.198706E+05 -3.347546E+04 -2.089294E+04  6.224678E+04 -1.131800E+04  9.025219E+03
       241   4  2.674345E+05  4.124429E+02  2.302541E+03  6.307915E+04 -1.816269E+03  3.765767E+02
       241   5  2.672451E+05  5.035893E+02  4.048221E+03  5.410084E+04 -3.852573E+03  5.026744E+03
       241   6  2.674306E+05  1.683966E+03  7.348008E+03  6.307440E+04 -5.886311E+03  9.045123E+03
       241   7  2.770106E+05  2.730459E+03  4.330067E+03  6.285483E+04  5.467421E+03  4.037550E+02
       241   8  3.457418E+05  1.916171E+04  1.886115E+04  5.440263E+04  2.505898E+03  5.050269E+03
       241   9  4.150116E+05  3.684212E+04  3.558807E+04  6.390221E+04 -4.533581E+02  9.065040E+03
       241  10  2.578585E+05 -1.905573E+03  2.750539E+02  6.330347E+04 -6.413896E-09  6.457802E-09
       241  11  1.887544E+05 -1.815492E+04 -1.076507E+04  5.379913E+04  3.279365E-09  2.576680E-09
       241  12  1.198704E+05 -3.347558E+04 -2.089333E+04  6.224686E+04  1.304482E-08  6.811112E-09
       241  13  2.674345E+05  4.124418E+02  2.302535E+03  6.307915E+04 -2.068162E-09  3.946897E-09
       241  14  2.672451E+05  5.035582E+02  4.048146E+03  5.410086E+04 -2.114278E-09  7.316114E-09
       241  15  2.674305E+05  1.683869E+03  7.347790E+03  6.307444E+04  4.307059E-10 -6.803156E-10
       241  16  2.770106E+05  2.730451E+03  4.330011E+03  6.285482E+04  7.075977E-09  2.892561E-09
       241  17  3.457417E+05  1.916168E+04  1.886109E+04  5.440262E+04 -4.104510E-09 -9.537431E-10
       241  18  4.150116E+05  3.684203E+04  3.558792E+04  6.390221E+04 -1.319661E-08 -8.946952E-09
       241  19  2.578586E+05 -1.905551E+03  2.752097E+02  6.330347E+04  9.099849E+03 -3.493929E+02
       241  20  1.887545E+05 -1.815487E+04 -1.076482E+04  5.379908E+04  1.021026E+04 -5.003224E+03
       241  21  1.198706E+05 -3.347546E+04 -2.089294E+04  6.224678E+04  1.131800E+04 -9.025219E+03
       241  22  2.674345E+05  4.124429E+02  2.302541E+03  6.307915E+04  1.816269E+03 -3.765767E+02
       241  23  2.672451E+05  5.035893E+02  4.048221E+03  5.410084E+04  3.852573E+03 -5.026744E+03
       241  24  2.674306E+05  1.683966E+03  7.348008E+03  6.307440E+04  5.886311E+03 -9.045123E+03
       241  25  2.770106E+05  2.730459E+03  4.330067E+03  6.285483E+04 -5.467421E+03 -4.037550E+02
       241  26  3.457418E+05  1.916171E+04  1.886115E+04  5.440263E+04 -2.505898E+03 -5.050269E+03
       241  27  4.150116E+05  3.684212E+04  3.558807E+04  6.390221E+04  4.533581E+02 -9.065040E+03
       242   1  7.431096E+04 -4.579385E+04 -2.773702E+04  6.521961E+04 -1.406738E+04  1.180761E+04
       242   2  3.205819E+03 -5.767383E+04 -3.673369E+04  4.544558E+04 -1.033651E+04  1.222287E+04
       242   3 -6.371201E+04 -5.030856E+04 -4.337738E+04  4.306157E+04 -6.575926E+03  3.997430E+03
       242   4  2.687615E+05  5.259703E+02  9.558096E+03  6.296943E+04 -7.156837E+03  1.183278E+04
       242   5  2.655656E+05  5.645314E+03  1.717623E+04  5.421809E+04 -1.607827E+04  1.220157E+04
       242   6  2.687462E+05  3.220144E+04  3.593014E+04  6.285546E+04 -2.496992E+04  3.931452E+03
       242   7  4.632486E+05  4.684361E+04  4.685167E+04  6.071850E+04 -2.441815E+02  1.185790E+04
       242   8  5.279908E+05  6.896042E+04  7.108263E+04  6.299431E+04 -2.182242E+04  1.218011E+04
       242   9  6.013073E+05  1.147051E+05  1.152314E+05  8.265991E+04 -4.337372E+04  3.864318E+03
       242  10  7.431071E+04 -4.579406E+04 -2.773766E+04  6.521974E+04 -1.838379E-09  6.285574E-09
       242  11  3.205664E+03 -5.767402E+04 -3.673417E+04  4.544568E+04 -6.082644E-10 -4.107763E-10
       242  12 -6.371206E+04 -5.030859E+04 -4.337749E+04  4.306159E+04  1.125630E-10 -1.912394E-09
       242  13  2.687614E+05  5.258062E+02  9.557737E+03  6.296950E+04  2.947941E-10  6.380476E-09
       242  14  2.655652E+05  5.645084E+03  1.717547E+04  5.421825E+04  9.665135E-10 -8.341151E-09
       242  15  2.687456E+05  3.220126E+04  3.592894E+04  6.285554E+04 -1.405121E-09  5.898382E-09
       242  16  4.632485E+05  4.684346E+04  4.685140E+04  6.071850E+04  3.735060E-09  4.070320E-10
       242  17  5.279903E+05  6.896013E+04  7.108146E+04  6.299452E+04 -1.791213E-10  2.369747E-09
       242  18  6.013053E+05  1.147045E+05  1.152278E+05  8.266004E+04 -1.137273E-09 -4.228338E-10
       242  19  7.431096E+04 -4.579385E+04 -2.773702E+04  6.521961E+04  1.406738E+04 -1.180761E+04
       242  20  3.205819E+03 -5.767383E+04 -3.673369E+04  4.544558E+04  1.033651E+04 -1.222287E+04
       242  21 -6.371201E+04 -5.030856E+04 -4.337738E+04  4.306157E+04  6.575926E+03 -3.997430E+03
       242  22  2.687615E+05  5.259703E+02  9.558096E+03  6.296943E+04  7.156837E+03 -1.183278E+04
       242  23  2.655656E+05  5.645314E+03  1.717623E+04  5.421809E+04  1.607827E+04 -1.220157E+04
       242  24  2.687462E+05  3.220144E+04  3.593014E+04  6.285546E+04  2.496992E+04 -3.931452E+03
       242  25  4.632486E+05  4.684361E+04  4.685167E+04  6.071850E+04  2.441815E+02 -1.185790E+04
       242  26  5.279908E+05  6.896042E+04  7.108263E+04  6.299431E+04  2.182242E+04 -1.218011E+04
       242  27  6.013073E+05  1.147051E+05  1.152314E+05  8.265991E+04  4.337372E+04 -3.864318E+03
       243   1  2.218200E+05  1.685999E+06  2.237319E+05 -1.806182E+05  7.416789E+03  7.668881E+04
       243   2  1.297480E+05  1.519191E+06  1.377212E+05 -1.404131E+05  2.248028E+04  3.327697E+04
       243   3  8.170485E+04  1.368887E+06  9.091009E+04 -1.403483E+05  2.039912E+04 -1.015508E+04
       243   4  5.911424E+04  1.029099E+06  6.694846E+04 -1.443325E+05  7.492817E+03  4.212923E+04
       243   5  1.011364E+04  1.023069E+06  3.535162E+04 -1.243249E+05  2.250265E+04  2.388450E+04
       243   6  8.019643E+02  1.029177E+06  2.552524E+04 -1.444543E+05  2.036440E+04  5.608113E+03
       243   7 -1.036172E+05  3.726002E+05 -8.986013E+04 -1.080851E+05  7.564859E+03  7.605954E+03
       243   8 -1.095353E+05  5.271804E+05 -6.703077E+04 -1.082496E+05  2.252454E+04  1.449938E+04
       243   9 -8.010755E+04  6.895781E+05 -3.986400E+04 -1.485579E+05  2.032947E+04  2.136290E+04
       243  10  2.218183E+05  1.685992E+06  2.237207E+05 -1.806187E+05  5.726422E-10 -8.990619E-10
       243  11  1.297472E+05  1.519189E+06  1.377182E+05 -1.404137E+05 -1.502312E-09 -2.996515E-09
       243  12  8.170438E+04  1.368887E+06  9.090912E+04 -1.403482E+05  2.849781E-10 -2.931290E-09
       243  13  5.911370E+04  1.029098E+06  6.694503E+04 -1.443328E+05 -1.663741E-09  2.020300E-09
       243  14  1.011294E+04  1.023068E+06  3.534960E+04 -1.243253E+05 -7.856064E-10 -4.576484E-09
       243  15  8.015103E+02  1.029177E+06  2.552440E+04 -1.444544E+05  1.929439E-09  2.590978E-09
       243  16 -1.036173E+05  3.726001E+05 -8.986034E+04 -1.080851E+05 -5.377999E-10  7.807310E-10
       243  17 -1.095359E+05  5.271800E+05 -6.703212E+04 -1.082499E+05  5.376068E-10  1.176460E-09
       243  18 -8.010812E+04  6.895775E+05 -3.986563E+04 -1.485582E+05 -1.331044E-09  2.123188E-09
       243  19  2.218200E+05  1.685999E+06  2.237319E+05 -1.806182E+05 -7.416789E+03 -7.668881E+04
       243  20  1.297480E+05  1.519191E+06  1.377212E+05 -1.404131E+05 -2.248028E+04 -3.327697E+04
       243  21  8.170485E+04  1.368887E+06  9.091009E+04 -1.403483E+05 -2.039912E+04  1.015508E+04
       243  22  5.911424E+04  1.029099E+06  6.694846E+04 -1.443325E+05 -7.492817E+03 -4.212923E+04
       243  23  1.011364E+04  1.023069E+06  3.535162E+04 -1.243249E+05 -2.250265E+04 -2.388450E+04
       243  24  8.019643E+02  1.029177E+06  2.552524E+04 -1.444543E+05 -2.036440E+04 -5.608113E+03
       243  25 -1.036172E+05  3.726002E+05 -8.986013E+04 -1.080851E+05 -7.564859E+03 -7.605954E+03
       243  26 -1.095353E+05  5.271804E+05 -6.703077E+04 -1.082496E+05 -2.252454E+04 -1.449938E+04
       243  27 -8.010755E+04  6.895781E+05 -3.986400E+04 -1.485579E+05 -2.032947E+04 -2.136290E+04
       244   1  5.799364E+04  1.259399E+06  6.900247E+04 -1.470713E+05  1.398265E+04 -1.135379E+04
       244   2  1.880025E+04  1.099460E+06  4.064042E+04 -1.239804E+05  5.030447E+03 -2.519669E+04
       244   3 -1.369559E+04  9.428109E+05  2.289882E+04 -1.419932E+05 -4.182446E+03 -3.903747E+04
       244   4  2.667131E+03  1.027199E+06  2.432852E+04 -1.446508E+05  1.395318E+04  1.625993E+03
       244   5  1.306678E+03  1.025602E+06  2.693706E+04 -1.240947E+05  4.999781E+03 -1.183434E+04
       244   6  6.578796E+03  1.027201E+06  3.990099E+04 -1.446418E+05 -4.214281E+03 -2.529592E+04
       244   7 -5.266246E+04  7.950513E+05 -2.034729E+04 -1.422311E+05  1.392381E+04  1.460104E+04
       244   8 -1.618712E+04  9.517483E+05  1.323414E+04 -1.242089E+05  4.969108E+03  1.526453E+03
       244   9  2.685287E+04  1.111599E+06  5.690351E+04 -1.472908E+05 -4.246231E+03 -1.155253E+04
       244  10  5.799339E+04  1.259398E+06  6.900186E+04 -1.470712E+05 -2.483442E-10 -2.329964E-09
       244  11  1.880006E+04  1.099460E+06  4.063918E+04 -1.239803E+05 -2.323425E-10 -4.248482E-09
       244  12 -1.369602E+04  9.428093E+05  2.289592E+04 -1.419933E+05 -9.373076E-10 -2.793855E-09
       244  13  2.666921E+03  1.027199E+06  2.432814E+04 -1.446508E+05 -5.585166E-10  2.126191E-09
       244  14  1.306613E+03  1.025601E+06  2.693675E+04 -1.240946E+05 -1.365853E-10 -4.519754E-09
       244  15  6.578605E+03  1.027201E+06  3.989976E+04 -1.446419E+05 -1.293773E-09  1.913747E-09
       244  16 -5.266272E+04  7.950510E+05 -2.034805E+04 -1.422313E+05 -8.218031E-10  2.330595E-09
       244  17 -1.618714E+04  9.517483E+05  1.323409E+04 -1.242089E+05  1.440961E-09  1.382571E-09
       244  18  2.685281E+04  1.111599E+06  5.690323E+04 -1.472909E+05 -1.030942E-09  1.520381E-09
       244  19  5.799364E+04  1.259399E+06  6.900247E+04 -1.470713E+05 -1.398265E+04  1.135379E+04
       244  20  1.880025E+04  1.099460E+06  4.064042E+04 -1.239804E+05 -5.030447E+03  2.519669E+04
       244  21 -1.369559E+04  9.428109E+05  2.289882E+04 -1.419932E+05  4.182446E+03  3.903747E+04
       244  22  2.667131E+03  1.027199E+06  2.432852E+04 -1.446508E+05 -1.395318E+04 -1.625993E+03
       244  23  1.306678E+03  1.025602E+06  2.693706E+04 -1.240947E+05 -4.999781E+03  1.183434E+04
       244  24  6.578796E+03  1.027201E+06  3.990099E+04 -1.446418E+05  4.214281E+03  2.529592E+04
       244  25 -5.266246E+04  7.950513E+05 -2.034729E+04 -1.422311E+05 -1.392381E+04 -1.460104E+04
       244  26 -1.618712E+04  9.517483E+05  1.323414E+04 -1.242089E+05 -4.969108E+03 -1.526453E+03
       244  27  2.685287E+04  1.111599E+06  5.690351E+04 -1.472908E+05  4.246231E+03  1.155253E+04
       245   1 -4.471641E+04  8.418151E+05  1.203033E+04 -1.576536E+05 -1.062325E+04 -4.793671E+04
       245   2 -5.808594E+04  6.694188E+05  1.248165E+04 -8.404916E+04 -1.463231E+04 -7.241486E+04
       245   3  2.959255E+04  5.253251E+05  5.408414E+04 -5.071228E+04 -5.108363E+03 -9.685908E+04
       245   4  1.040915E+03  1.033534E+06  4.966053E+04 -1.445097E+05 -1.066071E+04 -3.208169E+04
       245   5  2.628287E+04  1.017636E+06  8.539711E+04 -1.242156E+05 -1.461816E+04 -7.641556E+04
       245   6  1.559716E+05  1.033423E+06  1.760362E+05 -1.441758E+05 -5.041871E+03 -1.207224E+05
       245   7  4.679683E+04  1.225289E+06  8.729000E+04 -1.313616E+05 -1.069750E+04 -1.622189E+04
       245   8  1.106499E+05  1.365972E+06  1.583067E+05 -1.644048E+05 -1.460350E+04 -8.041847E+04
       245   9  2.823648E+05  1.541777E+06  2.979766E+05 -2.377160E+05 -4.968235E+03 -1.446052E+05
       245  10 -4.471715E+04  8.418126E+05  1.202580E+04 -1.576540E+05  6.932160E-10  1.498464E-09
       245  11 -5.808757E+04  6.694131E+05  1.247141E+04 -8.405001E+04  1.712356E-09 -2.235141E-09
       245  12  2.959000E+04  5.253151E+05  5.406648E+04 -5.071268E+04  9.823570E-10 -3.698831E-09
       245  13  1.040517E+03  1.033533E+06  4.965839E+04 -1.445100E+05  1.150282E-09  1.885015E-09
       245  14  2.628108E+04  1.017630E+06  8.538575E+04 -1.242165E+05 -1.202077E-09 -3.954083E-09
       245  15  1.559677E+05  1.033407E+06  1.760088E+05 -1.441763E+05 -1.891271E-10  2.371076E-09
       245  16  4.679663E+04  1.225289E+06  8.728929E+04 -1.313618E+05 -7.589758E-10 -1.417036E-09
       245  17  1.106480E+05  1.365965E+06  1.582942E+05 -1.644058E+05  2.420262E-09  3.605960E-10
       245  18  2.823592E+05  1.541754E+06  2.979374E+05 -2.377166E+05  5.320107E-10  2.782661E-09
       245  19 -4.471641E+04  8.418151E+05  1.203033E+04 -1.576536E+05  1.062325E+04  4.793671E+04
       245  20 -5.808594E+04  6.694188E+05  1.248165E+04 -8.404916E+04  1.463231E+04  7.241486E+04
       245  21  2.959255E+04  5.253251E+05  5.408414E+04 -5.071228E+04  5.108363E+03  9.685908E+04
       245  22  1.040915E+03  1.033534E+06  4.966053E+04 -1.445097E+05  1.066071E+04  3.208169E+04
       245  23  2.628287E+04  1.017636E+06  8.539711E+04 -1.242156E+05  1.461816E+04  7.641556E+04
       245  24  1.559716E+05  1.033423E+06  1.760362E+05 -1.441758E+05  5.041871E+03  1.207224E+05
       245  25  4.679683E+04  1.225289E+06  8.729000E+04 -1.313616E+05  1.069750E+04  1.622189E+04
       245  26  1.106499E+05  1.365972E+06  1.583067E+05 -1.644048E+05  1.460350E+04  8.041847E+04
       245  27  2.823648E+05  1.541777E+06  2.979766E+05 -2.377160E+05  4.968235E+03  1.446052E+05
       246   1  1.455184E+06  4.585908E+05  2.292314E+05  5.114992E+05  5.327809E+04  2.777923E+03
       246   2  1.382724E+06  4.412076E+05  1.882514E+05  4.849707E+05  3.591420E+04 -4.325650E+04
       246   3  1.296940E+06  4.286366E+05  1.672226E+05  4.782601E+05  8.316720E+03 -6.213150E+04
       246   4  4.531688E+05  9.514647E+04 -2.875480E+04  2.500868E+05 -1.282737E+04 -2.216186E+04
       246   5  4.651444E+05  1.076253E+05 -1.309445E+04  2.359618E+05  7.116403E+03 -5.413482E+04
       246   6  4.564042E+05  1.175260E+05 -7.011224E+03  2.416573E+05  1.681385E+04 -5.892979E+04
       246   7 -5.478370E+05 -2.682375E+05 -2.867966E+05 -1.094305E+04 -7.881399E+04 -4.706036E+04
       246   8 -4.515697E+05 -2.258908E+05 -2.144839E+05 -1.270902E+04 -2.163493E+04 -6.499626E+04
       246   9 -3.834064E+05 -1.935207E+05 -1.812817E+05  5.350865E+03  2.529861E+04 -5.573284E+04
       246  10  1.455181E+06  4.585900E+05  2.292261E+05  5.114990E+05  2.940768E-09  1.710499E-09
       246  11  1.382722E+06  4.412052E+05  1.882455E+05  4.849719E+05 -8.747925E-10 -5.198853E-10
       246  12  1.296939E+06  4.286324E+05  1.672152E+05  4.782605E+05 -1.613246E-09  1.079783E-09
       246  13  4.531685E+05  9.514590E+04 -2.875603E+04  2.500865E+05 -3.031175E-10  1.532788E-09
       246  14  4.651436E+05  1.076222E+05 -1.310006E+04  2.359621E+05  3.755155E-10 -3.842361E-09
       246  15  4.564030E+05  1.175222E+05 -7.018282E+03  2.416581E+05  8.078436E-10 -9.127013E-10
       246  16 -5.478442E+05 -2.682415E+05 -2.868125E+05 -1.094604E+04 -1.583615E-09 -1.790616E-09
       246  17 -4.515713E+05 -2.258955E+05 -2.144927E+05 -1.271015E+04  1.533643E-09 -1.146218E-08
       246  18 -3.834079E+05 -1.935242E+05 -1.812887E+05  5.352001E+03  3.570384E-09 -4.663035E-09
       246  19  1.455184E+06  4.585908E+05  2.292314E+05  5.114992E+05 -5.327809E+04 -2.777923E+03
       246  20  1.382724E+06  4.412076E+05  1.882514E+05  4.849707E+05 -3.591420E+04  4.325650E+04
       246  21  1.296940E+06  4.286366E+05  1.672226E+05  4.782601E+05 -8.316720E+03  6.213150E+04
       246  22  4.531688E+05  9.514647E+04 -2.875480E+04  2.500868E+05  1.282737E+04  2.216186E+04
       246  23  4.651444E+05  1.076253E+05 -1.309445E+04  2.359618E+05 -7.116403E+03  5.413482E+04
       246  24  4.564042E+05  1.175260E+05 -7.011224E+03  2.416573E+05 -1.681385E+04  5.892979E+04
       246  25 -5.478370E+05 -2.682375E+05 -2.867966E+05 -1.094305E+04  7.881399E+04  4.706036E+04
       246  26 -4.515697E+05 -2.258908E+05 -2.144839E+05 -1.270902E+04  2.163493E+04  6.499626E+04
       246  27 -3.834064E+05 -1.935207E+05 -1.812817E+05  5.350865E+03 -2.529861E+04  5.573284E+04
       247   1  1.247507E+06  4.071344E+05  1.581015E+05  4.627722E+05  1.344641E+04 -5.621562E+04
       247   2  1.181017E+06  3.732128E+05  1.432454E+05  4.338573E+05  1.137412E+04 -5.362391E+04
       247   3  1.099727E+06  3.539823E+05  1.290534E+05  4.220068E+05  8.640352E+03 -4.929114E+04
       247   4  4.570120E+05  1.169069E+05 -5.372510E+03  2.426962E+05  1.631209E+04 -5.513996E+04
       247   5  4.647377E+05  1.102799E+05 -2.843242E+03  2.339892E+05  1.663001E+04 -5.164299E+04
       247   6  4.571830E+05  1.178714E+05 -1.543279E+03  2.423460E+05  1.628597E+04 -4.640389E+04
       247   7 -3.328496E+05 -1.732700E+05 -1.688812E+05  2.287618E+04  1.917388E+04 -5.406577E+04
       247   8 -2.510186E+05 -1.526095E+05 -1.489587E+05  3.433274E+04  2.187941E+04 -4.966453E+04
       247   9 -1.849366E+05 -1.182032E+05 -1.321606E+05  6.285667E+04  2.392308E+04 -4.351987E+04
       247  10  1.247505E+06  4.071309E+05  1.580952E+05  4.627728E+05 -8.088060E-11 -1.315385E-09
       247  11  1.181017E+06  3.732096E+05  1.432398E+05  4.338578E+05  1.129689E-09  2.197773E-09
       247  12  1.099726E+06  3.539796E+05  1.290487E+05  4.220072E+05  1.264366E-09  5.230934E-11
       247  13  4.570109E+05  1.169035E+05 -5.378725E+03  2.426969E+05  9.711658E-10 -2.615107E-09
       247  14  4.647366E+05  1.102770E+05 -2.848775E+03  2.339899E+05 -2.675577E-09  5.140426E-10
       247  15  4.571821E+05  1.178690E+05 -1.547825E+03  2.423466E+05  1.305045E-10 -4.481955E-09
       247  16 -3.328508E+05 -1.732732E+05 -1.688874E+05  2.287701E+04  1.236294E-09 -1.118702E-09
       247  17 -2.510198E+05 -1.526123E+05 -1.489642E+05  3.433361E+04  2.022163E-10  9.816408E-10
       247  18 -1.849377E+05 -1.182054E+05 -1.321652E+05  6.285751E+04  8.293805E-10  2.685488E-10
       247  19  1.247507E+06  4.071344E+05  1.581015E+05  4.627722E+05 -1.344641E+04  5.621562E+04
       247  20  1.181017E+06  3.732128E+05  1.432454E+05  4.338573E+05 -1.137412E+04  5.362391E+04
       247  21  1.099727E+06  3.539823E+05  1.290534E+05  4.220068E+05 -8.640352E+03  4.929114E+04
       247  22  4.570120E+05  1.169069E+05 -5.372510E+03  2.426962E+05 -1.631209E+04  5.513996E+04
       247  23  4.647377E+05  1.102799E+05 -2.843242E+03  2.339892E+05 -1.663001E+04  5.164299E+04
       247  24  4.571830E+05  1.178714E+05 -1.543279E+03  2.423460E+05 -1.628597E+04  4.640389E+04
       247  25 -3.328496E+05 -1.732700E+05 -1.688812E+05  2.287618E+04 -1.917388E+04  5.406577E+04
       247  26 -2.510186E+05 -1.526095E+05 -1.489587E+05  3.433274E+04 -2.187941E+04  4.966453E+04
       247  27 -1.849366E+05 -1.182032E+05 -1.321606E+05  6.285667E+04 -2.392308E+04  4.351987E+04
       248   1  1.049271E+06  3.352704E+05  1.187761E+05  4.078776E+05  8.006405E+03 -4.583819E+04
       248   2  9.833282E+05  3.009336E+05  1.045043E+05  3.789073E+05  6.144350E+03 -4.042586E+04
       248   3  9.024639E+05  2.815546E+05  9.012622E+04  3.668712E+05  4.239107E+03 -3.490755E+04
       248   4  4.572417E+05  1.178544E+05 -1.156070E+03  2.423885E+05  1.528103E+04 -4.308984E+04
       248   5  4.647408E+05  1.104330E+05 -6.146280E+02  2.339116E+05  1.356450E+04 -3.762041E+04
       248   6  4.572819E+05  1.179411E+05 -2.957199E+02  2.423680E+05  1.180477E+04 -3.204491E+04
       248   7 -1.344220E+05 -9.952899E+04 -1.211042E+05  7.704623E+04  2.254815E+04 -4.034433E+04
       248   8 -5.356996E+04 -8.004382E+04 -1.057468E+05  8.902763E+04  2.097799E+04 -3.481748E+04
       248   9  1.230012E+04 -4.565634E+04 -9.072834E+04  1.179461E+05  1.936467E+04 -2.918445E+04
       248  10  1.049270E+06  3.352682E+05  1.187720E+05  4.078779E+05 -3.348350E-09 -5.770844E-09
       248  11  9.833277E+05  3.009318E+05  1.045012E+05  3.789075E+05 -5.900364E-10  5.385332E-09
       248  12  9.024636E+05  2.815533E+05  9.012390E+04  3.668713E+05 -1.515184E-09 -1.332505E-09
       248  13  4.572409E+05  1.178523E+05 -1.159999E+03  2.423890E+05  1.299677E-09 -6.771207E-09
       248  14  4.647402E+05  1.104315E+05 -6.176342E+02  2.339120E+05 -1.799795E-09 -9.616704E-09
       248  15  4.572814E+05  1.179399E+05 -2.979121E+02  2.423683E+05 -3.272188E-09  6.386608E-09
       248  16 -1.344230E+05 -9.953087E+04 -1.211082E+05  7.704696E+04  2.472873E-09  2.670447E-09
       248  17 -5.357076E+04 -8.004524E+04 -1.057499E+05  8.902821E+04  1.751153E-09  8.276796E-09
       248  18  1.229949E+04 -4.565735E+04 -9.073065E+04  1.179466E+05 -4.916065E-10  3.162089E-09
       248  19  1.049271E+06  3.352704E+05  1.187761E+05  4.078776E+05 -8.006405E+03  4.583819E+04
       248  20  9.833282E+05  3.009336E+05  1.045043E+05  3.789073E+05 -6.144350E+03  4.042586E+04
       248  21  9.024639E+05  2.815546E+05  9.012622E+04  3.668712E+05 -4.239107E+03  3.490755E+04
       248  22  4.572417E+05  1.178544E+05 -1.156070E+03  2.423885E+05 -1.528103E+04  4.308984E+04
       248  23  4.647408E+05  1.104330E+05 -6.146280E+02  2.339116E+05 -1.356450E+04  3.762041E+04
       248  24  4.572819E+05  1.179411E+05 -2.957199E+02  2.423680E+05 -1.180477E+04  3.204491E+04
       248  25 -1.344220E+05 -9.952899E+04 -1.211042E+05  7.704623E+04 -2.254815E+04  4.034433E+04
       248  26 -5.356996E+04 -8.004382E+04 -1.057468E+05  8.902763E+04 -2.097799E+04  3.481748E+04
       248  27  1.230012E+04 -4.565634E+04 -9.072834E+04  1.179461E+05 -1.936467E+04  2.918445E+04
       249   1  8.521358E+05  2.629992E+05  7.960030E+04  3.528241E+05  3.095396E+03 -3.167532E+04
       249   2  7.864000E+05  2.287104E+05  6.516066E+04  3.239046E+05  1.019558E+03 -2.618162E+04
       249   3  7.057575E+05  2.093531E+05  5.072302E+04  3.118732E+05 -1.059229E+03 -2.068503E+04
       249   4  4.572996E+05  1.179426E+05 -1.914237E+02  2.423604E+05  1.063155E+04 -2.882283E+04
       249   5  4.647669E+05  1.104952E+05 -1.460317E+01  2.339141E+05  8.559598E+03 -2.332638E+04
       249   6  4.573203E+05  1.179780E+05  1.605565E+02  2.423539E+05  6.484697E+03 -1.782703E+04
       249   7  6.262418E+04 -2.710022E+04 -7.999059E+04  1.319616E+05  1.816255E+04 -2.597230E+04
       249   8  1.432417E+05 -7.710367E+03 -6.519441E+04  1.439670E+05  1.609541E+04 -2.047274E+04
       249   9  2.089486E+05  2.660917E+04 -5.040421E+04  1.728608E+05  1.402531E+04 -1.497029E+04
       249  10  8.521355E+05  2.629981E+05  7.959839E+04  3.528242E+05  2.455298E-10  3.704048E-09
       249  11  7.863999E+05  2.287097E+05  6.515937E+04  3.239047E+05  1.517514E-09  2.921902E-09
       249  12  7.057574E+05  2.093526E+05  5.072221E+04  3.118731E+05  3.739700E-09  3.465556E-09
       249  13  4.572993E+05  1.179416E+05 -1.931978E+02  2.423606E+05 -1.178979E-09  2.851960E-09
       249  14  4.647667E+05  1.104946E+05 -1.576368E+01  2.339143E+05 -2.906865E-09 -4.501133E-09
       249  15  4.573201E+05  1.179776E+05  1.598801E+02  2.423540E+05  6.320593E-10  2.404865E-10
       249  16  6.262365E+04 -2.710104E+04 -7.999248E+04  1.319619E+05 -2.935237E-09  6.929105E-09
       249  17  1.432413E+05 -7.710887E+03 -6.519568E+04  1.439673E+05 -2.680879E-09  9.418966E-09
       249  18  2.089483E+05  2.660888E+04 -5.040501E+04  1.728610E+05 -2.379029E-09  2.908633E-09
       249  19  8.521358E+05  2.629992E+05  7.960030E+04  3.528241E+05 -3.095396E+03  3.167532E+04
       249  20  7.864000E+05  2.287104E+05  6.516066E+04  3.239046E+05 -1.019558E+03  2.618162E+04
       249  21  7.057575E+05  2.093531E+05  5.072302E+04  3.118732E+05  1.059229E+03  2.068503E+04
       249  22  4.572996E+05  1.179426E+05 -1.914237E+02  2.423604E+05 -1.063155E+04  2.882283E+04
       249  23  4.647669E+05  1.104952E+05 -1.460317E+01  2.339141E+05 -8.559598E+03  2.332638E+04
       249  24  4.573203E+05  1.179780E+05  1.605565E+02  2.423539E+05 -6.484697E+03  1.782703E+04
       249  25  6.262418E+04 -2.710022E+04 -7.999059E+04  1.319616E+05 -1.816255E+04  2.597230E+04
       249  26  1.432417E+05 -7.710367E+03 -6.519441E+04  1.439670E+05 -1.609541E+04  2.047274E+04
       249  27  2.089486E+05  2.660917E+04 -5.040421E+04  1.728608E+05 -1.402531E+04  1.497029E+04
       250   1  6.555349E+05  1.908230E+05  4.020944E+04  2.978506E+05 -2.302516E+03 -1.749783E+04
       250   2  5.898850E+05  1.565543E+05  2.590413E+04  2.689738E+05 -4.647251E+03 -1.210512E+04
       250   3  5.093632E+05  1.372099E+05  1.179596E+04  2.569685E+05 -6.990672E+03 -6.717683E+03
       250   4  4.573351E+05  1.179800E+05  2.599442E+02  2.423517E+05  5.237191E+03 -1.464090E+04
       250   5  4.647752E+05  1.105169E+05  5.451151E+02  2.339180E+05  2.885018E+03 -9.250487E+03
       250   6  4.573406E+05  1.179797E+05  1.033571E+03  2.423542E+05  5.341275E+02 -3.865361E+03
       250   7  2.591743E+05  4.513994E+04 -3.969169E+04  1.868687E+05  1.277437E+04 -1.178492E+04
       250   8  3.396810E+05  6.448070E+04 -2.481459E+04  1.988686E+05  1.041569E+04 -6.396460E+03
       250   9  4.053208E+05  9.874985E+04 -9.728725E+03  2.277411E+05  8.058250E+03 -1.013298E+03
       250  10  6.555348E+05  1.908227E+05  4.020886E+04  2.978506E+05 -4.908663E-09 -2.403648E-09
       250  11  5.898850E+05  1.565542E+05  2.590382E+04  2.689738E+05 -3.459024E-09 -2.955329E-09
       250  12  5.093631E+05  1.372098E+05  1.179579E+04  2.569685E+05  2.610056E-09 -2.638381E-09
       250  13  4.573350E+05  1.179798E+05  2.594897E+02  2.423517E+05 -1.669053E-09 -7.154371E-09
       250  14  4.647752E+05  1.105168E+05  5.449386E+02  2.339180E+05 -1.049185E-09 -6.677667E-11
       250  15  4.573406E+05  1.179797E+05  1.033542E+03  2.423542E+05  7.357248E-10  8.202182E-09
       250  16  2.591741E+05  4.513975E+04 -3.969226E+04  1.868688E+05  3.635750E-09  7.935748E-09
       250  17  3.396809E+05  6.448063E+04 -2.481487E+04  1.988686E+05 -8.366363E-10  6.041608E-09
       250  18  4.053208E+05  9.874983E+04 -9.728849E+03  2.277411E+05 -5.682022E-09 -2.033679E-09
       250  19  6.555349E+05  1.908230E+05  4.020944E+04  2.978506E+05  2.302516E+03  1.749783E+04
       250  20  5.898850E+05  1.565543E+05  2.590413E+04  2.689738E+05  4.647251E+03  1.210512E+04
       250  21  5.093632E+05  1.372099E+05  1.179596E+04  2.569685E+05  6.990672E+03  6.717683E+03
       250  22  4.573351E+05  1.179800E+05  2.599442E+02  2.423517E+05 -5.237191E+03  1.464090E+04
       250  23  4.647752E+05  1.105169E+05  5.451151E+02  2.339180E+05 -2.885018E+03  9.250487E+03
       250  24  4.573406E+05  1.179797E+05  1.033571E+03  2.423542E+05 -5.341275E+02  3.865361E+03
       250  25  2.591743E+05  4.513994E+04 -3.969169E+04  1.868687E+05 -1.277437E+04  1.178492E+04
       250  26  3.396810E+05  6.448070E+04 -2.481459E+04  1.988686E+05 -1.041569E+04  6.396460E+03
       250  27  4.053208E+05  9.874985E+04 -9.728725E+03  2.277411E+05 -8.058250E+03  1.013298E+03
       251   1  4.591971E+05  1.187028E+05  1.547360E+03  2.429940E+05 -8.416073E+03 -3.601182E+03
       251   2  3.934664E+05  8.441866E+04 -1.192405E+04  2.141349E+05 -1.166410E+04  1.416516E+03
       251   3  3.130276E+05  6.517505E+04 -2.449052E+04  2.021580E+05 -1.488806E+04  6.372472E+03
       251   4  4.573760E+05  1.179753E+05  1.389435E+03  2.423694E+05 -8.791144E+02 -7.441939E+02
       251   5  4.647263E+05  1.104745E+05  2.534763E+03  2.339181E+05 -4.212621E+03  4.240801E+03
       251   6  4.573797E+05  1.180302E+05  4.652481E+03  2.423466E+05 -7.522227E+03  9.164032E+03
       251   7  4.555552E+05  1.172480E+05  1.231757E+03  2.417449E+05  6.657763E+03  2.112760E+03
       251   8  5.359916E+05  1.365308E+05  1.699356E+04  2.537035E+05  3.239778E+03  7.065429E+03
       251   9  6.017545E+05  1.708877E+05  3.379500E+04  2.825442E+05 -1.544988E+02  1.195631E+04
       251  10  4.591970E+05  1.187027E+05  1.547203E+03  2.429940E+05 -2.064923E-09  5.112648E-09
       251  11  3.934662E+05  8.441862E+04 -1.192431E+04  2.141349E+05 -1.943913E-09  6.920276E-09
       251  12  3.130274E+05  6.517495E+04 -2.449101E+04  2.021581E+05 -1.933090E-09  1.048684E-10
       251  13  4.573760E+05  1.179753E+05  1.389432E+03  2.423694E+05 -1.524313E-09  1.617301E-10
       251  14  4.647263E+05  1.104745E+05  2.534696E+03  2.339182E+05 -1.995609E-09  6.029464E-09
       251  15  4.573796E+05  1.180301E+05  4.652216E+03  2.423467E+05 -1.686186E-09  1.793623E-10
       251  16  4.555551E+05  1.172479E+05  1.231666E+03  2.417448E+05 -7.022777E-10  3.676592E-09
       251  17  5.359916E+05  1.365308E+05  1.699345E+04  2.537035E+05 -6.484742E-10  2.731020E-09
       251  18  6.017545E+05  1.708876E+05  3.379473E+04  2.825442E+05 -2.004026E-09 -3.426715E-09
       251  19  4.591971E+05  1.187028E+05  1.547360E+03  2.429940E+05  8.416073E+03  3.601182E+03
       251  20  3.934664E+05  8.441866E+04 -1.192405E+04  2.141349E+05  1.166410E+04 -1.416516E+03
       251  21  3.130276E+05  6.517505E+04 -2.449052E+04  2.021580E+05  1.488806E+04 -6.372472E+03
       251  22  4.573760E+05  1.179753E+05  1.389435E+03  2.423694E+05  8.791144E+02  7.441939E+02
       251  23  4.647263E+05  1.104745E+05  2.534763E+03  2.339181E+05  4.212621E+03 -4.240801E+03
       251  24  4.573797E+05  1.180302E+05  4.652481E+03  2.423466E+05  7.522227E+03 -9.164032E+03
       251  25  4.555552E+05  1.172480E+05  1.231757E+03  2.417449E+05 -6.657763E+03 -2.112760E+03
       251  26  5.359916E+05  1.365308E+05  1.699356E+04  2.537035E+05 -3.239778E+03 -7.065429E+03
       251  27  6.017545E+05  1.708877E+05  3.379500E+04  2.825442E+05  1.544988E+02 -1.195631E+04
       252   1  2.626966E+05  4.683246E+04 -3.356385E+04  1.886982E+05 -1.717535E+04  9.173893E+03
       252   2  1.971200E+05  1.209854E+04 -4.352260E+04  1.587220E+05 -2.342176E+04  1.256540E+04
       252   3  1.182295E+05 -5.093577E+03 -4.954049E+04  1.450844E+05 -2.929931E+04  1.498864E+04
       252   4  4.576312E+05  1.178774E+05  6.190354E+03  2.425134E+05 -9.607123E+03  1.204178E+04
       252   5  4.643984E+05  1.106902E+05  1.127769E+04  2.336925E+05 -1.718468E+04  1.492781E+04
       252   6  4.581089E+05  1.213064E+05  2.135927E+04  2.412074E+05 -2.439398E+04  1.684561E+04
       252   7  6.526048E+05  1.889255E+05  4.594286E+04  2.963440E+05 -2.036339E+03  1.491061E+04
       252   8  7.317491E+05  2.092878E+05  6.607415E+04  3.086926E+05 -1.094474E+04  1.729131E+04
       252   9  7.981038E+05  2.477159E+05  9.225216E+04  3.373784E+05 -1.948580E+04  1.870368E+04
       252  10  2.626963E+05  4.683229E+04 -3.356456E+04  1.886984E+05 -1.070928E-08 -3.209587E-09
       252  11  1.971194E+05  1.209823E+04 -4.352393E+04  1.587222E+05  3.157532E-09  7.544593E-09
       252  12  1.182285E+05 -5.094049E+03 -4.954252E+04  1.450848E+05  2.437697E-08  1.065518E-08
       252  13  4.576311E+05  1.178772E+05  6.189908E+03  2.425135E+05 -2.496732E-09  1.024962E-11
       252  14  4.643980E+05  1.106899E+05  1.127671E+04  2.336927E+05  7.707678E-10  9.752918E-10
       252  15  4.581082E+05  1.213060E+05  2.135762E+04  2.412078E+05  3.453658E-09  5.185190E-10
       252  16  6.526048E+05  1.889253E+05  4.594243E+04  2.963440E+05  7.019740E-09  4.098922E-09
       252  17  7.317489E+05  2.092875E+05  6.607336E+04  3.086927E+05 -6.916590E-09  6.839541E-09
       252  18  7.981033E+05  2.477154E+05  9.225079E+04  3.373787E+05 -1.988521E-08 -1.048115E-08
       252  19  2.626966E+05  4.683246E+04 -3.356385E+04  1.886982E+05  1.717535E+04 -9.173893E+03
       252  20  1.971200E+05  1.209854E+04 -4.352260E+04  1.587220E+05  2.342176E+04 -1.256540E+04
       252  21  1.182295E+05 -5.093577E+03 -4.954049E+04  1.450844E+05  2.929931E+04 -1.498864E+04
       252  22  4.576312E+05  1.178774E+05  6.190354E+03  2.425134E+05  9.607123E+03 -1.204178E+04
       252  23  4.643984E+05  1.106902E+05  1.127769E+04  2.336925E+05  1.718468E+04 -1.492781E+04
       252  24  4.581089E+05  1.213064E+05  2.135927E+04  2.412074E+05  2.439398E+04 -1.684561E+04
       252  25  6.526048E+05  1.889255E+05  4.594286E+04  2.963440E+05  2.036339E+03 -1.491061E+04
       252  26  7.317491E+05  2.092878E+05  6.607415E+04  3.086926E+05  1.094474E+04 -1.729131E+04
       252  27  7.981038E+05  2.477159E+05  9.225216E+04  3.373784E+05  1.948580E+04 -1.870368E+04
       253   1  6.335802E+04 -2.003640E+04 -5.366983E+04  1.422763E+05 -3.692033E+04  1.592508E+04
       253   2  1.356551E+04 -6.562588E+04 -5.109744E+04  8.049450E+04 -4.290546E+04  1.173914E+04
       253   3 -2.623815E+04 -3.537315E+04 -2.663300E+04  1.834434E+04 -4.318368E+04 -7.524993E+03
       253   4  4.616219E+05  1.176166E+05  2.788381E+04  2.441143E+05 -2.889952E+04  1.896196E+04
       253   5  4.609468E+05  1.221551E+05  5.195314E+04  2.274421E+05 -5.556981E+04  6.940538E+03
       253   6  4.743353E+05  2.066001E+05  1.142976E+05  2.104036E+05 -7.653730E+04 -2.015484E+04
       253   7  8.600526E+05  2.552801E+05  1.094308E+05  3.460117E+05 -2.087307E+04  2.200069E+04
       253   8  9.085320E+05  3.099684E+05  1.549910E+05  3.744925E+05 -6.824400E+04  2.137095E+03
       253   9  9.751554E+05  4.486381E+05  2.552078E+05  4.026170E+05 -1.099198E+05 -3.280278E+04
       253  10  6.335648E+04 -2.003704E+04 -5.367287E+04  1.422768E+05 -1.535455E-08 -2.403517E-09
       253  11  1.356350E+04 -6.562652E+04 -5.110116E+04  8.049491E+04 -5.375949E-09  6.689346E-09
       253  12 -2.624016E+04 -3.537371E+04 -2.663661E+04  1.834408E+04  7.066885E-09  9.542871E-10
       253  13  4.616209E+05  1.176160E+05  2.788157E+04  2.441147E+05  6.694604E-09  4.496485E-09
       253  14  4.609435E+05  1.221542E+05  5.194725E+04  2.274424E+05 -2.414305E-09  9.607326E-09
       253  15  4.743289E+05  2.065980E+05  1.142859E+05  2.104024E+05  2.048495E-10  8.845621E-10
       253  16  8.600520E+05  2.552795E+05  1.094291E+05  3.460120E+05  2.124920E-08  9.103403E-09
       253  17  9.085270E+05  3.099671E+05  1.549823E+05  3.744926E+05  2.811608E-09  4.737169E-09
       253  18  9.751421E+05  4.486337E+05  2.551832E+05  4.026141E+05 -8.813847E-09 -2.722548E-09
       253  19  6.335802E+04 -2.003640E+04 -5.366983E+04  1.422763E+05  3.692033E+04 -1.592508E+04
       253  20  1.356551E+04 -6.562588E+04 -5.109744E+04  8.049450E+04  4.290546E+04 -1.173914E+04
       253  21 -2.623815E+04 -3.537315E+04 -2.663300E+04  1.834434E+04  4.318368E+04  7.524993E+03
       253  22  4.616219E+05  1.176166E+05  2.788381E+04  2.441143E+05  2.889952E+04 -1.896196E+04
       253  23  4.609468E+05  1.221551E+05  5.195314E+04  2.274421E+05  5.556981E+04 -6.940538E+03
       253  24  4.743353E+05  2.066001E+05  1.142976E+05  2.104036E+05  7.653730E+04  2.015484E+04
       253  25  8.600526E+05  2.552801E+05  1.094308E+05  3.460117E+05  2.087307E+04 -2.200069E+04
       253  26  9.085320E+05  3.099684E+05  1.549910E+05  3.744925E+05  6.824400E+04 -2.137095E+03
       253  27  9.751554E+05  4.486381E+05  2.552078E+05  4.026170E+05  1.099198E+05  3.280278E+04
       254   1  5.063094E+04 -5.003222E+03 -8.240201E+03 -2.024749E+03 -1.112011E+04 -5.363788E+02
       254   2  4.470595E+04  8.076141E+03 -9.081825E+02  1.112606E+03 -7.757584E+03 -1.507584E+03
       254   3  3.477936E+04  7.005111E+03  6.941426E+02  7.419837E+03 -4.399014E+03 -1.349552E+03
       254   4  9.246462E+03 -1.522521E+04 -1.826987E+04  5.233913E+03 -1.256796E+04 -5.415226E+02
       254   5  1.133931E+04 -6.266570E+01 -8.342878E+03  3.621251E+03 -8.148711E+03 -1.508979E+03
       254   6  9.246710E+03  7.655068E+02 -4.879680E+03  5.178512E+03 -3.733372E+03 -1.347223E+03
       254   7 -3.213634E+04 -2.544711E+04 -2.829962E+04  1.249209E+04 -1.401570E+04 -5.467005E+02
       254   8 -2.202629E+04 -8.201524E+03 -1.577764E+04  6.129758E+03 -8.539817E+03 -1.510377E+03
       254   9 -1.628532E+04 -5.474123E+03 -1.045354E+04  2.937279E+03 -3.067758E+03 -1.344899E+03
       254  10  5.063081E+04 -5.003256E+03 -8.240434E+03 -2.024754E+03 -7.307131E-09  1.287599E-10
       254  11  4.470589E+04  8.076123E+03 -9.082998E+02  1.112597E+03 -2.282158E-09  1.202166E-08
       254  12  3.477934E+04  7.005104E+03  6.941029E+02  7.419832E+03  3.261609E-09  3.124698E-09
       254  13  9.246292E+03 -1.522525E+04 -1.827017E+04  5.233907E+03 -2.158046E-09 -8.969109E-09
       254  14  1.133923E+04 -6.268597E+01 -8.343007E+03  3.621241E+03  5.206283E-10 -9.371224E-09
       254  15  9.246695E+03  7.655011E+02 -4.879709E+03  5.178508E+03  6.996443E-10  5.343804E-09
       254  16 -3.213655E+04 -2.544717E+04 -2.829999E+04  1.249208E+04  8.743548E-09  1.463107E-10
       254  17 -2.202637E+04 -8.201546E+03 -1.577778E+04  6.129747E+03  2.805276E-09  7.887086E-09
       254  18 -1.628533E+04 -5.474127E+03 -1.045356E+04  2.937276E+03 -3.549691E-09  1.495516E-09
       254  19  5.063094E+04 -5.003222E+03 -8.240201E+03 -2.024749E+03  1.112011E+04  5.363788E+02
       254  20  4.470595E+04  8.076141E+03 -9.081825E+02  1.112606E+03  7.757584E+03  1.507584E+03
       254  21  3.477936E+04  7.005111E+03  6.941426E+02  7.419837E+03  4.399014E+03  1.349552E+03
       254  22  9.246462E+03 -1.522521E+04 -1.826987E+04  5.233913E+03  1.256796E+04  5.415226E+02
       254  23  1.133931E+04 -6.266570E+01 -8.342878E+03  3.621251E+03  8.148711E+03  1.508979E+03
       254  24  9.246710E+03  7.655068E+02 -4.879680E+03  5.178512E+03  3.733372E+03  1.347223E+03
       254  25 -3.213634E+04 -2.544711E+04 -2.829962E+04  1.249209E+04  1.401570E+04  5.467005E+02
       254  26 -2.202629E+04 -8.201524E+03 -1.577764E+04  6.129758E+03  8.539817E+03  1.510377E+03
       254  27 -1.628532E+04 -5.474123E+03 -1.045354E+04  2.937279E+03  3.067758E+03  1.344899E+03
       255   1  2.927430E+04  3.902629E+03  3.277714E+02  4.968814E+03 -3.386799E+03 -9.874580E+02
       255   2  2.156671E+04  2.796436E+03  3.702115E+02  3.570766E+03 -2.384447E+03 -5.943285E+02
       255   3  1.350824E+04  9.193324E+02 -4.389954E+02  5.358799E+03 -1.382305E+03 -1.504139E+02
       255   4  1.009697E+04 -7.704742E+02 -3.871488E+03  5.197867E+03 -3.045803E+03 -9.862731E+02
       255   5  1.027666E+04  4.580668E+01 -2.095076E+03  3.603331E+03 -1.995952E+03 -5.929743E+02
       255   6  1.009702E+04  8.288999E+01 -1.203354E+03  5.194886E+03 -9.462975E+02 -1.488905E+02
       255   7 -9.080024E+03 -5.443601E+03 -8.070769E+03  5.426912E+03 -2.704817E+03 -9.850878E+02
       255   8 -1.013279E+03 -2.704831E+03 -4.560370E+03  3.635896E+03 -1.607463E+03 -5.916200E+02
       255   9  6.685808E+03 -7.535530E+02 -1.967713E+03  5.030974E+03 -5.102929E+02 -1.473673E+02
       255  10  2.927429E+04  3.902625E+03  3.277480E+02  4.968811E+03  1.482462E-10  1.512918E-10
       255  11  2.156671E+04  2.796434E+03  3.702001E+02  3.570765E+03 -8.502405E-09  9.279969E-09
       255  12  1.350824E+04  9.193318E+02 -4.389990E+02  5.358799E+03 -1.142320E-08  5.940778E-09
       255  13  1.009696E+04 -7.704777E+02 -3.871507E+03  5.197864E+03 -1.088251E-09  1.461718E-08
       255  14  1.027665E+04  4.580523E+01 -2.095084E+03  3.603331E+03 -2.146509E-09 -1.807414E-08
       255  15  1.009702E+04  8.288972E+01 -1.203356E+03  5.194886E+03  2.288478E-09  9.845109E-09
       255  16 -9.080032E+03 -5.443604E+03 -8.070784E+03  5.426910E+03  5.194532E-10 -8.748328E-09
       255  17 -1.013281E+03 -2.704832E+03 -4.560376E+03  3.635895E+03  8.158756E-09 -2.790821E-09
       255  18  6.685807E+03 -7.535531E+02 -1.967713E+03  5.030974E+03  1.103076E-08 -6.058922E-11
       255  19  2.927430E+04  3.902629E+03  3.277714E+02  4.968814E+03  3.386799E+03  9.874580E+02
       255  20  2.156671E+04  2.796436E+03  3.702115E+02  3.570766E+03  2.384447E+03  5.943285E+02
       255  21  1.350824E+04  9.193324E+02 -4.389954E+02  5.358799E+03  1.382305E+03  1.504139E+02
       255  22  1.009697E+04 -7.704742E+02 -3.871488E+03  5.197867E+03  3.045803E+03  9.862731E+02
       255  23  1.027666E+04  4.580668E+01 -2.095076E+03  3.603331E+03  1.995952E+03  5.929743E+02
       255  24  1.009702E+04  8.288999E+01 -1.203354E+03  5.194886E+03  9.462975E+02  1.488905E+02
       255  25 -9.080024E+03 -5.443601E+03 -8.070769E+03  5.426912E+03  2.704817E+03  9.850878E+02
       255  26 -1.013279E+03 -2.704831E+03 -4.560370E+03  3.635896E+03  1.607463E+03  5.916200E+02
       255  27  6.685808E+03 -7.535530E+02 -1.967713E+03  5.030974E+03  5.102929E+02  1.473673E+02
       256   1  7.228174E+03 -7.169148E+02 -1.575831E+03  5.204996E+03 -1.181852E+03  1.189021E+02
       256   2 -6.196960E+02 -2.601236E+03 -2.861936E+03  3.591482E+03 -9.336083E+02  5.711366E+02
       256   3 -8.533622E+03 -4.508717E+03 -4.322042E+03  5.164694E+03 -6.853660E+02  1.025651E+03
       256   4  1.016212E+04  1.456635E+00 -9.173472E+02  5.195894E+03 -7.604505E+02  1.203742E+02
       256   5  1.019527E+04  3.246102E+01 -5.082319E+02  3.602463E+03 -5.100720E+02  5.726134E+02
       256   6  1.016206E+04  3.996752E+01 -2.745685E+02  5.195754E+03 -2.596915E+02  1.027133E+03
       256   7  1.309607E+04  7.198276E+02 -2.588631E+02  5.186792E+03 -3.390475E+02  1.218463E+02
       256   8  2.101036E+04  2.666150E+03  1.845466E+03  3.613444E+03 -8.652852E+01  5.740903E+02
       256   9  2.885808E+04  4.588629E+03  3.772885E+03  5.226815E+03  1.659957E+02  1.028615E+03
       256  10  7.228172E+03 -7.169152E+02 -1.575834E+03  5.204996E+03  1.900219E-08 -4.786734E-09
       256  11 -6.196970E+02 -2.601237E+03 -2.861939E+03  3.591483E+03  8.003658E-09 -4.656397E-09
       256  12 -8.533623E+03 -4.508719E+03 -4.322045E+03  5.164695E+03 -4.806006E-09  6.339108E-10
       256  13  1.016212E+04  1.456465E+00 -9.173483E+02  5.195894E+03 -3.322221E-11  1.068905E-09
       256  14  1.019527E+04  3.246060E+01 -5.082330E+02  3.602463E+03 -1.073877E-09 -6.063779E-10
       256  15  1.016206E+04  3.996636E+01 -2.745706E+02  5.195755E+03  2.190530E-09 -5.864376E-10
       256  16  1.309607E+04  7.198275E+02 -2.588634E+02  5.186792E+03 -1.866490E-08 -7.581999E-09
       256  17  2.101036E+04  2.666150E+03  1.845466E+03  3.613444E+03 -7.397533E-09  5.550781E-09
       256  18  2.885808E+04  4.588628E+03  3.772883E+03  5.226815E+03  5.387184E-09  9.979349E-09
       256  19  7.228174E+03 -7.169148E+02 -1.575831E+03  5.204996E+03  1.181852E+03 -1.189021E+02
       256  20 -6.196960E+02 -2.601236E+03 -2.861936E+03  3.591482E+03  9.336083E+02 -5.711366E+02
       256  21 -8.533622E+03 -4.508717E+03 -4.322042E+03  5.164694E+03  6.853660E+02 -1.025651E+03
       256  22  1.016212E+04  1.456635E+00 -9.173472E+02  5.195894E+03  7.604505E+02 -1.203742E+02
       256  23  1.019527E+04  3.246102E+01 -5.082319E+02  3.602463E+03  5.100720E+02 -5.726134E+02
       256  24  1.016206E+04  3.996752E+01 -2.745685E+02  5.195754E+03  2.596915E+02 -1.027133E+03
       256  25  1.309607E+04  7.198276E+02 -2.588631E+02  5.186792E+03  3.390475E+02 -1.218463E+02
       256  26  2.101036E+04  2.666150E+03  1.845466E+03  3.613444E+03  8.652852E+01 -5.740903E+02
       256  27  2.885808E+04  4.588629E+03  3.772885E+03  5.226815E+03 -1.659957E+02 -1.028615E+03
       257   1 -1.486962E+04 -6.066326E+03 -5.666270E+03  5.140116E+03 -6.434082E+02  1.290375E+03
       257   2 -2.273732E+04 -7.991911E+03 -7.236473E+03  3.524914E+03 -6.102380E+02  1.744649E+03
       257   3 -3.063178E+04 -9.897798E+03 -8.829818E+03  5.096775E+03 -5.770499E+02  2.199020E+03
       257   4  1.017078E+04  3.646053E+01 -1.937879E+02  5.195872E+03 -2.183860E+02  1.291851E+03
       257   5  1.018412E+04  2.593061E+01 -7.041312E+01  3.602345E+03 -1.851263E+02  1.746117E+03
       257   6  1.017062E+04  3.508529E+01  2.975924E+01  5.195871E+03 -1.518482E+02  2.200481E+03
       257   7  3.521178E+04  6.139206E+03  5.278657E+03  5.251630E+03  2.066530E+02  1.293327E+03
       257   8  4.310658E+04  8.043700E+03  7.095582E+03  3.679780E+03  2.400076E+02  1.747586E+03
       257   9  5.097459E+04  9.967858E+03  8.889237E+03  5.294973E+03  2.733810E+02  2.201942E+03
       257  10 -1.486962E+04 -6.066328E+03 -5.666274E+03  5.140117E+03  6.788742E-09 -4.609801E-09
       257  11 -2.273732E+04 -7.991914E+03 -7.236479E+03  3.524915E+03 -4.394017E-09 -3.835203E-09
       257  12 -3.063178E+04 -9.897803E+03 -8.829827E+03  5.096776E+03 -1.362634E-08 -2.977722E-09
       257  13  1.017078E+04  3.645873E+01 -1.937911E+02  5.195872E+03 -9.695830E-12  2.870134E-09
       257  14  1.018412E+04  2.592732E+01 -7.041891E+01  3.602346E+03 -1.066737E-09 -1.421672E-08
       257  15  1.017062E+04  3.508008E+01  2.975010E+01  5.195872E+03  4.366073E-10 -4.653438E-09
       257  16  3.521178E+04  6.139204E+03  5.278654E+03  5.251630E+03 -6.675565E-09  2.883059E-09
       257  17  4.310658E+04  8.043697E+03  7.095577E+03  3.679780E+03  4.737015E-09  1.015685E-08
       257  18  5.097459E+04  9.967853E+03  8.889228E+03  5.294972E+03  1.085889E-08  2.974186E-09
       257  19 -1.486962E+04 -6.066326E+03 -5.666270E+03  5.140116E+03  6.434082E+02 -1.290375E+03
       257  20 -2.273732E+04 -7.991911E+03 -7.236473E+03  3.524914E+03  6.102380E+02 -1.744649E+03
       257  21 -3.063178E+04 -9.897798E+03 -8.829818E+03  5.096775E+03  5.770499E+02 -2.199020E+03
       257  22  1.017078E+04  3.646053E+01 -1.937879E+02  5.195872E+03  2.183860E+02 -1.291851E+03
       257  23  1.018412E+04  2.593061E+01 -7.041311E+01  3.602345E+03  1.851263E+02 -1.746117E+03
       257  24  1.017062E+04  3.508529E+01  2.975924E+01  5.195871E+03  1.518482E+02 -2.200481E+03
       257  25  3.521178E+04  6.139206E+03  5.278657E+03  5.251630E+03 -2.066530E+02 -1.293327E+03
       257  26  4.310658E+04  8.043700E+03  7.095582E+03  3.679780E+03 -2.400076E+02 -1.747586E+03
       257  27  5.097459E+04  9.967858E+03  8.889237E+03  5.294973E+03 -2.733810E+02 -2.201942E+03
       258   1 -3.697242E+04 -1.145194E+04 -1.020346E+04  5.081073E+03 -5.881003E+02  2.463421E+03
       258   2 -4.485093E+04 -1.338120E+04 -1.177080E+04  3.471992E+03 -6.920380E+02  2.917303E+03
       258   3 -5.273548E+04 -1.528347E+04 -1.326996E+04  5.050709E+03 -7.959407E+02  3.370901E+03
       258   4  1.017509E+04  3.512648E+01  8.133149E+01  5.196036E+03 -1.628325E+02  2.464876E+03
       258   5  1.017804E+04  2.101797E+01  2.076710E+02  3.602146E+03 -2.670494E+02  2.918743E+03
       258   6  1.017482E+04  3.391030E+01  4.023546E+02  5.196035E+03 -3.712326E+02  3.372326E+03
       258   7  5.732468E+04  1.152204E+04  1.036599E+04  5.311007E+03  2.624671E+02  2.466330E+03
       258   8  6.520985E+04  1.342303E+04  1.218596E+04  3.732309E+03  1.579763E+02  2.920183E+03
       258   9  7.308883E+04  1.535103E+04  1.407443E+04  5.341372E+03  5.351793E+01  3.373752E+03
       258  10 -3.697242E+04 -1.145194E+04 -1.020347E+04  5.081074E+03 -6.090131E-11  5.177597E-10
       258  11 -4.485093E+04 -1.338120E+04 -1.177082E+04  3.471994E+03 -1.111177E-08 -1.146804E-08
       258  12 -5.273548E+04 -1.528348E+04 -1.326998E+04  5.050711E+03 -1.886073E-08 -7.339639E-09
       258  13  1.017509E+04  3.511995E+01  8.132002E+01  5.196037E+03 -1.076397E-09  1.003111E-08
       258  14  1.017804E+04  2.100880E+01  2.076549E+02  3.602146E+03 -5.239182E-10 -9.682536E-09
       258  15  1.017482E+04  3.389805E+01  4.023330E+02  5.196036E+03  2.684604E-09 -8.033631E-09
       258  16  5.732468E+04  1.152204E+04  1.036598E+04  5.311007E+03 -1.139492E-09  2.000723E-09
       258  17  6.520985E+04  1.342302E+04  1.218595E+04  3.732308E+03  8.400145E-09 -1.144306E-08
       258  18  7.308883E+04  1.535102E+04  1.407441E+04  5.341372E+03  1.912855E-08 -1.633052E-08
       258  19 -3.697242E+04 -1.145194E+04 -1.020346E+04  5.081073E+03  5.881003E+02 -2.463421E+03
       258  20 -4.485093E+04 -1.338120E+04 -1.177080E+04  3.471992E+03  6.920380E+02 -2.917303E+03
       258  21 -5.273548E+04 -1.528347E+04 -1.326996E+04  5.050709E+03  7.959407E+02 -3.370901E+03
       258  22  1.017509E+04  3.512648E+01  8.133149E+01  5.196036E+03  1.628325E+02 -2.464876E+03
       258  23  1.017804E+04  2.101797E+01  2.076710E+02  3.602146E+03  2.670494E+02 -2.918743E+03
       258  24  1.017482E+04  3.391030E+01  4.023546E+02  5.196035E+03  3.712326E+02 -3.372326E+03
       258  25  5.732468E+04  1.152204E+04  1.036599E+04  5.311007E+03 -2.624671E+02 -2.466330E+03
       258  26  6.520985E+04  1.342303E+04  1.218596E+04  3.732309E+03 -1.579763E+02 -2.920183E+03
       258  27  7.308883E+04  1.535103E+04  1.407443E+04  5.341372E+03 -5.351793E+01 -3.373752E+03
       259   1 -5.906614E+04 -1.684435E+04 -1.455682E+04  5.049695E+03 -8.838708E+02  3.635609E+03
       259   2 -6.697992E+04 -1.877768E+04 -1.583535E+04  3.436906E+03 -1.353332E+03  4.086564E+03
       259   3 -7.483146E+04 -2.060605E+04 -1.678792E+04  5.010889E+03 -1.822728E+03  4.530747E+03
       259   4  1.019009E+04  2.726692E+01  5.405812E+02  5.195885E+03 -4.571920E+02  3.637031E+03
       259   5  1.015820E+04  9.490748E+00  9.569420E+02  3.602389E+03 -9.330434E+02  4.087946E+03
       259   6  1.018972E+04  9.781367E+01  1.703698E+03  5.195640E+03 -1.408836E+03  4.532090E+03
       259   7  7.945082E+04  1.689856E+04  1.563770E+04  5.342088E+03 -3.046625E+01  3.638454E+03
       259   8  8.730191E+04  1.879627E+04  1.774888E+04  3.767888E+03 -5.127034E+02  4.089329E+03
       259   9  9.521767E+04  2.080120E+04  2.019488E+04  5.380411E+03 -9.948877E+02  4.533432E+03
       259  10 -5.906614E+04 -1.684436E+04 -1.455685E+04  5.049697E+03  1.816376E-08  5.932119E-10
       259  11 -6.697993E+04 -1.877770E+04 -1.583538E+04  3.436910E+03  1.040489E-08 -4.252489E-09
       259  12 -7.483147E+04 -2.060607E+04 -1.678796E+04  5.010895E+03 -2.445778E-09  4.812035E-09
       259  13  1.019009E+04  2.725266E+01  5.405559E+02  5.195886E+03 -1.093418E-09 -1.622859E-09
       259  14  1.015820E+04  9.472569E+00  9.569090E+02  3.602392E+03  2.945352E-11  6.426514E-09
       259  15  1.018971E+04  9.779108E+01  1.703656E+03  5.195645E+03  8.253730E-10  4.406330E-09
       259  16  7.945082E+04  1.689855E+04  1.563767E+04  5.342089E+03 -1.696891E-08  3.432193E-09
       259  17  8.730190E+04  1.879625E+04  1.774884E+04  3.767890E+03 -8.623437E-09  1.286196E-09
       259  18  9.521767E+04  2.080117E+04  2.019484E+04  5.380415E+03  2.711027E-09  7.797725E-09
       259  19 -5.906614E+04 -1.684435E+04 -1.455682E+04  5.049695E+03  8.838708E+02 -3.635609E+03
       259  20 -6.697992E+04 -1.877768E+04 -1.583535E+04  3.436906E+03  1.353332E+03 -4.086564E+03
       259  21 -7.483146E+04 -2.060605E+04 -1.678792E+04  5.010889E+03  1.822728E+03 -4.530747E+03
       259  22  1.019009E+04  2.726692E+01  5.405812E+02  5.195885E+03  4.571920E+02 -3.637031E+03
       259  23  1.015820E+04  9.490748E+00  9.569420E+02  3.602389E+03  9.330434E+02 -4.087946E+03
       259  24  1.018972E+04  9.781367E+01  1.703698E+03  5.195640E+03  1.408836E+03 -4.532090E+03
       259  25  7.945082E+04  1.689856E+04  1.563770E+04  5.342088E+03  3.046625E+01 -3.638454E+03
       259  26  8.730191E+04  1.879627E+04  1.774888E+04  3.767888E+03  5.127034E+02 -4.089329E+03
       259  27  9.521767E+04  2.080120E+04  2.019488E+04  5.380411E+03  9.948877E+02 -4.533432E+03
       260   1 -8.106289E+04 -2.230865E+04 -1.768163E+04  5.250160E+03 -2.213495E+03  4.806550E+03
       260   2 -8.923562E+04 -2.419305E+04 -1.775708E+04  3.240562E+03 -4.014707E+03  5.213844E+03
       260   3 -9.682787E+04 -2.460183E+04 -1.629620E+04  4.409486E+03 -5.815356E+03  5.469955E+03
       260   4  1.030979E+04 -5.259651E+01  2.228753E+03  5.195323E+03 -1.756133E+03  4.808025E+03
       260   5  1.000711E+04 -1.623550E+01  3.869899E+03  3.603482E+03 -3.699118E+03  5.214825E+03
       260   6  1.030933E+04  1.520220E+03  7.145656E+03  5.190125E+03 -5.641561E+03  5.470449E+03
       260   7  1.016903E+05  2.220290E+04  2.213863E+04  5.140473E+03 -1.298704E+03  4.809500E+03
       260   8  1.092591E+05  2.415993E+04  2.549629E+04  3.966453E+03 -3.383478E+03  5.215805E+03
       260   9  1.174573E+05  2.764150E+04  3.058682E+04  5.970892E+03 -5.467737E+03  5.470944E+03
       260  10 -8.106290E+04 -2.230868E+04 -1.768168E+04  5.250168E+03 -8.179979E-09  3.791954E-09
       260  11 -8.923564E+04 -2.419308E+04 -1.775716E+04  3.240579E+03  9.362002E-10  1.192020E-08
       260  12 -9.682792E+04 -2.460187E+04 -1.629632E+04  4.409511E+03  1.362158E-08 -4.014173E-09
       260  13  1.030978E+04 -5.262216E+01  2.228704E+03  5.195330E+03  2.365620E-11 -4.366396E-09
       260  14  1.000709E+04 -1.626838E+01  3.869822E+03  3.603497E+03  5.364270E-10  1.207888E-08
       260  15  1.030929E+04  1.520180E+03  7.145540E+03  5.190150E+03  7.834053E-10 -1.166760E-09
       260  16  1.016903E+05  2.220288E+04  2.213858E+04  5.140478E+03  9.357549E-09 -7.808649E-10
       260  17  1.092590E+05  2.415989E+04  2.549622E+04  3.966467E+03 -9.922964E-10 -1.124847E-08
       260  18  1.174572E+05  2.764146E+04  3.058671E+04  5.970916E+03 -1.332156E-08  1.821373E-09
       260  19 -8.106289E+04 -2.230865E+04 -1.768163E+04  5.250160E+03  2.213495E+03 -4.806550E+03
       260  20 -8.923562E+04 -2.419305E+04 -1.775708E+04  3.240562E+03  4.014707E+03 -5.213844E+03
       260  21 -9.682787E+04 -2.460183E+04 -1.629620E+04  4.409486E+03  5.815356E+03 -5.469955E+03
       260  22  1.030979E+04 -5.259651E+01  2.228753E+03  5.195323E+03  1.756133E+03 -4.808025E+03
       260  23  1.000711E+04 -1.623550E+01  3.869899E+03  3.603482E+03  3.699118E+03 -5.214825E+03
       260  24  1.030933E+04  1.520220E+03  7.145656E+03  5.190125E+03  5.641561E+03 -5.470449E+03
       260  25  1.016903E+05  2.220290E+04  2.213863E+04  5.140473E+03  1.298704E+03 -4.809500E+03
       260  26  1.092591E+05  2.415993E+04  2.549629E+04  3.966453E+03  3.383478E+03 -5.215805E+03
       260  27  1.174573E+05  2.764150E+04  3.058682E+04  5.970892E+03  5.467737E+03 -5.470944E+03
       261   1 -1.017162E+05 -2.894780E+04 -1.571168E+04  8.903465E+03 -8.055150E+03  6.007702E+03
       261   2 -1.131394E+05 -2.947617E+04 -1.151711E+04 -1.445907E+03 -1.305183E+04  5.529588E+03
       261   3 -1.174384E+05 -4.038879E+03  2.419942E+03 -8.820322E+03 -1.803769E+04  1.688419E+03
       261   4  1.187878E+04 -1.314345E+03  9.005265E+03  5.171856E+03 -6.914712E+03  6.011381E+03
       261   5  8.044099E+03  1.822035E+02  1.539341E+04  3.637194E+03 -1.506019E+04  5.522960E+03
       261   6  1.187847E+04  2.818806E+04  3.370942E+04  5.077312E+03 -2.319492E+04  1.671637E+03
       261   7  1.254858E+05  2.631831E+04  3.372145E+04  1.439544E+03 -5.774068E+03  6.015046E+03
       261   8  1.292413E+05  2.983968E+04  4.230306E+04  8.721287E+03 -1.706893E+04  5.516299E+03
       261   9  1.412111E+05  6.041449E+04  6.499789E+04  1.897784E+04 -2.835321E+04  1.654626E+03
       261  10 -1.017162E+05 -2.894786E+04 -1.571187E+04  8.903504E+03 -1.330813E-08 -6.157277E-10
       261  11 -1.131395E+05 -2.947625E+04 -1.151749E+04 -1.445849E+03 -3.458395E-09 -1.013929E-09
       261  12 -1.174388E+05 -4.038970E+03  2.419325E+03 -8.820298E+03  6.880180E-09  9.020076E-09
       261  13  1.187872E+04 -1.314397E+03  9.005107E+03  5.171889E+03  1.096658E-09  1.020737E-08
       261  14  8.043847E+03  1.821098E+02  1.539293E+04  3.637261E+03 -1.629515E-09  5.458577E-09
       261  15  1.187789E+04  2.818791E+04  3.370840E+04  5.077344E+03  5.630541E-10  8.261219E-09
       261  16  1.254858E+05  2.631827E+04  3.372132E+04  1.439572E+03  1.472545E-08  6.803276E-09
       261  17  1.292410E+05  2.983957E+04  4.230245E+04  8.721363E+03  4.633542E-09  8.281183E-09
       261  18  1.412103E+05  6.041427E+04  6.499638E+04  1.897788E+04 -7.744792E-09  8.141189E-10
       261  19 -1.017162E+05 -2.894780E+04 -1.571168E+04  8.903465E+03  8.055150E+03 -6.007702E+03
       261  20 -1.131394E+05 -2.947617E+04 -1.151711E+04 -1.445907E+03  1.305183E+04 -5.529588E+03
       261  21 -1.174384E+05 -4.038879E+03  2.419942E+03 -8.820322E+03  1.803769E+04 -1.688419E+03
       261  22  1.187878E+04 -1.314345E+03  9.005265E+03  5.171856E+03  6.914712E+03 -6.011381E+03
       261  23  8.044099E+03  1.822035E+02  1.539341E+04  3.637194E+03  1.506019E+04 -5.522960E+03
       261  24  1.187847E+04  2.818806E+04  3.370942E+04  5.077312E+03  2.319492E+04 -1.671637E+03
       261  25  1.254858E+05  2.631831E+04  3.372145E+04  1.439544E+03  5.774068E+03 -6.015046E+03
       261  26  1.292413E+05  2.983968E+04  4.230306E+04  8.721287E+03  1.706893E+04 -5.516299E+03
       261  27  1.412111E+05  6.041449E+04  6.499789E+04  1.897784E+04  2.835321E+04 -1.654626E+03
       262   1 -2.950451E+05 -1.222128E+06 -3.048990E+05  1.542432E+05 -1.003484E+04 -9.326276E+04
       262   2 -1.696953E+05 -1.036574E+06 -1.986903E+05  9.481506E+04 -3.038329E+04 -4.746348E+04
       262   3 -1.231679E+05 -8.759934E+05 -1.419538E+05  1.041017E+05 -2.703026E+04 -1.572904E+03
       262   4 -7.988301E+04 -3.585228E+05 -9.502446E+04  1.139295E+05 -1.012332E+04 -6.335243E+04
       262   5 -1.004975E+03 -3.479179E+05 -4.496302E+04  7.969767E+04 -3.040307E+04 -3.967370E+04
       262   6  2.944510E+03 -3.584388E+05 -2.895986E+04  1.141842E+05 -2.698941E+04 -1.591782E+04
       262   7  1.352305E+05  5.057690E+05  1.148003E+05  7.355988E+04 -1.021563E+04 -3.340049E+04
       262   8  1.676539E+05  3.411810E+05  1.087348E+05  6.456361E+04 -3.042322E+04 -3.187534E+04
       262   9  1.290396E+05  1.593677E+05  8.401874E+04  1.242754E+05 -2.694904E+04 -3.027456E+04
       262  10 -2.950476E+05 -1.222137E+06 -3.049156E+05  1.542424E+05  7.453808E-10  1.170962E-08
       262  11 -1.696969E+05 -1.036576E+06 -1.986963E+05  9.481390E+04  6.777418E-10  3.625224E-09
       262  12 -1.231687E+05 -8.759936E+05 -1.419552E+05  1.041016E+05  5.781795E-10 -8.659902E-09
       262  13 -7.988420E+04 -3.585272E+05 -9.503220E+04  1.139289E+05  3.452888E-09  8.388383E-09
       262  14 -1.006390E+03 -3.479198E+05 -4.496772E+04  7.969670E+04  2.498136E-09 -7.348999E-09
       262  15  2.943660E+03 -3.584393E+05 -2.896171E+04  1.141838E+05  1.592410E-09  1.565597E-09
       262  16  1.352301E+05  5.057678E+05  1.147980E+05  7.355961E+04  3.203874E-09 -3.034082E-09
       262  17  1.676526E+05  3.411797E+05  1.087311E+05  6.456283E+04  7.398127E-09 -4.372701E-09
       262  18  1.290386E+05  1.593665E+05  8.401565E+04  1.242747E+05 -2.468079E-09  4.661901E-09
       262  19 -2.950451E+05 -1.222128E+06 -3.048990E+05  1.542432E+05  1.003484E+04  9.326276E+04
       262  20 -1.696953E+05 -1.036574E+06 -1.986903E+05  9.481506E+04  3.038329E+04  4.746348E+04
       262  21 -1.231679E+05 -8.759934E+05 -1.419538E+05  1.041017E+05  2.703026E+04  1.572904E+03
       262  22 -7.988301E+04 -3.585228E+05 -9.502446E+04  1.139295E+05  1.012332E+04  6.335243E+04
       262  23 -1.004975E+03 -3.479179E+05 -4.496302E+04  7.969767E+04  3.040307E+04  3.967370E+04
       262  24  2.944510E+03 -3.584388E+05 -2.895986E+04  1.141842E+05  2.698941E+04  1.591782E+04
       262  25  1.352305E+05  5.057690E+05  1.148003E+05  7.355988E+04  1.021563E+04  3.340049E+04
       262  26  1.676539E+05  3.411810E+05  1.087348E+05  6.456361E+04  3.042322E+04  3.187534E+04
       262  27  1.290396E+05  1.593677E+05  8.401874E+04  1.242754E+05  2.694904E+04  3.027456E+04
       263   1 -9.674534E+04 -7.318138E+05 -1.077836E+05  1.173158E+05 -1.918212E+04 -3.863606E+03
       263   2 -5.000825E+04 -5.571260E+05 -6.432929E+04  7.986544E+04 -1.073786E+04  6.524620E+03
       263   3 -1.141899E+04 -3.852944E+05 -2.956730E+04  1.124157E+05 -1.824240E+03  1.691464E+04
       263   4 -4.640417E+03 -3.543427E+05 -2.504713E+04  1.144001E+05 -1.916083E+04 -1.157119E+04
       263   5 -2.372301E+02 -3.529285E+05 -1.978557E+04  7.940113E+04 -1.071635E+04 -1.618603E+03
       263   6 -3.902550E+03 -3.543215E+05 -2.290953E+04  1.144020E+05 -1.802590E+03  8.332972E+03
       263   7  8.745504E+04  2.326211E+04  5.768089E+04  1.114828E+05 -1.913948E+04 -1.928341E+04
       263   8  4.953105E+04 -1.486917E+05  2.475589E+04  7.893669E+04 -1.069482E+04 -9.764472E+03
       263   9  3.613884E+03 -3.233476E+05 -1.625153E+04  1.163884E+05 -1.780996E+03 -2.491127E+02
       263  10 -9.674574E+04 -7.318139E+05 -1.077843E+05  1.173157E+05  3.472298E-10  8.056251E-09
       263  11 -5.000839E+04 -5.571261E+05 -6.432959E+04  7.986549E+04  1.988149E-09  3.151318E-09
       263  12 -1.141907E+04 -3.852947E+05 -2.956785E+04  1.124158E+05 -8.944783E-10 -7.497200E-09
       263  13 -4.640847E+03 -3.543429E+05 -2.504807E+04  1.143999E+05  2.861514E-10  7.208462E-09
       263  14 -2.373541E+02 -3.529285E+05 -1.978579E+04  7.940111E+04 -1.917902E-09 -1.040882E-08
       263  15 -3.902573E+03 -3.543216E+05 -2.290966E+04  1.144020E+05 -1.629349E-09  4.008192E-09
       263  16  8.745455E+04  2.326161E+04  5.767951E+04  1.114825E+05 -2.777902E-09 -4.516553E-09
       263  17  4.953090E+04 -1.486918E+05  2.475549E+04  7.893661E+04  2.314074E-10 -3.413107E-09
       263  18  3.613880E+03 -3.233476E+05 -1.625153E+04  1.163884E+05 -1.268953E-09  3.631161E-09
       263  19 -9.674534E+04 -7.318138E+05 -1.077836E+05  1.173158E+05  1.918212E+04  3.863606E+03
       263  20 -5.000825E+04 -5.571260E+05 -6.432929E+04  7.986544E+04  1.073786E+04 -6.524620E+03
       263  21 -1.141899E+04 -3.852944E+05 -2.956730E+04  1.124157E+05  1.824240E+03 -1.691464E+04
       263  22 -4.640417E+03 -3.543427E+05 -2.504713E+04  1.144001E+05  1.916083E+04  1.157119E+04
       263  23 -2.372301E+02 -3.529285E+05 -1.978557E+04  7.940113E+04  1.071635E+04  1.618603E+03
       263  24 -3.902550E+03 -3.543215E+05 -2.290953E+04  1.144020E+05  1.802590E+03 -8.332972E+03
       263  25  8.745504E+04  2.326211E+04  5.768089E+04  1.114828E+05  1.913948E+04  1.928341E+04
       263  26  4.953105E+04 -1.486917E+05  2.475589E+04  7.893669E+04  1.069482E+04  9.764472E+03
       263  27  3.613884E+03 -3.233476E+05 -1.625153E+04  1.163884E+05  1.780996E+03  2.491127E+02
       264   1  2.898484E+04 -2.487090E+05 -1.736005E+03  1.235503E+05  5.175624E+03  2.438682E+04
       264   2  6.819829E+04 -6.747307E+04  2.463873E+04  6.744936E+04  1.144627E+04  3.237316E+04
       264   3  4.590540E+04  9.789895E+04  3.055085E+04  8.067342E+04  4.422150E+03  4.032472E+04
       264   4  2.422901E+03 -3.577121E+05 -2.579317E+04  1.143050E+05  5.205880E+03  1.227473E+04
       264   5 -7.975257E+02 -3.487005E+05 -3.867371E+04  7.954352E+04  1.144639E+04  3.269483E+04
       264   6 -6.769970E+04 -3.577526E+05 -8.066280E+04  1.141141E+05  4.389968E+03  5.307753E+04
       264   7 -2.413943E+04 -4.667035E+05 -4.985046E+04  1.050615E+05  5.236500E+03  1.647331E+02
       264   8 -6.979824E+04 -6.298541E+05 -1.019911E+05  9.163219E+04  1.144653E+04  3.301635E+04
       264   9 -1.813160E+05 -8.132122E+05 -1.918904E+05  1.475303E+05  4.359149E+03  6.582100E+04
       264  10  2.898465E+04 -2.487097E+05 -1.737174E+03  1.235502E+05 -7.511709E-10  8.075339E-09
       264  11  6.819787E+04 -6.747423E+04  2.463651E+04  6.744906E+04  2.024496E-09  4.712805E-09
       264  12  4.590494E+04  9.789720E+04  3.054776E+04  8.067327E+04  7.376587E-10 -5.855538E-09
       264  13  2.422831E+03 -3.577123E+05 -2.579350E+04  1.143050E+05 -5.412730E-10  4.820318E-09
       264  14 -7.979535E+02 -3.487017E+05 -3.867596E+04  7.954322E+04 -1.946057E-10 -7.799815E-09
       264  15 -6.770048E+04 -3.577556E+05 -8.066814E+04  1.141139E+05  1.503564E-09  1.797679E-09
       264  16 -2.413946E+04 -4.667035E+05 -4.985051E+04  1.050615E+05 -1.565546E-09 -3.744099E-09
       264  17 -6.979867E+04 -6.298553E+05 -1.019934E+05  9.163189E+04  5.754371E-09 -1.400359E-09
       264  18 -1.813171E+05 -8.132168E+05 -1.918986E+05  1.475301E+05  2.553575E-09  1.375780E-09
       264  19  2.898484E+04 -2.487090E+05 -1.736005E+03  1.235503E+05 -5.175624E+03 -2.438682E+04
       264  20  6.819829E+04 -6.747307E+04  2.463873E+04  6.744936E+04 -1.144627E+04 -3.237316E+04
       264  21  4.590540E+04  9.789895E+04  3.055085E+04  8.067342E+04 -4.422150E+03 -4.032472E+04
       264  22  2.422901E+03 -3.577121E+05 -2.579317E+04  1.143050E+05 -5.205880E+03 -1.227473E+04
       264  23 -7.975257E+02 -3.487005E+05 -3.867371E+04  7.954352E+04 -1.144639E+04 -3.269483E+04
       264  24 -6.769970E+04 -3.577526E+05 -8.066280E+04  1.141141E+05 -4.389968E+03 -5.307753E+04
       264  25 -2.413943E+04 -4.667035E+05 -4.985046E+04  1.050615E+05 -5.236500E+03 -1.647331E+02
       264  26 -6.979824E+04 -6.298541E+05 -1.019911E+05  9.163219E+04 -1.144653E+04 -3.301635E+04
       264  27 -1.813160E+05 -8.132122E+05 -1.918904E+05  1.475303E+05 -4.359149E+03 -6.582100E+04
       265   1  2.969515E+05  9.874672E+04  5.274398E+04  1.190109E+05  3.159633E+04  1.180994E+04
       265   2  2.892909E+05  5.002139E+04  2.316374E+04  1.185510E+05  1.988281E+04  7.152991E+03
       265   3  2.948902E+05  3.985298E+04  1.235692E+04  1.110404E+05  7.990204E+03  2.969248E+03
       265   4  2.950150E+05  8.075592E+04  4.885003E+04  1.008962E+05  3.122245E+04  1.166716E+04
       265   5  2.857377E+05  4.277766E+04  2.121391E+04  1.115250E+05  1.992338E+04  7.168129E+03
       265   6  2.896383E+05  4.327353E+04  1.202282E+04  1.151030E+05  8.445129E+03  3.141731E+03
       265   7  2.930792E+05  6.276701E+04  4.495630E+04  8.278206E+04  3.084857E+04  1.152441E+04
       265   8  2.821846E+05  3.553418E+04  1.926412E+04  1.044991E+05  1.996395E+04  7.183265E+03
       265   9  2.843864E+05  4.669423E+04  1.168873E+04  1.191655E+05  8.900054E+03  3.314224E+03
       265  10  2.969504E+05  9.874630E+04  5.274185E+04  1.190106E+05 -4.548437E-09 -4.020306E-09
       265  11  2.892905E+05  5.002123E+04  2.316290E+04  1.185509E+05  2.380453E-09  7.388990E-09
       265  12  2.948902E+05  3.985295E+04  1.235679E+04  1.110404E+05  4.954551E-09 -8.226986E-11
       265  13  2.950139E+05  8.075551E+04  4.884794E+04  1.008959E+05  4.727176E-10  1.138941E-09
       265  14  2.857372E+05  4.277750E+04  2.121307E+04  1.115249E+05 -1.129191E-09 -5.874513E-09
       265  15  2.896382E+05  4.327350E+04  1.202267E+04  1.151030E+05  1.656153E-09  1.390146E-08
       265  16  2.930782E+05  6.276661E+04  4.495427E+04  8.278178E+04 -6.528748E-10 -7.668411E-09
       265  17  2.821841E+05  3.553401E+04  1.926327E+04  1.044990E+05 -6.597372E-09 -6.744029E-09
       265  18  2.843863E+05  4.669420E+04  1.168856E+04  1.191655E+05 -6.838952E-09 -6.074402E-09
       265  19  2.969515E+05  9.874672E+04  5.274398E+04  1.190109E+05 -3.159633E+04 -1.180994E+04
       265  20  2.892909E+05  5.002139E+04  2.316374E+04  1.185510E+05 -1.988281E+04 -7.152991E+03
       265  21  2.948902E+05  3.985298E+04  1.235692E+04  1.110404E+05 -7.990204E+03 -2.969248E+03
       265  22  2.950150E+05  8.075592E+04  4.885003E+04  1.008962E+05 -3.122245E+04 -1.166716E+04
       265  23  2.857377E+05  4.277766E+04  2.121391E+04  1.115250E+05 -1.992338E+04 -7.168129E+03
       265  24  2.896383E+05  4.327353E+04  1.202282E+04  1.151030E+05 -8.445129E+03 -3.141731E+03
       265  25  2.930792E+05  6.276701E+04  4.495630E+04  8.278206E+04 -3.084857E+04 -1.152441E+04
       265  26  2.821846E+05  3.553418E+04  1.926412E+04  1.044991E+05 -1.996395E+04 -7.183265E+03
       265  27  2.843864E+05  4.669423E+04  1.168873E+04  1.191655E+05 -8.900054E+03 -3.314224E+03
       266   1  2.833976E+05  4.585439E+04  8.517956E+03  1.123264E+05  6.498103E+03  2.717441E+03
       266   2  2.775663E+05  3.974437E+04  2.326085E+03  1.095202E+05  3.855631E+03  2.137125E+03
       266   3  2.708215E+05  3.794111E+04 -1.401149E+03  1.085768E+05  1.205150E+03  1.578132E+03
       266   4  2.881095E+05  4.685313E+04  9.520283E+03  1.128492E+05  6.811653E+03  2.836253E+03
       266   5  2.884117E+05  4.361092E+04  4.897809E+03  1.123313E+05  4.187827E+03  2.263008E+03
       266   6  2.877969E+05  4.467173E+04  2.725185E+03  1.136761E+05  1.555974E+03  1.711073E+03
       266   7  2.928213E+05  4.785188E+04  1.052261E+04  1.133720E+05  7.125206E+03  2.955064E+03
       266   8  2.992573E+05  4.747747E+04  7.469517E+03  1.151425E+05  4.520029E+03  2.388893E+03
       266   9  3.047724E+05  5.140234E+04  6.851472E+03  1.187756E+05  1.906805E+03  1.844017E+03
       266  10  2.833976E+05  4.585437E+04  8.517862E+03  1.123264E+05  3.090131E-09  2.243985E-09
       266  11  2.775662E+05  3.974436E+04  2.326048E+03  1.095202E+05 -3.383318E-09 -4.746231E-09
       266  12  2.708215E+05  3.794110E+04 -1.401156E+03  1.085768E+05 -8.187674E-09  4.641113E-09
       266  13  2.881094E+05  4.685311E+04  9.520180E+03  1.128492E+05 -3.713626E-09 -2.773268E-09
       266  14  2.884117E+05  4.361091E+04  4.897766E+03  1.123313E+05 -1.168959E-10  1.731353E-08
       266  15  2.877969E+05  4.467172E+04  2.725175E+03  1.136761E+05 -1.476193E-09  1.542874E-09
       266  16  2.928213E+05  4.785186E+04  1.052250E+04  1.133720E+05 -4.432518E-09 -5.635618E-09
       266  17  2.992573E+05  4.747746E+04  7.469468E+03  1.151425E+05  1.529395E-09 -4.442796E-09
       266  18  3.047724E+05  5.140233E+04  6.851459E+03  1.187756E+05  1.013708E-08  9.021348E-09
       266  19  2.833976E+05  4.585439E+04  8.517956E+03  1.123264E+05 -6.498103E+03 -2.717441E+03
       266  20  2.775663E+05  3.974437E+04  2.326085E+03  1.095202E+05 -3.855631E+03 -2.137125E+03
       266  21  2.708215E+05  3.794111E+04 -1.401149E+03  1.085768E+05 -1.205150E+03 -1.578132E+03
       266  22  2.881095E+05  4.685313E+04  9.520283E+03  1.128492E+05 -6.811653E+03 -2.836253E+03
       266  23  2.884117E+05  4.361092E+04  4.897809E+03  1.123313E+05 -4.187827E+03 -2.263008E+03
       266  24  2.877969E+05  4.467173E+04  2.725185E+03  1.136761E+05 -1.555974E+03 -1.711073E+03
       266  25  2.928213E+05  4.785188E+04  1.052261E+04  1.133720E+05 -7.125206E+03 -2.955064E+03
       266  26  2.992573E+05  4.747747E+04  7.469517E+03  1.151425E+05 -4.520029E+03 -2.388893E+03
       266  27  3.047724E+05  5.140234E+04  6.851472E+03  1.187756E+05 -1.906805E+03 -1.844017E+03
       267   1  2.649327E+05  3.635293E+04 -3.413971E+03  1.072196E+05  7.391717E+02  1.666495E+03
       267   2  2.593455E+05  3.272932E+04 -5.907767E+03  1.042461E+05  2.064336E+01  1.844507E+03
       267   3  2.518088E+05  3.132399E+04 -7.941560E+03  1.036088E+05 -6.983462E+02  2.023783E+03
       267   4  2.876626E+05  4.487205E+04  2.075612E+03  1.135298E+05  1.083878E+03  1.797113E+03
       267   5  2.886292E+05  4.370553E+04  1.137172E+03  1.123835E+05  3.664369E+02  1.975530E+03
       267   6  2.876461E+05  4.475714E+04  6.579094E+02  1.135733E+05 -3.514702E+02  2.155209E+03
       267   7  3.103931E+05  5.339124E+04  7.565190E+03  1.198403E+05  1.428600E+03  1.927737E+03
       267   8  3.179138E+05  5.468183E+04  8.182071E+03  1.205212E+05  7.122491E+02  2.106561E+03
       267   9  3.234847E+05  5.819039E+04  9.257287E+03  1.235384E+05 -4.572284E+00  2.286644E+03
       267  10  2.649327E+05  3.635293E+04 -3.413977E+03  1.072196E+05  1.223815E-08  1.042831E-08
       267  11  2.593455E+05  3.272932E+04 -5.907774E+03  1.042461E+05  6.742014E-09 -2.647196E-09
       267  12  2.518088E+05  3.132399E+04 -7.941568E+03  1.036088E+05 -8.212134E-09 -9.131712E-10
       267  13  2.876626E+05  4.487204E+04  2.075603E+03  1.135298E+05  2.318852E-09  6.013435E-09
       267  14  2.886292E+05  4.370553E+04  1.137164E+03  1.123835E+05  7.021788E-09 -8.513143E-09
       267  15  2.876461E+05  4.475714E+04  6.579004E+02  1.135733E+05  2.007735E-09  1.413513E-09
       267  16  3.103931E+05  5.339124E+04  7.565179E+03  1.198403E+05 -6.819023E-09 -3.027107E-10
       267  17  3.179137E+05  5.468183E+04  8.182061E+03  1.205212E+05  1.866364E-10  4.602806E-09
       267  18  3.234847E+05  5.819038E+04  9.257277E+03  1.235384E+05  9.166233E-09  6.182309E-09
       267  19  2.649327E+05  3.635293E+04 -3.413971E+03  1.072196E+05 -7.391717E+02 -1.666495E+03
       267  20  2.593455E+05  3.272932E+04 -5.907767E+03  1.042461E+05 -2.064336E+01 -1.844507E+03
       267  21  2.518088E+05  3.132399E+04 -7.941560E+03  1.036088E+05  6.983462E+02 -2.023783E+03
       267  22  2.876626E+05  4.487205E+04  2.075612E+03  1.135298E+05 -1.083878E+03 -1.797113E+03
       267  23  2.886292E+05  4.370553E+04  1.137172E+03  1.123835E+05 -3.664369E+02 -1.975530E+03
       267  24  2.876461E+05  4.475714E+04  6.579094E+02  1.135733E+05  3.514702E+02 -2.155209E+03
       267  25  3.103931E+05  5.339124E+04  7.565190E+03  1.198403E+05 -1.428600E+03 -1.927737E+03
       267  26  3.179138E+05  5.468183E+04  8.182071E+03  1.205212E+05 -7.122491E+02 -2.106561E+03
       267  27  3.234847E+05  5.819039E+04  9.257287E+03  1.235384E+05  4.572284E+00 -2.286644E+03
       268   1  2.462790E+05  2.928820E+04 -9.447138E+03  1.020997E+05 -8.829513E+02  2.217225E+03
       268   2  2.407159E+05  2.578644E+04 -1.116924E+04  9.910253E+04 -1.211386E+03  2.545705E+03
       268   3  2.330997E+05  2.437951E+04 -1.275572E+04  9.846502E+04 -1.540003E+03  2.874774E+03
       268   4  2.876285E+05  4.476750E+04  5.195279E+02  1.135642E+05 -5.359565E+02  2.348689E+03
       268   5  2.886546E+05  4.371769E+04  3.574288E+02  1.123853E+05 -8.638943E+02  2.677344E+03
       268   6  2.876275E+05  4.476257E+04  3.305582E+02  1.135659E+05 -1.192018E+03  3.006587E+03
       268   7  3.289795E+05  6.024685E+04  1.048601E+04  1.250294E+05 -1.889383E+02  2.480162E+03
       268   8  3.365956E+05  6.164911E+04  1.188393E+04  1.256690E+05 -5.163737E+02  2.808994E+03
       268   9  3.421585E+05  6.514594E+04  1.341670E+04  1.286681E+05 -8.439987E+02  3.138414E+03
       268  10  2.462790E+05  2.928820E+04 -9.447149E+03  1.020997E+05  2.486583E-09  1.300819E-09
       268  11  2.407159E+05  2.578643E+04 -1.116926E+04  9.910254E+04 -3.776090E-09  9.197910E-10
       268  12  2.330997E+05  2.437950E+04 -1.275574E+04  9.846502E+04 -2.430569E-09 -3.725120E-09
       268  13  2.876285E+05  4.476750E+04  5.195169E+02  1.135642E+05 -1.058161E-09  6.112343E-09
       268  14  2.886546E+05  4.371769E+04  3.574139E+02  1.123853E+05 -2.783228E-11  5.831355E-09
       268  15  2.876274E+05  4.476256E+04  3.305385E+02  1.135659E+05  2.430806E-09 -8.734484E-09
       268  16  3.289795E+05  6.024684E+04  1.048600E+04  1.250294E+05 -5.203642E-09  1.856597E-09
       268  17  3.365956E+05  6.164911E+04  1.188392E+04  1.256690E+05  1.763550E-09 -1.411493E-09
       268  18  3.421585E+05  6.514593E+04  1.341668E+04  1.286681E+05  9.720267E-09  7.069231E-09
       268  19  2.462790E+05  2.928820E+04 -9.447138E+03  1.020997E+05  8.829513E+02 -2.217225E+03
       268  20  2.407159E+05  2.578644E+04 -1.116924E+04  9.910253E+04  1.211386E+03 -2.545705E+03
       268  21  2.330997E+05  2.437951E+04 -1.275572E+04  9.846502E+04  1.540003E+03 -2.874774E+03
       268  22  2.876285E+05  4.476750E+04  5.195279E+02  1.135642E+05  5.359565E+02 -2.348689E+03
       268  23  2.886546E+05  4.371769E+04  3.574288E+02  1.123853E+05  8.638943E+02 -2.677344E+03
       268  24  2.876275E+05  4.476257E+04  3.305582E+02  1.135659E+05  1.192018E+03 -3.006587E+03
       268  25  3.289795E+05  6.024685E+04  1.048601E+04  1.250294E+05  1.889383E+02 -2.480162E+03
       268  26  3.365956E+05  6.164911E+04  1.188393E+04  1.256690E+05  5.163737E+02 -2.808994E+03
       268  27  3.421585E+05  6.514594E+04  1.341670E+04  1.286681E+05  8.439987E+02 -3.138414E+03
       269   1  2.275792E+05  2.231406E+04 -1.409919E+04  9.694740E+04 -1.685630E+03  3.084000E+03
       269   2  2.219809E+05  1.879922E+04 -1.550599E+04  9.393574E+04 -2.095858E+03  3.383534E+03
       269   3  2.143341E+05  1.739749E+04 -1.671461E+04  9.329802E+04 -2.506211E+03  3.683550E+03
       269   4  2.876282E+05  4.476511E+04  3.599316E+02  1.135697E+05 -1.337047E+03  3.216031E+03
       269   5  2.886527E+05  4.371112E+04  5.205876E+02  1.123817E+05 -1.746894E+03  3.515691E+03
       269   6  2.876287E+05  4.477013E+04  8.790973E+02  1.135677E+05 -2.156868E+03  3.815833E+03
       269   7  3.476807E+05  6.721643E+04  1.481879E+04  1.301934E+05 -9.884282E+02  3.348076E+03
       269   8  3.553288E+05  6.862327E+04  1.654679E+04  1.308294E+05 -1.397890E+03  3.647863E+03
       269   9  3.609283E+05  7.214302E+04  1.847231E+04  1.338394E+05 -1.807481E+03  3.948131E+03
       269  10  2.275792E+05  2.231405E+04 -1.409921E+04  9.694740E+04  2.106116E-08  5.166605E-09
       269  11  2.219809E+05  1.879921E+04 -1.550602E+04  9.393574E+04  1.038893E-08  1.198663E-08
       269  12  2.143341E+05  1.739747E+04 -1.671465E+04  9.329803E+04 -5.599304E-09 -3.994894E-09
       269  13  2.876282E+05  4.476510E+04  3.599088E+02  1.135697E+05  2.362298E-09  1.841087E-09
       269  14  2.886527E+05  4.371110E+04  5.205586E+02  1.123817E+05  8.365217E-09 -3.145160E-09
       269  15  2.876287E+05  4.477011E+04  8.790612E+02  1.135677E+05  4.322548E-09  2.400259E-09
       269  16  3.476807E+05  6.721641E+04  1.481876E+04  1.301934E+05 -1.297464E-08 -1.350435E-08
       269  17  3.553288E+05  6.862325E+04  1.654676E+04  1.308294E+05  1.141554E-09 -1.311969E-08
       269  18  3.609283E+05  7.214300E+04  1.847227E+04  1.338394E+05  1.706940E-08 -1.198745E-08
       269  19  2.275792E+05  2.231406E+04 -1.409919E+04  9.694740E+04  1.685630E+03 -3.084000E+03
       269  20  2.219809E+05  1.879922E+04 -1.550599E+04  9.393574E+04  2.095858E+03 -3.383534E+03
       269  21  2.143341E+05  1.739749E+04 -1.671461E+04  9.329802E+04  2.506211E+03 -3.683550E+03
       269  22  2.876282E+05  4.476511E+04  3.599316E+02  1.135697E+05  1.337047E+03 -3.216031E+03
       269  23  2.886527E+05  4.371112E+04  5.205876E+02  1.123817E+05  1.746894E+03 -3.515691E+03
       269  24  2.876287E+05  4.477013E+04  8.790973E+02  1.135677E+05  2.156868E+03 -3.815833E+03
       269  25  3.476807E+05  6.721643E+04  1.481879E+04  1.301934E+05  9.884282E+02 -3.348076E+03
       269  26  3.553288E+05  6.862327E+04  1.654679E+04  1.308294E+05  1.397890E+03 -3.647863E+03
       269  27  3.609283E+05  7.214302E+04  1.847231E+04  1.338394E+05  1.807481E+03 -3.948131E+03
       270   1  2.087811E+05  1.533209E+04 -1.782208E+04  9.182278E+04 -2.765107E+03  3.852158E+03
       270   2  2.030884E+05  1.175495E+04 -1.849579E+04  8.874262E+04 -3.938481E+03  3.863649E+03
       270   3  1.955212E+05  1.054403E+04 -1.834153E+04  8.802609E+04 -5.109411E+03  3.868814E+03
       270   4  2.876573E+05  4.475725E+04  1.152226E+03  1.135915E+05 -2.412851E+03  3.985531E+03
       270   5  2.886086E+05  4.367767E+04  2.057064E+03  1.123701E+05 -3.591915E+03  3.994845E+03
       270   6  2.876867E+05  4.496549E+04  3.794333E+03  1.135124E+05 -4.768545E+03  3.997829E+03
       270   7  3.665400E+05  7.418301E+04  2.012619E+04  1.353628E+05 -2.060544E+03  4.118922E+03
       270   8  3.741363E+05  7.560101E+04  2.260945E+04  1.360006E+05 -3.245297E+03  4.126060E+03
       270   9  3.798606E+05  7.938757E+04  2.592958E+04  1.390021E+05 -4.427624E+03  4.126864E+03
       270  10  2.087811E+05  1.533207E+04 -1.782213E+04  9.182279E+04 -1.186564E-08 -1.253718E-08
       270  11  2.030884E+05  1.175493E+04 -1.849585E+04  8.874263E+04 -4.374958E-09  9.235115E-09
       270  12  1.955212E+05  1.054401E+04 -1.834161E+04  8.802610E+04  7.992528E-09  4.775687E-10
       270  13  2.876573E+05  4.475723E+04  1.152185E+03  1.135915E+05  3.307655E-09 -2.718505E-09
       270  14  2.886086E+05  4.367765E+04  2.057010E+03  1.123701E+05 -3.448993E-09 -3.118735E-09
       270  15  2.876866E+05  4.496547E+04  3.794260E+03  1.135124E+05 -3.308666E-09 -4.079757E-09
       270  16  3.665400E+05  7.418299E+04  2.012615E+04  1.353628E+05  1.662937E-08 -5.669516E-12
       270  17  3.741363E+05  7.560099E+04  2.260940E+04  1.360006E+05 -4.463993E-09  1.145974E-08
       270  18  3.798605E+05  7.938754E+04  2.592952E+04  1.390021E+05 -1.600884E-08  3.204872E-10
       270  19  2.087811E+05  1.533209E+04 -1.782208E+04  9.182278E+04  2.765107E+03 -3.852158E+03
       270  20  2.030884E+05  1.175495E+04 -1.849579E+04  8.874262E+04  3.938481E+03 -3.863649E+03
       270  21  1.955212E+05  1.054403E+04 -1.834153E+04  8.802609E+04  5.109411E+03 -3.868814E+03
       270  22  2.876573E+05  4.475725E+04  1.152226E+03  1.135915E+05  2.412851E+03 -3.985531E+03
       270  23  2.886086E+05  4.367767E+04  2.057064E+03  1.123701E+05  3.591915E+03 -3.994845E+03
       270  24  2.876867E+05  4.496549E+04  3.794333E+03  1.135124E+05  4.768545E+03 -3.997829E+03
       270  25  3.665400E+05  7.418301E+04  2.012619E+04  1.353628E+05  2.060544E+03 -4.118922E+03
       270  26  3.741363E+05  7.560101E+04  2.260945E+04  1.360006E+05  3.245297E+03 -4.126060E+03
       270  27  3.798606E+05  7.938757E+04  2.592958E+04  1.390021E+05  4.427624E+03 -4.126864E+03
       271   1  1.896756E+05  8.580257E+03 -1.852559E+04  8.731590E+04 -5.957134E+03  3.833323E+03
       271   2  1.840233E+05  4.203834E+03 -1.614359E+04  8.307752E+04 -1.051064E+04  2.526448E+03
       271   3  1.783507E+05  6.016157E+03 -9.376981E+03  8.035805E+04 -1.500256E+04  1.057148E+03
       271   4  2.879299E+05  4.460202E+04  4.991609E+03  1.137861E+05 -5.566345E+03  3.981231E+03
       271   5  2.882121E+05  4.349603E+04  8.986070E+03  1.122682E+05 -1.026301E+04  2.620111E+03
       271   6  2.885020E+05  4.860655E+04  1.747805E+04  1.122691E+05 -1.489817E+04  1.096536E+03
       271   7  3.861933E+05  8.062419E+04  2.850797E+04  1.402600E+05 -5.175489E+03  4.129163E+03
       271   8  3.924116E+05  8.278906E+04  3.411493E+04  1.414633E+05 -1.001534E+04  2.713792E+03
       271   9  3.986659E+05  9.119827E+04  4.433232E+04  1.441855E+05 -1.479375E+04  1.135933E+03
       271  10  1.896756E+05  8.580232E+03 -1.852569E+04  8.731592E+04 -2.455369E-09  1.684412E-09
       271  11  1.840232E+05  4.203798E+03 -1.614381E+04  8.307754E+04  2.372811E-10  5.284824E-09
       271  12  1.783505E+05  6.016095E+03 -9.377405E+03  8.035807E+04  9.027844E-10 -5.168716E-09
       271  13  2.879299E+05  4.460199E+04  4.991521E+03  1.137861E+05 -3.301132E-09 -5.407459E-09
       271  14  2.882120E+05  4.349599E+04  8.985860E+03  1.122682E+05  7.002347E-10 -1.133092E-09
       271  15  2.885018E+05  4.860649E+04  1.747763E+04  1.122691E+05 -4.457002E-09  7.694124E-09
       271  16  3.861932E+05  8.062417E+04  2.850789E+04  1.402600E+05 -7.463834E-10 -3.682774E-09
       271  17  3.924115E+05  8.278902E+04  3.411473E+04  1.414633E+05 -5.602101E-09  7.737787E-09
       271  18  3.986657E+05  9.119821E+04  4.433190E+04  1.441855E+05 -7.998481E-09  2.539428E-09
       271  19  1.896756E+05  8.580257E+03 -1.852559E+04  8.731590E+04  5.957134E+03 -3.833323E+03
       271  20  1.840233E+05  4.203834E+03 -1.614359E+04  8.307752E+04  1.051064E+04 -2.526448E+03
       271  21  1.783507E+05  6.016157E+03 -9.376981E+03  8.035805E+04  1.500256E+04 -1.057148E+03
       271  22  2.879299E+05  4.460202E+04  4.991609E+03  1.137861E+05  5.566345E+03 -3.981231E+03
       271  23  2.882121E+05  4.349603E+04  8.986070E+03  1.122682E+05  1.026301E+04 -2.620111E+03
       271  24  2.885020E+05  4.860655E+04  1.747805E+04  1.122691E+05  1.489817E+04 -1.096536E+03
       271  25  3.861933E+05  8.062419E+04  2.850797E+04  1.402600E+05  5.175489E+03 -4.129163E+03
       271  26  3.924116E+05  8.278906E+04  3.411493E+04  1.414633E+05  1.001534E+04 -2.713792E+03
       271  27  3.986659E+05  9.119827E+04  4.433232E+04  1.441855E+05  1.479375E+04 -1.135933E+03
       272   1  1.672486E+05  5.533538E+03 -5.978861E+03  9.217746E+04 -1.913082E+04  1.612195E+02
       272   2  1.677340E+05 -1.210390E+04  8.797729E+03  6.777202E+04 -3.662242E+04 -6.982363E+03
       272   3  1.935362E+05  3.854546E+04  5.490150E+04  2.845747E+04 -5.272714E+04 -1.778985E+04
       272   4  2.913280E+05  4.201580E+04  2.207476E+04  1.163878E+05 -1.792787E+04  6.168168E+02
       272   5  2.832801E+05  4.198347E+04  3.895307E+04  1.108101E+05 -3.863607E+04 -7.745383E+03
       272   6  3.011798E+05  1.108653E+05  8.970410E+04  9.032569E+04 -5.795721E+04 -1.977244E+04
       272   7  4.154230E+05  7.849808E+04  5.012755E+04  1.406020E+05 -1.672466E+04  1.072467E+03
       272   8  3.988388E+05  9.607372E+04  6.910708E+04  1.538560E+05 -4.065012E+04 -8.508639E+03
       272   9  4.088354E+05  1.831945E+05  1.245053E+05  1.522049E+05 -6.318816E+04 -2.175602E+04
       272  10  1.672482E+05  5.533440E+03 -5.979548E+03  9.217747E+04  3.289096E-09 -6.706911E-09
       272  11  1.677325E+05 -1.210432E+04  8.795118E+03  6.777181E+04  1.198038E-09 -8.929995E-09
       272  12  1.935331E+05  3.854437E+04  5.489568E+04  2.845672E+04 -4.943491E-09 -1.094191E-08
       272  13  2.913276E+05  4.201572E+04  2.207415E+04  1.163878E+05 -9.545168E-10 -6.770086E-09
       272  14  2.832785E+05  4.198300E+04  3.895016E+04  1.108099E+05  1.234287E-09 -2.402333E-08
       272  15  3.011761E+05  1.108640E+05  8.969705E+04  9.032477E+04  3.226629E-09 -1.077758E-08
       272  16  4.154227E+05  7.849800E+04  5.012702E+04  1.406020E+05 -7.117913E-09 -1.137972E-09
       272  17  3.988371E+05  9.607319E+04  6.910384E+04  1.538557E+05  1.367130E-09  1.506965E-08
       272  18  4.088309E+05  1.831929E+05  1.244969E+05  1.522038E+05  6.276364E-09  2.481572E-09
       272  19  1.672486E+05  5.533538E+03 -5.978861E+03  9.217746E+04  1.913082E+04 -1.612195E+02
       272  20  1.677340E+05 -1.210390E+04  8.797729E+03  6.777202E+04  3.662242E+04  6.982363E+03
       272  21  1.935362E+05  3.854546E+04  5.490150E+04  2.845747E+04  5.272714E+04  1.778985E+04
       272  22  2.913280E+05  4.201580E+04  2.207476E+04  1.163878E+05  1.792787E+04 -6.168168E+02
       272  23  2.832801E+05  4.198347E+04  3.895307E+04  1.108101E+05  3.863607E+04  7.745383E+03
       272  24  3.011798E+05  1.108653E+05  8.970410E+04  9.032569E+04  5.795721E+04  1.977244E+04
       272  25  4.154230E+05  7.849808E+04  5.012755E+04  1.406020E+05  1.672466E+04 -1.072467E+03
       272  26  3.988388E+05  9.607372E+04  6.910708E+04  1.538560E+05  4.065012E+04  8.508639E+03
       272  27  4.088354E+05  1.831945E+05  1.245053E+05  1.522049E+05  6.318816E+04  2.175602E+04
       273   1 -6.043899E+04 -4.436909E+05 -6.539548E+04  2.587184E+04 -1.519551E+03 -2.751651E+04
       273   2 -2.699526E+04 -4.231567E+05 -4.115069E+04  1.363165E+04 -4.899651E+03 -1.551914E+04
       273   3 -2.149500E+04 -4.111203E+05 -3.170266E+04  7.770663E+03 -4.913407E+03 -3.510702E+03
       273   4 -2.902655E+04 -3.177565E+05 -3.485400E+04  1.153845E+04 -1.533584E+03 -2.281728E+04
       273   5 -2.028429E+02 -3.137786E+05 -1.680153E+04  8.395541E+03 -4.904257E+03 -1.396770E+04
       273   6  1.226550E+03 -3.177507E+05 -1.135718E+04  1.163222E+04 -4.908502E+03 -5.107461E+03
       273   7  2.385497E+03 -1.918072E+05 -4.313474E+03 -2.797843E+03 -1.547832E+03 -1.811711E+04
       273   8  2.658886E+04 -2.043893E+05  7.546894E+03  3.158503E+03 -4.908890E+03 -1.241599E+04
       273   9  2.394758E+04 -2.243729E+05  8.987783E+03  1.549438E+04 -4.903617E+03 -6.704457E+03
       273  10 -6.043920E+04 -4.436917E+05 -6.539691E+04  2.587181E+04  4.797631E-10 -4.966397E-10
       273  11 -2.699535E+04 -4.231570E+05 -4.115119E+04  1.363159E+04 -2.154373E-09  5.646003E-09
       273  12 -2.149503E+04 -4.111204E+05 -3.170273E+04  7.770649E+03 -3.594073E-09  8.659381E-09
       273  13 -2.902669E+04 -3.177571E+05 -3.485498E+04  1.153843E+04  7.639695E-10  2.784938E-11
       273  14 -2.029211E+02 -3.137788E+05 -1.680195E+04  8.395486E+03 -8.109786E-11 -8.859066E-09
       273  15  1.226517E+03 -3.177507E+05 -1.135728E+04  1.163220E+04 -2.386163E-09 -3.449135E-09
       273  16  2.385407E+03 -1.918075E+05 -4.314095E+03 -2.797865E+03  1.911711E-10 -7.285035E-10
       273  17  2.658880E+04 -2.043895E+05  7.546559E+03  3.158454E+03  3.381548E-09 -1.724766E-08
       273  18  2.394755E+04 -2.243729E+05  8.987653E+03  1.549435E+04 -2.678635E-09 -1.321840E-08
       273  19 -6.043899E+04 -4.436909E+05 -6.539548E+04  2.587184E+04  1.519551E+03  2.751651E+04
       273  20 -2.699526E+04 -4.231567E+05 -4.115069E+04  1.363165E+04  4.899651E+03  1.551914E+04
       273  21 -2.149500E+04 -4.111203E+05 -3.170266E+04  7.770663E+03  4.913407E+03  3.510702E+03
       273  22 -2.902655E+04 -3.177565E+05 -3.485400E+04  1.153845E+04  1.533584E+03  2.281728E+04
       273  23 -2.028429E+02 -3.137786E+05 -1.680153E+04  8.395541E+03  4.904257E+03  1.396770E+04
       273  24  1.226550E+03 -3.177507E+05 -1.135718E+04  1.163222E+04  4.908502E+03  5.107461E+03
       273  25  2.385497E+03 -1.918072E+05 -4.313474E+03 -2.797843E+03  1.547832E+03  1.811711E+04
       273  26  2.658886E+04 -2.043893E+05  7.546894E+03  3.158503E+03  4.908890E+03  1.241599E+04
       273  27  2.394758E+04 -2.243729E+05  8.987783E+03  1.549438E+04  4.903617E+03  6.704457E+03
       274   1 -2.103008E+04 -3.964106E+05 -2.772926E+04  1.276062E+04 -4.086542E+03 -2.732593E+03
       274   2 -1.549705E+04 -3.793416E+05 -2.297145E+04  8.465876E+03 -3.352620E+03  1.955317E+03
       274   3 -1.354342E+04 -3.637263E+05 -2.215005E+04  1.076980E+04 -2.472405E+03  6.643718E+03
       274   4 -1.486272E+03 -3.163022E+05 -1.018773E+04  1.165610E+04 -4.084582E+03 -3.364367E+03
       274   5  4.026032E+01 -3.155869E+05 -9.065808E+03  8.356017E+03 -3.350277E+03  1.187121E+03
       274   6 -1.988676E+03 -3.163018E+05 -1.178523E+04  1.165459E+04 -2.469672E+03  5.738981E+03
       274   7  1.805711E+04 -2.361878E+05  7.353421E+03  1.055145E+04 -4.082619E+03 -3.996222E+03
       274   8  1.557730E+04 -2.518284E+05  4.839592E+03  8.246150E+03 -3.347934E+03  4.188474E+02
       274   9  9.565924E+03 -2.688751E+05 -1.420540E+03  1.253945E+04 -2.466941E+03  4.834176E+03
       274  10 -2.103010E+04 -3.964106E+05 -2.772931E+04  1.276062E+04 -2.817308E-09 -1.694905E-08
       274  11 -1.549707E+04 -3.793416E+05 -2.297148E+04  8.465881E+03  2.322281E-09 -1.061979E-08
       274  12 -1.354344E+04 -3.637263E+05 -2.215014E+04  1.076981E+04  3.497167E-10 -2.380118E-09
       274  13 -1.486292E+03 -3.163022E+05 -1.018778E+04  1.165609E+04 -2.708981E-09  1.945457E-11
       274  14  4.024789E+01 -3.155869E+05 -9.065832E+03  8.356021E+03  2.965931E-10 -4.359709E-09
       274  15 -1.988691E+03 -3.163018E+05 -1.178530E+04  1.165460E+04 -3.211852E-11 -4.841524E-09
       274  16  1.805709E+04 -2.361878E+05  7.353360E+03  1.055143E+04 -9.990564E-10  1.161206E-08
       274  17  1.557729E+04 -2.518284E+05  4.839571E+03  8.246151E+03  2.591593E-11 -1.871872E-09
       274  18  9.565911E+03 -2.688752E+05 -1.420596E+03  1.253946E+04 -7.169000E-11  4.513658E-09
       274  19 -2.103008E+04 -3.964106E+05 -2.772926E+04  1.276062E+04  4.086542E+03  2.732593E+03
       274  20 -1.549705E+04 -3.793416E+05 -2.297145E+04  8.465876E+03  3.352620E+03 -1.955317E+03
       274  21 -1.354342E+04 -3.637263E+05 -2.215005E+04  1.076980E+04  2.472405E+03 -6.643718E+03
       274  22 -1.486272E+03 -3.163022E+05 -1.018773E+04  1.165610E+04  4.084582E+03  3.364367E+03
       274  23  4.026032E+01 -3.155869E+05 -9.065808E+03  8.356017E+03  3.350277E+03 -1.187121E+03
       274  24 -1.988676E+03 -3.163018E+05 -1.178523E+04  1.165459E+04  2.469672E+03 -5.738981E+03
       274  25  1.805711E+04 -2.361878E+05  7.353421E+03  1.055145E+04  4.082619E+03  3.996222E+03
       274  26  1.557730E+04 -2.518284E+05  4.839592E+03  8.246150E+03  3.347934E+03 -4.188474E+02
       274  27  9.565924E+03 -2.688751E+05 -1.420540E+03  1.253945E+04  2.466941E+03 -4.834176E+03
       275   1 -6.685071E+03 -3.524989E+05 -2.114932E+04  1.712593E+04 -1.905918E+03  8.681520E+03
       275   2 -4.567001E+03 -3.310176E+05 -2.537200E+04  1.884380E+03 -1.040047E+03  1.992309E+04
       275   3 -3.828954E+04 -3.199119E+05 -4.586441E+04 -6.819677E+03 -2.967902E+02  3.116440E+04
       275   4  1.680965E+03 -3.182928E+05 -1.373205E+04  1.167350E+04 -1.903302E+03  7.782751E+03
       275   5 -2.533770E+02 -3.130979E+05 -2.149759E+04  8.345381E+03 -1.037497E+03  1.913889E+04
       275   6 -3.804826E+04 -3.182989E+05 -4.561237E+04  1.155475E+04 -2.938745E+02  3.049451E+04
       275   7  1.004704E+04 -2.840855E+05 -6.314836E+03  6.220754E+03 -1.900670E+03  6.883933E+03
       275   8  4.060384E+03 -2.951778E+05 -1.762317E+04  1.480657E+04 -1.034963E+03  1.835468E+04
       275   9 -3.780571E+04 -3.166851E+05 -4.536015E+04  2.992922E+04 -2.909985E+02  2.982460E+04
       275  10 -6.685096E+03 -3.524990E+05 -2.114946E+04  1.712595E+04  2.423093E-09  3.191459E-09
       275  11 -4.567109E+03 -3.310181E+05 -2.537275E+04  1.884397E+03  5.862535E-09  6.288292E-09
       275  12 -3.828980E+04 -3.199129E+05 -4.586623E+04 -6.819670E+03  2.429134E-09 -1.754605E-09
       275  13  1.680945E+03 -3.182929E+05 -1.373217E+04  1.167351E+04  9.475040E-10  3.859926E-11
       275  14 -2.534766E+02 -3.130983E+05 -2.149828E+04  8.345397E+03  2.797973E-09 -8.603216E-09
       275  15 -3.804851E+04 -3.182999E+05 -4.561412E+04  1.155476E+04  1.760789E-09  2.708728E-09
       275  16  1.004702E+04 -2.840856E+05 -6.314932E+03  6.220765E+03 -5.216158E-10 -1.098136E-09
       275  17  4.060293E+03 -2.951781E+05 -1.762380E+04  1.480659E+04  2.243570E-09 -1.912273E-08
       275  18 -3.780595E+04 -3.166861E+05 -4.536182E+04  2.992923E+04  1.294518E-11  8.112033E-10
       275  19 -6.685071E+03 -3.524989E+05 -2.114932E+04  1.712593E+04  1.905918E+03 -8.681520E+03
       275  20 -4.567001E+03 -3.310176E+05 -2.537200E+04  1.884380E+03  1.040047E+03 -1.992309E+04
       275  21 -3.828954E+04 -3.199119E+05 -4.586441E+04 -6.819677E+03  2.967902E+02 -3.116440E+04
       275  22  1.680965E+03 -3.182928E+05 -1.373205E+04  1.167350E+04  1.903302E+03 -7.782751E+03
       275  23 -2.533770E+02 -3.130979E+05 -2.149759E+04  8.345381E+03  1.037497E+03 -1.913889E+04
       275  24 -3.804826E+04 -3.182989E+05 -4.561237E+04  1.155475E+04  2.938745E+02 -3.049451E+04
       275  25  1.004704E+04 -2.840855E+05 -6.314836E+03  6.220754E+03  1.900670E+03 -6.883933E+03
       275  26  4.060384E+03 -2.951778E+05 -1.762317E+04  1.480657E+04  1.034963E+03 -1.835468E+04
       275  27 -3.780571E+04 -3.166851E+05 -4.536015E+04  2.992922E+04  2.909985E+02 -2.982460E+04
       276   1 -2.738168E+05 -1.371321E+05 -1.236790E+05 -2.015332E+04  7.925477E+03  9.633342E+03
       276   2 -2.149242E+05 -1.622417E+05 -1.234949E+05 -2.141311E+04  1.307961E+04  3.035590E+04
       276   3 -1.468919E+05 -1.489306E+05 -1.170312E+05 -4.740789E+04  1.825478E+04  3.193656E+04
       276   4  4.555384E+05  4.396376E+04  5.276947E+04 -4.088869E+04  3.629449E+04  9.661165E+03
       276   5  4.494388E+05  1.188912E+02  2.408294E+04 -2.850268E+04  2.352853E+04  3.036187E+04
       276   6  4.555728E+05 -2.217734E+03  1.410864E+04 -4.084912E+04  1.078319E+04  3.193009E+04
       276   7  1.185382E+06  2.250228E+05  2.291830E+05 -6.164862E+04  6.469672E+04  9.687077E+03
       276   8  1.114214E+06  1.624499E+05  1.716338E+05 -3.560000E+04  3.398851E+04  3.036759E+04
       276   9  1.058378E+06  1.444712E+05  1.452269E+05 -3.428394E+04  3.304436E+03  3.192347E+04
       276  10 -2.738169E+05 -1.371323E+05 -1.236793E+05 -2.015338E+04 -2.762789E-10  3.002449E-11
       276  11 -2.149246E+05 -1.622428E+05 -1.234970E+05 -2.141343E+04  1.787141E-10 -1.724848E-11
       276  12 -1.468925E+05 -1.489318E+05 -1.170337E+05 -4.740836E+04  2.217969E-10 -8.484452E-11
       276  13  4.555369E+05  4.396330E+04  5.276682E+04 -4.088897E+04  4.142438E-10  3.003300E-12
       276  14  4.494380E+05  1.177526E+02  2.408017E+04 -2.850326E+04  5.070241E-10  3.622548E-11
       276  15  4.555724E+05 -2.218860E+03  1.410651E+04 -4.084940E+04  3.786977E-10 -1.255740E-10
       276  16  1.185378E+06  2.250216E+05  2.291750E+05 -6.164912E+04  3.955617E-10  6.182200E-11
       276  17  1.114212E+06  1.624486E+05  1.716299E+05 -3.560083E+04 -7.804528E-11  5.699963E-11
       276  18  1.058378E+06  1.444701E+05  1.452250E+05 -3.428402E+04 -2.110503E-11 -1.339283E-10
       276  19 -2.738168E+05 -1.371321E+05 -1.236790E+05 -2.015332E+04 -7.925477E+03 -9.633342E+03
       276  20 -2.149242E+05 -1.622417E+05 -1.234949E+05 -2.141311E+04 -1.307961E+04 -3.035590E+04
       276  21 -1.468919E+05 -1.489306E+05 -1.170312E+05 -4.740789E+04 -1.825478E+04 -3.193656E+04
       276  22  4.555384E+05  4.396376E+04  5.276947E+04 -4.088869E+04 -3.629449E+04 -9.661165E+03
       276  23  4.494388E+05  1.188912E+02  2.408294E+04 -2.850268E+04 -2.352853E+04 -3.036187E+04
       276  24  4.555728E+05 -2.217734E+03  1.410864E+04 -4.084912E+04 -1.078319E+04 -3.193009E+04
       276  25  1.185382E+06  2.250228E+05  2.291830E+05 -6.164862E+04 -6.469672E+04 -9.687077E+03
       276  26  1.114214E+06  1.624499E+05  1.716338E+05 -3.560000E+04 -3.398851E+04 -3.036759E+04
       276  27  1.058378E+06  1.444712E+05  1.452269E+05 -3.428394E+04 -3.304436E+03 -3.192347E+04
       277   1 -9.817855E+04 -1.321267E+05 -1.094058E+05 -4.040698E+04  1.075540E+04  2.822069E+04
       277   2 -3.577113E+04 -1.190588E+05 -1.003395E+05 -2.826263E+04  8.514791E+03  2.568791E+04
       277   3  2.757907E+04 -1.038202E+05 -8.924745E+04 -4.150445E+04  6.272332E+03  2.230056E+04
       277   4  4.531051E+05  2.230465E+03  1.119619E+04 -4.100453E+04  8.791199E+03  2.821790E+04
       277   5  4.525761E+05 -1.282972E+02  6.069069E+03 -2.831167E+04  5.748310E+03  2.568551E+04
       277   6  4.531244E+05 -1.780098E+02  3.523237E+03 -4.100370E+04  2.703799E+03  2.229888E+04
       277   7  1.004673E+06  1.365674E+05  1.317799E+05 -4.160264E+04  6.825269E+03  2.821512E+04
       277   8  9.411467E+05  1.187864E+05  1.124634E+05 -2.836077E+04  2.979680E+03  2.568312E+04
       277   9  8.788393E+05  1.034521E+05  9.628308E+04 -4.050262E+04 -8.671491E+02  2.229719E+04
       277  10 -9.817889E+04 -1.321276E+05 -1.094076E+05 -4.040722E+04 -3.111641E-10 -1.541686E-10
       277  11 -3.577138E+04 -1.190595E+05 -1.003409E+05 -2.826280E+04 -7.096341E-10 -2.720945E-11
       277  12  2.757890E+04 -1.038207E+05 -8.924846E+04 -4.150456E+04 -2.848582E-11  1.645299E-11
       277  13  4.531048E+05  2.229589E+03  1.119455E+04 -4.100473E+04  2.853399E-10 -1.005505E-10
       277  14  4.525759E+05 -1.290147E+02  6.067767E+03 -2.831179E+04  7.945305E-11  1.998155E-11
       277  15  4.531242E+05 -1.785458E+02  3.522288E+03 -4.100375E+04  3.364542E-10  5.167245E-11
       277  16  1.004673E+06  1.365665E+05  1.317783E+05 -4.160279E+04  2.650036E-10 -9.094155E-11
       277  17  9.411465E+05  1.187857E+05  1.124621E+05 -2.836083E+04 -7.002907E-11  1.148115E-10
       277  18  8.788392E+05  1.034516E+05  9.628215E+04 -4.050260E+04  3.357306E-10  1.387939E-10
       277  19 -9.817855E+04 -1.321267E+05 -1.094058E+05 -4.040698E+04 -1.075540E+04 -2.822069E+04
       277  20 -3.577113E+04 -1.190588E+05 -1.003395E+05 -2.826263E+04 -8.514791E+03 -2.568791E+04
       277  21  2.757907E+04 -1.038202E+05 -8.924745E+04 -4.150445E+04 -6.272332E+03 -2.230056E+04
       277  22  4.531051E+05  2.230465E+03  1.119619E+04 -4.100453E+04 -8.791199E+03 -2.821790E+04
       277  23  4.525761E+05 -1.282972E+02  6.069069E+03 -2.831167E+04 -5.748310E+03 -2.568551E+04
       277  24  4.531244E+05 -1.780098E+02  3.523237E+03 -4.100370E+04 -2.703799E+03 -2.229888E+04
       277  25  1.004673E+06  1.365674E+05  1.317799E+05 -4.160264E+04 -6.825269E+03 -2.821512E+04
       277  26  9.411467E+05  1.187864E+05  1.124634E+05 -2.836077E+04 -2.979680E+03 -2.568312E+04
       277  27  8.788393E+05  1.034521E+05  9.628308E+04 -4.050262E+04  8.671491E+02 -2.229719E+04
       278   1  7.788079E+04 -9.122276E+04 -7.876558E+04 -4.106646E+04  5.471636E+03  2.012450E+04
       278   2  1.404053E+05 -7.611158E+04 -6.642830E+04 -2.838351E+04  4.729721E+03  1.656307E+04
       278   3  2.030972E+05 -6.087330E+04 -5.356815E+04 -4.101176E+04  3.986343E+03  1.296703E+04
       278   4  4.529318E+05  6.107939E+01  2.707581E+03 -4.098739E+04  2.154919E+03  2.012333E+04
       278   5  4.528526E+05 -4.325450E+01  1.565394E+03 -2.833219E+04  1.380046E+03  1.656249E+04
       278   6  4.529436E+05 -1.437870E+01  9.690596E+02 -4.098741E+04  6.037853E+02  1.296706E+04
       278   7  8.281147E+05  9.133561E+04  8.417238E+04 -4.090827E+04 -1.163775E+03  2.012216E+04
       278   8  7.653914E+05  7.601860E+04  6.955328E+04 -2.828083E+04 -1.971292E+03  1.656191E+04
       278   9  7.028484E+05  6.084040E+04  5.550254E+04 -4.096304E+04 -2.780116E+03  1.296708E+04
       278  10  7.788065E+04 -9.122320E+04 -7.876640E+04 -4.106655E+04  2.933514E-10 -1.129165E-10
       278  11  1.404052E+05 -7.611188E+04 -6.642886E+04 -2.838358E+04 -4.924033E-10 -1.188992E-10
       278  12  2.030972E+05 -6.087349E+04 -5.356849E+04 -4.101180E+04 -2.998215E-11 -3.148878E-11
       278  13  4.529317E+05  6.064321E+01  2.706811E+03 -4.098743E+04  9.011583E-11 -1.534572E-11
       278  14  4.528525E+05 -4.354964E+01  1.564874E+03 -2.833220E+04 -6.546415E-10 -1.256932E-10
       278  15  4.529435E+05 -1.455940E+01  9.687429E+02 -4.098741E+04  3.462117E-11 -4.212972E-11
       278  16  8.281146E+05  9.133517E+04  8.417162E+04 -4.090825E+04 -2.673683E-10  9.873897E-12
       278  17  7.653913E+05  7.601831E+04  6.955276E+04 -2.828081E+04  7.244786E-12 -1.045529E-10
       278  18  7.028484E+05  6.084022E+04  5.550221E+04 -4.096301E+04  1.621804E-10  4.017125E-11
       278  19  7.788079E+04 -9.122276E+04 -7.876558E+04 -4.106646E+04 -5.471636E+03 -2.012450E+04
       278  20  1.404053E+05 -7.611158E+04 -6.642830E+04 -2.838351E+04 -4.729721E+03 -1.656307E+04
       278  21  2.030972E+05 -6.087330E+04 -5.356815E+04 -4.101176E+04 -3.986343E+03 -1.296703E+04
       278  22  4.529318E+05  6.107939E+01  2.707581E+03 -4.098739E+04 -2.154919E+03 -2.012333E+04
       278  23  4.528526E+05 -4.325450E+01  1.565394E+03 -2.833219E+04 -1.380046E+03 -1.656249E+04
       278  24  4.529436E+05 -1.437870E+01  9.690596E+02 -4.098741E+04 -6.037853E+02 -1.296706E+04
       278  25  8.281147E+05  9.133561E+04  8.417238E+04 -4.090827E+04  1.163775E+03 -2.012216E+04
       278  26  7.653914E+05  7.601860E+04  6.955328E+04 -2.828083E+04  1.971292E+03 -1.656191E+04
       278  27  7.028484E+05  6.084040E+04  5.550254E+04 -4.096304E+04  2.780116E+03 -1.296708E+04
       279   1  2.533889E+05 -4.854067E+04 -4.245185E+04 -4.097628E+04  3.813521E+03  1.086700E+04
       279   2  3.158291E+05 -3.337094E+04 -2.922274E+04 -2.833687E+04  3.516361E+03  7.268842E+03
       279   3  3.783145E+05 -1.818524E+04 -1.579687E+04 -4.095249E+04  3.218550E+03  3.670819E+03
       279   4  4.529199E+05 -1.733198E+00  7.890717E+02 -4.097502E+04  4.445644E+02  1.086729E+04
       279   5  4.529021E+05 -3.215107E+00  6.010556E+02 -2.834768E+04  1.472770E+02  7.269390E+03
       279   6  4.529249E+05  1.127452E+01  6.096959E+02 -4.097502E+04 -1.506315E+02  3.671638E+03
       279   7  6.524881E+05  4.853458E+04  4.402767E+04 -4.097376E+04 -2.925460E+03  1.086759E+04
       279   8  5.899927E+05  3.336327E+04  3.042377E+04 -2.835848E+04 -3.222541E+03  7.269939E+03
       279   9  5.275405E+05  1.820742E+04  1.701596E+04 -4.099756E+04 -3.520213E+03  3.672457E+03
       279  10  2.533889E+05 -4.854080E+04 -4.245210E+04 -4.097631E+04 -6.059980E-11 -1.337434E-11
       279  11  3.158291E+05 -3.337100E+04 -2.922286E+04 -2.833689E+04  2.084958E-10 -1.130368E-10
       279  12  3.783145E+05 -1.818526E+04 -1.579691E+04 -4.095250E+04  1.608005E-10 -5.813874E-11
       279  13  4.529198E+05 -1.860095E+00  7.888494E+02 -4.097503E+04  2.660858E-10  6.297334E-11
       279  14  4.529021E+05 -3.271870E+00  6.009563E+02 -2.834768E+04 -6.111185E-11  1.078139E-10
       279  15  4.529249E+05  1.126004E+01  6.096705E+02 -4.097502E+04 -4.348711E-10 -2.815905E-11
       279  16  6.524881E+05  4.853445E+04  4.402743E+04 -4.097374E+04  3.121400E-10  1.421088E-10
       279  17  5.899926E+05  3.336321E+04  3.042365E+04 -2.835847E+04 -2.646873E-10  2.834884E-10
       279  18  5.275405E+05  1.820741E+04  1.701591E+04 -4.099755E+04 -5.105340E-10 -1.615906E-10
       279  19  2.533889E+05 -4.854067E+04 -4.245185E+04 -4.097628E+04 -3.813521E+03 -1.086700E+04
       279  20  3.158291E+05 -3.337094E+04 -2.922274E+04 -2.833687E+04 -3.516361E+03 -7.268842E+03
       279  21  3.783145E+05 -1.818524E+04 -1.579687E+04 -4.095249E+04 -3.218550E+03 -3.670819E+03
       279  22  4.529199E+05 -1.733198E+00  7.890717E+02 -4.097502E+04 -4.445644E+02 -1.086729E+04
       279  23  4.529021E+05 -3.215107E+00  6.010556E+02 -2.834768E+04 -1.472770E+02 -7.269390E+03
       279  24  4.529249E+05  1.127452E+01  6.096959E+02 -4.097502E+04  1.506315E+02 -3.671638E+03
       279  25  6.524881E+05  4.853458E+04  4.402767E+04 -4.097376E+04  2.925460E+03 -1.086759E+04
       279  26  5.899927E+05  3.336327E+04  3.042377E+04 -2.835848E+04  3.222541E+03 -7.269939E+03
       279  27  5.275405E+05  1.820742E+04  1.701596E+04 -4.099756E+04  3.520213E+03 -3.672457E+03
       280   1  4.285678E+05 -5.883567E+03 -4.444018E+03 -4.095469E+04  3.100082E+03  1.577094E+03
       280   2  4.909725E+05  9.263857E+03  9.277823E+03 -2.832094E+04  2.606767E+03 -2.019336E+03
       280   3  5.534416E+05  2.443881E+04  2.332446E+04 -4.092742E+04  2.113574E+03 -5.614823E+03
       280   4  4.529305E+05  1.180415E+01  6.820989E+02 -4.097183E+04 -2.685745E+02  1.577972E+03
       280   5  4.528994E+05 -3.317395E+00  9.947488E+02 -2.835167E+04 -7.611341E+02 -2.018539E+03
       280   6  4.529289E+05  9.195835E+00  1.631821E+03 -4.097182E+04 -1.253523E+03 -5.614092E+03
       280   7  4.772938E+05  5.907144E+03  5.808225E+03 -4.098897E+04 -3.637361E+03  1.578850E+03
       280   8  4.148277E+05 -9.270582E+03 -7.288370E+03 -2.838239E+04 -4.128832E+03 -2.017741E+03
       280   9  3.524258E+05 -2.442108E+04 -2.006137E+04 -4.101621E+04 -4.620082E+03 -5.613361E+03
       280  10  4.285677E+05 -5.883573E+03 -4.444041E+03 -4.095469E+04 -3.825890E-10 -3.390866E-11
       280  11  4.909725E+05  9.263851E+03  9.277803E+03 -2.832094E+04 -1.423125E-10 -2.718967E-11
       280  12  5.534416E+05  2.443877E+04  2.332439E+04 -4.092741E+04 -2.668286E-10  1.268946E-10
       280  13  4.529305E+05  1.180146E+01  6.820941E+02 -4.097183E+04 -4.164074E-10 -6.656069E-11
       280  14  4.528994E+05 -3.321926E+00  9.947401E+02 -2.835167E+04 -1.014846E-09  8.354871E-11
       280  15  4.529289E+05  9.161561E+00  1.631759E+03 -4.097182E+04  6.322315E-10  9.926218E-11
       280  16  4.772937E+05  5.907137E+03  5.808195E+03 -4.098897E+04  1.418913E-10 -2.800180E-10
       280  17  4.148277E+05 -9.270591E+03 -7.288409E+03 -2.838239E+04  8.634023E-11 -3.059885E-11
       280  18  3.524258E+05 -2.442112E+04 -2.006147E+04 -4.101623E+04 -5.410208E-12 -6.447591E-11
       280  19  4.285678E+05 -5.883567E+03 -4.444018E+03 -4.095469E+04 -3.100082E+03 -1.577094E+03
       280  20  4.909725E+05  9.263857E+03  9.277823E+03 -2.832094E+04 -2.606767E+03  2.019336E+03
       280  21  5.534416E+05  2.443881E+04  2.332446E+04 -4.092742E+04 -2.113574E+03  5.614823E+03
       280  22  4.529305E+05  1.180415E+01  6.820989E+02 -4.097183E+04  2.685745E+02 -1.577972E+03
       280  23  4.528994E+05 -3.317395E+00  9.947488E+02 -2.835167E+04  7.611341E+02  2.018539E+03
       280  24  4.529289E+05  9.195835E+00  1.631821E+03 -4.097182E+04  1.253523E+03  5.614092E+03
       280  25  4.772938E+05  5.907144E+03  5.808225E+03 -4.098897E+04  3.637361E+03 -1.578850E+03
       280  26  4.148277E+05 -9.270582E+03 -7.288370E+03 -2.838239E+04  4.128832E+03  2.017741E+03
       280  27  3.524258E+05 -2.442108E+04 -2.006137E+04 -4.101621E+04  4.620082E+03  5.613361E+03
       281   1  6.037750E+05  3.671828E+04  3.509610E+04 -4.088676E+04  1.785389E+03 -7.711709E+03
       281   2  6.661363E+05  5.186297E+04  5.004555E+04 -2.824352E+04 -4.778456E+01 -1.130276E+04
       281   3  7.288307E+05  6.733222E+04  6.627009E+04 -4.087433E+04 -1.880158E+03 -1.486311E+04
       281   4  4.529850E+05 -1.681158E+01  2.120271E+03 -4.097944E+04 -1.592884E+03 -7.711125E+03
       281   5  4.528180E+05 -5.514727E+01  3.637616E+03 -2.834212E+04 -3.396865E+03 -1.130259E+04
       281   6  4.529766E+05  2.266225E+02  6.410556E+03 -4.097937E+04 -5.199866E+03 -1.486335E+04
       281   7  3.022162E+05 -3.675342E+04 -3.085689E+04 -4.107210E+04 -4.970347E+03 -7.710541E+03
       281   8  2.395423E+05 -5.197628E+04 -4.277300E+04 -2.844068E+04 -6.744810E+03 -1.130243E+04
       281   9  1.771937E+05 -6.688401E+04 -5.345347E+04 -4.108436E+04 -8.518119E+03 -1.486359E+04
       281  10  6.037750E+05  3.671822E+04  3.509598E+04 -4.088675E+04  3.048224E-10  6.223021E-11
       281  11  6.661363E+05  5.186283E+04  5.004531E+04 -2.824352E+04  5.434747E-10 -1.063385E-10
       281  12  7.288307E+05  6.733198E+04  6.626967E+04 -4.087435E+04  2.706728E-10 -2.442184E-10
       281  13  4.529850E+05 -1.687613E+01  2.120155E+03 -4.097945E+04 -2.236822E-11 -4.058250E-11
       281  14  4.528180E+05 -5.528758E+01  3.637354E+03 -2.834215E+04  5.643977E-10 -1.060106E-10
       281  15  4.529765E+05  2.263779E+02  6.410090E+03 -4.097943E+04  2.871738E-10 -2.229126E-10
       281  16  3.022162E+05 -3.675349E+04 -3.085705E+04 -4.107213E+04 -1.433814E-10 -1.102863E-10
       281  17  2.395422E+05 -5.197643E+04 -4.277333E+04 -2.844074E+04 -5.449245E-10 -1.277158E-10
       281  18  1.771936E+05 -6.688426E+04 -5.345403E+04 -4.108446E+04 -4.506844E-10 -1.896388E-10
       281  19  6.037750E+05  3.671828E+04  3.509610E+04 -4.088676E+04 -1.785389E+03  7.711709E+03
       281  20  6.661363E+05  5.186297E+04  5.004555E+04 -2.824352E+04  4.778456E+01  1.130276E+04
       281  21  7.288307E+05  6.733222E+04  6.627009E+04 -4.087433E+04  1.880158E+03  1.486311E+04
       281  22  4.529850E+05 -1.681158E+01  2.120271E+03 -4.097944E+04  1.592884E+03  7.711125E+03
       281  23  4.528180E+05 -5.514727E+01  3.637616E+03 -2.834212E+04  3.396865E+03  1.130259E+04
       281  24  4.529766E+05  2.266225E+02  6.410556E+03 -4.097937E+04  5.199866E+03  1.486335E+04
       281  25  3.022162E+05 -3.675342E+04 -3.085689E+04 -4.107210E+04  4.970347E+03  7.710541E+03
       281  26  2.395423E+05 -5.197628E+04 -4.277300E+04 -2.844068E+04  6.744810E+03  1.130243E+04
       281  27  1.771937E+05 -6.688401E+04 -5.345347E+04 -4.108436E+04  8.518119E+03  1.486359E+04
       282   1  7.797018E+05  7.909735E+04  7.950714E+04 -3.992230E+04 -2.965229E+03 -1.702422E+04
       282   2  8.411883E+05  9.449730E+04  9.921613E+04 -2.871765E+04 -1.093757E+04 -2.043254E+04
       282   3  9.051894E+05  1.155478E+05  1.255363E+05 -4.283178E+04 -1.890943E+04 -2.310075E+04
       282   4  4.534289E+05 -3.385768E+02  8.370913E+03 -4.098915E+04 -6.502769E+03 -1.702481E+04
       282   5  4.522248E+05 -1.813510E+02  1.449844E+04 -2.832974E+04 -1.377764E+04 -2.043383E+04
       282   6  4.534117E+05  5.507693E+03  2.675616E+04 -4.098990E+04 -2.105123E+04 -2.310254E+04
       282   7  1.272557E+05 -7.978157E+04 -6.277167E+04 -4.205544E+04 -1.003847E+04 -1.702539E+04
       282   8  6.340287E+04 -9.487004E+04 -7.022830E+04 -2.794207E+04 -1.661595E+04 -2.043512E+04
       282   9  1.824964E+03 -1.045460E+05 -7.203631E+04 -3.914938E+04 -2.319149E+04 -2.310435E+04
       282  10  7.797017E+05  7.909704E+04  7.950658E+04 -3.992234E+04 -2.275069E-10 -3.630138E-10
       282  11  8.411880E+05  9.449682E+04  9.921512E+04 -2.871783E+04 -1.880442E-10 -1.371540E-10
       282  12  9.051889E+05  1.155471E+05  1.255346E+05 -4.283213E+04  2.165081E-11  3.075833E-10
       282  13  4.534288E+05 -3.388994E+02  8.370289E+03 -4.098924E+04 -3.202144E-11 -1.975379E-10
       282  14  4.522244E+05 -1.818503E+02  1.449730E+04 -2.832996E+04  1.996001E-10  3.998401E-12
       282  15  4.534111E+05  5.507001E+03  2.675433E+04 -4.099029E+04  2.898423E-10  1.830415E-10
       282  16  1.272555E+05 -7.978191E+04 -6.277241E+04 -4.205558E+04 -2.595630E-10 -1.233508E-10
       282  17  6.340246E+04 -9.487056E+04 -7.022960E+04 -2.794234E+04 -6.400653E-11  1.170498E-11
       282  18  1.824243E+03 -1.045467E+05 -7.203832E+04 -3.914981E+04  7.172627E-10  7.113076E-11
       282  19  7.797018E+05  7.909735E+04  7.950714E+04 -3.992230E+04  2.965229E+03  1.702422E+04
       282  20  8.411883E+05  9.449730E+04  9.921613E+04 -2.871765E+04  1.093757E+04  2.043254E+04
       282  21  9.051894E+05  1.155478E+05  1.255363E+05 -4.283178E+04  1.890943E+04  2.310075E+04
       282  22  4.534289E+05 -3.385768E+02  8.370913E+03 -4.098915E+04  6.502769E+03  1.702481E+04
       282  23  4.522248E+05 -1.813510E+02  1.449844E+04 -2.832974E+04  1.377764E+04  2.043383E+04
       282  24  4.534117E+05  5.507693E+03  2.675616E+04 -4.098990E+04  2.105123E+04  2.310254E+04
       282  25  1.272557E+05 -7.978157E+04 -6.277167E+04 -4.205544E+04  1.003847E+04  1.702539E+04
       282  26  6.340287E+04 -9.487004E+04 -7.022830E+04 -2.794207E+04  1.661595E+04  2.043512E+04
       282  27  1.824964E+03 -1.045460E+05 -7.203631E+04 -3.914938E+04  2.319149E+04  2.310435E+04
       283   1  9.620722E+05  1.172582E+05  1.431092E+05 -2.569512E+04 -1.889737E+04 -2.659236E+04
       283   2  1.009530E+06  1.384206E+05  1.830107E+05 -4.621513E+04 -6.494210E+04 -2.571884E+04
       283   3  1.088558E+06  2.613942E+05  2.783392E+05 -9.151244E+04 -1.110049E+05 -8.271602E+03
       283   4  4.592949E+05 -5.106607E+03  3.371812E+04 -4.085265E+04 -2.581388E+04 -2.659573E+04
       283   5  4.448254E+05  5.162795E+02  5.761310E+04 -2.849657E+04 -5.630484E+04 -2.571792E+04
       283   6  4.592511E+05  1.052990E+05  1.261710E+05 -4.091463E+04 -8.680808E+04 -8.264489E+03
       283   7 -4.324518E+04 -1.274873E+05 -7.568783E+04 -5.599778E+04 -3.272485E+04 -2.659878E+04
       283   8 -1.195813E+05 -1.374084E+05 -6.780384E+04 -1.079432E+04 -4.767532E+04 -2.571651E+04
       283   9 -1.696873E+05 -5.081514E+04 -2.602194E+04  9.631756E+03 -6.263562E+04 -8.253436E+03
       283  10  9.620716E+05  1.172574E+05  1.431072E+05 -2.569552E+04  5.327318E-11  5.400063E-10
       283  11  1.009525E+06  1.384188E+05  1.830015E+05 -4.621647E+04 -9.878226E-11  1.805651E-10
       283  12  1.088544E+06  2.613908E+05  2.783159E+05 -9.151318E+04 -1.811266E-10 -6.197353E-11
       283  13  4.592940E+05 -5.107546E+03  3.371554E+04 -4.085320E+04  2.227330E-10  2.712369E-10
       283  14  4.448219E+05  5.147188E+02  5.760590E+04 -2.849774E+04  1.369418E-10  1.073579E-10
       283  15  4.592430E+05  1.052969E+05  1.261568E+05 -4.091521E+04 -1.077710E-10  7.567675E-11
       283  16 -4.324652E+04 -1.274884E+05 -7.569117E+04 -5.599848E+04  2.769831E-10  1.266989E-10
       283  17 -1.195840E+05 -1.374097E+05 -6.780935E+04 -1.079531E+04 -4.939404E-11  4.324880E-10
       283  18 -1.696916E+05 -5.081627E+04 -2.602944E+04  9.631340E+03  1.680847E-10  7.804579E-11
       283  19  9.620722E+05  1.172582E+05  1.431092E+05 -2.569512E+04  1.889737E+04  2.659236E+04
       283  20  1.009530E+06  1.384206E+05  1.830107E+05 -4.621513E+04  6.494210E+04  2.571884E+04
       283  21  1.088558E+06  2.613942E+05  2.783392E+05 -9.151244E+04  1.110049E+05  8.271602E+03
       283  22  4.592949E+05 -5.106607E+03  3.371812E+04 -4.085265E+04  2.581388E+04  2.659573E+04
       283  23  4.448254E+05  5.162795E+02  5.761310E+04 -2.849657E+04  5.630484E+04  2.571792E+04
       283  24  4.592511E+05  1.052990E+05  1.261710E+05 -4.091463E+04  8.680808E+04  8.264489E+03
       283  25 -4.324518E+04 -1.274873E+05 -7.568783E+04 -5.599778E+04  3.272485E+04  2.659878E+04
       283  26 -1.195813E+05 -1.374084E+05 -6.780384E+04 -1.079432E+04  4.767532E+04  2.571651E+04
       283  27 -1.696873E+05 -5.081514E+04 -2.602194E+04  9.631756E+03  6.263562E+04  8.253436E+03
       284   1  1.722314E+05  9.980166E+05  1.813242E+05 -1.156198E+05  4.826186E+03  6.423455E+04
       284   2  7.829316E+04  8.580043E+05  1.035349E+05 -7.061430E+04  1.355282E+04  3.516434E+04
       284   3  4.311597E+04  7.363342E+05  5.931565E+04 -7.783027E+04  9.578324E+03  6.083784E+03
       284   4  6.038361E+04  5.482110E+05  7.194981E+04 -8.613452E+04  4.848240E+03  5.012386E+04
       284   5  5.001110E+02  5.400934E+05  3.240394E+04 -6.006766E+04  1.355701E+04  3.296711E+04
       284   6 -2.669975E+03  5.482518E+05  1.817844E+04 -8.621988E+04  9.563495E+03  1.579376E+04
       284   7 -5.147571E+04  9.859198E+04 -3.743802E+04 -5.667058E+04  4.868964E+03  3.602334E+04
       284   8 -7.729941E+04  2.222768E+05 -3.873329E+04 -4.952643E+04  1.356112E+04  3.077099E+04
       284   9 -4.845795E+04  3.602029E+05 -2.296052E+04 -9.460690E+04  9.548402E+03  2.550084E+04
       284  10  1.722302E+05  9.980121E+05  1.813164E+05 -1.156200E+05  4.017296E-11 -1.015023E-10
       284  11  7.829263E+04  8.580030E+05  1.035322E+05 -7.061468E+04 -2.398111E-10  1.269562E-10
       284  12  4.311586E+04  7.363341E+05  5.931540E+04 -7.783032E+04  8.578351E-10  2.606228E-10
       284  13  6.038291E+04  5.482083E+05  7.194505E+04 -8.613472E+04  4.278408E-10 -8.338453E-11
       284  14  4.996221E+02  5.400922E+05  3.240155E+04 -6.006802E+04 -1.212635E-09  1.645476E-10
       284  15 -2.670140E+03  5.482515E+05  1.817780E+04 -8.622000E+04  5.341620E-10 -7.411207E-12
       284  16 -5.147609E+04  9.859058E+04 -3.744050E+04 -5.667073E+04 -2.742591E-11  1.186759E-10
       284  17 -7.729986E+04  2.222757E+05 -3.873541E+04 -4.952677E+04 -1.577374E-10 -1.232335E-10
       284  18 -4.845823E+04  3.602022E+05 -2.296191E+04 -9.460710E+04 -1.914919E-10 -3.100053E-10
       284  19  1.722314E+05  9.980166E+05  1.813242E+05 -1.156198E+05 -4.826186E+03 -6.423455E+04
       284  20  7.829316E+04  8.580043E+05  1.035349E+05 -7.061430E+04 -1.355282E+04 -3.516434E+04
       284  21  4.311597E+04  7.363342E+05  5.931565E+04 -7.783027E+04 -9.578324E+03 -6.083784E+03
       284  22  6.038361E+04  5.482110E+05  7.194981E+04 -8.613452E+04 -4.848240E+03 -5.012386E+04
       284  23  5.001110E+02  5.400934E+05  3.240394E+04 -6.006766E+04 -1.355701E+04 -3.296711E+04
       284  24 -2.669975E+03  5.482518E+05  1.817844E+04 -8.621988E+04 -9.563495E+03 -1.579376E+04
       284  25 -5.147571E+04  9.859198E+04 -3.743802E+04 -5.667058E+04 -4.868964E+03 -3.602334E+04
       284  26 -7.729941E+04  2.222768E+05 -3.873329E+04 -4.952643E+04 -1.356112E+04 -3.077099E+04
       284  27 -4.845795E+04  3.602029E+05 -2.296052E+04 -9.460690E+04 -9.548402E+03 -2.550084E+04
       285   1  2.362354E+04  6.273787E+05  3.195616E+04 -8.731460E+04  4.077794E+03  7.045574E+03
       285   2 -1.158384E+04  4.963437E+05 -4.816181E+03 -6.020144E+04 -2.528101E+03  4.296303E+03
       285   3 -4.447554E+04  3.660770E+05 -3.926703E+04 -8.584023E+04 -9.025469E+03  1.548174E+03
       285   4  3.489631E+03  5.448098E+05  1.381885E+04 -8.631362E+04  4.068068E+03  1.328749E+04
       285   5  1.208200E+02  5.444238E+05  5.660230E+03 -5.994121E+04 -2.537475E+03  1.043679E+04
       285   6 -9.132660E+02  5.448087E+05 -1.046082E+02 -8.632035E+04 -9.034548E+03  7.586667E+03
       285   7 -1.664471E+04  4.622474E+05 -4.318725E+03 -8.531277E+04  4.058361E+03  1.952859E+04
       285   8  1.182535E+04  5.925062E+05  1.613664E+04 -5.968096E+04 -2.546843E+03  1.657774E+04
       285   9  4.264689E+04  7.235705E+05  3.905601E+04 -8.680059E+04 -9.043635E+03  1.362688E+04
       285  10  2.362351E+04  6.273786E+05  3.195603E+04 -8.731462E+04  3.111069E-10 -5.900518E-10
       285  11 -1.158386E+04  4.963436E+05 -4.816228E+03 -6.020143E+04  1.900835E-10 -3.362893E-10
       285  12 -4.447562E+04  3.660769E+05 -3.926719E+04 -8.584021E+04 -6.505968E-10 -8.312155E-11
       285  13  3.489566E+03  5.448096E+05  1.381849E+04 -8.631366E+04  3.855451E-10 -8.082141E-12
       285  14  1.207839E+02  5.444237E+05  5.660014E+03 -5.994119E+04  1.007122E-09 -1.383088E-10
       285  15 -9.133691E+02  5.448086E+05 -1.048697E+02 -8.632029E+04  1.124330E-09 -1.208797E-10
       285  16 -1.664483E+04  4.622470E+05 -4.319472E+03 -8.531283E+04  3.769705E-11  6.065029E-10
       285  17  1.182527E+04  5.925059E+05  1.613612E+04 -5.968092E+04 -3.837603E-10  3.622557E-10
       285  18  4.264675E+04  7.235702E+05  3.905551E+04 -8.680049E+04 -4.702005E-10  1.708356E-10
       285  19  2.362354E+04  6.273787E+05  3.195616E+04 -8.731460E+04 -4.077794E+03 -7.045574E+03
       285  20 -1.158384E+04  4.963437E+05 -4.816181E+03 -6.020144E+04  2.528101E+03 -4.296303E+03
       285  21 -4.447554E+04  3.660770E+05 -3.926703E+04 -8.584023E+04  9.025469E+03 -1.548174E+03
       285  22  3.489631E+03  5.448098E+05  1.381885E+04 -8.631362E+04 -4.068068E+03 -1.328749E+04
       285  23  1.208200E+02  5.444238E+05  5.660230E+03 -5.994121E+04  2.537475E+03 -1.043679E+04
       285  24 -9.132660E+02  5.448087E+05 -1.046082E+02 -8.632035E+04  9.034548E+03 -7.586667E+03
       285  25 -1.664471E+04  4.622474E+05 -4.318725E+03 -8.531277E+04 -4.058361E+03 -1.952859E+04
       285  26  1.182535E+04  5.925062E+05  1.613664E+04 -5.968096E+04  2.546843E+03 -1.657774E+04
       285  27  4.264689E+04  7.235705E+05  3.905601E+04 -8.680059E+04  9.043635E+03 -1.362688E+04
       286   1 -6.799859E+04  2.592605E+05 -6.458509E+04 -8.317384E+04 -1.471562E+04 -2.534389E+03
       286   2 -1.012569E+05  1.319954E+05 -1.009723E+05 -6.274244E+04 -1.810064E+04  1.622095E+04
       286   3 -1.539842E+05 -2.662485E+03 -1.544595E+05 -9.450997E+04 -6.323659E+03  3.498969E+04
       286   4  1.253545E+03  5.435273E+05 -2.516946E+03 -8.618896E+04 -1.473039E+04  7.709627E+03
       286   5 -9.428335E+00  5.459855E+05 -8.530415E+03 -6.010228E+04 -1.809442E+04  1.227436E+04
       286   6 -1.827072E+04  5.435012E+05 -2.178802E+04 -8.621377E+04 -6.300642E+03  1.685685E+04
       286   7  7.050039E+04  8.278700E+05  5.954673E+04 -8.920545E+04 -1.474525E+04  1.795827E+04
       286   8  1.012265E+05  9.601354E+05  8.390080E+04 -5.746029E+04 -1.808824E+04  8.325167E+03
       286   9  1.174213E+05  1.089938E+06  1.108632E+05 -7.791014E+04 -6.278121E+03 -1.291913E+03
       286  10 -6.799883E+04  2.592604E+05 -6.458551E+04 -8.317387E+04  1.630210E-11  7.475958E-11
       286  11 -1.012574E+05  1.319950E+05 -1.009734E+05 -6.274220E+04  3.502223E-10  3.672502E-11
       286  12 -1.539846E+05 -2.663810E+03 -1.544619E+05 -9.450979E+04 -9.975934E-11  4.858724E-12
       286  13  1.253296E+03  5.435272E+05 -2.517466E+03 -8.618887E+04 -9.696003E-10  1.403208E-10
       286  14 -9.820377E+00  5.459853E+05 -8.531313E+03 -6.010211E+04  5.921874E-10 -1.029045E-10
       286  15 -1.827084E+04  5.435009E+05 -2.178863E+04 -8.621368E+04 -2.494279E-10 -4.072906E-12
       286  16  7.050007E+04  8.278696E+05  5.954571E+04 -8.920524E+04  1.501539E-10 -1.530694E-10
       286  17  1.012261E+05  9.601352E+05  8.390006E+04 -5.746017E+04  1.481863E-10 -1.593597E-10
       286  18  1.174213E+05  1.089938E+06  1.108631E+05 -7.791015E+04 -3.687560E-10  1.030648E-11
       286  19 -6.799859E+04  2.592605E+05 -6.458509E+04 -8.317384E+04  1.471562E+04  2.534389E+03
       286  20 -1.012569E+05  1.319954E+05 -1.009723E+05 -6.274244E+04  1.810064E+04 -1.622095E+04
       286  21 -1.539842E+05 -2.662485E+03 -1.544595E+05 -9.450997E+04  6.323659E+03 -3.498969E+04
       286  22  1.253545E+03  5.435273E+05 -2.516946E+03 -8.618896E+04  1.473039E+04 -7.709627E+03
       286  23 -9.428335E+00  5.459855E+05 -8.530415E+03 -6.010228E+04  1.809442E+04 -1.227436E+04
       286  24 -1.827072E+04  5.435012E+05 -2.178802E+04 -8.621377E+04  6.300642E+03 -1.685685E+04
       286  25  7.050039E+04  8.278700E+05  5.954673E+04 -8.920545E+04  1.474525E+04 -1.795827E+04
       286  26  1.012265E+05  9.601354E+05  8.390080E+04 -5.746029E+04  1.808824E+04 -8.325167E+03
       286  27  1.174213E+05  1.089938E+06  1.108632E+05 -7.791014E+04  6.278121E+03  1.291913E+03
       287   1 -8.639963E+05 -3.930980E+05 -2.672800E+05 -3.107540E+05 -1.134166E+05 -3.523522E+04
       287   2 -8.290649E+05 -2.391388E+05 -1.664451E+05 -3.039063E+05 -7.343070E+04 -4.190359E+03
       287   3 -8.319949E+05 -2.059749E+05 -1.296494E+05 -2.802486E+05 -2.857881E+04  1.393469E+04
       287   4 -4.455795E+05 -1.843348E+05 -1.458199E+05 -1.440058E+05 -9.552832E+04 -2.851717E+04
       287   5 -4.198368E+05 -6.901393E+04 -6.331867E+04 -1.734832E+05 -6.683360E+04 -1.713211E+03
       287   6 -4.296882E+05 -7.220975E+04 -3.587402E+04 -1.861607E+05 -3.327609E+04  1.216863E+04
       287   7 -2.698869E+04  2.448058E+04 -2.437598E+04  2.285599E+04 -7.762694E+04 -2.179048E+04
       287   8 -1.044300E+04  1.011338E+05  3.979439E+04 -4.297806E+04 -6.023177E+04  7.661884E+02
       287   9 -2.721991E+04  6.155955E+04  5.789088E+04 -9.202039E+04 -3.797671E+04  1.040162E+04
       287  10 -8.640105E+05 -3.931028E+05 -2.673066E+05 -3.107572E+05 -2.516826E-10 -3.503458E-11
       287  11 -8.290707E+05 -2.391403E+05 -1.664553E+05 -3.039066E+05 -9.430280E-10 -8.967824E-11
       287  12 -8.319959E+05 -2.059753E+05 -1.296513E+05 -2.802483E+05  1.347278E-10 -7.546174E-11
       287  13 -4.455896E+05 -1.843382E+05 -1.458386E+05 -1.440080E+05 -1.263816E-10 -3.286235E-12
       287  14 -4.198416E+05 -6.901513E+04 -6.332707E+04 -1.734833E+05 -1.199939E-10 -4.501769E-11
       287  15 -4.296895E+05 -7.221020E+04 -3.587638E+04 -1.861603E+05  2.622967E-10 -6.738049E-11
       287  16 -2.699529E+04  2.447845E+04 -2.438819E+04  2.285463E+04  5.808232E-10  2.094487E-11
       287  17 -1.044690E+04  1.011328E+05  3.978757E+04 -4.297802E+04  1.512131E-10  2.818572E-11
       287  18 -2.722149E+04  6.155904E+04  5.788797E+04 -9.202007E+04 -2.941530E-10 -2.649302E-11
       287  19 -8.639963E+05 -3.930980E+05 -2.672800E+05 -3.107540E+05  1.134166E+05  3.523522E+04
       287  20 -8.290649E+05 -2.391388E+05 -1.664451E+05 -3.039063E+05  7.343070E+04  4.190359E+03
       287  21 -8.319949E+05 -2.059749E+05 -1.296494E+05 -2.802486E+05  2.857881E+04 -1.393469E+04
       287  22 -4.455795E+05 -1.843348E+05 -1.458199E+05 -1.440058E+05  9.552832E+04  2.851717E+04
       287  23 -4.198368E+05 -6.901393E+04 -6.331867E+04 -1.734832E+05  6.683360E+04  1.713211E+03
       287  24 -4.296882E+05 -7.220975E+04 -3.587402E+04 -1.861607E+05  3.327609E+04 -1.216863E+04
       287  25 -2.698869E+04  2.448058E+04 -2.437598E+04  2.285599E+04  7.762694E+04  2.179048E+04
       287  26 -1.044300E+04  1.011338E+05  3.979439E+04 -4.297806E+04  6.023177E+04 -7.661884E+02
       287  27 -2.721991E+04  6.155955E+04  5.789088E+04 -9.202039E+04  3.797671E+04 -1.040162E+04
       288   1 -7.867022E+05 -2.199722E+05 -1.161615E+05 -2.812715E+05 -2.698824E+04  1.184445E+04
       288   2 -7.583474E+05 -1.948391E+05 -9.418902E+04 -2.670387E+05 -1.859811E+04  1.358072E+04
       288   3 -7.232992E+05 -1.866507E+05 -7.992119E+04 -2.630111E+05 -9.989048E+03  1.473314E+04
       288   4 -4.249931E+05 -8.303751E+04 -2.840636E+04 -1.795943E+05 -2.782765E+04  1.152791E+04
       288   5 -4.279241E+05 -7.134031E+04 -1.460985E+04 -1.757202E+05 -1.994436E+04  1.307415E+04
       288   6 -4.240599E+05 -7.648470E+04 -8.112610E+03 -1.820519E+05 -1.184258E+04  1.403649E+04
       288   7 -6.315625E+04  5.390680E+04  5.933852E+04 -7.786310E+04 -2.866759E+04  1.121116E+04
       288   8 -9.739250E+04  5.216642E+04  6.496131E+04 -8.435738E+04 -2.129138E+04  1.256728E+04
       288   9 -1.247304E+05  3.368765E+04  6.368987E+04 -1.010571E+05 -1.369709E+04  1.333949E+04
       288  10 -7.867030E+05 -2.199725E+05 -1.161631E+05 -2.812713E+05 -4.764632E-10 -2.463736E-11
       288  11 -7.583479E+05 -1.948394E+05 -9.419001E+04 -2.670385E+05 -2.676193E-10  1.402574E-10
       288  12 -7.232993E+05 -1.866510E+05 -7.992178E+04 -2.630110E+05 -9.076035E-11  1.311211E-10
       288  13 -4.249940E+05 -8.303786E+04 -2.840806E+04 -1.795940E+05 -1.445565E-10 -9.947187E-11
       288  14 -4.279245E+05 -7.134060E+04 -1.461092E+04 -1.757200E+05  7.817629E-11 -2.772783E-11
       288  15 -4.240601E+05 -7.648495E+04 -8.113244E+03 -1.820518E+05 -3.907904E-10  1.039609E-10
       288  16 -6.315717E+04  5.390645E+04  5.933674E+04 -7.786284E+04  1.385564E-10 -7.949211E-11
       288  17 -9.739303E+04  5.216613E+04  6.496016E+04 -8.435716E+04 -1.418507E-10 -2.461315E-10
       288  18 -1.247306E+05  3.368741E+04  6.368918E+04 -1.010569E+05  1.708704E-10  9.368601E-11
       288  19 -7.867022E+05 -2.199722E+05 -1.161615E+05 -2.812715E+05  2.698824E+04 -1.184445E+04
       288  20 -7.583474E+05 -1.948391E+05 -9.418902E+04 -2.670387E+05  1.859811E+04 -1.358072E+04
       288  21 -7.232992E+05 -1.866507E+05 -7.992119E+04 -2.630111E+05  9.989048E+03 -1.473314E+04
       288  22 -4.249931E+05 -8.303751E+04 -2.840636E+04 -1.795943E+05  2.782765E+04 -1.152791E+04
       288  23 -4.279241E+05 -7.134031E+04 -1.460985E+04 -1.757202E+05  1.994436E+04 -1.307415E+04
       288  24 -4.240599E+05 -7.648470E+04 -8.112610E+03 -1.820519E+05  1.184258E+04 -1.403649E+04
       288  25 -6.315625E+04  5.390680E+04  5.933852E+04 -7.786310E+04  2.866759E+04 -1.121116E+04
       288  26 -9.739250E+04  5.216642E+04  6.496131E+04 -8.435738E+04  2.129138E+04 -1.256728E+04
       288  27 -1.247304E+05  3.368765E+04  6.368987E+04 -1.010571E+05  1.369709E+04 -1.333949E+04
       289   1 -6.947720E+05 -1.778699E+05 -7.122187E+04 -2.560219E+05 -8.564418E+03  1.390070E+04
       289   2 -6.670089E+05 -1.601548E+05 -6.063566E+04 -2.412013E+05 -6.131017E+03  1.260320E+04
       289   3 -6.293243E+05 -1.531312E+05 -5.142019E+04 -2.380945E+05 -3.686965E+03  1.127540E+04
       289   4 -4.236404E+05 -7.710285E+04 -6.171486E+03 -1.816393E+05 -1.024925E+04  1.326763E+04
       289   5 -4.285751E+05 -7.157999E+04 -3.358954E+03 -1.758488E+05 -7.841562E+03  1.196078E+04
       289   6 -4.235842E+05 -7.674293E+04 -1.896222E+03 -1.817720E+05 -5.423333E+03  1.062362E+04
       289   7 -1.524360E+05  2.366931E+04  5.887354E+04 -1.072272E+05 -1.193487E+04  1.263425E+04
       289   8 -1.900857E+05  1.699854E+04  5.391344E+04 -1.104736E+05 -9.552818E+03  1.131810E+04
       289   9 -2.178034E+05 -3.521552E+02  4.762436E+04 -1.254328E+05 -7.160318E+03  9.971601E+03
       289  10 -6.947721E+05 -1.778701E+05 -7.122237E+04 -2.560218E+05 -3.570870E-10  8.806409E-11
       289  11 -6.670089E+05 -1.601550E+05 -6.063603E+04 -2.412012E+05  5.756892E-11  2.590767E-10
       289  12 -6.293243E+05 -1.531313E+05 -5.142045E+04 -2.380945E+05  2.143694E-10  7.513123E-11
       289  13 -4.236405E+05 -7.710307E+04 -6.172014E+03 -1.816392E+05  2.257049E-10  9.365638E-11
       289  14 -4.285752E+05 -7.158016E+04 -3.359338E+03 -1.758487E+05  2.633112E-11 -4.154943E-12
       289  15 -4.235843E+05 -7.674306E+04 -1.896489E+03 -1.817719E+05 -4.572175E-11 -1.432946E-10
       289  16 -1.524362E+05  2.366910E+04  5.887297E+04 -1.072271E+05  2.411386E-10  1.605084E-10
       289  17 -1.900858E+05  1.699838E+04  5.391303E+04 -1.104735E+05 -4.221891E-10 -9.223475E-11
       289  18 -2.178035E+05 -3.522757E+02  4.762407E+04 -1.254327E+05 -2.654650E-10 -4.152246E-10
       289  19 -6.947720E+05 -1.778699E+05 -7.122187E+04 -2.560219E+05  8.564418E+03 -1.390070E+04
       289  20 -6.670089E+05 -1.601548E+05 -6.063566E+04 -2.412013E+05  6.131017E+03 -1.260320E+04
       289  21 -6.293243E+05 -1.531312E+05 -5.142019E+04 -2.380945E+05  3.686965E+03 -1.127540E+04
       289  22 -4.236404E+05 -7.710285E+04 -6.171486E+03 -1.816393E+05  1.024925E+04 -1.326763E+04
       289  23 -4.285751E+05 -7.157999E+04 -3.358954E+03 -1.758488E+05  7.841562E+03 -1.196078E+04
       289  24 -4.235842E+05 -7.674293E+04 -1.896222E+03 -1.817720E+05  5.423333E+03 -1.062362E+04
       289  25 -1.524360E+05  2.366931E+04  5.887354E+04 -1.072272E+05  1.193487E+04 -1.263425E+04
       289  26 -1.900857E+05  1.699854E+04  5.391344E+04 -1.104736E+05  9.552818E+03 -1.131810E+04
       289  27 -2.178034E+05 -3.521552E+02  4.762436E+04 -1.254328E+05  7.160318E+03 -9.971601E+03
       290   1 -6.017370E+05 -1.429600E+05 -4.415579E+04 -2.306061E+05 -2.981865E+03  1.022413E+04
       290   2 -5.739560E+05 -1.255761E+05 -3.581446E+04 -2.156753E+05 -1.781748E+03  8.416880E+03
       290   3 -5.359183E+05 -1.185396E+05 -2.781781E+04 -2.125696E+05 -5.806882E+02  6.605899E+03
       290   4 -4.235248E+05 -7.678046E+04 -1.463410E+03 -1.817535E+05 -4.713301E+03  9.574351E+03
       290   5 -4.286493E+05 -7.159625E+04 -9.123564E+02 -1.758442E+05 -3.516319E+03  7.766115E+03
       290   6 -4.235185E+05 -7.675886E+04 -7.036298E+02 -1.817602E+05 -2.318425E+03  5.954141E+03
       290   7 -2.452802E+05 -1.059831E+04  4.122693E+04 -1.328880E+05 -6.445287E+03  8.924369E+03
       290   8 -2.833214E+05 -1.761474E+04  3.398832E+04 -1.360044E+05 -5.251337E+03  7.115182E+03
       290   9 -3.111062E+05 -3.497728E+04  2.640964E+04 -1.509457E+05 -4.056505E+03  5.302254E+03
       290  10 -6.017371E+05 -1.429601E+05 -4.415600E+04 -2.306060E+05 -9.645193E-11 -2.370021E-10
       290  11 -5.739560E+05 -1.255762E+05 -3.581460E+04 -2.156753E+05  7.551897E-10 -8.598801E-11
       290  12 -5.359183E+05 -1.185396E+05 -2.781790E+04 -2.125696E+05 -1.229917E-09 -3.257744E-10
       290  13 -4.235249E+05 -7.678056E+04 -1.463623E+03 -1.817535E+05  4.402092E-10 -2.074947E-10
       290  14 -4.286494E+05 -7.159632E+04 -9.124929E+02 -1.758442E+05 -3.593392E-10 -3.992775E-11
       290  15 -4.235185E+05 -7.675890E+04 -7.037065E+02 -1.817602E+05 -2.307895E-09 -7.885503E-10
       290  16 -2.452803E+05 -1.059841E+04  4.122670E+04 -1.328880E+05  7.735684E-10  7.831964E-11
       290  17 -2.833214E+05 -1.761480E+04  3.398818E+04 -1.360044E+05 -5.612458E-10  1.401131E-10
       290  18 -3.111063E+05 -3.497732E+04  2.640956E+04 -1.509457E+05 -3.831999E-09 -1.116658E-09
       290  19 -6.017370E+05 -1.429600E+05 -4.415579E+04 -2.306061E+05  2.981865E+03 -1.022413E+04
       290  20 -5.739560E+05 -1.255761E+05 -3.581446E+04 -2.156753E+05  1.781748E+03 -8.416880E+03
       290  21 -5.359183E+05 -1.185396E+05 -2.781781E+04 -2.125696E+05  5.806882E+02 -6.605899E+03
       290  22 -4.235248E+05 -7.678046E+04 -1.463410E+03 -1.817535E+05  4.713301E+03 -9.574351E+03
       290  23 -4.286493E+05 -7.159625E+04 -9.123564E+02 -1.758442E+05  3.516319E+03 -7.766115E+03
       290  24 -4.235185E+05 -7.675886E+04 -7.036298E+02 -1.817602E+05  2.318425E+03 -5.954141E+03
       290  25 -2.452802E+05 -1.059831E+04  4.122693E+04 -1.328880E+05  6.445287E+03 -8.924369E+03
       290  26 -2.833214E+05 -1.761474E+04  3.398832E+04 -1.360044E+05  5.251337E+03 -7.115182E+03
       290  27 -3.111062E+05 -3.497728E+04  2.640964E+04 -1.509457E+05  4.056505E+03 -5.302254E+03
       291   1 -5.083239E+05 -1.082618E+05 -2.095480E+04 -2.050353E+05 -2.954980E+01  5.494642E+03
       291   2 -4.804616E+05 -9.085401E+04 -1.332145E+04 -1.900648E+05  1.150424E+03  3.671899E+03
       291   3 -4.423251E+05 -8.381655E+04 -6.018134E+03 -1.869526E+05  2.330352E+03  1.848819E+03
       291   4 -4.235132E+05 -7.676435E+04 -6.973974E+02 -1.817669E+05 -1.768674E+03  4.842448E+03
       291   5 -4.286498E+05 -7.158235E+04 -8.729979E+02 -1.758362E+05 -5.889809E+02  3.019669E+03
       291   6 -4.235133E+05 -7.677074E+04 -1.378369E+03 -1.817642E+05  5.906425E+02  1.196544E+03
       291   7 -3.386958E+05 -4.526652E+04  1.955938E+04 -1.584957E+05 -3.508047E+03  4.190160E+03
       291   8 -3.768354E+05 -5.231050E+04  1.157527E+04 -1.616065E+05 -2.328544E+03  2.367380E+03
       291   9 -4.047011E+05 -6.972486E+04  3.261407E+03 -1.765756E+05 -1.149133E+03  5.442435E+02
       291  10 -5.083239E+05 -1.082619E+05 -2.095485E+04 -2.050353E+05 -3.320871E-09 -9.573718E-10
       291  11 -4.804616E+05 -9.085402E+04 -1.332148E+04 -1.900648E+05 -6.231442E-10  7.120755E-11
       291  12 -4.423251E+05 -8.381656E+04 -6.018151E+03 -1.869526E+05  5.319979E-10  5.482243E-11
       291  13 -4.235132E+05 -7.676438E+04 -6.974473E+02 -1.817669E+05 -2.502154E-09 -6.974163E-10
       291  14 -4.286498E+05 -7.158236E+04 -8.730157E+02 -1.758362E+05  1.359752E-10  1.518051E-10
       291  15 -4.235133E+05 -7.677074E+04 -1.378373E+03 -1.817642E+05  4.272086E-10 -7.512603E-11
       291  16 -3.386958E+05 -4.526654E+04  1.955932E+04 -1.584957E+05 -1.257045E-09 -5.443541E-10
       291  17 -3.768354E+05 -5.231051E+04  1.157525E+04 -1.616065E+05  6.168797E-10 -2.593088E-11
       291  18 -4.047011E+05 -6.972486E+04  3.261404E+03 -1.765756E+05  3.265484E-10 -1.189859E-10
       291  19 -5.083239E+05 -1.082618E+05 -2.095480E+04 -2.050353E+05  2.954980E+01 -5.494642E+03
       291  20 -4.804616E+05 -9.085401E+04 -1.332145E+04 -1.900648E+05 -1.150424E+03 -3.671899E+03
       291  21 -4.423251E+05 -8.381655E+04 -6.018134E+03 -1.869526E+05 -2.330352E+03 -1.848819E+03
       291  22 -4.235132E+05 -7.676435E+04 -6.973974E+02 -1.817669E+05  1.768674E+03 -4.842448E+03
       291  23 -4.286498E+05 -7.158235E+04 -8.729979E+02 -1.758362E+05  5.889809E+02 -3.019669E+03
       291  24 -4.235133E+05 -7.677074E+04 -1.378369E+03 -1.817642E+05 -5.906425E+02 -1.196544E+03
       291  25 -3.386958E+05 -4.526652E+04  1.955938E+04 -1.584957E+05  3.508047E+03 -4.190160E+03
       291  26 -3.768354E+05 -5.231050E+04  1.157527E+04 -1.616065E+05  2.328544E+03 -2.367380E+03
       291  27 -4.047011E+05 -6.972486E+04  3.261407E+03 -1.765756E+05  1.149133E+03 -5.442435E+02
       292   1 -4.147027E+05 -7.353720E+04  4.439563E+02 -1.794792E+05  3.030039E+03  7.901463E+02
       292   2 -3.867522E+05 -5.606885E+04  6.896400E+03 -1.644286E+05  5.330644E+03 -6.096078E+02
       292   3 -3.488054E+05 -4.933638E+04  1.209012E+04 -1.611988E+05  7.625505E+03 -1.993553E+03
       292   4 -4.235606E+05 -7.674683E+04 -1.781154E+03 -1.817954E+05  1.285722E+03  1.361463E+02
       292   5 -4.285804E+05 -7.153893E+04 -3.139439E+03 -1.758246E+05  3.599995E+03 -1.258539E+03
       292   6 -4.236075E+05 -7.706972E+04 -5.767301E+03 -1.816750E+05  5.908429E+03 -2.637444E+03
       292   7 -4.324184E+05 -7.995646E+04 -4.006258E+03 -1.841116E+05 -4.585676E+02 -5.178441E+02
       292   8 -4.704067E+05 -8.700884E+04 -1.317536E+04 -1.872199E+05  1.869479E+03 -1.907422E+03
       292   9 -4.984036E+05 -1.048025E+05 -2.362500E+04 -2.021489E+05  4.191588E+03 -3.281247E+03
       292  10 -4.147027E+05 -7.353720E+04  4.439379E+02 -1.794792E+05 -9.333162E-11 -2.864575E-10
       292  11 -3.867523E+05 -5.606886E+04  6.896346E+03 -1.644286E+05  4.173014E-11 -8.713178E-11
       292  12 -3.488055E+05 -4.933640E+04  1.209000E+04 -1.611987E+05  2.784104E-10 -9.700057E-12
       292  13 -4.235606E+05 -7.674683E+04 -1.781158E+03 -1.817954E+05  2.306917E-10 -1.728560E-10
       292  14 -4.285804E+05 -7.153893E+04 -3.139466E+03 -1.758246E+05  2.810698E-10 -1.288278E-10
       292  15 -4.236075E+05 -7.706974E+04 -5.767380E+03 -1.816750E+05 -2.242098E-10 -3.699869E-11
       292  16 -4.324184E+05 -7.995646E+04 -4.006259E+03 -1.841116E+05  3.301517E-10  1.107541E-11
       292  17 -4.704067E+05 -8.700885E+04 -1.317537E+04 -1.872199E+05  1.202540E-10 -6.886770E-11
       292  18 -4.984037E+05 -1.048025E+05 -2.362506E+04 -2.021489E+05 -2.394746E-10 -5.234491E-11
       292  19 -4.147027E+05 -7.353720E+04  4.439563E+02 -1.794792E+05 -3.030039E+03 -7.901463E+02
       292  20 -3.867522E+05 -5.606885E+04  6.896400E+03 -1.644286E+05 -5.330644E+03  6.096078E+02
       292  21 -3.488054E+05 -4.933638E+04  1.209012E+04 -1.611988E+05 -7.625505E+03  1.993553E+03
       292  22 -4.235606E+05 -7.674683E+04 -1.781154E+03 -1.817954E+05 -1.285722E+03 -1.361463E+02
       292  23 -4.285804E+05 -7.153893E+04 -3.139439E+03 -1.758246E+05 -3.599995E+03  1.258539E+03
       292  24 -4.236075E+05 -7.706972E+04 -5.767301E+03 -1.816750E+05 -5.908429E+03  2.637444E+03
       292  25 -4.324184E+05 -7.995646E+04 -4.006258E+03 -1.841116E+05  4.585676E+02  5.178441E+02
       292  26 -4.704067E+05 -8.700884E+04 -1.317536E+04 -1.872199E+05 -1.869479E+03  1.907422E+03
       292  27 -4.984036E+05 -1.048025E+05 -2.362500E+04 -2.021489E+05 -4.191588E+03  3.281247E+03
       293   1 -3.208344E+05 -3.922433E+04  1.711701E+04 -1.548973E+05  9.239892E+03 -2.742679E+03
       293   2 -2.930821E+05 -2.063459E+04  1.889043E+04 -1.381531E+05  1.658393E+04 -2.159259E+03
       293   3 -2.581664E+05 -1.852470E+04  1.407215E+04 -1.318872E+05  2.380079E+04 -1.234349E+03
       293   4 -4.239895E+05 -7.650290E+04 -7.580804E+03 -1.820733E+05  7.422602E+03 -3.424207E+03
       293   5 -4.279732E+05 -7.128828E+04 -1.364324E+04 -1.756888E+05  1.506400E+04 -2.729481E+03
       293   6 -4.248548E+05 -8.261418E+04 -2.653452E+04 -1.797836E+05  2.257783E+04 -1.693404E+03
       293   7 -5.271346E+05 -1.137811E+05 -3.227952E+04 -2.092454E+05  5.605632E+03 -4.105624E+03
       293   8 -5.628466E+05 -1.219407E+05 -4.617835E+04 -2.132172E+05  1.354443E+04 -3.299567E+03
       293   9 -5.915157E+05 -1.467012E+05 -6.714328E+04 -2.276682E+05  2.135522E+04 -2.152314E+03
       293  10 -3.208345E+05 -3.922436E+04  1.711684E+04 -1.548973E+05 -8.056049E-11 -1.128014E-10
       293  11 -2.930824E+05 -2.063467E+04  1.888990E+04 -1.381531E+05 -4.233929E-10  9.959291E-11
       293  12 -2.581670E+05 -1.852485E+04  1.407109E+04 -1.318871E+05 -4.776793E-11  8.908646E-11
       293  13 -4.239895E+05 -7.650293E+04 -7.580929E+03 -1.820733E+05  1.497572E-10 -8.242792E-12
       293  14 -4.279734E+05 -7.128835E+04 -1.364368E+04 -1.756888E+05 -1.517779E-10  4.423708E-11
       293  15 -4.248554E+05 -8.261432E+04 -2.653549E+04 -1.797836E+05 -1.001179E-10 -6.599700E-11
       293  16 -5.271347E+05 -1.137811E+05 -3.227961E+04 -2.092454E+05 -2.444323E-11 -6.738313E-11
       293  17 -5.628468E+05 -1.219408E+05 -4.617871E+04 -2.132172E+05  3.827198E-10  4.678351E-11
       293  18 -5.915162E+05 -1.467014E+05 -6.714415E+04 -2.276682E+05 -4.494298E-11 -3.905078E-11
       293  19 -3.208344E+05 -3.922433E+04  1.711701E+04 -1.548973E+05 -9.239892E+03  2.742679E+03
       293  20 -2.930821E+05 -2.063459E+04  1.889043E+04 -1.381531E+05 -1.658393E+04  2.159259E+03
       293  21 -2.581664E+05 -1.852470E+04  1.407215E+04 -1.318872E+05 -2.380079E+04  1.234349E+03
       293  22 -4.239895E+05 -7.650290E+04 -7.580804E+03 -1.820733E+05 -7.422602E+03  3.424207E+03
       293  23 -4.279732E+05 -7.128828E+04 -1.364324E+04 -1.756888E+05 -1.506400E+04  2.729481E+03
       293  24 -4.248548E+05 -8.261418E+04 -2.653452E+04 -1.797836E+05 -2.257783E+04  1.693404E+03
       293  25 -5.271346E+05 -1.137811E+05 -3.227952E+04 -2.092454E+05 -5.605632E+03  4.105624E+03
       293  26 -5.628466E+05 -1.219407E+05 -4.617835E+04 -2.132172E+05 -1.354443E+04  3.299567E+03
       293  27 -5.915157E+05 -1.467012E+05 -6.714328E+04 -2.276682E+05 -2.135522E+04  2.152314E+03
       294   1 -2.224717E+05 -1.058235E+04  1.351205E+04 -1.446346E+05  3.103272E+04 -6.540026E+02
       294   2 -2.041888E+05  2.780813E+04 -3.343738E+03 -9.739618E+04  5.620542E+04  8.582989E+03
       294   3 -2.168664E+05 -4.421616E+04 -6.637338E+04 -3.567077E+04  7.853293E+04  2.540682E+04
       294   4 -4.292079E+05 -7.253259E+04 -3.351075E+04 -1.859575E+05  2.754296E+04 -1.962703E+03
       294   5 -4.204558E+05 -6.905274E+04 -5.913862E+04 -1.735440E+05  5.935023E+04  9.761013E+03
       294   6 -4.439969E+05 -1.773303E+05 -1.362117E+05 -1.466416E+05  8.831082E+04  2.906932E+04
       294   7 -6.359015E+05 -1.344829E+05 -8.053609E+04 -2.272695E+05  2.405448E+04 -3.271139E+03
       294   8 -6.366738E+05 -1.659033E+05 -1.149367E+05 -2.496650E+05  6.249383E+04  1.093837E+04
       294   9 -6.710678E+05 -3.104124E+05 -2.060530E+05 -2.575668E+05  9.808466E+04  3.272841E+04
       294  10 -2.224727E+05 -1.058261E+04  1.351023E+04 -1.446346E+05 -1.576689E-11 -6.044771E-11
       294  11 -2.041923E+05  2.780720E+04 -3.349815E+03 -9.739657E+04 -2.991180E-10  1.498484E-10
       294  12 -2.168732E+05 -4.421851E+04 -6.638619E+04 -3.567238E+04 -1.853079E-10  1.572040E-11
       294  13 -4.292088E+05 -7.253279E+04 -3.351218E+04 -1.859575E+05 -3.132604E-10 -7.633981E-12
       294  14 -4.204596E+05 -6.905379E+04 -5.914542E+04 -1.735445E+05  7.900390E-11  1.445813E-10
       294  15 -4.440056E+05 -1.773333E+05 -1.362279E+05 -1.466437E+05 -7.121577E-10  6.736624E-11
       294  16 -6.359021E+05 -1.344831E+05 -8.053720E+04 -2.272695E+05  2.479111E-10  1.006949E-10
       294  17 -6.366781E+05 -1.659045E+05 -1.149443E+05 -2.496655E+05 -1.793651E-10  1.027703E-10
       294  18 -6.710785E+05 -3.104161E+05 -2.060732E+05 -2.575694E+05 -2.127120E-10 -2.732587E-11
       294  19 -2.224717E+05 -1.058235E+04  1.351205E+04 -1.446346E+05 -3.103272E+04  6.540026E+02
       294  20 -2.041888E+05  2.780813E+04 -3.343738E+03 -9.739618E+04 -5.620542E+04 -8.582989E+03
       294  21 -2.168664E+05 -4.421616E+04 -6.637338E+04 -3.567077E+04 -7.853293E+04 -2.540682E+04
       294  22 -4.292079E+05 -7.253259E+04 -3.351075E+04 -1.859575E+05 -2.754296E+04  1.962703E+03
       294  23 -4.204558E+05 -6.905274E+04 -5.913862E+04 -1.735440E+05 -5.935023E+04 -9.761013E+03
       294  24 -4.439969E+05 -1.773303E+05 -1.362117E+05 -1.466416E+05 -8.831082E+04 -2.906932E+04
       294  25 -6.359015E+05 -1.344829E+05 -8.053609E+04 -2.272695E+05 -2.405448E+04  3.271139E+03
       294  26 -6.366738E+05 -1.659033E+05 -1.149367E+05 -2.496650E+05 -6.249383E+04 -1.093837E+04
       294  27 -6.710678E+05 -3.104124E+05 -2.060530E+05 -2.575668E+05 -9.808466E+04 -3.272841E+04
       295   1 -5.482627E+05 -1.399077E+05 -1.153714E+05 -1.610080E+04  4.103347E+04  1.230542E+04
       295   2 -4.653914E+05 -2.060531E+05 -1.364640E+05 -2.682093E+04  3.713875E+04  3.846749E+04
       295   3 -3.606399E+05 -1.878954E+05 -1.338892E+05 -7.427895E+04  3.326001E+04  3.983330E+04
       295   4  3.919194E+05  9.358778E+04  1.122043E+05 -6.090415E+04  7.718459E+04  1.232399E+04
       295   5  3.790162E+05  3.650507E+02  5.121702E+04 -4.251654E+04  5.006457E+04  3.846755E+04
       295   6  3.919829E+05 -4.587668E+03  2.999445E+04 -6.086150E+04  2.296260E+04  3.982961E+04
       295   7  1.332917E+06  3.270268E+05  3.397224E+05 -1.057757E+05  1.133903E+05  1.233734E+04
       295   8  1.224090E+06  2.067360E+05  2.388543E+05 -5.823380E+04  6.300775E+04  3.846696E+04
       295   9  1.145137E+06  1.786832E+05  1.938447E+05 -4.742755E+04  1.265284E+04  3.982549E+04
       295  10 -5.482645E+05 -1.399083E+05 -1.153749E+05 -1.610121E+04  1.092275E-10  4.288028E-11
       295  11 -4.653932E+05 -2.060551E+05 -1.364693E+05 -2.682208E+04 -6.555974E-11 -3.201537E-10
       295  12 -3.606415E+05 -1.878974E+05 -1.338943E+05 -7.428002E+04  3.125818E-11 -2.624624E-10
       295  13  3.919129E+05  9.358602E+04  1.121928E+05 -6.090491E+04  6.421638E-10 -1.588779E-10
       295  14  3.790132E+05  3.627890E+02  5.120953E+04 -4.251809E+04 -1.443328E-10 -2.114861E-11
       295  15  3.919819E+05 -4.589514E+03  2.999047E+04 -6.086224E+04  4.358762E-10 -2.865571E-10
       295  16  1.332903E+06  3.270232E+05  3.396980E+05 -1.057768E+05  3.437550E-10  3.083781E-10
       295  17  1.224085E+06  2.067334E+05  2.388441E+05 -5.823575E+04 -4.791528E-10 -3.123172E-11
       295  18  1.145137E+06  1.786814E+05  1.938414E+05 -4.742795E+04 -1.493607E-10 -2.703611E-10
       295  19 -5.482627E+05 -1.399077E+05 -1.153714E+05 -1.610080E+04 -4.103347E+04 -1.230542E+04
       295  20 -4.653914E+05 -2.060531E+05 -1.364640E+05 -2.682093E+04 -3.713875E+04 -3.846749E+04
       295  21 -3.606399E+05 -1.878954E+05 -1.338892E+05 -7.427895E+04 -3.326001E+04 -3.983330E+04
       295  22  3.919194E+05  9.358778E+04  1.122043E+05 -6.090415E+04 -7.718459E+04 -1.232399E+04
       295  23  3.790162E+05  3.650507E+02  5.121702E+04 -4.251654E+04 -5.006457E+04 -3.846755E+04
       295  24  3.919829E+05 -4.587668E+03  2.999445E+04 -6.086150E+04 -2.296260E+04 -3.982961E+04
       295  25  1.332917E+06  3.270268E+05  3.397224E+05 -1.057757E+05 -1.133903E+05 -1.233734E+04
       295  26  1.224090E+06  2.067360E+05  2.388543E+05 -5.823380E+04 -6.300775E+04 -3.846696E+04
       295  27  1.145137E+06  1.786832E+05  1.938447E+05 -4.742755E+04 -1.265284E+04 -3.982549E+04
       296   1 -2.901988E+05 -1.601440E+05 -1.243221E+05 -5.934700E+04  2.189198E+04  3.463251E+04
       296   2 -1.980458E+05 -1.423575E+05 -1.143168E+05 -4.179203E+04  1.646394E+04  3.067809E+04
       296   3 -1.038810E+05 -1.197982E+05 -9.955889E+04 -6.186584E+04  1.103139E+04  2.561532E+04
       296   4  3.867395E+05  4.865488E+03  2.380133E+04 -6.107013E+04  1.872379E+04  3.462985E+04
       296   5  3.856662E+05 -1.801170E+02  1.290174E+04 -4.225749E+04  1.225203E+04  3.067691E+04
       296   6  3.867737E+05 -2.746580E+02  7.474976E+03 -6.107125E+04  5.776554E+03  2.561612E+04
       296   7  1.064107E+06  1.698444E+05  1.718971E+05 -6.279514E+04  1.555218E+04  3.462721E+04
       296   8  9.696976E+05  1.419746E+05  1.400999E+05 -4.272337E+04  8.036211E+03  3.067575E+04
       296   9  8.776539E+05  1.192329E+05  1.144945E+05 -6.027599E+04  5.176135E+02  2.561691E+04
       296  10 -2.901996E+05 -1.601454E+05 -1.243253E+05 -5.934761E+04 -5.675612E-10 -1.777513E-10
       296  11 -1.980464E+05 -1.423586E+05 -1.143191E+05 -4.179243E+04 -1.628599E-10  2.001939E-10
       296  12 -1.038813E+05 -1.197990E+05 -9.956035E+04 -6.186606E+04 -1.858126E-10  2.615703E-10
       296  13  3.867388E+05  4.864106E+03  2.379842E+04 -6.107066E+04 -3.569521E-11 -3.228022E-10
       296  14  3.856658E+05 -1.811680E+02  1.289969E+04 -4.225779E+04  1.019659E-10 -7.244061E-11
       296  15  3.867735E+05 -2.753717E+02  7.473680E+03 -6.107137E+04 -4.975342E-10  2.321362E-10
       296  16  1.064106E+06  1.698430E+05  1.718944E+05 -6.279558E+04  5.439855E-10 -3.594069E-10
       296  17  9.696973E+05  1.419736E+05  1.400980E+05 -4.272357E+04  5.834571E-11  3.800039E-12
       296  18  8.776538E+05  1.192322E+05  1.144932E+05 -6.027600E+04 -1.314343E-10  2.828588E-10
       296  19 -2.901988E+05 -1.601440E+05 -1.243221E+05 -5.934700E+04 -2.189198E+04 -3.463251E+04
       296  20 -1.980458E+05 -1.423575E+05 -1.143168E+05 -4.179203E+04 -1.646394E+04 -3.067809E+04
       296  21 -1.038810E+05 -1.197982E+05 -9.955889E+04 -6.186584E+04 -1.103139E+04 -2.561532E+04
       296  22  3.867395E+05  4.865488E+03  2.380133E+04 -6.107013E+04 -1.872379E+04 -3.462985E+04
       296  23  3.856662E+05 -1.801170E+02  1.290174E+04 -4.225749E+04 -1.225203E+04 -3.067691E+04
       296  24  3.867737E+05 -2.746580E+02  7.474976E+03 -6.107125E+04 -5.776554E+03 -2.561612E+04
       296  25  1.064107E+06  1.698444E+05  1.718971E+05 -6.279514E+04 -1.555218E+04 -3.462721E+04
       296  26  9.696976E+05  1.419746E+05  1.400999E+05 -4.272337E+04 -8.036211E+03 -3.067575E+04
       296  27  8.776539E+05  1.192329E+05  1.144945E+05 -6.027599E+04 -5.176135E+02 -2.561691E+04
       297   1 -2.941221E+04 -1.009629E+05 -8.453360E+04 -6.100890E+04  9.541110E+03  2.240234E+04
       297   2  6.335366E+04 -7.863558E+04 -6.697480E+04 -4.223676E+04  7.950193E+03  1.710992E+04
       297   3  1.564001E+05 -5.599446E+04 -4.830540E+04 -6.103147E+04  6.356873E+03  1.177097E+04
       297   4  3.863664E+05  2.319368E+02  5.737286E+03 -6.105742E+04  4.610484E+03  2.240380E+04
       297   5  3.862355E+05 -2.018853E+01  3.296948E+03 -4.227468E+04  2.974678E+03  1.711230E+04
       297   6  3.863845E+05  4.954989E+01  1.997931E+03 -6.105759E+04  1.336700E+03  1.177431E+04
       297   7  8.023071E+05  1.014154E+05  9.599795E+04 -6.110595E+04 -3.234012E+02  2.240525E+04
       297   8  7.092152E+05  7.858830E+04  7.356254E+04 -4.231260E+04 -2.003392E+03  1.711467E+04
       297   9  6.164185E+05  5.609005E+04  5.229815E+04 -6.108371E+04 -3.685308E+03  1.177765E+04
       297  10 -2.941245E+04 -1.009635E+05 -8.453472E+04 -6.100907E+04 -1.588897E-10 -7.052428E-11
       297  11  6.335351E+04 -7.863591E+04 -6.697547E+04 -4.223687E+04 -1.815265E-10 -1.604119E-10
       297  12  1.564000E+05 -5.599462E+04 -4.830573E+04 -6.103153E+04 -6.845182E-10 -5.249733E-10
       297  13  3.863662E+05  2.313920E+02  5.736302E+03 -6.105750E+04 -7.600525E-10  2.912799E-11
       297  14  3.862355E+05 -2.050541E+01  3.296381E+03 -4.227472E+04 -1.047227E-09  2.111703E-10
       297  15  3.863845E+05  4.940051E+01  1.997667E+03 -6.105760E+04 -1.110531E-09  2.788377E-10
       297  16  8.023070E+05  1.014148E+05  9.599701E+04 -6.110594E+04 -1.792582E-10  1.286895E-10
       297  17  7.092151E+05  7.858798E+04  7.356198E+04 -4.231257E+04 -1.140072E-10 -4.156584E-10
       297  18  6.164185E+05  5.608989E+04  5.229787E+04 -6.108368E+04 -1.584541E-10 -3.475857E-10
       297  19 -2.941221E+04 -1.009629E+05 -8.453360E+04 -6.100890E+04 -9.541110E+03 -2.240234E+04
       297  20  6.335366E+04 -7.863558E+04 -6.697480E+04 -4.223676E+04 -7.950193E+03 -1.710992E+04
       297  21  1.564001E+05 -5.599446E+04 -4.830540E+04 -6.103147E+04 -6.356873E+03 -1.177097E+04
       297  22  3.863664E+05  2.319368E+02  5.737286E+03 -6.105742E+04 -4.610484E+03 -2.240380E+04
       297  23  3.862355E+05 -2.018853E+01  3.296948E+03 -4.227468E+04 -2.974678E+03 -1.711230E+04
       297  24  3.863845E+05  4.954989E+01  1.997931E+03 -6.105759E+04 -1.336700E+03 -1.177431E+04
       297  25  8.023071E+05  1.014154E+05  9.599795E+04 -6.110595E+04  3.234012E+02 -2.240525E+04
       297  26  7.092152E+05  7.858830E+04  7.356254E+04 -4.231260E+04  2.003392E+03 -1.711467E+04
       297  27  6.164185E+05  5.609005E+04  5.229815E+04 -6.108371E+04  3.685308E+03 -1.177765E+04
       298   1  2.310688E+05 -3.767363E+04 -3.193035E+04 -6.101221E+04  6.013626E+03  8.653278E+03
       298   2  3.238617E+05 -1.516160E+04 -1.245309E+04 -4.227299E+04  5.449639E+03  3.308099E+03
       298   3  4.166895E+05  7.416471E+03  7.391830E+03 -6.105629E+04  4.885160E+03 -2.038589E+03
       298   4  3.863351E+05  7.458716E+01  1.597079E+03 -6.104791E+04  1.009349E+03  8.656950E+03
       298   5  3.863227E+05  4.377651E+01  1.137493E+03 -4.228677E+04  4.435351E+02  3.311935E+03
       298   6  3.863386E+05  8.015551E+01  1.047370E+03 -6.104792E+04 -1.226890E+02 -2.034559E+03
       298   7  5.416241E+05  3.782123E+04  3.512318E+04 -6.108362E+04 -3.996162E+03  8.660622E+03
       298   8  4.487873E+05  1.524891E+04  1.472793E+04 -4.230055E+04 -4.563066E+03  3.315770E+03
       298   9  3.559886E+05 -7.256206E+03 -5.297047E+03 -6.103955E+04 -5.130297E+03 -2.030528E+03
       298  10  2.310687E+05 -3.767372E+04 -3.193056E+04 -6.101225E+04 -2.817690E-10 -2.032536E-10
       298  11  3.238617E+05 -1.516162E+04 -1.245316E+04 -4.227300E+04  4.092581E-10  4.390854E-11
       298  12  4.166894E+05  7.416461E+03  7.391777E+03 -6.105628E+04  1.472201E-10  2.179929E-11
       298  13  3.863351E+05  7.450640E+01  1.596936E+03 -6.104792E+04 -1.080058E-09 -6.527666E-10
       298  14  3.863227E+05  4.376468E+01  1.137472E+03 -4.228677E+04 -1.464170E-09  2.313651E-10
       298  15  3.863386E+05  8.015106E+01  1.047362E+03 -6.104792E+04 -6.142366E-10 -2.679300E-10
       298  16  5.416241E+05  3.782115E+04  3.512300E+04 -6.108359E+04  1.641300E-11  3.572782E-11
       298  17  4.487873E+05  1.524889E+04  1.472787E+04 -4.230054E+04 -5.685863E-10 -1.316969E-11
       298  18  3.559886E+05 -7.256217E+03 -5.297104E+03 -6.103956E+04 -9.706703E-10 -5.800394E-10
       298  19  2.310688E+05 -3.767363E+04 -3.193035E+04 -6.101221E+04 -6.013626E+03 -8.653278E+03
       298  20  3.238617E+05 -1.516160E+04 -1.245309E+04 -4.227299E+04 -5.449639E+03 -3.308099E+03
       298  21  4.166895E+05  7.416471E+03  7.391830E+03 -6.105629E+04 -4.885160E+03  2.038589E+03
       298  22  3.863351E+05  7.458716E+01  1.597079E+03 -6.104791E+04 -1.009349E+03 -8.656950E+03
       298  23  3.863227E+05  4.377651E+01  1.137493E+03 -4.228677E+04 -4.435351E+02 -3.311935E+03
       298  24  3.863386E+05  8.015551E+01  1.047370E+03 -6.104792E+04  1.226890E+02  2.034559E+03
       298  25  5.416241E+05  3.782123E+04  3.512318E+04 -6.108362E+04  3.996162E+03 -8.660622E+03
       298  26  4.487873E+05  1.524891E+04  1.472793E+04 -4.230055E+04  4.563066E+03 -3.315770E+03
       298  27  3.559886E+05 -7.256206E+03 -5.297047E+03 -6.103955E+04  5.130297E+03  2.030528E+03
       299   1  4.914053E+05  2.570389E+04  2.423876E+04 -6.109810E+04  4.686316E+03 -5.150923E+03
       299   2  5.842287E+05  4.820029E+04  4.460137E+04 -4.233055E+04  3.919376E+03 -1.049816E+04
       299   3  6.771351E+05  7.077224E+04  6.546984E+04 -6.109916E+04  3.153635E+03 -1.584515E+04
       299   4  3.863464E+05  7.946274E+01  1.123601E+03 -6.105116E+04 -3.225873E+02 -5.147011E+03
       299   5  3.863041E+05  2.559355E+01  1.543160E+03 -4.228271E+04 -1.089466E+03 -1.049483E+04
       299   6  3.863354E+05  4.743775E+01  2.468563E+03 -6.105115E+04 -1.855032E+03 -1.584237E+04
       299   7  2.812978E+05 -2.554569E+04 -2.199214E+04 -6.100423E+04 -5.330654E+03 -5.143100E+03
       299   8  1.884162E+05 -4.815169E+04 -4.151730E+04 -4.223489E+04 -6.096732E+03 -1.049150E+04
       299   9  9.561494E+04 -7.068293E+04 -6.053764E+04 -6.100316E+04 -6.861386E+03 -1.583959E+04
       299  10  4.914052E+05  2.570385E+04  2.423867E+04 -6.109808E+04 -3.011592E-10  6.483274E-10
       299  11  5.842286E+05  4.820017E+04  4.460113E+04 -4.233051E+04  6.199742E-10  1.202809E-09
       299  12  6.771350E+05  7.077196E+04  6.546934E+04 -6.109912E+04  7.148216E-10 -7.112342E-10
       299  13  3.863463E+05  7.943426E+01  1.123551E+03 -6.105116E+04 -6.427546E-10  7.038242E-11
       299  14  3.863041E+05  2.547494E+01  1.542951E+03 -4.228272E+04 -3.320388E-10 -2.886322E-10
       299  15  3.863353E+05  4.716726E+01  2.468084E+03 -6.105118E+04 -6.449726E-10  6.270995E-11
       299  16  2.812978E+05 -2.554573E+04 -2.199225E+04 -6.100426E+04  1.808006E-10 -1.226109E-10
       299  17  1.884162E+05 -4.815182E+04 -4.151758E+04 -4.223494E+04 -3.571427E-10 -4.753803E-10
       299  18  9.561483E+04 -7.068321E+04 -6.053820E+04 -6.100325E+04 -9.670428E-10  9.787057E-11
       299  19  4.914053E+05  2.570389E+04  2.423876E+04 -6.109810E+04 -4.686316E+03  5.150923E+03
       299  20  5.842287E+05  4.820029E+04  4.460137E+04 -4.233055E+04 -3.919376E+03  1.049816E+04
       299  21  6.771351E+05  7.077224E+04  6.546984E+04 -6.109916E+04 -3.153635E+03  1.584515E+04
       299  22  3.863464E+05  7.946274E+01  1.123601E+03 -6.105116E+04  3.225873E+02  5.147011E+03
       299  23  3.863041E+05  2.559355E+01  1.543160E+03 -4.228271E+04  1.089466E+03  1.049483E+04
       299  24  3.863354E+05  4.743775E+01  2.468563E+03 -6.105115E+04  1.855032E+03  1.584237E+04
       299  25  2.812978E+05 -2.554569E+04 -2.199214E+04 -6.100423E+04  5.330654E+03  5.143100E+03
       299  26  1.884162E+05 -4.815169E+04 -4.151730E+04 -4.223489E+04  6.096732E+03  1.049150E+04
       299  27  9.561494E+04 -7.068293E+04 -6.053764E+04 -6.100316E+04  6.861386E+03  1.583959E+04
       300   1  7.520391E+05  8.903920E+04  8.297979E+04 -6.105791E+04  2.660233E+03 -1.896511E+04
       300   2  8.448425E+05  1.115421E+05  1.052164E+05 -4.222624E+04 -8.776856E+01 -2.430568E+04
       300   3  9.381768E+05  1.345575E+05  1.293748E+05 -6.100545E+04 -2.833108E+03 -2.959455E+04
       300   4  3.864224E+05  6.046147E+00  3.191360E+03 -6.106802E+04 -2.368180E+03 -1.896290E+04
       300   5  3.861521E+05 -8.684745E+01  5.436779E+03 -4.226162E+04 -5.066267E+03 -2.430482E+04
       300   6  3.863965E+05  3.251141E+02  9.570799E+03 -6.106779E+04 -7.761289E+03 -2.959499E+04
       300   7  2.093078E+04 -8.903599E+04 -7.660503E+04 -6.107811E+04 -7.393673E+03 -1.896069E+04
       300   8 -7.234126E+04 -1.117297E+05 -9.435535E+04 -4.229695E+04 -1.004114E+04 -2.430396E+04
       300   9 -1.650986E+05 -1.339274E+05 -1.102513E+05 -6.113005E+04 -1.268515E+04 -2.959543E+04
       300  10  7.520390E+05  8.903881E+04  8.297910E+04 -6.105787E+04  2.545117E-10 -1.025785E-09
       300  11  8.448424E+05  1.115414E+05  1.052153E+05 -4.222625E+04 -7.637949E-10 -1.831350E-10
       300  12  9.381766E+05  1.345566E+05  1.293732E+05 -6.100552E+04 -8.761152E-10  1.473350E-10
       300  13  3.864223E+05  5.658428E+00  3.190673E+03 -6.106806E+04 -1.156701E-09  5.021140E-11
       300  14  3.861519E+05 -8.748880E+01  5.435621E+03 -4.226172E+04 -2.928337E-10 -3.673852E-10
       300  15  3.863962E+05  3.241572E+02  9.569039E+03 -6.106798E+04 -4.429479E-10  6.262039E-11
       300  16  2.093063E+04 -8.903639E+04 -7.660581E+04 -6.107822E+04  3.954741E-10  2.041383E-10
       300  17 -7.234153E+04 -1.117303E+05 -9.435665E+04 -4.229715E+04  3.019686E-10  5.604097E-10
       300  18 -1.650990E+05 -1.339284E+05 -1.102533E+05 -6.113035E+04 -3.102070E-11  4.543326E-10
       300  19  7.520391E+05  8.903920E+04  8.297979E+04 -6.105791E+04 -2.660233E+03  1.896511E+04
       300  20  8.448425E+05  1.115421E+05  1.052164E+05 -4.222624E+04  8.776856E+01  2.430568E+04
       300  21  9.381768E+05  1.345575E+05  1.293748E+05 -6.100545E+04  2.833108E+03  2.959455E+04
       300  22  3.864224E+05  6.046147E+00  3.191360E+03 -6.106802E+04  2.368180E+03  1.896290E+04
       300  23  3.861521E+05 -8.684745E+01  5.436779E+03 -4.226162E+04  5.066267E+03  2.430482E+04
       300  24  3.863965E+05  3.251141E+02  9.570799E+03 -6.106779E+04  7.761289E+03  2.959499E+04
       300  25  2.093078E+04 -8.903599E+04 -7.660503E+04 -6.107811E+04  7.393673E+03  1.896069E+04
       300  26 -7.234126E+04 -1.117297E+05 -9.435535E+04 -4.229695E+04  1.004114E+04  2.430396E+04
       300  27 -1.650986E+05 -1.339274E+05 -1.102513E+05 -6.113005E+04  1.268515E+04  2.959543E+04
       301   1  1.013935E+06  1.520639E+05  1.490796E+05 -5.957620E+04 -4.407684E+03 -3.282455E+04
       301   2  1.105427E+06  1.749558E+05  1.784473E+05 -4.282648E+04 -1.644917E+04 -3.785364E+04
       301   3  1.200793E+06  2.063214E+05  2.178031E+05 -6.377529E+04 -2.848828E+04 -4.162241E+04
       301   4  3.870772E+05 -5.221059E+02  1.249641E+04 -6.108728E+04 -9.706560E+03 -3.282595E+04
       301   5  3.852226E+05 -3.260165E+02  2.162084E+04 -4.223714E+04 -2.055550E+04 -3.785712E+04
       301   6  3.870342E+05  8.143945E+03  3.991486E+04 -6.108791E+04 -3.140030E+04 -4.162734E+04
       301   7 -2.394129E+05 -1.531342E+05 -1.241102E+05 -6.259679E+04 -1.500016E+04 -3.282733E+04
       301   8 -3.344965E+05 -1.756423E+05 -1.352367E+05 -4.164847E+04 -2.465712E+04 -3.786061E+04
       301   9 -4.261059E+05 -1.900776E+05 -1.380134E+05 -5.840411E+04 -3.430855E+04 -4.163230E+04
       301  10  1.013935E+06  1.520628E+05  1.490775E+05 -5.957632E+04 -1.432958E-11  2.342961E-10
       301  11  1.105426E+06  1.749542E+05  1.784441E+05 -4.282699E+04  3.229827E-10  2.097074E-10
       301  12  1.200792E+06  2.063193E+05  2.177984E+05 -6.377624E+04 -4.866439E-10  3.881659E-10
       301  13  3.870768E+05 -5.232885E+02  1.249420E+04 -6.108754E+04 -8.577735E-10  3.157111E-10
       301  14  3.852217E+05 -3.276691E+02  2.161735E+04 -4.223776E+04 -3.625200E-10 -1.225797E-10
       301  15  3.870327E+05  8.141819E+03  3.990975E+04 -6.108897E+04  1.269780E-10  2.517559E-11
       301  16 -2.394134E+05 -1.531354E+05 -1.241127E+05 -6.259718E+04 -1.023782E-09  2.192243E-10
       301  17 -3.344975E+05 -1.756440E+05 -1.352406E+05 -4.164922E+04 -6.635059E-10 -1.648519E-10
       301  18 -4.261076E+05 -1.900798E+05 -1.380189E+05 -5.840526E+04  6.643028E-10 -3.555320E-10
       301  19  1.013935E+06  1.520639E+05  1.490796E+05 -5.957620E+04  4.407684E+03  3.282455E+04
       301  20  1.105427E+06  1.749558E+05  1.784473E+05 -4.282648E+04  1.644917E+04  3.785364E+04
       301  21  1.200793E+06  2.063214E+05  2.178031E+05 -6.377529E+04  2.848828E+04  4.162241E+04
       301  22  3.870772E+05 -5.221059E+02  1.249641E+04 -6.108728E+04  9.706560E+03  3.282595E+04
       301  23  3.852226E+05 -3.260165E+02  2.162084E+04 -4.223714E+04  2.055550E+04  3.785712E+04
       301  24  3.870342E+05  8.143945E+03  3.991486E+04 -6.108791E+04  3.140030E+04  4.162734E+04
       301  25 -2.394129E+05 -1.531342E+05 -1.241102E+05 -6.259679E+04  1.500016E+04  3.282733E+04
       301  26 -3.344965E+05 -1.756423E+05 -1.352367E+05 -4.164847E+04  2.465712E+04  3.786061E+04
       301  27 -4.261059E+05 -1.900776E+05 -1.380134E+05 -5.840411E+04  3.430855E+04  4.163230E+04
       302   1  1.285619E+06  2.088142E+05  2.438294E+05 -3.810316E+04 -2.745860E+04 -4.711943E+04
       302   2  1.355936E+06  2.403439E+05  3.038218E+05 -6.873141E+04 -9.945682E+04 -4.486423E+04
       302   3  1.474106E+06  4.243629E+05  4.488284E+05 -1.361298E+05 -1.715031E+05 -1.437454E+04
       302   4  3.958212E+05 -7.703538E+03  5.030436E+04 -6.084456E+04 -3.850638E+04 -4.712823E+04
       302   5  3.741243E+05  6.486791E+02  8.592880E+04 -4.253223E+04 -8.397494E+04 -4.486169E+04
       302   6  3.957399E+05  1.570107E+05  1.882346E+05 -6.098253E+04 -1.294772E+05 -1.435198E+04
       302   7 -4.932345E+05 -2.242717E+05 -1.432674E+05 -8.355304E+04 -4.953852E+04 -4.713623E+04
       302   8 -6.067872E+05 -2.391089E+05 -1.320228E+05 -1.637500E+04 -6.851716E+04 -4.485786E+04
       302   9 -6.815490E+05 -1.104040E+05 -7.243287E+04  1.403377E+04 -8.752382E+04 -1.431925E+04
       302  10  1.285618E+06  2.088116E+05  2.438238E+05 -3.810420E+04 -3.505314E-10  6.064121E-10
       302  11  1.355925E+06  2.403391E+05  3.037995E+05 -6.873500E+04 -4.237456E-10  1.657115E-10
       302  12  1.474074E+06  4.243548E+05  4.487729E+05 -1.361317E+05  5.564275E-10 -2.317620E-10
       302  13  3.958191E+05 -7.706322E+03  5.029740E+04 -6.084602E+04 -3.631069E-10  9.074637E-10
       302  14  3.741162E+05  6.446259E+02  8.591177E+04 -4.253526E+04  6.964183E-10  1.608430E-09
       302  15  3.957218E+05  1.570060E+05  1.882027E+05 -6.098403E+04  2.550614E-11 -3.482683E-11
       302  16 -4.932377E+05 -2.242748E+05 -1.432762E+05 -8.355492E+04  1.558756E-10  2.540735E-10
       302  17 -6.067928E+05 -2.391123E+05 -1.320354E+05 -1.637748E+04 -6.418623E-10  7.764251E-10
       302  18 -6.815573E+05 -1.104063E+05 -7.244766E+04  1.403276E+04  2.658051E-11 -1.490476E-10
       302  19  1.285619E+06  2.088142E+05  2.438294E+05 -3.810316E+04  2.745860E+04  4.711943E+04
       302  20  1.355936E+06  2.403439E+05  3.038218E+05 -6.873141E+04  9.945682E+04  4.486423E+04
       302  21  1.474106E+06  4.243629E+05  4.488284E+05 -1.361298E+05  1.715031E+05  1.437454E+04
       302  22  3.958212E+05 -7.703538E+03  5.030436E+04 -6.084456E+04  3.850638E+04  4.712823E+04
       302  23  3.741243E+05  6.486791E+02  8.592880E+04 -4.253223E+04  8.397494E+04  4.486169E+04
       302  24  3.957399E+05  1.570107E+05  1.882346E+05 -6.098253E+04  1.294772E+05  1.435198E+04
       302  25 -4.932345E+05 -2.242717E+05 -1.432674E+05 -8.355304E+04  4.953852E+04  4.713623E+04
       302  26 -6.067872E+05 -2.391089E+05 -1.320228E+05 -1.637500E+04  6.851716E+04  4.485786E+04
       302  27 -6.815490E+05 -1.104040E+05 -7.243287E+04  1.403377E+04  8.752382E+04  1.431925E+04
       303   1  2.343623E+05  8.980624E+05  2.424417E+05 -1.798924E+05  7.246261E+03  7.069058E+04
       303   2  1.147325E+05  6.588083E+05  1.379163E+05 -1.149398E+05  1.958367E+04  3.435169E+04
       303   3  5.565367E+04  4.392953E+05  7.212678E+04 -1.416913E+05  1.196131E+04 -1.994473E+03
       303   4  6.092252E+04  2.005899E+05  7.263992E+04 -1.500074E+05  7.273704E+03  4.979027E+04
       303   5  5.454433E+02  1.923885E+05  3.332539E+04 -1.041928E+05  1.958800E+04  3.217198E+04
       303   6 -2.496880E+03  2.006583E+05  1.978274E+04 -1.500794E+05  1.193802E+04  1.453286E+04
       303   7 -1.125495E+05 -4.964365E+05 -9.719500E+04 -1.201560E+05  7.299156E+03  2.891333E+04
       303   8 -1.136560E+05 -2.738287E+05 -7.127923E+04 -9.345386E+04  1.959226E+04  2.999389E+04
       303   9 -6.065081E+04 -3.792474E+04 -3.256369E+04 -1.584643E+05  1.191428E+04  3.105393E+04
       303  10  2.343609E+05  8.980570E+05  2.424322E+05 -1.798928E+05  3.802008E-11  8.828246E-11
       303  11  1.147317E+05  6.588069E+05  1.379134E+05 -1.149404E+05 -2.019488E-10 -4.292300E-10
       303  12  5.565351E+04  4.392952E+05  7.212650E+04 -1.416913E+05  5.562530E-10  3.364844E-12
       303  13  6.092179E+04  2.005872E+05  7.263516E+04 -1.500077E+05  1.287081E-10  4.270358E-10
       303  14  5.447533E+02  1.923873E+05  3.332272E+04 -1.041933E+05 -6.803081E-10  3.775630E-10
       303  15 -2.497089E+03  2.006580E+05  1.978208E+04 -1.500796E+05  2.456802E-10  4.493835E-10
       303  16 -1.125498E+05 -4.964374E+05 -9.719667E+04 -1.201561E+05  1.677849E-10 -2.252288E-10
       303  17 -1.136567E+05 -2.738298E+05 -7.128164E+04 -9.345434E+04 -1.286856E-10 -9.480919E-10
       303  18 -6.065123E+04 -3.792581E+04 -3.256577E+04 -1.584646E+05  2.686239E-10  2.067823E-10
       303  19  2.343623E+05  8.980624E+05  2.424417E+05 -1.798924E+05 -7.246261E+03 -7.069058E+04
       303  20  1.147325E+05  6.588083E+05  1.379163E+05 -1.149398E+05 -1.958367E+04 -3.435169E+04
       303  21  5.565367E+04  4.392953E+05  7.212678E+04 -1.416913E+05 -1.196131E+04  1.994473E+03
       303  22  6.092252E+04  2.005899E+05  7.263992E+04 -1.500074E+05 -7.273704E+03 -4.979027E+04
       303  23  5.454433E+02  1.923885E+05  3.332539E+04 -1.041928E+05 -1.958800E+04 -3.217198E+04
       303  24 -2.496880E+03  2.006583E+05  1.978274E+04 -1.500794E+05 -1.193802E+04 -1.453286E+04
       303  25 -1.125495E+05 -4.964365E+05 -9.719500E+04 -1.201560E+05 -7.299156E+03 -2.891333E+04
       303  26 -1.136560E+05 -2.738287E+05 -7.127923E+04 -9.345386E+04 -1.959226E+04 -2.999389E+04
       303  27 -6.065081E+04 -3.792474E+04 -3.256369E+04 -1.584643E+05 -1.191428E+04 -3.105393E+04
       304   1  1.668658E+04  2.509325E+05  2.778780E+04 -1.514749E+05  2.495400E+03  5.549023E+02
       304   2 -4.257033E+04  2.116719E+04 -2.901914E+04 -1.040237E+05 -9.201127E+03 -3.719352E+03
       304   3 -9.812085E+04 -2.073162E+05 -8.218496E+04 -1.491160E+05 -2.049858E+04 -7.988964E+03
       304   4  3.581242E+03  1.972976E+05  1.590318E+04 -1.502462E+05  2.479157E+03  1.169792E+04
       304   5  1.695698E+02  1.966367E+05  9.232960E+03 -1.039775E+05 -9.215634E+03  7.048779E+03
       304   6  5.326223E+02  1.972744E+05  6.467300E+03 -1.502503E+05 -2.051157E+04  2.402755E+03
       304   7 -9.524212E+03  1.436656E+05  4.018841E+03 -1.490176E+05  2.462957E+03  2.283999E+04
       304   8  4.290749E+04  3.721353E+05  4.748364E+04 -1.039313E+05 -9.230137E+03  1.781991E+04
       304   9  9.917522E+04  6.020185E+05  9.511003E+04 -1.513853E+05 -2.052459E+04  1.280116E+04
       304  10  1.668657E+04  2.509325E+05  2.778779E+04 -1.514749E+05 -3.913754E-11 -1.982828E-10
       304  11 -4.257043E+04  2.116715E+04 -2.901933E+04 -1.040237E+05  3.705970E-10 -7.880119E-10
       304  12 -9.812132E+04 -2.073164E+05 -8.218587E+04 -1.491161E+05 -7.239830E-10 -3.513168E-10
       304  13  3.581199E+03  1.972974E+05  1.590291E+04 -1.502462E+05  6.555346E-11  7.151832E-10
       304  14  1.694653E+02  1.966366E+05  9.232707E+03 -1.039775E+05  8.213181E-10  3.039293E-10
       304  15  5.321689E+02  1.972743E+05  6.466499E+03 -1.502503E+05  8.561819E-10  2.690789E-10
       304  16 -9.524359E+03  1.436650E+05  4.017850E+03 -1.490176E+05  4.078421E-10  1.022145E-10
       304  17  4.290731E+04  3.721349E+05  4.748289E+04 -1.039312E+05 -7.347376E-10 -8.831427E-10
       304  18  9.917473E+04  6.020182E+05  9.510893E+04 -1.513851E+05 -2.716934E-10  4.988384E-10
       304  19  1.668658E+04  2.509325E+05  2.778780E+04 -1.514749E+05 -2.495400E+03 -5.549023E+02
       304  20 -4.257033E+04  2.116719E+04 -2.901914E+04 -1.040237E+05  9.201127E+03  3.719352E+03
       304  21 -9.812085E+04 -2.073162E+05 -8.218496E+04 -1.491160E+05  2.049858E+04  7.988964E+03
       304  22  3.581242E+03  1.972976E+05  1.590318E+04 -1.502462E+05 -2.479157E+03 -1.169792E+04
       304  23  1.695698E+02  1.966367E+05  9.232960E+03 -1.039775E+05  9.215634E+03 -7.048779E+03
       304  24  5.326223E+02  1.972744E+05  6.467300E+03 -1.502503E+05  2.051157E+04 -2.402755E+03
       304  25 -9.524212E+03  1.436656E+05  4.018841E+03 -1.490176E+05 -2.462957E+03 -2.283999E+04
       304  26  4.290749E+04  3.721353E+05  4.748364E+04 -1.039313E+05  9.230137E+03 -1.781991E+04
       304  27  9.917522E+04  6.020185E+05  9.511003E+04 -1.513853E+05  2.052459E+04 -1.280116E+04
       305   1 -1.436288E+05 -3.922559E+05 -1.229786E+05 -1.504491E+05 -3.066465E+04 -1.710522E+04
       305   2 -1.998045E+05 -6.205233E+05 -1.767633E+05 -1.024067E+05 -3.595945E+04  7.044844E+03
       305   3 -2.532310E+05 -8.511387E+05 -2.455873E+05 -1.457382E+05 -1.233256E+04  3.120392E+04
       305   4  7.697493E+01  1.974556E+05  5.768536E+03 -1.499898E+05 -3.068561E+04  1.347756E+03
       305   5  6.714480E+01  1.962513E+05  5.577585E+03 -1.043038E+05 -3.594791E+04 -1.552097E+03
       305   6  7.504173E+03  1.973451E+05  9.139149E+03 -1.499837E+05 -1.230574E+04 -4.433479E+03
       305   7  1.437598E+05  7.874936E+05  1.344960E+05 -1.495300E+05 -3.070653E+04  1.981804E+04
       305   8  1.998935E+05  1.013648E+06  1.878768E+05 -1.062032E+05 -3.593632E+04 -1.016023E+04
       305   9  2.681593E+05  1.246836E+06  2.637909E+05 -1.542361E+05 -1.227847E+04 -4.013095E+04
       305  10 -1.436299E+05 -3.922565E+05 -1.229810E+05 -1.504495E+05 -1.137689E-10  3.254010E-10
       305  11 -1.998059E+05 -6.205237E+05 -1.767658E+05 -1.024065E+05  2.485961E-10 -6.002707E-11
       305  12 -2.532314E+05 -8.511398E+05 -2.455894E+05 -1.457379E+05 -5.021512E-11 -2.918101E-11
       305  13  7.596325E+01  1.974553E+05  5.766763E+03 -1.499898E+05 -8.860162E-10  6.704162E-10
       305  14  6.575636E+01  1.962510E+05  5.575152E+03 -1.043038E+05  3.356933E-10  1.921672E-10
       305  15  7.504005E+03  1.973451E+05  9.138828E+03 -1.499837E+05 -1.522165E-10  1.932710E-10
       305  16  1.437586E+05  7.874930E+05  1.344935E+05 -1.495295E+05  9.979679E-11 -4.455620E-10
       305  17  1.998920E+05  1.013648E+06  1.878742E+05 -1.062035E+05 -2.355681E-12 -1.053009E-09
       305  18  2.681587E+05  1.246834E+06  2.637876E+05 -1.542365E+05 -3.475839E-10  6.610315E-11
       305  19 -1.436288E+05 -3.922559E+05 -1.229786E+05 -1.504491E+05  3.066465E+04  1.710522E+04
       305  20 -1.998045E+05 -6.205233E+05 -1.767633E+05 -1.024067E+05  3.595945E+04 -7.044844E+03
       305  21 -2.532310E+05 -8.511387E+05 -2.455873E+05 -1.457382E+05  1.233256E+04 -3.120392E+04
       305  22  7.697493E+01  1.974556E+05  5.768536E+03 -1.499898E+05  3.068561E+04 -1.347756E+03
       305  23  6.714480E+01  1.962513E+05  5.577585E+03 -1.043038E+05  3.594791E+04  1.552097E+03
       305  24  7.504173E+03  1.973451E+05  9.139149E+03 -1.499837E+05  1.230574E+04  4.433479E+03
       305  25  1.437598E+05  7.874936E+05  1.344960E+05 -1.495300E+05  3.070653E+04 -1.981804E+04
       305  26  1.998935E+05  1.013648E+06  1.878768E+05 -1.062032E+05  3.593632E+04  1.016023E+04
       305  27  2.681593E+05  1.246836E+06  2.637909E+05 -1.542361E+05  1.227847E+04  4.013095E+04
       306   1 -1.344610E+06 -5.053721E+05 -3.100914E+05 -4.960469E+05 -1.402423E+05 -4.526398E+04
       306   2 -1.305105E+06 -3.107370E+05 -1.845548E+05 -4.897886E+05 -9.033631E+04 -1.058227E+04
       306   3 -1.315588E+06 -2.694167E+05 -1.390646E+05 -4.598513E+05 -3.552616E+04  1.106569E+04
       306   4 -9.345297E+05 -2.851246E+05 -1.879393E+05 -3.165780E+05 -1.223781E+05 -3.856883E+04
       306   5 -9.004390E+05 -1.373394E+05 -8.159118E+04 -3.555504E+05 -8.385259E+04 -8.151692E+03
       306   6 -9.140439E+05 -1.405615E+05 -4.622402E+04 -3.708552E+05 -4.042627E+04  9.225803E+03
       306   7 -5.242727E+05 -6.480642E+04 -6.580138E+04 -1.369841E+05 -1.045009E+05 -3.186403E+04
       306   8 -4.956101E+05  3.608464E+04  2.135927E+04 -2.212275E+05 -7.736425E+04 -5.718790E+03
       306   9 -5.123416E+05 -1.170508E+04  4.660547E+04 -2.818116E+05 -4.532981E+04  7.385042E+03
       306  10 -1.344632E+06 -5.053796E+05 -3.101323E+05 -4.960521E+05 -4.685168E-10 -7.572520E-12
       306  11 -1.305114E+06 -3.107393E+05 -1.845704E+05 -4.897894E+05  4.235936E-09  1.701682E-09
       306  12 -1.315590E+06 -2.694172E+05 -1.390672E+05 -4.598510E+05  3.667866E-09  7.539941E-10
       306  13 -9.345462E+05 -2.851302E+05 -1.879703E+05 -3.165818E+05  1.706836E-09  6.220635E-10
       306  14 -9.004466E+05 -1.373413E+05 -8.160454E+04 -3.555510E+05  4.311294E-09  2.030112E-09
       306  15 -9.140456E+05 -1.405621E+05 -4.622726E+04 -3.708549E+05  1.039632E-09  5.596898E-10
       306  16 -5.242847E+05 -6.481045E+04 -6.582383E+04 -1.369868E+05  2.790470E-09  1.188556E-09
       306  17 -4.956166E+05  3.608300E+04  2.134795E+04 -2.212278E+05  3.137365E-09  9.930225E-10
       306  18 -5.123438E+05 -1.170569E+04  4.660150E+04 -2.818113E+05 -1.051789E-09  5.274260E-11
       306  19 -1.344610E+06 -5.053721E+05 -3.100914E+05 -4.960469E+05  1.402423E+05  4.526398E+04
       306  20 -1.305105E+06 -3.107370E+05 -1.845548E+05 -4.897886E+05  9.033631E+04  1.058227E+04
       306  21 -1.315588E+06 -2.694167E+05 -1.390646E+05 -4.598513E+05  3.552616E+04 -1.106569E+04
       306  22 -9.345297E+05 -2.851246E+05 -1.879393E+05 -3.165780E+05  1.223781E+05  3.856883E+04
       306  23 -9.004390E+05 -1.373394E+05 -8.159118E+04 -3.555504E+05  8.385259E+04  8.151692E+03
       306  24 -9.140439E+05 -1.405615E+05 -4.622402E+04 -3.708552E+05  4.042627E+04 -9.225803E+03
       306  25 -5.242727E+05 -6.480642E+04 -6.580138E+04 -1.369841E+05  1.045009E+05  3.186403E+04
       306  26 -4.956101E+05  3.608464E+04  2.135927E+04 -2.212275E+05  7.736425E+04  5.718790E+03
       306  27 -5.123416E+05 -1.170508E+04  4.660547E+04 -2.818116E+05  4.532981E+04 -7.385042E+03
       307   1 -1.262267E+06 -2.892954E+05 -1.227114E+05 -4.625867E+05 -3.259921E+04  9.329301E+03
       307   2 -1.230641E+06 -2.600244E+05 -9.590270E+04 -4.468962E+05 -2.198879E+04  1.166125E+04
       307   3 -1.192213E+06 -2.507443E+05 -7.892000E+04 -4.422880E+05 -1.115525E+04  1.339874E+04
       307   4 -9.080004E+05 -1.545214E+05 -3.660114E+04 -3.623924E+05 -3.361572E+04  8.946579E+03
       307   5 -9.108503E+05 -1.403559E+05 -1.881746E+04 -3.584322E+05 -2.352011E+04  1.108579E+04
       307   6 -9.067952E+05 -1.460758E+05 -1.044706E+04 -3.655547E+05 -1.320206E+04  1.263037E+04
       307   7 -5.536075E+05 -1.973637E+04  4.950025E+04 -2.621449E+05 -3.463287E+04  8.563608E+03
       307   8 -5.909571E+05 -2.067953E+04  5.826050E+04 -2.699262E+05 -2.505229E+04  1.051000E+04
       307   9 -6.212965E+05 -4.140212E+04  5.801999E+04 -2.887894E+05 -1.524990E+04  1.186162E+04
       307  10 -1.262268E+06 -2.892957E+05 -1.227135E+05 -4.625864E+05  3.296793E-10 -5.880270E-10
       307  11 -1.230642E+06 -2.600247E+05 -9.590386E+04 -4.468960E+05  2.741174E-10  1.478869E-10
       307  12 -1.192213E+06 -2.507445E+05 -7.892058E+04 -4.422878E+05 -1.752493E-10  4.606496E-10
       307  13 -9.080016E+05 -1.545217E+05 -3.660341E+04 -3.623921E+05 -2.253507E-10 -1.346952E-10
       307  14 -9.108509E+05 -1.403562E+05 -1.881873E+04 -3.584319E+05 -3.700324E-10 -7.825978E-11
       307  15 -9.067954E+05 -1.460760E+05 -1.044768E+04 -3.655545E+05  3.115938E-10  4.254662E-11
       307  16 -5.536088E+05 -1.973677E+04  4.949785E+04 -2.621447E+05 -7.358032E-10  1.972215E-10
       307  17 -5.909578E+05 -2.067981E+04  5.825911E+04 -2.699260E+05 -6.833529E-10 -2.283849E-10
       307  18 -6.212968E+05 -4.140233E+04  5.801929E+04 -2.887893E+05 -1.119554E-10 -1.922877E-10
       307  19 -1.262267E+06 -2.892954E+05 -1.227114E+05 -4.625867E+05  3.259921E+04 -9.329301E+03
       307  20 -1.230641E+06 -2.600244E+05 -9.590270E+04 -4.468962E+05  2.198879E+04 -1.166125E+04
       307  21 -1.192213E+06 -2.507443E+05 -7.892000E+04 -4.422880E+05  1.115525E+04 -1.339874E+04
       307  22 -9.080004E+05 -1.545214E+05 -3.660114E+04 -3.623924E+05  3.361572E+04 -8.946579E+03
       307  23 -9.108503E+05 -1.403559E+05 -1.881746E+04 -3.584322E+05  2.352011E+04 -1.108579E+04
       307  24 -9.067952E+05 -1.460758E+05 -1.044706E+04 -3.655547E+05  1.320206E+04 -1.263037E+04
       307  25 -5.536075E+05 -1.973637E+04  4.950025E+04 -2.621449E+05  3.463287E+04 -8.563608E+03
       307  26 -5.909571E+05 -2.067953E+04  5.826050E+04 -2.699262E+05  2.505229E+04 -1.051000E+04
       307  27 -6.212965E+05 -4.140212E+04  5.801999E+04 -2.887894E+05  1.524990E+04 -1.186162E+04
       308   1 -1.160228E+06 -2.412322E+05 -6.888689E+04 -4.346194E+05 -9.351313E+03  1.255984E+04
       308   2 -1.129209E+06 -2.214049E+05 -5.658195E+04 -4.181004E+05 -6.351712E+03  1.121555E+04
       308   3 -1.087198E+06 -2.135791E+05 -4.604052E+04 -4.146597E+05 -3.339956E+03  9.837079E+03
       308   4 -9.062428E+05 -1.468841E+05 -7.944886E+03 -3.650354E+05 -1.123212E+04  1.185397E+04
       308   5 -9.117062E+05 -1.406565E+05 -4.315914E+03 -3.585810E+05 -8.261525E+03  1.049912E+04
       308   6 -9.061725E+05 -1.464243E+05 -2.426840E+03 -3.652053E+05 -5.278902E+03  9.110049E+03
       308   7 -6.521954E+05 -5.253194E+04  5.299208E+04 -2.954258E+05 -1.311376E+04  1.114778E+04
       308   8 -6.941565E+05 -5.990473E+04  4.794668E+04 -2.990426E+05 -1.017207E+04  9.782416E+03
       308   9 -7.251137E+05 -7.926700E+04  4.118470E+04 -3.157375E+05 -7.218474E+03  8.382785E+03
       308  10 -1.160228E+06 -2.412324E+05 -6.888735E+04 -4.346193E+05 -2.262616E-11  3.104447E-10
       308  11 -1.129209E+06 -2.214051E+05 -5.658226E+04 -4.181004E+05 -5.009496E-10  2.202774E-10
       308  12 -1.087198E+06 -2.135792E+05 -4.604072E+04 -4.146596E+05  3.937412E-11 -6.650095E-12
       308  13 -9.062430E+05 -1.468843E+05 -7.945387E+03 -3.650353E+05  3.735861E-10  1.829571E-10
       308  14 -9.117063E+05 -1.406566E+05 -4.316249E+03 -3.585809E+05  1.572285E-10  2.528411E-10
       308  15 -9.061726E+05 -1.464244E+05 -2.427048E+03 -3.652052E+05  2.050583E-10 -7.721089E-11
       308  16 -6.521956E+05 -5.253212E+04  5.299152E+04 -2.954257E+05  2.161364E-10  2.752090E-11
       308  17 -6.941566E+05 -5.990486E+04  4.794631E+04 -2.990425E+05  6.312116E-10  2.877907E-10
       308  18 -7.251138E+05 -7.926709E+04  4.118447E+04 -3.157374E+05  1.943963E-10  1.883580E-11
       308  19 -1.160228E+06 -2.412322E+05 -6.888689E+04 -4.346194E+05  9.351313E+03 -1.255984E+04
       308  20 -1.129209E+06 -2.214049E+05 -5.658195E+04 -4.181004E+05  6.351712E+03 -1.121555E+04
       308  21 -1.087198E+06 -2.135791E+05 -4.604052E+04 -4.146597E+05  3.339956E+03 -9.837079E+03
       308  22 -9.062428E+05 -1.468841E+05 -7.944886E+03 -3.650354E+05  1.123212E+04 -1.185397E+04
       308  23 -9.117062E+05 -1.406565E+05 -4.315914E+03 -3.585810E+05  8.261525E+03 -1.049912E+04
       308  24 -9.061725E+05 -1.464243E+05 -2.426840E+03 -3.652053E+05  5.278902E+03 -9.110049E+03
       308  25 -6.521954E+05 -5.253194E+04  5.299208E+04 -2.954258E+05  1.311376E+04 -1.114778E+04
       308  26 -6.941565E+05 -5.990473E+04  4.794668E+04 -2.990426E+05  1.017207E+04 -9.782416E+03
       308  27 -7.251137E+05 -7.926700E+04  4.118470E+04 -3.157375E+05  7.218474E+03 -8.382785E+03
       309   1 -1.056327E+06 -2.022317E+05 -3.783597E+04 -4.063093E+05 -2.505481E+03  8.679006E+03
       309   2 -1.025224E+06 -1.827855E+05 -2.838672E+04 -3.896100E+05 -1.104532E+03  6.678024E+03
       309   3 -9.826639E+05 -1.749180E+05 -1.936949E+04 -3.861541E+05  2.980328E+02  4.671590E+03
       309   4 -9.060881E+05 -1.464775E+05 -1.863445E+03 -3.651860E+05 -4.441634E+03  7.953175E+03
       309   5 -9.118134E+05 -1.406771E+05 -1.136422E+03 -3.585679E+05 -3.045303E+03  5.950630E+03
       309   6 -9.060821E+05 -1.464544E+05 -8.375870E+02 -3.651934E+05 -1.647398E+03  3.942627E+03
       309   7 -7.558265E+05 -9.072174E+04  3.410745E+04 -3.240536E+05 -6.378297E+03  7.227153E+03
       309   8 -7.983902E+05 -9.856806E+04  2.611287E+04 -3.275207E+05 -4.986456E+03  5.223093E+03
       309   9 -8.294948E+05 -1.179906E+05  1.769379E+04 -3.442304E+05 -3.593080E+03  3.213570E+03
       309  10 -1.056327E+06 -2.022318E+05 -3.783612E+04 -4.063092E+05 -1.475322E-10 -2.434332E-10
       309  11 -1.025224E+06 -1.827855E+05 -2.838681E+04 -3.896100E+05 -4.731392E-11 -8.633944E-11
       309  12 -9.826639E+05 -1.749180E+05 -1.936953E+04 -3.861541E+05 -7.179508E-10 -2.624087E-10
       309  13 -9.060882E+05 -1.464776E+05 -1.863600E+03 -3.651859E+05 -4.415313E-11 -2.037537E-10
       309  14 -9.118134E+05 -1.406772E+05 -1.136506E+03 -3.585678E+05  3.054509E-11  9.010009E-11
       309  15 -9.060821E+05 -1.464544E+05 -8.376213E+02 -3.651934E+05 -4.802512E-10 -4.330803E-11
       309  16 -7.558265E+05 -9.072181E+04  3.410728E+04 -3.240536E+05  4.865658E-10  3.693785E-11
       309  17 -7.983902E+05 -9.856809E+04  2.611277E+04 -3.275206E+05  7.834584E-11  8.785668E-11
       309  18 -8.294949E+05 -1.179906E+05  1.769375E+04 -3.442304E+05  4.129932E-10  5.940101E-10
       309  19 -1.056327E+06 -2.022317E+05 -3.783597E+04 -4.063093E+05  2.505481E+03 -8.679006E+03
       309  20 -1.025224E+06 -1.827855E+05 -2.838672E+04 -3.896100E+05  1.104532E+03 -6.678024E+03
       309  21 -9.826639E+05 -1.749180E+05 -1.936949E+04 -3.861541E+05 -2.980328E+02 -4.671590E+03
       309  22 -9.060881E+05 -1.464775E+05 -1.863445E+03 -3.651860E+05  4.441634E+03 -7.953175E+03
       309  23 -9.118134E+05 -1.406771E+05 -1.136422E+03 -3.585679E+05  3.045303E+03 -5.950630E+03
       309  24 -9.060821E+05 -1.464544E+05 -8.375870E+02 -3.651934E+05  1.647398E+03 -3.942627E+03
       309  25 -7.558265E+05 -9.072174E+04  3.410745E+04 -3.240536E+05  6.378297E+03 -7.227153E+03
       309  26 -7.983902E+05 -9.856806E+04  2.611287E+04 -3.275207E+05  4.986456E+03 -5.223093E+03
       309  27 -8.294948E+05 -1.179906E+05  1.769379E+04 -3.442304E+05  3.593080E+03 -3.213570E+03
       310   1 -9.517415E+05 -1.634071E+05 -1.165209E+04 -3.777226E+05  9.214716E+02  3.428936E+03
       310   2 -9.205487E+05 -1.439271E+05 -3.058540E+03 -3.609687E+05  2.231777E+03  1.383092E+03
       310   3 -8.778579E+05 -1.360507E+05  5.173134E+03 -3.574983E+05  3.541861E+03 -6.621794E+02
       310   4 -9.060728E+05 -1.464618E+05 -8.063812E+02 -3.652015E+05 -1.025771E+03  2.699351E+03
       310   5 -9.118214E+05 -1.406652E+05 -9.580140E+02 -3.585573E+05  2.849740E+02  6.536763E+02
       310   6 -9.060742E+05 -1.464726E+05 -1.472056E+03 -3.651974E+05  1.595462E+03 -1.391428E+03
       310   7 -8.604018E+05 -1.295164E+05  1.003926E+04 -3.526795E+05 -2.973180E+03  1.969704E+03
       310   8 -9.030940E+05 -1.374032E+05  1.142529E+03 -3.561459E+05 -1.661865E+03 -7.575218E+01
       310   9 -9.342897E+05 -1.568944E+05 -8.117288E+03 -3.728962E+05 -3.508413E+02 -2.120642E+03
       310  10 -9.517415E+05 -1.634071E+05 -1.165212E+04 -3.777226E+05 -3.393931E-10 -1.226415E-10
       310  11 -9.205487E+05 -1.439271E+05 -3.058552E+03 -3.609687E+05  4.173867E-10  4.381624E-10
       310  12 -8.778579E+05 -1.360507E+05  5.173110E+03 -3.574983E+05 -1.053063E-11 -3.359863E-10
       310  13 -9.060728E+05 -1.464618E+05 -8.063969E+02 -3.652015E+05 -2.719233E-10 -2.445555E-11
       310  14 -9.118214E+05 -1.406652E+05 -9.580150E+02 -3.585573E+05  7.143343E-10  5.773449E-10
       310  15 -9.060742E+05 -1.464726E+05 -1.472065E+03 -3.651974E+05  8.692853E-11 -5.240247E-11
       310  16 -8.604018E+05 -1.295164E+05  1.003924E+04 -3.526795E+05  3.309841E-10  2.688135E-10
       310  17 -9.030940E+05 -1.374032E+05  1.142524E+03 -3.561459E+05  3.886012E-10  1.862945E-10
       310  18 -9.342897E+05 -1.568944E+05 -8.117297E+03 -3.728962E+05  3.308344E-10  1.384184E-10
       310  19 -9.517415E+05 -1.634071E+05 -1.165209E+04 -3.777226E+05 -9.214716E+02 -3.428936E+03
       310  20 -9.205487E+05 -1.439271E+05 -3.058540E+03 -3.609687E+05 -2.231777E+03 -1.383092E+03
       310  21 -8.778579E+05 -1.360507E+05  5.173134E+03 -3.574983E+05 -3.541861E+03  6.621794E+02
       310  22 -9.060728E+05 -1.464618E+05 -8.063812E+02 -3.652015E+05  1.025771E+03 -2.699351E+03
       310  23 -9.118214E+05 -1.406652E+05 -9.580140E+02 -3.585573E+05 -2.849740E+02 -6.536763E+02
       310  24 -9.060742E+05 -1.464726E+05 -1.472056E+03 -3.651974E+05 -1.595462E+03  1.391428E+03
       310  25 -8.604018E+05 -1.295164E+05  1.003926E+04 -3.526795E+05  2.973180E+03 -1.969704E+03
       310  26 -9.030940E+05 -1.374032E+05  1.142529E+03 -3.561459E+05  1.661865E+03  7.575218E+01
       310  27 -9.342897E+05 -1.568944E+05 -8.117288E+03 -3.728962E+05  3.508413E+02  2.120642E+03
       311   1 -8.469490E+05 -1.245409E+05  1.244138E+04 -3.491297E+05  4.309769E+03 -1.853026E+03
       311   2 -8.157359E+05 -1.050350E+05  1.974775E+04 -3.323235E+05  6.777551E+03 -3.456850E+03
       311   3 -7.733338E+05 -9.749205E+04  2.573075E+04 -3.287302E+05  9.237102E+03 -5.037549E+03
       311   4 -9.061287E+05 -1.464418E+05 -1.889948E+03 -3.652238E+05  2.358701E+03 -2.584063E+03
       311   5 -9.117463E+05 -1.406309E+05 -3.312296E+03 -3.585530E+05  4.846325E+03 -4.180595E+03
       311   6 -9.061802E+05 -1.467872E+05 -6.073879E+03 -3.650957E+05  7.325621E+03 -5.754037E+03
       311   7 -9.653047E+05 -1.683423E+05 -1.622144E+04 -3.813165E+05  4.078450E+02 -3.315021E+03
       311   8 -1.007748E+06 -1.762262E+05 -2.637300E+04 -3.847789E+05  2.915423E+03 -4.904219E+03
       311   9 -1.039010E+06 -1.960813E+05 -3.787995E+04 -4.014544E+05  5.414575E+03 -6.470362E+03
       311  10 -8.469490E+05 -1.245409E+05  1.244134E+04 -3.491296E+05  6.577294E-11  7.928454E-11
       311  11 -8.157359E+05 -1.050350E+05  1.974764E+04 -3.323235E+05  1.634565E-10  3.650036E-10
       311  12 -7.733339E+05 -9.749210E+04  2.573054E+04 -3.287301E+05 -1.020116E-10 -1.970519E-11
       311  13 -9.061287E+05 -1.464418E+05 -1.889971E+03 -3.652238E+05 -6.804842E-11  3.984960E-11
       311  14 -9.117463E+05 -1.406309E+05 -3.312373E+03 -3.585530E+05 -7.855725E-11  5.407081E-11
       311  15 -9.061803E+05 -1.467872E+05 -6.074042E+03 -3.650957E+05 -1.111463E-10 -1.514108E-10
       311  16 -9.653047E+05 -1.683423E+05 -1.622146E+04 -3.813165E+05 -5.888376E-11  2.197071E-10
       311  17 -1.007748E+06 -1.762262E+05 -2.637306E+04 -3.847789E+05  5.667053E-10  5.207886E-10
       311  18 -1.039010E+06 -1.960814E+05 -3.788009E+04 -4.014543E+05  1.537836E-10 -1.716596E-11
       311  19 -8.469490E+05 -1.245409E+05  1.244138E+04 -3.491297E+05 -4.309769E+03  1.853026E+03
       311  20 -8.157359E+05 -1.050350E+05  1.974775E+04 -3.323235E+05 -6.777551E+03  3.456850E+03
       311  21 -7.733338E+05 -9.749205E+04  2.573075E+04 -3.287302E+05 -9.237102E+03  5.037549E+03
       311  22 -9.061287E+05 -1.464418E+05 -1.889948E+03 -3.652238E+05 -2.358701E+03  2.584063E+03
       311  23 -9.117463E+05 -1.406309E+05 -3.312296E+03 -3.585530E+05 -4.846325E+03  4.180595E+03
       311  24 -9.061802E+05 -1.467872E+05 -6.073879E+03 -3.650957E+05 -7.325621E+03  5.754037E+03
       311  25 -9.653047E+05 -1.683423E+05 -1.622144E+04 -3.813165E+05 -4.078450E+02  3.315021E+03
       311  26 -1.007748E+06 -1.762262E+05 -2.637300E+04 -3.847789E+05 -2.915423E+03  4.904219E+03
       311  27 -1.039010E+06 -1.960813E+05 -3.787995E+04 -4.014544E+05 -5.414575E+03  6.470362E+03
       312   1 -7.421810E+05 -8.619072E+04  3.145141E+04 -3.216144E+05  1.098684E+04 -5.898525E+03
       312   2 -7.113453E+05 -6.559913E+04  3.379150E+04 -3.031092E+05  1.868030E+04 -5.414452E+03
       312   3 -6.723450E+05 -6.294929E+04  2.924965E+04 -2.963333E+05  2.620798E+04 -4.485521E+03
       312   4 -9.065957E+05 -1.461771E+05 -7.980883E+03 -3.654999E+05  8.948950E+03 -6.662512E+03
       312   5 -9.110970E+05 -1.403884E+05 -1.436141E+04 -3.584295E+05  1.702932E+04 -6.033731E+03
       312   6 -9.075126E+05 -1.526202E+05 -2.793251E+04 -3.630893E+05  2.494344E+04 -4.960225E+03
       312   7 -1.070984E+06 -2.061619E+05 -4.741512E+04 -4.093750E+05  6.911652E+03 -7.426288E+03
       312   8 -1.110809E+06 -2.151746E+05 -6.251710E+04 -4.137335E+05  1.537892E+04 -6.652787E+03
       312   9 -1.142624E+06 -2.422861E+05 -8.511846E+04 -4.298217E+05  2.367942E+04 -5.434720E+03
       312  10 -7.421811E+05 -8.619079E+04  3.145112E+04 -3.216143E+05 -4.289874E-10 -4.338853E-10
       312  11 -7.113457E+05 -6.559926E+04  3.379079E+04 -3.031091E+05 -3.846993E-10 -2.562277E-10
       312  12 -6.723458E+05 -6.294950E+04  2.924832E+04 -2.963332E+05 -1.489810E-10  9.409033E-11
       312  13 -9.065958E+05 -1.461772E+05 -7.981117E+03 -3.654999E+05 -2.003968E-10 -1.651293E-10
       312  14 -9.110973E+05 -1.403886E+05 -1.436203E+04 -3.584294E+05 -3.504647E-10  1.957293E-11
       312  15 -9.075133E+05 -1.526204E+05 -2.793373E+04 -3.630892E+05 -3.013031E-10 -1.275475E-10
       312  16 -1.070984E+06 -2.061619E+05 -4.741531E+04 -4.093750E+05  4.316223E-10  4.417042E-11
       312  17 -1.110809E+06 -2.151747E+05 -6.251763E+04 -4.137334E+05  1.314644E-10  7.629772E-11
       312  18 -1.142625E+06 -2.422862E+05 -8.511957E+04 -4.298216E+05  3.689606E-10 -1.322633E-11
       312  19 -7.421810E+05 -8.619072E+04  3.145141E+04 -3.216144E+05 -1.098684E+04  5.898525E+03
       312  20 -7.113453E+05 -6.559913E+04  3.379150E+04 -3.031092E+05 -1.868030E+04  5.414452E+03
       312  21 -6.723450E+05 -6.294929E+04  2.924965E+04 -2.963333E+05 -2.620798E+04  4.485521E+03
       312  22 -9.065957E+05 -1.461771E+05 -7.980883E+03 -3.654999E+05 -8.948950E+03  6.662512E+03
       312  23 -9.110970E+05 -1.403884E+05 -1.436141E+04 -3.584295E+05 -1.702932E+04  6.033731E+03
       312  24 -9.075126E+05 -1.526202E+05 -2.793251E+04 -3.630893E+05 -2.494344E+04  4.960225E+03
       312  25 -1.070984E+06 -2.061619E+05 -4.741512E+04 -4.093750E+05 -6.911652E+03  7.426288E+03
       312  26 -1.110809E+06 -2.151746E+05 -6.251710E+04 -4.137335E+05 -1.537892E+04  6.652787E+03
       312  27 -1.142624E+06 -2.422861E+05 -8.511846E+04 -4.298217E+05 -2.367942E+04  5.434720E+03
       313   1 -6.332352E+05 -5.397142E+04  2.894629E+04 -3.092749E+05  3.444014E+04 -3.911124E+03
       313   2 -6.126944E+05 -1.272108E+04  1.182864E+04 -2.588891E+05  5.924114E+04  5.539171E+03
       313   3 -6.239706E+05 -8.786732E+04 -5.265619E+04 -1.937730E+05  8.036922E+04  2.478469E+04
       313   4 -9.121247E+05 -1.419682E+05 -3.527551E+04 -3.695482E+05  3.025578E+04 -5.480064E+03
       313   5 -9.031547E+05 -1.380791E+05 -6.226078E+04 -3.562252E+05  6.361723E+04  7.178437E+03
       313   6 -9.277236E+05 -2.523227E+05 -1.434199E+05 -3.281698E+05  9.330368E+04  2.963072E+04
       313   7 -1.190939E+06 -2.299651E+05 -9.950285E+04 -4.297996E+05  2.607344E+04 -7.048513E+03
       313   8 -1.193530E+06 -2.634225E+05 -1.363567E+05 -4.535168E+05  6.799108E+04  8.816556E+03
       313   9 -1.231376E+06 -4.167364E+05 -2.341905E+05 -4.624957E+05  1.062311E+05  3.447146E+04
       313  10 -6.332365E+05 -5.397176E+04  2.894403E+04 -3.092748E+05  3.169936E-11  6.293151E-11
       313  11 -6.126982E+05 -1.272206E+04  1.182198E+04 -2.588893E+05  1.468284E-10 -1.604434E-10
       313  12 -6.239777E+05 -8.786972E+04 -5.266950E+04 -1.937746E+05 -4.528109E-11 -2.148190E-10
       313  13 -9.121257E+05 -1.419685E+05 -3.527729E+04 -3.695481E+05  1.991113E-11 -3.142068E-13
       313  14 -9.031591E+05 -1.380802E+05 -6.226849E+04 -3.562256E+05 -1.352319E-10 -7.580066E-11
       313  15 -9.277332E+05 -2.523260E+05 -1.434380E+05 -3.281721E+05 -2.579426E-11 -3.841295E-11
       313  16 -1.190940E+06 -2.299654E+05 -9.950422E+04 -4.297995E+05  5.860744E-11 -6.984119E-11
       313  17 -1.193535E+06 -2.634238E+05 -1.363656E+05 -4.535173E+05 -2.954769E-10 -8.127142E-11
       313  18 -1.231389E+06 -4.167407E+05 -2.342140E+05 -4.624987E+05 -2.973477E-10 -2.440189E-11
       313  19 -6.332352E+05 -5.397142E+04  2.894629E+04 -3.092749E+05 -3.444014E+04  3.911124E+03
       313  20 -6.126944E+05 -1.272108E+04  1.182864E+04 -2.588891E+05 -5.924114E+04 -5.539171E+03
       313  21 -6.239706E+05 -8.786732E+04 -5.265619E+04 -1.937730E+05 -8.036922E+04 -2.478469E+04
       313  22 -9.121247E+05 -1.419682E+05 -3.527551E+04 -3.695482E+05 -3.025578E+04  5.480064E+03
       313  23 -9.031547E+05 -1.380791E+05 -6.226078E+04 -3.562252E+05 -6.361723E+04 -7.178437E+03
       313  24 -9.277236E+05 -2.523227E+05 -1.434199E+05 -3.281698E+05 -9.330368E+04 -2.963072E+04
       313  25 -1.190939E+06 -2.299651E+05 -9.950285E+04 -4.297996E+05 -2.607344E+04  7.048513E+03
       313  26 -1.193530E+06 -2.634225E+05 -1.363567E+05 -4.535168E+05 -6.799108E+04 -8.816556E+03
       313  27 -1.231376E+06 -4.167364E+05 -2.341905E+05 -4.624957E+05 -1.062311E+05 -3.447146E+04
       314   1 -3.382649E+04  4.039423E+03  6.290297E+04  6.242387E+04  1.774430E+05  1.398061E+04
       314   2  3.235603E+04 -2.302491E+05 -6.582163E+04 -2.798830E+02  1.267453E+05  4.328597E+04
       314   3  1.667571E+05 -2.197794E+05 -1.002586E+05 -1.023170E+05  7.606657E+04  4.501673E+04
       314   4  1.016664E+06  2.644554E+05  3.169324E+05 -6.452966E+04  2.181028E+05  1.398606E+04
       314   5  9.804659E+05  1.300282E+03  1.447405E+05 -4.475002E+04  1.414748E+05  4.328348E+04
       314   6  1.016846E+06 -1.282872E+04  8.471554E+04 -6.429477E+04  6.487812E+04  4.501173E+04
       314   7  2.068201E+06  5.248525E+05  5.708976E+05 -1.916989E+05  2.588309E+05  1.397491E+04
       314   8  1.929419E+06  2.327966E+05  3.552486E+05 -8.928895E+04  1.562265E+05  4.327889E+04
       314   9  1.867616E+06  1.940795E+05  2.696476E+05 -2.621987E+04  5.367451E+04  4.500537E+04
       314  10 -3.386035E+04  4.030761E+03  6.284343E+04  6.242187E+04 -2.135567E-10  2.397326E-10
       314  11  3.233828E+04 -2.302554E+05 -6.585534E+04 -2.843021E+02 -4.343466E-10 -6.543662E-10
       314  12  1.667503E+05 -2.197831E+05 -1.002733E+05 -1.023198E+05  5.493414E-10  2.151333E-11
       314  13  1.016613E+06  2.644424E+05  3.168428E+05 -6.453212E+04  6.470036E-10  7.480973E-11
       314  14  9.804439E+05  1.292907E+03  1.446994E+05 -4.475495E+04 -9.552662E-13 -1.149024E-09
       314  15  1.016841E+06 -1.283203E+04  8.470383E+04 -6.429712E+04  3.376883E-10 -1.094570E-10
       314  16  2.068129E+06  5.248344E+05  5.707717E+05 -1.917018E+05  1.992946E-10 -7.417876E-11
       314  17  1.929392E+06  2.327880E+05  3.551994E+05 -8.929439E+04 -2.795227E-10 -1.626156E-10
       314  18  1.867612E+06  1.940766E+05  2.696384E+05 -2.622181E+04 -3.741374E-11 -4.395593E-10
       314  19 -3.382649E+04  4.039423E+03  6.290297E+04  6.242387E+04 -1.774430E+05 -1.398061E+04
       314  20  3.235603E+04 -2.302491E+05 -6.582163E+04 -2.798830E+02 -1.267453E+05 -4.328597E+04
       314  21  1.667571E+05 -2.197794E+05 -1.002586E+05 -1.023170E+05 -7.606657E+04 -4.501673E+04
       314  22  1.016664E+06  2.644554E+05  3.169324E+05 -6.452966E+04 -2.181028E+05 -1.398606E+04
       314  23  9.804659E+05  1.300282E+03  1.447405E+05 -4.475002E+04 -1.414748E+05 -4.328348E+04
       314  24  1.016846E+06 -1.282872E+04  8.471554E+04 -6.429477E+04 -6.487812E+04 -4.501173E+04
       314  25  2.068201E+06  5.248525E+05  5.708976E+05 -1.916989E+05 -2.588309E+05 -1.397491E+04
       314  26  1.929419E+06  2.327966E+05  3.552486E+05 -8.928895E+04 -1.562265E+05 -4.327889E+04
       314  27  1.867616E+06  1.940795E+05  2.696476E+05 -2.621987E+04 -5.367451E+04 -4.500537E+04
       315   1  2.323646E+05 -1.736727E+05 -1.010770E+05 -5.982298E+04  5.614393E+04  3.937970E+04
       315   2  3.281491E+05 -1.637769E+05 -1.096845E+05 -4.354019E+04  3.902219E+04  3.525738E+04
       315   3  4.297691E+05 -1.401750E+05 -1.036800E+05 -6.709777E+04  2.189443E+04  2.991529E+04
       315   4  1.002061E+06  1.382314E+04  6.722675E+04 -6.446863E+04  5.290391E+04  3.937471E+04
       315   5  9.990780E+05 -4.609894E+02  3.644187E+04 -4.454921E+04  3.461907E+04  3.525407E+04
       315   6  1.002115E+06 -8.463739E+02  2.106215E+04 -6.446696E+04  1.633090E+04  2.991410E+04
       315   7  1.772312E+06  2.012797E+05  2.354947E+05 -6.912013E+04  4.965989E+04  3.936978E+04
       315   8  1.670428E+06  1.628251E+05  1.825413E+05 -4.555934E+04  3.021125E+04  3.525078E+04
       315   9  1.574768E+06  1.384605E+05  1.457847E+05 -6.183367E+04  1.076230E+04  2.991287E+04
       315  10  2.323608E+05 -1.736752E+05 -1.010858E+05 -5.982476E+04  7.686066E-11 -2.135002E-10
       315  11  3.281471E+05 -1.637787E+05 -1.096897E+05 -4.354130E+04  7.821200E-11  1.336432E-10
       315  12  4.297684E+05 -1.401760E+05 -1.036826E+05 -6.709830E+04 -7.467988E-10  1.844572E-10
       315  13  1.002058E+06  1.382072E+04  6.721858E+04 -6.447031E+04  4.432027E-10 -2.374630E-10
       315  14  9.990764E+05 -4.626458E+02  3.643729E+04 -4.455020E+04  1.964759E-10 -4.629825E-11
       315  15  1.002115E+06 -8.474068E+02  2.105997E+04 -6.446736E+04 -2.590234E-10  1.654260E-10
       315  16  1.772309E+06  2.012773E+05  2.354872E+05 -6.912171E+04  2.651417E-10 -2.383457E-10
       315  17  1.670427E+06  1.628235E+05  1.825372E+05 -4.556020E+04 -5.074036E-10 -3.768395E-10
       315  18  1.574768E+06  1.384595E+05  1.457828E+05 -6.183393E+04  5.685468E-10  1.103908E-10
       315  19  2.323646E+05 -1.736727E+05 -1.010770E+05 -5.982298E+04 -5.614393E+04 -3.937970E+04
       315  20  3.281491E+05 -1.637769E+05 -1.096845E+05 -4.354019E+04 -3.902219E+04 -3.525738E+04
       315  21  4.297691E+05 -1.401750E+05 -1.036800E+05 -6.709777E+04 -2.189443E+04 -2.991529E+04
       315  22  1.002061E+06  1.382314E+04  6.722675E+04 -6.446863E+04 -5.290391E+04 -3.937471E+04
       315  23  9.990780E+05 -4.609894E+02  3.644187E+04 -4.454921E+04 -3.461907E+04 -3.525407E+04
       315  24  1.002115E+06 -8.463739E+02  2.106215E+04 -6.446696E+04 -1.633090E+04 -2.991410E+04
       315  25  1.772312E+06  2.012797E+05  2.354947E+05 -6.912013E+04 -4.965989E+04 -3.936978E+04
       315  26  1.670428E+06  1.628251E+05  1.825413E+05 -4.555934E+04 -3.021125E+04 -3.525078E+04
       315  27  1.574768E+06  1.384605E+05  1.457847E+05 -6.183367E+04 -1.076230E+04 -2.991287E+04
       316   1  5.076869E+05 -1.194159E+05 -9.091412E+04 -6.462604E+04  1.824414E+04  2.651751E+04
       316   2  6.051840E+05 -9.634472E+04 -7.679352E+04 -4.481864E+04  1.372673E+04  2.094284E+04
       316   3  7.035100E+05 -7.246407E+04 -5.952459E+04 -6.458969E+04  9.205806E+03  1.532400E+04
       316   4  1.000979E+06  5.731824E+02  1.614446E+04 -6.440959E+04  1.304929E+04  2.651719E+04
       316   5  1.000580E+06 -1.361148E+02  9.202620E+03 -4.462132E+04  8.486775E+03  2.094368E+04
       316   6  1.001005E+06 -2.869347E+01  5.438018E+03 -6.440995E+04  3.921443E+03  1.532607E+04
       316   7  1.494499E+06  1.205462E+05  1.231886E+05 -6.419294E+04  7.850364E+03  2.651686E+04
       316   8  1.396121E+06  9.606215E+04  9.518950E+04 -4.442385E+04  3.243530E+03  2.094452E+04
       316   9  1.298583E+06  7.240081E+04  7.039540E+04 -6.423012E+04 -1.365417E+03  1.532813E+04
       316  10  5.076864E+05 -1.194168E+05 -9.091606E+04 -6.462643E+04  1.785464E-10 -4.691474E-11
       316  11  6.051837E+05 -9.634525E+04 -7.679469E+04 -4.481888E+04 -3.994116E-10  2.795152E-11
       316  12  7.035099E+05 -7.246434E+04 -5.952519E+04 -6.458980E+04 -2.146244E-10  4.302929E-10
       316  13  1.000979E+06  5.723813E+02  1.614281E+04 -6.440987E+04 -3.989044E-11  2.383495E-10
       316  14  1.000579E+06 -1.366054E+02  9.201660E+03 -4.462146E+04  2.479472E-10  8.077727E-11
       316  15  1.001005E+06 -2.894995E+01  5.437547E+03 -6.441000E+04 -4.460289E-11  1.401859E-10
       316  16  1.494499E+06  1.205455E+05  1.231872E+05 -6.419311E+04 -6.771252E-11  3.152297E-10
       316  17  1.396121E+06  9.606168E+04  9.518866E+04 -4.442390E+04 -3.029178E-10  4.917988E-10
       316  18  1.298583E+06  7.240056E+04  7.039495E+04 -6.423010E+04 -5.638818E-13  5.925884E-10
       316  19  5.076869E+05 -1.194159E+05 -9.091412E+04 -6.462604E+04 -1.824414E+04 -2.651751E+04
       316  20  6.051840E+05 -9.634472E+04 -7.679352E+04 -4.481864E+04 -1.372673E+04 -2.094284E+04
       316  21  7.035100E+05 -7.246407E+04 -5.952459E+04 -6.458969E+04 -9.205806E+03 -1.532400E+04
       316  22  1.000979E+06  5.731824E+02  1.614446E+04 -6.440959E+04 -1.304929E+04 -2.651719E+04
       316  23  1.000580E+06 -1.361148E+02  9.202620E+03 -4.462132E+04 -8.486775E+03 -2.094368E+04
       316  24  1.001005E+06 -2.869347E+01  5.438018E+03 -6.440995E+04 -3.921443E+03 -1.532607E+04
       316  25  1.494499E+06  1.205462E+05  1.231886E+05 -6.419294E+04 -7.850364E+03 -2.651686E+04
       316  26  1.396121E+06  9.606215E+04  9.518950E+04 -4.442385E+04 -3.243530E+03 -2.094452E+04
       316  27  1.298583E+06  7.240081E+04  7.039540E+04 -6.423012E+04  1.365417E+03 -1.532813E+04
       317   1  7.819442E+05 -5.316985E+04 -4.308854E+04 -6.443914E+04  8.307042E+03  1.204584E+04
       317   2  8.794055E+05 -2.952867E+04 -2.364459E+04 -4.469764E+04  6.945199E+03  6.429838E+03
       317   3  9.770340E+05 -5.801670E+03 -3.303922E+03 -6.437787E+04  5.582299E+03  8.148811E+02
       317   4  1.000866E+06  3.771237E+01  4.244378E+03 -6.437530E+04  3.044762E+03  1.204837E+04
       317   5  1.000791E+06  1.676716E+00  2.749246E+03 -4.466468E+04  1.683107E+03  6.432714E+03
       317   6  1.000873E+06  5.188721E+01  2.150650E+03 -6.437533E+04  3.206036E+02  8.181372E+02
       317   7  1.219833E+06  5.324213E+04  5.157457E+04 -6.431143E+04 -2.219347E+03  1.205090E+04
       317   8  1.122190E+06  2.953106E+04  2.914231E+04 -4.463171E+04 -3.579999E+03  6.435589E+03
       317   9  1.024714E+06  5.905420E+03  7.605288E+03 -6.437279E+04 -4.941292E+03  8.213931E+02
       317  10  7.819441E+05 -5.317003E+04 -4.308895E+04 -6.443922E+04 -7.941912E-11  2.278493E-10
       317  11  8.794055E+05 -2.952873E+04 -2.364476E+04 -4.469768E+04 -1.447008E-10  2.578272E-10
       317  12  9.770340E+05 -5.801679E+03 -3.303981E+03 -6.437788E+04 -1.061468E-09  2.887334E-10
       317  13  1.000866E+06  3.755393E+01  4.244087E+03 -6.437533E+04 -3.388000E-10  5.910241E-10
       317  14  1.000791E+06  1.631500E+00  2.749162E+03 -4.466469E+04  5.487133E-11 -6.068195E-10
       317  15  1.000873E+06  5.188646E+01  2.150649E+03 -6.437533E+04 -1.396812E-10 -4.185625E-10
       317  16  1.219833E+06  5.324198E+04  5.157428E+04 -6.431140E+04  7.101816E-10 -5.916907E-10
       317  17  1.122190E+06  2.953101E+04  2.914220E+04 -4.463169E+04  2.723405E-10 -4.308244E-10
       317  18  1.024713E+06  5.905413E+03  7.605241E+03 -6.437279E+04  6.284316E-10 -6.548279E-10
       317  19  7.819442E+05 -5.316985E+04 -4.308854E+04 -6.443914E+04 -8.307042E+03 -1.204584E+04
       317  20  8.794055E+05 -2.952867E+04 -2.364459E+04 -4.469764E+04 -6.945199E+03 -6.429838E+03
       317  21  9.770340E+05 -5.801670E+03 -3.303922E+03 -6.437787E+04 -5.582299E+03 -8.148811E+02
       317  22  1.000866E+06  3.771237E+01  4.244378E+03 -6.437530E+04 -3.044762E+03 -1.204837E+04
       317  23  1.000791E+06  1.676716E+00  2.749246E+03 -4.466468E+04 -1.683107E+03 -6.432714E+03
       317  24  1.000873E+06  5.188721E+01  2.150650E+03 -6.437533E+04 -3.206036E+02 -8.181372E+02
       317  25  1.219833E+06  5.324213E+04  5.157457E+04 -6.431143E+04  2.219347E+03 -1.205090E+04
       317  26  1.122190E+06  2.953106E+04  2.914231E+04 -4.463171E+04  3.579999E+03 -6.435589E+03
       317  27  1.024714E+06  5.905420E+03  7.605288E+03 -6.437279E+04  4.941292E+03 -8.213931E+02
       318   1  1.055477E+06  1.338915E+04  1.425053E+04 -6.440192E+04  5.194056E+03 -2.452603E+03
       318   2  1.152985E+06  3.702125E+04  3.559956E+04 -4.465762E+04  3.950538E+03 -8.067596E+03
       318   3  1.250645E+06  6.073142E+04  5.776599E+04 -6.434416E+04  2.707914E+03 -1.368458E+04
       318   4  1.000870E+06  5.161691E+01  2.107064E+03 -6.437759E+04 -6.840885E+01 -2.449375E+03
       318   5  1.000793E+06  2.412567E+00  2.512603E+03 -4.466186E+04 -1.313891E+03 -8.064841E+03
       318   6  1.000861E+06  3.259129E+01  3.737738E+03 -6.437756E+04 -2.558289E+03 -1.368226E+04
       318   7  9.462659E+05 -1.328610E+04 -1.003648E+04 -6.435325E+04 -5.330417E+03 -2.446148E+03
       318   8  8.486229E+05 -3.701794E+04 -3.057564E+04 -4.466610E+04 -6.577048E+03 -8.062086E+03
       318   9  7.511357E+05 -6.067033E+04 -5.029411E+04 -6.441095E+04 -7.822404E+03 -1.367994E+04
       318  10  1.055477E+06  1.338914E+04  1.425047E+04 -6.440191E+04  3.181122E-10 -5.071101E-11
       318  11  1.152985E+06  3.702117E+04  3.559941E+04 -4.465760E+04  6.050827E-10 -2.497634E-10
       318  12  1.250644E+06  6.073122E+04  5.776563E+04 -6.434413E+04  1.985862E-10  7.567676E-11
       318  13  1.000870E+06  5.161046E+01  2.107053E+03 -6.437759E+04 -3.629303E-10  6.172135E-10
       318  14  1.000793E+06  2.342227E+00  2.512477E+03 -4.466187E+04 -4.834725E-10  5.145263E-10
       318  15  1.000861E+06  3.238842E+01  3.737374E+03 -6.437759E+04  2.959180E-10 -8.076351E-10
       318  16  9.462659E+05 -1.328612E+04 -1.003655E+04 -6.435327E+04  2.353047E-11  8.456144E-11
       318  17  8.486228E+05 -3.701802E+04 -3.057584E+04 -4.466614E+04 -7.023348E-10  5.082676E-10
       318  18  7.511356E+05 -6.067055E+04 -5.029458E+04 -6.441103E+04 -3.040622E-11 -3.561059E-10
       318  19  1.055477E+06  1.338915E+04  1.425053E+04 -6.440192E+04 -5.194056E+03  2.452603E+03
       318  20  1.152985E+06  3.702125E+04  3.559956E+04 -4.465762E+04 -3.950538E+03  8.067596E+03
       318  21  1.250645E+06  6.073142E+04  5.776599E+04 -6.434416E+04 -2.707914E+03  1.368458E+04
       318  22  1.000870E+06  5.161691E+01  2.107064E+03 -6.437759E+04  6.840885E+01  2.449375E+03
       318  23  1.000793E+06  2.412567E+00  2.512603E+03 -4.466186E+04  1.313891E+03  8.064841E+03
       318  24  1.000861E+06  3.259129E+01  3.737738E+03 -6.437756E+04  2.558289E+03  1.368226E+04
       318  25  9.462659E+05 -1.328610E+04 -1.003648E+04 -6.435325E+04  5.330417E+03  2.446148E+03
       318  26  8.486229E+05 -3.701794E+04 -3.057564E+04 -4.466610E+04  6.577048E+03  8.062086E+03
       318  27  7.511357E+05 -6.067033E+04 -5.029411E+04 -6.441095E+04  7.822404E+03  1.367994E+04
       319   1  1.329415E+06  7.990733E+04  7.640960E+04 -6.428121E+04  1.963580E+03 -1.696351E+04
       319   2  1.427073E+06  1.035914E+05  1.006655E+05 -4.445410E+04 -2.028013E+03 -2.258329E+04
       319   3  1.525477E+06  1.279873E+05  1.277007E+05 -6.422313E+04 -6.017300E+03 -2.815825E+04
       319   4  1.000980E+06 -2.570416E+01  4.745858E+03 -6.441459E+04 -3.326697E+03 -1.696172E+04
       319   5  1.000602E+06 -1.269586E+02  7.957161E+03 -4.461554E+04 -7.274219E+03 -2.258282E+04
       319   6  1.000953E+06  4.766893E+02  1.391872E+04 -6.441430E+04 -1.121882E+04 -2.815903E+04
       319   7  6.726463E+05 -7.996589E+04 -6.692428E+04 -6.454788E+04 -8.614214E+03 -1.695993E+04
       319   8  5.743017E+05 -1.038573E+05 -8.476194E+04 -4.477685E+04 -1.251687E+04 -2.258233E+04
       319   9  4.766869E+05 -1.270521E+05 -9.987953E+04 -6.460528E+04 -1.641601E+04 -2.815981E+04
       319  10  1.329415E+06  7.990702E+04  7.640905E+04 -6.428118E+04 -6.529997E-10  5.647984E-10
       319  11  1.427073E+06  1.035909E+05  1.006645E+05 -4.445414E+04  6.851899E-11 -1.106822E-10
       319  12  1.525477E+06  1.279864E+05  1.276991E+05 -6.422327E+04 -7.463467E-10  3.934087E-10
       319  13  1.000980E+06 -2.601622E+01  4.745296E+03 -6.441463E+04 -9.656485E-11 -2.741626E-10
       319  14  1.000602E+06 -1.275207E+02  7.956102E+03 -4.461567E+04  1.848308E-09 -3.590610E-10
       319  15  1.000953E+06  4.758036E+02  1.391699E+04 -6.441455E+04 -6.452460E-10  1.809189E-10
       319  16  6.726461E+05 -7.996622E+04 -6.692496E+04 -6.454800E+04  9.375691E-10  1.304461E-10
       319  17  5.743014E+05 -1.038579E+05 -8.476320E+04 -4.477708E+04  1.037256E-09 -2.253916E-10
       319  18  4.766864E+05 -1.270530E+05 -9.988152E+04 -6.460565E+04  2.584001E-10 -2.046903E-11
       319  19  1.329415E+06  7.990733E+04  7.640960E+04 -6.428121E+04 -1.963580E+03  1.696351E+04
       319  20  1.427073E+06  1.035914E+05  1.006655E+05 -4.445410E+04  2.028013E+03  2.258329E+04
       319  21  1.525477E+06  1.279873E+05  1.277007E+05 -6.422313E+04  6.017300E+03  2.815825E+04
       319  22  1.000980E+06 -2.570416E+01  4.745858E+03 -6.441459E+04  3.326697E+03  1.696172E+04
       319  23  1.000602E+06 -1.269586E+02  7.957161E+03 -4.461554E+04  7.274219E+03  2.258282E+04
       319  24  1.000953E+06  4.766893E+02  1.391872E+04 -6.441430E+04  1.121882E+04  2.815903E+04
       319  25  6.726463E+05 -7.996589E+04 -6.692428E+04 -6.454788E+04  8.614214E+03  1.695993E+04
       319  26  5.743017E+05 -1.038573E+05 -8.476194E+04 -4.477685E+04  1.251687E+04  2.258233E+04
       319  27  4.766869E+05 -1.270521E+05 -9.987953E+04 -6.460528E+04  1.641601E+04  2.815981E+04
       320   1  1.605664E+06  1.461149E+05  1.496229E+05 -6.219635E+04 -8.464250E+03 -3.156042E+04
       320   2  1.701837E+06  1.704429E+05  1.842575E+05 -4.535701E+04 -2.540274E+04 -3.689519E+04
       320   3  1.803444E+06  2.069325E+05  2.329796E+05 -6.840321E+04 -4.234005E+04 -4.097533E+04
       320   4  1.001933E+06 -7.469767E+02  1.814828E+04 -6.447812E+04 -1.404687E+04 -3.156220E+04
       320   5  9.992926E+05 -4.260095E+02  3.137588E+04 -4.453534E+04 -2.979274E+04 -3.689901E+04
       320   6  1.001879E+06  1.185917E+04  5.787619E+04 -6.448039E+04 -4.553479E+04 -4.098068E+04
       320   7  3.985432E+05 -1.476330E+05 -1.133481E+05 -6.675762E+04 -1.962414E+04 -3.156393E+04
       320   8  2.972100E+05 -1.713276E+05 -1.215353E+05 -4.371461E+04 -3.417784E+04 -3.690285E+04
       320   9  2.009141E+05 -1.832568E+05 -1.172660E+05 -6.056272E+04 -4.872543E+04 -4.098608E+04
       320  10  1.605664E+06  1.461138E+05  1.496209E+05 -6.219657E+04  1.004528E-09  8.735080E-11
       320  11  1.701836E+06  1.704413E+05  1.842537E+05 -4.535777E+04 -5.361241E-10 -5.669876E-10
       320  12  1.803442E+06  2.069302E+05  2.329731E+05 -6.840460E+04 -3.002054E-10 -4.388326E-10
       320  13  1.001933E+06 -7.480999E+02  1.814603E+04 -6.447848E+04 -1.833087E-10 -6.690655E-11
       320  14  9.992913E+05 -4.277102E+02  3.137165E+04 -4.453622E+04  1.058443E-09 -4.374189E-10
       320  15  1.001876E+06  1.185681E+04  5.786914E+04 -6.448189E+04  3.783809E-10 -2.094664E-10
       320  16  3.985425E+05 -1.476342E+05 -1.133507E+05 -6.675812E+04 -3.761343E-10 -4.241554E-10
       320  17  2.972084E+05 -1.713294E+05 -1.215400E+05 -4.371562E+04 -4.912118E-10 -5.313840E-10
       320  18  2.009111E+05 -1.832593E+05 -1.172736E+05 -6.056432E+04  3.761462E-10  4.041502E-10
       320  19  1.605664E+06  1.461149E+05  1.496229E+05 -6.219635E+04  8.464250E+03  3.156042E+04
       320  20  1.701837E+06  1.704429E+05  1.842575E+05 -4.535701E+04  2.540274E+04  3.689519E+04
       320  21  1.803444E+06  2.069325E+05  2.329796E+05 -6.840321E+04  4.234005E+04  4.097533E+04
       320  22  1.001933E+06 -7.469767E+02  1.814828E+04 -6.447812E+04  1.404687E+04  3.156220E+04
       320  23  9.992926E+05 -4.260095E+02  3.137588E+04 -4.453534E+04  2.979274E+04  3.689901E+04
       320  24  1.001879E+06  1.185917E+04  5.787619E+04 -6.448039E+04  4.553479E+04  4.098068E+04
       320  25  3.985432E+05 -1.476330E+05 -1.133481E+05 -6.675762E+04  1.962414E+04  3.156393E+04
       320  26  2.972100E+05 -1.713276E+05 -1.215353E+05 -4.371461E+04  3.417784E+04  3.690285E+04
       320  27  2.009141E+05 -1.832568E+05 -1.172660E+05 -6.056272E+04  4.872543E+04  4.098608E+04
       321   1  1.896835E+06  2.034608E+05  2.646892E+05 -3.141251E+04 -4.445257E+04 -4.668100E+04
       321   2  1.963749E+06  2.402532E+05  3.420738E+05 -8.292155E+04 -1.370943E+05 -4.474555E+04
       321   3  2.097769E+06  4.959010E+05  5.344476E+05 -1.737872E+05 -2.297893E+05 -1.442726E+04
       321   4  1.014611E+06 -1.108963E+04  7.293098E+04 -6.430216E+04 -5.584272E+04 -4.668965E+04
       321   5  9.832441E+05  1.063259E+03  1.245876E+05 -4.474186E+04 -1.217774E+05 -4.474587E+04
       321   6  1.014444E+06  2.276127E+05  2.728209E+05 -6.452636E+04 -1.877466E+05 -1.442031E+04
       321   7  1.331179E+05 -2.256875E+05 -1.188727E+05 -9.714466E+04 -6.721689E+04 -4.669710E+04
       321   8  3.637434E+03 -2.381859E+05 -9.295665E+04 -6.623145E+03 -1.064843E+05 -4.474431E+04
       321   9 -6.778236E+04 -4.071524E+04  1.112323E+04  4.454355E+04 -1.457766E+05 -1.439862E+04
       321  10  1.896832E+06  2.034580E+05  2.646814E+05 -3.141418E+04  7.046254E-10 -1.310845E-10
       321  11  1.963728E+06  2.402461E+05  3.420349E+05 -8.292648E+04  1.190575E-10  2.699030E-10
       321  12  2.097712E+06  4.958866E+05  5.343483E+05 -1.737899E+05  1.223195E-09  6.268438E-10
       321  13  1.014607E+06 -1.109281E+04  7.292103E+04 -6.430426E+04 -3.412717E-10 -8.659405E-10
       321  14  9.832276E+05  1.057135E+03  1.245560E+05 -4.474625E+04 -2.866174E-10  5.047336E-10
       321  15  1.014406E+06  2.276030E+05  2.727543E+05 -6.452854E+04 -3.630297E-10 -3.488192E-10
       321  16  1.331125E+05 -2.256911E+05 -1.188853E+05 -9.714718E+04 -1.150546E-09  4.487853E-10
       321  17  3.624720E+03 -2.381911E+05 -9.298172E+04 -6.626983E+03 -1.768808E-09 -2.130043E-10
       321  18 -6.780523E+04 -4.072117E+04  1.108291E+04  4.454186E+04 -3.235966E-10  1.153074E-09
       321  19  1.896835E+06  2.034608E+05  2.646892E+05 -3.141251E+04  4.445257E+04  4.668100E+04
       321  20  1.963749E+06  2.402532E+05  3.420738E+05 -8.292155E+04  1.370943E+05  4.474555E+04
       321  21  2.097769E+06  4.959010E+05  5.344476E+05 -1.737872E+05  2.297893E+05  1.442726E+04
       321  22  1.014611E+06 -1.108963E+04  7.293098E+04 -6.430216E+04  5.584272E+04  4.668965E+04
       321  23  9.832441E+05  1.063259E+03  1.245876E+05 -4.474186E+04  1.217774E+05  4.474587E+04
       321  24  1.014444E+06  2.276127E+05  2.728209E+05 -6.452636E+04  1.877466E+05  1.442031E+04
       321  25  1.331179E+05 -2.256875E+05 -1.188727E+05 -9.714466E+04  6.721689E+04  4.669710E+04
       321  26  3.637434E+03 -2.381859E+05 -9.295665E+04 -6.623145E+03  1.064843E+05  4.474431E+04
       321  27 -6.778236E+04 -4.071524E+04  1.112323E+04  4.454355E+04  1.457766E+05  1.439862E+04
       322   1  2.721845E+05  8.538186E+05  3.010861E+05 -2.198726E+05  3.883594E+03  1.368714E+05
       322   2  6.059207E+04  6.124382E+05  1.437778E+05 -1.268915E+05  9.155138E+03  7.687561E+04
       322   3 -8.250487E+02  4.161423E+05  6.297185E+04 -1.216146E+05  5.373059E+02  1.688048E+04
       322   4  1.569798E+05  3.918197E+05  1.881286E+05 -1.434863E+05  3.918165E+03  1.254796E+05
       322   5  1.150905E+03  3.704399E+05  8.895142E+04 -9.976506E+04  9.156087E+03  7.852157E+04
       322   6 -6.728371E+03  3.918776E+05  5.727070E+04 -1.437313E+05  5.116484E+02  3.154296E+04
       322   7  4.178120E+04 -6.997213E+04  7.515902E+04 -6.715685E+04  3.949954E+03  1.140963E+05
       322   8 -5.829156E+04  1.284976E+05  3.412161E+04 -7.264926E+04  9.157179E+03  8.016689E+04
       322   9 -1.262978E+04  3.676150E+05  5.157058E+04 -1.658470E+05  4.849463E+02  4.620487E+04
       322  10  2.721795E+05  8.537985E+05  3.010509E+05 -2.198730E+05 -8.296671E-11 -3.179358E-10
       322  11  6.059040E+04  6.124318E+05  1.437666E+05 -1.268921E+05 -1.328004E-10 -2.137314E-09
       322  12 -8.251254E+02  4.161420E+05  6.297132E+04 -1.216146E+05  8.287220E-10  1.254905E-09
       322  13  1.569756E+05  3.918028E+05  1.880990E+05 -1.434867E+05  4.876643E-10  6.694360E-10
       322  14  1.149161E+03  3.704333E+05  8.893968E+04 -9.976563E+04 -5.562933E-10  7.581744E-10
       322  15 -6.728638E+03  3.918766E+05  5.726883E+04 -1.437313E+05  7.401560E-10  4.930523E-10
       322  16  4.177769E+04 -6.998612E+04  7.513452E+04 -6.715721E+04 -3.528020E-10  3.449016E-10
       322  17 -5.829337E+04  1.284907E+05  3.410938E+04 -7.264985E+04  3.268492E-10  8.878439E-10
       322  18 -1.263035E+04  3.676127E+05  5.156657E+04 -1.658471E+05  2.590049E-10 -2.426325E-09
       322  19  2.721845E+05  8.538186E+05  3.010861E+05 -2.198726E+05 -3.883594E+03 -1.368714E+05
       322  20  6.059207E+04  6.124382E+05  1.437778E+05 -1.268915E+05 -9.155138E+03 -7.687561E+04
       322  21 -8.250487E+02  4.161423E+05  6.297185E+04 -1.216146E+05 -5.373059E+02 -1.688048E+04
       322  22  1.569798E+05  3.918197E+05  1.881286E+05 -1.434863E+05 -3.918165E+03 -1.254796E+05
       322  23  1.150905E+03  3.704399E+05  8.895142E+04 -9.976506E+04 -9.156087E+03 -7.852157E+04
       322  24 -6.728371E+03  3.918776E+05  5.727070E+04 -1.437313E+05 -5.116484E+02 -3.154296E+04
       322  25  4.178120E+04 -6.997213E+04  7.515902E+04 -6.715685E+04 -3.949954E+03 -1.140963E+05
       322  26 -5.829156E+04  1.284976E+05  3.412161E+04 -7.264926E+04 -9.157179E+03 -8.016689E+04
       322  27 -1.262978E+04  3.676150E+05  5.157058E+04 -1.658470E+05 -4.849463E+02 -4.620487E+04
       323   1 -2.872184E+04  2.314290E+05  1.632056E+04 -1.478272E+05 -8.077094E+03  1.188686E+04
       323   2 -9.048810E+04  9.580787E+03 -4.197256E+04 -9.933419E+04 -1.945326E+04 -6.864064E+03
       323   3 -1.370882E+05 -2.062336E+05 -8.433373E+04 -1.392236E+05 -2.998911E+04 -2.560210E+04
       323   4  8.337373E+03  3.837133E+05  4.946583E+04 -1.438200E+05 -8.095668E+03  2.296536E+04
       323   5 -1.169963E+02  3.806274E+05  3.890773E+04 -9.963246E+04 -1.946825E+04  3.419299E+03
       323   6  6.731167E+03  3.836658E+05  4.483187E+04 -1.438225E+05 -3.000066E+04 -1.612026E+04
       323   7  4.539517E+04  5.360195E+05  8.261018E+04 -1.398119E+05 -8.114097E+03  3.404653E+04
       323   8  9.024501E+04  7.518032E+05  1.197801E+05 -9.993084E+04 -1.948324E+04  1.370873E+04
       323   9  1.505274E+05  9.738911E+05  1.739767E+05 -1.484257E+05 -3.001234E+04 -6.629512E+03
       323  10 -2.872194E+04  2.314288E+05  1.632018E+04 -1.478271E+05  1.935188E-10 -6.321237E-10
       323  11 -9.048852E+04  9.580635E+03 -4.197336E+04 -9.933430E+04  1.509126E-10 -2.816912E-09
       323  12 -1.370893E+05 -2.062345E+05 -8.433666E+04 -1.392242E+05 -6.051185E-10  7.781683E-10
       323  13  8.337161E+03  3.837127E+05  4.946472E+04 -1.438199E+05  3.735563E-11  7.816587E-10
       323  14 -1.174065E+02  3.806273E+05  3.890699E+04 -9.963240E+04  1.172068E-10  6.193749E-10
       323  15  6.730131E+03  3.836653E+05  4.482969E+04 -1.438229E+05  6.496769E-10  3.016053E-10
       323  16  4.539479E+04  5.360183E+05  8.260788E+04 -1.398117E+05  1.841926E-10  6.489363E-10
       323  17  9.024456E+04  7.518029E+05  1.197791E+05 -9.993063E+04 -1.134429E-09  1.553680E-09
       323  18  1.505265E+05  9.738908E+05  1.739749E+05 -1.484259E+05 -3.692314E-10 -1.721565E-09
       323  19 -2.872184E+04  2.314290E+05  1.632056E+04 -1.478272E+05  8.077094E+03 -1.188686E+04
       323  20 -9.048810E+04  9.580787E+03 -4.197256E+04 -9.933419E+04  1.945326E+04  6.864064E+03
       323  21 -1.370882E+05 -2.062336E+05 -8.433373E+04 -1.392236E+05  2.998911E+04  2.560210E+04
       323  22  8.337373E+03  3.837133E+05  4.946583E+04 -1.438200E+05  8.095668E+03 -2.296536E+04
       323  23 -1.169963E+02  3.806274E+05  3.890773E+04 -9.963246E+04  1.946825E+04 -3.419299E+03
       323  24  6.731167E+03  3.836658E+05  4.483187E+04 -1.438225E+05  3.000066E+04  1.612026E+04
       323  25  4.539517E+04  5.360195E+05  8.261018E+04 -1.398119E+05  8.114097E+03 -3.404653E+04
       323  26  9.024501E+04  7.518032E+05  1.197801E+05 -9.993084E+04  1.948324E+04 -1.370873E+04
       323  27  1.505274E+05  9.738911E+05  1.739767E+05 -1.484257E+05  3.001234E+04  6.629512E+03
       324   1 -1.923926E+05 -3.766089E+05 -1.168386E+05 -1.612434E+05 -4.010023E+04 -4.255512E+04
       324   2 -2.399735E+05 -6.114736E+05 -1.439442E+05 -7.685755E+04 -4.374759E+04 -5.156404E+04
       324   3 -1.691958E+05 -8.153364E+05 -1.355493E+05 -7.958870E+04 -1.460912E+04 -6.054795E+04
       324   4 -5.611249E+03  3.903046E+05  5.040651E+04 -1.435694E+05 -4.012270E+04 -2.382625E+04
       324   5  6.838956E+02  3.721199E+05  7.531229E+04 -9.996328E+04 -4.372908E+04 -6.354974E+04
       324   6  1.305615E+05  3.901556E+05  1.569957E+05 -1.434534E+05 -1.457172E+04 -1.032526E+05
       324   7  1.811324E+05  1.157771E+06  2.176178E+05 -1.258730E+05 -4.014408E+04 -5.074524E+03
       324   8  2.412777E+05  1.356617E+06  2.945090E+05 -1.231058E+05 -4.370970E+04 -7.555417E+04
       324   9  4.302283E+05  1.596988E+06  4.494447E+05 -2.074423E+05 -1.452559E+04 -1.460399E+05
       324  10 -1.923948E+05 -3.766113E+05 -1.168451E+05 -1.612448E+05  6.248776E-11 -1.492586E-10
       324  11 -2.399763E+05 -6.114769E+05 -1.439528E+05 -7.685936E+04 -3.225559E-10 -1.674182E-09
       324  12 -1.691970E+05 -8.153404E+05 -1.355566E+05 -7.958942E+04 -9.416535E-11  1.841085E-10
       324  13 -5.613130E+03  3.903036E+05  5.040242E+04 -1.435702E+05 -9.971568E-10  6.841827E-10
       324  14  6.807580E+02  3.721151E+05  7.530111E+04 -9.996552E+04 -1.343472E-10  3.873499E-10
       324  15  1.305584E+05  3.901441E+05  1.569752E+05 -1.434546E+05 -3.754918E-10  1.753265E-10
       324  16  1.811306E+05  1.157770E+06  2.176147E+05 -1.258732E+05  4.160359E-10  7.522000E-11
       324  17  2.412741E+05  1.356610E+06  2.944947E+05 -1.231084E+05 -4.364412E-10  7.807367E-10
       324  18  4.302224E+05  1.596965E+06  4.494043E+05 -2.074440E+05 -4.401795E-10 -5.169885E-10
       324  19 -1.923926E+05 -3.766089E+05 -1.168386E+05 -1.612434E+05  4.010023E+04  4.255512E+04
       324  20 -2.399735E+05 -6.114736E+05 -1.439442E+05 -7.685755E+04  4.374759E+04  5.156404E+04
       324  21 -1.691958E+05 -8.153364E+05 -1.355493E+05 -7.958870E+04  1.460912E+04  6.054795E+04
       324  22 -5.611249E+03  3.903046E+05  5.040651E+04 -1.435694E+05  4.012270E+04  2.382625E+04
       324  23  6.838956E+02  3.721199E+05  7.531229E+04 -9.996328E+04  4.372908E+04  6.354974E+04
       324  24  1.305615E+05  3.901556E+05  1.569957E+05 -1.434534E+05  1.457172E+04  1.032526E+05
       324  25  1.811324E+05  1.157771E+06  2.176178E+05 -1.258730E+05  4.014408E+04  5.074524E+03
       324  26  2.412777E+05  1.356617E+06  2.945090E+05 -1.231058E+05  4.370970E+04  7.555417E+04
       324  27  4.302283E+05  1.596988E+06  4.494447E+05 -2.074423E+05  1.452559E+04  1.460399E+05
       325   1 -2.602083E+06 -1.009299E+06 -5.621346E+05 -1.017201E+06 -2.712550E+05 -8.588855E+04
       325   2 -2.527974E+06 -6.842297E+05 -3.318992E+05 -9.848550E+05 -1.718735E+05 -1.223457E+04
       325   3 -2.523856E+06 -5.651407E+05 -2.364958E+05 -9.245447E+05 -6.274723E+04  3.560601E+04
       325   4 -1.776278E+06 -5.515627E+05 -3.186162E+05 -6.404073E+05 -2.103364E+05 -6.304997E+04
       325   5 -1.727112E+06 -3.277831E+05 -1.447534E+05 -7.010639E+05 -1.461630E+05 -2.592796E+03
       325   6 -1.740840E+06 -3.028675E+05 -7.764271E+04 -7.337929E+05 -7.226122E+04  3.202646E+04
       325   7 -9.497559E+05 -9.350728E+04 -7.514746E+04 -2.630831E+05 -1.493305E+05 -4.014194E+04
       325   8 -9.255872E+05  2.880211E+04  4.235194E+04 -4.169063E+05 -1.204168E+05  7.068852E+03
       325   9 -9.571866E+05 -4.056479E+04  8.118251E+04 -5.428271E+05 -8.178828E+04  2.844299E+04
       325  10 -2.602164E+06 -1.009327E+06 -5.622874E+05 -1.017220E+06  1.366253E-09  5.593965E-10
       325  11 -2.528006E+06 -6.842378E+05 -3.319552E+05 -9.848567E+05  4.212579E-10 -8.824145E-10
       325  12 -2.523860E+06 -5.651432E+05 -2.365056E+05 -9.245429E+05 -3.774241E-12 -2.610765E-12
       325  13 -1.776327E+06 -5.515789E+05 -3.187071E+05 -6.404180E+05  1.329317E-10 -4.405540E-10
       325  14 -1.727135E+06 -3.277888E+05 -1.447937E+05 -7.010642E+05  1.384866E-09 -7.372995E-10
       325  15 -1.740846E+06 -3.028700E+05 -7.765446E+04 -7.337910E+05 -3.774409E-10 -2.849691E-12
       325  16 -9.497803E+05 -9.351501E+04 -7.519247E+04 -2.630879E+05 -1.786732E-09 -8.490598E-10
       325  17 -9.256028E+05  2.879816E+04  4.232456E+04 -4.169057E+05 -5.525040E-10 -1.578776E-09
       325  18 -9.571940E+05 -4.056746E+04  8.116841E+04 -5.428253E+05  4.507433E-10 -5.103446E-11
       325  19 -2.602083E+06 -1.009299E+06 -5.621346E+05 -1.017201E+06  2.712550E+05  8.588855E+04
       325  20 -2.527974E+06 -6.842297E+05 -3.318992E+05 -9.848550E+05  1.718735E+05  1.223457E+04
       325  21 -2.523856E+06 -5.651407E+05 -2.364958E+05 -9.245447E+05  6.274723E+04 -3.560601E+04
       325  22 -1.776278E+06 -5.515627E+05 -3.186162E+05 -6.404073E+05  2.103364E+05  6.304997E+04
       325  23 -1.727112E+06 -3.277831E+05 -1.447534E+05 -7.010639E+05  1.461630E+05  2.592796E+03
       325  24 -1.740840E+06 -3.028675E+05 -7.764271E+04 -7.337929E+05  7.226122E+04 -3.202646E+04
       325  25 -9.497559E+05 -9.350728E+04 -7.514746E+04 -2.630831E+05  1.493305E+05  4.014194E+04
       325  26 -9.255872E+05  2.880211E+04  4.235194E+04 -4.169063E+05  1.204168E+05 -7.068852E+03
       325  27 -9.571866E+05 -4.056479E+04  8.118251E+04 -5.428271E+05  8.178828E+04 -2.844299E+04
       326   1 -2.434736E+06 -5.745405E+05 -2.060888E+05 -9.238345E+05 -5.758578E+04  3.306527E+04
       326   2 -2.357424E+06 -5.238231E+05 -1.585892E+05 -8.911617E+05 -3.803824E+04  3.596120E+04
       326   3 -2.268492E+06 -4.987087E+05 -1.268187E+05 -8.765669E+05 -1.785821E+04  3.717221E+04
       326   4 -1.731096E+06 -3.131014E+05 -5.948267E+04 -7.256536E+05 -6.179261E+04  3.147894E+04
       326   5 -1.736413E+06 -2.956407E+05 -3.141150E+04 -7.184365E+05 -4.452929E+04  3.351921E+04
       326   6 -1.729657E+06 -3.033211E+05 -1.724055E+04 -7.292986E+05 -2.663648E+04  3.387431E+04
       326   7 -1.026946E+06 -5.161742E+04  8.709699E+04 -5.272634E+05 -6.600457E+04  2.989063E+04
       326   8 -1.115007E+06 -6.742581E+04  9.574590E+04 -5.455516E+05 -5.102731E+04  3.107458E+04
       326   9 -1.190527E+06 -1.079117E+05  9.232205E+04 -5.819136E+05 -3.542290E+04  3.057342E+04
       326  10 -2.434740E+06 -5.745426E+05 -2.060971E+05 -9.238329E+05  2.399137E-08  1.006602E-08
       326  11 -2.357426E+06 -5.238248E+05 -1.585944E+05 -8.911606E+05  5.411204E-09  3.268066E-09
       326  12 -2.268492E+06 -4.987102E+05 -1.268219E+05 -8.765664E+05 -1.970296E-08 -6.927592E-09
       326  13 -1.731100E+06 -3.131035E+05 -5.949172E+04 -7.256520E+05  2.007496E-09  1.324269E-09
       326  14 -1.736415E+06 -2.956424E+05 -3.141733E+04 -7.184353E+05  6.571144E-09  3.074442E-09
       326  15 -1.729658E+06 -3.033225E+05 -1.724404E+04 -7.292979E+05  1.822705E-09  1.733722E-09
       326  16 -1.026951E+06 -5.161955E+04  8.708712E+04 -5.272618E+05 -1.995477E-08 -6.874655E-09
       326  17 -1.115010E+06 -6.742754E+04  9.573919E+04 -5.455503E+05  4.533416E-09  3.149635E-09
       326  18 -1.190529E+06 -1.079131E+05  9.231794E+04 -5.819127E+05  2.317684E-08  1.028714E-08
       326  19 -2.434736E+06 -5.745405E+05 -2.060888E+05 -9.238345E+05  5.758578E+04 -3.306527E+04
       326  20 -2.357424E+06 -5.238231E+05 -1.585892E+05 -8.911617E+05  3.803824E+04 -3.596120E+04
       326  21 -2.268492E+06 -4.987087E+05 -1.268187E+05 -8.765669E+05  1.785821E+04 -3.717221E+04
       326  22 -1.731096E+06 -3.131014E+05 -5.948267E+04 -7.256536E+05  6.179261E+04 -3.147894E+04
       326  23 -1.736413E+06 -2.956407E+05 -3.141150E+04 -7.184365E+05  4.452929E+04 -3.351921E+04
       326  24 -1.729657E+06 -3.033211E+05 -1.724055E+04 -7.292986E+05  2.663648E+04 -3.387431E+04
       326  25 -1.026946E+06 -5.161742E+04  8.709699E+04 -5.272634E+05  6.600457E+04 -2.989063E+04
       326  26 -1.115007E+06 -6.742581E+04  9.574590E+04 -5.455516E+05  5.102731E+04 -3.107458E+04
       326  27 -1.190527E+06 -1.079117E+05  9.232205E+04 -5.819136E+05  3.542290E+04 -3.057342E+04
       327   1 -2.208469E+06 -4.786672E+05 -1.102166E+05 -8.611251E+05 -1.435683E+04  3.422582E+04
       327   2 -2.131623E+06 -4.387017E+05 -8.718461E+04 -8.278047E+05 -8.291429E+03  2.937455E+04
       327   3 -2.038123E+06 -4.164071E+05 -6.701651E+04 -8.142901E+05 -2.182154E+03  2.440078E+04
       327   4 -1.728921E+06 -3.037614E+05 -1.298147E+04 -7.288870E+05 -2.281521E+04  3.104937E+04
       327   5 -1.737228E+06 -2.948175E+05 -7.134147E+03 -7.190234E+05 -1.691475E+04  2.613799E+04
       327   6 -1.728858E+06 -3.035120E+05 -4.018719E+03 -7.289680E+05 -1.097100E+04  2.110399E+04
       327   7 -1.249132E+06 -1.288348E+05  8.424352E+04 -5.965532E+05 -3.128069E+04  2.787026E+04
       327   8 -1.342671E+06 -1.509196E+05  7.290930E+04 -6.101776E+05 -2.554401E+04  2.289922E+04
       327   9 -1.419493E+06 -1.906087E+05  5.897459E+04 -6.436065E+05 -1.976457E+04  1.780543E+04
       327  10 -2.208469E+06 -4.786685E+05 -1.102191E+05 -8.611247E+05 -5.533857E-10 -4.772218E-10
       327  11 -2.131624E+06 -4.387026E+05 -8.718636E+04 -8.278045E+05 -7.266217E-10 -3.142112E-10
       327  12 -2.038124E+06 -4.164078E+05 -6.701764E+04 -8.142901E+05 -1.583311E-09 -1.430523E-10
       327  13 -1.728922E+06 -3.037626E+05 -1.298425E+04 -7.288864E+05 -2.146455E-10  5.427293E-10
       327  14 -1.737229E+06 -2.948183E+05 -7.135967E+03 -7.190230E+05 -2.975960E-10  1.834000E-10
       327  15 -1.728858E+06 -3.035125E+05 -4.019781E+03 -7.289678E+05 -1.514584E-09 -3.339147E-11
       327  16 -1.249133E+06 -1.288358E+05  8.424023E+04 -5.965525E+05  4.698417E-10  1.413109E-09
       327  17 -1.342671E+06 -1.509203E+05  7.290709E+04 -6.101771E+05  8.678206E-10  7.504599E-10
       327  18 -1.419494E+06 -1.906091E+05  5.897326E+04 -6.436062E+05  1.493821E-09  7.229846E-10
       327  19 -2.208469E+06 -4.786672E+05 -1.102166E+05 -8.611251E+05  1.435683E+04 -3.422582E+04
       327  20 -2.131623E+06 -4.387017E+05 -8.718461E+04 -8.278047E+05  8.291429E+03 -2.937455E+04
       327  21 -2.038123E+06 -4.164071E+05 -6.701651E+04 -8.142901E+05  2.182154E+03 -2.440078E+04
       327  22 -1.728921E+06 -3.037614E+05 -1.298147E+04 -7.288870E+05  2.281521E+04 -3.104937E+04
       327  23 -1.737228E+06 -2.948175E+05 -7.134147E+03 -7.190234E+05  1.691475E+04 -2.613799E+04
       327  24 -1.728858E+06 -3.035120E+05 -4.018719E+03 -7.289680E+05  1.097100E+04 -2.110399E+04
       327  25 -1.249132E+06 -1.288348E+05  8.424352E+04 -5.965532E+05  3.128069E+04 -2.787026E+04
       327  26 -1.342671E+06 -1.509196E+05  7.290930E+04 -6.101776E+05  2.554401E+04 -2.289922E+04
       327  27 -1.419493E+06 -1.906087E+05  5.897459E+04 -6.436065E+05  1.976457E+04 -1.780543E+04
       328   1 -1.979276E+06 -3.949399E+05 -5.366610E+04 -7.981311E+05 -1.968651E+02  2.087383E+04
       328   2 -1.902319E+06 -3.550948E+05 -3.538822E+04 -7.645684E+05  3.188838E+03  1.480980E+04
       328   3 -1.808161E+06 -3.326058E+05 -1.783957E+04 -7.508865E+05  6.578371E+03  8.732587E+03
       328   4 -1.728747E+06 -3.035357E+05 -3.089461E+03 -7.289488E+05 -8.977500E+03  1.758092E+04
       328   5 -1.737341E+06 -2.948620E+05 -1.922417E+03 -7.190039E+05 -5.609850E+03  1.151090E+04
       328   6 -1.728738E+06 -3.035415E+05 -1.470257E+03 -7.289424E+05 -2.238503E+03  5.427647E+03
       328   7 -1.478155E+06 -2.121268E+05  4.748386E+04 -6.597412E+05 -1.776188E+04  1.428661E+04
       328   8 -1.572335E+06 -2.346269E+05  3.154236E+04 -6.734280E+05 -1.441106E+04  8.211060E+03
       328   9 -1.649309E+06 -2.744763E+05  1.489924E+04 -7.069955E+05 -1.105666E+04  2.122225E+03
       328  10 -1.979276E+06 -3.949403E+05 -5.366692E+04 -7.981311E+05  2.456482E-09  1.259264E-09
       328  11 -1.902319E+06 -3.550950E+05 -3.538865E+04 -7.645685E+05 -8.054138E-09 -4.075327E-09
       328  12 -1.808161E+06 -3.326059E+05 -1.783980E+04 -7.508866E+05 -1.982920E-08 -1.017056E-08
       328  13 -1.728747E+06 -3.035360E+05 -3.090193E+03 -7.289487E+05  1.750512E-11  4.463791E-10
       328  14 -1.737341E+06 -2.948622E+05 -1.922724E+03 -7.190038E+05  1.589724E-11 -6.787568E-10
       328  15 -1.728738E+06 -3.035415E+05 -1.470321E+03 -7.289424E+05 -3.175460E-09 -3.271702E-09
       328  16 -1.478156E+06 -2.121271E+05  4.748289E+04 -6.597410E+05 -2.515091E-09 -5.821245E-10
       328  17 -1.572336E+06 -2.346271E+05  3.154184E+04 -6.734279E+05  7.175626E-09  2.509358E-09
       328  18 -1.649309E+06 -2.744763E+05  1.489900E+04 -7.069955E+05  1.337941E-08  3.680909E-09
       328  19 -1.979276E+06 -3.949399E+05 -5.366610E+04 -7.981311E+05  1.968651E+02 -2.087383E+04
       328  20 -1.902319E+06 -3.550948E+05 -3.538822E+04 -7.645684E+05 -3.188838E+03 -1.480980E+04
       328  21 -1.808161E+06 -3.326058E+05 -1.783957E+04 -7.508865E+05 -6.578371E+03 -8.732587E+03
       328  22 -1.728747E+06 -3.035357E+05 -3.089461E+03 -7.289488E+05  8.977500E+03 -1.758092E+04
       328  23 -1.737341E+06 -2.948620E+05 -1.922417E+03 -7.190039E+05  5.609850E+03 -1.151090E+04
       328  24 -1.728738E+06 -3.035415E+05 -1.470257E+03 -7.289424E+05  2.238503E+03 -5.427647E+03
       328  25 -1.478155E+06 -2.121268E+05  4.748386E+04 -6.597412E+05  1.776188E+04 -1.428661E+04
       328  26 -1.572335E+06 -2.346269E+05  3.154236E+04 -6.734280E+05  1.441106E+04 -8.211060E+03
       328  27 -1.649309E+06 -2.744763E+05  1.489924E+04 -7.069955E+05  1.105666E+04 -2.122225E+03
       329   1 -1.749278E+06 -3.110163E+05 -5.361224E+03 -7.346547E+05  8.231429E+03  5.070471E+03
       329   2 -1.672245E+06 -2.711313E+05  1.140260E+04 -7.010651E+05  1.153085E+04 -1.043814E+03
       329   3 -1.577991E+06 -2.486087E+05  2.750522E+04 -6.873726E+05  1.482767E+04 -7.149890E+03
       329   4 -1.728733E+06 -3.035434E+05 -1.448023E+03 -7.289457E+05 -5.880099E+02  1.764702E+03
       329   5 -1.737341E+06 -2.948526E+05 -1.795818E+03 -7.189997E+05  2.721865E+03 -4.345973E+03
       329   6 -1.728736E+06 -3.035272E+05 -2.813171E+03 -7.289539E+05  6.028993E+03 -1.044846E+04
       329   7 -1.708188E+06 -2.960703E+05  2.465493E+03 -7.232364E+05 -9.407759E+03 -1.541184E+03
       329   8 -1.802431E+06 -3.185735E+05 -1.499403E+04 -7.369325E+05 -6.086091E+03 -7.647748E+03
       329   9 -1.879456E+06 -3.584432E+05 -3.313199E+04 -7.705255E+05 -2.767318E+03 -1.374614E+04
       329  10 -1.749278E+06 -3.110164E+05 -5.361400E+03 -7.346547E+05  1.255221E-08  2.582133E-09
       329  11 -1.672245E+06 -2.711313E+05  1.140234E+04 -7.010651E+05  7.313317E-09  2.626535E-09
       329  12 -1.577991E+06 -2.486088E+05  2.750471E+04 -6.873726E+05 -3.431818E-09 -9.717426E-10
       329  13 -1.728733E+06 -3.035434E+05 -1.448030E+03 -7.289457E+05 -2.966235E-09 -3.213492E-09
       329  14 -1.737341E+06 -2.948527E+05 -1.795867E+03 -7.189997E+05 -3.615005E-10 -8.896109E-10
       329  15 -1.728736E+06 -3.035273E+05 -2.813444E+03 -7.289539E+05  5.446674E-10  4.095467E-10
       329  16 -1.708188E+06 -2.960703E+05  2.465321E+03 -7.232365E+05 -1.903101E-08 -9.035457E-09
       329  17 -1.802431E+06 -3.185735E+05 -1.499421E+04 -7.369325E+05 -6.452876E-09 -3.962276E-09
       329  18 -1.879456E+06 -3.584434E+05 -3.313236E+04 -7.705255E+05  2.673476E-09  1.005700E-09
       329  19 -1.749278E+06 -3.110163E+05 -5.361224E+03 -7.346547E+05 -8.231429E+03 -5.070471E+03
       329  20 -1.672245E+06 -2.711313E+05  1.140260E+04 -7.010651E+05 -1.153085E+04  1.043814E+03
       329  21 -1.577991E+06 -2.486087E+05  2.750522E+04 -6.873726E+05 -1.482767E+04  7.149890E+03
       329  22 -1.728733E+06 -3.035434E+05 -1.448023E+03 -7.289457E+05  5.880099E+02 -1.764702E+03
       329  23 -1.737341E+06 -2.948526E+05 -1.795818E+03 -7.189997E+05 -2.721865E+03  4.345973E+03
       329  24 -1.728736E+06 -3.035272E+05 -2.813171E+03 -7.289539E+05 -6.028993E+03  1.044846E+04
       329  25 -1.708188E+06 -2.960703E+05  2.465493E+03 -7.232364E+05  9.407759E+03  1.541184E+03
       329  26 -1.802431E+06 -3.185735E+05 -1.499403E+04 -7.369325E+05  6.086091E+03  7.647748E+03
       329  27 -1.879456E+06 -3.584432E+05 -3.313199E+04 -7.705255E+05  2.767318E+03  1.374614E+04
       330   1 -1.519209E+06 -2.270551E+05  3.912371E+04 -6.712124E+05  1.678059E+04 -1.069516E+04
       330   2 -1.442204E+06 -1.872714E+05  5.343200E+04 -6.377094E+05  2.223157E+04 -1.593582E+04
       330   3 -1.348401E+06 -1.650960E+05  6.539398E+04 -6.240588E+05  2.764458E+04 -2.106841E+04
       330   4 -1.728829E+06 -3.035082E+05 -3.638425E+03 -7.289760E+05  7.970237E+03 -1.399861E+04
       330   5 -1.737234E+06 -2.947961E+05 -6.421961E+03 -7.190119E+05  1.356615E+04 -1.918634E+04
       330   6 -1.728880E+06 -3.037234E+05 -1.166846E+04 -7.289047E+05  1.912362E+04 -2.426610E+04
       330   7 -1.938405E+06 -3.799583E+05 -4.640294E+04 -7.867220E+05 -8.369815E+02 -1.730089E+04
       330   8 -2.032176E+06 -4.023138E+05 -6.628031E+04 -8.002789E+05  4.905131E+03 -2.243522E+04
       330   9 -2.109210E+06 -4.423387E+05 -8.873784E+04 -8.336911E+05  1.060829E+04 -2.746170E+04
       330  10 -1.519210E+06 -2.270553E+05  3.912297E+04 -6.712123E+05  7.373496E-10  7.534222E-10
       330  11 -1.442205E+06 -1.872718E+05  5.343059E+04 -6.377091E+05  9.702545E-10  8.558992E-10
       330  12 -1.348402E+06 -1.650967E+05  6.539171E+04 -6.240584E+05  1.365334E-09  1.090932E-10
       330  13 -1.728829E+06 -3.035085E+05 -3.638912E+03 -7.289759E+05 -8.746975E-10  1.176207E-10
       330  14 -1.737235E+06 -2.947965E+05 -6.422998E+03 -7.190116E+05  1.616815E-09  1.144489E-09
       330  15 -1.728881E+06 -3.037242E+05 -1.167025E+04 -7.289043E+05  4.205901E-10 -3.850304E-11
       330  16 -1.938405E+06 -3.799587E+05 -4.640350E+04 -7.867220E+05 -9.185556E-10  2.062215E-10
       330  17 -2.032176E+06 -4.023144E+05 -6.628130E+04 -8.002788E+05 -1.935443E-10  4.369847E-10
       330  18 -2.109210E+06 -4.423395E+05 -8.873946E+04 -8.336909E+05 -2.178930E-09 -4.736343E-10
       330  19 -1.519209E+06 -2.270551E+05  3.912371E+04 -6.712124E+05 -1.678059E+04  1.069516E+04
       330  20 -1.442204E+06 -1.872714E+05  5.343200E+04 -6.377094E+05 -2.223157E+04  1.593582E+04
       330  21 -1.348401E+06 -1.650960E+05  6.539398E+04 -6.240588E+05 -2.764458E+04  2.106841E+04
       330  22 -1.728829E+06 -3.035082E+05 -3.638425E+03 -7.289760E+05 -7.970237E+03  1.399861E+04
       330  23 -1.737234E+06 -2.947961E+05 -6.421961E+03 -7.190119E+05 -1.356615E+04  1.918634E+04
       330  24 -1.728880E+06 -3.037234E+05 -1.166846E+04 -7.289047E+05 -1.912362E+04  2.426610E+04
       330  25 -1.938405E+06 -3.799583E+05 -4.640294E+04 -7.867220E+05  8.369815E+02  1.730089E+04
       330  26 -2.032176E+06 -4.023138E+05 -6.628031E+04 -8.002789E+05 -4.905131E+03  2.243522E+04
       330  27 -2.109210E+06 -4.423387E+05 -8.873784E+04 -8.336911E+05 -1.060829E+04  2.746170E+04
       331   1 -1.289625E+06 -1.440634E+05  7.394858E+04 -6.092334E+05  3.151517E+04 -2.388703E+04
       331   2 -1.213712E+06 -1.035315E+05  7.882244E+04 -5.730652E+05  4.578354E+04 -2.501295E+04
       331   3 -1.124750E+06 -8.698915E+04  7.284225E+04 -5.552228E+05  5.948859E+04 -2.462585E+04
       331   4 -1.729542E+06 -3.033318E+05 -1.549346E+04 -7.292814E+05  2.270340E+04 -2.719489E+04
       331   5 -1.736500E+06 -2.955206E+05 -2.821572E+04 -7.184798E+05  3.902842E+04 -2.755146E+04
       331   6 -1.730828E+06 -3.121135E+05 -5.343278E+04 -7.260080E+05  5.478822E+04 -2.639505E+04
       331   7 -2.169257E+06 -4.625834E+05 -1.049440E+05 -8.492501E+05  1.389843E+04 -3.050026E+04
       331   8 -2.259006E+06 -4.874859E+05 -1.352677E+05 -8.637807E+05  3.227943E+04 -3.008765E+04
       331   9 -2.336533E+06 -5.372063E+05 -1.797287E+05 -8.966393E+05  5.009275E+04 -2.816235E+04
       331  10 -1.289626E+06 -1.440643E+05  7.394564E+04 -6.092328E+05  1.617327E-10 -5.471818E-10
       331  11 -1.213715E+06 -1.035328E+05  7.881733E+04 -5.730643E+05  3.828464E-10 -1.814733E-10
       331  12 -1.124754E+06 -8.699075E+04  7.283445E+04 -5.552217E+05 -2.526754E-10  5.028964E-10
       331  13 -1.729543E+06 -3.033327E+05 -1.549582E+04 -7.292809E+05 -3.469511E-11 -3.236200E-10
       331  14 -1.736502E+06 -2.955218E+05 -2.822001E+04 -7.184789E+05 -1.828936E-09 -1.161292E-10
       331  15 -1.730832E+06 -3.121150E+05 -5.343974E+04 -7.260068E+05  5.240907E-10 -1.917425E-10
       331  16 -2.169257E+06 -4.625844E+05 -1.049461E+05 -8.492497E+05 -9.646789E-11 -7.942239E-11
       331  17 -2.259007E+06 -4.874871E+05 -1.352714E+05 -8.637800E+05 -4.630618E-11 -3.073993E-10
       331  18 -2.336536E+06 -5.372078E+05 -1.797349E+05 -8.966381E+05 -7.741877E-10 -3.327374E-10
       331  19 -1.289625E+06 -1.440634E+05  7.394858E+04 -6.092334E+05 -3.151517E+04  2.388703E+04
       331  20 -1.213712E+06 -1.035315E+05  7.882244E+04 -5.730652E+05 -4.578354E+04  2.501295E+04
       331  21 -1.124750E+06 -8.698915E+04  7.284225E+04 -5.552228E+05 -5.948859E+04  2.462585E+04
       331  22 -1.729542E+06 -3.033318E+05 -1.549346E+04 -7.292814E+05 -2.270340E+04  2.719489E+04
       331  23 -1.736500E+06 -2.955206E+05 -2.821572E+04 -7.184798E+05 -3.902842E+04  2.755146E+04
       331  24 -1.730828E+06 -3.121135E+05 -5.343278E+04 -7.260080E+05 -5.478822E+04  2.639505E+04
       331  25 -2.169257E+06 -4.625834E+05 -1.049440E+05 -8.492501E+05 -1.389843E+04  3.050026E+04
       331  26 -2.259006E+06 -4.874859E+05 -1.352677E+05 -8.637807E+05 -3.227943E+04  3.008765E+04
       331  27 -2.336533E+06 -5.372063E+05 -1.797287E+05 -8.966393E+05 -5.009275E+04  2.816235E+04
       332   1 -1.055925E+06 -7.479473E+04  6.883360E+04 -5.675140E+05  7.381953E+04 -2.371998E+04
       332   2 -1.019387E+06 -8.342746E+03  3.576646E+04 -4.508795E+05  1.087412E+05 -5.209684E+03
       332   3 -1.031148E+06 -1.159359E+05 -6.796121E+04 -3.112894E+05  1.349379E+05  3.652683E+04
       332   4 -1.739582E+06 -3.029185E+05 -6.974484E+04 -7.333169E+05  6.434037E+04 -2.728225E+04
       332   5 -1.728140E+06 -3.243929E+05 -1.300253E+05 -7.028821E+05  1.309772E+05  3.130232E+03
       332   6 -1.771392E+06 -5.263589E+05 -2.862091E+05 -6.494810E+05  1.888765E+05  5.676835E+04
       332   7 -2.422763E+06 -5.310239E+05 -2.083471E+05 -8.989604E+05  5.487241E+04 -3.084119E+04
       332   8 -2.436362E+06 -6.403275E+05 -2.958449E+05 -9.545924E+05  1.531854E+05  1.145475E+04
       332   9 -2.511022E+06 -9.365037E+05 -5.044850E+05 -9.872293E+05  2.427431E+05  7.695375E+04
       332  10 -1.055931E+06 -7.479680E+04  6.882230E+04 -5.675126E+05 -6.015613E-10  3.164557E-10
       332  11 -1.019400E+06 -8.345955E+03  3.574416E+04 -4.508790E+05 -5.246455E-11  5.612660E-10
       332  12 -1.031167E+06 -1.159422E+05 -6.799800E+04 -3.112934E+05  7.210803E-10  6.232526E-10
       332  13 -1.739586E+06 -3.029204E+05 -6.975403E+04 -7.333155E+05  1.478812E-09 -7.040708E-11
       332  14 -1.728159E+06 -3.243976E+05 -1.300576E+05 -7.028824E+05 -4.311337E-10  3.995637E-10
       332  15 -1.771432E+06 -5.263720E+05 -2.862825E+05 -6.494897E+05  2.382937E-10  1.808575E-10
       332  16 -2.422766E+06 -5.310257E+05 -2.083546E+05 -8.989590E+05  7.589833E-10  9.132488E-11
       332  17 -2.436387E+06 -6.403340E+05 -2.958895E+05 -9.545938E+05  1.096338E-09 -9.895253E-11
       332  18 -2.511087E+06 -9.365260E+05 -5.046074E+05 -9.872444E+05 -1.715681E-09 -2.029979E-11
       332  19 -1.055925E+06 -7.479473E+04  6.883360E+04 -5.675140E+05 -7.381953E+04  2.371998E+04
       332  20 -1.019387E+06 -8.342746E+03  3.576646E+04 -4.508795E+05 -1.087412E+05  5.209684E+03
       332  21 -1.031148E+06 -1.159359E+05 -6.796121E+04 -3.112894E+05 -1.349379E+05 -3.652683E+04
       332  22 -1.739582E+06 -3.029185E+05 -6.974484E+04 -7.333169E+05 -6.434037E+04  2.728225E+04
       332  23 -1.728140E+06 -3.243929E+05 -1.300253E+05 -7.028821E+05 -1.309772E+05 -3.130232E+03
       332  24 -1.771392E+06 -5.263589E+05 -2.862091E+05 -6.494810E+05 -1.888765E+05 -5.676835E+04
       332  25 -2.422763E+06 -5.310239E+05 -2.083471E+05 -8.989604E+05 -5.487241E+04  3.084119E+04
       332  26 -2.436362E+06 -6.403275E+05 -2.958449E+05 -9.545924E+05 -1.531854E+05 -1.145475E+04
       332  27 -2.511022E+06 -9.365037E+05 -5.044850E+05 -9.872293E+05 -2.427431E+05 -7.695375E+04
       333   1 -8.120355E+04 -2.629242E+04  1.599294E+04  3.303584E+04  1.209834E+05  1.134898E+04
       333   2 -1.730079E+04 -1.870541E+05 -6.875445E+04 -7.858513E+03  8.812049E+04  3.508474E+04
       333   3  9.426274E+04 -1.755493E+05 -8.897980E+04 -8.322363E+04  5.527869E+04  3.619134E+04
       333   4  7.777343E+05  1.867012E+05  2.237745E+05 -5.641793E+04  1.539801E+05  1.137016E+04
       333   5  7.521555E+05  8.937652E+02  1.021899E+05 -3.908563E+04  9.987046E+04  3.508850E+04
       333   6  7.778425E+05 -9.090852E+03  5.980881E+04 -5.621655E+04  4.578857E+04  3.618408E+04
       333   7  1.637366E+06  3.996718E+05  4.315115E+05 -1.459960E+05  1.870222E+05  1.138183E+04
       333   8  1.522166E+06  1.888054E+05  2.730985E+05 -7.035200E+04  1.116348E+05  3.509107E+04
       333   9  1.461862E+06  1.573393E+05  2.085701E+05 -2.917942E+04  3.628813E+04  3.617600E+04
       333  10 -8.121931E+04 -2.629648E+04  1.596519E+04  3.303474E+04  2.109189E-09 -1.441111E-09
       333  11 -1.730946E+04 -1.870575E+05 -6.877135E+04 -7.861003E+03 -1.649817E-09 -5.656750E-11
       333  12  9.425911E+04 -1.755515E+05 -8.898800E+04 -8.322525E+04 -3.219275E-09 -3.162340E-10
       333  13  7.777088E+05  1.866947E+05  2.237297E+05 -5.641934E+04  4.086660E-10  7.236942E-10
       333  14  7.521445E+05  8.897690E+02  1.021689E+05 -3.908845E+04  8.148290E-10 -2.653264E-10
       333  15  7.778399E+05 -9.092821E+03  5.980242E+04 -5.621789E+04  5.612429E-10 -5.657562E-10
       333  16  1.637328E+06  3.996623E+05  4.314457E+05 -1.459977E+05 -7.109309E-10  7.637483E-10
       333  17  1.522153E+06  1.888007E+05  2.730728E+05 -7.035515E+04  1.219760E-09  3.412815E-11
       333  18  1.461860E+06  1.573376E+05  2.085652E+05 -2.918047E+04  4.147036E-09  1.582096E-09
       333  19 -8.120355E+04 -2.629242E+04  1.599294E+04  3.303584E+04 -1.209834E+05 -1.134898E+04
       333  20 -1.730079E+04 -1.870541E+05 -6.875445E+04 -7.858513E+03 -8.812049E+04 -3.508474E+04
       333  21  9.426274E+04 -1.755493E+05 -8.897980E+04 -8.322363E+04 -5.527869E+04 -3.619134E+04
       333  22  7.777343E+05  1.867012E+05  2.237745E+05 -5.641793E+04 -1.539801E+05 -1.137016E+04
       333  23  7.521555E+05  8.937652E+02  1.021899E+05 -3.908563E+04 -9.987046E+04 -3.508850E+04
       333  24  7.778425E+05 -9.090852E+03  5.980881E+04 -5.621655E+04 -4.578857E+04 -3.618408E+04
       333  25  1.637366E+06  3.996718E+05  4.315115E+05 -1.459960E+05 -1.870222E+05 -1.138183E+04
       333  26  1.522166E+06  1.888054E+05  2.730985E+05 -7.035200E+04 -1.116348E+05 -3.509107E+04
       333  27  1.461862E+06  1.573393E+05  2.085701E+05 -2.917942E+04 -3.628813E+04 -3.617600E+04
       334   1  1.542885E+05 -1.396474E+05 -8.663410E+04 -5.325402E+04  4.031172E+04  3.137554E+04
       334   2  2.389112E+05 -1.284981E+05 -8.895005E+04 -3.830952E+04  2.836133E+04  2.766422E+04
       334   3  3.276432E+05 -1.077203E+05 -8.104690E+04 -5.836317E+04  1.640706E+04  2.294717E+04
       334   4  7.674050E+05  9.730486E+03  4.746020E+04 -5.638839E+04  3.733904E+04  3.137131E+04
       334   5  7.652914E+05 -3.446688E+02  2.572136E+04 -3.888815E+04  2.443516E+04  2.766079E+04
       334   6  7.674402E+05 -6.311547E+02  1.485531E+04 -5.638385E+04  1.152904E+04  2.294485E+04
       334   7  1.380873E+06  1.590833E+05  1.815318E+05 -5.952593E+04  3.436343E+04  3.136712E+04
       334   8  1.291931E+06  1.277903E+05  1.403762E+05 -3.946729E+04  2.050569E+04  2.765737E+04
       334   9  1.207418E+06  1.064451E+05  1.107460E+05 -5.440311E+04  6.647609E+03  2.294250E+04
       334  10  1.542865E+05 -1.396489E+05 -8.663901E+04 -5.325504E+04  1.717280E-09 -1.656921E-10
       334  11  2.389101E+05 -1.284991E+05 -8.895300E+04 -3.831015E+04  7.531180E-10 -2.631224E-10
       334  12  3.276428E+05 -1.077209E+05 -8.104840E+04 -5.836347E+04 -8.127043E-10 -3.477120E-10
       334  13  7.674033E+05  9.729055E+03  4.745573E+04 -5.638933E+04  7.871647E-11  1.251043E-09
       334  14  7.652906E+05 -3.456508E+02  2.571880E+04 -3.888869E+04  1.097301E-09  2.997484E-10
       334  15  7.674399E+05 -6.317559E+02  1.485407E+04 -5.638406E+04 -7.226932E-10 -7.899802E-10
       334  16  1.380872E+06  1.590820E+05  1.815277E+05 -5.952680E+04 -1.281814E-09  9.778703E-10
       334  17  1.291930E+06  1.277894E+05  1.403740E+05 -3.946775E+04 -1.263399E-10  7.144804E-11
       334  18  1.207418E+06  1.064445E+05  1.107449E+05 -5.440323E+04  1.425376E-09 -6.490365E-10
       334  19  1.542885E+05 -1.396474E+05 -8.663410E+04 -5.325402E+04 -4.031172E+04 -3.137554E+04
       334  20  2.389112E+05 -1.284981E+05 -8.895005E+04 -3.830952E+04 -2.836133E+04 -2.766422E+04
       334  21  3.276432E+05 -1.077203E+05 -8.104690E+04 -5.836317E+04 -1.640706E+04 -2.294717E+04
       334  22  7.674050E+05  9.730486E+03  4.746020E+04 -5.638839E+04 -3.733904E+04 -3.137131E+04
       334  23  7.652914E+05 -3.446688E+02  2.572136E+04 -3.888815E+04 -2.443516E+04 -2.766079E+04
       334  24  7.674402E+05 -6.311547E+02  1.485531E+04 -5.638385E+04 -1.152904E+04 -2.294485E+04
       334  25  1.380873E+06  1.590833E+05  1.815318E+05 -5.952593E+04 -3.436343E+04 -3.136712E+04
       334  26  1.291931E+06  1.277903E+05  1.403762E+05 -3.946729E+04 -2.050569E+04 -2.765737E+04
       334  27  1.207418E+06  1.064451E+05  1.107460E+05 -5.440311E+04 -6.647609E+03 -2.294250E+04
       335   1  3.963770E+05 -8.970261E+04 -6.896235E+04 -5.661284E+04  1.379530E+04  1.996389E+04
       335   2  4.822960E+05 -6.924837E+04 -5.532708E+04 -3.916003E+04  1.063056E+04  1.505087E+04
       335   3  5.688111E+05 -4.825240E+04 -3.948757E+04 -5.655596E+04  7.463705E+03  1.009833E+04
       335   4  7.666378E+05  3.711377E+02  1.137931E+04 -5.635225E+04  9.216834E+03  1.996226E+04
       335   5  7.663477E+05 -1.183434E+02  6.465675E+03 -3.892840E+04  6.013061E+03  1.504997E+04
       335   6  7.666539E+05 -5.896813E+01  3.782682E+03 -5.635231E+04  2.807603E+03  1.009819E+04
       335   7  1.137027E+06  9.043583E+04  9.171288E+04 -5.609151E+04  4.635670E+03  1.996063E+04
       335   8  1.050475E+06  6.900635E+04  6.825368E+04 -3.869665E+04  1.393476E+03  1.504906E+04
       335   9  9.645333E+05  4.813187E+04  4.705065E+04 -5.614859E+04 -1.849964E+03  1.009805E+04
       335  10  3.963766E+05 -8.970309E+04 -6.896345E+04 -5.661306E+04 -2.852959E-10 -1.064349E-10
       335  11  4.822958E+05 -6.924864E+04 -5.532772E+04 -3.916016E+04  1.659065E-10 -6.686607E-10
       335  12  5.688110E+05 -4.825252E+04 -3.948786E+04 -5.655602E+04  9.150105E-10 -4.022268E-10
       335  13  7.666376E+05  3.706868E+02  1.137841E+04 -5.635240E+04  4.471069E-10 -3.493585E-10
       335  14  7.663476E+05 -1.185964E+02  6.465181E+03 -3.892847E+04 -4.921686E-10 -1.897357E-11
       335  15  7.666539E+05 -5.907979E+01  3.782476E+03 -5.635233E+04  3.531267E-10 -2.945673E-10
       335  16  1.137027E+06  9.043539E+04  9.171209E+04 -5.609159E+04 -5.168734E-12 -4.658105E-10
       335  17  1.050475E+06  6.900610E+04  6.825325E+04 -3.869667E+04  2.242715E-10  1.299384E-10
       335  18  9.645333E+05  4.813176E+04  4.705045E+04 -5.614858E+04 -6.246612E-10 -3.162720E-10
       335  19  3.963770E+05 -8.970261E+04 -6.896235E+04 -5.661284E+04 -1.379530E+04 -1.996389E+04
       335  20  4.822960E+05 -6.924837E+04 -5.532708E+04 -3.916003E+04 -1.063056E+04 -1.505087E+04
       335  21  5.688111E+05 -4.825240E+04 -3.948757E+04 -5.655596E+04 -7.463705E+03 -1.009833E+04
       335  22  7.666378E+05  3.711377E+02  1.137931E+04 -5.635225E+04 -9.216834E+03 -1.996226E+04
       335  23  7.663477E+05 -1.183434E+02  6.465675E+03 -3.892840E+04 -6.013061E+03 -1.504997E+04
       335  24  7.666539E+05 -5.896813E+01  3.782682E+03 -5.635231E+04 -2.807603E+03 -1.009819E+04
       335  25  1.137027E+06  9.043583E+04  9.171288E+04 -5.609151E+04 -4.635670E+03 -1.996063E+04
       335  26  1.050475E+06  6.900635E+04  6.825368E+04 -3.869665E+04 -1.393476E+03 -1.504906E+04
       335  27  9.645333E+05  4.813187E+04  4.705065E+04 -5.614859E+04  1.849964E+03 -1.009805E+04
       336   1  6.379843E+05 -3.125177E+04 -2.480207E+04 -5.644167E+04  6.841737E+03  7.208320E+03
       336   2  7.239593E+05 -1.037631E+04 -7.438112E+03 -3.901064E+04  5.947383E+03  2.254162E+03
       336   3  8.100709E+05  1.052961E+04  1.051571E+04 -5.635710E+04  5.052631E+03 -2.701079E+03
       336   4  7.665551E+05 -1.276079E+01  2.922610E+03 -5.633668E+04  2.201617E+03  7.208446E+03
       336   5  7.664920E+05 -2.673712E+01  1.812351E+03 -3.894801E+04  1.305752E+03  2.254385E+03
       336   6  7.665575E+05 -9.947933E+00  1.292704E+03 -5.633670E+04  4.096120E+02 -2.700729E+03
       336   7  8.951413E+05  3.122518E+04  3.064640E+04 -5.623166E+04 -2.439450E+03  7.208570E+03
       336   8  8.090265E+05  1.032273E+04  1.106279E+04 -3.888538E+04 -3.336191E+03  2.254608E+03
       336   9  7.230460E+05 -1.054961E+04 -7.930327E+03 -5.631631E+04 -4.233087E+03 -2.700380E+03
       336  10  6.379843E+05 -3.125184E+04 -2.480226E+04 -5.644171E+04 -1.959289E-10 -1.591477E-10
       336  11  7.239592E+05 -1.037632E+04 -7.438188E+03 -3.901065E+04 -8.024532E-10  7.411831E-11
       336  12  8.100709E+05  1.052959E+04  1.051565E+04 -5.635709E+04 -6.847978E-10  5.083582E-10
       336  13  7.665550E+05 -1.281791E+01  2.922503E+03 -5.633669E+04 -1.550473E-11 -2.884233E-10
       336  14  7.664920E+05 -2.674304E+01  1.812338E+03 -3.894801E+04  6.791203E-10  9.740862E-11
       336  15  7.665575E+05 -9.955813E+00  1.292690E+03 -5.633670E+04  3.212931E-10  3.766567E-10
       336  16  8.951413E+05  3.122512E+04  3.064629E+04 -5.623165E+04  1.496240E-10 -3.980275E-10
       336  17  8.090265E+05  1.032272E+04  1.106276E+04 -3.888538E+04  1.118971E-10  1.077480E-10
       336  18  7.230460E+05 -1.054963E+04 -7.930374E+03 -5.631632E+04  4.472834E-10  4.428323E-10
       336  19  6.379843E+05 -3.125177E+04 -2.480207E+04 -5.644167E+04 -6.841737E+03 -7.208320E+03
       336  20  7.239593E+05 -1.037631E+04 -7.438112E+03 -3.901064E+04 -5.947383E+03 -2.254162E+03
       336  21  8.100709E+05  1.052961E+04  1.051571E+04 -5.635710E+04 -5.052631E+03  2.701079E+03
       336  22  7.665551E+05 -1.276079E+01  2.922610E+03 -5.633668E+04 -2.201617E+03 -7.208446E+03
       336  23  7.664920E+05 -2.673712E+01  1.812351E+03 -3.894801E+04 -1.305752E+03 -2.254385E+03
       336  24  7.665575E+05 -9.947933E+00  1.292704E+03 -5.633670E+04 -4.096120E+02  2.700729E+03
       336  25  8.951413E+05  3.122518E+04  3.064640E+04 -5.623166E+04  2.439450E+03 -7.208570E+03
       336  26  8.090265E+05  1.032273E+04  1.106279E+04 -3.888538E+04  3.336191E+03 -2.254608E+03
       336  27  7.230460E+05 -1.054961E+04 -7.930327E+03 -5.631631E+04  4.233087E+03  2.700380E+03
       337   1  8.793099E+05  2.747213E+04  2.595098E+04 -5.636019E+04  4.828564E+03 -5.585557E+03
       337   2  9.653992E+05  4.836214E+04  4.450844E+04 -3.890911E+04  4.210045E+03 -1.054351E+04
       337   3  1.051602E+06  6.926472E+04  6.347512E+04 -5.627063E+04  3.592676E+03 -1.550360E+04
       337   4  7.665503E+05 -1.100439E+01  1.190641E+03 -5.634468E+04  1.836572E+02 -5.585335E+03
       337   5  7.664919E+05 -3.106880E+01  1.255215E+03 -3.893804E+04 -4.370096E+02 -1.054382E+04
       337   6  7.665400E+05 -3.775718E+01  1.730811E+03 -5.634467E+04 -1.056443E+03 -1.550443E+04
       337   7  6.538025E+05 -2.749497E+04 -2.357039E+04 -5.632918E+04 -4.460417E+03 -5.585114E+03
       337   8  5.676216E+05 -4.842689E+04 -4.200029E+04 -3.896696E+04 -5.082597E+03 -1.054414E+04
       337   9  4.815546E+05 -6.934558E+04 -6.001825E+04 -5.641869E+04 -5.703459E+03 -1.550526E+04
       337  10  8.793099E+05  2.747209E+04  2.595088E+04 -5.636016E+04 -2.107739E-11  3.376891E-10
       337  11  9.653991E+05  4.836202E+04  4.450820E+04 -3.890907E+04 -2.118989E-10 -2.986143E-10
       337  12  1.051602E+06  6.926446E+04  6.347465E+04 -5.627058E+04 -6.988787E-10 -8.814674E-11
       337  13  7.665502E+05 -1.103791E+01  1.190582E+03 -5.634468E+04  5.733476E-10  3.792722E-10
       337  14  7.664919E+05 -3.118828E+01  1.255006E+03 -3.893804E+04  1.388948E-09  2.249052E-10
       337  15  7.665400E+05 -3.801571E+01  1.730357E+03 -5.634469E+04 -2.048441E-10  1.693036E-11
       337  16  6.538025E+05 -2.749501E+04 -2.357049E+04 -5.632920E+04 -1.211920E-09  2.340858E-10
       337  17  5.676216E+05 -4.842702E+04 -4.200055E+04 -3.896700E+04 -9.709544E-11  8.185359E-11
       337  18  4.815545E+05 -6.934585E+04 -6.001876E+04 -5.641876E+04  1.291869E-09  2.627891E-10
       337  19  8.793099E+05  2.747213E+04  2.595098E+04 -5.636019E+04 -4.828564E+03  5.585557E+03
       337  20  9.653992E+05  4.836214E+04  4.450844E+04 -3.890911E+04 -4.210045E+03  1.054351E+04
       337  21  1.051602E+06  6.926472E+04  6.347512E+04 -5.627063E+04 -3.592676E+03  1.550360E+04
       337  22  7.665503E+05 -1.100439E+01  1.190641E+03 -5.634468E+04 -1.836572E+02  5.585335E+03
       337  23  7.664919E+05 -3.106880E+01  1.255215E+03 -3.893804E+04  4.370096E+02  1.054382E+04
       337  24  7.665400E+05 -3.775718E+01  1.730811E+03 -5.634467E+04  1.056443E+03  1.550443E+04
       337  25  6.538025E+05 -2.749497E+04 -2.357039E+04 -5.632918E+04  4.460417E+03  5.585114E+03
       337  26  5.676216E+05 -4.842689E+04 -4.200029E+04 -3.896696E+04  5.082597E+03  1.054414E+04
       337  27  4.815546E+05 -6.934558E+04 -6.001825E+04 -5.641869E+04  5.703459E+03  1.550526E+04
       338   1  1.121102E+06  8.622380E+04  7.947485E+04 -5.623482E+04  3.263702E+03 -1.839951E+04
       338   2  1.207420E+06  1.071727E+05  9.943303E+04 -3.868156E+04  1.470123E+03 -2.336169E+04
       338   3  1.294147E+06  1.284101E+05  1.206499E+05 -5.608823E+04 -3.209629E+02 -2.827981E+04
       338   4  7.665943E+05 -6.571932E+01  2.155400E+03 -5.637758E+04 -1.407425E+03 -1.840087E+04
       338   5  7.663849E+05 -1.150640E+02  3.534533E+03 -3.889686E+04 -3.158847E+03 -2.336422E+04
       338   6  7.665710E+05  1.176982E+02  6.144350E+03 -5.637759E+04 -4.907532E+03 -2.828347E+04
       338   7  4.122042E+05 -8.636357E+04 -7.517153E+04 -5.652025E+04 -6.075922E+03 -1.840223E+04
       338   8  3.255316E+05 -1.074157E+05 -9.237553E+04 -3.911201E+04 -7.784575E+03 -2.336675E+04
       338   9  2.392559E+05 -1.281931E+05 -1.083777E+05 -5.666672E+04 -9.490259E+03 -2.828714E+04
       338  10  1.121102E+06  8.622343E+04  7.947420E+04 -5.623478E+04 -2.871983E-10  3.691063E-10
       338  11  1.207420E+06  1.071722E+05  9.943200E+04 -3.868153E+04 -1.059812E-09 -4.784631E-10
       338  12  1.294146E+06  1.284093E+05  1.206483E+05 -5.608824E+04  4.859419E-10 -4.916704E-10
       338  13  7.665942E+05 -6.608358E+01  2.154760E+03 -5.637760E+04  7.194303E-10  3.184049E-10
       338  14  7.663847E+05 -1.156531E+02  3.533488E+03 -3.889692E+04  6.308509E-10 -1.049495E-10
       338  15  7.665707E+05  1.168324E+02  6.142801E+03 -5.637770E+04 -2.617183E-12 -4.672602E-10
       338  16  4.122041E+05 -8.636394E+04 -7.517224E+04 -5.652034E+04  5.243419E-10  6.957690E-11
       338  17  3.255314E+05 -1.074164E+05 -9.237667E+04 -3.911215E+04 -2.379480E-10  9.243586E-11
       338  18  2.392556E+05 -1.281940E+05 -1.083793E+05 -5.666694E+04 -7.315170E-10 -7.645108E-11
       338  19  1.121102E+06  8.622380E+04  7.947485E+04 -5.623482E+04 -3.263702E+03  1.839951E+04
       338  20  1.207420E+06  1.071727E+05  9.943303E+04 -3.868156E+04 -1.470123E+03  2.336169E+04
       338  21  1.294147E+06  1.284101E+05  1.206499E+05 -5.608823E+04  3.209629E+02  2.827981E+04
       338  22  7.665943E+05 -6.571932E+01  2.155400E+03 -5.637758E+04  1.407425E+03  1.840087E+04
       338  23  7.663849E+05 -1.150640E+02  3.534533E+03 -3.889686E+04  3.158847E+03  2.336422E+04
       338  24  7.665710E+05  1.176982E+02  6.144350E+03 -5.637759E+04  4.907532E+03  2.828347E+04
       338  25  4.122042E+05 -8.636357E+04 -7.517153E+04 -5.652025E+04  6.075922E+03  1.840223E+04
       338  26  3.255316E+05 -1.074157E+05 -9.237553E+04 -3.911201E+04  7.784575E+03  2.336675E+04
       338  27  2.392559E+05 -1.281931E+05 -1.083777E+05 -5.666672E+04  9.490259E+03  2.828714E+04
       339   1  1.364476E+06  1.449488E+05  1.381217E+05 -5.516283E+04 -1.210136E+03 -3.128855E+04
       339   2  1.450346E+06  1.662502E+05  1.628098E+05 -3.884103E+04 -9.251886E+03 -3.597702E+04
       339   3  1.538852E+06  1.929731E+05  1.941309E+05 -5.767822E+04 -1.729211E+04 -3.948043E+04
       339   4  7.670074E+05 -4.246576E+02  8.002927E+03 -5.642074E+04 -6.153353E+03 -3.129333E+04
       339   5  7.657687E+05 -2.926615E+02  1.380339E+04 -3.884229E+04 -1.307716E+04 -3.598283E+04
       339   6  7.669677E+05  5.070967E+03  2.546656E+04 -5.642501E+04 -1.999831E+04 -3.948668E+04
       339   7  1.698727E+05 -1.458218E+05 -1.221372E+05 -5.767746E+04 -1.109188E+04 -3.129808E+04
       339   8  8.162982E+04 -1.668666E+05 -1.352311E+05 -3.884362E+04 -1.689827E+04 -3.598864E+04
       339   9 -4.360266E+03 -1.828708E+05 -1.432337E+05 -5.517348E+04 -2.270119E+04 -3.949295E+04
       339  10  1.364476E+06  1.449478E+05  1.381199E+05 -5.516286E+04 -1.073300E-10 -5.719081E-10
       339  11  1.450345E+06  1.662488E+05  1.628072E+05 -3.884130E+04 -1.902614E-10 -8.471333E-10
       339  12  1.538852E+06  1.929713E+05  1.941274E+05 -5.767877E+04  9.524965E-10 -1.573811E-09
       339  13  7.670071E+05 -4.257197E+02  8.001015E+03 -5.642090E+04  3.171897E-10 -2.898774E-10
       339  14  7.657681E+05 -2.940982E+02  1.380063E+04 -3.884267E+04 -1.388618E-09 -6.441032E-10
       339  15  7.669668E+05  5.069185E+03  2.546288E+04 -5.642564E+04  7.665801E-10 -1.046781E-09
       339  16  1.698723E+05 -1.458229E+05 -1.221393E+05 -5.767774E+04 -3.737375E-10 -1.808702E-10
       339  17  8.162917E+04 -1.668680E+05 -1.352340E+05 -3.884411E+04 -1.222300E-09  1.339284E-09
       339  18 -4.361239E+03 -1.828726E+05 -1.432376E+05 -5.517420E+04 -3.614990E-10 -1.409417E-10
       339  19  1.364476E+06  1.449488E+05  1.381217E+05 -5.516283E+04  1.210136E+03  3.128855E+04
       339  20  1.450346E+06  1.662502E+05  1.628098E+05 -3.884103E+04  9.251886E+03  3.597702E+04
       339  21  1.538852E+06  1.929731E+05  1.941309E+05 -5.767822E+04  1.729211E+04  3.948043E+04
       339  22  7.670074E+05 -4.246576E+02  8.002927E+03 -5.642074E+04  6.153353E+03  3.129333E+04
       339  23  7.657687E+05 -2.926615E+02  1.380339E+04 -3.884229E+04  1.307716E+04  3.598283E+04
       339  24  7.669677E+05  5.070967E+03  2.546656E+04 -5.642501E+04  1.999831E+04  3.948668E+04
       339  25  1.698727E+05 -1.458218E+05 -1.221372E+05 -5.767746E+04  1.109188E+04  3.129808E+04
       339  26  8.162982E+04 -1.668666E+05 -1.352311E+05 -3.884362E+04  1.689827E+04  3.598864E+04
       339  27 -4.360266E+03 -1.828708E+05 -1.432337E+05 -5.517348E+04  2.270119E+04  3.949295E+04
       340   1  1.615567E+06  2.000211E+05  2.153616E+05 -4.119274E+04 -1.411936E+04 -4.463986E+04
       340   2  1.687952E+06  2.270693E+05  2.609426E+05 -5.514424E+04 -6.818628E+04 -4.248489E+04
       340   3  1.792417E+06  3.527526E+05  3.664032E+05 -1.035766E+05 -1.223112E+05 -1.364336E+04
       340   4  7.725785E+05 -5.040607E+03  3.209168E+04 -5.623118E+04 -2.452952E+04 -4.465561E+04
       340   5  7.586500E+05  2.961907E+02  5.479054E+04 -3.907071E+04 -5.352794E+04 -4.247035E+04
       340   6  7.724930E+05  9.999890E+04  1.200312E+05 -5.638832E+04 -8.257484E+04 -1.358603E+04
       340   7 -6.974462E+04 -2.101485E+05 -1.512203E+05 -7.124913E+04 -3.492574E+04 -4.467087E+04
       340   8 -1.698473E+05 -2.265340E+05 -1.514141E+05 -2.302170E+04 -3.889121E+04 -4.245505E+04
       340   9 -2.464742E+05 -1.528213E+05 -1.264082E+05 -9.277953E+03 -4.290327E+04 -1.352263E+04
       340  10  1.615566E+06  2.000189E+05  2.153575E+05 -4.119325E+04  5.507711E-10 -2.629617E-09
       340  11  1.687947E+06  2.270661E+05  2.609304E+05 -5.514657E+04 -1.671600E-09 -4.530929E-09
       340  12  1.792401E+06  3.527484E+05  3.663748E+05 -1.035780E+05 -2.112996E-09 -1.383916E-09
       340  13  7.725773E+05 -5.042911E+03  3.208680E+04 -5.623206E+04 -6.785990E-10 -5.783217E-09
       340  14  7.586464E+05  2.934850E+02  5.478177E+04 -3.907254E+04  1.757518E-09  2.814983E-09
       340  15  7.724856E+05  9.999688E+04  1.200180E+05 -5.638922E+04 -7.181006E-10 -1.063120E-10
       340  16 -6.974646E+04 -2.101510E+05 -1.512263E+05 -7.125039E+04 -1.625398E-10 -1.526592E-09
       340  17 -1.698494E+05 -2.265364E+05 -1.514204E+05 -2.302303E+04  5.685371E-10  1.462488E-09
       340  18 -2.464762E+05 -1.528220E+05 -1.264120E+05 -9.278420E+03  2.331677E-09 -1.803674E-09
       340  19  1.615567E+06  2.000211E+05  2.153616E+05 -4.119274E+04  1.411936E+04  4.463986E+04
       340  20  1.687952E+06  2.270693E+05  2.609426E+05 -5.514424E+04  6.818628E+04  4.248489E+04
       340  21  1.792417E+06  3.527526E+05  3.664032E+05 -1.035766E+05  1.223112E+05  1.364336E+04
       340  22  7.725785E+05 -5.040607E+03  3.209168E+04 -5.623118E+04  2.452952E+04  4.465561E+04
       340  23  7.586500E+05  2.961907E+02  5.479054E+04 -3.907071E+04  5.352794E+04  4.247035E+04
       340  24  7.724930E+05  9.999890E+04  1.200312E+05 -5.638832E+04  8.257484E+04  1.358603E+04
       340  25 -6.974462E+04 -2.101485E+05 -1.512203E+05 -7.124913E+04  3.492574E+04  4.467087E+04
       340  26 -1.698473E+05 -2.265340E+05 -1.514141E+05 -2.302170E+04  3.889121E+04  4.245505E+04
       340  27 -2.464742E+05 -1.528213E+05 -1.264082E+05 -9.277953E+03  4.290327E+04  1.352263E+04
       341   1  8.041688E+05  3.039010E+06  7.991279E+05 -5.711733E+05  3.267205E+04  1.437165E+05
       341   2  5.274436E+05  2.202946E+06  5.182046E+05 -3.871346E+05  9.247032E+04  4.558811E+04
       341   3  3.265757E+05  1.398856E+06  3.198286E+05 -5.300143E+05  6.876424E+04 -5.259549E+04
       341   4  6.460172E+04  5.980628E+04  7.581416E+04 -5.349557E+05  3.293044E+04  4.845117E+04
       341   5  1.471501E+03  5.138191E+04  3.746950E+04 -3.715618E+05  9.254578E+04  2.888766E+04
       341   6  7.869703E+02  6.084042E+04  2.740662E+04 -5.351291E+05  6.853334E+04  9.137731E+03
       341   7 -6.756077E+05 -2.911299E+06 -6.481064E+05 -4.989033E+05  3.317855E+04 -4.636038E+04
       341   8 -5.248144E+05 -2.095878E+06 -4.435559E+05 -3.560390E+05  9.262058E+04  1.224420E+04
       341   9 -3.251187E+05 -1.275493E+06 -2.651092E+05 -5.402305E+05  6.830112E+04  7.073978E+04
       341  10  8.041621E+05  3.038988E+06  7.990873E+05 -5.711771E+05  8.478121E-10  7.912218E-10
       341  11  5.274338E+05  2.202941E+06  5.181846E+05 -3.871380E+05  1.153458E-10 -3.603558E-09
       341  12  3.265699E+05  1.398852E+06  3.198145E+05 -5.300114E+05  1.751126E-09  2.550917E-09
       341  13  6.459992E+04  5.980347E+04  7.580770E+04 -5.349570E+05  9.922338E-10  1.446852E-11
       341  14  1.462077E+03  5.137872E+04  3.745183E+04 -3.715640E+05  6.076949E-10  1.372412E-09
       341  15  7.819035E+02  6.083907E+04  2.739764E+04 -5.351296E+05  1.222884E-10 -4.511519E-10
       341  16 -6.756094E+05 -2.911301E+06 -6.481126E+05 -4.989021E+05 -1.114244E-10  9.985809E-10
       341  17 -5.248236E+05 -2.095881E+06 -4.435723E+05 -3.560399E+05  8.574311E-10  4.585902E-09
       341  18 -3.251251E+05 -1.275500E+06 -2.651274E+05 -5.402344E+05 -1.327063E-09 -2.601813E-09
       341  19  8.041688E+05  3.039010E+06  7.991279E+05 -5.711733E+05 -3.267205E+04 -1.437165E+05
       341  20  5.274436E+05  2.202946E+06  5.182046E+05 -3.871346E+05 -9.247032E+04 -4.558811E+04
       341  21  3.265757E+05  1.398856E+06  3.198286E+05 -5.300143E+05 -6.876424E+04  5.259549E+04
       341  22  6.460172E+04  5.980628E+04  7.581416E+04 -5.349557E+05 -3.293044E+04 -4.845117E+04
       341  23  1.471501E+03  5.138191E+04  3.746950E+04 -3.715618E+05 -9.254578E+04 -2.888766E+04
       341  24  7.869703E+02  6.084042E+04  2.740662E+04 -5.351291E+05 -6.853334E+04 -9.137731E+03
       341  25 -6.756077E+05 -2.911299E+06 -6.481064E+05 -4.989033E+05 -3.317855E+04  4.636038E+04
       341  26 -5.248144E+05 -2.095878E+06 -4.435559E+05 -3.560390E+05 -9.262058E+04 -1.224420E+04
       341  27 -3.251187E+05 -1.275493E+06 -2.651092E+05 -5.402305E+05 -6.830112E+04 -7.073978E+04
       342   1  1.716691E+05  7.341368E+05  1.741316E+05 -5.401340E+05  3.393063E+04 -3.416405E+04
       342   2 -3.214385E+04 -8.541353E+04 -5.055328E+03 -3.699868E+05 -7.262468E+03 -4.697065E+04
       342   3 -2.241527E+05 -9.022360E+05 -1.736371E+05 -5.303265E+05 -4.812645E+04 -5.975243E+04
       342   4  6.711952E+03  5.764044E+04  2.567323E+04 -5.358665E+05  3.377344E+04  4.609683E+03
       342   5  2.439582E+03  5.653167E+04  2.589020E+04 -3.706215E+05 -7.413851E+03 -8.526122E+03
       342   6  1.006662E+04  5.757185E+04  3.696207E+04 -5.358530E+05 -4.827421E+04 -2.165333E+04
       342   7 -1.582750E+05 -6.184248E+05 -1.228074E+05 -5.316032E+05  3.361668E+04  4.334171E+04
       342   8  3.702247E+04  1.984989E+05  5.684006E+04 -3.712563E+05 -7.565294E+03  2.992709E+04
       342   9  2.442252E+05  1.018246E+06  2.475107E+05 -5.413870E+05 -4.842251E+04  1.650403E+04
       342  10  1.716676E+05  7.341352E+05  1.741272E+05 -5.401330E+05 -9.038528E-11  4.691028E-09
       342  11 -3.214450E+04 -8.541591E+04 -5.059575E+03 -3.699871E+05  1.011631E-09 -4.591398E-09
       342  12 -2.241562E+05 -9.022405E+05 -1.736482E+05 -5.303288E+05 -6.626771E-10  3.196470E-09
       342  13  6.710721E+03  5.764012E+04  2.567105E+04 -5.358667E+05 -4.020340E-10 -2.187935E-12
       342  14  2.439503E+03  5.653157E+04  2.588995E+04 -3.706215E+05  1.993835E-09  1.736033E-09
       342  15  1.006400E+04  5.757072E+04  3.695681E+04 -5.358539E+05  3.359942E-09 -4.110573E-10
       342  16 -1.582767E+05 -6.184271E+05 -1.228130E+05 -5.316044E+05 -1.347071E-09 -1.145768E-09
       342  17  3.702217E+04  1.984979E+05  5.683827E+04 -3.712561E+05 -2.898626E-09  5.399041E-09
       342  18  2.442226E+05  1.018245E+06  2.475058E+05 -5.413864E+05 -1.015699E-10 -2.950144E-09
       342  19  1.716691E+05  7.341368E+05  1.741316E+05 -5.401340E+05 -3.393063E+04  3.416405E+04
       342  20 -3.214385E+04 -8.541353E+04 -5.055328E+03 -3.699868E+05  7.262468E+03  4.697065E+04
       342  21 -2.241527E+05 -9.022360E+05 -1.736371E+05 -5.303265E+05  4.812645E+04  5.975243E+04
       342  22  6.711952E+03  5.764044E+04  2.567323E+04 -5.358665E+05 -3.377344E+04 -4.609683E+03
       342  23  2.439582E+03  5.653167E+04  2.589020E+04 -3.706215E+05  7.413851E+03  8.526122E+03
       342  24  1.006662E+04  5.757185E+04  3.696207E+04 -5.358530E+05  4.827421E+04  2.165333E+04
       342  25 -1.582750E+05 -6.184248E+05 -1.228074E+05 -5.316032E+05 -3.361668E+04 -4.334171E+04
       342  26  3.702247E+04  1.984989E+05  5.684006E+04 -3.712563E+05  7.565294E+03 -2.992709E+04
       342  27  2.442252E+05  1.018246E+06  2.475107E+05 -5.413870E+05  4.842251E+04 -1.650403E+04
       343   1 -3.977307E+05 -1.555439E+06 -3.101085E+05 -5.487730E+05 -8.337497E+04 -9.142556E+04
       343   2 -5.942640E+05 -2.384070E+06 -4.732880E+05 -3.451723E+05 -1.057296E+05 -4.374702E+04
       343   3 -6.828948E+05 -3.190893E+06 -6.406101E+05 -4.683069E+05 -3.709927E+04  4.044669E+03
       343   4 -2.683550E+03  6.467163E+04  4.422247E+04 -5.350837E+05 -8.360033E+04 -2.831698E+04
       343   5  1.423691E+03  4.618298E+04  7.064285E+04 -3.716188E+05 -1.056356E+05 -6.565630E+04
       343   6  1.280068E+05  6.350176E+04  1.519433E+05 -5.347620E+05 -3.685177E+04 -1.028217E+05
       343   7  3.921915E+05  1.687254E+06  3.984099E+05 -5.213549E+05 -8.382254E+04  3.495460E+04
       343   8  5.967111E+05  2.481953E+06  6.142031E+05 -3.981648E+05 -1.055400E+05 -8.765030E+04
       343   9  9.381486E+05  3.327625E+06  9.437730E+05 -6.015586E+05 -3.658218E+04 -2.102478E+05
       343  10 -3.977404E+05 -1.555450E+06 -3.101374E+05 -5.487791E+05  6.084034E-11  2.513489E-09
       343  11 -5.942765E+05 -2.384075E+06 -4.733126E+05 -3.451761E+05 -8.983971E-10 -4.414878E-09
       343  12 -6.828962E+05 -3.190894E+06 -6.406128E+05 -4.683068E+05 -8.195602E-10  6.550018E-10
       343  13 -2.691273E+03  6.466889E+04  4.420782E+04 -5.350856E+05 -2.038104E-09  5.654490E-11
       343  14  1.410545E+03  4.617535E+04  7.061376E+04 -3.716244E+05 -5.203254E-10  1.325812E-09
       343  15  1.280025E+05  6.349003E+04  1.519208E+05 -5.347651E+05 -1.195769E-09 -1.741767E-10
       343  16  3.921837E+05  1.687250E+06  3.983944E+05 -5.213525E+05  1.035754E-09  6.743316E-10
       343  17  5.966971E+05  2.481942E+06  6.141678E+05 -3.981722E+05 -1.741612E-09  4.794758E-09
       343  18  9.381354E+05  3.327578E+06  9.436878E+05 -6.015648E+05 -1.698491E-09 -5.848169E-10
       343  19 -3.977307E+05 -1.555439E+06 -3.101085E+05 -5.487730E+05  8.337497E+04  9.142556E+04
       343  20 -5.942640E+05 -2.384070E+06 -4.732880E+05 -3.451723E+05  1.057296E+05  4.374702E+04
       343  21 -6.828948E+05 -3.190893E+06 -6.406101E+05 -4.683069E+05  3.709927E+04 -4.044669E+03
       343  22 -2.683550E+03  6.467163E+04  4.422247E+04 -5.350837E+05  8.360033E+04  2.831698E+04
       343  23  1.423691E+03  4.618298E+04  7.064285E+04 -3.716188E+05  1.056356E+05  6.565630E+04
       343  24  1.280068E+05  6.350176E+04  1.519433E+05 -5.347620E+05  3.685177E+04  1.028217E+05
       343  25  3.921915E+05  1.687254E+06  3.984099E+05 -5.213549E+05  8.382254E+04 -3.495460E+04
       343  26  5.967111E+05  2.481953E+06  6.142031E+05 -3.981648E+05  1.055400E+05  8.765030E+04
       343  27  9.381486E+05  3.327625E+06  9.437730E+05 -6.015586E+05  3.658218E+04  2.102478E+05
       344   1 -1.799635E+06 -7.276681E+05 -4.060080E+05 -7.106123E+05 -1.835178E+05 -5.568148E+04
       344   2 -1.723207E+06 -5.071873E+05 -2.463821E+05 -6.781550E+05 -1.155880E+05 -4.014732E+02
       344   3 -1.685894E+06 -4.235994E+05 -1.775122E+05 -6.353306E+05 -3.936950E+04  3.292154E+04
       344   4 -1.076796E+06 -3.635073E+05 -1.997124E+05 -4.181518E+05 -1.329801E+05 -3.669588E+04
       344   5 -1.049149E+06 -2.201462E+05 -9.075514E+04 -4.526081E+05 -9.504079E+04  7.315731E+03
       344   6 -1.054609E+06 -2.076578E+05 -4.868273E+04 -4.767183E+05 -4.882847E+04  2.936158E+04
       344   7 -3.534107E+05  8.293718E+02  6.548762E+03 -1.253360E+05 -8.237737E+04 -1.766686E+04
       344   8 -3.746203E+05  6.697702E+04  6.484483E+04 -2.268191E+05 -7.446932E+04  1.504527E+04
       344   9 -4.229161E+05  8.304345E+03  8.012690E+04 -3.179625E+05 -5.829782E+04  2.579832E+04
       344  10 -1.799672E+06 -7.276806E+05 -4.060773E+05 -7.106206E+05 -4.674178E-10  6.296471E-12
       344  11 -1.723222E+06 -5.071909E+05 -2.464073E+05 -6.781551E+05 -3.821031E-10 -2.263225E-09
       344  12 -1.685896E+06 -4.236010E+05 -1.775172E+05 -6.353296E+05 -1.883114E-09  9.430071E-10
       344  13 -1.076816E+06 -3.635135E+05 -1.997482E+05 -4.181557E+05  2.588304E-10  1.245938E-09
       344  14 -1.049159E+06 -2.201487E+05 -9.077224E+04 -4.526076E+05 -4.745302E-11  6.738844E-10
       344  15 -1.054612E+06 -2.076594E+05 -4.868883E+04 -4.767172E+05 -1.864559E-10 -5.683194E-10
       344  16 -3.534181E+05  8.272133E+02  6.535415E+03 -1.253371E+05  6.024983E-10 -8.835779E-11
       344  17 -3.746263E+05  6.697529E+04  6.483398E+04 -2.268182E+05  4.667644E-10  1.110665E-09
       344  18 -4.229200E+05  8.302718E+03  8.011927E+04 -3.179613E+05  9.341298E-10  2.455349E-10
       344  19 -1.799635E+06 -7.276681E+05 -4.060080E+05 -7.106123E+05  1.835178E+05  5.568148E+04
       344  20 -1.723207E+06 -5.071873E+05 -2.463821E+05 -6.781550E+05  1.155880E+05  4.014732E+02
       344  21 -1.685894E+06 -4.235994E+05 -1.775122E+05 -6.353306E+05  3.936950E+04 -3.292154E+04
       344  22 -1.076796E+06 -3.635073E+05 -1.997124E+05 -4.181518E+05  1.329801E+05  3.669588E+04
       344  23 -1.049149E+06 -2.201462E+05 -9.075514E+04 -4.526081E+05  9.504079E+04 -7.315731E+03
       344  24 -1.054609E+06 -2.076578E+05 -4.868273E+04 -4.767183E+05  4.882847E+04 -2.936158E+04
       344  25 -3.534107E+05  8.293718E+02  6.548762E+03 -1.253360E+05  8.237737E+04  1.766686E+04
       344  26 -3.746203E+05  6.697702E+04  6.484483E+04 -2.268191E+05  7.446932E+04 -1.504527E+04
       344  27 -4.229161E+05  8.304345E+03  8.012690E+04 -3.179625E+05  5.829782E+04 -2.579832E+04
       345   1 -1.607642E+06 -4.213285E+05 -1.537708E+05 -6.287429E+05 -3.677364E+04  2.941945E+04
       345   2 -1.530273E+06 -3.744360E+05 -1.170173E+05 -5.956627E+05 -2.330319E+04  2.956453E+04
       345   3 -1.439221E+06 -3.501893E+05 -9.052434E+04 -5.813236E+05 -9.298142E+03  2.828519E+04
       345   4 -1.048452E+06 -2.141065E+05 -3.729789E+04 -4.716736E+05 -4.170966E+04  2.756041E+04
       345   5 -1.055033E+06 -1.999069E+05 -1.970129E+04 -4.634479E+05 -3.017876E+04  2.697828E+04
       345   6 -1.047550E+06 -2.079646E+05 -1.081860E+04 -4.739658E+05 -1.811513E+04  2.497164E+04
       345   7 -4.889445E+05 -6.858268E+03  7.915717E+04 -3.144740E+05 -4.665042E+04  2.569955E+04
       345   8 -5.795603E+05 -2.535821E+04  7.760332E+04 -3.311394E+05 -3.706000E+04  2.438990E+04
       345   9 -6.557181E+05 -6.572629E+04  6.888058E+04 -3.665447E+05 -2.693817E+04  2.165585E+04
       345  10 -1.607644E+06 -4.213297E+05 -1.537750E+05 -6.287420E+05 -2.198462E-09  3.410016E-10
       345  11 -1.530273E+06 -3.744371E+05 -1.170199E+05 -5.956621E+05  6.661052E-09  2.278356E-09
       345  12 -1.439221E+06 -3.501902E+05 -9.052601E+04 -5.813234E+05  6.475276E-09  1.632319E-09
       345  13 -1.048454E+06 -2.141078E+05 -3.730259E+04 -4.716727E+05  1.214602E-09  1.830511E-09
       345  14 -1.055034E+06 -1.999079E+05 -1.970437E+04 -4.634473E+05  7.757228E-09  1.280823E-09
       345  15 -1.047551E+06 -2.079654E+05 -1.082039E+04 -4.739655E+05  2.303117E-09  1.151390E-09
       345  16 -4.889470E+05 -6.859560E+03  7.915184E+04 -3.144730E+05  8.151639E-09  1.158220E-09
       345  17 -5.795619E+05 -2.535922E+04  7.759963E+04 -3.311387E+05  7.114008E-09  4.235214E-09
       345  18 -6.557190E+05 -6.572698E+04  6.887833E+04 -3.665442E+05 -1.218223E-09  3.781844E-10
       345  19 -1.607642E+06 -4.213285E+05 -1.537708E+05 -6.287429E+05  3.677364E+04 -2.941945E+04
       345  20 -1.530273E+06 -3.744360E+05 -1.170173E+05 -5.956627E+05  2.330319E+04 -2.956453E+04
       345  21 -1.439221E+06 -3.501893E+05 -9.052434E+04 -5.813236E+05  9.298142E+03 -2.828519E+04
       345  22 -1.048452E+06 -2.141065E+05 -3.729789E+04 -4.716736E+05  4.170966E+04 -2.756041E+04
       345  23 -1.055033E+06 -1.999069E+05 -1.970129E+04 -4.634479E+05  3.017876E+04 -2.697828E+04
       345  24 -1.047550E+06 -2.079646E+05 -1.081860E+04 -4.739658E+05  1.811513E+04 -2.497164E+04
       345  25 -4.889445E+05 -6.858268E+03  7.915717E+04 -3.144740E+05  4.665042E+04 -2.569955E+04
       345  26 -5.795603E+05 -2.535821E+04  7.760332E+04 -3.311394E+05  3.706000E+04 -2.438990E+04
       345  27 -6.557181E+05 -6.572629E+04  6.888058E+04 -3.665447E+05  2.693817E+04 -2.165585E+04
       346   1 -1.379585E+06 -3.295396E+05 -7.547199E+04 -5.655422E+05 -6.653153E+03  2.500384E+04
       346   2 -1.302689E+06 -2.895676E+05 -5.462646E+04 -5.320813E+05 -1.923091E+03  1.960763E+04
       346   3 -1.208882E+06 -2.671595E+05 -3.560491E+04 -5.184285E+05  2.842005E+03  1.411422E+04
       346   4 -1.047090E+06 -2.082349E+05 -8.148824E+03 -4.737027E+05 -1.518871E+04  2.179699E+04
       346   5 -1.055535E+06 -1.993878E+05 -4.487423E+03 -4.638235E+05 -1.059069E+04  1.635233E+04
       346   6 -1.047052E+06 -2.080783E+05 -2.544521E+03 -4.737544E+05 -5.957999E+03  1.081040E+04
       346   7 -7.144806E+05 -8.692088E+04  5.916912E+04 -3.818178E+05 -2.372919E+04  1.858829E+04
       346   8 -8.083199E+05 -1.092033E+05  4.564859E+04 -3.955408E+05 -1.926197E+04  1.309566E+04
       346   9 -8.851951E+05 -1.489952E+05  3.051450E+04 -4.290699E+05 -1.476040E+04  7.505676E+03
       346  10 -1.379585E+06 -3.295403E+05 -7.547325E+04 -5.655420E+05  4.296506E-10 -1.466228E-09
       346  11 -1.302689E+06 -2.895680E+05 -5.462719E+04 -5.320813E+05  1.869629E-09 -2.103008E-11
       346  12 -1.208882E+06 -2.671597E+05 -3.560530E+04 -5.184285E+05  1.356089E-09  6.417291E-11
       346  13 -1.047090E+06 -2.082355E+05 -8.150149E+03 -4.737025E+05 -4.091565E-10  4.781509E-11
       346  14 -1.055536E+06 -1.993882E+05 -4.488135E+03 -4.638234E+05 -3.522631E-10  3.290914E-10
       346  15 -1.047052E+06 -2.080784E+05 -2.544807E+03 -4.737544E+05 -2.831936E-10 -7.517591E-13
       346  16 -7.144813E+05 -8.692140E+04  5.916742E+04 -3.818175E+05 -2.550791E-11  7.768870E-10
       346  17 -8.083203E+05 -1.092036E+05  4.564757E+04 -3.955406E+05 -1.447759E-09  1.189307E-10
       346  18 -8.851954E+05 -1.489954E+05  3.051399E+04 -4.290698E+05 -1.530872E-09  7.331198E-13
       346  19 -1.379585E+06 -3.295396E+05 -7.547199E+04 -5.655422E+05  6.653153E+03 -2.500384E+04
       346  20 -1.302689E+06 -2.895676E+05 -5.462646E+04 -5.320813E+05  1.923091E+03 -1.960763E+04
       346  21 -1.208882E+06 -2.671595E+05 -3.560491E+04 -5.184285E+05 -2.842005E+03 -1.411422E+04
       346  22 -1.047090E+06 -2.082349E+05 -8.148824E+03 -4.737027E+05  1.518871E+04 -2.179699E+04
       346  23 -1.055535E+06 -1.993878E+05 -4.487423E+03 -4.638235E+05  1.059069E+04 -1.635233E+04
       346  24 -1.047052E+06 -2.080783E+05 -2.544521E+03 -4.737544E+05  5.957999E+03 -1.081040E+04
       346  25 -7.144806E+05 -8.692088E+04  5.916912E+04 -3.818178E+05  2.372919E+04 -1.858829E+04
       346  26 -8.083199E+05 -1.092033E+05  4.564859E+04 -3.955408E+05  1.926197E+04 -1.309566E+04
       346  27 -8.851951E+05 -1.489952E+05  3.051450E+04 -4.290699E+05  1.476040E+04 -7.505676E+03
       347   1 -1.150078E+06 -2.456495E+05 -2.261496E+04 -5.022195E+05  4.607193E+03  1.050603E+04
       347   2 -1.073244E+06 -2.058280E+05 -4.835457E+03 -4.686530E+05  7.655642E+03  4.323051E+03
       347   3 -9.791749E+05 -1.833415E+05  1.246717E+04 -4.549102E+05  1.070617E+04 -1.865628E+03
       347   4 -1.046990E+06 -2.080888E+05 -1.969699E+03 -4.737361E+05 -4.178351E+03  7.208005E+03
       347   5 -1.055605E+06 -1.994291E+05 -1.263725E+03 -4.638192E+05 -1.138308E+03  1.021924E+03
       347   6 -1.046991E+06 -2.081042E+05 -1.028628E+03 -4.737296E+05  1.903708E+03 -5.169866E+03
       347   7 -9.438909E+05 -1.705269E+05  1.867561E+04 -4.452481E+05 -1.296554E+04  3.909370E+03
       347   8 -1.037964E+06 -1.930301E+05  2.308343E+03 -4.589853E+05 -9.932564E+03 -2.279316E+03
       347   9 -1.114802E+06 -2.328665E+05 -1.452432E+04 -4.925470E+05 -6.897723E+03 -8.473716E+03
       347  10 -1.150078E+06 -2.456496E+05 -2.261521E+04 -5.022195E+05 -3.578507E-10 -6.886297E-10
       347  11 -1.073244E+06 -2.058280E+05 -4.835602E+03 -4.686531E+05  6.268327E-11 -1.822435E-10
       347  12 -9.791751E+05 -1.833415E+05  1.246695E+04 -4.549102E+05  3.727515E-10  2.499097E-10
       347  13 -1.046990E+06 -2.080889E+05 -1.969830E+03 -4.737361E+05 -1.691312E-10 -1.006570E-10
       347  14 -1.055605E+06 -1.994291E+05 -1.263730E+03 -4.638192E+05  6.648408E-11  7.206817E-10
       347  15 -1.046991E+06 -2.081042E+05 -1.028685E+03 -4.737296E+05 -9.179369E-10  3.763382E-10
       347  16 -9.438910E+05 -1.705269E+05  1.867527E+04 -4.452481E+05  6.344686E-10  3.384723E-10
       347  17 -1.037964E+06 -1.930302E+05  2.308148E+03 -4.589853E+05  3.150490E-10  1.189671E-09
       347  18 -1.114802E+06 -2.328666E+05 -1.452454E+04 -4.925470E+05 -4.946172E-10 -2.609130E-11
       347  19 -1.150078E+06 -2.456495E+05 -2.261496E+04 -5.022195E+05 -4.607193E+03 -1.050603E+04
       347  20 -1.073244E+06 -2.058280E+05 -4.835457E+03 -4.686530E+05 -7.655642E+03 -4.323051E+03
       347  21 -9.791749E+05 -1.833415E+05  1.246717E+04 -4.549102E+05 -1.070617E+04  1.865628E+03
       347  22 -1.046990E+06 -2.080888E+05 -1.969699E+03 -4.737361E+05  4.178351E+03 -7.208005E+03
       347  23 -1.055605E+06 -1.994291E+05 -1.263725E+03 -4.638192E+05  1.138308E+03 -1.021924E+03
       347  24 -1.046991E+06 -2.081042E+05 -1.028628E+03 -4.737296E+05 -1.903708E+03  5.169866E+03
       347  25 -9.438909E+05 -1.705269E+05  1.867561E+04 -4.452481E+05  1.296554E+04 -3.909370E+03
       347  26 -1.037964E+06 -1.930301E+05  2.308343E+03 -4.589853E+05  9.932564E+03  2.279316E+03
       347  27 -1.114802E+06 -2.328665E+05 -1.452432E+04 -4.925470E+05  6.897723E+03  8.473716E+03
       348   1 -9.204527E+05 -1.617907E+05  2.486048E+04 -4.386776E+05  1.228252E+04 -5.543929E+03
       348   2 -8.436903E+05 -1.220001E+05  4.157233E+04 -4.051353E+05  1.536771E+04 -1.171300E+04
       348   3 -7.497079E+05 -9.952572E+04  5.778212E+04 -3.913952E+05  1.844976E+04 -1.786967E+04
       348   4 -1.046998E+06 -2.081032E+05 -1.049961E+03 -4.737251E+05  3.482108E+03 -8.847662E+03
       348   5 -1.055610E+06 -1.994482E+05 -1.385380E+03 -4.638231E+05  6.583054E+03 -1.501181E+04
       348   6 -1.047011E+06 -2.081134E+05 -2.235366E+03 -4.737264E+05  9.680770E+03 -2.116359E+04
       348   7 -1.173526E+06 -2.544139E+05 -2.696061E+04 -5.087658E+05 -5.316306E+03 -1.215064E+04
       348   8 -1.267482E+06 -2.768924E+05 -4.434501E+04 -5.224924E+05 -2.198376E+03 -1.830941E+04
       348   9 -1.344226E+06 -3.166944E+05 -6.225754E+04 -5.560218E+05  9.162301E+02 -2.445585E+04
       348  10 -9.204529E+05 -1.617908E+05  2.486014E+04 -4.386775E+05 -1.027792E-09  1.090709E-10
       348  11 -8.436906E+05 -1.220003E+05  4.157163E+04 -4.051352E+05 -1.168662E-09  5.649254E-10
       348  12 -7.497083E+05 -9.952615E+04  5.778088E+04 -3.913949E+05 -6.351877E-10  7.372148E-10
       348  13 -1.046998E+06 -2.081033E+05 -1.050130E+03 -4.737251E+05 -8.767801E-10  1.272792E-10
       348  14 -1.055610E+06 -1.994485E+05 -1.385885E+03 -4.638231E+05 -1.385571E-09 -3.171844E-11
       348  15 -1.047011E+06 -2.081139E+05 -2.236383E+03 -4.737263E+05 -6.120882E-10 -1.971071E-10
       348  16 -1.173526E+06 -2.544141E+05 -2.696094E+04 -5.087658E+05  5.394484E-10  5.745952E-10
       348  17 -1.267482E+06 -2.768928E+05 -4.434565E+04 -5.224924E+05  1.370985E-10  6.037177E-10
       348  18 -1.344226E+06 -3.166951E+05 -6.225867E+04 -5.560218E+05 -2.846656E-10  4.627476E-10
       348  19 -9.204527E+05 -1.617907E+05  2.486048E+04 -4.386776E+05 -1.228252E+04  5.543929E+03
       348  20 -8.436903E+05 -1.220001E+05  4.157233E+04 -4.051353E+05 -1.536771E+04  1.171300E+04
       348  21 -7.497079E+05 -9.952572E+04  5.778212E+04 -3.913952E+05 -1.844976E+04  1.786967E+04
       348  22 -1.046998E+06 -2.081032E+05 -1.049961E+03 -4.737251E+05 -3.482108E+03  8.847662E+03
       348  23 -1.055610E+06 -1.994482E+05 -1.385380E+03 -4.638231E+05 -6.583054E+03  1.501181E+04
       348  24 -1.047011E+06 -2.081134E+05 -2.235366E+03 -4.737264E+05 -9.680770E+03  2.116359E+04
       348  25 -1.173526E+06 -2.544139E+05 -2.696061E+04 -5.087658E+05  5.316306E+03  1.215064E+04
       348  26 -1.267482E+06 -2.768924E+05 -4.434501E+04 -5.224924E+05  2.198376E+03  1.830941E+04
       348  27 -1.344226E+06 -3.166944E+05 -6.225754E+04 -5.560218E+05 -9.162301E+02  2.445585E+04
       349   1 -6.911525E+05 -7.803151E+04  6.949374E+04 -3.752360E+05  2.029369E+04 -2.143816E+04
       349   2 -6.145115E+05 -3.834772E+04  8.426293E+04 -3.417821E+05  2.509201E+04 -2.688347E+04
       349   3 -5.209897E+05 -1.615632E+04  9.718796E+04 -3.280695E+05  2.984725E+04 -3.220527E+04
       349   4 -1.047093E+06 -2.080998E+05 -2.909802E+03 -4.737393E+05  1.151076E+04 -2.473824E+04
       349   5 -1.055543E+06 -1.994388E+05 -5.170799E+03 -4.638344E+05  1.647504E+04 -3.012326E+04
       349   6 -1.047151E+06 -2.083048E+05 -9.408413E+03 -4.736749E+05  2.139585E+04 -3.538483E+04
       349   7 -1.402903E+06 -3.381573E+05 -7.531938E+04 -5.721903E+05  2.733263E+03 -2.803630E+04
       349   8 -1.496371E+06 -3.605125E+05 -9.461342E+04 -5.858061E+05  7.864700E+03 -3.336058E+04
       349   9 -1.573022E+06 -4.004281E+05 -1.160171E+05 -6.191651E+05  1.295223E+04 -3.856150E+04
       349  10 -6.911531E+05 -7.803212E+04  6.949211E+04 -3.752356E+05 -1.767753E-10  3.348094E-10
       349  11 -6.145124E+05 -3.834867E+04  8.426039E+04 -3.417815E+05 -4.546106E-10  1.375431E-10
       349  12 -5.209909E+05 -1.615767E+04  9.718433E+04 -3.280687E+05 -2.279617E-10 -2.129662E-10
       349  13 -1.047094E+06 -2.081005E+05 -2.911200E+03 -4.737390E+05 -1.198159E-09  3.112822E-10
       349  14 -1.055543E+06 -1.994398E+05 -5.173013E+03 -4.638340E+05  1.563708E-10  2.235854E-10
       349  15 -1.047152E+06 -2.083063E+05 -9.411624E+03 -4.736743E+05  2.194924E-10 -1.029552E-09
       349  16 -1.402904E+06 -3.381581E+05 -7.532087E+04 -5.721903E+05 -2.873459E-10 -1.956384E-10
       349  17 -1.496372E+06 -3.605138E+05 -9.461563E+04 -5.858059E+05  1.273777E-09 -8.093730E-10
       349  18 -1.573023E+06 -4.004297E+05 -1.160202E+05 -6.191647E+05  9.594101E-10 -1.106831E-09
       349  19 -6.911525E+05 -7.803151E+04  6.949374E+04 -3.752360E+05 -2.029369E+04  2.143816E+04
       349  20 -6.145115E+05 -3.834772E+04  8.426293E+04 -3.417821E+05 -2.509201E+04  2.688347E+04
       349  21 -5.209897E+05 -1.615632E+04  9.718796E+04 -3.280695E+05 -2.984725E+04  3.220527E+04
       349  22 -1.047093E+06 -2.080998E+05 -2.909802E+03 -4.737393E+05 -1.151076E+04  2.473824E+04
       349  23 -1.055543E+06 -1.994388E+05 -5.170799E+03 -4.638344E+05 -1.647504E+04  3.012326E+04
       349  24 -1.047151E+06 -2.083048E+05 -9.408413E+03 -4.736749E+05 -2.139585E+04  3.538483E+04
       349  25 -1.402903E+06 -3.381573E+05 -7.531938E+04 -5.721903E+05 -2.733263E+03  2.803630E+04
       349  26 -1.496371E+06 -3.605125E+05 -9.461342E+04 -5.858061E+05 -7.864700E+03  3.336058E+04
       349  27 -1.573022E+06 -4.004281E+05 -1.160171E+05 -6.191651E+05 -1.295223E+04  3.856150E+04
       350   1 -4.624500E+05  4.927540E+03  1.064319E+05 -3.129669E+05  3.335136E+04 -3.514668E+04
       350   2 -3.867808E+05  4.523071E+04  1.138239E+05 -2.774002E+05  4.449033E+04 -3.728012E+04
       350   3 -2.971162E+05  6.307891E+04  1.130650E+05 -2.602928E+05  5.497282E+04 -3.765440E+04
       350   4 -1.047688E+06 -2.079879E+05 -1.249387E+04 -4.739668E+05  2.455462E+04 -3.845755E+04
       350   5 -1.054969E+06 -2.000743E+05 -2.276389E+04 -4.634083E+05  3.808966E+04 -3.969294E+04
       350   6 -1.048743E+06 -2.150991E+05 -4.309378E+04 -4.713147E+05  5.096652E+04 -3.916868E+04
       350   7 -1.632578E+06 -4.208768E+05 -1.314379E+05 -6.348281E+05  1.576673E+04 -4.176515E+04
       350   8 -1.722701E+06 -4.453418E+05 -1.593751E+05 -6.492320E+05  3.169637E+04 -4.210298E+04
       350   9 -1.799791E+06 -4.932268E+05 -1.992826E+05 -6.820998E+05  4.696542E+04 -4.068096E+04
       350  10 -4.624516E+05  4.925916E+03  1.064275E+05 -3.129660E+05  8.887246E-11 -1.438979E-09
       350  11 -3.867833E+05  4.522869E+04  1.138176E+05 -2.773989E+05 -1.454661E-09 -6.370366E-10
       350  12 -2.971199E+05  6.307658E+04  1.130567E+05 -2.602911E+05 -5.090949E-10 -2.117862E-09
       350  13 -1.047689E+06 -2.079896E+05 -1.249778E+04 -4.739661E+05  1.515574E-09 -5.779284E-10
       350  14 -1.054971E+06 -2.000764E+05 -2.276957E+04 -4.634071E+05 -1.437406E-09 -1.735235E-10
       350  15 -1.048746E+06 -2.151014E+05 -4.310154E+04 -4.713131E+05  5.493263E-10 -5.346417E-10
       350  16 -1.632578E+06 -4.208788E+05 -1.314416E+05 -6.348275E+05  1.077164E-09 -2.182156E-10
       350  17 -1.722703E+06 -4.453439E+05 -1.593803E+05 -6.492309E+05  6.246149E-10  2.302851E-09
       350  18 -1.799793E+06 -4.932292E+05 -1.992899E+05 -6.820983E+05  1.879211E-09  2.705981E-09
       350  19 -4.624500E+05  4.927540E+03  1.064319E+05 -3.129669E+05 -3.335136E+04  3.514668E+04
       350  20 -3.867808E+05  4.523071E+04  1.138239E+05 -2.774002E+05 -4.449033E+04  3.728012E+04
       350  21 -2.971162E+05  6.307891E+04  1.130650E+05 -2.602928E+05 -5.497282E+04  3.765440E+04
       350  22 -1.047688E+06 -2.079879E+05 -1.249387E+04 -4.739668E+05 -2.455462E+04  3.845755E+04
       350  23 -1.054969E+06 -2.000743E+05 -2.276389E+04 -4.634083E+05 -3.808966E+04  3.969294E+04
       350  24 -1.048743E+06 -2.150991E+05 -4.309378E+04 -4.713147E+05 -5.096652E+04  3.916868E+04
       350  25 -1.632578E+06 -4.208768E+05 -1.314379E+05 -6.348281E+05 -1.576673E+04  4.176515E+04
       350  26 -1.722701E+06 -4.453418E+05 -1.593751E+05 -6.492320E+05 -3.169637E+04  4.210298E+04
       350  27 -1.799791E+06 -4.932268E+05 -1.992826E+05 -6.820998E+05 -4.696542E+04  4.068096E+04
       351   1 -2.301994E+05  7.718891E+04  1.121965E+05 -2.668441E+05  6.856530E+04 -3.704640E+04
       351   2 -1.869890E+05  1.386978E+05  9.256232E+04 -1.670807E+05  8.421354E+04 -2.364592E+04
       351   3 -1.774486E+05  5.940403E+04  2.510930E+04 -5.204494E+04  8.965696E+04  1.683326E+04
       351   4 -1.055874E+06 -2.076354E+05 -5.624752E+04 -4.771227E+05  5.897315E+04 -4.066288E+04
       351   5 -1.048169E+06 -2.234868E+05 -1.048617E+05 -4.509051E+05  1.116674E+05 -1.331782E+04
       351   6 -1.081568E+06 -3.876240E+05 -2.307419E+05 -4.094043E+05  1.541441E+05  4.111857E+04
       351   7 -1.880849E+06 -4.924218E+05 -2.247256E+05 -6.871514E+05  4.939474E+04 -4.427491E+04
       351   8 -1.908576E+06 -5.855429E+05 -3.023275E+05 -7.343411E+05  1.390797E+05 -3.010312E+03
       351   9 -1.984828E+06 -8.343928E+05 -4.866432E+05 -7.662216E+05  2.185270E+05  6.533662E+04
       351  10 -2.302048E+05  7.718618E+04  1.121851E+05 -2.668421E+05  2.408109E-09 -1.631571E-10
       351  11 -1.869968E+05  1.386953E+05  9.254794E+04 -1.670791E+05 -5.294747E-09 -3.092705E-09
       351  12 -1.774573E+05  5.940157E+04  2.509366E+04 -5.204615E+04 -7.451305E-09 -9.832711E-10
       351  13 -1.055878E+06 -2.076381E+05 -5.625717E+04 -4.771208E+05 -3.703075E-09 -2.567831E-09
       351  14 -1.048182E+06 -2.234904E+05 -1.048855E+05 -4.509039E+05 -6.085829E-09 -2.572925E-09
       351  15 -1.081594E+06 -3.876322E+05 -2.307898E+05 -4.094094E+05 -3.618595E-09 -4.772840E-10
       351  16 -1.880852E+06 -4.924245E+05 -2.247339E+05 -6.871496E+05 -8.217552E-09  3.083076E-10
       351  17 -1.908597E+06 -5.855481E+05 -3.023640E+05 -7.343408E+05 -9.618620E-09  1.400124E-10
       351  18 -1.984880E+06 -8.344102E+05 -4.867413E+05 -7.662331E+05  1.682231E-09  1.442745E-09
       351  19 -2.301994E+05  7.718891E+04  1.121965E+05 -2.668441E+05 -6.856530E+04  3.704640E+04
       351  20 -1.869890E+05  1.386978E+05  9.256232E+04 -1.670807E+05 -8.421354E+04  2.364592E+04
       351  21 -1.774486E+05  5.940403E+04  2.510930E+04 -5.204494E+04 -8.965696E+04 -1.683326E+04
       351  22 -1.055874E+06 -2.076354E+05 -5.624752E+04 -4.771227E+05 -5.897315E+04  4.066288E+04
       351  23 -1.048169E+06 -2.234868E+05 -1.048617E+05 -4.509051E+05 -1.116674E+05  1.331782E+04
       351  24 -1.081568E+06 -3.876240E+05 -2.307419E+05 -4.094043E+05 -1.541441E+05 -4.111857E+04
       351  25 -1.880849E+06 -4.924218E+05 -2.247256E+05 -6.871514E+05 -4.939474E+04  4.427491E+04
       351  26 -1.908576E+06 -5.855429E+05 -3.023275E+05 -7.343411E+05 -1.390797E+05  3.010312E+03
       351  27 -1.984828E+06 -8.343928E+05 -4.866432E+05 -7.662216E+05 -2.185270E+05 -6.533662E+04
       352   1  1.460501E+05  4.092989E+04  1.280230E+04 -2.880020E+04 -7.433155E+04 -8.917059E+03
       352   2  1.151212E+05  1.478106E+05  6.844418E+04  1.721167E+02 -5.506090E+04 -2.801063E+04
       352   3  5.385277E+04  1.431893E+05  8.370645E+04  4.700615E+04 -3.582667E+04 -2.999191E+04
       352   4 -5.093538E+05 -1.216005E+05 -1.456746E+05  2.892731E+04 -1.001760E+05 -8.976863E+03
       352   5 -4.927539E+05 -6.763772E+02 -6.653773E+04  1.985672E+04 -6.491760E+04 -2.803621E+04
       352   6 -5.093075E+05  5.904055E+03 -3.891778E+04  2.865041E+04 -2.969327E+04 -2.997810E+04
       352   7 -1.164356E+06 -2.841492E+05 -3.041780E+05  8.659349E+04 -1.259932E+05 -9.041509E+03
       352   8 -1.100283E+06 -1.491868E+05 -2.015420E+05  3.952165E+04 -7.476473E+04 -2.806244E+04
       352   9 -1.072170E+06 -1.314011E+05 -1.615608E+05  1.031136E+04 -2.356534E+04 -2.996466E+04
       352  10  1.460441E+05  4.092833E+04  1.279177E+04 -2.880073E+04 -1.735769E-12 -2.345280E-10
       352  11  1.151177E+05  1.478090E+05  6.843701E+04  1.708748E+02  1.762346E-09 -3.496773E-09
       352  12  5.385115E+04  1.431880E+05  8.370235E+04  4.700529E+04  3.724023E-09 -4.100274E-09
       352  13 -5.093646E+05 -1.216032E+05 -1.456937E+05  2.892658E+04 -2.170293E-10  1.720405E-09
       352  14 -4.927586E+05 -6.783535E+02 -6.654713E+04  1.985525E+04 -4.913766E-10 -1.643179E-09
       352  15 -5.093087E+05  5.902853E+03 -3.892113E+04  2.864969E+04  6.188243E-10 -2.937889E-11
       352  16 -1.164373E+06 -2.841536E+05 -3.042081E+05  8.659257E+04 -9.803185E-10  8.864626E-10
       352  17 -1.100289E+06 -1.491891E+05 -2.015540E+05  3.951996E+04 -2.007994E-09 -5.406943E-09
       352  18 -1.072171E+06 -1.314022E+05 -1.615635E+05  1.031079E+04 -1.575673E-09 -7.085984E-09
       352  19  1.460501E+05  4.092989E+04  1.280230E+04 -2.880020E+04  7.433155E+04  8.917059E+03
       352  20  1.151212E+05  1.478106E+05  6.844418E+04  1.721167E+02  5.506090E+04  2.801063E+04
       352  21  5.385277E+04  1.431893E+05  8.370645E+04  4.700615E+04  3.582667E+04  2.999191E+04
       352  22 -5.093538E+05 -1.216005E+05 -1.456746E+05  2.892731E+04  1.001760E+05  8.976863E+03
       352  23 -4.927539E+05 -6.763772E+02 -6.653773E+04  1.985672E+04  6.491760E+04  2.803621E+04
       352  24 -5.093075E+05  5.904055E+03 -3.891778E+04  2.865041E+04  2.969327E+04  2.997810E+04
       352  25 -1.164356E+06 -2.841492E+05 -3.041780E+05  8.659349E+04  1.259932E+05  9.041509E+03
       352  26 -1.100283E+06 -1.491868E+05 -2.015420E+05  3.952165E+04  7.476473E+04  2.806244E+04
       352  27 -1.072170E+06 -1.314011E+05 -1.615608E+05  1.031136E+04  2.356534E+04  2.996466E+04
       353   1  2.325578E+04  1.218499E+05  8.417963E+04  2.766684E+04 -2.542933E+04 -2.699776E+04
       353   2 -2.163443E+04  1.170655E+05  8.778057E+04  2.003237E+04 -1.775142E+04 -2.530063E+04
       353   3 -6.910661E+04  1.061286E+05  8.483571E+04  3.104390E+04 -1.007729E+04 -2.282603E+04
       353   4 -5.025391E+05 -6.337789E+03 -3.088844E+04  2.890541E+04 -2.420877E+04 -2.699646E+04
       353   5 -5.011751E+05  2.256846E+02 -1.674960E+04  1.957283E+04 -1.580959E+04 -2.529690E+04
       353   6 -5.025224E+05  5.085825E+02 -9.661670E+03  2.888727E+04 -7.413625E+03 -2.281964E+04
       353   7 -1.028075E+06 -1.345440E+05 -1.459732E+05  3.014274E+04 -2.298921E+04 -2.699515E+04
       353   8 -9.805002E+05 -1.166294E+05 -1.212936E+05  1.911351E+04 -1.386924E+04 -2.529318E+04
       353   9 -9.357620E+05 -1.051239E+05 -1.041703E+05  2.673203E+04 -4.751794E+03 -2.281327E+04
       353  10  2.325489E+04  1.218490E+05  8.417704E+04  2.766629E+04 -3.835402E-09 -5.596764E-09
       353  11 -2.163494E+04  1.170647E+05  8.777877E+04  2.003200E+04 -2.723630E-09  2.717098E-09
       353  12 -6.910686E+04  1.061280E+05  8.483455E+04  3.104371E+04 -1.155815E-09  3.494503E-09
       353  13 -5.025399E+05 -6.338729E+03 -3.089091E+04  2.890488E+04  7.931954E-10 -4.035607E-09
       353  14 -5.011755E+05  2.249304E+02 -1.675128E+04  1.957251E+04  1.243824E-09  1.164162E-09
       353  15 -5.025226E+05  5.080087E+02 -9.662752E+03  2.888713E+04  1.736963E-10 -2.609020E-09
       353  16 -1.028076E+06 -1.345449E+05 -1.459756E+05  3.014224E+04  3.710492E-09 -7.452261E-10
       353  17 -9.805005E+05 -1.166302E+05 -1.212952E+05  1.911323E+04  1.968142E-09  1.146552E-09
       353  18 -9.357622E+05 -1.051245E+05 -1.041714E+05  2.673194E+04  2.495994E-09  5.891305E-10
       353  19  2.325578E+04  1.218499E+05  8.417963E+04  2.766684E+04  2.542933E+04  2.699776E+04
       353  20 -2.163443E+04  1.170655E+05  8.778057E+04  2.003237E+04  1.775142E+04  2.530063E+04
       353  21 -6.910661E+04  1.061286E+05  8.483571E+04  3.104390E+04  1.007729E+04  2.282603E+04
       353  22 -5.025391E+05 -6.337789E+03 -3.088844E+04  2.890541E+04  2.420877E+04  2.699646E+04
       353  23 -5.011751E+05  2.256846E+02 -1.674960E+04  1.957283E+04  1.580959E+04  2.529690E+04
       353  24 -5.025224E+05  5.085825E+02 -9.661670E+03  2.888727E+04  7.413625E+03  2.281964E+04
       353  25 -1.028075E+06 -1.345440E+05 -1.459732E+05  3.014274E+04  2.298921E+04  2.699515E+04
       353  26 -9.805002E+05 -1.166294E+05 -1.212936E+05  1.911351E+04  1.386924E+04  2.529318E+04
       353  27 -9.357620E+05 -1.051239E+05 -1.041703E+05  2.673203E+04  4.751794E+03  2.281327E+04
       354   1 -1.059266E+05  9.633724E+04  7.874058E+04  2.991992E+04 -8.362185E+03 -2.120287E+04
       354   2 -1.521856E+05  8.533204E+04  7.190965E+04  2.045006E+04 -6.313289E+03 -1.856478E+04
       354   3 -1.988694E+05  7.408567E+04  6.366094E+04  2.977300E+04 -4.265819E+03 -1.588679E+04
       354   4 -5.020094E+05 -1.383934E+02 -7.407744E+03  2.892515E+04 -5.914970E+03 -2.119675E+04
       354   5 -5.017875E+05  1.572154E+02 -4.221263E+03  1.952791E+04 -3.830019E+03 -1.855806E+04
       354   6 -5.019990E+05  2.052654E+02 -2.478284E+03  2.892411E+04 -1.746344E+03 -1.587945E+04
       354   7 -8.979450E+05 -9.662444E+04 -9.356545E+04  2.793091E+04 -3.469295E+03 -2.119063E+04
       354   8 -8.512748E+05 -8.502573E+04 -8.035949E+04  1.860620E+04 -1.348129E+03 -1.855135E+04
       354   9 -8.050425E+05 -7.368125E+04 -6.862302E+04  2.807558E+04  7.719164E+02 -1.587213E+04
       354  10 -1.059267E+05  9.633674E+04  7.873961E+04  2.991978E+04 -2.856282E-09  5.815099E-09
       354  11 -1.521858E+05  8.533166E+04  7.190893E+04  2.044996E+04 -1.611313E-09  3.027012E-09
       354  12 -1.988695E+05  7.408539E+04  6.366043E+04  2.977294E+04  4.331332E-09 -1.129405E-09
       354  13 -5.020095E+05 -1.388852E+02 -7.408654E+03  2.892505E+04  8.175859E-10 -3.480525E-09
       354  14 -5.017876E+05  1.568417E+02 -4.221937E+03  1.952785E+04 -8.284558E-10  4.469166E-09
       354  15 -5.019991E+05  2.049939E+02 -2.478763E+03  2.892409E+04 -1.886482E-10  7.332201E-09
       354  16 -8.979452E+05 -9.662492E+04 -9.356631E+04  2.793085E+04  2.148057E-09  3.129019E-09
       354  17 -8.512749E+05 -8.502610E+04 -8.036014E+04  1.860618E+04 -1.041372E-09  6.040964E-09
       354  18 -8.050426E+05 -7.368152E+04 -6.862349E+04  2.807559E+04 -3.485130E-09  1.674238E-09
       354  19 -1.059266E+05  9.633724E+04  7.874058E+04  2.991992E+04  8.362185E+03  2.120287E+04
       354  20 -1.521856E+05  8.533204E+04  7.190965E+04  2.045006E+04  6.313289E+03  1.856478E+04
       354  21 -1.988694E+05  7.408567E+04  6.366094E+04  2.977300E+04  4.265819E+03  1.588679E+04
       354  22 -5.020094E+05 -1.383934E+02 -7.407744E+03  2.892515E+04  5.914970E+03  2.119675E+04
       354  23 -5.017875E+05  1.572154E+02 -4.221263E+03  1.952791E+04  3.830019E+03  1.855806E+04
       354  24 -5.019990E+05  2.052654E+02 -2.478284E+03  2.892411E+04  1.746344E+03  1.587945E+04
       354  25 -8.979450E+05 -9.662444E+04 -9.356545E+04  2.793091E+04  3.469295E+03  2.119063E+04
       354  26 -8.512748E+05 -8.502573E+04 -8.035949E+04  1.860620E+04  1.348129E+03  1.855135E+04
       354  27 -8.050425E+05 -7.368125E+04 -6.862302E+04  2.807558E+04 -7.719164E+02  1.587213E+04
       355   1 -2.363353E+05  6.486542E+04  5.578010E+04  2.964612E+04 -3.866581E+03 -1.431944E+04
       355   2 -2.829214E+05  5.348088E+04  4.643971E+04  2.007672E+04 -3.268993E+03 -1.162991E+04
       355   3 -3.296941E+05  4.219567E+04  3.670294E+04  2.938549E+04 -2.672210E+03 -8.935626E+03
       355   4 -5.019402E+05  1.781474E+02 -1.930156E+03  2.894335E+04 -1.353514E+03 -1.431188E+04
       355   5 -5.018420E+05  1.408184E+02 -1.234065E+03  1.950403E+04 -7.518134E+02 -1.162202E+04
       355   6 -5.019340E+05  2.020353E+02 -9.374828E+02  2.894328E+04 -1.508734E+02 -8.927404E+03
       355   7 -7.674788E+05 -6.451380E+04 -5.964461E+04  2.824083E+04  1.158491E+03 -1.430431E+04
       355   8 -7.207176E+05 -5.320242E+04 -4.891070E+04  1.893151E+04  1.764490E+03 -1.161413E+04
       355   9 -6.741460E+05 -4.179358E+04 -3.857967E+04  2.850117E+04  2.369773E+03 -8.919185E+03
       355  10 -2.363354E+05  6.486520E+04  5.577969E+04  2.964608E+04  3.958117E-09  1.113868E-11
       355  11 -2.829214E+05  5.348073E+04  4.643944E+04  2.007669E+04 -6.748897E-11  6.979422E-09
       355  12 -3.296941E+05  4.219558E+04  3.670278E+04  2.938547E+04 -2.078445E-10  7.168738E-09
       355  13 -5.019402E+05  1.779270E+02 -1.930544E+03  2.894334E+04  1.146330E-09  1.764775E-09
       355  14 -5.018420E+05  1.406732E+02 -1.234320E+03  1.950402E+04  4.966391E-10  6.372054E-09
       355  15 -5.019340E+05  2.019497E+02 -9.376326E+02  2.894328E+04 -5.727121E-10  1.358193E-10
       355  16 -7.674789E+05 -6.451402E+04 -5.964499E+04  2.824085E+04 -5.161649E-09  9.472892E-10
       355  17 -7.207177E+05 -5.320257E+04 -4.891096E+04  1.893153E+04 -1.716431E-09  1.417114E-09
       355  18 -6.741461E+05 -4.179366E+04 -3.857983E+04  2.850119E+04  2.072443E-09 -2.560199E-09
       355  19 -2.363353E+05  6.486542E+04  5.578010E+04  2.964612E+04  3.866581E+03  1.431944E+04
       355  20 -2.829214E+05  5.348088E+04  4.643971E+04  2.007672E+04  3.268993E+03  1.162991E+04
       355  21 -3.296941E+05  4.219567E+04  3.670294E+04  2.938549E+04  2.672210E+03  8.935626E+03
       355  22 -5.019402E+05  1.781474E+02 -1.930156E+03  2.894335E+04  1.353514E+03  1.431188E+04
       355  23 -5.018420E+05  1.408184E+02 -1.234065E+03  1.950403E+04  7.518134E+02  1.162202E+04
       355  24 -5.019340E+05  2.020353E+02 -9.374828E+02  2.894328E+04  1.508734E+02  8.927404E+03
       355  25 -7.674788E+05 -6.451380E+04 -5.964461E+04  2.824083E+04 -1.158491E+03  1.430431E+04
       355  26 -7.207176E+05 -5.320242E+04 -4.891070E+04  1.893151E+04 -1.764490E+03  1.161413E+04
       355  27 -6.741460E+05 -4.179358E+04 -3.857967E+04  2.850117E+04 -2.369773E+03  8.919185E+03
       356   1 -3.673453E+05  3.297090E+04  2.827558E+04  2.929507E+04 -2.512191E+03 -7.366028E+03
       356   2 -4.140374E+05  2.154458E+04  1.807224E+04  1.968979E+04 -2.003433E+03 -4.667264E+03
       356   3 -4.609240E+05  1.022449E+04  7.526920E+03  2.901176E+04 -1.495005E+03 -1.967987E+03
       356   4 -5.019327E+05  2.031255E+02 -9.042809E+02  2.895414E+04  1.082682E+01 -7.357663E+03
       356   5 -5.018335E+05  1.516229E+02 -1.048168E+03  1.949043E+04  5.199259E+02 -4.658776E+03
       356   6 -5.019303E+05  2.065965E+02 -1.534053E+03  2.895413E+04  1.028735E+03 -1.959367E+03
       356   7 -6.365031E+05 -3.256584E+04 -3.008519E+04  2.861327E+04  2.533304E+03 -7.349300E+03
       356   8 -5.896224E+05 -2.124184E+04 -2.016902E+04  1.929109E+04  3.042933E+03 -4.650288E+03
       356   9 -5.429350E+05 -9.811404E+03 -1.059511E+04  2.889650E+04  3.552309E+03 -1.950746E+03
       356  10 -3.673453E+05  3.297084E+04  2.827546E+04  2.929506E+04  6.271355E-09  2.891024E-09
       356  11 -4.140374E+05  2.154455E+04  1.807219E+04  1.968978E+04  5.558272E-10 -2.979329E-09
       356  12 -4.609241E+05  1.022448E+04  7.526909E+03  2.901176E+04 -5.661993E-10 -3.649095E-09
       356  13 -5.019327E+05  2.030674E+02 -9.043826E+02  2.895414E+04  1.939102E-09  7.881629E-09
       356  14 -5.018335E+05  1.515996E+02 -1.048209E+03  1.949043E+04  1.523352E-09 -5.616864E-10
       356  15 -5.019303E+05  2.065921E+02 -1.534062E+03  2.895413E+04 -1.259965E-09 -4.312587E-09
       356  16 -6.365031E+05 -3.256590E+04 -3.008531E+04  2.861328E+04 -6.192726E-09  2.910144E-09
       356  17 -5.896224E+05 -2.124186E+04 -2.016907E+04  1.929110E+04 -3.033142E-09 -2.622765E-09
       356  18 -5.429350E+05 -9.811412E+03 -1.059514E+04  2.889651E+04  3.027097E-09 -4.630775E-09
       356  19 -3.673453E+05  3.297090E+04  2.827558E+04  2.929507E+04  2.512191E+03  7.366028E+03
       356  20 -4.140374E+05  2.154458E+04  1.807224E+04  1.968979E+04  2.003433E+03  4.667264E+03
       356  21 -4.609240E+05  1.022449E+04  7.526920E+03  2.901176E+04  1.495005E+03  1.967987E+03
       356  22 -5.019327E+05  2.031255E+02 -9.042809E+02  2.895414E+04 -1.082682E+01  7.357663E+03
       356  23 -5.018335E+05  1.516229E+02 -1.048168E+03  1.949043E+04 -5.199259E+02  4.658776E+03
       356  24 -5.019303E+05  2.065965E+02 -1.534053E+03  2.895413E+04 -1.028735E+03  1.959367E+03
       356  25 -6.365031E+05 -3.256584E+04 -3.008519E+04  2.861327E+04 -2.533304E+03  7.349300E+03
       356  26 -5.896224E+05 -2.124184E+04 -2.016902E+04  1.929109E+04 -3.042933E+03  4.650288E+03
       356  27 -5.429350E+05 -9.811404E+03 -1.059511E+04  2.889650E+04 -3.552309E+03  1.950746E+03
       357   1 -4.986703E+05  1.007764E+03 -1.349800E+03  2.886441E+04 -1.192786E+03 -3.941818E+02
       357   2 -5.452698E+05 -1.041664E+04 -1.272166E+04  1.927909E+04  4.246123E+02  2.305591E+03
       357   3 -5.922762E+05 -2.199693E+04 -2.522405E+04  2.862673E+04  2.042099E+03  4.985722E+03
       357   4 -5.019766E+05  2.290908E+02 -1.938953E+03  2.895507E+04  1.336633E+03 -3.855220E+02
       357   5 -5.017746E+05  1.840596E+02 -3.245247E+03  1.948906E+04  2.935684E+03  2.314121E+03
       357   6 -5.019783E+05 -1.349652E+01 -5.669122E+03  2.895592E+04  4.534942E+03  4.994133E+03
       357   7 -5.052828E+05 -5.495798E+02 -2.528082E+03  2.904574E+04  3.866039E+03 -3.768614E+02
       357   8 -4.582776E+05  1.078463E+04  6.231080E+03  1.969905E+04  5.446929E+03  2.322654E+03
       357   9 -4.116728E+05  2.196940E+04  1.388534E+04  2.928515E+04  7.028144E+03  5.002545E+03
       357  10 -4.986703E+05  1.007764E+03 -1.349803E+03  2.886441E+04 -4.224353E-09  1.077544E-09
       357  11 -5.452698E+05 -1.041664E+04 -1.272167E+04  1.927909E+04 -4.126204E-09 -2.713470E-10
       357  12 -5.922762E+05 -2.199695E+04 -2.522410E+04  2.862672E+04 -1.812117E-09  1.127777E-09
       357  13 -5.019766E+05  2.290902E+02 -1.938956E+03  2.895508E+04  1.260330E-09 -4.702818E-10
       357  14 -5.017746E+05  1.840515E+02 -3.245273E+03  1.948905E+04 -4.575322E-10  2.433953E-09
       357  15 -5.019783E+05 -1.352882E+01 -5.669207E+03  2.895590E+04 -3.144463E-10  3.212271E-09
       357  16 -5.052828E+05 -5.495839E+02 -2.528110E+03  2.904574E+04  3.801075E-09  2.377913E-09
       357  17 -4.582776E+05  1.078462E+04  6.231014E+03  1.969904E+04  2.669425E-09 -7.519390E-09
       357  18 -4.116728E+05  2.196936E+04  1.388520E+04  2.928512E+04  4.187500E-09  3.918119E-10
       357  19 -4.986703E+05  1.007764E+03 -1.349800E+03  2.886441E+04  1.192786E+03  3.941818E+02
       357  20 -5.452698E+05 -1.041664E+04 -1.272166E+04  1.927909E+04 -4.246123E+02 -2.305591E+03
       357  21 -5.922762E+05 -2.199693E+04 -2.522405E+04  2.862673E+04 -2.042099E+03 -4.985722E+03
       357  22 -5.019766E+05  2.290908E+02 -1.938953E+03  2.895507E+04 -1.336633E+03  3.855220E+02
       357  23 -5.017746E+05  1.840596E+02 -3.245247E+03  1.948906E+04 -2.935684E+03 -2.314121E+03
       357  24 -5.019783E+05 -1.349652E+01 -5.669122E+03  2.895592E+04 -4.534942E+03 -4.994133E+03
       357  25 -5.052828E+05 -5.495798E+02 -2.528082E+03  2.904574E+04 -3.866039E+03  3.768614E+02
       357  26 -4.582776E+05  1.078463E+04  6.231080E+03  1.969905E+04 -5.446929E+03 -2.322654E+03
       357  27 -4.116728E+05  2.196940E+04  1.388534E+04  2.928515E+04 -7.028144E+03 -5.002545E+03
       358   1 -6.303438E+05 -3.073833E+04 -3.539034E+04  2.767658E+04  3.065776E+03  6.594706E+03
       358   2 -6.759573E+05 -4.232319E+04 -5.089763E+04  1.945175E+04  9.869130E+03  9.197505E+03
       358   3 -7.238068E+05 -5.873333E+04 -7.207841E+04  3.011867E+04  1.667376E+04  1.137354E+04
       358   4 -5.023718E+05  4.819484E+02 -7.387189E+03  2.894172E+04  5.679181E+03  6.603430E+03
       358   5 -5.012913E+05  2.541384E+02 -1.278668E+04  1.950456E+04  1.208497E+04  9.204643E+03
       358   6 -5.023795E+05 -4.728973E+03 -2.358213E+04  2.895893E+04  1.849254E+04  1.137913E+04
       358   7 -3.743845E+05  3.170115E+04  2.061499E+04  3.020712E+04  8.293119E+03  6.612164E+03
       358   8 -3.265966E+05  4.282943E+04  2.532246E+04  1.955737E+04  1.430142E+04  9.211781E+03
       358   9 -2.809061E+05  4.927211E+04  2.491120E+04  2.779874E+04  2.031196E+04  1.138471E+04
       358  10 -6.303438E+05 -3.073838E+04 -3.539044E+04  2.767656E+04 -7.350486E-09  7.828727E-09
       358  11 -6.759574E+05 -4.232330E+04 -5.089798E+04  1.945168E+04 -1.299877E-09  5.966291E-09
       358  12 -7.238072E+05 -5.873354E+04 -7.207918E+04  3.011851E+04  9.252317E-09  4.238059E-09
       358  13 -5.023719E+05  4.818929E+02 -7.387332E+03  2.894169E+04  1.234618E-09  5.499572E-09
       358  14 -5.012915E+05  2.540082E+02 -1.278711E+04  1.950447E+04  3.173580E-10  7.851512E-09
       358  15 -5.023799E+05 -4.729204E+03 -2.358302E+04  2.895876E+04  5.942207E-10 -2.140044E-09
       358  16 -3.743846E+05  3.170108E+04  2.061478E+04  3.020707E+04  6.856895E-09  3.370842E-09
       358  17 -3.265969E+05  4.282929E+04  2.532192E+04  1.955726E+04 -1.381389E-09 -8.015816E-10
       358  18 -2.809066E+05  4.927186E+04  2.491018E+04  2.779855E+04 -7.140076E-09 -9.040887E-09
       358  19 -6.303438E+05 -3.073833E+04 -3.539034E+04  2.767658E+04 -3.065776E+03 -6.594706E+03
       358  20 -6.759573E+05 -4.232319E+04 -5.089763E+04  1.945175E+04 -9.869130E+03 -9.197505E+03
       358  21 -7.238068E+05 -5.873333E+04 -7.207841E+04  3.011867E+04 -1.667376E+04 -1.137354E+04
       358  22 -5.023718E+05  4.819484E+02 -7.387189E+03  2.894172E+04 -5.679181E+03 -6.603430E+03
       358  23 -5.012913E+05  2.541384E+02 -1.278668E+04  1.950456E+04 -1.208497E+04 -9.204643E+03
       358  24 -5.023795E+05 -4.728973E+03 -2.358213E+04  2.895893E+04 -1.849254E+04 -1.137913E+04
       358  25 -3.743845E+05  3.170115E+04  2.061499E+04  3.020712E+04 -8.293119E+03 -6.612164E+03
       358  26 -3.265966E+05  4.282943E+04  2.532246E+04  1.955737E+04 -1.430142E+04 -9.211781E+03
       358  27 -2.809061E+05  4.927211E+04  2.491120E+04  2.779874E+04 -2.031196E+04 -1.138471E+04
       359   1 -7.666727E+05 -5.864974E+04 -8.623072E+04  1.494990E+04  1.815232E+04  1.373005E+04
       359   2 -8.000091E+05 -7.496558E+04 -1.187066E+05  3.474163E+04  5.384312E+04  1.395986E+04
       359   3 -8.603219E+05 -1.801025E+05 -1.966663E+05  7.310298E+04  8.955955E+04  4.756787E+03
       359   4 -5.075492E+05  4.619966E+03 -2.971145E+04  2.880194E+04  2.267799E+04  1.374457E+04
       359   5 -4.948484E+05 -4.199571E+02 -5.078658E+04  1.966600E+04  4.955727E+04  1.394467E+04
       359   6 -5.075814E+05 -9.272874E+04 -1.112083E+05  2.910168E+04  7.646526E+04  4.710649E+03
       359   7 -2.483623E+05  6.788591E+04  2.680395E+04  4.265979E+04  2.720553E+04  1.375929E+04
       359   8 -1.896001E+05  7.412026E+04  1.712784E+04  4.582803E+03  4.526933E+04  1.392970E+04
       359   9 -1.547224E+05 -5.356562E+03 -2.575748E+04 -1.492481E+04  6.336352E+04  4.666383E+03
       359  10 -7.666731E+05 -5.865003E+04 -8.623169E+04  1.494969E+04 -4.023025E-09  9.156560E-10
       359  11 -8.000123E+05 -7.496657E+04 -1.187124E+05  3.474103E+04 -1.472463E-09 -1.163809E-09
       359  12 -8.603305E+05 -1.801047E+05 -1.966814E+05  7.310264E+04  2.136505E-09 -5.610161E-11
       359  13 -5.075498E+05  4.619625E+03 -2.971277E+04  2.880168E+04  1.884095E-09  5.315536E-09
       359  14 -4.948511E+05 -4.208258E+02 -5.079156E+04  1.966544E+04 -7.037079E-10 -4.799621E-09
       359  15 -5.075877E+05 -9.273033E+04 -1.112193E+05  2.910139E+04  2.452620E-10  3.310484E-09
       359  16 -2.483631E+05  6.788550E+04  2.680221E+04  4.265949E+04  3.232441E-09  9.111481E-10
       359  17 -1.896024E+05  7.411950E+04  1.712362E+04  4.582295E+03  6.587653E-10  3.254830E-09
       359  18 -1.547267E+05 -5.357663E+03 -2.576507E+04 -1.492505E+04 -4.771647E-10 -4.171716E-10
       359  19 -7.666727E+05 -5.864974E+04 -8.623072E+04  1.494990E+04 -1.815232E+04 -1.373005E+04
       359  20 -8.000091E+05 -7.496558E+04 -1.187066E+05  3.474163E+04 -5.384312E+04 -1.395986E+04
       359  21 -8.603219E+05 -1.801025E+05 -1.966663E+05  7.310298E+04 -8.955955E+04 -4.756787E+03
       359  22 -5.075492E+05  4.619966E+03 -2.971145E+04  2.880194E+04 -2.267799E+04 -1.374457E+04
       359  23 -4.948484E+05 -4.199571E+02 -5.078658E+04  1.966600E+04 -4.955727E+04 -1.394467E+04
       359  24 -5.075814E+05 -9.272874E+04 -1.112083E+05  2.910168E+04 -7.646526E+04 -4.710649E+03
       359  25 -2.483623E+05  6.788591E+04  2.680395E+04  4.265979E+04 -2.720553E+04 -1.375929E+04
       359  26 -1.896001E+05  7.412026E+04  1.712784E+04  4.582803E+03 -4.526933E+04 -1.392970E+04
       359  27 -1.547224E+05 -5.356562E+03 -2.575748E+04 -1.492481E+04 -6.336352E+04 -4.666383E+03
       360   1  4.214108E+05  2.106944E+06  4.397220E+05 -2.711054E+05  1.290859E+04  1.374655E+05
       360   2  2.129615E+05  1.772107E+06  2.673314E+05 -1.684406E+05  3.721561E+04  6.742929E+04
       360   3  1.301270E+05  1.477354E+06  1.717523E+05 -1.912025E+05  2.844648E+04 -2.645272E+03
       360   4  1.273192E+05  9.234615E+05  1.523771E+05 -2.075155E+05  1.301390E+04  9.919719E+04
       360   5  1.236172E+03  9.062266E+05  7.395890E+04 -1.449676E+05  3.724021E+04  6.026438E+04
       360   6 -4.515284E+03  9.236759E+05  5.087847E+04 -2.078359E+05  2.837871E+04  2.125657E+04
       360   7 -1.668596E+05 -2.587346E+05 -1.350614E+05 -1.440459E+05  1.311151E+04  6.100127E+04
       360   8 -2.105380E+05  4.104431E+04 -1.194603E+05 -1.215271E+05  3.726430E+04  5.310928E+04
       360   9 -1.391766E+05  3.702861E+05 -7.001155E+04 -2.244540E+05  2.830963E+04  4.513739E+04
       360  10  4.214056E+05  2.106923E+06  4.396862E+05 -2.711068E+05  4.631223E-10 -1.513757E-09
       360  11  2.129588E+05  1.772102E+06  2.673203E+05 -1.684426E+05 -4.952190E-10 -1.564725E-09
       360  12  1.301262E+05  1.477354E+06  1.717508E+05 -1.912025E+05  4.039942E-10 -5.444732E-09
       360  13  1.273164E+05  9.234509E+05  1.523583E+05 -2.075166E+05  1.494506E-09  2.110021E-09
       360  14  1.233709E+03  9.062223E+05  7.394947E+04 -1.449694E+05 -1.153479E-09 -5.165320E-09
       360  15 -4.516270E+03  9.236752E+05  5.087610E+04 -2.078364E+05 -3.610036E-10  2.816894E-09
       360  16 -1.668608E+05 -2.587386E+05 -1.350687E+05 -1.440466E+05 -7.140205E-11 -5.385928E-10
       360  17 -2.105403E+05  4.104090E+04 -1.194682E+05 -1.215287E+05 -1.554242E-09  2.412258E-09
       360  18 -1.391780E+05  3.702837E+05 -7.001689E+04 -2.244551E+05 -2.218965E-09 -6.482732E-10
       360  19  4.214108E+05  2.106944E+06  4.397220E+05 -2.711054E+05 -1.290859E+04 -1.374655E+05
       360  20  2.129615E+05  1.772107E+06  2.673314E+05 -1.684406E+05 -3.721561E+04 -6.742929E+04
       360  21  1.301270E+05  1.477354E+06  1.717523E+05 -1.912025E+05 -2.844648E+04  2.645272E+03
       360  22  1.273192E+05  9.234615E+05  1.523771E+05 -2.075155E+05 -1.301390E+04 -9.919719E+04
       360  23  1.236172E+03  9.062266E+05  7.395890E+04 -1.449676E+05 -3.724021E+04 -6.026438E+04
       360  24 -4.515284E+03  9.236759E+05  5.087847E+04 -2.078359E+05 -2.837871E+04 -2.125657E+04
       360  25 -1.668596E+05 -2.587346E+05 -1.350614E+05 -1.440459E+05 -1.311151E+04 -6.100127E+04
       360  26 -2.105380E+05  4.104431E+04 -1.194603E+05 -1.215271E+05 -3.726430E+04 -5.310928E+04
       360  27 -1.391766E+05  3.702861E+05 -7.001155E+04 -2.244540E+05 -2.830963E+04 -4.513739E+04
       361   1  8.035436E+04  1.217320E+06  1.119182E+05 -2.129164E+05  1.502801E+04 -1.447398E+03
       361   2 -3.031626E+03  9.001926E+05  3.948719E+04 -1.444069E+05 -6.708652E+02 -2.282066E+04
       361   3 -6.932115E+04  5.893832E+05 -1.497515E+04 -2.026162E+05 -1.633659E+04 -4.418321E+04
       361   4  7.260601E+03  9.173913E+05  4.617750E+04 -2.080414E+05  1.498421E+04  1.333778E+04
       361   5  3.970047E+02  9.142738E+05  4.255373E+04 -1.446785E+05 -7.142580E+02 -8.066742E+03
       361   6  1.064099E+04  9.173855E+05  5.692488E+04 -2.080315E+05 -1.637959E+04 -2.947100E+04
       361   7 -6.583897E+04  6.175471E+05 -1.956788E+04 -2.031688E+05  1.494063E+04  2.811591E+04
       361   8  3.825739E+03  9.283556E+05  4.562108E+04 -1.449500E+05 -7.576630E+02  6.687503E+03
       361   9  9.059615E+04  1.245489E+06  1.288192E+05 -2.134496E+05 -1.642283E+04 -1.475111E+04
       361  10  8.035412E+04  1.217320E+06  1.119178E+05 -2.129163E+05 -4.541523E-10 -2.904883E-09
       361  11 -3.031766E+03  9.001920E+05  3.948621E+04 -1.444069E+05  1.203897E-09 -2.748426E-09
       361  12 -6.932196E+04  5.893811E+05 -1.497931E+04 -2.026168E+05 -2.594185E-10 -6.119708E-09
       361  13  7.260312E+03  9.173910E+05  4.617674E+04 -2.080416E+05 -4.469508E-10  2.304984E-09
       361  14  3.969867E+02  9.142737E+05  4.255361E+04 -1.446785E+05  2.375187E-09 -6.309430E-09
       361  15  1.064047E+04  9.173845E+05  5.692275E+04 -2.080319E+05  3.017802E-09  2.543174E-09
       361  16 -6.583942E+04  6.175462E+05 -1.956979E+04 -2.031691E+05 -8.458573E-10 -2.891059E-10
       361  17  3.825726E+03  9.283555E+05  4.562100E+04 -1.449500E+05 -1.609342E-09  3.692323E-09
       361  18  9.059581E+04  1.245489E+06  1.288183E+05 -2.134498E+05  1.151163E-10  5.551151E-10
       361  19  8.035436E+04  1.217320E+06  1.119182E+05 -2.129164E+05 -1.502801E+04  1.447398E+03
       361  20 -3.031626E+03  9.001926E+05  3.948719E+04 -1.444069E+05  6.708652E+02  2.282066E+04
       361  21 -6.932115E+04  5.893832E+05 -1.497515E+04 -2.026162E+05  1.633659E+04  4.418321E+04
       361  22  7.260601E+03  9.173913E+05  4.617750E+04 -2.080414E+05 -1.498421E+04 -1.333778E+04
       361  23  3.970047E+02  9.142738E+05  4.255373E+04 -1.446785E+05  7.142580E+02  8.066742E+03
       361  24  1.064099E+04  9.173855E+05  5.692488E+04 -2.080315E+05  1.637959E+04  2.947100E+04
       361  25 -6.583897E+04  6.175471E+05 -1.956788E+04 -2.031688E+05 -1.494063E+04 -2.811591E+04
       361  26  3.825739E+03  9.283556E+05  4.562108E+04 -1.449500E+05  7.576630E+02 -6.687503E+03
       361  27  9.059615E+04  1.245489E+06  1.288192E+05 -2.134496E+05  1.642283E+04  1.475111E+04
       362   1 -1.490341E+05  3.457095E+05 -6.015829E+04 -2.331408E+05 -2.975522E+04 -6.344518E+04
       362   2 -2.171100E+05  8.346936E+03 -9.410202E+04 -1.112457E+05 -3.848633E+04 -8.750700E+04
       362   3 -1.133081E+05 -2.832055E+05 -6.949706E+04 -1.147124E+05 -1.340576E+04 -1.114788E+05
       362   4 -7.564305E+03  9.273224E+05  6.685679E+04 -2.078509E+05 -2.982559E+04 -3.942111E+04
       362   5  1.597417E+03  9.016438E+05  1.055603E+05 -1.449535E+05 -3.845813E+04 -9.520339E+04
       362   6  1.879901E+05  9.270761E+05  2.247470E+05 -2.073803E+05 -1.329622E+04 -1.509097E+05
       362   7  1.338858E+05  1.509254E+06  1.938540E+05 -1.825368E+05 -2.989396E+04 -1.537482E+04
       362   8  2.202547E+05  1.795686E+06  3.051731E+05 -1.787099E+05 -3.842911E+04 -1.029107E+05
       362   9  4.892131E+05  2.138715E+06  5.188953E+05 -3.002285E+05 -1.317504E+04 -1.904169E+05
       362  10 -1.490361E+05  3.457049E+05 -6.016751E+04 -2.331424E+05  6.761824E-10 -3.342629E-09
       362  11 -2.171136E+05  8.338314E+03 -9.411920E+04 -1.112484E+05  8.536208E-10 -1.756088E-09
       362  12 -1.133116E+05 -2.832189E+05 -6.952076E+04 -1.147136E+05 -1.956967E-10 -2.950718E-09
       362  13 -7.565678E+03  9.273205E+05  6.685220E+04 -2.078519E+05 -1.082364E-09  2.909378E-09
       362  14  1.593398E+03  9.016336E+05  1.055405E+05 -1.449565E+05  2.027637E-09 -5.395579E-09
       362  15  1.879838E+05  9.270517E+05  2.247039E+05 -2.073819E+05 -5.209925E-11  2.743496E-09
       362  16  1.338848E+05  1.509254E+06  1.938519E+05 -1.825371E+05  1.666673E-09  1.752153E-10
       362  17  2.202503E+05  1.795674E+06  3.051505E+05 -1.787131E+05  5.234475E-10  2.268106E-09
       362  18  4.892032E+05  2.138676E+06  5.188271E+05 -3.002305E+05 -4.837039E-10 -1.243261E-09
       362  19 -1.490341E+05  3.457095E+05 -6.015829E+04 -2.331408E+05  2.975522E+04  6.344518E+04
       362  20 -2.171100E+05  8.346936E+03 -9.410202E+04 -1.112457E+05  3.848633E+04  8.750700E+04
       362  21 -1.133081E+05 -2.832055E+05 -6.949706E+04 -1.147124E+05  1.340576E+04  1.114788E+05
       362  22 -7.564305E+03  9.273224E+05  6.685679E+04 -2.078509E+05  2.982559E+04  3.942111E+04
       362  23  1.597417E+03  9.016438E+05  1.055603E+05 -1.449535E+05  3.845813E+04  9.520339E+04
       362  24  1.879901E+05  9.270761E+05  2.247470E+05 -2.073803E+05  1.329622E+04  1.509097E+05
       362  25  1.338858E+05  1.509254E+06  1.938540E+05 -1.825368E+05  2.989396E+04  1.537482E+04
       362  26  2.202547E+05  1.795686E+06  3.051731E+05 -1.787099E+05  3.842911E+04  1.029107E+05
       362  27  4.892131E+05  2.138715E+06  5.188953E+05 -3.002285E+05  1.317504E+04  1.904169E+05
       363   1  5.693338E+05  1.990497E+05  1.149683E+05  1.818439E+05  2.369778E+03 -8.320698E+03
       363   2  5.345422E+05  2.082199E+05  1.123587E+05  1.623842E+05  3.243494E+03 -2.783884E+04
       363   3  4.792328E+05  2.057226E+05  1.073654E+05  1.637305E+05 -1.929568E+03 -3.132761E+04
       363   4 -6.061040E+03 -5.401837E+03 -3.590875E+04  3.712496E+04 -1.988274E+04 -1.671747E+04
       363   5  7.567838E+03  1.561818E+04 -1.560771E+04  2.151884E+04 -4.953890E+03 -3.093557E+04
       363   6 -2.116399E+03  2.217520E+04 -8.832727E+03  2.672187E+04  3.925272E+03 -2.911775E+04
       363   7 -5.811256E+05 -2.098382E+05 -1.868086E+05 -1.074743E+05 -4.211215E+04 -2.510667E+04
       363   8 -5.191276E+05 -1.769651E+05 -1.435931E+05 -1.192378E+05 -1.314359E+04 -3.402954E+04
       363   9 -4.832353E+05 -1.613525E+05 -1.250476E+05 -1.101889E+05  9.775166E+03 -2.690985E+04
       363  10  5.693338E+05  1.990496E+05  1.149682E+05  1.818439E+05  2.871516E-09 -3.498627E-11
       363  11  5.345419E+05  2.082190E+05  1.123572E+05  1.623843E+05  1.785441E-09 -5.251676E-09
       363  12  4.792326E+05  2.057216E+05  1.073635E+05  1.637304E+05  3.294249E-10 -3.381821E-09
       363  13 -6.061539E+03 -5.402243E+03 -3.591001E+04  3.712469E+04 -1.579434E-10 -1.015046E-09
       363  14  7.567555E+03  1.561715E+04 -1.560955E+04  2.151872E+04  1.299502E-09 -5.603988E-09
       363  15 -2.116643E+03  2.217429E+04 -8.834349E+03  2.672196E+04  1.329665E-09 -3.556509E-11
       363  16 -5.811277E+05 -2.098394E+05 -1.868131E+05 -1.074752E+05 -1.902096E-09 -7.991931E-10
       363  17 -5.191281E+05 -1.769664E+05 -1.435956E+05 -1.192382E+05 -2.275241E-10 -4.062958E-09
       363  18 -4.832356E+05 -1.613534E+05 -1.250492E+05 -1.101887E+05 -1.132925E-09 -2.413677E-09
       363  19  5.693338E+05  1.990497E+05  1.149683E+05  1.818439E+05 -2.369778E+03  8.320698E+03
       363  20  5.345422E+05  2.082199E+05  1.123587E+05  1.623842E+05 -3.243494E+03  2.783884E+04
       363  21  4.792328E+05  2.057226E+05  1.073654E+05  1.637305E+05  1.929568E+03  3.132761E+04
       363  22 -6.061040E+03 -5.401837E+03 -3.590875E+04  3.712496E+04  1.988274E+04  1.671747E+04
       363  23  7.567838E+03  1.561818E+04 -1.560771E+04  2.151884E+04  4.953890E+03  3.093557E+04
       363  24 -2.116399E+03  2.217520E+04 -8.832727E+03  2.672187E+04 -3.925272E+03  2.911775E+04
       363  25 -5.811256E+05 -2.098382E+05 -1.868086E+05 -1.074743E+05  4.211215E+04  2.510667E+04
       363  26 -5.191276E+05 -1.769651E+05 -1.435931E+05 -1.192378E+05  1.314359E+04  3.402954E+04
       363  27 -4.832353E+05 -1.613525E+05 -1.250476E+05 -1.101889E+05 -9.775166E+03  2.690985E+04
       364   1  4.492048E+05  1.872723E+05  1.016515E+05  1.522911E+05  2.884388E+03 -2.615127E+04
       364   2  4.151237E+05  1.676176E+05  9.484893E+04  1.337475E+05  3.497300E+03 -2.414181E+04
       364   3  3.676163E+05  1.592411E+05  8.676245E+04  1.300568E+05  3.838229E+03 -2.141683E+04
       364   4 -1.108823E+03  1.966193E+04 -6.994402E+03  2.850020E+04  3.938019E+03 -2.575473E+04
       364   5  5.789181E+03  1.490461E+04 -3.600121E+03  2.076587E+04  5.177409E+03 -2.350801E+04
       364   6 -8.652305E+02  2.130117E+04 -1.987112E+03  2.788466E+04  6.144818E+03 -2.054549E+04
       364   7 -4.512243E+05 -1.479352E+05 -1.156558E+05 -9.520987E+04  4.990825E+03 -2.535850E+04
       364   8 -4.033806E+05 -1.377968E+05 -1.020617E+05 -9.214834E+04  6.856318E+03 -2.287467E+04
       364   9 -3.692124E+05 -1.166288E+05 -9.074664E+04 -7.423235E+04  8.449917E+03 -1.967471E+04
       364  10  4.492046E+05  1.872716E+05  1.016502E+05  1.522912E+05  1.152375E-08  3.604122E-09
       364  11  4.151235E+05  1.676170E+05  9.484781E+04  1.337476E+05  1.825185E-09 -3.276174E-09
       364  12  3.676161E+05  1.592406E+05  8.676156E+04  1.300569E+05 -1.056991E-08 -7.023932E-09
       364  13 -1.109017E+03  1.966121E+04 -6.995678E+03  2.850028E+04  6.010502E-10  1.461428E-09
       364  14  5.789004E+03  1.490401E+04 -3.601210E+03  2.076597E+04  2.630009E-09  1.318984E-08
       364  15 -8.653843E+02  2.130071E+04 -1.987976E+03  2.788476E+04  3.105096E-09 -4.647091E-10
       364  16 -4.512245E+05 -1.479359E+05 -1.156571E+05 -9.520977E+04 -8.825246E-09 -6.189787E-09
       364  17 -4.033808E+05 -1.377974E+05 -1.020628E+05 -9.214822E+04  4.123066E-09  2.159399E-09
       364  18 -3.692126E+05 -1.166292E+05 -9.074751E+04 -7.423221E+04  1.328218E-08  5.964348E-09
       364  19  4.492048E+05  1.872723E+05  1.016515E+05  1.522911E+05 -2.884388E+03  2.615127E+04
       364  20  4.151237E+05  1.676176E+05  9.484893E+04  1.337475E+05 -3.497300E+03  2.414181E+04
       364  21  3.676163E+05  1.592411E+05  8.676245E+04  1.300568E+05 -3.838229E+03  2.141683E+04
       364  22 -1.108823E+03  1.966193E+04 -6.994402E+03  2.850020E+04 -3.938019E+03  2.575473E+04
       364  23  5.789181E+03  1.490461E+04 -3.600121E+03  2.076587E+04 -5.177409E+03  2.350801E+04
       364  24 -8.652305E+02  2.130117E+04 -1.987112E+03  2.788466E+04 -6.144818E+03  2.054549E+04
       364  25 -4.512243E+05 -1.479352E+05 -1.156558E+05 -9.520987E+04 -4.990825E+03  2.535850E+04
       364  26 -4.033806E+05 -1.377968E+05 -1.020617E+05 -9.214834E+04 -6.856318E+03  2.287467E+04
       364  27 -3.692124E+05 -1.166288E+05 -9.074664E+04 -7.423235E+04 -8.449917E+03  1.967471E+04
       365   1  3.339534E+05  1.461968E+05  7.884499E+04  1.205871E+05  3.769882E+03 -1.974184E+04
       365   2  2.998305E+05  1.247998E+05  6.991920E+04  1.021187E+05  3.237831E+03 -1.719897E+04
       365   3  2.528581E+05  1.161117E+05  6.069780E+04  9.815952E+04  2.692705E+03 -1.462469E+04
       365   4 -7.749234E+02  2.115924E+04 -1.507914E+03  2.799451E+04  5.861581E+03 -1.895142E+04
       365   5  5.665595E+03  1.486240E+04 -8.065587E+02  2.072075E+04  5.356976E+03 -1.639769E+04
       365   6 -7.511298E+02  2.126938E+04 -4.227923E+02  2.795636E+04  4.839316E+03 -1.381253E+04
       365   7 -3.353906E+05 -1.038695E+05 -8.186851E+04 -6.455224E+04  7.952042E+03 -1.816147E+04
       365   8 -2.884136E+05 -9.506872E+04 -7.153863E+04 -6.064207E+04  7.475027E+03 -1.559683E+04
       365   9 -2.542980E+05 -7.356871E+04 -6.154844E+04 -4.222105E+04  6.984982E+03 -1.300072E+04
       365  10  3.339533E+05  1.461964E+05  7.884423E+04  1.205872E+05  2.519267E-09 -1.083108E-09
       365  11  2.998304E+05  1.247995E+05  6.991862E+04  1.021187E+05 -8.694610E-10 -5.556277E-10
       365  12  2.528580E+05  1.161114E+05  6.069738E+04  9.815955E+04 -5.200129E-09 -5.477874E-09
       365  13 -7.750568E+02  2.115884E+04 -1.508653E+03  2.799459E+04  5.460075E-10 -2.251727E-11
       365  14  5.665492E+03  1.486210E+04 -8.071179E+02  2.072082E+04  4.175781E-09  1.127429E-08
       365  15 -7.512062E+02  2.126917E+04 -4.231949E+02  2.795642E+04 -6.108965E-10 -1.780286E-09
       365  16 -3.353908E+05 -1.038699E+05 -8.186925E+04 -6.455212E+04 -2.534168E-09  3.856257E-09
       365  17 -2.884137E+05 -9.506899E+04 -7.153919E+04 -6.064198E+04  2.896430E-09 -5.834080E-09
       365  18 -2.542981E+05 -7.356891E+04 -6.154885E+04 -4.222098E+04  5.039498E-09  2.613421E-09
       365  19  3.339534E+05  1.461968E+05  7.884499E+04  1.205871E+05 -3.769882E+03  1.974184E+04
       365  20  2.998305E+05  1.247998E+05  6.991920E+04  1.021187E+05 -3.237831E+03  1.719897E+04
       365  21  2.528581E+05  1.161117E+05  6.069780E+04  9.815952E+04 -2.692705E+03  1.462469E+04
       365  22 -7.749234E+02  2.115924E+04 -1.507914E+03  2.799451E+04 -5.861581E+03  1.895142E+04
       365  23  5.665595E+03  1.486240E+04 -8.065587E+02  2.072075E+04 -5.356976E+03  1.639769E+04
       365  24 -7.511298E+02  2.126938E+04 -4.227923E+02  2.795636E+04 -4.839316E+03  1.381253E+04
       365  25 -3.353906E+05 -1.038695E+05 -8.186851E+04 -6.455224E+04 -7.952042E+03  1.816147E+04
       365  26 -2.884136E+05 -9.506872E+04 -7.153863E+04 -6.064207E+04 -7.475027E+03  1.559683E+04
       365  27 -2.542980E+05 -7.356871E+04 -6.154844E+04 -4.222105E+04 -6.984982E+03  1.300072E+04
       366   1  2.189700E+05  1.033799E+05  5.238504E+04  8.879476E+04  2.223687E+03 -1.317551E+04
       366   2  1.848539E+05  8.187300E+04  4.296737E+04  7.033038E+04  1.360148E+03 -1.071527E+04
       366   3  1.379357E+05  7.316556E+04  3.350669E+04  6.635126E+04  4.955264E+02 -8.253986E+03
       366   4 -7.398275E+02  2.126351E+04 -3.031095E+02  2.796265E+04  4.360449E+03 -1.236683E+04
       366   5  5.665789E+03  1.487281E+04 -1.207264E+02  2.071788E+04  3.497827E+03 -9.905955E+03
       366   6 -7.329634E+02  2.128131E+04  1.779843E+01  2.795782E+04  2.634124E+03 -7.444030E+03
       366   7 -2.204017E+05 -6.084938E+04 -5.299474E+04 -3.284986E+04  6.496387E+03 -1.155846E+04
       366   8 -1.734900E+05 -5.212486E+04 -4.321102E+04 -2.888145E+04  5.634828E+03 -9.096898E+03
       366   9 -1.393818E+05 -3.060126E+04 -3.347229E+04 -1.042763E+04  4.772190E+03 -6.634277E+03
       366  10  2.189699E+05  1.033797E+05  5.238470E+04  8.879479E+04  1.944370E-09 -1.370861E-10
       366  11  1.848539E+05  8.187287E+04  4.296715E+04  7.033039E+04  2.308946E-09  4.561454E-09
       366  12  1.379357E+05  7.316548E+04  3.350656E+04  6.635127E+04 -1.342246E-09 -3.312509E-09
       366  13 -7.398890E+02  2.126334E+04 -3.034326E+02  2.796269E+04  2.449695E-09  8.479505E-10
       366  14  5.665750E+03  1.487270E+04 -1.209338E+02  2.071791E+04 -5.195073E-09  2.714932E-09
       366  15 -7.329857E+02  2.128125E+04  1.768126E+01  2.795783E+04  2.964464E-10  2.209373E-09
       366  16 -2.204018E+05 -6.084953E+04 -5.299507E+04 -3.284980E+04 -1.990996E-09  1.314932E-09
       366  17 -1.734901E+05 -5.212496E+04 -4.321124E+04 -2.888141E+04 -2.248736E-09  6.931610E-09
       366  18 -1.393819E+05 -3.060132E+04 -3.347241E+04 -1.042760E+04  5.335398E-10  5.330004E-10
       366  19  2.189700E+05  1.033799E+05  5.238504E+04  8.879476E+04 -2.223687E+03  1.317551E+04
       366  20  1.848539E+05  8.187300E+04  4.296737E+04  7.033038E+04 -1.360148E+03  1.071527E+04
       366  21  1.379357E+05  7.316556E+04  3.350669E+04  6.635126E+04 -4.955264E+02  8.253986E+03
       366  22 -7.398275E+02  2.126351E+04 -3.031095E+02  2.796265E+04 -4.360449E+03  1.236683E+04
       366  23  5.665789E+03  1.487281E+04 -1.207264E+02  2.071788E+04 -3.497827E+03  9.905955E+03
       366  24 -7.329634E+02  2.128131E+04  1.779843E+01  2.795782E+04 -2.634124E+03  7.444030E+03
       366  25 -2.204017E+05 -6.084938E+04 -5.299474E+04 -3.284986E+04 -6.496387E+03  1.155846E+04
       366  26 -1.734900E+05 -5.212486E+04 -4.321102E+04 -2.888145E+04 -5.634828E+03  9.096898E+03
       366  27 -1.393818E+05 -3.060126E+04 -3.347229E+04 -1.042763E+04 -4.772190E+03  6.634277E+03
       367   1  1.040450E+05  6.044645E+04  2.513783E+04  5.698985E+04 -5.037317E+01 -6.837242E+03
       367   2  6.993245E+04  3.892359E+04  1.570341E+04  3.852540E+04 -1.096012E+03 -4.444416E+03
       367   3  2.303344E+04  3.021846E+04  6.361601E+03  3.454481E+04 -2.141536E+03 -2.052510E+03
       367   4 -7.272992E+02  2.128237E+04  8.264853E+01  2.795978E+04  2.087838E+03 -6.027308E+03
       367   5  5.667644E+03  1.487767E+04  2.463848E+02  2.071665E+04  1.041383E+03 -3.634683E+03
       367   6 -7.246702E+02  2.129115E+04  5.036482E+02  2.795705E+04 -4.966000E+00 -1.242979E+03
       367   7 -1.054892E+05 -1.788112E+04 -2.497346E+04 -1.065980E+03  4.225667E+03 -5.217519E+03
       367   8 -5.859323E+04 -9.168010E+03 -1.521097E+04  2.909533E+03  3.178543E+03 -2.825040E+03
       367   9 -2.448222E+04  1.236387E+04 -5.354329E+03  2.136952E+04  2.131515E+03 -4.334814E+02
       367  10  1.040449E+05  6.044640E+04  2.513774E+04  5.698985E+04  7.005684E-10 -8.114323E-09
       367  11  6.993244E+04  3.892356E+04  1.570337E+04  3.852540E+04 -2.452804E-09 -1.355480E-09
       367  12  2.303344E+04  3.021846E+04  6.361584E+03  3.454481E+04 -5.650629E-09  1.466460E-09
       367  13 -7.273136E+02  2.128233E+04  8.257207E+01  2.795979E+04  8.289550E-10 -1.649394E-09
       367  14  5.667639E+03  1.487765E+04  2.463579E+02  2.071665E+04 -1.904019E-09 -2.316190E-09
       367  15 -7.246706E+02  2.129114E+04  5.036453E+02  2.795705E+04 -2.682812E-10  2.817357E-09
       367  16 -1.054892E+05 -1.788115E+04 -2.497355E+04 -1.065963E+03  9.149789E-10  4.458960E-09
       367  17 -5.859325E+04 -9.168021E+03 -1.521101E+04  2.909540E+03  4.414346E-09  4.437135E-09
       367  18 -2.448223E+04  1.236387E+04 -5.354338E+03  2.136952E+04  4.880229E-09 -2.078998E-09
       367  19  1.040450E+05  6.044645E+04  2.513783E+04  5.698985E+04  5.037317E+01  6.837242E+03
       367  20  6.993245E+04  3.892359E+04  1.570341E+04  3.852540E+04  1.096012E+03  4.444416E+03
       367  21  2.303344E+04  3.021846E+04  6.361601E+03  3.454481E+04  2.141536E+03  2.052510E+03
       367  22 -7.272992E+02  2.128237E+04  8.264853E+01  2.795978E+04 -2.087838E+03  6.027308E+03
       367  23  5.667644E+03  1.487767E+04  2.463848E+02  2.071665E+04 -1.041383E+03  3.634683E+03
       367  24 -7.246702E+02  2.129115E+04  5.036482E+02  2.795705E+04  4.966000E+00  1.242979E+03
       367  25 -1.054892E+05 -1.788112E+04 -2.497346E+04 -1.065980E+03 -4.225667E+03  5.217519E+03
       367  26 -5.859323E+04 -9.168010E+03 -1.521097E+04  2.909533E+03 -3.178543E+03  2.825040E+03
       367  27 -2.448222E+04  1.236387E+04 -5.354329E+03  2.136952E+04 -2.131515E+03  4.334814E+02
       368   1 -1.085057E+04  1.750575E+04 -1.890425E+03  2.521420E+04 -2.783542E+03 -6.703845E+02
       368   2 -4.499874E+04 -4.047368E+03 -1.091575E+04  6.722335E+03 -4.319114E+03  1.532264E+03
       368   3 -9.181415E+04 -1.263414E+04 -1.944420E+04  2.699451E+03 -5.847391E+03  3.716423E+03
       368   4 -7.036164E+02  2.128162E+04  6.838665E+02  2.797006E+04 -6.415086E+02  1.412214E+02
       368   5  5.637460E+03  1.485955E+04  1.259562E+03  2.071195E+04 -2.193456E+03  2.337576E+03
       368   6 -6.870303E+02  2.140679E+04  2.345133E+03  2.792201E+04 -3.738160E+03  4.515435E+03
       368   7  9.443392E+03  2.505748E+04  3.258156E+03  3.072596E+04  1.500552E+03  9.528375E+02
       368   8  5.627621E+04  3.376665E+04  1.343471E+04  3.470261E+04 -6.760962E+01  3.142958E+03
       368   9  9.044880E+04  5.544852E+04  2.413401E+04  5.314807E+04 -1.628582E+03  5.314580E+03
       368  10 -1.085057E+04  1.750575E+04 -1.890440E+03  2.521419E+04 -2.059246E-09  1.008748E-10
       368  11 -4.499876E+04 -4.047376E+03 -1.091579E+04  6.722340E+03 -1.099467E-09 -7.788338E-10
       368  12 -9.181419E+04 -1.263417E+04 -1.944429E+04  2.699468E+03 -2.047221E-09 -2.920858E-09
       368  13 -7.036168E+02  2.128162E+04  6.838657E+02  2.797006E+04 -3.729672E-09  1.005673E-09
       368  14  5.637454E+03  1.485954E+04  1.259543E+03  2.071195E+04 -3.187049E-09  9.485608E-10
       368  15 -6.870507E+02  2.140677E+04  2.345068E+03  2.792203E+04  5.242421E-10  1.769286E-10
       368  16  9.443390E+03  2.505748E+04  3.258150E+03  3.072596E+04  1.201009E-09  4.825218E-09
       368  17  5.627621E+04  3.376664E+04  1.343469E+04  3.470261E+04  1.676002E-09  6.837812E-09
       368  18  9.044879E+04  5.544849E+04  2.413396E+04  5.314808E+04  3.237699E-09  6.358518E-11
       368  19 -1.085057E+04  1.750575E+04 -1.890425E+03  2.521420E+04  2.783542E+03  6.703845E+02
       368  20 -4.499874E+04 -4.047368E+03 -1.091575E+04  6.722335E+03  4.319114E+03 -1.532264E+03
       368  21 -9.181415E+04 -1.263414E+04 -1.944420E+04  2.699451E+03  5.847391E+03 -3.716423E+03
       368  22 -7.036164E+02  2.128162E+04  6.838665E+02  2.797006E+04  6.415086E+02 -1.412214E+02
       368  23  5.637460E+03  1.485955E+04  1.259562E+03  2.071195E+04  2.193456E+03 -2.337576E+03
       368  24 -6.870303E+02  2.140679E+04  2.345133E+03  2.792201E+04  3.738160E+03 -4.515435E+03
       368  25  9.443392E+03  2.505748E+04  3.258156E+03  3.072596E+04 -1.500552E+03 -9.528375E+02
       368  26  5.627621E+04  3.376665E+04  1.343471E+04  3.470261E+04  6.760962E+01 -3.142958E+03
       368  27  9.044880E+04  5.544852E+04  2.413401E+04  5.314807E+04  1.628582E+03 -5.314580E+03
       369   1 -1.258594E+05 -2.527556E+04 -2.710894E+04 -6.152142E+03 -6.959629E+03  4.963635E+03
       369   2 -1.599555E+05 -4.730252E+04 -3.428496E+04 -2.532655E+04 -1.030747E+04  6.373160E+03
       369   3 -2.055848E+05 -5.405953E+04 -3.895697E+04 -3.057159E+04 -1.349712E+04  7.367241E+03
       369   4 -5.300819E+02  2.117697E+04  3.091285E+03  2.808798E+04 -4.725963E+03  5.809682E+03
       369   5  5.376861E+03  1.474235E+04  5.571199E+03  2.065482E+04 -8.438813E+03  7.080672E+03
       369   6 -1.792470E+02  2.364908E+04  1.084402E+04  2.715005E+04 -1.199366E+04  7.936212E+03
       369   7  1.248148E+05  6.763055E+04  3.329038E+04  6.233435E+04 -2.491805E+03  6.655911E+03
       369   8  1.707358E+05  7.678909E+04  4.542523E+04  6.664724E+04 -6.569619E+03  7.788390E+03
       369   9  2.052670E+05  1.013606E+05  6.064158E+04  8.488889E+04 -1.048966E+04  8.505392E+03
       369  10 -1.258595E+05 -2.527560E+04 -2.710908E+04 -6.152115E+03 -1.341284E-08 -1.066397E-09
       369  11 -1.599556E+05 -4.730259E+04 -3.428523E+04 -2.532650E+04 -5.296958E-09 -9.529789E-10
       369  12 -2.055850E+05 -5.405964E+04 -3.895742E+04 -3.057151E+04  9.020374E-09 -1.178683E-09
       369  13 -5.301149E+02  2.117693E+04  3.091180E+03  2.808800E+04 -5.884053E-10  3.647744E-09
       369  14  5.376771E+03  1.474228E+04  5.570971E+03  2.065487E+04 -3.645144E-09 -6.377733E-09
       369  15 -1.794184E+02  2.364898E+04  1.084363E+04  2.715013E+04  6.364789E-10  1.933814E-09
       369  16  1.248148E+05  6.763050E+04  3.329028E+04  6.233436E+04  1.274680E-08  1.553633E-09
       369  17  1.707358E+05  7.678901E+04  4.542504E+04  6.664729E+04  1.903197E-10 -5.354261E-09
       369  18  2.052669E+05  1.013605E+05  6.064124E+04  8.488896E+04 -1.056710E-08 -5.691806E-10
       369  19 -1.258594E+05 -2.527556E+04 -2.710894E+04 -6.152142E+03  6.959629E+03 -4.963635E+03
       369  20 -1.599555E+05 -4.730252E+04 -3.428496E+04 -2.532655E+04  1.030747E+04 -6.373160E+03
       369  21 -2.055848E+05 -5.405953E+04 -3.895697E+04 -3.057159E+04  1.349712E+04 -7.367241E+03
       369  22 -5.300819E+02  2.117697E+04  3.091285E+03  2.808798E+04  4.725963E+03 -5.809682E+03
       369  23  5.376861E+03  1.474235E+04  5.571199E+03  2.065482E+04  8.438813E+03 -7.080672E+03
       369  24 -1.792470E+02  2.364908E+04  1.084402E+04  2.715005E+04  1.199366E+04 -7.936212E+03
       369  25  1.248148E+05  6.763055E+04  3.329038E+04  6.233435E+04  2.491805E+03 -6.655911E+03
       369  26  1.707358E+05  7.678909E+04  4.542523E+04  6.664724E+04  6.569619E+03 -7.788390E+03
       369  27  2.052670E+05  1.013606E+05  6.064158E+04  8.488889E+04  1.048966E+04 -8.505392E+03
       370   1 -2.429628E+05 -6.579898E+04 -4.402075E+04 -3.175249E+04 -1.889619E+04  7.954454E+03
       370   2 -2.729290E+05 -9.592457E+04 -4.441094E+04 -6.309289E+04 -2.378187E+04  6.383858E+03
       370   3 -2.996037E+05 -7.361828E+04 -3.023354E+04 -9.095652E+04 -2.514468E+04 -4.496529E+03
       370   4  1.627382E+03  1.950416E+04  1.369831E+04  2.964931E+04 -1.460777E+04  9.577826E+03
       370   5  2.233322E+03  1.384748E+04  2.416826E+04  1.982456E+04 -2.765430E+04  4.917375E+03
       370   6  7.740845E+03  6.222871E+04  5.567278E+04  1.347791E+04 -3.717934E+04 -9.051217E+03
       370   7  2.462786E+05  1.048104E+05  7.141375E+04  9.107276E+04 -1.031747E+04  1.120180E+04
       370   8  2.774703E+05  1.236276E+05  9.274150E+04  1.027764E+05 -3.152860E+04  3.450080E+03
       370   9  3.151751E+05  1.980906E+05  1.415700E+05  1.179615E+05 -4.922042E+04 -1.360929E+04
       370  10 -2.429632E+05 -6.579914E+04 -4.402154E+04 -3.175237E+04  3.680255E-09 -2.178775E-09
       370  11 -2.729296E+05 -9.592476E+04 -4.441208E+04 -6.309277E+04  1.857849E-09  4.429306E-09
       370  12 -2.996044E+05 -7.361847E+04 -3.023477E+04 -9.095661E+04  9.536735E-10  3.368301E-09
       370  13  1.627129E+03  1.950401E+04  1.369774E+04  2.964942E+04 -1.839463E-09 -5.599625E-09
       370  14  2.232494E+03  1.384725E+04  2.416678E+04  1.982467E+04 -1.292804E-09  1.838346E-09
       370  15  7.739339E+03  6.222825E+04  5.567003E+04  1.347763E+04  2.331515E-11  2.236345E-09
       370  16  2.462785E+05  1.048102E+05  7.141332E+04  9.107285E+04 -3.732936E-09  3.166123E-09
       370  17  2.774692E+05  1.236273E+05  9.273961E+04  1.027765E+05 -4.220136E-09 -1.861439E-09
       370  18  3.151724E+05  1.980897E+05  1.415651E+05  1.179610E+05 -4.439508E-09 -3.396344E-09
       370  19 -2.429628E+05 -6.579898E+04 -4.402075E+04 -3.175249E+04  1.889619E+04 -7.954454E+03
       370  20 -2.729290E+05 -9.592457E+04 -4.441094E+04 -6.309289E+04  2.378187E+04 -6.383858E+03
       370  21 -2.996037E+05 -7.361828E+04 -3.023354E+04 -9.095652E+04  2.514468E+04  4.496529E+03
       370  22  1.627382E+03  1.950416E+04  1.369831E+04  2.964931E+04  1.460777E+04 -9.577826E+03
       370  23  2.233322E+03  1.384748E+04  2.416826E+04  1.982456E+04  2.765430E+04 -4.917375E+03
       370  24  7.740845E+03  6.222871E+04  5.567278E+04  1.347791E+04  3.717934E+04  9.051217E+03
       370  25  2.462786E+05  1.048104E+05  7.141375E+04  9.107276E+04  1.031747E+04 -1.120180E+04
       370  26  2.774703E+05  1.236276E+05  9.274150E+04  1.027764E+05  3.152860E+04 -3.450080E+03
       370  27  3.151751E+05  1.980906E+05  1.415700E+05  1.179615E+05  4.922042E+04  1.360929E+04
       371   1  1.298865E+05  4.594040E+04  3.405904E+04 -7.863136E+02 -2.486461E+04 -5.054648E+03
       371   2  1.014642E+05  8.368029E+04  5.003758E+04  7.401528E+03 -2.024300E+04 -1.574042E+04
       371   3  6.152648E+04  7.798841E+04  5.215994E+04  2.896609E+04 -1.565146E+04 -1.647808E+04
       371   4 -2.485114E+05 -4.788868E+04 -5.747659E+04  2.152823E+04 -3.952057E+04 -5.099823E+03
       371   5 -2.419348E+05 -2.039571E+02 -2.625278E+04  1.476177E+04 -2.559289E+04 -1.575796E+04
       371   6 -2.484983E+05  2.419140E+03 -1.535526E+04  2.137295E+04 -1.169478E+04 -1.646573E+04
       371   7 -6.267768E+05 -1.417262E+05 -1.490214E+05  4.382903E+04 -5.416763E+04 -5.146066E+03
       371   8 -5.852236E+05 -8.409595E+04 -1.025503E+05  2.211781E+04 -3.093986E+04 -1.577564E+04
       371   9 -5.584328E+05 -7.315631E+04 -8.287615E+04  1.378357E+04 -7.740060E+03 -1.645348E+04
       371  10  1.298858E+05  4.594020E+04  3.405783E+04 -7.864149E+02  8.366672E-09  2.179760E-09
       371  11  1.014637E+05  8.367992E+04  5.003634E+04  7.401271E+03 -3.254601E-09  1.053313E-08
       371  12  6.152615E+04  7.798805E+04  5.215897E+04  2.896588E+04 -1.412702E-08  5.183279E-09
       371  13 -2.485130E+05 -4.788912E+04 -5.747958E+04  2.152807E+04  1.251370E-09 -1.187347E-09
       371  14 -2.419356E+05 -2.043996E+02 -2.625448E+04  1.476144E+04  1.303056E-09 -7.135119E-09
       371  15 -2.484985E+05  2.418812E+03 -1.535603E+04  2.137279E+04  1.731779E-10 -1.227975E-10
       371  16 -6.267799E+05 -1.417270E+05 -1.490270E+05  4.382881E+04 -8.628599E-09  1.152533E-09
       371  17 -5.852247E+05 -8.409647E+04 -1.025526E+05  2.211742E+04  1.150777E-09  8.978405E-09
       371  18 -5.584329E+05 -7.315661E+04 -8.287677E+04  1.378347E+04  1.564941E-08  2.650612E-09
       371  19  1.298865E+05  4.594040E+04  3.405904E+04 -7.863136E+02  2.486461E+04  5.054648E+03
       371  20  1.014642E+05  8.368029E+04  5.003758E+04  7.401528E+03  2.024300E+04  1.574042E+04
       371  21  6.152648E+04  7.798841E+04  5.215994E+04  2.896609E+04  1.565146E+04  1.647808E+04
       371  22 -2.485114E+05 -4.788868E+04 -5.747659E+04  2.152823E+04  3.952057E+04  5.099823E+03
       371  23 -2.419348E+05 -2.039571E+02 -2.625278E+04  1.476177E+04  2.559289E+04  1.575796E+04
       371  24 -2.484983E+05  2.419140E+03 -1.535526E+04  2.137295E+04  1.169478E+04  1.646573E+04
       371  25 -6.267768E+05 -1.417262E+05 -1.490214E+05  4.382903E+04  5.416763E+04  5.146066E+03
       371  26 -5.852236E+05 -8.409595E+04 -1.025503E+05  2.211781E+04  3.093986E+04  1.577564E+04
       371  27 -5.584328E+05 -7.315631E+04 -8.287615E+04  1.378357E+04  7.740060E+03  1.645348E+04
       372   1  3.658727E+04  6.643512E+04  4.961510E+04  2.132302E+04 -1.063223E+04 -1.449013E+04
       372   2  3.011914E+03  6.063796E+04  4.751071E+04  1.504639E+04 -7.741124E+03 -1.308577E+04
       372   3 -3.162076E+04  5.248815E+04  4.291512E+04  2.253895E+04 -4.852243E+03 -1.123205E+04
       372   4 -2.458274E+05 -2.409909E+03 -1.218694E+04  2.150468E+04 -9.533963E+03 -1.448702E+04
       372   5 -2.452584E+05  1.533385E+02 -6.606801E+03  1.461537E+04 -6.223651E+03 -1.308106E+04
       372   6 -2.458217E+05  2.904116E+02 -3.810056E+03  2.149564E+04 -2.915414E+03 -1.122566E+04
       372   7 -5.281674E+05 -7.126026E+04 -7.399380E+04  2.168619E+04 -8.436188E+03 -1.448391E+04
       372   8 -4.934709E+05 -6.033539E+04 -6.072801E+04  1.418448E+04 -4.706776E+03 -1.307635E+04
       372   9 -4.599796E+05 -5.191038E+04 -5.053798E+04  2.045265E+04 -9.792455E+02 -1.121927E+04
       372  10  3.658709E+04  6.643486E+04  4.961450E+04  2.132289E+04 -2.612276E-09 -4.739342E-09
       372  11  3.011804E+03  6.063776E+04  4.751027E+04  1.504631E+04 -9.552772E-11 -3.008406E-10
       372  12 -3.162082E+04  5.248801E+04  4.291484E+04  2.253891E+04  6.394373E-09  4.768380E-09
       372  13 -2.458276E+05 -2.410159E+03 -1.218750E+04  2.150457E+04  1.012832E-09  5.361136E-09
       372  14 -2.452585E+05  1.531444E+02 -6.607195E+03  1.461530E+04  3.816851E-10 -2.761016E-08
       372  15 -2.458217E+05  2.902740E+02 -3.810308E+03  2.149561E+04 -5.263392E-10  3.462399E-09
       372  16 -5.281676E+05 -7.126050E+04 -7.399433E+04  2.168609E+04  1.389926E-09 -9.797234E-09
       372  17 -4.934710E+05 -6.033557E+04 -6.072837E+04  1.418443E+04 -1.836311E-09 -7.428325E-09
       372  18 -4.599796E+05 -5.191052E+04 -5.053822E+04  2.045264E+04 -4.811408E-09  8.245507E-10
       372  19  3.658727E+04  6.643512E+04  4.961510E+04  2.132302E+04  1.063223E+04  1.449013E+04
       372  20  3.011914E+03  6.063796E+04  4.751071E+04  1.504639E+04  7.741124E+03  1.308577E+04
       372  21 -3.162076E+04  5.248815E+04  4.291512E+04  2.253895E+04  4.852243E+03  1.123205E+04
       372  22 -2.458274E+05 -2.409909E+03 -1.218694E+04  2.150468E+04  9.533963E+03  1.448702E+04
       372  23 -2.452584E+05  1.533385E+02 -6.606801E+03  1.461537E+04  6.223651E+03  1.308106E+04
       372  24 -2.458217E+05  2.904116E+02 -3.810056E+03  2.149564E+04  2.915414E+03  1.122566E+04
       372  25 -5.281674E+05 -7.126026E+04 -7.399380E+04  2.168619E+04  8.436188E+03  1.448391E+04
       372  26 -4.934709E+05 -6.033539E+04 -6.072801E+04  1.418448E+04  4.706776E+03  1.307635E+04
       372  27 -4.599796E+05 -5.191038E+04 -5.053798E+04  2.045265E+04  9.792455E+02  1.121927E+04
       373   1 -5.891485E+04  4.549860E+04  3.765086E+04  2.205039E+04 -4.136023E+03 -1.004714E+04
       373   2 -9.296652E+04  3.728207E+04  3.155287E+04  1.505715E+04 -3.339967E+03 -8.101064E+03
       373   3 -1.272458E+05  2.902222E+04  2.489887E+04  2.188124E+04 -2.544389E+03 -6.133766E+03
       373   4 -2.456191E+05  3.512970E+01 -2.919721E+03  2.150893E+04 -2.326727E+03 -1.004106E+04
       373   5 -2.455016E+05  1.249594E+02 -1.658994E+03  1.459993E+04 -1.511068E+03 -8.094756E+03
       373   6 -2.456158E+05  1.682257E+02 -9.678794E+02  2.150846E+04 -6.958448E+02 -6.127227E+03
       373   7 -4.322906E+05 -4.543065E+04 -4.349237E+04  2.096761E+04 -5.179675E+02 -1.003498E+04
       373   8 -3.980149E+05 -3.703369E+04 -3.487225E+04  1.414281E+04  3.173863E+02 -8.088450E+03
       373   9 -3.639727E+05 -2.868670E+04 -2.683547E+04  2.113574E+04  1.152351E+03 -6.120688E+03
       373  10 -5.891490E+04  4.549849E+04  3.765064E+04  2.205035E+04  2.278046E-08 -7.540724E-09
       373  11 -9.296655E+04  3.728199E+04  3.155273E+04  1.505713E+04  1.694531E-11 -6.420505E-09
       373  12 -1.272458E+05  2.902218E+04  2.489879E+04  2.188123E+04 -1.979651E-08 -2.042958E-09
       373  13 -2.456191E+05  3.502000E+01 -2.919920E+03  2.150891E+04  1.872602E-09 -5.431045E-09
       373  14 -2.455016E+05  1.248884E+02 -1.659122E+03  1.459992E+04  2.891063E-10 -2.683277E-09
       373  15 -2.456158E+05  1.681853E+02 -9.679508E+02  2.150846E+04 -2.671296E-11 -1.193701E-09
       373  16 -4.322906E+05 -4.543076E+04 -4.349256E+04  2.096761E+04 -2.313429E-08 -3.879522E-09
       373  17 -3.980149E+05 -3.703376E+04 -3.487237E+04  1.414281E+04 -7.035599E-10  8.938308E-09
       373  18 -3.639728E+05 -2.868674E+04 -2.683554E+04  2.113575E+04  2.218969E-08  1.217044E-08
       373  19 -5.891485E+04  4.549860E+04  3.765086E+04  2.205039E+04  4.136023E+03  1.004714E+04
       373  20 -9.296652E+04  3.728207E+04  3.155287E+04  1.505715E+04  3.339967E+03  8.101064E+03
       373  21 -1.272458E+05  2.902222E+04  2.489887E+04  2.188124E+04  2.544389E+03  6.133766E+03
       373  22 -2.456191E+05  3.512970E+01 -2.919721E+03  2.150893E+04  2.326727E+03  1.004106E+04
       373  23 -2.455016E+05  1.249594E+02 -1.658994E+03  1.459993E+04  1.511068E+03  8.094756E+03
       373  24 -2.456158E+05  1.682257E+02 -9.678794E+02  2.150846E+04  6.958448E+02  6.127227E+03
       373  25 -4.322906E+05 -4.543065E+04 -4.349237E+04  2.096761E+04  5.179675E+02  1.003498E+04
       373  26 -3.980149E+05 -3.703369E+04 -3.487225E+04  1.414281E+04 -3.173863E+02  8.088450E+03
       373  27 -3.639727E+05 -2.868670E+04 -2.683547E+04  2.113574E+04 -1.152351E+03  6.120688E+03
       374   1 -1.547530E+05  2.226701E+04  1.893483E+04  2.178514E+04 -2.388545E+03 -4.984438E+03
       374   2 -1.888902E+05  1.391211E+04  1.186826E+04  1.476593E+04 -2.167816E+03 -3.013231E+03
       374   3 -2.231563E+05  5.646726E+03  4.651126E+03  2.157924E+04 -1.947244E+03 -1.040763E+03
       374   4 -2.455920E+05  1.573313E+02 -7.480899E+02  2.151196E+04 -5.451739E+02 -4.977848E+03
       374   5 -2.455263E+05  1.151060E+02 -4.629635E+02  1.459565E+04 -3.233416E+02 -3.006580E+03
       374   6 -2.455908E+05  1.622699E+02 -3.291593E+02  2.151194E+04 -1.016534E+02 -1.034046E+03
       374   7 -3.364232E+05 -2.195289E+04 -2.043148E+04  2.123881E+04  1.297931E+03 -4.971260E+03
       374   8 -3.021594E+05 -1.368211E+04 -1.279437E+04  1.442539E+04  1.520967E+03 -2.999929E+03
       374   9 -2.680249E+05 -5.322218E+03 -5.309463E+03  2.144464E+04  1.743871E+03 -1.027330E+03
       374  10 -1.547530E+05  2.226698E+04  1.893477E+04  2.178513E+04  1.814775E-08 -9.916731E-09
       374  11 -1.888902E+05  1.391210E+04  1.186823E+04  1.476592E+04 -8.303665E-09 -2.477104E-09
       374  12 -2.231563E+05  5.646723E+03  4.651117E+03  2.157924E+04 -2.919596E-08 -2.297572E-09
       374  13 -2.455920E+05  1.573047E+02 -7.481371E+02  2.151196E+04  1.922904E-09  8.862156E-10
       374  14 -2.455263E+05  1.150963E+02 -4.629807E+02  1.459565E+04  1.206854E-09 -9.075779E-09
       374  15 -2.455908E+05  1.622687E+02 -3.291613E+02  2.151194E+04 -9.716370E-11 -1.733606E-09
       374  16 -3.364233E+05 -2.195291E+04 -2.043153E+04  2.123882E+04 -1.934081E-08  4.998163E-09
       374  17 -3.021594E+05 -1.368212E+04 -1.279439E+04  1.442539E+04  6.565318E-09  1.475022E-08
       374  18 -2.680249E+05 -5.322220E+03 -5.309471E+03  2.144464E+04  3.159257E-08  7.412368E-09
       374  19 -1.547530E+05  2.226701E+04  1.893483E+04  2.178514E+04  2.388545E+03  4.984438E+03
       374  20 -1.888902E+05  1.391211E+04  1.186826E+04  1.476593E+04  2.167816E+03  3.013231E+03
       374  21 -2.231563E+05  5.646726E+03  4.651126E+03  2.157924E+04  1.947244E+03  1.040763E+03
       374  22 -2.455920E+05  1.573313E+02 -7.480899E+02  2.151196E+04  5.451739E+02  4.977848E+03
       374  23 -2.455263E+05  1.151060E+02 -4.629635E+02  1.459565E+04  3.233416E+02  3.006580E+03
       374  24 -2.455908E+05  1.622699E+02 -3.291593E+02  2.151194E+04  1.016534E+02  1.034046E+03
       374  25 -3.364232E+05 -2.195289E+04 -2.043148E+04  2.123881E+04 -1.297931E+03  4.971260E+03
       374  26 -3.021594E+05 -1.368211E+04 -1.279437E+04  1.442539E+04 -1.520967E+03  2.999929E+03
       374  27 -2.680249E+05 -5.322218E+03 -5.309463E+03  2.144464E+04 -1.743871E+03  1.027330E+03
       375   1 -2.506987E+05 -1.101640E+03 -1.510871E+03  2.150061E+04 -1.894186E+03  1.074276E+02
       375   2 -2.848416E+05 -9.463970E+03 -8.879581E+03  1.448296E+04 -1.742305E+03  2.079872E+03
       375   3 -3.191038E+05 -1.773308E+04 -1.635329E+04  2.129947E+04 -1.590333E+03  4.051214E+03
       375   4 -2.455886E+05  1.623574E+02 -3.026476E+02  2.151227E+04 -4.858579E+01  1.141502E+02
       375   5 -2.455286E+05  1.134847E+02 -3.195626E+02  1.459523E+04  1.022113E+02  2.086547E+03
       375   6 -2.455894E+05  1.579600E+02 -4.408192E+02  2.151229E+04  2.531069E+02  4.057846E+03
       375   7 -2.404784E+05  1.426354E+03  9.055868E+02  2.152394E+04  1.797029E+03  1.208729E+02
       375   8 -2.062142E+05  9.690838E+03  8.240376E+03  1.470751E+04  1.946843E+03  2.093222E+03
       375   9 -1.720700E+05  1.804864E+04  1.547134E+04  2.172513E+04  2.096763E+03  4.064479E+03
       375  10 -2.506987E+05 -1.101641E+03 -1.510878E+03  2.150061E+04 -1.434408E-09 -9.806462E-10
       375  11 -2.848416E+05 -9.463975E+03 -8.879595E+03  1.448297E+04 -3.945906E-09 -5.069206E-09
       375  12 -3.191038E+05 -1.773310E+04 -1.635332E+04  2.129947E+04 -8.437878E-09 -2.441993E-09
       375  13 -2.455886E+05  1.623574E+02 -3.026476E+02  2.151227E+04  6.633320E-10  6.773901E-09
       375  14 -2.455286E+05  1.134801E+02 -3.195708E+02  1.459523E+04  7.119386E-10 -4.094290E-09
       375  15 -2.455894E+05  1.579423E+02 -4.408502E+02  2.151229E+04  3.617750E-10 -2.886937E-09
       375  16 -2.404784E+05  1.426353E+03  9.055807E+02  2.152394E+04  3.114651E-10  2.336961E-09
       375  17 -2.062142E+05  9.690833E+03  8.240361E+03  1.470751E+04  1.897904E-09 -1.207731E-08
       375  18 -1.720700E+05  1.804862E+04  1.547130E+04  2.172512E+04  1.025301E-08 -2.605303E-09
       375  19 -2.506987E+05 -1.101640E+03 -1.510871E+03  2.150061E+04  1.894186E+03 -1.074276E+02
       375  20 -2.848416E+05 -9.463970E+03 -8.879581E+03  1.448296E+04  1.742305E+03 -2.079872E+03
       375  21 -3.191038E+05 -1.773308E+04 -1.635329E+04  2.129947E+04  1.590333E+03 -4.051214E+03
       375  22 -2.455886E+05  1.623574E+02 -3.026476E+02  2.151227E+04  4.858579E+01 -1.141502E+02
       375  23 -2.455286E+05  1.134847E+02 -3.195626E+02  1.459523E+04 -1.022113E+02 -2.086547E+03
       375  24 -2.455894E+05  1.579600E+02 -4.408192E+02  2.151229E+04 -2.531069E+02 -4.057846E+03
       375  25 -2.404784E+05  1.426354E+03  9.055868E+02  2.152394E+04 -1.797029E+03 -1.208729E+02
       375  26 -2.062142E+05  9.690838E+03  8.240376E+03  1.470751E+04 -1.946843E+03 -2.093222E+03
       375  27 -1.720700E+05  1.804864E+04  1.547134E+04  2.172513E+04 -2.096763E+03 -4.064479E+03
       376   1 -3.466470E+05 -2.447322E+04 -2.264576E+04  2.120760E+04 -1.510200E+03  5.200547E+03
       376   2 -3.807306E+05 -3.282711E+04 -3.034905E+04  1.421126E+04 -1.050566E+03  7.167729E+03
       376   3 -4.149854E+05 -4.116370E+04 -3.837514E+04  2.103409E+04 -5.905472E+02  9.114685E+03
       376   4 -2.456011E+05  1.637499E+02 -5.478726E+02  2.150885E+04  3.381815E+02  5.207140E+03
       376   5 -2.455183E+05  1.158506E+02 -9.036119E+02  1.459948E+04  7.789498E+02  7.174109E+03
       376   6 -2.456039E+05  8.875565E+01 -1.568810E+03  2.150911E+04  1.220127E+03  9.120860E+03
       376   7 -1.445456E+05  2.480004E+04  2.154941E+04  2.181014E+04  2.186860E+03  5.213734E+03
       376   8 -1.102888E+05  3.305760E+04  2.854075E+04  1.498778E+04  2.608859E+03  7.180492E+03
       376   9 -7.619554E+04  4.133931E+04  3.523582E+04  2.198424E+04  3.031289E+03  9.127038E+03
       376  10 -3.466470E+05 -2.447325E+04 -2.264582E+04  2.120760E+04 -7.949966E-09  1.621947E-09
       376  11 -3.807306E+05 -3.282717E+04 -3.034915E+04  1.421126E+04 -5.489251E-09 -7.800627E-09
       376  12 -4.149854E+05 -4.116379E+04 -3.837530E+04  2.103409E+04 -1.151908E-09 -1.429307E-09
       376  13 -2.456011E+05  1.637208E+02 -5.479237E+02  2.150885E+04  2.453336E-09  1.611636E-09
       376  14 -2.455183E+05  1.157951E+02 -9.037097E+02  1.459948E+04  1.330139E-10  4.966458E-09
       376  15 -2.456039E+05  8.866593E+01 -1.568970E+03  2.150910E+04 -3.304457E-10  2.979662E-09
       376  16 -1.445456E+05  2.480001E+04  2.154935E+04  2.181013E+04  6.439589E-09  7.095828E-09
       376  17 -1.102888E+05  3.305754E+04  2.854064E+04  1.498777E+04  3.732797E-09 -8.054439E-09
       376  18 -7.619557E+04  4.133922E+04  3.523565E+04  2.198422E+04  2.883168E-09  3.194730E-09
       376  19 -3.466470E+05 -2.447322E+04 -2.264576E+04  2.120760E+04  1.510200E+03 -5.200547E+03
       376  20 -3.807306E+05 -3.282711E+04 -3.034905E+04  1.421126E+04  1.050566E+03 -7.167729E+03
       376  21 -4.149854E+05 -4.116370E+04 -3.837514E+04  2.103409E+04  5.905472E+02 -9.114685E+03
       376  22 -2.456011E+05  1.637499E+02 -5.478726E+02  2.150885E+04 -3.381815E+02 -5.207140E+03
       376  23 -2.455183E+05  1.158506E+02 -9.036119E+02  1.459948E+04 -7.789498E+02 -7.174109E+03
       376  24 -2.456039E+05  8.875565E+01 -1.568810E+03  2.150911E+04 -1.220127E+03 -9.120860E+03
       376  25 -1.445456E+05  2.480004E+04  2.154941E+04  2.181014E+04 -2.186860E+03 -5.213734E+03
       376  26 -1.102888E+05  3.305760E+04  2.854075E+04  1.498778E+04 -2.608859E+03 -7.180492E+03
       376  27 -7.619554E+04  4.133931E+04  3.523582E+04  2.198424E+04 -3.031289E+03 -9.127038E+03
       377   1 -4.425897E+05 -4.776376E+04 -4.500573E+04  2.072262E+04 -3.984191E+02  1.029684E+04
       377   2 -4.763416E+05 -5.615616E+04 -5.389011E+04  1.412722E+04  1.768296E+03  1.215497E+04
       377   3 -5.108038E+05 -6.586874E+04 -6.453942E+04  2.130898E+04  3.936844E+03  1.358358E+04
       377   4 -2.457113E+05  2.246441E+02 -2.041229E+03  2.149832E+04  1.534012E+03  1.030332E+04
       377   5 -2.453931E+05  1.258543E+02 -3.531855E+03  1.461233E+04  3.299497E+03  1.215984E+04
       377   6 -2.457164E+05 -1.223025E+03 -6.508167E+03  2.150322E+04  5.066932E+03  1.358691E+04
       377   7 -4.879653E+04  4.821047E+04  4.092095E+04  2.227424E+04  3.467049E+03  1.030980E+04
       377   8 -1.439461E+04  5.640432E+04  4.682320E+04  1.509759E+04  4.831261E+03  1.216471E+04
       377   9  1.943695E+04  6.341800E+04  5.151883E+04  2.169748E+04  6.197496E+03  1.359024E+04
       377  10 -4.425897E+05 -4.776387E+04 -4.500593E+04  2.072263E+04  1.010647E-08 -1.095800E-09
       377  11 -4.763416E+05 -5.615632E+04 -5.389039E+04  1.412720E+04 -9.373430E-09  8.620358E-09
       377  12 -5.108039E+05 -6.586894E+04 -6.453980E+04  2.130894E+04 -1.995725E-08 -4.570554E-09
       377  13 -2.457113E+05  2.245295E+02 -2.041433E+03  2.149831E+04  1.508216E-09 -7.368140E-09
       377  14 -2.453932E+05  1.256926E+02 -3.532153E+03  1.461230E+04 -7.118624E-10  3.971813E-09
       377  15 -2.457164E+05 -1.223230E+03 -6.508562E+03  2.150316E+04  1.804743E-10 -2.942667E-10
       377  16 -4.879657E+04  4.821035E+04  4.092073E+04  2.227421E+04 -1.096051E-08 -4.840907E-09
       377  17 -1.439467E+04  5.640415E+04  4.682288E+04  1.509754E+04  7.167541E-09 -1.768427E-08
       377  18  1.943686E+04  6.341779E+04  5.151842E+04  2.169741E+04  2.128212E-08 -1.690599E-09
       377  19 -4.425897E+05 -4.776376E+04 -4.500573E+04  2.072262E+04  3.984191E+02 -1.029684E+04
       377  20 -4.763416E+05 -5.615616E+04 -5.389011E+04  1.412722E+04 -1.768296E+03 -1.215497E+04
       377  21 -5.108038E+05 -6.586874E+04 -6.453942E+04  2.130898E+04 -3.936844E+03 -1.358358E+04
       377  22 -2.457113E+05  2.246441E+02 -2.041229E+03  2.149832E+04 -1.534012E+03 -1.030332E+04
       377  23 -2.453931E+05  1.258543E+02 -3.531855E+03  1.461233E+04 -3.299497E+03 -1.215984E+04
       377  24 -2.457164E+05 -1.223025E+03 -6.508167E+03  2.150322E+04 -5.066932E+03 -1.358691E+04
       377  25 -4.879653E+04  4.821047E+04  4.092095E+04  2.227424E+04 -3.467049E+03 -1.030980E+04
       377  26 -1.439461E+04  5.640432E+04  4.682320E+04  1.509759E+04 -4.831261E+03 -1.216471E+04
       377  27  1.943695E+04  6.341800E+04  5.151883E+04  2.169748E+04 -6.197496E+03 -1.359024E+04
       378   1 -5.398503E+05 -7.000036E+04 -7.196652E+04  1.701736E+04  2.356663E+03  1.551452E+04
       378   2 -5.697017E+05 -7.978481E+04 -8.650266E+04  1.832564E+04  1.867295E+04  1.493646E+04
       378   3 -6.081385E+05 -1.151267E+05 -1.180694E+05  3.300010E+04  3.501674E+04  4.844949E+03
       378   4 -2.471406E+05  1.353098E+03 -8.198420E+03  2.138781E+04  6.217719E+03  1.552664E+04
       378   5 -2.436267E+05 -7.228135E+01 -1.401734E+04  1.474672E+04  1.363929E+04  1.491985E+04
       378   6 -2.471505E+05 -2.550309E+04 -3.068273E+04  2.147207E+04  2.108957E+04  4.801426E+03
       378   7  4.564963E+04  7.270093E+04  5.556460E+04  2.576028E+04  1.008057E+04  1.553881E+04
       378   8  8.254768E+04  7.963312E+04  5.846145E+04  1.116582E+04  8.603015E+03  1.490329E+04
       378   9  1.139575E+05  6.411159E+04  5.669533E+04  9.937225E+03  7.154314E+03  4.758434E+03
       378  10 -5.398504E+05 -7.000062E+04 -7.196698E+04  1.701733E+04  1.727065E-08 -3.621942E-09
       378  11 -5.697022E+05 -7.978515E+04 -8.650374E+04  1.832542E+04  9.886649E-09 -7.172236E-09
       378  12 -6.081399E+05 -1.151270E+05 -1.180717E+05  3.299996E+04  8.106711E-10  5.389584E-09
       378  13 -2.471407E+05  1.352829E+03 -8.198945E+03  2.138773E+04  1.153189E-09  7.094407E-09
       378  14 -2.436270E+05 -7.257032E+01 -1.401811E+04  1.474656E+04 -2.461206E-10  6.271697E-09
       378  15 -2.471510E+05 -2.550323E+04 -3.068361E+04  2.147199E+04 -1.127933E-10  1.735150E-09
       378  16  4.564946E+04  7.270065E+04  5.556395E+04  2.576015E+04 -1.809240E-08  3.663392E-09
       378  17  8.254754E+04  7.963286E+04  5.846090E+04  1.116572E+04 -1.077347E-08  8.485825E-09
       378  18  1.139574E+05  6.411155E+04  5.669519E+04  9.937197E+03 -5.015900E-10 -2.738776E-09
       378  19 -5.398503E+05 -7.000036E+04 -7.196652E+04  1.701736E+04 -2.356663E+03 -1.551452E+04
       378  20 -5.697017E+05 -7.978481E+04 -8.650266E+04  1.832564E+04 -1.867295E+04 -1.493646E+04
       378  21 -6.081385E+05 -1.151267E+05 -1.180694E+05  3.300010E+04 -3.501674E+04 -4.844949E+03
       378  22 -2.471406E+05  1.353098E+03 -8.198420E+03  2.138781E+04 -6.217719E+03 -1.552664E+04
       378  23 -2.436267E+05 -7.228135E+01 -1.401734E+04  1.474672E+04 -1.363929E+04 -1.491985E+04
       378  24 -2.471505E+05 -2.550309E+04 -3.068273E+04  2.147207E+04 -2.108957E+04 -4.801426E+03
       378  25  4.564963E+04  7.270093E+04  5.556460E+04  2.576028E+04 -1.008057E+04 -1.553881E+04
       378  26  8.254768E+04  7.963312E+04  5.846145E+04  1.116582E+04 -8.603015E+03 -1.490329E+04
       378  27  1.139575E+05  6.411159E+04  5.669533E+04  9.937225E+03 -7.154314E+03 -4.758434E+03
       379   1 -2.089828E+05 -8.316040E+05 -2.033277E+05  1.907417E+05 -8.562154E+03 -5.349917E+04
       379   2 -1.410668E+05 -6.280683E+05 -1.261756E+05  1.592848E+05 -2.546496E+04 -1.958991E+04
       379   3 -8.972838E+04 -4.326638E+05 -7.522062E+04  1.784935E+05 -2.208992E+04  1.438979E+04
       379   4 -1.778671E+04 -6.088456E+04 -1.882478E+04  1.793304E+05 -8.662938E+03 -1.408486E+04
       379   5 -3.660099E+03 -5.934198E+04 -8.246779E+03  1.540195E+05 -2.548742E+04 -9.823398E+03
       379   6 -9.496576E+02 -6.081140E+04 -3.253923E+03  1.793736E+05 -2.204186E+04 -5.503352E+03
       379   7  1.733676E+05  7.103832E+05  1.656420E+05  1.679052E+05 -8.765114E+03  2.537823E+04
       379   8  1.337262E+05  5.096912E+05  1.096648E+05  1.487495E+05 -2.551003E+04 -4.808574E+01
       379   9  8.782104E+04  3.111748E+05  6.870779E+04  1.802542E+05 -2.199387E+04 -2.540815E+04
       379  10 -2.089837E+05 -8.316071E+05 -2.033332E+05  1.907413E+05 -3.971311E-12  1.146690E-09
       379  11 -1.410676E+05 -6.280688E+05 -1.261776E+05  1.592844E+05 -6.312177E-10  5.938746E-09
       379  12 -8.972896E+04 -4.326641E+05 -7.522192E+04  1.784937E+05  7.955916E-10  1.558129E-09
       379  13 -1.778684E+04 -6.088480E+04 -1.882530E+04  1.793303E+05  1.531902E-09  6.262551E-09
       379  14 -3.660823E+03 -5.934226E+04 -8.248181E+03  1.540193E+05 -2.650899E-09 -3.858619E-09
       379  15 -9.501873E+02 -6.081156E+04 -3.254892E+03  1.793735E+05  5.710033E-10  4.214821E-09
       379  16  1.733674E+05  7.103825E+05  1.656407E+05  1.679054E+05  6.761402E-10 -3.197767E-09
       379  17  1.337255E+05  5.096910E+05  1.096636E+05  1.487495E+05  1.499841E-09 -1.967679E-09
       379  18  8.782035E+04  3.111739E+05  6.870567E+04  1.802538E+05 -8.432467E-10  1.425380E-09
       379  19 -2.089828E+05 -8.316040E+05 -2.033277E+05  1.907417E+05  8.562154E+03  5.349917E+04
       379  20 -1.410668E+05 -6.280683E+05 -1.261756E+05  1.592848E+05  2.546496E+04  1.958991E+04
       379  21 -8.972838E+04 -4.326638E+05 -7.522062E+04  1.784935E+05  2.208992E+04 -1.438979E+04
       379  22 -1.778671E+04 -6.088456E+04 -1.882478E+04  1.793304E+05  8.662938E+03  1.408486E+04
       379  23 -3.660099E+03 -5.934198E+04 -8.246779E+03  1.540195E+05  2.548742E+04  9.823398E+03
       379  24 -9.496576E+02 -6.081140E+04 -3.253923E+03  1.793736E+05  2.204186E+04  5.503352E+03
       379  25  1.733676E+05  7.103832E+05  1.656420E+05  1.679052E+05  8.765114E+03 -2.537823E+04
       379  26  1.337262E+05  5.096912E+05  1.096648E+05  1.487495E+05  2.551003E+04  4.808574E+01
       379  27  8.782104E+04  3.111748E+05  6.870779E+04  1.802542E+05  2.199387E+04  2.540815E+04
       380   1 -5.809589E+04 -2.965604E+05 -4.730549E+04  1.800038E+05 -1.396584E+04  1.144624E+04
       380   2 -9.506312E+03 -9.742540E+04 -4.635194E+03  1.539067E+05 -2.528948E+03  1.053972E+04
       380   3  3.932044E+04  1.022759E+05  3.876892E+04  1.796425E+05  9.039644E+03  9.632882E+03
       380   4 -1.599652E+03 -6.000097E+04 -1.438860E+03  1.796243E+05 -1.392676E+04 -5.193874E+03
       380   5 -6.954570E+02 -6.027971E+04  2.265216E+03  1.537104E+05 -2.489627E+03 -6.295223E+03
       380   6  4.820366E+02 -5.999597E+04  6.839502E+03  1.796292E+05  9.079109E+03 -7.396604E+03
       380   7  5.489339E+04  1.766129E+05  4.442618E+04  1.792447E+05 -1.388767E+04 -2.184019E+04
       380   8  8.115471E+03 -2.313207E+04  9.166634E+03  1.535141E+05 -2.450295E+03 -2.313115E+04
       380   9 -3.835781E+04 -2.222420E+05 -2.509011E+04  1.796158E+05  9.118579E+03 -2.442173E+04
       380  10 -5.809613E+04 -2.965606E+05 -4.730610E+04  1.800039E+05  1.005254E-09  9.671477E-10
       380  11 -9.506349E+03 -9.742552E+04 -4.635415E+03  1.539068E+05  4.151347E-10  7.954266E-09
       380  12  3.932033E+04  1.022758E+05  3.876859E+04  1.796424E+05  9.197253E-10  6.516112E-10
       380  13 -1.599867E+03 -6.000105E+04 -1.439275E+03  1.796243E+05  3.923602E-10  5.651280E-09
       380  14 -6.954743E+02 -6.027975E+04  2.265130E+03  1.537104E+05  1.255145E-09 -4.002720E-09
       380  15  4.819334E+02 -5.999605E+04  6.839244E+03  1.796292E+05  2.300231E-09  3.103054E-09
       380  16  5.489306E+04  1.766123E+05  4.442492E+04  1.792445E+05 -1.095479E-09 -2.179261E-09
       380  17  8.115321E+03 -2.313265E+04  9.165617E+03  1.535140E+05 -1.068915E-09 -4.599828E-09
       380  18 -3.835806E+04 -2.222427E+05 -2.509139E+04  1.796160E+05 -1.278247E-09 -4.555476E-10
       380  19 -5.809589E+04 -2.965604E+05 -4.730549E+04  1.800038E+05  1.396584E+04 -1.144624E+04
       380  20 -9.506312E+03 -9.742540E+04 -4.635194E+03  1.539067E+05  2.528948E+03 -1.053972E+04
       380  21  3.932044E+04  1.022759E+05  3.876892E+04  1.796425E+05 -9.039644E+03 -9.632882E+03
       380  22 -1.599652E+03 -6.000097E+04 -1.438860E+03  1.796243E+05  1.392676E+04  5.193874E+03
       380  23 -6.954570E+02 -6.027971E+04  2.265216E+03  1.537104E+05  2.489627E+03  6.295223E+03
       380  24  4.820366E+02 -5.999597E+04  6.839502E+03  1.796292E+05 -9.079109E+03  7.396604E+03
       380  25  5.489339E+04  1.766129E+05  4.442618E+04  1.792447E+05  1.388767E+04  2.184019E+04
       380  26  8.115471E+03 -2.313207E+04  9.166634E+03  1.535141E+05  2.450295E+03  2.313115E+04
       380  27 -3.835781E+04 -2.222420E+05 -2.509011E+04  1.796158E+05 -9.118579E+03  2.442173E+04
       381   1  7.029322E+04  2.390452E+05  6.756271E+04  1.757385E+05  1.717212E+04  1.137717E+04
       381   2  1.244563E+05  4.326628E+05  1.214482E+05  1.618212E+05  2.166241E+04 -2.517158E+04
       381   3  2.063282E+05  6.383836E+05  2.061263E+05  1.987574E+05  7.708419E+03 -6.178424E+04
       381   4 -8.242275E+02 -5.849115E+04  9.575424E+03  1.793945E+05  1.721944E+04 -8.575473E+03
       381   5  4.934329E+03 -6.221688E+04  1.835660E+04  1.540123E+05  2.164671E+04 -1.810173E+04
       381   6  3.372703E+04 -5.855294E+04  3.917935E+04  1.794826E+05  7.624358E+03 -2.768004E+04
       381   7 -7.194672E+04 -3.559417E+05 -4.841457E+04  1.830488E+05  1.726654E+04 -2.851877E+04
       381   8 -1.146030E+05 -5.568646E+05 -8.474825E+04  1.462099E+05  2.163083E+04 -1.103742E+04
       381   9 -1.389073E+05 -7.550414E+05 -1.277974E+05  1.602296E+05  7.538137E+03  6.386072E+03
       381  10  7.029287E+04  2.390450E+05  6.756191E+04  1.757384E+05  1.641653E-09  5.196008E-11
       381  11  1.244556E+05  4.326620E+05  1.214461E+05  1.618216E+05 -5.019495E-10  7.737506E-09
       381  12  2.063271E+05  6.383795E+05  2.061190E+05  1.987578E+05 -1.101779E-09  9.628755E-10
       381  13 -8.245657E+02 -5.849131E+04  9.574728E+03  1.793947E+05 -9.034134E-10  9.977690E-09
       381  14  4.933737E+03 -6.221736E+04  1.835511E+04  1.540126E+05  8.184350E-10 -5.890698E-09
       381  15  3.372676E+04 -5.855378E+04  3.917780E+04  1.794827E+05 -6.921955E-10  2.114173E-09
       381  16 -7.194726E+04 -3.559426E+05 -4.841666E+04  1.830492E+05 -3.508035E-11 -2.331918E-09
       381  17 -1.146035E+05 -5.568648E+05 -8.474936E+04  1.462101E+05  1.093321E-09 -4.730828E-09
       381  18 -1.389073E+05 -7.550415E+05 -1.277975E+05  1.602296E+05 -5.422353E-10 -6.306067E-10
       381  19  7.029322E+04  2.390452E+05  6.756271E+04  1.757385E+05 -1.717212E+04 -1.137717E+04
       381  20  1.244563E+05  4.326628E+05  1.214482E+05  1.618212E+05 -2.166241E+04  2.517158E+04
       381  21  2.063282E+05  6.383836E+05  2.061263E+05  1.987574E+05 -7.708419E+03  6.178424E+04
       381  22 -8.242275E+02 -5.849115E+04  9.575424E+03  1.793945E+05 -1.721944E+04  8.575473E+03
       381  23  4.934329E+03 -6.221688E+04  1.835660E+04  1.540123E+05 -2.164671E+04  1.810173E+04
       381  24  3.372703E+04 -5.855294E+04  3.917935E+04  1.794826E+05 -7.624358E+03  2.768004E+04
       381  25 -7.194672E+04 -3.559417E+05 -4.841457E+04  1.830488E+05 -1.726654E+04  2.851877E+04
       381  26 -1.146030E+05 -5.568646E+05 -8.474825E+04  1.462099E+05 -2.163083E+04  1.103742E+04
       381  27 -1.389073E+05 -7.550414E+05 -1.277974E+05  1.602296E+05 -7.538137E+03 -6.386072E+03
       382   1  5.983492E+05  2.375426E+05  1.478944E+05  2.210028E+05  6.264282E+04  1.965132E+04
       382   2  5.758159E+05  1.503175E+05  9.116721E+04  2.156151E+05  4.042276E+04  2.593089E+03
       382   3  5.731139E+05  1.311101E+05  6.989941E+04  2.022137E+05  1.549182E+04 -7.296746E+03
       382   4  3.670551E+05  1.216518E+05  8.071302E+04  1.283857E+05  5.285122E+04  1.594238E+04
       382   5  3.533299E+05  5.728645E+04  3.504837E+04  1.441206E+05  3.692432E+04  1.267824E+03
       382   6  3.581975E+05  5.970396E+04  1.986459E+04  1.518395E+05  1.828517E+04 -6.239311E+03
       382   7  1.358189E+05  5.779548E+03  1.352815E+04  3.580546E+04  4.306375E+04  1.223615E+04
       382   8  1.308940E+05 -3.573718E+04 -2.107407E+04  7.265102E+04  3.342726E+04 -5.678146E+01
       382   9  1.433251E+05 -1.170166E+04 -3.017374E+04  1.014797E+05  2.107750E+04 -5.182167E+03
       382  10  5.983448E+05  2.375411E+05  1.478863E+05  2.210018E+05 -3.046402E-09 -3.442941E-09
       382  11  5.758142E+05  1.503171E+05  9.116413E+04  2.156150E+05  1.932699E-09  8.747007E-09
       382  12  5.731137E+05  1.311100E+05  6.989886E+04  2.022138E+05  5.441224E-09 -3.244851E-09
       382  13  3.670520E+05  1.216508E+05  8.070730E+04  1.283851E+05 -4.947386E-10 -8.262038E-10
       382  14  3.533284E+05  5.728608E+04  3.504581E+04  1.441206E+05 -3.831963E-09  2.757000E-09
       382  15  3.581971E+05  5.970383E+04  1.986389E+04  1.518395E+05 -2.102199E-09  1.114567E-08
       382  16  1.358169E+05  5.778889E+03  1.352438E+04  3.580503E+04  1.789018E-09 -3.363623E-09
       382  17  1.308928E+05 -3.573748E+04 -2.107617E+04  7.265102E+04 -4.913933E-09 -3.256540E-09
       382  18  1.433246E+05 -1.170181E+04 -3.017462E+04  1.014798E+05 -7.797521E-09 -2.860693E-09
       382  19  5.983492E+05  2.375426E+05  1.478944E+05  2.210028E+05 -6.264282E+04 -1.965132E+04
       382  20  5.758159E+05  1.503175E+05  9.116721E+04  2.156151E+05 -4.042276E+04 -2.593089E+03
       382  21  5.731139E+05  1.311101E+05  6.989941E+04  2.022137E+05 -1.549182E+04  7.296746E+03
       382  22  3.670551E+05  1.216518E+05  8.071302E+04  1.283857E+05 -5.285122E+04 -1.594238E+04
       382  23  3.533299E+05  5.728645E+04  3.504837E+04  1.441206E+05 -3.692432E+04 -1.267824E+03
       382  24  3.581975E+05  5.970396E+04  1.986459E+04  1.518395E+05 -1.828517E+04  6.239311E+03
       382  25  1.358189E+05  5.779548E+03  1.352815E+04  3.580546E+04 -4.306375E+04 -1.223615E+04
       382  26  1.308940E+05 -3.573718E+04 -2.107407E+04  7.265102E+04 -3.342726E+04  5.678146E+01
       382  27  1.433251E+05 -1.170166E+04 -3.017374E+04  1.014797E+05 -2.107750E+04  5.182167E+03
       383   1  5.450073E+05  1.377286E+05  6.168746E+04  2.018568E+05  1.457067E+04 -6.007409E+03
       383   2  5.263806E+05  1.219577E+05  4.870378E+04  1.923955E+05  9.848127E+03 -6.770952E+03
       383   3  5.029566E+05  1.166986E+05  3.998951E+04  1.898011E+05  5.005207E+03 -7.216799E+03
       383   4  3.556325E+05  6.565590E+04  1.572846E+04  1.481555E+05  1.521497E+04 -5.763751E+03
       383   5  3.578027E+05  5.862907E+04  8.089023E+03  1.454039E+05  1.077228E+04 -6.421182E+03
       383   6  3.551201E+05  6.205939E+04  4.498185E+03  1.495191E+05  6.209049E+03 -6.760947E+03
       383   7  1.662932E+05 -6.413844E+03 -3.023319E+04  9.446920E+04  1.585905E+04 -5.520178E+03
       383   8  1.892533E+05 -4.697197E+03 -3.252769E+04  9.842417E+04  1.169616E+04 -6.071518E+03
       383   9  2.073060E+05  7.421892E+03 -3.099452E+04  1.092460E+05  7.412573E+03 -6.305213E+03
       383  10  5.450071E+05  1.377285E+05  6.168699E+04  2.018569E+05  2.105075E-09  1.668132E-10
       383  11  5.263805E+05  1.219576E+05  4.870351E+04  1.923955E+05  5.017042E-09 -9.674833E-11
       383  12  5.029565E+05  1.166986E+05  3.998937E+04  1.898011E+05  3.390466E-09  1.215020E-08
       383  13  3.556322E+05  6.565580E+04  1.572796E+04  1.481556E+05 -2.104433E-10 -2.649701E-09
       383  14  3.578025E+05  5.862900E+04  8.088727E+03  1.454040E+05  7.059739E-10  1.955496E-08
       383  15  3.551201E+05  6.205933E+04  4.498026E+03  1.495192E+05 -2.732014E-09  6.933155E-09
       383  16  1.662929E+05 -6.413945E+03 -3.023372E+04  9.446927E+04 -3.641852E-09 -6.531859E-09
       383  17  1.892531E+05 -4.697273E+03 -3.252802E+04  9.842423E+04 -5.853561E-09 -7.115692E-09
       383  18  2.073060E+05  7.421834E+03 -3.099470E+04  1.092461E+05 -5.265136E-09  7.420868E-09
       383  19  5.450073E+05  1.377286E+05  6.168746E+04  2.018568E+05 -1.457067E+04  6.007409E+03
       383  20  5.263806E+05  1.219577E+05  4.870378E+04  1.923955E+05 -9.848127E+03  6.770952E+03
       383  21  5.029566E+05  1.166986E+05  3.998951E+04  1.898011E+05 -5.005207E+03  7.216799E+03
       383  22  3.556325E+05  6.565590E+04  1.572846E+04  1.481555E+05 -1.521497E+04  5.763751E+03
       383  23  3.578027E+05  5.862907E+04  8.089023E+03  1.454039E+05 -1.077228E+04  6.421182E+03
       383  24  3.551201E+05  6.205939E+04  4.498185E+03  1.495191E+05 -6.209049E+03  6.760947E+03
       383  25  1.662932E+05 -6.413844E+03 -3.023319E+04  9.446920E+04 -1.585905E+04  5.520178E+03
       383  26  1.892533E+05 -4.697197E+03 -3.252769E+04  9.842417E+04 -1.169616E+04  6.071518E+03
       383  27  2.073060E+05  7.421892E+03 -3.099452E+04  1.092460E+05 -7.412573E+03  6.305213E+03
       384   1  4.843889E+05  1.107578E+05  3.448091E+04  1.851104E+05  4.173243E+03 -6.640339E+03
       384   2  4.663078E+05  9.919156E+04  2.785695E+04  1.754084E+05  2.748837E+03 -5.729726E+03
       384   3  4.416881E+05  9.461459E+04  2.199652E+04  1.733223E+05  1.319442E+03 -4.806476E+03
       384   4  3.549038E+05  6.238502E+04  3.422785E+03  1.492709E+05  5.279565E+03 -6.221356E+03
       384   5  3.581617E+05  5.879963E+04  1.866469E+03  1.454980E+05  3.866454E+03 -5.306369E+03
       384   6  3.548789E+05  6.220147E+04  1.064983E+03  1.493411E+05  2.448323E+03 -4.378756E+03
       384   7  2.254346E+05  1.401324E+04 -2.763674E+04  1.134380E+05  6.385641E+03 -5.802466E+03
       384   8  2.500270E+05  1.840843E+04 -2.412494E+04  1.155923E+05  4.983863E+03 -4.883091E+03
       384   9  2.680771E+05  2.978889E+04 -1.986711E+04  1.253629E+05  3.577031E+03 -3.951101E+03
       384  10  4.843889E+05  1.107577E+05  3.448079E+04  1.851104E+05 -3.036384E-09  5.308834E-09
       384  11  4.663078E+05  9.919152E+04  2.785688E+04  1.754084E+05 -2.515445E-09 -6.575158E-09
       384  12  4.416881E+05  9.461457E+04  2.199647E+04  1.733223E+05 -3.480113E-09  4.884214E-09
       384  13  3.549038E+05  6.238497E+04  3.422660E+03  1.492709E+05 -8.386667E-10  3.754660E-09
       384  14  3.581617E+05  5.879959E+04  1.866388E+03  1.454981E+05  4.436739E-09 -7.270272E-09
       384  15  3.548789E+05  6.220145E+04  1.064936E+03  1.493411E+05 -7.927915E-10 -2.894653E-09
       384  16  2.254345E+05  1.401319E+04 -2.763688E+04  1.134380E+05  1.260818E-09  6.736263E-09
       384  17  2.500269E+05  1.840840E+04 -2.412504E+04  1.155923E+05  4.839373E-09  3.500870E-09
       384  18  2.680771E+05  2.978887E+04 -1.986716E+04  1.253629E+05  4.066798E-09  2.636196E-09
       384  19  4.843889E+05  1.107578E+05  3.448091E+04  1.851104E+05 -4.173243E+03  6.640339E+03
       384  20  4.663078E+05  9.919156E+04  2.785695E+04  1.754084E+05 -2.748837E+03  5.729726E+03
       384  21  4.416881E+05  9.461459E+04  2.199652E+04  1.733223E+05 -1.319442E+03  4.806476E+03
       384  22  3.549038E+05  6.238502E+04  3.422785E+03  1.492709E+05 -5.279565E+03  6.221356E+03
       384  23  3.581617E+05  5.879963E+04  1.866469E+03  1.454980E+05 -3.866454E+03  5.306369E+03
       384  24  3.548789E+05  6.220147E+04  1.064983E+03  1.493411E+05 -2.448323E+03  4.378756E+03
       384  25  2.254346E+05  1.401324E+04 -2.763674E+04  1.134380E+05 -6.385641E+03  5.802466E+03
       384  26  2.500270E+05  1.840843E+04 -2.412494E+04  1.155923E+05 -4.983863E+03  4.883091E+03
       384  27  2.680771E+05  2.978889E+04 -1.986711E+04  1.253629E+05 -3.577031E+03  3.951101E+03
       385   1  4.238085E+05  8.796174E+04  1.732627E+04  1.684024E+05  8.848464E+02 -4.115712E+03
       385   2  4.058537E+05  7.664176E+04  1.199000E+04  1.586997E+05  1.324473E+02 -2.935407E+03
       385   3  3.812065E+05  7.207476E+04  6.856059E+03  1.566148E+05 -6.199866E+02 -1.755199E+03
       385   4  3.548547E+05  6.221205E+04  8.282754E+02  1.493180E+05  2.008543E+03 -3.689916E+03
       385   5  3.582012E+05  5.883349E+04  5.363376E+02  1.455101E+05  1.256079E+03 -2.509597E+03
       385   6  3.548549E+05  6.220796E+04  4.468088E+02  1.493199E+05  5.035664E+02 -1.329375E+03
       385   7  2.859060E+05  3.646284E+04 -1.566996E+04  1.302357E+05  3.132098E+03 -3.264173E+03
       385   8  3.105510E+05  4.102539E+04 -1.091748E+04  1.323214E+05  2.379616E+03 -2.083823E+03
       385   9  3.285039E+05  5.234116E+04 -5.962525E+03  1.420253E+05  1.627073E+03 -9.035683E+02
       385  10  4.238085E+05  8.796172E+04  1.732623E+04  1.684024E+05  4.414494E-09  1.504953E-09
       385  11  4.058537E+05  7.664175E+04  1.198998E+04  1.586997E+05  1.310294E-09  2.980042E-09
       385  12  3.812065E+05  7.207475E+04  6.856053E+03  1.566148E+05  4.255723E-10 -3.448876E-09
       385  13  3.548547E+05  6.221203E+04  8.282422E+02  1.493180E+05  1.878789E-10  2.245642E-10
       385  14  3.582012E+05  5.883348E+04  5.363228E+02  1.455101E+05  2.526838E-09  8.925279E-09
       385  15  3.548549E+05  6.220796E+04  4.468050E+02  1.493199E+05  1.038475E-09 -1.021893E-08
       385  16  2.859059E+05  3.646282E+04 -1.567000E+04  1.302357E+05 -1.818408E-09 -3.197751E-09
       385  17  3.105510E+05  4.102538E+04 -1.091750E+04  1.323215E+05  6.382222E-10 -6.818059E-09
       385  18  3.285039E+05  5.234116E+04 -5.962531E+03  1.420253E+05  3.271888E-09 -6.125883E-11
       385  19  4.238085E+05  8.796174E+04  1.732627E+04  1.684024E+05 -8.848464E+02  4.115712E+03
       385  20  4.058537E+05  7.664176E+04  1.199000E+04  1.586997E+05 -1.324473E+02  2.935407E+03
       385  21  3.812065E+05  7.207476E+04  6.856059E+03  1.566148E+05  6.199866E+02  1.755199E+03
       385  22  3.548547E+05  6.221205E+04  8.282754E+02  1.493180E+05 -2.008543E+03  3.689916E+03
       385  23  3.582012E+05  5.883349E+04  5.363376E+02  1.455101E+05 -1.256079E+03  2.509597E+03
       385  24  3.548549E+05  6.220796E+04  4.468088E+02  1.493199E+05 -5.035664E+02  1.329375E+03
       385  25  2.859060E+05  3.646284E+04 -1.566996E+04  1.302357E+05 -3.132098E+03  3.264173E+03
       385  26  3.105510E+05  4.102539E+04 -1.091748E+04  1.323214E+05 -2.379616E+03  2.083823E+03
       385  27  3.285039E+05  5.234116E+04 -5.962525E+03  1.420253E+05 -1.627073E+03  9.035683E+02
       386   1  3.634071E+05  6.539681E+04  2.443521E+03  1.516981E+05 -9.778652E+02 -1.038103E+03
       386   2  3.454616E+05  5.408763E+04 -2.439806E+03  1.419998E+05 -1.771286E+03  1.260463E+02
       386   3  3.208344E+05  4.953148E+04 -7.089300E+03  1.399154E+05 -2.564529E+03  1.289904E+03
       386   4  3.548572E+05  6.220728E+04  4.616624E+02  1.493194E+05  1.453996E+02 -6.123773E+02
       386   5  3.581987E+05  5.883407E+04  6.194311E+02  1.455112E+05 -6.483221E+02  5.516449E+02
       386   6  3.548580E+05  6.221384E+04  1.011246E+03  1.493168E+05 -1.441876E+03  1.715372E+03
       386   7  3.463074E+05  5.901776E+04 -1.520195E+03  1.469406E+05  1.268647E+03 -1.866582E+02
       386   8  3.709360E+05  6.358052E+04  3.678652E+03  1.490226E+05  4.746642E+02  9.772518E+02
       386   9  3.888826E+05  7.489622E+04  9.111665E+03  1.587186E+05 -3.191616E+02  2.140863E+03
       386  10  3.634071E+05  6.539681E+04  2.443517E+03  1.516981E+05  4.289165E-09  7.442891E-10
       386  11  3.454616E+05  5.408763E+04 -2.439812E+03  1.419998E+05  4.523232E-09  1.158631E-08
       386  12  3.208344E+05  4.953148E+04 -7.089315E+03  1.399154E+05  4.331357E-09 -1.165072E-09
       386  13  3.548572E+05  6.220728E+04  4.616617E+02  1.493194E+05  2.912909E-09  1.379263E-09
       386  14  3.581987E+05  5.883407E+04  6.194297E+02  1.455112E+05 -9.243175E-10 -1.786750E-08
       386  15  3.548580E+05  6.221384E+04  1.011237E+03  1.493168E+05  3.348981E-09  7.675143E-10
       386  16  3.463074E+05  5.901776E+04 -1.520198E+03  1.469406E+05  1.159556E-09 -1.107868E-08
       386  17  3.709360E+05  6.358051E+04  3.678650E+03  1.490226E+05  3.491893E-09 -1.412136E-08
       386  18  3.888826E+05  7.489622E+04  9.111657E+03  1.587186E+05  2.432225E-09 -1.829716E-08
       386  19  3.634071E+05  6.539681E+04  2.443521E+03  1.516981E+05  9.778652E+02  1.038103E+03
       386  20  3.454616E+05  5.408763E+04 -2.439806E+03  1.419998E+05  1.771286E+03 -1.260463E+02
       386  21  3.208344E+05  4.953148E+04 -7.089300E+03  1.399154E+05  2.564529E+03 -1.289904E+03
       386  22  3.548572E+05  6.220728E+04  4.616624E+02  1.493194E+05 -1.453996E+02  6.123773E+02
       386  23  3.581987E+05  5.883407E+04  6.194311E+02  1.455112E+05  6.483221E+02 -5.516449E+02
       386  24  3.548580E+05  6.221384E+04  1.011246E+03  1.493168E+05  1.441876E+03 -1.715372E+03
       386  25  3.463074E+05  5.901776E+04 -1.520195E+03  1.469406E+05 -1.268647E+03  1.866582E+02
       386  26  3.709360E+05  6.358052E+04  3.678652E+03  1.490226E+05 -4.746642E+02 -9.772518E+02
       386  27  3.888826E+05  7.489622E+04  9.111665E+03  1.587186E+05  3.191616E+02 -2.140863E+03
       387   1  3.030265E+05  4.286517E+04 -1.121369E+04  1.350570E+05 -3.043984E+03  1.962573E+03
       387   2  2.849900E+05  3.149389E+04 -1.524547E+04  1.252903E+05 -4.685525E+03  2.803871E+03
       387   3  2.604736E+05  2.715581E+04 -1.834140E+04  1.231200E+05 -6.322598E+03  3.633874E+03
       387   4  3.548917E+05  6.219804E+04  1.316293E+03  1.493425E+05 -1.917150E+03  2.389602E+03
       387   5  3.581468E+05  5.879719E+04  2.334625E+03  1.454998E+05 -3.568774E+03  3.227018E+03
       387   6  3.549240E+05  6.243164E+04  4.296846E+03  1.492534E+05 -5.215971E+03  4.053125E+03
       387   7  4.067598E+05  8.153120E+04  1.384616E+04  1.636291E+05 -7.902073E+02  2.816672E+03
       387   8  4.313091E+05  8.610096E+04  1.991439E+04  1.657114E+05 -2.451877E+03  3.650220E+03
       387   9  4.493832E+05  9.770812E+04  2.693446E+04  1.753904E+05 -4.109161E+03  4.472444E+03
       387  10  3.030265E+05  4.286516E+04 -1.121372E+04  1.350570E+05 -8.145513E-09 -8.298225E-09
       387  11  2.849900E+05  3.149387E+04 -1.524553E+04  1.252903E+05  1.665403E-09  1.581284E-08
       387  12  2.604736E+05  2.715579E+04 -1.834150E+04  1.231201E+05  3.852134E-09 -2.337767E-09
       387  13  3.548917E+05  6.219803E+04  1.316276E+03  1.493425E+05  1.882646E-09 -4.312317E-09
       387  14  3.581468E+05  5.879718E+04  2.334581E+03  1.454998E+05 -2.035535E-09  1.383944E-10
       387  15  3.549239E+05  6.243161E+04  4.296764E+03  1.492534E+05 -4.606418E-09  2.221453E-09
       387  16  4.067598E+05  8.153119E+04  1.384614E+04  1.636291E+05  1.240503E-08 -4.586256E-09
       387  17  4.313091E+05  8.610094E+04  1.991435E+04  1.657115E+05 -3.057362E-09  1.216083E-08
       387  18  4.493832E+05  9.770809E+04  2.693439E+04  1.753904E+05 -8.842456E-09  4.844583E-09
       387  19  3.030265E+05  4.286517E+04 -1.121369E+04  1.350570E+05  3.043984E+03 -1.962573E+03
       387  20  2.849900E+05  3.149389E+04 -1.524547E+04  1.252903E+05  4.685525E+03 -2.803871E+03
       387  21  2.604736E+05  2.715581E+04 -1.834140E+04  1.231200E+05  6.322598E+03 -3.633874E+03
       387  22  3.548917E+05  6.219804E+04  1.316293E+03  1.493425E+05  1.917150E+03 -2.389602E+03
       387  23  3.581468E+05  5.879719E+04  2.334625E+03  1.454998E+05  3.568774E+03 -3.227018E+03
       387  24  3.549240E+05  6.243164E+04  4.296846E+03  1.492534E+05  5.215971E+03 -4.053125E+03
       387  25  4.067598E+05  8.153120E+04  1.384616E+04  1.636291E+05  7.902073E+02 -2.816672E+03
       387  26  4.313091E+05  8.610096E+04  1.991439E+04  1.657114E+05  2.451877E+03 -3.650220E+03
       387  27  4.493832E+05  9.770812E+04  2.693446E+04  1.753904E+05  4.109161E+03 -4.472444E+03
       388   1  2.423345E+05  2.060853E+04 -2.141214E+04  1.191301E+05 -7.496139E+03  4.074271E+03
       388   2  2.243331E+05  8.328328E+03 -2.199826E+04  1.080543E+05 -1.287497E+04  3.433134E+03
       388   3  2.019389E+05  7.391745E+03 -1.768594E+04  1.036222E+05 -1.814938E+04  2.517496E+03
       388   4  3.551993E+05  6.202068E+04  5.650825E+03  1.495637E+05 -6.305495E+03  4.525306E+03
       388   5  3.576950E+05  5.858801E+04  1.016830E+04  1.453841E+05 -1.192619E+04  3.792408E+03
       388   6  3.558449E+05  6.654586E+04  1.977507E+04  1.478477E+05 -1.744267E+04  2.784945E+03
       388   7  4.680762E+05  1.034334E+05  3.271271E+04  1.800020E+05 -5.114621E+03  4.976424E+03
       388   8  4.910745E+05  1.088490E+05  4.233356E+04  1.827211E+05 -1.097718E+04  4.151768E+03
       388   9  5.097750E+05  1.257023E+05  5.723453E+04  1.920836E+05 -1.673576E+04  3.052472E+03
       388  10  2.423345E+05  2.060850E+04 -2.141228E+04  1.191302E+05 -2.383174E-09  6.348353E-10
       388  11  2.243330E+05  8.328271E+03 -2.199860E+04  1.080544E+05 -1.440147E-09  9.582012E-10
       388  12  2.019386E+05  7.391650E+03 -1.768657E+04  1.036222E+05  2.182294E-09 -6.797780E-09
       388  13  3.551993E+05  6.202065E+04  5.650711E+03  1.495637E+05 -3.959299E-09 -9.113512E-09
       388  14  3.576948E+05  5.858795E+04  1.016801E+04  1.453841E+05 -5.020378E-09  1.386417E-09
       388  15  3.558445E+05  6.654577E+04  1.977449E+04  1.478477E+05  7.474326E-10  1.284822E-09
       388  16  4.680761E+05  1.034334E+05  3.271262E+04  1.800020E+05  7.424999E-10 -4.397818E-09
       388  17  4.910743E+05  1.088490E+05  4.233330E+04  1.827211E+05 -1.833287E-09 -2.570531E-09
       388  18  5.097747E+05  1.257023E+05  5.723399E+04  1.920836E+05 -4.272865E-10 -8.999416E-11
       388  19  2.423345E+05  2.060853E+04 -2.141214E+04  1.191301E+05  7.496139E+03 -4.074271E+03
       388  20  2.243331E+05  8.328328E+03 -2.199826E+04  1.080543E+05  1.287497E+04 -3.433134E+03
       388  21  2.019389E+05  7.391745E+03 -1.768594E+04  1.036222E+05  1.814938E+04 -2.517496E+03
       388  22  3.551993E+05  6.202068E+04  5.650825E+03  1.495637E+05  6.305495E+03 -4.525306E+03
       388  23  3.576950E+05  5.858801E+04  1.016830E+04  1.453841E+05  1.192619E+04 -3.792408E+03
       388  24  3.558449E+05  6.654586E+04  1.977507E+04  1.478477E+05  1.744267E+04 -2.784945E+03
       388  25  4.680762E+05  1.034334E+05  3.271271E+04  1.800020E+05  5.114621E+03 -4.976424E+03
       388  26  4.910745E+05  1.088490E+05  4.233356E+04  1.827211E+05  1.097718E+04 -4.151768E+03
       388  27  5.097750E+05  1.257023E+05  5.723453E+04  1.920836E+05  1.673576E+04 -3.052472E+03
       389   1  1.777960E+05  2.511826E+03 -1.660020E+04  1.137708E+05 -2.368960E+04  1.948212E+03
       389   2  1.667933E+05 -2.476825E+04 -3.439084E+03  7.995745E+04 -4.181547E+04 -5.107169E+03
       389   3  1.797893E+05  2.916378E+04  4.374619E+04  3.414371E+04 -5.759740E+04 -1.835170E+04
       389   4  3.590530E+05  5.907967E+04  2.497592E+04  1.524970E+05 -2.112746E+04  2.918795E+03
       389   5  3.520950E+05  5.688443E+04  4.406920E+04  1.437491E+05 -4.468668E+04 -6.195555E+03
       389   6  3.702008E+05  1.369605E+05  1.014858E+05  1.230034E+05 -6.590251E+04 -2.149981E+04
       389   7  5.403432E+05  1.156479E+05  6.655010E+04  1.912326E+05 -1.856449E+04  3.889576E+03
       389   8  5.374296E+05  1.385429E+05  9.157432E+04  2.075588E+05 -4.755879E+04 -7.284427E+03
       389   9  5.606474E+05  2.447736E+05  1.592213E+05  2.118906E+05 -7.421024E+04 -2.465011E+04
       389  10  1.777954E+05  2.511671E+03 -1.660126E+04  1.137709E+05  2.620252E-09 -5.924204E-09
       389  11  1.667914E+05 -2.476875E+04 -3.442418E+03  7.995728E+04 -3.680147E-10 -4.236730E-09
       389  12  1.797857E+05  2.916253E+04  4.373932E+04  3.414286E+04 -2.962409E-09 -6.959758E-09
       389  13  3.590526E+05  5.907954E+04  2.497506E+04  1.524971E+05 -5.991665E-10 -1.282499E-08
       389  14  3.520928E+05  5.688386E+04  4.406538E+04  1.437488E+05  4.766978E-09  2.552585E-09
       389  15  3.701960E+05  1.369589E+05  1.014768E+05  1.230023E+05  4.673052E-10 -1.005016E-08
       389  16  5.403429E+05  1.156478E+05  6.654942E+04  1.912327E+05  7.200532E-11 -8.189320E-09
       389  17  5.374271E+05  1.385422E+05  9.156998E+04  2.075585E+05  2.848747E-09  7.118235E-10
       389  18  5.606413E+05  2.447715E+05  1.592098E+05  2.118891E+05  2.302990E-09 -1.839174E-09
       389  19  1.777960E+05  2.511826E+03 -1.660020E+04  1.137708E+05  2.368960E+04 -1.948212E+03
       389  20  1.667933E+05 -2.476825E+04 -3.439084E+03  7.995745E+04  4.181547E+04  5.107169E+03
       389  21  1.797893E+05  2.916378E+04  4.374619E+04  3.414371E+04  5.759740E+04  1.835170E+04
       389  22  3.590530E+05  5.907967E+04  2.497592E+04  1.524970E+05  2.112746E+04 -2.918795E+03
       389  23  3.520950E+05  5.688443E+04  4.406920E+04  1.437491E+05  4.468668E+04  6.195555E+03
       389  24  3.702008E+05  1.369605E+05  1.014858E+05  1.230034E+05  6.590251E+04  2.149981E+04
       389  25  5.403432E+05  1.156479E+05  6.655010E+04  1.912326E+05  1.856449E+04 -3.889576E+03
       389  26  5.374296E+05  1.385429E+05  9.157432E+04  2.075588E+05  4.755879E+04  7.284427E+03
       389  27  5.606474E+05  2.447736E+05  1.592213E+05  2.118906E+05  7.421024E+04  2.465011E+04
       390   1 -1.295962E+05 -6.410598E+05 -1.293131E+05  9.321174E+04 -5.061573E+03 -2.537623E+04
       390   2 -8.193591E+04 -5.078940E+05 -8.239594E+04  6.266864E+04 -1.429672E+04 -9.006085E+03
       390   3 -4.946393E+04 -3.802373E+05 -4.987938E+04  8.420367E+04 -1.043890E+04  7.405257E+03
       390   4 -1.404427E+04 -1.767740E+05 -1.630365E+04  8.566446E+04 -5.102386E+03 -1.066289E+04
       390   5 -4.220221E+02 -1.750625E+05 -7.877952E+03  5.964547E+04 -1.430287E+04 -6.534661E+03
       390   6  1.438828E+02 -1.767473E+05 -5.342251E+03  8.570392E+04 -1.041328E+04 -2.368949E+03
       390   7  1.014921E+05  2.877092E+05  9.669104E+04  7.811164E+04 -5.143543E+03  4.061425E+03
       390   8  8.108435E+04  1.578722E+05  6.663307E+04  5.662072E+04 -1.430903E+04 -4.061924E+03
       390   9  4.974900E+04  2.678182E+04  3.919273E+04  8.720469E+04 -1.038772E+04 -1.214632E+04
       390  10 -1.295964E+05 -6.410605E+05 -1.293144E+05  9.321164E+04  1.847149E-10  1.197696E-09
       390  11 -8.193615E+04 -5.078941E+05 -8.239648E+04  6.266854E+04 -7.265162E-10  2.438323E-09
       390  12 -4.946406E+04 -3.802374E+05 -4.987969E+04  8.420373E+04 -1.375967E-09 -2.138395E-09
       390  13 -1.404433E+04 -1.767741E+05 -1.630391E+04  8.566442E+04  2.886840E-09 -4.271361E-09
       390  14 -4.222532E+02 -1.750626E+05 -7.878417E+03  5.964539E+04 -1.215518E-09  2.555544E-10
       390  15  1.437649E+02 -1.767473E+05 -5.342465E+03  8.570390E+04 -1.222766E-09  4.509180E-09
       390  16  1.014920E+05  2.877092E+05  9.669096E+04  7.811166E+04  1.940305E-09 -3.308445E-09
       390  17  8.108412E+04  1.578721E+05  6.663265E+04  5.662067E+04  2.663671E-09 -1.121515E-08
       390  18  4.974884E+04  2.678163E+04  3.919225E+04  8.720458E+04 -1.651300E-09 -6.351014E-10
       390  19 -1.295962E+05 -6.410598E+05 -1.293131E+05  9.321174E+04  5.061573E+03  2.537623E+04
       390  20 -8.193591E+04 -5.078940E+05 -8.239594E+04  6.266864E+04  1.429672E+04  9.006085E+03
       390  21 -4.946393E+04 -3.802373E+05 -4.987938E+04  8.420367E+04  1.043890E+04 -7.405257E+03
       390  22 -1.404427E+04 -1.767740E+05 -1.630365E+04  8.566446E+04  5.102386E+03  1.066289E+04
       390  23 -4.220221E+02 -1.750625E+05 -7.877952E+03  5.964547E+04  1.430287E+04  6.534661E+03
       390  24  1.438828E+02 -1.767473E+05 -5.342251E+03  8.570392E+04  1.041328E+04  2.368949E+03
       390  25  1.014921E+05  2.877092E+05  9.669104E+04  7.811164E+04  5.143543E+03 -4.061425E+03
       390  26  8.108435E+04  1.578722E+05  6.663307E+04  5.662072E+04  1.430903E+04  4.061924E+03
       390  27  4.974900E+04  2.678182E+04  3.919273E+04  8.720469E+04  1.038772E+04  1.214632E+04
       391   1 -2.507624E+04 -2.742690E+05 -2.638194E+04  8.645920E+04 -4.907618E+03  4.660616E+03
       391   2  7.569497E+03 -1.436927E+05  2.690849E+03  5.940648E+04  1.671244E+03  6.780871E+03
       391   3  3.825658E+04 -1.350299E+04  2.997461E+04  8.501999E+04  8.176515E+03  8.901628E+03
       391   4 -1.115298E+03 -1.760778E+05 -4.810378E+03  8.582439E+04 -4.891679E+03 -1.535153E+03
       391   5 -2.712235E+02 -1.758718E+05 -4.326381E+03  5.949076E+04  1.687155E+03  6.534546E+02
       391   6 -1.396692E+03 -1.760803E+05 -5.678283E+03  8.582366E+04  8.192343E+03  2.842137E+03
       391   7  2.284502E+04 -7.787751E+04  1.676074E+04  8.518949E+04 -4.875729E+03 -7.731891E+03
       391   8 -8.111993E+03 -2.080499E+05 -1.134353E+04  5.957503E+04  1.703065E+03 -5.473648E+03
       391   9 -4.105171E+04 -3.386328E+05 -4.133265E+04  8.662714E+04  8.208156E+03 -3.215787E+03
       391  10 -2.507627E+04 -2.742690E+05 -2.638203E+04  8.645921E+04 -2.096453E-09  5.951940E-09
       391  11  7.569482E+03 -1.436928E+05  2.690757E+03  5.940647E+04  3.404257E-10  5.745468E-09
       391  12  3.825649E+04 -1.350309E+04  2.997434E+04  8.501993E+04  1.638154E-10  3.375992E-09
       391  13 -1.115324E+03 -1.760778E+05 -4.810427E+03  8.582438E+04 -2.403624E-09 -2.160446E-09
       391  14 -2.712267E+02 -1.758718E+05 -4.326387E+03  5.949076E+04  1.318068E-09 -4.744126E-09
       391  15 -1.396766E+03 -1.760803E+05 -5.678424E+03  8.582364E+04  2.659486E-09  5.647168E-09
       391  16  2.284498E+04 -7.787758E+04  1.676058E+04  8.518946E+04 -2.944525E-09 -3.503382E-09
       391  17 -8.112004E+03 -2.080499E+05 -1.134359E+04  5.957504E+04 -2.040550E-09 -1.470516E-08
       391  18 -4.105178E+04 -3.386329E+05 -4.133279E+04  8.662716E+04  1.398179E-09 -3.202195E-09
       391  19 -2.507624E+04 -2.742690E+05 -2.638194E+04  8.645920E+04  4.907618E+03 -4.660616E+03
       391  20  7.569497E+03 -1.436927E+05  2.690849E+03  5.940648E+04 -1.671244E+03 -6.780871E+03
       391  21  3.825658E+04 -1.350299E+04  2.997461E+04  8.501999E+04 -8.176515E+03 -8.901628E+03
       391  22 -1.115298E+03 -1.760778E+05 -4.810378E+03  8.582439E+04  4.891679E+03  1.535153E+03
       391  23 -2.712235E+02 -1.758718E+05 -4.326381E+03  5.949076E+04 -1.687155E+03 -6.534546E+02
       391  24 -1.396692E+03 -1.760803E+05 -5.678283E+03  8.582366E+04 -8.192343E+03 -2.842137E+03
       391  25  2.284502E+04 -7.787751E+04  1.676074E+04  8.518949E+04  4.875729E+03  7.731891E+03
       391  26 -8.111993E+03 -2.080499E+05 -1.134353E+04  5.957503E+04 -1.703065E+03  5.473648E+03
       391  27 -4.105171E+04 -3.386328E+05 -4.133265E+04  8.662714E+04 -8.208156E+03  3.215787E+03
       392   1  6.566526E+04  9.090601E+04  5.191403E+04  8.775615E+04  1.381638E+04  1.397114E+04
       392   2  9.674748E+04  2.225091E+05  7.832612E+04  5.566671E+04  1.729614E+04  5.708268E+03
       392   3  1.125822E+05  3.518242E+05  1.063959E+05  7.555900E+04  6.052206E+03 -2.599292E+03
       392   4  3.796400E+02 -1.770420E+05 -6.631074E+03  8.568715E+04  1.384337E+04  3.839995E+03
       392   5 -4.677850E+02 -1.747091E+05 -1.043009E+04  5.966730E+04  1.728683E+04  9.360012E+03
       392   6 -1.895970E+04 -1.770741E+05 -2.214415E+04  8.563229E+04  6.002214E+03  1.483679E+04
       392   7 -6.491069E+04 -4.449225E+05 -6.518013E+04  8.361910E+04  1.387043E+04 -6.286828E+03
       392   8 -9.769373E+04 -5.717801E+05 -9.919618E+04  6.366541E+04  1.727756E+04  1.300944E+04
       392   9 -1.505217E+05 -7.057164E+05 -1.507033E+05  9.569714E+04  5.952768E+03  3.225806E+04
       392  10  6.566500E+04  9.090574E+04  5.191331E+04  8.775599E+04  1.189164E-09  3.409959E-09
       392  11  9.674715E+04  2.225089E+05  7.832550E+04  5.566663E+04  1.074205E-09  6.422094E-10
       392  12  1.125822E+05  3.518242E+05  1.063959E+05  7.555901E+04 -2.749248E-10  3.713447E-09
       392  13  3.794303E+02 -1.770421E+05 -6.631462E+03  8.568711E+04 -2.779113E-10 -4.337549E-09
       392  14 -4.681294E+02 -1.747092E+05 -1.043082E+04  5.966717E+04  3.483391E-09 -1.913170E-09
       392  15 -1.895979E+04 -1.770744E+05 -2.214463E+04  8.563222E+04  2.201901E-10  1.349239E-09
       392  16 -6.491091E+04 -4.449226E+05 -6.518057E+04  8.361917E+04  2.397962E-09 -5.281937E-09
       392  17 -9.769409E+04 -5.717804E+05 -9.919706E+04  6.366522E+04  3.965257E-09 -1.215631E-08
       392  18 -1.505220E+05 -7.057175E+05 -1.507053E+05  9.569699E+04  3.982545E-10  3.519539E-11
       392  19  6.566526E+04  9.090601E+04  5.191403E+04  8.775615E+04 -1.381638E+04 -1.397114E+04
       392  20  9.674748E+04  2.225091E+05  7.832612E+04  5.566671E+04 -1.729614E+04 -5.708268E+03
       392  21  1.125822E+05  3.518242E+05  1.063959E+05  7.555900E+04 -6.052206E+03  2.599292E+03
       392  22  3.796400E+02 -1.770420E+05 -6.631074E+03  8.568715E+04 -1.384337E+04 -3.839995E+03
       392  23 -4.677850E+02 -1.747091E+05 -1.043009E+04  5.966730E+04 -1.728683E+04 -9.360012E+03
       392  24 -1.895970E+04 -1.770741E+05 -2.214415E+04  8.563229E+04 -6.002214E+03 -1.483679E+04
       392  25 -6.491069E+04 -4.449225E+05 -6.518013E+04  8.361910E+04 -1.387043E+04  6.286828E+03
       392  26 -9.769373E+04 -5.717801E+05 -9.919618E+04  6.366541E+04 -1.727756E+04 -1.300944E+04
       392  27 -1.505217E+05 -7.057164E+05 -1.507033E+05  9.569714E+04 -5.952768E+03 -3.225806E+04
       393   1  1.835185E+05 -1.244669E+05 -1.167686E+05 -1.984368E+04 -6.540633E+03  7.705961E+03
       393   2  2.275070E+05 -1.303626E+05 -1.077294E+05 -1.708362E+04  1.960095E+03  2.442159E+04
       393   3  2.745438E+05 -1.201628E+05 -1.001807E+05 -3.197504E+04  1.047649E+04  2.596109E+04
       393   4  7.640151E+05  1.962206E+04  2.357818E+04 -2.896155E+04  1.621531E+04  7.726716E+03
       393   5  7.612724E+05  2.585799E+01  1.075861E+04 -2.012814E+04  1.050604E+04  2.442657E+04
       393   6  7.640368E+05 -1.016880E+03  6.308083E+03 -2.894510E+04  4.811700E+03  2.595633E+04
       393   7  1.344821E+06  1.636869E+05  1.639028E+05 -3.808804E+04  3.899244E+04  7.746793E+03
       393   8  1.295304E+06  1.303952E+05  1.292292E+05 -2.317535E+04  1.905925E+04  2.443148E+04
       393   9  1.253754E+06  1.181132E+05  1.127826E+05 -2.591275E+04 -8.574981E+02  2.595152E+04
       393  10  1.835185E+05 -1.244669E+05 -1.167688E+05 -1.984364E+04 -5.398624E-11 -2.261814E-11
       393  11  2.275068E+05 -1.303633E+05 -1.077305E+05 -1.708366E+04  8.152354E-10 -1.373292E-11
       393  12  2.745435E+05 -1.201635E+05 -1.001822E+05 -3.197526E+04  3.546596E-10 -6.187085E-11
       393  13  7.640148E+05  1.962193E+04  2.357757E+04 -2.896165E+04 -2.523163E-11 -5.269291E-11
       393  14  7.612721E+05  2.518746E+01  1.075728E+04 -2.012835E+04  2.130942E-10 -9.663407E-11
       393  15  7.640366E+05 -1.017610E+03  6.306773E+03 -2.894520E+04 -3.328904E-11 -9.457312E-11
       393  16  1.344819E+06  1.636865E+05  1.638998E+05 -3.808828E+04  8.099522E-11 -2.917631E-11
       393  17  1.295303E+06  1.303944E+05  1.292274E+05 -2.317573E+04 -1.222189E-09 -2.990585E-10
       393  18  1.253754E+06  1.181124E+05  1.127814E+05 -2.591274E+04 -8.729813E-11 -7.901530E-11
       393  19  1.835185E+05 -1.244669E+05 -1.167686E+05 -1.984368E+04  6.540633E+03 -7.705961E+03
       393  20  2.275070E+05 -1.303626E+05 -1.077294E+05 -1.708362E+04 -1.960095E+03 -2.442159E+04
       393  21  2.745438E+05 -1.201628E+05 -1.001807E+05 -3.197504E+04 -1.047649E+04 -2.596109E+04
       393  22  7.640151E+05  1.962206E+04  2.357818E+04 -2.896155E+04 -1.621531E+04 -7.726716E+03
       393  23  7.612724E+05  2.585799E+01  1.075861E+04 -2.012814E+04 -1.050604E+04 -2.442657E+04
       393  24  7.640368E+05 -1.016880E+03  6.308083E+03 -2.894510E+04 -4.811700E+03 -2.595633E+04
       393  25  1.344821E+06  1.636869E+05  1.639028E+05 -3.808804E+04 -3.899244E+04 -7.746793E+03
       393  26  1.295304E+06  1.303952E+05  1.292292E+05 -2.317535E+04 -1.905925E+04 -2.443148E+04
       393  27  1.253754E+06  1.181132E+05  1.127826E+05 -2.591275E+04  8.574981E+02 -2.595152E+04
       394   1  3.100599E+05 -1.093547E+05 -9.402028E+04 -2.886179E+04  5.212417E+03  2.318110E+04
       394   2  3.546888E+05 -9.939748E+04 -8.614117E+04 -2.004095E+04  4.482228E+03  2.146252E+04
       394   3  3.997186E+05 -8.852041E+04 -7.753980E+04 -2.931024E+04  3.751108E+03  1.906993E+04
       394   4  7.629324E+05  9.724988E+02  5.007345E+03 -2.904703E+04  3.921100E+03  2.317922E+04
       394   5  7.626840E+05 -7.615734E+01  2.717801E+03 -2.000213E+04  2.558914E+03  2.146077E+04
       394   6  7.629441E+05 -9.555003E+01  1.588662E+03 -2.904662E+04  1.195850E+03  1.906853E+04
       394   7  1.215997E+06  1.112860E+05  1.040226E+05 -2.923242E+04  2.628852E+03  2.317735E+04
       394   8  1.170835E+06  9.923412E+04  9.156680E+04 -1.996330E+04  6.343528E+02  2.145903E+04
       394   9  1.126293E+06  8.832055E+04  8.070922E+04 -2.878285E+04 -1.360883E+03  1.906713E+04
       394  10  3.100598E+05 -1.093553E+05 -9.402134E+04 -2.886189E+04 -1.501481E-10 -5.682717E-11
       394  11  3.546886E+05 -9.939798E+04 -8.614208E+04 -2.004103E+04  3.281953E-10  7.165584E-11
       394  12  3.997185E+05 -8.852080E+04 -7.754051E+04 -2.931030E+04  2.637631E-10  7.020966E-11
       394  13  7.629322E+05  9.719175E+02  5.006306E+03 -2.904710E+04 -8.040756E-12  6.285500E-11
       394  14  7.626839E+05 -7.665384E+01  2.716923E+03 -2.000217E+04  3.429561E-11 -2.213284E-12
       394  15  7.629440E+05 -9.594101E+01  1.587975E+03 -2.904664E+04 -4.477956E-11  1.015851E-10
       394  16  1.215997E+06  1.112854E+05  1.040216E+05 -2.923247E+04  1.755439E-10  5.505350E-11
       394  17  1.170835E+06  9.923363E+04  9.156593E+04 -1.996331E+04 -6.195129E-10  3.340358E-11
       394  18  1.126293E+06  8.832016E+04  8.070854E+04 -2.878283E+04 -1.245578E-10  5.009654E-11
       394  19  3.100599E+05 -1.093547E+05 -9.402028E+04 -2.886179E+04 -5.212417E+03 -2.318110E+04
       394  20  3.546888E+05 -9.939748E+04 -8.614117E+04 -2.004095E+04 -4.482228E+03 -2.146252E+04
       394  21  3.997186E+05 -8.852041E+04 -7.753980E+04 -2.931024E+04 -3.751108E+03 -1.906993E+04
       394  22  7.629324E+05  9.724988E+02  5.007345E+03 -2.904703E+04 -3.921100E+03 -2.317922E+04
       394  23  7.626840E+05 -7.615734E+01  2.717801E+03 -2.000213E+04 -2.558914E+03 -2.146077E+04
       394  24  7.629441E+05 -9.555003E+01  1.588662E+03 -2.904662E+04 -1.195850E+03 -1.906853E+04
       394  25  1.215997E+06  1.112860E+05  1.040226E+05 -2.923242E+04 -2.628852E+03 -2.317735E+04
       394  26  1.170835E+06  9.923412E+04  9.156680E+04 -1.996330E+04 -6.343528E+02 -2.145903E+04
       394  27  1.126293E+06  8.832055E+04  8.070922E+04 -2.878285E+04  1.360883E+03 -1.906713E+04
       395   1  4.355381E+05 -7.962937E+04 -6.987393E+04 -2.908383E+04  3.300092E+03  1.751707E+04
       395   2  4.799276E+05 -6.887683E+04 -6.080756E+04 -2.007891E+04  2.962446E+03  1.499265E+04
       395   3  5.244081E+05 -5.807024E+04 -5.150060E+04 -2.903303E+04  2.623885E+03  1.244377E+04
       395   4  7.628574E+05  1.195292E+01  1.227979E+03 -2.901766E+04  9.478402E+02  1.751601E+04
       395   5  7.628144E+05 -3.064189E+01  7.297622E+02 -2.003839E+04  5.870493E+02  1.499197E+04
       395   6  7.628650E+05 -1.491044E+01  4.883329E+02 -2.901766E+04  2.253667E+02  1.244347E+04
       395   7  1.090277E+06  7.964618E+04  7.232351E+04 -2.895145E+04 -1.405635E+03  1.751494E+04
       395   8  1.045776E+06  6.881024E+04  6.226231E+04 -1.999784E+04 -1.789416E+03  1.499128E+04
       395   9  1.001375E+06  5.803664E+04  5.247386E+04 -2.900228E+04 -2.174061E+03  1.244317E+04
       395  10  4.355380E+05 -7.962970E+04 -6.987453E+04 -2.908388E+04 -3.653869E-11  1.151312E-10
       395  11  4.799276E+05 -6.887707E+04 -6.080800E+04 -2.007895E+04  1.547020E-10  3.238169E-11
       395  12  5.244081E+05 -5.807041E+04 -5.150090E+04 -2.903306E+04 -1.741647E-11 -1.326271E-10
       395  13  7.628574E+05  1.162310E+01  1.227401E+03 -2.901767E+04 -7.614923E-11  6.007218E-12
       395  14  7.628143E+05 -3.088342E+01  7.293391E+02 -2.003839E+04 -8.493210E-11 -4.000080E-11
       395  15  7.628650E+05 -1.507678E+01  4.880418E+02 -2.901766E+04  1.481360E-11  3.919412E-11
       395  16  1.090277E+06  7.964585E+04  7.232293E+04 -2.895143E+04 -4.264637E-11  4.810516E-11
       395  17  1.045776E+06  6.881000E+04  6.226189E+04 -1.999782E+04 -1.709951E-10 -1.781242E-10
       395  18  1.001375E+06  5.803647E+04  5.247357E+04 -2.900226E+04  2.907975E-11  5.946020E-11
       395  19  4.355381E+05 -7.962937E+04 -6.987393E+04 -2.908383E+04 -3.300092E+03 -1.751707E+04
       395  20  4.799276E+05 -6.887683E+04 -6.080756E+04 -2.007891E+04 -2.962446E+03 -1.499265E+04
       395  21  5.244081E+05 -5.807024E+04 -5.150060E+04 -2.903303E+04 -2.623885E+03 -1.244377E+04
       395  22  7.628574E+05  1.195292E+01  1.227979E+03 -2.901766E+04 -9.478402E+02 -1.751601E+04
       395  23  7.628144E+05 -3.064189E+01  7.297622E+02 -2.003839E+04 -5.870493E+02 -1.499197E+04
       395  24  7.628650E+05 -1.491044E+01  4.883329E+02 -2.901766E+04 -2.253667E+02 -1.244347E+04
       395  25  1.090277E+06  7.964618E+04  7.232351E+04 -2.895145E+04  1.405635E+03 -1.751494E+04
       395  26  1.045776E+06  6.881024E+04  6.226231E+04 -1.999784E+04  1.789416E+03 -1.499128E+04
       395  27  1.001375E+06  5.803664E+04  5.247386E+04 -2.900228E+04  2.174061E+03 -1.244317E+04
       396   1  5.600362E+05 -4.934088E+04 -4.356606E+04 -2.899679E+04  2.528106E+03  1.095625E+04
       396   2  6.042055E+05 -3.861122E+04 -3.410921E+04 -2.005164E+04  2.331510E+03  8.410533E+03
       396   3  6.484107E+05 -2.787312E+04 -2.452102E+04 -2.896920E+04  2.134392E+03  5.867001E+03
       396   4  7.628550E+05 -8.576414E+00  4.249764E+02 -2.899631E+04  1.427117E+02  1.095613E+04
       396   5  7.628406E+05 -7.581110E+00  3.941545E+02 -2.006508E+04 -5.198513E+01  8.410631E+03
       396   6  7.628592E+05  1.476157E+00  4.932176E+02 -2.899630E+04 -2.471895E+02  5.867317E+03
       396   7  9.657124E+05  4.932101E+04  4.441358E+04 -2.899582E+04 -2.243451E+03  1.095602E+04
       396   8  9.214992E+05  3.859440E+04  3.489603E+04 -2.007853E+04 -2.436080E+03  8.410729E+03
       396   9  8.773199E+05  2.787520E+04  2.550668E+04 -2.902341E+04 -2.629204E+03  5.867633E+03
       396  10  5.600361E+05 -4.934101E+04 -4.356629E+04 -2.899681E+04 -6.352702E-12 -2.581316E-11
       396  11  6.042055E+05 -3.861130E+04 -3.410935E+04 -2.005165E+04  4.336379E-11  9.316564E-11
       396  12  6.484107E+05 -2.787315E+04 -2.452109E+04 -2.896921E+04  9.638503E-11 -9.620142E-11
       396  13  7.628550E+05 -8.705364E+00  4.247507E+02 -2.899631E+04 -1.170590E-10 -2.360786E-11
       396  14  7.628406E+05 -7.657099E+00  3.940215E+02 -2.006508E+04 -1.272244E-10 -7.645537E-12
       396  15  7.628591E+05  1.439161E+00  4.931528E+02 -2.899630E+04  7.573698E-11 -8.277678E-11
       396  16  9.657124E+05  4.932088E+04  4.441334E+04 -2.899580E+04  2.397520E-11  5.222015E-11
       396  17  9.214992E+05  3.859432E+04  3.489589E+04 -2.007852E+04  5.673357E-11 -3.386955E-11
       396  18  8.773198E+05  2.787516E+04  2.550660E+04 -2.902340E+04 -2.303794E-10 -8.637098E-11
       396  19  5.600362E+05 -4.934088E+04 -4.356606E+04 -2.899679E+04 -2.528106E+03 -1.095625E+04
       396  20  6.042055E+05 -3.861122E+04 -3.410921E+04 -2.005164E+04 -2.331510E+03 -8.410533E+03
       396  21  6.484107E+05 -2.787312E+04 -2.452102E+04 -2.896920E+04 -2.134392E+03 -5.867001E+03
       396  22  7.628550E+05 -8.576414E+00  4.249764E+02 -2.899631E+04 -1.427117E+02 -1.095613E+04
       396  23  7.628406E+05 -7.581110E+00  3.941545E+02 -2.006508E+04  5.198513E+01 -8.410631E+03
       396  24  7.628592E+05  1.476157E+00  4.932176E+02 -2.899630E+04  2.471895E+02 -5.867317E+03
       396  25  9.657124E+05  4.932101E+04  4.441358E+04 -2.899582E+04  2.243451E+03 -1.095602E+04
       396  26  9.214992E+05  3.859440E+04  3.489603E+04 -2.007853E+04  2.436080E+03 -8.410729E+03
       396  27  8.773199E+05  2.787520E+04  2.550668E+04 -2.902341E+04  2.629204E+03 -5.867633E+03
       397   1  6.839148E+05 -1.918509E+04 -1.645225E+04 -2.895870E+04  2.033243E+03  4.388020E+03
       397   2  7.279646E+05 -8.493352E+03 -6.632797E+03 -2.003371E+04  1.561143E+03  1.848778E+03
       397   3  7.720778E+05  2.223033E+03  3.498263E+03 -2.892576E+04  1.088899E+03 -6.888033E+02
       397   4  7.628670E+05  2.207518E+00  5.956811E+02 -2.898620E+04 -3.463591E+02  4.388418E+03
       397   5  7.628366E+05 -7.934054E+00  9.511745E+02 -2.007771E+04 -8.170003E+02  1.849218E+03
       397   6  7.628677E+05  6.440388E+00  1.617330E+03 -2.898620E+04 -1.287752E+03 -6.883122E+02
       397   7  8.418250E+05  1.918909E+04  1.764326E+04 -2.901371E+04 -2.726259E+03  4.388815E+03
       397   8  7.977098E+05  8.477406E+03  8.535095E+03 -2.012171E+04 -3.195275E+03  1.849659E+03
       397   9  7.536577E+05 -2.210154E+03 -2.635867E+02 -2.904663E+04 -3.664369E+03 -6.878206E+02
       397  10  6.839148E+05 -1.918511E+04 -1.645229E+04 -2.895871E+04 -6.571757E-11 -1.031472E-10
       397  11  7.279646E+05 -8.493356E+03 -6.632808E+03 -2.003371E+04  9.772120E-11 -4.843089E-11
       397  12  7.720778E+05  2.223032E+03  3.498260E+03 -2.892576E+04  2.018170E-10 -2.321314E-10
       397  13  7.628670E+05  2.186798E+00  5.956447E+02 -2.898620E+04 -3.524203E-11 -1.015789E-10
       397  14  7.628366E+05 -7.937906E+00  9.511668E+02 -2.007770E+04 -3.970729E-11 -1.651747E-10
       397  15  7.628677E+05  6.439435E+00  1.617326E+03 -2.898620E+04  3.161035E-11 -2.900575E-10
       397  16  8.418250E+05  1.918907E+04  1.764321E+04 -2.901370E+04  4.298894E-12 -4.309314E-11
       397  17  7.977098E+05  8.477399E+03  8.535069E+03 -2.012170E+04  2.998808E-11 -1.506520E-10
       397  18  7.536576E+05 -2.210159E+03 -2.636127E+02 -2.904663E+04 -2.545329E-10 -2.692062E-10
       397  19  6.839148E+05 -1.918509E+04 -1.645225E+04 -2.895870E+04 -2.033243E+03 -4.388020E+03
       397  20  7.279646E+05 -8.493352E+03 -6.632797E+03 -2.003371E+04 -1.561143E+03 -1.848778E+03
       397  21  7.720778E+05  2.223033E+03  3.498263E+03 -2.892576E+04 -1.088899E+03  6.888033E+02
       397  22  7.628670E+05  2.207518E+00  5.956811E+02 -2.898620E+04  3.463591E+02 -4.388418E+03
       397  23  7.628366E+05 -7.934054E+00  9.511745E+02 -2.007771E+04  8.170003E+02 -1.849218E+03
       397  24  7.628677E+05  6.440388E+00  1.617330E+03 -2.898620E+04  1.287752E+03  6.883122E+02
       397  25  8.418250E+05  1.918909E+04  1.764326E+04 -2.901371E+04  2.726259E+03 -4.388815E+03
       397  26  7.977098E+05  8.477406E+03  8.535095E+03 -2.012171E+04  3.195275E+03 -1.849659E+03
       397  27  7.536577E+05 -2.210154E+03 -2.635867E+02 -2.904663E+04  3.664369E+03  6.878206E+02
       398   1  8.076024E+05  1.087687E+04  1.195609E+04 -2.887768E+04  7.577655E+02 -2.167834E+03
       398   2  8.515582E+05  2.155710E+04  2.297429E+04 -1.996715E+04 -1.075591E+03 -4.701807E+03
       398   3  8.958322E+05  3.256249E+04  3.526498E+04 -2.888545E+04 -2.908769E+03 -7.217198E+03
       398   4  7.629234E+05 -1.881464E+01  2.117124E+03 -2.898888E+04 -1.625348E+03 -2.167364E+03
       398   5  7.627647E+05 -4.804477E+01  3.661389E+03 -2.007434E+04 -3.441110E+03 -4.701463E+03
       398   6  7.629201E+05  2.451863E+02  6.466375E+03 -2.898881E+04 -5.256567E+03 -7.216973E+03
       398   7  7.182462E+05 -1.091463E+04 -7.721945E+03 -2.910007E+04 -4.008292E+03 -2.166893E+03
       398   8  6.739786E+05 -2.165371E+04 -1.565197E+04 -2.018153E+04 -5.806295E+03 -4.701119E+03
       398   9  6.300246E+05 -3.207328E+04 -2.233326E+04 -2.909213E+04 -7.603869E+03 -7.216748E+03
       398  10  8.076024E+05  1.087686E+04  1.195608E+04 -2.887768E+04  1.175708E-09 -5.972693E-10
       398  11  8.515582E+05  2.155707E+04  2.297425E+04 -1.996715E+04  8.503238E-10 -1.000055E-09
       398  12  8.958322E+05  3.256243E+04  3.526487E+04 -2.888547E+04  1.619440E-09 -1.026908E-10
       398  13  7.629233E+05 -1.882039E+01  2.117111E+03 -2.898888E+04  1.827103E-11 -5.914412E-10
       398  14  7.627647E+05 -4.807169E+01  3.661326E+03 -2.007436E+04 -1.324061E-10 -8.759692E-10
       398  15  7.629201E+05  2.451229E+02  6.466225E+03 -2.898884E+04  1.252134E-10 -1.599503E-10
       398  16  7.182462E+05 -1.091464E+04 -7.721984E+03 -2.910007E+04 -1.137170E-09 -5.188241E-10
       398  17  6.739786E+05 -2.165374E+04 -1.565207E+04 -2.018155E+04 -7.028331E-10 -9.940518E-10
       398  18  6.300245E+05 -3.207335E+04 -2.233347E+04 -2.909218E+04 -1.615662E-09 -8.423386E-11
       398  19  8.076024E+05  1.087687E+04  1.195609E+04 -2.887768E+04 -7.577655E+02  2.167834E+03
       398  20  8.515582E+05  2.155710E+04  2.297429E+04 -1.996715E+04  1.075591E+03  4.701807E+03
       398  21  8.958322E+05  3.256249E+04  3.526498E+04 -2.888545E+04  2.908769E+03  7.217198E+03
       398  22  7.629234E+05 -1.881464E+01  2.117124E+03 -2.898888E+04  1.625348E+03  2.167364E+03
       398  23  7.627647E+05 -4.804477E+01  3.661389E+03 -2.007434E+04  3.441110E+03  4.701463E+03
       398  24  7.629201E+05  2.451863E+02  6.466375E+03 -2.898881E+04  5.256567E+03  7.216973E+03
       398  25  7.182462E+05 -1.091463E+04 -7.721945E+03 -2.910007E+04  4.008292E+03  2.166893E+03
       398  26  6.739786E+05 -2.165371E+04 -1.565197E+04 -2.018153E+04  5.806295E+03  4.701119E+03
       398  27  6.300246E+05 -3.207328E+04 -2.233326E+04 -2.909213E+04  7.603869E+03  7.216748E+03
       399   1  9.318513E+05  4.069062E+04  4.520139E+04 -2.793440E+04 -4.089638E+03 -8.735840E+03
       399   2  9.749217E+05  5.161994E+04  6.097218E+04 -2.049986E+04 -1.186243E+04 -1.115934E+04
       399   3  1.020434E+06  6.820760E+04  8.321530E+04 -3.094069E+04 -1.963534E+04 -1.313154E+04
       399   4  7.633741E+05 -3.234002E+02  8.446294E+03 -2.899921E+04 -6.571486E+03 -8.735720E+03
       399   5  7.621854E+05 -1.518857E+02  1.464129E+04 -2.006130E+04 -1.391916E+04 -1.115955E+04
       399   6  7.633637E+05  5.605492E+03  2.701536E+04 -2.899901E+04 -2.126639E+04 -1.313203E+04
       399   7  5.949235E+05 -4.133930E+04 -2.831048E+04 -3.006374E+04 -9.052670E+03 -8.735591E+03
       399   8  5.494915E+05 -5.192671E+04 -3.169230E+04 -1.962289E+04 -1.597519E+04 -1.115976E+04
       399   9  5.063552E+05 -5.700100E+04 -2.918856E+04 -2.705813E+04 -2.289678E+04 -1.313254E+04
       399  10  9.318512E+05  4.069054E+04  4.520121E+04 -2.793443E+04  1.840215E-08  1.048190E-09
       399  11  9.749215E+05  5.161976E+04  6.097168E+04 -2.049997E+04  2.126223E-10  2.043896E-09
       399  12  1.020434E+06  6.820731E+04  8.321425E+04 -3.094090E+04 -1.822637E-08  9.603415E-10
       399  13  7.633740E+05 -3.234938E+02  8.446070E+03 -2.899926E+04  1.519351E-11  1.072111E-09
       399  14  7.621852E+05 -1.520714E+02  1.464069E+04 -2.006143E+04  1.364401E-10  2.022023E-09
       399  15  7.633632E+05  5.605186E+03  2.701419E+04 -2.899923E+04  2.825141E-11  9.257041E-10
       399  16  5.949234E+05 -4.133941E+04 -2.831078E+04 -3.006380E+04 -1.840672E-08  1.046058E-09
       399  17  5.494912E+05 -5.192691E+04 -3.169302E+04 -1.962303E+04 -1.888580E-10  2.092298E-09
       399  18  5.063546E+05 -5.700132E+04 -2.918987E+04 -2.705837E+04  1.823595E-08  8.952262E-10
       399  19  9.318513E+05  4.069062E+04  4.520139E+04 -2.793440E+04  4.089638E+03  8.735840E+03
       399  20  9.749217E+05  5.161994E+04  6.097218E+04 -2.049986E+04  1.186243E+04  1.115934E+04
       399  21  1.020434E+06  6.820760E+04  8.321530E+04 -3.094069E+04  1.963534E+04  1.313154E+04
       399  22  7.633741E+05 -3.234002E+02  8.446294E+03 -2.899921E+04  6.571486E+03  8.735720E+03
       399  23  7.621854E+05 -1.518857E+02  1.464129E+04 -2.006130E+04  1.391916E+04  1.115955E+04
       399  24  7.633637E+05  5.605492E+03  2.701536E+04 -2.899901E+04  2.126639E+04  1.313203E+04
       399  25  5.949235E+05 -4.133930E+04 -2.831048E+04 -3.006374E+04  9.052670E+03  8.735591E+03
       399  26  5.494915E+05 -5.192671E+04 -3.169230E+04 -1.962289E+04  1.597519E+04  1.115976E+04
       399  27  5.063552E+05 -5.700100E+04 -2.918856E+04 -2.705813E+04  2.289678E+04  1.313254E+04
       400   1  1.062358E+06  6.620470E+04  9.780734E+04 -1.373970E+04 -2.152366E+04 -1.546689E+04
       400   2  1.091700E+06  8.287355E+04  1.330283E+05 -3.821671E+04 -6.183023E+04 -1.527020E+04
       400   3  1.151742E+06  2.012434E+05  2.198945E+05 -8.027679E+04 -1.021435E+05 -4.937101E+03
       400   4  7.692994E+05 -5.102906E+03  3.404326E+04 -2.892729E+04 -2.607676E+04 -1.546725E+04
       400   5  7.547420E+05  5.904926E+02  5.817967E+04 -2.014940E+04 -5.687185E+04 -1.527165E+04
       400   6  7.692502E+05  1.063617E+05  1.273797E+05 -2.895171E+04 -8.767008E+04 -4.941499E+03
       400   7  4.763215E+05 -7.641533E+04 -2.972577E+04 -4.410762E+04 -3.062773E+04 -1.546737E+04
       400   8  4.178908E+05 -8.169899E+04 -1.667574E+04 -2.092003E+03 -5.191611E+04 -1.527282E+04
       400   9  3.868977E+05  1.147925E+04  3.485655E+04  2.234170E+04 -7.320551E+04 -4.943512E+03
       400  10  1.062358E+06  6.620432E+04  9.780602E+04 -1.373997E+04 -1.518675E-09 -1.957207E-10
       400  11  1.091695E+06  8.287227E+04  1.330207E+05 -3.821747E+04 -7.232200E-10 -8.885981E-10
       400  12  1.151731E+06  2.012406E+05  2.198748E+05 -8.027720E+04 -8.139584E-10 -3.666273E-10
       400  13  7.692986E+05 -5.103345E+03  3.404153E+04 -2.892761E+04  7.577697E-11 -1.946673E-10
       400  14  7.547385E+05  5.893751E+02  5.817316E+04 -2.015010E+04  7.208579E-11 -8.159619E-10
       400  15  7.692420E+05  1.063596E+05  1.273652E+05 -2.895206E+04 -2.312575E-11 -3.469921E-10
       400  16  4.763204E+05 -7.641584E+04 -2.972799E+04 -4.410800E+04  1.741283E-09 -1.504706E-10
       400  17  4.178879E+05 -8.169997E+04 -1.668124E+04 -2.092641E+03  7.197639E-10 -6.470457E-10
       400  18  3.868919E+05  1.147779E+04  3.484644E+04  2.234141E+04  1.039587E-09 -3.124592E-10
       400  19  1.062358E+06  6.620470E+04  9.780734E+04 -1.373970E+04  2.152366E+04  1.546689E+04
       400  20  1.091700E+06  8.287355E+04  1.330283E+05 -3.821671E+04  6.183023E+04  1.527020E+04
       400  21  1.151742E+06  2.012434E+05  2.198945E+05 -8.027679E+04  1.021435E+05  4.937101E+03
       400  22  7.692994E+05 -5.102906E+03  3.404326E+04 -2.892729E+04  2.607676E+04  1.546725E+04
       400  23  7.547420E+05  5.904926E+02  5.817967E+04 -2.014940E+04  5.687185E+04  1.527165E+04
       400  24  7.692502E+05  1.063617E+05  1.273797E+05 -2.895171E+04  8.767008E+04  4.941499E+03
       400  25  4.763215E+05 -7.641533E+04 -2.972577E+04 -4.410762E+04  3.062773E+04  1.546737E+04
       400  26  4.178908E+05 -8.169899E+04 -1.667574E+04 -2.092003E+03  5.191611E+04  1.527282E+04
       400  27  3.868977E+05  1.147925E+04  3.485655E+04  2.234170E+04  7.320551E+04  4.943512E+03
       401   1 -2.501046E+05 -1.018609E+05 -9.855526E+04 -2.377050E+04 -1.391651E+04  5.541221E+03
       401   2 -2.109752E+05 -9.344546E+04 -8.332580E+04 -1.711412E+04 -4.383630E+03  1.744089E+04
       401   3 -1.727859E+05 -8.405079E+04 -7.404958E+04 -2.553217E+04  5.153465E+03  1.824555E+04
       401   4  1.716443E+05  2.906112E+03  3.508835E+03 -2.509814E+04  2.407857E+03  5.545837E+03
       401   5  1.712179E+05 -1.932539E+01  1.597574E+03 -1.756084E+04  1.559617E+03  1.744117E+04
       401   6  1.716531E+05 -1.632527E+02  9.432241E+02 -2.509751E+04  7.151206E+02  1.824459E+04
       401   7  5.935563E+05  1.076602E+05  1.055611E+05 -2.642670E+04  1.874328E+04  5.550381E+03
       401   8  5.535474E+05  9.339695E+04  8.651198E+04 -1.800785E+04  7.506482E+03  1.744145E+04
       401   9  5.162034E+05  8.371642E+04  7.592898E+04 -2.466260E+04 -3.725655E+03  1.824363E+04
       401  10 -2.501048E+05 -1.018610E+05 -9.855568E+04 -2.377044E+04  1.818005E-10  8.874328E-11
       401  11 -2.109753E+05 -9.344579E+04 -8.332641E+04 -1.711406E+04  4.512815E-10 -7.993104E-11
       401  12 -1.727860E+05 -8.405115E+04 -7.405025E+04 -2.553225E+04 -1.766130E-10 -1.971137E-10
       401  13  1.716443E+05  2.906077E+03  3.508767E+03 -2.509815E+04 -1.753016E-11 -4.066917E-11
       401  14  1.712178E+05 -1.965272E+01  1.596998E+03 -1.756086E+04 -7.640815E-11 -4.601296E-11
       401  15  1.716530E+05 -1.636103E+02  9.425976E+02 -2.509752E+04 -7.489711E-11 -1.253252E-10
       401  16  5.935559E+05  1.076601E+05  1.055604E+05 -2.642678E+04  3.601229E-11  7.028896E-12
       401  17  5.535472E+05  9.339661E+04  8.651130E+04 -1.800795E+04 -4.106537E-10 -4.042039E-10
       401  18  5.162033E+05  8.371606E+04  7.592833E+04 -2.466255E+04 -7.970799E-12 -8.668034E-11
       401  19 -2.501046E+05 -1.018609E+05 -9.855526E+04 -2.377050E+04  1.391651E+04 -5.541221E+03
       401  20 -2.109752E+05 -9.344546E+04 -8.332580E+04 -1.711412E+04  4.383630E+03 -1.744089E+04
       401  21 -1.727859E+05 -8.405079E+04 -7.404958E+04 -2.553217E+04 -5.153465E+03 -1.824555E+04
       401  22  1.716443E+05  2.906112E+03  3.508835E+03 -2.509814E+04 -2.407857E+03 -5.545837E+03
       401  23  1.712179E+05 -1.932539E+01  1.597574E+03 -1.756084E+04 -1.559617E+03 -1.744117E+04
       401  24  1.716531E+05 -1.632527E+02  9.432241E+02 -2.509751E+04 -7.151206E+02 -1.824459E+04
       401  25  5.935563E+05  1.076602E+05  1.055611E+05 -2.642670E+04 -1.874328E+04 -5.550381E+03
       401  26  5.535474E+05  9.339695E+04  8.651198E+04 -1.800785E+04 -7.506482E+03 -1.744145E+04
       401  27  5.162034E+05  8.371642E+04  7.592898E+04 -2.466260E+04  3.725655E+03 -1.824363E+04
       402   1 -1.416925E+05 -7.620489E+04 -6.777687E+04 -2.514684E+04  1.829793E+03  1.602837E+04
       402   2 -1.032266E+05 -6.692205E+04 -5.945060E+04 -1.740330E+04  2.089167E+03  1.444518E+04
       402   3 -6.474967E+04 -5.755948E+04 -5.126788E+04 -2.519595E+04  2.347850E+03  1.236424E+04
       402   4  1.714861E+05  1.360983E+02  7.502324E+02 -2.520028E+04  5.813300E+02  1.602779E+04
       402   5  1.714444E+05 -1.662849E+01  4.126587E+02 -1.743240E+04  3.747701E+02  1.444488E+04
       402   6  1.714924E+05 -8.823781E+00  2.549718E+02 -2.520029E+04  1.674966E+02  1.236431E+04
       402   7  4.847566E+05  7.647055E+04  6.927140E+04 -2.525375E+04 -6.677547E+02  1.602722E+04
       402   8  4.461860E+05  6.688378E+04  6.027139E+04 -1.746151E+04 -1.340375E+03  1.444457E+04
       402   9  4.077868E+05  5.753812E+04  5.177448E+04 -2.520463E+04 -2.013675E+03  1.236439E+04
       402  10 -1.416926E+05 -7.620517E+04 -6.777736E+04 -2.514686E+04 -3.116816E-10 -9.191085E-11
       402  11 -1.032266E+05 -6.692227E+04 -5.945100E+04 -1.740332E+04 -2.285257E-10  2.078762E-10
       402  12 -6.474971E+04 -5.755964E+04 -5.126817E+04 -2.519598E+04 -5.492509E-11  6.256563E-11
       402  13  1.714861E+05  1.358223E+02  7.497489E+02 -2.520029E+04 -2.287005E-10 -9.894823E-12
       402  14  1.714443E+05 -1.685260E+01  4.122663E+02 -1.743240E+04 -1.581697E-10  1.227949E-10
       402  15  1.714924E+05 -8.987964E+00  2.546844E+02 -2.520030E+04 -1.347805E-10  5.086963E-11
       402  16  4.847566E+05  7.647027E+04  6.927092E+04 -2.525374E+04  4.064966E-10 -2.683161E-11
       402  17  4.461859E+05  6.688355E+04  6.027100E+04 -1.746150E+04  1.734386E-10  3.084213E-11
       402  18  4.077867E+05  5.753796E+04  5.177418E+04 -2.520461E+04 -1.963780E-10 -4.567378E-11
       402  19 -1.416925E+05 -7.620489E+04 -6.777687E+04 -2.514684E+04 -1.829793E+03 -1.602837E+04
       402  20 -1.032266E+05 -6.692205E+04 -5.945060E+04 -1.740330E+04 -2.089167E+03 -1.444518E+04
       402  21 -6.474967E+04 -5.755948E+04 -5.126788E+04 -2.519595E+04 -2.347850E+03 -1.236424E+04
       402  22  1.714861E+05  1.360983E+02  7.502324E+02 -2.520028E+04 -5.813300E+02 -1.602779E+04
       402  23  1.714444E+05 -1.662849E+01  4.126587E+02 -1.743240E+04 -3.747701E+02 -1.444488E+04
       402  24  1.714924E+05 -8.823781E+00  2.549718E+02 -2.520029E+04 -1.674966E+02 -1.236431E+04
       402  25  4.847566E+05  7.647055E+04  6.927140E+04 -2.525375E+04  6.677547E+02 -1.602722E+04
       402  26  4.461860E+05  6.688378E+04  6.027139E+04 -1.746151E+04  1.340375E+03 -1.444457E+04
       402  27  4.077868E+05  5.753812E+04  5.177448E+04 -2.520463E+04  2.013675E+03 -1.236439E+04
       403   1 -3.381210E+04 -4.996626E+04 -4.438923E+04 -2.516826E+04  2.162446E+03  1.103315E+04
       403   2  4.595770E+03 -4.063588E+04 -3.617468E+04 -1.740070E+04  2.108503E+03  8.847026E+03
       403   3  4.301534E+04 -3.129160E+04 -2.792166E+04 -2.516634E+04  2.054092E+03  6.639285E+03
       403   4  1.714786E+05  8.199094E+00  2.062953E+02 -2.519966E+04  1.264534E+02  1.103336E+04
       403   5  1.714736E+05  1.469018E+00  1.494333E+02 -1.743319E+04  5.220346E+01  8.847434E+03
       403   6  1.714824E+05  1.224510E+01  1.451665E+02 -2.519966E+04 -2.251145E+01  6.639898E+03
       403   7  3.768088E+05  4.997987E+04  4.479931E+04 -2.523107E+04 -1.910203E+03  1.103357E+04
       403   8  3.383775E+05  4.063697E+04  3.647189E+04 -1.746568E+04 -2.004641E+03  8.847841E+03
       403   9  2.999649E+05  3.131500E+04  2.821102E+04 -2.523299E+04 -2.099539E+03  6.640512E+03
       403  10 -3.381214E+04 -4.996639E+04 -4.438946E+04 -2.516828E+04 -1.699851E-11 -9.003200E-11
       403  11  4.595744E+03 -4.063596E+04 -3.617483E+04 -1.740072E+04 -2.054572E-10  1.449518E-10
       403  12  4.301532E+04 -3.129165E+04 -2.792175E+04 -2.516635E+04 -2.159153E-10 -2.822568E-10
       403  13  1.714785E+05  8.068357E+00  2.060665E+02 -2.519966E+04 -1.220108E-10 -1.278124E-11
       403  14  1.714735E+05  1.384955E+00  1.492862E+02 -1.743319E+04 -3.143924E-10  1.959886E-10
       403  15  1.714824E+05  1.219776E+01  1.450836E+02 -2.519966E+04 -3.748388E-10  1.974632E-10
       403  16  3.768087E+05  4.997973E+04  4.479908E+04 -2.523105E+04 -1.786923E-11 -6.435766E-11
       403  17  3.383774E+05  4.063689E+04  3.647173E+04 -1.746567E+04  3.038162E-10 -1.807896E-10
       403  18  2.999648E+05  3.131495E+04  2.821092E+04 -2.523297E+04 -4.942185E-11 -7.712446E-11
       403  19 -3.381210E+04 -4.996626E+04 -4.438923E+04 -2.516826E+04 -2.162446E+03 -1.103315E+04
       403  20  4.595770E+03 -4.063588E+04 -3.617468E+04 -1.740070E+04 -2.108503E+03 -8.847026E+03
       403  21  4.301534E+04 -3.129160E+04 -2.792166E+04 -2.516634E+04 -2.054092E+03 -6.639285E+03
       403  22  1.714786E+05  8.199094E+00  2.062953E+02 -2.519966E+04 -1.264534E+02 -1.103336E+04
       403  23  1.714736E+05  1.469018E+00  1.494333E+02 -1.743319E+04 -5.220346E+01 -8.847434E+03
       403  24  1.714824E+05  1.224510E+01  1.451665E+02 -2.519966E+04  2.251145E+01 -6.639898E+03
       403  25  3.768088E+05  4.997987E+04  4.479931E+04 -2.523107E+04  1.910203E+03 -1.103357E+04
       403  26  3.383775E+05  4.063697E+04  3.647189E+04 -1.746568E+04  2.004641E+03 -8.847841E+03
       403  27  2.999649E+05  3.131500E+04  2.821102E+04 -2.523299E+04  2.099539E+03 -6.640512E+03
       404   1  7.392321E+04 -2.372056E+04 -2.096784E+04 -2.516921E+04  2.019205E+03  5.349426E+03
       404   2  1.123074E+05 -1.439983E+04 -1.265392E+04 -1.741172E+04  1.908445E+03  3.138125E+03
       404   3  1.506978E+05 -5.067360E+03 -4.268071E+03 -2.517597E+04  1.797516E+03  9.261454E+02
       404   4  1.714821E+05  1.387590E+01  1.583670E+02 -2.519715E+04 -5.052237E+01  5.350120E+03
       404   5  1.714800E+05  8.481052E+00  2.241753E+02 -1.743633E+04 -1.619703E+02  3.138887E+03
       404   6  1.714834E+05  1.517225E+01  3.625913E+02 -2.519715E+04 -2.735805E+02  9.269798E+02
       404   7  2.690499E+05  2.374768E+04  2.128402E+04 -2.522510E+04 -2.120571E+03  5.350815E+03
       404   8  2.306559E+05  1.441656E+04  1.310208E+04 -1.746094E+04 -2.232580E+03  3.139648E+03
       404   9  1.922695E+05  5.097678E+03  4.993242E+03 -2.521833E+04 -2.344745E+03  9.278142E+02
       404  10  7.392320E+04 -2.372059E+04 -2.096790E+04 -2.516921E+04 -1.480951E-10 -1.388119E-10
       404  11  1.123074E+05 -1.439984E+04 -1.265395E+04 -1.741172E+04 -2.103546E-10  5.517345E-11
       404  12  1.506978E+05 -5.067362E+03 -4.268078E+03 -2.517597E+04 -2.892273E-10 -5.136122E-11
       404  13  1.714821E+05  1.384516E+01  1.583132E+02 -2.519715E+04  2.460705E-11 -2.576090E-10
       404  14  1.714800E+05  8.470464E+00  2.241568E+02 -1.743632E+04 -1.225434E-10  5.201495E-11
       404  15  1.714834E+05  1.517131E+01  3.625895E+02 -2.519715E+04  1.409453E-10 -1.433565E-10
       404  16  2.690499E+05  2.374765E+04  2.128396E+04 -2.522509E+04 -9.537204E-11  1.046504E-11
       404  17  2.306559E+05  1.441655E+04  1.310205E+04 -1.746093E+04  4.596696E-10  8.378763E-12
       404  18  1.922695E+05  5.097675E+03  4.993230E+03 -2.521833E+04  1.139056E-10 -2.562809E-10
       404  19  7.392321E+04 -2.372056E+04 -2.096784E+04 -2.516921E+04 -2.019205E+03 -5.349426E+03
       404  20  1.123074E+05 -1.439983E+04 -1.265392E+04 -1.741172E+04 -1.908445E+03 -3.138125E+03
       404  21  1.506978E+05 -5.067360E+03 -4.268071E+03 -2.517597E+04 -1.797516E+03 -9.261454E+02
       404  22  1.714821E+05  1.387590E+01  1.583670E+02 -2.519715E+04  5.052237E+01 -5.350120E+03
       404  23  1.714800E+05  8.481052E+00  2.241753E+02 -1.743633E+04  1.619703E+02 -3.138887E+03
       404  24  1.714834E+05  1.517225E+01  3.625913E+02 -2.519715E+04  2.735805E+02 -9.269798E+02
       404  25  2.690499E+05  2.374768E+04  2.128402E+04 -2.522510E+04  2.120571E+03 -5.350815E+03
       404  26  2.306559E+05  1.441656E+04  1.310208E+04 -1.746094E+04  2.232580E+03 -3.139648E+03
       404  27  1.922695E+05  5.097678E+03  4.993242E+03 -2.521833E+04  2.344745E+03 -9.278142E+02
       405   1  1.816063E+05  2.499350E+03  2.778368E+03 -2.518225E+04  1.721378E+03 -3.614096E+02
       405   2  2.199707E+05  1.180923E+04  1.136052E+04 -1.741344E+04  1.321751E+03 -2.573108E+03
       405   3  2.583834E+05  2.114697E+04  2.020664E+04 -2.516575E+04  9.222273E+02 -4.784092E+03
       405   4  1.714925E+05  1.538372E+01  4.702316E+02 -2.519705E+04 -3.497324E+02 -3.605714E+02
       405   5  1.714688E+05  1.335755E-02  8.054249E+02 -1.743645E+04 -7.487351E+02 -2.572330E+03
       405   6  1.714914E+05  1.234597E+01  1.404073E+03 -2.519704E+04 -1.147610E+03 -4.783369E+03
       405   7  1.613789E+05 -2.468588E+03 -1.837896E+03 -2.521185E+04 -2.420810E+03 -3.597330E+02
       405   8  1.229692E+05 -1.180936E+04 -9.749794E+03 -1.745946E+04 -2.819061E+03 -2.571552E+03
       405   9  8.460649E+04 -2.112278E+04 -1.739893E+04 -2.522833E+04 -3.217161E+03 -4.782646E+03
       405  10  1.816063E+05  2.499349E+03  2.778362E+03 -2.518225E+04 -2.780249E-10  1.845532E-10
       405  11  2.199707E+05  1.180922E+04  1.136050E+04 -1.741344E+04 -2.086687E-10  5.318062E-10
       405  12  2.583834E+05  2.114695E+04  2.020660E+04 -2.516575E+04  2.041469E-10 -1.774417E-10
       405  13  1.714925E+05  1.538354E+01  4.702311E+02 -2.519705E+04  1.430385E-10 -2.214529E-11
       405  14  1.714688E+05  6.101072E-03  8.054114E+02 -1.743645E+04 -1.136807E-10 -2.282259E-10
       405  15  1.714914E+05  1.232104E+01  1.404028E+03 -2.519705E+04 -4.768174E-11  1.409979E-10
       405  16  1.613789E+05 -2.468589E+03 -1.837907E+03 -2.521185E+04  1.450554E-10 -4.487874E-11
       405  17  1.229692E+05 -1.180937E+04 -9.749821E+03 -1.745946E+04  6.760244E-10 -2.092253E-10
       405  18  8.460648E+04 -2.112280E+04 -1.739899E+04 -2.522835E+04 -3.147315E-10  1.083412E-10
       405  19  1.816063E+05  2.499350E+03  2.778368E+03 -2.518225E+04 -1.721378E+03  3.614096E+02
       405  20  2.199707E+05  1.180923E+04  1.136052E+04 -1.741344E+04 -1.321751E+03  2.573108E+03
       405  21  2.583834E+05  2.114697E+04  2.020664E+04 -2.516575E+04 -9.222273E+02  4.784092E+03
       405  22  1.714925E+05  1.538372E+01  4.702316E+02 -2.519705E+04  3.497324E+02  3.605714E+02
       405  23  1.714688E+05  1.335755E-02  8.054249E+02 -1.743645E+04  7.487351E+02  2.572330E+03
       405  24  1.714914E+05  1.234597E+01  1.404073E+03 -2.519704E+04  1.147610E+03  4.783369E+03
       405  25  1.613789E+05 -2.468588E+03 -1.837896E+03 -2.521185E+04  2.420810E+03  3.597330E+02
       405  26  1.229692E+05 -1.180936E+04 -9.749794E+03 -1.745946E+04  2.819061E+03  2.571552E+03
       405  27  8.460649E+04 -2.112278E+04 -1.739893E+04 -2.522833E+04  3.217161E+03  4.782646E+03
       406   1  2.893456E+05  2.869281E+04  2.759051E+04 -2.512581E+04  6.349360E+02 -6.073577E+03
       406   2  3.276218E+05  3.799368E+04  3.720921E+04 -1.736335E+04 -9.776452E+02 -8.280435E+03
       406   3  3.661804E+05  4.758704E+04  4.794964E+04 -2.513198E+04 -2.589892E+03 -1.046624E+04
       406   4  1.715414E+05 -1.022302E+01  1.848210E+03 -2.519932E+04 -1.441626E+03 -6.072926E+03
       406   5  1.714007E+05 -4.113689E+01  3.211273E+03 -1.743361E+04 -3.034187E+03 -8.279978E+03
       406   6  1.715377E+05  2.171439E+02  5.682469E+03 -2.519923E+04 -4.626317E+03 -1.046597E+04
       406   7  5.375021E+04 -2.871417E+04 -2.389492E+04 -2.527281E+04 -3.517799E+03 -6.072275E+03
       406   8  1.520249E+04 -3.807757E+04 -3.078811E+04 -1.750385E+04 -5.090219E+03 -8.279520E+03
       406   9 -2.306952E+04 -4.715526E+04 -3.658695E+04 -2.526645E+04 -6.662112E+03 -1.046570E+04
       406  10  2.893456E+05  2.869277E+04  2.759044E+04 -2.512580E+04  2.976678E-10 -3.061312E-10
       406  11  3.276218E+05  3.799360E+04  3.720908E+04 -1.736336E+04 -3.943064E-10 -4.947013E-11
       406  12  3.661804E+05  4.758692E+04  4.794942E+04 -2.513200E+04 -7.000648E-10  1.234495E-10
       406  13  1.715414E+05 -1.026318E+01  1.848137E+03 -2.519932E+04  1.016696E-10  1.048166E-10
       406  14  1.714007E+05 -4.121299E+01  3.211127E+03 -1.743363E+04  2.642231E-11 -2.047641E-10
       406  15  1.715376E+05  2.170205E+02  5.682223E+03 -2.519927E+04  1.693015E-10 -7.626242E-11
       406  16  5.375018E+04 -2.871422E+04 -2.389501E+04 -2.527283E+04 -1.959442E-10  1.690212E-10
       406  17  1.520245E+04 -3.807765E+04 -3.078829E+04 -1.750389E+04  2.318668E-10  2.683160E-10
       406  18 -2.306959E+04 -4.715539E+04 -3.658724E+04 -2.526651E+04  4.924025E-10  1.685032E-11
       406  19  2.893456E+05  2.869281E+04  2.759051E+04 -2.512581E+04 -6.349360E+02  6.073577E+03
       406  20  3.276218E+05  3.799368E+04  3.720921E+04 -1.736335E+04  9.776452E+02  8.280435E+03
       406  21  3.661804E+05  4.758704E+04  4.794964E+04 -2.513198E+04  2.589892E+03  1.046624E+04
       406  22  1.715414E+05 -1.022302E+01  1.848210E+03 -2.519932E+04  1.441626E+03  6.072926E+03
       406  23  1.714007E+05 -4.113689E+01  3.211273E+03 -1.743361E+04  3.034187E+03  8.279978E+03
       406  24  1.715377E+05  2.171439E+02  5.682469E+03 -2.519923E+04  4.626317E+03  1.046597E+04
       406  25  5.375021E+04 -2.871417E+04 -2.389492E+04 -2.527281E+04  3.517799E+03  6.072275E+03
       406  26  1.520249E+04 -3.807757E+04 -3.078811E+04 -1.750385E+04  5.090219E+03  8.279520E+03
       406  27 -2.306952E+04 -4.715526E+04 -3.658695E+04 -2.526645E+04  6.662112E+03  1.046570E+04
       407   1  3.975398E+05  5.465997E+04  5.661850E+04 -2.428595E+04 -3.604431E+03 -1.179571E+04
       407   2  4.349309E+05  6.415875E+04  7.040471E+04 -1.783663E+04 -1.052138E+04 -1.387832E+04
       407   3  4.744924E+05  7.865766E+04  8.994604E+04 -2.692055E+04 -1.743800E+04 -1.547631E+04
       407   4  1.719379E+05 -2.837958E+02  7.425367E+03 -2.519991E+04 -5.781451E+03 -1.179555E+04
       407   5  1.708887E+05 -1.371901E+02  1.287565E+04 -1.743282E+04 -1.224210E+04 -1.387855E+04
       407   6  1.719311E+05  4.931958E+03  2.376634E+04 -2.519931E+04 -1.870200E+04 -1.547686E+04
       407   7 -5.361633E+04 -5.523094E+04 -4.177081E+04 -2.611354E+04 -7.957690E+03 -1.179539E+04
       407   8 -9.308825E+04 -6.443776E+04 -4.465758E+04 -1.702918E+04 -1.396209E+04 -1.387879E+04
       407   9 -1.305446E+05 -6.879984E+04 -4.241888E+04 -2.347892E+04 -1.996540E+04 -1.547742E+04
       407  10  3.975397E+05  5.465982E+04  5.661822E+04 -2.428598E+04 -4.850784E-11  2.426686E-10
       407  11  4.349307E+05  6.415852E+04  7.040414E+04 -1.783675E+04  1.068003E-10 -7.899519E-11
       407  12  4.744920E+05  7.865733E+04  8.994502E+04 -2.692077E+04  2.222740E-11 -8.625843E-11
       407  13  1.719378E+05 -2.839542E+02  7.425042E+03 -2.519997E+04 -2.671410E-10  1.256388E-10
       407  14  1.708885E+05 -1.374372E+02  1.287501E+04 -1.743295E+04  5.170587E-11  6.104339E-11
       407  15  1.719306E+05  4.931607E+03  2.376524E+04 -2.519954E+04  2.433599E-10 -8.892412E-11
       407  16 -5.361644E+04 -5.523111E+04 -4.177119E+04 -2.611361E+04 -1.214574E-10  2.138423E-11
       407  17 -9.308852E+04 -6.443802E+04 -4.465830E+04 -1.702933E+04  4.475152E-11 -1.117132E-10
       407  18 -1.305451E+05 -6.880020E+04 -4.242008E+04 -2.347917E+04 -3.541852E-11 -1.275073E-10
       407  19  3.975398E+05  5.465997E+04  5.661850E+04 -2.428595E+04  3.604431E+03  1.179571E+04
       407  20  4.349309E+05  6.415875E+04  7.040471E+04 -1.783663E+04  1.052138E+04  1.387832E+04
       407  21  4.744924E+05  7.865766E+04  8.994604E+04 -2.692055E+04  1.743800E+04  1.547631E+04
       407  22  1.719379E+05 -2.837958E+02  7.425367E+03 -2.519991E+04  5.781451E+03  1.179555E+04
       407  23  1.708887E+05 -1.371901E+02  1.287565E+04 -1.743282E+04  1.224210E+04  1.387855E+04
       407  24  1.719311E+05  4.931958E+03  2.376634E+04 -2.519931E+04  1.870200E+04  1.547686E+04
       407  25 -5.361633E+04 -5.523094E+04 -4.177081E+04 -2.611354E+04  7.957690E+03  1.179539E+04
       407  26 -9.308825E+04 -6.443776E+04 -4.465758E+04 -1.702918E+04  1.396209E+04  1.387879E+04
       407  27 -1.305446E+05 -6.879984E+04 -4.241888E+04 -2.347892E+04  1.996540E+04  1.547742E+04
       408   1  5.109745E+05  7.677506E+04  1.026041E+05 -1.174811E+04 -1.855783E+04 -1.767039E+04
       408   2  5.359652E+05  9.130394E+04  1.337312E+05 -3.344827E+04 -5.578537E+04 -1.694599E+04
       408   3  5.883038E+05  1.956603E+05  2.115503E+05 -7.025415E+04 -9.301955E+04 -5.409976E+03
       408   4  1.771525E+05 -4.494918E+03  2.995061E+04 -2.509979E+04 -2.293210E+04 -1.767078E+04
       408   5  1.643441E+05  5.066791E+02  5.118899E+04 -1.755670E+04 -5.002162E+04 -1.694731E+04
       408   6  1.771371E+05  9.360236E+04  1.120974E+05 -2.511676E+04 -7.711466E+04 -5.412827E+03
       408   7 -1.565646E+05 -8.577161E+04 -4.270937E+04 -3.844420E+04 -2.730405E+04 -1.767098E+04
       408   8 -2.071476E+05 -9.029896E+04 -3.136161E+04 -1.674753E+03 -4.426128E+04 -1.694833E+04
       408   9 -2.338702E+05 -8.460110E+03  1.263443E+04  1.999065E+04 -6.122026E+04 -5.413369E+03
       408  10  5.109740E+05  7.677463E+04  1.026028E+05 -1.174837E+04  3.252945E-11 -3.585768E-11
       408  11  5.359618E+05  9.130280E+04  1.337249E+05 -3.344903E+04  3.530469E-10  9.139990E-12
       408  12  5.882945E+05  1.956579E+05  2.115340E+05 -7.025456E+04  2.930105E-10 -5.321697E-11
       408  13  1.771519E+05 -4.495394E+03  2.994903E+04 -2.510011E+04  5.616908E-11  6.551129E-12
       408  14  1.643413E+05  5.056992E+02  5.118375E+04 -1.755739E+04  1.295146E-10  3.230155E-10
       408  15  1.771307E+05  9.360074E+04  1.120862E+05 -2.511710E+04 -6.066521E-11 -1.188505E-11
       408  16 -1.565654E+05 -8.577214E+04 -4.271135E+04 -3.844459E+04  1.851367E-10 -2.584890E-11
       408  17 -2.071498E+05 -9.029979E+04 -3.136583E+04 -1.675358E+03 -5.567814E-10  1.286224E-10
       408  18 -2.338743E+05 -8.461148E+03  1.262733E+04  1.999038E+04 -2.088461E-10 -4.328886E-11
       408  19  5.109745E+05  7.677506E+04  1.026041E+05 -1.174811E+04  1.855783E+04  1.767039E+04
       408  20  5.359652E+05  9.130394E+04  1.337312E+05 -3.344827E+04  5.578537E+04  1.694599E+04
       408  21  5.883038E+05  1.956603E+05  2.115503E+05 -7.025415E+04  9.301955E+04  5.409976E+03
       408  22  1.771525E+05 -4.494918E+03  2.995061E+04 -2.509979E+04  2.293210E+04  1.767078E+04
       408  23  1.643441E+05  5.066791E+02  5.118899E+04 -1.755670E+04  5.002162E+04  1.694731E+04
       408  24  1.771371E+05  9.360236E+04  1.120974E+05 -2.511676E+04  7.711466E+04  5.412827E+03
       408  25 -1.565646E+05 -8.577161E+04 -4.270937E+04 -3.844420E+04  2.730405E+04  1.767098E+04
       408  26 -2.071476E+05 -9.029896E+04 -3.136161E+04 -1.674753E+03  4.426128E+04  1.694833E+04
       408  27 -2.338702E+05 -8.460110E+03  1.263443E+04  1.999065E+04  6.122026E+04  5.413369E+03
       409   1 -1.392734E+06 -2.128837E+05 -2.295438E+05 -8.141998E+04 -9.908722E+04  5.884707E+03
       409   2 -1.327031E+06 -9.944663E+04 -1.442317E+05 -4.032300E+04 -5.902473E+04  1.835701E+04
       409   3 -1.290382E+06 -8.151307E+04 -1.089083E+05 -1.929710E+04 -1.895489E+04  1.870780E+04
       409   4 -9.367859E+05 -9.943441E+04 -1.189951E+05 -3.342753E+04 -8.181012E+04  5.880966E+03
       409   5 -9.232209E+05 -5.980478E+02 -5.433678E+04 -2.339857E+04 -5.305734E+04  1.835526E+04
       409   6 -9.367274E+05  4.732333E+03 -3.178120E+04 -3.344345E+04 -2.430128E+04  1.870755E+04
       409   7 -4.806419E+05  1.400839E+04 -8.459018E+03  1.460034E+04 -6.452033E+04  5.879906E+03
       409   8 -5.192577E+05  9.824056E+04  3.554821E+04 -6.462990E+03 -4.708610E+04  1.835383E+04
       409   9 -5.829545E+05  9.097017E+04  4.533859E+04 -4.759797E+04 -2.965067E+04  1.870754E+04
       409  10 -1.392745E+06 -2.128863E+05 -2.295623E+05 -8.141951E+04  6.722251E-11 -4.012528E-11
       409  11 -1.327035E+06 -9.944793E+04 -1.442389E+05 -4.032213E+04  3.915997E-10 -2.019852E-10
       409  12 -1.290383E+06 -8.151354E+04 -1.089096E+05 -1.929682E+04 -4.241753E-10  9.808283E-11
       409  13 -9.367931E+05 -9.943624E+04 -1.190077E+05 -3.342715E+04  1.387873E-10 -6.975735E-11
       409  14 -9.232240E+05 -5.991665E+02 -5.434271E+04 -2.339778E+04  8.013936E-10 -3.651410E-10
       409  15 -9.367281E+05  4.731799E+03 -3.178297E+04 -3.344308E+04 -9.476992E-11  1.725131E-10
       409  16 -4.806464E+05  1.400723E+04 -8.466912E+03  1.460064E+04  1.220220E-10 -1.397606E-10
       409  17 -5.192602E+05  9.823961E+04  3.554341E+04 -6.462294E+03  1.703430E-10 -8.215018E-11
       409  18 -5.829555E+05  9.096956E+04  4.533628E+04 -4.759752E+04  5.399566E-10  2.065777E-10
       409  19 -1.392734E+06 -2.128837E+05 -2.295438E+05 -8.141998E+04  9.908722E+04 -5.884707E+03
       409  20 -1.327031E+06 -9.944663E+04 -1.442317E+05 -4.032300E+04  5.902473E+04 -1.835701E+04
       409  21 -1.290382E+06 -8.151307E+04 -1.089083E+05 -1.929710E+04  1.895489E+04 -1.870780E+04
       409  22 -9.367859E+05 -9.943441E+04 -1.189951E+05 -3.342753E+04  8.181012E+04 -5.880966E+03
       409  23 -9.232209E+05 -5.980478E+02 -5.433678E+04 -2.339857E+04  5.305734E+04 -1.835526E+04
       409  24 -9.367274E+05  4.732333E+03 -3.178120E+04 -3.344345E+04  2.430128E+04 -1.870755E+04
       409  25 -4.806419E+05  1.400839E+04 -8.459018E+03  1.460034E+04  6.452033E+04 -5.879906E+03
       409  26 -5.192577E+05  9.824056E+04  3.554821E+04 -6.462990E+03  4.708610E+04 -1.835383E+04
       409  27 -5.829545E+05  9.097017E+04  4.533859E+04 -4.759797E+04  2.965067E+04 -1.870754E+04
       410   1 -1.243237E+06 -8.143145E+04 -9.359575E+04 -3.541145E+04 -1.794391E+04  1.597500E+04
       410   2 -1.190594E+06 -6.340429E+04 -7.052343E+04 -2.357775E+04 -1.057507E+04  1.369907E+04
       410   3 -1.140222E+06 -5.068316E+04 -5.357846E+04 -3.255990E+04 -3.206628E+03  1.087101E+04
       410   4 -9.311979E+05 -5.272364E+03 -2.522251E+04 -3.360472E+04 -1.981878E+04  1.597451E+04
       410   5 -9.301007E+05  1.278511E+02 -1.366808E+04 -2.319659E+04 -1.296283E+04  1.369901E+04
       410   6 -9.311844E+05  3.131387E+02 -7.881641E+03 -3.360386E+04 -6.107870E+03  1.087148E+04
       410   7 -6.190672E+05  7.088022E+04  4.314482E+04 -3.179708E+04 -2.169458E+04  1.597401E+04
       410   8 -6.695432E+05  6.365547E+04  4.318320E+04 -2.281527E+04 -1.535158E+04  1.369896E+04
       410   9 -7.221062E+05  5.130653E+04  3.781257E+04 -3.464818E+04 -9.010078E+03  1.087196E+04
       410  10 -1.243238E+06 -8.143181E+04 -9.359684E+04 -3.541121E+04  2.108755E-10  2.966209E-10
       410  11 -1.190595E+06 -6.340452E+04 -7.052399E+04 -2.357763E+04 -4.425219E-10 -7.821745E-11
       410  12 -1.140222E+06 -5.068329E+04 -5.357870E+04 -3.255987E+04  8.816442E-11 -1.628321E-10
       410  13 -9.311984E+05 -5.272744E+03 -2.522373E+04 -3.360447E+04 -1.681495E-11  2.671223E-10
       410  14 -9.301009E+05  1.276045E+02 -1.366875E+04 -2.319645E+04 -2.911937E-11  6.238659E-11
       410  15 -9.311845E+05  3.130018E+02 -7.881933E+03 -3.360381E+04  2.981901E-10  3.224397E-11
       410  16 -6.190678E+05  7.087982E+04  4.314346E+04 -3.179680E+04 -2.096367E-10  2.493652E-10
       410  17 -6.695435E+05  6.365521E+04  4.318240E+04 -2.281510E+04  3.929704E-10  2.840538E-10
       410  18 -7.221064E+05  5.130638E+04  3.781219E+04 -3.464810E+04  4.240856E-11 -7.056123E-11
       410  19 -1.243237E+06 -8.143145E+04 -9.359575E+04 -3.541145E+04  1.794391E+04 -1.597500E+04
       410  20 -1.190594E+06 -6.340429E+04 -7.052343E+04 -2.357775E+04  1.057507E+04 -1.369907E+04
       410  21 -1.140222E+06 -5.068316E+04 -5.357846E+04 -3.255990E+04  3.206628E+03 -1.087101E+04
       410  22 -9.311979E+05 -5.272364E+03 -2.522251E+04 -3.360472E+04  1.981878E+04 -1.597451E+04
       410  23 -9.301007E+05  1.278511E+02 -1.366808E+04 -2.319659E+04  1.296283E+04 -1.369901E+04
       410  24 -9.311844E+05  3.131387E+02 -7.881641E+03 -3.360386E+04  6.107870E+03 -1.087148E+04
       410  25 -6.190672E+05  7.088022E+04  4.314482E+04 -3.179708E+04  2.169458E+04 -1.597401E+04
       410  26 -6.695432E+05  6.365547E+04  4.318320E+04 -2.281527E+04  1.535158E+04 -1.369896E+04
       410  27 -7.221062E+05  5.130653E+04  3.781257E+04 -3.464818E+04  9.010078E+03 -1.087196E+04
       411   1 -1.098172E+06 -4.100876E+04 -4.239935E+04 -3.349369E+04 -2.133986E+03  9.090186E+03
       411   2 -1.046255E+06 -2.813555E+04 -2.863148E+04 -2.302618E+04 -4.111638E+02  6.135747E+03
       411   3 -9.946434E+05 -1.555429E+04 -1.606208E+04 -3.350704E+04  1.311392E+03  3.153713E+03
       411   4 -9.307637E+05 -2.165517E+02 -6.038226E+03 -3.363360E+04 -4.883108E+03  9.090799E+03
       411   5 -9.306101E+05  6.032217E+01 -3.426723E+03 -2.315947E+04 -3.185773E+03  6.136546E+03
       411   6 -9.307591E+05  4.975377E+01 -1.995776E+03 -3.363348E+04 -1.488845E+03  3.154710E+03
       411   7 -7.633295E+05  4.057380E+04  3.032126E+04 -3.377354E+04 -7.632962E+03  9.091413E+03
       411   8 -8.149521E+05  2.825531E+04  2.177725E+04 -2.329280E+04 -5.960892E+03  6.137345E+03
       411   9 -8.668709E+05  1.565352E+04  1.207031E+04 -3.375995E+04 -4.289367E+03  3.155707E+03
       411  10 -1.098172E+06 -4.100885E+04 -4.239952E+04 -3.349367E+04 -5.572896E-10 -4.128939E-10
       411  11 -1.046255E+06 -2.813559E+04 -2.863155E+04 -2.302617E+04 -4.659519E-10 -1.907082E-10
       411  12 -9.946434E+05 -1.555430E+04 -1.606210E+04 -3.350704E+04  3.485333E-10  1.658429E-10
       411  13 -9.307637E+05 -2.166468E+02 -6.038426E+03 -3.363356E+04  2.522895E-10 -5.622423E-11
       411  14 -9.306101E+05  6.027902E+01 -3.426813E+03 -2.315946E+04 -4.079787E-10 -7.126336E-12
       411  15 -9.307591E+05  4.974249E+01 -1.995799E+03 -3.363348E+04 -1.476938E-10 -5.107853E-11
       411  16 -7.633296E+05  4.057370E+04  3.032099E+04 -3.377349E+04  5.301231E-10  1.750904E-10
       411  17 -8.149521E+05  2.825526E+04  2.177712E+04 -2.329277E+04  6.190198E-10  3.033818E-10
       411  18 -8.668710E+05  1.565351E+04  1.207025E+04 -3.375993E+04 -5.159977E-11  2.239216E-10
       411  19 -1.098172E+06 -4.100876E+04 -4.239935E+04 -3.349369E+04  2.133986E+03 -9.090186E+03
       411  20 -1.046255E+06 -2.813555E+04 -2.863148E+04 -2.302618E+04  4.111638E+02 -6.135747E+03
       411  21 -9.946434E+05 -1.555429E+04 -1.606208E+04 -3.350704E+04 -1.311392E+03 -3.153713E+03
       411  22 -9.307637E+05 -2.165517E+02 -6.038226E+03 -3.363360E+04  4.883108E+03 -9.090799E+03
       411  23 -9.306101E+05  6.032217E+01 -3.426723E+03 -2.315947E+04  3.185773E+03 -6.136546E+03
       411  24 -9.307591E+05  4.975377E+01 -1.995776E+03 -3.363348E+04  1.488845E+03 -3.154710E+03
       411  25 -7.633295E+05  4.057380E+04  3.032126E+04 -3.377354E+04  7.632962E+03 -9.091413E+03
       411  26 -8.149521E+05  2.825531E+04  2.177725E+04 -2.329280E+04  5.960892E+03 -6.137345E+03
       411  27 -8.668709E+05  1.565352E+04  1.207031E+04 -3.375995E+04  4.289367E+03 -3.155707E+03
       412   1 -9.528417E+05 -5.340739E+03 -6.217368E+03 -3.357819E+04  1.623378E+03  1.411133E+03
       412   2 -9.009757E+05  7.268757E+03  5.527415E+03 -2.312603E+04  2.088427E+03 -1.577877E+03
       412   3 -8.491854E+05  1.987025E+04  1.696302E+04 -3.364634E+04  2.553626E+03 -4.567091E+03
       412   4 -9.307083E+05  2.645645E+01 -1.538436E+03 -3.363893E+04 -1.170927E+03  1.412171E+03
       412   5 -9.306697E+05  2.990193E+01 -9.426176E+02 -2.315266E+04 -7.061561E+02 -1.576892E+03
       412   6 -9.307090E+05  2.556483E+01 -6.556762E+02 -3.363892E+04 -2.412738E+02 -4.566149E+03
       412   7 -9.085745E+05  5.393624E+03  3.140499E+03 -3.369967E+04 -3.965330E+03  1.413208E+03
       412   8 -9.603627E+05 -7.209008E+03 -7.412674E+03 -2.317930E+04 -3.500607E+03 -1.575907E+03
       412   9 -1.012226E+06 -1.981956E+04 -1.827473E+04 -3.363151E+04 -3.035811E+03 -4.565206E+03
       412  10 -9.528417E+05 -5.340742E+03 -6.217377E+03 -3.357820E+04  1.589847E-11  4.474161E-12
       412  11 -9.009757E+05  7.268754E+03  5.527403E+03 -2.312603E+04 -9.888139E-11  2.269845E-10
       412  12 -8.491854E+05  1.987023E+04  1.696297E+04 -3.364633E+04 -2.357586E-10  2.440326E-10
       412  13 -9.307083E+05  2.645394E+01 -1.538442E+03 -3.363893E+04  3.531960E-10  3.091408E-10
       412  14 -9.306697E+05  2.989913E+01 -9.426232E+02 -2.315266E+04 -4.094436E-10 -1.975344E-10
       412  15 -9.307090E+05  2.554244E+01 -6.557154E+02 -3.363893E+04 -2.662308E-10 -2.366734E-11
       412  16 -9.085745E+05  5.393618E+03  3.140465E+03 -3.369967E+04 -3.561234E-10 -4.894358E-10
       412  17 -9.603627E+05 -7.209014E+03 -7.412702E+03 -2.317930E+04  6.485878E-10  1.259981E-10
       412  18 -1.012226E+06 -1.981958E+04 -1.827479E+04 -3.363152E+04 -1.899648E-10 -1.546533E-10
       412  19 -9.528417E+05 -5.340739E+03 -6.217368E+03 -3.357819E+04 -1.623378E+03 -1.411133E+03
       412  20 -9.009757E+05  7.268757E+03  5.527415E+03 -2.312603E+04 -2.088427E+03  1.577877E+03
       412  21 -8.491854E+05  1.987025E+04  1.696302E+04 -3.364634E+04 -2.553626E+03  4.567091E+03
       412  22 -9.307083E+05  2.645645E+01 -1.538436E+03 -3.363893E+04  1.170927E+03 -1.412171E+03
       412  23 -9.306697E+05  2.990193E+01 -9.426176E+02 -2.315266E+04  7.061561E+02  1.576892E+03
       412  24 -9.307090E+05  2.556483E+01 -6.556762E+02 -3.363892E+04  2.412738E+02  4.566149E+03
       412  25 -9.085745E+05  5.393624E+03  3.140499E+03 -3.369967E+04  3.965330E+03 -1.413208E+03
       412  26 -9.603627E+05 -7.209008E+03 -7.412674E+03 -2.317930E+04  3.500607E+03  1.575907E+03
       412  27 -1.012226E+06 -1.981956E+04 -1.827473E+04 -3.363151E+04  3.035811E+03  4.565206E+03
       413   1 -8.074558E+05  3.009803E+04  2.640720E+04 -3.364996E+04  2.663771E+03 -6.306246E+03
       413   2 -7.557467E+05  4.265821E+04  3.751145E+04 -2.320792E+04  2.955490E+03 -9.289601E+03
       413   3 -7.040748E+05  5.521837E+04  4.842459E+04 -3.368190E+04  3.247883E+03 -1.226671E+04
       413   4 -9.307025E+05  2.495572E+01 -5.920261E+02 -3.362645E+04 -1.288897E+02 -6.305406E+03
       413   5 -9.306852E+05  1.461187E+01 -6.038695E+02 -2.316826E+04  1.685170E+02 -9.289047E+03
       413   6 -9.307079E+05  3.610066E+00 -8.105283E+02 -3.362645E+04  4.665728E+02 -1.226643E+04
       413   7 -1.053935E+06 -3.004913E+04 -2.759215E+04 -3.360294E+04 -2.921002E+03 -6.304566E+03
       413   8 -1.105595E+06 -4.263102E+04 -3.872100E+04 -2.312861E+04 -2.617680E+03 -9.288493E+03
       413   9 -1.157293E+06 -5.521455E+04 -5.004869E+04 -3.357102E+04 -2.313734E+03 -1.226616E+04
       413  10 -8.074558E+05  3.009798E+04  2.640712E+04 -3.364994E+04 -2.245210E-10  4.825733E-11
       413  11 -7.557467E+05  4.265811E+04  3.751127E+04 -2.320790E+04 -5.577144E-10 -1.853853E-10
       413  12 -7.040749E+05  5.521821E+04  4.842429E+04 -3.368187E+04 -1.443565E-10 -1.347800E-10
       413  13 -9.307025E+05  2.491304E+01 -5.921008E+02 -3.362645E+04  2.607256E-10  4.348943E-10
       413  14 -9.306852E+05  1.451925E+01 -6.040317E+02 -2.316826E+04  2.444916E-10  4.032548E-10
       413  15 -9.307079E+05  3.448505E+00 -8.108113E+02 -3.362645E+04 -6.284483E-10 -3.714375E-10
       413  16 -1.053935E+06 -3.004917E+04 -2.759224E+04 -3.360296E+04  8.646581E-11  1.159678E-10
       413  17 -1.105595E+06 -4.263111E+04 -3.872118E+04 -2.312863E+04  8.591827E-10  4.290758E-10
       413  18 -1.157293E+06 -5.521472E+04 -5.004898E+04 -3.357104E+04 -1.630675E-10  6.670258E-12
       413  19 -8.074558E+05  3.009803E+04  2.640720E+04 -3.364996E+04 -2.663771E+03  6.306246E+03
       413  20 -7.557467E+05  4.265821E+04  3.751145E+04 -2.320792E+04 -2.955490E+03  9.289601E+03
       413  21 -7.040748E+05  5.521837E+04  4.842459E+04 -3.368190E+04 -3.247883E+03  1.226671E+04
       413  22 -9.307025E+05  2.495572E+01 -5.920261E+02 -3.362645E+04  1.288897E+02  6.305406E+03
       413  23 -9.306852E+05  1.461187E+01 -6.038695E+02 -2.316826E+04 -1.685170E+02  9.289047E+03
       413  24 -9.307079E+05  3.610066E+00 -8.105283E+02 -3.362645E+04 -4.665728E+02  1.226643E+04
       413  25 -1.053935E+06 -3.004913E+04 -2.759215E+04 -3.360294E+04  2.921002E+03  6.304566E+03
       413  26 -1.105595E+06 -4.263102E+04 -3.872100E+04 -2.312861E+04  2.617680E+03  9.288493E+03
       413  27 -1.157293E+06 -5.521455E+04 -5.004869E+04 -3.357102E+04  2.313734E+03  1.226616E+04
       414   1 -6.625593E+05  6.540804E+04  5.757116E+04 -3.367473E+04  3.414952E+03 -1.400025E+04
       414   2 -6.111580E+05  7.788624E+04  6.797672E+04 -2.326456E+04  4.186435E+03 -1.695656E+04
       414   3 -5.598522E+05  9.023752E+04  7.785516E+04 -3.362577E+04  4.959169E+03 -1.986946E+04
       414   4 -9.307271E+05  1.316775E+01 -9.989159E+02 -3.359438E+04  6.295059E+02 -1.400022E+04
       414   5 -9.306793E+05  4.518220E+00 -1.638900E+03 -2.320837E+04  1.441095E+03 -1.695704E+04
       414   6 -9.307373E+05 -1.381501E+02 -2.834240E+03 -3.359440E+04  2.253873E+03 -1.987044E+04
       414   7 -1.198827E+06 -6.538650E+04 -5.957331E+04 -3.351405E+04 -2.154751E+03 -1.400018E+04
       414   8 -1.250105E+06 -7.788399E+04 -7.126063E+04 -2.315220E+04 -1.302849E+03 -1.695752E+04
       414   9 -1.301493E+06 -9.052295E+04 -8.353186E+04 -3.356304E+04 -4.498259E+02 -1.987141E+04
       414  10 -6.625593E+05  6.540783E+04  5.757077E+04 -3.367469E+04 -1.378787E-10  1.565227E-10
       414  11 -6.111581E+05  7.788593E+04  6.797615E+04 -2.326450E+04 -6.688743E-11  1.373871E-10
       414  12 -5.598523E+05  9.023709E+04  7.785437E+04 -3.362569E+04  4.728051E-10 -1.188893E-10
       414  13 -9.307272E+05  1.295726E+01 -9.992848E+02 -3.359437E+04 -4.624509E-10 -1.317400E-10
       414  14 -9.306794E+05  4.209028E+00 -1.639444E+03 -2.320835E+04 -5.067656E-10  8.732787E-11
       414  15 -9.307374E+05 -1.385753E+02 -2.834991E+03 -3.359436E+04  1.449273E-10 -1.623182E-10
       414  16 -1.198828E+06 -6.538671E+04 -5.957369E+04 -3.351408E+04  3.301094E-10  1.284292E-10
       414  17 -1.250105E+06 -7.788430E+04 -7.126117E+04 -2.315222E+04 -5.703632E-10  1.884660E-10
       414  18 -1.301493E+06 -9.052338E+04 -8.353260E+04 -3.356305E+04 -6.234180E-10 -6.013133E-11
       414  19 -6.625593E+05  6.540804E+04  5.757116E+04 -3.367473E+04 -3.414952E+03  1.400025E+04
       414  20 -6.111580E+05  7.788624E+04  6.797672E+04 -2.326456E+04 -4.186435E+03  1.695656E+04
       414  21 -5.598522E+05  9.023752E+04  7.785516E+04 -3.362577E+04 -4.959169E+03  1.986946E+04
       414  22 -9.307271E+05  1.316775E+01 -9.989159E+02 -3.359438E+04 -6.295059E+02  1.400022E+04
       414  23 -9.306793E+05  4.518220E+00 -1.638900E+03 -2.320837E+04 -1.441095E+03  1.695704E+04
       414  24 -9.307373E+05 -1.381501E+02 -2.834240E+03 -3.359440E+04 -2.253873E+03  1.987044E+04
       414  25 -1.198827E+06 -6.538650E+04 -5.957331E+04 -3.351405E+04  2.154751E+03  1.400018E+04
       414  26 -1.250105E+06 -7.788399E+04 -7.126063E+04 -2.315220E+04  1.302849E+03  1.695752E+04
       414  27 -1.301493E+06 -9.052295E+04 -8.353186E+04 -3.356304E+04  4.498259E+02  1.987141E+04
       415   1 -5.188440E+05  1.005706E+05  8.622592E+04 -3.396849E+04  5.745911E+03 -2.164927E+04
       415   2 -4.676186E+05  1.128361E+05  9.456818E+04 -2.298477E+04  8.214417E+03 -2.437447E+04
       415   3 -4.172003E+05  1.227991E+05  1.007464E+05 -3.252060E+04  1.068435E+04 -2.631553E+04
       415   4 -9.309293E+05  1.061462E+02 -3.684573E+03 -3.353871E+04  2.828080E+03 -2.165065E+04
       415   5 -9.304688E+05  5.982523E+00 -6.378640E+03 -2.327808E+04  6.027963E+03 -2.437640E+04
       415   6 -9.309458E+05 -2.524750E+03 -1.174640E+04 -3.353799E+04  9.229074E+03 -2.631775E+04
       415   7 -1.342855E+06 -1.003696E+05 -9.360527E+04 -3.310922E+04 -8.783809E+01 -2.165203E+04
       415   8 -1.393118E+06 -1.128384E+05 -1.073383E+05 -2.357117E+04  3.843117E+03 -2.437834E+04
       415   9 -1.444444E+06 -1.278662E+05 -1.242552E+05 -3.455455E+04  7.774985E+03 -2.631996E+04
       415  10 -5.188441E+05  1.005701E+05  8.622498E+04 -3.396839E+04  1.657350E-10 -1.741319E-10
       415  11 -4.676189E+05  1.128354E+05  9.456693E+04 -2.298461E+04  2.316886E-10 -4.408659E-10
       415  12 -4.172006E+05  1.227983E+05  1.007449E+05 -3.252037E+04 -3.651928E-10  2.666063E-10
       415  13 -9.309294E+05  1.056409E+02 -3.685469E+03 -3.353866E+04  3.371730E-11 -2.957623E-10
       415  14 -9.304690E+05  5.334957E+00 -6.379824E+03 -2.327796E+04 -7.324318E-11 -1.641146E-10
       415  15 -9.309461E+05 -2.525517E+03 -1.174786E+04 -3.353779E+04  1.192444E-10  3.792326E-10
       415  16 -1.342855E+06 -1.003701E+05 -9.360615E+04 -3.310922E+04 -4.298812E-10 -2.754714E-10
       415  17 -1.393118E+06 -1.128390E+05 -1.073395E+05 -2.357110E+04 -4.506908E-10 -9.695175E-11
       415  18 -1.444444E+06 -1.278670E+05 -1.242566E+05 -3.455438E+04  3.384707E-10  1.038794E-09
       415  19 -5.188440E+05  1.005706E+05  8.622592E+04 -3.396849E+04 -5.745911E+03  2.164927E+04
       415  20 -4.676186E+05  1.128361E+05  9.456818E+04 -2.298477E+04 -8.214417E+03  2.437447E+04
       415  21 -4.172003E+05  1.227991E+05  1.007464E+05 -3.252060E+04 -1.068435E+04  2.631553E+04
       415  22 -9.309293E+05  1.061462E+02 -3.684573E+03 -3.353871E+04 -2.828080E+03  2.165065E+04
       415  23 -9.304688E+05  5.982523E+00 -6.378640E+03 -2.327808E+04 -6.027963E+03  2.437640E+04
       415  24 -9.309458E+05 -2.524750E+03 -1.174640E+04 -3.353799E+04 -9.229074E+03  2.631775E+04
       415  25 -1.342855E+06 -1.003696E+05 -9.360527E+04 -3.310922E+04  8.783809E+01  2.165203E+04
       415  26 -1.393118E+06 -1.128384E+05 -1.073383E+05 -2.357117E+04 -3.843117E+03  2.437834E+04
       415  27 -1.444444E+06 -1.278662E+05 -1.242552E+05 -3.455455E+04 -7.774985E+03  2.631996E+04
       416   1 -3.786712E+05  1.373364E+05  1.060692E+05 -3.966932E+04  1.769105E+04 -2.943722E+04
       416   2 -3.236181E+05  1.472966E+05  1.088562E+05 -1.537695E+04  1.503519E+04 -2.766098E+04
       416   3 -2.782276E+05  1.165786E+05  1.032385E+05 -1.052017E+04  1.236282E+04 -8.722556E+03
       416   4 -9.335135E+05  2.124491E+03 -1.479586E+04 -3.330681E+04  1.131742E+04 -2.944225E+04
       416   5 -9.273008E+05 -3.677957E+02 -2.530776E+04 -2.356996E+04  2.471079E+04 -2.765617E+04
       416   6 -9.335531E+05 -4.634888E+04 -5.538793E+04 -3.327017E+04  3.808725E+04 -8.700263E+03
       416   7 -1.488067E+06 -1.331077E+05 -1.356793E+05 -2.695009E+04  4.949410E+03 -2.944742E+04
       416   8 -1.530643E+06 -1.480566E+05 -1.594941E+05 -3.175496E+04  3.437707E+04 -2.765161E+04
       416   9 -1.588483E+06 -2.093056E+05 -2.140425E+05 -5.599615E+04  6.378457E+04 -8.679846E+03
       416  10 -3.786718E+05  1.373354E+05  1.060670E+05 -3.966890E+04  6.007613E-10  7.267362E-10
       416  11 -3.236186E+05  1.472957E+05  1.088544E+05 -1.537662E+04  1.126303E-09  5.127921E-10
       416  12 -2.782278E+05  1.165784E+05  1.032380E+05 -1.052008E+04  8.348823E-10  5.412955E-10
       416  13 -9.335139E+05  2.123526E+03 -1.479773E+04 -3.330654E+04  6.163628E-10 -2.241719E-10
       416  14 -9.273017E+05 -3.687808E+02 -2.531035E+04 -2.356941E+04  1.979980E-10  5.979333E-10
       416  15 -9.335547E+05 -4.634935E+04 -5.539081E+04 -3.326990E+04  3.300808E-12 -2.045202E-10
       416  16 -1.488067E+06 -1.331087E+05 -1.356810E+05 -2.694997E+04 -5.251428E-10  9.095061E-10
       416  17 -1.530644E+06 -1.480577E+05 -1.594977E+05 -3.175420E+04 -1.257131E-09  1.105088E-10
       416  18 -1.588488E+06 -2.093067E+05 -2.140503E+05 -5.599570E+04 -7.688520E-10  8.597548E-10
       416  19 -3.786712E+05  1.373364E+05  1.060692E+05 -3.966932E+04 -1.769105E+04  2.943722E+04
       416  20 -3.236181E+05  1.472966E+05  1.088562E+05 -1.537695E+04 -1.503519E+04  2.766098E+04
       416  21 -2.782276E+05  1.165786E+05  1.032385E+05 -1.052017E+04 -1.236282E+04  8.722556E+03
       416  22 -9.335135E+05  2.124491E+03 -1.479586E+04 -3.330681E+04 -1.131742E+04  2.944225E+04
       416  23 -9.273008E+05 -3.677957E+02 -2.530776E+04 -2.356996E+04 -2.471079E+04  2.765617E+04
       416  24 -9.335531E+05 -4.634888E+04 -5.538793E+04 -3.327017E+04 -3.808725E+04  8.700263E+03
       416  25 -1.488067E+06 -1.331077E+05 -1.356793E+05 -2.695009E+04 -4.949410E+03  2.944742E+04
       416  26 -1.530643E+06 -1.480566E+05 -1.594941E+05 -3.175496E+04 -3.437707E+04  2.765161E+04
       416  27 -1.588483E+06 -2.093056E+05 -2.140425E+05 -5.599615E+04 -6.378457E+04  8.679846E+03
       417   1  7.070973E+05  1.964116E+05  2.657032E+05  1.201834E+05  2.543568E+05  7.458606E+03
       417   2  7.267620E+05 -1.180519E+05  7.370087E+04  2.852949E+04  1.714239E+05  2.240413E+04
       417   3  8.353971E+05 -1.204001E+05  1.373473E+04 -8.845313E+04  8.849082E+04  2.266977E+04
       417   4  1.263845E+06  3.341483E+05  4.002946E+05 -4.089863E+04  2.755256E+05  7.411195E+03
       417   5  1.218322E+06  1.881205E+03  1.828661E+05 -2.809658E+04  1.787381E+05  2.239267E+04
       417   6  1.264063E+06 -1.604661E+04  1.069979E+05 -4.062078E+04  8.196162E+04  2.267160E+04
       417   7  1.820933E+06  4.719602E+05  5.348795E+05 -2.021255E+05  2.967131E+05  7.352858E+03
       417   8  1.710114E+06  1.218101E+05  2.920183E+05 -8.476796E+04  1.860580E+05  2.237989E+04
       417   9  1.692906E+06  8.830328E+04  2.002515E+05  7.244969E+03  7.542796E+04  2.267242E+04
       417  10  7.070279E+05  1.963942E+05  2.655816E+05  1.201819E+05  1.110074E-09 -1.089200E-09
       417  11  7.267304E+05 -1.180603E+05  7.364478E+04  2.852640E+04  6.795567E-10  1.455558E-10
       417  12  8.353885E+05 -1.204027E+05  1.371906E+04 -8.845474E+04 -2.009836E-09 -2.509031E-10
       417  13  1.263764E+06  3.341279E+05  4.001522E+05 -4.090028E+04  4.102141E-10  4.792165E-10
       417  14  1.218287E+06  1.872111E+03  1.828053E+05 -2.809980E+04  6.177718E-10 -2.183591E-10
       417  15  1.264056E+06 -1.604896E+04  1.069843E+05 -4.062227E+04 -5.389354E-10 -4.735271E-10
       417  16  1.820839E+06  4.719366E+05  5.347144E+05 -2.021272E+05 -6.370411E-10  3.640995E-10
       417  17  1.710077E+06  1.218003E+05  2.919524E+05 -8.477131E+04 -1.317039E-10 -2.672943E-10
       417  18  1.692899E+06  8.830120E+04  2.002398E+05  7.243593E+03  2.953897E-09  1.541325E-09
       417  19  7.070973E+05  1.964116E+05  2.657032E+05  1.201834E+05 -2.543568E+05 -7.458606E+03
       417  20  7.267620E+05 -1.180519E+05  7.370087E+04  2.852949E+04 -1.714239E+05 -2.240413E+04
       417  21  8.353971E+05 -1.204001E+05  1.373473E+04 -8.845313E+04 -8.849082E+04 -2.266977E+04
       417  22  1.263845E+06  3.341483E+05  4.002946E+05 -4.089863E+04 -2.755256E+05 -7.411195E+03
       417  23  1.218322E+06  1.881205E+03  1.828661E+05 -2.809658E+04 -1.787381E+05 -2.239267E+04
       417  24  1.264063E+06 -1.604661E+04  1.069979E+05 -4.062078E+04 -8.196162E+04 -2.267160E+04
       417  25  1.820933E+06  4.719602E+05  5.348795E+05 -2.021255E+05 -2.967131E+05 -7.352858E+03
       417  26  1.710114E+06  1.218101E+05  2.920183E+05 -8.476796E+04 -1.860580E+05 -2.237989E+04
       417  27  1.692906E+06  8.830328E+04  2.002515E+05  7.244969E+03 -7.542796E+04 -2.267242E+04
       418   1  8.679776E+05 -7.430800E+04  2.419305E+03 -3.475445E+04  6.912160E+04  1.931232E+04
       418   2  9.273739E+05 -7.697309E+04 -2.239551E+04 -2.673026E+04  4.663708E+04  1.650680E+04
       418   3  9.941163E+05 -6.222414E+04 -2.821517E+04 -4.416245E+04  2.415000E+04  1.305159E+04
       418   4  1.245409E+06  1.758206E+04  8.491443E+04 -4.072433E+04  6.683486E+04  1.930963E+04
       418   5  1.241704E+06 -4.954542E+02  4.604332E+04 -2.799287E+04  4.372820E+04  1.650487E+04
       418   6  1.245444E+06 -1.057252E+03  2.658937E+04 -4.071645E+04  2.062122E+04  1.305027E+04
       418   7  1.622973E+06  1.094628E+05  1.674010E+05 -4.669789E+04  6.454674E+04  1.930697E+04
       418   8  1.556127E+06  7.597564E+04  1.144763E+05 -2.925614E+04  4.081787E+04  1.650296E+04
       418   9  1.496831E+06  6.010550E+04  8.139016E+04 -3.726905E+04  1.709104E+04  1.304890E+04
       418  10  8.679723E+05 -7.430968E+04  2.409638E+03 -3.475552E+04  6.473979E-10 -5.264985E-11
       418  11  9.273715E+05 -7.697396E+04 -2.240010E+04 -2.673088E+04  1.019022E-09  4.176273E-10
       418  12  9.941156E+05 -6.222448E+04 -2.821658E+04 -4.416270E+04 -1.056953E-10 -1.353091E-10
       418  13  1.245404E+06  1.758047E+04  8.490535E+04 -4.072536E+04  3.859464E-10  1.211066E-09
       418  14  1.241702E+06 -4.962590E+02  4.603922E+04 -2.799345E+04  7.714813E-10  3.858859E-10
       418  15  1.245444E+06 -1.057549E+03  2.658825E+04 -4.071667E+04 -5.399007E-10 -6.686312E-10
       418  16  1.622968E+06  1.094613E+05  1.673925E+05 -4.669889E+04 -8.113182E-10  1.084622E-09
       418  17  1.556125E+06  7.597490E+04  1.144726E+05 -2.925668E+04 -6.561649E-10 -1.985596E-10
       418  18  1.496831E+06  6.010524E+04  8.138929E+04 -3.726923E+04  2.327495E-11 -3.168903E-10
       418  19  8.679776E+05 -7.430800E+04  2.419305E+03 -3.475445E+04 -6.912160E+04 -1.931232E+04
       418  20  9.273739E+05 -7.697309E+04 -2.239551E+04 -2.673026E+04 -4.663708E+04 -1.650680E+04
       418  21  9.941163E+05 -6.222414E+04 -2.821517E+04 -4.416245E+04 -2.415000E+04 -1.305159E+04
       418  22  1.245409E+06  1.758206E+04  8.491443E+04 -4.072433E+04 -6.683486E+04 -1.930963E+04
       418  23  1.241704E+06 -4.954542E+02  4.604332E+04 -2.799287E+04 -4.372820E+04 -1.650487E+04
       418  24  1.245444E+06 -1.057252E+03  2.658937E+04 -4.071645E+04 -2.062122E+04 -1.305027E+04
       418  25  1.622973E+06  1.094628E+05  1.674010E+05 -4.669789E+04 -6.454674E+04 -1.930697E+04
       418  26  1.556127E+06  7.597564E+04  1.144763E+05 -2.925614E+04 -4.081787E+04 -1.650296E+04
       418  27  1.496831E+06  6.010550E+04  8.139016E+04 -3.726905E+04 -1.709104E+04 -1.304890E+04
       419   1  1.043216E+06 -4.808358E+04 -2.312274E+04 -4.109233E+04  1.981143E+04  1.089047E+04
       419   2  1.105349E+06 -3.378950E+04 -1.843295E+04 -2.842171E+04  1.408305E+04  7.317555E+03
       419   3  1.168500E+06 -1.851457E+04 -9.767478E+03 -4.105958E+04  8.353623E+03  3.719655E+03
       419   4  1.244020E+06  7.273828E+02  2.038072E+04 -4.068616E+04  1.647915E+04  1.088936E+04
       419   5  1.243516E+06 -1.841400E+02  1.160613E+04 -2.803205E+04  1.072548E+04  7.316686E+03
       419   6  1.244030E+06 -1.104042E+02  6.823782E+03 -4.068609E+04  4.971328E+03  3.719050E+03
       419   7  1.444863E+06  4.953570E+04  6.388182E+04 -4.027987E+04  1.314582E+04  1.088824E+04
       419   8  1.381701E+06  3.341996E+04  4.164411E+04 -2.764231E+04  7.367177E+03  7.315813E+03
       419   9  1.319566E+06  1.829339E+04  2.341474E+04 -4.031256E+04  1.588629E+03  3.718441E+03
       419  10  1.043215E+06 -4.808382E+04 -2.312370E+04 -4.109250E+04 -3.540184E-10 -4.049966E-10
       419  11  1.105349E+06 -3.378961E+04 -1.843343E+04 -2.842179E+04 -7.307850E-10 -5.400013E-10
       419  12  1.168500E+06 -1.851460E+04 -9.767635E+03 -4.105961E+04  1.074990E-10  1.996656E-11
       419  13  1.244020E+06  7.271827E+02  2.037999E+04 -4.068631E+04 -5.662735E-10 -3.394912E-10
       419  14  1.243516E+06 -1.842283E+02  1.160581E+04 -2.803211E+04 -1.244541E-10  1.819222E-10
       419  15  1.244030E+06 -1.104257E+02  6.823710E+03 -4.068611E+04 -1.043682E-09 -3.386581E-10
       419  16  1.444863E+06  4.953552E+04  6.388128E+04 -4.027998E+04 -3.959329E-10 -1.908645E-10
       419  17  1.381701E+06  3.341989E+04  4.164391E+04 -2.764235E+04 -9.463469E-10 -7.205016E-11
       419  18  1.319566E+06  1.829337E+04  2.341471E+04 -4.031256E+04 -2.312516E-10  2.258790E-10
       419  19  1.043216E+06 -4.808358E+04 -2.312274E+04 -4.109233E+04 -1.981143E+04 -1.089047E+04
       419  20  1.105349E+06 -3.378950E+04 -1.843295E+04 -2.842171E+04 -1.408305E+04 -7.317555E+03
       419  21  1.168500E+06 -1.851457E+04 -9.767478E+03 -4.105958E+04 -8.353623E+03 -3.719655E+03
       419  22  1.244020E+06  7.273828E+02  2.038072E+04 -4.068616E+04 -1.647915E+04 -1.088936E+04
       419  23  1.243516E+06 -1.841400E+02  1.160613E+04 -2.803205E+04 -1.072548E+04 -7.316686E+03
       419  24  1.244030E+06 -1.104042E+02  6.823782E+03 -4.068609E+04 -4.971328E+03 -3.719050E+03
       419  25  1.444863E+06  4.953570E+04  6.388182E+04 -4.027987E+04 -1.314582E+04 -1.088824E+04
       419  26  1.381701E+06  3.341996E+04  4.164411E+04 -2.764231E+04 -7.367177E+03 -7.315813E+03
       419  27  1.319566E+06  1.829339E+04  2.341474E+04 -4.031256E+04 -1.588629E+03 -3.718441E+03
       420   1  1.218645E+06 -6.128109E+03 -9.379001E-01 -4.086715E+04  7.247818E+03  1.621371E+03
       420   2  1.281074E+06  9.016183E+03  1.149329E+04 -2.814153E+04  5.580991E+03 -1.977854E+03
       420   3  1.343753E+06  2.421213E+04  2.408760E+04 -4.068852E+04  3.914148E+03 -5.579814E+03
       420   4  1.243860E+06 -3.049150E+01  5.306691E+03 -4.067828E+04  3.875412E+03  1.620824E+03
       420   5  1.243737E+06 -6.376800E+01  3.377979E+03 -2.804195E+04  2.205780E+03 -1.978481E+03
       420   6  1.243859E+06 -4.496285E+01  2.551025E+03 -4.067831E+04  5.362957E+02 -5.580506E+03
       420   7  1.269075E+06  6.067092E+03  1.061433E+04 -4.048941E+04  5.028715E+02  1.620276E+03
       420   8  1.206400E+06 -9.143805E+03 -4.737373E+03 -2.794237E+04 -1.169231E+03 -1.979109E+03
       420   9  1.143975E+06 -2.430270E+04 -1.898610E+04 -4.066811E+04 -2.841021E+03 -5.581199E+03
       420  10  1.218645E+06 -6.128126E+03 -1.041370E+00 -4.086716E+04 -4.829105E-11 -1.381823E-10
       420  11  1.281074E+06  9.016171E+03  1.149323E+04 -2.814153E+04 -1.063018E-10 -2.036562E-11
       420  12  1.343753E+06  2.421209E+04  2.408752E+04 -4.068850E+04 -6.075242E-10 -6.290897E-11
       420  13  1.243860E+06 -3.049834E+01  5.306658E+03 -4.067829E+04  1.690474E-14  5.257111E-11
       420  14  1.243736E+06 -6.377351E+01  3.377963E+03 -2.804194E+04 -9.094053E-11 -1.344784E-10
       420  15  1.243859E+06 -4.499639E+01  2.550966E+03 -4.067831E+04  3.699822E-10  1.716128E-10
       420  16  1.269075E+06  6.067089E+03  1.061432E+04 -4.048941E+04  7.306710E-11  5.158625E-11
       420  17  1.206400E+06 -9.143810E+03 -4.737383E+03 -2.794237E+04 -4.476339E-10 -4.651484E-10
       420  18  1.143975E+06 -2.430274E+04 -1.898617E+04 -4.066812E+04  3.695787E-10  1.399026E-10
       420  19  1.218645E+06 -6.128109E+03 -9.379001E-01 -4.086715E+04 -7.247818E+03 -1.621371E+03
       420  20  1.281074E+06  9.016183E+03  1.149329E+04 -2.814153E+04 -5.580991E+03  1.977854E+03
       420  21  1.343753E+06  2.421213E+04  2.408760E+04 -4.068852E+04 -3.914148E+03  5.579814E+03
       420  22  1.243860E+06 -3.049150E+01  5.306691E+03 -4.067828E+04 -3.875412E+03 -1.620824E+03
       420  23  1.243737E+06 -6.376800E+01  3.377979E+03 -2.804195E+04 -2.205780E+03  1.978481E+03
       420  24  1.243859E+06 -4.496285E+01  2.551025E+03 -4.067831E+04 -5.362957E+02  5.580506E+03
       420  25  1.269075E+06  6.067092E+03  1.061433E+04 -4.048941E+04 -5.028715E+02 -1.620276E+03
       420  26  1.206400E+06 -9.143805E+03 -4.737373E+03 -2.794237E+04  1.169231E+03  1.979109E+03
       420  27  1.143975E+06 -2.430270E+04 -1.898610E+04 -4.066811E+04  2.841021E+03  5.581199E+03
       421   1  1.394124E+06  3.653022E+04  3.527823E+04 -4.067974E+04  3.465004E+03 -7.677853E+03
       421   2  1.456801E+06  5.173998E+04  4.910580E+04 -2.790299E+04  2.086935E+03 -1.128822E+04
       421   3  1.519707E+06  6.698219E+04  6.384511E+04 -4.049228E+04  7.096919E+02 -1.490448E+04
       421   4  1.243852E+06 -4.617125E+01  2.445171E+03 -4.069917E+04  8.287527E+01 -7.678695E+03
       421   5  1.243735E+06 -6.984590E+01  2.799398E+03 -2.801587E+04 -1.300485E+03 -1.128948E+04
       421   6  1.243844E+06 -5.986465E+01  4.069370E+03 -4.069916E+04 -2.682882E+03 -1.490615E+04
       421   7  1.093602E+06 -3.662406E+04 -3.038921E+04 -4.071861E+04 -3.298447E+03 -7.679538E+03
       421   8  1.030711E+06 -5.188267E+04 -4.350968E+04 -2.812872E+04 -4.686759E+03 -1.129074E+04
       421   9  9.680516E+05 -6.710694E+04 -5.571085E+04 -4.090594E+04 -6.073972E+03 -1.490781E+04
       421  10  1.394124E+06  3.653016E+04  3.527810E+04 -4.067972E+04 -6.533911E-10  7.937425E-11
       421  11  1.456801E+06  5.173984E+04  4.910555E+04 -2.790297E+04  9.844454E-10  8.688506E-10
       421  12  1.519707E+06  6.698196E+04  6.384469E+04 -4.049227E+04  5.323790E-10 -1.346100E-10
       421  13  1.243852E+06 -4.623460E+01  2.445060E+03 -4.069917E+04  8.981112E-10  7.621133E-10
       421  14  1.243735E+06 -6.998329E+01  2.799155E+03 -2.801588E+04  9.589337E-10  1.021948E-09
       421  15  1.243844E+06 -6.010532E+01  4.068939E+03 -4.069919E+04  5.399902E-12 -3.440238E-11
       421  16  1.093602E+06 -3.662413E+04 -3.038934E+04 -4.071863E+04  6.020884E-10  4.573111E-10
       421  17  1.030711E+06 -5.188281E+04 -4.350996E+04 -2.812876E+04 -8.648242E-10 -5.692454E-11
       421  18  9.680515E+05 -6.710719E+04 -5.571134E+04 -4.090601E+04 -6.676795E-10 -1.342551E-10
       421  19  1.394124E+06  3.653022E+04  3.527823E+04 -4.067974E+04 -3.465004E+03  7.677853E+03
       421  20  1.456801E+06  5.173998E+04  4.910580E+04 -2.790299E+04 -2.086935E+03  1.128822E+04
       421  21  1.519707E+06  6.698219E+04  6.384511E+04 -4.049228E+04 -7.096919E+02  1.490448E+04
       421  22  1.243852E+06 -4.617125E+01  2.445171E+03 -4.069917E+04 -8.287527E+01  7.678695E+03
       421  23  1.243735E+06 -6.984590E+01  2.799398E+03 -2.801587E+04  1.300485E+03  1.128948E+04
       421  24  1.243844E+06 -5.986465E+01  4.069370E+03 -4.069916E+04  2.682882E+03  1.490615E+04
       421  25  1.093602E+06 -3.662406E+04 -3.038921E+04 -4.071861E+04  3.298447E+03  7.679538E+03
       421  26  1.030711E+06 -5.188267E+04 -4.350968E+04 -2.812872E+04  4.686759E+03  1.129074E+04
       421  27  9.680516E+05 -6.710694E+04 -5.571085E+04 -4.090594E+04  6.073972E+03  1.490781E+04
       422   1  1.570535E+06  7.931719E+04  7.627564E+04 -4.038674E+04 -9.933387E+01 -1.701915E+04
       422   2  1.633476E+06  9.462148E+04  9.330403E+04 -2.752261E+04 -4.372725E+03 -2.064893E+04
       422   3  1.697241E+06  1.106373E+05  1.133066E+05 -4.025008E+04 -8.644754E+03 -2.425006E+04
       422   4  1.243968E+06 -1.211081E+02  5.134632E+03 -4.074927E+04 -3.513865E+03 -1.702119E+04
       422   5  1.243550E+06 -1.856307E+02  8.562978E+03 -2.795309E+04 -7.758126E+03 -2.065171E+04
       422   6  1.243950E+06  4.573132E+02  1.494720E+04 -4.074950E+04 -1.200060E+04 -2.425356E+04
       422   7  9.175008E+05 -7.956647E+04 -6.601273E+04 -4.111161E+04 -6.926626E+03 -1.702322E+04
       422   8  8.537672E+05 -9.500279E+04 -7.618712E+04 -2.838331E+04 -1.114143E+04 -2.065449E+04
       422   9  7.908516E+05 -1.097363E+05 -8.342444E+04 -4.124857E+04 -1.535403E+04 -2.425706E+04
       422  10  1.570535E+06  7.931688E+04  7.627509E+04 -4.038674E+04 -2.696400E-10  4.145163E-10
       422  11  1.633476E+06  9.462102E+04  9.330319E+04 -2.752268E+04 -2.984695E-10 -8.847162E-10
       422  12  1.697241E+06  1.106367E+05  1.133054E+05 -4.025025E+04  1.621704E-09 -5.115567E-11
       422  13  1.243968E+06 -1.214227E+02  5.134064E+03 -4.074931E+04  1.678995E-11  1.085267E-10
       422  14  1.243550E+06 -1.861050E+02  8.562063E+03 -2.795322E+04 -1.682386E-10 -1.840722E-11
       422  15  1.243950E+06  4.566425E+02  1.494582E+04 -4.074973E+04 -2.143908E-10 -5.781725E-10
       422  16  9.175007E+05 -7.956680E+04 -6.601337E+04 -4.111170E+04  2.620722E-10 -5.509918E-10
       422  17  8.537669E+05 -9.500328E+04 -7.618815E+04 -2.838350E+04 -1.552427E-09 -2.432138E-10
       422  18  7.908512E+05 -1.097369E+05 -8.342599E+04 -4.124887E+04 -1.128908E-09 -3.775193E-11
       422  19  1.570535E+06  7.931719E+04  7.627564E+04 -4.038674E+04  9.933387E+01  1.701915E+04
       422  20  1.633476E+06  9.462148E+04  9.330403E+04 -2.752261E+04  4.372725E+03  2.064893E+04
       422  21  1.697241E+06  1.106373E+05  1.133066E+05 -4.025008E+04  8.644754E+03  2.425006E+04
       422  22  1.243968E+06 -1.211081E+02  5.134632E+03 -4.074927E+04  3.513865E+03  1.702119E+04
       422  23  1.243550E+06 -1.856307E+02  8.562978E+03 -2.795309E+04  7.758126E+03  2.065171E+04
       422  24  1.243950E+06  4.573132E+02  1.494720E+04 -4.074950E+04  1.200060E+04  2.425356E+04
       422  25  9.175008E+05 -7.956647E+04 -6.601273E+04 -4.111161E+04  6.926626E+03  1.702322E+04
       422  26  8.537672E+05 -9.500279E+04 -7.618712E+04 -2.838331E+04  1.114143E+04  2.065449E+04
       422  27  7.908516E+05 -1.097363E+05 -8.342444E+04 -4.124857E+04  1.535403E+04  2.425706E+04
       423   1  1.749595E+06  1.218658E+05  1.292901E+05 -3.805017E+04 -1.138917E+04 -2.646733E+04
       423   2  1.810988E+06  1.378586E+05  1.574136E+05 -2.845179E+04 -2.917806E+04 -2.990942E+04
       423   3  1.878098E+06  1.667868E+05  2.003673E+05 -4.476112E+04 -4.696800E+04 -3.241545E+04
       423   4  1.244995E+06 -8.507845E+02  1.947752E+04 -4.081605E+04 -1.503535E+04 -2.647158E+04
       423   5  1.242193E+06 -4.503674E+02  3.367342E+04 -2.786813E+04 -3.193238E+04 -2.991407E+04
       423   6  1.244956E+06  1.273844E+04  6.209097E+04 -4.082903E+04 -4.882865E+04 -3.242028E+04
       423   7  7.406323E+05 -1.235842E+05 -9.035026E+04 -4.357968E+04 -1.867861E+04 -2.647581E+04
       423   8  6.737002E+05 -1.387807E+05 -9.008615E+04 -2.728509E+04 -3.468422E+04 -2.991873E+04
       423   9  6.121871E+05 -1.413365E+05 -7.620950E+04 -3.690108E+04 -5.068742E+04 -3.242513E+04
       423  10  1.749595E+06  1.218650E+05  1.292885E+05 -3.805041E+04  7.533817E-10 -4.000762E-10
       423  11  1.810987E+06  1.378574E+05  1.574104E+05 -2.845249E+04  1.865290E-09 -1.229226E-09
       423  12  1.878096E+06  1.667851E+05  2.003612E+05 -4.476234E+04  1.810104E-09 -1.836240E-09
       423  13  1.244994E+06 -8.515979E+02  1.947577E+04 -4.081637E+04  1.520238E-10 -4.457401E-10
       423  14  1.242192E+06 -4.516020E+02  3.366982E+04 -2.786890E+04  7.006392E-11 -1.392408E-09
       423  15  1.244953E+06  1.273668E+04  6.208452E+04 -4.083030E+04  1.113603E-10 -1.295334E-09
       423  16  7.406317E+05 -1.235850E+05 -9.035223E+04 -4.358008E+04 -3.854691E-10 -1.345071E-10
       423  17  6.736987E+05 -1.387820E+05 -9.009009E+04 -2.728592E+04 -1.639785E-09  1.660457E-09
       423  18  6.121841E+05 -1.413383E+05 -7.621630E+04 -3.690240E+04 -6.429188E-10 -5.129631E-10
       423  19  1.749595E+06  1.218658E+05  1.292901E+05 -3.805017E+04  1.138917E+04  2.646733E+04
       423  20  1.810988E+06  1.378586E+05  1.574136E+05 -2.845179E+04  2.917806E+04  2.990942E+04
       423  21  1.878098E+06  1.667868E+05  2.003673E+05 -4.476112E+04  4.696800E+04  3.241545E+04
       423  22  1.244995E+06 -8.507845E+02  1.947752E+04 -4.081605E+04  1.503535E+04  2.647158E+04
       423  23  1.242193E+06 -4.503674E+02  3.367342E+04 -2.786813E+04  3.193238E+04  2.991407E+04
       423  24  1.244956E+06  1.273844E+04  6.209097E+04 -4.082903E+04  4.882865E+04  3.242028E+04
       423  25  7.406323E+05 -1.235842E+05 -9.035026E+04 -4.357968E+04  1.867861E+04  2.647581E+04
       423  26  6.737002E+05 -1.387807E+05 -9.008615E+04 -2.728509E+04  3.468422E+04  2.991873E+04
       423  27  6.121871E+05 -1.413365E+05 -7.620950E+04 -3.690108E+04  5.068742E+04  3.242513E+04
       424   1  1.944280E+06  1.549372E+05  2.272318E+05 -5.168424E+03 -5.186955E+04 -3.637511E+04
       424   2  1.974930E+06  1.840472E+05  2.999021E+05 -6.881271E+04 -1.426683E+05 -3.443144E+04
       424   3  2.075901E+06  4.463496E+05  4.899214E+05 -1.582231E+05 -2.335178E+05 -1.117975E+04
       424   4  1.258601E+06 -1.185881E+04  7.823449E+04 -4.068771E+04 -5.988624E+04 -3.638510E+04
       424   5  1.225053E+06  1.242691E+03  1.336704E+05 -2.800815E+04 -1.306360E+05 -3.442598E+04
       424   6  1.258424E+06  2.441933E+05  2.926384E+05 -4.108290E+04 -2.014235E+05 -1.116960E+04
       424   7  5.733634E+05 -1.786812E+05 -7.079000E+04 -7.616749E+04 -6.789418E+04 -3.639417E+04
       424   8  4.757045E+05 -1.815933E+05 -3.259474E+04  1.274654E+04 -1.186179E+05 -3.441895E+04
       424   9  4.415879E+05  4.204075E+04  9.531900E+04  7.590283E+04 -1.693710E+05 -1.114738E+04
       424  10  1.944277E+06  1.549350E+05  2.272243E+05 -5.169942E+03  1.880008E-10 -2.739731E-09
       424  11  1.974907E+06  1.840405E+05  2.998617E+05 -6.881666E+04  8.924853E-11 -4.319100E-09
       424  12  2.075843E+06  4.463349E+05  4.898191E+05 -1.582252E+05 -7.576746E-10 -1.393684E-09
       424  13  1.258597E+06 -1.186119E+04  7.822528E+04 -4.068947E+04 -1.569522E-09 -6.618936E-09
       424  14  1.225035E+06  1.236848E+03  1.336361E+05 -2.801177E+04  1.785104E-09  2.850890E-09
       424  15  1.258380E+06  2.441823E+05  2.925621E+05 -4.108471E+04 -2.783612E-10 -3.455799E-10
       424  16  5.733581E+05 -1.786839E+05 -7.080115E+04 -7.616948E+04  7.120080E-11 -1.361814E-09
       424  17  4.756891E+05 -1.815983E+05 -3.262339E+04  1.274325E+04 -1.346031E-09  1.850601E-09
       424  18  4.415571E+05  4.203292E+04  9.526489E+04  7.590132E+04  1.649719E-09 -1.695878E-09
       424  19  1.944280E+06  1.549372E+05  2.272318E+05 -5.168424E+03  5.186955E+04  3.637511E+04
       424  20  1.974930E+06  1.840472E+05  2.999021E+05 -6.881271E+04  1.426683E+05  3.443144E+04
       424  21  2.075901E+06  4.463496E+05  4.899214E+05 -1.582231E+05  2.335178E+05  1.117975E+04
       424  22  1.258601E+06 -1.185881E+04  7.823449E+04 -4.068771E+04  5.988624E+04  3.638510E+04
       424  23  1.225053E+06  1.242691E+03  1.336704E+05 -2.800815E+04  1.306360E+05  3.442598E+04
       424  24  1.258424E+06  2.441933E+05  2.926384E+05 -4.108290E+04  2.014235E+05  1.116960E+04
       424  25  5.733634E+05 -1.786812E+05 -7.079000E+04 -7.616749E+04  6.789418E+04  3.639417E+04
       424  26  4.757045E+05 -1.815933E+05 -3.259474E+04  1.274654E+04  1.186179E+05  3.441895E+04
       424  27  4.415879E+05  4.204075E+04  9.531900E+04  7.590283E+04  1.693710E+05  1.114738E+04
       425   1  4.192430E+05  1.615108E+05  1.440582E+05  2.206240E+04  1.300527E+04 -1.268051E+04
       425   2  3.589091E+05  1.884192E+05  1.342396E+05  3.452302E+04 -2.840452E+03 -4.207184E+04
       425   3  2.922557E+05  1.816733E+05  1.263649E+05  6.207515E+04 -1.872519E+04 -4.930607E+04
       425   4 -4.717914E+05 -5.865823E+04 -6.655665E+04  5.568618E+04 -4.618422E+04 -1.280046E+04
       425   5 -4.657830E+05 -9.664201E+03 -3.183196E+04  4.807446E+04 -2.958472E+04 -4.213478E+04
       425   6 -4.717453E+05  1.576408E+01 -1.770569E+04  5.555595E+04 -1.302572E+04 -4.929754E+04
       425   7 -1.362086E+06 -2.788779E+05 -2.772126E+05  8.926109E+04 -1.052892E+05 -1.292691E+04
       425   8 -1.289825E+06 -2.077885E+05 -1.979356E+05  6.160721E+04 -5.629414E+04 -4.219893E+04
       425   9 -1.235182E+06 -1.816756E+05 -1.618018E+05  4.904461E+04 -7.333090E+03 -4.928912E+04
       425  10  4.192428E+05  1.615106E+05  1.440575E+05  2.206253E+04  3.184656E-09 -2.540240E-10
       425  11  3.589087E+05  1.884172E+05  1.342363E+05  3.452292E+04  1.535023E-09 -3.915861E-09
       425  12  2.922546E+05  1.816706E+05  1.263597E+05  6.207441E+04 -1.133292E-10 -4.142269E-09
       425  13 -4.717937E+05 -5.865898E+04 -6.656097E+04  5.568571E+04 -1.512417E-11  1.177280E-09
       425  14 -4.657844E+05 -9.666343E+03 -3.183694E+04  4.807346E+04 -1.192570E-09 -3.217104E-09
       425  15 -4.717461E+05  1.310945E+01 -1.771057E+04  5.555543E+04 -4.176941E-11 -8.046413E-10
       425  16 -1.362098E+06 -2.788811E+05 -2.772338E+05  8.925999E+04 -4.000155E-09  9.459615E-11
       425  17 -1.289829E+06 -2.077912E+05 -1.979449E+05  6.160529E+04 -7.055247E-10 -7.167214E-09
       425  18 -1.235183E+06 -1.816782E+05 -1.618065E+05  4.904432E+04 -1.584790E-09 -6.357525E-09
       425  19  4.192430E+05  1.615108E+05  1.440582E+05  2.206240E+04 -1.300527E+04  1.268051E+04
       425  20  3.589091E+05  1.884192E+05  1.342396E+05  3.452302E+04  2.840452E+03  4.207184E+04
       425  21  2.922557E+05  1.816733E+05  1.263649E+05  6.207515E+04  1.872519E+04  4.930607E+04
       425  22 -4.717914E+05 -5.865823E+04 -6.655665E+04  5.568618E+04  4.618422E+04  1.280046E+04
       425  23 -4.657830E+05 -9.664201E+03 -3.183196E+04  4.807446E+04  2.958472E+04  4.213478E+04
       425  24 -4.717453E+05  1.576408E+01 -1.770569E+04  5.555595E+04  1.302572E+04  4.929754E+04
       425  25 -1.362086E+06 -2.788779E+05 -2.772126E+05  8.926109E+04  1.052892E+05  1.292691E+04
       425  26 -1.289825E+06 -2.077885E+05 -1.979356E+05  6.160721E+04  5.629414E+04  4.219893E+04
       425  27 -1.235182E+06 -1.816756E+05 -1.618018E+05  4.904461E+04  7.333090E+03  4.928912E+04
       426   1  2.510903E+05  1.690708E+05  1.218076E+05  5.643377E+04 -1.260462E+04 -4.691445E+04
       426   2  1.879141E+05  1.556215E+05  1.140018E+05  4.877355E+04 -1.123040E+04 -4.480336E+04
       426   3  1.242033E+05  1.409063E+05  1.049772E+05  5.755671E+04 -9.862269E+03 -4.106762E+04
       426   4 -4.692853E+05 -2.102448E+03 -1.361921E+04  5.587878E+04 -1.069869E+04 -4.691438E+04
       426   5 -4.687956E+05 -4.574586E+01 -7.523759E+03  4.765334E+04 -6.948927E+03 -4.479633E+04
       426   6 -4.692569E+05  3.318409E+02 -4.298815E+03  5.587238E+04 -3.205073E+03 -4.105279E+04
       426   7 -1.189159E+06 -1.733058E+05 -1.490686E+05  5.532413E+04 -8.794900E+03 -4.691430E+04
       426   8 -1.125087E+06 -1.557377E+05 -1.290674E+05  4.653406E+04 -2.671857E+03 -4.478932E+04
       426   9 -1.062375E+06 -1.402627E+05 -1.135892E+05  5.418946E+04  3.445929E+03 -4.103800E+04
       426  10  2.510896E+05  1.690684E+05  1.218031E+05  5.643329E+04 -7.110604E-09 -5.322819E-09
       426  11  1.879135E+05  1.556193E+05  1.139978E+05  4.877315E+04 -3.362159E-09  1.587346E-09
       426  12  1.242028E+05  1.409045E+05  1.049738E+05  5.755638E+04 -1.671085E-09  1.651075E-09
       426  13 -4.692861E+05 -2.104842E+03 -1.362357E+04  5.587837E+04 -1.364076E-10 -2.848254E-09
       426  14 -4.687961E+05 -4.791320E+01 -7.527620E+03  4.765309E+04 -1.744488E-09  6.149300E-10
       426  15 -4.692574E+05  3.300288E+02 -4.302000E+03  5.587227E+04  4.864505E-10 -2.751254E-09
       426  16 -1.189160E+06 -1.733082E+05 -1.490729E+05  5.532380E+04  5.909723E-09  5.849773E-11
       426  17 -1.125088E+06 -1.557398E+05 -1.290711E+05  4.653397E+04  3.127253E-09  2.094020E-09
       426  18 -1.062376E+06 -1.402645E+05 -1.135924E+05  5.418957E+04 -9.969243E-10  1.139621E-09
       426  19  2.510903E+05  1.690708E+05  1.218076E+05  5.643377E+04  1.260462E+04  4.691445E+04
       426  20  1.879141E+05  1.556215E+05  1.140018E+05  4.877355E+04  1.123040E+04  4.480336E+04
       426  21  1.242033E+05  1.409063E+05  1.049772E+05  5.755671E+04  9.862269E+03  4.106762E+04
       426  22 -4.692853E+05 -2.102448E+03 -1.361921E+04  5.587878E+04  1.069869E+04  4.691438E+04
       426  23 -4.687956E+05 -4.574586E+01 -7.523759E+03  4.765334E+04  6.948927E+03  4.479633E+04
       426  24 -4.692569E+05  3.318409E+02 -4.298815E+03  5.587238E+04  3.205073E+03  4.105279E+04
       426  25 -1.189159E+06 -1.733058E+05 -1.490686E+05  5.532413E+04  8.794900E+03  4.691430E+04
       426  26 -1.125087E+06 -1.557377E+05 -1.290674E+05  4.653406E+04  2.671857E+03  4.478932E+04
       426  27 -1.062375E+06 -1.402627E+05 -1.135892E+05  5.418946E+04 -3.445929E+03  4.103800E+04
       427   1  8.148650E+04  1.305964E+05  9.781182E+04  5.722598E+04 -8.929680E+03 -3.841053E+04
       427   2  1.797569E+04  1.155727E+05  8.751707E+04  4.879266E+04 -8.189250E+03 -3.398818E+04
       427   3 -4.569935E+04  1.005979E+05  7.673042E+04  5.693981E+04 -7.451054E+03 -2.944372E+04
       427   4 -4.690801E+05  2.395873E+02 -3.272591E+03  5.590398E+04 -2.545335E+03 -3.839558E+04
       427   5 -4.689702E+05  2.772995E+02 -1.877249E+03  4.761325E+04 -1.627158E+03 -3.397146E+04
       427   6 -4.690596E+05  3.330206E+02 -1.097762E+03  5.590373E+04 -7.111403E+02 -2.942518E+04
       427   7 -1.019352E+06 -1.301344E+05 -1.043693E+05  5.458298E+04  3.833500E+03 -3.838064E+04
       427   8 -9.556857E+05 -1.150316E+05 -9.128113E+04  4.643461E+04  4.929925E+03 -3.395476E+04
       427   9 -8.922458E+05 -9.994204E+04 -7.893315E+04  5.486825E+04  6.024299E+03 -2.940667E+04
       427  10  8.148601E+04  1.305948E+05  9.780890E+04  5.722571E+04 -4.413251E-09  4.124087E-09
       427  11  1.797530E+04  1.155715E+05  8.751477E+04  4.879244E+04  6.785928E-10  3.082314E-09
       427  12 -4.569964E+04  1.005970E+05  7.672869E+04  5.693964E+04  3.903742E-09 -1.360361E-09
       427  13 -4.690805E+05  2.380028E+02 -3.275373E+03  5.590391E+04  7.205680E-11 -3.974367E-09
       427  14 -4.689705E+05  2.760598E+02 -1.879422E+03  4.761320E+04 -1.587328E-09  3.933035E-09
       427  15 -4.690598E+05  3.320909E+02 -1.099389E+03  5.590372E+04  3.582598E-10  5.575636E-09
       427  16 -1.019353E+06 -1.301360E+05 -1.043721E+05  5.458310E+04  3.407703E-09  2.885071E-09
       427  17 -9.556861E+05 -1.150328E+05 -9.128334E+04  4.643474E+04  2.151325E-11  4.981907E-09
       427  18 -8.922460E+05 -9.994298E+04 -7.893484E+04  5.486839E+04 -6.510085E-09  7.482035E-10
       427  19  8.148650E+04  1.305964E+05  9.781182E+04  5.722598E+04  8.929680E+03  3.841053E+04
       427  20  1.797569E+04  1.155727E+05  8.751707E+04  4.879266E+04  8.189250E+03  3.398818E+04
       427  21 -4.569935E+04  1.005979E+05  7.673042E+04  5.693981E+04  7.451054E+03  2.944372E+04
       427  22 -4.690801E+05  2.395873E+02 -3.272591E+03  5.590398E+04  2.545335E+03  3.839558E+04
       427  23 -4.689702E+05  2.772995E+02 -1.877249E+03  4.761325E+04  1.627158E+03  3.397146E+04
       427  24 -4.690596E+05  3.330206E+02 -1.097762E+03  5.590373E+04  7.111403E+02  2.942518E+04
       427  25 -1.019352E+06 -1.301344E+05 -1.043693E+05  5.458298E+04 -3.833500E+03  3.838064E+04
       427  26 -9.556857E+05 -1.150316E+05 -9.128113E+04  4.643461E+04 -4.929925E+03  3.395476E+04
       427  27 -8.922458E+05 -9.994204E+04 -7.893315E+04  5.486825E+04 -6.024299E+03  2.940667E+04
       428   1 -8.859689E+04  9.037907E+04  6.879975E+04  5.684026E+04 -7.265407E+03 -2.676250E+04
       428   2 -1.522462E+05  7.528596E+04  5.756169E+04  4.837559E+04 -7.025662E+03 -2.216378E+04
       428   3 -2.160091E+05  6.029434E+04  4.616293E+04  5.652845E+04 -6.787182E+03 -1.755428E+04
       428   4 -4.690354E+05  3.344595E+02 -8.527267E+02  5.591198E+04 -5.421791E+02 -2.674338E+04
       428   5 -4.689682E+05  2.962737E+02 -5.425745E+02  4.760295E+04 -2.871611E+02 -2.214377E+04
       428   6 -4.690222E+05  3.568198E+02 -4.041698E+02  5.591193E+04 -3.338422E+01 -1.753336E+04
       428   7 -8.493331E+05 -8.971834E+04 -7.051093E+04  5.498417E+04  6.177038E+03 -2.672427E+04
       428   8 -7.855926E+05 -7.469909E+04 -5.865078E+04  4.683063E+04  6.447992E+03 -2.212377E+04
       428   9 -7.219730E+05 -5.958432E+04 -4.697374E+04  5.529563E+04  6.717733E+03 -1.751246E+04
       428  10 -8.859714E+04  9.037829E+04  6.879831E+04  5.684010E+04  1.826928E-09 -7.376878E-10
       428  11 -1.522464E+05  7.528542E+04  5.756068E+04  4.837546E+04 -1.566378E-09  8.266650E-09
       428  12 -2.160092E+05  6.029399E+04  4.616227E+04  5.652835E+04 -5.317556E-09  6.635907E-09
       428  13 -4.690356E+05  3.336916E+02 -8.540710E+02  5.591196E+04  1.991958E-11  3.797640E-10
       428  14 -4.689683E+05  2.957473E+02 -5.434959E+02  4.760294E+04 -2.593011E-09  6.857663E-09
       428  15 -4.690222E+05  3.564897E+02 -4.047473E+02  5.591193E+04 -6.796231E-11  2.014090E-09
       428  16 -8.493334E+05 -8.971911E+04 -7.051234E+04  5.498430E+04 -2.516007E-09 -4.248472E-10
       428  17 -7.855928E+05 -7.469963E+04 -5.865177E+04  4.683075E+04  1.369709E-09  6.950323E-10
       428  18 -7.219731E+05 -5.958466E+04 -4.697441E+04  5.529572E+04  2.477940E-09  1.469225E-09
       428  19 -8.859689E+04  9.037907E+04  6.879975E+04  5.684026E+04  7.265407E+03  2.676250E+04
       428  20 -1.522462E+05  7.528596E+04  5.756169E+04  4.837559E+04  7.025662E+03  2.216378E+04
       428  21 -2.160091E+05  6.029434E+04  4.616293E+04  5.652845E+04  6.787182E+03  1.755428E+04
       428  22 -4.690354E+05  3.344595E+02 -8.527267E+02  5.591198E+04  5.421791E+02  2.674338E+04
       428  23 -4.689682E+05  2.962737E+02 -5.425745E+02  4.760295E+04  2.871611E+02  2.214377E+04
       428  24 -4.690222E+05  3.568198E+02 -4.041698E+02  5.591193E+04  3.338422E+01  1.753336E+04
       428  25 -8.493331E+05 -8.971834E+04 -7.051093E+04  5.498417E+04 -6.177038E+03  2.672427E+04
       428  26 -7.855926E+05 -7.469909E+04 -5.865078E+04  4.683063E+04 -6.447992E+03  2.212377E+04
       428  27 -7.219730E+05 -5.958432E+04 -4.697374E+04  5.529563E+04 -6.717733E+03  1.751246E+04
       429   1 -2.589831E+05  5.006371E+04  3.799518E+04  5.642747E+04 -6.725001E+03 -1.486771E+04
       429   2 -3.226878E+05  3.495382E+04  2.639295E+04  4.793714E+04 -6.519070E+03 -1.025271E+04
       429   3 -3.865200E+05  1.994469E+04  1.464676E+04  5.608566E+04 -6.313706E+03 -5.640261E+03
       429   4 -4.690201E+05  3.612031E+02 -3.857259E+02  5.591661E+04  2.999982E+01 -1.484643E+04
       429   5 -4.689521E+05  3.206224E+02 -4.377551E+02  4.759705E+04  2.318809E+02 -1.023105E+04
       429   6 -4.690141E+05  3.819352E+02 -6.307418E+02  5.591656E+04  4.332155E+02 -5.618215E+03
       429   7 -6.790142E+05 -4.934378E+04 -3.876825E+04  5.540590E+04  6.782776E+03 -1.482514E+04
       429   8 -6.151956E+05 -3.431376E+04 -2.726916E+04  4.725703E+04  6.981282E+03 -1.020939E+04
       429   9 -5.515014E+05 -1.918119E+04 -1.590836E+04  5.574748E+04  7.179263E+03 -5.596171E+03
       429  10 -2.589832E+05  5.006346E+04  3.799468E+04  5.642738E+04  9.744530E-09  1.989596E-09
       429  11 -3.226878E+05  3.495369E+04  2.639267E+04  4.793709E+04  1.187754E-09  5.814625E-10
       429  12 -3.865201E+05  1.994465E+04  1.464663E+04  5.608564E+04 -9.716412E-09 -1.253908E-09
       429  13 -4.690202E+05  3.609665E+02 -3.861401E+02  5.591661E+04 -5.139403E-10  8.962485E-09
       429  14 -4.689522E+05  3.205100E+02 -4.379519E+02  4.759705E+04 -1.796441E-09  1.900230E-09
       429  15 -4.690141E+05  3.819012E+02 -6.308015E+02  5.591657E+04  4.443189E-10 -2.110365E-09
       429  16 -6.790143E+05 -4.934403E+04 -3.876875E+04  5.540598E+04 -1.087632E-08  5.500270E-09
       429  17 -6.151957E+05 -3.431389E+04 -2.726945E+04  4.725709E+04 -6.042158E-10 -1.328261E-09
       429  18 -5.515015E+05 -1.918124E+04 -1.590852E+04  5.574751E+04  7.244971E-09 -1.356200E-09
       429  19 -2.589831E+05  5.006371E+04  3.799518E+04  5.642747E+04  6.725001E+03  1.486771E+04
       429  20 -3.226878E+05  3.495382E+04  2.639295E+04  4.793714E+04  6.519070E+03  1.025271E+04
       429  21 -3.865200E+05  1.994469E+04  1.464676E+04  5.608566E+04  6.313706E+03  5.640261E+03
       429  22 -4.690201E+05  3.612031E+02 -3.857259E+02  5.591661E+04 -2.999982E+01  1.484643E+04
       429  23 -4.689521E+05  3.206224E+02 -4.377551E+02  4.759705E+04 -2.318809E+02  1.023105E+04
       429  24 -4.690141E+05  3.819352E+02 -6.307418E+02  5.591656E+04 -4.332155E+02  5.618215E+03
       429  25 -6.790142E+05 -4.934378E+04 -3.876825E+04  5.540590E+04 -6.782776E+03  1.482514E+04
       429  26 -6.151956E+05 -3.431376E+04 -2.726916E+04  4.725703E+04 -6.981282E+03  1.020939E+04
       429  27 -5.515014E+05 -1.918119E+04 -1.590836E+04  5.574748E+04 -7.179263E+03  5.596171E+03
       430   1 -4.295352E+05  9.707484E+03  6.288781E+03  5.596238E+04 -6.203715E+03 -2.952027E+03
       430   2 -4.932078E+05 -5.411272E+03 -5.822986E+03  4.745437E+04 -5.475001E+03  1.639200E+03
       430   3 -5.570966E+05 -2.049699E+04 -1.843735E+04  5.558607E+04 -4.746085E+03  6.171751E+03
       430   4 -4.690298E+05  3.876844E+02 -7.957391E+02  5.591664E+04  5.534770E+02 -2.929850E+03
       430   5 -4.689278E+05  3.470746E+02 -1.328959E+03  4.759687E+04  1.196046E+03  1.661026E+03
       430   6 -4.690310E+05  3.546594E+02 -2.304936E+03  5.591676E+04  1.838890E+03  6.193235E+03
       430   7 -5.085227E+05 -8.932177E+03 -7.880147E+03  5.587091E+04  7.310251E+03 -2.907674E+03
       430   8 -4.446471E+05  6.105412E+03  3.165211E+03  4.773938E+04  7.867348E+03  1.682854E+03
       430   9 -3.809577E+05  2.120589E+04  1.382733E+04  5.624750E+04  8.424774E+03  6.214725E+03
       430  10 -4.295352E+05  9.707464E+03  6.288692E+03  5.596236E+04  2.087243E-09  3.456662E-09
       430  11 -4.932078E+05 -5.411283E+03 -5.823047E+03  4.745437E+04 -1.176689E-08  8.832059E-10
       430  12 -5.570966E+05 -2.049704E+04 -1.843747E+04  5.558610E+04 -2.767495E-08 -1.634177E-09
       430  13 -4.690298E+05  3.876751E+02 -7.957558E+02  5.591664E+04  1.530224E-12  1.698749E-09
       430  14 -4.689278E+05  3.470712E+02 -1.328967E+03  4.759687E+04 -2.050813E-09 -7.784541E-10
       430  15 -4.690310E+05  3.546173E+02 -2.305014E+03  5.591675E+04  8.642935E-11 -4.664781E-10
       430  16 -5.085228E+05 -8.932201E+03 -7.880264E+03  5.587092E+04 -2.844731E-09  4.354824E-09
       430  17 -4.446472E+05  6.105392E+03  3.165089E+03  4.773937E+04  1.310292E-08 -9.134904E-09
       430  18 -3.809578E+05  2.120583E+04  1.382712E+04  5.624746E+04  2.468150E-08 -3.362338E-09
       430  19 -4.295352E+05  9.707484E+03  6.288781E+03  5.596238E+04  6.203715E+03  2.952027E+03
       430  20 -4.932078E+05 -5.411272E+03 -5.822986E+03  4.745437E+04  5.475001E+03 -1.639200E+03
       430  21 -5.570966E+05 -2.049699E+04 -1.843735E+04  5.558607E+04  4.746085E+03 -6.171751E+03
       430  22 -4.690298E+05  3.876844E+02 -7.957391E+02  5.591664E+04 -5.534770E+02  2.929850E+03
       430  23 -4.689278E+05  3.470746E+02 -1.328959E+03  4.759687E+04 -1.196046E+03 -1.661026E+03
       430  24 -4.690310E+05  3.546594E+02 -2.304936E+03  5.591676E+04 -1.838890E+03 -6.193235E+03
       430  25 -5.085227E+05 -8.932177E+03 -7.880147E+03  5.587091E+04 -7.310251E+03  2.907674E+03
       430  26 -4.446471E+05  6.105412E+03  3.165211E+03  4.773938E+04 -7.867348E+03 -1.682854E+03
       430  27 -3.809577E+05  2.120589E+04  1.382733E+04  5.624750E+04 -8.424774E+03 -6.214725E+03
       431   1 -6.002381E+05 -3.067960E+04 -2.736667E+04  5.525607E+04 -4.422122E+03  8.850919E+03
       431   2 -6.635128E+05 -4.607156E+04 -4.155091E+04  4.725151E+04 -6.274500E+02  1.305601E+04
       431   3 -7.277395E+05 -6.281066E+04 -5.857774E+04  5.583303E+04  3.169912E+03  1.645825E+04
       431   4 -4.691545E+05  4.253340E+02 -3.024645E+03  5.590373E+04  2.298935E+03  8.872674E+03
       431   5 -4.687828E+05  1.543835E+02 -5.282284E+03  4.761355E+04  4.919643E+03  1.307349E+04
       431   6 -4.691636E+05 -1.259458E+03 -9.566337E+03  5.590915E+04  7.543434E+03  1.647157E+04
       431   7 -3.380541E+05  3.152931E+04  2.131682E+04  5.655152E+04  9.021376E+03  8.894440E+03
       431   8 -2.740159E+05  4.637816E+04  3.098485E+04  4.797567E+04  1.046843E+04  1.309097E+04
       431   9 -2.105230E+05  6.028784E+04  3.944216E+04  5.598526E+04  1.191873E+04  1.648490E+04
       431  10 -6.002382E+05 -3.067969E+04 -2.736685E+04  5.525610E+04 -1.837472E-08  3.756156E-09
       431  11 -6.635129E+05 -4.607174E+04 -4.155124E+04  4.725152E+04  1.911748E-08  1.301102E-09
       431  12 -7.277396E+05 -6.281095E+04 -5.857827E+04  5.583299E+04  4.998283E-08  5.905258E-09
       431  13 -4.691545E+05  4.252481E+02 -3.024803E+03  5.590371E+04 -1.863907E-10  2.638611E-09
       431  14 -4.687828E+05  1.541935E+02 -5.282650E+03  4.761350E+04 -1.804487E-09  3.590569E-09
       431  15 -4.691637E+05 -1.259765E+03 -9.566953E+03  5.590905E+04  4.243150E-10  4.262903E-11
       431  16 -3.380542E+05  3.152920E+04  2.131652E+04  5.655145E+04  1.693106E-08 -5.454465E-10
       431  17 -2.740161E+05  4.637795E+04  3.098432E+04  4.797556E+04 -1.835672E-08  9.628206E-11
       431  18 -2.105232E+05  6.028751E+04  3.944139E+04  5.598510E+04 -5.296687E-08 -9.910889E-09
       431  19 -6.002381E+05 -3.067960E+04 -2.736667E+04  5.525607E+04  4.422122E+03 -8.850919E+03
       431  20 -6.635128E+05 -4.607156E+04 -4.155091E+04  4.725151E+04  6.274500E+02 -1.305601E+04
       431  21 -7.277395E+05 -6.281066E+04 -5.857774E+04  5.583303E+04 -3.169912E+03 -1.645825E+04
       431  22 -4.691545E+05  4.253340E+02 -3.024645E+03  5.590373E+04 -2.298935E+03 -8.872674E+03
       431  23 -4.687828E+05  1.543835E+02 -5.282284E+03  4.761355E+04 -4.919643E+03 -1.307349E+04
       431  24 -4.691636E+05 -1.259458E+03 -9.566337E+03  5.590915E+04 -7.543434E+03 -1.647157E+04
       431  25 -3.380541E+05  3.152931E+04  2.131682E+04  5.655152E+04 -9.021376E+03 -8.894440E+03
       431  26 -2.740159E+05  4.637816E+04  3.098485E+04  4.797567E+04 -1.046843E+04 -1.309097E+04
       431  27 -2.105230E+05  6.028784E+04  3.944216E+04  5.598526E+04 -1.191873E+04 -1.648490E+04
       432   1 -7.728526E+05 -7.171998E+04 -6.988738E+04  5.140495E+04  2.925284E+03  1.900001E+04
       432   2 -8.310423E+05 -9.428416E+04 -9.655896E+04  5.746413E+04  3.057352E+04  1.787293E+04
       432   3 -9.005377E+05 -1.472535E+05 -1.488655E+05  7.947698E+04  5.825039E+04  5.779063E+03
       432   4 -4.708925E+05  2.350674E+02 -1.243713E+04  5.574669E+04  9.173721E+03  1.901891E+04
       432   5 -4.666469E+05 -6.582943E+03 -2.235231E+04  4.783233E+04  2.078811E+04  1.784163E+04
       432   6 -4.709171E+05 -4.101048E+04 -4.675275E+04  5.587259E+04  3.243423E+04  5.699248E+03
       432   7 -1.688443E+05  7.218484E+04  4.500919E+04  6.009053E+04  1.542513E+04  1.903788E+04
       432   8 -1.021246E+05  8.111041E+04  5.184780E+04  3.819467E+04  1.099705E+04  1.781064E+04
       432   9 -4.112415E+04  6.522174E+04  5.534993E+04  3.225164E+04  6.600274E+03  5.621428E+03
       432  10 -7.728527E+05 -7.172037E+04 -6.988807E+04  5.140490E+04 -2.467082E-08  4.180935E-09
       432  11 -8.310434E+05 -9.428476E+04 -9.656132E+04  5.746369E+04 -9.838216E-09 -4.365498E-10
       432  12 -9.005413E+05 -1.472544E+05 -1.488719E+05  7.947671E+04  4.176374E-09  1.136012E-10
       432  13 -4.708927E+05  2.346564E+02 -1.243796E+04  5.574655E+04 -1.588935E-10  5.359928E-09
       432  14 -4.666474E+05 -6.583401E+03 -2.235372E+04  4.783203E+04 -1.190618E-09 -4.203857E-09
       432  15 -4.709182E+05 -4.101080E+04 -4.675478E+04  5.587245E+04  5.210600E-11  6.316304E-09
       432  16 -1.688447E+05  7.218439E+04  4.500806E+04  6.009030E+04  2.362376E-08 -1.056066E-09
       432  17 -1.021248E+05  8.111003E+04  5.184698E+04  3.819451E+04  1.091469E-08 -1.180416E-09
       432  18 -4.112420E+04  6.522169E+04  5.534979E+04  3.225161E+04 -6.796864E-09 -3.095431E-09
       432  19 -7.728526E+05 -7.171998E+04 -6.988738E+04  5.140495E+04 -2.925284E+03 -1.900001E+04
       432  20 -8.310423E+05 -9.428416E+04 -9.655896E+04  5.746413E+04 -3.057352E+04 -1.787293E+04
       432  21 -9.005377E+05 -1.472535E+05 -1.488655E+05  7.947698E+04 -5.825039E+04 -5.779063E+03
       432  22 -4.708925E+05  2.350674E+02 -1.243713E+04  5.574669E+04 -9.173721E+03 -1.901891E+04
       432  23 -4.666469E+05 -6.582943E+03 -2.235231E+04  4.783233E+04 -2.078811E+04 -1.784163E+04
       432  24 -4.709171E+05 -4.101048E+04 -4.675275E+04  5.587259E+04 -3.243423E+04 -5.699248E+03
       432  25 -1.688443E+05  7.218484E+04  4.500919E+04  6.009053E+04 -1.542513E+04 -1.903788E+04
       432  26 -1.021246E+05  8.111041E+04  5.184780E+04  3.819467E+04 -1.099705E+04 -1.781064E+04
       432  27 -4.112415E+04  6.522174E+04  5.534993E+04  3.225164E+04 -6.600274E+03 -5.621428E+03
       433   1 -8.346480E+04  5.682846E+04  4.704514E+04  2.400003E+03 -1.586777E+04 -5.053378E+03
       433   2 -1.112715E+05  8.430240E+04  5.644532E+04  7.658250E+03 -1.436230E+04 -1.584674E+04
       433   3 -1.476406E+05  7.850507E+04  5.655883E+04  2.543725E+04 -1.288597E+04 -1.670668E+04
       433   4 -4.619638E+05 -3.708620E+04 -4.453039E+04  1.950762E+04 -3.060889E+04 -5.097422E+03
       433   5 -4.568646E+05 -1.509174E+02 -2.034072E+04  1.318791E+04 -1.981161E+04 -1.586414E+04
       433   6 -4.619484E+05  1.888699E+03 -1.189777E+04  1.938970E+04 -9.043225E+03 -1.669502E+04
       433   7 -8.403307E+05 -1.310101E+05 -1.361152E+05  3.660468E+04 -4.534104E+04 -5.142292E+03
       433   8 -8.023461E+05 -8.461218E+04 -9.713408E+04  1.871437E+04 -2.525793E+04 -1.588165E+04
       433   9 -7.761634E+05 -7.473411E+04 -8.036022E+04  1.334518E+04 -5.202405E+03 -1.668343E+04
       433  10 -8.346508E+04  5.682837E+04  4.704462E+04  2.399938E+03 -6.877799E-09  1.521711E-10
       433  11 -1.112718E+05  8.430208E+04  5.644446E+04  7.658067E+03  3.112871E-09  8.060246E-09
       433  12 -1.476408E+05  7.850473E+04  5.655799E+04  2.543708E+04  7.592175E-09  1.347090E-09
       433  13 -4.619648E+05 -3.708648E+04 -4.453220E+04  1.950750E+04  3.175898E-10 -5.261756E-09
       433  14 -4.568651E+05 -1.512931E+02 -2.034194E+04  1.318765E+04  1.563446E-09 -5.824341E-09
       433  15 -4.619485E+05  1.888378E+03 -1.189844E+04  1.938958E+04 -2.862771E-10  2.574077E-09
       433  16 -8.403329E+05 -1.310107E+05 -1.361191E+05  3.660449E+04  6.744990E-09  2.913716E-09
       433  17 -8.023468E+05 -8.461262E+04 -9.713575E+04  1.871404E+04 -5.185271E-09  8.246152E-09
       433  18 -7.761635E+05 -7.473442E+04 -8.036080E+04  1.334511E+04 -5.603407E-09  1.289731E-09
       433  19 -8.346480E+04  5.682846E+04  4.704514E+04  2.400003E+03  1.586777E+04  5.053378E+03
       433  20 -1.112715E+05  8.430240E+04  5.644532E+04  7.658250E+03  1.436230E+04  1.584674E+04
       433  21 -1.476406E+05  7.850507E+04  5.655883E+04  2.543725E+04  1.288597E+04  1.670668E+04
       433  22 -4.619638E+05 -3.708620E+04 -4.453039E+04  1.950762E+04  3.060889E+04  5.097422E+03
       433  23 -4.568646E+05 -1.509174E+02 -2.034072E+04  1.318791E+04  1.981161E+04  1.586414E+04
       433  24 -4.619484E+05  1.888699E+03 -1.189777E+04  1.938970E+04  9.043225E+03  1.669502E+04
       433  25 -8.403307E+05 -1.310101E+05 -1.361152E+05  3.660468E+04  4.534104E+04  5.142292E+03
       433  26 -8.023461E+05 -8.461218E+04 -9.713408E+04  1.871437E+04  2.525793E+04  1.588165E+04
       433  27 -7.761634E+05 -7.473411E+04 -8.036022E+04  1.334518E+04  5.202405E+03  1.668343E+04
       434   1 -1.715747E+05  6.844720E+04  5.366076E+04  1.954221E+04 -8.361452E+03 -1.478918E+04
       434   2 -2.033024E+05  6.254276E+04  5.071771E+04  1.351782E+04 -6.214724E+03 -1.350042E+04
       434   3 -2.358406E+05  5.484700E+04  4.591026E+04  2.046687E+04 -4.070128E+03 -1.176146E+04
       434   4 -4.598803E+05 -1.851998E+03 -9.444356E+03  1.952413E+04 -7.370228E+03 -1.478650E+04
       434   5 -4.594346E+05  1.281580E+02 -5.124610E+03  1.303378E+04 -4.803303E+03 -1.349617E+04
       434   6 -4.598744E+05  2.434183E+02 -2.961996E+03  1.951724E+04 -2.238407E+03 -1.175555E+04
       434   7 -7.481081E+05 -7.215675E+04 -7.255450E+04  1.950599E+04 -6.379457E+03 -1.478381E+04
       434   8 -7.155053E+05 -6.229081E+04 -6.097087E+04  1.254989E+04 -3.392456E+03 -1.349192E+04
       434   9 -6.838611E+05 -5.436350E+04 -5.183726E+04  1.856791E+04 -4.073391E+02 -1.174965E+04
       434  10 -1.715749E+05  6.844695E+04  5.366022E+04  1.954211E+04  1.684375E-08 -2.224988E-09
       434  11 -2.033024E+05  6.254256E+04  5.071729E+04  1.351775E+04  3.753186E-09  9.191515E-09
       434  12 -2.358407E+05  5.484684E+04  4.590997E+04  2.046683E+04 -1.266198E-08  9.617393E-09
       434  13 -4.598805E+05 -1.852247E+03 -9.444869E+03  1.952404E+04 -2.744094E-10  1.297738E-08
       434  14 -4.594347E+05  1.279563E+02 -5.124995E+03  1.303373E+04  2.041268E-09 -2.014677E-08
       434  15 -4.598744E+05  2.432686E+02 -2.962266E+03  1.951721E+04 -4.682033E-10  1.196208E-08
       434  16 -7.481082E+05 -7.215699E+04 -7.255499E+04  1.950592E+04 -1.598480E-08 -5.729655E-09
       434  17 -7.155054E+05 -6.229101E+04 -6.097123E+04  1.254986E+04 -5.019089E-09 -7.735399E-10
       434  18 -6.838611E+05 -5.436365E+04 -5.183752E+04  1.856791E+04  1.419550E-08  1.734677E-09
       434  19 -1.715747E+05  6.844720E+04  5.366076E+04  1.954221E+04  8.361452E+03  1.478918E+04
       434  20 -2.033024E+05  6.254276E+04  5.071771E+04  1.351782E+04  6.214724E+03  1.350042E+04
       434  21 -2.358406E+05  5.484700E+04  4.591026E+04  2.046687E+04  4.070128E+03  1.176146E+04
       434  22 -4.598803E+05 -1.851998E+03 -9.444356E+03  1.952413E+04  7.370228E+03  1.478650E+04
       434  23 -4.594346E+05  1.281580E+02 -5.124610E+03  1.303378E+04  4.803303E+03  1.349617E+04
       434  24 -4.598744E+05  2.434183E+02 -2.961996E+03  1.951724E+04  2.238407E+03  1.175555E+04
       434  25 -7.481081E+05 -7.215675E+04 -7.255450E+04  1.950599E+04  6.379457E+03  1.478381E+04
       434  26 -7.155053E+05 -6.229081E+04 -6.097087E+04  1.254989E+04  3.392456E+03  1.349192E+04
       434  27 -6.838611E+05 -5.436350E+04 -5.183726E+04  1.856791E+04  4.073391E+02  1.174965E+04
       435   1 -2.616313E+05  4.829417E+04  4.078841E+04  2.008789E+04 -3.486520E+03 -1.064159E+04
       435   2 -2.938038E+05  4.051065E+04  3.480122E+04  1.348405E+04 -2.863822E+03 -8.805779E+03
       435   3 -3.261653E+05  3.271003E+04  2.837962E+04  1.993179E+04 -2.241606E+03 -6.947651E+03
       435   4 -4.597181E+05  4.583988E+01 -2.276065E+03  1.953658E+04 -1.780830E+03 -1.063599E+04
       435   5 -4.596198E+05  1.092082E+02 -1.310557E+03  1.301050E+04 -1.137467E+03 -8.799943E+03
       435   6 -4.597147E+05  1.520462E+02 -7.937688E+02  1.953621E+04 -4.945555E+02 -6.941576E+03
       435   7 -6.577681E+05 -4.820509E+04 -4.534288E+04  1.898542E+04 -7.567642E+01 -1.063039E+04
       435   8 -6.254101E+05 -4.029405E+04 -3.742397E+04  1.253705E+04  5.884318E+02 -8.794109E+03
       435   9 -5.932474E+05 -3.240713E+04 -2.996822E+04  1.914070E+04  1.252124E+03 -6.935502E+03
       435  10 -2.616313E+05  4.829405E+04  4.078817E+04  2.008786E+04  3.577170E-09 -5.440201E-09
       435  11 -2.938039E+05  4.051056E+04  3.480105E+04  1.348403E+04  3.054121E-09 -4.995138E-09
       435  12 -3.261654E+05  3.270998E+04  2.837952E+04  1.993178E+04 -2.467155E-09 -2.913918E-09
       435  13 -4.597181E+05  4.571758E+01 -2.276283E+03  1.953657E+04  5.086099E-11 -2.278014E-09
       435  14 -4.596199E+05  1.091247E+02 -1.310705E+03  1.301049E+04  1.273170E-09 -3.848277E-09
       435  15 -4.597147E+05  1.519944E+02 -7.938598E+02  1.953621E+04  1.415502E-10 -1.875428E-09
       435  16 -6.577681E+05 -4.820521E+04 -4.534309E+04  1.898542E+04 -3.131741E-09 -4.400312E-09
       435  17 -6.254101E+05 -4.029414E+04 -3.742411E+04  1.253706E+04 -4.755080E-09  4.758247E-09
       435  18 -5.932474E+05 -3.240718E+04 -2.996831E+04  1.914070E+04  4.534745E-09  1.301695E-08
       435  19 -2.616313E+05  4.829417E+04  4.078841E+04  2.008789E+04  3.486520E+03  1.064159E+04
       435  20 -2.938038E+05  4.051065E+04  3.480122E+04  1.348405E+04  2.863822E+03  8.805779E+03
       435  21 -3.261653E+05  3.271003E+04  2.837962E+04  1.993179E+04  2.241606E+03  6.947651E+03
       435  22 -4.597181E+05  4.583988E+01 -2.276065E+03  1.953658E+04  1.780830E+03  1.063599E+04
       435  23 -4.596198E+05  1.092082E+02 -1.310557E+03  1.301050E+04  1.137467E+03  8.799943E+03
       435  24 -4.597147E+05  1.520462E+02 -7.937688E+02  1.953621E+04  4.945555E+02  6.941576E+03
       435  25 -6.577681E+05 -4.820509E+04 -4.534288E+04  1.898542E+04  7.567642E+01  1.063039E+04
       435  26 -6.254101E+05 -4.029405E+04 -3.742397E+04  1.253705E+04 -5.884318E+02  8.794109E+03
       435  27 -5.932474E+05 -3.240713E+04 -2.996822E+04  1.914070E+04 -1.252124E+03  6.935502E+03
       436   1 -3.521757E+05  2.632424E+04  2.268805E+04  1.985061E+04 -2.111885E+03 -5.861007E+03
       436   2 -3.844627E+05  1.842162E+04  1.591034E+04  1.321149E+04 -1.892488E+03 -3.996677E+03
       436   3 -4.168711E+05  1.060395E+04  8.983817E+03  1.965690E+04 -1.673284E+03 -2.130477E+03
       436   4 -4.596976E+05  1.436040E+02 -6.378971E+02  1.954362E+04 -3.692173E+02 -5.854873E+03
       436   5 -4.596356E+05  1.048773E+02 -4.605681E+02  1.300129E+04 -1.481445E+02 -3.990463E+03
       436   6 -4.596962E+05  1.508791E+02 -4.332155E+02  1.954359E+04  7.274645E+01 -2.124180E+03
       436   7 -5.672087E+05 -2.603779E+04 -2.396452E+04  1.923667E+04  1.373153E+03 -5.848740E+03
       436   8 -5.348031E+05 -1.821223E+04 -1.683181E+04  1.279112E+04  1.595990E+03 -3.984251E+03
       436   9 -5.025195E+05 -1.030232E+04 -9.850349E+03  1.943029E+04  1.818658E+03 -2.117884E+03
       436  10 -3.521757E+05  2.632420E+04  2.268797E+04  1.985060E+04  2.161640E-09 -1.094451E-08
       436  11 -3.844628E+05  1.842160E+04  1.591031E+04  1.321148E+04  8.022550E-09  2.506833E-09
       436  12 -4.168711E+05  1.060395E+04  8.983803E+03  1.965690E+04  8.764220E-09  5.095747E-09
       436  13 -4.596976E+05  1.435671E+02 -6.379617E+02  1.954362E+04  6.560588E-11  3.107621E-09
       436  14 -4.596356E+05  1.048602E+02 -4.605980E+02  1.300129E+04  1.266334E-09 -1.150276E-08
       436  15 -4.596962E+05  1.508742E+02 -4.332240E+02  1.954359E+04  5.765340E-11 -4.942394E-09
       436  16 -5.672087E+05 -2.603783E+04 -2.396458E+04  1.923668E+04 -1.833833E-09  7.869803E-09
       436  17 -5.348031E+05 -1.821225E+04 -1.683184E+04  1.279112E+04 -1.034716E-08  8.427394E-09
       436  18 -5.025195E+05 -1.030232E+04 -9.850364E+03  1.943029E+04 -6.894791E-09 -1.441009E-09
       436  19 -3.521757E+05  2.632424E+04  2.268805E+04  1.985061E+04  2.111885E+03  5.861007E+03
       436  20 -3.844627E+05  1.842162E+04  1.591034E+04  1.321149E+04  1.892488E+03  3.996677E+03
       436  21 -4.168711E+05  1.060395E+04  8.983817E+03  1.965690E+04  1.673284E+03  2.130477E+03
       436  22 -4.596976E+05  1.436040E+02 -6.378971E+02  1.954362E+04  3.692173E+02  5.854873E+03
       436  23 -4.596356E+05  1.048773E+02 -4.605681E+02  1.300129E+04  1.481445E+02  3.990463E+03
       436  24 -4.596962E+05  1.508791E+02 -4.332155E+02  1.954359E+04 -7.274645E+01  2.124180E+03
       436  25 -5.672087E+05 -2.603779E+04 -2.396452E+04  1.923667E+04 -1.373153E+03  5.848740E+03
       436  26 -5.348031E+05 -1.821223E+04 -1.683181E+04  1.279112E+04 -1.595990E+03  3.984251E+03
       436  27 -5.025195E+05 -1.030232E+04 -9.850349E+03  1.943029E+04 -1.818658E+03  2.117884E+03
       437   1 -4.429405E+05  4.216465E+03  3.089490E+03  1.958332E+04 -1.595655E+03 -1.043765E+03
       437   2 -4.752375E+05 -3.693646E+03 -4.056950E+03  1.293391E+04 -1.276397E+03  8.236888E+02
       437   3 -5.076725E+05 -1.152400E+04 -1.141919E+04  1.937737E+04 -9.571207E+02  2.690219E+03
       437   4 -4.596995E+05  1.509595E+02 -4.698945E+02  1.954541E+04  1.506636E+02 -1.037449E+03
       437   5 -4.596301E+05  1.097153E+02 -6.576965E+02  1.299900E+04  4.690106E+02  8.299837E+02
       437   6 -4.596999E+05  1.483312E+02 -1.060758E+03  1.954543E+04  7.873922E+02  2.696497E+03
       437   7 -4.764582E+05 -3.914563E+03 -4.029284E+03  1.950751E+04  1.896935E+03 -1.031133E+03
       437   8 -4.440224E+05  3.913062E+03  2.741554E+03  1.306409E+04  2.214461E+03  8.362789E+02
       437   9 -4.117251E+05  1.182051E+04  9.297554E+03  1.971350E+04  2.532038E+03  2.702776E+03
       437  10 -4.429405E+05  4.216463E+03  3.089484E+03  1.958332E+04 -1.432602E-08  6.096887E-09
       437  11 -4.752375E+05 -3.693647E+03 -4.056955E+03  1.293391E+04 -5.398735E-09 -7.658668E-09
       437  12 -5.076725E+05 -1.152400E+04 -1.141921E+04  1.937737E+04 -1.767147E-09 -4.406072E-09
       437  13 -4.596995E+05  1.509583E+02 -4.698966E+02  1.954541E+04 -3.115747E-10  7.957954E-09
       437  14 -4.596301E+05  1.097145E+02 -6.576982E+02  1.299900E+04  1.065474E-09 -6.097244E-09
       437  15 -4.596999E+05  1.483233E+02 -1.060773E+03  1.954542E+04 -7.065771E-11 -3.108816E-09
       437  16 -4.764582E+05 -3.914565E+03 -4.029293E+03  1.950752E+04  1.444738E-08  2.514208E-09
       437  17 -4.440224E+05  3.913060E+03  2.741544E+03  1.306409E+04  4.092006E-09 -8.628887E-09
       437  18 -4.117251E+05  1.182050E+04  9.297528E+03  1.971349E+04  3.989798E-09 -4.075059E-09
       437  19 -4.429405E+05  4.216465E+03  3.089490E+03  1.958332E+04  1.595655E+03  1.043765E+03
       437  20 -4.752375E+05 -3.693646E+03 -4.056950E+03  1.293391E+04  1.276397E+03 -8.236888E+02
       437  21 -5.076725E+05 -1.152400E+04 -1.141919E+04  1.937737E+04  9.571207E+02 -2.690219E+03
       437  22 -4.596995E+05  1.509595E+02 -4.698945E+02  1.954541E+04 -1.506636E+02  1.037449E+03
       437  23 -4.596301E+05  1.097153E+02 -6.576965E+02  1.299900E+04 -4.690106E+02 -8.299837E+02
       437  24 -4.596999E+05  1.483312E+02 -1.060758E+03  1.954543E+04 -7.873922E+02 -2.696497E+03
       437  25 -4.764582E+05 -3.914563E+03 -4.029284E+03  1.950751E+04 -1.896935E+03  1.031133E+03
       437  26 -4.440224E+05  3.913062E+03  2.741554E+03  1.306409E+04 -2.214461E+03 -8.362789E+02
       437  27 -4.117251E+05  1.182051E+04  9.297554E+03  1.971350E+04 -2.532038E+03 -2.702776E+03
       438   1 -5.337629E+05 -1.789406E+04 -1.758596E+04  1.926576E+04 -7.457384E+02  3.778400E+03
       438   2 -5.659393E+05 -2.578754E+04 -2.551525E+04  1.264583E+04  4.292295E+02  5.642779E+03
       438   3 -5.984092E+05 -3.379589E+04 -3.426549E+04  1.910040E+04  1.604465E+03  7.488641E+03
       438   4 -4.597343E+05  1.641981E+02 -1.372214E+03  1.954111E+04  1.002936E+03  3.784655E+03
       438   5 -4.595900E+05  1.295613E+02 -2.349736E+03  1.300426E+04  2.160738E+03  5.648865E+03
       438   6 -4.597367E+05 -1.672133E+01 -4.135976E+03  1.954176E+04  3.318868E+03  7.494564E+03
       438   7 -3.857006E+05  1.822209E+04  1.484121E+04  1.981648E+04  2.751816E+03  3.790912E+03
       438   8 -3.532302E+05  2.604592E+04  2.081511E+04  1.336273E+04  3.892540E+03  5.654953E+03
       438   9 -3.210462E+05  3.376117E+04  2.599240E+04  1.998320E+04  5.033650E+03  7.500488E+03
       438  10 -5.337629E+05 -1.789407E+04 -1.758599E+04  1.926576E+04 -1.003998E-08  4.584601E-11
       438  11 -5.659393E+05 -2.578758E+04 -2.551531E+04  1.264583E+04  1.664103E-09 -8.950126E-09
       438  12 -5.984092E+05 -3.379595E+04 -3.426560E+04  1.910039E+04  7.116553E-09 -3.165476E-09
       438  13 -4.597343E+05  1.641824E+02 -1.372243E+03  1.954110E+04 -2.688276E-13 -2.088076E-09
       438  14 -4.595900E+05  1.295258E+02 -2.349804E+03  1.300425E+04  7.687448E-10  5.454187E-09
       438  15 -4.597368E+05 -1.678459E+01 -4.136102E+03  1.954174E+04 -1.494354E-10 -6.474546E-10
       438  16 -3.857006E+05  1.822207E+04  1.484117E+04  1.981648E+04  9.798832E-09  8.764963E-09
       438  17 -3.532302E+05  2.604588E+04  2.081503E+04  1.336272E+04 -2.723112E-09 -4.858022E-09
       438  18 -3.210463E+05  3.376111E+04  2.599224E+04  1.998317E+04 -5.032326E-09  2.933447E-09
       438  19 -5.337629E+05 -1.789406E+04 -1.758596E+04  1.926576E+04  7.457384E+02 -3.778400E+03
       438  20 -5.659393E+05 -2.578754E+04 -2.551525E+04  1.264583E+04 -4.292295E+02 -5.642779E+03
       438  21 -5.984092E+05 -3.379589E+04 -3.426549E+04  1.910040E+04 -1.604465E+03 -7.488641E+03
       438  22 -4.597343E+05  1.641981E+02 -1.372214E+03  1.954111E+04 -1.002936E+03 -3.784655E+03
       438  23 -4.595900E+05  1.295613E+02 -2.349736E+03  1.300426E+04 -2.160738E+03 -5.648865E+03
       438  24 -4.597367E+05 -1.672133E+01 -4.135976E+03  1.954176E+04 -3.318868E+03 -7.494564E+03
       438  25 -3.857006E+05  1.822209E+04  1.484121E+04  1.981648E+04 -2.751816E+03 -3.790912E+03
       438  26 -3.532302E+05  2.604592E+04  2.081511E+04  1.336273E+04 -3.892540E+03 -5.654953E+03
       438  27 -3.210462E+05  3.376117E+04  2.599240E+04  1.998320E+04 -5.033650E+03 -7.500488E+03
       439   1 -6.246966E+05 -3.980747E+04 -4.135313E+04  1.840353E+04  2.332676E+03  8.606412E+03
       439   2 -6.561048E+05 -4.780680E+04 -5.229572E+04  1.279223E+04  7.377168E+03  1.037976E+04
       439   3 -6.891546E+05 -5.935127E+04 -6.743464E+04  2.020464E+04  1.242309E+04  1.177055E+04
       439   4 -4.600249E+05  3.457800E+02 -5.397696E+03  1.952665E+04  4.154464E+03  8.612619E+03
       439   5 -4.592377E+05  1.789914E+02 -9.357248E+03  1.302142E+04  8.842496E+03  1.038453E+04
       439   6 -4.600306E+05 -3.470193E+03 -1.726437E+04  1.953970E+04  1.353221E+04  1.177394E+04
       439   7 -2.953277E+05  4.049723E+04  3.055611E+04  2.065005E+04  5.976729E+03  8.618832E+03
       439   8 -2.623343E+05  4.816220E+04  3.357890E+04  1.325066E+04  1.030828E+04  1.038931E+04
       439   9 -2.308573E+05  5.240738E+04  3.290273E+04  1.887448E+04  1.464174E+04  1.177734E+04
       439  10 -6.246966E+05 -3.980756E+04 -4.135328E+04  1.840351E+04  7.937146E-09 -1.314577E-09
       439  11 -6.561048E+05 -4.780693E+04 -5.229603E+04  1.279216E+04  4.115227E-09  5.733071E-09
       439  12 -6.891548E+05 -5.935146E+04 -6.743519E+04  2.020452E+04 -7.108462E-10 -6.230209E-09
       439  13 -4.600249E+05  3.456957E+02 -5.397867E+03  1.952662E+04  4.570774E-10 -1.088856E-08
       439  14 -4.592378E+05  1.788546E+02 -9.357597E+03  1.302135E+04  4.529010E-10  6.513820E-09
       439  15 -4.600308E+05 -3.470391E+03 -1.726497E+04  1.953957E+04 -2.763255E-10  2.713906E-11
       439  16 -2.953278E+05  4.049714E+04  3.055591E+04  2.065001E+04 -7.679781E-09 -7.238821E-09
       439  17 -2.623344E+05  4.816206E+04  3.357850E+04  1.325058E+04 -6.075091E-09 -1.370129E-08
       439  18 -2.308576E+05  5.240717E+04  3.290207E+04  1.887434E+04  2.609672E-09  4.481421E-09
       439  19 -6.246966E+05 -3.980747E+04 -4.135313E+04  1.840353E+04 -2.332676E+03 -8.606412E+03
       439  20 -6.561048E+05 -4.780680E+04 -5.229572E+04  1.279223E+04 -7.377168E+03 -1.037976E+04
       439  21 -6.891546E+05 -5.935127E+04 -6.743464E+04  2.020464E+04 -1.242309E+04 -1.177055E+04
       439  22 -4.600249E+05  3.457800E+02 -5.397696E+03  1.952665E+04 -4.154464E+03 -8.612619E+03
       439  23 -4.592377E+05  1.789914E+02 -9.357248E+03  1.302142E+04 -8.842496E+03 -1.038453E+04
       439  24 -4.600306E+05 -3.470193E+03 -1.726437E+04  1.953970E+04 -1.353221E+04 -1.177394E+04
       439  25 -2.953277E+05  4.049723E+04  3.055611E+04  2.065005E+04 -5.976729E+03 -8.618832E+03
       439  26 -2.623343E+05  4.816220E+04  3.357890E+04  1.325066E+04 -1.030828E+04 -1.038931E+04
       439  27 -2.308573E+05  5.240738E+04  3.290273E+04  1.887448E+04 -1.464174E+04 -1.177734E+04
       440   1 -7.189585E+05 -5.888952E+04 -7.736544E+04  9.083051E+03  1.306375E+04  1.355551E+04
       440   2 -7.412428E+05 -7.036075E+04 -1.009395E+05  2.402592E+04  4.063869E+04  1.319570E+04
       440   3 -7.835215E+05 -1.471177E+05 -1.588155E+05  5.168583E+04  6.823772E+04  4.390399E+03
       440   4 -4.638163E+05  3.374960E+03 -2.175352E+04  1.940648E+04  1.659598E+04  1.356705E+04
       440   5 -4.545190E+05 -3.135919E+02 -3.718763E+04  1.316133E+04  3.627972E+04  1.318045E+04
       440   6 -4.638379E+05 -6.790212E+04 -8.143090E+04  1.963474E+04  5.598949E+04  4.348225E+03
       440   7 -2.086128E+05  6.563549E+04  3.385458E+04  2.973415E+04  2.012964E+04  1.357869E+04
       440   8 -1.677181E+05  6.972848E+04  2.655926E+04  2.291602E+03  3.191877E+04  1.316535E+04
       440   9 -1.440582E+05  1.130998E+04 -4.052535E+03 -1.243300E+04  4.373495E+04  4.307329E+03
       440  10 -7.189587E+05 -5.888976E+04 -7.736610E+04  9.082909E+03 -2.058337E-09 -5.505131E-09
       440  11 -7.412446E+05 -7.036139E+04 -1.009429E+05  2.402549E+04  7.797143E-09 -1.421404E-09
       440  12 -7.835265E+05 -1.471190E+05 -1.588243E+05  5.168559E+04  1.056055E-08  9.012629E-09
       440  13 -4.638166E+05  3.374689E+03 -2.175438E+04  1.940629E+04  7.273027E-12  2.039367E-09
       440  14 -4.545205E+05 -3.141321E+02 -3.719043E+04  1.316094E+04  8.517013E-10  6.661322E-09
       440  15 -4.638413E+05 -6.790298E+04 -8.143683E+04  1.963454E+04 -4.560149E-10  4.861646E-09
       440  16 -2.086133E+05  6.563519E+04  3.385347E+04  2.973393E+04  2.141318E-09  5.065976E-09
       440  17 -1.677193E+05  6.972802E+04  2.655702E+04  2.291264E+03 -9.554435E-09  1.216865E-08
       440  18 -1.440603E+05  1.130945E+04 -4.056165E+03 -1.243315E+04 -9.410941E-09  5.615573E-09
       440  19 -7.189585E+05 -5.888952E+04 -7.736544E+04  9.083051E+03 -1.306375E+04 -1.355551E+04
       440  20 -7.412428E+05 -7.036075E+04 -1.009395E+05  2.402592E+04 -4.063869E+04 -1.319570E+04
       440  21 -7.835215E+05 -1.471177E+05 -1.588155E+05  5.168583E+04 -6.823772E+04 -4.390399E+03
       440  22 -4.638163E+05  3.374960E+03 -2.175352E+04  1.940648E+04 -1.659598E+04 -1.356705E+04
       440  23 -4.545190E+05 -3.135919E+02 -3.718763E+04  1.316133E+04 -3.627972E+04 -1.318045E+04
       440  24 -4.638379E+05 -6.790212E+04 -8.143090E+04  1.963474E+04 -5.598949E+04 -4.348225E+03
       440  25 -2.086128E+05  6.563549E+04  3.385458E+04  2.973415E+04 -2.012964E+04 -1.357869E+04
       440  26 -1.677181E+05  6.972848E+04  2.655926E+04  2.291602E+03 -3.191877E+04 -1.316535E+04
       440  27 -1.440582E+05  1.130998E+04 -4.052535E+03 -1.243300E+04 -4.373495E+04 -4.307329E+03
