    1C
    1UUSER                                                              
    1UDATE              11.october.2022                                 
    1UTIME              17:31:49                                        
    1UHOST                                                              
    1UPGM               CalculiX                                        
    1UVERSION           Version 2.20                             
    1UCOMPILETIME       Sun Jul 31 18:08:37 CEST 2022                    
    1UDIR                                                               
    1UDBN                                                               
    1UMAT    1MESH_MATERIAL                                             
    2C                           841                                     1
 -1         1 0.00000E+00 0.00000E+00 0.00000E+00
 -1         2 1.66667E-02 0.00000E+00 0.00000E+00
 -1         3 3.33333E-02 0.00000E+00 0.00000E+00
 -1         4 5.00000E-02 0.00000E+00 0.00000E+00
 -1         5 6.66667E-02 0.00000E+00 0.00000E+00
 -1         8 0.00000E+00 6.25000E-03 0.00000E+00
 -1         9 1.66667E-02 6.25000E-03 0.00000E+00
 -1        10 3.33333E-02 6.25000E-03 0.00000E+00
 -1        11 5.00000E-02 6.25000E-03 0.00000E+00
 -1        12 6.66667E-02 6.25000E-03 0.00000E+00
 -1        15 0.00000E+00 1.25000E-02 0.00000E+00
 -1        16 1.66667E-02 1.25000E-02 0.00000E+00
 -1        17 3.33333E-02 1.25000E-02 0.00000E+00
 -1        18 5.00000E-02 1.25000E-02 0.00000E+00
 -1        19 6.66667E-02 1.25000E-02 0.00000E+00
 -1        20 8.33333E-02 1.25000E-02 0.00000E+00
 -1        21 1.00000E-01 1.25000E-02 0.00000E+00
 -1        22 0.00000E+00 1.87500E-02 0.00000E+00
 -1        23 1.66667E-02 1.87500E-02 0.00000E+00
 -1        24 3.33333E-02 1.87500E-02 0.00000E+00
 -1        25 5.00000E-02 1.87500E-02 0.00000E+00
 -1        26 6.66667E-02 1.87500E-02 0.00000E+00
 -1        27 8.33333E-02 1.87500E-02 0.00000E+00
 -1        28 1.00000E-01 1.87500E-02 0.00000E+00
 -1        29 0.00000E+00 2.50000E-02 0.00000E+00
 -1        30 1.66667E-02 2.50000E-02 0.00000E+00
 -1        31 3.33333E-02 2.50000E-02 0.00000E+00
 -1        32 5.00000E-02 2.50000E-02 0.00000E+00
 -1        33 6.66667E-02 2.50000E-02 0.00000E+00
 -1        34 8.33333E-02 2.50000E-02 0.00000E+00
 -1        35 1.00000E-01 2.50000E-02 0.00000E+00
 -1        36 1.04167E-03 0.00000E+00 0.00000E+00
 -1        37 2.08333E-03 0.00000E+00 0.00000E+00
 -1        38 3.12500E-03 0.00000E+00 0.00000E+00
 -1        39 4.16667E-03 0.00000E+00 0.00000E+00
 -1        40 5.20833E-03 0.00000E+00 0.00000E+00
 -1        41 6.25000E-03 0.00000E+00 0.00000E+00
 -1        42 7.29167E-03 0.00000E+00 0.00000E+00
 -1        43 8.33333E-03 0.00000E+00 0.00000E+00
 -1        44 9.37500E-03 0.00000E+00 0.00000E+00
 -1        45 1.04167E-02 0.00000E+00 0.00000E+00
 -1        46 1.14583E-02 0.00000E+00 0.00000E+00
 -1        47 1.25000E-02 0.00000E+00 0.00000E+00
 -1        48 1.35417E-02 0.00000E+00 0.00000E+00
 -1        49 1.45833E-02 0.00000E+00 0.00000E+00
 -1        50 1.56250E-02 0.00000E+00 0.00000E+00
 -1        51 0.00000E+00 1.04167E-03 0.00000E+00
 -1        52 0.00000E+00 2.08333E-03 0.00000E+00
 -1        53 0.00000E+00 3.12500E-03 0.00000E+00
 -1        54 0.00000E+00 4.16667E-03 0.00000E+00
 -1        55 0.00000E+00 5.20833E-03 0.00000E+00
 -1        56 1.04167E-03 3.90630E-04 0.00000E+00
 -1        57 2.08333E-03 7.81250E-04 0.00000E+00
 -1        58 3.12500E-03 1.17188E-03 0.00000E+00
 -1        59 4.16667E-03 1.56250E-03 0.00000E+00
 -1        60 5.20833E-03 1.95312E-03 0.00000E+00
 -1        61 6.25000E-03 2.34375E-03 0.00000E+00
 -1        62 7.29167E-03 2.73438E-03 0.00000E+00
 -1        63 8.33333E-03 3.12500E-03 0.00000E+00
 -1        64 9.37500E-03 3.51563E-03 0.00000E+00
 -1        65 1.04167E-02 3.90625E-03 0.00000E+00
 -1        66 1.14583E-02 4.29688E-03 0.00000E+00
 -1        67 1.25000E-02 4.68750E-03 0.00000E+00
 -1        68 1.35417E-02 5.07813E-03 0.00000E+00
 -1        69 1.45833E-02 5.46875E-03 0.00000E+00
 -1        70 1.56250E-02 5.85938E-03 0.00000E+00
 -1        71 1.77083E-02 0.00000E+00 0.00000E+00
 -1        72 1.87500E-02 0.00000E+00 0.00000E+00
 -1        73 1.97917E-02 0.00000E+00 0.00000E+00
 -1        74 2.08333E-02 0.00000E+00 0.00000E+00
 -1        75 2.18750E-02 0.00000E+00 0.00000E+00
 -1        76 2.29167E-02 0.00000E+00 0.00000E+00
 -1        77 2.39583E-02 0.00000E+00 0.00000E+00
 -1        78 2.50000E-02 0.00000E+00 0.00000E+00
 -1        79 2.60417E-02 0.00000E+00 0.00000E+00
 -1        80 2.70833E-02 0.00000E+00 0.00000E+00
 -1        81 2.81250E-02 0.00000E+00 0.00000E+00
 -1        82 2.91667E-02 0.00000E+00 0.00000E+00
 -1        83 3.02083E-02 0.00000E+00 0.00000E+00
 -1        84 3.12500E-02 0.00000E+00 0.00000E+00
 -1        85 3.22917E-02 0.00000E+00 0.00000E+00
 -1        86 1.66667E-02 1.04167E-03 0.00000E+00
 -1        87 1.66667E-02 2.08333E-03 0.00000E+00
 -1        88 1.66667E-02 3.12500E-03 0.00000E+00
 -1        89 1.66667E-02 4.16667E-03 0.00000E+00
 -1        90 1.66667E-02 5.20833E-03 0.00000E+00
 -1        91 1.77083E-02 3.90630E-04 0.00000E+00
 -1        92 1.87500E-02 7.81250E-04 0.00000E+00
 -1        93 1.97917E-02 1.17188E-03 0.00000E+00
 -1        94 2.08333E-02 1.56250E-03 0.00000E+00
 -1        95 2.18750E-02 1.95312E-03 0.00000E+00
 -1        96 2.29167E-02 2.34375E-03 0.00000E+00
 -1        97 2.39583E-02 2.73438E-03 0.00000E+00
 -1        98 2.50000E-02 3.12500E-03 0.00000E+00
 -1        99 2.60417E-02 3.51563E-03 0.00000E+00
 -1       100 2.70833E-02 3.90625E-03 0.00000E+00
 -1       101 2.81250E-02 4.29688E-03 0.00000E+00
 -1       102 2.91667E-02 4.68750E-03 0.00000E+00
 -1       103 3.02083E-02 5.07813E-03 0.00000E+00
 -1       104 3.12500E-02 5.46875E-03 0.00000E+00
 -1       105 3.22917E-02 5.85938E-03 0.00000E+00
 -1       106 3.43750E-02 0.00000E+00 0.00000E+00
 -1       107 3.54167E-02 0.00000E+00 0.00000E+00
 -1       108 3.64583E-02 0.00000E+00 0.00000E+00
 -1       109 3.75000E-02 0.00000E+00 0.00000E+00
 -1       110 3.85417E-02 0.00000E+00 0.00000E+00
 -1       111 3.95833E-02 0.00000E+00 0.00000E+00
 -1       112 4.06250E-02 0.00000E+00 0.00000E+00
 -1       113 4.16667E-02 0.00000E+00 0.00000E+00
 -1       114 4.27083E-02 0.00000E+00 0.00000E+00
 -1       115 4.37500E-02 0.00000E+00 0.00000E+00
 -1       116 4.47917E-02 0.00000E+00 0.00000E+00
 -1       117 4.58333E-02 0.00000E+00 0.00000E+00
 -1       118 4.68750E-02 0.00000E+00 0.00000E+00
 -1       119 4.79167E-02 0.00000E+00 0.00000E+00
 -1       120 4.89583E-02 0.00000E+00 0.00000E+00
 -1       121 3.33333E-02 1.04167E-03 0.00000E+00
 -1       122 3.33333E-02 2.08333E-03 0.00000E+00
 -1       123 3.33333E-02 3.12500E-03 0.00000E+00
 -1       124 3.33333E-02 4.16667E-03 0.00000E+00
 -1       125 3.33333E-02 5.20833E-03 0.00000E+00
 -1       126 3.43750E-02 3.90630E-04 0.00000E+00
 -1       127 3.54167E-02 7.81250E-04 0.00000E+00
 -1       128 3.64583E-02 1.17188E-03 0.00000E+00
 -1       129 3.75000E-02 1.56250E-03 0.00000E+00
 -1       130 3.85417E-02 1.95312E-03 0.00000E+00
 -1       131 3.95833E-02 2.34375E-03 0.00000E+00
 -1       132 4.06250E-02 2.73438E-03 0.00000E+00
 -1       133 4.16667E-02 3.12500E-03 0.00000E+00
 -1       134 4.27083E-02 3.51563E-03 0.00000E+00
 -1       135 4.37500E-02 3.90625E-03 0.00000E+00
 -1       136 4.47917E-02 4.29688E-03 0.00000E+00
 -1       137 4.58333E-02 4.68750E-03 0.00000E+00
 -1       138 4.68750E-02 5.07813E-03 0.00000E+00
 -1       139 4.79167E-02 5.46875E-03 0.00000E+00
 -1       140 4.89583E-02 5.85938E-03 0.00000E+00
 -1       141 5.10417E-02 0.00000E+00 0.00000E+00
 -1       142 5.20833E-02 0.00000E+00 0.00000E+00
 -1       143 5.31250E-02 0.00000E+00 0.00000E+00
 -1       144 5.41667E-02 0.00000E+00 0.00000E+00
 -1       145 5.52083E-02 0.00000E+00 0.00000E+00
 -1       146 5.62500E-02 0.00000E+00 0.00000E+00
 -1       147 5.72917E-02 0.00000E+00 0.00000E+00
 -1       148 5.83333E-02 0.00000E+00 0.00000E+00
 -1       149 5.93750E-02 0.00000E+00 0.00000E+00
 -1       150 6.04167E-02 0.00000E+00 0.00000E+00
 -1       151 6.14583E-02 0.00000E+00 0.00000E+00
 -1       152 6.25000E-02 0.00000E+00 0.00000E+00
 -1       153 6.35417E-02 0.00000E+00 0.00000E+00
 -1       154 6.45833E-02 0.00000E+00 0.00000E+00
 -1       155 6.56250E-02 0.00000E+00 0.00000E+00
 -1       156 5.00000E-02 1.04167E-03 0.00000E+00
 -1       157 5.00000E-02 2.08333E-03 0.00000E+00
 -1       158 5.00000E-02 3.12500E-03 0.00000E+00
 -1       159 5.00000E-02 4.16667E-03 0.00000E+00
 -1       160 5.00000E-02 5.20833E-03 0.00000E+00
 -1       161 5.10417E-02 3.90630E-04 0.00000E+00
 -1       162 5.20833E-02 7.81250E-04 0.00000E+00
 -1       163 5.31250E-02 1.17188E-03 0.00000E+00
 -1       164 5.41667E-02 1.56250E-03 0.00000E+00
 -1       165 5.52083E-02 1.95312E-03 0.00000E+00
 -1       166 5.62500E-02 2.34375E-03 0.00000E+00
 -1       167 5.72917E-02 2.73438E-03 0.00000E+00
 -1       168 5.83333E-02 3.12500E-03 0.00000E+00
 -1       169 5.93750E-02 3.51563E-03 0.00000E+00
 -1       170 6.04167E-02 3.90625E-03 0.00000E+00
 -1       171 6.14583E-02 4.29688E-03 0.00000E+00
 -1       172 6.25000E-02 4.68750E-03 0.00000E+00
 -1       173 6.35417E-02 5.07813E-03 0.00000E+00
 -1       174 6.45833E-02 5.46875E-03 0.00000E+00
 -1       175 6.56250E-02 5.85938E-03 0.00000E+00
 -1       191 6.66667E-02 1.04167E-03 0.00000E+00
 -1       192 6.66667E-02 2.08333E-03 0.00000E+00
 -1       193 6.66667E-02 3.12500E-03 0.00000E+00
 -1       194 6.66667E-02 4.16667E-03 0.00000E+00
 -1       195 6.66667E-02 5.20833E-03 0.00000E+00
 -1       251 1.04167E-03 6.25000E-03 0.00000E+00
 -1       252 2.08333E-03 6.25000E-03 0.00000E+00
 -1       253 3.12500E-03 6.25000E-03 0.00000E+00
 -1       254 4.16667E-03 6.25000E-03 0.00000E+00
 -1       255 5.20833E-03 6.25000E-03 0.00000E+00
 -1       256 6.25000E-03 6.25000E-03 0.00000E+00
 -1       257 7.29167E-03 6.25000E-03 0.00000E+00
 -1       258 8.33333E-03 6.25000E-03 0.00000E+00
 -1       259 9.37500E-03 6.25000E-03 0.00000E+00
 -1       260 1.04167E-02 6.25000E-03 0.00000E+00
 -1       261 1.14583E-02 6.25000E-03 0.00000E+00
 -1       262 1.25000E-02 6.25000E-03 0.00000E+00
 -1       263 1.35417E-02 6.25000E-03 0.00000E+00
 -1       264 1.45833E-02 6.25000E-03 0.00000E+00
 -1       265 1.56250E-02 6.25000E-03 0.00000E+00
 -1       266 0.00000E+00 7.29167E-03 0.00000E+00
 -1       267 0.00000E+00 8.33333E-03 0.00000E+00
 -1       268 0.00000E+00 9.37500E-03 0.00000E+00
 -1       269 0.00000E+00 1.04167E-02 0.00000E+00
 -1       270 0.00000E+00 1.14583E-02 0.00000E+00
 -1       271 1.04167E-03 6.64063E-03 0.00000E+00
 -1       272 2.08333E-03 7.03125E-03 0.00000E+00
 -1       273 3.12500E-03 7.42188E-03 0.00000E+00
 -1       274 4.16667E-03 7.81250E-03 0.00000E+00
 -1       275 5.20833E-03 8.20313E-03 0.00000E+00
 -1       276 6.25000E-03 8.59375E-03 0.00000E+00
 -1       277 7.29167E-03 8.98438E-03 0.00000E+00
 -1       278 8.33333E-03 9.37500E-03 0.00000E+00
 -1       279 9.37500E-03 9.76562E-03 0.00000E+00
 -1       280 1.04167E-02 1.01562E-02 0.00000E+00
 -1       281 1.14583E-02 1.05469E-02 0.00000E+00
 -1       282 1.25000E-02 1.09375E-02 0.00000E+00
 -1       283 1.35417E-02 1.13281E-02 0.00000E+00
 -1       284 1.45833E-02 1.17188E-02 0.00000E+00
 -1       285 1.56250E-02 1.21094E-02 0.00000E+00
 -1       286 1.77083E-02 6.25000E-03 0.00000E+00
 -1       287 1.87500E-02 6.25000E-03 0.00000E+00
 -1       288 1.97917E-02 6.25000E-03 0.00000E+00
 -1       289 2.08333E-02 6.25000E-03 0.00000E+00
 -1       290 2.18750E-02 6.25000E-03 0.00000E+00
 -1       291 2.29167E-02 6.25000E-03 0.00000E+00
 -1       292 2.39583E-02 6.25000E-03 0.00000E+00
 -1       293 2.50000E-02 6.25000E-03 0.00000E+00
 -1       294 2.60417E-02 6.25000E-03 0.00000E+00
 -1       295 2.70833E-02 6.25000E-03 0.00000E+00
 -1       296 2.81250E-02 6.25000E-03 0.00000E+00
 -1       297 2.91667E-02 6.25000E-03 0.00000E+00
 -1       298 3.02083E-02 6.25000E-03 0.00000E+00
 -1       299 3.12500E-02 6.25000E-03 0.00000E+00
 -1       300 3.22917E-02 6.25000E-03 0.00000E+00
 -1       301 1.66667E-02 7.29167E-03 0.00000E+00
 -1       302 1.66667E-02 8.33333E-03 0.00000E+00
 -1       303 1.66667E-02 9.37500E-03 0.00000E+00
 -1       304 1.66667E-02 1.04167E-02 0.00000E+00
 -1       305 1.66667E-02 1.14583E-02 0.00000E+00
 -1       306 1.77083E-02 6.64063E-03 0.00000E+00
 -1       307 1.87500E-02 7.03125E-03 0.00000E+00
 -1       308 1.97917E-02 7.42188E-03 0.00000E+00
 -1       309 2.08333E-02 7.81250E-03 0.00000E+00
 -1       310 2.18750E-02 8.20313E-03 0.00000E+00
 -1       311 2.29167E-02 8.59375E-03 0.00000E+00
 -1       312 2.39583E-02 8.98438E-03 0.00000E+00
 -1       313 2.50000E-02 9.37500E-03 0.00000E+00
 -1       314 2.60417E-02 9.76562E-03 0.00000E+00
 -1       315 2.70833E-02 1.01562E-02 0.00000E+00
 -1       316 2.81250E-02 1.05469E-02 0.00000E+00
 -1       317 2.91667E-02 1.09375E-02 0.00000E+00
 -1       318 3.02083E-02 1.13281E-02 0.00000E+00
 -1       319 3.12500E-02 1.17188E-02 0.00000E+00
 -1       320 3.22917E-02 1.21094E-02 0.00000E+00
 -1       321 3.43750E-02 6.25000E-03 0.00000E+00
 -1       322 3.54167E-02 6.25000E-03 0.00000E+00
 -1       323 3.64583E-02 6.25000E-03 0.00000E+00
 -1       324 3.75000E-02 6.25000E-03 0.00000E+00
 -1       325 3.85417E-02 6.25000E-03 0.00000E+00
 -1       326 3.95833E-02 6.25000E-03 0.00000E+00
 -1       327 4.06250E-02 6.25000E-03 0.00000E+00
 -1       328 4.16667E-02 6.25000E-03 0.00000E+00
 -1       329 4.27083E-02 6.25000E-03 0.00000E+00
 -1       330 4.37500E-02 6.25000E-03 0.00000E+00
 -1       331 4.47917E-02 6.25000E-03 0.00000E+00
 -1       332 4.58333E-02 6.25000E-03 0.00000E+00
 -1       333 4.68750E-02 6.25000E-03 0.00000E+00
 -1       334 4.79167E-02 6.25000E-03 0.00000E+00
 -1       335 4.89583E-02 6.25000E-03 0.00000E+00
 -1       336 3.33333E-02 7.29167E-03 0.00000E+00
 -1       337 3.33333E-02 8.33333E-03 0.00000E+00
 -1       338 3.33333E-02 9.37500E-03 0.00000E+00
 -1       339 3.33333E-02 1.04167E-02 0.00000E+00
 -1       340 3.33333E-02 1.14583E-02 0.00000E+00
 -1       341 3.43750E-02 6.64063E-03 0.00000E+00
 -1       342 3.54167E-02 7.03125E-03 0.00000E+00
 -1       343 3.64583E-02 7.42188E-03 0.00000E+00
 -1       344 3.75000E-02 7.81250E-03 0.00000E+00
 -1       345 3.85417E-02 8.20313E-03 0.00000E+00
 -1       346 3.95833E-02 8.59375E-03 0.00000E+00
 -1       347 4.06250E-02 8.98438E-03 0.00000E+00
 -1       348 4.16667E-02 9.37500E-03 0.00000E+00
 -1       349 4.27083E-02 9.76562E-03 0.00000E+00
 -1       350 4.37500E-02 1.01562E-02 0.00000E+00
 -1       351 4.47917E-02 1.05469E-02 0.00000E+00
 -1       352 4.58333E-02 1.09375E-02 0.00000E+00
 -1       353 4.68750E-02 1.13281E-02 0.00000E+00
 -1       354 4.79167E-02 1.17188E-02 0.00000E+00
 -1       355 4.89583E-02 1.21094E-02 0.00000E+00
 -1       356 5.10417E-02 6.25000E-03 0.00000E+00
 -1       357 5.20833E-02 6.25000E-03 0.00000E+00
 -1       358 5.31250E-02 6.25000E-03 0.00000E+00
 -1       359 5.41667E-02 6.25000E-03 0.00000E+00
 -1       360 5.52083E-02 6.25000E-03 0.00000E+00
 -1       361 5.62500E-02 6.25000E-03 0.00000E+00
 -1       362 5.72917E-02 6.25000E-03 0.00000E+00
 -1       363 5.83333E-02 6.25000E-03 0.00000E+00
 -1       364 5.93750E-02 6.25000E-03 0.00000E+00
 -1       365 6.04167E-02 6.25000E-03 0.00000E+00
 -1       366 6.14583E-02 6.25000E-03 0.00000E+00
 -1       367 6.25000E-02 6.25000E-03 0.00000E+00
 -1       368 6.35417E-02 6.25000E-03 0.00000E+00
 -1       369 6.45833E-02 6.25000E-03 0.00000E+00
 -1       370 6.56250E-02 6.25000E-03 0.00000E+00
 -1       371 5.00000E-02 7.29167E-03 0.00000E+00
 -1       372 5.00000E-02 8.33333E-03 0.00000E+00
 -1       373 5.00000E-02 9.37500E-03 0.00000E+00
 -1       374 5.00000E-02 1.04167E-02 0.00000E+00
 -1       375 5.00000E-02 1.14583E-02 0.00000E+00
 -1       376 5.10417E-02 6.64063E-03 0.00000E+00
 -1       377 5.20833E-02 7.03125E-03 0.00000E+00
 -1       378 5.31250E-02 7.42188E-03 0.00000E+00
 -1       379 5.41667E-02 7.81250E-03 0.00000E+00
 -1       380 5.52083E-02 8.20313E-03 0.00000E+00
 -1       381 5.62500E-02 8.59375E-03 0.00000E+00
 -1       382 5.72917E-02 8.98438E-03 0.00000E+00
 -1       383 5.83333E-02 9.37500E-03 0.00000E+00
 -1       384 5.93750E-02 9.76562E-03 0.00000E+00
 -1       385 6.04167E-02 1.01562E-02 0.00000E+00
 -1       386 6.14583E-02 1.05469E-02 0.00000E+00
 -1       387 6.25000E-02 1.09375E-02 0.00000E+00
 -1       388 6.35417E-02 1.13281E-02 0.00000E+00
 -1       389 6.45833E-02 1.17188E-02 0.00000E+00
 -1       390 6.56250E-02 1.21094E-02 0.00000E+00
 -1       406 6.66667E-02 7.29167E-03 0.00000E+00
 -1       407 6.66667E-02 8.33333E-03 0.00000E+00
 -1       408 6.66667E-02 9.37500E-03 0.00000E+00
 -1       409 6.66667E-02 1.04167E-02 0.00000E+00
 -1       410 6.66667E-02 1.14583E-02 0.00000E+00
 -1       466 1.04167E-03 1.25000E-02 0.00000E+00
 -1       467 2.08333E-03 1.25000E-02 0.00000E+00
 -1       468 3.12500E-03 1.25000E-02 0.00000E+00
 -1       469 4.16667E-03 1.25000E-02 0.00000E+00
 -1       470 5.20833E-03 1.25000E-02 0.00000E+00
 -1       471 6.25000E-03 1.25000E-02 0.00000E+00
 -1       472 7.29167E-03 1.25000E-02 0.00000E+00
 -1       473 8.33333E-03 1.25000E-02 0.00000E+00
 -1       474 9.37500E-03 1.25000E-02 0.00000E+00
 -1       475 1.04167E-02 1.25000E-02 0.00000E+00
 -1       476 1.14583E-02 1.25000E-02 0.00000E+00
 -1       477 1.25000E-02 1.25000E-02 0.00000E+00
 -1       478 1.35417E-02 1.25000E-02 0.00000E+00
 -1       479 1.45833E-02 1.25000E-02 0.00000E+00
 -1       480 1.56250E-02 1.25000E-02 0.00000E+00
 -1       481 0.00000E+00 1.35417E-02 0.00000E+00
 -1       482 0.00000E+00 1.45833E-02 0.00000E+00
 -1       483 0.00000E+00 1.56250E-02 0.00000E+00
 -1       484 0.00000E+00 1.66667E-02 0.00000E+00
 -1       485 0.00000E+00 1.77083E-02 0.00000E+00
 -1       486 1.04167E-03 1.28906E-02 0.00000E+00
 -1       487 2.08333E-03 1.32813E-02 0.00000E+00
 -1       488 3.12500E-03 1.36719E-02 0.00000E+00
 -1       489 4.16667E-03 1.40625E-02 0.00000E+00
 -1       490 5.20833E-03 1.44531E-02 0.00000E+00
 -1       491 6.25000E-03 1.48437E-02 0.00000E+00
 -1       492 7.29167E-03 1.52344E-02 0.00000E+00
 -1       493 8.33333E-03 1.56250E-02 0.00000E+00
 -1       494 9.37500E-03 1.60156E-02 0.00000E+00
 -1       495 1.04167E-02 1.64062E-02 0.00000E+00
 -1       496 1.14583E-02 1.67969E-02 0.00000E+00
 -1       497 1.25000E-02 1.71875E-02 0.00000E+00
 -1       498 1.35417E-02 1.75781E-02 0.00000E+00
 -1       499 1.45833E-02 1.79687E-02 0.00000E+00
 -1       500 1.56250E-02 1.83594E-02 0.00000E+00
 -1       501 1.77083E-02 1.25000E-02 0.00000E+00
 -1       502 1.87500E-02 1.25000E-02 0.00000E+00
 -1       503 1.97917E-02 1.25000E-02 0.00000E+00
 -1       504 2.08333E-02 1.25000E-02 0.00000E+00
 -1       505 2.18750E-02 1.25000E-02 0.00000E+00
 -1       506 2.29167E-02 1.25000E-02 0.00000E+00
 -1       507 2.39583E-02 1.25000E-02 0.00000E+00
 -1       508 2.50000E-02 1.25000E-02 0.00000E+00
 -1       509 2.60417E-02 1.25000E-02 0.00000E+00
 -1       510 2.70833E-02 1.25000E-02 0.00000E+00
 -1       511 2.81250E-02 1.25000E-02 0.00000E+00
 -1       512 2.91667E-02 1.25000E-02 0.00000E+00
 -1       513 3.02083E-02 1.25000E-02 0.00000E+00
 -1       514 3.12500E-02 1.25000E-02 0.00000E+00
 -1       515 3.22917E-02 1.25000E-02 0.00000E+00
 -1       516 1.66667E-02 1.35417E-02 0.00000E+00
 -1       517 1.66667E-02 1.45833E-02 0.00000E+00
 -1       518 1.66667E-02 1.56250E-02 0.00000E+00
 -1       519 1.66667E-02 1.66667E-02 0.00000E+00
 -1       520 1.66667E-02 1.77083E-02 0.00000E+00
 -1       521 1.77083E-02 1.28906E-02 0.00000E+00
 -1       522 1.87500E-02 1.32813E-02 0.00000E+00
 -1       523 1.97917E-02 1.36719E-02 0.00000E+00
 -1       524 2.08333E-02 1.40625E-02 0.00000E+00
 -1       525 2.18750E-02 1.44531E-02 0.00000E+00
 -1       526 2.29167E-02 1.48437E-02 0.00000E+00
 -1       527 2.39583E-02 1.52344E-02 0.00000E+00
 -1       528 2.50000E-02 1.56250E-02 0.00000E+00
 -1       529 2.60417E-02 1.60156E-02 0.00000E+00
 -1       530 2.70833E-02 1.64062E-02 0.00000E+00
 -1       531 2.81250E-02 1.67969E-02 0.00000E+00
 -1       532 2.91667E-02 1.71875E-02 0.00000E+00
 -1       533 3.02083E-02 1.75781E-02 0.00000E+00
 -1       534 3.12500E-02 1.79687E-02 0.00000E+00
 -1       535 3.22917E-02 1.83594E-02 0.00000E+00
 -1       536 3.43750E-02 1.25000E-02 0.00000E+00
 -1       537 3.54167E-02 1.25000E-02 0.00000E+00
 -1       538 3.64583E-02 1.25000E-02 0.00000E+00
 -1       539 3.75000E-02 1.25000E-02 0.00000E+00
 -1       540 3.85417E-02 1.25000E-02 0.00000E+00
 -1       541 3.95833E-02 1.25000E-02 0.00000E+00
 -1       542 4.06250E-02 1.25000E-02 0.00000E+00
 -1       543 4.16667E-02 1.25000E-02 0.00000E+00
 -1       544 4.27083E-02 1.25000E-02 0.00000E+00
 -1       545 4.37500E-02 1.25000E-02 0.00000E+00
 -1       546 4.47917E-02 1.25000E-02 0.00000E+00
 -1       547 4.58333E-02 1.25000E-02 0.00000E+00
 -1       548 4.68750E-02 1.25000E-02 0.00000E+00
 -1       549 4.79167E-02 1.25000E-02 0.00000E+00
 -1       550 4.89583E-02 1.25000E-02 0.00000E+00
 -1       551 3.33333E-02 1.35417E-02 0.00000E+00
 -1       552 3.33333E-02 1.45833E-02 0.00000E+00
 -1       553 3.33333E-02 1.56250E-02 0.00000E+00
 -1       554 3.33333E-02 1.66667E-02 0.00000E+00
 -1       555 3.33333E-02 1.77083E-02 0.00000E+00
 -1       556 3.43750E-02 1.28906E-02 0.00000E+00
 -1       557 3.54167E-02 1.32813E-02 0.00000E+00
 -1       558 3.64583E-02 1.36719E-02 0.00000E+00
 -1       559 3.75000E-02 1.40625E-02 0.00000E+00
 -1       560 3.85417E-02 1.44531E-02 0.00000E+00
 -1       561 3.95833E-02 1.48437E-02 0.00000E+00
 -1       562 4.06250E-02 1.52344E-02 0.00000E+00
 -1       563 4.16667E-02 1.56250E-02 0.00000E+00
 -1       564 4.27083E-02 1.60156E-02 0.00000E+00
 -1       565 4.37500E-02 1.64062E-02 0.00000E+00
 -1       566 4.47917E-02 1.67969E-02 0.00000E+00
 -1       567 4.58333E-02 1.71875E-02 0.00000E+00
 -1       568 4.68750E-02 1.75781E-02 0.00000E+00
 -1       569 4.79167E-02 1.79687E-02 0.00000E+00
 -1       570 4.89583E-02 1.83594E-02 0.00000E+00
 -1       571 5.10417E-02 1.25000E-02 0.00000E+00
 -1       572 5.20833E-02 1.25000E-02 0.00000E+00
 -1       573 5.31250E-02 1.25000E-02 0.00000E+00
 -1       574 5.41667E-02 1.25000E-02 0.00000E+00
 -1       575 5.52083E-02 1.25000E-02 0.00000E+00
 -1       576 5.62500E-02 1.25000E-02 0.00000E+00
 -1       577 5.72917E-02 1.25000E-02 0.00000E+00
 -1       578 5.83333E-02 1.25000E-02 0.00000E+00
 -1       579 5.93750E-02 1.25000E-02 0.00000E+00
 -1       580 6.04167E-02 1.25000E-02 0.00000E+00
 -1       581 6.14583E-02 1.25000E-02 0.00000E+00
 -1       582 6.25000E-02 1.25000E-02 0.00000E+00
 -1       583 6.35417E-02 1.25000E-02 0.00000E+00
 -1       584 6.45833E-02 1.25000E-02 0.00000E+00
 -1       585 6.56250E-02 1.25000E-02 0.00000E+00
 -1       586 5.00000E-02 1.35417E-02 0.00000E+00
 -1       587 5.00000E-02 1.45833E-02 0.00000E+00
 -1       588 5.00000E-02 1.56250E-02 0.00000E+00
 -1       589 5.00000E-02 1.66667E-02 0.00000E+00
 -1       590 5.00000E-02 1.77083E-02 0.00000E+00
 -1       591 5.10417E-02 1.28906E-02 0.00000E+00
 -1       592 5.20833E-02 1.32813E-02 0.00000E+00
 -1       593 5.31250E-02 1.36719E-02 0.00000E+00
 -1       594 5.41667E-02 1.40625E-02 0.00000E+00
 -1       595 5.52083E-02 1.44531E-02 0.00000E+00
 -1       596 5.62500E-02 1.48437E-02 0.00000E+00
 -1       597 5.72917E-02 1.52344E-02 0.00000E+00
 -1       598 5.83333E-02 1.56250E-02 0.00000E+00
 -1       599 5.93750E-02 1.60156E-02 0.00000E+00
 -1       600 6.04167E-02 1.64062E-02 0.00000E+00
 -1       601 6.14583E-02 1.67969E-02 0.00000E+00
 -1       602 6.25000E-02 1.71875E-02 0.00000E+00
 -1       603 6.35417E-02 1.75781E-02 0.00000E+00
 -1       604 6.45833E-02 1.79687E-02 0.00000E+00
 -1       605 6.56250E-02 1.83594E-02 0.00000E+00
 -1       606 6.77083E-02 1.25000E-02 0.00000E+00
 -1       607 6.87500E-02 1.25000E-02 0.00000E+00
 -1       608 6.97917E-02 1.25000E-02 0.00000E+00
 -1       609 7.08333E-02 1.25000E-02 0.00000E+00
 -1       610 7.18750E-02 1.25000E-02 0.00000E+00
 -1       611 7.29167E-02 1.25000E-02 0.00000E+00
 -1       612 7.39583E-02 1.25000E-02 0.00000E+00
 -1       613 7.50000E-02 1.25000E-02 0.00000E+00
 -1       614 7.60417E-02 1.25000E-02 0.00000E+00
 -1       615 7.70833E-02 1.25000E-02 0.00000E+00
 -1       616 7.81250E-02 1.25000E-02 0.00000E+00
 -1       617 7.91667E-02 1.25000E-02 0.00000E+00
 -1       618 8.02083E-02 1.25000E-02 0.00000E+00
 -1       619 8.12500E-02 1.25000E-02 0.00000E+00
 -1       620 8.22917E-02 1.25000E-02 0.00000E+00
 -1       621 6.66667E-02 1.35417E-02 0.00000E+00
 -1       622 6.66667E-02 1.45833E-02 0.00000E+00
 -1       623 6.66667E-02 1.56250E-02 0.00000E+00
 -1       624 6.66667E-02 1.66667E-02 0.00000E+00
 -1       625 6.66667E-02 1.77083E-02 0.00000E+00
 -1       626 6.77083E-02 1.28906E-02 0.00000E+00
 -1       627 6.87500E-02 1.32813E-02 0.00000E+00
 -1       628 6.97917E-02 1.36719E-02 0.00000E+00
 -1       629 7.08333E-02 1.40625E-02 0.00000E+00
 -1       630 7.18750E-02 1.44531E-02 0.00000E+00
 -1       631 7.29167E-02 1.48437E-02 0.00000E+00
 -1       632 7.39583E-02 1.52344E-02 0.00000E+00
 -1       633 7.50000E-02 1.56250E-02 0.00000E+00
 -1       634 7.60417E-02 1.60156E-02 0.00000E+00
 -1       635 7.70833E-02 1.64062E-02 0.00000E+00
 -1       636 7.81250E-02 1.67969E-02 0.00000E+00
 -1       637 7.91667E-02 1.71875E-02 0.00000E+00
 -1       638 8.02083E-02 1.75781E-02 0.00000E+00
 -1       639 8.12500E-02 1.79687E-02 0.00000E+00
 -1       640 8.22917E-02 1.83594E-02 0.00000E+00
 -1       641 8.43750E-02 1.25000E-02 0.00000E+00
 -1       642 8.54167E-02 1.25000E-02 0.00000E+00
 -1       643 8.64583E-02 1.25000E-02 0.00000E+00
 -1       644 8.75000E-02 1.25000E-02 0.00000E+00
 -1       645 8.85417E-02 1.25000E-02 0.00000E+00
 -1       646 8.95833E-02 1.25000E-02 0.00000E+00
 -1       647 9.06250E-02 1.25000E-02 0.00000E+00
 -1       648 9.16667E-02 1.25000E-02 0.00000E+00
 -1       649 9.27083E-02 1.25000E-02 0.00000E+00
 -1       650 9.37500E-02 1.25000E-02 0.00000E+00
 -1       651 9.47917E-02 1.25000E-02 0.00000E+00
 -1       652 9.58333E-02 1.25000E-02 0.00000E+00
 -1       653 9.68750E-02 1.25000E-02 0.00000E+00
 -1       654 9.79167E-02 1.25000E-02 0.00000E+00
 -1       655 9.89583E-02 1.25000E-02 0.00000E+00
 -1       656 8.33333E-02 1.35417E-02 0.00000E+00
 -1       657 8.33333E-02 1.45833E-02 0.00000E+00
 -1       658 8.33333E-02 1.56250E-02 0.00000E+00
 -1       659 8.33333E-02 1.66667E-02 0.00000E+00
 -1       660 8.33333E-02 1.77083E-02 0.00000E+00
 -1       661 8.43750E-02 1.28906E-02 0.00000E+00
 -1       662 8.54167E-02 1.32813E-02 0.00000E+00
 -1       663 8.64583E-02 1.36719E-02 0.00000E+00
 -1       664 8.75000E-02 1.40625E-02 0.00000E+00
 -1       665 8.85417E-02 1.44531E-02 0.00000E+00
 -1       666 8.95833E-02 1.48437E-02 0.00000E+00
 -1       667 9.06250E-02 1.52344E-02 0.00000E+00
 -1       668 9.16667E-02 1.56250E-02 0.00000E+00
 -1       669 9.27083E-02 1.60156E-02 0.00000E+00
 -1       670 9.37500E-02 1.64062E-02 0.00000E+00
 -1       671 9.47917E-02 1.67969E-02 0.00000E+00
 -1       672 9.58333E-02 1.71875E-02 0.00000E+00
 -1       673 9.68750E-02 1.75781E-02 0.00000E+00
 -1       674 9.79167E-02 1.79687E-02 0.00000E+00
 -1       675 9.89583E-02 1.83594E-02 0.00000E+00
 -1       676 1.00000E-01 1.35417E-02 0.00000E+00
 -1       677 1.00000E-01 1.45833E-02 0.00000E+00
 -1       678 1.00000E-01 1.56250E-02 0.00000E+00
 -1       679 1.00000E-01 1.66667E-02 0.00000E+00
 -1       680 1.00000E-01 1.77083E-02 0.00000E+00
 -1       681 1.04167E-03 1.87500E-02 0.00000E+00
 -1       682 2.08333E-03 1.87500E-02 0.00000E+00
 -1       683 3.12500E-03 1.87500E-02 0.00000E+00
 -1       684 4.16667E-03 1.87500E-02 0.00000E+00
 -1       685 5.20833E-03 1.87500E-02 0.00000E+00
 -1       686 6.25000E-03 1.87500E-02 0.00000E+00
 -1       687 7.29167E-03 1.87500E-02 0.00000E+00
 -1       688 8.33333E-03 1.87500E-02 0.00000E+00
 -1       689 9.37500E-03 1.87500E-02 0.00000E+00
 -1       690 1.04167E-02 1.87500E-02 0.00000E+00
 -1       691 1.14583E-02 1.87500E-02 0.00000E+00
 -1       692 1.25000E-02 1.87500E-02 0.00000E+00
 -1       693 1.35417E-02 1.87500E-02 0.00000E+00
 -1       694 1.45833E-02 1.87500E-02 0.00000E+00
 -1       695 1.56250E-02 1.87500E-02 0.00000E+00
 -1       696 0.00000E+00 1.97917E-02 0.00000E+00
 -1       697 0.00000E+00 2.08333E-02 0.00000E+00
 -1       698 0.00000E+00 2.18750E-02 0.00000E+00
 -1       699 0.00000E+00 2.29167E-02 0.00000E+00
 -1       700 0.00000E+00 2.39583E-02 0.00000E+00
 -1       701 1.04167E-03 1.91406E-02 0.00000E+00
 -1       702 2.08333E-03 1.95312E-02 0.00000E+00
 -1       703 3.12500E-03 1.99219E-02 0.00000E+00
 -1       704 4.16667E-03 2.03125E-02 0.00000E+00
 -1       705 5.20833E-03 2.07031E-02 0.00000E+00
 -1       706 6.25000E-03 2.10938E-02 0.00000E+00
 -1       707 7.29167E-03 2.14844E-02 0.00000E+00
 -1       708 8.33333E-03 2.18750E-02 0.00000E+00
 -1       709 9.37500E-03 2.22656E-02 0.00000E+00
 -1       710 1.04167E-02 2.26563E-02 0.00000E+00
 -1       711 1.14583E-02 2.30469E-02 0.00000E+00
 -1       712 1.25000E-02 2.34375E-02 0.00000E+00
 -1       713 1.35417E-02 2.38281E-02 0.00000E+00
 -1       714 1.45833E-02 2.42187E-02 0.00000E+00
 -1       715 1.56250E-02 2.46094E-02 0.00000E+00
 -1       716 1.77083E-02 1.87500E-02 0.00000E+00
 -1       717 1.87500E-02 1.87500E-02 0.00000E+00
 -1       718 1.97917E-02 1.87500E-02 0.00000E+00
 -1       719 2.08333E-02 1.87500E-02 0.00000E+00
 -1       720 2.18750E-02 1.87500E-02 0.00000E+00
 -1       721 2.29167E-02 1.87500E-02 0.00000E+00
 -1       722 2.39583E-02 1.87500E-02 0.00000E+00
 -1       723 2.50000E-02 1.87500E-02 0.00000E+00
 -1       724 2.60417E-02 1.87500E-02 0.00000E+00
 -1       725 2.70833E-02 1.87500E-02 0.00000E+00
 -1       726 2.81250E-02 1.87500E-02 0.00000E+00
 -1       727 2.91667E-02 1.87500E-02 0.00000E+00
 -1       728 3.02083E-02 1.87500E-02 0.00000E+00
 -1       729 3.12500E-02 1.87500E-02 0.00000E+00
 -1       730 3.22917E-02 1.87500E-02 0.00000E+00
 -1       731 1.66667E-02 1.97917E-02 0.00000E+00
 -1       732 1.66667E-02 2.08333E-02 0.00000E+00
 -1       733 1.66667E-02 2.18750E-02 0.00000E+00
 -1       734 1.66667E-02 2.29167E-02 0.00000E+00
 -1       735 1.66667E-02 2.39583E-02 0.00000E+00
 -1       736 1.77083E-02 1.91406E-02 0.00000E+00
 -1       737 1.87500E-02 1.95312E-02 0.00000E+00
 -1       738 1.97917E-02 1.99219E-02 0.00000E+00
 -1       739 2.08333E-02 2.03125E-02 0.00000E+00
 -1       740 2.18750E-02 2.07031E-02 0.00000E+00
 -1       741 2.29167E-02 2.10938E-02 0.00000E+00
 -1       742 2.39583E-02 2.14844E-02 0.00000E+00
 -1       743 2.50000E-02 2.18750E-02 0.00000E+00
 -1       744 2.60417E-02 2.22656E-02 0.00000E+00
 -1       745 2.70833E-02 2.26563E-02 0.00000E+00
 -1       746 2.81250E-02 2.30469E-02 0.00000E+00
 -1       747 2.91667E-02 2.34375E-02 0.00000E+00
 -1       748 3.02083E-02 2.38281E-02 0.00000E+00
 -1       749 3.12500E-02 2.42187E-02 0.00000E+00
 -1       750 3.22917E-02 2.46094E-02 0.00000E+00
 -1       751 3.43750E-02 1.87500E-02 0.00000E+00
 -1       752 3.54167E-02 1.87500E-02 0.00000E+00
 -1       753 3.64583E-02 1.87500E-02 0.00000E+00
 -1       754 3.75000E-02 1.87500E-02 0.00000E+00
 -1       755 3.85417E-02 1.87500E-02 0.00000E+00
 -1       756 3.95833E-02 1.87500E-02 0.00000E+00
 -1       757 4.06250E-02 1.87500E-02 0.00000E+00
 -1       758 4.16667E-02 1.87500E-02 0.00000E+00
 -1       759 4.27083E-02 1.87500E-02 0.00000E+00
 -1       760 4.37500E-02 1.87500E-02 0.00000E+00
 -1       761 4.47917E-02 1.87500E-02 0.00000E+00
 -1       762 4.58333E-02 1.87500E-02 0.00000E+00
 -1       763 4.68750E-02 1.87500E-02 0.00000E+00
 -1       764 4.79167E-02 1.87500E-02 0.00000E+00
 -1       765 4.89583E-02 1.87500E-02 0.00000E+00
 -1       766 3.33333E-02 1.97917E-02 0.00000E+00
 -1       767 3.33333E-02 2.08333E-02 0.00000E+00
 -1       768 3.33333E-02 2.18750E-02 0.00000E+00
 -1       769 3.33333E-02 2.29167E-02 0.00000E+00
 -1       770 3.33333E-02 2.39583E-02 0.00000E+00
 -1       771 3.43750E-02 1.91406E-02 0.00000E+00
 -1       772 3.54167E-02 1.95312E-02 0.00000E+00
 -1       773 3.64583E-02 1.99219E-02 0.00000E+00
 -1       774 3.75000E-02 2.03125E-02 0.00000E+00
 -1       775 3.85417E-02 2.07031E-02 0.00000E+00
 -1       776 3.95833E-02 2.10938E-02 0.00000E+00
 -1       777 4.06250E-02 2.14844E-02 0.00000E+00
 -1       778 4.16667E-02 2.18750E-02 0.00000E+00
 -1       779 4.27083E-02 2.22656E-02 0.00000E+00
 -1       780 4.37500E-02 2.26563E-02 0.00000E+00
 -1       781 4.47917E-02 2.30469E-02 0.00000E+00
 -1       782 4.58333E-02 2.34375E-02 0.00000E+00
 -1       783 4.68750E-02 2.38281E-02 0.00000E+00
 -1       784 4.79167E-02 2.42187E-02 0.00000E+00
 -1       785 4.89583E-02 2.46094E-02 0.00000E+00
 -1       786 5.10417E-02 1.87500E-02 0.00000E+00
 -1       787 5.20833E-02 1.87500E-02 0.00000E+00
 -1       788 5.31250E-02 1.87500E-02 0.00000E+00
 -1       789 5.41667E-02 1.87500E-02 0.00000E+00
 -1       790 5.52083E-02 1.87500E-02 0.00000E+00
 -1       791 5.62500E-02 1.87500E-02 0.00000E+00
 -1       792 5.72917E-02 1.87500E-02 0.00000E+00
 -1       793 5.83333E-02 1.87500E-02 0.00000E+00
 -1       794 5.93750E-02 1.87500E-02 0.00000E+00
 -1       795 6.04167E-02 1.87500E-02 0.00000E+00
 -1       796 6.14583E-02 1.87500E-02 0.00000E+00
 -1       797 6.25000E-02 1.87500E-02 0.00000E+00
 -1       798 6.35417E-02 1.87500E-02 0.00000E+00
 -1       799 6.45833E-02 1.87500E-02 0.00000E+00
 -1       800 6.56250E-02 1.87500E-02 0.00000E+00
 -1       801 5.00000E-02 1.97917E-02 0.00000E+00
 -1       802 5.00000E-02 2.08333E-02 0.00000E+00
 -1       803 5.00000E-02 2.18750E-02 0.00000E+00
 -1       804 5.00000E-02 2.29167E-02 0.00000E+00
 -1       805 5.00000E-02 2.39583E-02 0.00000E+00
 -1       806 5.10417E-02 1.91406E-02 0.00000E+00
 -1       807 5.20833E-02 1.95312E-02 0.00000E+00
 -1       808 5.31250E-02 1.99219E-02 0.00000E+00
 -1       809 5.41667E-02 2.03125E-02 0.00000E+00
 -1       810 5.52083E-02 2.07031E-02 0.00000E+00
 -1       811 5.62500E-02 2.10938E-02 0.00000E+00
 -1       812 5.72917E-02 2.14844E-02 0.00000E+00
 -1       813 5.83333E-02 2.18750E-02 0.00000E+00
 -1       814 5.93750E-02 2.22656E-02 0.00000E+00
 -1       815 6.04167E-02 2.26563E-02 0.00000E+00
 -1       816 6.14583E-02 2.30469E-02 0.00000E+00
 -1       817 6.25000E-02 2.34375E-02 0.00000E+00
 -1       818 6.35417E-02 2.38281E-02 0.00000E+00
 -1       819 6.45833E-02 2.42187E-02 0.00000E+00
 -1       820 6.56250E-02 2.46094E-02 0.00000E+00
 -1       821 6.77083E-02 1.87500E-02 0.00000E+00
 -1       822 6.87500E-02 1.87500E-02 0.00000E+00
 -1       823 6.97917E-02 1.87500E-02 0.00000E+00
 -1       824 7.08333E-02 1.87500E-02 0.00000E+00
 -1       825 7.18750E-02 1.87500E-02 0.00000E+00
 -1       826 7.29167E-02 1.87500E-02 0.00000E+00
 -1       827 7.39583E-02 1.87500E-02 0.00000E+00
 -1       828 7.50000E-02 1.87500E-02 0.00000E+00
 -1       829 7.60417E-02 1.87500E-02 0.00000E+00
 -1       830 7.70833E-02 1.87500E-02 0.00000E+00
 -1       831 7.81250E-02 1.87500E-02 0.00000E+00
 -1       832 7.91667E-02 1.87500E-02 0.00000E+00
 -1       833 8.02083E-02 1.87500E-02 0.00000E+00
 -1       834 8.12500E-02 1.87500E-02 0.00000E+00
 -1       835 8.22917E-02 1.87500E-02 0.00000E+00
 -1       836 6.66667E-02 1.97917E-02 0.00000E+00
 -1       837 6.66667E-02 2.08333E-02 0.00000E+00
 -1       838 6.66667E-02 2.18750E-02 0.00000E+00
 -1       839 6.66667E-02 2.29167E-02 0.00000E+00
 -1       840 6.66667E-02 2.39583E-02 0.00000E+00
 -1       841 6.77083E-02 1.91406E-02 0.00000E+00
 -1       842 6.87500E-02 1.95312E-02 0.00000E+00
 -1       843 6.97917E-02 1.99219E-02 0.00000E+00
 -1       844 7.08333E-02 2.03125E-02 0.00000E+00
 -1       845 7.18750E-02 2.07031E-02 0.00000E+00
 -1       846 7.29167E-02 2.10938E-02 0.00000E+00
 -1       847 7.39583E-02 2.14844E-02 0.00000E+00
 -1       848 7.50000E-02 2.18750E-02 0.00000E+00
 -1       849 7.60417E-02 2.22656E-02 0.00000E+00
 -1       850 7.70833E-02 2.26563E-02 0.00000E+00
 -1       851 7.81250E-02 2.30469E-02 0.00000E+00
 -1       852 7.91667E-02 2.34375E-02 0.00000E+00
 -1       853 8.02083E-02 2.38281E-02 0.00000E+00
 -1       854 8.12500E-02 2.42187E-02 0.00000E+00
 -1       855 8.22917E-02 2.46094E-02 0.00000E+00
 -1       856 8.43750E-02 1.87500E-02 0.00000E+00
 -1       857 8.54167E-02 1.87500E-02 0.00000E+00
 -1       858 8.64583E-02 1.87500E-02 0.00000E+00
 -1       859 8.75000E-02 1.87500E-02 0.00000E+00
 -1       860 8.85417E-02 1.87500E-02 0.00000E+00
 -1       861 8.95833E-02 1.87500E-02 0.00000E+00
 -1       862 9.06250E-02 1.87500E-02 0.00000E+00
 -1       863 9.16667E-02 1.87500E-02 0.00000E+00
 -1       864 9.27083E-02 1.87500E-02 0.00000E+00
 -1       865 9.37500E-02 1.87500E-02 0.00000E+00
 -1       866 9.47917E-02 1.87500E-02 0.00000E+00
 -1       867 9.58333E-02 1.87500E-02 0.00000E+00
 -1       868 9.68750E-02 1.87500E-02 0.00000E+00
 -1       869 9.79167E-02 1.87500E-02 0.00000E+00
 -1       870 9.89583E-02 1.87500E-02 0.00000E+00
 -1       871 8.33333E-02 1.97917E-02 0.00000E+00
 -1       872 8.33333E-02 2.08333E-02 0.00000E+00
 -1       873 8.33333E-02 2.18750E-02 0.00000E+00
 -1       874 8.33333E-02 2.29167E-02 0.00000E+00
 -1       875 8.33333E-02 2.39583E-02 0.00000E+00
 -1       876 8.43750E-02 1.91406E-02 0.00000E+00
 -1       877 8.54167E-02 1.95312E-02 0.00000E+00
 -1       878 8.64583E-02 1.99219E-02 0.00000E+00
 -1       879 8.75000E-02 2.03125E-02 0.00000E+00
 -1       880 8.85417E-02 2.07031E-02 0.00000E+00
 -1       881 8.95833E-02 2.10938E-02 0.00000E+00
 -1       882 9.06250E-02 2.14844E-02 0.00000E+00
 -1       883 9.16667E-02 2.18750E-02 0.00000E+00
 -1       884 9.27083E-02 2.22656E-02 0.00000E+00
 -1       885 9.37500E-02 2.26563E-02 0.00000E+00
 -1       886 9.47917E-02 2.30469E-02 0.00000E+00
 -1       887 9.58333E-02 2.34375E-02 0.00000E+00
 -1       888 9.68750E-02 2.38281E-02 0.00000E+00
 -1       889 9.79167E-02 2.42187E-02 0.00000E+00
 -1       890 9.89583E-02 2.46094E-02 0.00000E+00
 -1       891 1.00000E-01 1.97917E-02 0.00000E+00
 -1       892 1.00000E-01 2.08333E-02 0.00000E+00
 -1       893 1.00000E-01 2.18750E-02 0.00000E+00
 -1       894 1.00000E-01 2.29167E-02 0.00000E+00
 -1       895 1.00000E-01 2.39583E-02 0.00000E+00
 -1       896 1.04167E-03 2.50000E-02 0.00000E+00
 -1       897 2.08333E-03 2.50000E-02 0.00000E+00
 -1       898 3.12500E-03 2.50000E-02 0.00000E+00
 -1       899 4.16667E-03 2.50000E-02 0.00000E+00
 -1       900 5.20833E-03 2.50000E-02 0.00000E+00
 -1       901 6.25000E-03 2.50000E-02 0.00000E+00
 -1       902 7.29167E-03 2.50000E-02 0.00000E+00
 -1       903 8.33333E-03 2.50000E-02 0.00000E+00
 -1       904 9.37500E-03 2.50000E-02 0.00000E+00
 -1       905 1.04167E-02 2.50000E-02 0.00000E+00
 -1       906 1.14583E-02 2.50000E-02 0.00000E+00
 -1       907 1.25000E-02 2.50000E-02 0.00000E+00
 -1       908 1.35417E-02 2.50000E-02 0.00000E+00
 -1       909 1.45833E-02 2.50000E-02 0.00000E+00
 -1       910 1.56250E-02 2.50000E-02 0.00000E+00
 -1       911 1.77083E-02 2.50000E-02 0.00000E+00
 -1       912 1.87500E-02 2.50000E-02 0.00000E+00
 -1       913 1.97917E-02 2.50000E-02 0.00000E+00
 -1       914 2.08333E-02 2.50000E-02 0.00000E+00
 -1       915 2.18750E-02 2.50000E-02 0.00000E+00
 -1       916 2.29167E-02 2.50000E-02 0.00000E+00
 -1       917 2.39583E-02 2.50000E-02 0.00000E+00
 -1       918 2.50000E-02 2.50000E-02 0.00000E+00
 -1       919 2.60417E-02 2.50000E-02 0.00000E+00
 -1       920 2.70833E-02 2.50000E-02 0.00000E+00
 -1       921 2.81250E-02 2.50000E-02 0.00000E+00
 -1       922 2.91667E-02 2.50000E-02 0.00000E+00
 -1       923 3.02083E-02 2.50000E-02 0.00000E+00
 -1       924 3.12500E-02 2.50000E-02 0.00000E+00
 -1       925 3.22917E-02 2.50000E-02 0.00000E+00
 -1       926 3.43750E-02 2.50000E-02 0.00000E+00
 -1       927 3.54167E-02 2.50000E-02 0.00000E+00
 -1       928 3.64583E-02 2.50000E-02 0.00000E+00
 -1       929 3.75000E-02 2.50000E-02 0.00000E+00
 -1       930 3.85417E-02 2.50000E-02 0.00000E+00
 -1       931 3.95833E-02 2.50000E-02 0.00000E+00
 -1       932 4.06250E-02 2.50000E-02 0.00000E+00
 -1       933 4.16667E-02 2.50000E-02 0.00000E+00
 -1       934 4.27083E-02 2.50000E-02 0.00000E+00
 -1       935 4.37500E-02 2.50000E-02 0.00000E+00
 -1       936 4.47917E-02 2.50000E-02 0.00000E+00
 -1       937 4.58333E-02 2.50000E-02 0.00000E+00
 -1       938 4.68750E-02 2.50000E-02 0.00000E+00
 -1       939 4.79167E-02 2.50000E-02 0.00000E+00
 -1       940 4.89583E-02 2.50000E-02 0.00000E+00
 -1       941 5.10417E-02 2.50000E-02 0.00000E+00
 -1       942 5.20833E-02 2.50000E-02 0.00000E+00
 -1       943 5.31250E-02 2.50000E-02 0.00000E+00
 -1       944 5.41667E-02 2.50000E-02 0.00000E+00
 -1       945 5.52083E-02 2.50000E-02 0.00000E+00
 -1       946 5.62500E-02 2.50000E-02 0.00000E+00
 -1       947 5.72917E-02 2.50000E-02 0.00000E+00
 -1       948 5.83333E-02 2.50000E-02 0.00000E+00
 -1       949 5.93750E-02 2.50000E-02 0.00000E+00
 -1       950 6.04167E-02 2.50000E-02 0.00000E+00
 -1       951 6.14583E-02 2.50000E-02 0.00000E+00
 -1       952 6.25000E-02 2.50000E-02 0.00000E+00
 -1       953 6.35417E-02 2.50000E-02 0.00000E+00
 -1       954 6.45833E-02 2.50000E-02 0.00000E+00
 -1       955 6.56250E-02 2.50000E-02 0.00000E+00
 -1       956 6.77083E-02 2.50000E-02 0.00000E+00
 -1       957 6.87500E-02 2.50000E-02 0.00000E+00
 -1       958 6.97917E-02 2.50000E-02 0.00000E+00
 -1       959 7.08333E-02 2.50000E-02 0.00000E+00
 -1       960 7.18750E-02 2.50000E-02 0.00000E+00
 -1       961 7.29167E-02 2.50000E-02 0.00000E+00
 -1       962 7.39583E-02 2.50000E-02 0.00000E+00
 -1       963 7.50000E-02 2.50000E-02 0.00000E+00
 -1       964 7.60417E-02 2.50000E-02 0.00000E+00
 -1       965 7.70833E-02 2.50000E-02 0.00000E+00
 -1       966 7.81250E-02 2.50000E-02 0.00000E+00
 -1       967 7.91667E-02 2.50000E-02 0.00000E+00
 -1       968 8.02083E-02 2.50000E-02 0.00000E+00
 -1       969 8.12500E-02 2.50000E-02 0.00000E+00
 -1       970 8.22917E-02 2.50000E-02 0.00000E+00
 -1       971 8.43750E-02 2.50000E-02 0.00000E+00
 -1       972 8.54167E-02 2.50000E-02 0.00000E+00
 -1       973 8.64583E-02 2.50000E-02 0.00000E+00
 -1       974 8.75000E-02 2.50000E-02 0.00000E+00
 -1       975 8.85417E-02 2.50000E-02 0.00000E+00
 -1       976 8.95833E-02 2.50000E-02 0.00000E+00
 -1       977 9.06250E-02 2.50000E-02 0.00000E+00
 -1       978 9.16667E-02 2.50000E-02 0.00000E+00
 -1       979 9.27083E-02 2.50000E-02 0.00000E+00
 -1       980 9.37500E-02 2.50000E-02 0.00000E+00
 -1       981 9.47917E-02 2.50000E-02 0.00000E+00
 -1       982 9.58333E-02 2.50000E-02 0.00000E+00
 -1       983 9.68750E-02 2.50000E-02 0.00000E+00
 -1       984 9.79167E-02 2.50000E-02 0.00000E+00
 -1       985 9.89583E-02 2.50000E-02 0.00000E+00
 -3
    3C                           440                                     1
 -1         1   12    0    1
 -2         1        37        36
 -1         2   12    0    1
 -2        37        39        38
 -1         3   12    0    1
 -2        39        41        40
 -1         4   12    0    1
 -2        41        43        42
 -1         5   12    0    1
 -2        43        45        44
 -1         6   12    0    1
 -2        45        47        46
 -1         7   12    0    1
 -2        47        49        48
 -1         8   12    0    1
 -2        49         2        50
 -1         9   12    0    1
 -2         1        52        51
 -1        10   12    0    1
 -2        52        54        53
 -1        11   12    0    1
 -2        54         8        55
 -1        12   12    0    1
 -2         1        57        56
 -1        13   12    0    1
 -2        57        59        58
 -1        14   12    0    1
 -2        59        61        60
 -1        15   12    0    1
 -2        61        63        62
 -1        16   12    0    1
 -2        63        65        64
 -1        17   12    0    1
 -2        65        67        66
 -1        18   12    0    1
 -2        67        69        68
 -1        19   12    0    1
 -2        69         9        70
 -1        20   12    0    1
 -2         2        72        71
 -1        21   12    0    1
 -2        72        74        73
 -1        22   12    0    1
 -2        74        76        75
 -1        23   12    0    1
 -2        76        78        77
 -1        24   12    0    1
 -2        78        80        79
 -1        25   12    0    1
 -2        80        82        81
 -1        26   12    0    1
 -2        82        84        83
 -1        27   12    0    1
 -2        84         3        85
 -1        28   12    0    1
 -2         2        87        86
 -1        29   12    0    1
 -2        87        89        88
 -1        30   12    0    1
 -2        89         9        90
 -1        31   12    0    1
 -2         2        92        91
 -1        32   12    0    1
 -2        92        94        93
 -1        33   12    0    1
 -2        94        96        95
 -1        34   12    0    1
 -2        96        98        97
 -1        35   12    0    1
 -2        98       100        99
 -1        36   12    0    1
 -2       100       102       101
 -1        37   12    0    1
 -2       102       104       103
 -1        38   12    0    1
 -2       104        10       105
 -1        39   12    0    1
 -2         3       107       106
 -1        40   12    0    1
 -2       107       109       108
 -1        41   12    0    1
 -2       109       111       110
 -1        42   12    0    1
 -2       111       113       112
 -1        43   12    0    1
 -2       113       115       114
 -1        44   12    0    1
 -2       115       117       116
 -1        45   12    0    1
 -2       117       119       118
 -1        46   12    0    1
 -2       119         4       120
 -1        47   12    0    1
 -2         3       122       121
 -1        48   12    0    1
 -2       122       124       123
 -1        49   12    0    1
 -2       124        10       125
 -1        50   12    0    1
 -2         3       127       126
 -1        51   12    0    1
 -2       127       129       128
 -1        52   12    0    1
 -2       129       131       130
 -1        53   12    0    1
 -2       131       133       132
 -1        54   12    0    1
 -2       133       135       134
 -1        55   12    0    1
 -2       135       137       136
 -1        56   12    0    1
 -2       137       139       138
 -1        57   12    0    1
 -2       139        11       140
 -1        58   12    0    1
 -2         4       142       141
 -1        59   12    0    1
 -2       142       144       143
 -1        60   12    0    1
 -2       144       146       145
 -1        61   12    0    1
 -2       146       148       147
 -1        62   12    0    1
 -2       148       150       149
 -1        63   12    0    1
 -2       150       152       151
 -1        64   12    0    1
 -2       152       154       153
 -1        65   12    0    1
 -2       154         5       155
 -1        66   12    0    1
 -2         4       157       156
 -1        67   12    0    1
 -2       157       159       158
 -1        68   12    0    1
 -2       159        11       160
 -1        69   12    0    1
 -2         4       162       161
 -1        70   12    0    1
 -2       162       164       163
 -1        71   12    0    1
 -2       164       166       165
 -1        72   12    0    1
 -2       166       168       167
 -1        73   12    0    1
 -2       168       170       169
 -1        74   12    0    1
 -2       170       172       171
 -1        75   12    0    1
 -2       172       174       173
 -1        76   12    0    1
 -2       174        12       175
 -1        77   12    0    1
 -2         5       192       191
 -1        78   12    0    1
 -2       192       194       193
 -1        79   12    0    1
 -2       194        12       195
 -1        80   12    0    1
 -2         8       252       251
 -1        81   12    0    1
 -2       252       254       253
 -1        82   12    0    1
 -2       254       256       255
 -1        83   12    0    1
 -2       256       258       257
 -1        84   12    0    1
 -2       258       260       259
 -1        85   12    0    1
 -2       260       262       261
 -1        86   12    0    1
 -2       262       264       263
 -1        87   12    0    1
 -2       264         9       265
 -1        88   12    0    1
 -2         8       267       266
 -1        89   12    0    1
 -2       267       269       268
 -1        90   12    0    1
 -2       269        15       270
 -1        91   12    0    1
 -2         8       272       271
 -1        92   12    0    1
 -2       272       274       273
 -1        93   12    0    1
 -2       274       276       275
 -1        94   12    0    1
 -2       276       278       277
 -1        95   12    0    1
 -2       278       280       279
 -1        96   12    0    1
 -2       280       282       281
 -1        97   12    0    1
 -2       282       284       283
 -1        98   12    0    1
 -2       284        16       285
 -1        99   12    0    1
 -2         9       287       286
 -1       100   12    0    1
 -2       287       289       288
 -1       101   12    0    1
 -2       289       291       290
 -1       102   12    0    1
 -2       291       293       292
 -1       103   12    0    1
 -2       293       295       294
 -1       104   12    0    1
 -2       295       297       296
 -1       105   12    0    1
 -2       297       299       298
 -1       106   12    0    1
 -2       299        10       300
 -1       107   12    0    1
 -2         9       302       301
 -1       108   12    0    1
 -2       302       304       303
 -1       109   12    0    1
 -2       304        16       305
 -1       110   12    0    1
 -2         9       307       306
 -1       111   12    0    1
 -2       307       309       308
 -1       112   12    0    1
 -2       309       311       310
 -1       113   12    0    1
 -2       311       313       312
 -1       114   12    0    1
 -2       313       315       314
 -1       115   12    0    1
 -2       315       317       316
 -1       116   12    0    1
 -2       317       319       318
 -1       117   12    0    1
 -2       319        17       320
 -1       118   12    0    1
 -2        10       322       321
 -1       119   12    0    1
 -2       322       324       323
 -1       120   12    0    1
 -2       324       326       325
 -1       121   12    0    1
 -2       326       328       327
 -1       122   12    0    1
 -2       328       330       329
 -1       123   12    0    1
 -2       330       332       331
 -1       124   12    0    1
 -2       332       334       333
 -1       125   12    0    1
 -2       334        11       335
 -1       126   12    0    1
 -2        10       337       336
 -1       127   12    0    1
 -2       337       339       338
 -1       128   12    0    1
 -2       339        17       340
 -1       129   12    0    1
 -2        10       342       341
 -1       130   12    0    1
 -2       342       344       343
 -1       131   12    0    1
 -2       344       346       345
 -1       132   12    0    1
 -2       346       348       347
 -1       133   12    0    1
 -2       348       350       349
 -1       134   12    0    1
 -2       350       352       351
 -1       135   12    0    1
 -2       352       354       353
 -1       136   12    0    1
 -2       354        18       355
 -1       137   12    0    1
 -2        11       357       356
 -1       138   12    0    1
 -2       357       359       358
 -1       139   12    0    1
 -2       359       361       360
 -1       140   12    0    1
 -2       361       363       362
 -1       141   12    0    1
 -2       363       365       364
 -1       142   12    0    1
 -2       365       367       366
 -1       143   12    0    1
 -2       367       369       368
 -1       144   12    0    1
 -2       369        12       370
 -1       145   12    0    1
 -2        11       372       371
 -1       146   12    0    1
 -2       372       374       373
 -1       147   12    0    1
 -2       374        18       375
 -1       148   12    0    1
 -2        11       377       376
 -1       149   12    0    1
 -2       377       379       378
 -1       150   12    0    1
 -2       379       381       380
 -1       151   12    0    1
 -2       381       383       382
 -1       152   12    0    1
 -2       383       385       384
 -1       153   12    0    1
 -2       385       387       386
 -1       154   12    0    1
 -2       387       389       388
 -1       155   12    0    1
 -2       389        19       390
 -1       156   12    0    1
 -2        12       407       406
 -1       157   12    0    1
 -2       407       409       408
 -1       158   12    0    1
 -2       409        19       410
 -1       159   12    0    1
 -2        15       467       466
 -1       160   12    0    1
 -2       467       469       468
 -1       161   12    0    1
 -2       469       471       470
 -1       162   12    0    1
 -2       471       473       472
 -1       163   12    0    1
 -2       473       475       474
 -1       164   12    0    1
 -2       475       477       476
 -1       165   12    0    1
 -2       477       479       478
 -1       166   12    0    1
 -2       479        16       480
 -1       167   12    0    1
 -2        15       482       481
 -1       168   12    0    1
 -2       482       484       483
 -1       169   12    0    1
 -2       484        22       485
 -1       170   12    0    1
 -2        15       487       486
 -1       171   12    0    1
 -2       487       489       488
 -1       172   12    0    1
 -2       489       491       490
 -1       173   12    0    1
 -2       491       493       492
 -1       174   12    0    1
 -2       493       495       494
 -1       175   12    0    1
 -2       495       497       496
 -1       176   12    0    1
 -2       497       499       498
 -1       177   12    0    1
 -2       499        23       500
 -1       178   12    0    1
 -2        16       502       501
 -1       179   12    0    1
 -2       502       504       503
 -1       180   12    0    1
 -2       504       506       505
 -1       181   12    0    1
 -2       506       508       507
 -1       182   12    0    1
 -2       508       510       509
 -1       183   12    0    1
 -2       510       512       511
 -1       184   12    0    1
 -2       512       514       513
 -1       185   12    0    1
 -2       514        17       515
 -1       186   12    0    1
 -2        16       517       516
 -1       187   12    0    1
 -2       517       519       518
 -1       188   12    0    1
 -2       519        23       520
 -1       189   12    0    1
 -2        16       522       521
 -1       190   12    0    1
 -2       522       524       523
 -1       191   12    0    1
 -2       524       526       525
 -1       192   12    0    1
 -2       526       528       527
 -1       193   12    0    1
 -2       528       530       529
 -1       194   12    0    1
 -2       530       532       531
 -1       195   12    0    1
 -2       532       534       533
 -1       196   12    0    1
 -2       534        24       535
 -1       197   12    0    1
 -2        17       537       536
 -1       198   12    0    1
 -2       537       539       538
 -1       199   12    0    1
 -2       539       541       540
 -1       200   12    0    1
 -2       541       543       542
 -1       201   12    0    1
 -2       543       545       544
 -1       202   12    0    1
 -2       545       547       546
 -1       203   12    0    1
 -2       547       549       548
 -1       204   12    0    1
 -2       549        18       550
 -1       205   12    0    1
 -2        17       552       551
 -1       206   12    0    1
 -2       552       554       553
 -1       207   12    0    1
 -2       554        24       555
 -1       208   12    0    1
 -2        17       557       556
 -1       209   12    0    1
 -2       557       559       558
 -1       210   12    0    1
 -2       559       561       560
 -1       211   12    0    1
 -2       561       563       562
 -1       212   12    0    1
 -2       563       565       564
 -1       213   12    0    1
 -2       565       567       566
 -1       214   12    0    1
 -2       567       569       568
 -1       215   12    0    1
 -2       569        25       570
 -1       216   12    0    1
 -2        18       572       571
 -1       217   12    0    1
 -2       572       574       573
 -1       218   12    0    1
 -2       574       576       575
 -1       219   12    0    1
 -2       576       578       577
 -1       220   12    0    1
 -2       578       580       579
 -1       221   12    0    1
 -2       580       582       581
 -1       222   12    0    1
 -2       582       584       583
 -1       223   12    0    1
 -2       584        19       585
 -1       224   12    0    1
 -2        18       587       586
 -1       225   12    0    1
 -2       587       589       588
 -1       226   12    0    1
 -2       589        25       590
 -1       227   12    0    1
 -2        18       592       591
 -1       228   12    0    1
 -2       592       594       593
 -1       229   12    0    1
 -2       594       596       595
 -1       230   12    0    1
 -2       596       598       597
 -1       231   12    0    1
 -2       598       600       599
 -1       232   12    0    1
 -2       600       602       601
 -1       233   12    0    1
 -2       602       604       603
 -1       234   12    0    1
 -2       604        26       605
 -1       235   12    0    1
 -2        19       607       606
 -1       236   12    0    1
 -2       607       609       608
 -1       237   12    0    1
 -2       609       611       610
 -1       238   12    0    1
 -2       611       613       612
 -1       239   12    0    1
 -2       613       615       614
 -1       240   12    0    1
 -2       615       617       616
 -1       241   12    0    1
 -2       617       619       618
 -1       242   12    0    1
 -2       619        20       620
 -1       243   12    0    1
 -2        19       622       621
 -1       244   12    0    1
 -2       622       624       623
 -1       245   12    0    1
 -2       624        26       625
 -1       246   12    0    1
 -2        19       627       626
 -1       247   12    0    1
 -2       627       629       628
 -1       248   12    0    1
 -2       629       631       630
 -1       249   12    0    1
 -2       631       633       632
 -1       250   12    0    1
 -2       633       635       634
 -1       251   12    0    1
 -2       635       637       636
 -1       252   12    0    1
 -2       637       639       638
 -1       253   12    0    1
 -2       639        27       640
 -1       254   12    0    1
 -2        20       642       641
 -1       255   12    0    1
 -2       642       644       643
 -1       256   12    0    1
 -2       644       646       645
 -1       257   12    0    1
 -2       646       648       647
 -1       258   12    0    1
 -2       648       650       649
 -1       259   12    0    1
 -2       650       652       651
 -1       260   12    0    1
 -2       652       654       653
 -1       261   12    0    1
 -2       654        21       655
 -1       262   12    0    1
 -2        20       657       656
 -1       263   12    0    1
 -2       657       659       658
 -1       264   12    0    1
 -2       659        27       660
 -1       265   12    0    1
 -2        20       662       661
 -1       266   12    0    1
 -2       662       664       663
 -1       267   12    0    1
 -2       664       666       665
 -1       268   12    0    1
 -2       666       668       667
 -1       269   12    0    1
 -2       668       670       669
 -1       270   12    0    1
 -2       670       672       671
 -1       271   12    0    1
 -2       672       674       673
 -1       272   12    0    1
 -2       674        28       675
 -1       273   12    0    1
 -2        21       677       676
 -1       274   12    0    1
 -2       677       679       678
 -1       275   12    0    1
 -2       679        28       680
 -1       276   12    0    1
 -2        22       682       681
 -1       277   12    0    1
 -2       682       684       683
 -1       278   12    0    1
 -2       684       686       685
 -1       279   12    0    1
 -2       686       688       687
 -1       280   12    0    1
 -2       688       690       689
 -1       281   12    0    1
 -2       690       692       691
 -1       282   12    0    1
 -2       692       694       693
 -1       283   12    0    1
 -2       694        23       695
 -1       284   12    0    1
 -2        22       697       696
 -1       285   12    0    1
 -2       697       699       698
 -1       286   12    0    1
 -2       699        29       700
 -1       287   12    0    1
 -2        22       702       701
 -1       288   12    0    1
 -2       702       704       703
 -1       289   12    0    1
 -2       704       706       705
 -1       290   12    0    1
 -2       706       708       707
 -1       291   12    0    1
 -2       708       710       709
 -1       292   12    0    1
 -2       710       712       711
 -1       293   12    0    1
 -2       712       714       713
 -1       294   12    0    1
 -2       714        30       715
 -1       295   12    0    1
 -2        23       717       716
 -1       296   12    0    1
 -2       717       719       718
 -1       297   12    0    1
 -2       719       721       720
 -1       298   12    0    1
 -2       721       723       722
 -1       299   12    0    1
 -2       723       725       724
 -1       300   12    0    1
 -2       725       727       726
 -1       301   12    0    1
 -2       727       729       728
 -1       302   12    0    1
 -2       729        24       730
 -1       303   12    0    1
 -2        23       732       731
 -1       304   12    0    1
 -2       732       734       733
 -1       305   12    0    1
 -2       734        30       735
 -1       306   12    0    1
 -2        23       737       736
 -1       307   12    0    1
 -2       737       739       738
 -1       308   12    0    1
 -2       739       741       740
 -1       309   12    0    1
 -2       741       743       742
 -1       310   12    0    1
 -2       743       745       744
 -1       311   12    0    1
 -2       745       747       746
 -1       312   12    0    1
 -2       747       749       748
 -1       313   12    0    1
 -2       749        31       750
 -1       314   12    0    1
 -2        24       752       751
 -1       315   12    0    1
 -2       752       754       753
 -1       316   12    0    1
 -2       754       756       755
 -1       317   12    0    1
 -2       756       758       757
 -1       318   12    0    1
 -2       758       760       759
 -1       319   12    0    1
 -2       760       762       761
 -1       320   12    0    1
 -2       762       764       763
 -1       321   12    0    1
 -2       764        25       765
 -1       322   12    0    1
 -2        24       767       766
 -1       323   12    0    1
 -2       767       769       768
 -1       324   12    0    1
 -2       769        31       770
 -1       325   12    0    1
 -2        24       772       771
 -1       326   12    0    1
 -2       772       774       773
 -1       327   12    0    1
 -2       774       776       775
 -1       328   12    0    1
 -2       776       778       777
 -1       329   12    0    1
 -2       778       780       779
 -1       330   12    0    1
 -2       780       782       781
 -1       331   12    0    1
 -2       782       784       783
 -1       332   12    0    1
 -2       784        32       785
 -1       333   12    0    1
 -2        25       787       786
 -1       334   12    0    1
 -2       787       789       788
 -1       335   12    0    1
 -2       789       791       790
 -1       336   12    0    1
 -2       791       793       792
 -1       337   12    0    1
 -2       793       795       794
 -1       338   12    0    1
 -2       795       797       796
 -1       339   12    0    1
 -2       797       799       798
 -1       340   12    0    1
 -2       799        26       800
 -1       341   12    0    1
 -2        25       802       801
 -1       342   12    0    1
 -2       802       804       803
 -1       343   12    0    1
 -2       804        32       805
 -1       344   12    0    1
 -2        25       807       806
 -1       345   12    0    1
 -2       807       809       808
 -1       346   12    0    1
 -2       809       811       810
 -1       347   12    0    1
 -2       811       813       812
 -1       348   12    0    1
 -2       813       815       814
 -1       349   12    0    1
 -2       815       817       816
 -1       350   12    0    1
 -2       817       819       818
 -1       351   12    0    1
 -2       819        33       820
 -1       352   12    0    1
 -2        26       822       821
 -1       353   12    0    1
 -2       822       824       823
 -1       354   12    0    1
 -2       824       826       825
 -1       355   12    0    1
 -2       826       828       827
 -1       356   12    0    1
 -2       828       830       829
 -1       357   12    0    1
 -2       830       832       831
 -1       358   12    0    1
 -2       832       834       833
 -1       359   12    0    1
 -2       834        27       835
 -1       360   12    0    1
 -2        26       837       836
 -1       361   12    0    1
 -2       837       839       838
 -1       362   12    0    1
 -2       839        33       840
 -1       363   12    0    1
 -2        26       842       841
 -1       364   12    0    1
 -2       842       844       843
 -1       365   12    0    1
 -2       844       846       845
 -1       366   12    0    1
 -2       846       848       847
 -1       367   12    0    1
 -2       848       850       849
 -1       368   12    0    1
 -2       850       852       851
 -1       369   12    0    1
 -2       852       854       853
 -1       370   12    0    1
 -2       854        34       855
 -1       371   12    0    1
 -2        27       857       856
 -1       372   12    0    1
 -2       857       859       858
 -1       373   12    0    1
 -2       859       861       860
 -1       374   12    0    1
 -2       861       863       862
 -1       375   12    0    1
 -2       863       865       864
 -1       376   12    0    1
 -2       865       867       866
 -1       377   12    0    1
 -2       867       869       868
 -1       378   12    0    1
 -2       869        28       870
 -1       379   12    0    1
 -2        27       872       871
 -1       380   12    0    1
 -2       872       874       873
 -1       381   12    0    1
 -2       874        34       875
 -1       382   12    0    1
 -2        27       877       876
 -1       383   12    0    1
 -2       877       879       878
 -1       384   12    0    1
 -2       879       881       880
 -1       385   12    0    1
 -2       881       883       882
 -1       386   12    0    1
 -2       883       885       884
 -1       387   12    0    1
 -2       885       887       886
 -1       388   12    0    1
 -2       887       889       888
 -1       389   12    0    1
 -2       889        35       890
 -1       390   12    0    1
 -2        28       892       891
 -1       391   12    0    1
 -2       892       894       893
 -1       392   12    0    1
 -2       894        35       895
 -1       393   12    0    1
 -2        29       897       896
 -1       394   12    0    1
 -2       897       899       898
 -1       395   12    0    1
 -2       899       901       900
 -1       396   12    0    1
 -2       901       903       902
 -1       397   12    0    1
 -2       903       905       904
 -1       398   12    0    1
 -2       905       907       906
 -1       399   12    0    1
 -2       907       909       908
 -1       400   12    0    1
 -2       909        30       910
 -1       401   12    0    1
 -2        30       912       911
 -1       402   12    0    1
 -2       912       914       913
 -1       403   12    0    1
 -2       914       916       915
 -1       404   12    0    1
 -2       916       918       917
 -1       405   12    0    1
 -2       918       920       919
 -1       406   12    0    1
 -2       920       922       921
 -1       407   12    0    1
 -2       922       924       923
 -1       408   12    0    1
 -2       924        31       925
 -1       409   12    0    1
 -2        31       927       926
 -1       410   12    0    1
 -2       927       929       928
 -1       411   12    0    1
 -2       929       931       930
 -1       412   12    0    1
 -2       931       933       932
 -1       413   12    0    1
 -2       933       935       934
 -1       414   12    0    1
 -2       935       937       936
 -1       415   12    0    1
 -2       937       939       938
 -1       416   12    0    1
 -2       939        32       940
 -1       417   12    0    1
 -2        32       942       941
 -1       418   12    0    1
 -2       942       944       943
 -1       419   12    0    1
 -2       944       946       945
 -1       420   12    0    1
 -2       946       948       947
 -1       421   12    0    1
 -2       948       950       949
 -1       422   12    0    1
 -2       950       952       951
 -1       423   12    0    1
 -2       952       954       953
 -1       424   12    0    1
 -2       954        33       955
 -1       425   12    0    1
 -2        33       957       956
 -1       426   12    0    1
 -2       957       959       958
 -1       427   12    0    1
 -2       959       961       960
 -1       428   12    0    1
 -2       961       963       962
 -1       429   12    0    1
 -2       963       965       964
 -1       430   12    0    1
 -2       965       967       966
 -1       431   12    0    1
 -2       967       969       968
 -1       432   12    0    1
 -2       969        34       970
 -1       433   12    0    1
 -2        34       972       971
 -1       434   12    0    1
 -2       972       974       973
 -1       435   12    0    1
 -2       974       976       975
 -1       436   12    0    1
 -2       976       978       977
 -1       437   12    0    1
 -2       978       980       979
 -1       438   12    0    1
 -2       980       982       981
 -1       439   12    0    1
 -2       982       984       983
 -1       440   12    0    1
 -2       984        35       985
 -3
    1PSTEP                         1           1           1          
  100CL  101 1.000000000         841                     0    1           1
 -4  DISP        4    1
 -5  D1          1    2    1    0
 -5  D2          1    2    2    0
 -5  D3          1    2    3    0
 -5  ALL         1    2    0    0    1ALL
 -1         1 6.05113E-05 0.00000E+00 0.00000E+00
 -1         2 4.87650E-05 0.00000E+00 0.00000E+00
 -1         3 4.47905E-05 0.00000E+00 0.00000E+00
 -1         4 4.41241E-05 0.00000E+00 0.00000E+00
 -1         5 4.40907E-05 0.00000E+00 0.00000E+00
 -1         8 3.75652E-05-1.43346E-06 0.00000E+00
 -1         9 4.01915E-05 1.14443E-06 0.00000E+00
 -1        10 4.03066E-05-3.44776E-07 0.00000E+00
 -1        11 4.13352E-05-5.70828E-08 0.00000E+00
 -1        12 4.24467E-05 3.29409E-06 0.00000E+00
 -1        15 1.90366E-05-1.77131E-06 0.00000E+00
 -1        16 2.43074E-05 1.38713E-06 0.00000E+00
 -1        17 2.72428E-05-7.34694E-07 0.00000E+00
 -1        18 3.17714E-05-2.09895E-07 0.00000E+00
 -1        19 3.62810E-05 6.52045E-06 0.00000E+00
 -1        20 3.76987E-05 5.98038E-05 0.00000E+00
 -1        21 3.76572E-05 1.16512E-04 0.00000E+00
 -1        22 8.62215E-06-1.12972E-06 0.00000E+00
 -1        23 1.11290E-05 1.74061E-06 0.00000E+00
 -1        24 1.32460E-05-9.54093E-07 0.00000E+00
 -1        25 1.87579E-05-6.45672E-08 0.00000E+00
 -1        26 2.29918E-05 8.62397E-06 0.00000E+00
 -1        27 2.01416E-05 5.90588E-05 0.00000E+00
 -1        28 1.86835E-05 1.15830E-04 0.00000E+00
 -1        29 0.00000E+00 0.00000E+00 0.00000E+00
 -1        30 4.24315E-06 2.13954E-06 0.00000E+00
 -1        31 5.18604E-06-2.02520E-07 0.00000E+00
 -1        32 0.00000E+00 0.00000E+00 0.00000E+00
 -1        33 6.85275E-06 1.04754E-05 0.00000E+00
 -1        34 4.17571E-06 5.89074E-05 0.00000E+00
 -1        35 1.52542E-06 1.15442E-04 0.00000E+00
 -1        36 5.97820E-05 5.29396E-23-2.64698E-23
 -1        37 5.90466E-05 3.11020E-21 1.32349E-23
 -1        38 5.83108E-05-2.11096E-21-2.64698E-23
 -1        39 5.75743E-05-8.26519E-21-1.32349E-23
 -1        40 5.68376E-05-1.46047E-20 2.64698E-23
 -1        41 5.61007E-05-1.73708E-20 1.32349E-23
 -1        42 5.53639E-05-2.02163E-20-2.64698E-23
 -1        43 5.46270E-05-1.95479E-20-1.32349E-23
 -1        44 5.38901E-05-1.10776E-20 2.64698E-23
 -1        45 5.31533E-05-5.08882E-21 1.32349E-23
 -1        46 5.24167E-05 4.22855E-21 2.64698E-23
 -1        47 5.16805E-05 8.80782E-21 0.00000E+00
 -1        48 5.09449E-05 1.16269E-20 0.00000E+00
 -1        49 5.02115E-05 1.01644E-20-1.32349E-23
 -1        50 4.94791E-05 6.31304E-21 0.00000E+00
 -1        51 5.89386E-05-2.51598E-07 9.92617E-24
 -1        52 5.59440E-05-4.88447E-07 4.96308E-24
 -1        53 5.19141E-05-7.25064E-07 0.00000E+00
 -1        54 4.72443E-05-9.61809E-07-1.65436E-24
 -1        55 4.23301E-05-1.19861E-06-6.61744E-24
 -1        56 5.94539E-05-4.33345E-07 0.00000E+00
 -1        57 5.83837E-05-8.99658E-07 1.32349E-23
 -1        58 5.73144E-05-1.37064E-06 0.00000E+00
 -1        59 5.62365E-05-1.82641E-06 0.00000E+00
 -1        60 5.51443E-05-2.24575E-06 0.00000E+00
 -1        61 5.40302E-05-2.60829E-06 0.00000E+00
 -1        62 5.28871E-05-2.89381E-06 0.00000E+00
 -1        63 5.17076E-05-3.08250E-06 0.00000E+00
 -1        64 5.04845E-05-3.15484E-06 2.64698E-23
 -1        65 4.92107E-05-3.09181E-06 0.00000E+00
 -1        66 4.78794E-05-2.87482E-06 0.00000E+00
 -1        67 4.64843E-05-2.48581E-06 1.32349E-23
 -1        68 4.50192E-05-1.90733E-06 0.00000E+00
 -1        69 4.34812E-05-1.12158E-06-1.32349E-23
 -1        70 4.18613E-05-1.13793E-07-2.64698E-23
 -1        71 4.85127E-05 7.13030E-22 0.00000E+00
 -1        72 4.82633E-05-1.00916E-21 0.00000E+00
 -1        73 4.80141E-05-1.18452E-20-6.61744E-24
 -1        74 4.77653E-05-2.03404E-20 0.00000E+00
 -1        75 4.75165E-05-2.55202E-20 0.00000E+00
 -1        76 4.72678E-05-2.78809E-20 0.00000E+00
 -1        77 4.70191E-05-2.63854E-20 0.00000E+00
 -1        78 4.67705E-05-2.75319E-20 3.30872E-24
 -1        79 4.65219E-05-2.94228E-20-6.61744E-24
 -1        80 4.62733E-05-3.44223E-20 3.30872E-24
 -1        81 4.60247E-05-3.08605E-20-6.61744E-24
 -1        82 4.57763E-05-2.30552E-20 3.30872E-24
 -1        83 4.55280E-05-1.62971E-20 0.00000E+00
 -1        84 4.52804E-05-1.03149E-20 0.00000E+00
 -1        85 4.50330E-05-4.09620E-21-6.61744E-24
 -1        86 4.83186E-05 1.75418E-07-1.24077E-24
 -1        87 4.72887E-05 3.72640E-07 0.00000E+00
 -1        88 4.58176E-05 5.70055E-07 0.00000E+00
 -1        89 4.40489E-05 7.67612E-07 0.00000E+00
 -1        90 4.21259E-05 9.64705E-07 0.00000E+00
 -1        91 4.83107E-05-2.00956E-07 0.00000E+00
 -1        92 4.78610E-05-4.35181E-07 0.00000E+00
 -1        93 4.74182E-05-6.88455E-07 0.00000E+00
 -1        94 4.69772E-05-9.49101E-07 6.61744E-24
 -1        95 4.65343E-05-1.20501E-06 1.32349E-23
 -1        96 4.60849E-05-1.44430E-06-6.61744E-24
 -1        97 4.56248E-05-1.65508E-06-1.32349E-23
 -1        98 4.51496E-05-1.82557E-06 0.00000E+00
 -1        99 4.46549E-05-1.94401E-06 1.32349E-23
 -1       100 4.41364E-05-1.99875E-06 0.00000E+00
 -1       101 4.35897E-05-1.97822E-06-1.32349E-23
 -1       102 4.30107E-05-1.87095E-06-6.61744E-24
 -1       103 4.23954E-05-1.66560E-06-1.32349E-23
 -1       104 4.17407E-05-1.35064E-06 0.00000E+00
 -1       105 4.10414E-05-9.15458E-07 1.32349E-23
 -1       106 4.47442E-05 5.18022E-21 0.00000E+00
 -1       107 4.47019E-05 1.07542E-20-8.27181E-25
 -1       108 4.46598E-05 1.52648E-20 1.65436E-24
 -1       109 4.46182E-05 1.47503E-20 0.00000E+00
 -1       110 4.45767E-05 1.63008E-20 1.65436E-24
 -1       111 4.45354E-05 1.27626E-20 0.00000E+00
 -1       112 4.44940E-05 1.78348E-20 1.65436E-24
 -1       113 4.44527E-05 1.87365E-20 0.00000E+00
 -1       114 4.44114E-05 2.29774E-20-1.65436E-24
 -1       115 4.43701E-05 2.31900E-20 8.27181E-25
 -1       116 4.43289E-05 1.86198E-20 0.00000E+00
 -1       117 4.42876E-05 1.10573E-20-8.27181E-25
 -1       118 4.42464E-05 5.87257E-21-8.27181E-25
 -1       119 4.42053E-05-1.80325E-22 4.13590E-25
 -1       120 4.41642E-05-3.37903E-22-8.27181E-25
 -1       121 4.45349E-05-5.91450E-08 0.00000E+00
 -1       122 4.39623E-05-1.15034E-07-8.27181E-25
 -1       123 4.31625E-05-1.71019E-07 0.00000E+00
 -1       124 4.22262E-05-2.27264E-07 0.00000E+00
 -1       125 4.12441E-05-2.83691E-07 0.00000E+00
 -1       126 4.46133E-05-1.00715E-07 6.61744E-24
 -1       127 4.44481E-05-2.40922E-07 3.30872E-24
 -1       128 4.42932E-05-4.08754E-07 0.00000E+00
 -1       129 4.41441E-05-5.93180E-07-3.30872E-24
 -1       130 4.39970E-05-7.83012E-07-6.61744E-24
 -1       131 4.38476E-05-9.67127E-07 3.30872E-24
 -1       132 4.36920E-05-1.13441E-06 0.00000E+00
 -1       133 4.35259E-05-1.27377E-06-3.30872E-24
 -1       134 4.33451E-05-1.37411E-06 0.00000E+00
 -1       135 4.31456E-05-1.42438E-06-3.30872E-24
 -1       136 4.29233E-05-1.41356E-06 0.00000E+00
 -1       137 4.26740E-05-1.33063E-06 3.30872E-24
 -1       138 4.23938E-05-1.16465E-06 0.00000E+00
 -1       139 4.20792E-05-9.04535E-07 0.00000E+00
 -1       140 4.17254E-05-5.39635E-07 0.00000E+00
 -1       141 4.41194E-05-2.36835E-21 4.13590E-25
 -1       142 4.41155E-05-4.02139E-22-1.03398E-25
 -1       143 4.41116E-05 6.03382E-21 0.00000E+00
 -1       144 4.41077E-05 1.06847E-20 0.00000E+00
 -1       145 4.41039E-05 1.51952E-20 0.00000E+00
 -1       146 4.41002E-05 1.92167E-20-5.16988E-26
 -1       147 4.40964E-05 1.72035E-20 1.03398E-25
 -1       148 4.40927E-05 1.52001E-20 0.00000E+00
 -1       149 4.40890E-05 1.38268E-20-2.58494E-26
 -1       150 4.40854E-05 1.24025E-20 0.00000E+00
 -1       151 4.40819E-05 8.67123E-21 0.00000E+00
 -1       152 4.40787E-05 1.83763E-21 2.06795E-25
 -1       153 4.40761E-05-2.27495E-21-1.65436E-24
 -1       154 4.40753E-05-3.71617E-21-1.65436E-24
 -1       155 4.40753E-05-3.95020E-21 6.61744E-24
 -1       156 4.39866E-05-9.49758E-09 0.00000E+00
 -1       157 4.36631E-05-1.85724E-08 1.03398E-25
 -1       158 4.31946E-05-2.77136E-08 4.13590E-25
 -1       159 4.26228E-05-3.70028E-08 1.03398E-25
 -1       160 4.19891E-05-4.63814E-08 8.27181E-25
 -1       161 4.40958E-05-2.61974E-09-8.27181E-25
 -1       162 4.40604E-05 1.27832E-08 0.00000E+00
 -1       163 4.40174E-05 4.83966E-08 0.00000E+00
 -1       164 4.39660E-05 1.06267E-07 0.00000E+00
 -1       165 4.39056E-05 1.88462E-07 0.00000E+00
 -1       166 4.38352E-05 2.97035E-07 0.00000E+00
 -1       167 4.37541E-05 4.34041E-07-8.27181E-25
 -1       168 4.36617E-05 6.01530E-07-4.13590E-25
 -1       169 4.35570E-05 8.01555E-07 4.13590E-25
 -1       170 4.34395E-05 1.03617E-06 0.00000E+00
 -1       171 4.33083E-05 1.30744E-06 4.13590E-25
 -1       172 4.31630E-05 1.61748E-06 0.00000E+00
 -1       173 4.30028E-05 1.96835E-06 0.00000E+00
 -1       174 4.28285E-05 2.36266E-06 0.00000E+00
 -1       175 4.26381E-05 2.80193E-06 0.00000E+00
 -1       191 4.40381E-05 5.42706E-07 0.00000E+00
 -1       192 4.38933E-05 1.09429E-06-6.61744E-24
 -1       193 4.36589E-05 1.64695E-06-1.32349E-23
 -1       194 4.33376E-05 2.19961E-06 6.61744E-24
 -1       195 4.29325E-05 2.75119E-06 0.00000E+00
 -1       251 3.77084E-05 1.77757E-06 0.00000E+00
 -1       252 3.78703E-05 4.02275E-06 0.00000E+00
 -1       253 3.80348E-05 5.42092E-06-1.86116E-24
 -1       254 3.82020E-05 6.09293E-06 8.27181E-25
 -1       255 3.83700E-05 6.15910E-06-6.61744E-24
 -1       256 3.85384E-05 5.73948E-06 0.00000E+00
 -1       257 3.87067E-05 4.95393E-06 0.00000E+00
 -1       258 3.88750E-05 3.92209E-06 3.30872E-24
 -1       259 3.90431E-05 2.76350E-06 0.00000E+00
 -1       260 3.92111E-05 1.59761E-06 3.30872E-24
 -1       261 3.93791E-05 5.43900E-07 6.61744E-24
 -1       262 3.95470E-05-2.78126E-07 0.00000E+00
 -1       263 3.97144E-05-7.48833E-07 0.00000E+00
 -1       264 3.98800E-05-7.48470E-07 0.00000E+00
 -1       265 4.00443E-05-1.56901E-07 0.00000E+00
 -1       266 3.37175E-05-1.49898E-06 0.00000E+00
 -1       267 3.00390E-05-1.55724E-06 1.65436E-24
 -1       268 2.66308E-05-1.61415E-06 3.30872E-24
 -1       269 2.35940E-05-1.66886E-06 1.65436E-24
 -1       270 2.10295E-05-1.72198E-06 0.00000E+00
 -1       271 3.56814E-05 1.60345E-06 0.00000E+00
 -1       272 3.41102E-05 3.75166E-06 0.00000E+00
 -1       273 3.28324E-05 5.11987E-06-2.64698E-23
 -1       274 3.18060E-05 5.81330E-06 0.00000E+00
 -1       275 3.09922E-05 5.93949E-06-5.29396E-23
 -1       276 3.03500E-05 5.60708E-06-1.32349E-23
 -1       277 2.98384E-05 4.92564E-06-2.64698E-23
 -1       278 2.94162E-05 4.00567E-06 0.00000E+00
 -1       279 2.90417E-05 2.95812E-06-2.64698E-23
 -1       280 2.86733E-05 1.89435E-06 0.00000E+00
 -1       281 2.82696E-05 9.25708E-07-2.64698E-23
 -1       282 2.77892E-05 1.63357E-07 0.00000E+00
 -1       283 2.71907E-05-2.81962E-07 0.00000E+00
 -1       284 2.64352E-05-2.99732E-07 0.00000E+00
 -1       285 2.54794E-05 2.18380E-07 0.00000E+00
 -1       286 4.01879E-05 2.61100E-06-6.61744E-24
 -1       287 4.01944E-05 3.57547E-06 0.00000E+00
 -1       288 4.02017E-05 4.09985E-06 0.00000E+00
 -1       289 4.02104E-05 4.24750E-06 0.00000E+00
 -1       290 4.02193E-05 4.08165E-06 0.00000E+00
 -1       291 4.02285E-05 3.66556E-06 0.00000E+00
 -1       292 4.02376E-05 3.06249E-06 0.00000E+00
 -1       293 4.02467E-05 2.33567E-06 5.16988E-26
 -1       294 4.02558E-05 1.54836E-06 2.06795E-25
 -1       295 4.02648E-05 7.63817E-07 0.00000E+00
 -1       296 4.02738E-05 4.52623E-08 0.00000E+00
 -1       297 4.02828E-05-5.44048E-07 0.00000E+00
 -1       298 4.02915E-05-9.40856E-07 0.00000E+00
 -1       299 4.02994E-05-1.08196E-06 4.13590E-25
 -1       300 4.03069E-05-9.04025E-07 8.27181E-25
 -1       301 3.78515E-05 1.17612E-06 1.65436E-24
 -1       302 3.51597E-05 1.21835E-06 0.00000E+00
 -1       303 3.22867E-05 1.26170E-06 0.00000E+00
 -1       304 2.94054E-05 1.30555E-06 0.00000E+00
 -1       305 2.66887E-05 1.34918E-06 0.00000E+00
 -1       306 3.89083E-05 2.35965E-06 0.00000E+00
 -1       307 3.77802E-05 3.09040E-06-1.32349E-23
 -1       308 3.68072E-05 3.40604E-06-2.64698E-23
 -1       309 3.59634E-05 3.36926E-06 0.00000E+00
 -1       310 3.52267E-05 3.04480E-06 0.00000E+00
 -1       311 3.45730E-05 2.49767E-06 0.00000E+00
 -1       312 3.39781E-05 1.79336E-06-2.64698E-23
 -1       313 3.34172E-05 9.97780E-07 0.00000E+00
 -1       314 3.28657E-05 1.77055E-07 0.00000E+00
 -1       315 3.22990E-05-6.02610E-07 0.00000E+00
 -1       316 3.16923E-05-1.27513E-06-2.64698E-23
 -1       317 3.10214E-05-1.77466E-06 0.00000E+00
 -1       318 3.02619E-05-2.03575E-06 0.00000E+00
 -1       319 2.93918E-05-1.99296E-06 0.00000E+00
 -1       320 2.83849E-05-1.58297E-06-1.32349E-23
 -1       321 4.03598E-05 3.21599E-07 0.00000E+00
 -1       322 4.04232E-05 7.53625E-07 0.00000E+00
 -1       323 4.04873E-05 9.82595E-07 4.13590E-25
 -1       324 4.05525E-05 1.04039E-06 0.00000E+00
 -1       325 4.06181E-05 9.58791E-07-1.65436E-24
 -1       326 4.06840E-05 7.69582E-07 8.27181E-25
 -1       327 4.07498E-05 5.04519E-07 0.00000E+00
 -1       328 4.08158E-05 1.95348E-07 0.00000E+00
 -1       329 4.08817E-05-1.26193E-07 0.00000E+00
 -1       330 4.09476E-05-4.28374E-07 0.00000E+00
 -1       331 4.10135E-05-6.79456E-07 0.00000E+00
 -1       332 4.10794E-05-8.47690E-07 0.00000E+00
 -1       333 4.11450E-05-9.01315E-07-1.65436E-24
 -1       334 4.12102E-05-8.08564E-07 8.27181E-25
 -1       335 4.12750E-05-5.37593E-07-1.65436E-24
 -1       336 3.88468E-05-4.11725E-07 0.00000E+00
 -1       337 3.67189E-05-4.75175E-07 4.13590E-25
 -1       338 3.42077E-05-5.39238E-07-3.30872E-24
 -1       339 3.16003E-05-6.03481E-07-1.65436E-24
 -1       340 2.91836E-05-6.67413E-07 0.00000E+00
 -1       341 3.96033E-05 1.54483E-07-1.32349E-23
 -1       342 3.89730E-05 4.18983E-07 6.61744E-24
 -1       343 3.84156E-05 4.87780E-07 1.32349E-23
 -1       344 3.79168E-05 3.95753E-07-6.61744E-24
 -1       345 3.74645E-05 1.78754E-07-1.32349E-23
 -1       346 3.70453E-05-1.27501E-07 6.61744E-24
 -1       347 3.66460E-05-4.87166E-07-1.32349E-23
 -1       348 3.62533E-05-8.64323E-07-6.61744E-24
 -1       349 3.58536E-05-1.22303E-06-1.32349E-23
 -1       350 3.54337E-05-1.52738E-06 0.00000E+00
 -1       351 3.49801E-05-1.74155E-06 0.00000E+00
 -1       352 3.44797E-05-1.82981E-06 0.00000E+00
 -1       353 3.39193E-05-1.75664E-06-1.32349E-23
 -1       354 3.32875E-05-1.48625E-06 6.61744E-24
 -1       355 3.25695E-05-9.84277E-07 6.61744E-24
 -1       356 4.13978E-05 4.84612E-07 1.55096E-25
 -1       357 4.14651E-05 9.05985E-07 0.00000E+00
 -1       358 4.15328E-05 1.22313E-06 0.00000E+00
 -1       359 4.16010E-05 1.45242E-06-8.27181E-25
 -1       360 4.16694E-05 1.61021E-06 0.00000E+00
 -1       361 4.17380E-05 1.71282E-06 0.00000E+00
 -1       362 4.18066E-05 1.77658E-06 1.65436E-24
 -1       363 4.18752E-05 1.81781E-06 0.00000E+00
 -1       364 4.19439E-05 1.85281E-06 0.00000E+00
 -1       365 4.20126E-05 1.89790E-06 8.27181E-25
 -1       366 4.20815E-05 1.96940E-06-3.30872E-24
 -1       367 4.21506E-05 2.08361E-06 1.65436E-24
 -1       368 4.22201E-05 2.25687E-06-3.30872E-24
 -1       369 4.22911E-05 2.50550E-06 1.65436E-24
 -1       370 4.23628E-05 2.84587E-06 0.00000E+00
 -1       371 4.02699E-05-8.25869E-08 0.00000E+00
 -1       372 3.87334E-05-1.07914E-07-4.13590E-25
 -1       373 3.69197E-05-1.33581E-07 0.00000E+00
 -1       374 3.50245E-05-1.59297E-07 0.00000E+00
 -1       375 3.32436E-05-1.84815E-07 0.00000E+00
 -1       376 4.10092E-05 3.90939E-07 0.00000E+00
 -1       377 4.07425E-05 6.67318E-07 0.00000E+00
 -1       378 4.05262E-05 8.08642E-07 0.00000E+00
 -1       379 4.03468E-05 8.50281E-07 0.00000E+00
 -1       380 4.01912E-05 8.27877E-07 3.30872E-24
 -1       381 4.00462E-05 7.76993E-07 1.65436E-24
 -1       382 3.98985E-05 7.33213E-07 3.30872E-24
 -1       383 3.97348E-05 7.32100E-07 1.65436E-24
 -1       384 3.95418E-05 8.09205E-07 3.30872E-24
 -1       385 3.93062E-05 1.00003E-06 0.00000E+00
 -1       386 3.90148E-05 1.34004E-06-3.30872E-24
 -1       387 3.86544E-05 1.86466E-06 0.00000E+00
 -1       388 3.82118E-05 2.60921E-06 1.65436E-24
 -1       389 3.76755E-05 3.60934E-06-4.13590E-25
 -1       390 3.70306E-05 4.89967E-06 0.00000E+00
 -1       406 4.19230E-05 3.82793E-06 1.32349E-23
 -1       407 4.12431E-05 4.36981E-06 0.00000E+00
 -1       408 4.03727E-05 4.91236E-06-1.32349E-23
 -1       409 3.92780E-05 5.45417E-06 0.00000E+00
 -1       410 3.79249E-05 5.99395E-06 1.32349E-23
 -1       466 1.93514E-05-4.80462E-07-6.61744E-24
 -1       467 1.96809E-05 3.43303E-07 0.00000E+00
 -1       468 2.00115E-05 7.68670E-07 6.61744E-24
 -1       469 2.03440E-05 8.65084E-07-6.61744E-24
 -1       470 2.06768E-05 7.01617E-07 6.61744E-24
 -1       471 2.10100E-05 3.47079E-07 3.30872E-24
 -1       472 2.13433E-05-1.29872E-07 1.32349E-23
 -1       473 2.16765E-05-6.60719E-07 6.61744E-24
 -1       474 2.20098E-05-1.17700E-06 1.32349E-23
 -1       475 2.23430E-05-1.61023E-06-6.61744E-24
 -1       476 2.26761E-05-1.89185E-06-1.32349E-23
 -1       477 2.30088E-05-1.95312E-06-6.61744E-24
 -1       478 2.33409E-05-1.72515E-06-1.32349E-23
 -1       479 2.36705E-05-1.13873E-06 0.00000E+00
 -1       480 2.39987E-05-1.24234E-07 0.00000E+00
 -1       481 1.72841E-05-1.66820E-06 0.00000E+00
 -1       482 1.54188E-05-1.56076E-06-1.65436E-24
 -1       483 1.35301E-05-1.45318E-06-3.30872E-24
 -1       484 1.17079E-05-1.34514E-06 0.00000E+00
 -1       485 1.00422E-05-1.23679E-06-3.30872E-24
 -1       486 1.81659E-05-5.00311E-07 6.61744E-24
 -1       487 1.74003E-05 4.42366E-07-6.61744E-24
 -1       488 1.67410E-05 1.10030E-06-1.32349E-23
 -1       489 1.61722E-05 1.51200E-06 0.00000E+00
 -1       490 1.56804E-05 1.71717E-06 0.00000E+00
 -1       491 1.52509E-05 1.75538E-06 0.00000E+00
 -1       492 1.48690E-05 1.66636E-06-1.32349E-23
 -1       493 1.45198E-05 1.49002E-06 0.00000E+00
 -1       494 1.41883E-05 1.26634E-06 0.00000E+00
 -1       495 1.38596E-05 1.03537E-06 0.00000E+00
 -1       496 1.35188E-05 8.37166E-07 0.00000E+00
 -1       497 1.31509E-05 7.11794E-07 0.00000E+00
 -1       498 1.27411E-05 6.99210E-07-6.61744E-24
 -1       499 1.22758E-05 8.39592E-07-3.30872E-24
 -1       500 1.17389E-05 1.17218E-06 6.61744E-24
 -1       501 2.44775E-05 2.84550E-06-8.27181E-25
 -1       502 2.46608E-05 3.72240E-06 8.27181E-25
 -1       503 2.48452E-05 4.09635E-06 3.30872E-24
 -1       504 2.50312E-05 4.04713E-06 1.65436E-24
 -1       505 2.52176E-05 3.65414E-06 0.00000E+00
 -1       506 2.54041E-05 2.99667E-06-1.65436E-24
 -1       507 2.55906E-05 2.15384E-06-6.61744E-24
 -1       508 2.57771E-05 1.20467E-06 3.30872E-24
 -1       509 2.59636E-05 2.28121E-07-6.61744E-24
 -1       510 2.61500E-05-6.96840E-07-3.30872E-24
 -1       511 2.63364E-05-1.49126E-06-1.32349E-23
 -1       512 2.65226E-05-2.07607E-06-3.30872E-24
 -1       513 2.67084E-05-2.37212E-06-6.61744E-24
 -1       514 2.68924E-05-2.30011E-06 0.00000E+00
 -1       515 2.70753E-05-1.78046E-06 0.00000E+00
 -1       516 2.20810E-05 1.44072E-06-4.13590E-25
 -1       517 1.95631E-05 1.50079E-06 0.00000E+00
 -1       518 1.69809E-05 1.56095E-06-2.06795E-25
 -1       519 1.45625E-05 1.62172E-06 0.00000E+00
 -1       520 1.25364E-05 1.68318E-06 0.00000E+00
 -1       521 2.31063E-05 2.67238E-06 1.32349E-23
 -1       522 2.20693E-05 3.44794E-06 0.00000E+00
 -1       523 2.11956E-05 3.78604E-06 0.00000E+00
 -1       524 2.04585E-05 3.75196E-06 0.00000E+00
 -1       525 1.98350E-05 3.41302E-06-2.64698E-23
 -1       526 1.92999E-05 2.83673E-06 0.00000E+00
 -1       527 1.88281E-05 2.09105E-06 0.00000E+00
 -1       528 1.83940E-05 1.24434E-06 0.00000E+00
 -1       529 1.79721E-05 3.65140E-07 0.00000E+00
 -1       530 1.75367E-05-4.77906E-07 0.00000E+00
 -1       531 1.70623E-05-1.21625E-06 0.00000E+00
 -1       532 1.65235E-05-1.78153E-06 0.00000E+00
 -1       533 1.58950E-05-2.10576E-06 0.00000E+00
 -1       534 1.51533E-05-2.12103E-06-6.61744E-24
 -1       535 1.42717E-05-1.76118E-06 0.00000E+00
 -1       536 2.75049E-05 3.97462E-07-8.27181E-25
 -1       537 2.77867E-05 1.12525E-06 1.65436E-24
 -1       538 2.80698E-05 1.50371E-06 6.61744E-24
 -1       539 2.83553E-05 1.58862E-06-3.30872E-24
 -1       540 2.86415E-05 1.43541E-06 0.00000E+00
 -1       541 2.89280E-05 1.09936E-06 0.00000E+00
 -1       542 2.92147E-05 6.35590E-07-6.61744E-24
 -1       543 2.95015E-05 9.90904E-08 3.30872E-24
 -1       544 2.97882E-05-4.55180E-07 0.00000E+00
 -1       545 3.00749E-05-9.72302E-07 0.00000E+00
 -1       546 3.03616E-05-1.39732E-06 0.00000E+00
 -1       547 3.06480E-05-1.67517E-06 0.00000E+00
 -1       548 3.09339E-05-1.75072E-06-6.61744E-24
 -1       549 3.12183E-05-1.56863E-06-3.30872E-24
 -1       550 3.15017E-05-1.07334E-06-6.61744E-24
 -1       551 2.52151E-05-7.74401E-07-2.48154E-24
 -1       552 2.27997E-05-8.09197E-07-6.20385E-25
 -1       553 2.01946E-05-8.43710E-07 0.00000E+00
 -1       554 1.76006E-05-8.78296E-07 0.00000E+00
 -1       555 1.52184E-05-9.13300E-07 6.61744E-24
 -1       556 2.63880E-05 2.12411E-07-1.32349E-23
 -1       557 2.56567E-05 7.91314E-07 0.00000E+00
 -1       558 2.50413E-05 1.05627E-06 0.00000E+00
 -1       559 2.45227E-05 1.05972E-06 0.00000E+00
 -1       560 2.40819E-05 8.54427E-07 0.00000E+00
 -1       561 2.36994E-05 4.93150E-07 0.00000E+00
 -1       562 2.33554E-05 2.87268E-08-1.32349E-23
 -1       563 2.30302E-05-4.85938E-07 6.61744E-24
 -1       564 2.27041E-05-9.97915E-07 0.00000E+00
 -1       565 2.23571E-05-1.45429E-06 6.61744E-24
 -1       566 2.19696E-05-1.80216E-06 1.32349E-23
 -1       567 2.15218E-05-1.98868E-06 0.00000E+00
 -1       568 2.09943E-05-1.96109E-06 0.00000E+00
 -1       569 2.03684E-05-1.66660E-06 3.30872E-24
 -1       570 1.96247E-05-1.05275E-06-6.61744E-24
 -1       571 3.20368E-05 6.60261E-07 2.48154E-24
 -1       572 3.23159E-05 1.25713E-06 1.65436E-24
 -1       573 3.25973E-05 1.62530E-06 0.00000E+00
 -1       574 3.28802E-05 1.81074E-06 3.30872E-24
 -1       575 3.31637E-05 1.85942E-06-6.61744E-24
 -1       576 3.34475E-05 1.81732E-06-3.30872E-24
 -1       577 3.37313E-05 1.73043E-06-6.61744E-24
 -1       578 3.40153E-05 1.64470E-06 0.00000E+00
 -1       579 3.42992E-05 1.60611E-06 0.00000E+00
 -1       580 3.45832E-05 1.66063E-06 0.00000E+00
 -1       581 3.48671E-05 1.85428E-06 1.32349E-23
 -1       582 3.51509E-05 2.23312E-06 0.00000E+00
 -1       583 3.54346E-05 2.84324E-06 0.00000E+00
 -1       584 3.57178E-05 3.73072E-06 0.00000E+00
 -1       585 3.60004E-05 4.94170E-06-1.32349E-23
 -1       586 3.00469E-05-1.85499E-07 0.00000E+00
 -1       587 2.78998E-05-1.59487E-07 0.00000E+00
 -1       588 2.55123E-05-1.33737E-07 0.00000E+00
 -1       589 2.30697E-05-1.08483E-07 0.00000E+00
 -1       590 2.07573E-05-8.38336E-08 0.00000E+00
 -1       591 3.11373E-05 6.07933E-07-6.61744E-24
 -1       592 3.05713E-05 1.20728E-06 0.00000E+00
 -1       593 3.00700E-05 1.62940E-06 0.00000E+00
 -1       594 2.96193E-05 1.91296E-06 0.00000E+00
 -1       595 2.92056E-05 2.09686E-06 1.32349E-23
 -1       596 2.88145E-05 2.21986E-06-3.30872E-24
 -1       597 2.84316E-05 2.32073E-06 0.00000E+00
 -1       598 2.80424E-05 2.43824E-06-3.30872E-24
 -1       599 2.76325E-05 2.61114E-06-6.61744E-24
 -1       600 2.71873E-05 2.87814E-06 0.00000E+00
 -1       601 2.66923E-05 3.27793E-06 0.00000E+00
 -1       602 2.61332E-05 3.84917E-06 0.00000E+00
 -1       603 2.54958E-05 4.63046E-06 0.00000E+00
 -1       604 2.47666E-05 5.66053E-06 0.00000E+00
 -1       605 2.39318E-05 6.97782E-06-2.06795E-24
 -1       606 3.63815E-05 8.58527E-06 6.61744E-24
 -1       607 3.64747E-05 1.09391E-05 0.00000E+00
 -1       608 3.65661E-05 1.35574E-05 0.00000E+00
 -1       609 3.66563E-05 1.64141E-05 0.00000E+00
 -1       610 3.67455E-05 1.94833E-05 0.00000E+00
 -1       611 3.68341E-05 2.27387E-05 0.00000E+00
 -1       612 3.69221E-05 2.61542E-05 0.00000E+00
 -1       613 3.70097E-05 2.97039E-05-1.65436E-24
 -1       614 3.70968E-05 3.33616E-05 0.00000E+00
 -1       615 3.71837E-05 3.71013E-05-1.65436E-24
 -1       616 3.72703E-05 4.08969E-05 0.00000E+00
 -1       617 3.73568E-05 4.47225E-05 0.00000E+00
 -1       618 3.74431E-05 4.85519E-05 0.00000E+00
 -1       619 3.75293E-05 5.23592E-05-8.27181E-25
 -1       620 3.76152E-05 5.61184E-05 0.00000E+00
 -1       621 3.42167E-05 6.87056E-06 1.32349E-23
 -1       622 3.20135E-05 7.22491E-06-6.61744E-24
 -1       623 2.97299E-05 7.57936E-06-1.32349E-23
 -1       624 2.74256E-05 7.93289E-06 0.00000E+00
 -1       625 2.51599E-05 8.28468E-06 0.00000E+00
 -1       626 3.57028E-05 8.67528E-06 0.00000E+00
 -1       627 3.50085E-05 1.11317E-05-6.61744E-24
 -1       628 3.42115E-05 1.38591E-05 0.00000E+00
 -1       629 3.33242E-05 1.68245E-05 0.00000E+00
 -1       630 3.23593E-05 1.99953E-05 6.61744E-24
 -1       631 3.13290E-05 2.33386E-05 0.00000E+00
 -1       632 3.02458E-05 2.68216E-05 0.00000E+00
 -1       633 2.91220E-05 3.04117E-05-3.30872E-24
 -1       634 2.79701E-05 3.40761E-05 0.00000E+00
 -1       635 2.68024E-05 3.77821E-05-3.30872E-24
 -1       636 2.56311E-05 4.14971E-05 6.61744E-24
 -1       637 2.44688E-05 4.51883E-05 3.30872E-24
 -1       638 2.33275E-05 4.88231E-05 3.30872E-24
 -1       639 2.22190E-05 5.23686E-05-1.65436E-24
 -1       640 2.11555E-05 5.57921E-05 1.65436E-24
 -1       641 3.76977E-05 6.34078E-05 8.27181E-25
 -1       642 3.76953E-05 6.70264E-05-2.06795E-25
 -1       643 3.76928E-05 7.06547E-05-2.06795E-25
 -1       644 3.76902E-05 7.42879E-05-1.03398E-25
 -1       645 3.76875E-05 7.79213E-05 1.03398E-25
 -1       646 3.76847E-05 8.15499E-05-5.16988E-26
 -1       647 3.76820E-05 8.51690E-05 0.00000E+00
 -1       648 3.76794E-05 8.87737E-05 0.00000E+00
 -1       649 3.76767E-05 9.23590E-05-5.16988E-26
 -1       650 3.76742E-05 9.59204E-05 5.16988E-26
 -1       651 3.76717E-05 9.94528E-05 0.00000E+00
 -1       652 3.76693E-05 1.02951E-04 0.00000E+00
 -1       653 3.76670E-05 1.06411E-04 0.00000E+00
 -1       654 3.76644E-05 1.09828E-04 0.00000E+00
 -1       655 3.76620E-05 1.13196E-04 0.00000E+00
 -1       656 3.43723E-05 5.96833E-05-3.30872E-24
 -1       657 3.13473E-05 5.95569E-05 0.00000E+00
 -1       658 2.85180E-05 5.94309E-05 3.30872E-24
 -1       659 2.57782E-05 5.93051E-05-1.65436E-24
 -1       660 2.30213E-05 5.91793E-05 0.00000E+00
 -1       661 3.64548E-05 6.34420E-05 0.00000E+00
 -1       662 3.52130E-05 6.70856E-05 0.00000E+00
 -1       663 3.39716E-05 7.07284E-05 3.30872E-24
 -1       664 3.27327E-05 7.43660E-05-1.65436E-24
 -1       665 3.14978E-05 7.79932E-05 0.00000E+00
 -1       666 3.02687E-05 8.16054E-05 0.00000E+00
 -1       667 2.90471E-05 8.51976E-05 0.00000E+00
 -1       668 2.78350E-05 8.87652E-05 0.00000E+00
 -1       669 2.66340E-05 9.23032E-05 0.00000E+00
 -1       670 2.54460E-05 9.58068E-05 1.65436E-24
 -1       671 2.42728E-05 9.92713E-05 0.00000E+00
 -1       672 2.31162E-05 1.02692E-04 1.65436E-24
 -1       673 2.19779E-05 1.06063E-04 0.00000E+00
 -1       674 2.08593E-05 1.09380E-04-8.27181E-25
 -1       675 1.97626E-05 1.12638E-04 1.65436E-24
 -1       676 3.44085E-05 1.16399E-04-3.30872E-24
 -1       677 3.12077E-05 1.16285E-04 1.65436E-24
 -1       678 2.80448E-05 1.16170E-04-3.30872E-24
 -1       679 2.49098E-05 1.16056E-04 0.00000E+00
 -1       680 2.17927E-05 1.15941E-04 1.65436E-24
 -1       681 8.77509E-06-1.15931E-07 3.30872E-24
 -1       682 8.93212E-06 6.07550E-07 0.00000E+00
 -1       683 9.08951E-06 1.07876E-06 0.00000E+00
 -1       684 9.24745E-06 1.33635E-06 0.00000E+00
 -1       685 9.40555E-06 1.41883E-06 3.30872E-24
 -1       686 9.56373E-06 1.36465E-06 1.65436E-24
 -1       687 9.72195E-06 1.21218E-06-3.30872E-24
 -1       688 9.88016E-06 9.99757E-07-1.65436E-24
 -1       689 1.00384E-05 7.65689E-07-6.61744E-24
 -1       690 1.01965E-05 5.48273E-07 0.00000E+00
 -1       691 1.03546E-05 3.85811E-07-6.61744E-24
 -1       692 1.05125E-05 3.16633E-07-3.30872E-24
 -1       693 1.06701E-05 3.79112E-07-6.61744E-24
 -1       694 1.08265E-05 6.11659E-07 0.00000E+00
 -1       695 1.09824E-05 1.05283E-06 0.00000E+00
 -1       696 7.26582E-06-9.46752E-07-3.30872E-24
 -1       697 5.77071E-06-7.58686E-07 0.00000E+00
 -1       698 4.21648E-06-5.70350E-07 6.61744E-24
 -1       699 2.68327E-06-3.81158E-07-3.30872E-24
 -1       700 1.25125E-06-1.91562E-07 0.00000E+00
 -1       701 8.05895E-06-1.21977E-07-3.30872E-24
 -1       702 7.56683E-06 6.64206E-07-1.65436E-24
 -1       703 7.14738E-06 1.25577E-06 6.61744E-24
 -1       704 6.79082E-06 1.67617E-06 3.30872E-24
 -1       705 6.48913E-06 1.94954E-06 0.00000E+00
 -1       706 6.23340E-06 2.09984E-06 0.00000E+00
 -1       707 6.01474E-06 2.15110E-06 6.61744E-24
 -1       708 5.82416E-06 2.12740E-06 0.00000E+00
 -1       709 5.65266E-06 2.05282E-06 6.61744E-24
 -1       710 5.49122E-06 1.95152E-06 3.30872E-24
 -1       711 5.33082E-06 1.84765E-06 0.00000E+00
 -1       712 5.16253E-06 1.76541E-06-3.30872E-24
 -1       713 4.97738E-06 1.72895E-06 0.00000E+00
 -1       714 4.76722E-06 1.76271E-06 0.00000E+00
 -1       715 4.52223E-06 1.89047E-06 0.00000E+00
 -1       716 1.12535E-05 2.34707E-06 8.27181E-25
 -1       717 1.13864E-05 2.58449E-06-1.65436E-24
 -1       718 1.15199E-05 2.50927E-06 0.00000E+00
 -1       719 1.16542E-05 2.17870E-06 1.65436E-24
 -1       720 1.17887E-05 1.64983E-06 0.00000E+00
 -1       721 1.19234E-05 9.79721E-07 0.00000E+00
 -1       722 1.20581E-05 2.25351E-07-3.30872E-24
 -1       723 1.21927E-05-5.56347E-07-1.65436E-24
 -1       724 1.23274E-05-1.30843E-06 0.00000E+00
 -1       725 1.24621E-05-1.97395E-06 0.00000E+00
 -1       726 1.25967E-05-2.49592E-06 0.00000E+00
 -1       727 1.27311E-05-2.81732E-06 0.00000E+00
 -1       728 1.28650E-05-2.88101E-06 0.00000E+00
 -1       729 1.29973E-05-2.62981E-06 0.00000E+00
 -1       730 1.31287E-05-2.00631E-06 0.00000E+00
 -1       731 1.00233E-05 1.80235E-06 0.00000E+00
 -1       732 8.71388E-06 1.86915E-06 0.00000E+00
 -1       733 7.34066E-06 1.93614E-06-1.65436E-24
 -1       734 6.04421E-06 2.00378E-06 0.00000E+00
 -1       735 4.96519E-06 2.07179E-06-4.13590E-25
 -1       736 1.05079E-05 2.32734E-06-6.61744E-24
 -1       737 9.95455E-06 2.69167E-06 0.00000E+00
 -1       738 9.47271E-06 2.86405E-06 0.00000E+00
 -1       739 9.05133E-06 2.87042E-06 0.00000E+00
 -1       740 8.68170E-06 2.73771E-06-1.32349E-23
 -1       741 8.35390E-06 2.49262E-06 0.00000E+00
 -1       742 8.05805E-06 2.16202E-06 0.00000E+00
 -1       743 7.78408E-06 1.77287E-06 0.00000E+00
 -1       744 7.52194E-06 1.35216E-06 0.00000E+00
 -1       745 7.26152E-06 9.26947E-07-6.61744E-24
 -1       746 6.99273E-06 5.24289E-07 0.00000E+00
 -1       747 6.70557E-06 1.71246E-07 0.00000E+00
 -1       748 6.39003E-06-1.05192E-07 0.00000E+00
 -1       749 6.03698E-06-2.77854E-07-3.30872E-24
 -1       750 5.63553E-06-3.20276E-07-6.61744E-24
 -1       751 1.35662E-05 1.01580E-07-2.48154E-24
 -1       752 1.39099E-05 7.43254E-07 3.30872E-24
 -1       753 1.42549E-05 1.03097E-06 0.00000E+00
 -1       754 1.46028E-05 1.02542E-06 0.00000E+00
 -1       755 1.49514E-05 7.86960E-07 6.61744E-24
 -1       756 1.53005E-05 3.75686E-07 6.61744E-24
 -1       757 1.56498E-05-1.48451E-07 0.00000E+00
 -1       758 1.59991E-05-7.25636E-07 0.00000E+00
 -1       759 1.63484E-05-1.29609E-06 0.00000E+00
 -1       760 1.66977E-05-1.80005E-06 0.00000E+00
 -1       761 1.70469E-05-2.17768E-06 0.00000E+00
 -1       762 1.73957E-05-2.36898E-06-6.61744E-24
 -1       763 1.77438E-05-2.31381E-06 0.00000E+00
 -1       764 1.80894E-05-1.95175E-06 0.00000E+00
 -1       765 1.84338E-05-1.22204E-06-6.61744E-24
 -1       766 1.17203E-05-8.38582E-07 4.13590E-25
 -1       767 1.00889E-05-7.09921E-07 0.00000E+00
 -1       768 8.48568E-06-5.80854E-07 0.00000E+00
 -1       769 7.04472E-06-4.51298E-07-5.16988E-25
 -1       770 5.90044E-06-3.21585E-07 0.00000E+00
 -1       771 1.21466E-05-9.47635E-08 0.00000E+00
 -1       772 1.11291E-05 4.74762E-07 0.00000E+00
 -1       773 1.02008E-05 7.97959E-07-2.64698E-23
 -1       774 9.34792E-06 9.12755E-07-1.32349E-23
 -1       775 8.55807E-06 8.57560E-07 2.64698E-23
 -1       776 7.81721E-06 6.70604E-07 0.00000E+00
 -1       777 7.11121E-06 3.90184E-07 0.00000E+00
 -1       778 6.42580E-06 5.46734E-08 0.00000E+00
 -1       779 5.74664E-06-2.97521E-07-2.64698E-23
 -1       780 5.05940E-06-6.27983E-07 1.32349E-23
 -1       781 4.34976E-06-8.98293E-07 0.00000E+00
 -1       782 3.60358E-06-1.07006E-06-1.32349E-23
 -1       783 2.80678E-06-1.10497E-06-1.32349E-23
 -1       784 1.94659E-06-9.64482E-07 0.00000E+00
 -1       785 1.00938E-06-6.10523E-07 1.32349E-23
 -1       786 1.90047E-05 1.14701E-06-2.48154E-24
 -1       787 1.92680E-05 2.02252E-06-3.30872E-24
 -1       788 1.95325E-05 2.61461E-06 0.00000E+00
 -1       789 1.97990E-05 2.97656E-06-3.30872E-24
 -1       790 2.00661E-05 3.16141E-06-6.61744E-24
 -1       791 2.03336E-05 3.22207E-06 0.00000E+00
 -1       792 2.06012E-05 3.21137E-06 6.61744E-24
 -1       793 2.08689E-05 3.18208E-06-3.30872E-24
 -1       794 2.11366E-05 3.18695E-06 6.61744E-24
 -1       795 2.14043E-05 3.27876E-06 0.00000E+00
 -1       796 2.16719E-05 3.51036E-06 6.61744E-24
 -1       797 2.19392E-05 3.93471E-06-3.30872E-24
 -1       798 2.22061E-05 4.60491E-06 0.00000E+00
 -1       799 2.24717E-05 5.57425E-06 0.00000E+00
 -1       800 2.27365E-05 6.89633E-06 6.61744E-24
 -1       801 1.63113E-05-5.41522E-08 1.65436E-24
 -1       802 1.29255E-05-4.06643E-08-4.13590E-25
 -1       803 9.09949E-06-2.85036E-08 8.27181E-25
 -1       804 5.33564E-06-1.68197E-08 0.00000E+00
 -1       805 2.13622E-06-4.03064E-09 0.00000E+00
 -1       806 1.78698E-05 1.02417E-06 0.00000E+00
 -1       807 1.70545E-05 1.87434E-06 0.00000E+00
 -1       808 1.63112E-05 2.52725E-06 0.00000E+00
 -1       809 1.56261E-05 3.02102E-06 6.61744E-24
 -1       810 1.49857E-05 3.39405E-06 1.32349E-23
 -1       811 1.43761E-05 3.68461E-06 0.00000E+00
 -1       812 1.37829E-05 3.93099E-06 0.00000E+00
 -1       813 1.31919E-05 4.17148E-06 6.61744E-24
 -1       814 1.25887E-05 4.44438E-06 0.00000E+00
 -1       815 1.19590E-05 4.78795E-06 0.00000E+00
 -1       816 1.12885E-05 5.24044E-06-1.32349E-23
 -1       817 1.05631E-05 5.84002E-06 0.00000E+00
 -1       818 9.76868E-06 6.62485E-06-6.61744E-24
 -1       819 8.89214E-06 7.63314E-06 0.00000E+00
 -1       820 7.91971E-06 8.90283E-06-3.30872E-24
 -1       821 2.28274E-05 1.07743E-05 8.27181E-25
 -1       822 2.26517E-05 1.31904E-05-1.65436E-24
 -1       823 2.24749E-05 1.58449E-05 0.00000E+00
 -1       824 2.22963E-05 1.87093E-05 0.00000E+00
 -1       825 2.21169E-05 2.17553E-05 0.00000E+00
 -1       826 2.19367E-05 2.49544E-05-1.65436E-24
 -1       827 2.17561E-05 2.82781E-05 0.00000E+00
 -1       828 2.15751E-05 3.16976E-05 3.30872E-24
 -1       829 2.13939E-05 3.51843E-05-6.61744E-24
 -1       830 2.12126E-05 3.87094E-05-3.30872E-24
 -1       831 2.10313E-05 4.22443E-05 0.00000E+00
 -1       832 2.08503E-05 4.57601E-05 0.00000E+00
 -1       833 2.06697E-05 4.92281E-05-6.61744E-24
 -1       834 2.04903E-05 5.26196E-05 1.65436E-24
 -1       835 2.03117E-05 5.59060E-05 0.00000E+00
 -1       836 2.06067E-05 8.92758E-06 6.61744E-24
 -1       837 1.78438E-05 9.24087E-06 3.30872E-24
 -1       838 1.48946E-05 9.55375E-06 6.61744E-24
 -1       839 1.19515E-05 9.86600E-06 3.30872E-24
 -1       840 9.20708E-06 1.01782E-05 0.00000E+00
 -1       841 2.21931E-05 1.07787E-05 0.00000E+00
 -1       842 2.12899E-05 1.32022E-05 0.00000E+00
 -1       843 2.02956E-05 1.58663E-05 0.00000E+00
 -1       844 1.92214E-05 1.87414E-05 0.00000E+00
 -1       845 1.80784E-05 2.17977E-05 0.00000E+00
 -1       846 1.68780E-05 2.50058E-05 0.00000E+00
 -1       847 1.56313E-05 2.83359E-05 0.00000E+00
 -1       848 1.43496E-05 3.17584E-05 0.00000E+00
 -1       849 1.30442E-05 3.52437E-05 0.00000E+00
 -1       850 1.17262E-05 3.87621E-05-1.03398E-25
 -1       851 1.04068E-05 4.22841E-05 1.55096E-25
 -1       852 9.09720E-06 4.57799E-05 0.00000E+00
 -1       853 7.80861E-06 4.92199E-05 0.00000E+00
 -1       854 6.55189E-06 5.25744E-05-4.13590E-25
 -1       855 5.33853E-06 5.58138E-05 0.00000E+00
 -1       856 2.00562E-05 6.22119E-05-4.13590E-25
 -1       857 1.99662E-05 6.55152E-05-8.27181E-25
 -1       858 1.98755E-05 6.89480E-05-1.65436E-24
 -1       859 1.97840E-05 7.24896E-05-8.27181E-25
 -1       860 1.96921E-05 7.61189E-05 3.30872E-24
 -1       861 1.95998E-05 7.98149E-05-8.27181E-25
 -1       862 1.95073E-05 8.35568E-05 0.00000E+00
 -1       863 1.94147E-05 8.73235E-05-1.65436E-24
 -1       864 1.93221E-05 9.10939E-05 0.00000E+00
 -1       865 1.92296E-05 9.48471E-05 0.00000E+00
 -1       866 1.91372E-05 9.85622E-05 0.00000E+00
 -1       867 1.90451E-05 1.02218E-04 0.00000E+00
 -1       868 1.89533E-05 1.05794E-04-3.30872E-24
 -1       869 1.88621E-05 1.09268E-04 0.00000E+00
 -1       870 1.87714E-05 1.12621E-04 0.00000E+00
 -1       871 1.73299E-05 5.90355E-05 0.00000E+00
 -1       872 1.46779E-05 5.90111E-05 0.00000E+00
 -1       873 1.21115E-05 5.89867E-05 8.27181E-25
 -1       874 9.55558E-06 5.89618E-05-3.10193E-25
 -1       875 6.93505E-06 5.89362E-05 0.00000E+00
 -1       876 1.91013E-05 6.22400E-05 0.00000E+00
 -1       877 1.80222E-05 6.55416E-05 1.65436E-24
 -1       878 1.69044E-05 6.89460E-05-3.30872E-24
 -1       879 1.57543E-05 7.24377E-05 1.65436E-24
 -1       880 1.45774E-05 7.60007E-05 3.30872E-24
 -1       881 1.33796E-05 7.96196E-05-1.65436E-24
 -1       882 1.21665E-05 8.32786E-05-3.30872E-24
 -1       883 1.09441E-05 8.69622E-05 0.00000E+00
 -1       884 9.71835E-06 9.06547E-05 3.30872E-24
 -1       885 8.49506E-06 9.43407E-05-1.65436E-24
 -1       886 7.28007E-06 9.80046E-05 3.30872E-24
 -1       887 6.07925E-06 1.01631E-04-1.65436E-24
 -1       888 4.89838E-06 1.05203E-04-3.30872E-24
 -1       889 3.74278E-06 1.08707E-04 1.65436E-24
 -1       890 2.61888E-06 1.12126E-04-1.65436E-24
 -1       891 1.57259E-05 1.15766E-04-1.65436E-24
 -1       892 1.29139E-05 1.15701E-04-8.27181E-25
 -1       893 1.01678E-05 1.15636E-04-1.65436E-24
 -1       894 7.40763E-06 1.15571E-04 0.00000E+00
 -1       895 4.55334E-06 1.15506E-04 8.27181E-25
 -1       896 2.63944E-07 9.28117E-07-6.61744E-24
 -1       897 5.29785E-07 1.62311E-06 3.30872E-24
 -1       898 7.95848E-07 2.11215E-06-6.61744E-24
 -1       899 1.06219E-06 2.42281E-06 0.00000E+00
 -1       900 1.32862E-06 2.58251E-06 0.00000E+00
 -1       901 1.59511E-06 2.61852E-06 3.30872E-24
 -1       902 1.86160E-06 2.55807E-06-6.61744E-24
 -1       903 2.12809E-06 2.42826E-06-3.30872E-24
 -1       904 2.39456E-06 2.25618E-06 0.00000E+00
 -1       905 2.66098E-06 2.06885E-06 0.00000E+00
 -1       906 2.92731E-06 1.89331E-06-6.61744E-24
 -1       907 3.19345E-06 1.75657E-06 0.00000E+00
 -1       908 3.45929E-06 1.68571E-06 0.00000E+00
 -1       909 3.72401E-06 1.70783E-06 3.30872E-24
 -1       910 3.98822E-06 1.85014E-06 6.61744E-24
 -1       911 4.30271E-06 2.42295E-06 8.27181E-25
 -1       912 4.36257E-06 2.53932E-06-4.13590E-25
 -1       913 4.42245E-06 2.51185E-06-1.65436E-24
 -1       914 4.48235E-06 2.36419E-06 8.27181E-25
 -1       915 4.54225E-06 2.11993E-06-1.65436E-24
 -1       916 4.60213E-06 1.80264E-06 8.27181E-25
 -1       917 4.66199E-06 1.43591E-06 0.00000E+00
 -1       918 4.72184E-06 1.04329E-06 0.00000E+00
 -1       919 4.78166E-06 6.48326E-07 0.00000E+00
 -1       920 4.84145E-06 2.74590E-07 0.00000E+00
 -1       921 4.90118E-06-5.43700E-08 1.65436E-24
 -1       922 4.96075E-06-3.14981E-07 0.00000E+00
 -1       923 5.02006E-06-4.83664E-07 0.00000E+00
 -1       924 5.07841E-06-5.36840E-07 0.00000E+00
 -1       925 5.13631E-06-4.50869E-07 4.13590E-25
 -1       926 4.87127E-06 3.03634E-08 0.00000E+00
 -1       927 4.54789E-06 8.64545E-08 3.30872E-24
 -1       928 4.22405E-06-3.27528E-09 0.00000E+00
 -1       929 3.89915E-06-2.07178E-07 0.00000E+00
 -1       930 3.57396E-06-4.93570E-07-1.32349E-23
 -1       931 3.24856E-06-8.30646E-07 6.61744E-24
 -1       932 2.92308E-06-1.18657E-06 0.00000E+00
 -1       933 2.59756E-06-1.52949E-06 0.00000E+00
 -1       934 2.27204E-06-1.82753E-06 0.00000E+00
 -1       935 1.94655E-06-2.04891E-06-6.61744E-24
 -1       936 1.62111E-06-2.16189E-06 0.00000E+00
 -1       937 1.29575E-06-2.13485E-06 0.00000E+00
 -1       938 9.70500E-07-1.93628E-06 6.61744E-24
 -1       939 6.45663E-07-1.53491E-06 3.30872E-24
 -1       940 3.20926E-07-8.99559E-07 0.00000E+00
 -1       941 3.97706E-07 9.15672E-07 1.65436E-24
 -1       942 8.24617E-07 1.61686E-06 0.00000E+00
 -1       943 1.25326E-06 2.14199E-06 0.00000E+00
 -1       944 1.68544E-06 2.52980E-06 6.61744E-24
 -1       945 2.11860E-06 2.81884E-06 0.00000E+00
 -1       946 2.55243E-06 3.04752E-06 6.61744E-24
 -1       947 2.98651E-06 3.25419E-06 1.32349E-23
 -1       948 3.42072E-06 3.47717E-06-6.61744E-24
 -1       949 3.85493E-06 3.75480E-06 1.32349E-23
 -1       950 4.28904E-06 4.12549E-06-6.61744E-24
 -1       951 4.72290E-06 4.62776E-06 0.00000E+00
 -1       952 5.15619E-06 5.30032E-06-6.61744E-24
 -1       953 5.58863E-06 6.18209E-06 0.00000E+00
 -1       954 6.01828E-06 7.31223E-06 0.00000E+00
 -1       955 6.44638E-06 8.73028E-06-6.61744E-24
 -1       956 6.69314E-06 1.25935E-05-2.48154E-24
 -1       957 6.52820E-06 1.49434E-05 0.00000E+00
 -1       958 6.36204E-06 1.75027E-05 0.00000E+00
 -1       959 6.19488E-06 2.02473E-05 2.48154E-24
 -1       960 6.02712E-06 2.31534E-05 6.61744E-24
 -1       961 5.85888E-06 2.61972E-05-1.65436E-24
 -1       962 5.69026E-06 2.93544E-05-3.30872E-24
 -1       963 5.52136E-06 3.26011E-05 3.30872E-24
 -1       964 5.35225E-06 3.59133E-05-3.30872E-24
 -1       965 5.18302E-06 3.92667E-05 3.30872E-24
 -1       966 5.01377E-06 4.26374E-05 6.61744E-24
 -1       967 4.84460E-06 4.60013E-05 0.00000E+00
 -1       968 4.67566E-06 4.93341E-05 6.61744E-24
 -1       969 4.50726E-06 5.26120E-05 0.00000E+00
 -1       970 4.33963E-06 5.58109E-05-6.61744E-24
 -1       971 4.01447E-06 6.19968E-05 0.00000E+00
 -1       972 3.84954E-06 6.52372E-05-1.65436E-24
 -1       973 3.68402E-06 6.86096E-05-3.30872E-24
 -1       974 3.51774E-06 7.20941E-05-1.65436E-24
 -1       975 3.35105E-06 7.56711E-05-3.30872E-24
 -1       976 3.18404E-06 7.93206E-05-1.65436E-24
 -1       977 3.01681E-06 8.30229E-05 0.00000E+00
 -1       978 2.84946E-06 8.67582E-05 0.00000E+00
 -1       979 2.68207E-06 9.05065E-05 0.00000E+00
 -1       980 2.51473E-06 9.42480E-05 3.30872E-24
 -1       981 2.34754E-06 9.79628E-05 6.61744E-24
 -1       982 2.18065E-06 1.01631E-04 0.00000E+00
 -1       983 2.01417E-06 1.05233E-04 6.61744E-24
 -1       984 1.84870E-06 1.08748E-04 0.00000E+00
 -1       985 1.68391E-06 1.12158E-04 0.00000E+00
 -3
    1PSTEP                         2           1           1          
  100CL  101 1.000000000         841                     0    1           1
 -4  STRESS      6    1
 -5  SXX         1    4    1    1
 -5  SYY         1    4    2    2
 -5  SZZ         1    4    3    3
 -5  SXY         1    4    1    2
 -5  SYZ         1    4    2    3
 -5  SZX         1    4    3    1
 -1         1-1.55255E+06-4.77819E+05-6.83767E+04-6.55601E+05 5.33570E-11-2.20219E-09
 -1         2-9.15652E+05 2.18560E+04 1.63323E+03-1.51363E+05 1.04592E-10 2.71120E-09
 -1         3-3.13157E+05-6.94689E+04 4.70906E+02-7.33267E+04-1.20508E-11-2.47474E-09
 -1         4-4.63882E+04-1.05914E+04 1.18146E+02-1.95299E+04 6.63647E-12-2.81552E-09
 -1         5 5.69947E+04 6.71948E+05-5.32787E+04-3.89380E+03 6.62112E-10 3.27248E-10
 -1         8-2.63966E+05-2.84767E+05 5.01559E+03-4.84036E+05 3.41970E-10 2.03727E-09
 -1         9-6.24047E+05-7.31408E+04-2.04255E+04-3.94819E+05-9.79223E-11-2.07486E-09
 -1        10-3.35815E+05-1.29932E+05 8.08301E+02-2.32944E+05-7.67007E-11 2.13625E-09
 -1        11-6.85005E+04-4.24509E+04 1.76101E+02-1.10947E+05 1.03076E-11-9.21621E-10
 -1        12 8.47602E+04 6.77144E+05-4.95726E+04 2.86432E+04 1.55944E-09-2.28599E-10
 -1        15 1.87443E+04 4.17002E+03 1.05798E+03-1.57337E+05-3.00133E-11-1.12777E-10
 -1        16-2.66681E+05-7.68859E+04-1.15990E+04-3.48850E+05 4.03209E-11-1.04410E-09
 -1        17-2.40919E+05-1.32109E+05 1.59384E+04-3.58653E+05-6.24520E-11 3.45123E-09
 -1        18-3.99756E+04-5.94025E+04-6.54504E+03-2.65089E+05 2.28283E-09 1.45398E-09
 -1        19 2.37012E+05 3.80455E+05-1.92337E+04 9.31606E+03 3.02559E-10 4.48684E-10
 -1        20 1.15508E+05-6.10697E+04-8.64228E+03 7.70391E+04 5.05929E-09-2.49611E-09
 -1        21-1.40557E+04-1.39532E+05-5.97971E+02 9.85294E+03 4.96002E-08 4.76702E-09
 -1        22 2.96397E+04 1.74228E+05 5.06589E+02-1.00148E+05 1.42336E-10 1.20053E-10
 -1        23-1.39947E+05-4.03538E+03 8.33218E+02-2.01001E+05 2.94979E-10-6.53624E-10
 -1        24-2.80814E+05-5.01559E+04 3.58067E+04-3.39590E+05-2.71878E-09-2.49808E-10
 -1        25-2.89885E+04-2.04999E+04 4.97854E+04-3.53471E+05-5.53276E-10 1.44064E-09
 -1        26-1.75316E+04 2.54836E+05 8.61723E+03-1.10677E+05 1.11443E-09-1.13990E-10
 -1        27-6.04443E+03-3.86673E+04-1.47605E+04 1.20418E+05-4.27978E-09-8.85242E-11
 -1        28-3.59389E+03-9.82569E+04-5.78166E+02 5.60573E+04 2.26107E-08-2.24073E-09
 -1        29 3.69644E+05 2.85434E+05 9.18307E+02-6.92306E+04 1.96337E-10-2.48292E-10
 -1        30 1.26313E+05 3.23564E+04 6.98001E+02-9.53621E+04 3.69688E-10-2.45564E-11
 -1        31-3.77338E+05 2.17955E+04 1.42528E+03-1.40001E+05-2.62951E-10 1.76442E-10
 -1        32-3.12317E+05-2.81021E+04 6.45032E+04-3.40581E+05 3.23837E-10 1.21872E-09
 -1        33-4.16083E+03 1.90018E+05 6.75973E+04-1.58097E+05 7.98508E-11-5.13865E-10
 -1        34-2.20517E+05-1.99564E+04 1.28570E+03 7.34168E+04-3.03340E-09-2.10628E-09
 -1        35-3.91396E+04-3.40818E+04-4.60097E+02 8.05217E+04 1.12154E-08-3.59796E-09
 -1        36-2.10028E+06-3.85102E+02-3.85962E+04-7.12043E-09 1.52057E-10-2.27737E-09
 -1        37-2.11121E+06-6.78191E+03-2.23133E+04 1.32059E-09 6.08976E-10 3.63798E-12
 -1        38-2.10517E+06 9.68867E+01-9.72500E+03 2.41218E-09 2.99912E-11 2.56478E-09
 -1        39-2.10591E+06-3.52615E+02-5.12372E+03-1.51960E-08-5.00499E-10-1.92233E-09
 -1        40-2.10554E+06 3.63530E+01-2.52495E+03-1.60983E-08-5.33686E-10-7.15318E-10
 -1        41-2.10549E+06-1.25446E+01-1.45793E+03-7.09172E-09 2.65804E-10-8.70685E-10
 -1        42-2.10558E+06 1.61079E+01-1.04480E+03 2.13175E-09-3.38172E-10-4.01654E-09
 -1        43-2.10547E+06 2.75708E+00-1.21403E+03 1.03796E-08 2.40717E-09 6.45912E-10
 -1        44-2.10557E+06 2.97666E+01-1.94040E+03-3.84037E-09-6.39421E-10-8.85620E-10
 -1        45-2.10563E+06-4.06280E+01-3.75549E+03 4.61353E-09-1.39721E-09 5.07384E-09
 -1        46-2.10543E+06 1.04001E+02-7.24684E+03-2.22836E-08-3.00927E-10 4.88262E-09
 -1        47-2.10689E+06-1.05384E+03-1.51516E+04-1.24353E-08 6.86473E-10-4.25325E-09
 -1        48-2.10432E+06 2.88313E+02-2.89658E+04 1.44473E-09 6.60599E-10-4.63660E-09
 -1        49-2.12272E+06-2.02514E+04-6.65920E+04 1.40062E-10-8.43986E-10 0.00000E+00
 -1        50-2.08968E+06-1.14206E+03-1.15204E+05-3.55976E-09-1.89023E-10-9.82254E-10
 -1        51 3.05052E+04-6.46468E+05 1.03850E+05-8.08154E+05-1.60071E-10 1.77533E-09
 -1        52 1.79497E+04-6.29348E+05 5.47781E+04-1.02981E+06-5.82077E-11-5.58794E-09
 -1        53 6.02985E+03-6.47494E+05 2.30666E+04-8.05298E+05-2.07365E-10 5.04224E-09
 -1        54 9.20958E+03-6.50755E+05 8.96564E+03-1.03194E+06-5.60249E-10-1.58616E-09
 -1        55 5.22494E+03-6.48965E+05-1.94648E+03-8.05877E+05 1.25510E-10-1.04637E-09
 -1        56-2.71801E+06-3.88338E+05-1.29038E+05-1.03339E+06-9.49512E-10-2.98314E-10
 -1        57-2.75026E+06-4.26912E+05-7.34251E+04-1.04526E+06-6.40284E-10-2.62298E-09
 -1        58-2.73426E+06-3.93470E+05-2.97475E+04-1.03819E+06 7.27141E-10 2.13731E-09
 -1        59-2.73006E+06-4.02963E+05-1.51360E+04-1.04687E+06 3.88354E-10-2.78487E-09
 -1        60-2.73553E+06-3.94091E+05-6.88980E+03-1.03854E+06-1.02227E-09 7.50333E-11
 -1        61-2.72856E+06-4.01414E+05-3.61162E+03-1.04669E+06 5.45697E-12-4.17776E-09
 -1        62-2.73559E+06-3.94258E+05-2.14367E+03-1.03863E+06 6.17547E-10-4.97721E-09
 -1        63-2.72858E+06-4.01173E+05-2.06354E+03-1.04646E+06 3.44471E-10 3.87445E-09
 -1        64-2.73545E+06-3.94356E+05-3.06227E+03-1.03873E+06-8.69477E-10 8.77662E-10
 -1        65-2.72908E+06-4.01103E+05-6.04919E+03-1.04623E+06-3.50292E-09 3.79896E-09
 -1        66-2.73503E+06-3.94338E+05-1.20625E+04-1.03883E+06-3.04681E-10 5.03042E-09
 -1        67-2.73217E+06-4.03389E+05-2.67716E+04-1.04595E+06 6.76209E-10-1.63573E-09
 -1        68-2.73252E+06-3.93488E+05-5.27435E+04-1.03846E+06 1.04751E-09-4.62023E-09
 -1        69-2.76845E+06-4.45390E+05-1.30228E+05-1.04249E+06-1.64016E-09-4.46744E-09
 -1        70-2.70342E+06-3.84600E+05-2.28822E+05-1.03017E+06-4.36557E-10 3.55067E-09
 -1        71-7.13564E+05 1.90833E+02 1.83915E+04-6.14045E-09-3.17118E-10 7.00311E-10
 -1        72-7.08197E+05 3.22781E+03 1.06239E+04 1.68186E-08-1.56130E-09 2.18142E-09
 -1        73-7.11225E+05-4.55513E+01 4.61722E+03 4.30353E-09 4.21546E-11 4.07249E-09
 -1        74-7.10721E+05 1.67908E+02 2.40204E+03-4.78960E-09 1.80920E-10-6.99856E-10
 -1        75-7.11046E+05-1.60402E+01 1.12224E+03-7.37245E-10-4.35845E-10-5.21061E-09
 -1        76-7.10925E+05 6.83578E+00 5.27020E+02 1.45510E-08-2.48786E-10-1.34747E-09
 -1        77-7.11023E+05-2.51159E+00 1.65732E+02 6.21865E-09 2.68762E-10-2.27485E-09
 -1        78-7.10960E+05 2.33218E-01-1.01286E+02 1.78985E-08-4.48571E-10 1.92688E-09
 -1        79-7.11011E+05 6.33759E+00-4.14740E+02-8.41498E-10 7.88302E-10 1.80830E-09
 -1        80-7.11010E+05-1.12347E+01-9.61673E+02-4.92158E-09 1.51757E-10 1.68977E-09
 -1        81-7.10973E+05 2.77263E+01-1.93663E+03-4.52989E-09-1.16199E-10 2.04182E-09
 -1        82-7.11353E+05-2.84701E+02-4.09094E+03-1.44715E-08-1.71264E-10 6.28859E-10
 -1        83-7.10670E+05 7.74192E+01-7.83923E+03-4.69977E-09-3.91954E-10-6.31053E-09
 -1        84-7.15633E+05-5.47478E+03-1.80233E+04 1.30340E-08-5.34095E-10-1.20781E-09
 -1        85-7.06701E+05-3.22219E+02-3.11902E+04 1.17097E-09 2.77625E-10-1.47884E-09
 -1        86 1.15304E+03 5.64991E+05 1.47433E+05-1.07225E+05 7.20320E-10 1.39698E-09
 -1        87 2.62594E+04 6.07307E+05 9.59775E+04-1.85006E+05 1.47020E-09-3.13321E-09
 -1        88-4.05470E+02 5.81383E+05 6.32727E+04-1.06764E+05 1.33650E-09-4.53838E-09
 -1        89 2.17764E+04 6.02499E+05 8.27875E+04-1.85342E+05 1.94632E-09-8.68113E-10
 -1        90 1.51698E+03 5.68164E+05 1.19803E+05-1.06842E+05 1.76806E-09 1.55410E-09
 -1        91-1.17425E+06-1.69608E+05-4.05024E+04-4.48155E+05-1.89175E-10-2.58296E-09
 -1        92-1.18243E+06-1.83579E+05-2.30414E+04-4.54063E+05-3.58170E-10 1.52068E-09
 -1        93-1.17937E+06-1.71181E+05-9.34436E+03-4.49652E+05-2.83080E-10-5.47971E-10
 -1        94-1.17608E+06-1.76104E+05-4.75736E+03-4.54604E+05 3.35945E-10-3.02583E-09
 -1        95-1.17978E+06-1.71365E+05-2.17058E+03-4.49752E+05 3.64480E-10 3.68168E-10
 -1        96-1.17559E+06-1.75638E+05-1.14612E+03-4.54572E+05-6.54040E-10-5.36602E-10
 -1        97-1.17982E+06-1.71405E+05-6.94726E+02-4.49770E+05 1.05138E-09 3.39980E-09
 -1        98-1.17558E+06-1.75584E+05-6.94076E+02-4.54526E+05-2.34957E-09-6.12090E-09
 -1        99-1.17978E+06-1.71423E+05-1.05436E+03-4.49790E+05-1.79853E-10 5.61840E-10
 -1       100-1.17572E+06-1.75593E+05-2.09992E+03-4.54486E+05-1.42336E-10-1.74964E-09
 -1       101-1.17966E+06-1.71397E+05-4.19416E+03-4.49802E+05-2.96950E-10 3.33966E-09
 -1       102-1.17675E+06-1.76425E+05-9.30864E+03-4.54436E+05 6.09134E-10 1.51385E-09
 -1       103-1.17880E+06-1.71082E+05-1.83358E+04-4.49647E+05-1.60981E-10-1.26511E-09
 -1       104-1.18932E+06-1.91006E+05-4.52356E+04-4.53251E+05 5.02041E-10-5.04133E-09
 -1       105-1.16867E+06-1.68047E+05-7.95176E+04-4.46762E+05-1.30240E-09-4.94765E-10
 -1       106-1.21659E+05 2.68947E+02 2.55749E+04-1.16379E-08-3.06467E-10 1.53887E-09
 -1       107-1.14272E+05 4.48594E+03 1.47772E+04-7.08360E-09 1.95740E-10-4.39059E-10
 -1       108-1.18402E+05-6.32944E+01 6.43089E+03-3.42505E-08-2.82520E-11-9.02446E-10
 -1       109-1.17779E+05 2.33148E+02 3.35956E+03-9.41691E-09-1.85753E-10-5.13023E-09
 -1       110-1.18154E+05-2.28708E+01 1.59753E+03-2.62109E-09-6.82798E-11-3.78333E-09
 -1       111-1.18059E+05 9.09293E+00 8.07200E+02-1.44410E-08 3.59255E-10 1.95537E-09
 -1       112-1.18123E+05-5.75837E+00 3.76301E+02-1.60493E-08-3.77604E-10 9.37433E-10
 -1       113-1.18097E+05-3.62112E-01 1.56686E+02 3.11830E-09 9.29589E-10 2.95814E-09
 -1       114-1.18116E+05-1.57756E-01 8.87599E+00 1.08509E-08-6.77075E-10-1.61781E-09
 -1       115-1.18113E+05-2.31108E+00-1.35001E+02-1.05633E-08-7.13202E-11-6.48788E-09
 -1       116-1.18107E+05 4.81279E+00-3.38235E+02-9.38391E-09 9.37964E-10-8.80732E-10
 -1       117-1.18178E+05-5.28437E+01-7.48606E+02 1.78018E-08-7.96411E-10 3.54510E-09
 -1       118-1.18051E+05 1.42433E+01-1.44984E+03 8.35098E-09 6.61852E-11 7.86315E-10
 -1       119-1.18972E+05-1.01539E+03-3.34197E+03-1.90789E-09-3.18374E-10 1.53335E-09
 -1       120-1.17313E+05-6.07173E+01-5.78701E+03-1.10043E-08-2.33797E-10-2.44768E-09
 -1       121 1.27551E+02-1.59255E+05 2.32469E+04-6.70418E+04-9.27685E-11-3.87081E-09
 -1       122 4.22875E+03-1.52605E+05 1.63414E+04-1.16152E+05 7.41238E-11 2.00998E-09
 -1       123-4.01005E+01-1.56963E+05 1.28840E+04-6.67388E+04-1.43700E-10 4.13820E-10
 -1       124 5.70468E+03-1.51705E+05 2.00714E+04-1.16372E+05 6.04814E-11 3.08091E-09
 -1       125 4.22638E+02-1.60626E+05 3.11428E+04-6.68169E+04-2.74667E-10 2.40789E-09
 -1       126-4.73516E+05-7.14147E+04-1.46654E+04-1.84664E+05-1.45030E-09 4.60204E-10
 -1       127-4.74083E+05-7.88574E+04-8.34264E+03-1.89544E+05 1.05103E-09 1.46918E-09
 -1       128-4.75392E+05-7.19634E+04-3.38609E+03-1.85188E+05-7.38964E-13 3.52475E-09
 -1       129-4.71767E+05-7.61718E+04-1.72627E+03-1.89764E+05 6.15202E-10-2.31335E-09
 -1       130-4.75544E+05-7.20272E+04-7.92856E+02-1.85223E+05-3.20938E-10-1.03850E-09
 -1       131-4.71588E+05-7.60071E+04-4.29019E+02-1.89756E+05-4.77769E-11-5.10681E-10
 -1       132-4.75556E+05-7.20401E+04-2.80162E+02-1.85227E+05 8.29687E-10 6.26028E-09
 -1       133-4.71582E+05-7.59923E+04-3.12688E+02-1.89743E+05-9.55424E-10-2.08092E-09
 -1       134-4.75541E+05-7.20445E+04-5.07366E+02-1.85232E+05-4.98858E-10-6.92353E-10
 -1       135-4.71642E+05-7.60056E+04-1.03216E+03-1.89731E+05 6.07997E-10-1.33400E-09
 -1       136-4.75480E+05-7.20290E+04-2.07219E+03-1.85232E+05 2.39652E-10 1.89175E-10
 -1       137-4.72139E+05-7.64260E+04-4.60170E+03-1.89714E+05-1.22782E-11-1.93268E-10
 -1       138-4.75057E+05-7.18706E+04-9.06714E+03-1.85147E+05 3.06500E-10 1.29148E-10
 -1       139-4.78357E+05-8.36169E+04-2.23594E+04-1.89109E+05 1.00124E-09 3.55385E-09
 -1       140-4.70024E+05-7.03989E+04-3.93092E+04-1.83737E+05 1.45019E-09 3.37241E-09
 -1       141-1.14149E+04 4.72462E+01 4.47967E+03-2.87383E-09-3.09903E-11 1.08002E-09
 -1       142-1.01210E+04 7.86554E+02 2.58018E+03 4.92639E-09-1.56563E-10 1.76064E-09
 -1       143-1.08434E+04-1.07459E+01 1.10515E+03-3.02526E-09 3.21654E-10 1.37885E-09
 -1       144-1.07375E+04 4.11513E+01 5.42717E+02-4.45346E-09-1.05547E-09 2.07717E-09
 -1       145-1.07985E+04-2.58053E+00 1.88422E+02 8.58552E-09 1.94614E-10-7.83004E-10
 -1       146-1.07929E+04 2.58789E+00-4.57545E+01 1.44884E-08 7.08678E-11 8.65192E-10
 -1       147-1.07880E+04 4.72778E+00-3.03270E+02 4.69617E-09-4.48170E-10 2.44617E-09
 -1       148-1.08268E+04 1.68211E+00-7.26926E+02 2.44940E-09 8.18036E-10 8.15362E-10
 -1       149-1.07647E+04 2.27211E+01-1.48368E+03 1.66866E-09 9.64295E-11-3.03055E-09
 -1       150-1.09660E+04-3.40328E+01-3.07266E+03 6.37690E-09-9.76607E-10-7.44512E-09
 -1       151-1.06487E+04 8.63605E+01-6.03015E+03-1.50475E-08 5.30159E-10 7.42375E-10
 -1       152-1.20185E+04-8.77410E+02-1.26543E+04-2.35304E-08 1.89623E-10 3.66595E-09
 -1       153-9.71154E+03 2.38416E+02-2.42082E+04-7.11634E-09-1.09912E-10-3.68254E-09
 -1       154-2.52162E+04-1.68832E+04-5.56203E+04 1.35060E-08-4.32992E-10-1.99270E-09
 -1       155 2.56369E+03-1.00387E+03-9.62189E+04-6.96491E-09 8.11532E-10 3.32511E-09
 -1       156-6.12818E+00-2.56716E+04 3.46255E+03-3.07932E+04 3.38787E-10-1.13778E-09
 -1       157 6.40052E+02-2.46782E+04 2.81041E+03-5.32481E+04-1.20508E-10-2.36832E-09
 -1       158-1.15086E+01-2.54183E+04 2.82633E+03-3.06303E+04 7.13271E-10-3.22871E-11
 -1       159 1.54895E+03-2.40380E+04 5.18428E+03-5.34032E+04-1.43700E-10-2.54295E-09
 -1       160 1.22961E+02-2.64754E+04 8.47412E+03-3.06369E+04 8.43556E-10-1.14142E-09
 -1       161-6.41950E+04-9.94850E+03-1.51739E+03-2.53688E+04 1.93154E-10 1.05445E-11
 -1       162-6.39048E+04-1.10650E+04-8.68005E+02-2.62707E+04-8.66748E-10-4.70755E-09
 -1       163-6.43775E+04-1.00157E+04-3.62787E+02-2.54349E+04-8.82210E-10 6.22379E-10
 -1       164-6.36769E+04-1.07764E+04-2.06190E+02-2.62799E+04-6.79222E-10 1.61629E-09
 -1       165-6.43917E+04-1.00233E+04-1.39558E+02-2.54393E+04-2.09184E-11 7.35156E-10
 -1       166-6.36636E+04-1.07584E+04-1.67168E+02-2.62788E+04 8.74820E-10-3.59020E-09
 -1       167-6.43874E+04-1.00218E+04-2.81932E+02-2.54397E+04 6.59611E-10 1.78204E-09
 -1       168-6.36852E+04-1.07609E+04-5.75853E+02-2.62842E+04 1.08321E-09-1.63868E-09
 -1       169-6.43663E+04-1.00077E+04-1.16834E+03-2.54379E+04 5.02951E-10 8.16954E-10
 -1       170-6.38218E+04-1.08281E+04-2.52442E+03-2.63119E+04 3.52657E-10 3.46313E-09
 -1       171-6.42461E+04-9.93426E+03-5.13455E+03-2.54189E+04-1.14164E-09 2.93244E-09
 -1       172-6.50254E+04-1.19242E+04-1.14462E+04-2.63533E+04 1.58633E-09 1.06593E-09
 -1       173-6.32424E+04-9.49410E+03-2.25606E+04-2.51769E+04 1.39994E-09 2.46291E-09
 -1       174-8.03294E+04-2.99987E+04-5.56489E+04-2.50929E+04 1.49885E-09 9.85165E-09
 -1       175-5.08750E+04-5.66009E+03-9.78043E+04-2.14899E+04 6.85759E-10 3.13230E-09
 -1       191 1.83088E+04 1.58315E+06 6.23719E+04-6.47562E+03-4.03816E-10-2.56114E-09
 -1       192 7.67677E+03 1.59665E+06 3.79450E+04-7.88638E+03-1.86446E-10-1.90448E-09
 -1       193 7.66756E+02 1.58854E+06 2.75145E+04-6.34667E+03-1.15580E-09 7.46695E-10
 -1       194 7.50499E+03 1.59649E+06 3.73508E+04-8.11480E+03-1.01863E-09-2.75668E-09
 -1       195 1.78707E+04 1.58329E+06 6.09871E+04-6.22906E+03-2.28101E-09-2.46018E-09
 -1       251 4.71381E+05-6.42735E+02 1.00963E+05-8.92191E+04 2.91038E-11 1.17871E-09
 -1       252 5.01470E+05 1.65351E+04 5.85654E+04-1.53951E+05-6.02085E-10-2.71757E-09
 -1       253 4.83330E+05-1.13754E+03 2.53124E+04-8.85056E+04 1.05501E-10-1.91721E-09
 -1       254 4.85930E+05 4.19033E+02 1.33722E+04-1.54522E+05-5.16593E-10 1.69166E-09
 -1       255 4.83585E+05-3.81253E+02 6.37369E+03-8.85870E+04 1.49157E-10 2.36469E-09
 -1       256 4.83768E+05 7.25859E+01 3.46327E+03-1.54384E+05-1.80989E-10 1.33878E-09
 -1       257 4.83259E+05 4.09087E+01 1.97645E+03-8.86498E+04 3.71074E-10 3.33694E-09
 -1       258 4.83117E+05 3.10132E+02 1.64816E+03-1.54297E+05-2.60115E-10 4.60022E-09
 -1       259 4.83105E+05 1.65057E+02 2.02622E+03-8.86741E+04-8.09393E-10-1.15369E-09
 -1       260 4.83221E+05 3.57568E+02 3.53535E+03-1.54293E+05 7.96717E-10 1.57434E-09
 -1       261 4.83122E+05-8.57195E+00 6.57575E+03-8.86534E+04 1.16415E-09 2.10366E-09
 -1       262 4.84847E+05 1.00613E+03 1.36559E+04-1.54347E+05-7.67614E-10 1.78989E-09
 -1       263 4.82539E+05-5.15132E+02 2.59443E+04-8.86183E+04-9.82254E-11 2.88856E-09
 -1       264 5.00071E+05 1.77045E+04 5.97338E+04-1.53875E+05-1.33514E-09 3.28828E-09
 -1       265 4.70051E+05 2.65887E+02 1.03146E+05-8.91619E+04-8.80391E-10-4.03816E-09
 -1       266 9.45321E+02-1.49743E+05 4.08282E+04-7.38977E+04-1.81899E-10-6.81212E-10
 -1       267 7.96474E+03-1.38095E+05 2.20601E+04-1.29445E+05 7.68523E-11-2.01453E-09
 -1       268 2.09961E+02-1.44021E+05 6.44021E+03-7.40095E+04-6.86668E-11 5.69344E-10
 -1       269-1.83042E+03-1.45218E+05-3.71743E+03-1.28862E+05 3.49701E-10 3.07045E-09
 -1       270-3.03446E+02-1.41199E+05-1.35613E+04-7.45170E+04-1.80080E-10 1.77533E-09
 -1       271-1.62080E+06-2.78512E+05-1.21881E+05-6.78830E+05 8.00355E-11-9.24047E-10
 -1       272-1.62104E+06-3.43820E+05-6.91665E+04-7.23582E+05-6.69388E-10-3.09865E-09
 -1       273-1.63740E+06-2.82086E+05-2.82032E+04-6.82886E+05 4.54747E-10-1.26602E-09
 -1       274-1.60184E+06-3.22174E+05-1.42512E+04-7.27056E+05-3.87445E-10-1.13323E-09
 -1       275-1.63936E+06-2.81994E+05-6.52994E+03-6.83126E+05-6.12999E-10 1.67256E-09
 -1       276-1.60051E+06-3.21068E+05-3.30841E+03-7.28005E+05-7.43967E-10-4.87125E-09
 -1       277-1.63994E+06-2.81687E+05-1.84867E+03-6.83123E+05 1.05501E-10-1.45076E-09
 -1       278-1.60047E+06-3.21115E+05-1.53795E+03-7.28497E+05-8.98581E-10 1.81899E-10
 -1       279-1.64010E+06-2.81539E+05-2.06463E+03-6.83116E+05-7.06905E-10 4.48381E-10
 -1       280-1.60066E+06-3.21221E+05-3.93980E+03-7.28566E+05 1.56331E-09 2.57842E-10
 -1       281-1.63980E+06-2.81537E+05-7.81013E+03-6.83094E+05 8.45830E-11-3.13776E-10
 -1       282-1.60241E+06-3.22760E+05-1.72827E+04-7.28172E+05-1.85537E-10-3.45244E-09
 -1       283-1.63789E+06-2.81243E+05-3.41009E+04-6.82770E+05 3.81988E-11-4.03816E-10
 -1       284-1.62567E+06-3.49521E+05-8.40000E+04-7.25006E+05-4.88399E-10-9.51331E-10
 -1       285-1.61834E+06-2.76268E+05-1.47798E+05-6.77596E+05-7.59428E-10 1.92085E-09
 -1       286 1.92528E+04 1.82208E+02 5.96320E+04-4.71018E+04 1.69166E-09-1.61526E-09
 -1       287 3.67066E+04 1.01737E+04 3.45191E+04-8.09368E+04 7.33962E-10 7.38510E-10
 -1       288 2.65965E+04-3.69291E+02 1.49796E+04-4.66681E+04-9.09495E-10-2.01544E-09
 -1       289 2.80685E+04 4.40278E+02 7.87542E+03-8.13639E+04-1.59162E-10-3.23553E-09
 -1       290 2.69778E+04-1.12854E+02 3.76904E+03-4.66553E+04 8.14907E-10 1.92813E-09
 -1       291 2.71304E+04 6.36836E+01 2.00994E+03-8.13759E+04 3.69255E-10-7.13044E-10
 -1       292 2.69277E+04 2.14642E+01 1.11521E+03-4.66573E+04 1.42063E-09 5.25233E-10
 -1       293 2.69163E+04 1.14448E+02 8.57733E+02-8.13740E+04 1.06957E-09 2.29056E-09
 -1       294 2.68918E+04 5.50424E+01 9.80196E+02-4.66573E+04 3.75763E-10-1.92813E-10
 -1       295 2.69707E+04 1.31020E+02 1.64971E+03-8.13742E+04 8.30141E-10-2.27828E-10
 -1       296 2.68799E+04-7.91413E+00 3.04249E+03-4.66570E+04-8.91305E-11-3.55590E-09
 -1       297 2.76364E+04 4.73002E+02 6.29700E+03-8.13631E+04 1.25692E-09-6.24141E-09
 -1       298 2.65395E+04-1.82278E+02 1.19734E+04-4.66679E+04 6.80302E-10 8.52879E-10
 -1       299 3.44712E+04 8.25745E+03 2.75369E+04-8.10280E+04-6.03904E-10 3.52020E-09
 -1       300 2.06648E+04 2.74205E+02 4.75824E+04-4.70004E+04-4.72937E-11-5.02041E-10
 -1       301 2.42314E+04 1.34043E+05 7.63698E+04-3.54651E+05 6.58474E-10 2.91038E-10
 -1       302 1.19125E+04 1.49669E+05 4.40328E+04-4.52676E+05-1.01863E-10 4.52019E-10
 -1       303 2.71221E+03 1.40091E+05 2.74929E+04-3.53972E+05 3.96540E-10-1.53909E-09
 -1       304 8.13349E+03 1.46370E+05 3.12399E+04-4.52708E+05-1.23691E-10-1.28421E-09
 -1       305 1.46677E+04 1.37204E+05 4.65363E+04-3.54638E+05 9.73159E-11 1.59707E-09
 -1       306-1.83995E+06-2.86439E+05-1.40583E+05-7.32799E+05-3.15731E-09-2.49565E-09
 -1       307-1.86113E+06-3.42094E+05-7.99406E+04-7.61583E+05-1.51977E-09 2.84672E-10
 -1       308-1.85826E+06-2.91421E+05-3.24383E+04-7.37677E+05 4.12911E-10-1.81899E-12
 -1       309-1.83879E+06-3.16633E+05-1.64628E+04-7.64314E+05-4.76575E-10-8.77162E-09
 -1       310-1.86000E+06-2.91777E+05-7.46627E+03-7.37904E+05-1.96451E-10-1.80580E-09
 -1       311-1.83697E+06-3.15254E+05-3.80738E+03-7.64690E+05-1.15688E-09 1.24203E-09
 -1       312-1.86032E+06-2.91730E+05-2.07683E+03-7.37873E+05-3.71983E-10-1.10470E-09
 -1       313-1.83679E+06-3.15242E+05-1.68967E+03-7.64836E+05-6.51198E-10-1.03364E-09
 -1       314-1.86034E+06-2.91703E+05-2.19175E+03-7.37863E+05-3.19068E-09-6.94627E-09
 -1       315-1.83698E+06-3.15309E+05-4.12091E+03-7.64793E+05-2.36923E-09-9.74069E-10
 -1       316-1.86005E+06-2.91692E+05-8.12169E+03-7.37873E+05-7.83075E-10 2.51475E-09
 -1       317-1.83894E+06-3.16878E+05-1.79599E+04-7.64520E+05-4.93401E-10-2.73758E-10
 -1       318-1.85824E+06-2.91232E+05-3.53805E+04-7.37595E+05 1.68257E-10 8.94943E-10
 -1       319-1.86326E+06-3.44792E+05-8.72464E+04-7.61745E+05 1.30422E-09 1.00590E-09
 -1       320-1.83837E+06-2.85671E+05-1.53392E+05-7.32193E+05-1.59525E-09 2.69938E-09
 -1       321 1.80303E+05 5.71920E+02 6.31512E+04-2.36452E+04 1.19144E-10 2.32831E-10
 -1       322 1.98550E+05 1.10112E+04 3.65026E+04-4.07184E+04-1.51567E-09 2.05546E-10
 -1       323 1.88286E+05-2.02187E+02 1.58847E+04-2.34558E+04-2.58296E-10-3.53248E-09
 -1       324 1.89789E+05 5.55675E+02 8.32023E+03-4.08977E+04-9.45874E-10-4.28554E-09
 -1       325 1.88856E+05-6.67082E+01 3.98475E+03-2.34558E+04 1.22964E-09 2.21053E-09
 -1       326 1.89038E+05 3.39907E+01 2.08055E+03-4.08924E+04-5.41831E-10 2.27624E-09
 -1       327 1.88906E+05-6.61684E+00 1.09766E+03-2.34615E+04-9.74978E-10-2.37060E-09
 -1       328 1.88931E+05 2.34330E+01 7.30777E+02-4.08860E+04-1.64562E-10 1.16324E-09
 -1       329 1.88910E+05 2.74189E+00 6.95890E+02-2.34623E+04 1.61435E-11 9.20863E-10
 -1       330 1.88965E+05 2.88811E+01 1.04890E+03-4.08880E+04 1.99748E-10 1.83798E-09
 -1       331 1.88895E+05-2.67132E+01 1.86673E+03-2.34595E+04 5.55247E-10 8.29687E-10
 -1       332 1.89324E+05 2.57409E+02 3.82196E+03-4.08916E+04-1.78261E-10 2.98886E-09
 -1       333 1.88652E+05-1.01298E+02 7.25783E+03-2.34585E+04-3.66526E-10-1.93904E-09
 -1       334 1.93362E+05 5.01055E+03 1.66641E+04-4.07320E+04-6.47560E-10 2.93460E-09
 -1       335 1.85033E+05 2.28890E+02 2.88095E+04-2.36227E+04-2.55568E-10 4.31646E-09
 -1       336 4.05427E+02-1.74958E+05 2.96364E+04-2.11899E+05-3.14685E-10-1.47338E-09
 -1       337 6.85813E+03-1.67381E+05 1.99268E+04-3.67861E+05 3.76531E-10-4.38104E-09
 -1       338 8.85703E+02-1.72636E+05 1.38662E+04-2.11208E+05-4.94765E-10-3.93447E-09
 -1       339 6.85277E+03-1.68099E+05 1.92749E+04-3.68017E+05 2.18279E-10-1.17143E-09
 -1       340 8.41908E+02-1.75293E+05 2.83636E+04-2.11737E+05-4.92946E-10 4.71118E-10
 -1       341-1.14806E+06-1.76444E+05-7.84207E+04-4.53957E+05-2.76941E-10 7.27596E-10
 -1       342-1.15985E+06-2.07597E+05-4.46038E+04-4.70142E+05-9.06766E-10-4.75075E-09
 -1       343-1.15816E+06-1.79325E+05-1.80948E+04-4.56733E+05 2.19643E-10-2.21735E-09
 -1       344-1.14743E+06-1.93298E+05-9.19781E+03-4.71458E+05 3.35376E-10 1.24373E-09
 -1       345-1.15904E+06-1.79602E+05-4.18011E+03-4.56888E+05-7.26686E-10-1.74441E-09
 -1       346-1.14644E+06-1.92474E+05-2.16608E+03-4.71535E+05 1.21418E-10 1.78853E-09
 -1       347-1.15916E+06-1.79627E+05-1.23805E+03-4.56889E+05-1.65335E-09-3.01998E-09
 -1       348-1.14635E+06-1.92434E+05-1.11472E+03-4.71541E+05 1.42364E-10-2.98587E-09
 -1       349-1.15915E+06-1.79633E+05-1.57323E+03-4.56893E+05-4.91127E-10 2.22144E-09
 -1       350-1.14651E+06-1.92479E+05-3.05480E+03-4.71505E+05 5.27507E-11 5.30235E-10
 -1       351-1.15895E+06-1.79599E+05-6.06583E+03-4.56894E+05 2.41926E-10-8.54925E-11
 -1       352-1.14796E+06-1.93692E+05-1.34386E+04-4.71405E+05 2.69210E-10-1.51340E-09
 -1       353-1.15768E+06-1.79176E+05-2.64715E+04-4.56658E+05 1.41881E-09 1.47338E-09
 -1       354-1.16610E+06-2.14691E+05-6.52839E+04-4.69574E+05 1.01249E-09-1.59071E-09
 -1       355-1.14296E+06-1.74877E+05-1.14758E+05-4.52528E+05-7.98536E-10-2.70666E-09
 -1       356 1.92297E+05 2.82244E+02 2.95343E+04-1.21122E+04 1.60981E-10 4.80213E-10
 -1       357 2.00817E+05 5.15547E+03 1.70626E+04-2.08955E+04-8.85848E-10-1.23237E-10
 -1       358 1.96045E+05-8.94841E+01 7.41018E+03-1.20185E+04-1.03228E-10 2.11003E-10
 -1       359 1.96739E+05 2.56161E+02 3.84705E+03-2.09845E+04-1.81899E-10-1.61981E-09
 -1       360 1.96322E+05-3.24775E+01 1.77655E+03-1.20198E+04 3.41061E-11-1.08980E-09
 -1       361 1.96394E+05 6.35972E+00 7.93224E+02-2.09810E+04 6.47674E-10 1.41256E-09
 -1       362 1.96355E+05-4.28573E+00 1.59178E+02-1.20221E+04 3.75280E-10 2.01067E-09
 -1       363 1.96323E+05-5.42913E-01-3.81990E+02-2.09782E+04 1.52681E-10 4.22176E-09
 -1       364 1.96379E+05 1.57265E+01-1.09892E+03-1.20227E+04-4.43208E-10 2.14607E-09
 -1       365 1.96206E+05-3.07301E+01-2.43312E+03-2.09796E+04 4.44743E-10-6.61407E-09
 -1       366 1.96479E+05 6.48046E+01-4.85121E+03-1.20207E+04 3.06954E-10-2.92948E-09
 -1       367 1.95367E+05-7.18577E+02-1.02182E+04-2.09817E+04-2.62162E-10-5.81508E-09
 -1       368 1.97247E+05 1.79893E+02-1.95680E+04-1.20208E+04-6.94854E-10-6.44377E-09
 -1       369 1.84722E+05-1.36655E+04-4.49608E+04-2.09021E+04-4.36557E-10-1.99179E-10
 -1       370 2.07187E+05-8.41616E+02-7.77917E+04-1.20925E+04 8.21274E-10 4.22369E-09
 -1       371 1.02656E+02-6.90009E+04 4.02451E+03-1.44654E+05 1.71531E-09 1.32604E-09
 -1       372 1.50396E+03-6.83107E+04 2.42582E+03-2.51004E+05-4.85670E-10 2.56478E-09
 -1       373 4.91966E+02-6.89915E+04 1.04311E+03-1.44187E+05 2.35923E-09 5.13865E-10
 -1       374 9.46128E+02-6.91831E+04 5.40378E+02-2.51129E+05-5.62068E-10 3.13798E-09
 -1       375 3.17241E+02-6.87361E+04 1.13832E+02-1.44529E+05 1.83627E-09 2.32285E-09
 -1       376-3.42346E+05-6.43238E+04-2.70422E+04-1.51094E+05 3.00361E-10 1.08230E-09
 -1       377-3.38181E+05-8.32749E+04-1.53788E+04-1.66109E+05-5.69344E-10-2.20257E-09
 -1       378-3.45890E+05-6.52544E+04-6.24862E+03-1.52017E+05-4.32010E-11-1.78170E-09
 -1       379-3.33887E+05-7.83784E+04-3.18930E+03-1.66618E+05-5.45697E-12-3.59879E-09
 -1       380-3.46192E+05-6.53526E+04-1.47858E+03-1.52082E+05 1.52340E-10-1.72133E-09
 -1       381-3.33564E+05-7.80811E+04-8.27380E+02-1.66628E+05 8.32799E-10 2.84740E-09
 -1       382-3.46217E+05-6.53713E+04-5.93846E+02-1.52087E+05-3.59250E-11-1.56410E-09
 -1       383-3.33538E+05-7.80645E+04-7.42314E+02-1.66605E+05 2.13731E-11-2.18461E-09
 -1       384-3.46177E+05-6.53847E+04-1.28397E+03-1.52081E+05 4.84306E-10 1.94177E-09
 -1       385-3.33647E+05-7.81305E+04-2.65039E+03-1.66570E+05 6.12999E-10-2.93767E-10
 -1       386-3.45997E+05-6.53498E+04-5.35019E+03-1.52053E+05-2.17915E-09 2.76759E-09
 -1       387-3.34860E+05-7.92534E+04-1.18801E+04-1.66506E+05 2.95404E-09 2.68665E-09
 -1       388-3.44878E+05-6.49674E+04-2.34253E+04-1.51800E+05 2.47837E-09-1.22600E-09
 -1       389-3.50818E+05-9.78404E+04-5.77266E+04-1.64893E+05-2.54204E-09-9.84983E-10
 -1       390-3.31835E+05-6.11922E+04-1.01494E+05-1.48110E+05 4.01724E-09-7.56700E-10
 -1       406 1.68600E+04 1.55640E+06 5.93469E+04 6.78044E+04-3.08864E-09-8.87667E-10
 -1       407 7.03297E+03 1.56943E+06 3.88217E+04 8.76468E+04-1.18962E-09-4.63479E-09
 -1       408 6.56024E+02 1.56138E+06 3.28321E+04 6.79672E+04-4.76564E-09-1.42609E-09
 -1       409 1.05331E+04 1.57282E+06 5.10777E+04 8.70503E+04-3.33648E-09 2.87218E-09
 -1       410 2.58050E+04 1.55371E+06 8.79037E+04 6.84708E+04-7.30506E-09 2.19734E-09
 -1       466 9.42835E+05 5.72237E+02 8.96638E+04-5.11751E+04-1.18234E-10-2.58296E-10
 -1       467 9.68806E+05 1.54684E+04 5.18704E+04-8.86340E+04 1.12777E-10 1.72440E-09
 -1       468 9.54013E+05-3.93042E+02 2.25690E+04-5.08974E+04-2.31012E-10 1.14051E-09
 -1       469 9.56085E+05 7.50911E+02 1.18667E+04-8.88055E+04 3.92902E-10-5.48425E-10
 -1       470 9.54708E+05-1.06620E+02 5.73657E+03-5.09761E+04 1.27329E-10 3.21052E-10
 -1       471 9.54875E+05 8.69500E+01 3.11775E+03-8.86854E+04-1.82808E-10 2.65118E-10
 -1       472 9.54725E+05 1.61626E+01 1.86864E+03-5.10189E+04 6.68479E-11-3.64253E-10
 -1       473 9.54714E+05 8.73416E+01 1.66410E+03-8.86481E+04 2.02135E-10-1.88174E-09
 -1       474 9.54729E+05 2.74463E+00 2.20876E+03-5.10137E+04-3.49701E-10 5.06589E-10
 -1       475 9.54961E+05 7.87561E+01 3.99340E+03-8.87086E+04 6.91216E-11 3.17505E-09
 -1       476 9.54695E+05-1.57089E+02 7.53168E+03-5.09579E+04 4.18368E-11-1.05501E-09
 -1       477 9.56528E+05 9.78456E+02 1.56846E+04-8.88467E+04-7.23958E-10-3.99154E-10
 -1       478 9.53736E+05-5.06242E+02 2.98868E+04-5.08737E+04 4.03816E-10-1.16961E-09
 -1       479 9.73282E+05 2.05200E+04 6.87044E+04-8.86648E+04-1.45519E-09-1.79034E-09
 -1       480 9.38867E+05 8.31804E+02 1.18808E+05-5.11813E+04-1.05138E-09-1.06229E-09
 -1       481 5.11384E+02 3.11453E+05 2.91330E+04-6.70047E+04 2.80124E-10-1.08685E-09
 -1       482 5.54713E+03 3.19639E+05 1.78638E+04-1.16041E+05-1.20963E-10 3.50929E-09
 -1       483 1.35155E+02 3.14976E+05 9.81653E+03-6.68782E+04-2.50111E-12 1.21872E-09
 -1       484 2.55753E+03 3.17323E+05 9.86562E+03-1.15959E+05 9.73159E-11 9.45874E-11
 -1       485 2.13601E+02 3.13998E+05 1.22763E+04-6.70923E+04 3.32875E-10-1.15506E-09
 -1       486-8.82825E+05-1.40958E+05-9.55521E+04-3.57532E+05 3.16049E-10-3.63798E-11
 -1       487-8.98602E+05-1.77482E+05-5.43419E+04-3.75623E+05-2.29193E-10-2.00089E-09
 -1       488-8.95160E+05-1.44445E+05-2.20521E+04-3.60930E+05-2.48292E-10-1.56433E-10
 -1       489-8.83490E+05-1.60066E+05-1.11919E+04-3.77263E+05-1.69894E-09-4.04953E-09
 -1       490-8.96254E+05-1.44768E+05-5.06635E+03-3.61131E+05 2.82853E-10-1.01409E-10
 -1       491-8.82304E+05-1.59064E+05-2.56312E+03-3.77395E+05-4.18368E-10-2.12378E-09
 -1       492-8.96436E+05-1.44772E+05-1.35264E+03-3.61130E+05 1.17325E-10-5.65905E-10
 -1       493-8.82186E+05-1.59037E+05-1.01632E+03-3.77462E+05 4.55884E-10 2.28738E-10
 -1       494-8.96465E+05-1.44751E+05-1.21215E+03-3.61124E+05 1.58479E-10 5.10681E-10
 -1       495-8.82277E+05-1.59091E+05-2.19720E+03-3.77486E+05-3.05818E-11-1.89925E-09
 -1       496-8.96352E+05-1.44709E+05-4.28126E+03-3.61114E+05-2.58751E-10 6.86668E-10
 -1       497-8.83276E+05-1.59962E+05-9.44676E+03-3.77442E+05 3.45608E-11 6.50289E-10
 -1       498-8.95463E+05-1.44409E+05-1.85908E+04-3.60937E+05 3.55612E-10-5.65706E-10
 -1       499-8.96002E+05-1.74689E+05-4.58324E+04-3.76129E+05-2.84217E-11 1.11413E-09
 -1       500-8.85093E+05-1.41434E+05-8.05772E+04-3.58053E+05-7.85349E-10 1.27329E-09
 -1       501 5.25032E+05 2.54661E+02 7.85841E+04-5.90715E+04 1.16415E-09 5.22050E-10
 -1       502 5.47959E+05 1.34346E+04 4.54954E+04-1.01904E+05-2.98314E-10-1.10322E-09
 -1       503 5.34683E+05-4.54390E+02 1.97570E+04-5.86532E+04-7.27596E-11 3.29237E-10
 -1       504 5.36538E+05 6.34178E+02 1.04002E+04-1.02244E+05 3.71074E-10 1.61890E-10
 -1       505 5.35175E+05-1.07717E+02 5.00708E+03-5.87046E+04 4.94765E-10 1.15961E-09
 -1       506 5.35303E+05 1.38972E+02 2.71641E+03-1.02156E+05-8.68567E-11-4.44288E-10
 -1       507 5.35117E+05 6.03326E+01 1.60015E+03-5.87424E+04 9.69521E-10-1.64619E-09
 -1       508 5.35065E+05 1.87690E+02 1.38697E+03-1.02113E+05 1.83832E-09-1.24510E-09
 -1       509 5.35092E+05 7.52404E+01 1.79177E+03-5.87477E+04 6.51426E-10 1.53386E-09
 -1       510 5.35252E+05 1.85339E+02 3.19980E+03-1.02134E+05 1.52249E-09-1.48520E-09
 -1       511 5.35086E+05-6.83992E+01 6.00783E+03-5.87213E+04 4.40195E-10-3.45835E-10
 -1       512 5.36583E+05 8.61317E+02 1.25028E+04-1.02200E+05 1.81990E-09-9.71738E-11
 -1       513 5.34393E+05-4.04244E+02 2.38030E+04-5.86796E+04 2.65572E-10-1.07502E-09
 -1       514 5.50116E+05 1.63602E+04 5.47542E+04-1.01879E+05-2.60115E-10 1.34605E-09
 -1       515 5.22663E+05 5.54722E+02 9.46401E+04-5.90696E+04-6.07542E-10-7.27596E-11
 -1       516 1.11224E+03 1.79449E+05 4.68328E+04-1.69187E+05 2.05728E-09-1.14596E-10
 -1       517 9.73762E+03 1.92228E+05 3.01718E+04-2.93696E+05 2.84854E-09 6.30723E-09
 -1       518 5.82671E+02 1.84781E+05 1.92074E+04-1.68852E+05 2.18279E-09 1.90812E-09
 -1       519 7.19613E+03 1.91094E+05 2.41188E+04-2.93477E+05 2.92493E-09-7.76708E-10
 -1       520 3.47459E+02 1.82009E+05 3.39556E+04-1.69421E+05 1.51158E-09-1.68075E-09
 -1       521-1.60226E+06-2.54059E+05-1.44176E+05-6.45156E+05 2.86946E-10 1.96451E-10
 -1       522-1.62361E+06-3.11503E+05-8.19805E+04-6.75136E+05 4.26553E-10 8.07631E-10
 -1       523-1.62104E+06-2.59173E+05-3.32707E+04-6.50198E+05 3.69255E-10 5.72982E-10
 -1       524-1.60075E+06-2.85353E+05-1.68766E+04-6.77907E+05 6.85759E-10-6.67114E-10
 -1       525-1.62281E+06-2.59548E+05-7.64085E+03-6.50458E+05 2.08274E-10-6.98947E-10
 -1       526-1.59894E+06-2.83908E+05-3.86253E+03-6.78274E+05-9.09495E-12-2.42574E-09
 -1       527-1.62314E+06-2.59503E+05-2.04149E+03-6.50441E+05 7.63521E-10 3.79146E-10
 -1       528-1.59875E+06-2.83885E+05-1.54069E+03-6.78420E+05-1.74168E-10 1.30512E-10
 -1       529-1.62318E+06-2.59476E+05-1.85186E+03-6.50432E+05 1.61833E-10-7.79892E-10
 -1       530-1.59890E+06-2.83940E+05-3.36860E+03-6.78382E+05-9.88393E-10-1.22554E-09
 -1       531-1.62293E+06-2.59480E+05-6.58246E+03-6.50437E+05 3.04681E-10-6.78483E-10
 -1       532-1.60046E+06-2.85204E+05-1.45186E+04-6.78120E+05-1.36424E-11-3.09228E-10
 -1       533-1.62142E+06-2.59141E+05-2.85957E+04-6.50207E+05 8.36735E-11 2.72848E-10
 -1       534-1.62011E+06-3.07687E+05-7.04790E+04-6.75745E+05 1.85719E-09-3.34694E-10
 -1       535-1.60527E+06-2.54761E+05-1.23941E+05-6.45889E+05-2.07820E-09-3.49246E-10
 -1       536 8.04974E+05 1.02796E+03 1.22131E+05-4.11363E+04 4.14730E-10 3.23780E-10
 -1       537 8.40269E+05 2.12170E+04 7.06006E+04-7.11224E+04-1.84900E-09 1.74623E-09
 -1       538 8.20354E+05-4.35694E+02 3.07262E+04-4.08693E+04-1.16415E-10-3.80169E-09
 -1       539 8.23225E+05 1.05599E+03 1.61122E+04-7.12986E+04-3.75621E-10-4.49654E-09
 -1       540 8.21413E+05-1.37030E+02 7.73639E+03-4.09267E+04-8.18545E-11-9.49512E-10
 -1       541 8.21714E+05 8.02452E+01 4.08630E+03-7.12023E+04 3.60615E-10 1.27920E-09
 -1       542 8.21485E+05-2.57442E+00 2.23993E+03-4.09673E+04-6.54836E-10 3.71347E-09
 -1       543 8.21491E+05 7.17679E+01 1.64995E+03-7.11566E+04 1.71042E-10-2.01908E-10
 -1       544 8.21484E+05 1.20789E+01 1.80720E+03-4.09728E+04 5.80030E-10-1.97088E-09
 -1       545 8.21615E+05 8.51640E+01 2.97329E+03-7.11784E+04-1.64823E-09 3.56499E-09
 -1       546 8.21439E+05-8.01348E+01 5.45356E+03-4.09453E+04 4.22006E-10 2.43739E-09
 -1       547 8.22684E+05 7.55638E+02 1.12596E+04-7.12557E+04 2.31466E-10 1.11248E-09
 -1       548 8.20722E+05-3.04004E+02 2.14234E+04-4.08945E+04-1.42973E-09-2.01908E-10
 -1       549 8.34614E+05 1.47795E+04 4.92042E+04-7.10929E+04 2.47383E-10 1.31740E-09
 -1       550 8.10037E+05 6.81694E+02 8.50852E+04-4.11268E+04 8.00355E-11-2.22644E-09
 -1       551 1.27283E+04-8.96478E+04 3.89882E+04-4.10901E+05-3.15777E-09-7.05768E-10
 -1       552 7.36168E+03-8.23031E+04 2.44692E+04-5.24696E+05-2.06637E-09-1.69985E-09
 -1       553 2.54601E+03-8.73941E+04 1.87235E+04-4.10114E+05-3.63434E-09 1.43007E-09
 -1       554 8.01504E+03-8.16235E+04 2.68092E+04-5.24660E+05-2.85218E-09 1.27329E-09
 -1       555 1.44063E+04-9.01166E+04 4.44364E+04-4.10937E+05-2.68665E-09-4.51109E-10
 -1       556-1.07082E+06-2.39812E+05-8.03934E+04-4.86814E+05 2.85581E-10-3.78350E-10
 -1       557-1.06766E+06-2.51156E+05-4.11936E+04-5.18495E+05 5.38421E-10 6.25732E-10
 -1       558-1.07657E+06-2.21657E+05-1.74683E+04-4.96431E+05-4.22006E-10 2.50111E-09
 -1       559-1.05807E+06-2.41367E+05-8.59274E+03-5.19590E+05-9.74978E-10-1.89380E-09
 -1       560-1.07730E+06-2.21092E+05-3.98104E+03-4.96875E+05 9.27685E-11 4.85556E-10
 -1       561-1.05759E+06-2.40984E+05-2.02040E+03-5.19704E+05 1.20053E-10-1.19769E-09
 -1       562-1.07750E+06-2.21075E+05-1.12185E+03-4.96933E+05 1.60071E-10-1.73259E-09
 -1       563-1.05758E+06-2.40965E+05-9.34493E+02-5.19744E+05-2.13049E-10-2.47292E-09
 -1       564-1.07749E+06-2.21072E+05-1.24658E+03-4.96932E+05 2.53181E-09 6.51926E-09
 -1       565-1.05760E+06-2.40983E+05-2.35085E+03-5.19704E+05-5.37511E-10-8.93124E-10
 -1       566-1.07727E+06-2.21083E+05-4.68708E+03-4.96873E+05 4.65661E-10 8.53106E-10
 -1       567-1.05819E+06-2.41434E+05-1.01487E+04-5.19606E+05-9.63155E-10-8.84029E-10
 -1       568-1.07644E+06-2.21713E+05-2.06348E+04-4.96357E+05 2.75759E-09 2.63026E-09
 -1       569-1.06953E+06-2.53078E+05-4.86910E+04-5.18454E+05-1.36788E-09 1.34605E-10
 -1       570-1.06977E+06-2.43057E+05-9.49935E+04-4.84936E+05-3.65617E-10 2.46291E-09
 -1       571 8.04163E+05 2.69420E+04 8.87953E+04-9.44013E+04 9.33142E-10 3.25235E-09
 -1       572 8.23419E+05 1.08888E+04 4.66277E+04-1.19904E+05-2.19188E-09-9.16771E-10
 -1       573 8.12481E+05 4.25290E+02 2.09687E+04-9.39072E+04-8.93124E-10 7.93079E-10
 -1       574 8.13895E+05 2.10185E+02 1.07389E+04-1.20362E+05 2.61934E-10 2.83308E-09
 -1       575 8.12915E+05-1.62955E+02 5.19079E+03-9.38926E+04 9.72250E-10-4.67480E-10
 -1       576 8.13041E+05-2.81696E+01 2.66269E+03-1.20375E+05 1.13232E-10 2.14641E-09
 -1       577 8.12940E+05-3.42478E+01 1.33238E+03-9.38960E+04 2.59718E-10 3.95630E-10
 -1       578 8.12943E+05-5.03110E+00 7.37822E+02-1.20378E+05-6.00267E-11-5.65706E-10
 -1       579 8.13019E+05-4.73946E+01 4.68224E+02-9.38897E+04-3.98359E-10-2.70484E-09
 -1       580 8.13093E+05-8.66303E+01 4.64941E+02-1.20401E+05 4.33829E-10 9.26775E-10
 -1       581 8.13202E+05-1.76404E+02 6.51002E+02-9.38731E+04-6.74845E-10-9.53150E-10
 -1       582 8.13488E+05-2.24958E+02 1.24931E+03-1.20402E+05-8.44011E-10-1.00499E-09
 -1       583 8.13444E+05-3.05225E+02 2.35053E+03-9.38880E+04-4.25644E-10-2.55932E-09
 -1       584 8.15020E+05 7.56010E+02 5.26821E+03-1.19828E+05-4.83669E-09 1.16961E-09
 -1       585 8.12873E+05 2.46024E+03 9.95671E+03-9.44533E+04 1.10595E-09 2.89219E-09
 -1       586 5.56642E+03 8.21790E+04 1.68040E+04-3.79716E+05 2.37196E-09 1.99725E-09
 -1       587 4.10264E+03 8.47534E+04 1.24732E+04-4.84539E+05 3.01588E-09 1.13596E-09
 -1       588 2.07785E+03 8.21523E+04 1.26390E+04-3.78888E+05 4.27099E-09 1.75169E-09
 -1       589 7.17938E+03 8.68122E+04 2.21481E+04-4.84702E+05 2.27374E-09 1.52431E-09
 -1       590 1.32047E+04 7.91579E+04 3.94090E+04-3.79534E+05 4.02633E-09-2.83580E-09
 -1       591-7.07686E+05-1.68977E+05-7.58396E+04-3.26529E+05-3.69789E-09-7.81438E-09
 -1       592-7.08537E+05-1.76001E+05-3.88842E+04-3.52115E+05-2.19097E-09 6.53472E-10
 -1       593-7.12812E+05-1.52074E+05-1.64705E+04-3.35675E+05 8.84029E-10 2.09002E-09
 -1       594-6.99452E+05-1.66649E+05-8.11436E+03-3.52802E+05 1.23691E-09-1.78477E-09
 -1       595-7.13349E+05-1.51654E+05-3.75833E+03-3.36041E+05-4.22006E-10-5.92536E-10
 -1       596-6.98896E+05-1.66307E+05-1.92329E+03-3.52766E+05 2.69893E-09 9.76615E-09
 -1       597-7.13435E+05-1.51701E+05-1.08886E+03-3.36050E+05-1.17888E-09 2.42608E-09
 -1       598-6.98826E+05-1.66309E+05-9.46972E+02-3.52730E+05-8.05812E-10-4.38376E-10
 -1       599-7.13380E+05-1.51726E+05-1.30652E+03-3.36028E+05 6.89397E-10 2.61025E-10
 -1       600-6.98837E+05-1.66336E+05-2.49073E+03-3.52681E+05-2.51021E-10-4.24279E-09
 -1       601-7.13169E+05-1.51716E+05-4.97277E+03-3.35971E+05-1.94268E-09 4.57840E-09
 -1       602-6.99508E+05-1.66808E+05-1.07728E+04-3.52645E+05-8.54925E-10 3.25417E-09
 -1       603-7.12389E+05-1.52324E+05-2.18922E+04-3.35457E+05 6.03904E-10-1.72076E-09
 -1       604-7.11546E+05-1.79217E+05-5.16588E+04-3.51648E+05-1.58616E-09 1.20053E-09
 -1       605-7.05530E+05-1.74782E+05-1.00755E+05-3.23286E+05-1.29148E-10-3.56522E-10
 -1       606 2.72711E+05-1.37698E+04-4.49303E+04 5.45738E+04-1.38280E-08 2.20052E-09
 -1       607 2.62863E+05-5.47453E+03-2.35711E+04 6.86252E+04-4.05998E-09-1.27147E-09
 -1       608 2.68183E+05-1.81881E+02-1.06278E+04 5.41083E+04 1.09249E-08 2.00725E-09
 -1       609 2.67272E+05 1.25425E+02-5.42102E+03 6.90861E+04-6.01540E-09-2.88674E-09
 -1       610 2.67710E+05 2.87314E+02-2.62044E+03 5.40830E+04-1.73641E-08 5.19503E-09
 -1       611 2.67443E+05 3.90705E+02-1.30390E+03 6.91027E+04-3.03653E-08 3.44198E-09
 -1       612 2.67544E+05 3.24402E+02-5.98442E+02 5.40877E+04-1.62454E-08 5.79803E-10
 -1       613 2.67368E+05 4.48997E+02-2.04869E+02 6.90933E+04-1.85355E-08 2.58524E-09
 -1       614 2.67449E+05 3.56985E+02 8.46468E+01 5.40907E+04-3.24599E-09 4.23233E-09
 -1       615 2.67319E+05 4.83240E+02 4.28873E+02 6.90859E+04 1.21699E-08 2.20325E-09
 -1       616 2.67388E+05 3.64477E+02 9.62376E+02 5.40941E+04-1.26847E-08 6.29461E-09
 -1       617 2.67428E+05 5.60921E+02 2.05682E+03 6.90717E+04-4.62774E-09 4.77394E-09
 -1       618 2.67265E+05 5.03284E+02 4.04835E+03 5.41038E+04 1.45997E-09 3.98904E-09
 -1       619 2.69233E+05 2.64596E+03 9.01532E+03 6.89166E+04 1.60185E-09 1.30422E-09
 -1       620 2.65635E+05 5.64248E+03 1.71747E+04 5.42244E+04 5.42377E-09 3.56340E-09
 -1       621 1.01022E+04 1.02332E+06 3.53440E+04-1.24344E+05-9.51331E-09-6.67569E-10
 -1       622 4.92454E+03 1.03076E+06 2.61317E+04-1.58094E+05-4.45743E-09 3.87990E-09
 -1       623 1.30627E+03 1.02567E+06 2.69391E+04-1.24101E+05-1.03028E-08 2.00612E-09
 -1       624 1.13337E+04 1.03615E+06 4.75929E+04-1.58147E+05-2.67210E-09-1.18371E-09
 -1       625 2.62879E+04 1.01780E+06 8.54070E+04-1.24245E+05-9.72068E-09-1.38243E-10
 -1       626 4.65890E+05 1.07686E+05-1.31287E+04 2.36256E+05-8.74206E-09 1.78807E-09
 -1       627 4.51475E+05 1.20761E+05-6.71401E+03 2.47956E+05 3.12866E-10 4.88387E-09
 -1       628 4.65199E+05 1.10324E+05-2.86240E+03 2.34178E+05 8.27640E-09-8.99490E-10
 -1       629 4.52491E+05 1.22810E+05-1.38743E+03 2.48131E+05 1.34496E-08-1.71099E-09
 -1       630 4.64997E+05 1.10460E+05-6.23647E+02 2.34017E+05 4.25644E-09-1.40108E-09
 -1       631 4.52442E+05 1.22930E+05-2.50226E+02 2.48049E+05-1.13359E-08-1.01755E-09
 -1       632 4.64882E+05 1.10509E+05-1.76690E+01 2.33963E+05-7.92534E-09-2.91379E-10
 -1       633 4.52386E+05 1.22957E+05 2.11795E+02 2.47985E+05 1.05538E-08 5.88443E-10
 -1       634 4.64813E+05 1.10524E+05 5.44636E+02 2.33936E+05-3.05863E-09-3.60251E-09
 -1       635 4.52409E+05 1.22966E+05 1.22654E+03 2.47978E+05-1.69480E-08-2.39788E-09
 -1       636 4.64756E+05 1.10481E+05 2.53495E+03 2.33933E+05-5.95924E-09 1.29148E-09
 -1       637 4.52850E+05 1.23183E+05 5.54890E+03 2.48059E+05-4.15639E-10 1.46883E-09
 -1       638 4.64484E+05 1.10701E+05 1.12757E+04 2.33730E+05-9.28230E-09-8.23093E-10
 -1       639 4.59242E+05 1.29523E+05 2.66438E+04 2.47711E+05-5.36056E-09 8.42556E-09
 -1       640 4.61143E+05 1.22192E+05 5.19502E+04 2.27541E+05 1.83991E-09 1.03682E-10
 -1       641 1.13408E+04-6.28129E+01-8.34330E+03 3.62133E+03-1.88788E-08 4.39286E-10
 -1       642 8.91435E+03-1.42009E+03-4.82007E+03 6.24360E+03-1.95930E-08 2.21689E-09
 -1       643 1.02773E+04 4.57941E+01-2.09519E+03 3.60354E+03-1.53119E-08-3.72472E-09
 -1       644 1.00582E+04-3.23230E+01-1.08964E+03 6.25713E+03-8.23202E-09 3.82670E-10
 -1       645 1.01959E+04 3.24551E+01-5.08264E+02 3.60268E+03-2.99596E-09-3.38042E-09
 -1       646 1.01508E+04 4.04554E+01-2.36795E+02 6.25791E+03-5.68204E-09 2.18878E-09
 -1       647 1.01855E+04 2.58732E+01-7.04675E+01 3.60256E+03 1.77854E-08-2.27234E-09
 -1       648 1.01684E+04 4.27727E+01 5.58867E+01 6.25824E+03 4.05686E-08 3.22160E-10
 -1       649 1.01809E+04 2.08567E+01 2.07541E+02 3.60237E+03 1.75543E-08-3.98609E-09
 -1       650 1.01950E+04 4.73187E+01 4.76435E+02 6.25822E+03 5.64160E-09-1.68359E-09
 -1       651 1.01634E+04 9.17404E+00 9.56718E+02 3.60261E+03-9.11268E-09-3.29709E-09
 -1       652 1.03668E+04 1.80594E+02 2.02017E+03 6.25652E+03-4.24279E-09 2.11435E-09
 -1       653 1.00153E+04-1.67462E+01 3.86967E+03 3.60373E+03 1.31154E-08-9.07676E-10
 -1       654 1.24821E+04 2.73845E+03 8.89529E+03 6.21237E+03 3.80771E-09 3.80169E-10
 -1       655 8.05632E+03 1.81879E+02 1.53940E+04 3.63825E+03 5.81372E-09-1.24510E-09
 -1       656-1.03176E+03-3.47556E+05-4.49878E+04 7.96864E+04-2.25227E-08-1.23691E-10
 -1       657-8.71764E+03-3.60217E+05-2.94332E+04 1.37433E+05-1.72386E-08-2.83308E-10
 -1       658-2.40120E+02-3.52904E+05-1.97888E+04 7.94055E+04-2.13854E-08 2.87491E-09
 -1       659-7.54168E+03-3.59489E+05-2.64508E+04 1.37588E+05-2.40675E-08-1.20761E-09
 -1       660-8.02280E+02-3.48646E+05-3.86788E+04 7.95417E+04-1.76915E-08 1.30512E-10
 -1       661 2.85753E+05 4.27808E+04 2.12160E+04 1.11531E+05-3.18687E-09-8.79572E-09
 -1       662 2.90537E+05 4.96227E+04 1.20684E+04 1.14080E+05 1.37645E-08 6.86123E-09
 -1       663 2.88426E+05 4.36132E+04 4.89810E+03 1.12337E+05 3.01907E-09 9.54060E-10
 -1       664 2.87219E+05 4.57066E+04 2.49387E+03 1.14355E+05-7.50617E-11-3.37728E-09
 -1       665 2.88644E+05 4.37078E+04 1.13720E+03 1.12389E+05 3.14571E-09 3.22223E-09
 -1       666 2.86959E+05 4.54714E+04 5.98246E+02 1.14350E+05-7.83029E-09-6.09299E-09
 -1       667 2.88671E+05 4.37201E+04 3.57321E+02 1.12392E+05-7.02016E-10-1.18825E-09
 -1       668 2.86935E+05 4.54629E+04 3.49082E+02 1.14354E+05-3.72506E-09 5.73277E-09
 -1       669 2.88671E+05 4.37135E+04 5.20321E+02 1.12389E+05 5.33305E-09 6.81803E-09
 -1       670 2.86980E+05 4.54942E+04 1.03255E+03 1.14372E+05 1.48780E-08 1.07176E-08
 -1       671 2.88629E+05 4.36804E+04 2.05682E+03 1.12378E+05-8.41965E-10-2.38356E-09
 -1       672 2.87454E+05 4.59368E+04 4.56426E+03 1.14399E+05-1.95905E-09 8.60268E-10
 -1       673 2.88236E+05 4.34990E+04 8.98607E+03 1.12278E+05 1.82069E-09-2.86354E-09
 -1       674 2.93566E+05 5.31133E+04 2.21577E+04 1.13882E+05-4.57601E-09-6.74390E-10
 -1       675 2.83307E+05 4.19897E+04 3.89569E+04 1.10822E+05 2.56423E-08 2.73394E-09
 -1       676-2.03576E+02-3.13785E+05-1.68027E+04 8.39519E+03-8.14725E-09-5.29781E-10
 -1       677-3.05089E+03-3.18571E+05-1.16882E+04 1.38141E+04-5.10454E-09-6.00267E-10
 -1       678 4.00087E+01-3.15599E+05-9.06646E+03 8.35649E+03-1.21452E-08 4.72414E-09
 -1       679-3.86927E+03-3.19254E+05-1.39201E+04 1.38614E+04-4.03679E-09 1.05865E-09
 -1       680-2.53373E+02-3.13113E+05-2.14982E+04 8.34591E+03-1.18553E-08 2.10872E-09
 -1       681 4.49806E+05 9.49407E+01 2.40632E+04-2.85111E+04-2.36469E-11-5.91172E-12
 -1       682 4.56799E+05 4.10713E+03 1.39312E+04-4.92710E+04-1.40972E-10-4.09273E-10
 -1       683 4.52786E+05-1.41109E+02 6.05824E+03-2.83133E+04 8.18545E-11 2.43290E-10
 -1       684 4.53342E+05 1.70438E+02 3.19741E+03-4.94430E+04 1.12777E-10-1.14323E-09
 -1       685 4.52953E+05-4.85276E+01 1.56092E+03-2.83338E+04-1.50976E-10-4.13593E-10
 -1       686 4.52987E+05 7.80049E+00 8.87124E+02-4.94073E+04-5.68434E-12 2.86491E-11
 -1       687 4.52941E+05-4.28631E+00 6.00194E+02-2.83493E+04 5.18412E-11-1.36424E-12
 -1       688 4.52927E+05 1.99288E+01 6.50577E+02-4.93878E+04-1.96451E-10 5.17502E-10
 -1       689 4.52924E+05-3.46481E+00 9.94714E+02-2.83533E+04-1.30058E-10-3.69710E-10
 -1       690 4.53014E+05 3.55242E+01 1.89565E+03-4.93933E+04-3.43334E-11-3.08887E-10
 -1       691 4.52877E+05-5.76386E+01 3.63569E+03-2.83437E+04 1.81899E-12 3.74484E-10
 -1       692 4.53707E+05 5.07006E+02 7.59180E+03-4.94147E+04-2.36014E-10 1.43929E-09
 -1       693 4.52367E+05-1.89425E+02 1.44924E+04-2.83315E+04-1.05501E-10 6.51198E-10
 -1       694 4.61728E+05 1.00299E+04 3.33019E+04-4.92555E+04-4.43833E-10 1.43200E-09
 -1       695 4.45101E+05 5.02355E+02 5.76059E+04-2.85125E+04-1.98270E-10-1.34605E-10
 -1       696 4.95501E+02 5.40205E+05 3.24020E+04-6.00769E+04 1.03682E-10-1.15961E-09
 -1       697 5.98360E+03 5.49360E+05 1.77177E+04-1.03762E+05 1.84514E-10-6.08111E-10
 -1       698 1.20416E+02 5.44458E+05 5.66041E+03-5.99448E+04-1.40290E-10 1.52295E-09
 -1       699-1.17574E+03 5.43487E+05-1.73159E+03-1.03743E+05-3.96312E-10 1.49180E-09
 -1       700-1.97245E+01 5.46151E+05-8.53993E+03-6.01039E+04-1.66438E-10 1.65801E-09
 -1       701-4.19716E+05-6.89965E+04-6.33264E+04-1.73422E+05-3.97904E-11-9.45874E-10
 -1       702-4.30913E+05-9.24961E+04-3.60173E+04-1.84618E+05-1.44610E-10 4.02451E-10
 -1       703-4.27855E+05-7.13372E+04-1.46166E+04-1.75692E+05-9.00400E-11-4.86580E-10
 -1       704-4.20915E+05-8.09232E+04-7.42213E+03-1.85634E+05 6.82121E-12-6.41876E-10
 -1       705-4.28550E+05-7.15804E+04-3.36249E+03-1.75839E+05 1.29148E-10-8.59927E-10
 -1       706-4.20141E+05-8.02374E+04-1.70805E+03-1.85676E+05-1.01409E-10-1.18962E-09
 -1       707-4.28652E+05-7.15985E+04-9.13510E+02-1.75846E+05 1.34150E-10 4.22233E-10
 -1       708-4.20070E+05-8.02090E+04-7.08256E+02-1.85701E+05-9.39508E-10-2.80575E-09
 -1       709-4.28669E+05-7.15859E+04-8.73220E+02-1.75844E+05 1.36424E-10 9.86802E-11
 -1       710-4.20139E+05-8.02510E+04-1.60573E+03-1.85728E+05-1.09821E-10 4.33374E-10
 -1       711-4.28600E+05-7.15424E+04-3.13967E+03-1.75833E+05-1.19314E-10 5.03405E-10
 -1       712-4.20867E+05-8.09084E+04-6.93495E+03-1.85739E+05-3.53793E-10-4.26780E-10
 -1       713-4.27979E+05-7.12909E+04-1.36448E+04-1.75691E+05-9.28821E-11 2.25555E-10
 -1       714-4.30171E+05-9.17741E+04-3.36430E+04-1.84881E+05-1.80023E-10-3.31056E-10
 -1       715-4.20432E+05-6.90458E+04-5.91387E+04-1.73529E+05-2.50111E-10 5.42059E-10
 -1       716 3.79596E+05 3.28027E+02 5.11884E+04-4.25380E+04 4.56566E-10 7.34872E-10
 -1       717 3.94419E+05 8.88024E+03 2.96197E+04-7.33420E+04 1.70985E-10-1.28421E-09
 -1       718 3.85955E+05-1.98449E+02 1.28866E+04-4.22602E+04 1.81899E-10-4.39286E-10
 -1       719 3.87122E+05 4.86094E+02 6.78319E+03-7.35938E+04-6.18456E-11-2.25555E-10
 -1       720 3.86339E+05-2.58973E+01 3.29225E+03-4.22771E+04 5.37511E-10-4.19277E-10
 -1       721 3.86422E+05 1.11516E+02 1.81571E+03-7.35652E+04 7.27596E-10-6.36192E-10
 -1       722 3.86348E+05 4.34159E+01 1.13732E+03-4.22893E+04 8.81073E-10-3.56522E-10
 -1       723 3.86345E+05 1.06372E+02 1.09354E+03-7.35572E+04 7.00652E-10 4.02679E-10
 -1       724 3.86357E+05 2.33539E+01 1.54138E+03-4.22852E+04 5.40240E-10-6.86668E-10
 -1       725 3.86543E+05 9.24829E+01 2.85790E+03-7.35823E+04 9.18590E-10 2.97405E-10
 -1       726 3.86338E+05-9.82023E+01 5.42729E+03-4.22640E+04 1.67347E-10 4.77257E-10
 -1       727 3.87687E+05 7.39141E+02 1.13296E+04-7.36264E+04 6.46651E-10 2.69270E-09
 -1       728 3.85650E+05-3.53742E+02 2.15983E+04-4.22399E+04-1.63709E-11 1.76442E-10
 -1       729 3.99807E+05 1.48760E+04 4.96756E+04-7.33417E+04-5.67525E-10-1.02591E-09
 -1       730 3.74904E+05 6.02709E+02 8.58977E+04-4.25711E+04-5.63887E-11 3.71074E-10
 -1       731 5.33219E+02 1.92584E+05 3.33165E+04-1.04208E+05 1.10231E-09-1.08321E-09
 -1       732 6.33550E+03 2.01932E+05 1.96304E+04-1.80866E+05 1.75010E-09-5.81167E-10
 -1       733 1.66960E+02 1.96687E+05 9.23159E+03-1.03984E+05 1.02500E-09 1.50612E-09
 -1       734 1.40202E+03 1.98133E+05 6.45351E+03-1.80766E+05 1.30967E-09 1.31877E-09
 -1       735 2.78405E+01 1.96795E+05 5.54238E+03-1.04312E+05 5.02041E-10 5.11136E-10
 -1       736-9.00341E+05-1.37321E+05-8.15953E+04-3.55496E+05 1.00817E-09 4.40195E-09
 -1       737-9.16261E+05-1.66113E+05-4.64109E+04-3.68193E+05-3.15595E-10-2.62844E-10
 -1       738-9.10810E+05-1.40356E+05-1.88236E+04-3.58415E+05-2.66937E-10-7.34872E-10
 -1       739-9.03358E+05-1.51203E+05-9.55733E+03-3.69502E+05 3.33785E-10 7.96945E-10
 -1       740-9.11712E+05-1.40661E+05-4.31883E+03-3.58583E+05 4.72482E-10 1.00385E-09
 -1       741-9.02324E+05-1.50340E+05-2.18092E+03-3.69571E+05-8.29914E-11 9.29958E-11
 -1       742-9.11848E+05-1.40684E+05-1.13728E+03-3.58582E+05 5.48880E-10 2.19018E-10
 -1       743-9.02213E+05-1.50313E+05-8.30825E+02-3.69604E+05 1.05820E-09-2.43404E-10
 -1       744-9.11866E+05-1.40672E+05-9.58066E+02-3.58575E+05-2.04636E-10 9.64064E-11
 -1       745-9.02280E+05-1.50355E+05-1.70857E+03-3.69621E+05-8.77208E-10-3.18323E-10
 -1       746-9.11784E+05-1.40638E+05-3.31301E+03-3.58568E+05 4.42469E-10 4.31555E-10
 -1       747-9.03060E+05-1.51030E+05-7.30283E+03-3.69600E+05-1.50976E-10-7.91260E-10
 -1       748-9.11108E+05-1.40393E+05-1.43641E+04-3.58434E+05 2.43745E-10 2.44654E-10
 -1       749-9.12901E+05-1.62421E+05-3.54178E+04-3.68623E+05 6.28916E-10 2.10093E-10
 -1       750-9.03125E+05-1.38072E+05-6.22631E+04-3.56204E+05-5.41604E-10 9.71340E-10
 -1       751 9.81244E+05 1.27153E+03 1.44738E+05-4.48126E+04-8.91305E-11 1.03319E-09
 -1       752 1.02303E+06 2.51763E+04 8.36615E+04-7.75190E+04-1.26965E-09-1.66983E-09
 -1       753 9.99484E+05-4.84826E+02 3.64246E+04-4.45523E+04-1.63709E-10-5.96629E-10
 -1       754 1.00287E+06 1.27769E+03 1.91068E+04-7.76697E+04 5.82077E-11 9.63155E-10
 -1       755 1.00075E+06-1.44589E+02 9.19592E+03-4.46237E+04 3.54703E-10 9.00400E-11
 -1       756 1.00111E+06 1.06923E+02 4.89053E+03-7.75566E+04 4.91127E-11 1.09912E-09
 -1       757 1.00086E+06 7.23153E-01 2.74866E+03-4.46673E+04-5.97083E-10-8.68113E-10
 -1       758 1.00088E+06 8.20414E+01 2.14410E+03-7.75163E+04-1.25766E-10-7.32143E-11
 -1       759 1.00086E+06 1.01078E+00 2.51161E+03-4.46645E+04 2.60115E-10 3.76986E-10
 -1       760 1.00109E+06 9.20657E+01 4.28428E+03-7.75653E+04-6.18456E-10 1.17598E-09
 -1       761 1.00080E+06-1.36789E+02 7.94919E+03-4.46180E+04 3.44698E-10-1.91250E-09
 -1       762 1.00264E+06 1.07917E+03 1.64658E+04-7.76897E+04 7.36691E-10-4.81577E-10
 -1       763 9.99731E+05-4.52226E+02 3.13558E+04-4.45383E+04-1.81899E-12 7.30324E-10
 -1       764 1.02006E+06 2.16243E+04 7.20226E+04-7.75452E+04 5.95719E-10 1.18234E-09
 -1       765 9.84062E+05 1.02570E+03 1.24572E+05-4.47975E+04-1.39516E-09 4.27826E-09
 -1       766 1.15463E+03 3.70528E+05 8.89636E+04-9.97854E+04-4.29281E-10-1.10549E-09
 -1       767 1.62202E+04 3.95926E+05 5.81789E+04-1.73128E+05 4.69299E-10 2.64208E-10
 -1       768-1.25062E+02 3.80769E+05 3.89034E+04-9.96389E+04-2.12822E-10 1.70621E-09
 -1       769 1.36606E+04 3.94373E+05 5.17151E+04-1.72929E+05 5.36602E-11 2.11730E-09
 -1       770 6.33698E+02 3.72911E+05 7.52737E+04-1.00004E+05-5.89353E-10 1.40062E-09
 -1       771-1.72662E+06-3.27668E+05-1.44760E+05-7.00788E+05-2.21371E-09-1.46247E-09
 -1       772-1.74141E+06-3.27908E+05-7.42316E+04-7.34422E+05 3.63798E-11-1.87265E-09
 -1       773-1.73617E+06-2.95627E+05-3.14262E+04-7.18339E+05 2.98132E-09 5.10954E-09
 -1       774-1.72411E+06-3.09948E+05-1.54697E+04-7.35552E+05 1.81899E-10-1.46974E-09
 -1       775-1.73718E+06-2.94820E+05-7.13916E+03-7.19005E+05 3.58341E-10 1.34150E-10
 -1       776-1.72302E+06-3.09320E+05-3.59674E+03-7.35526E+05 2.86946E-10 5.84919E-10
 -1       777-1.73740E+06-2.94875E+05-1.92327E+03-7.19030E+05-1.24965E-09-1.23191E-09
 -1       778-1.72293E+06-3.09318E+05-1.47230E+03-7.35545E+05-4.77121E-09-6.41558E-09
 -1       779-1.73742E+06-2.94867E+05-1.79572E+03-7.19033E+05-8.82608E-10-5.63887E-11
 -1       780-1.72302E+06-3.09321E+05-3.26362E+03-7.35558E+05 8.08768E-10-2.62844E-10
 -1       781-1.73724E+06-2.94805E+05-6.42527E+03-7.19018E+05 1.13869E-09 1.35879E-09
 -1       782-1.72401E+06-3.09887E+05-1.39021E+04-7.35606E+05-8.25821E-10-1.56797E-09
 -1       783-1.73635E+06-2.95515E+05-2.82259E+04-7.18421E+05-3.69255E-10-3.72893E-10
 -1       784-1.73957E+06-3.26028E+05-6.66831E+04-7.34606E+05 8.90395E-10-1.98997E-09
 -1       785-1.72776E+06-3.24299E+05-1.30027E+05-7.02668E+05-3.94721E-10 9.74978E-10
 -1       786 7.52669E+05 8.71753E+02 1.02183E+05-3.91224E+04 8.02174E-10 2.00089E-09
 -1       787 7.82178E+05 1.77417E+04 5.90675E+04-6.78414E+04-9.89530E-10-1.33514E-09
 -1       788 7.65549E+05-3.59406E+02 2.57107E+04-3.88906E+04-7.25777E-10 7.67614E-10
 -1       789 7.67944E+05 8.61847E+02 1.34737E+04-6.80053E+04-2.89219E-10-5.49335E-10
 -1       790 7.66451E+05-1.22766E+02 6.46229E+03-3.89305E+04 1.26420E-10-2.34650E-10
 -1       791 7.66713E+05 2.80476E+01 3.38759E+03-6.79466E+04-2.69210E-10-6.20275E-10
 -1       792 7.66534E+05-2.69677E+01 1.81232E+03-3.89503E+04 2.08047E-11 9.93623E-10
 -1       793 7.66565E+05-1.07151E+00 1.25062E+03-6.79371E+04 3.85398E-11 9.28594E-10
 -1       794 7.66563E+05-3.33088E+01 1.25341E+03-3.89403E+04-1.36424E-10-1.47611E-09
 -1       795 7.66698E+05-2.29944E+01 1.96122E+03-6.79882E+04 1.23600E-09 4.95675E-10
 -1       796 7.66577E+05-1.25548E+02 3.52568E+03-3.88990E+04-7.86713E-10-1.94018E-09
 -1       797 7.67475E+05 3.62421E+02 7.26082E+03-6.80831E+04-7.32143E-10-3.29635E-10
 -1       798 7.66175E+05-3.17754E+02 1.37824E+04-3.88444E+04-9.60426E-10-2.63753E-09
 -1       799 7.75286E+05 9.33835E+03 3.16881E+04-6.79072E+04-6.05360E-09-3.14697E-09
 -1       800 7.59364E+05 2.51283E+02 5.47555E+04-3.90943E+04 1.47156E-09 1.90266E-09
 -1       801 1.19140E+03 5.51698E+04 3.72175E+04-3.71633E+05 3.07045E-09 4.22006E-10
 -1       802 1.12259E+04 6.31559E+04 2.87044E+04-6.45051E+05-6.69388E-10-1.72440E-09
 -1       803 2.42579E+03 5.67624E+04 2.58844E+04-3.70645E+05 4.55839E-09 3.40333E-09
 -1       804 1.67614E+04 6.85360E+04 4.44870E+04-6.44949E+05-9.74978E-10-1.54796E-09
 -1       805 1.07400E+03 5.09842E+04 7.03326E+04-3.71739E+05 2.67028E-09 3.05590E-10
 -1       806-1.04880E+06-2.20082E+05-9.07684E+04-4.52425E+05-1.44462E-09 4.22006E-10
 -1       807-1.05281E+06-2.25492E+05-4.65410E+04-4.79567E+05-1.38971E-09 1.74623E-09
 -1       808-1.05489E+06-1.99900E+05-1.97099E+04-4.63393E+05 2.54477E-09 8.81118E-09
 -1       809-1.04194E+06-2.14279E+05-9.70683E+03-4.80361E+05 2.18279E-11-2.82057E-10
 -1       810-1.05553E+06-1.99393E+05-4.48972E+03-4.63825E+05-4.27463E-10 1.09634E-09
 -1       811-1.04127E+06-2.13874E+05-2.28290E+03-4.80332E+05 2.48292E-10-5.20686E-10
 -1       812-1.05565E+06-1.99439E+05-1.26352E+03-4.63841E+05 8.06949E-10-6.06178E-10
 -1       813-1.04121E+06-2.13871E+05-1.04856E+03-4.80311E+05-3.67663E-10 2.37878E-09
 -1       814-1.05562E+06-1.99455E+05-1.38681E+03-4.63830E+05-8.10815E-10 1.06047E-09
 -1       815-1.04125E+06-2.13885E+05-2.60475E+03-4.80276E+05-6.11180E-10 1.67711E-09
 -1       816-1.05542E+06-1.99434E+05-5.17703E+03-4.63790E+05-3.00133E-09 1.13323E-09
 -1       817-1.04198E+06-2.14358E+05-1.12134E+04-4.80255E+05-1.40062E-09-1.55705E-09
 -1       818-1.05464E+06-2.00052E+05-2.27810E+04-4.63278E+05 3.39787E-09-1.45519E-10
 -1       819-1.05454E+06-2.27292E+05-5.37777E+04-4.79275E+05-1.05138E-09 3.51065E-09
 -1       820-1.04757E+06-2.23382E+05-1.04883E+05-4.50600E+05 1.47338E-10-6.69024E-09
 -1       821-4.92485E+05-6.94292E+02-6.65527E+04 1.98411E+04-1.32859E-08 4.30009E-09
 -1       822-5.11648E+05-1.15579E+04-3.84541E+04 3.48548E+04-5.73709E-09-2.99042E-09
 -1       823-5.01020E+05 2.13335E+02-1.67609E+04 1.95744E+04 1.08148E-08-1.73077E-09
 -1       824-5.02636E+05-4.38921E+02-8.77227E+03 3.51450E+04-4.16867E-09 7.49424E-10
 -1       825-5.01716E+05 1.50662E+02-4.22716E+03 1.95295E+04-1.54214E-08 3.54748E-09
 -1       826-5.01991E+05 1.85878E+02-2.22856E+03 3.52116E+04-3.23639E-08 3.38071E-09
 -1       827-5.01829E+05 1.38229E+02-1.23637E+03 1.95053E+04-1.09817E-08 1.05501E-09
 -1       828-5.01960E+05 2.37038E+02-9.27408E+02 3.52487E+04-1.75626E-08 7.74435E-10
 -1       829-5.01852E+05 1.51181E+02-1.04859E+03 1.94916E+04-3.68073E-09 5.77643E-10
 -1       830-5.02034E+05 2.28102E+02-1.75407E+03 3.52636E+04 1.46026E-08 1.59957E-09
 -1       831-5.01797E+05 1.83928E+02-3.24551E+03 1.94902E+04-9.32266E-09 3.63136E-09
 -1       832-5.02575E+05-2.22842E+02-6.70706E+03 3.52508E+04 2.26919E-10 1.09077E-09
 -1       833-5.01292E+05 2.52459E+02-1.27886E+04 1.95058E+04 7.70342E-10 3.35785E-09
 -1       834-5.09499E+05-8.69124E+03-2.93544E+04 3.51069E+04-1.92995E-09 1.69211E-09
 -1       835-4.94797E+05-4.23807E+02-5.07900E+04 1.96603E+04 8.31733E-09-1.63709E-10
 -1       836 1.19660E+03 9.06888E+05 7.39290E+04-1.45009E+05 2.68119E-09-2.11912E-09
 -1       837 1.44353E+04 9.27430E+05 5.25764E+04-2.49964E+05-7.83211E-09-2.00816E-09
 -1       838 3.95395E+02 9.14351E+05 4.25557E+04-1.44688E+05 3.53430E-09 1.58812E-09
 -1       839 1.99385E+04 9.32009E+05 6.75889E+04-2.49953E+05-8.87303E-09-2.31466E-10
 -1       840 1.56100E+03 9.02350E+05 1.05539E+05-1.45011E+05 2.28829E-09 2.85218E-09
 -1       841 7.80118E+03 1.56343E+04-1.56236E+04 2.16108E+04-3.65617E-10 2.62958E-09
 -1       842-7.31115E+03 2.22683E+04-8.87123E+03 3.29162E+04-5.83532E-09-8.22695E-10
 -1       843 5.92722E+03 1.49155E+04-3.61014E+03 2.08234E+04 6.19821E-09 1.07354E-09
 -1       844-5.10346E+03 2.53251E+04-1.81853E+03 3.28320E+04 1.16815E-08-3.55169E-09
 -1       845 5.73784E+03 1.48688E+04-8.11502E+02 2.07514E+04-6.89670E-09-2.08024E-09
 -1       846-4.97649E+03 2.55261E+04-3.70889E+02 3.28068E+04-3.54316E-08 1.71292E-09
 -1       847 5.69339E+03 1.48759E+04-1.22464E+02 2.07302E+04-1.71372E-08 6.00053E-09
 -1       848-4.98362E+03 2.55522E+04 5.04591E+01 3.27904E+04-3.75530E-09 1.05274E-08
 -1       849 5.67159E+03 1.48788E+04 2.46102E+02 2.07194E+04 8.37008E-09 5.22073E-09
 -1       850-4.95812E+03 2.55750E+04 6.04114E+02 3.27908E+04 1.26414E-08 8.35644E-09
 -1       851 5.64036E+03 1.48607E+04 1.25949E+03 2.07142E+04-2.42517E-09 5.42104E-09
 -1       852-4.64517E+03 2.58395E+04 2.82484E+03 3.28051E+04 6.78017E-09 2.58183E-09
 -1       853 5.39977E+03 1.47449E+04 5.56985E+03 2.06654E+04 9.47307E-09-4.86352E-09
 -1       854-7.46541E+02 3.02124E+04 1.37494E+04 3.24232E+04 3.78805E-09 1.52068E-09
 -1       855 2.29654E+03 1.38559E+04 2.41657E+04 1.98546E+04 2.08274E-09 2.48292E-09
 -1       856-2.41854E+05-2.10460E+02-2.62591E+04 1.47590E+04-1.82545E-08 1.75987E-09
 -1       857-2.49463E+05-4.45083E+03-1.51710E+04 2.59546E+04-1.13578E-08 2.13731E-09
 -1       858-2.45222E+05 1.50007E+02-6.61000E+03 1.46164E+04-8.62110E-09 2.95131E-09
 -1       859-2.45907E+05-6.46792E+01-3.45794E+03 2.60990E+04 7.92170E-09 3.12093E-09
 -1       860-2.45495E+05 1.23703E+02-1.66017E+03 1.46009E+04 1.45060E-08 8.23320E-10
 -1       861-2.45646E+05 1.78686E+02-8.67045E+02 2.61178E+04-1.57013E-09 1.56888E-11
 -1       862-2.45536E+05 1.14920E+02-4.63144E+02 1.45965E+04 1.62406E-08 8.92442E-10
 -1       863-2.45622E+05 1.93474E+02-3.17934E+02 2.61224E+04 3.94156E-08-9.58039E-10
 -1       864-2.45539E+05 1.13388E+02-3.19658E+02 1.45961E+04 2.00126E-08-4.66798E-10
 -1       865-2.45628E+05 1.84640E+02-4.99381E+02 2.61187E+04 2.22622E-08 8.00014E-10
 -1       866-2.45516E+05 1.14860E+02-9.04516E+02 1.46004E+04 8.89304E-09-5.00791E-11
 -1       867-2.45757E+05 4.99343E+01-1.85493E+03 2.61021E+04 1.24726E-08-2.37958E-09
 -1       868-2.45363E+05 1.22970E+02-3.53454E+03 1.46133E+04 9.32323E-09 1.48589E-10
 -1       869-2.47638E+05-2.29962E+03-8.10097E+03 2.59643E+04-1.70330E-08-2.80073E-09
 -1       870-2.43556E+05-7.83701E+01-1.40232E+04 1.47459E+04 2.58842E-09 2.71029E-10
 -1       871-3.67863E+03-5.90775E+04-8.26184E+03 1.54023E+05-1.54232E-08-3.63798E-12
 -1       872-2.06079E+03-6.07501E+04-2.60217E+03 1.96579E+05-1.68093E-08 1.73895E-09
 -1       873-6.96110E+02-6.02683E+04 2.26583E+03 1.53719E+05-2.02017E-08 2.21382E-09
 -1       874 1.35018E+03-5.78861E+04 8.80806E+03 1.96611E+05-1.07329E-08 8.18545E-11
 -1       875 4.92102E+03-6.20144E+04 1.83467E+04 1.54027E+05-1.93213E-08 1.64164E-09
 -1       876 3.53391E+05 5.72973E+04 3.50496E+04 1.44149E+05-4.79599E-09-7.87622E-10
 -1       877 3.58617E+05 7.13058E+04 1.99380E+04 1.51418E+05 9.72341E-09 7.53062E-10
 -1       878 3.57845E+05 5.86341E+04 8.08803E+03 1.45421E+05 1.34241E-09-2.37696E-09
 -1       879 3.53079E+05 6.48800E+04 4.11429E+03 1.51903E+05 3.87627E-09-7.43967E-10
 -1       880 3.58189E+05 5.88033E+04 1.86584E+03 1.45509E+05 5.91967E-09 3.00361E-09
 -1       881 3.52650E+05 6.44817E+04 9.62067E+02 1.51870E+05 2.34786E-09-1.38965E-09
 -1       882 3.58221E+05 5.88367E+04 5.36244E+02 1.45518E+05-8.02856E-10 3.70715E-09
 -1       883 3.52613E+05 6.44554E+04 4.59198E+02 1.51853E+05-1.03088E-08 6.41955E-09
 -1       884 3.58217E+05 5.88371E+04 6.19439E+02 1.45519E+05 2.65263E-09 8.94943E-09
 -1       885 3.52666E+05 6.44851E+04 1.18310E+03 1.51866E+05 2.50139E-10 7.25402E-09
 -1       886 3.58169E+05 5.88006E+04 2.33449E+03 1.45509E+05-2.38970E-10-1.01702E-08
 -1       887 3.53207E+05 6.49829E+04 5.16768E+03 1.51898E+05 1.90198E-09-5.95537E-09
 -1       888 3.57728E+05 5.85923E+04 1.01680E+04 1.45398E+05-4.11751E-09-1.00863E-09
 -1       889 3.60148E+05 7.30838E+04 2.50694E+04 1.51302E+05 1.62936E-09 6.91034E-09
 -1       890 3.52142E+05 5.68943E+04 4.40725E+04 1.43772E+05 2.51953E-08 3.58341E-09
 -1       891-4.28913E+02-1.74980E+05-7.88449E+03 5.96474E+04-1.45524E-08 2.52294E-09
 -1       892-1.93779E+03-1.77028E+05-5.50331E+03 1.03222E+05 5.21641E-09-4.77667E-09
 -1       893-2.71642E+02-1.75874E+05-4.32682E+03 5.94942E+04-1.07138E-08-2.84160E-09
 -1       894-2.39269E+03-1.77375E+05-6.71532E+03 1.03199E+05 1.91358E-09 2.92107E-09
 -1       895-4.77339E+02-1.74590E+05-1.04391E+04 5.96684E+04-9.36257E-09 3.74439E-09
 -1       896 7.61533E+05 1.01190E+01 1.07452E+04-2.01316E+04 1.15506E-10-1.40290E-09
 -1       897 7.64630E+05 1.80611E+03 6.22791E+03-3.49488E+04 1.25510E-10-4.75666E-10
 -1       898 7.62853E+05-8.50844E+01 2.71015E+03-2.00033E+04-2.09184E-11-8.11951E-10
 -1       899 7.63063E+05 5.74426E+01 1.44410E+03-3.50390E+04 1.09139E-10-1.20053E-10
 -1       900 7.62916E+05-3.49385E+01 7.26078E+02-2.00395E+04-8.82210E-11-1.53477E-10
 -1       901 7.62888E+05-5.89482E+00 4.60108E+02-3.49761E+04-2.32603E-10-5.09317E-11
 -1       902 7.62899E+05-8.95579E+00 3.92998E+02-2.00663E+04-1.60981E-10 6.02540E-11
 -1       903 7.62855E+05 7.25561E+00 5.48112E+02-3.49368E+04-5.63887E-11 5.67297E-11
 -1       904 7.62876E+05-8.03384E+00 9.51159E+02-2.00789E+04-5.20686E-11 1.90880E-10
 -1       905 7.62928E+05 3.27624E+01 1.88697E+03-3.49275E+04-2.48633E-10-1.58707E-10
 -1       906 7.62810E+05-4.84962E+01 3.66123E+03-2.00755E+04-1.12823E-09 3.18607E-10
 -1       907 7.63581E+05 5.32311E+02 7.66039E+03-3.49435E+04 8.27640E-11 1.34264E-10
 -1       908 7.62260E+05-1.54247E+02 1.46403E+04-2.00626E+04 1.89175E-09 1.13232E-10
 -1       909 7.71601E+05 1.01795E+04 3.36249E+04-3.48644E+04-1.30967E-10-3.92902E-10
 -1       910 7.54873E+05 5.88238E+02 5.81829E+04-2.01594E+04-1.37152E-09-5.20231E-10
 -1       911 1.71340E+05-2.75497E+01 1.59033E+03-1.75621E+04 2.98314E-10-4.00405E-10
 -1       912 1.71806E+05 2.58368E+02 9.30678E+02-3.02494E+04-3.13776E-11-3.10592E-10
 -1       913 1.71512E+05-2.06957E+01 4.09131E+02-1.74334E+04-4.63842E-11-3.21165E-10
 -1       914 1.71534E+05 1.59744E+01 2.35579E+02-3.03772E+04-2.33285E-10 2.25555E-10
 -1       915 1.71504E+05-4.23068E-02 1.48139E+02-1.74342E+04 2.95586E-10 5.28530E-10
 -1       916 1.71488E+05 1.75557E+01 1.52776E+02-3.03733E+04 2.05205E-10 5.46947E-10
 -1       917 1.71492E+05 8.26833E+00 2.24016E+02-1.74374E+04 3.46859E-10 4.90900E-10
 -1       918 1.71489E+05 2.22668E+01 4.19365E+02-3.03700E+04 3.43938E-10 5.46720E-10
 -1       919 1.71480E+05-1.38265E-01 8.05351E+02-1.74375E+04 1.55637E-10 5.52177E-10
 -1       920 1.71571E+05 3.66004E+01 1.64321E+03-3.03727E+04 7.51129E-10 5.27621E-10
 -1       921 1.71429E+05-4.24616E+01 3.21032E+03-1.74346E+04 1.16415E-10 6.88743E-10
 -1       922 1.72160E+05 4.70057E+02 6.73310E+03-3.03759E+04 5.20231E-10 9.57243E-11
 -1       923 1.70952E+05-1.40871E+02 1.28733E+04-1.74339E+04-1.09139E-11 2.82853E-10
 -1       924 1.79229E+05 8.95818E+03 2.95831E+04-3.02484E+04-2.73303E-10-2.68756E-10
 -1       925 1.64464E+05 5.02227E+02 5.11893E+04-1.75661E+04-5.27507E-11-1.34605E-10
 -1       926-9.23136E+05-6.05538E+02-5.43433E+04-2.33901E+04 6.33008E-10-6.69388E-10
 -1       927-9.38712E+05-9.55689E+03-3.14007E+04-4.03448E+04 3.60160E-10 2.64208E-10
 -1       928-9.30093E+05 1.24149E+02-1.36718E+04-2.31979E+04 1.63709E-10-1.53250E-10
 -1       929-9.31324E+05-4.83573E+02-7.15175E+03-4.05783E+04-6.24141E-10-2.03670E-10
 -1       930-9.30645E+05 5.95606E+01-3.42753E+03-2.31609E+04 2.79442E-10 3.15538E-10
 -1       931-9.30759E+05 8.32112E+00-1.78538E+03-4.06218E+04-4.45084E-11 4.81919E-10
 -1       932-9.30715E+05 2.98076E+01-9.42723E+02-2.31540E+04-5.71845E-11 5.36147E-10
 -1       933-9.30681E+05 2.48604E+01-6.28051E+02-4.06130E+04 1.39039E-10 2.48292E-10
 -1       934-9.30707E+05 1.29285E+01-6.05342E+02-2.31696E+04 3.21961E-10 2.56705E-10
 -1       935-9.30658E+05-7.79340E+00-9.14842E+02-4.05573E+04-5.45697E-10-1.83718E-10
 -1       936-9.30645E+05-9.87353E-01-1.64376E+03-2.32098E+04-3.27418E-11 2.17597E-10
 -1       937-9.30851E+05-2.71128E+02-3.35145E+03-4.04477E+04 4.98403E-10-9.10404E-10
 -1       938-9.30347E+05-5.57520E+00-6.38901E+03-2.32793E+04 1.97360E-10-1.25010E-09
 -1       939-9.34202E+05-4.53299E+03-1.46238E+04-4.00874E+04 1.18052E-09-8.94943E-10
 -1       940-9.27062E+05-3.88210E+02-2.53264E+04-2.35645E+04-6.33008E-10-1.47338E-10
 -1       941 1.21862E+06 1.90187E+03 1.82920E+05-2.81384E+04 8.46740E-10-6.98492E-10
 -1       942 1.27127E+06 3.19444E+04 1.05675E+05-4.90911E+04-5.76620E-10-2.22644E-09
 -1       943 1.24185E+06-5.00189E+02 4.60442E+04-2.79948E+04-1.26420E-10-8.31278E-10
 -1       944 1.24613E+06 1.62079E+03 2.41260E+04-4.91588E+04 1.64619E-10-1.16779E-09
 -1       945 1.24359E+06-1.85198E+02 1.16060E+04-2.80336E+04 7.82620E-10 3.33785E-10
 -1       946 1.24411E+06 4.25242E+01 6.12810E+03-4.91109E+04 8.11553E-10 1.66256E-09
 -1       947 1.24380E+06-6.39139E+01 3.37808E+03-2.80436E+04 7.30097E-10 9.26775E-10
 -1       948 1.24390E+06-3.20465E+01 2.51497E+03-4.91272E+04 9.96579E-10 8.39691E-10
 -1       949 1.24383E+06-7.23312E+01 2.79743E+03-2.80175E+04-9.94532E-10-2.52919E-09
 -1       950 1.24410E+06-1.47412E+01 4.64724E+03-4.92158E+04 1.07320E-09 9.04151E-10
 -1       951 1.24373E+06-1.93769E+02 8.55647E+03-2.79544E+04-1.94359E-09-2.69165E-09
 -1       952 1.24566E+06 1.09392E+03 1.76775E+04-4.93624E+04-9.34961E-10-1.03478E-09
 -1       953 1.24251E+06-4.67344E+02 3.36617E+04-2.78699E+04-2.06091E-09-1.69530E-09
 -1       954 1.26415E+06 2.32154E+04 7.72647E+04-4.93122E+04-6.76300E-09-2.33649E-09
 -1       955 1.22558E+06 1.23002E+03 1.33679E+05-2.80527E+04 1.00044E-09-1.55705E-09
 -1       956-4.65262E+05-9.69840E+03-3.18572E+04 4.80612E+04-1.43918E-08 3.49519E-09
 -1       957-4.72206E+05-3.80803E+03-1.67138E+04 6.09697E+04-3.71165E-09 2.14186E-10
 -1       958-4.68469E+05-6.50641E+01-7.53681E+03 4.76568E+04 1.02791E-08 8.90850E-10
 -1       959-4.69078E+05 1.64964E+02-3.85564E+03 6.13910E+04-6.16910E-09 1.21008E-09
 -1       960-4.68800E+05 2.66863E+02-1.88390E+03 4.76165E+04-1.71458E-08 2.38242E-09
 -1       961-4.68953E+05 3.51390E+02-9.85193E+02 6.14394E+04-3.36868E-08 3.30419E-09
 -1       962-4.68909E+05 2.91853E+02-5.45285E+02 4.76058E+04-1.40526E-08 3.59023E-09
 -1       963-4.69002E+05 3.90317E+02-3.97893E+02 6.14551E+04-1.88779E-08 3.42834E-09
 -1       964-4.68957E+05 3.19663E+02-4.38251E+02 4.75997E+04-2.77169E-09 2.39834E-09
 -1       965-4.69057E+05 4.13671E+02-7.18428E+02 6.14609E+04 1.69453E-08 1.33605E-09
 -1       966-4.68949E+05 3.47026E+02-1.32892E+03 4.75994E+04-1.20133E-08 3.29737E-09
 -1       967-4.69225E+05 3.27306E+02-2.71018E+03 6.14454E+04-9.69521E-10 2.38833E-09
 -1       968-4.68774E+05 1.52617E+02-5.28363E+03 4.76162E+04-1.79352E-09 2.93426E-09
 -1       969-4.71491E+05-2.42931E+03-1.17347E+04 6.12425E+04-5.63978E-09 1.60998E-09
 -1       970-4.66563E+05-6.58990E+03-2.23581E+04 4.78296E+04 6.79665E-09 2.09366E-09
 -1       971-4.56794E+05-1.57649E+02-2.03472E+04 1.31859E+04-1.79953E-08-4.22551E-09
 -1       972-4.62669E+05-3.42992E+03-1.17561E+04 2.36995E+04-1.50540E-08-2.84467E-09
 -1       973-4.59406E+05 1.24616E+02-5.12794E+03 1.30347E+04-8.49559E-09-5.17457E-09
 -1       974-4.59923E+05-2.72273E+01-2.69147E+03 2.38636E+04-1.96451E-10-2.87787E-09
 -1       975-4.59621E+05 1.07727E+02-1.31191E+03 1.30114E+04-2.73758E-09-5.97652E-09
 -1       976-4.59729E+05 1.64973E+02-7.23272E+02 2.38953E+04-1.44489E-08-2.62628E-09
 -1       977-4.59654E+05 1.04563E+02-4.60861E+02 1.30021E+04 1.44248E-08-6.80677E-09
 -1       978-4.59723E+05 1.79050E+02-4.54535E+02 2.39067E+04 4.94896E-08-5.61545E-09
 -1       979-4.59652E+05 1.09690E+02-6.57748E+02 1.29998E+04 1.95120E-08-7.21013E-09
 -1       980-4.59768E+05 1.63766E+02-1.22914E+03 2.39037E+04 2.13179E-08-4.96817E-09
 -1       981-4.59604E+05 1.28945E+02-2.35039E+03 1.30051E+04-9.04947E-10-6.07338E-09
 -1       982-4.60156E+05-1.71203E+02-4.89809E+03 2.38824E+04 2.31785E-09-3.29786E-09
 -1       983-4.59230E+05 1.76886E+02-9.35946E+03 1.30223E+04 3.17277E-09-6.95445E-09
 -1       984-4.65224E+05-6.37284E+03-2.14918E+04 2.37501E+04-7.30324E-09-3.95130E-09
 -1       985-4.54476E+05-3.17644E+02-3.71916E+04 1.31576E+04 1.88984E-08-6.24459E-09
 -3
 9999
