    1C
    1UUSER                                                              
    1UDATE              17.september.2022                               
    1UTIME              14:25:43                                        
    1UHOST                                                              
    1UPGM               CalculiX                                        
    1UVERSION           Version 2.20                             
    1UCOMPILETIME       Sun Jul 31 18:08:37 CEST 2022                    
    1UDIR                                                               
    1UDBN                                                               
    1UMAT    1MESH_MATERIAL                                             
    2C                           996                                     1
 -1         1 0.00000E+00 0.00000E+00 0.00000E+00
 -1         2 8.33333E-03 0.00000E+00 0.00000E+00
 -1         3 1.66667E-02 0.00000E+00 0.00000E+00
 -1         4 2.50000E-02 0.00000E+00 0.00000E+00
 -1         5 3.33333E-02 0.00000E+00 0.00000E+00
 -1         6 4.16667E-02 0.00000E+00 0.00000E+00
 -1         7 5.00000E-02 0.00000E+00 0.00000E+00
 -1         8 5.83333E-02 0.00000E+00 0.00000E+00
 -1         9 6.66667E-02 0.00000E+00 0.00000E+00
 -1        14 0.00000E+00 6.25000E-03 0.00000E+00
 -1        15 8.33333E-03 6.25000E-03 0.00000E+00
 -1        16 1.66667E-02 6.25000E-03 0.00000E+00
 -1        17 2.50000E-02 6.25000E-03 0.00000E+00
 -1        18 3.33333E-02 6.25000E-03 0.00000E+00
 -1        19 4.16667E-02 6.25000E-03 0.00000E+00
 -1        20 5.00000E-02 6.25000E-03 0.00000E+00
 -1        21 5.83333E-02 6.25000E-03 0.00000E+00
 -1        22 6.66667E-02 6.25000E-03 0.00000E+00
 -1        27 0.00000E+00 1.25000E-02 0.00000E+00
 -1        28 8.33333E-03 1.25000E-02 0.00000E+00
 -1        29 1.66667E-02 1.25000E-02 0.00000E+00
 -1        30 2.50000E-02 1.25000E-02 0.00000E+00
 -1        31 3.33333E-02 1.25000E-02 0.00000E+00
 -1        32 4.16667E-02 1.25000E-02 0.00000E+00
 -1        33 5.00000E-02 1.25000E-02 0.00000E+00
 -1        34 5.83333E-02 1.25000E-02 0.00000E+00
 -1        35 6.66667E-02 1.25000E-02 0.00000E+00
 -1        36 7.50000E-02 1.25000E-02 0.00000E+00
 -1        37 8.33333E-02 1.25000E-02 0.00000E+00
 -1        38 9.16667E-02 1.25000E-02 0.00000E+00
 -1        39 1.00000E-01 1.25000E-02 0.00000E+00
 -1        40 0.00000E+00 1.87500E-02 0.00000E+00
 -1        41 8.33333E-03 1.87500E-02 0.00000E+00
 -1        42 1.66667E-02 1.87500E-02 0.00000E+00
 -1        43 2.50000E-02 1.87500E-02 0.00000E+00
 -1        44 3.33333E-02 1.87500E-02 0.00000E+00
 -1        45 4.16667E-02 1.87500E-02 0.00000E+00
 -1        46 5.00000E-02 1.87500E-02 0.00000E+00
 -1        47 5.83333E-02 1.87500E-02 0.00000E+00
 -1        48 6.66667E-02 1.87500E-02 0.00000E+00
 -1        49 7.50000E-02 1.87500E-02 0.00000E+00
 -1        50 8.33333E-02 1.87500E-02 0.00000E+00
 -1        51 9.16667E-02 1.87500E-02 0.00000E+00
 -1        52 1.00000E-01 1.87500E-02 0.00000E+00
 -1        53 0.00000E+00 2.50000E-02 0.00000E+00
 -1        54 8.33333E-03 2.50000E-02 0.00000E+00
 -1        55 1.66667E-02 2.50000E-02 0.00000E+00
 -1        56 2.50000E-02 2.50000E-02 0.00000E+00
 -1        57 3.33333E-02 2.50000E-02 0.00000E+00
 -1        58 4.16667E-02 2.50000E-02 0.00000E+00
 -1        59 5.00000E-02 2.50000E-02 0.00000E+00
 -1        60 5.83333E-02 2.50000E-02 0.00000E+00
 -1        61 6.66667E-02 2.50000E-02 0.00000E+00
 -1        62 7.50000E-02 2.50000E-02 0.00000E+00
 -1        63 8.33333E-02 2.50000E-02 0.00000E+00
 -1        64 9.16667E-02 2.50000E-02 0.00000E+00
 -1        65 1.00000E-01 2.50000E-02 0.00000E+00
 -1        66 1.04167E-03 0.00000E+00 0.00000E+00
 -1        67 2.08333E-03 0.00000E+00 0.00000E+00
 -1        68 3.12500E-03 0.00000E+00 0.00000E+00
 -1        69 4.16667E-03 0.00000E+00 0.00000E+00
 -1        70 5.20833E-03 0.00000E+00 0.00000E+00
 -1        71 6.25000E-03 0.00000E+00 0.00000E+00
 -1        72 7.29167E-03 0.00000E+00 0.00000E+00
 -1        73 0.00000E+00 1.04167E-03 0.00000E+00
 -1        74 0.00000E+00 2.08333E-03 0.00000E+00
 -1        75 0.00000E+00 3.12500E-03 0.00000E+00
 -1        76 0.00000E+00 4.16667E-03 0.00000E+00
 -1        77 0.00000E+00 5.20833E-03 0.00000E+00
 -1        78 8.33330E-04 6.25000E-04 0.00000E+00
 -1        79 1.66667E-03 1.25000E-03 0.00000E+00
 -1        80 2.50000E-03 1.87500E-03 0.00000E+00
 -1        81 3.33333E-03 2.50000E-03 0.00000E+00
 -1        82 4.16667E-03 3.12500E-03 0.00000E+00
 -1        83 5.00000E-03 3.75000E-03 0.00000E+00
 -1        84 5.83333E-03 4.37500E-03 0.00000E+00
 -1        85 6.66667E-03 5.00000E-03 0.00000E+00
 -1        86 7.50000E-03 5.62500E-03 0.00000E+00
 -1        87 9.37500E-03 0.00000E+00 0.00000E+00
 -1        88 1.04167E-02 0.00000E+00 0.00000E+00
 -1        89 1.14583E-02 0.00000E+00 0.00000E+00
 -1        90 1.25000E-02 0.00000E+00 0.00000E+00
 -1        91 1.35417E-02 0.00000E+00 0.00000E+00
 -1        92 1.45833E-02 0.00000E+00 0.00000E+00
 -1        93 1.56250E-02 0.00000E+00 0.00000E+00
 -1        94 8.33333E-03 1.04167E-03 0.00000E+00
 -1        95 8.33333E-03 2.08333E-03 0.00000E+00
 -1        96 8.33333E-03 3.12500E-03 0.00000E+00
 -1        97 8.33333E-03 4.16667E-03 0.00000E+00
 -1        98 8.33333E-03 5.20833E-03 0.00000E+00
 -1        99 9.16667E-03 6.25000E-04 0.00000E+00
 -1       100 1.00000E-02 1.25000E-03 0.00000E+00
 -1       101 1.08333E-02 1.87500E-03 0.00000E+00
 -1       102 1.16667E-02 2.50000E-03 0.00000E+00
 -1       103 1.25000E-02 3.12500E-03 0.00000E+00
 -1       104 1.33333E-02 3.75000E-03 0.00000E+00
 -1       105 1.41667E-02 4.37500E-03 0.00000E+00
 -1       106 1.50000E-02 5.00000E-03 0.00000E+00
 -1       107 1.58333E-02 5.62500E-03 0.00000E+00
 -1       108 1.77083E-02 0.00000E+00 0.00000E+00
 -1       109 1.87500E-02 0.00000E+00 0.00000E+00
 -1       110 1.97917E-02 0.00000E+00 0.00000E+00
 -1       111 2.08333E-02 0.00000E+00 0.00000E+00
 -1       112 2.18750E-02 0.00000E+00 0.00000E+00
 -1       113 2.29167E-02 0.00000E+00 0.00000E+00
 -1       114 2.39583E-02 0.00000E+00 0.00000E+00
 -1       115 1.66667E-02 1.04167E-03 0.00000E+00
 -1       116 1.66667E-02 2.08333E-03 0.00000E+00
 -1       117 1.66667E-02 3.12500E-03 0.00000E+00
 -1       118 1.66667E-02 4.16667E-03 0.00000E+00
 -1       119 1.66667E-02 5.20833E-03 0.00000E+00
 -1       120 1.75000E-02 6.25000E-04 0.00000E+00
 -1       121 1.83333E-02 1.25000E-03 0.00000E+00
 -1       122 1.91667E-02 1.87500E-03 0.00000E+00
 -1       123 2.00000E-02 2.50000E-03 0.00000E+00
 -1       124 2.08333E-02 3.12500E-03 0.00000E+00
 -1       125 2.16667E-02 3.75000E-03 0.00000E+00
 -1       126 2.25000E-02 4.37500E-03 0.00000E+00
 -1       127 2.33333E-02 5.00000E-03 0.00000E+00
 -1       128 2.41667E-02 5.62500E-03 0.00000E+00
 -1       129 2.60417E-02 0.00000E+00 0.00000E+00
 -1       130 2.70833E-02 0.00000E+00 0.00000E+00
 -1       131 2.81250E-02 0.00000E+00 0.00000E+00
 -1       132 2.91667E-02 0.00000E+00 0.00000E+00
 -1       133 3.02083E-02 0.00000E+00 0.00000E+00
 -1       134 3.12500E-02 0.00000E+00 0.00000E+00
 -1       135 3.22917E-02 0.00000E+00 0.00000E+00
 -1       136 2.50000E-02 1.04167E-03 0.00000E+00
 -1       137 2.50000E-02 2.08333E-03 0.00000E+00
 -1       138 2.50000E-02 3.12500E-03 0.00000E+00
 -1       139 2.50000E-02 4.16667E-03 0.00000E+00
 -1       140 2.50000E-02 5.20833E-03 0.00000E+00
 -1       141 2.58333E-02 6.25000E-04 0.00000E+00
 -1       142 2.66667E-02 1.25000E-03 0.00000E+00
 -1       143 2.75000E-02 1.87500E-03 0.00000E+00
 -1       144 2.83333E-02 2.50000E-03 0.00000E+00
 -1       145 2.91667E-02 3.12500E-03 0.00000E+00
 -1       146 3.00000E-02 3.75000E-03 0.00000E+00
 -1       147 3.08333E-02 4.37500E-03 0.00000E+00
 -1       148 3.16667E-02 5.00000E-03 0.00000E+00
 -1       149 3.25000E-02 5.62500E-03 0.00000E+00
 -1       150 3.43750E-02 0.00000E+00 0.00000E+00
 -1       151 3.54167E-02 0.00000E+00 0.00000E+00
 -1       152 3.64583E-02 0.00000E+00 0.00000E+00
 -1       153 3.75000E-02 0.00000E+00 0.00000E+00
 -1       154 3.85417E-02 0.00000E+00 0.00000E+00
 -1       155 3.95833E-02 0.00000E+00 0.00000E+00
 -1       156 4.06250E-02 0.00000E+00 0.00000E+00
 -1       157 3.33333E-02 1.04167E-03 0.00000E+00
 -1       158 3.33333E-02 2.08333E-03 0.00000E+00
 -1       159 3.33333E-02 3.12500E-03 0.00000E+00
 -1       160 3.33333E-02 4.16667E-03 0.00000E+00
 -1       161 3.33333E-02 5.20833E-03 0.00000E+00
 -1       162 3.41667E-02 6.25000E-04 0.00000E+00
 -1       163 3.50000E-02 1.25000E-03 0.00000E+00
 -1       164 3.58333E-02 1.87500E-03 0.00000E+00
 -1       165 3.66667E-02 2.50000E-03 0.00000E+00
 -1       166 3.75000E-02 3.12500E-03 0.00000E+00
 -1       167 3.83333E-02 3.75000E-03 0.00000E+00
 -1       168 3.91667E-02 4.37500E-03 0.00000E+00
 -1       169 4.00000E-02 5.00000E-03 0.00000E+00
 -1       170 4.08333E-02 5.62500E-03 0.00000E+00
 -1       171 4.27083E-02 0.00000E+00 0.00000E+00
 -1       172 4.37500E-02 0.00000E+00 0.00000E+00
 -1       173 4.47917E-02 0.00000E+00 0.00000E+00
 -1       174 4.58333E-02 0.00000E+00 0.00000E+00
 -1       175 4.68750E-02 0.00000E+00 0.00000E+00
 -1       176 4.79167E-02 0.00000E+00 0.00000E+00
 -1       177 4.89583E-02 0.00000E+00 0.00000E+00
 -1       178 4.16667E-02 1.04167E-03 0.00000E+00
 -1       179 4.16667E-02 2.08333E-03 0.00000E+00
 -1       180 4.16667E-02 3.12500E-03 0.00000E+00
 -1       181 4.16667E-02 4.16667E-03 0.00000E+00
 -1       182 4.16667E-02 5.20833E-03 0.00000E+00
 -1       183 4.25000E-02 6.25000E-04 0.00000E+00
 -1       184 4.33333E-02 1.25000E-03 0.00000E+00
 -1       185 4.41667E-02 1.87500E-03 0.00000E+00
 -1       186 4.50000E-02 2.50000E-03 0.00000E+00
 -1       187 4.58333E-02 3.12500E-03 0.00000E+00
 -1       188 4.66667E-02 3.75000E-03 0.00000E+00
 -1       189 4.75000E-02 4.37500E-03 0.00000E+00
 -1       190 4.83333E-02 5.00000E-03 0.00000E+00
 -1       191 4.91667E-02 5.62500E-03 0.00000E+00
 -1       192 5.10417E-02 0.00000E+00 0.00000E+00
 -1       193 5.20833E-02 0.00000E+00 0.00000E+00
 -1       194 5.31250E-02 0.00000E+00 0.00000E+00
 -1       195 5.41667E-02 0.00000E+00 0.00000E+00
 -1       196 5.52083E-02 0.00000E+00 0.00000E+00
 -1       197 5.62500E-02 0.00000E+00 0.00000E+00
 -1       198 5.72917E-02 0.00000E+00 0.00000E+00
 -1       199 5.00000E-02 1.04167E-03 0.00000E+00
 -1       200 5.00000E-02 2.08333E-03 0.00000E+00
 -1       201 5.00000E-02 3.12500E-03 0.00000E+00
 -1       202 5.00000E-02 4.16667E-03 0.00000E+00
 -1       203 5.00000E-02 5.20833E-03 0.00000E+00
 -1       204 5.08333E-02 6.25000E-04 0.00000E+00
 -1       205 5.16667E-02 1.25000E-03 0.00000E+00
 -1       206 5.25000E-02 1.87500E-03 0.00000E+00
 -1       207 5.33333E-02 2.50000E-03 0.00000E+00
 -1       208 5.41667E-02 3.12500E-03 0.00000E+00
 -1       209 5.50000E-02 3.75000E-03 0.00000E+00
 -1       210 5.58333E-02 4.37500E-03 0.00000E+00
 -1       211 5.66667E-02 5.00000E-03 0.00000E+00
 -1       212 5.75000E-02 5.62500E-03 0.00000E+00
 -1       213 5.93750E-02 0.00000E+00 0.00000E+00
 -1       214 6.04167E-02 0.00000E+00 0.00000E+00
 -1       215 6.14583E-02 0.00000E+00 0.00000E+00
 -1       216 6.25000E-02 0.00000E+00 0.00000E+00
 -1       217 6.35417E-02 0.00000E+00 0.00000E+00
 -1       218 6.45833E-02 0.00000E+00 0.00000E+00
 -1       219 6.56250E-02 0.00000E+00 0.00000E+00
 -1       220 5.83333E-02 1.04167E-03 0.00000E+00
 -1       221 5.83333E-02 2.08333E-03 0.00000E+00
 -1       222 5.83333E-02 3.12500E-03 0.00000E+00
 -1       223 5.83333E-02 4.16667E-03 0.00000E+00
 -1       224 5.83333E-02 5.20833E-03 0.00000E+00
 -1       225 5.91667E-02 6.25000E-04 0.00000E+00
 -1       226 6.00000E-02 1.25000E-03 0.00000E+00
 -1       227 6.08333E-02 1.87500E-03 0.00000E+00
 -1       228 6.16667E-02 2.50000E-03 0.00000E+00
 -1       229 6.25000E-02 3.12500E-03 0.00000E+00
 -1       230 6.33333E-02 3.75000E-03 0.00000E+00
 -1       231 6.41667E-02 4.37500E-03 0.00000E+00
 -1       232 6.50000E-02 5.00000E-03 0.00000E+00
 -1       233 6.58333E-02 5.62500E-03 0.00000E+00
 -1       241 6.66667E-02 1.04167E-03 0.00000E+00
 -1       242 6.66667E-02 2.08333E-03 0.00000E+00
 -1       243 6.66667E-02 3.12500E-03 0.00000E+00
 -1       244 6.66667E-02 4.16667E-03 0.00000E+00
 -1       245 6.66667E-02 5.20833E-03 0.00000E+00
 -1       323 1.04167E-03 6.25000E-03 0.00000E+00
 -1       324 2.08333E-03 6.25000E-03 0.00000E+00
 -1       325 3.12500E-03 6.25000E-03 0.00000E+00
 -1       326 4.16667E-03 6.25000E-03 0.00000E+00
 -1       327 5.20833E-03 6.25000E-03 0.00000E+00
 -1       328 6.25000E-03 6.25000E-03 0.00000E+00
 -1       329 7.29167E-03 6.25000E-03 0.00000E+00
 -1       330 0.00000E+00 7.29167E-03 0.00000E+00
 -1       331 0.00000E+00 8.33333E-03 0.00000E+00
 -1       332 0.00000E+00 9.37500E-03 0.00000E+00
 -1       333 0.00000E+00 1.04167E-02 0.00000E+00
 -1       334 0.00000E+00 1.14583E-02 0.00000E+00
 -1       335 8.33330E-04 6.87500E-03 0.00000E+00
 -1       336 1.66667E-03 7.50000E-03 0.00000E+00
 -1       337 2.50000E-03 8.12500E-03 0.00000E+00
 -1       338 3.33333E-03 8.75000E-03 0.00000E+00
 -1       339 4.16667E-03 9.37500E-03 0.00000E+00
 -1       340 5.00000E-03 1.00000E-02 0.00000E+00
 -1       341 5.83333E-03 1.06250E-02 0.00000E+00
 -1       342 6.66667E-03 1.12500E-02 0.00000E+00
 -1       343 7.50000E-03 1.18750E-02 0.00000E+00
 -1       344 9.37500E-03 6.25000E-03 0.00000E+00
 -1       345 1.04167E-02 6.25000E-03 0.00000E+00
 -1       346 1.14583E-02 6.25000E-03 0.00000E+00
 -1       347 1.25000E-02 6.25000E-03 0.00000E+00
 -1       348 1.35417E-02 6.25000E-03 0.00000E+00
 -1       349 1.45833E-02 6.25000E-03 0.00000E+00
 -1       350 1.56250E-02 6.25000E-03 0.00000E+00
 -1       351 8.33333E-03 7.29167E-03 0.00000E+00
 -1       352 8.33333E-03 8.33333E-03 0.00000E+00
 -1       353 8.33333E-03 9.37500E-03 0.00000E+00
 -1       354 8.33333E-03 1.04167E-02 0.00000E+00
 -1       355 8.33333E-03 1.14583E-02 0.00000E+00
 -1       356 9.16667E-03 6.87500E-03 0.00000E+00
 -1       357 1.00000E-02 7.50000E-03 0.00000E+00
 -1       358 1.08333E-02 8.12500E-03 0.00000E+00
 -1       359 1.16667E-02 8.75000E-03 0.00000E+00
 -1       360 1.25000E-02 9.37500E-03 0.00000E+00
 -1       361 1.33333E-02 1.00000E-02 0.00000E+00
 -1       362 1.41667E-02 1.06250E-02 0.00000E+00
 -1       363 1.50000E-02 1.12500E-02 0.00000E+00
 -1       364 1.58333E-02 1.18750E-02 0.00000E+00
 -1       365 1.77083E-02 6.25000E-03 0.00000E+00
 -1       366 1.87500E-02 6.25000E-03 0.00000E+00
 -1       367 1.97917E-02 6.25000E-03 0.00000E+00
 -1       368 2.08333E-02 6.25000E-03 0.00000E+00
 -1       369 2.18750E-02 6.25000E-03 0.00000E+00
 -1       370 2.29167E-02 6.25000E-03 0.00000E+00
 -1       371 2.39583E-02 6.25000E-03 0.00000E+00
 -1       372 1.66667E-02 7.29167E-03 0.00000E+00
 -1       373 1.66667E-02 8.33333E-03 0.00000E+00
 -1       374 1.66667E-02 9.37500E-03 0.00000E+00
 -1       375 1.66667E-02 1.04167E-02 0.00000E+00
 -1       376 1.66667E-02 1.14583E-02 0.00000E+00
 -1       377 1.75000E-02 6.87500E-03 0.00000E+00
 -1       378 1.83333E-02 7.50000E-03 0.00000E+00
 -1       379 1.91667E-02 8.12500E-03 0.00000E+00
 -1       380 2.00000E-02 8.75000E-03 0.00000E+00
 -1       381 2.08333E-02 9.37500E-03 0.00000E+00
 -1       382 2.16667E-02 1.00000E-02 0.00000E+00
 -1       383 2.25000E-02 1.06250E-02 0.00000E+00
 -1       384 2.33333E-02 1.12500E-02 0.00000E+00
 -1       385 2.41667E-02 1.18750E-02 0.00000E+00
 -1       386 2.60417E-02 6.25000E-03 0.00000E+00
 -1       387 2.70833E-02 6.25000E-03 0.00000E+00
 -1       388 2.81250E-02 6.25000E-03 0.00000E+00
 -1       389 2.91667E-02 6.25000E-03 0.00000E+00
 -1       390 3.02083E-02 6.25000E-03 0.00000E+00
 -1       391 3.12500E-02 6.25000E-03 0.00000E+00
 -1       392 3.22917E-02 6.25000E-03 0.00000E+00
 -1       393 2.50000E-02 7.29167E-03 0.00000E+00
 -1       394 2.50000E-02 8.33333E-03 0.00000E+00
 -1       395 2.50000E-02 9.37500E-03 0.00000E+00
 -1       396 2.50000E-02 1.04167E-02 0.00000E+00
 -1       397 2.50000E-02 1.14583E-02 0.00000E+00
 -1       398 2.58333E-02 6.87500E-03 0.00000E+00
 -1       399 2.66667E-02 7.50000E-03 0.00000E+00
 -1       400 2.75000E-02 8.12500E-03 0.00000E+00
 -1       401 2.83333E-02 8.75000E-03 0.00000E+00
 -1       402 2.91667E-02 9.37500E-03 0.00000E+00
 -1       403 3.00000E-02 1.00000E-02 0.00000E+00
 -1       404 3.08333E-02 1.06250E-02 0.00000E+00
 -1       405 3.16667E-02 1.12500E-02 0.00000E+00
 -1       406 3.25000E-02 1.18750E-02 0.00000E+00
 -1       407 3.43750E-02 6.25000E-03 0.00000E+00
 -1       408 3.54167E-02 6.25000E-03 0.00000E+00
 -1       409 3.64583E-02 6.25000E-03 0.00000E+00
 -1       410 3.75000E-02 6.25000E-03 0.00000E+00
 -1       411 3.85417E-02 6.25000E-03 0.00000E+00
 -1       412 3.95833E-02 6.25000E-03 0.00000E+00
 -1       413 4.06250E-02 6.25000E-03 0.00000E+00
 -1       414 3.33333E-02 7.29167E-03 0.00000E+00
 -1       415 3.33333E-02 8.33333E-03 0.00000E+00
 -1       416 3.33333E-02 9.37500E-03 0.00000E+00
 -1       417 3.33333E-02 1.04167E-02 0.00000E+00
 -1       418 3.33333E-02 1.14583E-02 0.00000E+00
 -1       419 3.41667E-02 6.87500E-03 0.00000E+00
 -1       420 3.50000E-02 7.50000E-03 0.00000E+00
 -1       421 3.58333E-02 8.12500E-03 0.00000E+00
 -1       422 3.66667E-02 8.75000E-03 0.00000E+00
 -1       423 3.75000E-02 9.37500E-03 0.00000E+00
 -1       424 3.83333E-02 1.00000E-02 0.00000E+00
 -1       425 3.91667E-02 1.06250E-02 0.00000E+00
 -1       426 4.00000E-02 1.12500E-02 0.00000E+00
 -1       427 4.08333E-02 1.18750E-02 0.00000E+00
 -1       428 4.27083E-02 6.25000E-03 0.00000E+00
 -1       429 4.37500E-02 6.25000E-03 0.00000E+00
 -1       430 4.47917E-02 6.25000E-03 0.00000E+00
 -1       431 4.58333E-02 6.25000E-03 0.00000E+00
 -1       432 4.68750E-02 6.25000E-03 0.00000E+00
 -1       433 4.79167E-02 6.25000E-03 0.00000E+00
 -1       434 4.89583E-02 6.25000E-03 0.00000E+00
 -1       435 4.16667E-02 7.29167E-03 0.00000E+00
 -1       436 4.16667E-02 8.33333E-03 0.00000E+00
 -1       437 4.16667E-02 9.37500E-03 0.00000E+00
 -1       438 4.16667E-02 1.04167E-02 0.00000E+00
 -1       439 4.16667E-02 1.14583E-02 0.00000E+00
 -1       440 4.25000E-02 6.87500E-03 0.00000E+00
 -1       441 4.33333E-02 7.50000E-03 0.00000E+00
 -1       442 4.41667E-02 8.12500E-03 0.00000E+00
 -1       443 4.50000E-02 8.75000E-03 0.00000E+00
 -1       444 4.58333E-02 9.37500E-03 0.00000E+00
 -1       445 4.66667E-02 1.00000E-02 0.00000E+00
 -1       446 4.75000E-02 1.06250E-02 0.00000E+00
 -1       447 4.83333E-02 1.12500E-02 0.00000E+00
 -1       448 4.91667E-02 1.18750E-02 0.00000E+00
 -1       449 5.10417E-02 6.25000E-03 0.00000E+00
 -1       450 5.20833E-02 6.25000E-03 0.00000E+00
 -1       451 5.31250E-02 6.25000E-03 0.00000E+00
 -1       452 5.41667E-02 6.25000E-03 0.00000E+00
 -1       453 5.52083E-02 6.25000E-03 0.00000E+00
 -1       454 5.62500E-02 6.25000E-03 0.00000E+00
 -1       455 5.72917E-02 6.25000E-03 0.00000E+00
 -1       456 5.00000E-02 7.29167E-03 0.00000E+00
 -1       457 5.00000E-02 8.33333E-03 0.00000E+00
 -1       458 5.00000E-02 9.37500E-03 0.00000E+00
 -1       459 5.00000E-02 1.04167E-02 0.00000E+00
 -1       460 5.00000E-02 1.14583E-02 0.00000E+00
 -1       461 5.08333E-02 6.87500E-03 0.00000E+00
 -1       462 5.16667E-02 7.50000E-03 0.00000E+00
 -1       463 5.25000E-02 8.12500E-03 0.00000E+00
 -1       464 5.33333E-02 8.75000E-03 0.00000E+00
 -1       465 5.41667E-02 9.37500E-03 0.00000E+00
 -1       466 5.50000E-02 1.00000E-02 0.00000E+00
 -1       467 5.58333E-02 1.06250E-02 0.00000E+00
 -1       468 5.66667E-02 1.12500E-02 0.00000E+00
 -1       469 5.75000E-02 1.18750E-02 0.00000E+00
 -1       470 5.93750E-02 6.25000E-03 0.00000E+00
 -1       471 6.04167E-02 6.25000E-03 0.00000E+00
 -1       472 6.14583E-02 6.25000E-03 0.00000E+00
 -1       473 6.25000E-02 6.25000E-03 0.00000E+00
 -1       474 6.35417E-02 6.25000E-03 0.00000E+00
 -1       475 6.45833E-02 6.25000E-03 0.00000E+00
 -1       476 6.56250E-02 6.25000E-03 0.00000E+00
 -1       477 5.83333E-02 7.29167E-03 0.00000E+00
 -1       478 5.83333E-02 8.33333E-03 0.00000E+00
 -1       479 5.83333E-02 9.37500E-03 0.00000E+00
 -1       480 5.83333E-02 1.04167E-02 0.00000E+00
 -1       481 5.83333E-02 1.14583E-02 0.00000E+00
 -1       482 5.91667E-02 6.87500E-03 0.00000E+00
 -1       483 6.00000E-02 7.50000E-03 0.00000E+00
 -1       484 6.08333E-02 8.12500E-03 0.00000E+00
 -1       485 6.16667E-02 8.75000E-03 0.00000E+00
 -1       486 6.25000E-02 9.37500E-03 0.00000E+00
 -1       487 6.33333E-02 1.00000E-02 0.00000E+00
 -1       488 6.41667E-02 1.06250E-02 0.00000E+00
 -1       489 6.50000E-02 1.12500E-02 0.00000E+00
 -1       490 6.58333E-02 1.18750E-02 0.00000E+00
 -1       498 6.66667E-02 7.29167E-03 0.00000E+00
 -1       499 6.66667E-02 8.33333E-03 0.00000E+00
 -1       500 6.66667E-02 9.37500E-03 0.00000E+00
 -1       501 6.66667E-02 1.04167E-02 0.00000E+00
 -1       502 6.66667E-02 1.14583E-02 0.00000E+00
 -1       580 1.04167E-03 1.25000E-02 0.00000E+00
 -1       581 2.08333E-03 1.25000E-02 0.00000E+00
 -1       582 3.12500E-03 1.25000E-02 0.00000E+00
 -1       583 4.16667E-03 1.25000E-02 0.00000E+00
 -1       584 5.20833E-03 1.25000E-02 0.00000E+00
 -1       585 6.25000E-03 1.25000E-02 0.00000E+00
 -1       586 7.29167E-03 1.25000E-02 0.00000E+00
 -1       587 0.00000E+00 1.35417E-02 0.00000E+00
 -1       588 0.00000E+00 1.45833E-02 0.00000E+00
 -1       589 0.00000E+00 1.56250E-02 0.00000E+00
 -1       590 0.00000E+00 1.66667E-02 0.00000E+00
 -1       591 0.00000E+00 1.77083E-02 0.00000E+00
 -1       592 8.33330E-04 1.31250E-02 0.00000E+00
 -1       593 1.66667E-03 1.37500E-02 0.00000E+00
 -1       594 2.50000E-03 1.43750E-02 0.00000E+00
 -1       595 3.33333E-03 1.50000E-02 0.00000E+00
 -1       596 4.16667E-03 1.56250E-02 0.00000E+00
 -1       597 5.00000E-03 1.62500E-02 0.00000E+00
 -1       598 5.83333E-03 1.68750E-02 0.00000E+00
 -1       599 6.66667E-03 1.75000E-02 0.00000E+00
 -1       600 7.50000E-03 1.81250E-02 0.00000E+00
 -1       601 9.37500E-03 1.25000E-02 0.00000E+00
 -1       602 1.04167E-02 1.25000E-02 0.00000E+00
 -1       603 1.14583E-02 1.25000E-02 0.00000E+00
 -1       604 1.25000E-02 1.25000E-02 0.00000E+00
 -1       605 1.35417E-02 1.25000E-02 0.00000E+00
 -1       606 1.45833E-02 1.25000E-02 0.00000E+00
 -1       607 1.56250E-02 1.25000E-02 0.00000E+00
 -1       608 8.33333E-03 1.35417E-02 0.00000E+00
 -1       609 8.33333E-03 1.45833E-02 0.00000E+00
 -1       610 8.33333E-03 1.56250E-02 0.00000E+00
 -1       611 8.33333E-03 1.66667E-02 0.00000E+00
 -1       612 8.33333E-03 1.77083E-02 0.00000E+00
 -1       613 9.16667E-03 1.31250E-02 0.00000E+00
 -1       614 1.00000E-02 1.37500E-02 0.00000E+00
 -1       615 1.08333E-02 1.43750E-02 0.00000E+00
 -1       616 1.16667E-02 1.50000E-02 0.00000E+00
 -1       617 1.25000E-02 1.56250E-02 0.00000E+00
 -1       618 1.33333E-02 1.62500E-02 0.00000E+00
 -1       619 1.41667E-02 1.68750E-02 0.00000E+00
 -1       620 1.50000E-02 1.75000E-02 0.00000E+00
 -1       621 1.58333E-02 1.81250E-02 0.00000E+00
 -1       622 1.77083E-02 1.25000E-02 0.00000E+00
 -1       623 1.87500E-02 1.25000E-02 0.00000E+00
 -1       624 1.97917E-02 1.25000E-02 0.00000E+00
 -1       625 2.08333E-02 1.25000E-02 0.00000E+00
 -1       626 2.18750E-02 1.25000E-02 0.00000E+00
 -1       627 2.29167E-02 1.25000E-02 0.00000E+00
 -1       628 2.39583E-02 1.25000E-02 0.00000E+00
 -1       629 1.66667E-02 1.35417E-02 0.00000E+00
 -1       630 1.66667E-02 1.45833E-02 0.00000E+00
 -1       631 1.66667E-02 1.56250E-02 0.00000E+00
 -1       632 1.66667E-02 1.66667E-02 0.00000E+00
 -1       633 1.66667E-02 1.77083E-02 0.00000E+00
 -1       634 1.75000E-02 1.31250E-02 0.00000E+00
 -1       635 1.83333E-02 1.37500E-02 0.00000E+00
 -1       636 1.91667E-02 1.43750E-02 0.00000E+00
 -1       637 2.00000E-02 1.50000E-02 0.00000E+00
 -1       638 2.08333E-02 1.56250E-02 0.00000E+00
 -1       639 2.16667E-02 1.62500E-02 0.00000E+00
 -1       640 2.25000E-02 1.68750E-02 0.00000E+00
 -1       641 2.33333E-02 1.75000E-02 0.00000E+00
 -1       642 2.41667E-02 1.81250E-02 0.00000E+00
 -1       643 2.60417E-02 1.25000E-02 0.00000E+00
 -1       644 2.70833E-02 1.25000E-02 0.00000E+00
 -1       645 2.81250E-02 1.25000E-02 0.00000E+00
 -1       646 2.91667E-02 1.25000E-02 0.00000E+00
 -1       647 3.02083E-02 1.25000E-02 0.00000E+00
 -1       648 3.12500E-02 1.25000E-02 0.00000E+00
 -1       649 3.22917E-02 1.25000E-02 0.00000E+00
 -1       650 2.50000E-02 1.35417E-02 0.00000E+00
 -1       651 2.50000E-02 1.45833E-02 0.00000E+00
 -1       652 2.50000E-02 1.56250E-02 0.00000E+00
 -1       653 2.50000E-02 1.66667E-02 0.00000E+00
 -1       654 2.50000E-02 1.77083E-02 0.00000E+00
 -1       655 2.58333E-02 1.31250E-02 0.00000E+00
 -1       656 2.66667E-02 1.37500E-02 0.00000E+00
 -1       657 2.75000E-02 1.43750E-02 0.00000E+00
 -1       658 2.83333E-02 1.50000E-02 0.00000E+00
 -1       659 2.91667E-02 1.56250E-02 0.00000E+00
 -1       660 3.00000E-02 1.62500E-02 0.00000E+00
 -1       661 3.08333E-02 1.68750E-02 0.00000E+00
 -1       662 3.16667E-02 1.75000E-02 0.00000E+00
 -1       663 3.25000E-02 1.81250E-02 0.00000E+00
 -1       664 3.43750E-02 1.25000E-02 0.00000E+00
 -1       665 3.54167E-02 1.25000E-02 0.00000E+00
 -1       666 3.64583E-02 1.25000E-02 0.00000E+00
 -1       667 3.75000E-02 1.25000E-02 0.00000E+00
 -1       668 3.85417E-02 1.25000E-02 0.00000E+00
 -1       669 3.95833E-02 1.25000E-02 0.00000E+00
 -1       670 4.06250E-02 1.25000E-02 0.00000E+00
 -1       671 3.33333E-02 1.35417E-02 0.00000E+00
 -1       672 3.33333E-02 1.45833E-02 0.00000E+00
 -1       673 3.33333E-02 1.56250E-02 0.00000E+00
 -1       674 3.33333E-02 1.66667E-02 0.00000E+00
 -1       675 3.33333E-02 1.77083E-02 0.00000E+00
 -1       676 3.41667E-02 1.31250E-02 0.00000E+00
 -1       677 3.50000E-02 1.37500E-02 0.00000E+00
 -1       678 3.58333E-02 1.43750E-02 0.00000E+00
 -1       679 3.66667E-02 1.50000E-02 0.00000E+00
 -1       680 3.75000E-02 1.56250E-02 0.00000E+00
 -1       681 3.83333E-02 1.62500E-02 0.00000E+00
 -1       682 3.91667E-02 1.68750E-02 0.00000E+00
 -1       683 4.00000E-02 1.75000E-02 0.00000E+00
 -1       684 4.08333E-02 1.81250E-02 0.00000E+00
 -1       685 4.27083E-02 1.25000E-02 0.00000E+00
 -1       686 4.37500E-02 1.25000E-02 0.00000E+00
 -1       687 4.47917E-02 1.25000E-02 0.00000E+00
 -1       688 4.58333E-02 1.25000E-02 0.00000E+00
 -1       689 4.68750E-02 1.25000E-02 0.00000E+00
 -1       690 4.79167E-02 1.25000E-02 0.00000E+00
 -1       691 4.89583E-02 1.25000E-02 0.00000E+00
 -1       692 4.16667E-02 1.35417E-02 0.00000E+00
 -1       693 4.16667E-02 1.45833E-02 0.00000E+00
 -1       694 4.16667E-02 1.56250E-02 0.00000E+00
 -1       695 4.16667E-02 1.66667E-02 0.00000E+00
 -1       696 4.16667E-02 1.77083E-02 0.00000E+00
 -1       697 4.25000E-02 1.31250E-02 0.00000E+00
 -1       698 4.33333E-02 1.37500E-02 0.00000E+00
 -1       699 4.41667E-02 1.43750E-02 0.00000E+00
 -1       700 4.50000E-02 1.50000E-02 0.00000E+00
 -1       701 4.58333E-02 1.56250E-02 0.00000E+00
 -1       702 4.66667E-02 1.62500E-02 0.00000E+00
 -1       703 4.75000E-02 1.68750E-02 0.00000E+00
 -1       704 4.83333E-02 1.75000E-02 0.00000E+00
 -1       705 4.91667E-02 1.81250E-02 0.00000E+00
 -1       706 5.10417E-02 1.25000E-02 0.00000E+00
 -1       707 5.20833E-02 1.25000E-02 0.00000E+00
 -1       708 5.31250E-02 1.25000E-02 0.00000E+00
 -1       709 5.41667E-02 1.25000E-02 0.00000E+00
 -1       710 5.52083E-02 1.25000E-02 0.00000E+00
 -1       711 5.62500E-02 1.25000E-02 0.00000E+00
 -1       712 5.72917E-02 1.25000E-02 0.00000E+00
 -1       713 5.00000E-02 1.35417E-02 0.00000E+00
 -1       714 5.00000E-02 1.45833E-02 0.00000E+00
 -1       715 5.00000E-02 1.56250E-02 0.00000E+00
 -1       716 5.00000E-02 1.66667E-02 0.00000E+00
 -1       717 5.00000E-02 1.77083E-02 0.00000E+00
 -1       718 5.08333E-02 1.31250E-02 0.00000E+00
 -1       719 5.16667E-02 1.37500E-02 0.00000E+00
 -1       720 5.25000E-02 1.43750E-02 0.00000E+00
 -1       721 5.33333E-02 1.50000E-02 0.00000E+00
 -1       722 5.41667E-02 1.56250E-02 0.00000E+00
 -1       723 5.50000E-02 1.62500E-02 0.00000E+00
 -1       724 5.58333E-02 1.68750E-02 0.00000E+00
 -1       725 5.66667E-02 1.75000E-02 0.00000E+00
 -1       726 5.75000E-02 1.81250E-02 0.00000E+00
 -1       727 5.93750E-02 1.25000E-02 0.00000E+00
 -1       728 6.04167E-02 1.25000E-02 0.00000E+00
 -1       729 6.14583E-02 1.25000E-02 0.00000E+00
 -1       730 6.25000E-02 1.25000E-02 0.00000E+00
 -1       731 6.35417E-02 1.25000E-02 0.00000E+00
 -1       732 6.45833E-02 1.25000E-02 0.00000E+00
 -1       733 6.56250E-02 1.25000E-02 0.00000E+00
 -1       734 5.83333E-02 1.35417E-02 0.00000E+00
 -1       735 5.83333E-02 1.45833E-02 0.00000E+00
 -1       736 5.83333E-02 1.56250E-02 0.00000E+00
 -1       737 5.83333E-02 1.66667E-02 0.00000E+00
 -1       738 5.83333E-02 1.77083E-02 0.00000E+00
 -1       739 5.91667E-02 1.31250E-02 0.00000E+00
 -1       740 6.00000E-02 1.37500E-02 0.00000E+00
 -1       741 6.08333E-02 1.43750E-02 0.00000E+00
 -1       742 6.16667E-02 1.50000E-02 0.00000E+00
 -1       743 6.25000E-02 1.56250E-02 0.00000E+00
 -1       744 6.33333E-02 1.62500E-02 0.00000E+00
 -1       745 6.41667E-02 1.68750E-02 0.00000E+00
 -1       746 6.50000E-02 1.75000E-02 0.00000E+00
 -1       747 6.58333E-02 1.81250E-02 0.00000E+00
 -1       748 6.77083E-02 1.25000E-02 0.00000E+00
 -1       749 6.87500E-02 1.25000E-02 0.00000E+00
 -1       750 6.97917E-02 1.25000E-02 0.00000E+00
 -1       751 7.08333E-02 1.25000E-02 0.00000E+00
 -1       752 7.18750E-02 1.25000E-02 0.00000E+00
 -1       753 7.29167E-02 1.25000E-02 0.00000E+00
 -1       754 7.39583E-02 1.25000E-02 0.00000E+00
 -1       755 6.66667E-02 1.35417E-02 0.00000E+00
 -1       756 6.66667E-02 1.45833E-02 0.00000E+00
 -1       757 6.66667E-02 1.56250E-02 0.00000E+00
 -1       758 6.66667E-02 1.66667E-02 0.00000E+00
 -1       759 6.66667E-02 1.77083E-02 0.00000E+00
 -1       760 6.75000E-02 1.31250E-02 0.00000E+00
 -1       761 6.83333E-02 1.37500E-02 0.00000E+00
 -1       762 6.91667E-02 1.43750E-02 0.00000E+00
 -1       763 7.00000E-02 1.50000E-02 0.00000E+00
 -1       764 7.08333E-02 1.56250E-02 0.00000E+00
 -1       765 7.16667E-02 1.62500E-02 0.00000E+00
 -1       766 7.25000E-02 1.68750E-02 0.00000E+00
 -1       767 7.33333E-02 1.75000E-02 0.00000E+00
 -1       768 7.41667E-02 1.81250E-02 0.00000E+00
 -1       769 7.60417E-02 1.25000E-02 0.00000E+00
 -1       770 7.70833E-02 1.25000E-02 0.00000E+00
 -1       771 7.81250E-02 1.25000E-02 0.00000E+00
 -1       772 7.91667E-02 1.25000E-02 0.00000E+00
 -1       773 8.02083E-02 1.25000E-02 0.00000E+00
 -1       774 8.12500E-02 1.25000E-02 0.00000E+00
 -1       775 8.22917E-02 1.25000E-02 0.00000E+00
 -1       776 7.50000E-02 1.35417E-02 0.00000E+00
 -1       777 7.50000E-02 1.45833E-02 0.00000E+00
 -1       778 7.50000E-02 1.56250E-02 0.00000E+00
 -1       779 7.50000E-02 1.66667E-02 0.00000E+00
 -1       780 7.50000E-02 1.77083E-02 0.00000E+00
 -1       781 7.58333E-02 1.31250E-02 0.00000E+00
 -1       782 7.66667E-02 1.37500E-02 0.00000E+00
 -1       783 7.75000E-02 1.43750E-02 0.00000E+00
 -1       784 7.83333E-02 1.50000E-02 0.00000E+00
 -1       785 7.91667E-02 1.56250E-02 0.00000E+00
 -1       786 8.00000E-02 1.62500E-02 0.00000E+00
 -1       787 8.08333E-02 1.68750E-02 0.00000E+00
 -1       788 8.16667E-02 1.75000E-02 0.00000E+00
 -1       789 8.25000E-02 1.81250E-02 0.00000E+00
 -1       790 8.43750E-02 1.25000E-02 0.00000E+00
 -1       791 8.54167E-02 1.25000E-02 0.00000E+00
 -1       792 8.64583E-02 1.25000E-02 0.00000E+00
 -1       793 8.75000E-02 1.25000E-02 0.00000E+00
 -1       794 8.85417E-02 1.25000E-02 0.00000E+00
 -1       795 8.95833E-02 1.25000E-02 0.00000E+00
 -1       796 9.06250E-02 1.25000E-02 0.00000E+00
 -1       797 8.33333E-02 1.35417E-02 0.00000E+00
 -1       798 8.33333E-02 1.45833E-02 0.00000E+00
 -1       799 8.33333E-02 1.56250E-02 0.00000E+00
 -1       800 8.33333E-02 1.66667E-02 0.00000E+00
 -1       801 8.33333E-02 1.77083E-02 0.00000E+00
 -1       802 8.41667E-02 1.31250E-02 0.00000E+00
 -1       803 8.50000E-02 1.37500E-02 0.00000E+00
 -1       804 8.58333E-02 1.43750E-02 0.00000E+00
 -1       805 8.66667E-02 1.50000E-02 0.00000E+00
 -1       806 8.75000E-02 1.56250E-02 0.00000E+00
 -1       807 8.83333E-02 1.62500E-02 0.00000E+00
 -1       808 8.91667E-02 1.68750E-02 0.00000E+00
 -1       809 9.00000E-02 1.75000E-02 0.00000E+00
 -1       810 9.08333E-02 1.81250E-02 0.00000E+00
 -1       811 9.27083E-02 1.25000E-02 0.00000E+00
 -1       812 9.37500E-02 1.25000E-02 0.00000E+00
 -1       813 9.47917E-02 1.25000E-02 0.00000E+00
 -1       814 9.58333E-02 1.25000E-02 0.00000E+00
 -1       815 9.68750E-02 1.25000E-02 0.00000E+00
 -1       816 9.79167E-02 1.25000E-02 0.00000E+00
 -1       817 9.89583E-02 1.25000E-02 0.00000E+00
 -1       818 9.16667E-02 1.35417E-02 0.00000E+00
 -1       819 9.16667E-02 1.45833E-02 0.00000E+00
 -1       820 9.16667E-02 1.56250E-02 0.00000E+00
 -1       821 9.16667E-02 1.66667E-02 0.00000E+00
 -1       822 9.16667E-02 1.77083E-02 0.00000E+00
 -1       823 9.25000E-02 1.31250E-02 0.00000E+00
 -1       824 9.33333E-02 1.37500E-02 0.00000E+00
 -1       825 9.41667E-02 1.43750E-02 0.00000E+00
 -1       826 9.50000E-02 1.50000E-02 0.00000E+00
 -1       827 9.58333E-02 1.56250E-02 0.00000E+00
 -1       828 9.66667E-02 1.62500E-02 0.00000E+00
 -1       829 9.75000E-02 1.68750E-02 0.00000E+00
 -1       830 9.83333E-02 1.75000E-02 0.00000E+00
 -1       831 9.91667E-02 1.81250E-02 0.00000E+00
 -1       832 1.00000E-01 1.35417E-02 0.00000E+00
 -1       833 1.00000E-01 1.45833E-02 0.00000E+00
 -1       834 1.00000E-01 1.56250E-02 0.00000E+00
 -1       835 1.00000E-01 1.66667E-02 0.00000E+00
 -1       836 1.00000E-01 1.77083E-02 0.00000E+00
 -1       837 1.04167E-03 1.87500E-02 0.00000E+00
 -1       838 2.08333E-03 1.87500E-02 0.00000E+00
 -1       839 3.12500E-03 1.87500E-02 0.00000E+00
 -1       840 4.16667E-03 1.87500E-02 0.00000E+00
 -1       841 5.20833E-03 1.87500E-02 0.00000E+00
 -1       842 6.25000E-03 1.87500E-02 0.00000E+00
 -1       843 7.29167E-03 1.87500E-02 0.00000E+00
 -1       844 0.00000E+00 1.97917E-02 0.00000E+00
 -1       845 0.00000E+00 2.08333E-02 0.00000E+00
 -1       846 0.00000E+00 2.18750E-02 0.00000E+00
 -1       847 0.00000E+00 2.29167E-02 0.00000E+00
 -1       848 0.00000E+00 2.39583E-02 0.00000E+00
 -1       849 8.33330E-04 1.93750E-02 0.00000E+00
 -1       850 1.66667E-03 2.00000E-02 0.00000E+00
 -1       851 2.50000E-03 2.06250E-02 0.00000E+00
 -1       852 3.33333E-03 2.12500E-02 0.00000E+00
 -1       853 4.16667E-03 2.18750E-02 0.00000E+00
 -1       854 5.00000E-03 2.25000E-02 0.00000E+00
 -1       855 5.83333E-03 2.31250E-02 0.00000E+00
 -1       856 6.66667E-03 2.37500E-02 0.00000E+00
 -1       857 7.50000E-03 2.43750E-02 0.00000E+00
 -1       858 9.37500E-03 1.87500E-02 0.00000E+00
 -1       859 1.04167E-02 1.87500E-02 0.00000E+00
 -1       860 1.14583E-02 1.87500E-02 0.00000E+00
 -1       861 1.25000E-02 1.87500E-02 0.00000E+00
 -1       862 1.35417E-02 1.87500E-02 0.00000E+00
 -1       863 1.45833E-02 1.87500E-02 0.00000E+00
 -1       864 1.56250E-02 1.87500E-02 0.00000E+00
 -1       865 8.33333E-03 1.97917E-02 0.00000E+00
 -1       866 8.33333E-03 2.08333E-02 0.00000E+00
 -1       867 8.33333E-03 2.18750E-02 0.00000E+00
 -1       868 8.33333E-03 2.29167E-02 0.00000E+00
 -1       869 8.33333E-03 2.39583E-02 0.00000E+00
 -1       870 9.16667E-03 1.93750E-02 0.00000E+00
 -1       871 1.00000E-02 2.00000E-02 0.00000E+00
 -1       872 1.08333E-02 2.06250E-02 0.00000E+00
 -1       873 1.16667E-02 2.12500E-02 0.00000E+00
 -1       874 1.25000E-02 2.18750E-02 0.00000E+00
 -1       875 1.33333E-02 2.25000E-02 0.00000E+00
 -1       876 1.41667E-02 2.31250E-02 0.00000E+00
 -1       877 1.50000E-02 2.37500E-02 0.00000E+00
 -1       878 1.58333E-02 2.43750E-02 0.00000E+00
 -1       879 1.77083E-02 1.87500E-02 0.00000E+00
 -1       880 1.87500E-02 1.87500E-02 0.00000E+00
 -1       881 1.97917E-02 1.87500E-02 0.00000E+00
 -1       882 2.08333E-02 1.87500E-02 0.00000E+00
 -1       883 2.18750E-02 1.87500E-02 0.00000E+00
 -1       884 2.29167E-02 1.87500E-02 0.00000E+00
 -1       885 2.39583E-02 1.87500E-02 0.00000E+00
 -1       886 1.66667E-02 1.97917E-02 0.00000E+00
 -1       887 1.66667E-02 2.08333E-02 0.00000E+00
 -1       888 1.66667E-02 2.18750E-02 0.00000E+00
 -1       889 1.66667E-02 2.29167E-02 0.00000E+00
 -1       890 1.66667E-02 2.39583E-02 0.00000E+00
 -1       891 1.75000E-02 1.93750E-02 0.00000E+00
 -1       892 1.83333E-02 2.00000E-02 0.00000E+00
 -1       893 1.91667E-02 2.06250E-02 0.00000E+00
 -1       894 2.00000E-02 2.12500E-02 0.00000E+00
 -1       895 2.08333E-02 2.18750E-02 0.00000E+00
 -1       896 2.16667E-02 2.25000E-02 0.00000E+00
 -1       897 2.25000E-02 2.31250E-02 0.00000E+00
 -1       898 2.33333E-02 2.37500E-02 0.00000E+00
 -1       899 2.41667E-02 2.43750E-02 0.00000E+00
 -1       900 2.60417E-02 1.87500E-02 0.00000E+00
 -1       901 2.70833E-02 1.87500E-02 0.00000E+00
 -1       902 2.81250E-02 1.87500E-02 0.00000E+00
 -1       903 2.91667E-02 1.87500E-02 0.00000E+00
 -1       904 3.02083E-02 1.87500E-02 0.00000E+00
 -1       905 3.12500E-02 1.87500E-02 0.00000E+00
 -1       906 3.22917E-02 1.87500E-02 0.00000E+00
 -1       907 2.50000E-02 1.97917E-02 0.00000E+00
 -1       908 2.50000E-02 2.08333E-02 0.00000E+00
 -1       909 2.50000E-02 2.18750E-02 0.00000E+00
 -1       910 2.50000E-02 2.29167E-02 0.00000E+00
 -1       911 2.50000E-02 2.39583E-02 0.00000E+00
 -1       912 2.58333E-02 1.93750E-02 0.00000E+00
 -1       913 2.66667E-02 2.00000E-02 0.00000E+00
 -1       914 2.75000E-02 2.06250E-02 0.00000E+00
 -1       915 2.83333E-02 2.12500E-02 0.00000E+00
 -1       916 2.91667E-02 2.18750E-02 0.00000E+00
 -1       917 3.00000E-02 2.25000E-02 0.00000E+00
 -1       918 3.08333E-02 2.31250E-02 0.00000E+00
 -1       919 3.16667E-02 2.37500E-02 0.00000E+00
 -1       920 3.25000E-02 2.43750E-02 0.00000E+00
 -1       921 3.43750E-02 1.87500E-02 0.00000E+00
 -1       922 3.54167E-02 1.87500E-02 0.00000E+00
 -1       923 3.64583E-02 1.87500E-02 0.00000E+00
 -1       924 3.75000E-02 1.87500E-02 0.00000E+00
 -1       925 3.85417E-02 1.87500E-02 0.00000E+00
 -1       926 3.95833E-02 1.87500E-02 0.00000E+00
 -1       927 4.06250E-02 1.87500E-02 0.00000E+00
 -1       928 3.33333E-02 1.97917E-02 0.00000E+00
 -1       929 3.33333E-02 2.08333E-02 0.00000E+00
 -1       930 3.33333E-02 2.18750E-02 0.00000E+00
 -1       931 3.33333E-02 2.29167E-02 0.00000E+00
 -1       932 3.33333E-02 2.39583E-02 0.00000E+00
 -1       933 3.41667E-02 1.93750E-02 0.00000E+00
 -1       934 3.50000E-02 2.00000E-02 0.00000E+00
 -1       935 3.58333E-02 2.06250E-02 0.00000E+00
 -1       936 3.66667E-02 2.12500E-02 0.00000E+00
 -1       937 3.75000E-02 2.18750E-02 0.00000E+00
 -1       938 3.83333E-02 2.25000E-02 0.00000E+00
 -1       939 3.91667E-02 2.31250E-02 0.00000E+00
 -1       940 4.00000E-02 2.37500E-02 0.00000E+00
 -1       941 4.08333E-02 2.43750E-02 0.00000E+00
 -1       942 4.27083E-02 1.87500E-02 0.00000E+00
 -1       943 4.37500E-02 1.87500E-02 0.00000E+00
 -1       944 4.47917E-02 1.87500E-02 0.00000E+00
 -1       945 4.58333E-02 1.87500E-02 0.00000E+00
 -1       946 4.68750E-02 1.87500E-02 0.00000E+00
 -1       947 4.79167E-02 1.87500E-02 0.00000E+00
 -1       948 4.89583E-02 1.87500E-02 0.00000E+00
 -1       949 4.16667E-02 1.97917E-02 0.00000E+00
 -1       950 4.16667E-02 2.08333E-02 0.00000E+00
 -1       951 4.16667E-02 2.18750E-02 0.00000E+00
 -1       952 4.16667E-02 2.29167E-02 0.00000E+00
 -1       953 4.16667E-02 2.39583E-02 0.00000E+00
 -1       954 4.25000E-02 1.93750E-02 0.00000E+00
 -1       955 4.33333E-02 2.00000E-02 0.00000E+00
 -1       956 4.41667E-02 2.06250E-02 0.00000E+00
 -1       957 4.50000E-02 2.12500E-02 0.00000E+00
 -1       958 4.58333E-02 2.18750E-02 0.00000E+00
 -1       959 4.66667E-02 2.25000E-02 0.00000E+00
 -1       960 4.75000E-02 2.31250E-02 0.00000E+00
 -1       961 4.83333E-02 2.37500E-02 0.00000E+00
 -1       962 4.91667E-02 2.43750E-02 0.00000E+00
 -1       963 5.10417E-02 1.87500E-02 0.00000E+00
 -1       964 5.20833E-02 1.87500E-02 0.00000E+00
 -1       965 5.31250E-02 1.87500E-02 0.00000E+00
 -1       966 5.41667E-02 1.87500E-02 0.00000E+00
 -1       967 5.52083E-02 1.87500E-02 0.00000E+00
 -1       968 5.62500E-02 1.87500E-02 0.00000E+00
 -1       969 5.72917E-02 1.87500E-02 0.00000E+00
 -1       970 5.00000E-02 1.97917E-02 0.00000E+00
 -1       971 5.00000E-02 2.08333E-02 0.00000E+00
 -1       972 5.00000E-02 2.18750E-02 0.00000E+00
 -1       973 5.00000E-02 2.29167E-02 0.00000E+00
 -1       974 5.00000E-02 2.39583E-02 0.00000E+00
 -1       975 5.08333E-02 1.93750E-02 0.00000E+00
 -1       976 5.16667E-02 2.00000E-02 0.00000E+00
 -1       977 5.25000E-02 2.06250E-02 0.00000E+00
 -1       978 5.33333E-02 2.12500E-02 0.00000E+00
 -1       979 5.41667E-02 2.18750E-02 0.00000E+00
 -1       980 5.50000E-02 2.25000E-02 0.00000E+00
 -1       981 5.58333E-02 2.31250E-02 0.00000E+00
 -1       982 5.66667E-02 2.37500E-02 0.00000E+00
 -1       983 5.75000E-02 2.43750E-02 0.00000E+00
 -1       984 5.93750E-02 1.87500E-02 0.00000E+00
 -1       985 6.04167E-02 1.87500E-02 0.00000E+00
 -1       986 6.14583E-02 1.87500E-02 0.00000E+00
 -1       987 6.25000E-02 1.87500E-02 0.00000E+00
 -1       988 6.35417E-02 1.87500E-02 0.00000E+00
 -1       989 6.45833E-02 1.87500E-02 0.00000E+00
 -1       990 6.56250E-02 1.87500E-02 0.00000E+00
 -1       996 5.91667E-02 1.93750E-02 0.00000E+00
 -1       997 6.00000E-02 2.00000E-02 0.00000E+00
 -1       998 6.08333E-02 2.06250E-02 0.00000E+00
 -1       999 6.16667E-02 2.12500E-02 0.00000E+00
 -1      1000 6.25000E-02 2.18750E-02 0.00000E+00
 -1      1001 6.33333E-02 2.25000E-02 0.00000E+00
 -1      1002 6.41667E-02 2.31250E-02 0.00000E+00
 -1      1003 6.50000E-02 2.37500E-02 0.00000E+00
 -1      1004 6.58333E-02 2.43750E-02 0.00000E+00
 -1      1005 6.77083E-02 1.87500E-02 0.00000E+00
 -1      1006 6.87500E-02 1.87500E-02 0.00000E+00
 -1      1007 6.97917E-02 1.87500E-02 0.00000E+00
 -1      1008 7.08333E-02 1.87500E-02 0.00000E+00
 -1      1009 7.18750E-02 1.87500E-02 0.00000E+00
 -1      1010 7.29167E-02 1.87500E-02 0.00000E+00
 -1      1011 7.39583E-02 1.87500E-02 0.00000E+00
 -1      1012 6.66667E-02 1.97917E-02 0.00000E+00
 -1      1013 6.66667E-02 2.08333E-02 0.00000E+00
 -1      1014 6.66667E-02 2.18750E-02 0.00000E+00
 -1      1015 6.66667E-02 2.29167E-02 0.00000E+00
 -1      1016 6.66667E-02 2.39583E-02 0.00000E+00
 -1      1017 6.75000E-02 1.93750E-02 0.00000E+00
 -1      1018 6.83333E-02 2.00000E-02 0.00000E+00
 -1      1019 6.91667E-02 2.06250E-02 0.00000E+00
 -1      1020 7.00000E-02 2.12500E-02 0.00000E+00
 -1      1021 7.08333E-02 2.18750E-02 0.00000E+00
 -1      1022 7.16667E-02 2.25000E-02 0.00000E+00
 -1      1023 7.25000E-02 2.31250E-02 0.00000E+00
 -1      1024 7.33333E-02 2.37500E-02 0.00000E+00
 -1      1025 7.41667E-02 2.43750E-02 0.00000E+00
 -1      1026 7.60417E-02 1.87500E-02 0.00000E+00
 -1      1027 7.70833E-02 1.87500E-02 0.00000E+00
 -1      1028 7.81250E-02 1.87500E-02 0.00000E+00
 -1      1029 7.91667E-02 1.87500E-02 0.00000E+00
 -1      1030 8.02083E-02 1.87500E-02 0.00000E+00
 -1      1031 8.12500E-02 1.87500E-02 0.00000E+00
 -1      1032 8.22917E-02 1.87500E-02 0.00000E+00
 -1      1033 7.50000E-02 1.97917E-02 0.00000E+00
 -1      1034 7.50000E-02 2.08333E-02 0.00000E+00
 -1      1035 7.50000E-02 2.18750E-02 0.00000E+00
 -1      1036 7.50000E-02 2.29167E-02 0.00000E+00
 -1      1037 7.50000E-02 2.39583E-02 0.00000E+00
 -1      1038 7.58333E-02 1.93750E-02 0.00000E+00
 -1      1039 7.66667E-02 2.00000E-02 0.00000E+00
 -1      1040 7.75000E-02 2.06250E-02 0.00000E+00
 -1      1041 7.83333E-02 2.12500E-02 0.00000E+00
 -1      1042 7.91667E-02 2.18750E-02 0.00000E+00
 -1      1043 8.00000E-02 2.25000E-02 0.00000E+00
 -1      1044 8.08333E-02 2.31250E-02 0.00000E+00
 -1      1045 8.16667E-02 2.37500E-02 0.00000E+00
 -1      1046 8.25000E-02 2.43750E-02 0.00000E+00
 -1      1047 8.43750E-02 1.87500E-02 0.00000E+00
 -1      1048 8.54167E-02 1.87500E-02 0.00000E+00
 -1      1049 8.64583E-02 1.87500E-02 0.00000E+00
 -1      1050 8.75000E-02 1.87500E-02 0.00000E+00
 -1      1051 8.85417E-02 1.87500E-02 0.00000E+00
 -1      1052 8.95833E-02 1.87500E-02 0.00000E+00
 -1      1053 9.06250E-02 1.87500E-02 0.00000E+00
 -1      1054 8.33333E-02 1.97917E-02 0.00000E+00
 -1      1055 8.33333E-02 2.08333E-02 0.00000E+00
 -1      1056 8.33333E-02 2.18750E-02 0.00000E+00
 -1      1057 8.33333E-02 2.29167E-02 0.00000E+00
 -1      1058 8.33333E-02 2.39583E-02 0.00000E+00
 -1      1059 8.41667E-02 1.93750E-02 0.00000E+00
 -1      1060 8.50000E-02 2.00000E-02 0.00000E+00
 -1      1061 8.58333E-02 2.06250E-02 0.00000E+00
 -1      1062 8.66667E-02 2.12500E-02 0.00000E+00
 -1      1063 8.75000E-02 2.18750E-02 0.00000E+00
 -1      1064 8.83333E-02 2.25000E-02 0.00000E+00
 -1      1065 8.91667E-02 2.31250E-02 0.00000E+00
 -1      1066 9.00000E-02 2.37500E-02 0.00000E+00
 -1      1067 9.08333E-02 2.43750E-02 0.00000E+00
 -1      1068 9.27083E-02 1.87500E-02 0.00000E+00
 -1      1069 9.37500E-02 1.87500E-02 0.00000E+00
 -1      1070 9.47917E-02 1.87500E-02 0.00000E+00
 -1      1071 9.58333E-02 1.87500E-02 0.00000E+00
 -1      1072 9.68750E-02 1.87500E-02 0.00000E+00
 -1      1073 9.79167E-02 1.87500E-02 0.00000E+00
 -1      1074 9.89583E-02 1.87500E-02 0.00000E+00
 -1      1075 9.16667E-02 1.97917E-02 0.00000E+00
 -1      1076 9.16667E-02 2.08333E-02 0.00000E+00
 -1      1077 9.16667E-02 2.18750E-02 0.00000E+00
 -1      1078 9.16667E-02 2.29167E-02 0.00000E+00
 -1      1079 9.16667E-02 2.39583E-02 0.00000E+00
 -1      1080 9.25000E-02 1.93750E-02 0.00000E+00
 -1      1081 9.33333E-02 2.00000E-02 0.00000E+00
 -1      1082 9.41667E-02 2.06250E-02 0.00000E+00
 -1      1083 9.50000E-02 2.12500E-02 0.00000E+00
 -1      1084 9.58333E-02 2.18750E-02 0.00000E+00
 -1      1085 9.66667E-02 2.25000E-02 0.00000E+00
 -1      1086 9.75000E-02 2.31250E-02 0.00000E+00
 -1      1087 9.83333E-02 2.37500E-02 0.00000E+00
 -1      1088 9.91667E-02 2.43750E-02 0.00000E+00
 -1      1089 1.00000E-01 1.97917E-02 0.00000E+00
 -1      1090 1.00000E-01 2.08333E-02 0.00000E+00
 -1      1091 1.00000E-01 2.18750E-02 0.00000E+00
 -1      1092 1.00000E-01 2.29167E-02 0.00000E+00
 -1      1093 1.00000E-01 2.39583E-02 0.00000E+00
 -1      1094 1.04167E-03 2.50000E-02 0.00000E+00
 -1      1095 2.08333E-03 2.50000E-02 0.00000E+00
 -1      1096 3.12500E-03 2.50000E-02 0.00000E+00
 -1      1097 4.16667E-03 2.50000E-02 0.00000E+00
 -1      1098 5.20833E-03 2.50000E-02 0.00000E+00
 -1      1099 6.25000E-03 2.50000E-02 0.00000E+00
 -1      1100 7.29167E-03 2.50000E-02 0.00000E+00
 -1      1101 9.37500E-03 2.50000E-02 0.00000E+00
 -1      1102 1.04167E-02 2.50000E-02 0.00000E+00
 -1      1103 1.14583E-02 2.50000E-02 0.00000E+00
 -1      1104 1.25000E-02 2.50000E-02 0.00000E+00
 -1      1105 1.35417E-02 2.50000E-02 0.00000E+00
 -1      1106 1.45833E-02 2.50000E-02 0.00000E+00
 -1      1107 1.56250E-02 2.50000E-02 0.00000E+00
 -1      1108 1.77083E-02 2.50000E-02 0.00000E+00
 -1      1109 1.87500E-02 2.50000E-02 0.00000E+00
 -1      1110 1.97917E-02 2.50000E-02 0.00000E+00
 -1      1111 2.08333E-02 2.50000E-02 0.00000E+00
 -1      1112 2.18750E-02 2.50000E-02 0.00000E+00
 -1      1113 2.29167E-02 2.50000E-02 0.00000E+00
 -1      1114 2.39583E-02 2.50000E-02 0.00000E+00
 -1      1115 2.60417E-02 2.50000E-02 0.00000E+00
 -1      1116 2.70833E-02 2.50000E-02 0.00000E+00
 -1      1117 2.81250E-02 2.50000E-02 0.00000E+00
 -1      1118 2.91667E-02 2.50000E-02 0.00000E+00
 -1      1119 3.02083E-02 2.50000E-02 0.00000E+00
 -1      1120 3.12500E-02 2.50000E-02 0.00000E+00
 -1      1121 3.22917E-02 2.50000E-02 0.00000E+00
 -1      1122 3.43750E-02 2.50000E-02 0.00000E+00
 -1      1123 3.54167E-02 2.50000E-02 0.00000E+00
 -1      1124 3.64583E-02 2.50000E-02 0.00000E+00
 -1      1125 3.75000E-02 2.50000E-02 0.00000E+00
 -1      1126 3.85417E-02 2.50000E-02 0.00000E+00
 -1      1127 3.95833E-02 2.50000E-02 0.00000E+00
 -1      1128 4.06250E-02 2.50000E-02 0.00000E+00
 -1      1129 4.27083E-02 2.50000E-02 0.00000E+00
 -1      1130 4.37500E-02 2.50000E-02 0.00000E+00
 -1      1131 4.47917E-02 2.50000E-02 0.00000E+00
 -1      1132 4.58333E-02 2.50000E-02 0.00000E+00
 -1      1133 4.68750E-02 2.50000E-02 0.00000E+00
 -1      1134 4.79167E-02 2.50000E-02 0.00000E+00
 -1      1135 4.89583E-02 2.50000E-02 0.00000E+00
 -1      1136 5.10417E-02 2.50000E-02 0.00000E+00
 -1      1137 5.20833E-02 2.50000E-02 0.00000E+00
 -1      1138 5.31250E-02 2.50000E-02 0.00000E+00
 -1      1139 5.41667E-02 2.50000E-02 0.00000E+00
 -1      1140 5.52083E-02 2.50000E-02 0.00000E+00
 -1      1141 5.62500E-02 2.50000E-02 0.00000E+00
 -1      1142 5.72917E-02 2.50000E-02 0.00000E+00
 -1      1143 5.93750E-02 2.50000E-02 0.00000E+00
 -1      1144 6.04167E-02 2.50000E-02 0.00000E+00
 -1      1145 6.14583E-02 2.50000E-02 0.00000E+00
 -1      1146 6.25000E-02 2.50000E-02 0.00000E+00
 -1      1147 6.35417E-02 2.50000E-02 0.00000E+00
 -1      1148 6.45833E-02 2.50000E-02 0.00000E+00
 -1      1149 6.56250E-02 2.50000E-02 0.00000E+00
 -1      1150 6.77083E-02 2.50000E-02 0.00000E+00
 -1      1151 6.87500E-02 2.50000E-02 0.00000E+00
 -1      1152 6.97917E-02 2.50000E-02 0.00000E+00
 -1      1153 7.08333E-02 2.50000E-02 0.00000E+00
 -1      1154 7.18750E-02 2.50000E-02 0.00000E+00
 -1      1155 7.29167E-02 2.50000E-02 0.00000E+00
 -1      1156 7.39583E-02 2.50000E-02 0.00000E+00
 -1      1157 7.60417E-02 2.50000E-02 0.00000E+00
 -1      1158 7.70833E-02 2.50000E-02 0.00000E+00
 -1      1159 7.81250E-02 2.50000E-02 0.00000E+00
 -1      1160 7.91667E-02 2.50000E-02 0.00000E+00
 -1      1161 8.02083E-02 2.50000E-02 0.00000E+00
 -1      1162 8.12500E-02 2.50000E-02 0.00000E+00
 -1      1163 8.22917E-02 2.50000E-02 0.00000E+00
 -1      1164 8.43750E-02 2.50000E-02 0.00000E+00
 -1      1165 8.54167E-02 2.50000E-02 0.00000E+00
 -1      1166 8.64583E-02 2.50000E-02 0.00000E+00
 -1      1167 8.75000E-02 2.50000E-02 0.00000E+00
 -1      1168 8.85417E-02 2.50000E-02 0.00000E+00
 -1      1169 8.95833E-02 2.50000E-02 0.00000E+00
 -1      1170 9.06250E-02 2.50000E-02 0.00000E+00
 -1      1171 9.27083E-02 2.50000E-02 0.00000E+00
 -1      1172 9.37500E-02 2.50000E-02 0.00000E+00
 -1      1173 9.47917E-02 2.50000E-02 0.00000E+00
 -1      1174 9.58333E-02 2.50000E-02 0.00000E+00
 -1      1175 9.68750E-02 2.50000E-02 0.00000E+00
 -1      1176 9.79167E-02 2.50000E-02 0.00000E+00
 -1      1177 9.89583E-02 2.50000E-02 0.00000E+00
 -3
    3C                           537                                     1
 -1         1   12    0    1
 -2         1        67        66
 -1         2   12    0    1
 -2        67        69        68
 -1         3   12    0    1
 -2        69        71        70
 -1         4   12    0    1
 -2        71         2        72
 -1         5   12    0    1
 -2         1        74        73
 -1         6   12    0    1
 -2        74        76        75
 -1         7   12    0    1
 -2        76        14        77
 -1         8   12    0    1
 -2         1        79        78
 -1         9   12    0    1
 -2        79        81        80
 -1        10   12    0    1
 -2        81        83        82
 -1        11   12    0    1
 -2        83        85        84
 -1        12   12    0    1
 -2        85        15        86
 -1        13   12    0    1
 -2         2        88        87
 -1        14   12    0    1
 -2        88        90        89
 -1        15   12    0    1
 -2        90        92        91
 -1        16   12    0    1
 -2        92         3        93
 -1        17   12    0    1
 -2         2        95        94
 -1        18   12    0    1
 -2        95        97        96
 -1        19   12    0    1
 -2        97        15        98
 -1        20   12    0    1
 -2         2       100        99
 -1        21   12    0    1
 -2       100       102       101
 -1        22   12    0    1
 -2       102       104       103
 -1        23   12    0    1
 -2       104       106       105
 -1        24   12    0    1
 -2       106        16       107
 -1        25   12    0    1
 -2         3       109       108
 -1        26   12    0    1
 -2       109       111       110
 -1        27   12    0    1
 -2       111       113       112
 -1        28   12    0    1
 -2       113         4       114
 -1        29   12    0    1
 -2         3       116       115
 -1        30   12    0    1
 -2       116       118       117
 -1        31   12    0    1
 -2       118        16       119
 -1        32   12    0    1
 -2         3       121       120
 -1        33   12    0    1
 -2       121       123       122
 -1        34   12    0    1
 -2       123       125       124
 -1        35   12    0    1
 -2       125       127       126
 -1        36   12    0    1
 -2       127        17       128
 -1        37   12    0    1
 -2         4       130       129
 -1        38   12    0    1
 -2       130       132       131
 -1        39   12    0    1
 -2       132       134       133
 -1        40   12    0    1
 -2       134         5       135
 -1        41   12    0    1
 -2         4       137       136
 -1        42   12    0    1
 -2       137       139       138
 -1        43   12    0    1
 -2       139        17       140
 -1        44   12    0    1
 -2         4       142       141
 -1        45   12    0    1
 -2       142       144       143
 -1        46   12    0    1
 -2       144       146       145
 -1        47   12    0    1
 -2       146       148       147
 -1        48   12    0    1
 -2       148        18       149
 -1        49   12    0    1
 -2         5       151       150
 -1        50   12    0    1
 -2       151       153       152
 -1        51   12    0    1
 -2       153       155       154
 -1        52   12    0    1
 -2       155         6       156
 -1        53   12    0    1
 -2         5       158       157
 -1        54   12    0    1
 -2       158       160       159
 -1        55   12    0    1
 -2       160        18       161
 -1        56   12    0    1
 -2         5       163       162
 -1        57   12    0    1
 -2       163       165       164
 -1        58   12    0    1
 -2       165       167       166
 -1        59   12    0    1
 -2       167       169       168
 -1        60   12    0    1
 -2       169        19       170
 -1        61   12    0    1
 -2         6       172       171
 -1        62   12    0    1
 -2       172       174       173
 -1        63   12    0    1
 -2       174       176       175
 -1        64   12    0    1
 -2       176         7       177
 -1        65   12    0    1
 -2         6       179       178
 -1        66   12    0    1
 -2       179       181       180
 -1        67   12    0    1
 -2       181        19       182
 -1        68   12    0    1
 -2         6       184       183
 -1        69   12    0    1
 -2       184       186       185
 -1        70   12    0    1
 -2       186       188       187
 -1        71   12    0    1
 -2       188       190       189
 -1        72   12    0    1
 -2       190        20       191
 -1        73   12    0    1
 -2         7       193       192
 -1        74   12    0    1
 -2       193       195       194
 -1        75   12    0    1
 -2       195       197       196
 -1        76   12    0    1
 -2       197         8       198
 -1        77   12    0    1
 -2         7       200       199
 -1        78   12    0    1
 -2       200       202       201
 -1        79   12    0    1
 -2       202        20       203
 -1        80   12    0    1
 -2         7       205       204
 -1        81   12    0    1
 -2       205       207       206
 -1        82   12    0    1
 -2       207       209       208
 -1        83   12    0    1
 -2       209       211       210
 -1        84   12    0    1
 -2       211        21       212
 -1        85   12    0    1
 -2         8       214       213
 -1        86   12    0    1
 -2       214       216       215
 -1        87   12    0    1
 -2       216       218       217
 -1        88   12    0    1
 -2       218         9       219
 -1        89   12    0    1
 -2         8       221       220
 -1        90   12    0    1
 -2       221       223       222
 -1        91   12    0    1
 -2       223        21       224
 -1        92   12    0    1
 -2         8       226       225
 -1        93   12    0    1
 -2       226       228       227
 -1        94   12    0    1
 -2       228       230       229
 -1        95   12    0    1
 -2       230       232       231
 -1        96   12    0    1
 -2       232        22       233
 -1        97   12    0    1
 -2         9       242       241
 -1        98   12    0    1
 -2       242       244       243
 -1        99   12    0    1
 -2       244        22       245
 -1       100   12    0    1
 -2        14       324       323
 -1       101   12    0    1
 -2       324       326       325
 -1       102   12    0    1
 -2       326       328       327
 -1       103   12    0    1
 -2       328        15       329
 -1       104   12    0    1
 -2        14       331       330
 -1       105   12    0    1
 -2       331       333       332
 -1       106   12    0    1
 -2       333        27       334
 -1       107   12    0    1
 -2        14       336       335
 -1       108   12    0    1
 -2       336       338       337
 -1       109   12    0    1
 -2       338       340       339
 -1       110   12    0    1
 -2       340       342       341
 -1       111   12    0    1
 -2       342        28       343
 -1       112   12    0    1
 -2        15       345       344
 -1       113   12    0    1
 -2       345       347       346
 -1       114   12    0    1
 -2       347       349       348
 -1       115   12    0    1
 -2       349        16       350
 -1       116   12    0    1
 -2        15       352       351
 -1       117   12    0    1
 -2       352       354       353
 -1       118   12    0    1
 -2       354        28       355
 -1       119   12    0    1
 -2        15       357       356
 -1       120   12    0    1
 -2       357       359       358
 -1       121   12    0    1
 -2       359       361       360
 -1       122   12    0    1
 -2       361       363       362
 -1       123   12    0    1
 -2       363        29       364
 -1       124   12    0    1
 -2        16       366       365
 -1       125   12    0    1
 -2       366       368       367
 -1       126   12    0    1
 -2       368       370       369
 -1       127   12    0    1
 -2       370        17       371
 -1       128   12    0    1
 -2        16       373       372
 -1       129   12    0    1
 -2       373       375       374
 -1       130   12    0    1
 -2       375        29       376
 -1       131   12    0    1
 -2        16       378       377
 -1       132   12    0    1
 -2       378       380       379
 -1       133   12    0    1
 -2       380       382       381
 -1       134   12    0    1
 -2       382       384       383
 -1       135   12    0    1
 -2       384        30       385
 -1       136   12    0    1
 -2        17       387       386
 -1       137   12    0    1
 -2       387       389       388
 -1       138   12    0    1
 -2       389       391       390
 -1       139   12    0    1
 -2       391        18       392
 -1       140   12    0    1
 -2        17       394       393
 -1       141   12    0    1
 -2       394       396       395
 -1       142   12    0    1
 -2       396        30       397
 -1       143   12    0    1
 -2        17       399       398
 -1       144   12    0    1
 -2       399       401       400
 -1       145   12    0    1
 -2       401       403       402
 -1       146   12    0    1
 -2       403       405       404
 -1       147   12    0    1
 -2       405        31       406
 -1       148   12    0    1
 -2        18       408       407
 -1       149   12    0    1
 -2       408       410       409
 -1       150   12    0    1
 -2       410       412       411
 -1       151   12    0    1
 -2       412        19       413
 -1       152   12    0    1
 -2        18       415       414
 -1       153   12    0    1
 -2       415       417       416
 -1       154   12    0    1
 -2       417        31       418
 -1       155   12    0    1
 -2        18       420       419
 -1       156   12    0    1
 -2       420       422       421
 -1       157   12    0    1
 -2       422       424       423
 -1       158   12    0    1
 -2       424       426       425
 -1       159   12    0    1
 -2       426        32       427
 -1       160   12    0    1
 -2        19       429       428
 -1       161   12    0    1
 -2       429       431       430
 -1       162   12    0    1
 -2       431       433       432
 -1       163   12    0    1
 -2       433        20       434
 -1       164   12    0    1
 -2        19       436       435
 -1       165   12    0    1
 -2       436       438       437
 -1       166   12    0    1
 -2       438        32       439
 -1       167   12    0    1
 -2        19       441       440
 -1       168   12    0    1
 -2       441       443       442
 -1       169   12    0    1
 -2       443       445       444
 -1       170   12    0    1
 -2       445       447       446
 -1       171   12    0    1
 -2       447        33       448
 -1       172   12    0    1
 -2        20       450       449
 -1       173   12    0    1
 -2       450       452       451
 -1       174   12    0    1
 -2       452       454       453
 -1       175   12    0    1
 -2       454        21       455
 -1       176   12    0    1
 -2        20       457       456
 -1       177   12    0    1
 -2       457       459       458
 -1       178   12    0    1
 -2       459        33       460
 -1       179   12    0    1
 -2        20       462       461
 -1       180   12    0    1
 -2       462       464       463
 -1       181   12    0    1
 -2       464       466       465
 -1       182   12    0    1
 -2       466       468       467
 -1       183   12    0    1
 -2       468        34       469
 -1       184   12    0    1
 -2        21       471       470
 -1       185   12    0    1
 -2       471       473       472
 -1       186   12    0    1
 -2       473       475       474
 -1       187   12    0    1
 -2       475        22       476
 -1       188   12    0    1
 -2        21       478       477
 -1       189   12    0    1
 -2       478       480       479
 -1       190   12    0    1
 -2       480        34       481
 -1       191   12    0    1
 -2        21       483       482
 -1       192   12    0    1
 -2       483       485       484
 -1       193   12    0    1
 -2       485       487       486
 -1       194   12    0    1
 -2       487       489       488
 -1       195   12    0    1
 -2       489        35       490
 -1       196   12    0    1
 -2        22       499       498
 -1       197   12    0    1
 -2       499       501       500
 -1       198   12    0    1
 -2       501        35       502
 -1       199   12    0    1
 -2        27       581       580
 -1       200   12    0    1
 -2       581       583       582
 -1       201   12    0    1
 -2       583       585       584
 -1       202   12    0    1
 -2       585        28       586
 -1       203   12    0    1
 -2        27       588       587
 -1       204   12    0    1
 -2       588       590       589
 -1       205   12    0    1
 -2       590        40       591
 -1       206   12    0    1
 -2        27       593       592
 -1       207   12    0    1
 -2       593       595       594
 -1       208   12    0    1
 -2       595       597       596
 -1       209   12    0    1
 -2       597       599       598
 -1       210   12    0    1
 -2       599        41       600
 -1       211   12    0    1
 -2        28       602       601
 -1       212   12    0    1
 -2       602       604       603
 -1       213   12    0    1
 -2       604       606       605
 -1       214   12    0    1
 -2       606        29       607
 -1       215   12    0    1
 -2        28       609       608
 -1       216   12    0    1
 -2       609       611       610
 -1       217   12    0    1
 -2       611        41       612
 -1       218   12    0    1
 -2        28       614       613
 -1       219   12    0    1
 -2       614       616       615
 -1       220   12    0    1
 -2       616       618       617
 -1       221   12    0    1
 -2       618       620       619
 -1       222   12    0    1
 -2       620        42       621
 -1       223   12    0    1
 -2        29       623       622
 -1       224   12    0    1
 -2       623       625       624
 -1       225   12    0    1
 -2       625       627       626
 -1       226   12    0    1
 -2       627        30       628
 -1       227   12    0    1
 -2        29       630       629
 -1       228   12    0    1
 -2       630       632       631
 -1       229   12    0    1
 -2       632        42       633
 -1       230   12    0    1
 -2        29       635       634
 -1       231   12    0    1
 -2       635       637       636
 -1       232   12    0    1
 -2       637       639       638
 -1       233   12    0    1
 -2       639       641       640
 -1       234   12    0    1
 -2       641        43       642
 -1       235   12    0    1
 -2        30       644       643
 -1       236   12    0    1
 -2       644       646       645
 -1       237   12    0    1
 -2       646       648       647
 -1       238   12    0    1
 -2       648        31       649
 -1       239   12    0    1
 -2        30       651       650
 -1       240   12    0    1
 -2       651       653       652
 -1       241   12    0    1
 -2       653        43       654
 -1       242   12    0    1
 -2        30       656       655
 -1       243   12    0    1
 -2       656       658       657
 -1       244   12    0    1
 -2       658       660       659
 -1       245   12    0    1
 -2       660       662       661
 -1       246   12    0    1
 -2       662        44       663
 -1       247   12    0    1
 -2        31       665       664
 -1       248   12    0    1
 -2       665       667       666
 -1       249   12    0    1
 -2       667       669       668
 -1       250   12    0    1
 -2       669        32       670
 -1       251   12    0    1
 -2        31       672       671
 -1       252   12    0    1
 -2       672       674       673
 -1       253   12    0    1
 -2       674        44       675
 -1       254   12    0    1
 -2        31       677       676
 -1       255   12    0    1
 -2       677       679       678
 -1       256   12    0    1
 -2       679       681       680
 -1       257   12    0    1
 -2       681       683       682
 -1       258   12    0    1
 -2       683        45       684
 -1       259   12    0    1
 -2        32       686       685
 -1       260   12    0    1
 -2       686       688       687
 -1       261   12    0    1
 -2       688       690       689
 -1       262   12    0    1
 -2       690        33       691
 -1       263   12    0    1
 -2        32       693       692
 -1       264   12    0    1
 -2       693       695       694
 -1       265   12    0    1
 -2       695        45       696
 -1       266   12    0    1
 -2        32       698       697
 -1       267   12    0    1
 -2       698       700       699
 -1       268   12    0    1
 -2       700       702       701
 -1       269   12    0    1
 -2       702       704       703
 -1       270   12    0    1
 -2       704        46       705
 -1       271   12    0    1
 -2        33       707       706
 -1       272   12    0    1
 -2       707       709       708
 -1       273   12    0    1
 -2       709       711       710
 -1       274   12    0    1
 -2       711        34       712
 -1       275   12    0    1
 -2        33       714       713
 -1       276   12    0    1
 -2       714       716       715
 -1       277   12    0    1
 -2       716        46       717
 -1       278   12    0    1
 -2        33       719       718
 -1       279   12    0    1
 -2       719       721       720
 -1       280   12    0    1
 -2       721       723       722
 -1       281   12    0    1
 -2       723       725       724
 -1       282   12    0    1
 -2       725        47       726
 -1       283   12    0    1
 -2        34       728       727
 -1       284   12    0    1
 -2       728       730       729
 -1       285   12    0    1
 -2       730       732       731
 -1       286   12    0    1
 -2       732        35       733
 -1       287   12    0    1
 -2        34       735       734
 -1       288   12    0    1
 -2       735       737       736
 -1       289   12    0    1
 -2       737        47       738
 -1       290   12    0    1
 -2        34       740       739
 -1       291   12    0    1
 -2       740       742       741
 -1       292   12    0    1
 -2       742       744       743
 -1       293   12    0    1
 -2       744       746       745
 -1       294   12    0    1
 -2       746        48       747
 -1       295   12    0    1
 -2        35       749       748
 -1       296   12    0    1
 -2       749       751       750
 -1       297   12    0    1
 -2       751       753       752
 -1       298   12    0    1
 -2       753        36       754
 -1       299   12    0    1
 -2        35       756       755
 -1       300   12    0    1
 -2       756       758       757
 -1       301   12    0    1
 -2       758        48       759
 -1       302   12    0    1
 -2        35       761       760
 -1       303   12    0    1
 -2       761       763       762
 -1       304   12    0    1
 -2       763       765       764
 -1       305   12    0    1
 -2       765       767       766
 -1       306   12    0    1
 -2       767        49       768
 -1       307   12    0    1
 -2        36       770       769
 -1       308   12    0    1
 -2       770       772       771
 -1       309   12    0    1
 -2       772       774       773
 -1       310   12    0    1
 -2       774        37       775
 -1       311   12    0    1
 -2        36       777       776
 -1       312   12    0    1
 -2       777       779       778
 -1       313   12    0    1
 -2       779        49       780
 -1       314   12    0    1
 -2        36       782       781
 -1       315   12    0    1
 -2       782       784       783
 -1       316   12    0    1
 -2       784       786       785
 -1       317   12    0    1
 -2       786       788       787
 -1       318   12    0    1
 -2       788        50       789
 -1       319   12    0    1
 -2        37       791       790
 -1       320   12    0    1
 -2       791       793       792
 -1       321   12    0    1
 -2       793       795       794
 -1       322   12    0    1
 -2       795        38       796
 -1       323   12    0    1
 -2        37       798       797
 -1       324   12    0    1
 -2       798       800       799
 -1       325   12    0    1
 -2       800        50       801
 -1       326   12    0    1
 -2        37       803       802
 -1       327   12    0    1
 -2       803       805       804
 -1       328   12    0    1
 -2       805       807       806
 -1       329   12    0    1
 -2       807       809       808
 -1       330   12    0    1
 -2       809        51       810
 -1       331   12    0    1
 -2        38       812       811
 -1       332   12    0    1
 -2       812       814       813
 -1       333   12    0    1
 -2       814       816       815
 -1       334   12    0    1
 -2       816        39       817
 -1       335   12    0    1
 -2        38       819       818
 -1       336   12    0    1
 -2       819       821       820
 -1       337   12    0    1
 -2       821        51       822
 -1       338   12    0    1
 -2        38       824       823
 -1       339   12    0    1
 -2       824       826       825
 -1       340   12    0    1
 -2       826       828       827
 -1       341   12    0    1
 -2       828       830       829
 -1       342   12    0    1
 -2       830        52       831
 -1       343   12    0    1
 -2        39       833       832
 -1       344   12    0    1
 -2       833       835       834
 -1       345   12    0    1
 -2       835        52       836
 -1       346   12    0    1
 -2        40       838       837
 -1       347   12    0    1
 -2       838       840       839
 -1       348   12    0    1
 -2       840       842       841
 -1       349   12    0    1
 -2       842        41       843
 -1       350   12    0    1
 -2        40       845       844
 -1       351   12    0    1
 -2       845       847       846
 -1       352   12    0    1
 -2       847        53       848
 -1       353   12    0    1
 -2        40       850       849
 -1       354   12    0    1
 -2       850       852       851
 -1       355   12    0    1
 -2       852       854       853
 -1       356   12    0    1
 -2       854       856       855
 -1       357   12    0    1
 -2       856        54       857
 -1       358   12    0    1
 -2        41       859       858
 -1       359   12    0    1
 -2       859       861       860
 -1       360   12    0    1
 -2       861       863       862
 -1       361   12    0    1
 -2       863        42       864
 -1       362   12    0    1
 -2        41       866       865
 -1       363   12    0    1
 -2       866       868       867
 -1       364   12    0    1
 -2       868        54       869
 -1       365   12    0    1
 -2        41       871       870
 -1       366   12    0    1
 -2       871       873       872
 -1       367   12    0    1
 -2       873       875       874
 -1       368   12    0    1
 -2       875       877       876
 -1       369   12    0    1
 -2       877        55       878
 -1       370   12    0    1
 -2        42       880       879
 -1       371   12    0    1
 -2       880       882       881
 -1       372   12    0    1
 -2       882       884       883
 -1       373   12    0    1
 -2       884        43       885
 -1       374   12    0    1
 -2        42       887       886
 -1       375   12    0    1
 -2       887       889       888
 -1       376   12    0    1
 -2       889        55       890
 -1       377   12    0    1
 -2        42       892       891
 -1       378   12    0    1
 -2       892       894       893
 -1       379   12    0    1
 -2       894       896       895
 -1       380   12    0    1
 -2       896       898       897
 -1       381   12    0    1
 -2       898        56       899
 -1       382   12    0    1
 -2        43       901       900
 -1       383   12    0    1
 -2       901       903       902
 -1       384   12    0    1
 -2       903       905       904
 -1       385   12    0    1
 -2       905        44       906
 -1       386   12    0    1
 -2        43       908       907
 -1       387   12    0    1
 -2       908       910       909
 -1       388   12    0    1
 -2       910        56       911
 -1       389   12    0    1
 -2        43       913       912
 -1       390   12    0    1
 -2       913       915       914
 -1       391   12    0    1
 -2       915       917       916
 -1       392   12    0    1
 -2       917       919       918
 -1       393   12    0    1
 -2       919        57       920
 -1       394   12    0    1
 -2        44       922       921
 -1       395   12    0    1
 -2       922       924       923
 -1       396   12    0    1
 -2       924       926       925
 -1       397   12    0    1
 -2       926        45       927
 -1       398   12    0    1
 -2        44       929       928
 -1       399   12    0    1
 -2       929       931       930
 -1       400   12    0    1
 -2       931        57       932
 -1       401   12    0    1
 -2        44       934       933
 -1       402   12    0    1
 -2       934       936       935
 -1       403   12    0    1
 -2       936       938       937
 -1       404   12    0    1
 -2       938       940       939
 -1       405   12    0    1
 -2       940        58       941
 -1       406   12    0    1
 -2        45       943       942
 -1       407   12    0    1
 -2       943       945       944
 -1       408   12    0    1
 -2       945       947       946
 -1       409   12    0    1
 -2       947        46       948
 -1       410   12    0    1
 -2        45       950       949
 -1       411   12    0    1
 -2       950       952       951
 -1       412   12    0    1
 -2       952        58       953
 -1       413   12    0    1
 -2        45       955       954
 -1       414   12    0    1
 -2       955       957       956
 -1       415   12    0    1
 -2       957       959       958
 -1       416   12    0    1
 -2       959       961       960
 -1       417   12    0    1
 -2       961        59       962
 -1       418   12    0    1
 -2        46       964       963
 -1       419   12    0    1
 -2       964       966       965
 -1       420   12    0    1
 -2       966       968       967
 -1       421   12    0    1
 -2       968        47       969
 -1       422   12    0    1
 -2        46       971       970
 -1       423   12    0    1
 -2       971       973       972
 -1       424   12    0    1
 -2       973        59       974
 -1       425   12    0    1
 -2        46       976       975
 -1       426   12    0    1
 -2       976       978       977
 -1       427   12    0    1
 -2       978       980       979
 -1       428   12    0    1
 -2       980       982       981
 -1       429   12    0    1
 -2       982        60       983
 -1       430   12    0    1
 -2        47       985       984
 -1       431   12    0    1
 -2       985       987       986
 -1       432   12    0    1
 -2       987       989       988
 -1       433   12    0    1
 -2       989        48       990
 -1       434   12    0    1
 -2        47       997       996
 -1       435   12    0    1
 -2       997       999       998
 -1       436   12    0    1
 -2       999      1001      1000
 -1       437   12    0    1
 -2      1001      1003      1002
 -1       438   12    0    1
 -2      1003        61      1004
 -1       439   12    0    1
 -2        48      1006      1005
 -1       440   12    0    1
 -2      1006      1008      1007
 -1       441   12    0    1
 -2      1008      1010      1009
 -1       442   12    0    1
 -2      1010        49      1011
 -1       443   12    0    1
 -2        48      1013      1012
 -1       444   12    0    1
 -2      1013      1015      1014
 -1       445   12    0    1
 -2      1015        61      1016
 -1       446   12    0    1
 -2        48      1018      1017
 -1       447   12    0    1
 -2      1018      1020      1019
 -1       448   12    0    1
 -2      1020      1022      1021
 -1       449   12    0    1
 -2      1022      1024      1023
 -1       450   12    0    1
 -2      1024        62      1025
 -1       451   12    0    1
 -2        49      1027      1026
 -1       452   12    0    1
 -2      1027      1029      1028
 -1       453   12    0    1
 -2      1029      1031      1030
 -1       454   12    0    1
 -2      1031        50      1032
 -1       455   12    0    1
 -2        49      1034      1033
 -1       456   12    0    1
 -2      1034      1036      1035
 -1       457   12    0    1
 -2      1036        62      1037
 -1       458   12    0    1
 -2        49      1039      1038
 -1       459   12    0    1
 -2      1039      1041      1040
 -1       460   12    0    1
 -2      1041      1043      1042
 -1       461   12    0    1
 -2      1043      1045      1044
 -1       462   12    0    1
 -2      1045        63      1046
 -1       463   12    0    1
 -2        50      1048      1047
 -1       464   12    0    1
 -2      1048      1050      1049
 -1       465   12    0    1
 -2      1050      1052      1051
 -1       466   12    0    1
 -2      1052        51      1053
 -1       467   12    0    1
 -2        50      1055      1054
 -1       468   12    0    1
 -2      1055      1057      1056
 -1       469   12    0    1
 -2      1057        63      1058
 -1       470   12    0    1
 -2        50      1060      1059
 -1       471   12    0    1
 -2      1060      1062      1061
 -1       472   12    0    1
 -2      1062      1064      1063
 -1       473   12    0    1
 -2      1064      1066      1065
 -1       474   12    0    1
 -2      1066        64      1067
 -1       475   12    0    1
 -2        51      1069      1068
 -1       476   12    0    1
 -2      1069      1071      1070
 -1       477   12    0    1
 -2      1071      1073      1072
 -1       478   12    0    1
 -2      1073        52      1074
 -1       479   12    0    1
 -2        51      1076      1075
 -1       480   12    0    1
 -2      1076      1078      1077
 -1       481   12    0    1
 -2      1078        64      1079
 -1       482   12    0    1
 -2        51      1081      1080
 -1       483   12    0    1
 -2      1081      1083      1082
 -1       484   12    0    1
 -2      1083      1085      1084
 -1       485   12    0    1
 -2      1085      1087      1086
 -1       486   12    0    1
 -2      1087        65      1088
 -1       487   12    0    1
 -2        52      1090      1089
 -1       488   12    0    1
 -2      1090      1092      1091
 -1       489   12    0    1
 -2      1092        65      1093
 -1       490   12    0    1
 -2        53      1095      1094
 -1       491   12    0    1
 -2      1095      1097      1096
 -1       492   12    0    1
 -2      1097      1099      1098
 -1       493   12    0    1
 -2      1099        54      1100
 -1       494   12    0    1
 -2        54      1102      1101
 -1       495   12    0    1
 -2      1102      1104      1103
 -1       496   12    0    1
 -2      1104      1106      1105
 -1       497   12    0    1
 -2      1106        55      1107
 -1       498   12    0    1
 -2        55      1109      1108
 -1       499   12    0    1
 -2      1109      1111      1110
 -1       500   12    0    1
 -2      1111      1113      1112
 -1       501   12    0    1
 -2      1113        56      1114
 -1       502   12    0    1
 -2        56      1116      1115
 -1       503   12    0    1
 -2      1116      1118      1117
 -1       504   12    0    1
 -2      1118      1120      1119
 -1       505   12    0    1
 -2      1120        57      1121
 -1       506   12    0    1
 -2        57      1123      1122
 -1       507   12    0    1
 -2      1123      1125      1124
 -1       508   12    0    1
 -2      1125      1127      1126
 -1       509   12    0    1
 -2      1127        58      1128
 -1       510   12    0    1
 -2        58      1130      1129
 -1       511   12    0    1
 -2      1130      1132      1131
 -1       512   12    0    1
 -2      1132      1134      1133
 -1       513   12    0    1
 -2      1134        59      1135
 -1       514   12    0    1
 -2        59      1137      1136
 -1       515   12    0    1
 -2      1137      1139      1138
 -1       516   12    0    1
 -2      1139      1141      1140
 -1       517   12    0    1
 -2      1141        60      1142
 -1       518   12    0    1
 -2        60      1144      1143
 -1       519   12    0    1
 -2      1144      1146      1145
 -1       520   12    0    1
 -2      1146      1148      1147
 -1       521   12    0    1
 -2      1148        61      1149
 -1       522   12    0    1
 -2        61      1151      1150
 -1       523   12    0    1
 -2      1151      1153      1152
 -1       524   12    0    1
 -2      1153      1155      1154
 -1       525   12    0    1
 -2      1155        62      1156
 -1       526   12    0    1
 -2        62      1158      1157
 -1       527   12    0    1
 -2      1158      1160      1159
 -1       528   12    0    1
 -2      1160      1162      1161
 -1       529   12    0    1
 -2      1162        63      1163
 -1       530   12    0    1
 -2        63      1165      1164
 -1       531   12    0    1
 -2      1165      1167      1166
 -1       532   12    0    1
 -2      1167      1169      1168
 -1       533   12    0    1
 -2      1169        64      1170
 -1       534   12    0    1
 -2        64      1172      1171
 -1       535   12    0    1
 -2      1172      1174      1173
 -1       536   12    0    1
 -2      1174      1176      1175
 -1       537   12    0    1
 -2      1176        65      1177
 -3
    1PSTEP                         1           1           1          
  100CL  101 1.000000000         996                     0    1           1
 -4  DISP        4    1
 -5  D1          1    2    1    0
 -5  D2          1    2    2    0
 -5  D3          1    2    3    0
 -5  ALL         1    2    0    0    1ALL
 -1         1-2.67552E-05 0.00000E+00 0.00000E+00
 -1         2-2.32023E-05 0.00000E+00 0.00000E+00
 -1         3-1.01191E-05 0.00000E+00 0.00000E+00
 -1         4-9.30198E-06 0.00000E+00 0.00000E+00
 -1         5-7.87667E-06 0.00000E+00 0.00000E+00
 -1         6-6.17196E-06 0.00000E+00 0.00000E+00
 -1         7-5.05340E-06 0.00000E+00 0.00000E+00
 -1         8-4.25720E-06 0.00000E+00 0.00000E+00
 -1         9-4.28589E-06 0.00000E+00 0.00000E+00
 -1        14-1.81722E-05 1.36653E-06 0.00000E+00
 -1        15-1.84180E-05-1.31448E-06 0.00000E+00
 -1        16-1.25763E-05-2.33804E-06 0.00000E+00
 -1        17-1.03582E-05-3.63276E-07 0.00000E+00
 -1        18-1.03569E-05 1.95360E-07 0.00000E+00
 -1        19-6.47469E-06-4.68218E-07 0.00000E+00
 -1        20-4.79391E-06-3.33037E-07 0.00000E+00
 -1        21-4.20828E-06 4.35975E-07 0.00000E+00
 -1        22-4.07619E-06 3.86183E-07 0.00000E+00
 -1        27-1.26951E-05 1.45159E-06 0.00000E+00
 -1        28-1.32441E-05-1.98477E-06 0.00000E+00
 -1        29-1.23822E-05-3.13118E-06 0.00000E+00
 -1        30-1.09177E-05-1.60956E-06 0.00000E+00
 -1        31-8.03496E-06-1.29382E-06 0.00000E+00
 -1        32-6.55528E-06-9.96835E-07 0.00000E+00
 -1        33-5.47926E-06-5.25207E-07 0.00000E+00
 -1        34-3.87315E-06-2.45648E-08 0.00000E+00
 -1        35-2.95265E-06 9.99828E-07 0.00000E+00
 -1        36 6.92502E-06 2.20459E-05 0.00000E+00
 -1        37 8.61801E-06 3.93931E-05 0.00000E+00
 -1        38 9.71997E-06 6.54708E-05 0.00000E+00
 -1        39 9.67983E-06 9.17234E-05 0.00000E+00
 -1        40-5.03384E-06 3.19122E-07 0.00000E+00
 -1        41-8.75355E-06-2.15284E-06 0.00000E+00
 -1        42-8.75375E-06-3.55514E-06 0.00000E+00
 -1        43-8.34471E-06-4.31910E-06 0.00000E+00
 -1        44-7.58126E-06-2.36363E-06 0.00000E+00
 -1        45-6.37220E-06-1.27652E-06 0.00000E+00
 -1        46-5.63706E-06-3.75718E-07 0.00000E+00
 -1        47-5.04023E-06-2.81895E-07 0.00000E+00
 -1        48-4.74406E-06 2.70102E-06 0.00000E+00
 -1        49-4.98184E-06 1.37827E-05 0.00000E+00
 -1        50-5.54392E-06 3.89244E-05 0.00000E+00
 -1        51-5.90069E-06 6.50069E-05 0.00000E+00
 -1        52-5.90470E-06 8.94962E-05 0.00000E+00
 -1        53 0.00000E+00 0.00000E+00 0.00000E+00
 -1        54-1.52015E-06-4.00481E-06 0.00000E+00
 -1        55-6.52960E-06-3.61200E-06 0.00000E+00
 -1        56-6.94032E-06-4.52273E-06 0.00000E+00
 -1        57-7.27788E-06-3.53447E-06 0.00000E+00
 -1        58-4.96769E-06-2.18062E-06 0.00000E+00
 -1        59 0.00000E+00 0.00000E+00 0.00000E+00
 -1        60-4.08043E-06-1.76063E-06 0.00000E+00
 -1        61-7.34046E-06 2.79938E-06 0.00000E+00
 -1        62-1.07594E-05 1.26205E-05 0.00000E+00
 -1        63-2.16423E-05 3.79695E-05 0.00000E+00
 -1        64-2.24766E-05 6.46338E-05 0.00000E+00
 -1        65-2.30777E-05 8.93784E-05 0.00000E+00
 -1        66-2.63104E-05-2.18376E-22 0.00000E+00
 -1        67-2.58652E-05 4.36751E-22-6.61744E-24
 -1        68-2.54199E-05 6.02187E-22 1.32349E-23
 -1        69-2.49746E-05 5.49248E-22 0.00000E+00
 -1        70-2.45295E-05 9.46295E-22 1.32349E-23
 -1        71-2.40850E-05 9.59530E-22-6.61744E-24
 -1        72-2.36416E-05 5.82335E-22-1.32349E-23
 -1        73-2.60231E-05 2.38875E-07-6.61744E-24
 -1        74-2.47389E-05 4.68300E-07 1.65436E-24
 -1        75-2.31056E-05 6.95830E-07 6.61744E-24
 -1        76-2.13296E-05 9.21674E-07 0.00000E+00
 -1        77-1.96170E-05 1.14648E-06 0.00000E+00
 -1        78-2.61975E-05 2.29596E-07 0.00000E+00
 -1        79-2.55351E-05 3.31027E-07 0.00000E+00
 -1        80-2.47864E-05 3.19670E-07 0.00000E+00
 -1        81-2.39668E-05 2.14734E-07-6.61744E-24
 -1        82-2.30914E-05 3.54119E-08 0.00000E+00
 -1        83-2.21750E-05-1.98915E-07 0.00000E+00
 -1        84-2.12327E-05-4.68917E-07-1.32349E-23
 -1        85-2.02801E-05-7.55912E-07 6.61744E-24
 -1        86-1.93332E-05-1.04125E-06-1.32349E-23
 -1        87-2.16028E-05 4.53742E-20 0.00000E+00
 -1        88-1.99511E-05 7.38507E-20-2.64698E-23
 -1        89-1.83032E-05 2.83665E-20-5.29396E-23
 -1        90-1.66478E-05 2.90754E-21 2.64698E-23
 -1        91-1.49925E-05-1.13572E-21 5.29396E-23
 -1        92-1.33483E-05-6.92404E-20 0.00000E+00
 -1        93-1.16995E-05-7.06404E-20 0.00000E+00
 -1        94-2.28491E-05-1.98918E-07 0.00000E+00
 -1        95-2.21924E-05-4.23077E-07-6.61744E-24
 -1        96-2.13255E-05-6.50498E-07 0.00000E+00
 -1        97-2.03440E-05-8.78818E-07-1.65436E-24
 -1        98-1.93432E-05-1.10541E-06-6.20385E-25
 -1        99-2.24428E-05 1.48641E-07 1.32349E-23
 -1       100-2.14709E-05 4.08740E-08-6.61744E-24
 -1       101-2.03475E-05-2.65252E-07 1.32349E-23
 -1       102-1.91240E-05-7.02421E-07 1.32349E-23
 -1       103-1.78520E-05-1.20379E-06 0.00000E+00
 -1       104-1.65825E-05-1.70206E-06 0.00000E+00
 -1       105-1.53667E-05-2.12997E-06-2.64698E-23
 -1       106-1.42567E-05-2.42105E-06-1.32349E-23
 -1       107-1.33041E-05-2.50814E-06 0.00000E+00
 -1       108-1.00245E-05 1.98523E-23 8.27181E-25
 -1       109-9.92326E-06-1.09188E-22-8.27181E-25
 -1       110-9.82032E-06-4.51641E-22-3.30872E-24
 -1       111-9.71657E-06-3.67268E-22 0.00000E+00
 -1       112-9.61258E-06-2.28302E-22 0.00000E+00
 -1       113-9.50857E-06-1.80325E-22 1.65436E-24
 -1       114-9.40476E-06-4.96308E-24 3.30872E-24
 -1       115-1.03686E-05-3.81659E-07 0.00000E+00
 -1       116-1.07965E-05-7.78210E-07 0.00000E+00
 -1       117-1.13175E-05-1.17592E-06 6.61744E-24
 -1       118-1.18452E-05-1.57274E-06 0.00000E+00
 -1       119-1.22932E-05-1.96702E-06 6.61744E-24
 -1       120-1.01405E-05-4.11410E-08 1.65436E-24
 -1       121-1.01554E-05-9.03513E-08 8.27181E-25
 -1       122-1.01665E-05-1.44400E-07 0.00000E+00
 -1       123-1.01765E-05-1.99811E-07 8.27181E-25
 -1       124-1.01880E-05-2.53099E-07-1.65436E-24
 -1       125-1.02037E-05-3.00748E-07-4.13590E-25
 -1       126-1.02263E-05-3.39233E-07-8.27181E-25
 -1       127-1.02580E-05-3.64978E-07 4.13590E-25
 -1       128-1.03016E-05-3.74385E-07 0.00000E+00
 -1       129-9.12792E-06 1.62127E-22-3.30872E-24
 -1       130-8.94947E-06 9.92617E-23 1.65436E-24
 -1       131-8.77043E-06-8.27181E-23-6.61744E-24
 -1       132-8.59097E-06 4.35097E-22 0.00000E+00
 -1       133-8.41145E-06 3.98701E-22 0.00000E+00
 -1       134-8.23211E-06-2.97785E-22 0.00000E+00
 -1       135-8.05310E-06 1.52201E-22-3.30872E-24
 -1       136-9.39338E-06-5.52419E-08 0.00000E+00
 -1       137-9.56295E-06-1.16711E-07 2.06795E-25
 -1       138-9.77763E-06-1.78751E-07-8.27181E-25
 -1       139-1.00040E-05-2.41182E-07 8.27181E-25
 -1       140-1.02086E-05-3.03547E-07 1.65436E-24
 -1       141-9.36452E-06-2.80314E-08-1.03398E-25
 -1       142-9.44911E-06-3.71320E-08 4.13590E-25
 -1       143-9.54730E-06-2.75026E-08-1.65436E-24
 -1       144-9.65711E-06-4.25104E-09-8.27181E-25
 -1       145-9.77446E-06 2.89716E-08 0.00000E+00
 -1       146-9.89615E-06 6.78020E-08-8.27181E-25
 -1       147-1.00188E-05 1.07950E-07 0.00000E+00
 -1       148-1.01389E-05 1.45367E-07 8.27181E-25
 -1       149-1.02535E-05 1.75303E-07-8.27181E-25
 -1       150-7.66577E-06 9.36368E-22 0.00000E+00
 -1       151-7.45087E-06 2.49726E-21-3.30872E-24
 -1       152-7.23603E-06 2.65525E-21 0.00000E+00
 -1       153-7.02085E-06 2.37484E-21-3.30872E-24
 -1       154-6.80577E-06 1.63947E-21-6.61744E-24
 -1       155-6.59176E-06 9.67801E-22-3.30872E-24
 -1       156-6.37773E-06 3.55688E-22 3.30872E-24
 -1       157-8.08448E-06 3.65956E-08 0.00000E+00
 -1       158-8.51555E-06 6.92711E-08-8.27181E-25
 -1       159-9.06439E-06 1.01723E-07 1.65436E-24
 -1       160-9.62487E-06 1.33504E-07 4.13590E-25
 -1       161-1.00909E-05 1.65146E-07-5.16988E-26
 -1       162-7.77726E-06 1.17418E-08 0.00000E+00
 -1       163-7.65405E-06-1.09145E-08-8.27181E-25
 -1       164-7.51172E-06-5.96044E-08 0.00000E+00
 -1       165-7.35606E-06-1.26395E-07-8.27181E-25
 -1       166-7.19288E-06-2.03357E-07 0.00000E+00
 -1       167-7.02811E-06-2.82614E-07 0.00000E+00
 -1       168-6.86766E-06-3.56302E-07 3.30872E-24
 -1       169-6.71763E-06-4.16688E-07-1.65436E-24
 -1       170-6.58410E-06-4.56069E-07-1.65436E-24
 -1       171-6.03664E-06-3.30872E-23 0.00000E+00
 -1       172-5.89609E-06 3.30045E-22-1.65436E-24
 -1       173-5.75528E-06 2.85377E-22-3.30872E-24
 -1       174-5.61393E-06 7.25437E-22 0.00000E+00
 -1       175-5.47253E-06 6.71671E-22 0.00000E+00
 -1       176-5.33147E-06 5.10370E-22 0.00000E+00
 -1       177-5.19056E-06-6.53473E-23 3.30872E-24
 -1       178-6.21880E-06-7.47867E-08 0.00000E+00
 -1       179-6.27928E-06-1.53876E-07-8.27181E-25
 -1       180-6.34432E-06-2.33925E-07-1.65436E-24
 -1       181-6.40468E-06-3.13999E-07 8.27181E-25
 -1       182-6.45114E-06-3.93167E-07 0.00000E+00
 -1       183-6.07660E-06 1.90314E-08 0.00000E+00
 -1       184-5.94041E-06-1.14570E-08 8.27181E-25
 -1       185-5.77685E-06-7.85288E-08-3.30872E-24
 -1       186-5.59661E-06-1.67133E-07-1.65436E-24
 -1       187-5.41104E-06-2.62766E-07 0.00000E+00
 -1       188-5.23123E-06-3.50718E-07 0.00000E+00
 -1       189-5.06825E-06-4.16273E-07 0.00000E+00
 -1       190-4.93345E-06-4.44893E-07 8.27181E-25
 -1       191-4.83758E-06-4.21524E-07 0.00000E+00
 -1       192-4.95523E-06-5.41803E-22 0.00000E+00
 -1       193-4.85517E-06-8.16427E-22 0.00000E+00
 -1       194-4.75519E-06-5.10370E-22 0.00000E+00
 -1       195-4.65497E-06 1.55096E-22 0.00000E+00
 -1       196-4.55476E-06 7.35364E-22 0.00000E+00
 -1       197-4.45487E-06 8.18495E-22 1.65436E-24
 -1       198-4.35489E-06 7.53148E-22 0.00000E+00
 -1       199-5.00608E-06-5.18009E-08 0.00000E+00
 -1       200-4.93153E-06-1.08473E-07 0.00000E+00
 -1       201-4.85134E-06-1.65527E-07 0.00000E+00
 -1       202-4.78723E-06-2.22714E-07 0.00000E+00
 -1       203-4.76094E-06-2.79691E-07 1.55096E-25
 -1       204-4.97411E-06 4.76452E-08-1.65436E-24
 -1       205-4.88701E-06 8.77452E-08 1.65436E-24
 -1       206-4.79548E-06 1.22110E-07-3.30872E-24
 -1       207-4.70153E-06 1.53591E-07 0.00000E+00
 -1       208-4.60738E-06 1.84900E-07 0.00000E+00
 -1       209-4.51516E-06 2.18819E-07 0.00000E+00
 -1       210-4.42699E-06 2.58131E-07 3.30872E-24
 -1       211-4.34500E-06 3.05606E-07-1.65436E-24
 -1       212-4.27128E-06 3.64060E-07 0.00000E+00
 -1       213-4.25921E-06 2.24631E-22 0.00000E+00
 -1       214-4.26332E-06 3.24617E-22 0.00000E+00
 -1       215-4.26744E-06 1.05750E-22 1.03398E-25
 -1       216-4.27178E-06 3.07866E-23 2.58494E-26
 -1       217-4.27611E-06-6.52697E-23 0.00000E+00
 -1       218-4.28017E-06-4.13849E-22 0.00000E+00
 -1       219-4.28422E-06-5.85437E-22 0.00000E+00
 -1       220-4.24641E-06 7.13875E-08 1.65436E-24
 -1       221-4.22797E-06 1.44002E-07 8.27181E-25
 -1       222-4.20840E-06 2.16699E-07-1.65436E-24
 -1       223-4.19424E-06 2.89595E-07 0.00000E+00
 -1       224-4.19204E-06 3.62556E-07 0.00000E+00
 -1       225-4.24094E-06 4.13334E-08 0.00000E+00
 -1       226-4.23337E-06 9.37030E-08 0.00000E+00
 -1       227-4.23100E-06 1.52903E-07 1.65436E-24
 -1       228-4.23047E-06 2.14495E-07 0.00000E+00
 -1       229-4.22840E-06 2.74034E-07-8.27181E-25
 -1       230-4.22142E-06 3.27063E-07 0.00000E+00
 -1       231-4.20618E-06 3.69127E-07 0.00000E+00
 -1       232-4.17925E-06 3.95823E-07 8.27181E-25
 -1       233-4.13723E-06 4.02758E-07 1.65436E-24
 -1       241-4.28361E-06 6.37769E-08 0.00000E+00
 -1       242-4.26934E-06 1.28112E-07-8.27181E-25
 -1       243-4.24220E-06 1.92598E-07 1.65436E-24
 -1       244-4.20145E-06 2.57150E-07-8.27181E-25
 -1       245-4.14632E-06 3.21702E-07-1.65436E-24
 -1       323-1.81980E-05 7.56279E-07 3.30872E-24
 -1       324-1.82304E-05 3.38949E-07 0.00000E+00
 -1       325-1.82638E-05 5.82229E-08 0.00000E+00
 -1       326-1.82977E-05-1.43575E-07 1.80946E-25
 -1       327-1.83316E-05-3.24143E-07 0.00000E+00
 -1       328-1.83645E-05-5.41206E-07 0.00000E+00
 -1       329-1.83959E-05-8.52466E-07-1.03398E-24
 -1       330-1.72415E-05 1.38516E-06 1.65436E-24
 -1       331-1.62471E-05 1.39918E-06-4.13590E-25
 -1       332-1.52419E-05 1.41304E-06 8.27181E-25
 -1       333-1.42794E-05 1.42624E-06 0.00000E+00
 -1       334-1.34128E-05 1.43935E-06 0.00000E+00
 -1       335-1.75432E-05 8.45009E-07 0.00000E+00
 -1       336-1.69536E-05 3.81623E-07 6.61744E-24
 -1       337-1.64014E-05-3.05376E-08 0.00000E+00
 -1       338-1.58827E-05-3.97459E-07-3.30872E-24
 -1       339-1.53932E-05-7.25093E-07-6.61744E-24
 -1       340-1.49289E-05-1.01932E-06 0.00000E+00
 -1       341-1.44854E-05-1.28603E-06 6.61744E-24
 -1       342-1.40589E-05-1.53134E-06-3.30872E-24
 -1       343-1.36453E-05-1.76140E-06-3.30872E-24
 -1       344-1.77047E-05-1.88548E-06 1.32349E-23
 -1       345-1.69686E-05-2.24600E-06 0.00000E+00
 -1       346-1.62339E-05-2.44314E-06 2.64698E-23
 -1       347-1.54959E-05-2.52058E-06 0.00000E+00
 -1       348-1.47579E-05-2.51501E-06 0.00000E+00
 -1       349-1.40235E-05-2.46137E-06 0.00000E+00
 -1       350-1.32877E-05-2.39178E-06-1.32349E-23
 -1       351-1.75632E-05-1.41570E-06-4.13590E-25
 -1       352-1.66169E-05-1.52984E-06 8.27181E-25
 -1       353-1.56452E-05-1.64541E-06 1.65436E-24
 -1       354-1.47148E-05-1.76150E-06 4.13590E-25
 -1       355-1.38926E-05-1.87698E-06 0.00000E+00
 -1       356-1.77156E-05-1.64162E-06 0.00000E+00
 -1       357-1.70246E-05-1.93905E-06 0.00000E+00
 -1       358-1.63522E-05-2.20801E-06 1.32349E-23
 -1       359-1.57012E-05-2.44667E-06 6.61744E-24
 -1       360-1.50740E-05-2.65304E-06-1.32349E-23
 -1       361-1.44728E-05-2.82485E-06 0.00000E+00
 -1       362-1.38997E-05-2.95983E-06 0.00000E+00
 -1       363-1.33574E-05-3.05615E-06-6.61744E-24
 -1       364-1.28488E-05-3.11228E-06-6.61744E-24
 -1       365-1.23031E-05-2.17086E-06 6.61744E-24
 -1       366-1.20236E-05-1.94306E-06 3.30872E-24
 -1       367-1.17425E-05-1.67319E-06-6.61744E-24
 -1       368-1.14608E-05-1.38040E-06 0.00000E+00
 -1       369-1.11793E-05-1.08388E-06-6.61744E-24
 -1       370-1.08994E-05-8.02837E-07 3.30872E-24
 -1       371-1.06228E-05-5.56429E-07 0.00000E+00
 -1       372-1.26508E-05-2.46134E-06 0.00000E+00
 -1       373-1.26958E-05-2.59614E-06 0.00000E+00
 -1       374-1.27012E-05-2.73374E-06 0.00000E+00
 -1       375-1.26572E-05-2.87146E-06 0.00000E+00
 -1       376-1.25539E-05-3.00665E-06 0.00000E+00
 -1       377-1.24528E-05-2.21236E-06 3.30872E-24
 -1       378-1.23173E-05-2.09974E-06 0.00000E+00
 -1       379-1.21713E-05-2.00025E-06 3.30872E-24
 -1       380-1.20156E-05-1.91324E-06 1.65436E-24
 -1       381-1.18510E-05-1.83798E-06 0.00000E+00
 -1       382-1.16782E-05-1.77367E-06 0.00000E+00
 -1       383-1.14978E-05-1.71949E-06 0.00000E+00
 -1       384-1.13104E-05-1.67461E-06 0.00000E+00
 -1       385-1.11168E-05-1.63823E-06 0.00000E+00
 -1       386-1.03581E-05-2.93446E-07 1.29247E-26
 -1       387-1.03579E-05-2.23617E-07-1.93870E-26
 -1       388-1.03577E-05-1.53788E-07-1.93870E-26
 -1       389-1.03576E-05-8.39579E-08 1.29247E-26
 -1       390-1.03574E-05-1.41288E-08-6.46235E-27
 -1       391-1.03573E-05 5.57010E-08 0.00000E+00
 -1       392-1.03571E-05 1.25531E-07 6.46235E-27
 -1       393-1.04653E-05-5.67289E-07 0.00000E+00
 -1       394-1.06112E-05-7.79826E-07 0.00000E+00
 -1       395-1.07628E-05-9.91828E-07 3.30872E-24
 -1       396-1.08865E-05-1.20273E-06-1.65436E-24
 -1       397-1.09492E-05-1.41410E-06-1.65436E-24
 -1       398-1.02564E-05-2.92205E-07 0.00000E+00
 -1       399-1.00961E-05-2.89273E-07 8.27181E-25
 -1       400-9.89114E-06-3.44864E-07-3.30872E-24
 -1       401-9.65118E-06-4.46055E-07 0.00000E+00
 -1       402-9.38633E-06-5.80137E-07 3.30872E-24
 -1       403-9.10644E-06-7.34190E-07 1.65436E-24
 -1       404-8.82131E-06-8.95297E-07 0.00000E+00
 -1       405-8.54087E-06-1.05063E-06-1.65436E-24
 -1       406-8.27490E-06-1.18724E-06-3.30872E-24
 -1       407-9.88698E-06 2.23811E-07 6.61744E-24
 -1       408-9.39698E-06 1.80347E-07 0.00000E+00
 -1       409-8.90811E-06 8.55738E-08 0.00000E+00
 -1       410-8.41635E-06-4.04491E-08 0.00000E+00
 -1       411-7.92457E-06-1.78261E-07-1.32349E-23
 -1       412-7.43556E-06-3.08525E-07-6.61744E-24
 -1       413-6.94544E-06-4.11767E-07 0.00000E+00
 -1       414-1.02432E-05-4.67056E-08 0.00000E+00
 -1       415-9.88516E-06-2.99207E-07 3.30872E-24
 -1       416-9.38368E-06-5.51340E-07 0.00000E+00
 -1       417-8.84043E-06-8.03076E-07-3.30872E-24
 -1       418-8.35709E-06-1.05514E-06 3.30872E-24
 -1       419-1.01379E-05 2.74553E-07 0.00000E+00
 -1       420-9.81842E-06 2.37010E-07 3.30872E-24
 -1       421-9.42733E-06 1.05935E-07 0.00000E+00
 -1       422-8.98666E-06-8.94673E-08 3.30872E-24
 -1       423-8.51896E-06-3.20452E-07 6.61744E-24
 -1       424-8.04633E-06-5.57932E-07-3.30872E-24
 -1       425-7.59088E-06-7.72818E-07 6.61744E-24
 -1       426-7.17501E-06-9.36272E-07 0.00000E+00
 -1       427-6.82071E-06-1.01910E-06-6.61744E-24
 -1       428-6.27096E-06-4.94525E-07 0.00000E+00
 -1       429-6.05904E-06-5.14717E-07 3.30872E-24
 -1       430-5.84738E-06-5.25710E-07 6.61744E-24
 -1       431-5.63465E-06-5.24401E-07 3.30872E-24
 -1       432-5.42192E-06-5.07662E-07-6.61744E-24
 -1       433-5.21016E-06-4.72331E-07 3.30872E-24
 -1       434-4.99816E-06-4.15202E-07 0.00000E+00
 -1       435-6.47300E-06-5.53492E-07 0.00000E+00
 -1       436-6.48402E-06-6.43327E-07 0.00000E+00
 -1       437-6.50280E-06-7.34052E-07 1.65436E-24
 -1       438-6.52429E-06-8.24584E-07-8.27181E-25
 -1       439-6.54345E-06-9.13780E-07-8.27181E-25
 -1       440-6.38100E-06-4.71555E-07-1.65436E-24
 -1       441-6.27642E-06-4.85122E-07 0.00000E+00
 -1       442-6.16543E-06-5.06077E-07-1.65436E-24
 -1       443-6.05137E-06-5.30543E-07-8.27181E-25
 -1       444-5.93750E-06-5.54562E-07-3.30872E-24
 -1       445-5.82695E-06-5.74059E-07-1.65436E-24
 -1       446-5.72281E-06-5.84945E-07 0.00000E+00
 -1       447-5.62816E-06-5.83132E-07 1.65436E-24
 -1       448-5.54603E-06-5.64537E-07 3.30872E-24
 -1       449-4.72317E-06-2.20946E-07-1.65436E-24
 -1       450-4.65045E-06-1.06539E-07 0.00000E+00
 -1       451-4.57720E-06 6.76519E-09 0.00000E+00
 -1       452-4.50368E-06 1.15508E-07 0.00000E+00
 -1       453-4.43006E-06 2.16227E-07 0.00000E+00
 -1       454-4.35635E-06 3.05478E-07 8.27181E-25
 -1       455-4.28252E-06 3.79821E-07 3.30872E-24
 -1       456-4.92446E-06-3.63981E-07-1.03398E-25
 -1       457-5.05828E-06-3.97478E-07 0.00000E+00
 -1       458-5.18804E-06-4.31458E-07 0.00000E+00
 -1       459-5.30633E-06-4.65135E-07 0.00000E+00
 -1       460-5.40579E-06-4.97622E-07 8.27181E-25
 -1       461-4.75573E-06-2.34829E-07 1.65436E-24
 -1       462-4.67542E-06-1.88276E-07-8.27181E-25
 -1       463-4.56591E-06-1.80798E-07-3.30872E-24
 -1       464-4.43747E-06-1.97833E-07 1.65436E-24
 -1       465-4.30107E-06-2.25413E-07 0.00000E+00
 -1       466-4.16732E-06-2.49326E-07 0.00000E+00
 -1       467-4.04693E-06-2.55406E-07 0.00000E+00
 -1       468-3.95061E-06-2.29467E-07 0.00000E+00
 -1       469-3.88900E-06-1.57207E-07 0.00000E+00
 -1       470-4.18922E-06 4.69239E-07 1.65436E-24
 -1       471-4.17309E-06 4.97100E-07 4.13590E-25
 -1       472-4.15714E-06 5.16614E-07 8.27181E-25
 -1       473-4.14149E-06 5.24843E-07-4.13590E-25
 -1       474-4.12586E-06 5.18847E-07 8.27181E-25
 -1       475-4.11006E-06 4.95689E-07 0.00000E+00
 -1       476-4.09415E-06 4.52425E-07 8.27181E-25
 -1       477-4.19034E-06 3.63310E-07-1.03398E-25
 -1       478-4.09037E-06 2.84271E-07 4.13590E-25
 -1       479-3.95851E-06 2.05669E-07-1.65436E-24
 -1       480-3.84498E-06 1.27077E-07 0.00000E+00
 -1       481-3.79987E-06 4.80478E-08 0.00000E+00
 -1       482-4.11033E-06 5.23870E-07 0.00000E+00
 -1       483-3.99993E-06 5.98908E-07 0.00000E+00
 -1       484-3.88028E-06 6.62521E-07 3.30872E-24
 -1       485-3.75353E-06 7.17130E-07 0.00000E+00
 -1       486-3.62174E-06 7.65205E-07-3.30872E-24
 -1       487-3.48686E-06 8.09323E-07 0.00000E+00
 -1       488-3.35084E-06 8.52080E-07 0.00000E+00
 -1       489-3.21547E-06 8.96151E-07-1.65436E-24
 -1       490-3.08253E-06 9.44251E-07 6.61744E-24
 -1       498-3.89922E-06 4.85423E-07 1.65436E-24
 -1       499-3.68866E-06 5.86452E-07-1.65436E-24
 -1       500-3.46649E-06 6.88016E-07 0.00000E+00
 -1       501-3.25499E-06 7.90209E-07-1.65436E-24
 -1       502-3.07644E-06 8.93267E-07 0.00000E+00
 -1       580-1.27621E-05 9.06237E-07 8.27181E-25
 -1       581-1.28320E-05 4.19715E-07-8.27181E-25
 -1       582-1.29021E-05-2.06569E-08 1.65436E-24
 -1       583-1.29724E-05-4.27865E-07-8.27181E-25
 -1       584-1.30426E-05-8.14890E-07 0.00000E+00
 -1       585-1.31122E-05-1.19474E-06 0.00000E+00
 -1       586-1.31810E-05-1.58041E-06 0.00000E+00
 -1       587-1.18146E-05 1.26834E-06 0.00000E+00
 -1       588-1.04970E-05 1.07723E-06-1.65436E-24
 -1       589-8.95073E-06 8.86258E-07 0.00000E+00
 -1       590-7.38525E-06 6.95075E-07 1.65436E-24
 -1       591-6.01006E-06 5.03737E-07 0.00000E+00
 -1       592-1.22419E-05 1.00524E-06-1.65436E-24
 -1       593-1.17759E-05 5.49426E-07 0.00000E+00
 -1       594-1.13088E-05 9.31142E-08-3.30872E-24
 -1       595-1.08494E-05-3.52113E-07 0.00000E+00
 -1       596-1.04067E-05-7.74914E-07 0.00000E+00
 -1       597-9.98940E-06-1.16377E-06 1.65436E-24
 -1       598-9.60629E-06-1.50718E-06 0.00000E+00
 -1       599-9.26633E-06-1.79379E-06-1.65436E-24
 -1       600-8.97820E-06-2.01197E-06 0.00000E+00
 -1       601-1.31387E-05-2.30277E-06 0.00000E+00
 -1       602-1.30313E-05-2.51728E-06 0.00000E+00
 -1       603-1.29235E-05-2.65466E-06 0.00000E+00
 -1       604-1.28155E-05-2.74197E-06 0.00000E+00
 -1       605-1.27073E-05-2.80626E-06 0.00000E+00
 -1       606-1.25991E-05-2.87459E-06-1.65436E-24
 -1       607-1.24908E-05-2.97402E-06 3.30872E-24
 -1       608-1.26508E-05-2.00967E-06 0.00000E+00
 -1       609-1.17836E-05-2.03842E-06 0.00000E+00
 -1       610-1.08015E-05-2.06703E-06 0.00000E+00
 -1       611-9.86322E-06-2.09607E-06-2.06795E-25
 -1       612-9.12774E-06-2.12506E-06-4.13590E-25
 -1       613-1.27678E-05-2.18927E-06 0.00000E+00
 -1       614-1.22754E-05-2.40119E-06 0.00000E+00
 -1       615-1.17801E-05-2.61761E-06 0.00000E+00
 -1       616-1.12867E-05-2.82923E-06 0.00000E+00
 -1       617-1.08024E-05-3.02857E-06 0.00000E+00
 -1       618-1.03335E-05-3.20741E-06 0.00000E+00
 -1       619-9.88654E-06-3.35729E-06 6.61744E-24
 -1       620-9.46919E-06-3.47067E-06 0.00000E+00
 -1       621-9.08626E-06-3.53733E-06 0.00000E+00
 -1       622-1.22022E-05-3.19630E-06 0.00000E+00
 -1       623-1.20192E-05-3.08251E-06 0.00000E+00
 -1       624-1.18358E-05-2.84223E-06-6.61744E-24
 -1       625-1.16521E-05-2.52883E-06-3.30872E-24
 -1       626-1.14684E-05-2.19560E-06 6.61744E-24
 -1       627-1.12846E-05-1.89588E-06 1.65436E-24
 -1       628-1.11008E-05-1.68302E-06 3.30872E-24
 -1       629-1.18686E-05-3.19431E-06 0.00000E+00
 -1       630-1.12194E-05-3.26576E-06 0.00000E+00
 -1       631-1.05084E-05-3.33860E-06 1.65436E-24
 -1       632-9.81072E-06-3.41200E-06 2.84343E-25
 -1       633-9.20124E-06-3.48512E-06 0.00000E+00
 -1       634-1.19822E-05-3.25476E-06-6.61744E-24
 -1       635-1.15500E-05-3.41122E-06 3.30872E-24
 -1       636-1.10996E-05-3.58979E-06 0.00000E+00
 -1       637-1.06418E-05-3.77700E-06 0.00000E+00
 -1       638-1.01874E-05-3.95925E-06 0.00000E+00
 -1       639-9.74719E-06-4.12274E-06-3.30872E-24
 -1       640-9.33161E-06-4.25366E-06-6.61744E-24
 -1       641-8.95153E-06-4.33846E-06 0.00000E+00
 -1       642-8.61792E-06-4.36371E-06 6.61744E-24
 -1       643-1.05627E-05-1.64604E-06-6.61744E-24
 -1       644-1.01995E-05-1.59653E-06 6.61744E-24
 -1       645-9.83664E-06-1.49324E-06 0.00000E+00
 -1       646-9.47285E-06-1.36830E-06 0.00000E+00
 -1       647-9.10915E-06-1.25374E-06 0.00000E+00
 -1       648-8.74713E-06-1.18163E-06 0.00000E+00
 -1       649-8.38482E-06-1.18419E-06 6.61744E-24
 -1       650-1.06841E-05-2.04459E-06-3.30872E-24
 -1       651-1.01901E-05-2.50437E-06 0.00000E+00
 -1       652-9.57182E-06-2.96244E-06 1.32349E-23
 -1       653-8.96776E-06-3.42098E-06 3.30872E-24
 -1       654-8.51424E-06-3.88109E-06 0.00000E+00
 -1       655-1.06233E-05-1.63547E-06-6.61744E-24
 -1       656-1.02877E-05-1.71249E-06 0.00000E+00
 -1       657-9.92365E-06-1.82655E-06-6.61744E-24
 -1       658-9.54309E-06-1.96220E-06 3.30872E-24
 -1       659-9.15790E-06-2.10395E-06 0.00000E+00
 -1       660-8.77991E-06-2.23620E-06 0.00000E+00
 -1       661-8.42095E-06-2.34335E-06 0.00000E+00
 -1       662-8.09306E-06-2.41006E-06 6.61744E-24
 -1       663-7.80837E-06-2.42105E-06 0.00000E+00
 -1       664-7.85388E-06-1.41039E-06 0.00000E+00
 -1       665-7.66767E-06-1.43728E-06-3.30872E-24
 -1       666-7.48140E-06-1.39733E-06 0.00000E+00
 -1       667-7.29459E-06-1.31348E-06-3.30872E-24
 -1       668-7.10780E-06-1.20864E-06 0.00000E+00
 -1       669-6.92165E-06-1.10567E-06 1.65436E-24
 -1       670-6.73558E-06-1.02746E-06 0.00000E+00
 -1       671-7.87359E-06-1.46523E-06 0.00000E+00
 -1       672-7.74743E-06-1.64741E-06 0.00000E+00
 -1       673-7.65588E-06-1.83019E-06 0.00000E+00
 -1       674-7.59819E-06-2.01276E-06 1.65436E-24
 -1       675-7.57360E-06-2.19449E-06 8.27181E-25
 -1       676-7.82028E-06-1.36142E-06 3.30872E-24
 -1       677-7.61029E-06-1.41782E-06-1.65436E-24
 -1       678-7.40845E-06-1.46227E-06 0.00000E+00
 -1       679-7.21659E-06-1.49286E-06-1.65436E-24
 -1       680-7.03645E-06-1.50765E-06 3.30872E-24
 -1       681-6.86969E-06-1.50462E-06-1.65436E-24
 -1       682-6.71794E-06-1.48173E-06 3.30872E-24
 -1       683-6.58297E-06-1.43708E-06 0.00000E+00
 -1       684-6.46658E-06-1.36881E-06 3.30872E-24
 -1       685-6.42438E-06-9.74370E-07 3.30872E-24
 -1       686-6.28986E-06-9.30635E-07 0.00000E+00
 -1       687-6.15443E-06-8.70933E-07 0.00000E+00
 -1       688-6.01859E-06-8.00752E-07 0.00000E+00
 -1       689-5.88269E-06-7.25594E-07-3.30872E-24
 -1       690-5.74702E-06-6.50968E-07 0.00000E+00
 -1       691-5.61195E-06-5.82378E-07 0.00000E+00
 -1       692-6.51375E-06-1.04043E-06 1.93870E-26
 -1       693-6.46745E-06-1.08832E-06 2.06795E-25
 -1       694-6.42325E-06-1.13711E-06 0.00000E+00
 -1       695-6.38807E-06-1.18583E-06 1.03398E-25
 -1       696-6.36882E-06-1.23355E-06 0.00000E+00
 -1       697-6.49314E-06-8.99077E-07 0.00000E+00
 -1       698-6.46584E-06-7.50618E-07-1.65436E-24
 -1       699-6.45929E-06-5.74409E-07 0.00000E+00
 -1       700-6.45710E-06-3.91850E-07-1.65436E-24
 -1       701-6.44333E-06-2.24634E-07-3.30872E-24
 -1       702-6.40183E-06-9.43365E-08-1.65436E-24
 -1       703-6.31647E-06-2.25582E-08 3.30872E-24
 -1       704-6.17121E-06-3.10005E-08 0.00000E+00
 -1       705-5.94968E-06-1.41232E-07 3.30872E-24
 -1       706-5.28316E-06-5.02409E-07 0.00000E+00
 -1       707-5.08170E-06-4.74048E-07-3.30872E-24
 -1       708-4.87927E-06-4.37208E-07-6.61744E-24
 -1       709-4.67634E-06-3.88990E-07 3.30872E-24
 -1       710-4.47341E-06-3.26494E-07 0.00000E+00
 -1       711-4.27095E-06-2.46827E-07 0.00000E+00
 -1       712-4.06944E-06-1.47100E-07 0.00000E+00
 -1       713-5.56010E-06-4.98791E-07 0.00000E+00
 -1       714-5.74178E-06-4.74587E-07 8.27181E-25
 -1       715-5.93269E-06-4.50226E-07 0.00000E+00
 -1       716-6.04118E-06-4.25909E-07 8.27181E-25
 -1       717-5.97384E-06-4.01735E-07 0.00000E+00
 -1       718-5.42642E-06-5.09588E-07 0.00000E+00
 -1       719-5.35641E-06-5.19110E-07 0.00000E+00
 -1       720-5.27571E-06-5.43294E-07 0.00000E+00
 -1       721-5.19176E-06-5.72086E-07 0.00000E+00
 -1       722-5.11197E-06-5.95425E-07 0.00000E+00
 -1       723-5.04387E-06-6.03292E-07 8.27181E-25
 -1       724-4.99497E-06-5.85677E-07 1.65436E-24
 -1       725-4.97288E-06-5.32661E-07 8.27181E-25
 -1       726-4.98517E-06-4.34327E-07 1.65436E-24
 -1       727-3.76052E-06 1.50120E-07-3.30872E-24
 -1       728-3.64656E-06 3.24803E-07 1.65436E-24
 -1       729-3.53220E-06 4.92836E-07 0.00000E+00
 -1       730-3.41760E-06 6.47528E-07 1.65436E-24
 -1       731-3.30279E-06 7.82183E-07 3.30872E-24
 -1       732-3.18757E-06 8.90144E-07 0.00000E+00
 -1       733-3.07153E-06 9.64784E-07 3.30872E-24
 -1       734-4.03106E-06-6.22882E-08 8.27181E-25
 -1       735-4.20627E-06-1.05589E-07 1.55096E-25
 -1       736-4.39688E-06-1.50108E-07 4.13590E-25
 -1       737-4.60079E-06-1.95022E-07-2.06795E-25
 -1       738-4.81596E-06-2.39605E-07-2.06795E-25
 -1       739-3.85268E-06 1.04288E-07 0.00000E+00
 -1       740-3.82046E-06 2.18247E-07 0.00000E+00
 -1       741-3.78999E-06 3.34628E-07-3.30872E-24
 -1       742-3.77455E-06 4.71123E-07 1.65436E-24
 -1       743-3.78746E-06 6.45401E-07-3.30872E-24
 -1       744-3.84202E-06 8.75156E-07 0.00000E+00
 -1       745-3.95155E-06 1.17809E-06-3.30872E-24
 -1       746-4.12943E-06 1.57181E-06 1.65436E-24
 -1       747-4.38897E-06 2.07400E-06-3.30872E-24
 -1       748-1.74781E-06 1.67047E-06 0.00000E+00
 -1       749-5.00947E-07 3.55143E-06 1.32349E-23
 -1       750 7.41486E-07 6.28428E-06 2.64698E-23
 -1       751 1.98885E-06 9.53885E-06 0.00000E+00
 -1       752 3.23552E-06 1.30262E-05 0.00000E+00
 -1       753 4.47630E-06 1.64651E-05 1.32349E-23
 -1       754 5.72063E-06 1.95704E-05 2.64698E-23
 -1       755-2.95051E-06 1.28197E-06 0.00000E+00
 -1       756-3.02551E-06 1.56837E-06 0.00000E+00
 -1       757-3.20990E-06 1.85452E-06 6.61744E-24
 -1       758-3.53605E-06 2.13994E-06 3.30872E-24
 -1       759-4.03656E-06 2.42530E-06-6.61744E-24
 -1       760-2.55397E-06 1.45429E-06 0.00000E+00
 -1       761-2.30083E-06 2.13268E-06 0.00000E+00
 -1       762-2.19746E-06 3.00964E-06 1.32349E-23
 -1       763-2.23162E-06 4.07420E-06 0.00000E+00
 -1       764-2.39675E-06 5.31330E-06 0.00000E+00
 -1       765-2.68551E-06 6.71647E-06 0.00000E+00
 -1       766-3.09121E-06 8.27450E-06 0.00000E+00
 -1       767-3.61083E-06 9.97722E-06 0.00000E+00
 -1       768-4.23539E-06 1.18207E-05 0.00000E+00
 -1       769 7.13905E-06 2.41319E-05 0.00000E+00
 -1       770 7.35255E-06 2.62283E-05 3.30872E-24
 -1       771 7.56590E-06 2.83416E-05 6.61744E-24
 -1       772 7.77899E-06 3.04784E-05 0.00000E+00
 -1       773 7.99175E-06 3.26454E-05 6.61744E-24
 -1       774 8.20365E-06 3.48491E-05 0.00000E+00
 -1       775 8.41446E-06 3.70963E-05 0.00000E+00
 -1       776 4.87446E-06 2.07118E-05 1.32349E-23
 -1       777 2.90517E-06 1.93143E-05-1.32349E-23
 -1       778 9.76684E-07 1.79215E-05-2.64698E-23
 -1       779-9.53813E-07 1.65269E-05 0.00000E+00
 -1       780-2.92719E-06 1.51281E-05 0.00000E+00
 -1       781 5.73251E-06 2.36775E-05 0.00000E+00
 -1       782 4.59263E-06 2.52246E-05 8.27181E-25
 -1       783 3.48631E-06 2.67273E-05 0.00000E+00
 -1       784 2.38607E-06 2.82197E-05-4.13590E-25
 -1       785 1.26652E-06 2.97374E-05 8.27181E-25
 -1       786 1.01311E-07 3.13151E-05-2.06795E-25
 -1       787-1.13572E-06 3.29880E-05 0.00000E+00
 -1       788-2.47118E-06 3.47908E-05 0.00000E+00
 -1       789-3.93101E-06 3.67586E-05 4.13590E-25
 -1       790 8.75497E-06 4.20202E-05 3.30872E-24
 -1       791 8.89480E-06 4.50467E-05-1.65436E-24
 -1       792 9.03382E-06 4.83634E-05 0.00000E+00
 -1       793 9.17263E-06 5.18609E-05 0.00000E+00
 -1       794 9.31112E-06 5.54298E-05 0.00000E+00
 -1       795 9.44902E-06 5.89605E-05-1.65436E-24
 -1       796 9.58726E-06 6.23439E-05-1.65436E-24
 -1       797 6.41981E-06 3.93212E-05 0.00000E+00
 -1       798 4.19929E-06 3.92437E-05 0.00000E+00
 -1       799 1.92438E-06 3.91645E-05 0.00000E+00
 -1       800-4.36799E-07 3.90845E-05 8.27181E-25
 -1       801-2.91606E-06 3.90043E-05 0.00000E+00
 -1       802 7.44417E-06 4.15681E-05 0.00000E+00
 -1       803 6.15730E-06 4.39153E-05 0.00000E+00
 -1       804 4.77153E-06 4.63922E-05 0.00000E+00
 -1       805 3.31373E-06 4.89686E-05-6.61744E-24
 -1       806 1.80275E-06 5.16155E-05 1.32349E-23
 -1       807 2.58542E-07 5.43063E-05 0.00000E+00
 -1       808-1.30042E-06 5.70165E-05 1.32349E-23
 -1       809-2.85818E-06 5.97202E-05 3.30872E-24
 -1       810-4.39319E-06 6.23954E-05 6.61744E-24
 -1       811 9.71603E-06 6.84754E-05 0.00000E+00
 -1       812 9.71188E-06 7.15908E-05 0.00000E+00
 -1       813 9.70745E-06 7.48017E-05 0.00000E+00
 -1       814 9.70276E-06 7.80918E-05 0.00000E+00
 -1       815 9.69782E-06 8.14452E-05 0.00000E+00
 -1       816 9.69257E-06 8.48457E-05 0.00000E+00
 -1       817 9.68695E-06 8.82771E-05-2.06795E-25
 -1       818 7.03472E-06 6.53958E-05 0.00000E+00
 -1       819 4.46388E-06 6.53179E-05 0.00000E+00
 -1       820 1.94654E-06 6.52397E-05 0.00000E+00
 -1       821-5.79017E-07 6.51614E-05 4.13590E-25
 -1       822-3.17449E-06 6.50832E-05-7.23783E-25
 -1       823 8.13407E-06 6.78933E-05-3.30872E-24
 -1       824 6.57384E-06 7.02953E-05 1.65436E-24
 -1       825 5.02641E-06 7.26794E-05 6.61744E-24
 -1       826 3.48750E-06 7.50547E-05 0.00000E+00
 -1       827 1.95071E-06 7.74271E-05 0.00000E+00
 -1       828 4.10829E-07 7.98037E-05 0.00000E+00
 -1       829-1.13760E-06 8.21915E-05 0.00000E+00
 -1       830-2.70135E-06 8.45970E-05-1.65436E-24
 -1       831-4.28559E-06 8.70307E-05 0.00000E+00
 -1       832 6.54815E-06 9.13592E-05-6.61744E-24
 -1       833 3.90731E-06 9.09829E-05 0.00000E+00
 -1       834 1.55145E-06 9.06084E-05 0.00000E+00
 -1       835-7.28382E-07 9.02341E-05 3.30872E-24
 -1       836-3.14374E-06 8.98585E-05 6.61744E-24
 -1       837-5.48585E-06-3.22708E-07-6.61744E-24
 -1       838-5.95550E-06-8.24300E-07 0.00000E+00
 -1       839-6.42392E-06-1.20411E-06 1.32349E-23
 -1       840-6.89493E-06-1.48250E-06 6.61744E-24
 -1       841-7.36591E-06-1.68680E-06 1.32349E-23
 -1       842-7.83397E-06-1.84550E-06-6.61744E-24
 -1       843-8.30328E-06-1.99023E-06-6.61744E-24
 -1       844-4.24358E-06 2.67729E-07-1.65436E-24
 -1       845-3.41574E-06 2.15373E-07 0.00000E+00
 -1       846-2.56372E-06 1.62679E-07-1.65436E-24
 -1       847-1.70127E-06 1.09580E-07 8.27181E-25
 -1       848-8.42173E-07 5.58868E-08 0.00000E+00
 -1       849-4.60986E-06-2.13234E-07 0.00000E+00
 -1       850-4.20516E-06-7.15887E-07 0.00000E+00
 -1       851-3.81948E-06-1.19202E-06 1.65436E-24
 -1       852-3.45129E-06-1.64428E-06 0.00000E+00
 -1       853-3.09898E-06-2.07526E-06 0.00000E+00
 -1       854-2.76078E-06-2.48749E-06 0.00000E+00
 -1       855-2.43497E-06-2.88354E-06 0.00000E+00
 -1       856-2.12007E-06-3.26620E-06 0.00000E+00
 -1       857-1.81481E-06-3.63839E-06 0.00000E+00
 -1       858-8.75358E-06-2.32813E-06 2.17902E-25
 -1       859-8.75360E-06-2.50341E-06-5.01842E-26
 -1       860-8.75363E-06-2.67870E-06 2.94845E-26
 -1       861-8.75365E-06-2.85399E-06-6.40176E-26
 -1       862-8.75367E-06-3.02928E-06-1.21169E-25
 -1       863-8.75370E-06-3.20456E-06-1.69637E-26
 -1       864-8.75372E-06-3.37985E-06 4.64481E-27
 -1       865-8.19691E-06-2.45195E-06 3.30872E-24
 -1       866-6.96539E-06-2.76401E-06 0.00000E+00
 -1       867-5.36844E-06-3.07572E-06 0.00000E+00
 -1       868-3.71918E-06-3.38822E-06 0.00000E+00
 -1       869-2.33237E-06-3.70101E-06 0.00000E+00
 -1       870-8.56773E-06-2.25508E-06 1.65436E-24
 -1       871-8.36273E-06-2.37629E-06 0.00000E+00
 -1       872-8.14479E-06-2.51458E-06-3.30872E-24
 -1       873-7.91678E-06-2.66551E-06-1.65436E-24
 -1       874-7.68219E-06-2.82511E-06 0.00000E+00
 -1       875-7.44428E-06-2.98923E-06 0.00000E+00
 -1       876-7.20627E-06-3.15372E-06 0.00000E+00
 -1       877-6.97183E-06-3.31473E-06-8.27181E-25
 -1       878-6.74364E-06-3.46770E-06 8.27181E-25
 -1       879-8.70545E-06-3.71976E-06-8.27181E-25
 -1       880-8.65492E-06-3.86383E-06-8.27181E-25
 -1       881-8.60422E-06-3.98773E-06 1.65436E-24
 -1       882-8.55321E-06-4.09187E-06-8.27181E-25
 -1       883-8.50203E-06-4.17666E-06-1.65436E-24
 -1       884-8.45052E-06-4.24252E-06 0.00000E+00
 -1       885-8.39884E-06-4.28985E-06 0.00000E+00
 -1       886-8.45574E-06-3.56358E-06 0.00000E+00
 -1       887-8.08941E-06-3.57247E-06 0.00000E+00
 -1       888-7.68395E-06-3.58153E-06 0.00000E+00
 -1       889-7.26907E-06-3.59084E-06-1.03398E-25
 -1       890-6.87452E-06-3.60052E-06 2.06795E-25
 -1       891-8.57786E-06-3.64955E-06 0.00000E+00
 -1       892-8.39397E-06-3.74839E-06 8.27181E-25
 -1       893-8.20675E-06-3.85177E-06 1.65436E-24
 -1       894-8.01734E-06-3.95720E-06 0.00000E+00
 -1       895-7.82774E-06-4.06279E-06 0.00000E+00
 -1       896-7.63965E-06-4.16644E-06 1.65436E-24
 -1       897-7.45471E-06-4.26603E-06 0.00000E+00
 -1       898-7.27506E-06-4.35978E-06 0.00000E+00
 -1       899-7.10169E-06-4.44504E-06 8.27181E-25
 -1       900-8.24882E-06-4.18093E-06 0.00000E+00
 -1       901-8.15344E-06-3.96283E-06 0.00000E+00
 -1       902-8.05820E-06-3.68909E-06 0.00000E+00
 -1       903-7.96302E-06-3.38478E-06 0.00000E+00
 -1       904-7.86784E-06-3.07504E-06 0.00000E+00
 -1       905-7.77260E-06-2.78499E-06 8.27181E-25
 -1       906-7.67720E-06-2.53972E-06-1.65436E-24
 -1       907-8.21231E-06-4.34665E-06 3.61892E-25
 -1       908-8.00151E-06-4.38049E-06 0.00000E+00
 -1       909-7.74035E-06-4.41545E-06 0.00000E+00
 -1       910-7.45741E-06-4.45110E-06-4.13590E-25
 -1       911-7.18131E-06-4.48695E-06-8.27181E-25
 -1       912-8.22788E-06-4.25554E-06 3.30872E-24
 -1       913-8.11236E-06-4.18833E-06 0.00000E+00
 -1       914-7.99892E-06-4.11791E-06 0.00000E+00
 -1       915-7.88774E-06-4.04427E-06 0.00000E+00
 -1       916-7.77897E-06-3.96737E-06 0.00000E+00
 -1       917-7.67271E-06-3.88717E-06-1.65436E-24
 -1       918-7.56909E-06-3.80361E-06 0.00000E+00
 -1       919-7.46833E-06-3.71675E-06 0.00000E+00
 -1       920-7.37073E-06-3.62667E-06 3.30872E-24
 -1       921-7.43127E-06-2.28774E-06 0.00000E+00
 -1       922-7.27934E-06-2.16540E-06-1.65436E-24
 -1       923-7.12717E-06-2.01111E-06-3.30872E-24
 -1       924-6.97487E-06-1.83961E-06 0.00000E+00
 -1       925-6.82264E-06-1.66567E-06 3.30872E-24
 -1       926-6.67081E-06-1.50404E-06 0.00000E+00
 -1       927-6.51952E-06-1.36949E-06 3.30872E-24
 -1       928-7.56599E-06-2.54974E-06 1.65436E-24
 -1       929-7.50902E-06-2.74887E-06 0.00000E+00
 -1       930-7.43098E-06-2.94796E-06-3.30872E-24
 -1       931-7.35264E-06-3.14723E-06 0.00000E+00
 -1       932-7.29473E-06-3.34663E-06 1.65436E-24
 -1       933-7.39403E-06-2.25610E-06 3.30872E-24
 -1       934-7.17635E-06-2.18096E-06 0.00000E+00
 -1       935-6.93522E-06-2.13512E-06 6.61744E-24
 -1       936-6.67530E-06-2.11334E-06 0.00000E+00
 -1       937-6.40112E-06-2.11024E-06 6.61744E-24
 -1       938-6.11700E-06-2.12027E-06-3.30872E-24
 -1       939-5.82724E-06-2.13782E-06 0.00000E+00
 -1       940-5.53614E-06-2.15734E-06 3.30872E-24
 -1       941-5.24802E-06-2.17328E-06-6.61744E-24
 -1       942-6.28159E-06-1.06438E-06-3.30872E-24
 -1       943-6.18968E-06-8.08248E-07 0.00000E+00
 -1       944-6.09745E-06-5.44030E-07 0.00000E+00
 -1       945-6.00507E-06-3.08198E-07 0.00000E+00
 -1       946-5.91267E-06-1.37239E-07 2.06795E-24
 -1       947-5.82035E-06-6.75465E-08 1.65436E-24
 -1       948-5.72827E-06-1.35424E-07-8.27181E-25
 -1       949-6.28096E-06-1.42240E-06-1.65436E-24
 -1       950-6.07976E-06-1.57762E-06-1.65436E-24
 -1       951-5.80790E-06-1.73362E-06 0.00000E+00
 -1       952-5.50535E-06-1.88897E-06 8.27181E-25
 -1       953-5.21208E-06-2.04250E-06 0.00000E+00
 -1       954-5.93078E-06-9.18329E-07-1.32349E-23
 -1       955-5.44386E-06-5.83959E-07-6.61744E-24
 -1       956-4.92556E-06-2.92668E-07 0.00000E+00
 -1       957-4.36813E-06-4.78284E-08 0.00000E+00
 -1       958-3.76947E-06 1.42390E-07 0.00000E+00
 -1       959-3.12480E-06 2.71162E-07 0.00000E+00
 -1       960-2.42895E-06 3.31189E-07 0.00000E+00
 -1       961-1.67893E-06 3.12735E-07 0.00000E+00
 -1       962-8.64946E-07 2.10212E-07-6.61744E-24
 -1       963-5.56201E-06-7.60987E-07 0.00000E+00
 -1       964-5.48685E-06-9.78662E-07 0.00000E+00
 -1       965-5.41169E-06-1.05628E-06 1.65436E-24
 -1       966-5.33661E-06-1.02111E-06-8.27181E-25
 -1       967-5.26156E-06-8.99773E-07 0.00000E+00
 -1       968-5.18699E-06-7.18722E-07 0.00000E+00
 -1       969-5.11229E-06-5.04078E-07 0.00000E+00
 -1       970-4.88610E-06-3.11866E-07 0.00000E+00
 -1       971-4.00151E-06-2.48542E-07 0.00000E+00
 -1       972-3.02633E-06-1.85470E-07-2.06795E-25
 -1       973-2.00486E-06-1.22725E-07 0.00000E+00
 -1       974-9.81465E-07-6.04868E-08-1.65436E-24
 -1       975-5.31658E-06-7.26472E-07 0.00000E+00
 -1       976-5.01969E-06-1.04789E-06-8.27181E-25
 -1       977-4.75058E-06-1.33263E-06 1.65436E-24
 -1       978-4.51418E-06-1.57407E-06 0.00000E+00
 -1       979-4.31543E-06-1.76561E-06-1.65436E-24
 -1       980-4.15939E-06-1.90075E-06 0.00000E+00
 -1       981-4.05121E-06-1.97303E-06 0.00000E+00
 -1       982-3.99672E-06-1.97656E-06-5.16988E-25
 -1       983-4.00137E-06-1.90515E-06 0.00000E+00
 -1       984-5.00477E-06-1.16210E-07 0.00000E+00
 -1       985-4.96815E-06 7.31645E-08 0.00000E+00
 -1       986-4.93126E-06 3.04055E-07 0.00000E+00
 -1       987-4.89421E-06 5.94245E-07 0.00000E+00
 -1       988-4.85711E-06 9.61503E-07 3.30872E-24
 -1       989-4.81989E-06 1.42348E-06-1.65436E-24
 -1       990-4.78247E-06 1.99779E-06 0.00000E+00
 -1       996-5.17151E-06-1.01376E-07 0.00000E+00
 -1       997-5.32050E-06 1.02171E-07 0.00000E+00
 -1       998-5.48864E-06 3.31062E-07 0.00000E+00
 -1       999-5.67743E-06 5.87331E-07 0.00000E+00
 -1      1000-5.88838E-06 8.72966E-07 0.00000E+00
 -1      1001-6.12305E-06 1.18988E-06 0.00000E+00
 -1      1002-6.38308E-06 1.53993E-06 0.00000E+00
 -1      1003-6.67049E-06 1.92459E-06-2.06795E-25
 -1      1004-6.98767E-06 2.34504E-06 1.65436E-24
 -1      1005-4.76869E-06 3.56370E-06 0.00000E+00
 -1      1006-4.79742E-06 4.55693E-06 0.00000E+00
 -1      1007-4.82729E-06 5.69073E-06 0.00000E+00
 -1      1008-4.85783E-06 6.97425E-06 0.00000E+00
 -1      1009-4.88871E-06 8.41658E-06 0.00000E+00
 -1      1010-4.91984E-06 1.00265E-05 0.00000E+00
 -1      1011-4.95108E-06 1.18128E-05 0.00000E+00
 -1      1012-5.37221E-06 2.72207E-06-8.27181E-25
 -1      1013-5.84053E-06 2.74109E-06 0.00000E+00
 -1      1014-6.20981E-06 2.75955E-06 0.00000E+00
 -1      1015-6.54181E-06 2.77682E-06-4.13590E-25
 -1      1016-6.89831E-06 2.79268E-06 0.00000E+00
 -1      1017-5.21346E-06 3.51665E-06 0.00000E+00
 -1      1018-5.72846E-06 4.39694E-06-3.30872E-24
 -1      1019-6.28399E-06 5.33226E-06 0.00000E+00
 -1      1020-6.87347E-06 6.31322E-06 6.61744E-24
 -1      1021-7.49020E-06 7.33043E-06 0.00000E+00
 -1      1022-8.12738E-06 8.37452E-06 0.00000E+00
 -1      1023-8.77828E-06 9.43598E-06 3.30872E-24
 -1      1024-9.43679E-06 1.05049E-05 0.00000E+00
 -1      1025-1.00973E-05 1.15711E-05 0.00000E+00
 -1      1026-5.04794E-06 1.63027E-05 0.00000E+00
 -1      1027-5.11726E-06 1.91671E-05 0.00000E+00
 -1      1028-5.18773E-06 2.22944E-05 0.00000E+00
 -1      1029-5.25898E-06 2.56003E-05-3.10193E-25
 -1      1030-5.33056E-06 2.90005E-05 1.65436E-24
 -1      1031-5.40218E-06 3.24107E-05 0.00000E+00
 -1      1032-5.47350E-06 3.57463E-05 0.00000E+00
 -1      1033-6.57077E-06 1.35956E-05 0.00000E+00
 -1      1034-7.71897E-06 1.34011E-05 0.00000E+00
 -1      1035-8.56790E-06 1.32059E-05 6.61744E-24
 -1      1036-9.26170E-06 1.30101E-05 0.00000E+00
 -1      1037-9.94452E-06 1.28144E-05 3.30872E-24
 -1      1038-6.24819E-06 1.56628E-05 0.00000E+00
 -1      1039-7.63571E-06 1.77136E-05 0.00000E+00
 -1      1040-9.13526E-06 1.99148E-05 0.00000E+00
 -1      1041-1.07335E-05 2.22479E-05 0.00000E+00
 -1      1042-1.24169E-05 2.46943E-05 0.00000E+00
 -1      1043-1.41718E-05 2.72353E-05-3.30872E-24
 -1      1044-1.59846E-05 2.98525E-05-3.30872E-24
 -1      1045-1.78420E-05 3.25272E-05 0.00000E+00
 -1      1046-1.97305E-05 3.52405E-05 0.00000E+00
 -1      1047-5.58889E-06 4.19733E-05 4.13590E-25
 -1      1048-5.63359E-06 4.51765E-05 2.06795E-25
 -1      1049-5.67848E-06 4.84876E-05-6.20385E-25
 -1      1050-5.72346E-06 5.18594E-05 0.00000E+00
 -1      1051-5.76842E-06 5.52446E-05 1.65436E-24
 -1      1052-5.81317E-06 5.85956E-05 0.00000E+00
 -1      1053-5.85753E-06 6.18652E-05 0.00000E+00
 -1      1054-8.22641E-06 3.87684E-05 0.00000E+00
 -1      1055-1.07652E-05 3.86085E-05 0.00000E+00
 -1      1056-1.32680E-05 3.84486E-05 3.30872E-24
 -1      1057-1.58432E-05 3.82885E-05 0.00000E+00
 -1      1058-1.85988E-05 3.81278E-05 0.00000E+00
 -1      1059-7.13181E-06 4.13412E-05-1.65436E-24
 -1      1060-8.75152E-06 4.38174E-05-1.65436E-24
 -1      1061-1.04059E-05 4.63388E-05 0.00000E+00
 -1      1062-1.20874E-05 4.88991E-05 0.00000E+00
 -1      1063-1.37918E-05 5.14898E-05 0.00000E+00
 -1      1064-1.55136E-05 5.41035E-05 0.00000E+00
 -1      1065-1.72473E-05 5.67329E-05-6.61744E-24
 -1      1066-1.89887E-05 5.93697E-05-1.65436E-24
 -1      1067-2.07307E-05 6.20079E-05 0.00000E+00
 -1      1068-5.90212E-06 6.80230E-05 0.00000E+00
 -1      1069-5.90254E-06 7.10745E-05 0.00000E+00
 -1      1070-5.90278E-06 7.41502E-05 0.00000E+00
 -1      1071-5.90293E-06 7.72389E-05 0.00000E+00
 -1      1072-5.90308E-06 8.03292E-05 0.00000E+00
 -1      1073-5.90328E-06 8.34096E-05 0.00000E+00
 -1      1074-5.90361E-06 8.64690E-05 0.00000E+00
 -1      1075-8.69739E-06 6.49463E-05-1.65436E-24
 -1      1076-1.13912E-05 6.48842E-05 0.00000E+00
 -1      1077-1.40490E-05 6.48221E-05 0.00000E+00
 -1      1078-1.67377E-05 6.47597E-05 0.00000E+00
 -1      1079-1.95248E-05 6.46970E-05-8.27181E-25
 -1      1080-7.61587E-06 6.74339E-05-8.27181E-25
 -1      1081-9.34156E-06 6.98828E-05 0.00000E+00
 -1      1082-1.10768E-05 7.23441E-05 3.30872E-24
 -1      1083-1.28160E-05 7.48120E-05 0.00000E+00
 -1      1084-1.45549E-05 7.72794E-05-3.30872E-24
 -1      1085-1.62885E-05 7.97399E-05 1.65436E-24
 -1      1086-1.80120E-05 8.21869E-05 0.00000E+00
 -1      1087-1.97210E-05 8.46136E-05-8.27181E-25
 -1      1088-2.14100E-05 8.70139E-05-8.27181E-25
 -1      1089-8.82241E-06 8.94764E-05 0.00000E+00
 -1      1090-1.17069E-05 8.94567E-05 0.00000E+00
 -1      1091-1.45664E-05 8.94371E-05 0.00000E+00
 -1      1092-1.74091E-05 8.94175E-05 0.00000E+00
 -1      1093-2.02434E-05 8.93979E-05-4.13590E-25
 -1      1094-1.86962E-07-6.93952E-07-3.30872E-24
 -1      1095-3.77757E-07-1.29642E-06 0.00000E+00
 -1      1096-5.69020E-07-1.82520E-06 3.30872E-24
 -1      1097-7.60587E-07-2.29861E-06 0.00000E+00
 -1      1098-9.52122E-07-2.73493E-06-6.61744E-24
 -1      1099-1.14327E-06-3.15254E-06 0.00000E+00
 -1      1100-1.33385E-06-3.56977E-06-3.30872E-24
 -1      1101-2.12991E-06-4.33274E-06 0.00000E+00
 -1      1102-2.76180E-06-4.40212E-06 0.00000E+00
 -1      1103-3.39256E-06-4.28648E-06 1.32349E-23
 -1      1104-4.02637E-06-4.06147E-06 0.00000E+00
 -1      1105-4.66015E-06-3.80433E-06 0.00000E+00
 -1      1106-5.29052E-06-3.59264E-06 6.61744E-24
 -1      1107-5.92207E-06-3.50336E-06 1.32349E-23
 -1      1108-6.58112E-06-3.79031E-06 0.00000E+00
 -1      1109-6.63270E-06-3.93376E-06 4.13590E-25
 -1      1110-6.68428E-06-4.05035E-06 1.65436E-24
 -1      1111-6.73586E-06-4.14842E-06 0.00000E+00
 -1      1112-6.78739E-06-4.23634E-06-1.65436E-24
 -1      1113-6.83882E-06-4.32248E-06 0.00000E+00
 -1      1114-6.89001E-06-4.41521E-06 0.00000E+00
 -1      1115-6.98310E-06-4.59196E-06 8.27181E-25
 -1      1116-7.02637E-06-4.53893E-06-4.13590E-25
 -1      1117-7.06959E-06-4.39712E-06 0.00000E+00
 -1      1118-7.11276E-06-4.20021E-06 4.13590E-25
 -1      1119-7.15582E-06-3.98183E-06 0.00000E+00
 -1      1120-7.19817E-06-3.77565E-06 0.00000E+00
 -1      1121-7.24054E-06-3.61535E-06-4.13590E-25
 -1      1122-6.99734E-06-3.43653E-06 6.61744E-24
 -1      1123-6.70761E-06-3.23706E-06 0.00000E+00
 -1      1124-6.41793E-06-2.97663E-06-6.61744E-24
 -1      1125-6.12705E-06-2.69583E-06 0.00000E+00
 -1      1126-5.83602E-06-2.43520E-06 0.00000E+00
 -1      1127-5.54532E-06-2.23532E-06 0.00000E+00
 -1      1128-5.25452E-06-2.13688E-06 0.00000E+00
 -1      1129-4.35993E-06-2.05482E-06 0.00000E+00
 -1      1130-3.73346E-06-1.65160E-06 0.00000E+00
 -1      1131-3.10625E-06-1.08837E-06 0.00000E+00
 -1      1132-2.47740E-06-4.83084E-07-6.61744E-24
 -1      1133-1.84876E-06 4.64692E-08 0.00000E+00
 -1      1134-1.22280E-06 3.82318E-07 0.00000E+00
 -1      1135-5.98154E-07 4.06099E-07 0.00000E+00
 -1      1136-4.86382E-07-6.69136E-07 0.00000E+00
 -1      1137-9.96413E-07-1.20016E-06 0.00000E+00
 -1      1138-1.51028E-06-1.59739E-06 0.00000E+00
 -1      1139-2.02653E-06-1.86596E-06 0.00000E+00
 -1      1140-2.54328E-06-2.01109E-06 0.00000E+00
 -1      1141-3.05952E-06-2.03817E-06 0.00000E+00
 -1      1142-3.57447E-06-1.95266E-06 0.00000E+00
 -1      1143-4.48547E-06-1.42100E-06 6.61744E-24
 -1      1144-4.89487E-06-9.79520E-07-6.61744E-24
 -1      1145-5.30513E-06-4.53701E-07 0.00000E+00
 -1      1146-5.71572E-06 1.38191E-07-6.61744E-24
 -1      1147-6.12613E-06 7.77832E-07 1.32349E-23
 -1      1148-6.53550E-06 1.44681E-06 0.00000E+00
 -1      1149-6.94287E-06 2.12675E-06-6.61744E-24
 -1      1150-7.75875E-06 3.62204E-06 6.61744E-24
 -1      1151-8.18792E-06 4.65111E-06-3.30872E-24
 -1      1152-8.61894E-06 5.84215E-06 1.32349E-23
 -1      1153-9.05099E-06 7.14928E-06 0.00000E+00
 -1      1154-9.48307E-06 8.52664E-06 0.00000E+00
 -1      1155-9.91403E-06 9.92819E-06-6.61744E-24
 -1      1156-1.03430E-05 1.13079E-05 0.00000E+00
 -1      1157-1.20789E-05 1.41921E-05-2.64698E-23
 -1      1158-1.34495E-05 1.65367E-05-1.32349E-23
 -1      1159-1.48188E-05 1.95280E-05 0.00000E+00
 -1      1160-1.61967E-05 2.30165E-05 0.00000E+00
 -1      1161-1.75757E-05 2.68105E-05-2.64698E-23
 -1      1162-1.89473E-05 3.07076E-05 0.00000E+00
 -1      1163-2.03216E-05 3.44963E-05 0.00000E+00
 -1      1164-2.17460E-05 4.13096E-05-3.30872E-24
 -1      1165-2.18508E-05 4.46789E-05-1.65436E-24
 -1      1166-2.19557E-05 4.80619E-05-3.30872E-24
 -1      1167-2.20608E-05 5.14431E-05 0.00000E+00
 -1      1168-2.21657E-05 5.48065E-05-3.30872E-24
 -1      1169-2.22703E-05 5.81365E-05 0.00000E+00
 -1      1170-2.23745E-05 6.14173E-05 3.30872E-24
 -1      1171-2.25519E-05 6.77942E-05 0.00000E+00
 -1      1172-2.26278E-05 7.09653E-05 0.00000E+00
 -1      1173-2.27037E-05 7.41320E-05 0.00000E+00
 -1      1174-2.27795E-05 7.72795E-05 0.00000E+00
 -1      1175-2.28552E-05 8.03928E-05 0.00000E+00
 -1      1176-2.29304E-05 8.34569E-05 0.00000E+00
 -1      1177-2.30054E-05 8.64570E-05-1.65436E-24
 -3
    1PSTEP                         2           1           1          
  100CL  101 1.000000000         996                     0    1           1
 -4  STRESS      6    1
 -5  SXX         1    4    1    1
 -5  SYY         1    4    2    2
 -5  SZZ         1    4    3    3
 -5  SXY         1    4    1    2
 -5  SYZ         1    4    2    3
 -5  SZX         1    4    3    1
 -1         1 7.79465E+05 4.20606E+05-9.15713E+03 4.28502E+05-4.60811E-11 2.65421E-10
 -1         2 1.84551E+06 2.66906E+05 2.21954E+05 2.63078E+05-1.66892E-10 2.77851E-10
 -1         3 1.23391E+06 3.83977E+04 2.83008E+05-6.38444E+04 2.20984E-09-3.88624E-10
 -1         4 1.31989E+05-6.35154E+04-3.20078E+04-2.91629E+04-1.25965E-10-2.83762E-10
 -1         5 3.14148E+05 5.84610E+04 5.49842E+03 7.95123E+02 1.08457E-10 9.45874E-11
 -1         6 2.94105E+05 2.82036E+04 5.24170E+04 1.31292E+04-1.23009E-10 2.08502E-10
 -1         7 2.02735E+05 8.78206E+03 1.09158E+04 3.89261E+04 1.73941E-11 1.57343E-10
 -1         8 8.58247E+04 6.71572E+04 4.87823E+03 1.68725E+04 2.41585E-12 1.92045E-10
 -1         9-4.18912E+03 7.20697E+04-1.59135E+04-2.21484E+03 1.14255E-10 5.46095E-10
 -1        14 6.19416E+04 2.10563E+05-1.36518E+04 2.56319E+05 4.13820E-11-8.58563E-10
 -1        15 6.01177E+05 6.96962E+04 3.18899E+04 2.80590E+05 5.57823E-11-4.54747E-10
 -1        16 7.39564E+05-2.60292E+03 7.00838E+04 1.40727E+05 6.68858E-12-8.03311E-10
 -1        17 1.43549E+05-8.79911E+04 1.09550E+04 1.88118E+04-7.88229E-12 3.47124E-09
 -1        18 2.85224E+05-1.95096E+04 5.29482E+04 1.69914E+04-9.64671E-10 2.04939E-10
 -1        19 3.88866E+05 2.64610E+04 7.33953E+04 1.38226E+04-4.94235E-10 1.35969E-10
 -1        20 1.88642E+05 2.17895E+04 2.63896E+04 3.72861E+04-1.22630E-10 1.33847E-10
 -1        21 9.61558E+04 2.54243E+04-2.29790E+04 5.48537E+04 5.30539E-11-2.86491E-10
 -1        22 2.81638E+04 1.21977E+05-5.79511E+03 3.97271E+04-1.44581E-10 3.72211E-10
 -1        27-2.15214E+04-1.10809E+05-2.30596E+04 6.33868E+04-5.63887E-11 3.35149E-10
 -1        28 1.39164E+05 2.77898E+04-2.12265E+03 1.36111E+05 1.33393E-10 4.00178E-11
 -1        29 3.12995E+05 2.75972E+04 1.69741E+03 1.80802E+05 2.48595E-11-1.03076E-10
 -1        30 2.78352E+05-2.55672E+05-9.26445E+04 1.05360E+05-3.84262E-11-1.09632E-09
 -1        31 2.94545E+05-1.17228E+05-3.10235E+03 7.09275E+04 1.30058E-10-1.52492E-10
 -1        32 2.53097E+05 2.91335E+04 2.64901E+04 7.44205E+04-1.49612E-10 4.20793E-10
 -1        33 1.90183E+05 2.28480E+04-3.41901E+03 2.38822E+04 1.28845E-11 4.87641E-10
 -1        34 1.84475E+05-2.14261E+04-1.53421E+04 4.44352E+04 6.47636E-11-2.69533E-11
 -1        35 9.26569E+05 4.71836E+05 1.75877E+05 1.94588E+05-1.52674E-09-2.66421E-09
 -1        36 7.74499E+05-8.88794E+05-1.52535E+05 3.86558E+04 8.54834E-09-1.17961E-08
 -1        37 4.39811E+05 1.33184E+05 8.39764E+04 1.75555E+05 1.26774E-08-1.03137E-09
 -1        38 2.00747E+05 4.94816E+04 5.10743E+04 1.42364E+05 9.85892E-09-3.07955E-09
 -1        39-1.25879E+05-5.42834E+05-1.15292E+05 4.63053E+04 2.98423E-08-4.57277E-09
 -1        40-3.72065E+05-2.43255E+05-1.04768E+05 4.14157E+04-1.26875E-10 3.70164E-10
 -1        41-2.01572E+05-1.83680E+05-7.70887E+04 4.56233E+04 5.45697E-12 1.03500E-08
 -1        42 1.44347E+05 5.62457E+04 4.00796E+04 1.18691E+05-3.53187E-11-1.24449E-08
 -1        43 1.19544E+05-1.89792E+05-7.53563E+04 1.15411E+05 1.51886E-10-7.54881E-11
 -1        44 2.09753E+05-1.12217E+05-4.22954E+04 1.16889E+05 6.29067E-11 2.93918E-10
 -1        45 3.34062E+05 8.69104E+04 4.84928E+04 1.91839E+05-1.01136E-09 7.65188E-10
 -1        46 1.20422E+05 7.17032E+04-3.53072E+03 1.07000E+05 5.96477E-11-2.74387E-10
 -1        47 8.90516E+04-9.47607E+03 1.00013E+04-7.29847E+03 6.76664E-11-4.98949E-10
 -1        48 9.04983E+04 1.82135E+05 1.90178E+04 5.39810E+04 6.96067E-10-1.06108E-10
 -1        49 1.11089E+04-5.96121E+05-1.11511E+05 2.34222E+05-3.48033E-09-1.12050E-09
 -1        50 1.97574E+04-5.24918E+04 2.49836E+04 1.53131E+05 1.86083E-09-3.18202E-09
 -1        51 1.44302E+05 6.44737E+04 5.36903E+04 1.70274E+05 1.36867E-08-2.32376E-09
 -1        52 4.47939E+04-2.07053E+05-2.38399E+04 8.49935E+04 6.91784E-09-1.97940E-09
 -1        53-2.58753E+05-1.06322E+05-1.42200E+04 5.60697E+04-1.41142E-10-3.88809E-11
 -1        54-6.32376E+05-3.23407E+05-1.37343E+05 3.08768E+04 3.30346E-10-3.09228E-10
 -1        55-4.43442E+05-7.43918E+04-7.51015E+04 6.43257E+04-3.39355E-10-6.39375E-10
 -1        56-1.87247E+04 5.50743E+03 1.51278E+04 5.93866E+04 1.15927E-10 2.89049E-10
 -1        57 1.94156E+05-9.11886E+04-2.22843E+04 6.00344E+04 2.56012E-10-7.36691E-10
 -1        58 7.17230E+05 3.03326E+04 3.67449E+04 1.41439E+05-5.76172E-10-3.38332E-10
 -1        59 4.10969E+05 2.85743E+05 1.26269E+05 2.65144E+05-1.32303E-09 1.85537E-10
 -1        60-8.21912E+05-8.23516E+03 1.16804E+04 8.11433E+03 1.09831E-10-4.53535E-10
 -1        61-5.53319E+05-4.87647E+04-1.34891E+04 7.11619E+04 7.77398E-10 1.37607E-09
 -1        62-1.27992E+06-3.40492E+05-2.39454E+05 1.46063E+05-3.07980E-09 5.82804E-09
 -1        63-1.04711E+06-2.83404E+05-2.21464E+05 8.17641E+04 1.26535E-08-2.72803E-09
 -1        64-1.42586E+04 3.19544E+04 3.65721E+04 9.70659E+04 2.83478E-08 1.99964E-09
 -1        65-2.04652E+03 2.37282E+04 1.30127E+04 5.10995E+04 2.15177E-08-1.31634E-09
 -1        66 1.27531E+06 2.23164E+03 3.72573E+03-3.72665E-10-1.70896E-10-5.30122E-10
 -1        67 1.27578E+06 7.69813E+02 2.41963E+03-2.29174E-09-2.47054E-10-3.34367E-10
 -1        68 1.27550E+06 2.16125E+02 2.25972E+03 9.72562E-10 4.11928E-10-5.34186E-10
 -1        69 1.27580E+06 5.16603E+02 3.60501E+03 9.08926E-10 1.91949E-10-1.66489E-09
 -1        70 1.27529E+06 1.48404E+03 6.62691E+03 3.99666E-10-6.80692E-11-1.45542E-09
 -1        71 1.27788E+06 6.57576E+03 1.45891E+04-1.68319E-09 3.65853E-10 1.17211E-09
 -1        72 1.27340E+06 1.92508E+04 2.95602E+04-2.49383E-09 3.34849E-10 4.60204E-10
 -1        73-1.86069E+04 6.58673E+05-5.87084E+04 4.28158E+05 5.09317E-11-2.11730E-09
 -1        74-6.07111E+03 6.44591E+05-2.76590E+04 5.44877E+05-3.27418E-11-2.95404E-09
 -1        75 1.10520E+03 6.50637E+05-6.56539E+03 4.27169E+05 3.45608E-11 1.47156E-09
 -1        76 5.65534E+03 6.52899E+05 9.74005E+03 5.45266E+05-1.60071E-10 9.54969E-09
 -1        77 1.08796E+04 6.47522E+05 2.86823E+04 4.27765E+05 2.00089E-11 5.87897E-09
 -1        78 1.15758E+06 5.57208E+05 4.71017E+04 7.85802E+05 5.82077E-11-5.07043E-10
 -1        79 1.17193E+06 5.39397E+05 2.48004E+04 7.92433E+05-2.47383E-10 1.63016E-09
 -1        80 1.15316E+06 5.47105E+05 1.24846E+04 7.96633E+05-3.41424E-09 2.52749E-09
 -1        81 1.16719E+06 5.33556E+05 9.00490E+03 7.93221E+05-1.29830E-08-2.76123E-09
 -1        82 1.15297E+06 5.46698E+05 9.55246E+03 7.97036E+05-2.99497E-09 3.05772E-09
 -1        83 1.16765E+06 5.33993E+05 1.56831E+04 7.93286E+05 6.12090E-10-4.27917E-10
 -1        84 1.15308E+06 5.47519E+05 2.87894E+04 7.95766E+05 6.61225E-09 8.45648E-09
 -1        85 1.18063E+06 5.48565E+05 6.28078E+04 7.90953E+05-3.01952E-10-8.13998E-10
 -1        86 1.16368E+06 5.74477E+05 1.22111E+05 7.67542E+05-5.02041E-10 6.43922E-10
 -1        87 4.70342E+06-1.44001E+05 3.38360E+05 1.38396E-07 9.28765E-10 1.10595E-09
 -1        88 4.85037E+06 1.71226E+05 2.50993E+05 5.29194E-08 2.73223E-09 5.52973E-10
 -1        89 4.75704E+06-2.70327E+04 1.14463E+05-6.05382E-10 5.70114E-09-1.81899E-09
 -1        90 4.79983E+06 5.98877E+04 1.24388E+05-6.71549E-08 4.33787E-09 5.19094E-10
 -1        91 4.75423E+06-3.28030E+04 1.34096E+05 3.37408E-08 2.35462E-09-4.40195E-10
 -1        92 4.87326E+06 2.20518E+05 3.18891E+05-1.35742E-07 5.18607E-09-3.95812E-09
 -1        93 4.68323E+06-1.87446E+05 4.38519E+05-7.68787E-08 1.38179E-08-1.48430E-09
 -1        94-4.88433E+04-6.48130E+05-1.72670E+05 1.86573E+05 5.82077E-11 1.78261E-10
 -1        95-2.10596E+04-6.86610E+05-1.01491E+05 2.40280E+05 1.28694E-10-4.22006E-10
 -1        96-1.43526E+03-6.64305E+05-6.67213E+04 1.86055E+05 1.03682E-10-1.48975E-09
 -1        97-1.48793E+04-6.81827E+05-8.12564E+04 2.40626E+05 3.92902E-10 5.92536E-10
 -1        98-3.40707E+04-6.53910E+05-1.25681E+05 1.86277E+05 2.18279E-11-1.09594E-10
 -1        99 1.47077E+06 6.04808E+05 1.06320E+05 9.25248E+05 5.82077E-11 1.01136E-09
 -1       100 1.52610E+06 5.58111E+05 5.73722E+04 9.30458E+05 7.18501E-10-2.23008E-09
 -1       101 1.46683E+06 5.91248E+05 2.76797E+04 9.43529E+05 4.00178E-10 2.48747E-09
 -1       102 1.51456E+06 5.45353E+05 1.79719E+04 9.30776E+05 6.89397E-10 1.97633E-09
 -1       103 1.46684E+06 5.90940E+05 1.61325E+04 9.44077E+05 3.48882E-09 5.46515E-09
 -1       104 1.51496E+06 5.45672E+05 2.36409E+04 9.30909E+05 5.59794E-10-6.83031E-10
 -1       105 1.46664E+06 5.91288E+05 4.14489E+04 9.43144E+05 2.85581E-10-9.82254E-10
 -1       106 1.53345E+06 5.65608E+05 8.95508E+04 9.30251E+05-1.30967E-10 8.05812E-10
 -1       107 1.47247E+06 6.12943E+05 1.67659E+05 9.14110E+05 2.91038E-10 1.96451E-10
 -1       108 2.94794E+05 2.60629E+04 4.67732E+04 3.27418E-10 1.60630E-10 2.16460E-10
 -1       109 3.02737E+05 8.41376E+03 2.34276E+04 3.33102E-10 3.43890E-12-1.99179E-10
 -1       110 2.98158E+05 1.42311E+03 1.07819E+04 2.60968E-10 8.77608E-11 4.29281E-10
 -1       111 2.99085E+05 4.71300E+02 6.06519E+03 2.54374E-11-1.54524E-10-4.56623E-10
 -1       112 2.98450E+05 1.96265E+02 4.11205E+03 1.41938E-10 5.84307E-13-1.95541E-11
 -1       113 2.99276E+05 1.30670E+03 4.86806E+03-8.39165E-10 2.44062E-11-3.75508E-10
 -1       114 2.97967E+05 4.09235E+03 7.84478E+03 7.51697E-10 2.15690E-11-1.15915E-09
 -1       115-2.35855E+04-1.13816E+06-1.06937E+05-1.42539E+05 8.36735E-11 3.72893E-10
 -1       116-1.29806E+04-1.16309E+06-7.10977E+04-1.91160E+05-4.94765E-10-5.20686E-10
 -1       117-9.10949E+02-1.14763E+06-5.98077E+04-1.42218E+05 1.55978E-10-2.88765E-11
 -1       118-1.94190E+04-1.16900E+06-9.31693E+04-1.91184E+05-2.36469E-10 8.54925E-10
 -1       119-3.61235E+04-1.13231E+06-1.57322E+05-1.42515E+05-1.96451E-10-5.72982E-10
 -1       120-6.04986E+04-5.63110E+04 2.76580E+03-6.16702E+04-1.13687E-11 2.64336E-10
 -1       121-5.81149E+04-5.91193E+04 1.32741E+03-6.16716E+04 1.61435E-10 1.33309E-09
 -1       122-6.08587E+04-5.70462E+04 4.65863E+02-6.09253E+04 6.66205E-11 6.99742E-10
 -1       123-5.83992E+04-5.95095E+04-2.34125E+01-6.16002E+04 1.89573E-10 1.37447E-09
 -1       124-6.08600E+04-5.70680E+04-5.24760E+02-6.08818E+04 1.09097E-10 5.76392E-10
 -1       125-5.85170E+04-5.96153E+04-1.33810E+03-6.16094E+04-1.58650E-10 7.99446E-10
 -1       126-6.08949E+04-5.72178E+04-2.75369E+03-6.07048E+04-6.87805E-11-2.09184E-11
 -1       127-5.99268E+04-6.11399E+04-6.20082E+03-6.11944E+04-9.34790E-11-1.84605E-09
 -1       128-6.23267E+04-6.06633E+04-1.23513E+04-5.74481E+04 4.86580E-11 3.36513E-11
 -1       129 5.11692E+05 7.55293E+03 2.88417E+04-4.62023E-10-1.38496E-11-2.31012E-10
 -1       130 5.18184E+05 3.56591E+03 1.56955E+04-8.88804E-10 4.09690E-11-1.10776E-09
 -1       131 5.14578E+05 1.16161E+02 7.81741E+03 6.11138E-10-2.52072E-12-9.36780E-11
 -1       132 5.15221E+05 1.52548E+02 5.55805E+03-3.24157E-10 1.18512E-10-2.85468E-10
 -1       133 5.14660E+05 4.31297E+01 5.71540E+03 2.46580E-10-1.11529E-11-1.60298E-10
 -1       134 5.16829E+05 2.10872E+03 9.83171E+03 3.76190E-10-9.04832E-11-2.40107E-10
 -1       135 5.12967E+05 4.47293E+03 1.73095E+04 1.79216E-09 1.50200E-10 4.88399E-10
 -1       136-6.60955E+03-1.76417E+05-4.10944E+04-4.37915E+04-2.36469E-11 1.02318E-10
 -1       137-5.43727E+03-1.86675E+05-2.41005E+04-6.24665E+04-1.65528E-10 1.14619E-09
 -1       138-1.13276E+02-1.80801E+05-1.39847E+04-4.36762E+04-6.00267E-11 1.88720E-10
 -1       139-2.54473E+03-1.84011E+05-1.45184E+04-6.24931E+04-2.11458E-10 1.12777E-09
 -1       140-2.90047E+03-1.79107E+05-1.97212E+04-4.37657E+04-6.18456E-11 3.77895E-10
 -1       141-1.25481E+05-6.40248E+04-3.93147E+04-1.05859E+05 1.40062E-10-7.09406E-10
 -1       142-1.49299E+05-9.02345E+04-2.73934E+04-9.72991E+04 1.64914E-09 1.78647E-09
 -1       143-1.34347E+05-7.48169E+04-1.04919E+04-1.02612E+05-1.61435E-11-9.25411E-10
 -1       144-1.39102E+05-7.77692E+04-6.91852E+03-1.01106E+05 1.21872E-10-7.37145E-10
 -1       145-1.35568E+05-7.62937E+04-3.83976E+03-1.02199E+05-9.19158E-11 3.83977E-10
 -1       146-1.38313E+05-7.68098E+04-4.46253E+03-1.01372E+05-1.54671E-10-3.46290E-10
 -1       147-1.35127E+05-7.57629E+04-5.56528E+03-1.02357E+05 9.98170E-11-8.34461E-11
 -1       148-1.43071E+05-8.26216E+04-1.34992E+04-9.95795E+04-6.91216E-11 8.82210E-11
 -1       149-1.30863E+05-7.05748E+04-1.91055E+04-1.03923E+05 5.13865E-11 2.34650E-10
 -1       150 6.13666E+05-4.26672E+03 2.59003E+04 4.20505E-09-2.32386E-10 5.30235E-10
 -1       151 6.22366E+05 6.90893E+03 1.73643E+04 3.03066E-09-9.34490E-11-7.17591E-10
 -1       152 6.17237E+05-4.80376E+02 9.81057E+03-1.14881E-10 5.07265E-11 5.00336E-10
 -1       153 6.19185E+05 1.74792E+03 1.07699E+04-1.84741E-10 1.22787E-10 1.07872E-09
 -1       154 6.16849E+05-8.49847E+02 1.49254E+04-1.39201E-09 1.20150E-10 1.94177E-10
 -1       155 6.27018E+05 1.39757E+04 3.29586E+04-1.00454E-09 1.62033E-10-1.07775E-10
 -1       156 6.09397E+05-8.70783E+03 5.19825E+04 3.89264E-10-3.44942E-10 3.92902E-10
 -1       157 1.30793E+03 9.49150E+04-2.35882E+04-5.81859E+04-3.08319E-10-3.72893E-11
 -1       158-4.68861E+03 8.76000E+04-1.30934E+04-1.14806E+05 7.77618E-11-3.45153E-10
 -1       159 1.52461E+02 9.15101E+04-3.85494E+03-5.80152E+04-2.88310E-10 3.19687E-10
 -1       160 1.56257E+03 9.23217E+04 2.04606E+03-1.14817E+05-3.20142E-10 2.68301E-10
 -1       161-4.62177E+02 9.01542E+04 7.40218E+03-5.81759E+04-6.82121E-12 5.00222E-10
 -1       162 1.81816E+05 5.58813E+04-1.06399E+04 1.10335E+05 4.54747E-12-6.67569E-10
 -1       163 1.86933E+05 5.18589E+04-5.30661E+03 1.06273E+05-2.17824E-10-7.48628E-10
 -1       164 1.82776E+05 5.85402E+04-2.17288E+03 1.07746E+05-1.18916E-10-6.00267E-11
 -1       165 1.88189E+05 5.30676E+04-6.77810E+02 1.06002E+05-1.32786E-10-3.35575E-10
 -1       166 1.82765E+05 5.86183E+04 5.17633E+02 1.07621E+05 1.97701E-10-2.65231E-10
 -1       167 1.88402E+05 5.32545E+04 2.01751E+03 1.06043E+05 6.44903E-10-7.78527E-10
 -1       168 1.82793E+05 5.87653E+04 4.41493E+03 1.07393E+05 4.10864E-10-6.84395E-11
 -1       169 1.90479E+05 5.57660E+04 1.00724E+04 1.05616E+05 2.51021E-10 3.18323E-12
 -1       170 1.84855E+05 6.34995E+04 1.99107E+04 1.02519E+05 2.23736E-10-6.81212E-10
 -1       171 4.01474E+05 3.51958E+02 3.33820E+04 6.22094E-10-1.09146E-10 6.00267E-11
 -1       172 4.11032E+05 5.81094E+03 1.98404E+04 9.86802E-11-1.31791E-10 8.80391E-10
 -1       173 4.05662E+05-1.02556E+02 9.79194E+03 7.10173E-10 6.12775E-11 5.38876E-10
 -1       174 4.06756E+05 5.18552E+02 7.46118E+03 2.76685E-11 3.86422E-11 3.45381E-10
 -1       175 4.05752E+05-8.79325E+01 8.03625E+03-1.26374E-09 5.08693E-11 7.04631E-10
 -1       176 4.09661E+05 4.19110E+03 1.47687E+04 3.06727E-10-1.76665E-10 1.93268E-11
 -1       177 4.02755E+05 2.50253E+02 2.42288E+04 9.57698E-10-1.87803E-10-1.09139E-11
 -1       178-1.84278E+04-2.30201E+05-3.21916E+04-4.24009E+04 7.27596E-12-1.19371E-11
 -1       179-6.37602E+03-2.35609E+05-1.84290E+04-4.77199E+04-3.27418E-11 1.87725E-10
 -1       180-2.26000E+03-2.32115E+05-1.32393E+04-4.23600E+04 1.59162E-11-3.64366E-10
 -1       181-6.14478E+03-2.35509E+05-1.79363E+04-4.76973E+04-1.48361E-11 1.54614E-10
 -1       182-1.76796E+04-2.30293E+05-3.09759E+04-4.24224E+04-1.81899E-11-1.17325E-10
 -1       183 1.66558E+05 8.72538E+04 1.84766E+04 1.25045E+05-1.22782E-10 7.70342E-10
 -1       184 1.82858E+05 8.76085E+04 1.19282E+04 1.20953E+05-2.89219E-10 6.07088E-10
 -1       185 1.69692E+05 9.06910E+04 5.04262E+03 1.24553E+05-4.32010E-11 1.24487E-10
 -1       186 1.79052E+05 8.32003E+04 3.23438E+03 1.21963E+05 1.82979E-10-7.25038E-11
 -1       187 1.69997E+05 9.10144E+04 2.29841E+03 1.24517E+05-3.11360E-11 1.22412E-10
 -1       188 1.79020E+05 8.31545E+04 3.04998E+03 1.21969E+05-2.43631E-10-1.15932E-10
 -1       189 1.69722E+05 9.07317E+04 4.63510E+03 1.24552E+05-4.09273E-12 9.18590E-11
 -1       190 1.82478E+05 8.71508E+04 1.08691E+04 1.21053E+05-6.36646E-11 1.77806E-10
 -1       191 1.66875E+05 8.76061E+04 1.68049E+04 1.25000E+05-5.36602E-11 3.72893E-11
 -1       192 2.85323E+05-3.50574E+03 1.20005E+04 1.79625E-10 4.98757E-11 1.63254E-10
 -1       193 2.89888E+05 4.41164E+03 8.28731E+03 5.64557E-09 1.67024E-10-2.90811E-10
 -1       194 2.87133E+05-4.69775E+02 4.00051E+03 8.26610E-10 1.64819E-11 2.44654E-10
 -1       195 2.88131E+05 1.11129E+03 3.90060E+03-3.09612E-09-4.03143E-11-2.06981E-11
 -1       196 2.87081E+05-5.48359E+02 4.50012E+03-2.81268E-10 2.21617E-11 1.34378E-10
 -1       197 2.90400E+05 5.34184E+03 9.89677E+03 1.95416E-09 6.01820E-11 3.52429E-10
 -1       198 2.84862E+05-4.26403E+03 1.45350E+04-1.22907E-09 1.53724E-11-2.08274E-10
 -1       199-5.07358E+03-1.62732E+05-3.28707E+04 2.80527E+04 2.18279E-11 2.91038E-10
 -1       200-4.36809E+03-1.70951E+05-2.02150E+04 4.02352E+04 1.19371E-12 3.28555E-11
 -1       201-1.17135E+02-1.66106E+05-1.34396E+04 2.80052E+04 2.91038E-11-1.12664E-10
 -1       202-3.37460E+03-1.70017E+05-1.69134E+04 4.01980E+04-4.70664E-11-5.79803E-12
 -1       203-3.84118E+03-1.63644E+05-2.55186E+04 2.80890E+04-1.18234E-11-8.23093E-11
 -1       204 1.74583E+05 9.39374E+04 1.08471E+04 1.27589E+05 1.16415E-10 2.72394E-10
 -1       205 1.78806E+05 9.40021E+04 6.20643E+03 1.27880E+05-4.54747E-11-4.50427E-10
 -1       206 1.75252E+05 9.41127E+04 2.75799E+03 1.28475E+05-1.22895E-10-6.54836E-11
 -1       207 1.77291E+05 9.23974E+04 1.51028E+03 1.27995E+05-2.34479E-11 9.92486E-11
 -1       208 1.75313E+05 9.41475E+04 8.71532E+02 1.28521E+05-3.41481E-09-5.88784E-09
 -1       209 1.77221E+05 9.23322E+04 7.55988E+02 1.27985E+05 1.54046E-10 7.41807E-11
 -1       210 1.75305E+05 9.41457E+04 9.59391E+02 1.28510E+05-9.45306E-11 1.90369E-10
 -1       211 1.77644E+05 9.28074E+04 1.89210E+03 1.27949E+05 3.00133E-11 3.18948E-10
 -1       212 1.75122E+05 9.40848E+04 3.20764E+03 1.28247E+05 1.20508E-11 6.53699E-11
 -1       213-1.10765E+04 1.78522E+03-1.33974E+04 2.32080E-09 5.12628E-11 6.91216E-11
 -1       214-1.54791E+04-3.30107E+03-8.57368E+03 2.45564E-11 9.36761E-11-3.70164E-10
 -1       215-1.29262E+04 1.80606E+02-4.34307E+03-1.14743E-09-4.09522E-11-2.33172E-10
 -1       216-1.36534E+04-5.40254E+02-3.89057E+03-1.51645E-09 9.56979E-11-5.75540E-11
 -1       217-1.29025E+04 1.99631E+02-4.68292E+03-8.05088E-10 3.30469E-11-2.25100E-10
 -1       218-1.57793E+04-3.73513E+03-9.59751E+03 1.34833E-10-6.06727E-11 1.09821E-10
 -1       219-1.08000E+04 2.02226E+03-1.51353E+04-2.70802E-10 6.79581E-11 1.12777E-10
 -1       220 4.83629E+01 2.07532E+05 7.51815E+03 4.74970E+03 3.31966E-11 4.51479E-10
 -1       221 1.33047E+03 2.09692E+05 4.08373E+03 8.31622E+03 3.56977E-11 4.38293E-10
 -1       222-1.28889E+01 2.08538E+05 1.23508E+03 4.74058E+03 4.83169E-11 5.58742E-10
 -1       223-4.01157E+02 2.08270E+05-5.92528E+02 8.30923E+03-2.72280E-11 4.98432E-10
 -1       224-2.17880E+01 2.08957E+05-2.30545E+03 4.75667E+03-6.91216E-11 1.39721E-10
 -1       225 5.25471E+04 5.35559E+04-2.25958E+03 5.64116E+04-1.02887E-10-2.84786E-10
 -1       226 4.94530E+04 5.68527E+04-1.19119E+03 5.67732E+04-2.20780E-10-4.83169E-11
 -1       227 5.27965E+04 5.40544E+04-6.15799E+02 5.58617E+04 3.05818E-11-1.66438E-10
 -1       228 4.96541E+04 5.71574E+04-4.73021E+02 5.67281E+04-2.33797E-10 7.52607E-11
 -1       229 5.28090E+04 5.40758E+04-5.43277E+02 5.58370E+04-1.67461E-10 1.65528E-10
 -1       230 4.96216E+04 5.71232E+04-9.32385E+02 5.67213E+04 1.54841E-10 9.50422E-11
 -1       231 5.27942E+04 5.40220E+04-1.73769E+03 5.59231E+04-6.77574E-11-2.27828E-10
 -1       232 4.88882E+04 5.61603E+04-3.80980E+03 5.68719E+04 1.73031E-10 4.78622E-11
 -1       233 5.20228E+04 5.23249E+04-7.45144E+03 5.77318E+04 1.81899E-12 2.70120E-10
 -1       241 2.54729E+03 1.84598E+05 4.01600E+03-3.89581E+03 4.85443E-11 1.07775E-10
 -1       242 8.68906E+02 1.85218E+05 2.02340E+03-4.40010E+03-1.34470E-11-2.14300E-10
 -1       243 2.14550E+02 1.84855E+05 9.95970E+02-3.92585E+03 1.28793E-10-1.36424E-10
 -1       244 1.90133E+02 1.84972E+05 7.16530E+02-4.33128E+03 2.23963E-11 1.17666E-10
 -1       245 3.98811E+02 1.84847E+05 7.73556E+02-3.96481E+03 2.99906E-10 1.33923E-10
 -1       323-9.47029E+04-1.70234E+04-4.55412E+04 1.44003E+05-3.69255E-10-6.44832E-10
 -1       324-1.04049E+05-6.03125E+03-2.48366E+04 1.76584E+05-5.67525E-10 1.57979E-09
 -1       325-9.89427E+04-4.48348E+02-1.39098E+04 1.43625E+05-2.59206E-10-7.11225E-10
 -1       326-1.00404E+05-4.33382E+02-1.26346E+04 1.76992E+05 6.09361E-10 8.62201E-10
 -1       327-9.88660E+04-6.22880E+02-1.69729E+04 1.43619E+05 1.61572E-09-2.97405E-10
 -1       328-1.05985E+05-8.27710E+03-3.33568E+04 1.76663E+05 6.42103E-10-1.02318E-09
 -1       329-9.31213E+04-2.34787E+04-6.27749E+04 1.43928E+05-3.21961E-10-3.09228E-10
 -1       330 2.53955E+03 4.28408E+04-2.80376E+04 2.46954E+04-5.82077E-11 5.06134E-10
 -1       331-6.08396E+03 3.39144E+04-1.62961E+04 5.28281E+04-1.75078E-11 7.50333E-12
 -1       332 2.32849E+02 3.88818E+04-5.80173E+03 2.46417E+04 5.75255E-11-1.56251E-09
 -1       333 8.22850E+02 3.89716E+04-4.78606E+02 5.27839E+04-3.96767E-11-1.74055E-09
 -1       334-4.23012E+02 3.78413E+04 3.86874E+03 2.47368E+04 2.77396E-11 1.44155E-10
 -1       335 3.36137E+05 2.32458E+05 2.29646E+04 2.69148E+05-8.64338E-09 6.14637E-09
 -1       336 3.32212E+05 2.32665E+05 1.17504E+04 2.75944E+05-2.16805E-08 9.97488E-09
 -1       337 3.33458E+05 2.25909E+05 5.69008E+03 2.75206E+05-1.49148E-08-9.43146E-10
 -1       338 3.29568E+05 2.29876E+05 3.72251E+03 2.76765E+05-5.52973E-10 6.87578E-10
 -1       339 3.33343E+05 2.25586E+05 3.43319E+03 2.75514E+05 1.05683E-09-1.03432E-09
 -1       340 3.29675E+05 2.30012E+05 5.18903E+03 2.76766E+05 1.10122E-08 5.94994E-09
 -1       341 3.33509E+05 2.26096E+05 9.28542E+03 2.74925E+05 1.77715E-09-7.01903E-10
 -1       342 3.34008E+05 2.35157E+05 2.01554E+04 2.75415E+05 5.51154E-10 4.47017E-10
 -1       343 3.38404E+05 2.37200E+05 3.98644E+04 2.64275E+05 4.36557E-10 2.07365E-10
 -1       344 2.09413E+06-5.67180E+04 1.45217E+05-2.36324E+03-3.64480E-10 1.00408E-09
 -1       345 2.15505E+06 6.74682E+04 1.04854E+05 9.01282E+03 1.50067E-11 1.43336E-09
 -1       346 2.11709E+06-9.47617E+03 4.72059E+04-1.33480E+03-1.03114E-10-1.56069E-09
 -1       347 2.13242E+06 1.98335E+04 4.70510E+04 7.46830E+03 6.10626E-10 3.10820E-10
 -1       348 2.11681E+06-1.00218E+04 4.93738E+04-8.19545E+02-3.86379E-10-2.09184E-10
 -1       349 2.15746E+06 7.25068E+04 1.12193E+05 6.85258E+03 2.64919E-10-1.62981E-09
 -1       350 2.09199E+06-6.11033E+04 1.56243E+05-7.19122E+02 9.49534E-10-9.53150E-10
 -1       351-1.97078E+04-3.28303E+05-8.67337E+04 1.09776E+05 2.11003E-10 6.74845E-10
 -1       352-1.05350E+04-3.48614E+05-5.10257E+04 1.47472E+05 9.86802E-11 1.55205E-09
 -1       353-3.64953E+02-3.36765E+05-3.21111E+04 1.09581E+05 1.08685E-10 6.75300E-10
 -1       354-6.52882E+03-3.44824E+05-3.71548E+04 1.47357E+05 4.36557E-11 2.54659E-11
 -1       355-1.19414E+04-3.31882E+05-5.50812E+04 1.09878E+05 2.16460E-10-4.87489E-10
 -1       356 7.16893E+05 3.97513E+05 6.07744E+04 4.97075E+05-2.91038E-11 1.09139E-10
 -1       357 7.16626E+05 3.84009E+05 3.05394E+04 5.12754E+05-7.38964E-11-3.38332E-10
 -1       358 7.07729E+05 3.77691E+05 1.44582E+04 5.15044E+05-1.84400E-10-1.34605E-10
 -1       359 7.09708E+05 3.75425E+05 8.91730E+03 5.15820E+05-3.29237E-10 7.53516E-10
 -1       360 7.07221E+05 3.76475E+05 7.45432E+03 5.16232E+05 2.58296E-10-7.18956E-10
 -1       361 7.09875E+05 3.75632E+05 1.05250E+04 5.15814E+05 7.73070E-12-8.41283E-12
 -1       362 7.07890E+05 3.78045E+05 1.84061E+04 5.14648E+05 3.23780E-10 8.52651E-13
 -1       363 7.18788E+05 3.87114E+05 3.98051E+04 5.11895E+05 6.18456E-11 1.50158E-09
 -1       364 7.20141E+05 4.03830E+05 7.96591E+04 4.91025E+05 1.60071E-10 2.47383E-10
 -1       365 8.06295E+05 2.97055E+04 4.61950E+04 1.04630E+05 3.19233E-10-7.38510E-10
 -1       366 8.13358E+05 1.02344E+04 2.44086E+04 1.15519E+05-2.41016E-10-5.86397E-10
 -1       367 8.09025E+05 2.49513E+03 1.43172E+04 1.04444E+05 1.34605E-10-9.86802E-11
 -1       368 8.10862E+05 2.17288E+03 1.44111E+04 1.15704E+05 1.30285E-10-9.27685E-11
 -1       369 8.08698E+05 4.52791E+03 2.12107E+04 1.04441E+05-1.97360E-10 4.87489E-10
 -1       370 8.16645E+05 1.94722E+04 4.36189E+04 1.15539E+05-3.59478E-10-2.71029E-10
 -1       371 8.03287E+05 5.67237E+04 8.70048E+04 1.04610E+05-2.87855E-10-3.92902E-10
 -1       372-5.49656E+04-3.97566E+05-8.74169E+04-5.25331E+04-9.09495E-11-1.53705E-10
 -1       373-1.99417E+04-4.11521E+05-4.94682E+04-5.84156E+04 2.21917E-10 1.32241E-09
 -1       374-8.11732E+03-4.02320E+05-3.51403E+04-5.25914E+04 2.11003E-10-3.36513E-11
 -1       375-1.87826E+04-4.11064E+05-4.72512E+04-5.81585E+04 6.00267E-11 5.63887E-11
 -1       376-5.12927E+04-3.97907E+05-8.19148E+04-5.27526E+04 5.09317E-11-1.06593E-09
 -1       377 3.31486E+05 1.81960E+05 1.28806E+04 2.37137E+05 2.81943E-11 9.77707E-11
 -1       378 3.31310E+05 1.78728E+05 6.35391E+03 2.40542E+05-4.64524E-10 5.31656E-10
 -1       379 3.29266E+05 1.77469E+05 2.85266E+03 2.41182E+05 2.27374E-11-7.00311E-11
 -1       380 3.29832E+05 1.76706E+05 1.47732E+03 2.41307E+05-3.24235E-10-1.73463E-09
 -1       381 3.29116E+05 1.77143E+05 7.85499E+02 2.41502E+05-1.72577E-10 2.86718E-10
 -1       382 3.29726E+05 1.76569E+05 5.80884E+02 2.41332E+05-3.12525E-10 1.43694E-09
 -1       383 3.29140E+05 1.77195E+05 6.42449E+02 2.41464E+05-4.51564E-10 3.44357E-10
 -1       384 3.29992E+05 1.76876E+05 1.15503E+03 2.41185E+05-7.50333E-11-1.32667E-09
 -1       385 3.29496E+05 1.77988E+05 2.21634E+03 2.40782E+05-1.38107E-09-2.38120E-09
 -1       386 4.66848E+02-4.17008E+01-2.28939E+01-1.83542E+01-9.52412E-09-1.61516E-08
 -1       387 4.65550E+02-3.97725E+01-1.20134E+01-1.83527E+01-1.89213E-08-3.95831E-09
 -1       388 4.66461E+02-3.85509E+01-6.75915E+00-1.83544E+01-1.92392E-08-2.03617E-08
 -1       389 4.65934E+02-3.83880E+01-5.47673E+00-1.83528E+01-1.95661E-08 2.30671E-09
 -1       390 4.66461E+02-3.85509E+01-6.75918E+00-1.83544E+01-1.67107E-08-1.99947E-08
 -1       391 4.65548E+02-3.97725E+01-1.20136E+01-1.83527E+01-1.40476E-08 8.26544E-09
 -1       392 4.66846E+02-4.17008E+01-2.28942E+01-1.83542E+01-7.10928E-09-1.16129E-08
 -1       393 1.33396E+04-6.05212E+05-6.13307E+04-5.24619E+03 2.18279E-11 4.37808E-10
 -1       394-2.09041E+04-6.27990E+05-4.97834E+04-2.11109E+04 3.30829E-10 1.82872E-10
 -1       395 3.76117E+03-6.11969E+05-4.01090E+04-5.22960E+03 4.95675E-11-4.02395E-10
 -1       396-3.35442E+04-6.35474E+05-7.21252E+04-2.10654E+04 5.33873E-10 2.12822E-10
 -1       397 2.35597E+04-5.97716E+05-1.03535E+05-5.29079E+03 1.60071E-10 8.12634E-10
 -1       398 2.66705E+05 1.14521E+05 3.74642E+04 1.67566E+05 1.32786E-10-1.01409E-10
 -1       399 2.79619E+05 1.06666E+05 2.02208E+04 1.71049E+05-3.03771E-10 4.06544E-10
 -1       400 2.66089E+05 1.10733E+05 9.27043E+03 1.73467E+05 2.78305E-10 6.83031E-10
 -1       401 2.75404E+05 1.02093E+05 5.17285E+03 1.71189E+05-6.18456E-11 2.75776E-10
 -1       402 2.66166E+05 1.10698E+05 3.31885E+03 1.73675E+05 4.92491E-10 5.45811E-10
 -1       403 2.75273E+05 1.01990E+05 3.39321E+03 1.71141E+05 1.28011E-10 1.01363E-09
 -1       404 2.66153E+05 1.10741E+05 4.95666E+03 1.73565E+05-3.86990E-10 9.54117E-10
 -1       405 2.77304E+05 1.04226E+05 1.01047E+04 1.71048E+05 1.03796E-10 1.17495E-10
 -1       406 2.66464E+05 1.12601E+05 1.84278E+04 1.70669E+05 2.81943E-10 1.05956E-10
 -1       407 1.39067E+06-4.65494E+04 1.27966E+05 3.09668E+02-1.83695E-09-2.61934E-10
 -1       408 1.44294E+06 5.57472E+04 9.07316E+04-6.27050E+03-3.43448E-10-1.11595E-09
 -1       409 1.41075E+06-7.18938E+03 4.07594E+04 1.48700E+02-1.48447E-10 2.71029E-10
 -1       410 1.42279E+06 1.46619E+04 3.85905E+04-6.07194E+03 3.00560E-11 1.53068E-09
 -1       411 1.41085E+06-7.00462E+03 3.99323E+04 1.11306E+02 3.42865E-10 6.53017E-10
 -1       412 1.44203E+06 5.39381E+04 8.79681E+04-6.11745E+03 9.12834E-11 1.08776E-09
 -1       413 1.39148E+06-4.49900E+04 1.23764E+05 1.94185E+02-1.69734E-09 1.15688E-09
 -1       414 1.31722E+04-7.18647E+05-7.15549E+04 2.31869E+04-8.00355E-11-1.06411E-10
 -1       415-2.14626E+04-7.43970E+05-5.36953E+04 7.32501E+04-6.97128E-10-4.84988E-10
 -1       416 2.86056E+03-7.27274E+05-3.87999E+04 2.30128E+04-3.36513E-10-4.48381E-10
 -1       417-2.60728E+04-7.46911E+05-6.24451E+04 7.33253E+04-2.83762E-10-6.27551E-11
 -1       418 1.66017E+04-7.15775E+05-8.83694E+04 2.31131E+04-1.45519E-10 5.58884E-10
 -1       419 4.82918E+05 1.98204E+05 6.68758E+04 2.99970E+05 5.82077E-11-5.09317E-10
 -1       420 5.11323E+05 1.81893E+05 3.65890E+04 3.03990E+05-2.61934E-10 3.51065E-10
 -1       421 4.82785E+05 1.92958E+05 1.69542E+04 3.09485E+05-2.51021E-10-1.27329E-11
 -1       422 5.03556E+05 1.73559E+05 9.91006E+03 3.04206E+05 5.45697E-12-4.19277E-10
 -1       423 4.82939E+05 1.92926E+05 7.13770E+03 3.09823E+05-2.36923E-10-6.84850E-10
 -1       424 5.03449E+05 1.73475E+05 8.52314E+03 3.04171E+05 1.24149E-09-1.70530E-09
 -1       425 4.82844E+05 1.92973E+05 1.35999E+04 3.09557E+05 4.03816E-10-4.92037E-10
 -1       426 5.09455E+05 1.79990E+05 2.87024E+04 3.03996E+05-5.42059E-10 6.63931E-10
 -1       427 4.82982E+05 1.97042E+05 5.21886E+04 3.02139E+05-3.67436E-10 6.07542E-10
 -1       428 6.02527E+05-1.33156E+04 5.19623E+04-3.65839E+02-4.68361E-10 1.96451E-10
 -1       429 6.21674E+05 1.74498E+04 3.49159E+04-1.78777E+03-2.16758E-10-1.09139E-10
 -1       430 6.10282E+05-1.59799E+03 1.64545E+04-3.60254E+02 8.02061E-11-7.36691E-11
 -1       431 6.13874E+05 3.55164E+03 1.45919E+04-1.80342E+03-6.96900E-11-1.92699E-11
 -1       432 6.10333E+05-1.52910E+03 1.59176E+04-3.50246E+02 2.07592E-10 4.96584E-10
 -1       433 6.21144E+05 1.65322E+04 3.32165E+04-1.82341E+03 1.47793E-11 3.38787E-10
 -1       434 6.03008E+05-1.26030E+04 4.92366E+04-3.40492E+02-2.39822E-10 7.45786E-11
 -1       435-1.81664E+04-2.60991E+05-3.45640E+04-2.07979E+04-2.81943E-11-9.29276E-10
 -1       436-6.24214E+03-2.67050E+05-2.09077E+04-2.36827E+04 6.13909E-11-8.56005E-10
 -1       437-2.28847E+03-2.63049E+05-1.67644E+04-2.07651E+04-2.09184E-11-2.97177E-10
 -1       438-8.05421E+03-2.67909E+05-2.50784E+04-2.36952E+04-6.86668E-11 4.15199E-10
 -1       439-2.40728E+04-2.60135E+05-4.48008E+04-2.07860E+04 4.36557E-11 1.26192E-11
 -1       440 1.68133E+05 6.15440E+04 1.82521E+04 9.22704E+04 7.63976E-11-3.36513E-11
 -1       441 1.70065E+05 5.49633E+04 8.99593E+03 9.64698E+04-1.18234E-11-2.07365E-10
 -1       442 1.65068E+05 5.52701E+04 3.99938E+03 9.79296E+04 1.95541E-10-4.44970E-10
 -1       443 1.67966E+05 5.21572E+04 1.98956E+03 9.75086E+04 1.56888E-10 1.98497E-10
 -1       444 1.64876E+05 5.48307E+04 8.98597E+02 9.83693E+04 2.33445E-09-9.93850E-10
 -1       445 1.67764E+05 5.19359E+04 3.61419E+02 9.75525E+04-3.22999E-09-1.39016E-08
 -1       446 1.64878E+05 5.47884E+04-1.10730E+01 9.84175E+04 2.18802E-09-1.57706E-09
 -1       447 1.67549E+05 5.18344E+04-4.33115E+02 9.76323E+04 3.41061E-13-1.88720E-10
 -1       448 1.64770E+05 5.43464E+04-1.06422E+03 9.87427E+04 2.67391E-10-4.62933E-10
 -1       449 2.09694E+05 8.21182E+03 1.39767E+04 1.55280E+04 1.00705E-10 1.50976E-10
 -1       450 2.11992E+05 2.68880E+03 6.87045E+03 1.75312E+04-8.87326E-11 1.90710E-11
 -1       451 2.10674E+05 5.02049E+02 2.95562E+03 1.55170E+04-6.80984E-11 4.74444E-10
 -1       452 2.10889E+05 1.20294E+02 1.25580E+03 1.75394E+04-1.47793E-10 1.82354E-10
 -1       453 2.10801E+05-9.72526E+01 1.31311E+02 1.55209E+04 1.82581E-10 2.45478E-10
 -1       454 2.10562E+05-5.25028E+02-9.92921E+02 1.74891E+04 3.89377E-10 6.22890E-10
 -1       455 2.11010E+05-1.60107E+03-2.58158E+03 1.55673E+04 2.55341E-10 6.57110E-10
 -1       456-1.14012E+04-9.85025E+04-2.03109E+04-3.46495E+04 1.81899E-12-1.43960E-10
 -1       457-4.15690E+03-1.01967E+05-1.29938E+04-3.89435E+04-1.76442E-10-8.65725E-11
 -1       458-2.08672E+03-9.95223E+04-1.17333E+04-3.46338E+04 7.44649E-12 2.11458E-10
 -1       459-7.16258E+03-1.03185E+05-1.92426E+04-3.88881E+04-6.52562E-11-1.14824E-11
 -1       460-2.10644E+04-9.72665E+04-3.57480E+04-3.47030E+04-2.36469E-11 2.09411E-10
 -1       461 1.67049E+05 9.01827E+04 1.69284E+04 1.28011E+05-1.43700E-10 2.54659E-11
 -1       462 1.82557E+05 9.24254E+04 1.12056E+04 1.23577E+05 1.54273E-10-1.78602E-10
 -1       463 1.70351E+05 9.39734E+04 4.43281E+03 1.27149E+05 2.54659E-11-1.68484E-10
 -1       464 1.78652E+05 8.78380E+04 2.61012E+03 1.24787E+05-8.29914E-12-1.89175E-10
 -1       465 1.70754E+05 9.44184E+04 1.26526E+03 1.27062E+05 1.60043E-10-2.10946E-10
 -1       466 1.78242E+05 8.73614E+04 9.42602E+02 1.24891E+05 6.83684E-11 2.69225E-10
 -1       467 1.70745E+05 9.44195E+04 8.75807E+02 1.27069E+05 8.10019E-11 2.11287E-10
 -1       468 1.78733E+05 8.79088E+04 1.66663E+03 1.24733E+05 1.10902E-10-4.00092E-10
 -1       469 1.70291E+05 9.39159E+04 2.36490E+03 1.27190E+05-3.71529E-10 4.52189E-11
 -1       470 4.64024E+04-9.88167E+02-1.87193E+04 2.57617E+03-6.23004E-11-1.91903E-10
 -1       471 4.12273E+04-2.97611E+03-1.09456E+04 4.21058E+03 2.32149E-10-1.87356E-10
 -1       472 4.41332E+04 2.73924E+01-5.42787E+03 2.57787E+03 1.15961E-11-9.32232E-11
 -1       473 4.35462E+04-2.33195E+02-4.08551E+03 4.20774E+03 4.77485E-12-2.16062E-10
 -1       474 4.40841E+04 2.73794E+01-4.38656E+03 2.57888E+03 5.99130E-11-3.21506E-10
 -1       475 4.20155E+04-2.09190E+03-7.96392E+03 4.18609E+03 1.48020E-10-1.28239E-10
 -1       476 4.56666E+04-6.93049E+02-1.32510E+04 2.59927E+03 1.90994E-11 2.11003E-10
 -1       477 1.65656E+04-2.22382E+05-4.36273E+04-1.30740E+03-7.63976E-11 1.95712E-10
 -1       478-2.17033E+04-2.41327E+05-3.49721E+04 1.11909E+04-2.69210E-10-1.24981E-10
 -1       479 4.68396E+03-2.28134E+05-2.13116E+04-1.33038E+03 1.53477E-12-4.78906E-12
 -1       480-2.18180E+04-2.41377E+05-3.51286E+04 1.11657E+04-3.21961E-10-3.73760E-10
 -1       481 1.66763E+04-2.22330E+05-4.39041E+04-1.28227E+03 1.36424E-10 1.16131E-10
 -1       482 2.60232E+05 1.31155E+05 1.54720E+04 1.76417E+05-2.93767E-10-5.00222E-11
 -1       483 2.61643E+05 1.26804E+05 7.66140E+03 1.79889E+05 1.58252E-10 2.26464E-10
 -1       484 2.58108E+05 1.26594E+05 3.28768E+03 1.80748E+05-2.28488E-09 2.07785E-09
 -1       485 2.59954E+05 1.24679E+05 1.37398E+03 1.80471E+05 2.95552E-09 1.39875E-08
 -1       486 2.58033E+05 1.26374E+05 8.21130E+01 1.81012E+05-2.38856E-09 1.56524E-09
 -1       487 2.59712E+05 1.24436E+05-1.16045E+03 1.80467E+05 1.33923E-10-3.73689E-10
 -1       488 2.57974E+05 1.26170E+05-2.92849E+03 1.81251E+05-1.37220E-10 5.54792E-10
 -1       489 2.58123E+05 1.22581E+05-6.89462E+03 1.81010E+05 1.89857E-11 3.76531E-10
 -1       490 2.56120E+05 1.22000E+05-1.39523E+04 1.85144E+05 5.07043E-11 4.24279E-10
 -1       498 5.99086E+03 2.89916E+05 1.06914E+04 8.14402E+04 4.76120E-10 7.27596E-12
 -1       499 1.78429E+03 2.91714E+05 3.29968E+03 9.42464E+04 3.49246E-10 3.94550E-10
 -1       500-2.50151E+02 2.90977E+05-2.66725E+03 8.13468E+04 4.73847E-10 2.78305E-10
 -1       501-3.75598E+03 2.88753E+05-1.06053E+04 9.42023E+04 2.60115E-10 2.81943E-11
 -1       502-1.20854E+04 2.92923E+05-2.32138E+04 8.14844E+04 2.11003E-10-1.90084E-10
 -1       580-2.00009E+05-4.44736E+03-1.88600E+04 2.18550E+04-1.63254E-10 3.94721E-10
 -1       581-2.04333E+05-2.33263E+03-1.09295E+04 2.90889E+04 1.72804E-11-5.63887E-11
 -1       582-2.01894E+05-4.66475E+01-6.62859E+03 2.17664E+04 7.41238E-11 1.44223E-09
 -1       583-2.02613E+05-2.20216E+02-6.89245E+03 2.91857E+04 2.31921E-11 2.11458E-11
 -1       584-2.01762E+05-1.48262E+02-1.01411E+04 2.17623E+04-8.26503E-11 2.20552E-11
 -1       585-2.06655E+05-4.76226E+03-2.07470E+04 2.91493E+04-1.44610E-10 7.30324E-10
 -1       586-1.97860E+05-9.09941E+03-3.80312E+04 2.17969E+04 3.08432E-10 3.20142E-10
 -1       587 1.67327E+04-5.40190E+05-4.97959E+04-1.62163E+02-4.00178E-11 3.09228E-11
 -1       588-2.17121E+04-5.60733E+05-3.81945E+04 7.50408E+04 5.65251E-10-2.91828E-09
 -1       589 4.02734E+03-5.46876E+05-2.27068E+04-4.29156E+02 2.05034E-10-1.64223E-09
 -1       590-1.92920E+04-5.59527E+05-3.46459E+04 7.50827E+04 3.50155E-11 1.90539E-10
 -1       591 1.44532E+04-5.41415E+05-4.34318E+04-2.04110E+02-2.07365E-10 8.22183E-10
 -1       592 2.02030E+05 8.78597E+04 3.01359E+04 1.29434E+05 1.11868E-10 2.44654E-10
 -1       593 2.14419E+05 8.23857E+04 1.66996E+04 1.31080E+05 2.17369E-10-1.54614E-11
 -1       594 2.02494E+05 8.61348E+04 7.76843E+03 1.33284E+05-9.09495E-12 1.24510E-09
 -1       595 2.10761E+05 7.85630E+04 4.65664E+03 1.31237E+05 3.34330E-09 7.19137E-09
 -1       596 2.02581E+05 8.61352E+04 3.53922E+03 1.33443E+05 2.02135E-10 7.53971E-10
 -1       597 2.10756E+05 7.85512E+04 4.49522E+03 1.31246E+05 3.25144E-11-2.99451E-10
 -1       598 2.02510E+05 8.61371E+04 7.37824E+03 1.33312E+05 2.07365E-10 1.67211E-09
 -1       599 2.14137E+05 8.22412E+04 1.57831E+04 1.31142E+05 0.00000E+00 1.01261E-09
 -1       600 2.02166E+05 8.76750E+04 2.84451E+04 1.29669E+05 9.09495E-12-4.36557E-11
 -1       601 3.08356E+05 4.89732E+03 1.34335E+04 6.64041E+04-2.21917E-10-6.54836E-11
 -1       602 3.11068E+05 1.71914E+03 6.89853E+03 8.16261E+04-2.91038E-10-1.58570E-09
 -1       603 3.09509E+05 1.10625E+02 3.00340E+03 6.61947E+04-2.00089E-11-9.71340E-10
 -1       604 3.09679E+05 2.65645E+01 1.32810E+03 8.18374E+04-1.96565E-10 1.00954E-10
 -1       605 3.09596E+05-5.25007E+01 2.34739E+02 6.61894E+04-2.28113E-10 3.71074E-10
 -1       606 3.09357E+05-3.16635E+02-7.99442E+02 8.17093E+04 1.99179E-10 3.43789E-10
 -1       607 3.09843E+05-8.66795E+02-2.12229E+03 6.63225E+04 1.98725E-10 5.47971E-10
 -1       608 9.56609E+03-7.87685E+04-2.34853E+04-3.91351E+03 3.63798E-12 7.78300E-10
 -1       609-1.15397E+04-8.88785E+04-1.72531E+04 2.17730E+04 4.22915E-10-1.77496E-09
 -1       610 1.87626E+03-8.23705E+04-7.78308E+03-3.94848E+03 2.76259E-10-8.92285E-10
 -1       611-5.12058E+03-8.58090E+04-8.64318E+03 2.17458E+04 3.73916E-10 8.02103E-10
 -1       612 3.20828E+03-8.18300E+04-8.54499E+03-3.88631E+03-4.09273E-12 4.40991E-10
 -1       613 4.79562E+05 2.61210E+05 5.33523E+04 3.72779E+05-1.16233E-09-1.03500E-09
 -1       614 5.11105E+05 2.90564E+05 3.64280E+04 3.62802E+05-4.22915E-11-1.58616E-09
 -1       615 4.90632E+05 2.74292E+05 1.49349E+04 3.69322E+05 5.82986E-10-4.32010E-11
 -1       616 4.98454E+05 2.75344E+05 1.06222E+04 3.67128E+05-2.81432E-10-1.86083E-09
 -1       617 4.91829E+05 2.75738E+05 8.06045E+03 3.68979E+05-4.08136E-11 7.99020E-10
 -1       618 4.99044E+05 2.75886E+05 1.24888E+04 3.66958E+05-1.54159E-10 1.19053E-09
 -1       619 4.90055E+05 2.73773E+05 1.88177E+04 3.69475E+05 1.47338E-10 1.83718E-10
 -1       620 5.15802E+05 2.95719E+05 4.70595E+04 3.61260E+05-5.42514E-10-8.61746E-10
 -1       621 4.75575E+05 2.56811E+05 6.92529E+04 3.73991E+05-8.62201E-10-1.11322E-09
 -1       622 5.24529E+05 4.58632E+03 1.94178E+04 8.94625E+04 2.03727E-10 3.49246E-10
 -1       623 5.28928E+05 2.44540E+03 1.04893E+04 1.19365E+05 3.78805E-10 4.01997E-10
 -1       624 5.26386E+05 1.06741E+02 4.88783E+03 8.91738E+04 1.26420E-10 5.81167E-10
 -1       625 5.26686E+05 1.60090E+02 2.88261E+03 1.19652E+05 1.67120E-10 7.76708E-10
 -1       626 5.26470E+05 4.04462E+01 2.11036E+03 8.91731E+04-4.18368E-10-1.61708E-09
 -1       627 5.27037E+05 5.52711E+02 2.72359E+03 1.19417E+05-3.07864E-10-1.14505E-09
 -1       628 5.26174E+05 9.46021E+02 4.25563E+03 8.94092E+04-4.44743E-10-2.52840E-10
 -1       629-2.04790E+04-2.07352E+05-5.64647E+04 1.85471E+05-1.70985E-10-6.53927E-10
 -1       630-7.06748E+03-2.19082E+05-3.10031E+04 2.28187E+05-1.50976E-10-1.97542E-09
 -1       631-5.35018E+02-2.12367E+05-1.76856E+04 1.85162E+05 2.83762E-10-1.06888E-09
 -1       632-2.77408E+03-2.15743E+05-1.73568E+04 2.28138E+05-1.12777E-10 5.66160E-10
 -1       633-7.91453E+03-2.10579E+05-2.41236E+04 1.85516E+05 1.27329E-11 4.16549E-10
 -1       634 5.32890E+05 2.13342E+05 4.15537E+04 3.19966E+05-4.38376E-10-9.54969E-11
 -1       635 5.41894E+05 1.97273E+05 2.10802E+04 3.27629E+05-6.51198E-10 1.26602E-09
 -1       636 5.27510E+05 2.01645E+05 9.91861E+03 3.31219E+05 9.36780E-11-2.31921E-11
 -1       637 5.37486E+05 1.91742E+05 5.95140E+03 3.29072E+05-5.86624E-11-7.77618E-10
 -1       638 5.27292E+05 2.01083E+05 4.67313E+03 3.31848E+05-1.23691E-10 6.79393E-10
 -1       639 5.37509E+05 1.91768E+05 6.17935E+03 3.29094E+05 2.67164E-10 1.04228E-09
 -1       640 5.27544E+05 2.01669E+05 1.04771E+04 3.31209E+05 1.40062E-10 6.79847E-10
 -1       641 5.42145E+05 1.97744E+05 2.23912E+04 3.27626E+05 6.09361E-11 3.92902E-10
 -1       642 5.33369E+05 2.14022E+05 4.41887E+04 3.19241E+05-2.47383E-10-3.58341E-10
 -1       643 1.03598E+06-1.23538E+04 5.20710E+04 4.68840E+03 2.36014E-10-1.10231E-09
 -1       644 1.05479E+06 1.67195E+04 3.54236E+04 1.98798E+04-1.86446E-10-2.14641E-09
 -1       645 1.04356E+06-1.50683E+03 1.82691E+04 4.71983E+03-2.26464E-10-2.19188E-10
 -1       646 1.04768E+06 4.21048E+03 1.86759E+04 1.98586E+04-1.13076E-10 8.29914E-10
 -1       647 1.04309E+06-2.11230E+03 2.34845E+04 4.70911E+03 6.61657E-11 8.74934E-10
 -1       648 1.05986E+06 2.52661E+04 5.18025E+04 1.99178E+04 2.36469E-11-6.12999E-10
 -1       649 1.03138E+06-1.88128E+04 7.85571E+04 4.66156E+03 2.34422E-10 4.40195E-10
 -1       650 6.93915E+04-1.29843E+06-1.67844E+05-2.37302E+03 5.82077E-11-2.29227E-09
 -1       651-8.96675E+04-1.37353E+06-1.35055E+05 9.13473E+03 9.82254E-10-1.22577E-09
 -1       652 1.98711E+04-1.32119E+06-7.79039E+04-3.05764E+03 6.98037E-10-1.26012E-09
 -1       653-8.30448E+04-1.37043E+06-1.26325E+05 8.99016E+03 2.25555E-10 3.04183E-10
 -1       654 6.27977E+04-1.30153E+06-1.52782E+05-2.22847E+03-6.47560E-10 1.93438E-10
 -1       655 4.78954E+05 1.67011E+05 1.60901E+04 2.82507E+05 3.18323E-10 6.87123E-10
 -1       656 4.89388E+05 1.53897E+05 8.26493E+03 2.83393E+05-2.16005E-10 9.27685E-11
 -1       657 4.76774E+05 1.62651E+05 4.06978E+03 2.86832E+05 2.15550E-10 1.19144E-10
 -1       658 4.87807E+05 1.51651E+05 2.78760E+03 2.83892E+05 1.27329E-10-6.45741E-11
 -1       659 4.76665E+05 1.62438E+05 2.76314E+03 2.87061E+05 2.43745E-10 1.80535E-10
 -1       660 4.87953E+05 1.51792E+05 4.38404E+03 2.83914E+05-3.09853E-10 4.69299E-10
 -1       661 4.76848E+05 1.62870E+05 7.98075E+03 2.86570E+05-1.48702E-10 9.03583E-10
 -1       662 4.91535E+05 1.56482E+05 1.74118E+04 2.82832E+05 5.45697E-12 1.22645E-09
 -1       663 4.81376E+05 1.72368E+05 3.44970E+04 2.77286E+05 1.80080E-10 1.00954E-09
 -1       664 5.31512E+05-3.17606E+03 3.26898E+04 1.01014E+04-1.62800E-10 4.91127E-11
 -1       665 5.41848E+05 7.34471E+03 2.05951E+04 2.21263E+04-8.29914E-12-4.08363E-10
 -1       666 5.35910E+05-3.28885E+02 1.05341E+04 1.00663E+04-7.86713E-11 8.05812E-10
 -1       667 5.37481E+05 1.09185E+03 9.32857E+03 2.21555E+04 4.57305E-10 1.09287E-09
 -1       668 5.35857E+05-3.57872E+02 1.13117E+04 1.00714E+04-2.83507E-11-2.39652E-10
 -1       669 5.42499E+05 8.26086E+03 2.29066E+04 2.21239E+04 5.27507E-11 2.61934E-10
 -1       670 5.30889E+05-3.56290E+03 3.66808E+04 1.00982E+04-1.02773E-10 6.23913E-10
 -1       671-9.51373E+03-5.22422E+05-7.45520E+04-9.59386E+02-9.09495E-11 1.58252E-10
 -1       672-1.02498E+04-5.41467E+05-4.88025E+04-1.30018E+03 1.29148E-10-5.08408E-10
 -1       673-2.38263E+02-5.29874E+05-3.70038E+04-9.21548E+02 8.82210E-11-3.00133E-10
 -1       674-1.17681E+04-5.42863E+05-5.37119E+04-1.37865E+03 3.13776E-11-4.01656E-10
 -1       675-1.10566E+04-5.21028E+05-8.53865E+04-8.85857E+02-3.27418E-11 4.37012E-10
 -1       676 2.59043E+05 1.36617E+05 2.03330E+04 1.77880E+05 9.04947E-11-2.97405E-10
 -1       677 2.60463E+05 1.32120E+05 1.03563E+04 1.82448E+05-3.94436E-10 9.59517E-11
 -1       678 2.56654E+05 1.31079E+05 4.87928E+03 1.83211E+05-1.40062E-10-7.77618E-11
 -1       679 2.58245E+05 1.29556E+05 2.93451E+03 1.83106E+05-1.16415E-10 7.84439E-10
 -1       680 2.56571E+05 1.30827E+05 2.31355E+03 1.83492E+05 3.04681E-11 8.44238E-10
 -1       681 2.58251E+05 1.29576E+05 3.06549E+03 1.83113E+05-2.36469E-11 6.92239E-10
 -1       682 2.56667E+05 1.31086E+05 5.19799E+03 1.83192E+05-2.12822E-10 6.63817E-10
 -1       683 2.60549E+05 1.32417E+05 1.11028E+04 1.82438E+05-2.38515E-10 7.62327E-10
 -1       684 2.59322E+05 1.36951E+05 2.18312E+04 1.77447E+05 2.81943E-11 3.95630E-10
 -1       685 3.87895E+05 1.49695E+04 2.55918E+04 2.50028E+04 5.91172E-11-1.32786E-10
 -1       686 3.92088E+05 4.90148E+03 1.30214E+04 2.81048E+04 2.75691E-10 4.12342E-10
 -1       687 3.89637E+05 9.20398E+02 6.50575E+03 2.49445E+04 5.79803E-11-1.69393E-10
 -1       688 3.90276E+05 4.51757E+02 4.70790E+03 2.81646E+04 1.60071E-10 1.36652E-10
 -1       689 3.89699E+05 6.12355E+02 5.06840E+03 2.49421E+04-4.02736E-11 4.43379E-10
 -1       690 3.91356E+05 3.25741E+03 9.01942E+03 2.81312E+04-1.85878E-11-2.69665E-10
 -1       691 3.88555E+05 9.95088E+03 1.71605E+04 2.49778E+04-2.00885E-10-1.95541E-10
 -1       692-1.71930E+04-1.40735E+05-3.21953E+04 2.87455E+04-9.09495E-11-3.98103E-10
 -1       693-5.85614E+03-1.46344E+05-1.88904E+04 3.27503E+04 1.65983E-11-7.48088E-10
 -1       694-1.98193E+03-1.42709E+05-1.41999E+04 2.87279E+04-1.72804E-11 2.16914E-10
 -1       695-6.37283E+03-1.46580E+05-2.00647E+04 3.27088E+04 6.27551E-11 8.84938E-10
 -1       696-1.88728E+04-1.40488E+05-3.50795E+04 2.87847E+04-1.54614E-11-4.36557E-11
 -1       697 1.90613E+05 1.24489E+05 1.59296E+04 1.56076E+05-1.47566E-10-2.69210E-10
 -1       698 1.82102E+05 1.43177E+05 9.67267E+03 1.59993E+05 1.27471E-10 3.48109E-10
 -1       699 1.92553E+05 1.26138E+05 4.22811E+03 1.56444E+05 3.69289E-09 5.44378E-09
 -1       700 1.79342E+05 1.40231E+05 2.50827E+03 1.60461E+05 6.44604E-11-6.97867E-10
 -1       701 1.92715E+05 1.26269E+05 1.67581E+03 1.56478E+05 5.17389E-10-3.93356E-11
 -1       702 1.79258E+05 1.40165E+05 1.92661E+03 1.60480E+05 1.17211E-10 3.89946E-11
 -1       703 1.92638E+05 1.26180E+05 2.87717E+03 1.56468E+05-8.23093E-11 1.68257E-10
 -1       704 1.81074E+05 1.42032E+05 6.32776E+03 1.60189E+05 4.59295E-11 4.88853E-11
 -1       705 1.91350E+05 1.25152E+05 1.03249E+04 1.56257E+05-3.88809E-11-5.00222E-10
 -1       706 5.79082E+05 1.44066E+04 3.64843E+04-7.70286E+03 9.67475E-11 1.28966E-09
 -1       707 5.86286E+05 4.87015E+03 1.94801E+04-9.39433E+03 2.22371E-10-2.60570E-10
 -1       708 5.82210E+05 3.71711E+02 1.02964E+04-7.70693E+03 1.03682E-10 2.00998E-10
 -1       709 5.83161E+05 2.66671E+02 8.35538E+03-9.38694E+03-2.39083E-10-4.46505E-10
 -1       710 5.82218E+05 3.57405E+02 1.01234E+04-7.70998E+03-9.00400E-11 1.61890E-10
 -1       711 5.86189E+05 4.73362E+03 1.89995E+04-9.34148E+03 1.84627E-10 4.86807E-10
 -1       712 5.79181E+05 1.40087E+04 3.55061E+04-7.75547E+03 2.43745E-10 2.00089E-10
 -1       713 6.27821E+03 7.07006E+04-1.49613E+04 6.94827E+02-2.54659E-10-6.00657E-10
 -1       714-8.08815E+03 6.39651E+04-1.20287E+04-2.99821E+03-4.38604E-10-3.22908E-11
 -1       715 1.79539E+03 6.86564E+04-6.84752E+03 6.92494E+02-1.75248E-10 2.39773E-11
 -1       716-7.31518E+03 6.43548E+04-1.10142E+04-3.04681E+03-2.77282E-10-9.09907E-10
 -1       717 5.50543E+03 7.03126E+04-1.32321E+04 7.43434E+02 4.80213E-10 2.77922E-10
 -1       718 1.20334E+05 1.97256E+04-8.90721E+03 6.17453E+04 9.50422E-11 3.95630E-11
 -1       719 1.26744E+05 1.36336E+04-4.53622E+03 5.78383E+04-8.09450E-11-3.56991E-10
 -1       720 1.20912E+05 2.15711E+04-1.91562E+03 5.98186E+04 1.01409E-10 3.29862E-10
 -1       721 1.27787E+05 1.46073E+04-7.24972E+02 5.76917E+04-1.35685E-10 6.13909E-11
 -1       722 1.20895E+05 2.16077E+04 1.47676E+02 5.97434E+04 2.95586E-11-2.44654E-10
 -1       723 1.27919E+05 1.47223E+04 1.10733E+03 5.77384E+04-2.70575E-11-2.17369E-10
 -1       724 1.20899E+05 2.16466E+04 2.55230E+03 5.96505E+04 2.04636E-11 3.41061E-10
 -1       725 1.29045E+05 1.62035E+04 5.88786E+03 5.76318E+04 4.91127E-11 7.04858E-10
 -1       726 1.21871E+05 2.38121E+04 1.14931E+04 5.71294E+04-3.73802E-10-1.81444E-10
 -1       727 3.27288E+05 6.11037E+03 9.23296E+03 3.53727E+04-2.21689E-12-4.32010E-11
 -1       728 3.28693E+05 2.08203E+03 4.13290E+03 3.92763E+04 8.37986E-10 4.15866E-10
 -1       729 3.27923E+05 4.41298E+02 1.02383E+03 3.53599E+04-7.18501E-10-5.69344E-10
 -1       730 3.27842E+05-1.55349E+02-1.18867E+03 3.92788E+04-2.21917E-10-1.81899E-10
 -1       731 3.28164E+05-9.69882E+02-3.95430E+03 3.53716E+04 1.54614E-11 1.01096E-10
 -1       732 3.26312E+05-4.45438E+03-9.74056E+03 3.91622E+04-4.23825E-10-5.35238E-10
 -1       733 3.29500E+05-1.31138E+04-2.02004E+04 3.54749E+04-2.09184E-11 3.43789E-10
 -1       734-2.02302E+04-1.27792E+05-3.94719E+04-7.80955E+03-9.38599E-10-4.28145E-10
 -1       735-6.60080E+03-1.34817E+05-2.11718E+04-8.93529E+03-3.38332E-10 2.96382E-10
 -1       736-1.39195E+03-1.30606E+05-1.23025E+04-7.76758E+03-1.08821E-09 4.58385E-10
 -1       737-3.08620E+03-1.32990E+05-1.25407E+04-8.99323E+03-4.66571E-10 4.82146E-10
 -1       738-8.75098E+03-1.29625E+05-1.83896E+04-7.75151E+03-1.22827E-09-3.54021E-10
 -1       739 2.08227E+05 6.19964E+04 3.02297E+03 1.18672E+05 2.43517E-10 1.82695E-10
 -1       740 2.20575E+05 4.99786E+04 1.66892E+03 1.15651E+05 5.84578E-10 1.67802E-10
 -1       741 2.08118E+05 6.17024E+04 8.53829E+02 1.19179E+05 6.40341E-11 3.00588E-10
 -1       742 2.20299E+05 4.95721E+04 6.46785E+02 1.15670E+05-7.53744E-10 2.62844E-10
 -1       743 2.08121E+05 6.16931E+04 7.23109E+02 1.19218E+05-8.77662E-10 3.27418E-10
 -1       744 2.20359E+05 4.96133E+04 1.22477E+03 1.15721E+05 8.96534E-10 3.20597E-10
 -1       745 2.08127E+05 6.16890E+04 2.24859E+03 1.19198E+05-4.32283E-09 2.54568E-09
 -1       746 2.21229E+05 5.09235E+04 4.95086E+03 1.15793E+05-1.13268E-08-2.61753E-09
 -1       747 2.08548E+05 6.25254E+04 9.21773E+03 1.17684E+05 1.99361E-09 2.57251E-09
 -1       748 3.55191E+06-1.06740E+05 2.78013E+05-5.53453E+03-6.74936E-09-8.62929E-09
 -1       749 3.66868E+06 1.27098E+05 1.99315E+05 9.08444E+04-1.95735E-09-1.28966E-09
 -1       750 3.59636E+06-1.72407E+04 8.84868E+04 2.76949E+03 8.37076E-09 3.99814E-09
 -1       751 3.62361E+06 3.50616E+04 8.47043E+04 8.02583E+04-5.20288E-10-4.98562E-09
 -1       752 3.59673E+06-1.66657E+04 8.62983E+04 5.04752E+03-2.18204E-08-9.12769E-09
 -1       753 3.66534E+06 1.22116E+05 1.91696E+05 8.11403E+04-3.43732E-08-1.33005E-08
 -1       754 3.55448E+06-1.02175E+05 2.66865E+05 1.88428E+03-1.60753E-09-6.73754E-09
 -1       755-4.02315E+03 8.19201E+05 3.13879E+04 1.09928E+04 2.96495E-10-2.03045E-10
 -1       756 8.28871E+03 8.29738E+05 2.53146E+04 2.77024E+04 3.95630E-10 1.51886E-10
 -1       757-1.12750E+03 8.22434E+05 2.24532E+04 1.09579E+04-3.18323E-12-3.26963E-10
 -1       758 1.55946E+04 8.34751E+05 4.06087E+04 2.77347E+04 1.32059E-09-3.25144E-10
 -1       759-8.42467E+03 8.14279E+05 6.15580E+04 1.09655E+04 4.58385E-10-1.73713E-10
 -1       760 1.09815E+06 6.07146E+05 1.12981E+05 8.49195E+05 1.72076E-09 1.48793E-09
 -1       761 1.14345E+06 6.75283E+05 7.49817E+04 8.37660E+05-1.90039E-09-5.63887E-10
 -1       762 1.11878E+06 6.31590E+05 3.18442E+04 8.44381E+05 3.50337E-09 3.36513E-10
 -1       763 1.11968E+06 6.45359E+05 2.23361E+04 8.44825E+05 9.83960E-10-4.40878E-10
 -1       764 1.12040E+06 6.34342E+05 1.80595E+04 8.44089E+05-6.41512E-09-1.79170E-09
 -1       765 1.12183E+06 6.46002E+05 2.79617E+04 8.44257E+05-7.72934E-09-3.31829E-09
 -1       766 1.11668E+06 6.31063E+05 4.39791E+04 8.44839E+05-7.08678E-09-2.58296E-09
 -1       767 1.15859E+06 6.87509E+05 1.07197E+05 8.33234E+05-1.01154E-08-7.22139E-09
 -1       768 1.08585E+06 5.96789E+05 1.62677E+05 8.52071E+05 7.42875E-09-3.63798E-10
 -1       769 6.17229E+05-8.32289E+02-2.42001E+03-1.05572E+04-5.08146E-09 1.07661E-10
 -1       770 6.16599E+05-4.41966E+02-2.49285E+02-1.43567E+04 6.59895E-09 1.14134E-10
 -1       771 6.16887E+05-1.25727E+02 1.99943E+03-1.05625E+04-7.15204E-09-9.41213E-10
 -1       772 6.17294E+05 8.15490E+01 5.29902E+03-1.43513E+04-7.77845E-10-3.53566E-11
 -1       773 6.16543E+05 1.78538E+02 1.09015E+04-1.05656E+04-1.52568E-09 2.31921E-11
 -1       774 6.22353E+05 5.72172E+03 2.45856E+04-1.42787E+04-2.37014E-09-6.36646E-10
 -1       775 6.11838E+05 1.21594E+04 4.64098E+04-1.06762E+04 3.14640E-09 5.83896E-10
 -1       776 1.81366E+05-3.94177E+06-4.30206E+05 7.96877E+03 9.92441E-09-2.96797E-09
 -1       777-2.33145E+05-4.13563E+06-3.45533E+05 8.31559E+03 1.54723E-08 7.05830E-09
 -1       778 5.13882E+04-4.00094E+06-1.95109E+05 7.08384E+03 1.08885E-08-1.31091E-09
 -1       779-2.07884E+05-4.12391E+06-3.12570E+05 8.30686E+03 1.27475E-08 1.35049E-09
 -1       780 1.56132E+05-3.95347E+06-3.73604E+05 7.97749E+03 6.81030E-09-3.60825E-09
 -1       781 4.70421E+04 2.18394E+04-5.48391E+04 1.88784E+04-2.34468E-09-1.75532E-09
 -1       782 4.33989E+04-2.45436E+04-3.50559E+04 1.80953E+04 1.62595E-09-5.33873E-10
 -1       783 3.75533E+04 1.15251E+04-1.39207E+04 2.04169E+04 4.62478E-09-6.28006E-10
 -1       784 5.50303E+04-1.12026E+04-7.29308E+03 1.50068E+04 5.18082E-09 5.40695E-10
 -1       785 3.64769E+04 1.03872E+04-2.36239E+03 2.05346E+04 1.18850E-08 1.78099E-09
 -1       786 5.67188E+04-9.35513E+03 8.30555E+02 1.47127E+04 5.61886E-09 1.74532E-09
 -1       787 3.60006E+04 9.88505E+03 3.97177E+03 2.05868E+04-6.86396E-09-1.37950E-09
 -1       788 6.07979E+04-4.59117E+03 1.16027E+04 1.37160E+04-7.62338E-09-3.79953E-09
 -1       789 3.28043E+04 6.26835E+03 1.85802E+04 2.11131E+04 2.76123E-09-5.59794E-10
 -1       790 4.11806E+05-1.89096E+03 2.51308E+04 5.40151E+04-1.05647E-08-1.00954E-09
 -1       791 4.19315E+05 6.04678E+03 1.60520E+04 1.11823E+05-8.76707E-09 6.56883E-10
 -1       792 4.14935E+05 8.51253E+01 8.79341E+03 5.38171E+04-1.21227E-08 5.60703E-10
 -1       793 4.15879E+05 1.69335E+03 8.71609E+03 1.12013E+05 5.41422E-09 1.86856E-09
 -1       794 4.14708E+05 3.14679E+01 1.16690E+04 5.38277E+04 1.08787E-08 1.27147E-09
 -1       795 4.21499E+05 9.37749E+03 2.45295E+04 1.11838E+05-1.07136E-08 1.55705E-09
 -1       796 4.09424E+05-2.96285E+03 3.99020E+04 5.39800E+04 7.73070E-09 1.34605E-09
 -1       797-2.53883E+04-2.19263E+05-4.02162E+04 1.57059E+05-3.53475E-09-1.58752E-09
 -1       798-9.10277E+03-2.25598E+05-2.03733E+04 1.75831E+05 4.22733E-09 3.15140E-10
 -1       799-2.73628E+03-2.21754E+05-1.01662E+04 1.57140E+05-4.05089E-09 2.51566E-09
 -1       800-2.83132E+03-2.22908E+05-7.56601E+03 1.75408E+05 2.68483E-09 5.67525E-10
 -1       801-5.21240E+03-2.21349E+05-8.52662E+03 1.57530E+05-6.02631E-09-1.38061E-09
 -1       802 6.80568E+05 3.70084E+05 8.45440E+04 5.37706E+05-1.48793E-09-3.11411E-09
 -1       803 7.22763E+05 4.38112E+05 5.97080E+04 5.21322E+05-9.87893E-09-3.39423E-09
 -1       804 6.99373E+05 3.94245E+05 2.35250E+04 5.30558E+05-6.15046E-09-2.83580E-09
 -1       805 7.01720E+05 4.10463E+05 1.73274E+04 5.29448E+05 2.43563E-09 2.66823E-10
 -1       806 7.01472E+05 3.97475E+05 1.23586E+04 5.29786E+05-3.92589E-09-1.84718E-09
 -1       807 7.02893E+05 4.10990E+05 1.96358E+04 5.29058E+05-1.49412E-08-1.56615E-09
 -1       808 6.98203E+05 3.93726E+05 2.81149E+04 5.30938E+05-3.41333E-09-3.98359E-10
 -1       809 7.29970E+05 4.44081E+05 7.27356E+04 5.18711E+05-2.11003E-10 2.95131E-09
 -1       810 6.74565E+05 3.64704E+05 1.03388E+05 5.39873E+05 2.11403E-08 3.31056E-09
 -1       811 1.41453E+03 4.99919E+02 8.15695E+02 4.34399E+04 1.06911E-08-2.07820E-09
 -1       812 1.50795E+03 3.81896E+02 6.30790E+02 5.23187E+04 1.32559E-08-3.52793E-09
 -1       813 1.41444E+03 2.39084E+02 7.02316E+02 4.32251E+04-5.58521E-09-4.27735E-09
 -1       814 1.45369E+03 3.61122E+02 1.21674E+03 5.25523E+04-8.03630E-09-2.99360E-09
 -1       815 1.31321E+03 3.85406E+02 2.26719E+03 4.32061E+04 9.45329E-09-3.01816E-09
 -1       816 2.32199E+03 1.65179E+03 4.97335E+03 5.25684E+04-1.25526E-08-2.92493E-09
 -1       817 4.51592E+02 4.15271E+03 9.66407E+03 4.31913E+04 9.35347E-09-3.78714E-09
 -1       818-9.20399E+03-2.14231E+05-2.23575E+04 1.59859E+05-2.20425E-08 2.11639E-09
 -1       819-3.90004E+03-2.18649E+05-1.28921E+04 1.95077E+05-1.73104E-08 4.79758E-09
 -1       820-1.19387E+03-2.16156E+05-8.61162E+03 1.59624E+05-2.11940E-08-1.07173E-09
 -1       821-3.19050E+03-2.18092E+05-1.06535E+04 1.95048E+05-1.26001E-08-1.14742E-08
 -1       822-7.07002E+03-2.14729E+05-1.70347E+04 1.59896E+05-1.73036E-08-8.82210E-09
 -1       823 3.47570E+05 1.88673E+05 5.09178E+04 2.78630E+05 1.51140E-08-3.23780E-10
 -1       824 3.79204E+05 2.25696E+05 3.62444E+04 2.66487E+05-2.53772E-09 4.12319E-09
 -1       825 3.59587E+05 2.03264E+05 1.40245E+04 2.73917E+05-1.22236E-08-2.54204E-09
 -1       826 3.65576E+05 2.09150E+05 1.02613E+04 2.71832E+05-1.26158E-09 3.88263E-09
 -1       827 3.61176E+05 2.05173E+05 6.90658E+03 2.73325E+05 1.56896E-09 5.48894E-10
 -1       828 3.65750E+05 2.09297E+05 1.06748E+04 2.71772E+05-3.50809E-09 3.12423E-09
 -1       829 3.59413E+05 2.03116E+05 1.48346E+04 2.73977E+05-5.88534E-09-2.61161E-09
 -1       830 3.80372E+05 2.26942E+05 3.85708E+04 2.66046E+05-2.02067E-09-5.56975E-09
 -1       831 3.46579E+05 1.87577E+05 5.42484E+04 2.79008E+05-7.46513E-09 8.65839E-10
 -1       832 3.56455E+04-1.05825E+06-9.19211E+04-2.29532E+03 1.24455E-08-1.09117E-09
 -1       833-4.70752E+04-1.09811E+06-7.44002E+04 4.17084E+04-5.19140E-09 2.77009E-09
 -1       834 1.04962E+04-1.07016E+06-4.57261E+04-3.28743E+03 1.58450E-08 4.03608E-09
 -1       835-4.88206E+04-1.09902E+06-7.67952E+04 4.22063E+04-3.39060E-09 8.19966E-10
 -1       836 3.73823E+04-1.05736E+06-9.60650E+04-2.79294E+03 1.26820E-08-3.88923E-09
 -1       837-1.33028E+06 4.61811E+04-1.13373E+05 4.21570E+02-6.73595E-12 6.11180E-10
 -1       838-1.37859E+06-5.47600E+04-8.25552E+04 3.23315E+03-1.27216E-10 8.86757E-10
 -1       839-1.34828E+06 8.00454E+03-3.67396E+04-1.67008E+02-2.85013E-10 5.18412E-10
 -1       840-1.36078E+06-1.65972E+04-3.69936E+04 4.17054E+03 3.32314E-10-3.66811E-10
 -1       841-1.34806E+06 8.43254E+03-3.83165E+04-5.15543E+02-6.55120E-11 5.01132E-10
 -1       842-1.38042E+06-5.85660E+04-8.79642E+04 4.58009E+03 7.57360E-10 1.06047E-09
 -1       843-1.32867E+06 4.95224E+04-1.21404E+05-5.76634E+02 2.07077E-10 5.23869E-10
 -1       844-3.46845E+03-1.49372E+05-5.52053E+03 6.10254E+04-7.82165E-11 4.36557E-10
 -1       845-8.95004E+02-1.50238E+05-1.42713E+03 6.88673E+04-1.96451E-10 4.43833E-10
 -1       846 4.17604E+02-1.49939E+05 1.99433E+03 6.09200E+04 7.23048E-11-1.16233E-09
 -1       847 2.94517E+03-1.48583E+05 6.90282E+03 6.89149E+04 8.18545E-11-1.00006E-09
 -1       848 8.96414E+03-1.51053E+05 1.50094E+04 6.09661E+04-3.00133E-11-1.14312E-09
 -1       849 2.99812E+04 4.77251E+04 1.71688E+04 3.12521E+04 2.77396E-11 1.65528E-10
 -1       850 2.74458E+04 4.54224E+04 8.59481E+03 3.65293E+04 8.45830E-11 2.95586E-10
 -1       851 2.69810E+04 4.13062E+04 4.17300E+03 3.67561E+04 3.86535E-11-5.65251E-10
 -1       852 2.53070E+04 4.27905E+04 2.80544E+03 3.77361E+04 4.37922E-10-8.80618E-10
 -1       853 2.67638E+04 4.08205E+04 2.73827E+03 3.71702E+04 2.49656E-10-8.98126E-11
 -1       854 2.55119E+04 4.30723E+04 4.39228E+03 3.76627E+04 6.50289E-11-2.31637E-11
 -1       855 2.72548E+04 4.18920E+04 8.09362E+03 3.61646E+04 8.91305E-11 6.11635E-11
 -1       856 2.98662E+04 4.89225E+04 1.78329E+04 3.51874E+04 3.36513E-11-3.18323E-12
 -1       857 3.37850E+04 5.52390E+04 3.61977E+04 2.44474E+04 6.91216E-11 9.45874E-11
 -1       858-2.69261E+01-2.60205E+00-1.41914E+00 5.21060E+01-2.08097E-08 5.47740E-09
 -1       859-2.70017E+01-2.48258E+00-7.44869E-01 5.21013E+01-4.13468E-08-6.07991E-08
 -1       860-2.69504E+01-2.40692E+00-4.19283E-01 5.21060E+01-6.72796E-08-3.75333E-09
 -1       861-2.69775E+01-2.39671E+00-3.39694E-01 5.21013E+01-9.34004E-08-3.81089E-08
 -1       862-2.69495E+01-2.40669E+00-4.19060E-01 5.21060E+01-1.05079E-07 4.58510E-08
 -1       863-2.69989E+01-2.48187E+00-7.44155E-01 5.21013E+01-1.16386E-07-3.11449E-08
 -1       864-2.69213E+01-2.60084E+00-1.41793E+00 5.21060E+01-5.82281E-08-1.15825E-08
 -1       865 3.25618E+04-8.82575E+05-8.25834E+04-8.77653E+03 3.05590E-10 5.36829E-10
 -1       866-4.11290E+04-9.18157E+05-6.38382E+04 5.32345E+04 4.44743E-10 4.18169E-10
 -1       867 8.03819E+03-8.94081E+05-3.46140E+04-9.83060E+03 9.68612E-10-1.14059E-09
 -1       868-3.14958E+04-9.13641E+05-5.08051E+04 5.35331E+04 1.34241E-09-2.35377E-09
 -1       869 2.30890E+04-8.87114E+05-5.98256E+04-9.07510E+03 1.12414E-09-2.14663E-09
 -1       870 1.68572E+05 8.99159E+04 2.50146E+04 1.24965E+05 2.22826E-10 7.09406E-11
 -1       871 1.78719E+05 9.45046E+04 1.51457E+04 1.24535E+05 1.93950E-10-1.49157E-10
 -1       872 1.71271E+05 9.21369E+04 6.94320E+03 1.25836E+05 1.40062E-10 1.89857E-10
 -1       873 1.74668E+05 9.00644E+04 4.61413E+03 1.25152E+05 4.09784E-10-5.76790E-10
 -1       874 1.71463E+05 9.22945E+04 4.02847E+03 1.25893E+05 5.18519E-10-6.61203E-10
 -1       875 1.74841E+05 9.02394E+04 5.99426E+03 1.25152E+05-1.43729E-10-6.00267E-10
 -1       876 1.71128E+05 9.20157E+04 1.01630E+04 1.25794E+05 2.07592E-10 3.05590E-10
 -1       877 1.81138E+05 9.71078E+04 2.30756E+04 1.24212E+05 3.53566E-10-3.28328E-10
 -1       878 1.66949E+05 8.85994E+04 3.84400E+04 1.24454E+05-3.78623E-09-5.94991E-09
 -1       879 1.44247E+05 2.92225E+02 1.38357E+04 3.19318E+02-7.06564E-10-8.45830E-11
 -1       880 1.48210E+05 2.39845E+03 7.60615E+03 5.16308E+02 2.73303E-10 4.15753E-10
 -1       881 1.46037E+05-1.57257E+01 2.56987E+03 3.04168E+02 3.50724E-10 2.90356E-10
 -1       882 1.46140E+05-1.21419E+01-1.75103E+02 5.31137E+02 1.26761E-10 2.48690E-10
 -1       883 1.46318E+05 1.85169E+01-2.98902E+03 3.04005E+02 3.32989E-10-5.68434E-12
 -1       884 1.43902E+05-2.62986E+03-8.41796E+03 5.43150E+02 2.59206E-10-8.01492E-11
 -1       885 1.48276E+05-3.20340E+02-1.51906E+04 2.92130E+02 6.13682E-10-2.97405E-10
 -1       886-1.12286E+03-2.52798E+04-2.12798E+03 8.87310E+04-2.84672E-10-1.40972E-10
 -1       887-2.44445E+02-2.57009E+04-1.07713E+01 1.05669E+05-3.26509E-10 1.48475E-10
 -1       888 2.11989E+02-2.56345E+04 2.13384E+03 8.85690E+04 1.33241E-10-4.65207E-10
 -1       889 1.80237E+03-2.43769E+04 5.84818E+03 1.05705E+05 2.27374E-12 1.00044E-11
 -1       890 5.34605E+03-2.66412E+04 1.19688E+04 8.86936E+04 6.36646E-11-1.35515E-09
 -1       891 1.58551E+05 8.61611E+04 2.34191E+04 1.22025E+05-2.71939E-10 5.51154E-10
 -1       892 1.69386E+05 9.54967E+04 1.50468E+04 1.19904E+05 3.03532E-09 3.80123E-09
 -1       893 1.62361E+05 9.02427E+04 6.53910E+03 1.21564E+05-2.05546E-10-6.14364E-10
 -1       894 1.64719E+05 9.01341E+04 4.40928E+03 1.21090E+05-1.77693E-10-3.14571E-10
 -1       895 1.62697E+05 9.05960E+04 3.57310E+03 1.21535E+05 2.07137E-10 9.62189E-10
 -1       896 1.64891E+05 9.03204E+04 5.30082E+03 1.21062E+05-6.71065E-10 3.56522E-10
 -1       897 1.62203E+05 9.00818E+04 8.52332E+03 1.21573E+05 1.04819E-10 3.85853E-10
 -1       898 1.71241E+05 9.76082E+04 2.01713E+04 1.19460E+05-1.59889E-09-2.35400E-09
 -1       899 1.57052E+05 8.45637E+04 3.15721E+04 1.22195E+05 1.00954E-10 4.60204E-10
 -1       900 2.72633E+05-2.28093E+03-3.68475E+03 1.27712E+05 1.58252E-10-1.49157E-10
 -1       901 2.71967E+05-7.16362E+02-1.88667E+03 1.41966E+05-1.25692E-09-5.33873E-10
 -1       902 2.72300E+05-1.03966E+02-9.96796E+02 1.27479E+05-1.78170E-09-4.59295E-10
 -1       903 2.72135E+05-1.74460E+01-8.24466E+02 1.42202E+05-6.35509E-10 9.71340E-10
 -1       904 2.72292E+05-1.09706E+02-1.04141E+03 1.27476E+05 4.21551E-10 3.82897E-10
 -1       905 2.71922E+05-7.61362E+02-2.01163E+03 1.41996E+05 2.51475E-10 1.63709E-10
 -1       906 2.72623E+05-2.43390E+03-3.94845E+03 1.27685E+05 3.12866E-10 2.13731E-10
 -1       907-1.54335E+04-9.91590E+04-4.18085E+04 7.03861E+04-1.00044E-10-4.87671E-09
 -1       908-5.44145E+03-1.07763E+05-2.16762E+04 8.65870E+04-1.52966E-10-9.84619E-09
 -1       909-3.95784E+02-1.02977E+05-9.90517E+03 7.02250E+04-3.33785E-10-5.12705E-09
 -1       910-2.96227E+02-1.03859E+05-5.40963E+03 8.66609E+04-1.55524E-10 8.82366E-10
 -1       911-4.70363E+02-1.03134E+05-3.26536E+03 7.03132E+04-7.95808E-13-3.65844E-10
 -1       912 2.45503E+05 1.39311E+05 7.89909E+03 1.80594E+05 8.09246E-09 1.07984E-08
 -1       913 2.45420E+05 1.37903E+05 4.03970E+03 1.82580E+05-9.49285E-12 5.35294E-10
 -1       914 2.44452E+05 1.36969E+05 1.99187E+03 1.82781E+05 3.96618E-10-3.44244E-10
 -1       915 2.44552E+05 1.36864E+05 1.37205E+03 1.82901E+05 4.50882E-10-1.12448E-09
 -1       916 2.44399E+05 1.36842E+05 1.37472E+03 1.82905E+05 1.41995E-10 3.00986E-10
 -1       917 2.44629E+05 1.36944E+05 2.20122E+03 1.82903E+05-1.09651E-10-4.35211E-10
 -1       918 2.44496E+05 1.37105E+05 4.02578E+03 1.82617E+05 1.50294E-10-3.98813E-10
 -1       919 2.46558E+05 1.39293E+05 8.80187E+03 1.82219E+05-4.95788E-10-2.11344E-10
 -1       920 2.46852E+05 1.42285E+05 1.75239E+04 1.77741E+05 1.75532E-10-1.28239E-10
 -1       921 4.35361E+05 3.53000E+03 1.31040E+04 2.76518E+04-2.21007E-10 2.44654E-10
 -1       922 4.38235E+05 1.59559E+03 7.51337E+03 3.59539E+04-2.56250E-10 6.08054E-10
 -1       923 4.36605E+05 3.88801E+01 4.54843E+03 2.75704E+04 1.33014E-10-3.62320E-10
 -1       924 4.37063E+05 1.39499E+02 4.70232E+03 3.60354E+04 4.34966E-10-1.34150E-10
 -1       925 4.36512E+05 1.27567E+02 6.90440E+03 2.75701E+04-1.79625E-11-1.18234E-10
 -1       926 4.39738E+05 3.23382E+03 1.40809E+04 3.59605E+04 1.39721E-10-4.71573E-10
 -1       927 4.33942E+05 7.15465E+03 2.60654E+04 2.76453E+04 4.72937E-11 4.50200E-10
 -1       928 7.72790E+03-5.66734E+05-8.69958E+04 9.39858E+03 3.63798E-12-5.78211E-10
 -1       929-1.97736E+04-5.94431E+05-5.96670E+04 2.03022E+04 5.04770E-11 1.12433E-09
 -1       930 1.32965E+03-5.77307E+05-3.97719E+04 9.36459E+03 3.87672E-10 1.18199E-09
 -1       931-1.79267E+04-5.93096E+05-5.54722E+04 2.03026E+04 5.04315E-10 5.83213E-11
 -1       932 6.91982E+03-5.68069E+05-7.85485E+04 9.39824E+03 2.47383E-10-1.31513E-09
 -1       933 4.37546E+05 2.11914E+05 3.41289E+04 2.86080E+05 7.73070E-11-4.75211E-10
 -1       934 4.40492E+05 2.02253E+05 1.70690E+04 2.93828E+05 2.81943E-10-9.64974E-10
 -1       935 4.32724E+05 2.01681E+05 7.72089E+03 2.95735E+05 1.46429E-10-3.26281E-10
 -1       936 4.36791E+05 1.97519E+05 4.06009E+03 2.95193E+05-3.95630E-10-1.20991E-10
 -1       937 4.32512E+05 2.01148E+05 2.24140E+03 2.96321E+05-7.04858E-11 1.97360E-10
 -1       938 4.36568E+05 1.97285E+05 1.76992E+03 2.95187E+05 9.77707E-11-4.47301E-10
 -1       939 4.32580E+05 2.01277E+05 2.10286E+03 2.96203E+05-6.11635E-11-2.30330E-10
 -1       940 4.37331E+05 1.98320E+05 3.90794E+03 2.94869E+05 1.67574E-10-1.49839E-10
 -1       941 4.33649E+05 2.03496E+05 7.47863E+03 2.94100E+05 6.32099E-11-2.89901E-10
 -1       942 2.64091E+05 5.23975E+03 9.18532E+03 1.55658E+05-1.76897E-10 8.85393E-10
 -1       943 2.65584E+05 1.77109E+03 4.69250E+03 1.76675E+05 6.05667E-10 3.65617E-10
 -1       944 2.64722E+05 3.56985E+02 2.33888E+03 1.55494E+05-1.86901E-10-2.65572E-10
 -1       945 2.64989E+05 1.89145E+02 1.67956E+03 1.76810E+05 8.45830E-11 1.36424E-10
 -1       946 2.64894E+05 1.58156E+02 1.76989E+03 1.55524E+05 2.34650E-10 5.04770E-10
 -1       947 2.65634E+05 9.81990E+02 3.12068E+03 1.76344E+05-2.01908E-10 3.26509E-10
 -1       948 2.64782E+05 3.11078E+03 5.86883E+03 1.55962E+05-5.27507E-11-1.07502E-09
 -1       949-1.63881E+04-4.47309E+05-6.77719E+04 7.10642E+04 2.18279E-11 3.97449E-10
 -1       950-8.22090E+03-4.62759E+05-4.52306E+04 9.35446E+04-8.64020E-11-1.52795E-10
 -1       951-7.68807E+02-4.53070E+05-3.88099E+04 7.08751E+04-2.44654E-10-5.97538E-10
 -1       952-1.28708E+04-4.66994E+05-6.12108E+04 9.36346E+04 1.00044E-11-2.24759E-10
 -1       953-2.64000E+04-4.43174E+05-1.04515E+05 7.09820E+04 9.82254E-11-3.85626E-10
 -1       954 1.05915E+06 5.78822E+05 1.38652E+05 8.24992E+05-1.64073E-09-4.94765E-10
 -1       955 1.12252E+06 6.58638E+05 9.22644E+04 8.07682E+05 2.31921E-10-2.80124E-10
 -1       956 1.08582E+06 6.09179E+05 3.83188E+04 8.18251E+05-1.25510E-10-1.27511E-09
 -1       957 1.09124E+06 6.22277E+05 2.58229E+04 8.17371E+05-1.44837E-10-1.14846E-09
 -1       958 1.08876E+06 6.12183E+05 1.88688E+04 8.17599E+05 2.83649E-11-1.58366E-10
 -1       959 1.09121E+06 6.22933E+05 2.70010E+04 8.17399E+05-4.79076E-10-7.91260E-10
 -1       960 1.08587E+06 6.08545E+05 4.08382E+04 8.18209E+05 2.14641E-10-1.17871E-09
 -1       961 1.12422E+06 6.62785E+05 9.90011E+04 8.07181E+05 6.36646E-10-2.45564E-11
 -1       962 1.05754E+06 5.75563E+05 1.48973E+05 8.25357E+05-8.11269E-10 5.82077E-11
 -1       963 2.15137E+05-2.23436E+02 7.19314E+02-7.97053E+02 1.14255E-11 6.31204E-10
 -1       964 2.15471E+05 3.89878E+02 9.42405E+02 5.87085E+03 3.19886E-10 9.47296E-11
 -1       965 2.15160E+05-1.65362E+02 1.20665E+03-7.13858E+02 1.59275E-10 2.00941E-10
 -1       966 2.15843E+05 1.12855E+03 2.69039E+03 5.73486E+03-2.57288E-10-4.27463E-11
 -1       967 2.14758E+05-9.44225E+02 4.31715E+03-6.61057E+02 2.77652E-10 1.99861E-10
 -1       968 2.18954E+05 7.60213E+03 1.14797E+04 5.66066E+03 9.09985E-10-2.84444E-10
 -1       969 2.12045E+05-6.50480E+03 1.65365E+04-6.39685E+02 5.07505E-10-2.65572E-10
 -1       970-1.57618E+03 1.82156E+05-2.47757E+03 2.25596E+05 3.01952E-10-9.71340E-10
 -1       971-3.25289E+01 1.81618E+05-1.37199E+02 2.50830E+05 1.14051E-09 1.16506E-09
 -1       972 8.44438E+02 1.81581E+05 2.08368E+03 2.25218E+05 4.39286E-10 1.76442E-10
 -1       973 3.11939E+03 1.82586E+05 5.87252E+03 2.51059E+05 1.48066E-09 2.46246E-10
 -1       974 8.32567E+03 1.80721E+05 1.24306E+04 2.25358E+05 2.79215E-10-7.53971E-10
 -1       975 9.64191E+04 2.89390E+04-8.02483E+03 5.79878E+04-4.68845E-10 1.28466E-10
 -1       976 1.00399E+05 2.45488E+04-3.66512E+03 5.51003E+04-5.80485E-10-3.41061E-10
 -1       977 9.67689E+04 3.01009E+04-5.02591E+02 5.64570E+04-1.82808E-10 7.09406E-11
 -1       978 1.01356E+05 2.55778E+04 2.02551E+03 5.51306E+04-9.43828E-10 9.42009E-10
 -1       979 9.66617E+04 3.00147E+04 5.48783E+03 5.64119E+04 5.02041E-10 3.46972E-10
 -1       980 1.02056E+05 2.61606E+04 1.21420E+04 5.53748E+04-1.78261E-10 1.55978E-10
 -1       981 9.64917E+04 3.02303E+04 2.40990E+04 5.57195E+04-3.45608E-11 6.51880E-10
 -1       982 1.13259E+05 3.81504E+04 5.38079E+04 5.46360E+04 1.05501E-10 9.23137E-10
 -1       983 1.00840E+05 4.52736E+04 1.02256E+05 3.67551E+04-1.67347E-10-7.27596E-12
 -1       984 1.05659E+05 4.32495E+03 7.98217E+03-6.99016E+04-4.69299E-10-6.87578E-10
 -1       985 1.07060E+05 1.36029E+03 3.83066E+03-8.03242E+04 8.49923E-10 5.80258E-10
 -1       986 1.06305E+05 1.73904E+02 1.40215E+03-6.99162E+04-7.83984E-10 5.72982E-11
 -1       987 1.06413E+05-7.44480E+01 6.84246E+01-8.02742E+04-5.38421E-10 1.96451E-10
 -1       988 1.06498E+05-3.16038E+02-1.24164E+03-6.99508E+04 1.27329E-11 5.36602E-11
 -1       989 1.05852E+05-1.43233E+03-3.51709E+03-7.99413E+04-2.43290E-09 4.11092E-10
 -1       990 1.07163E+05-4.18818E+03-7.39174E+03-7.02435E+04 8.03993E-10 1.22236E-09
 -1       996 1.75320E+04-1.08055E+04-2.16212E+03 9.70893E+02-9.49285E-12-7.67614E-10
 -1       997 1.92149E+04-1.18319E+04-7.76505E+02-1.05887E+02 3.64480E-10-6.73936E-10
 -1       998 1.79871E+04-1.00470E+04 2.24683E+02 2.29644E+02 9.06766E-10 5.22959E-11
 -1       999 1.94834E+04-1.13546E+04 1.26473E+03-2.06194E+02-1.34469E-09 8.59472E-11
 -1      1000 1.80344E+04-9.92973E+03 2.88391E+03 7.25414E+01 1.35933E-08 2.19288E-08
 -1      1001 2.01608E+04-1.05069E+04 6.30928E+03-4.00660E+02-2.47746E-09-4.72937E-11
 -1      1002 1.88097E+04-8.25305E+03 1.26721E+04-1.53996E+03-5.12046E-10-7.20320E-10
 -1      1003 2.70715E+04-1.09440E+03 2.85474E+04-4.21938E+03 1.57252E-09-2.29988E-10
 -1      1004 2.93038E+04 1.28579E+04 5.81892E+04-2.02719E+04 4.65661E-10-6.38465E-10
 -1      1005-8.34652E+04-1.59757E+04-2.78467E+04-3.81797E+04-6.71935E-09 4.38376E-10
 -1      1006-8.80561E+04-5.32486E+03-1.39547E+04-4.40553E+04-1.75351E-09-5.81508E-10
 -1      1007-8.53449E+04-1.11939E+03-6.48996E+03-3.84498E+04 4.52565E-09-9.34506E-10
 -1      1008-8.58271E+04-5.64359E+02-3.77124E+03-4.37160E+04-2.54840E-09-1.84923E-09
 -1      1009-8.54181E+04-4.52182E+02-2.79519E+03-3.85276E+04-9.20045E-09-1.38775E-09
 -1      1010-8.59502E+04-1.37924E+03-3.66266E+03-4.32262E+04-1.57961E-08 1.72804E-11
 -1      1011-8.49473E+04-3.66408E+03-6.23563E+03-3.89291E+04-7.46877E-09-1.78261E-10
 -1      1012-3.69127E+03 5.54524E+04-9.78536E+03 1.16181E+05-8.65839E-10-1.53705E-10
 -1      1013-1.47563E+03 5.32207E+04 2.35922E+02 1.51022E+05-1.28784E-09-3.15140E-10
 -1      1014 1.72258E+02 5.36368E+04 1.09497E+04 1.15897E+05-5.61045E-10 1.10731E-09
 -1      1015 7.23333E+03 6.07844E+04 2.97694E+04 1.51127E+05-1.24044E-09 6.06292E-10
 -1      1016 1.63604E+04 4.76915E+04 5.85437E+04 1.16095E+05-7.45786E-10 4.89763E-10
 -1      1017 1.56323E+05 1.91464E+05 1.73739E+04 1.74229E+05 1.98361E-09-1.73532E-09
 -1      1018 1.49212E+05 1.93671E+05 8.91930E+03 1.80838E+05 7.71661E-09 6.11635E-09
 -1      1019 1.53354E+05 1.84863E+05 4.75963E+03 1.79718E+05 1.72804E-09-4.39286E-10
 -1      1020 1.46942E+05 1.91177E+05 4.00088E+03 1.82080E+05-2.35241E-09 8.01094E-10
 -1      1021 1.53143E+05 1.84420E+05 5.09020E+03 1.80026E+05 1.71985E-09-6.39830E-10
 -1      1022 1.47672E+05 1.92112E+05 9.37772E+03 1.81806E+05-6.12272E-09-2.29466E-09
 -1      1023 1.54260E+05 1.86899E+05 1.80436E+04 1.77681E+05-5.59976E-09-2.22735E-09
 -1      1024 1.57694E+05 2.05291E+05 4.02173E+04 1.76126E+05-7.04540E-09-1.73895E-09
 -1      1025 1.69089E+05 2.17217E+05 8.18743E+04 1.51113E+05 1.10231E-09 2.35741E-09
 -1      1026-1.88038E+05-6.34798E+03-1.66679E+04 2.51123E+05-5.04951E-09-4.11092E-09
 -1      1027-1.91836E+05-8.58123E+02-8.48735E+03 2.98519E+05 1.02063E-08-3.38150E-09
 -1      1028-1.90310E+05 1.16159E+03-3.95801E+03 2.50345E+05-1.12304E-08-4.28372E-09
 -1      1029-1.91158E+05 1.82606E+03-2.25882E+03 2.99310E+05 4.58385E-10-1.36424E-09
 -1      1030-1.90745E+05 1.60209E+03-1.62924E+03 2.50309E+05 1.29148E-10-4.02724E-09
 -1      1031-1.91356E+05 1.49159E+03-2.05890E+03 2.98916E+05-6.73026E-10-1.14960E-09
 -1      1032-1.90242E+05 7.54197E+01-3.42944E+03 2.50742E+05 5.00586E-09-4.61841E-09
 -1      1033-1.55229E+04-5.54339E+05-5.41152E+04 2.63936E+05 3.34694E-10 7.63976E-11
 -1      1034-7.51561E+03-5.66786E+05-2.97669E+04 3.44944E+05 1.26238E-09-3.00133E-10
 -1      1035-8.16185E+02-5.60677E+05-1.57284E+04 2.63206E+05-3.45608E-10-4.98403E-10
 -1      1036-2.30760E+03-5.63282E+05-1.33143E+04 3.45410E+05 2.55022E-09 6.63022E-10
 -1      1037-4.06541E+03-5.59732E+05-1.60806E+04 2.63517E+05 2.98314E-10 1.20963E-09
 -1      1038 1.74195E+05 1.97551E+05 4.00059E+04 1.80553E+05 2.06410E-09 1.08048E-09
 -1      1039 1.63543E+05 2.05886E+05 2.08873E+04 1.92757E+05-1.15733E-08-4.84943E-09
 -1      1040 1.71214E+05 1.88704E+05 1.00416E+04 1.89345E+05-4.26735E-09-1.70985E-09
 -1      1041 1.58808E+05 2.01597E+05 6.42373E+03 1.93474E+05-3.97995E-09 3.60615E-10
 -1      1042 1.71119E+05 1.88394E+05 5.65366E+03 1.89622E+05-2.80124E-09 3.37332E-09
 -1      1043 1.58855E+05 2.01730E+05 8.20442E+03 1.93420E+05 1.35333E-09 8.11724E-11
 -1      1044 1.71145E+05 1.88788E+05 1.43988E+04 1.88983E+05 4.10364E-09-2.77782E-09
 -1      1045 1.65252E+05 2.08770E+05 3.10270E+04 1.92302E+05-4.65661E-10-6.86487E-09
 -1      1046 1.76085E+05 2.01442E+05 5.99638E+04 1.75415E+05 4.96584E-09-1.12959E-09
 -1      1047-1.13985E+05 2.40211E+03 4.52067E+03 1.20104E+05-1.65546E-08-4.92946E-10
 -1      1048-1.13298E+05 1.50412E+03 2.22684E+03 1.46845E+05-1.40171E-08-4.79668E-09
 -1      1049-1.13744E+05 8.10555E+02 7.64281E+02 1.19778E+05-7.31507E-09-1.09503E-09
 -1      1050-1.13917E+05 9.57470E+02-8.82541E+01 1.47179E+05 8.10473E-10-2.94222E-09
 -1      1051-1.13698E+05 7.04185E+02-9.95351E+02 1.19775E+05 6.05905E-09-4.82032E-10
 -1      1052-1.14400E+05 2.00104E+02-2.66660E+03 1.46898E+05-4.51473E-09-2.43836E-09
 -1      1053-1.13077E+05-1.38339E+03-5.39597E+03 1.20068E+05 6.29461E-09-1.13505E-09
 -1      1054 1.69539E+03-4.47399E+05-2.87231E+04 5.58571E+04-1.74641E-08 2.84672E-10
 -1      1055-6.71958E+03-4.56064E+05-1.92048E+04 1.13316E+05-3.05007E-08-6.76437E-11
 -1      1056 6.59934E+01-4.50928E+05-1.23260E+04 5.57319E+04-1.81844E-08 2.42244E-09
 -1      1057-5.52417E+03-4.55020E+05-1.62696E+04 1.13204E+05-2.37615E-08-5.45697E-10
 -1      1058 1.15604E+03-4.48223E+05-2.27834E+04 5.59684E+04-1.96642E-08 1.49157E-09
 -1      1059 3.42520E+05 1.86582E+05 6.51653E+04 2.74249E+05-2.24827E-09-5.74437E-09
 -1      1060 3.71479E+05 2.28637E+05 4.38742E+04 2.65574E+05-3.05954E-09-1.90494E-09
 -1      1061 3.55542E+05 2.01815E+05 1.79457E+04 2.70532E+05-7.37646E-09 5.28871E-09
 -1      1062 3.56412E+05 2.10608E+05 1.21451E+04 2.70487E+05-1.67116E-08-4.87489E-10
 -1      1063 3.56960E+05 2.03506E+05 8.59942E+03 2.70173E+05 5.33203E-09 2.21512E-09
 -1      1064 3.56479E+05 2.10583E+05 1.22196E+04 2.70467E+05-3.65219E-09 1.85537E-09
 -1      1065 3.55476E+05 2.01841E+05 1.81034E+04 2.70549E+05 1.31790E-08 1.96860E-09
 -1      1066 3.71791E+05 2.28703E+05 4.42996E+04 2.65475E+05 1.06375E-08 8.82937E-09
 -1      1067 3.42280E+05 1.86502E+05 6.58107E+04 2.74316E+05 6.65023E-09 3.70346E-09
 -1      1068 1.21360E+04 4.45407E+03 7.72917E+03 4.58884E+04 6.34009E-09-5.30235E-10
 -1      1069 1.34210E+04 1.65259E+03 3.97705E+03 5.23414E+04 2.43565E-08 2.28738E-10
 -1      1070 1.26766E+04 4.85424E+02 2.02532E+03 4.58054E+04 3.89923E-09-1.92358E-10
 -1      1071 1.28420E+04 4.21724E+02 1.52884E+03 5.24395E+04-1.00407E-09 5.82986E-10
 -1      1072 1.26885E+04 4.34163E+02 1.72621E+03 4.58049E+04 2.03754E-08-1.29376E-09
 -1      1073 1.32618E+04 1.34322E+03 3.14474E+03 5.23502E+04 1.51513E-08-3.17414E-10
 -1      1074 1.22767E+04 3.49198E+03 5.98664E+03 4.58837E+04 1.90826E-08-9.86233E-10
 -1      1075-2.30391E+03-1.67128E+05-1.07480E+04 8.97591E+04 6.42285E-09-9.05857E-10
 -1      1076-2.07396E+03-1.69622E+05-5.88101E+03 1.27453E+05 1.69821E-08 6.76437E-11
 -1      1077-4.88686E+02-1.68361E+05-2.65932E+03 8.95950E+04 1.42763E-08 3.45608E-11
 -1      1078-7.72853E+02-1.68333E+05-1.45655E+03 1.27379E+05 2.82425E-08 1.51704E-09
 -1      1079-6.01980E+02-1.68285E+05-8.71588E+02 8.98415E+04 1.37129E-08 4.99040E-09
 -1      1080 1.64450E+05 9.15524E+04 3.00791E+04 1.30921E+05-3.80624E-09-6.39375E-10
 -1      1081 1.74548E+05 1.10696E+05 1.97286E+04 1.28598E+05 7.97854E-09-1.87174E-09
 -1      1082 1.69928E+05 9.76922E+04 8.24227E+03 1.29756E+05-9.54901E-09-1.52590E-09
 -1      1083 1.68042E+05 1.03117E+05 5.39031E+03 1.30483E+05-3.30954E-09-2.64228E-09
 -1      1084 1.70487E+05 9.83053E+04 3.83420E+03 1.29659E+05-3.13194E-09 4.15710E-09
 -1      1085 1.68000E+05 1.03078E+05 5.22130E+03 1.30493E+05-7.09221E-10 5.57117E-09
 -1      1086 1.69968E+05 9.77267E+04 7.87496E+03 1.29750E+05 3.68277E-09 3.44357E-09
 -1      1087 1.74163E+05 1.10274E+05 1.87591E+04 1.28706E+05 7.71695E-09 4.27235E-09
 -1      1088 1.64770E+05 9.18939E+04 2.85741E+04 1.30855E+05 9.75888E-10 5.50244E-10
 -1      1089-3.01661E+02-4.47605E+04-1.94045E+02 3.47749E+04-1.15715E-08-2.89674E-09
 -1      1090-2.54827E+02-4.47694E+04-1.09850E+02 3.94957E+04 1.77897E-09-1.00954E-09
 -1      1091-2.01895E+02-4.47851E+04-7.71851E+01 3.46908E+04-1.37918E-08-3.08160E-09
 -1      1092-2.46744E+02-4.47770E+04-1.01460E+02 3.95725E+04 2.41016E-10 1.69962E-10
 -1      1093-2.80479E+02-4.47787E+04-1.72770E+02 3.46983E+04-1.76424E-08 1.54751E-09
 -1      1094-5.46006E+05-6.79540E+03-2.58298E+04 3.33279E+04-2.07365E-10 7.50333E-10
 -1      1095-5.51789E+05-3.23128E+03-1.43351E+04 4.35073E+04-1.05501E-10 6.63931E-11
 -1      1096-5.48588E+05-1.26396E+02-7.70320E+03 3.31833E+04-1.25056E-10 6.79847E-10
 -1      1097-5.49288E+05-2.19587E+02-6.50663E+03 4.36703E+04 2.09639E-10 1.42109E-10
 -1      1098-5.48588E+05-1.29762E+02-8.14370E+03 3.31731E+04 3.22871E-11 6.20446E-10
 -1      1099-5.52121E+05-3.51387E+03-1.55678E+04 4.36327E+04 9.48148E-11 1.72122E-10
 -1      1100-5.45789E+05-7.41070E+03-2.82509E+04 3.32159E+04 6.00267E-11 4.91127E-10
 -1      1101-1.79283E+06 4.72033E+04-1.41230E+05 1.14249E+03 3.31283E-10 1.67347E-10
 -1      1102-1.84886E+06-5.74592E+04-9.90776E+04 2.87118E+04 2.88878E-10-7.09406E-11
 -1      1103-1.81460E+06 6.87850E+03-4.59248E+04 5.19379E+02-3.16277E-10 3.20142E-10
 -1      1104-1.82734E+06-1.49421E+04-4.41682E+04 2.94408E+04-1.48077E-11-3.31397E-11
 -1      1105-1.81435E+06 7.31211E+03-4.81408E+04 4.15210E+02 1.01642E-09-5.60249E-10
 -1      1106-1.85127E+06-6.20003E+04-1.06383E+05 2.91298E+04-2.66482E-10 1.21508E-09
 -1      1107-1.79071E+06 5.10612E+04-1.52478E+05 8.29323E+02-3.66526E-10 6.83940E-10
 -1      1108-1.47568E+05-3.23882E+02-5.87718E+02 3.80421E+04-2.05546E-10 4.32010E-10
 -1      1109-1.47657E+05-1.13042E+02-4.17163E+02 4.27410E+04 3.31283E-10 3.61524E-10
 -1      1110-1.47611E+05-2.84261E+01-4.40990E+02 3.79486E+04 1.18234E-10 5.53655E-10
 -1      1111-1.47682E+05-7.96669E+01-7.49184E+02 4.28399E+04-1.18916E-10-5.07498E-10
 -1      1112-1.47574E+05-2.32460E+02-1.40191E+03 3.79433E+04 2.98655E-10-2.66482E-10
 -1      1113-1.48156E+05-1.20939E+03-3.09344E+03 4.27962E+04 6.85446E-10 5.26825E-10
 -1      1114-1.47140E+05-3.67714E+03-6.22562E+03 3.79915E+04 1.29717E-10 5.24324E-10
 -1      1115-1.23651E+05 6.25617E+02-3.64525E+03 7.80206E+03 8.64020E-11 2.35730E-10
 -1      1116-1.24862E+05-1.00176E+03-3.04608E+03 2.44011E+04-1.64732E-10 1.98042E-10
 -1      1117-1.24075E+05 1.22033E+02-2.84248E+03 7.74852E+03-3.43334E-10-2.22741E-10
 -1      1118-1.24902E+05-8.76868E+02-4.87749E+03 2.44576E+04-6.31672E-10-3.14174E-10
 -1      1119-1.23641E+05 5.89560E+02-8.26988E+03 7.74564E+03-5.28871E-10 1.81899E-10
 -1      1120-1.29930E+05-8.94631E+03-1.97592E+04 2.44233E+04-3.12411E-10-2.04636E-10
 -1      1121-1.19040E+05 6.02873E+03-3.12744E+04 7.78271E+03-2.65800E-10-5.03860E-10
 -1      1122 8.25793E+05-9.97437E+03 5.77764E+04 1.11560E+04-4.29509E-10-5.02041E-10
 -1      1123 8.45455E+05 1.57440E+04 3.66465E+04 3.16044E+04-3.30488E-10-6.07542E-10
 -1      1124 8.34107E+05-9.68620E+02 1.64222E+04 1.11454E+04 1.25397E-10 4.55202E-10
 -1      1125 8.36654E+05 1.94085E+03 1.15926E+04 3.16262E+04 7.69433E-10 1.31212E-09
 -1      1126 8.34591E+05-5.02933E+02 1.01576E+04 1.11339E+04 8.82210E-11 2.37151E-10
 -1      1127 8.39753E+05 6.98165E+03 1.75152E+04 3.16401E+04 6.98037E-11-4.14730E-10
 -1      1128 8.31049E+05-4.38743E+03 2.58474E+04 1.11320E+04-1.43245E-10-1.08230E-10
 -1      1129 1.79241E+06 1.47104E+03 1.21073E+05 8.90628E+04-7.00311E-10-1.20781E-09
 -1      1130 1.82676E+06 2.09567E+04 7.38123E+04 1.53466E+05 5.82077E-10-7.99901E-10
 -1      1131 1.80720E+06-3.33521E+02 4.02776E+04 8.88672E+04-5.10454E-10-1.13982E-09
 -1      1132 1.81220E+06 2.74340E+03 3.75059E+04 1.53699E+05 5.09772E-10-2.32831E-10
 -1      1133 1.80682E+06-4.78101E+02 4.93199E+04 8.88200E+04 1.05956E-09 7.49424E-10
 -1      1134 1.83414E+06 2.91080E+04 9.99482E+04 1.53544E+05-5.02041E-10-1.74623E-10
 -1      1135 1.78607E+06 1.88760E+03 1.68264E+05 8.90533E+04-6.62112E-10-1.09867E-09
 -1      1136-1.46553E+06-5.35670E+04-1.57523E+05 1.24804E+04-3.96540E-10-4.22006E-10
 -1      1137-1.49854E+06-2.00879E+04-8.32831E+04 1.50380E+04 3.87445E-10 2.45564E-09
 -1      1138-1.48009E+06-1.24840E+03-4.01144E+04 1.23059E+04 3.27418E-10-1.90994E-10
 -1      1139-1.48330E+06-7.63903E+02-2.58491E+04 1.53337E+04 9.95897E-10 1.25920E-09
 -1      1140-1.48077E+06-2.97348E+02-2.29858E+04 1.22504E+04 3.45608E-11-6.01005E-10
 -1      1141-1.48812E+06-7.65219E+03-3.56273E+04 1.55679E+04 1.90994E-10-1.48248E-09
 -1      1142-1.47536E+06-2.05044E+04-6.18853E+04 1.20814E+04 3.45608E-10-8.58563E-10
 -1      1143-1.17264E+06-1.35964E+04-3.03925E+04 5.75391E+04-5.45697E-12-1.25101E-09
 -1      1144-1.17824E+06-4.32722E+03-1.68012E+04 6.77072E+04 3.22916E-09-2.78533E-09
 -1      1145-1.17505E+06-3.71846E+02-1.03834E+04 5.73091E+04-1.56706E-09-6.30735E-10
 -1      1146-1.17621E+06-3.97903E+02-1.10647E+04 6.79596E+04-7.33507E-10-1.04228E-09
 -1      1147-1.17483E+06-1.02875E+03-1.67096E+04 5.72862E+04-2.08729E-10-3.00088E-09
 -1      1148-1.18189E+06-9.73662E+03-3.43916E+04 6.79416E+04-3.01497E-09-3.86081E-10
 -1      1149-1.16948E+06-3.03698E+04-6.66434E+04 5.73511E+04 9.04144E-10-3.01588E-09
 -1      1150-1.22916E+06-2.42317E+04-7.21514E+04 1.02760E+05 4.37649E-09 2.56296E-09
 -1      1151-1.24431E+06-8.85495E+03-3.93190E+04 1.28364E+05 1.79489E-08-4.92946E-10
 -1      1152-1.23593E+06-2.54024E+02-2.13361E+04 1.02340E+05 1.50012E-08-3.13958E-09
 -1      1153-1.23804E+06-1.80369E+02-1.82816E+04 1.28802E+05-2.56432E-09 8.35826E-10
 -1      1154-1.23595E+06-2.92120E+02-2.33008E+04 1.02311E+05-5.27962E-09 4.66116E-10
 -1      1155-1.24579E+06-1.01435E+04-4.48024E+04 1.28660E+05-1.22009E-08 4.64456E-09
 -1      1156-1.22834E+06-2.78450E+04-8.31399E+04 1.02521E+05-4.77621E-09 2.18279E-11
 -1      1157-3.87221E+06 1.21966E+05-3.16937E+05-9.84373E+03 4.97448E-09-8.29459E-10
 -1      1158-4.00393E+06-1.45214E+05-2.27887E+05 2.19712E+04 1.05665E-08-9.66611E-09
 -1      1159-3.92196E+06 1.99028E+04-1.02421E+05-1.66421E+04-5.13069E-09 1.23327E-09
 -1      1160-3.95471E+06-4.14331E+04-1.00982E+05 3.20012E+04-3.42538E-09-2.65072E-09
 -1      1161-3.92141E+06 2.07582E+04-1.05847E+05-1.98765E+04-2.71604E-09-1.69530E-09
 -1      1162-4.00842E+06-1.53015E+05-2.39665E+05 3.42556E+04-3.60083E-09-3.00497E-09
 -1      1163-3.86854E+06 1.28906E+05-3.34448E+05-1.88899E+04 1.12757E-08-5.60249E-09
 -1      1164-2.84794E+05-2.27827E+03-6.32982E+03 4.28471E+04-1.76108E-08 4.04270E-09
 -1      1165-2.86070E+05-5.09084E+02-3.50182E+03 5.18150E+04-1.09244E-08 1.99680E-09
 -1      1166-2.85322E+05 2.19430E+02-2.10913E+03 4.27608E+04-9.83664E-09 4.12047E-09
 -1      1167-2.85590E+05 2.65067E+02-2.16069E+03 5.18846E+04-1.74180E-09 1.46974E-09
 -1      1168-2.85269E+05 1.23820E+02-3.17576E+03 4.27675E+04 1.12423E-08 4.98812E-09
 -1      1169-2.86660E+05-1.37073E+03-6.46407E+03 5.17417E+04-6.58611E-09 4.04930E-09
 -1      1170-2.84188E+05-4.82450E+03-1.23795E+04 4.29236E+04 5.81713E-09 4.20005E-09
 -1      1171-2.03304E+05 1.38997E+02-3.83826E+03 8.96750E+03 1.44248E-08-8.03948E-09
 -1      1172-2.04454E+05-5.92952E+02-2.60255E+03 1.70571E+04 2.16578E-08-6.68547E-09
 -1      1173-2.03761E+05 8.40033E+01-1.87262E+03 8.95047E+03 3.71074E-10-9.97255E-09
 -1      1174-2.04112E+05-9.99506E+01-2.50464E+03 1.70677E+04 4.88228E-09-1.98888E-09
 -1      1175-2.03636E+05 1.16365E+02-4.08411E+03 8.95552E+03 8.85916E-09-6.21162E-09
 -1      1176-2.06210E+05-2.78644E+03-9.04042E+03 1.69998E+04-7.76708E-10-3.31602E-09
 -1      1177-2.01639E+05 3.80841E+02-1.53068E+04 9.02489E+03 2.79624E-09-7.96717E-09
 -3
 9999
