
 stresses (elem, integ.pnt.,sxx,syy,szz,sxy,sxz,syz) for set ELALL and time  0.1000000E+01

         1   1  1.275708E+06  6.437204E+03  6.890782E+03  4.413529E+03  4.524196E+03  3.209951E-02
         1   2  1.275247E+06  2.231487E+03  3.725508E+03  2.332525E+03  2.627582E+03  9.852661E-03
         1   3  1.275711E+06  7.401725E+02  2.471747E+03  2.514928E+02  7.309389E+02  2.955131E-04
         1   4  1.275708E+06  6.437167E+03  6.890777E+03 -1.978463E-09  4.524196E+03 -1.623611E-10
         1   5  1.275247E+06  2.231476E+03  3.725506E+03 -7.069384E-10  2.627582E+03 -4.719872E-10
         1   6  1.275711E+06  7.401724E+02  2.471747E+03  4.684173E-11  7.309389E+02 -4.822214E-10
         1   7  1.275708E+06  6.437204E+03  6.890782E+03 -4.413529E+03  4.524196E+03 -3.209951E-02
         1   8  1.275247E+06  2.231487E+03  3.725508E+03 -2.332525E+03  2.627582E+03 -9.852662E-03
         1   9  1.275711E+06  7.401725E+02  2.471747E+03 -2.514928E+02  7.309389E+02 -2.955140E-04
         1  10  1.275708E+06  6.437198E+03  6.890743E+03  4.413529E+03 -5.252489E-10  9.756310E-12
         1  11  1.275247E+06  2.231485E+03  3.725495E+03  2.332525E+03  4.026879E-10  2.325473E-11
         1  12  1.275711E+06  7.401724E+02  2.471746E+03  2.514928E+02  8.437495E-10 -1.147590E-10
         1  13  1.275708E+06  6.437162E+03  6.890738E+03 -5.474625E-10 -5.724551E-10 -5.830839E-11
         1  14  1.275247E+06  2.231475E+03  3.725493E+03 -2.608213E-10  5.459569E-10 -1.760735E-10
         1  15  1.275711E+06  7.401723E+02  2.471746E+03  1.268212E-10  1.367945E-09 -2.318178E-10
         1  16  1.275708E+06  6.437198E+03  6.890743E+03 -4.413529E+03  8.407649E-11 -1.171911E-10
         1  17  1.275247E+06  2.231485E+03  3.725495E+03 -2.332525E+03 -2.742893E-10 -3.716269E-10
         1  18  1.275711E+06  7.401724E+02  2.471746E+03 -2.514928E+02 -1.657224E-09 -3.526891E-10
         1  19  1.275708E+06  6.437204E+03  6.890782E+03  4.413529E+03 -4.524196E+03 -3.209951E-02
         1  20  1.275247E+06  2.231487E+03  3.725508E+03  2.332525E+03 -2.627582E+03 -9.852661E-03
         1  21  1.275711E+06  7.401725E+02  2.471747E+03  2.514928E+02 -7.309389E+02 -2.955134E-04
         1  22  1.275708E+06  6.437167E+03  6.890777E+03 -2.862549E-09 -4.524196E+03  3.677361E-11
         1  23  1.275247E+06  2.231476E+03  3.725506E+03 -1.700378E-09 -2.627582E+03  8.515088E-11
         1  24  1.275711E+06  7.401724E+02  2.471747E+03 -2.609073E-09 -7.309389E+02  1.837482E-11
         1  25  1.275708E+06  6.437204E+03  6.890782E+03 -4.413529E+03 -4.524196E+03  3.209951E-02
         1  26  1.275247E+06  2.231487E+03  3.725508E+03 -2.332525E+03 -2.627582E+03  9.852661E-03
         1  27  1.275711E+06  7.401725E+02  2.471747E+03 -2.514928E+02 -7.309389E+02  2.955134E-04
         2   1  1.275563E+06  5.431602E+02  2.224895E+03  4.116819E+02  3.608325E+02  2.388021E-04
         2   2  1.275433E+06  2.161096E+02  2.259594E+03  1.853676E+02 -7.649845E+02 -2.279584E-04
         2   3  1.275563E+06  3.436513E+02  3.139776E+03 -4.094667E+01 -1.890802E+03  1.244625E-04
         2   4  1.275563E+06  5.431599E+02  2.224895E+03 -4.463923E-10  3.608325E+02 -1.265049E-10
         2   5  1.275433E+06  2.161096E+02  2.259594E+03  7.112856E-10 -7.649845E+02  5.883183E-10
         2   6  1.275563E+06  3.436513E+02  3.139776E+03 -6.775795E-10 -1.890802E+03  6.037456E-10
         2   7  1.275563E+06  5.431602E+02  2.224895E+03 -4.116819E+02  3.608325E+02 -2.388024E-04
         2   8  1.275433E+06  2.161096E+02  2.259594E+03 -1.853676E+02 -7.649845E+02  2.279596E-04
         2   9  1.275563E+06  3.436513E+02  3.139776E+03  4.094667E+01 -1.890802E+03 -1.244613E-04
         2  10  1.275563E+06  5.431602E+02  2.224895E+03  4.116819E+02 -3.882476E-10  1.547874E-10
         2  11  1.275433E+06  2.161095E+02  2.259593E+03  1.853676E+02  9.135894E-10  7.198118E-10
         2  12  1.275563E+06  3.436503E+02  3.139770E+03 -4.094667E+01  4.058367E-10  6.054561E-10
         2  13  1.275563E+06  5.431599E+02  2.224895E+03 -8.248516E-10 -4.563417E-11 -1.183971E-11
         2  14  1.275433E+06  2.161094E+02  2.259593E+03  1.658402E-09  1.974093E-10  3.879221E-10
         2  15  1.275563E+06  3.436503E+02  3.139770E+03 -1.094440E-09 -4.275498E-10  2.773691E-10
         2  16  1.275563E+06  5.431602E+02  2.224895E+03 -4.116819E+02 -2.263192E-10 -1.668371E-10
         2  17  1.275433E+06  2.161095E+02  2.259593E+03 -1.853676E+02 -7.413705E-10  5.214279E-11
         2  18  1.275563E+06  3.436503E+02  3.139770E+03  4.094667E+01 -1.042064E-09 -7.791396E-11
         2  19  1.275563E+06  5.431602E+02  2.224895E+03  4.116819E+02 -3.608325E+02 -2.388019E-04
         2  20  1.275433E+06  2.161096E+02  2.259594E+03  1.853676E+02  7.649845E+02  2.279598E-04
         2  21  1.275563E+06  3.436513E+02  3.139776E+03 -4.094667E+01  1.890802E+03 -1.244613E-04
         2  22  1.275563E+06  5.431599E+02  2.224895E+03 -2.306105E-09 -3.608325E+02  9.249835E-11
         2  23  1.275433E+06  2.161096E+02  2.259594E+03  1.006073E-09  7.649845E+02  2.246062E-10
         2  24  1.275563E+06  3.436513E+02  3.139776E+03 -1.351378E-09  1.890802E+03 -3.854019E-11
         2  25  1.275563E+06  5.431602E+02  2.224895E+03 -4.116819E+02 -3.608325E+02  2.388021E-04
         2  26  1.275433E+06  2.161096E+02  2.259594E+03 -1.853676E+02  7.649845E+02 -2.279594E-04
         2  27  1.275563E+06  3.436513E+02  3.139776E+03  4.094667E+01  1.890802E+03  1.244613E-04
         3   1  1.275725E+06  4.502315E+02  3.930456E+03  1.440897E+02 -2.487091E+03 -5.760961E-04
         3   2  1.275229E+06  1.483928E+03  6.626496E+03 -1.293925E+03 -5.806981E+03  1.207899E-02
         3   3  1.275720E+06  4.741601E+03  1.203667E+04 -2.731917E+03 -9.126833E+03  4.008287E-02
         3   4  1.275725E+06  4.502315E+02  3.930456E+03 -2.268203E-09 -2.487091E+03  3.745684E-10
         3   5  1.275229E+06  1.483925E+03  6.626495E+03 -6.439064E-10 -5.806981E+03  1.731497E-10
         3   6  1.275720E+06  4.741587E+03  1.203667E+04 -1.637657E-09 -9.126833E+03  2.941783E-10
         3   7  1.275725E+06  4.502315E+02  3.930456E+03 -1.440897E+02 -2.487091E+03  5.760969E-04
         3   8  1.275229E+06  1.483928E+03  6.626496E+03  1.293925E+03 -5.806981E+03 -1.207899E-02
         3   9  1.275720E+06  4.741601E+03  1.203667E+04  2.731917E+03 -9.126833E+03 -4.008286E-02
         3  10  1.275725E+06  4.502299E+02  3.930444E+03  1.440897E+02  3.193673E-10  3.082712E-10
         3  11  1.275229E+06  1.483919E+03  6.626433E+03 -1.293925E+03  5.604679E-10  1.218581E-10
         3  12  1.275720E+06  4.741579E+03  1.203651E+04 -2.731917E+03  3.171926E-10  4.566822E-10
         3  13  1.275725E+06  4.502298E+02  3.930444E+03  5.811518E-10  5.268508E-10  3.379904E-11
         3  14  1.275229E+06  1.483916E+03  6.626432E+03  2.274070E-10 -1.060687E-09 -8.751314E-11
         3  15  1.275720E+06  4.741565E+03  1.203651E+04  1.506797E-09 -3.199190E-10  1.874688E-10
         3  16  1.275725E+06  4.502299E+02  3.930444E+03 -1.440897E+02 -3.179285E-10 -2.389753E-10
         3  17  1.275229E+06  1.483919E+03  6.626433E+03  1.293925E+03  2.836296E-10 -3.339381E-10
         3  18  1.275720E+06  4.741579E+03  1.203651E+04  2.731917E+03  3.393345E-10 -8.838996E-11
         3  19  1.275725E+06  4.502315E+02  3.930456E+03  1.440897E+02  2.487091E+03  5.760967E-04
         3  20  1.275229E+06  1.483928E+03  6.626496E+03 -1.293925E+03  5.806981E+03 -1.207899E-02
         3  21  1.275720E+06  4.741601E+03  1.203667E+04 -2.731917E+03  9.126833E+03 -4.008286E-02
         3  22  1.275725E+06  4.502315E+02  3.930456E+03 -2.996748E-09  2.487091E+03 -3.127323E-10
         3  23  1.275229E+06  1.483925E+03  6.626495E+03 -1.561405E-09  5.806981E+03 -3.938309E-10
         3  24  1.275720E+06  4.741587E+03  1.203667E+04 -2.411592E-09  9.126833E+03  6.715132E-11
         3  25  1.275725E+06  4.502315E+02  3.930456E+03 -1.440897E+02  2.487091E+03 -5.760973E-04
         3  26  1.275229E+06  1.483928E+03  6.626496E+03  1.293925E+03  5.806981E+03  1.207899E-02
         3  27  1.275720E+06  4.741601E+03  1.203667E+04  2.731917E+03  9.126833E+03  4.008286E-02
         4   1  1.277223E+06  6.427784E+03  1.605879E+04 -1.601794E+03 -1.122093E+04  2.889389E-02
         4   2  1.273335E+06  1.924856E+04  2.955733E+04 -1.951755E+04 -2.630053E+04  8.252082E-01
         4   3  1.277193E+06  5.522308E+04  5.864746E+04 -3.743380E+04 -4.138040E+04  2.490185E+00
         4   4  1.277223E+06  6.427779E+03  1.605879E+04 -1.826991E-09 -1.122093E+04  2.453019E-10
         4   5  1.273335E+06  1.924785E+04  2.955723E+04 -2.045839E-09 -2.630053E+04 -5.865616E-11
         4   6  1.277191E+06  5.522046E+04  5.864708E+04 -1.679641E-09 -4.138040E+04 -5.295247E-11
         4   7  1.277223E+06  6.427784E+03  1.605879E+04  1.601794E+03 -1.122093E+04 -2.889389E-02
         4   8  1.273335E+06  1.924856E+04  2.955733E+04  1.951755E+04 -2.630053E+04 -8.252082E-01
         4   9  1.277193E+06  5.522308E+04  5.864746E+04  3.743380E+04 -4.138040E+04 -2.490185E+00
         4  10  1.277223E+06  6.427750E+03  1.605856E+04 -1.601794E+03 -3.537581E-10  6.121880E-10
         4  11  1.273334E+06  1.924837E+04  2.955603E+04 -1.951755E+04 -2.207566E-10  2.900386E-10
         4  12  1.277191E+06  5.522263E+04  5.864424E+04 -3.743380E+04 -3.967966E-10  5.006471E-11
         4  13  1.277223E+06  6.427746E+03  1.605855E+04  6.985147E-10 -4.480134E-10  3.756882E-10
         4  14  1.273334E+06  1.924766E+04  2.955593E+04  1.043568E-09 -3.264523E-10  3.379462E-10
         4  15  1.277189E+06  5.522000E+04  5.864387E+04 -3.455212E-10  4.240742E-10  1.010713E-10
         4  16  1.277223E+06  6.427750E+03  1.605856E+04  1.601794E+03 -4.562886E-10  1.541178E-10
         4  17  1.273334E+06  1.924837E+04  2.955603E+04  1.951755E+04  7.675024E-10  3.467282E-10
         4  18  1.277191E+06  5.522263E+04  5.864424E+04  3.743380E+04 -7.642101E-10  1.327083E-10
         4  19  1.277223E+06  6.427784E+03  1.605879E+04 -1.601794E+03  1.122093E+04 -2.889389E-02
         4  20  1.273335E+06  1.924856E+04  2.955733E+04 -1.951755E+04  2.630053E+04 -8.252082E-01
         4  21  1.277193E+06  5.522308E+04  5.864746E+04 -3.743380E+04  4.138040E+04 -2.490185E+00
         4  22  1.277223E+06  6.427779E+03  1.605879E+04 -3.018077E-09  1.122093E+04  5.112341E-10
         4  23  1.273335E+06  1.924785E+04  2.955723E+04  1.178207E-09  2.630053E+04  7.166897E-10
         4  24  1.277191E+06  5.522046E+04  5.864708E+04 -1.831521E-09  4.138040E+04  2.581673E-10
         4  25  1.277223E+06  6.427784E+03  1.605879E+04  1.601794E+03  1.122093E+04  2.889389E-02
         4  26  1.273335E+06  1.924856E+04  2.955733E+04  1.951755E+04  2.630053E+04  8.252082E-01
         4  27  1.277193E+06  5.522308E+04  5.864746E+04  3.743380E+04  4.138040E+04  2.490185E+00
         5   1 -7.387518E+05 -1.890406E+06 -7.301356E+05  5.616635E+05 -3.049477E+04 -2.268938E+05
         5   2 -4.948079E+05 -1.319862E+06 -4.647672E+05  4.545149E+05 -9.188474E+04 -9.985523E+04
         5   3 -3.408189E+05 -7.877498E+05 -3.047062E+05  4.861886E+05 -8.738405E+04  2.729860E+04
         5   4 -1.104800E+05  6.442182E+05 -1.249663E+05  4.976972E+05 -3.032979E+04 -8.848306E+04
         5   5 -1.839572E+04  6.554561E+05 -5.854252E+04  4.282175E+05 -9.180240E+04 -5.795052E+04
         5   6  6.907514E+02  6.448775E+05 -3.018150E+04  4.975715E+05 -8.746420E+04 -2.742552E+04
         5   7  5.173534E+05  3.184792E+06  4.798257E+05  4.334644E+05 -3.019392E+04  5.049200E+04
         5   8  4.577744E+05  2.634486E+06  3.474803E+05  4.018324E+05 -9.172379E+04 -1.591442E+04
         5   9  3.420813E+05  2.079488E+06  2.442607E+05  5.089796E+05 -8.754622E+04 -8.227303E+04
         5  10 -7.387667E+05 -1.890462E+06 -7.302344E+05  5.616579E+05  1.297574E-10  8.675281E-10
         5  11 -4.948196E+05 -1.319875E+06 -4.648018E+05  4.545075E+05  2.064863E-09  1.214989E-09
         5  12 -3.408273E+05 -7.877527E+05 -3.047220E+05  4.861905E+05  4.998760E-10  2.394169E-09
         5  13 -1.104831E+05  6.442096E+05 -1.249827E+05  4.976950E+05  6.880121E-10  2.971198E-11
         5  14 -1.840566E+04  6.554503E+05 -5.856465E+04  4.282132E+05  1.069304E-09  2.083051E-11
         5  15  6.823353E+02  6.448746E+05 -3.019728E+04  4.975695E+05 -1.412912E-10  5.682399E-11
         5  16  5.173517E+05  3.184789E+06  4.798193E+05  4.334656E+05 -4.063037E-10 -8.071812E-10
         5  17  4.577653E+05  2.634484E+06  3.474640E+05  4.018312E+05  1.085456E-09 -1.143940E-09
         5  18  3.420712E+05  2.079479E+06  2.442337E+05  5.089738E+05 -8.808715E-10 -2.343067E-09
         5  19 -7.387518E+05 -1.890406E+06 -7.301356E+05  5.616635E+05  3.049477E+04  2.268938E+05
         5  20 -4.948079E+05 -1.319862E+06 -4.647672E+05  4.545149E+05  9.188474E+04  9.985523E+04
         5  21 -3.408189E+05 -7.877498E+05 -3.047062E+05  4.861886E+05  8.738405E+04 -2.729860E+04
         5  22 -1.104800E+05  6.442182E+05 -1.249663E+05  4.976972E+05  3.032979E+04  8.848306E+04
         5  23 -1.839572E+04  6.554561E+05 -5.854252E+04  4.282175E+05  9.180240E+04  5.795052E+04
         5  24  6.907514E+02  6.448775E+05 -3.018150E+04  4.975715E+05  8.746420E+04  2.742552E+04
         5  25  5.173534E+05  3.184792E+06  4.798257E+05  4.334644E+05  3.019392E+04 -5.049200E+04
         5  26  4.577744E+05  2.634486E+06  3.474803E+05  4.018324E+05  9.172379E+04  1.591442E+04
         5  27  3.420813E+05  2.079488E+06  2.442607E+05  5.089796E+05  8.754622E+04  8.227303E+04
         6   1 -2.554213E+05 -4.096101E+05 -2.238023E+05  4.981142E+05 -6.513691E+04  2.028854E+04
         6   2 -1.194039E+05  1.416862E+05 -1.008001E+05  4.269408E+05 -3.427523E+04  2.619454E+04
         6   3  1.491327E+04  6.917403E+05  1.780905E+04  4.982713E+05 -1.601304E+03  3.208951E+04
         6   4 -3.104358E+03  6.496752E+05 -2.139140E+04  4.984017E+05 -6.521272E+04 -2.374484E+04
         6   5  1.120954E+03  6.502942E+05 -6.561590E+03  4.271462E+05 -3.436530E+04 -2.051158E+04
         6   6  4.129600E+03  6.498507E+05  5.744687E+03  4.983876E+05 -1.707104E+03 -1.729440E+04
         6   7  2.491476E+05  1.710046E+06  1.809758E+05  4.986889E+05 -6.528847E+04 -6.785159E+04
         6   8  1.216322E+05  1.159157E+06  8.767429E+04  4.273516E+05 -3.445535E+04 -6.725495E+04
         6   9 -6.652913E+03  6.079679E+05 -6.310684E+03  4.985039E+05 -1.812927E+03 -6.667493E+04
         6  10 -2.554260E+05 -4.096117E+05 -2.238110E+05  4.981153E+05 -6.948931E-10  3.762467E-08
         6  11 -1.194053E+05  1.416851E+05 -1.008036E+05  4.269415E+05  6.063341E-10 -1.545130E-09
         6  12  1.491299E+04  6.917392E+05  1.780712E+04  4.982714E+05  2.452153E-09 -4.086004E-08
         6  13 -3.109076E+03  6.496735E+05 -2.140045E+04  4.984005E+05 -1.149548E-09  2.743646E-11
         6  14  1.119573E+03  6.502934E+05 -6.564598E+03  4.271456E+05 -5.105234E-09 -1.896267E-11
         6  15  4.129517E+03  6.498504E+05  5.744120E+03  4.983876E+05 -6.539301E-09  7.540522E-11
         6  16  2.491418E+05  1.710039E+06  1.809592E+05  4.986853E+05 -2.903446E-10 -3.774581E-08
         6  17  1.216297E+05  1.159152E+06  8.766358E+04  4.273497E+05 -2.914928E-10  1.458664E-09
         6  18 -6.654108E+03  6.079631E+05 -6.319036E+03  4.985038E+05  2.806763E-09  4.087593E-08
         6  19 -2.554213E+05 -4.096101E+05 -2.238023E+05  4.981142E+05  6.513691E+04 -2.028854E+04
         6  20 -1.194039E+05  1.416862E+05 -1.008001E+05  4.269408E+05  3.427523E+04 -2.619454E+04
         6  21  1.491327E+04  6.917403E+05  1.780905E+04  4.982713E+05  1.601304E+03 -3.208951E+04
         6  22 -3.104358E+03  6.496752E+05 -2.139140E+04  4.984017E+05  6.521272E+04  2.374484E+04
         6  23  1.120954E+03  6.502942E+05 -6.561590E+03  4.271462E+05  3.436530E+04  2.051158E+04
         6  24  4.129600E+03  6.498507E+05  5.744687E+03  4.983876E+05  1.707104E+03  1.729440E+04
         6  25  2.491476E+05  1.710046E+06  1.809758E+05  4.986889E+05  6.528847E+04  6.785159E+04
         6  26  1.216322E+05  1.159157E+06  8.767429E+04  4.273516E+05  3.445535E+04  6.725495E+04
         6  27 -6.652913E+03  6.079679E+05 -6.310684E+03  4.985039E+05  1.812927E+03  6.667493E+04
         7   1  1.013517E+05  1.067271E+06  9.541578E+04  4.931106E+05  2.096942E+04  3.707728E+04
         7   2  2.436162E+05  1.607633E+06  2.321090E+05  4.433973E+05  3.811287E+04 -3.816090E+04
         7   3  4.354254E+05  2.170207E+06  4.299939E+05  5.339943E+05  1.435974E+04 -1.134295E+05
         7   4  1.815517E+03  6.526190E+05  1.185499E+04  4.979159E+05  2.085337E+04 -1.849347E+04
         7   5  1.093562E+04  6.466720E+05  2.872727E+04  4.277162E+05  3.812692E+04 -3.347480E+04
         7   6  5.921829E+04  6.522610E+05  6.504368E+04  4.978239E+05  1.447983E+04 -4.841932E+04
         7   7 -9.772958E+04  2.381372E+05 -7.170303E+04  5.027178E+05  2.073641E+04 -7.402787E+04
         7   8 -2.218037E+05 -3.134198E+05 -1.747067E+05  4.120591E+05  3.814075E+04 -2.879581E+04
         7   9 -3.171494E+05 -8.635701E+05 -3.000539E+05  4.617403E+05  1.459256E+04  1.643306E+04
         7  10  1.013509E+05  1.067270E+06  9.541238E+04  4.931099E+05  4.056650E-09  1.476752E-08
         7  11  2.436142E+05  1.607631E+06  2.321035E+05  4.433985E+05  2.716410E-09  2.300282E-09
         7  12  4.354218E+05  2.170193E+06  4.299694E+05  5.339956E+05  7.178640E-10 -1.025653E-08
         7  13  1.814957E+03  6.526185E+05  1.185353E+04  4.979162E+05 -6.018465E-09 -5.555614E-12
         7  14  1.093375E+04  6.466704E+05  2.872243E+04  4.277173E+05 -2.605099E-09  2.730197E-11
         7  15  5.921744E+04  6.522585E+05  6.503888E+04  4.978245E+05 -3.230645E-10 -4.408318E-12
         7  16 -9.773151E+04  2.381312E+05 -7.171414E+04  5.027191E+05  3.418008E-09 -1.486403E-08
         7  17 -2.218055E+05 -3.134211E+05 -1.747110E+05  4.120600E+05  3.091365E-09 -2.261807E-09
         7  18 -3.171497E+05 -8.635704E+05 -3.000549E+05  4.617401E+05  9.050488E-10  1.030835E-08
         7  19  1.013517E+05  1.067271E+06  9.541578E+04  4.931106E+05 -2.096942E+04 -3.707728E+04
         7  20  2.436162E+05  1.607633E+06  2.321090E+05  4.433973E+05 -3.811287E+04  3.816090E+04
         7  21  4.354254E+05  2.170207E+06  4.299939E+05  5.339943E+05 -1.435974E+04  1.134295E+05
         7  22  1.815517E+03  6.526190E+05  1.185499E+04  4.979159E+05 -2.085337E+04  1.849347E+04
         7  23  1.093562E+04  6.466720E+05  2.872727E+04  4.277162E+05 -3.812692E+04  3.347480E+04
         7  24  5.921829E+04  6.522610E+05  6.504368E+04  4.978239E+05 -1.447983E+04  4.841932E+04
         7  25 -9.772958E+04  2.381372E+05 -7.170303E+04  5.027178E+05 -2.073641E+04  7.402787E+04
         7  26 -2.218037E+05 -3.134198E+05 -1.747067E+05  4.120591E+05 -3.814075E+04  2.879581E+04
         7  27 -3.171494E+05 -8.635701E+05 -3.000539E+05  4.617403E+05 -1.459256E+04 -1.643306E+04
         8   1  5.939013E+05  2.581360E+05 -8.025771E+04  4.977546E+05  3.696676E+03  1.555734E+04
         8   2  6.440923E+05  2.350592E+05 -8.438575E+04  5.461250E+05 -5.640715E+03  3.793400E+04
         8   3  7.331377E+05  2.300617E+05 -8.084236E+04  5.730703E+05 -4.155757E+03  4.588170E+04
         8   4  1.194432E+06  5.956889E+05  9.642731E+04  7.546345E+05  4.740260E+04  4.832353E+04
         8   5  1.157274E+06  5.570847E+05  4.711201E+04  7.855849E+05  1.383991E+04  5.253134E+04
         8   6  1.164190E+06  5.417809E+05  2.644910E+04  7.951145E+05 -8.905634E+03  4.231845E+04
         8   7  1.795347E+06  9.333463E+05  2.730830E+05  1.011760E+06  9.116598E+04  8.112091E+04
         8   8  1.670747E+06  8.792226E+05  1.785890E+05  1.025257E+06  3.334216E+04  6.714248E+04
         8   9  1.595455E+06  8.536187E+05  1.337269E+05  1.017338E+06 -1.365992E+04  3.875178E+04
         8  10  5.939012E+05  2.581357E+05 -8.025819E+04  4.977546E+05  6.831796E-10  6.927464E-12
         8  11  6.440919E+05  2.350576E+05 -8.438852E+04  5.461251E+05  1.091861E-09  7.154295E-10
         8  12  7.331371E+05  2.300594E+05 -8.084635E+04  5.730705E+05  1.020268E-09  1.600576E-09
         8  13  1.194429E+06  5.956858E+05  9.641873E+04  7.546326E+05  4.431184E-11  5.354992E-11
         8  14  1.157273E+06  5.570817E+05  4.710647E+04  7.855843E+05 -8.077418E-10 -1.358513E-11
         8  15  1.164189E+06  5.417790E+05  2.644559E+04  7.951148E+05  2.702605E-10 -1.992497E-10
         8  16  1.795336E+06  9.333370E+05  2.730551E+05  1.011754E+06 -2.089019E-10  3.369321E-11
         8  17  1.670745E+06  8.792175E+05  1.785785E+05  1.025255E+06 -1.369050E-10 -6.897289E-10
         8  18  1.595454E+06  8.536170E+05  1.337237E+05  1.017339E+06 -1.631020E-09 -1.895110E-09
         8  19  5.939013E+05  2.581360E+05 -8.025771E+04  4.977546E+05 -3.696676E+03 -1.555734E+04
         8  20  6.440923E+05  2.350592E+05 -8.438575E+04  5.461250E+05  5.640715E+03 -3.793400E+04
         8  21  7.331377E+05  2.300617E+05 -8.084236E+04  5.730703E+05  4.155757E+03 -4.588170E+04
         8  22  1.194432E+06  5.956889E+05  9.642731E+04  7.546345E+05 -4.740260E+04 -4.832353E+04
         8  23  1.157274E+06  5.570847E+05  4.711201E+04  7.855849E+05 -1.383991E+04 -5.253134E+04
         8  24  1.164190E+06  5.417809E+05  2.644910E+04  7.951145E+05  8.905634E+03 -4.231845E+04
         8  25  1.795347E+06  9.333463E+05  2.730830E+05  1.011760E+06 -9.116598E+04 -8.112091E+04
         8  26  1.670747E+06  8.792226E+05  1.785890E+05  1.025257E+06 -3.334216E+04 -6.714248E+04
         8  27  1.595455E+06  8.536187E+05  1.337269E+05  1.017338E+06  1.365992E+04 -3.875178E+04
         9   1  7.616104E+05  2.616082E+05 -7.687403E+04  5.909343E+05 -7.194107E+03  4.060866E+04
         9   2  8.074237E+05  3.050679E+05 -6.953711E+04  6.217183E+05 -8.181440E+03  3.599920E+04
         9   3  8.710708E+05  3.340084E+05 -5.931800E+04  6.471451E+05 -8.217748E+03  3.011729E+04
         9   4  1.162833E+06  5.412578E+05  2.056168E+04  7.928538E+05 -1.027765E+04  3.829463E+04
         9   5  1.152984E+06  5.470167E+05  1.248873E+04  7.964986E+05 -1.340335E+04  3.208433E+04
         9   6  1.161423E+06  5.387171E+05  9.146614E+03  7.947833E+05 -1.557802E+04  2.460240E+04
         9   7  1.564248E+06  8.210070E+05  1.179887E+05  9.949265E+05 -1.336391E+04  3.597858E+04
         9   8  1.498682E+06  7.890372E+05  9.450699E+04  9.713910E+05 -1.862914E+04  2.816658E+04
         9   9  1.451868E+06  7.434737E+05  7.760443E+04  9.424989E+05 -2.294276E+04  1.908415E+04
         9  10  7.616099E+05  2.616064E+05 -7.687722E+04  5.909346E+05  7.854976E-09  6.830824E-09
         9  11  8.074233E+05  3.050665E+05 -6.953967E+04  6.217185E+05  4.300091E-10 -3.369220E-10
         9  12  8.710705E+05  3.340074E+05 -5.931983E+04  6.471453E+05 -1.173230E-08 -1.146869E-08
         9  13  1.162833E+06  5.412562E+05  2.055872E+04  7.928541E+05  1.759483E-09  1.412696E-09
         9  14  1.152983E+06  5.470156E+05  1.248646E+04  7.964989E+05  2.689414E-09  4.796967E-09
         9  15  1.161422E+06  5.387164E+05  9.145020E+03  7.947836E+05 -1.893050E-09  4.421378E-09
         9  16  1.564248E+06  8.210056E+05  1.179859E+05  9.949269E+05 -5.755473E-09 -6.274296E-09
         9  17  1.498681E+06  7.890363E+05  9.450484E+04  9.713914E+05  3.576201E-09  1.316151E-10
         9  18  1.451867E+06  7.434732E+05  7.760276E+04  9.424993E+05  9.526988E-09  2.896284E-09
         9  19  7.616104E+05  2.616082E+05 -7.687403E+04  5.909343E+05  7.194107E+03 -4.060866E+04
         9  20  8.074237E+05  3.050679E+05 -6.953711E+04  6.217183E+05  8.181440E+03 -3.599920E+04
         9  21  8.710708E+05  3.340084E+05 -5.931800E+04  6.471451E+05  8.217748E+03 -3.011729E+04
         9  22  1.162833E+06  5.412578E+05  2.056168E+04  7.928538E+05  1.027765E+04 -3.829463E+04
         9  23  1.152984E+06  5.470167E+05  1.248873E+04  7.964986E+05  1.340335E+04 -3.208433E+04
         9  24  1.161423E+06  5.387171E+05  9.146614E+03  7.947833E+05  1.557802E+04 -2.460240E+04
         9  25  1.564248E+06  8.210070E+05  1.179887E+05  9.949265E+05  1.336391E+04 -3.597858E+04
         9  26  1.498682E+06  7.890372E+05  9.450699E+04  9.713910E+05  1.862914E+04 -2.816658E+04
         9  27  1.451868E+06  7.434737E+05  7.760443E+04  9.424989E+05  2.294276E+04 -1.908415E+04
        10   1  9.059431E+05  3.594311E+05 -5.114946E+04  6.651121E+05 -7.701044E+03  2.648219E+04
        10   2  9.514096E+05  4.056279E+05 -3.747655E+04  6.949402E+05 -8.110903E+03  1.941171E+04
        10   3  1.013879E+06  4.360193E+05 -2.071521E+04  7.200937E+05 -8.464581E+03  1.226353E+04
        10   4  1.161349E+06  5.386996E+05  8.624254E+03  7.946649E+05 -1.490959E+04  2.108186E+04
        10   5  1.152871E+06  5.466487E+05  9.552717E+03  7.969631E+05 -1.545080E+04  1.391411E+04
        10   6  1.161421E+06  5.388186E+05  1.368178E+04  7.945839E+05 -1.593545E+04  6.668956E+03
        10   7  1.416832E+06  7.180079E+05  6.839429E+04  9.242793E+05 -2.212209E+04  1.567857E+04
        10   8  1.354383E+06  6.876955E+05  5.658047E+04  8.990252E+05 -2.279394E+04  8.414095E+03
        10   9  1.308991E+06  6.416329E+05  4.807870E+04  8.690958E+05 -2.340883E+04  1.072529E+03
        10  10  9.059428E+05  3.594303E+05 -5.115089E+04  6.651123E+05  9.920316E-09  3.792637E-09
        10  11  9.514095E+05  4.056275E+05 -3.747739E+04  6.949403E+05  3.862653E-09  1.195481E-09
        10  12  1.013879E+06  4.360192E+05 -2.071563E+04  7.200938E+05 -6.275320E-09 -4.240869E-09
        10  13  1.161349E+06  5.386991E+05  8.623000E+03  7.946651E+05 -1.839102E-09  4.454212E-09
        10  14  1.152871E+06  5.466484E+05  9.551904E+03  7.969632E+05  1.121925E-09  5.049338E-09
        10  15  1.161420E+06  5.388185E+05  1.368122E+04  7.945840E+05  6.863746E-10  1.989925E-09
        10  16  1.416831E+06  7.180075E+05  6.839291E+04  9.242796E+05 -1.174220E-08 -1.234840E-08
        10  17  1.354382E+06  6.876953E+05  5.657936E+04  8.990253E+05  2.876384E-10 -7.948652E-10
        10  18  1.308990E+06  6.416327E+05  4.807767E+04  8.690959E+05  8.322505E-09  5.977126E-09
        10  19  9.059431E+05  3.594311E+05 -5.114946E+04  6.651121E+05  7.701044E+03 -2.648219E+04
        10  20  9.514096E+05  4.056279E+05 -3.747655E+04  6.949402E+05  8.110903E+03 -1.941171E+04
        10  21  1.013879E+06  4.360193E+05 -2.071521E+04  7.200937E+05  8.464581E+03 -1.226353E+04
        10  22  1.161349E+06  5.386996E+05  8.624254E+03  7.946649E+05  1.490959E+04 -2.108186E+04
        10  23  1.152871E+06  5.466487E+05  9.552717E+03  7.969631E+05  1.545080E+04 -1.391411E+04
        10  24  1.161421E+06  5.388186E+05  1.368178E+04  7.945839E+05  1.593545E+04 -6.668956E+03
        10  25  1.416832E+06  7.180079E+05  6.839429E+04  9.242793E+05  2.212209E+04 -1.567857E+04
        10  26  1.354383E+06  6.876955E+05  5.658047E+04  8.990252E+05  2.279394E+04 -8.414095E+03
        10  27  1.308991E+06  6.416329E+05  4.807870E+04  8.690958E+05  2.340883E+04 -1.072529E+03
        11   1  1.048426E+06  4.620115E+05 -8.625702E+03  7.387099E+05 -8.653195E+03  8.046826E+03
        11   2  1.096447E+06  5.057892E+05  1.573193E+04  7.660076E+05 -1.753302E+04 -5.293133E+03
        11   3  1.165756E+06  5.391818E+05  5.169143E+04  7.868928E+05 -2.667746E+04 -1.828315E+04
        11   4  1.161735E+06  5.389090E+05  1.717848E+04  7.950106E+05 -1.614838E+04  2.434502E+03
        11   5  1.153016E+06  5.474895E+05  2.878684E+04  7.957223E+05 -2.444033E+04 -1.046498E+04
        11   6  1.165455E+06  5.455572E+05  5.148840E+04  7.900199E+05 -3.299554E+04 -2.301372E+04
        11   7  1.275058E+06  6.158124E+05  4.298155E+04  8.513220E+05 -2.364525E+04 -3.179026E+03
        11   8  1.209589E+06  5.891917E+05  4.184165E+04  8.254399E+05 -3.134841E+04 -1.563744E+04
        11   9  1.165155E+06  5.519328E+05  5.128562E+04  7.931471E+05 -3.931360E+04 -2.774441E+04
        11  10  1.048426E+06  4.620114E+05 -8.625965E+03  7.387099E+05  1.952005E-08  1.599584E-08
        11  11  1.096446E+06  5.057891E+05  1.573130E+04  7.660075E+05  6.944743E-09  6.201729E-09
        11  12  1.165755E+06  5.391812E+05  5.168947E+04  7.868924E+05 -1.291553E-08 -1.201140E-08
        11  13  1.161735E+06  5.389089E+05  1.717798E+04  7.950106E+05  2.899401E-09  2.927432E-09
        11  14  1.153015E+06  5.474892E+05  2.878552E+04  7.957221E+05  7.073737E-09  6.373585E-09
        11  15  1.165454E+06  5.455564E+05  5.148537E+04  7.900193E+05  2.514234E-09  2.065301E-09
        11  16  1.275057E+06  6.158122E+05  4.298048E+04  8.513220E+05 -1.341343E-08 -1.012029E-08
        11  17  1.209588E+06  5.891911E+05  4.183935E+04  8.254395E+05  7.212912E-09  6.778524E-09
        11  18  1.165153E+06  5.519316E+05  5.128128E+04  7.931462E+05  1.996396E-08  1.625943E-08
        11  19  1.048426E+06  4.620115E+05 -8.625702E+03  7.387099E+05  8.653195E+03 -8.046826E+03
        11  20  1.096447E+06  5.057892E+05  1.573193E+04  7.660076E+05  1.753302E+04  5.293133E+03
        11  21  1.165756E+06  5.391818E+05  5.169143E+04  7.868928E+05  2.667746E+04  1.828315E+04
        11  22  1.161735E+06  5.389090E+05  1.717848E+04  7.950106E+05  1.614838E+04 -2.434502E+03
        11  23  1.153016E+06  5.474895E+05  2.878684E+04  7.957223E+05  2.444033E+04  1.046498E+04
        11  24  1.165455E+06  5.455572E+05  5.148840E+04  7.900199E+05  3.299554E+04  2.301372E+04
        11  25  1.275058E+06  6.158124E+05  4.298155E+04  8.513220E+05  2.364525E+04  3.179026E+03
        11  26  1.209589E+06  5.891917E+05  4.184165E+04  8.254399E+05  3.134841E+04  1.563744E+04
        11  27  1.165155E+06  5.519328E+05  5.128562E+04  7.931471E+05  3.931360E+04  2.774441E+04
        12   1  1.188591E+06  5.817152E+05  7.648118E+04  8.154563E+05 -3.145918E+04 -2.564972E+04
        12   2  1.310557E+06  5.736049E+05  1.468611E+05  7.923211E+05 -8.721836E+04 -7.053637E+04
        12   3  1.524673E+06  6.514900E+05  2.975002E+05  7.203229E+05 -1.460174E+05 -1.113808E+05
        12   4  1.169551E+06  5.464286E+05  6.739070E+04  7.957649E+05 -3.823831E+04 -3.072417E+04
        12   5  1.163580E+06  5.744326E+05  1.220819E+05  7.675015E+05 -8.720541E+04 -7.054113E+04
        12   6  1.248274E+06  6.869738E+05  2.511673E+05  6.903810E+05 -1.391942E+05 -1.063239E+05
        12   7  1.150511E+06  5.111437E+05  5.830032E+04  7.760744E+05 -4.501729E+04 -3.579806E+04
        12   8  1.016633E+06  5.752655E+05  9.730397E+04  7.426819E+05 -8.719246E+04 -7.054589E+04
        12   9  9.719941E+05  7.224890E+05  2.048429E+05  6.604293E+05 -1.323755E+05 -1.012656E+05
        12  10  1.188590E+06  5.817143E+05  7.647810E+04  8.154556E+05  7.133096E-10 -2.248107E-09
        12  11  1.310548E+06  5.735975E+05  1.468375E+05  7.923162E+05 -5.322522E-10 -1.424067E-09
        12  12  1.524647E+06  6.514710E+05  2.974370E+05  7.203098E+05 -1.161249E-09 -9.038228E-10
        12  13  1.169549E+06  5.464272E+05  6.738619E+04  7.957640E+05  3.823102E-10 -6.018263E-10
        12  14  1.163571E+06  5.744252E+05  1.220583E+05  7.674966E+05  8.556499E-10 -7.087243E-10
        12  15  1.248251E+06  6.869565E+05  2.511098E+05  6.903691E+05  5.757009E-11 -2.004925E-10
        12  16  1.150508E+06  5.111418E+05  5.829412E+04  7.760731E+05 -5.422203E-11  9.757364E-10
        12  17  1.016623E+06  5.752582E+05  9.728039E+04  7.426769E+05  2.525391E-09  7.735479E-11
        12  18  9.719725E+05  7.224734E+05  2.047908E+05  6.604185E+05  1.482023E-09  6.281687E-10
        12  19  1.188591E+06  5.817152E+05  7.648118E+04  8.154563E+05  3.145918E+04  2.564972E+04
        12  20  1.310557E+06  5.736049E+05  1.468611E+05  7.923211E+05  8.721836E+04  7.053637E+04
        12  21  1.524673E+06  6.514900E+05  2.975002E+05  7.203229E+05  1.460174E+05  1.113808E+05
        12  22  1.169551E+06  5.464286E+05  6.739070E+04  7.957649E+05  3.823831E+04  3.072417E+04
        12  23  1.163580E+06  5.744326E+05  1.220819E+05  7.675015E+05  8.720541E+04  7.054113E+04
        12  24  1.248274E+06  6.869738E+05  2.511673E+05  6.903810E+05  1.391942E+05  1.063239E+05
        12  25  1.150511E+06  5.111437E+05  5.830032E+04  7.760744E+05  4.501729E+04  3.579806E+04
        12  26  1.016633E+06  5.752655E+05  9.730397E+04  7.426819E+05  8.719246E+04  7.054589E+04
        12  27  9.719941E+05  7.224890E+05  2.048429E+05  6.604293E+05  1.323755E+05  1.012656E+05
        13   1  4.822511E+06  5.945058E+05  7.809089E+05  2.126401E+04  5.279596E+05  1.795105E+01
        13   2  4.703070E+06 -1.440295E+05  3.381509E+05  5.309600E+03  3.429804E+05  2.912197E+00
        13   3  4.823893E+06 -1.563735E+04  2.320067E+05 -1.064227E+04  1.579894E+05 -2.688266E+00
        13   4  4.822510E+06  5.945049E+05  7.809088E+05 -4.376887E-08  5.279596E+05 -5.259206E-09
        13   5  4.703070E+06 -1.440296E+05  3.381509E+05 -7.664632E-08  3.429804E+05 -9.127548E-10
        13   6  4.823893E+06 -1.563756E+04  2.320067E+05 -1.679136E-08  1.579894E+05  3.758775E-10
        13   7  4.822511E+06  5.945058E+05  7.809089E+05 -2.126401E+04  5.279596E+05 -1.795105E+01
        13   8  4.703070E+06 -1.440295E+05  3.381509E+05 -5.309600E+03  3.429804E+05 -2.912197E+00
        13   9  4.823893E+06 -1.563735E+04  2.320067E+05  1.064227E+04  1.579894E+05  2.688266E+00
        13  10  4.822213E+06  5.944317E+05  7.803891E+05  2.126400E+04 -4.514554E-10  1.614052E-09
        13  11  4.702945E+06 -1.440608E+05  3.379315E+05  5.309600E+03 -4.005358E-10  5.361027E-10
        13  12  4.823867E+06 -1.564399E+04  2.319601E+05 -1.064227E+04 -6.055652E-10 -9.485064E-10
        13  13  4.822213E+06  5.944308E+05  7.803890E+05  2.530554E-08 -9.102043E-10  2.690676E-10
        13  14  4.702945E+06 -1.440609E+05  3.379315E+05 -2.486757E-08 -8.009175E-10  5.377450E-10
        13  15  4.823866E+06 -1.564420E+04  2.319601E+05 -3.190094E-08 -3.441889E-10  2.294030E-11
        13  16  4.822213E+06  5.944317E+05  7.803891E+05 -2.126400E+04  3.498062E-10  5.365299E-10
        13  17  4.702945E+06 -1.440608E+05  3.379315E+05 -5.309600E+03  4.785926E-10  1.077206E-09
        13  18  4.823867E+06 -1.564399E+04  2.319601E+05  1.064227E+04  5.424580E-10 -1.063682E-09
        13  19  4.822511E+06  5.945058E+05  7.809089E+05  2.126401E+04 -5.279596E+05 -1.795105E+01
        13  20  4.703070E+06 -1.440295E+05  3.381509E+05  5.309600E+03 -3.429804E+05 -2.912197E+00
        13  21  4.823893E+06 -1.563735E+04  2.320067E+05 -1.064227E+04 -1.579894E+05  2.688266E+00
        13  22  4.822510E+06  5.945049E+05  7.809088E+05 -9.228985E-09 -5.279596E+05  5.883027E-09
        13  23  4.703070E+06 -1.440296E+05  3.381509E+05  9.651041E-09 -3.429804E+05  3.501804E-09
        13  24  4.823893E+06 -1.563756E+04  2.320067E+05 -3.852083E-09 -1.579894E+05  3.997149E-10
        13  25  4.822511E+06  5.945058E+05  7.809089E+05 -2.126401E+04 -5.279596E+05  1.795105E+01
        13  26  4.703070E+06 -1.440295E+05  3.381509E+05 -5.309600E+03 -3.429804E+05  2.912197E+00
        13  27  4.823893E+06 -1.563735E+04  2.320067E+05  1.064227E+04 -1.579894E+05 -2.688266E+00
        14   1  4.780873E+06  9.254428E+04  1.983491E+05  3.534912E+03  1.186733E+05  6.707679E-01
        14   2  4.756800E+06 -2.703426E+04  1.144473E+05  6.240438E+02  5.870780E+04  5.858166E-02
        14   3  4.781078E+06  1.608606E+04  1.100513E+05 -2.286751E+03 -1.256236E+03  4.593302E-03
        14   4  4.780873E+06  9.254426E+04  1.983491E+05 -4.373989E-08  1.186733E+05 -1.244901E-09
        14   5  4.756800E+06 -2.703426E+04  1.144473E+05  7.164015E-10  5.870780E+04 -1.893422E-09
        14   6  4.781078E+06  1.608605E+04  1.100513E+05 -1.309277E-08 -1.256236E+03 -2.671983E-09
        14   7  4.780873E+06  9.254428E+04  1.983491E+05 -3.534912E+03  1.186733E+05 -6.707679E-01
        14   8  4.756800E+06 -2.703426E+04  1.144473E+05 -6.240438E+02  5.870780E+04 -5.858164E-02
        14   9  4.781078E+06  1.608606E+04  1.100513E+05  2.286751E+03 -1.256236E+03 -4.593313E-03
        14  10  4.780858E+06  9.254053E+04  1.983228E+05  3.534912E+03  4.612125E-10  2.151551E-09
        14  11  4.756797E+06 -2.703518E+04  1.144409E+05  6.240438E+02  9.163006E-10  2.268503E-11
        14  12  4.781078E+06  1.608606E+04  1.100513E+05 -2.286751E+03  8.249175E-10  3.576575E-12
        14  13  4.780858E+06  9.254051E+04  1.983228E+05 -2.647413E-08  3.264301E-10  5.372874E-10
        14  14  4.756797E+06 -2.703518E+04  1.144409E+05 -2.517825E-08 -1.117982E-10 -1.074845E-09
        14  15  4.781078E+06  1.608605E+04  1.100513E+05 -3.682674E-08  4.893749E-10  5.374800E-10
        14  16  4.780858E+06  9.254053E+04  1.983228E+05 -3.534912E+03  2.925234E-10 -1.368516E-12
        14  17  4.756797E+06 -2.703518E+04  1.144409E+05 -6.240438E+02  3.208289E-10  2.127367E-09
        14  18  4.781078E+06  1.608606E+04  1.100513E+05  2.286751E+03 -1.013588E-09 -5.377608E-09
        14  19  4.780873E+06  9.254428E+04  1.983491E+05  3.534912E+03 -1.186733E+05 -6.707679E-01
        14  20  4.756800E+06 -2.703426E+04  1.144473E+05  6.240438E+02 -5.870780E+04 -5.858167E-02
        14  21  4.781078E+06  1.608606E+04  1.100513E+05 -2.286751E+03  1.256236E+03 -4.593308E-03
        14  22  4.780873E+06  9.254426E+04  1.983491E+05 -6.100237E-08 -1.186733E+05  1.335193E-09
        14  23  4.756800E+06 -2.703426E+04  1.144473E+05 -5.107230E-08 -5.870780E+04  2.118359E-09
        14  24  4.781078E+06  1.608605E+04  1.100513E+05 -1.145185E-07  1.256236E+03  1.584593E-09
        14  25  4.780873E+06  9.254428E+04  1.983491E+05 -3.534912E+03 -1.186733E+05  6.707679E-01
        14  26  4.756800E+06 -2.703426E+04  1.144473E+05 -6.240438E+02 -5.870780E+04  5.858167E-02
        14  27  4.781078E+06  1.608606E+04  1.100513E+05  2.286751E+03  1.256236E+03  4.593315E-03
        15   1  4.783321E+06  1.080862E+04  1.133066E+05  2.660146E+03 -2.162984E+04 -9.200109E-02
        15   2  4.753985E+06 -3.280570E+04  1.340715E+05 -8.799914E+02 -9.201139E+04  1.294712E-01
        15   3  4.783016E+06  1.210167E+05  2.497771E+05 -4.420221E+03 -1.623952E+05  1.147780E+00
        15   4  4.783321E+06  1.080861E+04  1.133066E+05 -4.421602E-08 -2.162984E+04 -1.012469E-09
        15   5  4.753985E+06 -3.280570E+04  1.340715E+05 -6.905554E-08 -9.201139E+04 -2.097484E-09
        15   6  4.783016E+06  1.210167E+05  2.497771E+05 -9.390707E-08 -1.623952E+05  3.479943E-09
        15   7  4.783321E+06  1.080862E+04  1.133066E+05 -2.660146E+03 -2.162984E+04  9.200109E-02
        15   8  4.753985E+06 -3.280570E+04  1.340715E+05  8.799914E+02 -9.201139E+04 -1.294712E-01
        15   9  4.783016E+06  1.210167E+05  2.497771E+05  4.420221E+03 -1.623952E+05 -1.147780E+00
        15  10  4.783320E+06  1.080850E+04  1.133057E+05  2.660146E+03  9.949197E-10 -2.153946E-09
        15  11  4.753976E+06 -3.280795E+04  1.340557E+05 -8.799914E+02  2.756036E-10  3.647640E-12
        15  12  4.782988E+06  1.210097E+05  2.497279E+05 -4.420220E+03 -1.951808E-10  5.289592E-10
        15  13  4.783320E+06  1.080849E+04  1.133057E+05  1.621186E-08 -4.272653E-10  1.166624E-13
        15  14  4.753976E+06 -3.280795E+04  1.340557E+05 -4.316157E-08  4.834294E-10  1.525778E-09
        15  15  4.782988E+06  1.210097E+05  2.497279E+05 -5.937761E-08 -1.997346E-10  1.560226E-10
        15  16  4.783320E+06  1.080850E+04  1.133057E+05 -2.660146E+03 -2.024555E-10 -4.295544E-09
        15  17  4.753976E+06 -3.280795E+04  1.340557E+05  8.799914E+02 -4.050143E-10  2.145439E-09
        15  18  4.782988E+06  1.210097E+05  2.497279E+05  4.420220E+03 -4.187468E-11 -3.753967E-09
        15  19  4.783321E+06  1.080862E+04  1.133066E+05  2.660146E+03  2.162984E+04  9.200108E-02
        15  20  4.753985E+06 -3.280570E+04  1.340715E+05 -8.799914E+02  9.201139E+04 -1.294712E-01
        15  21  4.783016E+06  1.210167E+05  2.497771E+05 -4.420221E+03  1.623952E+05 -1.147780E+00
        15  22  4.783321E+06  1.080861E+04  1.133066E+05 -1.046381E-07  2.162984E+04  1.308508E-09
        15  23  4.753985E+06 -3.280570E+04  1.340715E+05 -2.589802E-08  9.201139E+04  2.457078E-09
        15  24  4.783016E+06  1.210167E+05  2.497771E+05 -7.340422E-08  1.623952E+05 -3.136900E-09
        15  25  4.783321E+06  1.080862E+04  1.133066E+05 -2.660146E+03  2.162984E+04 -9.200106E-02
        15  26  4.753985E+06 -3.280570E+04  1.340715E+05  8.799914E+02  9.201139E+04  1.294712E-01
        15  27  4.783016E+06  1.210167E+05  2.497771E+05  4.420221E+03  1.623952E+05  1.147780E+00
        16   1  4.840018E+06 -2.196600E+04  2.958171E+05  1.383949E+04 -2.122499E+05 -4.696434E+00
        16   2  4.682804E+06 -1.874953E+05  4.381668E+05 -6.929729E+03 -4.519930E+05  5.009018E+00
        16   3  4.838247E+06  7.755552E+05  1.018078E+06 -2.770322E+04 -6.917160E+05  3.064105E+01
        16   4  4.840018E+06 -2.196636E+04  2.958171E+05 -8.079840E-09 -2.122499E+05 -5.059143E-10
        16   5  4.682804E+06 -1.874954E+05  4.381668E+05  8.456385E-08 -4.519930E+05 -1.483785E-08
        16   6  4.838246E+06  7.755538E+05  1.018078E+06  9.523987E-08 -6.917160E+05 -2.959796E-09
        16   7  4.840018E+06 -2.196600E+04  2.958171E+05 -1.383949E+04 -2.122499E+05  4.696434E+00
        16   8  4.682804E+06 -1.874953E+05  4.381668E+05  6.929729E+03 -4.519930E+05 -5.009018E+00
        16   9  4.838247E+06  7.755552E+05  1.018078E+06  2.770322E+04 -6.917160E+05 -3.064105E+01
        16  10  4.839970E+06 -2.197798E+04  2.957331E+05  1.383949E+04  6.985724E-10 -2.160838E-09
        16  11  4.682585E+06 -1.875497E+05  4.377858E+05 -6.929728E+03  2.260210E-10 -2.151467E-09
        16  12  4.837737E+06  7.754280E+05  1.017186E+06 -2.770321E+04 -1.885222E-10 -1.608743E-09
        16  13  4.839970E+06 -2.197833E+04  2.957331E+05  2.644156E-08 -3.379074E-11 -1.603706E-09
        16  14  4.682585E+06 -1.875497E+05  4.377858E+05  2.415451E-08  2.294409E-10 -3.901547E-09
        16  15  4.837736E+06  7.754266E+05  1.017186E+06  3.911526E-08  2.883562E-10 -1.249749E-09
        16  16  4.839970E+06 -2.197798E+04  2.957331E+05 -1.383949E+04 -1.792243E-10  1.073673E-11
        16  17  4.682585E+06 -1.875497E+05  4.377858E+05  6.929728E+03  1.315451E-10 -4.294586E-09
        16  18  4.837737E+06  7.754280E+05  1.017186E+06  2.770321E+04 -3.169841E-10 -1.344369E-09
        16  19  4.840018E+06 -2.196600E+04  2.958171E+05  1.383949E+04  2.122499E+05  4.696434E+00
        16  20  4.682804E+06 -1.874953E+05  4.381668E+05 -6.929729E+03  4.519930E+05 -5.009018E+00
        16  21  4.838247E+06  7.755552E+05  1.018078E+06 -2.770322E+04  6.917160E+05 -3.064105E+01
        16  22  4.840018E+06 -2.196636E+04  2.958171E+05 -4.260971E-08  2.122499E+05 -2.196264E-09
        16  23  4.682804E+06 -1.874954E+05  4.381668E+05 -1.035975E-08  4.519930E+05  7.416884E-09
        16  24  4.838246E+06  7.755538E+05  1.018078E+06  4.991100E-08  6.917160E+05  2.402880E-10
        16  25  4.840018E+06 -2.196600E+04  2.958171E+05 -1.383949E+04  2.122499E+05 -4.696434E+00
        16  26  4.682804E+06 -1.874953E+05  4.381668E+05  6.929729E+03  4.519930E+05  5.009018E+00
        16  27  4.838247E+06  7.755552E+05  1.018078E+06  2.770322E+04  6.917160E+05  3.064105E+01
        17   1 -6.346812E+05 -1.991991E+06 -6.651459E+05  4.013120E+05 -1.652810E+04 -3.111604E+05
        17   2 -3.043034E+05 -1.707631E+06 -3.906337E+05  2.639640E+05 -5.048457E+04 -1.728642E+05
        17   3 -1.942114E+05 -1.496282E+06 -2.613888E+05  1.902625E+05 -5.037683E+04 -3.450470E+04
        17   4 -3.097555E+05 -6.814151E+05 -3.522448E+05  2.186221E+05 -1.640198E+04 -2.382758E+05
        17   5 -4.881608E+04 -6.490433E+05 -1.726550E+05  1.866870E+05 -5.044071E+04 -1.486105E+05
        17   6  4.797462E+02 -6.811519E+05 -1.043482E+05  2.184454E+05 -5.039457E+04 -5.894640E+04
        17   7  1.517474E+04  6.308233E+05 -3.942645E+04  3.554331E+04 -1.631907E+04 -1.652372E+05
        17   8  2.066234E+05  4.106248E+05  4.526889E+04  1.092753E+05 -5.040296E+04 -1.243159E+05
        17   9  1.951346E+05  1.346214E+05  5.266442E+04  2.466660E+05 -5.041452E+04 -8.341947E+04
        17  10 -6.347076E+05 -1.992095E+06 -6.653289E+05  4.013078E+05  2.989768E-10  1.013756E-10
        17  11 -3.043142E+05 -1.707664E+06 -3.906948E+05  2.639569E+05  6.667231E-10  1.520142E-10
        17  12 -1.942144E+05 -1.496284E+06 -2.613958E+05  1.902611E+05 -7.656496E-11 -1.081700E-10
        17  13 -3.097711E+05 -6.814762E+05 -3.523521E+05  2.186189E+05 -5.016036E-10  2.494954E-11
        17  14 -4.882475E+04 -6.490677E+05 -1.727014E+05  1.866809E+05 -7.626053E-10  7.490280E-11
        17  15  4.760872E+02 -6.811563E+05 -1.043595E+05  2.184430E+05 -8.053606E-10  1.479345E-10
        17  16  1.516714E+04  6.307939E+05 -3.947821E+04  3.554114E+04  3.147178E-11 -1.208888E-10
        17  17  2.066165E+05  4.106076E+05  4.523510E+04  1.092702E+05 -7.576576E-10 -6.824082E-11
        17  18  1.951300E+05  1.346132E+05  5.264658E+04  2.466626E+05  4.846778E-11  1.212494E-10
        17  19 -6.346812E+05 -1.991991E+06 -6.651459E+05  4.013120E+05  1.652810E+04  3.111604E+05
        17  20 -3.043034E+05 -1.707631E+06 -3.906337E+05  2.639640E+05  5.048457E+04  1.728642E+05
        17  21 -1.942114E+05 -1.496282E+06 -2.613888E+05  1.902625E+05  5.037683E+04  3.450470E+04
        17  22 -3.097555E+05 -6.814151E+05 -3.522448E+05  2.186221E+05  1.640198E+04  2.382758E+05
        17  23 -4.881608E+04 -6.490433E+05 -1.726550E+05  1.866870E+05  5.044071E+04  1.486105E+05
        17  24  4.797462E+02 -6.811519E+05 -1.043482E+05  2.184454E+05  5.039457E+04  5.894640E+04
        17  25  1.517474E+04  6.308233E+05 -3.942645E+04  3.554331E+04  1.631907E+04  1.652372E+05
        17  26  2.066234E+05  4.106248E+05  4.526889E+04  1.092753E+05  5.040296E+04  1.243159E+05
        17  27  1.951346E+05  1.346214E+05  5.266442E+04  2.466660E+05  5.041452E+04  8.341947E+04
        18   1 -1.654039E+05 -1.314526E+06 -2.109569E+05  2.242339E+05 -4.027481E+04 -2.584848E+04
        18   2 -9.603682E+04 -1.062376E+06 -1.414171E+05  1.859853E+05 -2.663961E+04  9.381599E+03
        18   3 -4.295494E+04 -8.189154E+05 -9.893962E+04  2.134946E+05 -1.161542E+04  4.461938E+04
        18   4 -1.128073E+04 -6.686530E+05 -8.688662E+04  2.189269E+05 -4.028922E+04 -4.436220E+04
        18   5 -1.427196E+03 -6.644206E+05 -6.671498E+04  1.860458E+05 -2.665943E+04 -1.109920E+04
        18   6 -7.505474E+03 -6.685866E+05 -7.222005E+04  2.189221E+05 -1.164061E+04  2.215806E+04
        18   7  1.428181E+05 -2.237671E+04  3.716579E+04  2.136142E+05 -4.030329E+04 -6.289475E+04
        18   8  9.317346E+04 -2.663108E+05  7.981869E+03  1.861063E+05 -2.667924E+04 -3.159282E+04
        18   9  2.794312E+04 -5.182345E+05 -4.549942E+04  2.243510E+05 -1.166620E+04 -3.085458E+02
        18  10 -1.654059E+05 -1.314527E+06 -2.109612E+05  2.242330E+05 -2.108757E-10 -4.200473E-10
        18  11 -9.603761E+04 -1.062376E+06 -1.414186E+05  1.859855E+05 -3.401997E-10  2.051211E-10
        18  12 -4.295562E+04 -8.189175E+05 -9.894362E+04  2.134950E+05  3.238264E-10  6.118937E-10
        18  13 -1.128300E+04 -6.686556E+05 -8.689337E+04  2.189255E+05  2.581345E-10  1.868809E-10
        18  14 -1.427992E+03 -6.644209E+05 -6.671655E+04  1.860456E+05 -1.052212E-09  2.108080E-10
        18  15 -7.505751E+03 -6.685871E+05 -7.222123E+04  2.189223E+05 -1.774961E-10  1.867684E-10
        18  16  1.428153E+05 -2.238139E+04  3.715530E+04  2.136122E+05  3.244917E-10  5.951438E-10
        18  17  9.317243E+04 -2.663120E+05  7.978656E+03  1.861057E+05  1.053492E-09  2.067842E-11
        18  18  2.794298E+04 -5.182345E+05 -4.549968E+04  2.243510E+05 -2.269317E-10 -6.255078E-10
        18  19 -1.654039E+05 -1.314526E+06 -2.109569E+05  2.242339E+05  4.027481E+04  2.584848E+04
        18  20 -9.603682E+04 -1.062376E+06 -1.414171E+05  1.859853E+05  2.663961E+04 -9.381599E+03
        18  21 -4.295494E+04 -8.189154E+05 -9.893962E+04  2.134946E+05  1.161542E+04 -4.461938E+04
        18  22 -1.128073E+04 -6.686530E+05 -8.688662E+04  2.189269E+05  4.028922E+04  4.436220E+04
        18  23 -1.427196E+03 -6.644206E+05 -6.671498E+04  1.860458E+05  2.665943E+04  1.109920E+04
        18  24 -7.505474E+03 -6.685866E+05 -7.222005E+04  2.189221E+05  1.164061E+04 -2.215806E+04
        18  25  1.428181E+05 -2.237671E+04  3.716579E+04  2.136142E+05  4.030329E+04  6.289475E+04
        18  26  9.317346E+04 -2.663108E+05  7.981869E+03  1.861063E+05  2.667924E+04  3.159282E+04
        18  27  2.794312E+04 -5.182345E+05 -4.549942E+04  2.243510E+05  1.166620E+04  3.085458E+02
        19   1  5.483183E+03 -6.585593E+05 -7.572731E+04  2.379001E+05 -1.358827E+03  5.876350E+04
        19   2  3.041031E+04 -3.892401E+05 -6.745751E+04  1.310941E+05  8.637311E+03  1.031947E+05
        19   3 -9.081755E+04 -1.622580E+05 -1.246779E+05  8.936219E+04  4.151893E+03  1.476534E+05
        19   4  5.650060E+02 -6.769408E+05 -8.167177E+04  2.187445E+05 -1.389187E+03  3.410682E+04
        19   5 -3.408106E+04 -6.539703E+05 -1.256897E+05  1.862969E+05  8.642567E+03  9.926122E+04
        19   6 -2.185420E+05 -6.770508E+05 -2.496297E+05  2.189491E+05  4.200572E+03  1.644246E+05
        19   7 -4.351498E+03 -6.953199E+05 -8.761379E+04  1.995894E+05 -1.418025E+03  9.450889E+03
        19   8 -9.856562E+04 -9.186282E+05 -1.839245E+05  2.414759E+05  8.647126E+03  9.532943E+04
        19   9 -3.462224E+05 -1.191565E+06 -3.745905E+05  3.484282E+05  4.256289E+03  1.811819E+05
        19  10  5.482253E+03 -6.585630E+05 -7.573381E+04  2.379002E+05  4.617659E-10 -6.679852E-10
        19  11  3.040737E+04 -3.892516E+05 -6.747768E+04  1.310934E+05  1.862593E-10  1.721233E-10
        19  12 -9.082342E+04 -1.622815E+05 -1.247190E+05  8.936170E+04  1.184390E-10  4.908399E-10
        19  13  5.646911E+02 -6.769420E+05 -8.167396E+04  2.187445E+05  4.731803E-10  2.679428E-10
        19  14 -3.408379E+04 -6.539809E+05 -1.257084E+05  1.862962E+05 -5.253152E-10  2.051353E-10
        19  15 -2.185493E+05 -6.770798E+05 -2.496806E+05  2.189486E+05 -2.449196E-10  1.890873E-10
        19  16 -4.351524E+03 -6.953200E+05 -8.761396E+04  1.995895E+05 -9.615866E-10  8.311537E-10
        19  17 -9.856814E+04 -9.186380E+05 -1.839417E+05  2.414752E+05  4.915307E-11  8.463393E-11
        19  18 -3.462313E+05 -1.191600E+06 -3.746524E+05  3.484276E+05  2.757349E-10 -4.883335E-10
        19  19  5.483183E+03 -6.585593E+05 -7.572731E+04  2.379001E+05  1.358827E+03 -5.876350E+04
        19  20  3.041031E+04 -3.892401E+05 -6.745751E+04  1.310941E+05 -8.637311E+03 -1.031947E+05
        19  21 -9.081755E+04 -1.622580E+05 -1.246779E+05  8.936219E+04 -4.151893E+03 -1.476534E+05
        19  22  5.650060E+02 -6.769408E+05 -8.167177E+04  2.187445E+05  1.389187E+03 -3.410682E+04
        19  23 -3.408106E+04 -6.539703E+05 -1.256897E+05  1.862969E+05 -8.642567E+03 -9.926122E+04
        19  24 -2.185420E+05 -6.770508E+05 -2.496297E+05  2.189491E+05 -4.200572E+03 -1.644246E+05
        19  25 -4.351498E+03 -6.953199E+05 -8.761379E+04  1.995894E+05  1.418025E+03 -9.450889E+03
        19  26 -9.856562E+04 -9.186282E+05 -1.839245E+05  2.414759E+05 -8.647126E+03 -9.532943E+04
        19  27 -3.462224E+05 -1.191565E+06 -3.745905E+05  3.484282E+05 -4.256289E+03 -1.811819E+05
        20   1  4.807645E+05  1.052200E+05 -9.703218E+04  3.930627E+05  5.234560E+04  6.087686E+04
        20   2  6.056291E+05  7.168475E+04 -1.255893E+05  5.279212E+05  2.456477E+04  8.630028E+04
        20   3  8.527563E+05  7.865386E+04 -1.172340E+05  6.009276E+05  1.763838E+04  8.390318E+04
        20   4  1.570446E+06  6.918148E+05  2.228074E+05  8.465136E+05  1.129827E+05  1.062968E+05
        20   5  1.469974E+06  6.045113E+05  1.063462E+05  9.247009E+05  4.649130E+04  1.027080E+05
        20   6  1.499984E+06  5.659723E+05  6.025744E+04  9.410455E+05  8.431914E+02  7.132364E+04
        20   7  2.661435E+06  1.278738E+06  5.425534E+05  1.300751E+06  1.737675E+05  1.517927E+05
        20   8  2.335162E+06  1.137649E+06  3.382211E+05  1.322074E+06  6.845951E+04  1.191417E+05
        20   9  2.147690E+06  1.053583E+06  2.377143E+05  1.281585E+06 -1.597566E+04  5.872479E+04
        20  10  4.807605E+05  1.052152E+05 -9.704428E+04  3.930601E+05  4.721327E-10  4.613201E-11
        20  11  6.056264E+05  7.167659E+04 -1.256045E+05  5.279195E+05 -1.061739E-09  1.171244E-10
        20  12  8.527541E+05  7.864621E+04 -1.172479E+05  6.009264E+05 -1.824119E-09  3.227493E-11
        20  13  1.570429E+06  6.917992E+05  2.227624E+05  8.465040E+05 -1.108045E-10 -1.149361E-10
        20  14  1.469969E+06  6.044995E+05  1.063223E+05  9.246970E+05  9.509008E-10  7.385962E-11
        20  15  1.499982E+06  5.659668E+05  6.024788E+04  9.410454E+05 -6.317635E-11  5.015570E-10
        20  16  2.661397E+06  1.278706E+06  5.424539E+05  1.300730E+06 -8.756797E-10 -1.628214E-10
        20  17  2.335153E+06  1.137632E+06  3.381857E+05  1.322067E+06 -2.911813E-11  3.099551E-11
        20  18  2.147689E+06  1.053579E+06  2.377073E+05  1.281586E+06  5.616158E-10  1.019568E-09
        20  19  4.807645E+05  1.052200E+05 -9.703218E+04  3.930627E+05 -5.234560E+04 -6.087686E+04
        20  20  6.056291E+05  7.168475E+04 -1.255893E+05  5.279212E+05 -2.456477E+04 -8.630028E+04
        20  21  8.527563E+05  7.865386E+04 -1.172340E+05  6.009276E+05 -1.763838E+04 -8.390318E+04
        20  22  1.570446E+06  6.918148E+05  2.228074E+05  8.465136E+05 -1.129827E+05 -1.062968E+05
        20  23  1.469974E+06  6.045113E+05  1.063462E+05  9.247009E+05 -4.649130E+04 -1.027080E+05
        20  24  1.499984E+06  5.659723E+05  6.025744E+04  9.410455E+05 -8.431914E+02 -7.132364E+04
        20  25  2.661435E+06  1.278738E+06  5.425534E+05  1.300751E+06 -1.737675E+05 -1.517927E+05
        20  26  2.335162E+06  1.137649E+06  3.382211E+05  1.322074E+06 -6.845951E+04 -1.191417E+05
        20  27  2.147690E+06  1.053583E+06  2.377143E+05  1.281585E+06  1.597566E+04 -5.872479E+04
        21   1  9.369092E+05  1.768698E+05 -1.016127E+05  6.523045E+05  1.110165E+04  6.803743E+04
        21   2  1.061981E+06  3.072164E+05 -7.829654E+04  7.400871E+05  9.547913E+03  5.250916E+04
        21   3  1.246708E+06  3.862247E+05 -4.673908E+04  8.102149E+05  9.382207E+03  3.511142E+04
        21   4  1.498031E+06  5.681698E+05  4.711078E+04  9.326623E+05 -3.738477E+02  5.944212E+04
        21   5  1.466600E+06  5.911367E+05  2.768814E+04  9.433503E+05 -4.535142E+03  4.196733E+04
        21   6  1.495353E+06  5.633148E+05  1.875230E+04  9.363631E+05 -7.306270E+03  2.262596E+04
        21   7  2.059498E+06  9.596420E+05  1.958045E+05  1.213304E+06 -1.186313E+04  5.083663E+04
        21   8  1.871400E+06  8.751496E+05  1.336589E+05  1.146763E+06 -1.863041E+04  3.141640E+04
        21   9  1.744068E+06  7.404423E+05  8.423994E+04  1.062570E+06 -2.400369E+04  1.013371E+04
        21  10  9.369079E+05  1.768648E+05 -1.016216E+05  6.523039E+05 -4.142968E-13  7.158914E-10
        21  11  1.061980E+06  3.072135E+05 -7.830189E+04  7.400866E+05  9.040347E-10  5.437168E-10
        21  12  1.246708E+06  3.862233E+05 -4.674156E+04  8.102146E+05 -5.128659E-10  3.910549E-10
        21  13  1.498030E+06  5.681660E+05  4.710414E+04  9.326623E+05  2.447476E-10  5.643516E-10
        21  14  1.466599E+06  5.911348E+05  2.768479E+04  9.433504E+05 -2.783533E-10  2.437698E-11
        21  15  1.495353E+06  5.633142E+05  1.875124E+04  9.363632E+05 -6.594375E-11 -1.056371E-10
        21  16  2.059497E+06  9.596392E+05  1.957994E+05  1.213304E+06 -1.062325E-09  3.651637E-10
        21  17  1.871399E+06  8.751485E+05  1.336564E+05  1.146764E+06  2.117393E-10  7.090988E-12
        21  18  1.744068E+06  7.404420E+05  8.423867E+04  1.062570E+06  1.023236E-10 -3.114394E-10
        21  19  9.369092E+05  1.768698E+05 -1.016127E+05  6.523045E+05 -1.110165E+04 -6.803743E+04
        21  20  1.061981E+06  3.072164E+05 -7.829654E+04  7.400871E+05 -9.547913E+03 -5.250916E+04
        21  21  1.246708E+06  3.862247E+05 -4.673908E+04  8.102149E+05 -9.382207E+03 -3.511142E+04
        21  22  1.498031E+06  5.681698E+05  4.711078E+04  9.326623E+05  3.738477E+02 -5.944212E+04
        21  23  1.466600E+06  5.911367E+05  2.768814E+04  9.433503E+05  4.535142E+03 -4.196733E+04
        21  24  1.495353E+06  5.633148E+05  1.875230E+04  9.363631E+05  7.306270E+03 -2.262596E+04
        21  25  2.059498E+06  9.596420E+05  1.958045E+05  1.213304E+06  1.186313E+04 -5.083663E+04
        21  26  1.871400E+06  8.751496E+05  1.336589E+05  1.146763E+06  1.863041E+04 -3.141640E+04
        21  27  1.744068E+06  7.404423E+05  8.423994E+04  1.062570E+06  2.400369E+04 -1.013371E+04
        22   1  1.351018E+06  4.617394E+05 -2.047889E+04  8.631782E+05  1.174893E+04  2.597468E+04
        22   2  1.476356E+06  5.980329E+05  1.867557E+04  9.490342E+05  1.414786E+04  9.438437E+03
        22   3  1.658637E+06  6.793481E+05  6.319185E+04  1.018749E+06  1.654304E+04 -7.097076E+03
        22   4  1.495196E+06  5.633847E+05  1.666204E+04  9.359586E+05 -4.599018E+03  1.374556E+04
        22   5  1.466751E+06  5.909056E+05  1.613025E+04  9.440215E+05 -2.200037E+03 -2.790937E+03
        22   6  1.495220E+06  5.634319E+05  2.095887E+04  9.359202E+05  1.972310E+02 -1.932490E+04
        22   7  1.639400E+06  6.650443E+05  5.380356E+04  1.008760E+06 -2.095228E+04  1.512460E+03
        22   8  1.457147E+06  5.837788E+05  1.358649E+04  9.390093E+05 -1.854760E+04 -1.502004E+04
        22   9  1.331837E+06  4.475339E+05 -2.127391E+04  8.531179E+05 -1.614259E+04 -3.154819E+04
        22  10  1.351018E+06  4.617386E+05 -2.048042E+04  8.631779E+05 -3.252724E-09 -2.297566E-09
        22  11  1.476356E+06  5.980328E+05  1.867503E+04  9.490341E+05  4.869477E-09  3.552039E-09
        22  12  1.658636E+06  6.793480E+05  6.319124E+04  1.018749E+06  7.639785E-09  4.627059E-09
        22  13  1.495196E+06  5.633845E+05  1.666165E+04  9.359587E+05  1.895892E-09  1.519927E-09
        22  14  1.466751E+06  5.909056E+05  1.613023E+04  9.440215E+05  4.572264E-09  3.317564E-09
        22  15  1.495220E+06  5.634315E+05  2.095817E+04  9.359203E+05  1.912867E-09  1.690719E-09
        22  16  1.639400E+06  6.650441E+05  5.380274E+04  1.008760E+06  7.936718E-09  5.081981E-09
        22  17  1.457147E+06  5.837785E+05  1.358543E+04  9.390091E+05  4.807903E-09  3.304668E-09
        22  18  1.331836E+06  4.475328E+05 -2.127627E+04  8.531175E+05 -3.908826E-09 -1.904356E-09
        22  19  1.351018E+06  4.617394E+05 -2.047889E+04  8.631782E+05 -1.174893E+04 -2.597468E+04
        22  20  1.476356E+06  5.980329E+05  1.867557E+04  9.490342E+05 -1.414786E+04 -9.438437E+03
        22  21  1.658637E+06  6.793481E+05  6.319185E+04  1.018749E+06 -1.654304E+04  7.097076E+03
        22  22  1.495196E+06  5.633847E+05  1.666204E+04  9.359586E+05  4.599018E+03 -1.374556E+04
        22  23  1.466751E+06  5.909056E+05  1.613025E+04  9.440215E+05  2.200037E+03  2.790937E+03
        22  24  1.495220E+06  5.634319E+05  2.095887E+04  9.359202E+05 -1.972310E+02  1.932490E+04
        22  25  1.639400E+06  6.650443E+05  5.380356E+04  1.008760E+06  2.095228E+04 -1.512460E+03
        22  26  1.457147E+06  5.837788E+05  1.358649E+04  9.390093E+05  1.854760E+04  1.502004E+04
        22  27  1.331837E+06  4.475339E+05 -2.127391E+04  8.531179E+05  1.614259E+04  3.154819E+04
        23   1  1.762944E+06  7.552780E+05  9.614799E+04  1.073027E+06  1.882369E+04 -1.629568E+04
        23   2  1.891041E+06  8.888726E+05  1.525476E+05  1.156238E+06  7.878751E+03 -4.172252E+04
        23   3  2.082300E+06  9.751118E+05  2.270518E+05  1.220975E+06 -4.488857E+03 -6.525260E+04
        23   4  1.495543E+06  5.633460E+05  2.556620E+04  9.366276E+05  2.126453E+03 -2.878825E+04
        23   5  1.466391E+06  5.911679E+05  4.145628E+04  9.429521E+05 -6.160947E+03 -5.223257E+04
        23   6  1.499810E+06  5.710521E+05  7.316882E+04  9.307816E+05 -1.586535E+04 -7.377471E+04
        23   7  1.228223E+06  3.714581E+05 -4.502020E+04  8.002956E+05 -1.456117E+04 -4.127343E+04
        23   8  1.041941E+06  2.935652E+05 -6.965039E+04  7.298312E+05 -2.018788E+04 -6.273312E+04
        23   9  9.176928E+05  1.671758E+05 -8.074596E+04  6.408924E+05 -2.722767E+04 -8.228643E+04
        23  10  1.762944E+06  7.552776E+05  9.614683E+04  1.073028E+06  1.783740E-09 -1.450203E-10
        23  11  1.891040E+06  8.888707E+05  1.525442E+05  1.156238E+06  5.704057E-10  2.463958E-10
        23  12  2.082298E+06  9.751072E+05  2.270437E+05  1.220975E+06 -2.850641E-12  3.754649E-10
        23  13  1.495543E+06  5.633451E+05  2.556463E+04  9.366276E+05  5.631430E-11  6.434131E-11
        23  14  1.466390E+06  5.911650E+05  4.145109E+04  9.429519E+05 -9.344897E-10 -3.331744E-12
        23  15  1.499808E+06  5.710462E+05  7.315814E+04  9.307807E+05  6.554036E-10 -4.836973E-11
        23  16  1.228222E+06  3.714563E+05 -4.502379E+04  8.002952E+05 -9.071161E-10  4.296298E-10
        23  17  1.041939E+06  2.935608E+05 -6.965854E+04  7.298302E+05  1.963487E-10 -2.864045E-10
        23  18  9.176902E+05  1.671684E+05 -8.076007E+04  6.408906E+05 -2.660627E-10 -2.426710E-10
        23  19  1.762944E+06  7.552780E+05  9.614799E+04  1.073027E+06 -1.882369E+04  1.629568E+04
        23  20  1.891041E+06  8.888726E+05  1.525476E+05  1.156238E+06 -7.878751E+03  4.172252E+04
        23  21  2.082300E+06  9.751118E+05  2.270518E+05  1.220975E+06  4.488857E+03  6.525260E+04
        23  22  1.495543E+06  5.633460E+05  2.556620E+04  9.366276E+05 -2.126453E+03  2.878825E+04
        23  23  1.466391E+06  5.911679E+05  4.145628E+04  9.429521E+05  6.160947E+03  5.223257E+04
        23  24  1.499810E+06  5.710521E+05  7.316882E+04  9.307816E+05  1.586535E+04  7.377471E+04
        23  25  1.228223E+06  3.714581E+05 -4.502020E+04  8.002956E+05  1.456117E+04  4.127343E+04
        23  26  1.041941E+06  2.935652E+05 -6.965039E+04  7.298312E+05  2.018788E+04  6.273312E+04
        23  27  9.176928E+05  1.671758E+05 -8.074596E+04  6.408924E+05  2.722767E+04  8.228643E+04
        24   1  2.159914E+06  1.079625E+06  2.769463E+05  1.297598E+06 -3.877976E+03 -7.576628E+04
        24   2  2.383000E+06  1.133315E+06  4.050383E+05  1.313115E+06 -1.148265E+05 -1.556255E+05
        24   3  2.789101E+06  1.303794E+06  6.782453E+05  1.240133E+06 -2.470631E+05 -2.071908E+05
        24   4  1.503130E+06  5.674103E+05  9.428853E+04  9.439689E+05 -2.067849E+04 -8.835050E+04
        24   5  1.471567E+06  6.126530E+05  1.676569E+05  9.135516E+05 -9.206754E+04 -1.386147E+05
        24   6  1.614562E+06  7.663305E+05  3.520704E+05  7.945985E+05 -1.846898E+05 -1.605648E+05
        24   7  8.468403E+05  5.552245E+04 -8.840586E+04  5.907914E+05 -3.745510E+04 -1.009143E+05
        24   8  5.610739E+05  9.227890E+04 -6.978633E+04  5.145937E+05 -6.935414E+04 -1.216295E+05
        24   9  4.415733E+05  2.291329E+05  2.580842E+04  3.498279E+05 -1.224804E+05 -1.140055E+05
        24  10  2.159912E+06  1.079619E+06  2.769355E+05  1.297598E+06  7.085253E-10  5.353833E-10
        24  11  2.382979E+06  1.133286E+06  4.049683E+05  1.313100E+06  3.182264E-10  4.088399E-10
        24  12  2.789024E+06  1.303732E+06  6.780510E+05  1.240092E+06  5.011215E-10  2.779847E-10
        24  13  1.503128E+06  5.674018E+05  9.427307E+04  9.439674E+05 -3.182123E-10  1.314562E-10
        24  14  1.471553E+06  6.126301E+05  1.676050E+05  9.135413E+05 -2.775190E-10  1.204281E-10
        24  15  1.614519E+06  7.662938E+05  3.519582E+05  7.945746E+05 -4.142487E-10 -1.352323E-11
        24  16  8.468360E+05  5.551114E+04 -8.842761E+04  5.907883E+05 -6.749580E-10 -6.366103E-11
        24  17  5.610647E+05  9.226173E+04 -6.982313E+04  5.145869E+05  3.658888E-11  4.441747E-11
        24  18  4.415537E+05  2.291149E+05  2.575587E+04  3.498167E+05 -4.296119E-10 -1.246254E-10
        24  19  2.159914E+06  1.079625E+06  2.769463E+05  1.297598E+06  3.877976E+03  7.576628E+04
        24  20  2.383000E+06  1.133315E+06  4.050383E+05  1.313115E+06  1.148265E+05  1.556255E+05
        24  21  2.789101E+06  1.303794E+06  6.782453E+05  1.240133E+06  2.470631E+05  2.071908E+05
        24  22  1.503130E+06  5.674103E+05  9.428853E+04  9.439689E+05  2.067849E+04  8.835050E+04
        24  23  1.471567E+06  6.126530E+05  1.676569E+05  9.135516E+05  9.206754E+04  1.386147E+05
        24  24  1.614562E+06  7.663305E+05  3.520704E+05  7.945985E+05  1.846898E+05  1.605648E+05
        24  25  8.468403E+05  5.552245E+04 -8.840586E+04  5.907914E+05  3.745510E+04  1.009143E+05
        24  26  5.610739E+05  9.227890E+04 -6.978633E+04  5.145937E+05  6.935414E+04  1.216295E+05
        24  27  4.415733E+05  2.291329E+05  2.580842E+04  3.498279E+05  1.224804E+05  1.140055E+05
        25   1  3.015706E+05  8.708641E+04  9.406065E+04  5.739811E+04  6.595617E+04  6.095105E+00
        25   2  2.947764E+05  2.605874E+04  4.676735E+04  2.837395E+04  4.199666E+04  1.918510E+00
        25   3  3.015791E+05  6.945181E+03  2.554734E+04 -6.491481E+02  1.803757E+04 -1.885149E-02
        25   4  3.015670E+05  8.708022E+04  9.405977E+04 -8.962127E-10  6.595617E+04  1.659494E-10
        25   5  2.947755E+05  2.605722E+04  4.676713E+04 -6.069174E-10  4.199666E+04  3.837915E-10
        25   6  3.015791E+05  6.945180E+03  2.554734E+04 -6.153399E-10  1.803757E+04  4.299001E-11
        25   7  3.015706E+05  8.708641E+04  9.406065E+04 -5.739811E+04  6.595617E+04 -6.095105E+00
        25   8  2.947764E+05  2.605874E+04  4.676735E+04 -2.837395E+04  4.199666E+04 -1.918510E+00
        25   9  3.015791E+05  6.945181E+03  2.554734E+04  6.491481E+02  1.803757E+04  1.885149E-02
        25  10  3.015659E+05  8.708524E+04  9.405248E+04  5.739811E+04 -2.974757E-10  6.019092E-11
        25  11  2.947745E+05  2.605826E+04  4.676403E+04  2.837395E+04 -1.718685E-10  1.664119E-10
        25  12  3.015788E+05  6.945093E+03  2.554673E+04 -6.491481E+02  4.020852E-11  1.857640E-10
        25  13  3.015624E+05  8.707906E+04  9.405159E+04  7.363895E-11 -2.952489E-11  6.397069E-11
        25  14  2.947736E+05  2.605675E+04  4.676382E+04 -5.985146E-10 -5.343577E-10  1.613073E-10
        25  15  3.015788E+05  6.945092E+03  2.554673E+04 -3.345137E-10  1.535387E-10  7.149126E-11
        25  16  3.015659E+05  8.708524E+04  9.405248E+04 -5.739811E+04  6.815628E-10  5.428132E-11
        25  17  2.947745E+05  2.605826E+04  4.676403E+04 -2.837395E+04  4.758636E-11  1.551260E-10
        25  18  3.015788E+05  6.945093E+03  2.554673E+04  6.491481E+02 -3.716132E-10 -4.077858E-11
        25  19  3.015706E+05  8.708641E+04  9.406065E+04  5.739811E+04 -6.595617E+04 -6.095105E+00
        25  20  2.947764E+05  2.605874E+04  4.676735E+04  2.837395E+04 -4.199666E+04 -1.918510E+00
        25  21  3.015791E+05  6.945181E+03  2.554734E+04 -6.491481E+02 -1.803757E+04  1.885149E-02
        25  22  3.015670E+05  8.708022E+04  9.405977E+04 -1.724887E-10 -6.595617E+04 -3.778983E-11
        25  23  2.947755E+05  2.605722E+04  4.676713E+04  4.764877E-10 -4.199666E+04 -5.999580E-11
        25  24  3.015791E+05  6.945180E+03  2.554734E+04 -5.470092E-10 -1.803757E+04  9.999366E-11
        25  25  3.015706E+05  8.708641E+04  9.406065E+04 -5.739811E+04 -6.595617E+04  6.095105E+00
        25  26  2.947764E+05  2.605874E+04  4.676735E+04 -2.837395E+04 -4.199666E+04  1.918510E+00
        25  27  3.015791E+05  6.945181E+03  2.554734E+04  6.491481E+02 -1.803757E+04 -1.885149E-02
        26   1  2.988889E+05  5.727812E+03  1.930202E+04  2.950611E+03  1.471580E+04  6.990708E-02
        26   2  2.981434E+05  1.422980E+03  1.078115E+04  1.237520E+03  9.325758E+03  1.858069E-02
        26   3  2.988903E+05  2.818900E+02  6.559315E+03 -4.756012E+02  3.935670E+03 -3.013606E-03
        26   4  2.988889E+05  5.727796E+03  1.930202E+04 -1.178154E-09  1.471580E+04 -1.514270E-11
        26   5  2.981434E+05  1.422978E+03  1.078115E+04 -7.058054E-10  9.325758E+03  2.018701E-10
        26   6  2.988903E+05  2.818896E+02  6.559314E+03 -5.027347E-10  3.935670E+03 -3.206386E-11
        26   7  2.988889E+05  5.727812E+03  1.930202E+04 -2.950611E+03  1.471580E+04 -6.990708E-02
        26   8  2.981434E+05  1.422980E+03  1.078115E+04 -1.237520E+03  9.325758E+03 -1.858069E-02
        26   9  2.988903E+05  2.818900E+02  6.559315E+03  4.756012E+02  3.935670E+03  3.013606E-03
        26  10  2.988887E+05  5.727754E+03  1.930161E+04  2.950611E+03  1.445366E-11  1.979226E-10
        26  11  2.981433E+05  1.422957E+03  1.078099E+04  1.237520E+03  1.239323E-10  2.059582E-10
        26  12  2.988903E+05  2.818859E+02  6.559285E+03 -4.756012E+02  2.144581E-10  2.888624E-12
        26  13  2.988887E+05  5.727738E+03  1.930161E+04 -5.575494E-10 -3.227098E-10  5.165077E-11
        26  14  2.981433E+05  1.422954E+03  1.078099E+04 -1.577972E-10 -1.624173E-10  7.575626E-11
        26  15  2.988903E+05  2.818854E+02  6.559285E+03  3.765937E-10  4.330008E-10 -7.970477E-11
        26  16  2.988887E+05  5.727754E+03  1.930161E+04 -2.950611E+03  1.222908E-10 -1.024118E-10
        26  17  2.981433E+05  1.422957E+03  1.078099E+04 -1.237520E+03 -2.427058E-11 -4.211561E-11
        26  18  2.988903E+05  2.818859E+02  6.559285E+03  4.756012E+02 -5.922628E-10 -1.618509E-10
        26  19  2.988889E+05  5.727812E+03  1.930202E+04  2.950611E+03 -1.471580E+04 -6.990708E-02
        26  20  2.981434E+05  1.422980E+03  1.078115E+04  1.237520E+03 -9.325758E+03 -1.858069E-02
        26  21  2.988903E+05  2.818900E+02  6.559315E+03 -4.756012E+02 -3.935670E+03  3.013606E-03
        26  22  2.988889E+05  5.727796E+03  1.930202E+04 -1.136060E-09 -1.471580E+04  1.178286E-10
        26  23  2.981434E+05  1.422978E+03  1.078115E+04 -6.826791E-10 -9.325758E+03 -4.798711E-11
        26  24  2.988903E+05  2.818896E+02  6.559314E+03 -2.303515E-10 -3.935670E+03 -1.278738E-10
        26  25  2.988889E+05  5.727812E+03  1.930202E+04 -2.950611E+03 -1.471580E+04  6.990708E-02
        26  26  2.981434E+05  1.422980E+03  1.078115E+04 -1.237520E+03 -9.325758E+03  1.858069E-02
        26  27  2.988903E+05  2.818900E+02  6.559315E+03  4.756012E+02 -3.935670E+03 -3.013606E-03
        27   1  2.986576E+05  2.489171E+02  5.349118E+03 -6.585131E+01  2.915062E+03 -3.090562E-04
        27   2  2.984350E+05  1.962469E+02  4.111827E+03 -3.429834E+02  8.694089E+02 -4.800898E-04
        27   3  2.986576E+05  8.590694E+02  4.384757E+03 -6.201157E+02 -1.176242E+03  1.174341E-03
        27   4  2.986576E+05  2.489171E+02  5.349118E+03 -3.365866E-10  2.915062E+03 -1.954358E-10
        27   5  2.984350E+05  1.962467E+02  4.111827E+03  1.199179E-10  8.694089E+02 -1.512464E-10
        27   6  2.986576E+05  8.590686E+02  4.384757E+03 -3.197608E-10 -1.176242E+03  3.784743E-11
        27   7  2.986576E+05  2.489171E+02  5.349118E+03  6.585131E+01  2.915062E+03  3.090558E-04
        27   8  2.984350E+05  1.962469E+02  4.111827E+03  3.429834E+02  8.694089E+02  4.800895E-04
        27   9  2.986576E+05  8.590694E+02  4.384757E+03  6.201157E+02 -1.176242E+03 -1.174341E-03
        27  10  2.986576E+05  2.489148E+02  5.349102E+03 -6.585131E+01 -3.583933E-10 -7.749616E-11
        27  11  2.984350E+05  1.962467E+02  4.111825E+03 -3.429834E+02  1.898741E-10 -7.356681E-11
        27  12  2.986576E+05  8.590690E+02  4.384754E+03 -6.201157E+02  3.042973E-10 -8.839951E-11
        27  13  2.986576E+05  2.489148E+02  5.349102E+03  7.279078E-10  2.819009E-10 -1.110505E-10
        27  14  2.984350E+05  1.962464E+02  4.111825E+03  6.458533E-10  3.232630E-10  1.386626E-13
        27  15  2.986576E+05  8.590683E+02  4.384754E+03  3.618421E-10 -8.567825E-11  2.944840E-11
        27  16  2.986576E+05  2.489148E+02  5.349102E+03  6.585131E+01  4.412586E-10 -1.356284E-10
        27  17  2.984350E+05  1.962467E+02  4.111825E+03  3.429834E+02 -4.928104E-10  7.081325E-11
        27  18  2.986576E+05  8.590690E+02  4.384754E+03  6.201157E+02 -1.583450E-10  1.446234E-10
        27  19  2.986576E+05  2.489171E+02  5.349118E+03 -6.585131E+01 -2.915062E+03  3.090560E-04
        27  20  2.984350E+05  1.962469E+02  4.111827E+03 -3.429834E+02 -8.694089E+02  4.800897E-04
        27  21  2.986576E+05  8.590694E+02  4.384757E+03 -6.201157E+02  1.176242E+03 -1.174342E-03
        27  22  2.986576E+05  2.489171E+02  5.349118E+03  3.250629E-10 -2.915062E+03 -2.761445E-11
        27  23  2.984350E+05  1.962467E+02  4.111827E+03 -2.334920E-10 -8.694089E+02  1.520838E-10
        27  24  2.986576E+05  8.590686E+02  4.384757E+03 -3.744599E-10  1.176242E+03  2.261033E-11
        27  25  2.986576E+05  2.489171E+02  5.349118E+03  6.585131E+01 -2.915062E+03 -3.090560E-04
        27  26  2.984350E+05  1.962469E+02  4.111827E+03  3.429834E+02 -8.694089E+02 -4.800894E-04
        27  27  2.986576E+05  8.590694E+02  4.384757E+03  6.201157E+02  1.176242E+03  1.174342E-03
        28   1  2.990434E+05  1.062646E+03  5.011356E+03 -7.151990E+00 -1.907975E+03  2.196972E-05
        28   2  2.979522E+05  4.092021E+03  7.844278E+03 -4.572921E+03 -5.918962E+03  4.357775E-02
        28   3  2.990416E+05  1.375638E+04  1.494639E+04 -9.138639E+03 -9.929889E+03  1.461004E-01
        28   4  2.990434E+05  1.062646E+03  5.011356E+03 -4.165051E-10 -1.907975E+03  8.618174E-11
        28   5  2.979522E+05  4.091982E+03  7.844272E+03  4.629518E-11 -5.918962E+03  1.169488E-11
        28   6  2.990415E+05  1.375622E+04  1.494637E+04 -8.341316E-10 -9.929889E+03  7.768103E-13
        28   7  2.990434E+05  1.062646E+03  5.011356E+03  7.151990E+00 -1.907975E+03 -2.196954E-05
        28   8  2.979522E+05  4.092021E+03  7.844278E+03  4.572921E+03 -5.918962E+03 -4.357775E-02
        28   9  2.990416E+05  1.375638E+04  1.494639E+04  9.138639E+03 -9.929889E+03 -1.461004E-01
        28  10  2.990434E+05  1.062645E+03  5.011349E+03 -7.151990E+00 -2.404782E-11 -5.103339E-11
        28  11  2.979521E+05  4.092011E+03  7.844212E+03 -4.572921E+03  6.924653E-11  4.373142E-11
        28  12  2.990415E+05  1.375635E+04  1.494621E+04 -9.138639E+03 -7.074702E-11  1.908738E-11
        28  13  2.990434E+05  1.062645E+03  5.011349E+03  2.672040E-10  4.078184E-11  2.538566E-11
        28  14  2.979521E+05  4.091972E+03  7.844206E+03 -1.598696E-10 -5.340533E-11  2.281764E-11
        28  15  2.990414E+05  1.375620E+04  1.494619E+04  4.922673E-10  2.977205E-10  8.784753E-12
        28  16  2.990434E+05  1.062645E+03  5.011349E+03  7.151990E+00  1.063326E-10  1.003168E-10
        28  17  2.979521E+05  4.092011E+03  7.844212E+03  4.572921E+03  1.198655E-11  6.051540E-12
        28  18  2.990415E+05  1.375635E+04  1.494621E+04  9.138639E+03 -3.613026E-10 -6.951133E-12
        28  19  2.990434E+05  1.062646E+03  5.011356E+03 -7.151990E+00  1.907975E+03 -2.196985E-05
        28  20  2.979522E+05  4.092021E+03  7.844278E+03 -4.572921E+03  5.918962E+03 -4.357775E-02
        28  21  2.990416E+05  1.375638E+04  1.494639E+04 -9.138639E+03  9.929889E+03 -1.461004E-01
        28  22  2.990434E+05  1.062646E+03  5.011356E+03 -3.975693E-10  1.907975E+03 -3.382115E-11
        28  23  2.979522E+05  4.091982E+03  7.844272E+03  3.472358E-11  5.918962E+03  3.494974E-11
        28  24  2.990415E+05  1.375622E+04  1.494637E+04 -9.277524E-10  9.929889E+03  1.427006E-11
        28  25  2.990434E+05  1.062646E+03  5.011356E+03  7.151990E+00  1.907975E+03  2.196977E-05
        28  26  2.979522E+05  4.092021E+03  7.844278E+03  4.572921E+03  5.918962E+03  4.357775E-02
        28  27  2.990416E+05  1.375638E+04  1.494639E+04  9.138639E+03  9.929889E+03  1.461004E-01
        29   1  1.029046E+04 -3.728489E+05 -2.414413E+04 -6.530045E+04  8.972500E+03 -1.026839E+05
        29   2  1.162359E+05 -5.615221E+05  1.491891E+04 -9.882285E+04  2.604245E+04 -7.528433E+04
        29   3  9.200535E+04 -7.862127E+05  3.609793E+03 -1.902599E+05  2.183845E+04 -4.789751E+04
        29   4 -1.848145E+05 -1.158991E+06 -2.130911E+05 -1.715718E+05  9.003020E+03 -1.393649E+05
        29   5 -2.357640E+04 -1.138394E+06 -1.069297E+05 -1.425717E+05  2.605337E+04 -8.377663E+04
        29   6  2.501428E+03 -1.158815E+06 -7.078505E+04 -1.715051E+05  2.182631E+04 -2.818977E+04
        29   7 -3.799211E+05 -1.944539E+06 -4.020710E+05 -2.777079E+05  9.046143E+03 -1.759995E+05
        29   8 -1.634030E+05 -1.714948E+06 -2.287958E+05 -1.862791E+05  2.606550E+04 -9.226114E+04
        29   9 -8.700950E+04 -1.531283E+06 -1.451852E+05 -1.527618E+05  2.181535E+04 -8.493627E+03
        29  10  1.028754E+04 -3.728602E+05 -2.416411E+04 -6.529970E+04  8.408714E-11 -1.714140E-10
        29  11  1.162336E+05 -5.615284E+05  1.490698E+04 -9.882127E+04 -4.594003E-11  4.426920E-11
        29  12  9.200422E+04 -7.862153E+05  3.604582E+03 -1.902590E+05 -3.718775E-10  4.179633E-11
        29  13 -1.848198E+05 -1.159012E+06 -2.131279E+05 -1.715708E+05 -3.792650E-11  3.746218E-11
        29  14 -2.357902E+04 -1.138402E+06 -1.069442E+05 -1.425699E+05  1.292130E-10 -6.921184E-11
        29  15  2.500703E+03 -1.158816E+06 -7.078744E+04 -1.715046E+05 -1.882039E-10  4.695781E-12
        29  16 -3.799296E+05 -1.944572E+06 -4.021295E+05 -2.777067E+05  1.640122E-11  1.128197E-10
        29  17 -1.634060E+05 -1.714957E+06 -2.288131E+05 -1.862771E+05  2.772926E-10 -9.192048E-11
        29  18 -8.701003E+04 -1.531283E+06 -1.451863E+05 -1.527616E+05  1.068426E-11 -1.058852E-10
        29  19  1.029046E+04 -3.728489E+05 -2.414413E+04 -6.530045E+04 -8.972500E+03  1.026839E+05
        29  20  1.162359E+05 -5.615221E+05  1.491891E+04 -9.882285E+04 -2.604245E+04  7.528433E+04
        29  21  9.200535E+04 -7.862127E+05  3.609793E+03 -1.902599E+05 -2.183845E+04  4.789751E+04
        29  22 -1.848145E+05 -1.158991E+06 -2.130911E+05 -1.715718E+05 -9.003020E+03  1.393649E+05
        29  23 -2.357640E+04 -1.138394E+06 -1.069297E+05 -1.425717E+05 -2.605337E+04  8.377663E+04
        29  24  2.501428E+03 -1.158815E+06 -7.078505E+04 -1.715051E+05 -2.182631E+04  2.818977E+04
        29  25 -3.799211E+05 -1.944539E+06 -4.020710E+05 -2.777079E+05 -9.046143E+03  1.759995E+05
        29  26 -1.634030E+05 -1.714948E+06 -2.287958E+05 -1.862791E+05 -2.606550E+04  9.226114E+04
        29  27 -8.700950E+04 -1.531283E+06 -1.451852E+05 -1.527618E+05 -2.181535E+04  8.493627E+03
        30   1  4.854923E+04 -9.230086E+05 -1.762580E+04 -1.673099E+05  1.319764E+04 -3.326910E+04
        30   2  4.268045E+03 -1.125929E+06 -5.559910E+04 -1.424023E+05  1.405456E+03 -3.532965E+03
        30   3 -5.467725E+04 -1.336398E+06 -1.166351E+05 -1.766437E+05 -1.045734E+04  2.619317E+04
        30   4 -6.325055E+03 -1.151385E+06 -6.339000E+04 -1.717849E+05  1.318834E+04 -1.768651E+04
        30   5 -9.102859E+02 -1.147585E+06 -5.980603E+04 -1.422108E+05  1.395764E+03  1.213598E+04
        30   6 -1.017287E+04 -1.151388E+06 -7.934599E+04 -1.717873E+05 -1.046710E+04  4.195794E+04
        30   7 -6.120234E+04 -1.379712E+06 -1.091559E+05 -1.762583E+05  1.317881E+04 -2.109541E+03
        30   8 -6.088512E+03 -1.169239E+06 -6.401206E+04 -1.420193E+05  1.386081E+03  2.780439E+04
        30   9  3.432962E+04 -9.663445E+05 -4.205766E+04 -1.669295E+05 -1.047660E+04  5.772733E+04
        30  10  4.854874E+04 -9.230098E+05 -1.762821E+04 -1.673095E+05 -3.971232E-11 -4.033830E-10
        30  11  4.268039E+03 -1.125929E+06 -5.559913E+04 -1.424022E+05 -1.580332E-10  1.055586E-10
        30  12 -5.467756E+04 -1.336399E+06 -1.166366E+05 -1.766435E+05 -1.320223E-10  4.132414E-10
        30  13 -6.325325E+03 -1.151386E+06 -6.339091E+04 -1.717847E+05 -2.446390E-10  3.032743E-10
        30  14 -9.103276E+02 -1.147585E+06 -5.980631E+04 -1.422108E+05  1.692705E-10 -8.868614E-11
        30  15 -1.017346E+04 -1.151390E+06 -7.934951E+04 -1.717870E+05 -2.566188E-10 -3.238627E-11
        30  16 -6.120253E+04 -1.379712E+06 -1.091563E+05 -1.762583E+05 -2.359038E-10  4.621262E-10
        30  17 -6.088722E+03 -1.169240E+06 -6.401352E+04 -1.420193E+05 -9.276307E-11 -2.410214E-11
        30  18  3.432860E+04 -9.663481E+05 -4.206414E+04 -1.669290E+05 -2.816301E-10 -4.999035E-10
        30  19  4.854923E+04 -9.230086E+05 -1.762580E+04 -1.673099E+05 -1.319764E+04  3.326910E+04
        30  20  4.268045E+03 -1.125929E+06 -5.559910E+04 -1.424023E+05 -1.405456E+03  3.532965E+03
        30  21 -5.467725E+04 -1.336398E+06 -1.166351E+05 -1.766437E+05  1.045734E+04 -2.619317E+04
        30  22 -6.325055E+03 -1.151385E+06 -6.339000E+04 -1.717849E+05 -1.318834E+04  1.768651E+04
        30  23 -9.102859E+02 -1.147585E+06 -5.980603E+04 -1.422108E+05 -1.395764E+03 -1.213598E+04
        30  24 -1.017287E+04 -1.151388E+06 -7.934599E+04 -1.717873E+05  1.046710E+04 -4.195794E+04
        30  25 -6.120234E+04 -1.379712E+06 -1.091559E+05 -1.762583E+05 -1.317881E+04  2.109541E+03
        30  26 -6.088512E+03 -1.169239E+06 -6.401206E+04 -1.420193E+05 -1.386081E+03 -2.780439E+04
        30  27  3.432962E+04 -9.663445E+05 -4.205766E+04 -1.669295E+05  1.047660E+04 -5.772733E+04
        31   1 -7.527386E+04 -1.492646E+06 -1.612305E+05 -1.422757E+05 -1.908363E+04  3.568548E+04
        31   2 -1.655063E+05 -1.665919E+06 -2.703296E+05 -2.088017E+05 -2.385671E+04  1.443703E+05
        31   3 -4.666100E+05 -1.906082E+06 -5.030259E+05 -3.333034E+05 -8.453198E+03  2.530171E+05
        31   4  3.873164E+03 -1.163519E+06 -9.530329E+04 -1.715181E+05 -1.909654E+04  5.534101E+04
        31   5 -3.613280E+04 -1.132522E+06 -1.573346E+05 -1.425657E+05 -2.383635E+04  1.372872E+05
        31   6 -2.822845E+05 -1.163743E+06 -3.243019E+05 -1.716270E+05 -8.373967E+03  2.192352E+05
        31   7  8.301692E+04 -8.342861E+05 -2.937962E+04 -2.007764E+05 -1.911129E+04  7.500677E+04
        31   8  9.323884E+04 -5.988474E+05 -4.435319E+04 -7.627162E+04 -2.381753E+04  1.301981E+05
        31   9 -9.789997E+04 -4.208404E+05 -1.455987E+05 -9.755872E+03 -8.312455E+03  1.854127E+05
        31  10 -7.527459E+04 -1.492647E+06 -1.612336E+05 -1.422752E+05 -5.480665E-11 -4.789674E-10
        31  11 -1.655125E+05 -1.665941E+06 -2.703700E+05 -2.087989E+05 -8.274769E-10 -3.554765E-10
        31  12 -4.666273E+05 -1.906151E+06 -5.031467E+05 -3.333017E+05 -4.304318E-10  1.836354E-12
        31  13  3.871949E+03 -1.163523E+06 -9.530974E+04 -1.715173E+05 -2.923356E-10  2.828364E-10
        31  14 -3.613848E+04 -1.132543E+06 -1.573711E+05 -1.425630E+05  3.746751E-10 -1.539492E-10
        31  15 -2.822975E+05 -1.163795E+06 -3.243925E+05 -1.716255E+05  5.413562E-10 -4.281995E-12
        31  16  8.301502E+04 -8.342923E+05 -2.939089E+04 -2.007752E+05  7.297500E-10  5.952306E-10
        31  17  9.323368E+04 -5.988657E+05 -4.438614E+04 -7.626912E+04 -3.933650E-11  2.031694E-10
        31  18 -9.790928E+04 -4.208773E+05 -1.456635E+05 -9.754631E+03  3.119857E-10 -7.349876E-11
        31  19 -7.527386E+04 -1.492646E+06 -1.612305E+05 -1.422757E+05  1.908363E+04 -3.568548E+04
        31  20 -1.655063E+05 -1.665919E+06 -2.703296E+05 -2.088017E+05  2.385671E+04 -1.443703E+05
        31  21 -4.666100E+05 -1.906082E+06 -5.030259E+05 -3.333034E+05  8.453198E+03 -2.530171E+05
        31  22  3.873164E+03 -1.163519E+06 -9.530329E+04 -1.715181E+05  1.909654E+04 -5.534101E+04
        31  23 -3.613280E+04 -1.132522E+06 -1.573346E+05 -1.425657E+05  2.383635E+04 -1.372872E+05
        31  24 -2.822845E+05 -1.163743E+06 -3.243019E+05 -1.716270E+05  8.373967E+03 -2.192352E+05
        31  25  8.301692E+04 -8.342861E+05 -2.937962E+04 -2.007764E+05  1.911129E+04 -7.500677E+04
        31  26  9.323884E+04 -5.988474E+05 -4.435319E+04 -7.627162E+04  2.381753E+04 -1.301981E+05
        31  27 -9.789997E+04 -4.208404E+05 -1.455987E+05 -9.755872E+03  8.312455E+03 -1.854127E+05
        32   1 -1.064410E+05 -8.446753E+04 -9.191317E+03 -8.546276E+04 -3.880373E+02  5.592137E+02
        32   2 -9.653506E+04 -7.916801E+04 -6.603986E+03 -7.856854E+04 -8.632604E+01  2.496258E+03
        32   3 -8.273562E+04 -7.513225E+04 -4.368209E+03 -7.340001E+04  1.115979E+03  3.232594E+03
        32   4 -5.742225E+04 -5.512578E+04  5.682354E+03 -6.370800E+04  2.803861E+03  2.952993E+03
        32   5 -6.049671E+04 -5.630860E+04  2.765775E+03 -6.166798E+04  8.449184E+02  3.194620E+03
        32   6 -5.918750E+04 -5.826463E+04  1.460238E+03 -6.135375E+04 -2.135050E+02  2.235568E+03
        32   7 -8.400685E+03 -2.578307E+04  2.055587E+04 -4.195139E+04  5.996117E+03  5.346987E+03
        32   8 -2.445713E+04 -3.344875E+04  1.213536E+04 -4.476647E+04  1.776230E+03  3.893026E+03
        32   9 -3.563913E+04 -4.139694E+04  7.288520E+03 -4.930715E+04 -1.543036E+03  1.238505E+03
        32  10 -1.064410E+05 -8.446753E+04 -9.191318E+03 -8.546276E+04 -2.495158E-10 -2.929724E-11
        32  11 -9.653506E+04 -7.916801E+04 -6.603998E+03 -7.856854E+04 -3.556236E-11 -3.194452E-11
        32  12 -8.273563E+04 -7.513226E+04 -4.368231E+03 -7.340001E+04 -1.401574E-10  1.798180E-11
        32  13 -5.742226E+04 -5.512579E+04  5.682323E+03 -6.370801E+04 -5.457102E-12  6.505102E-12
        32  14 -6.049671E+04 -5.630861E+04  2.765755E+03 -6.166798E+04 -3.895460E-11  1.157986E-11
        32  15 -5.918751E+04 -5.826464E+04  1.460228E+03 -6.135375E+04 -3.661698E-10  1.262852E-10
        32  16 -8.400731E+03 -2.578311E+04  2.055575E+04 -4.195141E+04 -2.562934E-11  4.646887E-11
        32  17 -2.445714E+04 -3.344877E+04  1.213532E+04 -4.476647E+04 -2.837598E-10  1.334179E-10
        32  18 -3.563913E+04 -4.139694E+04  7.288513E+03 -4.930715E+04 -2.876959E-10  1.952825E-10
        32  19 -1.064410E+05 -8.446753E+04 -9.191317E+03 -8.546276E+04  3.880373E+02 -5.592137E+02
        32  20 -9.653506E+04 -7.916801E+04 -6.603986E+03 -7.856854E+04  8.632604E+01 -2.496258E+03
        32  21 -8.273562E+04 -7.513225E+04 -4.368209E+03 -7.340001E+04 -1.115979E+03 -3.232594E+03
        32  22 -5.742225E+04 -5.512578E+04  5.682354E+03 -6.370800E+04 -2.803861E+03 -2.952993E+03
        32  23 -6.049671E+04 -5.630860E+04  2.765775E+03 -6.166798E+04 -8.449184E+02 -3.194620E+03
        32  24 -5.918750E+04 -5.826463E+04  1.460238E+03 -6.135375E+04  2.135050E+02 -2.235568E+03
        32  25 -8.400685E+03 -2.578307E+04  2.055587E+04 -4.195139E+04 -5.996117E+03 -5.346987E+03
        32  26 -2.445713E+04 -3.344875E+04  1.213536E+04 -4.476647E+04 -1.776230E+03 -3.893026E+03
        32  27 -3.563913E+04 -4.139694E+04  7.288520E+03 -4.930715E+04  1.543036E+03 -1.238505E+03
        33   1 -7.608833E+04 -6.999615E+04 -3.027927E+03 -6.985426E+04  1.232749E+03  2.623754E+03
        33   2 -6.664988E+04 -6.107829E+04 -9.731780E+02 -6.382857E+04  1.821866E+03  1.925983E+03
        33   3 -5.421324E+04 -5.501219E+04  1.077894E+03 -5.870737E+04  2.502196E+03  1.106602E+03
        33   4 -5.928215E+04 -5.835590E+04  1.062037E+03 -6.144106E+04 -2.596668E+01  1.679811E+03
        33   5 -6.085579E+04 -5.704335E+04  4.658229E+02 -6.092228E+04  3.341436E+02  8.103046E+02
        33   6 -5.938167E+04 -5.853299E+04  6.472069E+01 -6.130812E+04  7.854657E+02 -1.808178E+02
        33   7 -4.247564E+04 -4.671547E+04  5.151994E+03 -5.302759E+04 -1.284729E+03  7.358337E+02
        33   8 -5.506159E+04 -5.300835E+04  1.904856E+03 -5.801592E+04 -1.153613E+03 -3.053992E+02
        33   9 -6.455017E+04 -6.205385E+04 -9.484734E+02 -6.390890E+04 -9.312800E+02 -1.468250E+03
        33  10 -7.608833E+04 -6.999616E+04 -3.027942E+03 -6.985426E+04  4.998455E-10  2.928950E-10
        33  11 -6.664988E+04 -6.107830E+04 -9.731912E+02 -6.382857E+04  1.211876E-10 -9.698721E-11
        33  12 -5.421325E+04 -5.501219E+04  1.077880E+03 -5.870737E+04 -3.844838E-10 -1.689288E-10
        33  13 -5.928216E+04 -5.835590E+04  1.062032E+03 -6.144106E+04 -3.018913E-10  4.081158E-11
        33  14 -6.085579E+04 -5.704335E+04  4.658214E+02 -6.092228E+04 -7.531594E-10 -5.301270E-12
        33  15 -5.938167E+04 -5.853299E+04  6.471947E+01 -6.130812E+04 -7.387449E-10 -1.452922E-11
        33  16 -4.247564E+04 -4.671547E+04  5.151990E+03 -5.302759E+04 -6.337916E-10 -1.779425E-10
        33  17 -5.506159E+04 -5.300835E+04  1.904853E+03 -5.801592E+04 -5.848183E-10 -3.319528E-11
        33  18 -6.455017E+04 -6.205385E+04 -9.484790E+02 -6.390890E+04  1.326868E-10  2.435248E-10
        33  19 -7.608833E+04 -6.999615E+04 -3.027927E+03 -6.985426E+04 -1.232749E+03 -2.623754E+03
        33  20 -6.664988E+04 -6.107829E+04 -9.731780E+02 -6.382857E+04 -1.821866E+03 -1.925983E+03
        33  21 -5.421324E+04 -5.501219E+04  1.077894E+03 -5.870737E+04 -2.502196E+03 -1.106602E+03
        33  22 -5.928215E+04 -5.835590E+04  1.062037E+03 -6.144106E+04  2.596668E+01 -1.679811E+03
        33  23 -6.085579E+04 -5.704335E+04  4.658229E+02 -6.092228E+04 -3.341436E+02 -8.103046E+02
        33  24 -5.938167E+04 -5.853299E+04  6.472069E+01 -6.130812E+04 -7.854657E+02  1.808178E+02
        33  25 -4.247564E+04 -4.671547E+04  5.151994E+03 -5.302759E+04  1.284729E+03 -7.358337E+02
        33  26 -5.506159E+04 -5.300835E+04  1.904856E+03 -5.801592E+04  1.153613E+03  3.053992E+02
        33  27 -6.455017E+04 -6.205385E+04 -9.484734E+02 -6.390890E+04  9.312800E+02  1.468250E+03
        34   1 -4.728089E+04 -5.011680E+04  2.478726E+03 -5.518146E+04  2.903395E+03  5.709626E+02
        34   2 -3.785487E+04 -4.100145E+04  4.449015E+03 -4.919040E+04  3.765501E+03 -1.927594E+02
        34   3 -2.551764E+04 -3.486694E+04  6.260633E+03 -4.406217E+04  4.618549E+03 -9.443819E+02
        34   4 -5.939469E+04 -5.854089E+04 -1.167814E+02 -6.132361E+04  1.192505E+03 -7.120849E+02
        34   5 -6.085775E+04 -5.706553E+04 -5.247933E+02 -6.087926E+04  2.077364E+03 -1.458760E+03
        34   6 -5.941447E+04 -5.857579E+04 -1.111149E+03 -6.129771E+04  2.953167E+03 -2.193342E+03
        34   7 -7.150806E+04 -6.696470E+04 -2.712191E+03 -6.746549E+04 -5.183067E+02 -1.995074E+03
        34   8 -8.385974E+04 -7.312910E+04 -5.498524E+03 -7.256749E+04  3.893285E+02 -2.724685E+03
        34   9 -9.330992E+04 -8.228391E+04 -8.482959E+03 -7.853214E+04  1.287906E+03 -3.442210E+03
        34  10 -4.728090E+04 -5.011680E+04  2.478709E+03 -5.518146E+04 -2.533014E-10  5.429693E-11
        34  11 -3.785489E+04 -4.100146E+04  4.448988E+03 -4.919040E+04  3.832676E-12  1.323277E-10
        34  12 -2.551766E+04 -3.486694E+04  6.260591E+03 -4.406216E+04  2.831435E-10  1.458306E-10
        34  13 -5.939469E+04 -5.854089E+04 -1.167850E+02 -6.132361E+04 -3.493992E-10  9.305869E-11
        34  14 -6.085775E+04 -5.706553E+04 -5.248054E+02 -6.087926E+04 -7.407432E-10  1.303561E-10
        34  15 -5.941448E+04 -5.857580E+04 -1.111174E+03 -6.129770E+04  3.427985E-12 -6.587265E-11
        34  16 -7.150806E+04 -6.696470E+04 -2.712199E+03 -6.746550E+04 -1.119063E-10  1.804200E-10
        34  17 -8.385974E+04 -7.312910E+04 -5.498538E+03 -7.256749E+04 -1.133485E-11  9.451160E-11
        34  18 -9.330992E+04 -8.228393E+04 -8.482984E+03 -7.853213E+04 -1.661947E-10 -2.757229E-10
        34  19 -4.728089E+04 -5.011680E+04  2.478726E+03 -5.518146E+04 -2.903395E+03 -5.709626E+02
        34  20 -3.785487E+04 -4.100145E+04  4.449015E+03 -4.919040E+04 -3.765501E+03  1.927594E+02
        34  21 -2.551764E+04 -3.486694E+04  6.260633E+03 -4.406217E+04 -4.618549E+03  9.443819E+02
        34  22 -5.939469E+04 -5.854089E+04 -1.167814E+02 -6.132361E+04 -1.192505E+03  7.120849E+02
        34  23 -6.085775E+04 -5.706553E+04 -5.247933E+02 -6.087926E+04 -2.077364E+03  1.458760E+03
        34  24 -5.941447E+04 -5.857579E+04 -1.111149E+03 -6.129771E+04 -2.953167E+03  2.193342E+03
        34  25 -7.150806E+04 -6.696470E+04 -2.712191E+03 -6.746549E+04  5.183067E+02  1.995074E+03
        34  26 -8.385974E+04 -7.312910E+04 -5.498524E+03 -7.256749E+04 -3.893285E+02  2.724685E+03
        34  27 -9.330992E+04 -8.228391E+04 -8.482959E+03 -7.853214E+04 -1.287906E+03  3.442210E+03
        35   1 -1.850671E+04 -3.008171E+04  7.453105E+03 -4.058862E+04  5.208202E+03 -1.324701E+03
        35   2 -9.436079E+03 -2.069793E+04  8.783053E+03 -3.433916E+04  6.436442E+03 -1.609339E+03
        35   3  2.145649E+03 -1.476959E+04  9.416732E+03 -2.875190E+04  7.485022E+03 -1.654312E+03
        35   4 -5.946210E+04 -5.859200E+04 -1.516344E+03 -6.133555E+04  3.529414E+03 -2.583744E+03
        35   5 -6.089463E+04 -5.721639E+04 -2.753496E+03 -6.070398E+04  5.208769E+03 -2.530127E+03
        35   6 -5.991423E+04 -5.939458E+04 -5.078712E+03 -6.073489E+04  6.708421E+03 -2.236847E+03
        35   7 -1.004163E+05 -8.710184E+04 -1.048614E+04 -8.208129E+04  1.850741E+03 -3.842702E+03
        35   8 -1.123501E+05 -9.373316E+04 -1.429018E+04 -8.706624E+04  3.981231E+03 -3.450813E+03
        35   9 -1.219683E+05 -1.040162E+05 -1.957395E+04 -9.271350E+04  5.931938E+03 -2.819291E+03
        35  10 -1.850674E+04 -3.008172E+04  7.453051E+03 -4.058862E+04 -8.342024E-11 -2.302808E-10
        35  11 -9.436124E+03 -2.069795E+04  8.782970E+03 -3.433915E+04  2.014248E-11 -2.223912E-10
        35  12  2.145588E+03 -1.476961E+04  9.416622E+03 -2.875189E+04 -1.999672E-10 -1.951582E-10
        35  13 -5.946212E+04 -5.859201E+04 -1.516380E+03 -6.133554E+04  8.345326E-11 -1.330036E-10
        35  14 -6.089466E+04 -5.721640E+04 -2.753559E+03 -6.070397E+04 -5.957689E-10 -9.068149E-11
        35  15 -5.991428E+04 -5.939460E+04 -5.078806E+03 -6.073488E+04  4.146795E-10 -7.723601E-11
        35  16 -1.004163E+05 -8.710186E+04 -1.048617E+04 -8.208129E+04  2.982018E-10 -4.876265E-11
        35  17 -1.123501E+05 -9.373318E+04 -1.429023E+04 -8.706623E+04  5.183155E-11  1.061132E-11
        35  18 -1.219684E+05 -1.040162E+05 -1.957404E+04 -9.271349E+04 -7.954850E-11  2.645251E-11
        35  19 -1.850671E+04 -3.008171E+04  7.453105E+03 -4.058862E+04 -5.208202E+03  1.324701E+03
        35  20 -9.436079E+03 -2.069793E+04  8.783053E+03 -3.433916E+04 -6.436442E+03  1.609339E+03
        35  21  2.145649E+03 -1.476959E+04  9.416732E+03 -2.875190E+04 -7.485022E+03  1.654312E+03
        35  22 -5.946210E+04 -5.859200E+04 -1.516344E+03 -6.133555E+04 -3.529414E+03  2.583744E+03
        35  23 -6.089463E+04 -5.721639E+04 -2.753496E+03 -6.070398E+04 -5.208769E+03  2.530127E+03
        35  24 -5.991423E+04 -5.939458E+04 -5.078712E+03 -6.073489E+04 -6.708421E+03  2.236847E+03
        35  25 -1.004163E+05 -8.710184E+04 -1.048614E+04 -8.208129E+04 -1.850741E+03  3.842702E+03
        35  26 -1.123501E+05 -9.373316E+04 -1.429018E+04 -8.706624E+04 -3.981231E+03  3.450813E+03
        35  27 -1.219683E+05 -1.040162E+05 -1.957395E+04 -9.271350E+04 -5.931938E+03  2.819291E+03
        36   1  9.918113E+03 -1.126436E+04  9.667010E+03 -2.588555E+04  8.581730E+03 -1.378172E+03
        36   2  1.132373E+04  2.905916E+03  8.737627E+03 -1.493679E+04  8.765012E+03 -1.789146E+02
        36   3  9.597037E+03  6.164492E+03  4.458075E+03 -8.257748E+02  7.201057E+03  3.349718E+03
        36   4 -6.046725E+04 -5.965792E+04 -6.732866E+03 -6.107263E+04  7.667510E+03 -2.063931E+03
        36   5 -6.232825E+04 -6.066403E+04 -1.235022E+04 -5.745026E+04  1.223667E+04  2.424721E+03
        36   6 -6.827458E+04 -7.353512E+04 -2.512582E+04 -5.066542E+04  1.505844E+04  9.242954E+03
        36   7 -1.308469E+05 -1.080487E+05 -2.313306E+04 -9.625515E+04  6.753428E+03 -2.749591E+03
        36   8 -1.359748E+05 -1.242294E+05 -3.343882E+04 -9.995780E+04  1.570783E+04  5.027851E+03
        36   9 -1.461409E+05 -1.532281E+05 -5.471096E+04 -1.004977E+05  2.291468E+04  1.513474E+04
        36  10  9.918034E+03 -1.126438E+04  9.666868E+03 -2.588554E+04 -2.106091E-10 -1.925893E-10
        36  11  1.132364E+04  2.905895E+03  8.737483E+03 -1.493679E+04 -6.200122E-11  2.889126E-12
        36  12  9.596979E+03  6.164466E+03  4.457957E+03 -8.257943E+02  2.035188E-10  8.739081E-11
        36  13 -6.046731E+04 -5.965794E+04 -6.732985E+03 -6.107261E+04 -2.397399E-10 -2.166654E-11
        36  14 -6.232841E+04 -6.066408E+04 -1.235051E+04 -5.745028E+04  5.299023E-10  5.189198E-12
        36  15 -6.827484E+04 -7.353527E+04 -2.512641E+04 -5.066553E+04 -2.980805E-10 -8.551347E-12
        36  16 -1.308469E+05 -1.080487E+05 -2.313316E+04 -9.625513E+04  3.661509E-10  1.274620E-10
        36  17 -1.359750E+05 -1.242295E+05 -3.343933E+04 -9.995786E+04 -6.635423E-11  5.462352E-11
        36  18 -1.461416E+05 -1.532284E+05 -5.471238E+04 -1.004980E+05 -2.043690E-10 -4.169792E-11
        36  19  9.918113E+03 -1.126436E+04  9.667010E+03 -2.588555E+04 -8.581730E+03  1.378172E+03
        36  20  1.132373E+04  2.905916E+03  8.737627E+03 -1.493679E+04 -8.765012E+03  1.789146E+02
        36  21  9.597037E+03  6.164492E+03  4.458075E+03 -8.257748E+02 -7.201057E+03 -3.349718E+03
        36  22 -6.046725E+04 -5.965792E+04 -6.732866E+03 -6.107263E+04 -7.667510E+03  2.063931E+03
        36  23 -6.232825E+04 -6.066403E+04 -1.235022E+04 -5.745026E+04 -1.223667E+04 -2.424721E+03
        36  24 -6.827458E+04 -7.353512E+04 -2.512582E+04 -5.066542E+04 -1.505844E+04 -9.242954E+03
        36  25 -1.308469E+05 -1.080487E+05 -2.313306E+04 -9.625515E+04 -6.753428E+03  2.749591E+03
        36  26 -1.359748E+05 -1.242294E+05 -3.343882E+04 -9.995780E+04 -1.570783E+04 -5.027851E+03
        36  27 -1.461409E+05 -1.532281E+05 -5.471096E+04 -1.004977E+05 -2.291468E+04 -1.513474E+04
        37   1  5.173078E+05  5.289892E+04  6.035616E+04  3.079242E+04  4.163295E+04  2.063301E+00
        37   2  5.116653E+05  7.551404E+03  2.883876E+04  1.279993E+04  2.661956E+04  5.483924E-01
        37   3  5.173201E+05 -4.158215E+02  1.643571E+04 -5.192563E+03  1.160593E+04 -9.699305E-02
        37   4  5.173067E+05  5.289714E+04  6.035591E+04  5.597015E-10  4.163295E+04 -3.888555E-11
        37   5  5.116651E+05  7.551096E+03  2.883872E+04  5.938320E-10  2.661956E+04 -5.631486E-11
        37   6  5.173200E+05 -4.158721E+02  1.643570E+04 -1.124567E-09  1.160593E+04 -5.018364E-11
        37   7  5.173078E+05  5.289892E+04  6.035616E+04 -3.079242E+04  4.163295E+04 -2.063301E+00
        37   8  5.116653E+05  7.551404E+03  2.883876E+04 -1.279993E+04  2.661956E+04 -5.483924E-01
        37   9  5.173201E+05 -4.158215E+02  1.643571E+04  5.192563E+03  1.160593E+04  9.699305E-02
        37  10  5.173059E+05  5.289845E+04  6.035291E+04  3.079242E+04  1.150525E-10  6.577950E-13
        37  11  5.116645E+05  7.551214E+03  2.883743E+04  1.279993E+04 -1.363369E-10 -8.852228E-13
        37  12  5.173199E+05 -4.158576E+02  1.643546E+04 -5.192563E+03 -1.205079E-10 -3.112593E-11
        37  13  5.173049E+05  5.289667E+04  6.035265E+04  2.714592E-10  5.280922E-10 -2.598375E-11
        37  14  5.116644E+05  7.550906E+03  2.883739E+04 -2.030116E-10  5.406583E-10 -4.781319E-11
        37  15  5.173199E+05 -4.159083E+02  1.643545E+04 -9.530918E-10  3.091240E-10  1.120428E-11
        37  16  5.173059E+05  5.289845E+04  6.035291E+04 -3.079242E+04  3.159549E-12 -4.920279E-11
        37  17  5.116645E+05  7.551214E+03  2.883743E+04 -1.279993E+04  2.471821E-10 -1.285426E-10
        37  18  5.173199E+05 -4.158576E+02  1.643546E+04  5.192563E+03  2.144673E-10  3.968716E-11
        37  19  5.173078E+05  5.289892E+04  6.035616E+04  3.079242E+04 -4.163295E+04 -2.063301E+00
        37  20  5.116653E+05  7.551404E+03  2.883876E+04  1.279993E+04 -2.661956E+04 -5.483924E-01
        37  21  5.173201E+05 -4.158215E+02  1.643571E+04 -5.192563E+03 -1.160593E+04  9.699305E-02
        37  22  5.173067E+05  5.289714E+04  6.035591E+04 -8.246977E-10 -4.163295E+04 -6.605317E-12
        37  23  5.116651E+05  7.551096E+03  2.883872E+04 -4.633647E-10 -2.661956E+04 -4.962055E-11
        37  24  5.173200E+05 -4.158721E+02  1.643570E+04 -1.591615E-09 -1.160593E+04  7.598611E-11
        37  25  5.173078E+05  5.289892E+04  6.035616E+04 -3.079242E+04 -4.163295E+04  2.063301E+00
        37  26  5.116653E+05  7.551404E+03  2.883876E+04 -1.279993E+04 -2.661956E+04  5.483924E-01
        37  27  5.173201E+05 -4.158215E+02  1.643571E+04  5.192563E+03 -1.160593E+04 -9.699305E-02
        38   1  5.150137E+05  1.987513E+03  1.293294E+04  6.921920E+02  9.390931E+03  1.046202E-02
        38   2  5.145519E+05  1.161304E+02  7.816933E+03  1.767025E+02  5.495272E+03  1.562832E-03
        38   3  5.150149E+05 -8.307128E+01  5.653715E+03 -3.387881E+02  1.599628E+03 -8.722226E-04
        38   4  5.150137E+05  1.987512E+03  1.293294E+04 -1.207717E-09  9.390931E+03  2.121927E-11
        38   5  5.145519E+05  1.161304E+02  7.816933E+03  5.975467E-10  5.495272E+03  1.237336E-10
        38   6  5.150149E+05 -8.307150E+01  5.653714E+03  4.577621E-10  1.599628E+03 -1.333151E-11
        38   7  5.150137E+05  1.987513E+03  1.293294E+04 -6.921920E+02  9.390931E+03 -1.046202E-02
        38   8  5.145519E+05  1.161304E+02  7.816933E+03 -1.767025E+02  5.495272E+03 -1.562832E-03
        38   9  5.150149E+05 -8.307128E+01  5.653715E+03  3.387881E+02  1.599628E+03  8.722225E-04
        38  10  5.150136E+05  1.987489E+03  1.293278E+04  6.921920E+02  3.404176E-10 -7.634194E-11
        38  11  5.145519E+05  1.161223E+02  7.816877E+03  1.767025E+02  3.781781E-10 -2.966440E-11
        38  12  5.150149E+05 -8.307197E+01  5.653710E+03 -3.387881E+02 -7.416247E-11  1.091319E-10
        38  13  5.150136E+05  1.987488E+03  1.293278E+04 -9.889230E-10  4.501297E-10  1.239154E-11
        38  14  5.145519E+05  1.161223E+02  7.816877E+03  1.935984E-10  4.966340E-10 -3.254818E-11
        38  15  5.150149E+05 -8.307218E+01  5.653710E+03  8.459417E-10  4.872347E-10  4.128257E-11
        38  16  5.150136E+05  1.987489E+03  1.293278E+04 -6.921920E+02 -2.836139E-10  7.468347E-11
        38  17  5.145519E+05  1.161223E+02  7.816877E+03 -1.767025E+02 -9.226649E-11 -4.581882E-12
        38  18  5.150149E+05 -8.307197E+01  5.653710E+03  3.387881E+02  2.325912E-10 -3.525599E-11
        38  19  5.150137E+05  1.987513E+03  1.293294E+04  6.921920E+02 -9.390931E+03 -1.046202E-02
        38  20  5.145519E+05  1.161304E+02  7.816933E+03  1.767025E+02 -5.495272E+03 -1.562832E-03
        38  21  5.150149E+05 -8.307128E+01  5.653715E+03 -3.387881E+02 -1.599628E+03  8.722228E-04
        38  22  5.150137E+05  1.987512E+03  1.293294E+04 -1.570659E-09 -9.390931E+03  1.602422E-12
        38  23  5.145519E+05  1.161304E+02  7.816933E+03 -7.043847E-11 -5.495272E+03 -1.854169E-10
        38  24  5.150149E+05 -8.307150E+01  5.653714E+03  2.905234E-10 -1.599628E+03  9.241982E-11
        38  25  5.150137E+05  1.987513E+03  1.293294E+04 -6.921920E+02 -9.390931E+03  1.046202E-02
        38  26  5.145519E+05  1.161304E+02  7.816933E+03 -1.767025E+02 -5.495272E+03  1.562832E-03
        38  27  5.150149E+05 -8.307128E+01  5.653715E+03  3.387881E+02 -1.599628E+03 -8.722226E-04
        39   1  5.149494E+05 -3.919958E+01  5.270758E+03  1.087944E+02  6.363912E+02  1.114322E-04
        39   2  5.146342E+05  4.311469E+01  5.715078E+03 -1.736892E+02 -2.208033E+03  6.172465E-04
        39   3  5.149488E+05  1.164888E+03  8.269986E+03 -4.561683E+02 -5.052420E+03  3.709409E-03
        39   4  5.149494E+05 -3.919960E+01  5.270758E+03 -6.202203E-11  6.363912E+02 -7.267869E-11
        39   5  5.146342E+05  4.311463E+01  5.715078E+03  5.332529E-10 -2.208033E+03 -2.208209E-11
        39   6  5.149488E+05  1.164888E+03  8.269986E+03 -5.745800E-10 -5.052420E+03  2.874262E-11
        39   7  5.149494E+05 -3.919958E+01  5.270758E+03 -1.087944E+02  6.363912E+02 -1.114323E-04
        39   8  5.146342E+05  4.311469E+01  5.715078E+03  1.736892E+02 -2.208033E+03 -6.172465E-04
        39   9  5.149488E+05  1.164888E+03  8.269986E+03  4.561683E+02 -5.052420E+03 -3.709409E-03
        39  10  5.149494E+05 -3.919969E+01  5.270757E+03  1.087944E+02  2.815471E-10  1.693330E-10
        39  11  5.146342E+05  4.311338E+01  5.715069E+03 -1.736892E+02  1.451894E-10  7.371854E-11
        39  12  5.149488E+05  1.164882E+03  8.269938E+03 -4.561683E+02 -2.930705E-13 -3.059839E-11
        39  13  5.149494E+05 -3.919971E+01  5.270757E+03  1.249750E-09  5.470184E-10  5.174633E-11
        39  14  5.146342E+05  4.311332E+01  5.715069E+03  1.178091E-09 -1.855516E-10 -2.136717E-11
        39  15  5.149488E+05  1.164881E+03  8.269938E+03 -4.399306E-10  5.417816E-10 -7.182801E-11
        39  16  5.149494E+05 -3.919969E+01  5.270757E+03 -1.087944E+02  1.931856E-11 -6.949323E-11
        39  17  5.146342E+05  4.311338E+01  5.715069E+03  1.736892E+02 -5.015690E-11 -1.086327E-10
        39  18  5.149488E+05  1.164882E+03  8.269938E+03  4.561683E+02 -1.732545E-10 -1.162140E-10
        39  19  5.149494E+05 -3.919958E+01  5.270758E+03  1.087944E+02 -6.363912E+02 -1.114319E-04
        39  20  5.146342E+05  4.311469E+01  5.715078E+03 -1.736892E+02  2.208033E+03 -6.172464E-04
        39  21  5.149488E+05  1.164888E+03  8.269986E+03 -4.561683E+02  5.052420E+03 -3.709409E-03
        39  22  5.149494E+05 -3.919960E+01  5.270758E+03 -6.816364E-10 -6.363912E+02  1.743217E-10
        39  23  5.146342E+05  4.311463E+01  5.715078E+03  7.248784E-11  2.208033E+03 -2.208257E-11
        39  24  5.149488E+05  1.164888E+03  8.269986E+03 -1.060584E-09  5.052420E+03 -1.541871E-10
        39  25  5.149494E+05 -3.919958E+01  5.270758E+03 -1.087944E+02 -6.363912E+02  1.114323E-04
        39  26  5.146342E+05  4.311469E+01  5.715078E+03  1.736892E+02  2.208033E+03  6.172464E-04
        39  27  5.149488E+05  1.164888E+03  8.269986E+03  4.561683E+02  5.052420E+03  3.709409E-03
        40   1  5.163016E+05 -2.567845E+02  1.018567E+04  3.045773E+03 -6.460154E+03 -3.166793E-02
        40   2  5.129411E+05  4.472211E+03  1.730814E+04 -7.617218E+03 -1.546554E+04  1.896022E-01
        40   3  5.162941E+05  3.137227E+04  3.583284E+04 -1.828047E+04 -2.447106E+04  7.199809E-01
        40   4  5.163016E+05 -2.568019E+02  1.018566E+04  3.746266E-10 -6.460154E+03  5.096870E-11
        40   5  5.129411E+05  4.472102E+03  1.730812E+04  7.006286E-10 -1.546554E+04  6.302468E-11
        40   6  5.162937E+05  3.137165E+04  3.583275E+04 -2.378039E-10 -2.447106E+04  3.989513E-11
        40   7  5.163016E+05 -2.567845E+02  1.018567E+04 -3.045773E+03 -6.460154E+03  3.166793E-02
        40   8  5.129411E+05  4.472211E+03  1.730814E+04  7.617218E+03 -1.546554E+04 -1.896022E-01
        40   9  5.162941E+05  3.137227E+04  3.583284E+04  1.828047E+04 -2.447106E+04 -7.199809E-01
        40  10  5.163015E+05 -2.567957E+02  1.018559E+04  3.045773E+03  6.182395E-11 -5.707521E-11
        40  11  5.129409E+05  4.472147E+03  1.730769E+04 -7.617218E+03  1.193555E-10 -2.574559E-11
        40  12  5.162934E+05  3.137211E+04  3.583171E+04 -1.828047E+04  1.073431E-10  4.684631E-12
        40  13  5.163015E+05 -2.568131E+02  1.018558E+04  1.270904E-09  3.394764E-10 -3.666466E-12
        40  14  5.129408E+05  4.472038E+03  1.730767E+04  4.460614E-10  4.103270E-10  1.215543E-10
        40  15  5.162930E+05  3.137149E+04  3.583162E+04 -1.178954E-10  8.643304E-11  5.772121E-11
        40  16  5.163015E+05 -2.567957E+02  1.018559E+04 -3.045773E+03  5.220519E-10  5.828527E-11
        40  17  5.129409E+05  4.472147E+03  1.730769E+04  7.617218E+03  2.402474E-10  2.922801E-10
        40  18  5.162934E+05  3.137211E+04  3.583171E+04  1.828047E+04 -3.011951E-10  1.112324E-10
        40  19  5.163016E+05 -2.567845E+02  1.018567E+04  3.045773E+03  6.460154E+03  3.166793E-02
        40  20  5.129411E+05  4.472211E+03  1.730814E+04 -7.617218E+03  1.546554E+04 -1.896022E-01
        40  21  5.162941E+05  3.137227E+04  3.583284E+04 -1.828047E+04  2.447106E+04 -7.199809E-01
        40  22  5.163016E+05 -2.568019E+02  1.018566E+04  2.541967E-11  6.460154E+03 -5.909218E-11
        40  23  5.129411E+05  4.472102E+03  1.730812E+04  7.311443E-10  1.546554E+04  1.850240E-10
        40  24  5.162937E+05  3.137165E+04  3.583275E+04 -1.168548E-10  2.447106E+04  7.664430E-11
        40  25  5.163016E+05 -2.567845E+02  1.018567E+04 -3.045773E+03  6.460154E+03 -3.166793E-02
        40  26  5.129411E+05  4.472211E+03  1.730814E+04  7.617218E+03  1.546554E+04  1.896022E-01
        40  27  5.162941E+05  3.137227E+04  3.583284E+04  1.828047E+04  2.447106E+04  7.199809E-01
        41   1  3.665775E+02  1.150996E+05 -1.399806E+04 -1.431726E+04  3.545081E+03 -4.558301E+04
        41   2  4.873993E+04  5.143024E+04  7.775085E+03 -2.792234E+04  1.042134E+04 -3.388858E+04
        41   3  3.991522E+04 -2.804540E+04  7.639595E+03 -6.379547E+04  9.080789E+03 -2.219603E+04
        41   4 -7.415972E+04 -1.852231E+05 -8.632299E+04 -5.493507E+04  3.549639E+03 -5.869696E+04
        41   5 -6.607525E+03 -1.764528E+05 -4.109200E+04 -4.379482E+04  1.042302E+04 -3.718856E+04
        41   6  2.028363E+03 -1.852067E+05 -2.459352E+04 -5.492496E+04  9.079169E+03 -1.568024E+04
        41   7 -1.486863E+05 -4.854593E+05 -1.586528E+05 -9.553317E+04  3.555914E+03 -7.180458E+04
        41   8 -6.195743E+04 -4.042864E+05 -8.996193E+04 -5.966139E+04  1.042488E+04 -4.048733E+04
        41   9 -3.585973E+04 -3.423442E+05 -5.682775E+04 -4.605673E+04  9.077736E+03 -9.166069E+03
        41  10  3.660063E+02  1.150973E+05 -1.400198E+04 -1.431713E+04 -6.179866E-11 -2.373076E-10
        41  11  4.873950E+04  5.142898E+04  7.772723E+03 -2.792206E+04 -6.140019E-10 -1.728224E-11
        41  12  3.991500E+04 -2.804596E+04  7.638514E+03 -6.379531E+04 -2.064481E-10  4.174529E-10
        41  13 -7.416066E+04 -1.852268E+05 -8.632949E+04 -5.493491E+04 -6.365426E-11 -4.204922E-12
        41  14 -6.608013E+03 -1.764543E+05 -4.109480E+04 -4.379451E+04 -5.202483E-10 -5.605905E-11
        41  15  2.028208E+03 -1.852070E+05 -2.459414E+04 -5.492484E+04 -2.484584E-10 -1.253515E-10
        41  16 -1.486877E+05 -4.854648E+05 -1.586625E+05 -9.553297E+04 -5.936877E-11  2.261135E-10
        41  17 -6.195798E+04 -4.042882E+05 -8.996521E+04 -5.966105E+04 -2.559004E-10 -1.174696E-11
        41  18 -3.585985E+04 -3.423444E+05 -5.682806E+04 -4.605666E+04  2.155300E-10 -3.795395E-10
        41  19  3.665775E+02  1.150996E+05 -1.399806E+04 -1.431726E+04 -3.545081E+03  4.558301E+04
        41  20  4.873993E+04  5.143024E+04  7.775085E+03 -2.792234E+04 -1.042134E+04  3.388858E+04
        41  21  3.991522E+04 -2.804540E+04  7.639595E+03 -6.379547E+04 -9.080789E+03  2.219603E+04
        41  22 -7.415972E+04 -1.852231E+05 -8.632299E+04 -5.493507E+04 -3.549639E+03  5.869696E+04
        41  23 -6.607525E+03 -1.764528E+05 -4.109200E+04 -4.379482E+04 -1.042302E+04  3.718856E+04
        41  24  2.028363E+03 -1.852067E+05 -2.459352E+04 -5.492496E+04 -9.079169E+03  1.568024E+04
        41  25 -1.486863E+05 -4.854593E+05 -1.586528E+05 -9.553317E+04 -3.555914E+03  7.180458E+04
        41  26 -6.195743E+04 -4.042864E+05 -8.996193E+04 -5.966139E+04 -1.042488E+04  4.048733E+04
        41  27 -3.585973E+04 -3.423442E+05 -5.682775E+04 -4.605673E+04 -9.077736E+03  9.166069E+03
        42   1  2.257647E+04 -7.628914E+04  1.501854E+03 -5.381333E+04  6.018934E+03 -1.687630E+04
        42   2  8.042142E+03 -1.468841E+05 -7.123927E+03 -4.359497E+04  2.082967E+03 -1.000562E+04
        42   3 -1.022132E+04 -2.193091E+05 -2.115773E+04 -5.607047E+04 -1.947540E+03 -3.135830E+03
        42   4 -2.848737E+03 -1.817228E+05 -2.017947E+04 -5.502103E+04  6.017898E+03 -1.222908E+04
        42   5 -1.131059E+02 -1.807945E+05 -1.398403E+04 -4.367377E+04  2.081802E+03 -5.246603E+03
        42   6 -1.126065E+03 -1.817209E+05 -1.327497E+04 -5.502058E+04 -1.948826E+03  1.735743E+03
        42   7 -2.827462E+04 -2.871458E+05 -4.186130E+04 -5.622851E+04  6.016843E+03 -7.582638E+03
        42   8 -8.268413E+03 -2.147037E+05 -2.084411E+04 -4.375256E+04  2.080636E+03 -4.878434E+02
        42   9  7.969113E+03 -1.441313E+05 -5.392203E+03 -5.397063E+04 -1.950095E+03  6.607606E+03
        42  10  2.257635E+04 -7.628946E+04  1.501251E+03 -5.381325E+04 -3.052158E-10 -3.393066E-10
        42  11  8.042110E+03 -1.468842E+05 -7.124123E+03 -4.359495E+04 -6.814217E-10 -9.053355E-11
        42  12 -1.022132E+04 -2.193091E+05 -2.115775E+04 -5.607047E+04  1.360627E-10  5.581789E-10
        42  13 -2.848816E+03 -1.817230E+05 -2.017982E+04 -5.502097E+04 -4.234038E-10 -4.356886E-12
        42  14 -1.131179E+02 -1.807945E+05 -1.398409E+04 -4.367376E+04 -2.673802E-10 -8.519274E-11
        42  15 -1.126070E+03 -1.817209E+05 -1.327498E+04 -5.502058E+04  1.656111E-10 -1.619118E-10
        42  16 -2.827468E+04 -2.871459E+05 -4.186148E+04 -5.622847E+04  3.686486E-10  2.971454E-10
        42  17 -8.268417E+03 -2.147037E+05 -2.084412E+04 -4.375256E+04  2.438258E-10  3.153613E-11
        42  18  7.969097E+03 -1.441314E+05 -5.392292E+03 -5.397062E+04 -5.315574E-11 -4.957106E-10
        42  19  2.257647E+04 -7.628914E+04  1.501854E+03 -5.381333E+04 -6.018934E+03  1.687630E+04
        42  20  8.042142E+03 -1.468841E+05 -7.123927E+03 -4.359497E+04 -2.082967E+03  1.000562E+04
        42  21 -1.022132E+04 -2.193091E+05 -2.115773E+04 -5.607047E+04  1.947540E+03  3.135830E+03
        42  22 -2.848737E+03 -1.817228E+05 -2.017947E+04 -5.502103E+04 -6.017898E+03  1.222908E+04
        42  23 -1.131059E+02 -1.807945E+05 -1.398403E+04 -4.367377E+04 -2.081802E+03  5.246603E+03
        42  24 -1.126065E+03 -1.817209E+05 -1.327497E+04 -5.502058E+04  1.948826E+03 -1.735743E+03
        42  25 -2.827462E+04 -2.871458E+05 -4.186130E+04 -5.622851E+04 -6.016843E+03  7.582638E+03
        42  26 -8.268413E+03 -2.147037E+05 -2.084411E+04 -4.375256E+04 -2.080636E+03  4.878434E+02
        42  27  7.969113E+03 -1.441313E+05 -5.392203E+03 -5.397063E+04  1.950095E+03 -6.607606E+03
        43   1 -2.068263E+04 -2.723217E+05 -3.255590E+04 -5.115130E+04 -4.949187E+03 -2.382899E+03
        43   2 -4.185265E+04 -3.392480E+05 -5.432928E+04 -5.093081E+04 -6.985084E+03  1.565649E+04
        43   3 -9.062234E+04 -4.154213E+05 -9.475209E+04 -7.308001E+04 -2.525455E+03  3.369416E+04
        43   4  8.689308E+02 -1.830657E+05 -1.408791E+04 -5.494772E+04 -4.950727E+03  3.926671E+03
        43   5 -2.898867E+03 -1.791196E+05 -1.971915E+04 -4.376521E+04 -6.984470E+03  1.420567E+04
        43   6 -3.291482E+04 -1.830756E+05 -3.860662E+04 -5.495357E+04 -2.522810E+03  2.448521E+04
        43   7  2.242006E+04 -9.380201E+04  4.379810E+03 -5.874469E+04 -4.952345E+03  1.023713E+04
        43   8  3.605342E+04 -1.896705E+04  1.488949E+04 -3.659773E+04 -6.983891E+03  1.275447E+04
        43   9  2.479003E+04  4.932040E+04  1.753546E+04 -3.682032E+04 -2.520703E+03  1.527282E+04
        43  10 -2.068265E+04 -2.723217E+05 -3.255595E+04 -5.115131E+04  3.535383E-10 -3.950969E-11
        43  11 -4.185277E+04 -3.392483E+05 -5.432983E+04 -5.093072E+04 -8.266757E-11 -2.150721E-10
        43  12 -9.062265E+04 -4.154226E+05 -9.475423E+04 -7.307994E+04  1.286244E-10 -1.097585E-10
        43  13  8.689004E+02 -1.830657E+05 -1.408798E+04 -5.494770E+04  2.815122E-10  8.219883E-13
        43  14 -2.898973E+03 -1.791198E+05 -1.971962E+04 -4.376513E+04 -7.477699E-12 -5.500353E-11
        43  15 -3.291499E+04 -1.830762E+05 -3.860776E+04 -5.495352E+04 -1.786734E-10 -6.852770E-11
        43  16  2.242000E+04 -9.380213E+04  4.379567E+03 -5.874465E+04  2.709381E-10  1.909092E-11
        43  17  3.605332E+04 -1.896724E+04  1.488909E+04 -3.659766E+04  1.309062E-10  1.992437E-10
        43  18  2.478996E+04  4.932015E+04  1.753501E+04 -3.682029E+04  2.988740E-11  1.416745E-10
        43  19 -2.068263E+04 -2.723217E+05 -3.255590E+04 -5.115130E+04  4.949187E+03  2.382899E+03
        43  20 -4.185265E+04 -3.392480E+05 -5.432928E+04 -5.093081E+04  6.985084E+03 -1.565649E+04
        43  21 -9.062234E+04 -4.154213E+05 -9.475209E+04 -7.308001E+04  2.525455E+03 -3.369416E+04
        43  22  8.689308E+02 -1.830657E+05 -1.408791E+04 -5.494772E+04  4.950727E+03 -3.926671E+03
        43  23 -2.898867E+03 -1.791196E+05 -1.971915E+04 -4.376521E+04  6.984470E+03 -1.420567E+04
        43  24 -3.291482E+04 -1.830756E+05 -3.860662E+04 -5.495357E+04  2.522810E+03 -2.448521E+04
        43  25  2.242006E+04 -9.380201E+04  4.379810E+03 -5.874469E+04  4.952345E+03 -1.023713E+04
        43  26  3.605342E+04 -1.896705E+04  1.488949E+04 -3.659773E+04  6.983891E+03 -1.275447E+04
        43  27  2.479003E+04  4.932040E+04  1.753546E+04 -3.682032E+04  2.520703E+03 -1.527282E+04
        44   1 -1.434662E+05 -1.250637E+05 -8.747843E+04 -6.803946E+04 -4.987601E+04 -3.751937E+04
        44   2 -1.113416E+05 -5.856605E+04 -3.543245E+04 -1.009929E+05 -3.265259E+04 -2.481326E+04
        44   3 -1.338195E+05 -6.380684E+04 -2.203181E+04 -9.928697E+04 -1.556277E+04 -1.192979E+04
        44   4 -1.659467E+05 -1.232958E+05 -9.160909E+04 -7.097725E+04 -4.992463E+04 -3.755719E+04
        44   5 -1.254760E+05 -6.402181E+04 -3.931500E+04 -1.058550E+05 -3.266236E+04 -2.482081E+04
        44   6 -1.396176E+05 -7.649616E+04 -2.570122E+04 -1.060730E+05 -1.553331E+04 -1.190749E+04
        44   7 -1.884263E+05 -1.215276E+05 -9.573970E+04 -7.391507E+04 -4.997324E+04 -3.759501E+04
        44   8 -1.396103E+05 -6.947754E+04 -4.319756E+04 -1.107169E+05 -3.267212E+04 -2.482837E+04
        44   9 -1.454157E+05 -8.918521E+04 -2.937064E+04 -1.128589E+05 -1.550385E+04 -1.188519E+04
        44  10 -1.434693E+05 -1.250659E+05 -8.748575E+04 -6.804096E+04 -3.022269E-10 -1.285227E-10
        44  11 -1.113429E+05 -5.856700E+04 -3.543561E+04 -1.009936E+05 -6.837181E-10 -2.472063E-10
        44  12 -1.338198E+05 -6.380705E+04 -2.203253E+04 -9.928712E+04  1.217840E-09  9.127821E-10
        44  13 -1.659497E+05 -1.232979E+05 -9.161643E+04 -7.097876E+04  3.616294E-10 -1.827069E-10
        44  14 -1.254773E+05 -6.402276E+04 -3.931816E+04 -1.058556E+05  5.878973E-10 -2.803039E-12
        44  15 -1.396179E+05 -7.649637E+04 -2.570194E+04 -1.060731E+05  2.289284E-09  1.260303E-09
        44  16 -1.884294E+05 -1.215298E+05 -9.574705E+04 -7.391659E+04  7.197498E-11 -1.743212E-10
        44  17 -1.396116E+05 -6.947849E+04 -4.320072E+04 -1.107176E+05  9.303927E-10  2.164290E-10
        44  18 -1.454160E+05 -8.918542E+04 -2.937136E+04 -1.128590E+05  2.501278E-09  1.616396E-09
        44  19 -1.434662E+05 -1.250637E+05 -8.747843E+04 -6.803946E+04  4.987601E+04  3.751937E+04
        44  20 -1.113416E+05 -5.856605E+04 -3.543245E+04 -1.009929E+05  3.265259E+04  2.481326E+04
        44  21 -1.338195E+05 -6.380684E+04 -2.203181E+04 -9.928697E+04  1.556277E+04  1.192979E+04
        44  22 -1.659467E+05 -1.232958E+05 -9.160909E+04 -7.097725E+04  4.992463E+04  3.755719E+04
        44  23 -1.254760E+05 -6.402181E+04 -3.931500E+04 -1.058550E+05  3.266236E+04  2.482081E+04
        44  24 -1.396176E+05 -7.649616E+04 -2.570122E+04 -1.060730E+05  1.553331E+04  1.190749E+04
        44  25 -1.884263E+05 -1.215276E+05 -9.573970E+04 -7.391507E+04  4.997324E+04  3.759501E+04
        44  26 -1.396103E+05 -6.947754E+04 -4.319756E+04 -1.107169E+05  3.267212E+04  2.482837E+04
        44  27 -1.454157E+05 -8.918521E+04 -2.937064E+04 -1.128589E+05  1.550385E+04  1.188519E+04
        45   1 -1.316245E+05 -7.861650E+04 -1.861658E+04 -9.399439E+04 -1.219021E+04 -9.334419E+03
        45   2 -1.267937E+05 -7.001841E+04 -8.043526E+03 -9.914887E+04 -7.816702E+03 -6.047904E+03
        45   3 -1.313867E+05 -7.072024E+04 -4.635002E+03 -9.902796E+04 -3.461923E+03 -2.736395E+03
        45   4 -1.409306E+05 -8.280123E+04 -2.129386E+04 -9.746679E+04 -1.219199E+04 -9.335801E+03
        45   5 -1.343401E+05 -7.481318E+04 -1.049150E+04 -1.026074E+05 -7.812956E+03 -6.045102E+03
        45   6 -1.371745E+05 -7.612639E+04 -6.858559E+03 -1.024726E+05 -3.452643E+03 -2.729427E+03
        45   7 -1.502367E+05 -8.698596E+04 -2.397115E+04 -1.009392E+05 -1.219377E+04 -9.337182E+03
        45   8 -1.418864E+05 -7.960793E+04 -1.293948E+04 -1.060659E+05 -7.809210E+03 -6.042299E+03
        45   9 -1.429624E+05 -8.153249E+04 -9.082117E+03 -1.059171E+05 -3.443363E+03 -2.722459E+03
        45  10 -1.316247E+05 -7.861663E+04 -1.861702E+04 -9.399448E+04  2.317560E-09  1.636644E-09
        45  11 -1.267938E+05 -7.001846E+04 -8.043710E+03 -9.914891E+04  4.713750E-10  2.711649E-10
        45  12 -1.313867E+05 -7.072026E+04 -4.635038E+03 -9.902797E+04 -5.433323E-10 -6.838131E-11
        45  13 -1.409308E+05 -8.280136E+04 -2.129430E+04 -9.746688E+04  2.228296E-09  1.317808E-09
        45  14 -1.343402E+05 -7.481324E+04 -1.049168E+04 -1.026074E+05  1.900124E-11  1.330107E-10
        45  15 -1.371745E+05 -7.612640E+04 -6.858596E+03 -1.024726E+05  1.522980E-11 -5.716327E-11
        45  16 -1.502369E+05 -8.698609E+04 -2.397159E+04 -1.009392E+05  1.327986E-09  9.750015E-10
        45  17 -1.418865E+05 -7.960799E+04 -1.293966E+04 -1.060659E+05 -3.568570E-10 -9.907720E-11
        45  18 -1.429624E+05 -8.153250E+04 -9.082153E+03 -1.059171E+05 -2.256479E-10  3.761685E-11
        45  19 -1.316245E+05 -7.861650E+04 -1.861658E+04 -9.399439E+04  1.219021E+04  9.334419E+03
        45  20 -1.267937E+05 -7.001841E+04 -8.043526E+03 -9.914887E+04  7.816702E+03  6.047904E+03
        45  21 -1.313867E+05 -7.072024E+04 -4.635002E+03 -9.902796E+04  3.461923E+03  2.736395E+03
        45  22 -1.409306E+05 -8.280123E+04 -2.129386E+04 -9.746679E+04  1.219199E+04  9.335801E+03
        45  23 -1.343401E+05 -7.481318E+04 -1.049150E+04 -1.026074E+05  7.812956E+03  6.045102E+03
        45  24 -1.371745E+05 -7.612639E+04 -6.858559E+03 -1.024726E+05  3.452643E+03  2.729427E+03
        45  25 -1.502367E+05 -8.698596E+04 -2.397115E+04 -1.009392E+05  1.219377E+04  9.337182E+03
        45  26 -1.418864E+05 -7.960793E+04 -1.293948E+04 -1.060659E+05  7.809210E+03  6.042299E+03
        45  27 -1.429624E+05 -8.153249E+04 -9.082117E+03 -1.059171E+05  3.443363E+03  2.722459E+03
        46   1 -1.335420E+05 -7.465886E+04 -4.549517E+03 -9.962248E+04 -2.563793E+03 -2.031954E+03
        46   2 -1.326800E+05 -7.426979E+04 -2.867076E+03 -1.007865E+05 -1.015225E+03 -8.330577E+02
        46   3 -1.350607E+05 -7.469393E+04 -3.219962E+03 -1.005415E+05  5.320806E+02  3.675525E+02
        46   4 -1.373230E+05 -7.694553E+04 -5.751059E+03 -1.013026E+05 -2.558615E+03 -2.028071E+03
        46   5 -1.355615E+05 -7.628992E+04 -3.839555E+03 -1.021938E+05 -1.009678E+03 -8.288965E+02
        46   6 -1.370428E+05 -7.644761E+04 -3.963710E+03 -1.016760E+05  5.380020E+02  3.719943E+02
        46   7 -1.411040E+05 -7.923219E+04 -6.952602E+03 -1.029828E+05 -2.553437E+03 -2.024189E+03
        46   8 -1.384430E+05 -7.831005E+04 -4.812036E+03 -1.036012E+05 -1.004131E+03 -8.247354E+02
        46   9 -1.390249E+05 -7.820128E+04 -4.707460E+03 -1.028106E+05  5.439234E+02  3.764360E+02
        46  10 -1.335420E+05 -7.465886E+04 -4.549537E+03 -9.962248E+04 -2.561868E-10  5.244299E-11
        46  11 -1.326800E+05 -7.426980E+04 -2.867079E+03 -1.007865E+05 -6.802154E-10  1.861653E-11
        46  12 -1.350607E+05 -7.469393E+04 -3.219963E+03 -1.005415E+05  1.971167E-10 -6.891659E-11
        46  13 -1.373230E+05 -7.694553E+04 -5.751079E+03 -1.013026E+05 -7.368570E-11  9.270994E-11
        46  14 -1.355615E+05 -7.628993E+04 -3.839558E+03 -1.021938E+05 -3.400149E-10  8.190417E-11
        46  15 -1.370428E+05 -7.644761E+04 -3.963711E+03 -1.016760E+05 -5.413356E-11 -1.191187E-10
        46  16 -1.411040E+05 -7.923220E+04 -6.952622E+03 -1.029828E+05  4.348731E-11  9.269458E-11
        46  17 -1.384430E+05 -7.831006E+04 -4.812040E+03 -1.036012E+05  4.233405E-10 -4.813981E-11
        46  18 -1.390249E+05 -7.820128E+04 -4.707461E+03 -1.028106E+05  3.267602E-10 -7.544258E-11
        46  19 -1.335420E+05 -7.465886E+04 -4.549517E+03 -9.962248E+04  2.563793E+03  2.031954E+03
        46  20 -1.326800E+05 -7.426979E+04 -2.867076E+03 -1.007865E+05  1.015225E+03  8.330577E+02
        46  21 -1.350607E+05 -7.469393E+04 -3.219962E+03 -1.005415E+05 -5.320806E+02 -3.675525E+02
        46  22 -1.373230E+05 -7.694553E+04 -5.751059E+03 -1.013026E+05  2.558615E+03  2.028071E+03
        46  23 -1.355615E+05 -7.628992E+04 -3.839555E+03 -1.021938E+05  1.009678E+03  8.288965E+02
        46  24 -1.370428E+05 -7.644761E+04 -3.963710E+03 -1.016760E+05 -5.380020E+02 -3.719943E+02
        46  25 -1.411040E+05 -7.923219E+04 -6.952602E+03 -1.029828E+05  2.553437E+03  2.024189E+03
        46  26 -1.384430E+05 -7.831005E+04 -4.812036E+03 -1.036012E+05  1.004131E+03  8.247354E+02
        46  27 -1.390249E+05 -7.820128E+04 -4.707460E+03 -1.028106E+05 -5.439234E+02 -3.764360E+02
        47   1 -1.374527E+05 -7.712225E+04 -4.528458E+03 -1.026283E+05  1.107556E+03  8.282592E+02
        47   2 -1.368133E+05 -7.668699E+04 -6.084611E+03 -1.030596E+05  3.406556E+03  2.596563E+03
        47   3 -1.416573E+05 -8.013579E+04 -1.132728E+04 -1.006454E+05  5.716220E+03  4.350576E+03
        47   4 -1.369831E+05 -7.613938E+04 -4.237622E+03 -1.020998E+05  1.115438E+03  8.341731E+02
        47   5 -1.351205E+05 -7.575908E+04 -5.564994E+03 -1.023514E+05  3.411241E+03  2.600077E+03
        47   6 -1.387406E+05 -7.926213E+04 -1.057609E+04 -9.975769E+04  5.717718E+03  4.351690E+03
        47   7 -1.365136E+05 -7.515650E+04 -3.946787E+03 -1.015712E+05  1.123320E+03  8.400869E+02
        47   8 -1.334278E+05 -7.483117E+04 -5.045377E+03 -1.016433E+05  3.415927E+03  2.603590E+03
        47   9 -1.358240E+05 -7.838847E+04 -9.824909E+03 -9.886994E+04  5.719217E+03  4.352803E+03
        47  10 -1.374527E+05 -7.712225E+04 -4.528461E+03 -1.026283E+05  6.595858E-11 -1.471552E-10
        47  11 -1.368133E+05 -7.668700E+04 -6.084646E+03 -1.030596E+05 -5.038175E-10 -1.384510E-12
        47  12 -1.416573E+05 -8.013582E+04 -1.132738E+04 -1.006455E+05 -1.459438E-10 -6.729094E-11
        47  13 -1.369831E+05 -7.613938E+04 -4.237625E+03 -1.020998E+05  1.074067E-10 -1.394342E-10
        47  14 -1.351205E+05 -7.575909E+04 -5.565028E+03 -1.023514E+05 -2.422699E-10 -5.000836E-11
        47  15 -1.387407E+05 -7.926216E+04 -1.057619E+04 -9.975771E+04 -7.669548E-10 -3.182458E-11
        47  16 -1.365136E+05 -7.515650E+04 -3.946790E+03 -1.015712E+05  5.053528E-10 -5.744425E-11
        47  17 -1.334278E+05 -7.483118E+04 -5.045412E+03 -1.016433E+05  2.278821E-10  2.631263E-11
        47  18 -1.358240E+05 -7.838850E+04 -9.825006E+03 -9.886996E+04  4.487763E-10  9.717168E-11
        47  19 -1.374527E+05 -7.712225E+04 -4.528458E+03 -1.026283E+05 -1.107556E+03 -8.282592E+02
        47  20 -1.368133E+05 -7.668699E+04 -6.084611E+03 -1.030596E+05 -3.406556E+03 -2.596563E+03
        47  21 -1.416573E+05 -8.013579E+04 -1.132728E+04 -1.006454E+05 -5.716220E+03 -4.350576E+03
        47  22 -1.369831E+05 -7.613938E+04 -4.237622E+03 -1.020998E+05 -1.115438E+03 -8.341731E+02
        47  23 -1.351205E+05 -7.575908E+04 -5.564994E+03 -1.023514E+05 -3.411241E+03 -2.600077E+03
        47  24 -1.387406E+05 -7.926213E+04 -1.057609E+04 -9.975769E+04 -5.717718E+03 -4.351690E+03
        47  25 -1.365136E+05 -7.515650E+04 -3.946787E+03 -1.015712E+05 -1.123320E+03 -8.400869E+02
        47  26 -1.334278E+05 -7.483117E+04 -5.045377E+03 -1.016433E+05 -3.415927E+03 -2.603590E+03
        47  27 -1.358240E+05 -7.838847E+04 -9.824909E+03 -9.886994E+04 -5.719217E+03 -4.352803E+03
        48   1 -1.409092E+05 -8.236063E+04 -1.441139E+04 -1.071788E+05  7.339974E+03  5.618128E+03
        48   2 -1.380538E+05 -7.346717E+04 -2.110504E+04 -1.064478E+05  1.567096E+04  1.192465E+04
        48   3 -1.624281E+05 -9.849448E+04 -4.656034E+04 -8.871794E+04  2.408095E+04  1.812590E+04
        48   4 -1.381066E+05 -7.622335E+04 -1.263564E+04 -1.038975E+05  7.360038E+03  5.633226E+03
        48   5 -1.308564E+05 -7.057113E+04 -1.910497E+04 -1.039178E+05  1.566750E+04  1.192200E+04
        48   6 -1.508307E+05 -9.883430E+04 -4.431532E+04 -8.693923E+04  2.405404E+04  1.810540E+04
        48   7 -1.353039E+05 -7.008600E+04 -1.085989E+04 -1.006161E+05  7.380101E+03  5.648323E+03
        48   8 -1.236589E+05 -6.767507E+04 -1.710491E+04 -1.013877E+05  1.566403E+04  1.191935E+04
        48   9 -1.392331E+05 -9.917408E+04 -4.207030E+04 -8.516052E+04  2.402714E+04  1.808490E+04
        48  10 -1.409093E+05 -8.236068E+04 -1.441155E+04 -1.071789E+05 -1.442371E-10 -1.994351E-12
        48  11 -1.380541E+05 -7.346739E+04 -2.110577E+04 -1.064480E+05 -3.838814E-10  1.278594E-10
        48  12 -1.624288E+05 -9.849499E+04 -4.656205E+04 -8.871829E+04 -2.274656E-10  7.447238E-11
        48  13 -1.381066E+05 -7.622340E+04 -1.263580E+04 -1.038975E+05  1.941867E-10  1.040514E-10
        48  14 -1.308567E+05 -7.057135E+04 -1.910570E+04 -1.039179E+05  4.154698E-10  1.195048E-10
        48  15 -1.508314E+05 -9.883481E+04 -4.431703E+04 -8.693958E+04  7.944055E-11  4.098761E-11
        48  16 -1.353040E+05 -7.008604E+04 -1.086005E+04 -1.006161E+05  1.318370E-10  1.063458E-10
        48  17 -1.236593E+05 -6.767529E+04 -1.710564E+04 -1.013878E+05  1.096206E-10  9.225177E-11
        48  18 -1.392338E+05 -9.917459E+04 -4.207200E+04 -8.516087E+04 -3.683456E-10 -7.486167E-12
        48  19 -1.409092E+05 -8.236063E+04 -1.441139E+04 -1.071788E+05 -7.339974E+03 -5.618128E+03
        48  20 -1.380538E+05 -7.346717E+04 -2.110504E+04 -1.064478E+05 -1.567096E+04 -1.192465E+04
        48  21 -1.624281E+05 -9.849448E+04 -4.656034E+04 -8.871794E+04 -2.408095E+04 -1.812590E+04
        48  22 -1.381066E+05 -7.622335E+04 -1.263564E+04 -1.038975E+05 -7.360038E+03 -5.633226E+03
        48  23 -1.308564E+05 -7.057113E+04 -1.910497E+04 -1.039178E+05 -1.566750E+04 -1.192200E+04
        48  24 -1.508307E+05 -9.883430E+04 -4.431532E+04 -8.693923E+04 -2.405404E+04 -1.810540E+04
        48  25 -1.353039E+05 -7.008600E+04 -1.085989E+04 -1.006161E+05 -7.380101E+03 -5.648323E+03
        48  26 -1.236589E+05 -6.767507E+04 -1.710491E+04 -1.013877E+05 -1.566403E+04 -1.191935E+04
        48  27 -1.392331E+05 -9.917408E+04 -4.207030E+04 -8.516052E+04 -2.402714E+04 -1.808490E+04
        49   1  6.210174E+05  4.585984E+04  5.701514E+04  1.758870E+04  3.833195E+04  1.084942E+00
        49   2  6.136341E+05 -4.267384E+03  2.589780E+04  5.475091E+03  2.447121E+04  2.156062E-01
        49   3  6.210314E+05 -2.473373E+03  1.677870E+04 -6.638344E+03  1.061042E+04 -1.133447E-01
        49   4  6.210171E+05  4.585926E+04  5.701505E+04  3.763037E-10  3.833195E+04 -5.745443E-11
        49   5  6.136341E+05 -4.267440E+03  2.589779E+04  2.841237E-09  2.447121E+04 -3.144113E-11
        49   6  6.210313E+05 -2.473455E+03  1.677869E+04  1.869897E-09  1.061042E+04 -2.668723E-10
        49   7  6.210174E+05  4.585984E+04  5.701514E+04 -1.758870E+04  3.833195E+04 -1.084942E+00
        49   8  6.136341E+05 -4.267384E+03  2.589780E+04 -5.475091E+03  2.447121E+04 -2.156062E-01
        49   9  6.210314E+05 -2.473373E+03  1.677870E+04  6.638344E+03  1.061042E+04  1.133447E-01
        49  10  6.210158E+05  4.585945E+04  5.701238E+04  1.758870E+04  1.483881E-10 -1.099702E-11
        49  11  6.136335E+05 -4.267544E+03  2.589667E+04  5.475091E+03  9.198711E-11 -8.199843E-11
        49  12  6.210313E+05 -2.473403E+03  1.677849E+04 -6.638344E+03  7.497897E-11 -6.372987E-11
        49  13  6.210155E+05  4.585887E+04  5.701229E+04  1.987458E-09  8.418106E-12 -8.799949E-12
        49  14  6.136335E+05 -4.267600E+03  2.589666E+04  1.489971E-09 -3.302677E-10 -5.099439E-11
        49  15  6.210312E+05 -2.473486E+03  1.677848E+04  1.528003E-09  9.791785E-11 -1.158925E-10
        49  16  6.210158E+05  4.585945E+04  5.701238E+04 -1.758870E+04 -1.583393E-11  1.607178E-11
        49  17  6.136335E+05 -4.267544E+03  2.589667E+04 -5.475091E+03 -5.753399E-10 -6.925482E-12
        49  18  6.210313E+05 -2.473403E+03  1.677849E+04  6.638344E+03 -2.979519E-10 -1.175250E-10
        49  19  6.210174E+05  4.585984E+04  5.701514E+04  1.758870E+04 -3.833195E+04 -1.084942E+00
        49  20  6.136341E+05 -4.267384E+03  2.589780E+04  5.475091E+03 -2.447121E+04 -2.156062E-01
        49  21  6.210314E+05 -2.473373E+03  1.677870E+04 -6.638344E+03 -1.061042E+04  1.133447E-01
        49  22  6.210171E+05  4.585926E+04  5.701505E+04 -1.654816E-10 -3.833195E+04  3.444223E-11
        49  23  6.136341E+05 -4.267440E+03  2.589779E+04  1.216457E-09 -2.447121E+04 -7.893883E-11
        49  24  6.210313E+05 -2.473455E+03  1.677869E+04 -2.919346E-10 -1.061042E+04  5.930565E-11
        49  25  6.210174E+05  4.585984E+04  5.701514E+04 -1.758870E+04 -3.833195E+04  1.084942E+00
        49  26  6.136341E+05 -4.267384E+03  2.589780E+04 -5.475091E+03 -2.447121E+04  2.156062E-01
        49  27  6.210314E+05 -2.473373E+03  1.677870E+04  6.638344E+03 -1.061042E+04 -1.133447E-01
        50   1  6.181746E+05  3.799429E+03  1.431442E+04  1.394025E+03  8.007493E+03  1.796298E-02
        50   2  6.172061E+05 -4.804113E+02  9.809994E+03  3.375364E+02  3.054997E+03  1.659369E-03
        50   3  6.181759E+05  4.173873E+02  9.821917E+03 -7.189359E+02 -1.897420E+03  2.195152E-03
        50   4  6.181746E+05  3.799425E+03  1.431442E+04  5.855097E-10  8.007493E+03 -2.689262E-10
        50   5  6.172061E+05 -4.804116E+02  9.809994E+03  1.263418E-09  3.054997E+03 -1.053591E-10
        50   6  6.181759E+05  4.173863E+02  9.821917E+03  5.984412E-11 -1.897420E+03  1.972210E-10
        50   7  6.181746E+05  3.799429E+03  1.431442E+04 -1.394025E+03  8.007493E+03 -1.796298E-02
        50   8  6.172061E+05 -4.804113E+02  9.809994E+03 -3.375364E+02  3.054997E+03 -1.659369E-03
        50   9  6.181759E+05  4.173873E+02  9.821917E+03  7.189359E+02 -1.897420E+03 -2.195152E-03
        50  10  6.181745E+05  3.799412E+03  1.431430E+04  1.394025E+03 -9.398804E-11 -4.261640E-11
        50  11  6.172060E+05 -4.804138E+02  9.809977E+03  3.375364E+02  2.861815E-10 -1.321497E-11
        50  12  6.181759E+05  4.173863E+02  9.821911E+03 -7.189359E+02  1.378626E-10  1.355272E-10
        50  13  6.181745E+05  3.799408E+03  1.431430E+04  3.293548E-10  8.418084E-12 -8.043729E-11
        50  14  6.172060E+05 -4.804141E+02  9.809977E+03 -1.690565E-09  1.346563E-10  3.307633E-11
        50  15  6.181759E+05  4.173853E+02  9.821910E+03  4.585475E-10 -2.231307E-10  7.032757E-11
        50  16  6.181745E+05  3.799412E+03  1.431430E+04 -1.394025E+03  2.652932E-10 -9.449822E-11
        50  17  6.172060E+05 -4.804138E+02  9.809977E+03 -3.375364E+02 -3.081060E-10  1.598859E-11
        50  18  6.181759E+05  4.173863E+02  9.821911E+03  7.189359E+02 -8.129891E-11  1.340906E-10
        50  19  6.181746E+05  3.799429E+03  1.431442E+04  1.394025E+03 -8.007493E+03 -1.796298E-02
        50  20  6.172061E+05 -4.804113E+02  9.809994E+03  3.375364E+02 -3.054997E+03 -1.659369E-03
        50  21  6.181759E+05  4.173873E+02  9.821917E+03 -7.189359E+02  1.897420E+03 -2.195152E-03
        50  22  6.181746E+05  3.799425E+03  1.431442E+04 -4.659484E-10 -8.007493E+03  1.117963E-10
        50  23  6.172061E+05 -4.804116E+02  9.809994E+03  2.030171E-10 -3.054997E+03  1.580322E-10
        50  24  6.181759E+05  4.173863E+02  9.821917E+03 -3.175553E-09  1.897420E+03 -5.177707E-11
        50  25  6.181746E+05  3.799429E+03  1.431442E+04 -1.394025E+03 -8.007493E+03  1.796298E-02
        50  26  6.172061E+05 -4.804113E+02  9.809994E+03 -3.375364E+02 -3.054997E+03  1.659370E-03
        50  27  6.181759E+05  4.173873E+02  9.821917E+03  7.189359E+02  1.897420E+03  2.195152E-03
        51   1  6.184859E+05 -1.296381E+02  1.072392E+04  1.322309E+03 -3.706840E+03 -7.887653E-03
        51   2  6.168177E+05 -8.499365E+02  1.492435E+04 -6.552014E+02 -1.127227E+04  1.188498E-02
        51   3  6.184821E+05  7.825587E+03  2.639576E+04 -2.632738E+03 -1.883786E+04  7.980880E-02
        51   4  6.184859E+05 -1.296414E+02  1.072392E+04 -7.491154E-11 -3.706840E+03  1.593661E-10
        51   5  6.168177E+05 -8.499373E+02  1.492435E+04  5.094798E-10 -1.127227E+04 -3.573673E-11
        51   6  6.184821E+05  7.825574E+03  2.639576E+04 -8.864968E-10 -1.883786E+04  1.488128E-10
        51   7  6.184859E+05 -1.296381E+02  1.072392E+04 -1.322309E+03 -3.706840E+03  7.887653E-03
        51   8  6.168177E+05 -8.499365E+02  1.492435E+04  6.552014E+02 -1.127227E+04 -1.188498E-02
        51   9  6.184821E+05  7.825587E+03  2.639576E+04  2.632738E+03 -1.883786E+04 -7.980880E-02
        51  10  6.184859E+05 -1.296418E+02  1.072389E+04  1.322309E+03  5.315565E-10  3.746222E-11
        51  11  6.168176E+05 -8.499705E+02  1.492411E+04 -6.552014E+02  3.977730E-11  2.421160E-11
        51  12  6.184817E+05  7.825492E+03  2.639510E+04 -2.632738E+03 -4.058649E-10 -7.558894E-11
        51  13  6.184859E+05 -1.296451E+02  1.072389E+04 -1.971652E-09  2.608948E-10  2.461607E-11
        51  14  6.168176E+05 -8.499713E+02  1.492411E+04  7.772097E-10  3.802499E-10 -4.274425E-11
        51  15  6.184817E+05  7.825479E+03  2.639509E+04  1.243261E-09 -2.811755E-10  8.102985E-12
        51  16  6.184859E+05 -1.296418E+02  1.072389E+04 -1.322309E+03 -3.301600E-10  3.772356E-11
        51  17  6.168176E+05 -8.499705E+02  1.492411E+04  6.552014E+02 -5.163768E-11 -2.373867E-11
        51  18  6.184817E+05  7.825492E+03  2.639510E+04  2.632738E+03 -1.040199E-10  7.334006E-11
        51  19  6.184859E+05 -1.296381E+02  1.072392E+04  1.322309E+03  3.706840E+03  7.887653E-03
        51  20  6.168177E+05 -8.499365E+02  1.492435E+04 -6.552014E+02  1.127227E+04 -1.188498E-02
        51  21  6.184821E+05  7.825587E+03  2.639576E+04 -2.632738E+03  1.883786E+04 -7.980880E-02
        51  22  6.184859E+05 -1.296414E+02  1.072392E+04 -3.337139E-09  3.706840E+03 -1.227607E-10
        51  23  6.168177E+05 -8.499373E+02  1.492435E+04 -5.693340E-10  1.127227E+04 -7.886303E-11
        51  24  6.184821E+05  7.825574E+03  2.639576E+04 -1.414067E-09  1.883786E+04 -1.357000E-10
        51  25  6.184859E+05 -1.296381E+02  1.072392E+04 -1.322309E+03  3.706840E+03 -7.887653E-03
        51  26  6.168177E+05 -8.499365E+02  1.492435E+04  6.552014E+02  1.127227E+04  1.188498E-02
        51  27  6.184821E+05  7.825587E+03  2.639576E+04  2.632738E+03  1.883786E+04  7.980880E-02
        52   1  6.244442E+05 -5.126734E+03  3.219334E+04  1.361226E+04 -2.371240E+04 -5.194133E-01
        52   2  6.093633E+05 -8.709990E+03  5.197502E+04 -1.115175E+04 -5.156625E+04  9.253940E-01
        52   3  6.244168E+05  9.377073E+04  1.163960E+05 -3.591646E+04 -7.941991E+04  4.590243E+00
        52   4  6.244440E+05 -5.127082E+03  3.219329E+04 -1.892720E-09 -2.371240E+04  1.750043E-10
        52   5  6.093632E+05 -8.710223E+03  5.197498E+04 -1.922068E-09 -5.156625E+04 -1.953379E-10
        52   6  6.244154E+05  9.376831E+04  1.163957E+05 -2.118343E-09 -7.941991E+04  2.323871E-10
        52   7  6.244442E+05 -5.126734E+03  3.219334E+04 -1.361226E+04 -2.371240E+04  5.194133E-01
        52   8  6.093633E+05 -8.709990E+03  5.197502E+04  1.115175E+04 -5.156625E+04 -9.253940E-01
        52   9  6.244168E+05  9.377073E+04  1.163960E+05  3.591646E+04 -7.941991E+04 -4.590243E+00
        52  10  6.244436E+05 -5.126885E+03  3.219228E+04  1.361226E+04 -3.997362E-10  1.604556E-11
        52  11  6.093605E+05 -8.710703E+03  5.197002E+04 -1.115175E+04 -4.687350E-10  5.962948E-11
        52  12  6.244100E+05  9.376904E+04  1.163842E+05 -3.591646E+04 -2.132037E-10  4.100192E-11
        52  13  6.244434E+05 -5.127232E+03  3.219224E+04  1.338963E-09 -2.170749E-10  4.674802E-11
        52  14  6.093603E+05 -8.710936E+03  5.196999E+04  4.984856E-10 -1.607831E-10  3.447560E-11
        52  15  6.244086E+05  9.376662E+04  1.163839E+05  4.670272E-10 -3.454081E-11  8.533541E-12
        52  16  6.244436E+05 -5.126885E+03  3.219228E+04 -1.361226E+04  2.869088E-10  1.245728E-10
        52  17  6.093605E+05 -8.710703E+03  5.197002E+04  1.115175E+04  2.179921E-10  2.589409E-11
        52  18  6.244100E+05  9.376904E+04  1.163842E+05  3.591646E+04  2.999786E-10  2.898271E-11
        52  19  6.244442E+05 -5.126734E+03  3.219334E+04  1.361226E+04  2.371240E+04  5.194133E-01
        52  20  6.093633E+05 -8.709990E+03  5.197502E+04 -1.115175E+04  5.156625E+04 -9.253940E-01
        52  21  6.244168E+05  9.377073E+04  1.163960E+05 -3.591646E+04  7.941991E+04 -4.590243E+00
        52  22  6.244440E+05 -5.127082E+03  3.219329E+04  2.643654E-10  2.371240E+04 -7.279082E-11
        52  23  6.093632E+05 -8.710223E+03  5.197498E+04  3.998898E-09  5.156625E+04  2.743474E-10
        52  24  6.244154E+05  9.376831E+04  1.163957E+05 -4.466725E-10  7.941991E+04 -2.055678E-10
        52  25  6.244442E+05 -5.126734E+03  3.219334E+04 -1.361226E+04  2.371240E+04 -5.194133E-01
        52  26  6.093633E+05 -8.709990E+03  5.197502E+04  1.115175E+04  5.156625E+04  9.253940E-01
        52  27  6.244168E+05  9.377073E+04  1.163960E+05  3.591646E+04  7.941991E+04  4.590243E+00
        53   1  1.068588E+05  6.941679E+05  9.472118E+04 -7.249770E+04  6.727836E+03 -1.976089E+04
        53   2  1.126844E+05  5.486238E+05  7.956388E+04 -5.168539E+04  1.903735E+04 -2.110289E+04
        53   3  7.695654E+04  3.929431E+05  5.490279E+04 -9.860922E+04  1.461175E+04 -2.244827E+04
        53   4 -4.377103E+04  8.843637E+04 -5.300758E+04 -9.206429E+04  6.732571E+03 -3.691985E+04
        53   5  1.320358E+03  9.474381E+04 -2.357620E+04 -5.818723E+04  1.903971E+04 -2.436494E+04
        53   6  2.430368E+03  8.847240E+04 -1.330392E+04 -9.205207E+04  1.460621E+04 -1.181329E+04
        53   7 -1.944263E+05 -5.169594E+05 -2.007617E+05 -1.116117E+05  6.738389E+03 -5.406211E+04
        53   8 -1.100577E+05 -3.589450E+05 -1.267296E+05 -6.468424E+04  1.904214E+04 -2.762462E+04
        53   9 -7.210190E+04 -2.159117E+05 -8.151604E+04 -8.549816E+04  1.460090E+04 -1.183470E+03
        53  10  1.068586E+05  6.941675E+05  9.472036E+04 -7.249759E+04 -1.031301E-10  1.791371E-11
        53  11  1.126838E+05  5.486232E+05  7.956236E+04 -5.168507E+04 -3.293527E-10 -3.159884E-10
        53  12  7.695617E+04  3.929425E+05  5.490144E+04 -9.860896E+04  4.877738E-11  2.277994E-10
        53  13 -4.377145E+04  8.843489E+04 -5.301022E+04 -9.206409E+04  7.106703E-12  3.282057E-11
        53  14  1.319810E+03  9.474308E+04 -2.357799E+04 -5.818685E+04  4.254686E-10 -1.443331E-10
        53  15  2.430102E+03  8.847219E+04 -1.330458E+04 -9.205194E+04 -2.159454E-10  1.165291E-10
        53  16 -1.944272E+05 -5.169626E+05 -2.007673E+05 -1.116114E+05  2.707497E-10 -1.640952E-11
        53  17 -1.100583E+05 -3.589459E+05 -1.267317E+05 -6.468382E+04 -1.289828E-11 -1.193473E-11
        53  18 -7.210213E+04 -2.159118E+05 -8.151644E+04 -8.549815E+04 -6.807208E-11 -2.482278E-11
        53  19  1.068588E+05  6.941679E+05  9.472118E+04 -7.249770E+04 -6.727836E+03  1.976089E+04
        53  20  1.126844E+05  5.486238E+05  7.956388E+04 -5.168539E+04 -1.903735E+04  2.110289E+04
        53  21  7.695654E+04  3.929431E+05  5.490279E+04 -9.860922E+04 -1.461175E+04  2.244827E+04
        53  22 -4.377103E+04  8.843637E+04 -5.300758E+04 -9.206429E+04 -6.732571E+03  3.691985E+04
        53  23  1.320358E+03  9.474381E+04 -2.357620E+04 -5.818723E+04 -1.903971E+04  2.436494E+04
        53  24  2.430368E+03  8.847240E+04 -1.330392E+04 -9.205207E+04 -1.460621E+04  1.181329E+04
        53  25 -1.944263E+05 -5.169594E+05 -2.007617E+05 -1.116117E+05 -6.738389E+03  5.406211E+04
        53  26 -1.100577E+05 -3.589450E+05 -1.267296E+05 -6.468424E+04 -1.904214E+04  2.762462E+04
        53  27 -7.210190E+04 -2.159117E+05 -8.151604E+04 -8.549816E+04 -1.460090E+04  1.183470E+03
        54   1  3.991903E+04  2.651484E+05  2.897848E+04 -9.149085E+04  8.147635E+03 -1.575378E+04
        54   2  5.943182E+03  1.151543E+05  1.445249E+03 -5.771697E+04  1.143542E+03 -1.385766E+04
        54   3 -2.980838E+04 -3.558254E+04 -2.778529E+04 -9.230629E+04 -5.913216E+03 -1.196223E+04
        54   4 -2.700467E+03  9.111090E+04 -1.012290E+04 -9.219450E+04  8.144352E+03 -9.958453E+03
        54   5  1.529532E+02  9.149792E+04 -3.854485E+03 -5.801165E+04  1.140171E+03 -8.020148E+03
        54   6  1.224265E+03  9.111253E+04  6.870030E+02 -9.219226E+04 -5.916751E+03 -6.082102E+03
        54   7 -4.532202E+04 -8.289832E+04 -4.922609E+04 -9.289793E+04  8.141055E+03 -4.164732E+03
        54   8 -5.637295E+03  6.784210E+04 -9.154126E+03 -5.830630E+04  1.136795E+03 -2.182862E+03
        54   9  3.225584E+04  2.178226E+05  2.915840E+04 -9.207819E+04 -5.920284E+03 -2.007809E+02
        54  10  3.991889E+04  2.651481E+05  2.897789E+04 -9.149075E+04  2.944736E-10  2.464066E-10
        54  11  5.943129E+03  1.151541E+05  1.444885E+03 -5.771696E+04  1.029828E-10 -5.967729E-10
        54  12 -2.980846E+04 -3.558271E+04 -2.778562E+04 -9.230635E+04  3.084255E-10 -4.972122E-12
        54  13 -2.700565E+03  9.111078E+04 -1.012321E+04 -9.219443E+04  6.543698E-11  2.301517E-10
        54  14  1.529345E+02  9.149785E+04 -3.854608E+03 -5.801164E+04  2.864641E-10 -2.661819E-10
        54  15  1.224218E+03  9.111248E+04  6.868677E+02 -9.219228E+04 -5.450003E-11  1.603265E-10
        54  16 -4.532209E+04 -8.289836E+04 -4.922624E+04 -9.289791E+04  3.669291E-10 -2.379496E-10
        54  17 -5.637298E+03  6.784210E+04 -9.154137E+03 -5.830630E+04  3.115936E-10  6.539576E-12
        54  18  3.225580E+04  2.178226E+05  2.915834E+04 -9.207819E+04 -3.327804E-10  2.352385E-10
        54  19  3.991903E+04  2.651484E+05  2.897848E+04 -9.149085E+04 -8.147635E+03  1.575378E+04
        54  20  5.943182E+03  1.151543E+05  1.445249E+03 -5.771697E+04 -1.143542E+03  1.385766E+04
        54  21 -2.980838E+04 -3.558254E+04 -2.778529E+04 -9.230629E+04  5.913216E+03  1.196223E+04
        54  22 -2.700467E+03  9.111090E+04 -1.012290E+04 -9.219450E+04 -8.144352E+03  9.958453E+03
        54  23  1.529532E+02  9.149792E+04 -3.854485E+03 -5.801165E+04 -1.140171E+03  8.020148E+03
        54  24  1.224265E+03  9.111253E+04  6.870030E+02 -9.219226E+04  5.916751E+03  6.082102E+03
        54  25 -4.532202E+04 -8.289832E+04 -4.922609E+04 -9.289793E+04 -8.141055E+03  4.164732E+03
        54  26 -5.637295E+03  6.784210E+04 -9.154126E+03 -5.830630E+04 -1.136795E+03  2.182862E+03
        54  27  3.225584E+04  2.178226E+05  2.915840E+04 -9.207819E+04  5.920284E+03  2.007809E+02
        55   1 -6.382855E+04 -1.647885E+05 -5.504523E+04 -9.428482E+04 -1.225751E+04 -1.664581E+04
        55   2 -1.002420E+05 -3.164062E+05 -8.504664E+04 -5.574490E+04 -1.694672E+04 -7.716837E+03
        55   3 -1.232125E+05 -4.657751E+05 -1.174993E+05 -8.499412E+04 -6.083404E+03  1.214004E+03
        55   4 -8.912343E+02  9.226467E+04  2.589255E+03 -9.206588E+04 -1.226315E+04 -6.305316E+03
        55   5 -4.521904E+02  9.001512E+04  7.411015E+03 -5.817064E+04 -1.694489E+04 -1.028698E+04
        55   6  1.566713E+04  9.222945E+04  1.874607E+04 -9.206066E+04 -6.078781E+03 -1.426450E+04
        55   7  6.204165E+04  3.493796E+05  6.021996E+04 -8.984601E+04 -1.226871E+04  4.039416E+03
        55   8  9.932624E+04  4.965897E+05  9.985797E+04 -6.059796E+04 -1.694304E+04 -1.285880E+04
        55   9  1.545241E+05  6.505186E+05  1.549696E+05 -9.913353E+04 -6.073807E+03 -2.975689E+04
        55  10 -6.382878E+04 -1.647888E+05 -5.504603E+04 -9.428498E+04  5.541782E-10 -1.127109E-10
        55  11 -1.002423E+05 -3.164063E+05 -8.504730E+04 -5.574501E+04 -1.068711E-10 -6.412867E-10
        55  12 -1.232125E+05 -4.657751E+05 -1.174993E+05 -8.499411E+04  1.274051E-10 -1.253073E-10
        55  13 -8.914065E+02  9.226458E+04  2.588897E+03 -9.206595E+04  6.913163E-11  2.312907E-10
        55  14 -4.525272E+02  9.001492E+04  7.410276E+03 -5.817078E+04  8.248431E-11 -1.626263E-10
        55  15  1.566704E+04  9.222923E+04  1.874562E+04 -9.206073E+04 -5.079654E-10  4.848246E-11
        55  16  6.204148E+04  3.493795E+05  6.021964E+04 -8.984597E+04 -7.361057E-11  1.228360E-10
        55  17  9.932589E+04  4.965895E+05  9.985712E+04 -6.059814E+04 -2.339010E-10  2.702123E-10
        55  18  1.545238E+05  6.505177E+05  1.549679E+05 -9.913367E+04  2.318346E-10  1.806251E-10
        55  19 -6.382855E+04 -1.647885E+05 -5.504523E+04 -9.428482E+04  1.225751E+04  1.664581E+04
        55  20 -1.002420E+05 -3.164062E+05 -8.504664E+04 -5.574490E+04  1.694672E+04  7.716837E+03
        55  21 -1.232125E+05 -4.657751E+05 -1.174993E+05 -8.499412E+04  6.083404E+03 -1.214004E+03
        55  22 -8.912343E+02  9.226467E+04  2.589255E+03 -9.206588E+04  1.226315E+04  6.305316E+03
        55  23 -4.521904E+02  9.001512E+04  7.411015E+03 -5.817064E+04  1.694489E+04  1.028698E+04
        55  24  1.566713E+04  9.222945E+04  1.874607E+04 -9.206066E+04  6.078781E+03  1.426450E+04
        55  25  6.204165E+04  3.493796E+05  6.021996E+04 -8.984601E+04  1.226871E+04 -4.039416E+03
        55  26  9.932624E+04  4.965897E+05  9.985797E+04 -6.059796E+04  1.694304E+04  1.285880E+04
        55  27  1.545241E+05  6.505186E+05  1.549696E+05 -9.913353E+04  6.073807E+03  2.975689E+04
        56   1  3.732367E+04 -7.840351E+04 -7.135426E+04  3.644679E+04 -2.565164E+04 -1.591315E+04
        56   2  5.830720E+04 -4.082359E+04 -4.532014E+04  4.378761E+04 -1.773776E+04 -2.624942E+03
        56   3  7.771913E+04 -1.949848E+04 -3.179087E+04  5.300819E+04 -6.801571E+03  6.635258E+03
        56   4  1.783377E+05  4.240164E+04 -2.190556E+04  1.158307E+05 -1.388275E+04 -7.088582E+03
        56   5  1.817903E+05  5.586755E+04 -1.063897E+04  1.103149E+05 -1.302294E+04  9.100509E+02
        56   6  1.852029E+05  5.460985E+04 -5.753573E+03  1.066779E+05 -9.141769E+03  4.880315E+03
        56   7  3.193755E+05  1.632261E+05  2.754182E+04  1.952381E+05 -2.110073E+03  1.739562E+03
        56   8  3.052926E+05  1.525717E+05  2.404155E+04  1.768592E+05 -8.306801E+03  4.446177E+03
        56   9  2.927016E+05  1.287260E+05  2.028354E+04  1.603590E+05 -1.148255E+04  3.124949E+03
        56  10  3.732290E+04 -7.840396E+04 -7.135598E+04  3.644646E+04  7.383815E-11  7.431441E-11
        56  11  5.830686E+04 -4.082368E+04 -4.532075E+04  4.378758E+04 -9.676905E-11  3.241554E-11
        56  12  7.771907E+04 -1.949854E+04 -3.179104E+04  5.300822E+04 -3.099947E-10  4.509338E-11
        56  13  1.783375E+05  4.240153E+04 -2.190602E+04  1.158307E+05  1.682536E-11 -2.747323E-11
        56  14  1.817901E+05  5.586750E+04 -1.063929E+04  1.103149E+05  7.344186E-10 -5.167548E-11
        56  15  1.852028E+05  5.460980E+04 -5.753774E+03  1.066779E+05  5.790630E-10 -2.278108E-11
        56  16  3.193755E+05  1.632261E+05  2.754181E+04  1.952381E+05  1.321605E-10 -1.121094E-10
        56  17  3.052925E+05  1.525717E+05  2.404138E+04  1.768593E+05  8.170917E-11 -1.247594E-10
        56  18  2.927015E+05  1.287260E+05  2.028328E+04  1.603591E+05 -6.258713E-11 -6.894449E-11
        56  19  3.732367E+04 -7.840351E+04 -7.135426E+04  3.644679E+04  2.565164E+04  1.591315E+04
        56  20  5.830720E+04 -4.082359E+04 -4.532014E+04  4.378761E+04  1.773776E+04  2.624942E+03
        56  21  7.771913E+04 -1.949848E+04 -3.179087E+04  5.300819E+04  6.801571E+03 -6.635258E+03
        56  22  1.783377E+05  4.240164E+04 -2.190556E+04  1.158307E+05  1.388275E+04  7.088582E+03
        56  23  1.817903E+05  5.586755E+04 -1.063897E+04  1.103149E+05  1.302294E+04 -9.100509E+02
        56  24  1.852029E+05  5.460985E+04 -5.753573E+03  1.066779E+05  9.141769E+03 -4.880315E+03
        56  25  3.193755E+05  1.632261E+05  2.754182E+04  1.952381E+05  2.110073E+03 -1.739562E+03
        56  26  3.052926E+05  1.525717E+05  2.404155E+04  1.768592E+05  8.306801E+03 -4.446177E+03
        56  27  2.927016E+05  1.287260E+05  2.028354E+04  1.603590E+05  1.148255E+04 -3.124949E+03
        57   1  9.443712E+04 -1.019478E+04 -2.643117E+04  6.056138E+04 -5.941926E+03  5.922722E+03
        57   2  1.141135E+05  1.007032E+04 -1.828999E+04  7.281085E+04 -3.435328E+03  5.762106E+03
        57   3  1.398073E+05  2.310772E+04 -1.158403E+04  8.329996E+04 -6.468084E+02  5.225368E+03
        57   4  1.856700E+05  5.468600E+04 -4.300806E+03  1.070869E+05 -7.899960E+03  4.454426E+03
        57   5  1.827626E+05  5.853528E+04 -2.172382E+03  1.077374E+05 -6.051950E+03  3.800158E+03
        57   6  1.860154E+05  5.529988E+04 -9.073745E+02  1.066272E+05 -3.922088E+03  2.769754E+03
        57   7  2.769106E+05  1.195707E+05  1.782840E+04  1.536194E+05 -9.858342E+03  2.985866E+03
        57   8  2.514164E+05  1.070027E+05  1.394474E+04  1.426680E+05 -8.668932E+03  1.837938E+03
        57   9  2.322260E+05  8.749332E+04  9.769201E+03  1.299565E+05 -7.197691E+03  3.138998E+02
        57  10  9.443707E+04 -1.019483E+04 -2.643130E+04  6.056141E+04  3.439349E-10  2.626964E-11
        57  11  1.141135E+05  1.007028E+04 -1.829008E+04  7.281087E+04  5.952973E-10  9.016953E-14
        57  12  1.398073E+05  2.310769E+04 -1.158408E+04  8.329997E+04  2.841273E-11  1.983667E-10
        57  13  1.856699E+05  5.468597E+04 -4.300960E+03  1.070869E+05  4.910397E-10  3.795920E-11
        57  14  1.827625E+05  5.853526E+04 -2.172478E+03  1.077374E+05  3.087568E-10 -3.274793E-11
        57  15  1.860154E+05  5.529987E+04 -9.074179E+02  1.066273E+05 -4.190146E-11 -6.773874E-12
        57  16  2.769105E+05  1.195706E+05  1.782820E+04  1.536194E+05 -8.170203E-11 -4.214571E-11
        57  17  2.514164E+05  1.070026E+05  1.394459E+04  1.426680E+05 -4.613052E-10 -8.820114E-11
        57  18  2.322259E+05  8.749330E+04  9.769104E+03  1.299565E+05 -1.864802E-10 -1.751079E-10
        57  19  9.443712E+04 -1.019478E+04 -2.643117E+04  6.056138E+04  5.941926E+03 -5.922722E+03
        57  20  1.141135E+05  1.007032E+04 -1.828999E+04  7.281085E+04  3.435328E+03 -5.762106E+03
        57  21  1.398073E+05  2.310772E+04 -1.158403E+04  8.329996E+04  6.468084E+02 -5.225368E+03
        57  22  1.856700E+05  5.468600E+04 -4.300806E+03  1.070869E+05  7.899960E+03 -4.454426E+03
        57  23  1.827626E+05  5.853528E+04 -2.172382E+03  1.077374E+05  6.051950E+03 -3.800158E+03
        57  24  1.860154E+05  5.529988E+04 -9.073745E+02  1.066272E+05  3.922088E+03 -2.769754E+03
        57  25  2.769106E+05  1.195707E+05  1.782840E+04  1.536194E+05  9.858342E+03 -2.985866E+03
        57  26  2.514164E+05  1.070027E+05  1.394474E+04  1.426680E+05  8.668932E+03 -1.837938E+03
        57  27  2.322260E+05  8.749332E+04  9.769201E+03  1.299565E+05  7.197691E+03 -3.138998E+02
        58   1  1.546653E+05  3.341601E+04 -7.573278E+03  9.079686E+04  2.330797E+02  4.168997E+03
        58   2  1.740990E+05  5.272926E+04 -1.427158E+03  1.033075E+05  1.424011E+03  2.167444E+03
        58   3  2.001721E+05  6.547278E+04  4.887543E+03  1.138965E+05  2.617760E+03  1.620725E+02
        58   4  1.860616E+05  5.530687E+04 -4.157065E+02  1.066723E+05 -3.009147E+03  1.738210E+03
        58   5  1.827552E+05  5.861513E+04  5.175040E+02  1.076157E+05 -1.824937E+03 -2.683750E+02
        58   6  1.860885E+05  5.535454E+04  1.624964E+03  1.066368E+05 -6.379089E+02 -2.278751E+03
        58   7  2.174597E+05  7.719876E+04  6.742071E+03  1.225490E+05 -6.251652E+03 -6.927834E+02
        58   8  1.914114E+05  6.450107E+04  2.462224E+03  1.119240E+05 -5.073945E+03 -2.704237E+03
        58   9  1.720054E+05  4.523663E+04 -1.637474E+03  9.937737E+04 -3.893420E+03 -4.719454E+03
        58  10  1.546653E+05  3.341599E+04 -7.573310E+03  9.079686E+04  7.626580E-11  2.192201E-10
        58  11  1.740990E+05  5.272925E+04 -1.427170E+03  1.033075E+05 -2.815930E-10  2.230814E-10
        58  12  2.001721E+05  6.547278E+04  4.887530E+03  1.138965E+05  3.292684E-10  1.415750E-10
        58  13  1.860616E+05  5.530687E+04 -4.157292E+02  1.066723E+05 -1.000797E-10  1.465903E-10
        58  14  1.827552E+05  5.861513E+04  5.174976E+02  1.076157E+05 -1.897932E-10  2.853641E-10
        58  15  1.860885E+05  5.535453E+04  1.624953E+03  1.066368E+05 -1.028545E-10  5.345269E-11
        58  16  2.174596E+05  7.719875E+04  6.741997E+03  1.225490E+05 -3.040234E-11 -1.678382E-10
        58  17  1.914114E+05  6.450105E+04  2.462162E+03  1.119239E+05 -9.381460E-11 -2.809887E-11
        58  18  1.720054E+05  4.523660E+04 -1.637544E+03  9.937736E+04 -1.759878E-10  2.198863E-10
        58  19  1.546653E+05  3.341601E+04 -7.573278E+03  9.079686E+04 -2.330797E+02 -4.168997E+03
        58  20  1.740990E+05  5.272926E+04 -1.427158E+03  1.033075E+05 -1.424011E+03 -2.167444E+03
        58  21  2.001721E+05  6.547278E+04  4.887543E+03  1.138965E+05 -2.617760E+03 -1.620725E+02
        58  22  1.860616E+05  5.530687E+04 -4.157065E+02  1.066723E+05  3.009147E+03 -1.738210E+03
        58  23  1.827552E+05  5.861513E+04  5.175040E+02  1.076157E+05  1.824937E+03  2.683750E+02
        58  24  1.860885E+05  5.535454E+04  1.624964E+03  1.066368E+05  6.379089E+02  2.278751E+03
        58  25  2.174597E+05  7.719876E+04  6.742071E+03  1.225490E+05  6.251652E+03  6.927834E+02
        58  26  1.914114E+05  6.450107E+04  2.462224E+03  1.119240E+05  5.073945E+03  2.704237E+03
        58  27  1.720054E+05  4.523663E+04 -1.637474E+03  9.937737E+04  3.893420E+03  4.719454E+03
        59   1  2.148097E+05  7.602866E+04  9.112736E+03  1.214917E+05  3.197336E+03 -1.122955E+03
        59   2  2.346661E+05  9.490286E+04  1.659749E+04  1.335435E+05  2.126509E+03 -4.593009E+03
        59   3  2.620256E+05  1.082882E+05  2.632069E+04  1.433900E+05  8.044609E+02 -7.728100E+03
        59   4  1.861472E+05  5.538012E+04  2.335380E+03  1.067130E+05 -8.708327E+01 -3.585355E+03
        59   5  1.827814E+05  5.876130E+04  4.414924E+03  1.073859E+05 -5.708549E+02 -6.615399E+03
        59   6  1.867908E+05  5.652603E+04  8.223768E+03  1.058529E+05 -1.305759E+03 -9.310393E+03
        59   7  1.574856E+05  3.473212E+04 -4.441971E+03  9.193507E+04 -3.371302E+03 -6.047600E+03
        59   8  1.308992E+05  2.262098E+04 -7.767942E+03  8.123054E+04 -3.267944E+03 -8.637586E+03
        59   9  1.115610E+05  4.766093E+03 -9.874007E+03  6.832040E+04 -3.415676E+03 -1.089247E+04
        59  10  2.148097E+05  7.602865E+04  9.112714E+03  1.214918E+05  4.523634E-10  2.925610E-10
        59  11  2.346661E+05  9.490284E+04  1.659744E+04  1.335435E+05  2.660915E-10  1.297336E-10
        59  12  2.620256E+05  1.082881E+05  2.632058E+04  1.433900E+05 -4.920907E-10  1.801950E-10
        59  13  1.861472E+05  5.538011E+04  2.335356E+03  1.067130E+05 -3.249581E-11  2.939615E-10
        59  14  1.827813E+05  5.876125E+04  4.414841E+03  1.073859E+05  1.400779E-10  1.508192E-10
        59  15  1.867907E+05  5.652594E+04  8.223602E+03  1.058529E+05  2.304742E-10  3.303230E-10
        59  16  1.574856E+05  3.473208E+04 -4.442061E+03  9.193505E+04 -2.256938E-10  1.461731E-10
        59  17  1.308992E+05  2.262090E+04 -7.768102E+03  8.123052E+04  1.328625E-10  2.759875E-10
        59  18  1.115609E+05  4.765962E+03 -9.874252E+03  6.832037E+04  2.676460E-10  3.877735E-10
        59  19  2.148097E+05  7.602866E+04  9.112736E+03  1.214917E+05 -3.197336E+03  1.122955E+03
        59  20  2.346661E+05  9.490286E+04  1.659749E+04  1.335435E+05 -2.126509E+03  4.593009E+03
        59  21  2.620256E+05  1.082882E+05  2.632069E+04  1.433900E+05 -8.044609E+02  7.728100E+03
        59  22  1.861472E+05  5.538012E+04  2.335380E+03  1.067130E+05  8.708327E+01  3.585355E+03
        59  23  1.827814E+05  5.876130E+04  4.414924E+03  1.073859E+05  5.708549E+02  6.615399E+03
        59  24  1.867908E+05  5.652603E+04  8.223768E+03  1.058529E+05  1.305759E+03  9.310393E+03
        59  25  1.574856E+05  3.473212E+04 -4.441971E+03  9.193507E+04  3.371302E+03  6.047600E+03
        59  26  1.308992E+05  2.262098E+04 -7.767942E+03  8.123054E+04  3.267944E+03  8.637586E+03
        59  27  1.115610E+05  4.766093E+03 -9.874007E+03  6.832040E+04  3.415676E+03  1.089247E+04
        60   1  2.751563E+05  1.216004E+05  3.283611E+04  1.524478E+05  6.895687E+02 -9.213750E+03
        60   2  3.071449E+05  1.322162E+05  5.012984E+04  1.557835E+05 -1.412047E+04 -1.969621E+04
        60   3  3.585586E+05  1.536903E+05  8.481179E+04  1.503735E+05 -3.162725E+04 -2.658430E+04
        60   4  1.874618E+05  5.685623E+04  1.087805E+04  1.066688E+05 -1.761132E+03 -1.105139E+04
        60   5  1.848294E+05  6.349088E+04  1.990926E+04  1.025046E+05 -1.027154E+04 -1.681089E+04
        60   6  2.002568E+05  7.962015E+04  4.086499E+04  8.959408E+04 -2.147771E+04 -1.897564E+04
        60   7  9.977765E+04 -7.881670E+03 -1.108005E+04  6.089822E+04 -4.211333E+03 -1.288864E+04
        60   8  6.253294E+04 -5.228246E+03 -1.031172E+04  4.923718E+04 -6.423705E+03 -1.392618E+04
        60   9  4.198564E+04  5.556200E+03 -3.082587E+03  2.882988E+04 -1.133192E+04 -1.136861E+04
        60  10  2.751563E+05  1.216003E+05  3.283595E+04  1.524478E+05 -3.022639E-11  4.046734E-10
        60  11  3.071446E+05  1.322157E+05  5.012874E+04  1.557833E+05  3.266960E-10  3.037708E-10
        60  12  3.585573E+05  1.536893E+05  8.480859E+04  1.503728E+05  6.743902E-11  1.866391E-10
        60  13  1.874618E+05  5.685610E+04  1.087782E+04  1.066688E+05  9.333097E-11  3.128096E-10
        60  14  1.848292E+05  6.349055E+04  1.990853E+04  1.025044E+05  4.676432E-11  1.110964E-10
        60  15  2.002562E+05  7.961964E+04  4.086344E+04  8.959375E+04  8.197594E-11  4.604873E-11
        60  16  9.977759E+04 -7.881853E+03 -1.108039E+04  6.089818E+04  1.759444E-11  7.835334E-11
        60  17  6.253284E+04 -5.228465E+03 -1.031216E+04  4.923711E+04  7.731815E-11 -3.090169E-11
        60  18  4.198547E+04  5.556026E+03 -3.083071E+03  2.882977E+04 -1.404445E-10 -9.557226E-11
        60  19  2.751563E+05  1.216004E+05  3.283611E+04  1.524478E+05 -6.895687E+02  9.213750E+03
        60  20  3.071449E+05  1.322162E+05  5.012984E+04  1.557835E+05  1.412047E+04  1.969621E+04
        60  21  3.585586E+05  1.536903E+05  8.481179E+04  1.503735E+05  3.162725E+04  2.658430E+04
        60  22  1.874618E+05  5.685623E+04  1.087805E+04  1.066688E+05  1.761132E+03  1.105139E+04
        60  23  1.848294E+05  6.349088E+04  1.990926E+04  1.025046E+05  1.027154E+04  1.681089E+04
        60  24  2.002568E+05  7.962015E+04  4.086499E+04  8.959408E+04  2.147771E+04  1.897564E+04
        60  25  9.977765E+04 -7.881670E+03 -1.108005E+04  6.089822E+04  4.211333E+03  1.288864E+04
        60  26  6.253294E+04 -5.228246E+03 -1.031172E+04  4.923718E+04  6.423705E+03  1.392618E+04
        60  27  4.198564E+04  5.556200E+03 -3.082587E+03  2.882988E+04  1.133192E+04  1.136861E+04
        61   1  4.097117E+05  6.053282E+04  7.252177E+04  2.924695E+04  4.956988E+04  2.333741E+00
        61   2  4.014521E+05  3.505515E+02  3.337830E+04  1.032459E+04  3.191262E+04  5.303859E-01
        61   3  4.097230E+05 -2.893083E+03  1.996029E+04 -8.597149E+03  1.425557E+04 -1.972831E-01
        61   4  4.097108E+05  6.053121E+04  7.252154E+04 -1.003373E-09  4.956988E+04 -1.290512E-10
        61   5  4.014520E+05  3.503513E+02  3.337827E+04 -4.670053E-10  3.191262E+04  3.279325E-13
        61   6  4.097229E+05 -2.893222E+03  1.996027E+04  1.109061E-09  1.425557E+04 -3.329824E-12
        61   7  4.097117E+05  6.053282E+04  7.252177E+04 -2.924695E+04  4.956988E+04 -2.333741E+00
        61   8  4.014521E+05  3.505515E+02  3.337830E+04 -1.032459E+04  3.191262E+04 -5.303859E-01
        61   9  4.097230E+05 -2.893083E+03  1.996029E+04  8.597149E+03  1.425557E+04  1.972831E-01
        61  10  4.097090E+05  6.053216E+04  7.251715E+04  2.924695E+04 -1.233339E-10 -3.621731E-13
        61  11  4.014510E+05  3.502783E+02  3.337639E+04  1.032459E+04  3.440059E-10  1.066246E-11
        61  12  4.097228E+05 -2.893138E+03  1.995991E+04 -8.597149E+03  4.656639E-10  1.996685E-11
        61  13  4.097081E+05  6.053055E+04  7.251692E+04 -1.705676E-10 -1.457971E-10  2.995547E-11
        61  14  4.014509E+05  3.500781E+02  3.337636E+04 -8.814512E-10 -3.414527E-10  5.380975E-11
        61  15  4.097227E+05 -2.893277E+03  1.995989E+04 -8.497061E-10  3.302424E-11 -6.692535E-11
        61  16  4.097090E+05  6.053216E+04  7.251715E+04 -2.924695E+04  1.796100E-10  5.571158E-11
        61  17  4.014510E+05  3.502783E+02  3.337639E+04 -1.032459E+04 -4.150629E-10  1.099452E-10
        61  18  4.097228E+05 -2.893138E+03  1.995991E+04  8.597149E+03 -2.271442E-10 -1.175343E-10
        61  19  4.097117E+05  6.053282E+04  7.252177E+04  2.924695E+04 -4.956988E+04 -2.333741E+00
        61  20  4.014521E+05  3.505515E+02  3.337830E+04  1.032459E+04 -3.191262E+04 -5.303859E-01
        61  21  4.097230E+05 -2.893083E+03  1.996029E+04 -8.597149E+03 -1.425557E+04  1.972831E-01
        61  22  4.097108E+05  6.053121E+04  7.252154E+04 -1.765359E-09 -4.956988E+04  1.930631E-10
        61  23  4.014520E+05  3.503513E+02  3.337827E+04 -1.564789E-09 -3.191262E+04  1.071052E-10
        61  24  4.097229E+05 -2.893222E+03  1.996027E+04 -1.937372E-09 -1.425557E+04 -1.204069E-10
        61  25  4.097117E+05  6.053282E+04  7.252177E+04 -2.924695E+04 -4.956988E+04  2.333741E+00
        61  26  4.014521E+05  3.505515E+02  3.337830E+04 -1.032459E+04 -3.191262E+04  5.303859E-01
        61  27  4.097230E+05 -2.893083E+03  1.996029E+04  8.597149E+03 -1.425557E+04 -1.972831E-01
        62   1  4.063730E+05  3.186810E+03  1.618131E+04  1.159086E+03  1.139310E+04  2.125742E-02
        62   2  4.056412E+05 -1.025965E+02  9.791323E+03  2.965124E+02  6.488783E+03  3.097131E-03
        62   3  4.063743E+05 -8.510455E+01  7.419576E+03 -5.660754E+02  1.584415E+03 -1.443763E-03
        62   4  4.063730E+05  3.186808E+03  1.618131E+04 -5.233616E-10  1.139310E+04  1.037996E-11
        62   5  4.056412E+05 -1.025967E+02  9.791323E+03 -7.194632E-10  6.488783E+03  8.969569E-12
        62   6  4.063743E+05 -8.510515E+01  7.419576E+03 -5.500308E-10  1.584415E+03 -1.244389E-10
        62   7  4.063730E+05  3.186810E+03  1.618131E+04 -1.159086E+03  1.139310E+04 -2.125742E-02
        62   8  4.056412E+05 -1.025965E+02  9.791323E+03 -2.965124E+02  6.488783E+03 -3.097131E-03
        62   9  4.063743E+05 -8.510455E+01  7.419576E+03  5.660754E+02  1.584415E+03  1.443763E-03
        62  10  4.063729E+05  3.186775E+03  1.618107E+04  1.159086E+03  8.055965E-11  3.807945E-11
        62  11  4.056412E+05 -1.026078E+02  9.791243E+03  2.965124E+02 -4.843578E-11  9.474934E-11
        62  12  4.063743E+05 -8.510522E+01  7.419571E+03 -5.660754E+02  7.779350E-11  7.508221E-11
        62  13  4.063729E+05  3.186773E+03  1.618107E+04 -1.288612E-09 -1.234050E-10 -6.758180E-11
        62  14  4.056412E+05 -1.026080E+02  9.791243E+03 -3.039608E-10  1.515070E-10  5.190821E-11
        62  15  4.063743E+05 -8.510582E+01  7.419571E+03  4.818827E-10 -5.049935E-11  5.093255E-11
        62  16  4.063729E+05  3.186775E+03  1.618107E+04 -1.159086E+03 -4.201113E-11 -1.901463E-10
        62  17  4.056412E+05 -1.026078E+02  9.791243E+03 -2.965124E+02  3.689550E-10  1.179196E-11
        62  18  4.063743E+05 -8.510522E+01  7.419571E+03  5.660754E+02  1.613465E-10  5.870698E-11
        62  19  4.063730E+05  3.186810E+03  1.618131E+04  1.159086E+03 -1.139310E+04 -2.125742E-02
        62  20  4.056412E+05 -1.025965E+02  9.791323E+03  2.965124E+02 -6.488783E+03 -3.097130E-03
        62  21  4.063743E+05 -8.510455E+01  7.419576E+03 -5.660754E+02 -1.584415E+03  1.443764E-03
        62  22  4.063730E+05  3.186808E+03  1.618131E+04 -2.058070E-09 -1.139310E+04 -1.444187E-10
        62  23  4.056412E+05 -1.025967E+02  9.791323E+03 -6.957921E-10 -6.488783E+03  9.595514E-11
        62  24  4.063743E+05 -8.510515E+01  7.419576E+03 -3.881133E-11 -1.584415E+03  2.192487E-10
        62  25  4.063730E+05  3.186810E+03  1.618131E+04 -1.159086E+03 -1.139310E+04  2.125742E-02
        62  26  4.056412E+05 -1.025965E+02  9.791323E+03 -2.965124E+02 -6.488783E+03  3.097131E-03
        62  27  4.063743E+05 -8.510455E+01  7.419576E+03  5.660754E+02 -1.584415E+03 -1.443763E-03
        63   1  4.063021E+05  5.200781E+00  7.103171E+03  3.757236E+02  3.048031E+02  1.843490E-04
        63   2  4.057316E+05 -8.795872E+01  8.035776E+03 -2.464278E+02 -3.715196E+03  1.473753E-03
        63   3  4.063013E+05  2.287791E+03  1.220160E+04 -8.685787E+02 -7.735205E+03  1.081519E-02
        63   4  4.063021E+05  5.200516E+00  7.103171E+03 -8.504694E-10  3.048031E+02 -7.998591E-11
        63   5  4.057316E+05 -8.795883E+01  8.035776E+03  2.417535E-11 -3.715196E+03  1.074271E-10
        63   6  4.063013E+05  2.287790E+03  1.220160E+04 -1.023003E-09 -7.735205E+03 -1.298479E-10
        63   7  4.063021E+05  5.200781E+00  7.103171E+03 -3.757236E+02  3.048031E+02 -1.843491E-04
        63   8  4.057316E+05 -8.795872E+01  8.035776E+03  2.464278E+02 -3.715196E+03 -1.473753E-03
        63   9  4.063013E+05  2.287791E+03  1.220160E+04  8.685787E+02 -7.735205E+03 -1.081519E-02
        63  10  4.063021E+05  5.200756E+00  7.103170E+03  3.757236E+02  1.211056E-10  7.700704E-11
        63  11  4.057316E+05 -8.796242E+01  8.035750E+03 -2.464278E+02 -6.700045E-11  3.025438E-11
        63  12  4.063013E+05  2.287775E+03  1.220149E+04 -8.685787E+02 -5.999694E-11 -1.572376E-10
        63  13  4.063021E+05  5.200491E+00  7.103170E+03 -2.314562E-11  1.641028E-10  4.491571E-11
        63  14  4.057316E+05 -8.796254E+01  8.035750E+03  1.419858E-10  2.076669E-10  2.706372E-11
        63  15  4.063013E+05  2.287774E+03  1.220149E+04 -9.635779E-10 -2.399037E-10 -1.217495E-10
        63  16  4.063021E+05  5.200756E+00  7.103170E+03 -3.757236E+02  2.479472E-10  1.788240E-11
        63  17  4.057316E+05 -8.796242E+01  8.035750E+03  2.464278E+02  2.353062E-10  7.292478E-12
        63  18  4.063013E+05  2.287775E+03  1.220149E+04  8.685787E+02  6.006628E-12 -6.579125E-11
        63  19  4.063021E+05  5.200781E+00  7.103171E+03  3.757236E+02 -3.048031E+02 -1.843489E-04
        63  20  4.057316E+05 -8.795872E+01  8.035776E+03 -2.464278E+02  3.715196E+03 -1.473753E-03
        63  21  4.063013E+05  2.287791E+03  1.220160E+04 -8.685787E+02  7.735205E+03 -1.081519E-02
        63  22  4.063021E+05  5.200516E+00  7.103171E+03  2.550838E-10 -3.048031E+02  1.669330E-10
        63  23  4.057316E+05 -8.795883E+01  8.035776E+03  8.009993E-10  3.715196E+03 -4.399640E-11
        63  24  4.063013E+05  2.287790E+03  1.220160E+04 -3.050962E-10  7.735205E+03 -1.131342E-10
        63  25  4.063021E+05  5.200781E+00  7.103171E+03 -3.757236E+02 -3.048031E+02  1.843492E-04
        63  26  4.057316E+05 -8.795872E+01  8.035776E+03  2.464278E+02  3.715196E+03  1.473753E-03
        63  27  4.063013E+05  2.287791E+03  1.220160E+04  8.685787E+02  7.735205E+03  1.081519E-02
        64   1  4.086982E+05 -2.084572E+03  1.477631E+04  6.173904E+03 -9.882134E+03 -9.821143E-02
        64   2  4.027343E+05  2.494069E+02  2.422653E+04 -7.450694E+03 -2.269207E+04  2.721615E-01
        64   3  4.086898E+05  4.359798E+04  5.226673E+04 -2.107527E+04 -3.550179E+04  1.204418E+00
        64   4  4.086982E+05 -2.084643E+03  1.477630E+04 -7.585640E-10 -9.882134E+03 -2.340017E-10
        64   5  4.027343E+05  2.493026E+02  2.422651E+04  1.296935E-09 -2.269207E+04 -1.137431E-10
        64   6  4.086893E+05  4.359714E+04  5.226662E+04  2.935236E-10 -3.550179E+04  1.477310E-11
        64   7  4.086982E+05 -2.084572E+03  1.477631E+04 -6.173904E+03 -9.882134E+03  9.821143E-02
        64   8  4.027343E+05  2.494069E+02  2.422653E+04  7.450694E+03 -2.269207E+04 -2.721615E-01
        64   9  4.086898E+05  4.359798E+04  5.226673E+04  2.107527E+04 -3.550179E+04 -1.204418E+00
        64  10  4.086981E+05 -2.084598E+03  1.477612E+04  6.173904E+03 -1.065994E-10 -2.172583E-10
        64  11  4.027338E+05  2.492688E+02  2.422556E+04 -7.450694E+03 -1.022222E-10 -1.500834E-10
        64  12  4.086885E+05  4.359764E+04  5.226437E+04 -2.107527E+04 -1.407114E-10 -2.504867E-11
        64  13  4.086981E+05 -2.084669E+03  1.477611E+04 -8.974170E-10 -2.917476E-10 -1.856867E-10
        64  14  4.027337E+05  2.491645E+02  2.422554E+04  2.334708E-10  1.346462E-10 -1.406124E-10
        64  15  4.086880E+05  4.359680E+04  5.226425E+04  6.238310E-10 -2.727152E-10 -4.270482E-11
        64  16  4.086981E+05 -2.084598E+03  1.477612E+04 -6.173904E+03  1.157375E-11 -1.539482E-10
        64  17  4.027338E+05  2.492688E+02  2.422556E+04  7.450694E+03 -1.423550E-10 -1.462012E-10
        64  18  4.086885E+05  4.359764E+04  5.226437E+04  2.107527E+04  7.523141E-11 -3.129430E-11
        64  19  4.086982E+05 -2.084572E+03  1.477631E+04  6.173904E+03  9.882134E+03  9.821143E-02
        64  20  4.027343E+05  2.494069E+02  2.422653E+04 -7.450694E+03  2.269207E+04 -2.721615E-01
        64  21  4.086898E+05  4.359798E+04  5.226673E+04 -2.107527E+04  3.550179E+04 -1.204418E+00
        64  22  4.086982E+05 -2.084643E+03  1.477630E+04 -7.622492E-10  9.882134E+03 -1.360673E-10
        64  23  4.027343E+05  2.493026E+02  2.422651E+04 -2.903728E-10  2.269207E+04 -1.768302E-10
        64  24  4.086893E+05  4.359714E+04  5.226662E+04 -4.549114E-10  3.550179E+04 -9.765048E-11
        64  25  4.086982E+05 -2.084572E+03  1.477631E+04 -6.173904E+03  9.882134E+03 -9.821143E-02
        64  26  4.027343E+05  2.494069E+02  2.422653E+04  7.450694E+03  2.269207E+04  2.721615E-01
        64  27  4.086898E+05  4.359798E+04  5.226673E+04  2.107527E+04  3.550179E+04  1.204418E+00
        65   1 -3.115332E+04 -1.264825E+05 -3.663038E+04 -6.836606E+03  9.187469E+02 -3.646322E+04
        65   2 -1.316364E+03 -1.589604E+05 -1.786898E+04 -2.283484E+04  2.497545E+03 -2.526309E+04
        65   3  2.777785E+03 -1.993302E+05 -1.283540E+04 -4.516898E+04  1.631721E+03 -1.406347E+04
        65   4 -5.792882E+04 -2.346030E+05 -6.238159E+04 -4.557087E+04  9.215026E+02 -4.247265E+04
        65   5 -1.842814E+04 -2.301959E+05 -3.219100E+04 -4.240103E+04  2.498430E+03 -2.602631E+04
        65   6 -5.584571E+03 -2.345953E+05 -1.937415E+04 -4.556769E+04  1.631296E+03 -9.579656E+03
        65   7 -8.469950E+04 -3.427095E+05 -8.813268E+04 -8.429835E+04  9.250089E+02 -4.848103E+04
        65   8 -3.553879E+04 -3.014257E+05 -4.651307E+04 -6.196493E+04  2.499363E+03 -2.678943E+04
        65   9 -1.394699E+04 -2.698590E+05 -2.591287E+04 -4.596639E+04  1.630867E+03 -5.096087E+03
        65  10 -3.115368E+04 -1.264840E+05 -3.663288E+04 -6.836579E+03  3.918986E-11 -5.557910E-10
        65  11 -1.316542E+03 -1.589611E+05 -1.787019E+04 -2.283479E+04 -1.449901E-10  1.643860E-10
        65  12  2.777729E+03 -1.993304E+05 -1.283578E+04 -4.516896E+04  9.325527E-11  8.829184E-10
        65  13 -5.792930E+04 -2.346050E+05 -6.238498E+04 -4.557083E+04  3.862730E-11 -1.744568E-12
        65  14 -1.842833E+04 -2.301966E+05 -3.219229E+04 -4.240098E+04 -1.477947E-10 -8.296175E-12
        65  15 -5.584598E+03 -2.345953E+05 -1.937433E+04 -4.556768E+04 -1.584460E-10  1.125585E-11
        65  16 -8.470013E+04 -3.427121E+05 -8.813710E+04 -8.429831E+04 -1.607312E-10  5.655175E-10
        65  17 -3.553899E+04 -3.014264E+05 -4.651444E+04 -6.196487E+04  6.113166E-11 -1.594159E-10
        65  18 -1.394700E+04 -2.698590E+05 -2.591293E+04 -4.596638E+04  3.910948E-11 -8.550712E-10
        65  19 -3.115332E+04 -1.264825E+05 -3.663038E+04 -6.836606E+03 -9.187469E+02  3.646322E+04
        65  20 -1.316364E+03 -1.589604E+05 -1.786898E+04 -2.283484E+04 -2.497545E+03  2.526309E+04
        65  21  2.777785E+03 -1.993302E+05 -1.283540E+04 -4.516898E+04 -1.631721E+03  1.406347E+04
        65  22 -5.792882E+04 -2.346030E+05 -6.238159E+04 -4.557087E+04 -9.215026E+02  4.247265E+04
        65  23 -1.842814E+04 -2.301959E+05 -3.219100E+04 -4.240103E+04 -2.498430E+03  2.602631E+04
        65  24 -5.584571E+03 -2.345953E+05 -1.937415E+04 -4.556769E+04 -1.631296E+03  9.579656E+03
        65  25 -8.469950E+04 -3.427095E+05 -8.813268E+04 -8.429835E+04 -9.250089E+02  4.848103E+04
        65  26 -3.553879E+04 -3.014257E+05 -4.651307E+04 -6.196493E+04 -2.499363E+03  2.678943E+04
        65  27 -1.394699E+04 -2.698590E+05 -2.591287E+04 -4.596639E+04 -1.630867E+03  5.096087E+03
        66   1 -1.466663E+03 -2.207498E+05 -1.345164E+04 -4.307179E+04  3.042964E+02 -1.139851E+04
        66   2 -7.793820E+03 -2.561756E+05 -1.683059E+04 -4.231688E+04 -1.735572E+03 -4.513403E+03
        66   3 -1.840844E+04 -2.935688E+05 -2.576507E+04 -4.804832E+04 -3.654345E+03  2.371356E+03
        66   4 -4.461104E+03 -2.330658E+05 -1.610753E+04 -4.560110E+04  3.038905E+02 -6.889471E+03
        66   5 -2.259828E+03 -2.321043E+05 -1.323872E+04 -4.235787E+04 -1.735966E+03 -2.645889E+02
        66   6 -4.300734E+03 -2.330663E+05 -1.574472E+04 -4.560112E+04 -3.654676E+03  6.360324E+03
        66   7 -7.455519E+03 -2.453815E+05 -1.876335E+04 -4.813037E+04  3.034478E+02 -2.380524E+03
        66   8  3.274146E+03 -2.080324E+05 -9.646794E+03 -4.239886E+04 -1.736361E+03  3.984383E+03
        66   9  9.806813E+03 -1.725603E+05 -5.724428E+03 -4.315368E+04 -3.654975E+03  1.034967E+04
        66  10 -1.466698E+03 -2.207500E+05 -1.345188E+04 -4.307178E+04 -7.783332E-11 -6.569825E-10
        66  11 -7.793829E+03 -2.561756E+05 -1.683064E+04 -4.231689E+04 -4.134914E-10  9.660992E-11
        66  12 -1.840846E+04 -2.935688E+05 -2.576510E+04 -4.804832E+04 -1.622933E-10  8.632258E-10
        66  13 -4.461116E+03 -2.330658E+05 -1.610762E+04 -4.560110E+04  2.693246E-10  3.860164E-11
        66  14 -2.259831E+03 -2.321043E+05 -1.323873E+04 -4.235787E+04 -1.385299E-10 -1.138071E-11
        66  15 -4.300759E+03 -2.330664E+05 -1.574483E+04 -4.560110E+04 -1.549800E-10  1.830025E-11
        66  16 -7.455521E+03 -2.453815E+05 -1.876336E+04 -4.813037E+04  1.080952E-10  6.521820E-10
        66  17  3.274139E+03 -2.080324E+05 -9.646830E+03 -4.239886E+04 -2.623697E-10 -8.467366E-11
        66  18  9.806770E+03 -1.725604E+05 -5.724654E+03 -4.315365E+04 -2.489100E-10 -8.595106E-10
        66  19 -1.466663E+03 -2.207498E+05 -1.345164E+04 -4.307179E+04 -3.042964E+02  1.139851E+04
        66  20 -7.793820E+03 -2.561756E+05 -1.683059E+04 -4.231688E+04  1.735572E+03  4.513403E+03
        66  21 -1.840844E+04 -2.935688E+05 -2.576507E+04 -4.804832E+04  3.654345E+03 -2.371356E+03
        66  22 -4.461104E+03 -2.330658E+05 -1.610753E+04 -4.560110E+04 -3.038905E+02  6.889471E+03
        66  23 -2.259828E+03 -2.321043E+05 -1.323872E+04 -4.235787E+04  1.735966E+03  2.645889E+02
        66  24 -4.300734E+03 -2.330663E+05 -1.574472E+04 -4.560112E+04  3.654676E+03 -6.360324E+03
        66  25 -7.455519E+03 -2.453815E+05 -1.876335E+04 -4.813037E+04 -3.034478E+02  2.380524E+03
        66  26  3.274146E+03 -2.080324E+05 -9.646794E+03 -4.239886E+04  1.736361E+03 -3.984383E+03
        66  27  9.806813E+03 -1.725603E+05 -5.724428E+03 -4.315368E+04  3.654975E+03 -1.034967E+04
        67   1 -2.489489E+04 -3.180233E+05 -3.286875E+04 -4.593690E+04 -4.871736E+03  5.034144E+03
        67   2 -4.611464E+04 -3.495785E+05 -5.384250E+04 -6.119637E+04 -4.982290E+03  2.828981E+04
        67   3 -9.420658E+04 -3.908797E+05 -9.667929E+04 -8.270871E+04 -1.631840E+03  5.154340E+04
        67   4 -5.374427E+03 -2.345182E+05 -1.879766E+04 -4.554958E+04 -4.872018E+03  8.983874E+03
        67   5 -1.767944E+04 -2.302949E+05 -3.097504E+04 -4.242364E+04 -4.981118E+03  2.480806E+04
        67   6 -5.556422E+04 -2.345269E+05 -5.985137E+04 -4.555210E+04 -1.628144E+03  4.063185E+04
        67   7  1.414567E+04 -1.510061E+05 -4.726726E+03 -4.516221E+04 -4.872295E+03  1.293412E+04
        67   8  1.075624E+04 -1.109967E+05 -8.107997E+03 -2.364723E+04 -4.980157E+03  2.132566E+04
        67   9 -1.691836E+04 -7.814829E+04 -2.302395E+04 -8.386068E+03 -1.625755E+03  2.971756E+04
        67  10 -2.489492E+04 -3.180234E+05 -3.286884E+04 -4.593688E+04 -7.158485E-11 -4.370693E-10
        67  11 -4.611488E+04 -3.495794E+05 -5.384405E+04 -6.119625E+04 -3.702765E-10 -4.793319E-11
        67  12 -9.420729E+04 -3.908825E+05 -9.668429E+04 -8.270864E+04 -1.317033E-10  4.106948E-10
        67  13 -5.374474E+03 -2.345183E+05 -1.879785E+04 -4.554955E+04 -1.673897E-12  2.660879E-11
        67  14 -1.767963E+04 -2.302955E+05 -3.097624E+04 -4.242354E+04 -1.642924E-10  2.572592E-12
        67  15 -5.556467E+04 -2.345286E+05 -5.985448E+04 -4.555205E+04  2.483897E-10  5.516676E-12
        67  16  1.414560E+04 -1.510063E+05 -4.727085E+03 -4.516216E+04 -2.931783E-10  4.560328E-10
        67  17  1.075609E+04 -1.109972E+05 -8.108898E+03 -2.364714E+04 -5.658418E-11  5.035166E-11
        67  18 -1.691860E+04 -7.814924E+04 -2.302562E+04 -8.386029E+03 -9.711101E-11 -4.465200E-10
        67  19 -2.489489E+04 -3.180233E+05 -3.286875E+04 -4.593690E+04  4.871736E+03 -5.034144E+03
        67  20 -4.611464E+04 -3.495785E+05 -5.384250E+04 -6.119637E+04  4.982290E+03 -2.828981E+04
        67  21 -9.420658E+04 -3.908797E+05 -9.667929E+04 -8.270871E+04  1.631840E+03 -5.154340E+04
        67  22 -5.374427E+03 -2.345182E+05 -1.879766E+04 -4.554958E+04  4.872018E+03 -8.983874E+03
        67  23 -1.767944E+04 -2.302949E+05 -3.097504E+04 -4.242364E+04  4.981118E+03 -2.480806E+04
        67  24 -5.556422E+04 -2.345269E+05 -5.985137E+04 -4.555210E+04  1.628144E+03 -4.063185E+04
        67  25  1.414567E+04 -1.510061E+05 -4.726726E+03 -4.516221E+04  4.872295E+03 -1.293412E+04
        67  26  1.075624E+04 -1.109967E+05 -8.107997E+03 -2.364723E+04  4.980157E+03 -2.132566E+04
        67  27 -1.691836E+04 -7.814829E+04 -2.302395E+04 -8.386068E+03  1.625755E+03 -2.971756E+04
        68   1  1.029888E+05  6.576792E+04  1.660641E+04  7.438468E+04  2.086690E+04  1.694045E+04
        68   2  9.993148E+04  4.538595E+04 -2.183785E+03  9.456423E+04  1.282692E+04  1.335310E+04
        68   3  1.284348E+05  4.435318E+04 -5.427061E+03  9.798966E+04  6.266689E+03  7.792073E+03
        68   4  1.887607E+05  1.082768E+05  4.190111E+04  1.082299E+05  2.227888E+04  1.799876E+04
        68   5  1.665446E+05  8.724769E+04  1.847536E+04  1.250359E+05  1.314689E+04  1.359289E+04
        68   6  1.761230E+05  8.580196E+04  1.154208E+04  1.250883E+05  5.494895E+03  7.213446E+03
        68   7  2.745407E+05  1.507873E+05  6.719514E+04  1.420796E+05  2.369114E+04  1.905718E+04
        68   8  2.331624E+05  1.291111E+05  3.913395E+04  1.555109E+05  1.346691E+04  1.383270E+04
        68   9  2.238134E+05  1.272526E+05  2.851080E+04  1.521895E+05  4.723024E+03  6.634743E+03
        68  10  1.029882E+05  6.576750E+04  1.660505E+04  7.438440E+04  1.281298E-10 -1.764689E-12
        68  11  9.993126E+04  4.538571E+04 -2.184429E+03  9.456409E+04 -3.307273E-10 -8.608656E-11
        68  12  1.284348E+05  4.435311E+04 -5.427249E+03  9.798962E+04  7.199678E-11 -1.080047E-10
        68  13  1.887601E+05  1.082763E+05  4.189957E+04  1.082296E+05 -1.536118E-10 -8.473648E-12
        68  14  1.665444E+05  8.724744E+04  1.847469E+04  1.250357E+05 -1.455333E-10 -7.048840E-11
        68  15  1.761230E+05  8.580189E+04  1.154193E+04  1.250883E+05 -2.312832E-10 -1.248119E-10
        68  16  2.745400E+05  1.507868E+05  6.719340E+04  1.420792E+05 -2.120001E-11 -9.959475E-11
        68  17  2.331621E+05  1.291108E+05  3.913325E+04  1.555108E+05  1.790904E-10 -1.579022E-10
        68  18  2.238134E+05  1.272525E+05  2.851067E+04  1.521894E+05 -6.692264E-11 -9.598949E-11
        68  19  1.029888E+05  6.576792E+04  1.660641E+04  7.438468E+04 -2.086690E+04 -1.694045E+04
        68  20  9.993148E+04  4.538595E+04 -2.183785E+03  9.456423E+04 -1.282692E+04 -1.335310E+04
        68  21  1.284348E+05  4.435318E+04 -5.427061E+03  9.798966E+04 -6.266689E+03 -7.792073E+03
        68  22  1.887607E+05  1.082768E+05  4.190111E+04  1.082299E+05 -2.227888E+04 -1.799876E+04
        68  23  1.665446E+05  8.724769E+04  1.847536E+04  1.250359E+05 -1.314689E+04 -1.359289E+04
        68  24  1.761230E+05  8.580196E+04  1.154208E+04  1.250883E+05 -5.494895E+03 -7.213446E+03
        68  25  2.745407E+05  1.507873E+05  6.719514E+04  1.420796E+05 -2.369114E+04 -1.905718E+04
        68  26  2.331624E+05  1.291111E+05  3.913395E+04  1.555109E+05 -1.346691E+04 -1.383270E+04
        68  27  2.238134E+05  1.272526E+05  2.851080E+04  1.521895E+05 -4.723024E+03 -6.634743E+03
        69   1  1.373006E+05  6.196168E+04 -3.036357E+03  1.029295E+05  4.684337E+03  5.700961E+03
        69   2  1.425028E+05  7.178059E+04 -3.736265E+03  1.112732E+05  2.990729E+03  3.822110E+03
        69   3  1.601350E+05  7.446634E+04 -1.825821E+03  1.153755E+05  1.395078E+03  1.812415E+03
        69   4  1.765181E+05  8.821770E+04  9.450882E+03  1.216073E+05  4.505324E+03  5.566715E+03
        69   5  1.696827E+05  9.068617E+04  5.042367E+03  1.245460E+05  2.739275E+03  3.633575E+03
        69   6  1.752926E+05  8.603689E+04  3.306847E+03  1.232431E+05  1.071227E+03  1.569619E+03
        69   7  2.157373E+05  1.144744E+05  2.193793E+04  1.402864E+05  4.326295E+03  5.432459E+03
        69   8  1.968634E+05  1.095922E+05  1.382093E+04  1.378195E+05  2.487806E+03  3.445028E+03
        69   9  1.904505E+05  9.760765E+04  8.439514E+03  1.311110E+05  7.473631E+02  1.326814E+03
        69  10  1.373006E+05  6.196164E+04 -3.036460E+03  1.029295E+05  1.483411E-10 -3.188499E-11
        69  11  1.425028E+05  7.178057E+04 -3.736309E+03  1.112732E+05  1.213518E-10 -3.967911E-10
        69  12  1.601350E+05  7.446633E+04 -1.825831E+03  1.153755E+05  1.089206E-10 -1.800620E-10
        69  13  1.765181E+05  8.821766E+04  9.450786E+03  1.216073E+05  1.803160E-10 -5.868792E-11
        69  14  1.696827E+05  9.068615E+04  5.042328E+03  1.245460E+05 -8.179100E-11  4.954510E-11
        69  15  1.752926E+05  8.603688E+04  3.306840E+03  1.232431E+05  1.581177E-10 -1.356929E-10
        69  16  2.157372E+05  1.144744E+05  2.193784E+04  1.402864E+05 -6.553431E-11 -6.530839E-11
        69  17  1.968634E+05  1.095922E+05  1.382090E+04  1.378195E+05  5.274573E-10 -1.360106E-10
        69  18  1.904505E+05  9.760765E+04  8.439510E+03  1.311110E+05 -7.626362E-11 -2.555765E-10
        69  19  1.373006E+05  6.196168E+04 -3.036357E+03  1.029295E+05 -4.684337E+03 -5.700961E+03
        69  20  1.425028E+05  7.178059E+04 -3.736265E+03  1.112732E+05 -2.990729E+03 -3.822110E+03
        69  21  1.601350E+05  7.446634E+04 -1.825821E+03  1.153755E+05 -1.395078E+03 -1.812415E+03
        69  22  1.765181E+05  8.821770E+04  9.450882E+03  1.216073E+05 -4.505324E+03 -5.566715E+03
        69  23  1.696827E+05  9.068617E+04  5.042367E+03  1.245460E+05 -2.739275E+03 -3.633575E+03
        69  24  1.752926E+05  8.603689E+04  3.306847E+03  1.232431E+05 -1.071227E+03 -1.569619E+03
        69  25  2.157373E+05  1.144744E+05  2.193793E+04  1.402864E+05 -4.326295E+03 -5.432459E+03
        69  26  1.968634E+05  1.095922E+05  1.382093E+04  1.378195E+05 -2.487806E+03 -3.445028E+03
        69  27  1.904505E+05  9.760765E+04  8.439514E+03  1.311110E+05 -7.473631E+02 -1.326814E+03
        70   1  1.733798E+05  8.505950E+04  2.281816E+03  1.220472E+05  1.169272E+03  1.131477E+03
        70   2  1.794800E+05  9.775630E+04  5.391524E+03  1.292122E+05  6.369868E+02 -7.866341E+01
        70   3  1.962127E+05  1.008990E+05  9.436488E+03  1.332174E+05  1.032501E+02 -1.286868E+03
        70   4  1.753097E+05  8.624252E+04  2.833839E+03  1.229235E+05  8.817769E+02  9.159382E+02
        70   5  1.699880E+05  9.100986E+04  2.298297E+03  1.245106E+05  3.505657E+02 -2.933999E+02
        70   6  1.752987E+05  8.622299E+04  2.697156E+03  1.229380E+05 -1.820763E+02 -1.500788E+03
        70   7  1.772396E+05  8.742554E+04  3.385859E+03  1.237996E+05  5.942818E+02  7.004003E+02
        70   8  1.604962E+05  8.426349E+04 -7.949318E+02  1.198091E+05  6.415136E+01 -5.081313E+02
        70   9  1.543851E+05  7.154717E+04 -4.042230E+03  1.126590E+05 -4.673895E+02 -1.714699E+03
        70  10  1.733798E+05  8.505949E+04  2.281811E+03  1.220472E+05 -1.864678E-10 -2.769325E-10
        70  11  1.794800E+05  9.775630E+04  5.391523E+03  1.292122E+05  1.374932E-10 -1.029694E-10
        70  12  1.962127E+05  1.008990E+05  9.436485E+03  1.332174E+05  2.352104E-10 -2.575696E-10
        70  13  1.753097E+05  8.624252E+04  2.833836E+03  1.229234E+05  1.651239E-11 -2.795356E-10
        70  14  1.699880E+05  9.100986E+04  2.298296E+03  1.245106E+05  2.258631E-10  1.806252E-10
        70  15  1.752987E+05  8.622299E+04  2.697151E+03  1.229380E+05 -4.565789E-11 -1.352556E-10
        70  16  1.772396E+05  8.742554E+04  3.385858E+03  1.237996E+05 -3.787064E-11 -1.200654E-10
        70  17  1.604962E+05  8.426349E+04 -7.949323E+02  1.198091E+05  3.435412E-10 -9.900249E-11
        70  18  1.543851E+05  7.154716E+04 -4.042236E+03  1.126590E+05  2.504570E-10  5.103308E-12
        70  19  1.733798E+05  8.505950E+04  2.281816E+03  1.220472E+05 -1.169272E+03 -1.131477E+03
        70  20  1.794800E+05  9.775630E+04  5.391524E+03  1.292122E+05 -6.369868E+02  7.866341E+01
        70  21  1.962127E+05  1.008990E+05  9.436488E+03  1.332174E+05 -1.032501E+02  1.286868E+03
        70  22  1.753097E+05  8.624252E+04  2.833839E+03  1.229235E+05 -8.817769E+02 -9.159382E+02
        70  23  1.699880E+05  9.100986E+04  2.298297E+03  1.245106E+05 -3.505657E+02  2.933999E+02
        70  24  1.752987E+05  8.622299E+04  2.697156E+03  1.229380E+05  1.820763E+02  1.500788E+03
        70  25  1.772396E+05  8.742554E+04  3.385859E+03  1.237996E+05 -5.942818E+02 -7.004003E+02
        70  26  1.604962E+05  8.426349E+04 -7.949318E+02  1.198091E+05 -6.415136E+01  5.081313E+02
        70  27  1.543851E+05  7.154717E+04 -4.042230E+03  1.126590E+05  4.673895E+02  1.714699E+03
        71   1  2.094789E+05  1.110621E+05  1.441952E+04  1.404842E+05 -1.245840E+01 -1.891782E+03
        71   2  2.158809E+05  1.231668E+05  1.960854E+04  1.472407E+05 -1.603794E+03 -3.896692E+03
        71   3  2.345634E+05  1.278879E+05  2.732380E+04  1.498684E+05 -3.316185E+03 -5.740168E+03
        71   4  1.752865E+05  8.603562E+04  3.098831E+03  1.232214E+05 -3.442029E+02 -2.140514E+03
        71   5  1.697116E+05  9.072623E+04  4.635042E+03  1.245438E+05 -1.846136E+03 -4.078422E+03
        71   6  1.763982E+05  8.801380E+04  8.620133E+03  1.217372E+05 -3.469066E+03 -5.854845E+03
        71   7  1.410950E+05  6.100966E+04 -8.222080E+03  1.059596E+05 -6.759244E+02 -2.389228E+03
        71   8  1.235446E+05  5.828677E+04 -1.033873E+04  1.018487E+05 -2.088452E+03 -4.260133E+03
        71   9  1.182368E+05  4.814158E+04 -1.008386E+04  9.360898E+04 -3.621927E+03 -5.969508E+03
        71  10  2.094789E+05  1.110621E+05  1.441951E+04  1.404842E+05 -8.173322E-11 -2.131092E-10
        71  11  2.158809E+05  1.231668E+05  1.960851E+04  1.472407E+05 -9.413148E-11 -8.561318E-12
        71  12  2.345634E+05  1.278879E+05  2.732372E+04  1.498684E+05 -1.033317E-10 -2.407099E-11
        71  13  1.752865E+05  8.603562E+04  3.098822E+03  1.232214E+05  8.173777E-11 -6.680625E-11
        71  14  1.697116E+05  9.072621E+04  4.635004E+03  1.245438E+05 -3.185797E-10 -3.165488E-12
        71  15  1.763982E+05  8.801376E+04  8.620046E+03  1.217372E+05 -2.050060E-10  5.837354E-11
        71  16  1.410950E+05  6.100965E+04 -8.222091E+03  1.059596E+05  1.462873E-10 -2.204434E-12
        71  17  1.235446E+05  5.828675E+04 -1.033878E+04  1.018487E+05  1.010571E-10 -9.424017E-12
        71  18  1.182368E+05  4.814154E+04 -1.008395E+04  9.360896E+04  8.246301E-12  5.249211E-11
        71  19  2.094789E+05  1.110621E+05  1.441952E+04  1.404842E+05  1.245840E+01  1.891782E+03
        71  20  2.158809E+05  1.231668E+05  1.960854E+04  1.472407E+05  1.603794E+03  3.896692E+03
        71  21  2.345634E+05  1.278879E+05  2.732380E+04  1.498684E+05  3.316185E+03  5.740168E+03
        71  22  1.752865E+05  8.603562E+04  3.098831E+03  1.232214E+05  3.442029E+02  2.140514E+03
        71  23  1.697116E+05  9.072623E+04  4.635042E+03  1.245438E+05  1.846136E+03  4.078422E+03
        71  24  1.763982E+05  8.801380E+04  8.620133E+03  1.217372E+05  3.469066E+03  5.854845E+03
        71  25  1.410950E+05  6.100966E+04 -8.222080E+03  1.059596E+05  6.759244E+02  2.389228E+03
        71  26  1.235446E+05  5.828677E+04 -1.033873E+04  1.018487E+05  2.088452E+03  4.260133E+03
        71  27  1.182368E+05  4.814158E+04 -1.008386E+04  9.360898E+04  3.621927E+03  5.969508E+03
        72   1  2.431948E+05  1.404246E+05  3.368277E+04  1.613336E+05 -3.399951E+03 -6.807951E+03
        72   2  2.522683E+05  1.433289E+05  4.368203E+04  1.650075E+05 -1.169899E+04 -1.363145E+04
        72   3  2.914799E+05  1.633913E+05  6.984629E+04  1.531828E+05 -2.182529E+04 -1.801942E+04
        72   4  1.760380E+05  8.581947E+04  1.051375E+04  1.249016E+05 -4.284687E+03 -7.471395E+03
        72   5  1.668594E+05  8.759894E+04  1.680428E+04  1.249885E+05 -1.123614E+04 -1.328448E+04
        72   6  1.875286E+05  1.062473E+05  3.809257E+04  1.095761E+05 -2.001464E+04 -1.666186E+04
        72   7  1.088860E+05  3.121778E+04 -1.265593E+04  8.847420E+04 -5.169294E+03 -8.134725E+03
        72   8  8.145796E+04  3.187195E+04 -1.007445E+04  8.497534E+04 -1.077338E+04 -1.293757E+04
        72   9  8.358836E+04  4.910591E+04  6.337512E+03  6.597622E+04 -1.820439E+04 -1.530451E+04
        72  10  2.431948E+05  1.404245E+05  3.368266E+04  1.613336E+05  1.149220E-10  8.129451E-11
        72  11  2.522681E+05  1.433286E+05  4.368143E+04  1.650074E+05  8.168932E-11 -4.438835E-11
        72  12  2.914793E+05  1.633908E+05  6.984479E+04  1.531825E+05 -1.693057E-11 -9.670242E-11
        72  13  1.760380E+05  8.581941E+04  1.051361E+04  1.249015E+05 -2.874209E-10 -1.040915E-11
        72  14  1.668592E+05  8.759872E+04  1.680371E+04  1.249884E+05 -1.333138E-10 -1.539400E-10
        72  15  1.875281E+05  1.062469E+05  3.809130E+04  1.095758E+05 -3.578677E-11 -1.185243E-10
        72  16  1.088859E+05  3.121770E+04 -1.265610E+04  8.847417E+04 -2.465360E-10 -1.177738E-10
        72  17  8.145779E+04  3.187174E+04 -1.007498E+04  8.497523E+04  2.642763E-10 -1.386818E-10
        72  18  8.358795E+04  4.910557E+04  6.336449E+03  6.597599E+04  1.602806E-10  6.230911E-11
        72  19  2.431948E+05  1.404246E+05  3.368277E+04  1.613336E+05  3.399951E+03  6.807951E+03
        72  20  2.522683E+05  1.433289E+05  4.368203E+04  1.650075E+05  1.169899E+04  1.363145E+04
        72  21  2.914799E+05  1.633913E+05  6.984629E+04  1.531828E+05  2.182529E+04  1.801942E+04
        72  22  1.760380E+05  8.581947E+04  1.051375E+04  1.249016E+05  4.284687E+03  7.471395E+03
        72  23  1.668594E+05  8.759894E+04  1.680428E+04  1.249885E+05  1.123614E+04  1.328448E+04
        72  24  1.875286E+05  1.062473E+05  3.809257E+04  1.095761E+05  2.001464E+04  1.666186E+04
        72  25  1.088860E+05  3.121778E+04 -1.265593E+04  8.847420E+04  5.169294E+03  8.134725E+03
        72  26  8.145796E+04  3.187195E+04 -1.007445E+04  8.497534E+04  1.077338E+04  1.293757E+04
        72  27  8.358836E+04  4.910591E+04  6.337512E+03  6.597622E+04  1.820439E+04  1.530451E+04
        73   1  2.891461E+05  2.132728E+04  2.719164E+04  5.999781E+03  1.838100E+04  1.775567E-01
        73   2  2.853084E+05 -3.505893E+03  1.199959E+04  1.687408E+03  1.189178E+04  3.230734E-02
        73   3  2.891492E+05 -1.000261E+03  7.865787E+03 -2.625002E+03  5.402459E+03 -2.283245E-02
        73   4  2.891461E+05  2.132721E+04  2.719163E+04 -1.268230E-09  1.838100E+04 -7.268361E-11
        73   5  2.853084E+05 -3.505899E+03  1.199959E+04  5.887133E-10  1.189178E+04 -3.830583E-11
        73   6  2.891492E+05 -1.000274E+03  7.865785E+03 -1.321680E-09  5.402459E+03 -9.333110E-11
        73   7  2.891461E+05  2.132728E+04  2.719164E+04 -5.999781E+03  1.838100E+04 -1.775567E-01
        73   8  2.853084E+05 -3.505893E+03  1.199959E+04 -1.687408E+03  1.189178E+04 -3.230734E-02
        73   9  2.891492E+05 -1.000261E+03  7.865787E+03  2.625002E+03  5.402459E+03  2.283245E-02
        73  10  2.891458E+05  2.132719E+04  2.719101E+04  5.999781E+03 -3.516507E-11 -1.718469E-11
        73  11  2.853082E+05 -3.505931E+03  1.199933E+04  1.687408E+03  2.444965E-10 -5.240758E-11
        73  12  2.891492E+05 -1.000269E+03  7.865732E+03 -2.625002E+03 -7.046411E-11 -3.154250E-11
        73  13  2.891457E+05  2.132712E+04  2.719100E+04 -7.337526E-10  8.565909E-11 -2.159062E-11
        73  14  2.853082E+05 -3.505937E+03  1.199932E+04 -1.025606E-09 -3.214758E-11 -4.085300E-11
        73  15  2.891492E+05 -1.000281E+03  7.865730E+03 -1.048723E-09 -2.562533E-10  1.798497E-11
        73  16  2.891458E+05  2.132719E+04  2.719101E+04 -5.999781E+03  1.421584E-10 -4.643569E-11
        73  17  2.853082E+05 -3.505931E+03  1.199933E+04 -1.687408E+03  1.067940E-11 -7.149855E-11
        73  18  2.891492E+05 -1.000269E+03  7.865732E+03  2.625002E+03  2.885648E-10  7.035625E-11
        73  19  2.891461E+05  2.132728E+04  2.719164E+04  5.999781E+03 -1.838100E+04 -1.775567E-01
        73  20  2.853084E+05 -3.505893E+03  1.199959E+04  1.687408E+03 -1.189178E+04 -3.230734E-02
        73  21  2.891492E+05 -1.000261E+03  7.865787E+03 -2.625002E+03 -5.402459E+03  2.283245E-02
        73  22  2.891461E+05  2.132721E+04  2.719163E+04 -2.354146E-09 -1.838100E+04  2.430943E-11
        73  23  2.853084E+05 -3.505899E+03  1.199959E+04 -1.563230E-09 -1.189178E+04 -5.701904E-11
        73  24  2.891492E+05 -1.000274E+03  7.865785E+03 -5.711830E-10 -5.402459E+03  1.413726E-10
        73  25  2.891461E+05  2.132728E+04  2.719164E+04 -5.999781E+03 -1.838100E+04  1.775567E-01
        73  26  2.853084E+05 -3.505893E+03  1.199959E+04 -1.687408E+03 -1.189178E+04  3.230734E-02
        73  27  2.891492E+05 -1.000261E+03  7.865787E+03  2.625002E+03 -5.402459E+03 -2.283245E-02
        74   1  2.877013E+05  2.437575E+03  6.646041E+03  6.801512E+02  4.142180E+03  4.535935E-03
        74   2  2.871183E+05 -4.697895E+02  4.000277E+03  1.466588E+02  2.092303E+03  4.940438E-04
        74   3  2.877017E+05  2.213905E+02  3.588265E+03 -3.868335E+02  4.242792E+01 -2.642479E-05
        74   4  2.877013E+05  2.437574E+03  6.646040E+03 -1.630344E-09  4.142180E+03 -4.324052E-11
        74   5  2.871183E+05 -4.697895E+02  4.000277E+03  3.128621E-10  2.092303E+03  8.720149E-11
        74   6  2.877017E+05  2.213903E+02  3.588265E+03 -1.109468E-09  4.242792E+01 -7.630497E-11
        74   7  2.877013E+05  2.437575E+03  6.646041E+03 -6.801512E+02  4.142180E+03 -4.535935E-03
        74   8  2.871183E+05 -4.697895E+02  4.000277E+03 -1.466588E+02  2.092303E+03 -4.940437E-04
        74   9  2.877017E+05  2.213905E+02  3.588265E+03  3.868335E+02  4.242792E+01  2.642455E-05
        74  10  2.877013E+05  2.437570E+03  6.646008E+03  6.801512E+02 -1.858940E-11  1.061610E-11
        74  11  2.871183E+05 -4.697906E+02  4.000269E+03  1.466588E+02  1.780325E-11 -3.565386E-13
        74  12  2.877017E+05  2.213905E+02  3.588265E+03 -3.868335E+02  5.466766E-11 -6.354798E-11
        74  13  2.877013E+05  2.437570E+03  6.646008E+03  2.498439E-10  1.077111E-10  3.146099E-11
        74  14  2.871183E+05 -4.697907E+02  4.000269E+03  4.214131E-11  2.225735E-10 -2.557409E-11
        74  15  2.877017E+05  2.213903E+02  3.588265E+03  1.048803E-09 -4.039204E-11 -3.909861E-11
        74  16  2.877013E+05  2.437570E+03  6.646008E+03 -6.801512E+02  1.488110E-10  4.381840E-11
        74  17  2.871183E+05 -4.697906E+02  4.000269E+03 -1.466588E+02  1.037919E-10 -4.238807E-11
        74  18  2.877017E+05  2.213905E+02  3.588265E+03  3.868335E+02 -1.268275E-10  8.234661E-12
        74  19  2.877013E+05  2.437575E+03  6.646041E+03  6.801512E+02 -4.142180E+03 -4.535935E-03
        74  20  2.871183E+05 -4.697895E+02  4.000277E+03  1.466588E+02 -2.092303E+03 -4.940439E-04
        74  21  2.877017E+05  2.213905E+02  3.588265E+03 -3.868335E+02 -4.242792E+01  2.642454E-05
        74  22  2.877013E+05  2.437574E+03  6.646040E+03 -5.657383E-10 -4.142180E+03  9.237079E-11
        74  23  2.871183E+05 -4.697895E+02  4.000277E+03  3.093117E-10 -2.092303E+03 -1.154998E-10
        74  24  2.877017E+05  2.213903E+02  3.588265E+03 -1.205186E-09 -4.242792E+01  8.493905E-12
        74  25  2.877013E+05  2.437575E+03  6.646041E+03 -6.801512E+02 -4.142180E+03  4.535935E-03
        74  26  2.871183E+05 -4.697895E+02  4.000277E+03 -1.466588E+02 -2.092303E+03  4.940437E-04
        74  27  2.877017E+05  2.213905E+02  3.588265E+03  3.868335E+02 -4.242792E+01 -2.642446E-05
        75   1  2.877429E+05  1.353687E+02  3.674202E+03  4.434064E+02 -6.021387E+02 -4.298638E-04
        75   2  2.870668E+05 -5.483764E+02  4.499849E+03 -1.824778E+02 -2.911250E+03  8.553076E-04
        75   3  2.877424E+05  2.972973E+03  7.879605E+03 -8.083527E+02 -5.220329E+03  6.794088E-03
        75   4  2.877429E+05  1.353683E+02  3.674202E+03 -7.651245E-10 -6.021387E+02 -7.932130E-11
        75   5  2.870668E+05 -5.483765E+02  4.499849E+03 -4.133322E-10 -2.911250E+03  7.215072E-11
        75   6  2.877424E+05  2.972972E+03  7.879605E+03 -2.214422E-09 -5.220329E+03 -1.395005E-11
        75   7  2.877429E+05  1.353687E+02  3.674202E+03 -4.434064E+02 -6.021387E+02  4.298636E-04
        75   8  2.870668E+05 -5.483764E+02  4.499849E+03  1.824778E+02 -2.911250E+03 -8.553074E-04
        75   9  2.877424E+05  2.972973E+03  7.879605E+03  8.083527E+02 -5.220329E+03 -6.794089E-03
        75  10  2.877429E+05  1.353686E+02  3.674201E+03  4.434064E+02 -5.143068E-11 -5.805199E-11
        75  11  2.870668E+05 -5.483787E+02  4.499833E+03 -1.824778E+02 -1.733820E-10  3.467345E-11
        75  12  2.877424E+05  2.972966E+03  7.879554E+03 -8.083527E+02  1.113172E-11  2.939220E-11
        75  13  2.877429E+05  1.353682E+02  3.674201E+03  8.547295E-10 -1.076627E-10 -8.784889E-12
        75  14  2.870668E+05 -5.483788E+02  4.499833E+03 -1.759176E-09  2.692757E-10  3.623800E-11
        75  15  2.877424E+05  2.972965E+03  7.879553E+03 -6.364444E-11 -3.289231E-10  3.454226E-11
        75  16  2.877429E+05  1.353686E+02  3.674201E+03 -4.434064E+02  2.457442E-11  4.858886E-11
        75  17  2.870668E+05 -5.483787E+02  4.499833E+03  1.824778E+02 -9.552470E-11 -1.010578E-12
        75  18  2.877424E+05  2.972966E+03  7.879554E+03  8.083527E+02  1.681184E-10  1.589616E-11
        75  19  2.877429E+05  1.353687E+02  3.674202E+03  4.434064E+02  6.021387E+02  4.298636E-04
        75  20  2.870668E+05 -5.483764E+02  4.499849E+03 -1.824778E+02  2.911250E+03 -8.553076E-04
        75  21  2.877424E+05  2.972973E+03  7.879605E+03 -8.083527E+02  5.220329E+03 -6.794089E-03
        75  22  2.877429E+05  1.353683E+02  3.674202E+03 -7.546048E-10  6.021387E+02  6.297444E-11
        75  23  2.870668E+05 -5.483765E+02  4.499849E+03 -4.114911E-10  2.911250E+03 -1.477173E-11
        75  24  2.877424E+05  2.972972E+03  7.879605E+03 -4.707119E-10  5.220329E+03  6.710409E-11
        75  25  2.877429E+05  1.353687E+02  3.674202E+03 -4.434064E+02  6.021387E+02 -4.298635E-04
        75  26  2.870668E+05 -5.483764E+02  4.499849E+03  1.824778E+02  2.911250E+03  8.553076E-04
        75  27  2.877424E+05  2.972973E+03  7.879605E+03  8.083527E+02  5.220329E+03  6.794089E-03
        76   1  2.895176E+05 -1.232196E+03  9.417719E+03  3.193824E+03 -6.721578E+03 -3.456316E-02
        76   2  2.848477E+05 -4.264239E+03  1.453378E+04 -2.052594E+03 -1.458409E+04  4.819665E-02
        76   3  2.895139E+05  2.595841E+04  3.308074E+04 -7.299130E+03 -2.244671E+04  2.637888E-01
        76   4  2.895176E+05 -1.232216E+03  9.417716E+03 -1.196067E-09 -6.721578E+03 -7.362320E-11
        76   5  2.848477E+05 -4.264247E+03  1.453378E+04  5.887135E-10 -1.458409E+04 -8.723757E-11
        76   6  2.895138E+05  2.595831E+04  3.308073E+04 -1.699274E-09 -2.244671E+04  5.287845E-11
        76   7  2.895176E+05 -1.232196E+03  9.417719E+03 -3.193824E+03 -6.721578E+03  3.456316E-02
        76   8  2.848477E+05 -4.264239E+03  1.453378E+04  2.052594E+03 -1.458409E+04 -4.819665E-02
        76   9  2.895139E+05  2.595841E+04  3.308074E+04  7.299130E+03 -2.244671E+04 -2.637888E-01
        76  10  2.895175E+05 -1.232209E+03  9.417634E+03  3.193824E+03  3.566709E-11 -2.836411E-11
        76  11  2.848475E+05 -4.264296E+03  1.453338E+04 -2.052594E+03  1.620266E-10 -3.979906E-11
        76  12  2.895133E+05  2.595828E+04  3.307980E+04 -7.299130E+03 -1.221343E-10 -1.525225E-12
        76  13  2.895175E+05 -1.232228E+03  9.417631E+03  1.467503E-10 -1.472623E-10 -3.028307E-12
        76  14  2.848475E+05 -4.264304E+03  1.453338E+04 -4.891641E-10  8.774864E-11 -5.103725E-11
        76  15  2.895133E+05  2.595818E+04  3.307978E+04 -2.605058E-09  9.393468E-11 -1.855176E-11
        76  16  2.895175E+05 -1.232209E+03  9.417634E+03 -3.193824E+03  1.500691E-10  8.075879E-12
        76  17  2.848475E+05 -4.264296E+03  1.453338E+04  2.052594E+03 -2.305635E-10 -5.195406E-11
        76  18  2.895133E+05  2.595828E+04  3.307980E+04  7.299130E+03 -4.549514E-11 -1.498378E-11
        76  19  2.895176E+05 -1.232196E+03  9.417719E+03  3.193824E+03  6.721578E+03  3.456316E-02
        76  20  2.848477E+05 -4.264239E+03  1.453378E+04 -2.052594E+03  1.458409E+04 -4.819665E-02
        76  21  2.895139E+05  2.595841E+04  3.308074E+04 -7.299130E+03  2.244671E+04 -2.637888E-01
        76  22  2.895176E+05 -1.232216E+03  9.417716E+03 -6.650152E-10  6.721578E+03  5.643215E-11
        76  23  2.848477E+05 -4.264247E+03  1.453378E+04 -1.566252E-09  1.458409E+04  2.915418E-12
        76  24  2.895138E+05  2.595831E+04  3.308073E+04 -3.141247E-09  2.244671E+04 -9.002152E-11
        76  25  2.895176E+05 -1.232196E+03  9.417719E+03 -3.193824E+03  6.721578E+03 -3.456316E-02
        76  26  2.848477E+05 -4.264239E+03  1.453378E+04  2.052594E+03  1.458409E+04  4.819665E-02
        76  27  2.895139E+05  2.595841E+04  3.308074E+04  7.299130E+03  2.244671E+04  2.637888E-01
        77   1 -8.966932E+04 -2.951710E+05 -9.863033E+04  6.732307E+04 -1.262905E+03 -5.034972E+04
        77   2 -2.430071E+04 -2.416540E+05 -5.007669E+04  4.055653E+04 -3.271851E+03 -2.891049E+04
        77   3 -6.398016E+03 -2.027952E+05 -2.735215E+04  2.835203E+04 -1.706328E+03 -7.469389E+03
        77   4 -5.849184E+04 -1.696949E+05 -6.822535E+04  3.533677E+04 -1.259992E+03 -4.584117E+04
        77   5 -5.073618E+03 -1.627309E+05 -3.287001E+04  2.805297E+04 -3.271216E+03 -2.864583E+04
        77   6  1.618226E+03 -1.696881E+05 -2.039261E+04  3.533318E+04 -1.706832E+03 -1.145034E+04
        77   7 -2.731165E+04 -4.420221E+04 -3.782088E+04  3.343988E+03 -1.257544E+03 -4.133171E+04
        77   8  1.415365E+04 -8.380165E+04 -1.566362E+04  1.554780E+04 -3.270592E+03 -2.838113E+04
        77   9  9.634588E+03 -1.365797E+05 -1.343305E+04  4.231471E+04 -1.707426E+03 -1.543150E+04
        77  10 -8.967000E+04 -2.951737E+05 -9.863510E+04  6.732302E+04 -4.229158E-11 -1.400392E-10
        77  11 -2.430095E+04 -2.416549E+05 -5.007828E+04  4.055645E+04 -2.688526E-10  1.692741E-10
        77  12 -6.398034E+03 -2.027953E+05 -2.735226E+04  2.835202E+04  2.219257E-10  3.207144E-10
        77  13 -5.849240E+04 -1.696972E+05 -6.822931E+04  3.533673E+04 -5.178270E-11  1.962137E-13
        77  14 -5.073850E+03 -1.627318E+05 -3.287157E+04  2.805289E+04  4.059870E-11  1.534344E-11
        77  15  1.618187E+03 -1.696882E+05 -2.039286E+04  3.533316E+04 -1.277523E-10  9.410494E-12
        77  16 -2.731211E+04 -4.420404E+04 -3.782410E+04  3.343946E+03  2.272943E-10  1.557204E-10
        77  17  1.415342E+04 -8.380252E+04 -1.566515E+04  1.554772E+04  3.094949E-10 -2.243991E-10
        77  18  9.634521E+03 -1.365800E+05 -1.343350E+04  4.231469E+04  5.788246E-11 -3.520433E-10
        77  19 -8.966932E+04 -2.951710E+05 -9.863033E+04  6.732307E+04  1.262905E+03  5.034972E+04
        77  20 -2.430071E+04 -2.416540E+05 -5.007669E+04  4.055653E+04  3.271851E+03  2.891049E+04
        77  21 -6.398016E+03 -2.027952E+05 -2.735215E+04  2.835203E+04  1.706328E+03  7.469389E+03
        77  22 -5.849184E+04 -1.696949E+05 -6.822535E+04  3.533677E+04  1.259992E+03  4.584117E+04
        77  23 -5.073618E+03 -1.627309E+05 -3.287001E+04  2.805297E+04  3.271216E+03  2.864583E+04
        77  24  1.618226E+03 -1.696881E+05 -2.039261E+04  3.533318E+04  1.706832E+03  1.145034E+04
        77  25 -2.731165E+04 -4.420221E+04 -3.782088E+04  3.343988E+03  1.257544E+03  4.133171E+04
        77  26  1.415365E+04 -8.380165E+04 -1.566362E+04  1.554780E+04  3.270592E+03  2.838113E+04
        77  27  9.634588E+03 -1.365797E+05 -1.343305E+04  4.231471E+04  1.707426E+03  1.543150E+04
        78   1 -2.185058E+03 -1.666873E+05 -1.735420E+04  3.650163E+04  2.097201E+02 -5.319062E+03
        78   2  1.105812E+04 -1.196498E+05 -4.021286E+03  2.803535E+04  2.840236E+03  1.239378E+03
        78   3  2.069492E+04 -7.436670E+04  4.139088E+03  3.430594E+04  5.341860E+03  7.798425E+03
        78   4 -2.228785E+03 -1.669912E+05 -1.726746E+04  3.537223E+04  2.093786E+02 -8.519558E+03
        78   5 -1.169602E+02 -1.661003E+05 -1.343885E+04  2.800369E+04  2.839973E+03 -1.808295E+03
        78   6 -1.638029E+03 -1.669924E+05 -1.488891E+04  3.537219E+04  5.341688E+03  4.903108E+03
        78   7 -2.272502E+03 -1.672950E+05 -1.718068E+04  3.424283E+04  2.090487E+02 -1.172005E+04
        78   8 -1.129216E+04 -2.125487E+05 -2.285650E+04  2.797204E+04  2.839710E+03 -4.855744E+03
        78   9 -2.397151E+04 -2.596099E+05 -3.391733E+04  3.643827E+04  5.341505E+03  2.008215E+03
        78  10 -2.185065E+03 -1.666873E+05 -1.735426E+04  3.650163E+04  5.738193E-11 -1.209488E-10
        78  11  1.105811E+04 -1.196498E+05 -4.021304E+03  2.803534E+04  3.805789E-11  4.652721E-11
        78  12  2.069487E+04 -7.436677E+04  4.138920E+03  3.430591E+04  7.112332E-11  4.210459E-11
        78  13 -2.228805E+03 -1.669912E+05 -1.726760E+04  3.537223E+04  2.238554E-10  1.315693E-11
        78  14 -1.169698E+02 -1.661003E+05 -1.343887E+04  2.800370E+04  3.356885E-11  3.851516E-11
        78  15 -1.638066E+03 -1.669924E+05 -1.488901E+04  3.537217E+04 -1.094757E-10  5.404890E-12
        78  16 -2.272539E+03 -1.672952E+05 -1.718094E+04  3.424283E+04  8.285481E-11  2.055079E-10
        78  17 -1.129218E+04 -2.125488E+05 -2.285656E+04  2.797206E+04  2.030071E-10 -1.012490E-10
        78  18 -2.397154E+04 -2.596099E+05 -3.391740E+04  3.643826E+04  1.368719E-10 -8.144977E-11
        78  19 -2.185058E+03 -1.666873E+05 -1.735420E+04  3.650163E+04 -2.097201E+02  5.319062E+03
        78  20  1.105812E+04 -1.196498E+05 -4.021286E+03  2.803535E+04 -2.840236E+03 -1.239378E+03
        78  21  2.069492E+04 -7.436670E+04  4.139088E+03  3.430594E+04 -5.341860E+03 -7.798425E+03
        78  22 -2.228785E+03 -1.669912E+05 -1.726746E+04  3.537223E+04 -2.093786E+02  8.519558E+03
        78  23 -1.169602E+02 -1.661003E+05 -1.343885E+04  2.800369E+04 -2.839973E+03  1.808295E+03
        78  24 -1.638029E+03 -1.669924E+05 -1.488891E+04  3.537219E+04 -5.341688E+03 -4.903108E+03
        78  25 -2.272502E+03 -1.672950E+05 -1.718068E+04  3.424283E+04 -2.090487E+02  1.172005E+04
        78  26 -1.129216E+04 -2.125487E+05 -2.285650E+04  2.797204E+04 -2.839710E+03  4.855744E+03
        78  27 -2.397151E+04 -2.596099E+05 -3.391733E+04  3.643827E+04 -5.341505E+03 -2.008215E+03
        79   1  3.159836E+04 -4.283907E+04  9.077983E+03  4.053382E+04  7.341984E+03  1.166703E+04
        79   2  3.785565E+04  8.036759E+03  1.124956E+04  1.856032E+04  7.966149E+03  1.795208E+04
        79   3  9.912656E+03  4.955477E+04  7.811895E+02  1.101267E+04  2.657214E+03  2.423729E+04
        79   4  1.202061E+03 -1.689498E+05 -1.677503E+04  3.530335E+04  7.341706E+03  7.399405E+03
        79   5 -3.839630E+03 -1.636606E+05 -2.551653E+04  2.809004E+04  7.966644E+03  2.073089E+04
        79   6 -4.431102E+04 -1.689581E+05 -5.179461E+04  3.530346E+04  2.658039E+03  3.406182E+04
        79   7 -2.919513E+04 -2.950453E+05 -4.262881E+04  3.007396E+04  7.341501E+03  3.132629E+03
        79   8 -4.553650E+04 -3.353301E+05 -6.228424E+04  3.761710E+04  7.967225E+03  2.350893E+04
        79   9 -9.853591E+04 -3.874259E+05 -1.043731E+05  5.958566E+04  2.659633E+03  4.388291E+04
        79  10  3.159827E+04 -4.283923E+04  9.077625E+03  4.053375E+04 -1.083807E-10 -1.043869E-10
        79  11  3.785550E+04  8.036396E+03  1.124883E+04  1.856020E+04 -1.645035E-10 -1.672767E-11
        79  12  9.912490E+03  4.955414E+04  7.800724E+02  1.101262E+04 -8.911006E-11  1.563158E-10
        79  13  1.201989E+03 -1.689498E+05 -1.677524E+04  3.530331E+04  9.455337E-11  1.618688E-11
        79  14 -3.839813E+03 -1.636611E+05 -2.551745E+04  2.808991E+04  1.894400E-10 -7.550039E-12
        79  15 -4.431134E+04 -1.689594E+05 -5.179681E+04  3.530339E+04 -7.979326E-11 -1.544837E-11
        79  16 -2.919519E+04 -2.950453E+05 -4.262893E+04  3.007395E+04  1.166447E-10  1.259940E-10
        79  17 -4.553671E+04 -3.353307E+05 -6.228540E+04  3.761695E+04  9.794838E-11  5.157644E-11
        79  18 -9.853644E+04 -3.874280E+05 -1.043768E+05  5.958557E+04 -8.834970E-11 -1.102996E-10
        79  19  3.159836E+04 -4.283907E+04  9.077983E+03  4.053382E+04 -7.341984E+03 -1.166703E+04
        79  20  3.785565E+04  8.036759E+03  1.124956E+04  1.856032E+04 -7.966149E+03 -1.795208E+04
        79  21  9.912656E+03  4.955477E+04  7.811895E+02  1.101267E+04 -2.657214E+03 -2.423729E+04
        79  22  1.202061E+03 -1.689498E+05 -1.677503E+04  3.530335E+04 -7.341706E+03 -7.399405E+03
        79  23 -3.839630E+03 -1.636606E+05 -2.551653E+04  2.809004E+04 -7.966644E+03 -2.073089E+04
        79  24 -4.431102E+04 -1.689581E+05 -5.179461E+04  3.530346E+04 -2.658039E+03 -3.406182E+04
        79  25 -2.919513E+04 -2.950453E+05 -4.262881E+04  3.007396E+04 -7.341501E+03 -3.132629E+03
        79  26 -4.553650E+04 -3.353301E+05 -6.228424E+04  3.761710E+04 -7.967225E+03 -2.350893E+04
        79  27 -9.853591E+04 -3.874259E+05 -1.043731E+05  5.958566E+04 -2.659633E+03 -4.388291E+04
        80   1  1.513668E+05  9.898279E+04  1.582139E+04  1.103957E+05  1.179208E+04  9.334606E+03
        80   2  1.522392E+05  8.394895E+04  5.111529E+03  1.191565E+05  7.438760E+03  7.045633E+03
        80   3  1.649898E+05  7.997723E+04  2.024019E+03  1.211561E+05  3.612349E+03  4.054138E+03
        80   4  1.843179E+05  1.061714E+05  2.360442E+04  1.192265E+05  1.276080E+04  1.006083E+04
        80   5  1.745733E+05  9.393250E+04  1.084637E+04  1.275823E+05  7.710248E+03  7.249164E+03
        80   6  1.768578E+05  9.290634E+04  6.315372E+03  1.291771E+05  3.186686E+03  3.734935E+03
        80   7  2.172701E+05  1.133600E+05  3.138734E+04  1.280575E+05  1.372959E+04  1.078706E+04
        80   8  1.969079E+05  1.039161E+05  1.658114E+04  1.360084E+05  7.981749E+03  7.452699E+03
        80   9  1.887260E+05  1.058357E+05  1.060670E+04  1.371983E+05  2.761012E+03  3.415719E+03
        80  10  1.513666E+05  9.898265E+04  1.582097E+04  1.103956E+05  2.380166E-11  3.909056E-11
        80  11  1.522391E+05  8.394888E+04  5.111332E+03  1.191565E+05  2.317533E-11  9.692392E-11
        80  12  1.649898E+05  7.997721E+04  2.023964E+03  1.211561E+05  2.118492E-10  1.222172E-10
        80  13  1.843177E+05  1.061712E+05  2.360392E+04  1.192264E+05  1.811286E-10  6.013540E-11
        80  14  1.745732E+05  9.393243E+04  1.084616E+04  1.275823E+05  5.982212E-12  7.892244E-11
        80  15  1.768578E+05  9.290632E+04  6.315327E+03  1.291771E+05 -3.440543E-11 -1.022217E-10
        80  16  2.172698E+05  1.133598E+05  3.138677E+04  1.280574E+05 -3.137937E-11  2.681633E-11
        80  17  1.969078E+05  1.039160E+05  1.658092E+04  1.360083E+05  7.874747E-11 -5.972873E-11
        80  18  1.887260E+05  1.058357E+05  1.060667E+04  1.371983E+05 -6.958153E-11 -2.231358E-10
        80  19  1.513668E+05  9.898279E+04  1.582139E+04  1.103957E+05 -1.179208E+04 -9.334606E+03
        80  20  1.522392E+05  8.394895E+04  5.111529E+03  1.191565E+05 -7.438760E+03 -7.045633E+03
        80  21  1.649898E+05  7.997723E+04  2.024019E+03  1.211561E+05 -3.612349E+03 -4.054138E+03
        80  22  1.843179E+05  1.061714E+05  2.360442E+04  1.192265E+05 -1.276080E+04 -1.006083E+04
        80  23  1.745733E+05  9.393250E+04  1.084637E+04  1.275823E+05 -7.710248E+03 -7.249164E+03
        80  24  1.768578E+05  9.290634E+04  6.315372E+03  1.291771E+05 -3.186686E+03 -3.734935E+03
        80  25  2.172701E+05  1.133600E+05  3.138734E+04  1.280575E+05 -1.372959E+04 -1.078706E+04
        80  26  1.969079E+05  1.039161E+05  1.658114E+04  1.360084E+05 -7.981749E+03 -7.452699E+03
        80  27  1.887260E+05  1.058357E+05  1.060670E+04  1.371983E+05 -2.761012E+03 -3.415719E+03
        81   1  1.654863E+05  8.619268E+04  1.729060E+03  1.223523E+05  2.874677E+03  3.156041E+03
        81   2  1.685676E+05  8.949738E+04  8.048721E+02  1.251894E+05  1.987494E+03  2.103248E+03
        81   3  1.744762E+05  9.131463E+04  9.868353E+02  1.271241E+05  1.124487E+03  1.018173E+03
        81   4  1.768449E+05  9.369565E+04  5.004582E+03  1.277712E+05  2.644763E+03  2.983612E+03
        81   5  1.752434E+05  9.410800E+04  2.757834E+03  1.284686E+05  1.725542E+03  1.906795E+03
        81   6  1.764762E+05  9.303982E+04  1.644978E+03  1.282634E+05  8.305171E+02  7.977129E+02
        81   7  1.882037E+05  1.011988E+05  8.280130E+03  1.331903E+05  2.414842E+03  2.811178E+03
        81   8  1.819193E+05  9.871865E+04  4.710792E+03  1.317478E+05  1.463587E+03  1.710339E+03
        81   9  1.784761E+05  9.476499E+04  2.303112E+03  1.294026E+05  5.365494E+02  5.772534E+02
        81  10  1.654863E+05  8.619266E+04  1.729026E+03  1.223523E+05  2.611235E-10  3.848770E-11
        81  11  1.685675E+05  8.949737E+04  8.048564E+02  1.251894E+05  5.727763E-10  7.015813E-11
        81  12  1.744762E+05  9.131463E+04  9.868310E+02  1.271241E+05  1.039871E-09 -2.021505E-10
        81  13  1.768449E+05  9.369564E+04  5.004552E+03  1.277712E+05  2.811187E-10 -7.410232E-11
        81  14  1.752434E+05  9.410800E+04  2.757822E+03  1.284686E+05  4.984879E-10 -1.349177E-10
        81  15  1.764762E+05  9.303982E+04  1.644975E+03  1.282634E+05  1.285106E-10 -8.791783E-11
        81  16  1.882037E+05  1.011987E+05  8.280105E+03  1.331903E+05  6.931947E-11 -2.750638E-10
        81  17  1.819193E+05  9.871865E+04  4.710782E+03  1.317477E+05 -1.550486E-10 -3.328909E-10
        81  18  1.784761E+05  9.476499E+04  2.303111E+03  1.294026E+05 -9.445043E-10  1.190847E-12
        81  19  1.654863E+05  8.619268E+04  1.729060E+03  1.223523E+05 -2.874677E+03 -3.156041E+03
        81  20  1.685676E+05  8.949738E+04  8.048721E+02  1.251894E+05 -1.987494E+03 -2.103248E+03
        81  21  1.744762E+05  9.131463E+04  9.868353E+02  1.271241E+05 -1.124487E+03 -1.018173E+03
        81  22  1.768449E+05  9.369565E+04  5.004582E+03  1.277712E+05 -2.644763E+03 -2.983612E+03
        81  23  1.752434E+05  9.410800E+04  2.757834E+03  1.284686E+05 -1.725542E+03 -1.906795E+03
        81  24  1.764762E+05  9.303982E+04  1.644978E+03  1.282634E+05 -8.305171E+02 -7.977129E+02
        81  25  1.882037E+05  1.011988E+05  8.280130E+03  1.331903E+05 -2.414842E+03 -2.811178E+03
        81  26  1.819193E+05  9.871865E+04  4.710792E+03  1.317478E+05 -1.463587E+03 -1.710339E+03
        81  27  1.784761E+05  9.476499E+04  2.303112E+03  1.294026E+05 -5.365494E+02 -5.772534E+02
        82   1  1.777606E+05  9.395776E+04  1.696127E+03  1.288150E+05  1.036154E+03  6.841414E+02
        82   2  1.810278E+05  9.816921E+04  2.552222E+03  1.313607E+05  9.057457E+02  1.370975E+02
        82   3  1.865971E+05  1.002167E+05  3.706177E+03  1.332589E+05  7.748815E+02 -4.093391E+02
        82   4  1.764603E+05  9.307010E+04  1.304707E+03  1.281834E+05  7.506409E+02  4.700231E+02
        82   5  1.753042E+05  9.414280E+04  8.714997E+02  1.285142E+05  6.208366E+02 -7.657062E+01
        82   6  1.764498E+05  9.305139E+04  7.356186E+02  1.281975E+05  4.905784E+02 -6.225563E+02
        82   7  1.751600E+05  9.218244E+04  9.132873E+02  1.275517E+05  4.651285E+02  2.559052E+02
        82   8  1.695805E+05  9.011640E+04 -8.092368E+02  1.256676E+05  3.359295E+02 -2.902372E+02
        82   9  1.663026E+05  8.588606E+04 -2.234989E+03  1.231360E+05  2.062786E+02 -8.357712E+02
        82  10  1.777606E+05  9.395776E+04  1.696124E+03  1.288150E+05  2.660526E-09  1.260382E-09
        82  11  1.810278E+05  9.816921E+04  2.552221E+03  1.313607E+05 -5.772396E-09 -3.529376E-09
        82  12  1.865971E+05  1.002167E+05  3.706176E+03  1.332589E+05 -7.399716E-09 -4.169843E-09
        82  13  1.764603E+05  9.307010E+04  1.304705E+03  1.281834E+05 -2.275936E-09 -1.453782E-09
        82  14  1.753042E+05  9.414280E+04  8.714989E+02  1.285142E+05 -5.589850E-09 -3.422529E-09
        82  15  1.764498E+05  9.305139E+04  7.356174E+02  1.281975E+05 -2.146368E-09 -1.276719E-09
        82  16  1.751600E+05  9.218244E+04  9.132867E+02  1.275517E+05 -6.953196E-09 -4.131969E-09
        82  17  1.695805E+05  9.011640E+04 -8.092372E+02  1.256676E+05 -5.495805E-09 -3.368351E-09
        82  18  1.663026E+05  8.588606E+04 -2.234990E+03  1.231360E+05  2.703123E-09  1.514764E-09
        82  19  1.777606E+05  9.395776E+04  1.696127E+03  1.288150E+05 -1.036154E+03 -6.841414E+02
        82  20  1.810278E+05  9.816921E+04  2.552222E+03  1.313607E+05 -9.057457E+02 -1.370975E+02
        82  21  1.865971E+05  1.002167E+05  3.706177E+03  1.332589E+05 -7.748815E+02  4.093391E+02
        82  22  1.764603E+05  9.307010E+04  1.304707E+03  1.281834E+05 -7.506409E+02 -4.700231E+02
        82  23  1.753042E+05  9.414280E+04  8.714997E+02  1.285142E+05 -6.208366E+02  7.657062E+01
        82  24  1.764498E+05  9.305139E+04  7.356186E+02  1.281975E+05 -4.905784E+02  6.225563E+02
        82  25  1.751600E+05  9.218244E+04  9.132873E+02  1.275517E+05 -4.651285E+02 -2.559052E+02
        82  26  1.695805E+05  9.011640E+04 -8.092368E+02  1.256676E+05 -3.359295E+02  2.902372E+02
        82  27  1.663026E+05  8.588606E+04 -2.234989E+03  1.231360E+05 -2.062786E+02  8.357712E+02
        83   1  1.900060E+05  1.027180E+05  4.770190E+03  1.350190E+05  8.111672E+02 -6.516963E+02
        83   2  1.933501E+05  1.068853E+05  6.278944E+03  1.375006E+05  5.878839E+02 -1.250433E+03
        83   3  1.991205E+05  1.090562E+05  8.209722E+03  1.392611E+05  3.293534E+02 -1.802154E+03
        83   4  1.764498E+05  9.304133E+04  7.495243E+02  1.282148E+05  5.140478E+02 -8.745278E+02
        83   5  1.752958E+05  9.414080E+04  9.593399E+02  1.285031E+05  3.374108E+02 -1.438285E+03
        83   6  1.765581E+05  9.323386E+04  1.550746E+03  1.280703E+05  1.255281E+02 -1.955026E+03
        83   7  1.628940E+05  8.336488E+04 -3.271111E+03  1.214109E+05  2.169403E+02 -1.097350E+03
        83   8  1.572420E+05  8.139659E+04 -4.360265E+03  1.195060E+05  8.694906E+01 -1.626129E+03
        83   9  1.539962E+05  7.741184E+04 -5.108284E+03  1.168801E+05 -7.828705E+01 -2.107891E+03
        83  10  1.900060E+05  1.027180E+05  4.770188E+03  1.350190E+05 -9.207947E-10  1.669601E-10
        83  11  1.933501E+05  1.068853E+05  6.278941E+03  1.375006E+05 -1.551919E-11 -3.777973E-10
        83  12  1.991205E+05  1.090562E+05  8.209716E+03  1.392611E+05 -3.221272E-11 -2.504792E-10
        83  13  1.764498E+05  9.304133E+04  7.495224E+02  1.282148E+05 -1.696610E-11  2.880907E-12
        83  14  1.752958E+05  9.414080E+04  9.593358E+02  1.285031E+05  4.345374E-10 -2.078370E-10
        83  15  1.765581E+05  9.323386E+04  1.550739E+03  1.280703E+05  2.708430E-11 -1.770461E-10
        83  16  1.628940E+05  8.336487E+04 -3.271114E+03  1.214109E+05  9.879220E-10 -1.431260E-10
        83  17  1.572420E+05  8.139659E+04 -4.360270E+03  1.195060E+05  3.204501E-10 -6.843912E-11
        83  18  1.539962E+05  7.741184E+04 -5.108292E+03  1.168801E+05  1.504307E-10 -1.256981E-11
        83  19  1.900060E+05  1.027180E+05  4.770190E+03  1.350190E+05 -8.111672E+02  6.516963E+02
        83  20  1.933501E+05  1.068853E+05  6.278944E+03  1.375006E+05 -5.878839E+02  1.250433E+03
        83  21  1.991205E+05  1.090562E+05  8.209722E+03  1.392611E+05 -3.293534E+02  1.802154E+03
        83  22  1.764498E+05  9.304133E+04  7.495243E+02  1.282148E+05 -5.140478E+02  8.745278E+02
        83  23  1.752958E+05  9.414080E+04  9.593399E+02  1.285031E+05 -3.374108E+02  1.438285E+03
        83  24  1.765581E+05  9.323386E+04  1.550746E+03  1.280703E+05 -1.255281E+02  1.955026E+03
        83  25  1.628940E+05  8.336488E+04 -3.271111E+03  1.214109E+05 -2.169403E+02  1.097350E+03
        83  26  1.572420E+05  8.139659E+04 -4.360265E+03  1.195060E+05 -8.694906E+01  1.626129E+03
        83  27  1.539962E+05  7.741184E+04 -5.108284E+03  1.168801E+05  7.828705E+01  2.107891E+03
        84   1  2.017297E+05  1.121708E+05  9.572093E+03  1.416740E+05  5.801413E+02 -1.996276E+03
        84   2  2.064569E+05  1.145874E+05  1.238416E+04  1.430733E+05 -1.803221E+03 -3.754719E+03
        84   3  2.164685E+05  1.189749E+05  1.849772E+04  1.420437E+05 -4.954143E+03 -4.489889E+03
        84   4  1.765515E+05  9.301098E+04  1.912291E+03  1.284843E+05  9.109816E+01 -2.363062E+03
        84   5  1.751128E+05  9.407972E+04  3.207555E+03  1.282403E+05 -1.277086E+03 -3.360129E+03
        84   6  1.787383E+05  9.689923E+04  6.923515E+03  1.255673E+05 -3.412804E+03 -3.333874E+03
        84   7  1.513739E+05  7.385141E+04 -5.747660E+03  1.152952E+05 -3.979224E+02 -2.729830E+03
        84   8  1.437697E+05  7.357238E+04 -5.969185E+03  1.134080E+05 -7.509857E+02 -2.965562E+03
        84   9  1.410098E+05  7.482404E+04 -4.650817E+03  1.090919E+05 -1.871598E+03 -2.177935E+03
        84  10  2.017297E+05  1.121708E+05  9.572085E+03  1.416740E+05 -1.323271E-11 -1.080119E-10
        84  11  2.064569E+05  1.145874E+05  1.238412E+04  1.430733E+05 -9.137668E-11 -2.526647E-10
        84  12  2.164685E+05  1.189749E+05  1.849764E+04  1.420437E+05 -1.146245E-10  3.415750E-11
        84  13  1.765515E+05  9.301098E+04  1.912280E+03  1.284843E+05  1.348986E-10 -1.553493E-10
        84  14  1.751128E+05  9.407970E+04  3.207531E+03  1.282403E+05 -1.315573E-11 -7.501891E-11
        84  15  1.787383E+05  9.689921E+04  6.923472E+03  1.255673E+05  2.212734E-11 -9.539415E-11
        84  16  1.513739E+05  7.385140E+04 -5.747674E+03  1.152952E+05  2.338056E-11 -8.164236E-11
        84  17  1.437697E+05  7.357237E+04 -5.969203E+03  1.134080E+05  3.698463E-10  5.629592E-11
        84  18  1.410098E+05  7.482403E+04 -4.650833E+03  1.090919E+05  2.167663E-10  1.163459E-10
        84  19  2.017297E+05  1.121708E+05  9.572093E+03  1.416740E+05 -5.801413E+02  1.996276E+03
        84  20  2.064569E+05  1.145874E+05  1.238416E+04  1.430733E+05  1.803221E+03  3.754719E+03
        84  21  2.164685E+05  1.189749E+05  1.849772E+04  1.420437E+05  4.954143E+03  4.489889E+03
        84  22  1.765515E+05  9.301098E+04  1.912291E+03  1.284843E+05 -9.109816E+01  2.363062E+03
        84  23  1.751128E+05  9.407972E+04  3.207555E+03  1.282403E+05  1.277086E+03  3.360129E+03
        84  24  1.787383E+05  9.689923E+04  6.923515E+03  1.255673E+05  3.412804E+03  3.333874E+03
        84  25  1.513739E+05  7.385141E+04 -5.747660E+03  1.152952E+05  3.979224E+02  2.729830E+03
        84  26  1.437697E+05  7.357238E+04 -5.969185E+03  1.134080E+05  7.509857E+02  2.965562E+03
        84  27  1.410098E+05  7.482404E+04 -4.650817E+03  1.090919E+05  1.871598E+03  2.177935E+03
        85   1 -1.482785E+04 -2.402796E+04 -2.963999E+04 -9.723373E+03 -2.010732E+04  3.149230E-01
        85   2 -1.107607E+04  1.785285E+03 -1.339690E+04 -3.098998E+03 -1.294982E+04  6.464235E-02
        85   3 -1.482788E+04  1.311807E+03 -8.385214E+03  3.525425E+03 -5.792335E+03 -3.289272E-02
        85   4 -1.482795E+04 -2.402814E+04 -2.964001E+04  8.641191E-10 -2.010732E+04  2.160898E-11
        85   5 -1.107608E+04  1.785267E+03 -1.339690E+04 -4.827459E-10 -1.294982E+04 -1.407324E-10
        85   6 -1.482789E+04  1.311783E+03 -8.385218E+03 -1.088542E-09 -5.792335E+03  1.656678E-11
        85   7 -1.482785E+04 -2.402796E+04 -2.963999E+04  9.723373E+03 -2.010732E+04 -3.149230E-01
        85   8 -1.107607E+04  1.785285E+03 -1.339690E+04  3.098998E+03 -1.294982E+04 -6.464235E-02
        85   9 -1.482788E+04  1.311807E+03 -8.385214E+03 -3.525425E+03 -5.792335E+03  3.289272E-02
        85  10 -1.482828E+04 -2.402807E+04 -2.964075E+04 -9.723373E+03  1.259518E-10 -2.398419E-11
        85  11 -1.107625E+04  1.785240E+03 -1.339721E+04 -3.098998E+03 -8.466489E-11 -6.897532E-11
        85  12 -1.482792E+04  1.311797E+03 -8.385277E+03  3.525425E+03 -1.546632E-10 -1.834874E-11
        85  13 -1.482839E+04 -2.402825E+04 -2.964077E+04  3.086805E-10 -1.053406E-11 -4.430901E-11
        85  14 -1.107626E+04  1.785222E+03 -1.339722E+04 -7.572593E-11  6.098259E-11 -9.921655E-11
        85  15 -1.482793E+04  1.311774E+03 -8.385281E+03 -1.806348E-09 -3.484135E-11  1.452016E-12
        85  16 -1.482828E+04 -2.402807E+04 -2.964075E+04  9.723373E+03  3.968833E-11 -4.570043E-11
        85  17 -1.107625E+04  1.785240E+03 -1.339721E+04  3.098998E+03  1.835218E-10 -1.188254E-10
        85  18 -1.482792E+04  1.311797E+03 -8.385277E+03 -3.525425E+03  1.771488E-10  2.117776E-11
        85  19 -1.482785E+04 -2.402796E+04 -2.963999E+04 -9.723373E+03  2.010732E+04 -3.149230E-01
        85  20 -1.107607E+04  1.785285E+03 -1.339690E+04 -3.098998E+03  1.294982E+04 -6.464235E-02
        85  21 -1.482788E+04  1.311807E+03 -8.385214E+03  3.525425E+03  5.792335E+03  3.289272E-02
        85  22 -1.482795E+04 -2.402814E+04 -2.964001E+04  5.612225E-10  2.010732E+04 -1.159593E-10
        85  23 -1.107608E+04  1.785267E+03 -1.339690E+04  3.311635E-10  1.294982E+04 -5.515712E-11
        85  24 -1.482789E+04  1.311783E+03 -8.385218E+03 -1.480312E-09  5.792335E+03  3.155864E-13
        85  25 -1.482785E+04 -2.402796E+04 -2.963999E+04  9.723373E+03  2.010732E+04  3.149230E-01
        85  26 -1.107607E+04  1.785285E+03 -1.339690E+04  3.098998E+03  1.294982E+04  6.464235E-02
        85  27 -1.482788E+04  1.311807E+03 -8.385214E+03 -3.525425E+03  5.792335E+03 -3.289272E-02
        86   1 -1.334832E+04 -1.832272E+03 -6.973181E+03 -6.581637E+02 -4.524619E+03  4.796778E-03
        86   2 -1.292560E+04  1.806171E+02 -4.342849E+03 -1.660915E+02 -2.333703E+03  6.243476E-04
        86   3 -1.334831E+04 -4.716930E+01 -3.699038E+03  3.259733E+02 -1.428170E+02 -7.498861E-05
        86   4 -1.334832E+04 -1.832273E+03 -6.973181E+03 -1.367985E-09 -4.524619E+03  4.979305E-11
        86   5 -1.292560E+04  1.806170E+02 -4.342849E+03  9.237241E-11 -2.333703E+03 -4.146443E-11
        86   6 -1.334831E+04 -4.716950E+01 -3.699038E+03 -9.637251E-11 -1.428170E+02  4.569167E-11
        86   7 -1.334832E+04 -1.832272E+03 -6.973181E+03  6.581637E+02 -4.524619E+03 -4.796778E-03
        86   8 -1.292560E+04  1.806171E+02 -4.342849E+03  1.660915E+02 -2.333703E+03 -6.243476E-04
        86   9 -1.334831E+04 -4.716930E+01 -3.699038E+03 -3.259733E+02 -1.428170E+02  7.498870E-05
        86  10 -1.334834E+04 -1.832278E+03 -6.973220E+03 -6.581637E+02  2.251914E-10 -1.620653E-11
        86  11 -1.292561E+04  1.806156E+02 -4.342859E+03 -1.660915E+02  3.545240E-11 -5.331530E-11
        86  12 -1.334831E+04 -4.716930E+01 -3.699038E+03  3.259733E+02 -2.555142E-11  4.052980E-11
        86  13 -1.334835E+04 -1.832279E+03 -6.973220E+03 -1.385092E-09 -2.914436E-29  1.491914E-11
        86  14 -1.292561E+04  1.806155E+02 -4.342859E+03 -4.445025E-10  4.370470E-12 -4.595219E-11
        86  15 -1.334831E+04 -4.716950E+01 -3.699038E+03 -2.444116E-10 -2.078966E-10  4.218105E-11
        86  16 -1.334834E+04 -1.832278E+03 -6.973220E+03  6.581637E+02 -1.547757E-10  4.568017E-11
        86  17 -1.292561E+04  1.806156E+02 -4.342859E+03  1.660915E+02  4.523223E-11 -3.840379E-11
        86  18 -1.334831E+04 -4.716930E+01 -3.699038E+03 -3.259733E+02 -9.731911E-11  4.390702E-11
        86  19 -1.334832E+04 -1.832272E+03 -6.973181E+03 -6.581637E+02  4.524619E+03 -4.796778E-03
        86  20 -1.292560E+04  1.806171E+02 -4.342849E+03 -1.660915E+02  2.333703E+03 -6.243478E-04
        86  21 -1.334831E+04 -4.716930E+01 -3.699038E+03  3.259733E+02  1.428170E+02  7.498869E-05
        86  22 -1.334832E+04 -1.832273E+03 -6.973181E+03 -1.940577E-09  4.524619E+03 -1.979910E-11
        86  23 -1.292560E+04  1.806170E+02 -4.342849E+03 -4.427936E-10  2.333703E+03 -5.081687E-11
        86  24 -1.334831E+04 -4.716950E+01 -3.699038E+03 -1.031606E-09  1.428170E+02  3.838073E-11
        86  25 -1.334832E+04 -1.832272E+03 -6.973181E+03  6.581637E+02  4.524619E+03  4.796778E-03
        86  26 -1.292560E+04  1.806171E+02 -4.342849E+03  1.660915E+02  2.333703E+03  6.243477E-04
        86  27 -1.334831E+04 -4.716930E+01 -3.699038E+03 -3.259733E+02  1.428170E+02 -7.498861E-05
        87   1 -1.336735E+04 -1.535442E+01 -3.759278E+03 -3.655561E+02  5.132624E+02 -3.022228E-04
        87   2 -1.290181E+04  1.996432E+02 -4.682680E+03  1.853578E+02  2.877178E+03  8.590354E-04
        87   3 -1.336736E+04 -2.078560E+03 -7.768379E+03  7.362801E+02  5.241125E+03  6.215860E-03
        87   4 -1.336735E+04 -1.535467E+01 -3.759278E+03 -5.596509E-10  5.132624E+02  7.990190E-11
        87   5 -1.290181E+04  1.996431E+02 -4.682680E+03 -7.961741E-10  2.877178E+03  3.967706E-12
        87   6 -1.336736E+04 -2.078561E+03 -7.768379E+03 -6.288661E-10  5.241125E+03 -1.081677E-10
        87   7 -1.336735E+04 -1.535442E+01 -3.759278E+03  3.655561E+02  5.132624E+02  3.022229E-04
        87   8 -1.290181E+04  1.996432E+02 -4.682680E+03 -1.853578E+02  2.877178E+03 -8.590354E-04
        87   9 -1.336736E+04 -2.078560E+03 -7.768379E+03 -7.362801E+02  5.241125E+03 -6.215860E-03
        87  10 -1.336735E+04 -1.535449E+01 -3.759279E+03 -3.655561E+02  1.215357E-10  5.776769E-11
        87  11 -1.290182E+04  1.996410E+02 -4.682696E+03  1.853578E+02 -4.716699E-11 -1.885432E-11
        87  12 -1.336739E+04 -2.078568E+03 -7.768430E+03  7.362801E+02  4.591910E-11 -2.329184E-11
        87  13 -1.336735E+04 -1.535474E+01 -3.759279E+03 -3.197895E-11 -1.380382E-12  7.028768E-11
        87  14 -1.290182E+04  1.996409E+02 -4.682696E+03 -2.651330E-10  6.724454E-11 -1.066474E-12
        87  15 -1.336739E+04 -2.078569E+03 -7.768430E+03 -2.290445E-10 -5.225758E-11 -4.765034E-11
        87  16 -1.336735E+04 -1.535449E+01 -3.759279E+03  3.655561E+02 -8.932684E-11  8.315491E-11
        87  17 -1.290182E+04  1.996410E+02 -4.682696E+03 -1.853578E+02  2.549801E-10  1.534717E-11
        87  18 -1.336739E+04 -2.078568E+03 -7.768430E+03 -7.362801E+02 -5.270644E-11 -7.279532E-11
        87  19 -1.336735E+04 -1.535442E+01 -3.759278E+03 -3.655561E+02 -5.132624E+02  3.022229E-04
        87  20 -1.290181E+04  1.996432E+02 -4.682680E+03  1.853578E+02 -2.877178E+03 -8.590353E-04
        87  21 -1.336736E+04 -2.078560E+03 -7.768379E+03  7.362801E+02 -5.241125E+03 -6.215860E-03
        87  22 -1.336735E+04 -1.535467E+01 -3.759278E+03 -8.504044E-10 -5.132624E+02  6.045922E-11
        87  23 -1.290181E+04  1.996431E+02 -4.682680E+03  2.659904E-10 -2.877178E+03 -6.349999E-12
        87  24 -1.336736E+04 -2.078561E+03 -7.768379E+03 -9.734546E-10 -5.241125E+03  1.251462E-11
        87  25 -1.336735E+04 -1.535442E+01 -3.759278E+03  3.655561E+02 -5.132624E+02 -3.022227E-04
        87  26 -1.290181E+04  1.996432E+02 -4.682680E+03 -1.853578E+02 -2.877178E+03  8.590354E-04
        87  27 -1.336736E+04 -2.078560E+03 -7.768379E+03 -7.362801E+02 -5.241125E+03  6.215860E-03
        88   1 -1.504900E+04  1.488721E+03 -9.403689E+03 -3.997121E+03  6.656861E+03 -4.285994E-02
        88   2 -1.079965E+04  2.022321E+03 -1.513483E+04  3.509264E+03  1.474466E+04  8.334559E-02
        88   3 -1.504894E+04 -2.722658E+04 -3.357695E+04  1.101559E+04  2.283248E+04  4.051296E-01
        88   4 -1.504902E+04  1.488691E+03 -9.403694E+03 -4.546904E-10  6.656861E+03 -6.071214E-11
        88   5 -1.079966E+04  2.022298E+03 -1.513483E+04 -1.597981E-10  1.474466E+04  1.069657E-10
        88   6 -1.504907E+04 -2.722680E+04 -3.357698E+04 -2.013511E-10  2.283248E+04 -6.267635E-11
        88   7 -1.504900E+04  1.488721E+03 -9.403689E+03  3.997121E+03  6.656861E+03  4.285994E-02
        88   8 -1.079965E+04  2.022321E+03 -1.513483E+04 -3.509264E+03  1.474466E+04 -8.334559E-02
        88   9 -1.504894E+04 -2.722658E+04 -3.357695E+04 -1.101559E+04  2.283248E+04 -4.051296E-01
        88  10 -1.504905E+04  1.488709E+03 -9.403773E+03 -3.997121E+03  5.294302E-11 -3.303930E-11
        88  11 -1.079988E+04  2.022262E+03 -1.513523E+04  3.509264E+03 -6.141835E-11 -5.311820E-11
        88  12 -1.504950E+04 -2.722672E+04 -3.357793E+04  1.101559E+04  5.144617E-11 -1.412776E-11
        88  13 -1.504907E+04  1.488679E+03 -9.403777E+03 -9.906787E-10 -5.476321E-11 -4.898907E-11
        88  14 -1.079990E+04  2.022239E+03 -1.513524E+04 -5.609875E-10  1.946410E-10 -2.487086E-11
        88  15 -1.504963E+04 -2.722694E+04 -3.357796E+04  8.111581E-10 -8.629667E-11 -4.572220E-12
        88  16 -1.504905E+04  1.488709E+03 -9.403773E+03  3.997121E+03 -8.649815E-11 -6.951289E-11
        88  17 -1.079988E+04  2.022262E+03 -1.513523E+04 -3.509264E+03 -8.189402E-12 -7.703703E-12
        88  18 -1.504950E+04 -2.722672E+04 -3.357793E+04 -1.101559E+04  3.737966E-11  3.566535E-12
        88  19 -1.504900E+04  1.488721E+03 -9.403689E+03 -3.997121E+03 -6.656861E+03  4.285994E-02
        88  20 -1.079965E+04  2.022321E+03 -1.513483E+04  3.509264E+03 -1.474466E+04 -8.334559E-02
        88  21 -1.504894E+04 -2.722658E+04 -3.357695E+04  1.101559E+04 -2.283248E+04 -4.051296E-01
        88  22 -1.504902E+04  1.488691E+03 -9.403694E+03 -1.795598E-09 -6.656861E+03 -3.978554E-11
        88  23 -1.079966E+04  2.022298E+03 -1.513483E+04 -2.889310E-10 -1.474466E+04 -1.591560E-10
        88  24 -1.504907E+04 -2.722680E+04 -3.357698E+04  4.104784E-10 -2.283248E+04  1.071832E-13
        88  25 -1.504900E+04  1.488721E+03 -9.403689E+03  3.997121E+03 -6.656861E+03 -4.285994E-02
        88  26 -1.079965E+04  2.022321E+03 -1.513483E+04 -3.509264E+03 -1.474466E+04  8.334559E-02
        88  27 -1.504894E+04 -2.722658E+04 -3.357695E+04 -1.101559E+04 -2.283248E+04  4.051296E-01
        89   1  7.018072E+03  1.814096E+05  9.900811E+03  1.699691E+02 -2.792476E+02  1.088982E+04
        89   2 -4.208946E+03  1.901448E+05  3.605188E+03  2.394760E+03 -7.123081E+02  7.663122E+03
        89   3 -2.360750E+03  2.025691E+05  2.678815E+03  8.889263E+03 -3.296316E+02  4.436310E+03
        89   4  1.398816E+04  2.094308E+05  1.673572E+04  6.884034E+03 -2.791182E+02  1.167134E+04
        89   5  4.819417E+01  2.075215E+05  7.517634E+03  4.749337E+03 -7.122772E+02  7.686675E+03
        89   6 -6.853417E+02  2.094324E+05  4.194809E+03  6.884224E+03 -3.296642E+02  3.701936E+03
        89   7  2.095837E+04  2.374527E+05  2.357060E+04  1.359840E+04 -2.789719E+02  1.245291E+04
        89   8  4.305334E+03  2.248985E+05  1.143006E+04  7.103981E+03 -7.122461E+02  7.710228E+03
        89   9  9.900792E+02  2.162956E+05  5.710805E+03  4.879162E+03 -3.296921E+02  2.967555E+03
        89  10  7.018040E+03  1.814095E+05  9.900588E+03  1.699715E+02 -1.455821E-10 -1.082861E-10
        89  11 -4.208962E+03  1.901448E+05  3.605077E+03  2.394765E+03 -1.674582E-11  3.765934E-11
        89  12 -2.360756E+03  2.025691E+05  2.678778E+03  8.889264E+03  1.345392E-10  1.913043E-10
        89  13  1.398813E+04  2.094306E+05  1.673546E+04  6.884036E+03 -2.327914E-10  8.618582E-12
        89  14  4.817777E+01  2.075214E+05  7.517522E+03  4.749342E+03 -1.616613E-10 -3.043703E-12
        89  15 -6.853455E+02  2.094323E+05  4.194784E+03  6.884225E+03 -1.795225E-10  2.111875E-11
        89  16  2.095833E+04  2.374526E+05  2.357030E+04  1.359840E+04 -1.796911E-10  1.116290E-10
        89  17  4.305318E+03  2.248984E+05  1.142995E+04  7.103985E+03 -1.759942E-10 -2.906323E-11
        89  18  9.900767E+02  2.162956E+05  5.710789E+03  4.879163E+03  3.168737E-11 -1.880121E-10
        89  19  7.018072E+03  1.814096E+05  9.900811E+03  1.699691E+02  2.792476E+02 -1.088982E+04
        89  20 -4.208946E+03  1.901448E+05  3.605188E+03  2.394760E+03  7.123081E+02 -7.663122E+03
        89  21 -2.360750E+03  2.025691E+05  2.678815E+03  8.889263E+03  3.296316E+02 -4.436310E+03
        89  22  1.398816E+04  2.094308E+05  1.673572E+04  6.884034E+03  2.791182E+02 -1.167134E+04
        89  23  4.819417E+01  2.075215E+05  7.517634E+03  4.749337E+03  7.122772E+02 -7.686675E+03
        89  24 -6.853417E+02  2.094324E+05  4.194809E+03  6.884224E+03  3.296642E+02 -3.701936E+03
        89  25  2.095837E+04  2.374527E+05  2.357060E+04  1.359840E+04  2.789719E+02 -1.245291E+04
        89  26  4.305334E+03  2.248985E+05  1.143006E+04  7.103981E+03  7.122461E+02 -7.710228E+03
        89  27  9.900792E+02  2.162956E+05  5.710805E+03  4.879162E+03  3.296921E+02 -2.967555E+03
        90   1  1.176321E+03  2.103310E+05  3.537260E+03  6.683366E+03  9.797961E+01  3.644280E+03
        90   2  2.977002E+03  2.207994E+05  3.915224E+03  4.663755E+03  6.402821E+02  2.998409E+03
        90   3  5.267204E+03  2.314744E+05  4.835947E+03  6.946460E+03  1.154690E+03  2.352536E+03
        90   4  7.625506E+02  2.086281E+05  3.170823E+03  6.891450E+03  9.796754E+01  3.127505E+03
        90   5 -1.288403E+01  2.085272E+05  1.235016E+03  4.740301E+03  6.402736E+02  2.507534E+03
        90   6 -3.032897E+02  2.086282E+05 -1.760305E+02  6.891471E+03  1.154685E+03  1.887573E+03
        90   7  3.487802E+02  2.069252E+05  2.804386E+03  7.099533E+03  9.795513E+01  2.610731E+03
        90   8 -3.002780E+03  1.962551E+05 -1.445200E+03  4.816845E+03  6.402650E+02  2.016669E+03
        90   9 -5.873819E+03  1.857826E+05 -5.188039E+03  6.836483E+03  1.154680E+03  1.422627E+03
        90  10  1.176318E+03  2.103309E+05  3.537235E+03  6.683365E+03  1.172007E-10 -3.487873E-11
        90  11  2.976999E+03  2.207994E+05  3.915206E+03  4.663753E+03  1.208196E-12  1.549905E-11
        90  12  5.267201E+03  2.314744E+05  4.835935E+03  6.946458E+03  5.168085E-11  1.293315E-10
        90  13  7.625480E+02  2.086281E+05  3.170804E+03  6.891449E+03 -4.715811E-11  3.538034E-12
        90  14 -1.288615E+01  2.085272E+05  1.235003E+03  4.740299E+03  1.994496E-10 -1.596661E-11
        90  15 -3.032921E+02  2.086282E+05 -1.760397E+02  6.891469E+03 -1.130919E-10  2.491480E-11
        90  16  3.487783E+02  2.069252E+05  2.804373E+03  7.099533E+03 -1.258588E-10  4.215532E-11
        90  17 -3.002781E+03  1.962551E+05 -1.445209E+03  4.816844E+03 -2.000772E-10 -1.606491E-11
        90  18 -5.873821E+03  1.857826E+05 -5.188046E+03  6.836482E+03 -1.808369E-10 -1.263407E-10
        90  19  1.176321E+03  2.103310E+05  3.537260E+03  6.683366E+03 -9.797961E+01 -3.644280E+03
        90  20  2.977002E+03  2.207994E+05  3.915224E+03  4.663755E+03 -6.402821E+02 -2.998409E+03
        90  21  5.267204E+03  2.314744E+05  4.835947E+03  6.946460E+03 -1.154690E+03 -2.352536E+03
        90  22  7.625506E+02  2.086281E+05  3.170823E+03  6.891450E+03 -9.796754E+01 -3.127505E+03
        90  23 -1.288403E+01  2.085272E+05  1.235016E+03  4.740301E+03 -6.402736E+02 -2.507534E+03
        90  24 -3.032897E+02  2.086282E+05 -1.760305E+02  6.891471E+03 -1.154685E+03 -1.887573E+03
        90  25  3.487802E+02  2.069252E+05  2.804386E+03  7.099533E+03 -9.795513E+01 -2.610731E+03
        90  26 -3.002780E+03  1.962551E+05 -1.445200E+03  4.816845E+03 -6.402650E+02 -2.016669E+03
        90  27 -5.873819E+03  1.857826E+05 -5.188039E+03  6.836483E+03 -1.154680E+03 -1.422627E+03
        91   1  7.926516E+03  2.397236E+05  6.091679E+03  7.593428E+03  1.632871E+03  2.816552E+03
        91   2  1.022878E+04  2.508524E+05  7.050369E+03  3.953078E+03  1.849890E+03  2.711137E+03
        91   3  8.192822E+03  2.609112E+05  6.993242E+03  4.556911E+03  6.264994E+02  2.605698E+03
        91   4  2.684750E+02  2.082938E+05 -7.765342E+02  6.878563E+03  1.632863E+03  1.945768E+03
        91   5 -2.164534E+01  2.089451E+05 -2.305234E+03  4.756441E+03  1.849901E+03  3.178447E+03
        91   6 -4.882351E+03  2.082941E+05 -5.778769E+03  6.878520E+03  6.264856E+02  4.411080E+03
        91   7 -7.389630E+03  1.768649E+05 -7.644804E+03  6.163735E+03  1.632857E+03  1.075027E+03
        91   8 -1.027218E+04  1.670394E+05 -1.166095E+04  5.559750E+03  1.849914E+03  3.645725E+03
        91   9 -1.795770E+04  1.556796E+05 -1.855096E+04  9.199931E+03  6.264854E+02  6.216310E+03
        91  10  7.926511E+03  2.397236E+05  6.091659E+03  7.593424E+03  1.085126E-10  9.286353E-11
        91  11  1.022877E+04  2.508524E+05  7.050349E+03  3.953074E+03 -1.808624E-10  4.412479E-11
        91  12  8.192820E+03  2.609111E+05  6.993229E+03  4.556910E+03 -1.654737E-10 -3.589112E-11
        91  13  2.684711E+02  2.082938E+05 -7.765464E+02  6.878560E+03 -8.734821E-11  1.242470E-11
        91  14 -2.165172E+01  2.089451E+05 -2.305259E+03  4.756437E+03  2.675835E-10  1.262355E-11
        91  15 -4.882356E+03  2.082941E+05 -5.778806E+03  6.878518E+03  1.322385E-10 -4.744592E-11
        91  16 -7.389633E+03  1.768649E+05 -7.644811E+03  6.163733E+03 -4.273940E-11 -1.051174E-10
        91  17 -1.027219E+04  1.670394E+05 -1.166098E+04  5.559744E+03 -8.973602E-11 -4.764831E-11
        91  18 -1.795772E+04  1.556795E+05 -1.855104E+04  9.199928E+03  5.864579E-11  5.948226E-11
        91  19  7.926516E+03  2.397236E+05  6.091679E+03  7.593428E+03 -1.632871E+03 -2.816552E+03
        91  20  1.022878E+04  2.508524E+05  7.050369E+03  3.953078E+03 -1.849890E+03 -2.711137E+03
        91  21  8.192822E+03  2.609112E+05  6.993242E+03  4.556911E+03 -6.264994E+02 -2.605698E+03
        91  22  2.684750E+02  2.082938E+05 -7.765342E+02  6.878563E+03 -1.632863E+03 -1.945768E+03
        91  23 -2.164534E+01  2.089451E+05 -2.305234E+03  4.756441E+03 -1.849901E+03 -3.178447E+03
        91  24 -4.882351E+03  2.082941E+05 -5.778769E+03  6.878520E+03 -6.264856E+02 -4.411080E+03
        91  25 -7.389630E+03  1.768649E+05 -7.644804E+03  6.163735E+03 -1.632857E+03 -1.075027E+03
        91  26 -1.027218E+04  1.670394E+05 -1.166095E+04  5.559750E+03 -1.849914E+03 -3.645725E+03
        91  27 -1.795770E+04  1.556796E+05 -1.855096E+04  9.199931E+03 -6.264854E+02 -6.216310E+03
        92   1  1.079203E+05  9.052145E+04  1.363825E+04  8.533349E+04  1.730604E+03  2.093720E+02
        92   2  9.656026E+04  8.270124E+04  9.521252E+03  7.760039E+04  1.096007E+03 -2.475658E+03
        92   3  8.082132E+04  7.726888E+04  6.329892E+03  7.170675E+04 -6.777717E+02 -3.641708E+03
        92   4  4.934680E+04  5.317858E+04 -4.601389E+03  5.828963E+04 -2.027580E+03 -2.609430E+03
        92   5  5.254321E+04  5.355278E+04 -2.259131E+03  5.640755E+04 -3.532364E+01 -3.324255E+03
        92   6  5.079056E+04  5.574486E+04 -1.271142E+03  5.636493E+04  8.176633E+02 -2.520014E+03
        92   7 -9.223948E+03  1.583655E+04 -2.284165E+04  3.124808E+04 -5.785335E+03 -5.427961E+03
        92   8  8.527634E+03  2.440482E+04 -1.403991E+04  3.521605E+04 -1.166563E+03 -4.172791E+03
        92   9  2.076035E+04  3.422105E+04 -8.872396E+03  4.102374E+04  2.313025E+03 -1.398377E+03
        92  10  1.079203E+05  9.052145E+04  1.363824E+04  8.533349E+04 -1.667995E-10 -5.443446E-11
        92  11  9.656026E+04  8.270123E+04  9.521239E+03  7.760040E+04 -1.057230E-10  1.163056E-11
        92  12  8.082132E+04  7.726887E+04  6.329867E+03  7.170675E+04  2.253335E-10 -4.229836E-12
        92  13  4.934679E+04  5.317857E+04 -4.601409E+03  5.828963E+04 -1.406630E-11 -2.431247E-11
        92  14  5.254321E+04  5.355277E+04 -2.259152E+03  5.640755E+04  2.134317E-11  1.396083E-10
        92  15  5.079055E+04  5.574485E+04 -1.271155E+03  5.636493E+04  1.398047E-10 -8.732222E-12
        92  16 -9.223992E+03  1.583651E+04 -2.284177E+04  3.124806E+04  5.881514E-12  8.267291E-11
        92  17  8.527628E+03  2.440480E+04 -1.403995E+04  3.521605E+04 -1.938934E-10 -5.751930E-11
        92  18  2.076035E+04  3.422104E+04 -8.872410E+03  4.102374E+04 -1.454506E-10 -8.579106E-11
        92  19  1.079203E+05  9.052145E+04  1.363825E+04  8.533349E+04 -1.730604E+03 -2.093720E+02
        92  20  9.656026E+04  8.270124E+04  9.521252E+03  7.760039E+04 -1.096007E+03  2.475658E+03
        92  21  8.082132E+04  7.726888E+04  6.329892E+03  7.170675E+04  6.777717E+02  3.641708E+03
        92  22  4.934680E+04  5.317858E+04 -4.601389E+03  5.828963E+04  2.027580E+03  2.609430E+03
        92  23  5.254321E+04  5.355278E+04 -2.259131E+03  5.640755E+04  3.532364E+01  3.324255E+03
        92  24  5.079056E+04  5.574486E+04 -1.271142E+03  5.636493E+04 -8.176633E+02  2.520014E+03
        92  25 -9.223948E+03  1.583655E+04 -2.284165E+04  3.124808E+04  5.785335E+03  5.427961E+03
        92  26  8.527634E+03  2.440482E+04 -1.403991E+04  3.521605E+04  1.166563E+03  4.172791E+03
        92  27  2.076035E+04  3.422105E+04 -8.872396E+03  4.102374E+04 -2.313025E+03  1.398377E+03
        93   1  7.282577E+04  7.115514E+04  4.491060E+03  6.751396E+04 -7.918055E+02 -2.889715E+03
        93   2  6.195909E+04  6.045505E+04  1.655150E+03  6.046792E+04 -1.419773E+03 -2.039557E+03
        93   3  4.731875E+04  5.342793E+04 -1.205802E+03  5.453881E+04 -2.151530E+03 -1.051016E+03
        93   4  5.084396E+04  5.579688E+04 -9.914475E+02  5.646567E+04  5.506962E+02 -1.882721E+03
        93   5  5.279361E+04  5.405148E+04 -6.158115E+02  5.585876E+04  1.619901E+02 -8.530938E+02
        93   6  5.091724E+04  5.592683E+04 -4.730149E+02  5.636849E+04 -3.305121E+02  3.149182E+02
        93   7  2.886312E+04  4.043919E+04 -6.473838E+03  4.541804E+04  1.893109E+03 -8.757926E+02
        93   8  4.362833E+04  4.764804E+04 -2.886734E+03  5.124973E+04  1.743706E+03  3.333344E+02
        93   9  5.451575E+04  5.842574E+04  2.597906E+02  5.819818E+04  1.490519E+03  1.680862E+03
        93  10  7.282577E+04  7.115513E+04  4.491043E+03  6.751396E+04  9.112461E-11 -4.889316E-11
        93  11  6.195908E+04  6.045504E+04  1.655139E+03  6.046792E+04  1.140429E-10 -1.065475E-11
        93  12  4.731875E+04  5.342792E+04 -1.205813E+03  5.453881E+04 -1.007485E-10 -1.355432E-11
        93  13  5.084395E+04  5.579687E+04 -9.914547E+02  5.646567E+04 -9.713278E-11 -5.524815E-11
        93  14  5.279361E+04  5.405148E+04 -6.158129E+02  5.585876E+04  4.449701E-11 -2.200470E-11
        93  15  5.091724E+04  5.592683E+04 -4.730153E+02  5.636849E+04 -1.218079E-10 -5.923262E-11
        93  16  2.886312E+04  4.043919E+04 -6.473846E+03  4.541804E+04 -1.081070E-12 -1.463906E-10
        93  17  4.362833E+04  4.764804E+04 -2.886740E+03  5.124973E+04 -1.172753E-10 -1.091404E-10
        93  18  5.451575E+04  5.842573E+04  2.597811E+02  5.819818E+04  6.647081E-11 -1.236509E-10
        93  19  7.282577E+04  7.115514E+04  4.491060E+03  6.751396E+04  7.918055E+02  2.889715E+03
        93  20  6.195909E+04  6.045505E+04  1.655150E+03  6.046792E+04  1.419773E+03  2.039557E+03
        93  21  4.731875E+04  5.342793E+04 -1.205802E+03  5.453881E+04  2.151530E+03  1.051016E+03
        93  22  5.084396E+04  5.579688E+04 -9.914475E+02  5.646567E+04 -5.506962E+02  1.882721E+03
        93  23  5.279361E+04  5.405148E+04 -6.158115E+02  5.585876E+04 -1.619901E+02  8.530938E+02
        93  24  5.091724E+04  5.592683E+04 -4.730149E+02  5.636849E+04  3.305121E+02 -3.149182E+02
        93  25  2.886312E+04  4.043919E+04 -6.473838E+03  4.541804E+04 -1.893109E+03  8.757926E+02
        93  26  4.362833E+04  4.764804E+04 -2.886734E+03  5.124973E+04 -1.743706E+03 -3.333344E+02
        93  27  5.451575E+04  5.842574E+04  2.597906E+02  5.819818E+04 -1.490519E+03 -1.680862E+03
        94   1  3.908165E+04  4.758583E+04 -3.176224E+03  5.034643E+04 -2.536522E+03 -3.753351E+02
        94   2  2.825315E+04  3.676545E+04 -6.188026E+03  4.333504E+04 -3.083706E+03  8.408176E+02
        94   3  1.364160E+04  2.964717E+04 -9.398576E+03  3.740879E+04 -3.622863E+03  2.046318E+03
        94   4  5.091862E+04  5.592992E+04 -4.607166E+02  5.637323E+04 -7.273043E+02  9.817460E+02
        94   5  5.280584E+04  5.407272E+04 -5.432156E+02  5.583372E+04 -1.292938E+03  2.184033E+03
        94   6  5.091401E+04  5.592176E+04 -8.083446E+02  5.637932E+04 -1.850536E+03  3.375661E+03
        94   7  6.275598E+04  6.427425E+04  2.254877E+03  6.240028E+04  1.081992E+03  2.338886E+03
        94   8  7.735924E+04  7.138037E+04  5.101579E+03  6.833297E+04  4.979250E+02  3.527320E+03
        94   9  8.818736E+04  8.219671E+04  7.781588E+03  7.535084E+04 -7.809938E+01  4.705087E+03
        94  10  3.908164E+04  4.758583E+04 -3.176236E+03  5.034642E+04  2.825872E-10  7.122657E-11
        94  11  2.825314E+04  3.676544E+04 -6.188046E+03  4.333504E+04 -9.206775E-11 -2.149516E-10
        94  12  1.364159E+04  2.964717E+04 -9.398608E+03  3.740880E+04 -3.132446E-10 -2.408598E-10
        94  13  5.091862E+04  5.592991E+04 -4.607194E+02  5.637323E+04 -3.475146E-11  4.123233E-11
        94  14  5.280583E+04  5.407271E+04 -5.432277E+02  5.583372E+04 -1.635397E-11 -1.063863E-10
        94  15  5.091400E+04  5.592174E+04 -8.083725E+02  5.637933E+04  3.304775E-11  7.353342E-11
        94  16  6.275597E+04  6.427424E+04  2.254864E+03  6.240028E+04 -1.777171E-10 -2.793519E-10
        94  17  7.735923E+04  7.138035E+04  5.101555E+03  6.833297E+04  6.843234E-11 -1.151867E-10
        94  18  8.818735E+04  8.219669E+04  7.781546E+03  7.535084E+04  3.115519E-10  2.050109E-10
        94  19  3.908165E+04  4.758583E+04 -3.176224E+03  5.034643E+04  2.536522E+03  3.753351E+02
        94  20  2.825315E+04  3.676545E+04 -6.188026E+03  4.333504E+04  3.083706E+03 -8.408176E+02
        94  21  1.364160E+04  2.964717E+04 -9.398576E+03  3.740879E+04  3.622863E+03 -2.046318E+03
        94  22  5.091862E+04  5.592992E+04 -4.607166E+02  5.637323E+04  7.273043E+02 -9.817460E+02
        94  23  5.280584E+04  5.407272E+04 -5.432156E+02  5.583372E+04  1.292938E+03 -2.184033E+03
        94  24  5.091401E+04  5.592176E+04 -8.083446E+02  5.637932E+04  1.850536E+03 -3.375661E+03
        94  25  6.275598E+04  6.427425E+04  2.254877E+03  6.240028E+04 -1.081992E+03 -2.338886E+03
        94  26  7.735924E+04  7.138037E+04  5.101579E+03  6.833297E+04 -4.979250E+02 -3.527320E+03
        94  27  8.818736E+04  8.219671E+04  7.781588E+03  7.535084E+04  7.809938E+01 -4.705087E+03
        95   1  5.419401E+03  2.374714E+04 -1.160904E+04  3.317225E+04 -3.977540E+03  2.735040E+03
        95   2 -5.577324E+03  1.307742E+04 -1.542234E+04  2.635247E+04 -3.526483E+03  4.497868E+03
        95   3 -2.069089E+04  5.674970E+03 -2.029218E+04  2.072159E+04 -2.884059E+03  6.005561E+03
        95   4  5.089687E+04  5.591095E+04 -1.025441E+03  5.635293E+04 -2.180587E+03  4.082816E+03
        95   5  5.278765E+04  5.401713E+04 -1.737643E+03  5.591729E+04 -2.170585E+03  5.514764E+03
        95   6  5.065728E+04  5.548622E+04 -3.123422E+03  5.667041E+04 -1.969192E+03  6.691621E+03
        95   7  9.637679E+04  8.807607E+04  9.558067E+03  7.953560E+04 -3.834569E+02  5.430726E+03
        95   8  1.111572E+05  9.495932E+04  1.194705E+04  8.548562E+04 -8.145035E+02  6.531796E+03
        95   9  1.220127E+05  1.053014E+05  1.404546E+04  9.262466E+04 -1.054168E+03  7.377798E+03
        95  10  5.419382E+03  2.374713E+04 -1.160909E+04  3.317226E+04  3.063965E-11  9.708049E-11
        95  11 -5.577343E+03  1.307739E+04 -1.542240E+04  2.635248E+04 -7.121505E-11  1.312138E-10
        95  12 -2.069091E+04  5.674929E+03 -2.029226E+04  2.072160E+04  1.109594E-10  7.196007E-11
        95  13  5.089686E+04  5.591093E+04 -1.025481E+03  5.635294E+04 -1.314860E-10  5.713589E-12
        95  14  5.278764E+04  5.401710E+04 -1.737709E+03  5.591730E+04  2.137301E-10  7.122656E-11
        95  15  5.065726E+04  5.548617E+04 -3.123514E+03  5.667042E+04 -9.555664E-11  9.669278E-11
        95  16  9.637678E+04  8.807604E+04  9.558011E+03  7.953560E+04  1.259709E-10  9.881301E-11
        95  17  1.111572E+05  9.495928E+04  1.194697E+04  8.548563E+04 -2.314300E-10  2.086184E-11
        95  18  1.220127E+05  1.053014E+05  1.404535E+04  9.262467E+04 -1.815409E-10  1.247870E-10
        95  19  5.419401E+03  2.374714E+04 -1.160904E+04  3.317225E+04  3.977540E+03 -2.735040E+03
        95  20 -5.577324E+03  1.307742E+04 -1.542234E+04  2.635247E+04  3.526483E+03 -4.497868E+03
        95  21 -2.069089E+04  5.674970E+03 -2.029218E+04  2.072159E+04  2.884059E+03 -6.005561E+03
        95  22  5.089687E+04  5.591095E+04 -1.025441E+03  5.635293E+04  2.180587E+03 -4.082816E+03
        95  23  5.278765E+04  5.401713E+04 -1.737643E+03  5.591729E+04  2.170585E+03 -5.514764E+03
        95  24  5.065728E+04  5.548622E+04 -3.123422E+03  5.667041E+04  1.969192E+03 -6.691621E+03
        95  25  9.637679E+04  8.807607E+04  9.558067E+03  7.953560E+04  3.834569E+02 -5.430726E+03
        95  26  1.111572E+05  9.495932E+04  1.194705E+04  8.548562E+04  8.145035E+02 -6.531796E+03
        95  27  1.220127E+05  1.053014E+05  1.404546E+04  9.262466E+04  1.054168E+03 -7.377798E+03
        96   1 -2.836770E+04 -1.342965E+03 -2.351349E+04  1.588937E+04 -3.082118E+03  6.577896E+03
        96   2 -4.386402E+04 -8.869938E+03 -3.211574E+04  1.252618E+04  5.304102E+03  1.178162E+04
        96   3 -6.834477E+04 -1.989651E+04 -4.935909E+04  1.279991E+04  1.576791E+04  1.421392E+04
        96   4  5.043809E+04  5.535264E+04 -4.099533E+03  5.634463E+04 -1.887912E+03  7.473427E+03
        96   5  5.201278E+04  5.231955E+04 -7.450163E+03  5.772306E+04  1.707803E+03  9.084296E+03
        96   6  4.564290E+04  4.682721E+04 -1.528316E+04  6.273803E+04  7.381304E+03  7.924166E+03
        96   7  1.292498E+05  1.120513E+05  1.531356E+04  9.680526E+04 -6.935218E+02  8.369102E+03
        96   8  1.478985E+05  1.135123E+05  1.721424E+04  1.029269E+05 -1.889194E+03  6.386519E+03
        96   9  1.596430E+05  1.135543E+05  1.879121E+04  1.126848E+05 -1.007295E+03  1.633288E+03
        96  10 -2.836773E+04 -1.343014E+03 -2.351359E+04  1.588939E+04  4.863325E-11  1.847032E-11
        96  11 -4.386409E+04 -8.870095E+03 -3.211606E+04  1.252613E+04  8.498099E-11 -9.597907E-11
        96  12 -6.834509E+04 -1.989679E+04 -4.935993E+04  1.279973E+04  6.314356E-11 -2.585081E-11
        96  13  5.043808E+04  5.535258E+04 -4.099644E+03  5.634464E+04 -2.335874E-10  6.288793E-11
        96  14  5.201276E+04  5.231946E+04 -7.450324E+03  5.772305E+04 -2.134751E-10  2.692229E-11
        96  15  4.564282E+04  4.682712E+04 -1.528338E+04  6.273798E+04  6.349025E-11 -2.620096E-11
        96  16  1.292498E+05  1.120512E+05  1.531342E+04  9.680526E+04 -1.058085E-10  1.027107E-10
        96  17  1.478985E+05  1.135122E+05  1.721416E+04  1.029269E+05  3.130202E-11  7.333525E-11
        96  18  1.596430E+05  1.135543E+05  1.879120E+04  1.126848E+05 -2.586180E-11  5.909256E-11
        96  19 -2.836770E+04 -1.342965E+03 -2.351349E+04  1.588937E+04  3.082118E+03 -6.577896E+03
        96  20 -4.386402E+04 -8.869938E+03 -3.211574E+04  1.252618E+04 -5.304102E+03 -1.178162E+04
        96  21 -6.834477E+04 -1.989651E+04 -4.935909E+04  1.279991E+04 -1.576791E+04 -1.421392E+04
        96  22  5.043809E+04  5.535264E+04 -4.099533E+03  5.634463E+04  1.887912E+03 -7.473427E+03
        96  23  5.201278E+04  5.231955E+04 -7.450163E+03  5.772306E+04 -1.707803E+03 -9.084296E+03
        96  24  4.564290E+04  4.682721E+04 -1.528316E+04  6.273803E+04 -7.381304E+03 -7.924166E+03
        96  25  1.292498E+05  1.120513E+05  1.531356E+04  9.680526E+04  6.935218E+02 -8.369102E+03
        96  26  1.478985E+05  1.135123E+05  1.721424E+04  1.029269E+05  1.889194E+03 -6.386519E+03
        96  27  1.596430E+05  1.135543E+05  1.879121E+04  1.126848E+05  1.007295E+03 -1.633288E+03
        97   1 -7.997186E+03  1.220979E+05 -6.363937E+03 -9.257560E+03 -9.661978E+02 -1.561604E+03
        97   2 -1.290544E+04  1.186530E+05 -7.326436E+03 -6.502479E+03 -3.463433E+03 -7.044248E+02
        97   3 -1.511332E+04  1.157719E+05 -8.171741E+03 -4.388687E+03 -4.685395E+03  1.527735E+02
        97   4  7.468733E+03  1.851194E+05  7.955382E+03 -4.216540E+03 -9.662348E+02  5.583134E+03
        97   5  2.547285E+03  1.845855E+05  4.015795E+03 -3.895836E+03 -3.463383E+03  3.533881E+03
        97   6  8.305416E+02  1.851199E+05  2.211362E+03 -4.216417E+03 -4.685325E+03  1.484617E+03
        97   7  2.293450E+04  2.481448E+05  2.227465E+04  8.249955E+02 -9.661558E+02  1.272859E+04
        97   8  1.799981E+04  2.505224E+05  1.535795E+04 -1.288907E+03 -3.463297E+03  7.772623E+03
        97   9  1.677417E+04  2.544726E+05  1.259438E+04 -4.044126E+03 -4.685256E+03  2.816602E+03
        97  10 -7.997188E+03  1.220979E+05 -6.363944E+03 -9.257561E+03  1.155363E-10  1.590731E-10
        97  11 -1.290545E+04  1.186530E+05 -7.326459E+03 -6.502481E+03 -1.381557E-10  8.149801E-11
        97  12 -1.511334E+04  1.157719E+05 -8.171783E+03 -4.388687E+03  8.468013E-11 -4.193297E-11
        97  13  7.468724E+03  1.851194E+05  7.955321E+03 -4.216536E+03  8.930570E-11 -3.156100E-12
        97  14  2.547268E+03  1.845855E+05  4.015749E+03 -3.895826E+03 -3.223220E-10  1.553982E-11
        97  15  8.305175E+02  1.851198E+05  2.211317E+03 -4.216411E+03  1.483178E-11  2.897234E-11
        97  16  2.293446E+04  2.481446E+05  2.227434E+04  8.250054E+02 -8.421266E-11 -1.608042E-10
        97  17  1.799978E+04  2.505223E+05  1.535781E+04 -1.288885E+03  1.429227E-11 -5.557369E-11
        97  18  1.677415E+04  2.544726E+05  1.259432E+04 -4.044116E+03  1.477865E-10  2.472074E-11
        97  19 -7.997186E+03  1.220979E+05 -6.363937E+03 -9.257560E+03  9.661978E+02  1.561604E+03
        97  20 -1.290544E+04  1.186530E+05 -7.326436E+03 -6.502479E+03  3.463433E+03  7.044248E+02
        97  21 -1.511332E+04  1.157719E+05 -8.171741E+03 -4.388687E+03  4.685395E+03 -1.527735E+02
        97  22  7.468733E+03  1.851194E+05  7.955382E+03 -4.216540E+03  9.662348E+02 -5.583134E+03
        97  23  2.547285E+03  1.845855E+05  4.015795E+03 -3.895836E+03  3.463383E+03 -3.533881E+03
        97  24  8.305416E+02  1.851199E+05  2.211362E+03 -4.216417E+03  4.685325E+03 -1.484617E+03
        97  25  2.293450E+04  2.481448E+05  2.227465E+04  8.249955E+02  9.661558E+02 -1.272859E+04
        97  26  1.799981E+04  2.505224E+05  1.535795E+04 -1.288907E+03  3.463297E+03 -7.772623E+03
        97  27  1.677417E+04  2.544726E+05  1.259438E+04 -4.044126E+03  4.685256E+03 -2.816602E+03
        98   1 -1.570856E+04  1.136684E+05 -8.739511E+03 -4.544156E+03 -4.978890E+03 -6.771920E+01
        98   2 -1.678454E+04  1.104935E+05 -9.665544E+03 -4.062756E+03 -5.340087E+03  3.111223E+02
        98   3 -1.767437E+04  1.073162E+05 -1.079154E+04 -4.114983E+03 -5.316185E+03  6.899546E+02
        98   4  6.230116E+02  1.849157E+05  1.682978E+03 -4.192487E+03 -4.978809E+03  1.194373E+03
        98   5  2.147283E+02  1.848407E+05  9.959548E+02 -3.925665E+03 -5.340011E+03  6.955476E+02
        98   6  1.449254E+02  1.849156E+05  7.183442E+02 -4.192464E+03 -5.316139E+03  1.967150E+02
        98   7  1.695435E+04  2.561682E+05  1.210539E+04 -3.840777E+03 -4.978727E+03  2.456605E+03
        98   8  1.721374E+04  2.591935E+05  1.165737E+04 -3.788556E+03 -5.339936E+03  1.080017E+03
        98   9  1.796394E+04  2.625211E+05  1.222812E+04 -4.269954E+03 -5.316093E+03 -2.965837E+02
        98  10 -1.570859E+04  1.136684E+05 -8.739557E+03 -4.544156E+03  8.579082E-12 -3.873378E-10
        98  11 -1.678457E+04  1.104935E+05 -9.665598E+03 -4.062755E+03 -1.161214E-11  9.024460E-12
        98  12 -1.767440E+04  1.073162E+05 -1.079159E+04 -4.114980E+03 -7.632586E-11  2.502851E-10
        98  13  6.229846E+02  1.849157E+05  1.682929E+03 -4.192482E+03 -5.459985E-11 -1.048095E-11
        98  14  2.146976E+02  1.848407E+05  9.959003E+02 -3.925662E+03 -1.291006E-10  2.215905E-11
        98  15  1.448950E+02  1.849156E+05  7.182910E+02 -4.192463E+03 -7.032681E-11  7.475628E-11
        98  16  1.695432E+04  2.561682E+05  1.210533E+04 -3.840767E+03  1.432024E-10  3.488801E-10
        98  17  1.721371E+04  2.591935E+05  1.165731E+04 -3.788551E+03 -1.092264E-10  4.580950E-11
        98  18  1.796391E+04  2.625211E+05  1.222807E+04 -4.269955E+03  1.659632E-10 -2.877481E-10
        98  19 -1.570856E+04  1.136684E+05 -8.739511E+03 -4.544156E+03  4.978890E+03  6.771920E+01
        98  20 -1.678454E+04  1.104935E+05 -9.665544E+03 -4.062756E+03  5.340087E+03 -3.111223E+02
        98  21 -1.767437E+04  1.073162E+05 -1.079154E+04 -4.114983E+03  5.316185E+03 -6.899546E+02
        98  22  6.230116E+02  1.849157E+05  1.682978E+03 -4.192487E+03  4.978809E+03 -1.194373E+03
        98  23  2.147283E+02  1.848407E+05  9.959548E+02 -3.925665E+03  5.340011E+03 -6.955476E+02
        98  24  1.449254E+02  1.849156E+05  7.183442E+02 -4.192464E+03  5.316139E+03 -1.967150E+02
        98  25  1.695435E+04  2.561682E+05  1.210539E+04 -3.840777E+03  4.978727E+03 -2.456605E+03
        98  26  1.721374E+04  2.591935E+05  1.165737E+04 -3.788556E+03  5.339936E+03 -1.080017E+03
        98  27  1.796394E+04  2.625211E+05  1.222812E+04 -4.269954E+03  5.316093E+03  2.965837E+02
        99   1 -1.819899E+04  1.052431E+05 -1.147164E+04 -4.134570E+03 -5.237377E+03  6.691202E+02
        99   2 -1.901278E+04  1.023107E+05 -1.377799E+04 -3.553656E+03 -4.094938E+03  4.315053E+03
        99   3 -2.000896E+04  9.885845E+04 -1.850313E+04 -3.366341E+03 -1.180347E+03  7.960741E+03
        99   4  1.636409E+02  1.849225E+05  6.751040E+02 -4.161345E+03 -5.237338E+03  8.526425E+01
        99   5  3.990840E+02  1.848318E+05  7.736255E+02 -3.964564E+03 -4.095156E+03 -3.074250E+02
        99   6  1.153161E+03  1.849223E+05  1.257475E+03 -4.161390E+03 -1.180934E+03 -7.002695E+02
        99   7  1.852596E+04  2.646083E+05  1.282172E+04 -4.188123E+03 -5.237300E+03 -4.986637E+02
        99   8  1.981059E+04  2.673597E+05  1.532507E+04 -4.375528E+03 -4.095367E+03 -4.930500E+03
        99   9  2.231480E+04  2.709932E+05  2.101788E+04 -4.956551E+03 -1.181499E+03 -9.362471E+03
        99  10 -1.819902E+04  1.052431E+05 -1.147169E+04 -4.134568E+03 -7.021289E-11  2.777836E-11
        99  11 -1.901280E+04  1.023106E+05 -1.377806E+04 -3.553642E+03 -7.340850E-11  1.188585E-10
        99  12 -2.000897E+04  9.885839E+04 -1.850325E+04 -3.366333E+03  1.921952E-12 -1.466419E-10
        99  13  1.636114E+02  1.849225E+05  6.750524E+02 -4.161345E+03 -3.130236E-11 -4.171309E-12
        99  14  3.990660E+02  1.848318E+05  7.735938E+02 -3.964565E+03 -1.370636E-10  6.006542E-11
        99  15  1.153160E+03  1.849223E+05  1.257471E+03 -4.161391E+03  1.904261E-11  9.489675E-11
        99  16  1.852594E+04  2.646083E+05  1.282166E+04 -4.188125E+03  1.315811E-10 -1.129828E-10
        99  17  1.981056E+04  2.673597E+05  1.532499E+04 -4.375544E+03 -4.821157E-14  4.602355E-11
        99  18  2.231478E+04  2.709931E+05  2.101771E+04 -4.956560E+03  2.635379E-12  1.005727E-10
        99  19 -1.819899E+04  1.052431E+05 -1.147164E+04 -4.134570E+03  5.237377E+03 -6.691202E+02
        99  20 -1.901278E+04  1.023107E+05 -1.377799E+04 -3.553656E+03  4.094938E+03 -4.315053E+03
        99  21 -2.000896E+04  9.885845E+04 -1.850313E+04 -3.366341E+03  1.180347E+03 -7.960741E+03
        99  22  1.636409E+02  1.849225E+05  6.751040E+02 -4.161345E+03  5.237338E+03 -8.526425E+01
        99  23  3.990840E+02  1.848318E+05  7.736255E+02 -3.964564E+03  4.095156E+03  3.074250E+02
        99  24  1.153161E+03  1.849223E+05  1.257475E+03 -4.161390E+03  1.180934E+03  7.002695E+02
        99  25  1.852596E+04  2.646083E+05  1.282172E+04 -4.188123E+03  5.237300E+03  4.986637E+02
        99  26  1.981059E+04  2.673597E+05  1.532507E+04 -4.375528E+03  4.095367E+03  4.930500E+03
        99  27  2.231480E+04  2.709932E+05  2.101788E+04 -4.956551E+03  1.181499E+03  9.362471E+03
       100   1  8.215815E+05  1.453818E+05  1.261982E+05  1.117391E+05 -6.496353E+03 -1.138989E+04
       100   2  6.574798E+05  1.636822E+05  1.053684E+05  1.209804E+05 -2.011601E+04 -3.560601E+04
       100   3  4.841342E+05  1.372628E+05  8.223308E+04  1.687709E+05 -3.371426E+04 -3.668761E+04
       100   4 -1.030704E+05 -8.338060E+04 -9.297781E+04  1.632836E+05 -6.393740E+04 -1.136254E+04
       100   5 -9.515982E+04 -1.699520E+04 -4.551968E+04  1.440217E+05 -4.040778E+04 -3.560254E+04
       100   6 -1.029850E+05 -1.809338E+03 -2.616964E+04  1.633175E+05 -1.685889E+04 -3.669395E+04
       100   7 -1.026925E+06 -3.121928E+05 -3.121996E+05  2.147511E+05 -1.212934E+05 -1.134471E+04
       100   8 -8.472572E+05 -1.977052E+05 -1.964346E+05  1.670347E+05 -6.067544E+04 -3.560058E+04
       100   9 -6.897694E+05 -1.409009E+05 -1.345856E+05  1.578694E+05 -1.902939E+01 -3.670059E+04
       100  10  8.215814E+05  1.453817E+05  1.261979E+05  1.117390E+05  8.926133E-10 -9.227683E-11
       100  11  6.574790E+05  1.636807E+05  1.053652E+05  1.209798E+05  5.493224E-10 -2.489831E-10
       100  12  4.841326E+05  1.372610E+05  8.222842E+04  1.687699E+05  8.295451E-10 -4.433994E-10
       100  13 -1.030748E+05 -8.338183E+04 -9.298574E+04  1.632831E+05  5.304134E-10 -8.825370E-11
       100  14 -9.516191E+04 -1.699700E+04 -4.552513E+04  1.440206E+05 -2.638649E-10 -3.746130E-10
       100  15 -1.029857E+05 -1.810860E+03 -2.617270E+04  1.633170E+05  3.771839E-13 -5.493080E-10
       100  16 -1.026941E+06 -3.121969E+05 -3.122275E+05  2.147500E+05 -5.298917E-10 -1.557825E-10
       100  17 -8.472615E+05 -1.977076E+05 -1.964440E+05  1.670329E+05 -2.557132E-10 -5.414135E-10
       100  18 -6.897697E+05 -1.409023E+05 -1.345882E+05  1.578694E+05 -1.003107E-09 -6.776010E-10
       100  19  8.215815E+05  1.453818E+05  1.261982E+05  1.117391E+05  6.496353E+03  1.138989E+04
       100  20  6.574798E+05  1.636822E+05  1.053684E+05  1.209804E+05  2.011601E+04  3.560601E+04
       100  21  4.841342E+05  1.372628E+05  8.223308E+04  1.687709E+05  3.371426E+04  3.668761E+04
       100  22 -1.030704E+05 -8.338060E+04 -9.297781E+04  1.632836E+05  6.393740E+04  1.136254E+04
       100  23 -9.515982E+04 -1.699520E+04 -4.551968E+04  1.440217E+05  4.040778E+04  3.560254E+04
       100  24 -1.029850E+05 -1.809338E+03 -2.616964E+04  1.633175E+05  1.685889E+04  3.669395E+04
       100  25 -1.026925E+06 -3.121928E+05 -3.121996E+05  2.147511E+05  1.212934E+05  1.134471E+04
       100  26 -8.472572E+05 -1.977052E+05 -1.964346E+05  1.670347E+05  6.067544E+04  3.560058E+04
       100  27 -6.897694E+05 -1.409009E+05 -1.345856E+05  1.578694E+05  1.902939E+01  3.670059E+04
       101   1  3.751536E+05  1.087969E+05  6.626634E+04  1.620472E+05 -2.708440E+04 -3.024075E+04
       101   2  2.071068E+05  7.174080E+04  4.090847E+04  1.429716E+05 -2.303769E+04 -2.077598E+04
       101   3  3.805980E+04  3.245530E+04  1.237290E+04  1.639427E+05 -1.899367E+04 -9.512869E+03
       101   4 -9.980574E+04 -3.602128E+03 -2.085054E+04  1.636417E+05 -1.332289E+04 -3.024498E+04
       101   5 -9.902373E+04 -4.438997E+02 -1.390728E+04  1.436178E+05 -6.395019E+03 -2.077883E+04
       101   6 -9.977163E+04 -1.522063E+01 -1.214541E+04  1.636422E+05  5.312122E+02 -9.513849E+03
       101   7 -5.745457E+05 -1.160138E+05 -1.079759E+05  1.652350E+05  4.283826E+02 -3.024915E+04
       101   8 -4.050623E+05 -7.263365E+04 -6.872557E+04  1.442637E+05  1.023969E+04 -2.078164E+04
       101   9 -2.375837E+05 -3.248659E+04 -3.666300E+04  1.633417E+05  2.005189E+04 -9.514847E+03
       101  10  3.751526E+05  1.087957E+05  6.626324E+04  1.620465E+05  5.594741E-10 -4.366892E-10
       101  11  2.071061E+05  7.174019E+04  4.090666E+04  1.429712E+05  3.285116E-10 -1.636044E-10
       101  12  3.805938E+04  3.245511E+04  1.237205E+04  1.639426E+05  1.202504E-09  2.738607E-10
       101  13 -9.980617E+04 -3.603158E+03 -2.085259E+04  1.636414E+05 -2.092869E-13 -5.554269E-10
       101  14 -9.902389E+04 -4.443743E+02 -1.390817E+04  1.436177E+05  8.127442E-10 -2.773470E-10
       101  15 -9.977166E+04 -1.531790E+01 -1.214558E+04  1.636422E+05 -3.343221E-10  3.230145E-10
       101  16 -5.745460E+05 -1.160148E+05 -1.079777E+05  1.652350E+05 -6.362354E-10 -7.158572E-10
       101  17 -4.050625E+05 -7.263414E+04 -6.872658E+04  1.442639E+05 -3.650965E-10 -4.134867E-10
       101  18 -2.375842E+05 -3.248679E+04 -3.666393E+04  1.633419E+05 -6.162168E-10  4.045410E-10
       101  19  3.751536E+05  1.087969E+05  6.626634E+04  1.620472E+05  2.708440E+04  3.024075E+04
       101  20  2.071068E+05  7.174080E+04  4.090847E+04  1.429716E+05  2.303769E+04  2.077598E+04
       101  21  3.805980E+04  3.245530E+04  1.237290E+04  1.639427E+05  1.899367E+04  9.512869E+03
       101  22 -9.980574E+04 -3.602128E+03 -2.085054E+04  1.636417E+05  1.332289E+04  3.024498E+04
       101  23 -9.902373E+04 -4.438997E+02 -1.390728E+04  1.436178E+05  6.395019E+03  2.077883E+04
       101  24 -9.977163E+04 -1.522063E+01 -1.214541E+04  1.636422E+05 -5.312122E+02  9.513849E+03
       101  25 -5.745457E+05 -1.160138E+05 -1.079759E+05  1.652350E+05 -4.283826E+02  3.024915E+04
       101  26 -4.050623E+05 -7.263365E+04 -6.872557E+04  1.442637E+05 -1.023969E+04  2.078164E+04
       101  27 -2.375837E+05 -3.248659E+04 -3.666300E+04  1.633417E+05 -2.005189E+04  9.514847E+03
       102   1 -7.321153E+04  6.216166E+03 -8.447504E+03  1.629850E+05 -1.677216E+04 -2.304048E+03
       102   2 -2.405362E+05 -3.413711E+04 -4.287229E+04  1.442842E+05 -5.991650E+03  9.110731E+03
       102   3 -4.102112E+05 -7.856067E+04 -8.532624E+04  1.656539E+05  4.786362E+03  1.907933E+04
       102   4 -9.986722E+04  3.309653E+01 -1.270446E+04  1.636471E+05  2.707638E+03 -2.304698E+03
       102   5 -9.888718E+04 -6.216287E+02 -1.697233E+04  1.436118E+05  1.116670E+04  9.109268E+03
       102   6 -9.988323E+04 -4.942036E+03 -2.765635E+04  1.636467E+05  1.962609E+04  1.907722E+04
       102   7 -1.265214E+05 -6.149803E+03 -1.696001E+04  1.643092E+05  2.218663E+04 -2.305305E+03
       102   8  4.278194E+04  3.289287E+04  8.927929E+03  1.429392E+05  2.832887E+04  9.107768E+03
       102   9  2.105386E+05  6.867120E+04  3.001030E+04  1.616384E+05  3.447304E+04  1.907502E+04
       102  10 -7.321183E+04  6.216085E+03 -8.448043E+03  1.629850E+05  2.754600E-08  9.158006E-10
       102  11 -2.405362E+05 -3.413721E+04 -4.287252E+04  1.442843E+05  1.418285E-10  1.574448E-09
       102  12 -4.102114E+05 -7.856107E+04 -8.532696E+04  1.656539E+05 -2.735738E-08  9.354327E-10
       102  13 -9.986723E+04  3.308885E+01 -1.270448E+04  1.636471E+05  5.388292E-10  1.028488E-09
       102  14 -9.888733E+04 -6.217512E+02 -1.697272E+04  1.436117E+05 -3.680341E-12  1.610454E-09
       102  15 -9.988374E+04 -4.942530E+03 -2.765775E+04  1.636464E+05  1.401749E-10  9.346621E-10
       102  16 -1.265219E+05 -6.149941E+03 -1.696094E+04  1.643093E+05 -2.709537E-08  1.131226E-09
       102  17  4.278105E+04  3.289257E+04  8.926265E+03  1.429390E+05  1.619631E-10  1.634784E-09
       102  18  2.105372E+05  6.867049E+04  3.000738E+04  1.616378E+05  2.739027E-08  9.011995E-10
       102  19 -7.321153E+04  6.216166E+03 -8.447504E+03  1.629850E+05  1.677216E+04  2.304048E+03
       102  20 -2.405362E+05 -3.413711E+04 -4.287229E+04  1.442842E+05  5.991650E+03 -9.110731E+03
       102  21 -4.102112E+05 -7.856067E+04 -8.532624E+04  1.656539E+05 -4.786362E+03 -1.907933E+04
       102  22 -9.986722E+04  3.309653E+01 -1.270446E+04  1.636471E+05 -2.707638E+03  2.304698E+03
       102  23 -9.888718E+04 -6.216287E+02 -1.697233E+04  1.436118E+05 -1.116670E+04 -9.109268E+03
       102  24 -9.988323E+04 -4.942036E+03 -2.765635E+04  1.636467E+05 -1.962609E+04 -1.907722E+04
       102  25 -1.265214E+05 -6.149803E+03 -1.696001E+04  1.643092E+05 -2.218663E+04  2.305305E+03
       102  26  4.278194E+04  3.289287E+04  8.927929E+03  1.429392E+05 -2.832887E+04 -9.107768E+03
       102  27  2.105386E+05  6.867120E+04  3.001030E+04  1.616384E+05 -3.447304E+04 -1.907502E+04
       103   1 -5.265463E+05 -1.026425E+05 -1.141570E+05  1.555928E+05  6.929917E+03  2.567913E+04
       103   2 -6.814779E+05 -1.649517E+05 -1.817514E+05  1.756475E+05  7.026810E+04  2.688323E+04
       103   3 -8.636924E+05 -3.037966E+05 -3.097237E+05  2.345117E+05  1.335756E+05  8.831381E+03
       103   4 -1.043296E+05 -2.419382E+03 -3.539660E+04  1.633762E+05  2.433412E+04  2.567552E+04
       103   5 -9.340554E+04 -2.346390E+04 -6.276318E+04  1.439492E+05  5.680698E+04  2.688107E+04
       103   6 -1.043988E+05 -1.156442E+05 -1.290371E+05  1.633409E+05  8.926789E+04  8.830943E+03
       103   7  3.180605E+05  9.779387E+04  4.335740E+04  1.711651E+05  4.174987E+04  2.567234E+04
       103   8  4.949990E+05  1.180063E+05  5.620835E+04  1.122203E+05  4.333332E+04  2.688028E+04
       103   9  6.554394E+05  7.248668E+04  5.161911E+04  9.208256E+04  4.490613E+04  8.840685E+03
       103  10 -5.265466E+05 -1.026432E+05 -1.141584E+05  1.555927E+05 -1.151489E-09  1.386663E-10
       103  11 -6.814834E+05 -1.649538E+05 -1.817620E+05  1.756460E+05 -8.926240E-10 -5.820415E-10
       103  12 -8.637116E+05 -3.038015E+05 -3.097574E+05  2.345107E+05 -1.168726E-09 -2.510134E-10
       103  13 -1.043304E+05 -2.420249E+03 -3.539895E+04  1.633757E+05  5.192953E-10  1.292728E-10
       103  14 -9.340919E+04 -2.346554E+04 -6.277061E+04  1.439480E+05 -8.049343E-10 -3.296855E-10
       103  15 -1.044074E+05 -1.156464E+05 -1.290523E+05  1.633403E+05 -3.327486E-10 -1.390973E-10
       103  16  3.180585E+05  9.779270E+04  4.335288E+04  1.711642E+05  1.178615E-09  1.858832E-10
       103  17  4.949968E+05  1.180051E+05  5.620346E+04  1.122194E+05  1.706375E-09 -3.299947E-10
       103  18  6.554372E+05  7.248605E+04  5.161518E+04  9.208224E+04  1.061637E-09 -1.808866E-10
       103  19 -5.265463E+05 -1.026425E+05 -1.141570E+05  1.555928E+05 -6.929917E+03 -2.567913E+04
       103  20 -6.814779E+05 -1.649517E+05 -1.817514E+05  1.756475E+05 -7.026810E+04 -2.688323E+04
       103  21 -8.636924E+05 -3.037966E+05 -3.097237E+05  2.345117E+05 -1.335756E+05 -8.831381E+03
       103  22 -1.043296E+05 -2.419382E+03 -3.539660E+04  1.633762E+05 -2.433412E+04 -2.567552E+04
       103  23 -9.340554E+04 -2.346390E+04 -6.276318E+04  1.439492E+05 -5.680698E+04 -2.688107E+04
       103  24 -1.043988E+05 -1.156442E+05 -1.290371E+05  1.633409E+05 -8.926789E+04 -8.830943E+03
       103  25  3.180605E+05  9.779387E+04  4.335740E+04  1.711651E+05 -4.174987E+04 -2.567234E+04
       103  26  4.949990E+05  1.180063E+05  5.620835E+04  1.122203E+05 -4.333332E+04 -2.688028E+04
       103  27  6.554394E+05  7.248668E+04  5.161911E+04  9.208256E+04 -4.490613E+04 -8.840685E+03
       104   1 -9.928113E+04 -1.569464E+05 -1.099537E+05  6.370094E+04 -1.935892E+03 -4.793068E+04
       104   2 -2.737056E+04 -7.884455E+04 -5.600101E+04  3.192373E+04 -4.862075E+03 -2.869309E+04
       104   3 -9.890929E+03 -1.692004E+04 -2.819602E+04  3.387520E+04 -2.283477E+03 -9.457982E+03
       104   4 -5.150552E+04  3.510610E+04 -6.290402E+04  4.158542E+04 -1.930107E+03 -4.350287E+04
       104   5  2.540323E+03  4.282488E+04 -2.803640E+04  2.469553E+04 -4.861532E+03 -2.854658E+04
       104   6  2.904596E+03  3.510931E+04 -1.633765E+04  4.153604E+04 -2.287738E+03 -1.359507E+04
       104   7 -3.730787E+03  2.271933E+05 -1.585667E+04  1.946302E+04 -1.924638E+03 -3.907369E+04
       104   8  3.245037E+04  1.645081E+05 -7.274762E+01  1.746590E+04 -4.860993E+03 -2.840003E+04
       104   9  1.570016E+04  8.714133E+04 -4.479373E+03  4.919753E+04 -2.292100E+03 -1.773250E+04
       104  10 -9.928175E+04 -1.569488E+05 -1.099581E+05  6.370087E+04  1.434371E-10  1.200890E-10
       104  11 -2.737080E+04 -7.884545E+04 -5.600260E+04  3.192361E+04  7.278216E-10  1.677594E-10
       104  12 -9.890958E+03 -1.692014E+04 -2.819620E+04  3.387518E+04  1.415187E-10  1.120773E-09
       104  13 -5.150604E+04  3.510406E+04 -6.290758E+04  4.158535E+04  2.114041E-10  3.569841E-11
       104  14  2.540079E+03  4.282400E+04 -2.803798E+04  2.469542E+04  1.156098E-09  3.138434E-11
       104  15  2.904541E+03  3.510911E+04 -1.633801E+04  4.153601E+04 -6.155108E-10 -2.348784E-11
       104  16 -3.731201E+03  2.271916E+05 -1.585955E+04  1.946296E+04  2.937601E-10 -1.072969E-10
       104  17  3.245013E+04  1.645073E+05 -7.430732E+01  1.746579E+04  4.028870E-10 -1.753615E-10
       104  18  1.570007E+04  8.714099E+04 -4.479973E+03  4.919750E+04 -2.973652E-10 -1.143348E-09
       104  19 -9.928113E+04 -1.569464E+05 -1.099537E+05  6.370094E+04  1.935892E+03  4.793068E+04
       104  20 -2.737056E+04 -7.884455E+04 -5.600101E+04  3.192373E+04  4.862075E+03  2.869309E+04
       104  21 -9.890929E+03 -1.692004E+04 -2.819602E+04  3.387520E+04  2.283477E+03  9.457982E+03
       104  22 -5.150552E+04  3.510610E+04 -6.290402E+04  4.158542E+04  1.930107E+03  4.350287E+04
       104  23  2.540323E+03  4.282488E+04 -2.803640E+04  2.469553E+04  4.861532E+03  2.854658E+04
       104  24  2.904596E+03  3.510931E+04 -1.633765E+04  4.153604E+04  2.287738E+03  1.359507E+04
       104  25 -3.730787E+03  2.271933E+05 -1.585667E+04  1.946302E+04  1.924638E+03  3.907369E+04
       104  26  3.245037E+04  1.645081E+05 -7.274762E+01  1.746590E+04  4.860993E+03  2.840003E+04
       104  27  1.570016E+04  8.714133E+04 -4.479373E+03  4.919753E+04  2.292100E+03  1.773250E+04
       105   1 -6.902911E+02  4.952547E+04 -1.020605E+04  4.269000E+04  4.702935E+02 -8.667075E+03
       105   2  2.015298E+04  1.200585E+05  1.261513E+04  2.504313E+04  3.700009E+03 -5.888006E+03
       105   3  3.801591E+04  1.894152E+05  3.286427E+04  4.128701E+04  6.742267E+03 -3.108053E+03
       105   4 -3.457703E+03  3.827196E+04 -1.277691E+04  4.158776E+04  4.676995E+02 -1.125216E+04
       105   5  2.333249E+02  3.887321E+04 -5.801102E+03  2.464009E+04  3.697694E+03 -8.327131E+03
       105   6  9.189822E+02  3.826863E+04 -1.498067E+03  4.158353E+04  6.740211E+03 -5.401521E+03
       105   7 -6.225117E+03  2.701858E+04 -1.534775E+04  4.048554E+04  4.651146E+02 -1.383720E+04
       105   8 -1.968678E+04 -4.230594E+04 -2.421774E+04  2.423710E+04  3.695382E+03 -1.076594E+04
       105   9 -3.617952E+04 -1.128567E+05 -3.586186E+04  4.187997E+04  6.738152E+03 -7.694435E+03
       105  10 -6.903115E+02  4.952539E+04 -1.020619E+04  4.269000E+04  7.008356E-11  7.972008E-09
       105  11  2.015296E+04  1.200584E+05  1.261504E+04  2.504314E+04 -6.601519E-10  1.227987E-10
       105  12  3.801586E+04  1.894152E+05  3.286417E+04  4.128703E+04 -7.902709E-10 -7.916697E-09
       105  13 -3.457738E+03  3.827182E+04 -1.277715E+04  4.158776E+04 -9.998579E-10  2.752783E-11
       105  14  2.332916E+02  3.887313E+04 -5.801258E+03  2.464011E+04 -1.796955E-09 -2.503507E-11
       105  15  9.189256E+02  3.826859E+04 -1.498207E+03  4.158356E+04 -3.384093E-10  3.106365E-11
       105  16 -6.225168E+03  2.701837E+04 -1.534811E+04  4.048554E+04 -1.091166E-09 -7.975647E-09
       105  17 -1.968683E+04 -4.230607E+04 -2.421798E+04  2.423713E+04 -1.630105E-09 -9.648936E-11
       105  18 -3.617959E+04 -1.128568E+05 -3.586206E+04  4.188001E+04 -1.553270E-10  7.891617E-09
       105  19 -6.902911E+02  4.952547E+04 -1.020605E+04  4.269000E+04 -4.702935E+02  8.667075E+03
       105  20  2.015298E+04  1.200585E+05  1.261513E+04  2.504313E+04 -3.700009E+03  5.888006E+03
       105  21  3.801591E+04  1.894152E+05  3.286427E+04  4.128701E+04 -6.742267E+03  3.108053E+03
       105  22 -3.457703E+03  3.827196E+04 -1.277691E+04  4.158776E+04 -4.676995E+02  1.125216E+04
       105  23  2.333249E+02  3.887321E+04 -5.801102E+03  2.464009E+04 -3.697694E+03  8.327131E+03
       105  24  9.189822E+02  3.826863E+04 -1.498067E+03  4.158353E+04 -6.740211E+03  5.401521E+03
       105  25 -6.225117E+03  2.701858E+04 -1.534775E+04  4.048554E+04 -4.651146E+02  1.383720E+04
       105  26 -1.968678E+04 -4.230594E+04 -2.421774E+04  2.423710E+04 -3.695382E+03  1.076594E+04
       105  27 -3.617952E+04 -1.128567E+05 -3.586186E+04  4.187997E+04 -6.738152E+03  7.694435E+03
       106   1  5.194595E+04  2.536639E+05  4.875543E+04  4.023067E+04  9.914355E+03 -1.200859E+02
       106   2  6.936572E+04  3.217211E+05  6.889522E+04  2.620579E+04  1.172934E+04 -9.654625E+03
       106   3  9.785629E+04  3.937673E+05  9.800174E+04  4.572290E+04  4.018567E+03 -1.918357E+04
       106   4 -6.698775E+02  3.913102E+04  1.576681E+02  4.150964E+04  9.909958E+03 -5.248478E+03
       106   5 -4.182904E+02  3.777571E+04  3.872920E+03  2.473456E+04  1.173152E+04 -7.362204E+03
       106   6  9.619428E+03  3.911994E+04  1.140511E+04  4.150212E+04  4.025476E+03 -9.469306E+03
       106   7 -5.328885E+04 -1.753591E+05 -4.844296E+04  4.278815E+04  9.905539E+03 -1.037511E+04
       106   8 -7.020790E+04 -2.460950E+05 -6.115466E+04  2.326400E+04  1.173370E+04 -5.070821E+03
       106   9 -7.862661E+04 -3.154125E+05 -7.520033E+04  3.728372E+04  4.032256E+03  2.394225E+02
       106  10  5.194584E+04  2.536639E+05  4.875524E+04  4.023067E+04  1.539184E-10 -1.212991E-09
       106  11  6.936555E+04  3.217210E+05  6.889479E+04  2.620588E+04  2.097663E-10 -2.884782E-10
       106  12  9.785618E+04  3.937669E+05  9.800101E+04  4.572296E+04 -1.889018E-11 -1.610253E-10
       106  13 -6.699904E+02  3.913097E+04  1.574318E+02  4.150968E+04  3.074144E-10  3.633112E-11
       106  14 -4.184527E+02  3.777561E+04  3.872559E+03  2.473463E+04  5.633625E-10  3.122072E-12
       106  15  9.619387E+03  3.911984E+04  1.140491E+04  4.150215E+04  2.420050E-10  4.395542E-11
       106  16 -5.328899E+04 -1.753592E+05 -4.844335E+04  4.278823E+04  1.535194E-10  1.195145E-09
       106  17 -7.020806E+04 -2.460951E+05 -6.115497E+04  2.326405E+04  8.514300E-10  2.677940E-10
       106  18 -7.862663E+04 -3.154125E+05 -7.520036E+04  3.728372E+04 -8.435189E-11  2.285512E-10
       106  19  5.194595E+04  2.536639E+05  4.875543E+04  4.023067E+04 -9.914355E+03  1.200859E+02
       106  20  6.936572E+04  3.217211E+05  6.889522E+04  2.620579E+04 -1.172934E+04  9.654625E+03
       106  21  9.785629E+04  3.937673E+05  9.800174E+04  4.572290E+04 -4.018567E+03  1.918357E+04
       106  22 -6.698775E+02  3.913102E+04  1.576681E+02  4.150964E+04 -9.909958E+03  5.248478E+03
       106  23 -4.182904E+02  3.777571E+04  3.872920E+03  2.473456E+04 -1.173152E+04  7.362204E+03
       106  24  9.619428E+03  3.911994E+04  1.140511E+04  4.150212E+04 -4.025476E+03  9.469306E+03
       106  25 -5.328885E+04 -1.753591E+05 -4.844296E+04  4.278815E+04 -9.905539E+03  1.037511E+04
       106  26 -7.020790E+04 -2.460950E+05 -6.115466E+04  2.326400E+04 -1.173370E+04  5.070821E+03
       106  27 -7.862661E+04 -3.154125E+05 -7.520033E+04  3.728372E+04 -4.032256E+03 -2.394225E+02
       107   1  5.759786E+05  4.630896E+05  1.278606E+05  3.907167E+05  5.231607E+04  3.315579E+04
       107   2  5.579942E+05  4.103060E+05  8.352734E+04  3.910458E+05  3.771409E+04  7.894244E+03
       107   3  5.507971E+05  3.812097E+05  6.284171E+04  3.854018E+05  1.838043E+04 -1.104339E+04
       107   4  3.473505E+05  2.557730E+05  4.645413E+04  2.564930E+05  2.883313E+04  1.556763E+04
       107   5  3.360708E+05  2.324104E+05  2.296451E+04  2.690889E+05  2.626292E+04 -6.832658E+02
       107   6  3.329763E+05  2.301322E+05  1.269818E+04  2.757102E+05  1.895902E+04 -1.061111E+04
       107   7  1.187846E+05  4.851402E+04 -3.495521E+04  1.223348E+05  5.362246E+03 -2.008252E+03
       107   8  1.142062E+05  5.455660E+04 -3.760111E+04  1.471866E+05  1.481732E+04 -9.255853E+03
       107   9  1.152109E+05  7.908293E+04 -3.744809E+04  1.660630E+05  1.953733E+04 -1.017904E+04
       107  10  5.759754E+05  4.630876E+05  1.278534E+05  3.907153E+05  2.016411E-08  1.472135E-08
       107  11  5.579926E+05  4.103055E+05  8.352455E+04  3.910456E+05 -4.275509E-09 -7.039456E-09
       107  12  5.507968E+05  3.812095E+05  6.284085E+04  3.854020E+05 -3.180087E-08 -3.312042E-08
       107  13  3.473495E+05  2.557725E+05  4.645211E+04  2.564927E+05 -2.899094E-11  2.128585E-09
       107  14  3.360700E+05  2.324102E+05  2.296321E+04  2.690889E+05 -1.756105E-09  7.716720E-09
       107  15  3.329759E+05  2.301320E+05  1.269729E+04  2.757104E+05 -6.438583E-09  1.072907E-08
       107  16  1.187846E+05  4.851401E+04 -3.495527E+04  1.223348E+05 -1.780068E-08 -1.483806E-08
       107  17  1.142060E+05  5.455645E+04 -3.760168E+04  1.471867E+05  9.220064E-09  2.963622E-09
       107  18  1.152105E+05  7.908272E+04 -3.744900E+04  1.660632E+05  3.628469E-08  1.962827E-08
       107  19  5.759786E+05  4.630896E+05  1.278606E+05  3.907167E+05 -5.231607E+04 -3.315579E+04
       107  20  5.579942E+05  4.103060E+05  8.352734E+04  3.910458E+05 -3.771409E+04 -7.894244E+03
       107  21  5.507971E+05  3.812097E+05  6.284171E+04  3.854018E+05 -1.838043E+04  1.104339E+04
       107  22  3.473505E+05  2.557730E+05  4.645413E+04  2.564930E+05 -2.883313E+04 -1.556763E+04
       107  23  3.360708E+05  2.324104E+05  2.296451E+04  2.690889E+05 -2.626292E+04  6.832658E+02
       107  24  3.329763E+05  2.301322E+05  1.269818E+04  2.757102E+05 -1.895902E+04  1.061111E+04
       107  25  1.187846E+05  4.851402E+04 -3.495521E+04  1.223348E+05 -5.362246E+03  2.008252E+03
       107  26  1.142062E+05  5.455660E+04 -3.760111E+04  1.471866E+05 -1.481732E+04  9.255853E+03
       107  27  1.152109E+05  7.908293E+04 -3.744809E+04  1.660630E+05 -1.953733E+04  1.017904E+04
       108   1  5.354627E+05  3.744530E+05  5.630290E+04  3.794777E+05  1.711905E+04 -1.141916E+04
       108   2  5.191388E+05  3.569628E+05  4.664084E+04  3.701269E+05  1.324703E+04 -1.361016E+04
       108   3  4.992452E+05  3.457692E+05  4.027973E+04  3.618523E+05  8.879829E+03 -1.514025E+04
       108   4  3.319109E+05  2.296498E+05  9.723916E+03  2.751341E+05  1.735347E+04 -1.124460E+04
       108   5  3.334070E+05  2.258799E+05  5.690803E+03  2.751648E+05  1.473978E+04 -1.249288E+04
       108   6  3.310614E+05  2.281340E+05  3.868637E+03  2.762715E+05  1.163074E+04 -1.308018E+04
       108   7  1.284034E+05  8.486979E+04 -3.685884E+04  1.708284E+05  1.758780E+04 -1.107012E+04
       108   8  1.477159E+05  9.481865E+04 -3.526092E+04  1.802359E+05  1.623194E+04 -1.137605E+04
       108   9  1.629147E+05  1.105188E+05 -3.254254E+04  1.907194E+05  1.438060E+04 -1.102089E+04
       108  10  5.354624E+05  3.744528E+05  5.630210E+04  3.794778E+05  1.055853E-08 -1.804990E-09
       108  11  5.191386E+05  3.569626E+05  4.664016E+04  3.701270E+05 -1.813391E-09 -5.842771E-09
       108  12  4.992450E+05  3.457690E+05  4.027915E+04  3.618524E+05 -5.531921E-09 -4.543249E-09
       108  13  3.319105E+05  2.296495E+05  9.723112E+03  2.751342E+05 -9.950804E-09  8.296567E-09
       108  14  3.334067E+05  2.258796E+05  5.690101E+03  2.751650E+05 -1.016840E-08  1.503577E-09
       108  15  3.310612E+05  2.281338E+05  3.868062E+03  2.762716E+05 -3.033344E-09 -7.372537E-10
       108  16  1.284031E+05  8.486957E+04 -3.685965E+04  1.708285E+05 -1.239175E-08 -1.655132E-08
       108  17  1.477156E+05  9.481844E+04 -3.526166E+04  1.802360E+05 -7.960676E-09 -1.080388E-08
       108  18  1.629144E+05  1.105186E+05 -3.254316E+04  1.907195E+05  3.076347E-09 -1.440810E-09
       108  19  5.354627E+05  3.744530E+05  5.630290E+04  3.794777E+05 -1.711905E+04  1.141916E+04
       108  20  5.191388E+05  3.569628E+05  4.664084E+04  3.701269E+05 -1.324703E+04  1.361016E+04
       108  21  4.992452E+05  3.457692E+05  4.027973E+04  3.618523E+05 -8.879829E+03  1.514025E+04
       108  22  3.319109E+05  2.296498E+05  9.723916E+03  2.751341E+05 -1.735347E+04  1.124460E+04
       108  23  3.334070E+05  2.258799E+05  5.690803E+03  2.751648E+05 -1.473978E+04  1.249288E+04
       108  24  3.310614E+05  2.281340E+05  3.868637E+03  2.762715E+05 -1.163074E+04  1.308018E+04
       108  25  1.284034E+05  8.486979E+04 -3.685884E+04  1.708284E+05 -1.758780E+04  1.107012E+04
       108  26  1.477159E+05  9.481865E+04 -3.526092E+04  1.802359E+05 -1.623194E+04  1.137605E+04
       108  27  1.629147E+05  1.105188E+05 -3.254254E+04  1.907194E+05 -1.438060E+04  1.102089E+04
       109   1  4.872984E+05  3.377795E+05  3.718630E+04  3.559514E+05  7.758987E+03 -1.463621E+04
       109   2  4.713516E+05  3.224834E+05  3.312947E+04  3.459417E+05  5.162347E+03 -1.429779E+04
       109   3  4.508274E+05  3.123568E+05  3.036232E+04  3.373812E+05  2.510762E+03 -1.388634E+04
       109   4  3.309901E+05  2.281116E+05  3.463378E+03  2.762261E+05  1.047214E+04 -1.260424E+04
       109   5  3.333081E+05  2.255652E+05  3.433827E+03  2.754856E+05  8.014884E+03 -1.216112E+04
       109   6  3.310178E+05  2.281581E+05  4.573221E+03  2.761942E+05  5.502595E+03 -1.164500E+04
       109   7  1.747106E+05  1.184590E+05 -3.026065E+04  1.965242E+05  1.318439E+04 -1.057295E+04
       109   8  1.952857E+05  1.286578E+05 -2.626314E+04  2.050471E+05  1.086661E+04 -1.002506E+04
       109   9  2.112228E+05  1.439666E+05 -2.121733E+04  2.150197E+05  8.493722E+03 -9.404189E+03
       109  10  4.872983E+05  3.377792E+05  3.718578E+04  3.559515E+05 -4.900114E-09 -8.996382E-10
       109  11  4.713515E+05  3.224832E+05  3.312903E+04  3.459418E+05 -9.711634E-09 -3.139530E-09
       109  12  4.508273E+05  3.123566E+05  3.036194E+04  3.373812E+05 -5.421452E-09 -2.499372E-09
       109  13  3.309899E+05  2.281114E+05  3.462874E+03  2.762262E+05  1.390665E-09 -9.667470E-10
       109  14  3.333080E+05  2.255650E+05  3.433428E+03  2.754857E+05  7.189891E-09  1.262262E-09
       109  15  3.310177E+05  2.281579E+05  4.572909E+03  2.761942E+05  1.985272E-08  8.214644E-09
       109  16  1.747104E+05  1.184588E+05 -3.026118E+04  1.965243E+05  4.983473E-09 -9.487941E-10
       109  17  1.952855E+05  1.286576E+05 -2.626355E+04  2.050472E+05  1.488729E-08  5.537022E-09
       109  18  2.112227E+05  1.439665E+05 -2.121764E+04  2.150198E+05  2.818696E-08  1.883553E-08
       109  19  4.872984E+05  3.377795E+05  3.718630E+04  3.559514E+05 -7.758987E+03  1.463621E+04
       109  20  4.713516E+05  3.224834E+05  3.312947E+04  3.459417E+05 -5.162347E+03  1.429779E+04
       109  21  4.508274E+05  3.123568E+05  3.036232E+04  3.373812E+05 -2.510762E+03  1.388634E+04
       109  22  3.309901E+05  2.281116E+05  3.463378E+03  2.762261E+05 -1.047214E+04  1.260424E+04
       109  23  3.333081E+05  2.255652E+05  3.433827E+03  2.754856E+05 -8.014884E+03  1.216112E+04
       109  24  3.310178E+05  2.281581E+05  4.573221E+03  2.761942E+05 -5.502595E+03  1.164500E+04
       109  25  1.747106E+05  1.184590E+05 -3.026065E+04  1.965242E+05 -1.318439E+04  1.057295E+04
       109  26  1.952857E+05  1.286578E+05 -2.626314E+04  2.050471E+05 -1.086661E+04  1.002506E+04
       109  27  2.112228E+05  1.439666E+05 -2.121733E+04  2.150197E+05 -8.493722E+03  9.404189E+03
       110   1  4.390296E+05  3.046261E+05  2.883811E+04  3.316883E+05  1.122709E+03 -1.349783E+04
       110   2  4.243495E+05  2.885748E+05  2.867731E+04  3.206657E+05 -3.886084E+03 -1.475981E+04
       110   3  4.064990E+05  2.794740E+05  3.224868E+04  3.104610E+05 -8.934730E+03 -1.596842E+04
       110   4  3.311462E+05  2.282248E+05  5.633039E+03  2.763009E+05  4.107162E+03 -1.126187E+04
       110   5  3.334833E+05  2.260795E+05  9.284645E+03  2.749046E+05 -7.997553E+02 -1.244737E+04
       110   6  3.326273E+05  2.308621E+05  1.658016E+04  2.743255E+05 -5.746702E+03 -1.357963E+04
       110   7  2.232789E+05  1.518327E+05 -1.757171E+04  2.209261E+05  7.090864E+03 -9.026485E+03
       110   8  2.426280E+05  1.635897E+05 -1.010799E+04  2.291517E+05  2.285940E+03 -1.013540E+04
       110   9  2.587621E+05  1.822533E+05  9.114791E+02  2.381950E+05 -2.559182E+03 -1.119119E+04
       110  10  4.390296E+05  3.046259E+05  2.883777E+04  3.316883E+05  2.558938E-08  1.754026E-08
       110  11  4.243494E+05  2.885746E+05  2.867687E+04  3.206656E+05  1.188991E-08  4.476030E-09
       110  12  4.064988E+05  2.794737E+05  3.224805E+04  3.104608E+05  1.874512E-09 -1.917299E-09
       110  13  3.311462E+05  2.282247E+05  5.632769E+03  2.763010E+05  1.960819E-08  8.321254E-09
       110  14  3.334833E+05  2.260793E+05  9.284353E+03  2.749046E+05  7.301700E-09  1.562264E-09
       110  15  3.326272E+05  2.308619E+05  1.657975E+04  2.743255E+05  7.714460E-10 -1.805305E-10
       110  16  2.232788E+05  1.518326E+05 -1.757196E+04  2.209261E+05 -3.750938E-09 -9.517693E-10
       110  17  2.426280E+05  1.635896E+05 -1.010819E+04  2.291518E+05 -7.971187E-09 -1.126601E-09
       110  18  2.587621E+05  1.822531E+05  9.112315E+02  2.381950E+05 -2.852433E-09  1.644840E-09
       110  19  4.390296E+05  3.046261E+05  2.883811E+04  3.316883E+05 -1.122709E+03  1.349783E+04
       110  20  4.243495E+05  2.885748E+05  2.867731E+04  3.206657E+05  3.886084E+03  1.475981E+04
       110  21  4.064990E+05  2.794740E+05  3.224868E+04  3.104610E+05  8.934730E+03  1.596842E+04
       110  22  3.311462E+05  2.282248E+05  5.633039E+03  2.763009E+05 -4.107162E+03  1.126187E+04
       110  23  3.334833E+05  2.260795E+05  9.284645E+03  2.749046E+05  7.997553E+02  1.244737E+04
       110  24  3.326273E+05  2.308621E+05  1.658016E+04  2.743255E+05  5.746702E+03  1.357963E+04
       110  25  2.232789E+05  1.518327E+05 -1.757171E+04  2.209261E+05 -7.090864E+03  9.026485E+03
       110  26  2.426280E+05  1.635897E+05 -1.010799E+04  2.291517E+05 -2.285940E+03  1.013540E+04
       110  27  2.587621E+05  1.822533E+05  9.114791E+02  2.381950E+05  2.559182E+03  1.119119E+04
       111   1  3.927282E+05  2.762956E+05  3.500762E+04  3.067743E+05 -1.190016E+04 -1.670016E+04
       111   2  4.026251E+05  2.448680E+05  4.964043E+04  2.792758E+05 -3.055655E+04 -2.773390E+04
       111   3  4.295573E+05  2.476877E+05  8.798876E+04  2.406023E+05 -4.954889E+04 -3.831870E+04
       111   4  3.342859E+05  2.319121E+05  2.185129E+04  2.753935E+05 -8.737525E+03 -1.433016E+04
       111   5  3.383813E+05  2.371855E+05  3.985979E+04  2.642606E+05 -2.654125E+04 -2.472678E+04
       111   6  3.593263E+05  2.765204E+05  8.084534E+04  2.419521E+05 -4.468028E+04 -3.467613E+04
       111   7  2.758466E+05  1.875304E+05  8.694506E+03  2.440157E+05 -5.575232E+03 -1.196045E+04
       111   8  2.741427E+05  2.295037E+05  3.007933E+04  2.492460E+05 -2.252652E+04 -2.171963E+04
       111   9  2.891050E+05  3.053581E+05  7.370326E+04  2.432999E+05 -3.981251E+04 -3.103301E+04
       111  10  3.927280E+05  2.762952E+05  3.500683E+04  3.067742E+05  1.538404E-09 -1.468000E-10
       111  11  4.026239E+05  2.448669E+05  4.963723E+04  2.792751E+05  3.144478E-10  3.730083E-10
       111  12  4.295543E+05  2.476854E+05  8.798139E+04  2.406008E+05  7.873635E-10  5.536644E-10
       111  13  3.342857E+05  2.319118E+05  2.185076E+04  2.753934E+05  3.102140E-10  3.977128E-10
       111  14  3.383804E+05  2.371847E+05  3.985732E+04  2.642601E+05  1.127693E-10  3.279317E-10
       111  15  3.593239E+05  2.765185E+05  8.083934E+04  2.419508E+05 -6.146953E-10  9.323062E-11
       111  16  2.758466E+05  1.875302E+05  8.694179E+03  2.440156E+05 -1.595781E-09  7.714481E-10
       111  17  2.741420E+05  2.295030E+05  3.007749E+04  2.492456E+05 -1.969353E-09  2.426685E-10
       111  18  2.891030E+05  3.053567E+05  7.369848E+04  2.432989E+05 -7.875871E-10 -3.711370E-10
       111  19  3.927282E+05  2.762956E+05  3.500762E+04  3.067743E+05  1.190016E+04  1.670016E+04
       111  20  4.026251E+05  2.448680E+05  4.964043E+04  2.792758E+05  3.055655E+04  2.773390E+04
       111  21  4.295573E+05  2.476877E+05  8.798876E+04  2.406023E+05  4.954889E+04  3.831870E+04
       111  22  3.342859E+05  2.319121E+05  2.185129E+04  2.753935E+05  8.737525E+03  1.433016E+04
       111  23  3.383813E+05  2.371855E+05  3.985979E+04  2.642606E+05  2.654125E+04  2.472678E+04
       111  24  3.593263E+05  2.765204E+05  8.084534E+04  2.419521E+05  4.468028E+04  3.467613E+04
       111  25  2.758466E+05  1.875304E+05  8.694506E+03  2.440157E+05  5.575232E+03  1.196045E+04
       111  26  2.741427E+05  2.295037E+05  3.007933E+04  2.492460E+05  2.252652E+04  2.171963E+04
       111  27  2.891050E+05  3.053581E+05  7.370326E+04  2.432999E+05  3.981251E+04  3.103301E+04
       112   1  2.267881E+06  2.876314E+05  3.651945E+05  4.413894E+04  2.268104E+05 -7.804662E+02
       112   2  2.208840E+06 -2.814572E+04  1.735445E+05  7.669181E+03  1.472699E+05 -1.926883E+03
       112   3  2.250546E+06  1.772208E+04  1.239906E+05 -1.379793E+04  6.772946E+04 -1.447942E+03
       112   4  2.144213E+06  2.568680E+05  3.344634E+05  5.212859E+03  2.263392E+05 -7.943847E+02
       112   5  2.093996E+06 -5.672427E+04  1.451739E+05 -2.364873E+03  1.471713E+05 -1.929242E+03
       112   6  2.144480E+06 -8.703224E+03  9.774201E+04  5.057780E+03  6.800228E+04 -1.445988E+03
       112   7  2.020562E+06  2.261090E+05  3.037320E+05 -3.370549E+04  2.258681E+05 -8.082467E+02
       112   8  1.979164E+06 -8.530343E+04  1.168024E+05 -1.239707E+04  1.470727E+05 -1.931598E+03
       112   9  2.038424E+06 -3.512804E+04  7.149281E+04  2.391028E+04  6.827505E+04 -1.444017E+03
       112  10  2.267826E+06  2.876177E+05  3.650982E+05  4.413909E+04  1.069142E-10 -1.758434E-10
       112  11  2.208817E+06 -2.815152E+04  1.735039E+05  7.669409E+03 -2.717100E-10 -3.093248E-10
       112  12  2.250542E+06  1.772085E+04  1.239820E+05 -1.379785E+04  3.906762E-10  8.807473E-11
       112  13  2.144158E+06  2.568543E+05  3.343675E+05  5.213004E+03 -1.200934E-10  1.042041E-10
       112  14  2.093973E+06 -5.673007E+04  1.451333E+05 -2.364644E+03 -1.141058E-09  1.178382E-10
       112  15  2.144475E+06 -8.704463E+03  9.773335E+04  5.057859E+03 -6.524616E-10 -2.384075E-11
       112  16  2.020507E+06  2.260954E+05  3.036364E+05 -3.370535E+04 -1.786497E-10  9.393040E-11
       112  17  1.979141E+06 -8.530922E+04  1.167618E+05 -1.239684E+04 -1.648857E-10  6.081570E-10
       112  18  2.038419E+06 -3.512929E+04  7.148407E+04  2.391036E+04 -2.785508E-10 -3.966565E-10
       112  19  2.267881E+06  2.876314E+05  3.651945E+05  4.413894E+04 -2.268104E+05  7.804662E+02
       112  20  2.208840E+06 -2.814572E+04  1.735445E+05  7.669181E+03 -1.472699E+05  1.926883E+03
       112  21  2.250546E+06  1.772208E+04  1.239906E+05 -1.379793E+04 -6.772946E+04  1.447942E+03
       112  22  2.144213E+06  2.568680E+05  3.344634E+05  5.212859E+03 -2.263392E+05  7.943847E+02
       112  23  2.093996E+06 -5.672427E+04  1.451739E+05 -2.364873E+03 -1.471713E+05  1.929242E+03
       112  24  2.144480E+06 -8.703224E+03  9.774201E+04  5.057780E+03 -6.800228E+04  1.445988E+03
       112  25  2.020562E+06  2.261090E+05  3.037320E+05 -3.370549E+04 -2.258681E+05  8.082467E+02
       112  26  1.979164E+06 -8.530343E+04  1.168024E+05 -1.239707E+04 -1.470727E+05  1.931598E+03
       112  27  2.038424E+06 -3.512804E+04  7.149281E+04  2.391028E+04 -6.827505E+04  1.444017E+03
       113   1  2.197995E+06  5.482196E+04  1.007030E+05  1.003459E+04  5.175884E+04 -1.019624E+03
       113   2  2.182280E+06  6.782651E+03  6.335080E+04 -2.133886E+02  2.714791E+04 -9.579638E+02
       113   3  2.184843E+06  1.902555E+04  5.705742E+04  7.274015E+02  2.537741E+03 -7.216476E+02
       113   4  2.126095E+06  3.692216E+04  8.291717E+04  4.263259E+03  5.174814E+04 -1.020109E+03
       113   5  2.116977E+06 -9.476304E+03  4.720178E+04 -1.334949E+03  2.717832E+04 -9.580233E+02
       113   6  2.126135E+06  4.403732E+03  4.251919E+04  4.255555E+03  2.608990E+03 -7.216403E+02
       113   7  2.054199E+06  1.902210E+04  6.513101E+04 -1.507408E+03  5.173745E+04 -1.020595E+03
       113   8  2.051679E+06 -2.573557E+04  3.105245E+04 -2.456391E+03  2.720872E+04 -9.580829E+02
       113   9  2.067429E+06 -1.021829E+04  2.798070E+04  7.783375E+03  2.680231E+03 -7.216322E+02
       113  10  2.197992E+06  5.482125E+04  1.006979E+05  1.003464E+04  2.345900E-09  1.418761E-11
       113  11  2.182279E+06  6.782453E+03  6.334941E+04 -2.133677E+02 -2.478730E-10 -3.252852E-10
       113  12  2.184843E+06  1.902554E+04  5.705741E+04  7.274030E+02 -2.313516E-09  2.546929E-10
       113  13  2.126092E+06  3.692144E+04  8.291215E+04  4.263301E+03  2.067793E-10 -2.643580E-10
       113  14  2.116977E+06 -9.476503E+03  4.720039E+04 -1.334928E+03  1.990009E-10 -2.084083E-10
       113  15  2.126135E+06  4.403729E+03  4.251917E+04  4.255556E+03  1.250515E-10  7.833739E-11
       113  16  2.054196E+06  1.902138E+04  6.512599E+04 -1.507365E+03 -2.223237E-09  1.331696E-10
       113  17  2.051678E+06 -2.573577E+04  3.105106E+04 -2.456370E+03 -9.789211E-10 -2.747703E-10
       113  18  2.067429E+06 -1.021830E+04  2.798068E+04  7.783377E+03  2.248351E-09 -1.857099E-12
       113  19  2.197995E+06  5.482196E+04  1.007030E+05  1.003459E+04 -5.175884E+04  1.019624E+03
       113  20  2.182280E+06  6.782651E+03  6.335080E+04 -2.133886E+02 -2.714791E+04  9.579638E+02
       113  21  2.184843E+06  1.902555E+04  5.705742E+04  7.274015E+02 -2.537741E+03  7.216476E+02
       113  22  2.126095E+06  3.692216E+04  8.291717E+04  4.263259E+03 -5.174814E+04  1.020109E+03
       113  23  2.116977E+06 -9.476304E+03  4.720178E+04 -1.334949E+03 -2.717832E+04  9.580233E+02
       113  24  2.126135E+06  4.403732E+03  4.251919E+04  4.255555E+03 -2.608990E+03  7.216403E+02
       113  25  2.054199E+06  1.902210E+04  6.513101E+04 -1.507408E+03 -5.173745E+04  1.020595E+03
       113  26  2.051679E+06 -2.573557E+04  3.105245E+04 -2.456391E+03 -2.720872E+04  9.580829E+02
       113  27  2.067429E+06 -1.021829E+04  2.798070E+04  7.783375E+03 -2.680231E+03  7.216322E+02
       114   1  2.158078E+06  1.177668E+04  5.071195E+04  7.533358E+03 -5.146462E+03 -5.585557E+02
       114   2  2.142925E+06 -3.492097E+03  5.585661E+04 -2.057426E+03 -3.085094E+04 -3.693024E+02
       114   3  2.147038E+06  4.499676E+04  9.363570E+04 -2.323139E+03 -5.655578E+04 -2.157764E+02
       114   4  2.126357E+06  3.881161E+03  4.288084E+04  3.844222E+03 -5.100452E+03 -5.585272E+02
       114   5  2.116701E+06 -1.002218E+04  4.936903E+04 -8.195720E+02 -3.081196E+04 -3.693636E+02
       114   6  2.126312E+06  3.983466E+04  8.849740E+04  3.841775E+03 -5.652405E+04 -2.163345E+02
       114   7  2.094636E+06 -4.014381E+03  3.504966E+04  1.552742E+02 -5.054444E+03 -5.584993E+02
       114   8  2.090476E+06 -1.655231E+04  4.288141E+04  4.182297E+02 -3.077298E+04 -3.694247E+02
       114   9  2.105586E+06  3.467267E+04  8.335909E+04  1.000648E+04 -5.649233E+04 -2.168921E+02
       114  10  2.158078E+06  1.177667E+04  5.071190E+04  7.533356E+03 -3.115152E-10  6.672578E-11
       114  11  2.142924E+06 -3.492352E+03  5.585483E+04 -2.057435E+03  5.360622E-10 -1.737304E-10
       114  12  2.147034E+06  4.499590E+04  9.362971E+04 -2.323149E+03  2.994169E-10  2.680336E-10
       114  13  2.126357E+06  3.881153E+03  4.288079E+04  3.844220E+03  7.903743E-11 -2.498793E-11
       114  14  2.116700E+06 -1.002243E+04  4.936726E+04 -8.195812E+02  6.326659E-10 -4.117555E-10
       114  15  2.126308E+06  3.983380E+04  8.849142E+04  3.841765E+03  8.409550E-11  8.577870E-11
       114  16  2.094636E+06 -4.014389E+03  3.504961E+04  1.552719E+02  5.118226E-10  1.861969E-10
       114  17  2.090475E+06 -1.655256E+04  4.287963E+04  4.182206E+02 -7.670499E-10 -4.109869E-10
       114  18  2.105583E+06  3.467182E+04  8.335311E+04  1.000647E+04 -2.652192E-10  1.919097E-10
       114  19  2.158078E+06  1.177668E+04  5.071195E+04  7.533358E+03  5.146462E+03  5.585557E+02
       114  20  2.142925E+06 -3.492097E+03  5.585661E+04 -2.057426E+03  3.085094E+04  3.693024E+02
       114  21  2.147038E+06  4.499676E+04  9.363570E+04 -2.323139E+03  5.655578E+04  2.157764E+02
       114  22  2.126357E+06  3.881161E+03  4.288084E+04  3.844222E+03  5.100452E+03  5.585272E+02
       114  23  2.116701E+06 -1.002218E+04  4.936903E+04 -8.195720E+02  3.081196E+04  3.693636E+02
       114  24  2.126312E+06  3.983466E+04  8.849740E+04  3.841775E+03  5.652405E+04  2.163345E+02
       114  25  2.094636E+06 -4.014381E+03  3.504966E+04  1.552742E+02  5.054444E+03  5.584993E+02
       114  26  2.090476E+06 -1.655231E+04  4.288141E+04  4.182297E+02  3.077298E+04  3.694247E+02
       114  27  2.105586E+06  3.467267E+04  8.335909E+04  1.000648E+04  5.649233E+04  2.168921E+02
       115   1  2.142834E+06 -1.033631E+04  1.038426E+05  2.405344E+04 -7.398578E+04 -6.104512E+01
       115   2  2.083215E+06 -6.326368E+04  1.540610E+05 -1.157633E+04 -1.591031E+05  1.587230E+02
       115   3  2.131970E+06  2.734098E+05  3.569824E+05 -3.824848E+04 -2.442173E+05  8.545669E+01
       115   4  2.146191E+06 -9.501889E+03  1.046867E+05  3.767371E+03 -7.390408E+04 -5.862948E+01
       115   5  2.091857E+06 -6.111155E+04  1.561928E+05 -7.193866E+02 -1.590893E+05  1.559503E+02
       115   6  2.145903E+06  2.768846E+05  3.604464E+05  3.753575E+03 -2.442722E+05  6.898517E+01
       115   7  2.149549E+06 -8.665924E+03  1.055311E+05 -1.651881E+04 -7.382238E+04 -5.621917E+01
       115   8  2.100499E+06 -5.895898E+04  1.583247E+05  1.013771E+04 -1.590755E+05  1.531781E+02
       115   9  2.159841E+06  2.803659E+05  3.639112E+05  4.575657E+04 -2.443270E+05  5.250658E+01
       115  10  2.142828E+06 -1.033778E+04  1.038323E+05  2.405344E+04  8.926460E-10 -2.444428E-10
       115  11  2.083188E+06 -6.327045E+04  1.540135E+05 -1.157631E+04 -1.900157E-10 -2.477675E-10
       115  12  2.131906E+06  2.733938E+05  3.568707E+05 -3.824846E+04 -7.659861E-11 -2.416708E-10
       115  13  2.146185E+06 -9.503349E+03  1.046765E+05  3.767368E+03 -3.187733E-15  4.896112E-11
       115  14  2.091829E+06 -6.111831E+04  1.561454E+05 -7.193666E+02 -3.667317E-10 -2.896143E-10
       115  15  2.145839E+06  2.768686E+05  3.603346E+05  3.753588E+03 -1.948600E-10 -1.276876E-10
       115  16  2.149543E+06 -8.667381E+03  1.055209E+05 -1.651881E+04 -7.807809E-10  3.620219E-10
       115  17  2.100471E+06 -5.896574E+04  1.582773E+05  1.013773E+04 -5.449336E-10 -1.693182E-10
       115  18  2.159777E+06  2.803500E+05  3.637994E+05  4.575658E+04 -2.055651E-10 -1.068614E-10
       115  19  2.142834E+06 -1.033631E+04  1.038426E+05  2.405344E+04  7.398578E+04  6.104512E+01
       115  20  2.083215E+06 -6.326368E+04  1.540610E+05 -1.157633E+04  1.591031E+05 -1.587230E+02
       115  21  2.131970E+06  2.734098E+05  3.569824E+05 -3.824848E+04  2.442173E+05 -8.545669E+01
       115  22  2.146191E+06 -9.501889E+03  1.046867E+05  3.767371E+03  7.390408E+04  5.862948E+01
       115  23  2.091857E+06 -6.111155E+04  1.561928E+05 -7.193866E+02  1.590893E+05 -1.559503E+02
       115  24  2.145903E+06  2.768846E+05  3.604464E+05  3.753575E+03  2.442722E+05 -6.898517E+01
       115  25  2.149549E+06 -8.665924E+03  1.055311E+05 -1.651881E+04  7.382238E+04  5.621917E+01
       115  26  2.100499E+06 -5.895898E+04  1.583247E+05  1.013771E+04  1.590755E+05 -1.531781E+02
       115  27  2.159841E+06  2.803659E+05  3.639112E+05  4.575657E+04  2.443270E+05 -5.250658E+01
       116   1 -2.690018E+05 -8.024784E+05 -2.893920E+05  2.214892E+05 -4.760894E+03 -1.398806E+05
       116   2 -9.149042E+04 -6.241721E+05 -1.500950E+05  1.462100E+05 -1.237912E+04 -7.793640E+04
       116   3 -3.086032E+04 -4.832168E+05 -8.039592E+04  1.160108E+05 -7.338823E+03 -1.598369E+04
       116   4 -1.557064E+05 -3.456195E+05 -1.791161E+05  1.324062E+05 -4.723762E+03 -1.213523E+05
       116   5 -1.970928E+04 -3.283722E+05 -8.673505E+04  1.097891E+05 -1.237238E+04 -7.615992E+04
       116   6  2.344456E+03 -3.455650E+05 -5.227959E+04  1.322674E+05 -7.354696E+03 -3.097600E+04
       116   7 -4.239606E+04  1.114484E+05 -6.884946E+04  4.325738E+04 -4.691974E+03 -1.028104E+05
       116   8  5.207115E+04 -3.248698E+04 -2.337943E+04  7.335063E+04 -1.236585E+04 -7.438261E+04
       116   9  3.554916E+04 -2.078941E+05 -2.416327E+04  1.485277E+05 -7.371352E+03 -4.597158E+04
       116  10 -2.690070E+05 -8.024994E+05 -2.894289E+05  2.214886E+05 -6.128490E-11 -4.051817E-10
       116  11 -9.149222E+04 -6.241786E+05 -1.501067E+05  1.462092E+05 -5.843934E-10  6.323592E-11
       116  12 -3.086045E+04 -4.832171E+05 -8.039650E+04  1.160107E+05  5.431249E-11  4.976217E-10
       116  13 -1.557103E+05 -3.456353E+05 -1.791438E+05  1.324058E+05  5.586002E-10  4.378020E-11
       116  14 -1.971101E+04 -3.283784E+05 -8.674624E+04  1.097884E+05 -1.689348E-09 -1.284957E-10
       116  15  2.344140E+03 -3.455661E+05 -5.228149E+04  1.322672E+05 -2.716775E-10 -7.806654E-11
       116  16 -4.239892E+04  1.114371E+05 -6.886936E+04  4.325699E+04  2.214996E-10  3.412275E-10
       116  17  5.206950E+04 -3.249297E+04 -2.339012E+04  7.334989E+04  8.944145E-11  1.576463E-11
       116  18  3.554853E+04 -2.078964E+05 -2.416734E+04  1.485274E+05 -1.291122E-10 -5.700412E-10
       116  19 -2.690018E+05 -8.024784E+05 -2.893920E+05  2.214892E+05  4.760894E+03  1.398806E+05
       116  20 -9.149042E+04 -6.241721E+05 -1.500950E+05  1.462100E+05  1.237912E+04  7.793640E+04
       116  21 -3.086032E+04 -4.832168E+05 -8.039592E+04  1.160108E+05  7.338823E+03  1.598369E+04
       116  22 -1.557064E+05 -3.456195E+05 -1.791161E+05  1.324062E+05  4.723762E+03  1.213523E+05
       116  23 -1.970928E+04 -3.283722E+05 -8.673505E+04  1.097891E+05  1.237238E+04  7.615992E+04
       116  24  2.344456E+03 -3.455650E+05 -5.227959E+04  1.322674E+05  7.354696E+03  3.097600E+04
       116  25 -4.239606E+04  1.114484E+05 -6.884946E+04  4.325738E+04  4.691974E+03  1.028104E+05
       116  26  5.207115E+04 -3.248698E+04 -2.337943E+04  7.335063E+04  1.236585E+04  7.438261E+04
       116  27  3.554916E+04 -2.078941E+05 -2.416327E+04  1.485277E+05  7.371352E+03  4.597158E+04
       117   1 -1.197115E+04 -3.653259E+05 -4.934290E+04  1.350734E+05 -7.196336E+02 -1.103998E+04
       117   2  3.139683E+04 -2.038312E+05 -6.287852E+03  1.097812E+05  8.604066E+03  4.413346E+03
       117   3  6.702972E+04 -4.634338E+04  2.474443E+04  1.301925E+05  1.750628E+04  1.987204E+04
       117   4 -5.473201E+03 -3.388288E+05 -4.332750E+04  1.324284E+05 -7.328408E+02 -2.365614E+04
       117   5 -3.636937E+02 -3.367713E+05 -3.210930E+04  1.095748E+05  8.592138E+03 -7.646149E+03
       117   6 -3.085013E+03 -3.388415E+05 -3.329959E+04  1.324261E+05  1.749564E+04  8.365420E+03
       117   7  1.024815E+03 -3.123307E+05 -3.731154E+04  1.297833E+05 -7.459401E+02 -3.627284E+04
       117   8 -3.212520E+04 -4.696941E+05 -5.793104E+04  1.093685E+05  8.580215E+03 -1.970312E+04
       117   9 -7.320488E+04 -6.312575E+05 -9.134735E+04  1.346586E+05  1.748492E+04 -3.135893E+03
       117  10 -1.197119E+04 -3.653261E+05 -4.934313E+04  1.350734E+05  4.538819E-10  2.354481E-10
       117  11  3.139675E+04 -2.038312E+05 -6.288028E+03  1.097811E+05 -9.069271E-12 -1.055641E-10
       117  12  6.702929E+04 -4.634388E+04  2.474311E+04  1.301922E+05 -7.011396E-10 -3.946348E-10
       117  13 -5.473352E+03 -3.388294E+05 -4.332855E+04  1.324284E+05 -6.768936E-11  2.070216E-10
       117  14 -3.637887E+02 -3.367714E+05 -3.210955E+04  1.095749E+05  4.115624E-10 -5.842466E-11
       117  15 -3.085361E+03 -3.388416E+05 -3.330030E+04  1.324260E+05 -3.882230E-10 -9.938528E-11
       117  16  1.024461E+03 -3.123321E+05 -3.731401E+04  1.297832E+05  1.025258E-10 -1.449756E-10
       117  17 -3.212538E+04 -4.696946E+05 -5.793191E+04  1.093687E+05 -3.824927E-10  3.150456E-10
       117  18 -7.320521E+04 -6.312576E+05 -9.134794E+04  1.346586E+05 -7.318436E-11  2.590823E-10
       117  19 -1.197115E+04 -3.653259E+05 -4.934290E+04  1.350734E+05  7.196336E+02  1.103998E+04
       117  20  3.139683E+04 -2.038312E+05 -6.287852E+03  1.097812E+05 -8.604066E+03 -4.413346E+03
       117  21  6.702972E+04 -4.634338E+04  2.474443E+04  1.301925E+05 -1.750628E+04 -1.987204E+04
       117  22 -5.473201E+03 -3.388288E+05 -4.332750E+04  1.324284E+05  7.328408E+02  2.365614E+04
       117  23 -3.636937E+02 -3.367713E+05 -3.210930E+04  1.095748E+05 -8.592138E+03  7.646149E+03
       117  24 -3.085013E+03 -3.388415E+05 -3.329959E+04  1.324261E+05 -1.749564E+04 -8.365420E+03
       117  25  1.024815E+03 -3.123307E+05 -3.731154E+04  1.297833E+05  7.459401E+02  3.627284E+04
       117  26 -3.212520E+04 -4.696941E+05 -5.793104E+04  1.093685E+05 -8.580215E+03  1.970312E+04
       117  27 -7.320488E+04 -6.312575E+05 -9.134735E+04  1.346586E+05 -1.748492E+04  3.135893E+03
       118   1  9.826864E+04  6.130863E+04  4.326242E+04  1.419767E+05  2.420309E+04  2.920713E+04
       118   2  1.238746E+05  2.292370E+05  6.275583E+04  8.770924E+04  2.610717E+04  3.225058E+04
       118   3  8.468766E+04  3.805952E+05  6.406886E+04  7.807893E+04  8.707962E+03  3.530512E+04
       118   4  1.425176E+03 -3.426175E+05 -3.686954E+04  1.321788E+05  2.418947E+04  1.387300E+04
       118   5 -1.192572E+04 -3.321239E+05 -5.506731E+04  1.098912E+05  2.611829E+04  4.250134E+04
       118   6 -9.454763E+04 -3.426888E+05 -1.092313E+05  1.322496E+05  8.736224E+03  7.113877E+04
       118   7 -9.542776E+04 -7.463868E+05 -1.170087E+05  1.223873E+05  2.417632E+04 -1.451359E+03
       118   8 -1.477443E+05 -8.931857E+05 -1.729074E+05  1.320528E+05  2.613015E+04  5.274297E+04
       118   9 -2.738091E+05 -1.065485E+06 -2.825621E+05  1.863568E+05  8.770760E+03  1.069308E+05
       118  10  9.826778E+04  6.130755E+04  4.325972E+04  1.419761E+05 -2.858287E-10 -3.557986E-11
       118  11  1.238736E+05  2.292357E+05  6.275259E+04  8.770856E+04 -3.739282E-10 -8.435209E-11
       118  12  8.468725E+04  3.805938E+05  6.406637E+04  7.807869E+04 -8.459744E-11 -9.053426E-11
       118  13  1.424496E+03 -3.426178E+05 -3.687100E+04  1.321785E+05  7.967806E-10  3.188893E-11
       118  14 -1.192694E+04 -3.321260E+05 -5.507198E+04  1.098903E+05  7.882064E-10 -2.165243E-11
       118  15 -9.454907E+04 -3.426943E+05 -1.092410E+05  1.322491E+05 -3.465087E-10 -7.915068E-11
       118  16 -9.542839E+04 -7.463869E+05 -1.170098E+05  1.223873E+05  3.897871E-10 -5.254961E-11
       118  17 -1.477458E+05 -8.931889E+05 -1.729139E+05  1.320517E+05  2.020423E-10 -3.959232E-11
       118  18 -2.738123E+05 -1.065497E+06 -2.825838E+05  1.863561E+05 -2.558864E-10  5.045462E-11
       118  19  9.826864E+04  6.130863E+04  4.326242E+04  1.419767E+05 -2.420309E+04 -2.920713E+04
       118  20  1.238746E+05  2.292370E+05  6.275583E+04  8.770924E+04 -2.610717E+04 -3.225058E+04
       118  21  8.468766E+04  3.805952E+05  6.406886E+04  7.807893E+04 -8.707962E+03 -3.530512E+04
       118  22  1.425176E+03 -3.426175E+05 -3.686954E+04  1.321788E+05 -2.418947E+04 -1.387300E+04
       118  23 -1.192572E+04 -3.321239E+05 -5.506731E+04  1.098912E+05 -2.611829E+04 -4.250134E+04
       118  24 -9.454763E+04 -3.426888E+05 -1.092313E+05  1.322496E+05 -8.736224E+03 -7.113877E+04
       118  25 -9.542776E+04 -7.463868E+05 -1.170087E+05  1.223873E+05 -2.417632E+04  1.451359E+03
       118  26 -1.477443E+05 -8.931857E+05 -1.729074E+05  1.320528E+05 -2.613015E+04 -5.274297E+04
       118  27 -2.738091E+05 -1.065485E+06 -2.825621E+05  1.863568E+05 -8.770760E+03 -1.069308E+05
       119   1  7.854299E+05  5.965286E+05  1.546680E+05  5.373759E+05  8.272312E+04  5.901606E+04
       119   2  7.943935E+05  5.135988E+05  8.812065E+04  5.652487E+05  5.651102E+04  3.162386E+04
       119   3  8.366097E+05  4.692700E+05  5.929292E+04  5.754946E+05  2.851604E+04  6.611866E+03
       119   4  7.514167E+05  4.492078E+05  1.215648E+05  4.635030E+05  6.967194E+04  4.922617E+04
       119   5  7.168464E+05  3.974742E+05  6.076617E+04  4.970394E+05  4.849951E+04  2.561829E+04
       119   6  7.144367E+05  3.832506E+05  3.331880E+04  5.129476E+05  2.554672E+04  4.387382E+03
       119   7  7.174137E+05  3.019256E+05  8.846367E+04  3.896397E+05  5.662119E+04  3.944153E+04
       119   8  6.393074E+05  2.813691E+05  3.341120E+04  4.288427E+05  4.048908E+04  1.961505E+04
       119   9  5.922791E+05  2.972389E+05  7.343272E+03  4.504138E+05  2.257812E+04  2.163439E+03
       119  10  7.854216E+05  5.965230E+05  1.546486E+05  5.373720E+05  4.518026E-10  1.074450E-10
       119  11  7.943898E+05  5.135969E+05  8.811279E+04  5.652473E+05 -4.998397E-11  1.267460E-11
       119  12  8.366088E+05  4.692697E+05  5.929132E+04  5.754945E+05  6.942836E-10 -2.561613E-12
       119  13  7.514109E+05  4.492039E+05  1.215512E+05  4.635003E+05  1.355492E-10 -4.657950E-12
       119  14  7.168437E+05  3.974728E+05  6.076053E+04  4.970384E+05  2.911791E-10 -2.096681E-10
       119  15  7.144360E+05  3.832504E+05  3.331754E+04  5.129475E+05 -1.809924E-10 -1.221894E-10
       119  16  7.174099E+05  3.019231E+05  8.845473E+04  3.896379E+05 -3.958812E-10 -1.800292E-10
       119  17  6.393055E+05  2.813683E+05  3.340740E+04  4.288420E+05 -5.237335E-10 -2.199912E-10
       119  18  5.922786E+05  2.972388E+05  7.342306E+03  4.504137E+05 -5.583597E-10 -3.659344E-10
       119  19  7.854299E+05  5.965286E+05  1.546680E+05  5.373759E+05 -8.272312E+04 -5.901606E+04
       119  20  7.943935E+05  5.135988E+05  8.812065E+04  5.652487E+05 -5.651102E+04 -3.162386E+04
       119  21  8.366097E+05  4.692700E+05  5.929292E+04  5.754946E+05 -2.851604E+04 -6.611866E+03
       119  22  7.514167E+05  4.492078E+05  1.215648E+05  4.635030E+05 -6.967194E+04 -4.922617E+04
       119  23  7.168464E+05  3.974742E+05  6.076617E+04  4.970394E+05 -4.849951E+04 -2.561829E+04
       119  24  7.144367E+05  3.832506E+05  3.331880E+04  5.129476E+05 -2.554672E+04 -4.387382E+03
       119  25  7.174137E+05  3.019256E+05  8.846367E+04  3.896397E+05 -5.662119E+04 -3.944153E+04
       119  26  6.393074E+05  2.813691E+05  3.341120E+04  4.288427E+05 -4.048908E+04 -1.961505E+04
       119  27  5.922791E+05  2.972389E+05  7.343272E+03  4.504138E+05 -2.257812E+04 -2.163439E+03
       120   1  8.349596E+05  4.742404E+05  5.179582E+04  5.787552E+05  2.556266E+04  3.268943E+03
       120   2  8.418629E+05  4.747709E+05  4.178242E+04  5.852098E+05  2.009770E+04 -2.775607E+03
       120   3  8.537856E+05  4.767378E+05  3.805185E+04  5.899890E+05  1.441600E+04 -8.530478E+03
       120   4  7.114773E+05  3.807379E+05  2.526325E+04  5.123450E+05  2.260288E+04  1.051301E+03
       120   5  7.076740E+05  3.776603E+05  1.445696E+04  5.150021E+05  1.775333E+04 -4.532320E+03
       120   6  7.087574E+05  3.758868E+05  9.401483E+03  5.159838E+05  1.268709E+04 -9.826257E+03
       120   7  5.880162E+05  2.872492E+05 -1.268846E+03  4.459523E+05  1.964393E+04 -1.165646E+03
       120   8  5.735085E+05  2.805633E+05 -1.286847E+04  4.448134E+05  1.540966E+04 -6.288487E+03
       120   9  5.637547E+05  2.750490E+05 -1.924943E+04  4.419989E+05  1.095872E+04 -1.112164E+04
       120  10  8.349589E+05  4.742402E+05  5.179457E+04  5.787551E+05 -4.606892E-10 -2.094734E-10
       120  11  8.418625E+05  4.747708E+05  4.178165E+04  5.852099E+05 -3.387275E-10  2.695518E-10
       120  12  8.537853E+05  4.767377E+05  3.805133E+04  5.899891E+05 -2.077585E-10  2.119201E-10
       120  13  7.114767E+05  3.807378E+05  2.526229E+04  5.123449E+05 -9.149570E-10 -1.151873E-10
       120  14  7.076737E+05  3.776602E+05  1.445633E+04  5.150022E+05 -2.532956E-10  2.177090E-10
       120  15  7.087572E+05  3.758866E+05  9.400999E+03  5.159839E+05 -3.652849E-10  3.726965E-10
       120  16  5.880157E+05  2.872491E+05 -1.269573E+03  4.459523E+05 -3.784786E-10 -9.217050E-11
       120  17  5.735082E+05  2.805632E+05 -1.286899E+04  4.448134E+05 -1.385448E-10  1.035324E-10
       120  18  5.637545E+05  2.750489E+05 -1.924989E+04  4.419990E+05 -4.184597E-10  4.062937E-11
       120  19  8.349596E+05  4.742404E+05  5.179582E+04  5.787552E+05 -2.556266E+04 -3.268943E+03
       120  20  8.418629E+05  4.747709E+05  4.178242E+04  5.852098E+05 -2.009770E+04  2.775607E+03
       120  21  8.537856E+05  4.767378E+05  3.805185E+04  5.899890E+05 -1.441600E+04  8.530478E+03
       120  22  7.114773E+05  3.807379E+05  2.526325E+04  5.123450E+05 -2.260288E+04 -1.051301E+03
       120  23  7.076740E+05  3.776603E+05  1.445696E+04  5.150021E+05 -1.775333E+04  4.532320E+03
       120  24  7.087574E+05  3.758868E+05  9.401483E+03  5.159838E+05 -1.268709E+04  9.826257E+03
       120  25  5.880162E+05  2.872492E+05 -1.268846E+03  4.459523E+05 -1.964393E+04  1.165646E+03
       120  26  5.735085E+05  2.805633E+05 -1.286847E+04  4.448134E+05 -1.540966E+04  6.288487E+03
       120  27  5.637547E+05  2.750490E+05 -1.924943E+04  4.419989E+05 -1.095872E+04  1.112164E+04
       121   1  8.584258E+05  4.808226E+05  3.784357E+04  5.928023E+05  1.355278E+04 -9.905586E+03
       121   2  8.657293E+05  4.875143E+05  3.881602E+04  5.974928E+05  1.094740E+04 -1.305047E+04
       121   3  8.758504E+05  4.928742E+05  4.256395E+04  6.015448E+05  8.265048E+03 -1.609270E+04
       121   4  7.085255E+05  3.757145E+05  8.141121E+03  5.158971E+05  1.182325E+04 -1.120194E+04
       121   5  7.071604E+05  3.764422E+05  7.454110E+03  5.161864E+05  9.436596E+03 -1.418313E+04
       121   6  7.085658E+05  3.757902E+05  9.353644E+03  5.158368E+05  6.973075E+03 -1.706154E+04
       121   7  5.586489E+05  2.706184E+05 -2.156313E+04  4.390121E+05  1.009423E+04 -1.249790E+04
       121   8  5.486217E+05  2.653862E+05 -2.390850E+04  4.349043E+05  7.926301E+03 -1.531540E+04
       121   9  5.413187E+05  2.587268E+05 -2.385617E+04  4.301577E+05  5.681590E+03 -1.803001E+04
       121  10  8.584255E+05  4.808224E+05  3.784304E+04  5.928024E+05  2.996652E-11  7.569890E-11
       121  11  8.657291E+05  4.875141E+05  3.881547E+04  5.974930E+05  4.635617E-10  4.420718E-10
       121  12  8.758502E+05  4.928739E+05  4.256333E+04  6.015449E+05  7.901879E-10  3.992080E-10
       121  13  7.085253E+05  3.757143E+05  8.140622E+03  5.158972E+05  1.174954E-10  5.111728E-10
       121  14  7.071602E+05  3.764419E+05  7.453564E+03  5.161865E+05  3.908312E-10  2.531848E-10
       121  15  7.085656E+05  3.757899E+05  9.353005E+03  5.158369E+05  1.919210E-10  4.500481E-12
       121  16  5.586487E+05  2.706182E+05 -2.156361E+04  4.390122E+05  5.208982E-11  4.442122E-10
       121  17  5.486216E+05  2.653859E+05 -2.390906E+04  4.349044E+05  4.572172E-10  3.015171E-10
       121  18  5.413186E+05  2.587265E+05 -2.385684E+04  4.301578E+05 -8.754089E-10 -2.401209E-10
       121  19  8.584258E+05  4.808226E+05  3.784357E+04  5.928023E+05 -1.355278E+04  9.905586E+03
       121  20  8.657293E+05  4.875143E+05  3.881602E+04  5.974928E+05 -1.094740E+04  1.305047E+04
       121  21  8.758504E+05  4.928742E+05  4.256395E+04  6.015448E+05 -8.265048E+03  1.609270E+04
       121  22  7.085255E+05  3.757145E+05  8.141121E+03  5.158971E+05 -1.182325E+04  1.120194E+04
       121  23  7.071604E+05  3.764422E+05  7.454110E+03  5.161864E+05 -9.436596E+03  1.418313E+04
       121  24  7.085658E+05  3.757902E+05  9.353644E+03  5.158368E+05 -6.973075E+03  1.706154E+04
       121  25  5.586489E+05  2.706184E+05 -2.156313E+04  4.390121E+05 -1.009423E+04  1.249790E+04
       121  26  5.486217E+05  2.653862E+05 -2.390850E+04  4.349043E+05 -7.926301E+03  1.531540E+04
       121  27  5.413187E+05  2.587268E+05 -2.385617E+04  4.301577E+05 -5.681590E+03  1.803001E+04
       122   1  8.810112E+05  4.975692E+05  4.577868E+04  6.046438E+05  7.121206E+03 -1.753671E+04
       122   2  8.915673E+05  5.026751E+05  5.528304E+04  6.067238E+05 -1.283261E+03 -2.431968E+04
       122   3  9.080684E+05  5.104612E+05  7.324876E+04  6.068031E+05 -1.013580E+04 -3.050516E+04
       122   4  7.088777E+05  3.760389E+05  1.133321E+04  5.159789E+05  5.829695E+03 -1.850528E+04
       122   5  7.078228E+05  3.780104E+05  1.840585E+04  5.145969E+05 -1.304560E+03 -2.433664E+04
       122   6  7.124387E+05  3.823885E+05  3.284134E+04  5.112142E+05 -8.886825E+03 -2.957040E+04
       122   7  5.367798E+05  2.545278E+05 -2.311320E+04  4.273427E+05  4.538658E+03 -1.947349E+04
       122   8  5.241164E+05  2.533641E+05 -1.847321E+04  4.225005E+05 -1.325850E+03 -2.435360E+04
       122   9  5.168499E+05  2.543332E+05 -7.569131E+03  4.156573E+05 -7.638341E+03 -2.863597E+04
       122  10  8.810111E+05  4.975688E+05  4.577801E+04  6.046439E+05  1.491734E-10 -1.676918E-10
       122  11  8.915671E+05  5.026744E+05  5.528193E+04  6.067238E+05  2.389296E-10  3.101580E-11
       122  12  9.080680E+05  5.104602E+05  7.324682E+04  6.068028E+05 -5.090557E-10  2.580284E-10
       122  13  7.088776E+05  3.760385E+05  1.133250E+04  5.159789E+05  1.259563E-10  1.109301E-10
       122  14  7.078226E+05  3.780098E+05  1.840474E+04  5.145969E+05 -5.029710E-11  3.624353E-10
       122  15  7.124384E+05  3.823876E+05  3.283955E+04  5.112140E+05  1.173210E-10  2.866191E-10
       122  16  5.367796E+05  2.545274E+05 -2.311395E+04  4.273428E+05 -2.253679E-10  3.787231E-10
       122  17  5.241163E+05  2.533634E+05 -1.847433E+04  4.225004E+05  1.073035E-10  2.372700E-10
       122  18  5.168496E+05  2.543323E+05 -7.570780E+03  4.156571E+05 -2.395491E-10  8.449389E-11
       122  19  8.810112E+05  4.975692E+05  4.577868E+04  6.046438E+05 -7.121206E+03  1.753671E+04
       122  20  8.915673E+05  5.026751E+05  5.528304E+04  6.067238E+05  1.283261E+03  2.431968E+04
       122  21  9.080684E+05  5.104612E+05  7.324876E+04  6.068031E+05  1.013580E+04  3.050516E+04
       122  22  7.088777E+05  3.760389E+05  1.133321E+04  5.159789E+05 -5.829695E+03  1.850528E+04
       122  23  7.078228E+05  3.780104E+05  1.840585E+04  5.145969E+05  1.304560E+03  2.433664E+04
       122  24  7.124387E+05  3.823885E+05  3.284134E+04  5.112142E+05  8.886825E+03  2.957040E+04
       122  25  5.367798E+05  2.545278E+05 -2.311320E+04  4.273427E+05 -4.538658E+03  1.947349E+04
       122  26  5.241164E+05  2.533641E+05 -1.847321E+04  4.225005E+05  1.325850E+03  2.435360E+04
       122  27  5.168499E+05  2.543332E+05 -7.569131E+03  4.156573E+05  7.638341E+03  2.863597E+04
       123   1  9.125386E+05  5.231673E+05  8.616333E+04  6.119714E+05 -1.481129E+04 -3.376396E+04
       123   2  9.720021E+05  5.003475E+05  1.304019E+05  5.805443E+05 -6.038265E+04 -6.307001E+04
       123   3  1.074607E+06  5.304151E+05  2.275809E+05  5.263795E+05 -1.097137E+05 -8.736459E+04
       123   4  7.161716E+05  3.858306E+05  4.349791E+04  5.120519E+05 -1.353995E+04 -3.281212E+04
       123   5  7.200306E+05  4.037934E+05  7.964521E+04  4.909724E+05 -4.847903E+04 -5.415753E+04
       123   6  7.647319E+05  4.723496E+05  1.595304E+05  4.471545E+05 -8.717146E+04 -7.049589E+04
       123   7  5.198541E+05  2.485203E+05  8.319946E+02  4.121710E+05 -1.226917E+04 -3.186070E+04
       123   8  4.681410E+05  3.072522E+05  2.888892E+04  4.014334E+05 -3.658229E+04 -4.524727E+04
       123   9  4.549854E+05  4.142968E+05  9.148383E+04  3.679525E+05 -6.464556E+04 -5.362833E+04
       123  10  9.125381E+05  5.231661E+05  8.616078E+04  6.119710E+05 -2.965916E-10 -8.940477E-11
       123  11  9.719971E+05  5.003422E+05  1.303876E+05  5.805412E+05  3.879832E-10  2.176142E-10
       123  12  1.074592E+06  5.304036E+05  2.275440E+05  5.263718E+05  3.225632E-10  3.650061E-10
       123  13  7.161711E+05  3.858294E+05  4.349554E+04  5.120515E+05 -1.267282E-10  1.886849E-10
       123  14  7.200273E+05  4.037897E+05  7.963530E+04  4.909703E+05 -6.271051E-10  1.898265E-10
       123  15  7.647225E+05  4.723422E+05  1.595069E+05  4.471496E+05 -1.856723E-10  8.535937E-12
       123  16  5.198536E+05  2.485192E+05  8.298059E+02  4.121707E+05 -1.637407E-10  4.864941E-10
       123  17  4.681390E+05  3.072496E+05  2.888257E+04  4.014320E+05 -1.178676E-09  9.352957E-11
       123  18  4.549802E+05  4.142926E+05  9.147059E+04  3.679497E+05 -7.965116E-10 -2.207685E-10
       123  19  9.125386E+05  5.231673E+05  8.616333E+04  6.119714E+05  1.481129E+04  3.376396E+04
       123  20  9.720021E+05  5.003475E+05  1.304019E+05  5.805443E+05  6.038265E+04  6.307001E+04
       123  21  1.074607E+06  5.304151E+05  2.275809E+05  5.263795E+05  1.097137E+05  8.736459E+04
       123  22  7.161716E+05  3.858306E+05  4.349791E+04  5.120519E+05  1.353995E+04  3.281212E+04
       123  23  7.200306E+05  4.037934E+05  7.964521E+04  4.909724E+05  4.847903E+04  5.415753E+04
       123  24  7.647319E+05  4.723496E+05  1.595304E+05  4.471545E+05  8.717146E+04  7.049589E+04
       123  25  5.198541E+05  2.485203E+05  8.319946E+02  4.121710E+05  1.226917E+04  3.186070E+04
       123  26  4.681410E+05  3.072522E+05  2.888892E+04  4.014334E+05  3.658229E+04  4.524727E+04
       123  27  4.549854E+05  4.142968E+05  9.148383E+04  3.679525E+05  6.464556E+04  5.362833E+04
       124   1  1.238923E+06  1.901141E+05  1.898837E+05  1.688168E+05  9.634236E+04 -4.536043E+03
       124   2  1.148855E+06  1.109071E+05  1.097915E+05  1.348962E+05  5.184882E+04 -1.445928E+04
       124   3  1.074352E+06  7.080118E+04  6.840353E+04  1.138498E+05  7.363057E+03 -1.541769E+04
       124   4  8.120967E+05  8.488811E+04  9.023054E+04  1.110349E+05  6.270971E+04 -4.553054E+03
       124   5  8.061543E+05  2.970532E+04  4.619267E+04  1.046089E+05  3.916533E+04 -1.446595E+04
       124   6  8.121457E+05  1.000217E+04  2.634023E+04  1.110530E+05  1.562149E+04 -1.541566E+04
       124   7  3.854480E+05 -2.033761E+04 -9.428970E+03  5.329303E+04  2.909998E+04 -4.563824E+03
       124   8  4.635689E+05 -5.149965E+04 -1.741001E+04  7.433880E+04  2.648865E+04 -1.447138E+04
       124   9  5.500077E+05 -5.080022E+04 -1.572463E+04  1.082575E+05  2.387656E+04 -1.541370E+04
       124  10  1.238913E+06  1.901115E+05  1.898663E+05  1.688171E+05 -2.267670E-10  6.777245E-11
       124  11  1.148852E+06  1.109061E+05  1.097861E+05  1.348968E+05  3.759328E-11 -4.984325E-11
       124  12  1.074352E+06  7.080091E+04  6.840298E+04  1.138499E+05  2.880718E-10 -1.989887E-10
       124  13  8.120924E+05  8.488704E+04  9.022312E+04  1.110352E+05 -7.712209E-11 -2.591598E-11
       124  14  8.061526E+05  2.970469E+04  4.618940E+04  1.046094E+05  2.823674E-10 -3.698396E-11
       124  15  8.121454E+05  1.000185E+04  2.633933E+04  1.110532E+05  2.677200E-10 -1.446677E-10
       124  16  3.854471E+05 -2.033786E+04 -9.430600E+03  5.329313E+04  5.039292E-10 -4.399928E-11
       124  17  4.635681E+05 -5.150006E+04 -1.741172E+04  7.433911E+04 -9.570978E-11  5.752266E-13
       124  18  5.500070E+05 -5.080062E+04 -1.572615E+04  1.082578E+05  3.439993E-10  6.343386E-11
       124  19  1.238923E+06  1.901141E+05  1.898837E+05  1.688168E+05 -9.634236E+04  4.536043E+03
       124  20  1.148855E+06  1.109071E+05  1.097915E+05  1.348962E+05 -5.184882E+04  1.445928E+04
       124  21  1.074352E+06  7.080118E+04  6.840353E+04  1.138498E+05 -7.363057E+03  1.541769E+04
       124  22  8.120967E+05  8.488811E+04  9.023054E+04  1.110349E+05 -6.270971E+04  4.553054E+03
       124  23  8.061543E+05  2.970532E+04  4.619267E+04  1.046089E+05 -3.916533E+04  1.446595E+04
       124  24  8.121457E+05  1.000217E+04  2.634023E+04  1.110530E+05 -1.562149E+04  1.541566E+04
       124  25  3.854480E+05 -2.033761E+04 -9.428970E+03  5.329303E+04 -2.909998E+04  4.563824E+03
       124  26  4.635689E+05 -5.149965E+04 -1.741001E+04  7.433880E+04 -2.648865E+04  1.447138E+04
       124  27  5.500077E+05 -5.080022E+04 -1.572463E+04  1.082575E+05 -2.387656E+04  1.541370E+04
       125   1  1.020625E+06  5.606181E+04  5.371797E+04  1.157469E+05  3.245731E+03 -1.295630E+04
       125   2  9.372508E+05  3.190414E+04  3.319684E+04  1.065723E+05 -6.339962E+03 -8.666933E+03
       125   3  8.562261E+05  1.215347E+04  2.000930E+04  1.109183E+05 -1.592505E+04 -3.337347E+03
       125   4  8.099248E+05  7.374181E+03  2.077530E+04  1.111974E+05  1.205347E+04 -1.295373E+04
       125   5  8.089680E+05  2.495563E+03  1.431616E+04  1.044380E+05  4.898329E+03 -8.663110E+03
       125   6  8.099347E+05  1.603731E+03  1.350611E+04  1.111991E+05 -2.257352E+03 -3.332236E+03
       125   7  5.992691E+05 -4.131551E+04 -1.216812E+04  1.066494E+05  2.085834E+04 -1.295128E+04
       125   8  6.807021E+05 -2.691370E+04 -4.564336E+03  1.023042E+05  1.613440E+04 -8.659365E+03
       125   9  7.636458E+05 -8.946008E+03  7.003585E+03  1.114800E+05  1.140938E+04 -3.327113E+03
       125  10  1.020625E+06  5.606163E+04  5.371763E+04  1.157470E+05 -1.305926E-10 -2.865403E-10
       125  11  9.372507E+05  3.190405E+04  3.319663E+04  1.065723E+05  2.663669E-10 -9.519372E-11
       125  12  8.562259E+05  1.215339E+04  2.000881E+04  1.109182E+05 -4.057634E-10 -1.770430E-10
       125  13  8.099246E+05  7.373961E+03  2.077471E+04  1.111975E+05  4.399224E-10 -2.333203E-10
       125  14  8.089680E+05  2.495476E+03  1.431598E+04  1.044381E+05  9.882687E-10  2.639578E-10
       125  15  8.099347E+05  1.603718E+03  1.350608E+04  1.111991E+05  2.300524E-10 -7.002265E-11
       125  16  5.992686E+05 -4.131581E+04 -1.216926E+04  1.066496E+05  6.457573E-10  1.474728E-10
       125  17  6.807018E+05 -2.691385E+04 -4.564966E+03  1.023043E+05  4.391928E-10  1.288642E-10
       125  18  7.636457E+05 -8.946055E+03  7.003319E+03  1.114800E+05 -3.176001E-10 -8.837888E-11
       125  19  1.020625E+06  5.606181E+04  5.371797E+04  1.157469E+05 -3.245731E+03  1.295630E+04
       125  20  9.372508E+05  3.190414E+04  3.319684E+04  1.065723E+05  6.339962E+03  8.666933E+03
       125  21  8.562261E+05  1.215347E+04  2.000930E+04  1.109183E+05  1.592505E+04  3.337347E+03
       125  22  8.099248E+05  7.374181E+03  2.077530E+04  1.111974E+05 -1.205347E+04  1.295373E+04
       125  23  8.089680E+05  2.495563E+03  1.431616E+04  1.044380E+05 -4.898329E+03  8.663110E+03
       125  24  8.099347E+05  1.603731E+03  1.350611E+04  1.111991E+05  2.257352E+03  3.332236E+03
       125  25  5.992691E+05 -4.131551E+04 -1.216812E+04  1.066494E+05 -2.085834E+04  1.295128E+04
       125  26  6.807021E+05 -2.691370E+04 -4.564336E+03  1.023042E+05 -1.613440E+04  8.659365E+03
       125  27  7.636458E+05 -8.946008E+03  7.003585E+03  1.114800E+05 -1.140938E+04  3.327113E+03
       126   1  8.054840E+05  6.510810E+02  1.382048E+04  1.116358E+05 -1.831312E+04  1.522035E+02
       126   2  7.219424E+05 -1.544514E+04  7.990397E+03  1.005277E+05 -2.678689E+04  5.547409E+03
       126   3  6.411104E+05 -2.512455E+04  9.275995E+03  1.029474E+05 -3.525938E+04  1.002514E+04
       126   4  8.101905E+05  1.777940E+03  1.475383E+04  1.112007E+05 -4.639615E+03  1.573841E+02
       126   5  8.086480E+05  4.527800E+03  2.120876E+04  1.044352E+05 -1.525777E+04  5.551329E+03
       126   6  8.101786E+05  1.406567E+04  3.626532E+04  1.111969E+05 -2.587568E+04  1.002775E+04
       126   7  8.148975E+05  2.904899E+03  1.568788E+04  1.107656E+05  9.033993E+03  1.625455E+02
       126   8  8.953615E+05  2.450051E+04  3.442747E+04  1.083434E+05 -3.727099E+03  5.555394E+03
       126   9  9.792756E+05  5.325477E+04  6.325427E+04  1.194487E+05 -1.648952E+04  1.003060E+04
       126  10  8.054836E+05  6.509911E+02  1.381985E+04  1.116358E+05 -7.616094E-10 -1.264620E-12
       126  11  7.219416E+05 -1.544537E+04  7.988992E+03  1.005278E+05 -1.609443E-10 -2.891173E-11
       126  12  6.411090E+05 -2.512499E+04  9.273472E+03  1.029477E+05  1.089214E-10 -4.770703E-11
       126  13  8.101905E+05  1.777934E+03  1.475379E+04  1.112007E+05  2.704298E-10 -7.901159E-11
       126  14  8.086478E+05  4.527705E+03  2.120826E+04  1.044353E+05  2.110462E-10 -1.844180E-10
       126  15  8.101779E+05  1.406539E+04  3.626388E+04  1.111971E+05 -2.026428E-10 -2.746443E-10
       126  16  8.148974E+05  2.904877E+03  1.568773E+04  1.107656E+05  3.392393E-10 -8.354906E-11
       126  17  8.953615E+05  2.450048E+04  3.442738E+04  1.083434E+05  4.376175E-11  1.841790E-10
       126  18  9.792753E+05  5.325459E+04  6.325357E+04  1.194488E+05  1.353650E-10  6.624312E-11
       126  19  8.054840E+05  6.510810E+02  1.382048E+04  1.116358E+05  1.831312E+04 -1.522035E+02
       126  20  7.219424E+05 -1.544514E+04  7.990397E+03  1.005277E+05  2.678689E+04 -5.547409E+03
       126  21  6.411104E+05 -2.512455E+04  9.275995E+03  1.029474E+05  3.525938E+04 -1.002514E+04
       126  22  8.101905E+05  1.777940E+03  1.475383E+04  1.112007E+05  4.639615E+03 -1.573841E+02
       126  23  8.086480E+05  4.527800E+03  2.120876E+04  1.044352E+05  1.525777E+04 -5.551329E+03
       126  24  8.101786E+05  1.406567E+04  3.626532E+04  1.111969E+05  2.587568E+04 -1.002775E+04
       126  25  8.148975E+05  2.904899E+03  1.568788E+04  1.107656E+05 -9.033993E+03 -1.625455E+02
       126  26  8.953615E+05  2.450051E+04  3.442747E+04  1.083434E+05  3.727099E+03 -5.555394E+03
       126  27  9.792756E+05  5.325477E+04  6.325427E+04  1.194487E+05  1.648952E+04 -1.003060E+04
       127   1  5.940438E+05 -3.216214E+04  1.188417E+04  1.060506E+05 -4.104893E+04  1.260760E+04
       127   2  5.020836E+05 -1.478052E+04  3.054805E+04  4.711725E+04 -6.640665E+04  1.234984E+04
       127   3  4.295288E+05  6.695194E+04  8.180420E+04  1.129746E+03 -9.175960E+04  3.963022E+03
       127   4  8.145322E+05  1.908644E+04  4.779447E+04  1.110671E+05 -3.216482E+04  1.260988E+04
       127   5  8.031583E+05  5.670961E+04  8.699108E+04  1.045787E+05 -7.652045E+04  1.234021E+04
       127   6  8.144567E+05  1.619496E+05  1.719498E+05  1.110304E+05 -1.208756E+05  3.939048E+03
       127   7  1.035069E+06  7.033268E+04  8.370371E+04  1.160853E+05 -2.327766E+04  1.261230E+04
       127   8  1.104328E+06  1.282069E+05  1.434323E+05  1.620687E+05 -8.663903E+04  1.232873E+04
       127   9  1.199549E+06  2.569826E+05  2.620949E+05  2.209997E+05 -1.500096E+05  3.904787E+03
       127  10  5.940419E+05 -3.216277E+04  1.188071E+04  1.060510E+05 -4.535963E-10 -1.909520E-10
       127  11  5.020789E+05 -1.478186E+04  3.053948E+04  4.711791E+04 -2.755550E-10 -9.803192E-11
       127  12  4.295197E+05  6.694967E+04  8.178836E+04  1.130038E+03  3.485397E-10  2.364986E-12
       127  13  8.145310E+05  1.908599E+04  4.779223E+04  1.110674E+05  1.443381E-10  8.043342E-11
       127  14  8.031520E+05  5.670788E+04  8.697981E+04  1.045795E+05  2.240491E-12 -1.216431E-10
       127  15  8.144410E+05  1.619457E+05  1.719223E+05  1.110308E+05 -2.218123E-10  4.440197E-11
       127  16  1.035068E+06  7.033236E+04  8.370240E+04  1.160856E+05 -8.304725E-12 -6.736586E-11
       127  17  1.104320E+06  1.282048E+05  1.434180E+05  1.620696E+05  9.520709E-11  1.909164E-11
       127  18  1.199525E+06  2.569765E+05  2.620527E+05  2.210001E+05  4.605174E-10  1.172114E-10
       127  19  5.940438E+05 -3.216214E+04  1.188417E+04  1.060506E+05  4.104893E+04 -1.260760E+04
       127  20  5.020836E+05 -1.478052E+04  3.054805E+04  4.711725E+04  6.640665E+04 -1.234984E+04
       127  21  4.295288E+05  6.695194E+04  8.180420E+04  1.129746E+03  9.175960E+04 -3.963022E+03
       127  22  8.145322E+05  1.908644E+04  4.779447E+04  1.110671E+05  3.216482E+04 -1.260988E+04
       127  23  8.031583E+05  5.670961E+04  8.699108E+04  1.045787E+05  7.652045E+04 -1.234021E+04
       127  24  8.144567E+05  1.619496E+05  1.719498E+05  1.110304E+05  1.208756E+05 -3.939048E+03
       127  25  1.035069E+06  7.033268E+04  8.370371E+04  1.160853E+05  2.327766E+04 -1.261230E+04
       127  26  1.104328E+06  1.282069E+05  1.434323E+05  1.620687E+05  8.663903E+04 -1.232873E+04
       127  27  1.199549E+06  2.569826E+05  2.620949E+05  2.209997E+05  1.500096E+05 -3.904787E+03
       128   1 -1.879307E+05 -5.318430E+05 -1.952455E+05  5.109624E+04 -2.542782E+03 -1.345054E+05
       128   2 -9.313655E+04 -5.618616E+05 -1.138201E+05  3.264984E+03 -9.748230E+03 -8.456010E+04
       128   3 -6.626679E+04 -6.153617E+05 -8.190087E+04 -5.172947E+04 -1.462893E+04 -3.461575E+04
       128   4 -1.579237E+05 -4.088695E+05 -1.683126E+05 -5.610311E+04 -2.521918E+03 -1.151314E+05
       128   5 -5.497551E+04 -3.975818E+05 -8.742292E+04 -5.251911E+04 -9.741780E+03 -7.057719E+04
       128   6 -1.901665E+04 -4.088454E+05 -5.229321E+04 -5.609916E+04 -1.462889E+04 -2.602174E+04
       128   7 -1.278744E+05 -2.858563E+05 -1.413730E+05 -1.633240E+05 -2.507753E+03 -9.575369E+04
       128   8 -1.680403E+04 -2.332680E+05 -6.102403E+04 -1.083185E+05 -9.737846E+03 -5.659072E+04
       128   9  2.823166E+04 -2.022858E+05 -2.268590E+04 -6.047036E+04 -1.462898E+04 -1.742499E+04
       128  10 -1.879355E+05 -5.318625E+05 -1.952795E+05  5.109596E+04  1.567288E-10  1.906997E-10
       128  11 -9.313858E+04 -5.618693E+05 -1.138338E+05  3.264320E+03  5.930156E-10  3.190568E-11
       128  12 -6.626734E+04 -6.153630E+05 -8.190353E+04 -5.172988E+04  4.467156E-10 -1.776963E-10
       128  13 -1.579273E+05 -4.088837E+05 -1.683375E+05 -5.610334E+04 -2.669327E-10  9.345024E-12
       128  14 -5.497695E+04 -3.975871E+05 -8.743247E+04 -5.251966E+04 -4.684442E-10 -5.060143E-11
       128  15 -1.901706E+04 -4.088462E+05 -5.229488E+04 -5.609947E+04 -3.848951E-10  1.113106E-10
       128  16 -1.278769E+05 -2.858661E+05 -1.413902E+05 -1.633242E+05 -5.112143E-10 -2.369083E-10
       128  17 -1.680499E+04 -2.332714E+05 -6.103023E+04 -1.083189E+05 -6.931426E-10  1.341548E-11
       128  18  2.823135E+04 -2.022861E+05 -2.268688E+04 -6.047056E+04 -6.256616E-11  1.762061E-10
       128  19 -1.879307E+05 -5.318430E+05 -1.952455E+05  5.109624E+04  2.542782E+03  1.345054E+05
       128  20 -9.313655E+04 -5.618616E+05 -1.138201E+05  3.264984E+03  9.748230E+03  8.456010E+04
       128  21 -6.626679E+04 -6.153617E+05 -8.190087E+04 -5.172947E+04  1.462893E+04  3.461575E+04
       128  22 -1.579237E+05 -4.088695E+05 -1.683126E+05 -5.610311E+04  2.521918E+03  1.151314E+05
       128  23 -5.497551E+04 -3.975818E+05 -8.742292E+04 -5.251911E+04  9.741780E+03  7.057719E+04
       128  24 -1.901665E+04 -4.088454E+05 -5.229321E+04 -5.609916E+04  1.462889E+04  2.602174E+04
       128  25 -1.278744E+05 -2.858563E+05 -1.413730E+05 -1.633240E+05  2.507753E+03  9.575369E+04
       128  26 -1.680403E+04 -2.332680E+05 -6.102403E+04 -1.083185E+05  9.737846E+03  5.659072E+04
       128  27  2.823166E+04 -2.022858E+05 -2.268590E+04 -6.047036E+04  1.462898E+04  1.742499E+04
       129   1 -6.765428E+04 -6.373302E+05 -7.609753E+04 -4.793073E+04 -1.673119E+04 -2.718452E+04
       129   2 -7.067913E+04 -6.761474E+05 -7.400738E+04 -5.234747E+04 -1.965291E+04 -6.280295E+03
       129   3 -8.640145E+04 -7.208564E+05 -8.870818E+04 -6.367522E+04 -2.114444E+04  1.462286E+04
       129   4 -1.458414E+04 -4.050191E+05 -4.320337E+04 -5.604388E+04 -1.673073E+04 -1.877904E+04
       129   5 -8.114319E+03 -4.023640E+05 -3.513842E+04 -5.258877E+04 -1.965216E+04 -1.177638E+03
       129   6 -1.376524E+04 -4.050266E+05 -4.156577E+04 -5.604501E+04 -2.114319E+04  1.642400E+04
       129   7  3.848386E+04 -1.726530E+05 -1.030966E+04 -6.416020E+04 -1.673050E+04 -1.037055E+04
       129   8  5.444712E+04 -1.285046E+05  3.729574E+03 -5.283017E+04 -1.965141E+04  3.927175E+03
       129   9  5.886647E+04 -8.909631E+04  5.574766E+03 -4.841076E+04 -2.114190E+04  1.822602E+04
       129  10 -6.765478E+04 -6.373310E+05 -7.609945E+04 -4.793109E+04 -8.176109E-11 -3.066812E-10
       129  11 -7.067955E+04 -6.761476E+05 -7.400818E+04 -5.234756E+04  4.608944E-11  2.416436E-10
       129  12 -8.640198E+04 -7.208568E+05 -8.870942E+04 -6.367497E+04 -1.145953E-10  7.092789E-10
       129  13 -1.458454E+04 -4.050195E+05 -4.320456E+04 -5.604413E+04 -6.059789E-10  8.596224E-11
       129  14 -8.114734E+03 -4.023641E+05 -3.513915E+04 -5.258878E+04 -1.621757E-10  1.524006E-10
       129  15 -1.376580E+04 -4.050270E+05 -4.156712E+04 -5.604473E+04 -1.997239E-10  7.962979E-11
       129  16  3.848353E+04 -1.726532E+05 -1.031038E+04 -6.416034E+04 -2.142549E-10  3.075343E-10
       129  17  5.444670E+04 -1.285047E+05  3.728819E+03 -5.283011E+04 -2.276851E-11 -9.831916E-11
       129  18  5.886590E+04 -8.909678E+04  5.573302E+03 -4.841045E+04 -3.009289E-11 -6.772994E-10
       129  19 -6.765428E+04 -6.373302E+05 -7.609753E+04 -4.793073E+04  1.673119E+04  2.718452E+04
       129  20 -7.067913E+04 -6.761474E+05 -7.400738E+04 -5.234747E+04  1.965291E+04  6.280295E+03
       129  21 -8.640145E+04 -7.208564E+05 -8.870818E+04 -6.367522E+04  2.114444E+04 -1.462286E+04
       129  22 -1.458414E+04 -4.050191E+05 -4.320337E+04 -5.604388E+04  1.673073E+04  1.877904E+04
       129  23 -8.114319E+03 -4.023640E+05 -3.513842E+04 -5.258877E+04  1.965216E+04  1.177638E+03
       129  24 -1.376524E+04 -4.050266E+05 -4.156577E+04 -5.604501E+04  2.114319E+04 -1.642400E+04
       129  25  3.848386E+04 -1.726530E+05 -1.030966E+04 -6.416020E+04  1.673050E+04  1.037055E+04
       129  26  5.444712E+04 -1.285046E+05  3.729574E+03 -5.283017E+04  1.965141E+04 -3.927175E+03
       129  27  5.886647E+04 -8.909631E+04  5.574766E+03 -4.841076E+04  2.114190E+04 -1.822602E+04
       130   1 -9.690209E+04 -7.507938E+05 -1.023865E+05 -5.998054E+04 -2.184366E+04  2.207294E+04
       130   2 -1.415148E+05 -7.802878E+05 -1.504313E+05 -1.048110E+05 -1.799379E+04  8.418096E+04
       130   3 -2.521753E+05 -8.343790E+05 -2.554437E+05 -1.558592E+05 -5.340290E+03  1.462789E+05
       130   4 -1.786101E+04 -4.085252E+05 -4.968304E+04 -5.589424E+04 -2.184231E+04  2.336241E+04
       130   5 -5.129525E+04 -3.980175E+05 -8.191641E+04 -5.277807E+04 -1.798747E+04  6.510813E+04
       130   6 -1.472252E+05 -4.085623E+05 -1.569558E+05 -5.588496E+04 -5.321896E+03  1.068504E+05
       130   7  6.117445E+04 -6.613937E+04  3.017869E+03 -5.180559E+04 -2.184095E+04  2.465256E+04
       130   8  3.892661E+04 -1.559789E+04 -1.340432E+04 -7.121752E+02 -1.798435E+04  4.602387E+04
       130   9 -4.224948E+04  1.744704E+04 -5.846884E+04  4.415841E+04 -5.316226E+03  6.739498E+04
       130  10 -9.690273E+04 -7.507944E+05 -1.023884E+05 -5.998015E+04 -7.460636E-11 -8.317057E-10
       130  11 -1.415171E+05 -7.802955E+05 -1.504452E+05 -1.048098E+05 -6.917858E-10 -1.199181E-10
       130  12 -2.521810E+05 -8.344020E+05 -2.554841E+05 -1.558585E+05 -1.254800E-10  8.079553E-10
       130  13 -1.786167E+04 -4.085259E+05 -4.968496E+04 -5.589383E+04  5.108081E-10 -6.739365E-11
       130  14 -5.129673E+04 -3.980221E+05 -8.192499E+04 -5.277713E+04 -9.243252E-10  6.747596E-11
       130  15 -1.472283E+05 -4.085745E+05 -1.569774E+05 -5.588451E+04  2.774923E-10 -8.613979E-11
       130  16  6.117378E+04 -6.614015E+04  3.015830E+03 -5.180515E+04 -4.669360E-10  7.989793E-10
       130  17  3.892569E+04 -1.560025E+04 -1.340891E+04 -7.115086E+02  1.536537E-10  1.817036E-10
       130  18 -4.225073E+04  1.744215E+04 -5.847742E+04  4.415870E+04 -4.288667E-10 -8.431858E-10
       130  19 -9.690209E+04 -7.507938E+05 -1.023865E+05 -5.998054E+04  2.184366E+04 -2.207294E+04
       130  20 -1.415148E+05 -7.802878E+05 -1.504313E+05 -1.048110E+05  1.799379E+04 -8.418096E+04
       130  21 -2.521753E+05 -8.343790E+05 -2.554437E+05 -1.558592E+05  5.340290E+03 -1.462789E+05
       130  22 -1.786101E+04 -4.085252E+05 -4.968304E+04 -5.589424E+04  2.184231E+04 -2.336241E+04
       130  23 -5.129525E+04 -3.980175E+05 -8.191641E+04 -5.277807E+04  1.798747E+04 -6.510813E+04
       130  24 -1.472252E+05 -4.085623E+05 -1.569558E+05 -5.588496E+04  5.321896E+03 -1.068504E+05
       130  25  6.117445E+04 -6.613937E+04  3.017869E+03 -5.180559E+04  2.184095E+04 -2.465256E+04
       130  26  3.892661E+04 -1.559789E+04 -1.340432E+04 -7.121752E+02  1.798435E+04 -4.602387E+04
       130  27 -4.224948E+04  1.744704E+04 -5.846884E+04  4.415841E+04  5.316226E+03 -6.739498E+04
       131   1  2.491553E+05  1.556142E+05  2.359913E+03  1.980647E+05  5.553013E+03  5.897738E+03
       131   2  2.534262E+05  1.406507E+05 -4.180079E+03  2.039959E+05  2.001484E+03  7.510929E+03
       131   3  2.633818E+05  1.322257E+05 -7.105128E+03  2.064354E+05 -3.035849E+02  7.462220E+03
       131   4  3.385753E+05  1.924934E+05  2.565025E+04  2.302234E+05  1.363057E+04  1.195598E+04
       131   5  3.314642E+05  1.819496E+05  1.287997E+04  2.371218E+05  6.317043E+03  1.074751E+04
       131   6  3.308526E+05  1.787595E+05  6.987991E+03  2.405286E+05  2.499939E+02  7.877288E+03
       131   7  4.280049E+05  2.293741E+05  4.894053E+04  2.623862E+05  2.170978E+04  1.801480E+04
       131   8  4.095088E+05  2.232501E+05  2.993963E+04  2.702516E+05  1.063331E+04  1.398444E+04
       131   9  3.983275E+05  2.252950E+05  2.108047E+04  2.746256E+05  8.036420E+02  8.292406E+03
       131  10  2.491552E+05  1.556141E+05  2.359790E+03  1.980646E+05  6.379379E-11 -1.096877E-10
       131  11  2.534262E+05  1.406506E+05 -4.180193E+03  2.039959E+05  9.230504E-10  1.365687E-10
       131  12  2.633818E+05  1.322257E+05 -7.105233E+03  2.064354E+05  1.203418E-09  2.406922E-10
       131  13  3.385750E+05  1.924932E+05  2.564963E+04  2.302232E+05 -5.418952E-11 -7.417081E-11
       131  14  3.314641E+05  1.819494E+05  1.287967E+04  2.371217E+05 -1.414575E-10  1.224240E-10
       131  15  3.308526E+05  1.787594E+05  6.987875E+03  2.405286E+05  1.313684E-10 -1.669830E-10
       131  16  4.280043E+05  2.293737E+05  4.893904E+04  2.623859E+05  3.189039E-10  1.998972E-10
       131  17  4.095086E+05  2.232499E+05  2.993905E+04  2.702515E+05 -6.789032E-12  4.195141E-11
       131  18  3.983275E+05  2.252949E+05  2.108034E+04  2.746256E+05 -9.322511E-10 -4.899514E-10
       131  19  2.491553E+05  1.556142E+05  2.359913E+03  1.980647E+05 -5.553013E+03 -5.897738E+03
       131  20  2.534262E+05  1.406507E+05 -4.180079E+03  2.039959E+05 -2.001484E+03 -7.510929E+03
       131  21  2.633818E+05  1.322257E+05 -7.105128E+03  2.064354E+05  3.035849E+02 -7.462220E+03
       131  22  3.385753E+05  1.924934E+05  2.565025E+04  2.302234E+05 -1.363057E+04 -1.195598E+04
       131  23  3.314642E+05  1.819496E+05  1.287997E+04  2.371218E+05 -6.317043E+03 -1.074751E+04
       131  24  3.308526E+05  1.787595E+05  6.987991E+03  2.405286E+05 -2.499939E+02 -7.877288E+03
       131  25  4.280049E+05  2.293741E+05  4.894053E+04  2.623862E+05 -2.170978E+04 -1.801480E+04
       131  26  4.095088E+05  2.232501E+05  2.993963E+04  2.702516E+05 -1.063331E+04 -1.398444E+04
       131  27  3.983275E+05  2.252950E+05  2.108047E+04  2.746256E+05 -8.036420E+02 -8.292406E+03
       132   1  2.642528E+05  1.335932E+05 -8.020636E+03  2.075899E+05 -1.012208E+03  7.042797E+03
       132   2  2.670577E+05  1.347257E+05 -9.109947E+03  2.096430E+05 -1.751508E+03  6.654177E+03
       132   3  2.710550E+05  1.358172E+05 -9.453790E+03  2.112459E+05 -2.330844E+03  6.052246E+03
       132   4  3.302174E+05  1.780658E+05  5.232531E+03  2.405092E+05 -5.302011E+02  7.404175E+03
       132   5  3.292447E+05  1.774574E+05  2.852297E+03  2.411669E+05 -1.752407E+03  6.653389E+03
       132   6  3.295690E+05  1.769126E+05  1.636400E+03  2.413744E+05 -2.814664E+03  5.689299E+03
       132   7  3.961873E+05  2.225410E+05  1.848557E+04  2.734325E+05 -4.812623E+01  7.765602E+03
       132   8  3.914371E+05  2.201920E+05  1.481472E+04  2.726949E+05 -1.753305E+03  6.652602E+03
       132   9  3.880887E+05  2.180113E+05  1.272703E+04  2.715070E+05 -3.298556E+03  5.326297E+03
       132  10  2.642528E+05  1.335932E+05 -8.020731E+03  2.075899E+05  1.127805E-10 -2.992308E-10
       132  11  2.670577E+05  1.347256E+05 -9.110036E+03  2.096430E+05  3.043081E-10  1.354226E-10
       132  12  2.710550E+05  1.358172E+05 -9.453869E+03  2.112459E+05  1.188603E-09  2.183538E-10
       132  13  3.302174E+05  1.780658E+05  5.232427E+03  2.405092E+05  7.028004E-11 -1.580647E-10
       132  14  3.292447E+05  1.774573E+05  2.852208E+03  2.411669E+05  2.901493E-10 -9.339970E-11
       132  15  3.295690E+05  1.769126E+05  1.636324E+03  2.413744E+05  2.785471E-11 -2.686278E-10
       132  16  3.961873E+05  2.225409E+05  1.848546E+04  2.734325E+05  6.304970E-10  7.616725E-11
       132  17  3.914371E+05  2.201920E+05  1.481464E+04  2.726949E+05 -3.959539E-10 -1.987745E-10
       132  18  3.880887E+05  2.180113E+05  1.272696E+04  2.715070E+05 -9.166165E-10 -8.699194E-10
       132  19  2.642528E+05  1.335932E+05 -8.020636E+03  2.075899E+05  1.012208E+03 -7.042797E+03
       132  20  2.670577E+05  1.347257E+05 -9.109947E+03  2.096430E+05  1.751508E+03 -6.654177E+03
       132  21  2.710550E+05  1.358172E+05 -9.453790E+03  2.112459E+05  2.330844E+03 -6.052246E+03
       132  22  3.302174E+05  1.780658E+05  5.232531E+03  2.405092E+05  5.302011E+02 -7.404175E+03
       132  23  3.292447E+05  1.774574E+05  2.852297E+03  2.411669E+05  1.752407E+03 -6.653389E+03
       132  24  3.295690E+05  1.769126E+05  1.636400E+03  2.413744E+05  2.814664E+03 -5.689299E+03
       132  25  3.961873E+05  2.225410E+05  1.848557E+04  2.734325E+05  4.812623E+01 -7.765602E+03
       132  26  3.914371E+05  2.201920E+05  1.481472E+04  2.726949E+05  1.753305E+03 -6.652602E+03
       132  27  3.880887E+05  2.180113E+05  1.272703E+04  2.715070E+05  3.298556E+03 -5.326297E+03
       133   1  2.728713E+05  1.372107E+05 -9.397360E+03  2.122478E+05 -2.418458E+03  5.778704E+03
       133   2  2.756082E+05  1.396630E+05 -9.229718E+03  2.139732E+05 -2.464337E+03  5.373422E+03
       133   3  2.791145E+05  1.414764E+05 -8.861094E+03  2.154832E+05 -2.481049E+03  4.929229E+03
       133   4  3.295093E+05  1.768544E+05  1.262622E+03  2.413572E+05 -2.911572E+03  5.408797E+03
       133   5  3.290973E+05  1.771330E+05  7.856618E+02  2.414883E+05 -3.045548E+03  4.937470E+03
       133   6  3.294740E+05  1.767919E+05  5.861136E+02  2.414039E+05 -3.150357E+03  4.427234E+03
       133   7  3.861497E+05  2.164992E+05  1.192205E+04  2.704690E+05 -3.404734E+03  5.038854E+03
       133   8  3.825892E+05  2.146044E+05  1.080075E+04  2.690058E+05 -3.626817E+03  4.501474E+03
       133   9  3.798365E+05  2.121089E+05  1.003326E+04  2.673271E+05 -3.819737E+03  3.925184E+03
       133  10  2.728713E+05  1.372107E+05 -9.397434E+03  2.122478E+05  8.062807E-10 -3.942192E-10
       133  11  2.756082E+05  1.396630E+05 -9.229783E+03  2.139732E+05  7.905233E-10  7.673836E-11
       133  12  2.791145E+05  1.414764E+05 -8.861151E+03  2.154832E+05  1.278253E-09  2.640822E-10
       133  13  3.295092E+05  1.768544E+05  1.262551E+03  2.413572E+05  5.136292E-10 -2.711427E-10
       133  14  3.290973E+05  1.771330E+05  7.855985E+02  2.414883E+05  2.532196E-10 -2.225921E-10
       133  15  3.294739E+05  1.767918E+05  5.860581E+02  2.414040E+05  4.071027E-10 -3.104538E-10
       133  16  3.861497E+05  2.164992E+05  1.192198E+04  2.704690E+05  5.417964E-10 -3.017723E-10
       133  17  3.825892E+05  2.146044E+05  1.080069E+04  2.690058E+05 -4.790083E-10 -5.830972E-10
       133  18  3.798364E+05  2.121089E+05  1.003320E+04  2.673271E+05 -3.578010E-10 -6.802657E-10
       133  19  2.728713E+05  1.372107E+05 -9.397360E+03  2.122478E+05  2.418458E+03 -5.778704E+03
       133  20  2.756082E+05  1.396630E+05 -9.229718E+03  2.139732E+05  2.464337E+03 -5.373422E+03
       133  21  2.791145E+05  1.414764E+05 -8.861094E+03  2.154832E+05  2.481049E+03 -4.929229E+03
       133  22  3.295093E+05  1.768544E+05  1.262622E+03  2.413572E+05  2.911572E+03 -5.408797E+03
       133  23  3.290973E+05  1.771330E+05  7.856618E+02  2.414883E+05  3.045548E+03 -4.937470E+03
       133  24  3.294740E+05  1.767919E+05  5.861136E+02  2.414039E+05  3.150357E+03 -4.427234E+03
       133  25  3.861497E+05  2.164992E+05  1.192205E+04  2.704690E+05  3.404734E+03 -5.038854E+03
       133  26  3.825892E+05  2.146044E+05  1.080075E+04  2.690058E+05  3.626817E+03 -4.501474E+03
       133  27  3.798365E+05  2.121089E+05  1.003326E+04  2.673271E+05  3.819737E+03 -3.925184E+03
       134   1  2.810231E+05  1.428553E+05 -8.534116E+03  2.164795E+05 -2.428317E+03  4.702800E+03
       134   2  2.838695E+05  1.453262E+05 -8.006644E+03  2.181251E+05 -2.202377E+03  4.330075E+03
       134   3  2.874970E+05  1.471680E+05 -7.421948E+03  2.195225E+05 -1.902808E+03  3.859139E+03
       134   4  3.294799E+05  1.767954E+05  5.586225E+02  2.414002E+05 -3.102562E+03  4.197111E+03
       134   5  3.291211E+05  1.771846E+05  6.424110E+02  2.414506E+05 -3.098924E+03  3.657702E+03
       134   6  3.295914E+05  1.769930E+05  9.762197E+02  2.412527E+05 -3.021662E+03  3.020092E+03
       134   7  3.779408E+05  2.107379E+05  9.651726E+03  2.663238E+05 -3.776893E+03  3.691359E+03
       134   8  3.743753E+05  2.090443E+05  9.291427E+03  2.647782E+05 -3.995558E+03  2.985264E+03
       134   9  3.716870E+05  2.068183E+05  9.373990E+03  2.629843E+05 -4.140591E+03  2.180987E+03
       134  10  2.810231E+05  1.428553E+05 -8.534169E+03  2.164795E+05  1.818304E-09  6.357935E-10
       134  11  2.838695E+05  1.453262E+05 -8.006688E+03  2.181251E+05  1.198695E-09  3.069817E-10
       134  12  2.874970E+05  1.471680E+05 -7.421983E+03  2.195225E+05  9.484244E-10  1.872142E-10
       134  13  3.294799E+05  1.767954E+05  5.585713E+02  2.414002E+05  1.595403E-10 -3.776118E-10
       134  14  3.291211E+05  1.771845E+05  6.423678E+02  2.414507E+05  3.548218E-10 -4.289975E-10
       134  15  3.295914E+05  1.769929E+05  9.761854E+02  2.412528E+05  5.194403E-10 -1.144160E-10
       134  16  3.779408E+05  2.107379E+05  9.651673E+03  2.663238E+05 -7.243438E-10 -1.413182E-09
       134  17  3.743752E+05  2.090443E+05  9.291380E+03  2.647782E+05  2.457824E-12 -1.075219E-09
       134  18  3.716870E+05  2.068183E+05  9.373949E+03  2.629843E+05 -8.870534E-10 -3.561587E-10
       134  19  2.810231E+05  1.428553E+05 -8.534116E+03  2.164795E+05  2.428317E+03 -4.702800E+03
       134  20  2.838695E+05  1.453262E+05 -8.006644E+03  2.181251E+05  2.202377E+03 -4.330075E+03
       134  21  2.874970E+05  1.471680E+05 -7.421948E+03  2.195225E+05  1.902808E+03 -3.859139E+03
       134  22  3.294799E+05  1.767954E+05  5.586225E+02  2.414002E+05  3.102562E+03 -4.197111E+03
       134  23  3.291211E+05  1.771846E+05  6.424110E+02  2.414506E+05  3.098924E+03 -3.657702E+03
       134  24  3.295914E+05  1.769930E+05  9.762197E+02  2.412527E+05  3.021662E+03 -3.020092E+03
       134  25  3.779408E+05  2.107379E+05  9.651726E+03  2.663238E+05  3.776893E+03 -3.691359E+03
       134  26  3.743753E+05  2.090443E+05  9.291427E+03  2.647782E+05  3.995558E+03 -2.985264E+03
       134  27  3.716870E+05  2.068183E+05  9.373990E+03  2.629843E+05  4.140591E+03 -2.180987E+03
       135   1  2.893943E+05  1.486600E+05 -6.982444E+03  2.205336E+05 -1.806847E+03  3.517966E+03
       135   2  2.935835E+05  1.503889E+05 -6.519410E+03  2.214489E+05 -3.656998E+02  3.222583E+03
       135   3  2.992000E+05  1.523126E+05 -6.341478E+03  2.215716E+05  1.633829E+03  2.182563E+03
       135   4  3.297178E+05  1.770908E+05  1.250287E+03  2.412483E+05 -2.957712E+03  2.654933E+03
       135   5  3.294776E+05  1.779778E+05  2.216092E+03  2.407690E+05 -3.202056E+03  1.095708E+03
       135   6  3.310300E+05  1.794250E+05  4.358913E+03  2.394971E+05 -2.888048E+03 -1.208153E+03
       135   7  3.700433E+05  2.055226E+05  9.482983E+03  2.619646E+05 -4.108677E+03  1.791824E+03
       135   8  3.653736E+05  2.055681E+05  1.095172E+04  2.600907E+05 -6.038666E+03 -1.031378E+03
       135   9  3.628620E+05  2.065391E+05  1.505957E+04  2.574241E+05 -7.410347E+03 -4.599248E+03
       135  10  2.893943E+05  1.486599E+05 -6.982473E+03  2.205336E+05  3.716749E-08  2.748996E-08
       135  11  2.935835E+05  1.503888E+05 -6.519429E+03  2.214489E+05 -1.668082E-09 -7.850592E-10
       135  12  2.992000E+05  1.523125E+05 -6.341492E+03  2.215716E+05 -3.733356E-08 -2.739957E-08
       135  13  3.297178E+05  1.770907E+05  1.250257E+03  2.412483E+05 -1.479753E-09 -5.054096E-10
       135  14  3.294776E+05  1.779778E+05  2.216071E+03  2.407690E+05 -3.026191E-09 -1.311940E-09
       135  15  3.310300E+05  1.794250E+05  4.358895E+03  2.394971E+05 -1.200869E-09 -5.126598E-10
       135  16  3.700433E+05  2.055226E+05  9.482945E+03  2.619646E+05 -3.942989E-08 -2.844878E-08
       135  17  3.653736E+05  2.055681E+05  1.095165E+04  2.600907E+05 -3.726493E-09 -1.941422E-09
       135  18  3.628620E+05  2.065391E+05  1.505943E+04  2.574241E+05  3.442412E-08  2.628818E-08
       135  19  2.893943E+05  1.486600E+05 -6.982444E+03  2.205336E+05  1.806847E+03 -3.517966E+03
       135  20  2.935835E+05  1.503889E+05 -6.519410E+03  2.214489E+05  3.656998E+02 -3.222583E+03
       135  21  2.992000E+05  1.523126E+05 -6.341478E+03  2.215716E+05 -1.633829E+03 -2.182563E+03
       135  22  3.297178E+05  1.770908E+05  1.250287E+03  2.412483E+05  2.957712E+03 -2.654933E+03
       135  23  3.294776E+05  1.779778E+05  2.216092E+03  2.407690E+05  3.202056E+03 -1.095708E+03
       135  24  3.310300E+05  1.794250E+05  4.358913E+03  2.394971E+05  2.888048E+03  1.208153E+03
       135  25  3.700433E+05  2.055226E+05  9.482983E+03  2.619646E+05  4.108677E+03 -1.791824E+03
       135  26  3.653736E+05  2.055681E+05  1.095172E+04  2.600907E+05  6.038666E+03  1.031378E+03
       135  27  3.628620E+05  2.065391E+05  1.505957E+04  2.574241E+05  7.410347E+03  4.599248E+03
       136   1  4.656249E+02 -4.542401E+01 -4.031798E+01 -1.856493E+01 -3.202075E+01 -2.142360E-03
       136   2  4.666233E+02 -4.174441E+01 -2.291933E+01 -1.853706E+01 -2.066099E+01 -1.371367E-03
       136   3  4.656495E+02 -4.003709E+01 -1.340961E+01 -1.850919E+01 -9.301068E+00 -6.051545E-04
       136   4  4.658396E+02 -4.537164E+01 -4.027092E+01 -1.835308E+01 -3.198786E+01 -2.140114E-03
       136   5  4.668245E+02 -4.169883E+01 -2.289276E+01 -1.835326E+01 -2.064141E+01 -1.369895E-03
       136   6  4.658395E+02 -3.999600E+01 -1.339435E+01 -1.835344E+01 -9.294789E+00 -6.045640E-04
       136   7  4.660548E+02 -4.531912E+01 -4.022371E+01 -1.814123E+01 -3.195491E+01 -2.137868E-03
       136   8  4.670263E+02 -4.165310E+01 -2.286603E+01 -1.816946E+01 -2.062157E+01 -1.368425E-03
       136   9  4.660302E+02 -3.995476E+01 -1.337895E+01 -1.819770E+01 -9.288061E+00 -6.039736E-04
       136  10  4.656243E+02 -4.542418E+01 -4.031815E+01 -1.856494E+01 -1.906991E-05 -5.251929E-08
       136  11  4.666227E+02 -4.174458E+01 -2.291950E+01 -1.853706E+01 -8.462160E-05 -1.654762E-07
       136  12  4.656488E+02 -4.003726E+01 -1.340978E+01 -1.850919E+01 -1.501696E-04 -1.736522E-07
       136  13  4.658379E+02 -4.537206E+01 -4.027134E+01 -1.835308E+01 -4.768498E-05 -2.136091E-09
       136  14  4.668229E+02 -4.169925E+01 -2.289318E+01 -1.835326E+01 -2.115516E-04 -9.582493E-09
       136  15  4.658379E+02 -3.999642E+01 -1.339477E+01 -1.835344E+01 -3.754220E-04 -1.681233E-08
       136  16  4.660541E+02 -4.531929E+01 -4.022388E+01 -1.814123E+01 -1.907998E-05  4.820903E-08
       136  17  4.670257E+02 -4.165326E+01 -2.286620E+01 -1.816946E+01 -8.461861E-05  1.463484E-07
       136  18  4.660295E+02 -3.995492E+01 -1.337912E+01 -1.819770E+01 -1.501636E-04  1.400781E-07
       136  19  4.656236E+02 -4.542434E+01 -4.031832E+01 -1.856494E+01  3.202071E+01  2.142255E-03
       136  20  4.666220E+02 -4.174475E+01 -2.291967E+01 -1.853706E+01  2.066082E+01  1.371036E-03
       136  21  4.656481E+02 -4.003743E+01 -1.340995E+01 -1.850919E+01  9.300767E+00  6.048071E-04
       136  22  4.658362E+02 -4.537248E+01 -4.027176E+01 -1.835308E+01  3.198776E+01  2.140110E-03
       136  23  4.668212E+02 -4.169967E+01 -2.289360E+01 -1.835326E+01  2.064098E+01  1.369877E-03
       136  24  4.658362E+02 -3.999684E+01 -1.339519E+01 -1.835344E+01  9.294039E+00  6.045302E-04
       136  25  4.660534E+02 -4.531945E+01 -4.022405E+01 -1.814123E+01  3.195487E+01  2.137965E-03
       136  26  4.670250E+02 -4.165343E+01 -2.286637E+01 -1.816946E+01  2.062140E+01  1.368718E-03
       136  27  4.660289E+02 -3.995509E+01 -1.337928E+01 -1.819770E+01  9.287760E+00  6.042538E-04
       137   1  4.659643E+02 -3.937777E+01 -1.042823E+01 -1.849411E+01 -7.185794E+00 -4.623540E-04
       137   2  4.662677E+02 -3.858449E+01 -6.765825E+00 -1.846835E+01 -3.832364E+00 -2.366536E-04
       137   3  4.659888E+02 -3.837344E+01 -5.432205E+00 -1.844259E+01 -4.789331E-01 -1.224645E-05
       137   4  4.661472E+02 -3.933883E+01 -1.041652E+01 -1.835347E+01 -7.181946E+00 -4.619648E-04
       137   5  4.664380E+02 -3.854901E+01 -6.758796E+00 -1.835350E+01 -3.832003E+00 -2.365708E-04
       137   6  4.661472E+02 -3.834081E+01 -5.427437E+00 -1.835353E+01 -4.820604E-01 -1.246945E-05
       137   7  4.663300E+02 -3.929989E+01 -1.040481E+01 -1.821282E+01 -7.177587E+00 -4.615757E-04
       137   8  4.666083E+02 -3.851353E+01 -6.751762E+00 -1.823865E+01 -3.831127E+00 -2.364884E-04
       137   9  4.663055E+02 -3.830817E+01 -5.422664E+00 -1.826448E+01 -4.846658E-01 -1.269239E-05
       137  10  4.659643E+02 -3.937777E+01 -1.042824E+01 -1.849411E+01 -1.698488E-04 -1.346895E-07
       137  11  4.662676E+02 -3.858450E+01 -6.765830E+00 -1.846835E+01 -1.718990E-04 -6.094299E-08
       137  12  4.659888E+02 -3.837345E+01 -5.432210E+00 -1.844259E+01 -1.739577E-04  1.151707E-08
       137  13  4.661471E+02 -3.933884E+01 -1.041653E+01 -1.835347E+01 -4.246058E-04 -1.901120E-08
       137  14  4.664379E+02 -3.854903E+01 -6.758809E+00 -1.835350E+01 -4.297550E-04 -1.915412E-08
       137  15  4.661471E+02 -3.834082E+01 -5.427450E+00 -1.835353E+01 -4.349026E-04 -1.936798E-08
       137  16  4.663300E+02 -3.929990E+01 -1.040481E+01 -1.821282E+01 -1.698454E-04  9.671379E-08
       137  17  4.666082E+02 -3.851353E+01 -6.751768E+00 -1.823865E+01 -1.718997E-04  2.253283E-08
       137  18  4.663055E+02 -3.830818E+01 -5.422670E+00 -1.826448E+01 -1.739605E-04 -5.033812E-08
       137  19  4.659643E+02 -3.937778E+01 -1.042824E+01 -1.849412E+01  7.185455E+00  4.620845E-04
       137  20  4.662676E+02 -3.858450E+01 -6.765835E+00 -1.846835E+01  3.832020E+00  2.365314E-04
       137  21  4.659888E+02 -3.837345E+01 -5.432215E+00 -1.844259E+01  4.785851E-01  1.226944E-05
       137  22  4.661470E+02 -3.933886E+01 -1.041655E+01 -1.835347E+01  7.181096E+00  4.619266E-04
       137  23  4.664378E+02 -3.854904E+01 -6.758822E+00 -1.835350E+01  3.831143E+00  2.365328E-04
       137  24  4.661470E+02 -3.834084E+01 -5.427463E+00 -1.835353E+01  4.811906E-01  1.243057E-05
       137  25  4.663300E+02 -3.929990E+01 -1.040482E+01 -1.821282E+01  7.177248E+00  4.617692E-04
       137  26  4.666082E+02 -3.851354E+01 -6.751773E+00 -1.823865E+01  3.830783E+00  2.365334E-04
       137  27  4.663054E+02 -3.830819E+01 -5.422675E+00 -1.826448E+01  4.843179E-01  1.259185E-05
       138   1  4.659956E+02 -3.837195E+01 -5.431768E+00 -1.842784E+01  4.850893E-01  5.167828E-05
       138   2  4.662989E+02 -3.857749E+01 -6.763007E+00 -1.840201E+01  3.837107E+00  2.746479E-04
       138   3  4.660202E+02 -3.936500E+01 -1.042203E+01 -1.837618E+01  7.189074E+00  4.968230E-04
       138   4  4.661468E+02 -3.834084E+01 -5.427499E+00 -1.835354E+01  4.811693E-01  5.136051E-05
       138   5  4.664376E+02 -3.854889E+01 -6.758788E+00 -1.835350E+01  3.831134E+00  2.741338E-04
       138   6  4.661468E+02 -3.933854E+01 -1.041641E+01 -1.835347E+01  7.181050E+00  4.961318E-04
       138   7  4.662979E+02 -3.830978E+01 -5.423273E+00 -1.827923E+01  4.777562E-01  5.104257E-05
       138   8  4.665762E+02 -3.852032E+01 -6.754611E+00 -1.830499E+01  3.825612E+00  2.736196E-04
       138   9  4.662733E+02 -3.931212E+01 -1.041084E+01 -1.833075E+01  7.173418E+00  4.954410E-04
       138  10  4.659958E+02 -3.837190E+01 -5.431719E+00 -1.842784E+01 -1.689938E-04  5.340740E-08
       138  11  4.662991E+02 -3.857744E+01 -6.762958E+00 -1.840201E+01 -1.498934E-04  1.128154E-07
       138  12  4.660204E+02 -3.936495E+01 -1.042198E+01 -1.837618E+01 -1.307720E-04  1.520086E-07
       138  13  4.661473E+02 -3.834072E+01 -5.427377E+00 -1.835354E+01 -4.224995E-04 -1.885103E-08
       138  14  4.664381E+02 -3.854876E+01 -6.758665E+00 -1.835350E+01 -3.747301E-04 -1.676957E-08
       138  15  4.661473E+02 -3.933842E+01 -1.041629E+01 -1.835347E+01 -3.269540E-04 -1.460020E-08
       138  16  4.662981E+02 -3.830973E+01 -5.423224E+00 -1.827923E+01 -1.690069E-04 -9.108514E-08
       138  17  4.665764E+02 -3.852027E+01 -6.754562E+00 -1.830499E+01 -1.498938E-04 -1.461494E-07
       138  18  4.662735E+02 -3.931207E+01 -1.041079E+01 -1.833075E+01 -1.307894E-04 -1.812225E-07
       138  19  4.659960E+02 -3.837185E+01 -5.431670E+00 -1.842784E+01 -4.854273E-01 -5.157150E-05
       138  20  4.662993E+02 -3.857739E+01 -6.762910E+00 -1.840201E+01 -3.837406E+00 -2.744227E-04
       138  21  4.660206E+02 -3.936490E+01 -1.042193E+01 -1.837618E+01 -7.189336E+00 -4.965190E-04
       138  22  4.661478E+02 -3.834060E+01 -5.427254E+00 -1.835353E+01 -4.820142E-01 -5.139821E-05
       138  23  4.664386E+02 -3.854864E+01 -6.758543E+00 -1.835350E+01 -3.831884E+00 -2.741669E-04
       138  24  4.661478E+02 -3.933829E+01 -1.041617E+01 -1.835347E+01 -7.181704E+00 -4.961613E-04
       138  25  4.662983E+02 -3.830968E+01 -5.423175E+00 -1.827923E+01 -4.780942E-01 -5.122480E-05
       138  26  4.665766E+02 -3.852023E+01 -6.754513E+00 -1.830499E+01 -3.825912E+00 -2.739119E-04
       138  27  4.662737E+02 -3.931202E+01 -1.041074E+01 -1.833075E+01 -7.173679E+00 -4.958033E-04
       139   1  4.657181E+02 -4.002130E+01 -1.340155E+01 -1.836106E+01  9.303225E+00  6.367761E-04
       139   2  4.667158E+02 -4.172233E+01 -2.290432E+01 -1.833283E+01  2.065533E+01  1.393223E-03
       139   3  4.657427E+02 -4.539419E+01 -4.029040E+01 -1.830459E+01  3.200761E+01  2.147515E-03
       139   4  4.658379E+02 -3.999595E+01 -1.339457E+01 -1.835344E+01  9.294119E+00  6.359987E-04
       139   5  4.668228E+02 -4.169863E+01 -2.289288E+01 -1.835326E+01  2.064066E+01  1.392097E-03
       139   6  4.658379E+02 -4.537118E+01 -4.027058E+01 -1.835308E+01  3.198736E+01  2.146114E-03
       139   7  4.659573E+02 -3.997070E+01 -1.338770E+01 -1.834583E+01  9.285347E+00  6.352209E-04
       139   8  4.669294E+02 -4.167505E+01 -2.288155E+01 -1.837370E+01  2.062617E+01  1.390971E-03
       139   9  4.659328E+02 -4.534828E+01 -4.025086E+01 -1.840157E+01  3.196716E+01  2.144711E-03
       139  10  4.657186E+02 -4.002118E+01 -1.340142E+01 -1.836106E+01 -1.111034E-04  1.661307E-07
       139  11  4.667163E+02 -4.172220E+01 -2.290420E+01 -1.833283E+01 -6.261168E-05  1.409536E-07
       139  12  4.657432E+02 -4.539407E+01 -4.029028E+01 -1.830460E+01 -1.411178E-05  4.243379E-08
       139  13  4.658392E+02 -3.999564E+01 -1.339426E+01 -1.835344E+01 -2.777698E-04 -1.234120E-08
       139  14  4.668241E+02 -4.169832E+01 -2.289257E+01 -1.835326E+01 -1.565264E-04 -6.856397E-09
       139  15  4.658392E+02 -4.537087E+01 -4.027027E+01 -1.835308E+01 -3.528213E-05 -1.571812E-09
       139  16  4.659578E+02 -3.997057E+01 -1.338758E+01 -1.834583E+01 -1.111134E-04 -1.909173E-07
       139  17  4.669299E+02 -4.167492E+01 -2.288142E+01 -1.837370E+01 -6.260518E-05 -1.548762E-07
       139  18  4.659333E+02 -4.534816E+01 -4.025074E+01 -1.840157E+01 -1.411522E-05 -4.559785E-08
       139  19  4.657191E+02 -4.002105E+01 -1.340130E+01 -1.836106E+01 -9.303447E+00 -6.364439E-04
       139  20  4.667168E+02 -4.172208E+01 -2.290407E+01 -1.833283E+01 -2.065546E+01 -1.392941E-03
       139  21  4.657437E+02 -4.539395E+01 -4.029015E+01 -1.830460E+01 -3.200764E+01 -2.147431E-03
       139  22  4.658404E+02 -3.999532E+01 -1.339395E+01 -1.835344E+01 -9.294675E+00 -6.360239E-04
       139  23  4.668253E+02 -4.169801E+01 -2.289226E+01 -1.835326E+01 -2.064097E+01 -1.392111E-03
       139  24  4.658404E+02 -4.537056E+01 -4.026996E+01 -1.835308E+01 -3.198743E+01 -2.146117E-03
       139  25  4.659583E+02 -3.997045E+01 -1.338745E+01 -1.834583E+01 -9.285569E+00 -6.356028E-04
       139  26  4.669304E+02 -4.167480E+01 -2.288130E+01 -1.837370E+01 -2.062629E+01 -1.391281E-03
       139  27  4.659338E+02 -4.534803E+01 -4.025061E+01 -1.840157E+01 -3.196719E+01 -2.144802E-03
       140   1 -8.188237E+04 -5.426307E+05 -1.094185E+05  1.992668E+04  7.186024E+02 -8.133897E+04
       140   2  2.631270E+04 -5.527972E+05 -4.886929E+04  4.916693E+03  1.805385E+03 -4.964367E+04
       140   3  9.799851E+03 -5.982766E+05 -4.014128E+04 -2.911589E+04  7.646007E+02 -1.794993E+04
       140   4 -1.019212E+05 -6.229623E+05 -1.292582E+05 -1.476357E+04  7.232804E+02 -8.251173E+04
       140   5  1.333861E+04 -6.051868E+05 -6.133150E+04 -5.246807E+03  1.806210E+03 -4.965436E+04
       140   6  3.680102E+03 -6.229326E+05 -4.603854E+04 -1.475268E+04  7.640000E+02 -1.679710E+04
       140   7 -1.219560E+05 -7.032855E+05 -1.490978E+05 -4.944932E+04  7.280900E+02 -8.368433E+04
       140   8  3.647056E+02 -6.575737E+05 -7.379385E+04 -1.540944E+04  1.807036E+03 -4.966505E+04
       140   9 -2.438916E+03 -6.475877E+05 -5.193574E+04 -3.900300E+02  7.634526E+02 -1.564430E+04
       140  10 -8.188415E+04 -5.426378E+05 -1.094310E+05  1.992672E+04  5.894176E-11  1.093025E-10
       140  11  2.631204E+04 -5.527998E+05 -4.887393E+04  4.916765E+03  4.103527E-10 -2.407731E-11
       140  12  9.799764E+03 -5.982769E+05 -4.014189E+04 -2.911588E+04 -7.864177E-11 -5.217564E-11
       140  13 -1.019230E+05 -6.229696E+05 -1.292710E+05 -1.476352E+04  3.008725E-10 -8.779692E-12
       140  14  1.333794E+04 -6.051895E+05 -6.133615E+04 -5.246735E+03  6.750284E-10  6.281653E-11
       140  15  3.680025E+03 -6.229329E+05 -4.603907E+04 -1.475267E+04  3.196423E-10  5.309946E-11
       140  16 -1.219579E+05 -7.032930E+05 -1.491109E+05 -4.944927E+04 -9.769024E-11 -1.816887E-10
       140  17  3.640390E+02 -6.575764E+05 -7.379850E+04 -1.540937E+04  4.052357E-10 -1.072966E-10
       140  18 -2.438982E+03 -6.475879E+05 -5.193620E+04 -3.900203E+02  1.004741E-10  1.047757E-10
       140  19 -8.188237E+04 -5.426307E+05 -1.094185E+05  1.992668E+04 -7.186024E+02  8.133897E+04
       140  20  2.631270E+04 -5.527972E+05 -4.886929E+04  4.916693E+03 -1.805385E+03  4.964367E+04
       140  21  9.799851E+03 -5.982766E+05 -4.014128E+04 -2.911589E+04 -7.646007E+02  1.794993E+04
       140  22 -1.019212E+05 -6.229623E+05 -1.292582E+05 -1.476357E+04 -7.232804E+02  8.251173E+04
       140  23  1.333861E+04 -6.051868E+05 -6.133150E+04 -5.246807E+03 -1.806210E+03  4.965436E+04
       140  24  3.680102E+03 -6.229326E+05 -4.603854E+04 -1.475268E+04 -7.640000E+02  1.679710E+04
       140  25 -1.219560E+05 -7.032855E+05 -1.490978E+05 -4.944932E+04 -7.280900E+02  8.368433E+04
       140  26  3.647056E+02 -6.575737E+05 -7.379385E+04 -1.540944E+04 -1.807036E+03  4.966505E+04
       140  27 -2.438916E+03 -6.475877E+05 -5.193574E+04 -3.900300E+02 -7.634526E+02  1.564430E+04
       141   1 -1.145758E+04 -6.270807E+05 -4.541073E+04 -9.088823E+03 -2.550109E+02 -9.749222E+03
       141   2 -5.497530E+03 -6.493135E+05 -4.900256E+04 -5.816356E+03 -1.274373E+03  1.081545E+04
       141   3 -3.358231E+04 -6.827433E+05 -7.450385E+04 -2.162463E+04 -2.182461E+03  3.137920E+04
       141   4 -9.084607E+03 -6.175310E+05 -4.311292E+04 -1.476933E+04 -2.550183E+02 -9.161265E+03
       141   5  3.761274E+03 -6.119397E+05 -4.010738E+04 -5.229259E+03 -1.274430E+03  1.134293E+04
       141   6 -1.742609E+04 -6.175350E+05 -5.896839E+04 -1.477013E+04 -2.182157E+03  3.184711E+04
       141   7 -6.711521E+03 -6.079811E+05 -4.081509E+04 -2.044992E+04 -2.550364E+02 -8.573300E+03
       141   8  1.301998E+04 -5.745647E+05 -3.121230E+04 -4.642126E+03 -1.274485E+03  1.187044E+04
       141   9 -1.270003E+03 -5.523226E+05 -4.343320E+04 -7.914906E+03 -2.181842E+03  3.231507E+04
       141  10 -1.145760E+04 -6.270808E+05 -4.541091E+04 -9.088825E+03  3.760907E-10 -4.844763E-11
       141  11 -5.497563E+03 -6.493136E+05 -4.900278E+04 -5.816345E+03  7.058844E-10 -8.882973E-11
       141  12 -3.358258E+04 -6.827444E+05 -7.450571E+04 -2.162457E+04 -1.699866E-10 -9.708339E-11
       141  13 -9.084630E+03 -6.175311E+05 -4.311308E+04 -1.476933E+04  1.025753E-10  5.464422E-11
       141  14  3.761237E+03 -6.119399E+05 -4.010762E+04 -5.229247E+03 -2.391995E-10 -1.052827E-11
       141  15 -1.742637E+04 -6.175361E+05 -5.897031E+04 -1.477007E+04 -2.559191E-10 -2.029514E-11
       141  16 -6.711541E+03 -6.079812E+05 -4.081523E+04 -2.044992E+04  1.446551E-10 -3.960613E-11
       141  17  1.301994E+04 -5.745648E+05 -3.121257E+04 -4.642113E+03 -2.525698E-10 -3.131551E-11
       141  18 -1.270288E+03 -5.523237E+05 -4.343517E+04 -7.914849E+03 -2.429664E-10  1.013298E-10
       141  19 -1.145758E+04 -6.270807E+05 -4.541073E+04 -9.088823E+03  2.550109E+02  9.749222E+03
       141  20 -5.497530E+03 -6.493135E+05 -4.900256E+04 -5.816356E+03  1.274373E+03 -1.081545E+04
       141  21 -3.358231E+04 -6.827433E+05 -7.450385E+04 -2.162463E+04  2.182461E+03 -3.137920E+04
       141  22 -9.084607E+03 -6.175310E+05 -4.311292E+04 -1.476933E+04  2.550183E+02  9.161265E+03
       141  23  3.761274E+03 -6.119397E+05 -4.010738E+04 -5.229259E+03  1.274430E+03 -1.134293E+04
       141  24 -1.742609E+04 -6.175350E+05 -5.896839E+04 -1.477013E+04  2.182157E+03 -3.184711E+04
       141  25 -6.711521E+03 -6.079811E+05 -4.081509E+04 -2.044992E+04  2.550364E+02  8.573300E+03
       141  26  1.301998E+04 -5.745647E+05 -3.121230E+04 -4.642126E+03  1.274485E+03 -1.187044E+04
       141  27 -1.270003E+03 -5.523226E+05 -4.343320E+04 -7.914906E+03  2.181842E+03 -3.231507E+04
       142   1 -1.590463E+04 -7.282467E+05 -9.229193E+04  1.058153E+04 -3.405112E+03  4.114664E+04
       142   2 -7.858235E+03 -7.245220E+05 -1.337180E+05 -2.345861E+04 -4.352020E+03  9.889027E+04
       142   3 -2.210860E+05 -7.836428E+05 -2.680781E+05 -7.633283E+04 -1.536028E+03  1.566311E+05
       142   4  8.706853E+03 -6.289221E+05 -6.865630E+04 -1.471577E+04 -3.406904E+03  4.270066E+04
       142   5  2.355602E+04 -5.977095E+05 -1.035440E+05 -5.293983E+03 -4.349054E+03  9.838588E+04
       142   6 -1.824934E+05 -6.289745E+05 -2.299220E+05 -1.471101E+04 -1.520551E+03  1.540711E+05
       142   7  3.332003E+04 -5.295870E+05 -4.502101E+04 -4.001714E+04 -3.408823E+03  4.425493E+04
       142   8  5.497037E+04 -4.708814E+05 -7.337095E+04  1.287437E+04 -4.346118E+03  9.788139E+04
       142   9 -1.438883E+05 -4.742761E+05 -1.917656E+05  4.692621E+04 -1.505586E+03  1.515104E+05
       142  10 -1.590509E+04 -7.282485E+05 -9.229514E+04  1.058165E+04 -2.101026E-10  2.528826E-10
       142  11 -7.860885E+03 -7.245325E+05 -1.337365E+05 -2.345826E+04  5.708385E-11  8.842013E-11
       142  12 -2.210926E+05 -7.836692E+05 -2.681243E+05 -7.633264E+04  5.034021E-11 -2.274457E-10
       142  13  8.706350E+03 -6.289240E+05 -6.865975E+04 -1.471565E+04 -5.586222E-10 -1.030195E-10
       142  14  2.355340E+04 -5.977199E+05 -1.035623E+05 -5.293638E+03 -3.434119E-10 -9.461174E-11
       142  15 -1.824997E+05 -6.290000E+05 -2.299667E+05 -1.471082E+04 -1.182389E-10  2.008533E-11
       142  16  3.331949E+04 -5.295891E+05 -4.502472E+04 -4.001702E+04  2.906278E-11 -3.915689E-10
       142  17  5.496777E+04 -4.708917E+05 -7.338900E+04  1.287472E+04  5.317310E-10 -1.216175E-10
       142  18 -1.438944E+05 -4.743008E+05 -1.918088E+05  4.692639E+04  4.663193E-10  2.600882E-10
       142  19 -1.590463E+04 -7.282467E+05 -9.229193E+04  1.058153E+04  3.405112E+03 -4.114664E+04
       142  20 -7.858235E+03 -7.245220E+05 -1.337180E+05 -2.345861E+04  4.352020E+03 -9.889027E+04
       142  21 -2.210860E+05 -7.836428E+05 -2.680781E+05 -7.633283E+04  1.536028E+03 -1.566311E+05
       142  22  8.706853E+03 -6.289221E+05 -6.865630E+04 -1.471577E+04  3.406904E+03 -4.270066E+04
       142  23  2.355602E+04 -5.977095E+05 -1.035440E+05 -5.293983E+03  4.349054E+03 -9.838588E+04
       142  24 -1.824934E+05 -6.289745E+05 -2.299220E+05 -1.471101E+04  1.520551E+03 -1.540711E+05
       142  25  3.332003E+04 -5.295870E+05 -4.502101E+04 -4.001714E+04  3.408823E+03 -4.425493E+04
       142  26  5.497037E+04 -4.708814E+05 -7.337095E+04  1.287437E+04  4.346118E+03 -9.788139E+04
       142  27 -1.438883E+05 -4.742761E+05 -1.917656E+05  4.692621E+04  1.505586E+03 -1.515104E+05
       143   1  2.418906E+04  2.037066E+04  1.886520E+03  3.448284E+04  2.670936E+04  2.551968E+04
       143   2  4.408213E+04 -1.690991E+04 -2.184469E+04  6.819978E+04  1.408476E+04  2.810809E+04
       143   3  1.004573E+05 -2.817099E+04 -2.773369E+04  8.180167E+04  6.505201E+03  2.396935E+04
       143   4  2.984401E+05  1.508799E+05  7.923824E+04  1.406504E+05  4.121644E+04  3.639683E+04
       143   5  2.666448E+05  1.144996E+05  3.746371E+04  1.675276E+05  1.978764E+04  3.238311E+04
       143   6  2.732298E+05  1.060363E+05  2.116420E+04  1.742925E+05  3.403984E+03  2.164380E+04
       143   7  5.727708E+05  2.814027E+05  1.565835E+05  2.468598E+05  5.573222E+04  4.727765E+04
       143   8  4.892612E+05  2.459263E+05  9.676745E+04  2.668918E+05  2.549327E+04  3.665974E+04
       143   9  4.460358E+05  2.402653E+05  7.005912E+04  2.668140E+05  3.016113E+02  1.931727E+04
       143  10  2.418812E+04  2.036977E+04  1.883955E+03  3.448229E+04 -2.150983E-10 -6.410067E-11
       143  11  4.408171E+04 -1.691081E+04 -2.184654E+04  6.819946E+04  1.761206E-10 -3.382738E-11
       143  12  1.004571E+05 -2.817162E+04 -2.773485E+04  8.180154E+04  6.141598E-10  4.426339E-11
       143  13  2.984379E+05  1.508780E+05  7.923257E+04  1.406492E+05 -2.236337E-10  7.124672E-11
       143  14  2.666441E+05  1.144984E+05  3.746100E+04  1.675271E+05 -7.824335E-10 -2.192342E-11
       143  15  2.732297E+05  1.060358E+05  2.116329E+04  1.742924E+05  1.877833E-10 -1.939442E-10
       143  16  5.727669E+05  2.813995E+05  1.565735E+05  2.468577E+05  2.525241E-10  1.243071E-10
       143  17  4.892601E+05  2.459247E+05  9.676370E+04  2.668911E+05 -8.185692E-11 -3.231135E-11
       143  18  4.460357E+05  2.402649E+05  7.005842E+04  2.668140E+05 -7.184961E-10 -3.653883E-10
       143  19  2.418906E+04  2.037066E+04  1.886520E+03  3.448284E+04 -2.670936E+04 -2.551968E+04
       143  20  4.408213E+04 -1.690991E+04 -2.184469E+04  6.819978E+04 -1.408476E+04 -2.810809E+04
       143  21  1.004573E+05 -2.817099E+04 -2.773369E+04  8.180167E+04 -6.505201E+03 -2.396935E+04
       143  22  2.984401E+05  1.508799E+05  7.923824E+04  1.406504E+05 -4.121644E+04 -3.639683E+04
       143  23  2.666448E+05  1.144996E+05  3.746371E+04  1.675276E+05 -1.978764E+04 -3.238311E+04
       143  24  2.732298E+05  1.060363E+05  2.116420E+04  1.742925E+05 -3.403984E+03 -2.164380E+04
       143  25  5.727708E+05  2.814027E+05  1.565835E+05  2.468598E+05 -5.573222E+04 -4.727765E+04
       143  26  4.892612E+05  2.459263E+05  9.676745E+04  2.668918E+05 -2.549327E+04 -3.665974E+04
       143  27  4.460358E+05  2.402653E+05  7.005912E+04  2.668140E+05 -3.016113E+02 -1.931727E+04
       144   1  1.115420E+05 -5.256643E+03 -2.709677E+04  9.065095E+04  3.815524E+03  1.987027E+04
       144   2  1.334541E+05  1.733506E+04 -2.632210E+04  1.068652E+05  1.784427E+03  1.600827E+04
       144   3  1.674449E+05  3.097728E+04 -2.245821E+04  1.194657E+05  6.509592E+01  1.172938E+04
       144   4  2.726458E+05  1.071782E+05  1.647550E+04  1.709783E+05  2.132150E+03  1.860768E+04
       144   5  2.660584E+05  1.107190E+05  9.270930E+03  1.734442E+05 -4.450922E+02  1.433650E+04
       144   6  2.716655E+05  1.054281E+05  5.628129E+03  1.722955E+05 -2.710385E+03  9.648668E+03
       144   7  4.337810E+05  2.196291E+05  6.004615E+04  2.513304E+05  4.481623E+02  1.734463E+04
       144   8  3.986824E+05  2.041132E+05  4.486240E+04  2.400394E+05 -2.675253E+03  1.266425E+04
       144   9  3.758969E+05  1.798845E+05  3.371303E+04  2.251349E+05 -5.486456E+03  7.567508E+03
       144  10  1.115418E+05 -5.257071E+03 -2.709754E+04  9.065089E+04  2.213864E-10 -3.812103E-10
       144  11  1.334540E+05  1.733478E+04 -2.632259E+04  1.068651E+05 -4.141739E-10  1.245494E-11
       144  12  1.674449E+05  3.097713E+04 -2.245847E+04  1.194657E+05  3.165390E-10  2.093680E-10
       144  13  2.726457E+05  1.071778E+05  1.647484E+04  1.709783E+05  4.396831E-10 -1.720378E-10
       144  14  2.660583E+05  1.107188E+05  9.270544E+03  1.734442E+05 -1.301353E-10  1.470371E-10
       144  15  2.716655E+05  1.054280E+05  5.627940E+03  1.722956E+05 -4.182926E-10 -8.576233E-12
       144  16  4.337809E+05  2.196288E+05  6.004559E+04  2.513304E+05  9.609993E-11  5.989169E-11
       144  17  3.986823E+05  2.041130E+05  4.486209E+04  2.400394E+05 -2.261653E-10 -1.851526E-11
       144  18  3.758968E+05  1.798844E+05  3.371286E+04  2.251350E+05 -3.270358E-10 -9.106867E-11
       144  19  1.115420E+05 -5.256643E+03 -2.709677E+04  9.065095E+04 -3.815524E+03 -1.987027E+04
       144  20  1.334541E+05  1.733506E+04 -2.632210E+04  1.068652E+05 -1.784427E+03 -1.600827E+04
       144  21  1.674449E+05  3.097728E+04 -2.245821E+04  1.194657E+05 -6.509592E+01 -1.172938E+04
       144  22  2.726458E+05  1.071782E+05  1.647550E+04  1.709783E+05 -2.132150E+03 -1.860768E+04
       144  23  2.660584E+05  1.107190E+05  9.270930E+03  1.734442E+05  4.450922E+02 -1.433650E+04
       144  24  2.716655E+05  1.054281E+05  5.628129E+03  1.722955E+05  2.710385E+03 -9.648668E+03
       144  25  4.337810E+05  2.196291E+05  6.004615E+04  2.513304E+05 -4.481623E+02 -1.734463E+04
       144  26  3.986824E+05  2.041132E+05  4.486240E+04  2.400394E+05  2.675253E+03 -1.266425E+04
       144  27  3.758969E+05  1.798845E+05  3.371303E+04  2.251349E+05  5.486456E+03 -7.567508E+03
       145   1  1.863598E+05  4.506789E+04 -1.819134E+04  1.291238E+05  1.830897E+02  9.891642E+03
       145   2  2.085806E+05  6.994575E+04 -1.206565E+04  1.446455E+05  4.308077E+02  6.856066E+03
       145   3  2.416886E+05  8.433046E+04 -4.847656E+03  1.570986E+05  6.871707E+02  3.808510E+03
       145   4  2.715967E+05  1.054526E+05  4.545974E+03  1.721224E+05 -2.506494E+03  7.875467E+03
       145   5  2.661485E+05  1.106910E+05  3.318761E+03  1.736631E+05 -2.274589E+03  4.828174E+03
       145   6  2.715900E+05  1.054389E+05  3.197298E+03  1.721343E+05 -2.033969E+03  1.768948E+03
       145   7  3.568419E+05  1.658417E+05  2.728270E+04  2.151279E+05 -5.196576E+03  5.858916E+03
       145   8  3.237207E+05  1.514385E+05  1.870307E+04  2.026839E+05 -4.980343E+03  2.800012E+03
       145   9  3.014929E+05  1.265483E+05  1.124236E+04  1.871709E+05 -4.755323E+03 -2.707755E+02
       145  10  1.863598E+05  4.506778E+04 -1.819152E+04  1.291238E+05 -3.251547E-10 -7.955729E-11
       145  11  2.085806E+05  6.994570E+04 -1.206574E+04  1.446455E+05 -3.435477E-10  1.752981E-10
       145  12  2.416886E+05  8.433044E+04 -4.847684E+03  1.570986E+05  2.549289E-10  2.950878E-10
       145  13  2.715967E+05  1.054526E+05  4.545846E+03  1.721224E+05  5.806902E-10  1.439000E-11
       145  14  2.661485E+05  1.106910E+05  3.318707E+03  1.736631E+05  4.655828E-10 -1.182616E-10
       145  15  2.715900E+05  1.054389E+05  3.197284E+03  1.721343E+05  1.903677E-10 -1.130928E-10
       145  16  3.568419E+05  1.658417E+05  2.728259E+04  2.151279E+05  5.779375E-10  1.226289E-10
       145  17  3.237207E+05  1.514385E+05  1.870301E+04  2.026839E+05  6.478733E-10 -2.190276E-11
       145  18  3.014928E+05  1.265483E+05  1.124232E+04  1.871709E+05 -1.136099E-10 -1.136653E-10
       145  19  1.863598E+05  4.506789E+04 -1.819134E+04  1.291238E+05 -1.830897E+02 -9.891642E+03
       145  20  2.085806E+05  6.994575E+04 -1.206565E+04  1.446455E+05 -4.308077E+02 -6.856066E+03
       145  21  2.416886E+05  8.433046E+04 -4.847656E+03  1.570986E+05 -6.871707E+02 -3.808510E+03
       145  22  2.715967E+05  1.054526E+05  4.545974E+03  1.721224E+05  2.506494E+03 -7.875467E+03
       145  23  2.661485E+05  1.106910E+05  3.318761E+03  1.736631E+05  2.274589E+03 -4.828174E+03
       145  24  2.715900E+05  1.054389E+05  3.197298E+03  1.721343E+05  2.033969E+03 -1.768948E+03
       145  25  3.568419E+05  1.658417E+05  2.728270E+04  2.151279E+05  5.196576E+03 -5.858916E+03
       145  26  3.237207E+05  1.514385E+05  1.870307E+04  2.026839E+05  4.980343E+03 -2.800012E+03
       145  27  3.014929E+05  1.265483E+05  1.124236E+04  1.871709E+05  4.755323E+03  2.707755E+02
       146   1  2.608556E+05  9.819206E+04  7.925299E+02  1.669414E+05  1.173296E+03  2.252564E+03
       146   2  2.834064E+05  1.227573E+05  9.665742E+03  1.821447E+05  4.099106E+02 -1.445937E+03
       146   3  3.174480E+05  1.376313E+05  2.066585E+04  1.939980E+05 -5.180104E+02 -4.925100E+03
       146   4  2.716099E+05  1.054247E+05  3.490714E+03  1.722057E+05 -1.588861E+03  1.822890E+02
       146   5  2.661390E+05  1.107349E+05  4.956357E+03  1.735554E+05 -2.065207E+03 -3.301097E+03
       146   6  2.720964E+05  1.062918E+05  8.300240E+03  1.715547E+05 -2.705972E+03 -6.565063E+03
       146   7  2.823641E+05  1.126573E+05  6.188882E+03  1.774701E+05 -4.351043E+03 -1.888002E+03
       146   8  2.488720E+05  9.871281E+04  2.470238E+02  1.649665E+05 -4.540214E+03 -5.156175E+03
       146   9  2.267471E+05  7.495345E+04 -4.065528E+03  1.491133E+05 -4.893717E+03 -8.204867E+03
       146  10  2.608556E+05  9.819205E+04  7.925178E+02  1.669414E+05 -2.953277E-10  6.456321E-11
       146  11  2.834064E+05  1.227573E+05  9.665738E+03  1.821447E+05  2.514944E-10  9.399544E-11
       146  12  3.174480E+05  1.376313E+05  2.066580E+04  1.939980E+05  1.718676E-10 -3.454645E-10
       146  13  2.716099E+05  1.054247E+05  3.490709E+03  1.722057E+05 -2.862917E-10  4.917558E-11
       146  14  2.661390E+05  1.107349E+05  4.956329E+03  1.735554E+05 -3.378801E-10 -6.405691E-11
       146  15  2.720964E+05  1.062918E+05  8.300145E+03  1.715547E+05 -2.694518E-10  1.297259E-10
       146  16  2.823641E+05  1.126573E+05  6.188840E+03  1.774701E+05  6.929413E-11 -8.722065E-11
       146  17  2.488720E+05  9.871277E+04  2.469352E+02  1.649664E+05  5.925492E-11 -1.527363E-10
       146  18  2.267471E+05  7.495337E+04 -4.065699E+03  1.491133E+05 -3.320500E-10  3.110661E-10
       146  19  2.608556E+05  9.819206E+04  7.925299E+02  1.669414E+05 -1.173296E+03 -2.252564E+03
       146  20  2.834064E+05  1.227573E+05  9.665742E+03  1.821447E+05 -4.099106E+02  1.445937E+03
       146  21  3.174480E+05  1.376313E+05  2.066585E+04  1.939980E+05  5.180104E+02  4.925100E+03
       146  22  2.716099E+05  1.054247E+05  3.490714E+03  1.722057E+05  1.588861E+03 -1.822890E+02
       146  23  2.661390E+05  1.107349E+05  4.956357E+03  1.735554E+05  2.065207E+03  3.301097E+03
       146  24  2.720964E+05  1.062918E+05  8.300240E+03  1.715547E+05  2.705972E+03  6.565063E+03
       146  25  2.823641E+05  1.126573E+05  6.188882E+03  1.774701E+05  4.351043E+03  1.888002E+03
       146  26  2.488720E+05  9.871281E+04  2.470238E+02  1.649665E+05  4.540214E+03  5.156175E+03
       146  27  2.267471E+05  7.495345E+04 -4.065528E+03  1.491133E+05  4.893717E+03  8.204867E+03
       147   1  3.333062E+05  1.547061E+05  2.823027E+04  2.065296E+05  4.997964E+01 -6.500662E+03
       147   2  3.658731E+05  1.701545E+05  4.506000E+04  2.144434E+05 -1.194498E+04 -1.622239E+04
       147   3  4.236584E+05  1.948644E+05  7.842336E+04  2.109255E+05 -2.660598E+04 -2.238993E+04
       147   4  2.723753E+05  1.057352E+05  1.053397E+04  1.731762E+05 -2.887102E+03 -8.702167E+03
       147   5  2.664406E+05  1.125923E+05  1.842704E+04  1.706545E+05 -1.022968E+04 -1.493702E+04
       147   6  2.847163E+05  1.277046E+05  3.882014E+04  1.567003E+05 -2.023729E+04 -1.761711E+04
       147   7  2.114479E+05  5.676666E+04 -7.162926E+03  1.398264E+05 -5.823831E+03 -1.090335E+04
       147   8  1.670187E+05  5.503335E+04 -8.206913E+03  1.268727E+05 -8.514751E+03 -1.365187E+04
       147   9  1.457959E+05  6.054906E+04 -7.844775E+02  1.024865E+05 -1.387060E+04 -1.284518E+04
       147  10  3.333062E+05  1.547061E+05  2.823019E+04  2.065296E+05  1.940533E-10  3.428173E-11
       147  11  3.658729E+05  1.701542E+05  4.505924E+04  2.144433E+05 -5.725728E-10  3.050688E-10
       147  12  4.236575E+05  1.948637E+05  7.842109E+04  2.109250E+05 -4.155885E-11  2.648542E-10
       147  13  2.723753E+05  1.057351E+05  1.053381E+04  1.731762E+05 -1.469382E-10 -2.870598E-11
       147  14  2.664405E+05  1.125921E+05  1.842642E+04  1.706544E+05  4.624583E-11 -2.027568E-11
       147  15  2.847158E+05  1.277042E+05  3.881879E+04  1.567000E+05 -2.349662E-10  3.994275E-11
       147  16  2.114478E+05  5.676652E+04 -7.163213E+03  1.398263E+05 -5.038007E-10  1.806487E-10
       147  17  1.670186E+05  5.503313E+04 -8.207400E+03  1.268726E+05  1.722521E-10 -2.769959E-11
       147  18  1.457956E+05  6.054883E+04 -7.851489E+02  1.024863E+05 -2.413501E-10 -1.590511E-10
       147  19  3.333062E+05  1.547061E+05  2.823027E+04  2.065296E+05 -4.997964E+01  6.500662E+03
       147  20  3.658731E+05  1.701545E+05  4.506000E+04  2.144434E+05  1.194498E+04  1.622239E+04
       147  21  4.236584E+05  1.948644E+05  7.842336E+04  2.109255E+05  2.660598E+04  2.238993E+04
       147  22  2.723753E+05  1.057352E+05  1.053397E+04  1.731762E+05  2.887102E+03  8.702167E+03
       147  23  2.664406E+05  1.125923E+05  1.842704E+04  1.706545E+05  1.022968E+04  1.493702E+04
       147  24  2.847163E+05  1.277046E+05  3.882014E+04  1.567003E+05  2.023729E+04  1.761711E+04
       147  25  2.114479E+05  5.676666E+04 -7.162926E+03  1.398264E+05  5.823831E+03  1.090335E+04
       147  26  1.670187E+05  5.503335E+04 -8.206913E+03  1.268727E+05  8.514751E+03  1.365187E+04
       147  27  1.457959E+05  6.054906E+04 -7.844775E+02  1.024865E+05  1.387060E+04  1.284518E+04
       148   1  1.375698E+06  2.125680E+05  2.794309E+05  4.102990E+04  1.987047E+05  4.119106E+02
       148   2  1.338689E+06 -5.946737E+04  1.151865E+05  1.216560E+04  1.293966E+05  1.092309E+03
       148   3  1.388517E+06 -2.008559E+04  7.386816E+04 -2.480004E+04  6.008609E+04  8.034271E+02
       148   4  1.433940E+06  2.270817E+05  2.938922E+05 -3.745206E+03  1.990640E+05  3.976224E+02
       148   5  1.390580E+06 -4.655569E+04  1.279310E+05  3.106359E+02  1.294636E+05  1.089837E+03
       148   6  1.434095E+06 -8.743539E+03  8.508972E+04 -3.736564E+03  5.986159E+04  8.054721E+02
       148   7  1.492190E+06  2.416027E+05  3.083544E+05 -4.852451E+04  1.994233E+05  3.832836E+02
       148   8  1.442473E+06 -3.364367E+04  1.406754E+05 -1.154532E+04  1.295306E+05  1.087363E+03
       148   9  1.479676E+06  2.600023E+03  9.631137E+04  1.732845E+04  5.963706E+04  8.075017E+02
       148  10  1.375655E+06  2.125574E+05  2.793569E+05  4.102984E+04 -8.540798E-11  2.664845E-10
       148  11  1.338672E+06 -5.947186E+04  1.151551E+05  1.216549E+04 -4.413646E-10  4.192501E-10
       148  12  1.388513E+06 -2.008656E+04  7.386139E+04 -2.480008E+04  1.959547E-10  1.322998E-10
       148  13  1.433898E+06  2.270711E+05  2.938179E+05 -3.745270E+03 -3.198446E-10  2.235559E-10
       148  14  1.390562E+06 -4.656017E+04  1.278996E+05  3.105224E+02 -7.434160E-10  5.370130E-10
       148  15  1.434091E+06 -8.744498E+03  8.508300E+04 -3.736603E+03 -1.514407E-10  6.242472E-11
       148  16  1.492148E+06  2.415921E+05  3.082798E+05 -4.852457E+04  1.170951E-10  2.199736E-10
       148  17  1.442455E+06 -3.364817E+04  1.406440E+05 -1.154543E+04 -3.615686E-10  6.218170E-10
       148  18  1.479673E+06  2.599070E+03  9.630470E+04  1.732842E+04 -5.939438E-10  1.669671E-10
       148  19  1.375698E+06  2.125680E+05  2.794309E+05  4.102990E+04 -1.987047E+05 -4.119106E+02
       148  20  1.338689E+06 -5.946737E+04  1.151865E+05  1.216560E+04 -1.293966E+05 -1.092309E+03
       148  21  1.388517E+06 -2.008559E+04  7.386816E+04 -2.480004E+04 -6.008609E+04 -8.034271E+02
       148  22  1.433940E+06  2.270817E+05  2.938922E+05 -3.745206E+03 -1.990640E+05 -3.976224E+02
       148  23  1.390580E+06 -4.655569E+04  1.279310E+05  3.106359E+02 -1.294636E+05 -1.089837E+03
       148  24  1.434095E+06 -8.743539E+03  8.508972E+04 -3.736564E+03 -5.986159E+04 -8.054721E+02
       148  25  1.492190E+06  2.416027E+05  3.083544E+05 -4.852451E+04 -1.994233E+05 -3.832836E+02
       148  26  1.442473E+06 -3.364367E+04  1.406754E+05 -1.154532E+04 -1.295306E+05 -1.087363E+03
       148  27  1.479676E+06  2.600023E+03  9.631137E+04  1.732845E+04 -5.963706E+04 -8.075017E+02
       149   1  1.389604E+06  2.363979E+04  6.486069E+04  2.520464E+03  4.589781E+04  5.301892E+02
       149   2  1.388125E+06 -1.280222E+04  3.521005E+04  1.410630E+03  2.480575E+04  4.328277E+02
       149   3  1.401350E+06 -1.366330E+03  3.123950E+04 -7.207480E+03  3.713923E+03  2.325842E+02
       149   4  1.418017E+06  3.071298E+04  7.185139E+04 -3.604194E+03  4.588530E+04  5.297370E+02
       149   5  1.410675E+06 -7.189688E+03  4.075581E+04  1.488144E+02  2.476213E+04  4.327810E+02
       149   6  1.418041E+06  2.789851E+03  3.536106E+04 -3.606471E+03  3.639388E+03  2.326151E+02
       149   7  1.446432E+06  3.778624E+04  7.884205E+04 -9.729133E+03  4.587279E+04  5.292851E+02
       149   8  1.433226E+06 -1.577192E+03  4.630153E+04 -1.113047E+03  2.471850E+04  4.327346E+02
       149   9  1.434732E+06  6.946060E+03  3.948260E+04 -5.365289E+00  3.564851E+03  2.326452E+02
       149  10  1.389602E+06  2.363923E+04  6.485674E+04  2.520445E+03 -3.721963E-10 -6.666908E-11
       149  11  1.388124E+06 -1.280238E+04  3.520889E+04  1.410621E+03  4.123859E-10 -9.199993E-11
       149  12  1.401350E+06 -1.366334E+03  3.123948E+04 -7.207480E+03 -2.165375E-10  2.329168E-10
       149  13  1.418015E+06  3.071241E+04  7.184744E+04 -3.604214E+03  5.052912E-11 -1.622044E-10
       149  14  1.410674E+06 -7.189852E+03  4.075466E+04  1.488057E+02 -4.041080E-10  9.483795E-12
       149  15  1.418041E+06  2.789847E+03  3.536103E+04 -3.606471E+03 -4.664474E-10  1.701592E-10
       149  16  1.446430E+06  3.778568E+04  7.883811E+04 -9.729152E+03  3.529169E-10 -1.840514E-10
       149  17  1.433225E+06 -1.577356E+03  4.630038E+04 -1.113055E+03 -4.662463E-10  1.541749E-10
       149  18  1.434732E+06  6.946056E+03  3.948257E+04 -5.365957E+00  1.471551E-10  1.478292E-10
       149  19  1.389604E+06  2.363979E+04  6.486069E+04  2.520464E+03 -4.589781E+04 -5.301892E+02
       149  20  1.388125E+06 -1.280222E+04  3.521005E+04  1.410630E+03 -2.480575E+04 -4.328277E+02
       149  21  1.401350E+06 -1.366330E+03  3.123950E+04 -7.207480E+03 -3.713923E+03 -2.325842E+02
       149  22  1.418017E+06  3.071298E+04  7.185139E+04 -3.604194E+03 -4.588530E+04 -5.297370E+02
       149  23  1.410675E+06 -7.189688E+03  4.075581E+04  1.488144E+02 -2.476213E+04 -4.327810E+02
       149  24  1.418041E+06  2.789851E+03  3.536106E+04 -3.606471E+03 -3.639388E+03 -2.326151E+02
       149  25  1.446432E+06  3.778624E+04  7.884205E+04 -9.729133E+03 -4.587279E+04 -5.292851E+02
       149  26  1.433226E+06 -1.577192E+03  4.630153E+04 -1.113047E+03 -2.471850E+04 -4.327346E+02
       149  27  1.434732E+06  6.946060E+03  3.948260E+04 -5.365289E+00 -3.564851E+03 -2.326452E+02
       150   1  1.417651E+06  2.896261E+03  3.515997E+04 -5.014444E+01 -2.627909E+03  8.487686E+01
       150   2  1.416222E+06 -5.649716E+03  4.126685E+04 -1.098337E+03 -2.333768E+04 -1.075972E+02
       150   3  1.429139E+06  3.245823E+04  7.249846E+04 -9.519354E+03 -4.404807E+04 -2.287674E+02
       150   4  1.417960E+06  2.971319E+03  3.522119E+04 -3.576592E+03 -2.695569E+03  8.490102E+01
       150   5  1.410777E+06 -7.004939E+03  3.992884E+04  1.113955E+02 -2.338439E+04 -1.076367E+02
       150   6  1.417937E+06  2.966925E+04  6.974687E+04 -3.573323E+03 -4.407364E+04 -2.291854E+02
       150   7  1.418268E+06  3.046423E+03  3.528242E+04 -7.103042E+03 -2.763229E+03  8.492594E+01
       150   8  1.405333E+06 -8.360159E+03  3.859082E+04  1.321117E+03 -2.343110E+04 -1.076763E+02
       150   9  1.406735E+06  2.688040E+04  6.699530E+04  2.372602E+03 -4.409921E+04 -2.296038E+02
       150  10  1.417651E+06  2.896259E+03  3.515995E+04 -5.014426E+01  5.437937E-10 -1.264599E-10
       150  11  1.416221E+06 -5.649862E+03  4.126583E+04 -1.098339E+03 -1.233475E-10 -2.140952E-10
       150  12  1.429137E+06  3.245771E+04  7.249482E+04 -9.519362E+03 -3.711582E-10 -8.770079E-11
       150  13  1.417960E+06  2.971317E+03  3.522118E+04 -3.576592E+03  2.862651E-10  1.049303E-10
       150  14  1.410777E+06 -7.005086E+03  3.992781E+04  1.113935E+02  1.189626E-10 -1.579727E-11
       150  15  1.417935E+06  2.966873E+04  6.974323E+04 -3.573331E+03  4.464276E-11 -2.060808E-10
       150  16  1.418268E+06  3.046421E+03  3.528240E+04 -7.103041E+03 -8.721773E-11  2.045423E-10
       150  17  1.405332E+06 -8.360306E+03  3.858980E+04  1.321115E+03 -1.543256E-10 -4.919942E-11
       150  18  1.406733E+06  2.687988E+04  6.699165E+04  2.372593E+03 -2.916842E-10 -4.299233E-12
       150  19  1.417651E+06  2.896261E+03  3.515997E+04 -5.014444E+01  2.627909E+03 -8.487686E+01
       150  20  1.416222E+06 -5.649716E+03  4.126685E+04 -1.098337E+03  2.333768E+04  1.075972E+02
       150  21  1.429139E+06  3.245823E+04  7.249846E+04 -9.519354E+03  4.404807E+04  2.287674E+02
       150  22  1.417960E+06  2.971319E+03  3.522119E+04 -3.576592E+03  2.695569E+03 -8.490102E+01
       150  23  1.410777E+06 -7.004939E+03  3.992884E+04  1.113955E+02  2.338439E+04  1.076367E+02
       150  24  1.417937E+06  2.966925E+04  6.974687E+04 -3.573323E+03  4.407364E+04  2.291854E+02
       150  25  1.418268E+06  3.046423E+03  3.528242E+04 -7.103042E+03  2.763229E+03 -8.492594E+01
       150  26  1.405333E+06 -8.360159E+03  3.859082E+04  1.321117E+03  2.343110E+04  1.076763E+02
       150  27  1.406735E+06  2.688040E+04  6.699530E+04  2.372602E+03  4.409921E+04  2.296038E+02
       151   1  1.461221E+06 -1.502923E+03  8.930399E+04  1.671295E+04 -5.745224E+04 -4.593461E+02
       151   2  1.425150E+06 -3.659397E+04  1.320208E+05 -1.126387E+04 -1.249749E+05 -7.058230E+02
       151   3  1.473077E+06  2.293628E+05  2.938999E+05 -4.691524E+04 -1.924967E+05 -2.426616E+02
       151   4  1.433448E+06 -8.412383E+03  8.246160E+04 -3.646765E+03 -5.762896E+04 -4.574472E+02
       151   5  1.391391E+06 -4.499594E+04  1.237308E+05  1.948532E+02 -1.249423E+05 -7.081292E+02
       151   6  1.433298E+06  2.194372E+05  2.840216E+05 -3.635854E+03 -1.922541E+05 -2.560624E+02
       151   7  1.405676E+06 -1.532035E+04  7.561936E+04 -2.400557E+04 -5.780568E+04 -4.555366E+02
       151   8  1.357632E+06 -5.339750E+04  1.154408E+05  1.165295E+04 -1.249096E+05 -7.104343E+02
       151   9  1.393524E+06  2.095185E+05  2.741442E+05  3.964077E+04 -1.920114E+05 -2.694302E+02
       151  10  1.461218E+06 -1.503807E+03  8.929781E+04  1.671293E+04 -6.356870E-10  1.830524E-10
       151  11  1.425134E+06 -3.659815E+04  1.319915E+05 -1.126394E+04 -8.461620E-10  7.281330E-10
       151  12  1.473038E+06  2.293529E+05  2.938304E+05 -4.691528E+04 -8.980637E-11  2.520024E-10
       151  13  1.433445E+06 -8.413272E+03  8.245537E+04 -3.646786E+03 -7.664550E-10  1.604563E-10
       151  14  1.391374E+06 -4.500012E+04  1.237015E+05  1.947820E+02  3.159260E-10  4.775162E-10
       151  15  1.433258E+06  2.194273E+05  2.839523E+05 -3.635894E+03  3.333670E-10  2.068454E-10
       151  16  1.405673E+06 -1.532124E+04  7.561310E+04 -2.400559E+04  7.505923E-10 -1.313444E-10
       151  17  1.357616E+06 -5.340168E+04  1.154115E+05  1.165288E+04  2.769900E-10  5.588711E-10
       151  18  1.393485E+06  2.095087E+05  2.740751E+05  3.964073E+04  3.011442E-10  1.949612E-10
       151  19  1.461221E+06 -1.502923E+03  8.930399E+04  1.671295E+04  5.745224E+04  4.593461E+02
       151  20  1.425150E+06 -3.659397E+04  1.320208E+05 -1.126387E+04  1.249749E+05  7.058230E+02
       151  21  1.473077E+06  2.293628E+05  2.938999E+05 -4.691524E+04  1.924967E+05  2.426616E+02
       151  22  1.433448E+06 -8.412383E+03  8.246160E+04 -3.646765E+03  5.762896E+04  4.574472E+02
       151  23  1.391391E+06 -4.499594E+04  1.237308E+05  1.948532E+02  1.249423E+05  7.081292E+02
       151  24  1.433298E+06  2.194372E+05  2.840216E+05 -3.635854E+03  1.922541E+05  2.560624E+02
       151  25  1.405676E+06 -1.532035E+04  7.561936E+04 -2.400557E+04  5.780568E+04  4.555366E+02
       151  26  1.357632E+06 -5.339750E+04  1.154408E+05  1.165295E+04  1.249096E+05  7.104343E+02
       151  27  1.393524E+06  2.095185E+05  2.741442E+05  3.964077E+04  1.920114E+05  2.694302E+02
       152   1 -2.382058E+05 -1.204257E+06 -2.677566E+05  9.803020E+04 -4.775615E+03 -1.088548E+05
       152   2 -7.748205E+04 -1.085303E+06 -1.579412E+05  3.677679E+04 -1.343541E+04 -6.330842E+04
       152   3 -6.109591E+04 -1.008313E+06 -1.138907E+05  3.537154E+04 -1.016646E+04 -1.775623E+04
       152   4 -1.221710E+05 -7.390908E+05 -1.532296E+05  5.312823E+04 -4.766713E+03 -9.995239E+04
       152   5  1.317848E+04 -7.187214E+05 -7.154963E+04  2.319337E+04 -1.343308E+04 -6.167518E+04
       152   6  5.499353E+03 -7.390317E+05 -5.054855E+04  5.311112E+04 -1.016921E+04 -2.339980E+04
       152   7 -6.144734E+03 -2.737230E+05 -3.871711E+04  8.192488E+03 -4.759107E+03 -9.104333E+04
       152   8  1.038301E+05 -3.520153E+05  1.483275E+04  9.601869E+03 -1.343082E+04 -6.004097E+04
       152   9  7.209063E+04 -4.696833E+05  1.278894E+04  7.085844E+04 -1.017229E+04 -2.904581E+04
       152  10 -2.382091E+05 -1.204270E+06 -2.677789E+05  9.802978E+04 -7.400027E-11 -8.734353E-11
       152  11 -7.748332E+04 -1.085308E+06 -1.579491E+05  3.677610E+04 -7.429167E-12  8.677176E-11
       152  12 -6.109610E+04 -1.008313E+06 -1.138915E+05  3.537140E+04 -3.341265E-10  1.302973E-10
       152  13 -1.221738E+05 -7.391016E+05 -1.532484E+05  5.312784E+04  2.409562E-10 -4.716826E-11
       152  14  1.317726E+04 -7.187255E+05 -7.155713E+04  2.319271E+04  8.582967E-11 -8.423404E-11
       152  15  5.499095E+03 -7.390323E+05 -5.054977E+04  5.311093E+04  2.538285E-10  5.233325E-12
       152  16 -6.146984E+03 -2.737320E+05 -3.873274E+04  8.192139E+03  1.682542E-10  1.011759E-10
       152  17  1.038289E+05 -3.520192E+05  1.482564E+04  9.601219E+03 -2.767283E-10  1.606431E-10
       152  18  7.209029E+04 -4.696842E+05  1.278716E+04  7.085820E+04 -3.803333E-10  2.816921E-10
       152  19 -2.382058E+05 -1.204257E+06 -2.677566E+05  9.803020E+04  4.775615E+03  1.088548E+05
       152  20 -7.748205E+04 -1.085303E+06 -1.579412E+05  3.677679E+04  1.343541E+04  6.330842E+04
       152  21 -6.109591E+04 -1.008313E+06 -1.138907E+05  3.537154E+04  1.016646E+04  1.775623E+04
       152  22 -1.221710E+05 -7.390908E+05 -1.532296E+05  5.312823E+04  4.766713E+03  9.995239E+04
       152  23  1.317848E+04 -7.187214E+05 -7.154963E+04  2.319337E+04  1.343308E+04  6.167518E+04
       152  24  5.499353E+03 -7.390317E+05 -5.054855E+04  5.311112E+04  1.016921E+04  2.339980E+04
       152  25 -6.144734E+03 -2.737230E+05 -3.871711E+04  8.192488E+03  4.759107E+03  9.104333E+04
       152  26  1.038301E+05 -3.520153E+05  1.483275E+04  9.601869E+03  1.343082E+04  6.004097E+04
       152  27  7.209063E+04 -4.696833E+05  1.278894E+04  7.085844E+04  1.017229E+04  2.904581E+04
       153   1 -4.991305E+04 -8.931777E+05 -8.366307E+04  5.884535E+04 -5.960478E+03 -1.310680E+04
       153   2 -1.262808E+04 -7.898940E+05 -5.353903E+04  2.276184E+04 -2.342073E+03  6.747659E+03
       153   3 -4.312592E+03 -6.964991E+05 -4.361045E+04  4.718645E+04  1.448584E+03  2.660462E+04
       153   4 -1.010939E+04 -7.321840E+05 -4.575147E+04  5.326471E+04 -5.961362E+03 -1.526332E+04
       153   5  2.861035E+03 -7.272438E+05 -3.879791E+04  2.301132E+04 -2.343231E+03  4.488467E+03
       153   6 -1.311790E+04 -7.321828E+05 -5.196592E+04  5.326661E+04  1.447489E+03  2.423968E+04
       153   7  2.969253E+04 -5.711664E+05 -7.841607E+03  4.768260E+04 -5.962207E+03 -1.742040E+04
       153   8  1.834987E+04 -6.645900E+05 -2.405704E+04  2.326083E+04 -2.344390E+03  2.229047E+03
       153   9 -2.192317E+04 -7.678651E+05 -6.032143E+04  5.934642E+04  1.446348E+03  2.187487E+04
       153  10 -4.991313E+04 -8.931779E+05 -8.366346E+04  5.884528E+04 -1.753137E-10 -7.648454E-10
       153  11 -1.262810E+04 -7.898940E+05 -5.353912E+04  2.276185E+04 -8.022221E-10  1.368423E-10
       153  12 -4.312784E+03 -6.964999E+05 -4.361178E+04  4.718642E+04 -4.860853E-10 -7.758915E-10
       153  13 -1.010949E+04 -7.321843E+05 -4.575197E+04  5.326463E+04 -2.515749E-10  7.365976E-11
       153  14  2.861023E+03 -7.272438E+05 -3.879796E+04  2.301133E+04 -9.241608E-10 -2.387782E-10
       153  15 -1.311806E+04 -7.321834E+05 -5.196702E+04  5.326659E+04  1.240007E-10 -1.366259E-11
       153  16  2.969241E+04 -5.711667E+05 -7.842244E+03  4.768252E+04 -3.430161E-10  5.100787E-10
       153  17  1.834987E+04 -6.645900E+05 -2.405706E+04  2.326083E+04 -6.305796E-10  6.632612E-10
       153  18 -2.192330E+04 -7.678657E+05 -6.032233E+04  5.934640E+04 -2.637221E-10  1.212324E-09
       153  19 -4.991305E+04 -8.931777E+05 -8.366307E+04  5.884535E+04  5.960478E+03  1.310680E+04
       153  20 -1.262808E+04 -7.898940E+05 -5.353903E+04  2.276184E+04  2.342073E+03 -6.747659E+03
       153  21 -4.312592E+03 -6.964991E+05 -4.361045E+04  4.718645E+04 -1.448584E+03 -2.660462E+04
       153  22 -1.010939E+04 -7.321840E+05 -4.575147E+04  5.326471E+04  5.961362E+03  1.526332E+04
       153  23  2.861035E+03 -7.272438E+05 -3.879791E+04  2.301132E+04  2.343231E+03 -4.488467E+03
       153  24 -1.311790E+04 -7.321828E+05 -5.196592E+04  5.326661E+04 -1.447489E+03 -2.423968E+04
       153  25  2.969253E+04 -5.711664E+05 -7.841607E+03  4.768260E+04  5.962207E+03  1.742040E+04
       153  26  1.834987E+04 -6.645900E+05 -2.405704E+04  2.326083E+04  2.344390E+03 -2.229047E+03
       153  27 -2.192317E+04 -7.678651E+05 -6.032143E+04  5.934642E+04 -1.446348E+03 -2.187487E+04
       154   1  4.317677E+04 -5.972366E+05 -2.552370E+04  7.543688E+04  5.313006E+03  3.855067E+04
       154   2  7.639449E+04 -4.739012E+05 -3.137543E+04  5.971400E+03  8.848308E+03  8.037527E+04
       154   3 -6.937787E+04 -4.007552E+05 -1.092110E+05 -3.350420E+03  3.329348E+03  1.222101E+05
       154   4  7.511871E+03 -7.413557E+05 -5.947791E+04  5.316709E+04  5.308999E+03  3.362213E+04
       154   5  1.660197E+04 -7.157940E+05 -8.837210E+04  2.311884E+04  8.851013E+03  8.096762E+04
       154   6 -1.543023E+05 -7.414200E+05 -1.931110E+05  5.321947E+04  3.342515E+03  1.283163E+05
       154   7 -2.815264E+04 -8.854545E+05 -9.343319E+04  3.090249E+04  5.305346E+03  2.869472E+04
       154   8 -4.319363E+04 -9.576322E+05 -1.453726E+05  4.025954E+04  8.853751E+03  8.155974E+04
       154   9 -2.392233E+05 -1.081972E+06 -2.770177E+05  1.097582E+05  3.356802E+03  1.344192E+05
       154  10  4.317635E+04 -5.972382E+05 -2.552655E+04  7.543672E+04  1.546758E-10 -7.276677E-09
       154  11  7.639267E+04 -4.739082E+05 -3.138773E+04  5.970828E+03  3.495916E-10  1.632110E-10
       154  12 -6.938189E+04 -4.007712E+05 -1.092392E+05 -3.350748E+03  7.807037E-13  5.761437E-09
       154  13  7.511537E+03 -7.413569E+05 -5.948009E+04  5.316694E+04  4.998213E-10 -9.558387E-11
       154  14  1.660012E+04 -7.158010E+05 -8.838458E+04  2.311826E+04  6.546768E-10 -1.990175E-10
       154  15 -1.543067E+05 -7.414377E+05 -1.931420E+05  5.321913E+04  4.230454E-11 -3.980863E-11
       154  16 -2.815290E+04 -8.854554E+05 -9.343479E+04  3.090237E+04 -7.280130E-11  7.013957E-09
       154  17 -4.319550E+04 -9.576394E+05 -1.453853E+05  4.025896E+04  1.997320E-10  3.947638E-10
       154  18 -2.392281E+05 -1.081992E+06 -2.770518E+05  1.097579E+05  1.786988E-10 -5.525712E-09
       154  19  4.317677E+04 -5.972366E+05 -2.552370E+04  7.543688E+04 -5.313006E+03 -3.855067E+04
       154  20  7.639449E+04 -4.739012E+05 -3.137543E+04  5.971400E+03 -8.848308E+03 -8.037527E+04
       154  21 -6.937787E+04 -4.007552E+05 -1.092110E+05 -3.350420E+03 -3.329348E+03 -1.222101E+05
       154  22  7.511871E+03 -7.413557E+05 -5.947791E+04  5.316709E+04 -5.308999E+03 -3.362213E+04
       154  23  1.660197E+04 -7.157940E+05 -8.837210E+04  2.311884E+04 -8.851013E+03 -8.096762E+04
       154  24 -1.543023E+05 -7.414200E+05 -1.931110E+05  5.321947E+04 -3.342515E+03 -1.283163E+05
       154  25 -2.815264E+04 -8.854545E+05 -9.343319E+04  3.090249E+04 -5.305346E+03 -2.869472E+04
       154  26 -4.319363E+04 -9.576322E+05 -1.453726E+05  4.025954E+04 -8.853751E+03 -8.155974E+04
       154  27 -2.392233E+05 -1.081972E+06 -2.770177E+05  1.097582E+05 -3.356802E+03 -1.344192E+05
       155   1  7.664474E+04  4.293272E+04  1.060099E+04  7.118865E+04  5.175317E+04  4.777952E+04
       155   2  1.177910E+05 -1.565894E+04 -3.140095E+04  1.379826E+05  2.907821E+04  4.984420E+04
       155   3  2.311976E+05 -2.986191E+04 -3.950816E+04  1.661340E+05  1.510643E+04  4.029914E+04
       155   4  5.430194E+05  2.620952E+05  1.420899E+05  2.503862E+05  7.420444E+04  6.460491E+04
       155   5  4.827593E+05  1.981488E+05  6.687349E+04  2.998702E+05  3.706974E+04  5.583106E+04
       155   6  4.978523E+05  1.816903E+05  3.807111E+04  3.107175E+05  8.639219E+03  3.545139E+04
       155   7  1.009641E+06  4.813030E+05  2.735646E+05  4.297089E+05  9.667942E+04  8.144036E+04
       155   8  8.478798E+05  4.120063E+05  1.651377E+05  4.618582E+05  4.506777E+04  6.182171E+04
       155   9  7.645894E+05  3.932993E+05  1.156442E+05  4.553773E+05  2.168220E+03  3.060033E+04
       155  10  7.664125E+04  4.292955E+04  1.059167E+04  7.118666E+04 -3.498555E-10 -1.879232E-10
       155  11  1.177894E+05 -1.566184E+04 -3.140720E+04  1.379815E+05 -8.026446E-11  1.121955E-10
       155  12  2.311969E+05 -2.986372E+04 -3.951164E+04  1.661335E+05  6.367134E-10  2.280380E-10
       155  13  5.430124E+05  2.620892E+05  1.420718E+05  2.503824E+05 -2.197285E-10  1.448185E-11
       155  14  4.827570E+05  1.981451E+05  6.686505E+04  2.998685E+05 -1.045956E-10  1.479243E-10
       155  15  4.978519E+05  1.816889E+05  3.806861E+04  3.107172E+05 -4.056558E-11 -1.293604E-10
       155  16  1.009629E+06  4.812934E+05  2.735346E+05  4.297026E+05 -5.988476E-11  3.760973E-10
       155  17  8.478766E+05  4.120017E+05  1.651268E+05  4.618560E+05 -2.679932E-10  1.957622E-10
       155  18  7.645892E+05  3.932983E+05  1.156424E+05  4.553773E+05 -4.512688E-10 -4.267366E-10
       155  19  7.664474E+04  4.293272E+04  1.060099E+04  7.118865E+04 -5.175317E+04 -4.777952E+04
       155  20  1.177910E+05 -1.565894E+04 -3.140095E+04  1.379826E+05 -2.907821E+04 -4.984420E+04
       155  21  2.311976E+05 -2.986191E+04 -3.950816E+04  1.661340E+05 -1.510643E+04 -4.029914E+04
       155  22  5.430194E+05  2.620952E+05  1.420899E+05  2.503862E+05 -7.420444E+04 -6.460491E+04
       155  23  4.827593E+05  1.981488E+05  6.687349E+04  2.998702E+05 -3.706974E+04 -5.583106E+04
       155  24  4.978523E+05  1.816903E+05  3.807111E+04  3.107175E+05 -8.639219E+03 -3.545139E+04
       155  25  1.009641E+06  4.813030E+05  2.735646E+05  4.297089E+05 -9.667942E+04 -8.144036E+04
       155  26  8.478798E+05  4.120063E+05  1.651377E+05  4.618582E+05 -4.506777E+04 -6.182171E+04
       155  27  7.645894E+05  3.932993E+05  1.156442E+05  4.553773E+05 -2.168220E+03 -3.060033E+04
       156   1  2.577456E+05  1.773663E+04 -3.608191E+04  1.853922E+05  1.051339E+04  3.236143E+04
       156   2  3.040509E+05  6.722773E+04 -3.199497E+04  2.199536E+05  7.149525E+03  2.448654E+04
       156   3  3.769466E+05  9.604153E+04 -2.209360E+04  2.465788E+05  4.285891E+03  1.594107E+04
       156   4  4.970031E+05  1.842739E+05  2.981462E+04  3.042785E+05  6.672085E+03  2.948146E+04
       156   5  4.827306E+05  1.929333E+05  1.695556E+04  3.094448E+05  2.471498E+03  2.098039E+04
       156   6  4.952246E+05  1.810945E+05  1.063380E+04  3.066723E+05 -1.228211E+03  1.180938E+04
       156   7  7.363212E+05  3.508405E+05  9.570465E+04  4.232151E+05  2.828828E+03  2.660006E+04
       156   8  6.614448E+05  3.186562E+05  6.590278E+04  3.989648E+05 -2.208312E+03  1.747290E+04
       156   9  6.135182E+05  2.661560E+05  4.336001E+04  3.667791E+05 -6.743724E+03  7.676611E+03
       156  10  2.577452E+05  1.773548E+04 -3.608409E+04  1.853919E+05 -1.377444E-10 -3.556249E-10
       156  11  3.040507E+05  6.722707E+04 -3.199619E+04  2.199534E+05  8.483228E-11 -3.431198E-10
       156  12  3.769465E+05  9.604126E+04 -2.209411E+04  2.465787E+05 -5.014920E-10  2.444197E-10
       156  13  4.970028E+05  1.842729E+05  2.981290E+04  3.042783E+05  2.298047E-10 -2.502749E-10
       156  14  4.827305E+05  1.929328E+05  1.695473E+04  3.094448E+05 -3.327446E-10 -2.805563E-10
       156  15  4.952246E+05  1.810944E+05  1.063354E+04  3.066723E+05 -3.836197E-10  2.032490E-10
       156  16  7.363210E+05  3.508398E+05  9.570330E+04  4.232150E+05  7.367968E-10 -1.680322E-10
       156  17  6.614447E+05  3.186559E+05  6.590219E+04  3.989649E+05  3.245993E-10 -7.294673E-11
       156  18  6.135182E+05  2.661559E+05  4.335982E+04  3.667791E+05  1.262085E-10  3.279340E-10
       156  19  2.577456E+05  1.773663E+04 -3.608191E+04  1.853922E+05 -1.051339E+04 -3.236143E+04
       156  20  3.040509E+05  6.722773E+04 -3.199497E+04  2.199536E+05 -7.149525E+03 -2.448654E+04
       156  21  3.769466E+05  9.604153E+04 -2.209360E+04  2.465788E+05 -4.285891E+03 -1.594107E+04
       156  22  4.970031E+05  1.842739E+05  2.981462E+04  3.042785E+05 -6.672085E+03 -2.948146E+04
       156  23  4.827306E+05  1.929333E+05  1.695556E+04  3.094448E+05 -2.471498E+03 -2.098039E+04
       156  24  4.952246E+05  1.810945E+05  1.063380E+04  3.066723E+05  1.228211E+03 -1.180938E+04
       156  25  7.363212E+05  3.508405E+05  9.570465E+04  4.232151E+05 -2.828828E+03 -2.660006E+04
       156  26  6.614448E+05  3.186562E+05  6.590278E+04  3.989648E+05  2.208312E+03 -1.747290E+04
       156  27  6.135182E+05  2.661560E+05  4.336001E+04  3.667791E+05  6.743724E+03 -7.676611E+03
       157   1  4.181580E+05  1.265504E+05 -1.202843E+04  2.675385E+05  4.685976E+03  1.222182E+04
       157   2  4.650559E+05  1.802301E+05  2.258012E+03  3.007990E+05  5.098012E+03  5.790471E+03
       157   3  5.363549E+05  2.103924E+05  1.892230E+04  3.271646E+05  5.511908E+03 -6.443944E+02
       157   4  4.951149E+05  1.811629E+05  8.852960E+03  3.063515E+05 -6.828908E+02  8.199227E+03
       157   5  4.829131E+05  1.929159E+05  7.137151E+03  3.098062E+05 -2.754389E+02  1.764495E+03
       157   6  4.951084E+05  1.811499E+05  7.802565E+03  3.063625E+05  1.342329E+02 -4.673409E+03
       157   7  5.720795E+05  2.357797E+05  2.973432E+04  3.451706E+05 -6.052723E+03  4.175902E+03
       157   8  5.007707E+05  2.056021E+05  1.201643E+04  3.188138E+05 -5.649098E+03 -2.261638E+03
       157   9  4.538644E+05  1.519089E+05 -3.316971E+03  2.855622E+05 -5.242893E+03 -8.702010E+03
       157  10  4.181580E+05  1.265502E+05 -1.202876E+04  2.675384E+05  6.981291E-12  5.322090E-10
       157  11  4.650559E+05  1.802300E+05  2.257900E+03  3.007990E+05  8.059264E-11  2.644878E-10
       157  12  5.363549E+05  2.103924E+05  1.892224E+04  3.271646E+05 -7.293297E-11  1.029106E-10
       157  13  4.951149E+05  1.811629E+05  8.852833E+03  3.063515E+05  3.303312E-10 -4.410315E-11
       157  14  4.829131E+05  1.929159E+05  7.137145E+03  3.098062E+05  3.559815E-10 -3.600529E-10
       157  15  4.951084E+05  1.811499E+05  7.802524E+03  3.063625E+05  3.078554E-10 -1.689267E-10
       157  16  5.720795E+05  2.357797E+05  2.973422E+04  3.451706E+05 -5.496101E-10  5.137932E-11
       157  17  5.007707E+05  2.056020E+05  1.201636E+04  3.188138E+05 -2.083657E-10  1.353313E-10
       157  18  4.538643E+05  1.519088E+05 -3.317165E+03  2.855621E+05 -3.057336E-11  1.038725E-10
       157  19  4.181580E+05  1.265504E+05 -1.202843E+04  2.675385E+05 -4.685976E+03 -1.222182E+04
       157  20  4.650559E+05  1.802301E+05  2.258012E+03  3.007990E+05 -5.098012E+03 -5.790471E+03
       157  21  5.363549E+05  2.103924E+05  1.892230E+04  3.271646E+05 -5.511908E+03  6.443944E+02
       157  22  4.951149E+05  1.811629E+05  8.852960E+03  3.063515E+05  6.828908E+02 -8.199227E+03
       157  23  4.829131E+05  1.929159E+05  7.137151E+03  3.098062E+05  2.754389E+02 -1.764495E+03
       157  24  4.951084E+05  1.811499E+05  7.802565E+03  3.063625E+05 -1.342329E+02  4.673409E+03
       157  25  5.720795E+05  2.357797E+05  2.973432E+04  3.451706E+05  6.052723E+03 -4.175902E+03
       157  26  5.007707E+05  2.056021E+05  1.201643E+04  3.188138E+05  5.649098E+03  2.261638E+03
       157  27  4.538644E+05  1.519089E+05 -3.316971E+03  2.855622E+05  5.242893E+03  8.702010E+03
       158   1  5.778909E+05  2.406290E+05  3.193417E+04  3.486416E+05  6.377352E+03 -4.011426E+03
       158   2  6.256423E+05  2.934031E+05  5.275647E+04  3.810513E+05  3.272506E+03 -1.277195E+04
       158   3  6.997103E+05  3.251092E+05  7.945827E+04  4.057446E+05 -2.910758E+02 -2.092060E+04
       158   4  4.951803E+05  1.810945E+05  8.970531E+03  3.066003E+05  8.682332E+02 -8.139105E+03
       158   5  4.828006E+05  1.929533E+05  1.360069E+04  3.095255E+05 -1.473255E+03 -1.632840E+04
       158   6  4.965691E+05  1.835773E+05  2.345034E+04  3.047310E+05 -4.272785E+03 -2.390518E+04
       158   7  4.124775E+05  1.215640E+05 -1.399361E+04  2.645655E+05 -4.639900E+03 -1.226603E+04
       158   8  3.399807E+05  9.251456E+04 -2.555725E+04  2.380180E+05 -6.217578E+03 -1.988378E+04
       158   9  2.934711E+05  4.206635E+04 -3.256239E+04  2.037535E+05 -8.252789E+03 -2.688850E+04
       158  10  5.778909E+05  2.406290E+05  3.193406E+04  3.486416E+05  7.037735E-10 -4.800046E-11
       158  11  6.256423E+05  2.934029E+05  5.275615E+04  3.810513E+05  1.916130E-10 -4.936734E-11
       158  12  6.997101E+05  3.251087E+05  7.945744E+04  4.057446E+05 -2.576283E-10 -9.714953E-11
       158  13  4.951803E+05  1.810944E+05  8.970405E+03  3.066003E+05  1.610697E-10 -2.686563E-11
       158  14  4.828005E+05  1.929531E+05  1.360018E+04  3.095255E+05  3.829654E-10  3.641169E-10
       158  15  4.965689E+05  1.835767E+05  2.344924E+04  3.047309E+05 -1.496836E-10  2.193302E-10
       158  16  4.124774E+05  1.215639E+05 -1.399393E+04  2.645654E+05  3.425510E-10 -2.575689E-10
       158  17  3.399805E+05  9.251413E+04 -2.555806E+04  2.380179E+05 -1.241028E-11  7.414511E-11
       158  18  2.934708E+05  4.206556E+04 -3.256387E+04  2.037533E+05  2.330578E-10  1.620531E-10
       158  19  5.778909E+05  2.406290E+05  3.193417E+04  3.486416E+05 -6.377352E+03  4.011426E+03
       158  20  6.256423E+05  2.934031E+05  5.275647E+04  3.810513E+05 -3.272506E+03  1.277195E+04
       158  21  6.997103E+05  3.251092E+05  7.945827E+04  4.057446E+05  2.910758E+02  2.092060E+04
       158  22  4.951803E+05  1.810945E+05  8.970531E+03  3.066003E+05 -8.682332E+02  8.139105E+03
       158  23  4.828006E+05  1.929533E+05  1.360069E+04  3.095255E+05  1.473255E+03  1.632840E+04
       158  24  4.965691E+05  1.835773E+05  2.345034E+04  3.047310E+05  4.272785E+03  2.390518E+04
       158  25  4.124775E+05  1.215640E+05 -1.399361E+04  2.645655E+05  4.639900E+03  1.226603E+04
       158  26  3.399807E+05  9.251456E+04 -2.555725E+04  2.380180E+05  6.217578E+03  1.988378E+04
       158  27  2.934711E+05  4.206635E+04 -3.256239E+04  2.037535E+05  8.252789E+03  2.688850E+04
       159   1  7.310346E+05  3.647996E+05  9.752849E+04  4.354897E+05  1.006105E+03 -2.439863E+04
       159   2  8.063311E+05  3.911824E+05  1.401657E+05  4.477333E+05 -3.418796E+04 -5.050559E+04
       159   3  9.483810E+05  4.522484E+05  2.304470E+05  4.283611E+05 -7.734650E+04 -6.600230E+04
       159   4  4.972063E+05  1.815828E+05  2.982670E+04  3.097533E+05 -5.378630E+03 -2.918444E+04
       159   5  4.828524E+05  1.969950E+05  5.218813E+04  3.020552E+05 -2.734575E+04 -4.538027E+04
       159   6  5.323982E+05  2.442482E+05  1.107444E+05  2.627362E+05 -5.727170E+04 -5.096243E+04
       159   7  2.634416E+05 -1.591437E+03 -3.787964E+04  1.840749E+05 -1.176007E+04 -3.396744E+04
       159   8  1.594933E+05  2.849239E+03 -3.579759E+04  1.564583E+05 -2.050846E+04 -4.025791E+04
       159   9  1.166100E+05  3.628940E+04 -8.970553E+03  9.721786E+04 -3.721575E+04 -3.593133E+04
       159  10  7.310344E+05  3.647990E+05  9.752737E+04  4.354897E+05 -2.992158E-10 -1.202395E-10
       159  11  8.063291E+05  3.911794E+05  1.401587E+05  4.477319E+05 -1.630458E-10  1.480921E-10
       159  12  9.483734E+05  4.522421E+05  2.304276E+05  4.283570E+05  5.182271E-10  3.079897E-10
       159  13  4.972060E+05  1.815819E+05  2.982504E+04  3.097532E+05  3.015046E-11  1.141407E-10
       159  14  4.828511E+05  1.969926E+05  5.218286E+04  3.020542E+05  8.446206E-11  1.365651E-10
       159  15  5.323939E+05  2.442445E+05  1.107334E+05  2.627339E+05  5.974821E-11  1.149594E-10
       159  16  2.634411E+05 -1.592713E+03 -3.788206E+04  1.840746E+05  2.500766E-10  3.106200E-10
       159  17  1.594924E+05  2.847386E+03 -3.580142E+04  1.564577E+05  2.568655E-10  1.335583E-10
       159  18  1.166082E+05  3.628765E+04 -8.975581E+03  9.721678E+04  1.022446E-10 -9.262130E-11
       159  19  7.310346E+05  3.647996E+05  9.752849E+04  4.354897E+05 -1.006105E+03  2.439863E+04
       159  20  8.063311E+05  3.911824E+05  1.401657E+05  4.477333E+05  3.418796E+04  5.050559E+04
       159  21  9.483810E+05  4.522484E+05  2.304470E+05  4.283611E+05  7.734650E+04  6.600230E+04
       159  22  4.972063E+05  1.815828E+05  2.982670E+04  3.097533E+05  5.378630E+03  2.918444E+04
       159  23  4.828524E+05  1.969950E+05  5.218813E+04  3.020552E+05  2.734575E+04  4.538027E+04
       159  24  5.323982E+05  2.442482E+05  1.107444E+05  2.627362E+05  5.727170E+04  5.096243E+04
       159  25  2.634416E+05 -1.591437E+03 -3.787964E+04  1.840749E+05  1.176007E+04  3.396744E+04
       159  26  1.594933E+05  2.849239E+03 -3.579759E+04  1.564583E+05  2.050846E+04  4.025791E+04
       159  27  1.166100E+05  3.628940E+04 -8.970553E+03  9.721786E+04  3.721575E+04  3.593133E+04
       160   1  6.239468E+05  9.412615E+04  1.187040E+05  2.802691E+04  7.973605E+04 -6.416358E+01
       160   2  6.100629E+05 -1.144257E+04  5.376694E+04  8.105664E+03  5.167344E+04 -2.407025E+02
       160   3  6.285155E+05 -2.243409E+03  3.578075E+04 -1.351249E+04  2.361094E+04 -3.363883E+02
       160   4  6.186443E+05  9.280644E+04  1.174013E+05 -1.213504E+03  7.962776E+04 -6.791252E+01
       160   5  6.024938E+05 -1.331748E+04  5.195482E+04 -3.658606E+02  5.160515E+04 -2.414056E+02
       160   6  6.186721E+05 -4.681374E+03  3.343152E+04 -1.215922E+03  2.358274E+04 -3.359210E+02
       160   7  6.133437E+05  9.148993E+04  1.160990E+05 -3.045367E+04  7.951948E+04 -7.165129E+01
       160   8  5.949249E+05 -1.519211E+04  5.014274E+04 -8.837282E+03  5.153686E+04 -2.421069E+02
       160   9  6.088291E+05 -7.118778E+03  3.108236E+04  1.108045E+04  2.355454E+04 -3.354547E+02
       160  10  6.239399E+05  9.412445E+04  1.186921E+05  2.802691E+04  9.304253E-11 -5.257055E-12
       160  11  6.100601E+05 -1.144329E+04  5.376193E+04  8.105674E+03  5.461937E-10 -7.275359E-12
       160  12  6.285149E+05 -2.243559E+03  3.577971E+04 -1.351248E+04 -3.403334E-12  6.352777E-12
       160  13  6.186375E+05  9.280474E+04  1.173894E+05 -1.213499E+03 -2.317706E-10  5.618473E-11
       160  14  6.024909E+05 -1.331819E+04  5.194982E+04 -3.658506E+02 -8.009682E-11  3.008003E-11
       160  15  6.186715E+05 -4.681523E+03  3.343048E+04 -1.215916E+03  6.338956E-10 -9.976199E-11
       160  16  6.133369E+05  9.148824E+04  1.160871E+05 -3.045366E+04  1.036371E-10  4.953827E-11
       160  17  5.949220E+05 -1.519283E+04  5.013775E+04 -8.837272E+03 -1.469223E-10  8.258477E-11
       160  18  6.088285E+05 -7.118927E+03  3.108132E+04  1.108045E+04  7.013223E-11 -1.004001E-10
       160  19  6.239468E+05  9.412615E+04  1.187040E+05  2.802691E+04 -7.973605E+04  6.416358E+01
       160  20  6.100629E+05 -1.144257E+04  5.376694E+04  8.105664E+03 -5.167344E+04  2.407025E+02
       160  21  6.285155E+05 -2.243409E+03  3.578075E+04 -1.351249E+04 -2.361094E+04  3.363883E+02
       160  22  6.186443E+05  9.280644E+04  1.174013E+05 -1.213504E+03 -7.962776E+04  6.791252E+01
       160  23  6.024938E+05 -1.331748E+04  5.195482E+04 -3.658606E+02 -5.160515E+04  2.414056E+02
       160  24  6.186721E+05 -4.681374E+03  3.343152E+04 -1.215922E+03 -2.358274E+04  3.359210E+02
       160  25  6.133437E+05  9.148993E+04  1.160990E+05 -3.045367E+04 -7.951948E+04  7.165129E+01
       160  26  5.949249E+05 -1.519211E+04  5.014274E+04 -8.837282E+03 -5.153686E+04  2.421069E+02
       160  27  6.088291E+05 -7.118778E+03  3.108236E+04  1.108045E+04 -2.355454E+04  3.354547E+02
       161   1  6.253888E+05  1.291505E+04  3.107818E+04  1.702683E+03  1.836781E+04 -3.791998E+02
       161   2  6.254760E+05  2.174051E+03  2.010001E+04  3.125454E+02  9.960524E+03 -4.785389E+02
       161   3  6.299977E+05  4.797879E+03  1.793289E+04 -2.797368E+03  1.553123E+03 -5.686056E+02
       161   4  6.124665E+05  9.711662E+03  2.797415E+04 -1.220044E+03  1.831511E+04 -3.792859E+02
       161   5  6.102515E+05 -1.598069E+03  1.645341E+04 -3.602277E+02  9.912629E+03 -4.785502E+02
       161   6  6.124702E+05  4.563358E+02  1.374050E+04 -1.220147E+03  1.510056E+03 -5.686029E+02
       161   7  5.995444E+05  6.508295E+03  2.487012E+04 -4.142710E+03  1.826242E+04 -3.793715E+02
       161   8  5.950273E+05 -5.370203E+03  1.280680E+04 -1.032984E+03  9.864736E+03 -4.785614E+02
       161   9  5.949430E+05 -3.885220E+03  9.548091E+03  3.570292E+02  1.466989E+03 -5.686004E+02
       161  10  6.253884E+05  1.291496E+04  3.107755E+04  1.702689E+03 -3.457035E-10 -6.489292E-12
       161  11  6.254759E+05  2.174024E+03  2.009982E+04  3.125492E+02  3.719793E-11  5.605195E-11
       161  12  6.299977E+05  4.797878E+03  1.793289E+04 -2.797367E+03  2.907844E-10  1.983924E-11
       161  13  6.124662E+05  9.711571E+03  2.797352E+04 -1.220038E+03  2.152339E-10 -7.208175E-11
       161  14  6.102514E+05 -1.598095E+03  1.645323E+04 -3.602238E+02  3.289503E-10  5.883013E-11
       161  15  6.124702E+05  4.563349E+02  1.374050E+04 -1.220146E+03 -5.574090E-11 -3.015447E-11
       161  16  5.995441E+05  6.508206E+03  2.486949E+04 -4.142704E+03  8.826266E-11 -6.007901E-11
       161  17  5.950272E+05 -5.370230E+03  1.280662E+04 -1.032980E+03  6.104191E-10  7.378145E-11
       161  18  5.949430E+05 -3.885221E+03  9.548086E+03  3.570298E+02  2.798711E-11 -1.244490E-10
       161  19  6.253888E+05  1.291505E+04  3.107818E+04  1.702683E+03 -1.836781E+04  3.791998E+02
       161  20  6.254760E+05  2.174051E+03  2.010001E+04  3.125454E+02 -9.960524E+03  4.785389E+02
       161  21  6.299977E+05  4.797879E+03  1.793289E+04 -2.797368E+03 -1.553123E+03  5.686056E+02
       161  22  6.124665E+05  9.711662E+03  2.797415E+04 -1.220044E+03 -1.831511E+04  3.792859E+02
       161  23  6.102515E+05 -1.598069E+03  1.645341E+04 -3.602277E+02 -9.912629E+03  4.785502E+02
       161  24  6.124702E+05  4.563358E+02  1.374050E+04 -1.220147E+03 -1.510056E+03  5.686029E+02
       161  25  5.995444E+05  6.508295E+03  2.487012E+04 -4.142710E+03 -1.826242E+04  3.793715E+02
       161  26  5.950273E+05 -5.370203E+03  1.280680E+04 -1.032984E+03 -9.864736E+03  4.785614E+02
       161  27  5.949430E+05 -3.885220E+03  9.548091E+03  3.570292E+02 -1.466989E+03  5.686004E+02
       162   1  6.330898E+05  5.657404E+03  1.860206E+04  2.863195E+02 -8.518521E+02 -6.306491E+02
       162   2  6.333129E+05  4.172051E+03  2.142773E+04 -9.842396E+02 -9.004875E+03 -7.247283E+02
       162   3  6.377928E+05  1.547139E+04  3.275393E+04 -4.011034E+03 -1.715796E+04 -7.643737E+02
       162   4  6.124298E+05  5.372968E+02  1.364742E+04 -1.228157E+03 -9.129035E+02 -6.306490E+02
       162   5  6.103020E+05 -1.529150E+03  1.591656E+04 -3.501920E+02 -9.038260E+03 -7.247401E+02
       162   6  6.124263E+05  9.184541E+03  2.666727E+04 -1.228459E+03 -1.716364E+04 -7.644528E+02
       162   7  5.917702E+05 -4.582832E+03  8.692754E+03 -2.742582E+03 -9.739529E+02 -6.306487E+02
       162   8  5.872916E+05 -7.230388E+03  1.040536E+04  2.838320E+02 -9.071645E+03 -7.247520E+02
       162   9  5.870605E+05  2.897679E+03  2.058056E+04  1.554002E+03 -1.716933E+04 -7.645319E+02
       162  10  6.330898E+05  5.657403E+03  1.860206E+04  2.863191E+02  3.434799E-10  6.751175E-12
       162  11  6.333128E+05  4.172029E+03  2.142757E+04 -9.842449E+02  1.911413E-10 -1.381345E-11
       162  12  6.377925E+05  1.547131E+04  3.275338E+04 -4.011044E+03  8.389248E-11 -1.562006E-10
       162  13  6.124298E+05  5.372962E+02  1.364742E+04 -1.228157E+03  9.201512E-16 -9.328582E-11
       162  14  6.103020E+05 -1.529173E+03  1.591641E+04 -3.501973E+02  2.461866E-10 -2.620238E-11
       162  15  6.124260E+05  9.184462E+03  2.666671E+04 -1.228469E+03  1.908757E-11 -8.731445E-11
       162  16  5.917702E+05 -4.582833E+03  8.692752E+03 -2.742583E+03  2.625852E-11 -1.636741E-10
       162  17  5.872916E+05 -7.230411E+03  1.040521E+04  2.838267E+02  1.371100E-10 -6.531768E-11
       162  18  5.870602E+05  2.897600E+03  2.058001E+04  1.553992E+03 -1.640400E-10 -2.571828E-11
       162  19  6.330898E+05  5.657404E+03  1.860206E+04  2.863195E+02  8.518521E+02  6.306491E+02
       162  20  6.333129E+05  4.172051E+03  2.142773E+04 -9.842396E+02  9.004875E+03  7.247283E+02
       162  21  6.377928E+05  1.547139E+04  3.275393E+04 -4.011034E+03  1.715796E+04  7.643737E+02
       162  22  6.124298E+05  5.372968E+02  1.364742E+04 -1.228157E+03  9.129035E+02  6.306490E+02
       162  23  6.103020E+05 -1.529150E+03  1.591656E+04 -3.501920E+02  9.038260E+03  7.247401E+02
       162  24  6.124263E+05  9.184541E+03  2.666727E+04 -1.228459E+03  1.716364E+04  7.644528E+02
       162  25  5.917702E+05 -4.582832E+03  8.692754E+03 -2.742582E+03  9.739529E+02  6.306487E+02
       162  26  5.872916E+05 -7.230388E+03  1.040536E+04  2.838320E+02  9.071645E+03  7.247520E+02
       162  27  5.870605E+05  2.897679E+03  2.058056E+04  1.554002E+03  1.716933E+04  7.645319E+02
       163   1  6.468706E+05  2.661882E+03  3.861840E+04  1.040183E+04 -2.195690E+04 -9.258610E+02
       163   2  6.339585E+05 -4.930323E+03  5.664342E+04 -8.356913E+03 -4.887967E+04 -9.992598E+02
       163   3  6.517121E+05  9.615019E+04  1.193537E+05 -2.891367E+04 -7.580204E+04 -3.349316E+02
       163   4  6.182881E+05 -4.419720E+03  3.178069E+04 -1.235379E+03 -2.217848E+04 -9.254631E+02
       163   5  6.029739E+05 -1.260459E+04  4.922977E+04 -3.401093E+02 -4.872916E+04 -9.998838E+02
       163   6  6.182617E+05  8.782018E+04  1.111073E+05 -1.242572E+03 -7.527930E+04 -3.382640E+02
       163   7  5.897066E+05 -1.150087E+04  2.494301E+04 -1.287205E+04 -2.240006E+04 -9.250569E+02
       163   8  5.719904E+05 -2.027869E+04  4.181609E+04  7.676293E+03 -4.857865E+04 -1.000504E+03
       163   9  5.848140E+05  7.949297E+04  1.028612E+05  2.642703E+04 -7.475660E+04 -3.415501E+02
       163  10  6.468701E+05  2.661752E+03  3.861749E+04  1.040181E+04  1.208051E-10 -1.750043E-10
       163  11  6.339559E+05 -4.930965E+03  5.663893E+04 -8.356952E+03 -1.259583E-10 -6.154271E-11
       163  12  6.517059E+05  9.614865E+04  1.193429E+05 -2.891369E+04 -1.038557E-11  3.895999E-11
       163  13  6.182876E+05 -4.419853E+03  3.177977E+04 -1.235396E+03 -4.431124E-10 -1.752336E-10
       163  14  6.029714E+05 -1.260523E+04  4.922531E+04 -3.401486E+02  8.813870E-12 -2.603770E-11
       163  15  6.182556E+05  8.781866E+04  1.110966E+05 -1.242592E+03 -4.025471E-10 -3.921598E-11
       163  16  5.897061E+05 -1.150101E+04  2.494206E+04 -1.287206E+04 -3.445403E-11 -4.386613E-11
       163  17  5.719878E+05 -2.027932E+04  4.181166E+04  7.676254E+03  6.574430E-11 -5.080660E-11
       163  18  5.848080E+05  7.949147E+04  1.028507E+05  2.642701E+04  1.536960E-10  8.227405E-11
       163  19  6.468706E+05  2.661882E+03  3.861840E+04  1.040183E+04  2.195690E+04  9.258610E+02
       163  20  6.339585E+05 -4.930323E+03  5.664342E+04 -8.356913E+03  4.887967E+04  9.992598E+02
       163  21  6.517121E+05  9.615019E+04  1.193537E+05 -2.891367E+04  7.580204E+04  3.349316E+02
       163  22  6.182881E+05 -4.419720E+03  3.178069E+04 -1.235379E+03  2.217848E+04  9.254631E+02
       163  23  6.029739E+05 -1.260459E+04  4.922977E+04 -3.401093E+02  4.872916E+04  9.998838E+02
       163  24  6.182617E+05  8.782018E+04  1.111073E+05 -1.242572E+03  7.527930E+04  3.382640E+02
       163  25  5.897066E+05 -1.150087E+04  2.494301E+04 -1.287205E+04  2.240006E+04  9.250569E+02
       163  26  5.719904E+05 -2.027869E+04  4.181609E+04  7.676293E+03  4.857865E+04  1.000504E+03
       163  27  5.848140E+05  7.949297E+04  1.028612E+05  2.642703E+04  7.475660E+04  3.415501E+02
       164   1 -4.094764E+04 -1.839276E+05 -4.715377E+04  1.798756E+04  8.735591E+02 -3.899977E+04
       164   2 -3.192564E+03 -1.982583E+05 -2.243190E+04 -7.559859E+02  2.679966E+03 -2.511388E+04
       164   3  5.366364E+03 -2.216954E+05 -1.405053E+04 -2.292030E+04  2.619296E+03 -1.122824E+04
       164   4 -6.120884E+04 -2.658709E+05 -6.648394E+04 -2.250951E+04  8.761850E+02 -4.457097E+04
       164   5 -1.816695E+04 -2.609827E+05 -3.456351E+04 -2.079878E+04  2.680837E+03 -2.688732E+04
       164   6 -4.984106E+03 -2.658628E+05 -2.162322E+04 -2.250879E+04  2.619240E+03 -9.203323E+03
       164   7 -8.146433E+04 -3.478044E+05 -8.581357E+04 -6.300121E+04  8.795382E+02 -5.014145E+04
       164   8 -3.314006E+04 -3.237024E+05 -4.669507E+04 -4.083951E+04  2.681823E+03 -2.866058E+04
       164   9 -1.533468E+04 -3.100284E+05 -2.919595E+04 -2.209732E+04  2.619188E+03 -7.178551E+03
       164  10 -4.094805E+04 -1.839293E+05 -4.715663E+04  1.798759E+04 -1.987944E-10 -3.965412E-10
       164  11 -3.192741E+03 -1.982589E+05 -2.243310E+04 -7.559317E+02 -4.103655E-10  3.074305E-11
       164  12  5.366322E+03 -2.216955E+05 -1.405078E+04 -2.292027E+04  1.741465E-10  5.005829E-10
       164  13 -6.120937E+04 -2.658730E+05 -6.648767E+04 -2.250948E+04 -6.245717E-11  2.296247E-11
       164  14 -1.816715E+04 -2.609834E+05 -3.456488E+04 -2.079873E+04 -1.368999E-10  1.973065E-11
       164  15 -4.984136E+03 -2.658629E+05 -2.162339E+04 -2.250877E+04  3.317441E-11  1.943202E-11
       164  16 -8.146501E+04 -3.478071E+05 -8.581830E+04 -6.300117E+04 -6.528196E-11  3.573167E-10
       164  17 -3.314029E+04 -3.237033E+05 -4.669663E+04 -4.083945E+04 -5.129272E-10 -4.519323E-11
       164  18 -1.533470E+04 -3.100285E+05 -2.919606E+04 -2.209731E+04 -2.727102E-10 -5.267469E-10
       164  19 -4.094764E+04 -1.839276E+05 -4.715377E+04  1.798756E+04 -8.735591E+02  3.899977E+04
       164  20 -3.192564E+03 -1.982583E+05 -2.243190E+04 -7.559859E+02 -2.679966E+03  2.511388E+04
       164  21  5.366364E+03 -2.216954E+05 -1.405053E+04 -2.292030E+04 -2.619296E+03  1.122824E+04
       164  22 -6.120884E+04 -2.658709E+05 -6.648394E+04 -2.250951E+04 -8.761850E+02  4.457097E+04
       164  23 -1.816695E+04 -2.609827E+05 -3.456351E+04 -2.079878E+04 -2.680837E+03  2.688732E+04
       164  24 -4.984106E+03 -2.658628E+05 -2.162322E+04 -2.250879E+04 -2.619240E+03  9.203323E+03
       164  25 -8.146433E+04 -3.478044E+05 -8.581357E+04 -6.300121E+04 -8.795382E+02  5.014145E+04
       164  26 -3.314006E+04 -3.237024E+05 -4.669507E+04 -4.083951E+04 -2.681823E+03  2.866058E+04
       164  27 -1.533468E+04 -3.100284E+05 -2.919595E+04 -2.209732E+04 -2.619188E+03  7.178551E+03
       165   1  3.305611E+03 -2.320644E+05 -1.316576E+04 -2.002961E+04  1.968575E+03 -8.123930E+03
       165   2  7.752007E+02 -2.497710E+05 -1.471486E+04 -2.102935E+04  9.566541E+02  1.277416E+02
       165   3 -6.819046E+03 -2.698180E+05 -2.290339E+04 -2.557340E+04 -1.199919E+02  8.379159E+03
       165   4 -4.212836E+03 -2.642176E+05 -1.859666E+04 -2.253621E+04  1.968546E+03 -6.129804E+03
       165   5 -2.288316E+03 -2.630358E+05 -1.676363E+04 -2.076401E+04  9.565795E+02  2.253210E+03
       165   6 -5.450526E+03 -2.642177E+05 -2.166142E+04 -2.253622E+04 -1.200400E+02  1.063620E+04
       165   7 -1.173131E+04 -2.963697E+05 -2.402758E+04 -2.504267E+04  1.968501E+03 -4.135778E+03
       165   8 -5.351838E+03 -2.763005E+05 -1.881240E+04 -2.049868E+04  9.565066E+02  4.378634E+03
       165   9 -4.081972E+03 -2.586173E+05 -2.041942E+04 -1.949901E+04 -1.200660E+02  1.289327E+04
       165  10  3.305589E+03 -2.320644E+05 -1.316589E+04 -2.002960E+04  4.078016E-11 -7.324418E-10
       165  11  7.751997E+02 -2.497710E+05 -1.471486E+04 -2.102935E+04 -3.177005E-10 -5.234500E-11
       165  12 -6.819065E+03 -2.698181E+05 -2.290352E+04 -2.557340E+04  1.015975E-10  7.777905E-10
       165  13 -4.212850E+03 -2.642176E+05 -1.859674E+04 -2.253620E+04 -3.804015E-11  1.904207E-11
       165  14 -2.288318E+03 -2.630358E+05 -1.676364E+04 -2.076401E+04  4.140581E-12 -3.035383E-11
       165  15 -5.450557E+03 -2.642178E+05 -2.166163E+04 -2.253622E+04  3.392536E-10 -1.919044E-11
       165  16 -1.173132E+04 -2.963698E+05 -2.402762E+04 -2.504266E+04 -2.205615E-10  6.916630E-10
       165  17 -5.351844E+03 -2.763005E+05 -1.881243E+04 -2.049868E+04 -5.388570E-10 -1.533952E-11
       165  18 -4.082016E+03 -2.586175E+05 -2.041974E+04 -1.949901E+04 -1.152152E-10 -7.795629E-10
       165  19  3.305611E+03 -2.320644E+05 -1.316576E+04 -2.002961E+04 -1.968575E+03  8.123930E+03
       165  20  7.752007E+02 -2.497710E+05 -1.471486E+04 -2.102935E+04 -9.566541E+02 -1.277416E+02
       165  21 -6.819046E+03 -2.698180E+05 -2.290339E+04 -2.557340E+04  1.199919E+02 -8.379159E+03
       165  22 -4.212836E+03 -2.642176E+05 -1.859666E+04 -2.253621E+04 -1.968546E+03  6.129804E+03
       165  23 -2.288316E+03 -2.630358E+05 -1.676363E+04 -2.076401E+04 -9.565795E+02 -2.253210E+03
       165  24 -5.450526E+03 -2.642177E+05 -2.166142E+04 -2.253622E+04  1.200400E+02 -1.063620E+04
       165  25 -1.173131E+04 -2.963697E+05 -2.402758E+04 -2.504267E+04 -1.968501E+03  4.135778E+03
       165  26 -5.351838E+03 -2.763005E+05 -1.881240E+04 -2.049868E+04 -9.565066E+02 -4.378634E+03
       165  27 -4.081972E+03 -2.586173E+05 -2.041942E+04 -1.949901E+04  1.200660E+02 -1.289327E+04
       166   1 -1.066653E+04 -2.841324E+05 -2.978421E+04 -2.187417E+04 -8.254115E+02  1.199197E+04
       166   2 -3.279014E+04 -2.963648E+05 -5.214293E+04 -4.723053E+04 -1.300639E+03  3.755657E+04
       166   3 -9.483187E+04 -3.219069E+05 -1.011288E+05 -7.605116E+04 -4.874556E+02  6.311987E+04
       166   4 -6.487864E+03 -2.665484E+05 -2.648050E+04 -2.251880E+04 -8.255096E+02  1.426867E+04
       166   5 -2.407455E+04 -2.601264E+05 -4.480114E+04 -2.078649E+04 -1.299022E+03  3.720676E+04
       166   6 -8.112451E+04 -2.665587E+05 -8.792385E+04 -2.252024E+04 -4.819254E+02  6.014445E+04
       166   7 -2.309208E+03 -2.489641E+05 -2.317677E+04 -2.316344E+04 -8.256124E+02  1.654543E+04
       166   8 -1.535642E+04 -2.238852E+05 -3.745903E+04  5.659116E+03 -1.297434E+03  3.685694E+04
       166   9 -6.740660E+04 -2.112014E+05 -7.471754E+04  3.101548E+04 -4.769090E+02  5.716877E+04
       166  10 -1.066657E+04 -2.841326E+05 -2.978448E+04 -2.187416E+04  1.011144E-10 -6.789524E-10
       166  11 -3.279052E+04 -2.963663E+05 -5.214558E+04 -4.723049E+04 -2.762723E-10  2.271263E-11
       166  12 -9.483294E+04 -3.219112E+05 -1.011363E+05 -7.605114E+04 -9.328774E-11  6.684208E-10
       166  13 -6.487920E+03 -2.665486E+05 -2.648088E+04 -2.251879E+04  8.546662E-11  1.004692E-11
       166  14 -2.407493E+04 -2.601279E+05 -4.480374E+04 -2.078646E+04 -3.056695E-10 -7.272941E-11
       166  15 -8.112548E+04 -2.665625E+05 -8.793065E+04 -2.252021E+04  2.588682E-11 -6.184351E-11
       166  16 -2.309282E+03 -2.489644E+05 -2.317729E+04 -2.316343E+04  3.827916E-10  6.527322E-10
       166  17 -1.535679E+04 -2.238867E+05 -3.746159E+04  5.659155E+03  1.362471E-10 -3.361200E-11
       166  18 -6.740747E+04 -2.112050E+05 -7.472369E+04  3.101550E+04  8.886274E-11 -6.253138E-10
       166  19 -1.066653E+04 -2.841324E+05 -2.978421E+04 -2.187417E+04  8.254115E+02 -1.199197E+04
       166  20 -3.279014E+04 -2.963648E+05 -5.214293E+04 -4.723053E+04  1.300639E+03 -3.755657E+04
       166  21 -9.483187E+04 -3.219069E+05 -1.011288E+05 -7.605116E+04  4.874556E+02 -6.311987E+04
       166  22 -6.487864E+03 -2.665484E+05 -2.648050E+04 -2.251880E+04  8.255096E+02 -1.426867E+04
       166  23 -2.407455E+04 -2.601264E+05 -4.480114E+04 -2.078649E+04  1.299022E+03 -3.720676E+04
       166  24 -8.112451E+04 -2.665587E+05 -8.792385E+04 -2.252024E+04  4.819254E+02 -6.014445E+04
       166  25 -2.309208E+03 -2.489641E+05 -2.317677E+04 -2.316344E+04  8.256124E+02 -1.654543E+04
       166  26 -1.535642E+04 -2.238852E+05 -3.745903E+04  5.659116E+03  1.297434E+03 -3.685694E+04
       166  27 -6.740660E+04 -2.112014E+05 -7.471754E+04  3.101548E+04  4.769090E+02 -5.716877E+04
       167   1  8.409269E+04  4.513755E+04  1.279001E+04  5.201170E+04  1.386798E+04  1.174374E+04
       167   2  9.919251E+04  3.210546E+04  3.254784E+03  6.647193E+04  8.944563E+03  1.090194E+04
       167   3  1.253235E+05  2.630308E+04  1.489004E+02  7.515434E+04  5.333945E+03  8.309258E+03
       167   4  1.795581E+05  7.536095E+04  3.642727E+04  8.203670E+04  1.988756E+04  1.625689E+04
       167   5  1.681200E+05  6.154008E+04  1.825085E+04  9.226373E+04  1.106108E+04  1.248868E+04
       167   6  1.685574E+05  5.579439E+04  9.889740E+03  9.671301E+04  3.547636E+03  6.969750E+03
       167   7  2.750348E+05  1.055855E+05  6.006444E+04  1.120652E+05  2.590846E+04  2.077034E+04
       167   8  2.370526E+05  9.097540E+04  3.324658E+04  1.180579E+05  1.317791E+04  1.407554E+04
       167   9  2.117927E+05  8.528618E+04  1.963021E+04  1.182730E+05  1.761195E+03  5.630147E+03
       167  10  8.409245E+04  4.513735E+04  1.278939E+04  5.201157E+04 -1.178268E-10 -1.085204E-10
       167  11  9.919239E+04  3.210531E+04  3.254411E+03  6.647185E+04 -2.310523E-10  1.472201E-11
       167  12  1.253235E+05  2.630300E+04  1.487172E+02  7.515431E+04 -4.340171E-10  8.466389E-11
       167  13  1.795576E+05  7.536056E+04  3.642603E+04  8.203644E+04  1.746590E-10  1.683636E-11
       167  14  1.681198E+05  6.153988E+04  1.825032E+04  9.226362E+04 -1.611202E-10  5.659878E-11
       167  15  1.685574E+05  5.579433E+04  9.889625E+03  9.671299E+04 -3.109542E-10  6.392106E-11
       167  16  2.750340E+05  1.055849E+05  6.006237E+04  1.120648E+05  2.550483E-10  1.750983E-10
       167  17  2.370524E+05  9.097514E+04  3.324588E+04  1.180578E+05 -2.419147E-10  1.469632E-10
       167  18  2.117927E+05  8.528615E+04  1.963014E+04  1.182730E+05  1.330580E-10  2.026156E-12
       167  19  8.409269E+04  4.513755E+04  1.279001E+04  5.201170E+04 -1.386798E+04 -1.174374E+04
       167  20  9.919251E+04  3.210546E+04  3.254784E+03  6.647193E+04 -8.944563E+03 -1.090194E+04
       167  21  1.253235E+05  2.630308E+04  1.489004E+02  7.515434E+04 -5.333945E+03 -8.309258E+03
       167  22  1.795581E+05  7.536095E+04  3.642727E+04  8.203670E+04 -1.988756E+04 -1.625689E+04
       167  23  1.681200E+05  6.154008E+04  1.825085E+04  9.226373E+04 -1.106108E+04 -1.248868E+04
       167  24  1.685574E+05  5.579439E+04  9.889740E+03  9.671301E+04 -3.547636E+03 -6.969750E+03
       167  25  2.750348E+05  1.055855E+05  6.006444E+04  1.120652E+05 -2.590846E+04 -2.077034E+04
       167  26  2.370526E+05  9.097540E+04  3.324658E+04  1.180579E+05 -1.317791E+04 -1.407554E+04
       167  27  2.117927E+05  8.528618E+04  1.963021E+04  1.182730E+05 -1.761195E+03 -5.630147E+03
       168   1  1.330634E+05  3.296922E+04 -3.523440E+01  8.017662E+04  4.772083E+03  7.045259E+03
       168   2  1.464082E+05  4.327320E+04  1.055065E+02  8.892960E+04  4.350016E+03  5.267090E+03
       168   3  1.639568E+05  5.106988E+04  1.463134E+03  9.632607E+04  4.088777E+03  3.274389E+03
       168   4  1.676601E+05  5.486093E+04  7.397588E+03  9.664889E+04  2.926236E+03  5.661123E+03
       168   5  1.650593E+05  5.526711E+04  3.999081E+03  9.792429E+04  2.025927E+03  3.524383E+03
       168   6  1.667657E+05  5.326949E+04  2.232326E+03  9.784293E+04  1.286467E+03  1.173115E+03
       168   7  2.022582E+05  7.675325E+04  1.483038E+04  1.131222E+05  1.080249E+03  4.276896E+03
       168   8  1.837110E+05  6.726136E+04  7.892752E+03  1.069194E+05 -2.982848E+02  1.781591E+03
       168   9  1.695747E+05  5.546917E+04  3.001588E+03  9.935985E+04 -1.515926E+03 -9.282232E+02
       168  10  1.330634E+05  3.296916E+04 -3.537044E+01  8.017660E+04 -6.400667E-10 -1.254848E-10
       168  11  1.464082E+05  4.327317E+04  1.054189E+02  8.892958E+04 -9.633350E-10  1.667605E-10
       168  12  1.639568E+05  5.106986E+04  1.463083E+03  9.632606E+04 -1.684916E-09  8.103597E-10
       168  13  1.676601E+05  5.486090E+04  7.397512E+03  9.664888E+04 -4.813689E-10  1.224185E-10
       168  14  1.650593E+05  5.526710E+04  3.999050E+03  9.792428E+04 -6.517860E-10  2.007705E-10
       168  15  1.667657E+05  5.326949E+04  2.232320E+03  9.784293E+04 -3.353247E-10  1.607013E-10
       168  16  2.022582E+05  7.675323E+04  1.483035E+04  1.131222E+05  5.202065E-11  2.395210E-10
       168  17  1.837110E+05  6.726136E+04  7.892745E+03  1.069194E+05  2.228559E-10  8.412019E-11
       168  18  1.695747E+05  5.546917E+04  3.001582E+03  9.935984E+04  1.418588E-09 -5.778112E-10
       168  19  1.330634E+05  3.296922E+04 -3.523440E+01  8.017662E+04 -4.772083E+03 -7.045259E+03
       168  20  1.464082E+05  4.327320E+04  1.055065E+02  8.892960E+04 -4.350016E+03 -5.267090E+03
       168  21  1.639568E+05  5.106988E+04  1.463134E+03  9.632607E+04 -4.088777E+03 -3.274389E+03
       168  22  1.676601E+05  5.486093E+04  7.397588E+03  9.664889E+04 -2.926236E+03 -5.661123E+03
       168  23  1.650593E+05  5.526711E+04  3.999081E+03  9.792429E+04 -2.025927E+03 -3.524383E+03
       168  24  1.667657E+05  5.326949E+04  2.232326E+03  9.784293E+04 -1.286467E+03 -1.173115E+03
       168  25  2.022582E+05  7.675325E+04  1.483038E+04  1.131222E+05 -1.080249E+03 -4.276896E+03
       168  26  1.837110E+05  6.726136E+04  7.892752E+03  1.069194E+05  2.982848E+02 -1.781591E+03
       168  27  1.695747E+05  5.546917E+04  3.001588E+03  9.935985E+04  1.515926E+03  9.282232E+02
       169   1  1.731682E+05  5.770148E+04  2.810130E+03  1.011459E+05  4.386951E+03  2.338307E+03
       169   2  1.864647E+05  6.988787E+04  4.988772E+03  1.094302E+05  4.935150E+03  7.928091E+02
       169   3  2.033314E+05  7.870434E+04  7.512694E+03  1.166923E+05  5.471838E+03 -7.373228E+02
       169   4  1.666784E+05  5.319219E+04  1.670513E+03  9.781301E+04  1.578495E+03  2.324208E+02
       169   5  1.648670E+05  5.482759E+04  8.984491E+02  9.836381E+04  2.160913E+03 -1.287438E+03
       169   6  1.666184E+05  5.308581E+04  4.420967E+02  9.789243E+04  2.731832E+03 -2.791933E+03
       169   7  1.601889E+05  4.868305E+04  5.309976E+02  9.448027E+04 -1.229855E+03 -1.873386E+03
       169   8  1.432702E+05  3.976781E+04 -3.191743E+03  8.729804E+04 -6.131622E+02 -3.367564E+03
       169   9  1.299071E+05  2.746819E+04 -6.628477E+03  7.909387E+04 -7.956914E+00 -4.846381E+03
       169  10  1.731682E+05  5.770147E+04  2.810084E+03  1.011459E+05 -6.231665E-09 -2.056630E-09
       169  11  1.864646E+05  6.988786E+04  4.988725E+03  1.094302E+05  1.694063E-09  4.492711E-09
       169  12  2.033314E+05  7.870433E+04  7.512637E+03  1.166923E+05  4.802552E-09  6.165122E-09
       169  13  1.666784E+05  5.319219E+04  1.670508E+03  9.781301E+04  2.448962E-09  1.199138E-09
       169  14  1.648670E+05  5.482758E+04  8.984372E+02  9.836382E+04  6.743523E-09  2.245819E-09
       169  15  1.666184E+05  5.308580E+04  4.420681E+02  9.789244E+04  4.303991E-09 -1.237811E-09
       169  16  1.601889E+05  4.868304E+04  5.309882E+02  9.448027E+04  8.697715E-09  4.503405E-09
       169  17  1.432702E+05  3.976780E+04 -3.191765E+03  8.729804E+04  9.839377E-10  6.962685E-11
       169  18  1.299071E+05  2.746816E+04 -6.628521E+03  7.909387E+04 -1.398675E-08 -8.674705E-09
       169  19  1.731682E+05  5.770148E+04  2.810130E+03  1.011459E+05 -4.386951E+03 -2.338307E+03
       169  20  1.864647E+05  6.988787E+04  4.988772E+03  1.094302E+05 -4.935150E+03 -7.928091E+02
       169  21  2.033314E+05  7.870434E+04  7.512694E+03  1.166923E+05 -5.471838E+03  7.373228E+02
       169  22  1.666784E+05  5.319219E+04  1.670513E+03  9.781301E+04 -1.578495E+03 -2.324208E+02
       169  23  1.648670E+05  5.482759E+04  8.984491E+02  9.836381E+04 -2.160913E+03  1.287438E+03
       169  24  1.666184E+05  5.308581E+04  4.420967E+02  9.789243E+04 -2.731832E+03  2.791933E+03
       169  25  1.601889E+05  4.868305E+04  5.309976E+02  9.448027E+04  1.229855E+03  1.873386E+03
       169  26  1.432702E+05  3.976781E+04 -3.191743E+03  8.729804E+04  6.131622E+02  3.367564E+03
       169  27  1.299071E+05  2.746819E+04 -6.628477E+03  7.909387E+04  7.956914E+00  4.846381E+03
       170   1  2.127171E+05  8.531863E+04  9.283274E+03  1.215059E+05  5.955023E+03 -1.511979E+03
       170   2  2.259903E+05  9.765740E+04  1.228742E+04  1.297278E+05  5.996053E+03 -3.129434E+03
       170   3  2.428357E+05  1.066624E+05  1.592500E+04  1.369706E+05  5.782833E+03 -4.407862E+03
       170   4  1.665975E+05  5.308265E+04  2.754687E+02  9.788437E+04  3.225609E+03 -3.558696E+03
       170   5  1.648659E+05  5.478352E+04 -1.107062E+01  9.840946E+04  4.022359E+03 -4.609564E+03
       170   6  1.665422E+05  5.298608E+04 -3.200440E+02  9.795508E+04  4.564874E+03 -5.321338E+03
       170   7  1.204793E+05  2.084725E+04 -8.732728E+03  7.426440E+04  4.964010E+02 -5.605259E+03
       170   8  1.037460E+05  1.191203E+04 -1.230965E+04  6.709479E+04  2.048923E+03 -6.089500E+03
       170   9  9.025750E+04 -6.852381E+02 -1.656470E+04  5.894605E+04  3.347142E+03 -6.234644E+03
       170  10  2.127171E+05  8.531862E+04  9.283203E+03  1.215059E+05 -1.350095E-08 -8.645904E-09
       170  11  2.259902E+05  9.765738E+04  1.228733E+04  1.297278E+05  7.607789E-10  5.069628E-11
       170  12  2.428356E+05  1.066624E+05  1.592490E+04  1.369706E+05  8.686309E-09  4.487422E-09
       170  13  1.665975E+05  5.308263E+04  2.754253E+02  9.788438E+04  4.186514E-09 -1.249711E-09
       170  14  1.648659E+05  5.478349E+04 -1.114096E+01  9.840947E+04  6.374620E-09  2.276528E-09
       170  15  1.665422E+05  5.298605E+04 -3.201364E+02  9.795510E+04  2.480460E-09  1.190252E-09
       170  16  1.204793E+05  2.084721E+04 -8.732787E+03  7.426441E+04  4.394393E-09  6.122171E-09
       170  17  1.037460E+05  1.191199E+04 -1.230973E+04  6.709480E+04  2.116393E-09  4.380672E-09
       170  18  9.025748E+04 -6.852829E+02 -1.656480E+04  5.894607E+04 -6.133596E-09 -2.126391E-09
       170  19  2.127171E+05  8.531863E+04  9.283274E+03  1.215059E+05 -5.955023E+03  1.511979E+03
       170  20  2.259903E+05  9.765740E+04  1.228742E+04  1.297278E+05 -5.996053E+03  3.129434E+03
       170  21  2.428357E+05  1.066624E+05  1.592500E+04  1.369706E+05 -5.782833E+03  4.407862E+03
       170  22  1.665975E+05  5.308265E+04  2.754687E+02  9.788437E+04 -3.225609E+03  3.558696E+03
       170  23  1.648659E+05  5.478352E+04 -1.107062E+01  9.840946E+04 -4.022359E+03  4.609564E+03
       170  24  1.665422E+05  5.298608E+04 -3.200440E+02  9.795508E+04 -4.564874E+03  5.321338E+03
       170  25  1.204793E+05  2.084725E+04 -8.732728E+03  7.426440E+04 -4.964010E+02  5.605259E+03
       170  26  1.037460E+05  1.191203E+04 -1.230965E+04  6.709479E+04 -2.048923E+03  6.089500E+03
       170  27  9.025750E+04 -6.852381E+02 -1.656470E+04  5.894605E+04 -3.347142E+03  6.234644E+03
       171   1  2.523807E+05  1.133956E+05  1.830786E+04  1.418012E+05  6.041575E+03 -4.849843E+03
       171   2  2.649577E+05  1.261442E+05  2.437451E+04  1.499060E+05 -2.493757E+02 -8.224882E+03
       171   3  2.815455E+05  1.363184E+05  3.513789E+04  1.573688E+05 -8.586839E+03 -8.871967E+03
       171   4  1.664314E+05  5.298434E+04 -5.057284E+02  9.796544E+04  4.916191E+03 -5.693938E+03
       171   5  1.647527E+05  5.433930E+04 -1.063303E+03  9.873022E+04  4.707136E+03 -4.507971E+03
       171   6  1.657654E+05  5.180045E+04 -2.201504E+03  9.885292E+04  2.451530E+03 -5.935457E+02
       171   7  8.049082E+04 -7.422400E+03 -1.931969E+04  5.413669E+04  3.791014E+03 -6.537878E+03
       171   8  6.455807E+04 -1.746029E+04 -2.650220E+04  4.756340E+04  9.662637E+03 -7.918352E+02
       171   9  4.999699E+04 -3.271152E+04 -3.954289E+04  4.034817E+04  1.348737E+04  7.682899E+03
       171  10  2.523807E+05  1.133956E+05  1.830774E+04  1.418012E+05  1.099530E-09 -7.810164E-10
       171  11  2.649576E+05  1.261442E+05  2.437438E+04  1.499060E+05  4.094202E-10  2.138571E-10
       171  12  2.815454E+05  1.363183E+05  3.513760E+04  1.573688E+05  4.318390E-10  5.442520E-10
       171  13  1.664314E+05  5.298430E+04 -5.058348E+02  9.796546E+04 -9.688897E-12  1.397632E-10
       171  14  1.647527E+05  5.433927E+04 -1.063383E+03  9.873024E+04 -2.664293E-10  2.409503E-10
       171  15  1.657654E+05  5.180045E+04 -2.201516E+03  9.885293E+04 -8.710578E-11  6.134514E-11
       171  16  8.049080E+04 -7.422449E+03 -1.931979E+04  5.413671E+04 -9.708898E-10  1.018762E-09
       171  17  6.455797E+04 -1.746032E+04 -2.650237E+04  4.756341E+04 -7.003767E-10  2.406833E-10
       171  18  4.999678E+04 -3.271163E+04 -3.954334E+04  4.034808E+04 -5.177233E-10 -3.337762E-10
       171  19  2.523807E+05  1.133956E+05  1.830786E+04  1.418012E+05 -6.041575E+03  4.849843E+03
       171  20  2.649577E+05  1.261442E+05  2.437451E+04  1.499060E+05  2.493757E+02  8.224882E+03
       171  21  2.815455E+05  1.363184E+05  3.513789E+04  1.573688E+05  8.586839E+03  8.871967E+03
       171  22  1.664314E+05  5.298434E+04 -5.057284E+02  9.796544E+04 -4.916191E+03  5.693938E+03
       171  23  1.647527E+05  5.433930E+04 -1.063303E+03  9.873022E+04 -4.707136E+03  4.507971E+03
       171  24  1.657654E+05  5.180045E+04 -2.201504E+03  9.885292E+04 -2.451530E+03  5.935457E+02
       171  25  8.049082E+04 -7.422400E+03 -1.931969E+04  5.413669E+04 -3.791014E+03  6.537878E+03
       171  26  6.455807E+04 -1.746029E+04 -2.650220E+04  4.756340E+04 -9.662637E+03  7.918352E+02
       171  27  4.999699E+04 -3.271152E+04 -3.954289E+04  4.034817E+04 -1.348737E+04 -7.682899E+03
       172   1  2.372998E+05  3.252276E+04  3.431477E+04  3.409354E+04  2.052615E+04 -1.253281E+02
       172   2  2.217516E+05  1.118317E+04  1.675883E+04  2.424682E+04  1.205351E+04 -1.670072E+02
       172   3  2.103844E+05  2.159751E+03  7.796493E+03  1.679009E+04  3.580875E+03  4.125856E+02
       172   4  2.116581E+05  2.614407E+04  2.808291E+04  1.672061E+04  1.977948E+04 -1.259925E+02
       172   5  2.096835E+05  8.210931E+03  1.397567E+04  1.552697E+04  1.262833E+04 -1.671070E+02
       172   6  2.116607E+05  2.364595E+03  7.544833E+03  1.672322E+04  5.477042E+03  4.128199E+02
       172   7  1.860176E+05  1.976647E+04  2.185117E+04 -6.516095E+02  1.903283E+04 -1.266151E+02
       172   8  1.976157E+05  5.238967E+03  1.119253E+04  6.807295E+03  1.320315E+04 -1.672229E+02
       172   9  2.129371E+05  2.569442E+03  7.293187E+03  1.665636E+04  7.373211E+03  4.130538E+02
       172  10  2.372994E+05  3.252265E+04  3.431398E+04  3.409354E+04  1.180714E-10 -1.208934E-10
       172  11  2.217514E+05  1.118313E+04  1.675856E+04  2.424682E+04 -8.277331E-11  5.446479E-11
       172  12  2.103844E+05  2.159747E+03  7.796469E+03  1.679009E+04 -8.058305E-10 -5.702262E-11
       172  13  2.116577E+05  2.614397E+04  2.808217E+04  1.672061E+04  8.352508E-11  6.088602E-11
       172  14  2.096833E+05  8.210888E+03  1.397537E+04  1.552697E+04  1.749440E-11  1.732049E-11
       172  15  2.116607E+05  2.364587E+03  7.544777E+03  1.672322E+04 -7.104782E-11 -1.122368E-12
       172  16  1.860172E+05  1.976637E+04  2.185049E+04 -6.516076E+02 -2.531368E-10  3.131831E-11
       172  17  1.976155E+05  5.238920E+03  1.119221E+04  6.807297E+03  4.111832E-10  5.161294E-11
       172  18  2.129370E+05  2.569427E+03  7.293085E+03  1.665635E+04  7.009591E-10  4.352971E-10
       172  19  2.372998E+05  3.252276E+04  3.431477E+04  3.409354E+04 -2.052615E+04  1.253281E+02
       172  20  2.217516E+05  1.118317E+04  1.675883E+04  2.424682E+04 -1.205351E+04  1.670072E+02
       172  21  2.103844E+05  2.159751E+03  7.796493E+03  1.679009E+04 -3.580875E+03 -4.125856E+02
       172  22  2.116581E+05  2.614407E+04  2.808291E+04  1.672061E+04 -1.977948E+04  1.259925E+02
       172  23  2.096835E+05  8.210931E+03  1.397567E+04  1.552697E+04 -1.262833E+04  1.671070E+02
       172  24  2.116607E+05  2.364595E+03  7.544833E+03  1.672322E+04 -5.477042E+03 -4.128199E+02
       172  25  1.860176E+05  1.976647E+04  2.185117E+04 -6.516095E+02 -1.903283E+04  1.266151E+02
       172  26  1.976157E+05  5.238967E+03  1.119253E+04  6.807295E+03 -1.320315E+04  1.672229E+02
       172  27  2.129371E+05  2.569442E+03  7.293187E+03  1.665636E+04 -7.373211E+03 -4.130538E+02
       173   1  2.011361E+05 -3.021411E+02  4.512925E+03  1.770907E+04  2.604086E+03  9.563029E+02
       173   2  1.874563E+05 -4.780301E+03 -2.556386E+02  1.593460E+04  1.036659E+03  1.870020E+03
       173   3  1.742228E+05 -8.287822E+03 -3.761501E+03  1.659329E+04 -5.307231E+02  2.825106E+03
       173   4  2.108782E+05  1.867751E+03  5.624099E+03  1.673264E+04  4.504378E+03  9.565317E+02
       173   5  2.106628E+05  5.020293E+02  2.955435E+03  1.551616E+04  3.024917E+03  1.870249E+03
       173   6  2.108783E+05  9.167750E+01  1.488408E+03  1.673283E+04  1.545469E+03  2.825331E+03
       173   7  2.206203E+05  4.037644E+03  6.735287E+03  1.575618E+04  6.404698E+03  9.567545E+02
       173   8  2.338698E+05  5.784338E+03  6.166518E+03  1.509770E+04  5.013246E+03  1.870475E+03
       173   9  2.475351E+05  8.471118E+03  6.738313E+03  1.687237E+04  3.621779E+03  2.825557E+03
       173  10  2.011361E+05 -3.021439E+02  4.512910E+03  1.770907E+04  3.507415E-10 -8.063402E-11
       173  11  1.874563E+05 -4.780305E+03 -2.556472E+02  1.593460E+04  1.887928E-10 -2.877140E-11
       173  12  1.742228E+05 -8.287830E+03 -3.761517E+03  1.659329E+04 -6.737415E-11 -1.485661E-10
       173  13  2.108781E+05  1.867744E+03  5.624059E+03  1.673263E+04  8.456614E-11  2.733468E-10
       173  14  2.106628E+05  5.020231E+02  2.955411E+03  1.551616E+04  5.684768E-11  1.006841E-10
       173  15  2.108783E+05  9.166829E+01  1.488388E+03  1.673282E+04 -2.063234E-10 -2.093763E-10
       173  16  2.206203E+05  4.037632E+03  6.735209E+03  1.575618E+04 -3.867809E-10  3.132184E-10
       173  17  2.338698E+05  5.784328E+03  6.166464E+03  1.509769E+04 -3.250761E-10  5.374976E-11
       173  18  2.475351E+05  8.471106E+03  6.738273E+03  1.687236E+04 -8.447131E-11 -7.237203E-11
       173  19  2.011361E+05 -3.021411E+02  4.512925E+03  1.770907E+04 -2.604086E+03 -9.563029E+02
       173  20  1.874563E+05 -4.780301E+03 -2.556386E+02  1.593460E+04 -1.036659E+03 -1.870020E+03
       173  21  1.742228E+05 -8.287822E+03 -3.761501E+03  1.659329E+04  5.307231E+02 -2.825106E+03
       173  22  2.108782E+05  1.867751E+03  5.624099E+03  1.673264E+04 -4.504378E+03 -9.565317E+02
       173  23  2.106628E+05  5.020293E+02  2.955435E+03  1.551616E+04 -3.024917E+03 -1.870249E+03
       173  24  2.108783E+05  9.167750E+01  1.488408E+03  1.673283E+04 -1.545469E+03 -2.825331E+03
       173  25  2.206203E+05  4.037644E+03  6.735287E+03  1.575618E+04 -6.404698E+03 -9.567545E+02
       173  26  2.338698E+05  5.784338E+03  6.166518E+03  1.509770E+04 -5.013246E+03 -1.870475E+03
       173  27  2.475351E+05  8.471118E+03  6.738313E+03  1.687237E+04 -3.621779E+03 -2.825557E+03
       174   1  1.656755E+05 -1.026621E+04 -5.580360E+03  1.666990E+04 -7.397367E+02  3.406092E+03
       174   2  1.522750E+05 -1.354636E+04 -8.614021E+03  1.555994E+04 -2.273621E+02  4.246364E+03
       174   3  1.387544E+05 -1.704056E+04 -1.203476E+04  1.686918E+04  2.850400E+02  4.816371E+03
       174   4  2.107778E+05  6.367337E+01  9.763430E+02  1.672971E+04  1.335168E+03  3.406302E+03
       174   5  2.107879E+05 -9.712141E+01  1.313325E+02  1.552013E+04  1.272600E+03  4.246480E+03
       174   6  2.107774E+05 -3.721939E+02 -7.016189E+02  1.672975E+04  1.210080E+03  4.816406E+03
       174   7  2.558822E+05  1.039346E+04  7.533028E+03  1.678952E+04  3.410218E+03  3.406513E+03
       174   8  2.693043E+05  1.335196E+04  8.876628E+03  1.548033E+04  2.772699E+03  4.246597E+03
       174   9  2.828056E+05  1.629591E+04  1.063139E+04  1.659031E+04  2.135222E+03  4.816442E+03
       174  10  1.656755E+05 -1.026622E+04 -5.580382E+03  1.666990E+04 -1.876960E-10 -1.816780E-10
       174  11  1.522750E+05 -1.354638E+04 -8.614054E+03  1.555994E+04 -8.921219E-11 -2.388202E-10
       174  12  1.387544E+05 -1.704058E+04 -1.203480E+04  1.686917E+04 -8.385885E-13 -3.453963E-11
       174  13  2.107778E+05  6.366043E+01  9.763179E+02  1.672970E+04 -3.444299E-10 -1.473325E-10
       174  14  2.107879E+05 -9.714121E+01  1.312956E+02  1.552013E+04 -1.936781E-10  2.429183E-11
       174  15  2.107774E+05 -3.722192E+02 -7.016653E+02  1.672975E+04 -2.978336E-10 -1.356824E-10
       174  16  2.558821E+05  1.039345E+04  7.532985E+03  1.678951E+04  3.894199E-11 -7.093650E-11
       174  17  2.693043E+05  1.335194E+04  8.876580E+03  1.548032E+04  7.051540E-11 -6.680739E-11
       174  18  2.828056E+05  1.629589E+04  1.063134E+04  1.659031E+04  5.226966E-11  1.086258E-10
       174  19  1.656755E+05 -1.026621E+04 -5.580360E+03  1.666990E+04  7.397367E+02 -3.406092E+03
       174  20  1.522750E+05 -1.354636E+04 -8.614021E+03  1.555994E+04  2.273621E+02 -4.246364E+03
       174  21  1.387544E+05 -1.704056E+04 -1.203476E+04  1.686918E+04 -2.850400E+02 -4.816371E+03
       174  22  2.107778E+05  6.367337E+01  9.763430E+02  1.672971E+04 -1.335168E+03 -3.406302E+03
       174  23  2.107879E+05 -9.712141E+01  1.313325E+02  1.552013E+04 -1.272600E+03 -4.246480E+03
       174  24  2.107774E+05 -3.721939E+02 -7.016189E+02  1.672975E+04 -1.210080E+03 -4.816406E+03
       174  25  2.558822E+05  1.039346E+04  7.533028E+03  1.678952E+04 -3.410218E+03 -3.406513E+03
       174  26  2.693043E+05  1.335196E+04  8.876628E+03  1.548033E+04 -2.772699E+03 -4.246597E+03
       174  27  2.828056E+05  1.629591E+04  1.063139E+04  1.659031E+04 -2.135222E+03 -4.816442E+03
       175   1  1.300143E+05 -1.918466E+04 -1.418833E+04  1.666837E+04  4.293248E+02  5.154799E+03
       175   2  1.173435E+05 -2.378588E+04 -1.987775E+04  1.722801E+04  6.724559E+03  4.414002E+03
       175   3  1.030522E+05 -3.159211E+04 -3.046607E+04  2.003966E+04  1.301977E+04  1.335764E+03
       175   4  2.106134E+05 -4.662631E+02 -1.180057E+03  1.669259E+04  1.338546E+03  5.154818E+03
       175   5  2.109919E+05 -1.600562E+03 -2.581217E+03  1.556675E+04  2.661886E+03  4.413622E+03
       175   6  2.106131E+05 -5.076562E+03 -5.429030E+03  1.669294E+04  3.985293E+03  1.335113E+03
       175   7  2.912190E+05  1.825181E+04  1.182804E+04  1.671681E+04  2.247882E+03  5.154837E+03
       175   8  3.046489E+05  2.058427E+04  1.471501E+04  1.390524E+04 -1.401384E+03  4.413264E+03
       175   9  3.181849E+05  2.143825E+04  1.960754E+04  1.334563E+04 -5.050736E+03  1.334559E+03
       175  10  1.300143E+05 -1.918469E+04 -1.418838E+04  1.666837E+04 -5.905487E-11  2.055375E-11
       175  11  1.173434E+05 -2.378591E+04 -1.987787E+04  1.722798E+04 -1.635727E-10  4.941279E-11
       175  12  1.030520E+05 -3.159216E+04 -3.046639E+04  2.003965E+04  5.214533E-12 -5.483432E-14
       175  13  2.106134E+05 -4.662921E+02 -1.180110E+03  1.669258E+04 -1.199597E-10  7.455344E-11
       175  14  2.109919E+05 -1.600585E+03 -2.581267E+03  1.556674E+04 -2.988959E-10  3.556137E-11
       175  15  2.106131E+05 -5.076568E+03 -5.429063E+03  1.669294E+04  4.817716E-11  7.159889E-11
       175  16  2.912190E+05  1.825178E+04  1.182798E+04  1.671680E+04 -6.286005E-11  1.639014E-10
       175  17  3.046489E+05  2.058425E+04  1.471497E+04  1.390525E+04  3.742220E-11 -2.580279E-11
       175  18  3.181849E+05  2.143824E+04  1.960749E+04  1.334564E+04  6.450621E-11  2.085052E-11
       175  19  1.300143E+05 -1.918466E+04 -1.418833E+04  1.666837E+04 -4.293248E+02 -5.154799E+03
       175  20  1.173435E+05 -2.378588E+04 -1.987775E+04  1.722801E+04 -6.724559E+03 -4.414002E+03
       175  21  1.030522E+05 -3.159211E+04 -3.046607E+04  2.003966E+04 -1.301977E+04 -1.335764E+03
       175  22  2.106134E+05 -4.662631E+02 -1.180057E+03  1.669259E+04 -1.338546E+03 -5.154818E+03
       175  23  2.109919E+05 -1.600562E+03 -2.581217E+03  1.556675E+04 -2.661886E+03 -4.413622E+03
       175  24  2.106131E+05 -5.076562E+03 -5.429030E+03  1.669294E+04 -3.985293E+03 -1.335113E+03
       175  25  2.912190E+05  1.825181E+04  1.182804E+04  1.671681E+04 -2.247882E+03 -5.154837E+03
       175  26  3.046489E+05  2.058427E+04  1.471501E+04  1.390524E+04  1.401384E+03 -4.413264E+03
       175  27  3.181849E+05  2.143825E+04  1.960754E+04  1.334563E+04  5.050736E+03 -1.334559E+03
       176   1 -2.359442E+04 -5.400828E+04 -2.655460E+04 -1.343975E+04  1.520776E+02 -2.442637E+04
       176   2 -7.008282E+03 -8.098140E+04 -1.584527E+04 -2.256393E+04 -5.845339E+01 -1.649221E+04
       176   3 -6.174832E+03 -1.129259E+05 -1.423987E+04 -3.682913E+04 -1.389050E+03 -8.558383E+03
       176   4 -3.534298E+04 -1.011968E+05 -3.814086E+04 -3.722086E+04  1.531314E+02 -2.518484E+04
       176   5 -1.140107E+04 -9.849859E+04 -2.031026E+04 -3.464818E+04 -5.839104E+01 -1.482149E+04
       176   6 -3.634473E+03 -1.011949E+05 -1.327129E+04 -3.721681E+04 -1.389694E+03 -4.458058E+03
       176   7 -4.708958E+04 -1.483822E+05 -4.972697E+04 -6.100016E+04  1.542435E+02 -2.594325E+04
       176   8 -1.579334E+04 -1.160152E+05 -2.477519E+04 -4.673208E+04 -5.839375E+01 -1.315081E+04
       176   9 -1.094108E+03 -8.946375E+04 -1.230265E+04 -3.760449E+04 -1.390344E+03 -3.576605E+02
       176  10 -2.359458E+04 -5.400892E+04 -2.655572E+04 -1.343975E+04  4.927109E-11 -8.642719E-11
       176  11 -7.008355E+03 -8.098169E+04 -1.584578E+04 -2.256393E+04  7.139219E-11  1.873286E-10
       176  12 -6.174853E+03 -1.129260E+05 -1.424001E+04 -3.682914E+04  8.314122E-11  2.379949E-10
       176  13 -3.534315E+04 -1.011975E+05 -3.814205E+04 -3.722086E+04  1.091100E-10 -1.128482E-10
       176  14 -1.140113E+04 -9.849882E+04 -2.031068E+04 -3.464818E+04 -7.270873E-11  1.060014E-10
       176  15 -3.634480E+03 -1.011949E+05 -1.327134E+04 -3.721681E+04  1.364893E-10 -4.960831E-11
       176  16 -4.708976E+04 -1.483829E+05 -4.972824E+04 -6.100016E+04  1.855978E-11 -1.251107E-10
       176  17 -1.579339E+04 -1.160154E+05 -2.477551E+04 -4.673208E+04 -1.738575E-10  4.774887E-11
       176  18 -1.094110E+03 -8.946375E+04 -1.230265E+04 -3.760450E+04  1.064515E-10 -2.209411E-10
       176  19 -2.359442E+04 -5.400828E+04 -2.655460E+04 -1.343975E+04 -1.520776E+02  2.442637E+04
       176  20 -7.008282E+03 -8.098140E+04 -1.584527E+04 -2.256393E+04  5.845339E+01  1.649221E+04
       176  21 -6.174832E+03 -1.129259E+05 -1.423987E+04 -3.682913E+04  1.389050E+03  8.558383E+03
       176  22 -3.534298E+04 -1.011968E+05 -3.814086E+04 -3.722086E+04 -1.531314E+02  2.518484E+04
       176  23 -1.140107E+04 -9.849859E+04 -2.031026E+04 -3.464818E+04  5.839104E+01  1.482149E+04
       176  24 -3.634473E+03 -1.011949E+05 -1.327129E+04 -3.721681E+04  1.389694E+03  4.458058E+03
       176  25 -4.708958E+04 -1.483822E+05 -4.972697E+04 -6.100016E+04 -1.542435E+02  2.594325E+04
       176  26 -1.579334E+04 -1.160152E+05 -2.477519E+04 -4.673208E+04  5.839375E+01  1.315081E+04
       176  27 -1.094108E+03 -8.946375E+04 -1.230265E+04 -3.760449E+04  1.390344E+03  3.576605E+02
       177   1 -9.775553E+03 -1.305979E+05 -1.576802E+04 -3.549167E+04 -2.551097E+03 -6.638453E+03
       177   2 -1.577762E+04 -1.591342E+05 -2.056699E+04 -3.515451E+04 -4.297169E+03 -1.120867E+02
       177   3 -2.569156E+04 -1.894983E+05 -3.059377E+04 -4.001055E+04 -5.741660E+03  6.414060E+03
       177   4 -2.939966E+03 -1.003775E+05 -1.181768E+04 -3.722859E+04 -2.551713E+03 -2.524857E+03
       177   5 -2.086461E+03 -9.952064E+04 -1.173273E+04 -3.463212E+04 -4.297637E+03  3.347407E+03
       177   6 -5.031002E+03 -1.003788E+05 -1.642101E+04 -3.722893E+04 -5.741947E+03  9.219740E+03
       177   7  3.895603E+03 -7.015601E+04 -7.867294E+03 -3.896561E+04 -2.552353E+03  1.588930E+03
       177   8  1.160454E+04 -3.990350E+04 -2.898490E+03 -3.410969E+04 -4.298099E+03  6.807220E+03
       177   9  1.562919E+04 -1.125132E+04 -2.248423E+03 -3.444690E+04 -5.742210E+03  1.202581E+04
       177  10 -9.775572E+03 -1.305980E+05 -1.576811E+04 -3.549168E+04 -5.004541E-12 -1.017349E-10
       177  11 -1.577764E+04 -1.591342E+05 -2.056703E+04 -3.515451E+04  2.756908E-11  1.113795E-10
       177  12 -2.569160E+04 -1.894984E+05 -3.059391E+04 -4.001052E+04  2.083839E-10  1.143203E-10
       177  13 -2.939975E+03 -1.003775E+05 -1.181771E+04 -3.722860E+04 -7.613075E-11 -1.295609E-10
       177  14 -2.086484E+03 -9.952066E+04 -1.173279E+04 -3.463211E+04  1.139784E-10  8.985756E-11
       177  15 -5.031060E+03 -1.003789E+05 -1.642123E+04 -3.722889E+04 -1.512918E-10 -2.146410E-11
       177  16  3.895595E+03 -7.015601E+04 -7.867311E+03 -3.896560E+04 -1.196540E-10 -1.337476E-10
       177  17  1.160451E+04 -3.990355E+04 -2.898612E+03 -3.410966E+04 -2.628666E-10  1.228009E-10
       177  18  1.562912E+04 -1.125148E+04 -2.248757E+03 -3.444684E+04  3.717701E-11 -6.945703E-11
       177  19 -9.775553E+03 -1.305979E+05 -1.576802E+04 -3.549167E+04  2.551097E+03  6.638453E+03
       177  20 -1.577762E+04 -1.591342E+05 -2.056699E+04 -3.515451E+04  4.297169E+03  1.120867E+02
       177  21 -2.569156E+04 -1.894983E+05 -3.059377E+04 -4.001055E+04  5.741660E+03 -6.414060E+03
       177  22 -2.939966E+03 -1.003775E+05 -1.181768E+04 -3.722859E+04  2.551713E+03  2.524857E+03
       177  23 -2.086461E+03 -9.952064E+04 -1.173273E+04 -3.463212E+04  4.297637E+03 -3.347407E+03
       177  24 -5.031002E+03 -1.003788E+05 -1.642101E+04 -3.722893E+04  5.741947E+03 -9.219740E+03
       177  25  3.895603E+03 -7.015601E+04 -7.867294E+03 -3.896561E+04  2.552353E+03 -1.588930E+03
       177  26  1.160454E+04 -3.990350E+04 -2.898490E+03 -3.410969E+04  4.298099E+03 -6.807220E+03
       177  27  1.562919E+04 -1.125132E+04 -2.248423E+03 -3.444690E+04  5.742210E+03 -1.202581E+04
       178   1 -3.148143E+04 -2.099236E+05 -3.816951E+04 -3.776505E+04 -6.626570E+03  9.257763E+03
       178   2 -5.348230E+04 -2.338149E+05 -6.130419E+04 -5.687239E+04 -6.079976E+03  3.539277E+04
       178   3 -1.065365E+05 -2.688724E+05 -1.092196E+05 -8.091758E+04 -1.907047E+03  6.152586E+04
       178   4 -6.411898E+03 -1.021758E+05 -2.058819E+04 -3.717236E+04 -6.626817E+03  1.199969E+04
       178   5 -2.106446E+04 -9.727895E+04 -3.574730E+04 -3.470566E+04 -6.078030E+03  3.026645E+04
       178   6 -6.540182E+04 -1.021815E+05 -7.022003E+04 -3.717842E+04 -1.901458E+03  4.853294E+04
       178   7  1.865705E+04  5.583526E+03 -3.007170E+03 -3.657956E+04 -6.627058E+03  1.474207E+04
       178   8  1.135416E+04  3.927610E+04 -1.019085E+04 -1.253394E+04 -6.076450E+03  2.513904E+04
       178   9 -2.426186E+04  6.453950E+04 -3.122070E+04  6.572556E+03 -1.897702E+03  3.553656E+04
       178  10 -3.148150E+04 -2.099237E+05 -3.816976E+04 -3.776500E+04  8.442597E-11  8.676435E-12
       178  11 -5.348267E+04 -2.338162E+05 -6.130661E+04 -5.687221E+04 -7.774645E-11  5.725316E-12
       178  12 -1.065375E+05 -2.688765E+05 -1.092267E+05 -8.091749E+04  5.471323E-11 -1.223352E-10
       178  13 -6.411984E+03 -1.021760E+05 -2.058855E+04 -3.717230E+04  1.679831E-10 -7.376840E-11
       178  14 -2.106474E+04 -9.727994E+04 -3.574909E+04 -3.470552E+04 -2.780416E-11  9.488460E-11
       178  15 -6.540246E+04 -1.021840E+05 -7.022446E+04 -3.717835E+04  4.483665E-11 -3.955019E-11
       178  16  1.865694E+04  5.583281E+03 -3.007661E+03 -3.657948E+04  8.264557E-11 -1.493093E-10
       178  17  1.135396E+04  3.927541E+04 -1.019211E+04 -1.253382E+04  4.457905E-10  1.588662E-10
       178  18 -2.426221E+04  6.453814E+04 -3.122308E+04  6.572610E+03  7.276737E-11  1.271867E-10
       178  19 -3.148143E+04 -2.099236E+05 -3.816951E+04 -3.776505E+04  6.626570E+03 -9.257763E+03
       178  20 -5.348230E+04 -2.338149E+05 -6.130419E+04 -5.687239E+04  6.079976E+03 -3.539277E+04
       178  21 -1.065365E+05 -2.688724E+05 -1.092196E+05 -8.091758E+04  1.907047E+03 -6.152586E+04
       178  22 -6.411898E+03 -1.021758E+05 -2.058819E+04 -3.717236E+04  6.626817E+03 -1.199969E+04
       178  23 -2.106446E+04 -9.727895E+04 -3.574730E+04 -3.470566E+04  6.078030E+03 -3.026645E+04
       178  24 -6.540182E+04 -1.021815E+05 -7.022003E+04 -3.717842E+04  1.901458E+03 -4.853294E+04
       178  25  1.865705E+04  5.583526E+03 -3.007170E+03 -3.657956E+04  6.627058E+03 -1.474207E+04
       178  26  1.135416E+04  3.927610E+04 -1.019085E+04 -1.253394E+04  6.076450E+03 -2.513904E+04
       178  27 -2.426186E+04  6.453950E+04 -3.122070E+04  6.572556E+03  1.897702E+03 -3.553656E+04
       179   1  1.196556E+05  7.606222E+04  1.857511E+04  8.510164E+04  2.004966E+04  1.594450E+04
       179   2  1.126954E+05  5.545082E+04 -3.174696E+02  1.029272E+05  1.252171E+04  1.198542E+04
       179   3  1.354906E+05  5.492358E+04 -3.994168E+03  1.046862E+05  6.048682E+03  6.619793E+03
       179   4  1.877427E+05  1.105262E+05  3.888391E+04  1.122855E+05  2.082930E+04  1.652887E+04
       179   5  1.670378E+05  9.017689E+04  1.692729E+04  1.280023E+05  1.268705E+04  1.210933E+04
       179   6  1.762197E+05  9.004275E+04  1.071812E+04  1.276530E+05  5.599889E+03  6.283276E+03
       179   7  2.558344E+05  1.449910E+05  5.919215E+04  1.394720E+05  2.160905E+04  1.711329E+04
       179   8  2.213832E+05  1.249041E+05  3.417165E+04  1.530797E+05  1.285241E+04  1.223326E+04
       179   9  2.169506E+05  1.251634E+05  2.543015E+04  1.506218E+05  5.151056E+03  5.946720E+03
       179  10  1.196551E+05  7.606184E+04  1.857387E+04  8.510138E+04  9.489559E-12 -1.513303E-11
       179  11  1.126952E+05  5.545062E+04 -3.180340E+02  1.029271E+05 -6.569086E-11 -4.255954E-11
       179  12  1.354906E+05  5.492352E+04 -3.994319E+03  1.046861E+05  3.258066E-11  1.246436E-10
       179  13  1.877421E+05  1.105258E+05  3.888258E+04  1.122852E+05  1.248212E-10  2.851574E-11
       179  14  1.670376E+05  9.017669E+04  1.692671E+04  1.280022E+05 -2.030456E-10 -4.725709E-11
       179  15  1.762197E+05  9.004270E+04  1.071799E+04  1.276530E+05 -9.483159E-11 -3.493906E-12
       179  16  2.558338E+05  1.449906E+05  5.919072E+04  1.394717E+05  4.127065E-11  1.212397E-10
       179  17  2.213830E+05  1.249039E+05  3.417106E+04  1.530795E+05  6.766551E-11  8.335671E-11
       179  18  2.169505E+05  1.251633E+05  2.543003E+04  1.506217E+05 -1.725747E-11  4.432250E-11
       179  19  1.196556E+05  7.606222E+04  1.857511E+04  8.510164E+04 -2.004966E+04 -1.594450E+04
       179  20  1.126954E+05  5.545082E+04 -3.174696E+02  1.029272E+05 -1.252171E+04 -1.198542E+04
       179  21  1.354906E+05  5.492358E+04 -3.994168E+03  1.046862E+05 -6.048682E+03 -6.619793E+03
       179  22  1.877427E+05  1.105262E+05  3.888391E+04  1.122855E+05 -2.082930E+04 -1.652887E+04
       179  23  1.670378E+05  9.017689E+04  1.692729E+04  1.280023E+05 -1.268705E+04 -1.210933E+04
       179  24  1.762197E+05  9.004275E+04  1.071812E+04  1.276530E+05 -5.599889E+03 -6.283276E+03
       179  25  2.558344E+05  1.449910E+05  5.919215E+04  1.394720E+05 -2.160905E+04 -1.711329E+04
       179  26  2.213832E+05  1.249041E+05  3.417165E+04  1.530797E+05 -1.285241E+04 -1.223326E+04
       179  27  2.169506E+05  1.251634E+05  2.543015E+04  1.506218E+05 -5.151056E+03 -5.946720E+03
       180   1  1.438700E+05  7.064507E+04 -1.819540E+03  1.087008E+05  4.604211E+03  4.919363E+03
       180   2  1.459216E+05  7.696584E+04 -3.599008E+03  1.152339E+05  2.982000E+03  3.388427E+03
       180   3  1.592681E+05  7.795319E+04 -2.801286E+03  1.177197E+05  1.451159E+03  1.735527E+03
       180   4  1.766578E+05  9.248669E+04  8.784309E+03  1.242341E+05  4.543292E+03  4.873660E+03
       180   5  1.703418E+05  9.396851E+04  4.432595E+03  1.271423E+05  2.867790E+03  3.302776E+03
       180   6  1.753319E+05  9.012836E+04  2.704143E+03  1.260032E+05  1.283696E+03  1.609957E+03
       180   7  2.094469E+05  1.143289E+05  1.938807E+04  1.397682E+05  4.482368E+03  4.827954E+03
       180   8  1.947626E+05  1.109715E+05  1.246412E+04  1.390512E+05  2.753574E+03  3.217121E+03
       180   9  1.913960E+05  1.023036E+05  8.209509E+03  1.342870E+05  1.116228E+03  1.484382E+03
       180  10  1.438700E+05  7.064504E+04 -1.819625E+03  1.087008E+05 -2.049195E-10  7.142289E-11
       180  11  1.459215E+05  7.696583E+04 -3.599046E+03  1.152339E+05 -8.215302E-11  9.047345E-11
       180  12  1.592681E+05  7.795318E+04 -2.801296E+03  1.177197E+05  1.827661E-11  3.234045E-11
       180  13  1.766578E+05  9.248666E+04  8.784225E+03  1.242340E+05 -1.010942E-10  4.843751E-11
       180  14  1.703418E+05  9.396849E+04  4.432559E+03  1.271423E+05 -1.546944E-10  3.862034E-11
       180  15  1.753319E+05  9.012836E+04  2.704135E+03  1.260032E+05  2.329531E-11 -2.549476E-11
       180  16  2.094468E+05  1.143289E+05  1.938799E+04  1.397682E+05 -3.245918E-11  1.986786E-11
       180  17  1.947626E+05  1.109715E+05  1.246408E+04  1.390512E+05 -5.386900E-11  8.737140E-11
       180  18  1.913960E+05  1.023036E+05  8.209502E+03  1.342869E+05 -6.384750E-11 -3.193154E-11
       180  19  1.438700E+05  7.064507E+04 -1.819540E+03  1.087008E+05 -4.604211E+03 -4.919363E+03
       180  20  1.459216E+05  7.696584E+04 -3.599008E+03  1.152339E+05 -2.982000E+03 -3.388427E+03
       180  21  1.592681E+05  7.795319E+04 -2.801286E+03  1.177197E+05 -1.451159E+03 -1.735527E+03
       180  22  1.766578E+05  9.248669E+04  8.784309E+03  1.242341E+05 -4.543292E+03 -4.873660E+03
       180  23  1.703418E+05  9.396851E+04  4.432595E+03  1.271423E+05 -2.867790E+03 -3.302776E+03
       180  24  1.753319E+05  9.012836E+04  2.704143E+03  1.260032E+05 -1.283696E+03 -1.609957E+03
       180  25  2.094469E+05  1.143289E+05  1.938807E+04  1.397682E+05 -4.482368E+03 -4.827954E+03
       180  26  1.947626E+05  1.109715E+05  1.246412E+04  1.390512E+05 -2.753574E+03 -3.217121E+03
       180  27  1.913960E+05  1.023036E+05  8.209509E+03  1.342870E+05 -1.116228E+03 -1.484382E+03
       181   1  1.711197E+05  8.752914E+04  8.098195E+02  1.235736E+05  1.230843E+03  1.245042E+03
       181   2  1.742748E+05  9.694167E+04  2.439974E+03  1.288086E+05  9.553034E+02  5.495433E+02
       181   3  1.865269E+05  9.808435E+04  4.633964E+03  1.313201E+05  6.789932E+02 -1.449416E+02
       181   4  1.753593E+05  9.039492E+04  2.160351E+03  1.256062E+05  1.094174E+03  1.142562E+03
       181   5  1.707456E+05  9.441376E+04  1.265193E+03  1.270552E+05  8.190736E+02  4.473919E+02
       181   6  1.752287E+05  9.016256E+04  9.334634E+02  1.257806E+05  5.432104E+02 -2.467594E+02
       181   7  1.795989E+05  9.326072E+04  3.510880E+03  1.276388E+05  9.575028E+02  1.040082E+03
       181   8  1.672164E+05  9.188587E+04  9.040742E+01  1.253018E+05  6.828444E+02  3.452411E+02
       181   9  1.639305E+05  8.224080E+04 -2.767073E+03  1.202411E+05  4.074303E+02 -3.485752E+02
       181  10  1.711197E+05  8.752913E+04  8.098138E+02  1.235736E+05  1.187318E-10  3.219318E-12
       181  11  1.742748E+05  9.694166E+04  2.439971E+03  1.288086E+05 -2.535194E-10  7.094497E-11
       181  12  1.865269E+05  9.808435E+04  4.633964E+03  1.313201E+05 -1.235853E-10  1.284340E-10
       181  13  1.753593E+05  9.039492E+04  2.160346E+03  1.256062E+05  1.350817E-10  3.176197E-11
       181  14  1.707456E+05  9.441376E+04  1.265191E+03  1.270552E+05  7.895380E-11 -6.658823E-11
       181  15  1.752287E+05  9.016256E+04  9.334627E+02  1.257806E+05 -7.108069E-11  7.775041E-11
       181  16  1.795989E+05  9.326071E+04  3.510876E+03  1.276388E+05  3.262740E-11  3.885805E-11
       181  17  1.672164E+05  9.188586E+04  9.040632E+01  1.253018E+05  8.457124E-11 -3.740078E-11
       181  18  1.639305E+05  8.224080E+04 -2.767073E+03  1.202411E+05  1.115726E-10  7.680960E-12
       181  19  1.711197E+05  8.752914E+04  8.098195E+02  1.235736E+05 -1.230843E+03 -1.245042E+03
       181  20  1.742748E+05  9.694167E+04  2.439974E+03  1.288086E+05 -9.553034E+02 -5.495433E+02
       181  21  1.865269E+05  9.808435E+04  4.633964E+03  1.313201E+05 -6.789932E+02  1.449416E+02
       181  22  1.753593E+05  9.039492E+04  2.160351E+03  1.256062E+05 -1.094174E+03 -1.142562E+03
       181  23  1.707456E+05  9.441376E+04  1.265193E+03  1.270552E+05 -8.190736E+02 -4.473919E+02
       181  24  1.752287E+05  9.016256E+04  9.334634E+02  1.257806E+05 -5.432104E+02  2.467594E+02
       181  25  1.795989E+05  9.326072E+04  3.510880E+03  1.276388E+05 -9.575028E+02 -1.040082E+03
       181  26  1.672164E+05  9.188587E+04  9.040742E+01  1.253018E+05 -6.828444E+02 -3.452411E+02
       181  27  1.639305E+05  8.224080E+04 -2.767073E+03  1.202411E+05 -4.074303E+02  3.485752E+02
       182   1  1.987577E+05  1.069944E+05  8.719476E+03  1.374680E+05  7.430456E+02 -4.252301E+02
       182   2  2.020710E+05  1.166521E+05  1.126354E+04  1.425361E+05  5.693360E+02 -1.061017E+03
       182   3  2.145488E+05  1.180812E+05  1.431987E+04  1.448323E+05  2.941634E+02 -1.561452E+03
       182   4  1.752287E+05  9.014746E+04  8.604563E+02  1.257857E+05  5.724414E+02 -5.531637E+02
       182   5  1.707350E+05  9.441435E+04  8.758503E+02  1.270620E+05  4.577690E+02 -1.144689E+03
       182   6  1.753930E+05  9.043980E+04  1.352350E+03  1.255663E+05  2.416362E+02 -1.600855E+03
       182   7  1.517004E+05  7.330093E+04 -6.998601E+03  1.141040E+05  4.018468E+02 -6.810900E+02
       182   8  1.394001E+05  7.217713E+04 -9.511950E+03  1.115887E+05  3.462099E+02 -1.228355E+03
       182   9  1.362389E+05  6.279921E+04 -1.161538E+04  1.063017E+05  1.891136E+02 -1.640255E+03
       182  10  1.987576E+05  1.069944E+05  8.719474E+03  1.374680E+05 -7.751540E-11  4.841535E-11
       182  11  2.020710E+05  1.166521E+05  1.126354E+04  1.425361E+05  3.392221E-11 -7.142647E-12
       182  12  2.145488E+05  1.180812E+05  1.431987E+04  1.448323E+05  3.010557E-11  1.362863E-10
       182  13  1.752287E+05  9.014746E+04  8.604551E+02  1.257857E+05  1.616702E-10 -1.715050E-11
       182  14  1.707350E+05  9.441435E+04  8.758474E+02  1.270620E+05 -3.929362E-11  6.149726E-11
       182  15  1.753930E+05  9.043979E+04  1.352345E+03  1.255663E+05 -1.058789E-10  8.744266E-11
       182  16  1.517004E+05  7.330093E+04 -6.998602E+03  1.141040E+05  7.031055E-11  4.810189E-11
       182  17  1.394001E+05  7.217713E+04 -9.511953E+03  1.115887E+05 -1.130714E-10  3.206594E-11
       182  18  1.362389E+05  6.279921E+04 -1.161538E+04  1.063017E+05  2.129341E-11  1.067064E-10
       182  19  1.987577E+05  1.069944E+05  8.719476E+03  1.374680E+05 -7.430456E+02  4.252301E+02
       182  20  2.020710E+05  1.166521E+05  1.126354E+04  1.425361E+05 -5.693360E+02  1.061017E+03
       182  21  2.145488E+05  1.180812E+05  1.431987E+04  1.448323E+05 -2.941634E+02  1.561452E+03
       182  22  1.752287E+05  9.014746E+04  8.604563E+02  1.257857E+05 -5.724414E+02  5.531637E+02
       182  23  1.707350E+05  9.441435E+04  8.758503E+02  1.270620E+05 -4.577690E+02  1.144689E+03
       182  24  1.753930E+05  9.043980E+04  1.352350E+03  1.255663E+05 -2.416362E+02  1.600855E+03
       182  25  1.517004E+05  7.330093E+04 -6.998601E+03  1.141040E+05 -4.018468E+02  6.810900E+02
       182  26  1.394001E+05  7.217713E+04 -9.511950E+03  1.115887E+05 -3.462099E+02  1.228355E+03
       182  27  1.362389E+05  6.279921E+04 -1.161538E+04  1.063017E+05 -1.891136E+02  1.640255E+03
       183   1  2.263030E+05  1.271980E+05  1.865388E+04  1.516201E+05  8.337753E+02 -1.809407E+03
       183   2  2.297885E+05  1.357106E+05  2.197950E+04  1.563755E+05 -6.241297E+02 -3.414264E+03
       183   3  2.451148E+05  1.395512E+05  2.806912E+04  1.567228E+05 -3.252504E+03 -3.458834E+03
       183   4  1.753395E+05  9.010153E+04  1.577304E+03  1.260265E+05  3.509021E+02 -2.171576E+03
       183   5  1.702795E+05  9.390974E+04  2.365171E+03  1.271813E+05 -4.264319E+02 -3.266000E+03
       183   6  1.769130E+05  9.289838E+04  5.326710E+03  1.239278E+05 -2.374266E+03 -2.800025E+03
       183   7  1.243786E+05  5.300639E+04 -1.549970E+04  1.004353E+05 -1.319188E+02 -2.533703E+03
       183   8  1.107742E+05  5.211061E+04 -1.724966E+04  9.799015E+04 -2.287597E+02 -3.117755E+03
       183   9  1.087161E+05  4.624781E+04 -1.741630E+04  9.113672E+04 -1.496160E+03 -2.141309E+03
       183  10  2.263030E+05  1.271980E+05  1.865388E+04  1.516201E+05 -1.116835E-10  1.764041E-10
       183  11  2.297885E+05  1.357106E+05  2.197948E+04  1.563755E+05  2.556750E-11 -8.227949E-11
       183  12  2.451147E+05  1.395512E+05  2.806908E+04  1.567228E+05 -4.526285E-11 -4.443060E-11
       183  13  1.753395E+05  9.010153E+04  1.577295E+03  1.260265E+05  7.405321E-11  1.095293E-10
       183  14  1.702795E+05  9.390973E+04  2.365151E+03  1.271813E+05  1.802480E-10  3.647353E-11
       183  15  1.769130E+05  9.289837E+04  5.326685E+03  1.239278E+05  1.379847E-10  2.883612E-10
       183  16  1.243786E+05  5.300638E+04 -1.549971E+04  1.004353E+05 -9.156152E-11  6.365631E-12
       183  17  1.107742E+05  5.211060E+04 -1.724968E+04  9.799014E+04 -1.125678E-10 -2.792546E-10
       183  18  1.087161E+05  4.624781E+04 -1.741632E+04  9.113671E+04 -9.186644E-13  5.722761E-11
       183  19  2.263030E+05  1.271980E+05  1.865388E+04  1.516201E+05 -8.337753E+02  1.809407E+03
       183  20  2.297885E+05  1.357106E+05  2.197950E+04  1.563755E+05  6.241297E+02  3.414264E+03
       183  21  2.451148E+05  1.395512E+05  2.806912E+04  1.567228E+05  3.252504E+03  3.458834E+03
       183  22  1.753395E+05  9.010153E+04  1.577304E+03  1.260265E+05 -3.509021E+02  2.171576E+03
       183  23  1.702795E+05  9.390974E+04  2.365171E+03  1.271813E+05  4.264319E+02  3.266000E+03
       183  24  1.769130E+05  9.289838E+04  5.326710E+03  1.239278E+05  2.374266E+03  2.800025E+03
       183  25  1.243786E+05  5.300639E+04 -1.549970E+04  1.004353E+05  1.319188E+02  2.533703E+03
       183  26  1.107742E+05  5.211061E+04 -1.724966E+04  9.799015E+04  2.287597E+02  3.117755E+03
       183  27  1.087161E+05  4.624781E+04 -1.741630E+04  9.113672E+04  1.496160E+03  2.141309E+03
       184   1  3.385699E+04 -3.601812E+04 -4.231915E+04 -1.353617E+04 -2.825177E+04  1.784681E+02
       184   2  3.313984E+04 -4.212555E+03 -2.157973E+04 -3.635321E+03 -1.822198E+04  6.926938E+02
       184   3  2.346930E+04 -2.998597E+03 -1.501737E+04  8.230398E+03 -8.192267E+03  1.052547E+03
       184   4  4.193670E+04 -3.402064E+04 -4.041611E+04  3.558883E+03 -2.765673E+04  1.777116E+02
       184   5  4.639954E+04 -9.881453E+02 -1.871877E+04  2.575942E+03 -1.778249E+04  6.925243E+02
       184   6  4.193575E+04  1.479593E+03 -1.109048E+04  3.557850E+03 -7.908257E+03  1.052615E+03
       184   7  5.001709E+04 -3.202205E+04 -3.851291E+04  2.065416E+04 -2.706168E+04  1.769879E+02
       184   8  5.965949E+04  2.236398E+03 -1.585780E+04  8.787338E+03 -1.734299E+04  6.923635E+02
       184   9  6.040257E+04  5.957842E+03 -7.163586E+03 -1.114839E+03 -7.624240E+03  1.052678E+03
       184  10  3.385613E+04 -3.601834E+04 -4.232065E+04 -1.353616E+04  7.359434E-11 -4.269920E-11
       184  11  3.313949E+04 -4.212645E+03 -2.158036E+04 -3.635310E+03 -1.226436E-11 -3.445818E-11
       184  12  2.346923E+04 -2.998616E+03 -1.501750E+04  8.230405E+03 -2.672416E-11  1.423144E-11
       184  13  4.193588E+04 -3.402084E+04 -4.041754E+04  3.558887E+03 -2.899500E-11  5.014068E-11
       184  14  4.639920E+04 -9.882307E+02 -1.871937E+04  2.575951E+03 -3.092506E-11 -1.333775E-11
       184  15  4.193568E+04  1.479575E+03 -1.109060E+04  3.557856E+03  1.173097E-10  3.532067E-11
       184  16  5.001631E+04 -3.202225E+04 -3.851429E+04  2.065416E+04 -5.133952E-11  3.897969E-11
       184  17  5.965916E+04  2.236317E+03 -1.585837E+04  8.787348E+03  1.412626E-10 -6.962264E-11
       184  18  6.040251E+04  5.957825E+03 -7.163697E+03 -1.114833E+03  1.237574E-10  2.028739E-11
       184  19  3.385699E+04 -3.601812E+04 -4.231915E+04 -1.353617E+04  2.825177E+04 -1.784681E+02
       184  20  3.313984E+04 -4.212555E+03 -2.157973E+04 -3.635321E+03  1.822198E+04 -6.926938E+02
       184  21  2.346930E+04 -2.998597E+03 -1.501737E+04  8.230398E+03  8.192267E+03 -1.052547E+03
       184  22  4.193670E+04 -3.402064E+04 -4.041611E+04  3.558883E+03  2.765673E+04 -1.777116E+02
       184  23  4.639954E+04 -9.881453E+02 -1.871877E+04  2.575942E+03  1.778249E+04 -6.925243E+02
       184  24  4.193575E+04  1.479593E+03 -1.109048E+04  3.557850E+03  7.908257E+03 -1.052615E+03
       184  25  5.001709E+04 -3.202205E+04 -3.851291E+04  2.065416E+04  2.706168E+04 -1.769879E+02
       184  26  5.965949E+04  2.236398E+03 -1.585780E+04  8.787338E+03  1.734299E+04 -6.923635E+02
       184  27  6.040257E+04  5.957842E+03 -7.163586E+03 -1.114839E+03  7.624240E+03 -1.052678E+03
       185   1  2.126100E+04 -7.085417E+03 -1.376755E+04  2.973059E+03 -6.665922E+03  1.223578E+03
       185   2  1.644646E+04 -6.691060E+03 -1.133703E+04  2.430090E+03 -3.941198E+03  1.544140E+03
       185   3  1.087055E+04 -7.924402E+03 -1.108715E+04  3.844542E+03 -1.216520E+03  1.853991E+03
       185   4  4.375071E+04 -1.623442E+03 -8.946741E+03  3.556447E+03 -6.338294E+03  1.223576E+03
       185   5  4.413042E+04  2.744370E+01 -5.427564E+03  2.577721E+03 -3.624266E+03  1.544139E+03
       185   6  4.375052E+04  5.250505E+01 -4.081588E+03  3.556422E+03 -9.102617E+02  1.853986E+03
       185   7  6.624089E+04  3.838502E+03 -4.125958E+03  4.139856E+03 -6.010653E+03  1.223575E+03
       185   8  7.181510E+04  6.745898E+03  4.818567E+02  2.725359E+03 -3.307320E+03  1.544138E+03
       185   9  7.663152E+04  8.029342E+03  2.923914E+03  3.268287E+03 -6.039879E+02  1.853982E+03
       185  10  2.126095E+04 -7.085431E+03 -1.376764E+04  2.973066E+03  4.678713E-11  1.106767E-10
       185  11  1.644645E+04 -6.691067E+03 -1.133706E+04  2.430095E+03 -1.114959E-10  4.196367E-11
       185  12  1.087055E+04 -7.924406E+03 -1.108716E+04  3.844544E+03  1.290581E-10  3.494635E-11
       185  13  4.375066E+04 -1.623454E+03 -8.946820E+03  3.556453E+03  7.293184E-11  9.365764E-11
       185  14  4.413041E+04  2.743761E+01 -5.427593E+03  2.577726E+03 -1.633937E-11  2.875523E-11
       185  15  4.375052E+04  5.250113E+01 -4.081596E+03  3.556424E+03 -2.597135E-11  1.730629E-11
       185  16  6.624085E+04  3.838491E+03 -4.126029E+03  4.139862E+03 -1.667747E-10  5.965124E-11
       185  17  7.181508E+04  6.745892E+03  4.818317E+02  2.725363E+03  6.383604E-11  1.136627E-11
       185  18  7.663152E+04  8.029338E+03  2.923907E+03  3.268288E+03 -1.003522E-11 -2.358414E-11
       185  19  2.126100E+04 -7.085417E+03 -1.376755E+04  2.973059E+03  6.665922E+03 -1.223578E+03
       185  20  1.644646E+04 -6.691060E+03 -1.133703E+04  2.430090E+03  3.941198E+03 -1.544140E+03
       185  21  1.087055E+04 -7.924402E+03 -1.108715E+04  3.844542E+03  1.216520E+03 -1.853991E+03
       185  22  4.375071E+04 -1.623442E+03 -8.946741E+03  3.556447E+03  6.338294E+03 -1.223576E+03
       185  23  4.413042E+04  2.744370E+01 -5.427564E+03  2.577721E+03  3.624266E+03 -1.544139E+03
       185  24  4.375052E+04  5.250505E+01 -4.081588E+03  3.556422E+03  9.102617E+02 -1.853986E+03
       185  25  6.624089E+04  3.838502E+03 -4.125958E+03  4.139856E+03  6.010653E+03 -1.223575E+03
       185  26  7.181510E+04  6.745898E+03  4.818567E+02  2.725359E+03  3.307320E+03 -1.544138E+03
       185  27  7.663152E+04  8.029342E+03  2.923914E+03  3.268287E+03  6.039879E+02 -1.853982E+03
       186   1  6.879677E+03 -8.952711E+03 -1.178431E+04  3.378646E+03 -5.363385E+02  2.040576E+03
       186   2  1.978573E+03 -1.019257E+04 -1.338564E+04  2.705230E+03  1.730500E+03  2.329843E+03
       186   3 -3.516314E+03 -1.262914E+04 -1.676181E+04  3.985539E+03  3.997364E+03  2.543207E+03
       186   4  4.379028E+04  7.411930E+00 -3.893281E+03  3.555606E+03 -2.071849E+02  2.040567E+03
       186   5  4.408046E+04  2.748149E+01 -4.386250E+03  2.578741E+03  1.983427E+03  2.329828E+03
       186   6  4.379020E+04 -1.135853E+03 -6.601014E+03  3.555592E+03  4.174082E+03  2.543186E+03
       186   7  8.070216E+04  8.967446E+03  3.997665E+03  3.732576E+03  1.219880E+02  2.040558E+03
       186   8  8.618402E+04  1.024742E+04  4.613040E+03  2.452244E+03  2.236371E+03  2.329813E+03
       186   9  9.109882E+04  1.035729E+04  3.559652E+03  3.125611E+03  4.350813E+03  2.543164E+03
       186  10  6.879675E+03 -8.952716E+03 -1.178431E+04  3.378647E+03 -2.914217E-11 -7.022142E-12
       186  11  1.978568E+03 -1.019258E+04 -1.338566E+04  2.705227E+03 -4.522598E-13 -5.785412E-11
       186  12 -3.516333E+03 -1.262915E+04 -1.676185E+04  3.985531E+03 -7.330631E-11  1.771321E-11
       186  13  4.379028E+04  7.407447E+00 -3.893289E+03  3.555606E+03 -1.673967E-12 -2.942844E-11
       186  14  4.408046E+04  2.747461E+01 -4.386268E+03  2.578738E+03  6.625982E-11 -2.139186E-11
       186  15  4.379018E+04 -1.135865E+03 -6.601059E+03  3.555583E+03  8.704957E-12 -7.111951E-12
       186  16  8.070216E+04  8.967442E+03  3.997657E+03  3.732576E+03 -3.817921E-11 -3.109270E-11
       186  17  8.618401E+04  1.024741E+04  4.613021E+03  2.452240E+03  2.063476E-10 -2.061311E-11
       186  18  9.109879E+04  1.035728E+04  3.559604E+03  3.125602E+03  5.207802E-11 -2.858915E-11
       186  19  6.879677E+03 -8.952711E+03 -1.178431E+04  3.378646E+03  5.363385E+02 -2.040576E+03
       186  20  1.978573E+03 -1.019257E+04 -1.338564E+04  2.705230E+03 -1.730500E+03 -2.329843E+03
       186  21 -3.516314E+03 -1.262914E+04 -1.676181E+04  3.985539E+03 -3.997364E+03 -2.543207E+03
       186  22  4.379028E+04  7.411930E+00 -3.893281E+03  3.555606E+03  2.071849E+02 -2.040567E+03
       186  23  4.408046E+04  2.748149E+01 -4.386250E+03  2.578741E+03 -1.983427E+03 -2.329828E+03
       186  24  4.379020E+04 -1.135853E+03 -6.601014E+03  3.555592E+03 -4.174082E+03 -2.543186E+03
       186  25  8.070216E+04  8.967446E+03  3.997665E+03  3.732576E+03 -1.219880E+02 -2.040558E+03
       186  26  8.618402E+04  1.024742E+04  4.613040E+03  2.452244E+03 -2.236371E+03 -2.329813E+03
       186  27  9.109882E+04  1.035729E+04  3.559652E+03  3.125611E+03 -4.350813E+03 -2.543164E+03
       187   1 -8.855843E+03 -1.143322E+04 -1.900434E+04  2.720836E+02  4.701032E+03  2.840591E+03
       187   2 -1.079224E+04 -1.445952E+04 -2.562849E+04  6.970902E+03  1.332117E+04  2.649068E+03
       187   3 -1.928572E+04 -3.922911E+04 -4.330018E+04  1.554750E+04  2.194109E+04  8.325941E+02
       187   4  4.252505E+04  1.039402E+03 -8.019777E+03  3.539070E+03  5.326284E+03  2.840578E+03
       187   5  4.566172E+04 -6.927907E+02 -1.325035E+04  2.599467E+03  1.231220E+04  2.649008E+03
       187   6  4.252547E+04 -2.388370E+04 -2.839306E+04  3.537749E+03  1.929799E+04  8.323409E+02
       187   7  9.390844E+04  1.351189E+04  2.964638E+03  6.806331E+03  5.951586E+03  2.840571E+03
       187   8  1.021187E+05  1.307379E+04 -8.723920E+02 -1.772370E+03  1.130313E+04  2.648962E+03
       187   9  1.043405E+05 -8.538032E+03 -1.348611E+04 -8.473197E+03  1.665463E+04  8.321900E+02
       187  10 -8.855869E+03 -1.143323E+04 -1.900439E+04  2.720729E+02 -1.589360E-10  7.630720E-11
       187  11 -1.079244E+04 -1.445957E+04 -2.562883E+04  6.970874E+03  2.954567E-11  1.943081E-10
       187  12 -1.928623E+04 -3.922924E+04 -4.330109E+04  1.554748E+04  5.010301E-11  5.329112E-11
       187  13  4.252501E+04  1.039386E+03 -8.019845E+03  3.539058E+03 -1.282154E-10  1.806766E-10
       187  14  4.566155E+04 -6.928389E+02 -1.325065E+04  2.599441E+03  5.252935E-11 -4.144678E-11
       187  15  4.252507E+04 -2.388380E+04 -2.839376E+04  3.537736E+03  2.496902E-11 -5.416531E-13
       187  16  9.390840E+04  1.351187E+04  2.964556E+03  6.806317E+03  1.511624E-10  2.086065E-11
       187  17  1.021186E+05  1.307375E+04 -8.726452E+02 -1.772394E+03 -3.137331E-11 -2.864147E-11
       187  18  1.043402E+05 -8.538108E+03 -1.348663E+04 -8.473208E+03 -1.701821E-10  9.421086E-11
       187  19 -8.855843E+03 -1.143322E+04 -1.900434E+04  2.720836E+02 -4.701032E+03 -2.840591E+03
       187  20 -1.079224E+04 -1.445952E+04 -2.562849E+04  6.970902E+03 -1.332117E+04 -2.649068E+03
       187  21 -1.928572E+04 -3.922911E+04 -4.330018E+04  1.554750E+04 -2.194109E+04 -8.325941E+02
       187  22  4.252505E+04  1.039402E+03 -8.019777E+03  3.539070E+03 -5.326284E+03 -2.840578E+03
       187  23  4.566172E+04 -6.927907E+02 -1.325035E+04  2.599467E+03 -1.231220E+04 -2.649008E+03
       187  24  4.252547E+04 -2.388370E+04 -2.839306E+04  3.537749E+03 -1.929799E+04 -8.323409E+02
       187  25  9.390844E+04  1.351189E+04  2.964638E+03  6.806331E+03 -5.951586E+03 -2.840571E+03
       187  26  1.021187E+05  1.307379E+04 -8.723920E+02 -1.772370E+03 -1.130313E+04 -2.648962E+03
       187  27  1.043405E+05 -8.538032E+03 -1.348611E+04 -8.473197E+03 -1.665463E+04 -8.321900E+02
       188   1 -8.850372E+04 -2.934455E+05 -1.113763E+05  1.812351E+04 -3.201501E+02 -6.418496E+04
       188   2  4.854793E+03 -2.693061E+05 -5.523811E+04  1.725754E+03 -8.314227E+02 -4.024118E+04
       188   3 -8.132077E+03 -2.748654E+05 -4.127683E+04  2.957112E+02 -4.333533E+02 -1.629690E+04
       188   4 -7.444947E+04 -2.372074E+05 -9.736032E+04  6.176832E+03 -3.189125E+02 -6.396370E+04
       188   5  1.656542E+04 -2.223739E+05 -4.362729E+04 -1.307257E+03 -8.312213E+02 -4.022960E+04
       188   6  1.275482E+03 -2.372005E+05 -3.192280E+04  6.176747E+03 -4.335303E+02 -1.649538E+04
       188   7 -6.039491E+04 -1.809662E+05 -8.334453E+04 -5.770927E+03 -3.176835E+02 -6.374241E+04
       188   8  2.827592E+04 -1.754398E+05 -3.201662E+04 -4.340499E+03 -8.310200E+02 -4.021802E+04
       188   9  1.068307E+04 -1.995343E+05 -2.256886E+04  1.205814E+04 -4.337111E+02 -1.669387E+04
       188  10 -8.850483E+04 -2.934499E+05 -1.113840E+05  1.812349E+04 -3.849304E-11 -4.223550E-11
       188  11  4.854358E+03 -2.693078E+05 -5.524116E+04  1.725728E+03 -6.760168E-11 -1.043817E-10
       188  12 -8.132149E+03 -2.748657E+05 -4.127733E+04  2.957055E+02  3.503399E-11  2.811200E-10
       188  13 -7.445057E+04 -2.372118E+05 -9.736801E+04  6.176816E+03 -7.808991E-11  2.113152E-11
       188  14  1.656499E+04 -2.223757E+05 -4.363033E+04 -1.307284E+03 -3.623330E-10 -5.301389E-12
       188  15  1.275409E+03 -2.372008E+05 -3.192331E+04  6.176741E+03 -2.989897E-11 -1.268202E-10
       188  16 -6.039601E+04 -1.809706E+05 -8.335217E+04 -5.770944E+03 -3.882147E-11  3.002592E-11
       188  17  2.827549E+04 -1.754415E+05 -3.201967E+04 -4.340525E+03  1.016468E-10  1.315715E-11
       188  18  1.068299E+04 -1.995346E+05 -2.256938E+04  1.205813E+04 -5.696868E-11 -3.358094E-11
       188  19 -8.850372E+04 -2.934455E+05 -1.113763E+05  1.812351E+04  3.201501E+02  6.418496E+04
       188  20  4.854793E+03 -2.693061E+05 -5.523811E+04  1.725754E+03  8.314227E+02  4.024118E+04
       188  21 -8.132077E+03 -2.748654E+05 -4.127683E+04  2.957112E+02  4.333533E+02  1.629690E+04
       188  22 -7.444947E+04 -2.372074E+05 -9.736032E+04  6.176832E+03  3.189125E+02  6.396370E+04
       188  23  1.656542E+04 -2.223739E+05 -4.362729E+04 -1.307257E+03  8.312213E+02  4.022960E+04
       188  24  1.275482E+03 -2.372005E+05 -3.192280E+04  6.176747E+03  4.335303E+02  1.649538E+04
       188  25 -6.039491E+04 -1.809662E+05 -8.334453E+04 -5.770927E+03  3.176835E+02  6.374241E+04
       188  26  2.827592E+04 -1.754398E+05 -3.201662E+04 -4.340499E+03  8.310200E+02  4.021802E+04
       188  27  1.068307E+04 -1.995343E+05 -2.256886E+04  1.205814E+04  4.337111E+02  1.669387E+04
       189   1 -9.984973E+03 -2.314447E+05 -2.833285E+04  8.642706E+03 -7.244058E+01 -1.100655E+04
       189   2  7.300766E+03 -2.176390E+05 -1.871340E+04 -1.332280E+03  1.622529E+02  1.265127E+02
       189   3 -5.412864E+03 -2.127874E+05 -2.384416E+04  3.747598E+03  3.612269E+02  1.125976E+04
       189   4 -1.027711E+04 -2.326011E+05 -2.863290E+04  6.197125E+03 -7.240517E+01 -1.106487E+04
       189   5  4.684000E+03 -2.281232E+05 -2.131053E+04 -1.330457E+03  1.622473E+02  7.639819E+01
       189   6 -1.035596E+04 -2.326010E+05 -2.874420E+04  6.196877E+03  3.612675E+02  1.121768E+04
       189   7 -1.056922E+04 -2.337574E+05 -2.893295E+04  3.751548E+03 -7.236931E+01 -1.112319E+04
       189   8  2.067226E+03 -2.386072E+05 -2.390768E+04 -1.328634E+03  1.622416E+02  2.628454E+01
       189   9 -1.529906E+04 -2.524143E+05 -3.364426E+04  8.646078E+03  3.613078E+02  1.117561E+04
       189  10 -9.985006E+03 -2.314449E+05 -2.833308E+04  8.642705E+03  3.290235E-11  1.921318E-11
       189  11  7.300766E+03 -2.176390E+05 -1.871340E+04 -1.332280E+03  2.202684E-11 -8.793106E-11
       189  12 -5.412898E+03 -2.127875E+05 -2.384440E+04  3.747594E+03 -9.349131E-11  2.204157E-10
       189  13 -1.027714E+04 -2.326012E+05 -2.863313E+04  6.197124E+03 -9.212686E-11 -2.421782E-10
       189  14  4.684000E+03 -2.281232E+05 -2.131053E+04 -1.330457E+03  8.661842E-11 -4.839064E-11
       189  15 -1.035599E+04 -2.326011E+05 -2.874444E+04  6.196874E+03 -1.304311E-10 -9.724079E-11
       189  16 -1.056925E+04 -2.337575E+05 -2.893318E+04  3.751548E+03 -9.654888E-12 -1.725674E-10
       189  17  2.067226E+03 -2.386072E+05 -2.390768E+04 -1.328634E+03 -5.967163E-11 -2.504029E-12
       189  18 -1.529910E+04 -2.524144E+05 -3.364449E+04  8.646075E+03  6.395938E-12 -4.424519E-12
       189  19 -9.984973E+03 -2.314447E+05 -2.833285E+04  8.642706E+03  7.244058E+01  1.100655E+04
       189  20  7.300766E+03 -2.176390E+05 -1.871340E+04 -1.332280E+03 -1.622529E+02 -1.265127E+02
       189  21 -5.412864E+03 -2.127874E+05 -2.384416E+04  3.747598E+03 -3.612269E+02 -1.125976E+04
       189  22 -1.027711E+04 -2.326011E+05 -2.863290E+04  6.197125E+03  7.240517E+01  1.106487E+04
       189  23  4.684000E+03 -2.281232E+05 -2.131053E+04 -1.330457E+03 -1.622473E+02 -7.639819E+01
       189  24 -1.035596E+04 -2.326010E+05 -2.874420E+04  6.196877E+03 -3.612675E+02 -1.121768E+04
       189  25 -1.056922E+04 -2.337574E+05 -2.893295E+04  3.751548E+03  7.236931E+01  1.112319E+04
       189  26  2.067226E+03 -2.386072E+05 -2.390768E+04 -1.328634E+03 -1.622416E+02 -2.628454E+01
       189  27 -1.529906E+04 -2.524143E+05 -3.364426E+04  8.646078E+03 -3.613078E+02 -1.117561E+04
       190   1  1.592003E+04 -1.787121E+05 -1.755430E+04  1.207753E+04  7.546335E+02  1.690667E+04
       190   2  3.357905E+04 -1.545838E+05 -2.714345E+04 -4.339866E+03  1.175885E+03  4.052242E+04
       190   3 -5.572902E+04 -1.602486E+05 -7.884464E+04 -5.885120E+03  4.273138E+02  6.413833E+04
       190   4  1.305895E+03 -2.372418E+05 -3.207640E+04  6.157529E+03  7.544581E+02  1.667183E+04
       190   5  1.667630E+04 -2.223234E+05 -4.390395E+04 -1.282039E+03  1.176093E+03  4.055723E+04
       190   6 -7.497380E+04 -2.372486E+05 -9.803430E+04  6.150446E+03  4.285310E+02  6.444243E+04
       190   7 -1.330837E+04 -2.957683E+05 -4.659874E+04  2.380867E+02  7.542872E+02  1.643702E+04
       190   8 -2.267587E+02 -2.900588E+05 -6.066477E+04  1.775454E+03  1.176300E+03  4.059204E+04
       190   9 -9.421849E+04 -3.142429E+05 -1.172243E+05  1.818452E+04  4.297600E+02  6.474649E+04
       190  10  1.591996E+04 -1.787124E+05 -1.755484E+04  1.207752E+04 -6.438450E-11 -6.453318E-11
       190  11  3.357861E+04 -1.545855E+05 -2.714654E+04 -4.339904E+03 -9.497431E-12 -1.503462E-11
       190  12 -5.573013E+04 -1.602530E+05 -7.885238E+04 -5.885142E+03 -2.898394E-11 -1.634166E-10
       190  13  1.305819E+03 -2.372421E+05 -3.207693E+04  6.157519E+03  1.158276E-10 -1.702189E-10
       190  14  1.667586E+04 -2.223251E+05 -4.390704E+04 -1.282077E+03 -2.732386E-11 -5.394484E-12
       190  15 -7.497492E+04 -2.372531E+05 -9.804211E+04  6.150423E+03 -4.471633E-11  1.136294E-10
       190  16 -1.330844E+04 -2.957686E+05 -4.659925E+04  2.380767E+02 -9.770849E-11 -2.529994E-11
       190  17 -2.272028E+02 -2.900606E+05 -6.066787E+04  1.775416E+03  1.130414E-10  6.097158E-12
       190  18 -9.421961E+04 -3.142474E+05 -1.172322E+05  1.818450E+04  7.000686E-11 -6.793308E-11
       190  19  1.592003E+04 -1.787121E+05 -1.755430E+04  1.207753E+04 -7.546335E+02 -1.690667E+04
       190  20  3.357905E+04 -1.545838E+05 -2.714345E+04 -4.339866E+03 -1.175885E+03 -4.052242E+04
       190  21 -5.572902E+04 -1.602486E+05 -7.884464E+04 -5.885120E+03 -4.273138E+02 -6.413833E+04
       190  22  1.305895E+03 -2.372418E+05 -3.207640E+04  6.157529E+03 -7.544581E+02 -1.667183E+04
       190  23  1.667630E+04 -2.223234E+05 -4.390395E+04 -1.282039E+03 -1.176093E+03 -4.055723E+04
       190  24 -7.497380E+04 -2.372486E+05 -9.803430E+04  6.150446E+03 -4.285310E+02 -6.444243E+04
       190  25 -1.330837E+04 -2.957683E+05 -4.659874E+04  2.380867E+02 -7.542872E+02 -1.643702E+04
       190  26 -2.267587E+02 -2.900588E+05 -6.066477E+04  1.775454E+03 -1.176300E+03 -4.059204E+04
       190  27 -9.421849E+04 -3.142429E+05 -1.172243E+05  1.818452E+04 -4.297600E+02 -6.474649E+04
       191   1  1.810507E+05  1.118803E+05  8.613196E+03  1.373946E+05  1.059539E+04  9.502480E+03
       191   2  1.895341E+05  9.631745E+04 -5.385526E+02  1.477720E+05  6.000484E+03  9.634058E+03
       191   3  2.074427E+05  8.887540E+04 -3.933611E+03  1.528666E+05  2.719227E+03  8.013938E+03
       191   4  2.701315E+05  1.441741E+05  3.134017E+04  1.673186E+05  1.687219E+04  1.420952E+04
       191   5  2.602124E+05  1.311469E+05  1.547069E+04  1.764050E+05  8.804488E+03  1.173677E+04
       191   6  2.604703E+05  1.269927E+05  8.370485E+03  1.802087E+05  2.050509E+03  7.512361E+03
       191   7  3.592231E+05  1.764696E+05  5.406736E+04  1.972466E+05  2.315036E+04  1.891699E+04
       191   8  3.308977E+05  1.659783E+05  3.148009E+04  2.050416E+05  1.160898E+04  1.383971E+04
       191   9  3.135022E+05  1.651125E+05  2.067475E+04  2.075540E+05  1.381703E+03  7.010715E+03
       191  10  1.810505E+05  1.118802E+05  8.612816E+03  1.373945E+05  1.884440E-10  4.631297E-11
       191  11  1.895341E+05  9.631734E+04 -5.387946E+02  1.477720E+05  4.260572E-10 -7.810874E-12
       191  12  2.074426E+05  8.887532E+04 -3.933746E+03  1.528666E+05  8.159425E-10 -8.789897E-10
       191  13  2.701311E+05  1.441738E+05  3.133926E+04  1.673184E+05  3.752188E-11  4.245183E-11
       191  14  2.602123E+05  1.311467E+05  1.547029E+04  1.764049E+05 -1.023299E-10  5.520097E-11
       191  15  2.604703E+05  1.269926E+05  8.370371E+03  1.802087E+05 -1.267043E-10  5.978575E-11
       191  16  3.592224E+05  1.764691E+05  5.406568E+04  1.972463E+05 -1.071485E-10 -1.995569E-10
       191  17  3.308975E+05  1.659780E+05  3.147948E+04  2.050415E+05 -3.923945E-10 -1.251711E-10
       191  18  3.135022E+05  1.651125E+05  2.067466E+04  2.075540E+05 -9.269825E-10  9.807124E-10
       191  19  1.810507E+05  1.118803E+05  8.613196E+03  1.373946E+05 -1.059539E+04 -9.502480E+03
       191  20  1.895341E+05  9.631745E+04 -5.385526E+02  1.477720E+05 -6.000484E+03 -9.634058E+03
       191  21  2.074427E+05  8.887540E+04 -3.933611E+03  1.528666E+05 -2.719227E+03 -8.013938E+03
       191  22  2.701315E+05  1.441741E+05  3.134017E+04  1.673186E+05 -1.687219E+04 -1.420952E+04
       191  23  2.602124E+05  1.311469E+05  1.547069E+04  1.764050E+05 -8.804488E+03 -1.173677E+04
       191  24  2.604703E+05  1.269927E+05  8.370485E+03  1.802087E+05 -2.050509E+03 -7.512361E+03
       191  25  3.592231E+05  1.764696E+05  5.406736E+04  1.972466E+05 -2.315036E+04 -1.891699E+04
       191  26  3.308977E+05  1.659783E+05  3.148009E+04  2.050416E+05 -1.160898E+04 -1.383971E+04
       191  27  3.135022E+05  1.651125E+05  2.067475E+04  2.075540E+05 -1.381703E+03 -7.010715E+03
       192   1  2.109526E+05  9.351131E+04 -4.571243E+03  1.556732E+05  1.990906E+03  7.070571E+03
       192   2  2.182737E+05  9.915096E+04 -5.260053E+03  1.606707E+05  1.358490E+03  5.963995E+03
       192   3  2.283379E+05  1.033548E+05 -4.956513E+03  1.647773E+05  8.696929E+02  4.665887E+03
       192   4  2.598143E+05  1.264577E+05  6.259459E+03  1.798820E+05  1.378925E+03  6.611543E+03
       192   5  2.580942E+05  1.265876E+05  3.287657E+03  1.807377E+05  3.667333E+02  5.220190E+03
       192   6  2.591995E+05  1.253641E+05  1.637688E+03  1.807026E+05 -5.018308E+02  3.637321E+03
       192   7  3.086778E+05  1.594047E+05  1.708968E+04  2.040925E+05  7.668922E+02  6.152480E+03
       192   8  2.979161E+05  1.540249E+05  1.183515E+04  2.008060E+05 -6.250966E+02  4.476332E+03
       192   9  2.900623E+05  1.473740E+05  8.231851E+03  1.966288E+05 -1.873444E+03  2.608686E+03
       192  10  2.109526E+05  9.351126E+04 -4.571344E+03  1.556732E+05  5.544554E-09  1.996029E-09
       192  11  2.182737E+05  9.915092E+04 -5.260123E+03  1.606707E+05 -2.332455E-09 -4.378317E-09
       192  12  2.283379E+05  1.033548E+05 -4.956556E+03  1.647773E+05 -4.029213E-09 -5.798399E-09
       192  13  2.598143E+05  1.264577E+05  6.259373E+03  1.798820E+05 -2.470572E-09 -1.160474E-09
       192  14  2.580942E+05  1.265876E+05  3.287606E+03  1.807377E+05 -6.516757E-09 -2.303626E-09
       192  15  2.591995E+05  1.253641E+05  1.637662E+03  1.807026E+05 -4.247550E-09  1.157317E-09
       192  16  3.086778E+05  1.594047E+05  1.708960E+04  2.040925E+05 -8.145434E-09 -4.158673E-09
       192  17  2.979160E+05  1.540249E+05  1.183511E+04  2.008060E+05 -7.607835E-10 -1.123858E-10
       192  18  2.900623E+05  1.473740E+05  8.231831E+03  1.966288E+05  1.311532E-08  8.143414E-09
       192  19  2.109526E+05  9.351131E+04 -4.571243E+03  1.556732E+05 -1.990906E+03 -7.070571E+03
       192  20  2.182737E+05  9.915096E+04 -5.260053E+03  1.606707E+05 -1.358490E+03 -5.963995E+03
       192  21  2.283379E+05  1.033548E+05 -4.956513E+03  1.647773E+05 -8.696929E+02 -4.665887E+03
       192  22  2.598143E+05  1.264577E+05  6.259459E+03  1.798820E+05 -1.378925E+03 -6.611543E+03
       192  23  2.580942E+05  1.265876E+05  3.287657E+03  1.807377E+05 -3.667333E+02 -5.220190E+03
       192  24  2.591995E+05  1.253641E+05  1.637688E+03  1.807026E+05  5.018308E+02 -3.637321E+03
       192  25  3.086778E+05  1.594047E+05  1.708968E+04  2.040925E+05 -7.668922E+02 -6.152480E+03
       192  26  2.979161E+05  1.540249E+05  1.183515E+04  2.008060E+05  6.250966E+02 -4.476332E+03
       192  27  2.900623E+05  1.473740E+05  8.231851E+03  1.966288E+05  1.873444E+03 -2.608686E+03
       193   1  2.335374E+05  1.071915E+05 -4.347232E+03  1.674911E+05  9.877441E+02  4.114585E+03
       193   2  2.408800E+05  1.141747E+05 -3.514014E+03  1.721622E+05  1.495421E+03  3.411148E+03
       193   3  2.504052E+05  1.189808E+05 -2.669752E+03  1.761977E+05  2.010584E+03  2.697707E+03
       193   4  2.591378E+05  1.253247E+05  1.053968E+03  1.806523E+05 -3.777588E+02  3.090545E+03
       193   5  2.580201E+05  1.263674E+05  8.208067E+01  1.810031E+05  1.100763E+02  2.372239E+03
       193   6  2.590890E+05  1.252373E+05 -8.616634E+02  1.807183E+05  6.053923E+02  1.643937E+03
       193   7  2.847395E+05  1.434586E+05  6.455339E+03  1.938144E+05 -1.743364E+03  2.066427E+03
       193   8  2.751606E+05  1.385604E+05  3.678175E+03  1.898444E+05 -1.275319E+03  1.333291E+03
       193   9  2.677726E+05  1.314938E+05  9.463700E+02  1.852390E+05 -7.997961E+02  5.901676E+02
       193  10  2.335374E+05  1.071915E+05 -4.347265E+03  1.674911E+05  1.328161E-08  8.139693E-09
       193  11  2.408800E+05  1.141747E+05 -3.514040E+03  1.721622E+05 -1.246338E-09 -3.586960E-10
       193  12  2.504052E+05  1.189808E+05 -2.669773E+03  1.761977E+05 -8.761389E-09 -4.395032E-09
       193  13  2.591378E+05  1.253247E+05  1.053950E+03  1.806523E+05 -4.141534E-09  1.274526E-09
       193  14  2.580201E+05  1.263674E+05  8.207007E+01  1.810031E+05 -6.520821E-09 -2.316177E-09
       193  15  2.590890E+05  1.252373E+05 -8.616692E+02  1.807183E+05 -2.131317E-09 -1.117293E-09
       193  16  2.847395E+05  1.434586E+05  6.455325E+03  1.938144E+05 -4.173853E-09 -5.842904E-09
       193  17  2.751606E+05  1.385604E+05  3.678168E+03  1.898444E+05 -1.863211E-09 -4.308184E-09
       193  18  2.677726E+05  1.314938E+05  9.463682E+02  1.852390E+05  6.104795E-09  2.108029E-09
       193  19  2.335374E+05  1.071915E+05 -4.347232E+03  1.674911E+05 -9.877441E+02 -4.114585E+03
       193  20  2.408800E+05  1.141747E+05 -3.514014E+03  1.721622E+05 -1.495421E+03 -3.411148E+03
       193  21  2.504052E+05  1.189808E+05 -2.669752E+03  1.761977E+05 -2.010584E+03 -2.697707E+03
       193  22  2.591378E+05  1.253247E+05  1.053968E+03  1.806523E+05  3.777588E+02 -3.090545E+03
       193  23  2.580201E+05  1.263674E+05  8.208067E+01  1.810031E+05 -1.100763E+02 -2.372239E+03
       193  24  2.590890E+05  1.252373E+05 -8.616634E+02  1.807183E+05 -6.053923E+02 -1.643937E+03
       193  25  2.847395E+05  1.434586E+05  6.455339E+03  1.938144E+05  1.743364E+03 -2.066427E+03
       193  26  2.751606E+05  1.385604E+05  3.678175E+03  1.898444E+05  1.275319E+03 -1.333291E+03
       193  27  2.677726E+05  1.314938E+05  9.463700E+02  1.852390E+05  7.997961E+02 -5.901676E+02
       194   1  2.557949E+05  1.226225E+05 -2.040248E+03  1.788572E+05  2.480113E+03  2.397423E+03
       194   2  2.627094E+05  1.299808E+05 -1.705697E+03  1.838688E+05  3.950880E+03  2.468383E+03
       194   3  2.712456E+05  1.344787E+05 -2.380546E+03  1.884817E+05  5.347240E+03  2.638609E+03
       194   4  2.590274E+05  1.252058E+05 -1.410116E+03  1.806728E+05  1.072408E+03  1.341776E+03
       194   5  2.579607E+05  1.261641E+05 -2.928327E+03  1.812423E+05  2.739873E+03  1.560230E+03
       194   6  2.584730E+05  1.242194E+05 -5.626625E+03  1.814131E+05  4.332927E+03  1.877944E+03
       194   7  2.622599E+05  1.277890E+05 -7.799715E+02  1.824885E+05 -3.353067E+02  2.861200E+02
       194   8  2.532121E+05  1.223474E+05 -4.150970E+03  1.786159E+05  1.528865E+03  6.520781E+02
       194   9  2.457004E+05  1.139600E+05 -8.872811E+03  1.743445E+05  3.318621E+03  1.117287E+03
       194  10  2.557949E+05  1.226225E+05 -2.040270E+03  1.788572E+05 -1.350541E-09  8.320514E-10
       194  11  2.627094E+05  1.299808E+05 -1.705738E+03  1.838688E+05 -3.225427E-10 -8.330431E-11
       194  12  2.712455E+05  1.344787E+05 -2.380613E+03  1.884817E+05 -1.125005E-10 -3.518452E-10
       194  13  2.590274E+05  1.252057E+05 -1.410121E+03  1.806728E+05  2.220442E-10  2.648406E-11
       194  14  2.579607E+05  1.261641E+05 -2.928346E+03  1.812423E+05  4.299193E-10 -1.086061E-10
       194  15  2.584730E+05  1.242194E+05 -5.626667E+03  1.814131E+05  1.870707E-10 -1.380840E-10
       194  16  2.622599E+05  1.277890E+05 -7.799719E+02  1.824885E+05  1.347088E-09 -8.745610E-10
       194  17  2.532121E+05  1.223474E+05 -4.150975E+03  1.786159E+05  6.225762E-10 -2.465870E-10
       194  18  2.457004E+05  1.139600E+05 -8.872834E+03  1.743445E+05  4.960821E-10  1.085437E-10
       194  19  2.557949E+05  1.226225E+05 -2.040248E+03  1.788572E+05 -2.480113E+03 -2.397423E+03
       194  20  2.627094E+05  1.299808E+05 -1.705697E+03  1.838688E+05 -3.950880E+03 -2.468383E+03
       194  21  2.712456E+05  1.344787E+05 -2.380546E+03  1.884817E+05 -5.347240E+03 -2.638609E+03
       194  22  2.590274E+05  1.252058E+05 -1.410116E+03  1.806728E+05 -1.072408E+03 -1.341776E+03
       194  23  2.579607E+05  1.261641E+05 -2.928327E+03  1.812423E+05 -2.739873E+03 -1.560230E+03
       194  24  2.584730E+05  1.242194E+05 -5.626625E+03  1.814131E+05 -4.332927E+03 -1.877944E+03
       194  25  2.622599E+05  1.277890E+05 -7.799715E+02  1.824885E+05  3.353067E+02 -2.861200E+02
       194  26  2.532121E+05  1.223474E+05 -4.150970E+03  1.786159E+05 -1.528865E+03 -6.520781E+02
       194  27  2.457004E+05  1.139600E+05 -8.872811E+03  1.743445E+05 -3.318621E+03 -1.117287E+03
       195   1  2.771984E+05  1.366783E+05 -2.967866E+03  1.905981E+05  6.405309E+03  2.905484E+03
       195   2  2.754715E+05  1.492547E+05 -6.611467E+03  2.012051E+05  1.035297E+04  5.764019E+03
       195   3  2.688792E+05  1.503029E+05 -1.657812E+04  2.154356E+05  1.360857E+04  9.545417E+03
       195   4  2.578341E+05  1.237820E+05 -7.537320E+03  1.811310E+05  5.360948E+03  2.122292E+03
       195   5  2.561067E+05  1.219926E+05 -1.395192E+04  1.851342E+05  1.113768E+04  6.352293E+03
       195   6  2.491166E+05  1.082778E+05 -2.827666E+04  1.927610E+05  1.622232E+04  1.150497E+04
       195   7  2.384705E+05  1.108861E+05 -1.210668E+04  1.716644E+05  4.316649E+03  1.339145E+03
       195   8  2.367427E+05  9.473214E+04 -2.129224E+04  1.690644E+05  1.192235E+04  6.940500E+03
       195   9  2.293552E+05  6.625645E+04 -3.997495E+04  1.700881E+05  1.883593E+04  1.346419E+04
       195  10  2.771983E+05  1.366783E+05 -2.967959E+03  1.905981E+05 -4.486248E-10 -3.554855E-10
       195  11  2.754714E+05  1.492547E+05 -6.611731E+03  2.012050E+05 -3.106133E-11 -1.092988E-10
       195  12  2.688790E+05  1.503027E+05 -1.657864E+04  2.154355E+05 -6.945392E-11 -1.913343E-11
       195  13  2.578340E+05  1.237820E+05 -7.537383E+03  1.811310E+05 -1.557211E-10 -1.440857E-10
       195  14  2.561065E+05  1.219925E+05 -1.395223E+04  1.851342E+05  2.499848E-10  1.086891E-10
       195  15  2.491163E+05  1.082776E+05 -2.827740E+04  1.927608E+05 -2.292102E-10  4.581765E-11
       195  16  2.384705E+05  1.108861E+05 -1.210671E+04  1.716644E+05  3.788448E-10  1.778238E-10
       195  17  2.367425E+05  9.473205E+04 -2.129260E+04  1.690644E+05  1.706425E-10  2.370749E-10
       195  18  2.293548E+05  6.625616E+04 -3.997596E+04  1.700879E+05 -1.303904E-10 -3.312964E-12
       195  19  2.771984E+05  1.366783E+05 -2.967866E+03  1.905981E+05 -6.405309E+03 -2.905484E+03
       195  20  2.754715E+05  1.492547E+05 -6.611467E+03  2.012051E+05 -1.035297E+04 -5.764019E+03
       195  21  2.688792E+05  1.503029E+05 -1.657812E+04  2.154356E+05 -1.360857E+04 -9.545417E+03
       195  22  2.578341E+05  1.237820E+05 -7.537320E+03  1.811310E+05 -5.360948E+03 -2.122292E+03
       195  23  2.561067E+05  1.219926E+05 -1.395192E+04  1.851342E+05 -1.113768E+04 -6.352293E+03
       195  24  2.491166E+05  1.082778E+05 -2.827666E+04  1.927610E+05 -1.622232E+04 -1.150497E+04
       195  25  2.384705E+05  1.108861E+05 -1.210668E+04  1.716644E+05 -4.316649E+03 -1.339145E+03
       195  26  2.367427E+05  9.473214E+04 -2.129224E+04  1.690644E+05 -1.192235E+04 -6.940500E+03
       195  27  2.293552E+05  6.625645E+04 -3.997495E+04  1.700881E+05 -1.883593E+04 -1.346419E+04
       196   1 -3.682902E+04  5.505672E+04 -3.293878E+04  7.505994E+04 -2.152091E+03  4.996219E+03
       196   2 -3.179212E+04  1.328215E+05 -2.118738E+04  7.475610E+04 -5.890636E+03  1.039016E+04
       196   3 -1.753658E+04  2.121958E+05 -1.064261E+04  8.971748E+04 -3.960082E+03  1.578445E+04
       196   4  2.176861E+04  2.916210E+05  2.349688E+04  8.906409E+04 -2.148981E+03  1.764169E+04
       196   5  5.991681E+03  2.898801E+05  1.069162E+04  8.143422E+04 -5.889968E+03  1.213351E+04
       196   6  1.323955E+03  2.916322E+05  4.247767E+03  8.906831E+04 -3.962645E+03  6.624907E+03
       196   7  8.036301E+04  5.282373E+05  7.992932E+04  1.030736E+05 -2.145302E+03  3.029195E+04
       196   8  4.377411E+04  4.469622E+05  4.256938E+04  8.811407E+04 -5.889264E+03  1.387729E+04
       196   9  2.018417E+04  3.710749E+05  1.913819E+04  8.841906E+04 -3.965188E+03 -2.535777E+03
       196  10 -3.682903E+04  5.505669E+04 -3.293883E+04  7.505995E+04  8.169490E-11 -1.906317E-10
       196  11 -3.179218E+04  1.328214E+05 -2.118765E+04  7.475614E+04 -7.570383E-11  3.416740E-10
       196  12 -1.753667E+04  2.121955E+05 -1.064311E+04  8.971753E+04 -1.239626E-10  3.420753E-10
       196  13  2.176852E+04  2.916207E+05  2.349629E+04  8.906412E+04  1.303201E-10 -5.979201E-12
       196  14  5.991605E+03  2.898799E+05  1.069128E+04  8.143428E+04  9.676284E-11 -1.442674E-10
       196  15  1.323926E+03  2.916321E+05  4.247655E+03  8.906833E+04 -3.640974E-11  1.824982E-10
       196  16  8.036276E+04  5.282364E+05  7.992759E+04  1.030737E+05 -6.322963E-11  1.640492E-10
       196  17  4.377402E+04  4.469620E+05  4.256895E+04  8.811413E+04 -2.544952E-11  9.512734E-11
       196  18  2.018415E+04  3.710749E+05  1.913815E+04  8.841905E+04 -1.083976E-11 -3.928440E-10
       196  19 -3.682902E+04  5.505672E+04 -3.293878E+04  7.505994E+04  2.152091E+03 -4.996219E+03
       196  20 -3.179212E+04  1.328215E+05 -2.118738E+04  7.475610E+04  5.890636E+03 -1.039016E+04
       196  21 -1.753658E+04  2.121958E+05 -1.064261E+04  8.971748E+04  3.960082E+03 -1.578445E+04
       196  22  2.176861E+04  2.916210E+05  2.349688E+04  8.906409E+04  2.148981E+03 -1.764169E+04
       196  23  5.991681E+03  2.898801E+05  1.069162E+04  8.143422E+04  5.889968E+03 -1.213351E+04
       196  24  1.323955E+03  2.916322E+05  4.247767E+03  8.906831E+04  3.962645E+03 -6.624907E+03
       196  25  8.036301E+04  5.282373E+05  7.992932E+04  1.030736E+05  2.145302E+03 -3.029195E+04
       196  26  4.377411E+04  4.469622E+05  4.256938E+04  8.811407E+04  5.889264E+03 -1.387729E+04
       196  27  2.018417E+04  3.710749E+05  1.913819E+04  8.841906E+04  3.965188E+03  2.535777E+03
       197   1 -5.809495E+03  2.616345E+05 -4.156405E+03  8.885246E+04 -9.744888E+02  1.515415E+04
       197   2  1.119759E+04  3.403180E+05  5.230663E+03  8.068113E+04  3.549664E+03  1.604431E+04
       197   3  2.752335E+04  4.187184E+05  1.386704E+04  8.811150E+04  7.843544E+03  1.693475E+04
       197   4  1.228596E+03  2.907754E+05  1.900984E+03  8.914304E+04 -9.770463E+02  6.231299E+03
       197   5 -2.499824E+02  2.909579E+05 -2.667324E+03  8.134258E+04  3.547388E+03  7.563523E+03
       197   6 -2.486588E+03  2.907739E+05 -8.293888E+03  8.914396E+04  7.841531E+03  8.895914E+03
       197   7  8.266675E+03  3.199172E+05  7.958625E+03  8.943362E+04 -9.796121E+02 -2.691960E+03
       197   8 -1.169764E+04  2.416003E+05 -1.056510E+04  8.200397E+04  3.545093E+03 -9.166138E+02
       197   9 -3.249736E+04  1.628456E+05 -3.045514E+04  9.017619E+04  7.839491E+03  8.586869E+02
       197  10 -5.809557E+03  2.616342E+05 -4.156839E+03  8.885248E+04  3.585195E-11 -1.449601E-11
       197  11  1.119751E+04  3.403178E+05  5.230156E+03  8.068108E+04  1.949372E-10  4.690019E-10
       197  12  2.752320E+04  4.187180E+05  1.386639E+04  8.811139E+04  4.288437E-11  3.271079E-10
       197  13  1.228585E+03  2.907753E+05  1.900909E+03  8.914304E+04 -1.659312E-10 -5.159887E-11
       197  14 -2.500112E+02  2.909578E+05 -2.667455E+03  8.134256E+04  7.098318E-11 -2.144700E-10
       197  15 -2.486675E+03  2.907738E+05 -8.294152E+03  8.914390E+04  2.473287E-11  1.562417E-10
       197  16  8.266673E+03  3.199172E+05  7.958610E+03  8.943362E+04 -1.090321E-11 -4.701179E-11
       197  17 -1.169765E+04  2.416003E+05 -1.056513E+04  8.200398E+04 -6.880787E-11 -4.033097E-11
       197  18 -3.249743E+04  1.628455E+05 -3.045526E+04  9.017619E+04 -1.213266E-10 -4.449563E-10
       197  19 -5.809495E+03  2.616345E+05 -4.156405E+03  8.885246E+04  9.744888E+02 -1.515415E+04
       197  20  1.119759E+04  3.403180E+05  5.230663E+03  8.068113E+04 -3.549664E+03 -1.604431E+04
       197  21  2.752335E+04  4.187184E+05  1.386704E+04  8.811150E+04 -7.843544E+03 -1.693475E+04
       197  22  1.228596E+03  2.907754E+05  1.900984E+03  8.914304E+04  9.770463E+02 -6.231299E+03
       197  23 -2.499824E+02  2.909579E+05 -2.667324E+03  8.134258E+04 -3.547388E+03 -7.563523E+03
       197  24 -2.486588E+03  2.907739E+05 -8.293888E+03  8.914396E+04 -7.841531E+03 -8.895914E+03
       197  25  8.266675E+03  3.199172E+05  7.958625E+03  8.943362E+04  9.796121E+02  2.691960E+03
       197  26 -1.169764E+04  2.416003E+05 -1.056510E+04  8.200397E+04 -3.545093E+03  9.166138E+02
       197  27 -3.249736E+04  1.628456E+05 -3.045514E+04  9.017619E+04 -7.839491E+03 -8.586869E+02
       198   1  3.920418E+04  4.676139E+05  1.938320E+04  9.022694E+04  1.065254E+04  1.874583E+04
       198   2  4.902789E+04  5.485331E+05  2.681154E+04  6.781798E+04  1.108022E+04  1.555010E+04
       198   3  3.881321E+04  6.248702E+05  3.131030E+04  6.050803E+04  3.642783E+03  1.235422E+04
       198   4 -2.702647E+03  2.892487E+05 -1.186099E+04  8.903218E+04  1.065062E+04  1.035148E+04
       198   5 -1.208209E+04  2.928531E+05 -2.321101E+04  8.148548E+04  1.108235E+04  2.228520E+04
       198   6 -4.413058E+04  2.892416E+05 -4.799441E+04  8.903955E+04  3.647333E+03  3.421873E+04
       198   7 -4.461117E+04  1.109148E+05 -4.310606E+04  8.783778E+04  1.064872E+04  1.959467E+03
       198   8 -7.319528E+04  3.723615E+04 -7.323643E+04  9.514722E+04  1.108478E+04  2.901760E+04
       198   9 -1.270791E+05 -4.628080E+04 -1.273047E+05  1.175556E+05  3.653893E+03  5.607149E+04
       198  10  3.920397E+04  4.676135E+05  1.938232E+04  9.022677E+04  1.394323E-10 -4.381740E-10
       198  11  4.902770E+04  5.485328E+05  2.681085E+04  6.781784E+04 -1.445843E-10  2.581715E-10
       198  12  3.881316E+04  6.248700E+05  3.130999E+04  6.050799E+04  1.311015E-11  3.908048E-10
       198  13 -2.702797E+03  2.892485E+05 -1.186141E+04  8.903209E+04  1.014823E-10  3.551935E-11
       198  14 -1.208235E+04  2.928525E+05 -2.321218E+04  8.148528E+04 -1.618872E-10 -4.764313E-11
       198  15 -4.413090E+04  2.892403E+05 -4.799664E+04  8.903945E+04 -4.029224E-11  7.749940E-11
       198  16 -4.461129E+04  1.109147E+05 -4.310628E+04  8.783776E+04 -1.396626E-10  3.354896E-10
       198  17 -7.319563E+04  3.723521E+04 -7.323824E+04  9.514696E+04 -1.999087E-10  4.993983E-11
       198  18 -1.270800E+05 -4.628418E+04 -1.273106E+05  1.175554E+05 -6.492011E-11 -4.958111E-10
       198  19  3.920418E+04  4.676139E+05  1.938320E+04  9.022694E+04 -1.065254E+04 -1.874583E+04
       198  20  4.902789E+04  5.485331E+05  2.681154E+04  6.781798E+04 -1.108022E+04 -1.555010E+04
       198  21  3.881321E+04  6.248702E+05  3.131030E+04  6.050803E+04 -3.642783E+03 -1.235422E+04
       198  22 -2.702647E+03  2.892487E+05 -1.186099E+04  8.903218E+04 -1.065062E+04 -1.035148E+04
       198  23 -1.208209E+04  2.928531E+05 -2.321101E+04  8.148548E+04 -1.108235E+04 -2.228520E+04
       198  24 -4.413058E+04  2.892416E+05 -4.799441E+04  8.903955E+04 -3.647333E+03 -3.421873E+04
       198  25 -4.461117E+04  1.109148E+05 -4.310606E+04  8.783778E+04 -1.064872E+04 -1.959467E+03
       198  26 -7.319528E+04  3.723615E+04 -7.323643E+04  9.514722E+04 -1.108478E+04 -2.901760E+04
       198  27 -1.270791E+05 -4.628080E+04 -1.273047E+05  1.175556E+05 -3.653893E+03 -5.607149E+04
       199   1  1.926304E+04  2.122363E+04  1.416288E+04  6.481223E+03 -1.415923E+04 -2.938692E+03
       199   2 -8.954541E+03  4.171805E+04  2.081697E+04  1.374757E+04 -1.208346E+04 -9.319524E+03
       199   3 -4.327018E+04  3.882900E+04  2.027528E+04  2.956878E+04 -1.000460E+04 -9.895448E+03
       199   4 -2.037549E+05 -3.405119E+04 -3.904261E+04  2.612534E+04 -2.653852E+04 -2.932795E+03
       199   5 -2.000285E+05 -4.445373E+03 -1.885786E+04  2.185604E+04 -1.671960E+04 -9.317687E+03
       199   6 -2.037478E+05  4.280456E+02 -1.124896E+04  2.614197E+04 -6.897253E+03 -9.896938E+03
       199   7 -4.267261E+05 -8.932808E+04 -9.225081E+04  4.576238E+04 -3.891337E+04 -2.927680E+03
       199   8 -3.910677E+05 -5.061086E+04 -5.853458E+04  2.996197E+04 -2.135434E+04 -9.315971E+03
       199   9 -3.642008E+05 -3.797441E+04 -4.277441E+04  2.271606E+04 -3.790691E+03 -9.898463E+03
       199  10  1.926282E+04  2.122357E+04  1.416248E+04  6.481189E+03 -1.343995E-10 -3.871236E-11
       199  11 -8.954721E+03  4.171792E+04  2.081653E+04  1.374748E+04 -3.552573E-10 -1.648571E-11
       199  12 -4.327032E+04  3.882887E+04  2.027491E+04  2.956870E+04  7.151497E-11  1.068048E-10
       199  13 -2.037557E+05 -3.405139E+04 -3.904395E+04  2.612528E+04  2.655053E-10 -5.313037E-11
       199  14 -2.000288E+05 -4.445541E+03 -1.885855E+04  2.185591E+04 -3.811935E-13 -1.131991E-10
       199  15 -2.037479E+05  4.279277E+02 -1.124924E+04  2.614192E+04 -6.595587E-11  3.951354E-12
       199  16 -4.267277E+05 -8.932850E+04 -9.225367E+04  4.576229E+04  5.620082E-11 -7.276910E-11
       199  17 -3.910682E+05 -5.061108E+04 -5.853560E+04  2.996181E+04  2.820089E-10 -2.444659E-10
       199  18 -3.642008E+05 -3.797452E+04 -4.277462E+04  2.271603E+04  1.994256E-10 -1.756044E-10
       199  19  1.926304E+04  2.122363E+04  1.416288E+04  6.481223E+03  1.415923E+04  2.938692E+03
       199  20 -8.954541E+03  4.171805E+04  2.081697E+04  1.374757E+04  1.208346E+04  9.319524E+03
       199  21 -4.327018E+04  3.882900E+04  2.027528E+04  2.956878E+04  1.000460E+04  9.895448E+03
       199  22 -2.037549E+05 -3.405119E+04 -3.904261E+04  2.612534E+04  2.653852E+04  2.932795E+03
       199  23 -2.000285E+05 -4.445373E+03 -1.885786E+04  2.185604E+04  1.671960E+04  9.317687E+03
       199  24 -2.037478E+05  4.280456E+02 -1.124896E+04  2.614197E+04  6.897253E+03  9.896938E+03
       199  25 -4.267261E+05 -8.932808E+04 -9.225081E+04  4.576238E+04  3.891337E+04  2.927680E+03
       199  26 -3.910677E+05 -5.061086E+04 -5.853458E+04  2.996197E+04  2.135434E+04  9.315971E+03
       199  27 -3.642008E+05 -3.797441E+04 -4.277441E+04  2.271606E+04  3.790691E+03  9.898463E+03
       200   1 -6.363613E+04  3.188621E+04  1.796950E+04  2.566765E+04 -7.249883E+03 -8.569091E+03
       200   2 -9.457306E+04  2.558121E+04  1.416969E+04  2.152706E+04 -4.433238E+03 -6.947738E+03
       200   3 -1.261367E+05  1.818536E+04  8.266149E+03  2.628677E+04 -1.616752E+03 -4.965171E+03
       200   4 -2.022504E+05 -1.283588E+03 -9.242704E+03  2.621522E+04 -5.325252E+03 -8.570043E+03
       200   5 -2.018935E+05 -4.607960E+01 -6.627860E+03  2.176526E+04 -2.027330E+03 -6.948775E+03
       200   6 -2.022481E+05  1.689970E+01 -6.451379E+03  2.621573E+04  1.270569E+03 -4.966263E+03
       200   7 -3.408463E+05 -3.445455E+04 -3.645583E+04  2.676267E+04 -3.401041E+03 -8.570991E+03
       200   8 -3.092029E+05 -2.567405E+04 -2.742593E+04  2.200343E+04  3.781707E+02 -6.949811E+03
       200   9 -2.783538E+05 -1.815190E+04 -2.116915E+04  2.614469E+04  4.157544E+03 -4.967357E+03
       200  10 -6.363620E+04  3.188612E+04  1.796927E+04  2.566760E+04  4.956251E-10  1.437368E-10
       200  11 -9.457310E+04  2.558115E+04  1.416956E+04  2.152703E+04 -4.852360E-10  5.089009E-11
       200  12 -1.261368E+05  1.818533E+04  8.266098E+03  2.628676E+04  2.779932E-10 -1.591949E-10
       200  13 -2.022505E+05 -1.283675E+03 -9.242896E+03  2.621519E+04  5.429929E-10  7.022251E-11
       200  14 -2.018936E+05 -4.613254E+01 -6.627959E+03  2.176525E+04  1.459548E-10  7.432666E-11
       200  15 -2.022481E+05  1.687278E+01 -6.451428E+03  2.621573E+04 -6.255277E-10 -7.590932E-11
       200  16 -3.408464E+05 -3.445463E+04 -3.645599E+04  2.676265E+04 -1.634793E-10 -7.319936E-11
       200  17 -3.092029E+05 -2.567411E+04 -2.742602E+04  2.200343E+04 -2.102765E-11  4.323902E-11
       200  18 -2.783539E+05 -1.815193E+04 -2.116922E+04  2.614471E+04 -5.584271E-11  5.083856E-11
       200  19 -6.363613E+04  3.188621E+04  1.796950E+04  2.566765E+04  7.249883E+03  8.569091E+03
       200  20 -9.457306E+04  2.558121E+04  1.416969E+04  2.152706E+04  4.433238E+03  6.947738E+03
       200  21 -1.261367E+05  1.818536E+04  8.266149E+03  2.628677E+04  1.616752E+03  4.965171E+03
       200  22 -2.022504E+05 -1.283588E+03 -9.242704E+03  2.621522E+04  5.325252E+03  8.570043E+03
       200  23 -2.018935E+05 -4.607960E+01 -6.627860E+03  2.176526E+04  2.027330E+03  6.948775E+03
       200  24 -2.022481E+05  1.689970E+01 -6.451379E+03  2.621573E+04 -1.270569E+03  4.966263E+03
       200  25 -3.408463E+05 -3.445455E+04 -3.645583E+04  2.676267E+04  3.401041E+03  8.570991E+03
       200  26 -3.092029E+05 -2.567405E+04 -2.742593E+04  2.200343E+04 -3.781707E+02  6.949811E+03
       200  27 -2.783538E+05 -1.815190E+04 -2.116915E+04  2.614469E+04 -4.157544E+03  4.967357E+03
       201   1 -1.479132E+05  1.306886E+04  3.313634E+03  2.572954E+04 -3.800810E+02 -3.694011E+03
       201   2 -1.785490E+05  5.370410E+03 -5.755675E+03  2.196240E+04  4.861532E+03 -1.633082E+03
       201   3 -2.104272E+05 -4.607879E+03 -1.880581E+04  2.710993E+04  1.010268E+04  2.880264E+02
       201   4 -2.023586E+05  9.625700E+01 -7.091342E+03  2.621902E+04  2.465103E+03 -3.695041E+03
       201   5 -2.017530E+05 -1.482107E+02 -1.014066E+04  2.176117E+04  7.519915E+03 -1.634021E+03
       201   6 -2.023587E+05 -2.640158E+03 -1.704116E+04  2.621805E+04  1.257452E+04  2.871670E+02
       201   7 -2.568010E+05 -1.287651E+04 -1.749642E+04  2.670845E+04  5.310044E+03 -3.696066E+03
       201   8 -2.249565E+05 -5.666859E+03 -1.452563E+04  2.155995E+04  1.017820E+04 -1.634961E+03
       201   9 -1.942902E+05 -6.724351E+02 -1.527648E+04  2.532617E+04  1.504639E+04  2.863004E+02
       201  10 -1.479132E+05  1.306884E+04  3.313608E+03  2.572954E+04  2.719240E-11 -1.815286E-10
       201  11 -1.785491E+05  5.370401E+03 -5.755724E+03  2.196240E+04  1.735349E-10 -2.079549E-10
       201  12 -2.104273E+05 -4.607907E+03 -1.880601E+04  2.710992E+04 -8.769702E-11 -8.223857E-11
       201  13 -2.023586E+05  9.624070E+01 -7.091379E+03  2.621903E+04  2.716021E-10 -6.631379E-11
       201  14 -2.017531E+05 -1.482288E+02 -1.014077E+04  2.176118E+04 -2.671654E-10 -1.620275E-10
       201  15 -2.023589E+05 -2.640201E+03 -1.704145E+04  2.621805E+04  3.483738E-10 -1.500361E-10
       201  16 -2.568011E+05 -1.287654E+04 -1.749650E+04  2.670847E+04 -8.158876E-11  5.648881E-11
       201  17 -2.249566E+05 -5.666889E+03 -1.452583E+04  2.155996E+04 -2.845729E-10 -1.570739E-10
       201  18 -1.942904E+05 -6.724960E+02 -1.527690E+04  2.532617E+04  8.579854E-11 -2.817452E-10
       201  19 -1.479132E+05  1.306886E+04  3.313634E+03  2.572954E+04  3.800810E+02  3.694011E+03
       201  20 -1.785490E+05  5.370410E+03 -5.755675E+03  2.196240E+04 -4.861532E+03  1.633082E+03
       201  21 -2.104272E+05 -4.607879E+03 -1.880581E+04  2.710993E+04 -1.010268E+04 -2.880264E+02
       201  22 -2.023586E+05  9.625700E+01 -7.091342E+03  2.621902E+04 -2.465103E+03  3.695041E+03
       201  23 -2.017530E+05 -1.482107E+02 -1.014066E+04  2.176117E+04 -7.519915E+03  1.634021E+03
       201  24 -2.023587E+05 -2.640158E+03 -1.704116E+04  2.621805E+04 -1.257452E+04 -2.871670E+02
       201  25 -2.568010E+05 -1.287651E+04 -1.749642E+04  2.670845E+04 -5.310044E+03  3.696066E+03
       201  26 -2.249565E+05 -5.666859E+03 -1.452563E+04  2.155995E+04 -1.017820E+04  1.634961E+03
       201  27 -1.942902E+05 -6.724351E+02 -1.527648E+04  2.532617E+04 -1.504639E+04 -2.863004E+02
       202   1 -2.353000E+05 -6.289025E+03 -2.775444E+04  1.895031E+04  1.250837E+04  1.580885E+03
       202   2 -2.586345E+05 -2.387128E+04 -5.102150E+04  3.822413E+04  3.574986E+04  2.534249E+03
       202   3 -2.978200E+05 -9.278285E+04 -1.022536E+05  6.625126E+04  5.898941E+04  9.282998E+02
       202   4 -2.054793E+05  8.860971E+02 -2.167579E+04  2.618803E+04  1.549856E+04  1.579995E+03
       202   5 -1.978547E+05 -9.100053E+03 -3.803111E+04  2.179744E+04  3.532544E+04  2.533439E+03
       202   6 -2.054872E+05 -6.982136E+04 -7.997773E+04  2.616144E+04  5.515160E+04  9.259101E+02
       202   7 -1.756576E+05  8.061365E+03 -1.559712E+04  3.342609E+04  1.848888E+04  1.579176E+03
       202   8 -1.370709E+05  5.671945E+03 -2.504078E+04  5.369119E+03  3.490099E+04  2.532650E+03
       202   9 -1.131431E+05 -4.685443E+04 -5.770152E+04 -1.393437E+04  5.131322E+04  9.240167E+02
       202  10 -2.353001E+05 -6.289070E+03 -2.775474E+04  1.895030E+04 -7.513887E-10 -4.848544E-12
       202  11 -2.586359E+05 -2.387163E+04 -5.102392E+04  3.822405E+04 -3.566860E-10  3.618683E-11
       202  12 -2.978237E+05 -9.278379E+04 -1.022602E+05  6.625122E+04  1.420593E-10  3.254601E-11
       202  13 -2.054795E+05  8.860300E+02 -2.167624E+04  2.618801E+04 -2.798566E-10 -5.094106E-11
       202  14 -1.978561E+05 -9.100395E+03 -3.803346E+04  2.179737E+04  1.474008E-10  2.198400E-10
       202  15 -2.054904E+05 -6.982217E+04 -7.998345E+04  2.616139E+04 -5.438111E-10  5.407339E-11
       202  16 -1.756579E+05  8.061271E+03 -1.559777E+04  3.342607E+04  6.889579E-10 -2.011002E-10
       202  17 -1.370722E+05  5.671611E+03 -2.504308E+04  5.369048E+03  2.343797E-11  2.210787E-10
       202  18 -1.131459E+05 -4.685514E+04 -5.770647E+04 -1.393441E+04 -1.165436E-10  1.533572E-10
       202  19 -2.353000E+05 -6.289025E+03 -2.775444E+04  1.895031E+04 -1.250837E+04 -1.580885E+03
       202  20 -2.586345E+05 -2.387128E+04 -5.102150E+04  3.822413E+04 -3.574986E+04 -2.534249E+03
       202  21 -2.978200E+05 -9.278285E+04 -1.022536E+05  6.625126E+04 -5.898941E+04 -9.282998E+02
       202  22 -2.054793E+05  8.860971E+02 -2.167579E+04  2.618803E+04 -1.549856E+04 -1.579995E+03
       202  23 -1.978547E+05 -9.100053E+03 -3.803111E+04  2.179744E+04 -3.532544E+04 -2.533439E+03
       202  24 -2.054872E+05 -6.982136E+04 -7.997773E+04  2.616144E+04 -5.515160E+04 -9.259101E+02
       202  25 -1.756576E+05  8.061365E+03 -1.559712E+04  3.342609E+04 -1.848888E+04 -1.579176E+03
       202  26 -1.370709E+05  5.671945E+03 -2.504078E+04  5.369119E+03 -3.490099E+04 -2.532650E+03
       202  27 -1.131431E+05 -4.685443E+04 -5.770152E+04 -1.393437E+04 -5.131322E+04 -9.240167E+02
       203   1 -1.974064E+05 -1.003443E+06 -2.220837E+05  6.406109E+04 -3.339615E+03 -7.674050E+04
       203   2 -7.419577E+04 -9.053370E+05 -1.391705E+05  4.735735E+03 -8.900253E+03 -4.676515E+04
       203   3 -6.815048E+04 -8.403436E+05 -1.050671E+05  3.536029E+04 -5.622637E+03 -1.679475E+04
       203   4 -8.576690E+04 -5.565680E+05 -1.109942E+05  4.484948E+04 -3.334475E+03 -7.337599E+04
       203   5  1.674063E+04 -5.402679E+05 -4.978830E+04 -1.600877E+02 -8.899124E+03 -4.638464E+04
       203   6  2.639559E+03 -5.565452E+05 -3.529349E+04  4.477939E+04 -5.626415E+03 -1.940233E+04
       203   7  2.585901E+04 -1.095112E+05  8.060301E+01  2.562398E+04 -3.329547E+03 -7.000904E+04
       203   8  1.076672E+05 -1.750771E+05  3.958419E+04 -5.058831E+03 -8.898002E+03 -4.600390E+04
       203   9  7.342393E+04 -2.726731E+05  3.447427E+04  5.420279E+04 -5.630271E+03 -2.201109E+04
       203  10 -1.974080E+05 -1.003449E+06 -2.220949E+05  6.406088E+04 -1.157827E-10 -2.391081E-10
       203  11 -7.419644E+04 -9.053393E+05 -1.391748E+05  4.735399E+03  2.097618E-10 -8.015376E-11
       203  12 -6.815059E+04 -8.403439E+05 -1.050677E+05  3.536022E+04  2.107393E-10  3.850303E-10
       203  13 -8.576836E+04 -5.565738E+05 -1.110044E+05  4.484929E+04 -8.099381E-10  6.429196E-11
       203  14  1.673996E+04 -5.402702E+05 -4.979249E+04 -1.604203E+02 -2.132439E-10 -1.851419E-12
       203  15  2.639423E+03 -5.565456E+05 -3.529426E+04  4.477931E+04  2.600099E-10  5.458879E-11
       203  16  2.585768E+04 -1.095164E+05  7.137006E+01  2.562380E+04 -3.783550E-10  2.812237E-10
       203  17  1.076666E+05 -1.750794E+05  3.958007E+04 -5.059160E+03 -1.285882E-09  3.548052E-11
       203  18  7.342377E+04 -2.726736E+05  3.447330E+04  5.420269E+04  6.211255E-10 -3.912008E-10
       203  19 -1.974064E+05 -1.003443E+06 -2.220837E+05  6.406109E+04  3.339615E+03  7.674050E+04
       203  20 -7.419577E+04 -9.053370E+05 -1.391705E+05  4.735735E+03  8.900253E+03  4.676515E+04
       203  21 -6.815048E+04 -8.403436E+05 -1.050671E+05  3.536029E+04  5.622637E+03  1.679475E+04
       203  22 -8.576690E+04 -5.565680E+05 -1.109942E+05  4.484948E+04  3.334475E+03  7.337599E+04
       203  23  1.674063E+04 -5.402679E+05 -4.978830E+04 -1.600877E+02  8.899124E+03  4.638464E+04
       203  24  2.639559E+03 -5.565452E+05 -3.529349E+04  4.477939E+04  5.626415E+03  1.940233E+04
       203  25  2.585901E+04 -1.095112E+05  8.060301E+01  2.562398E+04  3.329547E+03  7.000904E+04
       203  26  1.076672E+05 -1.750771E+05  3.958419E+04 -5.058831E+03  8.898002E+03  4.600390E+04
       203  27  7.342393E+04 -2.726731E+05  3.447427E+04  5.420279E+04  5.630271E+03  2.201109E+04
       204   1 -3.508254E+04 -6.495552E+05 -5.534831E+04  4.828708E+04 -2.428446E+03 -1.284029E+04
       204   2  2.512070E+01 -5.629146E+05 -2.664533E+04 -3.674997E+02 -3.566300E+02 -1.038875E+03
       204   3  7.500033E+03 -4.850480E+05 -1.260905E+04  4.188347E+04  1.773795E+03  1.076390E+04
       204   4 -1.060610E+04 -5.512393E+05 -3.128813E+04  4.502411E+04 -2.429397E+03 -1.352923E+04
       204   5  4.027559E+03 -5.468508E+05 -2.270551E+04 -4.299130E+02 -3.576869E+02 -1.746695E+03
       204   6 -8.967225E+03 -5.512387E+05 -2.877508E+04  4.502189E+04  1.772738E+03  1.003565E+04
       204   7  1.386968E+04 -4.529146E+05 -7.228649E+03  4.176061E+04 -2.430340E+03 -1.421827E+04
       204   8  8.029978E+03 -5.307868E+05 -1.876571E+04 -4.923279E+02 -3.587437E+02 -2.454533E+03
       204   9 -2.543477E+04 -6.174254E+05 -4.494143E+04  4.815998E+04  1.771673E+03  9.307477E+03
       204  10 -3.508259E+04 -6.495554E+05 -5.534863E+04  4.828705E+04  3.087132E-10 -2.830632E-10
       204  11  2.512027E+01 -5.629146E+05 -2.664533E+04 -3.675000E+02 -1.987242E-10  7.227845E-11
       204  12  7.499998E+03 -4.850482E+05 -1.260927E+04  4.188345E+04  5.376319E-11  3.390184E-10
       204  13 -1.060615E+04 -5.512395E+05 -3.128848E+04  4.502408E+04  1.929858E-10 -4.864669E-12
       204  14  4.027558E+03 -5.468508E+05 -2.270551E+04 -4.299135E+02 -1.195510E-10  9.606603E-11
       204  15 -8.967256E+03 -5.512388E+05 -2.877528E+04  4.502188E+04 -6.760730E-11  4.264424E-12
       204  16  1.386962E+04 -4.529148E+05 -7.229040E+03  4.176058E+04  4.439118E-10  2.328192E-10
       204  17  8.029976E+03 -5.307868E+05 -1.876572E+04 -4.923286E+02  8.735381E-10 -1.409176E-10
       204  18 -2.543480E+04 -6.174255E+05 -4.494160E+04  4.815997E+04 -4.154113E-10 -2.812050E-10
       204  19 -3.508254E+04 -6.495552E+05 -5.534831E+04  4.828708E+04  2.428446E+03  1.284029E+04
       204  20  2.512070E+01 -5.629146E+05 -2.664533E+04 -3.674997E+02  3.566300E+02  1.038875E+03
       204  21  7.500033E+03 -4.850480E+05 -1.260905E+04  4.188347E+04 -1.773795E+03 -1.076390E+04
       204  22 -1.060610E+04 -5.512393E+05 -3.128813E+04  4.502411E+04  2.429397E+03  1.352923E+04
       204  23  4.027559E+03 -5.468508E+05 -2.270551E+04 -4.299130E+02  3.576869E+02  1.746695E+03
       204  24 -8.967225E+03 -5.512387E+05 -2.877508E+04  4.502189E+04 -1.772738E+03 -1.003565E+04
       204  25  1.386968E+04 -4.529146E+05 -7.228649E+03  4.176061E+04  2.430340E+03  1.421827E+04
       204  26  8.029978E+03 -5.307868E+05 -1.876571E+04 -4.923279E+02  3.587437E+02  2.454533E+03
       204  27 -2.543477E+04 -6.174254E+05 -4.494143E+04  4.815998E+04 -1.771673E+03 -9.307477E+03
       205   1  6.472760E+04 -3.036947E+05  3.014295E+04  5.299679E+04  4.905277E+03  1.788825E+04
       205   2  9.745560E+04 -2.081406E+05  3.814757E+04 -4.369007E+03  8.146132E+03  3.858889E+04
       205   3  3.003109E+04 -1.402863E+05  7.640567E+03  2.836415E+04  3.082738E+03  5.930159E+04
       205   4  1.915979E+03 -5.555716E+05 -3.178206E+04  4.481546E+04  4.901508E+03  1.537997E+04
       205   5  1.445988E+04 -5.414756E+05 -4.342490E+04 -2.026380E+02  8.147032E+03  3.889216E+04
       205   6 -7.366675E+04 -5.555913E+05 -9.554898E+04  4.488242E+04  3.087173E+03  6.241358E+04
       205   7 -6.090011E+04 -8.073906E+05 -9.371168E+04  3.663743E+04  4.897805E+03  1.287271E+04
       205   8 -6.854400E+04 -8.747093E+05 -1.250055E+05  3.961460E+03  8.147936E+03  3.919527E+04
       205   9 -1.773765E+05 -9.707392E+05 -1.987513E+05  6.138959E+04  3.091777E+03  6.552347E+04
       205  10  6.472749E+04 -3.036951E+05  3.014230E+04  5.299672E+04  2.748231E-10 -1.104400E-10
       205  11  9.745512E+04 -2.081422E+05  3.814464E+04 -4.369260E+03 -9.487470E-10 -7.405362E-11
       205  12  3.003014E+04 -1.402900E+05  7.633939E+03  2.836400E+04 -2.218181E-10  1.318229E-10
       205  13  1.915890E+03 -5.555719E+05 -3.178255E+04  4.481540E+04 -9.294028E-10  6.548576E-11
       205  14  1.445940E+04 -5.414773E+05 -4.342787E+04 -2.028932E+02 -5.569193E-10  1.729979E-11
       205  15 -7.366781E+04 -5.555955E+05 -9.555633E+04  4.488226E+04 -9.187576E-11  1.392116E-11
       205  16 -6.090018E+04 -8.073908E+05 -9.371204E+04  3.663738E+04  2.108778E-10 -2.155471E-11
       205  17 -6.854449E+04 -8.747110E+05 -1.250085E+05  3.961202E+03 -5.382354E-10  1.912732E-10
       205  18 -1.773777E+05 -9.707438E+05 -1.987593E+05  6.138943E+04 -3.249485E-10 -5.672204E-11
       205  19  6.472760E+04 -3.036947E+05  3.014295E+04  5.299679E+04 -4.905277E+03 -1.788825E+04
       205  20  9.745560E+04 -2.081406E+05  3.814757E+04 -4.369007E+03 -8.146132E+03 -3.858889E+04
       205  21  3.003109E+04 -1.402863E+05  7.640567E+03  2.836415E+04 -3.082738E+03 -5.930159E+04
       205  22  1.915979E+03 -5.555716E+05 -3.178206E+04  4.481546E+04 -4.901508E+03 -1.537997E+04
       205  23  1.445988E+04 -5.414756E+05 -4.342490E+04 -2.026380E+02 -8.147032E+03 -3.889216E+04
       205  24 -7.366675E+04 -5.555913E+05 -9.554898E+04  4.488242E+04 -3.087173E+03 -6.241358E+04
       205  25 -6.090011E+04 -8.073906E+05 -9.371168E+04  3.663743E+04 -4.897805E+03 -1.287271E+04
       205  26 -6.854400E+04 -8.747093E+05 -1.250055E+05  3.961460E+03 -8.147936E+03 -3.919527E+04
       205  27 -1.773765E+05 -9.707392E+05 -1.987513E+05  6.138959E+04 -3.091777E+03 -6.552347E+04
       206   1  1.454966E+05  1.079643E+05  4.616566E+04  8.836965E+04  3.306466E+04  2.565806E+04
       206   2  1.586188E+05  7.625982E+04  2.043088E+04  1.166677E+05  2.185377E+04  1.856054E+04
       206   3  2.049403E+05  6.790945E+04  1.427271E+04  1.272814E+05  1.194429E+04  9.724910E+03
       206   4  2.290545E+05  1.179663E+05  6.434850E+04  1.069391E+05  3.507891E+04  2.716428E+04
       206   5  2.020165E+05  8.785438E+04  3.013296E+04  1.294272E+05  2.181329E+04  1.852954E+04
       206   6  2.086195E+05  8.153897E+04  1.727366E+04  1.342312E+05  9.849996E+03  8.156502E+03
       206   7  3.126204E+05  1.279690E+05  8.253121E+04  1.255092E+05  3.709352E+04  2.867046E+04
       206   8  2.454162E+05  9.944905E+04  3.983492E+04  1.421871E+05  2.177280E+04  1.849853E+04
       206   9  2.122988E+05  9.516883E+04  2.027466E+04  1.411811E+05  7.755690E+03  6.588014E+03
       206  10  1.454952E+05  1.079633E+05  4.616237E+04  8.836897E+04 -3.744223E-10 -7.609515E-11
       206  11  1.586182E+05  7.625932E+04  2.042933E+04  1.166674E+05  3.673194E-10  1.130721E-10
       206  12  2.049401E+05  6.790931E+04  1.427226E+04  1.272813E+05 -5.932584E-11  3.064402E-11
       206  13  2.290530E+05  1.179651E+05  6.434480E+04  1.069383E+05 -4.235507E-11  9.172913E-11
       206  14  2.020159E+05  8.785388E+04  3.013142E+04  1.294268E+05  2.671273E-10  2.178502E-10
       206  15  2.086194E+05  8.153887E+04  1.727336E+04  1.342311E+05 -5.461039E-10  2.544319E-10
       206  16  3.126187E+05  1.279678E+05  8.252708E+04  1.255084E+05  2.912075E-10  1.943203E-10
       206  17  2.454156E+05  9.944856E+04  3.983338E+04  1.421868E+05  5.774666E-10  2.450371E-10
       206  18  2.122987E+05  9.516877E+04  2.027446E+04  1.411811E+05 -1.795505E-10  3.807460E-10
       206  19  1.454966E+05  1.079643E+05  4.616566E+04  8.836965E+04 -3.306466E+04 -2.565806E+04
       206  20  1.586188E+05  7.625982E+04  2.043088E+04  1.166677E+05 -2.185377E+04 -1.856054E+04
       206  21  2.049403E+05  6.790945E+04  1.427271E+04  1.272814E+05 -1.194429E+04 -9.724910E+03
       206  22  2.290545E+05  1.179663E+05  6.434850E+04  1.069391E+05 -3.507891E+04 -2.716428E+04
       206  23  2.020165E+05  8.785438E+04  3.013296E+04  1.294272E+05 -2.181329E+04 -1.852954E+04
       206  24  2.086195E+05  8.153897E+04  1.727366E+04  1.342312E+05 -9.849996E+03 -8.156502E+03
       206  25  3.126204E+05  1.279690E+05  8.253121E+04  1.255092E+05 -3.709352E+04 -2.867046E+04
       206  26  2.454162E+05  9.944905E+04  3.983492E+04  1.421871E+05 -2.177280E+04 -1.849853E+04
       206  27  2.122988E+05  9.516883E+04  2.027466E+04  1.411811E+05 -7.755690E+03 -6.588014E+03
       207   1  2.135280E+05  8.787170E+04  1.516002E+04  1.342969E+05  1.038689E+04  6.999209E+03
       207   2  2.304580E+05  1.061291E+05  1.554766E+04  1.474233E+05  8.492523E+03  3.291132E+03
       207   3  2.581286E+05  1.165747E+05  1.885725E+04  1.573240E+05  6.668191E+03 -5.106548E+02
       207   4  2.082852E+05  8.298559E+04  1.359556E+04  1.311021E+05  8.710530E+03  5.743600E+03
       207   5  2.024827E+05  8.613000E+04  7.767956E+03  1.332769E+05  6.705575E+03  1.952649E+03
       207   6  2.074438E+05  8.148599E+04  4.957968E+03  1.322252E+05  4.770833E+03 -1.931874E+03
       207   7  2.030425E+05  7.809945E+04  1.203109E+04  1.279073E+05  7.034165E+03  4.487995E+03
       207   8  1.745082E+05  6.613136E+04 -1.180971E+01  1.191311E+05  4.918735E+03  6.142494E+02
       207   9  1.567626E+05  4.639910E+04 -8.941322E+03  1.071290E+05  2.873708E+03 -3.352922E+03
       207  10  2.135279E+05  8.787162E+04  1.515972E+04  1.342968E+05  1.494225E-10  4.408386E-10
       207  11  2.304579E+05  1.061291E+05  1.554751E+04  1.474233E+05 -3.079792E-09 -9.370364E-10
       207  12  2.581285E+05  1.165747E+05  1.885717E+04  1.573240E+05 -2.634261E-10 -3.569455E-10
       207  13  2.082852E+05  8.298553E+04  1.359536E+04  1.311021E+05 -6.865258E-10 -1.348023E-10
       207  14  2.024826E+05  8.612999E+04  7.767865E+03  1.332769E+05 -1.097903E-10 -1.047051E-10
       207  15  2.074438E+05  8.148598E+04  4.957919E+03  1.322252E+05  4.228617E-09  2.181104E-09
       207  16  2.030424E+05  7.809942E+04  1.203096E+04  1.279073E+05 -1.528017E-09 -7.720760E-10
       207  17  1.745082E+05  6.613135E+04 -1.185587E+01  1.191311E+05  1.879210E-09  7.477930E-10
       207  18  1.567626E+05  4.639908E+04 -8.941359E+03  1.071290E+05  8.112596E-09  4.709200E-09
       207  19  2.135280E+05  8.787170E+04  1.516002E+04  1.342969E+05 -1.038689E+04 -6.999209E+03
       207  20  2.304580E+05  1.061291E+05  1.554766E+04  1.474233E+05 -8.492523E+03 -3.291132E+03
       207  21  2.581286E+05  1.165747E+05  1.885725E+04  1.573240E+05 -6.668191E+03  5.106548E+02
       207  22  2.082852E+05  8.298559E+04  1.359556E+04  1.311021E+05 -8.710530E+03 -5.743600E+03
       207  23  2.024827E+05  8.613000E+04  7.767956E+03  1.332769E+05 -6.705575E+03 -1.952649E+03
       207  24  2.074438E+05  8.148599E+04  4.957968E+03  1.322252E+05 -4.770833E+03  1.931874E+03
       207  25  2.030425E+05  7.809945E+04  1.203109E+04  1.279073E+05 -7.034165E+03 -4.487995E+03
       207  26  1.745082E+05  6.613136E+04 -1.180971E+01  1.191311E+05 -4.918735E+03 -6.142494E+02
       207  27  1.567626E+05  4.639910E+04 -8.941322E+03  1.071290E+05 -2.873708E+03  3.352922E+03
       208   1  2.737716E+05  1.283052E+05  2.270463E+04  1.652954E+05  6.701420E+03 -1.945869E+03
       208   2  2.910555E+05  1.486198E+05  2.815364E+04  1.777991E+05  6.469815E+03 -4.593473E+03
       208   3  3.180102E+05  1.597288E+05  3.480303E+04  1.875901E+05  6.227964E+03 -7.227120E+03
       208   4  2.073996E+05  8.152629E+04  4.193792E+03  1.320720E+05  4.821654E+03 -3.353977E+03
       208   5  2.025639E+05  8.612755E+04  3.539775E+03  1.334306E+05  4.606659E+03 -5.989312E+03
       208   6  2.073949E+05  8.151925E+04  4.071893E+03  1.320760E+05  4.381478E+03 -8.610649E+03
       208   7  1.410324E+05  3.474987E+04 -1.431747E+04  9.885262E+04  2.942158E+03 -4.761883E+03
       208   8  1.140804E+05  2.363940E+04 -2.107504E+04  8.906904E+04  2.743850E+03 -7.384893E+03
       208   9  9.679177E+04  3.315736E+03 -2.666091E+04  7.657251E+04  2.535412E+03 -9.993862E+03
       208  10  2.737715E+05  1.283052E+05  2.270454E+04  1.652954E+05  7.903961E-09  4.745143E-09
       208  11  2.910554E+05  1.486197E+05  2.815352E+04  1.777991E+05  2.107714E-09  8.239820E-10
       208  12  3.180101E+05  1.597287E+05  3.480286E+04  1.875902E+05 -1.038138E-09 -8.008379E-10
       208  13  2.073995E+05  8.152627E+04  4.193727E+03  1.320720E+05  3.570101E-09  2.098893E-09
       208  14  2.025639E+05  8.612751E+04  3.539667E+03  1.334306E+05 -3.126962E-10  6.805718E-11
       208  15  2.073948E+05  8.151916E+04  4.071718E+03  1.320761E+05 -1.048796E-09 -2.052773E-10
       208  16  1.410324E+05  3.474984E+04 -1.431753E+04  9.885263E+04  4.227418E-10 -3.499539E-10
       208  17  1.140804E+05  2.363933E+04 -2.107515E+04  8.906905E+04 -2.227221E-09 -7.223244E-10
       208  18  9.679174E+04  3.315627E+03 -2.666111E+04  7.657253E+04  1.437530E-10  3.441526E-10
       208  19  2.737716E+05  1.283052E+05  2.270463E+04  1.652954E+05 -6.701420E+03  1.945869E+03
       208  20  2.910555E+05  1.486198E+05  2.815364E+04  1.777991E+05 -6.469815E+03  4.593473E+03
       208  21  3.180102E+05  1.597288E+05  3.480303E+04  1.875901E+05 -6.227964E+03  7.227120E+03
       208  22  2.073996E+05  8.152629E+04  4.193792E+03  1.320720E+05 -4.821654E+03  3.353977E+03
       208  23  2.025639E+05  8.612755E+04  3.539775E+03  1.334306E+05 -4.606659E+03  5.989312E+03
       208  24  2.073949E+05  8.151925E+04  4.071893E+03  1.320760E+05 -4.381478E+03  8.610649E+03
       208  25  1.410324E+05  3.474987E+04 -1.431747E+04  9.885262E+04 -2.942158E+03  4.761883E+03
       208  26  1.140804E+05  2.363940E+04 -2.107504E+04  8.906904E+04 -2.743850E+03  7.384893E+03
       208  27  9.679177E+04  3.315736E+03 -2.666091E+04  7.657251E+04 -2.535412E+03  9.993862E+03
       209   1  3.337811E+05  1.713839E+05  4.010766E+04  1.958699E+05  6.395998E+03 -8.578622E+03
       209   2  3.515253E+05  1.911923E+05  4.894817E+04  2.079089E+05  4.112866E+03 -1.256385E+04
       209   3  3.800622E+05  2.032128E+05  6.102369E+04  2.167541E+05  1.559407E+03 -1.618798E+04
       209   4  2.074346E+05  8.147844E+04  4.765636E+03  1.322191E+05  4.462808E+03 -1.002724E+04
       209   5  2.024782E+05  8.612153E+04  7.379156E+03  1.332878E+05  2.606977E+03 -1.369258E+04
       209   6  2.082221E+05  8.288451E+04  1.285808E+04  1.311625E+05  4.809195E+02 -1.699667E+04
       209   7  8.110755E+04 -8.416508E+03 -3.057738E+04  6.858399E+04  2.530173E+03 -1.147545E+04
       209   8  5.345684E+04 -1.893593E+04 -3.419169E+04  5.868766E+04  1.101585E+03 -1.482094E+04
       209   9  3.641485E+04 -3.742727E+04 -3.531042E+04  4.559781E+04 -5.971639E+02 -1.780506E+04
       209  10  3.337810E+05  1.713838E+05  4.010744E+04  1.958700E+05 -3.582576E-10  1.589221E-10
       209  11  3.515252E+05  1.911922E+05  4.894785E+04  2.079089E+05 -1.459324E-10  2.209402E-10
       209  12  3.800621E+05  2.032125E+05  6.102319E+04  2.167541E+05  2.421669E-10  2.248557E-10
       209  13  2.074346E+05  8.147832E+04  4.765410E+03  1.322192E+05 -1.082939E-10  1.056770E-10
       209  14  2.024782E+05  8.612133E+04  7.378791E+03  1.332879E+05  2.413187E-11  1.297484E-10
       209  15  2.082220E+05  8.288420E+04  1.285754E+04  1.311625E+05  2.443102E-11  3.063445E-10
       209  16  8.110751E+04 -8.416652E+03 -3.057764E+04  6.858401E+04  2.546124E-10  1.217176E-10
       209  17  5.345678E+04 -1.893617E+04 -3.419211E+04  5.868767E+04  1.631382E-10  1.755987E-10
       209  18  3.641476E+04 -3.742761E+04 -3.531102E+04  4.559780E+04 -7.477325E-11  1.128098E-10
       209  19  3.337811E+05  1.713839E+05  4.010766E+04  1.958699E+05 -6.395998E+03  8.578622E+03
       209  20  3.515253E+05  1.911923E+05  4.894817E+04  2.079089E+05 -4.112866E+03  1.256385E+04
       209  21  3.800622E+05  2.032128E+05  6.102369E+04  2.167541E+05 -1.559407E+03  1.618798E+04
       209  22  2.074346E+05  8.147844E+04  4.765636E+03  1.322191E+05 -4.462808E+03  1.002724E+04
       209  23  2.024782E+05  8.612153E+04  7.379156E+03  1.332878E+05 -2.606977E+03  1.369258E+04
       209  24  2.082221E+05  8.288451E+04  1.285808E+04  1.311625E+05 -4.809195E+02  1.699667E+04
       209  25  8.110755E+04 -8.416508E+03 -3.057738E+04  6.858399E+04 -2.530173E+03  1.147545E+04
       209  26  5.345684E+04 -1.893593E+04 -3.419169E+04  5.868766E+04 -1.101585E+03  1.482094E+04
       209  27  3.641485E+04 -3.742727E+04 -3.531042E+04  4.559781E+04  5.971639E+02  1.780506E+04
       210   1  3.898115E+05  2.201627E+05  6.893301E+04  2.298768E+05  2.278819E+03 -1.751704E+04
       210   2  4.219896E+05  2.252176E+05  8.953712E+04  2.311506E+05 -1.833603E+04 -3.130905E+04
       210   3  4.878909E+05  2.542009E+05  1.371431E+05  2.156725E+05 -4.395717E+04 -3.842647E+04
       210   4  2.084706E+05  8.158502E+04  1.632295E+04  1.341376E+05 -4.072137E+02 -1.953049E+04
       210   5  2.021112E+05  8.765352E+04  2.844612E+04  1.296311E+05 -1.313245E+04 -2.741015E+04
       210   6  2.277703E+05  1.159485E+05  6.073414E+04  1.083706E+05 -3.086280E+04 -2.861386E+04
       210   7  2.716422E+04 -5.697130E+04 -3.629121E+04  3.843045E+04 -3.092219E+03 -2.154308E+04
       210   8 -1.771477E+04 -4.989102E+04 -3.264969E+04  2.814974E+04 -7.931356E+03 -2.351282E+04
       210   9 -3.227585E+04 -2.228584E+04 -1.568044E+04  1.112708E+03 -1.777605E+04 -1.880510E+04
       210  10  3.898115E+05  2.201623E+05  6.893243E+04  2.298768E+05  3.389192E-10  1.684880E-10
       210  11  4.219890E+05  2.252164E+05  8.953465E+04  2.311501E+05 -7.686528E-11  1.125295E-11
       210  12  4.878884E+05  2.541988E+05  1.371367E+05  2.156712E+05  6.669215E-11  9.418791E-11
       210  13  2.084705E+05  8.158461E+04  1.632223E+04  1.341376E+05  1.093885E-10  2.562718E-10
       210  14  2.021108E+05  8.765267E+04  2.844438E+04  1.296308E+05 -3.519781E-10  1.556005E-10
       210  15  2.277691E+05  1.159474E+05  6.073081E+04  1.083699E+05  1.030468E-11  9.478506E-11
       210  16  2.716408E+04 -5.697180E+04 -3.629210E+04  3.843039E+04 -5.767697E-11  1.641630E-10
       210  17 -1.771498E+04 -4.989163E+04 -3.265084E+04  2.814959E+04  1.767252E-11  1.859235E-10
       210  18 -3.227628E+04 -2.228631E+04 -1.568170E+04  1.112438E+03 -1.166492E-10  5.513152E-11
       210  19  3.898115E+05  2.201627E+05  6.893301E+04  2.298768E+05 -2.278819E+03  1.751704E+04
       210  20  4.219896E+05  2.252176E+05  8.953712E+04  2.311506E+05  1.833603E+04  3.130905E+04
       210  21  4.878909E+05  2.542009E+05  1.371431E+05  2.156725E+05  4.395717E+04  3.842647E+04
       210  22  2.084706E+05  8.158502E+04  1.632295E+04  1.341376E+05  4.072137E+02  1.953049E+04
       210  23  2.021112E+05  8.765352E+04  2.844612E+04  1.296311E+05  1.313245E+04  2.741015E+04
       210  24  2.277703E+05  1.159485E+05  6.073414E+04  1.083706E+05  3.086280E+04  2.861386E+04
       210  25  2.716422E+04 -5.697130E+04 -3.629121E+04  3.843045E+04  3.092219E+03  2.154308E+04
       210  26 -1.771477E+04 -4.989102E+04 -3.264969E+04  2.814974E+04  7.931356E+03  2.351282E+04
       210  27 -3.227585E+04 -2.228584E+04 -1.568044E+04  1.112708E+03  1.777605E+04  1.880510E+04
       211   1  7.914617E+05  1.437586E+05  1.417266E+05  9.062681E+04  4.998862E+04 -6.096049E+03
       211   2  7.088155E+05  1.010025E+05  9.357557E+04  7.309543E+04  2.392262E+04 -1.925533E+04
       211   3  6.342996E+05  7.706034E+04  6.708654E+04  7.360297E+04 -2.134586E+03 -2.042857E+04
       211   4  3.106064E+05  2.489438E+04  2.789605E+04  7.541847E+04  1.944896E+04 -6.089296E+03
       211   5  3.082108E+05  4.905028E+03  1.343853E+04  6.639669E+04  1.249073E+04 -1.925428E+04
       211   6  3.106303E+05  4.217618E+02  7.388926E+03  7.541322E+04  5.537568E+03 -2.043039E+04
       211   7 -1.700341E+05 -9.398499E+04 -8.594693E+04  6.022196E+04 -1.106719E+04 -6.081048E+03
       211   8 -9.224053E+04 -9.120206E+04 -6.670610E+04  5.970236E+04  1.066064E+03 -1.925297E+04
       211   9 -1.293739E+04 -7.622275E+04 -5.231281E+04  7.722250E+04  1.320583E+04 -2.043216E+04
       211  10  7.914590E+05  1.437578E+05  1.417218E+05  9.062705E+04 -1.396274E-10 -8.641693E-11
       211  11  7.088148E+05  1.010020E+05  9.357380E+04  7.309580E+04 -4.401120E-10 -2.048144E-10
       211  12  6.342995E+05  7.705989E+04  6.708575E+04  7.360294E+04 -2.033351E-10 -4.424577E-11
       211  13  3.106060E+05  2.489424E+04  2.789527E+04  7.541856E+04 -2.541079E-11  8.711231E-11
       211  14  3.082105E+05  4.904588E+03  1.343754E+04  6.639688E+04  5.729050E-10 -4.585403E-11
       211  15  3.106301E+05  4.213053E+02  7.388084E+03  7.541331E+04  2.076510E-10 -3.138491E-12
       211  16 -1.700343E+05 -9.398507E+04 -8.594723E+04  6.022190E+04 -1.757863E-11  3.574154E-11
       211  17 -9.224063E+04 -9.120246E+04 -6.670680E+04  5.970237E+04  5.319360E-10  9.169798E-11
       211  18 -1.293769E+04 -7.622324E+04 -5.231393E+04  7.722271E+04  1.983585E-11 -3.229850E-10
       211  19  7.914617E+05  1.437586E+05  1.417266E+05  9.062681E+04 -4.998862E+04  6.096049E+03
       211  20  7.088155E+05  1.010025E+05  9.357557E+04  7.309543E+04 -2.392262E+04  1.925533E+04
       211  21  6.342996E+05  7.706034E+04  6.708654E+04  7.360297E+04  2.134586E+03  2.042857E+04
       211  22  3.106064E+05  2.489438E+04  2.789605E+04  7.541847E+04 -1.944896E+04  6.089296E+03
       211  23  3.082108E+05  4.905028E+03  1.343853E+04  6.639669E+04 -1.249073E+04  1.925428E+04
       211  24  3.106303E+05  4.217618E+02  7.388926E+03  7.541322E+04 -5.537568E+03  2.043039E+04
       211  25 -1.700341E+05 -9.398499E+04 -8.594693E+04  6.022196E+04  1.106719E+04  6.081048E+03
       211  26 -9.224053E+04 -9.120206E+04 -6.670610E+04  5.970236E+04 -1.066064E+03  1.925297E+04
       211  27 -1.293739E+04 -7.622275E+04 -5.231281E+04  7.722250E+04 -1.320583E+04  2.043216E+04
       212   1  5.809882E+05  6.519282E+04  5.531802E+04  7.593170E+04 -1.453416E+03 -1.745793E+04
       212   2  5.022294E+05  4.554425E+04  3.748590E+04  6.626337E+04 -4.443358E+03 -1.320490E+04
       212   3  4.241320E+05  2.690175E+04  2.185391E+04  7.536731E+04 -7.433427E+03 -8.015719E+03
       212   4  3.096539E+05  1.013499E+03  5.615573E+03  7.557750E+04  4.575360E+03 -1.745909E+04
       212   5  3.094612E+05  1.122954E+02  3.004090E+03  6.619118E+04  3.077135E+03 -1.320567E+04
       212   6  3.096642E+05 -4.143647E+01  1.557599E+03  7.557746E+04  1.578399E+03 -8.015939E+03
       212   7  3.839106E+04 -6.316997E+04 -4.408974E+04  7.522345E+04  1.060157E+04 -1.746026E+04
       212   8  1.167293E+05 -4.532169E+04 -3.147893E+04  6.611901E+04  1.059536E+04 -1.320644E+04
       212   9  1.952093E+05 -2.698530E+04 -1.873889E+04  7.578757E+04  1.058861E+04 -8.016153E+03
       212  10  5.809881E+05  6.519249E+04  5.531744E+04  7.593168E+04  1.690332E-10 -1.311464E-10
       212  11  5.022293E+05  4.554406E+04  3.748554E+04  6.626332E+04 -2.357745E-10 -3.263295E-10
       212  12  4.241319E+05  2.690167E+04  2.185368E+04  7.536726E+04 -8.302029E-11 -3.626571E-10
       212  13  3.096538E+05  1.013166E+03  5.614961E+03  7.557756E+04  2.364503E-11 -3.554922E-11
       212  14  3.094611E+05  1.121055E+02  3.003744E+03  6.619121E+04 -1.895134E-11 -2.352377E-10
       212  15  3.096642E+05 -4.150615E+01  1.557474E+03  7.557747E+04 -1.343953E-10 -1.730172E-10
       212  16  3.839086E+04 -6.317033E+04 -4.409052E+04  7.522360E+04 -4.348743E-10 -3.358577E-10
       212  17  1.167291E+05 -4.532191E+04 -3.147947E+04  6.611912E+04  5.666026E-10  2.698102E-12
       212  18  1.952092E+05 -2.698540E+04 -1.873922E+04  7.578764E+04  3.352206E-10  8.138524E-11
       212  19  5.809882E+05  6.519282E+04  5.531802E+04  7.593170E+04  1.453416E+03  1.745793E+04
       212  20  5.022294E+05  4.554425E+04  3.748590E+04  6.626337E+04  4.443358E+03  1.320490E+04
       212  21  4.241320E+05  2.690175E+04  2.185391E+04  7.536731E+04  7.433427E+03  8.015719E+03
       212  22  3.096539E+05  1.013499E+03  5.615573E+03  7.557750E+04 -4.575360E+03  1.745909E+04
       212  23  3.094612E+05  1.122954E+02  3.004090E+03  6.619118E+04 -3.077135E+03  1.320567E+04
       212  24  3.096642E+05 -4.143647E+01  1.557599E+03  7.557746E+04 -1.578399E+03  8.015939E+03
       212  25  3.839106E+04 -6.316997E+04 -4.408974E+04  7.522345E+04 -1.060157E+04  1.746026E+04
       212  26  1.167293E+05 -4.532169E+04 -3.147893E+04  6.611901E+04 -1.059536E+04  1.320644E+04
       212  27  1.952093E+05 -2.698530E+04 -1.873889E+04  7.578757E+04 -1.058861E+04  8.016153E+03
       213   1  3.722293E+05  1.469035E+04  1.187050E+04  7.547430E+04 -7.613869E+03 -4.668517E+03
       213   2  2.939053E+05 -3.828700E+03 -2.979236E+03  6.614811E+04 -6.832895E+03  6.782966E+02
       213   3  2.154292E+05 -2.259858E+04 -1.839877E+04  7.561363E+04 -6.052057E+03  5.463676E+03
       213   4  3.095777E+05  1.366122E+00  1.052703E+03  7.558174E+04  1.349466E+03 -4.668559E+03
       213   5  3.095781E+05 -5.241788E+01  2.345689E+02  6.618590E+04  1.235845E+03  6.782113E+02
       213   6  3.095770E+05 -2.011809E+02 -5.320432E+02  7.558175E+04  1.122169E+03  5.463565E+03
       213   7  2.469301E+05 -1.468779E+04 -9.764923E+03  7.568916E+04  1.031193E+04 -4.668597E+03
       213   8  3.252514E+05  3.723884E+03  3.448605E+03  6.622369E+04  9.304785E+03  6.781271E+02
       213   9  4.037335E+05  2.219573E+04  1.733448E+04  7.554986E+04  8.297455E+03  5.463454E+03
       213  10  3.722293E+05  1.469031E+04  1.187035E+04  7.547427E+04 -1.339766E-10 -1.856091E-11
       213  11  2.939052E+05 -3.828713E+03 -2.979324E+03  6.614811E+04 -3.522575E-10  1.681572E-10
       213  12  2.154292E+05 -2.259862E+04 -1.839890E+04  7.561366E+04 -3.892768E-10  3.367326E-10
       213  13  3.095777E+05  1.342224E+00  1.052659E+03  7.558174E+04 -3.056562E-10  5.592428E-11
       213  14  3.095781E+05 -5.241879E+01  2.345652E+02  6.618590E+04  2.483863E-10  1.489844E-10
       213  15  3.095770E+05 -2.012133E+02 -5.321017E+02  7.558174E+04 -3.832460E-10  2.558794E-10
       213  16  2.469300E+05 -1.468784E+04 -9.765164E+03  7.568920E+04  2.854210E-10  1.300638E-10
       213  17  3.252513E+05  3.723860E+03  3.448442E+03  6.622369E+04  5.672676E-10  1.934925E-10
       213  18  4.037334E+05  2.219568E+04  1.733430E+04  7.554982E+04 -1.849757E-10 -2.327167E-10
       213  19  3.722293E+05  1.469035E+04  1.187050E+04  7.547430E+04  7.613869E+03  4.668517E+03
       213  20  2.939053E+05 -3.828700E+03 -2.979236E+03  6.614811E+04  6.832895E+03 -6.782966E+02
       213  21  2.154292E+05 -2.259858E+04 -1.839877E+04  7.561363E+04  6.052057E+03 -5.463676E+03
       213  22  3.095777E+05  1.366122E+00  1.052703E+03  7.558174E+04 -1.349466E+03  4.668559E+03
       213  23  3.095781E+05 -5.241788E+01  2.345689E+02  6.618590E+04 -1.235845E+03 -6.782113E+02
       213  24  3.095770E+05 -2.011809E+02 -5.320432E+02  7.558175E+04 -1.122169E+03 -5.463565E+03
       213  25  2.469301E+05 -1.468779E+04 -9.764923E+03  7.568916E+04 -1.031193E+04  4.668597E+03
       213  26  3.252514E+05  3.723884E+03  3.448605E+03  6.622369E+04 -9.304785E+03 -6.781271E+02
       213  27  4.037335E+05  2.219573E+04  1.733448E+04  7.554986E+04 -8.297455E+03 -5.463454E+03
       214   1  1.631548E+05 -3.487578E+04 -2.859377E+04  7.515805E+04 -7.015691E+03  8.585207E+03
       214   2  8.614612E+04 -5.471741E+04 -4.779435E+04  6.745202E+04  6.484134E+03  9.862839E+03
       214   3  6.213063E+03 -7.931183E+04 -7.696798E+04  7.805675E+04  1.998035E+04  3.353959E+03
       214   4  3.094021E+05 -1.032903E+02 -9.403276E+02  7.547493E+04  1.218997E+03  8.584874E+03
       214   5  3.097856E+05 -8.639294E+02 -2.119989E+03  6.631945E+04  2.321115E+03  9.862838E+03
       214   6  3.093914E+05 -4.224202E+03 -4.664368E+03  7.547452E+04  3.421394E+03  3.355510E+03
       214   7  4.556702E+05  3.466799E+04  2.671242E+04  7.579189E+04  9.455577E+03  8.584549E+03
       214   8  5.334726E+05  5.298643E+04  4.355180E+04  6.518646E+04 -1.843375E+03  9.862854E+03
       214   9  6.126547E+05  7.085696E+04  6.763382E+04  7.289101E+04 -1.314561E+04  3.357200E+03
       214  10  1.631547E+05 -3.487588E+04 -2.859400E+04  7.515809E+04  9.450823E-10  3.187671E-10
       214  11  8.614605E+04 -5.471752E+04 -4.779461E+04  6.745197E+04  2.774553E-10 -5.615219E-11
       214  12  6.212631E+03 -7.931195E+04 -7.696875E+04  7.805670E+04 -8.680967E-10 -1.308572E-10
       214  13  3.094021E+05 -1.033699E+02 -9.404689E+02  7.547492E+04 -1.349175E-14 -6.684152E-11
       214  14  3.097856E+05 -8.640353E+02 -2.120182E+03  6.631943E+04 -3.300008E-10 -2.443314E-10
       214  15  3.093914E+05 -4.224217E+03 -4.664411E+03  7.547451E+04  4.867207E-10 -1.017030E-10
       214  16  4.556701E+05  3.466789E+04  2.671211E+04  7.579183E+04 -4.985645E-10 -2.815584E-10
       214  17  5.334726E+05  5.298633E+04  4.355161E+04  6.518647E+04  4.674855E-10 -4.733283E-10
       214  18  6.126545E+05  7.085690E+04  6.763347E+04  7.289105E+04  7.170755E-10 -4.479988E-11
       214  19  1.631548E+05 -3.487578E+04 -2.859377E+04  7.515805E+04  7.015691E+03 -8.585207E+03
       214  20  8.614612E+04 -5.471741E+04 -4.779435E+04  6.745202E+04 -6.484134E+03 -9.862839E+03
       214  21  6.213063E+03 -7.931183E+04 -7.696798E+04  7.805675E+04 -1.998035E+04 -3.353959E+03
       214  22  3.094021E+05 -1.032903E+02 -9.403276E+02  7.547493E+04 -1.218997E+03 -8.584874E+03
       214  23  3.097856E+05 -8.639294E+02 -2.119989E+03  6.631945E+04 -2.321115E+03 -9.862838E+03
       214  24  3.093914E+05 -4.224202E+03 -4.664368E+03  7.547452E+04 -3.421394E+03 -3.355510E+03
       214  25  4.556702E+05  3.466799E+04  2.671242E+04  7.579189E+04 -9.455577E+03 -8.584549E+03
       214  26  5.334726E+05  5.298643E+04  4.355180E+04  6.518646E+04  1.843375E+03 -9.862854E+03
       214  27  6.126547E+05  7.085696E+04  6.763382E+04  7.289101E+04  1.314561E+04 -3.357200E+03
       215   1 -7.304592E+04 -2.134792E+05 -8.573415E+04  1.625264E+04 -5.802654E+02 -3.683399E+04
       215   2 -1.858607E+04 -1.915050E+05 -5.151154E+04 -2.754314E+03 -1.479445E+03 -2.374904E+04
       215   3 -2.358459E+04 -1.860260E+05 -4.065920E+04  9.029467E+03 -7.820812E+02 -1.066478E+04
       215   4 -4.143764E+04 -8.699690E+04 -5.416975E+04  1.149280E+04 -5.798310E+02 -3.655386E+04
       215   5  9.566853E+03 -7.877464E+04 -2.348401E+04 -3.913426E+03 -1.479371E+03 -2.373355E+04
       215   6  1.164740E+03 -8.699871E+04 -1.598136E+04  1.147090E+04 -7.823422E+02 -1.091422E+04
       215   7 -9.830472E+03  3.949995E+04 -2.260654E+04  6.731988E+03 -5.794009E+02 -3.627368E+04
       215   8  3.771883E+04  3.396726E+04  4.542569E+03 -5.072752E+03 -1.479297E+03 -2.371805E+04
       215   9  2.591336E+04  1.203751E+04  8.695738E+03  1.391273E+04 -7.826052E+02 -1.116370E+04
       215  10 -7.304629E+04 -2.134806E+05 -8.573670E+04  1.625262E+04 -2.297702E-10 -2.176598E-11
       215  11 -1.858622E+04 -1.915056E+05 -5.151260E+04 -2.754342E+03 -1.350309E-11  5.897612E-11
       215  12 -2.358462E+04 -1.860261E+05 -4.065941E+04  9.029460E+03  1.365510E-10  1.355604E-10
       215  13 -4.143800E+04 -8.699833E+04 -5.417226E+04  1.149278E+04 -3.600885E-11  1.079490E-10
       215  14  9.566700E+03 -7.877524E+04 -2.348507E+04 -3.913455E+03 -1.204799E-10  1.223455E-10
       215  15  1.164707E+03 -8.699884E+04 -1.598159E+04  1.147090E+04  8.669869E-12  5.989768E-11
       215  16 -9.830826E+03  3.949854E+04 -2.260902E+04  6.731971E+03  7.260313E-12  6.920669E-11
       215  17  3.771867E+04  3.396666E+04  4.541508E+03 -5.072780E+03 -6.556192E-10 -1.334046E-10
       215  18  2.591332E+04  1.203738E+04  8.695503E+03  1.391272E+04  3.636038E-10 -2.863463E-10
       215  19 -7.304592E+04 -2.134792E+05 -8.573415E+04  1.625264E+04  5.802654E+02  3.683399E+04
       215  20 -1.858607E+04 -1.915050E+05 -5.151154E+04 -2.754314E+03  1.479445E+03  2.374904E+04
       215  21 -2.358459E+04 -1.860260E+05 -4.065920E+04  9.029467E+03  7.820812E+02  1.066478E+04
       215  22 -4.143764E+04 -8.699690E+04 -5.416975E+04  1.149280E+04  5.798310E+02  3.655386E+04
       215  23  9.566853E+03 -7.877464E+04 -2.348401E+04 -3.913426E+03  1.479371E+03  2.373355E+04
       215  24  1.164740E+03 -8.699871E+04 -1.598136E+04  1.147090E+04  7.823422E+02  1.091422E+04
       215  25 -9.830472E+03  3.949995E+04 -2.260654E+04  6.731988E+03  5.794009E+02  3.627368E+04
       215  26  3.771883E+04  3.396726E+04  4.542569E+03 -5.072752E+03  1.479297E+03  2.371805E+04
       215  27  2.591336E+04  1.203751E+04  8.695738E+03  1.391273E+04  7.826052E+02  1.116370E+04
       216   1 -5.042153E+03 -7.980125E+04 -1.251315E+04  1.231191E+04 -1.656307E+02 -8.179003E+03
       216   2  6.395891E+03 -6.427306E+04 -3.281012E+03 -3.825878E+03  1.999995E+02 -4.103896E+03
       216   3  6.207269E+03 -5.224969E+04  3.773614E+02  1.094904E+04  5.146750E+02 -2.861691E+01
       216   4 -6.127362E+03 -8.412025E+04 -1.361055E+04  1.150994E+04 -1.656826E+02 -8.243663E+03
       216   5  1.876304E+03 -8.236664E+04 -7.782650E+03 -3.948589E+03  1.999490E+02 -4.160067E+03
       216   6 -1.748309E+03 -8.411954E+04 -7.534417E+03  1.150566E+04  5.146337E+02 -7.638787E+01
       216   7 -7.212569E+03 -8.843924E+04 -1.470796E+04  1.070798E+04 -1.657343E+02 -8.308323E+03
       216   8 -2.643307E+03 -1.004599E+05 -1.228431E+04 -4.071297E+03  1.998986E+02 -4.216236E+03
       216   9 -9.703963E+03 -1.159885E+05 -1.544627E+04  1.206226E+04  5.145924E+02 -1.241564E+02
       216  10 -5.042171E+03 -7.980132E+04 -1.251327E+04  1.231191E+04  3.844187E-10 -7.949489E-11
       216  11  6.395886E+03 -6.427307E+04 -3.281044E+03 -3.825878E+03 -1.076291E-10 -3.238555E-11
       216  12  6.207269E+03 -5.224969E+04  3.773609E+02  1.094904E+04  2.552823E-10  2.491042E-10
       216  13 -6.127380E+03 -8.412033E+04 -1.361068E+04  1.150994E+04  3.994320E-10  6.469101E-11
       216  14  1.876300E+03 -8.236666E+04 -7.782683E+03 -3.948589E+03 -2.472819E-10  1.929926E-10
       216  15 -1.748309E+03 -8.411954E+04 -7.534417E+03  1.150566E+04  1.561084E-10  5.639499E-11
       216  16 -7.212588E+03 -8.843931E+04 -1.470809E+04  1.070797E+04  6.597785E-10  1.411555E-10
       216  17 -2.643312E+03 -1.004600E+05 -1.228435E+04 -4.071296E+03  6.293352E-10 -2.169811E-11
       216  18 -9.703963E+03 -1.159885E+05 -1.544627E+04  1.206226E+04  2.426660E-10 -3.182127E-10
       216  19 -5.042153E+03 -7.980125E+04 -1.251315E+04  1.231191E+04  1.656307E+02  8.179003E+03
       216  20  6.395891E+03 -6.427306E+04 -3.281012E+03 -3.825878E+03 -1.999995E+02  4.103896E+03
       216  21  6.207269E+03 -5.224969E+04  3.773614E+02  1.094904E+04 -5.146750E+02  2.861691E+01
       216  22 -6.127362E+03 -8.412025E+04 -1.361055E+04  1.150994E+04  1.656826E+02  8.243663E+03
       216  23  1.876304E+03 -8.236664E+04 -7.782650E+03 -3.948589E+03 -1.999490E+02  4.160067E+03
       216  24 -1.748309E+03 -8.411954E+04 -7.534417E+03  1.150566E+04 -5.146337E+02  7.638787E+01
       216  25 -7.212569E+03 -8.843924E+04 -1.470796E+04  1.070798E+04  1.657343E+02  8.308323E+03
       216  26 -2.643307E+03 -1.004599E+05 -1.228431E+04 -4.071297E+03 -1.998986E+02  4.216236E+03
       216  27 -9.703963E+03 -1.159885E+05 -1.544627E+04  1.206226E+04 -5.145924E+02  1.241564E+02
       217   1  3.330140E+04  5.052385E+04  2.607640E+04  1.237321E+04  1.172058E+03  1.569407E+03
       217   2  4.035105E+04  6.689039E+04  2.843290E+04 -4.198632E+03  1.906551E+03  5.874029E+03
       217   3  2.751125E+04  7.790812E+04  2.305157E+04  9.914277E+03  7.121193E+02  1.017965E+04
       217   4 -4.431418E+02 -8.454756E+04 -7.564826E+03  1.145465E+04  1.171842E+03  1.285580E+03
       217   5  3.209702E+03 -8.184270E+04 -8.543172E+03 -3.886347E+03  1.906603E+03  5.911911E+03
       217   6 -1.308529E+04 -8.454389E+04 -1.748408E+04  1.145787E+04  7.122550E+02  1.053914E+04
       217   7 -3.418905E+04 -2.196024E+05 -4.120742E+04  1.053629E+04  1.171626E+03  1.001816E+03
       217   8 -3.393331E+04 -2.305557E+05 -4.552090E+04 -3.574139E+03  1.906655E+03  5.949783E+03
       217   9 -5.368381E+04 -2.469720E+05 -5.802172E+04  1.300106E+04  7.123926E+02  1.089854E+04
       217  10  3.330139E+04  5.052385E+04  2.607639E+04  1.237321E+04  2.931221E-10  2.554284E-11
       217  11  4.035104E+04  6.689036E+04  2.843283E+04 -4.198641E+03 -1.782705E-10  3.313043E-11
       217  12  2.751122E+04  7.790801E+04  2.305137E+04  9.914271E+03 -7.351622E-11  1.322304E-10
       217  13 -4.431437E+02 -8.454756E+04 -7.564831E+03  1.145465E+04 -1.892848E-10  4.207724E-11
       217  14  3.209688E+03 -8.184274E+04 -8.543245E+03 -3.886356E+03 -7.771193E-11  3.588114E-11
       217  15 -1.308532E+04 -8.454401E+04 -1.748429E+04  1.145786E+04 -1.217099E-10  9.701119E-11
       217  16 -3.418905E+04 -2.196024E+05 -4.120742E+04  1.053629E+04  2.259819E-10 -6.879306E-11
       217  17 -3.393332E+04 -2.305558E+05 -4.552097E+04 -3.574148E+03 -6.229711E-10 -3.635016E-11
       217  18 -5.368384E+04 -2.469721E+05 -5.802194E+04  1.300105E+04 -1.076349E-10 -8.664260E-11
       217  19  3.330140E+04  5.052385E+04  2.607640E+04  1.237321E+04 -1.172058E+03 -1.569407E+03
       217  20  4.035105E+04  6.689039E+04  2.843290E+04 -4.198632E+03 -1.906551E+03 -5.874029E+03
       217  21  2.751125E+04  7.790812E+04  2.305157E+04  9.914277E+03 -7.121193E+02 -1.017965E+04
       217  22 -4.431418E+02 -8.454756E+04 -7.564826E+03  1.145465E+04 -1.171842E+03 -1.285580E+03
       217  23  3.209702E+03 -8.184270E+04 -8.543172E+03 -3.886347E+03 -1.906603E+03 -5.911911E+03
       217  24 -1.308529E+04 -8.454389E+04 -1.748408E+04  1.145787E+04 -7.122550E+02 -1.053914E+04
       217  25 -3.418905E+04 -2.196024E+05 -4.120742E+04  1.053629E+04 -1.171626E+03 -1.001816E+03
       217  26 -3.393331E+04 -2.305557E+05 -4.552090E+04 -3.574139E+03 -1.906655E+03 -5.949783E+03
       217  27 -5.368381E+04 -2.469720E+05 -5.802172E+04  1.300106E+04 -7.123926E+02 -1.089854E+04
       218   1  4.994220E+05  3.502792E+05  1.184505E+05  3.258786E+05  6.684362E+04  5.025837E+04
       218   2  4.637543E+05  2.599402E+05  5.001634E+04  3.695447E+05  4.364189E+04  3.313397E+04
       218   3  5.011978E+05  2.596332E+05  3.222291E+04  3.678109E+05  2.066901E+04  1.570281E+04
       218   4  5.340405E+05  3.381855E+05  1.229227E+05  3.260943E+05  6.696112E+04  5.034266E+04
       218   5  4.795343E+05  2.611940E+05  5.334427E+04  3.727595E+05  4.364830E+04  3.313811E+04
       218   6  4.981615E+05  2.742563E+05  3.450040E+04  3.740250E+05  2.056541E+04  1.562571E+04
       218   7  5.686613E+05  3.260927E+05  1.273952E+05  3.263096E+05  6.707862E+04  5.042694E+04
       218   8  4.953147E+05  2.624480E+05  5.667223E+04  3.759743E+05  4.365471E+04  3.314225E+04
       218   9  4.951253E+05  2.888800E+05  3.677795E+04  3.802392E+05  2.046181E+04  1.554861E+04
       218  10  4.994165E+05  3.502753E+05  1.184374E+05  3.258759E+05 -8.697303E-10 -8.103158E-11
       218  11  4.637519E+05  2.599385E+05  5.001070E+04  3.695435E+05 -2.020942E-09 -1.189137E-09
       218  12  5.011973E+05  2.596328E+05  3.222164E+04  3.678106E+05 -1.270916E-09 -1.177829E-09
       218  13  5.340350E+05  3.381815E+05  1.229096E+05  3.260916E+05 -3.974912E-10 -4.128211E-10
       218  14  4.795320E+05  2.611923E+05  5.333864E+04  3.727583E+05 -1.715234E-09 -1.279822E-09
       218  15  4.981609E+05  2.742559E+05  3.449915E+04  3.740248E+05 -6.807389E-10 -5.353076E-10
       218  16  5.686557E+05  3.260888E+05  1.273820E+05  3.263069E+05 -7.337885E-10 -7.998682E-10
       218  17  4.953124E+05  2.624463E+05  5.666659E+04  3.759732E+05 -1.011311E-09 -1.180321E-09
       218  18  4.951248E+05  2.888796E+05  3.677671E+04  3.802390E+05  4.841311E-10 -2.080807E-10
       218  19  4.994220E+05  3.502792E+05  1.184505E+05  3.258786E+05 -6.684362E+04 -5.025837E+04
       218  20  4.637543E+05  2.599402E+05  5.001634E+04  3.695447E+05 -4.364189E+04 -3.313397E+04
       218  21  5.011978E+05  2.596332E+05  3.222291E+04  3.678109E+05 -2.066901E+04 -1.570281E+04
       218  22  5.340405E+05  3.381855E+05  1.229227E+05  3.260943E+05 -6.696112E+04 -5.034266E+04
       218  23  4.795343E+05  2.611940E+05  5.334427E+04  3.727595E+05 -4.364830E+04 -3.313811E+04
       218  24  4.981615E+05  2.742563E+05  3.450040E+04  3.740250E+05 -2.056541E+04 -1.562571E+04
       218  25  5.686613E+05  3.260927E+05  1.273952E+05  3.263096E+05 -6.707862E+04 -5.042694E+04
       218  26  4.953147E+05  2.624480E+05  5.667223E+04  3.759743E+05 -4.365471E+04 -3.314225E+04
       218  27  4.951253E+05  2.888800E+05  3.677795E+04  3.802392E+05 -2.046181E+04 -1.554861E+04
       219   1  4.971177E+05  2.848921E+05  2.861141E+04  3.636573E+05  1.623387E+04  1.219372E+04
       219   2  4.931461E+05  2.771539E+05  1.599527E+04  3.710495E+05  1.013771E+04  7.478868E+03
       219   3  5.028920E+05  2.775120E+05  1.255405E+04  3.716349E+05  4.065583E+03  2.732086E+03
       219   4  4.997063E+05  2.823177E+05  2.860899E+04  3.629072E+05  1.620620E+04  1.217288E+04
       219   5  4.906071E+05  2.742776E+05  1.493375E+04  3.693031E+05  1.009864E+04  7.449571E+03
       219   6  4.952279E+05  2.743364E+05  1.044328E+04  3.688922E+05  4.015165E+03  2.694322E+03
       219   7  5.022949E+05  2.797433E+05  2.860657E+04  3.621571E+05  1.617852E+04  1.215203E+04
       219   8  4.880682E+05  2.714014E+05  1.387223E+04  3.675567E+05  1.005956E+04  7.420275E+03
       219   9  4.875639E+05  2.711608E+05  8.332502E+03  3.661494E+05  3.964749E+03  2.656558E+03
       219  10  4.971174E+05  2.848919E+05  2.861064E+04  3.636571E+05 -1.034070E-10 -3.516615E-10
       219  11  4.931460E+05  2.771538E+05  1.599497E+04  3.710495E+05 -1.625619E-10  1.668910E-10
       219  12  5.028920E+05  2.775120E+05  1.255401E+04  3.716349E+05 -7.541258E-10 -2.257363E-10
       219  13  4.997060E+05  2.823174E+05  2.860822E+04  3.629070E+05 -5.035499E-10 -1.405900E-11
       219  14  4.906070E+05  2.742776E+05  1.493345E+04  3.693030E+05 -6.174582E-10  9.533107E-11
       219  15  4.952279E+05  2.743364E+05  1.044323E+04  3.688922E+05 -1.825907E-09 -3.228507E-10
       219  16  5.022946E+05  2.797430E+05  2.860580E+04  3.621569E+05 -2.147188E-10  3.469312E-10
       219  17  4.880680E+05  2.714013E+05  1.387193E+04  3.675566E+05 -4.632142E-10  9.312217E-11
       219  18  4.875639E+05  2.711607E+05  8.332460E+03  3.661494E+05 -1.066712E-09 -5.809998E-10
       219  19  4.971177E+05  2.848921E+05  2.861141E+04  3.636573E+05 -1.623387E+04 -1.219372E+04
       219  20  4.931461E+05  2.771539E+05  1.599527E+04  3.710495E+05 -1.013771E+04 -7.478868E+03
       219  21  5.028920E+05  2.775120E+05  1.255405E+04  3.716349E+05 -4.065583E+03 -2.732086E+03
       219  22  4.997063E+05  2.823177E+05  2.860899E+04  3.629072E+05 -1.620620E+04 -1.217288E+04
       219  23  4.906071E+05  2.742776E+05  1.493375E+04  3.693031E+05 -1.009864E+04 -7.449571E+03
       219  24  4.952279E+05  2.743364E+05  1.044328E+04  3.688922E+05 -4.015165E+03 -2.694322E+03
       219  25  5.022949E+05  2.797433E+05  2.860657E+04  3.621571E+05 -1.617852E+04 -1.215203E+04
       219  26  4.880682E+05  2.714014E+05  1.387223E+04  3.675567E+05 -1.005956E+04 -7.420275E+03
       219  27  4.875639E+05  2.711608E+05  8.332502E+03  3.661494E+05 -3.964749E+03 -2.656558E+03
       220   1  5.079979E+05  2.849896E+05  1.370955E+04  3.743125E+05  2.706315E+03  1.589071E+03
       220   2  5.081693E+05  2.873337E+05  1.353909E+04  3.770325E+05 -4.677534E+02 -9.828605E+02
       220   3  5.156666E+05  2.888508E+05  1.721759E+04  3.769717E+05 -3.645753E+03 -3.549606E+03
       220   4  4.953805E+05  2.751563E+05  9.300274E+03  3.676854E+05  2.661400E+03  1.555412E+03
       220   5  4.918041E+05  2.757239E+05  8.060012E+03  3.689603E+05 -5.107368E+02 -1.015071E+03
       220   6  4.955532E+05  2.754641E+05  1.066712E+04  3.674544E+05 -3.686766E+03 -3.580348E+03
       220   7  4.827632E+05  2.653231E+05  4.890960E+03  3.610586E+05  2.616486E+03  1.521754E+03
       220   8  4.754392E+05  2.641143E+05  2.580900E+03  3.608884E+05 -5.537186E+02 -1.047281E+03
       220   9  4.754404E+05  2.620777E+05  4.116616E+03  3.579374E+05 -3.727777E+03 -3.611089E+03
       220  10  5.079979E+05  2.849896E+05  1.370953E+04  3.743125E+05 -1.023729E-09 -5.798368E-10
       220  11  5.081693E+05  2.873337E+05  1.353909E+04  3.770325E+05 -4.929937E-10 -5.080899E-10
       220  12  5.156665E+05  2.888508E+05  1.721754E+04  3.769717E+05 -1.023522E-10 -2.175612E-10
       220  13  4.953805E+05  2.751563E+05  9.300256E+03  3.676854E+05 -1.434272E-09 -5.960052E-10
       220  14  4.918041E+05  2.757239E+05  8.060009E+03  3.689603E+05  2.219043E-10 -3.215579E-10
       220  15  4.955532E+05  2.754641E+05  1.066707E+04  3.674544E+05 -2.922447E-11 -5.118137E-11
       220  16  4.827632E+05  2.653231E+05  4.890943E+03  3.610586E+05 -4.052485E-10 -3.460070E-10
       220  17  4.754392E+05  2.641143E+05  2.580897E+03  3.608884E+05  4.654691E-10 -1.999753E-10
       220  18  4.754404E+05  2.620776E+05  4.116566E+03  3.579374E+05  6.492496E-10  1.059384E-10
       220  19  5.079979E+05  2.849896E+05  1.370955E+04  3.743125E+05 -2.706315E+03 -1.589071E+03
       220  20  5.081693E+05  2.873337E+05  1.353909E+04  3.770325E+05  4.677534E+02  9.828605E+02
       220  21  5.156666E+05  2.888508E+05  1.721759E+04  3.769717E+05  3.645753E+03  3.549606E+03
       220  22  4.953805E+05  2.751563E+05  9.300274E+03  3.676854E+05 -2.661400E+03 -1.555412E+03
       220  23  4.918041E+05  2.757239E+05  8.060012E+03  3.689603E+05  5.107368E+02  1.015071E+03
       220  24  4.955532E+05  2.754641E+05  1.066712E+04  3.674544E+05  3.686766E+03  3.580348E+03
       220  25  4.827632E+05  2.653231E+05  4.890960E+03  3.610586E+05 -2.616486E+03 -1.521754E+03
       220  26  4.754392E+05  2.641143E+05  2.580900E+03  3.608884E+05  5.537186E+02  1.047281E+03
       220  27  4.754404E+05  2.620777E+05  4.116616E+03  3.579374E+05  3.727777E+03  3.611089E+03
       221   1  5.202538E+05  2.948513E+05  2.138690E+04  3.827518E+05 -5.209481E+03 -4.863796E+03
       221   2  5.207395E+05  2.942046E+05  2.883296E+04  3.839878E+05 -1.293510E+04 -1.086416E+04
       221   3  5.378738E+05  3.050312E+05  4.801123E+04  3.767400E+05 -2.073395E+04 -1.676716E+04
       221   4  4.954137E+05  2.742611E+05  1.247728E+04  3.691370E+05 -5.274398E+03 -4.912422E+03
       221   5  4.900295E+05  2.737586E+05  1.881626E+04  3.694556E+05 -1.296497E+04 -1.088658E+04
       221   6  5.012868E+05  2.847225E+05  3.685766E+04  3.612901E+05 -2.072870E+04 -1.676341E+04
       221   7  4.705742E+05  2.536714E+05  3.567555E+03  3.555228E+05 -5.339310E+03 -4.961045E+03
       221   8  4.593204E+05  2.533129E+05  8.799419E+03  3.549241E+05 -1.299485E+04 -1.090901E+04
       221   9  4.647011E+05  2.644141E+05  2.570390E+04  3.458411E+05 -2.072344E+04 -1.675966E+04
       221  10  5.202538E+05  2.948513E+05  2.138681E+04  3.827518E+05 -2.516958E-10 -1.863438E-10
       221  11  5.207393E+05  2.942044E+05  2.883243E+04  3.839877E+05  8.486053E-10 -1.763126E-10
       221  12  5.378732E+05  3.050308E+05  4.800990E+04  3.767397E+05  6.763701E-10  6.075882E-11
       221  13  4.954136E+05  2.742611E+05  1.247718E+04  3.691370E+05 -2.131482E-10 -1.838677E-11
       221  14  4.900292E+05  2.737584E+05  1.881572E+04  3.694555E+05  2.870644E-10 -1.765117E-10
       221  15  5.012863E+05  2.847221E+05  3.685633E+04  3.612898E+05  2.278136E-10 -1.128174E-10
       221  16  4.705741E+05  2.536713E+05  3.567455E+03  3.555228E+05  1.603934E-10  1.394364E-10
       221  17  4.593202E+05  2.533127E+05  8.798878E+03  3.549240E+05  1.388828E-10  1.585438E-11
       221  18  4.647006E+05  2.644137E+05  2.570256E+04  3.458408E+05 -6.191724E-10 -2.627115E-10
       221  19  5.202538E+05  2.948513E+05  2.138690E+04  3.827518E+05  5.209481E+03  4.863796E+03
       221  20  5.207395E+05  2.942046E+05  2.883296E+04  3.839878E+05  1.293510E+04  1.086416E+04
       221  21  5.378738E+05  3.050312E+05  4.801123E+04  3.767400E+05  2.073395E+04  1.676716E+04
       221  22  4.954137E+05  2.742611E+05  1.247728E+04  3.691370E+05  5.274398E+03  4.912422E+03
       221  23  4.900295E+05  2.737586E+05  1.881626E+04  3.694556E+05  1.296497E+04  1.088658E+04
       221  24  5.012868E+05  2.847225E+05  3.685766E+04  3.612901E+05  2.072870E+04  1.676341E+04
       221  25  4.705742E+05  2.536714E+05  3.567555E+03  3.555228E+05  5.339310E+03  4.961045E+03
       221  26  4.593204E+05  2.533129E+05  8.799419E+03  3.549241E+05  1.299485E+04  1.090901E+04
       221  27  4.647011E+05  2.644141E+05  2.570390E+04  3.458411E+05  2.072344E+04  1.675966E+04
       222   1  5.271485E+05  3.157959E+05  5.820200E+04  3.995220E+05 -2.607112E+04 -2.111774E+04
       222   2  5.272181E+05  2.805896E+05  8.399580E+04  3.935532E+05 -5.637357E+04 -4.410870E+04
       222   3  6.216091E+05  3.633348E+05  1.760009E+05  3.288099E+05 -8.739117E+04 -6.614477E+04
       222   4  4.993293E+05  2.741868E+05  4.460569E+04  3.757481E+05 -2.630214E+04 -2.129002E+04
       222   5  4.755443E+05  2.567933E+05  6.924065E+04  3.739705E+05 -5.626335E+04 -4.402723E+04
       222   6  5.460110E+05  3.572837E+05  1.597963E+05  3.134172E+05 -8.693793E+04 -6.581139E+04
       222   7  4.715113E+05  2.325804E+05  3.100930E+04  3.519760E+05 -2.653315E+04 -2.146227E+04
       222   8  4.238737E+05  2.329976E+05  5.448532E+04  3.543893E+05 -5.615315E+04 -4.394576E+04
       222   9  4.704208E+05  3.512335E+05  1.435918E+05  2.980250E+05 -8.648478E+04 -6.547800E+04
       222  10  5.271476E+05  3.157952E+05  5.819988E+04  3.995216E+05  3.634350E-10 -8.129312E-12
       222  11  5.272141E+05  2.805867E+05  8.398619E+04  3.935512E+05 -1.486868E-09 -1.051197E-09
       222  12  6.215997E+05  3.633281E+05  1.759784E+05  3.288052E+05 -1.145810E-09 -8.766718E-10
       222  13  4.993285E+05  2.741861E+05  4.460354E+04  3.757477E+05 -1.391889E-10 -3.757252E-10
       222  14  4.755404E+05  2.567904E+05  6.923107E+04  3.739685E+05 -1.224029E-09 -9.244166E-10
       222  15  5.460018E+05  3.572770E+05  1.597739E+05  3.134126E+05 -6.470113E-10 -2.869629E-10
       222  16  4.715105E+05  2.325797E+05  3.100711E+04  3.519755E+05 -1.285807E-09 -9.652748E-10
       222  17  4.238698E+05  2.329947E+05  5.447577E+04  3.543873E+05 -1.031910E-09 -1.030280E-09
       222  18  4.704117E+05  3.512269E+05  1.435697E+05  2.980204E+05  8.135403E-12 -1.662559E-10
       222  19  5.271485E+05  3.157959E+05  5.820200E+04  3.995220E+05  2.607112E+04  2.111774E+04
       222  20  5.272181E+05  2.805896E+05  8.399580E+04  3.935532E+05  5.637357E+04  4.410870E+04
       222  21  6.216091E+05  3.633348E+05  1.760009E+05  3.288099E+05  8.739117E+04  6.614477E+04
       222  22  4.993293E+05  2.741868E+05  4.460569E+04  3.757481E+05  2.630214E+04  2.129002E+04
       222  23  4.755443E+05  2.567933E+05  6.924065E+04  3.739705E+05  5.626335E+04  4.402723E+04
       222  24  5.460110E+05  3.572837E+05  1.597963E+05  3.134172E+05  8.693793E+04  6.581139E+04
       222  25  4.715113E+05  2.325804E+05  3.100930E+04  3.519760E+05  2.653315E+04  2.146227E+04
       222  26  4.238737E+05  2.329976E+05  5.448532E+04  3.543893E+05  5.615315E+04  4.394576E+04
       222  27  4.704208E+05  3.512335E+05  1.435918E+05  2.980250E+05  8.648478E+04  6.547800E+04
       223   1  1.240875E+06  2.121672E+05  2.111931E+05  1.277815E+05  6.590121E+04 -8.972292E+03
       223   2  1.106002E+06  1.451011E+05  1.406857E+05  9.788989E+04  3.069807E+04 -2.769097E+04
       223   3  9.833772E+05  1.084268E+05  1.006723E+05  1.035645E+05 -4.492853E+03 -2.765188E+04
       223   4  5.281504E+05  3.573023E+04  4.098461E+04  1.072317E+05  2.834821E+04 -8.974275E+03
       223   5  5.242307E+05  4.603810E+03  1.943096E+04  8.945031E+04  1.821783E+04 -2.769457E+04
       223   6  5.282067E+05 -4.621945E+02  1.099272E+04  1.072340E+05  8.091299E+03 -2.765049E+04
       223   7 -1.841058E+05 -1.407411E+05 -1.292542E+05  8.670563E+04 -9.161959E+03 -8.973781E+03
       223   8 -5.722067E+04 -1.359147E+05 -1.018418E+05  8.101872E+04  5.749068E+03 -2.769783E+04
       223   9  7.323469E+04 -1.093636E+05 -7.869635E+04  1.109007E+05  2.066643E+04 -2.764895E+04
       223  10  1.240871E+06  2.121659E+05  2.111848E+05  1.277819E+05 -3.210794E-10  1.735702E-11
       223  11  1.106001E+06  1.451001E+05  1.406825E+05  9.789057E+04 -1.241087E-10  8.649609E-11
       223  12  9.833770E+05  1.084260E+05  1.006708E+05  1.035644E+05 -1.552079E-10  1.322541E-10
       223  13  5.281495E+05  3.572993E+04  4.098295E+04  1.072319E+05 -2.951826E-10  1.174235E-11
       223  14  5.242302E+05  4.602897E+03  1.942890E+04  8.945071E+04 -9.760618E-12  1.042622E-11
       223  15  5.282065E+05 -4.630333E+02  1.099116E+04  1.072342E+05 -1.981544E-10  1.088740E-10
       223  16 -1.841059E+05 -1.407412E+05 -1.292545E+05  8.670557E+04 -1.805804E-11  4.153419E-11
       223  17 -5.722091E+04 -1.359156E+05 -1.018433E+05  8.101885E+04 -7.054182E-11 -8.836541E-11
       223  18  7.323403E+04 -1.093646E+05 -7.869859E+04  1.109011E+05 -2.402983E-10  3.349321E-11
       223  19  1.240875E+06  2.121672E+05  2.111931E+05  1.277815E+05 -6.590121E+04  8.972292E+03
       223  20  1.106002E+06  1.451011E+05  1.406857E+05  9.788989E+04 -3.069807E+04  2.769097E+04
       223  21  9.833772E+05  1.084268E+05  1.006723E+05  1.035645E+05  4.492853E+03  2.765188E+04
       223  22  5.281504E+05  3.573023E+04  4.098461E+04  1.072317E+05 -2.834821E+04  8.974275E+03
       223  23  5.242307E+05  4.603810E+03  1.943096E+04  8.945031E+04 -1.821783E+04  2.769457E+04
       223  24  5.282067E+05 -4.621945E+02  1.099272E+04  1.072340E+05 -8.091299E+03  2.765049E+04
       223  25 -1.841058E+05 -1.407411E+05 -1.292542E+05  8.670563E+04  9.161959E+03  8.973781E+03
       223  26 -5.722067E+04 -1.359147E+05 -1.018418E+05  8.101872E+04 -5.749068E+03  2.769783E+04
       223  27  7.323469E+04 -1.093636E+05 -7.869635E+04  1.109007E+05 -2.066643E+04  2.764895E+04
       224   1  8.920720E+05  8.879463E+04  8.053536E+04  1.079655E+05 -2.143979E+03 -2.225308E+04
       224   2  7.632233E+05  5.666774E+04  5.093982E+04  8.930289E+04 -6.098786E+03 -1.512608E+04
       224   3  6.352520E+05  2.595122E+04  2.426620E+04  1.072223E+05 -1.005469E+04 -6.864434E+03
       224   4  5.265994E+05  1.365651E+03  8.567026E+03  1.074601E+05  6.614610E+03 -2.225154E+04
       224   5  5.263090E+05  1.096167E+02  4.889351E+03  8.916894E+04  4.175457E+03 -1.512309E+04
       224   6  5.266198E+05  2.893918E+00  3.083809E+03  1.074606E+05  1.734441E+03 -6.859745E+03
       224   7  1.612548E+05 -8.607136E+04 -6.340753E+04  1.069550E+05  1.536816E+04 -2.225000E+04
       224   8  2.894487E+05 -5.645181E+04 -4.116338E+04  8.903504E+04  1.444587E+04 -1.512010E+04
       224   9  4.179992E+05 -2.594607E+04 -1.809863E+04  1.076989E+05  1.352156E+04 -6.855046E+03
       224  10  8.920718E+05  8.879409E+04  8.053442E+04  1.079655E+05  2.538566E-10  1.802477E-10
       224  11  7.632232E+05  5.666749E+04  5.093932E+04  8.930281E+04  3.016318E-10  7.735675E-11
       224  12  6.352519E+05  2.595114E+04  2.426592E+04  1.072222E+05 -3.164240E-10 -1.393451E-10
       224  13  5.265992E+05  1.365108E+03  8.566013E+03  1.074602E+05 -8.649302E-11  5.575517E-12
       224  14  5.263089E+05  1.093664E+02  4.888889E+03  8.916899E+04  7.798845E-11  2.761822E-10
       224  15  5.266198E+05  2.842565E+00  3.083715E+03  1.074606E+05  5.511089E-10  9.438654E-11
       224  16  1.612544E+05 -8.607196E+04 -6.340891E+04  1.069553E+05  3.912782E-10  4.085770E-11
       224  17  2.894484E+05 -5.645211E+04 -4.116420E+04  8.903521E+04  5.259539E-10  8.832750E-11
       224  18  4.179990E+05 -2.594617E+04 -1.809906E+04  1.076990E+05  4.377231E-10  2.354732E-10
       224  19  8.920720E+05  8.879463E+04  8.053536E+04  1.079655E+05  2.143979E+03  2.225308E+04
       224  20  7.632233E+05  5.666774E+04  5.093982E+04  8.930289E+04  6.098786E+03  1.512608E+04
       224  21  6.352520E+05  2.595122E+04  2.426620E+04  1.072223E+05  1.005469E+04  6.864434E+03
       224  22  5.265994E+05  1.365651E+03  8.567026E+03  1.074601E+05 -6.614610E+03  2.225154E+04
       224  23  5.263090E+05  1.096167E+02  4.889351E+03  8.916894E+04 -4.175457E+03  1.512309E+04
       224  24  5.266198E+05  2.893918E+00  3.083809E+03  1.074606E+05 -1.734441E+03  6.859745E+03
       224  25  1.612548E+05 -8.607136E+04 -6.340753E+04  1.069550E+05 -1.536816E+04  2.225000E+04
       224  26  2.894487E+05 -5.645181E+04 -4.116338E+04  8.903504E+04 -1.444587E+04  1.512010E+04
       224  27  4.179992E+05 -2.594607E+04 -1.809863E+04  1.076989E+05 -1.352156E+04  6.855046E+03
       225   1  5.462051E+05  4.697397E+03  6.065588E+03  1.074309E+05 -1.051360E+04 -1.647191E+03
       225   2  4.178489E+05 -2.592625E+04 -1.920345E+04  8.905854E+04 -1.033716E+04  6.693843E+03
       225   3  2.894933E+05 -5.646245E+04 -4.457116E+04  1.072727E+05 -1.015984E+04  1.411598E+04
       225   4  5.265324E+05  6.760419E+01  2.576960E+03  1.074613E+05  1.232381E+03 -1.642321E+03
       225   5  5.264292E+05  4.124447E+01  2.110495E+03  8.916822E+04  1.813385E+02  6.697695E+03
       225   6  5.265235E+05  3.161090E+02  2.397325E+03  1.074612E+05 -8.687960E+02  1.411893E+04
       225   7  5.068604E+05 -4.562136E+03 -9.111644E+02  1.074917E+05  1.297800E+04 -1.637450E+03
       225   8  6.350209E+05  2.600808E+04  2.342429E+04  8.927793E+04  1.070163E+04  6.701551E+03
       225   9  7.636075E+05  5.709129E+04  4.936336E+04  1.076498E+05  8.425721E+03  1.412190E+04
       225  10  5.462049E+05  4.697365E+03  6.065375E+03  1.074309E+05  1.488752E-10 -1.467142E-11
       225  11  4.178488E+05 -2.592632E+04 -1.920374E+04  8.905860E+04  7.318105E-10 -2.841392E-10
       225  12  2.894932E+05 -5.646269E+04 -4.457173E+04  1.072728E+05 -2.147878E-10  1.377160E-10
       225  13  5.265324E+05  6.760088E+01  2.576952E+03  1.074613E+05  2.945594E-10  6.635680E-11
       225  14  5.264292E+05  4.119628E+01  2.110410E+03  8.916822E+04 -1.145880E-10 -2.985411E-10
       225  15  5.265234E+05  3.158947E+02  2.396948E+03  1.074612E+05  2.690281E-10 -2.163243E-10
       225  16  5.068602E+05 -4.562184E+03 -9.114857E+02  1.074917E+05  8.315816E-11  9.089630E-11
       225  17  6.350208E+05  2.600801E+04  2.342399E+04  8.927787E+04  5.753306E-10 -1.971050E-11
       225  18  7.636074E+05  5.709106E+04  4.936285E+04  1.076497E+05  1.877960E-10  4.425165E-11
       225  19  5.462051E+05  4.697397E+03  6.065588E+03  1.074309E+05  1.051360E+04  1.647191E+03
       225  20  4.178489E+05 -2.592625E+04 -1.920345E+04  8.905854E+04  1.033716E+04 -6.693843E+03
       225  21  2.894933E+05 -5.646245E+04 -4.457116E+04  1.072727E+05  1.015984E+04 -1.411598E+04
       225  22  5.265324E+05  6.760419E+01  2.576960E+03  1.074613E+05 -1.232381E+03  1.642321E+03
       225  23  5.264292E+05  4.124447E+01  2.110495E+03  8.916822E+04 -1.813385E+02 -6.697695E+03
       225  24  5.265235E+05  3.161090E+02  2.397325E+03  1.074612E+05  8.687960E+02 -1.411893E+04
       225  25  5.068604E+05 -4.562136E+03 -9.111644E+02  1.074917E+05 -1.297800E+04  1.637450E+03
       225  26  6.350209E+05  2.600808E+04  2.342429E+04  8.927793E+04 -1.070163E+04 -6.701551E+03
       225  27  7.636075E+05  5.709129E+04  4.936336E+04  1.076498E+05 -8.425721E+03 -1.412190E+04
       226   1  2.003365E+05 -7.828197E+04 -6.193137E+04  1.079559E+05 -1.373401E+04  1.947894E+04
       226   2  7.271284E+04 -1.086712E+05 -9.074994E+04  8.756258E+04  4.834605E+03  2.103419E+04
       226   3 -5.680844E+04 -1.371832E+05 -1.311799E+05  1.029099E+05  2.339841E+04  7.009880E+03
       226   4  5.268456E+05 -7.165358E+01  2.742753E+03  1.072731E+05 -1.275126E+03  1.948221E+04
       226   5  5.259806E+05  9.573875E+02  4.264763E+03  8.940309E+04 -3.489896E+03  2.103128E+04
       226   6  5.268069E+05  7.470045E+03  8.603137E+03  1.072718E+05 -5.705267E+03  7.006111E+03
       226   7  8.534568E+05  7.813227E+04  6.741220E+04  1.065899E+05  1.119018E+04  1.948545E+04
       226   8  9.794425E+05  1.105729E+05  9.926828E+04  9.124495E+04 -1.182038E+04  2.102833E+04
       226   9  1.110736E+06  1.520991E+05  1.483653E+05  1.116378E+05 -3.483618E+04  7.001937E+03
       226  10  2.003362E+05 -7.828243E+04 -6.193244E+04  1.079561E+05  2.377876E-10  2.211086E-11
       226  11  7.271270E+04 -1.086717E+05 -9.075082E+04  8.756250E+04  4.776904E-10 -1.278111E-10
       226  12 -5.680904E+04 -1.371834E+05 -1.311810E+05  1.029098E+05 -1.333932E-10 -1.365193E-10
       226  13  5.268455E+05 -7.206170E+01  2.742036E+03  1.072731E+05  3.473216E-10  2.230494E-10
       226  14  5.259804E+05  9.569091E+02  4.263909E+03  8.940315E+04 -8.926732E-11 -2.844868E-10
       226  15  5.268069E+05  7.469984E+03  8.602983E+03  1.072719E+05 -3.957407E-10 -1.363617E-10
       226  16  8.534566E+05  7.813182E+04  6.741125E+04  1.065897E+05 -4.786244E-10 -1.350457E-10
       226  17  9.794422E+05  1.105724E+05  9.926719E+04  9.124515E+04  6.894152E-11 -2.458972E-10
       226  18  1.110735E+06  1.520988E+05  1.483629E+05  1.116380E+05  3.521838E-10  1.119284E-11
       226  19  2.003365E+05 -7.828197E+04 -6.193137E+04  1.079559E+05  1.373401E+04 -1.947894E+04
       226  20  7.271284E+04 -1.086712E+05 -9.074994E+04  8.756258E+04 -4.834605E+03 -2.103419E+04
       226  21 -5.680844E+04 -1.371832E+05 -1.311799E+05  1.029099E+05 -2.339841E+04 -7.009880E+03
       226  22  5.268456E+05 -7.165358E+01  2.742753E+03  1.072731E+05  1.275126E+03 -1.948221E+04
       226  23  5.259806E+05  9.573875E+02  4.264763E+03  8.940309E+04  3.489896E+03 -2.103128E+04
       226  24  5.268069E+05  7.470045E+03  8.603137E+03  1.072718E+05  5.705267E+03 -7.006111E+03
       226  25  8.534568E+05  7.813227E+04  6.741220E+04  1.065899E+05 -1.119018E+04 -1.948545E+04
       226  26  9.794425E+05  1.105729E+05  9.926828E+04  9.124495E+04  1.182038E+04 -2.102833E+04
       226  27  1.110736E+06  1.520991E+05  1.483653E+05  1.116378E+05  3.483618E+04 -7.001937E+03
       227   1 -2.883883E+05 -9.661861E+05 -2.943285E+05  2.739044E+05 -7.966759E+03 -1.178720E+05
       227   2 -1.477237E+05 -7.352563E+05 -1.650007E+05  2.133456E+05 -2.255874E+04 -5.787944E+04
       227   3 -7.608952E+04 -5.293806E+05 -9.203558E+04  2.036879E+05 -1.785926E+04  2.131417E+03
       227   4 -1.028111E+05 -2.174840E+05 -1.152408E+05  2.109723E+05 -7.929782E+03 -7.912968E+04
       227   5 -2.046580E+04 -2.075805E+05 -5.645353E+04  1.854856E+05 -2.254899E+04 -4.992593E+04
       227   6 -1.765859E+03 -2.173992E+05 -3.259794E+04  2.109110E+05 -1.787744E+04 -2.072679E+04
       227   7  8.274135E+04  5.317442E+05  6.381516E+04  1.479637E+05 -7.900702E+03 -4.034078E+04
       227   8  1.067775E+05  3.203616E+05  5.207940E+04  1.576013E+05 -2.253996E+04 -4.196576E+04
       227   9  7.255255E+04  9.467729E+04  2.683731E+04  2.181377E+05 -1.789614E+04 -4.359622E+04
       227  10 -2.883921E+05 -9.662011E+05 -2.943548E+05  2.739037E+05  1.951130E-10 -3.325600E-10
       227  11 -1.477252E+05 -7.352601E+05 -1.650080E+05  2.133446E+05  2.013682E-10 -6.011595E-12
       227  12 -7.608987E+04 -5.293807E+05 -9.203618E+04  2.036879E+05  1.003562E-10  3.791341E-10
       227  13 -1.028128E+05 -2.174908E+05 -1.152527E+05  2.109718E+05 -4.874528E-10 -4.360673E-11
       227  14 -2.046702E+04 -2.075833E+05 -5.645917E+04  1.854847E+05 -6.876670E-11 -1.093525E-10
       227  15 -1.766317E+03 -2.173998E+05 -3.259934E+04  2.109107E+05  2.598731E-10  6.495606E-11
       227  16  8.274085E+04  5.317425E+05  6.381199E+04  1.479634E+05 -3.404736E-10  3.067353E-10
       227  17  1.067765E+05  3.203596E+05  5.207514E+04  1.576006E+05 -7.116604E-10 -1.470770E-10
       227  18  7.255170E+04  9.467516E+04  2.683314E+04  2.181371E+05  3.036564E-10 -4.159940E-10
       227  19 -2.883883E+05 -9.661861E+05 -2.943285E+05  2.739044E+05  7.966759E+03  1.178720E+05
       227  20 -1.477237E+05 -7.352563E+05 -1.650007E+05  2.133456E+05  2.255874E+04  5.787944E+04
       227  21 -7.608952E+04 -5.293806E+05 -9.203558E+04  2.036879E+05  1.785926E+04 -2.131417E+03
       227  22 -1.028111E+05 -2.174840E+05 -1.152408E+05  2.109723E+05  7.929782E+03  7.912968E+04
       227  23 -2.046580E+04 -2.075805E+05 -5.645353E+04  1.854856E+05  2.254899E+04  4.992593E+04
       227  24 -1.765859E+03 -2.173992E+05 -3.259794E+04  2.109110E+05  1.787744E+04  2.072679E+04
       227  25  8.274135E+04  5.317442E+05  6.381516E+04  1.479637E+05  7.900702E+03  4.034078E+04
       227  26  1.067775E+05  3.203616E+05  5.207940E+04  1.576013E+05  2.253996E+04  4.196576E+04
       227  27  7.255255E+04  9.467729E+04  2.683731E+04  2.181377E+05  1.789614E+04  4.359622E+04
       228   1 -4.391169E+04 -3.806169E+05 -5.833531E+04  2.130108E+05 -9.146074E+03  4.133784E+03
       228   2  1.152029E+04 -1.612116E+05 -8.588821E+03  1.854186E+05  3.561468E+03  1.262710E+04
       228   3  6.270333E+04  5.601614E+04  3.454370E+04  2.098475E+05  1.606686E+04  2.112391E+04
       228   4 -4.029703E+03 -2.135106E+05 -2.606983E+04  2.111648E+05 -9.163409E+03 -1.633191E+04
       228   5 -5.342399E+02 -2.123747E+05 -1.768559E+04  1.851528E+05  3.544860E+03 -7.517097E+03
       228   6 -1.340799E+03 -2.135174E+05 -1.613676E+04  2.111627E+05  1.605091E+04  1.298373E+03
       228   7  3.585086E+04 -4.637660E+04  6.195932E+03  2.093184E+05 -9.180618E+03 -3.680298E+04
       228   8 -1.258869E+04 -2.635344E+05 -2.678094E+04  1.848870E+05  3.528269E+03 -2.765968E+04
       228   9 -6.538893E+04 -4.829798E+05 -6.681890E+04  2.124773E+05  1.603487E+04 -1.851877E+04
       228  10 -4.391179E+04 -3.806169E+05 -5.833550E+04  2.130108E+05 -1.403215E-10 -6.962907E-10
       228  11  1.152023E+04 -1.612118E+05 -8.589144E+03  1.854186E+05 -3.150397E-10  1.816799E-10
       228  12  6.270294E+04  5.601559E+04  3.454238E+04  2.098472E+05 -1.196220E-10  7.488406E-10
       228  13 -4.029865E+03 -2.135109E+05 -2.607049E+04  2.111647E+05  3.444583E-11  1.393149E-10
       228  14 -5.342686E+02 -2.123748E+05 -1.768572E+04  1.851528E+05  1.446867E-10 -1.981453E-11
       228  15 -1.341076E+03 -2.135174E+05 -1.613724E+04  2.111627E+05  5.815290E-10  4.456366E-10
       228  16  3.585041E+04 -4.637808E+04  6.193229E+03  2.093181E+05  9.337361E-10  8.067517E-10
       228  17 -1.258891E+04 -2.635352E+05 -2.678240E+04  1.848871E+05 -3.514003E-11  6.025407E-11
       228  18 -6.538930E+04 -4.829803E+05 -6.682003E+04  2.124775E+05  8.790971E-11 -5.740170E-10
       228  19 -4.391169E+04 -3.806169E+05 -5.833531E+04  2.130108E+05  9.146074E+03 -4.133784E+03
       228  20  1.152029E+04 -1.612116E+05 -8.588821E+03  1.854186E+05 -3.561468E+03 -1.262710E+04
       228  21  6.270333E+04  5.601614E+04  3.454370E+04  2.098475E+05 -1.606686E+04 -2.112391E+04
       228  22 -4.029703E+03 -2.135106E+05 -2.606983E+04  2.111648E+05  9.163409E+03  1.633191E+04
       228  23 -5.342399E+02 -2.123747E+05 -1.768559E+04  1.851528E+05 -3.544860E+03  7.517097E+03
       228  24 -1.340799E+03 -2.135174E+05 -1.613676E+04  2.111627E+05 -1.605091E+04 -1.298373E+03
       228  25  3.585086E+04 -4.637660E+04  6.195932E+03  2.093184E+05  9.180618E+03  3.680298E+04
       228  26 -1.258869E+04 -2.635344E+05 -2.678094E+04  1.848870E+05 -3.528269E+03  2.765968E+04
       228  27 -6.538893E+04 -4.829798E+05 -6.681890E+04  2.124773E+05 -1.603487E+04  1.851877E+04
       229   1  9.791815E+04  1.998230E+05  6.086853E+04  2.135683E+05  2.469626E+04  2.648613E+04
       229   2  1.437856E+05  4.192290E+05  1.043278E+05  1.745413E+05  2.792936E+04  4.173718E+03
       229   3  1.707498E+05  6.368733E+05  1.575804E+05  1.862447E+05  9.445714E+03 -1.814193E+04
       229   4 -5.965916E+02 -2.147724E+05 -1.709257E+04  2.108752E+05  2.467953E+04  3.909882E+03
       229   5 -7.892387E+03 -2.108978E+05 -2.410564E+04  1.855175E+05  2.793965E+04  1.633849E+04
       229   6 -4.013127E+04 -2.148651E+05 -4.545195E+04  2.108974E+05  9.471970E+03  2.877102E+04
       229   7 -9.912101E+04 -6.292006E+05 -9.505925E+04  2.081838E+05  2.466299E+04 -1.865166E+04
       229   8 -1.595946E+05 -8.406466E+05 -1.525594E+05  1.964821E+05  2.795039E+04  2.849114E+04
       229   9 -2.510613E+05 -1.065932E+06 -2.485266E+05  2.355160E+05  9.501975E+03  7.561993E+04
       229  10  9.791730E+04  1.998221E+05  6.086607E+04  2.135678E+05  2.290398E-10 -1.413459E-10
       229  11  1.437848E+05  4.192288E+05  1.043263E+05  1.745412E+05 -2.018653E-10 -2.050239E-11
       229  12  1.707496E+05  6.368729E+05  1.575796E+05  1.862448E+05  1.672053E-10  9.442074E-11
       229  13 -5.972496E+02 -2.147726E+05 -1.709374E+04  2.108751E+05 -3.776518E-10  1.422346E-10
       229  14 -7.893296E+03 -2.108983E+05 -2.410760E+04  1.855171E+05 -4.281438E-10 -1.744153E-10
       229  15 -4.013159E+04 -2.148660E+05 -4.545367E+04  2.108972E+05  1.162384E-10  1.482167E-10
       229  16 -9.912176E+04 -6.292011E+05 -9.506104E+04  2.081842E+05  1.733765E-10  4.390413E-11
       229  17 -1.595957E+05 -8.406477E+05 -1.525623E+05  1.964815E+05 -5.045455E-10  1.435971E-10
       229  18 -2.510629E+05 -1.065938E+06 -2.485375E+05  2.355154E+05 -3.893919E-11 -5.226290E-11
       229  19  9.791815E+04  1.998230E+05  6.086853E+04  2.135683E+05 -2.469626E+04 -2.648613E+04
       229  20  1.437856E+05  4.192290E+05  1.043278E+05  1.745413E+05 -2.792936E+04 -4.173718E+03
       229  21  1.707498E+05  6.368733E+05  1.575804E+05  1.862447E+05 -9.445714E+03  1.814193E+04
       229  22 -5.965916E+02 -2.147724E+05 -1.709257E+04  2.108752E+05 -2.467953E+04 -3.909882E+03
       229  23 -7.892387E+03 -2.108978E+05 -2.410564E+04  1.855175E+05 -2.793965E+04 -1.633849E+04
       229  24 -4.013127E+04 -2.148651E+05 -4.545195E+04  2.108974E+05 -9.471970E+03 -2.877102E+04
       229  25 -9.912101E+04 -6.292006E+05 -9.505925E+04  2.081838E+05 -2.466299E+04  1.865166E+04
       229  26 -1.595946E+05 -8.406466E+05 -1.525594E+05  1.964821E+05 -2.795039E+04 -2.849114E+04
       229  27 -2.510613E+05 -1.065932E+06 -2.485266E+05  2.355160E+05 -9.501975E+03 -7.561993E+04
       230   1  3.136295E+05  1.511717E+05  1.901881E+04  2.089414E+05  3.052574E+04  2.668267E+04
       230   2  3.548054E+05  1.271368E+05 -4.963977E+01  2.488012E+05  1.967326E+04  2.638743E+04
       230   3  4.274823E+05  1.196493E+05 -3.973052E+03  2.724277E+05  1.270233E+04  2.091217E+04
       230   4  5.626437E+05  2.458142E+05  8.405333E+04  2.944633E+05  4.520207E+04  3.767733E+04
       230   5  5.328305E+05  2.133239E+05  4.155061E+04  3.199338E+05  2.436312E+04  2.990007E+04
       230   6  5.366687E+05  1.995372E+05  2.284605E+04  3.291708E+05  7.406613E+03  1.694384E+04
       230   7  8.117302E+05  3.404656E+05  1.490855E+05  3.800137E+05  5.988671E+04  4.867451E+04
       230   8  7.108911E+05  2.995182E+05  8.314879E+04  3.910853E+05  2.905480E+04  3.341351E+04
       230   9  6.458672E+05  2.794316E+05  4.966384E+04  3.859247E+05  2.109738E+03  1.297459E+04
       230  10  3.136283E+05  1.511707E+05  1.901573E+04  2.089407E+05  1.950960E-11 -2.510204E-13
       230  11  3.548048E+05  1.271360E+05 -5.167414E+01  2.488008E+05  2.254510E-10  1.611959E-11
       230  12  4.274820E+05  1.196488E+05 -3.974176E+03  2.724274E+05  2.953844E-10 -1.871076E-10
       230  13  5.626411E+05  2.458122E+05  8.404683E+04  2.944620E+05  2.692909E-10 -5.041523E-11
       230  14  5.328296E+05  2.133228E+05  4.154782E+04  3.199332E+05 -6.372271E-10  1.252488E-11
       230  15  5.366686E+05  1.995368E+05  2.284541E+04  3.291707E+05  4.991679E-10  1.472580E-10
       230  16  8.117258E+05  3.404621E+05  1.490743E+05  3.800114E+05 -1.004424E-10 -1.845184E-10
       230  17  7.108899E+05  2.995167E+05  8.314511E+04  3.910845E+05 -1.226086E-10 -1.725082E-10
       230  18  6.458672E+05  2.794314E+05  4.966351E+04  3.859247E+05  1.103668E-10 -4.247838E-11
       230  19  3.136295E+05  1.511717E+05  1.901881E+04  2.089414E+05 -3.052574E+04 -2.668267E+04
       230  20  3.548054E+05  1.271368E+05 -4.963977E+01  2.488012E+05 -1.967326E+04 -2.638743E+04
       230  21  4.274823E+05  1.196493E+05 -3.973052E+03  2.724277E+05 -1.270233E+04 -2.091217E+04
       230  22  5.626437E+05  2.458142E+05  8.405333E+04  2.944633E+05 -4.520207E+04 -3.767733E+04
       230  23  5.328305E+05  2.133239E+05  4.155061E+04  3.199338E+05 -2.436312E+04 -2.990007E+04
       230  24  5.366687E+05  1.995372E+05  2.284605E+04  3.291708E+05 -7.406613E+03 -1.694384E+04
       230  25  8.117302E+05  3.404656E+05  1.490855E+05  3.800137E+05 -5.988671E+04 -4.867451E+04
       230  26  7.108911E+05  2.995182E+05  8.314879E+04  3.910853E+05 -2.905480E+04 -3.341351E+04
       230  27  6.458672E+05  2.794316E+05  4.966384E+04  3.859247E+05 -2.109738E+03 -1.297459E+04
       231   1  4.503987E+05  1.422991E+05 -2.382919E+03  2.869006E+05  1.138899E+04  1.718053E+04
       231   2  4.885348E+05  1.756765E+05  9.240580E+02  3.121138E+05  1.063410E+04  1.209905E+04
       231   3  5.399093E+05  1.993143E+05  7.210821E+03  3.332740E+05  1.028385E+04  6.477031E+03
       231   4  5.349978E+05  1.982788E+05  1.738815E+04  3.281196E+05  6.338357E+03  1.339590E+04
       231   5  5.274807E+05  2.016337E+05  9.917790E+03  3.312004E+05  4.541247E+03  7.533663E+03
       231   6  5.334248E+05  1.954730E+05  6.329896E+03  3.302262E+05  3.149005E+03  1.131064E+03
       231   7  6.196053E+05  2.542624E+05  3.715895E+04  3.693449E+05  1.286799E+03  9.610623E+03
       231   8  5.664288E+05  2.275920E+05  1.891179E+04  3.502886E+05 -1.552187E+03  2.967875E+03
       231   9  5.269405E+05  1.916318E+05  5.449225E+03  3.271784E+05 -3.985892E+03 -4.214954E+03
       231  10  4.503985E+05  1.422987E+05 -2.383717E+03  2.869005E+05 -6.314931E-10 -6.953713E-11
       231  11  4.885347E+05  1.756764E+05  9.235708E+02  3.121137E+05 -5.505720E-10  2.910031E-10
       231  12  5.399091E+05  1.993142E+05  7.210543E+03  3.332739E+05  7.191661E-10  2.724615E-10
       231  13  5.349977E+05  1.982786E+05  1.738774E+04  3.281195E+05 -9.441253E-11  7.923050E-11
       231  14  5.274806E+05  2.016336E+05  9.917644E+03  3.312004E+05  8.417376E-11  6.418326E-11
       231  15  5.334248E+05  1.954730E+05  6.329875E+03  3.302262E+05 -1.846216E-10  2.022818E-10
       231  16  6.196053E+05  2.542623E+05  3.715877E+04  3.693449E+05  4.361855E-10  2.402706E-10
       231  17  5.664288E+05  2.275920E+05  1.891177E+04  3.502886E+05 -3.607877E-10 -1.308344E-10
       231  18  5.269405E+05  1.916318E+05  5.449161E+03  3.271784E+05 -7.545100E-10 -3.467061E-10
       231  19  4.503987E+05  1.422991E+05 -2.382919E+03  2.869006E+05 -1.138899E+04 -1.718053E+04
       231  20  4.885348E+05  1.756765E+05  9.240580E+02  3.121138E+05 -1.063410E+04 -1.209905E+04
       231  21  5.399093E+05  1.993143E+05  7.210821E+03  3.332740E+05 -1.028385E+04 -6.477031E+03
       231  22  5.349978E+05  1.982788E+05  1.738815E+04  3.281196E+05 -6.338357E+03 -1.339590E+04
       231  23  5.274807E+05  2.016337E+05  9.917790E+03  3.312004E+05 -4.541247E+03 -7.533663E+03
       231  24  5.334248E+05  1.954730E+05  6.329896E+03  3.302262E+05 -3.149005E+03 -1.131064E+03
       231  25  6.196053E+05  2.542624E+05  3.715895E+04  3.693449E+05 -1.286799E+03 -9.610623E+03
       231  26  5.664288E+05  2.275920E+05  1.891179E+04  3.502886E+05  1.552187E+03 -2.967875E+03
       231  27  5.269405E+05  1.916318E+05  5.449225E+03  3.271784E+05  3.985892E+03  4.214954E+03
       232   1  5.675965E+05  2.193800E+05  1.257525E+04  3.476175E+05  1.107715E+04  3.673333E+03
       232   2  6.057601E+05  2.561438E+05  2.139460E+04  3.719042E+05  1.189225E+04 -1.446411E+03
       232   3  6.560295E+05  2.815701E+05  3.187666E+04  3.927887E+05  1.267548E+04 -6.523446E+03
       232   4  5.333028E+05  1.953913E+05  5.382172E+03  3.301251E+05  3.962945E+03 -1.657239E+03
       232   5  5.272581E+05  2.010685E+05  4.672563E+03  3.318257E+05  4.860318E+03 -6.715678E+03
       232   6  5.332999E+05  1.953898E+05  5.554831E+03  3.301228E+05  5.725987E+03 -1.173130E+04
       232   7  4.990114E+05  1.714041E+05 -1.810409E+03  3.126343E+05 -3.150595E+03 -6.987312E+03
       232   8  4.487644E+05  1.459977E+05 -1.204915E+04  2.917537E+05 -2.170361E+03 -1.198400E+04
       232   9  4.105884E+05  1.092192E+05 -2.076735E+04  2.674715E+05 -1.221677E+03 -1.693779E+04
       232  10  5.675964E+05  2.193799E+05  1.257500E+04  3.476175E+05  1.254861E-11  3.172523E-11
       232  11  6.057600E+05  2.561438E+05  2.139433E+04  3.719042E+05 -3.427978E-11 -1.541201E-11
       232  12  6.560293E+05  2.815700E+05  3.187628E+04  3.927888E+05 -6.792479E-10  4.551782E-12
       232  13  5.333028E+05  1.953913E+05  5.382137E+03  3.301252E+05 -1.863150E-10 -3.380415E-10
       232  14  5.272580E+05  2.010684E+05  4.672434E+03  3.318257E+05 -2.019395E-10 -2.667716E-11
       232  15  5.332998E+05  1.953897E+05  5.554510E+03  3.301229E+05 -6.038208E-10 -6.814825E-11
       232  16  4.990114E+05  1.714040E+05 -1.810519E+03  3.126343E+05  7.239834E-11 -2.104804E-10
       232  17  4.487643E+05  1.459976E+05 -1.204943E+04  2.917536E+05  1.985708E-10 -2.085412E-10
       232  18  4.105883E+05  1.092189E+05 -2.076789E+04  2.674715E+05  6.818048E-10 -7.124777E-11
       232  19  5.675965E+05  2.193800E+05  1.257525E+04  3.476175E+05 -1.107715E+04 -3.673333E+03
       232  20  6.057601E+05  2.561438E+05  2.139460E+04  3.719042E+05 -1.189225E+04  1.446411E+03
       232  21  6.560295E+05  2.815701E+05  3.187666E+04  3.927887E+05 -1.267548E+04  6.523446E+03
       232  22  5.333028E+05  1.953913E+05  5.382172E+03  3.301251E+05 -3.962945E+03  1.657239E+03
       232  23  5.272581E+05  2.010685E+05  4.672563E+03  3.318257E+05 -4.860318E+03  6.715678E+03
       232  24  5.332999E+05  1.953898E+05  5.554831E+03  3.301228E+05 -5.725987E+03  1.173130E+04
       232  25  4.990114E+05  1.714041E+05 -1.810409E+03  3.126343E+05  3.150595E+03  6.987312E+03
       232  26  4.487644E+05  1.459977E+05 -1.204915E+04  2.917537E+05  2.170361E+03  1.198400E+04
       232  27  4.105884E+05  1.092192E+05 -2.076735E+04  2.674715E+05  1.221677E+03  1.693779E+04
       233   1  6.839774E+05  3.018586E+05  3.929963E+04  4.073662E+05  1.347904E+04 -9.268633E+03
       233   2  7.235606E+05  3.377960E+05  5.347749E+04  4.303644E+05  9.820985E+03 -1.693410E+04
       233   3  7.770946E+05  3.647811E+05  7.335200E+04  4.492785E+05  5.450348E+03 -2.364944E+04
       233   4  5.334252E+05  1.954795E+05  6.605367E+03  3.302369E+05  6.485434E+03 -1.450997E+04
       233   5  5.274785E+05  2.016386E+05  1.047733E+04  3.311619E+05  4.661259E+03 -2.080198E+04
       233   6  5.350839E+05  1.984465E+05  1.845766E+04  3.280005E+05  2.125035E+03 -2.614314E+04
       233   7  3.828969E+05  8.911270E+04 -2.609073E+04  2.531279E+05 -5.060625E+02 -1.974970E+04
       233   8  3.314419E+05  6.550451E+04 -3.252456E+04  2.319958E+05 -4.962976E+02 -2.466826E+04
       233   9  2.931467E+05  3.214940E+04 -3.643822E+04  2.067793E+05 -1.198481E+03 -2.863553E+04
       233  10  6.839772E+05  3.018585E+05  3.929913E+04  4.073663E+05 -4.737313E-10  6.974552E-11
       233  11  7.235604E+05  3.377957E+05  5.347677E+04  4.303645E+05 -7.205270E-10 -5.201834E-11
       233  12  7.770944E+05  3.647805E+05  7.335089E+04  4.492786E+05 -1.278045E-09 -2.381744E-10
       233  13  5.334251E+05  1.954793E+05  6.604892E+03  3.302370E+05 -2.609909E-10  4.000468E-11
       233  14  5.274784E+05  2.016382E+05  1.047648E+04  3.311620E+05  1.622784E-10  4.493115E-10
       233  15  5.350837E+05  1.984457E+05  1.845637E+04  3.280006E+05  2.785340E-11  1.260478E-10
       233  16  3.828968E+05  8.911228E+04 -2.609146E+04  2.531279E+05 -2.586989E-10  6.064325E-11
       233  17  3.314418E+05  6.550386E+04 -3.252570E+04  2.319958E+05  7.075106E-10  4.295131E-10
       233  18  2.931465E+05  3.214851E+04 -3.643976E+04  2.067793E+05  8.379080E-10  6.636019E-10
       233  19  6.839774E+05  3.018586E+05  3.929963E+04  4.073662E+05 -1.347904E+04  9.268633E+03
       233  20  7.235606E+05  3.377960E+05  5.347749E+04  4.303644E+05 -9.820985E+03  1.693410E+04
       233  21  7.770946E+05  3.647811E+05  7.335200E+04  4.492785E+05 -5.450348E+03  2.364944E+04
       233  22  5.334252E+05  1.954795E+05  6.605367E+03  3.302369E+05 -6.485434E+03  1.450997E+04
       233  23  5.274785E+05  2.016386E+05  1.047733E+04  3.311619E+05 -4.661259E+03  2.080198E+04
       233  24  5.350839E+05  1.984465E+05  1.845766E+04  3.280005E+05 -2.125035E+03  2.614314E+04
       233  25  3.828969E+05  8.911270E+04 -2.609073E+04  2.531279E+05  5.060625E+02  1.974970E+04
       233  26  3.314419E+05  6.550451E+04 -3.252456E+04  2.319958E+05  4.962976E+02  2.466826E+04
       233  27  2.931467E+05  3.214940E+04 -3.643822E+04  2.067793E+05  1.198481E+03  2.863553E+04
       234   1  8.034246E+05  3.905928E+05  8.684404E+04  4.660913E+05  4.402324E+03 -2.663890E+04
       234   2  8.701474E+05  4.096499E+05  1.256262E+05  4.694146E+05 -3.303583E+04 -5.071490E+04
       234   3  9.753993E+05  4.534132E+05  2.047730E+05  4.557799E+05 -7.723112E+04 -6.579161E+04
       234   4  5.367978E+05  1.998450E+05  2.427586E+04  3.291398E+05  6.490419E+02 -2.945371E+04
       234   5  5.332336E+05  2.139769E+05  4.418962E+04  3.191550E+05 -1.942056E+04 -4.051255E+04
       234   6  5.644417E+05  2.490669E+05  8.942187E+04  2.922089E+05 -4.624275E+04 -4.256895E+04
       234   7  2.702535E+05  9.142308E+03 -3.829670E+04  1.922570E+05 -3.102093E+03 -3.226687E+04
       234   8  1.964462E+05  1.834398E+04 -3.725493E+04  1.689791E+05 -5.815179E+03 -3.031586E+04
       234   9  1.536638E+05  4.475567E+04 -2.594123E+04  1.287374E+05 -1.528215E+04 -1.935881E+04
       234  10  8.034244E+05  3.905920E+05  8.684267E+04  4.660914E+05  3.797478E-10  5.767929E-10
       234  11  8.701456E+05  4.096469E+05  1.256194E+05  4.694133E+05 -3.783357E-11 -1.721078E-10
       234  12  9.753917E+05  4.534070E+05  2.047537E+05  4.557758E+05 -4.422098E-10 -6.404892E-10
       234  13  5.367975E+05  1.998441E+05  2.427423E+04  3.291398E+05  3.325584E-10  3.529078E-10
       234  14  5.332328E+05  2.139751E+05  4.418583E+04  3.191543E+05 -5.995946E-10 -1.581474E-10
       234  15  5.644389E+05  2.490643E+05  8.941446E+04  2.922073E+05 -2.673068E-10 -2.115532E-10
       234  16  2.702532E+05  9.141187E+03 -3.829867E+04  1.922569E+05 -3.912612E-10 -4.069501E-10
       234  17  1.964459E+05  1.834299E+04 -3.725672E+04  1.689790E+05  2.261664E-10 -1.890644E-10
       234  18  1.536634E+05  4.475520E+04 -2.594237E+04  1.287371E+05  7.677351E-10  2.222428E-10
       234  19  8.034246E+05  3.905928E+05  8.684404E+04  4.660913E+05 -4.402324E+03  2.663890E+04
       234  20  8.701474E+05  4.096499E+05  1.256262E+05  4.694146E+05  3.303583E+04  5.071490E+04
       234  21  9.753993E+05  4.534132E+05  2.047730E+05  4.557799E+05  7.723112E+04  6.579161E+04
       234  22  5.367978E+05  1.998450E+05  2.427586E+04  3.291398E+05 -6.490419E+02  2.945371E+04
       234  23  5.332336E+05  2.139769E+05  4.418962E+04  3.191550E+05  1.942056E+04  4.051255E+04
       234  24  5.644417E+05  2.490669E+05  8.942187E+04  2.922089E+05  4.624275E+04  4.256895E+04
       234  25  2.702535E+05  9.142308E+03 -3.829670E+04  1.922570E+05  3.102093E+03  3.226687E+04
       234  26  1.964462E+05  1.834398E+04 -3.725493E+04  1.689791E+05  5.815179E+03  3.031586E+04
       234  27  1.536638E+05  4.475567E+04 -2.594123E+04  1.287374E+05  1.528215E+04  1.935881E+04
       235   1  1.190789E+06  1.270303E+05  1.508065E+05  4.433434E+04  8.088366E+04 -1.341843E+03
       235   2  1.148706E+06  1.554562E+04  7.891190E+04  1.365701E+04  5.105341E+04 -3.784951E+03
       235   3  1.138676E+06  1.676565E+04  5.459100E+04  1.257912E+03  2.122388E+04 -2.871789E+03
       235   4  1.051765E+06  9.241452E+04  1.165621E+05  1.382651E+04  7.867241E+04 -1.345727E+03
       235   5  1.035916E+06 -1.235496E+04  5.206435E+04  4.686363E+03  5.063989E+04 -3.785737E+03
       235   6  1.051815E+06 -4.721444E+03  3.390085E+04  1.382349E+04  2.260678E+04 -2.871275E+03
       235   7  9.127606E+05  5.780082E+04  8.231671E+04 -1.667449E+04  7.646166E+04 -1.349395E+03
       235   8  9.231384E+05 -4.025615E+04  2.521595E+04 -4.282647E+03  5.022645E+04 -3.786511E+03
       235   9  9.649610E+05 -2.620849E+04  1.321027E+04  2.638730E+04  2.398950E+04 -2.870704E+03
       235  10  1.190782E+06  1.270285E+05  1.507942E+05  4.433443E+04  2.641356E-11  7.415057E-11
       235  11  1.148703E+06  1.554491E+04  7.890698E+04  1.365716E+04 -1.110993E-10  3.568557E-11
       235  12  1.138676E+06  1.676552E+04  5.459014E+04  1.257961E+03  1.564494E-10  1.803926E-11
       235  13  1.051759E+06  9.241286E+04  1.165504E+05  1.382659E+04  1.684511E-11  3.713958E-11
       235  14  1.035914E+06 -1.235566E+04  5.205951E+04  4.686517E+03 -2.614725E-10  8.056672E-11
       235  15  1.051814E+06 -4.721590E+03  3.389988E+04  1.382354E+04  2.019803E-10 -8.979819E-11
       235  16  9.127543E+05  5.779925E+04  8.230573E+04 -1.667441E+04 -1.411610E-10  8.665307E-12
       235  17  9.231357E+05 -4.025684E+04  2.521119E+04 -4.282494E+03  3.422473E-10  1.556872E-10
       235  18  9.649604E+05 -2.620866E+04  1.320918E+04  2.638736E+04  9.304923E-11 -1.217308E-10
       235  19  1.190789E+06  1.270303E+05  1.508065E+05  4.433434E+04 -8.088366E+04  1.341843E+03
       235  20  1.148706E+06  1.554562E+04  7.891190E+04  1.365701E+04 -5.105341E+04  3.784951E+03
       235  21  1.138676E+06  1.676565E+04  5.459100E+04  1.257912E+03 -2.122388E+04  2.871789E+03
       235  22  1.051765E+06  9.241452E+04  1.165621E+05  1.382651E+04 -7.867241E+04  1.345727E+03
       235  23  1.035916E+06 -1.235496E+04  5.206435E+04  4.686363E+03 -5.063989E+04  3.785737E+03
       235  24  1.051815E+06 -4.721444E+03  3.390085E+04  1.382349E+04 -2.260678E+04  2.871275E+03
       235  25  9.127606E+05  5.780082E+04  8.231671E+04 -1.667449E+04 -7.646166E+04  1.349395E+03
       235  26  9.231384E+05 -4.025615E+04  2.521595E+04 -4.282647E+03 -5.022645E+04  3.786511E+03
       235  27  9.649610E+05 -2.620849E+04  1.321027E+04  2.638730E+04 -2.398950E+04  2.870704E+03
       236   1  1.099917E+06  2.263417E+04  4.164392E+04  1.677988E+04  1.686792E+04 -1.773029E+03
       236   2  1.071904E+06  5.519265E+03  2.503178E+04  5.388918E+03  7.457155E+03 -9.423794E+02
       236   3  1.048405E+06  1.584276E+03  1.783273E+04  1.215207E+04 -1.953274E+03  1.016077E+02
       236   4  1.045749E+06  9.230951E+03  2.873461E+04  1.379599E+04  1.725438E+04 -1.773080E+03
       236   5  1.043505E+06 -1.506855E+03  1.826796E+04  4.719367E+03  7.958200E+03 -9.423335E+02
       236   6  1.045755E+06  9.158661E+02  1.713557E+04  1.379681E+04 -1.338030E+03  1.016866E+02
       236   7  9.915836E+05 -4.172450E+03  1.582511E+04  1.081237E+04  1.764081E+04 -1.773135E+03
       236   8  1.015106E+06 -8.533032E+03  1.150408E+04  4.049846E+03  8.459222E+03 -9.422887E+02
       236   9  1.043104E+06  2.474655E+02  1.643841E+04  1.544153E+04 -7.227882E+02  1.017687E+02
       236  10  1.099916E+06  2.263409E+04  4.164338E+04  1.677990E+04 -3.379042E-11 -1.648464E-10
       236  11  1.071904E+06  5.519249E+03  2.503167E+04  5.388924E+03  2.615292E-10 -2.861352E-10
       236  12  1.048405E+06  1.584275E+03  1.783272E+04  1.215207E+04  2.225194E-10  1.884048E-11
       236  13  1.045748E+06  9.230868E+03  2.873405E+04  1.379602E+04  1.235633E-10 -9.659599E-11
       236  14  1.043505E+06 -1.506873E+03  1.826784E+04  4.719373E+03  2.005260E-10  1.975822E-11
       236  15  1.045755E+06  9.158656E+02  1.713557E+04  1.379681E+04  2.511492E-10  6.907501E-11
       236  16  9.915833E+05 -4.172536E+03  1.582452E+04  1.081240E+04  3.187856E-10  3.056724E-11
       236  17  1.015106E+06 -8.533052E+03  1.150395E+04  4.049852E+03 -1.606722E-10 -3.805232E-11
       236  18  1.043104E+06  2.474654E+02  1.643841E+04  1.544153E+04 -2.042381E-10 -3.304614E-11
       236  19  1.099917E+06  2.263417E+04  4.164392E+04  1.677988E+04 -1.686792E+04  1.773029E+03
       236  20  1.071904E+06  5.519265E+03  2.503178E+04  5.388918E+03 -7.457155E+03  9.423794E+02
       236  21  1.048405E+06  1.584276E+03  1.783273E+04  1.215207E+04  1.953274E+03 -1.016077E+02
       236  22  1.045749E+06  9.230951E+03  2.873461E+04  1.379599E+04 -1.725438E+04  1.773080E+03
       236  23  1.043505E+06 -1.506855E+03  1.826796E+04  4.719367E+03 -7.958200E+03  9.423335E+02
       236  24  1.045755E+06  9.158661E+02  1.713557E+04  1.379681E+04  1.338030E+03 -1.016866E+02
       236  25  9.915836E+05 -4.172450E+03  1.582511E+04  1.081237E+04 -1.764081E+04  1.773135E+03
       236  26  1.015106E+06 -8.533032E+03  1.150408E+04  4.049846E+03 -8.459222E+03  9.422887E+02
       236  27  1.043104E+06  2.474655E+02  1.643841E+04  1.544153E+04  7.227882E+02 -1.017687E+02
       237   1  1.016258E+06 -7.223921E+03  1.086154E+04  1.606415E+04 -5.075462E+03  7.984383E+02
       237   2  9.873570E+05 -1.588719E+04  1.022142E+04  3.670743E+03 -1.692084E+04  1.845008E+03
       237   3  9.646235E+05 -6.036276E+03  2.191322E+04  9.470534E+03 -2.876550E+04  2.635412E+03
       237   4  1.046132E+06  1.796037E+02  1.804357E+04  1.380554E+04 -4.447519E+03  7.985373E+02
       237   5  1.043031E+06 -2.112268E+03  2.348291E+04  4.708585E+03 -1.643072E+04  1.845014E+03
       237   6  1.046121E+06  1.413281E+04  4.134873E+04  1.380454E+04 -2.841369E+04  2.635213E+03
       237   7  1.076006E+06  7.583083E+03  2.522554E+04  1.154681E+04 -3.819546E+03  7.986316E+02
       237   8  1.098709E+06  1.166243E+04  3.674418E+04  5.746521E+03 -1.594055E+04  1.845022E+03
       237   9  1.127625E+06  3.430149E+04  6.078379E+04  1.813912E+04 -2.806183E+04  2.635019E+03
       237  10  1.016258E+06 -7.223929E+03  1.086149E+04  1.606416E+04 -1.107174E-10  5.986508E-11
       237  11  9.873567E+05 -1.588727E+04  1.022087E+04  3.670768E+03  9.003988E-11  2.024320E-10
       237  12  9.646226E+05 -6.036505E+03  2.191166E+04  9.470595E+03 -5.133493E-11  1.971500E-10
       237  13  1.046132E+06  1.795977E+02  1.804353E+04  1.380554E+04  3.368258E-11  5.205116E-11
       237  14  1.043031E+06 -2.112344E+03  2.348239E+04  4.708610E+03 -9.604600E-11 -7.659527E-11
       237  15  1.046120E+06  1.413259E+04  4.134720E+04  1.380460E+04 -2.641551E-10  7.123648E-11
       237  16  1.076006E+06  7.583078E+03  2.522551E+04  1.154682E+04  1.477225E-10  5.212596E-11
       237  17  1.098708E+06  1.166236E+04  3.674370E+04  5.746545E+03 -1.104447E-10  4.120334E-11
       237  18  1.127624E+06  3.430128E+04  6.078229E+04  1.813918E+04  1.326722E-10  5.886338E-11
       237  19  1.016258E+06 -7.223921E+03  1.086154E+04  1.606415E+04  5.075462E+03 -7.984383E+02
       237  20  9.873570E+05 -1.588719E+04  1.022142E+04  3.670743E+03  1.692084E+04 -1.845008E+03
       237  21  9.646235E+05 -6.036276E+03  2.191322E+04  9.470534E+03  2.876550E+04 -2.635412E+03
       237  22  1.046132E+06  1.796037E+02  1.804357E+04  1.380554E+04  4.447519E+03 -7.985373E+02
       237  23  1.043031E+06 -2.112268E+03  2.348291E+04  4.708585E+03  1.643072E+04 -1.845014E+03
       237  24  1.046121E+06  1.413281E+04  4.134873E+04  1.380454E+04  2.841369E+04 -2.635213E+03
       237  25  1.076006E+06  7.583083E+03  2.522554E+04  1.154681E+04  3.819546E+03 -7.986316E+02
       237  26  1.098709E+06  1.166243E+04  3.674418E+04  5.746521E+03  1.594055E+04 -1.845022E+03
       237  27  1.127625E+06  3.430149E+04  6.078379E+04  1.813912E+04  2.806183E+04 -2.635019E+03
       238   1  9.411707E+05 -3.559670E+04  2.264363E+04  3.301176E+04 -3.771929E+04  3.818796E+03
       238   2  8.909010E+05 -5.355026E+04  4.511715E+04 -8.985084E+03 -7.791882E+04  4.715365E+03
       238   3  8.885902E+05  9.936844E+04  1.364645E+05 -3.259377E+04 -1.181170E+05  1.661330E+03
       238   4  1.055497E+06 -7.314267E+03  4.986541E+04  1.384499E+04 -3.619064E+04  3.819969E+03
       238   5  1.031304E+06 -1.881576E+04  7.854337E+04  4.658194E+03 -7.851070E+04  4.713613E+03
       238   6  1.055422E+06  1.408976E+05  1.775537E+05  1.385977E+04 -1.208312E+05  1.652805E+03
       238   7  1.169835E+06  2.096860E+04  7.708649E+04 -5.325327E+03 -3.466172E+04  3.821047E+03
       238   8  1.171725E+06  1.591801E+04  1.119683E+05  1.830457E+04 -7.910270E+04  4.711836E+03
       238   9  1.222284E+06  1.824327E+05  2.186421E+05  6.032580E+04 -1.235462E+05  1.643876E+03
       238  10  9.411692E+05 -3.559710E+04  2.264093E+04  3.301187E+04  1.006253E-10  1.984108E-11
       238  11  8.908944E+05 -5.355191E+04  4.510572E+04 -8.984789E+03  1.969412E-10 -1.617722E-10
       238  12  8.885753E+05  9.936470E+04  1.364383E+05 -3.259361E+04 -9.770544E-11  1.772795E-12
       238  13  1.055495E+06 -7.314634E+03  4.986293E+04  1.384510E+04  3.346413E-10 -3.076344E-13
       238  14  1.031297E+06 -1.881744E+04  7.853176E+04  4.658492E+03  2.736961E-10 -2.180857E-10
       238  15  1.055406E+06  1.408937E+05  1.775263E+05  1.385993E+04 -9.153298E-11 -2.545014E-11
       238  16  1.169834E+06  2.096827E+04  7.708421E+04 -5.325221E+03 -2.520120E-10 -3.722653E-11
       238  17  1.171718E+06  1.591631E+04  1.119565E+05  1.830487E+04  2.570086E-10 -1.347360E-10
       238  18  1.222268E+06  1.824286E+05  2.186135E+05  6.032597E+04  2.524185E-10 -2.288016E-12
       238  19  9.411707E+05 -3.559670E+04  2.264363E+04  3.301176E+04  3.771929E+04 -3.818796E+03
       238  20  8.909010E+05 -5.355026E+04  4.511715E+04 -8.985084E+03  7.791882E+04 -4.715365E+03
       238  21  8.885902E+05  9.936844E+04  1.364645E+05 -3.259377E+04  1.181170E+05 -1.661330E+03
       238  22  1.055497E+06 -7.314267E+03  4.986541E+04  1.384499E+04  3.619064E+04 -3.819969E+03
       238  23  1.031304E+06 -1.881576E+04  7.854337E+04  4.658194E+03  7.851070E+04 -4.713613E+03
       238  24  1.055422E+06  1.408976E+05  1.775537E+05  1.385977E+04  1.208312E+05 -1.652805E+03
       238  25  1.169835E+06  2.096860E+04  7.708649E+04 -5.325327E+03  3.466172E+04 -3.821047E+03
       238  26  1.171725E+06  1.591801E+04  1.119683E+05  1.830457E+04  7.910270E+04 -4.711836E+03
       238  27  1.222284E+06  1.824327E+05  2.186421E+05  6.032580E+04  1.235462E+05 -1.643876E+03
       239   1 -3.069546E+05 -1.434798E+06 -3.977781E+05  2.737413E+04 -3.004403E+02 -2.494676E+05
       239   2  5.099757E+04 -1.371904E+06 -1.862301E+05  3.337457E+03 -7.180895E+02 -1.577860E+05
       239   3 -1.410523E+04 -1.426684E+06 -1.401845E+05 -7.710599E+03 -4.037058E+02 -6.610531E+04
       239   4 -2.875630E+05 -1.357306E+06 -3.783927E+05  4.146350E+03 -2.910693E+02 -2.493958E+05
       239   5  6.938614E+04 -1.298397E+06 -1.678753E+05 -2.372460E+03 -7.166263E+02 -1.577886E+05
       239   6  3.319057E+03 -1.357136E+06 -1.227940E+05  4.099008E+03 -4.050028E+02 -6.618294E+04
       239   7 -2.681699E+05 -1.279807E+06 -3.590075E+05 -1.908434E+04 -2.817047E+02 -2.493240E+05
       239   8  8.777444E+04 -1.224885E+06 -1.495209E+05 -8.083055E+03 -7.151633E+02 -1.577912E+05
       239   9  2.074350E+04 -1.287583E+06 -1.054039E+05  1.590994E+04 -4.063027E+02 -6.626058E+04
       239  10 -3.069713E+05 -1.434865E+06 -3.978953E+05  2.737407E+04  6.117955E-11  7.021645E-11
       239  11  5.099087E+04 -1.371930E+06 -1.862770E+05  3.337366E+03  2.572187E-10  1.980183E-10
       239  12 -1.410641E+04 -1.426688E+06 -1.401927E+05 -7.710621E+03  2.882351E-10  2.181422E-10
       239  13 -2.875798E+05 -1.357373E+06 -3.785098E+05  4.146292E+03  1.186063E-10  3.153558E-11
       239  14  6.937944E+04 -1.298423E+06 -1.679222E+05 -2.372551E+03 -1.361093E-10  2.610281E-10
       239  15  3.317878E+03 -1.357140E+06 -1.228023E+05  4.098986E+03  6.862258E-10 -6.670779E-12
       239  16 -2.681866E+05 -1.279874E+06 -3.591245E+05 -1.908439E+04 -6.780741E-11 -8.689707E-11
       239  17  8.776773E+04 -1.224911E+06 -1.495678E+05 -8.083146E+03 -3.435353E-10  3.243813E-10
       239  18  2.074232E+04 -1.287587E+06 -1.054121E+05  1.590992E+04 -1.798339E-10 -1.696648E-10
       239  19 -3.069546E+05 -1.434798E+06 -3.977781E+05  2.737413E+04  3.004403E+02  2.494676E+05
       239  20  5.099757E+04 -1.371904E+06 -1.862301E+05  3.337457E+03  7.180895E+02  1.577860E+05
       239  21 -1.410523E+04 -1.426684E+06 -1.401845E+05 -7.710599E+03  4.037058E+02  6.610531E+04
       239  22 -2.875630E+05 -1.357306E+06 -3.783927E+05  4.146350E+03  2.910693E+02  2.493958E+05
       239  23  6.938614E+04 -1.298397E+06 -1.678753E+05 -2.372460E+03  7.166263E+02  1.577886E+05
       239  24  3.319057E+03 -1.357136E+06 -1.227940E+05  4.099008E+03  4.050028E+02  6.618294E+04
       239  25 -2.681699E+05 -1.279807E+06 -3.590075E+05 -1.908434E+04  2.817047E+02  2.493240E+05
       239  26  8.777444E+04 -1.224885E+06 -1.495209E+05 -8.083055E+03  7.151633E+02  1.577912E+05
       239  27  2.074350E+04 -1.287583E+06 -1.054039E+05  1.590994E+04  4.063027E+02  6.626058E+04
       240   1 -4.311391E+04 -1.339663E+06 -1.096374E+05  9.666318E+03 -1.361496E+02 -4.513066E+04
       240   2  2.087720E+04 -1.317108E+06 -7.689727E+04 -2.977070E+03  2.930190E+01 -4.183876E+03
       240   3 -3.623586E+04 -1.330208E+06 -1.011321E+05 -1.391528E+02  1.825378E+02  3.676326E+04
       240   4 -4.294653E+04 -1.338958E+06 -1.094705E+05  4.684793E+03 -1.357968E+02 -4.514739E+04
       240   5  1.987098E+04 -1.321129E+06 -7.790154E+04 -3.057631E+03  2.929339E+01 -4.199351E+03
       240   6 -3.841637E+04 -1.338955E+06 -1.033086E+05  4.681296E+03  1.828157E+02  3.674874E+04
       240   7 -4.277905E+04 -1.338253E+06 -1.093036E+05 -2.967386E+02 -1.354437E+02 -4.516413E+04
       240   8  1.886475E+04 -1.325149E+06 -7.890581E+04 -3.138191E+03  2.928489E+01 -4.214826E+03
       240   9 -4.059681E+04 -1.347701E+06 -1.054850E+05  9.501677E+03  1.830935E+02  3.673421E+04
       240  10 -4.311445E+04 -1.339665E+06 -1.096413E+05  9.666313E+03  2.658735E-10 -3.782180E-10
       240  11  2.087719E+04 -1.317109E+06 -7.689730E+04 -2.977070E+03  4.432000E-10  1.697305E-10
       240  12 -3.623622E+04 -1.330210E+06 -1.011346E+05 -1.391583E+02 -1.777863E-10  4.641293E-11
       240  13 -4.294708E+04 -1.338960E+06 -1.094744E+05  4.684788E+03  6.446942E-10  1.579107E-11
       240  14  1.987097E+04 -1.321129E+06 -7.790157E+04 -3.057631E+03  6.866676E-10  3.367280E-10
       240  15 -3.841674E+04 -1.338956E+06 -1.033111E+05  4.681291E+03  3.384974E-10  4.799007E-11
       240  16 -4.277960E+04 -1.338255E+06 -1.093074E+05 -2.967435E+02  4.493134E-11  3.867651E-10
       240  17  1.886475E+04 -1.325149E+06 -7.890584E+04 -3.138191E+03  4.360816E-10  2.571136E-10
       240  18 -4.059717E+04 -1.347702E+06 -1.054876E+05  9.501672E+03 -8.225586E-11  6.479987E-11
       240  19 -4.311391E+04 -1.339663E+06 -1.096374E+05  9.666318E+03  1.361496E+02  4.513066E+04
       240  20  2.087720E+04 -1.317108E+06 -7.689727E+04 -2.977070E+03 -2.930190E+01  4.183876E+03
       240  21 -3.623586E+04 -1.330208E+06 -1.011321E+05 -1.391528E+02 -1.825378E+02 -3.676326E+04
       240  22 -4.294653E+04 -1.338958E+06 -1.094705E+05  4.684793E+03  1.357968E+02  4.514739E+04
       240  23  1.987098E+04 -1.321129E+06 -7.790154E+04 -3.057631E+03 -2.929339E+01  4.199351E+03
       240  24 -3.841637E+04 -1.338955E+06 -1.033086E+05  4.681296E+03 -1.828157E+02 -3.674874E+04
       240  25 -4.277905E+04 -1.338253E+06 -1.093036E+05 -2.967386E+02  1.354437E+02  4.516413E+04
       240  26  1.886475E+04 -1.325149E+06 -7.890581E+04 -3.138191E+03 -2.928489E+01  4.214826E+03
       240  27 -4.059681E+04 -1.347701E+06 -1.054850E+05  9.501677E+03 -1.830935E+02 -3.673421E+04
       241   1  2.084026E+04 -1.278302E+06 -9.519259E+04  1.471941E+04  4.526907E+02  5.653529E+04
       241   2  8.284590E+04 -1.221332E+06 -1.327921E+05 -7.354293E+03  7.581828E+02  1.397881E+05
       241   3 -2.379343E+05 -1.270828E+06 -3.203169E+05 -1.696917E+04  2.825822E+02  2.230425E+05
       241   4  1.715596E+03 -1.354659E+06 -1.142817E+05  3.988669E+03  4.516764E+02  5.645536E+04
       241   5  6.279367E+04 -1.301489E+06 -1.528061E+05 -2.227924E+03  7.593490E+02  1.397878E+05
       241   6 -2.589553E+05 -1.354813E+06 -3.413255E+05  4.013142E+03  2.901465E+02  2.231214E+05
       241   7 -1.740908E+04 -1.431011E+06 -1.333711E+05 -6.740754E+03  4.506648E+02  5.637544E+04
       241   8  4.274105E+04 -1.381641E+06 -1.728207E+05  2.897783E+03  7.605153E+02  1.397875E+05
       241   9 -2.799752E+05 -1.438791E+06 -3.623344E+05  2.499261E+04  2.977171E+02  2.232002E+05
       241  10  2.083940E+04 -1.278306E+06 -9.519861E+04  1.471939E+04 -2.296165E-10 -4.312563E-12
       241  11  8.284064E+04 -1.221353E+06 -1.328289E+05 -7.354379E+03 -2.676358E-10  2.587243E-10
       241  12 -2.379477E+05 -1.270881E+06 -3.204106E+05 -1.696922E+04  1.236146E-11  1.019339E-11
       241  13  1.714737E+03 -1.354663E+06 -1.142877E+05  3.988649E+03  3.066616E-10  1.832064E-10
       241  14  6.278841E+04 -1.301510E+06 -1.528429E+05 -2.228009E+03 -1.997112E-11  1.992739E-10
       241  15 -2.589687E+05 -1.354867E+06 -3.414193E+05  4.013090E+03  2.085148E-10 -5.678414E-11
       241  16 -1.740993E+04 -1.431014E+06 -1.333771E+05 -6.740774E+03  5.098542E-10 -1.241169E-10
       241  17  4.273579E+04 -1.381662E+06 -1.728575E+05  2.897697E+03  3.617603E-10  1.722005E-10
       241  18 -2.799886E+05 -1.438845E+06 -3.624283E+05  2.499256E+04  2.200337E-10  9.339530E-11
       241  19  2.084026E+04 -1.278302E+06 -9.519259E+04  1.471941E+04 -4.526907E+02 -5.653529E+04
       241  20  8.284590E+04 -1.221332E+06 -1.327921E+05 -7.354293E+03 -7.581828E+02 -1.397881E+05
       241  21 -2.379343E+05 -1.270828E+06 -3.203169E+05 -1.696917E+04 -2.825822E+02 -2.230425E+05
       241  22  1.715596E+03 -1.354659E+06 -1.142817E+05  3.988669E+03 -4.516764E+02 -5.645536E+04
       241  23  6.279367E+04 -1.301489E+06 -1.528061E+05 -2.227924E+03 -7.593490E+02 -1.397878E+05
       241  24 -2.589553E+05 -1.354813E+06 -3.413255E+05  4.013142E+03 -2.901465E+02 -2.231214E+05
       241  25 -1.740908E+04 -1.431011E+06 -1.333711E+05 -6.740754E+03 -4.506648E+02 -5.637544E+04
       241  26  4.274105E+04 -1.381641E+06 -1.728207E+05  2.897783E+03 -7.605153E+02 -1.397875E+05
       241  27 -2.799752E+05 -1.438791E+06 -3.623344E+05  2.499261E+04 -2.977171E+02 -2.232002E+05
       242   1  2.030203E+05  1.098468E+02 -5.557147E+04  1.414730E+05 -5.777340E+03  1.182524E+03
       242   2  2.488438E+05  1.980279E+04 -4.266029E+04  1.737378E+05 -4.752293E+03  1.385948E+04
       242   3  3.130544E+05  3.571166E+04 -3.209329E+04  1.972992E+05  1.508220E+03  1.955586E+04
       242   4  4.945444E+05  1.754875E+05  3.249992E+04  2.713879E+05  1.548681E+04  1.712289E+04
       242   5  4.788813E+05  1.669835E+05  1.609269E+04  2.824565E+05  3.158164E+03  1.978809E+04
       242   6  4.844951E+05  1.575877E+05  8.923762E+03  2.848206E+05 -3.936845E+03  1.547430E+04
       242   7  7.861548E+05  3.508922E+05  1.205626E+05  4.013639E+05  3.676425E+04  3.307115E+04
       242   8  7.089762E+05  3.141871E+05  7.484094E+04  3.912181E+05  1.107250E+04  2.571924E+04
       242   9  6.559698E+05  2.794819E+05  4.993900E+04  3.723701E+05 -9.383913E+03  1.139121E+04
       242  10  2.030202E+05  1.098363E+02 -5.557153E+04  1.414730E+05 -4.276896E-10 -1.837062E-10
       242  11  2.488438E+05  1.980258E+04 -4.266069E+04  1.737379E+05 -5.547271E-10  3.205245E-10
       242  12  3.130543E+05  3.571125E+04 -3.209401E+04  1.972992E+05  2.247080E-10  2.898862E-10
       242  13  4.945441E+05  1.754871E+05  3.249892E+04  2.713877E+05  5.104786E-11  1.999325E-11
       242  14  4.788812E+05  1.669831E+05  1.609193E+04  2.824564E+05 -3.831164E-10  1.445509E-10
       242  15  4.844950E+05  1.575874E+05  8.923283E+03  2.848207E+05  2.550397E-10  1.008300E-11
       242  16  7.861531E+05  3.508907E+05  1.205580E+05  4.013629E+05  4.845883E-11  2.831141E-10
       242  17  7.089759E+05  3.141863E+05  7.483947E+04  3.912178E+05  1.726673E-10  4.189756E-11
       242  18  6.559697E+05  2.794818E+05  4.993859E+04  3.723702E+05  4.492851E-10 -2.770439E-10
       242  19  2.030203E+05  1.098468E+02 -5.557147E+04  1.414730E+05  5.777340E+03 -1.182524E+03
       242  20  2.488438E+05  1.980279E+04 -4.266029E+04  1.737378E+05  4.752293E+03 -1.385948E+04
       242  21  3.130544E+05  3.571166E+04 -3.209329E+04  1.972992E+05 -1.508220E+03 -1.955586E+04
       242  22  4.945444E+05  1.754875E+05  3.249992E+04  2.713879E+05 -1.548681E+04 -1.712289E+04
       242  23  4.788813E+05  1.669835E+05  1.609269E+04  2.824565E+05 -3.158164E+03 -1.978809E+04
       242  24  4.844951E+05  1.575877E+05  8.923762E+03  2.848206E+05  3.936845E+03 -1.547430E+04
       242  25  7.861548E+05  3.508922E+05  1.205626E+05  4.013639E+05 -3.676425E+04 -3.307115E+04
       242  26  7.089762E+05  3.141871E+05  7.484094E+04  3.912181E+05 -1.107250E+04 -2.571924E+04
       242  27  6.559698E+05  2.794819E+05  4.993900E+04  3.723701E+05  9.383913E+03 -1.139121E+04
       243   1  3.428657E+05  5.916838E+04 -2.608362E+04  2.134044E+05  1.611936E+03  1.671684E+04
       243   2  3.857593E+05  9.929172E+04 -1.646418E+04  2.408055E+05  3.640964E+03  1.351642E+04
       243   3  4.421772E+05  1.268353E+05 -6.471652E+03  2.641369E+05  6.213486E+03  9.590408E+03
       243   4  4.839494E+05  1.570318E+05  6.852441E+03  2.843710E+05 -3.476121E+03  1.290315E+04
       243   5  4.767409E+05  1.626381E+05  4.069551E+03  2.868105E+05 -2.835774E+03  8.662351E+03
       243   6  4.833531E+05  1.559637E+05  2.862993E+03  2.851775E+05 -1.651987E+03  3.696095E+03
       243   7  6.250592E+05  2.549089E+05  3.978840E+04  3.553576E+05 -8.565824E+03  9.088239E+03
       243   8  5.677323E+05  2.259896E+05  2.460307E+04  3.328234E+05 -9.313778E+03  3.807343E+03
       243   9  5.245303E+05  1.850927E+05  1.219762E+04  3.062194E+05 -9.517999E+03 -2.198627E+03
       243  10  3.428656E+05  5.916808E+04 -2.608415E+04  2.134044E+05 -7.390130E-11  1.974392E-12
       243  11  3.857592E+05  9.929152E+04 -1.646454E+04  2.408055E+05  3.348255E-10  3.696957E-14
       243  12  4.421771E+05  1.268352E+05 -6.471898E+03  2.641368E+05  3.171275E-10  1.635194E-10
       243  13  4.839494E+05  1.570316E+05  6.852105E+03  2.843711E+05  8.023992E-10 -1.146694E-10
       243  14  4.767409E+05  1.626381E+05  4.069395E+03  2.868105E+05  3.323328E-10 -9.520549E-11
       243  15  4.833531E+05  1.559637E+05  2.862962E+03  2.851775E+05 -3.231897E-11 -1.536134E-10
       243  16  6.250591E+05  2.549088E+05  3.978811E+04  3.553577E+05  7.003499E-10  7.944204E-13
       243  17  5.677322E+05  2.259896E+05  2.460288E+04  3.328234E+05  1.955254E-10 -1.643455E-10
       243  18  5.245302E+05  1.850927E+05  1.219744E+04  3.062194E+05  7.252897E-12 -1.773449E-10
       243  19  3.428657E+05  5.916838E+04 -2.608362E+04  2.134044E+05 -1.611936E+03 -1.671684E+04
       243  20  3.857593E+05  9.929172E+04 -1.646418E+04  2.408055E+05 -3.640964E+03 -1.351642E+04
       243  21  4.421772E+05  1.268353E+05 -6.471652E+03  2.641369E+05 -6.213486E+03 -9.590408E+03
       243  22  4.839494E+05  1.570318E+05  6.852441E+03  2.843710E+05  3.476121E+03 -1.290315E+04
       243  23  4.767409E+05  1.626381E+05  4.069551E+03  2.868105E+05  2.835774E+03 -8.662351E+03
       243  24  4.833531E+05  1.559637E+05  2.862993E+03  2.851775E+05  1.651987E+03 -3.696095E+03
       243  25  6.250592E+05  2.549089E+05  3.978840E+04  3.553576E+05  8.565824E+03 -9.088239E+03
       243  26  5.677323E+05  2.259896E+05  2.460307E+04  3.328234E+05  9.313778E+03 -3.807343E+03
       243  27  5.245303E+05  1.850927E+05  1.219762E+04  3.062194E+05  9.517999E+03  2.198627E+03
       244   1  4.734909E+05  1.490856E+05  4.024829E+02  2.801750E+05  7.608391E+03  6.857888E+03
       244   2  5.161923E+05  1.902911E+05  1.124644E+04  3.072826E+05  9.532640E+03  1.923866E+03
       244   3  5.722948E+05  2.185462E+05  2.306604E+04  3.305581E+05  1.144100E+04 -2.988827E+03
       244   4  4.833220E+05  1.559281E+05  2.629364E+03  2.851436E+05 -2.244587E+02  9.881206E+02
       244   5  4.766385E+05  1.624291E+05  2.762894E+03  2.870449E+05  1.740243E+03 -3.915822E+03
       244   6  4.833444E+05  1.559692E+05  3.836869E+03  2.851116E+05  3.689172E+03 -8.798374E+03
       244   7  4.931534E+05  1.627707E+05  4.856601E+03  2.901124E+05 -8.057479E+03 -4.881773E+03
       244   8  4.370862E+05  1.345679E+05 -5.720513E+03  2.668085E+05 -6.051576E+03 -9.755075E+03
       244   9  3.944016E+05  9.339599E+04 -1.539296E+04  2.396720E+05 -4.061335E+03 -1.460693E+04
       244  10  4.734908E+05  1.490856E+05  4.022859E+02  2.801750E+05 -1.378482E-11 -4.644750E-12
       244  11  5.161922E+05  1.902910E+05  1.124626E+04  3.072825E+05  4.571090E-10 -9.422853E-11
       244  12  5.722946E+05  2.185461E+05  2.306578E+04  3.305581E+05  3.122274E-10 -9.717589E-11
       244  13  4.833220E+05  1.559281E+05  2.629362E+03  2.851436E+05 -6.858683E-10 -8.948726E-11
       244  14  4.766385E+05  1.624291E+05  2.762860E+03  2.870449E+05  8.092821E-12 -2.687310E-11
       244  15  4.833444E+05  1.559691E+05  3.836698E+03  2.851117E+05 -4.031623E-10  1.631679E-10
       244  16  4.931533E+05  1.627706E+05  4.856435E+03  2.901124E+05 -2.582421E-10  3.652261E-11
       244  17  4.370862E+05  1.345678E+05 -5.720760E+03  2.668085E+05 -4.606423E-10  6.835399E-11
       244  18  3.944015E+05  9.339576E+04 -1.539339E+04  2.396719E+05 -4.676655E-10  8.429231E-11
       244  19  4.734909E+05  1.490856E+05  4.024829E+02  2.801750E+05 -7.608391E+03 -6.857888E+03
       244  20  5.161923E+05  1.902911E+05  1.124644E+04  3.072826E+05 -9.532640E+03 -1.923866E+03
       244  21  5.722948E+05  2.185462E+05  2.306604E+04  3.305581E+05 -1.144100E+04  2.988827E+03
       244  22  4.833220E+05  1.559281E+05  2.629364E+03  2.851436E+05  2.244587E+02 -9.881206E+02
       244  23  4.766385E+05  1.624291E+05  2.762894E+03  2.870449E+05 -1.740243E+03  3.915822E+03
       244  24  4.833444E+05  1.559692E+05  3.836869E+03  2.851116E+05 -3.689172E+03  8.798374E+03
       244  25  4.931534E+05  1.627707E+05  4.856601E+03  2.901124E+05  8.057479E+03  4.881773E+03
       244  26  4.370862E+05  1.345679E+05 -5.720513E+03  2.668085E+05  6.051576E+03  9.755075E+03
       244  27  3.944016E+05  9.339599E+04 -1.539296E+04  2.396720E+05  4.061335E+03  1.460693E+04
       245   1  6.036332E+05  2.410529E+05  3.115116E+04  3.467780E+05  1.268857E+04 -5.806462E+03
       245   2  6.473654E+05  2.815435E+05  4.575969E+04  3.728838E+05  1.041999E+04 -1.314239E+04
       245   3  7.060613E+05  3.110924E+05  6.505227E+04  3.946285E+05  7.453406E+03 -1.954722E+04
       245   4  4.834421E+05  1.560399E+05  4.782943E+03  2.852103E+05  4.891410E+03 -1.165033E+04
       245   5  4.767925E+05  1.628454E+05  7.980550E+03  2.865314E+05  4.406273E+03 -1.765039E+04
       245   6  4.847191E+05  1.583228E+05  1.431768E+04  2.834899E+05  3.223488E+03 -2.271887E+04
       245   7  3.632709E+05  7.103796E+04 -2.158474E+04  2.236577E+05 -2.903587E+03 -1.749255E+04
       245   8  3.062559E+05  4.416635E+04 -2.979922E+04  2.002074E+05 -1.605176E+03 -2.215671E+04
       245   9  2.634342E+05  5.582195E+03 -3.641960E+04  1.723969E+05 -1.004412E+03 -2.588905E+04
       245  10  6.036330E+05  2.410528E+05  3.115079E+04  3.467781E+05  1.967009E-10  8.396954E-11
       245  11  6.473652E+05  2.815433E+05  4.575916E+04  3.728839E+05  8.015341E-10  3.728152E-10
       245  12  7.060611E+05  3.110919E+05  6.505145E+04  3.946287E+05  3.486495E-10  4.588933E-10
       245  13  4.834421E+05  1.560397E+05  4.782642E+03  2.852103E+05 -3.353774E-10 -5.474810E-12
       245  14  4.767924E+05  1.628451E+05  7.979928E+03  2.865314E+05  1.995152E-10  2.549250E-10
       245  15  4.847189E+05  1.583223E+05  1.431669E+04  2.834900E+05  6.337426E-10 -1.688850E-10
       245  16  3.632708E+05  7.103763E+04 -2.158533E+04  2.236577E+05 -3.170256E-10  2.267690E-10
       245  17  3.062557E+05  4.416582E+04 -2.980015E+04  2.002074E+05 -4.002843E-10 -2.059373E-10
       245  18  2.634340E+05  5.581475E+03 -3.642086E+04  1.723969E+05  7.613068E-12 -5.451627E-10
       245  19  6.036332E+05  2.410529E+05  3.115116E+04  3.467780E+05 -1.268857E+04  5.806462E+03
       245  20  6.473654E+05  2.815435E+05  4.575969E+04  3.728838E+05 -1.041999E+04  1.314239E+04
       245  21  7.060613E+05  3.110924E+05  6.505227E+04  3.946285E+05 -7.453406E+03  1.954722E+04
       245  22  4.834421E+05  1.560399E+05  4.782943E+03  2.852103E+05 -4.891410E+03  1.165033E+04
       245  23  4.767925E+05  1.628454E+05  7.980550E+03  2.865314E+05 -4.406273E+03  1.765039E+04
       245  24  4.847191E+05  1.583228E+05  1.431768E+04  2.834899E+05 -3.223488E+03  2.271887E+04
       245  25  3.632709E+05  7.103796E+04 -2.158474E+04  2.236577E+05  2.903587E+03  1.749255E+04
       245  26  3.062559E+05  4.416635E+04 -2.979922E+04  2.002074E+05  1.605176E+03  2.215671E+04
       245  27  2.634342E+05  5.582195E+03 -3.641960E+04  1.723969E+05  1.004412E+03  2.588905E+04
       246   1  7.360926E+05  3.380845E+05  7.801634E+04  4.126837E+05  7.214126E+03 -2.237356E+04
       246   2  8.009923E+05  3.652960E+05  1.133964E+05  4.231085E+05 -2.554072E+04 -4.379281E+04
       246   3  9.007431E+05  4.089035E+05  1.834103E+05  4.190689E+05 -6.498583E+04 -5.630236E+04
       246   4  4.860113E+05  1.594118E+05  1.889411E+04  2.844313E+05  2.527961E+03 -2.588766E+04
       246   5  4.812540E+05  1.723249E+05  3.449903E+04  2.772060E+05 -1.315489E+04 -3.451025E+04
       246   6  5.076526E+05  1.979452E+05  6.994452E+04  2.555129E+05 -3.552386E+04 -3.421910E+04
       246   7  2.359986E+05 -1.922431E+04 -4.023340E+04  1.562372E+05 -2.155761E+03 -2.939990E+04
       246   8  1.616301E+05 -2.060603E+04 -4.440560E+04  1.313826E+05 -7.776258E+02 -2.523286E+04
       246   9  1.147339E+05 -1.296965E+04 -4.353086E+04  9.205964E+04 -6.087750E+03 -1.214909E+04
       246  10  7.360924E+05  3.380840E+05  7.801531E+04  4.126838E+05  1.671553E-10 -8.835352E-11
       246  11  8.009911E+05  3.652938E+05  1.133915E+05  4.231076E+05  4.834297E-10  7.525017E-12
       246  12  9.007377E+05  4.088990E+05  1.833965E+05  4.190659E+05  2.988861E-10 -6.087023E-12
       246  13  4.860111E+05  1.594111E+05  1.889284E+04  2.844314E+05 -1.371935E-11 -7.334594E-11
       246  14  4.812535E+05  1.723236E+05  3.449646E+04  2.772056E+05  3.584026E-10 -3.494961E-11
       246  15  5.076509E+05  1.979436E+05  6.993995E+04  2.555119E+05  4.319771E-11 -1.002515E-10
       246  16  2.359984E+05 -1.922523E+04 -4.023503E+04  1.562372E+05  1.439045E-10 -2.293565E-10
       246  17  1.616299E+05 -2.060671E+04 -4.440680E+04  1.313826E+05 -3.948737E-10 -9.173368E-11
       246  18  1.147338E+05 -1.296982E+04 -4.353121E+04  9.205958E+04  9.396013E-11  7.832583E-11
       246  19  7.360926E+05  3.380845E+05  7.801634E+04  4.126837E+05 -7.214126E+03  2.237356E+04
       246  20  8.009923E+05  3.652960E+05  1.133964E+05  4.231085E+05  2.554072E+04  4.379281E+04
       246  21  9.007431E+05  4.089035E+05  1.834103E+05  4.190689E+05  6.498583E+04  5.630236E+04
       246  22  4.860113E+05  1.594118E+05  1.889411E+04  2.844313E+05 -2.527961E+03  2.588766E+04
       246  23  4.812540E+05  1.723249E+05  3.449903E+04  2.772060E+05  1.315489E+04  3.451025E+04
       246  24  5.076526E+05  1.979452E+05  6.994452E+04  2.555129E+05  3.552386E+04  3.421910E+04
       246  25  2.359986E+05 -1.922431E+04 -4.023340E+04  1.562372E+05  2.155761E+03  2.939990E+04
       246  26  1.616301E+05 -2.060603E+04 -4.440560E+04  1.313826E+05  7.776258E+02  2.523286E+04
       246  27  1.147339E+05 -1.296965E+04 -4.353086E+04  9.205964E+04  6.087750E+03  1.214909E+04
       247   1  7.379989E+05  1.078567E+05  1.201395E+05  4.234877E+04  5.434817E+04 -2.319356E+03
       247   2  6.992141E+05  3.804438E+04  7.115692E+04  1.829545E+04  3.296319E+04 -6.922787E+03
       247   3  6.788647E+05  3.079886E+04  5.172981E+04  8.643513E+03  1.157990E+04 -6.340351E+03
       247   4  5.403286E+05  5.871276E+04  7.191001E+04  1.730172E+04  4.884094E+04 -2.320925E+03
       247   5  5.314618E+05 -3.175658E+03  3.268771E+04  1.009869E+04  3.142167E+04 -6.923259E+03
       247   6  5.403470E+05 -3.176740E+03  2.027487E+04  1.729618E+04  1.400295E+04 -6.340260E+03
       247   7  3.426953E+05  9.568320E+03  2.367815E+04 -7.737344E+03  4.333544E+04 -2.322052E+03
       247   8  3.637358E+05 -4.439740E+04 -5.783305E+03  1.904158E+03  2.988056E+04 -6.923690E+03
       247   9  4.018474E+05 -3.715338E+04 -1.118125E+04  2.594690E+04  1.642546E+04 -6.340103E+03
       247  10  7.379957E+05  1.078559E+05  1.201339E+05  4.234887E+04 -5.585714E-11  9.866358E-12
       247  11  6.992129E+05  3.804403E+04  7.115479E+04  1.829563E+04 -3.377566E-10  2.058967E-10
       247  12  6.788645E+05  3.079878E+04  5.172948E+04  8.643572E+03  3.052851E-10  6.672648E-12
       247  13  5.403260E+05  5.871212E+04  7.190552E+04  1.730181E+04 -3.295423E-10  8.556470E-11
       247  14  5.314608E+05 -3.175974E+03  3.268577E+04  1.009886E+04 -4.099484E-10  2.617835E-10
       247  15  5.403468E+05 -3.176836E+03  2.027443E+04  1.729625E+04 -1.539665E-11 -4.946780E-14
       247  16  3.426933E+05  9.567810E+03  2.367461E+04 -7.737263E+03  4.582621E-11  1.401772E-10
       247  17  3.637348E+05 -4.439769E+04 -5.785072E+03  1.904324E+03  2.805618E-11  2.802037E-10
       247  18  4.018471E+05 -3.715350E+04 -1.118183E+04  2.594698E+04 -1.552435E-10 -4.626093E-11
       247  19  7.379989E+05  1.078567E+05  1.201395E+05  4.234877E+04 -5.434817E+04  2.319356E+03
       247  20  6.992141E+05  3.804438E+04  7.115692E+04  1.829545E+04 -3.296319E+04  6.922787E+03
       247  21  6.788647E+05  3.079886E+04  5.172981E+04  8.643513E+03 -1.157990E+04  6.340351E+03
       247  22  5.403286E+05  5.871276E+04  7.191001E+04  1.730172E+04 -4.884094E+04  2.320925E+03
       247  23  5.314618E+05 -3.175658E+03  3.268771E+04  1.009869E+04 -3.142167E+04  6.923259E+03
       247  24  5.403470E+05 -3.176740E+03  2.027487E+04  1.729618E+04 -1.400295E+04  6.340260E+03
       247  25  3.426953E+05  9.568320E+03  2.367815E+04 -7.737344E+03 -4.333544E+04  2.322052E+03
       247  26  3.637358E+05 -4.439740E+04 -5.783305E+03  1.904158E+03 -2.988056E+04  6.923690E+03
       247  27  4.018474E+05 -3.715338E+04 -1.118125E+04  2.594690E+04 -1.642546E+04  6.340103E+03
       248   1  6.482795E+05  3.142655E+04  4.221622E+04  1.881926E+04  1.013953E+04 -4.888670E+03
       248   2  6.179420E+05  1.980880E+04  2.920871E+04  1.045540E+04  4.656730E+03 -3.678241E+03
       248   3  5.895251E+05  1.301077E+04  2.097328E+04  1.660599E+04 -8.258956E+02 -2.231865E+03
       248   4  5.368203E+05  4.066058E+03  1.679945E+04  1.732278E+04  1.097291E+04 -4.888722E+03
       248   5  5.358776E+05 -3.285320E+02  1.053377E+04  1.006564E+04  5.671120E+03 -3.678209E+03
       248   6  5.368233E+05  6.559016E+01  8.915127E+03  1.732299E+04  3.692438E+02 -2.231752E+03
       248   7  4.253726E+05 -2.329529E+04 -8.618119E+03  1.582657E+04  1.180615E+04 -4.888778E+03
       248   8  4.538194E+05 -2.046633E+04 -8.141606E+03  9.675933E+03  6.685377E+03 -3.678179E+03
       248   9  4.841241E+05 -1.287978E+04 -3.143205E+03  1.803994E+04  1.564283E+03 -2.231637E+03
       248  10  6.482794E+05  3.142650E+04  4.221598E+04  1.881930E+04 -5.057968E-11 -1.923318E-10
       248  11  6.179419E+05  1.980878E+04  2.920865E+04  1.045541E+04 -9.456892E-12 -1.424940E-10
       248  12  5.895251E+05  1.301077E+04  2.097327E+04  1.660598E+04 -1.650712E-10  1.614755E-10
       248  13  5.368202E+05  4.066000E+03  1.679918E+04  1.732283E+04 -1.196179E-10 -1.799030E-10
       248  14  5.358775E+05 -3.285552E+02  1.053368E+04  1.006566E+04 -1.401432E-11 -1.880573E-10
       248  15  5.368233E+05  6.558477E+01  8.915117E+03  1.732300E+04 -1.509449E-10 -5.718380E-11
       248  16  4.253725E+05 -2.329535E+04 -8.618426E+03  1.582662E+04 -5.326287E-11 -8.443012E-11
       248  17  4.538194E+05 -2.046636E+04 -8.141715E+03  9.675953E+03  2.550984E-10 -1.281930E-10
       248  18  4.841241E+05 -1.287979E+04 -3.143219E+03  1.803995E+04  2.447617E-10 -1.046943E-10
       248  19  6.482795E+05  3.142655E+04  4.221622E+04  1.881926E+04 -1.013953E+04  4.888670E+03
       248  20  6.179420E+05  1.980880E+04  2.920871E+04  1.045540E+04 -4.656730E+03  3.678241E+03
       248  21  5.895251E+05  1.301077E+04  2.097328E+04  1.660599E+04  8.258956E+02  2.231865E+03
       248  22  5.368203E+05  4.066058E+03  1.679945E+04  1.732278E+04 -1.097291E+04  4.888722E+03
       248  23  5.358776E+05 -3.285320E+02  1.053377E+04  1.006564E+04 -5.671120E+03  3.678209E+03
       248  24  5.368233E+05  6.559016E+01  8.915127E+03  1.732299E+04 -3.692438E+02  2.231752E+03
       248  25  4.253726E+05 -2.329529E+04 -8.618119E+03  1.582657E+04 -1.180615E+04  4.888778E+03
       248  26  4.538194E+05 -2.046633E+04 -8.141606E+03  9.675933E+03 -6.685377E+03  3.678179E+03
       248  27  4.841241E+05 -1.287978E+04 -3.143205E+03  1.803994E+04 -1.564283E+03  2.231637E+03
       249   1  5.626753E+05  6.321573E+03  1.484861E+04  1.813085E+04 -2.378584E+03 -1.316223E+03
       249   2  5.323214E+05 -1.220641E+03  1.050423E+04  9.645208E+03 -7.966639E+03  1.397245E+02
       249   3  5.040131E+05 -3.478117E+03  1.111609E+04  1.565570E+04 -1.355452E+04  1.453955E+03
       249   4  5.368628E+05  2.966702E+00  9.053301E+03  1.731896E+04 -1.212107E+03 -1.316090E+03
       249   5  5.358299E+05 -3.579053E+02  1.131097E+04  1.007069E+04 -6.908427E+03  1.398331E+02
       249   6  5.368607E+05  4.584837E+03  1.860005E+04  1.731849E+04 -1.260484E+04  1.454019E+03
       249   7  5.110509E+05 -6.315682E+03  3.257952E+03  1.650712E+04 -4.567874E+01 -1.315959E+03
       249   8  5.393384E+05  5.048309E+02  1.211771E+04  1.049617E+04 -5.850209E+03  1.399431E+02
       249   9  5.697094E+05  1.264773E+04  2.608394E+04  1.898137E+04 -1.165510E+04  1.454090E+03
       249  10  5.626752E+05  6.321569E+03  1.484860E+04  1.813084E+04  5.228814E-10  3.298111E-10
       249  11  5.323213E+05 -1.220658E+03  1.050411E+04  9.645209E+03  6.971906E-11 -3.942641E-11
       249  12  5.040129E+05 -3.478169E+03  1.111574E+04  1.565571E+04  1.112076E-11 -1.676632E-10
       249  13  5.368628E+05  2.964448E+00  9.053295E+03  1.731896E+04 -2.721154E-10  2.456719E-11
       249  14  5.358298E+05 -3.579181E+02  1.131088E+04  1.007069E+04  3.631116E-10 -5.490408E-11
       249  15  5.368606E+05  4.584792E+03  1.859974E+04  1.731850E+04 -2.297904E-10 -4.274181E-11
       249  16  5.110509E+05 -6.315683E+03  3.257948E+03  1.650712E+04 -2.264519E-10 -1.934912E-10
       249  17  5.393383E+05  5.048217E+02  1.211764E+04  1.049617E+04  1.984883E-12 -1.807299E-10
       249  18  5.697093E+05  1.264769E+04  2.608368E+04  1.898139E+04 -2.236899E-10 -5.871314E-11
       249  19  5.626753E+05  6.321573E+03  1.484861E+04  1.813085E+04  2.378584E+03  1.316223E+03
       249  20  5.323214E+05 -1.220641E+03  1.050423E+04  9.645208E+03  7.966639E+03 -1.397245E+02
       249  21  5.040131E+05 -3.478117E+03  1.111609E+04  1.565570E+04  1.355452E+04 -1.453955E+03
       249  22  5.368628E+05  2.966702E+00  9.053301E+03  1.731896E+04  1.212107E+03  1.316090E+03
       249  23  5.358299E+05 -3.579053E+02  1.131097E+04  1.007069E+04  6.908427E+03 -1.398331E+02
       249  24  5.368607E+05  4.584837E+03  1.860005E+04  1.731849E+04  1.260484E+04 -1.454019E+03
       249  25  5.110509E+05 -6.315682E+03  3.257952E+03  1.650712E+04  4.567874E+01  1.315959E+03
       249  26  5.393384E+05  5.048309E+02  1.211771E+04  1.049617E+04  5.850209E+03 -1.399431E+02
       249  27  5.697094E+05  1.264773E+04  2.608394E+04  1.898137E+04  1.165510E+04 -1.454090E+03
       250   1  4.810500E+05 -1.824077E+04  8.988424E+03  2.703532E+04 -1.790805E+04  2.686657E+03
       250   2  4.418692E+05 -2.544078E+04  1.623622E+04  8.685319E+02 -3.497707E+04  3.607849E+03
       250   3  4.222120E+05  3.655926E+04  5.189306E+04 -1.089519E+04 -5.204501E+04  1.286491E+03
       250   4  5.408380E+05 -3.571899E+03  2.259036E+04  1.729878E+04 -1.596699E+04  2.687116E+03
       250   5  5.308543E+05 -3.563941E+03  3.667699E+04  1.009616E+04 -3.551530E+04  3.607261E+03
       250   6  5.408189E+05  6.606729E+04  8.088989E+04  1.729597E+04 -5.506342E+04  1.284021E+03
       250   7  6.006296E+05  1.109708E+04  3.619213E+04  7.561304E+03 -1.402574E+04  2.687515E+03
       250   8  6.198469E+05  1.831267E+04  5.711727E+04  1.932512E+04 -3.605361E+04  3.606657E+03
       250   9  6.594403E+05  9.557726E+04  1.098861E+05  4.549251E+04 -5.808240E+04  1.281277E+03
       250  10  4.810496E+05 -1.824086E+04  8.987808E+03  2.703536E+04  1.378227E-10 -2.604811E-11
       250  11  4.418679E+05 -2.544113E+04  1.623390E+04  8.686335E+02  7.064343E-11 -4.895877E-11
       250  12  4.222091E+05  3.655854E+04  5.188797E+04 -1.089513E+04  5.405715E-11 -8.037375E-12
       250  13  5.408377E+05 -3.571975E+03  2.258987E+04  1.729882E+04 -4.567740E-10 -1.205672E-10
       250  14  5.308530E+05 -3.564294E+03  3.667459E+04  1.009626E+04  3.551804E-10  4.419337E-11
       250  15  5.408157E+05  6.606647E+04  8.088419E+04  1.729602E+04  3.639408E-10  6.095403E-11
       250  16  6.006294E+05  1.109702E+04  3.619175E+04  7.561335E+03 -1.405869E-10  7.579099E-11
       250  17  6.198455E+05  1.831231E+04  5.711481E+04  1.932522E+04 -5.164195E-10  1.454096E-11
       250  18  6.594367E+05  9.557635E+04  1.098798E+05  4.549257E+04  8.786191E-11  2.717983E-11
       250  19  4.810500E+05 -1.824077E+04  8.988424E+03  2.703532E+04  1.790805E+04 -2.686657E+03
       250  20  4.418692E+05 -2.544078E+04  1.623622E+04  8.685319E+02  3.497707E+04 -3.607849E+03
       250  21  4.222120E+05  3.655926E+04  5.189306E+04 -1.089519E+04  5.204501E+04 -1.286491E+03
       250  22  5.408380E+05 -3.571899E+03  2.259036E+04  1.729878E+04  1.596699E+04 -2.687116E+03
       250  23  5.308543E+05 -3.563941E+03  3.667699E+04  1.009616E+04  3.551530E+04 -3.607261E+03
       250  24  5.408189E+05  6.606729E+04  8.088989E+04  1.729597E+04  5.506342E+04 -1.284021E+03
       250  25  6.006296E+05  1.109708E+04  3.619213E+04  7.561304E+03  1.402574E+04 -2.687515E+03
       250  26  6.198469E+05  1.831267E+04  5.711727E+04  1.932512E+04  3.605361E+04 -3.606657E+03
       250  27  6.594403E+05  9.557726E+04  1.098861E+05  4.549251E+04  5.808240E+04 -1.281277E+03
       251   1 -1.054081E+05 -4.384518E+05 -1.289528E+05  6.895352E+04  1.449746E+03 -9.566020E+04
       251   2  1.431720E+04 -4.242453E+05 -5.364908E+04  2.606984E+04  4.889077E+03 -5.955799E+04
       251   3  2.744194E+04 -4.413915E+05 -2.850737E+04 -1.715343E+04  5.765352E+03 -2.345539E+04
       251   4 -1.302165E+05 -5.383604E+05 -1.528491E+05 -1.122461E+03  1.459687E+03 -1.010300E+05
       251   5 -9.517238E+03 -5.224098E+05 -7.455467E+04 -9.628940E+02  4.891393E+03 -6.200727E+04
       251   6  4.058141E+03 -5.383277E+05 -4.845735E+04 -1.140505E+03  5.764869E+03 -2.298374E+04
       251   7 -1.550072E+05 -6.382492E+05 -1.767433E+05 -7.118710E+04  1.470843E+03 -1.063990E+05
       251   8 -3.334955E+04 -6.205635E+05 -9.546040E+04 -2.799128E+04  4.893923E+03 -6.445617E+04
       251   9 -1.932528E+04 -6.352544E+05 -6.840770E+04  1.486988E+04  5.764410E+03 -2.251216E+04
       251  10 -1.054105E+05 -4.384617E+05 -1.289700E+05  6.895363E+04 -3.942127E-10 -4.063415E-10
       251  11  1.431622E+04 -4.242491E+05 -5.365579E+04  2.607007E+04 -3.297209E-10  1.556688E-10
       251  12  2.744175E+04 -4.413921E+05 -2.850846E+04 -1.715332E+04 -7.909134E-11  5.220681E-10
       251  13 -1.302193E+05 -5.383714E+05 -1.528683E+05 -1.122342E+03 -4.721732E-11  3.054602E-12
       251  14 -9.518297E+03 -5.224139E+05 -7.456194E+04 -9.626497E+02 -5.108443E-11 -1.670153E-10
       251  15  4.057964E+03 -5.383283E+05 -4.845840E+04 -1.140398E+03 -3.426683E-10 -5.098662E-11
       251  16 -1.550103E+05 -6.382614E+05 -1.767646E+05 -7.118698E+04 -1.384746E-10  4.173438E-10
       251  17 -3.335069E+04 -6.205680E+05 -9.546826E+04 -2.799103E+04 -1.661644E-10  8.926583E-11
       251  18 -1.932545E+04 -6.352550E+05 -6.840871E+04  1.486998E+04 -2.186556E-10 -5.518505E-10
       251  19 -1.054081E+05 -4.384518E+05 -1.289528E+05  6.895352E+04 -1.449746E+03  9.566020E+04
       251  20  1.431720E+04 -4.242453E+05 -5.364908E+04  2.606984E+04 -4.889077E+03  5.955799E+04
       251  21  2.744194E+04 -4.413915E+05 -2.850737E+04 -1.715343E+04 -5.765352E+03  2.345539E+04
       251  22 -1.302165E+05 -5.383604E+05 -1.528491E+05 -1.122461E+03 -1.459687E+03  1.010300E+05
       251  23 -9.517238E+03 -5.224098E+05 -7.455467E+04 -9.628940E+02 -4.891393E+03  6.200727E+04
       251  24  4.058141E+03 -5.383277E+05 -4.845735E+04 -1.140505E+03 -5.764869E+03  2.298374E+04
       251  25 -1.550072E+05 -6.382492E+05 -1.767433E+05 -7.118710E+04 -1.470843E+03  1.063990E+05
       251  26 -3.334955E+04 -6.205635E+05 -9.546040E+04 -2.799128E+04 -4.893923E+03  6.445617E+04
       251  27 -1.932528E+04 -6.352544E+05 -6.840770E+04  1.486988E+04 -5.764410E+03  2.251216E+04
       252   1  1.809411E+04 -4.366095E+05 -2.278466E+04  1.903953E+03  5.597295E+03 -1.561709E+04
       252   2  2.248737E+04 -4.356425E+05 -1.763853E+04 -9.639554E+02  5.640960E+03  2.583996E+03
       252   3  1.645094E+04 -4.396523E+05 -2.695388E+04 -4.335673E+03  5.432556E+03  2.078501E+04
       252   4 -5.024922E+03 -5.323680E+05 -4.256629E+04 -1.173473E+03  5.597422E+03 -1.580729E+04
       252   5 -2.377759E+02 -5.298546E+05 -3.700191E+04 -9.215011E+02  5.641034E+03  2.679388E+03
       252   6 -5.930953E+03 -5.323684E+05 -4.609890E+04 -1.173348E+03  5.432742E+03  2.116604E+04
       252   7 -2.814450E+04 -6.281177E+05 -6.234842E+04 -4.250415E+03  5.597550E+03 -1.599747E+04
       252   8 -2.296348E+04 -6.240583E+05 -5.636577E+04 -8.790534E+02  5.641108E+03  2.774766E+03
       252   9 -2.831335E+04 -6.250763E+05 -6.524437E+04  1.988496E+03  5.432933E+03  2.154702E+04
       252  10  1.809401E+04 -4.366098E+05 -2.278517E+04  1.904023E+03  9.750916E-11  5.814191E-11
       252  11  2.248733E+04 -4.356426E+05 -1.763860E+04 -9.639672E+02 -2.654941E-10  1.527377E-10
       252  12  1.645079E+04 -4.396528E+05 -2.695475E+04 -4.335764E+03 -2.739574E-11  2.631110E-11
       252  13 -5.025022E+03 -5.323682E+05 -4.256682E+04 -1.173401E+03  3.041059E-10 -6.431076E-12
       252  14 -2.378119E+02 -5.298546E+05 -3.700198E+04 -9.215132E+02  3.401372E-10 -1.707076E-10
       252  15 -5.931105E+03 -5.323689E+05 -4.609979E+04 -1.173441E+03  4.707526E-10  5.537841E-12
       252  16 -2.814460E+04 -6.281179E+05 -6.234896E+04 -4.250343E+03 -1.031146E-10 -1.085623E-10
       252  17 -2.296352E+04 -6.240583E+05 -5.636584E+04 -8.790660E+02  2.414510E-10 -2.764882E-10
       252  18 -2.831351E+04 -6.250768E+05 -6.524530E+04  1.988401E+03  1.568091E-11 -1.758032E-10
       252  19  1.809411E+04 -4.366095E+05 -2.278466E+04  1.903953E+03 -5.597295E+03  1.561709E+04
       252  20  2.248737E+04 -4.356425E+05 -1.763853E+04 -9.639554E+02 -5.640960E+03 -2.583996E+03
       252  21  1.645094E+04 -4.396523E+05 -2.695388E+04 -4.335673E+03 -5.432556E+03 -2.078501E+04
       252  22 -5.024922E+03 -5.323680E+05 -4.256629E+04 -1.173473E+03 -5.597422E+03  1.580729E+04
       252  23 -2.377759E+02 -5.298546E+05 -3.700191E+04 -9.215011E+02 -5.641034E+03 -2.679388E+03
       252  24 -5.930953E+03 -5.323684E+05 -4.609890E+04 -1.173348E+03 -5.432742E+03 -2.116604E+04
       252  25 -2.814450E+04 -6.281177E+05 -6.234842E+04 -4.250415E+03 -5.597550E+03  1.599747E+04
       252  26 -2.296348E+04 -6.240583E+05 -5.636577E+04 -8.790534E+02 -5.641108E+03 -2.774766E+03
       252  27 -2.831335E+04 -6.250763E+05 -6.524437E+04  1.988496E+03 -5.432933E+03 -2.154702E+04
       253   1  2.686602E+04 -4.477926E+05 -3.495973E+04  1.749221E+04  5.472390E+03  2.919657E+04
       253   2  1.074609E+04 -4.311368E+05 -6.628368E+04 -3.214647E+04  4.525678E+03  7.136604E+04
       253   3 -1.291485E+05 -4.509181E+05 -1.560138E+05 -8.242582E+04  1.329790E+03  1.135353E+05
       253   4  4.753895E+03 -5.394434E+05 -5.381008E+04 -1.205023E+03  5.471567E+03  2.899024E+04
       253   5 -1.106195E+04 -5.210165E+05 -8.539153E+04 -8.821211E+02  4.529342E+03  7.371929E+04
       253   6 -1.511160E+05 -5.394811E+05 -1.771637E+05 -1.203216E+03  1.344584E+03  1.184479E+05
       253   7 -1.735745E+04 -6.310855E+05 -7.266069E+04 -1.989944E+04  5.470756E+03  2.878393E+04
       253   8 -3.286682E+04 -6.108864E+05 -1.044993E+05  3.037763E+04  4.533243E+03  7.607220E+04
       253   9 -1.730592E+05 -6.280228E+05 -1.983105E+05  8.000774E+04  1.360666E+03  1.233598E+05
       253  10  2.686576E+04 -4.477935E+05 -3.496139E+04  1.749208E+04  1.178721E-10  4.882394E-10
       253  11  1.074470E+04 -4.311423E+05 -6.629330E+04 -3.214673E+04  3.254557E-10  2.325902E-10
       253  12 -1.291520E+05 -4.509319E+05 -1.560380E+05 -8.242594E+04  6.878201E-11 -2.560518E-10
       253  13  4.753637E+03 -5.394443E+05 -5.381171E+04 -1.205150E+03  5.378737E-11 -1.407915E-10
       253  14 -1.106343E+04 -5.210223E+05 -8.540179E+04 -8.823901E+02  1.357409E-10 -1.905266E-10
       253  15 -1.511198E+05 -5.394962E+05 -1.771901E+05 -1.203344E+03  3.637381E-10  1.722401E-11
       253  16 -1.735770E+04 -6.310864E+05 -7.266230E+04 -1.989957E+04 -2.232024E-12 -5.066558E-10
       253  17 -3.286840E+04 -6.108927E+05 -1.045102E+05  3.037736E+04 -1.575260E-10 -8.651765E-11
       253  18 -1.730633E+05 -6.280392E+05 -1.983391E+05  8.000761E+04 -1.206438E-10  2.708302E-10
       253  19  2.686602E+04 -4.477926E+05 -3.495973E+04  1.749221E+04 -5.472390E+03 -2.919657E+04
       253  20  1.074609E+04 -4.311368E+05 -6.628368E+04 -3.214647E+04 -4.525678E+03 -7.136604E+04
       253  21 -1.291485E+05 -4.509181E+05 -1.560138E+05 -8.242582E+04 -1.329790E+03 -1.135353E+05
       253  22  4.753895E+03 -5.394434E+05 -5.381008E+04 -1.205023E+03 -5.471567E+03 -2.899024E+04
       253  23 -1.106195E+04 -5.210165E+05 -8.539153E+04 -8.821211E+02 -4.529342E+03 -7.371929E+04
       253  24 -1.511160E+05 -5.394811E+05 -1.771637E+05 -1.203216E+03 -1.344584E+03 -1.184479E+05
       253  25 -1.735745E+04 -6.310855E+05 -7.266069E+04 -1.989944E+04 -5.470756E+03 -2.878393E+04
       253  26 -3.286682E+04 -6.108864E+05 -1.044993E+05  3.037763E+04 -4.533243E+03 -7.607220E+04
       253  27 -1.730592E+05 -6.280228E+05 -1.983105E+05  8.000774E+04 -1.360666E+03 -1.233598E+05
       254   1  2.811368E+05  2.010217E+05  5.139349E+04  1.887506E+05  2.764003E+04  1.968179E+04
       254   2  2.865909E+05  1.749247E+05  2.987996E+04  2.006637E+05  1.924280E+04  1.055600E+04
       254   3  3.054194E+05  1.623879E+05  2.137097E+04  2.055087E+05  1.028787E+04  2.173758E+03
       254   4  2.719738E+05  1.546417E+05  4.126328E+04  1.657836E+05  2.355311E+04  1.661616E+04
       254   5  2.590289E+05  1.366083E+05  2.033145E+04  1.778703E+05  1.654739E+04  8.534655E+03
       254   6  2.591564E+05  1.318337E+05  1.119672E+04  1.828885E+05  8.984331E+03  1.196412E+03
       254   7  2.628117E+05  1.082650E+05  3.113318E+04  1.428172E+05  1.946617E+04  1.355102E+04
       254   8  2.314675E+05  9.829362E+04  1.078271E+04  1.550780E+05  1.385208E+04  6.513548E+03
       254   9  2.128950E+05  1.012801E+05  1.022107E+03  1.602698E+05  7.680900E+03  2.191394E+02
       254  10  2.811359E+05  2.010210E+05  5.139133E+04  1.887502E+05 -1.133190E-10 -2.550274E-11
       254  11  2.865905E+05  1.749244E+05  2.987906E+04  2.006636E+05  3.877336E-10  5.789050E-11
       254  12  3.054193E+05  1.623878E+05  2.137076E+04  2.055087E+05  8.774922E-10  5.203946E-11
       254  13  2.719731E+05  1.546412E+05  4.126172E+04  1.657833E+05 -1.530311E-10 -9.139375E-12
       254  14  2.590286E+05  1.366082E+05  2.033080E+04  1.778701E+05 -2.050398E-10 -3.715167E-11
       254  15  2.591563E+05  1.318336E+05  1.119656E+04  1.828885E+05 -8.625224E-11 -4.761959E-11
       254  16  2.628112E+05  1.082647E+05  3.113212E+04  1.428170E+05 -7.382189E-11  1.000501E-10
       254  17  2.314673E+05  9.829353E+04  1.078227E+04  1.550779E+05 -4.415301E-10  6.302451E-12
       254  18  2.128950E+05  1.012801E+05  1.021996E+03  1.602698E+05 -9.385221E-10 -1.352587E-10
       254  19  2.811368E+05  2.010217E+05  5.139349E+04  1.887506E+05 -2.764003E+04 -1.968179E+04
       254  20  2.865909E+05  1.749247E+05  2.987996E+04  2.006637E+05 -1.924280E+04 -1.055600E+04
       254  21  3.054194E+05  1.623879E+05  2.137097E+04  2.055087E+05 -1.028787E+04 -2.173758E+03
       254  22  2.719738E+05  1.546417E+05  4.126328E+04  1.657836E+05 -2.355311E+04 -1.661616E+04
       254  23  2.590289E+05  1.366083E+05  2.033145E+04  1.778703E+05 -1.654739E+04 -8.534655E+03
       254  24  2.591564E+05  1.318337E+05  1.119672E+04  1.828885E+05 -8.984331E+03 -1.196412E+03
       254  25  2.628117E+05  1.082650E+05  3.113318E+04  1.428172E+05 -1.946617E+04 -1.355102E+04
       254  26  2.314675E+05  9.829362E+04  1.078271E+04  1.550780E+05 -1.385208E+04 -6.513548E+03
       254  27  2.128950E+05  1.012801E+05  1.022107E+03  1.602698E+05 -7.680900E+03 -2.191394E+02
       255   1  3.065604E+05  1.668405E+05  1.953093E+04  2.076057E+05  9.453056E+03  9.476619E+02
       255   2  3.118436E+05  1.704558E+05  1.704861E+04  2.116301E+05  7.866946E+03 -1.306140E+03
       255   3  3.197755E+05  1.733802E+05  1.659516E+04  2.148394E+05  6.221609E+03 -3.480852E+03
       255   4  2.583146E+05  1.313639E+05  8.537866E+03  1.823000E+05  8.102747E+03 -6.481122E+01
       255   5  2.566381E+05  1.310700E+05  4.878899E+03  1.831991E+05  6.664841E+03 -2.207524E+03
       255   6  2.575782E+05  1.300534E+05  3.120445E+03  1.832831E+05  5.167716E+03 -4.271147E+03
       255   7  2.100726E+05  9.588954E+04 -2.454962E+03  1.569972E+05  6.752605E+03 -1.077153E+03
       255   8  2.014368E+05  9.168661E+04 -7.290746E+03  1.547714E+05  5.462892E+03 -3.108791E+03
       255   9  1.953855E+05  8.672903E+04 -1.035442E+04  1.517305E+05  4.113964E+03 -5.061338E+03
       255  10  3.065603E+05  1.668405E+05  1.953076E+04  2.076057E+05 -5.107499E-12 -1.787582E-10
       255  11  3.118435E+05  1.704557E+05  1.704849E+04  2.116301E+05  3.852625E-10  5.890785E-14
       255  12  3.197754E+05  1.733802E+05  1.659506E+04  2.148394E+05  1.859861E-11  7.187312E-11
       255  13  2.583146E+05  1.313638E+05  8.537743E+03  1.823000E+05  1.683053E-10 -1.824817E-11
       255  14  2.566380E+05  1.310700E+05  4.878806E+03  1.831991E+05 -3.219211E-10  1.087318E-10
       255  15  2.575781E+05  1.300534E+05  3.120361E+03  1.832831E+05  7.281251E-11  1.133546E-11
       255  16  2.100725E+05  9.588953E+04 -2.455050E+03  1.569973E+05 -1.014719E-10  8.645629E-11
       255  17  2.014367E+05  9.168660E+04 -7.290820E+03  1.547714E+05 -1.613871E-10 -4.570439E-11
       255  18  1.953855E+05  8.672900E+04 -1.035450E+04  1.517305E+05 -4.398195E-10 -6.799012E-12
       255  19  3.065604E+05  1.668405E+05  1.953093E+04  2.076057E+05 -9.453056E+03 -9.476619E+02
       255  20  3.118436E+05  1.704558E+05  1.704861E+04  2.116301E+05 -7.866946E+03  1.306140E+03
       255  21  3.197755E+05  1.733802E+05  1.659516E+04  2.148394E+05 -6.221609E+03  3.480852E+03
       255  22  2.583146E+05  1.313639E+05  8.537866E+03  1.823000E+05 -8.102747E+03  6.481122E+01
       255  23  2.566381E+05  1.310700E+05  4.878899E+03  1.831991E+05 -6.664841E+03  2.207524E+03
       255  24  2.575782E+05  1.300534E+05  3.120445E+03  1.832831E+05 -5.167716E+03  4.271147E+03
       255  25  2.100726E+05  9.588954E+04 -2.454962E+03  1.569972E+05 -6.752605E+03  1.077153E+03
       255  26  2.014368E+05  9.168661E+04 -7.290746E+03  1.547714E+05 -5.462892E+03  3.108791E+03
       255  27  1.953855E+05  8.672903E+04 -1.035442E+04  1.517305E+05 -4.113964E+03  5.061338E+03
       256   1  3.236355E+05  1.764186E+05  1.705057E+04  2.169307E+05  6.070104E+03 -4.105152E+03
       256   2  3.290695E+05  1.817537E+05  1.809346E+04  2.204659E+05  5.494134E+03 -5.393057E+03
       256   3  3.364482E+05  1.855211E+05  1.998230E+04  2.235054E+05  4.890175E+03 -6.643631E+03
       256   4  2.575174E+05  1.300255E+05  2.656929E+03  1.832319E+05  5.009191E+03 -4.900742E+03
       256   5  2.565528E+05  1.308179E+05  2.313538E+03  1.834785E+05  4.503251E+03 -6.136195E+03
       256   6  2.575177E+05  1.300273E+05  2.755392E+03  1.832292E+05  3.969348E+03 -7.334284E+03
       256   7  1.914032E+05  8.363415E+04 -1.173737E+04  1.495366E+05  3.948409E+03 -5.696234E+03
       256   8  1.840423E+05  7.988548E+04 -1.346662E+04  1.464961E+05  3.512522E+03 -6.879217E+03
       256   9  1.785961E+05  7.453846E+04 -1.447126E+04  1.429599E+05  3.048694E+03 -8.024807E+03
       256  10  3.236355E+05  1.764185E+05  1.705047E+04  2.169307E+05 -1.835164E-10 -5.619347E-12
       256  11  3.290695E+05  1.817536E+05  1.809335E+04  2.204659E+05  2.379392E-10  1.471996E-10
       256  12  3.364482E+05  1.855211E+05  1.998217E+04  2.235054E+05  7.051894E-10  1.431334E-10
       256  13  2.575174E+05  1.300254E+05  2.656836E+03  1.832319E+05 -3.904028E-11  4.648898E-11
       256  14  2.565528E+05  1.308179E+05  2.313429E+03  1.834785E+05 -1.365497E-10 -5.799233E-11
       256  15  2.575177E+05  1.300272E+05  2.755261E+03  1.832293E+05 -1.198225E-10 -1.232963E-10
       256  16  1.914032E+05  8.363411E+04 -1.173746E+04  1.495366E+05  8.737217E-11  1.655548E-10
       256  17  1.840423E+05  7.988543E+04 -1.346674E+04  1.464962E+05 -3.286847E-10 -1.127490E-10
       256  18  1.785961E+05  7.453839E+04 -1.447140E+04  1.429599E+05 -4.338135E-10 -3.786051E-10
       256  19  3.236355E+05  1.764186E+05  1.705057E+04  2.169307E+05 -6.070104E+03  4.105152E+03
       256  20  3.290695E+05  1.817537E+05  1.809346E+04  2.204659E+05 -5.494134E+03  5.393057E+03
       256  21  3.364482E+05  1.855211E+05  1.998230E+04  2.235054E+05 -4.890175E+03  6.643631E+03
       256  22  2.575174E+05  1.300255E+05  2.656929E+03  1.832319E+05 -5.009191E+03  4.900742E+03
       256  23  2.565528E+05  1.308179E+05  2.313538E+03  1.834785E+05 -4.503251E+03  6.136195E+03
       256  24  2.575177E+05  1.300273E+05  2.755392E+03  1.832292E+05 -3.969348E+03  7.334284E+03
       256  25  1.914032E+05  8.363415E+04 -1.173737E+04  1.495366E+05 -3.948409E+03  5.696234E+03
       256  26  1.840423E+05  7.988548E+04 -1.346662E+04  1.464961E+05 -3.512522E+03  6.879217E+03
       256  27  1.785961E+05  7.453846E+04 -1.447126E+04  1.429599E+05 -3.048694E+03  8.024807E+03
       257   1  3.404456E+05  1.886576E+05  2.147242E+04  2.257183E+05  4.713092E+03 -7.245149E+03
       257   2  3.465456E+05  1.935948E+05  2.506253E+04  2.286689E+05  2.358137E+03 -9.567974E+03
       257   3  3.554164E+05  1.980317E+05  3.115420E+04  2.307898E+05 -2.153144E+02 -1.159948E+04
       257   4  2.575786E+05  1.300640E+05  3.277493E+03  1.832885E+05  3.773194E+03 -7.950132E+03
       257   5  2.566471E+05  1.310755E+05  5.198209E+03  1.831765E+05  1.964130E+03 -9.863653E+03
       257   6  2.583681E+05  1.314685E+05  9.147208E+03  1.822347E+05 -6.342941E+01 -1.148582E+04
       257   7  1.747196E+05  7.147473E+04 -1.491779E+04  1.408653E+05  2.833462E+03 -8.654990E+03
       257   8  1.667571E+05  6.856044E+04 -1.466685E+04  1.376912E+05  1.570196E+03 -1.015928E+04
       257   9  1.613287E+05  6.490945E+04 -1.286100E+04  1.336874E+05  8.842705E+01 -1.137217E+04
       257  10  3.404456E+05  1.886575E+05  2.147228E+04  2.257183E+05  1.004595E-10 -2.994503E-10
       257  11  3.465456E+05  1.935947E+05  2.506235E+04  2.286689E+05  3.803192E-10  2.758056E-11
       257  12  3.554163E+05  1.980316E+05  3.115395E+04  2.307898E+05  6.524101E-11  3.837974E-11
       257  13  2.575785E+05  1.300639E+05  3.277348E+03  1.832885E+05 -3.040388E-11 -2.139669E-10
       257  14  2.566471E+05  1.310754E+05  5.198019E+03  1.831765E+05 -2.665301E-10 -4.155493E-11
       257  15  2.583680E+05  1.314684E+05  9.146960E+03  1.822347E+05 -1.643230E-10 -1.477619E-10
       257  16  1.747196E+05  7.147465E+04 -1.491794E+04  1.408653E+05 -1.016626E-11 -1.129520E-10
       257  17  1.667571E+05  6.856033E+04 -1.466705E+04  1.376913E+05 -1.981169E-10 -2.090047E-10
       257  18  1.613287E+05  6.490931E+04 -1.286124E+04  1.336874E+05  4.607538E-11 -1.712156E-10
       257  19  3.404456E+05  1.886576E+05  2.147242E+04  2.257183E+05 -4.713092E+03  7.245149E+03
       257  20  3.465456E+05  1.935948E+05  2.506253E+04  2.286689E+05 -2.358137E+03  9.567974E+03
       257  21  3.554164E+05  1.980317E+05  3.115420E+04  2.307898E+05  2.153144E+02  1.159948E+04
       257  22  2.575786E+05  1.300640E+05  3.277493E+03  1.832885E+05 -3.773194E+03  7.950132E+03
       257  23  2.566471E+05  1.310755E+05  5.198209E+03  1.831765E+05 -1.964130E+03  9.863653E+03
       257  24  2.583681E+05  1.314685E+05  9.147208E+03  1.822347E+05  6.342941E+01  1.148582E+04
       257  25  1.747196E+05  7.147473E+04 -1.491779E+04  1.408653E+05 -2.833462E+03  8.654990E+03
       257  26  1.667571E+05  6.856044E+04 -1.466685E+04  1.376912E+05 -1.570196E+03  1.015928E+04
       257  27  1.613287E+05  6.490945E+04 -1.286100E+04  1.336874E+05 -8.842705E+01  1.137217E+04
       258   1  3.583189E+05  2.038807E+05  3.535529E+04  2.342280E+05 -1.225548E+03 -1.249508E+04
       258   2  3.778267E+05  2.002691E+05  4.940839E+04  2.277509E+05 -1.656626E+04 -2.180669E+04
       258   3  4.120816E+05  2.124930E+05  8.073459E+04  2.138120E+05 -3.403381E+04 -2.828327E+04
       258   4  2.592059E+05  1.320362E+05  1.200884E+04  1.828849E+05 -1.250470E+03 -1.251399E+04
       258   5  2.592930E+05  1.369390E+05  2.182928E+04  1.774291E+05 -1.128163E+04 -1.784413E+04
       258   6  2.729770E+05  1.565276E+05  4.431818E+04  1.645112E+05 -2.343904E+04 -2.033936E+04
       258   7  1.601060E+05  6.019940E+04 -1.133764E+04  1.315523E+05 -1.275387E+03 -1.253289E+04
       258   8  1.407776E+05  7.361429E+04 -5.749901E+03  1.271178E+05 -5.998470E+03 -1.388233E+04
       258   9  1.338971E+05  1.005661E+05  7.901798E+03  1.152207E+05 -1.284776E+04 -1.239669E+04
       258  10  3.583189E+05  2.038805E+05  3.535500E+04  2.342280E+05  2.479800E-11 -7.795056E-11
       258  11  3.778262E+05  2.002686E+05  4.940698E+04  2.277506E+05  9.846068E-11 -1.344022E-10
       258  12  4.120801E+05  2.124919E+05  8.073091E+04  2.138112E+05 -8.654611E-11 -4.384837E-11
       258  13  2.592058E+05  1.320360E+05  1.200854E+04  1.828849E+05  1.724789E-10 -1.471073E-10
       258  14  2.592927E+05  1.369386E+05  2.182844E+04  1.774289E+05 -2.237415E-10 -1.085613E-10
       258  15  2.729763E+05  1.565270E+05  4.431637E+04  1.645108E+05  4.570125E-11 -2.132092E-12
       258  16  1.601059E+05  6.019924E+04 -1.133794E+04  1.315523E+05 -1.228429E-10 -1.740184E-10
       258  17  1.407775E+05  7.361407E+04 -5.750331E+03  1.271178E+05  8.516057E-11  2.113335E-11
       258  18  1.338969E+05  1.005659E+05  7.901199E+03  1.152206E+05  2.134820E-10  1.025807E-10
       258  19  3.583189E+05  2.038807E+05  3.535529E+04  2.342280E+05  1.225548E+03  1.249508E+04
       258  20  3.778267E+05  2.002691E+05  4.940839E+04  2.277509E+05  1.656626E+04  2.180669E+04
       258  21  4.120816E+05  2.124930E+05  8.073459E+04  2.138120E+05  3.403381E+04  2.828327E+04
       258  22  2.592059E+05  1.320362E+05  1.200884E+04  1.828849E+05  1.250470E+03  1.251399E+04
       258  23  2.592930E+05  1.369390E+05  2.182928E+04  1.774291E+05  1.128163E+04  1.784413E+04
       258  24  2.729770E+05  1.565276E+05  4.431818E+04  1.645112E+05  2.343904E+04  2.033936E+04
       258  25  1.601060E+05  6.019940E+04 -1.133764E+04  1.315523E+05  1.275387E+03  1.253289E+04
       258  26  1.407776E+05  7.361429E+04 -5.749901E+03  1.271178E+05  5.998470E+03  1.388233E+04
       258  27  1.338971E+05  1.005661E+05  7.901798E+03  1.152207E+05  1.284776E+04  1.239669E+04
       259   1  5.236045E+05  8.005819E+04  8.187922E+04  5.844177E+04  4.611329E+04 -1.540141E+03
       259   2  4.979097E+05  4.108212E+04  4.616111E+04  4.092273E+04  2.683608E+04 -4.979638E+03
       259   3  4.804548E+05  2.503271E+04  2.871794E+04  2.706340E+04  7.560091E+03 -5.523309E+03
       259   4  3.914430E+05  4.746094E+04  5.100218E+04  2.682738E+04  3.567104E+04 -1.542901E+03
       259   5  3.878646E+05  1.496795E+04  2.558972E+04  2.499901E+04  2.258245E+04 -4.980620E+03
       259   6  3.914530E+05  4.329342E+03  1.415866E+04  2.682944E+04  9.494152E+03 -5.523252E+03
       259   7  2.593000E+05  1.486626E+04  2.012489E+04 -4.780238E+03  2.523100E+04 -1.544599E+03
       259   8  2.778318E+05 -1.114596E+04  5.018017E+03  9.078180E+03  1.832956E+04 -4.981385E+03
       259   9  3.024590E+05 -1.637443E+04 -4.008350E+02  2.659551E+04  1.142795E+04 -5.523196E+03
       259  10  5.236022E+05  8.005762E+04  8.187522E+04  5.844183E+04 -3.132916E-10  7.209694E-12
       259  11  4.979089E+05  4.108190E+04  4.615971E+04  4.092284E+04 -9.168087E-11  6.065437E-11
       259  12  4.804548E+05  2.503266E+04  2.871778E+04  2.706343E+04 -5.151533E-11  1.702726E-10
       259  13  3.914416E+05  4.746059E+04  5.099978E+04  2.682743E+04  1.003524E-11  1.306247E-12
       259  14  3.878641E+05  1.496779E+04  2.558872E+04  2.499910E+04 -7.114928E-11  3.571344E-11
       259  15  3.914529E+05  4.329286E+03  1.415843E+04  2.682948E+04  3.712115E-10  1.957116E-10
       259  16  2.592993E+05  1.486608E+04  2.012369E+04 -4.780206E+03  2.978848E-10 -6.179633E-12
       259  17  2.778315E+05 -1.114607E+04  5.017339E+03  9.078254E+03  8.789653E-11  8.392378E-11
       259  18  3.024588E+05 -1.637450E+04 -4.011376E+02  2.659556E+04  9.745485E-11  1.128258E-10
       259  19  5.236045E+05  8.005819E+04  8.187922E+04  5.844177E+04 -4.611329E+04  1.540141E+03
       259  20  4.979097E+05  4.108212E+04  4.616111E+04  4.092273E+04 -2.683608E+04  4.979638E+03
       259  21  4.804548E+05  2.503271E+04  2.871794E+04  2.706340E+04 -7.560091E+03  5.523309E+03
       259  22  3.914430E+05  4.746094E+04  5.100218E+04  2.682738E+04 -3.567104E+04  1.542901E+03
       259  23  3.878646E+05  1.496795E+04  2.558972E+04  2.499901E+04 -2.258245E+04  4.980620E+03
       259  24  3.914530E+05  4.329342E+03  1.415866E+04  2.682944E+04 -9.494152E+03  5.523252E+03
       259  25  2.593000E+05  1.486626E+04  2.012489E+04 -4.780238E+03 -2.523100E+04  1.544599E+03
       259  26  2.778318E+05 -1.114596E+04  5.018017E+03  9.078180E+03 -1.832956E+04  4.981385E+03
       259  27  3.024590E+05 -1.637443E+04 -4.008350E+02  2.659551E+04 -1.142795E+04  5.523196E+03
       260   1  4.653872E+05  2.086236E+04  2.287271E+04  2.875027E+04  5.669229E+03 -4.883816E+03
       260   2  4.433337E+05  1.328563E+04  1.463745E+04  2.578296E+04  1.731074E+03 -3.805584E+03
       260   3  4.222863E+05  7.683790E+03  9.458329E+03  2.667973E+04 -2.207051E+03 -2.406106E+03
       260   4  3.900575E+05  3.397022E+03  1.084029E+04  2.687505E+04  7.629987E+03 -4.883740E+03
       260   5  3.896149E+05  9.204352E+02  6.505375E+03  2.494313E+04  4.378556E+03 -3.805400E+03
       260   6  3.900593E+05  2.998189E+02  4.750295E+03  2.687529E+04  1.127036E+03 -2.405813E+03
       260   7  3.147336E+05 -1.406858E+04 -1.192252E+03  2.500006E+04  9.590515E+03 -4.883675E+03
       260   8  3.358990E+05 -1.144489E+04 -1.626735E+03  2.410338E+04  7.025817E+03 -3.805223E+03
       260   9  3.578333E+05 -7.084194E+03  4.228490E+01  2.707084E+04  4.460956E+03 -2.405518E+03
       260  10  4.653871E+05  2.086232E+04  2.287260E+04  2.875029E+04 -1.017458E-10  1.500026E-10
       260  11  4.433337E+05  1.328561E+04  1.463742E+04  2.578297E+04  2.850412E-11  2.003282E-10
       260  12  4.222863E+05  7.683783E+03  9.458309E+03  2.667972E+04 -9.968016E-11  7.129898E-11
       260  13  3.900575E+05  3.396981E+03  1.084014E+04  2.687508E+04  2.749014E-10  1.723412E-10
       260  14  3.896149E+05  9.204145E+02  6.505311E+03  2.494315E+04  6.619312E-11  1.566833E-10
       260  15  3.900593E+05  2.998124E+02  4.750282E+03  2.687529E+04  1.733465E-11 -2.733120E-11
       260  16  3.147335E+05 -1.406863E+04 -1.192469E+03  2.500010E+04  5.431124E-11  3.460048E-11
       260  17  3.358990E+05 -1.144492E+04 -1.626855E+03  2.410340E+04  2.243743E-10  3.345276E-11
       260  18  3.578332E+05 -7.084206E+03  4.223665E+01  2.707085E+04  2.457586E-10  4.445922E-12
       260  19  4.653872E+05  2.086236E+04  2.287271E+04  2.875027E+04 -5.669229E+03  4.883816E+03
       260  20  4.433337E+05  1.328563E+04  1.463745E+04  2.578296E+04 -1.731074E+03  3.805584E+03
       260  21  4.222863E+05  7.683790E+03  9.458329E+03  2.667973E+04  2.207051E+03  2.406106E+03
       260  22  3.900575E+05  3.397022E+03  1.084029E+04  2.687505E+04 -7.629987E+03  4.883740E+03
       260  23  3.896149E+05  9.204352E+02  6.505375E+03  2.494313E+04 -4.378556E+03  3.805400E+03
       260  24  3.900593E+05  2.998189E+02  4.750295E+03  2.687529E+04 -1.127036E+03  2.405813E+03
       260  25  3.147336E+05 -1.406858E+04 -1.192252E+03  2.500006E+04 -9.590515E+03  4.883675E+03
       260  26  3.358990E+05 -1.144489E+04 -1.626735E+03  2.410338E+04 -7.025817E+03  3.805223E+03
       260  27  3.578333E+05 -7.084194E+03  4.228490E+01  2.707084E+04 -4.460956E+03  2.405518E+03
       261   1  4.087188E+05  4.550020E+03  7.112502E+03  2.697980E+04 -2.996030E+03 -1.476706E+03
       261   2  3.868768E+05 -8.952145E+01  4.361303E+03  2.434502E+04 -5.145394E+03 -5.051154E+00
       261   3  3.656255E+05 -3.485427E+03  3.319599E+03  2.558280E+04 -7.294686E+03  1.288301E+03
       261   4  3.900081E+05  2.850274E+02  4.489673E+03  2.687717E+04  3.390975E+02 -1.476397E+03
       261   5  3.896797E+05  6.123108E+02  5.068087E+03  2.494083E+04 -2.191274E+03 -4.784479E+00
       261   6  3.900076E+05  2.249345E+03  7.620417E+03  2.687702E+04 -4.721641E+03  1.288521E+03
       261   7  3.712979E+05 -3.979975E+03  1.866882E+03  2.677454E+04  3.674129E+03 -1.476089E+03
       261   8  3.924827E+05  1.314148E+03  5.774904E+03  2.553664E+04  7.628608E+02 -4.512138E+00
       261   9  4.143903E+05  7.984095E+03  1.192124E+04  2.817129E+04 -2.148498E+03  1.288752E+03
       261  10  4.087188E+05  4.550015E+03  7.112481E+03  2.697980E+04  2.728755E-10  2.005953E-11
       261  11  3.868767E+05 -8.952856E+01  4.361253E+03  2.434502E+04 -1.534222E-10 -2.422395E-10
       261  12  3.656254E+05 -3.485443E+03  3.319496E+03  2.558281E+04 -1.314846E-10 -1.578466E-10
       261  13  3.900081E+05  2.850250E+02  4.489669E+03  2.687717E+04 -2.524737E-11 -7.520890E-11
       261  14  3.896797E+05  6.123095E+02  5.068078E+03  2.494083E+04  2.655454E-10 -1.825959E-10
       261  15  3.900075E+05  2.249338E+03  7.620372E+03  2.687702E+04 -1.089912E-10 -1.477376E-10
       261  16  3.712979E+05 -3.979981E+03  1.866852E+03  2.677454E+04 -5.325821E-11 -1.127495E-10
       261  17  3.924827E+05  1.314148E+03  5.774903E+03  2.553664E+04 -2.721831E-11 -2.124874E-10
       261  18  4.143903E+05  7.984092E+03  1.192123E+04  2.817129E+04  4.226640E-10 -9.208154E-11
       261  19  4.087188E+05  4.550020E+03  7.112502E+03  2.697980E+04  2.996030E+03  1.476706E+03
       261  20  3.868768E+05 -8.952145E+01  4.361303E+03  2.434502E+04  5.145394E+03  5.051154E+00
       261  21  3.656255E+05 -3.485427E+03  3.319599E+03  2.558280E+04  7.294686E+03 -1.288301E+03
       261  22  3.900081E+05  2.850274E+02  4.489673E+03  2.687717E+04 -3.390975E+02  1.476397E+03
       261  23  3.896797E+05  6.123108E+02  5.068087E+03  2.494083E+04  2.191274E+03  4.784479E+00
       261  24  3.900076E+05  2.249345E+03  7.620417E+03  2.687702E+04  4.721641E+03 -1.288521E+03
       261  25  3.712979E+05 -3.979975E+03  1.866882E+03  2.677454E+04 -3.674129E+03  1.476089E+03
       261  26  3.924827E+05  1.314148E+03  5.774904E+03  2.553664E+04 -7.628608E+02  4.512138E+00
       261  27  4.143903E+05  7.984095E+03  1.192124E+04  2.817129E+04  2.148498E+03 -1.288752E+03
       262   1  3.529416E+05 -6.046936E+03  3.085859E+03  2.665939E+04 -8.581241E+03  2.056759E+03
       262   2  3.293294E+05 -4.195821E+03  5.617555E+03  1.435726E+04 -1.344841E+04  2.339014E+03
       262   3  3.098173E+05  1.151864E+04  1.478286E+04  5.799797E+03 -1.831528E+04  7.927773E+02
       262   4  3.909232E+05  2.872376E+03  9.716554E+03  2.684860E+04 -6.024853E+03  2.056976E+03
       262   5  3.885318E+05  9.949883E+03  1.715923E+04  2.497550E+04 -1.479935E+04  2.338657E+03
       262   6  3.909168E+05  3.156749E+04  3.394710E+04  2.684664E+04 -2.357369E+04  7.917636E+02
       262   7  4.289062E+05  1.179161E+04  1.634722E+04  2.703782E+04 -3.468313E+03  2.057195E+03
       262   8  4.477378E+05  2.409580E+04  2.870080E+04  3.559479E+04 -1.615041E+04  2.338254E+03
       262   9  4.720233E+05  5.161755E+04  5.311122E+04  4.789624E+04 -2.883279E+04  7.903936E+02
       262  10  3.529415E+05 -6.046960E+03  3.085713E+03  2.665940E+04  9.667975E-11 -6.863771E-11
       262  11  3.293292E+05 -4.195876E+03  5.617205E+03  1.435728E+04  2.508735E-10  2.851818E-11
       262  12  3.098170E+05  1.151855E+04  1.478223E+04  5.799809E+03  3.088261E-12  3.248909E-11
       262  13  3.909232E+05  2.872361E+03  9.716478E+03  2.684861E+04 -1.422490E-10 -2.222778E-10
       262  14  3.885316E+05  9.949819E+03  1.715881E+04  2.497553E+04 -7.240397E-11 -5.858242E-11
       262  15  3.909162E+05  3.156734E+04  3.394605E+04  2.684665E+04 -3.607367E-11 -3.796702E-11
       262  16  4.289062E+05  1.179160E+04  1.634719E+04  2.703783E+04 -2.211852E-10 -1.104665E-10
       262  17  4.477375E+05  2.409573E+04  2.870030E+04  3.559482E+04 -1.341379E-10 -1.615480E-10
       262  18  4.720224E+05  5.161733E+04  5.310966E+04  4.789625E+04  2.012272E-10 -3.711243E-12
       262  19  3.529416E+05 -6.046936E+03  3.085859E+03  2.665939E+04  8.581241E+03 -2.056759E+03
       262  20  3.293294E+05 -4.195821E+03  5.617555E+03  1.435726E+04  1.344841E+04 -2.339014E+03
       262  21  3.098173E+05  1.151864E+04  1.478286E+04  5.799797E+03  1.831528E+04 -7.927773E+02
       262  22  3.909232E+05  2.872376E+03  9.716554E+03  2.684860E+04  6.024853E+03 -2.056976E+03
       262  23  3.885318E+05  9.949883E+03  1.715923E+04  2.497550E+04  1.479935E+04 -2.338657E+03
       262  24  3.909168E+05  3.156749E+04  3.394710E+04  2.684664E+04  2.357369E+04 -7.917636E+02
       262  25  4.289062E+05  1.179161E+04  1.634722E+04  2.703782E+04  3.468313E+03 -2.057195E+03
       262  26  4.477378E+05  2.409580E+04  2.870080E+04  3.559479E+04  1.615041E+04 -2.338254E+03
       262  27  4.720233E+05  5.161755E+04  5.311122E+04  4.789624E+04  2.883279E+04 -7.903936E+02
       263   1 -6.995605E+04 -1.953190E+05 -7.453600E+04  6.920962E+04 -2.762607E+02 -4.372190E+04
       263   2 -2.303797E+04 -1.645677E+05 -3.759142E+04  4.761351E+04 -4.253870E+02 -2.478100E+04
       263   3 -4.424616E+03 -1.433592E+05 -2.005667E+04  3.080434E+04  6.302724E+02 -5.838997E+03
       263   4 -5.752575E+04 -1.452900E+05 -6.238744E+04  3.114020E+04 -2.734789E+02 -4.217787E+04
       263   5 -1.719357E+04 -1.407304E+05 -3.219492E+04  2.874487E+04 -4.246928E+02 -2.570411E+04
       263   6 -4.738179E+03 -1.452858E+05 -1.969772E+04  3.113786E+04  6.300296E+02 -9.230085E+03
       263   7 -4.509019E+04 -9.525554E+04 -5.023828E+04 -6.932307E+03 -2.708867E+02 -4.063372E+04
       263   8 -1.134786E+04 -1.168918E+05 -2.679825E+04  9.875503E+03 -4.239424E+02 -2.662726E+04
       263   9 -5.051735E+03 -1.472123E+05 -1.933873E+04  3.147137E+04  6.297832E+02 -1.262116E+04
       263  10 -6.995657E+04 -1.953210E+05 -7.453959E+04  6.920961E+04 -1.574630E-10 -5.944495E-10
       263  11 -2.303814E+04 -1.645683E+05 -3.759258E+04  4.761351E+04  7.873011E-13 -2.795015E-11
       263  12 -4.424625E+03 -1.433592E+05 -2.005674E+04  3.080435E+04 -1.696040E-10  6.161559E-10
       263  13 -5.752623E+04 -1.452919E+05 -6.239079E+04  3.114019E+04 -9.953277E-11  2.291378E-11
       263  14 -1.719374E+04 -1.407311E+05 -3.219616E+04  2.874487E+04 -2.144490E-11 -9.214296E-11
       263  15 -4.738202E+03 -1.452859E+05 -1.969788E+04  3.113786E+04  2.314429E-10  1.193368E-12
       263  16 -4.509063E+04 -9.525731E+04 -5.024138E+04 -6.932316E+03 -3.338064E-11  6.146168E-10
       263  17 -1.134805E+04 -1.168925E+05 -2.679959E+04  9.875494E+03  8.555217E-11  4.513031E-11
       263  18 -5.051779E+03 -1.472125E+05 -1.933903E+04  3.147138E+04 -1.257020E-10 -6.353729E-10
       263  19 -6.995605E+04 -1.953190E+05 -7.453600E+04  6.920962E+04  2.762607E+02  4.372190E+04
       263  20 -2.303797E+04 -1.645677E+05 -3.759142E+04  4.761351E+04  4.253870E+02  2.478100E+04
       263  21 -4.424616E+03 -1.433592E+05 -2.005667E+04  3.080434E+04 -6.302724E+02  5.838997E+03
       263  22 -5.752575E+04 -1.452900E+05 -6.238744E+04  3.114020E+04  2.734789E+02  4.217787E+04
       263  23 -1.719357E+04 -1.407304E+05 -3.219492E+04  2.874487E+04  4.246928E+02  2.570411E+04
       263  24 -4.738179E+03 -1.452858E+05 -1.969772E+04  3.113786E+04 -6.300296E+02  9.230085E+03
       263  25 -4.509019E+04 -9.525554E+04 -5.023828E+04 -6.932307E+03  2.708867E+02  4.063372E+04
       263  26 -1.134786E+04 -1.168918E+05 -2.679825E+04  9.875503E+03  4.239424E+02  2.662726E+04
       263  27 -5.051735E+03 -1.472123E+05 -1.933873E+04  3.147137E+04 -6.297832E+02  1.262116E+04
       264   1  1.826495E+02 -1.253349E+05 -1.423089E+04  3.345471E+04  1.652966E+03 -3.089750E+03
       264   2  8.244301E+03 -9.839819E+04 -7.380065E+03  2.865132E+04  3.195424E+03  3.568686E+03
       264   3  1.205156E+04 -7.339132E+04 -5.928202E+03  2.869879E+04  4.521273E+03  1.022742E+04
       264   4 -3.970661E+03 -1.437067E+05 -1.662108E+04  3.115192E+04  1.652747E+03 -6.467640E+03
       264   5 -1.981727E+03 -1.427033E+05 -1.419922E+04  2.872646E+04  3.195266E+03  6.336992E+02
       264   6 -4.324245E+03 -1.437075E+05 -1.748411E+04  3.115199E+04  4.521220E+03  7.735077E+03
       264   7 -8.123959E+03 -1.620780E+05 -1.901123E+04  2.884920E+04  1.652552E+03 -9.845434E+03
       264   8 -1.220784E+04 -1.870064E+05 -2.101838E+04  2.880159E+04  3.195108E+03 -2.301086E+03
       264   9 -2.070028E+04 -2.140187E+05 -2.904014E+04  3.360489E+04  4.521147E+03  5.243006E+03
       264  10  1.826440E+02 -1.253349E+05 -1.423091E+04  3.345471E+04  6.832626E-11 -3.511777E-10
       264  11  8.244287E+03 -9.839820E+04 -7.380108E+03  2.865131E+04  6.747632E-11  3.812514E-11
       264  12  1.205151E+04 -7.339144E+04 -5.928437E+03  2.869876E+04  3.390670E-10  4.277525E-10
       264  13 -3.970675E+03 -1.437067E+05 -1.662117E+04  3.115192E+04  1.284208E-10  3.529698E-12
       264  14 -1.981738E+03 -1.427033E+05 -1.419924E+04  2.872645E+04  4.112561E-10 -2.786802E-11
       264  15 -4.324283E+03 -1.437075E+05 -1.748426E+04  3.115196E+04  3.101317E-10 -1.320074E-11
       264  16 -8.123988E+03 -1.620781E+05 -1.901142E+04  2.884921E+04 -5.396612E-11  3.448388E-10
       264  17 -1.220786E+04 -1.870064E+05 -2.101841E+04  2.880160E+04  5.822018E-11 -5.603306E-11
       264  18 -2.070031E+04 -2.140187E+05 -2.904023E+04  3.360488E+04  1.838504E-10 -4.224902E-10
       264  19  1.826495E+02 -1.253349E+05 -1.423089E+04  3.345471E+04 -1.652966E+03  3.089750E+03
       264  20  8.244301E+03 -9.839819E+04 -7.380065E+03  2.865132E+04 -3.195424E+03 -3.568686E+03
       264  21  1.205156E+04 -7.339132E+04 -5.928202E+03  2.869879E+04 -4.521273E+03 -1.022742E+04
       264  22 -3.970661E+03 -1.437067E+05 -1.662108E+04  3.115192E+04 -1.652747E+03  6.467640E+03
       264  23 -1.981727E+03 -1.427033E+05 -1.419922E+04  2.872646E+04 -3.195266E+03 -6.336992E+02
       264  24 -4.324245E+03 -1.437075E+05 -1.748411E+04  3.115199E+04 -4.521220E+03 -7.735077E+03
       264  25 -8.123959E+03 -1.620780E+05 -1.901123E+04  2.884920E+04 -1.652552E+03  9.845434E+03
       264  26 -1.220784E+04 -1.870064E+05 -2.101838E+04  2.880159E+04 -3.195108E+03  2.301086E+03
       264  27 -2.070028E+04 -2.140187E+05 -2.904014E+04  3.360489E+04 -4.521147E+03 -5.243006E+03
       265   1  1.511810E+04 -5.861491E+04 -6.489128E+03  3.149735E+04  5.359209E+03  1.319195E+04
       265   2  7.862038E+03 -2.819228E+04 -1.371276E+04  8.106097E+03  5.035582E+03  2.475378E+04
       265   3 -2.884511E+04 -6.635069E+03 -3.582586E+04 -1.064814E+04  1.587549E+03  3.631591E+04
       265   4 -5.172008E+03 -1.454790E+05 -2.106579E+04  3.110460E+04  5.359144E+03  1.065503E+04
       265   5 -1.887300E+04 -1.404927E+05 -3.507889E+04  2.878665E+04  5.036602E+03  2.860921E+04
       265   6 -6.313967E+04 -1.454851E+05 -6.842288E+04  3.110593E+04  1.590179E+03  4.656293E+04
       265   7 -2.546251E+04 -2.323357E+05 -3.564266E+04  3.071190E+04  5.359082E+03  8.118456E+03
       265   8 -4.560715E+04 -2.527801E+05 -5.644529E+04  4.946338E+04  5.037879E+03  3.246395E+04
       265   9 -9.742899E+04 -2.843134E+05 -1.010199E+05  7.285061E+04  1.594187E+03  5.680766E+04
       265  10  1.511803E+04 -5.861511E+04 -6.489509E+03  3.149729E+04  2.511899E-10 -7.388283E-10
       265  11  7.861846E+03 -2.819294E+04 -1.371396E+04  8.105997E+03  2.904044E-11 -7.712424E-11
       265  12 -2.884547E+04 -6.636486E+03 -3.582835E+04 -1.064819E+04 -1.262331E-10  4.331362E-10
       265  13 -5.172069E+03 -1.454792E+05 -2.106605E+04  3.110455E+04  1.806745E-10  8.683762E-12
       265  14 -1.887324E+04 -1.404936E+05 -3.508047E+04  2.878654E+04 -2.102453E-10 -7.099223E-15
       265  15 -6.314026E+04 -1.454875E+05 -6.842696E+04  3.110587E+04 -1.453596E-10 -3.812510E-11
       265  16 -2.546256E+04 -2.323358E+05 -3.564284E+04  3.071187E+04  1.225267E-10  7.561967E-10
       265  17 -4.560746E+04 -2.527812E+05 -5.644732E+04  4.946325E+04 -2.156017E-10  8.530022E-11
       265  18 -9.742986E+04 -2.843169E+05 -1.010260E+05  7.285054E+04 -2.671526E-10 -4.845098E-10
       265  19  1.511810E+04 -5.861491E+04 -6.489128E+03  3.149735E+04 -5.359209E+03 -1.319195E+04
       265  20  7.862038E+03 -2.819228E+04 -1.371276E+04  8.106097E+03 -5.035582E+03 -2.475378E+04
       265  21 -2.884511E+04 -6.635069E+03 -3.582586E+04 -1.064814E+04 -1.587549E+03 -3.631591E+04
       265  22 -5.172008E+03 -1.454790E+05 -2.106579E+04  3.110460E+04 -5.359144E+03 -1.065503E+04
       265  23 -1.887300E+04 -1.404927E+05 -3.507889E+04  2.878665E+04 -5.036602E+03 -2.860921E+04
       265  24 -6.313967E+04 -1.454851E+05 -6.842288E+04  3.110593E+04 -1.590179E+03 -4.656293E+04
       265  25 -2.546251E+04 -2.323357E+05 -3.564266E+04  3.071190E+04 -5.359082E+03 -8.118456E+03
       265  26 -4.560715E+04 -2.527801E+05 -5.644529E+04  4.946338E+04 -5.037879E+03 -3.246395E+04
       265  27 -9.742899E+04 -2.843134E+05 -1.010199E+05  7.285061E+04 -1.594187E+03 -5.680766E+04
       266   1  2.939935E+05  2.435974E+05  7.213447E+04  2.035443E+05  2.352218E+04  1.557679E+04
       266   2  2.706961E+05  1.880116E+05  4.239765E+04  1.989311E+05  1.604981E+04  6.165893E+03
       266   3  2.482248E+05  1.718636E+05  2.797483E+04  1.886296E+05  6.126606E+03  2.351792E+01
       266   4  1.962309E+05  1.536895E+05  3.540520E+04  1.458921E+05  2.040312E+04  1.323656E+04
       266   5  1.905970E+05  1.244785E+05  1.592895E+04  1.560622E+05  1.543486E+04  5.704392E+03
       266   6  1.852483E+05  1.341642E+05  9.596145E+03  1.605429E+05  8.015235E+03  1.440374E+03
       266   7  9.847830E+04  6.379115E+04 -1.325635E+03  8.825134E+04  1.728471E+04  1.089701E+04
       266   8  1.105049E+05  6.095020E+04 -1.054055E+04  1.132000E+05  1.482002E+04  5.242984E+03
       266   9  1.222765E+05  9.646637E+04 -8.782801E+03  1.324593E+05  9.903589E+03  2.857063E+03
       266  10  2.939928E+05  2.435970E+05  7.213297E+04  2.035440E+05 -1.490198E-10 -1.159938E-10
       266  11  2.706958E+05  1.880115E+05  4.239710E+04  1.989310E+05 -4.322662E-10 -5.032518E-11
       266  12  2.482247E+05  1.718636E+05  2.797476E+04  1.886296E+05 -5.924770E-10  1.025430E-10
       266  13  1.962304E+05  1.536892E+05  3.540409E+04  1.458919E+05  8.345223E-11  6.193933E-11
       266  14  1.905967E+05  1.244784E+05  1.592844E+04  1.560621E+05  1.486689E-10  2.947669E-10
       266  15  1.852482E+05  1.341641E+05  9.596020E+03  1.605429E+05  2.226738E-10 -1.067170E-10
       266  16  9.847795E+04  6.379094E+04 -1.326420E+03  8.825119E+04 -1.099017E-10  2.490868E-10
       266  17  1.105047E+05  6.095012E+04 -1.054101E+04  1.131999E+05 -2.143621E-10  3.976070E-10
       266  18  1.222764E+05  9.646633E+04 -8.783000E+03  1.324593E+05  5.908357E-10  1.184619E-10
       266  19  2.939935E+05  2.435974E+05  7.213447E+04  2.035443E+05 -2.352218E+04 -1.557679E+04
       266  20  2.706961E+05  1.880116E+05  4.239765E+04  1.989311E+05 -1.604981E+04 -6.165893E+03
       266  21  2.482248E+05  1.718636E+05  2.797483E+04  1.886296E+05 -6.126606E+03 -2.351792E+01
       266  22  1.962309E+05  1.536895E+05  3.540520E+04  1.458921E+05 -2.040312E+04 -1.323656E+04
       266  23  1.905970E+05  1.244785E+05  1.592895E+04  1.560622E+05 -1.543486E+04 -5.704392E+03
       266  24  1.852483E+05  1.341642E+05  9.596145E+03  1.605429E+05 -8.015235E+03 -1.440374E+03
       266  25  9.847830E+04  6.379115E+04 -1.325635E+03  8.825134E+04 -1.728471E+04 -1.089701E+04
       266  26  1.105049E+05  6.095020E+04 -1.054055E+04  1.132000E+05 -1.482002E+04 -5.242984E+03
       266  27  1.222765E+05  9.646637E+04 -8.782801E+03  1.324593E+05 -9.903589E+03 -2.857063E+03
       267   1  2.204616E+05  1.619021E+05  1.892141E+04  1.759610E+05  5.110714E+03  1.116527E+03
       267   2  2.028840E+05  1.337638E+05  7.520426E+03  1.617112E+05  2.360060E+03  9.839344E+02
       267   3  1.702532E+05  1.237329E+05 -1.845787E+03  1.515870E+05 -5.054639E+02  1.004568E+03
       267   4  1.853852E+05  1.358499E+05  7.739512E+03  1.579900E+05  5.998042E+03  1.782200E+03
       267   5  1.925434E+05  1.261312E+05  4.227885E+03  1.564362E+05  3.364802E+03  1.737715E+03
       267   6  1.846226E+05  1.344944E+05  2.649446E+03  1.590075E+05  6.165836E+02  1.846382E+03
       267   7  1.503101E+05  1.097985E+05 -3.442538E+03  1.400202E+05  6.885302E+03  2.447820E+03
       267   8  1.822029E+05  1.184986E+05  9.353217E+02  1.511613E+05  4.369526E+03  2.491480E+03
       267   9  1.989922E+05  1.452561E+05  7.144704E+03  1.664282E+05  1.738676E+03  2.688231E+03
       267  10  2.204616E+05  1.619021E+05  1.892136E+04  1.759610E+05 -1.699937E-09 -9.559882E-10
       267  11  2.028840E+05  1.337638E+05  7.520413E+03  1.617112E+05  5.264150E-09  3.483560E-09
       267  12  1.702532E+05  1.237329E+05 -1.845790E+03  1.515870E+05  6.696632E-09  3.706449E-09
       267  13  1.853851E+05  1.358499E+05  7.739438E+03  1.579900E+05  2.275470E-09  1.368173E-09
       267  14  1.925434E+05  1.261311E+05  4.227858E+03  1.564362E+05  5.527421E-09  3.669943E-09
       267  15  1.846226E+05  1.344944E+05  2.649439E+03  1.590075E+05  2.437347E-09  1.378404E-09
       267  16  1.503100E+05  1.097985E+05 -3.442639E+03  1.400202E+05  5.975378E-09  3.396893E-09
       267  17  1.822029E+05  1.184986E+05  9.352742E+02  1.511613E+05  5.589054E-09  3.552188E-09
       267  18  1.989922E+05  1.452561E+05  7.144685E+03  1.664282E+05 -2.036472E-09 -1.012519E-09
       267  19  2.204616E+05  1.619021E+05  1.892141E+04  1.759610E+05 -5.110714E+03 -1.116527E+03
       267  20  2.028840E+05  1.337638E+05  7.520426E+03  1.617112E+05 -2.360060E+03 -9.839344E+02
       267  21  1.702532E+05  1.237329E+05 -1.845787E+03  1.515870E+05  5.054639E+02 -1.004568E+03
       267  22  1.853852E+05  1.358499E+05  7.739512E+03  1.579900E+05 -5.998042E+03 -1.782200E+03
       267  23  1.925434E+05  1.261312E+05  4.227885E+03  1.564362E+05 -3.364802E+03 -1.737715E+03
       267  24  1.846226E+05  1.344944E+05  2.649446E+03  1.590075E+05 -6.165836E+02 -1.846382E+03
       267  25  1.503101E+05  1.097985E+05 -3.442538E+03  1.400202E+05 -6.885302E+03 -2.447820E+03
       267  26  1.822029E+05  1.184986E+05  9.353217E+02  1.511613E+05 -4.369526E+03 -2.491480E+03
       267  27  1.989922E+05  1.452561E+05  7.144704E+03  1.664282E+05 -1.738676E+03 -2.688231E+03
       268   1  1.468067E+05  1.077852E+05 -9.688209E+03  1.400538E+05 -1.438178E+03  1.623060E+03
       268   2  1.296928E+05  8.151022E+04 -1.799540E+04  1.251236E+05 -3.154790E+03  2.533639E+03
       268   3  9.637558E+04  7.187157E+04 -2.569980E+04  1.149393E+05 -4.866135E+03  3.437700E+03
       268   4  1.846114E+05  1.345975E+05  2.197835E+03  1.588266E+05 -3.585058E+02  2.433056E+03
       268   5  1.927024E+05  1.262611E+05  1.676184E+03  1.564670E+05 -2.080285E+03  3.339648E+03
       268   6  1.845903E+05  1.345613E+05  1.761734E+03  1.588526E+05 -3.796843E+03  4.239702E+03
       268   7  2.224174E+05  1.614103E+05  1.408360E+04  1.776005E+05  7.212475E+02  3.243112E+03
       268   8  2.557160E+05  1.710140E+05  2.134720E+04  1.878140E+05 -1.005637E+03  4.145766E+03
       268   9  2.728134E+05  1.972552E+05  2.922232E+04  2.027729E+05 -2.727344E+03  5.041859E+03
       268  10  1.468067E+05  1.077852E+05 -9.688218E+03  1.400538E+05  1.067019E-09  2.422359E-10
       268  11  1.296928E+05  8.151021E+04 -1.799543E+04  1.251236E+05 -1.618946E-10  3.409009E-10
       268  12  9.637555E+04  7.187155E+04 -2.569987E+04  1.149393E+05  1.882667E-10  4.049763E-10
       268  13  1.846114E+05  1.345975E+05  2.197824E+03  1.588266E+05 -2.629156E-10  2.934257E-10
       268  14  1.927024E+05  1.262611E+05  1.676155E+03  1.564670E+05 -1.385938E-10  7.135574E-10
       268  15  1.845903E+05  1.345613E+05  1.761673E+03  1.588526E+05  8.100382E-11  1.335653E-10
       268  16  2.224174E+05  1.614103E+05  1.408358E+04  1.776005E+05 -1.242841E-09 -9.139064E-11
       268  17  2.557160E+05  1.710140E+05  2.134716E+04  1.878140E+05 -5.175176E-10 -3.323074E-11
       268  18  2.728134E+05  1.972552E+05  2.922226E+04  2.027729E+05 -2.585691E-10 -2.795262E-10
       268  19  1.468067E+05  1.077852E+05 -9.688209E+03  1.400538E+05  1.438178E+03 -1.623060E+03
       268  20  1.296928E+05  8.151022E+04 -1.799540E+04  1.251236E+05  3.154790E+03 -2.533639E+03
       268  21  9.637558E+04  7.187157E+04 -2.569980E+04  1.149393E+05  4.866135E+03 -3.437700E+03
       268  22  1.846114E+05  1.345975E+05  2.197835E+03  1.588266E+05  3.585058E+02 -2.433056E+03
       268  23  1.927024E+05  1.262611E+05  1.676184E+03  1.564670E+05  2.080285E+03 -3.339648E+03
       268  24  1.845903E+05  1.345613E+05  1.761734E+03  1.588526E+05  3.796843E+03 -4.239702E+03
       268  25  2.224174E+05  1.614103E+05  1.408360E+04  1.776005E+05 -7.212475E+02 -3.243112E+03
       268  26  2.557160E+05  1.710140E+05  2.134720E+04  1.878140E+05  1.005637E+03 -4.145766E+03
       268  27  2.728134E+05  1.972552E+05  2.922232E+04  2.027729E+05  2.727344E+03 -5.041859E+03
       269   1  7.300088E+04  5.562843E+04 -3.288335E+04  1.036450E+05 -5.872660E+03  4.029860E+03
       269   2  5.604922E+04  2.903150E+04 -3.980728E+04  8.845440E+04 -7.816836E+03  4.703920E+03
       269   3  2.348011E+04  1.992968E+04 -4.563658E+04  7.764816E+04 -9.525565E+03  5.064854E+03
       269   4  1.845859E+05  1.345060E+05  1.973085E+03  1.589636E+05 -4.708086E+03  4.903233E+03
       269   5  1.926116E+05  1.261653E+05  2.878872E+03  1.564460E+05 -6.892428E+03  5.396957E+03
       269   6  1.850712E+05  1.353713E+05  5.087641E+03  1.583123E+05 -8.841396E+03  5.577562E+03
       269   7  2.961852E+05  2.133910E+05  3.682831E+04  2.142938E+05 -3.543218E+03  5.776826E+03
       269   8  3.291940E+05  2.233093E+05  4.556275E+04  2.244545E+05 -5.967742E+03  6.090202E+03
       269   9  3.466890E+05  2.508265E+05  5.580820E+04  2.389996E+05 -8.156990E+03  6.090450E+03
       269  10  7.300084E+04  5.562840E+04 -3.288345E+04  1.036450E+05 -4.539768E-10 -9.111766E-11
       269  11  5.604915E+04  2.903146E+04 -3.980744E+04  8.845443E+04 -3.954770E-11  1.287157E-10
       269  12  2.348000E+04  1.992963E+04 -4.563680E+04  7.764820E+04  3.957566E-10  1.269152E-10
       269  13  1.845859E+05  1.345060E+05  1.972999E+03  1.589636E+05 -1.590999E-10 -9.062831E-11
       269  14  1.926116E+05  1.261652E+05  2.878728E+03  1.564460E+05  2.190863E-10  1.190790E-10
       269  15  1.850711E+05  1.353713E+05  5.087435E+03  1.583124E+05  1.559553E-10 -3.698444E-11
       269  16  2.961852E+05  2.133909E+05  3.682823E+04  2.142938E+05  9.922862E-11  1.660883E-10
       269  17  3.291940E+05  2.233092E+05  4.556261E+04  2.244545E+05 -4.501186E-11  5.477416E-11
       269  18  3.466889E+05  2.508265E+05  5.580800E+04  2.389996E+05 -4.580495E-10 -2.346220E-10
       269  19  7.300088E+04  5.562843E+04 -3.288335E+04  1.036450E+05  5.872660E+03 -4.029860E+03
       269  20  5.604922E+04  2.903150E+04 -3.980728E+04  8.845440E+04  7.816836E+03 -4.703920E+03
       269  21  2.348011E+04  1.992968E+04 -4.563658E+04  7.764816E+04  9.525565E+03 -5.064854E+03
       269  22  1.845859E+05  1.345060E+05  1.973085E+03  1.589636E+05  4.708086E+03 -4.903233E+03
       269  23  1.926116E+05  1.261653E+05  2.878872E+03  1.564460E+05  6.892428E+03 -5.396957E+03
       269  24  1.850712E+05  1.353713E+05  5.087641E+03  1.583123E+05  8.841396E+03 -5.577562E+03
       269  25  2.961852E+05  2.133910E+05  3.682831E+04  2.142938E+05  3.543218E+03 -5.776826E+03
       269  26  3.291940E+05  2.233093E+05  4.556275E+04  2.244545E+05  5.967742E+03 -6.090202E+03
       269  27  3.466890E+05  2.508265E+05  5.580820E+04  2.389996E+05  8.156990E+03 -6.090450E+03
       270   1 -2.954954E+03  5.400758E+03 -5.147299E+04  6.858831E+04 -1.349594E+04  4.542700E+03
       270   2 -1.665932E+04 -2.675054E+04 -5.588031E+04  5.093630E+04 -1.294354E+04  5.312726E+03
       270   3 -3.694987E+04 -2.912522E+04 -5.621387E+04  3.128568E+04 -7.370372E+03 -6.169114E+02
       270   4  1.850150E+05  1.342475E+05  6.268002E+03  1.599555E+05 -1.075888E+04  6.594446E+03
       270   5  1.913007E+05  1.251238E+05  1.032837E+04  1.562155E+05 -1.533541E+04  3.519329E+03
       270   6  1.921098E+05  1.468843E+05  2.291097E+04  1.504772E+05 -1.489228E+04 -6.254134E+03
       270   7  3.730231E+05  2.631120E+05  6.400487E+04  2.513534E+05 -8.020681E+03  8.647002E+03
       270   8  3.993079E+05  2.770241E+05  7.653190E+04  2.615354E+05 -1.772839E+04  1.725078E+03
       270   9  4.212262E+05  3.229291E+05  1.020292E+05  2.697206E+05 -2.241803E+04 -1.189453E+04
       270  10 -2.955155E+03  5.400687E+03 -5.147337E+04  6.858836E+04 -1.441617E-10 -3.206845E-10
       270  11 -1.665951E+04 -2.675062E+04 -5.588068E+04  5.093636E+04  2.362683E-10  1.033294E-10
       270  12 -3.694993E+04 -2.912524E+04 -5.621397E+04  3.128568E+04  2.648862E-10 -4.680679E-12
       270  13  1.850149E+05  1.342475E+05  6.267702E+03  1.599556E+05 -8.940622E-11 -1.749744E-10
       270  14  1.913005E+05  1.251237E+05  1.032790E+04  1.562156E+05 -2.041078E-10  2.358738E-10
       270  15  1.921095E+05  1.468842E+05  2.291048E+04  1.504771E+05 -5.902324E-11  1.208056E-10
       270  16  3.730230E+05  2.631119E+05  6.400461E+04  2.513535E+05  7.626336E-11  1.934341E-10
       270  17  3.993075E+05  2.770240E+05  7.653130E+04  2.615354E+05 -2.899240E-10  1.465554E-10
       270  18  4.212256E+05  3.229288E+05  1.020280E+05  2.697204E+05 -4.731229E-10 -1.513653E-10
       270  19 -2.954954E+03  5.400758E+03 -5.147299E+04  6.858831E+04  1.349594E+04 -4.542700E+03
       270  20 -1.665932E+04 -2.675054E+04 -5.588031E+04  5.093630E+04  1.294354E+04 -5.312726E+03
       270  21 -3.694987E+04 -2.912522E+04 -5.621387E+04  3.128568E+04  7.370372E+03  6.169114E+02
       270  22  1.850150E+05  1.342475E+05  6.268002E+03  1.599555E+05  1.075888E+04 -6.594446E+03
       270  23  1.913007E+05  1.251238E+05  1.032837E+04  1.562155E+05  1.533541E+04 -3.519329E+03
       270  24  1.921098E+05  1.468843E+05  2.291097E+04  1.504772E+05  1.489228E+04  6.254134E+03
       270  25  3.730231E+05  2.631120E+05  6.400487E+04  2.513534E+05  8.020681E+03 -8.647002E+03
       270  26  3.993079E+05  2.770241E+05  7.653190E+04  2.615354E+05  1.772839E+04 -1.725078E+03
       270  27  4.212262E+05  3.229291E+05  1.020292E+05  2.697206E+05  2.241803E+04  1.189453E+04
       271   1  5.988988E+05  7.030902E+04  7.755576E+04  3.295335E+04  5.349723E+04 -3.533474E+02
       271   2  6.013907E+05  1.967886E+04  4.052417E+04  1.111554E+04  3.423617E+04 -1.421794E+03
       271   3  6.164003E+05  9.098847E+03  2.603777E+04 -1.275871E+04  1.497463E+04 -2.236234E+03
       271   4  5.852626E+05  6.697509E+04  7.453453E+04 -8.721905E+03  5.151697E+04 -3.569623E+02
       271   5  5.790501E+05  1.440347E+04  3.648019E+04 -7.702905E+03  3.267564E+04 -1.422864E+03
       271   6  5.852810E+05  1.807798E+03  2.067951E+04 -8.720105E+03  1.383404E+04 -2.236171E+03
       271   7  5.716303E+05  6.364768E+04  7.151424E+04 -5.039623E+04  4.953676E+04 -3.603117E+02
       271   8  5.567106E+05  9.129378E+03  3.243639E+04 -2.652066E+04  3.111516E+04 -1.423839E+03
       271   9  5.541627E+05 -5.483240E+03  1.532122E+04 -4.681711E+03  1.269350E+04 -2.236124E+03
       271  10  5.988958E+05  7.030825E+04  7.755039E+04  3.295336E+04  9.612998E-11 -9.582705E-11
       271  11  6.013895E+05  1.967855E+04  4.052197E+04  1.111558E+04 -1.235666E-10 -1.467626E-11
       271  12  6.164001E+05  9.098782E+03  2.603734E+04 -1.275868E+04 -8.536200E-10  9.457351E-11
       271  13  5.852598E+05  6.697438E+04  7.452955E+04 -8.721890E+03  3.372459E-10 -3.908522E-12
       271  14  5.790489E+05  1.440318E+04  3.647818E+04 -7.702868E+03  2.664680E-10 -2.135360E-11
       271  15  5.852808E+05  1.807742E+03  2.067914E+04 -8.720080E+03 -4.022397E-10  1.547330E-10
       271  16  5.716276E+05  6.364702E+04  7.150963E+04 -5.039622E+04 -4.563974E-11 -3.908954E-11
       271  17  5.567096E+05  9.129116E+03  3.243456E+04 -2.652062E+04  2.979946E-10 -2.457620E-12
       271  18  5.541626E+05 -5.483289E+03  1.532091E+04 -4.681688E+03  7.388701E-10  3.058833E-10
       271  19  5.988988E+05  7.030902E+04  7.755576E+04  3.295335E+04 -5.349723E+04  3.533474E+02
       271  20  6.013907E+05  1.967886E+04  4.052417E+04  1.111554E+04 -3.423617E+04  1.421794E+03
       271  21  6.164003E+05  9.098847E+03  2.603777E+04 -1.275871E+04 -1.497463E+04  2.236234E+03
       271  22  5.852626E+05  6.697509E+04  7.453453E+04 -8.721905E+03 -5.151697E+04  3.569623E+02
       271  23  5.790501E+05  1.440347E+04  3.648019E+04 -7.702905E+03 -3.267564E+04  1.422864E+03
       271  24  5.852810E+05  1.807798E+03  2.067951E+04 -8.720105E+03 -1.383404E+04  2.236171E+03
       271  25  5.716303E+05  6.364768E+04  7.151424E+04 -5.039623E+04 -4.953676E+04  3.603117E+02
       271  26  5.567106E+05  9.129378E+03  3.243639E+04 -2.652066E+04 -3.111516E+04  1.423839E+03
       271  27  5.541627E+05 -5.483240E+03  1.532122E+04 -4.681711E+03 -1.269350E+04  2.236124E+03
       272   1  6.196089E+05  1.156832E+04  2.259805E+04 -7.449475E+03  1.224370E+04 -2.632454E+03
       272   2  6.277521E+05  1.104016E+04  1.809576E+04 -7.235400E+03  7.046324E+03 -3.318674E+03
       272   3  6.371171E+05  1.269313E+04  1.752023E+04 -9.041920E+03  1.848923E+03 -3.964755E+03
       272   4  5.827831E+05  2.936943E+03  1.624220E+04 -8.716904E+03  1.107056E+04 -2.632523E+03
       272   5  5.821787E+05  3.717426E+02  1.029584E+04 -7.706544E+03  5.940091E+03 -3.318740E+03
       272   6  5.827845E+05 -2.386290E+01  8.229931E+03 -8.716775E+03  8.096625E+02 -3.964829E+03
       272   7  5.459586E+05 -5.694498E+03  9.886306E+03 -9.984256E+03  9.897490E+03 -2.632587E+03
       272   8  5.366074E+05 -1.029679E+04  2.495852E+03 -8.177653E+03  4.833937E+03 -3.318803E+03
       272   9  5.284548E+05 -1.274101E+04 -1.060462E+03 -8.391659E+03 -2.295103E+02 -3.964904E+03
       272  10  6.196087E+05  1.156827E+04  2.259776E+04 -7.449449E+03 -3.294152E-10  2.095218E-10
       272  11  6.277520E+05  1.104014E+04  1.809564E+04 -7.235381E+03  7.157995E-11  1.645123E-10
       272  12  6.371171E+05  1.269311E+04  1.752019E+04 -9.041914E+03 -1.520914E-10 -1.478287E-10
       272  13  5.827830E+05  2.936903E+03  1.624196E+04 -8.716881E+03  1.025265E-10  3.124682E-10
       272  14  5.821787E+05  3.717213E+02  1.029575E+04 -7.706528E+03  3.857011E-11  1.745429E-10
       272  15  5.827845E+05 -2.387996E+01  8.229901E+03 -8.716772E+03 -1.196953E-10 -1.269491E-10
       272  16  5.459585E+05 -5.694532E+03  9.886109E+03 -9.984235E+03  2.743208E-11  2.905777E-10
       272  17  5.366073E+05 -1.029680E+04  2.495788E+03 -8.177640E+03  3.719959E-10  1.083196E-10
       272  18  5.284548E+05 -1.274103E+04 -1.060492E+03 -8.391660E+03 -6.966507E-11 -2.582246E-11
       272  19  6.196089E+05  1.156832E+04  2.259805E+04 -7.449475E+03 -1.224370E+04  2.632454E+03
       272  20  6.277521E+05  1.104016E+04  1.809576E+04 -7.235400E+03 -7.046324E+03  3.318674E+03
       272  21  6.371171E+05  1.269313E+04  1.752023E+04 -9.041920E+03 -1.848923E+03  3.964755E+03
       272  22  5.827831E+05  2.936943E+03  1.624220E+04 -8.716904E+03 -1.107056E+04  2.632523E+03
       272  23  5.821787E+05  3.717426E+02  1.029584E+04 -7.706544E+03 -5.940091E+03  3.318740E+03
       272  24  5.827845E+05 -2.386290E+01  8.229931E+03 -8.716775E+03 -8.096625E+02  3.964829E+03
       272  25  5.459586E+05 -5.694498E+03  9.886306E+03 -9.984256E+03 -9.897490E+03  2.632587E+03
       272  26  5.366074E+05 -1.029679E+04  2.495852E+03 -8.177653E+03 -4.833937E+03  3.318803E+03
       272  27  5.284548E+05 -1.274101E+04 -1.060462E+03 -8.391659E+03  2.295103E+02  3.964904E+03
       273   1  6.428481E+05  1.404693E+04  1.851505E+04 -8.403947E+03  4.405412E+02 -4.341366E+03
       273   2  6.509954E+05  1.649411E+04  2.204391E+04 -8.170805E+03 -4.958554E+03 -4.877823E+03
       273   3  6.603901E+05  2.111860E+04  2.962974E+04 -9.947446E+03 -1.035765E+04 -5.200688E+03
       273   4  5.827790E+05 -2.186076E+01  8.198463E+03 -8.714364E+03 -6.272213E+02 -4.341455E+03
       273   5  5.821850E+05  3.575527E+02  1.012287E+04 -7.709544E+03 -5.671120E+03 -4.877919E+03
       273   6  5.827770E+05  2.852851E+03  1.585809E+04 -8.714522E+03 -1.071495E+04 -5.200792E+03
       273   7  5.227134E+05 -1.409084E+04 -2.118240E+03 -9.024750E+03 -1.694884E+03 -4.341544E+03
       273   8  5.133792E+05 -1.577926E+04 -1.798340E+03 -7.248335E+03 -6.383609E+03 -4.878017E+03
       273   9  5.051698E+05 -1.541323E+04  2.086212E+03 -7.481756E+03 -1.107221E+04 -5.200897E+03
       273  10  6.428481E+05  1.404691E+04  1.851501E+04 -8.403946E+03 -4.263550E-10 -3.609841E-10
       273  11  6.509954E+05  1.649408E+04  2.204382E+04 -8.170825E+03 -7.919836E-10 -5.122687E-10
       273  12  6.603900E+05  2.111854E+04  2.962948E+04 -9.947490E+03 -2.500091E-10 -3.118558E-10
       273  13  5.827790E+05 -2.188111E+01  8.198427E+03 -8.714366E+03 -5.797536E-11 -2.326578E-10
       273  14  5.821850E+05  3.575185E+02  1.012276E+04 -7.709566E+03 -1.019343E-11 -2.269998E-10
       273  15  5.827769E+05  2.852791E+03  1.585782E+04 -8.714567E+03 -4.439221E-10 -3.734712E-10
       273  16  5.227134E+05 -1.409086E+04 -2.118281E+03 -9.024756E+03  2.853115E-11 -8.289450E-11
       273  17  5.133792E+05 -1.577930E+04 -1.798461E+03 -7.248360E+03  1.498377E-10 -1.923225E-10
       273  18  5.051696E+05 -1.541329E+04  2.085931E+03 -7.481802E+03  1.375035E-10 -9.422100E-11
       273  19  6.428481E+05  1.404693E+04  1.851505E+04 -8.403947E+03 -4.405412E+02  4.341366E+03
       273  20  6.509954E+05  1.649411E+04  2.204391E+04 -8.170805E+03  4.958554E+03  4.877823E+03
       273  21  6.603901E+05  2.111860E+04  2.962974E+04 -9.947446E+03  1.035765E+04  5.200688E+03
       273  22  5.827790E+05 -2.186076E+01  8.198463E+03 -8.714364E+03  6.272213E+02  4.341455E+03
       273  23  5.821850E+05  3.575527E+02  1.012287E+04 -7.709544E+03  5.671120E+03  4.877919E+03
       273  24  5.827770E+05  2.852851E+03  1.585809E+04 -8.714522E+03  1.071495E+04  5.200792E+03
       273  25  5.227134E+05 -1.409084E+04 -2.118240E+03 -9.024750E+03  1.694884E+03  4.341544E+03
       273  26  5.133792E+05 -1.577926E+04 -1.798340E+03 -7.248335E+03  6.383609E+03  4.878017E+03
       273  27  5.051698E+05 -1.541323E+04  2.086212E+03 -7.481756E+03  1.107221E+04  5.200897E+03
       274   1  6.686766E+05  2.142689E+04  3.510138E+04 -4.750539E+03 -1.276486E+04 -5.471071E+03
       274   2  6.710843E+05  3.596663E+04  5.344912E+04 -2.605297E+04 -3.512951E+04 -4.650418E+03
       274   3  6.862952E+05  9.008620E+04  9.624221E+04 -4.921838E+04 -5.749534E+04 -1.403560E+03
       274   4  5.852048E+05  1.754853E+03  2.015774E+04 -8.680643E+03 -1.341251E+04 -5.471108E+03
       274   5  5.791430E+05  1.400612E+04  3.550242E+04 -7.752704E+03 -3.174825E+04 -4.651170E+03
       274   6  5.851863E+05  6.513965E+04  7.249814E+04 -8.686738E+03 -5.008463E+04 -1.406462E+03
       274   7  5.017398E+05 -1.791751E+04  5.213841E+03 -1.261020E+04 -1.406007E+04 -5.471137E+03
       274   8  4.872105E+05 -7.953627E+03  1.755554E+04  1.054479E+04 -2.836749E+04 -4.651722E+03
       274   9  4.840903E+05  4.019857E+04  4.875447E+04  3.183827E+04 -4.267512E+04 -1.408398E+03
       274  10  6.686764E+05  2.142682E+04  3.510101E+04 -4.750595E+03 -1.510636E-10 -2.029167E-10
       274  11  6.710829E+05  3.596628E+04  5.344676E+04 -2.605310E+04 -1.627068E-10 -7.936325E-11
       274  12  6.862917E+05  9.008531E+04  9.623600E+04 -4.921845E+04 -3.283130E-10 -6.831052E-11
       274  13  5.852046E+05  1.754773E+03  2.015734E+04 -8.680702E+03  9.364212E-12 -1.535019E-10
       274  14  5.791419E+05  1.400583E+04  3.550049E+04 -7.752823E+03 -1.097985E-10 -1.536265E-10
       274  15  5.851836E+05  6.513898E+04  7.249343E+04 -8.686795E+03  4.466459E-10  1.288454E-10
       274  16  5.017396E+05 -1.791760E+04  5.213413E+03 -1.261027E+04  1.094771E-10 -7.445110E-11
       274  17  4.872096E+05 -7.953866E+03  1.755399E+04  1.054469E+04 -1.372912E-10 -2.248919E-10
       274  18  4.840884E+05  4.019808E+04  4.875104E+04  3.183822E+04  2.141041E-10  1.443151E-11
       274  19  6.686766E+05  2.142689E+04  3.510138E+04 -4.750539E+03  1.276486E+04  5.471071E+03
       274  20  6.710843E+05  3.596663E+04  5.344912E+04 -2.605297E+04  3.512951E+04  4.650418E+03
       274  21  6.862952E+05  9.008620E+04  9.624221E+04 -4.921838E+04  5.749534E+04  1.403560E+03
       274  22  5.852048E+05  1.754853E+03  2.015774E+04 -8.680643E+03  1.341251E+04  5.471108E+03
       274  23  5.791430E+05  1.400612E+04  3.550242E+04 -7.752704E+03  3.174825E+04  4.651170E+03
       274  24  5.851863E+05  6.513965E+04  7.249814E+04 -8.686738E+03  5.008463E+04  1.406462E+03
       274  25  5.017398E+05 -1.791751E+04  5.213841E+03 -1.261020E+04  1.406007E+04  5.471137E+03
       274  26  4.872105E+05 -7.953627E+03  1.755554E+04  1.054479E+04  2.836749E+04  4.651722E+03
       274  27  4.840903E+05  4.019857E+04  4.875447E+04  3.183827E+04  4.267512E+04  1.408398E+03
       275   1 -2.084565E+04  8.458010E+04 -2.899799E+04 -1.891443E+02  4.624885E+01 -2.229602E+04
       275   2  1.084543E+04  8.897176E+04 -1.039766E+04  1.020231E+03  1.120545E+02 -1.413703E+04
       275   3  4.622159E+03  8.283906E+04 -6.583776E+03 -2.204851E+03  3.731679E+01 -5.977978E+03
       275   4 -2.563118E+04  6.543417E+04 -3.378194E+04 -1.523078E+03  4.629737E+01 -2.230560E+04
       275   5  6.278250E+03  7.069673E+04 -1.496074E+04  6.948283E+02  1.120620E+02 -1.413649E+04
       275   6  2.709757E+02  6.543288E+04 -1.093332E+04 -1.521711E+03  3.730814E+01 -5.967306E+03
       275   7 -3.041673E+04  4.628857E+04 -3.856592E+04 -2.856971E+03  4.634592E+01 -2.231518E+04
       275   8  1.711048E+03  5.242200E+04 -1.952383E+04  3.694352E+02  1.120696E+02 -1.413595E+04
       275   9 -4.080229E+03  4.802697E+04 -1.528288E+04 -8.385887E+02  3.729952E+01 -5.956634E+03
       275  10 -2.084578E+04  8.457956E+04 -2.899893E+04 -1.891434E+02  9.496272E-12 -4.397391E-11
       275  11  1.084537E+04  8.897154E+04 -1.039804E+04  1.020232E+03  1.759548E-10 -1.427576E-10
       275  12  4.622149E+03  8.283902E+04 -6.583843E+03 -2.204851E+03  3.714196E-11  6.050341E-11
       275  13 -2.563131E+04  6.543363E+04 -3.378288E+04 -1.523077E+03 -4.202585E-11 -6.730604E-11
       275  14  6.278197E+03  7.069651E+04 -1.496111E+04  6.948296E+02 -4.296990E-10  6.142369E-11
       275  15  2.709661E+02  6.543284E+04 -1.093339E+04 -1.521710E+03 -7.429371E-11 -7.275165E-11
       275  16 -3.041686E+04  4.628804E+04 -3.856686E+04 -2.856970E+03  2.373157E-10  8.488406E-11
       275  17  1.710994E+03  5.242179E+04 -1.952421E+04  3.694365E+02 -1.684604E-11  2.124169E-10
       275  18 -4.080238E+03  4.802693E+04 -1.528295E+04 -8.385885E+02 -3.848479E-10 -9.914700E-11
       275  19 -2.084565E+04  8.458010E+04 -2.899799E+04 -1.891443E+02 -4.624885E+01  2.229602E+04
       275  20  1.084543E+04  8.897176E+04 -1.039766E+04  1.020231E+03 -1.120545E+02  1.413703E+04
       275  21  4.622159E+03  8.283906E+04 -6.583776E+03 -2.204851E+03 -3.731679E+01  5.977978E+03
       275  22 -2.563118E+04  6.543417E+04 -3.378194E+04 -1.523078E+03 -4.629737E+01  2.230560E+04
       275  23  6.278250E+03  7.069673E+04 -1.496074E+04  6.948283E+02 -1.120620E+02  1.413649E+04
       275  24  2.709757E+02  6.543288E+04 -1.093332E+04 -1.521711E+03 -3.730814E+01  5.967306E+03
       275  25 -3.041673E+04  4.628857E+04 -3.856592E+04 -2.856971E+03 -4.634592E+01  2.231518E+04
       275  26  1.711048E+03  5.242200E+04 -1.952383E+04  3.694352E+02 -1.120696E+02  1.413595E+04
       275  27 -4.080229E+03  4.802697E+04 -1.528288E+04 -8.385887E+02 -3.729952E+01  5.956634E+03
       276   1 -7.403357E+03  5.300230E+04 -1.324479E+04 -1.230989E+03 -2.793562E+01 -4.093486E+03
       276   2 -1.937049E+03  5.371911E+04 -1.057674E+04  6.999557E+02 -7.467704E+01 -4.874262E+02
       276   3 -7.313013E+03  5.126599E+04 -1.296475E+04 -1.795854E+03 -1.010605E+02  3.118636E+03
       276   4 -3.887295E+03  6.706796E+04 -9.729946E+03 -1.521128E+03 -2.793452E+01 -4.089415E+03
       276   5  1.795416E+03  6.865284E+04 -6.847129E+03  6.925033E+02 -7.467730E+01 -4.847815E+02
       276   6 -3.363758E+03  6.706811E+04 -9.019303E+03 -1.520613E+03 -1.010590E+02  3.119861E+03
       276   7 -3.712473E+02  8.113380E+04 -6.215113E+03 -1.811274E+03 -2.793343E+01 -4.085345E+03
       276   8  5.527865E+03  8.358677E+04 -3.117534E+03  6.850508E+02 -7.467757E+01 -4.821368E+02
       276   9  5.854791E+02  8.287045E+04 -5.073875E+03 -1.245365E+03 -1.010576E+02  3.121085E+03
       276  10 -7.403362E+03  5.300228E+04 -1.324483E+04 -1.230989E+03 -1.603477E-10  2.087958E-11
       276  11 -1.937049E+03  5.371911E+04 -1.057674E+04  6.999557E+02 -5.427078E-11 -2.003611E-10
       276  12 -7.313016E+03  5.126598E+04 -1.296477E+04 -1.795853E+03 -1.369919E-10 -3.995273E-11
       276  13 -3.887300E+03  6.706794E+04 -9.729978E+03 -1.521128E+03 -8.788191E-11 -2.118895E-10
       276  14  1.795416E+03  6.865284E+04 -6.847129E+03  6.925033E+02 -1.358297E-10  9.820418E-11
       276  15 -3.363760E+03  6.706810E+04 -9.019322E+03 -1.520612E+03 -1.540385E-10 -2.417356E-11
       276  16 -3.712518E+02  8.113378E+04 -6.215144E+03 -1.811274E+03 -2.309873E-10  8.499299E-11
       276  17  5.527865E+03  8.358677E+04 -3.117534E+03  6.850507E+02 -7.928822E-11  3.084954E-10
       276  18  5.854765E+02  8.287044E+04 -5.073894E+03 -1.245365E+03 -7.306448E-11  3.112549E-11
       276  19 -7.403357E+03  5.300230E+04 -1.324479E+04 -1.230989E+03  2.793562E+01  4.093486E+03
       276  20 -1.937049E+03  5.371911E+04 -1.057674E+04  6.999557E+02  7.467704E+01  4.874262E+02
       276  21 -7.313013E+03  5.126599E+04 -1.296475E+04 -1.795854E+03  1.010605E+02 -3.118636E+03
       276  22 -3.887295E+03  6.706796E+04 -9.729946E+03 -1.521128E+03  2.793452E+01  4.089415E+03
       276  23  1.795416E+03  6.865284E+04 -6.847129E+03  6.925033E+02  7.467730E+01  4.847815E+02
       276  24 -3.363758E+03  6.706811E+04 -9.019303E+03 -1.520613E+03  1.010590E+02 -3.119861E+03
       276  25 -3.712473E+02  8.113380E+04 -6.215113E+03 -1.811274E+03  2.793343E+01  4.085345E+03
       276  26  5.527865E+03  8.358677E+04 -3.117534E+03  6.850508E+02  7.467757E+01  4.821368E+02
       276  27  5.854791E+02  8.287045E+04 -5.073875E+03 -1.245365E+03  1.010576E+02 -3.121085E+03
       277   1 -1.188611E+04  1.782070E+04 -2.191683E+04 -9.615958E+02 -1.831790E+02  4.825497E+03
       277   2 -6.697508E+03  2.148224E+04 -2.542379E+04  4.523988E+02 -2.757310E+02  1.206239E+04
       277   3 -3.476673E+04  1.601387E+04 -4.193114E+04 -2.735928E+03 -9.454236E+01  1.929911E+04
       277   4  9.234314E+01  6.574360E+04 -9.945358E+03 -1.562124E+03 -1.831829E+02  4.842640E+03
       277   5  5.505601E+03  7.030725E+04 -1.323136E+04  7.434242E+02 -2.757246E+02  1.205988E+04
       277   6 -2.233417E+04  6.574509E+04 -2.950338E+04 -1.553347E+03 -9.451425E+01  1.927696E+04
       277   7  1.207063E+04  1.136686E+05  2.025943E+03 -2.162699E+03 -1.831868E+02  4.859785E+03
       277   8  1.770853E+04  1.191344E+05 -1.039107E+03  1.034472E+03 -2.757182E+02  1.205737E+04
       277   9 -9.901789E+03  1.154786E+05 -1.707580E+04 -3.706704E+02 -9.448622E+01  1.925481E+04
       277  10 -1.188612E+04  1.782068E+04 -2.191688E+04 -9.615951E+02 -3.857965E-10  7.367668E-11
       277  11 -6.697547E+03  2.148209E+04 -2.542406E+04  4.524015E+02 -1.738009E-10  2.376764E-10
       277  12 -3.476683E+04  1.601347E+04 -4.193184E+04 -2.735927E+03 -8.572750E-11 -4.790864E-11
       277  13  9.233681E+01  6.574358E+04 -9.945402E+03 -1.562124E+03 -4.650284E-10 -2.960290E-11
       277  14  5.505562E+03  7.030709E+04 -1.323163E+04  7.434269E+02 -8.531062E-11 -1.036678E-10
       277  15 -2.233427E+04  6.574469E+04 -2.950408E+04 -1.553345E+03 -1.900710E-10  1.528314E-10
       277  16  1.207062E+04  1.136686E+05  2.025898E+03 -2.162699E+03 -1.352612E-10 -6.779192E-11
       277  17  1.770849E+04  1.191343E+05 -1.039380E+03  1.034475E+03 -3.454678E-10 -3.706965E-10
       277  18 -9.901889E+03  1.154782E+05 -1.707650E+04 -3.706690E+02 -2.897150E-12  8.641414E-11
       277  19 -1.188611E+04  1.782070E+04 -2.191683E+04 -9.615958E+02  1.831790E+02 -4.825497E+03
       277  20 -6.697508E+03  2.148224E+04 -2.542379E+04  4.523988E+02  2.757310E+02 -1.206239E+04
       277  21 -3.476673E+04  1.601387E+04 -4.193114E+04 -2.735928E+03  9.454236E+01 -1.929911E+04
       277  22  9.234314E+01  6.574360E+04 -9.945358E+03 -1.562124E+03  1.831829E+02 -4.842640E+03
       277  23  5.505601E+03  7.030725E+04 -1.323136E+04  7.434242E+02  2.757246E+02 -1.205988E+04
       277  24 -2.233417E+04  6.574509E+04 -2.950338E+04 -1.553347E+03  9.451425E+01 -1.927696E+04
       277  25  1.207063E+04  1.136686E+05  2.025943E+03 -2.162699E+03  1.831868E+02 -4.859785E+03
       277  26  1.770853E+04  1.191344E+05 -1.039107E+03  1.034472E+03  2.757182E+02 -1.205737E+04
       277  27 -9.901789E+03  1.154786E+05 -1.707580E+04 -3.706704E+02  9.448622E+01 -1.925481E+04
       278   1  1.505707E+04 -8.368284E+04 -5.548851E+04  7.187187E+03 -1.850162E+04 -1.164873E+04
       278   2  3.861828E+04 -4.544932E+04 -3.293054E+04  1.731827E+04 -1.188696E+04 -2.231085E+03
       278   3  6.347340E+04 -2.409603E+04 -2.032899E+04  2.848471E+04 -2.897408E+03  4.021009E+03
       278   4  1.185965E+05  6.634057E+03 -1.850064E+04  6.615079E+04 -1.140317E+04 -6.325772E+03
       278   5  1.203222E+05  1.972078E+04 -8.905999E+03  6.173642E+04 -9.854963E+03 -7.074755E+02
       278   6  1.244422E+05  1.702760E+04 -4.869086E+03  5.835679E+04 -5.932403E+03  1.745103E+03
       278   7  2.221456E+05  9.695912E+04  1.848521E+04  1.251255E+05 -4.303259E+03 -1.001352E+03
       278   8  2.020329E+05  8.489544E+04  1.511758E+04  1.061612E+05 -7.822628E+03  8.164354E+02
       278   9  1.854152E+05  5.815318E+04  1.059056E+04  8.823216E+04 -8.967796E+03 -5.310839E+02
       278  10  1.505667E+04 -8.368308E+04 -5.548940E+04  7.187014E+03 -7.101630E-11 -1.101492E-10
       278  11  3.861813E+04 -4.544936E+04 -3.293082E+04  1.731825E+04  7.644276E-11  6.263487E-11
       278  12  6.347338E+04 -2.409605E+04 -2.032903E+04  2.848472E+04  2.013476E-10  1.625813E-10
       278  13  1.185963E+05  6.633980E+03 -1.850096E+04  6.615073E+04  1.658421E-10  5.741993E-11
       278  14  1.203221E+05  1.972076E+04 -8.906182E+03  6.173641E+04 -1.485068E-10  6.393686E-11
       278  15  1.244422E+05  1.702759E+04 -4.869158E+03  5.835680E+04  6.617259E-11  9.432490E-11
       278  16  2.221456E+05  9.695912E+04  1.848517E+04  1.251255E+05  9.349963E-11  1.759086E-10
       278  17  2.020328E+05  8.489543E+04  1.511747E+04  1.061612E+05  2.984794E-10  1.987639E-10
       278  18  1.854152E+05  5.815316E+04  1.059041E+04  8.823216E+04 -4.331498E-11 -5.390624E-11
       278  19  1.505707E+04 -8.368284E+04 -5.548851E+04  7.187187E+03  1.850162E+04  1.164873E+04
       278  20  3.861828E+04 -4.544932E+04 -3.293054E+04  1.731827E+04  1.188696E+04  2.231085E+03
       278  21  6.347340E+04 -2.409603E+04 -2.032899E+04  2.848471E+04  2.897408E+03 -4.021009E+03
       278  22  1.185965E+05  6.634057E+03 -1.850064E+04  6.615079E+04  1.140317E+04  6.325772E+03
       278  23  1.203222E+05  1.972078E+04 -8.905999E+03  6.173642E+04  9.854963E+03  7.074755E+02
       278  24  1.244422E+05  1.702760E+04 -4.869086E+03  5.835679E+04  5.932403E+03 -1.745103E+03
       278  25  2.221456E+05  9.695912E+04  1.848521E+04  1.251255E+05  4.303259E+03  1.001352E+03
       278  26  2.020329E+05  8.489544E+04  1.511758E+04  1.061612E+05  7.822628E+03 -8.164354E+02
       278  27  1.854152E+05  5.815318E+04  1.059056E+04  8.823216E+04  8.967796E+03  5.310839E+02
       279   1  8.270681E+04 -1.312778E+04 -1.459140E+04  3.741251E+04 -1.959356E+03  2.929811E+03
       279   2  1.050894E+05  1.032661E+04 -6.004879E+03  5.179588E+04  5.403403E+02  2.056927E+03
       279   3  1.353781E+05  2.494435E+04  1.472674E+03  6.386946E+04  3.234909E+03  9.243240E+02
       279   4  1.247746E+05  1.696816E+04 -3.680661E+03  5.883057E+04 -4.566391E+03  9.748780E+02
       279   5  1.209055E+05  2.156970E+04 -1.915600E+03  5.981514E+04 -2.482519E+03 -2.097943E+02
       279   6  1.250313E+05  1.742416E+04 -8.987027E+02  5.848909E+04 -2.038770E+02 -1.654227E+03
       279   7  1.668452E+05  4.706571E+04  7.230223E+03  8.025068E+04 -7.173705E+03 -9.802688E+02
       279   8  1.367218E+05  3.281296E+04  2.173713E+03  6.783466E+04 -5.505482E+03 -2.476593E+03
       279   9  1.146848E+05  9.904189E+03 -3.269955E+03  5.310892E+04 -3.642530E+03 -4.232676E+03
       279  10  8.270680E+04 -1.312779E+04 -1.459143E+04  3.741252E+04  8.401381E-11  4.315853E-11
       279  11  1.050894E+05  1.032661E+04 -6.004887E+03  5.179587E+04  7.288764E-11  1.035603E-10
       279  12  1.353781E+05  2.494435E+04  1.472653E+03  6.386946E+04  2.328848E-10  6.888747E-11
       279  13  1.247746E+05  1.696815E+04 -3.680702E+03  5.883058E+04  1.607546E-10  5.864630E-11
       279  14  1.209055E+05  2.156970E+04 -1.915611E+03  5.981514E+04 -2.091013E-10  8.031833E-11
       279  15  1.250313E+05  1.742416E+04 -8.987079E+02  5.848909E+04  1.032675E-11 -9.208280E-11
       279  16  1.668451E+05  4.706570E+04  7.230124E+03  8.025067E+04  3.895088E-11  3.491114E-11
       279  17  1.367217E+05  3.281294E+04  2.173644E+03  6.783464E+04  1.132795E-11 -3.057987E-11
       279  18  1.146848E+05  9.904166E+03 -3.270013E+03  5.310891E+04 -8.520769E-11 -1.957886E-10
       279  19  8.270681E+04 -1.312778E+04 -1.459140E+04  3.741251E+04  1.959356E+03 -2.929811E+03
       279  20  1.050894E+05  1.032661E+04 -6.004879E+03  5.179588E+04 -5.403403E+02 -2.056927E+03
       279  21  1.353781E+05  2.494435E+04  1.472674E+03  6.386946E+04 -3.234909E+03 -9.243240E+02
       279  22  1.247746E+05  1.696816E+04 -3.680661E+03  5.883057E+04  4.566391E+03 -9.748780E+02
       279  23  1.209055E+05  2.156970E+04 -1.915600E+03  5.981514E+04  2.482519E+03  2.097943E+02
       279  24  1.250313E+05  1.742416E+04 -8.987027E+02  5.848909E+04  2.038770E+02  1.654227E+03
       279  25  1.668452E+05  4.706571E+04  7.230223E+03  8.025068E+04  7.173705E+03  9.802688E+02
       279  26  1.367218E+05  3.281296E+04  2.173713E+03  6.783466E+04  5.505482E+03  2.476593E+03
       279  27  1.146848E+05  9.904189E+03 -3.269955E+03  5.310892E+04  3.642530E+03  4.232676E+03
       280   1  1.528922E+05  3.715104E+04  6.215585E+03  7.269040E+04  4.245293E+03 -2.811531E+02
       280   2  1.750890E+05  5.991032E+04  1.322358E+04  8.727311E+04  5.744985E+03 -2.468013E+03
       280   3  2.056569E+05  7.433369E+04  2.030843E+04  9.942240E+04  7.230157E+03 -4.635229E+03
       280   4  1.250629E+05  1.742483E+04 -5.214705E+02  5.852813E+04  8.364579E+02 -2.837267E+03
       280   5  1.208859E+05  2.160536E+04  1.479119E+02  5.973810E+04  2.367420E+03 -5.000835E+03
       280   6  1.250724E+05  1.744266E+04  8.670397E+02  5.851393E+04  3.883870E+03 -7.144763E+03
       280   7  9.723447E+04 -2.300908E+03 -7.258517E+03  4.436661E+04 -2.572175E+03 -5.393228E+03
       280   8  6.668573E+04 -1.669813E+04 -1.292806E+04  3.220565E+04 -1.009781E+03 -7.533383E+03
       280   9  4.449403E+04 -3.944540E+04 -1.857522E+04  1.761093E+04  5.381068E+02 -9.653903E+03
       280  10  1.528922E+05  3.715104E+04  6.215551E+03  7.269040E+04  2.041738E-11 -2.122533E-10
       280  11  1.750890E+05  5.991030E+04  1.322351E+04  8.727312E+04 -1.834499E-10  2.853646E-11
       280  12  2.056569E+05  7.433365E+04  2.030829E+04  9.942242E+04  3.642835E-10  8.120956E-11
       280  13  1.250629E+05  1.742482E+04 -5.214869E+02  5.852814E+04  1.143000E-10 -2.084145E-11
       280  14  1.208859E+05  2.160534E+04  1.478543E+02  5.973811E+04  2.582894E-11  7.379234E-11
       280  15  1.250724E+05  1.744261E+04  8.669154E+02  5.851395E+04 -1.964426E-10  2.441310E-11
       280  16  9.723446E+04 -2.300941E+03 -7.258584E+03  4.436660E+04  1.087352E-10  1.481930E-10
       280  17  6.668571E+04 -1.669820E+04 -1.292817E+04  3.220564E+04 -3.994738E-11  2.953391E-11
       280  18  4.449400E+04 -3.944550E+04 -1.857539E+04  1.761093E+04 -3.092201E-10 -8.031774E-11
       280  19  1.528922E+05  3.715104E+04  6.215585E+03  7.269040E+04 -4.245293E+03  2.811531E+02
       280  20  1.750890E+05  5.991032E+04  1.322358E+04  8.727311E+04 -5.744985E+03  2.468013E+03
       280  21  2.056569E+05  7.433369E+04  2.030843E+04  9.942240E+04 -7.230157E+03  4.635229E+03
       280  22  1.250629E+05  1.742483E+04 -5.214705E+02  5.852813E+04 -8.364579E+02  2.837267E+03
       280  23  1.208859E+05  2.160536E+04  1.479119E+02  5.973810E+04 -2.367420E+03  5.000835E+03
       280  24  1.250724E+05  1.744266E+04  8.670397E+02  5.851393E+04 -3.883870E+03  7.144763E+03
       280  25  9.723447E+04 -2.300908E+03 -7.258517E+03  4.436661E+04  2.572175E+03  5.393228E+03
       280  26  6.668573E+04 -1.669813E+04 -1.292806E+04  3.220565E+04  1.009781E+03  7.533383E+03
       280  27  4.449403E+04 -3.944540E+04 -1.857522E+04  1.761093E+04 -5.381068E+02  9.653903E+03
       281   1  2.230161E+05  8.672726E+04  2.512820E+04  1.083102E+05  8.080129E+03 -5.948420E+03
       281   2  2.453888E+05  1.092496E+05  3.300536E+04  1.226289E+05  7.676006E+03 -9.191963E+03
       281   3  2.766999E+05  1.241589E+05  4.256523E+04  1.343692E+05  6.899092E+03 -1.193819E+04
       281   4  1.250971E+05  1.745367E+04  1.305990E+03  5.856474E+04  4.668976E+03 -8.506742E+03
       281   5  1.208771E+05  2.163697E+04  2.552589E+03  5.963475E+04  5.061359E+03 -1.115323E+04
       281   6  1.254223E+05  1.803480E+04  4.791301E+03  5.812607E+04  5.080987E+03 -1.330229E+04
       281   7  2.719106E+04 -5.181281E+04 -2.251622E+04  8.829244E+03  1.258601E+03 -1.106448E+04
       281   8 -3.615707E+03 -6.596551E+04 -2.790085E+04 -3.344237E+03  2.447438E+03 -1.311396E+04
       281   9 -2.582900E+04 -8.807577E+04 -3.298430E+04 -1.809568E+04  3.263478E+03 -1.466594E+04
       281  10  2.230160E+05  8.672721E+04  2.512801E+04  1.083102E+05 -1.407814E-10 -1.335032E-10
       281  11  2.453888E+05  1.092495E+05  3.300509E+04  1.226290E+05 -1.956699E-10 -1.167702E-10
       281  12  2.766998E+05  1.241588E+05  4.256488E+04  1.343693E+05 -6.632645E-11 -5.379282E-11
       281  13  1.250971E+05  1.745359E+04  1.305813E+03  5.856478E+04  3.305641E-10  2.618142E-11
       281  14  1.208770E+05  2.163683E+04  2.552307E+03  5.963479E+04 -1.953376E-10 -5.634957E-11
       281  15  1.254222E+05  1.803460E+04  4.790920E+03  5.812612E+04 -1.395647E-10  1.157833E-10
       281  16  2.719103E+04 -5.181294E+04 -2.251646E+04  8.829255E+03  1.416987E-10  4.631000E-11
       281  17 -3.615760E+03 -6.596570E+04 -2.790118E+04 -3.344212E+03  2.529423E-10  1.141335E-10
       281  18 -2.582907E+04 -8.807601E+04 -3.298472E+04 -1.809564E+04  1.972530E-10  2.010622E-10
       281  19  2.230161E+05  8.672726E+04  2.512820E+04  1.083102E+05 -8.080129E+03  5.948420E+03
       281  20  2.453888E+05  1.092496E+05  3.300536E+04  1.226289E+05 -7.676006E+03  9.191963E+03
       281  21  2.766999E+05  1.241589E+05  4.256523E+04  1.343692E+05 -6.899092E+03  1.193819E+04
       281  22  1.250971E+05  1.745367E+04  1.305990E+03  5.856474E+04 -4.668976E+03  8.506742E+03
       281  23  1.208771E+05  2.163697E+04  2.552589E+03  5.963475E+04 -5.061359E+03  1.115323E+04
       281  24  1.254223E+05  1.803480E+04  4.791301E+03  5.812607E+04 -5.080987E+03  1.330229E+04
       281  25  2.719106E+04 -5.181281E+04 -2.251622E+04  8.829244E+03 -1.258601E+03  1.106448E+04
       281  26 -3.615707E+03 -6.596551E+04 -2.790085E+04 -3.344237E+03 -2.447438E+03  1.311396E+04
       281  27 -2.582900E+04 -8.807577E+04 -3.298430E+04 -1.809568E+04 -3.263478E+03  1.466594E+04
       282   1  2.928938E+05  1.384969E+05  4.881714E+04  1.444457E+05  7.836437E+03 -1.286333E+04
       282   2  3.220560E+05  1.558315E+05  6.463298E+04  1.533143E+05 -7.555867E+03 -2.228609E+04
       282   3  3.685393E+05  1.772985E+05  9.596482E+04  1.555138E+05 -2.745369E+04 -2.570672E+04
       282   4  1.256807E+05  1.812483E+04  6.311598E+03  5.878814E+04  5.206030E+03 -1.483688E+04
       282   5  1.218275E+05  2.379491E+04  1.149514E+04  5.709822E+04 -5.706608E+02 -1.704698E+04
       282   6  1.332110E+05  3.151384E+04  2.385235E+04  4.873798E+04 -1.085236E+04 -1.325323E+04
       282   7 -4.150270E+04 -1.022314E+05 -3.619690E+04 -2.684379E+04  2.576537E+03 -1.680972E+04
       282   8 -7.835700E+04 -1.082228E+05 -4.164632E+04 -3.908400E+04  6.411533E+03 -1.180993E+04
       282   9 -1.020567E+05 -1.142490E+05 -4.826463E+04 -5.799469E+04  5.740270E+03 -8.051608E+02
       282  10  2.928937E+05  1.384967E+05  4.881671E+04  1.444458E+05  9.505002E-12 -1.348490E-10
       282  11  3.220558E+05  1.558310E+05  6.463194E+04  1.533142E+05 -2.578421E-10 -3.918109E-10
       282  12  3.685383E+05  1.772976E+05  9.596217E+04  1.555132E+05 -3.316526E-10 -3.788625E-10
       282  13  1.256806E+05  1.812459E+04  6.311133E+03  5.878820E+04 -5.431133E-11 -4.844243E-11
       282  14  1.218274E+05  2.379460E+04  1.149459E+04  5.709821E+04 -2.492863E-12 -3.052637E-10
       282  15  1.332109E+05  3.151362E+04  2.385180E+04  4.873786E+04  2.043187E-10  3.825474E-10
       282  16 -4.150278E+04 -1.022317E+05 -3.619744E+04 -2.684375E+04 -1.284850E-10 -2.476060E-11
       282  17 -7.835709E+04 -1.082229E+05 -4.164666E+04 -3.908394E+04  1.154466E-10 -6.350892E-11
       282  18 -1.020567E+05 -1.142490E+05 -4.826470E+04 -5.799469E+04  3.067884E-10  2.857743E-10
       282  19  2.928938E+05  1.384969E+05  4.881714E+04  1.444457E+05 -7.836437E+03  1.286333E+04
       282  20  3.220560E+05  1.558315E+05  6.463298E+04  1.533143E+05  7.555867E+03  2.228609E+04
       282  21  3.685393E+05  1.772985E+05  9.596482E+04  1.555138E+05  2.745369E+04  2.570672E+04
       282  22  1.256807E+05  1.812483E+04  6.311598E+03  5.878814E+04 -5.206030E+03  1.483688E+04
       282  23  1.218275E+05  2.379491E+04  1.149514E+04  5.709822E+04  5.706608E+02  1.704698E+04
       282  24  1.332110E+05  3.151384E+04  2.385235E+04  4.873798E+04  1.085236E+04  1.325323E+04
       282  25 -4.150270E+04 -1.022314E+05 -3.619690E+04 -2.684379E+04 -2.576537E+03  1.680972E+04
       282  26 -7.835700E+04 -1.082228E+05 -4.164632E+04 -3.908400E+04 -6.411533E+03  1.180993E+04
       282  27 -1.020567E+05 -1.142490E+05 -4.826463E+04 -5.799469E+04 -5.740270E+03  8.051608E+02
       283   1  3.572408E+05  2.486831E+04  2.606350E+04  4.959770E+04  1.226900E+04  1.185042E+02
       283   2  3.276543E+05  6.506030E+03  1.081615E+04  4.152469E+04  5.848641E+03  9.930434E+02
       283   3  3.008400E+05 -4.105024E+03  1.684284E+03  3.812177E+04 -5.715034E+02  2.608110E+03
       283   4  3.285078E+05  1.764733E+04  1.870850E+04  3.770444E+04  1.343453E+04  1.185004E+02
       283   5  3.272713E+05  6.109823E+03  9.232272E+03  3.537084E+04  8.720969E+03  9.935480E+02
       283   6  3.285104E+05  2.027383E+03  4.686990E+03  3.770704E+04  4.007339E+03  2.609004E+03
       283   7  2.997758E+05  1.042682E+04  1.135351E+04  2.581173E+04  1.460002E+04  1.184521E+02
       283   8  3.268885E+05  5.713763E+03  7.648448E+03  2.921698E+04  1.159329E+04  9.939956E+02
       283   9  3.561817E+05  8.159774E+03  7.689783E+03  3.729230E+04  8.586373E+03  2.609891E+03
       283  10  3.572407E+05  2.486827E+04  2.606321E+04  4.959770E+04 -4.307834E-10  7.129666E-12
       283  11  3.276543E+05  6.506020E+03  1.081608E+04  4.152469E+04 -4.575629E-12 -9.784936E-12
       283  12  3.008400E+05 -4.105031E+03  1.684270E+03  3.812177E+04  3.880676E-10 -2.863826E-10
       283  13  3.285076E+05  1.764728E+04  1.870816E+04  3.770444E+04  2.835785E-10  4.269276E-10
       283  14  3.272713E+05  6.109802E+03  9.232127E+03  3.537083E+04 -1.811129E-10 -2.693094E-10
       283  15  3.285104E+05  2.027371E+03  4.686947E+03  3.770704E+04  2.386035E-10 -3.244114E-11
       283  16  2.997756E+05  1.042676E+04  1.135311E+04  2.581172E+04  3.194161E-10  3.846376E-11
       283  17  3.268883E+05  5.713726E+03  7.648194E+03  2.921697E+04  8.314745E-11  2.924759E-10
       283  18  3.561816E+05  8.159747E+03  7.689632E+03  3.729228E+04 -3.882018E-10  9.025982E-12
       283  19  3.572408E+05  2.486831E+04  2.606350E+04  4.959770E+04 -1.226900E+04 -1.185042E+02
       283  20  3.276543E+05  6.506030E+03  1.081615E+04  4.152469E+04 -5.848641E+03 -9.930434E+02
       283  21  3.008400E+05 -4.105024E+03  1.684284E+03  3.812177E+04  5.715034E+02 -2.608110E+03
       283  22  3.285078E+05  1.764733E+04  1.870850E+04  3.770444E+04 -1.343453E+04 -1.185004E+02
       283  23  3.272713E+05  6.109823E+03  9.232272E+03  3.537084E+04 -8.720969E+03 -9.935480E+02
       283  24  3.285104E+05  2.027383E+03  4.686990E+03  3.770704E+04 -4.007339E+03 -2.609004E+03
       283  25  2.997758E+05  1.042682E+04  1.135351E+04  2.581173E+04 -1.460002E+04 -1.184521E+02
       283  26  3.268885E+05  5.713763E+03  7.648448E+03  2.921698E+04 -1.159329E+04 -9.939956E+02
       283  27  3.561817E+05  8.159774E+03  7.689783E+03  3.729230E+04 -8.586373E+03 -2.609891E+03
       284   1  2.828067E+05 -8.647573E+03 -2.355354E+03  3.849393E+04 -1.183014E+03  3.799643E+03
       284   2  2.544993E+05 -1.616067E+04 -8.609642E+03  3.572005E+04 -1.724620E+03  5.807103E+03
       284   3  2.264052E+05 -2.310295E+04 -1.436906E+04  3.766661E+04 -2.266113E+03  7.825046E+03
       284   4  3.280062E+05  1.508003E+03  3.240667E+03  3.771812E+04  3.432067E+03  3.800515E+03
       284   5  3.279018E+05  4.414312E+02  1.023674E+03  3.535806E+04  2.914484E+03  5.807883E+03
       284   6  3.280053E+05 -5.859236E+01 -7.152665E+02  3.771837E+04  2.396993E+03  7.825732E+03
       284   7  3.732079E+05  1.166351E+04  8.836765E+03  3.694226E+04  8.047468E+03  3.801376E+03
       284   8  4.013098E+05  1.704332E+04  1.065703E+04  3.499603E+04  7.554111E+03  5.808657E+03
       284   9  4.296159E+05  2.298534E+04  1.293852E+04  3.777015E+04  7.060826E+03  7.826418E+03
       284  10  2.828067E+05 -8.647589E+03 -2.355383E+03  3.849394E+04 -1.130618E-10 -4.860210E-11
       284  11  2.544993E+05 -1.616071E+04 -8.609711E+03  3.572006E+04 -8.209390E-11 -3.309193E-10
       284  12  2.264052E+05 -2.310302E+04 -1.436919E+04  3.766662E+04  2.059956E-10  7.028411E-11
       284  13  3.280062E+05  1.507984E+03  3.240618E+03  3.771811E+04  2.378415E-10 -1.491824E-10
       284  14  3.279017E+05  4.413927E+02  1.023595E+03  3.535805E+04 -6.766163E-11 -2.494377E-10
       284  15  3.280053E+05 -5.865967E+01 -7.153923E+02  3.771836E+04 -1.487245E-10 -7.552951E-11
       284  16  3.732078E+05  1.166348E+04  8.836616E+03  3.694223E+04  1.243619E-10 -3.322303E-10
       284  17  4.013097E+05  1.704327E+04  1.065686E+04  3.499599E+04 -3.134576E-10 -2.997555E-10
       284  18  4.296158E+05  2.298526E+04  1.293831E+04  3.777011E+04 -4.579828E-11  9.074654E-12
       284  19  2.828067E+05 -8.647573E+03 -2.355354E+03  3.849393E+04  1.183014E+03 -3.799643E+03
       284  20  2.544993E+05 -1.616067E+04 -8.609642E+03  3.572005E+04  1.724620E+03 -5.807103E+03
       284  21  2.264052E+05 -2.310295E+04 -1.436906E+04  3.766661E+04  2.266113E+03 -7.825046E+03
       284  22  3.280062E+05  1.508003E+03  3.240667E+03  3.771812E+04 -3.432067E+03 -3.800515E+03
       284  23  3.279018E+05  4.414312E+02  1.023674E+03  3.535806E+04 -2.914484E+03 -5.807883E+03
       284  24  3.280053E+05 -5.859236E+01 -7.152665E+02  3.771837E+04 -2.396993E+03 -7.825732E+03
       284  25  3.732079E+05  1.166351E+04  8.836765E+03  3.694226E+04 -8.047468E+03 -3.801376E+03
       284  26  4.013098E+05  1.704332E+04  1.065703E+04  3.499603E+04 -7.554111E+03 -5.808657E+03
       284  27  4.296159E+05  2.298534E+04  1.293852E+04  3.777015E+04 -7.060826E+03 -7.826418E+03
       285   1  2.086935E+05 -2.723812E+04 -1.784806E+04  3.759315E+04 -2.038833E+03  9.027131E+03
       285   2  1.809210E+05 -3.454793E+04 -2.468422E+04  3.620133E+04  1.464297E+03  1.070768E+04
       285   3  1.522673E+05 -4.356140E+04 -3.422653E+04  3.948824E+04  4.967492E+03  1.172819E+04
       285   4  3.278212E+05 -1.734979E+02 -1.616446E+03  3.770908E+04  2.593548E+03  9.027725E+03
       285   5  3.281289E+05 -9.690798E+02 -3.954019E+03  3.536996E+04  4.576081E+03  1.070787E+04
       285   6  3.278192E+05 -3.204001E+03 -7.941599E+03  3.770953E+04  6.558809E+03  1.172805E+04
       285   7  4.469633E+05  2.689051E+04  1.461511E+04  3.782503E+04  7.226778E+03  9.028321E+03
       285   8  4.753587E+05  3.260881E+04  1.677593E+04  3.453839E+04  7.688570E+03  1.070806E+04
       285   9  5.034020E+05  3.715195E+04  1.834274E+04  3.593029E+04  8.150559E+03  1.172791E+04
       285  10  2.086935E+05 -2.723820E+04 -1.784822E+04  3.759316E+04  1.523073E-10  6.813781E-11
       285  11  1.809210E+05 -3.454805E+04 -2.468444E+04  3.620132E+04  3.759162E-10 -9.068742E-11
       285  12  1.522673E+05 -4.356155E+04 -3.422683E+04  3.948820E+04  3.698141E-10 -2.154604E-10
       285  13  3.278211E+05 -1.735873E+02 -1.616612E+03  3.770906E+04  3.661089E-11  1.821391E-11
       285  14  3.281288E+05 -9.692086E+02 -3.954274E+03  3.536993E+04 -4.928944E-11 -8.257114E-11
       285  15  3.278191E+05 -3.204160E+03 -7.941938E+03  3.770947E+04  4.920310E-11 -1.775255E-10
       285  16  4.469632E+05  2.689041E+04  1.461485E+04  3.782498E+04  3.278411E-12 -1.176558E-11
       285  17  4.753586E+05  3.260867E+04  1.677560E+04  3.453832E+04 -3.568654E-11  2.085754E-10
       285  18  5.034019E+05  3.715179E+04  1.834236E+04  3.593022E+04 -1.790302E-10 -6.836307E-11
       285  19  2.086935E+05 -2.723812E+04 -1.784806E+04  3.759315E+04  2.038833E+03 -9.027131E+03
       285  20  1.809210E+05 -3.454793E+04 -2.468422E+04  3.620133E+04 -1.464297E+03 -1.070768E+04
       285  21  1.522673E+05 -4.356140E+04 -3.422653E+04  3.948824E+04 -4.967492E+03 -1.172819E+04
       285  22  3.278212E+05 -1.734979E+02 -1.616446E+03  3.770908E+04 -2.593548E+03 -9.027725E+03
       285  23  3.281289E+05 -9.690798E+02 -3.954019E+03  3.536996E+04 -4.576081E+03 -1.070787E+04
       285  24  3.278192E+05 -3.204001E+03 -7.941599E+03  3.770953E+04 -6.558809E+03 -1.172805E+04
       285  25  4.469633E+05  2.689051E+04  1.461511E+04  3.782503E+04 -7.226778E+03 -9.028321E+03
       285  26  4.753587E+05  3.260881E+04  1.677593E+04  3.453839E+04 -7.688570E+03 -1.070806E+04
       285  27  5.034020E+05  3.715195E+04  1.834274E+04  3.593029E+04 -8.150559E+03 -1.172791E+04
       286   1  1.333749E+05 -4.897350E+04 -4.070049E+04  3.858873E+04  6.632283E+03  1.228597E+04
       286   2  1.088259E+05 -6.517055E+04 -5.994158E+04  4.877363E+04  2.887178E+04  1.026801E+04
       286   3  7.685348E+04 -9.949559E+04 -9.818907E+04  6.325663E+04  5.110962E+04  3.071895E+03
       286   4  3.267658E+05 -4.323936E+03 -1.079276E+04  3.762515E+04  7.944531E+03  1.228574E+04
       286   5  3.294425E+05 -1.311159E+04 -2.019884E+04  3.547726E+04  1.825354E+04  1.026622E+04
       286   6  3.267673E+05 -3.795340E+04 -4.032638E+04  3.762807E+04  2.856228E+04  3.068494E+03
       286   7  5.201942E+05  4.032382E+04  1.911412E+04  3.666125E+04  9.257170E+03  1.228551E+04
       286   8  5.501070E+05  3.894538E+04  1.954253E+04  2.217602E+04  7.631636E+03  1.026487E+04
       286   9  5.767413E+05  2.358714E+04  1.753440E+04  1.198912E+04  6.005938E+03  3.066954E+03
       286  10  1.333748E+05 -4.897368E+04 -4.070086E+04  3.858866E+04 -2.038476E-10 -2.379168E-10
       286  11  1.088250E+05 -6.517088E+04 -5.994335E+04  4.877339E+04 -7.407639E-11 -2.365425E-10
       286  12  7.685068E+04 -9.949630E+04 -9.819400E+04  6.325650E+04 -1.586491E-10 -2.993967E-11
       286  13  3.267657E+05 -4.324115E+03 -1.079317E+04  3.762507E+04 -3.465287E-10 -5.088372E-10
       286  14  3.294421E+05 -1.311179E+04 -2.019966E+04  3.547710E+04  2.268788E-10  3.064906E-11
       286  15  3.267664E+05 -3.795363E+04 -4.032793E+04  3.762800E+04 -1.567656E-12 -2.595371E-11
       286  16  5.201940E+05  4.032363E+04  1.911367E+04  3.666116E+04  1.970115E-10 -1.816303E-10
       286  17  5.501069E+05  3.894526E+04  1.954222E+04  2.217596E+04  4.582361E-10  8.681870E-12
       286  18  5.767412E+05  2.358712E+04  1.753432E+04  1.198911E+04 -1.578729E-10  5.105228E-12
       286  19  1.333749E+05 -4.897350E+04 -4.070049E+04  3.858873E+04 -6.632283E+03 -1.228597E+04
       286  20  1.088259E+05 -6.517055E+04 -5.994158E+04  4.877363E+04 -2.887178E+04 -1.026801E+04
       286  21  7.685348E+04 -9.949559E+04 -9.818907E+04  6.325663E+04 -5.110962E+04 -3.071895E+03
       286  22  3.267658E+05 -4.323936E+03 -1.079276E+04  3.762515E+04 -7.944531E+03 -1.228574E+04
       286  23  3.294425E+05 -1.311159E+04 -2.019884E+04  3.547726E+04 -1.825354E+04 -1.026622E+04
       286  24  3.267673E+05 -3.795340E+04 -4.032638E+04  3.762807E+04 -2.856228E+04 -3.068494E+03
       286  25  5.201942E+05  4.032382E+04  1.911412E+04  3.666125E+04 -9.257170E+03 -1.228551E+04
       286  26  5.501070E+05  3.894538E+04  1.954253E+04  2.217602E+04 -7.631636E+03 -1.026487E+04
       286  27  5.767413E+05  2.358714E+04  1.753440E+04  1.198912E+04 -6.005938E+03 -3.066954E+03
       287   1 -5.021433E+04 -4.410206E+04 -5.785733E+04  3.866777E+04  1.214551E+03 -4.681791E+04
       287   2 -8.150549E+02 -4.596389E+04 -2.418875E+04  1.502963E+04  4.075495E+03 -3.049973E+04
       287   3  1.256244E+04 -5.895503E+04 -1.014883E+04 -9.917067E+03  4.919463E+03 -1.418190E+04
       287   4 -7.229546E+04 -1.337037E+05 -7.871705E+04 -8.471527E+03  1.219280E+03 -5.436499E+04
       287   5 -2.023120E+04 -1.277939E+05 -3.947184E+04 -7.811766E+03  4.077264E+03 -3.411453E+04
       287   6 -4.876402E+03 -1.336989E+05 -2.258824E+04 -8.459983E+03  4.919428E+03 -1.386398E+04
       287   7 -9.436877E+04 -2.232931E+05 -9.957591E+04 -5.560398E+04  1.225156E+03 -6.191099E+04
       287   8 -3.964576E+04 -2.096163E+05 -5.475488E+04 -3.065008E+04  4.079299E+03 -3.772886E+04
       287   9 -2.231553E+04 -2.084373E+05 -3.502782E+04 -7.003080E+03  4.919393E+03 -1.354611E+04
       287  10 -5.021492E+04 -4.410442E+04 -5.786145E+04  3.866782E+04  6.294018E-11 -1.858165E-10
       287  11 -8.153225E+02 -4.596489E+04 -2.419052E+04  1.502973E+04  5.597171E-11  2.000909E-10
       287  12  1.256236E+04 -5.895525E+04 -1.014925E+04 -9.917010E+03  3.876262E-11  2.889095E-10
       287  13 -7.229625E+04 -1.337069E+05 -7.872261E+04 -8.471474E+03  7.999917E-12  1.542337E-10
       287  14 -2.023153E+04 -1.277952E+05 -3.947405E+04 -7.811654E+03  1.355834E-10 -9.063274E-11
       287  15 -4.876480E+03 -1.336991E+05 -2.258865E+04 -8.459928E+03  4.656635E-11 -2.781895E-10
       287  16 -9.436980E+04 -2.232972E+05 -9.958312E+04 -5.560392E+04  7.678995E-12  1.089149E-10
       287  17 -3.964616E+04 -2.096178E+05 -5.475759E+04 -3.064995E+04  1.972470E-10 -1.589415E-10
       287  18 -2.231561E+04 -2.084375E+05 -3.502821E+04 -7.003026E+03  6.094921E-12 -2.217365E-10
       287  19 -5.021433E+04 -4.410206E+04 -5.785733E+04  3.866777E+04 -1.214551E+03  4.681791E+04
       287  20 -8.150549E+02 -4.596389E+04 -2.418875E+04  1.502963E+04 -4.075495E+03  3.049973E+04
       287  21  1.256244E+04 -5.895503E+04 -1.014883E+04 -9.917067E+03 -4.919463E+03  1.418190E+04
       287  22 -7.229546E+04 -1.337037E+05 -7.871705E+04 -8.471527E+03 -1.219280E+03  5.436499E+04
       287  23 -2.023120E+04 -1.277939E+05 -3.947184E+04 -7.811766E+03 -4.077264E+03  3.411453E+04
       287  24 -4.876402E+03 -1.336989E+05 -2.258824E+04 -8.459983E+03 -4.919428E+03  1.386398E+04
       287  25 -9.436877E+04 -2.232931E+05 -9.957591E+04 -5.560398E+04 -1.225156E+03  6.191099E+04
       287  26 -3.964576E+04 -2.096163E+05 -5.475488E+04 -3.065008E+04 -4.079299E+03  3.772886E+04
       287  27 -2.231553E+04 -2.084373E+05 -3.502782E+04 -7.003080E+03 -4.919393E+03  1.354611E+04
       288   1  1.191199E+04 -6.151369E+04 -6.482492E+03 -6.219949E+03  4.764123E+03 -1.106720E+04
       288   2  1.308676E+04 -6.812444E+04 -2.393587E+03 -7.328465E+03  4.496331E+03 -5.494412E+03
       288   3  1.078847E+04 -7.632937E+04 -2.801274E+03 -9.887249E+03  3.933088E+03  7.825963E+01
       288   4 -4.362540E+03 -1.314502E+05 -1.791626E+04 -8.492620E+03  4.764170E+03 -1.083391E+04
       288   5 -1.391708E+03 -1.306027E+05 -1.230188E+04 -7.767211E+03  4.496220E+03 -4.685084E+03
       288   6 -1.994185E+03 -1.314496E+05 -1.158453E+04 -8.492105E+03  3.932836E+03  1.463690E+03
       288   7 -2.063730E+04 -2.013818E+05 -2.935016E+04 -1.076503E+04  4.764215E+03 -1.060065E+04
       288   8 -1.587037E+04 -1.930770E+05 -2.221028E+04 -8.205911E+03  4.496107E+03 -3.875835E+03
       288   9 -1.477698E+04 -1.865668E+05 -2.036785E+04 -7.097089E+03  3.932589E+03  2.849003E+03
       288  10  1.191194E+04 -6.151383E+04 -6.482765E+03 -6.219907E+03 -2.687075E-11 -2.839888E-10
       288  11  1.308673E+04 -6.812448E+04 -2.393682E+03 -7.328445E+03  1.355851E-11  1.870598E-10
       288  12  1.078845E+04 -7.632938E+04 -2.801303E+03 -9.887250E+03 -1.589688E-10  3.735296E-10
       288  13 -4.362596E+03 -1.314503E+05 -1.791652E+04 -8.492579E+03 -1.650206E-11  1.891493E-10
       288  14 -1.391736E+03 -1.306027E+05 -1.230196E+04 -7.767194E+03  2.015186E-10 -1.017728E-10
       288  15 -1.994202E+03 -1.314496E+05 -1.158456E+04 -8.492110E+03  1.219768E-10 -3.206746E-10
       288  16 -2.063736E+04 -2.013819E+05 -2.935041E+04 -1.076499E+04  8.783005E-11  1.820253E-10
       288  17 -1.587039E+04 -1.930770E+05 -2.221034E+04 -8.205897E+03  1.038078E-10 -1.508822E-10
       288  18 -1.477700E+04 -1.865668E+05 -2.036790E+04 -7.097098E+03  1.266129E-10 -2.985745E-10
       288  19  1.191199E+04 -6.151369E+04 -6.482492E+03 -6.219949E+03 -4.764123E+03  1.106720E+04
       288  20  1.308676E+04 -6.812444E+04 -2.393587E+03 -7.328465E+03 -4.496331E+03  5.494412E+03
       288  21  1.078847E+04 -7.632937E+04 -2.801274E+03 -9.887249E+03 -3.933088E+03 -7.825963E+01
       288  22 -4.362540E+03 -1.314502E+05 -1.791626E+04 -8.492620E+03 -4.764170E+03  1.083391E+04
       288  23 -1.391708E+03 -1.306027E+05 -1.230188E+04 -7.767211E+03 -4.496220E+03  4.685084E+03
       288  24 -1.994185E+03 -1.314496E+05 -1.158453E+04 -8.492105E+03 -3.932836E+03 -1.463690E+03
       288  25 -2.063730E+04 -2.013818E+05 -2.935016E+04 -1.076503E+04 -4.764215E+03  1.060065E+04
       288  26 -1.587037E+04 -1.930770E+05 -2.221028E+04 -8.205911E+03 -4.496107E+03  3.875835E+03
       288  27 -1.477698E+04 -1.865668E+05 -2.036785E+04 -7.097089E+03 -3.932589E+03 -2.849003E+03
       289   1  9.491659E+03 -8.178271E+04 -4.465610E+03 -8.037080E+03  3.544427E+03  1.996813E+03
       289   2  1.355345E+03 -8.670109E+04 -1.080927E+04 -1.781446E+04  2.478122E+03  9.948042E+03
       289   3 -2.255175E+04 -9.659820E+04 -2.627287E+04 -2.910942E+04  6.633215E+02  1.789893E+04
       289   4 -2.221825E+03 -1.322357E+05 -1.257521E+04 -8.506591E+03  3.544169E+03  3.344145E+03
       289   5 -8.750808E+03 -1.296201E+05 -1.838891E+04 -7.750568E+03  2.477689E+03  1.275535E+04
       289   6 -3.130507E+04 -1.322373E+05 -3.433689E+04 -8.512529E+03  6.629596E+02  2.216625E+04
       289   7 -1.393544E+04 -1.826862E+05 -2.068488E+04 -8.976064E+03  3.543908E+03  4.691372E+03
       289   8 -1.885668E+04 -1.725371E+05 -2.596853E+04  2.312607E+03  2.477346E+03  1.556247E+04
       289   9 -4.005689E+04 -1.678743E+05 -4.240070E+04  1.208316E+04  6.628808E+02  2.643332E+04
       289  10  9.491644E+03 -8.178272E+04 -4.465641E+03 -8.037085E+03 -1.207624E-10 -6.428448E-10
       289  11  1.355312E+03 -8.670120E+04 -1.080947E+04 -1.781448E+04 -3.408706E-10  1.647953E-10
       289  12 -2.255183E+04 -9.659855E+04 -2.627347E+04 -2.910943E+04 -2.534473E-11  5.367053E-10
       289  13 -2.221842E+03 -1.322357E+05 -1.257526E+04 -8.506601E+03  1.651311E-11  2.316577E-10
       289  14 -8.750858E+03 -1.296203E+05 -1.838922E+04 -7.750593E+03 -5.323692E-10 -1.170573E-10
       289  15 -3.130521E+04 -1.322378E+05 -3.433782E+04 -8.512541E+03  1.578127E-11 -3.652721E-10
       289  16 -1.393545E+04 -1.826862E+05 -2.068494E+04 -8.976077E+03  1.183150E-10  5.413774E-10
       289  17 -1.885675E+04 -1.725373E+05 -2.596899E+04  2.312575E+03 -1.215382E-10 -1.612650E-10
       289  18 -4.005708E+04 -1.678750E+05 -4.240201E+04  1.208315E+04 -7.719071E-11 -4.734083E-10
       289  19  9.491659E+03 -8.178271E+04 -4.465610E+03 -8.037080E+03 -3.544427E+03 -1.996813E+03
       289  20  1.355345E+03 -8.670109E+04 -1.080927E+04 -1.781446E+04 -2.478122E+03 -9.948042E+03
       289  21 -2.255175E+04 -9.659820E+04 -2.627287E+04 -2.910942E+04 -6.633215E+02 -1.789893E+04
       289  22 -2.221825E+03 -1.322357E+05 -1.257521E+04 -8.506591E+03 -3.544169E+03 -3.344145E+03
       289  23 -8.750808E+03 -1.296201E+05 -1.838891E+04 -7.750568E+03 -2.477689E+03 -1.275535E+04
       289  24 -3.130507E+04 -1.322373E+05 -3.433689E+04 -8.512529E+03 -6.629596E+02 -2.216625E+04
       289  25 -1.393544E+04 -1.826862E+05 -2.068488E+04 -8.976064E+03 -3.543908E+03 -4.691372E+03
       289  26 -1.885668E+04 -1.725371E+05 -2.596853E+04  2.312607E+03 -2.477346E+03 -1.556247E+04
       289  27 -4.005689E+04 -1.678743E+05 -4.240070E+04  1.208316E+04 -6.628808E+02 -2.643332E+04
       290   1  1.302553E+05  1.202779E+03 -2.167947E+04  7.378316E+04 -1.411373E+02  1.107620E+03
       290   2  1.619632E+05  3.132826E+04 -1.055263E+04  9.658513E+04  1.430249E+03  3.776206E+03
       290   3  2.095186E+05  4.929996E+04 -4.740930E+02  1.138463E+05  4.995168E+03  3.787924E+03
       290   4  2.175273E+05  5.809021E+04  6.337260E+03  1.145485E+05  2.905424E+03  3.392765E+03
       290   5  2.082130E+05  6.199204E+04  3.022874E+03  1.186644E+05  9.297014E+02  3.400730E+03
       290   6  2.155135E+05  5.450840E+04  1.738431E+03  1.172379E+05  9.472005E+02  7.517555E+02
       290   7  3.048083E+05  1.149816E+05  3.435343E+04  1.553205E+05  5.952609E+03  5.678330E+03
       290   8  2.544658E+05  9.265719E+04  1.659834E+04  1.407458E+05  4.290970E+02  3.025214E+03
       290   9  2.215085E+05  5.971696E+04  3.951073E+03  1.206296E+05 -3.100868E+03 -2.284501E+03
       290  10  1.302553E+05  1.202777E+03 -2.167947E+04  7.378316E+04  3.954430E-11  1.326262E-10
       290  11  1.619632E+05  3.132824E+04 -1.055266E+04  9.658512E+04  2.710685E-10  5.793512E-10
       290  12  2.095186E+05  4.929994E+04 -4.741669E+02  1.138463E+05 -1.630559E-10  5.102902E-11
       290  13  2.175272E+05  5.809019E+04  6.337222E+03  1.145485E+05 -6.690449E-12 -6.682969E-12
       290  14  2.082130E+05  6.199202E+04  3.022850E+03  1.186644E+05  3.906971E-10  2.297154E-10
       290  15  2.155135E+05  5.450840E+04  1.738429E+03  1.172379E+05 -9.462493E-11  2.601796E-11
       290  16  3.048082E+05  1.149815E+05  3.435331E+04  1.553204E+05 -1.354956E-10 -2.423618E-10
       290  17  2.544658E+05  9.265718E+04  1.659832E+04  1.407458E+05 -2.664173E-10 -5.184855E-10
       290  18  2.215085E+05  5.971695E+04  3.951045E+03  1.206296E+05  7.376127E-11  1.266764E-10
       290  19  1.302553E+05  1.202779E+03 -2.167947E+04  7.378316E+04  1.411373E+02 -1.107620E+03
       290  20  1.619632E+05  3.132826E+04 -1.055263E+04  9.658513E+04 -1.430249E+03 -3.776206E+03
       290  21  2.095186E+05  4.929996E+04 -4.740930E+02  1.138463E+05 -4.995168E+03 -3.787924E+03
       290  22  2.175273E+05  5.809021E+04  6.337260E+03  1.145485E+05 -2.905424E+03 -3.392765E+03
       290  23  2.082130E+05  6.199204E+04  3.022874E+03  1.186644E+05 -9.297014E+02 -3.400730E+03
       290  24  2.155135E+05  5.450840E+04  1.738431E+03  1.172379E+05 -9.472005E+02 -7.517555E+02
       290  25  3.048083E+05  1.149816E+05  3.435343E+04  1.553205E+05 -5.952609E+03 -5.678330E+03
       290  26  2.544658E+05  9.265719E+04  1.659834E+04  1.407458E+05 -4.290970E+02 -3.025214E+03
       290  27  2.215085E+05  5.971696E+04  3.951073E+03  1.206296E+05  3.100868E+03  2.284501E+03
       291   1  2.357388E+05  6.895174E+04  6.505067E+03  1.272588E+05  5.578781E+03  1.487948E+03
       291   2  2.670519E+05  1.033599E+05  1.634538E+04  1.488985E+05  7.494839E+03 -1.309603E+03
       291   3  3.130194E+05  1.232926E+05  2.631190E+04  1.662564E+05  9.536614E+03 -4.274346E+03
       291   4  2.154963E+05  5.455767E+04  1.378774E+03  1.169735E+05  2.072195E+03 -1.142180E+03
       291   5  2.081031E+05  6.169724E+04  8.538484E+02  1.191694E+05  3.764803E+03 -4.107515E+03
       291   6  2.154117E+05  5.440957E+04  6.493857E+02  1.170824E+05  5.583149E+03 -7.240047E+03
       291   7  1.952546E+05  4.016409E+04 -3.747377E+03  1.066888E+05 -1.434187E+03 -3.772155E+03
       291   8  1.491588E+05  2.003699E+04 -1.463774E+04  8.944376E+04  3.527096E+01 -6.905049E+03
       291   9  1.178149E+05 -1.446779E+04 -2.501384E+04  6.791738E+04  1.630522E+03 -1.020512E+04
       291  10  2.357388E+05  6.895173E+04  6.505004E+03  1.272588E+05  3.229460E-11  1.161742E-10
       291  11  2.670519E+05  1.033599E+05  1.634527E+04  1.488985E+05  3.550891E-10  4.766666E-10
       291  12  3.130193E+05  1.232925E+05  2.631170E+04  1.662565E+05  4.834593E-10  3.107452E-10
       291  13  2.154963E+05  5.455767E+04  1.378763E+03  1.169735E+05 -1.002287E-10  2.380251E-10
       291  14  2.081031E+05  6.169722E+04  8.537901E+02  1.191694E+05 -1.205910E-10 -8.138804E-11
       291  15  2.154117E+05  5.440950E+04  6.492286E+02  1.170825E+05 -2.276157E-11 -3.434321E-10
       291  16  1.952546E+05  4.016407E+04 -3.747408E+03  1.066888E+05 -1.288498E-10  7.236033E-11
       291  17  1.491587E+05  2.003694E+04 -1.463783E+04  8.944376E+04 -2.875750E-10  2.536268E-10
       291  18  1.178149E+05 -1.446790E+04 -2.501404E+04  6.791739E+04 -2.133468E-10 -5.659090E-10
       291  19  2.357388E+05  6.895174E+04  6.505067E+03  1.272588E+05 -5.578781E+03 -1.487948E+03
       291  20  2.670519E+05  1.033599E+05  1.634538E+04  1.488985E+05 -7.494839E+03  1.309603E+03
       291  21  3.130194E+05  1.232926E+05  2.631190E+04  1.662564E+05 -9.536614E+03  4.274346E+03
       291  22  2.154963E+05  5.455767E+04  1.378774E+03  1.169735E+05 -2.072195E+03  1.142180E+03
       291  23  2.081031E+05  6.169724E+04  8.538484E+02  1.191694E+05 -3.764803E+03  4.107515E+03
       291  24  2.154117E+05  5.440957E+04  6.493857E+02  1.170824E+05 -5.583149E+03  7.240047E+03
       291  25  1.952546E+05  4.016409E+04 -3.747377E+03  1.066888E+05  1.434187E+03  3.772155E+03
       291  26  1.491588E+05  2.003699E+04 -1.463774E+04  8.944376E+04 -3.527096E+01  6.905049E+03
       291  27  1.178149E+05 -1.446779E+04 -2.501384E+04  6.791738E+04 -1.630522E+03  1.020512E+04
       292   1  3.397636E+05  1.422619E+05  3.362935E+04  1.797159E+05  1.071640E+04 -6.087292E+03
       292   2  3.710579E+05  1.768468E+05  4.385813E+04  2.013261E+05  1.257605E+04 -9.262685E+03
       292   3  4.170096E+05  1.968962E+05  5.437203E+04  2.187034E+05  1.440949E+04 -1.240198E+04
       292   4  2.154128E+05  5.440784E+04  6.278956E+02  1.170733E+05  6.787232E+03 -9.035023E+03
       292   5  2.080850E+05  6.167658E+04  7.246089E+02  1.191911E+05  8.694747E+03 -1.217511E+04
       292   6  2.154028E+05  5.439737E+04  1.065010E+03  1.170741E+05  1.057606E+04 -1.527905E+04
       292   7  9.107771E+04 -3.343839E+04 -3.237543E+04  5.444432E+04  2.859065E+03 -1.198200E+04
       292   8  4.514208E+04 -5.347807E+04 -4.241114E+04  3.708085E+04  4.814815E+03 -1.508651E+04
       292   9  1.384467E+04 -8.807553E+04 -5.224449E+04  1.548405E+04  6.744362E+03 -1.815481E+04
       292  10  3.397634E+05  1.422618E+05  3.362907E+04  1.797159E+05  7.661813E-10  9.995613E-11
       292  11  3.710577E+05  1.768467E+05  4.385767E+04  2.013262E+05  7.337406E-10 -3.598342E-10
       292  12  4.170093E+05  1.968960E+05  5.437135E+04  2.187035E+05  1.024404E-10  8.889964E-10
       292  13  2.154127E+05  5.440774E+04  6.276556E+02  1.170734E+05  4.164821E-10 -1.238145E-10
       292  14  2.080849E+05  6.167640E+04  7.241882E+02  1.191912E+05  1.595885E-10 -2.656561E-10
       292  15  2.154026E+05  5.439709E+04  1.064361E+03  1.170742E+05 -6.649324E-11 -4.145824E-10
       292  16  9.107766E+04 -3.343854E+04 -3.237572E+04  5.444435E+04 -4.949233E-10 -7.496402E-10
       292  17  4.514199E+04 -5.347833E+04 -4.241161E+04  3.708091E+04 -1.554080E-10 -5.858501E-10
       292  18  1.384453E+04 -8.807589E+04 -5.224520E+04  1.548414E+04  8.399126E-11 -5.664934E-10
       292  19  3.397636E+05  1.422619E+05  3.362935E+04  1.797159E+05 -1.071640E+04  6.087292E+03
       292  20  3.710579E+05  1.768468E+05  4.385813E+04  2.013261E+05 -1.257605E+04  9.262685E+03
       292  21  4.170096E+05  1.968962E+05  5.437203E+04  2.187034E+05 -1.440949E+04  1.240198E+04
       292  22  2.154128E+05  5.440784E+04  6.278956E+02  1.170733E+05 -6.787232E+03  9.035023E+03
       292  23  2.080850E+05  6.167658E+04  7.246089E+02  1.191911E+05 -8.694747E+03  1.217511E+04
       292  24  2.154028E+05  5.439737E+04  1.065010E+03  1.170741E+05 -1.057606E+04  1.527905E+04
       292  25  9.107771E+04 -3.343839E+04 -3.237543E+04  5.444432E+04 -2.859065E+03  1.198200E+04
       292  26  4.514208E+04 -5.347807E+04 -4.241114E+04  3.708085E+04 -4.814815E+03  1.508651E+04
       292  27  1.384467E+04 -8.807553E+04 -5.224449E+04  1.548405E+04 -6.744362E+03  1.815481E+04
       293   1  4.437418E+05  2.159625E+05  6.199683E+04  2.322617E+05  1.569045E+04 -1.415008E+04
       293   2  4.751596E+05  2.504037E+05  7.336597E+04  2.536832E+05  1.576444E+04 -1.817955E+04
       293   3  5.217438E+05  2.709586E+05  8.646503E+04  2.707593E+05  1.528391E+04 -2.146885E+04
       293   4  2.154131E+05  5.439724E+04  1.344721E+03  1.171210E+05  1.170662E+04 -1.714045E+04
       293   5  2.080501E+05  6.165192E+04  2.253668E+03  1.191374E+05  1.276946E+04 -2.042874E+04
       293   6  2.156379E+05  5.480494E+04  4.035268E+03  1.168069E+05  1.327778E+04 -2.297653E+04
       293   7 -1.285704E+04 -1.071375E+05 -5.931192E+04  2.028890E+03  7.724760E+03 -2.012934E+04
       293   8 -5.898098E+04 -1.270596E+05 -6.886560E+04 -1.534302E+04  9.776198E+03 -2.267665E+04
       293   9 -9.036731E+04 -1.612976E+05 -7.840453E+04 -3.706091E+04  1.127295E+04 -2.448323E+04
       293  10  4.437415E+05  2.159622E+05  6.199599E+04  2.322618E+05  7.355118E-09  6.232422E-09
       293  11  4.751592E+05  2.504033E+05  7.336488E+04  2.536834E+05  1.249013E-09  2.095153E-10
       293  12  5.217434E+05  2.709581E+05  8.646372E+04  2.707596E+05 -9.831090E-09 -1.119349E-08
       293  13  2.154128E+05  5.439689E+04  1.343912E+03  1.171212E+05  1.342098E-09  1.769200E-09
       293  14  2.080499E+05  6.165143E+04  2.252577E+03  1.191376E+05  2.557943E-09  5.449685E-09
       293  15  2.156376E+05  5.480432E+04  4.033945E+03  1.168071E+05 -6.830994E-10  5.435467E-09
       293  16 -1.285722E+04 -1.071379E+05 -5.931280E+04  2.029016E+03 -5.065623E-09 -4.959379E-09
       293  17 -5.898122E+04 -1.270601E+05 -6.886674E+04 -1.534284E+04  3.795232E-09  1.905961E-10
       293  18 -9.036760E+04 -1.612982E+05 -7.840589E+04 -3.706069E+04  7.981835E-09  2.898158E-09
       293  19  4.437418E+05  2.159625E+05  6.199683E+04  2.322617E+05 -1.569045E+04  1.415008E+04
       293  20  4.751596E+05  2.504037E+05  7.336597E+04  2.536832E+05 -1.576444E+04  1.817955E+04
       293  21  5.217438E+05  2.709586E+05  8.646503E+04  2.707593E+05 -1.528391E+04  2.146885E+04
       293  22  2.154131E+05  5.439724E+04  1.344721E+03  1.171210E+05 -1.170662E+04  1.714045E+04
       293  23  2.080501E+05  6.165192E+04  2.253668E+03  1.191374E+05 -1.276946E+04  2.042874E+04
       293  24  2.156379E+05  5.480494E+04  4.035268E+03  1.168069E+05 -1.327778E+04  2.297653E+04
       293  25 -1.285704E+04 -1.071375E+05 -5.931192E+04  2.028890E+03 -7.724760E+03  2.012934E+04
       293  26 -5.898098E+04 -1.270596E+05 -6.886560E+04 -1.534302E+04 -9.776198E+03  2.267665E+04
       293  27 -9.036731E+04 -1.612976E+05 -7.840453E+04 -3.706091E+04 -1.127295E+04  2.448323E+04
       294   1  5.470579E+05  2.920343E+05  9.499118E+04  2.858601E+05  1.848597E+04 -2.195837E+04
       294   2  5.833826E+05  3.216263E+05  1.147176E+05  3.026177E+05 -2.736071E+03 -3.395294E+04
       294   3  6.437429E+05  3.500620E+05  1.541168E+05  3.112246E+05 -3.266483E+04 -3.436161E+04
       294   4  2.156419E+05  5.469300E+04  5.198321E+03  1.176387E+05  1.411160E+04 -2.524447E+04
       294   5  2.084034E+05  6.245648E+04  9.226436E+03  1.175714E+05  8.375541E+03 -2.561138E+04
       294   6  2.218447E+05  6.570960E+04  1.949271E+04  1.093515E+05 -6.068295E+03 -1.438719E+04
       294   7 -1.156468E+05 -1.825794E+05 -8.460315E+04 -5.047739E+04  9.740419E+03 -2.852813E+04
       294   8 -1.664155E+05 -1.966345E+05 -9.627654E+04 -6.734692E+04  1.947794E+04 -1.727652E+04
       294   9 -1.998583E+05 -2.185552E+05 -1.151479E+05 -9.236876E+04  2.050319E+04  5.569716E+03
       294  10  5.470574E+05  2.920337E+05  9.498963E+04  2.858605E+05  8.106409E-09  2.077044E-09
       294  11  5.833822E+05  3.216250E+05  1.147154E+05  3.026176E+05  4.017845E-09  1.078751E-09
       294  12  6.437414E+05  3.500605E+05  1.541126E+05  3.112237E+05 -4.488165E-09 -4.709003E-09
       294  13  2.156415E+05  5.469226E+04  5.196749E+03  1.176390E+05 -9.879173E-10  4.154669E-09
       294  14  2.084031E+05  6.245576E+04  9.225072E+03  1.175715E+05  2.517355E-09  3.803037E-09
       294  15  2.218446E+05  6.570937E+04  1.949225E+04  1.093514E+05  1.119398E-09  1.453181E-09
       294  16 -1.156471E+05 -1.825803E+05 -8.460486E+04 -5.047717E+04 -1.035675E-08 -9.618809E-09
       294  17 -1.664160E+05 -1.966349E+05 -9.627782E+04 -6.734665E+04  5.684494E-10  7.421382E-10
       294  18 -1.998588E+05 -2.185554E+05 -1.151487E+05 -9.236885E+04  6.599954E-09  4.835743E-09
       294  19  5.470579E+05  2.920343E+05  9.499118E+04  2.858601E+05 -1.848597E+04  2.195837E+04
       294  20  5.833826E+05  3.216263E+05  1.147176E+05  3.026177E+05  2.736071E+03  3.395294E+04
       294  21  6.437429E+05  3.500620E+05  1.541168E+05  3.112246E+05  3.266483E+04  3.436161E+04
       294  22  2.156419E+05  5.469300E+04  5.198321E+03  1.176387E+05 -1.411160E+04  2.524447E+04
       294  23  2.084034E+05  6.245648E+04  9.226436E+03  1.175714E+05 -8.375541E+03  2.561138E+04
       294  24  2.218447E+05  6.570960E+04  1.949271E+04  1.093515E+05  6.068295E+03  1.438719E+04
       294  25 -1.156468E+05 -1.825794E+05 -8.460315E+04 -5.047739E+04 -9.740419E+03  2.852813E+04
       294  26 -1.664155E+05 -1.966345E+05 -9.627654E+04 -6.734692E+04 -1.947794E+04  1.727652E+04
       294  27 -1.998583E+05 -2.185552E+05 -1.151479E+05 -9.236876E+04 -2.050319E+04 -5.569716E+03
       295   1  4.456674E+06  6.938858E+05  8.410974E+05  1.393073E+05  4.380523E+05 -4.425641E+03
       295   2  4.278317E+06  7.390796E+04  4.568263E+05  1.639944E+04  2.835090E+05 -1.256174E+04
       295   3  4.294038E+06  1.429777E+05  3.453789E+05  1.926138E+04  1.289700E+05 -9.022969E+03
       295   4  3.647732E+06  4.926649E+05  6.405424E+05  5.720779E+04  4.343005E+05 -4.484776E+03
       295   5  3.551254E+06 -1.067327E+05  2.779002E+05 -5.558491E+03  2.827772E+05 -1.257324E+04
       295   6  3.648562E+06 -1.718213E+04  1.862438E+05  5.743694E+04  1.312372E+05 -9.010576E+03
       295   7  2.839393E+06  2.914204E+05  4.399423E+05 -2.478542E+04  4.305533E+05 -4.542990E+03
       295   8  2.824669E+06 -2.874108E+05  9.893550E+04 -2.749098E+04  2.820461E+05 -1.258470E+04
       295   9  3.003466E+06 -1.773673E+05  2.707874E+04  9.557280E+04  1.335020E+05 -8.997896E+03
       295  10  4.456469E+06  6.938347E+05  8.407393E+05  1.393089E+05 -2.027382E-10  4.896258E-10
       295  11  4.278231E+06  7.388640E+04  4.566760E+05  1.640231E+04 -4.158026E-10 -1.097163E-09
       295  12  4.294020E+06  1.429732E+05  3.453477E+05  1.926231E+04  1.500775E-09 -3.363797E-09
       295  13  3.647530E+06  4.926146E+05  6.401900E+05  5.720936E+04  1.403103E-09  9.830436E-10
       295  14  3.551168E+06 -1.067542E+05  2.777505E+05 -5.555632E+03 -4.244132E-11  1.643958E-10
       295  15  3.648544E+06 -1.718681E+04  1.862114E+05  5.743789E+04  3.604331E-09  3.780835E-10
       295  16  2.839195E+06  2.913709E+05  4.395955E+05 -2.478385E+04  8.945828E-10  7.529188E-10
       295  17  2.824584E+06 -2.874322E+05  9.878641E+04 -2.748812E+04 -2.109496E-09 -1.452772E-09
       295  18  3.003447E+06 -1.773721E+05  2.704526E+04  9.557376E+04 -2.509976E-09 -5.279862E-09
       295  19  4.456674E+06  6.938858E+05  8.410974E+05  1.393073E+05 -4.380523E+05  4.425641E+03
       295  20  4.278317E+06  7.390796E+04  4.568263E+05  1.639944E+04 -2.835090E+05  1.256174E+04
       295  21  4.294038E+06  1.429777E+05  3.453789E+05  1.926138E+04 -1.289700E+05  9.022969E+03
       295  22  3.647732E+06  4.926649E+05  6.405424E+05  5.720779E+04 -4.343005E+05  4.484776E+03
       295  23  3.551254E+06 -1.067327E+05  2.779002E+05 -5.558491E+03 -2.827772E+05  1.257324E+04
       295  24  3.648562E+06 -1.718213E+04  1.862438E+05  5.743694E+04 -1.312372E+05  9.010576E+03
       295  25  2.839393E+06  2.914204E+05  4.399423E+05 -2.478542E+04 -4.305533E+05  4.542990E+03
       295  26  2.824669E+06 -2.874108E+05  9.893550E+04 -2.749098E+04 -2.820461E+05  1.258470E+04
       295  27  3.003466E+06 -1.773673E+05  2.707874E+04  9.557280E+04 -1.335020E+05  8.997896E+03
       296   1  3.988322E+06  1.630913E+05  2.499046E+05  6.297598E+04  1.002878E+05 -5.707526E+03
       296   2  3.909508E+06  6.064975E+04  1.657106E+05  5.806540E+03  5.393984E+04 -4.888325E+03
       296   3  3.864282E+06  6.959421E+04  1.393557E+05  4.424731E+04  7.591232E+03 -2.911218E+03
       296   4  3.612821E+06  6.972627E+04  1.573581E+05  5.049684E+04  1.003367E+05 -5.709517E+03
       296   5  3.596106E+06 -1.723589E+04  8.848157E+04  2.767025E+03  5.429520E+04 -4.887671E+03
       296   6  3.612943E+06  7.167022E+03  7.725754E+04  5.064955E+04  8.248458E+03 -2.909045E+03
       296   7  3.237448E+06 -2.364868E+04  6.480125E+04  3.802513E+04  1.003856E+05 -5.711512E+03
       296   8  3.282792E+06 -9.512877E+04  1.124536E+04 -2.710255E+02  5.465038E+04 -4.887020E+03
       296   9  3.361661E+06 -5.526469E+04  1.515472E+04  5.704916E+04  8.905418E+03 -2.906858E+03
       296  10  3.988311E+06  1.630886E+05  2.498858E+05  6.297644E+04 -2.256701E-10 -6.799631E-09
       296  11  3.909505E+06  6.064895E+04  1.657051E+05  5.806752E+03  9.812459E-10  1.504158E-09
       296  12  3.864282E+06  6.959419E+04  1.393556E+05  4.424733E+04 -1.346944E-09  6.304683E-09
       296  13  3.612811E+06  6.972355E+04  1.573392E+05  5.049730E+04  6.154993E-10 -5.124705E-09
       296  14  3.596102E+06 -1.723670E+04  8.847602E+04  2.767239E+03  2.437784E-11 -2.610139E-09
       296  15  3.612943E+06  7.166995E+03  7.725740E+04  5.064957E+04  4.149355E-10  2.825210E-10
       296  16  3.237437E+06 -2.365141E+04  6.478235E+04  3.802559E+04  1.552403E-09 -2.366230E-09
       296  17  3.282789E+06 -9.512959E+04  1.123973E+04 -2.708106E+02  1.429809E-09 -2.411755E-09
       296  18  3.361661E+06 -5.526472E+04  1.515456E+04  5.704918E+04  7.035569E-10  4.445649E-09
       296  19  3.988322E+06  1.630913E+05  2.499046E+05  6.297598E+04 -1.002878E+05  5.707526E+03
       296  20  3.909508E+06  6.064975E+04  1.657106E+05  5.806540E+03 -5.393984E+04  4.888325E+03
       296  21  3.864282E+06  6.959421E+04  1.393557E+05  4.424731E+04 -7.591232E+03  2.911218E+03
       296  22  3.612821E+06  6.972627E+04  1.573581E+05  5.049684E+04 -1.003367E+05  5.709517E+03
       296  23  3.596106E+06 -1.723589E+04  8.848157E+04  2.767025E+03 -5.429520E+04  4.887671E+03
       296  24  3.612943E+06  7.167022E+03  7.725754E+04  5.064955E+04 -8.248458E+03  2.909045E+03
       296  25  3.237448E+06 -2.364868E+04  6.480125E+04  3.802513E+04 -1.003856E+05  5.711512E+03
       296  26  3.282792E+06 -9.512877E+04  1.124536E+04 -2.710255E+02 -5.465038E+04  4.887020E+03
       296  27  3.361661E+06 -5.526469E+04  1.515472E+04  5.704916E+04 -8.905418E+03  2.906858E+03
       297   1  3.640233E+06  1.449848E+04  8.351384E+04  5.574746E+04 -6.233045E+03 -1.414228E+03
       297   2  3.567424E+06 -2.392030E+04  7.911989E+04  2.718773E+03 -5.093281E+04  3.855241E+02
       297   3  3.526622E+06  4.553505E+04  1.305326E+05  3.706100E+04 -9.562646E+04  1.440842E+03
       297   4  3.612625E+06  7.610247E+03  7.684866E+04  4.882839E+04 -5.667156E+03 -1.412247E+03
       297   5  3.596547E+06 -1.666672E+04  8.628784E+04  5.046060E+03 -5.055006E+04  3.866074E+02
       297   6  3.612501E+06  6.695847E+04  1.516574E+05  4.863359E+04 -9.543088E+04  1.439735E+03
       297   7  3.585018E+06  7.221382E+02  7.018345E+04  4.190963E+04 -5.101292E+03 -1.410279E+03
       297   8  3.625671E+06 -9.413190E+03  9.345572E+04  7.373456E+03 -5.016728E+04  3.876935E+02
       297   9  3.698386E+06  8.838184E+04  1.727817E+05  6.020777E+04 -9.523528E+04  1.438636E+03
       297  10  3.640232E+06  1.449846E+04  8.351376E+04  5.574745E+04  2.113895E-09  7.763515E-09
       297  11  3.567421E+06 -2.392099E+04  7.911505E+04  2.718789E+03 -2.626789E-10  4.550715E-09
       297  12  3.526613E+06  4.553261E+04  1.305155E+05  3.706111E+04 -5.846406E-10  1.255306E-09
       297  13  3.612625E+06  7.610236E+03  7.684860E+04  4.882838E+04 -1.606658E-09 -2.720470E-10
       297  14  3.596544E+06 -1.666740E+04  8.628306E+04  5.046076E+03  5.230231E-11  4.251830E-09
       297  15  3.612491E+06  6.695604E+04  1.516404E+05  4.863370E+04  3.585370E-09  9.790331E-09
       297  16  3.585018E+06  7.221292E+02  7.018340E+04  4.190962E+04 -5.784278E-10  7.783983E-09
       297  17  3.625669E+06 -9.413861E+03  9.345102E+04  7.373471E+03  1.604910E-09  4.660054E-09
       297  18  3.698376E+06  8.837942E+04  1.727647E+05  6.020788E+04 -1.140954E-09  6.141675E-09
       297  19  3.640233E+06  1.449848E+04  8.351384E+04  5.574746E+04  6.233045E+03  1.414228E+03
       297  20  3.567424E+06 -2.392030E+04  7.911989E+04  2.718773E+03  5.093281E+04 -3.855241E+02
       297  21  3.526622E+06  4.553505E+04  1.305326E+05  3.706100E+04  9.562646E+04 -1.440842E+03
       297  22  3.612625E+06  7.610247E+03  7.684866E+04  4.882839E+04  5.667156E+03  1.412247E+03
       297  23  3.596547E+06 -1.666672E+04  8.628784E+04  5.046060E+03  5.055006E+04 -3.866074E+02
       297  24  3.612501E+06  6.695847E+04  1.516574E+05  4.863359E+04  9.543088E+04 -1.439735E+03
       297  25  3.585018E+06  7.221382E+02  7.018345E+04  4.190963E+04  5.101292E+03  1.410279E+03
       297  26  3.625671E+06 -9.413190E+03  9.345572E+04  7.373456E+03  5.016728E+04 -3.876935E+02
       297  27  3.698386E+06  8.838184E+04  1.727817E+05  6.020777E+04  9.523528E+04 -1.438636E+03
       298   1  3.332529E+06 -9.407679E+04  1.015848E+05  8.846603E+04 -1.266501E+05  3.674042E+03
       298   2  3.176121E+06 -1.962678E+05  1.736503E+05 -1.928245E+04 -2.703033E+05  6.119608E+03
       298   3  3.203273E+06  3.618010E+05  5.040493E+05 -2.863973E+04 -4.139140E+05  1.686469E+03
       298   4  3.646397E+06 -1.633543E+04  1.790416E+05  5.162048E+04 -1.251559E+05  3.686288E+03
       298   5  3.554126E+06 -1.021896E+05  2.667401E+05  1.870892E+03 -2.705706E+05  6.109796E+03
       298   6  3.645581E+06  4.722898E+05  6.138668E+05  5.050970E+04 -4.159579E+05  1.629757E+03
       298   7  3.960357E+06  6.140379E+04  2.564918E+05  1.475631E+04 -1.236610E+05  3.698353E+03
       298   8  3.932262E+06 -8.120493E+03  3.598196E+05  2.303698E+04 -2.708381E+05  6.099972E+03
       298   9  4.088079E+06  5.827873E+05  7.236730E+05  1.297152E+05 -4.180032E+05  1.572560E+03
       298  10  3.332511E+06 -9.408109E+04  1.015548E+05  8.846640E+04  4.050865E-09  1.058121E-09
       298  11  3.176043E+06 -1.962873E+05  1.735136E+05 -1.928112E+04  3.720812E-09  4.531357E-09
       298  12  3.203090E+06  3.617553E+05  5.037290E+05 -2.863917E+04 -2.563819E-10  1.533825E-09
       298  13  3.646380E+06 -1.633962E+04  1.790123E+05  5.162085E+04  9.562158E-10  3.650885E-09
       298  14  3.554048E+06 -1.022092E+05  2.666032E+05  1.872221E+03  2.815429E-09  2.679327E-09
       298  15  3.645396E+06  4.722437E+05  6.135435E+05  5.051024E+04  9.709374E-10 -2.843460E-09
       298  16  3.960340E+06  6.139970E+04  2.564632E+05  1.475668E+04 -3.866028E-09  3.816651E-09
       298  17  3.932183E+06 -8.140067E+03  3.596825E+05  2.303831E+04 -3.997452E-11 -4.721030E-09
       298  18  4.087892E+06  5.827408E+05  7.233467E+05  1.297157E+05  2.862149E-10 -4.166420E-09
       298  19  3.332529E+06 -9.407679E+04  1.015848E+05  8.846603E+04  1.266501E+05 -3.674042E+03
       298  20  3.176121E+06 -1.962678E+05  1.736503E+05 -1.928245E+04  2.703033E+05 -6.119608E+03
       298  21  3.203273E+06  3.618010E+05  5.040493E+05 -2.863973E+04  4.139140E+05 -1.686469E+03
       298  22  3.646397E+06 -1.633543E+04  1.790416E+05  5.162048E+04  1.251559E+05 -3.686288E+03
       298  23  3.554126E+06 -1.021896E+05  2.667401E+05  1.870892E+03  2.705706E+05 -6.109796E+03
       298  24  3.645581E+06  4.722898E+05  6.138668E+05  5.050970E+04  4.159579E+05 -1.629757E+03
       298  25  3.960357E+06  6.140379E+04  2.564918E+05  1.475631E+04  1.236610E+05 -3.698353E+03
       298  26  3.932262E+06 -8.120493E+03  3.598196E+05  2.303698E+04  2.708381E+05 -6.099972E+03
       298  27  4.088079E+06  5.827873E+05  7.236730E+05  1.297152E+05  4.180032E+05 -1.572560E+03
       299   1  7.539568E+04  9.228682E+05  8.753284E+04 -8.484515E+00  1.490609E+03  4.406582E+04
       299   2  2.853241E+04  9.514616E+05  6.197426E+04  4.315056E+03  5.398389E+03  2.606299E+04
       299   3  3.939969E+04  9.968391E+05  6.256033E+04  2.864693E+04  7.429812E+03  8.059228E+03
       299   4  5.169248E+04  8.274137E+05  6.437112E+04  2.099726E+04  1.491980E+03  4.066930E+04
       299   5 -4.023036E+03  8.191448E+05  3.138588E+04  1.099292E+04  5.398803E+03  2.398151E+04
       299   6 -2.230909E+03  8.274317E+05  2.363505E+04  2.099636E+04  7.429911E+03  7.293770E+03
       299   7  2.799029E+04  7.319685E+05  4.120902E+04  4.199977E+04  1.493121E+03  3.727329E+04
       299   8 -3.657954E+04  6.868443E+05  7.963768E+02  1.766935E+04  5.399171E+03  2.190046E+04
       299   9 -4.386328E+04  6.580508E+05 -1.529210E+04  1.334789E+04  7.430028E+03  6.528518E+03
       299  10  7.539515E+04  9.228661E+05  8.752919E+04 -8.537393E+00 -6.109474E-12  2.682800E-11
       299  11  2.853219E+04  9.514609E+05  6.197293E+04  4.314943E+03  1.134369E-10  4.674142E-11
       299  12  3.939961E+04  9.968390E+05  6.256010E+04  2.864688E+04  3.958600E-11  1.456693E-10
       299  13  5.169204E+04  8.274119E+05  6.436801E+04  2.099721E+04 -1.598588E-12 -2.287313E-11
       299  14 -4.023222E+03  8.191442E+05  3.138475E+04  1.099282E+04  1.186979E-10  3.398427E-11
       299  15 -2.230982E+03  8.274316E+05  2.363484E+04  2.099631E+04  8.616418E-11 -8.031065E-11
       299  16  2.798991E+04  7.319670E+05  4.120641E+04  4.199973E+04  4.127065E-11 -3.728427E-11
       299  17 -3.657970E+04  6.868438E+05  7.954217E+02  1.766926E+04 -4.756289E-12 -1.657495E-10
       299  18 -4.386336E+04  6.580508E+05 -1.529228E+04  1.334785E+04  7.540903E-11 -6.577503E-11
       299  19  7.539568E+04  9.228682E+05  8.753284E+04 -8.484515E+00 -1.490609E+03 -4.406582E+04
       299  20  2.853241E+04  9.514616E+05  6.197426E+04  4.315056E+03 -5.398389E+03 -2.606299E+04
       299  21  3.939969E+04  9.968391E+05  6.256033E+04  2.864693E+04 -7.429812E+03 -8.059228E+03
       299  22  5.169248E+04  8.274137E+05  6.437112E+04  2.099726E+04 -1.491980E+03 -4.066930E+04
       299  23 -4.023036E+03  8.191448E+05  3.138588E+04  1.099292E+04 -5.398803E+03 -2.398151E+04
       299  24 -2.230909E+03  8.274317E+05  2.363505E+04  2.099636E+04 -7.429911E+03 -7.293770E+03
       299  25  2.799029E+04  7.319685E+05  4.120902E+04  4.199977E+04 -1.493121E+03 -3.727329E+04
       299  26 -3.657954E+04  6.868443E+05  7.963768E+02  1.766935E+04 -5.399171E+03 -2.190046E+04
       299  27 -4.386328E+04  6.580508E+05 -1.529210E+04  1.334789E+04 -7.430028E+03 -6.528518E+03
       300   1  5.415130E+04  1.030647E+06  7.007226E+04  1.822550E+04  8.315422E+03  4.916381E+03
       300   2  5.867101E+04  1.065486E+06  7.854965E+04  1.128125E+04  1.016163E+04 -6.879471E+03
       300   3  7.723503E+04  1.105418E+06  9.821869E+04  2.447649E+04  1.142005E+04 -1.867558E+04
       300   4  3.514666E+03  8.248611E+05  2.246518E+04  2.102616E+04  8.315817E+03  3.418403E+03
       300   5 -1.124222E+03  8.223466E+05  2.245490E+04  1.095706E+04  1.016216E+04 -7.962255E+03
       300   6  8.212400E+03  8.248531E+05  3.335120E+04  2.102776E+04  1.142073E+04 -1.934247E+04
       300   7 -4.712491E+04  6.191141E+05 -2.514471E+04  2.382589E+04  8.316199E+03  1.920918E+03
       300   8 -6.092359E+04  5.792613E+05 -3.364378E+04  1.063300E+04  1.016270E+04 -9.044619E+03
       300   9 -6.081570E+04  5.443609E+05 -3.152154E+04  1.758060E+04  1.142142E+04 -2.000907E+04
       300  10  5.415122E+04  1.030647E+06  7.007208E+04  1.822547E+04  1.053283E-10  4.525450E-11
       300  11  5.867088E+04  1.065486E+06  7.854937E+04  1.128131E+04  2.268966E-10 -7.014315E-10
       300  12  7.723479E+04  1.105417E+06  9.821779E+04  2.447666E+04  7.119123E-11  2.907604E-10
       300  13  3.514588E+03  8.248611E+05  2.246503E+04  2.102614E+04  7.339068E-12 -1.324788E-10
       300  14 -1.124350E+03  8.223465E+05  2.245458E+04  1.095713E+04 -1.220403E-10 -2.955218E-11
       300  15  8.212159E+03  8.248527E+05  3.335025E+04  2.102794E+04  3.728847E-11 -1.714320E-10
       300  16 -4.712499E+04  6.191141E+05 -2.514485E+04  2.382587E+04 -1.932559E-10  2.553518E-11
       300  17 -6.092372E+04  5.792612E+05 -3.364413E+04  1.063308E+04 -2.635034E-10 -1.503389E-12
       300  18 -6.081595E+04  5.443605E+05 -3.152253E+04  1.758078E+04  5.598428E-11 -3.350049E-10
       300  19  5.415130E+04  1.030647E+06  7.007226E+04  1.822550E+04 -8.315422E+03 -4.916381E+03
       300  20  5.867101E+04  1.065486E+06  7.854965E+04  1.128125E+04 -1.016163E+04  6.879471E+03
       300  21  7.723503E+04  1.105418E+06  9.821869E+04  2.447649E+04 -1.142005E+04  1.867558E+04
       300  22  3.514666E+03  8.248611E+05  2.246518E+04  2.102616E+04 -8.315817E+03 -3.418403E+03
       300  23 -1.124222E+03  8.223466E+05  2.245490E+04  1.095706E+04 -1.016216E+04  7.962255E+03
       300  24  8.212400E+03  8.248531E+05  3.335120E+04  2.102776E+04 -1.142073E+04  1.934247E+04
       300  25 -4.712491E+04  6.191141E+05 -2.514471E+04  2.382589E+04 -8.316199E+03 -1.920918E+03
       300  26 -6.092359E+04  5.792613E+05 -3.364378E+04  1.063300E+04 -1.016270E+04  9.044619E+03
       300  27 -6.081570E+04  5.443609E+05 -3.152154E+04  1.758060E+04 -1.142142E+04  2.000907E+04
       301   1  7.232656E+04  1.148984E+06  1.125171E+05  4.793570E+03  1.366123E+04 -2.160705E+04
       301   2  7.895935E+04  1.169259E+06  1.438206E+05  2.480005E+04  1.411534E+04 -6.142945E+04
       301   3  2.072100E+05  1.225204E+06  2.314422E+05  6.500343E+04  4.679959E+03 -1.012609E+05
       301   4 -5.754189E+03  8.314041E+05  3.942355E+04  2.101863E+04  1.366269E+04 -2.536587E+04
       301   5 -8.420576E+03  8.141364E+05  6.155549E+04  1.095774E+04  1.411546E+04 -5.824928E+04
       301   6  1.093622E+05  8.313528E+05  1.352129E+05  2.109206E+04  4.680081E+03 -9.113894E+04
       301   7 -8.384099E+04  5.139180E+05 -3.367653E+04  3.723535E+04  1.366395E+04 -2.912279E+04
       301   8 -9.580863E+04  4.591300E+05 -2.071794E+04 -2.876582E+03  1.411544E+04 -5.507089E+04
       301   9  1.151027E+04  4.376476E+05  3.897372E+04 -2.279142E+04  4.678775E+03 -8.102333E+04
       301  10  7.232623E+04  1.148983E+06  1.125159E+05  4.793808E+03  3.759488E-10 -2.579119E-10
       301  11  7.895812E+04  1.169255E+06  1.438132E+05  2.480074E+04  3.395180E-10 -1.536058E-09
       301  12  2.072073E+05  1.225193E+06  2.314229E+05  6.500382E+04 -8.090955E-11  2.500186E-10
       301  13 -5.754562E+03  8.314034E+05  3.942199E+04  2.101891E+04  2.491015E-10 -5.892314E-10
       301  14 -8.421699E+03  8.141327E+05  6.154875E+04  1.095841E+04 -4.202877E-10 -2.997997E-10
       301  15  1.093600E+05  8.313439E+05  1.351973E+05  2.109240E+04  2.834069E-10 -8.336430E-11
       301  16 -8.384142E+04  5.139171E+05 -3.367847E+04  3.723567E+04  4.969321E-11 -2.261644E-10
       301  17 -9.580965E+04  4.591267E+05 -2.072401E+04 -2.875956E+03  4.534206E-10 -2.064034E-10
       301  18  1.150848E+04  4.376405E+05  3.896135E+04 -2.279112E+04  2.579588E-10 -6.552124E-11
       301  19  7.232656E+04  1.148984E+06  1.125171E+05  4.793570E+03 -1.366123E+04  2.160705E+04
       301  20  7.895935E+04  1.169259E+06  1.438206E+05  2.480005E+04 -1.411534E+04  6.142945E+04
       301  21  2.072100E+05  1.225204E+06  2.314422E+05  6.500343E+04 -4.679959E+03  1.012609E+05
       301  22 -5.754189E+03  8.314041E+05  3.942355E+04  2.101863E+04 -1.366269E+04  2.536587E+04
       301  23 -8.420576E+03  8.141364E+05  6.155549E+04  1.095774E+04 -1.411546E+04  5.824928E+04
       301  24  1.093622E+05  8.313528E+05  1.352129E+05  2.109206E+04 -4.680081E+03  9.113894E+04
       301  25 -8.384099E+04  5.139180E+05 -3.367653E+04  3.723535E+04 -1.366395E+04  2.912279E+04
       301  26 -9.580863E+04  4.591300E+05 -2.071794E+04 -2.876582E+03 -1.411544E+04  5.507089E+04
       301  27  1.151027E+04  4.376476E+05  3.897372E+04 -2.279142E+04 -4.678775E+03  8.102333E+04
       302   1  1.376838E+06  9.995352E+05  3.368294E+05  8.879687E+05  1.461511E+05  1.057896E+05
       302   2  1.306211E+06  7.835454E+05  1.869946E+05  9.652906E+05  9.855723E+04  6.222000E+04
       302   3  1.364570E+06  7.669238E+05  1.428894E+05  9.572643E+05  4.697575E+04  2.396716E+04
       302   4  1.200605E+06  7.746612E+05  2.576584E+05  7.552343E+05  1.424957E+05  1.030257E+05
       302   5  1.098047E+06  6.070750E+05  1.129585E+05  8.491102E+05  9.741675E+04  6.135979E+04
       302   6  1.123973E+06  6.383576E+05  7.183840E+04  8.576231E+05  4.835340E+04  2.500372E+04
       302   7  1.024409E+06  5.498574E+05  1.784817E+05  6.225542E+05  1.388416E+05  1.002639E+05
       302   8  8.899279E+05  4.306408E+05  3.891595E+04  7.329771E+05  9.627677E+04  6.050006E+04
       302   9  8.834390E+05  5.098069E+05  7.818672E+02  7.580197E+05  4.973030E+04  2.603990E+04
       302  10  1.376812E+06  9.995175E+05  3.367684E+05  8.879563E+05 -2.042905E-10 -1.536218E-10
       302  11  1.306200E+06  7.835387E+05  1.869692E+05  9.652857E+05 -3.603915E-10 -4.458369E-10
       302  12  1.364567E+06  7.669226E+05  1.428842E+05  9.572634E+05 -3.124308E-10 -3.635818E-10
       302  13  1.200580E+06  7.746444E+05  2.576004E+05  7.552225E+05  4.502844E-10  4.143727E-10
       302  14  1.098035E+06  6.070684E+05  1.129337E+05  8.491054E+05  5.012740E-10  6.667299E-10
       302  15  1.123970E+06  6.383563E+05  7.183284E+04  8.576221E+05  5.017420E-10  1.072996E-09
       302  16  1.024385E+06  5.498415E+05  1.784267E+05  6.225430E+05 -9.229840E-11 -1.154177E-11
       302  17  8.899170E+05  4.306344E+05  3.889171E+04  7.329724E+05 -4.997020E-11 -6.127972E-10
       302  18  8.834361E+05  5.098055E+05  7.759591E+02  7.580186E+05  3.339645E-10 -3.890653E-10
       302  19  1.376838E+06  9.995352E+05  3.368294E+05  8.879687E+05 -1.461511E+05 -1.057896E+05
       302  20  1.306211E+06  7.835454E+05  1.869946E+05  9.652906E+05 -9.855723E+04 -6.222000E+04
       302  21  1.364570E+06  7.669238E+05  1.428894E+05  9.572643E+05 -4.697575E+04 -2.396716E+04
       302  22  1.200605E+06  7.746612E+05  2.576584E+05  7.552343E+05 -1.424957E+05 -1.030257E+05
       302  23  1.098047E+06  6.070750E+05  1.129585E+05  8.491102E+05 -9.741675E+04 -6.135979E+04
       302  24  1.123973E+06  6.383576E+05  7.183840E+04  8.576231E+05 -4.835340E+04 -2.500372E+04
       302  25  1.024409E+06  5.498574E+05  1.784817E+05  6.225542E+05 -1.388416E+05 -1.002639E+05
       302  26  8.899279E+05  4.306408E+05  3.891595E+04  7.329771E+05 -9.627677E+04 -6.050006E+04
       302  27  8.834390E+05  5.098069E+05  7.818672E+02  7.580197E+05 -4.973030E+04 -2.603990E+04
       303   1  1.324858E+06  8.046000E+05  1.266082E+05  9.378349E+05  3.871389E+04  1.930185E+04
       303   2  1.313325E+06  7.727109E+05  9.655977E+04  9.419725E+05  2.553673E+04  9.248858E+03
       303   3  1.310449E+06  7.705122E+05  8.451763E+04  9.390509E+05  1.205918E+04 -4.039711E+02
       303   4  1.127159E+06  6.537456E+05  5.931067E+04  8.352289E+05  3.856207E+04  1.918705E+04
       303   5  1.118695E+06  6.315402E+05  3.184564E+04  8.443105E+05  2.557829E+04  9.279713E+03
       303   6  1.118850E+06  6.389896E+05  2.222473E+04  8.463317E+05  1.229395E+04 -2.277620E+02
       303   7  9.295010E+05  5.029160E+05 -7.992380E+03  7.326604E+05  3.841033E+04  1.907230E+04
       303   8  9.241035E+05  4.903902E+05 -3.287382E+04  7.466827E+05  2.561983E+04  9.310554E+03
       303   9  9.272890E+05  5.074840E+05 -4.007326E+04  7.536434E+05  1.252862E+04 -5.162329E+01
       303  10  1.324856E+06  8.045992E+05  1.266047E+05  9.378343E+05 -1.617349E-10 -1.299646E-09
       303  11  1.313324E+06  7.727106E+05  9.655839E+04  9.419723E+05 -7.048336E-10 -3.096769E-09
       303  12  1.310449E+06  7.705121E+05  8.451736E+04  9.390509E+05 -1.010539E-09 -8.736213E-10
       303  13  1.127157E+06  6.537448E+05  5.930719E+04  8.352283E+05 -3.864229E-10 -8.963172E-10
       303  14  1.118694E+06  6.315399E+05  3.184425E+04  8.443103E+05 -2.709148E-10 -1.378855E-09
       303  15  1.118850E+06  6.389895E+05  2.222445E+04  8.463317E+05 -8.197996E-10 -2.423604E-09
       303  16  9.294993E+05  5.029153E+05 -7.995829E+03  7.326598E+05  4.699587E-10  9.821593E-10
       303  17  9.241027E+05  4.903899E+05 -3.287522E+04  7.466825E+05  6.954923E-10  2.001118E-09
       303  18  9.272888E+05  5.074840E+05 -4.007355E+04  7.536434E+05  3.707244E-10  1.011659E-09
       303  19  1.324858E+06  8.046000E+05  1.266082E+05  9.378349E+05 -3.871389E+04 -1.930185E+04
       303  20  1.313325E+06  7.727109E+05  9.655977E+04  9.419725E+05 -2.553673E+04 -9.248858E+03
       303  21  1.310449E+06  7.705122E+05  8.451763E+04  9.390509E+05 -1.205918E+04  4.039711E+02
       303  22  1.127159E+06  6.537456E+05  5.931067E+04  8.352289E+05 -3.856207E+04 -1.918705E+04
       303  23  1.118695E+06  6.315402E+05  3.184564E+04  8.443105E+05 -2.557829E+04 -9.279713E+03
       303  24  1.118850E+06  6.389896E+05  2.222473E+04  8.463317E+05 -1.229395E+04  2.277620E+02
       303  25  9.295010E+05  5.029160E+05 -7.992380E+03  7.326604E+05 -3.841033E+04 -1.907230E+04
       303  26  9.241035E+05  4.903902E+05 -3.287382E+04  7.466827E+05 -2.561983E+04 -9.310554E+03
       303  27  9.272890E+05  5.074840E+05 -4.007326E+04  7.536434E+05 -1.252862E+04  5.162329E+01
       304   1  1.297412E+06  7.686413E+05  7.897997E+04  9.332012E+05  9.023491E+03 -2.331276E+03
       304   2  1.293448E+06  7.577011E+05  7.521645E+04  9.299006E+05  1.572655E+03 -7.567225E+03
       304   3  1.288067E+06  7.589842E+05  7.929090E+04  9.262373E+05 -5.897539E+03 -1.277732E+04
       304   4  1.119399E+06  6.400450E+05  1.990044E+04  8.441161E+05  9.125722E+03 -2.254691E+03
       304   5  1.120313E+06  6.342962E+05  1.806157E+04  8.440245E+05  1.689483E+03 -7.479615E+03
       304   6  1.119808E+06  6.407692E+05  2.404997E+04  8.435699E+05 -5.766211E+03 -1.267879E+04
       304   7  9.414195E+05  5.114669E+05 -3.918307E+04  7.550600E+05  9.227912E+03 -2.178137E+03
       304   8  9.472098E+05  5.109075E+05 -3.909717E+04  7.581753E+05  1.806265E+03 -7.392037E+03
       304   9  9.515790E+05  5.225688E+05 -3.119470E+04  7.609274E+05 -5.634932E+03 -1.258029E+04
       304  10  1.297412E+06  7.686412E+05  7.897981E+04  9.332012E+05  2.353514E-10 -1.096031E-09
       304  11  1.293448E+06  7.577010E+05  7.521634E+04  9.299006E+05  9.516480E-10 -1.100959E-09
       304  12  1.288067E+06  7.589840E+05  7.929053E+04  9.262372E+05 -4.859808E-10 -8.206532E-10
       304  13  1.119399E+06  6.400450E+05  1.990027E+04  8.441161E+05  6.181350E-10  9.363498E-10
       304  14  1.120313E+06  6.342961E+05  1.806146E+04  8.440245E+05  1.867599E-09  5.696661E-09
       304  15  1.119808E+06  6.407691E+05  2.404961E+04  8.435699E+05  4.300520E-10  1.792397E-09
       304  16  9.414194E+05  5.114668E+05 -3.918324E+04  7.550600E+05 -6.084773E-10 -1.648659E-09
       304  17  9.472098E+05  5.109075E+05 -3.909728E+04  7.581753E+05  1.314473E-09  3.122195E-09
       304  18  9.515790E+05  5.225686E+05 -3.119505E+04  7.609273E+05  9.440401E-10  5.073590E-10
       304  19  1.297412E+06  7.686413E+05  7.897997E+04  9.332012E+05 -9.023491E+03  2.331276E+03
       304  20  1.293448E+06  7.577011E+05  7.521645E+04  9.299006E+05 -1.572655E+03  7.567225E+03
       304  21  1.288067E+06  7.589842E+05  7.929090E+04  9.262373E+05  5.897539E+03  1.277732E+04
       304  22  1.119399E+06  6.400450E+05  1.990044E+04  8.441161E+05 -9.125722E+03  2.254691E+03
       304  23  1.120313E+06  6.342962E+05  1.806157E+04  8.440245E+05 -1.689483E+03  7.479615E+03
       304  24  1.119808E+06  6.407692E+05  2.404997E+04  8.435699E+05  5.766211E+03  1.267879E+04
       304  25  9.414195E+05  5.114669E+05 -3.918307E+04  7.550600E+05 -9.227912E+03  2.178137E+03
       304  26  9.472098E+05  5.109075E+05 -3.909717E+04  7.581753E+05 -1.806265E+03  7.392037E+03
       304  27  9.515790E+05  5.225688E+05 -3.119470E+04  7.609274E+05  5.634932E+03  1.258029E+04
       305   1  1.275273E+06  7.563440E+05  8.117429E+04  9.272861E+05 -9.621104E+03 -1.542298E+04
       305   2  1.273823E+06  7.396027E+05  9.520392E+04  9.211676E+05 -2.792904E+04 -2.887246E+04
       305   3  1.291035E+06  7.587726E+05  1.343172E+05  9.029942E+05 -4.640228E+04 -4.210294E+04
       305   4  1.119860E+06  6.382400E+05  2.848381E+04  8.468375E+05 -9.572940E+03 -1.538679E+04
       305   5  1.116603E+06  6.310197E+05  4.397666E+04  8.447787E+05 -2.777226E+04 -2.875486E+04
       305   6  1.131991E+06  6.596930E+05  8.446472E+04  8.306632E+05 -4.613670E+04 -4.190433E+04
       305   7  9.644725E+05  5.201506E+05 -2.421034E+04  7.664117E+05 -9.524793E+03 -1.535062E+04
       305   8  9.594100E+05  5.224488E+05 -7.253818E+03  7.684110E+05 -2.761553E+04 -2.863729E+04
       305   9  9.729743E+05  5.606235E+05  3.460953E+04  7.583519E+05 -4.587121E+04 -4.170577E+04
       305  10  1.275273E+06  7.563437E+05  8.117367E+04  9.272860E+05  1.354701E-09 -1.394612E-09
       305  11  1.273822E+06  7.396016E+05  9.520090E+04  9.211670E+05 -5.890286E-10 -1.617398E-09
       305  12  1.291032E+06  7.587701E+05  1.343098E+05  9.029926E+05 -4.855111E-09  1.690705E-09
       305  13  1.119860E+06  6.382397E+05  2.848319E+04  8.468374E+05  5.531223E-10 -8.202430E-10
       305  14  1.116602E+06  6.310186E+05  4.397367E+04  8.447780E+05  2.993339E-10 -6.933853E-10
       305  15  1.131988E+06  6.596906E+05  8.445744E+04  8.306616E+05 -1.927246E-09  3.968842E-09
       305  16  9.644723E+05  5.201503E+05 -2.421095E+04  7.664116E+05 -7.681383E-10 -5.469687E-10
       305  17  9.594089E+05  5.224478E+05 -7.256785E+03  7.684104E+05  1.512574E-10 -3.702313E-09
       305  18  9.729716E+05  5.606211E+05  3.460233E+04  7.583504E+05  7.449355E-10  3.263151E-09
       305  19  1.275273E+06  7.563440E+05  8.117429E+04  9.272861E+05  9.621104E+03  1.542298E+04
       305  20  1.273823E+06  7.396027E+05  9.520392E+04  9.211676E+05  2.792904E+04  2.887246E+04
       305  21  1.291035E+06  7.587726E+05  1.343172E+05  9.029942E+05  4.640228E+04  4.210294E+04
       305  22  1.119860E+06  6.382400E+05  2.848381E+04  8.468375E+05  9.572940E+03  1.538679E+04
       305  23  1.116603E+06  6.310197E+05  4.397666E+04  8.447787E+05  2.777226E+04  2.875486E+04
       305  24  1.131991E+06  6.596930E+05  8.446472E+04  8.306632E+05  4.613670E+04  4.190433E+04
       305  25  9.644725E+05  5.201506E+05 -2.421034E+04  7.664117E+05  9.524793E+03  1.535062E+04
       305  26  9.594100E+05  5.224488E+05 -7.253818E+03  7.684110E+05  2.761553E+04  2.863729E+04
       305  27  9.729743E+05  5.606235E+05  3.460953E+04  7.583519E+05  4.587121E+04  4.170577E+04
       306   1  1.237018E+06  7.762286E+05  1.506102E+05  9.451351E+05 -5.818941E+04 -5.151565E+04
       306   2  1.251213E+06  6.739220E+05  2.093408E+05  9.154418E+05 -1.300062E+05 -1.052617E+05
       306   3  1.461583E+06  8.480401E+05  4.185637E+05  7.594462E+05 -2.040835E+05 -1.560037E+05
       306   4  1.128134E+06  6.367456E+05  1.028318E+05  8.627949E+05 -5.879336E+04 -5.196458E+04
       306   5  1.085745E+06  5.967345E+05  1.626249E+05  8.520089E+05 -1.291763E+05 -1.046455E+05
       306   6  1.239245E+06  8.328819E+05  3.717014E+05  7.149097E+05 -2.018097E+05 -1.543364E+05
       306   7  1.019265E+06  4.972898E+05  5.505139E+04  7.804757E+05 -5.939717E+04 -5.241328E+04
       306   8  9.203060E+05  5.195520E+05  1.159065E+05  7.885910E+05 -1.283468E+05 -1.040293E+05
       306   9  1.016973E+06  8.177322E+05  3.248403E+05  6.703767E+05 -1.995371E+05 -1.526690E+05
       306  10  1.237014E+06  7.762248E+05  1.505989E+05  9.451327E+05 -1.170038E-10  5.777835E-09
       306  11  1.251192E+06  6.739056E+05  2.092883E+05  9.154308E+05  1.048465E-09  9.752790E-10
       306  12  1.461532E+06  8.480029E+05  4.184400E+05  7.594206E+05 -9.614933E-10 -2.270506E-09
       306  13  1.128130E+06  6.367417E+05  1.028203E+05  8.627924E+05 -1.479711E-09  1.962166E-09
       306  14  1.085724E+06  5.967183E+05  1.625731E+05  8.519980E+05  3.071174E-09 -2.691279E-09
       306  15  1.239195E+06  8.328455E+05  3.715804E+05  7.148846E+05 -3.964908E-10 -3.791054E-09
       306  16  1.019260E+06  4.972859E+05  5.503963E+04  7.804732E+05 -4.169626E-09 -1.422363E-09
       306  17  9.202855E+05  5.195359E+05  1.158554E+05  7.885803E+05 -5.675199E-10 -3.838472E-09
       306  18  1.016924E+06  8.176966E+05  3.247220E+05  6.703522E+05  1.889996E-09 -1.423703E-09
       306  19  1.237018E+06  7.762286E+05  1.506102E+05  9.451351E+05  5.818941E+04  5.151565E+04
       306  20  1.251213E+06  6.739220E+05  2.093408E+05  9.154418E+05  1.300062E+05  1.052617E+05
       306  21  1.461583E+06  8.480401E+05  4.185637E+05  7.594462E+05  2.040835E+05  1.560037E+05
       306  22  1.128134E+06  6.367456E+05  1.028318E+05  8.627949E+05  5.879336E+04  5.196458E+04
       306  23  1.085745E+06  5.967345E+05  1.626249E+05  8.520089E+05  1.291763E+05  1.046455E+05
       306  24  1.239245E+06  8.328819E+05  3.717014E+05  7.149097E+05  2.018097E+05  1.543364E+05
       306  25  1.019265E+06  4.972898E+05  5.505139E+04  7.804757E+05  5.939717E+04  5.241328E+04
       306  26  9.203060E+05  5.195520E+05  1.159065E+05  7.885910E+05  1.283468E+05  1.040293E+05
       306  27  1.016973E+06  8.177322E+05  3.248403E+05  6.703767E+05  1.995371E+05  1.526690E+05
       307   1  6.347525E+05 -1.054796E+03 -2.032079E+03 -1.590591E+04 -2.394252E+03 -5.327486E+02
       307   2  6.516741E+05  7.390459E+03  4.269881E+03 -1.174575E+04 -1.541570E+03 -2.146695E+03
       307   3  6.675673E+05  1.206822E+04  9.082009E+03 -1.214241E+04 -6.894462E+02 -3.452549E+03
       307   4  6.166466E+05 -5.468035E+03 -6.078802E+03 -1.282960E+04 -4.833385E+03 -5.376110E+02
       307   5  6.171969E+05 -8.321620E+02 -2.419865E+03 -1.055660E+04 -3.556093E+03 -2.150732E+03
       307   6  6.166445E+05 -3.759749E+01 -5.454765E+02 -1.284052E+04 -2.279370E+03 -3.455757E+03
       307   7  5.985411E+05 -9.881257E+03 -1.012552E+04 -9.753377E+03 -7.272448E+03 -5.424978E+02
       307   8  5.827208E+05 -9.054847E+03 -9.109651E+03 -9.367521E+03 -5.570507E+03 -2.154777E+03
       307   9  5.657242E+05 -1.214356E+04 -1.017307E+04 -1.353857E+04 -3.869166E+03 -3.458962E+03
       307  10  6.347525E+05 -1.054798E+03 -2.032090E+03 -1.590591E+04  2.644101E-09 -1.142278E-09
       307  11  6.516741E+05  7.390454E+03  4.269868E+03 -1.174576E+04  1.476690E-10 -2.487694E-09
       307  12  6.675673E+05  1.206821E+04  9.081986E+03 -1.214241E+04 -2.610906E-09 -2.013281E-09
       307  13  6.166466E+05 -5.468042E+03 -6.078846E+03 -1.282960E+04 -2.500211E-10  3.705426E-09
       307  14  6.171968E+05 -8.321704E+02 -2.419897E+03 -1.055661E+04  5.636807E-10 -5.582190E-10
       307  15  6.166445E+05 -3.761171E+01 -5.455088E+02 -1.284052E+04 -7.730235E-10 -2.290413E-09
       307  16  5.985411E+05 -9.881272E+03 -1.012562E+04 -9.753380E+03 -2.665899E-09  9.968987E-10
       307  17  5.827207E+05 -9.054860E+03 -9.109718E+03 -9.367531E+03 -5.746932E-10 -3.242748E-09
       307  18  5.657242E+05 -1.214358E+04 -1.017312E+04 -1.353858E+04  1.404008E-09 -2.563167E-09
       307  19  6.347525E+05 -1.054796E+03 -2.032079E+03 -1.590591E+04  2.394252E+03  5.327486E+02
       307  20  6.516741E+05  7.390459E+03  4.269881E+03 -1.174575E+04  1.541570E+03  2.146695E+03
       307  21  6.675673E+05  1.206822E+04  9.082009E+03 -1.214241E+04  6.894462E+02  3.452549E+03
       307  22  6.166466E+05 -5.468035E+03 -6.078802E+03 -1.282960E+04  4.833385E+03  5.376110E+02
       307  23  6.171969E+05 -8.321620E+02 -2.419865E+03 -1.055660E+04  3.556093E+03  2.150732E+03
       307  24  6.166445E+05 -3.759749E+01 -5.454765E+02 -1.284052E+04  2.279370E+03  3.455757E+03
       307  25  5.985411E+05 -9.881257E+03 -1.012552E+04 -9.753377E+03  7.272448E+03  5.424978E+02
       307  26  5.827208E+05 -9.054847E+03 -9.109651E+03 -9.367521E+03  5.570507E+03  2.154777E+03
       307  27  5.657242E+05 -1.214356E+04 -1.017307E+04 -1.353857E+04  3.869166E+03  3.458962E+03
       308   1  6.790971E+05  1.449939E+04  1.206702E+04 -1.269366E+04 -6.410166E+02 -4.126011E+03
       308   2  6.954673E+05  1.856391E+04  1.688278E+04 -1.027919E+04 -1.681505E+03 -5.307851E+03
       308   3  7.119838E+05  2.257226E+04  2.236777E+04 -1.241486E+04 -2.722026E+03 -6.449022E+03
       308   4  6.169197E+05 -2.943191E+02  2.325730E+02 -1.283681E+04 -2.295089E+03 -4.129371E+03
       308   5  6.168508E+05 -1.254386E+02  1.999493E+03 -1.056200E+04 -3.279411E+03 -5.311150E+03
       308   6  6.169181E+05 -2.245304E+01  4.396760E+03 -1.283736E+04 -4.263739E+03 -6.452258E+03
       308   7  5.547459E+05 -1.508825E+04 -1.160204E+04 -1.297995E+04 -3.949000E+03 -4.132731E+03
       308   8  5.382401E+05 -1.881515E+04 -1.288406E+04 -1.084477E+04 -4.877119E+03 -5.314449E+03
       308   9  5.218611E+05 -2.261769E+04 -1.357464E+04 -1.325979E+04 -5.805222E+03 -6.455491E+03
       308  10  6.790971E+05  1.449937E+04  1.206699E+04 -1.269366E+04 -3.451609E-09  7.000709E-10
       308  11  6.954673E+05  1.856388E+04  1.688272E+04 -1.027920E+04 -1.933360E-09  1.176970E-09
       308  12  7.119838E+05  2.257221E+04  2.236768E+04 -1.241488E+04 -6.247045E-10  2.136106E-09
       308  13  6.169196E+05 -2.943388E+02  2.325310E+02 -1.283682E+04 -6.829352E-10  1.518043E-10
       308  14  6.168507E+05 -1.254718E+02  1.999419E+03 -1.056201E+04  1.380408E-10  2.575289E-09
       308  15  6.169181E+05 -2.250263E+01  4.396648E+03 -1.283738E+04 -4.615080E-10  3.131262E-09
       308  16  5.547459E+05 -1.508827E+04 -1.160210E+04 -1.297996E+04  3.675791E-09  2.635678E-09
       308  17  5.382401E+05 -1.881519E+04 -1.288416E+04 -1.084479E+04  9.331360E-10 -4.638011E-09
       308  18  5.218611E+05 -2.261774E+04 -1.357478E+04 -1.325982E+04 -1.169485E-09 -2.069756E-10
       308  19  6.790971E+05  1.449939E+04  1.206702E+04 -1.269366E+04  6.410166E+02  4.126011E+03
       308  20  6.954673E+05  1.856391E+04  1.688278E+04 -1.027919E+04  1.681505E+03  5.307851E+03
       308  21  7.119838E+05  2.257226E+04  2.236777E+04 -1.241486E+04  2.722026E+03  6.449022E+03
       308  22  6.169197E+05 -2.943191E+02  2.325730E+02 -1.283681E+04  2.295089E+03  4.129371E+03
       308  23  6.168508E+05 -1.254386E+02  1.999493E+03 -1.056200E+04  3.279411E+03  5.311150E+03
       308  24  6.169181E+05 -2.245304E+01  4.396760E+03 -1.283736E+04  4.263739E+03  6.452258E+03
       308  25  5.547459E+05 -1.508825E+04 -1.160204E+04 -1.297995E+04  3.949000E+03  4.132731E+03
       308  26  5.382401E+05 -1.881515E+04 -1.288406E+04 -1.084477E+04  4.877119E+03  5.314449E+03
       308  27  5.218611E+05 -2.261769E+04 -1.357464E+04 -1.325979E+04  5.805222E+03  6.455491E+03
       309   1  7.235596E+05  2.508871E+04  2.620590E+04 -1.196693E+04 -3.573395E+03 -7.127278E+03
       309   2  7.393227E+05  2.940284E+04  3.429312E+04 -1.054152E+04 -9.442531E+03 -8.149447E+03
       309   3  7.565477E+05  3.640609E+04  4.687715E+04 -1.366303E+04 -1.531233E+04 -8.858788E+03
       309   4  6.171957E+05 -2.091979E+02  6.018799E+03 -1.283501E+04 -5.180785E+03 -7.130685E+03
       309   5  6.164999E+05  1.791745E+02  1.090123E+04 -1.056504E+04 -1.061770E+04 -8.152037E+03
       309   6  6.171916E+05  3.182152E+03  1.998129E+04 -1.284205E+04 -1.605513E+04 -8.860547E+03
       309   7  5.108426E+05 -2.550776E+04 -1.416879E+04 -1.370294E+04 -6.787906E+03 -7.134088E+03
       309   8  4.936917E+05 -2.904537E+04 -1.249133E+04 -1.058857E+04 -1.179264E+04 -8.154627E+03
       309   9  4.778542E+05 -3.004293E+04 -6.915469E+03 -1.202126E+04 -1.679777E+04 -8.862308E+03
       309  10  7.235596E+05  2.508865E+04  2.620578E+04 -1.196695E+04 -3.492862E-09  4.283358E-09
       309  11  7.393225E+05  2.940274E+04  3.429283E+04 -1.054158E+04 -8.718835E-10 -1.123072E-09
       309  12  7.565475E+05  3.640594E+04  4.687656E+04 -1.366314E+04  4.428815E-09  2.943833E-09
       309  13  6.171956E+05 -2.092597E+02  6.018653E+03 -1.283504E+04 -5.568585E-10  3.155164E-09
       309  14  6.164998E+05  1.790729E+02  1.090090E+04 -1.056511E+04  9.830324E-12  1.288490E-09
       309  15  6.171913E+05  3.181999E+03  1.998066E+04 -1.284216E+04 -5.284272E-10 -1.682793E-09
       309  16  5.108426E+05 -2.550783E+04 -1.416898E+04 -1.370298E+04  3.251789E-09  2.103149E-09
       309  17  4.936915E+05 -2.904548E+04 -1.249172E+04 -1.058864E+04 -2.166919E-10  2.149677E-10
       309  18  4.778539E+05 -3.004309E+04 -6.916146E+03 -1.202138E+04 -5.753329E-09 -6.236919E-09
       309  19  7.235596E+05  2.508871E+04  2.620590E+04 -1.196693E+04  3.573395E+03  7.127278E+03
       309  20  7.393227E+05  2.940284E+04  3.429312E+04 -1.054152E+04  9.442531E+03  8.149447E+03
       309  21  7.565477E+05  3.640609E+04  4.687715E+04 -1.366303E+04  1.531233E+04  8.858788E+03
       309  22  6.171957E+05 -2.091979E+02  6.018799E+03 -1.283501E+04  5.180785E+03  7.130685E+03
       309  23  6.164999E+05  1.791745E+02  1.090123E+04 -1.056504E+04  1.061770E+04  8.152037E+03
       309  24  6.171916E+05  3.182152E+03  1.998129E+04 -1.284205E+04  1.605513E+04  8.860547E+03
       309  25  5.108426E+05 -2.550776E+04 -1.416879E+04 -1.370294E+04  6.787906E+03  7.134088E+03
       309  26  4.936917E+05 -2.904537E+04 -1.249133E+04 -1.058857E+04  1.179264E+04  8.154627E+03
       309  27  4.778542E+05 -3.004293E+04 -6.915469E+03 -1.202126E+04  1.679777E+04  8.862308E+03
       310   1  7.717848E+05  3.528211E+04  5.507543E+04 -4.034234E+03 -1.784373E+04 -9.554661E+03
       310   2  7.787747E+05  5.225835E+04  8.058493E+04 -3.108154E+04 -4.845603E+04 -8.481449E+03
       310   3  8.052019E+05  1.309641E+05  1.414449E+05 -6.251503E+04 -7.908047E+04 -2.736362E+03
       310   4  6.209573E+05 -7.344051E+02  2.592300E+04 -1.276929E+04 -1.949120E+04 -9.558120E+03
       310   5  6.117823E+05  1.215681E+04  4.640478E+04 -1.067078E+04 -4.366108E+04 -8.472828E+03
       310   6  6.209302E+05  8.566585E+04  9.777125E+04 -1.295662E+04 -6.784178E+04 -2.717961E+03
       310   7  4.701517E+05 -3.675200E+04 -3.230441E+03 -2.150219E+04 -2.113828E+04 -9.561533E+03
       310   8  4.448173E+05 -2.794489E+04  1.222346E+04  9.734386E+03 -3.886738E+04 -8.463891E+03
       310   9  4.366952E+05  4.037453E+04  5.409702E+04  3.658702E+04 -5.660640E+04 -2.697766E+03
       310  10  7.717845E+05  3.528193E+04  5.507466E+04 -4.034371E+03 -2.125123E-09  2.580228E-09
       310  11  7.787721E+05  5.225765E+04  8.058039E+04 -3.108187E+04 -1.598200E-09 -2.939018E-09
       310  12  8.051952E+05  1.309624E+05  1.414332E+05 -6.251521E+04  1.037900E-09  3.381472E-10
       310  13  6.209569E+05 -7.346051E+02  2.592212E+04 -1.276944E+04 -2.475478E-11  3.055964E-09
       310  14  6.117802E+05  1.215622E+04  4.640106E+04 -1.067108E+04 -8.078811E-10 -8.333910E-09
       310  15  6.209252E+05  8.566461E+04  9.776259E+04 -1.295677E+04 -1.420668E-10  1.553020E-09
       310  16  4.701512E+05 -3.675221E+04 -3.231452E+03 -2.150235E+04  2.883636E-09 -8.718470E-10
       310  17  4.448156E+05 -2.794537E+04  1.222049E+04  9.734121E+03  3.303776E-10  7.817460E-10
       310  18  4.366918E+05  4.037366E+04  5.409099E+04  3.658689E+04 -2.547688E-09 -3.948107E-10
       310  19  7.717848E+05  3.528211E+04  5.507543E+04 -4.034234E+03  1.784373E+04  9.554661E+03
       310  20  7.787747E+05  5.225835E+04  8.058493E+04 -3.108154E+04  4.845603E+04  8.481449E+03
       310  21  8.052019E+05  1.309641E+05  1.414449E+05 -6.251503E+04  7.908047E+04  2.736362E+03
       310  22  6.209573E+05 -7.344051E+02  2.592300E+04 -1.276929E+04  1.949120E+04  9.558120E+03
       310  23  6.117823E+05  1.215681E+04  4.640478E+04 -1.067078E+04  4.366108E+04  8.472828E+03
       310  24  6.209302E+05  8.566585E+04  9.777125E+04 -1.295662E+04  6.784178E+04  2.717961E+03
       310  25  4.701517E+05 -3.675200E+04 -3.230441E+03 -2.150219E+04  2.113828E+04  9.561533E+03
       310  26  4.448173E+05 -2.794489E+04  1.222346E+04  9.734386E+03  3.886738E+04  8.463891E+03
       310  27  4.366952E+05  4.037453E+04  5.409702E+04  3.658702E+04  5.660640E+04  2.697766E+03
       311   1 -7.436501E+05 -4.108774E+06 -9.776428E+05  4.344879E+04  1.211244E+03 -6.421471E+05
       311   2  1.777537E+05 -3.955791E+06 -4.339951E+05  1.705675E+04  7.015071E+02 -4.071069E+05
       311   3  4.576408E+03 -4.107613E+06 -3.175413E+05 -1.088275E+04  2.819307E+02 -1.720803E+05
       311   4 -7.399618E+05 -4.094816E+06 -9.741004E+05  6.454971E+03  1.249728E+03 -6.421479E+05
       311   5  1.813264E+05 -3.941733E+06 -4.304594E+05  7.968790E+03  7.074976E+02 -4.071110E+05
       311   6  8.044301E+03 -4.093450E+06 -3.140035E+05  7.941258E+03  2.766881E+02 -1.720876E+05
       311   7 -7.362682E+05 -4.080855E+06 -9.705572E+05 -3.053969E+04  1.288211E+03 -6.421488E+05
       311   8  1.848994E+05 -3.927675E+06 -4.269236E+05 -1.119373E+03  7.134881E+02 -4.071151E+05
       311   9  1.151352E+04 -4.079285E+06 -3.104656E+05  2.676570E+04  2.714451E+02 -1.720948E+05
       311  10 -7.437617E+05 -4.109219E+06 -9.784228E+05  4.344943E+04  5.099062E-11  2.640078E-09
       311  11  1.777088E+05 -3.955970E+06 -4.343086E+05  1.705698E+04 -2.684567E-11  2.833049E-09
       311  12  4.568391E+03 -4.107645E+06 -3.175973E+05 -1.088271E+04 -1.367583E-09 -2.655768E-10
       311  13 -7.400734E+05 -4.095261E+06 -9.748804E+05  6.455620E+03  4.180991E-10 -2.863782E-09
       311  14  1.812815E+05 -3.941912E+06 -4.307729E+05  7.969023E+03  3.679367E-10  3.447955E-09
       311  15  8.036284E+03 -4.093482E+06 -3.140595E+05  7.941297E+03 -1.087275E-10 -2.732961E-09
       311  16 -7.363798E+05 -4.081300E+06 -9.713372E+05 -3.053903E+04 -2.103124E-10  2.555983E-10
       311  17  1.848546E+05 -3.927854E+06 -4.272371E+05 -1.119139E+03  6.490998E-10 -2.616160E-09
       311  18  1.150550E+04 -4.079317E+06 -3.105216E+05  2.676574E+04 -7.678804E-10 -1.697585E-09
       311  19 -7.436501E+05 -4.108774E+06 -9.776428E+05  4.344879E+04 -1.211244E+03  6.421471E+05
       311  20  1.777537E+05 -3.955791E+06 -4.339951E+05  1.705675E+04 -7.015071E+02  4.071069E+05
       311  21  4.576408E+03 -4.107613E+06 -3.175413E+05 -1.088275E+04 -2.819307E+02  1.720803E+05
       311  22 -7.399618E+05 -4.094816E+06 -9.741004E+05  6.454971E+03 -1.249728E+03  6.421479E+05
       311  23  1.813264E+05 -3.941733E+06 -4.304594E+05  7.968790E+03 -7.074976E+02  4.071110E+05
       311  24  8.044301E+03 -4.093450E+06 -3.140035E+05  7.941258E+03 -2.766881E+02  1.720876E+05
       311  25 -7.362682E+05 -4.080855E+06 -9.705572E+05 -3.053969E+04 -1.288211E+03  6.421488E+05
       311  26  1.848994E+05 -3.927675E+06 -4.269236E+05 -1.119373E+03 -7.134881E+02  4.071151E+05
       311  27  1.151352E+04 -4.079285E+06 -3.104656E+05  2.676570E+04 -2.714451E+02  1.720948E+05
       312   1 -1.124511E+05 -4.046448E+06 -2.791027E+05  1.615186E+04  2.029194E+02 -1.183817E+05
       312   2  5.147382E+04 -4.000393E+06 -1.950233E+05  7.269094E+03  3.110632E+01 -1.577494E+04
       312   3 -9.483931E+04 -4.045440E+06 -2.555876E+05  6.956552E+02 -1.449907E+02  8.683227E+04
       312   4 -1.123811E+05 -4.046315E+06 -2.790626E+05  8.222296E+03  2.044432E+02 -1.183830E+05
       312   5  5.138673E+04 -4.000744E+06 -1.951110E+05  7.083479E+03  3.111317E+01 -1.577607E+04
       312   6 -9.508381E+04 -4.046274E+06 -2.558034E+05  8.253998E+03 -1.439251E+02  8.683117E+04
       312   7 -1.123108E+05 -4.046182E+06 -2.790224E+05  2.927346E+02  2.059670E+02 -1.183842E+05
       312   8  5.129964E+04 -4.001094E+06 -1.951987E+05  6.897864E+03  3.112002E+01 -1.577720E+04
       312   9 -9.532810E+04 -4.047108E+06 -2.560191E+05  1.581233E+04 -1.428595E+02  8.683008E+04
       312  10 -1.124549E+05 -4.046463E+06 -2.791292E+05  1.615188E+04 -1.088417E-09  1.880070E-09
       312  11  5.147375E+04 -4.000394E+06 -1.950237E+05  7.269095E+03 -3.067786E-09  2.231019E-09
       312  12 -9.484135E+04 -4.045448E+06 -2.556019E+05  6.956654E+02 -2.634237E-09  5.934706E-10
       312  13 -1.123849E+05 -4.046330E+06 -2.790891E+05  8.222316E+03 -1.021282E-09 -5.165262E-09
       312  14  5.138666E+04 -4.000744E+06 -1.951115E+05  7.083479E+03 -8.494781E-10  3.899760E-09
       312  15 -9.508586E+04 -4.046282E+06 -2.558176E+05  8.254008E+03 -8.185591E-10 -2.278868E-09
       312  16 -1.123146E+05 -4.046197E+06 -2.790489E+05  2.927543E+02 -2.219783E-09  1.552361E-09
       312  17  5.129958E+04 -4.001094E+06 -1.951992E+05  6.897864E+03 -1.149386E-09 -4.609466E-09
       312  18 -9.533014E+04 -4.047116E+06 -2.560333E+05  1.581234E+04  8.509816E-10 -1.821061E-09
       312  19 -1.124511E+05 -4.046448E+06 -2.791027E+05  1.615186E+04 -2.029194E+02  1.183817E+05
       312  20  5.147382E+04 -4.000393E+06 -1.950233E+05  7.269094E+03 -3.110632E+01  1.577494E+04
       312  21 -9.483931E+04 -4.045440E+06 -2.555876E+05  6.956552E+02  1.449907E+02 -8.683227E+04
       312  22 -1.123811E+05 -4.046315E+06 -2.790626E+05  8.222296E+03 -2.044432E+02  1.183830E+05
       312  23  5.138673E+04 -4.000744E+06 -1.951110E+05  7.083479E+03 -3.111317E+01  1.577607E+04
       312  24 -9.508381E+04 -4.046274E+06 -2.558034E+05  8.253998E+03  1.439251E+02 -8.683117E+04
       312  25 -1.123108E+05 -4.046182E+06 -2.790224E+05  2.927346E+02 -2.059670E+02  1.183842E+05
       312  26  5.129964E+04 -4.001094E+06 -1.951987E+05  6.897864E+03 -3.112002E+01  1.577720E+04
       312  27 -9.532810E+04 -4.047108E+06 -2.560191E+05  1.581233E+04  1.428595E+02 -8.683008E+04
       313   1  5.531644E+03 -4.069922E+06 -2.783758E+05  2.417792E+04 -2.043269E+02  1.355327E+05
       313   2  1.596731E+05 -3.939312E+06 -3.702426E+05  2.475628E+02 -5.824265E+02  3.394011E+05
       313   3 -6.285162E+05 -4.071313E+06 -8.309046E+05 -2.512710E+04 -1.083011E+03  5.432791E+05
       313   4  2.046813E+03 -4.084103E+06 -2.819200E+05  7.884594E+03 -2.078979E+02  1.355260E+05
       313   5  1.561045E+05 -3.953379E+06 -3.737791E+05  7.977419E+03 -5.781796E+02  3.393978E+05
       313   6 -6.321828E+05 -4.085273E+06 -8.344420E+05  6.621339E+03 -1.055074E+03  5.432793E+05
       313   7 -1.437029E+03 -4.098283E+06 -2.854642E+05 -8.408355E+03 -2.114687E+02  1.355192E+05
       313   8  1.525360E+05 -3.967445E+06 -3.773155E+05  1.570710E+04 -5.739328E+02  3.393945E+05
       313   9 -6.358456E+05 -4.099230E+06 -8.379789E+05  3.836906E+04 -1.027137E+03  5.432795E+05
       313  10  5.526672E+03 -4.069942E+06 -2.784105E+05  2.417794E+04  2.340636E-09  2.365306E-09
       313  11  1.596419E+05 -3.939436E+06 -3.704605E+05  2.477222E+02 -1.138085E-09  3.945896E-09
       313  12 -6.285961E+05 -4.071632E+06 -8.314629E+05 -2.512663E+04 -1.743551E-10 -1.055784E-10
       313  13  2.041841E+03 -4.084123E+06 -2.819548E+05  7.884617E+03 -4.858596E-10 -3.108939E-09
       313  14  1.560733E+05 -3.953503E+06 -3.739970E+05  7.977577E+03  1.616143E-10  4.698787E-09
       313  15 -6.322627E+05 -4.085592E+06 -8.350003E+05  6.621803E+03 -3.768897E-10 -2.607619E-09
       313  16 -1.442000E+03 -4.098303E+06 -2.854989E+05 -8.408332E+03 -7.636762E-10  2.404735E-10
       313  17  1.525049E+05 -3.967569E+06 -3.775334E+05  1.570726E+04 -3.757968E-10 -3.253583E-09
       313  18 -6.359255E+05 -4.099549E+06 -8.385372E+05  3.836952E+04  1.314008E-10 -1.612338E-09
       313  19  5.531644E+03 -4.069922E+06 -2.783758E+05  2.417792E+04  2.043269E+02 -1.355327E+05
       313  20  1.596731E+05 -3.939312E+06 -3.702426E+05  2.475628E+02  5.824265E+02 -3.394011E+05
       313  21 -6.285162E+05 -4.071313E+06 -8.309046E+05 -2.512710E+04  1.083011E+03 -5.432791E+05
       313  22  2.046813E+03 -4.084103E+06 -2.819200E+05  7.884594E+03  2.078979E+02 -1.355260E+05
       313  23  1.561045E+05 -3.953379E+06 -3.737791E+05  7.977419E+03  5.781796E+02 -3.393978E+05
       313  24 -6.321828E+05 -4.085273E+06 -8.344420E+05  6.621339E+03  1.055074E+03 -5.432793E+05
       313  25 -1.437029E+03 -4.098283E+06 -2.854642E+05 -8.408355E+03  2.114687E+02 -1.355192E+05
       313  26  1.525360E+05 -3.967445E+06 -3.773155E+05  1.570710E+04  5.739328E+02 -3.393945E+05
       313  27 -6.358456E+05 -4.099230E+06 -8.379789E+05  3.836906E+04  1.027137E+03 -5.432795E+05
       314   1 -8.393922E+04 -1.882771E+05 -1.667236E+05 -9.191063E+03 -7.151039E+04 -5.179538E+04
       314   2 -4.040665E+04 -5.684726E+04 -8.650942E+04 -3.199586E+04 -4.782168E+04 -3.031015E+04
       314   3 -3.826376E+04 -3.835198E+04 -5.706592E+04 -2.035114E+04 -2.160011E+04 -1.218655E+04
       314   4  7.608987E+03 -6.781997E+04 -1.248784E+05  6.123498E+04 -6.932584E+04 -5.015626E+04
       314   5  4.703118E+04  2.183089E+04 -5.483989E+04  1.886856E+04 -4.747248E+04 -3.004842E+04
       314   6  4.547325E+04 -1.044457E+03 -3.396885E+04  1.094859E+04 -2.308655E+04 -1.330492E+04
       314   7  9.916686E+04  5.265685E+04 -8.303491E+04  1.316759E+05 -6.714089E+04 -4.851647E+04
       314   8  1.344769E+05  1.005162E+05 -2.317165E+04  6.974177E+04 -4.712322E+04 -2.978663E+04
       314   9  1.292181E+05  3.626429E+04 -1.087232E+04  4.225207E+04 -2.457326E+04 -1.442341E+04
       314  10 -8.394543E+04 -1.882813E+05 -1.667383E+05 -9.194046E+03 -2.122032E-09 -2.865863E-09
       314  11 -4.040936E+04 -5.684886E+04 -8.651545E+04 -3.199702E+04 -1.398362E-09 -1.453044E-09
       314  12 -3.826430E+04 -3.835227E+04 -5.706708E+04 -2.035135E+04 -5.833874E-10  1.283014E-09
       314  13  7.603151E+03 -6.782396E+04 -1.248921E+05  6.123218E+04 -8.149799E-10 -7.217615E-10
       314  14  4.702851E+04  2.182931E+04 -5.484582E+04  1.886741E+04 -3.526622E-09 -4.856342E-10
       314  15  4.547263E+04 -1.044790E+03 -3.397018E+04  1.094835E+04 -1.553854E-09  2.354052E-09
       314  16  9.916139E+04  5.265311E+04 -8.304780E+04  1.316733E+05  2.379588E-10  1.747960E-09
       314  17  1.344743E+05  1.005147E+05 -2.317749E+04  6.974064E+04 -8.332168E-10  2.052194E-10
       314  18  1.292174E+05  3.626390E+04 -1.087385E+04  4.225178E+04 -2.558167E-09 -1.025398E-09
       314  19 -8.393922E+04 -1.882771E+05 -1.667236E+05 -9.191063E+03  7.151039E+04  5.179538E+04
       314  20 -4.040665E+04 -5.684726E+04 -8.650942E+04 -3.199586E+04  4.782168E+04  3.031015E+04
       314  21 -3.826376E+04 -3.835198E+04 -5.706592E+04 -2.035114E+04  2.160011E+04  1.218655E+04
       314  22  7.608987E+03 -6.781997E+04 -1.248784E+05  6.123498E+04  6.932584E+04  5.015626E+04
       314  23  4.703118E+04  2.183089E+04 -5.483989E+04  1.886856E+04  4.747248E+04  3.004842E+04
       314  24  4.547325E+04 -1.044457E+03 -3.396885E+04  1.094859E+04  2.308655E+04  1.330492E+04
       314  25  9.916686E+04  5.265685E+04 -8.303491E+04  1.316759E+05  6.714089E+04  4.851647E+04
       314  26  1.344769E+05  1.005162E+05 -2.317165E+04  6.974177E+04  4.712322E+04  2.978663E+04
       314  27  1.292181E+05  3.626429E+04 -1.087232E+04  4.225207E+04  2.457326E+04  1.442341E+04
       315   1  9.041357E+03 -3.825527E+04 -4.001238E+04  1.668107E+03 -1.755333E+04 -1.098410E+04
       315   2  2.662876E+04  2.521649E+03 -1.771934E+04  1.443925E+04 -1.099798E+04 -7.598636E+03
       315   3  6.139549E+04  1.026265E+04 -3.144005E+03  2.414832E+04 -4.272925E+03 -4.437812E+03
       315   4  4.428059E+04 -8.285405E+03 -2.757926E+04  2.137239E+04 -1.803312E+04 -1.134542E+04
       315   5  3.755075E+04  1.152445E+04 -1.392024E+04  2.041552E+04 -1.160032E+04 -8.052096E+03
       315   6  4.802656E+04 -1.675073E+03 -7.871647E+03  1.639597E+04 -4.998167E+03 -4.983726E+03
       315   7  7.952135E+04  2.168568E+04 -1.514625E+04  4.107814E+04 -1.851296E+04 -1.170677E+04
       315   8  4.847287E+04  2.052735E+04 -1.012116E+04  2.639190E+04 -1.220268E+04 -8.505570E+03
       315   9  3.465789E+04 -1.361255E+04 -1.259928E+04  8.643864E+03 -5.723385E+03 -5.529616E+03
       315  10  9.040993E+03 -3.825548E+04 -4.001319E+04  1.667952E+03 -2.651461E-10  1.146781E-09
       315  11  2.662862E+04  2.521554E+03 -1.771967E+04  1.443919E+04  1.345771E-09 -3.254999E-09
       315  12  6.139547E+04  1.026262E+04 -3.144076E+03  2.414831E+04  2.347511E-09 -5.178311E-10
       315  13  4.428021E+04 -8.285630E+03 -2.758011E+04  2.137222E+04 -1.071421E-09 -4.336517E-09
       315  14  3.755059E+04  1.152435E+04 -1.392061E+04  2.041544E+04  1.089912E-09  1.626670E-10
       315  15  4.802652E+04 -1.675107E+03 -7.871740E+03  1.639595E+04  6.006487E-10  2.425527E-10
       315  16  7.952094E+04  2.168544E+04 -1.514716E+04  4.107797E+04 -1.413202E-09  2.069828E-09
       315  17  4.847269E+04  2.052724E+04 -1.012157E+04  2.639182E+04 -2.151730E-09 -3.995848E-09
       315  18  3.465785E+04 -1.361259E+04 -1.259940E+04  8.643838E+03 -2.091044E-09 -1.221344E-09
       315  19  9.041357E+03 -3.825527E+04 -4.001238E+04  1.668107E+03  1.755333E+04  1.098410E+04
       315  20  2.662876E+04  2.521649E+03 -1.771934E+04  1.443925E+04  1.099798E+04  7.598636E+03
       315  21  6.139549E+04  1.026265E+04 -3.144005E+03  2.414832E+04  4.272925E+03  4.437812E+03
       315  22  4.428059E+04 -8.285405E+03 -2.757926E+04  2.137239E+04  1.803312E+04  1.134542E+04
       315  23  3.755075E+04  1.152445E+04 -1.392024E+04  2.041552E+04  1.160032E+04  8.052096E+03
       315  24  4.802656E+04 -1.675073E+03 -7.871647E+03  1.639597E+04  4.998167E+03  4.983726E+03
       315  25  7.952135E+04  2.168568E+04 -1.514625E+04  4.107814E+04  1.851296E+04  1.170677E+04
       315  26  4.847287E+04  2.052735E+04 -1.012116E+04  2.639190E+04  1.220268E+04  8.505570E+03
       315  27  3.465789E+04 -1.361255E+04 -1.259928E+04  8.643864E+03  5.723385E+03  5.529616E+03
       316   1  9.544565E+04  3.131979E+04  9.720846E+03  4.096076E+04 -2.800054E+03 -4.505806E+03
       316   2  1.102150E+05  6.302809E+04  2.174097E+04  5.715435E+04 -9.521934E+02 -5.012979E+03
       316   3  1.485012E+05  7.010562E+04  3.280586E+04  6.665506E+04  8.837610E+02 -5.503671E+03
       316   4  4.798771E+04 -2.355180E+03 -5.849876E+03  1.750151E+04 -3.466629E+03 -5.007604E+03
       316   5  3.647003E+04  1.038452E+04 -2.361610E+03  2.052942E+04 -1.609904E+03 -5.508203E+03
       316   6  4.846659E+04 -1.509251E+03  1.638054E+02  1.686368E+04  2.348622E+02 -5.992355E+03
       316   7  5.321418E+02 -3.602896E+04 -2.142090E+04 -5.955731E+03 -4.133134E+03 -5.509349E+03
       316   8 -3.726942E+04 -4.225629E+04 -2.646498E+04 -1.609074E+04 -2.267509E+03 -6.003347E+03
       316   9 -5.155807E+04 -7.311910E+04 -3.247977E+04 -3.291898E+04 -4.138974E+02 -6.480934E+03
       316  10  9.544564E+04  3.131976E+04  9.720793E+03  4.096075E+04  3.306748E-09  2.486104E-09
       316  11  1.102150E+05  6.302807E+04  2.174092E+04  5.715434E+04  1.068838E-10  5.673893E-09
       316  12  1.485012E+05  7.010559E+04  3.280580E+04  6.665506E+04 -2.209842E-09  7.718334E-10
       316  13  4.798769E+04 -2.355210E+03 -5.849945E+03  1.750150E+04  1.991485E-09 -1.362002E-09
       316  14  3.647002E+04  1.038448E+04 -2.361671E+03  2.052941E+04  1.457302E-09  7.958034E-09
       316  15  4.846658E+04 -1.509290E+03  1.637379E+02  1.686368E+04  9.935869E-10 -2.845614E-09
       316  16  5.321153E+02 -3.602900E+04 -2.142099E+04 -5.955749E+03 -1.910167E-09 -7.080916E-10
       316  17 -3.726944E+04 -4.225633E+04 -2.646506E+04 -1.609075E+04  3.762906E-09 -3.224523E-09
       316  18 -5.155809E+04 -7.311915E+04 -3.247985E+04 -3.291899E+04  3.761814E-09  1.391905E-09
       316  19  9.544565E+04  3.131979E+04  9.720846E+03  4.096076E+04  2.800054E+03  4.505806E+03
       316  20  1.102150E+05  6.302809E+04  2.174097E+04  5.715435E+04  9.521934E+02  5.012979E+03
       316  21  1.485012E+05  7.010562E+04  3.280586E+04  6.665506E+04 -8.837610E+02  5.503671E+03
       316  22  4.798771E+04 -2.355180E+03 -5.849876E+03  1.750151E+04  3.466629E+03  5.007604E+03
       316  23  3.647003E+04  1.038452E+04 -2.361610E+03  2.052942E+04  1.609904E+03  5.508203E+03
       316  24  4.846659E+04 -1.509251E+03  1.638054E+02  1.686368E+04 -2.348622E+02  5.992355E+03
       316  25  5.321418E+02 -3.602896E+04 -2.142090E+04 -5.955731E+03  4.133134E+03  5.509349E+03
       316  26 -3.726942E+04 -4.225629E+04 -2.646498E+04 -1.609074E+04  2.267509E+03  6.003347E+03
       316  27 -5.155807E+04 -7.311910E+04 -3.247977E+04 -3.291898E+04  4.138974E+02  6.480934E+03
       317   1  1.806926E+05  9.350247E+04  4.476666E+04  8.340621E+04  1.509759E+03 -6.258000E+03
       317   2  1.952962E+05  1.233300E+05  5.598872E+04  9.956948E+04  5.263741E+02 -8.882605E+03
       317   3  2.362435E+05  1.321915E+05  6.976353E+04  1.075539E+05 -8.075926E+02 -1.104103E+04
       317   4  4.846985E+04 -1.784276E+03  1.289395E+03  1.734193E+04  7.254674E+02 -6.848743E+03
       317   5  3.597558E+04  9.872987E+03  3.974125E+03  2.056656E+04 -2.433843E+00 -9.281144E+03
       317   6  4.976998E+04  5.091477E+02  8.990544E+03  1.561175E+04 -1.080868E+03 -1.124721E+04
       317   7 -8.373371E+04 -9.706082E+04 -4.218993E+04 -4.870610E+04 -5.859135E+01 -7.439310E+03
       317   8 -1.233178E+05 -1.035701E+05 -4.804365E+04 -5.841341E+04 -5.310544E+02 -9.679542E+03
       317   9 -1.366667E+05 -1.311549E+05 -5.178699E+04 -7.629959E+04 -1.354030E+03 -1.145332E+04
       317  10  1.806926E+05  9.350243E+04  4.476658E+04  8.340622E+04 -8.244449E-10  2.752486E-09
       317  11  1.952962E+05  1.233299E+05  5.598857E+04  9.956948E+04 -6.948820E-10  5.069331E-09
       317  12  2.362434E+05  1.321914E+05  6.976330E+04  1.075539E+05 -9.980646E-10  8.424847E-10
       317  13  4.846983E+04 -1.784327E+03  1.289306E+03  1.734194E+04  7.388395E-10 -2.031441E-10
       317  14  3.597556E+04  9.872895E+03  3.973963E+03  2.056656E+04 -1.195051E-09 -2.138162E-09
       317  15  4.976994E+04  5.090115E+02  8.990304E+03  1.561174E+04 -1.386332E-09  1.355167E-10
       317  16 -8.373372E+04 -9.706087E+04 -4.219004E+04 -4.870611E+04  4.091901E-11  1.302507E-09
       317  17 -1.233178E+05 -1.035702E+05 -4.804382E+04 -5.841341E+04 -6.854749E-10  7.209498E-10
       317  18 -1.366668E+05 -1.311551E+05 -5.178724E+04 -7.629960E+04 -1.827674E-09  2.575849E-10
       317  19  1.806926E+05  9.350247E+04  4.476666E+04  8.340621E+04 -1.509759E+03  6.258000E+03
       317  20  1.952962E+05  1.233300E+05  5.598872E+04  9.956948E+04 -5.263741E+02  8.882605E+03
       317  21  2.362435E+05  1.321915E+05  6.976353E+04  1.075539E+05  8.075926E+02  1.104103E+04
       317  22  4.846985E+04 -1.784276E+03  1.289395E+03  1.734193E+04 -7.254674E+02  6.848743E+03
       317  23  3.597558E+04  9.872987E+03  3.974125E+03  2.056656E+04  2.433843E+00  9.281144E+03
       317  24  4.976998E+04  5.091477E+02  8.990544E+03  1.561175E+04  1.080868E+03  1.124721E+04
       317  25 -8.373371E+04 -9.706082E+04 -4.218993E+04 -4.870610E+04  5.859135E+01  7.439310E+03
       317  26 -1.233178E+05 -1.035701E+05 -4.804365E+04 -5.841341E+04  5.310544E+02  9.679542E+03
       317  27 -1.366667E+05 -1.311549E+05 -5.178699E+04 -7.629959E+04  1.354030E+03  1.145332E+04
       318   1  2.629695E+05  1.585272E+05  8.253633E+04  1.289567E+05  1.145999E+03 -1.218155E+04
       318   2  2.803080E+05  1.777618E+05  9.846851E+04  1.416538E+05 -1.001222E+04 -2.189520E+04
       318   3  3.445712E+05  2.043069E+05  1.344677E+05  1.334430E+05 -2.637848E+04 -2.470384E+04
       318   4  4.932484E+04 -1.905524E+03  1.129563E+04  1.920817E+04 -1.195651E+03 -1.394647E+04
       318   5  3.274786E+04  6.242465E+03  1.858519E+04  2.106790E+04 -8.571543E+03 -2.080979E+04
       318   6  6.228191E+04  2.088807E+04  4.266051E+04  2.016397E+03 -2.115569E+04 -2.076613E+04
       318   7 -1.642726E+05 -1.623110E+05 -5.995166E+04 -9.049744E+04 -3.536214E+03 -1.571051E+04
       318   8 -2.147479E+05 -1.652466E+05 -6.130615E+04 -9.946504E+04 -7.131645E+03 -1.972494E+04
       318   9 -2.199233E+05 -1.624975E+05 -4.915659E+04 -1.293463E+05 -1.593617E+04 -1.683059E+04
       318  10  2.629694E+05  1.585271E+05  8.253605E+04  1.289567E+05  1.607934E-09  2.636173E-09
       318  11  2.803078E+05  1.777613E+05  9.846742E+04  1.416536E+05  5.887750E-10 -3.601899E-09
       318  12  3.445703E+05  2.043061E+05  1.344652E+05  1.334425E+05 -8.980124E-10 -6.014208E-09
       318  13  4.932479E+04 -1.905733E+03  1.129526E+04  1.920816E+04  9.285924E-10 -4.852325E-09
       318  14  3.274766E+04  6.241980E+03  1.858424E+04  2.106776E+04  2.085067E-09 -1.616276E-09
       318  15  6.228131E+04  2.088749E+04  4.265886E+04  2.016043E+03  8.102214E-10  2.234706E-09
       318  16 -1.642727E+05 -1.623113E+05 -5.995215E+04 -9.049749E+04 -3.177275E-09  3.347536E-09
       318  17 -2.147481E+05 -1.652470E+05 -6.130698E+04 -9.946516E+04  1.269428E-09 -4.376583E-09
       318  18 -2.199236E+05 -1.624979E+05 -4.915760E+04 -1.293465E+05  3.199619E-09  1.512218E-09
       318  19  2.629695E+05  1.585272E+05  8.253633E+04  1.289567E+05 -1.145999E+03  1.218155E+04
       318  20  2.803080E+05  1.777618E+05  9.846851E+04  1.416538E+05  1.001222E+04  2.189520E+04
       318  21  3.445712E+05  2.043069E+05  1.344677E+05  1.334430E+05  2.637848E+04  2.470384E+04
       318  22  4.932484E+04 -1.905524E+03  1.129563E+04  1.920817E+04  1.195651E+03  1.394647E+04
       318  23  3.274786E+04  6.242465E+03  1.858519E+04  2.106790E+04  8.571543E+03  2.080979E+04
       318  24  6.228191E+04  2.088807E+04  4.266051E+04  2.016397E+03  2.115569E+04  2.076613E+04
       318  25 -1.642726E+05 -1.623110E+05 -5.995166E+04 -9.049744E+04  3.536214E+03  1.571051E+04
       318  26 -2.147479E+05 -1.652466E+05 -6.130615E+04 -9.946504E+04  7.131645E+03  1.972494E+04
       318  27 -2.199233E+05 -1.624975E+05 -4.915659E+04 -1.293463E+05  1.593617E+04  1.683059E+04
       319   1  1.338934E+06  2.744365E+05  2.794622E+05  1.098805E+05  6.388003E+04 -1.067571E+04
       319   2  1.183706E+06  1.877899E+05  2.014775E+05  6.211202E+04  3.123849E+04 -3.223157E+04
       319   3  1.045185E+06  1.516574E+05  1.573365E+05  8.341529E+04 -1.455637E+03 -2.939445E+04
       319   4  4.179634E+05  4.541959E+04  5.500028E+04  8.847712E+04  3.722431E+04 -1.074505E+04
       319   5  4.113181E+05 -1.856744E+03  2.516084E+04  5.400271E+04  2.389190E+04 -3.225495E+04
       319   6  4.180347E+05 -1.931805E+03  1.579651E+04  8.860176E+04  1.049858E+04 -2.935975E+04
       319   7 -5.022324E+05 -1.836578E+05 -1.695204E+05  6.710495E+04  1.060794E+04 -1.081262E+04
       319   8 -3.605173E+05 -1.915445E+05 -1.511945E+05  4.590316E+04  1.655435E+04 -3.227816E+04
       319   9 -2.087502E+05 -1.555477E+05 -1.257681E+05  9.378266E+04  2.244086E+04 -2.932482E+04
       319  10  1.338929E+06  2.744353E+05  2.794543E+05  1.098811E+05 -9.481185E-09  1.556330E-09
       319  11  1.183705E+06  1.877886E+05  2.014737E+05  6.211283E+04 -3.925467E-10  1.185376E-08
       319  12  1.045185E+06  1.516564E+05  1.573349E+05  8.341525E+04  7.221420E-09  5.807332E-09
       319  13  4.179619E+05  4.541909E+04  5.499746E+04  8.847744E+04 -4.347533E-10 -5.111131E-09
       319  14  4.113172E+05 -1.858015E+03  2.515782E+04  5.400333E+04 -6.121499E-10 -1.114052E-08
       319  15  4.180343E+05 -1.932760E+03  1.579468E+04  8.860201E+04  1.076907E-09 -3.064682E-09
       319  16 -5.022326E+05 -1.836580E+05 -1.695208E+05  6.710504E+04  8.975559E-09  7.460507E-10
       319  17 -3.605179E+05 -1.915457E+05 -1.511970E+05  4.590359E+04 -1.228762E-10  7.446373E-09
       319  18 -2.087510E+05 -1.555488E+05 -1.257707E+05  9.378319E+04 -7.544079E-09 -2.739364E-09
       319  19  1.338934E+06  2.744365E+05  2.794622E+05  1.098805E+05 -6.388003E+04  1.067571E+04
       319  20  1.183706E+06  1.877899E+05  2.014775E+05  6.211202E+04 -3.123849E+04  3.223157E+04
       319  21  1.045185E+06  1.516574E+05  1.573365E+05  8.341529E+04  1.455637E+03  2.939445E+04
       319  22  4.179634E+05  4.541959E+04  5.500028E+04  8.847712E+04 -3.722431E+04  1.074505E+04
       319  23  4.113181E+05 -1.856744E+03  2.516084E+04  5.400271E+04 -2.389190E+04  3.225495E+04
       319  24  4.180347E+05 -1.931805E+03  1.579651E+04  8.860176E+04 -1.049858E+04  2.935975E+04
       319  25 -5.022324E+05 -1.836578E+05 -1.695204E+05  6.710495E+04 -1.060794E+04  1.081262E+04
       319  26 -3.605173E+05 -1.915445E+05 -1.511945E+05  4.590316E+04 -1.655435E+04  3.227816E+04
       319  27 -2.087502E+05 -1.555477E+05 -1.257681E+05  9.378266E+04 -2.244086E+04  2.932482E+04
       320   1  9.110040E+05  1.250162E+05  1.255662E+05  9.104227E+04  3.589144E+03 -2.232293E+04
       320   2  7.641760E+05  8.572818E+04  8.782245E+04  5.497314E+04 -1.708499E+03 -1.607642E+04
       320   3  6.185965E+05  5.059742E+04  5.444991E+04  8.875117E+04 -7.011873E+03 -8.745285E+03
       320   4  4.153382E+05  3.476603E+03  1.322127E+04  8.873330E+04  8.106517E+03 -2.230970E+04
       320   5  4.148135E+05  9.234351E+01  8.799446E+03  5.381316E+04  3.668491E+03 -1.605925E+04
       320   6  4.153673E+05  7.185657E+02  8.155066E+03  8.874235E+04 -7.764958E+02 -8.723823E+03
       320   7 -8.009965E+04 -1.180799E+05 -9.913946E+04  8.642600E+04  1.262032E+04 -2.229651E+04
       320   8  6.556422E+04 -8.555186E+04 -7.023130E+04  5.265375E+04  9.042486E+03 -1.604209E+04
       320   9  2.121765E+05 -4.916313E+04 -3.814232E+04  8.873350E+04  5.456860E+03 -8.702357E+03
       320  10  9.110039E+05  1.250157E+05  1.255653E+05  9.104233E+04 -6.188463E-09  4.947947E-10
       320  11  7.641759E+05  8.572790E+04  8.782196E+04  5.497311E+04  2.633201E-10  4.796547E-09
       320  12  6.185964E+05  5.059733E+04  5.444968E+04  8.875112E+04  7.575135E-09  7.109783E-09
       320  13  4.153380E+05  3.476051E+03  1.322021E+04  8.873345E+04  5.564993E-10  9.748647E-09
       320  14  4.148134E+05  9.206290E+01  8.798936E+03  5.381321E+04 -4.751293E-10 -2.116526E-08
       320  15  4.153673E+05  7.184838E+02  8.154922E+03  8.874235E+04  1.843573E-09  7.916936E-09
       320  16 -8.009995E+04 -1.180805E+05 -9.914070E+04  8.642623E+04  5.397473E-09 -8.777871E-09
       320  17  6.556406E+04 -8.555216E+04 -7.023193E+04  5.265387E+04  2.126637E-10 -3.534110E-09
       320  18  2.121765E+05 -4.916322E+04 -3.814252E+04  8.873354E+04 -6.615191E-09  1.240968E-09
       320  19  9.110040E+05  1.250162E+05  1.255662E+05  9.104227E+04 -3.589144E+03  2.232293E+04
       320  20  7.641760E+05  8.572818E+04  8.782245E+04  5.497314E+04  1.708499E+03  1.607642E+04
       320  21  6.185965E+05  5.059742E+04  5.444991E+04  8.875117E+04  7.011873E+03  8.745285E+03
       320  22  4.153382E+05  3.476603E+03  1.322127E+04  8.873330E+04 -8.106517E+03  2.230970E+04
       320  23  4.148135E+05  9.234351E+01  8.799446E+03  5.381316E+04 -3.668491E+03  1.605925E+04
       320  24  4.153673E+05  7.185657E+02  8.155066E+03  8.874235E+04  7.764958E+02  8.723823E+03
       320  25 -8.009965E+04 -1.180799E+05 -9.913946E+04  8.642600E+04 -1.262032E+04  2.229651E+04
       320  26  6.556422E+04 -8.555186E+04 -7.023130E+04  5.265375E+04 -9.042486E+03  1.604209E+04
       320  27  2.121765E+05 -4.916313E+04 -3.814232E+04  8.873350E+04 -5.456860E+03  8.702357E+03
       321   1  4.880031E+05  1.820796E+04  2.468067E+04  8.976686E+04 -8.410497E+03 -4.114834E+03
       321   2  3.411830E+05 -1.799835E+04 -4.998983E+03  5.319837E+04 -1.370928E+04  3.257269E+03
       321   3  1.959200E+05 -4.849168E+04 -2.993656E+04  8.643477E+04 -1.900371E+04  9.870887E+03
       321   4  4.155012E+05  5.034759E+02  8.662449E+03  8.873450E+04 -2.273901E+03 -4.093342E+03
       321   5  4.146762E+05  3.212917E+01  1.166884E+04  5.382412E+04 -8.172882E+03  3.276330E+03
       321   6  4.154936E+05  5.379137E+03  1.983438E+04  8.871776E+04 -1.406873E+04  9.887609E+03
       321   7  3.430042E+05 -1.720134E+04 -7.355953E+03  8.770225E+04  3.861988E+03 -4.071870E+03
       321   8  4.881745E+05  1.806225E+04  2.833643E+04  5.444994E+04 -2.635837E+03  3.295400E+03
       321   9  6.351119E+05  5.924666E+04  6.960230E+04  9.100153E+04 -9.132026E+03  9.904365E+03
       321  10  4.880031E+05  1.820792E+04  2.468050E+04  8.976683E+04  3.505629E-09 -4.842908E-09
       321  11  3.411828E+05 -1.799841E+04 -4.999356E+03  5.319841E+04 -3.422016E-10 -1.341508E-10
       321  12  1.959196E+05 -4.849188E+04 -2.993742E+04  8.643492E+04 -2.160155E-09 -2.052462E-09
       321  13  4.155012E+05  5.034565E+02  8.662408E+03  8.873449E+04 -2.822597E-10 -2.272926E-09
       321  14  4.146761E+05  3.209972E+01  1.166870E+04  5.382414E+04  1.231773E-10 -4.564373E-09
       321  15  4.154933E+05  5.378979E+03  1.983382E+04  8.871788E+04  1.954562E-09 -2.808571E-09
       321  16  3.430042E+05 -1.720136E+04 -7.356012E+03  8.770226E+04 -3.763050E-09 -7.554963E-09
       321  17  4.881745E+05  1.806224E+04  2.833640E+04  5.444995E+04  9.367152E-10  4.163772E-09
       321  18  6.351118E+05  5.924653E+04  6.960196E+04  9.100160E+04  2.726067E-09  1.089059E-08
       321  19  4.880031E+05  1.820796E+04  2.468067E+04  8.976686E+04  8.410497E+03  4.114834E+03
       321  20  3.411830E+05 -1.799835E+04 -4.998983E+03  5.319837E+04  1.370928E+04 -3.257269E+03
       321  21  1.959200E+05 -4.849168E+04 -2.993656E+04  8.643477E+04  1.900371E+04 -9.870887E+03
       321  22  4.155012E+05  5.034759E+02  8.662449E+03  8.873450E+04  2.273901E+03  4.093342E+03
       321  23  4.146762E+05  3.212917E+01  1.166884E+04  5.382412E+04  8.172882E+03 -3.276330E+03
       321  24  4.154936E+05  5.379137E+03  1.983438E+04  8.871776E+04  1.406873E+04 -9.887609E+03
       321  25  3.430042E+05 -1.720134E+04 -7.355953E+03  8.770225E+04 -3.861988E+03  4.071870E+03
       321  26  4.881745E+05  1.806225E+04  2.833643E+04  5.444994E+04  2.635837E+03 -3.295400E+03
       321  27  6.351119E+05  5.924666E+04  6.960230E+04  9.100153E+04  9.132026E+03 -9.904365E+03
       322   1  6.916281E+04 -8.918813E+04 -5.495928E+04  9.839012E+04 -2.793862E+04  1.615699E+04
       322   2 -8.653000E+04 -1.248451E+05 -7.348953E+04  4.238353E+04 -3.533618E+04  2.037493E+04
       322   3 -2.234153E+05 -8.759094E+04 -6.906315E+04  5.549283E+04 -4.267858E+04  7.045566E+03
       322   4  4.198185E+05 -3.302945E+03  2.431101E+04  8.863820E+04 -1.767300E+04  1.619157E+04
       322   5  4.092055E+05 -2.949874E+03  3.991096E+04  5.396753E+04 -3.893611E+04  2.036179E+04
       322   6  4.197646E+05  7.268772E+04  8.807684E+04  8.840493E+04 -6.014623E+04  6.990450E+03
       322   7  7.705889E+05  8.257424E+04  1.035739E+05  7.888063E+04 -7.401637E+03  1.622582E+04
       322   8  9.051690E+05  1.189287E+05  1.532954E+05  6.556066E+04 -4.253887E+04  2.034853E+04
       322   9  1.063324E+06  2.329399E+05  2.451883E+05  1.213509E+05 -7.763190E+04  6.933513E+03
       322  10  6.916190E+04 -8.918862E+04 -5.496123E+04  9.839048E+04  2.488653E-09 -6.549269E-09
       322  11 -8.653145E+04 -1.248458E+05 -7.349266E+04  4.238411E+04 -9.674748E-10  2.255928E-09
       322  12 -2.234173E+05 -8.759148E+04 -6.906667E+04  5.549308E+04 -4.623156E-10  6.060156E-10
       322  13  4.198181E+05 -3.303310E+03  2.430993E+04  8.863843E+04 -6.323381E-12  1.115446E-09
       322  14  4.092038E+05 -2.950726E+03  3.990733E+04  5.396816E+04 -1.503598E-11 -5.460993E-09
       322  15  4.197607E+05  7.268670E+04  8.806995E+04  8.840527E+04  1.174206E-09 -5.260200E-09
       322  16  7.705888E+05  8.257394E+04  1.035733E+05  7.888072E+04 -2.654808E-09  5.835492E-09
       322  17  9.051669E+05  1.189278E+05  1.532913E+05  6.556136E+04  2.260998E-09  1.063735E-08
       322  18  1.063318E+06  2.329382E+05  2.451769E+05  1.213513E+05  1.160764E-09  4.113729E-09
       322  19  6.916281E+04 -8.918813E+04 -5.495928E+04  9.839012E+04  2.793862E+04 -1.615699E+04
       322  20 -8.653000E+04 -1.248451E+05 -7.348953E+04  4.238353E+04  3.533618E+04 -2.037493E+04
       322  21 -2.234153E+05 -8.759094E+04 -6.906315E+04  5.549283E+04  4.267858E+04 -7.045566E+03
       322  22  4.198185E+05 -3.302945E+03  2.431101E+04  8.863820E+04  1.767300E+04 -1.619157E+04
       322  23  4.092055E+05 -2.949874E+03  3.991096E+04  5.396753E+04  3.893611E+04 -2.036179E+04
       322  24  4.197646E+05  7.268772E+04  8.807684E+04  8.840493E+04  6.014623E+04 -6.990450E+03
       322  25  7.705889E+05  8.257424E+04  1.035739E+05  7.888063E+04  7.401637E+03 -1.622582E+04
       322  26  9.051690E+05  1.189287E+05  1.532954E+05  6.556066E+04  4.253887E+04 -2.034853E+04
       322  27  1.063324E+06  2.329399E+05  2.451883E+05  1.213509E+05  7.763190E+04 -6.933513E+03
       323   1 -7.926310E+04 -2.365079E+05 -8.607417E+04  2.183669E+05  2.292381E+03 -3.874340E+04
       323   2  1.054943E+03 -1.010165E+05 -2.565702E+04  1.824949E+05  1.039568E+04 -1.640656E+04
       323   3  4.796766E+04  2.336330E+04  1.189853E+04  1.690901E+05  1.929826E+04  5.937353E+03
       323   4 -7.541447E+04 -2.246814E+05 -7.985034E+04  1.682137E+05  2.329359E+03 -5.593062E+04
       323   5 -2.538942E+04 -2.192733E+05 -4.021778E+04  1.570487E+05  1.043441E+04 -3.537250E+04
       323   6 -8.464190E+03 -2.246840E+05 -2.220957E+04  1.683573E+05  1.934059E+04 -1.481143E+04
       323   7 -7.155625E+04 -2.128488E+05 -7.362406E+04  1.180596E+05  2.369114E+03 -7.311821E+04
       323   8 -5.183170E+04 -3.375136E+05 -5.477684E+04  1.316077E+05  1.047469E+04 -5.433501E+04
       323   9 -6.489850E+04 -4.726678E+05 -5.631673E+04  1.676249E+05  1.938297E+04 -3.555229E+04
       323  10 -7.926351E+04 -2.365095E+05 -8.607700E+04  2.183670E+05 -1.567578E-10 -2.713213E-10
       323  11  1.054755E+03 -1.010168E+05 -2.565773E+04  1.824950E+05 -1.056220E-09  3.690891E-09
       323  12  4.796725E+04  2.336316E+04  1.189777E+04  1.690900E+05  3.865923E-10 -1.265340E-09
       323  13 -7.541532E+04 -2.246848E+05 -7.985623E+04  1.682138E+05  3.950140E-10  4.857813E-09
       323  14 -2.538987E+04 -2.192747E+05 -4.022033E+04  1.570490E+05 -8.917031E-10 -4.342895E-09
       323  15 -8.464650E+03 -2.246843E+05 -2.221069E+04  1.683576E+05 -1.316835E-10  4.232898E-09
       323  16 -7.155770E+04 -2.128546E+05 -7.363412E+04  1.180598E+05 -6.336464E-10 -1.376521E-10
       323  17 -5.183261E+04 -3.375168E+05 -5.478259E+04  1.316081E+05  2.128712E-10 -2.275446E-09
       323  18 -6.489924E+04 -4.726693E+05 -5.631982E+04  1.676254E+05 -2.081906E-09 -1.829503E-10
       323  19 -7.926310E+04 -2.365079E+05 -8.607417E+04  2.183669E+05 -2.292381E+03  3.874340E+04
       323  20  1.054943E+03 -1.010165E+05 -2.565702E+04  1.824949E+05 -1.039568E+04  1.640656E+04
       323  21  4.796766E+04  2.336330E+04  1.189853E+04  1.690901E+05 -1.929826E+04 -5.937353E+03
       323  22 -7.541447E+04 -2.246814E+05 -7.985034E+04  1.682137E+05 -2.329359E+03  5.593062E+04
       323  23 -2.538942E+04 -2.192733E+05 -4.021778E+04  1.570487E+05 -1.043441E+04  3.537250E+04
       323  24 -8.464190E+03 -2.246840E+05 -2.220957E+04  1.683573E+05 -1.934059E+04  1.481143E+04
       323  25 -7.155625E+04 -2.128488E+05 -7.362406E+04  1.180596E+05 -2.369114E+03  7.311821E+04
       323  26 -5.183170E+04 -3.375136E+05 -5.477684E+04  1.316077E+05 -1.047469E+04  5.433501E+04
       323  27 -6.489850E+04 -4.726678E+05 -5.631673E+04  1.676249E+05 -1.938297E+04  3.555229E+04
       324   1  6.845809E+04  1.066576E+05  2.939581E+04  1.710506E+05  2.485981E+04  8.821483E+03
       324   2  1.024319E+05  2.369364E+05  5.680755E+04  1.575406E+05  3.301224E+04  8.717644E+03
       324   3  1.338466E+05  3.667574E+05  8.368837E+04  1.664450E+05  3.881629E+04  8.609985E+03
       324   4 -6.653002E+03 -2.225955E+05 -1.696253E+04  1.683343E+05  2.490305E+04 -1.188399E+04
       324   5 -2.728511E+03 -2.219256E+05 -1.016459E+04  1.571314E+05  3.304717E+04 -6.776360E+03
       324   6 -2.268076E+03 -2.226350E+05 -7.517423E+03  1.683445E+05  3.884199E+04 -1.672485E+03
       324   7 -8.176868E+04 -5.517378E+05 -6.332070E+04  1.656195E+05  2.494648E+04 -3.257896E+04
       324   8 -1.078985E+05 -6.805749E+05 -7.713939E+04  1.567225E+05  3.308213E+04 -2.225939E+04
       324   9 -1.383996E+05 -8.116803E+05 -9.873075E+04  1.702421E+05  3.886764E+04 -1.194557E+04
       324  10  6.845740E+04  1.066573E+05  2.939451E+04  1.710504E+05  1.186096E-09  9.415157E-10
       324  11  1.024307E+05  2.369360E+05  5.680536E+04  1.575404E+05  2.259488E-09  2.250576E-09
       324  12  1.338450E+05  3.667570E+05  8.368540E+04  1.664448E+05  2.028273E-09 -1.639106E-09
       324  13 -6.653706E+03 -2.225958E+05 -1.696396E+04  1.683345E+05 -1.937094E-10  3.892235E-09
       324  14 -2.729696E+03 -2.219259E+05 -1.016673E+04  1.571316E+05  7.391050E-10 -4.545778E-09
       324  15 -2.269697E+03 -2.226354E+05 -7.520263E+03  1.683445E+05  7.470059E-10  2.977056E-09
       324  16 -8.176964E+04 -5.517391E+05 -6.332386E+04  1.656202E+05 -1.189920E-09  1.662502E-09
       324  17 -1.078998E+05 -6.805757E+05 -7.714238E+04  1.567231E+05 -2.327523E-09 -2.932350E-09
       324  18 -1.384013E+05 -8.116808E+05 -9.873386E+04  1.702425E+05 -6.677419E-10 -7.293214E-11
       324  19  6.845809E+04  1.066576E+05  2.939581E+04  1.710506E+05 -2.485981E+04 -8.821483E+03
       324  20  1.024319E+05  2.369364E+05  5.680755E+04  1.575406E+05 -3.301224E+04 -8.717644E+03
       324  21  1.338466E+05  3.667574E+05  8.368837E+04  1.664450E+05 -3.881629E+04 -8.609985E+03
       324  22 -6.653002E+03 -2.225955E+05 -1.696253E+04  1.683343E+05 -2.490305E+04  1.188399E+04
       324  23 -2.728511E+03 -2.219256E+05 -1.016459E+04  1.571314E+05 -3.304717E+04  6.776360E+03
       324  24 -2.268076E+03 -2.226350E+05 -7.517423E+03  1.683445E+05 -3.884199E+04  1.672485E+03
       324  25 -8.176868E+04 -5.517378E+05 -6.332070E+04  1.656195E+05 -2.494648E+04  3.257896E+04
       324  26 -1.078985E+05 -6.805749E+05 -7.713939E+04  1.567225E+05 -3.308213E+04  2.225939E+04
       324  27 -1.383996E+05 -8.116803E+05 -9.873075E+04  1.702421E+05 -3.886764E+04  1.194557E+04
       325   1  1.532006E+05  4.489280E+05  9.974356E+04  1.665665E+05  4.216893E+04  9.162460E+03
       325   2  1.837338E+05  5.761818E+05  1.380625E+05  1.515076E+05  3.667236E+04 -3.064510E+04
       325   3  2.159487E+05  7.092259E+05  2.027331E+05  1.574093E+05  1.131341E+04 -7.051757E+04
       325   4 -2.506529E+03 -2.227656E+05 -7.178362E+03  1.680225E+05  4.219455E+04 -4.938361E+02
       325   5 -5.181840E+03 -2.218591E+05 -8.509833E+03  1.575284E+05  3.659600E+04  3.832520E+03
       325   6 -1.383420E+04 -2.228346E+05 -1.412814E+04  1.679962E+05  1.112272E+04  8.102536E+03
       325   7 -1.582361E+05 -8.940104E+05 -1.141116E+05  1.694770E+05  4.222013E+04 -1.014007E+04
       325   8 -1.941329E+05 -1.019279E+06 -1.551038E+05  1.635415E+05  3.652026E+04  3.826703E+04
       325   9 -2.436748E+05 -1.154080E+06 -2.310247E+05  1.785674E+05  1.093457E+04  8.660552E+04
       325  10  1.531986E+05  4.489274E+05  9.974006E+04  1.665662E+05  2.908213E-09  2.523584E-10
       325  11  1.837321E+05  5.761805E+05  1.380582E+05  1.515085E+05  1.989636E-09  2.859865E-09
       325  12  2.159473E+05  7.092205E+05  2.027235E+05  1.574100E+05  2.247395E-10 -6.727628E-10
       325  13 -2.508441E+03 -2.227661E+05 -7.181708E+03  1.680225E+05  1.625796E-09  6.444658E-09
       325  14 -5.183282E+03 -2.218594E+05 -8.512377E+03  1.575283E+05  1.177837E-09 -5.580682E-09
       325  15 -1.383435E+04 -2.228347E+05 -1.412850E+04  1.679961E+05  7.565008E-10  4.786852E-09
       325  16 -1.582380E+05 -8.940109E+05 -1.141151E+05  1.694773E+05 -8.510918E-10  7.313059E-11
       325  17 -1.941347E+05 -1.019281E+06 -1.551091E+05  1.635404E+05 -1.033847E-09 -2.631372E-09
       325  18 -2.436769E+05 -1.154088E+06 -2.310391E+05  1.785667E+05 -2.224110E-10 -8.040823E-10
       325  19  1.532006E+05  4.489280E+05  9.974356E+04  1.665665E+05 -4.216893E+04 -9.162460E+03
       325  20  1.837338E+05  5.761818E+05  1.380625E+05  1.515076E+05 -3.667236E+04  3.064510E+04
       325  21  2.159487E+05  7.092259E+05  2.027331E+05  1.574093E+05 -1.131341E+04  7.051757E+04
       325  22 -2.506529E+03 -2.227656E+05 -7.178362E+03  1.680225E+05 -4.219455E+04  4.938361E+02
       325  23 -5.181840E+03 -2.218591E+05 -8.509833E+03  1.575284E+05 -3.659600E+04 -3.832520E+03
       325  24 -1.383420E+04 -2.228346E+05 -1.412814E+04  1.679962E+05 -1.112272E+04 -8.102536E+03
       325  25 -1.582361E+05 -8.940104E+05 -1.141116E+05  1.694770E+05 -4.222013E+04  1.014007E+04
       325  26 -1.941329E+05 -1.019279E+06 -1.551038E+05  1.635415E+05 -3.652026E+04 -3.826703E+04
       325  27 -2.436748E+05 -1.154080E+06 -2.310247E+05  1.785674E+05 -1.093457E+04 -8.660552E+04
       326   1  8.140158E+05  5.725225E+05  2.209851E+05  5.043635E+05  1.075769E+05  8.052747E+04
       326   2  7.426416E+05  4.225153E+05  1.072787E+05  5.720925E+05  7.102091E+04  5.199307E+04
       326   3  7.772240E+05  4.407797E+05  7.736912E+04  5.682274E+05  3.381892E+04  2.431431E+04
       326   4  7.617654E+05  5.039979E+05  1.969060E+05  4.643030E+05  1.073772E+05  8.037189E+04
       326   5  6.805248E+05  3.700573E+05  8.452712E+04  5.376736E+05  7.097918E+04  5.196074E+04
       326   6  7.052179E+05  4.043670E+05  5.581537E+04  5.394461E+05  3.393604E+04  2.440338E+04
       326   7  7.095183E+05  4.354797E+05  1.728264E+05  4.242474E+05  1.071776E+05  8.021635E+04
       326   8  6.184119E+05  3.176023E+05  6.177490E+04  5.032587E+05  7.093745E+04  5.192841E+04
       326   9  6.332174E+05  3.679553E+05  3.426106E+04  5.106679E+05  3.405314E+04  2.449245E+04
       326  10  8.140016E+05  5.725125E+05  2.209512E+05  5.043566E+05  3.387025E-10  2.103615E-09
       326  11  7.426355E+05  4.225110E+05  1.072642E+05  5.720895E+05  1.247784E-10  4.115634E-10
       326  12  7.772226E+05  4.407787E+05  7.736586E+04  5.682267E+05 -1.502911E-09 -6.954851E-09
       326  13  7.617513E+05  5.039879E+05  1.968723E+05  4.642961E+05  1.933216E-10  3.020749E-10
       326  14  6.805187E+05  3.700530E+05  8.451260E+04  5.376706E+05  9.762077E-10  1.009842E-09
       326  15  7.052166E+05  4.043660E+05  5.581209E+04  5.394454E+05 -9.113913E-10 -4.543147E-09
       326  16  7.095043E+05  4.354697E+05  1.727928E+05  4.242405E+05  3.890304E-10 -4.874655E-09
       326  17  6.184058E+05  3.175981E+05  6.176040E+04  5.032558E+05  1.818477E-09  1.709050E-09
       326  18  6.332160E+05  3.679544E+05  3.425776E+04  5.106672E+05  1.114154E-10  4.935367E-09
       326  19  8.140158E+05  5.725225E+05  2.209851E+05  5.043635E+05 -1.075769E+05 -8.052747E+04
       326  20  7.426416E+05  4.225153E+05  1.072787E+05  5.720925E+05 -7.102091E+04 -5.199307E+04
       326  21  7.772240E+05  4.407797E+05  7.736912E+04  5.682274E+05 -3.381892E+04 -2.431431E+04
       326  22  7.617654E+05  5.039979E+05  1.969060E+05  4.643030E+05 -1.073772E+05 -8.037189E+04
       326  23  6.805248E+05  3.700573E+05  8.452712E+04  5.376736E+05 -7.097918E+04 -5.196074E+04
       326  24  7.052179E+05  4.043670E+05  5.581537E+04  5.394461E+05 -3.393604E+04 -2.440338E+04
       326  25  7.095183E+05  4.354797E+05  1.728264E+05  4.242474E+05 -1.071776E+05 -8.021635E+04
       326  26  6.184119E+05  3.176023E+05  6.177490E+04  5.032587E+05 -7.093745E+04 -5.192841E+04
       326  27  6.332174E+05  3.679553E+05  3.426106E+04  5.106679E+05 -3.405314E+04 -2.449245E+04
       327   1  7.486999E+05  4.506782E+05  6.107803E+04  5.425908E+05  2.640515E+04  1.906285E+04
       327   2  7.385861E+05  4.233905E+05  3.711790E+04  5.504626E+05  1.655588E+04  1.166134E+04
       327   3  7.388660E+05  4.282498E+05  2.935670E+04  5.495175E+05  6.628440E+03  4.363921E+03
       327   4  7.086219E+05  4.174932E+05  4.651731E+04  5.206879E+05  2.639728E+04  1.905674E+04
       327   5  6.993363E+05  3.942244E+05  2.352318E+04  5.305298E+05  1.656758E+04  1.167014E+04
       327   6  7.004411E+05  4.030996E+05  1.671200E+04  5.315546E+05  6.659679E+03  4.387510E+03
       327   7  6.685456E+05  3.843096E+05  3.195638E+04  4.987868E+05  2.638941E+04  1.905062E+04
       327   8  6.600881E+05  3.650592E+05  9.928253E+03  5.105986E+05  1.657927E+04  1.167893E+04
       327   9  6.620178E+05  3.779499E+05  4.067104E+03  5.135929E+05  6.690915E+03  4.411097E+03
       327  10  7.486991E+05  4.506776E+05  6.107604E+04  5.425904E+05 -1.983219E-09 -2.028978E-09
       327  11  7.385858E+05  4.233903E+05  3.711713E+04  5.504624E+05 -6.993311E-10  5.499638E-09
       327  12  7.388659E+05  4.282498E+05  2.935658E+04  5.495175E+05  1.806442E-09  1.079851E-09
       327  13  7.086211E+05  4.174927E+05  4.651533E+04  5.206875E+05 -2.512916E-09  1.801133E-09
       327  14  6.993359E+05  3.942242E+05  2.352241E+04  5.305297E+05 -1.033430E-10  1.531199E-08
       327  15  7.004411E+05  4.030995E+05  1.671188E+04  5.315546E+05  1.808774E-09  7.082810E-09
       327  16  6.685448E+05  3.843090E+05  3.195439E+04  4.987864E+05 -8.973664E-10  1.715579E-09
       327  17  6.600877E+05  3.650590E+05  9.927481E+03  5.105984E+05 -7.461225E-10 -6.993059E-09
       327  18  6.620177E+05  3.779499E+05  4.066983E+03  5.135929E+05 -1.091453E-09  1.018039E-09
       327  19  7.486999E+05  4.506782E+05  6.107803E+04  5.425908E+05 -2.640515E+04 -1.906285E+04
       327  20  7.385861E+05  4.233905E+05  3.711790E+04  5.504626E+05 -1.655588E+04 -1.166134E+04
       327  21  7.388660E+05  4.282498E+05  2.935670E+04  5.495175E+05 -6.628440E+03 -4.363921E+03
       327  22  7.086219E+05  4.174932E+05  4.651731E+04  5.206879E+05 -2.639728E+04 -1.905674E+04
       327  23  6.993363E+05  3.942244E+05  2.352318E+04  5.305298E+05 -1.656758E+04 -1.167014E+04
       327  24  7.004411E+05  4.030996E+05  1.671200E+04  5.315546E+05 -6.659679E+03 -4.387510E+03
       327  25  6.685456E+05  3.843096E+05  3.195638E+04  4.987868E+05 -2.638941E+04 -1.905062E+04
       327  26  6.600881E+05  3.650592E+05  9.928253E+03  5.105986E+05 -1.657927E+04 -1.167893E+04
       327  27  6.620178E+05  3.779499E+05  4.067104E+03  5.135929E+05 -6.690915E+03 -4.411097E+03
       328   1  7.206730E+05  4.195914E+05  2.179037E+04  5.394085E+05  4.298267E+03  2.735962E+03
       328   2  7.193114E+05  4.102440E+05  1.845200E+04  5.386122E+05 -8.190064E+02 -9.774364E+02
       328   3  7.173785E+05  4.154143E+05  2.184899E+04  5.363045E+05 -5.935019E+03 -4.692499E+03
       328   4  7.010118E+05  4.044691E+05  1.488638E+04  5.291894E+05  4.315360E+03  2.748851E+03
       328   5  7.014369E+05  3.974553E+05  1.235787E+04  5.297597E+05 -8.020403E+02 -9.646350E+02
       328   6  7.012909E+05  4.049592E+05  1.656501E+04  5.288186E+05 -5.918188E+03 -4.679808E+03
       328   7  6.813510E+05  3.893470E+05  7.982327E+03  5.189706E+05  4.332451E+03  2.761739E+03
       328   8  6.835627E+05  3.846666E+05  6.263696E+03  5.209075E+05 -7.850749E+02 -9.518340E+02
       328   9  6.852036E+05  3.945043E+05  1.128100E+04  5.213330E+05 -5.901358E+03 -4.667118E+03
       328  10  7.206730E+05  4.195914E+05  2.179032E+04  5.394085E+05  7.022474E-10 -2.424320E-09
       328  11  7.193114E+05  4.102440E+05  1.845200E+04  5.386122E+05 -2.159399E-09 -8.383306E-09
       328  12  7.173785E+05  4.154143E+05  2.184888E+04  5.363045E+05 -1.776422E-09 -3.226988E-09
       328  13  7.010118E+05  4.044691E+05  1.488633E+04  5.291893E+05  1.769118E-09 -3.372381E-09
       328  14  7.014369E+05  3.974553E+05  1.235787E+04  5.297597E+05  6.982146E-10  1.546444E-08
       328  15  7.012909E+05  4.049592E+05  1.656490E+04  5.288186E+05  3.693495E-10  8.579881E-09
       328  16  6.813510E+05  3.893470E+05  7.982277E+03  5.189706E+05  1.195554E-09  6.858724E-10
       328  17  6.835627E+05  3.846666E+05  6.263693E+03  5.209075E+05  5.255162E-10 -3.721915E-09
       328  18  6.852036E+05  3.945042E+05  1.128089E+04  5.213329E+05  7.217931E-10 -1.177193E-09
       328  19  7.206730E+05  4.195914E+05  2.179037E+04  5.394085E+05 -4.298267E+03 -2.735962E+03
       328  20  7.193114E+05  4.102440E+05  1.845200E+04  5.386122E+05  8.190064E+02  9.774364E+02
       328  21  7.173785E+05  4.154143E+05  2.184899E+04  5.363045E+05  5.935019E+03  4.692499E+03
       328  22  7.010118E+05  4.044691E+05  1.488638E+04  5.291894E+05 -4.315360E+03 -2.748851E+03
       328  23  7.014369E+05  3.974553E+05  1.235787E+04  5.297597E+05  8.020403E+02  9.646350E+02
       328  24  7.012909E+05  4.049592E+05  1.656501E+04  5.288186E+05  5.918188E+03  4.679808E+03
       328  25  6.813510E+05  3.893470E+05  7.982327E+03  5.189706E+05 -4.332451E+03 -2.761739E+03
       328  26  6.835627E+05  3.846666E+05  6.263696E+03  5.209075E+05  7.850749E+02  9.518340E+02
       328  27  6.852036E+05  3.945043E+05  1.128100E+04  5.213330E+05  5.901358E+03  4.667118E+03
       329   1  6.996358E+05  4.047209E+05  1.928114E+04  5.324859E+05 -8.570260E+03 -6.577958E+03
       329   2  6.969928E+05  3.915898E+05  2.745926E+04  5.297486E+05 -2.037701E+04 -1.532742E+04
       329   3  7.100229E+05  4.143509E+05  5.512455E+04  5.153939E+05 -3.214638E+04 -2.412672E+04
       329   4  7.009472E+05  4.027643E+05  1.916219E+04  5.318168E+05 -8.547252E+03 -6.560556E+03
       329   5  6.981677E+05  3.937056E+05  2.811222E+04  5.309108E+05 -2.036303E+04 -1.531691E+04
       329   6  7.110630E+05  4.205409E+05  5.655717E+04  5.183875E+05 -3.214142E+04 -2.412324E+04
       329   7  7.022586E+05  4.008078E+05  1.904325E+04  5.311476E+05 -8.524243E+03 -6.543155E+03
       329   8  6.993426E+05  3.958214E+05  2.876517E+04  5.320730E+05 -2.034905E+04 -1.530639E+04
       329   9  7.121032E+05  4.267310E+05  5.798980E+04  5.213810E+05 -3.213646E+04 -2.411977E+04
       329  10  6.996357E+05  4.047208E+05  1.928092E+04  5.324858E+05 -1.491733E-09 -3.608388E-10
       329  11  6.969923E+05  3.915894E+05  2.745804E+04  5.297484E+05 -1.723518E-10  3.614119E-09
       329  12  7.100216E+05  4.143500E+05  5.512152E+04  5.153933E+05  2.410978E-09  7.198233E-10
       329  13  7.009471E+05  4.027643E+05  1.916198E+04  5.318167E+05  9.218348E-10 -3.641481E-09
       329  14  6.981672E+05  3.937052E+05  2.811100E+04  5.309106E+05 -1.791626E-09 -3.498766E-09
       329  15  7.110618E+05  4.205400E+05  5.655414E+04  5.183868E+05  1.741313E-10 -9.146357E-10
       329  16  7.022585E+05  4.008077E+05  1.904304E+04  5.311476E+05 -4.041449E-10 -3.579633E-09
       329  17  6.993421E+05  3.958210E+05  2.876395E+04  5.320728E+05 -3.377472E-09 -3.661367E-09
       329  18  7.121020E+05  4.267301E+05  5.798677E+04  5.213804E+05 -1.044970E-09 -1.383106E-08
       329  19  6.996358E+05  4.047209E+05  1.928114E+04  5.324859E+05  8.570260E+03  6.577958E+03
       329  20  6.969928E+05  3.915898E+05  2.745926E+04  5.297486E+05  2.037701E+04  1.532742E+04
       329  21  7.100229E+05  4.143509E+05  5.512455E+04  5.153939E+05  3.214638E+04  2.412672E+04
       329  22  7.009472E+05  4.027643E+05  1.916219E+04  5.318168E+05  8.547252E+03  6.560556E+03
       329  23  6.981677E+05  3.937056E+05  2.811222E+04  5.309108E+05  2.036303E+04  1.531691E+04
       329  24  7.110630E+05  4.205409E+05  5.655717E+04  5.183875E+05  3.214142E+04  2.412324E+04
       329  25  7.022586E+05  4.008078E+05  1.904325E+04  5.311476E+05  8.524243E+03  6.543155E+03
       329  26  6.993426E+05  3.958214E+05  2.876517E+04  5.320730E+05  2.034905E+04  1.530639E+04
       329  27  7.121032E+05  4.267310E+05  5.798980E+04  5.213810E+05  3.213646E+04  2.411977E+04
       330   1  6.770844E+05  4.008892E+05  6.140014E+04  5.347058E+05 -4.125772E+04 -3.082973E+04
       330   2  6.583162E+05  3.432921E+05  9.589926E+04  5.273604E+05 -8.636777E+04 -6.464609E+04
       330   3  7.745143E+05  4.862230E+05  2.327064E+05  4.307895E+05 -1.312217E+05 -9.879852E+04
       330   4  7.073357E+05  4.039953E+05  6.803735E+04  5.412523E+05 -4.120311E+04 -3.078736E+04
       330   5  6.745220E+05  3.646774E+05  1.033630E+05  5.398425E+05 -8.637551E+04 -6.465322E+04
       330   6  7.766818E+05  5.258947E+05  2.410478E+05  4.492090E+05 -1.312902E+05 -9.885782E+04
       330   7  7.375881E+05  4.071017E+05  7.467457E+04  5.477989E+05 -4.114850E+04 -3.074498E+04
       330   8  6.907280E+05  3.860633E+05  1.108267E+05  5.523250E+05 -8.638324E+04 -6.466034E+04
       330   9  7.788502E+05  5.655695E+05  2.493895E+05  4.676290E+05 -1.313586E+05 -9.891712E+04
       330  10  6.770823E+05  4.008877E+05  6.139517E+04  5.347047E+05  3.549548E-09 -4.252645E-11
       330  11  6.583071E+05  3.432856E+05  9.587742E+04  5.273559E+05  3.225324E-09 -6.335908E-09
       330  12  7.744932E+05  4.862079E+05  2.326557E+05  4.307790E+05  1.926971E-09  7.467822E-10
       330  13  7.073336E+05  4.039939E+05  6.803239E+04  5.412513E+05  5.419335E-09  4.126228E-09
       330  14  6.745129E+05  3.646709E+05  1.033412E+05  5.398380E+05  1.238061E-09 -6.878276E-09
       330  15  7.766607E+05  5.258796E+05  2.409972E+05  4.491986E+05 -6.291941E-10 -6.144228E-09
       330  16  7.375860E+05  4.071002E+05  7.466962E+04  5.477979E+05  1.718324E-09 -2.994519E-09
       330  17  6.907189E+05  3.860568E+05  1.108048E+05  5.523205E+05 -1.565816E-10 -1.239394E-08
       330  18  7.788291E+05  5.655544E+05  2.493388E+05  4.676185E+05  1.314416E-09  2.371109E-09
       330  19  6.770844E+05  4.008892E+05  6.140014E+04  5.347058E+05  4.125772E+04  3.082973E+04
       330  20  6.583162E+05  3.432921E+05  9.589926E+04  5.273604E+05  8.636777E+04  6.464609E+04
       330  21  7.745143E+05  4.862230E+05  2.327064E+05  4.307895E+05  1.312217E+05  9.879852E+04
       330  22  7.073357E+05  4.039953E+05  6.803735E+04  5.412523E+05  4.120311E+04  3.078736E+04
       330  23  6.745220E+05  3.646774E+05  1.033630E+05  5.398425E+05  8.637551E+04  6.465322E+04
       330  24  7.766818E+05  5.258947E+05  2.410478E+05  4.492090E+05  1.312902E+05  9.885782E+04
       330  25  7.375881E+05  4.071017E+05  7.467457E+04  5.477989E+05  4.114850E+04  3.074498E+04
       330  26  6.907280E+05  3.860633E+05  1.108267E+05  5.523250E+05  8.638324E+04  6.466034E+04
       330  27  7.788502E+05  5.655695E+05  2.493895E+05  4.676290E+05  1.313586E+05  9.891712E+04
       331   1  4.989438E+05  1.245068E+05  1.185117E+05  5.057784E+04  3.692547E+04 -6.695030E+03
       331   2  4.481901E+05  1.073619E+05  8.823684E+04  4.484007E+04  1.662226E+04 -2.239355E+04
       331   3  4.011191E+05  9.456145E+04  7.227831E+04  4.950101E+04 -3.711817E+03 -2.611442E+04
       331   4  1.358327E+03  1.610358E+03  1.510885E+03  4.863424E+04  9.465731E+02 -6.799589E+03
       331   5  1.253878E+03  5.098351E+02  8.223192E+02  4.343686E+04  5.717599E+02 -2.244259E+04
       331   6  1.372185E+03  2.965828E+02  6.176754E+02  4.863820E+04  1.639074E+02 -2.610403E+04
       331   7 -4.959966E+05 -1.213030E+05 -1.155021E+05  4.669204E+04 -3.500368E+04 -6.903967E+03
       331   8 -4.454903E+05 -1.063541E+05 -8.660082E+04  4.203455E+04 -1.546745E+04 -2.249157E+04
       331   9 -3.982189E+05 -9.397715E+04 -7.104904E+04  4.777585E+04  4.037208E+03 -2.609365E+04
       331  10  4.989423E+05  1.245063E+05  1.185091E+05  5.057803E+04  3.999965E-09 -1.830162E-10
       331  11  4.481897E+05  1.073613E+05  8.823538E+04  4.484037E+04  1.621337E-08 -3.962350E-09
       331  12  4.011189E+05  9.456071E+04  7.227700E+04  4.950093E+04  2.378155E-08 -4.518117E-09
       331  13  1.358314E+03  1.610308E+03  1.510796E+03  4.863424E+04  2.619017E-10  7.213091E-09
       331  14  1.253742E+03  5.092942E+02  8.213721E+02  4.343687E+04  1.500509E-10  5.589610E-09
       331  15  1.372002E+03  2.958510E+02  6.163949E+02  4.863821E+04  1.531448E-10  6.706072E-09
       331  16 -4.959979E+05 -1.213034E+05 -1.155045E+05  4.669185E+04 -4.349031E-09  2.426841E-09
       331  17 -4.454907E+05 -1.063548E+05 -8.660222E+04  4.203427E+04 -1.594733E-08 -1.050319E-08
       331  18 -3.982191E+05 -9.397789E+04 -7.105035E+04  4.777593E+04 -2.482343E-08 -7.169828E-09
       331  19  4.989438E+05  1.245068E+05  1.185117E+05  5.057784E+04 -3.692547E+04  6.695030E+03
       331  20  4.481901E+05  1.073619E+05  8.823684E+04  4.484007E+04 -1.662226E+04  2.239355E+04
       331  21  4.011191E+05  9.456145E+04  7.227831E+04  4.950101E+04  3.711817E+03  2.611442E+04
       331  22  1.358327E+03  1.610358E+03  1.510885E+03  4.863424E+04 -9.465731E+02  6.799589E+03
       331  23  1.253878E+03  5.098351E+02  8.223192E+02  4.343686E+04 -5.717599E+02  2.244259E+04
       331  24  1.372185E+03  2.965828E+02  6.176754E+02  4.863820E+04 -1.639074E+02  2.610403E+04
       331  25 -4.959966E+05 -1.213030E+05 -1.155021E+05  4.669204E+04  3.500368E+04  6.903967E+03
       331  26 -4.454903E+05 -1.063541E+05 -8.660082E+04  4.203455E+04  1.546745E+04  2.249157E+04
       331  27 -3.982189E+05 -9.397715E+04 -7.104904E+04  4.777585E+04 -4.037208E+03  2.609365E+04
       332   1  3.685762E+05  8.680875E+04  6.584189E+04  4.972398E+04 -2.393077E+03 -2.454036E+04
       332   2  3.196012E+05  7.492105E+04  5.586897E+04  4.402886E+04 -4.493269E+03 -2.254730E+04
       332   3  2.709370E+05  6.347794E+04  4.735568E+04  4.950905E+04 -6.597229E+03 -1.950491E+04
       332   4  1.328832E+03  3.244152E+02  6.028170E+02  4.881031E+04  6.014352E+01 -2.453402E+04
       332   5  1.330748E+03  2.433269E+02  7.046100E+02  4.322252E+04 -2.945755E+02 -2.253508E+04
       332   6  1.339053E+03  3.042576E+02  1.054628E+03  4.881040E+04 -6.531961E+02 -1.948654E+04
       332   7 -3.657869E+05 -8.616735E+04 -6.464128E+04  4.789709E+04  2.511956E+03 -2.452770E+04
       332   8 -3.168403E+05 -7.443985E+04 -5.446320E+04  4.241653E+04  3.902032E+03 -2.252287E+04
       332   9 -2.681874E+05 -6.287329E+04 -4.524875E+04  4.811201E+04  5.288337E+03 -1.946818E+04
       332  10  3.685760E+05  8.680810E+04  6.584075E+04  4.972393E+04 -3.828752E-08 -3.958088E-10
       332  11  3.196010E+05  7.492050E+04  5.586797E+04  4.402877E+04 -1.638408E-08 -1.048269E-08
       332  12  2.709368E+05  6.347752E+04  4.735489E+04  4.950895E+04  9.340783E-09 -1.184767E-09
       332  13  1.328670E+03  3.237688E+02  6.016859E+02  4.881031E+04  4.343081E-11  8.867130E-09
       332  14  1.330611E+03  2.427815E+02  7.036556E+02  4.322252E+04  2.708396E-10  8.191038E-09
       332  15  1.338950E+03  3.038497E+02  1.053913E+03  4.881039E+04 -5.069929E-10 -2.482134E-09
       332  16 -3.657870E+05 -8.616800E+04 -6.464242E+04  4.789714E+04  3.786840E-08  8.698558E-09
       332  17 -3.168405E+05 -7.444040E+04 -5.446418E+04  4.241661E+04  1.723843E-08 -4.951877E-09
       332  18 -2.681875E+05 -6.287371E+04 -4.524952E+04  4.811209E+04 -1.012896E-08  1.642192E-09
       332  19  3.685762E+05  8.680875E+04  6.584189E+04  4.972398E+04  2.393077E+03  2.454036E+04
       332  20  3.196012E+05  7.492105E+04  5.586897E+04  4.402886E+04  4.493269E+03  2.254730E+04
       332  21  2.709370E+05  6.347794E+04  4.735568E+04  4.950905E+04  6.597229E+03  1.950491E+04
       332  22  1.328832E+03  3.244152E+02  6.028170E+02  4.881031E+04 -6.014352E+01  2.453402E+04
       332  23  1.330748E+03  2.433269E+02  7.046100E+02  4.322252E+04  2.945755E+02  2.253508E+04
       332  24  1.339053E+03  3.042576E+02  1.054628E+03  4.881040E+04  6.531961E+02  1.948654E+04
       332  25 -3.657869E+05 -8.616735E+04 -6.464128E+04  4.789709E+04 -2.511956E+03  2.452770E+04
       332  26 -3.168403E+05 -7.443985E+04 -5.446320E+04  4.241653E+04 -3.902032E+03  2.252287E+04
       332  27 -2.681874E+05 -6.287329E+04 -4.524875E+04  4.811201E+04 -5.288337E+03  1.946818E+04
       333   1  2.390311E+05  5.593115E+04  4.192562E+04  4.954253E+04 -6.689482E+03 -1.740578E+04
       333   2  1.901025E+05  4.459070E+04  3.448404E+04  4.358135E+04 -7.966324E+03 -1.386956E+04
       333   3  1.414184E+05  3.390174E+04  2.801238E+04  4.886017E+04 -9.243833E+03 -1.025255E+04
       333   4  1.389407E+03  2.890820E+02  1.338576E+03  4.882515E+04 -8.689890E+02 -1.738748E+04
       333   5  1.283039E+03  3.868386E+02  2.267695E+03  4.320373E+04 -2.011398E+03 -1.385043E+04
       333   6  1.395519E+03  1.112936E+03  4.073432E+03  4.882249E+04 -3.154565E+03 -1.023257E+04
       333   7 -2.361967E+05 -5.535598E+04 -3.925022E+04  4.810800E+04  4.949348E+03 -1.736920E+04
       333   8 -1.875013E+05 -4.381890E+04 -2.994970E+04  4.282620E+04  3.941776E+03 -1.383130E+04
       333   9 -1.386080E+05 -3.167690E+04 -1.986603E+04  4.878481E+04  2.933373E+03 -1.021259E+04
       333  10  2.390310E+05  5.593082E+04  4.192497E+04  4.954244E+04  4.925127E-09 -6.140790E-09
       333  11  1.901024E+05  4.459047E+04  3.448356E+04  4.358126E+04  1.539372E-08  1.261229E-09
       333  12  1.414183E+05  3.390161E+04  2.801203E+04  4.886009E+04  2.262395E-08  1.163798E-09
       333  13  1.389326E+03  2.887571E+02  1.338007E+03  4.882513E+04 -5.240506E-10 -1.528164E-08
       333  14  1.282983E+03  3.866315E+02  2.267327E+03  4.320370E+04  2.699950E-10  9.705805E-09
       333  15  1.395480E+03  1.112821E+03  4.073216E+03  4.882247E+04 -3.336000E-10  8.716269E-09
       333  16 -2.361968E+05 -5.535631E+04 -3.925083E+04  4.810807E+04 -5.113385E-09 -8.564313E-09
       333  17 -1.875013E+05 -4.381911E+04 -2.995009E+04  4.282624E+04 -1.436487E-08 -1.329776E-08
       333  18 -1.386080E+05 -3.167701E+04 -1.986625E+04  4.878483E+04 -2.350819E-08 -1.871902E-10
       333  19  2.390311E+05  5.593115E+04  4.192562E+04  4.954253E+04  6.689482E+03  1.740578E+04
       333  20  1.901025E+05  4.459070E+04  3.448404E+04  4.358135E+04  7.966324E+03  1.386956E+04
       333  21  1.414184E+05  3.390174E+04  2.801238E+04  4.886017E+04  9.243833E+03  1.025255E+04
       333  22  1.389407E+03  2.890820E+02  1.338576E+03  4.882515E+04  8.689890E+02  1.738748E+04
       333  23  1.283039E+03  3.868386E+02  2.267695E+03  4.320373E+04  2.011398E+03  1.385043E+04
       333  24  1.395519E+03  1.112936E+03  4.073432E+03  4.882249E+04  3.154565E+03  1.023257E+04
       333  25 -2.361967E+05 -5.535598E+04 -3.925022E+04  4.810800E+04 -4.949348E+03  1.736920E+04
       333  26 -1.875013E+05 -4.381890E+04 -2.994970E+04  4.282620E+04 -3.941776E+03  1.383130E+04
       333  27 -1.386080E+05 -3.167690E+04 -1.986603E+04  4.878481E+04 -2.933373E+03  1.021259E+04
       334   1  1.101738E+05  2.610007E+04  2.361196E+04  5.018970E+04 -9.951306E+03 -8.114547E+03
       334   2  5.980281E+04  1.798052E+04  1.964838E+04  3.831632E+04 -1.475575E+04 -4.525786E+03
       334   3  1.264722E+04  2.057426E+04  2.146561E+04  3.765768E+04 -1.955956E+04 -1.056859E+03
       334   4  2.069853E+03  8.151262E+02  5.332574E+03  4.882508E+04 -3.857941E+03 -8.094369E+03
       334   5  4.476458E+02  4.152409E+03  9.663339E+03  4.318929E+04 -8.861729E+03 -4.506281E+03
       334   6  2.071951E+03  1.823771E+04  1.991303E+04  4.876774E+04 -1.386522E+04 -1.038127E+03
       334   7 -1.060225E+05 -2.447041E+04 -1.294705E+04  4.746071E+04  2.234398E+03 -8.074216E+03
       334   8 -5.890392E+04 -9.675780E+03 -3.216666E+02  4.806178E+04 -2.968256E+03 -4.486683E+03
       334   9 -8.502870E+03  1.590164E+04  1.836064E+04  5.987759E+04 -8.170964E+03 -1.019190E+03
       334  10  1.101737E+05  2.609997E+04  2.361165E+04  5.018964E+04 -2.086815E-08 -1.926340E-09
       334  11  5.980257E+04  1.798044E+04  1.964793E+04  3.831627E+04 -1.025532E-08 -5.134686E-09
       334  12  1.264681E+04  2.057416E+04  2.146489E+04  3.765767E+04  3.168952E-09  7.256823E-09
       334  13  2.069820E+03  8.150518E+02  5.332423E+03  4.882506E+04  4.192071E-11  1.215900E-08
       334  14  4.475560E+02  4.152367E+03  9.663153E+03  4.318926E+04  5.411207E-10  1.363290E-09
       334  15  2.071744E+03  1.823766E+04  1.991267E+04  4.876772E+04 -4.253404E-10  6.629624E-09
       334  16 -1.060225E+05 -2.447048E+04 -1.294718E+04  4.746072E+04  2.116346E-08  1.682413E-09
       334  17 -5.890393E+04 -9.675804E+03 -3.217210E+02  4.806177E+04  1.066899E-08  3.716174E-09
       334  18 -8.502942E+03  1.590162E+04  1.836051E+04  5.987758E+04 -4.367731E-09  3.311513E-09
       334  19  1.101738E+05  2.610007E+04  2.361196E+04  5.018970E+04  9.951306E+03  8.114547E+03
       334  20  5.980281E+04  1.798052E+04  1.964838E+04  3.831632E+04  1.475575E+04  4.525786E+03
       334  21  1.264722E+04  2.057426E+04  2.146561E+04  3.765768E+04  1.955956E+04  1.056859E+03
       334  22  2.069853E+03  8.151262E+02  5.332574E+03  4.882508E+04  3.857941E+03  8.094369E+03
       334  23  4.476458E+02  4.152409E+03  9.663339E+03  4.318929E+04  8.861729E+03  4.506281E+03
       334  24  2.071951E+03  1.823771E+04  1.991303E+04  4.876774E+04  1.386522E+04  1.038127E+03
       334  25 -1.060225E+05 -2.447041E+04 -1.294705E+04  4.746071E+04 -2.234398E+03  8.074216E+03
       334  26 -5.890392E+04 -9.675780E+03 -3.216666E+02  4.806178E+04  2.968256E+03  4.486683E+03
       334  27 -8.502870E+03  1.590164E+04  1.836064E+04  5.987759E+04  8.170964E+03  1.019190E+03
       335   1 -1.997753E+05 -8.572846E+05 -1.976928E+05  2.068373E+05 -6.583530E+03 -6.433902E+04
       335   2 -1.185797E+05 -6.678697E+05 -1.152351E+05  1.718868E+05 -1.929792E+04 -2.623307E+04
       335   3 -6.663982E+04 -4.904030E+05 -6.488895E+04  1.788097E+05 -1.568019E+04  1.193066E+04
       335   4 -4.114692E+04 -2.180976E+05 -4.491841E+04  1.807487E+05 -6.663861E+03 -3.048515E+04
       335   5 -9.192227E+03 -2.143937E+05 -2.234768E+04  1.598593E+05 -1.931371E+04 -1.897620E+04
       335   6 -1.858143E+03 -2.180394E+05 -1.339223E+04  1.808460E+05 -1.563520E+04 -7.421681E+03
       335   7  1.174550E+05  4.214681E+05  1.078318E+05  1.546334E+05 -6.747002E+03  3.403465E+03
       335   8  1.001828E+05  2.392781E+05  7.052904E+04  1.478231E+05 -1.932978E+04 -1.171411E+04
       335   9  6.291942E+04  5.439668E+04  3.810261E+04  1.828832E+05 -1.559034E+04 -2.678231E+04
       335  10 -1.997765E+05 -8.572891E+05 -1.977007E+05  2.068369E+05  1.791207E-09  3.664061E-09
       335  11 -1.185802E+05 -6.678705E+05 -1.152371E+05  1.718863E+05  3.037485E-09 -3.499093E-09
       335  12 -6.664012E+04 -4.904032E+05 -6.488968E+04  1.788099E+05  4.561840E-10 -6.327377E-09
       335  13 -4.114722E+04 -2.180987E+05 -4.492024E+04  1.807486E+05  1.878157E-09  2.246823E-11
       335  14 -9.192724E+03 -2.143942E+05 -2.234906E+04  1.598590E+05  3.204656E-09 -5.040347E-09
       335  15 -1.858420E+03 -2.180395E+05 -1.339279E+04  1.808459E+05  1.402558E-09  3.428635E-09
       335  16  1.174549E+05  4.214681E+05  1.078317E+05  1.546334E+05  1.211915E-09 -2.839009E-09
       335  17  1.001824E+05  2.392779E+05  7.052808E+04  1.478229E+05  4.676581E-09 -2.677789E-09
       335  18  6.291897E+04  5.439585E+04  3.810081E+04  1.828829E+05  1.436396E-09 -9.049633E-10
       335  19 -1.997753E+05 -8.572846E+05 -1.976928E+05  2.068373E+05  6.583530E+03  6.433902E+04
       335  20 -1.185797E+05 -6.678697E+05 -1.152351E+05  1.718868E+05  1.929792E+04  2.623307E+04
       335  21 -6.663982E+04 -4.904030E+05 -6.488895E+04  1.788097E+05  1.568019E+04 -1.193066E+04
       335  22 -4.114692E+04 -2.180976E+05 -4.491841E+04  1.807487E+05  6.663861E+03  3.048515E+04
       335  23 -9.192227E+03 -2.143937E+05 -2.234768E+04  1.598593E+05  1.931371E+04  1.897620E+04
       335  24 -1.858143E+03 -2.180394E+05 -1.339223E+04  1.808460E+05  1.563520E+04  7.421681E+03
       335  25  1.174550E+05  4.214681E+05  1.078318E+05  1.546334E+05  6.747002E+03 -3.403465E+03
       335  26  1.001828E+05  2.392781E+05  7.052904E+04  1.478231E+05  1.932978E+04  1.171411E+04
       335  27  6.291942E+04  5.439668E+04  3.810261E+04  1.828832E+05  1.559034E+04  2.678231E+04
       336   1 -3.861131E+04 -3.676897E+05 -3.998000E+04  1.822304E+05 -8.412706E+03  1.190509E+04
       336   2  6.411394E+03 -1.838296E+05 -2.922897E+03  1.595997E+05  2.219321E+03  1.601765E+04
       336   3  4.910588E+04 -7.674501E+02  3.094521E+04  1.798453E+05  1.272133E+04  2.013129E+04
       336   4 -2.598142E+03 -2.165894E+05 -1.109452E+04  1.810536E+05 -8.372945E+03 -5.549997E+03
       336   5 -1.193312E+03 -2.161578E+05 -8.611794E+03  1.596157E+05  2.258867E+03 -1.227339E+03
       336   6 -2.151547E+03 -2.165932E+05 -9.463749E+03  1.810546E+05  1.276060E+04  3.095254E+03
       336   7  3.341384E+04 -6.546643E+04  1.779107E+04  1.798764E+05 -8.333122E+03 -2.300923E+04
       336   8 -8.797916E+03 -2.484842E+05 -1.429961E+04  1.596317E+05  2.298412E+03 -1.847146E+04
       336   9 -5.341151E+04 -4.323732E+05 -4.987362E+04  1.822635E+05  1.279981E+04 -1.393501E+04
       336  10 -3.861142E+04 -3.676898E+05 -3.998040E+04  1.822305E+05 -8.841604E-10  5.952059E-09
       336  11  6.411320E+03 -1.838299E+05 -2.923388E+03  1.595997E+05  4.315362E-10 -1.608500E-08
       336  12  4.910560E+04 -7.679286E+02  3.094414E+04  1.798451E+05 -3.178346E-09 -3.105589E-08
       336  13 -2.598225E+03 -2.165894E+05 -1.109471E+04  1.810535E+05  9.264258E-10  3.225433E-09
       336  14 -1.193318E+03 -2.161578E+05 -8.611807E+03  1.596157E+05  4.771696E-09 -8.157874E-09
       336  15 -2.151724E+03 -2.165932E+05 -9.464073E+03  1.810546E+05  4.995780E-09 -4.079872E-10
       336  16  3.341363E+04 -6.546701E+04  1.778994E+04  1.798763E+05 -2.649370E-11  5.556814E-10
       336  17 -8.798013E+03 -2.484846E+05 -1.430026E+04  1.596317E+05 -2.581833E-09  1.155612E-08
       336  18 -5.341174E+04 -4.323734E+05 -4.987429E+04  1.822636E+05 -3.861980E-09  2.548613E-08
       336  19 -3.861131E+04 -3.676897E+05 -3.998000E+04  1.822304E+05  8.412706E+03 -1.190509E+04
       336  20  6.411394E+03 -1.838296E+05 -2.922897E+03  1.595997E+05 -2.219321E+03 -1.601765E+04
       336  21  4.910588E+04 -7.674501E+02  3.094521E+04  1.798453E+05 -1.272133E+04 -2.013129E+04
       336  22 -2.598142E+03 -2.165894E+05 -1.109452E+04  1.810536E+05  8.372945E+03  5.549997E+03
       336  23 -1.193312E+03 -2.161578E+05 -8.611794E+03  1.596157E+05 -2.258867E+03  1.227339E+03
       336  24 -2.151547E+03 -2.165932E+05 -9.463749E+03  1.810546E+05 -1.276060E+04 -3.095254E+03
       336  25  3.341384E+04 -6.546643E+04  1.779107E+04  1.798764E+05  8.333122E+03  2.300923E+04
       336  26 -8.797916E+03 -2.484842E+05 -1.429961E+04  1.596317E+05 -2.298412E+03  1.847146E+04
       336  27 -5.341151E+04 -4.323732E+05 -4.987362E+04  1.822635E+05 -1.279981E+04  1.393501E+04
       337   1  7.842255E+04  1.195905E+05  5.225531E+04  1.820253E+05  1.991839E+04  2.382079E+04
       337   2  1.177182E+05  3.033187E+05  8.835638E+04  1.505484E+05  2.277375E+04  3.491507E+03
       337   3  1.437145E+05  4.867208E+05  1.344307E+05  1.608476E+05  7.776102E+03 -1.689382E+04
       337   4 -1.632490E+03 -2.176166E+05 -1.084239E+04  1.808219E+05  1.996351E+04  4.673869E+03
       337   5 -7.054881E+03 -2.149411E+05 -1.702254E+04  1.598949E+05  2.275109E+04  1.346882E+04
       337   6 -3.083753E+04 -2.176813E+05 -3.345559E+04  1.807489E+05  7.678155E+03  2.221318E+04
       337   7 -8.169390E+04 -5.547129E+05 -7.394361E+04  1.796192E+05  2.000871E+04 -1.446291E+04
       337   8 -1.318444E+05 -7.329450E+05 -1.224151E+05  1.692336E+05  2.272872E+04  2.343796E+04
       337   9 -2.054232E+05 -9.216244E+05 -2.013707E+05  2.006278E+05  7.582662E+03  6.127603E+04
       337  10  7.842198E+04  1.195898E+05  5.225350E+04  1.820250E+05 -4.321308E-09  3.378312E-08
       337  11  1.177177E+05  3.033185E+05  8.835538E+04  1.505483E+05  4.445640E-10  1.625081E-08
       337  12  1.437144E+05  4.867205E+05  1.344300E+05  1.608477E+05  4.113267E-10 -9.181712E-10
       337  13 -1.632924E+03 -2.176167E+05 -1.084318E+04  1.808218E+05  5.076564E-09 -2.454982E-11
       337  14 -7.055485E+03 -2.149414E+05 -1.702385E+04  1.598947E+05  2.949442E-09 -1.854340E-09
       337  15 -3.083772E+04 -2.176818E+05 -3.345663E+04  1.807488E+05  1.336307E-09  2.067687E-09
       337  16 -8.169439E+04 -5.547132E+05 -7.394476E+04  1.796194E+05 -5.591031E-09 -3.006325E-08
       337  17 -1.318451E+05 -7.329457E+05 -1.224171E+05  1.692332E+05 -3.014882E-09 -2.152746E-08
       337  18 -2.054242E+05 -9.216284E+05 -2.013779E+05  2.006274E+05 -5.032804E-10 -4.664681E-09
       337  19  7.842255E+04  1.195905E+05  5.225531E+04  1.820253E+05 -1.991839E+04 -2.382079E+04
       337  20  1.177182E+05  3.033187E+05  8.835638E+04  1.505484E+05 -2.277375E+04 -3.491507E+03
       337  21  1.437145E+05  4.867208E+05  1.344307E+05  1.608476E+05 -7.776102E+03  1.689382E+04
       337  22 -1.632490E+03 -2.176166E+05 -1.084239E+04  1.808219E+05 -1.996351E+04 -4.673869E+03
       337  23 -7.054881E+03 -2.149411E+05 -1.702254E+04  1.598949E+05 -2.275109E+04 -1.346882E+04
       337  24 -3.083753E+04 -2.176813E+05 -3.345559E+04  1.807489E+05 -7.678155E+03 -2.221318E+04
       337  25 -8.169390E+04 -5.547129E+05 -7.394361E+04  1.796192E+05 -2.000871E+04  1.446291E+04
       337  26 -1.318444E+05 -7.329450E+05 -1.224151E+05  1.692336E+05 -2.272872E+04 -2.343796E+04
       337  27 -2.054232E+05 -9.216244E+05 -2.013707E+05  2.006278E+05 -7.582662E+03 -6.127603E+04
       338   1  3.883490E+05  2.684169E+05  1.169557E+05  2.319292E+05  6.467802E+04  4.881944E+04
       338   2  3.402405E+05  1.860807E+05  4.893706E+04  2.762041E+05  4.243031E+04  3.208290E+04
       338   3  3.639000E+05  1.997131E+05  3.185870E+04  2.746113E+05  2.021663E+04  1.530078E+04
       338   4  4.004404E+05  2.665394E+05  1.189960E+05  2.331223E+05  6.468443E+04  4.882323E+04
       338   5  3.475504E+05  1.886612E+05  5.091028E+04  2.786160E+05  4.243142E+04  3.208357E+04
       338   6  3.664288E+05  2.067518E+05  3.376859E+04  2.782422E+05  2.021273E+04  1.529800E+04
       338   7  4.125321E+05  2.646619E+05  1.210363E+05  2.343155E+05  6.469084E+04  4.882702E+04
       338   8  3.548604E+05  1.912418E+05  5.288349E+04  2.810280E+05  4.243254E+04  3.208424E+04
       338   9  3.689576E+05  2.137906E+05  3.567848E+04  2.818732E+05  2.020883E+04  1.529522E+04
       338  10  3.883438E+05  2.684132E+05  1.169434E+05  2.319266E+05  1.001344E-09 -8.442991E-09
       338  11  3.402383E+05  1.860791E+05  4.893174E+04  2.762030E+05  7.646173E-10 -1.694490E-08
       338  12  3.638995E+05  1.997128E+05  3.185750E+04  2.746111E+05  9.038309E-10 -4.225729E-09
       338  13  4.004353E+05  2.665357E+05  1.189837E+05  2.331198E+05 -5.095217E-10 -6.791550E-09
       338  14  3.475482E+05  1.886596E+05  5.090496E+04  2.786149E+05  8.920321E-10 -7.347628E-09
       338  15  3.664283E+05  2.067515E+05  3.376738E+04  2.782420E+05  1.586031E-09 -2.668630E-09
       338  16  4.125270E+05  2.646583E+05  1.210240E+05  2.343129E+05  9.985248E-10  6.450973E-09
       338  17  3.548582E+05  1.912402E+05  5.287818E+04  2.810269E+05  3.737955E-09  1.059588E-08
       338  18  3.689571E+05  2.137902E+05  3.567727E+04  2.818729E+05  1.057975E-09 -5.688575E-09
       338  19  3.883490E+05  2.684169E+05  1.169557E+05  2.319292E+05 -6.467802E+04 -4.881944E+04
       338  20  3.402405E+05  1.860807E+05  4.893706E+04  2.762041E+05 -4.243031E+04 -3.208290E+04
       338  21  3.639000E+05  1.997131E+05  3.185870E+04  2.746113E+05 -2.021663E+04 -1.530078E+04
       338  22  4.004404E+05  2.665394E+05  1.189960E+05  2.331223E+05 -6.468443E+04 -4.882323E+04
       338  23  3.475504E+05  1.886612E+05  5.091028E+04  2.786160E+05 -4.243142E+04 -3.208357E+04
       338  24  3.664288E+05  2.067518E+05  3.376859E+04  2.782422E+05 -2.021273E+04 -1.529800E+04
       338  25  4.125321E+05  2.646619E+05  1.210363E+05  2.343155E+05 -6.469084E+04 -4.882702E+04
       338  26  3.548604E+05  1.912418E+05  5.288349E+04  2.810280E+05 -4.243254E+04 -3.208424E+04
       338  27  3.689576E+05  2.137906E+05  3.567848E+04  2.818732E+05 -2.020883E+04 -1.529522E+04
       339   1  3.649553E+05  2.143719E+05  2.735045E+04  2.659805E+05  1.573257E+04  1.189788E+04
       339   2  3.571553E+05  2.018860E+05  1.326888E+04  2.728727E+05  9.863727E+03  7.466055E+03
       339   3  3.615482E+05  2.041611E+05  9.171931E+03  2.725171E+05  3.999401E+03  3.028124E+03
       339   4  3.682259E+05  2.151362E+05  2.815545E+04  2.668820E+05  1.573262E+04  1.189788E+04
       339   5  3.595691E+05  2.032534E+05  1.402342E+04  2.739036E+05  9.863122E+03  7.465594E+03
       339   6  3.631052E+05  2.061317E+05  9.876519E+03  2.736774E+05  3.998154E+03  3.027189E+03
       339   7  3.714966E+05  2.159005E+05  2.896045E+04  2.677835E+05  1.573267E+04  1.189788E+04
       339   8  3.619829E+05  2.046208E+05  1.477795E+04  2.749344E+05  9.862518E+03  7.465133E+03
       339   9  3.646623E+05  2.081023E+05  1.058111E+04  2.748376E+05  3.996907E+03  3.026253E+03
       339  10  3.649550E+05  2.143717E+05  2.734972E+04  2.659803E+05 -1.392030E-09  4.283157E-09
       339  11  3.571552E+05  2.018859E+05  1.326859E+04  2.728726E+05 -1.236767E-09 -1.824384E-10
       339  12  3.615481E+05  2.041611E+05  9.171884E+03  2.725171E+05  5.796283E-10 -7.295440E-09
       339  13  3.682256E+05  2.151360E+05  2.815472E+04  2.668819E+05 -6.112068E-10 -7.532786E-11
       339  14  3.595690E+05  2.032533E+05  1.402313E+04  2.739035E+05 -2.006520E-09 -8.366083E-09
       339  15  3.631052E+05  2.061316E+05  9.876472E+03  2.736774E+05  2.261157E-09 -1.358635E-10
       339  16  3.714963E+05  2.159002E+05  2.895972E+04  2.677834E+05 -8.322194E-10 -8.576026E-09
       339  17  3.619828E+05  2.046207E+05  1.477766E+04  2.749344E+05 -2.830780E-09  1.302965E-08
       339  18  3.646623E+05  2.081022E+05  1.058106E+04  2.748376E+05  1.469504E-09  2.053045E-09
       339  19  3.649553E+05  2.143719E+05  2.735045E+04  2.659805E+05 -1.573257E+04 -1.189788E+04
       339  20  3.571553E+05  2.018860E+05  1.326888E+04  2.728727E+05 -9.863727E+03 -7.466055E+03
       339  21  3.615482E+05  2.041611E+05  9.171931E+03  2.725171E+05 -3.999401E+03 -3.028124E+03
       339  22  3.682259E+05  2.151362E+05  2.815545E+04  2.668820E+05 -1.573262E+04 -1.189788E+04
       339  23  3.595691E+05  2.032534E+05  1.402342E+04  2.739036E+05 -9.863122E+03 -7.465594E+03
       339  24  3.631052E+05  2.061317E+05  9.876519E+03  2.736774E+05 -3.998154E+03 -3.027189E+03
       339  25  3.714966E+05  2.159005E+05  2.896045E+04  2.677835E+05 -1.573267E+04 -1.189788E+04
       339  26  3.619829E+05  2.046208E+05  1.477795E+04  2.749344E+05 -9.862518E+03 -7.465133E+03
       339  27  3.646623E+05  2.081023E+05  1.058111E+04  2.748376E+05 -3.996907E+03 -3.026253E+03
       340   1  3.638832E+05  2.079703E+05  8.984491E+03  2.726422E+05  2.656593E+03  2.005707E+03
       340   2  3.620838E+05  2.058235E+05  7.222947E+03  2.737690E+05 -1.670898E+02 -1.363595E+02
       340   3  3.646438E+05  2.078428E+05  9.380267E+03  2.725913E+05 -2.990544E+03 -2.278658E+03
       340   4  3.633107E+05  2.071990E+05  8.715748E+03  2.721944E+05  2.655811E+03  2.005116E+03
       340   5  3.611575E+05  2.051625E+05  6.906176E+03  2.733114E+05 -1.678940E+02 -1.369661E+02
       340   6  3.633637E+05  2.072922E+05  9.015495E+03  2.721240E+05 -2.991369E+03 -2.279283E+03
       340   7  3.627382E+05  2.064276E+05  8.447005E+03  2.717465E+05  2.655029E+03  2.004525E+03
       340   8  3.602312E+05  2.045016E+05  6.589406E+03  2.728538E+05 -1.686982E+02 -1.375726E+02
       340   9  3.620837E+05  2.067417E+05  8.650722E+03  2.716567E+05 -2.992195E+03 -2.279907E+03
       340  10  3.638832E+05  2.079703E+05  8.984470E+03  2.726422E+05  2.061268E-09 -7.245303E-09
       340  11  3.620838E+05  2.058235E+05  7.222947E+03  2.737690E+05  2.923181E-09 -9.910067E-11
       340  12  3.646438E+05  2.078428E+05  9.380241E+03  2.725913E+05  2.346152E-09 -1.746220E-09
       340  13  3.633107E+05  2.071990E+05  8.715727E+03  2.721944E+05  5.048425E-09  3.597295E-09
       340  14  3.611575E+05  2.051625E+05  6.906176E+03  2.733114E+05  3.408220E-09  1.116281E-08
       340  15  3.633637E+05  2.072922E+05  9.015468E+03  2.721240E+05  2.739738E-09 -3.828646E-10
       340  16  3.627382E+05  2.064276E+05  8.446984E+03  2.717465E+05  4.619925E-09  7.951663E-10
       340  17  3.602312E+05  2.045016E+05  6.589406E+03  2.728538E+05  3.134278E-09 -1.073182E-08
       340  18  3.620837E+05  2.067417E+05  8.650696E+03  2.716567E+05  2.206052E-09 -2.953329E-09
       340  19  3.638832E+05  2.079703E+05  8.984491E+03  2.726422E+05 -2.656593E+03 -2.005707E+03
       340  20  3.620838E+05  2.058235E+05  7.222947E+03  2.737690E+05  1.670898E+02  1.363595E+02
       340  21  3.646438E+05  2.078428E+05  9.380267E+03  2.725913E+05  2.990544E+03  2.278658E+03
       340  22  3.633107E+05  2.071990E+05  8.715748E+03  2.721944E+05 -2.655811E+03 -2.005116E+03
       340  23  3.611575E+05  2.051625E+05  6.906176E+03  2.733114E+05  1.678940E+02  1.369661E+02
       340  24  3.633637E+05  2.072922E+05  9.015495E+03  2.721240E+05  2.991369E+03  2.279283E+03
       340  25  3.627382E+05  2.064276E+05  8.447005E+03  2.717465E+05 -2.655029E+03 -2.004525E+03
       340  26  3.602312E+05  2.045016E+05  6.589406E+03  2.728538E+05  1.686982E+02  1.375726E+02
       340  27  3.620837E+05  2.067417E+05  8.650722E+03  2.716567E+05  2.992195E+03  2.279907E+03
       341   1  3.666836E+05  2.095377E+05  1.169973E+04  2.758929E+05 -4.385200E+03 -3.341230E+03
       341   2  3.638373E+05  2.059031E+05  1.627808E+04  2.759885E+05 -1.059114E+04 -8.038138E+03
       341   3  3.740026E+05  2.178978E+05  3.144614E+04  2.683642E+05 -1.680276E+04 -1.272758E+04
       341   4  3.631635E+05  2.061077E+05  1.031211E+04  2.737362E+05 -4.386578E+03 -3.342264E+03
       341   5  3.593952E+05  2.031061E+05  1.483348E+04  2.739637E+05 -1.059172E+04 -8.038576E+03
       341   6  3.686384E+05  2.157338E+05  2.994394E+04  2.664713E+05 -1.680251E+04 -1.272743E+04
       341   7  3.596434E+05  2.026776E+05  8.924482E+03  2.715796E+05 -4.387957E+03 -3.343297E+03
       341   8  3.549531E+05  2.003091E+05  1.338887E+04  2.719389E+05 -1.059229E+04 -8.039014E+03
       341   9  3.632742E+05  2.135697E+05  2.844173E+04  2.645783E+05 -1.680225E+04 -1.272728E+04
       341  10  3.666835E+05  2.095377E+05  1.169967E+04  2.758929E+05  8.743699E-10 -6.335605E-09
       341  11  3.638372E+05  2.059030E+05  1.627775E+04  2.759884E+05 -1.412878E-09 -8.871411E-09
       341  12  3.740022E+05  2.178976E+05  3.144531E+04  2.683641E+05 -1.854431E-09 -5.881813E-09
       341  13  3.631634E+05  2.061076E+05  1.031205E+04  2.737362E+05  1.673232E-09  8.796746E-10
       341  14  3.593951E+05  2.031060E+05  1.483314E+04  2.739636E+05 -4.376811E-10  6.458563E-10
       341  15  3.686380E+05  2.157335E+05  2.994311E+04  2.664711E+05 -3.067892E-09 -3.281371E-09
       341  16  3.596434E+05  2.026776E+05  8.924425E+03  2.715795E+05  1.286190E-09  5.282909E-09
       341  17  3.549530E+05  2.003090E+05  1.338854E+04  2.719389E+05 -1.093637E-09  1.337029E-08
       341  18  3.632739E+05  2.135695E+05  2.844090E+04  2.645781E+05 -1.549320E-09  7.987615E-09
       341  19  3.666836E+05  2.095377E+05  1.169973E+04  2.758929E+05  4.385200E+03  3.341230E+03
       341  20  3.638373E+05  2.059031E+05  1.627808E+04  2.759885E+05  1.059114E+04  8.038138E+03
       341  21  3.740026E+05  2.178978E+05  3.144614E+04  2.683642E+05  1.680276E+04  1.272758E+04
       341  22  3.631635E+05  2.061077E+05  1.031211E+04  2.737362E+05  4.386578E+03  3.342264E+03
       341  23  3.593952E+05  2.031061E+05  1.483348E+04  2.739637E+05  1.059172E+04  8.038576E+03
       341  24  3.686384E+05  2.157338E+05  2.994394E+04  2.664713E+05  1.680251E+04  1.272743E+04
       341  25  3.596434E+05  2.026776E+05  8.924482E+03  2.715796E+05  4.387957E+03  3.343297E+03
       341  26  3.549531E+05  2.003091E+05  1.338887E+04  2.719389E+05  1.059229E+04  8.039014E+03
       341  27  3.632742E+05  2.135697E+05  2.844173E+04  2.645783E+05  1.680225E+04  1.272728E+04
       342   1  3.716586E+05  2.158768E+05  3.874114E+04  2.835536E+05 -2.156174E+04 -1.634489E+04
       342   2  3.565998E+05  1.919297E+05  5.711409E+04  2.826799E+05 -4.523798E+04 -3.423756E+04
       342   3  4.181598E+05  2.701333E+05  1.297809E+05  2.328867E+05 -6.896207E+04 -5.206689E+04
       342   4  3.667380E+05  2.067795E+05  3.594305E+04  2.785812E+05 -2.156688E+04 -1.634858E+04
       342   5  3.465583E+05  1.875655E+05  5.424000E+04  2.789936E+05 -4.523618E+04 -3.423641E+04
       342   6  4.029966E+05  2.705020E+05  1.268257E+05  2.304862E+05 -6.895306E+04 -5.206128E+04
       342   7  3.618174E+05  1.976822E+05  3.314496E+04  2.736088E+05 -2.157201E+04 -1.635227E+04
       342   8  3.365168E+05  1.832012E+05  5.136590E+04  2.753074E+05 -4.523439E+04 -3.423525E+04
       342   9  3.878337E+05  2.708707E+05  1.238704E+05  2.280858E+05 -6.894405E+04 -5.205566E+04
       342  10  3.716580E+05  2.158764E+05  3.873976E+04  2.835533E+05 -3.129800E-10 -1.299660E-09
       342  11  3.565973E+05  1.919279E+05  5.710805E+04  2.826786E+05  1.052479E-09 -2.491450E-09
       342  12  4.181540E+05  2.701291E+05  1.297669E+05  2.328838E+05 -3.081082E-10 -1.066747E-08
       342  13  3.667374E+05  2.067791E+05  3.594168E+04  2.785809E+05  6.822786E-10  9.422604E-09
       342  14  3.465557E+05  1.875636E+05  5.423396E+04  2.789923E+05  2.360905E-09 -2.089060E-09
       342  15  4.029908E+05  2.704978E+05  1.268116E+05  2.304833E+05 -7.498203E-10  1.208077E-09
       342  16  3.618168E+05  1.976818E+05  3.314359E+04  2.736085E+05 -1.446033E-09  3.385688E-09
       342  17  3.365143E+05  1.831994E+05  5.135986E+04  2.753061E+05  1.603398E-09  1.213988E-08
       342  18  3.878279E+05  2.708665E+05  1.238564E+05  2.280829E+05  2.455935E-09 -6.226816E-09
       342  19  3.716586E+05  2.158768E+05  3.874114E+04  2.835536E+05  2.156174E+04  1.634489E+04
       342  20  3.565998E+05  1.919297E+05  5.711409E+04  2.826799E+05  4.523798E+04  3.423756E+04
       342  21  4.181598E+05  2.701333E+05  1.297809E+05  2.328867E+05  6.896207E+04  5.206689E+04
       342  22  3.667380E+05  2.067795E+05  3.594305E+04  2.785812E+05  2.156688E+04  1.634858E+04
       342  23  3.465583E+05  1.875655E+05  5.424000E+04  2.789936E+05  4.523618E+04  3.423641E+04
       342  24  4.029966E+05  2.705020E+05  1.268257E+05  2.304862E+05  6.895306E+04  5.206128E+04
       342  25  3.618174E+05  1.976822E+05  3.314496E+04  2.736088E+05  2.157201E+04  1.635227E+04
       342  26  3.365168E+05  1.832012E+05  5.136590E+04  2.753074E+05  4.523439E+04  3.423525E+04
       342  27  3.878337E+05  2.708707E+05  1.238704E+05  2.280858E+05  6.894405E+04  5.205566E+04
       343   1 -2.264359E+05 -1.367888E+06 -2.745758E+05  4.624382E+04 -1.028958E+03 -1.352721E+05
       343   2 -2.684139E+04 -1.308139E+06 -1.539612E+05  3.886355E+03 -3.676101E+03 -8.446539E+04
       343   3 -5.318375E+04 -1.310766E+06 -1.228084E+05  1.281367E+04 -2.407824E+03 -3.364526E+04
       343   4 -1.565738E+05 -1.089395E+06 -2.050104E+05  2.310271E+04 -1.026757E+03 -1.343905E+05
       343   5  3.564773E+04 -1.058252E+06 -9.192379E+04 -2.293469E+03 -3.675482E+03 -8.437449E+04
       343   6  2.118303E+03 -1.089322E+06 -6.772066E+04  2.359566E+04 -2.406697E+03 -3.434752E+04
       343   7 -8.671553E+04 -8.108300E+05 -1.354505E+05 -4.874164E+01 -1.024624E+03 -1.335084E+05
       343   8  9.813230E+04 -8.083085E+05 -2.989102E+04 -8.475748E+03 -3.674865E+03 -8.428355E+04
       343   9  5.741712E+04 -8.678337E+05 -1.263659E+04  3.438153E+04 -2.405594E+03 -3.505002E+04
       343  10 -2.264409E+05 -1.367908E+06 -2.746102E+05  4.624371E+04  8.521042E-10 -5.228003E-09
       343  11 -2.684333E+04 -1.308147E+06 -1.539747E+05  3.886105E+03 -7.093317E-10 -1.767385E-09
       343  12 -5.318406E+04 -1.310767E+06 -1.228105E+05  1.281361E+04 -5.321395E-10 -4.950397E-09
       343  13 -1.565786E+05 -1.089414E+06 -2.050444E+05  2.310260E+04  1.103433E-09 -6.698049E-09
       343  14  3.564580E+04 -1.058260E+06 -9.193722E+04 -2.293719E+03  4.238719E-10  4.045114E-09
       343  15  2.117980E+03 -1.089324E+06 -6.772290E+04  2.359559E+04  3.479868E-10 -3.066495E-10
       343  16 -8.672032E+04 -8.108491E+05 -1.354841E+05 -4.885186E+01  6.218458E-10  2.998560E-09
       343  17  9.813037E+04 -8.083161E+05 -2.990441E+04 -8.475998E+03  3.669970E-09  1.224210E-08
       343  18  5.741678E+04 -8.678350E+05 -1.263891E+04  3.438146E+04 -6.339479E-10  3.166312E-09
       343  19 -2.264359E+05 -1.367888E+06 -2.745758E+05  4.624382E+04  1.028958E+03  1.352721E+05
       343  20 -2.684139E+04 -1.308139E+06 -1.539612E+05  3.886355E+03  3.676101E+03  8.446539E+04
       343  21 -5.318375E+04 -1.310766E+06 -1.228084E+05  1.281367E+04  2.407824E+03  3.364526E+04
       343  22 -1.565738E+05 -1.089395E+06 -2.050104E+05  2.310271E+04  1.026757E+03  1.343905E+05
       343  23  3.564773E+04 -1.058252E+06 -9.192379E+04 -2.293469E+03  3.675482E+03  8.437449E+04
       343  24  2.118303E+03 -1.089322E+06 -6.772066E+04  2.359566E+04  2.406697E+03  3.434752E+04
       343  25 -8.671553E+04 -8.108300E+05 -1.354505E+05 -4.874164E+01  1.024624E+03  1.335084E+05
       343  26  9.813230E+04 -8.083085E+05 -2.989102E+04 -8.475748E+03  3.674865E+03  8.428355E+04
       343  27  5.741712E+04 -8.678337E+05 -1.263659E+04  3.438153E+04  2.405594E+03  3.505002E+04
       344   1 -3.944561E+04 -1.148999E+06 -7.812000E+04  2.917190E+04 -1.131077E+03 -2.266123E+04
       344   2  8.193115E+02 -1.108829E+06 -5.534330E+04 -3.259193E+03 -5.407161E+02  1.300511E+03
       344   3 -2.535705E+04 -1.088081E+06 -6.473194E+04  1.943597E+04  1.801527E+02  2.526358E+04
       344   4 -2.213301E+04 -1.079817E+06 -6.095663E+04  2.427551E+04 -1.130619E+03 -2.278264E+04
       344   5  1.049637E+04 -1.070109E+06 -4.572407E+04 -3.287747E+03 -5.403868E+02  1.153878E+03
       344   6 -2.330886E+04 -1.079819E+06 -6.263749E+04  2.427527E+04  1.807226E+02  2.509056E+04
       344   7 -4.820682E+03 -1.010631E+06 -4.379361E+04  1.937857E+04 -1.130159E+03 -2.290407E+04
       344   8  2.017332E+04 -1.031388E+06 -3.610495E+04 -3.316302E+03 -5.400575E+02  1.007236E+03
       344   9 -2.126058E+04 -1.071557E+06 -6.054304E+04  2.911465E+04  1.812898E+02  2.491754E+04
       344  10 -3.944575E+04 -1.149000E+06 -7.812097E+04  2.917188E+04 -8.962554E-10 -4.744008E-09
       344  11  8.193107E+02 -1.108829E+06 -5.534330E+04 -3.259193E+03 -9.579270E-10  1.832793E-10
       344  12 -2.535723E+04 -1.088082E+06 -6.473314E+04  1.943596E+04  1.734123E-10 -8.347764E-10
       344  13 -2.213315E+04 -1.079818E+06 -6.095761E+04  2.427549E+04 -1.002108E-09 -6.213285E-10
       344  14  1.049637E+04 -1.070109E+06 -4.572407E+04 -3.287747E+03 -2.761782E-09  1.006213E-09
       344  15 -2.330903E+04 -1.079820E+06 -6.263868E+04  2.427527E+04 -4.520946E-12 -5.574092E-09
       344  16 -4.820825E+03 -1.010632E+06 -4.379460E+04  1.937855E+04 -1.201701E-09  2.151875E-09
       344  17  2.017332E+04 -1.031388E+06 -3.610495E+04 -3.316302E+03 -8.532717E-10  1.048404E-08
       344  18 -2.126075E+04 -1.071558E+06 -6.054421E+04  2.911464E+04  3.334687E-10  2.937766E-09
       344  19 -3.944561E+04 -1.148999E+06 -7.812000E+04  2.917190E+04  1.131077E+03  2.266123E+04
       344  20  8.193115E+02 -1.108829E+06 -5.534330E+04 -3.259193E+03  5.407161E+02 -1.300511E+03
       344  21 -2.535705E+04 -1.088081E+06 -6.473194E+04  1.943597E+04 -1.801527E+02 -2.526358E+04
       344  22 -2.213301E+04 -1.079817E+06 -6.095663E+04  2.427551E+04  1.130619E+03  2.278264E+04
       344  23  1.049637E+04 -1.070109E+06 -4.572407E+04 -3.287747E+03  5.403868E+02 -1.153878E+03
       344  24 -2.330886E+04 -1.079819E+06 -6.263749E+04  2.427527E+04 -1.807226E+02 -2.509056E+04
       344  25 -4.820682E+03 -1.010631E+06 -4.379361E+04  1.937857E+04  1.130159E+03  2.290407E+04
       344  26  2.017332E+04 -1.031388E+06 -3.610495E+04 -3.316302E+03  5.400575E+02 -1.007236E+03
       344  27 -2.126058E+04 -1.071557E+06 -6.054304E+04  2.911465E+04 -1.812898E+02 -2.491754E+04
       345   1  3.913556E+04 -9.435205E+05 -3.360377E+04  3.545054E+04  1.370228E+03  3.761903E+04
       345   2  8.138358E+04 -8.813728E+05 -5.240007E+04 -9.073992E+03  2.577664E+03  8.929459E+04
       345   3 -1.128893E+05 -8.845673E+05 -1.638826E+05 -4.901303E+02  6.883291E+02  1.409651E+05
       345   4  2.567867E+03 -1.090040E+06 -7.006678E+04  2.399022E+04  1.370870E+03  3.701759E+04
       345   5  3.738236E+04 -1.057342E+06 -9.607077E+04 -2.791618E+03  2.578507E+03  8.932071E+04
       345   6 -1.644707E+05 -1.090118E+06 -2.152177E+05  2.353561E+04  6.919440E+02  1.416163E+05
       345   7 -3.400094E+04 -1.236540E+06 -1.065313E+05  1.253262E+04  1.371533E+03  3.641629E+04
       345   8 -6.621049E+03 -1.233284E+06 -1.397438E+05  3.488989E+03  2.579350E+03  8.934683E+04
       345   9 -2.160531E+05 -1.295630E+06 -2.665557E+05  4.755342E+04  6.956107E+02  1.422672E+05
       345  10  3.913517E+04 -9.435220E+05 -3.360644E+04  3.545050E+04  9.659625E-11 -3.621800E-09
       345  11  8.138142E+04 -8.813814E+05 -5.241509E+04 -9.074178E+03  1.218492E-09  6.462659E-10
       345  12 -1.128946E+05 -8.845887E+05 -1.639200E+05 -4.902085E+02 -8.032967E-11 -4.974973E-09
       345  13  2.567496E+03 -1.090042E+06 -7.006936E+04  2.399018E+04  7.404823E-10 -4.770195E-09
       345  14  3.738020E+04 -1.057351E+06 -9.608581E+04 -2.791804E+03  2.289065E-10  1.633233E-09
       345  15 -1.644761E+05 -1.090140E+06 -2.152555E+05  2.353554E+04  4.623409E-10 -1.636601E-09
       345  16 -3.400129E+04 -1.236541E+06 -1.065338E+05  1.253258E+04 -6.305834E-10 -9.535504E-11
       345  17 -6.623205E+03 -1.233293E+06 -1.397588E+05  3.488803E+03  9.134421E-10  8.787841E-09
       345  18 -2.160586E+05 -1.295652E+06 -2.665938E+05  4.755334E+04  9.112695E-10  9.091774E-10
       345  19  3.913556E+04 -9.435205E+05 -3.360377E+04  3.545054E+04 -1.370228E+03 -3.761903E+04
       345  20  8.138358E+04 -8.813728E+05 -5.240007E+04 -9.073992E+03 -2.577664E+03 -8.929459E+04
       345  21 -1.128893E+05 -8.845673E+05 -1.638826E+05 -4.901303E+02 -6.883291E+02 -1.409651E+05
       345  22  2.567867E+03 -1.090040E+06 -7.006678E+04  2.399022E+04 -1.370870E+03 -3.701759E+04
       345  23  3.738236E+04 -1.057342E+06 -9.607077E+04 -2.791618E+03 -2.578507E+03 -8.932071E+04
       345  24 -1.644707E+05 -1.090118E+06 -2.152177E+05  2.353561E+04 -6.919440E+02 -1.416163E+05
       345  25 -3.400094E+04 -1.236540E+06 -1.065313E+05  1.253262E+04 -1.371533E+03 -3.641629E+04
       345  26 -6.621049E+03 -1.233284E+06 -1.397438E+05  3.488989E+03 -2.579350E+03 -8.934683E+04
       345  27 -2.160531E+05 -1.295630E+06 -2.665557E+05  4.755342E+04 -6.956107E+02 -1.422672E+05
       346   1 -1.310763E+06 -1.858950E+05 -2.472905E+05 -2.183494E+04 -1.768719E+05 -1.315460E+02
       346   2 -1.272016E+06  6.074337E+04 -9.889298E+04 -5.577756E+03 -1.150801E+05 -6.666696E+02
       346   3 -1.313047E+06  2.049562E+04 -6.248553E+04  1.325991E+04 -5.328844E+04 -5.740667E+02
       346   4 -1.370191E+06 -2.008091E+05 -2.621510E+05  1.645132E+03 -1.769955E+05 -1.381613E+02
       346   5 -1.330224E+06  4.617833E+04 -1.133880E+05  4.219892E+02 -1.151037E+05 -6.677708E+02
       346   6 -1.370060E+06  6.246685E+03 -7.669242E+04  1.778165E+03 -5.321173E+04 -5.731150E+02
       346   7 -1.429616E+06 -2.157213E+05 -2.770115E+05  2.512295E+04 -1.771192E+05 -1.447864E+02
       346   8 -1.388430E+06  3.161316E+04 -1.278832E+05  6.421171E+03 -1.151272E+05 -6.688726E+02
       346   9 -1.427071E+06 -8.001999E+03 -9.089949E+04 -9.702526E+03 -5.313503E+04 -5.721661E+02
       346  10 -1.310796E+06 -1.859035E+05 -2.473494E+05 -2.183495E+04 -1.679503E-10  7.035244E-12
       346  11 -1.272030E+06  6.073981E+04 -9.891792E+04 -5.577818E+03  1.177764E-10  1.187736E-10
       346  12 -1.313050E+06  2.049486E+04 -6.249088E+04  1.325989E+04  2.171795E-11 -3.540539E-10
       346  13 -1.370225E+06 -2.008175E+05 -2.622100E+05  1.645112E+03 -3.671787E-10 -2.151437E-11
       346  14 -1.330239E+06  4.617476E+04 -1.134129E+05  4.219272E+02  1.831137E-10  8.621794E-11
       346  15 -1.370064E+06  6.245922E+03 -7.669776E+04  1.778141E+03 -1.740099E-10 -1.562398E-10
       346  16 -1.429649E+06 -2.157298E+05 -2.770705E+05  2.512293E+04  2.245441E-10 -1.145134E-11
       346  17 -1.388444E+06  3.160959E+04 -1.279082E+05  6.421109E+03 -4.413796E-11  1.055199E-11
       346  18 -1.427074E+06 -8.002760E+03 -9.090480E+04 -9.702550E+03 -3.389073E-10 -3.020451E-10
       346  19 -1.310763E+06 -1.858950E+05 -2.472905E+05 -2.183494E+04  1.768719E+05  1.315460E+02
       346  20 -1.272016E+06  6.074337E+04 -9.889298E+04 -5.577756E+03  1.150801E+05  6.666696E+02
       346  21 -1.313047E+06  2.049562E+04 -6.248553E+04  1.325991E+04  5.328844E+04  5.740667E+02
       346  22 -1.370191E+06 -2.008091E+05 -2.621510E+05  1.645132E+03  1.769955E+05  1.381613E+02
       346  23 -1.330224E+06  4.617833E+04 -1.133880E+05  4.219892E+02  1.151037E+05  6.677708E+02
       346  24 -1.370060E+06  6.246685E+03 -7.669242E+04  1.778165E+03  5.321173E+04  5.731150E+02
       346  25 -1.429616E+06 -2.157213E+05 -2.770115E+05  2.512295E+04  1.771192E+05  1.447864E+02
       346  26 -1.388430E+06  3.161316E+04 -1.278832E+05  6.421171E+03  1.151272E+05  6.688726E+02
       346  27 -1.427071E+06 -8.001999E+03 -9.089949E+04 -9.702526E+03  5.313503E+04  5.721661E+02
       347   1 -1.311414E+06 -1.881978E+04 -5.408368E+04 -1.423514E+03 -4.041314E+04 -4.522216E+02
       347   2 -1.306108E+06  1.853576E+04 -2.624976E+04 -8.711643E+02 -2.127470E+04 -4.728345E+02
       347   3 -1.315703E+06  6.212262E+03 -2.330927E+04  4.459514E+03 -2.136202E+03 -3.725331E+02
       347   4 -1.355674E+06 -2.989439E+04 -6.511437E+04  2.216828E+03 -4.042356E+04 -4.524562E+02
       347   5 -1.348211E+06  8.004589E+03 -3.673846E+04 -1.670091E+02 -2.126594E+04 -4.728631E+02
       347   6 -1.355654E+06 -3.780681E+03 -3.327056E+04  2.227504E+03 -2.108205E+03 -3.725336E+02
       347   7 -1.399931E+06 -4.096910E+04 -7.614521E+04  5.856910E+03 -4.043398E+04 -4.526910E+02
       347   8 -1.390312E+06 -2.526713E+03 -4.722730E+04  5.370984E+02 -2.125719E+04 -4.728918E+02
       347   9 -1.395603E+06 -1.377372E+04 -4.323196E+04 -4.361638E+00 -2.080210E+03 -3.725343E+02
       347  10 -1.311416E+06 -1.882022E+04 -5.408675E+04 -1.423529E+03  2.493807E-11 -4.609961E-10
       347  11 -1.306109E+06  1.853564E+04 -2.625061E+04 -8.711724E+02  1.867700E-10 -2.448044E-10
       347  12 -1.315703E+06  6.212260E+03 -2.330928E+04  4.459514E+03 -1.966362E-10  3.519966E-10
       347  13 -1.355676E+06 -2.989483E+04 -6.511745E+04  2.216813E+03 -2.155124E-10 -2.006552E-10
       347  14 -1.348211E+06  8.004467E+03 -3.673931E+04 -1.670172E+02  4.306842E-10 -5.030779E-11
       347  15 -1.355654E+06 -3.780682E+03 -3.327057E+04  2.227504E+03  1.233844E-10  5.780421E-11
       347  16 -1.399933E+06 -4.096954E+04 -7.614829E+04  5.856895E+03  1.918692E-10 -9.526947E-11
       347  17 -1.390313E+06 -2.526834E+03 -4.722815E+04  5.370903E+02 -2.643397E-10 -5.785817E-11
       347  18 -1.395603E+06 -1.377373E+04 -4.323197E+04 -4.362262E+00 -8.517395E-11 -8.929035E-11
       347  19 -1.311414E+06 -1.881978E+04 -5.408368E+04 -1.423514E+03  4.041314E+04  4.522216E+02
       347  20 -1.306108E+06  1.853576E+04 -2.624976E+04 -8.711643E+02  2.127470E+04  4.728345E+02
       347  21 -1.315703E+06  6.212262E+03 -2.330927E+04  4.459514E+03  2.136202E+03  3.725331E+02
       347  22 -1.355674E+06 -2.989439E+04 -6.511437E+04  2.216828E+03  4.042356E+04  4.524562E+02
       347  23 -1.348211E+06  8.004589E+03 -3.673846E+04 -1.670091E+02  2.126594E+04  4.728631E+02
       347  24 -1.355654E+06 -3.780681E+03 -3.327056E+04  2.227504E+03  2.108205E+03  3.725336E+02
       347  25 -1.399931E+06 -4.096910E+04 -7.614521E+04  5.856910E+03  4.043398E+04  4.526910E+02
       347  26 -1.390312E+06 -2.526713E+03 -4.722730E+04  5.370984E+02  2.125719E+04  4.728918E+02
       347  27 -1.395603E+06 -1.377372E+04 -4.323196E+04 -4.361638E+00  2.080210E+03  3.725343E+02
       348   1 -1.334179E+06  2.032138E+03 -2.814640E+04  1.689455E+02  3.909913E+03 -2.957493E+02
       348   2 -1.329062E+06  1.316730E+04 -3.359860E+04  2.402872E+02  2.390114E+04 -2.120792E+02
       348   3 -1.339638E+06 -2.803492E+04 -6.516817E+04  6.350402E+03  4.389187E+04 -1.248090E+02
       348   4 -1.355828E+06 -3.383053E+03 -3.353473E+04  2.505768E+03  3.924363E+03 -2.957382E+02
       348   5 -1.347993E+06  8.432475E+03 -3.831547E+04 -5.155907E+02  2.391562E+04 -2.121114E+02
       348   6 -1.355851E+06 -3.209028E+04 -6.921416E+04  2.501904E+03  4.390646E+04 -1.250840E+02
       348   7 -1.377477E+06 -8.798258E+03 -3.892308E+04  4.842508E+03  3.938812E+03 -2.957270E+02
       348   8 -1.366923E+06  3.697622E+03 -4.303238E+04 -1.271446E+03  2.393010E+04 -2.121436E+02
       348   9 -1.372063E+06 -3.614561E+04 -7.326016E+04 -1.346493E+03  4.392106E+04 -1.253591E+02
       348  10 -1.334179E+06  2.032134E+03 -2.814643E+04  1.689464E+02 -1.680131E-10  1.429267E-10
       348  11 -1.329062E+06  1.316715E+04 -3.359967E+04  2.402913E+02  4.390026E-10  7.341285E-11
       348  12 -1.339640E+06 -2.803544E+04 -6.517180E+04  6.350406E+03  6.544777E-11  8.490826E-11
       348  13 -1.355828E+06 -3.383057E+03 -3.353476E+04  2.505768E+03 -6.675702E-11  7.974555E-11
       348  14 -1.347993E+06  8.432321E+03 -3.831655E+04 -5.155866E+02  9.831111E-11  4.878350E-11
       348  15 -1.355853E+06 -3.209080E+04 -6.921779E+04  2.501908E+03  3.939438E-10 -1.275486E-10
       348  16 -1.377477E+06 -8.798262E+03 -3.892311E+04  4.842509E+03  1.642982E-10  2.068645E-10
       348  17 -1.366924E+06  3.697467E+03 -4.303346E+04 -1.271441E+03  1.309191E-10  1.458462E-11
       348  18 -1.372065E+06 -3.614613E+04 -7.326379E+04 -1.346489E+03  9.524867E-11 -1.779055E-10
       348  19 -1.334179E+06  2.032138E+03 -2.814640E+04  1.689455E+02 -3.909913E+03  2.957493E+02
       348  20 -1.329062E+06  1.316730E+04 -3.359860E+04  2.402872E+02 -2.390114E+04  2.120792E+02
       348  21 -1.339638E+06 -2.803492E+04 -6.516817E+04  6.350402E+03 -4.389187E+04  1.248090E+02
       348  22 -1.355828E+06 -3.383053E+03 -3.353473E+04  2.505768E+03 -3.924363E+03  2.957382E+02
       348  23 -1.347993E+06  8.432475E+03 -3.831547E+04 -5.155907E+02 -2.391562E+04  2.121114E+02
       348  24 -1.355851E+06 -3.209028E+04 -6.921416E+04  2.501904E+03 -4.390646E+04  1.250840E+02
       348  25 -1.377477E+06 -8.798258E+03 -3.892308E+04  4.842508E+03 -3.938812E+03  2.957270E+02
       348  26 -1.366923E+06  3.697622E+03 -4.303238E+04 -1.271446E+03 -2.393010E+04  2.121436E+02
       348  27 -1.372063E+06 -3.614561E+04 -7.326016E+04 -1.346493E+03 -4.392106E+04  1.253591E+02
       349   1 -1.375948E+06  5.652869E+03 -8.294362E+04 -9.767336E+03  5.748706E+04 -2.865076E+01
       349   2 -1.336034E+06  4.766220E+04 -1.232671E+05  5.835427E+03  1.238047E+05  9.259017E+01
       349   3 -1.381725E+06 -2.180056E+05 -2.837383E+05  2.767655E+04  1.901244E+05  2.943809E+01
       349   4 -1.371347E+06  6.800813E+03 -8.179037E+04  2.560836E+03  5.752493E+04 -2.751176E+01
       349   5 -1.328617E+06  4.951889E+04 -1.214217E+05 -5.765762E+02  1.238115E+05  9.130794E+01
       349   6 -1.371487E+06 -2.154340E+05 -2.811782E+05  2.525276E+03  1.901004E+05  2.172367E+01
       349   7 -1.366746E+06  7.949328E+03 -8.063704E+04  1.488910E+04  5.756281E+04 -2.637125E+01
       349   8 -1.321201E+06  5.137573E+04 -1.195764E+05 -6.988656E+03  1.238183E+05  9.002559E+01
       349   9 -1.361247E+06 -2.128600E+05 -2.786177E+05 -2.262642E+04  1.900764E+05  1.401131E+01
       349  10 -1.375951E+06  5.651980E+03 -8.294985E+04 -9.767335E+03 -1.509925E-10  3.251120E-10
       349  11 -1.336050E+06  4.765807E+04 -1.232959E+05  5.835418E+03 -2.475040E-10  2.096030E-10
       349  12 -1.381764E+06 -2.180153E+05 -2.838063E+05  2.767655E+04  3.276760E-10  3.387583E-11
       349  13 -1.371351E+06  6.799923E+03 -8.179660E+04  2.560837E+03  1.354792E-10 -5.760910E-11
       349  14 -1.328634E+06  4.951476E+04 -1.214506E+05 -5.765853E+02  1.168688E-10  1.315104E-10
       349  15 -1.371526E+06 -2.154437E+05 -2.812462E+05  2.525272E+03  2.210219E-11  6.085395E-11
       349  16 -1.366750E+06  7.948436E+03 -8.064328E+04  1.488910E+04  2.363689E-10  2.032292E-10
       349  17 -1.321217E+06  5.137160E+04 -1.196052E+05 -6.988666E+03 -3.077919E-10  1.001487E-11
       349  18 -1.361286E+06 -2.128697E+05 -2.786857E+05 -2.262642E+04 -1.313589E-11  2.117360E-11
       349  19 -1.375948E+06  5.652869E+03 -8.294362E+04 -9.767336E+03 -5.748706E+04  2.865076E+01
       349  20 -1.336034E+06  4.766220E+04 -1.232671E+05  5.835427E+03 -1.238047E+05 -9.259017E+01
       349  21 -1.381725E+06 -2.180056E+05 -2.837383E+05  2.767655E+04 -1.901244E+05 -2.943809E+01
       349  22 -1.371347E+06  6.800813E+03 -8.179037E+04  2.560836E+03 -5.752493E+04  2.751176E+01
       349  23 -1.328617E+06  4.951889E+04 -1.214217E+05 -5.765762E+02 -1.238115E+05 -9.130794E+01
       349  24 -1.371487E+06 -2.154340E+05 -2.811782E+05  2.525276E+03 -1.901004E+05 -2.172367E+01
       349  25 -1.366746E+06  7.949328E+03 -8.063704E+04  1.488910E+04 -5.756281E+04  2.637125E+01
       349  26 -1.321201E+06  5.137573E+04 -1.195764E+05 -6.988656E+03 -1.238183E+05 -9.002559E+01
       349  27 -1.361247E+06 -2.128600E+05 -2.786177E+05 -2.262642E+04 -1.900764E+05 -1.401131E+01
       350   1 -7.234250E+04 -3.970920E+05 -7.027032E+04  7.304218E+04 -2.682708E+03 -2.692906E+04
       350   2 -4.931043E+04 -3.418316E+05 -4.228328E+04  6.464218E+04 -8.267742E+03 -1.248650E+04
       350   3 -3.353745E+04 -2.902781E+05 -2.551839E+04  6.554037E+04 -8.356733E+03  1.954001E+03
       350   4 -1.135767E+04 -1.502457E+05 -1.220221E+04  6.567681E+04 -2.668183E+03 -9.309710E+03
       350   5 -3.466387E+03 -1.493951E+05 -5.519052E+03  6.102336E+04 -8.262485E+03 -6.471116E+03
       350   6 -8.175390E+02 -1.502381E+05 -1.995575E+03  6.566833E+04 -8.361356E+03 -3.636126E+03
       350   7  4.962319E+04  9.665752E+04  4.586291E+04  5.830848E+04 -2.654080E+03  8.316612E+03
       350   8  4.237554E+04  4.307725E+04  3.124363E+04  5.740338E+04 -8.257299E+03 -4.539119E+02
       350   9  3.190136E+04 -1.017872E+04  2.152675E+04  6.579632E+04 -8.365980E+03 -9.227474E+03
       350  10 -7.234270E+04 -3.970928E+05 -7.027170E+04  7.304212E+04  8.657207E-11 -1.149358E-10
       350  11 -4.931054E+04 -3.418318E+05 -4.228370E+04  6.464210E+04  2.824544E-10 -1.208015E-10
       350  12 -3.353752E+04 -2.902781E+05 -2.551853E+04  6.554038E+04 -3.237389E-10 -1.152989E-10
       350  13 -1.135770E+04 -1.502458E+05 -1.220239E+04  6.567679E+04 -5.670554E-10  2.994916E-11
       350  14 -3.466472E+03 -1.493951E+05 -5.519259E+03  6.102332E+04  6.277623E-10 -3.251139E-11
       350  15 -8.176176E+02 -1.502381E+05 -1.995731E+03  6.566831E+04 -9.057330E-11  4.342746E-11
       350  16  4.962317E+04  9.665744E+04  4.586276E+04  5.830849E+04 -1.422020E-11  1.223678E-10
       350  17  4.237547E+04  4.307723E+04  3.124351E+04  5.740338E+04 -6.923192E-11  1.299596E-10
       350  18  3.190126E+04 -1.017883E+04  2.152646E+04  6.579626E+04  4.253790E-11  1.534786E-10
       350  19 -7.234250E+04 -3.970920E+05 -7.027032E+04  7.304218E+04  2.682708E+03  2.692906E+04
       350  20 -4.931043E+04 -3.418316E+05 -4.228328E+04  6.464218E+04  8.267742E+03  1.248650E+04
       350  21 -3.353745E+04 -2.902781E+05 -2.551839E+04  6.554037E+04  8.356733E+03 -1.954001E+03
       350  22 -1.135767E+04 -1.502457E+05 -1.220221E+04  6.567681E+04  2.668183E+03  9.309710E+03
       350  23 -3.466387E+03 -1.493951E+05 -5.519052E+03  6.102336E+04  8.262485E+03  6.471116E+03
       350  24 -8.175390E+02 -1.502381E+05 -1.995575E+03  6.566833E+04  8.361356E+03  3.636126E+03
       350  25  4.962319E+04  9.665752E+04  4.586291E+04  5.830848E+04  2.654080E+03 -8.316612E+03
       350  26  4.237554E+04  4.307725E+04  3.124363E+04  5.740338E+04  8.257299E+03  4.539119E+02
       350  27  3.190136E+04 -1.017872E+04  2.152675E+04  6.579632E+04  8.365980E+03  9.227474E+03
       351   1 -2.533486E+04 -2.560260E+05 -1.816026E+04  6.594885E+04 -6.592576E+03  2.129280E+03
       351   2 -1.173734E+04 -2.027408E+05 -5.970810E+03  6.150906E+04 -3.807564E+03  1.685084E+03
       351   3  2.407184E+03 -1.492762E+05  6.639407E+03  6.673468E+04 -7.595242E+02  1.240559E+03
       351   4 -5.864892E+02 -1.497995E+05 -6.675016E+02  6.575066E+04 -6.597339E+03 -3.475995E+03
       351   5  4.177007E+02 -1.499350E+05  1.994126E+03  6.091688E+04 -3.812907E+03 -4.475931E+03
       351   6  2.065563E+03 -1.497973E+05  5.462641E+03  6.574843E+04 -7.654620E+02 -5.476162E+03
       351   7  2.416132E+04 -4.356186E+04  1.682505E+04  6.555243E+04 -6.602099E+03 -9.082197E+03
       351   8  1.257263E+04 -9.712634E+04  9.959149E+03  6.032465E+04 -3.818239E+03 -1.063745E+04
       351   9  1.723970E+03 -1.503182E+05  4.286046E+03  6.476219E+04 -7.713785E+02 -1.219287E+04
       351  10 -2.533491E+04 -2.560260E+05 -1.816035E+04  6.594886E+04 -1.554915E-10  3.585534E-10
       351  11 -1.173736E+04 -2.027408E+05 -5.970843E+03  6.150907E+04 -2.740784E-11  3.765552E-10
       351  12  2.407183E+03 -1.492762E+05  6.639403E+03  6.673468E+04  4.288142E-10  4.221996E-10
       351  13 -5.865392E+02 -1.497995E+05 -6.676061E+02  6.575064E+04 -1.964705E-10  5.056863E-11
       351  14  4.176797E+02 -1.499350E+05  1.994061E+03  6.091687E+04 -5.097391E-10  8.932486E-11
       351  15  2.065555E+03 -1.497973E+05  5.462584E+03  6.574843E+04 -4.645421E-10  6.657329E-11
       351  16  2.416125E+04 -4.356196E+04  1.682481E+04  6.555238E+04 -6.085607E-11 -3.543208E-10
       351  17  1.257259E+04 -9.712646E+04  9.958909E+03  6.032462E+04  2.717654E-10 -3.439110E-10
       351  18  1.723930E+03 -1.503183E+05  4.285766E+03  6.476218E+04  3.962531E-10 -4.618757E-10
       351  19 -2.533486E+04 -2.560260E+05 -1.816026E+04  6.594885E+04  6.592576E+03 -2.129280E+03
       351  20 -1.173734E+04 -2.027408E+05 -5.970810E+03  6.150906E+04  3.807564E+03 -1.685084E+03
       351  21  2.407184E+03 -1.492762E+05  6.639407E+03  6.673468E+04  7.595242E+02 -1.240559E+03
       351  22 -5.864892E+02 -1.497995E+05 -6.675016E+02  6.575066E+04  6.597339E+03  3.475995E+03
       351  23  4.177007E+02 -1.499350E+05  1.994126E+03  6.091688E+04  3.812907E+03  4.475931E+03
       351  24  2.065563E+03 -1.497973E+05  5.462641E+03  6.574843E+04  7.654620E+02  5.476162E+03
       351  25  2.416132E+04 -4.356186E+04  1.682505E+04  6.555243E+04  6.602099E+03  9.082197E+03
       351  26  1.257263E+04 -9.712634E+04  9.959149E+03  6.032465E+04  3.818239E+03  1.063745E+04
       351  27  1.723970E+03 -1.503182E+05  4.286046E+03  6.476219E+04  7.713785E+02  1.219287E+04
       352   1  1.080476E+04 -1.146841E+05  1.459067E+04  6.573046E+04  1.237678E+03  2.691790E+02
       352   2  2.996997E+04 -6.404659E+04  3.292680E+04  7.045256E+04  2.778876E+03 -1.426952E+04
       352   3  6.358369E+04 -7.919194E+03  6.433685E+04  8.464341E+04  1.075681E+03 -2.880697E+04
       352   4  2.589178E+03 -1.489029E+05  7.736791E+03  6.570639E+04  1.231764E+03 -6.439620E+03
       352   5  8.963599E+03 -1.510530E+05  1.500853E+04  6.096156E+04  2.779249E+03 -1.412470E+04
       352   6  2.859789E+04 -1.489040E+05  3.059524E+04  6.568486E+04  1.082572E+03 -2.180733E+04
       352   7 -5.626454E+03 -1.831204E+05  8.830189E+02  6.568232E+04  1.225851E+03 -1.314806E+04
       352   8 -1.204292E+04 -2.380520E+05 -2.910110E+03  5.147191E+04  2.779617E+03 -1.397990E+04
       352   9 -6.387978E+03 -2.898696E+05 -3.147408E+03  4.673062E+04  1.089037E+03 -1.480927E+04
       352  10  1.080476E+04 -1.146841E+05  1.459067E+04  6.573046E+04  3.894614E-11 -5.291256E-10
       352  11  2.996991E+04 -6.404682E+04  3.292640E+04  7.045259E+04 -1.147884E-10 -1.827215E-10
       352  12  6.358347E+04 -7.920086E+03  6.433529E+04  8.464343E+04  1.686596E-10  1.448121E-10
       352  13  2.589165E+03 -1.489029E+05  7.736710E+03  6.570639E+04  6.701546E-10 -2.423223E-11
       352  14  8.963537E+03 -1.510532E+05  1.500814E+04  6.096159E+04 -4.432564E-10  3.881951E-11
       352  15  2.859776E+04 -1.489045E+05  3.059434E+04  6.568487E+04  1.420475E-10 -7.175252E-12
       352  16 -5.626502E+03 -1.831206E+05  8.826911E+02  6.568233E+04 -2.319069E-11  5.792023E-10
       352  17 -1.204298E+04 -2.380522E+05 -2.910492E+03  5.147194E+04 -3.132169E-10  2.519104E-10
       352  18 -6.388038E+03 -2.898699E+05 -3.147823E+03  4.673064E+04  1.305529E-10 -1.617652E-10
       352  19  1.080476E+04 -1.146841E+05  1.459067E+04  6.573046E+04 -1.237678E+03 -2.691790E+02
       352  20  2.996997E+04 -6.404659E+04  3.292680E+04  7.045256E+04 -2.778876E+03  1.426952E+04
       352  21  6.358369E+04 -7.919194E+03  6.433685E+04  8.464341E+04 -1.075681E+03  2.880697E+04
       352  22  2.589178E+03 -1.489029E+05  7.736791E+03  6.570639E+04 -1.231764E+03  6.439620E+03
       352  23  8.963599E+03 -1.510530E+05  1.500853E+04  6.096156E+04 -2.779249E+03  1.412470E+04
       352  24  2.859789E+04 -1.489040E+05  3.059524E+04  6.568486E+04 -1.082572E+03  2.180733E+04
       352  25 -5.626454E+03 -1.831204E+05  8.830189E+02  6.568232E+04 -1.225851E+03  1.314806E+04
       352  26 -1.204292E+04 -2.380520E+05 -2.910110E+03  5.147191E+04 -2.779617E+03  1.397990E+04
       352  27 -6.387978E+03 -2.898696E+05 -3.147408E+03  4.673062E+04 -1.089037E+03  1.480927E+04
       353   1  1.746550E+05  1.952090E+05  8.356388E+04  1.070025E+05  3.801985E+04  2.493791E+04
       353   2  1.653917E+05  1.616578E+05  5.259148E+04  1.085625E+05  2.694222E+04  7.977157E+03
       353   3  1.637296E+05  1.416368E+05  3.773855E+04  1.064517E+05  1.326111E+04 -5.505186E+03
       353   4  3.791539E+04  6.257564E+04  3.388776E+04  2.265603E+04  2.076653E+04  1.201323E+04
       353   5  2.995981E+04  4.770664E+04  1.716751E+04  3.123191E+04  1.792128E+04  1.219273E+03
       353   6  2.782194E+04  4.458387E+04  9.427312E+03  3.613637E+04  1.247172E+04 -6.096965E+03
       353   7 -9.879943E+04 -7.003148E+04 -1.578807E+04 -6.166378E+04  3.518710E+03 -9.054645E+02
       353   8 -1.054486E+05 -6.622579E+04 -1.825671E+04 -4.607637E+04  8.903050E+03 -5.536059E+03
       353   9 -1.080635E+05 -5.245672E+04 -1.888457E+04 -3.416073E+04  1.168257E+04 -6.688568E+03
       353  10  1.746532E+05  1.952079E+05  8.356000E+04  1.070017E+05  2.125493E-10 -1.737281E-11
       353  11  1.653909E+05  1.616575E+05  5.258999E+04  1.085623E+05  2.356364E-11 -1.609478E-10
       353  12  1.637294E+05  1.416367E+05  3.773816E+04  1.064518E+05 -1.563215E-10 -1.494013E-10
       353  13  3.791489E+04  6.257537E+04  3.388668E+04  2.265583E+04 -3.506405E-10 -1.198529E-11
       353  14  2.995946E+04  4.770655E+04  1.716690E+04  3.123189E+04 -1.426120E-10  1.021396E-12
       353  15  2.782176E+04  4.458378E+04  9.426950E+03  3.613643E+04  2.978954E-12  1.345668E-10
       353  16 -9.879945E+04 -7.003148E+04 -1.578810E+04 -6.166378E+04  6.362358E-11 -1.477955E-11
       353  17 -1.054487E+05 -6.622584E+04 -1.825691E+04 -4.607633E+04 -2.195547E-10  1.663478E-10
       353  18 -1.080637E+05 -5.245681E+04 -1.888491E+04 -3.416067E+04  1.165721E-10  3.576458E-10
       353  19  1.746550E+05  1.952090E+05  8.356388E+04  1.070025E+05 -3.801985E+04 -2.493791E+04
       353  20  1.653917E+05  1.616578E+05  5.259148E+04  1.085625E+05 -2.694222E+04 -7.977157E+03
       353  21  1.637296E+05  1.416368E+05  3.773855E+04  1.064517E+05 -1.326111E+04  5.505186E+03
       353  22  3.791539E+04  6.257564E+04  3.388776E+04  2.265603E+04 -2.076653E+04 -1.201323E+04
       353  23  2.995981E+04  4.770664E+04  1.716751E+04  3.123191E+04 -1.792128E+04 -1.219273E+03
       353  24  2.782194E+04  4.458387E+04  9.427312E+03  3.613637E+04 -1.247172E+04  6.096965E+03
       353  25 -9.879943E+04 -7.003148E+04 -1.578807E+04 -6.166378E+04 -3.518710E+03  9.054645E+02
       353  26 -1.054486E+05 -6.622579E+04 -1.825671E+04 -4.607637E+04 -8.903050E+03  5.536059E+03
       353  27 -1.080635E+05 -5.245672E+04 -1.888457E+04 -3.416073E+04 -1.168257E+04  6.688568E+03
       354   1  1.559335E+05  1.368184E+05  3.324993E+04  1.036547E+05  1.204881E+04 -6.469687E+03
       354   2  1.470290E+05  1.266309E+05  2.691247E+04  9.905509E+04  9.273596E+03 -8.543289E+03
       354   3  1.371698E+05  1.197897E+05  2.321811E+04  9.471486E+04  6.149783E+03 -1.015162E+04
       354   4  2.683184E+04  4.367519E+04  7.148168E+03  3.625394E+04  1.150566E+04 -6.877028E+03
       354   5  2.696493E+04  4.129604E+04  4.172854E+03  3.674238E+04  9.832192E+03 -8.125260E+03
       354   6  2.590502E+04  4.202433E+04  2.885303E+03  3.749013E+04  7.810094E+03 -8.908159E+03
       354   7 -1.022530E+05 -4.945899E+04 -1.895525E+04 -3.113177E+04  1.096264E+04 -7.284262E+03
       354   8 -9.308153E+04 -4.402911E+04 -1.856703E+04 -2.555601E+04  1.039065E+04 -7.707341E+03
       354   9 -8.534171E+04 -3.573097E+04 -1.744669E+04 -1.972107E+04  9.469972E+03 -7.665024E+03
       354  10  1.559333E+05  1.368183E+05  3.324958E+04  1.036548E+05  4.107299E-10  3.984960E-10
       354  11  1.470289E+05  1.266308E+05  2.691217E+04  9.905515E+04  1.762190E-10  3.855802E-11
       354  12  1.371697E+05  1.197896E+05  2.321785E+04  9.471491E+04 -4.632758E-10 -1.293449E-10
       354  13  2.683168E+04  4.367510E+04  7.147830E+03  3.625401E+04 -5.083634E-10  1.429956E-10
       354  14  2.696481E+04  4.129594E+04  4.172549E+03  3.674244E+04  2.042628E-10  3.800054E-11
       354  15  2.590494E+04  4.202423E+04  2.885039E+03  3.749018E+04  3.344988E-10  3.327164E-11
       354  16 -1.022531E+05 -4.945908E+04 -1.895558E+04 -3.113171E+04 -5.649325E-10 -1.080268E-10
       354  17 -9.308166E+04 -4.402921E+04 -1.856735E+04 -2.555594E+04 -3.069277E-11  4.147691E-11
       354  18 -8.534182E+04 -3.573106E+04 -1.744697E+04 -1.972101E+04  4.084472E-10  4.147807E-10
       354  19  1.559335E+05  1.368184E+05  3.324993E+04  1.036547E+05 -1.204881E+04  6.469687E+03
       354  20  1.470290E+05  1.266309E+05  2.691247E+04  9.905509E+04 -9.273596E+03  8.543289E+03
       354  21  1.371698E+05  1.197897E+05  2.321811E+04  9.471486E+04 -6.149783E+03  1.015162E+04
       354  22  2.683184E+04  4.367519E+04  7.148168E+03  3.625394E+04 -1.150566E+04  6.877028E+03
       354  23  2.696493E+04  4.129604E+04  4.172854E+03  3.674238E+04 -9.832192E+03  8.125260E+03
       354  24  2.590502E+04  4.202433E+04  2.885303E+03  3.749013E+04 -7.810094E+03  8.908159E+03
       354  25 -1.022530E+05 -4.945899E+04 -1.895525E+04 -3.113177E+04 -1.096264E+04  7.284262E+03
       354  26 -9.308153E+04 -4.402911E+04 -1.856703E+04 -2.555601E+04 -1.039065E+04  7.707341E+03
       354  27 -8.534171E+04 -3.573097E+04 -1.744669E+04 -1.972107E+04 -9.469972E+03  7.665024E+03
       355   1  1.309683E+05  1.156439E+05  2.171575E+04  9.169178E+04  5.417201E+03 -1.003080E+04
       355   2  1.223519E+05  1.076187E+05  1.993061E+04  8.637096E+04  3.588308E+03 -1.022555E+04
       355   3  1.119905E+05  1.020628E+05  1.927808E+04  8.161366E+04  1.703608E+03 -1.034589E+04
       355   4  2.582237E+04  4.195935E+04  2.629848E+03  3.749515E+04  7.111081E+03 -8.762133E+03
       355   5  2.675406E+04  4.081409E+04  2.738412E+03  3.716138E+04  5.458550E+03 -8.824646E+03
       355   6  2.590225E+04  4.210018E+04  3.826663E+03  3.739108E+04  3.750163E+03 -8.812763E+03
       355   7 -7.931006E+04 -3.171803E+04 -1.645620E+04 -1.669066E+04  8.804584E+03 -7.493747E+03
       355   8 -6.883383E+04 -2.598543E+04 -1.445431E+04 -1.203988E+04  7.328437E+03 -7.424008E+03
       355   9 -6.017915E+04 -1.785927E+04 -1.162559E+04 -6.825366E+03  5.796397E+03 -7.279878E+03
       355  10  1.309682E+05  1.156438E+05  2.171550E+04  9.169182E+04 -1.781333E-10  8.299234E-11
       355  11  1.223518E+05  1.076186E+05  1.993039E+04  8.637099E+04  1.043591E-10  9.909370E-11
       355  12  1.119905E+05  1.020627E+05  1.927788E+04  8.161367E+04  5.014785E-10  2.635749E-10
       355  13  2.582230E+04  4.195925E+04  2.629609E+03  3.749520E+04 -4.627500E-10  4.216043E-11
       355  14  2.675400E+04  4.081400E+04  2.738209E+03  3.716142E+04  1.331710E-10  1.710375E-10
       355  15  2.590221E+04  4.210009E+04  3.826491E+03  3.739111E+04  1.656796E-10  6.885089E-12
       355  16 -7.931016E+04 -3.171811E+04 -1.645645E+04 -1.669061E+04 -2.061589E-10  2.237535E-10
       355  17 -6.883391E+04 -2.598550E+04 -1.445452E+04 -1.203984E+04  1.332369E-11  1.925499E-10
       355  18 -6.017920E+04 -1.785934E+04 -1.162575E+04 -6.825332E+03 -4.482720E-10 -2.017455E-10
       355  19  1.309683E+05  1.156439E+05  2.171575E+04  9.169178E+04 -5.417201E+03  1.003080E+04
       355  20  1.223519E+05  1.076187E+05  1.993061E+04  8.637096E+04 -3.588308E+03  1.022555E+04
       355  21  1.119905E+05  1.020628E+05  1.927808E+04  8.161366E+04 -1.703608E+03  1.034589E+04
       355  22  2.582237E+04  4.195935E+04  2.629848E+03  3.749515E+04 -7.111081E+03  8.762133E+03
       355  23  2.675406E+04  4.081409E+04  2.738412E+03  3.716138E+04 -5.458550E+03  8.824646E+03
       355  24  2.590225E+04  4.210018E+04  3.826663E+03  3.739108E+04 -3.750163E+03  8.812763E+03
       355  25 -7.931006E+04 -3.171803E+04 -1.645620E+04 -1.669066E+04 -8.804584E+03  7.493747E+03
       355  26 -6.883383E+04 -2.598543E+04 -1.445431E+04 -1.203988E+04 -7.328437E+03  7.424008E+03
       355  27 -6.017915E+04 -1.785927E+04 -1.162559E+04 -6.825366E+03 -5.796397E+03  7.279878E+03
       356   1  1.060325E+05  9.828837E+04  1.915346E+04  7.863227E+04  7.325355E+02 -1.028762E+04
       356   2  9.928022E+04  8.942755E+04  2.088162E+04  7.188560E+04 -3.445941E+03 -1.198049E+04
       356   3  9.223925E+04  8.491994E+04  2.614681E+04  6.502154E+04 -7.701665E+03 -1.357004E+04
       356   4  2.609291E+04  4.228552E+04  4.793264E+03  3.741101E+04  2.790195E+03 -8.746114E+03
       356   5  2.724726E+04  4.188671E+04  8.092766E+03  3.615838E+04 -1.143602E+03 -1.025561E+04
       356   6  2.805962E+04  4.578796E+04  1.471715E+04  3.478808E+04 -5.154750E+03 -1.166189E+04
       356   7 -5.383670E+04 -1.371160E+04 -9.566244E+03 -3.802907E+03  4.847454E+03 -7.204910E+03
       356   8 -4.477833E+04 -5.650476E+03 -4.695781E+03  4.364050E+02  1.158353E+03 -8.531006E+03
       356   9 -3.611492E+04  6.657978E+03  3.287483E+03  4.558105E+03 -2.608190E+03 -9.753956E+03
       356  10  1.060325E+05  9.828826E+04  1.915326E+04  7.863227E+04  3.134139E-10  1.181729E-11
       356  11  9.928017E+04  8.942739E+04  2.088132E+04  7.188557E+04  4.486024E-10 -2.406813E-10
       356  12  9.223914E+04  8.491973E+04  2.614635E+04  6.502146E+04  4.679570E-10 -1.010390E-10
       356  13  2.609288E+04  4.228543E+04  4.793105E+03  3.741103E+04 -1.590799E-10 -8.273003E-11
       356  14  2.724723E+04  4.188660E+04  8.092566E+03  3.615837E+04  1.103342E-10 -3.993423E-10
       356  15  2.805955E+04  4.578781E+04  1.471684E+04  3.478803E+04 -1.302105E-10 -2.449424E-10
       356  16 -5.383673E+04 -1.371166E+04 -9.566386E+03 -3.802879E+03 -2.479291E-10 -2.178344E-10
       356  17 -4.477835E+04 -5.650555E+03 -4.695921E+03  4.364130E+02 -4.298912E-10 -1.836703E-10
       356  18 -3.611495E+04  6.657874E+03  3.287291E+03  4.558085E+03 -9.595160E-11 -1.977788E-10
       356  19  1.060325E+05  9.828837E+04  1.915346E+04  7.863227E+04 -7.325355E+02  1.028762E+04
       356  20  9.928022E+04  8.942755E+04  2.088162E+04  7.188560E+04  3.445941E+03  1.198049E+04
       356  21  9.223925E+04  8.491994E+04  2.614681E+04  6.502154E+04  7.701665E+03  1.357004E+04
       356  22  2.609291E+04  4.228552E+04  4.793264E+03  3.741101E+04 -2.790195E+03  8.746114E+03
       356  23  2.724726E+04  4.188671E+04  8.092766E+03  3.615838E+04  1.143602E+03  1.025561E+04
       356  24  2.805962E+04  4.578796E+04  1.471715E+04  3.478808E+04  5.154750E+03  1.166189E+04
       356  25 -5.383670E+04 -1.371160E+04 -9.566244E+03 -3.802907E+03 -4.847454E+03  7.204910E+03
       356  26 -4.477833E+04 -5.650476E+03 -4.695781E+03  4.364050E+02 -1.158353E+03  8.531006E+03
       356  27 -3.611492E+04  6.657978E+03  3.287483E+03  4.558105E+03  2.608190E+03  9.753956E+03
       357   1  8.714467E+04  8.404513E+04  3.020305E+04  6.210473E+04 -1.025737E+04 -1.453800E+04
       357   2  1.021911E+05  6.378597E+04  4.616422E+04  4.068680E+04 -2.779987E+04 -2.541012E+04
       357   3  1.314194E+05  6.723154E+04  8.255145E+04  1.105167E+04 -4.587820E+04 -3.556728E+04
       357   4  3.000218E+04  4.787463E+04  1.965191E+04  3.459514E+04 -7.659403E+03 -1.259152E+04
       357   5  3.377720E+04  5.523432E+04  3.619372E+04  2.444544E+04 -2.351079E+04 -2.219812E+04
       357   6  5.136685E+04  8.593171E+04  7.169526E+04  6.078359E+03 -3.989714E+04 -3.109090E+04
       357   7 -2.713752E+04  1.170504E+04  9.100357E+03  7.087857E+03 -5.061705E+03 -1.064521E+04
       357   8 -3.463076E+04  4.668333E+04  2.622342E+04  8.204768E+03 -1.922233E+04 -1.898607E+04
       357   9 -2.867455E+04  1.046357E+05  6.084032E+04  1.103606E+03 -3.391724E+04 -2.661400E+04
       357  10  8.714450E+04  8.404488E+04  3.020245E+04  6.210461E+04  1.737635E-10 -7.225927E-11
       357  11  1.021901E+05  6.378507E+04  4.616155E+04  4.068624E+04 -9.137951E-11  9.094823E-11
       357  12  1.314168E+05  6.722962E+04  8.254512E+04  1.105036E+04 -1.778147E-10  5.958028E-11
       357  13  3.000208E+04  4.787445E+04  1.965151E+04  3.459506E+04 -2.483576E-10 -2.637382E-10
       357  14  3.377648E+04  5.523364E+04  3.619176E+04  2.444502E+04  1.424973E-10  5.010007E-11
       357  15  5.136488E+04  8.593024E+04  7.169045E+04  6.077360E+03 -7.082324E-11 -2.404979E-11
       357  16 -2.713758E+04  1.170491E+04  9.100096E+03  7.087813E+03  1.705357E-10 -1.336279E-10
       357  17 -3.463125E+04  4.668284E+04  2.622204E+04  8.204474E+03 -2.024772E-10  1.240030E-10
       357  18 -2.867597E+04  1.046347E+05  6.083683E+04  1.102879E+03  9.216959E-11  1.115645E-10
       357  19  8.714467E+04  8.404513E+04  3.020305E+04  6.210473E+04  1.025737E+04  1.453800E+04
       357  20  1.021911E+05  6.378597E+04  4.616422E+04  4.068680E+04  2.779987E+04  2.541012E+04
       357  21  1.314194E+05  6.723154E+04  8.255145E+04  1.105167E+04  4.587820E+04  3.556728E+04
       357  22  3.000218E+04  4.787463E+04  1.965191E+04  3.459514E+04  7.659403E+03  1.259152E+04
       357  23  3.377720E+04  5.523432E+04  3.619372E+04  2.444544E+04  2.351079E+04  2.219812E+04
       357  24  5.136685E+04  8.593171E+04  7.169526E+04  6.078359E+03  3.989714E+04  3.109090E+04
       357  25 -2.713752E+04  1.170504E+04  9.100357E+03  7.087857E+03  5.061705E+03  1.064521E+04
       357  26 -3.463076E+04  4.668333E+04  2.622342E+04  8.204768E+03  1.922233E+04  1.898607E+04
       357  27 -2.867455E+04  1.046357E+05  6.084032E+04  1.103606E+03  3.391724E+04  2.661400E+04
       358   1 -2.696305E+01 -2.823717E+00 -2.489782E+00  5.209601E+01 -1.985552E+00  3.342817E-04
       358   2 -2.692419E+01 -2.601135E+00 -1.415751E+00  5.209714E+01 -1.283925E+00  2.173001E-04
       358   3 -2.700713E+01 -2.500356E+00 -8.289234E-01  5.209827E+01 -5.822966E-01  1.006519E-04
       358   4 -2.698541E+01 -2.829421E+00 -2.495930E+00  5.210335E+01 -1.982342E+00  3.337005E-04
       358   5 -2.692437E+01 -2.601813E+00 -1.418954E+00  5.210337E+01 -1.279010E+00  2.163242E-04
       358   6 -2.698541E+01 -2.496289E+00 -8.303070E-01  5.210340E+01 -5.756769E-01  9.932688E-05
       358   7 -2.700827E+01 -2.835251E+00 -2.502205E+00  5.211069E+01 -1.979182E+00  3.331196E-04
       358   8 -2.692505E+01 -2.602618E+00 -1.422285E+00  5.210961E+01 -1.274315E+00  2.153466E-04
       358   9 -2.696419E+01 -2.492349E+00 -8.318176E-01  5.210853E+01 -5.694482E-01  9.800128E-05
       358  10 -2.696247E+01 -2.823571E+00 -2.489636E+00  5.209601E+01  1.655685E-05  4.016938E-08
       358  11 -2.692361E+01 -2.600990E+00 -1.415605E+00  5.209714E+01  7.348425E-05  1.476658E-07
       358  12 -2.700655E+01 -2.500210E+00 -8.287777E-01  5.209827E+01  1.303521E-04  2.080272E-07
       358  13 -2.698395E+01 -2.829056E+00 -2.495566E+00  5.210335E+01  4.138264E-05 -4.631017E-09
       358  14 -2.692291E+01 -2.601449E+00 -1.418590E+00  5.210337E+01  1.836241E-04 -2.066757E-08
       358  15 -2.698395E+01 -2.495925E+00 -8.299428E-01  5.210340E+01  3.258470E-04 -3.643795E-08
       358  16 -2.700769E+01 -2.835106E+00 -2.502060E+00  5.211069E+01  1.654589E-05 -4.950082E-08
       358  17 -2.692447E+01 -2.602473E+00 -1.422139E+00  5.210961E+01  7.340071E-05 -1.888482E-07
       358  18 -2.696361E+01 -2.492204E+00 -8.316719E-01  5.210853E+01  1.303106E-04 -2.810758E-07
       358  19 -2.696189E+01 -2.823426E+00 -2.489491E+00  5.209601E+01  1.985586E+00 -3.342008E-04
       358  20 -2.692303E+01 -2.600844E+00 -1.415459E+00  5.209714E+01  1.284071E+00 -2.170051E-04
       358  21 -2.700597E+01 -2.500064E+00 -8.286322E-01  5.209827E+01  5.825572E-01 -1.002363E-04
       358  22 -2.698249E+01 -2.828692E+00 -2.495202E+00  5.210335E+01  1.982425E+00 -3.337100E-04
       358  23 -2.692145E+01 -2.601085E+00 -1.418226E+00  5.210337E+01  1.279377E+00 -2.163647E-04
       358  24 -2.698249E+01 -2.495561E+00 -8.295786E-01  5.210340E+01  5.763286E-01 -9.940005E-05
       358  25 -2.700711E+01 -2.834960E+00 -2.501914E+00  5.211068E+01  1.979215E+00 -3.332190E-04
       358  26 -2.692388E+01 -2.602327E+00 -1.421994E+00  5.210961E+01  1.274462E+00 -2.157248E-04
       358  27 -2.696302E+01 -2.492058E+00 -8.315264E-01  5.210853E+01  5.697089E-01 -9.856386E-05
       359   1 -2.700120E+01 -2.462411E+00 -6.451387E-01  5.209887E+01 -4.515107E-01  7.958019E-05
       359   2 -2.700520E+01 -2.418130E+00 -4.197448E-01  5.209989E+01 -2.435653E-01  4.611713E-05
       359   3 -2.704529E+01 -2.409938E+00 -3.387045E-01  5.210091E+01 -3.562312E-02  1.253910E-05
       359   4 -2.696651E+01 -2.455607E+00 -6.458032E-01  5.210341E+01 -4.446401E-01  7.819826E-05
       359   5 -2.694849E+01 -2.406665E+00 -4.191268E-01  5.210341E+01 -2.368532E-01  4.477604E-05
       359   6 -2.696651E+01 -2.393766E+00 -3.366193E-01  5.210342E+01 -2.906931E-02  1.129184E-05
       359   7 -2.693246E+01 -2.448963E+00 -6.466285E-01  5.210794E+01 -4.382732E-01  7.681619E-05
       359   8 -2.689242E+01 -2.395361E+00 -4.186699E-01  5.210693E+01 -2.308609E-01  4.343489E-05
       359   9 -2.688838E+01 -2.377756E+00 -3.346952E-01  5.210592E+01 -2.345158E-02  1.004330E-05
       359  10 -2.700047E+01 -2.462227E+00 -6.449544E-01  5.209887E+01  1.678798E-04  2.217523E-07
       359  11 -2.700446E+01 -2.417946E+00 -4.195603E-01  5.209989E+01  2.399624E-04  2.051449E-07
       359  12 -2.704455E+01 -2.409753E+00 -3.385202E-01  5.210091E+01  3.120119E-04  1.363616E-07
       359  13 -2.696466E+01 -2.455146E+00 -6.453420E-01  5.210341E+01  4.196652E-04 -4.707800E-08
       359  14 -2.694664E+01 -2.406204E+00 -4.186656E-01  5.210341E+01  5.998544E-04 -6.746552E-08
       359  15 -2.696466E+01 -2.393305E+00 -3.361581E-01  5.210342E+01  7.800249E-04 -8.758111E-08
       359  16 -2.693172E+01 -2.448779E+00 -6.464442E-01  5.210794E+01  1.678429E-04 -3.157932E-07
       359  17 -2.689168E+01 -2.395177E+00 -4.184854E-01  5.210693E+01  2.398961E-04 -3.398928E-07
       359  18 -2.688764E+01 -2.377571E+00 -3.345105E-01  5.210592E+01  3.119951E-04 -3.113324E-07
       359  19 -2.699973E+01 -2.462042E+00 -6.447696E-01  5.209887E+01  4.518462E-01 -7.913707E-05
       359  20 -2.700373E+01 -2.417761E+00 -4.193759E-01  5.209989E+01  2.440452E-01 -4.570627E-05
       359  21 -2.704381E+01 -2.409569E+00 -3.383356E-01  5.210091E+01  3.624716E-02 -1.226679E-05
       359  22 -2.696282E+01 -2.454684E+00 -6.448807E-01  5.210341E+01  4.454794E-01 -7.829266E-05
       359  23 -2.694480E+01 -2.405743E+00 -4.182043E-01  5.210341E+01  2.380529E-01 -4.491102E-05
       359  24 -2.696282E+01 -2.392844E+00 -3.356968E-01  5.210342E+01  3.062939E-02 -1.146652E-05
       359  25 -2.693098E+01 -2.448595E+00 -6.462598E-01  5.210794E+01  4.386089E-01 -7.744755E-05
       359  26 -2.689094E+01 -2.394992E+00 -4.183008E-01  5.210693E+01  2.313408E-01 -4.411451E-05
       359  27 -2.688690E+01 -2.377386E+00 -3.343258E-01  5.210592E+01  2.407554E-02 -1.066629E-05
       360   1 -2.705744E+01 -2.412518E+00 -3.394510E-01  5.210149E+01  2.454411E-02  3.190962E-06
       360   2 -2.706122E+01 -2.430311E+00 -4.246388E-01  5.210250E+01  2.349669E-01 -3.132170E-05
       360   3 -2.710153E+01 -2.484630E+00 -6.559311E-01  5.210352E+01  4.453925E-01 -6.651977E-05
       360   4 -2.696592E+01 -2.393618E+00 -3.364718E-01  5.210342E+01  3.070420E-02  2.066918E-06
       360   5 -2.694790E+01 -2.406514E+00 -4.189782E-01  5.210341E+01  2.383863E-01 -3.186765E-05
       360   6 -2.696592E+01 -2.455453E+00 -6.456529E-01  5.210341E+01  4.460717E-01 -6.645925E-05
       360   7 -2.687468E+01 -2.374789E+00 -3.335630E-01  5.210534E+01  3.583761E-02  9.436722E-07
       360   8 -2.683486E+01 -2.382789E+00 -4.133884E-01  5.210432E+01  2.406842E-01 -3.241497E-05
       360   9 -2.683060E+01 -2.426347E+00 -6.354458E-01  5.210330E+01  4.455339E-01 -6.639760E-05
       360  10 -2.705712E+01 -2.412437E+00 -3.393699E-01  5.210149E+01  3.421858E-04  7.792755E-08
       360  11 -2.706090E+01 -2.430230E+00 -4.245576E-01  5.210250E+01  3.739156E-04 -3.950837E-08
       360  12 -2.710120E+01 -2.484549E+00 -6.558499E-01  5.210352E+01  4.055784E-04 -1.864599E-07
       360  13 -2.696511E+01 -2.393415E+00 -3.362689E-01  5.210342E+01  8.555120E-04 -9.590415E-08
       360  14 -2.694709E+01 -2.406312E+00 -4.187753E-01  5.210341E+01  9.347591E-04 -1.049883E-07
       360  15 -2.696511E+01 -2.455250E+00 -6.454498E-01  5.210341E+01  1.014008E-03 -1.136677E-07
       360  16 -2.687436E+01 -2.374708E+00 -3.334822E-01  5.210534E+01  3.422130E-04 -2.699022E-07
       360  17 -2.683453E+01 -2.382708E+00 -4.133073E-01  5.210431E+01  3.738849E-04 -1.703463E-07
       360  18 -2.683027E+01 -2.426266E+00 -6.353644E-01  5.210329E+01  4.056301E-04 -4.102971E-08
       360  19 -2.705679E+01 -2.412355E+00 -3.392887E-01  5.210150E+01 -2.385985E-02 -3.035395E-06
       360  20 -2.706057E+01 -2.430148E+00 -4.244765E-01  5.210251E+01 -2.342190E-01  3.124258E-05
       360  21 -2.710088E+01 -2.484468E+00 -6.557687E-01  5.210352E+01 -4.445814E-01  6.614670E-05
       360  22 -2.696430E+01 -2.393212E+00 -3.360661E-01  5.210342E+01 -2.899321E-02 -2.259355E-06
       360  23 -2.694628E+01 -2.406109E+00 -4.185724E-01  5.210341E+01 -2.365169E-01  3.165752E-05
       360  24 -2.696430E+01 -2.455048E+00 -6.452472E-01  5.210341E+01 -4.440436E-01  6.623167E-05
       360  25 -2.687403E+01 -2.374627E+00 -3.334011E-01  5.210534E+01 -3.515317E-02 -1.482938E-06
       360  26 -2.683421E+01 -2.382627E+00 -4.132261E-01  5.210431E+01 -2.399364E-01  3.207360E-05
       360  27 -2.682995E+01 -2.426185E+00 -6.352835E-01  5.210329E+01 -4.447226E-01  6.631581E-05
       361   1 -2.713016E+01 -2.527770E+00 -8.429899E-01  5.210411E+01  5.784186E-01 -8.902736E-05
       361   2 -2.709013E+01 -2.639588E+00 -1.442115E+00  5.210518E+01  1.293410E+00 -2.112205E-04
       361   3 -2.717425E+01 -2.875566E+00 -2.537874E+00  5.210626E+01  2.008401E+00 -3.360584E-04
       361   4 -2.698223E+01 -2.495488E+00 -8.295094E-01  5.210340E+01  5.769202E-01 -8.852134E-05
       361   5 -2.692119E+01 -2.601009E+00 -1.418153E+00  5.210337E+01  1.279705E+00 -2.086637E-04
       361   6 -2.698223E+01 -2.828612E+00 -2.495123E+00  5.210335E+01  1.982490E+00 -3.316194E-04
       361   7 -2.683287E+01 -2.462846E+00 -8.156696E-01  5.210270E+01  5.743175E-01 -8.801513E-05
       361   8 -2.675083E+01 -2.562071E+00 -1.393833E+00  5.210156E+01  1.265378E+00 -2.061066E-04
       361   9 -2.678879E+01 -2.781300E+00 -2.452013E+00  5.210043E+01  1.956439E+00 -3.271790E-04
       361  10 -2.713181E+01 -2.528181E+00 -8.434012E-01  5.210411E+01  3.680612E-04 -2.643362E-07
       361  11 -2.709177E+01 -2.639999E+00 -1.442526E+00  5.210518E+01  2.074117E-04 -2.571696E-07
       361  12 -2.717589E+01 -2.875977E+00 -2.538286E+00  5.210626E+01  4.675993E-05 -8.235816E-08
       361  13 -2.698635E+01 -2.496516E+00 -8.305377E-01  5.210340E+01  9.201884E-04 -1.032836E-07
       361  14 -2.692531E+01 -2.602037E+00 -1.419182E+00  5.210337E+01  5.185241E-04 -5.831399E-08
       361  15 -2.698635E+01 -2.829641E+00 -2.496151E+00  5.210335E+01  1.168765E-04 -1.302534E-08
       361  16 -2.683451E+01 -2.463258E+00 -8.160810E-01  5.210270E+01  3.680872E-04  5.784652E-08
       361  17 -2.675247E+01 -2.562482E+00 -1.394244E+00  5.210156E+01  2.074133E-04  1.407890E-07
       361  18 -2.679043E+01 -2.781711E+00 -2.452424E+00  5.210043E+01  4.675003E-05  5.612809E-08
       361  19 -2.713345E+01 -2.528592E+00 -8.438127E-01  5.210411E+01 -5.776824E-01  8.849816E-05
       361  20 -2.709342E+01 -2.640411E+00 -1.442937E+00  5.210518E+01 -1.292995E+00  2.107059E-04
       361  21 -2.717754E+01 -2.876389E+00 -2.538697E+00  5.210626E+01 -2.008307E+00  3.358942E-04
       361  22 -2.699046E+01 -2.497544E+00 -8.315658E-01  5.210340E+01 -5.750798E-01  8.831518E-05
       361  23 -2.692942E+01 -2.603065E+00 -1.420210E+00  5.210337E+01 -1.278668E+00  2.085475E-04
       361  24 -2.699046E+01 -2.830669E+00 -2.497179E+00  5.210335E+01 -1.982256E+00  3.315930E-04
       361  25 -2.683616E+01 -2.463669E+00 -8.164925E-01  5.210270E+01 -5.735815E-01  8.813094E-05
       361  26 -2.675412E+01 -2.562893E+00 -1.394655E+00  5.210156E+01 -1.264963E+00  2.063885E-04
       361  27 -2.679208E+01 -2.782122E+00 -2.452836E+00  5.210043E+01 -1.956346E+00  3.272906E-04
       362   1 -2.340835E+05 -1.275180E+06 -2.779779E+05  4.717319E+04 -1.869107E+03 -1.253647E+05
       362   2 -4.886381E+04 -1.208502E+06 -1.635270E+05 -4.062076E+03 -4.936604E+03 -7.941744E+04
       362   3 -6.887483E+04 -1.198528E+06 -1.302144E+05  1.784883E+04 -3.011736E+03 -3.347137E+04
       362   4 -1.429597E+05 -9.108939E+05 -1.870236E+05  2.782738E+04 -1.864707E+03 -1.243167E+05
       362   5  3.256711E+04 -8.826178E+05 -8.258227E+04 -8.774532E+03 -4.935733E+03 -7.932562E+04
       362   6  3.087546E+03 -9.108495E+05 -5.858052E+04  2.776901E+04 -3.013369E+03 -3.433860E+04
       362   7 -5.184448E+04 -5.464862E+05 -9.607903E+04  8.470179E+03 -1.860375E+03 -1.232681E+05
       362   8  1.139901E+05 -5.566371E+05 -1.645451E+03 -1.348949E+04 -4.934864E+03 -7.923375E+04
       362   9  7.504405E+04 -6.230952E+05  1.304715E+04  3.769377E+04 -3.015029E+03 -3.520623E+04
       362  10 -2.340878E+05 -1.275197E+06 -2.780075E+05  4.717301E+04 -1.451182E-10  6.851241E-10
       362  11 -4.886554E+04 -1.208509E+06 -1.635389E+05 -4.062392E+03 -1.787555E-10  8.710312E-11
       362  12 -6.887514E+04 -1.198530E+06 -1.302165E+05  1.784875E+04 -6.637805E-10 -9.138918E-10
       362  13 -1.429639E+05 -9.109105E+05 -1.870526E+05  2.782719E+04 -3.734926E-10  1.680591E-10
       362  14  3.256539E+04 -8.826246E+05 -8.259416E+04 -8.774848E+03  7.546038E-10 -3.961076E-10
       362  15  3.087219E+03 -9.108508E+05 -5.858276E+04  2.776893E+04 -4.133902E-10  1.043812E-10
       362  16 -5.184857E+04 -5.465026E+05 -9.610761E+04  8.469994E+03  2.126139E-10 -6.078143E-10
       362  17  1.139884E+05 -5.566438E+05 -1.657306E+03 -1.348980E+04  6.578955E-10 -1.231993E-10
       362  18  7.504371E+04 -6.230965E+05  1.304480E+04  3.769369E+04  1.512076E-10  8.589199E-10
       362  19 -2.340835E+05 -1.275180E+06 -2.779779E+05  4.717319E+04  1.869107E+03  1.253647E+05
       362  20 -4.886381E+04 -1.208502E+06 -1.635270E+05 -4.062076E+03  4.936604E+03  7.941744E+04
       362  21 -6.887483E+04 -1.198528E+06 -1.302144E+05  1.784883E+04  3.011736E+03  3.347137E+04
       362  22 -1.429597E+05 -9.108939E+05 -1.870236E+05  2.782738E+04  1.864707E+03  1.243167E+05
       362  23  3.256711E+04 -8.826178E+05 -8.258227E+04 -8.774532E+03  4.935733E+03  7.932562E+04
       362  24  3.087546E+03 -9.108495E+05 -5.858052E+04  2.776901E+04  3.013369E+03  3.433860E+04
       362  25 -5.184448E+04 -5.464862E+05 -9.607903E+04  8.470179E+03  1.860375E+03  1.232681E+05
       362  26  1.139901E+05 -5.566371E+05 -1.645451E+03 -1.348949E+04  4.934864E+03  7.923375E+04
       362  27  7.504405E+04 -6.230952E+05  1.304715E+04  3.769377E+04  3.015029E+03  3.520623E+04
       363   1 -3.683428E+04 -9.672038E+05 -6.770426E+04  3.227927E+04 -1.272464E+03 -2.427450E+04
       363   2  1.724273E+03 -9.193047E+05 -4.089295E+04 -9.666398E+03 -3.427802E+02 -6.129433E+03
       363   3 -1.017538E+04 -8.866819E+05 -3.858194E+04  2.536489E+04  6.686169E+02  1.201660E+04
       363   4 -2.048064E+04 -9.016754E+05 -5.146547E+04  2.866217E+04 -1.272574E+03 -2.444481E+04
       363   5  8.038290E+03 -8.940371E+05 -3.461237E+04 -9.830812E+03 -3.430646E+02 -6.314466E+03
       363   6 -1.389704E+04 -9.016731E+05 -4.224789E+04  2.865319E+04  6.683562E+02  1.181567E+04
       363   7 -4.127274E+03 -8.361431E+05 -3.522699E+04  2.504469E+04 -1.272682E+03 -2.461514E+04
       363   8  1.435226E+04 -8.687689E+05 -2.833184E+04 -9.995233E+03 -3.433489E+02 -6.499506E+03
       363   9 -1.761867E+04 -9.166641E+05 -4.591384E+04  3.194141E+04  6.680933E+02  1.161475E+04
       363  10 -3.683444E+04 -9.672045E+05 -6.770537E+04  3.227924E+04  2.178822E-10  9.260029E-11
       363  11  1.724262E+03 -9.193047E+05 -4.089302E+04 -9.666400E+03 -1.002864E-10  6.848792E-10
       363  12 -1.017542E+04 -8.866820E+05 -3.858221E+04  2.536489E+04  6.883113E-10 -3.293880E-10
       363  13 -2.048081E+04 -9.016760E+05 -5.146659E+04  2.866214E+04 -7.661338E-11 -7.557913E-11
       363  14  8.038279E+03 -8.940371E+05 -3.461245E+04 -9.830814E+03 -8.271373E-10  6.235538E-11
       363  15 -1.389708E+04 -9.016732E+05 -4.224815E+04  2.865319E+04 -1.324542E-09  4.127007E-10
       363  16 -4.127439E+03 -8.361437E+05 -3.522813E+04  2.504466E+04  3.740544E-12 -8.101604E-11
       363  17  1.435225E+04 -8.687689E+05 -2.833192E+04 -9.995235E+03  1.414689E-09 -5.174537E-10
       363  18 -1.761871E+04 -9.166642E+05 -4.591410E+04  3.194141E+04  2.206179E-10  1.066309E-10
       363  19 -3.683428E+04 -9.672038E+05 -6.770426E+04  3.227927E+04  1.272464E+03  2.427450E+04
       363  20  1.724273E+03 -9.193047E+05 -4.089295E+04 -9.666398E+03  3.427802E+02  6.129433E+03
       363  21 -1.017538E+04 -8.866819E+05 -3.858194E+04  2.536489E+04 -6.686169E+02 -1.201660E+04
       363  22 -2.048064E+04 -9.016754E+05 -5.146547E+04  2.866217E+04  1.272574E+03  2.444481E+04
       363  23  8.038290E+03 -8.940371E+05 -3.461237E+04 -9.830812E+03  3.430646E+02  6.314466E+03
       363  24 -1.389704E+04 -9.016731E+05 -4.224789E+04  2.865319E+04 -6.683562E+02 -1.181567E+04
       363  25 -4.127274E+03 -8.361431E+05 -3.522699E+04  2.504469E+04  1.272682E+03  2.461514E+04
       363  26  1.435226E+04 -8.687689E+05 -2.833184E+04 -9.995233E+03  3.433489E+02  6.499506E+03
       363  27 -1.761867E+04 -9.166641E+05 -4.591384E+04  3.194141E+04 -6.680933E+02 -1.161475E+04
       364   1  6.031452E+04 -6.684867E+05  1.362310E+04  3.519098E+04  2.355181E+03  2.053935E+04
       364   2  9.241779E+04 -6.095949E+05  9.084283E+03 -1.226259E+04  4.231703E+03  5.219636E+04
       364   3 -2.064315E+04 -5.907496E+05 -5.229056E+04  1.452483E+04  1.640515E+03  8.385995E+04
       364   4  6.113784E+02 -9.072257E+05 -4.582208E+04  2.801492E+04  2.353797E+03  1.973560E+04
       364   5  2.309331E+04 -8.871310E+05 -5.982193E+04 -9.074021E+03  4.232171E+03  5.225694E+04
       364   6 -9.977464E+04 -9.072539E+05 -1.312778E+05  2.808031E+04  1.643021E+03  8.478284E+04
       364   7 -5.909587E+04 -1.145913E+06 -1.052715E+05  2.084161E+04  2.352432E+03  1.893216E+04
       364   8 -4.623690E+04 -1.164597E+06 -1.287339E+05 -5.886898E+03  4.232641E+03  5.231749E+04
       364   9 -1.789130E+05 -1.223667E+06 -2.102724E+05  4.162887E+04  1.645568E+03  8.570524E+04
       364  10  6.031440E+04 -6.684872E+05  1.362230E+04  3.519094E+04 -3.663184E-10  1.489519E-10
       364  11  9.241704E+04 -6.095978E+05  9.079124E+03 -1.226277E+04 -5.105844E-11  2.210034E-10
       364  12 -2.064504E+04 -5.907572E+05 -5.230379E+04  1.452471E+04  1.382932E-10 -7.628451E-11
       364  13  6.112677E+02 -9.072261E+05 -4.582282E+04  2.801489E+04  8.389983E-10 -1.845129E-10
       364  14  2.309256E+04 -8.871339E+05 -5.982710E+04 -9.074199E+03  8.358910E-11 -7.853880E-11
       364  15 -9.977658E+04 -9.072617E+05 -1.312913E+05  2.808020E+04  3.443192E-10 -1.199681E-10
       364  16 -5.909597E+04 -1.145913E+06 -1.052722E+05  2.084157E+04 -8.093473E-10 -4.788914E-11
       364  17 -4.623766E+04 -1.164600E+06 -1.287391E+05 -5.887077E+03  6.226779E-10 -1.908184E-10
       364  18 -1.789150E+05 -1.223675E+06 -2.102863E+05  4.162875E+04  6.106907E-10 -5.778624E-11
       364  19  6.031452E+04 -6.684867E+05  1.362310E+04  3.519098E+04 -2.355181E+03 -2.053935E+04
       364  20  9.241779E+04 -6.095949E+05  9.084283E+03 -1.226259E+04 -4.231703E+03 -5.219636E+04
       364  21 -2.064315E+04 -5.907496E+05 -5.229056E+04  1.452483E+04 -1.640515E+03 -8.385995E+04
       364  22  6.113784E+02 -9.072257E+05 -4.582208E+04  2.801492E+04 -2.353797E+03 -1.973560E+04
       364  23  2.309331E+04 -8.871310E+05 -5.982193E+04 -9.074021E+03 -4.232171E+03 -5.225694E+04
       364  24 -9.977464E+04 -9.072539E+05 -1.312778E+05  2.808031E+04 -1.643021E+03 -8.478284E+04
       364  25 -5.909587E+04 -1.145913E+06 -1.052715E+05  2.084161E+04 -2.352432E+03 -1.893216E+04
       364  26 -4.623690E+04 -1.164597E+06 -1.287339E+05 -5.886898E+03 -4.232641E+03 -5.231749E+04
       364  27 -1.789130E+05 -1.223667E+06 -2.102724E+05  4.162887E+04 -1.645568E+03 -8.570524E+04
       365   1  1.282254E+05  1.089277E+05  4.057901E+04  8.901055E+04  2.830425E+04  2.214122E+04
       365   2  1.236908E+05  6.906136E+04  1.300668E+04  1.077270E+05  1.776920E+04  1.613114E+04
       365   3  1.473865E+05  6.031095E+04  4.824258E+03  1.096231E+05  8.178588E+03  8.860751E+03
       365   4  1.913830E+05  1.208785E+05  5.522588E+04  1.050750E+05  2.979376E+04  2.325646E+04
       365   5  1.685601E+05  8.991023E+04  2.501223E+04  1.249581E+05  1.823852E+04  1.648264E+04
       365   6  1.741866E+05  9.027691E+04  1.507188E+04  1.280213E+05  7.628126E+03  8.448237E+03
       365   7  2.545459E+05  1.328298E+05  6.987283E+04  1.211405E+05  3.128350E+04  2.437171E+04
       365   8  2.134319E+05  1.107596E+05  3.701771E+04  1.421905E+05  1.870789E+04  1.683417E+04
       365   9  2.009876E+05  1.202443E+05  2.531947E+04  1.464208E+05  7.077629E+03  8.035679E+03
       365  10  1.282244E+05  1.089269E+05  4.057658E+04  8.901005E+04 -1.298517E-10  1.833851E-11
       365  11  1.236904E+05  6.906100E+04  1.300560E+04  1.077267E+05 -1.585159E-10  2.018559E-10
       365  12  1.473864E+05  6.031085E+04  4.823985E+03  1.096231E+05  3.021598E-10  1.794092E-11
       365  13  1.913819E+05  1.208777E+05  5.522320E+04  1.050745E+05 -1.214891E-11  3.780617E-12
       365  14  1.685596E+05  8.990985E+04  2.501109E+04  1.249579E+05 -1.818172E-10  9.519896E-11
       365  15  1.741865E+05  9.027682E+04  1.507163E+04  1.280213E+05  1.525588E-10  1.259195E-10
       365  16  2.545447E+05  1.328289E+05  6.986988E+04  1.211399E+05  4.696813E-11 -2.490568E-11
       365  17  2.134315E+05  1.107592E+05  3.701652E+04  1.421902E+05  1.528833E-10  9.248795E-11
       365  18  2.009876E+05  1.202442E+05  2.531926E+04  1.464207E+05 -9.570931E-12  8.692718E-11
       365  19  1.282254E+05  1.089277E+05  4.057901E+04  8.901055E+04 -2.830425E+04 -2.214122E+04
       365  20  1.236908E+05  6.906136E+04  1.300668E+04  1.077270E+05 -1.776920E+04 -1.613114E+04
       365  21  1.473865E+05  6.031095E+04  4.824258E+03  1.096231E+05 -8.178588E+03 -8.860751E+03
       365  22  1.913830E+05  1.208785E+05  5.522588E+04  1.050750E+05 -2.979376E+04 -2.325646E+04
       365  23  1.685601E+05  8.991023E+04  2.501223E+04  1.249581E+05 -1.823852E+04 -1.648264E+04
       365  24  1.741866E+05  9.027691E+04  1.507188E+04  1.280213E+05 -7.628126E+03 -8.448237E+03
       365  25  2.545459E+05  1.328298E+05  6.987283E+04  1.211405E+05 -3.128350E+04 -2.437171E+04
       365  26  2.134319E+05  1.107596E+05  3.701771E+04  1.421905E+05 -1.870789E+04 -1.683417E+04
       365  27  2.009876E+05  1.202443E+05  2.531947E+04  1.464208E+05 -7.077629E+03 -8.035679E+03
       366   1  1.448660E+05  7.347020E+04  3.354036E+03  1.102526E+05  6.267235E+03  6.943976E+03
       366   2  1.477409E+05  7.589164E+04 -2.496829E+02  1.143322E+05  3.695947E+03  4.646247E+03
       366   3  1.557693E+05  7.750582E+04 -8.374233E+02  1.165558E+05  1.167522E+03  2.291353E+03
       366   4  1.743998E+05  9.272359E+04  1.220180E+04  1.241587E+05  6.099098E+03  6.817904E+03
       366   5  1.712617E+05  9.213209E+04  6.942850E+03  1.258292E+05  3.481425E+03  4.485427E+03
       366   6  1.732873E+05  9.074332E+04  4.740007E+03  1.256437E+05  9.066406E+02  2.095795E+03
       366   7  2.039342E+05  1.119772E+05  2.104939E+04  1.380653E+05  5.930951E+03  6.691825E+03
       366   8  1.947830E+05  1.083728E+05  1.413528E+04  1.373265E+05  3.266894E+03  4.324600E+03
       366   9  1.908056E+05  1.039810E+05  1.031740E+04  1.347319E+05  6.457495E+02  1.900230E+03
       366  10  1.448660E+05  7.347014E+04  3.353872E+03  1.102526E+05  2.942043E-10 -9.501020E-11
       366  11  1.477409E+05  7.589162E+04 -2.497491E+02  1.143322E+05  1.008200E-10  2.387053E-10
       366  12  1.557693E+05  7.750581E+04 -8.374357E+02  1.165558E+05  6.598998E-10  4.676418E-10
       366  13  1.743997E+05  9.272353E+04  1.220165E+04  1.241586E+05 -1.028005E-10  1.158176E-10
       366  14  1.712617E+05  9.213207E+04  6.942789E+03  1.258291E+05  5.890532E-10  1.543925E-10
       366  15  1.732873E+05  9.074331E+04  4.739997E+03  1.256437E+05  6.017843E-10  1.551017E-10
       366  16  2.039341E+05  1.119771E+05  2.104924E+04  1.380653E+05  1.881016E-10  2.952864E-10
       366  17  1.947830E+05  1.083727E+05  1.413523E+04  1.373265E+05  1.465839E-12  2.160859E-10
       366  18  1.908056E+05  1.039810E+05  1.031739E+04  1.347319E+05 -4.280459E-10 -2.408311E-10
       366  19  1.448660E+05  7.347020E+04  3.354036E+03  1.102526E+05 -6.267235E+03 -6.943976E+03
       366  20  1.477409E+05  7.589164E+04 -2.496829E+02  1.143322E+05 -3.695947E+03 -4.646247E+03
       366  21  1.557693E+05  7.750582E+04 -8.374233E+02  1.165558E+05 -1.167522E+03 -2.291353E+03
       366  22  1.743998E+05  9.272359E+04  1.220180E+04  1.241587E+05 -6.099098E+03 -6.817904E+03
       366  23  1.712617E+05  9.213209E+04  6.942850E+03  1.258292E+05 -3.481425E+03 -4.485427E+03
       366  24  1.732873E+05  9.074332E+04  4.740007E+03  1.256437E+05 -9.066406E+02 -2.095795E+03
       366  25  2.039342E+05  1.119772E+05  2.104939E+04  1.380653E+05 -5.930951E+03 -6.691825E+03
       366  26  1.947830E+05  1.083728E+05  1.413528E+04  1.373265E+05 -3.266894E+03 -4.324600E+03
       366  27  1.908056E+05  1.039810E+05  1.031740E+04  1.347319E+05 -6.457495E+02 -1.900230E+03
       367   1  1.598582E+05  8.148027E+04  1.216995E+02  1.187798E+05  6.529784E+02  1.618056E+03
       367   2  1.633517E+05  8.657296E+04  1.530401E+03  1.218692E+05 -7.205606E+02  1.165093E+02
       367   3  1.705324E+05  8.890328E+04  4.373489E+03  1.239442E+05 -2.093516E+03 -1.385894E+03
       367   4  1.732794E+05  9.087650E+04  4.228082E+03  1.254035E+05  4.091089E+02  1.435251E+03
       367   5  1.714539E+05  9.228990E+04  4.028252E+03  1.258865E+05 -9.651407E+02 -6.682699E+01
       367   6  1.733157E+05  9.094106E+04  5.263387E+03  1.253552E+05 -2.338776E+03 -1.569736E+03
       367   7  1.867009E+05  1.002729E+05  8.334483E+03  1.320274E+05  1.652302E+02  1.252438E+03
       367   8  1.795562E+05  9.800687E+04  6.526096E+03  1.299040E+05 -1.209725E+03 -2.501665E+02
       367   9  1.760990E+05  9.297882E+04  6.153276E+03  1.267661E+05 -2.584035E+03 -1.753578E+03
       367  10  1.598582E+05  8.148027E+04  1.216938E+02  1.187798E+05  2.013218E-10  1.002838E-10
       367  11  1.633517E+05  8.657296E+04  1.530400E+03  1.218692E+05  6.187653E-11  3.608534E-10
       367  12  1.705324E+05  8.890328E+04  4.373477E+03  1.239442E+05  3.425260E-11  6.335055E-11
       367  13  1.732794E+05  9.087649E+04  4.228078E+03  1.254035E+05  2.609315E-10  2.636167E-10
       367  14  1.714539E+05  9.228990E+04  4.028250E+03  1.258865E+05  2.597334E-10  2.903054E-10
       367  15  1.733157E+05  9.094105E+04  5.263372E+03  1.253552E+05  1.307530E-10  2.335444E-10
       367  16  1.867009E+05  1.002729E+05  8.334480E+03  1.320274E+05 -2.529100E-10  9.057234E-11
       367  17  1.795562E+05  9.800687E+04  6.526093E+03  1.299040E+05 -6.494402E-10  2.547786E-10
       367  18  1.760990E+05  9.297882E+04  6.153258E+03  1.267661E+05 -3.290528E-10  2.543637E-11
       367  19  1.598582E+05  8.148027E+04  1.216995E+02  1.187798E+05 -6.529784E+02 -1.618056E+03
       367  20  1.633517E+05  8.657296E+04  1.530401E+03  1.218692E+05  7.205606E+02 -1.165093E+02
       367  21  1.705324E+05  8.890328E+04  4.373489E+03  1.239442E+05  2.093516E+03  1.385894E+03
       367  22  1.732794E+05  9.087650E+04  4.228082E+03  1.254035E+05 -4.091089E+02 -1.435251E+03
       367  23  1.714539E+05  9.228990E+04  4.028252E+03  1.258865E+05  9.651407E+02  6.682699E+01
       367  24  1.733157E+05  9.094106E+04  5.263387E+03  1.253552E+05  2.338776E+03  1.569736E+03
       367  25  1.867009E+05  1.002729E+05  8.334483E+03  1.320274E+05 -1.652302E+02 -1.252438E+03
       367  26  1.795562E+05  9.800687E+04  6.526096E+03  1.299040E+05  1.209725E+03  2.501665E+02
       367  27  1.760990E+05  9.297882E+04  6.153276E+03  1.267661E+05  2.584035E+03  1.753578E+03
       368   1  1.744019E+05  9.278399E+04  6.935182E+03  1.268806E+05 -2.767316E+03 -2.175182E+03
       368   2  1.785794E+05  9.665411E+04  1.235373E+04  1.291994E+05 -6.669288E+03 -5.565268E+03
       368   3  1.889267E+05  1.010338E+05  2.232945E+04  1.291628E+05 -1.059914E+04 -8.918354E+03
       368   4  1.733417E+05  9.073372E+04  6.353993E+03  1.257565E+05 -3.023053E+03 -2.366872E+03
       368   5  1.711189E+05  9.201105E+04  1.016236E+04  1.257878E+05 -6.894992E+03 -5.734460E+03
       368   6  1.750594E+05  9.379143E+04  1.850191E+04  1.234637E+05 -1.079477E+04 -9.065042E+03
       368   7  1.722815E+05  8.868346E+04  5.772805E+03  1.246325E+05 -3.278790E+03 -2.558560E+03
       368   8  1.636584E+05  8.736799E+04  7.970977E+03  1.223762E+05 -7.120692E+03 -5.903650E+03
       368   9  1.611922E+05  8.654909E+04  1.467432E+04  1.177646E+05 -1.099039E+04 -9.211729E+03
       368  10  1.744019E+05  9.278399E+04  6.935158E+03  1.268806E+05 -3.123326E-11  2.642464E-11
       368  11  1.785793E+05  9.665407E+04  1.235359E+04  1.291993E+05  4.086498E-10  1.085915E-11
       368  12  1.889265E+05  1.010336E+05  2.232909E+04  1.291627E+05  1.123940E-09 -9.907655E-11
       368  13  1.733417E+05  9.073372E+04  6.353966E+03  1.257565E+05  1.793249E-12  1.382442E-11
       368  14  1.711188E+05  9.201100E+04  1.016221E+04  1.257878E+05  4.389127E-10 -5.598844E-11
       368  15  1.750592E+05  9.379131E+04  1.850154E+04  1.234636E+05  2.075004E-10 -2.513689E-11
       368  16  1.722815E+05  8.868345E+04  5.772773E+03  1.246324E+05  1.570742E-12  9.727210E-14
       368  17  1.636583E+05  8.736794E+04  7.970816E+03  1.223762E+05 -6.814942E-11 -2.880107E-10
       368  18  1.611920E+05  8.654897E+04  1.467394E+04  1.177645E+05 -9.504096E-10  1.678430E-10
       368  19  1.744019E+05  9.278399E+04  6.935182E+03  1.268806E+05  2.767316E+03  2.175182E+03
       368  20  1.785794E+05  9.665411E+04  1.235373E+04  1.291994E+05  6.669288E+03  5.565268E+03
       368  21  1.889267E+05  1.010338E+05  2.232945E+04  1.291628E+05  1.059914E+04  8.918354E+03
       368  22  1.733417E+05  9.073372E+04  6.353993E+03  1.257565E+05  3.023053E+03  2.366872E+03
       368  23  1.711189E+05  9.201105E+04  1.016236E+04  1.257878E+05  6.894992E+03  5.734460E+03
       368  24  1.750594E+05  9.379143E+04  1.850191E+04  1.234637E+05  1.079477E+04  9.065042E+03
       368  25  1.722815E+05  8.868346E+04  5.772805E+03  1.246325E+05  3.278790E+03  2.558560E+03
       368  26  1.636584E+05  8.736799E+04  7.970977E+03  1.223762E+05  7.120692E+03  5.903650E+03
       368  27  1.611922E+05  8.654909E+04  1.467432E+04  1.177646E+05  1.099039E+04  9.211729E+03
       369   1  1.818636E+05  1.119605E+05  2.825594E+04  1.407644E+05 -1.283082E+04 -1.100263E+04
       369   2  1.990741E+05  9.447492E+04  4.538904E+04  1.326085E+05 -2.975325E+04 -2.390609E+04
       369   3  2.585339E+05  1.271243E+05  9.429599E+04  9.903777E+04 -4.728846E+04 -3.599200E+04
       369   4  1.747453E+05  9.001478E+04  2.300404E+04  1.294157E+05 -1.327405E+04 -1.133453E+04
       369   5  1.669376E+05  8.859326E+04  3.843532E+04  1.244477E+05 -2.953537E+04 -2.374356E+04
       369   6  2.012357E+05  1.371640E+05  8.506821E+04  9.406505E+04 -4.640843E+04 -3.533600E+04
       369   7  1.676272E+05  6.807005E+04  1.775220E+04  1.180673E+05 -1.371727E+04 -1.166640E+04
       369   8  1.348027E+05  8.271176E+04  3.148165E+04  1.162871E+05 -2.931752E+04 -2.358104E+04
       369   9  1.439432E+05  1.472052E+05  7.584091E+04  8.909179E+04 -4.552853E+04 -3.467997E+04
       369  10  1.818634E+05  1.119604E+05  2.825541E+04  1.407643E+05  2.258813E-09  9.594977E-10
       369  11  1.990730E+05  9.447407E+04  4.538630E+04  1.326080E+05 -5.304645E-09 -3.682141E-09
       369  12  2.585311E+05  1.271223E+05  9.428935E+04  9.903640E+04 -5.798113E-09 -4.026082E-09
       369  13  1.747450E+05  9.001460E+04  2.300347E+04  1.294155E+05 -1.785297E-09 -1.328777E-09
       369  14  1.669365E+05  8.859242E+04  3.843262E+04  1.244471E+05 -5.036899E-09 -3.709395E-09
       369  15  2.012331E+05  1.371620E+05  8.506182E+04  9.406373E+04 -2.210397E-09 -1.461961E-09
       369  16  1.676269E+05  6.806986E+04  1.775159E+04  1.180672E+05 -6.915264E-09 -4.115285E-09
       369  17  1.348016E+05  8.271093E+04  3.147899E+04  1.162865E+05 -5.284919E-09 -3.840148E-09
       369  18  1.439407E+05  1.472033E+05  7.583476E+04  8.909051E+04  1.399873E-09  9.491143E-10
       369  19  1.818636E+05  1.119605E+05  2.825594E+04  1.407644E+05  1.283082E+04  1.100263E+04
       369  20  1.990741E+05  9.447492E+04  4.538904E+04  1.326085E+05  2.975325E+04  2.390609E+04
       369  21  2.585339E+05  1.271243E+05  9.429599E+04  9.903777E+04  4.728846E+04  3.599200E+04
       369  22  1.747453E+05  9.001478E+04  2.300404E+04  1.294157E+05  1.327405E+04  1.133453E+04
       369  23  1.669376E+05  8.859326E+04  3.843532E+04  1.244477E+05  2.953537E+04  2.374356E+04
       369  24  2.012357E+05  1.371640E+05  8.506821E+04  9.406505E+04  4.640843E+04  3.533600E+04
       369  25  1.676272E+05  6.807005E+04  1.775220E+04  1.180673E+05  1.371727E+04  1.166640E+04
       369  26  1.348027E+05  8.271176E+04  3.148165E+04  1.162871E+05  2.931752E+04  2.358104E+04
       369  27  1.439432E+05  1.472052E+05  7.584091E+04  8.909179E+04  4.552853E+04  3.467997E+04
       370   1  1.963430E+05  3.771190E+04  4.233950E+04  1.291665E+04  2.334860E+04 -6.881009E+02
       370   2  1.920674E+05  1.196824E+04  2.440314E+04  4.735511E+03  1.484104E+04 -2.238062E+03
       370   3  1.949152E+05  1.028700E+04  1.801997E+04 -3.223002E+03  6.333846E+03 -2.545779E+03
       370   4  1.476957E+05  2.564230E+04  3.060562E+04  4.322417E+02  2.127835E+04 -6.882364E+02
       370   5  1.442375E+05  2.919118E+02  1.383472E+04  3.190193E+02  1.395451E+04 -2.238049E+03
       370   6  1.476976E+05 -1.200753E+03  7.795635E+03  4.282348E+02  6.630991E+03 -2.545795E+03
       370   7  9.905082E+04  1.357310E+04  1.887167E+04 -1.205119E+04  1.920826E+04 -6.882887E+02
       370   8  9.640975E+04 -1.138449E+04  3.266163E+03 -4.097129E+03  1.306805E+04 -2.238023E+03
       370   9  1.004821E+05 -1.268861E+04 -2.428823E+03  4.079190E+03  6.928115E+03 -2.545808E+03
       370  10  1.963425E+05  3.771176E+04  4.233847E+04  1.291666E+04  2.654250E-10 -3.589328E-11
       370  11  1.920672E+05  1.196817E+04  2.440272E+04  4.735538E+03 -1.379522E-10  8.966480E-11
       370  12  1.949151E+05  1.028699E+04  1.801988E+04 -3.222989E+03 -2.755386E-10 -1.385354E-10
       370  13  1.476952E+05  2.564217E+04  3.060477E+04  4.322535E+02 -1.456716E-10  2.390180E-11
       370  14  1.442373E+05  2.918542E+02  1.383434E+04  3.190444E+02  8.128752E-11 -1.956198E-10
       370  15  1.476975E+05 -1.200772E+03  7.795540E+03  4.282484E+02  5.306799E-11  1.419378E-10
       370  16  9.905042E+04  1.357300E+04  1.887097E+04 -1.205118E+04 -1.954739E-10 -2.782572E-10
       370  17  9.640956E+04 -1.138454E+04  3.265833E+03 -4.097105E+03 -2.781112E-10 -2.352287E-10
       370  18  1.004820E+05 -1.268863E+04 -2.428925E+03  4.079205E+03 -7.771081E-11  8.505108E-11
       370  19  1.963430E+05  3.771190E+04  4.233950E+04  1.291665E+04 -2.334860E+04  6.881009E+02
       370  20  1.920674E+05  1.196824E+04  2.440314E+04  4.735511E+03 -1.484104E+04  2.238062E+03
       370  21  1.949152E+05  1.028700E+04  1.801997E+04 -3.223002E+03 -6.333846E+03  2.545779E+03
       370  22  1.476957E+05  2.564230E+04  3.060562E+04  4.322417E+02 -2.127835E+04  6.882364E+02
       370  23  1.442375E+05  2.919118E+02  1.383472E+04  3.190193E+02 -1.395451E+04  2.238049E+03
       370  24  1.476976E+05 -1.200753E+03  7.795635E+03  4.282348E+02 -6.630991E+03  2.545795E+03
       370  25  9.905082E+04  1.357310E+04  1.887167E+04 -1.205119E+04 -1.920826E+04  6.882887E+02
       370  26  9.640975E+04 -1.138449E+04  3.266163E+03 -4.097129E+03 -1.306805E+04  2.238023E+03
       370  27  1.004821E+05 -1.268861E+04 -2.428823E+03  4.079190E+03 -6.928115E+03  2.545808E+03
       371   1  1.928991E+05  1.268557E+04  1.611233E+04  8.608271E+02  5.619241E+03 -2.422147E+03
       371   2  1.919659E+05  1.116248E+04  1.253132E+04  3.680584E+02  4.269399E+03 -2.453076E+03
       371   3  1.915175E+05  1.087335E+04  1.013760E+04  1.476509E+02  2.919549E+03 -2.425881E+03
       371   4  1.462655E+05  1.329826E+03  5.957645E+03  4.404155E+02  5.561647E+03 -2.422157E+03
       371   5  1.460280E+05 -1.562865E+01  2.569801E+03  3.041510E+02  4.267264E+03 -2.453090E+03
       371   6  1.462658E+05 -1.366915E+02  3.308132E+02  4.402546E+02  2.972870E+03 -2.425898E+03
       371   7  9.963392E+04 -1.002606E+04 -4.197167E+03  2.003581E+01  5.504058E+03 -2.422167E+03
       371   8  1.000921E+05 -1.119388E+04 -7.391840E+03  2.402485E+02  4.265128E+03 -2.453104E+03
       371   9  1.010159E+05 -1.114687E+04 -9.476099E+03  7.328368E+02  3.026187E+03 -2.425915E+03
       371  10  1.928991E+05  1.268556E+04  1.611226E+04  8.608381E+02  3.288236E-10  5.320035E-11
       371  11  1.919658E+05  1.116247E+04  1.253127E+04  3.680668E+02  9.757063E-11 -1.456287E-10
       371  12  1.915175E+05  1.087335E+04  1.013758E+04  1.476567E+02 -8.330161E-11  6.069715E-11
       371  13  1.462655E+05  1.329812E+03  5.957576E+03  4.404263E+02  2.398213E-10 -1.853899E-11
       371  14  1.460279E+05 -1.564000E+01  2.569755E+03  3.041595E+02 -2.497030E-11 -2.628250E-10
       371  15  1.462658E+05 -1.367001E+02  3.307855E+02  4.402605E+02  1.084990E-10  1.153914E-10
       371  16  9.963389E+04 -1.002608E+04 -4.197235E+03  2.004655E+01 -2.305651E-10  8.686549E-11
       371  17  1.000920E+05 -1.119389E+04 -7.391886E+03  2.402570E+02  1.178993E-10  1.187097E-10
       371  18  1.010159E+05 -1.114688E+04 -9.476127E+03  7.328427E+02  3.786581E-10  6.843012E-11
       371  19  1.928991E+05  1.268557E+04  1.611233E+04  8.608271E+02 -5.619241E+03  2.422147E+03
       371  20  1.919659E+05  1.116248E+04  1.253132E+04  3.680584E+02 -4.269399E+03  2.453076E+03
       371  21  1.915175E+05  1.087335E+04  1.013760E+04  1.476509E+02 -2.919549E+03  2.425881E+03
       371  22  1.462655E+05  1.329826E+03  5.957645E+03  4.404155E+02 -5.561647E+03  2.422157E+03
       371  23  1.460280E+05 -1.562865E+01  2.569801E+03  3.041510E+02 -4.267264E+03  2.453090E+03
       371  24  1.462658E+05 -1.366915E+02  3.308132E+02  4.402546E+02 -2.972870E+03  2.425898E+03
       371  25  9.963392E+04 -1.002606E+04 -4.197167E+03  2.003581E+01 -5.504058E+03  2.422167E+03
       371  26  1.000921E+05 -1.119388E+04 -7.391840E+03  2.402485E+02 -4.265128E+03  2.453104E+03
       371  27  1.010159E+05 -1.114687E+04 -9.476099E+03  7.328368E+02 -3.026187E+03  2.425915E+03
       372   1  1.907462E+05  1.101416E+04  9.013098E+03  1.265192E+02  2.979288E+03 -2.401931E+03
       372   2  1.903288E+05  1.072990E+04  6.555876E+03  3.817855E+02  4.436059E+03 -2.352198E+03
       372   3  1.893856E+05  9.097896E+03  2.813683E+03  9.097879E+02  5.892825E+03 -2.252684E+03
       372   4  1.460415E+05  1.378719E+02 -6.718097E+02  4.404133E+02  3.002924E+03 -2.401945E+03
       372   5  1.463087E+05  1.862830E+01 -2.988797E+03  3.039877E+02  4.507022E+03 -2.352216E+03
       372   6  1.460418E+05 -1.456636E+03 -6.623675E+03  4.402993E+02  6.011116E+03 -2.252707E+03
       372   7  1.013386E+05 -1.073854E+04 -1.035684E+04  7.542846E+02  3.026559E+03 -2.401958E+03
       372   8  1.022903E+05 -1.069277E+04 -1.253359E+04  2.261956E+02  4.577980E+03 -2.352234E+03
       372   9  1.026997E+05 -1.201129E+04 -1.606114E+04 -2.915619E+01  6.129398E+03 -2.252730E+03
       372  10  1.907462E+05  1.101415E+04  9.013071E+03  1.265250E+02 -1.987763E-11 -1.285862E-10
       372  11  1.903288E+05  1.072989E+04  6.555829E+03  3.817939E+02 -2.566364E-11 -1.660389E-10
       372  12  1.893856E+05  9.097881E+03  2.813608E+03  9.097986E+02 -1.576082E-10 -1.083372E-10
       372  13  1.460414E+05  1.378632E+02 -6.718375E+02  4.404191E+02  2.102109E-12  4.863894E-11
       372  14  1.463087E+05  1.861691E+01 -2.988846E+03  3.039963E+02 -4.045343E-10 -3.213351E-11
       372  15  1.460417E+05 -1.456651E+03 -6.623752E+03  4.403102E+02  1.568247E-10  7.901064E-11
       372  16  1.013386E+05 -1.073855E+04 -1.035686E+04  7.542904E+02 -2.943359E-10 -1.787233E-11
       372  17  1.022903E+05 -1.069278E+04 -1.253364E+04  2.262042E+02  6.847931E-11 -3.097775E-11
       372  18  1.026996E+05 -1.201131E+04 -1.606122E+04 -2.914507E+01  4.150879E-10  2.131013E-10
       372  19  1.907462E+05  1.101416E+04  9.013098E+03  1.265192E+02 -2.979288E+03  2.401931E+03
       372  20  1.903288E+05  1.072990E+04  6.555876E+03  3.817855E+02 -4.436059E+03  2.352198E+03
       372  21  1.893856E+05  9.097896E+03  2.813683E+03  9.097879E+02 -5.892825E+03  2.252684E+03
       372  22  1.460415E+05  1.378719E+02 -6.718097E+02  4.404133E+02 -3.002924E+03  2.401945E+03
       372  23  1.463087E+05  1.862830E+01 -2.988797E+03  3.039877E+02 -4.507022E+03  2.352216E+03
       372  24  1.460418E+05 -1.456636E+03 -6.623675E+03  4.402993E+02 -6.011116E+03  2.252707E+03
       372  25  1.013386E+05 -1.073854E+04 -1.035684E+04  7.542846E+02 -3.026559E+03  2.401958E+03
       372  26  1.022903E+05 -1.069277E+04 -1.253359E+04  2.261956E+02 -4.577980E+03  2.352234E+03
       372  27  1.026997E+05 -1.201129E+04 -1.606114E+04 -2.915619E+01 -6.129398E+03  2.252730E+03
       373   1  1.873057E+05  1.173407E+04  6.596374E+02 -3.543569E+03  7.378737E+03 -2.314060E+03
       373   2  1.903496E+05  9.952512E+03 -5.899072E+03  5.138084E+03  1.442193E+04 -1.980235E+03
       373   3  1.859865E+05 -1.779482E+04 -2.353330E+04  1.413509E+04  2.146507E+04 -5.986494E+02
       373   4  1.444755E+05  1.314933E+03 -8.611470E+03  4.501604E+02  7.197613E+03 -2.314015E+03
       373   5  1.482671E+05 -3.201894E+02 -1.519006E+04  2.918477E+02  1.523828E+04 -1.980387E+03
       373   6  1.444778E+05 -2.809546E+04 -3.353721E+04  4.491055E+02  2.327886E+04 -5.991668E+02
       373   7  1.016471E+05 -9.104261E+03 -1.788268E+04  4.443611E+03  7.016500E+03 -2.313973E+03
       373   8  1.061862E+05 -1.059292E+04 -2.448114E+04 -4.554056E+03  1.605458E+04 -1.980552E+03
       373   9  1.029711E+05 -3.839551E+04 -4.354113E+04 -1.323596E+04  2.509254E+04 -5.997641E+02
       373  10  1.873056E+05  1.173405E+04  6.595251E+02 -3.543555E+03 -2.137507E-10 -3.386671E-11
       373  11  1.903494E+05  9.952452E+03 -5.899470E+03  5.138107E+03 -2.967949E-10  2.926625E-10
       373  12  1.859860E+05 -1.779495E+04 -2.353417E+04  1.413510E+04 -3.613015E-11  1.013334E-10
       373  13  1.444755E+05  1.314913E+03 -8.611577E+03  4.501738E+02  2.903047E-10  6.414108E-11
       373  14  1.482668E+05 -3.202559E+02 -1.519050E+04  2.918720E+02  1.273212E-10  4.417661E-10
       373  15  1.444772E+05 -2.809560E+04 -3.353823E+04  4.491168E+02  1.716020E-11 -4.846520E-12
       373  16  1.016471E+05 -9.104280E+03 -1.788278E+04  4.443624E+03  3.388791E-10  3.973093E-10
       373  17  1.061859E+05 -1.059299E+04 -2.448163E+04 -4.554031E+03  3.276844E-10  2.066937E-10
       373  18  1.029704E+05 -3.839568E+04 -4.354231E+04 -1.323595E+04 -1.082147E-10 -7.181741E-11
       373  19  1.873057E+05  1.173407E+04  6.596374E+02 -3.543569E+03 -7.378737E+03  2.314060E+03
       373  20  1.903496E+05  9.952512E+03 -5.899072E+03  5.138084E+03 -1.442193E+04  1.980235E+03
       373  21  1.859865E+05 -1.779482E+04 -2.353330E+04  1.413509E+04 -2.146507E+04  5.986494E+02
       373  22  1.444755E+05  1.314933E+03 -8.611470E+03  4.501604E+02 -7.197613E+03  2.314015E+03
       373  23  1.482671E+05 -3.201894E+02 -1.519006E+04  2.918477E+02 -1.523828E+04  1.980387E+03
       373  24  1.444778E+05 -2.809546E+04 -3.353721E+04  4.491055E+02 -2.327886E+04  5.991668E+02
       373  25  1.016471E+05 -9.104261E+03 -1.788268E+04  4.443611E+03 -7.016500E+03  2.313973E+03
       373  26  1.061862E+05 -1.059292E+04 -2.448114E+04 -4.554056E+03 -1.605458E+04  1.980552E+03
       373  27  1.029711E+05 -3.839551E+04 -4.354113E+04 -1.323596E+04 -2.509254E+04  5.997641E+02
       374   1 -1.004469E+05 -4.119350E+05 -9.703867E+04  1.017286E+05 -4.263201E+03 -2.742260E+04
       374   2 -7.069166E+04 -3.151792E+05 -6.010715E+04  9.000673E+04 -1.274869E+04 -9.748510E+03
       374   3 -4.653271E+04 -2.221176E+05 -3.608674E+04  9.842731E+04 -1.174233E+04  7.927128E+03
       374   4 -4.849637E+03 -2.576983E+04 -5.309185E+03  9.879887E+04 -4.254857E+03 -4.318295E+03
       374   5 -1.118194E+03 -2.534806E+04 -2.124460E+03  8.872692E+04 -1.274564E+04 -3.209206E+03
       374   6 -1.044276E+02 -2.575188E+04 -3.419777E+02  9.879719E+04 -1.174651E+04 -2.101648E+03
       374   7  9.073718E+04  3.605335E+05  8.641190E+04  9.586727E+04 -4.246735E+03  1.880032E+04
       374   8  6.845014E+04  2.645634E+05  5.585415E+04  8.744650E+04 -1.274261E+04  3.333091E+03
       374   9  4.632174E+04  1.706516E+05  3.540162E+04  9.916718E+04 -1.175070E+04 -1.213351E+04
       374  10 -1.004471E+05 -4.119358E+05 -9.704012E+04  1.017285E+05  4.822049E-11 -1.765069E-10
       374  11 -7.069186E+04 -3.151793E+05 -6.010763E+04  9.000663E+04 -1.105866E-10 -1.266906E-10
       374  12 -4.653288E+04 -2.221177E+05 -3.608712E+04  9.842738E+04 -2.677486E-10 -1.938119E-11
       374  13 -4.849661E+03 -2.576985E+04 -5.309255E+03  9.879885E+04 -5.602767E-11  1.661094E-10
       374  14 -1.118371E+03 -2.534811E+04 -2.124784E+03  8.872689E+04  8.079939E-10 -1.323422E-11
       374  15 -1.045769E+02 -2.575192E+04 -3.422452E+02  9.879717E+04 -3.732547E-10 -2.241597E-10
       374  16  9.073706E+04  3.605331E+05  8.641120E+04  9.586734E+04  1.832669E-10  6.736806E-11
       374  17  6.844996E+04  2.645633E+05  5.585382E+04  8.744654E+04 -2.005369E-10  1.462631E-10
       374  18  4.632155E+04  1.706514E+05  3.540109E+04  9.916707E+04 -1.181748E-10 -1.553799E-11
       374  19 -1.004469E+05 -4.119350E+05 -9.703867E+04  1.017286E+05  4.263201E+03  2.742260E+04
       374  20 -7.069166E+04 -3.151792E+05 -6.010715E+04  9.000673E+04  1.274869E+04  9.748510E+03
       374  21 -4.653271E+04 -2.221176E+05 -3.608674E+04  9.842731E+04  1.174233E+04 -7.927128E+03
       374  22 -4.849637E+03 -2.576983E+04 -5.309185E+03  9.879887E+04  4.254857E+03  4.318295E+03
       374  23 -1.118194E+03 -2.534806E+04 -2.124460E+03  8.872692E+04  1.274564E+04  3.209206E+03
       374  24 -1.044276E+02 -2.575188E+04 -3.419777E+02  9.879719E+04  1.174651E+04  2.101648E+03
       374  25  9.073718E+04  3.605335E+05  8.641190E+04  9.586727E+04  4.246735E+03 -1.880032E+04
       374  26  6.845014E+04  2.645634E+05  5.585415E+04  8.744650E+04  1.274261E+04 -3.333091E+03
       374  27  4.632174E+04  1.706516E+05  3.540162E+04  9.916718E+04  1.175070E+04  1.213351E+04
       375   1 -3.193581E+04 -1.599851E+05 -2.394774E+04  9.881101E+04 -8.146534E+03  7.037168E+03
       375   2 -9.050773E+03 -6.524090E+04 -4.576471E+03  8.872150E+04 -2.804059E+03  6.267936E+03
       375   3  1.435371E+04  2.972792E+04  1.542079E+04  9.935612E+04  2.708679E+03  5.498383E+03
       375   4 -1.650840E+02 -2.550503E+04  4.104007E+02  9.892670E+04 -8.150662E+03 -2.142928E+03
       375   5  2.121418E+02 -2.563763E+04  2.133538E+03  8.856441E+04 -2.808453E+03 -3.210087E+03
       375   6  1.161000E+03 -2.550250E+04  4.689677E+03  9.892612E+04  2.703999E+03 -4.277458E+03
       375   7  3.160468E+04  1.089928E+05  2.476814E+04  9.904241E+04 -8.154793E+03 -1.132496E+04
       375   8  9.475022E+03  1.396737E+04  8.843833E+03  8.840730E+04 -2.812842E+03 -1.268869E+04
       375   9 -1.203184E+04 -8.072978E+04 -6.041216E+03  9.849615E+04  2.699331E+03 -1.405245E+04
       375  10 -3.193590E+04 -1.599852E+05 -2.394795E+04  9.881106E+04 -3.072263E-10 -1.146903E-10
       375  11 -9.050792E+03 -6.524094E+04 -4.576560E+03  8.872152E+04 -4.129271E-10  3.513671E-10
       375  12  1.435369E+04  2.972789E+04  1.542071E+04  9.935611E+04  5.321981E-11  5.700443E-10
       375  13 -1.651566E+02 -2.550505E+04  4.102673E+02  9.892669E+04 -1.592161E-10  2.318146E-10
       375  14  2.121305E+02 -2.563764E+04  2.133503E+03  8.856440E+04 -7.311629E-10  1.248871E-10
       375  15  1.160987E+03 -2.550252E+04  4.689629E+03  9.892613E+04 -1.512152E-10 -3.081969E-13
       375  16  3.160457E+04  1.089927E+05  2.476777E+04  9.904234E+04 -8.949364E-11  2.545678E-10
       375  17  9.474971E+03  1.396720E+04  8.843516E+03  8.840727E+04  6.652210E-10 -9.546309E-11
       375  18 -1.203190E+04 -8.073000E+04 -6.041601E+03  9.849618E+04  2.610092E-10 -6.456143E-10
       375  19 -3.193581E+04 -1.599851E+05 -2.394774E+04  9.881101E+04  8.146534E+03 -7.037168E+03
       375  20 -9.050773E+03 -6.524090E+04 -4.576471E+03  8.872150E+04  2.804059E+03 -6.267936E+03
       375  21  1.435371E+04  2.972792E+04  1.542079E+04  9.935612E+04 -2.708679E+03 -5.498383E+03
       375  22 -1.650840E+02 -2.550503E+04  4.104007E+02  9.892670E+04  8.150662E+03  2.142928E+03
       375  23  2.121418E+02 -2.563763E+04  2.133538E+03  8.856441E+04  2.808453E+03  3.210087E+03
       375  24  1.161000E+03 -2.550250E+04  4.689677E+03  9.892612E+04 -2.703999E+03  4.277458E+03
       375  25  3.160468E+04  1.089928E+05  2.476814E+04  9.904241E+04  8.154793E+03  1.132496E+04
       375  26  9.475022E+03  1.396737E+04  8.843833E+03  8.840730E+04  2.812842E+03  1.268869E+04
       375  27 -1.203184E+04 -8.072978E+04 -6.041216E+03  9.849615E+04 -2.699331E+03  1.405245E+04
       376   1  2.874732E+04  9.236885E+04  2.835776E+04  9.773533E+04  6.407507E+03  5.344640E+03
       376   2  5.610627E+04  1.841273E+05  5.494475E+04  9.526496E+04  8.545232E+03 -1.420130E+04
       376   3  9.854750E+04  2.821991E+05  9.802228E+04  1.130665E+05  3.027354E+03 -3.374842E+04
       376   4  9.444796E+02 -2.467792E+04  6.379426E+03  9.882641E+04  6.402699E+03 -5.089240E+03
       376   5  5.348008E+03 -2.667801E+04  1.196989E+04  8.868670E+04  8.546862E+03 -1.126224E+04
       376   6  2.251612E+04 -2.469067E+04  2.476759E+04  9.881826E+04  3.034711E+03 -1.743350E+04
       376   7 -2.685910E+04 -1.417112E+05 -1.559910E+04  9.991728E+04  6.397855E+03 -1.552120E+04
       376   8 -4.541287E+04 -2.374410E+05 -3.100725E+04  8.211071E+04  8.548431E+03 -8.324159E+03
       376   9 -5.352117E+04 -3.314931E+05 -4.849263E+04  8.457707E+04  3.041320E+03 -1.126597E+03
       376  10  2.874727E+04  9.236881E+04  2.835763E+04  9.773530E+04  5.219581E-11 -4.403602E-10
       376  11  5.610614E+04  1.841271E+05  5.494423E+04  9.526506E+04 -2.645400E-10  1.227174E-10
       376  12  9.854719E+04  2.821979E+05  9.802012E+04  1.130666E+05 -1.641079E-10  1.619585E-10
       376  13  9.444286E+02 -2.467796E+04  6.379300E+03  9.882644E+04  2.712833E-10  9.295703E-11
       376  14  5.347895E+03 -2.667816E+04  1.196952E+04  8.868678E+04 -2.074549E-10  2.469518E-10
       376  15  2.251603E+04 -2.469100E+04  2.476700E+04  9.881830E+04 -1.058605E-10 -1.050916E-10
       376  16 -2.685920E+04 -1.417115E+05 -1.559963E+04  9.991736E+04 -1.325369E-11  4.864746E-10
       376  17 -4.541297E+04 -2.374411E+05 -3.100752E+04  8.211076E+04  2.505318E-10  2.775494E-10
       376  18 -5.352118E+04 -3.314931E+05 -4.849265E+04  8.457707E+04 -6.866506E-11 -2.719337E-10
       376  19  2.874732E+04  9.236885E+04  2.835776E+04  9.773533E+04 -6.407507E+03 -5.344640E+03
       376  20  5.610627E+04  1.841273E+05  5.494475E+04  9.526496E+04 -8.545232E+03  1.420130E+04
       376  21  9.854750E+04  2.821991E+05  9.802228E+04  1.130665E+05 -3.027354E+03  3.374842E+04
       376  22  9.444796E+02 -2.467792E+04  6.379426E+03  9.882641E+04 -6.402699E+03  5.089240E+03
       376  23  5.348008E+03 -2.667801E+04  1.196989E+04  8.868670E+04 -8.546862E+03  1.126224E+04
       376  24  2.251612E+04 -2.469067E+04  2.476759E+04  9.881826E+04 -3.034711E+03  1.743350E+04
       376  25 -2.685910E+04 -1.417112E+05 -1.559910E+04  9.991728E+04 -6.397855E+03  1.552120E+04
       376  26 -4.541287E+04 -2.374410E+05 -3.100725E+04  8.211071E+04 -8.548431E+03  8.324159E+03
       376  27 -5.352117E+04 -3.314931E+05 -4.849263E+04  8.457707E+04 -3.041320E+03  1.126597E+03
       377   1  1.559468E+05  1.249582E+05  4.933606E+04  1.015226E+05  2.858013E+04  2.161302E+04
       377   2  1.455345E+05  8.427455E+04  2.059435E+04  1.189625E+05  1.850774E+04  1.440648E+04
       377   3  1.635478E+05  7.900792E+04  1.235847E+04  1.188129E+05  8.648881E+03  6.914924E+03
       377   4  1.807819E+05  1.181322E+05  5.288329E+04  1.025385E+05  2.879362E+04  2.177201E+04
       377   5  1.585426E+05  8.615608E+04  2.341677E+04  1.220188E+05  1.855406E+04  1.444099E+04
       377   6  1.647644E+05  8.963214E+04  1.460034E+04  1.239099E+05  8.528336E+03  6.824683E+03
       377   7  2.056180E+05  1.113068E+05  5.643062E+04  1.035542E+05  2.900713E+04  2.193099E+04
       377   8  1.715508E+05  8.803762E+04  2.623918E+04  1.250751E+05  1.860038E+04  1.447550E+04
       377   9  1.659810E+05  1.002565E+05  1.684221E+04  1.290068E+05  8.407792E+03  6.734438E+03
       377  10  1.559458E+05  1.249574E+05  4.933365E+04  1.015221E+05 -3.578580E-10 -3.465833E-10
       377  11  1.455340E+05  8.427424E+04  2.059331E+04  1.189622E+05  2.384210E-09  1.482949E-09
       377  12  1.635477E+05  7.900785E+04  1.235824E+04  1.188129E+05  5.252242E-09  4.502918E-09
       377  13  1.807809E+05  1.181315E+05  5.288084E+04  1.025380E+05 -1.111021E-10 -2.742204E-10
       377  14  1.585421E+05  8.615576E+04  2.341573E+04  1.220186E+05  1.837903E-11 -2.352308E-10
       377  15  1.647643E+05  8.963207E+04  1.460012E+04  1.239098E+05  2.503402E-09  2.453204E-09
       377  16  2.056170E+05  1.113060E+05  5.642813E+04  1.035537E+05  1.386374E-10 -2.339409E-10
       377  17  1.715504E+05  8.803730E+04  2.623814E+04  1.250749E+05 -1.559873E-09 -1.713717E-09
       377  18  1.659809E+05  1.002565E+05  1.684200E+04  1.290067E+05 -1.407412E-10  5.176401E-10
       377  19  1.559468E+05  1.249582E+05  4.933606E+04  1.015226E+05 -2.858013E+04 -2.161302E+04
       377  20  1.455345E+05  8.427455E+04  2.059435E+04  1.189625E+05 -1.850774E+04 -1.440648E+04
       377  21  1.635478E+05  7.900792E+04  1.235847E+04  1.188129E+05 -8.648881E+03 -6.914924E+03
       377  22  1.807819E+05  1.181322E+05  5.288329E+04  1.025385E+05 -2.879362E+04 -2.177201E+04
       377  23  1.585426E+05  8.615608E+04  2.341677E+04  1.220188E+05 -1.855406E+04 -1.444099E+04
       377  24  1.647644E+05  8.963214E+04  1.460034E+04  1.239099E+05 -8.528336E+03 -6.824683E+03
       377  25  2.056180E+05  1.113068E+05  5.643062E+04  1.035542E+05 -2.900713E+04 -2.193099E+04
       377  26  1.715508E+05  8.803762E+04  2.623918E+04  1.250751E+05 -1.860038E+04 -1.447550E+04
       377  27  1.659810E+05  1.002565E+05  1.684221E+04  1.290068E+05 -8.407792E+03 -6.734438E+03
       378   1  1.591828E+05  9.034046E+04  1.039398E+04  1.175348E+05  6.836598E+03  5.418498E+03
       378   2  1.589752E+05  8.835918E+04  5.542715E+03  1.201241E+05  4.234659E+03  3.363565E+03
       378   3  1.630331E+05  8.848942E+04  4.037905E+03  1.207653E+05  1.645973E+03  1.290899E+03
       378   4  1.652260E+05  9.261066E+04  1.197074E+04  1.195973E+05  6.802868E+03  5.393189E+03
       378   5  1.623528E+05  9.023817E+04  6.538693E+03  1.215580E+05  4.190558E+03  3.330498E+03
       378   6  1.637474E+05  8.997941E+04  4.462063E+03  1.215705E+05  1.591508E+03  1.250069E+03
       378   7  1.712691E+05  9.488087E+04  1.354750E+04  1.216598E+05  6.769137E+03  5.367879E+03
       378   8  1.657305E+05  9.211716E+04  7.534673E+03  1.229918E+05  4.146455E+03  3.297431E+03
       378   9  1.644617E+05  9.146943E+04  4.886224E+03  1.223757E+05  1.537042E+03  1.209238E+03
       378  10  1.591828E+05  9.034042E+04  1.039383E+04  1.175348E+05 -3.353670E-10  5.168994E-10
       378  11  1.589752E+05  8.835916E+04  5.542660E+03  1.201241E+05 -1.249832E-09 -1.370542E-09
       378  12  1.630331E+05  8.848941E+04  4.037896E+03  1.207653E+05  4.204623E-10 -1.735221E-10
       378  13  1.652259E+05  9.261062E+04  1.197060E+04  1.195973E+05  2.501895E-09  2.611696E-09
       378  14  1.623528E+05  9.023815E+04  6.538639E+03  1.215580E+05  5.956895E-10  1.475320E-10
       378  15  1.637474E+05  8.997941E+04  4.462055E+03  1.215705E+05  4.457908E-10 -4.296418E-10
       378  16  1.712691E+05  9.488082E+04  1.354736E+04  1.216597E+05  5.254917E-09  4.779682E-09
       378  17  1.657305E+05  9.211715E+04  7.534620E+03  1.229918E+05  1.942490E-09  1.265508E-09
       378  18  1.644617E+05  9.146942E+04  4.886216E+03  1.223757E+05 -4.719461E-10 -1.013109E-09
       378  19  1.591828E+05  9.034046E+04  1.039398E+04  1.175348E+05 -6.836598E+03 -5.418498E+03
       378  20  1.589752E+05  8.835918E+04  5.542715E+03  1.201241E+05 -4.234659E+03 -3.363565E+03
       378  21  1.630331E+05  8.848942E+04  4.037905E+03  1.207653E+05 -1.645973E+03 -1.290899E+03
       378  22  1.652260E+05  9.261066E+04  1.197074E+04  1.195973E+05 -6.802868E+03 -5.393189E+03
       378  23  1.623528E+05  9.023817E+04  6.538693E+03  1.215580E+05 -4.190558E+03 -3.330498E+03
       378  24  1.637474E+05  8.997941E+04  4.462063E+03  1.215705E+05 -1.591508E+03 -1.250069E+03
       378  25  1.712691E+05  9.488087E+04  1.354750E+04  1.216598E+05 -6.769137E+03 -5.367879E+03
       378  26  1.657305E+05  9.211716E+04  7.534673E+03  1.229918E+05 -4.146455E+03 -3.297431E+03
       378  27  1.644617E+05  9.146943E+04  4.886224E+03  1.223757E+05 -1.537042E+03 -1.209238E+03
       379   1  1.643883E+05  9.091486E+04  4.210480E+03  1.216350E+05  1.084148E+03  7.875005E+02
       379   2  1.652475E+05  9.240937E+04  4.402049E+03  1.227967E+05 -2.817872E+02 -3.687290E+02
       379   3  1.683125E+05  9.322910E+04  6.016046E+03  1.232529E+05 -1.648082E+03 -1.524447E+03
       379   4  1.637680E+05  9.021164E+04  3.953216E+03  1.212079E+05  1.034601E+03  7.503546E+02
       379   5  1.626889E+05  9.059142E+04  3.572897E+03  1.215289E+05 -3.310380E+02 -4.056524E+02
       379   6  1.638156E+05  9.029640E+04  4.614765E+03  1.211443E+05 -1.697035E+03 -1.561148E+03
       379   7  1.631477E+05  8.950842E+04  3.695955E+03  1.207808E+05  9.850543E+02  7.132090E+02
       379   8  1.601303E+05  8.877349E+04  2.743747E+03  1.202610E+05 -3.802882E+02 -4.425755E+02
       379   9  1.593187E+05  8.736370E+04  3.213481E+03  1.190358E+05 -1.745987E+03 -1.597849E+03
       379  10  1.643883E+05  9.091486E+04  4.210476E+03  1.216350E+05  1.370529E-10 -1.711425E-10
       379  11  1.652475E+05  9.240937E+04  4.402049E+03  1.227967E+05 -7.643161E-11 -2.599813E-10
       379  12  1.683125E+05  9.322910E+04  6.016037E+03  1.232529E+05 -1.491832E-10 -1.668606E-11
       379  13  1.637680E+05  9.021164E+04  3.953213E+03  1.212079E+05  2.089498E-10 -2.843186E-10
       379  14  1.626889E+05  9.059142E+04  3.572897E+03  1.215289E+05  1.058579E-10  2.455392E-10
       379  15  1.638156E+05  9.029639E+04  4.614755E+03  1.211443E+05  4.798508E-11 -1.067216E-10
       379  16  1.631477E+05  8.950842E+04  3.695952E+03  1.207808E+05  5.207402E-10 -2.210067E-10
       379  17  1.601303E+05  8.877349E+04  2.743747E+03  1.202610E+05  2.856810E-10 -2.425622E-10
       379  18  1.593187E+05  8.736370E+04  3.213471E+03  1.190358E+05  1.478535E-10 -3.879979E-10
       379  19  1.643883E+05  9.091486E+04  4.210480E+03  1.216350E+05 -1.084148E+03 -7.875005E+02
       379  20  1.652475E+05  9.240937E+04  4.402049E+03  1.227967E+05  2.817872E+02  3.687290E+02
       379  21  1.683125E+05  9.322910E+04  6.016046E+03  1.232529E+05  1.648082E+03  1.524447E+03
       379  22  1.637680E+05  9.021164E+04  3.953216E+03  1.212079E+05 -1.034601E+03 -7.503546E+02
       379  23  1.626889E+05  9.059142E+04  3.572897E+03  1.215289E+05  3.310380E+02  4.056524E+02
       379  24  1.638156E+05  9.029640E+04  4.614765E+03  1.211443E+05  1.697035E+03  1.561148E+03
       379  25  1.631477E+05  8.950842E+04  3.695955E+03  1.207808E+05 -9.850543E+02 -7.132090E+02
       379  26  1.601303E+05  8.877349E+04  2.743747E+03  1.202610E+05  3.802882E+02  4.425755E+02
       379  27  1.593187E+05  8.736370E+04  3.213481E+03  1.190358E+05  1.745987E+03  1.597849E+03
       380   1  1.694196E+05  9.529790E+04  7.555463E+03  1.250694E+05 -2.314028E+03 -2.107534E+03
       380   2  1.707948E+05  9.549450E+04  1.117857E+04  1.255096E+05 -5.739290E+03 -4.806804E+03
       380   3  1.773798E+05  9.904448E+04  1.923841E+04  1.234754E+05 -9.183815E+03 -7.480477E+03
       380   4  1.637946E+05  8.996701E+04  5.473554E+03  1.216689E+05 -2.370549E+03 -2.149903E+03
       380   5  1.621945E+05  9.007716E+04  8.522765E+03  1.215673E+05 -5.780803E+03 -4.837935E+03
       380   6  1.658010E+05  9.353748E+04  1.599576E+04  1.189912E+05 -9.210276E+03 -7.500356E+03
       380   7  1.581696E+05  8.463612E+04  3.391626E+03  1.182683E+05 -2.427069E+03 -2.192271E+03
       380   8  1.535943E+05  8.465985E+04  5.866950E+03  1.176249E+05 -5.822315E+03 -4.869064E+03
       380   9  1.542225E+05  8.803054E+04  1.275312E+04  1.145071E+05 -9.236736E+03 -7.520234E+03
       380  10  1.694196E+05  9.529789E+04  7.555445E+03  1.250694E+05  2.551457E-11  7.705527E-12
       380  11  1.707948E+05  9.549447E+04  1.117847E+04  1.255096E+05  3.501129E-10  2.049779E-10
       380  12  1.773797E+05  9.904440E+04  1.923815E+04  1.234753E+05 -6.938863E-10 -3.777689E-10
       380  13  1.637946E+05  8.996700E+04  5.473535E+03  1.216688E+05  1.767515E-10  5.083115E-10
       380  14  1.621945E+05  9.007713E+04  8.522658E+03  1.215672E+05  1.857316E-11  2.371659E-10
       380  15  1.658009E+05  9.353740E+04  1.599549E+04  1.189911E+05 -2.165915E-09 -1.048688E-09
       380  16  1.581696E+05  8.463611E+04  3.391606E+03  1.182683E+05  5.765951E-10  1.985813E-10
       380  17  1.535943E+05  8.465982E+04  5.866842E+03  1.176249E+05 -1.137207E-09 -1.705227E-10
       380  18  1.542224E+05  8.803045E+04  1.275285E+04  1.145070E+05 -3.215056E-09 -1.966263E-09
       380  19  1.694196E+05  9.529790E+04  7.555463E+03  1.250694E+05  2.314028E+03  2.107534E+03
       380  20  1.707948E+05  9.549450E+04  1.117857E+04  1.255096E+05  5.739290E+03  4.806804E+03
       380  21  1.773798E+05  9.904448E+04  1.923841E+04  1.234754E+05  9.183815E+03  7.480477E+03
       380  22  1.637946E+05  8.996701E+04  5.473554E+03  1.216689E+05  2.370549E+03  2.149903E+03
       380  23  1.621945E+05  9.007716E+04  8.522765E+03  1.215673E+05  5.780803E+03  4.837935E+03
       380  24  1.658010E+05  9.353748E+04  1.599576E+04  1.189912E+05  9.210276E+03  7.500356E+03
       380  25  1.581696E+05  8.463612E+04  3.391626E+03  1.182683E+05  2.427069E+03  2.192271E+03
       380  26  1.535943E+05  8.465985E+04  5.866950E+03  1.176249E+05  5.822315E+03  4.869064E+03
       380  27  1.542225E+05  8.803054E+04  1.275312E+04  1.145071E+05  9.236736E+03  7.520234E+03
       381   1  1.695288E+05  1.057924E+05  2.349585E+04  1.330473E+05 -1.137737E+04 -9.290171E+03
       381   2  1.766969E+05  8.858574E+04  3.605723E+04  1.273519E+05 -2.516006E+04 -1.970795E+04
       381   3  2.218258E+05  1.198364E+05  7.669798E+04  9.805410E+04 -3.925262E+04 -2.971269E+04
       381   4  1.651795E+05  8.951524E+04  1.959338E+04  1.248198E+05 -1.152947E+04 -9.403963E+03
       381   5  1.570429E+05  8.455829E+04  3.156857E+04  1.221885E+05 -2.507063E+04 -1.964129E+04
       381   6  1.868147E+05  1.280072E+05  7.141436E+04  9.595473E+04 -3.892119E+04 -2.946619E+04
       381   7  1.608304E+05  7.323857E+04  1.569092E+04  1.165924E+05 -1.168156E+04 -9.517748E+03
       381   8  1.373893E+05  8.053086E+04  2.707990E+04  1.170251E+05 -2.498121E+04 -1.957463E+04
       381   9  1.518054E+05  1.361788E+05  6.613089E+04  9.385504E+04 -3.858978E+04 -2.921967E+04
       381  10  1.695287E+05  1.057923E+05  2.349544E+04  1.330473E+05 -2.983021E-09 -1.831998E-09
       381  11  1.766961E+05  8.858516E+04  3.605531E+04  1.273515E+05 -6.889010E-10 -6.910216E-11
       381  12  2.218239E+05  1.198350E+05  7.669343E+04  9.805316E+04  4.238395E-10  4.910516E-10
       381  13  1.651794E+05  8.951511E+04  1.959296E+04  1.248197E+05 -1.985839E-09 -1.393168E-09
       381  14  1.570421E+05  8.455770E+04  3.156667E+04  1.221881E+05  2.094669E-10 -1.260972E-10
       381  15  1.868128E+05  1.280058E+05  7.140988E+04  9.595380E+04  3.233246E-10  1.174387E-10
       381  16  1.608302E+05  7.323843E+04  1.569049E+04  1.165923E+05 -7.663545E-10 -7.317337E-10
       381  17  1.373885E+05  8.053028E+04  2.707801E+04  1.170247E+05  9.606757E-10  3.739435E-10
       381  18  1.518035E+05  1.361774E+05  6.612649E+04  9.385414E+04  2.946811E-10 -5.548349E-11
       381  19  1.695288E+05  1.057924E+05  2.349585E+04  1.330473E+05  1.137737E+04  9.290171E+03
       381  20  1.766969E+05  8.858574E+04  3.605723E+04  1.273519E+05  2.516006E+04  1.970795E+04
       381  21  2.218258E+05  1.198364E+05  7.669798E+04  9.805410E+04  3.925262E+04  2.971269E+04
       381  22  1.651795E+05  8.951524E+04  1.959338E+04  1.248198E+05  1.152947E+04  9.403963E+03
       381  23  1.570429E+05  8.455829E+04  3.156857E+04  1.221885E+05  2.507063E+04  1.964129E+04
       381  24  1.868147E+05  1.280072E+05  7.141436E+04  9.595473E+04  3.892119E+04  2.946619E+04
       381  25  1.608304E+05  7.323857E+04  1.569092E+04  1.165924E+05  1.168156E+04  9.517748E+03
       381  26  1.373893E+05  8.053086E+04  2.707990E+04  1.170251E+05  2.498121E+04  1.957463E+04
       381  27  1.518054E+05  1.361788E+05  6.613089E+04  9.385504E+04  3.858978E+04  2.921967E+04
       382   1  8.153846E+05  1.272428E+05  1.198079E+05  1.316226E+05  3.705986E+04 -5.914170E+03
       382   2  7.094741E+05  1.014061E+05  7.795309E+04  1.254157E+05  1.265257E+04 -1.875586E+04
       382   3  6.071661E+05  7.720298E+04  5.238369E+04  1.360462E+05 -1.174987E+04 -1.995977E+04
       382   4  2.719644E+05 -6.784892E+03 -7.263923E+03  1.361266E+05 -5.073669E+03 -5.923565E+03
       382   5  2.724617E+05 -2.271305E+03 -3.678860E+03  1.277068E+05 -3.191360E+03 -1.876127E+04
       382   6  2.719935E+05 -6.836552E+02 -2.050041E+03  1.361252E+05 -1.308134E+03 -1.995723E+04
       382   7 -2.711802E+05 -1.408325E+05 -1.343492E+05  1.406266E+05 -4.717059E+04 -5.933578E+03
       382   8 -1.643657E+05 -1.059596E+05 -8.531806E+04  1.299961E+05 -1.902443E+04 -1.876679E+04
       382   9 -6.306762E+04 -7.857594E+04 -5.648649E+04  1.362041E+05  9.128169E+03 -1.995468E+04
       382  10  8.153831E+05  1.272424E+05  1.198053E+05  1.316228E+05 -1.053007E-09  1.138672E-10
       382  11  7.094739E+05  1.014057E+05  7.795212E+04  1.254159E+05 -1.024388E-09 -1.723464E-10
       382  12  6.071658E+05  7.720252E+04  5.238268E+04  1.360460E+05 -5.671368E-10 -5.162247E-10
       382  13  2.719643E+05 -6.784937E+03 -7.264037E+03  1.361266E+05 -1.065411E-10  1.379756E-10
       382  14  2.724616E+05 -2.271685E+03 -3.679540E+03  1.277067E+05 -1.950940E-10  2.871155E-10
       382  15  2.719934E+05 -6.840834E+02 -2.050793E+03  1.361252E+05  6.104417E-11 -5.726421E-10
       382  16 -2.711826E+05 -1.408332E+05 -1.343535E+05  1.406263E+05  1.018191E-09  1.763683E-10
       382  17 -1.643662E+05 -1.059601E+05 -8.531940E+04  1.299959E+05  4.657385E-10  1.826935E-10
       382  18 -6.306782E+04 -7.857639E+04 -5.648740E+04  1.362042E+05  6.109352E-10 -3.226797E-10
       382  19  8.153846E+05  1.272428E+05  1.198079E+05  1.316226E+05 -3.705986E+04  5.914170E+03
       382  20  7.094741E+05  1.014061E+05  7.795309E+04  1.254157E+05 -1.265257E+04  1.875586E+04
       382  21  6.071661E+05  7.720298E+04  5.238369E+04  1.360462E+05  1.174987E+04  1.995977E+04
       382  22  2.719644E+05 -6.784892E+03 -7.263923E+03  1.361266E+05  5.073669E+03  5.923565E+03
       382  23  2.724617E+05 -2.271305E+03 -3.678860E+03  1.277068E+05  3.191360E+03  1.876127E+04
       382  24  2.719935E+05 -6.836552E+02 -2.050041E+03  1.361252E+05  1.308134E+03  1.995723E+04
       382  25 -2.711802E+05 -1.408325E+05 -1.343492E+05  1.406266E+05  4.717059E+04  5.933578E+03
       382  26 -1.643657E+05 -1.059596E+05 -8.531806E+04  1.299961E+05  1.902443E+04  1.876679E+04
       382  27 -6.306762E+04 -7.857594E+04 -5.648649E+04  1.362041E+05 -9.128169E+03  1.995468E+04
       383   1  5.419467E+05  6.199183E+04  4.119488E+04  1.360492E+05 -1.195604E+04 -1.677027E+04
       383   2  4.377554E+05  3.794161E+04  2.379870E+04  1.273608E+05 -1.442410E+04 -1.127889E+04
       383   3  3.339516E+05  1.412531E+04  8.065598E+03  1.363501E+05 -1.689246E+04 -4.473714E+03
       383   4  2.721846E+05 -4.902961E+02 -1.583361E+03  1.363118E+05 -1.037626E+03 -1.676698E+04
       383   5  2.722593E+05 -1.028798E+02 -9.970045E+02  1.274727E+05 -5.404123E+02 -1.127391E+04
       383   6  2.721962E+05  4.257045E+00 -8.062291E+02  1.363116E+05 -4.387536E+01 -4.466852E+03
       383   7  2.495148E+03 -6.297598E+04 -4.436300E+04  1.365742E+05  9.876219E+03 -1.676369E+04
       383   8  1.067912E+05 -3.814856E+04 -2.579252E+04  1.275846E+05  1.333973E+04 -1.126892E+04
       383   9  2.104452E+05 -1.411682E+04 -9.677048E+03  1.362732E+05  1.680311E+04 -4.459993E+03
       383  10  5.419465E+05  6.199149E+04  4.119409E+04  1.360491E+05 -6.681683E-08 -1.139631E-09
       383  11  4.377552E+05  3.794142E+04  2.379807E+04  1.273607E+05 -2.900452E-10 -1.184015E-09
       383  12  3.339513E+05  1.412521E+04  8.065024E+03  1.363500E+05  6.679131E-08 -8.568862E-10
       383  13  2.721846E+05 -4.905983E+02 -1.583891E+03  1.363118E+05 -1.055535E-10 -9.866607E-10
       383  14  2.722593E+05 -1.030163E+02 -9.972439E+02  1.274727E+05 -3.589217E-10 -1.283009E-09
       383  15  2.721962E+05  4.235616E+00 -8.062666E+02  1.363116E+05  2.330212E-12 -6.554628E-10
       383  16  2.494967E+03 -6.297631E+04 -4.436372E+04  1.365744E+05  6.674384E-08 -9.850585E-10
       383  17  1.067909E+05 -3.814874E+04 -2.579309E+04  1.275847E+05 -9.468133E-11 -1.793518E-09
       383  18  2.104449E+05 -1.411692E+04 -9.677616E+03  1.362733E+05 -6.681240E-08 -1.107260E-09
       383  19  5.419467E+05  6.199183E+04  4.119488E+04  1.360492E+05  1.195604E+04  1.677027E+04
       383  20  4.377554E+05  3.794161E+04  2.379870E+04  1.273608E+05  1.442410E+04  1.127889E+04
       383  21  3.339516E+05  1.412531E+04  8.065598E+03  1.363501E+05  1.689246E+04  4.473714E+03
       383  22  2.721846E+05 -4.902961E+02 -1.583361E+03  1.363118E+05  1.037626E+03  1.676698E+04
       383  23  2.722593E+05 -1.028798E+02 -9.970045E+02  1.274727E+05  5.404123E+02  1.127391E+04
       383  24  2.721962E+05  4.257045E+00 -8.062291E+02  1.363116E+05  4.387536E+01  4.466852E+03
       383  25  2.495148E+03 -6.297598E+04 -4.436300E+04  1.365742E+05 -9.876219E+03  1.676369E+04
       383  26  1.067912E+05 -3.814856E+04 -2.579252E+04  1.275846E+05 -1.333973E+04  1.126892E+04
       383  27  2.104452E+05 -1.411682E+04 -9.677048E+03  1.362732E+05 -1.680311E+04  4.459993E+03
       384   1  2.691747E+05 -7.556457E+02 -1.595468E+03  1.362881E+05 -1.676259E+04 -2.505942E+01
       384   2  1.654906E+05 -2.477543E+04 -1.762562E+04  1.276036E+05 -1.366216E+04  6.871590E+03
       384   3  6.122411E+04 -4.954154E+04 -3.586201E+04  1.366082E+05 -1.056180E+04  1.262502E+04
       384   4  2.721949E+05  4.530180E+00 -8.144338E+02  1.363141E+05  9.138393E+01 -1.811280E+01
       384   5  2.722646E+05 -1.091993E+02 -1.041813E+03  1.274697E+05  6.103111E+02  6.877053E+03
       384   6  2.721875E+05 -5.212329E+02 -1.684178E+03  1.363143E+05  1.129690E+03  1.262910E+04
       384   7  2.752157E+05  7.648578E+02 -3.233298E+01  1.363400E+05  1.694544E+04 -1.116479E+01
       384   8  3.790504E+05  2.455658E+04  1.554250E+04  1.273357E+05  1.488514E+04  6.882510E+03
       384   9  4.831954E+05  4.849689E+04  3.249294E+04  1.360202E+05  1.282501E+04  1.263317E+04
       384  10  2.691744E+05 -7.557211E+02 -1.595996E+03  1.362881E+05  7.176370E-10 -3.428687E-10
       384  11  1.654904E+05 -2.477553E+04 -1.762606E+04  1.276036E+05  8.824608E-10  3.804778E-10
       384  12  6.122394E+04 -4.954174E+04 -3.586252E+04  1.366083E+05  1.200435E-09  2.188265E-10
       384  13  2.721949E+05  4.530177E+00 -8.144338E+02  1.363141E+05  1.054819E-10 -5.191861E-10
       384  14  2.722646E+05 -1.092502E+02 -1.041902E+03  1.274697E+05  1.665694E-10 -6.073489E-12
       384  15  2.721875E+05 -5.214045E+02 -1.684480E+03  1.363142E+05 -1.430400E-10  4.379641E-10
       384  16  2.752154E+05  7.647808E+02 -3.287235E+01  1.363400E+05 -7.546741E-10 -4.941205E-10
       384  17  3.790502E+05  2.455647E+04  1.554199E+04  1.273357E+05 -8.316514E-10  3.424014E-10
       384  18  4.831951E+05  4.849668E+04  3.249233E+04  1.360201E+05 -1.357026E-09  4.177724E-10
       384  19  2.691747E+05 -7.556457E+02 -1.595468E+03  1.362881E+05  1.676259E+04  2.505942E+01
       384  20  1.654906E+05 -2.477543E+04 -1.762562E+04  1.276036E+05  1.366216E+04 -6.871590E+03
       384  21  6.122411E+04 -4.954154E+04 -3.586201E+04  1.366082E+05  1.056180E+04 -1.262502E+04
       384  22  2.721949E+05  4.530180E+00 -8.144338E+02  1.363141E+05 -9.138393E+01  1.811280E+01
       384  23  2.722646E+05 -1.091993E+02 -1.041813E+03  1.274697E+05 -6.103111E+02 -6.877053E+03
       384  24  2.721875E+05 -5.212329E+02 -1.684178E+03  1.363143E+05 -1.129690E+03 -1.262910E+04
       384  25  2.752157E+05  7.648578E+02 -3.233298E+01  1.363400E+05 -1.694544E+04  1.116479E+01
       384  26  3.790504E+05  2.455658E+04  1.554250E+04  1.273357E+05 -1.488514E+04 -6.882510E+03
       384  27  4.831954E+05  4.849689E+04  3.249294E+04  1.360202E+05 -1.282501E+04 -1.263317E+04
       385   1 -4.276009E+03 -6.508465E+04 -4.776395E+04  1.362416E+05 -9.845927E+03  1.597945E+04
       385   2 -1.057567E+05 -9.235158E+04 -7.535880E+04  1.301451E+05  1.574634E+04  1.575543E+04
       385   3 -2.123652E+05 -1.268603E+05 -1.214252E+05  1.409831E+05  4.133409E+04  5.081406E+03
       385   4  2.719827E+05 -7.259924E+02 -2.189707E+03  1.361465E+05  1.417830E+03  1.598289E+04
       385   5  2.724912E+05 -2.426478E+03 -3.943662E+03  1.276802E+05  3.435027E+03  1.575080E+04
       385   6  2.719577E+05 -7.272896E+03 -7.796939E+03  1.361482E+05  5.451943E+03  5.071465E+03
       385   7  5.483172E+05  6.362880E+04  4.338276E+04  1.360514E+05  1.268643E+04  1.598632E+04
       385   8  6.508776E+05  8.749040E+04  6.746575E+04  1.252137E+05 -8.883604E+03  1.574628E+04
       385   9  7.564993E+05  1.122986E+05  1.058202E+05  1.313094E+05 -3.045803E+04  5.062089E+03
       385  10 -4.276182E+03 -6.508495E+04 -4.776461E+04  1.362417E+05  5.098239E-10  5.232931E-10
       385  11 -1.057571E+05 -9.235191E+04 -7.535974E+04  1.301449E+05  4.940173E-10  3.989058E-10
       385  12 -2.123670E+05 -1.268608E+05 -1.214285E+05  1.409830E+05  5.502127E-10  4.025330E-11
       385  13  2.719827E+05 -7.262673E+02 -2.190191E+03  1.361465E+05  3.947783E-11  7.688794E-10
       385  14  2.724911E+05 -2.426748E+03 -3.944150E+03  1.276802E+05  1.484366E-10  7.811430E-10
       385  15  2.719576E+05 -7.272931E+03 -7.797043E+03  1.361482E+05  1.079174E-10  1.038524E-10
       385  16  5.483170E+05  6.362848E+04  4.338198E+04  1.360513E+05 -6.965666E-10  3.783697E-10
       385  17  6.508774E+05  8.749011E+04  6.746513E+04  1.252138E+05 -6.294164E-10  2.274573E-10
       385  18  7.564983E+05  1.122983E+05  1.058184E+05  1.313096E+05 -9.131128E-10  1.742232E-11
       385  19 -4.276009E+03 -6.508465E+04 -4.776395E+04  1.362416E+05  9.845927E+03 -1.597945E+04
       385  20 -1.057567E+05 -9.235158E+04 -7.535880E+04  1.301451E+05 -1.574634E+04 -1.575543E+04
       385  21 -2.123652E+05 -1.268603E+05 -1.214252E+05  1.409831E+05 -4.133409E+04 -5.081406E+03
       385  22  2.719827E+05 -7.259924E+02 -2.189707E+03  1.361465E+05 -1.417830E+03 -1.598289E+04
       385  23  2.724912E+05 -2.426478E+03 -3.943662E+03  1.276802E+05 -3.435027E+03 -1.575080E+04
       385  24  2.719577E+05 -7.272896E+03 -7.796939E+03  1.361482E+05 -5.451943E+03 -5.071465E+03
       385  25  5.483172E+05  6.362880E+04  4.338276E+04  1.360514E+05 -1.268643E+04 -1.598632E+04
       385  26  6.508776E+05  8.749040E+04  6.746575E+04  1.252137E+05  8.883604E+03 -1.574628E+04
       385  27  7.564993E+05  1.122986E+05  1.058202E+05  1.313094E+05  3.045803E+04 -5.062089E+03
       386   1 -1.735474E+05 -4.949511E+05 -1.788872E+05  1.274346E+05 -4.611703E+03 -8.305435E+04
       386   2 -8.849445E+04 -4.031028E+05 -1.032208E+05  9.136010E+04 -1.404979E+04 -4.579200E+04
       386   3 -5.415522E+04 -3.287780E+05 -6.450360E+04  7.452775E+04 -1.367815E+04 -8.523694E+03
       386   4 -7.740797E+04 -1.066457E+05 -8.654590E+04  8.002260E+04 -4.601250E+03 -6.019854E+04
       386   5 -1.542983E+04 -9.923197E+04 -4.180513E+04  7.039215E+04 -1.404609E+04 -3.856087E+04
       386   6 -1.438980E+03 -1.066257E+05 -2.314755E+04  8.000778E+04 -1.368022E+04 -1.692312E+04
       386   7  1.872932E+04  2.818041E+05  5.787997E+03  3.258075E+04 -4.594295E+03 -3.732848E+04
       386   8  5.763074E+04  2.047280E+05  1.960621E+04  4.941372E+04 -1.404288E+04 -3.132625E+04
       386   9  5.127457E+04  1.155746E+05  1.820669E+04  8.548982E+04 -1.368244E+04 -2.532548E+04
       386  10 -1.735493E+05 -4.949585E+05 -1.789002E+05  1.274343E+05 -2.754674E-10 -1.006240E-08
       386  11 -8.849523E+04 -4.031051E+05 -1.032251E+05  9.135958E+04 -1.683703E-09  2.965699E-09
       386  12 -5.415544E+04 -3.287782E+05 -6.450408E+04  7.452765E+04 -3.382143E-09  1.680166E-08
       386  13 -7.740897E+04 -1.066496E+05 -8.655275E+04  8.002238E+04  9.936901E-10  1.704548E-10
       386  14 -1.543044E+04 -9.923362E+04 -4.180829E+04  7.039171E+04  3.058893E-09  1.096326E-10
       386  15 -1.439258E+03 -1.066261E+05 -2.314844E+04  8.000760E+04  5.711476E-09  7.086677E-11
       386  16  1.872892E+04  2.818026E+05  5.785340E+03  3.258061E+04 -2.131526E-10  1.014031E-08
       386  17  5.763027E+04  2.047269E+05  1.960399E+04  4.941337E+04 -1.845544E-09 -3.170425E-09
       386  18  5.127420E+04  1.155738E+05  1.820513E+04  8.548955E+04 -2.954837E-09 -1.705757E-08
       386  19 -1.735474E+05 -4.949511E+05 -1.788872E+05  1.274346E+05  4.611703E+03  8.305435E+04
       386  20 -8.849445E+04 -4.031028E+05 -1.032208E+05  9.136010E+04  1.404979E+04  4.579200E+04
       386  21 -5.415522E+04 -3.287780E+05 -6.450360E+04  7.452775E+04  1.367815E+04  8.523694E+03
       386  22 -7.740797E+04 -1.066457E+05 -8.654590E+04  8.002260E+04  4.601250E+03  6.019854E+04
       386  23 -1.542983E+04 -9.923197E+04 -4.180513E+04  7.039215E+04  1.404609E+04  3.856087E+04
       386  24 -1.438980E+03 -1.066257E+05 -2.314755E+04  8.000778E+04  1.368022E+04  1.692312E+04
       386  25  1.872932E+04  2.818041E+05  5.787997E+03  3.258075E+04  4.594295E+03  3.732848E+04
       386  26  5.763074E+04  2.047280E+05  1.960621E+04  4.941372E+04  1.404288E+04  3.132625E+04
       386  27  5.127457E+04  1.155746E+05  1.820669E+04  8.548982E+04  1.368244E+04  2.532548E+04
       387   1 -4.278936E+04 -2.705240E+05 -4.863381E+04  8.133293E+04 -1.044497E+04 -6.777125E+03
       387   2 -2.015424E+04 -1.868319E+05 -2.483406E+04  7.048552E+04 -5.815896E+03 -1.313149E+03
       387   3 -3.849070E+01 -1.044825E+05 -5.225373E+03  7.947630E+04 -8.580376E+02  4.151169E+03
       387   4 -3.221116E+03 -1.036110E+05 -1.773735E+04  8.014092E+04 -1.044692E+04 -1.389375E+04
       387   5 -3.953674E+02 -1.029797E+05 -9.904704E+03  7.022133E+04 -5.818255E+03 -8.953080E+03
       387   6  2.707592E+00 -1.036061E+05 -5.898428E+03  8.013988E+04 -8.608242E+02 -4.012760E+03
       387   7  3.634557E+04  6.332908E+04  1.315813E+04  7.894859E+04 -1.044884E+04 -2.101225E+04
       387   8  1.936315E+04 -1.912053E+04  5.024604E+03  6.995711E+04 -5.820606E+03 -1.659401E+04
       387   9  4.394349E+01 -1.027296E+05 -6.571232E+03  8.080346E+04 -8.636283E+02 -1.217670E+04
       387  10 -4.278949E+04 -2.705240E+05 -4.863410E+04  8.133287E+04 -3.202800E-09 -1.577742E-08
       387  11 -2.015428E+04 -1.868319E+05 -2.483412E+04  7.048552E+04 -1.592583E-09 -2.440198E-09
       387  12 -3.849612E+01 -1.044825E+05 -5.225407E+03  7.947630E+04 -1.029639E-10  1.129050E-08
       387  13 -3.221285E+03 -1.036112E+05 -1.773792E+04  8.014081E+04  5.850163E-09 -1.063234E-10
       387  14 -3.954253E+02 -1.029798E+05 -9.904919E+03  7.022129E+04  2.940201E-09 -1.592448E-10
       387  15  2.702473E+00 -1.036061E+05 -5.898460E+03  8.013987E+04  5.826016E-10  7.328229E-11
       387  16  3.634533E+04  6.332857E+04  1.315710E+04  7.894841E+04 -2.959168E-09  1.563235E-08
       387  17  1.936304E+04 -1.912083E+04  5.024023E+03  6.995703E+04 -1.900240E-09  2.257122E-09
       387  18  4.390288E+01 -1.027297E+05 -6.571512E+03  8.080345E+04 -4.432562E-10 -1.146508E-08
       387  19 -4.278936E+04 -2.705240E+05 -4.863381E+04  8.133293E+04  1.044497E+04  6.777125E+03
       387  20 -2.015424E+04 -1.868319E+05 -2.483406E+04  7.048552E+04  5.815896E+03  1.313149E+03
       387  21 -3.849070E+01 -1.044825E+05 -5.225373E+03  7.947630E+04  8.580376E+02 -4.151169E+03
       387  22 -3.221116E+03 -1.036110E+05 -1.773735E+04  8.014092E+04  1.044692E+04  1.389375E+04
       387  23 -3.953674E+02 -1.029797E+05 -9.904704E+03  7.022133E+04  5.818255E+03  8.953080E+03
       387  24  2.707592E+00 -1.036061E+05 -5.898428E+03  8.013988E+04  8.608242E+02  4.012760E+03
       387  25  3.634557E+04  6.332908E+04  1.315813E+04  7.894859E+04  1.044884E+04  2.101225E+04
       387  26  1.936315E+04 -1.912053E+04  5.024604E+03  6.995711E+04  5.820606E+03  1.659401E+04
       387  27  4.394349E+01 -1.027296E+05 -6.571232E+03  8.080346E+04  8.636283E+02  1.217670E+04
       388   1  1.298855E+04 -4.926853E+04  6.277496E+03  8.002670E+04  2.508383E+03  5.747077E+03
       388   2  3.257875E+04  3.332844E+04  2.549981E+04  6.937874E+04  5.158162E+03 -1.858286E+03
       388   3  5.198889E+04  1.168707E+05  4.962596E+04  7.824978E+04  2.004531E+03 -9.463726E+03
       388   4 -4.381508E+01 -1.034753E+05 -4.673301E+03  8.006910E+04  2.505400E+03 -3.109176E+03
       388   5 -4.691302E+02 -1.031457E+05 -3.264208E+03  7.030970E+04  5.158367E+03 -1.460121E+03
       388   6 -2.680554E+03 -1.034827E+05 -3.377636E+03  8.006972E+04  2.007316E+03  1.897528E+02
       388   7 -1.307632E+04 -1.576791E+05 -1.562396E+04  8.011148E+04  2.502415E+03 -1.196467E+04
       388   8 -3.351821E+04 -2.396022E+05 -3.202928E+04  7.124045E+04  5.158573E+03 -1.062043E+03
       388   9 -5.735347E+04 -3.237914E+05 -5.638434E+04  8.188900E+04  2.010159E+03  9.839818E+03
       388  10  1.298854E+04 -4.926857E+04  6.277422E+03  8.002669E+04 -3.843611E-10  9.244435E-10
       388  11  3.257872E+04  3.332843E+04  2.549976E+04  6.937875E+04 -6.997898E-10  4.444159E-10
       388  12  5.198886E+04  1.168706E+05  4.962578E+04  7.824980E+04 -1.224360E-10  7.696289E-10
       388  13 -4.382441E+01 -1.034753E+05 -4.673331E+03  8.006910E+04 -1.224185E-10 -4.607926E-11
       388  14 -4.691594E+02 -1.031457E+05 -3.264262E+03  7.030971E+04 -9.713653E-10 -2.950552E-11
       388  15 -2.680559E+03 -1.034827E+05 -3.377644E+03  8.006972E+04 -2.158721E-10 -1.118364E-10
       388  16 -1.307637E+04 -1.576792E+05 -1.562424E+04  8.011151E+04 -5.233710E-10 -9.042806E-10
       388  17 -3.351824E+04 -2.396022E+05 -3.202933E+04  7.124045E+04 -4.366041E-10 -5.659571E-10
       388  18 -5.735350E+04 -3.237915E+05 -5.638453E+04  8.188898E+04 -1.442088E-10 -9.454276E-10
       388  19  1.298855E+04 -4.926853E+04  6.277496E+03  8.002670E+04 -2.508383E+03 -5.747077E+03
       388  20  3.257875E+04  3.332844E+04  2.549981E+04  6.937874E+04 -5.158162E+03  1.858286E+03
       388  21  5.198889E+04  1.168707E+05  4.962596E+04  7.824978E+04 -2.004531E+03  9.463726E+03
       388  22 -4.381508E+01 -1.034753E+05 -4.673301E+03  8.006910E+04 -2.505400E+03  3.109176E+03
       388  23 -4.691302E+02 -1.031457E+05 -3.264208E+03  7.030970E+04 -5.158367E+03  1.460121E+03
       388  24 -2.680554E+03 -1.034827E+05 -3.377636E+03  8.006972E+04 -2.007316E+03 -1.897528E+02
       388  25 -1.307632E+04 -1.576791E+05 -1.562396E+04  8.011148E+04 -2.502415E+03  1.196467E+04
       388  26 -3.351821E+04 -2.396022E+05 -3.202928E+04  7.124045E+04 -5.158573E+03  1.062043E+03
       388  27 -5.735347E+04 -3.237914E+05 -5.638434E+04  8.188900E+04 -2.010159E+03 -9.839818E+03
       389   1  2.535088E+05  1.645318E+05  1.987969E+04  1.850674E+05  1.039682E+04  7.464248E+03
       389   2  2.538160E+05  1.528035E+05  1.109769E+04  1.883635E+05  6.969385E+03  4.049367E+03
       389   3  2.584919E+05  1.466338E+05  7.294072E+03  1.892500E+05  3.317926E+03  9.333819E+02
       389   4  2.500606E+05  1.463746E+05  1.588972E+04  1.761116E+05  9.032154E+03  6.440536E+03
       389   5  2.454906E+05  1.393034E+05  7.898522E+03  1.805845E+05  6.195840E+03  3.469153E+03
       389   6  2.451612E+05  1.376624E+05  4.372848E+03  1.826477E+05  3.135500E+03  7.965646E+02
       389   7  2.466126E+05  1.282185E+05  1.189989E+04  1.671562E+05  7.667521E+03  5.416916E+03
       389   8  2.371654E+05  1.258038E+05  4.699405E+03  1.728057E+05  5.422317E+03  2.888972E+03
       389   9  2.318308E+05  1.286911E+05  1.451620E+03  1.760456E+05  2.953080E+03  6.597510E+02
       389  10  2.535087E+05  1.645317E+05  1.987938E+04  1.850673E+05 -9.957175E-09 -7.714541E-09
       389  11  2.538159E+05  1.528035E+05  1.109757E+04  1.883635E+05  1.149668E-08  7.727452E-09
       389  12  2.584919E+05  1.466338E+05  7.294050E+03  1.892500E+05  2.074844E-08  1.310849E-08
       389  13  2.500605E+05  1.463746E+05  1.588949E+04  1.761116E+05  4.056136E-09  3.096220E-09
       389  14  2.454905E+05  1.393034E+05  7.898428E+03  1.805844E+05  1.015265E-08  7.752881E-09
       389  15  2.451612E+05  1.376624E+05  4.372829E+03  1.826477E+05  4.423405E-09  3.097296E-09
       389  16  2.466125E+05  1.282185E+05  1.189972E+04  1.671562E+05  1.870133E-08  1.383737E-08
       389  17  2.371654E+05  1.258037E+05  4.699334E+03  1.728057E+05  9.718263E-09  8.004279E-09
       389  18  2.318308E+05  1.286911E+05  1.451602E+03  1.760456E+05 -1.208540E-08 -7.066400E-09
       389  19  2.535088E+05  1.645318E+05  1.987969E+04  1.850674E+05 -1.039682E+04 -7.464248E+03
       389  20  2.538160E+05  1.528035E+05  1.109769E+04  1.883635E+05 -6.969385E+03 -4.049367E+03
       389  21  2.584919E+05  1.466338E+05  7.294072E+03  1.892500E+05 -3.317926E+03 -9.333819E+02
       389  22  2.500606E+05  1.463746E+05  1.588972E+04  1.761116E+05 -9.032154E+03 -6.440536E+03
       389  23  2.454906E+05  1.393034E+05  7.898522E+03  1.805845E+05 -6.195840E+03 -3.469153E+03
       389  24  2.451612E+05  1.376624E+05  4.372848E+03  1.826477E+05 -3.135500E+03 -7.965646E+02
       389  25  2.466126E+05  1.282185E+05  1.189989E+04  1.671562E+05 -7.667521E+03 -5.416916E+03
       389  26  2.371654E+05  1.258038E+05  4.699405E+03  1.728057E+05 -5.422317E+03 -2.888972E+03
       389  27  2.318308E+05  1.286911E+05  1.451620E+03  1.760456E+05 -2.953080E+03 -6.597510E+02
       390   1  2.576262E+05  1.471615E+05  6.258198E+03  1.893728E+05  2.901239E+03  5.523101E+02
       390   2  2.577663E+05  1.466449E+05  4.862147E+03  1.897332E+05  2.100354E+03 -1.743199E+02
       390   3  2.583460E+05  1.464893E+05  4.298882E+03  1.899487E+05  1.274499E+03 -8.676900E+02
       390   4  2.448097E+05  1.374151E+05  3.352648E+03  1.824892E+05  2.708765E+03  4.079517E+02
       390   5  2.444395E+05  1.369616E+05  1.991760E+03  1.827718E+05  1.973723E+03 -2.692973E+02
       390   6  2.444946E+05  1.368548E+05  1.406525E+03  1.829095E+05  1.213729E+03 -9.132726E+02
       390   7  2.319932E+05  1.276686E+05  4.469927E+02  1.756056E+05  2.516292E+03  2.635948E+02
       390   8  2.311128E+05  1.272784E+05 -8.786342E+02  1.758106E+05  1.847096E+03 -3.642719E+02
       390   9  2.306437E+05  1.272206E+05 -1.485740E+03  1.758706E+05  1.152961E+03 -9.588528E+02
       390  10  2.576262E+05  1.471615E+05  6.258182E+03  1.893728E+05  1.503568E-09 -9.219040E-10
       390  11  2.577663E+05  1.466449E+05  4.862138E+03  1.897332E+05  4.069063E-10  8.729233E-11
       390  12  2.583460E+05  1.464893E+05  4.298878E+03  1.899487E+05  4.680206E-11  4.316590E-10
       390  13  2.448097E+05  1.374151E+05  3.352633E+03  1.824892E+05  6.548297E-11  1.578979E-10
       390  14  2.444395E+05  1.369616E+05  1.991753E+03  1.827718E+05  4.354916E-10  5.767709E-11
       390  15  2.444946E+05  1.368548E+05  1.406520E+03  1.829095E+05  4.099030E-10  3.612025E-10
       390  16  2.319932E+05  1.276686E+05  4.469807E+02  1.756056E+05 -1.493138E-09  9.636955E-10
       390  17  2.311128E+05  1.272784E+05 -8.786409E+02  1.758106E+05 -4.798220E-10  4.393237E-10
       390  18  2.306437E+05  1.272206E+05 -1.485744E+03  1.758706E+05 -7.734011E-10  2.411015E-10
       390  19  2.576262E+05  1.471615E+05  6.258198E+03  1.893728E+05 -2.901239E+03 -5.523101E+02
       390  20  2.577663E+05  1.466449E+05  4.862147E+03  1.897332E+05 -2.100354E+03  1.743199E+02
       390  21  2.583460E+05  1.464893E+05  4.298882E+03  1.899487E+05 -1.274499E+03  8.676900E+02
       390  22  2.448097E+05  1.374151E+05  3.352648E+03  1.824892E+05 -2.708765E+03 -4.079517E+02
       390  23  2.444395E+05  1.369616E+05  1.991760E+03  1.827718E+05 -1.973723E+03  2.692973E+02
       390  24  2.444946E+05  1.368548E+05  1.406525E+03  1.829095E+05 -1.213729E+03  9.132726E+02
       390  25  2.319932E+05  1.276686E+05  4.469927E+02  1.756056E+05 -2.516292E+03 -2.635948E+02
       390  26  2.311128E+05  1.272784E+05 -8.786342E+02  1.758106E+05 -1.847096E+03  3.642719E+02
       390  27  2.306437E+05  1.272206E+05 -1.485740E+03  1.758706E+05 -1.152961E+03  9.588528E+02
       391   1  2.584213E+05  1.466735E+05  4.221916E+03  1.900483E+05  1.099483E+03 -1.025522E+03
       391   2  2.586081E+05  1.468697E+05  4.352524E+03  1.901916E+05  5.586833E+02 -1.473730E+03
       391   3  2.589842E+05  1.471086E+05  4.967833E+03  1.903171E+05  1.172846E+01 -1.913733E+03
       391   4  2.444718E+05  1.368406E+05  1.296572E+03  1.828972E+05  1.037401E+03 -1.072088E+03
       391   5  2.443869E+05  1.368352E+05  1.374695E+03  1.828954E+05  5.128572E+02 -1.508105E+03
       391   6  2.444878E+05  1.368690E+05  1.923423E+03  1.828759E+05 -1.784685E+01 -1.935921E+03
       391   7  2.305226E+05  1.270077E+05 -1.628784E+03  1.757463E+05  9.753207E+02 -1.118654E+03
       391   8  2.301659E+05  1.268006E+05 -1.603198E+03  1.755994E+05  4.670320E+02 -1.542479E+03
       391   9  2.299914E+05  1.266293E+05 -1.121106E+03  1.754348E+05 -4.742187E+01 -1.958108E+03
       391  10  2.584213E+05  1.466735E+05  4.221912E+03  1.900483E+05  2.898333E-10  4.524241E-10
       391  11  2.586081E+05  1.468697E+05  4.352519E+03  1.901916E+05  6.874740E-10  3.526015E-10
       391  12  2.589842E+05  1.471086E+05  4.967827E+03  1.903171E+05  8.221327E-10  2.001494E-10
       391  13  2.444718E+05  1.368406E+05  1.296567E+03  1.828972E+05  9.426416E-11  4.002710E-10
       391  14  2.443869E+05  1.368352E+05  1.374690E+03  1.828954E+05  3.642077E-10  5.738504E-10
       391  15  2.444878E+05  1.368690E+05  1.923416E+03  1.828759E+05  3.473279E-10  3.690741E-10
       391  16  2.305226E+05  1.270077E+05 -1.628789E+03  1.757463E+05 -6.099145E-10  1.413996E-10
       391  17  2.301659E+05  1.268006E+05 -1.603203E+03  1.755994E+05 -4.036444E-10  5.043299E-11
       391  18  2.299914E+05  1.266293E+05 -1.121113E+03  1.754348E+05 -7.572864E-10 -6.650020E-11
       391  19  2.584213E+05  1.466735E+05  4.221916E+03  1.900483E+05 -1.099483E+03  1.025522E+03
       391  20  2.586081E+05  1.468697E+05  4.352524E+03  1.901916E+05 -5.586833E+02  1.473730E+03
       391  21  2.589842E+05  1.471086E+05  4.967833E+03  1.903171E+05 -1.172846E+01  1.913733E+03
       391  22  2.444718E+05  1.368406E+05  1.296572E+03  1.828972E+05 -1.037401E+03  1.072088E+03
       391  23  2.443869E+05  1.368352E+05  1.374695E+03  1.828954E+05 -5.128572E+02  1.508105E+03
       391  24  2.444878E+05  1.368690E+05  1.923423E+03  1.828759E+05  1.784685E+01  1.935921E+03
       391  25  2.305226E+05  1.270077E+05 -1.628784E+03  1.757463E+05 -9.753207E+02  1.118654E+03
       391  26  2.301659E+05  1.268006E+05 -1.603198E+03  1.755994E+05 -4.670320E+02  1.542479E+03
       391  27  2.299914E+05  1.266293E+05 -1.121106E+03  1.754348E+05  4.742187E+01  1.958108E+03
       392   1  2.590874E+05  1.474159E+05  5.494147E+03  1.904940E+05 -2.781550E+02 -2.147424E+03
       392   2  2.598628E+05  1.472439E+05  7.220332E+03  1.901540E+05 -1.976777E+03 -3.412539E+03
       392   3  2.614852E+05  1.479468E+05  1.061405E+04  1.895095E+05 -3.707551E+03 -4.634719E+03
       392   4  2.445498E+05  1.369070E+05  2.403744E+03  1.829197E+05 -3.093554E+02 -2.170830E+03
       392   5  2.444836E+05  1.370980E+05  4.025500E+03  1.826074E+05 -1.923031E+03 -3.372239E+03
       392   6  2.452462E+05  1.381454E+05  7.241123E+03  1.819905E+05 -3.568874E+03 -4.530727E+03
       392   7  2.300128E+05  1.263984E+05 -6.865567E+02  1.753459E+05 -3.405541E+02 -2.194235E+03
       392   8  2.291050E+05  1.269523E+05  8.307184E+02  1.750610E+05 -1.869288E+03 -3.331940E+03
       392   9  2.290075E+05  1.283442E+05  3.868191E+03  1.744716E+05 -3.430202E+03 -4.426738E+03
       392  10  2.590874E+05  1.474159E+05  5.494138E+03  1.904940E+05  4.812340E-10 -6.696979E-11
       392  11  2.598627E+05  1.472439E+05  7.220302E+03  1.901540E+05  4.349664E-10  1.565910E-10
       392  12  2.614852E+05  1.479468E+05  1.061398E+04  1.895095E+05  4.132189E-10  1.312948E-10
       392  13  2.445498E+05  1.369070E+05  2.403735E+03  1.829197E+05  5.505532E-10  8.455512E-11
       392  14  2.444836E+05  1.370980E+05  4.025472E+03  1.826073E+05  2.397166E-10  8.277221E-11
       392  15  2.452462E+05  1.381454E+05  7.241060E+03  1.819905E+05 -1.900001E-10 -1.665007E-10
       392  16  2.300128E+05  1.263984E+05 -6.865659E+02  1.753459E+05 -3.252974E-10  3.593310E-10
       392  17  2.291050E+05  1.269523E+05  8.306910E+02  1.750610E+05  6.695061E-11  3.411591E-10
       392  18  2.290075E+05  1.283442E+05  3.868133E+03  1.744716E+05  1.564955E-11 -5.614955E-11
       392  19  2.590874E+05  1.474159E+05  5.494147E+03  1.904940E+05  2.781550E+02  2.147424E+03
       392  20  2.598628E+05  1.472439E+05  7.220332E+03  1.901540E+05  1.976777E+03  3.412539E+03
       392  21  2.614852E+05  1.479468E+05  1.061405E+04  1.895095E+05  3.707551E+03  4.634719E+03
       392  22  2.445498E+05  1.369070E+05  2.403744E+03  1.829197E+05  3.093554E+02  2.170830E+03
       392  23  2.444836E+05  1.370980E+05  4.025500E+03  1.826074E+05  1.923031E+03  3.372239E+03
       392  24  2.452462E+05  1.381454E+05  7.241123E+03  1.819905E+05  3.568874E+03  4.530727E+03
       392  25  2.300128E+05  1.263984E+05 -6.865567E+02  1.753459E+05  3.405541E+02  2.194235E+03
       392  26  2.291050E+05  1.269523E+05  8.307184E+02  1.750610E+05  1.869288E+03  3.331940E+03
       392  27  2.290075E+05  1.283442E+05  3.868191E+03  1.744716E+05  3.430202E+03  4.426738E+03
       393   1  2.609687E+05  1.501529E+05  1.305744E+04  1.904017E+05 -4.708025E+03 -5.347214E+03
       393   2  2.725540E+05  1.434324E+05  2.149604E+04  1.827922E+05 -1.285980E+04 -1.105905E+04
       393   3  2.935683E+05  1.491615E+05  4.052563E+04  1.698646E+05 -2.130248E+04 -1.638326E+04
       393   4  2.460130E+05  1.387159E+05  9.576577E+03  1.823534E+05 -4.582377E+03 -5.252973E+03
       393   5  2.468391E+05  1.422779E+05  1.752244E+04  1.777322E+05 -1.196724E+04 -1.038996E+04
       393   6  2.569277E+05  1.581232E+05  3.539414E+04  1.677930E+05 -1.964270E+04 -1.513952E+04
       393   7  2.310572E+05  1.272788E+05  6.095608E+03  1.743051E+05 -4.456730E+03 -5.158735E+03
       393   8  2.211249E+05  1.411234E+05  1.354884E+04  1.726722E+05 -1.107472E+04 -9.720866E+03
       393   9  2.202894E+05  1.670857E+05  3.026289E+04  1.657211E+05 -1.798306E+04 -1.389572E+04
       393  10  2.609687E+05  1.501529E+05  1.305735E+04  1.904017E+05 -1.682885E-10 -4.807055E-11
       393  11  2.725538E+05  1.434323E+05  2.149550E+04  1.827921E+05  3.079138E-10  1.826552E-10
       393  12  2.935678E+05  1.491611E+05  4.052428E+04  1.698643E+05  2.577586E-10  2.641404E-10
       393  13  2.460129E+05  1.387158E+05  9.576486E+03  1.823533E+05 -2.143328E-10  2.201593E-11
       393  14  2.468389E+05  1.422777E+05  1.752197E+04  1.777321E+05  1.355445E-10  1.241151E-10
       393  15  2.569272E+05  1.581228E+05  3.539298E+04  1.677928E+05  2.851453E-10  1.331444E-10
       393  16  2.310572E+05  1.272788E+05  6.095520E+03  1.743051E+05  3.371887E-12  1.017301E-10
       393  17  2.211247E+05  1.411233E+05  1.354843E+04  1.726721E+05 -1.138631E-10  1.390940E-10
       393  18  2.202890E+05  1.670854E+05  3.026192E+04  1.657209E+05 -5.038779E-10 -7.966344E-11
       393  19  2.609687E+05  1.501529E+05  1.305744E+04  1.904017E+05  4.708025E+03  5.347214E+03
       393  20  2.725540E+05  1.434324E+05  2.149604E+04  1.827922E+05  1.285980E+04  1.105905E+04
       393  21  2.935683E+05  1.491615E+05  4.052563E+04  1.698646E+05  2.130248E+04  1.638326E+04
       393  22  2.460130E+05  1.387159E+05  9.576577E+03  1.823534E+05  4.582377E+03  5.252973E+03
       393  23  2.468391E+05  1.422779E+05  1.752244E+04  1.777322E+05  1.196724E+04  1.038996E+04
       393  24  2.569277E+05  1.581232E+05  3.539414E+04  1.677930E+05  1.964270E+04  1.513952E+04
       393  25  2.310572E+05  1.272788E+05  6.095608E+03  1.743051E+05  4.456730E+03  5.158735E+03
       393  26  2.211249E+05  1.411234E+05  1.354884E+04  1.726722E+05  1.107472E+04  9.720866E+03
       393  27  2.202894E+05  1.670857E+05  3.026289E+04  1.657211E+05  1.798306E+04  1.389572E+04
       394   1  6.347148E+05  7.243188E+04  7.395591E+04  4.649263E+04  2.912081E+04 -2.439479E+03
       394   2  5.940423E+05  4.181704E+04  4.589612E+04  3.350055E+04  1.508996E+04 -7.515713E+03
       394   3  5.596335E+05  2.894770E+04  3.140119E+04  3.037834E+04  1.059900E+03 -7.450696E+03
       394   4  4.378197E+05  2.368156E+04  2.699227E+04  3.258234E+04  1.838459E+04 -2.441114E+03
       394   5  4.353182E+05  3.530811E+03  1.310405E+04  2.764888E+04  1.157334E+04 -7.516416E+03
       394   6  4.378285E+05 -1.244861E+02  7.772387E+03  3.258489E+04  4.761929E+03 -7.450235E+03
       394   7  2.409608E+05 -2.507077E+04 -1.997356E+04  1.867647E+04  7.651759E+03 -2.442268E+03
       394   8  2.766181E+05 -3.475688E+04 -1.968932E+04  2.179873E+04  8.057609E+03 -7.517054E+03
       394   9  3.160378E+05 -2.919753E+04 -1.585706E+04  3.479100E+04  8.463248E+03 -7.449748E+03
       394  10  6.347139E+05  7.243165E+04  7.395431E+04  4.649269E+04  2.308846E-10  4.631218E-12
       394  11  5.940421E+05  4.181692E+04  4.589559E+04  3.350065E+04  9.011379E-11 -2.244480E-10
       394  12  5.596335E+05  2.894764E+04  3.140108E+04  3.037834E+04  4.253617E-10 -1.438864E-10
       394  13  4.378194E+05  2.368146E+04  2.699162E+04  3.258237E+04  2.787493E-16 -3.417882E-11
       394  14  4.353181E+05  3.530714E+03  1.310369E+04  2.764895E+04  3.513529E-11 -3.073672E-10
       394  15  4.378285E+05 -1.245518E+02  7.772240E+03  3.258492E+04 -3.910298E-11 -8.796149E-11
       394  16  2.409608E+05 -2.507079E+04 -1.997368E+04  1.867648E+04 -2.982644E-10 -1.190233E-10
       394  17  2.766180E+05 -3.475696E+04 -1.968955E+04  2.179878E+04 -8.158530E-11 -1.763212E-10
       394  18  3.160377E+05 -2.919761E+04 -1.585730E+04  3.479105E+04 -2.718031E-10 -9.420021E-11
       394  19  6.347148E+05  7.243188E+04  7.395591E+04  4.649263E+04 -2.912081E+04  2.439479E+03
       394  20  5.940423E+05  4.181704E+04  4.589612E+04  3.350055E+04 -1.508996E+04  7.515713E+03
       394  21  5.596335E+05  2.894770E+04  3.140119E+04  3.037834E+04 -1.059900E+03  7.450696E+03
       394  22  4.378197E+05  2.368156E+04  2.699227E+04  3.258234E+04 -1.838459E+04  2.441114E+03
       394  23  4.353182E+05  3.530811E+03  1.310405E+04  2.764888E+04 -1.157334E+04  7.516416E+03
       394  24  4.378285E+05 -1.244861E+02  7.772387E+03  3.258489E+04 -4.761929E+03  7.450235E+03
       394  25  2.409608E+05 -2.507077E+04 -1.997356E+04  1.867647E+04 -7.651759E+03  2.442268E+03
       394  26  2.766181E+05 -3.475688E+04 -1.968932E+04  2.179873E+04 -8.057609E+03  7.517054E+03
       394  27  3.160378E+05 -2.919753E+04 -1.585706E+04  3.479100E+04 -8.463248E+03  7.449748E+03
       395   1  5.328582E+05  2.380253E+04  2.495633E+04  3.301985E+04  9.379523E+02 -5.910619E+03
       395   2  4.951044E+05  1.397010E+04  1.570986E+04  2.772671E+04 -1.789809E+03 -3.790668E+03
       395   3  4.579230E+05  5.010801E+03  8.455801E+03  3.259420E+04 -4.517524E+03 -1.339833E+03
       395   4  4.368242E+05  8.867978E+02  6.359462E+03  3.264922E+04  3.681875E+03 -5.910229E+03
       395   5  4.365801E+05  3.904731E+01  4.548272E+03  2.756895E+04  1.418760E+03 -3.790124E+03
       395   6  4.368260E+05 -1.618421E+01  4.407067E+03  3.264937E+04 -8.444749E+02 -1.339120E+03
       395   7  3.407991E+05 -2.202948E+04 -1.223781E+04  3.227864E+04  6.425383E+03 -5.909842E+03
       395   8  3.780591E+05 -1.389220E+04 -6.613426E+03  2.741121E+04  4.627033E+03 -3.789582E+03
       395   9  4.157294E+05 -5.043189E+03  3.583632E+02  3.270454E+04  2.828453E+03 -1.338406E+03
       395  10  5.328582E+05  2.380250E+04  2.495626E+04  3.301986E+04  2.463429E-10 -1.321065E-10
       395  11  4.951044E+05  1.397008E+04  1.570982E+04  2.772670E+04 -1.258455E-11  2.606018E-10
       395  12  4.579230E+05  5.010794E+03  8.455759E+03  3.259420E+04 -5.091863E-10  1.958795E-10
       395  13  4.368242E+05  8.867566E+02  6.359371E+03  3.264923E+04 -4.081431E-10  3.599540E-12
       395  14  4.365801E+05  3.903134E+01  4.548242E+03  2.756895E+04  2.061743E-10  2.653072E-11
       395  15  4.368260E+05 -1.618633E+01  4.407062E+03  3.264937E+04 -2.424930E-10  8.142087E-11
       395  16  3.407991E+05 -2.202953E+04 -1.223795E+04  3.227867E+04 -2.481108E-10  6.194760E-11
       395  17  3.780591E+05 -1.389222E+04 -6.613494E+03  2.741122E+04 -5.444932E-11 -2.042374E-10
       395  18  4.157294E+05 -5.043193E+03  3.583448E+02  3.270454E+04  1.487962E-10  8.240976E-11
       395  19  5.328582E+05  2.380253E+04  2.495633E+04  3.301985E+04 -9.379523E+02  5.910619E+03
       395  20  4.951044E+05  1.397010E+04  1.570986E+04  2.772671E+04  1.789809E+03  3.790668E+03
       395  21  4.579230E+05  5.010801E+03  8.455801E+03  3.259420E+04  4.517524E+03  1.339833E+03
       395  22  4.368242E+05  8.867978E+02  6.359462E+03  3.264922E+04 -3.681875E+03  5.910229E+03
       395  23  4.365801E+05  3.904731E+01  4.548272E+03  2.756895E+04 -1.418760E+03  3.790124E+03
       395  24  4.368260E+05 -1.618421E+01  4.407067E+03  3.264937E+04  8.444749E+02  1.339120E+03
       395  25  3.407991E+05 -2.202948E+04 -1.223781E+04  3.227864E+04 -6.425383E+03  5.909842E+03
       395  26  3.780591E+05 -1.389220E+04 -6.613426E+03  2.741121E+04 -4.627033E+03  3.789582E+03
       395  27  4.157294E+05 -5.043189E+03  3.583632E+02  3.270454E+04 -2.828453E+03  1.338406E+03
       396   1  4.324226E+05 -1.143650E+03  3.909259E+03  3.296582E+04 -5.327105E+03  2.086542E+02
       396   2  3.945861E+05 -9.855025E+03 -1.125988E+03  2.740758E+04 -8.345654E+03  2.670761E+03
       396   3  3.574967E+05 -1.714151E+04 -3.841656E+03  3.201110E+04 -1.136397E+04  4.831832E+03
       396   4  4.368993E+05 -6.347457E+01  4.836296E+03  3.264963E+04 -1.659483E+03  2.093772E+02
       396   5  4.364886E+05  1.276395E+02  6.904024E+03  2.756860E+04 -5.100821E+03  2.671338E+03
       396   6  4.368973E+05  1.817115E+03  1.158473E+04  3.264928E+04 -8.542104E+03  4.832273E+03
       396   7  4.413760E+05  1.016707E+03  5.763383E+03  3.233343E+04  2.008165E+03  2.100965E+02
       396   8  4.783927E+05  1.011021E+04  1.493400E+04  2.772964E+04 -1.855775E+03  2.671917E+03
       396   9  5.163039E+05  2.077536E+04  2.701085E+04  3.328754E+04 -5.719888E+03  4.832719E+03
       396  10  4.324225E+05 -1.143657E+03  3.909205E+03  3.296582E+04  4.777403E-10  3.354602E-10
       396  11  3.945860E+05 -9.855051E+03 -1.126132E+03  2.740759E+04  5.839077E-11  4.613705E-11
       396  12  3.574965E+05 -1.714157E+04 -3.841942E+03  3.201114E+04 -6.287157E-10  3.079316E-11
       396  13  4.368993E+05 -6.347536E+01  4.836291E+03  3.264963E+04 -1.094062E-10  2.150782E-10
       396  14  4.364885E+05  1.276248E+02  6.903962E+03  2.756862E+04 -2.580010E-10  7.736215E-11
       396  15  4.368972E+05  1.817070E+03  1.158455E+04  3.264931E+04 -6.043400E-10  1.349461E-10
       396  16  4.413760E+05  1.016706E+03  5.763376E+03  3.233343E+04 -3.326165E-10 -2.010452E-11
       396  17  4.783927E+05  1.011020E+04  1.493398E+04  2.772965E+04  1.912331E-10 -1.059471E-10
       396  18  5.163039E+05  2.077533E+04  2.701075E+04  3.328756E+04  2.174672E-10 -9.592352E-11
       396  19  4.324226E+05 -1.143650E+03  3.909259E+03  3.296582E+04  5.327105E+03 -2.086542E+02
       396  20  3.945861E+05 -9.855025E+03 -1.125988E+03  2.740758E+04  8.345654E+03 -2.670761E+03
       396  21  3.574967E+05 -1.714151E+04 -3.841656E+03  3.201110E+04  1.136397E+04 -4.831832E+03
       396  22  4.368993E+05 -6.347457E+01  4.836296E+03  3.264963E+04  1.659483E+03 -2.093772E+02
       396  23  4.364886E+05  1.276395E+02  6.904024E+03  2.756860E+04  5.100821E+03 -2.671338E+03
       396  24  4.368973E+05  1.817115E+03  1.158473E+04  3.264928E+04  8.542104E+03 -4.832273E+03
       396  25  4.413760E+05  1.016707E+03  5.763383E+03  3.233343E+04 -2.008165E+03 -2.100965E+02
       396  26  4.783927E+05  1.011021E+04  1.493400E+04  2.772964E+04  1.855775E+03 -2.671917E+03
       396  27  5.163039E+05  2.077536E+04  2.701085E+04  3.328754E+04  5.719888E+03 -4.832719E+03
       397   1  3.338128E+05 -2.534324E+04 -5.667628E+03  3.713790E+04 -1.422846E+04  6.372064E+03
       397   2  2.918095E+05 -2.714407E+04 -3.374875E+03  1.588076E+04 -2.114398E+04  6.644714E+03
       397   3  2.587584E+05  3.251272E+03  1.146848E+04  4.517041E+03 -2.805869E+04  2.185300E+03
       397   4  4.389599E+05 -2.340128E+02  1.478527E+04  3.259038E+04 -1.052605E+04  6.372696E+03
       397   5  4.339030E+05  7.154170E+03  2.606370E+04  2.764121E+04 -2.408511E+04  6.643810E+03
       397   6  4.389463E+05  4.788619E+04  5.450180E+04  3.258461E+04 -3.764392E+04  2.182989E+03
       397   7  5.441176E+05  2.487464E+04  3.523771E+04  2.804208E+04 -6.823027E+03  6.373274E+03
       397   8  5.760159E+05  4.145165E+04  5.550129E+04  3.940441E+04 -2.702690E+04  6.642795E+03
       397   9  6.191658E+05  9.252177E+04  9.753360E+04  6.066037E+04 -4.723192E+04  2.179812E+03
       397  10  3.338126E+05 -2.534334E+04 -5.668085E+03  3.713797E+04 -4.748995E-11  4.897127E-11
       397  11  2.918090E+05 -2.714423E+04 -3.375797E+03  1.588087E+04 -1.113708E-10 -1.095890E-10
       397  12  2.587576E+05  3.251055E+03  1.146699E+04  4.517090E+03 -1.483593E-10 -6.611715E-11
       397  13  4.389597E+05 -2.340861E+02  1.478499E+04  3.259044E+04 -4.237048E-10 -1.080597E-10
       397  14  4.339023E+05  7.153967E+03  2.606253E+04  2.764134E+04 -3.940705E-10  8.500459E-12
       397  15  4.389448E+05  4.788580E+04  5.449913E+04  3.258468E+04 -1.912190E-10  1.798818E-11
       397  16  5.441175E+05  2.487459E+04  3.523755E+04  2.804212E+04 -8.390182E-11  1.793516E-10
       397  17  5.760151E+05  4.145141E+04  5.549983E+04  3.940455E+04 -1.602508E-10 -3.706291E-11
       397  18  6.191634E+05  9.252116E+04  9.752940E+04  6.066045E+04  3.287304E-10  1.420722E-10
       397  19  3.338128E+05 -2.534324E+04 -5.667628E+03  3.713790E+04  1.422846E+04 -6.372064E+03
       397  20  2.918095E+05 -2.714407E+04 -3.374875E+03  1.588076E+04  2.114398E+04 -6.644714E+03
       397  21  2.587584E+05  3.251272E+03  1.146848E+04  4.517041E+03  2.805869E+04 -2.185300E+03
       397  22  4.389599E+05 -2.340128E+02  1.478527E+04  3.259038E+04  1.052605E+04 -6.372696E+03
       397  23  4.339030E+05  7.154170E+03  2.606370E+04  2.764121E+04  2.408511E+04 -6.643810E+03
       397  24  4.389463E+05  4.788619E+04  5.450180E+04  3.258461E+04  3.764392E+04 -2.182989E+03
       397  25  5.441176E+05  2.487464E+04  3.523771E+04  2.804208E+04  6.823027E+03 -6.373274E+03
       397  26  5.760159E+05  4.145165E+04  5.550129E+04  3.940441E+04  2.702690E+04 -6.642795E+03
       397  27  6.191658E+05  9.252177E+04  9.753360E+04  6.066037E+04  4.723192E+04 -2.179812E+03
       398   1 -1.784467E+05 -6.958190E+05 -2.123732E+05  8.149012E+04 -1.165606E+03 -1.263838E+05
       398   2 -1.169049E+04 -6.456330E+05 -1.051214E+05  3.096485E+04 -3.226948E+03 -7.787900E+04
       398   3 -5.174597E+03 -6.418354E+05 -6.952855E+04 -6.526232E+03 -2.376460E+03 -2.937180E+04
       398   4 -1.520302E+05 -5.897371E+05 -1.864117E+05  1.592220E+04 -1.152186E+03 -1.236667E+05
       398   5  7.724149E+03 -5.667187E+05 -8.700116E+04  9.400857E+03 -3.224192E+03 -7.741045E+04
       398   6  7.633576E+03 -5.896948E+05 -5.767946E+04  1.591829E+04 -2.377648E+03 -3.115407E+04
       398   7 -1.255984E+05 -4.836357E+05 -1.604487E+05 -4.965697E+04 -1.139343E+03 -1.209491E+05
       398   8  2.714010E+04 -4.877976E+05 -6.888104E+04 -1.216590E+04 -3.221468E+03 -7.694184E+04
       398   9  2.044346E+04 -5.375506E+05 -4.583027E+04  3.836471E+04 -2.378966E+03 -3.293649E+04
       398  10 -1.784510E+05 -6.958362E+05 -2.124032E+05  8.149000E+04 -2.895693E-10 -4.015207E-10
       398  11 -1.169213E+04 -6.456395E+05 -1.051329E+05  3.096465E+04 -6.153326E-10 -4.295398E-10
       398  12 -5.174835E+03 -6.418364E+05 -6.953018E+04 -6.526288E+03  8.293649E-11 -9.708515E-10
       398  13 -1.520343E+05 -5.897535E+05 -1.864404E+05  1.592208E+04 -1.623545E-10  3.645557E-11
       398  14  7.722527E+03 -5.667251E+05 -8.701245E+04  9.400656E+03 -6.222330E-10  4.498789E-11
       398  15  7.633309E+03 -5.896959E+05 -5.768130E+04  1.591823E+04 -3.769721E-10  1.067384E-10
       398  16 -1.256023E+05 -4.836514E+05 -1.604762E+05 -4.965708E+04 -7.842358E-11  2.938132E-10
       398  17  2.713850E+04 -4.878040E+05 -6.889219E+04 -1.216610E+04 -4.516423E-10  3.374600E-10
       398  18  2.044316E+04 -5.375518E+05 -4.583232E+04  3.836465E+04 -3.041384E-10  9.711452E-10
       398  19 -1.784467E+05 -6.958190E+05 -2.123732E+05  8.149012E+04  1.165606E+03  1.263838E+05
       398  20 -1.169049E+04 -6.456330E+05 -1.051214E+05  3.096485E+04  3.226948E+03  7.787900E+04
       398  21 -5.174597E+03 -6.418354E+05 -6.952855E+04 -6.526232E+03  2.376460E+03  2.937180E+04
       398  22 -1.520302E+05 -5.897371E+05 -1.864117E+05  1.592220E+04  1.152186E+03  1.236667E+05
       398  23  7.724149E+03 -5.667187E+05 -8.700116E+04  9.400857E+03  3.224192E+03  7.741045E+04
       398  24  7.633576E+03 -5.896948E+05 -5.767946E+04  1.591829E+04  2.377648E+03  3.115407E+04
       398  25 -1.255984E+05 -4.836357E+05 -1.604487E+05 -4.965697E+04  1.139343E+03  1.209491E+05
       398  26  2.714010E+04 -4.877976E+05 -6.888104E+04 -1.216590E+04  3.221468E+03  7.694184E+04
       398  27  2.044346E+04 -5.375506E+05 -4.583027E+04  3.836471E+04  2.378966E+03  3.293649E+04
       399   1 -1.665530E+04 -6.088294E+05 -5.674103E+04  2.118780E+04 -1.233170E+03 -2.134778E+04
       399   2  1.183895E+03 -5.778725E+05 -3.990520E+04  9.456474E+03 -2.709346E+01 -1.272477E+03
       399   3 -2.223130E+03 -5.548454E+05 -4.145907E+04  1.089415E+04  1.180004E+03  1.880370E+04
       399   4 -9.879485E+03 -5.812441E+05 -5.046006E+04  1.594871E+04 -1.233067E+03 -2.227853E+04
       399   5  1.329703E+03 -5.772787E+05 -3.977024E+04  9.364050E+03 -2.717025E+01 -2.203821E+03
       399   6 -8.707168E+03 -5.812436E+05 -4.746933E+04  1.594861E+04  1.180079E+03  1.787091E+04
       399   7 -3.103622E+03 -5.536581E+05 -4.417913E+04  1.070938E+04 -1.232949E+03 -2.320932E+04
       399   8  1.475513E+03 -5.766849E+05 -3.963528E+04  9.271625E+03 -2.724677E+01 -3.135166E+03
       399   9 -1.519116E+04 -6.076411E+05 -5.347961E+04  2.100286E+04  1.180138E+03  1.693817E+04
       399  10 -1.665542E+04 -6.088299E+05 -5.674189E+04  2.118778E+04  7.301038E-10 -7.541797E-09
       399  11  1.183894E+03 -5.778725E+05 -3.990520E+04  9.456474E+03  1.126216E-09  3.067550E-11
       399  12 -2.223226E+03 -5.548458E+05 -4.145974E+04  1.089413E+04  4.675319E-10  7.924244E-09
       399  13 -9.879620E+03 -5.812447E+05 -5.046100E+04  1.594868E+04  1.978905E-10 -1.007664E-10
       399  14  1.329702E+03 -5.772787E+05 -3.977025E+04  9.364050E+03  6.681290E-10  1.507207E-10
       399  15 -8.707255E+03 -5.812439E+05 -4.746993E+04  1.594860E+04 -8.849050E-11  3.275692E-10
       399  16 -3.103768E+03 -5.536587E+05 -4.418015E+04  1.070936E+04  2.026028E-10  7.485053E-09
       399  17  1.475510E+03 -5.766849E+05 -3.963529E+04  9.271625E+03  1.087432E-09 -3.294178E-10
       399  18 -1.519124E+04 -6.076414E+05 -5.348016E+04  2.100285E+04  6.977730E-10 -7.768350E-09
       399  19 -1.665530E+04 -6.088294E+05 -5.674103E+04  2.118780E+04  1.233170E+03  2.134778E+04
       399  20  1.183895E+03 -5.778725E+05 -3.990520E+04  9.456474E+03  2.709346E+01  1.272477E+03
       399  21 -2.223130E+03 -5.548454E+05 -4.145907E+04  1.089415E+04 -1.180004E+03 -1.880370E+04
       399  22 -9.879485E+03 -5.812441E+05 -5.046006E+04  1.594871E+04  1.233067E+03  2.227853E+04
       399  23  1.329703E+03 -5.772787E+05 -3.977024E+04  9.364050E+03  2.717025E+01  2.203821E+03
       399  24 -8.707168E+03 -5.812436E+05 -4.746933E+04  1.594861E+04 -1.180079E+03 -1.787091E+04
       399  25 -3.103622E+03 -5.536581E+05 -4.417913E+04  1.070938E+04  1.232949E+03  2.320932E+04
       399  26  1.475513E+03 -5.766849E+05 -3.963528E+04  9.271625E+03  2.724677E+01  3.135166E+03
       399  27 -1.519116E+04 -6.076411E+05 -5.347961E+04  2.100286E+04 -1.180138E+03 -1.693817E+04
       400   1  1.920502E+04 -5.376711E+05 -4.172889E+04  3.597136E+04  2.322619E+03  2.794077E+04
       400   2  2.604175E+04 -4.903155E+05 -6.070294E+04 -9.898996E+03  3.171356E+03  6.744760E+04
       400   3 -1.097005E+05 -4.837514E+05 -1.410509E+05 -4.272788E+04  1.126352E+03  1.069562E+05
       400   4  6.687247E+03 -5.886274E+05 -5.330885E+04  1.591883E+04  2.321589E+03  2.616586E+04
       400   5  6.917032E+03 -5.680518E+05 -7.855204E+04  9.400184E+03  3.173502E+03  6.790139E+04
       400   6 -1.358352E+05 -5.886654E+05 -1.667246E+05  1.592250E+04  1.136525E+03  1.096368E+05
       400   7 -5.829191E+03 -6.395805E+05 -6.488875E+04 -4.132033E+03  2.320673E+03  2.439109E+04
       400   8 -1.220670E+04 -6.457816E+05 -9.640133E+04  2.869693E+04  3.175676E+03  6.835512E+04
       400   9 -1.619578E+05 -6.935619E+05 -1.923971E+05  7.456294E+04  1.147206E+03  1.123169E+05
       400  10  1.920480E+04 -5.376719E+05 -4.173037E+04  3.597131E+04  1.168356E-10  1.058303E-09
       400  11  2.604051E+04 -4.903204E+05 -6.071151E+04 -9.899168E+03 -3.894508E-10  4.137926E-10
       400  12 -1.097035E+05 -4.837637E+05 -1.410724E+05 -4.272797E+04 -3.451182E-10  2.271710E-10
       400  13  6.687057E+03 -5.886281E+05 -5.331015E+04  1.591878E+04 -2.452409E-10 -3.278485E-11
       400  14  6.915782E+03 -5.680567E+05 -7.856073E+04  9.400011E+03 -4.769392E-10 -9.266400E-12
       400  15 -1.358384E+05 -5.886783E+05 -1.667472E+05  1.592240E+04 -4.120751E-11  1.307443E-10
       400  16 -5.829357E+03 -6.395811E+05 -6.488988E+04 -4.132078E+03 -1.269085E-10 -9.585943E-10
       400  17 -1.220797E+04 -6.457866E+05 -9.641014E+04  2.869675E+04 -5.106583E-10 -2.368962E-10
       400  18 -1.619612E+05 -6.935755E+05 -1.924209E+05  7.456284E+04 -4.790232E-11 -2.485840E-10
       400  19  1.920502E+04 -5.376711E+05 -4.172889E+04  3.597136E+04 -2.322619E+03 -2.794077E+04
       400  20  2.604175E+04 -4.903155E+05 -6.070294E+04 -9.898996E+03 -3.171356E+03 -6.744760E+04
       400  21 -1.097005E+05 -4.837514E+05 -1.410509E+05 -4.272788E+04 -1.126352E+03 -1.069562E+05
       400  22  6.687247E+03 -5.886274E+05 -5.330885E+04  1.591883E+04 -2.321589E+03 -2.616586E+04
       400  23  6.917032E+03 -5.680518E+05 -7.855204E+04  9.400184E+03 -3.173502E+03 -6.790139E+04
       400  24 -1.358352E+05 -5.886654E+05 -1.667246E+05  1.592250E+04 -1.136525E+03 -1.096368E+05
       400  25 -5.829191E+03 -6.395805E+05 -6.488875E+04 -4.132033E+03 -2.320673E+03 -2.439109E+04
       400  26 -1.220670E+04 -6.457816E+05 -9.640133E+04  2.869693E+04 -3.175676E+03 -6.835512E+04
       400  27 -1.619578E+05 -6.935619E+05 -1.923971E+05  7.456294E+04 -1.147206E+03 -1.123169E+05
       401   1  2.429372E+05  1.552551E+05  1.254977E+04  1.904459E+05  2.069703E+04  1.944200E+04
       401   2  2.620208E+05  1.215510E+05 -5.918804E+03  2.130986E+05  1.096304E+04  2.126517E+04
       401   3  3.013201E+05  1.052658E+05 -1.267851E+04  2.243116E+05  4.455029E+03  1.878625E+04
       401   4  4.591163E+05  2.403698E+05  6.884921E+04  2.661983E+05  3.675745E+04  3.148375E+04
       401   5  4.374900E+05  2.118937E+05  3.412558E+04  2.860479E+05  1.837834E+04  2.682457E+04
       401   6  4.379476E+05  2.027052E+05  1.860648E+04  2.944587E+05  3.225425E+03  1.786383E+04
       401   7  6.753533E+05  3.254931E+05  1.251482E+05  3.419744E+05  5.282597E+04  4.352822E+04
       401   8  6.129983E+05  3.022469E+05  7.416952E+04  3.590190E+05  2.579664E+04  3.238545E+04
       401   9  5.745995E+05  3.001584E+05  4.989130E+04  3.646252E+05  1.995437E+03  1.694112E+04
       401  10  2.429367E+05  1.552546E+05  1.254826E+04  1.904455E+05 -1.061748E-10  5.448704E-11
       401  11  2.620205E+05  1.215505E+05 -5.919879E+03  2.130984E+05 -1.072779E-10 -8.579241E-12
       401  12  3.013200E+05  1.052654E+05 -1.267921E+04  2.243116E+05 -1.009214E-10  1.431667E-11
       401  13  4.591146E+05  2.403684E+05  6.884481E+04  2.661974E+05 -8.327851E-11 -5.461140E-11
       401  14  4.374895E+05  2.118928E+05  3.412360E+04  2.860475E+05 -7.621143E-11 -1.706281E-10
       401  15  4.379475E+05  2.027049E+05  1.860587E+04  2.944587E+05 -1.380542E-10  6.513221E-11
       401  16  6.753498E+05  3.254903E+05  1.251394E+05  3.419725E+05  1.105073E-10  3.427547E-11
       401  17  6.129974E+05  3.022456E+05  7.416630E+04  3.590183E+05  5.399222E-11  1.227213E-10
       401  18  5.745994E+05  3.001581E+05  4.989075E+04  3.646251E+05 -7.743454E-11  1.257081E-10
       401  19  2.429372E+05  1.552551E+05  1.254977E+04  1.904459E+05 -2.069703E+04 -1.944200E+04
       401  20  2.620208E+05  1.215510E+05 -5.918804E+03  2.130986E+05 -1.096304E+04 -2.126517E+04
       401  21  3.013201E+05  1.052658E+05 -1.267851E+04  2.243116E+05 -4.455029E+03 -1.878625E+04
       401  22  4.591163E+05  2.403698E+05  6.884921E+04  2.661983E+05 -3.675745E+04 -3.148375E+04
       401  23  4.374900E+05  2.118937E+05  3.412558E+04  2.860479E+05 -1.837834E+04 -2.682457E+04
       401  24  4.379476E+05  2.027052E+05  1.860648E+04  2.944587E+05 -3.225425E+03 -1.786383E+04
       401  25  6.753533E+05  3.254931E+05  1.251482E+05  3.419744E+05 -5.282597E+04 -4.352822E+04
       401  26  6.129983E+05  3.022469E+05  7.416952E+04  3.590190E+05 -2.579664E+04 -3.238545E+04
       401  27  5.745995E+05  3.001584E+05  4.989130E+04  3.646252E+05 -1.995437E+03 -1.694112E+04
       402   1  3.092216E+05  1.153065E+05 -1.391471E+04  2.305388E+05  2.792091E+03  1.675346E+04
       402   2  3.254227E+05  1.277098E+05 -1.504046E+04  2.415797E+05  1.264274E+03  1.436082E+04
       402   3  3.476235E+05  1.370111E+05 -1.392646E+04  2.506772E+05  9.511922E+01  1.148958E+04
       402   4  4.364896E+05  2.014547E+05  1.403067E+04  2.938115E+05  1.671189E+03  1.591256E+04
       402   5  4.326917E+05  2.016658E+05  7.721042E+03  2.957112E+05 -8.186591E+02  1.279876E+04
       402   6  4.351017E+05  1.989830E+05  4.485137E+03  2.956674E+05 -2.949806E+03  9.206477E+03
       402   7  5.637739E+05  2.876102E+05  4.197429E+04  3.570977E+05  5.500051E+02  1.507146E+04
       402   8  5.399732E+05  2.756278E+05  3.048166E+04  3.498530E+05 -2.902048E+03  1.123637E+04
       402   9  5.225890E+05  2.609599E+05  2.289646E+04  3.406650E+05 -5.995299E+03  6.922940E+03
       402  10  3.092215E+05  1.153062E+05 -1.391525E+04  2.305387E+05  1.290777E-10  1.956732E-10
       402  11  3.254227E+05  1.277096E+05 -1.504085E+04  2.415797E+05  2.719227E-11  1.276090E-10
       402  12  3.476234E+05  1.370109E+05 -1.392671E+04  2.506772E+05  6.262407E-12  1.856637E-10
       402  13  4.364895E+05  2.014545E+05  1.403019E+04  2.938115E+05  6.362396E-11  1.620612E-10
       402  14  4.326917E+05  2.016656E+05  7.720733E+03  2.957112E+05  6.479495E-11  1.183720E-11
       402  15  4.351017E+05  1.989829E+05  4.484961E+03  2.956674E+05 -1.966885E-10  4.883528E-11
       402  16  5.637738E+05  2.876099E+05  4.197386E+04  3.570976E+05 -2.986697E-10  2.704023E-11
       402  17  5.399732E+05  2.756276E+05  3.048140E+04  3.498530E+05 -3.274029E-10  6.362446E-12
       402  18  5.225890E+05  2.609599E+05  2.289630E+04  3.406650E+05 -5.055560E-10 -1.962000E-10
       402  19  3.092216E+05  1.153065E+05 -1.391471E+04  2.305388E+05 -2.792091E+03 -1.675346E+04
       402  20  3.254227E+05  1.277098E+05 -1.504046E+04  2.415797E+05 -1.264274E+03 -1.436082E+04
       402  21  3.476235E+05  1.370111E+05 -1.392646E+04  2.506772E+05 -9.511922E+01 -1.148958E+04
       402  22  4.364896E+05  2.014547E+05  1.403067E+04  2.938115E+05 -1.671189E+03 -1.591256E+04
       402  23  4.326917E+05  2.016658E+05  7.721042E+03  2.957112E+05  8.186591E+02 -1.279876E+04
       402  24  4.351017E+05  1.989830E+05  4.485137E+03  2.956674E+05  2.949806E+03 -9.206477E+03
       402  25  5.637739E+05  2.876102E+05  4.197429E+04  3.570977E+05 -5.500051E+02 -1.507146E+04
       402  26  5.399732E+05  2.756278E+05  3.048166E+04  3.498530E+05  2.902048E+03 -1.123637E+04
       402  27  5.225890E+05  2.609599E+05  2.289646E+04  3.406650E+05  5.995299E+03 -6.922940E+03
       403   1  3.590694E+05  1.454977E+05 -1.230432E+04  2.566940E+05  2.072130E+02  1.016872E+04
       403   2  3.752557E+05  1.608558E+05 -9.592174E+03  2.669625E+05  5.314283E+02  8.026785E+03
       403   3  3.963689E+05  1.716362E+05 -6.169628E+03  2.758471E+05  8.809552E+02  5.850838E+03
       403   4  4.349796E+05  1.988954E+05  3.491047E+03  2.955793E+05 -2.825399E+03  7.894928E+03
       403   5  4.324866E+05  2.011358E+05  2.241236E+03  2.963034E+05 -2.569585E+03  5.701822E+03
       403   6  4.349344E+05  1.988130E+05  1.760767E+03  2.956431E+05 -2.288423E+03  3.474756E+03
       403   7  5.108983E+05  2.522980E+05  1.928681E+04  3.344711E+05 -5.858567E+03  5.620723E+03
       403   8  4.897216E+05  2.414180E+05  1.407458E+04  3.256475E+05 -5.670977E+03  3.376574E+03
       403   9  4.735009E+05  2.259902E+05  9.690883E+03  3.154402E+05 -5.457997E+03  1.098525E+03
       403  10  3.590694E+05  1.454976E+05 -1.230452E+04  2.566940E+05 -4.186716E-10 -1.749172E-10
       403  11  3.752556E+05  1.608557E+05 -9.592295E+03  2.669625E+05  8.094739E-11  1.492297E-11
       403  12  3.963689E+05  1.716361E+05 -6.169694E+03  2.758471E+05  2.904640E-10  6.148928E-11
       403  13  4.349796E+05  1.988954E+05  3.490915E+03  2.955793E+05 -1.465427E-10 -2.716509E-12
       403  14  4.324866E+05  2.011358E+05  2.241162E+03  2.963034E+05  5.198544E-10  4.466638E-11
       403  15  4.349344E+05  1.988130E+05  1.760735E+03  2.956431E+05  2.492278E-10 -1.931329E-10
       403  16  5.108983E+05  2.522979E+05  1.928669E+04  3.344711E+05  3.202011E-10  6.269355E-11
       403  17  4.897215E+05  2.414180E+05  1.407450E+04  3.256475E+05  9.335273E-11  5.926545E-11
       403  18  4.735009E+05  2.259902E+05  9.690825E+03  3.154402E+05 -3.256538E-10 -2.941191E-11
       403  19  3.590694E+05  1.454977E+05 -1.230432E+04  2.566940E+05 -2.072130E+02 -1.016872E+04
       403  20  3.752557E+05  1.608558E+05 -9.592174E+03  2.669625E+05 -5.314283E+02 -8.026785E+03
       403  21  3.963689E+05  1.716362E+05 -6.169628E+03  2.758471E+05 -8.809552E+02 -5.850838E+03
       403  22  4.349796E+05  1.988954E+05  3.491047E+03  2.955793E+05  2.825399E+03 -7.894928E+03
       403  23  4.324866E+05  2.011358E+05  2.241236E+03  2.963034E+05  2.569585E+03 -5.701822E+03
       403  24  4.349344E+05  1.988130E+05  1.760767E+03  2.956431E+05  2.288423E+03 -3.474756E+03
       403  25  5.108983E+05  2.522980E+05  1.928681E+04  3.344711E+05  5.858567E+03 -5.620723E+03
       403  26  4.897216E+05  2.414180E+05  1.407458E+04  3.256475E+05  5.670977E+03 -3.376574E+03
       403  27  4.735009E+05  2.259902E+05  9.690883E+03  3.154402E+05  5.457997E+03 -1.098525E+03
       404   1  4.080978E+05  1.800283E+05 -3.636161E+03  2.818963E+05  1.332789E+03  4.741303E+03
       404   2  4.245873E+05  1.953308E+05  7.362769E+02  2.918924E+05  1.274822E+03  2.363352E+03
       404   3  4.462341E+05  2.063786E+05  6.208972E+03  3.003925E+05  1.090181E+03  1.542468E+02
       404   4  4.349455E+05  1.988286E+05  1.731448E+03  2.956454E+05 -1.839269E+03  2.363261E+03
       404   5  4.325576E+05  2.012665E+05  2.102698E+03  2.961885E+05 -1.558031E+03  2.396173E+02
       404   6  4.352531E+05  1.993758E+05  3.279963E+03  2.952352E+05 -1.403424E+03 -1.715160E+03
       404   7  4.617941E+05  2.176295E+05  7.099102E+03  3.093952E+05 -5.011511E+03 -1.491823E+01
       404   8  4.405281E+05  2.072023E+05  3.469199E+03  3.004847E+05 -4.390963E+03 -1.884180E+03
       404   9  4.242720E+05  1.923730E+05  3.509007E+02  2.900779E+05 -3.897023E+03 -3.584568E+03
       404  10  4.080978E+05  1.800283E+05 -3.636206E+03  2.818963E+05  7.092783E-11 -3.935882E-11
       404  11  4.245873E+05  1.953308E+05  7.362633E+02  2.918924E+05  1.222589E-10  4.802783E-11
       404  12  4.462341E+05  2.063786E+05  6.208970E+03  3.003925E+05  2.267108E-10 -5.040222E-11
       404  13  4.349455E+05  1.988286E+05  1.731431E+03  2.956454E+05  2.075138E-11 -6.644736E-11
       404  14  4.325576E+05  2.012665E+05  2.102693E+03  2.961885E+05  1.786459E-10 -1.465807E-10
       404  15  4.352531E+05  1.993758E+05  3.279954E+03  2.952352E+05 -2.890159E-10  7.929372E-12
       404  16  4.617941E+05  2.176295E+05  7.099054E+03  3.093952E+05 -1.721053E-10 -2.668883E-11
       404  17  4.405281E+05  2.072023E+05  3.469156E+03  3.004847E+05 -4.024611E-10 -1.195448E-10
       404  18  4.242720E+05  1.923730E+05  3.508481E+02  2.900779E+05  6.302781E-12 -2.309263E-11
       404  19  4.080978E+05  1.800283E+05 -3.636161E+03  2.818963E+05 -1.332789E+03 -4.741303E+03
       404  20  4.245873E+05  1.953308E+05  7.362769E+02  2.918924E+05 -1.274822E+03 -2.363352E+03
       404  21  4.462341E+05  2.063786E+05  6.208972E+03  3.003925E+05 -1.090181E+03 -1.542468E+02
       404  22  4.349455E+05  1.988286E+05  1.731448E+03  2.956454E+05  1.839269E+03 -2.363261E+03
       404  23  4.325576E+05  2.012665E+05  2.102698E+03  2.961885E+05  1.558031E+03 -2.396173E+02
       404  24  4.352531E+05  1.993758E+05  3.279963E+03  2.952352E+05  1.403424E+03  1.715160E+03
       404  25  4.617941E+05  2.176295E+05  7.099102E+03  3.093952E+05  5.011511E+03  1.491823E+01
       404  26  4.405281E+05  2.072023E+05  3.469199E+03  3.004847E+05  4.390963E+03  1.884180E+03
       404  27  4.242720E+05  1.923730E+05  3.509007E+02  2.900779E+05  3.897023E+03  3.584568E+03
       405   1  4.578352E+05  2.156312E+05  9.953473E+03  3.067437E+05  1.270823E+03 -9.397324E+02
       405   2  4.788887E+05  2.281917E+05  1.881191E+04  3.134191E+05 -4.575793E+03 -6.072050E+03
       405   3  5.090745E+05  2.419517E+05  3.458065E+04  3.165481E+05 -1.159400E+04 -9.642235E+03
       405   4  4.355551E+05  1.996589E+05  4.207377E+03  2.953750E+05 -1.262159E+03 -2.838677E+03
       405   5  4.336242E+05  2.034845E+05  7.478051E+03  2.940834E+05 -3.969702E+03 -5.617753E+03
       405   6  4.401451E+05  2.078296E+05  1.493712E+04  2.892453E+05 -7.848562E+03 -6.834572E+03
       405   7  4.132760E+05  1.836872E+05 -1.538581E+03  2.840071E+05 -3.794974E+03 -4.737494E+03
       405   8  3.883628E+05  1.787784E+05 -3.855706E+03  2.747495E+05 -3.363683E+03 -5.163495E+03
       405   9  3.712221E+05  1.737091E+05 -4.706395E+03  2.619460E+05 -4.103766E+03 -4.027222E+03
       405  10  4.578352E+05  2.156312E+05  9.953468E+03  3.067437E+05 -7.816794E-11  4.743157E-11
       405  11  4.788887E+05  2.281916E+05  1.881181E+04  3.134191E+05  3.981647E-10  1.209639E-10
       405  12  5.090743E+05  2.419516E+05  3.458023E+04  3.165480E+05  3.053646E-11  1.739078E-10
       405  13  4.355551E+05  1.996589E+05  4.207359E+03  2.953750E+05 -5.576584E-11  5.074815E-11
       405  14  4.336242E+05  2.034844E+05  7.477962E+03  2.940834E+05 -1.655228E-10  2.176730E-10
       405  15  4.401450E+05  2.078295E+05  1.493692E+04  2.892453E+05  2.401878E-10  4.443171E-12
       405  16  4.132759E+05  1.836872E+05 -1.538650E+03  2.840070E+05 -2.587533E-11  1.032156E-11
       405  17  3.883628E+05  1.787783E+05 -3.855778E+03  2.747495E+05 -2.111953E-10  6.489954E-13
       405  18  3.712221E+05  1.737090E+05 -4.706457E+03  2.619459E+05 -6.380343E-11 -1.348697E-10
       405  19  4.578352E+05  2.156312E+05  9.953473E+03  3.067437E+05 -1.270823E+03  9.397324E+02
       405  20  4.788887E+05  2.281917E+05  1.881191E+04  3.134191E+05  4.575793E+03  6.072050E+03
       405  21  5.090745E+05  2.419517E+05  3.458065E+04  3.165481E+05  1.159400E+04  9.642235E+03
       405  22  4.355551E+05  1.996589E+05  4.207377E+03  2.953750E+05  1.262159E+03  2.838677E+03
       405  23  4.336242E+05  2.034845E+05  7.478051E+03  2.940834E+05  3.969702E+03  5.617753E+03
       405  24  4.401451E+05  2.078296E+05  1.493712E+04  2.892453E+05  7.848562E+03  6.834572E+03
       405  25  4.132760E+05  1.836872E+05 -1.538581E+03  2.840071E+05  3.794974E+03  4.737494E+03
       405  26  3.883628E+05  1.787784E+05 -3.855706E+03  2.747495E+05  3.363683E+03  5.163495E+03
       405  27  3.712221E+05  1.737091E+05 -4.706395E+03  2.619460E+05  4.103766E+03  4.027222E+03
       406   1  6.279194E+05  1.069331E+05  1.051582E+05  1.795087E+05  3.037121E+04 -2.808719E+03
       406   2  4.864567E+05  5.894334E+04  5.534312E+04  1.613008E+05  7.870100E+03 -6.973238E+03
       406   3  3.507392E+05  2.214242E+04  2.296229E+04  1.681349E+05 -1.462548E+04 -2.569606E+03
       406   4  2.653418E+05  1.708984E+04  1.836878E+04  1.681665E+05  1.283672E+04 -2.815118E+03
       406   5  2.640329E+05  5.242409E+03  9.187108E+03  1.556477E+05  8.133844E+03 -6.973410E+03
       406   6  2.653642E+05  1.499036E+03  5.090006E+03  1.681704E+05  3.431144E+03 -2.562542E+03
       406   7 -9.711452E+04 -7.276235E+04 -6.842873E+04  1.568308E+05 -4.687577E+03 -2.820879E+03
       406   8  4.165606E+04 -4.846154E+04 -3.697159E+04  1.499967E+05  8.397495E+03 -6.973586E+03
       406   9  1.799968E+05 -1.914464E+04 -1.278146E+04  1.682059E+05  2.148533E+04 -2.555475E+03
       406  10  6.279184E+05  1.069329E+05  1.051565E+05  1.795088E+05  3.065251E-10 -3.370673E-11
       406  11  4.864566E+05  5.894327E+04  5.534292E+04  1.613009E+05 -3.069286E-11  1.231942E-10
       406  12  3.507390E+05  2.214235E+04  2.296188E+04  1.681348E+05 -5.343146E-10  2.574584E-10
       406  13  2.653416E+05  1.708979E+04  1.836845E+04  1.681665E+05 -3.451993E-10 -2.750881E-10
       406  14  2.640328E+05  5.242339E+03  9.186892E+03  1.556478E+05  6.249845E-11 -2.742195E-10
       406  15  2.653642E+05  1.499026E+03  5.089972E+03  1.681704E+05  1.175035E-10  6.679316E-10
       406  16 -9.711454E+04 -7.276236E+04 -6.842878E+04  1.568308E+05 -2.083266E-10 -6.719486E-11
       406  17  4.165597E+04 -4.846161E+04 -3.697182E+04  1.499967E+05 -7.800835E-11 -2.918278E-10
       406  18  1.799963E+05 -1.914477E+04 -1.278234E+04  1.682059E+05  6.305142E-10  4.594570E-10
       406  19  6.279194E+05  1.069331E+05  1.051582E+05  1.795087E+05 -3.037121E+04  2.808719E+03
       406  20  4.864567E+05  5.894334E+04  5.534312E+04  1.613008E+05 -7.870100E+03  6.973238E+03
       406  21  3.507392E+05  2.214242E+04  2.296229E+04  1.681349E+05  1.462548E+04  2.569606E+03
       406  22  2.653418E+05  1.708984E+04  1.836878E+04  1.681665E+05 -1.283672E+04  2.815118E+03
       406  23  2.640329E+05  5.242409E+03  9.187108E+03  1.556477E+05 -8.133844E+03  6.973410E+03
       406  24  2.653642E+05  1.499036E+03  5.090006E+03  1.681704E+05 -3.431144E+03  2.562542E+03
       406  25 -9.711452E+04 -7.276235E+04 -6.842873E+04  1.568308E+05  4.687577E+03  2.820879E+03
       406  26  4.165606E+04 -4.846154E+04 -3.697159E+04  1.499967E+05 -8.397495E+03  6.973586E+03
       406  27  1.799968E+05 -1.914464E+04 -1.278146E+04  1.682059E+05 -2.148533E+04  2.555475E+03
       407   1  2.626572E+05  1.447768E+03  7.168529E+03  1.689154E+05 -1.523960E+04  2.816767E+03
       407   2  1.238620E+05 -3.163996E+04 -1.685912E+04  1.557291E+05 -1.785958E+04  1.183537E+04
       407   3 -1.434921E+04 -6.382267E+04 -3.895722E+04  1.681754E+05 -2.047816E+04  2.155318E+04
       407   4  2.648488E+05  1.232041E+03  3.901570E+03  1.683015E+05  2.758586E+03  2.823912E+03
       407   5  2.646846E+05  3.576397E+02  2.337505E+03  1.554855E+05  1.588073E+03  1.184221E+04
       407   6  2.648358E+05  1.378194E+02  1.696485E+03  1.683018E+05  4.184491E+02  2.155962E+04
       407   7  2.670411E+05  1.016491E+03  6.358488E+02  1.676877E+05  2.075679E+04  2.831022E+03
       407   8  4.055283E+05  3.235458E+04  2.153535E+04  1.552419E+05  2.103994E+04  1.184903E+04
       407   9  5.441003E+05  6.409495E+04  4.235053E+04  1.684282E+05  2.132406E+04  2.156607E+04
       407  10  2.626570E+05  1.447697E+03  7.168078E+03  1.689154E+05  4.497825E-10 -9.568923E-11
       407  11  1.238616E+05 -3.164020E+04 -1.685999E+04  1.557292E+05  4.985370E-11 -4.305940E-11
       407  12 -1.434979E+04 -6.382328E+04 -3.895888E+04  1.681758E+05 -1.270511E-10 -2.446015E-10
       407  13  2.648488E+05  1.232030E+03  3.901541E+03  1.683015E+05  1.384112E-10  5.955861E-10
       407  14  2.646846E+05  3.574885E+02  2.337236E+03  1.554855E+05  3.714625E-10  3.570436E-10
       407  15  2.648357E+05  1.373202E+02  1.695611E+03  1.683018E+05 -4.023719E-10 -2.328578E-10
       407  16  2.670406E+05  1.016367E+03  6.350245E+02  1.676876E+05 -9.654358E-10  2.510308E-10
       407  17  4.055277E+05  3.235431E+04  2.153426E+04  1.552417E+05  1.197286E-10  3.975072E-10
       407  18  5.440997E+05  6.409433E+04  4.234880E+04  1.684279E+05  6.840855E-11  4.376841E-11
       407  19  2.626572E+05  1.447768E+03  7.168529E+03  1.689154E+05  1.523960E+04 -2.816767E+03
       407  20  1.238620E+05 -3.163996E+04 -1.685912E+04  1.557291E+05  1.785958E+04 -1.183537E+04
       407  21 -1.434921E+04 -6.382267E+04 -3.895722E+04  1.681754E+05  2.047816E+04 -2.155318E+04
       407  22  2.648488E+05  1.232041E+03  3.901570E+03  1.683015E+05 -2.758586E+03 -2.823912E+03
       407  23  2.646846E+05  3.576397E+02  2.337505E+03  1.554855E+05 -1.588073E+03 -1.184221E+04
       407  24  2.648358E+05  1.378194E+02  1.696485E+03  1.683018E+05 -4.184491E+02 -2.155962E+04
       407  25  2.670411E+05  1.016491E+03  6.358488E+02  1.676877E+05 -2.075679E+04 -2.831022E+03
       407  26  4.055283E+05  3.235458E+04  2.153535E+04  1.552419E+05 -2.103994E+04 -1.184903E+04
       407  27  5.441003E+05  6.409495E+04  4.235053E+04  1.684282E+05 -2.132406E+04 -2.156607E+04
       408   1 -1.015839E+05 -8.402672E+04 -5.276094E+04  1.682504E+05 -2.077252E+04  2.754952E+04
       408   2 -2.397832E+05 -1.161092E+05 -7.516401E+04  1.552786E+05 -1.651821E+04  3.638946E+04
       408   3 -3.786047E+05 -1.486368E+05 -1.004439E+05  1.678331E+05 -1.226255E+04  4.275338E+04
       408   4  2.648109E+05  1.177748E+02  1.595463E+03  1.682779E+05  1.348868E+02  2.755475E+04
       408   5  2.646618E+05  1.677219E+02  1.772248E+03  1.555154E+05 -7.498800E+02  3.639039E+04
       408   6  2.647638E+05  6.654404E+02  2.640523E+03  1.682778E+05 -1.632391E+03  4.275108E+04
       408   7  6.313415E+05  8.425621E+04  5.595102E+04  1.683054E+05  2.105413E+04  2.755998E+04
       408   8  7.693622E+05  1.164325E+05  7.870401E+04  1.557523E+05  1.503077E+04  3.639134E+04
       408   9  9.085438E+05  1.499470E+05  1.057144E+05  1.687229E+05  9.008392E+03  4.274880E+04
       408  10 -1.015845E+05 -8.402765E+04 -5.276318E+04  1.682509E+05  7.599505E-11 -1.477981E-11
       408  11 -2.397839E+05 -1.161107E+05 -7.516702E+04  1.552791E+05  3.027038E-10 -2.306466E-10
       408  12 -3.786053E+05 -1.486388E+05 -1.004476E+05  1.678335E+05 -1.473375E-10 -1.536549E-10
       408  13  2.648107E+05  1.169594E+02  1.594036E+03  1.682779E+05 -1.169582E-10 -1.238377E-10
       408  14  2.646615E+05  1.662995E+02  1.769758E+03  1.555154E+05  2.424609E-10 -1.126767E-10
       408  15  2.647633E+05  6.634769E+02  2.637083E+03  1.682778E+05 -6.073413E-10 -2.394600E-10
       408  16  6.313408E+05  8.425527E+04  5.594876E+04  1.683050E+05 -1.825225E-10 -7.300256E-11
       408  17  7.693616E+05  1.164310E+05  7.870110E+04  1.557519E+05 -3.285374E-10 -1.724231E-10
       408  18  9.085433E+05  1.499450E+05  1.057109E+05  1.687226E+05  3.068291E-10 -2.691710E-10
       408  19 -1.015839E+05 -8.402672E+04 -5.276094E+04  1.682504E+05  2.077252E+04 -2.754952E+04
       408  20 -2.397832E+05 -1.161092E+05 -7.516401E+04  1.552786E+05  1.651821E+04 -3.638946E+04
       408  21 -3.786047E+05 -1.486368E+05 -1.004439E+05  1.678331E+05  1.226255E+04 -4.275338E+04
       408  22  2.648109E+05  1.177748E+02  1.595463E+03  1.682779E+05 -1.348868E+02 -2.755475E+04
       408  23  2.646618E+05  1.677219E+02  1.772248E+03  1.555154E+05  7.498800E+02 -3.639039E+04
       408  24  2.647638E+05  6.654404E+02  2.640523E+03  1.682778E+05  1.632391E+03 -4.275108E+04
       408  25  6.313415E+05  8.425621E+04  5.595102E+04  1.683054E+05 -2.105413E+04 -2.755998E+04
       408  26  7.693622E+05  1.164325E+05  7.870401E+04  1.557523E+05 -1.503077E+04 -3.639134E+04
       408  27  9.085438E+05  1.499470E+05  1.057144E+05  1.687229E+05 -9.008392E+03 -4.274880E+04
       409   1 -4.666658E+05 -1.695635E+05 -1.166401E+05  1.679461E+05 -1.287098E+04  4.659765E+04
       409   2 -6.022387E+05 -2.025143E+05 -1.558277E+05  1.524139E+05  3.038550E+04  4.065027E+04
       409   3 -7.440600E+05 -2.382842E+05 -2.238794E+05  1.608440E+05  7.361853E+04  1.239565E+04
       409   4  2.650782E+05  8.056194E+02  3.356338E+03  1.679299E+05 -2.085398E+03  4.659381E+04
       409   5  2.641553E+05  3.146809E+03  5.889358E+03  1.559496E+05 -5.083258E+03  4.064643E+04
       409   6  2.649987E+05  1.070242E+04  1.168931E+04  1.679302E+05 -8.093221E+03  1.240663E+04
       409   7  9.973527E+05  1.711473E+05  1.233378E+05  1.679136E+05  8.712464E+03  4.658997E+04
       409   8  1.131279E+06  2.087653E+05  1.675790E+05  1.594903E+05 -4.060029E+04  4.064219E+04
       409   9  1.275011E+06  2.596207E+05  2.472141E+05  1.750279E+05 -8.993701E+04  1.241575E+04
       409  10 -4.666665E+05 -1.695658E+05 -1.166445E+05  1.679466E+05 -9.044223E-11 -1.783980E-10
       409  11 -6.022401E+05 -2.025163E+05 -1.558325E+05  1.524129E+05 -4.317864E-10 -3.134196E-10
       409  12 -7.440659E+05 -2.382859E+05 -2.238899E+05  1.608432E+05 -6.712155E-10 -2.444980E-10
       409  13  2.650777E+05  8.032867E+02  3.352249E+03  1.679300E+05 -4.279564E-10 -1.938558E-10
       409  14  2.641548E+05  3.145028E+03  5.886205E+03  1.559498E+05  1.870024E-10 -2.415537E-10
       409  15  2.649986E+05  1.070224E+04  1.168889E+04  1.679302E+05  6.720852E-11  1.914786E-11
       409  16  9.973520E+05  1.711449E+05  1.233335E+05  1.679133E+05  6.739355E-11 -2.863865E-10
       409  17  1.131276E+06  2.087631E+05  1.675728E+05  1.594916E+05  1.638593E-11 -6.863327E-11
       409  18  1.275003E+06  2.596184E+05  2.471986E+05  1.750288E+05  4.432075E-10 -2.431451E-10
       409  19 -4.666658E+05 -1.695635E+05 -1.166401E+05  1.679461E+05  1.287098E+04 -4.659765E+04
       409  20 -6.022387E+05 -2.025143E+05 -1.558277E+05  1.524139E+05 -3.038550E+04 -4.065027E+04
       409  21 -7.440600E+05 -2.382842E+05 -2.238794E+05  1.608440E+05 -7.361853E+04 -1.239565E+04
       409  22  2.650782E+05  8.056194E+02  3.356338E+03  1.679299E+05  2.085398E+03 -4.659381E+04
       409  23  2.641553E+05  3.146809E+03  5.889358E+03  1.559496E+05  5.083258E+03 -4.064643E+04
       409  24  2.649987E+05  1.070242E+04  1.168931E+04  1.679302E+05  8.093221E+03 -1.240663E+04
       409  25  9.973527E+05  1.711473E+05  1.233378E+05  1.679136E+05 -8.712464E+03 -4.658997E+04
       409  26  1.131279E+06  2.087653E+05  1.675790E+05  1.594903E+05  4.060029E+04 -4.064219E+04
       409  27  1.275011E+06  2.596207E+05  2.472141E+05  1.750279E+05  8.993701E+04 -1.241575E+04
       410   1 -2.328842E+05 -9.279332E+05 -2.461615E+05  1.526081E+05 -5.698702E+03 -1.118485E+05
       410   2 -1.051828E+05 -8.146686E+05 -1.442934E+05  9.959113E+04 -1.720034E+04 -5.972876E+04
       410   3 -6.360945E+04 -7.297142E+05 -9.792020E+04  7.330024E+04 -1.633628E+04 -7.598980E+03
       410   4 -1.168670E+05 -4.601042E+05 -1.341816E+05  8.445308E+04 -5.683042E+03 -8.761412E+04
       410   5 -1.638420E+04 -4.474009E+05 -6.776768E+04  7.107658E+04 -1.719536E+04 -5.243279E+04
       410   6  9.386339E+02 -4.600564E+05 -4.505400E+04  8.443364E+04 -1.633864E+04 -1.725102E+04
       410   7 -8.479070E+02  7.936815E+03 -2.221258E+04  1.624635E+04 -5.672719E+03 -6.336147E+04
       410   8  7.240883E+04 -8.000359E+04  8.751278E+03  4.254485E+04 -1.719105E+04 -4.513257E+04
       410   9  6.548285E+04 -1.903284E+05  7.809117E+03  9.557197E+04 -1.634134E+04 -2.690717E+04
       410  10 -2.328876E+05 -9.279467E+05 -2.461851E+05  1.526076E+05  2.261008E-11  1.274022E-10
       410  11 -1.051840E+05 -8.146725E+05 -1.443007E+05  9.959030E+04 -1.587262E-10  2.355722E-10
       410  12 -6.360976E+04 -7.297144E+05 -9.792081E+04  7.330014E+04 -1.779030E-10  3.018645E-10
       410  13 -1.168691E+05 -4.601125E+05 -1.341961E+05  8.445268E+04 -5.006466E-11  9.356089E-11
       410  14 -1.638526E+04 -4.474040E+05 -6.777341E+04  7.107586E+04  1.292996E-10 -1.598217E-10
       410  15  9.382674E+02 -4.600568E+05 -4.505506E+04  8.443341E+04 -1.759066E-10  1.931219E-10
       410  16 -8.490193E+02  7.932496E+03 -2.222019E+04  1.624606E+04  1.552943E-10 -1.661363E-10
       410  17  7.240796E+04 -8.000585E+04  8.746895E+03  4.254423E+04  2.601324E-11 -2.830839E-10
       410  18  6.548236E+04 -1.903293E+05  7.807255E+03  9.557162E+04  1.148116E-10 -4.504872E-10
       410  19 -2.328842E+05 -9.279332E+05 -2.461615E+05  1.526081E+05  5.698702E+03  1.118485E+05
       410  20 -1.051828E+05 -8.146686E+05 -1.442934E+05  9.959113E+04  1.720034E+04  5.972876E+04
       410  21 -6.360945E+04 -7.297142E+05 -9.792020E+04  7.330024E+04  1.633628E+04  7.598980E+03
       410  22 -1.168670E+05 -4.601042E+05 -1.341816E+05  8.445308E+04  5.683042E+03  8.761412E+04
       410  23 -1.638420E+04 -4.474009E+05 -6.776768E+04  7.107658E+04  1.719536E+04  5.243279E+04
       410  24  9.386339E+02 -4.600564E+05 -4.505400E+04  8.443364E+04  1.633864E+04  1.725102E+04
       410  25 -8.479070E+02  7.936815E+03 -2.221258E+04  1.624635E+04  5.672719E+03  6.336147E+04
       410  26  7.240883E+04 -8.000359E+04  8.751278E+03  4.254485E+04  1.719105E+04  4.513257E+04
       410  27  6.548285E+04 -1.903284E+05  7.809117E+03  9.557197E+04  1.634134E+04  2.690717E+04
       411   1 -5.220686E+04 -6.566646E+05 -7.990574E+04  8.752377E+04 -1.222303E+04 -3.215714E+03
       411   2 -2.509822E+04 -5.551158E+05 -5.834321E+04  7.070937E+04 -6.701599E+03  1.660019E+04
       411   3 -7.467455E+03 -4.585193E+05 -5.206160E+04  8.134204E+04 -8.425962E+02  3.641839E+04
       411   4 -4.070986E+03 -4.555027E+05 -4.050459E+04  8.459461E+04 -1.222505E+04 -1.055093E+04
       411   5 -7.681367E+02 -4.530594E+05 -3.880808E+04  7.087137E+04 -6.704099E+03  8.804998E+03
       411   6 -6.861827E+03 -4.554976E+05 -5.207097E+04  8.459544E+04 -8.454342E+02  2.816020E+04
       411   7  4.406251E+04 -2.543018E+05 -1.105185E+03  8.166447E+04 -1.222700E+04 -1.788847E+04
       411   8  2.356137E+04 -3.509928E+05 -1.927320E+04  7.103340E+04 -6.706603E+03  1.008551E+03
       411   9 -6.256122E+03 -4.524757E+05 -5.208007E+04  8.784885E+04 -8.483589E+02  1.990197E+04
       411  10 -5.220702E+04 -6.566647E+05 -7.990604E+04  8.752373E+04 -1.654882E-10  1.520836E-10
       411  11 -2.509835E+04 -5.551161E+05 -5.834381E+04  7.070946E+04  3.671345E-11  4.207652E-10
       411  12 -7.467813E+03 -4.585207E+05 -5.206409E+04  8.134206E+04  1.237431E-10  6.500383E-10
       411  13 -4.071176E+03 -4.555028E+05 -4.050508E+04  8.459450E+04 -2.259057E-10  1.993520E-10
       411  14 -7.682057E+02 -4.530595E+05 -3.880831E+04  7.087142E+04  4.513131E-10 -1.674407E-10
       411  15 -6.862041E+03 -4.554985E+05 -5.207246E+04  8.459546E+04  5.415421E-11  3.303890E-10
       411  16  4.406227E+04 -2.543022E+05 -1.106068E+03  8.166429E+04  7.935362E-12  3.517850E-11
       411  17  2.356132E+04 -3.509928E+05 -1.927328E+04  7.103340E+04 -3.041969E-10 -2.457102E-10
       411  18 -6.256229E+03 -4.524762E+05 -5.208082E+04  8.784887E+04 -7.367171E-11 -1.019844E-09
       411  19 -5.220686E+04 -6.566646E+05 -7.990574E+04  8.752377E+04  1.222303E+04  3.215714E+03
       411  20 -2.509822E+04 -5.551158E+05 -5.834321E+04  7.070937E+04  6.701599E+03 -1.660019E+04
       411  21 -7.467455E+03 -4.585193E+05 -5.206160E+04  8.134204E+04  8.425962E+02 -3.641839E+04
       411  22 -4.070986E+03 -4.555027E+05 -4.050459E+04  8.459461E+04  1.222505E+04  1.055093E+04
       411  23 -7.681367E+02 -4.530594E+05 -3.880808E+04  7.087137E+04  6.704099E+03 -8.804998E+03
       411  24 -6.861827E+03 -4.554976E+05 -5.207097E+04  8.459544E+04  8.454342E+02 -2.816020E+04
       411  25  4.406251E+04 -2.543018E+05 -1.105185E+03  8.166447E+04  1.222700E+04  1.788847E+04
       411  26  2.356137E+04 -3.509928E+05 -1.927320E+04  7.103340E+04  6.706603E+03 -1.008551E+03
       411  27 -6.256122E+03 -4.524757E+05 -5.208007E+04  8.784885E+04  8.483589E+02 -1.990197E+04
       412   1  1.736671E+04 -3.980814E+05 -4.943455E+04  1.029003E+05  3.258569E+03  4.647669E+04
       412   2  1.331380E+04 -2.795712E+05 -6.944702E+04  2.554432E+04  6.558631E+03  9.084618E+04
       412   3 -1.224938E+05 -1.997639E+05 -1.512856E+05 -2.473990E+04  2.550146E+03  1.352240E+05
       412   4  1.591616E+03 -4.634032E+05 -6.288102E+04  8.450525E+04  3.253762E+03  3.694506E+04
       412   5 -2.640924E+04 -4.431898E+05 -1.045237E+05  7.099158E+04  6.565568E+03  9.131820E+04
       412   6 -1.879389E+05 -4.634534E+05 -2.149587E+05  8.455575E+04  2.577079E+03  1.456919E+05
       412   7 -1.418243E+04 -5.287199E+05 -7.632719E+04  6.611214E+04  3.249520E+03  2.741443E+04
       412   8 -6.612627E+04 -6.067787E+05 -1.396009E+05  1.164267E+05  6.572576E+03  9.179010E+04
       412   9 -2.533440E+05 -7.270534E+05 -2.786299E+05  1.938048E+05  2.607708E+03  1.561554E+05
       412  10  1.736612E+04 -3.980837E+05 -4.943863E+04  1.029002E+05 -8.960774E-12 -2.569418E-10
       412  11  1.331154E+04 -2.795801E+05 -6.946262E+04  2.554384E+04 -3.080468E-10  5.647315E-11
       412  12 -1.224987E+05 -1.997835E+05 -1.513200E+05 -2.474018E+04  2.174285E-11  3.448693E-10
       412  13  1.591238E+03 -4.634046E+05 -6.288360E+04  8.450515E+04  3.110055E-10  6.374087E-11
       412  14 -2.641153E+04 -4.431987E+05 -1.045395E+05  7.099109E+04  1.671482E-10 -1.194673E-10
       412  15 -1.879446E+05 -4.634762E+05 -2.149986E+05  8.455545E+04 -2.352737E-10  1.355867E-10
       412  16 -1.418264E+04 -5.287207E+05 -7.632862E+04  6.611206E+04  4.537873E-11  4.575882E-10
       412  17 -6.612858E+04 -6.067877E+05 -1.396168E+05  1.164262E+05 -4.624188E-10  1.201861E-10
       412  18 -2.533506E+05 -7.270797E+05 -2.786758E+05  1.938045E+05 -1.049807E-11 -6.725003E-10
       412  19  1.736671E+04 -3.980814E+05 -4.943455E+04  1.029003E+05 -3.258569E+03 -4.647669E+04
       412  20  1.331380E+04 -2.795712E+05 -6.944702E+04  2.554432E+04 -6.558631E+03 -9.084618E+04
       412  21 -1.224938E+05 -1.997639E+05 -1.512856E+05 -2.473990E+04 -2.550146E+03 -1.352240E+05
       412  22  1.591616E+03 -4.634032E+05 -6.288102E+04  8.450525E+04 -3.253762E+03 -3.694506E+04
       412  23 -2.640924E+04 -4.431898E+05 -1.045237E+05  7.099158E+04 -6.565568E+03 -9.131820E+04
       412  24 -1.879389E+05 -4.634534E+05 -2.149587E+05  8.455575E+04 -2.577079E+03 -1.456919E+05
       412  25 -1.418243E+04 -5.287199E+05 -7.632719E+04  6.611214E+04 -3.249520E+03 -2.741443E+04
       412  26 -6.612627E+04 -6.067787E+05 -1.396009E+05  1.164267E+05 -6.572576E+03 -9.179010E+04
       412  27 -2.533440E+05 -7.270534E+05 -2.786299E+05  1.938048E+05 -2.607708E+03 -1.561554E+05
       413   1  1.087552E+06  8.256705E+05  3.055706E+05  7.108675E+05  1.723932E+05  1.299080E+05
       413   2  1.002638E+06  5.716296E+05  1.263267E+05  8.121713E+05  1.120996E+05  8.593046E+04
       413   3  1.085614E+06  5.561801E+05  7.495644E+04  8.048042E+05  5.230596E+04  4.128408E+04
       413   4  1.190024E+06  7.816841E+05  3.171233E+05  7.078393E+05  1.729329E+05  1.302819E+05
       413   5  1.059075E+06  5.787781E+05  1.386117E+05  8.249453E+05  1.123201E+05  8.609008E+04
       413   6  1.096069E+06  6.145070E+05  8.823179E+04  8.333848E+05  5.221432E+04  4.121949E+04
       413   7  1.292516E+06  7.377091E+05  3.286786E+05  7.048068E+05  1.734726E+05  1.306557E+05
       413   8  1.115515E+06  5.859270E+05  1.508967E+05  8.377197E+05  1.125405E+05  8.624970E+04
       413   9  1.106526E+06  6.728403E+05  1.015074E+05  8.619669E+05  5.212268E+04  4.115489E+04
       413  10  1.087515E+06  8.256445E+05  3.054833E+05  7.108495E+05  3.973529E-10  2.260891E-11
       413  11  1.002623E+06  5.716183E+05  1.262893E+05  8.121636E+05  2.634087E-10 -2.556556E-10
       413  12  1.085611E+06  5.561776E+05  7.494812E+04  8.048025E+05 -4.910648E-11 -1.807542E-10
       413  13  1.189987E+06  7.816579E+05  3.170355E+05  7.078212E+05  6.809743E-11  9.718506E-11
       413  14  1.059059E+06  5.787668E+05  1.385742E+05  8.249375E+05  9.502376E-10  5.066325E-10
       413  15  1.096066E+06  6.145045E+05  8.822350E+04  8.333831E+05  4.387766E-10  1.659398E-10
       413  16  1.292479E+06  7.376828E+05  3.285902E+05  7.047885E+05 -1.774044E-10 -1.236674E-10
       413  17  1.115500E+06  5.859157E+05  1.508590E+05  8.377119E+05 -1.273294E-10 -2.394225E-10
       413  18  1.106523E+06  6.728377E+05  1.014991E+05  8.619651E+05  2.513766E-10  2.321162E-10
       413  19  1.087552E+06  8.256705E+05  3.055706E+05  7.108675E+05 -1.723932E+05 -1.299080E+05
       413  20  1.002638E+06  5.716296E+05  1.263267E+05  8.121713E+05 -1.120996E+05 -8.593046E+04
       413  21  1.085614E+06  5.561801E+05  7.495644E+04  8.048042E+05 -5.230596E+04 -4.128408E+04
       413  22  1.190024E+06  7.816841E+05  3.171233E+05  7.078393E+05 -1.729329E+05 -1.302819E+05
       413  23  1.059075E+06  5.787781E+05  1.386117E+05  8.249453E+05 -1.123201E+05 -8.609008E+04
       413  24  1.096069E+06  6.145070E+05  8.823179E+04  8.333848E+05 -5.221432E+04 -4.121949E+04
       413  25  1.292516E+06  7.377091E+05  3.286786E+05  7.048068E+05 -1.734726E+05 -1.306557E+05
       413  26  1.115515E+06  5.859270E+05  1.508967E+05  8.377197E+05 -1.125405E+05 -8.624970E+04
       413  27  1.106526E+06  6.728403E+05  1.015074E+05  8.619669E+05 -5.212268E+04 -4.115489E+04
       414   1  1.047166E+06  6.093521E+05  5.775618E+04  7.854130E+05  4.096161E+04  3.274760E+04
       414   2  1.035362E+06  5.763672E+05  2.222724E+04  7.946686E+05  2.508289E+04  2.115006E+04
       414   3  1.040568E+06  5.749783E+05  8.687076E+03  7.929905E+05  9.242286E+03  9.502097E+03
       414   4  1.099536E+06  6.343306E+05  7.274956E+04  8.056916E+05  4.106526E+04  3.282454E+04
       414   5  1.085759E+06  6.091465E+05  3.831506E+04  8.182079E+05  2.516216E+04  2.120936E+04
       414   6  1.088997E+06  6.155618E+05  2.588884E+04  8.197910E+05  9.297232E+03  9.543374E+03
       414   7  1.151909E+06  6.593095E+05  8.774269E+04  8.259717E+05  4.116893E+04  3.290147E+04
       414   8  1.136159E+06  6.419270E+05  5.440260E+04  8.417492E+05  2.524144E+04  2.126867E+04
       414   9  1.137428E+06  6.561475E+05  4.309033E+04  8.465941E+05  9.352185E+03  9.584656E+03
       414  10  1.047164E+06  6.093505E+05  5.775103E+04  7.854119E+05  3.240616E-11  1.417024E-10
       414  11  1.035361E+06  5.763666E+05  2.222522E+04  7.946682E+05  5.177426E-10  1.418830E-10
       414  12  1.040568E+06  5.749782E+05  8.686746E+03  7.929904E+05  9.793292E-11  9.625671E-11
       414  13  1.099534E+06  6.343290E+05  7.274438E+04  8.056905E+05  7.066138E-11  7.137998E-11
       414  14  1.085759E+06  6.091459E+05  3.831303E+04  8.182074E+05  1.286062E-10  1.248455E-10
       414  15  1.088997E+06  6.155617E+05  2.588850E+04  8.197909E+05  3.288556E-10  1.789691E-10
       414  16  1.151906E+06  6.593079E+05  8.773748E+04  8.259706E+05 -2.644560E-10 -1.871741E-10
       414  17  1.136159E+06  6.419263E+05  5.440056E+04  8.417488E+05  6.933935E-10  1.010484E-10
       414  18  1.137428E+06  6.561473E+05  4.308999E+04  8.465940E+05  6.861997E-10  2.495131E-10
       414  19  1.047166E+06  6.093521E+05  5.775618E+04  7.854130E+05 -4.096161E+04 -3.274760E+04
       414  20  1.035362E+06  5.763672E+05  2.222724E+04  7.946686E+05 -2.508289E+04 -2.115006E+04
       414  21  1.040568E+06  5.749783E+05  8.687076E+03  7.929905E+05 -9.242286E+03 -9.502097E+03
       414  22  1.099536E+06  6.343306E+05  7.274956E+04  8.056916E+05 -4.106526E+04 -3.282454E+04
       414  23  1.085759E+06  6.091465E+05  3.831506E+04  8.182079E+05 -2.516216E+04 -2.120936E+04
       414  24  1.088997E+06  6.155618E+05  2.588884E+04  8.197910E+05 -9.297232E+03 -9.543374E+03
       414  25  1.151909E+06  6.593095E+05  8.774269E+04  8.259717E+05 -4.116893E+04 -3.290147E+04
       414  26  1.136159E+06  6.419270E+05  5.440260E+04  8.417492E+05 -2.524144E+04 -2.126867E+04
       414  27  1.137428E+06  6.561475E+05  4.309033E+04  8.465941E+05 -9.352185E+03 -9.584656E+03
       415   1  1.030368E+06  5.777038E+05  3.499009E+03  7.887914E+05  5.704258E+03  6.978963E+03
       415   2  1.027162E+06  5.683941E+05 -1.499624E+03  7.870967E+05 -2.015752E+03  1.448367E+03
       415   3  1.024903E+06  5.701099E+05  1.819515E+03  7.841688E+05 -9.728285E+03 -4.091783E+03
       415   4  1.089132E+06  6.175840E+05  2.259548E+04  8.169984E+05  5.780749E+03  7.036268E+03
       415   5  1.088702E+06  6.121504E+05  1.886810E+04  8.175554E+05 -1.944495E+03  1.501757E+03
       415   6  1.089221E+06  6.177427E+05  2.346229E+04  8.168792E+05 -9.662323E+03 -4.042396E+03
       415   7  1.147899E+06  6.574657E+05  4.169141E+04  8.452082E+05  5.857250E+03  7.093580E+03
       415   8  1.150247E+06  6.559087E+05  3.923526E+04  8.480173E+05 -1.873229E+03  1.555155E+03
       415   9  1.153543E+06  6.653780E+05  4.510449E+04  8.495934E+05 -9.596352E+03 -3.993002E+03
       415  10  1.030368E+06  5.777038E+05  3.498856E+03  7.887913E+05 -1.333267E-10  1.181083E-10
       415  11  1.027162E+06  5.683941E+05 -1.499635E+03  7.870967E+05 -1.172022E-10  9.724198E-11
       415  12  1.024903E+06  5.701098E+05  1.819307E+03  7.841688E+05  4.262979E-10  6.260528E-11
       415  13  1.089132E+06  6.175840E+05  2.259532E+04  8.169984E+05  4.729865E-10  3.433258E-10
       415  14  1.088702E+06  6.121504E+05  1.886809E+04  8.175554E+05  3.752343E-11  7.465181E-11
       415  15  1.089220E+06  6.177427E+05  2.346209E+04  8.168791E+05  6.799206E-10  2.696395E-11
       415  16  1.147899E+06  6.574656E+05  4.169125E+04  8.452082E+05  9.670385E-11  1.795750E-10
       415  17  1.150247E+06  6.559087E+05  3.923525E+04  8.480173E+05  5.748692E-11  2.484421E-10
       415  18  1.153543E+06  6.653780E+05  4.510429E+04  8.495934E+05  1.714813E-10  3.179111E-11
       415  19  1.030368E+06  5.777038E+05  3.499009E+03  7.887914E+05 -5.704258E+03 -6.978963E+03
       415  20  1.027162E+06  5.683941E+05 -1.499624E+03  7.870967E+05  2.015752E+03 -1.448367E+03
       415  21  1.024903E+06  5.701099E+05  1.819515E+03  7.841688E+05  9.728285E+03  4.091783E+03
       415  22  1.089132E+06  6.175840E+05  2.259548E+04  8.169984E+05 -5.780749E+03 -7.036268E+03
       415  23  1.088702E+06  6.121504E+05  1.886810E+04  8.175554E+05  1.944495E+03 -1.501757E+03
       415  24  1.089221E+06  6.177427E+05  2.346229E+04  8.168792E+05  9.662323E+03  4.042396E+03
       415  25  1.147899E+06  6.574657E+05  4.169141E+04  8.452082E+05 -5.857250E+03 -7.093580E+03
       415  26  1.150247E+06  6.559087E+05  3.923526E+04  8.480173E+05  1.873229E+03 -1.555155E+03
       415  27  1.153543E+06  6.653780E+05  4.510449E+04  8.495934E+05  9.596352E+03  3.993002E+03
       416   1  1.013015E+06  5.685456E+05  3.378710E+03  7.855590E+05 -1.348946E+04 -6.707909E+03
       416   2  1.011309E+06  5.522970E+05  1.555389E+04  7.797986E+05 -3.034466E+04 -1.905099E+04
       416   3  1.026927E+06  5.708478E+05  5.118883E+04  7.625722E+05 -4.706838E+04 -3.156976E+04
       416   4  1.088810E+06  6.158077E+05  2.719421E+04  8.200199E+05 -1.336860E+04 -6.617242E+03
       416   5  1.085809E+06  6.085103E+05  4.083446E+04  8.181638E+05 -3.030487E+04 -1.902136E+04
       416   6  1.100146E+06  6.360268E+05  7.800202E+04  8.048426E+05 -4.710952E+04 -3.160153E+04
       416   7  1.164611E+06  6.630722E+05  5.100914E+04  8.544854E+05 -1.324772E+04 -6.526562E+03
       416   8  1.160314E+06  6.647270E+05  6.611426E+04  8.565344E+05 -3.026507E+04 -1.899172E+04
       416   9  1.173370E+06  7.012105E+05  1.048142E+05  8.471189E+05 -4.715067E+04 -3.163332E+04
       416  10  1.013015E+06  5.685455E+05  3.378285E+03  7.855589E+05  5.656071E-10 -5.335609E-11
       416  11  1.011308E+06  5.522963E+05  1.555148E+04  7.797981E+05 -1.996034E-10 -3.844429E-10
       416  12  1.026925E+06  5.708461E+05  5.118281E+04  7.625710E+05 -7.461933E-10  5.900356E-11
       416  13  1.088810E+06  6.158076E+05  2.719379E+04  8.200198E+05 -2.970369E-10 -1.982152E-10
       416  14  1.085808E+06  6.085096E+05  4.083206E+04  8.181634E+05  1.593980E-10 -1.819514E-10
       416  15  1.100143E+06  6.360251E+05  7.799599E+04  8.048414E+05  6.714455E-10 -2.125733E-10
       416  16  1.164611E+06  6.630721E+05  5.100873E+04  8.544853E+05  3.419286E-11 -4.595370E-10
       416  17  1.160313E+06  6.647264E+05  6.611187E+04  8.565339E+05 -1.242082E-09 -1.689263E-10
       416  18  1.173367E+06  7.012088E+05  1.048082E+05  8.471177E+05 -7.423686E-11  2.967241E-10
       416  19  1.013015E+06  5.685456E+05  3.378710E+03  7.855590E+05  1.348946E+04  6.707909E+03
       416  20  1.011309E+06  5.522970E+05  1.555389E+04  7.797986E+05  3.034466E+04  1.905099E+04
       416  21  1.026927E+06  5.708478E+05  5.118883E+04  7.625722E+05  4.706838E+04  3.156976E+04
       416  22  1.088810E+06  6.158077E+05  2.719421E+04  8.200199E+05  1.336860E+04  6.617242E+03
       416  23  1.085809E+06  6.085103E+05  4.083446E+04  8.181638E+05  3.030487E+04  1.902136E+04
       416  24  1.100146E+06  6.360268E+05  7.800202E+04  8.048426E+05  4.710952E+04  3.160153E+04
       416  25  1.164611E+06  6.630722E+05  5.100914E+04  8.544854E+05  1.324772E+04  6.526562E+03
       416  26  1.160314E+06  6.647270E+05  6.611426E+04  8.565344E+05  3.026507E+04  1.899172E+04
       416  27  1.173370E+06  7.012105E+05  1.048142E+05  8.471189E+05  4.715067E+04  3.163332E+04
       417   1  9.757900E+05  5.841066E+05  6.547245E+04  8.003003E+05 -6.000164E+04 -4.057092E+04
       417   2  9.845453E+05  4.883064E+05  1.180009E+05  7.729257E+05 -1.236663E+05 -8.792423E+04
       417   3  1.171371E+06  6.511124E+05  3.073964E+05  6.294150E+05 -1.856872E+05 -1.374686E+05
       417   4  1.096180E+06  6.149600E+05  9.469628E+04  8.346883E+05 -5.942423E+04 -4.013355E+04
       417   5  1.057460E+06  5.755085E+05  1.489271E+05  8.253030E+05 -1.240802E+05 -8.824089E+04
       417   6  1.196989E+06  7.948426E+05  3.408667E+05  6.997931E+05 -1.870852E+05 -1.385511E+05
       417   7  1.216588E+06  6.458147E+05  1.239197E+05  8.690806E+05 -5.884666E+04 -3.969616E+04
       417   8  1.130382E+06  6.627212E+05  1.798523E+05  8.776891E+05 -1.244942E+05 -8.855765E+04
       417   9  1.222617E+06  9.386132E+05  3.743389E+05  7.701804E+05 -1.884833E+05 -1.396341E+05
       417  10  9.757857E+05  5.841039E+05  6.546261E+04  8.002983E+05  1.694331E-10  5.544263E-10
       417  11  9.845269E+05  4.882940E+05  1.179578E+05  7.729170E+05 -1.123289E-09  3.489102E-10
       417  12  1.171329E+06  6.510829E+05  3.072964E+05  6.293945E+05 -7.705399E-10  2.121656E-10
       417  13  1.096176E+06  6.149573E+05  9.468665E+04  8.346864E+05 -3.891262E-10  1.236252E-10
       417  14  1.057442E+06  5.754960E+05  1.488836E+05  8.252942E+05 -2.613807E-10  6.873919E-11
       417  15  1.196947E+06  7.948127E+05  3.407651E+05  6.997723E+05  4.972621E-10  5.231386E-10
       417  16  1.216584E+06  6.458121E+05  1.239102E+05  8.690787E+05 -5.489948E-10 -5.298806E-12
       417  17  1.130363E+06  6.627087E+05  1.798086E+05  8.776802E+05  7.990752E-10  1.240069E-10
       417  18  1.222574E+06  9.385828E+05  3.742358E+05  7.701592E+05  2.455893E-10  2.972790E-10
       417  19  9.757900E+05  5.841066E+05  6.547245E+04  8.003003E+05  6.000164E+04  4.057092E+04
       417  20  9.845453E+05  4.883064E+05  1.180009E+05  7.729257E+05  1.236663E+05  8.792423E+04
       417  21  1.171371E+06  6.511124E+05  3.073964E+05  6.294150E+05  1.856872E+05  1.374686E+05
       417  22  1.096180E+06  6.149600E+05  9.469628E+04  8.346883E+05  5.942423E+04  4.013355E+04
       417  23  1.057460E+06  5.755085E+05  1.489271E+05  8.253030E+05  1.240802E+05  8.824089E+04
       417  24  1.196989E+06  7.948426E+05  3.408667E+05  6.997931E+05  1.870852E+05  1.385511E+05
       417  25  1.216588E+06  6.458147E+05  1.239197E+05  8.690806E+05  5.884666E+04  3.969616E+04
       417  26  1.130382E+06  6.627212E+05  1.798523E+05  8.776891E+05  1.244942E+05  8.855765E+04
       417  27  1.222617E+06  9.386132E+05  3.743389E+05  7.701804E+05  1.884833E+05  1.396341E+05
       418   1  3.135731E+05  2.544643E+04  2.571592E+04  3.373665E+03  9.721633E+02 -5.368149E+02
       418   2  3.084198E+05  2.304987E+04  2.381099E+04 -7.809068E+02  2.925913E+02 -1.541640E+03
       418   3  3.037745E+05  2.211507E+04  2.272442E+04  3.166193E+03 -3.865341E+02 -1.248031E+03
       418   4  2.153483E+05  9.134835E+02  1.246053E+03  3.253958E+03  5.978050E+02 -5.366665E+02
       418   5  2.151196E+05 -2.228957E+02  7.198122E+02 -7.970966E+02  2.120679E+02 -1.541632E+03
       418   6  2.153480E+05  5.163652E+01  8.080367E+02  3.253596E+03 -1.732236E+02 -1.248077E+03
       418   7  1.171322E+05 -2.362019E+04 -2.322454E+04  3.134272E+03  2.235059E+02 -5.365179E+02
       418   8  1.218274E+05 -2.349631E+04 -2.237201E+04 -8.132834E+02  1.315566E+02 -1.541623E+03
       418   9  1.269286E+05 -2.201239E+04 -2.110893E+04  3.340987E+03  4.005652E+01 -1.248123E+03
       418  10  3.135731E+05  2.544643E+04  2.571592E+04  3.373665E+03 -9.660938E-11  4.345481E-10
       418  11  3.084198E+05  2.304986E+04  2.381099E+04 -7.809064E+02  3.550466E-10  3.073017E-11
       418  12  3.037745E+05  2.211507E+04  2.272442E+04  3.166193E+03 -1.878415E-10  1.691131E-10
       418  13  2.153483E+05  9.134831E+02  1.246051E+03  3.253959E+03  8.614873E-11 -2.830795E-10
       418  14  2.151196E+05 -2.228982E+02  7.198077E+02 -7.970963E+02  2.237142E-11  6.874819E-11
       418  15  2.153480E+05  5.163484E+01  8.080337E+02  3.253596E+03 -1.883324E-10  2.232872E-10
       418  16  1.171322E+05 -2.362019E+04 -2.322454E+04  3.134272E+03  2.141303E-10 -3.313294E-10
       418  17  1.218274E+05 -2.349631E+04 -2.237202E+04 -8.132832E+02  1.069443E-10  1.596614E-11
       418  18  1.269286E+05 -2.201239E+04 -2.110893E+04  3.340987E+03  7.147741E-11 -2.014494E-10
       418  19  3.135731E+05  2.544643E+04  2.571592E+04  3.373665E+03 -9.721633E+02  5.368149E+02
       418  20  3.084198E+05  2.304987E+04  2.381099E+04 -7.809068E+02 -2.925913E+02  1.541640E+03
       418  21  3.037745E+05  2.211507E+04  2.272442E+04  3.166193E+03  3.865341E+02  1.248031E+03
       418  22  2.153483E+05  9.134835E+02  1.246053E+03  3.253958E+03 -5.978050E+02  5.366665E+02
       418  23  2.151196E+05 -2.228957E+02  7.198122E+02 -7.970966E+02 -2.120679E+02  1.541632E+03
       418  24  2.153480E+05  5.163652E+01  8.080367E+02  3.253596E+03  1.732236E+02  1.248077E+03
       418  25  1.171322E+05 -2.362019E+04 -2.322454E+04  3.134272E+03 -2.235059E+02  5.365179E+02
       418  26  1.218274E+05 -2.349631E+04 -2.237201E+04 -8.132834E+02 -1.315566E+02  1.541623E+03
       418  27  1.269286E+05 -2.201239E+04 -2.110893E+04  3.340987E+03 -4.005652E+01  1.248123E+03
       419   1  2.828316E+05  1.695119E+04  1.763161E+04  3.249755E+03 -3.098169E+02 -9.488537E+02
       419   2  2.779433E+05  1.550211E+04  1.676327E+04 -7.263445E+02 -9.669647E+02 -9.404529E+02
       419   3  2.734258E+05  1.510556E+04  1.659025E+04  3.099435E+03 -1.624131E+03 -7.588364E+02
       419   4  2.153285E+05  1.080678E+02  9.002524E+02  3.187087E+03 -3.275032E+02 -9.488584E+02
       419   5  2.151462E+05 -1.651186E+02  1.206827E+03 -7.138997E+02 -9.454064E+02 -9.404594E+02
       419   6  2.153281E+05  6.074669E+02  2.181527E+03  3.187041E+03 -1.563333E+03 -7.588371E+02
       419   7  1.478294E+05 -1.673540E+04 -1.583144E+04  3.124426E+03 -3.451877E+02 -9.488631E+02
       419   8  1.523527E+05 -1.583265E+04 -1.434991E+04 -7.014562E+02 -9.238503E+02 -9.404659E+02
       419   9  1.572334E+05 -1.389088E+04 -1.222745E+04  3.274639E+03 -1.502541E+03 -7.588378E+02
       419  10  2.828316E+05  1.695119E+04  1.763161E+04  3.249754E+03 -2.257031E-10 -4.668077E-11
       419  11  2.779433E+05  1.550211E+04  1.676326E+04 -7.263453E+02  5.438871E-11  2.673426E-11
       419  12  2.734258E+05  1.510556E+04  1.659024E+04  3.099434E+03  2.383264E-10  2.666352E-11
       419  13  2.153285E+05  1.080668E+02  9.002505E+02  3.187086E+03  3.448247E-10 -1.909078E-10
       419  14  2.151462E+05 -1.651198E+02  1.206824E+03 -7.139004E+02 -7.869632E-11 -1.367238E-11
       419  15  2.153281E+05  6.074656E+02  2.181521E+03  3.187040E+03 -1.828579E-10  3.309582E-11
       419  16  1.478294E+05 -1.673540E+04 -1.583145E+04  3.124425E+03  4.879312E-10 -1.456680E-10
       419  17  1.523527E+05 -1.583265E+04 -1.434991E+04 -7.014569E+02  2.843970E-10  5.647781E-11
       419  18  1.572334E+05 -1.389088E+04 -1.222745E+04  3.274638E+03 -5.000110E-11  1.522327E-11
       419  19  2.828316E+05  1.695119E+04  1.763161E+04  3.249755E+03  3.098169E+02  9.488537E+02
       419  20  2.779433E+05  1.550211E+04  1.676327E+04 -7.263445E+02  9.669647E+02  9.404529E+02
       419  21  2.734258E+05  1.510556E+04  1.659025E+04  3.099435E+03  1.624131E+03  7.588364E+02
       419  22  2.153285E+05  1.080678E+02  9.002524E+02  3.187087E+03  3.275032E+02  9.488584E+02
       419  23  2.151462E+05 -1.651186E+02  1.206827E+03 -7.138997E+02  9.454064E+02  9.404594E+02
       419  24  2.153281E+05  6.074669E+02  2.181527E+03  3.187041E+03  1.563333E+03  7.588371E+02
       419  25  1.478294E+05 -1.673540E+04 -1.583144E+04  3.124426E+03  3.451877E+02  9.488631E+02
       419  26  1.523527E+05 -1.583265E+04 -1.434991E+04 -7.014562E+02  9.238503E+02  9.404659E+02
       419  27  1.572334E+05 -1.389088E+04 -1.222745E+04  3.274639E+03  1.502541E+03  7.588378E+02
       420   1  2.534796E+05  9.299105E+03  1.206404E+04  3.476099E+03 -2.035938E+03 -6.319958E+02
       420   2  2.479909E+05  7.350378E+03  1.255428E+04 -8.069220E+02 -4.293354E+03 -4.864915E+02
       420   3  2.443057E+05  1.142651E+04  1.602071E+04  2.521336E+03 -6.550742E+03 -3.361064E+02
       420   4  2.156487E+05 -1.376332E+02  2.701803E+03  3.144955E+03 -2.003443E+03 -6.319939E+02
       420   5  2.147467E+05 -9.441733E+02  4.316941E+03 -6.610953E+02 -4.259652E+03 -4.864893E+02
       420   6  2.156479E+05  4.274090E+03  8.907501E+03  3.144148E+03 -6.515849E+03 -3.361073E+02
       420   7  1.778190E+05 -9.574478E+03 -6.660541E+03  2.813833E+03 -1.970951E+03 -6.319919E+02
       420   8  1.815035E+05 -9.238807E+03 -3.920484E+03 -5.152764E+02 -4.225952E+03 -4.864871E+02
       420   9  1.869910E+05 -2.878393E+03  1.794235E+03  3.766930E+03 -6.480958E+03 -3.361081E+02
       420  10  2.534796E+05  9.299103E+03  1.206403E+04  3.476097E+03 -8.115400E-11  1.561520E-11
       420  11  2.479909E+05  7.350372E+03  1.255425E+04 -8.069237E+02 -4.272886E-10 -2.886801E-10
       420  12  2.443056E+05  1.142650E+04  1.602062E+04  2.521334E+03  4.503142E-12  4.592620E-12
       420  13  2.156487E+05 -1.376347E+02  2.701794E+03  3.144954E+03 -2.014702E-10 -8.133293E-11
       420  14  2.147467E+05 -9.441784E+02  4.316906E+03 -6.610970E+02 -2.398115E-10  3.582400E-12
       420  15  2.156479E+05  4.274079E+03  8.907421E+03  3.144146E+03 -2.851326E-10 -4.015195E-10
       420  16  1.778190E+05 -9.574479E+03 -6.660549E+03  2.813832E+03 -4.524721E-11 -1.001913E-10
       420  17  1.815035E+05 -9.238812E+03 -3.920518E+03 -5.152781E+02  2.163224E-10 -1.892973E-10
       420  18  1.869909E+05 -2.878404E+03  1.794156E+03  3.766928E+03  1.707575E-10  6.501970E-12
       420  19  2.534796E+05  9.299105E+03  1.206404E+04  3.476099E+03  2.035938E+03  6.319958E+02
       420  20  2.479909E+05  7.350378E+03  1.255428E+04 -8.069220E+02  4.293354E+03  4.864915E+02
       420  21  2.443057E+05  1.142651E+04  1.602071E+04  2.521336E+03  6.550742E+03  3.361064E+02
       420  22  2.156487E+05 -1.376332E+02  2.701803E+03  3.144955E+03  2.003443E+03  6.319939E+02
       420  23  2.147467E+05 -9.441733E+02  4.316941E+03 -6.610953E+02  4.259652E+03  4.864893E+02
       420  24  2.156479E+05  4.274090E+03  8.907501E+03  3.144148E+03  6.515849E+03  3.361073E+02
       420  25  1.778190E+05 -9.574478E+03 -6.660541E+03  2.813833E+03  1.970951E+03  6.319919E+02
       420  26  1.815035E+05 -9.238807E+03 -3.920484E+03 -5.152764E+02  4.225952E+03  4.864871E+02
       420  27  1.869910E+05 -2.878393E+03  1.794235E+03  3.766930E+03  6.480958E+03  3.361081E+02
       421   1  2.265573E+05  1.075189E+03  1.293005E+04  5.336507E+03 -8.335041E+03 -2.188699E+02
       421   2  2.162336E+05 -5.457137E+03  1.757811E+04 -1.828246E+03 -1.732994E+04 -4.818335E+01
       421   3  2.174727E+05  2.959689E+04  3.847676E+04 -1.462075E+03 -2.632486E+04  1.937372E+00
       421   4  2.178189E+05 -1.103619E+03  1.077775E+04  3.129050E+03 -8.282327E+03 -2.188296E+02
       421   5  2.120336E+05 -6.504973E+03  1.653505E+04 -6.397309E+02 -1.730448E+04 -4.821123E+01
       421   6  2.178157E+05  2.968485E+04  3.856187E+04  3.122469E+03 -2.632672E+04  1.742639E+00
       421   7  2.090806E+05 -3.282414E+03  8.625444E+03  9.216239E+02 -8.229613E+03 -2.187897E+02
       421   8  2.078335E+05 -7.552804E+03  1.549198E+04  5.487763E+02 -1.727902E+04 -4.823901E+01
       421   9  2.181588E+05  2.977288E+04  3.864700E+04  7.707015E+03 -2.632857E+04  1.547878E+00
       421  10  2.265572E+05  1.075170E+03  1.292992E+04  5.336505E+03  1.556881E-10 -9.231069E-11
       421  11  2.162333E+05 -5.457218E+03  1.757755E+04 -1.828247E+03 -2.451800E-10 -3.343371E-10
       421  12  2.174720E+05  2.959670E+04  3.847545E+04 -1.462075E+03 -7.660926E-11 -2.611640E-10
       421  13  2.178188E+05 -1.103638E+03  1.077762E+04  3.129048E+03  1.304424E-10 -9.389990E-11
       421  14  2.120333E+05 -6.505053E+03  1.653448E+04 -6.397315E+02 -1.583450E-10 -3.599195E-10
       421  15  2.178150E+05  2.968466E+04  3.856057E+04  3.122469E+03  2.052941E-10  1.686584E-10
       421  16  2.090805E+05 -3.282432E+03  8.625317E+03  9.216224E+02 -1.615231E-10  3.475138E-11
       421  17  2.078332E+05 -7.552884E+03  1.549141E+04  5.487756E+02  8.690960E-11 -4.023486E-10
       421  18  2.181580E+05  2.977270E+04  3.864570E+04  7.707015E+03  2.922910E-10 -5.436133E-12
       421  19  2.265573E+05  1.075189E+03  1.293005E+04  5.336507E+03  8.335041E+03  2.188699E+02
       421  20  2.162336E+05 -5.457137E+03  1.757811E+04 -1.828246E+03  1.732994E+04  4.818335E+01
       421  21  2.174727E+05  2.959689E+04  3.847676E+04 -1.462075E+03  2.632486E+04 -1.937372E+00
       421  22  2.178189E+05 -1.103619E+03  1.077775E+04  3.129050E+03  8.282327E+03  2.188296E+02
       421  23  2.120336E+05 -6.504973E+03  1.653505E+04 -6.397309E+02  1.730448E+04  4.821123E+01
       421  24  2.178157E+05  2.968485E+04  3.856187E+04  3.122469E+03  2.632672E+04 -1.742639E+00
       421  25  2.090806E+05 -3.282414E+03  8.625444E+03  9.216239E+02  8.229613E+03  2.187897E+02
       421  26  2.078335E+05 -7.552804E+03  1.549198E+04  5.487763E+02  1.727902E+04  4.823901E+01
       421  27  2.181588E+05  2.977288E+04  3.864700E+04  7.707015E+03  2.632857E+04 -1.547878E+00
       422   1 -2.317080E+05 -7.359328E+05 -2.206931E+05  2.435749E+05 -9.938730E+03 -7.468180E+04
       422   2 -1.748379E+05 -5.478466E+05 -1.391940E+05  2.269650E+05 -3.116040E+04 -2.918234E+04
       422   3 -1.278803E+05 -3.681403E+05 -8.981443E+04  2.402097E+05 -3.274859E+04  1.632527E+04
       422   4 -5.223831E+03  1.812989E+05 -5.805062E+03  2.405153E+05 -9.875735E+03 -4.674025E+03
       422   5 -1.549366E+03  1.817068E+05 -2.461193E+03  2.255863E+05 -3.113229E+04 -3.387483E+03
       422   6 -9.994107E+01  1.813868E+05 -5.112020E+02  2.405108E+05 -3.276576E+04 -2.107949E+03
       422   7  2.212032E+05  1.099317E+06  2.090440E+05  2.374508E+05 -9.813494E+03  6.543662E+04
       422   8  1.717087E+05  9.117766E+05  1.342511E+05  2.242056E+05 -3.110431E+04  2.243694E+04
       422   9  1.276652E+05  7.312142E+05  8.878488E+04  2.408119E+05 -3.278294E+04 -2.055692E+04
       422  10 -2.317096E+05 -7.359388E+05 -2.207038E+05  2.435743E+05 -5.149539E-11 -1.865315E-11
       422  11 -1.748392E+05 -5.478478E+05 -1.391974E+05  2.269643E+05  1.008491E-10  7.752466E-11
       422  12 -1.278815E+05 -3.681409E+05 -8.981695E+04  2.402102E+05 -3.912448E-10 -3.689351E-10
       422  13 -5.223942E+03  1.812988E+05 -5.805286E+03  2.405152E+05 -2.933666E-10 -5.395566E-10
       422  14 -1.550410E+03  1.817066E+05 -2.463036E+03  2.255862E+05  1.117888E-09 -2.272081E-10
       422  15 -1.010952E+02  1.813865E+05 -5.132278E+02  2.405107E+05 -1.334292E-10 -4.206040E-10
       422  16  2.212019E+05  1.099312E+06  2.090358E+05  2.374513E+05  1.234022E-10 -7.826723E-10
       422  17  1.717075E+05  9.117758E+05  1.342483E+05  2.242062E+05  9.745986E-11 -3.737126E-10
       422  18  1.276639E+05  7.312134E+05  8.878206E+04  2.408114E+05  1.386940E-10 -1.977203E-10
       422  19 -2.317080E+05 -7.359328E+05 -2.206931E+05  2.435749E+05  9.938730E+03  7.468180E+04
       422  20 -1.748379E+05 -5.478466E+05 -1.391940E+05  2.269650E+05  3.116040E+04  2.918234E+04
       422  21 -1.278803E+05 -3.681403E+05 -8.981443E+04  2.402097E+05  3.274859E+04 -1.632527E+04
       422  22 -5.223831E+03  1.812989E+05 -5.805062E+03  2.405153E+05  9.875735E+03  4.674025E+03
       422  23 -1.549366E+03  1.817068E+05 -2.461193E+03  2.255863E+05  3.113229E+04  3.387483E+03
       422  24 -9.994107E+01  1.813868E+05 -5.112020E+02  2.405108E+05  3.276576E+04  2.107949E+03
       422  25  2.212032E+05  1.099317E+06  2.090440E+05  2.374508E+05  9.813494E+03 -6.543662E+04
       422  26  1.717087E+05  9.117766E+05  1.342511E+05  2.242056E+05  3.110431E+04 -2.243694E+04
       422  27  1.276652E+05  7.312142E+05  8.878488E+04  2.408119E+05  3.278294E+04  2.055692E+04
       423   1 -1.004176E+05 -2.523424E+05 -6.837917E+04  2.406478E+05 -2.711279E+04  1.706852E+04
       423   2 -5.636134E+04 -6.844889E+04 -3.402193E+04  2.256133E+05 -1.795055E+04  1.892504E+04
       423   3 -1.205589E+04  1.152505E+05 -8.269118E+02  2.417892E+05 -7.499768E+03  2.077977E+04
       423   4  1.167970E+02  1.816310E+05  2.945097E+02  2.408123E+05 -2.713246E+04 -2.126617E+03
       423   5  8.468776E+02  1.815077E+05  2.082672E+03  2.252066E+05 -1.797504E+04 -3.177565E+03
       423   6  2.332332E+03  1.816618E+05  4.727267E+03  2.408102E+05 -7.529381E+03 -4.230830E+03
       423   7  1.006420E+05  6.157928E+05  6.896484E+04  2.409769E+05 -2.715212E+04 -2.133468E+04
       423   8  5.805250E+04  4.315284E+05  3.818812E+04  2.247996E+05 -1.799949E+04 -2.528869E+04
       423   9  1.672077E+04  2.480792E+05  1.028393E+04  2.398310E+05 -7.558913E+03 -2.924393E+04
       423  10 -1.004184E+05 -2.523429E+05 -6.838110E+04  2.406482E+05 -3.002280E-10 -8.927111E-10
       423  11 -5.636178E+04 -6.844936E+04 -3.402321E+04  2.256136E+05 -9.533374E-10  7.039745E-10
       423  12 -1.205607E+04  1.152500E+05 -8.278291E+02  2.417893E+05  2.443380E-10  1.449192E-09
       423  13  1.160052E+02  1.816308E+05  2.931178E+02  2.408123E+05 -3.745033E-10 -7.499039E-10
       423  14  8.465280E+02  1.815076E+05  2.082046E+03  2.252065E+05 -1.317349E-09 -4.854238E-10
       423  15  2.332266E+03  1.816618E+05  4.727127E+03  2.408102E+05 -7.214316E-10 -6.398382E-10
       423  16  1.006411E+05  6.157921E+05  6.896260E+04  2.409765E+05 -2.500296E-10 -3.202476E-10
       423  17  5.805198E+04  4.315276E+05  3.818631E+04  2.247993E+05  3.648027E-12 -1.153175E-09
       423  18  1.672048E+04  2.480782E+05  1.028222E+04  2.398309E+05 -1.088868E-10 -2.276716E-09
       423  19 -1.004176E+05 -2.523424E+05 -6.837917E+04  2.406478E+05  2.711279E+04 -1.706852E+04
       423  20 -5.636134E+04 -6.844889E+04 -3.402193E+04  2.256133E+05  1.795055E+04 -1.892504E+04
       423  21 -1.205589E+04  1.152505E+05 -8.269118E+02  2.417892E+05  7.499768E+03 -2.077977E+04
       423  22  1.167970E+02  1.816310E+05  2.945097E+02  2.408123E+05  2.713246E+04  2.126617E+03
       423  23  8.468776E+02  1.815077E+05  2.082672E+03  2.252066E+05  1.797504E+04  3.177565E+03
       423  24  2.332332E+03  1.816618E+05  4.727267E+03  2.408102E+05  7.529381E+03  4.230830E+03
       423  25  1.006420E+05  6.157928E+05  6.896484E+04  2.409769E+05  2.715212E+04  2.133468E+04
       423  26  5.805250E+04  4.315284E+05  3.818812E+04  2.247996E+05  1.799949E+04  2.528869E+04
       423  27  1.672077E+04  2.480792E+05  1.028393E+04  2.398310E+05  7.558913E+03  2.924393E+04
       424   1  1.530889E+04  2.309335E+05  1.965437E+04  2.411950E+05 -6.348019E+02  1.964919E+04
       424   2  6.433663E+04  4.113101E+05  6.179405E+04  2.336471E+05  5.634937E+03 -7.718777E+03
       424   3  1.272312E+05  5.986942E+05  1.251946E+05  2.567826E+05  2.587533E+03 -3.508873E+04
       424   4  2.969213E+03  1.823417E+05  6.542437E+03  2.406942E+05 -6.641641E+02 -5.070218E+03
       424   5  8.328600E+03  1.806593E+05  1.243253E+04  2.253427E+05  5.630959E+03 -1.142260E+04
       424   6  2.391314E+04  1.823118E+05  2.499717E+04  2.406734E+05  2.608017E+03 -1.776915E+04
       424   7 -9.370324E+03  1.337534E+05 -6.567400E+03  2.401935E+05 -6.934878E+02 -2.978767E+04
       424   8 -4.768264E+04 -4.994123E+04 -3.693199E+04  2.170414E+05  5.627079E+03 -1.512506E+04
       424   9 -7.941642E+04 -2.339110E+05 -7.521131E+04  2.245751E+05  2.627612E+03 -4.611268E+02
       424  10  1.530878E+04  2.309331E+05  1.965365E+04  2.411950E+05 -5.505978E-12 -8.138990E-10
       424  11  6.433658E+04  4.113100E+05  6.179388E+04  2.336472E+05 -2.160745E-10 -1.291726E-10
       424  12  1.272309E+05  5.986929E+05  1.251922E+05  2.567826E+05  1.450257E-10 -2.383053E-10
       424  13  2.969206E+03  1.823417E+05  6.542388E+03  2.406942E+05  9.638107E-10 -8.671144E-10
       424  14  8.328531E+03  1.806592E+05  1.243222E+04  2.253428E+05 -4.668745E-10 -4.181772E-10
       424  15  2.391305E+04  1.823114E+05  2.499656E+04  2.406735E+05  1.745920E-10 -5.070404E-10
       424  16 -9.370563E+03  1.337524E+05 -6.569068E+03  2.401935E+05  2.126825E-10 -5.044057E-10
       424  17 -4.768274E+04 -4.994149E+04 -3.693248E+04  2.170415E+05 -1.710593E-10 -2.228088E-10
       424  18 -7.941643E+04 -2.339110E+05 -7.521133E+04  2.245751E+05  2.295916E-10 -4.239279E-10
       424  19  1.530889E+04  2.309335E+05  1.965437E+04  2.411950E+05  6.348019E+02 -1.964919E+04
       424  20  6.433663E+04  4.113101E+05  6.179405E+04  2.336471E+05 -5.634937E+03  7.718777E+03
       424  21  1.272312E+05  5.986942E+05  1.251946E+05  2.567826E+05 -2.587533E+03  3.508873E+04
       424  22  2.969213E+03  1.823417E+05  6.542437E+03  2.406942E+05  6.641641E+02  5.070218E+03
       424  23  8.328600E+03  1.806593E+05  1.243253E+04  2.253427E+05 -5.630959E+03  1.142260E+04
       424  24  2.391314E+04  1.823118E+05  2.499717E+04  2.406734E+05 -2.608017E+03  1.776915E+04
       424  25 -9.370324E+03  1.337534E+05 -6.567400E+03  2.401935E+05  6.934878E+02  2.978767E+04
       424  26 -4.768264E+04 -4.994123E+04 -3.693199E+04  2.170414E+05 -5.627079E+03  1.512506E+04
       424  27 -7.941642E+04 -2.339110E+05 -7.521131E+04  2.245751E+05 -2.627612E+03  4.611268E+02
       425   1  1.826506E+05  6.568777E+04  8.315704E+03  9.992633E+04 -1.077941E+03 -3.346167E+03
       425   2  1.954777E+05  9.266228E+04  1.789162E+04  1.048541E+05  2.587146E+03 -7.296202E+03
       425   3  2.087601E+05  1.068217E+05  2.464282E+04  1.116445E+05  4.744732E+03 -9.234158E+03
       425   4  9.356169E+04  1.730212E+04 -1.734942E+04  6.258894E+04 -8.688837E+03 -9.048763E+03
       425   5  9.640427E+04  2.893328E+04 -8.024181E+03  5.797762E+04 -2.131238E+03 -1.083185E+04
       425   6  9.907424E+04  2.712121E+04 -4.033187E+03  5.522916E+04  2.918729E+03 -1.060271E+04
       425   7  4.482999E+03 -3.108049E+04 -4.301456E+04  2.525748E+04 -1.629811E+04 -1.475049E+04
       425   8 -2.657269E+03 -3.479064E+04 -3.394042E+04  1.110973E+04 -6.848565E+03 -1.436680E+04
       425   9 -1.059785E+04 -5.257156E+04 -3.271016E+04 -1.174499E+03  1.093160E+03 -1.197092E+04
       425  10  1.826506E+05  6.568776E+04  8.315681E+03  9.992633E+04  5.182172E-10 -2.461548E-10
       425  11  1.954777E+05  9.266222E+04  1.789151E+04  1.048541E+05  4.003021E-11 -1.179433E-09
       425  12  2.087600E+05  1.068216E+05  2.464262E+04  1.116445E+05 -2.777016E-10 -6.580033E-10
       425  13  9.356158E+04  1.730201E+04 -1.734972E+04  6.258888E+04 -1.791065E-10 -5.568422E-10
       425  14  9.640423E+04  2.893315E+04 -8.024410E+03  5.797761E+04 -2.242394E-10  8.831466E-10
       425  15  9.907420E+04  2.712109E+04 -4.033415E+03  5.522919E+04 -1.989089E-11  4.580090E-10
       425  16  4.482656E+03 -3.108079E+04 -4.301546E+04  2.525729E+04 -2.509336E-10  1.017865E-10
       425  17 -2.657375E+03 -3.479087E+04 -3.394090E+04  1.110965E+04  5.465300E-11  2.551080E-10
       425  18 -1.059789E+04 -5.257172E+04 -3.271044E+04 -1.174488E+03  2.947737E-10  3.229463E-10
       425  19  1.826506E+05  6.568777E+04  8.315704E+03  9.992633E+04  1.077941E+03  3.346167E+03
       425  20  1.954777E+05  9.266228E+04  1.789162E+04  1.048541E+05 -2.587146E+03  7.296202E+03
       425  21  2.087601E+05  1.068217E+05  2.464282E+04  1.116445E+05 -4.744732E+03  9.234158E+03
       425  22  9.356169E+04  1.730212E+04 -1.734942E+04  6.258894E+04  8.688837E+03  9.048763E+03
       425  23  9.640427E+04  2.893328E+04 -8.024181E+03  5.797762E+04  2.131238E+03  1.083185E+04
       425  24  9.907424E+04  2.712121E+04 -4.033187E+03  5.522916E+04 -2.918729E+03  1.060271E+04
       425  25  4.482999E+03 -3.108049E+04 -4.301456E+04  2.525748E+04  1.629811E+04  1.475049E+04
       425  26 -2.657269E+03 -3.479064E+04 -3.394042E+04  1.110973E+04  6.848565E+03  1.436680E+04
       425  27 -1.059785E+04 -5.257156E+04 -3.271016E+04 -1.174499E+03 -1.093160E+03  1.197092E+04
       426   1  2.209140E+05  1.125565E+05  2.866813E+04  1.170843E+05  6.039966E+03 -9.408275E+03
       426   2  2.336907E+05  1.267579E+05  3.456945E+04  1.256011E+05  7.120936E+03 -1.085845E+04
       426   3  2.517300E+05  1.351974E+05  4.037393E+04  1.326678E+05  8.092898E+03 -1.216276E+04
       426   4  9.925499E+04  2.700680E+04 -2.748448E+03  5.584999E+04  3.854736E+03 -1.104614E+04
       426   5  9.674603E+04  3.008992E+04 -5.015703E+02  5.643947E+04  5.145302E+03 -1.233949E+04
       426   6  9.945418E+04  2.736487E+04  1.466674E+03  5.557835E+04  6.326837E+03 -1.348694E+04
       426   7 -2.238910E+04 -5.853554E+04 -3.416685E+04 -5.371411E+03  1.670049E+03 -1.268359E+04
       426   8 -4.017729E+04 -6.656694E+04 -3.557407E+04 -1.270459E+04  3.170253E+03 -1.382008E+04
       426   9 -5.279286E+04 -8.045211E+04 -3.744162E+04 -2.148812E+04  4.561383E+03 -1.481066E+04
       426  10  2.209140E+05  1.125564E+05  2.866790E+04  1.170843E+05  2.389910E-10  1.807295E-11
       426  11  2.336906E+05  1.267578E+05  3.456913E+04  1.256012E+05  4.975610E-11 -2.973391E-10
       426  12  2.517299E+05  1.351972E+05  4.037353E+04  1.326679E+05 -8.549042E-10 -4.228126E-10
       426  13  9.925494E+04  2.700667E+04 -2.748705E+03  5.585002E+04 -3.272007E-11 -4.752451E-10
       426  14  9.674596E+04  3.008975E+04 -5.019062E+02  5.643952E+04 -1.441663E-10 -2.962769E-10
       426  15  9.945409E+04  2.736466E+04  1.466257E+03  5.557842E+04  3.192928E-10 -3.089355E-10
       426  16 -2.238915E+04 -5.853571E+04 -3.416716E+04 -5.371394E+03 -3.344067E-10 -3.057583E-10
       426  17 -4.017735E+04 -6.656715E+04 -3.557445E+04 -1.270455E+04  4.573748E-10 -3.413554E-10
       426  18 -5.279294E+04 -8.045235E+04 -3.744207E+04 -2.148807E+04  9.492097E-10  4.131567E-10
       426  19  2.209140E+05  1.125565E+05  2.866813E+04  1.170843E+05 -6.039966E+03  9.408275E+03
       426  20  2.336907E+05  1.267579E+05  3.456945E+04  1.256011E+05 -7.120936E+03  1.085845E+04
       426  21  2.517300E+05  1.351974E+05  4.037393E+04  1.326678E+05 -8.092898E+03  1.216276E+04
       426  22  9.925499E+04  2.700680E+04 -2.748448E+03  5.584999E+04 -3.854736E+03  1.104614E+04
       426  23  9.674603E+04  3.008992E+04 -5.015703E+02  5.643947E+04 -5.145302E+03  1.233949E+04
       426  24  9.945418E+04  2.736487E+04  1.466674E+03  5.557835E+04 -6.326837E+03  1.348694E+04
       426  25 -2.238910E+04 -5.853554E+04 -3.416685E+04 -5.371411E+03 -1.670049E+03  1.268359E+04
       426  26 -4.017729E+04 -6.656694E+04 -3.557407E+04 -1.270459E+04 -3.170253E+03  1.382008E+04
       426  27 -5.279286E+04 -8.045211E+04 -3.744162E+04 -2.148812E+04 -4.561383E+03  1.481066E+04
       427   1  2.623281E+05  1.426385E+05  4.426445E+04  1.380541E+05  8.367250E+03 -1.307794E+04
       427   2  2.748551E+05  1.563409E+05  5.110271E+04  1.466656E+05  7.043758E+03 -1.598696E+04
       427   3  2.932172E+05  1.649071E+05  5.983283E+04  1.537691E+05  5.684189E+03 -1.884751E+04
       427   4  9.951416E+04  2.737963E+04  2.571173E+03  5.566355E+04  6.568483E+03 -1.442678E+04
       427   5  9.662775E+04  2.999798E+04  5.489664E+03  5.638475E+04  5.315409E+03 -1.728329E+04
       427   6  9.956093E+04  2.746486E+04  1.023954E+04  5.559788E+04  4.026313E+03 -2.009128E+04
       427   7 -6.326969E+04 -8.786343E+04 -3.912425E+04 -2.670218E+04  4.770349E+03 -1.577513E+04
       427   8 -8.156489E+04 -9.632692E+04 -4.012642E+04 -3.386691E+04  3.587714E+03 -1.857912E+04
       427   9 -9.405565E+04 -1.099570E+05 -3.935778E+04 -4.253955E+04  2.369105E+03 -2.133453E+04
       427  10  2.623280E+05  1.426383E+05  4.426400E+04  1.380542E+05 -4.013091E-10 -4.468185E-10
       427  11  2.748550E+05  1.563406E+05  5.110214E+04  1.466657E+05  2.347664E-10 -1.381866E-10
       427  12  2.932170E+05  1.649067E+05  5.983210E+04  1.537692E+05  6.673236E-10  9.392573E-11
       427  13  9.951406E+04  2.737939E+04  2.570701E+03  5.566363E+04 -1.636444E-10  1.483704E-10
       427  14  9.662764E+04  2.999765E+04  5.489050E+03  5.638482E+04  1.342542E-10  9.623936E-12
       427  15  9.956081E+04  2.746443E+04  1.023876E+04  5.559795E+04  3.928319E-10 -2.053664E-10
       427  16 -6.326978E+04 -8.786370E+04 -3.912476E+04 -2.670212E+04  3.876142E-10  1.799941E-10
       427  17 -8.156500E+04 -9.632730E+04 -4.012709E+04 -3.386686E+04 -5.784751E-11  4.092914E-10
       427  18 -9.405578E+04 -1.099575E+05 -3.935865E+04 -4.253951E+04 -1.679011E-10 -4.552794E-10
       427  19  2.623281E+05  1.426385E+05  4.426445E+04  1.380541E+05 -8.367250E+03  1.307794E+04
       427  20  2.748551E+05  1.563409E+05  5.110271E+04  1.466656E+05 -7.043758E+03  1.598696E+04
       427  21  2.932172E+05  1.649071E+05  5.983283E+04  1.537691E+05 -5.684189E+03  1.884751E+04
       427  22  9.951416E+04  2.737963E+04  2.571173E+03  5.566355E+04 -6.568483E+03  1.442678E+04
       427  23  9.662775E+04  2.999798E+04  5.489664E+03  5.638475E+04 -5.315409E+03  1.728329E+04
       427  24  9.956093E+04  2.746486E+04  1.023954E+04  5.559788E+04 -4.026313E+03  2.009128E+04
       427  25 -6.326969E+04 -8.786343E+04 -3.912425E+04 -2.670218E+04 -4.770349E+03  1.577513E+04
       427  26 -8.156489E+04 -9.632692E+04 -4.012642E+04 -3.386691E+04 -3.587714E+03  1.857912E+04
       427  27 -9.405565E+04 -1.099570E+05 -3.935778E+04 -4.253955E+04 -2.369105E+03  2.133453E+04
       428   1  3.030830E+05  1.732930E+05  6.602918E+04  1.598105E+05  4.636583E+03 -2.074665E+04
       428   2  3.171279E+05  1.851487E+05  8.072694E+04  1.667048E+05 -5.049429E+03 -2.949679E+04
       428   3  3.407584E+05  1.964920E+05  1.053611E+05  1.707092E+05 -1.514199E+04 -3.770500E+04
       428   4  9.979235E+04  2.745126E+04  1.363094E+04  5.604306E+04  2.880367E+03 -2.206430E+04
       428   5  9.643880E+04  3.020334E+04  2.409910E+04  5.567808E+04 -6.021797E+03 -3.022702E+04
       428   6  1.025027E+05  3.227515E+04  4.382711E+04  5.242318E+04 -1.533028E+04 -3.784753E+04
       428   7 -1.034481E+05 -1.183626E+05 -3.876954E+04 -4.768334E+04  1.124950E+03 -2.338134E+04
       428   8 -1.241931E+05 -1.247122E+05 -3.253205E+04 -5.530242E+04 -6.993692E+03 -3.095689E+04
       428   9 -1.356886E+05 -1.319100E+05 -1.771153E+04 -6.581120E+04 -1.551847E+04 -3.798999E+04
       428  10  3.030829E+05  1.732925E+05  6.602833E+04  1.598106E+05 -3.079061E-10 -3.112957E-10
       428  11  3.171276E+05  1.851477E+05  8.072526E+04  1.667046E+05  1.531250E-11  2.328090E-11
       428  12  3.407578E+05  1.964904E+05  1.053580E+05  1.707087E+05 -8.472600E-11 -9.603555E-12
       428  13  9.979221E+04  2.745073E+04  1.363001E+04  5.604312E+04  2.826883E-10 -1.497080E-10
       428  14  9.643851E+04  3.020235E+04  2.409732E+04  5.567794E+04  1.608808E-10  1.289976E-10
       428  15  1.025020E+05  3.227355E+04  4.382398E+04  5.242271E+04 -4.314134E-11 -7.809600E-11
       428  16 -1.034482E+05 -1.183632E+05 -3.877057E+04 -4.768332E+04  6.070626E-10 -5.230246E-11
       428  17 -1.241934E+05 -1.247133E+05 -3.253395E+04 -5.530259E+04  2.249447E-10  1.284011E-10
       428  18 -1.356893E+05 -1.319117E+05 -1.771470E+04 -6.581168E+04 -8.900978E-11  2.630209E-11
       428  19  3.030830E+05  1.732930E+05  6.602918E+04  1.598105E+05 -4.636583E+03  2.074665E+04
       428  20  3.171279E+05  1.851487E+05  8.072694E+04  1.667048E+05  5.049429E+03  2.949679E+04
       428  21  3.407584E+05  1.964920E+05  1.053611E+05  1.707092E+05  1.514199E+04  3.770500E+04
       428  22  9.979235E+04  2.745126E+04  1.363094E+04  5.604306E+04 -2.880367E+03  2.206430E+04
       428  23  9.643880E+04  3.020334E+04  2.409910E+04  5.567808E+04  6.021797E+03  3.022702E+04
       428  24  1.025027E+05  3.227515E+04  4.382711E+04  5.242318E+04  1.533028E+04  3.784753E+04
       428  25 -1.034481E+05 -1.183626E+05 -3.876954E+04 -4.768334E+04 -1.124950E+03  2.338134E+04
       428  26 -1.241931E+05 -1.247122E+05 -3.253205E+04 -5.530242E+04  6.993692E+03  3.095689E+04
       428  27 -1.356886E+05 -1.319100E+05 -1.771153E+04 -6.581120E+04  1.551847E+04  3.798999E+04
       429   1  3.350704E+05  2.213333E+05  1.214554E+05  1.891152E+05 -1.931182E+04 -4.185649E+04
       429   2  4.079533E+05  1.851455E+05  1.750302E+05  1.549481E+05 -7.482814E+04 -7.923102E+04
       429   3  5.595563E+05  2.429529E+05  3.049136E+05  7.629851E+04 -1.360659E+05 -1.089889E+05
       429   4  1.048616E+05  3.054957E+04  5.695416E+04  5.986539E+04 -2.085488E+04 -4.301367E+04
       429   5  1.007334E+05  4.524584E+04  1.022391E+05  3.670732E+04 -6.540104E+04 -7.217056E+04
       429   6  1.729588E+05  1.515851E+05  2.143370E+05 -3.093805E+04 -1.156580E+05 -9.371697E+04
       429   7 -1.252895E+05 -1.601905E+05 -7.553109E+03 -6.932673E+04 -2.239720E+04 -4.417015E+04
       429   8 -2.063786E+05 -9.463474E+04  2.944265E+04 -8.148021E+04 -5.598032E+04 -6.511265E+04
       429   9 -2.134536E+05  6.023325E+04  1.237596E+05 -1.381330E+05 -9.526817E+04 -7.844716E+04
       429  10  3.350695E+05  2.213313E+05  1.214514E+05  1.891145E+05 -1.063675E-10  3.248599E-11
       429  11  4.079456E+05  1.851373E+05  1.750079E+05  1.549433E+05 -6.841367E-11  1.555269E-10
       429  12  5.595333E+05  2.429352E+05  3.048565E+05  7.628658E+04  1.067911E-10  2.078888E-10
       429  13  1.048607E+05  3.054746E+04  5.694987E+04  5.986467E+04 -1.068473E-10 -5.927502E-12
       429  14  1.007274E+05  4.523910E+04  1.022213E+05  3.670352E+04  4.887124E-11  9.155404E-11
       429  15  1.729421E+05  1.515721E+05  2.142953E+05 -3.094677E+04 -3.680482E-10 -1.092420E-10
       429  16 -1.252906E+05 -1.601927E+05 -7.557720E+03 -6.932752E+04 -3.045793E-11  8.782975E-11
       429  17 -2.063831E+05 -9.464013E+04  2.942879E+04 -8.148315E+04 -1.235889E-10 -2.846531E-11
       429  18 -2.134650E+05  6.022420E+04  1.237310E+05 -1.381390E+05 -3.205434E-10  1.252813E-10
       429  19  3.350704E+05  2.213333E+05  1.214554E+05  1.891152E+05  1.931182E+04  4.185649E+04
       429  20  4.079533E+05  1.851455E+05  1.750302E+05  1.549481E+05  7.482814E+04  7.923102E+04
       429  21  5.595563E+05  2.429529E+05  3.049136E+05  7.629851E+04  1.360659E+05  1.089889E+05
       429  22  1.048616E+05  3.054957E+04  5.695416E+04  5.986539E+04  2.085488E+04  4.301367E+04
       429  23  1.007334E+05  4.524584E+04  1.022391E+05  3.670732E+04  6.540104E+04  7.217056E+04
       429  24  1.729588E+05  1.515851E+05  2.143370E+05 -3.093805E+04  1.156580E+05  9.371697E+04
       429  25 -1.252895E+05 -1.601905E+05 -7.553109E+03 -6.932673E+04  2.239720E+04  4.417015E+04
       429  26 -2.063786E+05 -9.463474E+04  2.944265E+04 -8.148021E+04  5.598032E+04  6.511265E+04
       429  27 -2.134536E+05  6.023325E+04  1.237596E+05 -1.381330E+05  9.526817E+04  7.844716E+04
       430   1  1.559891E+05  2.678292E+04  2.604748E+04 -6.633585E+04  2.449154E+04 -1.915281E+03
       430   2  2.194965E+05  3.067667E+04  2.589826E+04 -6.508756E+04  1.912369E+04 -8.094756E+03
       430   3  2.856252E+05  4.220301E+04  3.115464E+04 -7.637392E+04  1.375555E+04 -1.363686E+04
       430   4  1.068406E+05  1.499412E+04  1.625761E+04 -7.616704E+04  1.149356E+04 -1.916870E+03
       430   5  1.056408E+05  4.325009E+03  7.981326E+03 -6.989858E+04  7.400099E+03 -8.096383E+03
       430   6  1.068363E+05  1.067765E+03  4.225258E+03 -7.616440E+04  3.306828E+03 -1.363856E+04
       430   7  5.769495E+04  3.205627E+03  6.468310E+03 -8.599743E+04 -1.503424E+03 -1.918047E+03
       430   8 -8.201659E+03 -2.202713E+04 -9.935399E+03 -7.470868E+04 -4.321422E+03 -8.097828E+03
       430   9 -7.192024E+04 -4.006894E+04 -2.270436E+04 -7.595495E+04 -7.139010E+03 -1.364027E+04
       430  10  1.559884E+05  2.678275E+04  2.604635E+04 -6.633582E+04 -5.787690E-10 -3.919291E-11
       430  11  2.194961E+05  3.067650E+04  2.589745E+04 -6.508743E+04 -5.125661E-10  3.865055E-10
       430  12  2.856249E+05  4.220276E+04  3.115394E+04 -7.637377E+04  9.088184E-11  2.572848E-11
       430  13  1.068404E+05  1.499408E+04  1.625736E+04 -7.616702E+04 -6.067184E-11  3.934727E-10
       430  14  1.056407E+05  4.324924E+03  7.981100E+03 -6.989853E+04  7.471506E-11  5.687931E-10
       430  15  1.068363E+05  1.067563E+03  4.224888E+03 -7.616437E+04  1.817806E-10  1.681828E-10
       430  16  5.769495E+04  3.205622E+03  6.468298E+03 -8.599744E+04  5.315533E-10  2.495303E-10
       430  17 -8.201697E+03 -2.202721E+04 -9.935557E+03 -7.470871E+04  1.410097E-10  9.738505E-11
       430  18 -7.192034E+04 -4.006916E+04 -2.270481E+04 -7.595503E+04 -1.848566E-10  3.493590E-11
       430  19  1.559891E+05  2.678292E+04  2.604748E+04 -6.633585E+04 -2.449154E+04  1.915281E+03
       430  20  2.194965E+05  3.067667E+04  2.589826E+04 -6.508756E+04 -1.912369E+04  8.094756E+03
       430  21  2.856252E+05  4.220301E+04  3.115464E+04 -7.637392E+04 -1.375555E+04  1.363686E+04
       430  22  1.068406E+05  1.499412E+04  1.625761E+04 -7.616704E+04 -1.149356E+04  1.916870E+03
       430  23  1.056408E+05  4.325009E+03  7.981326E+03 -6.989858E+04 -7.400099E+03  8.096383E+03
       430  24  1.068363E+05  1.067765E+03  4.225258E+03 -7.616440E+04 -3.306828E+03  1.363856E+04
       430  25  5.769495E+04  3.205627E+03  6.468310E+03 -8.599743E+04  1.503424E+03  1.918047E+03
       430  26 -8.201659E+03 -2.202713E+04 -9.935399E+03 -7.470868E+04  4.321422E+03  8.097828E+03
       430  27 -7.192024E+04 -4.006894E+04 -2.270436E+04 -7.595495E+04  7.139010E+03  1.364027E+04
       431   1  3.260700E+05  5.148285E+04  3.629933E+04 -7.567782E+04  1.324520E+04 -1.666343E+04
       431   2  3.907441E+05  6.561532E+04  4.416559E+04 -6.969617E+04  1.202637E+04 -2.176742E+04
       431   3  4.557419E+05  8.032648E+04  5.297430E+04 -7.619343E+04  1.080822E+04 -2.661282E+04
       431   4  1.063522E+05  9.069580E+02  3.082178E+03 -7.615242E+04  2.773688E+03 -1.666553E+04
       431   5  1.062306E+05  1.767603E+02  1.402502E+03 -6.991269E+04  2.072048E+03 -2.177032E+04
       431   6  1.063398E+05 -6.404295E+01  3.063062E+02 -7.615218E+04  1.371200E+03 -2.661647E+04
       431   7 -1.133170E+05 -4.967118E+04 -3.013555E+04 -7.662685E+04 -7.694266E+03 -1.666761E+04
       431   8 -1.782014E+05 -6.526559E+04 -4.136183E+04 -7.012910E+04 -7.877895E+03 -2.177322E+04
       431   9 -2.429397E+05 -8.046032E+04 -5.236381E+04 -7.611095E+04 -8.060724E+03 -2.662013E+04
       431  10  3.260698E+05  5.148250E+04  3.629847E+04 -7.567764E+04 -2.656900E-10  2.256216E-10
       431  11  3.907438E+05  6.561477E+04  4.416443E+04 -6.969596E+04 -3.112592E-10 -4.531784E-10
       431  12  4.557416E+05  8.032569E+04  5.297275E+04 -7.619320E+04  5.841606E-10 -1.374678E-10
       431  13  1.063521E+05  9.066577E+02  3.081641E+03 -7.615239E+04 -1.283382E-10  8.039324E-11
       431  14  1.062305E+05  1.762502E+02  1.401604E+03 -6.991265E+04 -1.034575E-10 -1.300528E-10
       431  15  1.063396E+05 -6.480422E+01  3.049713E+02 -7.615215E+04  2.197269E-11 -2.158269E-10
       431  16 -1.133172E+05 -4.967149E+04 -3.013618E+04 -7.662695E+04  3.808623E-10 -1.776349E-10
       431  17 -1.782016E+05 -6.526611E+04 -4.136283E+04 -7.012924E+04  1.363989E-10 -8.432867E-11
       431  18 -2.429399E+05 -8.046110E+04 -5.236527E+04 -7.611112E+04 -7.012841E-10  1.480620E-10
       431  19  3.260700E+05  5.148285E+04  3.629933E+04 -7.567782E+04 -1.324520E+04  1.666343E+04
       431  20  3.907441E+05  6.561532E+04  4.416559E+04 -6.969617E+04 -1.202637E+04  2.176742E+04
       431  21  4.557419E+05  8.032648E+04  5.297430E+04 -7.619343E+04 -1.080822E+04  2.661282E+04
       431  22  1.063522E+05  9.069580E+02  3.082178E+03 -7.615242E+04 -2.773688E+03  1.666553E+04
       431  23  1.062306E+05  1.767603E+02  1.402502E+03 -6.991269E+04 -2.072048E+03  2.177032E+04
       431  24  1.063398E+05 -6.404295E+01  3.063062E+02 -7.615218E+04 -1.371200E+03  2.661647E+04
       431  25 -1.133170E+05 -4.967118E+04 -3.013555E+04 -7.662685E+04  7.694266E+03  1.666761E+04
       431  26 -1.782014E+05 -6.526559E+04 -4.136183E+04 -7.012910E+04  7.877895E+03  2.177322E+04
       431  27 -2.429397E+05 -8.046032E+04 -5.236381E+04 -7.611095E+04  8.060724E+03  2.662013E+04
       432   1  4.967162E+05  8.984078E+04  5.909333E+04 -7.614312E+04  1.084756E+04 -2.942617E+04
       432   2  5.613668E+05  1.047344E+05  6.910710E+04 -6.966410E+04  8.033727E+03 -3.330798E+04
       432   3  6.264543E+05  1.197661E+05  8.099456E+04 -7.553821E+04  5.219766E+03 -3.547197E+04
       432   4  1.062462E+05 -7.816304E+01 -1.723437E+02 -7.612436E+04  1.360779E+03 -2.943049E+04
       432   5  1.063187E+05 -3.082713E+02 -1.238942E+03 -6.994737E+04  1.984343E+03 -3.331239E+04
       432   6  1.062266E+05 -9.969727E+02 -2.818255E+03 -7.612410E+04  2.608109E+03 -3.547582E+04
       432   7 -2.840709E+05 -9.000436E+04 -5.944086E+04 -7.610562E+04 -8.120276E+03 -2.943481E+04
       432   8 -3.485225E+05 -1.053610E+05 -7.158956E+04 -7.023042E+04 -4.060781E+03 -3.331679E+04
       432   9 -4.137327E+05 -1.217737E+05 -8.663836E+04 -7.670948E+04 -1.440205E+00 -3.547967E+04
       432  10  4.967158E+05  8.983982E+04  5.909148E+04 -7.614286E+04 -2.634559E-10 -6.177284E-11
       432  11  5.613664E+05  1.047332E+05  6.910490E+04 -6.966389E+04  3.246197E-10 -3.109722E-11
       432  12  6.264539E+05  1.197647E+05  8.099215E+04 -7.553806E+04  7.299959E-10 -7.528011E-10
       432  13  1.062460E+05 -7.909367E+01 -1.739749E+02 -7.612433E+04  1.409753E-10 -9.637134E-11
       432  14  1.063184E+05 -3.094640E+02 -1.241035E+03 -6.994731E+04  2.672128E-10 -1.431985E-10
       432  15  1.062262E+05 -9.983260E+02 -2.820633E+03 -7.612402E+04  1.792594E-10 -4.433175E-10
       432  16 -2.840712E+05 -9.000530E+04 -5.944261E+04 -7.610582E+04  4.517750E-10  5.322025E-11
       432  17 -3.485228E+05 -1.053622E+05 -7.159168E+04 -7.023053E+04 -1.845436E-10  8.755583E-10
       432  18 -4.137330E+05 -1.217750E+05 -8.664073E+04 -7.670949E+04 -1.036963E-09  1.244305E-10
       432  19  4.967162E+05  8.984078E+04  5.909333E+04 -7.614312E+04 -1.084756E+04  2.942617E+04
       432  20  5.613668E+05  1.047344E+05  6.910710E+04 -6.966410E+04 -8.033727E+03  3.330798E+04
       432  21  6.264543E+05  1.197661E+05  8.099456E+04 -7.553821E+04 -5.219766E+03  3.547197E+04
       432  22  1.062462E+05 -7.816304E+01 -1.723437E+02 -7.612436E+04 -1.360779E+03  2.943049E+04
       432  23  1.063187E+05 -3.082713E+02 -1.238942E+03 -6.994737E+04 -1.984343E+03  3.331239E+04
       432  24  1.062266E+05 -9.969727E+02 -2.818255E+03 -7.612410E+04 -2.608109E+03  3.547582E+04
       432  25 -2.840709E+05 -9.000436E+04 -5.944086E+04 -7.610562E+04  8.120276E+03  2.943481E+04
       432  26 -3.485225E+05 -1.053610E+05 -7.158956E+04 -7.023042E+04  4.060781E+03  3.331679E+04
       432  27 -4.137327E+05 -1.217737E+05 -8.663836E+04 -7.670948E+04  1.440205E+00  3.547967E+04
       433   1  6.679094E+05  1.297139E+05  8.857529E+04 -7.588871E+04  6.132132E+03 -3.687004E+04
       433   2  7.313111E+05  1.438820E+05  1.086870E+05 -6.553975E+04 -2.084184E+04 -3.071348E+04
       433   3  7.978992E+05  1.565495E+05  1.459814E+05 -6.646726E+04 -4.783242E+04 -9.188785E+03
       433   4  1.057759E+05 -1.152626E+03 -3.884741E+03 -7.588566E+04  3.096992E+03 -3.687451E+04
       433   5  1.068409E+05 -4.169574E+03 -7.381285E+03 -7.024394E+04  6.888546E+03 -3.070052E+04
       433   6  1.057506E+05 -1.402706E+04 -1.504843E+04 -7.587892E+04  1.066669E+04 -9.150883E+03
       433   7 -4.560452E+05 -1.320354E+05 -9.635397E+04 -7.588264E+04  6.450268E+01 -3.687897E+04
       433   8 -5.172503E+05 -1.522431E+05 -1.234632E+05 -7.494332E+04  3.459178E+04 -3.068797E+04
       433   9 -5.859489E+05 -1.846352E+05 -1.760977E+05 -8.528006E+04  6.910109E+04 -9.114735E+03
       433  10  6.679090E+05  1.297124E+05  8.857267E+04 -7.588853E+04  8.721184E-12 -1.399356E-09
       433  11  7.313104E+05  1.438809E+05  1.086845E+05 -6.554026E+04 -1.431278E-09 -2.071926E-09
       433  12  7.978968E+05  1.565488E+05  1.459770E+05 -6.646762E+04 -1.909290E-09 -6.634552E-10
       433  13  1.057755E+05 -1.154089E+03 -3.887314E+03 -7.588557E+04 -2.431863E-10 -2.726226E-09
       433  14  1.068406E+05 -4.170599E+03 -7.383146E+03 -7.024377E+04  1.180929E-10  1.069250E-09
       433  15  1.057504E+05 -1.402718E+04 -1.504881E+04 -7.587884E+04  9.117766E-11 -1.414756E-10
       433  16 -4.560456E+05 -1.320369E+05 -9.635652E+04 -7.588264E+04 -1.383436E-10 -4.061478E-10
       433  17 -5.172518E+05 -1.522444E+05 -1.234673E+05 -7.494247E+04  9.184237E-10  7.740017E-10
       433  18 -5.859540E+05 -1.846366E+05 -1.761069E+05 -8.527956E+04  1.904399E-09 -6.741167E-10
       433  19  6.679094E+05  1.297139E+05  8.857529E+04 -7.588871E+04 -6.132132E+03  3.687004E+04
       433  20  7.313111E+05  1.438820E+05  1.086870E+05 -6.553975E+04  2.084184E+04  3.071348E+04
       433  21  7.978992E+05  1.565495E+05  1.459814E+05 -6.646726E+04  4.783242E+04  9.188785E+03
       433  22  1.057759E+05 -1.152626E+03 -3.884741E+03 -7.588566E+04 -3.096992E+03  3.687451E+04
       433  23  1.068409E+05 -4.169574E+03 -7.381285E+03 -7.024394E+04 -6.888546E+03  3.070052E+04
       433  24  1.057506E+05 -1.402706E+04 -1.504843E+04 -7.587892E+04 -1.066669E+04  9.150883E+03
       433  25 -4.560452E+05 -1.320354E+05 -9.635397E+04 -7.588264E+04 -6.450268E+01  3.687897E+04
       433  26 -5.172503E+05 -1.522431E+05 -1.234632E+05 -7.494332E+04 -3.459178E+04  3.068797E+04
       433  27 -5.859489E+05 -1.846352E+05 -1.760977E+05 -8.528006E+04 -6.910109E+04  9.114735E+03
       434   1  1.321412E+05  6.316899E+04  3.027673E+04  5.683912E+04  1.340074E+04  7.048681E+03
       434   2  1.375549E+05  7.127239E+04  2.548116E+04  6.081081E+04  1.248120E+04 -1.555504E+03
       434   3  1.450835E+05  7.731966E+04  2.438433E+04  6.479887E+04  9.766089E+03 -7.766611E+03
       434   4  1.729052E+04 -1.365122E+04 -4.537616E+03  1.873096E+03 -1.254330E+03 -3.946932E+03
       434   5  1.751903E+04 -1.081046E+04 -2.161119E+03  9.607313E+02  3.428831E+03 -8.348078E+03
       434   6  1.864656E+04 -1.124216E+04 -9.494660E+02  6.463829E+01  6.316276E+03 -1.035570E+04
       434   7 -9.754788E+04 -9.046647E+04 -3.935302E+04 -5.308268E+04 -1.590601E+04 -1.494021E+04
       434   8 -1.025024E+05 -9.288671E+04 -2.980464E+04 -5.887724E+04 -5.621383E+03 -1.513910E+04
       434   9 -1.077739E+05 -9.979572E+04 -2.628462E+04 -6.465544E+04  2.867323E+03 -1.294414E+04
       434  10  1.321410E+05  6.316889E+04  3.027629E+04  5.683904E+04 -5.301156E-10 -9.577375E-11
       434  11  1.375547E+05  7.127235E+04  2.548086E+04  6.081082E+04 -2.892034E-10  3.887434E-10
       434  12  1.450834E+05  7.731957E+04  2.438404E+04  6.479893E+04 -1.037579E-10  2.567758E-10
       434  13  1.729051E+04 -1.365124E+04 -4.537648E+03  1.873092E+03 -3.677215E-11 -1.545087E-10
       434  14  1.751900E+04 -1.081054E+04 -2.161272E+03  9.607543E+02  1.203421E-10  9.353978E-10
       434  15  1.864649E+04 -1.124229E+04 -9.497425E+02  6.469097E+01 -1.983963E-10 -2.338457E-10
       434  16 -9.754821E+04 -9.046678E+04 -3.935392E+04 -5.308287E+04  3.631592E-10  4.774562E-10
       434  17 -1.025025E+05 -9.288697E+04 -2.980513E+04 -5.887731E+04  3.523637E-10  5.059358E-11
       434  18 -1.077739E+05 -9.979590E+04 -2.628495E+04 -6.465541E+04  1.374879E-10 -3.877332E-10
       434  19  1.321412E+05  6.316899E+04  3.027673E+04  5.683912E+04 -1.340074E+04 -7.048681E+03
       434  20  1.375549E+05  7.127239E+04  2.548116E+04  6.081081E+04 -1.248120E+04  1.555504E+03
       434  21  1.450835E+05  7.731966E+04  2.438433E+04  6.479887E+04 -9.766089E+03  7.766611E+03
       434  22  1.729052E+04 -1.365122E+04 -4.537616E+03  1.873096E+03  1.254330E+03  3.946932E+03
       434  23  1.751903E+04 -1.081046E+04 -2.161119E+03  9.607313E+02 -3.428831E+03  8.348078E+03
       434  24  1.864656E+04 -1.124216E+04 -9.494660E+02  6.463829E+01 -6.316276E+03  1.035570E+04
       434  25 -9.754788E+04 -9.046647E+04 -3.935302E+04 -5.308268E+04  1.590601E+04  1.494021E+04
       434  26 -1.025024E+05 -9.288671E+04 -2.980464E+04 -5.887724E+04  5.621383E+03  1.513910E+04
       434  27 -1.077739E+05 -9.979572E+04 -2.628462E+04 -6.465544E+04 -2.867323E+03  1.294414E+04
       435   1  1.497291E+05  8.052623E+04  2.495405E+04  6.720061E+04  1.025527E+04 -8.573592E+03
       435   2  1.562832E+05  8.680594E+04  2.594261E+04  7.136756E+04  1.034006E+04 -1.045631E+04
       435   3  1.646436E+05  9.144817E+04  2.762882E+04  7.509689E+04  1.018021E+04 -1.201288E+04
       435   4  1.872419E+04 -1.106827E+04 -5.257875E+02  7.622763E+01  6.958769E+03 -1.104776E+04
       435   5  1.796507E+04 -1.005808E+04  2.241266E+02  2.132907E+02  7.807145E+03 -1.235767E+04
       435   6  1.884658E+04 -1.085078E+04  1.009051E+03 -8.717639E+01  8.410853E+03 -1.334140E+04
       435   7 -1.122564E+05 -1.026493E+05 -2.600482E+04 -6.702978E+04  3.663272E+03 -1.352118E+04
       435   8 -1.203277E+05 -1.069083E+05 -2.549399E+04 -7.092131E+04  5.275012E+03 -1.425845E+04
       435   9 -1.269242E+05 -1.131356E+05 -2.561094E+04 -7.525025E+04  6.642043E+03 -1.466950E+04
       435  10  1.497289E+05  8.052612E+04  2.495371E+04  6.720068E+04 -2.544786E-10  2.222015E-10
       435  11  1.562830E+05  8.680580E+04  2.594220E+04  7.136765E+04 -9.750426E-10  3.853330E-10
       435  12  1.646435E+05  9.144799E+04  2.762836E+04  7.509699E+04 -2.122300E-09  1.566127E-09
       435  13  1.872411E+04 -1.106841E+04 -5.261079E+02  7.628954E+01  2.569725E-11 -4.359930E-11
       435  14  1.796496E+04 -1.005826E+04  2.237251E+02  2.133684E+02 -4.666691E-11  7.826491E-11
       435  15  1.884646E+04 -1.085099E+04  1.008583E+03 -8.708602E+01  4.420665E-10 -1.084031E-09
       435  16 -1.122565E+05 -1.026495E+05 -2.600519E+04 -6.702974E+04  5.317543E-10  2.367366E-10
       435  17 -1.203278E+05 -1.069085E+05 -2.549442E+04 -7.092125E+04  9.355413E-10 -2.268378E-10
       435  18 -1.269243E+05 -1.131359E+05 -2.561142E+04 -7.525017E+04  2.751091E-09 -2.580677E-09
       435  19  1.497291E+05  8.052623E+04  2.495405E+04  6.720061E+04 -1.025527E+04  8.573592E+03
       435  20  1.562832E+05  8.680594E+04  2.594261E+04  7.136756E+04 -1.034006E+04  1.045631E+04
       435  21  1.646436E+05  9.144817E+04  2.762882E+04  7.509689E+04 -1.018021E+04  1.201288E+04
       435  22  1.872419E+04 -1.106827E+04 -5.257875E+02  7.622763E+01 -6.958769E+03  1.104776E+04
       435  23  1.796507E+04 -1.005808E+04  2.241266E+02  2.132907E+02 -7.807145E+03  1.235767E+04
       435  24  1.884658E+04 -1.085078E+04  1.009051E+03 -8.717639E+01 -8.410853E+03  1.334140E+04
       435  25 -1.122564E+05 -1.026493E+05 -2.600482E+04 -6.702978E+04 -3.663272E+03  1.352118E+04
       435  26 -1.203277E+05 -1.069083E+05 -2.549399E+04 -7.092131E+04 -5.275012E+03  1.425845E+04
       435  27 -1.269242E+05 -1.131356E+05 -2.561094E+04 -7.525025E+04 -6.642043E+03  1.466950E+04
       436   1  1.693153E+05  9.480790E+04  2.892354E+04  7.755622E+04  1.029690E+04 -1.259462E+04
       436   2  1.761159E+05  1.008660E+05  3.163172E+04  8.154274E+04  9.380750E+03 -1.435217E+04
       436   3  1.849669E+05  1.056646E+05  3.561544E+04  8.499721E+04  8.373482E+03 -1.598828E+04
       436   4  1.888694E+04 -1.081048E+04  1.497101E+03 -5.740293E+01  8.552900E+03 -1.390420E+04
       436   5  1.800773E+04 -9.943162E+03  2.883617E+03  5.207188E+01  7.921460E+03 -1.544822E+04
       436   6  1.911748E+04 -1.039755E+04  5.298780E+03 -3.707793E+02  7.198935E+03 -1.687074E+04
       436   7 -1.315174E+05 -1.164167E+05 -2.593092E+04 -7.765062E+04  6.809417E+03 -1.521339E+04
       436   8 -1.400697E+05 -1.207358E+05 -2.586479E+04 -8.141402E+04  6.462660E+03 -1.654391E+04
       436   9 -1.466940E+05 -1.264387E+05 -2.501681E+04 -8.570971E+04  6.024831E+03 -1.775287E+04
       436  10  1.693151E+05  9.480770E+04  2.892304E+04  7.755633E+04 -2.497352E-08 -1.593465E-08
       436  11  1.761157E+05  1.008657E+05  3.163117E+04  8.154285E+04  2.249890E-08  1.432758E-08
       436  12  1.849668E+05  1.056643E+05  3.561483E+04  8.499731E+04  4.400862E-08  2.761012E-08
       436  13  1.888680E+04 -1.081071E+04  1.496601E+03 -5.730716E+01  9.097063E-09  6.227039E-09
       436  14  1.800759E+04 -9.943436E+03  2.883051E+03  5.217043E+01  2.211627E-08  1.449021E-08
       436  15  1.911735E+04 -1.039787E+04  5.298148E+03 -3.706814E+02  9.182402E-09  6.027143E-09
       436  16 -1.315175E+05 -1.164169E+05 -2.593144E+04 -7.765054E+04  4.308231E-08  2.695675E-08
       436  17 -1.400698E+05 -1.207362E+05 -2.586538E+04 -8.141393E+04  2.130210E-08  1.402528E-08
       436  18 -1.466941E+05 -1.264391E+05 -2.501747E+04 -8.570963E+04 -2.552447E-08 -1.717831E-08
       436  19  1.693153E+05  9.480790E+04  2.892354E+04  7.755622E+04 -1.029690E+04  1.259462E+04
       436  20  1.761159E+05  1.008660E+05  3.163172E+04  8.154274E+04 -9.380750E+03  1.435217E+04
       436  21  1.849669E+05  1.056646E+05  3.561544E+04  8.499721E+04 -8.373482E+03  1.598828E+04
       436  22  1.888694E+04 -1.081048E+04  1.497101E+03 -5.740293E+01 -8.552900E+03  1.390420E+04
       436  23  1.800773E+04 -9.943162E+03  2.883617E+03  5.207188E+01 -7.921460E+03  1.544822E+04
       436  24  1.911748E+04 -1.039755E+04  5.298780E+03 -3.707793E+02 -7.198935E+03  1.687074E+04
       436  25 -1.315174E+05 -1.164167E+05 -2.593092E+04 -7.765062E+04 -6.809417E+03  1.521339E+04
       436  26 -1.400697E+05 -1.207358E+05 -2.586479E+04 -8.141402E+04 -6.462660E+03  1.654391E+04
       436  27 -1.466940E+05 -1.264387E+05 -2.501681E+04 -8.570971E+04 -6.024831E+03  1.775287E+04
       437   1  1.897170E+05  1.096144E+05  3.844097E+04  8.756393E+04  7.730747E+03 -1.695202E+04
       437   2  1.993600E+05  1.140544E+05  4.629525E+04  8.928625E+04  1.358591E+03 -2.201570E+04
       437   3  2.137262E+05  1.206771E+05  6.061495E+04  8.936771E+04 -5.471691E+03 -2.646939E+04
       437   4  1.942834E+04 -1.009252E+04  7.071011E+03 -3.123268E+02  6.597791E+03 -1.780333E+04
       437   5  1.877759E+04 -8.267912E+03  1.267199E+04 -1.564465E+03  1.656056E+03 -2.179340E+04
       437   6  2.254011E+04 -4.569920E+03  2.349803E+04 -4.457592E+03 -3.743801E+03 -2.517337E+04
       437   7 -1.508249E+05 -1.297804E+05 -2.429942E+04 -8.816010E+04  5.465244E+03 -1.865433E+04
       437   8 -1.617676E+05 -1.305723E+05 -2.095272E+04 -9.238565E+04  1.953410E+03 -2.157119E+04
       437   9 -1.686069E+05 -1.298003E+05 -1.362157E+04 -9.825234E+04 -2.016576E+03 -2.387779E+04
       437  10  1.897168E+05  1.096140E+05  3.844031E+04  8.756403E+04  2.196246E-09 -2.911754E-09
       437  11  1.993599E+05  1.140539E+05  4.629434E+04  8.928627E+04  4.800340E-10  1.288473E-10
       437  12  2.137260E+05  1.206764E+05  6.061357E+04  8.936759E+04  4.536644E-10  9.142760E-10
       437  13  1.942821E+04 -1.009287E+04  7.070333E+03 -3.122322E+02  7.476448E-10 -1.166694E-09
       437  14  1.877746E+04 -8.268423E+03  1.267109E+04 -1.564436E+03  6.603403E-10  1.044089E-10
       437  15  2.253992E+04 -4.570604E+03  2.349681E+04 -4.457668E+03 -1.365675E-10 -2.992874E-10
       437  16 -1.508250E+05 -1.297808E+05 -2.430013E+04 -8.816001E+04 -8.989093E-10  1.843503E-09
       437  17 -1.617677E+05 -1.305728E+05 -2.095360E+04 -9.238562E+04 -5.338473E-10  9.549589E-11
       437  18 -1.686071E+05 -1.298009E+05 -1.362265E+04 -9.825238E+04 -9.650995E-10  5.908515E-10
       437  19  1.897170E+05  1.096144E+05  3.844097E+04  8.756393E+04 -7.730747E+03  1.695202E+04
       437  20  1.993600E+05  1.140544E+05  4.629525E+04  8.928625E+04 -1.358591E+03  2.201570E+04
       437  21  2.137262E+05  1.206771E+05  6.061495E+04  8.936771E+04  5.471691E+03  2.646939E+04
       437  22  1.942834E+04 -1.009252E+04  7.071011E+03 -3.123268E+02 -6.597791E+03  1.780333E+04
       437  23  1.877759E+04 -8.267912E+03  1.267199E+04 -1.564465E+03 -1.656056E+03  2.179340E+04
       437  24  2.254011E+04 -4.569920E+03  2.349803E+04 -4.457592E+03  3.743801E+03  2.517337E+04
       437  25 -1.508249E+05 -1.297804E+05 -2.429942E+04 -8.816010E+04 -5.465244E+03  1.865433E+04
       437  26 -1.617676E+05 -1.305723E+05 -2.095272E+04 -9.238565E+04 -1.953410E+03  2.157119E+04
       437  27 -1.686069E+05 -1.298003E+05 -1.362157E+04 -9.825234E+04  2.016576E+03  2.387779E+04
       438   1  2.198262E+05  1.297066E+05  7.089707E+04  9.218996E+04 -9.259571E+03 -2.884937E+04
       438   2  2.646289E+05  1.156151E+05  1.059560E+05  6.953293E+04 -4.608457E+04 -5.156248E+04
       438   3  3.390034E+05  1.370808E+05  1.809683E+05  3.207470E+04 -8.635438E+04 -6.969112E+04
       438   4  2.556566E+04 -1.230072E+03  3.148490E+04 -4.659986E+03 -7.236729E+03 -2.733178E+04
       438   5  2.923925E+04  1.284220E+04  5.818047E+04 -2.029905E+04 -3.332335E+04 -4.198719E+04
       438   6  6.015741E+04  6.014720E+04  1.155132E+05 -5.074053E+04 -6.285106E+04 -5.206013E+04
       438   7 -1.686454E+05 -1.321421E+05 -7.927155E+03 -1.014730E+05 -5.214770E+03 -2.581483E+04
       438   8 -2.060785E+05 -8.991641E+04  1.040552E+04 -1.100978E+05 -2.056904E+04 -3.241461E+04
       438   9 -2.185873E+05 -1.677579E+04  5.006039E+04 -1.335281E+05 -3.936312E+04 -3.443197E+04
       438  10  2.198258E+05  1.297057E+05  7.089535E+04  9.218975E+04  4.047300E-10  9.944320E-10
       438  11  2.646259E+05  1.156117E+05  1.059470E+05  6.953101E+04  5.580074E-10  1.399125E-09
       438  12  3.389941E+05  1.370736E+05  1.809452E+05  3.206985E+04  4.376291E-10  1.631549E-10
       438  13  2.556540E+04 -1.230888E+03  3.148340E+04 -4.660145E+03  1.012581E-11  8.900572E-10
       438  14  2.923758E+04  1.284001E+04  5.817507E+04 -2.030018E+04 -6.595177E-10 -6.399926E-10
       438  15  6.015245E+04  6.014322E+04  1.155007E+05 -5.074316E+04 -3.713577E-10 -2.546926E-10
       438  16 -1.686456E+05 -1.321428E+05 -7.928458E+03 -1.014731E+05 -8.083573E-10  4.778184E-10
       438  17 -2.060793E+05 -8.991765E+04  1.040275E+04 -1.100983E+05 -9.499713E-10  1.769094E-10
       438  18 -2.185893E+05 -1.677748E+04  5.005525E+04 -1.335292E+05 -9.301632E-10 -2.444088E-10
       438  19  2.198262E+05  1.297066E+05  7.089707E+04  9.218996E+04  9.259571E+03  2.884937E+04
       438  20  2.646289E+05  1.156151E+05  1.059560E+05  6.953293E+04  4.608457E+04  5.156248E+04
       438  21  3.390034E+05  1.370808E+05  1.809683E+05  3.207470E+04  8.635438E+04  6.969112E+04
       438  22  2.556566E+04 -1.230072E+03  3.148490E+04 -4.659986E+03  7.236729E+03  2.733178E+04
       438  23  2.923925E+04  1.284220E+04  5.818047E+04 -2.029905E+04  3.332335E+04  4.198719E+04
       438  24  6.015741E+04  6.014720E+04  1.155132E+05 -5.074053E+04  6.285106E+04  5.206013E+04
       438  25 -1.686454E+05 -1.321421E+05 -7.927155E+03 -1.014730E+05  5.214770E+03  2.581483E+04
       438  26 -2.060785E+05 -8.991641E+04  1.040552E+04 -1.100978E+05  2.056904E+04  3.241461E+04
       438  27 -2.185873E+05 -1.677579E+04  5.006039E+04 -1.335281E+05  3.936312E+04  3.443197E+04
       439   1  5.369885E+05  1.014973E+05  8.688427E+04 -7.570404E+04  2.757325E+04 -9.861609E+03
       439   2  5.726000E+05  1.384579E+05  8.819070E+04 -5.476390E+04  1.475074E+04 -3.542202E+04
       439   3  6.049820E+05  1.556165E+05  9.291638E+04 -4.118033E+04  1.918997E+03 -4.796692E+04
       439   4 -8.777946E+04 -5.191210E+04 -5.586214E+04 -4.181958E+04 -3.917855E+04 -9.911525E+03
       439   5 -8.381663E+04 -1.595757E+04 -2.784027E+04 -3.816328E+04 -2.489629E+04 -3.545902E+04
       439   6 -8.779347E+04 -4.522435E+03 -1.522106E+04 -4.186655E+04 -1.062258E+04 -4.798399E+04
       439   7 -7.121738E+05 -2.053418E+05 -1.986167E+05 -7.969535E+03 -1.058638E+05 -9.968748E+03
       439   8 -7.398084E+05 -1.703948E+05 -1.438811E+05 -2.158078E+04 -6.450265E+04 -3.549816E+04
       439   9 -7.800900E+05 -1.646848E+05 -1.233693E+05 -4.255206E+04 -2.315070E+04 -4.800104E+04
       439  10  5.369877E+05  1.014970E+05  8.688266E+04 -7.570382E+04  2.380975E-09 -4.387269E-10
       439  11  5.725995E+05  1.384565E+05  8.818793E+04 -5.476348E+04  1.354256E-09 -2.409708E-09
       439  12  6.049814E+05  1.556140E+05  9.291205E+04 -4.118026E+04  5.711206E-10 -1.839642E-09
       439  13 -8.778113E+04 -5.191262E+04 -5.586521E+04 -4.181989E+04  2.741535E-10  3.573420E-10
       439  14 -8.381763E+04 -1.595909E+04 -2.784379E+04 -3.816399E+04 -4.998040E-10 -1.791355E-09
       439  15 -8.779421E+04 -4.524938E+03 -1.522560E+04 -4.186696E+04 -3.943855E-11 -4.792435E-10
       439  16 -7.121859E+05 -2.053450E+05 -1.986380E+05 -7.970385E+03 -2.654634E-09 -5.404776E-11
       439  17 -7.398132E+05 -1.703973E+05 -1.438913E+05 -2.158262E+04 -1.102634E-09 -3.496329E-09
       439  18 -7.800912E+05 -1.646874E+05 -1.233746E+05 -4.255296E+04 -7.965504E-10 -3.252260E-09
       439  19  5.369885E+05  1.014973E+05  8.688427E+04 -7.570404E+04 -2.757325E+04  9.861609E+03
       439  20  5.726000E+05  1.384579E+05  8.819070E+04 -5.476390E+04 -1.475074E+04  3.542202E+04
       439  21  6.049820E+05  1.556165E+05  9.291638E+04 -4.118033E+04 -1.918997E+03  4.796692E+04
       439  22 -8.777946E+04 -5.191210E+04 -5.586214E+04 -4.181958E+04  3.917855E+04  9.911525E+03
       439  23 -8.381663E+04 -1.595757E+04 -2.784027E+04 -3.816328E+04  2.489629E+04  3.545902E+04
       439  24 -8.779347E+04 -4.522435E+03 -1.522106E+04 -4.186655E+04  1.062258E+04  4.798399E+04
       439  25 -7.121738E+05 -2.053418E+05 -1.986167E+05 -7.969535E+03  1.058638E+05  9.968748E+03
       439  26 -7.398084E+05 -1.703948E+05 -1.438811E+05 -2.158078E+04  6.450265E+04  3.549816E+04
       439  27 -7.800900E+05 -1.646848E+05 -1.233693E+05 -4.255206E+04  2.315070E+04  4.800104E+04
       440   1  6.271981E+05  1.607691E+05  9.766180E+04 -4.292599E+04  3.978172E+03 -5.100588E+04
       440   2  6.613965E+05  1.704099E+05  1.041308E+05 -3.856943E+04  3.495371E+03 -5.616880E+04
       440   3  6.954012E+05  1.787799E+05  1.106151E+05 -4.062775E+04  3.011859E+03 -5.953836E+04
       440   4 -8.622252E+04 -3.697587E+03 -1.151034E+04 -4.165338E+04 -8.637129E+03 -5.102433E+04
       440   5 -8.580928E+04 -1.099680E+03 -6.485056E+03 -3.844775E+04 -5.386865E+03 -5.618546E+04
       440   6 -8.623982E+04 -4.214977E+02 -4.037178E+03 -4.165758E+04 -2.137214E+03 -5.955213E+04
       440   7 -7.991337E+05 -1.681887E+05 -1.206929E+05 -4.038239E+04 -2.123850E+04 -5.104284E+04
       440   8 -8.324537E+05 -1.726353E+05 -1.171108E+05 -3.832636E+04 -1.425885E+04 -5.620214E+04
       440   9 -8.672660E+05 -1.796513E+05 -1.187001E+05 -4.268622E+04 -7.280076E+03 -5.956589E+04
       440  10  6.271974E+05  1.607663E+05  9.765688E+04 -4.292583E+04 -3.971950E-09 -2.110643E-09
       440  11  6.613956E+05  1.704065E+05  1.041248E+05 -3.856928E+04 -9.763947E-10  9.024083E-10
       440  12  6.954003E+05  1.787761E+05  1.106085E+05 -4.062760E+04  7.370526E-10  1.687398E-09
       440  13 -8.622330E+04 -3.700402E+03 -1.151537E+04 -4.165373E+04  4.554067E-10 -1.614092E-09
       440  14 -8.581016E+04 -1.103077E+03 -6.491043E+03 -3.844800E+04 -3.710351E-10  3.700621E-10
       440  15 -8.624077E+04 -4.253071E+02 -4.043851E+03 -4.165768E+04  3.631037E-10 -1.249940E-09
       440  16 -7.991349E+05 -1.681916E+05 -1.206987E+05 -4.038326E+04  3.159207E-09 -2.939500E-10
       440  17 -8.324548E+05 -1.726387E+05 -1.171172E+05 -3.832701E+04  6.343753E-10  1.227696E-09
       440  18 -8.672670E+05 -1.796551E+05 -1.187068E+05 -4.268657E+04 -1.391238E-09  3.159992E-10
       440  19  6.271981E+05  1.607691E+05  9.766180E+04 -4.292599E+04 -3.978172E+03  5.100588E+04
       440  20  6.613965E+05  1.704099E+05  1.041308E+05 -3.856943E+04 -3.495371E+03  5.616880E+04
       440  21  6.954012E+05  1.787799E+05  1.106151E+05 -4.062775E+04 -3.011859E+03  5.953836E+04
       440  22 -8.622252E+04 -3.697587E+03 -1.151034E+04 -4.165338E+04  8.637129E+03  5.102433E+04
       440  23 -8.580928E+04 -1.099680E+03 -6.485056E+03 -3.844775E+04  5.386865E+03  5.618546E+04
       440  24 -8.623982E+04 -4.214977E+02 -4.037178E+03 -4.165758E+04  2.137214E+03  5.955213E+04
       440  25 -7.991337E+05 -1.681887E+05 -1.206929E+05 -4.038239E+04  2.123850E+04  5.104284E+04
       440  26 -8.324537E+05 -1.726353E+05 -1.171108E+05 -3.832636E+04  1.425885E+04  5.620214E+04
       440  27 -8.672660E+05 -1.796513E+05 -1.187001E+05 -4.268622E+04  7.280076E+03  5.956589E+04
       441   1  7.170055E+05  1.837600E+05  1.146524E+05 -4.075305E+04  3.669736E+03 -6.101232E+04
       441   2  7.507707E+05  1.918215E+05  1.220166E+05 -3.733601E+04 -3.006281E+02 -6.221226E+04
       441   3  7.852232E+05  2.002720E+05  1.320805E+05 -4.005447E+04 -4.274565E+03 -6.083755E+04
       441   4 -8.611299E+04 -4.057227E+02 -3.365679E+03 -4.159520E+04 -1.500427E+03 -6.102685E+04
       441   5 -8.600031E+04 -4.271471E+02 -2.788219E+03 -3.852685E+04 -1.069693E+02 -6.222017E+04
       441   6 -8.613188E+04 -9.903734E+02 -3.233924E+03 -4.159450E+04  1.283134E+03 -6.083706E+04
       441   7 -8.885825E+05 -1.846014E+05 -1.213950E+05 -4.243640E+04 -6.664182E+03 -6.104138E+04
       441   8 -9.220684E+05 -1.927088E+05 -1.276064E+05 -3.971624E+04  8.643945E+01 -6.222810E+04
       441   9 -9.567294E+05 -2.022898E+05 -1.385659E+05 -4.313255E+04  6.833334E+03 -6.083659E+04
       441  10  7.170045E+05  1.837560E+05  1.146453E+05 -4.075287E+04 -1.777540E-09  2.256466E-09
       441  11  7.507697E+05  1.918174E+05  1.220093E+05 -3.733603E+04  4.141596E-10  1.573386E-09
       441  12  7.852222E+05  2.002680E+05  1.320735E+05 -4.005468E+04  3.285319E-09 -1.292258E-10
       441  13 -8.611399E+04 -4.097224E+02 -3.372682E+03 -4.159528E+04  9.327524E-10 -1.693374E-09
       441  14 -8.600135E+04 -4.313041E+02 -2.795494E+03 -3.852685E+04 -8.143452E-10  2.060970E-09
       441  15 -8.613288E+04 -9.943480E+02 -3.240882E+03 -4.159444E+04 -1.554384E-10  2.722584E-09
       441  16 -8.885836E+05 -1.846054E+05 -1.214021E+05 -4.243673E+04  1.372440E-09  8.653778E-10
       441  17 -9.220695E+05 -1.927130E+05 -1.276137E+05 -3.971623E+04 -1.230259E-09  2.094449E-09
       441  18 -9.567304E+05 -2.022938E+05 -1.385729E+05 -4.313222E+04 -3.626407E-09 -9.014383E-11
       441  19  7.170055E+05  1.837600E+05  1.146524E+05 -4.075305E+04 -3.669736E+03  6.101232E+04
       441  20  7.507707E+05  1.918215E+05  1.220166E+05 -3.733601E+04  3.006281E+02  6.221226E+04
       441  21  7.852232E+05  2.002720E+05  1.320805E+05 -4.005447E+04  4.274565E+03  6.083755E+04
       441  22 -8.611299E+04 -4.057227E+02 -3.365679E+03 -4.159520E+04  1.500427E+03  6.102685E+04
       441  23 -8.600031E+04 -4.271471E+02 -2.788219E+03 -3.852685E+04  1.069693E+02  6.222017E+04
       441  24 -8.613188E+04 -9.903734E+02 -3.233924E+03 -4.159450E+04 -1.283134E+03  6.083706E+04
       441  25 -8.885825E+05 -1.846014E+05 -1.213950E+05 -4.243640E+04  6.664182E+03  6.104138E+04
       441  26 -9.220684E+05 -1.927088E+05 -1.276064E+05 -3.971624E+04 -8.643945E+01  6.222810E+04
       441  27 -9.567294E+05 -2.022898E+05 -1.385659E+05 -4.313255E+04 -6.833334E+03  6.083659E+04
       442   1  8.075898E+05  2.059540E+05  1.382125E+05 -4.009964E+04 -3.618862E+03 -6.006259E+04
       442   2  8.388924E+05  2.146438E+05  1.609345E+05 -3.401463E+04 -4.335892E+04 -4.721840E+04
       442   3  8.760070E+05  2.255894E+05  2.100809E+05 -3.257950E+04 -8.314632E+04 -1.378308E+04
       442   4 -8.644750E+04 -1.181864E+03 -3.815937E+03 -4.126553E+04  1.825717E+03 -6.006186E+04
       442   5 -8.564038E+04 -3.625447E+03 -6.218097E+03 -3.893312E+04  4.998548E+03 -4.713855E+04
       442   6 -8.646674E+04 -1.125943E+04 -1.197946E+04 -4.124878E+04  8.126825E+03 -1.360955E+04
       442   7 -9.796901E+05 -2.083575E+05 -1.458647E+05 -4.242997E+04  7.262747E+03 -6.006114E+04
       442   8 -1.009337E+06 -2.219412E+05 -1.733956E+05 -4.384443E+04  5.328607E+04 -4.705939E+04
       442   9 -1.048067E+06 -2.481685E+05 -2.340702E+05 -4.990489E+04  9.925971E+04 -1.343843E+04
       442  10  8.075889E+05  2.059501E+05  1.382057E+05 -4.009982E+04  2.245827E-10  2.984382E-10
       442  11  8.388898E+05  2.146409E+05  1.609268E+05 -3.401627E+04  5.659285E-10  4.712264E-09
       442  12  8.759995E+05  2.255874E+05  2.100676E+05 -3.258042E+04  1.047769E-09  1.565096E-09
       442  13 -8.644848E+04 -1.185739E+03 -3.822722E+03 -4.126544E+04  1.048711E-09  6.638324E-10
       442  14 -8.564100E+04 -3.627840E+03 -6.222319E+03 -3.893293E+04 -1.256262E-09  4.012887E-09
       442  15 -8.646686E+04 -1.125964E+04 -1.197993E+04 -4.124869E+04  2.689505E-10 -4.935367E-10
       442  16 -9.796911E+05 -2.083614E+05 -1.458716E+05 -4.242962E+04 -7.147011E-10 -2.029746E-10
       442  17 -1.009340E+06 -2.219444E+05 -1.734051E+05 -4.384241E+04 -1.237163E-09  5.120640E-10
       442  18 -1.048077E+06 -2.481713E+05 -2.340891E+05 -4.990382E+04 -1.917610E-09 -1.103566E-09
       442  19  8.075898E+05  2.059540E+05  1.382125E+05 -4.009964E+04  3.618862E+03  6.006259E+04
       442  20  8.388924E+05  2.146438E+05  1.609345E+05 -3.401463E+04  4.335892E+04  4.721840E+04
       442  21  8.760070E+05  2.255894E+05  2.100809E+05 -3.257950E+04  8.314632E+04  1.378308E+04
       442  22 -8.644750E+04 -1.181864E+03 -3.815937E+03 -4.126553E+04 -1.825717E+03  6.006186E+04
       442  23 -8.564038E+04 -3.625447E+03 -6.218097E+03 -3.893312E+04 -4.998548E+03  4.713855E+04
       442  24 -8.646674E+04 -1.125943E+04 -1.197946E+04 -4.124878E+04 -8.126825E+03  1.360955E+04
       442  25 -9.796901E+05 -2.083575E+05 -1.458647E+05 -4.242997E+04 -7.262747E+03  6.006114E+04
       442  26 -1.009337E+06 -2.219412E+05 -1.733956E+05 -4.384443E+04 -5.328607E+04  4.705939E+04
       442  27 -1.048067E+06 -2.481685E+05 -2.340702E+05 -4.990489E+04 -9.925971E+04  1.343843E+04
       443   1 -1.984291E+05 -6.542605E+05 -1.946779E+05  1.503503E+05 -8.401077E+03 -5.779339E+04
       443   2 -1.359485E+05 -4.923255E+05 -1.234327E+05  1.217083E+05 -2.537660E+04 -2.647566E+04
       443   3 -9.376297E+04 -3.394106E+05 -7.765346E+04  1.345249E+05 -2.373143E+04  4.865092E+03
       443   4 -2.308982E+04  5.293330E+04 -2.553639E+04  1.369032E+05 -8.418962E+03 -2.086522E+04
       443   5 -3.674489E+03  5.520534E+04 -9.771806E+03  1.161793E+05 -2.537929E+04 -1.572182E+04
       443   6  3.627238E+00  5.298735E+04 -1.278257E+03  1.369142E+05 -2.372560E+04 -1.056431E+04
       443   7  1.522147E+05  7.605891E+05  1.435751E+05  1.234407E+05 -8.438441E+03  1.610487E+04
       443   8  1.285807E+05  6.030206E+05  1.038732E+05  1.106455E+05 -2.538218E+04 -4.958643E+03
       443   9  9.376114E+04  4.455337E+05  7.509055E+04  1.393052E+05 -2.371989E+04 -2.600325E+04
       443  10 -1.984301E+05 -6.542641E+05 -1.946843E+05  1.503499E+05 -1.779735E-10 -5.025292E-10
       443  11 -1.359494E+05 -4.923265E+05 -1.234352E+05  1.217077E+05 -2.174011E-10  7.573432E-10
       443  12 -9.376358E+04 -3.394108E+05 -7.765457E+04  1.345250E+05  1.139874E-10  1.385999E-09
       443  13 -2.309001E+04  5.293282E+04 -2.553734E+04  1.369031E+05  3.536715E-10  8.173323E-10
       443  14 -3.675247E+03  5.520490E+04 -9.773481E+03  1.161790E+05 -2.581329E-10 -6.748115E-10
       443  15  2.992892E+00  5.298708E+04 -1.279524E+03  1.369140E+05  3.493611E-10  7.132858E-10
       443  16  1.522145E+05  7.605888E+05  1.435744E+05  1.234408E+05  8.071568E-11 -6.601952E-10
       443  17  1.285800E+05  6.030204E+05  1.038719E+05  1.106454E+05  3.202802E-10 -7.223226E-10
       443  18  9.376036E+04  4.455328E+05  7.508822E+04  1.393047E+05  8.398666E-11 -1.891302E-09
       443  19 -1.984291E+05 -6.542605E+05 -1.946779E+05  1.503503E+05  8.401077E+03  5.779339E+04
       443  20 -1.359485E+05 -4.923255E+05 -1.234327E+05  1.217083E+05  2.537660E+04  2.647566E+04
       443  21 -9.376297E+04 -3.394106E+05 -7.765346E+04  1.345249E+05  2.373143E+04 -4.865092E+03
       443  22 -2.308982E+04  5.293330E+04 -2.553639E+04  1.369032E+05  8.418962E+03  2.086522E+04
       443  23 -3.674489E+03  5.520534E+04 -9.771806E+03  1.161793E+05  2.537929E+04  1.572182E+04
       443  24  3.627238E+00  5.298735E+04 -1.278257E+03  1.369142E+05  2.372560E+04  1.056431E+04
       443  25  1.522147E+05  7.605891E+05  1.435751E+05  1.234407E+05  8.438441E+03 -1.610487E+04
       443  26  1.285807E+05  6.030206E+05  1.038732E+05  1.106455E+05  2.538218E+04  4.958643E+03
       443  27  9.376114E+04  4.455337E+05  7.509055E+04  1.393052E+05  2.371989E+04  2.600325E+04
       444   1 -6.911344E+04 -2.301194E+05 -5.294262E+04  1.366115E+05 -1.726327E+04  1.299196E+03
       444   2 -3.005413E+04 -7.347665E+04 -1.309576E+04  1.162040E+05 -8.434353E+03 -3.552093E+03
       444   3  1.149535E+04  8.449921E+04  3.054253E+04  1.383066E+05  8.243556E+02 -8.405451E+03
       444   4 -1.160747E+03  5.431438E+04  2.357408E+03  1.371449E+05 -1.725955E+04 -1.082078E+04
       444   5  1.732745E+02  5.361265E+04  1.094905E+04  1.158908E+05 -8.431110E+03 -1.627856E+04
       444   6  4.104373E+03  5.432705E+04  2.375481E+04  1.371461E+05  8.270198E+02 -2.173723E+04
       444   7  6.678719E+04  3.388261E+05  5.765416E+04  1.376784E+05 -1.725584E+04 -2.294619E+04
       444   8  3.039982E+04  1.807179E+05  3.499375E+04  1.155776E+05 -8.427855E+03 -2.900756E+04
       444   9 -3.286567E+03  2.415613E+04  1.696771E+04  1.359858E+05  8.297337E+02 -3.506837E+04
       444  10 -6.911376E+04 -2.301195E+05 -5.294318E+04  1.366116E+05  1.882684E-10 -5.665626E-10
       444  11 -3.005421E+04 -7.347669E+04 -1.309592E+04  1.162040E+05 -1.063488E-10  4.805253E-10
       444  12  1.149533E+04  8.449913E+04  3.054239E+04  1.383066E+05 -1.990664E-10  9.700776E-10
       444  13 -1.161098E+03  5.431417E+04  2.356628E+03  1.371447E+05  8.926255E-11  5.221800E-10
       444  14  1.731270E+02  5.361234E+04  1.094841E+04  1.158907E+05  1.319417E-10 -4.398829E-10
       444  15  4.104246E+03  5.432654E+04  2.375392E+04  1.371461E+05  5.848948E-11  4.688857E-10
       444  16  6.678673E+04  3.388255E+05  5.765261E+04  1.376781E+05  2.948411E-10 -1.882177E-10
       444  17  3.039952E+04  1.807170E+05  3.499203E+04  1.155774E+05 -3.159527E-10 -2.395171E-10
       444  18 -3.286898E+03  2.415481E+04  1.696540E+04  1.359858E+05 -4.464482E-10 -1.347552E-09
       444  19 -6.911344E+04 -2.301194E+05 -5.294262E+04  1.366115E+05  1.726327E+04 -1.299196E+03
       444  20 -3.005413E+04 -7.347665E+04 -1.309576E+04  1.162040E+05  8.434353E+03  3.552093E+03
       444  21  1.149535E+04  8.449921E+04  3.054253E+04  1.383066E+05 -8.243556E+02  8.405451E+03
       444  22 -1.160747E+03  5.431438E+04  2.357408E+03  1.371449E+05  1.725955E+04  1.082078E+04
       444  23  1.732745E+02  5.361265E+04  1.094905E+04  1.158908E+05  8.431110E+03  1.627856E+04
       444  24  4.104373E+03  5.432705E+04  2.375481E+04  1.371461E+05 -8.270198E+02  2.173723E+04
       444  25  6.678719E+04  3.388261E+05  5.765416E+04  1.376784E+05  1.725584E+04  2.294619E+04
       444  26  3.039982E+04  1.807179E+05  3.499375E+04  1.155776E+05  8.427855E+03  2.900756E+04
       444  27 -3.286567E+03  2.415613E+04  1.696771E+04  1.359858E+05 -8.297337E+02  3.506837E+04
       445   1  3.256801E+04  1.970419E+05  5.955536E+04  1.265014E+05  7.306079E+03 -1.044971E+04
       445   2  8.758263E+04  3.415057E+05  1.209227E+05  1.427549E+05  1.209246E+04 -5.828526E+04
       445   3  2.213889E+05  5.119744E+05  2.331322E+05  2.009057E+05  4.542366E+03 -1.061396E+05
       445   4 -5.764421E+02  5.911747E+04  3.177030E+04  1.369991E+05  7.309254E+03 -2.584808E+04
       445   5  1.635951E+04  4.760836E+04  5.853921E+04  1.160747E+05  1.209483E+04 -5.631102E+04
       445   6  1.090919E+05  5.908571E+04  1.241047E+05  1.370390E+05  4.546991E+03 -8.678029E+04
       445   7 -3.372153E+04 -7.878809E+04  3.985220E+03  1.474944E+05  7.311909E+03 -4.124310E+04
       445   8 -5.486653E+04 -2.462061E+05 -3.848806E+03  8.940736E+04  1.209703E+04 -5.433769E+04
       445   9 -3.204454E+03 -3.936059E+05  1.506617E+04  7.321907E+04  4.547641E+03 -6.743499E+04
       445  10  3.256792E+04  1.970418E+05  5.955505E+04  1.265014E+05 -5.576747E-12 -2.599880E-10
       445  11  8.758156E+04  3.415021E+05  1.209160E+05  1.427555E+05 -3.754916E-10  4.148514E-10
       445  12  2.213858E+05  5.119623E+05  2.331110E+05  2.009061E+05 -1.562388E-10  8.115545E-10
       445  13 -5.766789E+02  5.911674E+04  3.176895E+04  1.369992E+05 -7.156819E-10  5.450347E-10
       445  14  1.635850E+04  4.760492E+04  5.853298E+04  1.160753E+05  1.306680E-10 -4.162645E-10
       445  15  1.090899E+05  5.907762E+04  1.240905E+05  1.370394E+05 -2.891659E-10  6.206056E-10
       445  16 -3.372204E+04 -7.878993E+04  3.981923E+03  1.474946E+05 -1.306688E-10 -4.110825E-10
       445  17 -5.486748E+04 -2.462093E+05 -3.854632E+03  8.940789E+04  2.527683E-11 -2.467104E-10
       445  18 -3.205698E+03 -3.936108E+05  1.505758E+04  7.321932E+04 -3.286112E-10 -1.258905E-09
       445  19  3.256801E+04  1.970419E+05  5.955536E+04  1.265014E+05 -7.306079E+03  1.044971E+04
       445  20  8.758263E+04  3.415057E+05  1.209227E+05  1.427549E+05 -1.209246E+04  5.828526E+04
       445  21  2.213889E+05  5.119744E+05  2.331322E+05  2.009057E+05 -4.542366E+03  1.061396E+05
       445  22 -5.764421E+02  5.911747E+04  3.177030E+04  1.369991E+05 -7.309254E+03  2.584808E+04
       445  23  1.635951E+04  4.760836E+04  5.853921E+04  1.160747E+05 -1.209483E+04  5.631102E+04
       445  24  1.090919E+05  5.908571E+04  1.241047E+05  1.370390E+05 -4.546991E+03  8.678029E+04
       445  25 -3.372153E+04 -7.878809E+04  3.985220E+03  1.474944E+05 -7.311909E+03  4.124310E+04
       445  26 -5.486653E+04 -2.462061E+05 -3.848806E+03  8.940736E+04 -1.209703E+04  5.433769E+04
       445  27 -3.204454E+03 -3.936059E+05  1.506617E+04  7.321907E+04 -4.547641E+03  6.743499E+04
       446   1  5.091815E+05  4.924377E+05  1.509504E+05  3.557822E+05  6.089544E+04  3.792560E+04
       446   2  4.737348E+05  4.346086E+05  9.805271E+04  3.440188E+05  4.326680E+04  6.034762E+03
       446   3  4.430746E+05  3.980887E+05  7.113808E+04  3.301097E+05  1.947576E+04 -1.764679E+04
       446   4  1.615861E+05  2.089497E+05  3.409521E+04  1.662729E+05  2.282637E+04  9.314627E+03
       446   5  1.562154E+05  1.913902E+05  1.737584E+04  1.741318E+05  2.470509E+04 -7.917820E+03
       446   6  1.514042E+05  1.909113E+05  9.712852E+03  1.798428E+05  2.041743E+04 -1.694104E+04
       446   7 -1.858783E+05 -7.444422E+04 -8.276887E+04 -2.310844E+04 -1.521410E+04 -1.927066E+04
       446   8 -1.611842E+05 -5.175165E+04 -6.330575E+04  4.350794E+03  6.156166E+03 -2.185971E+04
       446   9 -1.401585E+05 -1.620653E+04 -5.171367E+04  2.966211E+04  2.135851E+04 -1.623575E+04
       446  10  5.091772E+05  4.924352E+05  1.509408E+05  3.557804E+05 -1.391124E-09  1.441266E-09
       446  11  4.737328E+05  4.346081E+05  9.804913E+04  3.440186E+05 -9.101596E-09  4.627826E-10
       446  12  4.430741E+05  3.980883E+05  7.113678E+04  3.301099E+05 -6.958583E-09 -1.539115E-09
       446  13  1.615855E+05  2.089495E+05  3.409407E+04  1.662727E+05  9.800912E-10  6.434560E-10
       446  14  1.562147E+05  1.913899E+05  1.737457E+04  1.741320E+05  7.731560E-09  3.137851E-09
       446  15  1.514037E+05  1.909109E+05  9.711529E+03  1.798431E+05  1.903337E-08  1.185576E-08
       446  16 -1.858787E+05 -7.444468E+04 -8.277000E+04 -2.310868E+04  3.118734E-10 -1.522698E-09
       446  17 -1.611844E+05 -5.175217E+04 -6.330672E+04  4.350903E+03  1.230159E-08  4.831487E-09
       446  18 -1.401591E+05 -1.620693E+04 -5.171502E+04  2.966239E+04  2.723785E-08  2.075794E-08
       446  19  5.091815E+05  4.924377E+05  1.509504E+05  3.557822E+05 -6.089544E+04 -3.792560E+04
       446  20  4.737348E+05  4.346086E+05  9.805271E+04  3.440188E+05 -4.326680E+04 -6.034762E+03
       446  21  4.430746E+05  3.980887E+05  7.113808E+04  3.301097E+05 -1.947576E+04  1.764679E+04
       446  22  1.615861E+05  2.089497E+05  3.409521E+04  1.662729E+05 -2.282637E+04 -9.314627E+03
       446  23  1.562154E+05  1.913902E+05  1.737584E+04  1.741318E+05 -2.470509E+04  7.917820E+03
       446  24  1.514042E+05  1.909113E+05  9.712852E+03  1.798428E+05 -2.041743E+04  1.694104E+04
       446  25 -1.858783E+05 -7.444422E+04 -8.276887E+04 -2.310844E+04  1.521410E+04  1.927066E+04
       446  26 -1.611842E+05 -5.175165E+04 -6.330575E+04  4.350794E+03 -6.156166E+03  2.185971E+04
       446  27 -1.401585E+05 -1.620653E+04 -5.171367E+04  2.966211E+04 -2.135851E+04  1.623575E+04
       447   1  4.182950E+05  3.813808E+05  6.214164E+04  3.188362E+05  1.738565E+04 -1.827070E+04
       447   2  3.852751E+05  3.492350E+05  4.904824E+04  2.997895E+05  1.199042E+04 -2.045743E+04
       447   3  3.459485E+05  3.265335E+05  4.009635E+04  2.826604E+05  5.774193E+03 -2.155179E+04
       447   4  1.503194E+05  1.900880E+05  7.503561E+03  1.800011E+05  1.892467E+04 -1.711572E+04
       447   5  1.532933E+05  1.848249E+05  4.760509E+03  1.796661E+05  1.612571E+04 -1.735030E+04
       447   6  1.493953E+05  1.884428E+05  3.905717E+03  1.812477E+05  1.250515E+04 -1.649247E+04
       447   7 -1.175700E+05 -1.157217E+03 -4.713698E+04  4.123670E+04  2.046281E+04 -1.596141E+04
       447   8 -7.862610E+04  2.044830E+04 -3.952935E+04  5.959433E+04  2.025901E+04 -1.424468E+04
       447   9 -4.711558E+04  5.037394E+04 -3.228701E+04  7.987044E+04  1.923347E+04 -1.143514E+04
       447  10  4.182946E+05  3.813803E+05  6.214044E+04  3.188365E+05  2.846583E-08  2.249069E-08
       447  11  3.852748E+05  3.492345E+05  4.904718E+04  2.997897E+05  1.342734E-08  6.327449E-09
       447  12  3.459483E+05  3.265330E+05  4.009541E+04  2.826605E+05  1.384496E-09  3.198684E-10
       447  13  1.503190E+05  1.900876E+05  7.502337E+03  1.800014E+05  1.849639E-08  9.491217E-09
       447  14  1.532929E+05  1.848245E+05  4.759454E+03  1.796663E+05  6.692038E-09  3.479688E-09
       447  15  1.493951E+05  1.884425E+05  3.904912E+03  1.812479E+05 -4.664243E-10 -6.364452E-10
       447  16 -1.175705E+05 -1.157603E+03 -4.713825E+04  4.123696E+04 -7.621014E-09 -2.552739E-09
       447  17 -7.862660E+04  2.044797E+04 -3.953050E+04  5.959456E+04 -1.090443E-08 -1.358433E-09
       447  18 -4.711601E+04  5.037370E+04 -3.228796E+04  7.987062E+04 -3.353990E-09  2.346175E-10
       447  19  4.182950E+05  3.813808E+05  6.214164E+04  3.188362E+05 -1.738565E+04  1.827070E+04
       447  20  3.852751E+05  3.492350E+05  4.904824E+04  2.997895E+05 -1.199042E+04  2.045743E+04
       447  21  3.459485E+05  3.265335E+05  4.009635E+04  2.826604E+05 -5.774193E+03  2.155179E+04
       447  22  1.503194E+05  1.900880E+05  7.503561E+03  1.800011E+05 -1.892467E+04  1.711572E+04
       447  23  1.532933E+05  1.848249E+05  4.760509E+03  1.796661E+05 -1.612571E+04  1.735030E+04
       447  24  1.493953E+05  1.884428E+05  3.905717E+03  1.812477E+05 -1.250515E+04  1.649247E+04
       447  25 -1.175700E+05 -1.157217E+03 -4.713698E+04  4.123670E+04 -2.046281E+04  1.596141E+04
       447  26 -7.862610E+04  2.044830E+04 -3.952935E+04  5.959433E+04 -2.025901E+04  1.424468E+04
       447  27 -4.711558E+04  5.037394E+04 -3.228701E+04  7.987044E+04 -1.923347E+04  1.143514E+04
       448   1  3.232073E+05  3.108414E+05  3.565740E+04  2.711769E+05  3.875781E+03 -2.031856E+04
       448   2  2.908838E+05  2.810933E+05  2.982910E+04  2.511425E+05 -5.948588E+02 -1.911094E+04
       448   3  2.513261E+05  2.599044E+05  2.604468E+04  2.332922E+05 -5.146377E+03 -1.779583E+04
       448   4  1.493280E+05  1.884055E+05  3.972589E+03  1.812710E+05  1.068302E+04 -1.520145E+04
       448   5  1.531137E+05  1.843980E+05  5.088932E+03  1.799997E+05  6.467785E+03 -1.380126E+04
       448   6  1.496072E+05  1.888931E+05  8.026866E+03  1.809107E+05  2.171455E+03 -1.229371E+04
       448   7 -2.450951E+04  6.599304E+04 -2.771074E+04  9.139734E+04  1.748756E+04 -1.008636E+04
       448   8  1.536907E+04  8.771684E+04 -1.965049E+04  1.088766E+05  1.352827E+04 -8.493203E+03
       448   9  4.790121E+04  1.178887E+05 -9.990683E+03  1.285395E+05  9.487698E+03 -6.792776E+03
       448  10  3.232072E+05  3.108410E+05  3.565659E+04  2.711770E+05  1.657466E-09  1.245656E-09
       448  11  2.908837E+05  2.810929E+05  2.982842E+04  2.511425E+05  6.015818E-10 -1.100490E-10
       448  12  2.513260E+05  2.599040E+05  2.604404E+04  2.332921E+05  4.843611E-10  2.012993E-09
       448  13  1.493278E+05  1.884052E+05  3.971941E+03  1.812712E+05 -1.311208E-10  2.089917E-09
       448  14  1.531136E+05  1.843978E+05  5.088495E+03  1.799998E+05 -1.300437E-09  3.287645E-09
       448  15  1.496071E+05  1.888929E+05  8.026573E+03  1.809107E+05 -4.617983E-10  1.437141E-09
       448  16 -2.450987E+04  6.599284E+04 -2.771150E+04  9.139748E+04 -2.406820E-09  3.506556E-10
       448  17  1.536886E+04  8.771671E+04 -1.965097E+04  1.088766E+05 -1.987402E-09  1.520924E-09
       448  18  4.790110E+04  1.178887E+05 -9.990939E+03  1.285395E+05 -1.912325E-09  2.004788E-10
       448  19  3.232073E+05  3.108414E+05  3.565740E+04  2.711769E+05 -3.875781E+03  2.031856E+04
       448  20  2.908838E+05  2.810933E+05  2.982910E+04  2.511425E+05  5.948588E+02  1.911094E+04
       448  21  2.513261E+05  2.599044E+05  2.604468E+04  2.332922E+05  5.146377E+03  1.779583E+04
       448  22  1.493280E+05  1.884055E+05  3.972589E+03  1.812710E+05 -1.068302E+04  1.520145E+04
       448  23  1.531137E+05  1.843980E+05  5.088932E+03  1.799997E+05 -6.467785E+03  1.380126E+04
       448  24  1.496072E+05  1.888931E+05  8.026866E+03  1.809107E+05 -2.171455E+03  1.229371E+04
       448  25 -2.450951E+04  6.599304E+04 -2.771074E+04  9.139734E+04 -1.748756E+04  1.008636E+04
       448  26  1.536907E+04  8.771684E+04 -1.965049E+04  1.088766E+05 -1.352827E+04  8.493203E+03
       448  27  4.790121E+04  1.178887E+05 -9.990683E+03  1.285395E+05 -9.487698E+03  6.792776E+03
       449   1  2.289236E+05  2.449894E+05  2.410434E+04  2.219113E+05 -7.732802E+03 -1.691133E+04
       449   2  2.008367E+05  2.131295E+05  2.490145E+04  1.988144E+05 -1.652180E+04 -1.891787E+04
       449   3  1.687430E+05  1.939426E+05  3.257402E+04  1.763171E+05 -2.510622E+04 -2.119623E+04
       449   4  1.500690E+05  1.893199E+05  1.036881E+04  1.809593E+05 -4.262600E+02 -1.141743E+04
       449   5  1.542494E+05  1.868888E+05  1.804201E+04  1.776705E+05 -9.861152E+03 -1.390963E+04
       449   6  1.545626E+05  1.972703E+05  3.315176E+04  1.749803E+05 -1.909169E+04 -1.667404E+04
       449   7  7.122016E+04  1.336531E+05 -3.367121E+03  1.400125E+05  6.879239E+03 -5.924318E+03
       449   8  1.076649E+05  1.606491E+05  1.118285E+04  1.565285E+05 -3.201172E+03 -8.901764E+03
       449   9  1.403830E+05  2.005981E+05  3.372983E+04  1.736436E+05 -1.307750E+04 -1.215186E+04
       449  10  2.289234E+05  2.449891E+05  2.410369E+04  2.219112E+05 -2.033609E-11  2.228503E-09
       449  11  2.008363E+05  2.131291E+05  2.490027E+04  1.988141E+05 -5.310263E-10  2.118157E-09
       449  12  1.687422E+05  1.939419E+05  3.257199E+04  1.763167E+05 -1.133057E-09  7.613611E-10
       449  13  1.500689E+05  1.893197E+05  1.036857E+04  1.809593E+05  5.074456E-11 -1.964760E-09
       449  14  1.542492E+05  1.868886E+05  1.804146E+04  1.776704E+05  1.662957E-10  1.475771E-09
       449  15  1.545621E+05  1.972699E+05  3.315055E+04  1.749801E+05 -3.105635E-10  8.362387E-11
       449  16  7.122010E+04  1.336531E+05 -3.367276E+03  1.400125E+05 -3.221075E-10 -2.251719E-09
       449  17  1.076648E+05  1.606490E+05  1.118268E+04  1.565284E+05 -7.614621E-10 -1.606508E-09
       449  18  1.403827E+05  2.005979E+05  3.372923E+04  1.736435E+05 -1.028998E-09  2.041485E-09
       449  19  2.289236E+05  2.449894E+05  2.410434E+04  2.219113E+05  7.732802E+03  1.691133E+04
       449  20  2.008367E+05  2.131295E+05  2.490145E+04  1.988144E+05  1.652180E+04  1.891787E+04
       449  21  1.687430E+05  1.939426E+05  3.257402E+04  1.763171E+05  2.510622E+04  2.119623E+04
       449  22  1.500690E+05  1.893199E+05  1.036881E+04  1.809593E+05  4.262600E+02  1.141743E+04
       449  23  1.542494E+05  1.868888E+05  1.804201E+04  1.776705E+05  9.861152E+03  1.390963E+04
       449  24  1.545626E+05  1.972703E+05  3.315176E+04  1.749803E+05  1.909169E+04  1.667404E+04
       449  25  7.122016E+04  1.336531E+05 -3.367121E+03  1.400125E+05 -6.879239E+03  5.924318E+03
       449  26  1.076649E+05  1.606491E+05  1.118285E+04  1.565285E+05  3.201172E+03  8.901764E+03
       449  27  1.403830E+05  2.005981E+05  3.372983E+04  1.736436E+05  1.307750E+04  1.215186E+04
       450   1  1.481379E+05  1.852187E+05  3.893864E+04  1.649939E+05 -3.071897E+04 -2.301406E+04
       450   2  1.694642E+05  1.274463E+05  6.665860E+04  1.097060E+05 -5.993581E+04 -4.281627E+04
       450   3  2.181255E+05  1.238889E+05  1.327199E+05  3.666698E+04 -8.751983E+04 -6.478614E+04
       450   4  1.590497E+05  2.019506E+05  4.436375E+04  1.744867E+05 -2.486340E+04 -1.861131E+04
       450   5  1.690707E+05  2.171832E+05  8.185922E+04  1.511013E+05 -5.924095E+04 -4.230192E+04
       450   6  2.075366E+05  2.877365E+05  1.621764E+05  1.099640E+05 -9.198522E+04 -6.816673E+04
       450   7  1.699619E+05  2.186830E+05  4.978905E+04  1.839797E+05 -1.900770E+04 -1.420829E+04
       450   8  1.686822E+05  3.069385E+05  9.706140E+04  1.924992E+05 -5.854609E+04 -4.178738E+04
       450   9  1.969657E+05  4.516468E+05  1.916385E+05  1.832674E+05 -9.645049E+04 -7.154955E+04
       450  10  1.481367E+05  1.852179E+05  3.893587E+04  1.649934E+05 -7.321917E-10  3.238367E-10
       450  11  1.694599E+05  1.274433E+05  6.664841E+04  1.097039E+05 -5.508148E-12  4.283333E-10
       450  12  2.181161E+05  1.238824E+05  1.326976E+05  3.666242E+04  1.274588E-09  9.003849E-10
       450  13  1.590490E+05  2.019501E+05  4.436194E+04  1.744863E+05 -1.657124E-09 -1.421688E-09
       450  14  1.690665E+05  2.171803E+05  8.184927E+04  1.510993E+05 -6.185488E-10  2.309092E-09
       450  15  2.075263E+05  2.877292E+05  1.621518E+05  1.099590E+05 -1.079507E-09  3.863752E-10
       450  16  1.699614E+05  2.186827E+05  4.978800E+04  1.839795E+05 -1.174236E-09  2.315823E-09
       450  17  1.686781E+05  3.069357E+05  9.705168E+04  1.924972E+05 -1.782149E-09  1.317806E-09
       450  18  1.969543E+05  4.516388E+05  1.916115E+05  1.832619E+05 -2.145031E-09 -4.537525E-10
       450  19  1.481379E+05  1.852187E+05  3.893864E+04  1.649939E+05  3.071897E+04  2.301406E+04
       450  20  1.694642E+05  1.274463E+05  6.665860E+04  1.097060E+05  5.993581E+04  4.281627E+04
       450  21  2.181255E+05  1.238889E+05  1.327199E+05  3.666698E+04  8.751983E+04  6.478614E+04
       450  22  1.590497E+05  2.019506E+05  4.436375E+04  1.744867E+05  2.486340E+04  1.861131E+04
       450  23  1.690707E+05  2.171832E+05  8.185922E+04  1.511013E+05  5.924095E+04  4.230192E+04
       450  24  2.075366E+05  2.877365E+05  1.621764E+05  1.099640E+05  9.198522E+04  6.816673E+04
       450  25  1.699619E+05  2.186830E+05  4.978905E+04  1.839797E+05  1.900770E+04  1.420829E+04
       450  26  1.686822E+05  3.069385E+05  9.706140E+04  1.924992E+05  5.854609E+04  4.178738E+04
       450  27  1.969657E+05  4.516468E+05  1.916385E+05  1.832674E+05  9.645049E+04  7.154955E+04
       451   1  1.543845E+06  3.991619E+05  3.750140E+05  2.631676E+05  9.695144E+04 -2.158684E+04
       451   2  1.270993E+06  3.427550E+05  2.688527E+05  2.452010E+05  3.269090E+04 -6.983160E+04
       451   3  1.005407E+06  2.821255E+05  2.034494E+05  2.832415E+05 -3.162265E+04 -7.638508E+04
       451   4 -1.926087E+05 -2.952224E+04 -3.391914E+04  2.791731E+05 -2.358899E+04 -2.189574E+04
       451   5 -1.897559E+05 -6.239274E+03 -1.659309E+04  2.511247E+05 -1.489018E+04 -6.997716E+04
       451   6 -1.923523E+05  1.632777E+02 -9.116253E+03  2.790919E+05 -6.272683E+03 -7.632021E+04
       451   7 -1.926260E+06 -4.584127E+05 -4.430052E+05  2.951314E+05 -1.437948E+05 -2.221135E+04
       451   8 -1.648456E+06 -3.553604E+05 -3.021326E+05  2.570325E+05 -6.236188E+04 -7.012382E+04
       451   9 -1.388711E+06 -2.818776E+05 -2.217330E+05  2.749492E+05  1.902986E+04 -7.625561E+04
       451  10  1.543835E+06  3.991589E+05  3.749955E+05  2.631693E+05  6.287591E-09 -2.597274E-09
       451  11  1.270990E+06  3.427495E+05  2.688415E+05  2.452028E+05 -9.603975E-10 -4.045480E-09
       451  12  1.005405E+06  2.821190E+05  2.034365E+05  2.832396E+05 -7.517640E-09 -2.669795E-09
       451  13 -1.926094E+05 -2.952291E+04 -3.392108E+04  2.791727E+05 -9.523357E-12  3.935178E-09
       451  14 -1.897575E+05 -6.244591E+03 -1.660271E+04  2.511239E+05  5.022177E-10 -2.609252E-09
       451  15 -1.923540E+05  1.570132E+02 -9.127271E+03  2.790915E+05 -2.883610E-10 -3.394882E-09
       451  16 -1.926283E+06 -4.584188E+05 -4.430451E+05  2.951288E+05 -7.726352E-09  3.276503E-10
       451  17 -1.648461E+06 -3.553668E+05 -3.021491E+05  2.570289E+05  1.722448E-10 -3.582686E-09
       451  18 -1.388713E+06 -2.818839E+05 -2.217446E+05  2.749504E+05  9.266141E-09 -3.264692E-09
       451  19  1.543845E+06  3.991619E+05  3.750140E+05  2.631676E+05 -9.695144E+04  2.158684E+04
       451  20  1.270993E+06  3.427550E+05  2.688527E+05  2.452010E+05 -3.269090E+04  6.983160E+04
       451  21  1.005407E+06  2.821255E+05  2.034494E+05  2.832415E+05  3.162265E+04  7.638508E+04
       451  22 -1.926087E+05 -2.952224E+04 -3.391914E+04  2.791731E+05  2.358899E+04  2.189574E+04
       451  23 -1.897559E+05 -6.239274E+03 -1.659309E+04  2.511247E+05  1.489018E+04  6.997716E+04
       451  24 -1.923523E+05  1.632777E+02 -9.116253E+03  2.790919E+05  6.272683E+03  7.632021E+04
       451  25 -1.926260E+06 -4.584127E+05 -4.430052E+05  2.951314E+05  1.437948E+05  2.221135E+04
       451  26 -1.648456E+06 -3.553604E+05 -3.021326E+05  2.570325E+05  6.236188E+04  7.012382E+04
       451  27 -1.388711E+06 -2.818776E+05 -2.217330E+05  2.749492E+05 -1.902986E+04  7.625561E+04
       452   1  8.303534E+05  2.400734E+05  1.722640E+05  2.814222E+05 -2.646498E+04 -6.699049E+04
       452   2  5.612885E+05  1.771504E+05  1.239572E+05  2.519037E+05 -3.100241E+04 -5.294287E+04
       452   3  2.926592E+05  1.147253E+05  7.863320E+04  2.811316E+05 -3.555698E+04 -3.518881E+04
       452   4 -1.912365E+05 -1.199859E+01 -6.970086E+03  2.797091E+05 -5.117883E+03 -6.693237E+04
       452   5 -1.907897E+05  1.185626E+03 -3.947289E+03  2.503309E+05 -3.184062E+03 -5.285715E+04
       452   6 -1.911023E+05  1.760791E+03 -2.435691E+03  2.797037E+05 -1.269246E+03 -3.507312E+04
       452   7 -1.211805E+06 -2.401541E+05 -1.862401E+05  2.779979E+05  1.619517E+04 -6.687431E+04
       452   8 -9.423099E+05 -1.748087E+05 -1.318674E+05  2.487596E+05  2.460168E+04 -5.277151E+04
       452   9 -6.746304E+05 -1.112153E+05 -8.350745E+04  2.782767E+05  3.299266E+04 -3.495753E+04
       452  10  8.303514E+05  2.400684E+05  1.722542E+05  2.814208E+05  8.143544E-10  2.539988E-09
       452  11  5.612867E+05  1.771471E+05  1.239501E+05  2.519024E+05 -1.270967E-08  1.269974E-09
       452  12  2.926575E+05  1.147236E+05  7.862850E+04  2.811306E+05 -2.435499E-08  9.421162E-10
       452  13 -1.912377E+05 -1.681566E+01 -6.978552E+03  2.797088E+05  3.119034E-12 -7.172696E-11
       452  14 -1.907904E+05  1.182624E+03 -3.952558E+03  2.503308E+05  9.021579E-10  8.405310E-10
       452  15 -1.911026E+05  1.759470E+03 -2.438005E+03  2.797037E+05 -8.205730E-10  1.138922E-09
       452  16 -1.211806E+06 -2.401590E+05 -1.862490E+05  2.779988E+05 -1.514706E-09  2.436533E-09
       452  17 -9.423113E+05 -1.748119E+05 -1.318738E+05  2.487606E+05  1.271811E-08 -8.214166E-09
       452  18 -6.746319E+05 -1.112169E+05 -8.351180E+04  2.782776E+05  2.647671E-08 -1.507053E-09
       452  19  8.303534E+05  2.400734E+05  1.722640E+05  2.814222E+05  2.646498E+04  6.699049E+04
       452  20  5.612885E+05  1.771504E+05  1.239572E+05  2.519037E+05  3.100241E+04  5.294287E+04
       452  21  2.926592E+05  1.147253E+05  7.863320E+04  2.811316E+05  3.555698E+04  3.518881E+04
       452  22 -1.912365E+05 -1.199859E+01 -6.970086E+03  2.797091E+05  5.117883E+03  6.693237E+04
       452  23 -1.907897E+05  1.185626E+03 -3.947289E+03  2.503309E+05  3.184062E+03  5.285715E+04
       452  24 -1.911023E+05  1.760791E+03 -2.435691E+03  2.797037E+05  1.269246E+03  3.507312E+04
       452  25 -1.211805E+06 -2.401541E+05 -1.862401E+05  2.779979E+05 -1.619517E+04  6.687431E+04
       452  26 -9.423099E+05 -1.748087E+05 -1.318674E+05  2.487596E+05 -2.460168E+04  5.277151E+04
       452  27 -6.746304E+05 -1.112153E+05 -8.350745E+04  2.782767E+05 -3.299266E+04  3.495753E+04
       453   1  1.185062E+05  7.383452E+04  4.872529E+04  2.805434E+05 -3.504217E+04 -2.355639E+04
       453   2 -1.497408E+05  1.076616E+04  3.150923E+03  2.505028E+05 -3.106902E+04 -4.924973E+03
       453   3 -4.189766E+05 -5.274427E+04 -4.524600E+04  2.793315E+05 -2.709309E+04  1.186520E+04
       453   4 -1.910192E+05  1.775855E+03 -2.019477E+03  2.797304E+05 -9.222265E+02 -2.343848E+04
       453   5 -1.907628E+05  1.602659E+03 -1.631947E+03  2.502963E+05 -1.712617E+02 -4.817747E+03
       453   6 -1.910118E+05  1.548481E+03 -1.832732E+03  2.797312E+05  5.841624E+02  1.196178E+04
       453   7 -5.004474E+05 -7.028710E+04 -5.276263E+04  2.789178E+05  3.318129E+04 -2.332062E+04
       453   8 -2.317810E+05 -7.560391E+03 -6.411222E+03  2.500898E+05  3.072456E+04 -4.710537E+03
       453   9  3.700484E+04  5.583859E+04  4.158108E+04  2.801310E+05  2.827134E+04  1.205837E+04
       453  10  1.185048E+05  7.383360E+04  4.872194E+04  2.805427E+05  1.592633E-08  5.544660E-09
       453  11 -1.497418E+05  1.076587E+04  3.149064E+03  2.505027E+05  1.015002E-08  2.675463E-09
       453  12 -4.189774E+05 -5.274462E+04 -4.524765E+04  2.793317E+05  4.695689E-09  7.161737E-09
       453  13 -1.910194E+05  1.775265E+03 -2.020511E+03  2.797304E+05 -1.760133E-10  3.180068E-09
       453  14 -1.907628E+05  1.602634E+03 -1.631991E+03  2.502963E+05  6.700538E-10  5.081032E-09
       453  15 -1.910118E+05  1.548328E+03 -1.833001E+03  2.797312E+05 -6.833445E-10  1.162055E-09
       453  16 -5.004487E+05 -7.028798E+04 -5.276573E+04  2.789184E+05 -1.646068E-08  1.773328E-09
       453  17 -2.317820E+05 -7.560668E+03 -6.413038E+03  2.500899E+05 -1.110789E-08  5.859222E-10
       453  18  3.700395E+04  5.583822E+04  4.157930E+04  2.801307E+05 -3.034337E-09 -7.964128E-09
       453  19  1.185062E+05  7.383452E+04  4.872529E+04  2.805434E+05  3.504217E+04  2.355639E+04
       453  20 -1.497408E+05  1.076616E+04  3.150923E+03  2.505028E+05  3.106902E+04  4.924973E+03
       453  21 -4.189766E+05 -5.274427E+04 -4.524600E+04  2.793315E+05  2.709309E+04 -1.186520E+04
       453  22 -1.910192E+05  1.775855E+03 -2.019477E+03  2.797304E+05  9.222265E+02  2.343848E+04
       453  23 -1.907628E+05  1.602659E+03 -1.631947E+03  2.502963E+05  1.712617E+02  4.817747E+03
       453  24 -1.910118E+05  1.548481E+03 -1.832732E+03  2.797312E+05 -5.841624E+02 -1.196178E+04
       453  25 -5.004474E+05 -7.028710E+04 -5.276263E+04  2.789178E+05 -3.318129E+04  2.332062E+04
       453  26 -2.317810E+05 -7.560391E+03 -6.411222E+03  2.500898E+05 -3.072456E+04  4.710537E+03
       453  27  3.700484E+04  5.583859E+04  4.158108E+04  2.801310E+05 -2.827134E+04 -1.205837E+04
       454   1 -5.942266E+05 -9.412674E+04 -7.736557E+04  2.781133E+05 -2.905280E+04  2.237782E+04
       454   2 -8.588131E+05 -1.607130E+05 -1.388988E+05  2.508722E+05  1.374621E+04  2.789762E+04
       454   3 -1.131809E+06 -2.374368E+05 -2.309427E+05  2.809702E+05  5.659092E+04  9.884094E+03
       454   4 -1.912171E+05  1.567215E+03 -2.122305E+03  2.793883E+05  8.491886E+02  2.248032E+04
       454   5 -1.906083E+05  1.008738E+02 -3.409754E+03  2.507296E+05  2.599699E+03  2.785810E+04
       454   6 -1.913347E+05 -4.361096E+03 -6.677150E+03  2.794068E+05  4.414252E+03  9.713951E+03
       454   7  2.119516E+05  9.725228E+04  7.311737E+04  2.806639E+05  3.077011E+04  2.258291E+04
       454   8  4.780223E+05  1.608870E+05  1.320565E+05  2.505865E+05 -8.558598E+03  2.781860E+04
       454   9  7.499579E+05  2.286522E+05  2.175365E+05  2.778403E+05 -4.784120E+04  9.544216E+03
       454  10 -5.942276E+05 -9.412750E+04 -7.736810E+04  2.781138E+05 -2.661878E-10  5.501856E-09
       454  11 -8.588135E+05 -1.607138E+05 -1.389006E+05  2.508719E+05 -1.138975E-09 -2.270787E-09
       454  12 -1.131813E+06 -2.374378E+05 -2.309489E+05  2.809697E+05 -1.417425E-09 -7.749985E-10
       454  13 -1.912172E+05  1.566673E+03 -2.123256E+03  2.793882E+05 -2.784089E-10  6.707330E-09
       454  14 -1.906085E+05  1.000387E+02 -3.411225E+03  2.507296E+05  9.251561E-10 -6.110943E-09
       454  15 -1.913348E+05 -4.361202E+03 -6.677364E+03  2.794068E+05 -6.681975E-10  2.424704E-09
       454  16  2.119504E+05  9.725148E+04  7.311463E+04  2.806634E+05 -6.525725E-10 -1.239086E-09
       454  17  4.780220E+05  1.608861E+05  1.320549E+05  2.505867E+05  4.192984E-10  1.507463E-09
       454  18  7.499554E+05  2.286515E+05  2.175320E+05  2.778406E+05  3.135340E-09 -1.199917E-09
       454  19 -5.942266E+05 -9.412674E+04 -7.736557E+04  2.781133E+05  2.905280E+04 -2.237782E+04
       454  20 -8.588131E+05 -1.607130E+05 -1.388988E+05  2.508722E+05 -1.374621E+04 -2.789762E+04
       454  21 -1.131809E+06 -2.374368E+05 -2.309427E+05  2.809702E+05 -5.659092E+04 -9.884094E+03
       454  22 -1.912171E+05  1.567215E+03 -2.122305E+03  2.793883E+05 -8.491886E+02 -2.248032E+04
       454  23 -1.906083E+05  1.008738E+02 -3.409754E+03  2.507296E+05 -2.599699E+03 -2.785810E+04
       454  24 -1.913347E+05 -4.361096E+03 -6.677150E+03  2.794068E+05 -4.414252E+03 -9.713951E+03
       454  25  2.119516E+05  9.725228E+04  7.311737E+04  2.806639E+05 -3.077011E+04 -2.258291E+04
       454  26  4.780223E+05  1.608870E+05  1.320565E+05  2.505865E+05  8.558598E+03 -2.781860E+04
       454  27  7.499579E+05  2.286522E+05  2.175365E+05  2.778403E+05  4.784120E+04 -9.544216E+03
       455   1 -5.605109E+05 -2.421619E+06 -5.563631E+05  3.713475E+05 -2.274800E+04 -1.768183E+05
       455   2 -3.753220E+05 -2.044225E+06 -3.628679E+05  2.893157E+05 -7.042569E+04 -8.133788E+04
       455   3 -2.711838E+05 -1.698753E+06 -2.518858E+05  3.033746E+05 -6.935641E+04  1.429754E+04
       455   4 -9.982001E+04 -5.664072E+05 -1.124922E+05  3.119691E+05 -2.286538E+04 -7.730858E+04
       455   5 -1.540390E+04 -5.561069E+05 -5.401987E+04  2.639789E+05 -7.044474E+04 -4.925338E+04
       455   6 -1.916626E+02 -5.660388E+05 -3.104853E+04  3.120886E+05 -6.931979E+04 -2.110511E+04
       455   7  3.606393E+05  1.291997E+06  3.311746E+05  2.524123E+05 -2.300174E+04  2.249840E+04
       455   8  3.443761E+05  9.341180E+05  2.547114E+05  2.385803E+05 -7.046641E+04 -1.709298E+04
       455   9  2.707243E+05  5.679127E+05  1.897325E+05  3.208189E+05 -6.928419E+04 -5.657105E+04
       455  10 -5.605198E+05 -2.421652E+06 -5.564230E+05  3.713443E+05 -4.781168E-10  1.607423E-09
       455  11 -3.753291E+05 -2.044233E+06 -3.628896E+05  2.893111E+05 -9.430194E-10  1.735912E-09
       455  12 -2.711890E+05 -1.698755E+06 -2.518953E+05  3.033754E+05 -4.703535E-10 -1.115834E-09
       455  13 -9.982218E+04 -5.664138E+05 -1.125045E+05  3.119677E+05  3.835360E-10 -6.994148E-10
       455  14 -1.540988E+04 -5.561108E+05 -5.403375E+04  2.639761E+05 -2.080806E-09 -2.318520E-09
       455  15 -1.969399E+02 -5.660406E+05 -3.105840E+04  3.120874E+05 -1.205351E-10 -3.919531E-10
       455  16  3.606386E+05  1.291996E+06  3.311727E+05  2.524127E+05 -4.153264E-10  2.366457E-09
       455  17  3.443707E+05  9.341163E+05  2.547015E+05  2.385793E+05 -1.188978E-09 -2.910739E-09
       455  18  2.707183E+05  5.679080E+05  1.897174E+05  3.208157E+05 -6.172209E-10 -2.063554E-09
       455  19 -5.605109E+05 -2.421619E+06 -5.563631E+05  3.713475E+05  2.274800E+04  1.768183E+05
       455  20 -3.753220E+05 -2.044225E+06 -3.628679E+05  2.893157E+05  7.042569E+04  8.133788E+04
       455  21 -2.711838E+05 -1.698753E+06 -2.518858E+05  3.033746E+05  6.935641E+04 -1.429754E+04
       455  22 -9.982001E+04 -5.664072E+05 -1.124922E+05  3.119691E+05  2.286538E+04  7.730858E+04
       455  23 -1.540390E+04 -5.561069E+05 -5.401987E+04  2.639789E+05  7.044474E+04  4.925338E+04
       455  24 -1.916626E+02 -5.660388E+05 -3.104853E+04  3.120886E+05  6.931979E+04  2.110511E+04
       455  25  3.606393E+05  1.291997E+06  3.311746E+05  2.524123E+05  2.300174E+04 -2.249840E+04
       455  26  3.443761E+05  9.341180E+05  2.547114E+05  2.385803E+05  7.046641E+04  1.709298E+04
       455  27  2.707243E+05  5.679127E+05  1.897325E+05  3.208189E+05  6.928419E+04  5.657105E+04
       456   1 -2.156866E+05 -1.445306E+06 -1.966440E+05  3.146913E+05 -5.439582E+04  9.523907E+03
       456   2 -1.251198E+05 -1.082629E+06 -1.150952E+05  2.636423E+05 -3.448509E+04  1.980754E+04
       456   3 -3.897182E+04 -7.219522E+05 -4.128958E+04  3.116536E+05 -1.282670E+04  3.008884E+04
       456   4 -4.392175E+03 -5.618237E+05 -2.470164E+04  3.127193E+05 -5.437351E+04 -1.690002E+04
       456   5 -8.016051E+02 -5.609114E+05 -1.572006E+04  2.631919E+05 -3.446742E+04 -9.037862E+03
       456   6 -1.198599E+03 -5.616999E+05 -1.278901E+04  3.127206E+05 -1.281468E+04 -1.183777E+03
       456   7  2.068558E+05  3.224105E+05  1.472063E+05  3.107443E+05 -5.435106E+04 -4.336076E+04
       456   8  1.235011E+05 -3.892924E+04  8.364597E+04  2.627411E+05 -3.444972E+04 -3.790696E+04
       456   9  3.657373E+04 -4.014204E+05  1.571429E+04  3.137879E+05 -1.280276E+04 -3.246424E+04
       456  10 -2.156898E+05 -1.445306E+06 -1.966497E+05  3.146917E+05 -3.428223E-10 -9.181628E-11
       456  11 -1.251212E+05 -1.082630E+06 -1.150982E+05  2.636429E+05 -2.192870E-10 -1.119307E-10
       456  12 -3.897224E+04 -7.219533E+05 -4.129160E+04  3.116539E+05 -3.478750E-10 -1.965522E-09
       456  13 -4.395425E+03 -5.618248E+05 -2.470773E+04  3.127185E+05 -9.961085E-11 -2.524930E-10
       456  14 -8.029023E+02 -5.609118E+05 -1.572244E+04  2.631916E+05 -1.381228E-09 -1.081082E-09
       456  15 -1.198776E+03 -5.616999E+05 -1.278932E+04  3.127206E+05  7.415841E-10 -2.740518E-10
       456  16  2.068521E+05  3.224076E+05  1.471973E+05  3.107424E+05 -2.920585E-10  2.822934E-09
       456  17  1.234994E+05 -3.893110E+04  8.364104E+04  2.627400E+05 -2.226059E-10  1.784448E-10
       456  18  3.657327E+04 -4.014215E+05  1.571200E+04  3.137875E+05 -2.094759E-10  2.131736E-10
       456  19 -2.156866E+05 -1.445306E+06 -1.966440E+05  3.146913E+05  5.439582E+04 -9.523907E+03
       456  20 -1.251198E+05 -1.082629E+06 -1.150952E+05  2.636423E+05  3.448509E+04 -1.980754E+04
       456  21 -3.897182E+04 -7.219522E+05 -4.128958E+04  3.116536E+05  1.282670E+04 -3.008884E+04
       456  22 -4.392175E+03 -5.618237E+05 -2.470164E+04  3.127193E+05  5.437351E+04  1.690002E+04
       456  23 -8.016051E+02 -5.609114E+05 -1.572006E+04  2.631919E+05  3.446742E+04  9.037862E+03
       456  24 -1.198599E+03 -5.616999E+05 -1.278901E+04  3.127206E+05  1.281468E+04  1.183777E+03
       456  25  2.068558E+05  3.224105E+05  1.472063E+05  3.107443E+05  5.435106E+04  4.336076E+04
       456  26  1.235011E+05 -3.892924E+04  8.364597E+04  2.627411E+05  3.444972E+04  3.790696E+04
       456  27  3.657373E+04 -4.014204E+05  1.571429E+04  3.137879E+05  1.280276E+04  3.246424E+04
       457   1  2.144392E+04 -4.741346E+05  7.483715E+03  3.146210E+05  2.113748E+03  3.591982E+04
       457   2  1.050303E+05 -1.122396E+05  8.147169E+04  2.568851E+05  1.593755E+04  1.252798E+04
       457   3  1.760748E+05  2.499894E+05  1.676098E+05  2.970361E+05  6.923602E+03 -1.090193E+04
       457   4 -2.716259E+02 -5.624950E+05 -1.269678E+04  3.124664E+05  2.126584E+03  8.772555E+02
       457   5 -4.050720E+03 -5.599005E+05 -1.606761E+04  2.635089E+05  1.594022E+04  9.198070E+03
       457   6 -2.587756E+04 -5.626046E+05 -2.932025E+04  3.124483E+05  6.907859E+03  1.749385E+04
       457   7 -2.198703E+04 -6.508455E+05 -3.287316E+04  3.103122E+05  2.139663E+03 -3.416036E+04
       457   8 -1.131449E+05 -1.007373E+06 -1.136189E+05  2.701278E+05  1.594282E+04  5.870530E+03
       457   9 -2.278771E+05 -1.374593E+06 -2.262948E+05  3.278403E+05  6.893523E+03  4.585258E+04
       457  10  2.144356E+04 -4.741360E+05  7.481280E+03  3.146210E+05  4.913753E-11  3.698529E-10
       457  11  1.050300E+05 -1.122398E+05  8.147091E+04  2.568849E+05  3.485870E-10  7.112577E-10
       457  12  1.760747E+05  2.499893E+05  1.676095E+05  2.970362E+05 -3.524481E-10 -8.685882E-10
       457  13 -2.716309E+02 -5.624950E+05 -1.269679E+04  3.124664E+05 -2.577791E-10 -3.700676E-10
       457  14 -4.051015E+03 -5.599006E+05 -1.606825E+04  2.635087E+05 -1.713465E-10 -9.047789E-10
       457  15 -2.587769E+04 -5.626050E+05 -2.932091E+04  3.124482E+05 -6.990120E-10  1.306275E-10
       457  16 -2.198735E+04 -6.508467E+05 -3.287536E+04  3.103122E+05  1.252556E-10  1.554081E-09
       457  17 -1.131452E+05 -1.007373E+06 -1.136194E+05  2.701277E+05  1.218614E-10 -3.716067E-10
       457  18 -2.278777E+05 -1.374595E+06 -2.262988E+05  3.278400E+05 -2.694076E-10 -2.899095E-10
       457  19  2.144392E+04 -4.741346E+05  7.483715E+03  3.146210E+05 -2.113748E+03 -3.591982E+04
       457  20  1.050303E+05 -1.122396E+05  8.147169E+04  2.568851E+05 -1.593755E+04 -1.252798E+04
       457  21  1.760748E+05  2.499894E+05  1.676098E+05  2.970361E+05 -6.923602E+03  1.090193E+04
       457  22 -2.716259E+02 -5.624950E+05 -1.269678E+04  3.124664E+05 -2.126584E+03 -8.772555E+02
       457  23 -4.050720E+03 -5.599005E+05 -1.606761E+04  2.635089E+05 -1.594022E+04 -9.198070E+03
       457  24 -2.587756E+04 -5.626046E+05 -2.932025E+04  3.124483E+05 -6.907859E+03 -1.749385E+04
       457  25 -2.198703E+04 -6.508455E+05 -3.287316E+04  3.103122E+05 -2.139663E+03  3.416036E+04
       457  26 -1.131449E+05 -1.007373E+06 -1.136189E+05  2.701278E+05 -1.594282E+04 -5.870530E+03
       457  27 -2.278771E+05 -1.374593E+06 -2.262948E+05  3.278403E+05 -6.893523E+03 -4.585258E+04
       458   1  8.093522E+05  7.604465E+05  2.957139E+05  4.993080E+05  1.069719E+05  6.461361E+04
       458   2  7.599438E+05  6.476257E+05  2.033379E+05  4.919767E+05  7.970369E+04  6.738067E+03
       458   3  7.277445E+05  5.884842E+05  1.604745E+05  4.739329E+05  3.934091E+04 -3.373178E+04
       458   4  1.924018E+05  2.440478E+05  8.234356E+04  1.575463E+05  5.335647E+04  2.420639E+04
       458   5  1.738564E+05  1.973305E+05  4.002229E+04  1.802485E+05  5.478767E+04 -1.204816E+04
       458   6  1.663149E+05  1.980864E+05  2.231239E+04  1.922287E+05  4.311124E+04 -3.089613E+04
       458   7 -4.241263E+05 -2.720275E+05 -1.310613E+05 -1.837956E+05 -1.860731E+02 -1.613354E+04
       458   8 -4.118378E+05 -2.527148E+05 -1.233209E+05 -1.311263E+05  2.990340E+04 -3.080787E+04
       458   9 -3.947522E+05 -1.921285E+05 -1.158724E+05 -8.918348E+04  4.687699E+04 -2.806385E+04
       458  10  8.093388E+05  7.604390E+05  2.956846E+05  4.993025E+05  6.990399E-09  3.030620E-09
       458  11  7.599369E+05  6.476239E+05  2.033259E+05  4.919763E+05 -1.818956E-09  5.214065E-09
       458  12  7.277425E+05  5.884826E+05  1.604695E+05  4.739340E+05 -1.224180E-08 -1.483397E-08
       458  13  1.923986E+05  2.440464E+05  8.233711E+04  1.575453E+05  2.178496E-09 -3.012675E-09
       458  14  1.738531E+05  1.973295E+05  4.001638E+04  1.802490E+05  2.136543E-09  9.480811E-09
       458  15  1.663126E+05  1.980849E+05  2.230710E+04  1.922298E+05 -2.255682E-09  4.419037E-09
       458  16 -4.241264E+05 -2.720278E+05 -1.310618E+05 -1.837956E+05 -5.198600E-09 -3.618133E-09
       458  17 -4.118390E+05 -2.527160E+05 -1.233244E+05 -1.311255E+05  5.152692E-09  7.179005E-09
       458  18 -3.947548E+05 -1.921299E+05 -1.158780E+05 -8.918242E+04  1.023802E-08  5.179456E-09
       458  19  8.093522E+05  7.604465E+05  2.957139E+05  4.993080E+05 -1.069719E+05 -6.461361E+04
       458  20  7.599438E+05  6.476257E+05  2.033379E+05  4.919767E+05 -7.970369E+04 -6.738067E+03
       458  21  7.277445E+05  5.884842E+05  1.604745E+05  4.739329E+05 -3.934091E+04  3.373178E+04
       458  22  1.924018E+05  2.440478E+05  8.234356E+04  1.575463E+05 -5.335647E+04 -2.420639E+04
       458  23  1.738564E+05  1.973305E+05  4.002229E+04  1.802485E+05 -5.478767E+04  1.204816E+04
       458  24  1.663149E+05  1.980864E+05  2.231239E+04  1.922287E+05 -4.311124E+04  3.089613E+04
       458  25 -4.241263E+05 -2.720275E+05 -1.310613E+05 -1.837956E+05  1.860731E+02  1.613354E+04
       458  26 -4.118378E+05 -2.527148E+05 -1.233209E+05 -1.311263E+05 -2.990340E+04  3.080787E+04
       458  27 -3.947522E+05 -1.921285E+05 -1.158724E+05 -8.918348E+04 -4.687699E+04  2.806385E+04
       459   1  6.868097E+05  5.705058E+05  1.459932E+05  4.567396E+05  3.791059E+04 -3.225694E+04
       459   2  6.435251E+05  5.241847E+05  1.238449E+05  4.301242E+05  3.012028E+04 -3.540162E+04
       459   3  5.871065E+05  4.956437E+05  1.076931E+05  4.074014E+05  2.119666E+04 -3.704510E+04
       459   4  1.647378E+05  1.982370E+05  1.721912E+04  1.903118E+05  3.953596E+04 -3.103763E+04
       459   5  1.709887E+05  1.885781E+05  1.005112E+04  1.891585E+05  3.422440E+04 -3.231174E+04
       459   6  1.635675E+05  1.961616E+05  6.729239E+03  1.918958E+05  2.777836E+04 -3.208435E+04
       459   7 -3.570295E+05 -1.738701E+05 -1.115778E+05 -7.586069E+04  4.115953E+04 -2.981968E+04
       459   8 -3.012890E+05 -1.468907E+05 -1.037576E+05 -5.159439E+04  3.832434E+04 -2.922503E+04
       459   9 -2.597558E+05 -1.032053E+05 -9.424353E+04 -2.343567E+04  3.435393E+04 -2.712821E+04
       459  10  6.868079E+05  5.705043E+05  1.459886E+05  4.567405E+05  7.006477E-09  7.998433E-10
       459  11  6.435238E+05  5.241831E+05  1.238408E+05  4.301251E+05  4.207343E-09  4.024154E-09
       459  12  5.871056E+05  4.956422E+05  1.076897E+05  4.074021E+05 -2.833832E-09 -3.355418E-09
       459  13  1.647358E+05  1.982356E+05  1.721438E+04  1.903127E+05 -1.567962E-09  5.854607E-09
       459  14  1.709872E+05  1.885767E+05  1.004695E+04  1.891594E+05  3.039304E-09  2.718027E-09
       459  15  1.635664E+05  1.961603E+05  6.725854E+03  1.918965E+05  8.713780E-10  3.616294E-09
       459  16 -3.570316E+05 -1.738716E+05 -1.115827E+05 -7.585970E+04 -9.049971E-09 -7.727198E-09
       459  17 -3.012908E+05 -1.468920E+05 -1.037620E+05 -5.159349E+04 -1.262560E-09 -8.589198E-10
       459  18 -2.597573E+05 -1.032064E+05 -9.424713E+04 -2.343492E+04  5.296148E-09  2.601126E-09
       459  19  6.868097E+05  5.705058E+05  1.459932E+05  4.567396E+05 -3.791059E+04  3.225694E+04
       459  20  6.435251E+05  5.241847E+05  1.238449E+05  4.301242E+05 -3.012028E+04  3.540162E+04
       459  21  5.871065E+05  4.956437E+05  1.076931E+05  4.074014E+05 -2.119666E+04  3.704510E+04
       459  22  1.647378E+05  1.982370E+05  1.721912E+04  1.903118E+05 -3.953596E+04  3.103763E+04
       459  23  1.709887E+05  1.885781E+05  1.005112E+04  1.891585E+05 -3.422440E+04  3.231174E+04
       459  24  1.635675E+05  1.961616E+05  6.729239E+03  1.918958E+05 -2.777836E+04  3.208435E+04
       459  25 -3.570295E+05 -1.738701E+05 -1.115778E+05 -7.586069E+04 -4.115953E+04  2.981968E+04
       459  26 -3.012890E+05 -1.468907E+05 -1.037576E+05 -5.159439E+04 -3.832434E+04  2.922503E+04
       459  27 -2.597558E+05 -1.032053E+05 -9.424353E+04 -2.343567E+04 -3.435393E+04  2.712821E+04
       460   1  5.538579E+05  4.728360E+05  9.874088E+04  3.907591E+05  1.872060E+04 -3.522697E+04
       460   2  5.114119E+05  4.298031E+05  8.653115E+04  3.631512E+05  1.329472E+04 -3.313102E+04
       460   3  4.540062E+05  4.025876E+05  7.641073E+04  3.400284E+05  7.769582E+03 -3.090599E+04
       460   4  1.634714E+05  1.961784E+05  5.935250E+03  1.917782E+05  2.511345E+04 -3.040747E+04
       460   5  1.709997E+05  1.883251E+05  5.658770E+03  1.895210E+05  1.990220E+04 -2.814780E+04
       460   6  1.635177E+05  1.962425E+05  7.285244E+03  1.917471E+05  1.459136E+04 -2.575919E+04
       460   7 -2.267384E+05 -8.038527E+04 -8.688010E+04 -7.057503E+03  3.150091E+04 -2.559203E+04
       460   8 -1.692811E+05 -5.308343E+04 -7.522194E+04  1.599994E+04  2.650489E+04 -2.316820E+04
       460   9 -1.268780E+05 -1.005403E+04 -6.184726E+04  4.354395E+04  2.140899E+04 -2.061553E+04
       460  10  5.538572E+05  4.728345E+05  9.873789E+04  3.907596E+05 -2.407315E-09 -7.212630E-09
       460  11  5.114115E+05  4.298018E+05  8.652876E+04  3.631515E+05 -3.713424E-10  6.110292E-10
       460  12  4.540059E+05  4.025865E+05  7.640882E+04  3.400286E+05  5.495720E-09 -3.832376E-09
       460  13  1.634704E+05  1.961773E+05  5.932327E+03  1.917788E+05  2.541776E-09 -1.311242E-09
       460  14  1.709990E+05  1.883242E+05  5.656536E+03  1.895215E+05 -8.960237E-10  6.489472E-09
       460  15  1.635173E+05  1.962417E+05  7.283596E+03  1.917474E+05  1.700698E-09 -2.427425E-09
       460  16 -2.267396E+05 -8.038624E+04 -8.688320E+04 -7.056854E+03  5.030763E-09  4.379397E-09
       460  17 -1.692820E+05 -5.308420E+04 -7.522427E+04  1.600044E+04  1.029832E-09  1.488006E-09
       460  18 -1.268786E+05 -1.005460E+04 -6.184892E+04  4.354430E+04 -4.533293E-09 -9.157764E-09
       460  19  5.538579E+05  4.728360E+05  9.874088E+04  3.907591E+05 -1.872060E+04  3.522697E+04
       460  20  5.114119E+05  4.298031E+05  8.653115E+04  3.631512E+05 -1.329472E+04  3.313102E+04
       460  21  4.540062E+05  4.025876E+05  7.641073E+04  3.400284E+05 -7.769582E+03  3.090599E+04
       460  22  1.634714E+05  1.961784E+05  5.935250E+03  1.917782E+05 -2.511345E+04  3.040747E+04
       460  23  1.709997E+05  1.883251E+05  5.658770E+03  1.895210E+05 -1.990220E+04  2.814780E+04
       460  24  1.635177E+05  1.962425E+05  7.285244E+03  1.917471E+05 -1.459136E+04  2.575919E+04
       460  25 -2.267384E+05 -8.038527E+04 -8.688010E+04 -7.057503E+03 -3.150091E+04  2.559203E+04
       460  26 -1.692811E+05 -5.308343E+04 -7.522194E+04  1.599994E+04 -2.650489E+04  2.316820E+04
       460  27 -1.268780E+05 -1.005403E+04 -6.184726E+04  4.354395E+04 -2.140899E+04  2.061553E+04
       461   1  4.209915E+05  3.800271E+05  6.995763E+04  3.237949E+05  4.838334E+03 -2.933619E+04
       461   2  3.799711E+05  3.359727E+05  6.384298E+04  2.950373E+05 -4.076707E+03 -2.956118E+04
       461   3  3.259449E+05  3.101715E+05  6.330718E+04  2.698963E+05 -1.301656E+04 -2.975367E+04
       461   4  1.636662E+05  1.962741E+05  8.869613E+03  1.919463E+05  1.163904E+04 -2.420441E+04
       461   5  1.710913E+05  1.887535E+05  1.439871E+04  1.889374E+05  2.779142E+03 -2.438675E+04
       461   6  1.654944E+05  1.994727E+05  2.545886E+04  1.895419E+05 -6.106214E+03 -2.453707E+04
       461   7 -9.357728E+04  1.256615E+04 -5.222076E+04  6.016374E+04  1.843585E+04 -1.907560E+04
       461   8 -3.773577E+04  4.156241E+04 -3.504740E+04  8.287977E+04  9.631837E+03 -1.921468E+04
       461   9  5.073976E+03  8.878883E+04 -1.239079E+04  1.092115E+05  8.017288E+02 -1.932222E+04
       461  10  4.209912E+05  3.800262E+05  6.995597E+04  3.237950E+05 -2.868480E-09 -7.707988E-09
       461  11  3.799709E+05  3.359718E+05  6.384131E+04  2.950372E+05 -2.782306E-09 -2.550124E-09
       461  12  3.259445E+05  3.101705E+05  6.330520E+04  2.698960E+05 -1.018118E-08  4.171923E-09
       461  13  1.636659E+05  1.962734E+05  8.868258E+03  1.919465E+05  3.670717E-09 -3.184423E-09
       461  14  1.710911E+05  1.887529E+05  1.439758E+04  1.889374E+05 -2.549824E-09 -4.186674E-10
       461  15  1.654942E+05  1.994720E+05  2.545766E+04  1.895418E+05 -2.539477E-09 -3.806169E-09
       461  16 -9.357774E+04  1.256567E+04 -5.222209E+04  6.016403E+04  5.870055E-09 -4.546755E-11
       461  17 -3.773597E+04  4.156199E+04 -3.504827E+04  8.287992E+04  2.731866E-09  5.006007E-09
       461  18  5.073875E+03  8.878843E+04 -1.239149E+04  1.092115E+05  2.124060E-09  1.443473E-09
       461  19  4.209915E+05  3.800271E+05  6.995763E+04  3.237949E+05 -4.838334E+03  2.933619E+04
       461  20  3.799711E+05  3.359727E+05  6.384298E+04  2.950373E+05  4.076707E+03  2.956118E+04
       461  21  3.259449E+05  3.101715E+05  6.330718E+04  2.698963E+05  1.301656E+04  2.975367E+04
       461  22  1.636662E+05  1.962741E+05  8.869613E+03  1.919463E+05 -1.163904E+04  2.420441E+04
       461  23  1.710913E+05  1.887535E+05  1.439871E+04  1.889374E+05 -2.779142E+03  2.438675E+04
       461  24  1.654944E+05  1.994727E+05  2.545886E+04  1.895419E+05  6.106214E+03  2.453707E+04
       461  25 -9.357728E+04  1.256615E+04 -5.222076E+04  6.016374E+04 -1.843585E+04  1.907560E+04
       461  26 -3.773577E+04  4.156241E+04 -3.504740E+04  8.287977E+04 -9.631837E+03  1.921468E+04
       461  27  5.073976E+03  8.878883E+04 -1.239079E+04  1.092115E+05 -8.017288E+02  1.932222E+04
       462   1  2.867494E+05  2.958711E+05  6.304670E+04  2.587631E+05 -1.828385E+04 -2.992504E+04
       462   2  2.821320E+05  2.258931E+05  7.837369E+04  2.058433E+05 -4.670784E+04 -4.462043E+04
       462   3  2.996321E+05  2.214963E+05  1.309465E+05  1.351804E+05 -7.533466E+04 -5.904338E+04
       462   4  1.674400E+05  1.997174E+05  3.320518E+04  1.925396E+05 -1.140972E+04 -2.473474E+04
       462   5  1.760617E+05  2.014249E+05  5.995496E+04  1.754015E+05 -3.938790E+04 -3.909754E+04
       462   6  2.067012E+05  2.686113E+05  1.235645E+05  1.405157E+05 -6.756874E+04 -5.319257E+04
       462   7  4.814566E+04  1.035743E+05  3.362333E+03  1.263309E+05 -4.537251E+03 -1.954594E+04
       462   8  7.000541E+04  1.769581E+05  4.153651E+04  1.449630E+05 -3.206967E+04 -3.357479E+04
       462   9  1.137884E+05  3.157376E+05  1.161854E+05  1.458468E+05 -5.980460E+04 -4.734040E+04
       462  10  2.867488E+05  2.958701E+05  6.304439E+04  2.587626E+05  4.570685E-09  9.949471E-09
       462  11  2.821292E+05  2.258903E+05  7.836586E+04  2.058416E+05  4.847654E-09  2.167893E-09
       462  12  2.996251E+05  2.214911E+05  1.309293E+05  1.351768E+05 -2.803673E-09 -1.983012E-09
       462  13  1.674397E+05  1.997167E+05  3.320379E+04  1.925394E+05 -2.769330E-10  3.071946E-09
       462  14  1.760596E+05  2.014229E+05  5.994918E+04  1.754003E+05  2.152268E-09 -1.657762E-08
       462  15  2.066955E+05  2.686070E+05  1.235507E+05  1.405128E+05 -1.472798E-09  3.009271E-09
       462  16  4.814553E+04  1.035739E+05  3.361576E+03  1.263308E+05 -8.066782E-09 -7.891062E-09
       462  17  7.000400E+04  1.769566E+05  4.153246E+04  1.449622E+05 -2.835152E-09 -3.019097E-09
       462  18  1.137840E+05  3.157343E+05  1.161745E+05  1.458445E+05  1.943163E-09  3.772101E-09
       462  19  2.867494E+05  2.958711E+05  6.304670E+04  2.587631E+05  1.828385E+04  2.992504E+04
       462  20  2.821320E+05  2.258931E+05  7.837369E+04  2.058433E+05  4.670784E+04  4.462043E+04
       462  21  2.996321E+05  2.214963E+05  1.309465E+05  1.351804E+05  7.533466E+04  5.904338E+04
       462  22  1.674400E+05  1.997174E+05  3.320518E+04  1.925396E+05  1.140972E+04  2.473474E+04
       462  23  1.760617E+05  2.014249E+05  5.995496E+04  1.754015E+05  3.938790E+04  3.909754E+04
       462  24  2.067012E+05  2.686113E+05  1.235645E+05  1.405157E+05  6.756874E+04  5.319257E+04
       462  25  4.814566E+04  1.035743E+05  3.362333E+03  1.263309E+05  4.537251E+03  1.954594E+04
       462  26  7.000541E+04  1.769581E+05  4.153651E+04  1.449630E+05  3.206967E+04  3.357479E+04
       462  27  1.137884E+05  3.157376E+05  1.161854E+05  1.458468E+05  5.980460E+04  4.734040E+04
       463   1  6.359449E+05  1.947161E+05  1.871560E+05  1.428749E+05  5.336544E+04 -9.010209E+03
       463   2  4.927987E+05  1.481465E+05  1.261175E+05  1.238389E+05  2.074215E+04 -2.853630E+04
       463   3  3.564143E+05  1.122864E+05  8.897873E+04  1.364953E+05 -1.192447E+04 -2.934869E+04
       463   4 -1.135636E+05  9.289548E+03  9.496762E+03  1.359284E+05  6.710766E+03 -9.151185E+03
       463   5 -1.142786E+05  2.421363E+03  4.534728E+03  1.200947E+05  4.425706E+03 -2.858916E+04
       463   6 -1.135096E+05  1.004825E+03  2.419352E+03  1.359540E+05  2.089420E+03 -2.930540E+04
       463   7 -8.625516E+05 -1.761761E+05 -1.681933E+05  1.289899E+05 -3.988792E+04 -9.291209E+03
       463   8 -7.210037E+05 -1.433263E+05 -1.170657E+05  1.163538E+05 -1.187511E+04 -2.864186E+04
       463   9 -5.832189E+05 -1.102893E+05 -8.414842E+04  1.354128E+05  1.609298E+04 -2.926211E+04
       463  10  6.359418E+05  1.947153E+05  1.871505E+05  1.428753E+05 -7.352126E-09  3.878159E-10
       463  11  4.927980E+05  1.481455E+05  1.261151E+05  1.238394E+05 -2.870102E-09  7.089004E-09
       463  12  3.564139E+05  1.122855E+05  8.897684E+04  1.364950E+05  2.878819E-09  3.923296E-09
       463  13 -1.135637E+05  9.289446E+03  9.496520E+03  1.359285E+05  2.296608E-10 -5.243346E-09
       463  14 -1.142788E+05  2.420480E+03  4.533155E+03  1.200948E+05 -5.029915E-11 -1.215292E-08
       463  15 -1.135098E+05  1.003901E+03  2.417730E+03  1.359540E+05  3.698734E-11  1.667675E-09
       463  16 -8.625534E+05 -1.761766E+05 -1.681965E+05  1.289896E+05  5.629231E-09 -9.147175E-10
       463  17 -7.210041E+05 -1.433272E+05 -1.170675E+05  1.163535E+05  2.513075E-09  6.974409E-09
       463  18 -5.832194E+05 -1.102903E+05 -8.415052E+04  1.354132E+05 -2.082918E-09 -1.029144E-09
       463  19  6.359449E+05  1.947161E+05  1.871560E+05  1.428749E+05 -5.336544E+04  9.010209E+03
       463  20  4.927987E+05  1.481465E+05  1.261175E+05  1.238389E+05 -2.074215E+04  2.853630E+04
       463  21  3.564143E+05  1.122864E+05  8.897873E+04  1.364953E+05  1.192447E+04  2.934869E+04
       463  22 -1.135636E+05  9.289548E+03  9.496762E+03  1.359284E+05 -6.710766E+03  9.151185E+03
       463  23 -1.142786E+05  2.421363E+03  4.534728E+03  1.200947E+05 -4.425706E+03  2.858916E+04
       463  24 -1.135096E+05  1.004825E+03  2.419352E+03  1.359540E+05 -2.089420E+03  2.930540E+04
       463  25 -8.625516E+05 -1.761761E+05 -1.681933E+05  1.289899E+05  3.988792E+04  9.291209E+03
       463  26 -7.210037E+05 -1.433263E+05 -1.170657E+05  1.163538E+05  1.187511E+04  2.864186E+04
       463  27 -5.832189E+05 -1.102893E+05 -8.414842E+04  1.354128E+05 -1.609298E+04  2.926211E+04
       464   1  2.633721E+05  9.044814E+04  7.078274E+04  1.372549E+05 -9.824185E+03 -2.401274E+04
       464   2  1.235632E+05  5.675984E+04  4.313665E+04  1.203681E+05 -1.260692E+04 -1.613399E+04
       464   3 -1.589303E+04  2.393575E+04  1.745299E+04  1.363701E+05 -1.539503E+04 -6.788117E+03
       464   4 -1.138421E+05  1.206227E+03  1.771575E+03  1.362161E+05  1.764967E+03 -2.397606E+04
       464   5 -1.137910E+05  8.131839E+02  7.652798E+02  1.197718E+05  1.357793E+03 -1.608838E+04
       464   6 -1.138204E+05  8.724776E+02  7.149195E+01  1.362172E+05  9.446103E+02 -6.733261E+03
       464   7 -4.909179E+05 -8.804367E+04 -6.724486E+04  1.351777E+05  1.334727E+04 -2.393940E+04
       464   8 -3.510897E+05 -5.513649E+04 -4.160750E+04  1.191758E+05  1.531732E+04 -1.604279E+04
       464   9 -2.117379E+05 -2.219118E+04 -1.730936E+04  1.360644E+05  1.728175E+04 -6.678408E+03
       464  10  2.633719E+05  9.044750E+04  7.078147E+04  1.372547E+05  5.079813E-08  1.613931E-09
       464  11  1.235629E+05  5.675952E+04  4.313586E+04  1.203679E+05 -1.635849E-09  9.812045E-09
       464  12 -1.589330E+04  2.393564E+04  1.745246E+04  1.363701E+05 -5.121008E-08  9.191394E-09
       464  13 -1.138423E+05  1.205609E+03  1.770489E+03  1.362161E+05  6.183961E-11  1.149739E-08
       464  14 -1.137910E+05  8.129054E+02  7.647900E+02  1.197718E+05  1.451371E-10 -1.738461E-08
       464  15 -1.138204E+05  8.724287E+02  7.140507E+01  1.362173E+05 -1.531809E-10  1.105904E-08
       464  16 -4.909183E+05 -8.804433E+04 -6.724627E+04  1.351780E+05 -5.218639E-08 -6.911119E-09
       464  17 -3.510900E+05 -5.513683E+04 -4.160842E+04  1.191760E+05  1.988120E-09  1.556022E-10
       464  18 -2.117382E+05 -2.219131E+04 -1.731001E+04  1.360645E+05  5.222787E-08  6.260460E-09
       464  19  2.633721E+05  9.044814E+04  7.078274E+04  1.372549E+05  9.824185E+03  2.401274E+04
       464  20  1.235632E+05  5.675984E+04  4.313665E+04  1.203681E+05  1.260692E+04  1.613399E+04
       464  21 -1.589303E+04  2.393575E+04  1.745299E+04  1.363701E+05  1.539503E+04  6.788117E+03
       464  22 -1.138421E+05  1.206227E+03  1.771575E+03  1.362161E+05 -1.764967E+03  2.397606E+04
       464  23 -1.137910E+05  8.131839E+02  7.652798E+02  1.197718E+05 -1.357793E+03  1.608838E+04
       464  24 -1.138204E+05  8.724776E+02  7.149195E+01  1.362172E+05 -9.446103E+02  6.733261E+03
       464  25 -4.909179E+05 -8.804367E+04 -6.724486E+04  1.351777E+05 -1.334727E+04  2.393940E+04
       464  26 -3.510897E+05 -5.513649E+04 -4.160750E+04  1.191758E+05 -1.531732E+04  1.604279E+04
       464  27 -2.117379E+05 -2.219118E+04 -1.730936E+04  1.360644E+05 -1.728175E+04  6.678408E+03
       465   1 -1.078715E+05  2.240619E+03  4.567290E+02  1.361308E+05 -1.537198E+04 -8.059407E+02
       465   2 -2.471392E+05 -3.082521E+04 -2.518762E+04  1.194629E+05 -1.289185E+04  8.655404E+03
       465   3 -3.870764E+05 -6.432965E+04 -5.262799E+04  1.357005E+05 -1.040757E+04  1.687410E+04
       465   4 -1.138755E+05  8.992594E+02 -2.495480E+02  1.362202E+05  9.396982E+02 -7.509923E+02
       465   5 -1.137132E+05  7.051603E+02 -9.952981E+02  1.197685E+05  1.406609E+03  8.702861E+03
       465   6 -1.138878E+05  4.235296E+02 -2.138237E+03  1.362218E+05  1.878179E+03  1.691423E+04
       465   7 -1.198789E+05 -4.419586E+02 -9.548247E+02  1.363096E+05  1.725123E+04 -6.960389E+02
       465   8  1.973048E+04  3.223465E+04  2.319709E+04  1.200742E+05  1.570806E+04  8.750325E+03
       465   9  1.593736E+05  6.517252E+04  4.834897E+04  1.367432E+05  1.416919E+04  1.695437E+04
       465  10 -1.078717E+05  2.240555E+03  4.562837E+02  1.361307E+05 -6.835934E-09 -5.774311E-09
       465  11 -2.471394E+05 -3.082534E+04 -2.518808E+04  1.194630E+05  1.747949E-08 -5.999798E-09
       465  12 -3.870766E+05 -6.432998E+04 -5.262873E+04  1.357006E+05  4.048079E-08 -1.130775E-09
       465  13 -1.138755E+05  8.992585E+02 -2.495507E+02  1.362202E+05  2.565090E-10 -1.739087E-09
       465  14 -1.137133E+05  7.050784E+02 -9.954442E+02  1.197685E+05 -1.896582E-11 -7.782284E-09
       465  15 -1.138879E+05  4.232214E+02 -2.138781E+03  1.362217E+05  1.183598E-10 -6.950860E-09
       465  16 -1.198792E+05 -4.420391E+02 -9.553850E+02  1.363096E+05  5.474252E-09 -3.057656E-09
       465  17  1.973019E+04  3.223450E+04  2.319648E+04  1.200741E+05 -1.706576E-08  3.577633E-09
       465  18  1.593733E+05  6.517216E+04  4.834805E+04  1.367430E+05 -3.951840E-08  4.598440E-09
       465  19 -1.078715E+05  2.240619E+03  4.567290E+02  1.361308E+05  1.537198E+04  8.059407E+02
       465  20 -2.471392E+05 -3.082521E+04 -2.518762E+04  1.194629E+05  1.289185E+04 -8.655404E+03
       465  21 -3.870764E+05 -6.432965E+04 -5.262799E+04  1.357005E+05  1.040757E+04 -1.687410E+04
       465  22 -1.138755E+05  8.992594E+02 -2.495480E+02  1.362202E+05 -9.396982E+02  7.509923E+02
       465  23 -1.137132E+05  7.051603E+02 -9.952981E+02  1.197685E+05 -1.406609E+03 -8.702861E+03
       465  24 -1.138878E+05  4.235296E+02 -2.138237E+03  1.362218E+05 -1.878179E+03 -1.691423E+04
       465  25 -1.198789E+05 -4.419586E+02 -9.548247E+02  1.363096E+05 -1.725123E+04  6.960389E+02
       465  26  1.973048E+04  3.223465E+04  2.319709E+04  1.200742E+05 -1.570806E+04 -8.750325E+03
       465  27  1.593736E+05  6.517252E+04  4.834897E+04  1.367432E+05 -1.416919E+04 -1.695437E+04
       466   1 -4.799895E+05 -8.614169E+04 -7.079200E+04  1.344168E+05 -1.216049E+04  2.229981E+04
       466   2 -6.163894E+05 -1.223153E+05 -1.068670E+05  1.216256E+05  1.696508E+04  2.314583E+04
       466   3 -7.593974E+05 -1.689886E+05 -1.645841E+05  1.407217E+05  4.613001E+04  7.715520E+03
       466   4 -1.142793E+05  6.162089E+02 -2.884714E+03  1.359909E+05  2.226490E+03  2.234590E+04
       466   5 -1.132785E+05 -1.369610E+03 -5.385408E+03  1.200630E+05  5.016366E+03  2.310634E+04
       466   6 -1.143253E+05 -9.275048E+03 -1.122723E+04  1.360218E+05  7.852525E+03  7.596164E+03
       466   7  2.515611E+05  8.736655E+04  6.501770E+04  1.375659E+05  1.662173E+04  2.239205E+04
       466   8  3.900741E+05  1.195605E+05  9.608375E+04  1.184989E+05 -6.941848E+03  2.306692E+04
       466   9  5.311324E+05  1.504094E+05  1.421061E+05  1.313166E+05 -3.046458E+04  7.477455E+03
       466  10 -4.799898E+05 -8.614227E+04 -7.079321E+04  1.344170E+05 -3.070956E-08 -7.353173E-09
       466  11 -6.163899E+05 -1.223160E+05 -1.068686E+05  1.216253E+05 -2.165922E-08 -5.004997E-09
       466  12 -7.593997E+05 -1.689893E+05 -1.645883E+05  1.407214E+05 -5.192302E-09 -3.421300E-09
       466  13 -1.142794E+05  6.156715E+02 -2.885662E+03  1.359909E+05  1.960875E-10 -7.113333E-10
       466  14 -1.132787E+05 -1.370190E+03 -5.386459E+03  1.200629E+05  1.074802E-10 -1.144247E-08
       466  15 -1.143253E+05 -9.275127E+03 -1.122746E+04  1.360217E+05 -1.530117E-10 -8.662363E-09
       466  16  2.515606E+05  8.736594E+04  6.501624E+04  1.375656E+05  2.949538E-08 -7.017438E-10
       466  17  3.900739E+05  1.195599E+05  9.608266E+04  1.184990E+05  2.234256E-08  4.244727E-09
       466  18  5.311314E+05  1.504091E+05  1.421043E+05  1.313168E+05  5.979455E-09  5.707707E-10
       466  19 -4.799895E+05 -8.614169E+04 -7.079200E+04  1.344168E+05  1.216049E+04 -2.229981E+04
       466  20 -6.163894E+05 -1.223153E+05 -1.068670E+05  1.216256E+05 -1.696508E+04 -2.314583E+04
       466  21 -7.593974E+05 -1.689886E+05 -1.645841E+05  1.407217E+05 -4.613001E+04 -7.715520E+03
       466  22 -1.142793E+05  6.162089E+02 -2.884714E+03  1.359909E+05 -2.226490E+03 -2.234590E+04
       466  23 -1.132785E+05 -1.369610E+03 -5.385408E+03  1.200630E+05 -5.016366E+03 -2.310634E+04
       466  24 -1.143253E+05 -9.275048E+03 -1.122723E+04  1.360218E+05 -7.852525E+03 -7.596164E+03
       466  25  2.515611E+05  8.736655E+04  6.501770E+04  1.375659E+05 -1.662173E+04 -2.239205E+04
       466  26  3.900741E+05  1.195605E+05  9.608375E+04  1.184989E+05  6.941848E+03 -2.306692E+04
       466  27  5.311324E+05  1.504094E+05  1.421061E+05  1.313166E+05  3.046458E+04 -7.477455E+03
       467   1 -1.586999E+05 -8.865193E+05 -1.674121E+05  1.133043E+05 -4.247186E+03 -5.176597E+04
       467   2 -6.798078E+04 -7.305966E+05 -9.355557E+04  6.384825E+04 -1.138949E+04 -2.661150E+04
       467   3 -3.128137E+04 -5.909652E+05 -4.951858E+04  8.308416E+04 -6.191018E+03 -1.418912E+03
       467   4 -5.098704E+04 -4.547525E+05 -6.165175E+04  9.013747E+04 -4.272187E+03 -4.111818E+04
       467   5  1.700459E+03 -4.474463E+05 -2.871773E+04  5.585783E+04 -1.139059E+04 -2.588581E+04
       467   6  2.107704E+03 -4.547175E+05 -1.869402E+04  9.027229E+04 -6.169516E+03 -1.062165E+04
       467   7  5.671404E+04 -2.281425E+04  4.409567E+04  6.695453E+04 -4.297975E+03 -3.046297E+04
       467   8  7.137634E+04 -1.642216E+05  3.611487E+04  4.786378E+04 -1.139171E+04 -2.515980E+04
       467   9  3.549574E+04 -3.184523E+05  1.212970E+04  9.746203E+04 -6.148229E+03 -1.982640E+04
       467  10 -1.587007E+05 -8.865221E+05 -1.674172E+05  1.133042E+05 -5.288175E-10 -1.044658E-09
       467  11 -6.798111E+04 -7.305974E+05 -9.355715E+04  6.384800E+04 -1.442627E-09 -2.039316E-09
       467  12 -3.128141E+04 -5.909652E+05 -4.951866E+04  8.308415E+04  2.351083E-09  3.556950E-10
       467  13 -5.098751E+04 -4.547543E+05 -6.165496E+04  9.013733E+04  1.774917E-09  4.808478E-09
       467  14  1.700139E+03 -4.474471E+05 -2.871924E+04  5.585759E+04  3.899107E-10 -4.515244E-09
       467  15  2.107633E+03 -4.547176E+05 -1.869430E+04  9.027224E+04  5.284575E-10  2.425693E-09
       467  16  5.671377E+04 -2.281526E+04  4.409389E+04  6.695443E+04  5.402067E-10  4.855894E-10
       467  17  7.137603E+04 -1.642223E+05  3.611344E+04  4.786354E+04  2.229074E-09  1.428541E-09
       467  18  3.549560E+04 -3.184527E+05  1.212889E+04  9.746193E+04 -1.310702E-09 -2.336318E-09
       467  19 -1.586999E+05 -8.865193E+05 -1.674121E+05  1.133043E+05  4.247186E+03  5.176597E+04
       467  20 -6.798078E+04 -7.305966E+05 -9.355557E+04  6.384825E+04  1.138949E+04  2.661150E+04
       467  21 -3.128137E+04 -5.909652E+05 -4.951858E+04  8.308416E+04  6.191018E+03  1.418912E+03
       467  22 -5.098704E+04 -4.547525E+05 -6.165175E+04  9.013747E+04  4.272187E+03  4.111818E+04
       467  23  1.700459E+03 -4.474463E+05 -2.871773E+04  5.585783E+04  1.139059E+04  2.588581E+04
       467  24  2.107704E+03 -4.547175E+05 -1.869402E+04  9.027229E+04  6.169516E+03  1.062165E+04
       467  25  5.671404E+04 -2.281425E+04  4.409567E+04  6.695453E+04  4.297975E+03  3.046297E+04
       467  26  7.137634E+04 -1.642216E+05  3.611487E+04  4.786378E+04  1.139171E+04  2.515980E+04
       467  27  3.549574E+04 -3.184523E+05  1.212970E+04  9.746203E+04  6.148229E+03  1.982640E+04
       468   1 -4.908140E+03 -4.573618E+05 -1.738946E+04  9.197074E+04 -2.598046E+02 -2.045440E+03
       468   2  3.497171E+04 -3.085708E+05  1.977763E+04  5.552562E+04  6.669136E+03  3.921864E+03
       468   3  6.837462E+04 -1.617065E+05  5.153570E+04  8.833927E+04  1.327180E+04  9.891183E+03
       468   4 -3.565045E+03 -4.519188E+05 -1.616470E+04  9.035782E+04 -2.465701E+02 -7.767077E+03
       468   5  6.762855E+01 -4.509281E+05 -1.232403E+04  5.572860E+04  6.682315E+03 -1.538069E+03
       468   6 -2.821325E+03 -4.519303E+05 -1.407339E+04  9.035956E+04  1.328484E+04  4.691577E+03
       468   7 -2.221925E+03 -4.464758E+05 -1.493981E+04  8.874488E+04 -2.333060E+02 -1.348876E+04
       468   8 -3.483783E+04 -5.932666E+05 -4.442686E+04  5.593154E+04  6.695491E+03 -6.996761E+03
       468   9 -7.402304E+04 -7.420757E+05 -7.968778E+04  9.237893E+04  1.329786E+04 -5.056227E+02
       468  10 -4.908142E+03 -4.573618E+05 -1.738947E+04  9.197074E+04  8.796497E-10 -9.573031E-10
       468  11  3.497166E+04 -3.085708E+05  1.977751E+04  5.552560E+04 -4.533077E-10 -2.634469E-09
       468  12  6.837441E+04 -1.617067E+05  5.153518E+04  8.833917E+04  1.091244E-09 -8.207680E-10
       468  13 -3.565061E+03 -4.519189E+05 -1.616481E+04  9.035782E+04  5.135455E-10  5.342314E-09
       468  14  6.757998E+01 -4.509281E+05 -1.232411E+04  5.572861E+04  2.150252E-09 -6.937687E-09
       468  15 -2.821520E+03 -4.519303E+05 -1.407376E+04  9.035951E+04  3.145048E-09  1.296786E-09
       468  16 -2.221974E+03 -4.464760E+05 -1.494015E+04  8.874488E+04 -8.848783E-10  4.281687E-10
       468  17 -3.483789E+04 -5.932666E+05 -4.442704E+04  5.593158E+04 -2.798351E-10  3.252505E-10
       468  18 -7.402323E+04 -7.420757E+05 -7.968811E+04  9.237894E+04 -1.487363E-09 -3.598008E-09
       468  19 -4.908140E+03 -4.573618E+05 -1.738946E+04  9.197074E+04  2.598046E+02  2.045440E+03
       468  20  3.497171E+04 -3.085708E+05  1.977763E+04  5.552562E+04 -6.669136E+03 -3.921864E+03
       468  21  6.837462E+04 -1.617065E+05  5.153570E+04  8.833927E+04 -1.327180E+04 -9.891183E+03
       468  22 -3.565045E+03 -4.519188E+05 -1.616470E+04  9.035782E+04  2.465701E+02  7.767077E+03
       468  23  6.762855E+01 -4.509281E+05 -1.232403E+04  5.572860E+04 -6.682315E+03  1.538069E+03
       468  24 -2.821325E+03 -4.519303E+05 -1.407339E+04  9.035956E+04 -1.328484E+04 -4.691577E+03
       468  25 -2.221925E+03 -4.464758E+05 -1.493981E+04  8.874488E+04  2.333060E+02  1.348876E+04
       468  26 -3.483783E+04 -5.932666E+05 -4.442686E+04  5.593154E+04 -6.695491E+03  6.996761E+03
       468  27 -7.402304E+04 -7.420757E+05 -7.968778E+04  9.237893E+04 -1.329786E+04  5.056227E+02
       469   1  1.045807E+05 -3.287762E+04  7.922349E+04  9.511148E+04  1.988288E+04  1.806680E+04
       469   2  1.406044E+05  1.189686E+05  1.066565E+05  4.898965E+04  2.373057E+04  1.450467E+04
       469   3  1.387872E+05  2.624770E+05  1.270823E+05  7.116232E+04  8.152187E+03  1.088524E+04
       469   4  1.404871E+03 -4.539709E+05 -1.561852E+04  9.017955E+04  1.991097E+04  7.143608E+03
       469   5  1.175274E+03 -4.484563E+05 -2.276491E+04  5.597095E+04  2.371929E+04  1.922611E+04
       469   6 -3.962999E+04 -4.540264E+05 -4.779351E+04  9.006301E+04  8.093498E+03  3.125169E+04
       469   7 -1.017829E+05 -8.748988E+05 -1.104714E+05  8.525109E+04  1.993923E+04 -3.772253E+03
       469   8 -1.382760E+05 -1.015582E+06 -1.522072E+05  6.294600E+04  2.370812E+04  2.394327E+04
       469   9 -2.180836E+05 -1.170060E+06 -2.227050E+05  1.089421E+05  8.036016E+03  5.159469E+04
       469  10  1.045802E+05 -3.287808E+04  7.922214E+04  9.511119E+04  1.959908E-09 -1.226792E-09
       469  11  1.406038E+05  1.189682E+05  1.066550E+05  4.898937E+04 -1.098092E-09 -3.999299E-09
       469  12  1.387871E+05  2.624769E+05  1.270819E+05  7.116225E+04 -1.159168E-09 -2.709408E-09
       469  13  1.404431E+03 -4.539710E+05 -1.561936E+04  9.017943E+04 -1.182962E-09  5.648700E-09
       469  14  1.174571E+03 -4.484569E+05 -2.276666E+04  5.597058E+04  1.049808E-09 -6.653607E-09
       469  15 -3.963032E+04 -4.540275E+05 -4.779547E+04  9.006281E+04 -8.829810E-10  4.646584E-09
       469  16 -1.017834E+05 -8.748989E+05 -1.104722E+05  8.525115E+04 -6.085154E-10  1.580971E-09
       469  17 -1.382768E+05 -1.015583E+06 -1.522093E+05  6.294554E+04  1.198750E-09  1.763353E-09
       469  18 -2.180844E+05 -1.170063E+06 -2.227101E+05  1.089418E+05 -7.716587E-10 -2.784332E-09
       469  19  1.045807E+05 -3.287762E+04  7.922349E+04  9.511148E+04 -1.988288E+04 -1.806680E+04
       469  20  1.406044E+05  1.189686E+05  1.066565E+05  4.898965E+04 -2.373057E+04 -1.450467E+04
       469  21  1.387872E+05  2.624770E+05  1.270823E+05  7.116232E+04 -8.152187E+03 -1.088524E+04
       469  22  1.404871E+03 -4.539709E+05 -1.561852E+04  9.017955E+04 -1.991097E+04 -7.143608E+03
       469  23  1.175274E+03 -4.484563E+05 -2.276491E+04  5.597095E+04 -2.371929E+04 -1.922611E+04
       469  24 -3.962999E+04 -4.540264E+05 -4.779351E+04  9.006301E+04 -8.093498E+03 -3.125169E+04
       469  25 -1.017829E+05 -8.748988E+05 -1.104714E+05  8.525109E+04 -1.993923E+04  3.772253E+03
       469  26 -1.382760E+05 -1.015582E+06 -1.522072E+05  6.294600E+04 -2.370812E+04 -2.394327E+04
       469  27 -2.180836E+05 -1.170060E+06 -2.227050E+05  1.089421E+05 -8.036016E+03 -5.159469E+04
       470   1  4.259476E+05  3.504581E+05  1.672341E+05  2.528683E+05  8.249058E+04  6.147671E+04
       470   2  3.820920E+05  2.288171E+05  8.107123E+04  3.002322E+05  5.455341E+04  3.893562E+04
       470   3  4.164215E+05  2.247057E+05  5.646451E+04  2.960361E+05  2.578319E+04  1.749809E+04
       470   4  4.037492E+05  2.843211E+05  1.497278E+05  2.189949E+05  8.189357E+04  6.102007E+04
       470   5  3.424979E+05  1.865670E+05  6.515450E+04  2.742325E+05  5.439802E+04  3.881724E+04
       470   6  3.593408E+05  2.062516E+05  4.175601E+04  2.779082E+05  2.607065E+04  1.771582E+04
       470   7  3.815527E+05  2.181915E+05  1.322216E+05  1.851241E+05  8.129659E+04  6.056353E+04
       470   8  3.029053E+05  1.443191E+05  4.923744E+04  2.482350E+05  5.424264E+04  3.869888E+04
       470   9  3.022638E+05  1.877979E+05  2.704729E+04  2.597814E+05  2.635807E+04  1.793353E+04
       470  10  4.259393E+05  3.504522E+05  1.672142E+05  2.528642E+05 -3.188308E-09  3.020372E-09
       470  11  3.820884E+05  2.288147E+05  8.106280E+04  3.002305E+05 -4.060448E-09  1.728237E-10
       470  12  4.164207E+05  2.247052E+05  5.646269E+04  2.960358E+05  3.673924E-09 -4.494651E-09
       470  13  4.037410E+05  2.843153E+05  1.497082E+05  2.189909E+05  4.787138E-10  6.918571E-10
       470  14  3.424943E+05  1.865646E+05  6.514612E+04  2.742308E+05 -3.549033E-09 -5.425402E-09
       470  15  3.593400E+05  2.062511E+05  4.175415E+04  2.779078E+05 -1.172854E-09 -9.443694E-09
       470  16  3.815446E+05  2.181858E+05  1.322023E+05  1.851201E+05  3.612022E-10  3.240497E-09
       470  17  3.029017E+05  1.443167E+05  4.922910E+04  2.482333E+05 -2.595600E-09 -9.682552E-10
       470  18  3.022629E+05  1.877974E+05  2.704539E+04  2.597810E+05 -3.295791E-09 -4.545193E-09
       470  19  4.259476E+05  3.504581E+05  1.672341E+05  2.528683E+05 -8.249058E+04 -6.147671E+04
       470  20  3.820920E+05  2.288171E+05  8.107123E+04  3.002322E+05 -5.455341E+04 -3.893562E+04
       470  21  4.164215E+05  2.247057E+05  5.646451E+04  2.960361E+05 -2.578319E+04 -1.749809E+04
       470  22  4.037492E+05  2.843211E+05  1.497278E+05  2.189949E+05 -8.189357E+04 -6.102007E+04
       470  23  3.424979E+05  1.865670E+05  6.515450E+04  2.742325E+05 -5.439802E+04 -3.881724E+04
       470  24  3.593408E+05  2.062516E+05  4.175601E+04  2.779082E+05 -2.607065E+04 -1.771582E+04
       470  25  3.815527E+05  2.181915E+05  1.322216E+05  1.851241E+05 -8.129659E+04 -6.056353E+04
       470  26  3.029053E+05  1.443191E+05  4.923744E+04  2.482350E+05 -5.424264E+04 -3.869888E+04
       470  27  3.022638E+05  1.877979E+05  2.704729E+04  2.597814E+05 -2.635807E+04 -1.793353E+04
       471   1  3.954731E+05  2.458945E+05  4.704956E+04  2.841150E+05  2.056961E+04  1.395841E+04
       471   2  3.886621E+05  2.269390E+05  2.929469E+04  2.876132E+05  1.311078E+04  8.398142E+03
       471   3  3.880231E+05  2.265354E+05  2.229528E+04  2.861727E+05  5.574322E+03  2.941155E+03
       471   4  3.612483E+05  2.157205E+05  3.448847E+04  2.645408E+05  2.056523E+04  1.395492E+04
       471   5  3.555233E+05  2.018038E+05  1.794438E+04  2.705171E+05  1.314815E+04  8.426301E+03
       471   6  3.559618E+05  2.064304E+05  1.212004E+04  2.715545E+05  5.653401E+03  3.000845E+03
       471   7  3.270249E+05  1.855476E+05  2.192725E+04  2.449680E+05  2.056085E+04  1.395143E+04
       471   8  3.223857E+05  1.766692E+05  6.593935E+03  2.534220E+05  1.318551E+04  8.454457E+03
       471   9  3.239015E+05  1.863258E+05  1.944667E+03  2.569371E+05  5.732475E+03  3.060532E+03
       471  10  3.954726E+05  2.458942E+05  4.704840E+04  2.841148E+05  7.269003E-11  6.863262E-10
       471  11  3.886619E+05  2.269389E+05  2.929424E+04  2.876131E+05 -1.337982E-09  1.485924E-08
       471  12  3.880231E+05  2.265354E+05  2.229521E+04  2.861727E+05 -1.573605E-09 -2.377418E-10
       471  13  3.612478E+05  2.157202E+05  3.448731E+04  2.645406E+05  9.788979E-10 -4.504679E-09
       471  14  3.555231E+05  2.018036E+05  1.794392E+04  2.705170E+05 -3.561093E-10 -2.735396E-10
       471  15  3.559617E+05  2.064304E+05  1.211996E+04  2.715545E+05 -6.047148E-10  1.013997E-08
       471  16  3.270244E+05  1.855473E+05  2.192609E+04  2.449678E+05  7.068742E-11 -7.230912E-09
       471  17  3.223855E+05  1.766691E+05  6.593475E+03  2.534219E+05 -1.208040E-09 -1.480218E-08
       471  18  3.239015E+05  1.863258E+05  1.944588E+03  2.569371E+05  3.871725E-10  6.234691E-09
       471  19  3.954731E+05  2.458945E+05  4.704956E+04  2.841150E+05 -2.056961E+04 -1.395841E+04
       471  20  3.886621E+05  2.269390E+05  2.929469E+04  2.876132E+05 -1.311078E+04 -8.398142E+03
       471  21  3.880231E+05  2.265354E+05  2.229528E+04  2.861727E+05 -5.574322E+03 -2.941155E+03
       471  22  3.612483E+05  2.157205E+05  3.448847E+04  2.645408E+05 -2.056523E+04 -1.395492E+04
       471  23  3.555233E+05  2.018038E+05  1.794438E+04  2.705171E+05 -1.314815E+04 -8.426301E+03
       471  24  3.559618E+05  2.064304E+05  1.212004E+04  2.715545E+05 -5.653401E+03 -3.000845E+03
       471  25  3.270249E+05  1.855476E+05  2.192725E+04  2.449680E+05 -2.056085E+04 -1.395143E+04
       471  26  3.223857E+05  1.766692E+05  6.593935E+03  2.534220E+05 -1.318551E+04 -8.454457E+03
       471  27  3.239015E+05  1.863258E+05  1.944667E+03  2.569371E+05 -5.732475E+03 -3.060532E+03
       472   1  3.796894E+05  2.251810E+05  1.858986E+04  2.822269E+05  3.913278E+03  1.843810E+03
       472   2  3.775656E+05  2.182740E+05  1.549607E+04  2.804054E+05  3.461198E+02 -6.398547E+02
       472   3  3.738439E+05  2.191484E+05  1.635186E+04  2.784634E+05 -3.225819E+03 -3.117180E+03
       472   4  3.561389E+05  2.073799E+05  1.054525E+04  2.701038E+05  3.965028E+03  1.882854E+03
       472   5  3.569414E+05  2.034952E+05  8.598975E+03  2.701596E+05  4.005458E+02 -5.987832E+02
       472   6  3.561456E+05  2.073915E+05  1.060009E+04  2.700950E+05 -3.168725E+03 -3.074096E+03
       472   7  3.325889E+05  1.895791E+05  2.500525E+03  2.579811E+05  4.016775E+03  1.921896E+03
       472   8  3.363177E+05  1.887167E+05  1.701822E+03  2.599142E+05  4.549694E+02 -5.577136E+02
       472   9  3.384476E+05  1.956347E+05  4.848293E+03  2.617268E+05 -3.111632E+03 -3.031015E+03
       472  10  3.796894E+05  2.251810E+05  1.858982E+04  2.822269E+05 -3.599920E-09 -7.609218E-09
       472  11  3.775656E+05  2.182740E+05  1.549607E+04  2.804054E+05 -4.896944E-09  4.836291E-10
       472  12  3.738439E+05  2.191484E+05  1.635183E+04  2.784634E+05 -6.622125E-09  1.333153E-09
       472  13  3.561389E+05  2.073799E+05  1.054521E+04  2.701038E+05  6.137233E-10 -7.842505E-09
       472  14  3.569414E+05  2.034952E+05  8.598974E+03  2.701596E+05 -2.194280E-09 -2.540865E-09
       472  15  3.561455E+05  2.073914E+05  1.060005E+04  2.700949E+05 -1.501199E-09  5.604637E-09
       472  16  3.325889E+05  1.895790E+05  2.500488E+03  2.579811E+05  3.227522E-09  3.586141E-09
       472  17  3.363177E+05  1.887167E+05  1.701821E+03  2.599142E+05  1.149034E-09  4.319612E-09
       472  18  3.384476E+05  1.956347E+05  4.848257E+03  2.617268E+05 -6.853155E-10 -8.125904E-09
       472  19  3.796894E+05  2.251810E+05  1.858986E+04  2.822269E+05 -3.913278E+03 -1.843810E+03
       472  20  3.775656E+05  2.182740E+05  1.549607E+04  2.804054E+05 -3.461198E+02  6.398547E+02
       472  21  3.738439E+05  2.191484E+05  1.635186E+04  2.784634E+05  3.225819E+03  3.117180E+03
       472  22  3.561389E+05  2.073799E+05  1.054525E+04  2.701038E+05 -3.965028E+03 -1.882854E+03
       472  23  3.569414E+05  2.034952E+05  8.598975E+03  2.701596E+05 -4.005458E+02  5.987832E+02
       472  24  3.561456E+05  2.073915E+05  1.060009E+04  2.700950E+05  3.168725E+03  3.074096E+03
       472  25  3.325889E+05  1.895791E+05  2.500525E+03  2.579811E+05 -4.016775E+03 -1.921896E+03
       472  26  3.363177E+05  1.887167E+05  1.701822E+03  2.599142E+05 -4.549694E+02  5.577136E+02
       472  27  3.384476E+05  1.956347E+05  4.848293E+03  2.617268E+05  3.111632E+03  3.031015E+03
       473   1  3.652986E+05  2.159499E+05  1.586130E+04  2.774931E+05 -4.917575E+03 -4.258037E+03
       473   2  3.638386E+05  2.064309E+05  2.063147E+04  2.740586E+05 -1.246273E+04 -9.733226E+03
       473   3  3.688113E+05  2.154168E+05  3.621134E+04  2.655739E+05 -1.999070E+04 -1.523132E+04
       473   4  3.560040E+05  2.063920E+05  1.220184E+04  2.715535E+05 -4.857023E+03 -4.212316E+03
       473   5  3.554582E+05  2.018304E+05  1.810193E+04  2.705353E+05 -1.241121E+04 -9.694368E+03
       473   6  3.613472E+05  2.157759E+05  3.481970E+04  2.644669E+05 -1.994823E+04 -1.519944E+04
       473   7  3.467095E+05  1.968342E+05  8.542354E+03  2.656140E+05 -4.796473E+03 -4.166596E+03
       473   8  3.470779E+05  1.972300E+05  1.557239E+04  2.670121E+05 -1.235969E+04 -9.655510E+03
       473   9  3.538831E+05  2.161350E+05  3.342805E+04  2.633600E+05 -1.990576E+04 -1.516756E+04
       473  10  3.652986E+05  2.159499E+05  1.586122E+04  2.774931E+05 -2.516701E-09  7.377800E-09
       473  11  3.638384E+05  2.064307E+05  2.063100E+04  2.740585E+05  4.774712E-09 -6.751649E-09
       473  12  3.688108E+05  2.154164E+05  3.621016E+04  2.655737E+05  4.393174E-09 -1.868077E-08
       473  13  3.560040E+05  2.063920E+05  1.220176E+04  2.715535E+05  1.377242E-09  2.034206E-09
       473  14  3.554580E+05  2.018303E+05  1.810147E+04  2.705352E+05  4.182910E-10 -1.341190E-08
       473  15  3.613467E+05  2.157756E+05  3.481852E+04  2.644667E+05  5.385120E-09 -2.711689E-09
       473  16  3.467095E+05  1.968342E+05  8.542278E+03  2.656140E+05  1.504791E-09 -1.476257E-09
       473  17  3.470777E+05  1.972298E+05  1.557192E+04  2.670120E+05  1.512532E-09  3.861606E-09
       473  18  3.538826E+05  2.161347E+05  3.342687E+04  2.633597E+05  2.158546E-09  3.310179E-09
       473  19  3.652986E+05  2.159499E+05  1.586130E+04  2.774931E+05  4.917575E+03  4.258037E+03
       473  20  3.638386E+05  2.064309E+05  2.063147E+04  2.740586E+05  1.246273E+04  9.733226E+03
       473  21  3.688113E+05  2.154168E+05  3.621134E+04  2.655739E+05  1.999070E+04  1.523132E+04
       473  22  3.560040E+05  2.063920E+05  1.220184E+04  2.715535E+05  4.857023E+03  4.212316E+03
       473  23  3.554582E+05  2.018304E+05  1.810193E+04  2.705353E+05  1.241121E+04  9.694368E+03
       473  24  3.613472E+05  2.157759E+05  3.481970E+04  2.644669E+05  1.994823E+04  1.519944E+04
       473  25  3.467095E+05  1.968342E+05  8.542354E+03  2.656140E+05  4.796473E+03  4.166596E+03
       473  26  3.470779E+05  1.972300E+05  1.557239E+04  2.670121E+05  1.235969E+04  9.655510E+03
       473  27  3.538831E+05  2.161350E+05  3.342805E+04  2.633600E+05  1.990576E+04  1.516756E+04
       474   1  3.442676E+05  2.179661E+05  4.149089E+04  2.807406E+05 -2.550874E+04 -1.921388E+04
       474   2  3.450402E+05  1.744502E+05  6.400197E+04  2.692909E+05 -5.399483E+04 -4.048503E+04
       474   3  4.250587E+05  2.491173E+05  1.482100E+05  2.056461E+05 -8.230070E+04 -6.199318E+04
       474   4  3.594503E+05  2.061814E+05  4.216224E+04  2.779585E+05 -2.540351E+04 -1.913358E+04
       474   5  3.422586E+05  1.864889E+05  6.579941E+04  2.743017E+05 -5.398495E+04 -4.047873E+04
       474   6  4.043309E+05  2.849975E+05  1.512162E+05  2.184503E+05 -8.238485E+04 -6.206308E+04
       474   7  3.746334E+05  1.943972E+05  4.283368E+04  2.751763E+05 -2.529829E+04 -1.905328E+04
       474   8  3.394771E+05  1.985278E+05  6.759688E+04  2.793124E+05 -5.397507E+04 -4.047243E+04
       474   9  3.836052E+05  3.208812E+05  1.542229E+05  2.312541E+05 -8.246899E+04 -6.213298E+04
       474  10  3.442668E+05  2.179655E+05  4.148898E+04  2.807402E+05  5.396957E-09 -7.649119E-09
       474  11  3.450366E+05  1.744477E+05  6.399342E+04  2.692892E+05  4.312994E-09  2.980494E-09
       474  12  4.250504E+05  2.491114E+05  1.481901E+05  2.056420E+05  4.132761E-10  2.001519E-09
       474  13  3.594495E+05  2.061808E+05  4.216034E+04  2.779581E+05  5.957535E-09 -1.106358E-08
       474  14  3.422550E+05  1.864863E+05  6.579087E+04  2.742999E+05  4.248336E-09 -1.703647E-09
       474  15  4.043226E+05  2.849916E+05  1.511963E+05  2.184462E+05 -8.651793E-10 -4.615829E-09
       474  16  3.746327E+05  1.943966E+05  4.283180E+04  2.751759E+05  3.606929E-09  2.525083E-09
       474  17  3.394735E+05  1.985253E+05  6.758834E+04  2.793106E+05  6.843878E-11 -1.821484E-08
       474  18  3.835969E+05  3.208753E+05  1.542029E+05  2.312499E+05  3.053610E-09  4.162635E-09
       474  19  3.442676E+05  2.179661E+05  4.149089E+04  2.807406E+05  2.550874E+04  1.921388E+04
       474  20  3.450402E+05  1.744502E+05  6.400197E+04  2.692909E+05  5.399483E+04  4.048503E+04
       474  21  4.250587E+05  2.491173E+05  1.482100E+05  2.056461E+05  8.230070E+04  6.199318E+04
       474  22  3.594503E+05  2.061814E+05  4.216224E+04  2.779585E+05  2.540351E+04  1.913358E+04
       474  23  3.422586E+05  1.864889E+05  6.579941E+04  2.743017E+05  5.398495E+04  4.047873E+04
       474  24  4.043309E+05  2.849975E+05  1.512162E+05  2.184503E+05  8.238485E+04  6.206308E+04
       474  25  3.746334E+05  1.943972E+05  4.283368E+04  2.751763E+05  2.529829E+04  1.905328E+04
       474  26  3.394771E+05  1.985278E+05  6.759688E+04  2.793124E+05  5.397507E+04  4.047243E+04
       474  27  3.836052E+05  3.208812E+05  1.542229E+05  2.312541E+05  8.246899E+04  6.213298E+04
       475   1  2.289345E+05  6.793285E+04  6.620132E+04  5.954342E+04  2.636201E+04 -2.372304E+03
       475   2  1.849675E+05  4.567593E+04  4.082758E+04  5.089303E+04  1.249248E+04 -7.660144E+03
       475   3  1.449486E+05  3.218351E+04  2.667164E+04  4.985062E+04 -1.389651E+03 -8.035195E+03
       475   4  1.322061E+04  1.458634E+04  1.548677E+04  4.966917E+04  1.080176E+04 -2.418293E+03
       475   5  1.211079E+04  4.455187E+03  7.729637E+03  4.588474E+04  6.856039E+03 -7.677038E+03
       475   6  1.322534E+04  1.367318E+03  4.301139E+03  4.970799E+04  2.896518E+03 -8.022583E+03
       475   7 -2.024497E+05 -3.876301E+04 -3.523003E+04  3.979834E+04 -4.753131E+03 -2.463794E+03
       475   8 -1.607170E+05 -3.676721E+04 -2.536954E+04  4.087787E+04  1.221126E+03 -7.693845E+03
       475   9 -1.184808E+05 -2.944978E+04 -1.806985E+04  4.956538E+04  7.181808E+03 -8.009970E+03
       475  10  2.289337E+05  6.793266E+04  6.620001E+04  5.954347E+04 -6.051272E-08  1.185762E-09
       475  11  1.849673E+05  4.567582E+04  4.082718E+04  5.089310E+04 -4.056263E-10 -6.571787E-10
       475  12  1.449486E+05  3.218344E+04  2.667151E+04  4.985061E+04  5.892321E-08  1.518630E-09
       475  13  1.322048E+04  1.458630E+04  1.548654E+04  4.966919E+04 -3.005766E-11  6.561089E-09
       475  14  1.211073E+04  4.455111E+03  7.729438E+03  4.588479E+04  7.000217E-10  5.594035E-10
       475  15  1.322531E+04  1.367246E+03  4.301002E+03  4.970801E+04 -8.381063E-10  4.606528E-10
       475  16 -2.024497E+05 -3.876302E+04 -3.523008E+04  3.979833E+04  5.965481E-08  1.442191E-09
       475  17 -1.607170E+05 -3.676727E+04 -2.536965E+04  4.087787E+04 -5.023527E-10 -1.140635E-08
       475  18 -1.184809E+05 -2.944987E+04 -1.807007E+04  4.956543E+04 -5.872016E-08 -6.508175E-10
       475  19  2.289345E+05  6.793285E+04  6.620132E+04  5.954342E+04 -2.636201E+04  2.372304E+03
       475  20  1.849675E+05  4.567593E+04  4.082758E+04  5.089303E+04 -1.249248E+04  7.660144E+03
       475  21  1.449486E+05  3.218351E+04  2.667164E+04  4.985062E+04  1.389651E+03  8.035195E+03
       475  22  1.322061E+04  1.458634E+04  1.548677E+04  4.966917E+04 -1.080176E+04  2.418293E+03
       475  23  1.211079E+04  4.455187E+03  7.729637E+03  4.588474E+04 -6.856039E+03  7.677038E+03
       475  24  1.322534E+04  1.367318E+03  4.301139E+03  4.970799E+04 -2.896518E+03  8.022583E+03
       475  25 -2.024497E+05 -3.876301E+04 -3.523003E+04  3.979834E+04  4.753131E+03  2.463794E+03
       475  26 -1.607170E+05 -3.676721E+04 -2.536954E+04  4.087787E+04 -1.221126E+03  7.693845E+03
       475  27 -1.184808E+05 -2.944978E+04 -1.806985E+04  4.956538E+04 -7.181808E+03  8.009970E+03
       476   1  1.177165E+05  2.569291E+04  2.083936E+04  5.049927E+04 -1.853449E+03 -6.629772E+03
       476   2  7.553685E+04  1.507059E+04  1.207899E+04  4.615231E+04 -3.872279E+03 -4.318816E+03
       476   3  3.375153E+04  5.202863E+03  4.805382E+03  4.976873E+04 -5.892542E+03 -1.512250E+03
       476   4  1.278101E+04  1.198221E+03  3.314483E+03  4.978341E+04  2.324784E+03 -6.617383E+03
       476   5  1.267210E+04  4.855624E+02  2.025197E+03  4.580296E+04  1.306824E+03 -4.303340E+03
       476   6  1.278278E+04  3.540496E+02  1.527947E+03  4.978593E+04  2.873173E+02 -1.493662E+03
       476   7 -9.214362E+04 -2.329704E+04 -1.421067E+04  4.906767E+04  6.502335E+03 -6.605002E+03
       476   8 -5.018866E+04 -1.409965E+04 -8.028597E+03  4.545365E+04  6.485421E+03 -4.287869E+03
       476   9 -8.185452E+03 -4.494765E+03 -1.749355E+03  4.980314E+04  6.466976E+03 -1.475074E+03
       476  10  1.177165E+05  2.569287E+04  2.083927E+04  5.049926E+04 -6.205764E-09  3.373894E-09
       476  11  7.553683E+04  1.507056E+04  1.207892E+04  4.615230E+04 -8.116632E-11  4.359166E-10
       476  12  3.375149E+04  5.202852E+03  4.805312E+03  4.976872E+04  5.655356E-09  2.933090E-09
       476  13  1.278099E+04  1.198173E+03  3.314391E+03  4.978342E+04 -4.120456E-10  5.011206E-09
       476  14  1.267210E+04  4.855420E+02  2.025159E+03  4.580297E+04  7.718909E-10  3.560320E-09
       476  15  1.278278E+04  3.540472E+02  1.527942E+03  4.978593E+04 -5.159122E-10  1.270908E-09
       476  16 -9.214368E+04 -2.329709E+04 -1.421083E+04  4.906770E+04  5.282771E-09  1.032767E-08
       476  17 -5.018871E+04 -1.409968E+04 -8.028710E+03  4.545367E+04 -1.240095E-09 -1.218052E-10
       476  18 -8.185498E+03 -4.494779E+03 -1.749438E+03  4.980315E+04 -5.239734E-09  5.006815E-09
       476  19  1.177165E+05  2.569291E+04  2.083936E+04  5.049927E+04  1.853449E+03  6.629772E+03
       476  20  7.553685E+04  1.507059E+04  1.207899E+04  4.615231E+04  3.872279E+03  4.318816E+03
       476  21  3.375153E+04  5.202863E+03  4.805382E+03  4.976873E+04  5.892542E+03  1.512250E+03
       476  22  1.278101E+04  1.198221E+03  3.314483E+03  4.978341E+04 -2.324784E+03  6.617383E+03
       476  23  1.267210E+04  4.855624E+02  2.025197E+03  4.580296E+04 -1.306824E+03  4.303340E+03
       476  24  1.278278E+04  3.540496E+02  1.527947E+03  4.978593E+04 -2.873173E+02  1.493662E+03
       476  25 -9.214362E+04 -2.329704E+04 -1.421067E+04  4.906767E+04 -6.502335E+03  6.605002E+03
       476  26 -5.018866E+04 -1.409965E+04 -8.028597E+03  4.545365E+04 -6.485421E+03  4.287869E+03
       476  27 -8.185452E+03 -4.494765E+03 -1.749355E+03  4.980314E+04 -6.466976E+03  1.475074E+03
       477   1  7.196335E+03 -9.546201E+02  5.093168E+02  4.981331E+04 -6.154721E+03  3.082668E+02
       477   2 -3.479112E+04 -1.060597E+04 -5.989699E+03  4.552491E+04 -6.107050E+03  3.141577E+03
       477   3 -7.676329E+04 -1.994389E+04 -1.245836E+04  4.920260E+04 -6.057996E+03  5.520687E+03
       477   4  1.277245E+04  3.532284E+02  1.473644E+03  4.978645E+04  2.417528E+01  3.268610E+02
       477   5  1.268541E+04  4.342391E+02  1.726074E+03  4.580248E+04 -8.454381E+02  3.157332E+03
       477   6  1.277111E+04  9.879679E+02  2.645763E+03  4.978455E+04 -1.713665E+03  5.533621E+03
       477   7  1.834867E+04  1.661096E+03  2.438113E+03  4.975958E+04  6.203125E+03  3.454547E+02
       477   8  6.016423E+04  1.147435E+04  9.441889E+03  4.608008E+04  4.416562E+03  3.173090E+03
       477   9  1.023134E+05  2.191942E+04  1.774970E+04  5.036658E+04  2.631273E+03  5.546562E+03
       477  10  7.196294E+03 -9.546303E+02  5.092454E+02  4.981331E+04  1.757336E-08  3.155906E-09
       477  11 -3.479117E+04 -1.060599E+04 -5.989788E+03  4.552492E+04 -5.347371E-08  6.302725E-09
       477  12 -7.676333E+04 -1.994393E+04 -1.245848E+04  4.920263E+04 -1.169275E-07 -1.211486E-10
       477  13  1.277245E+04  3.532283E+02  1.473643E+03  4.978645E+04  4.097092E-10 -1.082289E-08
       477  14  1.268540E+04  4.342282E+02  1.726054E+03  4.580249E+04  1.107362E-09  7.244863E-09
       477  15  1.277110E+04  9.879342E+02  2.645700E+03  4.978456E+04 -6.103228E-10 -1.038349E-08
       477  16  1.834863E+04  1.661085E+03  2.438040E+03  4.975958E+04 -1.749904E-08 -3.385963E-09
       477  17  6.016421E+04  1.147433E+04  9.441833E+03  4.608007E+04  5.258740E-08 -6.380994E-09
       477  18  1.023134E+05  2.191938E+04  1.774963E+04  5.036657E+04  1.172550E-07  5.555947E-09
       477  19  7.196335E+03 -9.546201E+02  5.093168E+02  4.981331E+04  6.154721E+03 -3.082668E+02
       477  20 -3.479112E+04 -1.060597E+04 -5.989699E+03  4.552491E+04  6.107050E+03 -3.141577E+03
       477  21 -7.676329E+04 -1.994389E+04 -1.245836E+04  4.920260E+04  6.057996E+03 -5.520687E+03
       477  22  1.277245E+04  3.532284E+02  1.473644E+03  4.978645E+04 -2.417528E+01 -3.268610E+02
       477  23  1.268541E+04  4.342391E+02  1.726074E+03  4.580248E+04  8.454381E+02 -3.157332E+03
       477  24  1.277111E+04  9.879679E+02  2.645763E+03  4.978455E+04  1.713665E+03 -5.533621E+03
       477  25  1.834867E+04  1.661096E+03  2.438113E+03  4.975958E+04 -6.203125E+03 -3.454547E+02
       477  26  6.016423E+04  1.147435E+04  9.441889E+03  4.608008E+04 -4.416562E+03 -3.173090E+03
       477  27  1.023134E+05  2.191942E+04  1.774970E+04  5.036658E+04 -2.631273E+03 -5.546562E+03
       478   1 -1.031841E+05 -2.612146E+04 -1.651798E+04  4.956318E+04 -6.614310E+03  6.960695E+03
       478   2 -1.452239E+05 -3.409585E+04 -2.433260E+04  4.196113E+04 -4.303228E+02  6.889918E+03
       478   3 -1.871610E+05 -3.823707E+04 -3.522581E+04  4.199772E+04  5.766158E+03  2.236846E+03
       478   4  1.311085E+04  1.118815E+03  3.381242E+03  4.971451E+04 -2.169510E+03  6.973849E+03
       478   5  1.225560E+04  3.492964E+03  5.987104E+03  4.588039E+04 -5.236353E+03  6.875552E+03
       478   6  1.310653E+04  1.130573E+04  1.193866E+04  4.968452E+04 -8.290160E+03  2.195573E+03
       478   7  1.294191E+05  2.835838E+04  2.328009E+04  4.986587E+04  2.276096E+03  6.987003E+03
       478   8  1.697590E+05  4.108038E+04  3.630576E+04  4.980065E+04 -1.004357E+04  6.861128E+03
       478   9  2.134115E+05  6.084598E+04  5.910114E+04  5.737379E+04 -2.235099E+04  2.153958E+03
       478  10 -1.031842E+05 -2.612153E+04 -1.651815E+04  4.956322E+04  1.770837E-07  3.573572E-09
       478  11 -1.452239E+05 -3.409590E+04 -2.433269E+04  4.196113E+04  6.393201E-08  3.816663E-09
       478  12 -1.871610E+05 -3.823708E+04 -3.522588E+04  4.199771E+04 -5.891610E-08  7.814967E-09
       478  13  1.311083E+04  1.118761E+03  3.381142E+03  4.971453E+04 -1.196408E-10 -7.156362E-09
       478  14  1.225556E+04  3.492906E+03  5.986963E+03  4.588042E+04  8.838693E-10 -4.412970E-09
       478  15  1.310646E+04  1.130571E+04  1.193852E+04  4.968454E+04 -5.600705E-10  4.848513E-09
       478  16  1.294191E+05  2.835833E+04  2.327999E+04  4.986585E+04 -1.776530E-07  6.426208E-09
       478  17  1.697589E+05  4.108030E+04  3.630548E+04  4.980070E+04 -6.470676E-08  1.423670E-08
       478  18  2.134110E+05  6.084584E+04  5.910020E+04  5.737383E+04  5.932808E-08 -5.305221E-10
       478  19 -1.031841E+05 -2.612146E+04 -1.651798E+04  4.956318E+04  6.614310E+03 -6.960695E+03
       478  20 -1.452239E+05 -3.409585E+04 -2.433260E+04  4.196113E+04  4.303228E+02 -6.889918E+03
       478  21 -1.871610E+05 -3.823707E+04 -3.522581E+04  4.199772E+04 -5.766158E+03 -2.236846E+03
       478  22  1.311085E+04  1.118815E+03  3.381242E+03  4.971451E+04  2.169510E+03 -6.973849E+03
       478  23  1.225560E+04  3.492964E+03  5.987104E+03  4.588039E+04  5.236353E+03 -6.875552E+03
       478  24  1.310653E+04  1.130573E+04  1.193866E+04  4.968452E+04  8.290160E+03 -2.195573E+03
       478  25  1.294191E+05  2.835838E+04  2.328009E+04  4.986587E+04 -2.276096E+03 -6.987003E+03
       478  26  1.697590E+05  4.108038E+04  3.630576E+04  4.980065E+04  1.004357E+04 -6.861128E+03
       478  27  2.134115E+05  6.084598E+04  5.910114E+04  5.737379E+04  2.235099E+04 -2.153958E+03
       479   1 -1.316943E+05 -6.171676E+05 -1.312204E+05  1.239489E+05 -4.670262E+03 -3.330004E+04
       479   2 -7.574579E+04 -4.689011E+05 -7.602485E+04  9.459048E+04 -1.296145E+04 -1.258964E+04
       479   3 -3.825071E+04 -3.276017E+05 -3.888795E+04  1.102240E+05 -8.685016E+03  8.160784E+03
       479   4 -2.036861E+04 -1.693919E+05 -2.293586E+04  1.122261E+05 -4.715216E+03 -1.584712E+04
       479   5 -2.298159E+03 -1.671976E+05 -1.074269E+04  8.975662E+04 -1.296691E+04 -1.024222E+04
       479   6 -5.095939E+01 -1.693629E+05 -6.107063E+03  1.122794E+05 -8.653301E+03 -4.602505E+03
       479   7  9.094308E+04  2.785680E+05  8.533550E+04  1.004950E+05 -4.760815E+03  1.618356E+03
       479   8  7.114354E+04  1.345915E+05  5.453411E+04  8.492042E+04 -1.297241E+04 -7.893680E+03
       479   9  3.814731E+04 -1.110005E+04  2.667307E+04  1.143353E+05 -8.621673E+03 -1.736899E+04
       479  10 -1.316947E+05 -6.171688E+05 -1.312225E+05  1.239488E+05 -4.594309E-10 -6.007047E-09
       479  11 -7.574602E+04 -4.689013E+05 -7.602546E+04  9.459035E+04 -1.785492E-09 -6.619486E-09
       479  12 -3.825081E+04 -3.276018E+05 -3.888821E+04  1.102241E+05  6.475490E-10  5.473039E-09
       479  13 -2.036870E+04 -1.693922E+05 -2.293638E+04  1.122261E+05  1.430189E-09  5.016132E-09
       479  14 -2.298368E+03 -1.671977E+05 -1.074320E+04  8.975651E+04 -3.651548E-09 -1.939228E-09
       479  15 -5.104547E+01 -1.693630E+05 -6.107244E+03  1.122794E+05  4.887294E-10  5.600578E-09
       479  16  9.094306E+04  2.785680E+05  8.533545E+04  1.004950E+05 -3.292160E-10  5.476613E-09
       479  17  7.114335E+04  1.345914E+05  5.453367E+04  8.492033E+04 -8.035757E-10 -2.255151E-09
       479  18  3.814715E+04 -1.110039E+04  2.667237E+04  1.143352E+05  9.546997E-10 -5.614103E-10
       479  19 -1.316943E+05 -6.171676E+05 -1.312204E+05  1.239489E+05  4.670262E+03  3.330004E+04
       479  20 -7.574579E+04 -4.689011E+05 -7.602485E+04  9.459048E+04  1.296145E+04  1.258964E+04
       479  21 -3.825071E+04 -3.276017E+05 -3.888795E+04  1.102240E+05  8.685016E+03 -8.160784E+03
       479  22 -2.036861E+04 -1.693919E+05 -2.293586E+04  1.122261E+05  4.715216E+03  1.584712E+04
       479  23 -2.298159E+03 -1.671976E+05 -1.074269E+04  8.975662E+04  1.296691E+04  1.024222E+04
       479  24 -5.095939E+01 -1.693629E+05 -6.107063E+03  1.122794E+05  8.653301E+03  4.602505E+03
       479  25  9.094308E+04  2.785680E+05  8.533550E+04  1.004950E+05  4.760815E+03 -1.618356E+03
       479  26  7.114354E+04  1.345915E+05  5.453411E+04  8.492042E+04  1.297241E+04  7.893680E+03
       479  27  3.814731E+04 -1.110005E+04  2.667307E+04  1.143353E+05  8.621673E+03  1.736899E+04
       480   1 -1.442048E+04 -2.223118E+05 -1.620834E+04  1.127734E+05 -2.625543E+03  6.258064E+03
       480   2  2.134730E+04 -7.753414E+04  1.567197E+04  8.945064E+04  5.573725E+03  7.300246E+03
       480   3  5.621310E+04  6.721464E+04  4.672138E+04  1.117742E+05  1.351757E+04  8.342740E+03
       480   4 -1.349622E+03 -1.684124E+05 -4.774703E+03  1.124126E+05 -2.600948E+03 -3.761796E+03
       480   5 -4.878978E+02 -1.683655E+05 -2.658885E+03  8.959010E+04  5.598021E+03 -2.413226E+03
       480   6 -5.801527E+02 -1.684205E+05 -1.586102E+03  1.124145E+05  1.354148E+04 -1.064571E+03
       480   7  1.172110E+04 -1.145101E+05  6.659146E+03  1.120517E+05 -2.576343E+03 -1.378251E+04
       480   8 -2.232356E+04 -2.591888E+05 -2.098981E+04  8.972953E+04  5.622315E+03 -1.212530E+04
       480   9 -5.737684E+04 -4.040027E+05 -4.989621E+04  1.130545E+05  1.356539E+04 -1.046838E+04
       480  10 -1.442049E+04 -2.223119E+05 -1.620843E+04  1.127734E+05 -7.300010E-10 -7.505447E-09
       480  11  2.134725E+04 -7.753421E+04  1.567181E+04  8.945061E+04 -8.830534E-10 -9.398993E-09
       480  12  5.621288E+04  6.721451E+04  4.672090E+04  1.117741E+05 -2.294737E-09  2.299672E-09
       480  13 -1.349633E+03 -1.684125E+05 -4.774742E+03  1.124125E+05  5.752855E-10  7.850386E-09
       480  14 -4.879330E+02 -1.683655E+05 -2.658955E+03  8.959011E+04  7.240813E-10 -2.829049E-09
       480  15 -5.803499E+02 -1.684206E+05 -1.586449E+03  1.124145E+05  1.638600E-09  4.372537E-09
       480  16  1.172104E+04 -1.145103E+05  6.658776E+03  1.120516E+05  6.898552E-10  6.960666E-09
       480  17 -2.232363E+04 -2.591890E+05 -2.099014E+04  8.972959E+04 -2.367503E-09 -2.465433E-09
       480  18 -5.737707E+04 -4.040029E+05 -4.989676E+04  1.130547E+05 -1.148147E-10  2.112304E-09
       480  19 -1.442048E+04 -2.223118E+05 -1.620834E+04  1.127734E+05  2.625543E+03 -6.258064E+03
       480  20  2.134730E+04 -7.753414E+04  1.567197E+04  8.945064E+04 -5.573725E+03 -7.300246E+03
       480  21  5.621310E+04  6.721464E+04  4.672138E+04  1.117742E+05 -1.351757E+04 -8.342740E+03
       480  22 -1.349622E+03 -1.684124E+05 -4.774703E+03  1.124126E+05  2.600948E+03  3.761796E+03
       480  23 -4.878978E+02 -1.683655E+05 -2.658885E+03  8.959010E+04 -5.598021E+03  2.413226E+03
       480  24 -5.801527E+02 -1.684205E+05 -1.586102E+03  1.124145E+05 -1.354148E+04  1.064571E+03
       480  25  1.172110E+04 -1.145101E+05  6.659146E+03  1.120517E+05  2.576343E+03  1.378251E+04
       480  26 -2.232356E+04 -2.591888E+05 -2.098981E+04  8.972953E+04 -5.622315E+03  1.212530E+04
       480  27 -5.737684E+04 -4.040027E+05 -4.989621E+04  1.130545E+05 -1.356539E+04  1.046838E+04
       481   1  8.133701E+04  1.717543E+05  6.831838E+04  1.115724E+05  1.971222E+04  1.248688E+04
       481   2  1.167385E+05  3.147893E+05  1.025474E+05  8.865128E+04  2.222745E+04 -7.723707E+03
       481   3  1.549586E+05  4.615473E+05  1.507117E+05  1.104848E+05  7.581136E+03 -2.798909E+04
       481   4 -6.049344E+02 -1.683834E+05 -1.249727E+03  1.122165E+05  1.974686E+04 -8.052547E+02
       481   5 -5.885720E+02 -1.684657E+05 -8.601992E+02  8.983727E+04  2.220899E+04 -3.581012E+02
       481   6 -1.336635E+03 -1.684269E+05 -8.770968E+02  1.122146E+05  7.503496E+03  3.876448E+01
       481   7 -8.255404E+04 -5.084107E+05 -7.082330E+04  1.128604E+05  1.978149E+04 -1.409024E+04
       481   8 -1.179309E+05 -6.515008E+05 -1.042812E+05  9.102244E+04  2.219054E+04  7.001856E+03
       481   9 -1.576604E+05 -7.980363E+05 -1.524912E+05  1.139430E+05  7.425974E+03  2.803830E+04
       481  10  8.133655E+04  1.717540E+05  6.831736E+04  1.115722E+05  2.379850E-10 -2.772804E-08
       481  11  1.167379E+05  3.147891E+05  1.025464E+05  8.865142E+04  8.498402E-10 -7.383404E-09
       481  12  1.549584E+05  4.615464E+05  1.507101E+05  1.104849E+05 -7.411745E-10  2.568397E-08
       481  13 -6.053533E+02 -1.683835E+05 -1.250461E+03  1.122166E+05 -6.658731E-10  7.999955E-09
       481  14 -5.891017E+02 -1.684658E+05 -8.611262E+02  8.983727E+04  1.696111E-09 -9.313121E-10
       481  15 -1.336696E+03 -1.684269E+05 -8.772026E+02  1.122146E+05 -5.751494E-10  7.047865E-09
       481  16 -8.255451E+04 -5.084110E+05 -7.082441E+04  1.128606E+05  1.636788E-09  2.718478E-08
       481  17 -1.179314E+05 -6.515009E+05 -1.042822E+05  9.102232E+04 -3.568002E-10 -1.319307E-09
       481  18 -1.576607E+05 -7.980371E+05 -1.524928E+05  1.139428E+05 -4.898175E-10 -1.861370E-08
       481  19  8.133701E+04  1.717543E+05  6.831838E+04  1.115724E+05 -1.971222E+04 -1.248688E+04
       481  20  1.167385E+05  3.147893E+05  1.025474E+05  8.865128E+04 -2.222745E+04  7.723707E+03
       481  21  1.549586E+05  4.615473E+05  1.507117E+05  1.104848E+05 -7.581136E+03  2.798909E+04
       481  22 -6.049344E+02 -1.683834E+05 -1.249727E+03  1.122165E+05 -1.974686E+04  8.052547E+02
       481  23 -5.885720E+02 -1.684657E+05 -8.601992E+02  8.983727E+04 -2.220899E+04  3.581012E+02
       481  24 -1.336635E+03 -1.684269E+05 -8.770968E+02  1.122146E+05 -7.503496E+03 -3.876448E+01
       481  25 -8.255404E+04 -5.084107E+05 -7.082330E+04  1.128604E+05 -1.978149E+04  1.409024E+04
       481  26 -1.179309E+05 -6.515008E+05 -1.042812E+05  9.102244E+04 -2.219054E+04 -7.001856E+03
       481  27 -1.576604E+05 -7.980363E+05 -1.524912E+05  1.139430E+05 -7.425974E+03 -2.803830E+04
       482   1  2.001131E+05  1.711594E+05  7.719955E+04  1.234822E+05  3.795709E+04  2.822751E+04
       482   2  1.808946E+05  1.113599E+05  3.703885E+04  1.427601E+05  2.503463E+04  1.772318E+04
       482   3  1.939024E+05  1.056103E+05  2.453229E+04  1.400375E+05  1.162108E+04  7.869831E+03
       482   4  1.908484E+05  1.366853E+05  6.855619E+04  1.062179E+05  3.755659E+04  2.792374E+04
       482   5  1.644406E+05  9.154623E+04  3.007588E+04  1.309138E+05  2.495715E+04  1.766442E+04
       482   6  1.701898E+05  1.003874E+05  1.896920E+04  1.336089E+05  1.186690E+04  8.055503E+03
       482   7  1.815843E+05  1.022133E+05  5.991289E+04  8.895422E+04  3.715608E+04  2.762000E+04
       482   8  1.479870E+05  7.173313E+04  2.311286E+04  1.190680E+05  2.487967E+04  1.760566E+04
       482   9  1.464780E+05  9.516457E+04  1.340613E+04  1.271804E+05  1.211270E+04  8.241173E+03
       482  10  2.001113E+05  1.711582E+05  7.719535E+04  1.234813E+05  1.212799E-09 -5.223537E-09
       482  11  1.808938E+05  1.113594E+05  3.703709E+04  1.427598E+05  2.526577E-09 -1.667308E-09
       482  12  1.939022E+05  1.056102E+05  2.453192E+04  1.400374E+05  5.958200E-10 -2.592411E-09
       482  13  1.908467E+05  1.366841E+05  6.855208E+04  1.062170E+05  1.624185E-10  6.886283E-10
       482  14  1.644398E+05  9.154573E+04  3.007412E+04  1.309135E+05  7.710684E-10 -2.071022E-09
       482  15  1.701896E+05  1.003873E+05  1.896881E+04  1.336088E+05  1.773114E-10  7.634883E-10
       482  16  1.815827E+05  1.022121E+05  5.990887E+04  8.895340E+04 -9.030623E-10  2.299864E-10
       482  17  1.479862E+05  7.173263E+04  2.311112E+04  1.190676E+05 -1.504992E-09  9.596026E-09
       482  18  1.464779E+05  9.516445E+04  1.340572E+04  1.271804E+05 -8.409237E-10  1.868606E-09
       482  19  2.001131E+05  1.711594E+05  7.719955E+04  1.234822E+05 -3.795709E+04 -2.822751E+04
       482  20  1.808946E+05  1.113599E+05  3.703885E+04  1.427601E+05 -2.503463E+04 -1.772318E+04
       482  21  1.939024E+05  1.056103E+05  2.453229E+04  1.400375E+05 -1.162108E+04 -7.869831E+03
       482  22  1.908484E+05  1.366853E+05  6.855619E+04  1.062179E+05 -3.755659E+04 -2.792374E+04
       482  23  1.644406E+05  9.154623E+04  3.007588E+04  1.309138E+05 -2.495715E+04 -1.766442E+04
       482  24  1.701898E+05  1.003874E+05  1.896920E+04  1.336089E+05 -1.186690E+04 -8.055503E+03
       482  25  1.815843E+05  1.022133E+05  5.991289E+04  8.895422E+04 -3.715608E+04 -2.762000E+04
       482  26  1.479870E+05  7.173313E+04  2.311286E+04  1.190680E+05 -2.487967E+04 -1.760566E+04
       482  27  1.464780E+05  9.516457E+04  1.340613E+04  1.271804E+05 -1.211270E+04 -8.241173E+03
       483   1  1.803586E+05  1.139198E+05  1.921273E+04  1.336525E+05  9.291938E+03  6.431513E+03
       483   2  1.762328E+05  1.028855E+05  1.045404E+04  1.331981E+05  5.793642E+03  4.010366E+03
       483   3  1.719737E+05  1.016355E+05  6.281598E+03  1.316084E+05  2.258487E+03  1.638081E+03
       483   4  1.709364E+05  1.044851E+05  1.558583E+04  1.277419E+05  9.348814E+03  6.474389E+03
       483   5  1.699194E+05  9.768722E+04  8.241736E+03  1.297498E+05  5.874844E+03  4.071629E+03
       483   6  1.687641E+05  1.006686E+05  5.462841E+03  1.306224E+05  2.363984E+03  1.717688E+03
       483   7  1.615142E+05  9.505055E+04  1.195892E+04  1.218314E+05  9.405689E+03  6.517264E+03
       483   8  1.636061E+05  9.248900E+04  6.029420E+03  1.263015E+05  5.956045E+03  4.132891E+03
       483   9  1.655544E+05  9.970164E+04  4.644079E+03  1.296364E+05  2.469481E+03  1.797296E+03
       483  10  1.803585E+05  1.139197E+05  1.921249E+04  1.336524E+05 -3.563793E-09  5.802493E-09
       483  11  1.762327E+05  1.028854E+05  1.045395E+04  1.331981E+05 -2.768540E-09  3.506921E-09
       483  12  1.719737E+05  1.016355E+05  6.281583E+03  1.316084E+05  2.514990E-09  8.154787E-09
       483  13  1.709363E+05  1.044851E+05  1.558559E+04  1.277418E+05 -1.906944E-09  6.951736E-09
       483  14  1.699194E+05  9.768719E+04  8.241640E+03  1.297498E+05 -3.224800E-09  1.006730E-10
       483  15  1.687641E+05  1.006686E+05  5.462825E+03  1.306224E+05 -2.006155E-09  9.240735E-10
       483  16  1.615141E+05  9.505048E+04  1.195868E+04  1.218314E+05  2.132902E-09  2.307701E-09
       483  17  1.636061E+05  9.248897E+04  6.029322E+03  1.263015E+05 -9.568536E-10  3.238119E-09
       483  18  1.655544E+05  9.970163E+04  4.644062E+03  1.296363E+05 -3.839390E-09 -7.017563E-09
       483  19  1.803586E+05  1.139198E+05  1.921273E+04  1.336525E+05 -9.291938E+03 -6.431513E+03
       483  20  1.762328E+05  1.028855E+05  1.045404E+04  1.331981E+05 -5.793642E+03 -4.010366E+03
       483  21  1.719737E+05  1.016355E+05  6.281598E+03  1.316084E+05 -2.258487E+03 -1.638081E+03
       483  22  1.709364E+05  1.044851E+05  1.558583E+04  1.277419E+05 -9.348814E+03 -6.474389E+03
       483  23  1.699194E+05  9.768722E+04  8.241736E+03  1.297498E+05 -5.874844E+03 -4.071629E+03
       483  24  1.687641E+05  1.006686E+05  5.462841E+03  1.306224E+05 -2.363984E+03 -1.717688E+03
       483  25  1.615142E+05  9.505055E+04  1.195892E+04  1.218314E+05 -9.405689E+03 -6.517264E+03
       483  26  1.636061E+05  9.248900E+04  6.029420E+03  1.263015E+05 -5.956045E+03 -4.132891E+03
       483  27  1.655544E+05  9.970164E+04  4.644079E+03  1.296364E+05 -2.469481E+03 -1.797296E+03
       484   1  1.651775E+05  9.879825E+04  3.563824E+03  1.284065E+05  1.461482E+03  1.222451E+03
       484   2  1.627764E+05  9.278591E+04  1.293349E+03  1.258232E+05 -2.141090E+02  2.499959E+02
       484   3  1.570272E+05  9.223926E+04  6.480587E+02  1.240456E+05 -1.888282E+03 -7.242500E+02
       484   4  1.688099E+05  1.010434E+05  4.709400E+03  1.300476E+05  1.554294E+03  1.292482E+03
       484   5  1.704780E+05  9.830028E+04  3.834001E+03  1.296525E+05 -1.222184E+02  3.193294E+02
       484   6  1.687982E+05  1.010230E+05  4.584560E+03  1.300630E+05 -1.797331E+03 -6.556277E+02
       484   7  1.724422E+05  1.032885E+05  5.854968E+03  1.316887E+05  1.647107E+03  1.362512E+03
       484   8  1.781797E+05  1.038147E+05  6.374638E+03  1.334818E+05 -3.032658E+01  3.886640E+02
       484   9  1.805694E+05  1.098067E+05  8.521042E+03  1.360805E+05 -1.706378E+03 -5.870035E+02
       484  10  1.651775E+05  9.879824E+04  3.563817E+03  1.284065E+05  8.099343E-09  9.256202E-09
       484  11  1.627764E+05  9.278591E+04  1.293349E+03  1.258232E+05  5.897839E-09  4.652963E-09
       484  12  1.570272E+05  9.223926E+04  6.480510E+02  1.240456E+05  2.745855E-09  1.086580E-08
       484  13  1.688099E+05  1.010434E+05  4.709392E+03  1.300476E+05  2.522000E-09  5.303224E-09
       484  14  1.704780E+05  9.830028E+04  3.834001E+03  1.296525E+05  5.386970E-09  6.051658E-09
       484  15  1.687982E+05  1.010230E+05  4.584554E+03  1.300630E+05  4.360333E-09  3.210054E-09
       484  16  1.724422E+05  1.032885E+05  5.854959E+03  1.316887E+05 -1.852093E-09 -1.403078E-08
       484  17  1.781797E+05  1.038147E+05  6.374638E+03  1.334818E+05  6.948082E-09 -3.638921E-09
       484  18  1.805694E+05  1.098067E+05  8.521036E+03  1.360805E+05  7.432814E-09 -6.293318E-10
       484  19  1.651775E+05  9.879825E+04  3.563824E+03  1.284065E+05 -1.461482E+03 -1.222451E+03
       484  20  1.627764E+05  9.278591E+04  1.293349E+03  1.258232E+05  2.141090E+02 -2.499959E+02
       484  21  1.570272E+05  9.223926E+04  6.480587E+02  1.240456E+05  1.888282E+03  7.242500E+02
       484  22  1.688099E+05  1.010434E+05  4.709400E+03  1.300476E+05 -1.554294E+03 -1.292482E+03
       484  23  1.704780E+05  9.830028E+04  3.834001E+03  1.296525E+05  1.222184E+02 -3.193294E+02
       484  24  1.687982E+05  1.010230E+05  4.584560E+03  1.300630E+05  1.797331E+03  6.556277E+02
       484  25  1.724422E+05  1.032885E+05  5.854968E+03  1.316887E+05 -1.647107E+03 -1.362512E+03
       484  26  1.781797E+05  1.038147E+05  6.374638E+03  1.334818E+05  3.032658E+01 -3.886640E+02
       484  27  1.805694E+05  1.098067E+05  8.521042E+03  1.360805E+05  1.706378E+03  5.870035E+02
       485   1  1.501615E+05  8.862630E+04 -6.311209E+02  1.219383E+05 -2.700050E+03 -1.144978E+03
       485   2  1.481915E+05  8.148987E+04  5.704146E+02  1.186253E+05 -6.022484E+03 -3.356633E+03
       485   3  1.458573E+05  8.387118E+04  6.092211E+03  1.142994E+05 -9.287742E+03 -5.644037E+03
       485   4  1.687509E+05  1.006741E+05  5.273937E+03  1.306028E+05 -2.587912E+03 -1.060366E+03
       485   5  1.699592E+05  9.772146E+04  7.874499E+03  1.297431E+05 -5.948113E+03 -3.300530E+03
       485   6  1.708113E+05  1.042946E+05  1.482802E+04  1.278705E+05 -9.251145E+03 -5.616465E+03
       485   7  1.873408E+05  1.127222E+05  1.117898E+04  1.392675E+05 -2.475768E+03 -9.757507E+02
       485   8  1.917274E+05  1.139533E+05  1.517852E+04  1.408612E+05 -5.873738E+03 -3.244425E+03
       485   9  1.957658E+05  1.247184E+05  2.356369E+04  1.414421E+05 -9.214545E+03 -5.588891E+03
       485  10  1.501615E+05  8.862630E+04 -6.311370E+02  1.219383E+05  3.864390E-09 -1.136917E-09
       485  11  1.481915E+05  8.148985E+04  5.703253E+02  1.186253E+05  2.741152E-09  1.291350E-09
       485  12  1.458572E+05  8.387112E+04  6.091989E+03  1.142994E+05  1.258712E-09 -9.314687E-10
       485  13  1.687509E+05  1.006741E+05  5.273922E+03  1.306028E+05  5.456161E-09  1.585655E-09
       485  14  1.699592E+05  9.772143E+04  7.874412E+03  1.297431E+05  3.361192E-09 -3.019590E-09
       485  15  1.708112E+05  1.042945E+05  1.482780E+04  1.278704E+05  3.424322E-09 -4.955918E-09
       485  16  1.873408E+05  1.127222E+05  1.117897E+04  1.392675E+05  3.952566E-09  3.181936E-09
       485  17  1.917274E+05  1.139533E+05  1.517843E+04  1.408612E+05  4.186982E-09 -9.497254E-09
       485  18  1.957657E+05  1.247183E+05  2.356347E+04  1.414421E+05  5.243427E-09 -5.687856E-09
       485  19  1.501615E+05  8.862630E+04 -6.311209E+02  1.219383E+05  2.700050E+03  1.144978E+03
       485  20  1.481915E+05  8.148987E+04  5.704146E+02  1.186253E+05  6.022484E+03  3.356633E+03
       485  21  1.458573E+05  8.387118E+04  6.092211E+03  1.142994E+05  9.287742E+03  5.644037E+03
       485  22  1.687509E+05  1.006741E+05  5.273937E+03  1.306028E+05  2.587912E+03  1.060366E+03
       485  23  1.699592E+05  9.772146E+04  7.874499E+03  1.297431E+05  5.948113E+03  3.300530E+03
       485  24  1.708113E+05  1.042946E+05  1.482802E+04  1.278705E+05  9.251145E+03  5.616465E+03
       485  25  1.873408E+05  1.127222E+05  1.117898E+04  1.392675E+05  2.475768E+03  9.757507E+02
       485  26  1.917274E+05  1.139533E+05  1.517852E+04  1.408612E+05  5.873738E+03  3.244425E+03
       485  27  1.957658E+05  1.247184E+05  2.356369E+04  1.414421E+05  9.214545E+03  5.588891E+03
       486   1  1.312416E+05  8.374587E+04  7.369554E+03  1.192121E+05 -1.202206E+04 -7.307563E+03
       486   2  1.325496E+05  6.119929E+04  1.649321E+04  1.113518E+05 -2.395595E+04 -1.605719E+04
       486   3  1.640465E+05  9.005643E+04  5.118192E+04  8.266807E+04 -3.512985E+04 -2.581413E+04
       486   4  1.701003E+05  1.004050E+05  1.803406E+04  1.334419E+05 -1.169246E+04 -7.058716E+03
       486   5  1.647600E+05  9.188722E+04  2.857114E+04  1.308476E+05 -2.412737E+04 -1.618678E+04
       486   6  1.897151E+05  1.348796E+05  6.510762E+04  1.074306E+05 -3.580216E+04 -2.632269E+04
       486   7  2.089606E+05  1.170643E+05  2.869845E+04  1.476725E+05 -1.136282E+04 -6.809859E+03
       486   8  1.969715E+05  1.225764E+05  4.064893E+04  1.503448E+05 -2.429880E+04 -1.631639E+04
       486   9  2.153849E+05  1.797062E+05  7.903331E+04  1.321949E+05 -3.647450E+04 -2.683133E+04
       486  10  1.312414E+05  8.374577E+04  7.369182E+03  1.192120E+05 -1.606967E-09  6.082997E-09
       486  11  1.325489E+05  6.119886E+04  1.649165E+04  1.113515E+05  2.408037E-09  3.355532E-09
       486  12  1.640450E+05  9.005539E+04  5.117835E+04  8.266734E+04  1.659715E-09  2.579775E-10
       486  13  1.701001E+05  1.004049E+05  1.803371E+04  1.334418E+05  2.175952E-09 -7.493365E-10
       486  14  1.647593E+05  9.188678E+04  2.856955E+04  1.308473E+05  1.623856E-09  8.067665E-09
       486  15  1.897136E+05  1.348786E+05  6.510391E+04  1.074298E+05 -1.113861E-09  3.860437E-09
       486  16  2.089605E+05  1.170642E+05  2.869812E+04  1.476724E+05  4.582079E-09  5.418976E-09
       486  17  1.969708E+05  1.225759E+05  4.064732E+04  1.503445E+05  4.689975E-09 -3.657400E-09
       486  18  2.153833E+05  1.797051E+05  7.902946E+04  1.321941E+05 -6.136416E-10 -4.123130E-10
       486  19  1.312416E+05  8.374587E+04  7.369554E+03  1.192121E+05  1.202206E+04  7.307563E+03
       486  20  1.325496E+05  6.119929E+04  1.649321E+04  1.113518E+05  2.395595E+04  1.605719E+04
       486  21  1.640465E+05  9.005643E+04  5.118192E+04  8.266807E+04  3.512985E+04  2.581413E+04
       486  22  1.701003E+05  1.004050E+05  1.803406E+04  1.334419E+05  1.169246E+04  7.058716E+03
       486  23  1.647600E+05  9.188722E+04  2.857114E+04  1.308476E+05  2.412737E+04  1.618678E+04
       486  24  1.897151E+05  1.348796E+05  6.510762E+04  1.074306E+05  3.580216E+04  2.632269E+04
       486  25  2.089606E+05  1.170643E+05  2.869845E+04  1.476725E+05  1.136282E+04  6.809859E+03
       486  26  1.969715E+05  1.225764E+05  4.064893E+04  1.503448E+05  2.429880E+04  1.631639E+04
       486  27  2.153849E+05  1.797062E+05  7.903331E+04  1.321949E+05  3.647450E+04  2.683133E+04
       487   1 -4.898712E+04 -2.409503E+05 -4.630850E+04  3.819596E+04 -2.302346E+03 -1.540545E+04
       487   2 -3.930028E+04 -2.087939E+05 -3.114508E+04  3.523271E+04 -7.551095E+03 -6.356114E+03
       487   3 -3.136724E+04 -1.782141E+05 -2.231457E+04  3.783628E+04 -8.406424E+03  2.706441E+03
       487   4 -5.596485E+02 -4.479236E+04 -3.770382E+02  3.755615E+04 -2.344379E+03 -2.634342E+02
       487   5 -3.003157E+02 -4.478024E+04 -1.932245E+02  3.477319E+04 -7.567958E+03 -1.787717E+02
       487   6 -2.379153E+02 -4.478900E+04 -1.153160E+02  3.755703E+04 -8.398646E+03 -8.152667E+01
       487   7  4.786522E+04  1.514015E+05  4.555266E+04  3.691617E+04 -2.386437E+03  1.488334E+04
       487   8  3.869810E+04  1.192595E+05  3.075759E+04  3.431358E+04 -7.584828E+03  6.000163E+03
       487   9  3.089049E+04  8.865372E+04  2.208343E+04  3.727773E+04 -8.390867E+03 -2.870073E+03
       487  10 -4.898719E+04 -2.409505E+05 -4.630895E+04  3.819593E+04 -7.106192E-10 -5.936558E-09
       487  11 -3.930035E+04 -2.087940E+05 -3.114526E+04  3.523267E+04 -2.011337E-09  8.588494E-09
       487  12 -3.136732E+04 -1.782141E+05 -2.231472E+04  3.783630E+04 -1.175783E-09  8.765084E-09
       487  13 -5.596545E+02 -4.479236E+04 -3.770486E+02  3.755615E+04  4.417213E-10 -3.960403E-09
       487  14 -3.003772E+02 -4.478025E+04 -1.933322E+02  3.477319E+04 -5.625200E-09  4.084234E-09
       487  15 -2.379911E+02 -4.478901E+04 -1.154486E+02  3.755703E+04 -7.170419E-10 -4.948447E-09
       487  16  4.786515E+04  1.514012E+05  4.555223E+04  3.691620E+04 -1.343436E-09  2.707555E-09
       487  17  3.869803E+04  1.192595E+05  3.075742E+04  3.431361E+04 -3.878746E-09  7.832351E-09
       487  18  3.089041E+04  8.865369E+04  2.208328E+04  3.727771E+04 -2.850378E-09  3.961813E-09
       487  19 -4.898712E+04 -2.409503E+05 -4.630850E+04  3.819596E+04  2.302346E+03  1.540545E+04
       487  20 -3.930028E+04 -2.087939E+05 -3.114508E+04  3.523271E+04  7.551095E+03  6.356114E+03
       487  21 -3.136724E+04 -1.782141E+05 -2.231457E+04  3.783628E+04  8.406424E+03 -2.706441E+03
       487  22 -5.596485E+02 -4.479236E+04 -3.770382E+02  3.755615E+04  2.344379E+03  2.634342E+02
       487  23 -3.003157E+02 -4.478024E+04 -1.932245E+02  3.477319E+04  7.567958E+03  1.787717E+02
       487  24 -2.379153E+02 -4.478900E+04 -1.153160E+02  3.755703E+04  8.398646E+03  8.152667E+01
       487  25  4.786522E+04  1.514015E+05  4.555266E+04  3.691617E+04  2.386437E+03 -1.488334E+04
       487  26  3.869810E+04  1.192595E+05  3.075759E+04  3.431358E+04  7.584828E+03 -6.000163E+03
       487  27  3.089049E+04  8.865372E+04  2.208343E+04  3.727773E+04  8.390867E+03  2.870073E+03
       488   1 -2.661211E+04 -1.581948E+05 -1.855959E+04  3.787671E+04 -7.452113E+03  2.654918E+03
       488   2 -1.913387E+04 -1.267936E+05 -1.272240E+04  3.486206E+04 -5.922679E+03  3.513979E+03
       488   3 -1.185301E+04 -9.551067E+04 -7.482894E+03  3.771858E+04 -3.993331E+03  4.374099E+03
       488   4 -2.324370E+02 -4.477846E+04 -9.557158E+01  3.762459E+04 -7.444596E+03 -6.304636E+01
       488   5 -2.016233E+02 -4.478881E+04 -7.712547E+01  3.468903E+04 -5.913029E+03 -2.020209E+01
       488   6 -2.264239E+02 -4.477673E+04 -8.947648E+01  3.762460E+04 -3.981577E+03  2.366182E+01
       488   7  2.614659E+04  6.865063E+04  1.836811E+04  3.737242E+04 -7.437077E+03 -2.781490E+03
       488   8  1.873030E+04  3.722269E+04  1.256804E+04  3.451598E+04 -5.903378E+03 -3.554832E+03
       488   9  1.140005E+04  5.959846E+03  7.303969E+03  3.753061E+04 -3.969822E+03 -4.327117E+03
       488  10 -2.661217E+04 -1.581948E+05 -1.855971E+04  3.787672E+04 -6.481928E-10 -2.767387E-09
       488  11 -1.913391E+04 -1.267936E+05 -1.272249E+04  3.486207E+04  5.261047E-10  3.314916E-09
       488  12 -1.185303E+04 -9.551070E+04 -7.482960E+03  3.771859E+04  1.288145E-09  4.896571E-09
       488  13 -2.324965E+02 -4.477847E+04 -9.567573E+01  3.762458E+04 -1.366116E-09 -5.997739E-09
       488  14 -2.016609E+02 -4.478882E+04 -7.719118E+01  3.468903E+04  7.189021E-10  1.915711E-09
       488  15 -2.264409E+02 -4.477674E+04 -8.950627E+01  3.762460E+04  1.686153E-09 -3.556015E-09
       488  16  2.614652E+04  6.865060E+04  1.836799E+04  3.737241E+04 -1.513161E-09  7.064309E-09
       488  17  1.873026E+04  3.722267E+04  1.256795E+04  3.451596E+04 -3.712781E-09  6.987859E-09
       488  18  1.140003E+04  5.959821E+03  7.303904E+03  3.753059E+04 -9.867668E-10  5.032335E-09
       488  19 -2.661211E+04 -1.581948E+05 -1.855959E+04  3.787671E+04  7.452113E+03 -2.654918E+03
       488  20 -1.913387E+04 -1.267936E+05 -1.272240E+04  3.486206E+04  5.922679E+03 -3.513979E+03
       488  21 -1.185301E+04 -9.551067E+04 -7.482894E+03  3.771858E+04  3.993331E+03 -4.374099E+03
       488  22 -2.324370E+02 -4.477846E+04 -9.557158E+01  3.762459E+04  7.444596E+03  6.304636E+01
       488  23 -2.016233E+02 -4.478881E+04 -7.712547E+01  3.468903E+04  5.913029E+03  2.020209E+01
       488  24 -2.264239E+02 -4.477673E+04 -8.947648E+01  3.762460E+04  3.981577E+03 -2.366182E+01
       488  25  2.614659E+04  6.865063E+04  1.836811E+04  3.737242E+04  7.437077E+03  2.781490E+03
       488  26  1.873030E+04  3.722269E+04  1.256804E+04  3.451598E+04  5.903378E+03  3.554832E+03
       488  27  1.140005E+04  5.959846E+03  7.303969E+03  3.753061E+04  3.969822E+03  4.327117E+03
       489   1 -7.244525E+03 -7.569769E+04 -4.262944E+03  3.768547E+04 -2.699461E+03  4.398972E+03
       489   2  4.995916E+01 -4.449196E+04  1.191163E+03  3.459576E+04 -9.801414E+02  2.778846E+03
       489   3  7.459820E+03 -1.300483E+04  7.739949E+03  3.734908E+04 -1.002202E+02  1.156322E+03
       489   4 -2.299182E+02 -4.478509E+04 -1.058585E+02  3.761842E+04 -2.687724E+03  4.199632E+01
       489   5 -2.804504E+02 -4.477681E+04 -1.727799E+02  3.469652E+04 -9.730203E+02  1.351083E+02
       489   6 -5.128985E+02 -4.478510E+04 -3.347369E+02  3.761765E+04 -9.771645E+01  2.258750E+02
       489   7  6.784657E+03 -1.387148E+04  4.051290E+03  3.755137E+04 -2.675986E+03 -4.315186E+03
       489   8 -6.108564E+02 -4.506166E+04 -1.536694E+03  3.479727E+04 -9.659000E+02 -2.508626E+03
       489   9 -8.485693E+03 -7.656445E+04 -8.409498E+03  3.788621E+04 -9.521346E+01 -7.045240E+02
       489  10 -7.244538E+03 -7.569771E+04 -4.262994E+03  3.768548E+04  2.781591E-09 -2.699009E-09
       489  11  4.995605E+01 -4.449196E+04  1.191146E+03  3.459577E+04  2.173792E-09  2.803411E-09
       489  12  7.459819E+03 -1.300483E+04  7.739947E+03  3.734908E+04 -5.399468E-10  4.020972E-09
       489  13 -2.299260E+02 -4.478509E+04 -1.058721E+02  3.761842E+04 -1.169369E-09 -3.786249E-09
       489  14 -2.804515E+02 -4.477681E+04 -1.727817E+02  3.469652E+04 -9.264373E-11  4.051621E-09
       489  15 -5.128986E+02 -4.478510E+04 -3.347370E+02  3.761765E+04 -1.018180E-09 -4.110733E-09
       489  16  6.784645E+03 -1.387150E+04  4.051241E+03  3.755136E+04 -1.402639E-09  1.632597E-09
       489  17 -6.108591E+02 -4.506166E+04 -1.536708E+03  3.479727E+04 -1.201963E-09  5.833670E-09
       489  18 -8.485694E+03 -7.656445E+04 -8.409499E+03  3.788621E+04 -1.019766E-09  5.639406E-09
       489  19 -7.244525E+03 -7.569769E+04 -4.262944E+03  3.768547E+04  2.699461E+03 -4.398972E+03
       489  20  4.995916E+01 -4.449196E+04  1.191163E+03  3.459576E+04  9.801414E+02 -2.778846E+03
       489  21  7.459820E+03 -1.300483E+04  7.739949E+03  3.734908E+04  1.002202E+02 -1.156322E+03
       489  22 -2.299182E+02 -4.478509E+04 -1.058585E+02  3.761842E+04  2.687724E+03 -4.199632E+01
       489  23 -2.804504E+02 -4.477681E+04 -1.727799E+02  3.469652E+04  9.730203E+02 -1.351083E+02
       489  24 -5.128985E+02 -4.478510E+04 -3.347369E+02  3.761765E+04  9.771645E+01 -2.258750E+02
       489  25  6.784657E+03 -1.387148E+04  4.051290E+03  3.755137E+04  2.675986E+03  4.315186E+03
       489  26 -6.108564E+02 -4.506166E+04 -1.536694E+03  3.479727E+04  9.659000E+02  2.508626E+03
       489  27 -8.485693E+03 -7.656445E+04 -8.409498E+03  3.788621E+04  9.521346E+01  7.045240E+02
       490   1 -1.973126E+05  4.049092E+04  3.044776E+04  1.171159E+04 -1.629465E+04 -4.723184E+03
       490   2 -2.390006E+05  6.730504E+04  3.738221E+04  2.177017E+04 -1.542894E+04 -1.511628E+04
       490   3 -2.885391E+05  6.302453E+04  3.598219E+04  4.383238E+04 -1.455683E+04 -1.639968E+04
       490   4 -5.510856E+05 -4.718570E+04 -5.378599E+04  3.931932E+04 -3.690779E+04 -4.710500E+03
       490   5 -5.460547E+05 -6.790598E+03 -2.582547E+04  3.333128E+04 -2.347619E+04 -1.511235E+04
       490   6 -5.510642E+05  3.177896E+02 -1.493442E+04  3.934775E+04 -1.003765E+04 -1.640251E+04
       490   7 -9.047411E+05 -1.348683E+05 -1.380265E+05  6.691125E+04 -5.750924E+04 -4.699647E+03
       490   8 -8.530188E+05 -8.089165E+04 -8.903791E+04  4.488659E+04 -3.151952E+04 -1.510872E+04
       490   9 -8.135229E+05 -6.239298E+04 -6.585418E+04  3.486507E+04 -5.520339E+03 -1.640540E+04
       490  10 -1.973129E+05  4.049083E+04  3.044722E+04  1.171153E+04  2.627180E-10 -5.127687E-11
       490  11 -2.390009E+05  6.730473E+04  3.738133E+04  2.176998E+04  2.019974E-10 -1.641282E-10
       490  12 -2.885394E+05  6.302418E+04  3.598128E+04  4.383219E+04 -1.563912E-10 -1.418816E-11
       490  13 -5.510871E+05 -4.718609E+04 -5.378859E+04  3.931918E+04 -1.266749E-11 -7.239728E-11
       490  14 -5.460553E+05 -6.790991E+03 -2.582694E+04  3.333100E+04  1.522617E-10 -1.412290E-10
       490  15 -5.510643E+05  3.174737E+02 -1.493511E+04  3.934762E+04  6.178755E-11 -3.128971E-11
       490  16 -9.047447E+05 -1.348692E+05 -1.380328E+05  6.691103E+04  1.607621E-10 -9.089479E-11
       490  17 -8.530200E+05 -8.089217E+04 -8.904021E+04  4.488621E+04  1.328233E-10 -1.864382E-10
       490  18 -8.135230E+05 -6.239327E+04 -6.585474E+04  3.486500E+04  3.350091E-10  3.660383E-11
       490  19 -1.973126E+05  4.049092E+04  3.044776E+04  1.171159E+04  1.629465E+04  4.723184E+03
       490  20 -2.390006E+05  6.730504E+04  3.738221E+04  2.177017E+04  1.542894E+04  1.511628E+04
       490  21 -2.885391E+05  6.302453E+04  3.598219E+04  4.383238E+04  1.455683E+04  1.639968E+04
       490  22 -5.510856E+05 -4.718570E+04 -5.378599E+04  3.931932E+04  3.690779E+04  4.710500E+03
       490  23 -5.460547E+05 -6.790598E+03 -2.582547E+04  3.333128E+04  2.347619E+04  1.511235E+04
       490  24 -5.510642E+05  3.177896E+02 -1.493442E+04  3.934775E+04  1.003765E+04  1.640251E+04
       490  25 -9.047411E+05 -1.348683E+05 -1.380265E+05  6.691125E+04  5.750924E+04  4.699647E+03
       490  26 -8.530188E+05 -8.089165E+04 -8.903791E+04  4.488659E+04  3.151952E+04  1.510872E+04
       490  27 -8.135229E+05 -6.239298E+04 -6.585418E+04  3.486507E+04  5.520339E+03  1.640540E+04
       491   1 -3.181360E+05  5.332985E+04  3.278324E+04  3.872986E+04 -1.077115E+04 -1.450537E+04
       491   2 -3.634309E+05  4.399479E+04  2.764294E+04  3.290826E+04 -7.761417E+03 -1.220203E+04
       491   3 -4.094412E+05  3.326966E+04  2.020041E+04  3.966174E+04 -4.752024E+03 -9.299041E+03
       491   4 -5.490227E+05 -1.812441E+03 -1.192664E+04  3.946886E+04 -8.002650E+03 -1.450718E+04
       491   5 -5.485888E+05 -1.247625E+02 -7.701720E+03  3.318159E+04 -4.166870E+03 -1.220397E+04
       491   6 -5.490162E+05  2.908769E+01 -6.353744E+03  3.946967E+04 -3.312132E+02 -9.301019E+03
       491   7 -7.798581E+05 -5.695790E+04 -5.663898E+04  4.020757E+04 -5.235158E+03 -1.450899E+04
       491   8 -7.337136E+05 -4.424633E+04 -4.304789E+04  3.345483E+04 -5.733692E+02 -1.220591E+04
       491   9 -6.885724E+05 -3.321261E+04 -3.290870E+04  3.927764E+04  4.088627E+03 -9.303000E+03
       491  10 -3.181362E+05  5.332959E+04  3.278263E+04  3.872974E+04  3.941789E-10 -1.500292E-11
       491  11 -3.634310E+05  4.399461E+04  2.764255E+04  3.290818E+04  3.241980E-10 -2.812191E-11
       491  12 -4.094412E+05  3.326956E+04  2.020020E+04  3.966170E+04 -7.186313E-11 -1.091383E-10
       491  13 -5.490228E+05 -1.812684E+03 -1.192715E+04  3.946876E+04 -4.448519E-12  4.023780E-11
       491  14 -5.485888E+05 -1.249270E+02 -7.702033E+03  3.318155E+04  1.235316E-10 -1.655742E-11
       491  15 -5.490162E+05  2.899478E+01 -6.353907E+03  3.946966E+04  5.623843E-12 -1.196015E-10
       491  16 -7.798582E+05 -5.695814E+04 -5.663943E+04  4.020751E+04 -6.460089E-11  9.764592E-11
       491  17 -7.337136E+05 -4.424649E+04 -4.304817E+04  3.345483E+04 -2.292124E-11 -5.178143E-11
       491  18 -6.885724E+05 -3.321271E+04 -3.290889E+04  3.927767E+04  1.386165E-10  2.457293E-11
       491  19 -3.181360E+05  5.332985E+04  3.278324E+04  3.872986E+04  1.077115E+04  1.450537E+04
       491  20 -3.634309E+05  4.399479E+04  2.764294E+04  3.290826E+04  7.761417E+03  1.220203E+04
       491  21 -4.094412E+05  3.326966E+04  2.020041E+04  3.966174E+04  4.752024E+03  9.299041E+03
       491  22 -5.490227E+05 -1.812441E+03 -1.192664E+04  3.946886E+04  8.002650E+03  1.450718E+04
       491  23 -5.485888E+05 -1.247625E+02 -7.701720E+03  3.318159E+04  4.166870E+03  1.220397E+04
       491  24 -5.490162E+05  2.908769E+01 -6.353744E+03  3.946967E+04  3.312132E+02  9.301019E+03
       491  25 -7.798581E+05 -5.695790E+04 -5.663898E+04  4.020757E+04  5.235158E+03  1.450899E+04
       491  26 -7.337136E+05 -4.424633E+04 -4.304789E+04  3.345483E+04  5.733692E+02  1.220591E+04
       491  27 -6.885724E+05 -3.321261E+04 -3.290870E+04  3.927764E+04 -4.088627E+03  9.303000E+03
       492   1 -4.408003E+05  2.577911E+04  1.396967E+04  3.915683E+04 -3.547028E+03 -7.418933E+03
       492   2 -4.860127E+05  1.473514E+04  3.592789E+03  3.335739E+04  7.301272E+02 -4.352368E+03
       492   3 -5.321909E+05  1.986237E+03 -9.992623E+03  4.017014E+04  5.006658E+03 -1.445393E+03
       492   4 -5.490299E+05  4.001668E+01 -6.434605E+03  3.947787E+04  7.960232E+02 -7.420747E+03
       492   5 -5.485645E+05 -1.295456E+02 -8.143232E+03  3.317132E+04  4.852434E+03 -4.353986E+03
       492   6 -5.490293E+05 -1.965844E+03 -1.290732E+04  3.947708E+04  8.908523E+03 -1.446823E+03
       492   7 -6.572482E+05 -2.569974E+04 -2.683932E+04  3.979886E+04  5.138336E+03 -7.422557E+03
       492   8 -6.111126E+05 -1.499445E+04 -1.987936E+04  3.298527E+04  8.974335E+03 -4.355606E+03
       492   9 -5.658674E+05 -5.917930E+03 -1.582197E+04  3.878404E+04  1.281029E+04 -1.448263E+03
       492  10 -4.408003E+05  2.577904E+04  1.396954E+04  3.915681E+04  1.865058E-10  1.530320E-11
       492  11 -4.860127E+05  1.473512E+04  3.592753E+03  3.335739E+04 -1.728927E-11 -2.676452E-11
       492  12 -5.321909E+05  1.986228E+03 -9.992674E+03  4.017015E+04 -3.473422E-10  5.569132E-11
       492  13 -5.490300E+05  3.995739E+01 -6.434710E+03  3.947788E+04  3.930935E-12 -7.886315E-11
       492  14 -5.485646E+05 -1.295723E+02 -8.143312E+03  3.317134E+04  1.113469E-10 -2.034013E-10
       492  15 -5.490294E+05 -1.965867E+03 -1.290748E+04  3.947709E+04  6.060956E-11  7.409233E-11
       492  16 -6.572482E+05 -2.569981E+04 -2.683947E+04  3.979889E+04  1.070957E-10  4.149944E-11
       492  17 -6.111126E+05 -1.499449E+04 -1.987955E+04  3.298530E+04  2.227332E-10 -3.989747E-11
       492  18 -5.658676E+05 -5.917976E+03 -1.582229E+04  3.878405E+04  4.154162E-10  2.225889E-10
       492  19 -4.408003E+05  2.577911E+04  1.396967E+04  3.915683E+04  3.547028E+03  7.418933E+03
       492  20 -4.860127E+05  1.473514E+04  3.592789E+03  3.335739E+04 -7.301272E+02  4.352368E+03
       492  21 -5.321909E+05  1.986237E+03 -9.992623E+03  4.017014E+04 -5.006658E+03  1.445393E+03
       492  22 -5.490299E+05  4.001668E+01 -6.434605E+03  3.947787E+04 -7.960232E+02  7.420747E+03
       492  23 -5.485645E+05 -1.295456E+02 -8.143232E+03  3.317132E+04 -4.852434E+03  4.353986E+03
       492  24 -5.490293E+05 -1.965844E+03 -1.290732E+04  3.947708E+04 -8.908523E+03  1.446823E+03
       492  25 -6.572482E+05 -2.569974E+04 -2.683932E+04  3.979886E+04 -5.138336E+03  7.422557E+03
       492  26 -6.111126E+05 -1.499445E+04 -1.987936E+04  3.298527E+04 -8.974335E+03  4.355606E+03
       492  27 -5.658674E+05 -5.917930E+03 -1.582197E+04  3.878404E+04 -1.281029E+04  1.448263E+03
       493   1 -5.658863E+05 -3.196908E+03 -1.950661E+04  3.439977E+04  6.640789E+03  4.407508E+02
       493   2 -6.057236E+05 -2.202916E+04 -4.128815E+04  4.574188E+04  2.547844E+04  2.176528E+03
       493   3 -6.573070E+05 -7.807836E+04 -8.464345E+04  6.951173E+04  4.431359E+04  9.138502E+02
       493   4 -5.512714E+05  3.746457E+02 -1.624983E+04  3.944062E+04  1.111320E+04  4.391747E+02
       493   5 -5.457658E+05 -7.410745E+03 -2.825028E+04  3.321557E+04  2.581473E+04  2.175870E+03
       493   6 -5.512870E+05 -5.169299E+04 -5.894846E+04  3.941947E+04  4.051511E+04  9.131764E+02
       493   7 -5.366562E+05  3.946291E+03 -1.299298E+04  4.448159E+04  1.558572E+04  4.376714E+02
       493   8 -4.858042E+05  7.208022E+03 -1.521255E+04  2.068804E+04  2.615105E+04  2.175198E+03
       493   9 -4.452548E+05 -2.530503E+04 -3.325375E+04  9.322052E+03  3.671599E+04  9.128714E+02
       493  10 -5.658864E+05 -3.196920E+03 -1.950670E+04  3.439977E+04  3.045267E-10  6.474971E-11
       493  11 -6.057243E+05 -2.202934E+04 -4.128938E+04  4.574184E+04  8.568003E-11 -5.825324E-11
       493  12 -6.573091E+05 -7.807889E+04 -8.464714E+04  6.951170E+04 -1.324893E-10 -5.896481E-11
       493  13 -5.512716E+05  3.746123E+02 -1.625007E+04  3.944062E+04 -4.950711E-11  2.289817E-10
       493  14 -5.457665E+05 -7.410929E+03 -2.825155E+04  3.321553E+04  2.364224E-10 -7.141626E-11
       493  15 -5.512888E+05 -5.169343E+04 -5.895155E+04  3.941944E+04  3.713489E-11 -2.221361E-11
       493  16 -5.366565E+05  3.946226E+03 -1.299344E+04  4.448159E+04  4.138293E-12  2.674626E-10
       493  17 -4.858049E+05  7.207833E+03 -1.521384E+04  2.068799E+04  3.031224E-11  1.711470E-12
       493  18 -4.452562E+05 -2.530539E+04 -3.325628E+04  9.322025E+03  2.042820E-10 -8.610801E-12
       493  19 -5.658863E+05 -3.196908E+03 -1.950661E+04  3.439977E+04 -6.640789E+03 -4.407508E+02
       493  20 -6.057236E+05 -2.202916E+04 -4.128815E+04  4.574188E+04 -2.547844E+04 -2.176528E+03
       493  21 -6.573070E+05 -7.807836E+04 -8.464345E+04  6.951173E+04 -4.431359E+04 -9.138502E+02
       493  22 -5.512714E+05  3.746457E+02 -1.624983E+04  3.944062E+04 -1.111320E+04 -4.391747E+02
       493  23 -5.457658E+05 -7.410745E+03 -2.825028E+04  3.321557E+04 -2.581473E+04 -2.175870E+03
       493  24 -5.512870E+05 -5.169299E+04 -5.894846E+04  3.941947E+04 -4.051511E+04 -9.131764E+02
       493  25 -5.366562E+05  3.946291E+03 -1.299298E+04  4.448159E+04 -1.558572E+04 -4.376714E+02
       493  26 -4.858042E+05  7.208022E+03 -1.521255E+04  2.068804E+04 -2.615105E+04 -2.175198E+03
       493  27 -4.452548E+05 -2.530503E+04 -3.325375E+04  9.322052E+03 -3.671599E+04 -9.128714E+02
       494   1 -1.581141E+06 -1.864374E+05 -2.585096E+05 -4.214203E+04 -2.159160E+05 -1.913634E+03
       494   2 -1.565345E+06  1.039098E+05 -8.560812E+04 -1.499480E+04 -1.410635E+05 -5.668620E+03
       494   3 -1.642860E+06  5.969997E+04 -4.511389E+04  4.439701E+04 -6.621541E+04 -4.369165E+03
       494   4 -1.839744E+06 -2.511839E+05 -3.228304E+05  1.722571E+04 -2.180883E+05 -1.933556E+03
       494   5 -1.792800E+06  4.719974E+04 -1.412510E+05  1.147589E+03 -1.414584E+05 -5.672349E+03
       494   6 -1.839520E+06  1.064256E+04 -9.335599E+04  1.731385E+04 -6.482899E+04 -4.366338E+03
       494   7 -2.098278E+06 -3.159221E+05 -3.871544E+05  7.656865E+04 -2.202598E+05 -1.953902E+03
       494   8 -2.020207E+06 -9.513208E+03 -1.968976E+05  1.728404E+04 -1.418532E+05 -5.676101E+03
       494   9 -2.036143E+06 -3.841495E+04 -1.416005E+05 -9.760693E+03 -6.344302E+04 -4.363630E+03
       494  10 -1.581191E+06 -1.864500E+05 -2.585974E+05 -4.214237E+04  1.703425E-10 -1.610825E-11
       494  11 -1.565366E+06  1.039044E+05 -8.564567E+04 -1.499545E+04 -4.434499E-11 -1.923480E-10
       494  12 -1.642865E+06  5.969877E+04 -4.512219E+04  4.439678E+04  1.092374E-10 -2.434622E-10
       494  13 -1.839795E+06 -2.511967E+05 -3.229201E+05  1.722537E+04 -2.725909E-14 -6.648977E-11
       494  14 -1.792821E+06  4.719431E+04 -1.412888E+05  1.146943E+03  2.215451E-10 -2.746827E-10
       494  15 -1.839524E+06  1.064141E+04 -9.336394E+04  1.731362E+04  1.048549E-10  4.411044E-11
       494  16 -2.098331E+06 -3.159352E+05 -3.872459E+05  7.656830E+04 -5.874523E-11  3.163393E-11
       494  17 -2.020228E+06 -9.518667E+03 -1.969356E+05  1.728339E+04  2.574597E-10  1.690775E-10
       494  18 -2.036147E+06 -3.841606E+04 -1.416081E+05 -9.760917E+03 -1.796147E-10  7.752769E-11
       494  19 -1.581141E+06 -1.864374E+05 -2.585096E+05 -4.214203E+04  2.159160E+05  1.913634E+03
       494  20 -1.565345E+06  1.039098E+05 -8.560812E+04 -1.499480E+04  1.410635E+05  5.668620E+03
       494  21 -1.642860E+06  5.969997E+04 -4.511389E+04  4.439701E+04  6.621541E+04  4.369165E+03
       494  22 -1.839744E+06 -2.511839E+05 -3.228304E+05  1.722571E+04  2.180883E+05  1.933556E+03
       494  23 -1.792800E+06  4.719974E+04 -1.412510E+05  1.147589E+03  1.414584E+05  5.672349E+03
       494  24 -1.839520E+06  1.064256E+04 -9.335599E+04  1.731385E+04  6.482899E+04  4.366338E+03
       494  25 -2.098278E+06 -3.159221E+05 -3.871544E+05  7.656865E+04  2.202598E+05  1.953902E+03
       494  26 -2.020207E+06 -9.513208E+03 -1.968976E+05  1.728404E+04  1.418532E+05  5.676101E+03
       494  27 -2.036143E+06 -3.841495E+04 -1.416005E+05 -9.760693E+03  6.344302E+04  4.363630E+03
       495   1 -1.692902E+06  5.356228E+02 -4.718265E+04  1.030225E+04 -4.985359E+04 -2.935531E+03
       495   2 -1.718303E+06  3.087457E+04 -2.234749E+04 -1.042100E+03 -2.636886E+04 -2.257216E+03
       495   3 -1.758856E+06  1.286142E+04 -2.491631E+04  2.219557E+04 -2.885865E+03 -1.072707E+03
       495   4 -1.822130E+06 -3.169617E+04 -7.886869E+04  1.781185E+04 -4.969547E+04 -2.936161E+03
       495   5 -1.814521E+06  6.878966E+03 -4.592315E+04  5.192760E+02 -2.603396E+04 -2.257250E+03
       495   6 -1.822098E+06 -2.933480E+03 -4.050885E+04  1.780945E+04 -2.372953E+03 -1.072560E+03
       495   7 -1.951343E+06 -6.392899E+04 -1.105559E+05  2.531989E+04 -4.953737E+04 -2.936787E+03
       495   8 -1.910730E+06 -1.711731E+04 -6.949950E+04  2.080409E+03 -2.569911E+04 -2.257283E+03
       495   9 -1.885338E+06 -1.872861E+04 -5.610167E+04  1.342378E+04 -1.860093E+03 -1.072421E+03
       495  10 -1.692905E+06  5.349441E+02 -4.718735E+04  1.030213E+04  1.560079E-11  3.215712E-11
       495  11 -1.718304E+06  3.087437E+04 -2.234881E+04 -1.042148E+03 -2.504938E-10  1.984474E-11
       495  12 -1.758856E+06  1.286142E+04 -2.491633E+04  2.219557E+04 -1.826513E-10 -9.510357E-11
       495  13 -1.822133E+06 -3.169685E+04 -7.887336E+04  1.781174E+04 -1.633008E-10  1.359750E-10
       495  14 -1.814522E+06  6.878778E+03 -4.592444E+04  5.192287E+02 -2.176973E-10 -3.602023E-11
       495  15 -1.822098E+06 -2.933483E+03 -4.050886E+04  1.780945E+04  8.120611E-11  1.474720E-10
       495  16 -1.951346E+06 -6.392966E+04 -1.105606E+05  2.531977E+04 -7.947086E-11  1.367084E-10
       495  17 -1.910731E+06 -1.711750E+04 -6.950075E+04  2.080362E+03 -7.199067E-11  1.336561E-12
       495  18 -1.885338E+06 -1.872861E+04 -5.610168E+04  1.342378E+04  2.642291E-10 -3.736331E-10
       495  19 -1.692902E+06  5.356228E+02 -4.718265E+04  1.030225E+04  4.985359E+04  2.935531E+03
       495  20 -1.718303E+06  3.087457E+04 -2.234749E+04 -1.042100E+03  2.636886E+04  2.257216E+03
       495  21 -1.758856E+06  1.286142E+04 -2.491631E+04  2.219557E+04  2.885865E+03  1.072707E+03
       495  22 -1.822130E+06 -3.169617E+04 -7.886869E+04  1.781185E+04  4.969547E+04  2.936161E+03
       495  23 -1.814521E+06  6.878966E+03 -4.592315E+04  5.192760E+02  2.603396E+04  2.257250E+03
       495  24 -1.822098E+06 -2.933480E+03 -4.050885E+04  1.780945E+04  2.372953E+03  1.072560E+03
       495  25 -1.951343E+06 -6.392899E+04 -1.105559E+05  2.531989E+04  4.953737E+04  2.936787E+03
       495  26 -1.910730E+06 -1.711731E+04 -6.949950E+04  2.080409E+03  2.569911E+04  2.257283E+03
       495  27 -1.885338E+06 -1.872861E+04 -5.610167E+04  1.342378E+04  1.860093E+03  1.072421E+03
       496   1 -1.828963E+06 -4.174944E+03 -4.260772E+04  1.328712E+04  4.387239E+03 -2.187296E+02
       496   2 -1.854250E+06 -2.660005E+03 -5.793480E+04  2.131655E+03  2.934268E+04  9.603071E+02
       496   3 -1.895684E+06 -5.259989E+04 -1.024102E+05  2.593704E+04  5.429711E+04  1.752926E+03
       496   4 -1.822304E+06 -2.493547E+03 -4.088768E+04  1.789244E+04  4.876467E+03 -2.185628E+02
       496   5 -1.814261E+06  7.312053E+03 -4.813989E+04  4.150206E+02  2.969464E+04  9.603010E+02
       496   6 -1.822340E+06 -3.431114E+04 -8.444291E+04  1.789857E+04  5.451315E+04  1.752251E+03
       496   7 -1.815645E+06 -8.120744E+02 -3.916764E+04  2.249781E+04  5.365700E+03 -2.183888E+02
       496   8 -1.774271E+06  1.728400E+04 -3.834510E+04 -1.301725E+03  3.004663E+04  9.602928E+02
       496   9 -1.748991E+06 -1.602254E+04 -6.647601E+04  9.859141E+03  5.472921E+04  1.751571E+03
       496  10 -1.828963E+06 -4.174949E+03 -4.260775E+04  1.328712E+04 -7.614289E-11  1.830630E-10
       496  11 -1.854251E+06 -2.660238E+03 -5.793642E+04  2.131633E+03 -2.755636E-10  2.092285E-10
       496  12 -1.895687E+06 -5.260069E+04 -1.024157E+05  2.593697E+04  4.412655E-10 -1.262350E-10
       496  13 -1.822304E+06 -2.493554E+03 -4.088773E+04  1.789244E+04  6.235469E-11 -1.455056E-10
       496  14 -1.814262E+06  7.311814E+03 -4.814155E+04  4.149976E+02 -2.702484E-10  2.616860E-10
       496  15 -1.822343E+06 -3.431194E+04 -8.444851E+04  1.789849E+04  1.748712E-10 -1.369025E-10
       496  16 -1.815645E+06 -8.120822E+02 -3.916769E+04  2.249781E+04  1.390885E-10 -2.532501E-10
       496  17 -1.774272E+06  1.728376E+04 -3.834680E+04 -1.301749E+03  7.967384E-10  9.937830E-11
       496  18 -1.748994E+06 -1.602335E+04 -6.648167E+04  9.859064E+03 -2.432729E-10  3.682708E-11
       496  19 -1.828963E+06 -4.174944E+03 -4.260772E+04  1.328712E+04 -4.387239E+03  2.187296E+02
       496  20 -1.854250E+06 -2.660005E+03 -5.793480E+04  2.131655E+03 -2.934268E+04 -9.603071E+02
       496  21 -1.895684E+06 -5.259989E+04 -1.024102E+05  2.593704E+04 -5.429711E+04 -1.752926E+03
       496  22 -1.822304E+06 -2.493547E+03 -4.088768E+04  1.789244E+04 -4.876467E+03  2.185628E+02
       496  23 -1.814261E+06  7.312053E+03 -4.813989E+04  4.150206E+02 -2.969464E+04 -9.603010E+02
       496  24 -1.822340E+06 -3.431114E+04 -8.444291E+04  1.789857E+04 -5.451315E+04 -1.752251E+03
       496  25 -1.815645E+06 -8.120744E+02 -3.916764E+04  2.249781E+04 -5.365700E+03  2.183888E+02
       496  26 -1.774271E+06  1.728400E+04 -3.834510E+04 -1.301725E+03 -3.004663E+04 -9.602928E+02
       496  27 -1.748991E+06 -1.602254E+04 -6.647601E+04  9.859141E+03 -5.472921E+04 -1.751571E+03
       497   1 -1.983439E+06 -2.389265E+04 -1.352578E+05 -1.173949E+04  6.952372E+04  3.068025E+03
       497   2 -1.964751E+06  7.648703E+03 -1.950949E+05  1.825555E+04  1.537401E+05  4.393946E+03
       497   3 -2.047702E+06 -3.233617E+05 -4.004967E+05  8.165693E+04  2.379538E+05  1.580921E+03
       497   4 -1.841224E+06  1.160314E+04 -1.003396E+05  1.755684E+04  7.074730E+04  3.071455E+03
       497   5 -1.790666E+06  5.105500E+04 -1.525053E+05  8.336851E+02  1.534984E+05  4.389541E+03
       497   6 -1.841465E+06 -2.717421E+05 -3.491857E+05  1.752231E+04  2.362515E+05  1.556480E+03
       497   7 -1.698989E+06  4.710066E+04 -6.542236E+04  4.685991E+04  7.197115E+04  3.075000E+03
       497   8 -1.616553E+06  9.446019E+04 -1.099178E+05 -1.659308E+04  1.532568E+05  4.385151E+03
       497   9 -1.635181E+06 -2.201103E+05 -2.978756E+05 -4.663369E+04  2.345486E+05  1.532399E+03
       497  10 -1.983444E+06 -2.389396E+04 -1.352670E+05 -1.173966E+04 -3.645145E-10  2.886650E-11
       497  11 -1.964776E+06  7.642312E+03 -1.951395E+05  1.825500E+04 -2.509041E-10  6.254646E-10
       497  12 -2.047763E+06 -3.233769E+05 -4.006035E+05  8.165663E+04  2.142459E-10  3.613251E-10
       497  13 -1.841230E+06  1.160178E+04 -1.003490E+05  1.755667E+04  4.060292E-15  1.149991E-10
       497  14 -1.790692E+06  5.104863E+04 -1.525498E+05  8.331421E+02  2.064247E-10  5.191133E-10
       497  15 -1.841525E+06 -2.717572E+05 -3.492909E+05  1.752202E+04 -4.151620E-11  2.665794E-10
       497  16 -1.698995E+06  4.709926E+04 -6.543214E+04  4.685973E+04  2.325578E-10 -1.580242E-12
       497  17 -1.616579E+06  9.445385E+04 -1.099621E+05 -1.659363E+04  1.967743E-10  4.419373E-10
       497  18 -1.635240E+06 -2.201251E+05 -2.979793E+05 -4.663398E+04 -2.060586E-10  7.671024E-11
       497  19 -1.983439E+06 -2.389265E+04 -1.352578E+05 -1.173949E+04 -6.952372E+04 -3.068025E+03
       497  20 -1.964751E+06  7.648703E+03 -1.950949E+05  1.825555E+04 -1.537401E+05 -4.393946E+03
       497  21 -2.047702E+06 -3.233617E+05 -4.004967E+05  8.165693E+04 -2.379538E+05 -1.580921E+03
       497  22 -1.841224E+06  1.160314E+04 -1.003396E+05  1.755684E+04 -7.074730E+04 -3.071455E+03
       497  23 -1.790666E+06  5.105500E+04 -1.525053E+05  8.336851E+02 -1.534984E+05 -4.389541E+03
       497  24 -1.841465E+06 -2.717421E+05 -3.491857E+05  1.752231E+04 -2.362515E+05 -1.556480E+03
       497  25 -1.698989E+06  4.710066E+04 -6.542236E+04  4.685991E+04 -7.197115E+04 -3.075000E+03
       497  26 -1.616553E+06  9.446019E+04 -1.099178E+05 -1.659308E+04 -1.532568E+05 -4.385151E+03
       497  27 -1.635181E+06 -2.201103E+05 -2.978756E+05 -4.663369E+04 -2.345486E+05 -1.532399E+03
       498   1  6.649273E+04  5.183638E+04  4.893630E+04  4.011990E+04  1.655618E+04 -2.546024E+03
       498   2  3.290959E+04  4.250431E+04  3.303867E+04  3.768109E+04  6.849744E+03 -8.264540E+03
       498   3  9.177587E+02  3.445755E+04  2.378154E+04  4.077268E+04 -2.854853E+03 -9.303758E+03
       498   4 -1.476625E+05 -9.965643E+02 -1.064765E+03  4.080536E+04 -6.750313E+02 -2.543523E+03
       498   5 -1.475870E+05 -3.222764E+02 -5.867692E+02  3.804019E+04 -3.764239E+02 -8.263845E+03
       498   6 -1.476585E+05 -9.956443E+01 -4.160819E+02  4.080548E+04 -7.668895E+01 -9.304231E+03
       498   7 -3.617747E+05 -5.383260E+04 -5.106783E+04  4.149059E+04 -1.790034E+04 -2.541061E+03
       498   8 -3.280519E+05 -4.315071E+04 -3.421340E+04  3.839918E+04 -7.600544E+03 -8.263159E+03
       498   9 -2.962129E+05 -3.465780E+04 -2.461429E+04  4.083827E+04  2.700833E+03 -9.304703E+03
       498  10  6.649243E+04  5.183630E+04  4.893578E+04  4.011993E+04  1.753226E-10  1.190898E-10
       498  11  3.290952E+04  4.250423E+04  3.303845E+04  3.768114E+04  2.167259E-10 -5.798450E-11
       498  12  9.177267E+02  3.445745E+04  2.378136E+04  4.077266E+04  3.315919E-10  7.439952E-11
       498  13 -1.476625E+05 -9.965714E+02 -1.064778E+03  4.080536E+04 -1.212907E-10  9.308184E-11
       498  14 -1.475870E+05 -3.223498E+02 -5.868978E+02  3.804019E+04 -4.059528E-10 -1.015951E-11
       498  15 -1.476586E+05 -9.965739E+01 -4.162445E+02  4.080548E+04  2.112122E-10 -3.609445E-11
       498  16 -3.617751E+05 -5.383269E+04 -5.106845E+04  4.149055E+04 -2.156063E-10  7.106910E-11
       498  17 -3.280520E+05 -4.315080E+04 -3.421363E+04  3.839913E+04 -2.253278E-10  1.281497E-10
       498  18 -2.962130E+05 -3.465789E+04 -2.461447E+04  4.083829E+04 -2.567042E-10 -4.174554E-11
       498  19  6.649273E+04  5.183638E+04  4.893630E+04  4.011990E+04 -1.655618E+04  2.546024E+03
       498  20  3.290959E+04  4.250431E+04  3.303867E+04  3.768109E+04 -6.849744E+03  8.264540E+03
       498  21  9.177587E+02  3.445755E+04  2.378154E+04  4.077268E+04  2.854853E+03  9.303758E+03
       498  22 -1.476625E+05 -9.965643E+02 -1.064765E+03  4.080536E+04  6.750313E+02  2.543523E+03
       498  23 -1.475870E+05 -3.222764E+02 -5.867692E+02  3.804019E+04  3.764239E+02  8.263845E+03
       498  24 -1.476585E+05 -9.956443E+01 -4.160819E+02  4.080548E+04  7.668895E+01  9.304231E+03
       498  25 -3.617747E+05 -5.383260E+04 -5.106783E+04  4.149059E+04  1.790034E+04  2.541061E+03
       498  26 -3.280519E+05 -4.315071E+04 -3.421340E+04  3.839918E+04  7.600544E+03  8.263159E+03
       498  27 -2.962129E+05 -3.465780E+04 -2.461429E+04  4.083827E+04 -2.700833E+03  9.304703E+03
       499   1 -1.985398E+04  2.954185E+04  1.991118E+04  4.081103E+04 -2.835545E+03 -8.365435E+03
       499   2 -5.269106E+04  2.181697E+04  1.385313E+04  3.790595E+04 -3.741150E+03 -6.781434E+03
       499   3 -8.537559E+04  1.421653E+04  8.416418E+03  4.086835E+04 -4.646750E+03 -4.671128E+03
       499   4 -1.476345E+05 -7.752006E+01 -3.934889E+02  4.088037E+04 -1.203271E+01 -8.365835E+03
       499   5 -1.476117E+05 -2.808491E+01 -4.409078E+02  3.794660E+04  2.073977E+02 -6.781822E+03
       499   6 -1.476324E+05 -4.937909E+01 -6.482027E+02  4.088038E+04  4.268053E+02 -4.671460E+03
       499   7 -2.753987E+05 -2.969770E+04 -2.069855E+04  4.094970E+04  2.810919E+03 -8.366234E+03
       499   8 -2.425233E+05 -2.187356E+04 -1.473507E+04  3.798725E+04  4.155366E+03 -6.782209E+03
       499   9 -2.098852E+05 -1.431546E+04 -9.712791E+03  4.089240E+04  5.499873E+03 -4.671793E+03
       499  10 -1.985401E+04  2.954177E+04  1.991104E+04  4.081101E+04  1.713477E-11  1.306377E-10
       499  11 -5.269108E+04  2.181692E+04  1.385301E+04  3.790592E+04  2.255284E-10  7.260212E-11
       499  12 -8.537562E+04  1.421650E+04  8.416336E+03  4.086833E+04  8.973195E-11 -1.091047E-10
       499  13 -1.476345E+05 -7.759521E+01 -3.936205E+02  4.088037E+04  2.035166E-11 -1.477719E-11
       499  14 -1.476117E+05 -2.813430E+01 -4.409943E+02  3.794660E+04  1.398772E-11 -7.439516E-13
       499  15 -1.476324E+05 -4.940257E+01 -6.482440E+02  4.088038E+04 -1.911875E-10  8.030691E-11
       499  16 -2.753987E+05 -2.969778E+04 -2.069870E+04  4.094972E+04 -7.813154E-11  6.539967E-11
       499  17 -2.425234E+05 -2.187362E+04 -1.473518E+04  3.798727E+04 -3.142368E-10 -1.311963E-11
       499  18 -2.098852E+05 -1.431549E+04 -9.712889E+03  4.089242E+04 -4.481133E-11  4.058201E-10
       499  19 -1.985398E+04  2.954185E+04  1.991118E+04  4.081103E+04  2.835545E+03  8.365435E+03
       499  20 -5.269106E+04  2.181697E+04  1.385313E+04  3.790595E+04  3.741150E+03  6.781434E+03
       499  21 -8.537559E+04  1.421653E+04  8.416418E+03  4.086835E+04  4.646750E+03  4.671128E+03
       499  22 -1.476345E+05 -7.752006E+01 -3.934889E+02  4.088037E+04  1.203271E+01  8.365835E+03
       499  23 -1.476117E+05 -2.808491E+01 -4.409078E+02  3.794660E+04 -2.073977E+02  6.781822E+03
       499  24 -1.476324E+05 -4.937909E+01 -6.482027E+02  4.088038E+04 -4.268053E+02  4.671460E+03
       499  25 -2.753987E+05 -2.969770E+04 -2.069855E+04  4.094970E+04 -2.810919E+03  8.366234E+03
       499  26 -2.425233E+05 -2.187356E+04 -1.473507E+04  3.798725E+04 -4.155366E+03  6.782209E+03
       499  27 -2.098852E+05 -1.431546E+04 -9.712791E+03  4.089240E+04 -5.499873E+03  4.671793E+03
       500   1 -1.059590E+05  9.462706E+03  5.072131E+03  4.082627E+04 -4.523903E+03 -3.257246E+03
       500   2 -1.385767E+05  1.737242E+03 -5.452962E+02  3.813629E+04 -3.322149E+03 -9.995247E+02
       500   3 -1.714786E+05 -6.511576E+03 -7.075550E+03  4.133274E+04 -2.120505E+03  1.024210E+03
       500   4 -1.476664E+05 -5.890271E+01 -8.224836E+02  4.088458E+04  5.522041E+02 -3.257533E+03
       500   5 -1.475672E+05 -2.324388E+02 -1.401904E+03  3.794134E+04  1.253687E+03 -9.997679E+02
       500   6 -1.476663E+05 -8.424235E+02 -2.546724E+03  4.088452E+04  1.955120E+03  1.024007E+03
       500   7 -1.893720E+05 -9.580575E+03 -6.717026E+03  4.094289E+04  5.627985E+03 -3.257818E+03
       500   8 -1.565575E+05 -2.202111E+03 -2.258432E+03  3.774638E+04  5.829462E+03 -1.000014E+03
       500   9 -1.238535E+05  4.826705E+03  1.982140E+03  4.043629E+04  6.030897E+03  1.023799E+03
       500  10 -1.059591E+05  9.462689E+03  5.072073E+03  4.082626E+04  4.059379E-11 -4.792920E-11
       500  11 -1.385767E+05  1.737238E+03 -5.453188E+02  3.813629E+04 -1.876470E-10  2.156199E-10
       500  12 -1.714786E+05 -6.511578E+03 -7.075560E+03  4.133274E+04 -3.258685E-10  2.154808E-10
       500  13 -1.476664E+05 -5.891418E+01 -8.225041E+02  4.088458E+04  1.430265E-10 -1.054987E-10
       500  14 -1.475672E+05 -2.324403E+02 -1.401909E+03  3.794134E+04 -1.317391E-10 -1.453619E-10
       500  15 -1.476663E+05 -8.424257E+02 -2.546733E+03  4.088452E+04 -7.449530E-11  2.755179E-11
       500  16 -1.893721E+05 -9.580595E+03 -6.717105E+03  4.094290E+04 -1.825078E-10  1.989358E-10
       500  17 -1.565575E+05 -2.202121E+03 -2.258498E+03  3.774638E+04  1.577281E-10 -1.230832E-10
       500  18 -1.238535E+05  4.826694E+03  1.982069E+03  4.043629E+04  3.015279E-10  2.478486E-11
       500  19 -1.059590E+05  9.462706E+03  5.072131E+03  4.082627E+04  4.523903E+03  3.257246E+03
       500  20 -1.385767E+05  1.737242E+03 -5.452962E+02  3.813629E+04  3.322149E+03  9.995247E+02
       500  21 -1.714786E+05 -6.511576E+03 -7.075550E+03  4.133274E+04  2.120505E+03 -1.024210E+03
       500  22 -1.476664E+05 -5.890271E+01 -8.224836E+02  4.088458E+04 -5.522041E+02  3.257533E+03
       500  23 -1.475672E+05 -2.324388E+02 -1.401904E+03  3.794134E+04 -1.253687E+03  9.997679E+02
       500  24 -1.476663E+05 -8.424235E+02 -2.546724E+03  4.088452E+04 -1.955120E+03 -1.024007E+03
       500  25 -1.893720E+05 -9.580575E+03 -6.717026E+03  4.094289E+04 -5.627985E+03  3.257818E+03
       500  26 -1.565575E+05 -2.202111E+03 -2.258432E+03  3.774638E+04 -5.829462E+03  1.000014E+03
       500  27 -1.238535E+05  4.826705E+03  1.982140E+03  4.043629E+04 -6.030897E+03 -1.023799E+03
       501   1 -1.924809E+05 -1.157155E+04 -1.140744E+04  4.089846E+04 -1.657332E+03  2.226799E+03
       501   2 -2.239157E+05 -2.207677E+04 -2.142834E+04  4.188344E+04  6.877588E+03  2.870316E+03
       501   3 -2.580265E+05 -3.885352E+04 -3.857449E+04  4.857801E+04  1.541151E+04  1.010353E+03
       501   4 -1.480109E+05 -1.071687E+03 -3.386894E+03  4.084538E+04  2.394606E+03  2.226574E+03
       501   5 -1.471382E+05 -3.676645E+03 -6.225095E+03  3.799002E+04  5.579080E+03  2.870329E+03
       501   6 -1.480133E+05 -1.162367E+04 -1.247197E+04  4.084448E+04  8.763113E+03  1.010642E+03
       501   7 -1.035389E+05  9.428069E+03  4.633640E+03  4.079230E+04  6.446826E+03  2.226347E+03
       501   8 -7.035492E+04  1.472318E+04  8.977876E+03  3.409612E+04  4.280415E+03  2.870359E+03
       501   9 -3.798882E+04  1.560557E+04  1.362991E+04  3.310957E+04  2.113543E+03  1.011098E+03
       501  10 -1.924809E+05 -1.157155E+04 -1.140746E+04  4.089846E+04  8.585799E-11 -3.011778E-11
       501  11 -2.239158E+05 -2.207679E+04 -2.142845E+04  4.188342E+04 -1.830924E-10 -1.688662E-10
       501  12 -2.580267E+05 -3.885359E+04 -3.857494E+04  4.857800E+04 -1.640262E-10 -8.238393E-11
       501  13 -1.480109E+05 -1.071694E+03 -3.386914E+03  4.084538E+04 -1.992822E-11 -1.084764E-10
       501  14 -1.471382E+05 -3.676663E+03 -6.225168E+03  3.799001E+04 -4.973934E-10 -1.147899E-10
       501  15 -1.480134E+05 -1.162369E+04 -1.247211E+04  4.084447E+04 -7.270409E-11 -2.983890E-10
       501  16 -1.035389E+05  9.428052E+03  4.633552E+03  4.079229E+04 -1.274632E-10  7.047746E-11
       501  17 -7.035494E+04  1.472317E+04  8.977826E+03  3.409611E+04  9.903923E-11  5.748959E-11
       501  18 -3.798882E+04  1.560556E+04  1.362990E+04  3.310956E+04  4.612284E-10  4.667676E-11
       501  19 -1.924809E+05 -1.157155E+04 -1.140744E+04  4.089846E+04  1.657332E+03 -2.226799E+03
       501  20 -2.239157E+05 -2.207677E+04 -2.142834E+04  4.188344E+04 -6.877588E+03 -2.870316E+03
       501  21 -2.580265E+05 -3.885352E+04 -3.857449E+04  4.857801E+04 -1.541151E+04 -1.010353E+03
       501  22 -1.480109E+05 -1.071687E+03 -3.386894E+03  4.084538E+04 -2.394606E+03 -2.226574E+03
       501  23 -1.471382E+05 -3.676645E+03 -6.225095E+03  3.799002E+04 -5.579080E+03 -2.870329E+03
       501  24 -1.480133E+05 -1.162367E+04 -1.247197E+04  4.084448E+04 -8.763113E+03 -1.010642E+03
       501  25 -1.035389E+05  9.428069E+03  4.633640E+03  4.079230E+04 -6.446826E+03 -2.226347E+03
       501  26 -7.035492E+04  1.472318E+04  8.977876E+03  3.409612E+04 -4.280415E+03 -2.870359E+03
       501  27 -3.798882E+04  1.560557E+04  1.362991E+04  3.310957E+04 -2.113543E+03 -1.011098E+03
       502   1  9.202444E+04  4.807167E+04  4.581054E+04  1.553659E+04 -2.681417E+02 -2.303224E+03
       502   2  6.007788E+04  4.602839E+04  3.960704E+04  7.127419E+03 -1.632348E+03 -6.737539E+03
       502   3  2.676011E+04  3.767933E+04  3.272044E+04  1.857285E+04 -2.996213E+03 -5.779574E+03
       502   4 -1.246453E+05 -5.912979E+03 -7.438538E+03  1.772900E+04 -4.637584E+03 -2.302907E+03
       502   5 -1.236707E+05  6.276899E+02 -3.643105E+03  7.801660E+03 -2.697132E+03 -6.737674E+03
       502   6 -1.246421E+05  2.879860E+02 -2.826052E+03  1.772932E+04 -7.563564E+02 -5.779448E+03
       502   7 -3.412722E+05 -5.990109E+04 -6.069099E+04  1.992064E+04 -9.005504E+03 -2.302622E+03
       502   8 -3.073881E+05 -4.477542E+04 -4.689557E+04  8.475701E+03 -3.761603E+03 -6.737811E+03
       502   9 -2.760232E+05 -3.710498E+04 -3.837410E+04  1.688601E+04  1.482958E+03 -5.779327E+03
       502  10  9.202443E+04  4.807167E+04  4.581053E+04  1.553659E+04 -2.366231E-10  3.421984E-11
       502  11  6.007787E+04  4.602834E+04  3.960695E+04  7.127410E+03  1.864170E-10 -6.466250E-11
       502  12  2.676009E+04  3.767929E+04  3.272036E+04  1.857283E+04 -2.448217E-10 -1.740057E-10
       502  13 -1.246453E+05 -5.912990E+03 -7.438588E+03  1.772899E+04 -1.304100E-10 -1.348936E-10
       502  14 -1.236707E+05  6.276392E+02 -3.643203E+03  7.801645E+03  1.218532E-10  1.046937E-11
       502  15 -1.246421E+05  2.879500E+02 -2.826116E+03  1.772932E+04  2.211476E-10 -8.311160E-11
       502  16 -3.412723E+05 -5.990112E+04 -6.069116E+04  1.992063E+04 -3.067711E-10 -2.664691E-11
       502  17 -3.073882E+05 -4.477547E+04 -4.689568E+04  8.475680E+03 -1.195340E-10  1.749108E-10
       502  18 -2.760232E+05 -3.710502E+04 -3.837416E+04  1.688602E+04  7.978220E-11  9.338581E-11
       502  19  9.202444E+04  4.807167E+04  4.581054E+04  1.553659E+04  2.681417E+02  2.303224E+03
       502  20  6.007788E+04  4.602839E+04  3.960704E+04  7.127419E+03  1.632348E+03  6.737539E+03
       502  21  2.676011E+04  3.767933E+04  3.272044E+04  1.857285E+04  2.996213E+03  5.779574E+03
       502  22 -1.246453E+05 -5.912979E+03 -7.438538E+03  1.772900E+04  4.637584E+03  2.302907E+03
       502  23 -1.236707E+05  6.276899E+02 -3.643105E+03  7.801660E+03  2.697132E+03  6.737674E+03
       502  24 -1.246421E+05  2.879860E+02 -2.826052E+03  1.772932E+04  7.563564E+02  5.779448E+03
       502  25 -3.412722E+05 -5.990109E+04 -6.069099E+04  1.992064E+04  9.005504E+03  2.302622E+03
       502  26 -3.073881E+05 -4.477542E+04 -4.689557E+04  8.475701E+03  3.761603E+03  6.737811E+03
       502  27 -2.760232E+05 -3.710498E+04 -3.837410E+04  1.688601E+04 -1.482958E+03  5.779327E+03
       503   1 -8.844979E+03  2.803071E+04  2.444252E+04  1.752701E+04 -8.726099E+02 -4.218790E+03
       503   2 -4.125386E+04  2.058226E+04  1.662894E+04  7.709382E+03  3.680107E+02 -3.098199E+03
       503   3 -7.410391E+04  1.201976E+04  7.728533E+03  1.794047E+04  1.608321E+03 -1.672990E+03
       503   4 -1.243127E+05 -5.014743E+02 -2.743155E+03  1.777238E+04 -2.792514E+02 -4.218763E+03
       503   5 -1.240748E+05  1.224632E+02 -2.841923E+03  7.747937E+03  1.147854E+03 -3.098095E+03
       503   6 -1.243115E+05 -4.000321E+02 -4.157074E+03  1.777239E+04  2.574713E+03 -1.672789E+03
       503   7 -2.397681E+05 -2.903461E+04 -2.992975E+04  1.801770E+04  3.139975E+02 -4.218735E+03
       503   8 -2.068894E+05 -2.033782E+04 -2.231326E+04  7.786487E+03  1.927594E+03 -3.097991E+03
       503   9 -1.745167E+05 -1.282001E+04 -1.604285E+04  1.760432E+04  3.541026E+03 -1.672589E+03
       503  10 -8.844985E+03  2.803069E+04  2.444248E+04  1.752701E+04  3.858902E-11  8.424255E-12
       503  11 -4.125386E+04  2.058225E+04  1.662892E+04  7.709383E+03 -5.112933E-11  2.881613E-11
       503  12 -7.410391E+04  1.201976E+04  7.728523E+03  1.794047E+04 -6.667749E-11  8.705548E-11
       503  13 -1.243127E+05 -5.014934E+02 -2.743189E+03  1.777238E+04  1.579934E-10 -2.328074E-10
       503  14 -1.240748E+05  1.224525E+02 -2.841944E+03  7.747940E+03 -2.915558E-10  7.194142E-11
       503  15 -1.243115E+05 -4.000368E+02 -4.157092E+03  1.777239E+04 -3.968882E-11  2.659806E-10
       503  16 -2.397681E+05 -2.903463E+04 -2.992978E+04  1.801770E+04  4.114853E-10 -1.689097E-10
       503  17 -2.068894E+05 -2.033783E+04 -2.231328E+04  7.786491E+03  2.978490E-10 -6.444766E-10
       503  18 -1.745167E+05 -1.282002E+04 -1.604288E+04  1.760432E+04  1.232495E-10 -5.831648E-11
       503  19 -8.844979E+03  2.803071E+04  2.444252E+04  1.752701E+04  8.726099E+02  4.218790E+03
       503  20 -4.125386E+04  2.058226E+04  1.662894E+04  7.709382E+03 -3.680107E+02  3.098199E+03
       503  21 -7.410391E+04  1.201976E+04  7.728533E+03  1.794047E+04 -1.608321E+03  1.672990E+03
       503  22 -1.243127E+05 -5.014743E+02 -2.743155E+03  1.777238E+04  2.792514E+02  4.218763E+03
       503  23 -1.240748E+05  1.224632E+02 -2.841923E+03  7.747937E+03 -1.147854E+03  3.098095E+03
       503  24 -1.243115E+05 -4.000321E+02 -4.157074E+03  1.777239E+04 -2.574713E+03  1.672789E+03
       503  25 -2.397681E+05 -2.903461E+04 -2.992975E+04  1.801770E+04 -3.139975E+02  4.218735E+03
       503  26 -2.068894E+05 -2.033782E+04 -2.231326E+04  7.786487E+03 -1.927594E+03  3.097991E+03
       503  27 -1.745167E+05 -1.282001E+04 -1.604285E+04  1.760432E+04 -3.541026E+03  1.672589E+03
       504   1 -1.103652E+05  3.753196E+03 -1.834063E+03  1.697302E+04  2.450791E+03 -7.456728E+02
       504   2 -1.419682E+05 -3.939544E+03 -1.258126E+04  8.146324E+03  6.787246E+03  6.831097E+02
       504   3 -1.756441E+05 -1.763321E+04 -2.765453E+04  1.937950E+04  1.112348E+04  1.900231E+03
       504   4 -1.246613E+05  2.387104E+02 -5.110716E+03  1.777450E+04  3.390619E+03 -7.454573E+02
       504   5 -1.236358E+05  5.896183E+02 -8.269484E+03  7.745074E+03  7.597466E+03  6.832741E+02
       504   6 -1.246620E+05 -5.037778E+03 -1.566415E+04  1.777557E+04  1.180432E+04  1.900334E+03
       504   7 -1.389571E+05 -3.275787E+03 -8.387380E+03  1.857596E+04  4.330424E+03 -7.452394E+02
       504   8 -1.053031E+05  5.118757E+03 -3.957729E+03  7.343812E+03  8.407711E+03  6.834375E+02
       504   9 -7.367756E+04  7.557474E+03 -3.673937E+03  1.617151E+04  1.248521E+04  1.900433E+03
       504  10 -1.103652E+05  3.753194E+03 -1.834075E+03  1.697303E+04 -1.177379E-10 -7.046743E-11
       504  11 -1.419682E+05 -3.939557E+03 -1.258135E+04  8.146320E+03  2.533858E-10  1.160686E-10
       504  12 -1.756442E+05 -1.763324E+04 -2.765477E+04  1.937949E+04 -2.797397E-10  8.866806E-12
       504  13 -1.246613E+05  2.387067E+02 -5.110739E+03  1.777450E+04  1.346062E-10  1.897025E-10
       504  14 -1.236359E+05  5.896023E+02 -8.269593E+03  7.745070E+03  1.103999E-10  5.169328E-12
       504  15 -1.246622E+05 -5.037819E+03 -1.566442E+04  1.777555E+04 -2.778508E-11  3.896165E-11
       504  16 -1.389571E+05 -3.275792E+03 -8.387416E+03  1.857596E+04  7.846999E-11  6.650134E-11
       504  17 -1.053032E+05  5.118738E+03 -3.957862E+03  7.343807E+03  2.426927E-10  2.485542E-11
       504  18 -7.367773E+04  7.557428E+03 -3.674237E+03  1.617149E+04 -2.600464E-10 -9.468874E-11
       504  19 -1.103652E+05  3.753196E+03 -1.834063E+03  1.697302E+04 -2.450791E+03  7.456728E+02
       504  20 -1.419682E+05 -3.939544E+03 -1.258126E+04  8.146324E+03 -6.787246E+03 -6.831097E+02
       504  21 -1.756441E+05 -1.763321E+04 -2.765453E+04  1.937950E+04 -1.112348E+04 -1.900231E+03
       504  22 -1.246613E+05  2.387104E+02 -5.110716E+03  1.777450E+04 -3.390619E+03  7.454573E+02
       504  23 -1.236358E+05  5.896183E+02 -8.269484E+03  7.745074E+03 -7.597466E+03 -6.832741E+02
       504  24 -1.246620E+05 -5.037778E+03 -1.566415E+04  1.777557E+04 -1.180432E+04 -1.900334E+03
       504  25 -1.389571E+05 -3.275787E+03 -8.387380E+03  1.857596E+04 -4.330424E+03  7.452394E+02
       504  26 -1.053031E+05  5.118757E+03 -3.957729E+03  7.343812E+03 -8.407711E+03 -6.834375E+02
       504  27 -7.367756E+04  7.557474E+03 -3.673937E+03  1.617151E+04 -1.248521E+04 -1.900433E+03
       505   1 -2.152561E+05 -1.839050E+04 -3.969866E+04  9.635103E+03  1.285316E+04  3.268997E+03
       505   2 -2.384076E+05 -2.346664E+04 -5.937777E+04  1.408600E+04  3.204375E+04  4.370228E+03
       505   3 -2.805643E+05 -9.458053E+04 -1.080625E+05  3.846094E+04  5.123400E+04  1.558545E+03
       505   4 -1.283367E+05  3.086490E+03 -1.926708E+04  1.774307E+04  1.472622E+04  3.269488E+03
       505   5 -1.190464E+05  6.029352E+03 -3.127335E+04  7.783358E+03  3.152182E+04  4.369781E+03
       505   6 -1.283416E+05 -5.664308E+04 -7.061749E+04  1.774823E+04  4.831813E+04  1.556603E+03
       505   7 -4.141023E+04  2.456319E+04  1.164041E+03  2.585218E+04  1.659953E+04  3.270028E+03
       505   8  3.281191E+02  3.552448E+04 -3.169884E+03  1.479493E+03  3.099980E+04  4.369345E+03
       505   9  2.390322E+04 -1.870574E+04 -3.317389E+04 -2.969569E+03  4.540154E+04  1.554856E+03
       505  10 -2.152563E+05 -1.839055E+04 -3.969899E+04  9.635069E+03 -3.943968E-11  1.731987E-10
       505  11 -2.384087E+05 -2.346694E+04 -5.937974E+04  1.408589E+04  4.667406E-11  7.474001E-11
       505  12 -2.805672E+05 -9.458123E+04 -1.080675E+05  3.846088E+04  3.861289E-11  1.205150E-10
       505  13 -1.283369E+05  3.086421E+03 -1.926750E+04  1.774303E+04  2.290753E-10  3.328579E-10
       505  14 -1.190474E+05  6.029065E+03 -3.127525E+04  7.783247E+03  3.457017E-10  1.835648E-10
       505  15 -1.283441E+05 -5.664371E+04 -7.062189E+04  1.774817E+04 -2.436990E-10 -1.208002E-11
       505  16 -4.141053E+04  2.456310E+04  1.163503E+03  2.585213E+04  1.496696E-10 -1.059664E-10
       505  17  3.270820E+02  3.552420E+04 -3.171726E+03  1.479384E+03  1.063510E-10 -7.204191E-11
       505  18  2.390100E+04 -1.870630E+04 -3.317777E+04 -2.969626E+03  3.725178E-11  7.672996E-12
       505  19 -2.152561E+05 -1.839050E+04 -3.969866E+04  9.635103E+03 -1.285316E+04 -3.268997E+03
       505  20 -2.384076E+05 -2.346664E+04 -5.937777E+04  1.408600E+04 -3.204375E+04 -4.370228E+03
       505  21 -2.805643E+05 -9.458053E+04 -1.080625E+05  3.846094E+04 -5.123400E+04 -1.558545E+03
       505  22 -1.283367E+05  3.086490E+03 -1.926708E+04  1.774307E+04 -1.472622E+04 -3.269488E+03
       505  23 -1.190464E+05  6.029352E+03 -3.127335E+04  7.783358E+03 -3.152182E+04 -4.369781E+03
       505  24 -1.283416E+05 -5.664308E+04 -7.061749E+04  1.774823E+04 -4.831813E+04 -1.556603E+03
       505  25 -4.141023E+04  2.456319E+04  1.164041E+03  2.585218E+04 -1.659953E+04 -3.270028E+03
       505  26  3.281191E+02  3.552448E+04 -3.169884E+03  1.479493E+03 -3.099980E+04 -4.369345E+03
       505  27  2.390322E+04 -1.870574E+04 -3.317389E+04 -2.969569E+03 -4.540154E+04 -1.554856E+03
       506   1  1.045603E+06  1.548020E+05  1.793652E+05  6.302128E+04  9.266564E+04 -2.110313E+03
       506   2  9.862176E+05  2.960598E+04  9.532472E+04  2.341615E+04  5.829304E+04 -6.016026E+03
       506   3  9.610729E+05  2.350749E+04  6.341231E+04  8.343859E+03  2.392212E+04 -4.660527E+03
       506   4  8.425336E+05  1.042580E+05  1.295423E+05  2.341133E+04  8.843965E+04 -2.116621E+03
       506   5  8.257270E+05 -9.975652E+03  5.776899E+04  1.115200E+04  5.746651E+04 -6.017405E+03
       506   6  8.425804E+05 -5.686376E+03  3.577708E+04  2.342321E+04  2.649254E+04 -4.659398E+03
       506   7  6.395048E+05  5.371695E+04  7.971724E+04 -1.618567E+04  8.421504E+04 -2.122393E+03
       506   8  6.652605E+05 -4.955854E+04  2.021159E+04 -1.108966E+03  5.664019E+04 -6.018752E+03
       506   9  7.241013E+05 -3.488037E+04  8.141041E+03  3.849966E+04  2.906247E+04 -4.658143E+03
       506  10  1.045594E+06  1.547997E+05  1.793491E+05  6.302144E+04 -1.373900E-10  1.545458E-10
       506  11  9.862139E+05  2.960503E+04  9.531828E+04  2.341643E+04 -3.567524E-10  8.510592E-11
       506  12  9.610723E+05  2.350731E+04  6.341119E+04  8.343949E+03  4.973435E-10 -7.867622E-11
       506  13  8.425252E+05  1.042559E+05  1.295276E+05  2.341148E+04  1.073106E-10  1.565093E-10
       506  14  8.257235E+05 -9.976576E+03  5.776273E+04  1.115228E+04 -4.087749E-10 -7.421761E-12
       506  15  8.425796E+05 -5.686587E+03  3.577572E+04  2.342331E+04  2.018712E-10 -5.138142E-11
       506  16  6.394972E+05  5.371505E+04  7.970392E+04 -1.618552E+04  2.249720E-10  5.696806E-11
       506  17  6.652570E+05 -4.955944E+04  2.020550E+04 -1.108691E+03 -4.922079E-11  8.656457E-11
       506  18  7.241004E+05 -3.488062E+04  8.139414E+03  3.849977E+04 -3.312305E-10 -1.572938E-10
       506  19  1.045603E+06  1.548020E+05  1.793652E+05  6.302128E+04 -9.266564E+04  2.110313E+03
       506  20  9.862176E+05  2.960598E+04  9.532472E+04  2.341615E+04 -5.829304E+04  6.016026E+03
       506  21  9.610729E+05  2.350749E+04  6.341231E+04  8.343859E+03 -2.392212E+04  4.660527E+03
       506  22  8.425336E+05  1.042580E+05  1.295423E+05  2.341133E+04 -8.843965E+04  2.116621E+03
       506  23  8.257270E+05 -9.975652E+03  5.776899E+04  1.115200E+04 -5.746651E+04  6.017405E+03
       506  24  8.425804E+05 -5.686376E+03  3.577708E+04  2.342321E+04 -2.649254E+04  4.659398E+03
       506  25  6.395048E+05  5.371695E+04  7.971724E+04 -1.618567E+04 -8.421504E+04  2.122393E+03
       506  26  6.652605E+05 -4.955854E+04  2.021159E+04 -1.108966E+03 -5.664019E+04  6.018752E+03
       506  27  7.241013E+05 -3.488037E+04  8.141041E+03  3.849966E+04 -2.906247E+04  4.658143E+03
       507   1  9.101329E+05  2.712229E+04  4.664154E+04  2.638070E+04  2.011574E+04 -2.856694E+03
       507   2  8.662526E+05  6.966980E+03  2.393817E+04  1.188263E+04  1.160993E+04 -1.243375E+03
       507   3  8.261223E+05 -2.560345E+03  9.420071E+03  2.194812E+04  3.104703E+03  6.407244E+02
       507   4  8.359194E+05  8.825122E+03  2.930599E+04  2.342511E+04  2.106859E+04 -2.856562E+03
       507   5  8.340636E+05 -9.686274E+02  1.642108E+04  1.114454E+04  1.273818E+04 -1.243090E+03
       507   6  8.359259E+05 -1.643184E+02  1.160067E+04  2.342743E+04  4.407778E+03  6.411135E+02
       507   7  7.617110E+05 -9.472404E+03  1.197008E+04  2.046987E+04  2.202132E+04 -2.856438E+03
       507   8  8.018756E+05 -8.904306E+03  8.903937E+03  1.040648E+04  1.386636E+04 -1.242807E+03
       507   9  8.457295E+05  2.231711E+03  1.378127E+04  2.490676E+04  5.710874E+03  6.415089E+02
       507  10  9.101324E+05  2.712217E+04  4.664077E+04  2.638074E+04 -1.943076E-10 -2.494849E-10
       507  11  8.662525E+05  6.966943E+03  2.393791E+04  1.188264E+04  7.940386E-10  1.342723E-10
       507  12  8.261223E+05 -2.560348E+03  9.420052E+03  2.194812E+04 -9.680825E-11 -2.420141E-10
       507  13  8.359189E+05  8.824995E+03  2.930515E+04  2.342516E+04  1.178681E-10 -1.078921E-10
       507  14  8.340635E+05 -9.686725E+02  1.642078E+04  1.114455E+04  1.388992E-10 -1.260637E-10
       507  15  8.359258E+05 -1.643240E+02  1.160063E+04  2.342742E+04  1.069357E-10 -2.533888E-10
       507  16  7.617105E+05 -9.472542E+03  1.196915E+04  2.046992E+04  3.834533E-11  8.014606E-11
       507  17  8.018754E+05 -8.904359E+03  8.903573E+03  1.040650E+04 -3.456104E-10 -2.797888E-10
       507  18  8.457295E+05  2.231702E+03  1.378120E+04  2.490675E+04 -1.436389E-10  1.441507E-10
       507  19  9.101329E+05  2.712229E+04  4.664154E+04  2.638070E+04 -2.011574E+04  2.856694E+03
       507  20  8.662526E+05  6.966980E+03  2.393817E+04  1.188263E+04 -1.160993E+04  1.243375E+03
       507  21  8.261223E+05 -2.560345E+03  9.420071E+03  2.194812E+04 -3.104703E+03 -6.407244E+02
       507  22  8.359194E+05  8.825122E+03  2.930599E+04  2.342511E+04 -2.106859E+04  2.856562E+03
       507  23  8.340636E+05 -9.686274E+02  1.642108E+04  1.114454E+04 -1.273818E+04  1.243090E+03
       507  24  8.359259E+05 -1.643184E+02  1.160067E+04  2.342743E+04 -4.407778E+03 -6.411135E+02
       507  25  7.617110E+05 -9.472404E+03  1.197008E+04  2.046987E+04 -2.202132E+04  2.856438E+03
       507  26  8.018756E+05 -8.904306E+03  8.903937E+03  1.040648E+04 -1.386636E+04  1.242807E+03
       507  27  8.457295E+05  2.231711E+03  1.378127E+04  2.490676E+04 -5.710874E+03 -6.415089E+02
       508   1  7.816056E+05 -1.279717E+04 -2.197076E+03  2.416230E+04  1.130889E+03  1.855326E+03
       508   2  7.385419E+05 -2.416814E+04 -1.225387E+04  1.077942E+04 -3.767173E+03  3.738598E+03
       508   3  6.974381E+05 -3.022701E+04 -1.779840E+04  2.200274E+04 -8.664619E+03  5.265372E+03
       508   4  8.355427E+05  5.189930E+02  1.049736E+04  2.343635E+04  2.460527E+03  1.855693E+03
       508   5  8.345417E+05 -5.023949E+02  1.015754E+04  1.113308E+04 -2.667907E+03  3.738809E+03
       508   6  8.355391E+05  3.828060E+03  1.448960E+04  2.343571E+04 -7.796054E+03  5.265442E+03
       508   7  8.894825E+05  1.383495E+04  2.319161E+04  2.271034E+04  3.790281E+03  1.856056E+03
       508   8  9.305499E+05  2.316270E+04  3.256832E+04  1.148679E+04 -1.568472E+03  3.739021E+03
       508   9  9.736577E+05  3.788178E+04  4.677630E+04  2.486900E+04 -6.927297E+03  5.265516E+03
       508  10  7.816056E+05 -1.279717E+04 -2.197085E+03  2.416230E+04  1.942106E-10  5.529426E-11
       508  11  7.385418E+05 -2.416816E+04 -1.225392E+04  1.077943E+04  2.994571E-10  8.974738E-11
       508  12  6.974380E+05 -3.022705E+04 -1.779859E+04  2.200278E+04 -3.145063E-10 -5.202195E-11
       508  13  8.355427E+05  5.189877E+02  1.049735E+04  2.343635E+04  1.599478E-10 -1.644907E-10
       508  14  8.345416E+05 -5.024119E+02  1.015750E+04  1.113308E+04 -3.692589E-11 -1.129322E-11
       508  15  8.355390E+05  3.828014E+03  1.448943E+04  2.343574E+04  1.021512E-10  1.654856E-10
       508  16  8.894825E+05  1.383494E+04  2.319158E+04  2.271033E+04 -2.631653E-10 -1.796405E-10
       508  17  9.305499E+05  2.316268E+04  3.256829E+04  1.148679E+04  1.244999E-10 -1.798169E-10
       508  18  9.736576E+05  3.788174E+04  4.677615E+04  2.486903E+04 -5.469532E-11  9.634354E-12
       508  19  7.816056E+05 -1.279717E+04 -2.197076E+03  2.416230E+04 -1.130889E+03 -1.855326E+03
       508  20  7.385419E+05 -2.416814E+04 -1.225387E+04  1.077942E+04  3.767173E+03 -3.738598E+03
       508  21  6.974381E+05 -3.022701E+04 -1.779840E+04  2.200274E+04  8.664619E+03 -5.265372E+03
       508  22  8.355427E+05  5.189930E+02  1.049736E+04  2.343635E+04 -2.460527E+03 -1.855693E+03
       508  23  8.345417E+05 -5.023949E+02  1.015754E+04  1.113308E+04  2.667907E+03 -3.738809E+03
       508  24  8.355391E+05  3.828060E+03  1.448960E+04  2.343571E+04  7.796054E+03 -5.265442E+03
       508  25  8.894825E+05  1.383495E+04  2.319161E+04  2.271034E+04 -3.790281E+03 -1.856056E+03
       508  26  9.305499E+05  2.316270E+04  3.256832E+04  1.148679E+04  1.568472E+03 -3.739021E+03
       508  27  9.736577E+05  3.788178E+04  4.677630E+04  2.486900E+04  6.927297E+03 -5.265516E+03
       509   1  6.558429E+05 -4.743498E+04 -2.566734E+04  3.000625E+04 -1.338520E+04  7.264449E+03
       509   2  6.062704E+05 -5.980567E+04 -2.673206E+04  5.741810E+03 -2.285420E+04  8.467357E+03
       509   3  5.707647E+05 -2.097693E+04 -8.828276E+03  6.100207E+03 -3.232262E+04  2.897437E+03
       509   4  8.383880E+05 -2.447866E+03  1.688441E+04  2.343967E+04 -1.042970E+04  7.264891E+03
       509   5  8.309678E+05 -4.385103E+03  2.584773E+04  1.112936E+04 -2.426726E+04  8.466901E+03
       509   6  8.383640E+05  4.562422E+04  5.680509E+04  2.344071E+04 -3.810497E+04  2.896805E+03
       509   7  1.020964E+06  4.253706E+04  5.943396E+04  1.687115E+04 -7.473348E+03  7.265270E+03
       509   8  1.055712E+06  5.103200E+04  7.842410E+04  1.651887E+04 -2.568083E+04  8.466421E+03
       509   9  1.106029E+06  1.122212E+05  1.224335E+05  4.078869E+04 -4.388981E+04  2.895850E+03
       509  10  6.558427E+05 -4.743509E+04 -2.566778E+04  3.000633E+04 -8.586191E-11  1.490735E-10
       509  11  6.062698E+05 -5.980589E+04 -2.673318E+04  5.741966E+03 -2.469765E-10  1.984156E-10
       509  12  5.707636E+05 -2.097722E+04 -8.830253E+03  6.100282E+03 -3.791205E-10  6.937145E-11
       509  13  8.383878E+05 -2.447952E+03  1.688410E+04  2.343973E+04 -2.987304E-10 -4.995815E-11
       509  14  8.309671E+05 -4.385338E+03  2.584649E+04  1.112952E+04  2.753935E-10 -1.506450E-11
       509  15  8.383624E+05  4.562382E+04  5.680235E+04  2.344080E+04  2.264587E-10 -5.938966E-11
       509  16  1.020964E+06  4.253699E+04  5.943376E+04  1.687120E+04  2.424098E-10  3.249339E-10
       509  17  1.055711E+06  5.103174E+04  7.842273E+04  1.651904E+04  1.166336E-10 -2.348123E-10
       509  18  1.106027E+06  1.122207E+05  1.224299E+05  4.078879E+04  6.152337E-10 -1.437230E-10
       509  19  6.558429E+05 -4.743498E+04 -2.566734E+04  3.000625E+04  1.338520E+04 -7.264449E+03
       509  20  6.062704E+05 -5.980567E+04 -2.673206E+04  5.741810E+03  2.285420E+04 -8.467357E+03
       509  21  5.707647E+05 -2.097693E+04 -8.828276E+03  6.100207E+03  3.232262E+04 -2.897437E+03
       509  22  8.383880E+05 -2.447866E+03  1.688441E+04  2.343967E+04  1.042970E+04 -7.264891E+03
       509  23  8.309678E+05 -4.385103E+03  2.584773E+04  1.112936E+04  2.426726E+04 -8.466901E+03
       509  24  8.383640E+05  4.562422E+04  5.680509E+04  2.344071E+04  3.810497E+04 -2.896805E+03
       509  25  1.020964E+06  4.253706E+04  5.943396E+04  1.687115E+04  7.473348E+03 -7.265270E+03
       509  26  1.055712E+06  5.103200E+04  7.842410E+04  1.651887E+04  2.568083E+04 -8.466421E+03
       509  27  1.106029E+06  1.122212E+05  1.224335E+05  4.078869E+04  4.388981E+04 -2.895850E+03
       510   1  2.656919E+06  4.248710E+05  4.633865E+05  2.333368E+05  2.056310E+05 -9.587441E+03
       510   2  2.430860E+06  1.574360E+05  2.633313E+05  1.265633E+05  1.198078E+05 -2.786917E+04
       510   3  2.268042E+06  9.814569E+04  1.710300E+05  9.694438E+04  3.401231E+04 -2.307539E+04
       510   4  1.821597E+06  2.177183E+05  2.609925E+05  1.275594E+05  1.774339E+05 -9.627364E+03
       510   5  1.791977E+06  1.479849E+03  1.210654E+05  8.901895E+04  1.134207E+05 -2.788048E+04
       510   6  1.821865E+06 -1.027927E+04  7.387627E+04  1.276111E+05  4.940585E+04 -2.306628E+04
       510   7  9.869358E+05  1.055681E+04  5.855718E+04  2.192423E+04  1.492743E+05 -9.657760E+03
       510   8  1.153476E+06 -1.544986E+05 -2.122503E+04  5.151348E+04  1.070400E+05 -2.789104E+04
       510   9  1.375876E+06 -1.187137E+05 -2.328800E+04  1.582555E+05  6.478849E+04 -2.305564E+04
       510  10  2.656873E+06  4.248596E+05  4.633072E+05  2.333384E+05  1.620906E-10 -1.760553E-11
       510  11  2.430845E+06  1.574313E+05  2.633030E+05  1.265660E+05  2.186650E-10  2.189507E-11
       510  12  2.268041E+06  9.814481E+04  1.710268E+05  9.694501E+04  4.993657E-10  6.511100E-10
       510  13  1.821563E+06  2.177098E+05  2.609333E+05  1.275608E+05 -6.048775E-10 -1.690884E-11
       510  14  1.791963E+06  1.475572E+03  1.210399E+05  8.902150E+04 -8.269270E-10 -3.835629E-10
       510  15  1.821862E+06 -1.028050E+04  7.387070E+04  1.276120E+05  1.081576E-09  1.018057E-09
       510  16  9.869119E+05  1.055074E+04  5.851520E+04  2.192539E+04 -1.751014E-10 -1.501086E-10
       510  17  1.153463E+06 -1.545025E+05 -2.124799E+04  5.151588E+04 -5.122948E-10  2.411620E-11
       510  18  1.375872E+06 -1.187154E+05 -2.329687E+04  1.582567E+05 -3.714916E-11  2.732793E-10
       510  19  2.656919E+06  4.248710E+05  4.633865E+05  2.333368E+05 -2.056310E+05  9.587441E+03
       510  20  2.430860E+06  1.574360E+05  2.633313E+05  1.265633E+05 -1.198078E+05  2.786917E+04
       510  21  2.268042E+06  9.814569E+04  1.710300E+05  9.694438E+04 -3.401231E+04  2.307539E+04
       510  22  1.821597E+06  2.177183E+05  2.609925E+05  1.275594E+05 -1.774339E+05  9.627364E+03
       510  23  1.791977E+06  1.479849E+03  1.210654E+05  8.901895E+04 -1.134207E+05  2.788048E+04
       510  24  1.821865E+06 -1.027927E+04  7.387627E+04  1.276111E+05 -4.940585E+04  2.306628E+04
       510  25  9.869358E+05  1.055681E+04  5.855718E+04  2.192423E+04 -1.492743E+05  9.657760E+03
       510  26  1.153476E+06 -1.544986E+05 -2.122503E+04  5.151348E+04 -1.070400E+05  2.789104E+04
       510  27  1.375876E+06 -1.187137E+05 -2.328800E+04  1.582555E+05 -6.478849E+04  2.305564E+04
       511   1  2.100059E+06  8.207020E+04  1.244170E+05  1.321699E+05  2.988862E+04 -1.466551E+04
       511   2  1.903836E+06  2.320902E+04  6.142524E+04  9.013183E+04  8.807366E+03 -4.877877E+03
       511   3  1.713414E+06 -2.319222E+04  1.521519E+04  1.258432E+05 -1.226922E+04  5.882081E+03
       511   4  1.809880E+06  1.147458E+04  6.101368E+04  1.277329E+05  3.865044E+04 -1.466068E+04
       511   5  1.807087E+06 -3.325685E+02  4.027522E+04  8.886160E+04  1.849099E+04 -4.871837E+03
       511   6  1.809908E+06  1.664389E+02  3.568880E+04  1.277396E+05 -1.670131E+03  5.889327E+03
       511   7  1.519780E+06 -5.912653E+04 -2.394444E+03  1.232979E+05  4.740823E+04 -1.465598E+04
       511   8  1.710348E+06 -2.387472E+04  1.912500E+04  8.759156E+04  2.817313E+04 -4.865837E+03
       511   9  1.906411E+06  2.352457E+04  5.616230E+04  1.296364E+05  8.930575E+03  5.896638E+03
       511  10  2.100058E+06  8.206973E+04  1.244149E+05  1.321703E+05  2.398169E-11 -1.543804E-10
       511  11  1.903836E+06  2.320897E+04  6.142504E+04  9.013187E+04  6.652738E-10  1.848496E-10
       511  12  1.713414E+06 -2.319230E+04  1.521485E+04  1.258432E+05  4.325862E-10 -6.498189E-11
       511  13  1.809878E+06  1.147395E+04  6.101047E+04  1.277333E+05  6.497671E-10  8.090414E-10
       511  14  1.807087E+06 -3.326855E+02  4.027454E+04  8.886167E+04  7.726549E-10  7.630493E-10
       511  15  1.809908E+06  1.664008E+02  3.568873E+04  1.277396E+05 -1.194275E-10 -2.788223E-10
       511  16  1.519777E+06 -5.912736E+04 -2.399062E+03  1.232984E+05 -1.054727E-09 -1.876511E-10
       511  17  1.710347E+06 -2.387496E+04  1.912347E+04  8.759168E+04  6.167687E-10  7.596361E-10
       511  18  1.906411E+06  2.352451E+04  5.616208E+04  1.296363E+05  5.722718E-11  4.074352E-11
       511  19  2.100059E+06  8.207020E+04  1.244170E+05  1.321699E+05 -2.988862E+04  1.466551E+04
       511  20  1.903836E+06  2.320902E+04  6.142524E+04  9.013183E+04 -8.807366E+03  4.877877E+03
       511  21  1.713414E+06 -2.319222E+04  1.521519E+04  1.258432E+05  1.226922E+04 -5.882081E+03
       511  22  1.809880E+06  1.147458E+04  6.101368E+04  1.277329E+05 -3.865044E+04  1.466068E+04
       511  23  1.807087E+06 -3.325685E+02  4.027522E+04  8.886160E+04 -1.849099E+04  4.871837E+03
       511  24  1.809908E+06  1.664389E+02  3.568880E+04  1.277396E+05  1.670131E+03 -5.889327E+03
       511  25  1.519780E+06 -5.912653E+04 -2.394444E+03  1.232979E+05 -4.740823E+04  1.465598E+04
       511  26  1.710348E+06 -2.387472E+04  1.912500E+04  8.759156E+04 -2.817313E+04  4.865837E+03
       511  27  1.906411E+06  2.352457E+04  5.616230E+04  1.296364E+05 -8.930575E+03 -5.896638E+03
       512   1  1.558595E+06 -6.156160E+04 -1.778242E+04  1.304971E+05 -1.883843E+04  1.256956E+04
       512   2  1.361259E+06 -1.087524E+05 -4.756287E+04  8.719863E+04 -4.225098E+04  2.326572E+04
       512   3  1.171107E+06 -1.395740E+05 -5.803323E+04  1.218249E+05 -6.565086E+04  3.258940E+04
       512   4  1.810286E+06 -2.996946E+02  3.732611E+04  1.277777E+05 -8.118316E+03  1.257636E+04
       512   5  1.806563E+06 -4.672676E+02  4.932473E+04  8.881396E+04 -3.283913E+04  2.326897E+04
       512   6  1.810207E+06  1.595453E+04  8.152899E+04  1.277702E+05 -5.755436E+04  3.258936E+04
       512   7  2.062036E+06  6.095809E+04  9.243124E+04  1.250571E+05  2.606078E+03  1.258307E+04
       512   8  2.252054E+06  1.078048E+05  1.462008E+05  9.043042E+04 -2.342062E+04  2.327227E+04
       512   9  2.449688E+06  1.714561E+05  2.210669E+05  1.337215E+05 -4.944961E+04  3.258948E+04
       512  10  1.558594E+06 -6.156187E+04 -1.778339E+04  1.304973E+05  1.038777E-09  9.098244E-10
       512  11  1.361257E+06 -1.087534E+05 -4.756723E+04  8.719942E+04 -5.977437E-11 -1.399965E-10
       512  12  1.171102E+06 -1.395763E+05 -5.804331E+04  1.218266E+05 -3.807172E-10 -3.814982E-10
       512  13  1.810286E+06 -2.998822E+02  3.732569E+04  1.277778E+05  5.053961E-11 -9.584826E-11
       512  14  1.806562E+06 -4.681381E+02  4.932169E+04  8.881457E+04  1.336086E-10 -1.568232E-10
       512  15  1.810203E+06  1.595250E+04  8.152078E+04  1.277717E+05 -1.155204E-10 -5.311161E-10
       512  16  2.062036E+06  6.095791E+04  9.243093E+04  1.250571E+05 -5.911997E-10 -4.136020E-10
       512  17  2.252053E+06  1.078040E+05  1.461987E+05  9.043086E+04  4.081041E-10 -3.468918E-10
       512  18  2.449685E+06  1.714543E+05  2.210603E+05  1.337228E+05  6.237446E-10 -4.689873E-10
       512  19  1.558595E+06 -6.156160E+04 -1.778242E+04  1.304971E+05  1.883843E+04 -1.256956E+04
       512  20  1.361259E+06 -1.087524E+05 -4.756287E+04  8.719863E+04  4.225098E+04 -2.326572E+04
       512  21  1.171107E+06 -1.395740E+05 -5.803323E+04  1.218249E+05  6.565086E+04 -3.258940E+04
       512  22  1.810286E+06 -2.996946E+02  3.732611E+04  1.277777E+05  8.118316E+03 -1.257636E+04
       512  23  1.806563E+06 -4.672676E+02  4.932473E+04  8.881396E+04  3.283913E+04 -2.326897E+04
       512  24  1.810207E+06  1.595453E+04  8.152899E+04  1.277702E+05  5.755436E+04 -3.258936E+04
       512  25  2.062036E+06  6.095809E+04  9.243124E+04  1.250571E+05 -2.606078E+03 -1.258307E+04
       512  26  2.252054E+06  1.078048E+05  1.462008E+05  9.043042E+04  2.342062E+04 -2.327227E+04
       512  27  2.449688E+06  1.714561E+05  2.210669E+05  1.337215E+05  4.944961E+04 -3.258948E+04
       513   1  1.031269E+06 -2.080996E+05 -7.246669E+04  1.708359E+05 -8.929940E+04  4.176203E+04
       513   2  7.960440E+05 -2.395928E+05 -5.161581E+04  3.684663E+04 -1.481015E+05  4.425064E+04
       513   3  6.393042E+05  1.040983E+04  7.797201E+04 -1.969699E+04 -2.068939E+05  1.476354E+04
       513   4  1.827125E+06 -1.458050E+04  1.006155E+05  1.276434E+05 -7.200030E+04  4.176845E+04
       513   5  1.785180E+06  1.914914E+03  1.682597E+05  8.897019E+04 -1.610006E+05  4.423459E+04
       513   6  1.826741E+06  3.048579E+05  3.654390E+05  1.277139E+05 -2.500138E+05  1.472978E+04
       513   7  2.623579E+06  1.789039E+05  2.736619E+05  8.439483E+04 -5.467930E+04  4.177246E+04
       513   8  2.775232E+06  2.433668E+05  3.880763E+05  1.411776E+05 -1.739198E+05  4.421640E+04
       513   9  3.015514E+06  5.992857E+05  6.528233E+05  2.754073E+05 -2.932156E+05  1.467564E+04
       513  10  1.031260E+06 -2.081036E+05 -7.248494E+04  1.708389E+05  3.522515E-10 -6.094978E-10
       513  11  7.960199E+05 -2.396008E+05 -5.166066E+04  3.685191E+04  3.222603E-10 -8.239515E-10
       513  12  6.392582E+05  1.039812E+04  7.789124E+04 -1.969453E+04 -5.079956E-10 -5.627720E-10
       513  13  1.827119E+06 -1.458376E+04  1.006025E+05  1.276458E+05 -1.282231E-09 -9.210620E-10
       513  14  1.785151E+06  1.905877E+03  1.682074E+05  8.897592E+04  1.484293E-10 -8.440974E-10
       513  15  1.826674E+06  3.048410E+05  3.653214E+05  1.277169E+05 -2.628325E-10 -8.298340E-11
       513  16  2.623575E+06  1.789012E+05  2.736530E+05  8.439667E+04 -4.551800E-10 -7.687525E-10
       513  17  2.775199E+06  2.433566E+05  3.880160E+05  1.411837E+05 -9.101872E-10 -5.521587E-10
       513  18  3.015422E+06  5.992625E+05  6.526621E+05  2.754107E+05  1.550528E-09 -5.624049E-10
       513  19  1.031269E+06 -2.080996E+05 -7.246669E+04  1.708359E+05  8.929940E+04 -4.176203E+04
       513  20  7.960440E+05 -2.395928E+05 -5.161581E+04  3.684663E+04  1.481015E+05 -4.425064E+04
       513  21  6.393042E+05  1.040983E+04  7.797201E+04 -1.969699E+04  2.068939E+05 -1.476354E+04
       513  22  1.827125E+06 -1.458050E+04  1.006155E+05  1.276434E+05  7.200030E+04 -4.176845E+04
       513  23  1.785180E+06  1.914914E+03  1.682597E+05  8.897019E+04  1.610006E+05 -4.423459E+04
       513  24  1.826741E+06  3.048579E+05  3.654390E+05  1.277139E+05  2.500138E+05 -1.472978E+04
       513  25  2.623579E+06  1.789039E+05  2.736619E+05  8.439483E+04  5.467930E+04 -4.177246E+04
       513  26  2.775232E+06  2.433668E+05  3.880763E+05  1.411776E+05  1.739198E+05 -4.421640E+04
       513  27  3.015514E+06  5.992857E+05  6.528233E+05  2.754073E+05  2.932156E+05 -1.467564E+04
       514   1 -9.648170E+05 -1.593585E+05 -2.019904E+05 -1.623645E+05 -1.873130E+05 -7.760716E+03
       514   2 -9.519563E+05  6.976189E+04 -5.583021E+04 -6.427556E+04 -1.253491E+05 -2.684885E+04
       514   3 -9.929590E+05  1.155961E+05  4.136128E+03  3.638825E+04 -6.337949E+04 -3.305521E+04
       514   4 -1.494484E+06 -2.907272E+05 -3.267025E+05  1.374129E+04 -2.261923E+05 -7.788309E+03
       514   5 -1.465706E+06 -5.358516E+04 -1.575446E+05  1.253330E+04 -1.445636E+05 -2.685525E+04
       514   6 -1.494274E+06 -3.268833E+03 -8.830549E+04  1.389144E+04 -6.292360E+04 -3.305539E+04
       514   7 -2.023823E+06 -4.219986E+05 -4.514116E+05  1.896957E+05 -2.650384E+05 -7.838027E+03
       514   8 -1.979189E+06 -1.769260E+05 -2.592675E+05  8.927720E+04 -1.637625E+05 -2.686642E+04
       514   9 -1.995343E+06 -1.221462E+05 -1.807572E+05 -8.586667E+03 -6.246805E+04 -3.305561E+04
       514  10 -9.648547E+05 -1.593680E+05 -2.020566E+05 -1.623656E+05 -1.533649E-09  7.003779E-11
       514  11 -9.519734E+05  6.975689E+04 -5.586114E+04 -6.427827E+04  5.618556E-10  1.548012E-10
       514  12 -9.929636E+05  1.155939E+05  4.126515E+03  3.638656E+04  3.353339E-09  1.423716E-10
       514  13 -1.494539E+06 -2.907411E+05 -3.267990E+05  1.373987E+04 -4.955628E-10 -3.591097E-10
       514  14 -1.465728E+06 -5.359157E+04 -1.575853E+05  1.253017E+04 -7.134411E-10  1.347505E-10
       514  15 -1.494278E+06 -3.271071E+03 -8.831500E+04  1.388977E+04  1.558860E-10  1.028480E-10
       514  16 -2.023899E+06 -4.220176E+05 -4.515442E+05  1.896940E+05  3.453280E-10 -3.444465E-10
       514  17 -1.979218E+06 -1.769340E+05 -2.593194E+05  8.927365E+04 -1.908445E-09 -2.463308E-10
       514  18 -1.995347E+06 -1.221485E+05 -1.807667E+05 -8.588332E+03 -3.787896E-09 -1.344180E-09
       514  19 -9.648170E+05 -1.593585E+05 -2.019904E+05 -1.623645E+05  1.873130E+05  7.760716E+03
       514  20 -9.519563E+05  6.976189E+04 -5.583021E+04 -6.427556E+04  1.253491E+05  2.684885E+04
       514  21 -9.929590E+05  1.155961E+05  4.136128E+03  3.638825E+04  6.337949E+04  3.305521E+04
       514  22 -1.494484E+06 -2.907272E+05 -3.267025E+05  1.374129E+04  2.261923E+05  7.788309E+03
       514  23 -1.465706E+06 -5.358516E+04 -1.575446E+05  1.253330E+04  1.445636E+05  2.685525E+04
       514  24 -1.494274E+06 -3.268833E+03 -8.830549E+04  1.389144E+04  6.292360E+04  3.305539E+04
       514  25 -2.023823E+06 -4.219986E+05 -4.514116E+05  1.896957E+05  2.650384E+05  7.838027E+03
       514  26 -1.979189E+06 -1.769260E+05 -2.592675E+05  8.927720E+04  1.637625E+05  2.686642E+04
       514  27 -1.995343E+06 -1.221462E+05 -1.807572E+05 -8.586667E+03  6.246805E+04  3.305561E+04
       515   1 -9.914731E+05  1.046999E+05  2.168831E+04  9.615046E+03 -4.973581E+04 -3.277157E+04
       515   2 -1.003770E+06  1.113886E+05  4.593188E+04  1.100901E+04 -3.138243E+04 -3.324684E+04
       515   3 -1.020588E+06  1.094412E+05  5.606278E+04  1.596579E+04 -1.302892E+04 -3.264966E+04
       515   4 -1.482617E+06 -1.170666E+04 -6.850055E+04  1.408564E+04 -5.124642E+04 -3.277354E+04
       515   5 -1.480201E+06 -1.238633E+03 -4.010785E+04  1.230560E+04 -3.126301E+04 -3.324916E+04
       515   6 -1.482593E+06  3.053058E+02 -2.696940E+04  1.408866E+04 -1.127901E+04 -3.265212E+04
       515   7 -1.973527E+06 -1.281268E+05 -1.586993E+05  1.855262E+04 -5.275585E+04 -3.277553E+04
       515   8 -1.956411E+06 -1.138786E+05 -1.261565E+05  1.360119E+04 -3.114368E+04 -3.325148E+04
       515   9 -1.944389E+06 -1.088425E+05 -1.100098E+05  1.221298E+04 -9.530359E+03 -3.265459E+04
       515  10 -9.914760E+05  1.046980E+05  2.168164E+04  9.613733E+03 -8.008903E-10 -1.563872E-10
       515  11 -1.003772E+06  1.113871E+05  4.592795E+04  1.100817E+04 -4.619247E-10  6.520479E-11
       515  12 -1.020588E+06  1.094400E+05  5.606046E+04  1.596545E+04  2.350279E-10  8.920418E-10
       515  13 -1.482621E+06 -1.170852E+04 -6.850751E+04  1.408429E+04 -5.492156E-10 -9.924762E-10
       515  14 -1.480202E+06 -1.240082E+03 -4.011177E+04  1.230477E+04 -8.706226E-10 -2.871659E-10
       515  15 -1.482593E+06  3.041275E+02 -2.697164E+04  1.408837E+04  4.057374E-10  7.771663E-10
       515  16 -1.973530E+06 -1.281287E+05 -1.587065E+05  1.855122E+04  9.583386E-10 -8.440885E-10
       515  17 -1.956412E+06 -1.138800E+05 -1.261604E+05  1.360036E+04 -4.181784E-10  4.240752E-11
       515  18 -1.944390E+06 -1.088437E+05 -1.100120E+05  1.221273E+04  1.521084E-10  5.895645E-10
       515  19 -9.914731E+05  1.046999E+05  2.168831E+04  9.615046E+03  4.973581E+04  3.277157E+04
       515  20 -1.003770E+06  1.113886E+05  4.593188E+04  1.100901E+04  3.138243E+04  3.324684E+04
       515  21 -1.020588E+06  1.094412E+05  5.606278E+04  1.596579E+04  1.302892E+04  3.264966E+04
       515  22 -1.482617E+06 -1.170666E+04 -6.850055E+04  1.408564E+04  5.124642E+04  3.277354E+04
       515  23 -1.480201E+06 -1.238633E+03 -4.010785E+04  1.230560E+04  3.126301E+04  3.324916E+04
       515  24 -1.482593E+06  3.053058E+02 -2.696940E+04  1.408866E+04  1.127901E+04  3.265212E+04
       515  25 -1.973527E+06 -1.281268E+05 -1.586993E+05  1.855262E+04  5.275585E+04  3.277553E+04
       515  26 -1.956411E+06 -1.138786E+05 -1.261565E+05  1.360119E+04  3.114368E+04  3.325148E+04
       515  27 -1.944389E+06 -1.088425E+05 -1.100098E+05  1.221298E+04  9.530359E+03  3.265459E+04
       516   1 -1.029902E+06  1.068253E+05  5.734383E+04  1.403114E+04 -8.320768E+03 -3.202411E+04
       516   2 -1.043755E+06  1.030135E+05  5.581775E+04  1.320791E+04  1.885970E+03 -3.065158E+04
       516   3 -1.059805E+06  9.564131E+04  4.675528E+04  1.615267E+04  1.209190E+04 -2.848153E+04
       516   4 -1.482058E+06  2.807182E+01 -2.384986E+04  1.413362E+04 -6.821699E+03 -3.202639E+04
       516   5 -1.480853E+06 -2.890492E+02 -2.297971E+04  1.224920E+04  4.600594E+03 -3.065366E+04
       516   6 -1.482058E+06 -4.379689E+03 -3.049514E+04  1.413298E+04  1.602228E+04 -2.848317E+04
       516   7 -1.934015E+06 -1.067806E+05 -1.050514E+05  1.423602E+04 -5.323692E+03 -3.202867E+04
       516   8 -1.917765E+06 -1.036023E+05 -1.017846E+05  1.129118E+04  7.313356E+03 -3.065576E+04
       516   9 -1.904137E+06 -1.044108E+05 -1.077527E+05  1.211471E+04  1.995005E+04 -2.848485E+04
       516  10 -1.029902E+06  1.068242E+05  5.734177E+04  1.403093E+04  1.038241E-09  7.545408E-10
       516  11 -1.043756E+06  1.030125E+05  5.581598E+04  1.320796E+04  1.186360E-09  6.247770E-10
       516  12 -1.059806E+06  9.564040E+04  4.675348E+04  1.615295E+04 -2.737310E-10  3.269114E-10
       516  13 -1.482058E+06  2.695863E+01 -2.385187E+04  1.413344E+04  4.328896E-10  5.911652E-10
       516  14 -1.480854E+06 -2.900632E+02 -2.298151E+04  1.224931E+04 -4.237206E-11  7.292583E-12
       516  15 -1.482058E+06 -4.380628E+03 -3.049715E+04  1.413335E+04  1.086182E-09 -2.120504E-10
       516  16 -1.934015E+06 -1.067817E+05 -1.050534E+05  1.423588E+04 -2.546272E-10  2.955297E-10
       516  17 -1.917765E+06 -1.036033E+05 -1.017864E+05  1.129136E+04  4.613161E-10 -2.010769E-10
       516  18 -1.904138E+06 -1.044118E+05 -1.077550E+05  1.211516E+04  4.694318E-10 -3.805459E-10
       516  19 -1.029902E+06  1.068253E+05  5.734383E+04  1.403114E+04  8.320768E+03  3.202411E+04
       516  20 -1.043755E+06  1.030135E+05  5.581775E+04  1.320791E+04 -1.885970E+03  3.065158E+04
       516  21 -1.059805E+06  9.564131E+04  4.675528E+04  1.615267E+04 -1.209190E+04  2.848153E+04
       516  22 -1.482058E+06  2.807182E+01 -2.384986E+04  1.413362E+04  6.821699E+03  3.202639E+04
       516  23 -1.480853E+06 -2.890492E+02 -2.297971E+04  1.224920E+04 -4.600594E+03  3.065366E+04
       516  24 -1.482058E+06 -4.379689E+03 -3.049514E+04  1.413298E+04 -1.602228E+04  2.848317E+04
       516  25 -1.934015E+06 -1.067806E+05 -1.050514E+05  1.423602E+04  5.323692E+03  3.202867E+04
       516  26 -1.917765E+06 -1.036023E+05 -1.017846E+05  1.129118E+04 -7.313356E+03  3.065576E+04
       516  27 -1.904137E+06 -1.044108E+05 -1.077527E+05  1.211471E+04 -1.995005E+04  2.848485E+04
       517   1 -1.073849E+06  9.660107E+04  3.875299E+04  5.869488E+03  1.861800E+04 -2.759959E+04
       517   2 -1.079293E+06  7.440553E+04  1.590072E+04  4.168138E+04  3.675786E+04 -2.139657E+04
       517   3 -1.104398E+06 -1.701944E+04 -3.607914E+04  8.192994E+04  5.489585E+04 -6.124421E+03
       517   4 -1.486422E+06 -1.172361E+03 -3.695608E+04  1.427991E+04  2.116220E+04 -2.760075E+04
       517   5 -1.475415E+06 -2.050029E+04 -6.188237E+04  1.206534E+04  5.318795E+04 -2.139709E+04
       517   6 -1.486496E+06 -1.115011E+05 -1.256056E+05  1.428989E+04  8.521137E+04 -6.123865E+03
       517   7 -1.898829E+06 -9.895521E+04 -1.126721E+05  2.268458E+04  2.370474E+04 -2.760184E+04
       517   8 -1.871383E+06 -1.154122E+05 -1.396716E+05 -1.753137E+04  6.960776E+04 -2.139918E+04
       517   9 -1.868448E+06 -2.059755E+05 -2.151360E+05 -5.330819E+04  1.155083E+05 -6.129928E+03
       517  10 -1.073850E+06  9.660016E+04  3.875091E+04  5.869902E+03 -7.196411E-10  1.735373E-10
       517  11 -1.079295E+06  7.440468E+04  1.589732E+04  4.168201E+04  1.204776E-10  1.622747E-11
       517  12 -1.104401E+06 -1.702029E+04 -3.608489E+04  8.193021E+04  3.840449E-10 -2.425946E-10
       517  13 -1.486422E+06 -1.173299E+03 -3.695835E+04  1.428038E+04  1.513045E-10  2.244212E-11
       517  14 -1.475418E+06 -2.050154E+04 -6.188856E+04  1.206626E+04  3.801794E-10  6.631439E-11
       517  15 -1.486504E+06 -1.115031E+05 -1.256193E+05  1.429031E+04 -3.935752E-10  1.655019E-10
       517  16 -1.898830E+06 -9.895618E+04 -1.126745E+05  2.268510E+04  4.124475E-10 -2.052668E-10
       517  17 -1.871388E+06 -1.154140E+05 -1.396816E+05 -1.753017E+04  5.420062E-10  1.731777E-11
       517  18 -1.868463E+06 -2.059791E+05 -2.151613E+05 -5.330762E+04 -4.757795E-10  1.968856E-10
       517  19 -1.073849E+06  9.660107E+04  3.875299E+04  5.869488E+03 -1.861800E+04  2.759959E+04
       517  20 -1.079293E+06  7.440553E+04  1.590072E+04  4.168138E+04 -3.675786E+04  2.139657E+04
       517  21 -1.104398E+06 -1.701944E+04 -3.607914E+04  8.192994E+04 -5.489585E+04  6.124421E+03
       517  22 -1.486422E+06 -1.172361E+03 -3.695608E+04  1.427991E+04 -2.116220E+04  2.760075E+04
       517  23 -1.475415E+06 -2.050029E+04 -6.188237E+04  1.206534E+04 -5.318795E+04  2.139709E+04
       517  24 -1.486496E+06 -1.115011E+05 -1.256056E+05  1.428989E+04 -8.521137E+04  6.123865E+03
       517  25 -1.898829E+06 -9.895521E+04 -1.126721E+05  2.268458E+04 -2.370474E+04  2.760184E+04
       517  26 -1.871383E+06 -1.154122E+05 -1.396716E+05 -1.753137E+04 -6.960776E+04  2.139918E+04
       517  27 -1.868448E+06 -2.059755E+05 -2.151360E+05 -5.330819E+04 -1.155083E+05  6.129928E+03
       518   1 -6.723138E+05  6.967085E+04  5.781509E+04  2.844935E+04 -3.754941E+03 -6.646225E+03
       518   2 -7.293839E+05  9.224878E+04  5.504696E+04  4.117337E+04 -9.478018E+03 -2.180752E+04
       518   3 -7.923773E+05  8.809622E+04  4.933076E+04  6.582683E+04 -1.520322E+04 -2.507496E+04
       518   4 -1.177585E+06 -5.519424E+04 -6.084780E+04  6.352332E+04 -4.164846E+04 -6.660100E+03
       518   5 -1.172738E+06 -1.358711E+04 -3.038585E+04  5.754652E+04 -2.601230E+04 -2.181603E+04
       518   6 -1.177538E+06 -2.435139E+03 -1.772694E+04  6.350063E+04 -1.037840E+04 -2.507388E+04
       518   7 -1.682615E+06 -1.800721E+05 -1.795221E+05  9.856851E+04 -7.951128E+04 -6.678270E+03
       518   8 -1.615901E+06 -1.194335E+05 -1.158266E+05  7.390766E+04 -4.253504E+04 -2.182543E+04
       518   9 -1.562552E+06 -9.297451E+04 -8.478978E+04  6.117591E+04 -5.556492E+03 -2.507282E+04
       518  10 -6.723138E+05  6.967080E+04  5.781498E+04  2.844933E+04  4.083502E-10  4.938084E-11
       518  11 -7.293841E+05  9.224824E+04  5.504590E+04  4.117321E+04  5.456462E-11  9.005503E-11
       518  12 -7.923777E+05  8.809548E+04  4.932915E+04  6.582652E+04 -1.661300E-10 -1.902134E-10
       518  13 -1.177587E+06 -5.519475E+04 -6.085115E+04  6.352310E+04 -1.102250E-09  5.191815E-10
       518  14 -1.172739E+06 -1.358781E+04 -3.038802E+04  5.754606E+04  8.226750E-10 -8.789752E-10
       518  15 -1.177538E+06 -2.435843E+03 -1.772833E+04  6.350043E+04  1.547645E-10  3.137781E-10
       518  16 -1.682622E+06 -1.800739E+05 -1.795341E+05  9.856809E+04 -7.537237E-11 -2.609104E-10
       518  17 -1.615903E+06 -1.194345E+05 -1.158309E+05  7.390691E+04 -2.753597E-10 -2.039887E-10
       518  18 -1.562553E+06 -9.297520E+04 -8.479102E+04  6.117580E+04  4.074122E-10  6.138045E-11
       518  19 -6.723138E+05  6.967085E+04  5.781509E+04  2.844935E+04  3.754941E+03  6.646225E+03
       518  20 -7.293839E+05  9.224878E+04  5.504696E+04  4.117337E+04  9.478018E+03  2.180752E+04
       518  21 -7.923773E+05  8.809622E+04  4.933076E+04  6.582683E+04  1.520322E+04  2.507496E+04
       518  22 -1.177585E+06 -5.519424E+04 -6.084780E+04  6.352332E+04  4.164846E+04  6.660100E+03
       518  23 -1.172738E+06 -1.358711E+04 -3.038585E+04  5.754652E+04  2.601230E+04  2.181603E+04
       518  24 -1.177538E+06 -2.435139E+03 -1.772694E+04  6.350063E+04  1.037840E+04  2.507388E+04
       518  25 -1.682615E+06 -1.800721E+05 -1.795221E+05  9.856851E+04  7.951128E+04  6.678270E+03
       518  26 -1.615901E+06 -1.194335E+05 -1.158266E+05  7.390766E+04  4.253504E+04  2.182543E+04
       518  27 -1.562552E+06 -9.297451E+04 -8.478978E+04  6.117591E+04  5.556492E+03  2.507282E+04
       519   1 -8.297626E+05  7.845100E+04  4.507331E+04  6.239387E+04 -1.181010E+04 -2.321337E+04
       519   2 -8.894681E+05  6.631312E+04  3.711001E+04  5.674925E+04 -8.685202E+03 -2.050049E+04
       519   3 -9.499939E+05  5.253376E+04  2.669840E+04  6.386406E+04 -5.561867E+03 -1.664990E+04
       519   4 -1.175653E+06 -2.684895E+03 -1.433418E+04  6.368701E+04 -7.959100E+03 -2.321249E+04
       519   5 -1.175056E+06 -3.684982E+02 -1.038134E+04  5.730629E+04 -2.793422E+03 -2.049793E+04
       519   6 -1.175639E+06 -4.901144E+01 -1.029727E+04  6.368545E+04  2.370951E+03 -1.664541E+04
       519   7 -1.521425E+06 -8.382719E+04 -7.374566E+04  6.497938E+04 -4.110179E+03 -2.321159E+04
       519   8 -1.460563E+06 -6.705434E+04 -5.787504E+04  5.786305E+04  3.095736E+03 -2.049536E+04
       519   9 -1.401234E+06 -5.263436E+04 -4.729417E+04  6.350690E+04  1.030098E+04 -1.664091E+04
       519  10 -8.297629E+05  7.845039E+04  4.507204E+04  6.239365E+04 -6.019148E-10  5.908779E-10
       519  11 -8.894683E+05  6.631265E+04  3.710908E+04  5.674911E+04  8.204354E-10 -1.030687E-09
       519  12 -9.499940E+05  5.253345E+04  2.669783E+04  6.386398E+04  3.446599E-10 -3.345176E-10
       519  13 -1.175653E+06 -2.685491E+03 -1.433532E+04  6.368686E+04  1.176703E-10  2.895306E-10
       519  14 -1.175056E+06 -3.689512E+02 -1.038215E+04  5.730625E+04  3.616995E-10 -2.640856E-10
       519  15 -1.175639E+06 -4.931032E+01 -1.029780E+04  6.368548E+04  3.822805E-10 -3.023354E-10
       519  16 -1.521425E+06 -8.382777E+04 -7.374670E+04  6.497931E+04  8.915108E-10 -2.844782E-10
       519  17 -1.460563E+06 -6.705479E+04 -5.787584E+04  5.786310E+04  3.534322E-10 -1.161028E-10
       519  18 -1.401234E+06 -5.263469E+04 -4.729489E+04  6.350704E+04 -5.906340E-10  6.624441E-10
       519  19 -8.297626E+05  7.845100E+04  4.507331E+04  6.239387E+04  1.181010E+04  2.321337E+04
       519  20 -8.894681E+05  6.631312E+04  3.711001E+04  5.674925E+04  8.685202E+03  2.050049E+04
       519  21 -9.499939E+05  5.253376E+04  2.669840E+04  6.386406E+04  5.561867E+03  1.664990E+04
       519  22 -1.175653E+06 -2.684895E+03 -1.433418E+04  6.368701E+04  7.959100E+03  2.321249E+04
       519  23 -1.175056E+06 -3.684982E+02 -1.038134E+04  5.730629E+04  2.793422E+03  2.049793E+04
       519  24 -1.175639E+06 -4.901144E+01 -1.029727E+04  6.368545E+04 -2.370951E+03  1.664541E+04
       519  25 -1.521425E+06 -8.382719E+04 -7.374566E+04  6.497938E+04  4.110179E+03  2.321159E+04
       519  26 -1.460563E+06 -6.705434E+04 -5.787504E+04  5.786305E+04 -3.095736E+03  2.049536E+04
       519  27 -1.401234E+06 -5.263436E+04 -4.729417E+04  6.350690E+04 -1.030098E+04  1.664091E+04
       520   1 -9.889980E+05  4.348710E+04  1.889586E+04  6.304338E+04 -3.604647E+03 -1.403528E+04
       520   2 -1.048130E+06  2.840192E+04  3.616852E+03  5.837583E+04  4.966547E+03 -9.717932E+03
       520   3 -1.109424E+06  9.197381E+03 -1.828426E+04  6.655411E+04  1.353671E+04 -5.533594E+03
       520   4 -1.175846E+06  3.840464E+00 -1.144849E+04  6.370427E+04  4.256732E+03 -1.403051E+04
       520   5 -1.174785E+06 -1.028077E+03 -1.670897E+04  5.728316E+04  1.258718E+04 -9.712982E+03
       520   6 -1.175848E+06 -6.137494E+03 -2.842447E+04  6.370818E+04  2.091738E+04 -5.528530E+03
       520   7 -1.362659E+06 -4.348117E+04 -4.179358E+04  6.436495E+04  1.211582E+04 -1.402571E+04
       520   8 -1.301424E+06 -3.045885E+04 -3.703501E+04  5.619073E+04  2.020632E+04 -9.708058E+03
       520   9 -1.242267E+06 -2.147252E+04 -3.856457E+04  6.086257E+04  2.829728E+04 -5.523534E+03
       520  10 -9.889981E+05  4.348689E+04  1.889547E+04  6.304334E+04 -1.185941E-10 -3.086994E-10
       520  11 -1.048130E+06  2.840181E+04  3.616628E+03  5.837587E+04  2.066695E-10 -4.537116E-10
       520  12 -1.109424E+06  9.197299E+03 -1.828466E+04  6.655417E+04  8.301203E-10 -1.422240E-09
       520  13 -1.175846E+06  3.624305E+00 -1.144889E+04  6.370432E+04  1.851102E-10 -2.770096E-10
       520  14 -1.174785E+06 -1.028221E+03 -1.670945E+04  5.728326E+04 -6.978420E-11 -8.079440E-10
       520  15 -1.175848E+06 -6.137644E+03 -2.842535E+04  6.370827E+04  9.789653E-11 -9.294683E-10
       520  16 -1.362659E+06 -4.348142E+04 -4.179423E+04  6.436509E+04 -5.197459E-10  6.165118E-11
       520  17 -1.301425E+06 -3.045906E+04 -3.703595E+04  5.619088E+04 -1.018136E-09  4.636213E-10
       520  18 -1.242268E+06 -2.147277E+04 -3.856614E+04  6.086269E+04 -1.550293E-09 -1.301333E-10
       520  19 -9.889980E+05  4.348710E+04  1.889586E+04  6.304338E+04  3.604647E+03  1.403528E+04
       520  20 -1.048130E+06  2.840192E+04  3.616852E+03  5.837583E+04 -4.966547E+03  9.717932E+03
       520  21 -1.109424E+06  9.197381E+03 -1.828426E+04  6.655411E+04 -1.353671E+04  5.533594E+03
       520  22 -1.175846E+06  3.840464E+00 -1.144849E+04  6.370427E+04 -4.256732E+03  1.403051E+04
       520  23 -1.174785E+06 -1.028077E+03 -1.670897E+04  5.728316E+04 -1.258718E+04  9.712982E+03
       520  24 -1.175848E+06 -6.137494E+03 -2.842447E+04  6.370818E+04 -2.091738E+04  5.528530E+03
       520  25 -1.362659E+06 -4.348117E+04 -4.179358E+04  6.436495E+04 -1.211582E+04  1.402571E+04
       520  26 -1.301424E+06 -3.045885E+04 -3.703501E+04  5.619073E+04 -2.020632E+04  9.708058E+03
       520  27 -1.242267E+06 -2.147252E+04 -3.856457E+04  6.086257E+04 -2.829728E+04  5.523534E+03
       521   1 -1.152619E+06  6.510683E+02 -3.361528E+04  5.851871E+04  1.817908E+04 -3.003089E+03
       521   2 -1.201796E+06 -3.842740E+04 -7.481006E+04  9.399927E+04  5.703930E+04 -1.778933E+01
       521   3 -1.273281E+06 -1.463703E+05 -1.585596E+05  1.421879E+05  9.589711E+04  4.344586E+02
       521   4 -1.180152E+06 -5.526731E+03 -3.697603E+04  6.366949E+04  2.576229E+04 -2.997591E+03
       521   5 -1.169428E+06 -3.037475E+04 -6.664648E+04  5.735104E+04  6.006718E+04 -1.905565E+01
       521   6 -1.180222E+06 -1.232983E+05 -1.357017E+05  6.374611E+04  9.437338E+04  4.212467E+02
       521   7 -1.207685E+06 -1.170443E+04 -4.033655E+04  6.882003E+04  3.334518E+04 -2.991968E+03
       521   8 -1.137056E+06 -2.231711E+04 -5.848224E+04  2.070090E+04  6.309521E+04 -2.068000E+01
       521   9 -1.087142E+06 -1.002037E+05 -1.128411E+05 -1.470752E+04  9.284941E+04  4.084222E+02
       521  10 -1.152620E+06  6.509697E+02 -3.361592E+04  5.851875E+04  3.317196E-10 -1.970734E-09
       521  11 -1.201799E+06 -3.842828E+04 -7.481618E+04  9.399927E+04  3.155789E-10 -2.291488E-09
       521  12 -1.273291E+06 -1.463727E+05 -1.585769E+05  1.421879E+05 -8.457091E-10 -5.584674E-10
       521  13 -1.180153E+06 -5.526919E+03 -3.697730E+04  6.366955E+04  1.147274E-09 -3.419595E-09
       521  14 -1.169432E+06 -3.037572E+04 -6.665328E+04  5.735104E+04 -1.608927E-09  1.030260E-09
       521  15 -1.180232E+06 -1.233007E+05 -1.357184E+05  6.374608E+04 -3.180396E-10 -6.913240E-11
       521  16 -1.207686E+06 -1.170474E+04 -4.033866E+04  6.882011E+04 -8.222675E-10 -3.234336E-10
       521  17 -1.137060E+06 -2.231818E+04 -5.848973E+04  2.070090E+04 -6.011952E-10  8.987695E-10
       521  18 -1.087151E+06 -1.002060E+05 -1.128573E+05 -1.470755E+04  1.597734E-09 -5.400379E-10
       521  19 -1.152619E+06  6.510683E+02 -3.361528E+04  5.851871E+04 -1.817908E+04  3.003089E+03
       521  20 -1.201796E+06 -3.842740E+04 -7.481006E+04  9.399927E+04 -5.703930E+04  1.778933E+01
       521  21 -1.273281E+06 -1.463703E+05 -1.585596E+05  1.421879E+05 -9.589711E+04 -4.344586E+02
       521  22 -1.180152E+06 -5.526731E+03 -3.697603E+04  6.366949E+04 -2.576229E+04  2.997591E+03
       521  23 -1.169428E+06 -3.037475E+04 -6.664648E+04  5.735104E+04 -6.006718E+04  1.905565E+01
       521  24 -1.180222E+06 -1.232983E+05 -1.357017E+05  6.374611E+04 -9.437338E+04 -4.212467E+02
       521  25 -1.207685E+06 -1.170443E+04 -4.033655E+04  6.882003E+04 -3.334518E+04  2.991968E+03
       521  26 -1.137056E+06 -2.231711E+04 -5.848224E+04  2.070090E+04 -6.309521E+04  2.068000E+01
       521  27 -1.087142E+06 -1.002037E+05 -1.128411E+05 -1.470752E+04 -9.284941E+04 -4.084222E+02
       522   1 -3.425233E+05  9.091582E+04  6.498224E+04  3.863381E+04 -4.499892E+04 -1.181862E+04
       522   2 -4.602528E+05  1.606878E+05  8.267731E+04  6.846854E+04 -4.228817E+04 -3.773843E+04
       522   3 -5.979306E+05  1.518913E+05  7.898610E+04  1.285524E+05 -3.959319E+04 -4.104192E+04
       522   4 -1.242669E+06 -1.318165E+05 -1.484335E+05  1.179849E+05 -1.020433E+05 -1.187299E+04
       522   5 -1.229582E+06 -2.420605E+04 -7.213253E+04  1.027929E+05 -6.465682E+04 -3.776630E+04
       522   6 -1.242528E+06 -1.253965E+03 -4.135331E+04  1.178591E+05 -2.728402E+04 -4.103087E+04
       522   7 -2.142048E+06 -3.545816E+05 -3.618899E+05  1.972200E+05 -1.590053E+05 -1.194202E+04
       522   8 -1.998343E+06 -2.091318E+05 -2.269701E+05  1.370737E+05 -8.699823E+04 -3.779667E+04
       522   9 -1.886721E+06 -1.544227E+05 -1.617099E+05  1.071771E+05 -1.498730E+04 -4.102024E+04
       522  10 -3.425255E+05  9.091512E+04  6.497817E+04  3.863338E+04 -1.871601E-08  5.361654E-10
       522  11 -4.602551E+05  1.606858E+05  8.267127E+04  6.846725E+04  6.499678E-09  1.504375E-09
       522  12 -5.979327E+05  1.518890E+05  7.897999E+04  1.285511E+05  3.383367E-08  4.358918E-09
       522  13 -1.242680E+06 -1.318195E+05 -1.484533E+05  1.179839E+05  9.278468E-11 -1.149851E-09
       522  14 -1.229587E+06 -2.420871E+04 -7.214307E+04  1.027909E+05 -2.253970E-10 -7.670975E-09
       522  15 -1.242529E+06 -1.255972E+03 -4.135787E+04  1.178582E+05 -4.755078E-10 -1.169929E-08
       522  16 -2.142075E+06 -3.545885E+05 -3.619379E+05  1.972185E+05  1.843722E-08  8.584739E-10
       522  17 -1.998352E+06 -2.091354E+05 -2.269871E+05  1.370711E+05 -6.005591E-09  4.408435E-10
       522  18 -1.886722E+06 -1.544246E+05 -1.617135E+05  1.071766E+05 -3.388587E-08  2.924857E-09
       522  19 -3.425233E+05  9.091582E+04  6.498224E+04  3.863381E+04  4.499892E+04  1.181862E+04
       522  20 -4.602528E+05  1.606878E+05  8.267731E+04  6.846854E+04  4.228817E+04  3.773843E+04
       522  21 -5.979306E+05  1.518913E+05  7.898610E+04  1.285524E+05  3.959319E+04  4.104192E+04
       522  22 -1.242669E+06 -1.318165E+05 -1.484335E+05  1.179849E+05  1.020433E+05  1.187299E+04
       522  23 -1.229582E+06 -2.420605E+04 -7.213253E+04  1.027929E+05  6.465682E+04  3.776630E+04
       522  24 -1.242528E+06 -1.253965E+03 -4.135331E+04  1.178591E+05  2.728402E+04  4.103087E+04
       522  25 -2.142048E+06 -3.545816E+05 -3.618899E+05  1.972200E+05  1.590053E+05  1.194202E+04
       522  26 -1.998343E+06 -2.091318E+05 -2.269701E+05  1.370737E+05  8.699823E+04  3.779667E+04
       522  27 -1.886721E+06 -1.544227E+05 -1.617099E+05  1.071771E+05  1.498730E+04  4.102024E+04
       523   1 -6.787426E+05  1.275251E+05  7.086627E+04  1.165776E+05 -3.058845E+04 -3.613534E+04
       523   2 -8.056051E+05  1.015883E+05  5.694188E+04  1.019711E+05 -2.260103E+04 -2.949416E+04
       523   3 -9.344707E+05  7.198737E+04  3.688158E+04  1.190995E+05 -1.461953E+04 -2.113723E+04
       523   4 -1.237281E+06 -5.035185E+03 -3.283143E+04  1.182061E+05 -2.171708E+04 -3.612748E+04
       523   5 -1.236021E+06 -2.456345E+02 -2.133031E+04  1.023343E+05 -1.110643E+04 -2.948121E+04
       523   6 -1.237238E+06  4.226933E+02 -1.779359E+04  1.181990E+05 -5.000793E+02 -2.111859E+04
       523   7 -1.795516E+06 -1.376133E+05 -1.365420E+05  1.198330E+05 -1.285348E+04 -3.611958E+04
       523   8 -1.666257E+06 -1.020899E+05 -9.960940E+04  1.026972E+05  3.804066E+02 -2.946824E+04
       523   9 -1.539916E+06 -7.114701E+04 -7.247160E+04  1.172990E+05  1.361266E+04 -2.109999E+04
       523  10 -6.787439E+05  1.275234E+05  7.086206E+04  1.165767E+05 -3.372748E-08  3.369830E-09
       523  11 -8.056059E+05  1.015872E+05  5.693929E+04  1.019706E+05 -5.017325E-09  4.131840E-09
       523  12 -9.344710E+05  7.198683E+04  3.688034E+04  1.190993E+05  2.334226E-08  2.276930E-09
       523  13 -1.237281E+06 -5.036712E+03 -3.283476E+04  1.182055E+05  8.499100E-10 -1.302937E-08
       523  14 -1.236022E+06 -2.466004E+02 -2.133217E+04  1.023341E+05 -4.138842E-10 -6.529253E-09
       523  15 -1.237238E+06  4.222146E+02 -1.779443E+04  1.181990E+05  8.167322E-10 -2.662569E-09
       523  16 -1.795516E+06 -1.376147E+05 -1.365448E+05  1.198326E+05  3.313390E-08  6.219424E-09
       523  17 -1.666257E+06 -1.020909E+05 -9.961103E+04  1.026972E+05  4.585945E-09  4.717370E-09
       523  18 -1.539916E+06 -7.114754E+04 -7.247279E+04  1.172992E+05 -2.354892E-08  8.977096E-10
       523  19 -6.787426E+05  1.275251E+05  7.086627E+04  1.165776E+05  3.058845E+04  3.613534E+04
       523  20 -8.056051E+05  1.015883E+05  5.694188E+04  1.019711E+05  2.260103E+04  2.949416E+04
       523  21 -9.344707E+05  7.198737E+04  3.688158E+04  1.190995E+05  1.461953E+04  2.113723E+04
       523  22 -1.237281E+06 -5.035185E+03 -3.283143E+04  1.182061E+05  2.171708E+04  3.612748E+04
       523  23 -1.236021E+06 -2.456345E+02 -2.133031E+04  1.023343E+05  1.110643E+04  2.948121E+04
       523  24 -1.237238E+06  4.226933E+02 -1.779359E+04  1.181990E+05  5.000793E+02  2.111859E+04
       523  25 -1.795516E+06 -1.376133E+05 -1.365420E+05  1.198330E+05  1.285348E+04  3.611958E+04
       523  26 -1.666257E+06 -1.020899E+05 -9.960940E+04  1.026972E+05 -3.804066E+02  2.946824E+04
       523  27 -1.539916E+06 -7.114701E+04 -7.247160E+04  1.172990E+05 -1.361266E+04  2.109999E+04
       524   1 -1.019874E+06  5.175224E+04  2.058955E+04  1.176243E+05 -1.132983E+04 -1.570217E+04
       524   2 -1.146427E+06  2.073153E+04 -7.798031E+03  1.031743E+05  1.265047E+03 -6.898474E+03
       524   3 -1.275924E+06 -1.517796E+04 -4.564566E+04  1.205667E+05  1.385743E+04  1.251871E+03
       524   4 -1.237298E+06  4.657920E+02 -1.815447E+04  1.182223E+05  2.645211E+03 -1.568292E+04
       524   5 -1.235906E+06 -2.916237E+02 -2.330025E+04  1.023052E+05  1.423508E+04 -6.880170E+03
       524   6 -1.237299E+06 -5.762460E+03 -3.720750E+04  1.182310E+05  2.582493E+04  1.269154E+03
       524   7 -1.454675E+06 -5.082317E+04 -5.689955E+04  1.188202E+05  1.661549E+04 -1.566364E+04
       524   8 -1.325376E+06 -2.131511E+04 -3.880212E+04  1.014362E+05  2.720330E+04 -6.861900E+03
       524   9 -1.198671E+06  3.653039E+03 -2.876889E+04  1.158951E+05  3.779317E+04  1.286347E+03
       524  10 -1.019875E+06  5.175195E+04  2.058885E+04  1.176241E+05  4.467021E-12  2.937654E-09
       524  11 -1.146427E+06  2.073147E+04 -7.798123E+03  1.031743E+05  1.338937E-09  3.851567E-09
       524  12 -1.275925E+06 -1.517801E+04 -4.564602E+04  1.205666E+05  4.898610E-09  1.128994E-09
       524  13 -1.237298E+06  4.655261E+02 -1.815495E+04  1.182224E+05  2.113550E-09 -7.040897E-10
       524  14 -1.235906E+06 -2.917290E+02 -2.330072E+04  1.023053E+05 -2.892853E-10  3.248264E-09
       524  15 -1.237299E+06 -5.762641E+03 -3.720876E+04  1.182309E+05  8.967237E-11  3.898576E-09
       524  16 -1.454675E+06 -5.082351E+04 -5.690053E+04  1.188204E+05 -1.957477E-10  1.285375E-09
       524  17 -1.325377E+06 -2.131536E+04 -3.880360E+04  1.014364E+05 -2.314377E-09  3.907846E-09
       524  18 -1.198673E+06  3.652653E+03 -2.877158E+04  1.158951E+05 -5.687297E-09  2.269918E-09
       524  19 -1.019874E+06  5.175224E+04  2.058955E+04  1.176243E+05  1.132983E+04  1.570217E+04
       524  20 -1.146427E+06  2.073153E+04 -7.798031E+03  1.031743E+05 -1.265047E+03  6.898474E+03
       524  21 -1.275924E+06 -1.517796E+04 -4.564566E+04  1.205667E+05 -1.385743E+04 -1.251871E+03
       524  22 -1.237298E+06  4.657920E+02 -1.815447E+04  1.182223E+05 -2.645211E+03  1.568292E+04
       524  23 -1.235906E+06 -2.916237E+02 -2.330025E+04  1.023052E+05 -1.423508E+04  6.880170E+03
       524  24 -1.237299E+06 -5.762460E+03 -3.720750E+04  1.182310E+05 -2.582493E+04 -1.269154E+03
       524  25 -1.454675E+06 -5.082317E+04 -5.689955E+04  1.188202E+05 -1.661549E+04  1.566364E+04
       524  26 -1.325376E+06 -2.131511E+04 -3.880212E+04  1.014362E+05 -2.720330E+04  6.861900E+03
       524  27 -1.198671E+06  3.653039E+03 -2.876889E+04  1.158951E+05 -3.779317E+04 -1.286347E+03
       525   1 -1.367688E+06 -3.122486E+04 -7.193641E+04  1.061366E+05  1.864558E+04  6.492818E+03
       525   2 -1.479432E+06 -8.854315E+04 -1.357988E+05  1.425439E+05  7.725793E+04  1.030554E+04
       525   3 -1.624085E+06 -2.465511E+05 -2.630760E+05  2.102212E+05  1.358681E+05  3.976054E+03
       525   4 -1.243385E+06 -1.354789E+03 -4.726993E+04  1.180752E+05  3.214331E+04  6.512497E+03
       525   5 -1.228339E+06 -2.784861E+04 -8.314267E+04  1.025329E+05  7.520929E+04  1.029738E+04
       525   6 -1.243497E+06 -1.523128E+05 -1.716017E+05  1.182733E+05  1.182862E+05  3.932093E+03
       525   7 -1.119068E+06  2.851497E+04 -2.260345E+04  1.300163E+05  4.564370E+04  6.532694E+03
       525   8 -9.771826E+05  3.284795E+04 -3.048921E+04  6.250535E+04  7.315983E+04  1.028948E+04
       525   9 -8.627570E+05 -5.805289E+04 -8.013205E+04  2.626869E+04  1.006935E+05  3.893371E+03
       525  10 -1.367688E+06 -3.122500E+04 -7.193715E+04  1.061365E+05  1.369001E-09  3.482427E-10
       525  11 -1.479439E+06 -8.854487E+04 -1.358102E+05  1.425433E+05  4.377266E-11  4.043118E-09
       525  12 -1.624105E+06 -2.465561E+05 -2.631108E+05  2.102208E+05  1.109141E-09  1.470948E-09
       525  13 -1.243387E+06 -1.355112E+03 -4.727195E+04  1.180751E+05  6.816196E-10  1.562047E-09
       525  14 -1.228345E+06 -2.785024E+04 -8.315352E+04  1.025323E+05 -1.143763E-09  3.680927E-09
       525  15 -1.243512E+06 -1.523166E+05 -1.716281E+05  1.182729E+05  1.366455E-10 -9.370755E-11
       525  16 -1.119070E+06  2.851436E+04 -2.260745E+04  1.300161E+05 -1.099898E-09  1.735873E-09
       525  17 -9.771884E+05  3.284640E+04 -3.049948E+04  6.250475E+04 -2.042332E-09  1.208971E-09
       525  18 -8.627679E+05 -5.805564E+04 -8.015116E+04  2.626837E+04 -2.057407E-09 -4.481339E-10
       525  19 -1.367688E+06 -3.122486E+04 -7.193641E+04  1.061366E+05 -1.864558E+04 -6.492818E+03
       525  20 -1.479432E+06 -8.854315E+04 -1.357988E+05  1.425439E+05 -7.725793E+04 -1.030554E+04
       525  21 -1.624085E+06 -2.465511E+05 -2.630760E+05  2.102212E+05 -1.358681E+05 -3.976054E+03
       525  22 -1.243385E+06 -1.354789E+03 -4.726993E+04  1.180752E+05 -3.214331E+04 -6.512497E+03
       525  23 -1.228339E+06 -2.784861E+04 -8.314267E+04  1.025329E+05 -7.520929E+04 -1.029738E+04
       525  24 -1.243497E+06 -1.523128E+05 -1.716017E+05  1.182733E+05 -1.182862E+05 -3.932093E+03
       525  25 -1.119068E+06  2.851497E+04 -2.260345E+04  1.300163E+05 -4.564370E+04 -6.532694E+03
       525  26 -9.771826E+05  3.284795E+04 -3.048921E+04  6.250535E+04 -7.315983E+04 -1.028948E+04
       525  27 -8.627570E+05 -5.805289E+04 -8.013205E+04  2.626869E+04 -1.006935E+05 -3.893371E+03
       526   1 -3.505509E+06 -4.436159E+05 -6.117243E+05 -8.615023E+04 -4.910647E+05 -3.372313E+03
       526   2 -3.415156E+06  2.363208E+05 -2.036085E+05 -3.320654E+04 -3.199248E+05 -8.657756E+03
       526   3 -3.543129E+06  1.298440E+05 -1.036528E+05  5.004430E+04 -1.488086E+05 -6.955746E+03
       526   4 -3.982196E+06 -5.629319E+05 -7.309213E+05  5.725396E+03 -4.929549E+05 -3.448371E+03
       526   5 -3.872276E+06  1.219495E+05 -3.170728E+05 -9.829062E+03 -3.202607E+05 -8.671213E+03
       526   6 -3.981127E+06  1.981685E+04 -2.126391E+05  4.915707E+03 -1.475844E+05 -6.942337E+03
       526   7 -4.458657E+06 -6.822332E+05 -8.501308E+05  9.753005E+04 -4.948435E+05 -3.525043E+03
       526   8 -4.329204E+06  7.564575E+03 -4.305525E+05  1.353102E+04 -3.205963E+05 -8.684705E+03
       526   9 -4.418945E+06 -9.021723E+04 -3.216387E+05 -4.018096E+04 -1.463609E+05 -6.929100E+03
       526  10 -3.505769E+06 -4.436811E+05 -6.121800E+05 -8.615157E+04  8.958101E-10 -4.840949E-10
       526  11 -3.415266E+06  2.362930E+05 -2.038020E+05 -3.320878E+04 -5.290115E-10  2.919183E-11
       526  12 -3.543153E+06  1.298380E+05 -1.036947E+05  5.004347E+04 -5.867908E-10 -3.631986E-09
       526  13 -3.982458E+06 -5.629977E+05 -7.313809E+05  5.724025E+03 -3.166168E-09  2.212793E-09
       526  14 -3.872387E+06  1.219217E+05 -3.172669E+05 -9.831303E+03 -2.028246E-09  1.172927E-10
       526  15 -3.981150E+06  1.981091E+04 -2.126803E+05  4.914881E+03  3.053377E-12 -5.023025E-09
       526  16 -4.458922E+06 -6.822996E+05 -8.505943E+05  9.752865E+04 -1.980566E-09  4.766841E-10
       526  17 -4.329315E+06  7.536654E+03 -4.307472E+05  1.352877E+04 -1.786363E-09 -1.565450E-09
       526  18 -4.418968E+06 -9.022308E+04 -3.216794E+05 -4.018177E+04  5.437873E-10 -5.497617E-09
       526  19 -3.505509E+06 -4.436159E+05 -6.117243E+05 -8.615023E+04  4.910647E+05  3.372313E+03
       526  20 -3.415156E+06  2.363208E+05 -2.036085E+05 -3.320654E+04  3.199248E+05  8.657756E+03
       526  21 -3.543129E+06  1.298440E+05 -1.036528E+05  5.004430E+04  1.488086E+05  6.955746E+03
       526  22 -3.982196E+06 -5.629319E+05 -7.309213E+05  5.725396E+03  4.929549E+05  3.448371E+03
       526  23 -3.872276E+06  1.219495E+05 -3.170728E+05 -9.829062E+03  3.202607E+05  8.671213E+03
       526  24 -3.981127E+06  1.981685E+04 -2.126391E+05  4.915707E+03  1.475844E+05  6.942337E+03
       526  25 -4.458657E+06 -6.822332E+05 -8.501308E+05  9.753005E+04  4.948435E+05  3.525043E+03
       526  26 -4.329204E+06  7.564575E+03 -4.305525E+05  1.353102E+04  3.205963E+05  8.684705E+03
       526  27 -4.418945E+06 -9.021723E+04 -3.216387E+05 -4.018096E+04  1.463609E+05  6.929100E+03
       527   1 -3.612504E+06  2.712303E+03 -9.841314E+04 -1.979963E+03 -1.124943E+05 -5.321777E+03
       527   2 -3.627912E+06  9.352778E+04 -2.937771E+04 -1.861395E+04 -5.960201E+04 -4.939481E+03
       527   3 -3.682336E+06  5.613653E+04 -2.696436E+04  1.938553E+04 -6.716561E+03 -3.372071E+03
       527   4 -3.941455E+06 -7.962509E+04 -1.801949E+05  1.077187E+04 -1.125398E+05 -5.324521E+03
       527   5 -3.921835E+06  1.990719E+04 -1.024181E+05 -1.664098E+04 -5.938753E+04 -4.939215E+03
       527   6 -3.941298E+06 -8.847272E+03 -9.146949E+04  1.058183E+04 -6.239164E+03 -3.370399E+03
       527   7 -4.270306E+06 -1.619700E+05 -2.619847E+05  2.351684E+04 -1.125852E+05 -5.327268E+03
       527   8 -4.215679E+06 -5.371989E+04 -1.754649E+05 -1.466901E+04 -5.917315E+04 -4.938947E+03
       527   9 -4.200199E+06 -7.383587E+04 -1.559796E+05  1.781773E+03 -5.761967E+03 -3.368740E+03
       527  10 -3.612518E+06  2.708851E+03 -9.843712E+04 -1.980445E+03 -4.788644E-09  1.772345E-09
       527  11 -3.627916E+06  9.352679E+04 -2.938447E+04 -1.861418E+04 -3.548365E-09  3.990454E-09
       527  12 -3.682336E+06  5.613650E+04 -2.696446E+04  1.938551E+04 -3.706714E-09  1.309621E-09
       527  13 -3.941468E+06 -7.962854E+04 -1.802189E+05  1.077139E+04 -3.873683E-10 -1.851676E-09
       527  14 -3.921839E+06  1.990621E+04 -1.024248E+05 -1.664122E+04 -1.133405E-09  4.656941E-09
       527  15 -3.941298E+06 -8.847295E+03 -9.146959E+04  1.058181E+04 -1.345369E-10  2.302843E-09
       527  16 -4.270320E+06 -1.619735E+05 -2.620087E+05  2.351635E+04  2.276895E-09 -7.136038E-10
       527  17 -4.215683E+06 -5.372087E+04 -1.754715E+05 -1.466925E+04  6.876444E-09 -5.183360E-09
       527  18 -4.200199E+06 -7.383589E+04 -1.559797E+05  1.781757E+03  2.977497E-09 -5.981967E-10
       527  19 -3.612504E+06  2.712303E+03 -9.841314E+04 -1.979963E+03  1.124943E+05  5.321777E+03
       527  20 -3.627912E+06  9.352778E+04 -2.937771E+04 -1.861395E+04  5.960201E+04  4.939481E+03
       527  21 -3.682336E+06  5.613653E+04 -2.696436E+04  1.938553E+04  6.716561E+03  3.372071E+03
       527  22 -3.941455E+06 -7.962509E+04 -1.801949E+05  1.077187E+04  1.125398E+05  5.324521E+03
       527  23 -3.921835E+06  1.990719E+04 -1.024181E+05 -1.664098E+04  5.938753E+04  4.939215E+03
       527  24 -3.941298E+06 -8.847272E+03 -9.146949E+04  1.058183E+04  6.239164E+03  3.370399E+03
       527  25 -4.270306E+06 -1.619700E+05 -2.619847E+05  2.351684E+04  1.125852E+05  5.327268E+03
       527  26 -4.215679E+06 -5.371989E+04 -1.754649E+05 -1.466901E+04  5.917315E+04  4.938947E+03
       527  27 -4.200199E+06 -7.383587E+04 -1.559796E+05  1.781773E+03  5.761967E+03  3.368740E+03
       528   1 -3.838437E+06  1.774033E+04 -6.650701E+04  5.041272E+03  9.850741E+03 -2.236088E+03
       528   2 -3.860346E+06  3.604017E+04 -9.070266E+04 -1.686863E+04  6.488754E+04 -6.726140E+02
       528   3 -3.923525E+06 -7.934688E+04 -1.844286E+05  2.757379E+04  1.199196E+05  6.027539E+02
       528   4 -3.941762E+06 -8.056474E+03 -9.207879E+04  1.315743E+04  1.021318E+04 -2.234658E+03
       528   5 -3.921220E+06  2.075732E+04 -1.058498E+05 -1.987612E+04  6.517498E+04 -6.718569E+02
       528   6 -3.941940E+06 -8.410952E+04 -1.891022E+05  1.344407E+04  1.201358E+05  6.008391E+02
       528   7 -4.045077E+06 -3.385383E+04 -1.176513E+05  2.127222E+04  1.057556E+04 -2.233219E+03
       528   8 -3.982092E+06  5.474227E+03 -1.209972E+05 -2.288333E+04  6.546238E+04 -6.711027E+02
       528   9 -3.960355E+06 -8.887143E+04 -1.937757E+05 -6.852267E+02  1.203520E+05  5.989143E+02
       528  10 -3.838437E+06  1.774030E+04 -6.650720E+04  5.041290E+03 -5.938733E-09  6.602424E-09
       528  11 -3.860350E+06  3.603903E+04 -9.071062E+04 -1.686859E+04 -2.235262E-09  7.805698E-09
       528  12 -3.923541E+06 -7.935077E+04 -1.844558E+05  2.757374E+04 -1.587652E-09  6.112092E-09
       528  13 -3.941762E+06 -8.056508E+03 -9.207900E+04  1.315745E+04  8.942577E-11  2.596010E-09
       528  14 -3.921225E+06  2.075617E+04 -1.058578E+05 -1.987609E+04 -2.031118E-10  6.387802E-09
       528  15 -3.941956E+06 -8.411342E+04 -1.891295E+05  1.344401E+04 -2.517492E-10 -2.828045E-10
       528  16 -4.045077E+06 -3.385386E+04 -1.176516E+05  2.127224E+04  5.653639E-09  1.120072E-09
       528  17 -3.982096E+06  5.473067E+03 -1.210053E+05 -2.288329E+04  2.156225E-09 -4.417409E-10
       528  18 -3.960371E+06 -8.887535E+04 -1.938031E+05 -6.852848E+02  5.920741E-10 -5.881587E-09
       528  19 -3.838437E+06  1.774033E+04 -6.650701E+04  5.041272E+03 -9.850741E+03  2.236088E+03
       528  20 -3.860346E+06  3.604017E+04 -9.070266E+04 -1.686863E+04 -6.488754E+04  6.726140E+02
       528  21 -3.923525E+06 -7.934688E+04 -1.844286E+05  2.757379E+04 -1.199196E+05 -6.027539E+02
       528  22 -3.941762E+06 -8.056474E+03 -9.207879E+04  1.315743E+04 -1.021318E+04  2.234658E+03
       528  23 -3.921220E+06  2.075732E+04 -1.058498E+05 -1.987612E+04 -6.517498E+04  6.718569E+02
       528  24 -3.941940E+06 -8.410952E+04 -1.891022E+05  1.344407E+04 -1.201358E+05 -6.008391E+02
       528  25 -4.045077E+06 -3.385383E+04 -1.176513E+05  2.127222E+04 -1.057556E+04  2.233219E+03
       528  26 -3.982092E+06  5.474227E+03 -1.209972E+05 -2.288333E+04 -6.546238E+04  6.711027E+02
       528  27 -3.960355E+06 -8.887143E+04 -1.937757E+05 -6.852267E+02 -1.203520E+05 -5.989143E+02
       529   1 -4.130764E+06 -1.599258E+04 -2.604234E+05 -3.525437E+04  1.560533E+05  2.224350E+03
       529   2 -4.055199E+06  8.231976E+04 -3.809210E+05  6.011242E+03  3.392297E+05  4.645207E+03
       529   3 -4.212285E+06 -6.511784E+05 -8.291884E+05  1.109572E+05  5.224208E+05  3.137736E+03
       529   4 -3.984123E+06  2.121760E+04 -2.237656E+05  1.195458E+04  1.569732E+05  2.239610E+03
       529   5 -3.868479E+06  1.288752E+05 -3.346144E+05 -1.888230E+04  3.392441E+05  4.631234E+03
       529   6 -3.985256E+06 -5.950006E+05 -7.725247E+05  1.397532E+04  5.215417E+05  3.052216E+03
       529   7 -3.837457E+06  5.843451E+04 -1.871082E+05  5.917476E+04  1.578933E+05  2.255009E+03
       529   8 -3.681725E+06  1.754304E+05 -2.883100E+05 -4.378340E+04  3.392584E+05  4.617264E+03
       529   9 -3.758159E+06 -5.387909E+05 -7.158598E+05 -8.304224E+04  5.206623E+05  2.966999E+03
       529  10 -4.130790E+06 -1.599918E+04 -2.604695E+05 -3.525465E+04 -3.756878E-09  2.191723E-09
       529  11 -4.055324E+06  8.228858E+04 -3.811388E+05  6.009971E+03 -2.347009E-09 -1.104578E-09
       529  12 -4.212580E+06 -6.512523E+05 -8.297048E+05  1.109559E+05 -1.354033E-09 -1.825995E-10
       529  13 -3.984150E+06  2.121092E+04 -2.238122E+05  1.195430E+04 -3.349364E-09  6.718184E-09
       529  14 -3.868603E+06  1.288440E+05 -3.348321E+05 -1.888357E+04  1.309974E-09 -6.105386E-09
       529  15 -3.985549E+06 -5.950742E+05 -7.730392E+05  1.397403E+04 -1.519964E-09  4.754395E-09
       529  16 -3.837484E+06  5.842776E+04 -1.871554E+05  5.917447E+04  4.274001E-10  5.659680E-09
       529  17 -3.681849E+06  1.753992E+05 -2.885276E+05 -4.378467E+04  4.480334E-10  4.193622E-09
       529  18 -3.758451E+06 -5.388642E+05 -7.163723E+05 -8.304350E+04  7.254548E-11 -7.601867E-10
       529  19 -4.130764E+06 -1.599258E+04 -2.604234E+05 -3.525437E+04 -1.560533E+05 -2.224350E+03
       529  20 -4.055199E+06  8.231976E+04 -3.809210E+05  6.011242E+03 -3.392297E+05 -4.645207E+03
       529  21 -4.212285E+06 -6.511784E+05 -8.291884E+05  1.109572E+05 -5.224208E+05 -3.137736E+03
       529  22 -3.984123E+06  2.121760E+04 -2.237656E+05  1.195458E+04 -1.569732E+05 -2.239610E+03
       529  23 -3.868479E+06  1.288752E+05 -3.346144E+05 -1.888230E+04 -3.392441E+05 -4.631234E+03
       529  24 -3.985256E+06 -5.950006E+05 -7.725247E+05  1.397532E+04 -5.215417E+05 -3.052216E+03
       529  25 -3.837457E+06  5.843451E+04 -1.871082E+05  5.917476E+04 -1.578933E+05 -2.255009E+03
       529  26 -3.681725E+06  1.754304E+05 -2.883100E+05 -4.378340E+04 -3.392584E+05 -4.617264E+03
       529  27 -3.758159E+06 -5.387909E+05 -7.158598E+05 -8.304224E+04 -5.206623E+05 -2.966999E+03
       530   1 -1.164319E+05  3.073052E+04  2.763310E+04  4.141983E+04  4.448455E+02 -1.764025E+03
       530   2 -1.644897E+05  2.666623E+04  1.817919E+04  3.985454E+04 -3.533063E+03 -5.073309E+03
       530   3 -2.134635E+05  1.718269E+04  9.950701E+03  4.898841E+04 -7.524200E+03 -4.090521E+03
       530   4 -2.858835E+05 -1.119686E+04 -1.278530E+04  4.821321E+04 -8.751038E+03 -1.793833E+03
       530   5 -2.847917E+05 -2.277313E+03 -6.328882E+03  4.284539E+04 -5.476055E+03 -5.079732E+03
       530   6 -2.858781E+05 -3.710837E+01 -3.685339E+03  4.817715E+04 -2.214594E+03 -4.073127E+03
       530   7 -4.553086E+05 -5.312609E+04 -5.320537E+04  5.500470E+04 -1.794442E+04 -1.823847E+03
       530   8 -4.050798E+05 -3.122172E+04 -3.083769E+04  4.583565E+04 -7.418677E+03 -5.086173E+03
       530   9 -3.582875E+05 -1.725720E+04 -1.732150E+04  4.736598E+04  3.094408E+03 -4.055745E+03
       530  10 -1.164319E+05  3.073051E+04  2.763309E+04  4.141983E+04  4.240979E-08  1.679445E-09
       530  11 -1.644897E+05  2.666620E+04  1.817912E+04  3.985453E+04 -3.924016E-09  1.046255E-08
       530  12 -2.134636E+05  1.718266E+04  9.950563E+03  4.898838E+04 -5.523505E-08  7.150585E-09
       530  13 -2.858836E+05 -1.119689E+04 -1.278545E+04  4.821320E+04  1.939543E-09 -5.706447E-09
       530  14 -2.847917E+05 -2.277349E+03 -6.328987E+03  4.284537E+04 -5.227393E-10 -1.093740E-08
       530  15 -2.858781E+05 -3.712750E+01 -3.685379E+03  4.817714E+04  6.342043E-09  1.597297E-09
       530  16 -4.553089E+05 -5.312618E+04 -5.320598E+04  5.500468E+04 -4.226714E-08  5.580715E-10
       530  17 -4.050799E+05 -3.122177E+04 -3.083784E+04  4.583562E+04  4.766729E-09  6.905372E-09
       530  18 -3.582875E+05 -1.725722E+04 -1.732155E+04  4.736599E+04  5.669561E-08  2.534117E-10
       530  19 -1.164319E+05  3.073052E+04  2.763310E+04  4.141983E+04 -4.448455E+02  1.764025E+03
       530  20 -1.644897E+05  2.666623E+04  1.817919E+04  3.985454E+04  3.533063E+03  5.073309E+03
       530  21 -2.134635E+05  1.718269E+04  9.950701E+03  4.898841E+04  7.524200E+03  4.090521E+03
       530  22 -2.858835E+05 -1.119686E+04 -1.278530E+04  4.821321E+04  8.751038E+03  1.793833E+03
       530  23 -2.847917E+05 -2.277313E+03 -6.328882E+03  4.284539E+04  5.476055E+03  5.079732E+03
       530  24 -2.858781E+05 -3.710837E+01 -3.685339E+03  4.817715E+04  2.214594E+03  4.073127E+03
       530  25 -4.553086E+05 -5.312609E+04 -5.320537E+04  5.500470E+04  1.794442E+04  1.823847E+03
       530  26 -4.050798E+05 -3.122172E+04 -3.083769E+04  4.583565E+04  7.418677E+03  5.086173E+03
       530  27 -3.582875E+05 -1.725720E+04 -1.732150E+04  4.736598E+04 -3.094408E+03  4.055745E+03
       531   1 -2.448234E+05  9.491306E+03  4.822822E+03  4.809412E+04 -6.556318E+03 -2.171779E+03
       531   2 -2.931826E+05 -1.558107E+03 -3.115501E+03  4.262682E+04 -6.063502E+03  8.551343E+02
       531   3 -3.417490E+05 -1.283737E+04 -1.145597E+04  4.812188E+04 -5.571731E+03  4.205943E+03
       531   4 -2.854613E+05 -1.963719E+02 -2.973384E+03  4.824057E+04 -1.718225E+03 -2.155885E+03
       531   5 -2.853087E+05  2.194447E+02 -2.109101E+03  4.275857E+04 -6.784187E+02  8.728077E+02
       531   6 -2.854615E+05  3.103065E+02 -2.027247E+03  4.823892E+04  3.603713E+02  4.225397E+03
       531   7 -3.260976E+05 -9.884135E+03 -1.076958E+04  4.838701E+04  3.119558E+03 -2.139988E+03
       531   8 -2.774347E+05  1.997009E+03 -1.102592E+03  4.289032E+04  4.706729E+03  8.904832E+02
       531   9 -2.291707E+05  1.345784E+04  7.401505E+03  4.835598E+04  6.292994E+03  4.244852E+03
       531  10 -2.448235E+05  9.491289E+03  4.822732E+03  4.809411E+04 -2.858836E-09 -6.859033E-11
       531  11 -2.931827E+05 -1.558118E+03 -3.115571E+03  4.262683E+04  2.524481E-10  4.991843E-09
       531  12 -3.417491E+05 -1.283740E+04 -1.145606E+04  4.812190E+04 -6.650824E-10  8.353079E-09
       531  13 -2.854613E+05 -1.963776E+02 -2.973398E+03  4.824057E+04  1.494303E-09  1.067099E-08
       531  14 -2.853087E+05  2.194437E+02 -2.109103E+03  4.275857E+04  3.162980E-10 -1.786402E-08
       531  15 -2.854615E+05  3.102873E+02 -2.027280E+03  4.823892E+04  4.605496E-09  8.373570E-09
       531  16 -3.260976E+05 -9.884142E+03 -1.076960E+04  4.838702E+04  3.589557E-09 -6.141909E-09
       531  17 -2.774347E+05  1.997003E+03 -1.102635E+03  4.289031E+04 -4.357176E-10 -4.430149E-09
       531  18 -2.291707E+05  1.345781E+04  7.401397E+03  4.835595E+04 -1.106322E-11  3.773920E-09
       531  19 -2.448234E+05  9.491306E+03  4.822822E+03  4.809412E+04  6.556318E+03  2.171779E+03
       531  20 -2.931826E+05 -1.558107E+03 -3.115501E+03  4.262682E+04  6.063502E+03 -8.551343E+02
       531  21 -3.417490E+05 -1.283737E+04 -1.145597E+04  4.812188E+04  5.571731E+03 -4.205943E+03
       531  22 -2.854613E+05 -1.963719E+02 -2.973384E+03  4.824057E+04  1.718225E+03  2.155885E+03
       531  23 -2.853087E+05  2.194447E+02 -2.109101E+03  4.275857E+04  6.784187E+02 -8.728077E+02
       531  24 -2.854615E+05  3.103065E+02 -2.027247E+03  4.823892E+04 -3.603713E+02 -4.225397E+03
       531  25 -3.260976E+05 -9.884135E+03 -1.076958E+04  4.838701E+04 -3.119558E+03  2.139988E+03
       531  26 -2.774347E+05  1.997009E+03 -1.102592E+03  4.289032E+04 -4.706729E+03 -8.904832E+02
       531  27 -2.291707E+05  1.345784E+04  7.401505E+03  4.835598E+04 -6.292994E+03 -4.244852E+03
       532   1 -3.733959E+05 -2.027427E+04 -1.725628E+04  4.787435E+04 -5.240722E+03  6.297558E+03
       532   2 -4.215257E+05 -3.185820E+04 -2.677774E+04  4.257794E+04 -2.567092E+03  9.511363E+03
       532   3 -4.703009E+05 -4.429383E+04 -3.827743E+04  4.822209E+04  1.087285E+02  1.207335E+04
       532   4 -2.854957E+05  3.214075E+02 -2.221137E+03  4.823378E+04  7.243411E+02  6.317027E+03
       532   5 -2.852703E+05  1.246248E+02 -3.175218E+03  4.276527E+04  2.297034E+03  9.526977E+03
       532   6 -2.855004E+05 -7.322140E+02 -5.342217E+03  4.823719E+04  3.872102E+03  1.208519E+04
       532   7 -1.975879E+05  2.091669E+04  1.281388E+04  4.859325E+04  6.690222E+03  6.336502E+03
       532   8 -1.489966E+05  3.210646E+04  2.042675E+04  4.295263E+04  7.162196E+03  9.542592E+03
       532   9 -1.006665E+05  4.282752E+04  2.759176E+04  4.825227E+04  7.636563E+03  1.209702E+04
       532  10 -3.733959E+05 -2.027432E+04 -1.725640E+04  4.787438E+04 -3.158068E-09 -4.024003E-09
       532  11 -4.215257E+05 -3.185829E+04 -2.677792E+04  4.257796E+04  6.876141E-09 -4.819319E-09
       532  12 -4.703009E+05 -4.429399E+04 -3.827770E+04  4.822209E+04  1.187911E-08 -2.201700E-09
       532  13 -2.854957E+05  3.213645E+02 -2.221213E+03  4.823377E+04  1.717885E-09 -1.102717E-09
       532  14 -2.852703E+05  1.245259E+02 -3.175398E+03  4.276525E+04  8.690797E-10 -8.393969E-09
       532  15 -2.855005E+05 -7.323748E+02 -5.342520E+03  4.823715E+04  3.917435E-09 -1.148183E-08
       532  16 -1.975879E+05  2.091663E+04  1.281372E+04  4.859321E+04  2.829013E-09 -2.927930E-09
       532  17 -1.489967E+05  3.210635E+04  2.042648E+04  4.295257E+04 -5.781716E-09  5.942952E-09
       532  18 -1.006666E+05  4.282735E+04  2.759137E+04  4.825219E+04 -1.080099E-08  8.082218E-09
       532  19 -3.733959E+05 -2.027427E+04 -1.725628E+04  4.787435E+04  5.240722E+03 -6.297558E+03
       532  20 -4.215257E+05 -3.185820E+04 -2.677774E+04  4.257794E+04  2.567092E+03 -9.511363E+03
       532  21 -4.703009E+05 -4.429383E+04 -3.827743E+04  4.822209E+04 -1.087285E+02 -1.207335E+04
       532  22 -2.854957E+05  3.214075E+02 -2.221137E+03  4.823378E+04 -7.243411E+02 -6.317027E+03
       532  23 -2.852703E+05  1.246248E+02 -3.175218E+03  4.276527E+04 -2.297034E+03 -9.526977E+03
       532  24 -2.855004E+05 -7.322140E+02 -5.342217E+03  4.823719E+04 -3.872102E+03 -1.208519E+04
       532  25 -1.975879E+05  2.091669E+04  1.281388E+04  4.859325E+04 -6.690222E+03 -6.336502E+03
       532  26 -1.489966E+05  3.210646E+04  2.042675E+04  4.295263E+04 -7.162196E+03 -9.542592E+03
       532  27 -1.006665E+05  4.282752E+04  2.759176E+04  4.825227E+04 -7.636563E+03 -1.209702E+04
       533   1 -5.030607E+05 -5.158949E+04 -4.591683E+04  4.630287E+04  1.669923E+02  1.381180E+04
       533   2 -5.483506E+05 -6.803539E+04 -6.443491E+04  4.878571E+04  1.947170E+04  1.277899E+04
       533   3 -6.001213E+05 -1.000557E+05 -9.943434E+04  6.173509E+04  3.879764E+04  4.100318E+03
       533   4 -2.863430E+05 -4.124474E+02 -6.907645E+03  4.812228E+04  4.776910E+03  1.382617E+04
       533   5 -2.842301E+05 -4.820770E+03 -1.237655E+04  4.292363E+04  1.116955E+04  1.275216E+04
       533   6 -2.863546E+05 -2.255705E+04 -2.535316E+04  4.819197E+04  1.758518E+04  4.033305E+03
       533   7 -6.957946E+04  5.076199E+04  3.209980E+04  4.994230E+04  9.388392E+03  1.384055E+04
       533   8 -2.004245E+04  5.838980E+04  3.967869E+04  3.705894E+04  2.863950E+03  1.272549E+04
       533   9  2.750421E+04  5.493553E+04  4.872303E+04  3.464190E+04 -3.637944E+03  3.967236E+03
       533  10 -5.030608E+05 -5.158969E+04 -4.591719E+04  4.630287E+04 -3.136484E-09 -6.122455E-09
       533  11 -5.483511E+05 -6.803566E+04 -6.443593E+04  4.878551E+04 -3.376524E-09 -2.958140E-09
       533  12 -6.001230E+05 -1.000561E+05 -9.943721E+04  6.173496E+04 -4.164195E-09 -2.339315E-09
       533  13 -2.863431E+05 -4.126588E+02 -6.908047E+03  4.812222E+04  1.174058E-09 -9.758571E-09
       533  14 -2.842303E+05 -4.820978E+03 -1.237709E+04  4.292351E+04  1.990957E-10 -1.874508E-08
       533  15 -2.863549E+05 -2.255715E+04 -2.535377E+04  4.819192E+04  4.411138E-09 -7.533887E-09
       533  16 -6.957961E+04  5.076176E+04  3.209927E+04  4.994220E+04  3.367393E-09 -7.155782E-10
       533  17 -2.004250E+04  5.838962E+04  3.967837E+04  3.705892E+04  3.878943E-09 -3.762627E-09
       533  18  2.750419E+04  5.493551E+04  4.872297E+04  3.464191E+04  5.222931E-09 -1.187833E-09
       533  19 -5.030607E+05 -5.158949E+04 -4.591683E+04  4.630287E+04 -1.669923E+02 -1.381180E+04
       533  20 -5.483506E+05 -6.803539E+04 -6.443491E+04  4.878571E+04 -1.947170E+04 -1.277899E+04
       533  21 -6.001213E+05 -1.000557E+05 -9.943434E+04  6.173509E+04 -3.879764E+04 -4.100318E+03
       533  22 -2.863430E+05 -4.124474E+02 -6.907645E+03  4.812228E+04 -4.776910E+03 -1.382617E+04
       533  23 -2.842301E+05 -4.820770E+03 -1.237655E+04  4.292363E+04 -1.116955E+04 -1.275216E+04
       533  24 -2.863546E+05 -2.255705E+04 -2.535316E+04  4.819197E+04 -1.758518E+04 -4.033305E+03
       533  25 -6.957946E+04  5.076199E+04  3.209980E+04  4.994230E+04 -9.388392E+03 -1.384055E+04
       533  26 -2.004245E+04  5.838980E+04  3.967869E+04  3.705894E+04 -2.863950E+03 -1.272549E+04
       533  27  2.750421E+04  5.493553E+04  4.872303E+04  3.464190E+04  3.637944E+03 -3.967236E+03
       534   1 -1.584116E+05  4.800763E+03  3.148584E+03  1.080518E+04 -4.310377E+03 -4.111089E+02
       534   2 -1.803616E+05  5.765962E+03  1.397180E+03  7.931500E+03 -3.512981E+03 -8.755452E+02
       534   3 -2.040472E+05  4.923988E+02 -2.446788E+03  1.476258E+04 -2.719855E+03  5.575105E+01
       534   4 -2.042706E+05 -6.597135E+03 -8.084779E+03  1.383011E+04 -5.339504E+03 -4.142642E+02
       534   5 -2.032947E+05  1.390866E+02 -3.838015E+03  8.967014E+03 -3.308737E+03 -8.749313E+02
       534   6 -2.042696E+05  4.221431E+02 -2.540717E+03  1.380880E+04 -1.282228E+03  6.015269E+01
       534   7 -2.501277E+05 -1.799515E+04 -1.931829E+04  1.685482E+04 -6.368554E+03 -4.174297E+02
       534   8 -2.262273E+05 -5.487821E+03 -9.073244E+03  1.000249E+04 -3.104500E+03 -8.743166E+02
       534   9 -2.044919E+05  3.518920E+02 -2.634638E+03  1.285502E+04  1.553980E+02  6.454991E+01
       534  10 -1.584116E+05  4.800758E+03  3.148548E+03  1.080518E+04  2.054704E-09  5.202416E-13
       534  11 -1.803616E+05  5.765958E+03  1.397155E+03  7.931498E+03 -4.336586E-09 -5.740080E-09
       534  12 -2.040473E+05  4.923968E+02 -2.446802E+03  1.476258E+04 -1.430023E-08 -2.429102E-09
       534  13 -2.042707E+05 -6.597143E+03 -8.084833E+03  1.383011E+04 -6.961087E-10  4.924045E-09
       534  14 -2.032947E+05  1.390828E+02 -3.838037E+03  8.967011E+03  5.517220E-10 -5.395749E-09
       534  15 -2.042696E+05  4.221427E+02 -2.540720E+03  1.380880E+04  1.802314E-09 -6.496639E-09
       534  16 -2.501278E+05 -1.799516E+04 -1.931836E+04  1.685482E+04 -4.563994E-09  2.175589E-09
       534  17 -2.262273E+05 -5.487825E+03 -9.073263E+03  1.000249E+04  7.296404E-09 -1.111632E-08
       534  18 -2.044919E+05  3.518920E+02 -2.634638E+03  1.285502E+04  1.438039E-08 -7.340028E-09
       534  19 -1.584116E+05  4.800763E+03  3.148584E+03  1.080518E+04  4.310377E+03  4.111089E+02
       534  20 -1.803616E+05  5.765962E+03  1.397180E+03  7.931500E+03  3.512981E+03  8.755452E+02
       534  21 -2.040472E+05  4.923988E+02 -2.446788E+03  1.476258E+04  2.719855E+03 -5.575104E+01
       534  22 -2.042706E+05 -6.597135E+03 -8.084779E+03  1.383011E+04  5.339504E+03  4.142642E+02
       534  23 -2.032947E+05  1.390866E+02 -3.838015E+03  8.967014E+03  3.308737E+03  8.749313E+02
       534  24 -2.042696E+05  4.221431E+02 -2.540717E+03  1.380880E+04  1.282228E+03 -6.015269E+01
       534  25 -2.501277E+05 -1.799515E+04 -1.931829E+04  1.685482E+04  6.368554E+03  4.174297E+02
       534  26 -2.262273E+05 -5.487821E+03 -9.073244E+03  1.000249E+04  3.104500E+03  8.743166E+02
       534  27 -2.044919E+05  3.518920E+02 -2.634638E+03  1.285502E+04 -1.553980E+02 -6.454991E+01
       535   1 -2.226708E+05 -4.876079E+03 -6.399285E+03  1.361503E+04 -1.924438E+03  9.273562E+02
       535   2 -2.453129E+05 -1.006496E+04 -1.104315E+04  8.796585E+03 -1.039191E+03  2.120554E+03
       535   3 -2.682490E+05 -1.567582E+04 -1.638605E+04  1.372691E+04 -1.540500E+02  3.365586E+03
       535   4 -2.039034E+05 -2.890774E+02 -2.243083E+03  1.382476E+04 -8.953531E+02  9.304996E+02
       535   5 -2.037527E+05  8.410660E+01 -1.872437E+03  8.949914E+03  3.572811E+01  2.123810E+03
       535   6 -2.039039E+05  2.749496E+01 -2.232540E+03  1.382380E+04  9.667354E+02  3.368955E+03
       535   7 -1.851357E+05  4.297901E+03  1.913102E+03  1.403449E+04  1.337620E+02  9.336436E+02
       535   8 -1.621908E+05  1.023306E+04  7.298170E+03  9.103253E+03  1.110718E+03  2.127066E+03
       535   9 -1.395550E+05  1.573053E+04  1.192072E+04  1.392069E+04  2.087636E+03  3.372323E+03
       535  10 -2.226708E+05 -4.876081E+03 -6.399293E+03  1.361503E+04  3.051133E-09  2.792774E-10
       535  11 -2.453129E+05 -1.006497E+04 -1.104316E+04  8.796587E+03  6.844178E-09 -8.190752E-09
       535  12 -2.682490E+05 -1.567583E+04 -1.638607E+04  1.372691E+04  5.037353E-09  2.240720E-10
       535  13 -2.039034E+05 -2.890785E+02 -2.243086E+03  1.382476E+04 -1.084698E-09 -4.049228E-09
       535  14 -2.037527E+05  8.410175E+01 -1.872445E+03  8.949914E+03  2.665725E-10  3.457522E-09
       535  15 -2.039039E+05  2.748253E+01 -2.232563E+03  1.382379E+04  2.230520E-09  3.136652E-09
       535  16 -1.851357E+05  4.297900E+03  1.913100E+03  1.403449E+04 -6.216618E-09  1.921781E-09
       535  17 -1.621908E+05  1.023305E+04  7.298159E+03  9.103251E+03 -4.601096E-09 -5.232519E-09
       535  18 -1.395550E+05  1.573051E+04  1.192069E+04  1.392069E+04 -4.826801E-09  4.237290E-09
       535  19 -2.226708E+05 -4.876079E+03 -6.399285E+03  1.361503E+04  1.924438E+03 -9.273562E+02
       535  20 -2.453129E+05 -1.006496E+04 -1.104315E+04  8.796585E+03  1.039191E+03 -2.120554E+03
       535  21 -2.682490E+05 -1.567582E+04 -1.638605E+04  1.372691E+04  1.540500E+02 -3.365586E+03
       535  22 -2.039034E+05 -2.890774E+02 -2.243083E+03  1.382476E+04  8.953531E+02 -9.304996E+02
       535  23 -2.037527E+05  8.410660E+01 -1.872437E+03  8.949914E+03 -3.572811E+01 -2.123810E+03
       535  24 -2.039039E+05  2.749496E+01 -2.232540E+03  1.382380E+04 -9.667354E+02 -3.368955E+03
       535  25 -1.851357E+05  4.297901E+03  1.913102E+03  1.403449E+04 -1.337620E+02 -9.336436E+02
       535  26 -1.621908E+05  1.023306E+04  7.298170E+03  9.103253E+03 -1.110718E+03 -2.127066E+03
       535  27 -1.395550E+05  1.573053E+04  1.192072E+04  1.392069E+04 -2.087636E+03 -3.372323E+03
       536   1 -2.873019E+05 -2.020109E+04 -2.108343E+04  1.333694E+04  2.229014E+02  4.132637E+03
       536   2 -3.096855E+05 -2.578842E+04 -2.752955E+04  8.853202E+03  2.469599E+03  5.349386E+03
       536   3 -3.328360E+05 -3.300192E+04 -3.586131E+04  1.410317E+04  4.717041E+03  6.339584E+03
       536   4 -2.040002E+05  1.574584E+02 -2.629485E+03  1.381929E+04  1.392302E+03  4.136121E+03
       536   5 -2.036348E+05  1.169951E+02 -4.083361E+03  8.954963E+03  3.439116E+03  5.352202E+03
       536   6 -2.040020E+05 -1.514698E+03 -7.283768E+03  1.382425E+04  5.486756E+03  6.341748E+03
       536   7 -1.206921E+05  2.051554E+04  1.582404E+04  1.430170E+04  2.561857E+03  4.139606E+03
       536   8 -9.757370E+04  2.602166E+04  1.936214E+04  9.056733E+03  4.408797E+03  5.355017E+03
       536   9 -7.515244E+04  2.997140E+04  2.129274E+04  1.354526E+04  6.256629E+03  6.343911E+03
       536  10 -2.873019E+05 -2.020111E+04 -2.108347E+04  1.333694E+04  1.609231E-08  7.678375E-10
       536  11 -3.096855E+05 -2.578846E+04 -2.752961E+04  8.853192E+03  6.623658E-09  7.460218E-09
       536  12 -3.328360E+05 -3.300197E+04 -3.586143E+04  1.410314E+04 -4.984476E-09 -1.462616E-09
       536  13 -2.040002E+05  1.574395E+02 -2.629521E+03  1.381929E+04  1.634234E-10 -6.727085E-09
       536  14 -2.036349E+05  1.169612E+02 -4.083437E+03  8.954948E+03 -7.521779E-10  5.815327E-09
       536  15 -2.040020E+05 -1.514750E+03 -7.283900E+03  1.382422E+04  2.510584E-09  3.814472E-09
       536  16 -1.206921E+05  2.051552E+04  1.582399E+04  1.430169E+04 -1.980174E-08 -3.571154E-09
       536  17 -9.757373E+04  2.602162E+04  1.936204E+04  9.056714E+03 -4.752774E-09 -1.364120E-08
       536  18 -7.515249E+04  2.997135E+04  2.129260E+04  1.354523E+04  5.407136E-09  3.589832E-11
       536  19 -2.873019E+05 -2.020109E+04 -2.108343E+04  1.333694E+04 -2.229014E+02 -4.132637E+03
       536  20 -3.096855E+05 -2.578842E+04 -2.752955E+04  8.853202E+03 -2.469599E+03 -5.349386E+03
       536  21 -3.328360E+05 -3.300192E+04 -3.586131E+04  1.410317E+04 -4.717041E+03 -6.339584E+03
       536  22 -2.040002E+05  1.574584E+02 -2.629485E+03  1.381929E+04 -1.392302E+03 -4.136121E+03
       536  23 -2.036348E+05  1.169951E+02 -4.083361E+03  8.954963E+03 -3.439116E+03 -5.352202E+03
       536  24 -2.040020E+05 -1.514698E+03 -7.283768E+03  1.382425E+04 -5.486756E+03 -6.341748E+03
       536  25 -1.206921E+05  2.051554E+04  1.582404E+04  1.430170E+04 -2.561857E+03 -4.139606E+03
       536  26 -9.757370E+04  2.602166E+04  1.936214E+04  9.056733E+03 -4.408797E+03 -5.355017E+03
       536  27 -7.515244E+04  2.997140E+04  2.129274E+04  1.354526E+04 -6.256629E+03 -6.343911E+03
       537   1 -3.534352E+05 -3.465184E+04 -4.172325E+04  9.395167E+03  4.507257E+03  7.549038E+03
       537   2 -3.719153E+05 -4.129735E+04 -5.353266E+04  1.314772E+04  1.714770E+04  7.600892E+03
       537   3 -3.990679E+05 -7.581591E+04 -8.055447E+04  2.644933E+04  2.980169E+04  2.531123E+03
       537   4 -2.055921E+05  1.483883E+03 -9.081172E+03  1.375861E+04  6.784502E+03  7.555570E+03
       537   5 -2.016521E+05  3.825566E+02 -1.530475E+04  9.025383E+03  1.490157E+04  7.594218E+03
       537   6 -2.055974E+05 -2.780237E+04 -3.359614E+04  1.384156E+04  2.303279E+04  2.511525E+03
       537   7 -5.772851E+04  3.761820E+04  2.355959E+04  1.812310E+04  9.062282E+03  7.562133E+03
       537   8 -3.136177E+04  4.206055E+04  2.292135E+04  4.901880E+03  1.265483E+04  7.587574E+03
       537   9 -1.209217E+04  2.020905E+04  1.335974E+04  1.229825E+03  1.626178E+04  2.492207E+03
       537  10 -3.534352E+05 -3.465191E+04 -4.172339E+04  9.395140E+03 -5.849606E-09 -7.893226E-10
       537  11 -3.719157E+05 -4.129749E+04 -5.353332E+04  1.314762E+04  9.923467E-10 -2.292869E-09
       537  12 -3.990689E+05 -7.581616E+04 -8.055615E+04  2.644927E+04  5.785771E-09  7.390568E-09
       537  13 -2.055922E+05  1.483809E+03 -9.081366E+03  1.375857E+04 -5.372340E-10  6.769647E-09
       537  14 -2.016523E+05  3.824350E+02 -1.530528E+04  9.025292E+03  7.512050E-10  4.705266E-09
       537  15 -2.055980E+05 -2.780252E+04 -3.359715E+04  1.384151E+04  3.200219E-09  4.082172E-09
       537  16 -5.772861E+04  3.761812E+04  2.355932E+04  1.812304E+04  3.282235E-09  7.519391E-09
       537  17 -3.136195E+04  4.206045E+04  2.292094E+04  4.901803E+03  4.537485E-10  1.054455E-08
       537  18 -1.209245E+04  2.020898E+04  1.335923E+04  1.229792E+03 -5.372547E-09  5.513072E-10
       537  19 -3.534352E+05 -3.465184E+04 -4.172325E+04  9.395167E+03 -4.507257E+03 -7.549038E+03
       537  20 -3.719153E+05 -4.129735E+04 -5.353266E+04  1.314772E+04 -1.714770E+04 -7.600892E+03
       537  21 -3.990679E+05 -7.581591E+04 -8.055447E+04  2.644933E+04 -2.980169E+04 -2.531123E+03
       537  22 -2.055921E+05  1.483883E+03 -9.081172E+03  1.375861E+04 -6.784502E+03 -7.555570E+03
       537  23 -2.016521E+05  3.825566E+02 -1.530475E+04  9.025383E+03 -1.490157E+04 -7.594218E+03
       537  24 -2.055974E+05 -2.780237E+04 -3.359614E+04  1.384156E+04 -2.303279E+04 -2.511525E+03
       537  25 -5.772851E+04  3.761820E+04  2.355959E+04  1.812310E+04 -9.062282E+03 -7.562133E+03
       537  26 -3.136177E+04  4.206055E+04  2.292135E+04  4.901880E+03 -1.265483E+04 -7.587574E+03
       537  27 -1.209217E+04  2.020905E+04  1.335974E+04  1.229825E+03 -1.626178E+04 -2.492207E+03
