    1C
    1UUSER                                                              
    1UDATE              11.october.2022                                 
    1UTIME              17:47:54                                        
    1UHOST                                                              
    1UPGM               CalculiX                                        
    1UVERSION           Version 2.20                             
    1UCOMPILETIME       Sun Jul 31 18:08:37 CEST 2022                    
    1UDIR                                                               
    1UDBN                                                               
    1UMAT    1MESH_MATERIAL                                             
    2C                           841                                     1
 -1         1 0.00000E+00 0.00000E+00 0.00000E+00
 -1         2 1.66667E-02 0.00000E+00 0.00000E+00
 -1         3 3.33333E-02 0.00000E+00 0.00000E+00
 -1         4 5.00000E-02 0.00000E+00 0.00000E+00
 -1         5 6.66667E-02 0.00000E+00 0.00000E+00
 -1         8 0.00000E+00 6.25000E-03 0.00000E+00
 -1         9 1.66667E-02 6.25000E-03 0.00000E+00
 -1        10 3.33333E-02 6.25000E-03 0.00000E+00
 -1        11 5.00000E-02 6.25000E-03 0.00000E+00
 -1        12 6.66667E-02 6.25000E-03 0.00000E+00
 -1        15 0.00000E+00 1.25000E-02 0.00000E+00
 -1        16 1.66667E-02 1.25000E-02 0.00000E+00
 -1        17 3.33333E-02 1.25000E-02 0.00000E+00
 -1        18 5.00000E-02 1.25000E-02 0.00000E+00
 -1        19 6.66667E-02 1.25000E-02 0.00000E+00
 -1        20 8.33333E-02 1.25000E-02 0.00000E+00
 -1        21 1.00000E-01 1.25000E-02 0.00000E+00
 -1        22 0.00000E+00 1.87500E-02 0.00000E+00
 -1        23 1.66667E-02 1.87500E-02 0.00000E+00
 -1        24 3.33333E-02 1.87500E-02 0.00000E+00
 -1        25 5.00000E-02 1.87500E-02 0.00000E+00
 -1        26 6.66667E-02 1.87500E-02 0.00000E+00
 -1        27 8.33333E-02 1.87500E-02 0.00000E+00
 -1        28 1.00000E-01 1.87500E-02 0.00000E+00
 -1        29 0.00000E+00 2.50000E-02 0.00000E+00
 -1        30 1.66667E-02 2.50000E-02 0.00000E+00
 -1        31 3.33333E-02 2.50000E-02 0.00000E+00
 -1        32 5.00000E-02 2.50000E-02 0.00000E+00
 -1        33 6.66667E-02 2.50000E-02 0.00000E+00
 -1        34 8.33333E-02 2.50000E-02 0.00000E+00
 -1        35 1.00000E-01 2.50000E-02 0.00000E+00
 -1        36 1.04167E-03 0.00000E+00 0.00000E+00
 -1        37 2.08333E-03 0.00000E+00 0.00000E+00
 -1        38 3.12500E-03 0.00000E+00 0.00000E+00
 -1        39 4.16667E-03 0.00000E+00 0.00000E+00
 -1        40 5.20833E-03 0.00000E+00 0.00000E+00
 -1        41 6.25000E-03 0.00000E+00 0.00000E+00
 -1        42 7.29167E-03 0.00000E+00 0.00000E+00
 -1        43 8.33333E-03 0.00000E+00 0.00000E+00
 -1        44 9.37500E-03 0.00000E+00 0.00000E+00
 -1        45 1.04167E-02 0.00000E+00 0.00000E+00
 -1        46 1.14583E-02 0.00000E+00 0.00000E+00
 -1        47 1.25000E-02 0.00000E+00 0.00000E+00
 -1        48 1.35417E-02 0.00000E+00 0.00000E+00
 -1        49 1.45833E-02 0.00000E+00 0.00000E+00
 -1        50 1.56250E-02 0.00000E+00 0.00000E+00
 -1        51 0.00000E+00 1.04167E-03 0.00000E+00
 -1        52 0.00000E+00 2.08333E-03 0.00000E+00
 -1        53 0.00000E+00 3.12500E-03 0.00000E+00
 -1        54 0.00000E+00 4.16667E-03 0.00000E+00
 -1        55 0.00000E+00 5.20833E-03 0.00000E+00
 -1        56 1.04167E-03 3.90630E-04 0.00000E+00
 -1        57 2.08333E-03 7.81250E-04 0.00000E+00
 -1        58 3.12500E-03 1.17188E-03 0.00000E+00
 -1        59 4.16667E-03 1.56250E-03 0.00000E+00
 -1        60 5.20833E-03 1.95312E-03 0.00000E+00
 -1        61 6.25000E-03 2.34375E-03 0.00000E+00
 -1        62 7.29167E-03 2.73438E-03 0.00000E+00
 -1        63 8.33333E-03 3.12500E-03 0.00000E+00
 -1        64 9.37500E-03 3.51563E-03 0.00000E+00
 -1        65 1.04167E-02 3.90625E-03 0.00000E+00
 -1        66 1.14583E-02 4.29688E-03 0.00000E+00
 -1        67 1.25000E-02 4.68750E-03 0.00000E+00
 -1        68 1.35417E-02 5.07813E-03 0.00000E+00
 -1        69 1.45833E-02 5.46875E-03 0.00000E+00
 -1        70 1.56250E-02 5.85938E-03 0.00000E+00
 -1        71 1.77083E-02 0.00000E+00 0.00000E+00
 -1        72 1.87500E-02 0.00000E+00 0.00000E+00
 -1        73 1.97917E-02 0.00000E+00 0.00000E+00
 -1        74 2.08333E-02 0.00000E+00 0.00000E+00
 -1        75 2.18750E-02 0.00000E+00 0.00000E+00
 -1        76 2.29167E-02 0.00000E+00 0.00000E+00
 -1        77 2.39583E-02 0.00000E+00 0.00000E+00
 -1        78 2.50000E-02 0.00000E+00 0.00000E+00
 -1        79 2.60417E-02 0.00000E+00 0.00000E+00
 -1        80 2.70833E-02 0.00000E+00 0.00000E+00
 -1        81 2.81250E-02 0.00000E+00 0.00000E+00
 -1        82 2.91667E-02 0.00000E+00 0.00000E+00
 -1        83 3.02083E-02 0.00000E+00 0.00000E+00
 -1        84 3.12500E-02 0.00000E+00 0.00000E+00
 -1        85 3.22917E-02 0.00000E+00 0.00000E+00
 -1        86 1.66667E-02 1.04167E-03 0.00000E+00
 -1        87 1.66667E-02 2.08333E-03 0.00000E+00
 -1        88 1.66667E-02 3.12500E-03 0.00000E+00
 -1        89 1.66667E-02 4.16667E-03 0.00000E+00
 -1        90 1.66667E-02 5.20833E-03 0.00000E+00
 -1        91 1.77083E-02 3.90630E-04 0.00000E+00
 -1        92 1.87500E-02 7.81250E-04 0.00000E+00
 -1        93 1.97917E-02 1.17188E-03 0.00000E+00
 -1        94 2.08333E-02 1.56250E-03 0.00000E+00
 -1        95 2.18750E-02 1.95312E-03 0.00000E+00
 -1        96 2.29167E-02 2.34375E-03 0.00000E+00
 -1        97 2.39583E-02 2.73438E-03 0.00000E+00
 -1        98 2.50000E-02 3.12500E-03 0.00000E+00
 -1        99 2.60417E-02 3.51563E-03 0.00000E+00
 -1       100 2.70833E-02 3.90625E-03 0.00000E+00
 -1       101 2.81250E-02 4.29688E-03 0.00000E+00
 -1       102 2.91667E-02 4.68750E-03 0.00000E+00
 -1       103 3.02083E-02 5.07813E-03 0.00000E+00
 -1       104 3.12500E-02 5.46875E-03 0.00000E+00
 -1       105 3.22917E-02 5.85938E-03 0.00000E+00
 -1       106 3.43750E-02 0.00000E+00 0.00000E+00
 -1       107 3.54167E-02 0.00000E+00 0.00000E+00
 -1       108 3.64583E-02 0.00000E+00 0.00000E+00
 -1       109 3.75000E-02 0.00000E+00 0.00000E+00
 -1       110 3.85417E-02 0.00000E+00 0.00000E+00
 -1       111 3.95833E-02 0.00000E+00 0.00000E+00
 -1       112 4.06250E-02 0.00000E+00 0.00000E+00
 -1       113 4.16667E-02 0.00000E+00 0.00000E+00
 -1       114 4.27083E-02 0.00000E+00 0.00000E+00
 -1       115 4.37500E-02 0.00000E+00 0.00000E+00
 -1       116 4.47917E-02 0.00000E+00 0.00000E+00
 -1       117 4.58333E-02 0.00000E+00 0.00000E+00
 -1       118 4.68750E-02 0.00000E+00 0.00000E+00
 -1       119 4.79167E-02 0.00000E+00 0.00000E+00
 -1       120 4.89583E-02 0.00000E+00 0.00000E+00
 -1       121 3.33333E-02 1.04167E-03 0.00000E+00
 -1       122 3.33333E-02 2.08333E-03 0.00000E+00
 -1       123 3.33333E-02 3.12500E-03 0.00000E+00
 -1       124 3.33333E-02 4.16667E-03 0.00000E+00
 -1       125 3.33333E-02 5.20833E-03 0.00000E+00
 -1       126 3.43750E-02 3.90630E-04 0.00000E+00
 -1       127 3.54167E-02 7.81250E-04 0.00000E+00
 -1       128 3.64583E-02 1.17188E-03 0.00000E+00
 -1       129 3.75000E-02 1.56250E-03 0.00000E+00
 -1       130 3.85417E-02 1.95312E-03 0.00000E+00
 -1       131 3.95833E-02 2.34375E-03 0.00000E+00
 -1       132 4.06250E-02 2.73438E-03 0.00000E+00
 -1       133 4.16667E-02 3.12500E-03 0.00000E+00
 -1       134 4.27083E-02 3.51563E-03 0.00000E+00
 -1       135 4.37500E-02 3.90625E-03 0.00000E+00
 -1       136 4.47917E-02 4.29688E-03 0.00000E+00
 -1       137 4.58333E-02 4.68750E-03 0.00000E+00
 -1       138 4.68750E-02 5.07813E-03 0.00000E+00
 -1       139 4.79167E-02 5.46875E-03 0.00000E+00
 -1       140 4.89583E-02 5.85938E-03 0.00000E+00
 -1       141 5.10417E-02 0.00000E+00 0.00000E+00
 -1       142 5.20833E-02 0.00000E+00 0.00000E+00
 -1       143 5.31250E-02 0.00000E+00 0.00000E+00
 -1       144 5.41667E-02 0.00000E+00 0.00000E+00
 -1       145 5.52083E-02 0.00000E+00 0.00000E+00
 -1       146 5.62500E-02 0.00000E+00 0.00000E+00
 -1       147 5.72917E-02 0.00000E+00 0.00000E+00
 -1       148 5.83333E-02 0.00000E+00 0.00000E+00
 -1       149 5.93750E-02 0.00000E+00 0.00000E+00
 -1       150 6.04167E-02 0.00000E+00 0.00000E+00
 -1       151 6.14583E-02 0.00000E+00 0.00000E+00
 -1       152 6.25000E-02 0.00000E+00 0.00000E+00
 -1       153 6.35417E-02 0.00000E+00 0.00000E+00
 -1       154 6.45833E-02 0.00000E+00 0.00000E+00
 -1       155 6.56250E-02 0.00000E+00 0.00000E+00
 -1       156 5.00000E-02 1.04167E-03 0.00000E+00
 -1       157 5.00000E-02 2.08333E-03 0.00000E+00
 -1       158 5.00000E-02 3.12500E-03 0.00000E+00
 -1       159 5.00000E-02 4.16667E-03 0.00000E+00
 -1       160 5.00000E-02 5.20833E-03 0.00000E+00
 -1       161 5.10417E-02 3.90630E-04 0.00000E+00
 -1       162 5.20833E-02 7.81250E-04 0.00000E+00
 -1       163 5.31250E-02 1.17188E-03 0.00000E+00
 -1       164 5.41667E-02 1.56250E-03 0.00000E+00
 -1       165 5.52083E-02 1.95312E-03 0.00000E+00
 -1       166 5.62500E-02 2.34375E-03 0.00000E+00
 -1       167 5.72917E-02 2.73438E-03 0.00000E+00
 -1       168 5.83333E-02 3.12500E-03 0.00000E+00
 -1       169 5.93750E-02 3.51563E-03 0.00000E+00
 -1       170 6.04167E-02 3.90625E-03 0.00000E+00
 -1       171 6.14583E-02 4.29688E-03 0.00000E+00
 -1       172 6.25000E-02 4.68750E-03 0.00000E+00
 -1       173 6.35417E-02 5.07813E-03 0.00000E+00
 -1       174 6.45833E-02 5.46875E-03 0.00000E+00
 -1       175 6.56250E-02 5.85938E-03 0.00000E+00
 -1       191 6.66667E-02 1.04167E-03 0.00000E+00
 -1       192 6.66667E-02 2.08333E-03 0.00000E+00
 -1       193 6.66667E-02 3.12500E-03 0.00000E+00
 -1       194 6.66667E-02 4.16667E-03 0.00000E+00
 -1       195 6.66667E-02 5.20833E-03 0.00000E+00
 -1       251 1.04167E-03 6.25000E-03 0.00000E+00
 -1       252 2.08333E-03 6.25000E-03 0.00000E+00
 -1       253 3.12500E-03 6.25000E-03 0.00000E+00
 -1       254 4.16667E-03 6.25000E-03 0.00000E+00
 -1       255 5.20833E-03 6.25000E-03 0.00000E+00
 -1       256 6.25000E-03 6.25000E-03 0.00000E+00
 -1       257 7.29167E-03 6.25000E-03 0.00000E+00
 -1       258 8.33333E-03 6.25000E-03 0.00000E+00
 -1       259 9.37500E-03 6.25000E-03 0.00000E+00
 -1       260 1.04167E-02 6.25000E-03 0.00000E+00
 -1       261 1.14583E-02 6.25000E-03 0.00000E+00
 -1       262 1.25000E-02 6.25000E-03 0.00000E+00
 -1       263 1.35417E-02 6.25000E-03 0.00000E+00
 -1       264 1.45833E-02 6.25000E-03 0.00000E+00
 -1       265 1.56250E-02 6.25000E-03 0.00000E+00
 -1       266 0.00000E+00 7.29167E-03 0.00000E+00
 -1       267 0.00000E+00 8.33333E-03 0.00000E+00
 -1       268 0.00000E+00 9.37500E-03 0.00000E+00
 -1       269 0.00000E+00 1.04167E-02 0.00000E+00
 -1       270 0.00000E+00 1.14583E-02 0.00000E+00
 -1       271 1.04167E-03 6.64063E-03 0.00000E+00
 -1       272 2.08333E-03 7.03125E-03 0.00000E+00
 -1       273 3.12500E-03 7.42188E-03 0.00000E+00
 -1       274 4.16667E-03 7.81250E-03 0.00000E+00
 -1       275 5.20833E-03 8.20313E-03 0.00000E+00
 -1       276 6.25000E-03 8.59375E-03 0.00000E+00
 -1       277 7.29167E-03 8.98438E-03 0.00000E+00
 -1       278 8.33333E-03 9.37500E-03 0.00000E+00
 -1       279 9.37500E-03 9.76562E-03 0.00000E+00
 -1       280 1.04167E-02 1.01562E-02 0.00000E+00
 -1       281 1.14583E-02 1.05469E-02 0.00000E+00
 -1       282 1.25000E-02 1.09375E-02 0.00000E+00
 -1       283 1.35417E-02 1.13281E-02 0.00000E+00
 -1       284 1.45833E-02 1.17188E-02 0.00000E+00
 -1       285 1.56250E-02 1.21094E-02 0.00000E+00
 -1       286 1.77083E-02 6.25000E-03 0.00000E+00
 -1       287 1.87500E-02 6.25000E-03 0.00000E+00
 -1       288 1.97917E-02 6.25000E-03 0.00000E+00
 -1       289 2.08333E-02 6.25000E-03 0.00000E+00
 -1       290 2.18750E-02 6.25000E-03 0.00000E+00
 -1       291 2.29167E-02 6.25000E-03 0.00000E+00
 -1       292 2.39583E-02 6.25000E-03 0.00000E+00
 -1       293 2.50000E-02 6.25000E-03 0.00000E+00
 -1       294 2.60417E-02 6.25000E-03 0.00000E+00
 -1       295 2.70833E-02 6.25000E-03 0.00000E+00
 -1       296 2.81250E-02 6.25000E-03 0.00000E+00
 -1       297 2.91667E-02 6.25000E-03 0.00000E+00
 -1       298 3.02083E-02 6.25000E-03 0.00000E+00
 -1       299 3.12500E-02 6.25000E-03 0.00000E+00
 -1       300 3.22917E-02 6.25000E-03 0.00000E+00
 -1       301 1.66667E-02 7.29167E-03 0.00000E+00
 -1       302 1.66667E-02 8.33333E-03 0.00000E+00
 -1       303 1.66667E-02 9.37500E-03 0.00000E+00
 -1       304 1.66667E-02 1.04167E-02 0.00000E+00
 -1       305 1.66667E-02 1.14583E-02 0.00000E+00
 -1       306 1.77083E-02 6.64063E-03 0.00000E+00
 -1       307 1.87500E-02 7.03125E-03 0.00000E+00
 -1       308 1.97917E-02 7.42188E-03 0.00000E+00
 -1       309 2.08333E-02 7.81250E-03 0.00000E+00
 -1       310 2.18750E-02 8.20313E-03 0.00000E+00
 -1       311 2.29167E-02 8.59375E-03 0.00000E+00
 -1       312 2.39583E-02 8.98438E-03 0.00000E+00
 -1       313 2.50000E-02 9.37500E-03 0.00000E+00
 -1       314 2.60417E-02 9.76562E-03 0.00000E+00
 -1       315 2.70833E-02 1.01562E-02 0.00000E+00
 -1       316 2.81250E-02 1.05469E-02 0.00000E+00
 -1       317 2.91667E-02 1.09375E-02 0.00000E+00
 -1       318 3.02083E-02 1.13281E-02 0.00000E+00
 -1       319 3.12500E-02 1.17188E-02 0.00000E+00
 -1       320 3.22917E-02 1.21094E-02 0.00000E+00
 -1       321 3.43750E-02 6.25000E-03 0.00000E+00
 -1       322 3.54167E-02 6.25000E-03 0.00000E+00
 -1       323 3.64583E-02 6.25000E-03 0.00000E+00
 -1       324 3.75000E-02 6.25000E-03 0.00000E+00
 -1       325 3.85417E-02 6.25000E-03 0.00000E+00
 -1       326 3.95833E-02 6.25000E-03 0.00000E+00
 -1       327 4.06250E-02 6.25000E-03 0.00000E+00
 -1       328 4.16667E-02 6.25000E-03 0.00000E+00
 -1       329 4.27083E-02 6.25000E-03 0.00000E+00
 -1       330 4.37500E-02 6.25000E-03 0.00000E+00
 -1       331 4.47917E-02 6.25000E-03 0.00000E+00
 -1       332 4.58333E-02 6.25000E-03 0.00000E+00
 -1       333 4.68750E-02 6.25000E-03 0.00000E+00
 -1       334 4.79167E-02 6.25000E-03 0.00000E+00
 -1       335 4.89583E-02 6.25000E-03 0.00000E+00
 -1       336 3.33333E-02 7.29167E-03 0.00000E+00
 -1       337 3.33333E-02 8.33333E-03 0.00000E+00
 -1       338 3.33333E-02 9.37500E-03 0.00000E+00
 -1       339 3.33333E-02 1.04167E-02 0.00000E+00
 -1       340 3.33333E-02 1.14583E-02 0.00000E+00
 -1       341 3.43750E-02 6.64063E-03 0.00000E+00
 -1       342 3.54167E-02 7.03125E-03 0.00000E+00
 -1       343 3.64583E-02 7.42188E-03 0.00000E+00
 -1       344 3.75000E-02 7.81250E-03 0.00000E+00
 -1       345 3.85417E-02 8.20313E-03 0.00000E+00
 -1       346 3.95833E-02 8.59375E-03 0.00000E+00
 -1       347 4.06250E-02 8.98438E-03 0.00000E+00
 -1       348 4.16667E-02 9.37500E-03 0.00000E+00
 -1       349 4.27083E-02 9.76562E-03 0.00000E+00
 -1       350 4.37500E-02 1.01562E-02 0.00000E+00
 -1       351 4.47917E-02 1.05469E-02 0.00000E+00
 -1       352 4.58333E-02 1.09375E-02 0.00000E+00
 -1       353 4.68750E-02 1.13281E-02 0.00000E+00
 -1       354 4.79167E-02 1.17188E-02 0.00000E+00
 -1       355 4.89583E-02 1.21094E-02 0.00000E+00
 -1       356 5.10417E-02 6.25000E-03 0.00000E+00
 -1       357 5.20833E-02 6.25000E-03 0.00000E+00
 -1       358 5.31250E-02 6.25000E-03 0.00000E+00
 -1       359 5.41667E-02 6.25000E-03 0.00000E+00
 -1       360 5.52083E-02 6.25000E-03 0.00000E+00
 -1       361 5.62500E-02 6.25000E-03 0.00000E+00
 -1       362 5.72917E-02 6.25000E-03 0.00000E+00
 -1       363 5.83333E-02 6.25000E-03 0.00000E+00
 -1       364 5.93750E-02 6.25000E-03 0.00000E+00
 -1       365 6.04167E-02 6.25000E-03 0.00000E+00
 -1       366 6.14583E-02 6.25000E-03 0.00000E+00
 -1       367 6.25000E-02 6.25000E-03 0.00000E+00
 -1       368 6.35417E-02 6.25000E-03 0.00000E+00
 -1       369 6.45833E-02 6.25000E-03 0.00000E+00
 -1       370 6.56250E-02 6.25000E-03 0.00000E+00
 -1       371 5.00000E-02 7.29167E-03 0.00000E+00
 -1       372 5.00000E-02 8.33333E-03 0.00000E+00
 -1       373 5.00000E-02 9.37500E-03 0.00000E+00
 -1       374 5.00000E-02 1.04167E-02 0.00000E+00
 -1       375 5.00000E-02 1.14583E-02 0.00000E+00
 -1       376 5.10417E-02 6.64063E-03 0.00000E+00
 -1       377 5.20833E-02 7.03125E-03 0.00000E+00
 -1       378 5.31250E-02 7.42188E-03 0.00000E+00
 -1       379 5.41667E-02 7.81250E-03 0.00000E+00
 -1       380 5.52083E-02 8.20313E-03 0.00000E+00
 -1       381 5.62500E-02 8.59375E-03 0.00000E+00
 -1       382 5.72917E-02 8.98438E-03 0.00000E+00
 -1       383 5.83333E-02 9.37500E-03 0.00000E+00
 -1       384 5.93750E-02 9.76562E-03 0.00000E+00
 -1       385 6.04167E-02 1.01562E-02 0.00000E+00
 -1       386 6.14583E-02 1.05469E-02 0.00000E+00
 -1       387 6.25000E-02 1.09375E-02 0.00000E+00
 -1       388 6.35417E-02 1.13281E-02 0.00000E+00
 -1       389 6.45833E-02 1.17188E-02 0.00000E+00
 -1       390 6.56250E-02 1.21094E-02 0.00000E+00
 -1       406 6.66667E-02 7.29167E-03 0.00000E+00
 -1       407 6.66667E-02 8.33333E-03 0.00000E+00
 -1       408 6.66667E-02 9.37500E-03 0.00000E+00
 -1       409 6.66667E-02 1.04167E-02 0.00000E+00
 -1       410 6.66667E-02 1.14583E-02 0.00000E+00
 -1       466 1.04167E-03 1.25000E-02 0.00000E+00
 -1       467 2.08333E-03 1.25000E-02 0.00000E+00
 -1       468 3.12500E-03 1.25000E-02 0.00000E+00
 -1       469 4.16667E-03 1.25000E-02 0.00000E+00
 -1       470 5.20833E-03 1.25000E-02 0.00000E+00
 -1       471 6.25000E-03 1.25000E-02 0.00000E+00
 -1       472 7.29167E-03 1.25000E-02 0.00000E+00
 -1       473 8.33333E-03 1.25000E-02 0.00000E+00
 -1       474 9.37500E-03 1.25000E-02 0.00000E+00
 -1       475 1.04167E-02 1.25000E-02 0.00000E+00
 -1       476 1.14583E-02 1.25000E-02 0.00000E+00
 -1       477 1.25000E-02 1.25000E-02 0.00000E+00
 -1       478 1.35417E-02 1.25000E-02 0.00000E+00
 -1       479 1.45833E-02 1.25000E-02 0.00000E+00
 -1       480 1.56250E-02 1.25000E-02 0.00000E+00
 -1       481 0.00000E+00 1.35417E-02 0.00000E+00
 -1       482 0.00000E+00 1.45833E-02 0.00000E+00
 -1       483 0.00000E+00 1.56250E-02 0.00000E+00
 -1       484 0.00000E+00 1.66667E-02 0.00000E+00
 -1       485 0.00000E+00 1.77083E-02 0.00000E+00
 -1       486 1.04167E-03 1.28906E-02 0.00000E+00
 -1       487 2.08333E-03 1.32813E-02 0.00000E+00
 -1       488 3.12500E-03 1.36719E-02 0.00000E+00
 -1       489 4.16667E-03 1.40625E-02 0.00000E+00
 -1       490 5.20833E-03 1.44531E-02 0.00000E+00
 -1       491 6.25000E-03 1.48437E-02 0.00000E+00
 -1       492 7.29167E-03 1.52344E-02 0.00000E+00
 -1       493 8.33333E-03 1.56250E-02 0.00000E+00
 -1       494 9.37500E-03 1.60156E-02 0.00000E+00
 -1       495 1.04167E-02 1.64062E-02 0.00000E+00
 -1       496 1.14583E-02 1.67969E-02 0.00000E+00
 -1       497 1.25000E-02 1.71875E-02 0.00000E+00
 -1       498 1.35417E-02 1.75781E-02 0.00000E+00
 -1       499 1.45833E-02 1.79687E-02 0.00000E+00
 -1       500 1.56250E-02 1.83594E-02 0.00000E+00
 -1       501 1.77083E-02 1.25000E-02 0.00000E+00
 -1       502 1.87500E-02 1.25000E-02 0.00000E+00
 -1       503 1.97917E-02 1.25000E-02 0.00000E+00
 -1       504 2.08333E-02 1.25000E-02 0.00000E+00
 -1       505 2.18750E-02 1.25000E-02 0.00000E+00
 -1       506 2.29167E-02 1.25000E-02 0.00000E+00
 -1       507 2.39583E-02 1.25000E-02 0.00000E+00
 -1       508 2.50000E-02 1.25000E-02 0.00000E+00
 -1       509 2.60417E-02 1.25000E-02 0.00000E+00
 -1       510 2.70833E-02 1.25000E-02 0.00000E+00
 -1       511 2.81250E-02 1.25000E-02 0.00000E+00
 -1       512 2.91667E-02 1.25000E-02 0.00000E+00
 -1       513 3.02083E-02 1.25000E-02 0.00000E+00
 -1       514 3.12500E-02 1.25000E-02 0.00000E+00
 -1       515 3.22917E-02 1.25000E-02 0.00000E+00
 -1       516 1.66667E-02 1.35417E-02 0.00000E+00
 -1       517 1.66667E-02 1.45833E-02 0.00000E+00
 -1       518 1.66667E-02 1.56250E-02 0.00000E+00
 -1       519 1.66667E-02 1.66667E-02 0.00000E+00
 -1       520 1.66667E-02 1.77083E-02 0.00000E+00
 -1       521 1.77083E-02 1.28906E-02 0.00000E+00
 -1       522 1.87500E-02 1.32813E-02 0.00000E+00
 -1       523 1.97917E-02 1.36719E-02 0.00000E+00
 -1       524 2.08333E-02 1.40625E-02 0.00000E+00
 -1       525 2.18750E-02 1.44531E-02 0.00000E+00
 -1       526 2.29167E-02 1.48437E-02 0.00000E+00
 -1       527 2.39583E-02 1.52344E-02 0.00000E+00
 -1       528 2.50000E-02 1.56250E-02 0.00000E+00
 -1       529 2.60417E-02 1.60156E-02 0.00000E+00
 -1       530 2.70833E-02 1.64062E-02 0.00000E+00
 -1       531 2.81250E-02 1.67969E-02 0.00000E+00
 -1       532 2.91667E-02 1.71875E-02 0.00000E+00
 -1       533 3.02083E-02 1.75781E-02 0.00000E+00
 -1       534 3.12500E-02 1.79687E-02 0.00000E+00
 -1       535 3.22917E-02 1.83594E-02 0.00000E+00
 -1       536 3.43750E-02 1.25000E-02 0.00000E+00
 -1       537 3.54167E-02 1.25000E-02 0.00000E+00
 -1       538 3.64583E-02 1.25000E-02 0.00000E+00
 -1       539 3.75000E-02 1.25000E-02 0.00000E+00
 -1       540 3.85417E-02 1.25000E-02 0.00000E+00
 -1       541 3.95833E-02 1.25000E-02 0.00000E+00
 -1       542 4.06250E-02 1.25000E-02 0.00000E+00
 -1       543 4.16667E-02 1.25000E-02 0.00000E+00
 -1       544 4.27083E-02 1.25000E-02 0.00000E+00
 -1       545 4.37500E-02 1.25000E-02 0.00000E+00
 -1       546 4.47917E-02 1.25000E-02 0.00000E+00
 -1       547 4.58333E-02 1.25000E-02 0.00000E+00
 -1       548 4.68750E-02 1.25000E-02 0.00000E+00
 -1       549 4.79167E-02 1.25000E-02 0.00000E+00
 -1       550 4.89583E-02 1.25000E-02 0.00000E+00
 -1       551 3.33333E-02 1.35417E-02 0.00000E+00
 -1       552 3.33333E-02 1.45833E-02 0.00000E+00
 -1       553 3.33333E-02 1.56250E-02 0.00000E+00
 -1       554 3.33333E-02 1.66667E-02 0.00000E+00
 -1       555 3.33333E-02 1.77083E-02 0.00000E+00
 -1       556 3.43750E-02 1.28906E-02 0.00000E+00
 -1       557 3.54167E-02 1.32813E-02 0.00000E+00
 -1       558 3.64583E-02 1.36719E-02 0.00000E+00
 -1       559 3.75000E-02 1.40625E-02 0.00000E+00
 -1       560 3.85417E-02 1.44531E-02 0.00000E+00
 -1       561 3.95833E-02 1.48437E-02 0.00000E+00
 -1       562 4.06250E-02 1.52344E-02 0.00000E+00
 -1       563 4.16667E-02 1.56250E-02 0.00000E+00
 -1       564 4.27083E-02 1.60156E-02 0.00000E+00
 -1       565 4.37500E-02 1.64062E-02 0.00000E+00
 -1       566 4.47917E-02 1.67969E-02 0.00000E+00
 -1       567 4.58333E-02 1.71875E-02 0.00000E+00
 -1       568 4.68750E-02 1.75781E-02 0.00000E+00
 -1       569 4.79167E-02 1.79687E-02 0.00000E+00
 -1       570 4.89583E-02 1.83594E-02 0.00000E+00
 -1       571 5.10417E-02 1.25000E-02 0.00000E+00
 -1       572 5.20833E-02 1.25000E-02 0.00000E+00
 -1       573 5.31250E-02 1.25000E-02 0.00000E+00
 -1       574 5.41667E-02 1.25000E-02 0.00000E+00
 -1       575 5.52083E-02 1.25000E-02 0.00000E+00
 -1       576 5.62500E-02 1.25000E-02 0.00000E+00
 -1       577 5.72917E-02 1.25000E-02 0.00000E+00
 -1       578 5.83333E-02 1.25000E-02 0.00000E+00
 -1       579 5.93750E-02 1.25000E-02 0.00000E+00
 -1       580 6.04167E-02 1.25000E-02 0.00000E+00
 -1       581 6.14583E-02 1.25000E-02 0.00000E+00
 -1       582 6.25000E-02 1.25000E-02 0.00000E+00
 -1       583 6.35417E-02 1.25000E-02 0.00000E+00
 -1       584 6.45833E-02 1.25000E-02 0.00000E+00
 -1       585 6.56250E-02 1.25000E-02 0.00000E+00
 -1       586 5.00000E-02 1.35417E-02 0.00000E+00
 -1       587 5.00000E-02 1.45833E-02 0.00000E+00
 -1       588 5.00000E-02 1.56250E-02 0.00000E+00
 -1       589 5.00000E-02 1.66667E-02 0.00000E+00
 -1       590 5.00000E-02 1.77083E-02 0.00000E+00
 -1       591 5.10417E-02 1.28906E-02 0.00000E+00
 -1       592 5.20833E-02 1.32813E-02 0.00000E+00
 -1       593 5.31250E-02 1.36719E-02 0.00000E+00
 -1       594 5.41667E-02 1.40625E-02 0.00000E+00
 -1       595 5.52083E-02 1.44531E-02 0.00000E+00
 -1       596 5.62500E-02 1.48437E-02 0.00000E+00
 -1       597 5.72917E-02 1.52344E-02 0.00000E+00
 -1       598 5.83333E-02 1.56250E-02 0.00000E+00
 -1       599 5.93750E-02 1.60156E-02 0.00000E+00
 -1       600 6.04167E-02 1.64062E-02 0.00000E+00
 -1       601 6.14583E-02 1.67969E-02 0.00000E+00
 -1       602 6.25000E-02 1.71875E-02 0.00000E+00
 -1       603 6.35417E-02 1.75781E-02 0.00000E+00
 -1       604 6.45833E-02 1.79687E-02 0.00000E+00
 -1       605 6.56250E-02 1.83594E-02 0.00000E+00
 -1       606 6.77083E-02 1.25000E-02 0.00000E+00
 -1       607 6.87500E-02 1.25000E-02 0.00000E+00
 -1       608 6.97917E-02 1.25000E-02 0.00000E+00
 -1       609 7.08333E-02 1.25000E-02 0.00000E+00
 -1       610 7.18750E-02 1.25000E-02 0.00000E+00
 -1       611 7.29167E-02 1.25000E-02 0.00000E+00
 -1       612 7.39583E-02 1.25000E-02 0.00000E+00
 -1       613 7.50000E-02 1.25000E-02 0.00000E+00
 -1       614 7.60417E-02 1.25000E-02 0.00000E+00
 -1       615 7.70833E-02 1.25000E-02 0.00000E+00
 -1       616 7.81250E-02 1.25000E-02 0.00000E+00
 -1       617 7.91667E-02 1.25000E-02 0.00000E+00
 -1       618 8.02083E-02 1.25000E-02 0.00000E+00
 -1       619 8.12500E-02 1.25000E-02 0.00000E+00
 -1       620 8.22917E-02 1.25000E-02 0.00000E+00
 -1       621 6.66667E-02 1.35417E-02 0.00000E+00
 -1       622 6.66667E-02 1.45833E-02 0.00000E+00
 -1       623 6.66667E-02 1.56250E-02 0.00000E+00
 -1       624 6.66667E-02 1.66667E-02 0.00000E+00
 -1       625 6.66667E-02 1.77083E-02 0.00000E+00
 -1       626 6.77083E-02 1.28906E-02 0.00000E+00
 -1       627 6.87500E-02 1.32813E-02 0.00000E+00
 -1       628 6.97917E-02 1.36719E-02 0.00000E+00
 -1       629 7.08333E-02 1.40625E-02 0.00000E+00
 -1       630 7.18750E-02 1.44531E-02 0.00000E+00
 -1       631 7.29167E-02 1.48437E-02 0.00000E+00
 -1       632 7.39583E-02 1.52344E-02 0.00000E+00
 -1       633 7.50000E-02 1.56250E-02 0.00000E+00
 -1       634 7.60417E-02 1.60156E-02 0.00000E+00
 -1       635 7.70833E-02 1.64062E-02 0.00000E+00
 -1       636 7.81250E-02 1.67969E-02 0.00000E+00
 -1       637 7.91667E-02 1.71875E-02 0.00000E+00
 -1       638 8.02083E-02 1.75781E-02 0.00000E+00
 -1       639 8.12500E-02 1.79687E-02 0.00000E+00
 -1       640 8.22917E-02 1.83594E-02 0.00000E+00
 -1       641 8.43750E-02 1.25000E-02 0.00000E+00
 -1       642 8.54167E-02 1.25000E-02 0.00000E+00
 -1       643 8.64583E-02 1.25000E-02 0.00000E+00
 -1       644 8.75000E-02 1.25000E-02 0.00000E+00
 -1       645 8.85417E-02 1.25000E-02 0.00000E+00
 -1       646 8.95833E-02 1.25000E-02 0.00000E+00
 -1       647 9.06250E-02 1.25000E-02 0.00000E+00
 -1       648 9.16667E-02 1.25000E-02 0.00000E+00
 -1       649 9.27083E-02 1.25000E-02 0.00000E+00
 -1       650 9.37500E-02 1.25000E-02 0.00000E+00
 -1       651 9.47917E-02 1.25000E-02 0.00000E+00
 -1       652 9.58333E-02 1.25000E-02 0.00000E+00
 -1       653 9.68750E-02 1.25000E-02 0.00000E+00
 -1       654 9.79167E-02 1.25000E-02 0.00000E+00
 -1       655 9.89583E-02 1.25000E-02 0.00000E+00
 -1       656 8.33333E-02 1.35417E-02 0.00000E+00
 -1       657 8.33333E-02 1.45833E-02 0.00000E+00
 -1       658 8.33333E-02 1.56250E-02 0.00000E+00
 -1       659 8.33333E-02 1.66667E-02 0.00000E+00
 -1       660 8.33333E-02 1.77083E-02 0.00000E+00
 -1       661 8.43750E-02 1.28906E-02 0.00000E+00
 -1       662 8.54167E-02 1.32813E-02 0.00000E+00
 -1       663 8.64583E-02 1.36719E-02 0.00000E+00
 -1       664 8.75000E-02 1.40625E-02 0.00000E+00
 -1       665 8.85417E-02 1.44531E-02 0.00000E+00
 -1       666 8.95833E-02 1.48437E-02 0.00000E+00
 -1       667 9.06250E-02 1.52344E-02 0.00000E+00
 -1       668 9.16667E-02 1.56250E-02 0.00000E+00
 -1       669 9.27083E-02 1.60156E-02 0.00000E+00
 -1       670 9.37500E-02 1.64062E-02 0.00000E+00
 -1       671 9.47917E-02 1.67969E-02 0.00000E+00
 -1       672 9.58333E-02 1.71875E-02 0.00000E+00
 -1       673 9.68750E-02 1.75781E-02 0.00000E+00
 -1       674 9.79167E-02 1.79687E-02 0.00000E+00
 -1       675 9.89583E-02 1.83594E-02 0.00000E+00
 -1       676 1.00000E-01 1.35417E-02 0.00000E+00
 -1       677 1.00000E-01 1.45833E-02 0.00000E+00
 -1       678 1.00000E-01 1.56250E-02 0.00000E+00
 -1       679 1.00000E-01 1.66667E-02 0.00000E+00
 -1       680 1.00000E-01 1.77083E-02 0.00000E+00
 -1       681 1.04167E-03 1.87500E-02 0.00000E+00
 -1       682 2.08333E-03 1.87500E-02 0.00000E+00
 -1       683 3.12500E-03 1.87500E-02 0.00000E+00
 -1       684 4.16667E-03 1.87500E-02 0.00000E+00
 -1       685 5.20833E-03 1.87500E-02 0.00000E+00
 -1       686 6.25000E-03 1.87500E-02 0.00000E+00
 -1       687 7.29167E-03 1.87500E-02 0.00000E+00
 -1       688 8.33333E-03 1.87500E-02 0.00000E+00
 -1       689 9.37500E-03 1.87500E-02 0.00000E+00
 -1       690 1.04167E-02 1.87500E-02 0.00000E+00
 -1       691 1.14583E-02 1.87500E-02 0.00000E+00
 -1       692 1.25000E-02 1.87500E-02 0.00000E+00
 -1       693 1.35417E-02 1.87500E-02 0.00000E+00
 -1       694 1.45833E-02 1.87500E-02 0.00000E+00
 -1       695 1.56250E-02 1.87500E-02 0.00000E+00
 -1       696 0.00000E+00 1.97917E-02 0.00000E+00
 -1       697 0.00000E+00 2.08333E-02 0.00000E+00
 -1       698 0.00000E+00 2.18750E-02 0.00000E+00
 -1       699 0.00000E+00 2.29167E-02 0.00000E+00
 -1       700 0.00000E+00 2.39583E-02 0.00000E+00
 -1       701 1.04167E-03 1.91406E-02 0.00000E+00
 -1       702 2.08333E-03 1.95312E-02 0.00000E+00
 -1       703 3.12500E-03 1.99219E-02 0.00000E+00
 -1       704 4.16667E-03 2.03125E-02 0.00000E+00
 -1       705 5.20833E-03 2.07031E-02 0.00000E+00
 -1       706 6.25000E-03 2.10938E-02 0.00000E+00
 -1       707 7.29167E-03 2.14844E-02 0.00000E+00
 -1       708 8.33333E-03 2.18750E-02 0.00000E+00
 -1       709 9.37500E-03 2.22656E-02 0.00000E+00
 -1       710 1.04167E-02 2.26563E-02 0.00000E+00
 -1       711 1.14583E-02 2.30469E-02 0.00000E+00
 -1       712 1.25000E-02 2.34375E-02 0.00000E+00
 -1       713 1.35417E-02 2.38281E-02 0.00000E+00
 -1       714 1.45833E-02 2.42187E-02 0.00000E+00
 -1       715 1.56250E-02 2.46094E-02 0.00000E+00
 -1       716 1.77083E-02 1.87500E-02 0.00000E+00
 -1       717 1.87500E-02 1.87500E-02 0.00000E+00
 -1       718 1.97917E-02 1.87500E-02 0.00000E+00
 -1       719 2.08333E-02 1.87500E-02 0.00000E+00
 -1       720 2.18750E-02 1.87500E-02 0.00000E+00
 -1       721 2.29167E-02 1.87500E-02 0.00000E+00
 -1       722 2.39583E-02 1.87500E-02 0.00000E+00
 -1       723 2.50000E-02 1.87500E-02 0.00000E+00
 -1       724 2.60417E-02 1.87500E-02 0.00000E+00
 -1       725 2.70833E-02 1.87500E-02 0.00000E+00
 -1       726 2.81250E-02 1.87500E-02 0.00000E+00
 -1       727 2.91667E-02 1.87500E-02 0.00000E+00
 -1       728 3.02083E-02 1.87500E-02 0.00000E+00
 -1       729 3.12500E-02 1.87500E-02 0.00000E+00
 -1       730 3.22917E-02 1.87500E-02 0.00000E+00
 -1       731 1.66667E-02 1.97917E-02 0.00000E+00
 -1       732 1.66667E-02 2.08333E-02 0.00000E+00
 -1       733 1.66667E-02 2.18750E-02 0.00000E+00
 -1       734 1.66667E-02 2.29167E-02 0.00000E+00
 -1       735 1.66667E-02 2.39583E-02 0.00000E+00
 -1       736 1.77083E-02 1.91406E-02 0.00000E+00
 -1       737 1.87500E-02 1.95312E-02 0.00000E+00
 -1       738 1.97917E-02 1.99219E-02 0.00000E+00
 -1       739 2.08333E-02 2.03125E-02 0.00000E+00
 -1       740 2.18750E-02 2.07031E-02 0.00000E+00
 -1       741 2.29167E-02 2.10938E-02 0.00000E+00
 -1       742 2.39583E-02 2.14844E-02 0.00000E+00
 -1       743 2.50000E-02 2.18750E-02 0.00000E+00
 -1       744 2.60417E-02 2.22656E-02 0.00000E+00
 -1       745 2.70833E-02 2.26563E-02 0.00000E+00
 -1       746 2.81250E-02 2.30469E-02 0.00000E+00
 -1       747 2.91667E-02 2.34375E-02 0.00000E+00
 -1       748 3.02083E-02 2.38281E-02 0.00000E+00
 -1       749 3.12500E-02 2.42187E-02 0.00000E+00
 -1       750 3.22917E-02 2.46094E-02 0.00000E+00
 -1       751 3.43750E-02 1.87500E-02 0.00000E+00
 -1       752 3.54167E-02 1.87500E-02 0.00000E+00
 -1       753 3.64583E-02 1.87500E-02 0.00000E+00
 -1       754 3.75000E-02 1.87500E-02 0.00000E+00
 -1       755 3.85417E-02 1.87500E-02 0.00000E+00
 -1       756 3.95833E-02 1.87500E-02 0.00000E+00
 -1       757 4.06250E-02 1.87500E-02 0.00000E+00
 -1       758 4.16667E-02 1.87500E-02 0.00000E+00
 -1       759 4.27083E-02 1.87500E-02 0.00000E+00
 -1       760 4.37500E-02 1.87500E-02 0.00000E+00
 -1       761 4.47917E-02 1.87500E-02 0.00000E+00
 -1       762 4.58333E-02 1.87500E-02 0.00000E+00
 -1       763 4.68750E-02 1.87500E-02 0.00000E+00
 -1       764 4.79167E-02 1.87500E-02 0.00000E+00
 -1       765 4.89583E-02 1.87500E-02 0.00000E+00
 -1       766 3.33333E-02 1.97917E-02 0.00000E+00
 -1       767 3.33333E-02 2.08333E-02 0.00000E+00
 -1       768 3.33333E-02 2.18750E-02 0.00000E+00
 -1       769 3.33333E-02 2.29167E-02 0.00000E+00
 -1       770 3.33333E-02 2.39583E-02 0.00000E+00
 -1       771 3.43750E-02 1.91406E-02 0.00000E+00
 -1       772 3.54167E-02 1.95312E-02 0.00000E+00
 -1       773 3.64583E-02 1.99219E-02 0.00000E+00
 -1       774 3.75000E-02 2.03125E-02 0.00000E+00
 -1       775 3.85417E-02 2.07031E-02 0.00000E+00
 -1       776 3.95833E-02 2.10938E-02 0.00000E+00
 -1       777 4.06250E-02 2.14844E-02 0.00000E+00
 -1       778 4.16667E-02 2.18750E-02 0.00000E+00
 -1       779 4.27083E-02 2.22656E-02 0.00000E+00
 -1       780 4.37500E-02 2.26563E-02 0.00000E+00
 -1       781 4.47917E-02 2.30469E-02 0.00000E+00
 -1       782 4.58333E-02 2.34375E-02 0.00000E+00
 -1       783 4.68750E-02 2.38281E-02 0.00000E+00
 -1       784 4.79167E-02 2.42187E-02 0.00000E+00
 -1       785 4.89583E-02 2.46094E-02 0.00000E+00
 -1       786 5.10417E-02 1.87500E-02 0.00000E+00
 -1       787 5.20833E-02 1.87500E-02 0.00000E+00
 -1       788 5.31250E-02 1.87500E-02 0.00000E+00
 -1       789 5.41667E-02 1.87500E-02 0.00000E+00
 -1       790 5.52083E-02 1.87500E-02 0.00000E+00
 -1       791 5.62500E-02 1.87500E-02 0.00000E+00
 -1       792 5.72917E-02 1.87500E-02 0.00000E+00
 -1       793 5.83333E-02 1.87500E-02 0.00000E+00
 -1       794 5.93750E-02 1.87500E-02 0.00000E+00
 -1       795 6.04167E-02 1.87500E-02 0.00000E+00
 -1       796 6.14583E-02 1.87500E-02 0.00000E+00
 -1       797 6.25000E-02 1.87500E-02 0.00000E+00
 -1       798 6.35417E-02 1.87500E-02 0.00000E+00
 -1       799 6.45833E-02 1.87500E-02 0.00000E+00
 -1       800 6.56250E-02 1.87500E-02 0.00000E+00
 -1       801 5.00000E-02 1.97917E-02 0.00000E+00
 -1       802 5.00000E-02 2.08333E-02 0.00000E+00
 -1       803 5.00000E-02 2.18750E-02 0.00000E+00
 -1       804 5.00000E-02 2.29167E-02 0.00000E+00
 -1       805 5.00000E-02 2.39583E-02 0.00000E+00
 -1       806 5.10417E-02 1.91406E-02 0.00000E+00
 -1       807 5.20833E-02 1.95312E-02 0.00000E+00
 -1       808 5.31250E-02 1.99219E-02 0.00000E+00
 -1       809 5.41667E-02 2.03125E-02 0.00000E+00
 -1       810 5.52083E-02 2.07031E-02 0.00000E+00
 -1       811 5.62500E-02 2.10938E-02 0.00000E+00
 -1       812 5.72917E-02 2.14844E-02 0.00000E+00
 -1       813 5.83333E-02 2.18750E-02 0.00000E+00
 -1       814 5.93750E-02 2.22656E-02 0.00000E+00
 -1       815 6.04167E-02 2.26563E-02 0.00000E+00
 -1       816 6.14583E-02 2.30469E-02 0.00000E+00
 -1       817 6.25000E-02 2.34375E-02 0.00000E+00
 -1       818 6.35417E-02 2.38281E-02 0.00000E+00
 -1       819 6.45833E-02 2.42187E-02 0.00000E+00
 -1       820 6.56250E-02 2.46094E-02 0.00000E+00
 -1       821 6.77083E-02 1.87500E-02 0.00000E+00
 -1       822 6.87500E-02 1.87500E-02 0.00000E+00
 -1       823 6.97917E-02 1.87500E-02 0.00000E+00
 -1       824 7.08333E-02 1.87500E-02 0.00000E+00
 -1       825 7.18750E-02 1.87500E-02 0.00000E+00
 -1       826 7.29167E-02 1.87500E-02 0.00000E+00
 -1       827 7.39583E-02 1.87500E-02 0.00000E+00
 -1       828 7.50000E-02 1.87500E-02 0.00000E+00
 -1       829 7.60417E-02 1.87500E-02 0.00000E+00
 -1       830 7.70833E-02 1.87500E-02 0.00000E+00
 -1       831 7.81250E-02 1.87500E-02 0.00000E+00
 -1       832 7.91667E-02 1.87500E-02 0.00000E+00
 -1       833 8.02083E-02 1.87500E-02 0.00000E+00
 -1       834 8.12500E-02 1.87500E-02 0.00000E+00
 -1       835 8.22917E-02 1.87500E-02 0.00000E+00
 -1       836 6.66667E-02 1.97917E-02 0.00000E+00
 -1       837 6.66667E-02 2.08333E-02 0.00000E+00
 -1       838 6.66667E-02 2.18750E-02 0.00000E+00
 -1       839 6.66667E-02 2.29167E-02 0.00000E+00
 -1       840 6.66667E-02 2.39583E-02 0.00000E+00
 -1       841 6.77083E-02 1.91406E-02 0.00000E+00
 -1       842 6.87500E-02 1.95312E-02 0.00000E+00
 -1       843 6.97917E-02 1.99219E-02 0.00000E+00
 -1       844 7.08333E-02 2.03125E-02 0.00000E+00
 -1       845 7.18750E-02 2.07031E-02 0.00000E+00
 -1       846 7.29167E-02 2.10938E-02 0.00000E+00
 -1       847 7.39583E-02 2.14844E-02 0.00000E+00
 -1       848 7.50000E-02 2.18750E-02 0.00000E+00
 -1       849 7.60417E-02 2.22656E-02 0.00000E+00
 -1       850 7.70833E-02 2.26563E-02 0.00000E+00
 -1       851 7.81250E-02 2.30469E-02 0.00000E+00
 -1       852 7.91667E-02 2.34375E-02 0.00000E+00
 -1       853 8.02083E-02 2.38281E-02 0.00000E+00
 -1       854 8.12500E-02 2.42187E-02 0.00000E+00
 -1       855 8.22917E-02 2.46094E-02 0.00000E+00
 -1       856 8.43750E-02 1.87500E-02 0.00000E+00
 -1       857 8.54167E-02 1.87500E-02 0.00000E+00
 -1       858 8.64583E-02 1.87500E-02 0.00000E+00
 -1       859 8.75000E-02 1.87500E-02 0.00000E+00
 -1       860 8.85417E-02 1.87500E-02 0.00000E+00
 -1       861 8.95833E-02 1.87500E-02 0.00000E+00
 -1       862 9.06250E-02 1.87500E-02 0.00000E+00
 -1       863 9.16667E-02 1.87500E-02 0.00000E+00
 -1       864 9.27083E-02 1.87500E-02 0.00000E+00
 -1       865 9.37500E-02 1.87500E-02 0.00000E+00
 -1       866 9.47917E-02 1.87500E-02 0.00000E+00
 -1       867 9.58333E-02 1.87500E-02 0.00000E+00
 -1       868 9.68750E-02 1.87500E-02 0.00000E+00
 -1       869 9.79167E-02 1.87500E-02 0.00000E+00
 -1       870 9.89583E-02 1.87500E-02 0.00000E+00
 -1       871 8.33333E-02 1.97917E-02 0.00000E+00
 -1       872 8.33333E-02 2.08333E-02 0.00000E+00
 -1       873 8.33333E-02 2.18750E-02 0.00000E+00
 -1       874 8.33333E-02 2.29167E-02 0.00000E+00
 -1       875 8.33333E-02 2.39583E-02 0.00000E+00
 -1       876 8.43750E-02 1.91406E-02 0.00000E+00
 -1       877 8.54167E-02 1.95312E-02 0.00000E+00
 -1       878 8.64583E-02 1.99219E-02 0.00000E+00
 -1       879 8.75000E-02 2.03125E-02 0.00000E+00
 -1       880 8.85417E-02 2.07031E-02 0.00000E+00
 -1       881 8.95833E-02 2.10938E-02 0.00000E+00
 -1       882 9.06250E-02 2.14844E-02 0.00000E+00
 -1       883 9.16667E-02 2.18750E-02 0.00000E+00
 -1       884 9.27083E-02 2.22656E-02 0.00000E+00
 -1       885 9.37500E-02 2.26563E-02 0.00000E+00
 -1       886 9.47917E-02 2.30469E-02 0.00000E+00
 -1       887 9.58333E-02 2.34375E-02 0.00000E+00
 -1       888 9.68750E-02 2.38281E-02 0.00000E+00
 -1       889 9.79167E-02 2.42187E-02 0.00000E+00
 -1       890 9.89583E-02 2.46094E-02 0.00000E+00
 -1       891 1.00000E-01 1.97917E-02 0.00000E+00
 -1       892 1.00000E-01 2.08333E-02 0.00000E+00
 -1       893 1.00000E-01 2.18750E-02 0.00000E+00
 -1       894 1.00000E-01 2.29167E-02 0.00000E+00
 -1       895 1.00000E-01 2.39583E-02 0.00000E+00
 -1       896 1.04167E-03 2.50000E-02 0.00000E+00
 -1       897 2.08333E-03 2.50000E-02 0.00000E+00
 -1       898 3.12500E-03 2.50000E-02 0.00000E+00
 -1       899 4.16667E-03 2.50000E-02 0.00000E+00
 -1       900 5.20833E-03 2.50000E-02 0.00000E+00
 -1       901 6.25000E-03 2.50000E-02 0.00000E+00
 -1       902 7.29167E-03 2.50000E-02 0.00000E+00
 -1       903 8.33333E-03 2.50000E-02 0.00000E+00
 -1       904 9.37500E-03 2.50000E-02 0.00000E+00
 -1       905 1.04167E-02 2.50000E-02 0.00000E+00
 -1       906 1.14583E-02 2.50000E-02 0.00000E+00
 -1       907 1.25000E-02 2.50000E-02 0.00000E+00
 -1       908 1.35417E-02 2.50000E-02 0.00000E+00
 -1       909 1.45833E-02 2.50000E-02 0.00000E+00
 -1       910 1.56250E-02 2.50000E-02 0.00000E+00
 -1       911 1.77083E-02 2.50000E-02 0.00000E+00
 -1       912 1.87500E-02 2.50000E-02 0.00000E+00
 -1       913 1.97917E-02 2.50000E-02 0.00000E+00
 -1       914 2.08333E-02 2.50000E-02 0.00000E+00
 -1       915 2.18750E-02 2.50000E-02 0.00000E+00
 -1       916 2.29167E-02 2.50000E-02 0.00000E+00
 -1       917 2.39583E-02 2.50000E-02 0.00000E+00
 -1       918 2.50000E-02 2.50000E-02 0.00000E+00
 -1       919 2.60417E-02 2.50000E-02 0.00000E+00
 -1       920 2.70833E-02 2.50000E-02 0.00000E+00
 -1       921 2.81250E-02 2.50000E-02 0.00000E+00
 -1       922 2.91667E-02 2.50000E-02 0.00000E+00
 -1       923 3.02083E-02 2.50000E-02 0.00000E+00
 -1       924 3.12500E-02 2.50000E-02 0.00000E+00
 -1       925 3.22917E-02 2.50000E-02 0.00000E+00
 -1       926 3.43750E-02 2.50000E-02 0.00000E+00
 -1       927 3.54167E-02 2.50000E-02 0.00000E+00
 -1       928 3.64583E-02 2.50000E-02 0.00000E+00
 -1       929 3.75000E-02 2.50000E-02 0.00000E+00
 -1       930 3.85417E-02 2.50000E-02 0.00000E+00
 -1       931 3.95833E-02 2.50000E-02 0.00000E+00
 -1       932 4.06250E-02 2.50000E-02 0.00000E+00
 -1       933 4.16667E-02 2.50000E-02 0.00000E+00
 -1       934 4.27083E-02 2.50000E-02 0.00000E+00
 -1       935 4.37500E-02 2.50000E-02 0.00000E+00
 -1       936 4.47917E-02 2.50000E-02 0.00000E+00
 -1       937 4.58333E-02 2.50000E-02 0.00000E+00
 -1       938 4.68750E-02 2.50000E-02 0.00000E+00
 -1       939 4.79167E-02 2.50000E-02 0.00000E+00
 -1       940 4.89583E-02 2.50000E-02 0.00000E+00
 -1       941 5.10417E-02 2.50000E-02 0.00000E+00
 -1       942 5.20833E-02 2.50000E-02 0.00000E+00
 -1       943 5.31250E-02 2.50000E-02 0.00000E+00
 -1       944 5.41667E-02 2.50000E-02 0.00000E+00
 -1       945 5.52083E-02 2.50000E-02 0.00000E+00
 -1       946 5.62500E-02 2.50000E-02 0.00000E+00
 -1       947 5.72917E-02 2.50000E-02 0.00000E+00
 -1       948 5.83333E-02 2.50000E-02 0.00000E+00
 -1       949 5.93750E-02 2.50000E-02 0.00000E+00
 -1       950 6.04167E-02 2.50000E-02 0.00000E+00
 -1       951 6.14583E-02 2.50000E-02 0.00000E+00
 -1       952 6.25000E-02 2.50000E-02 0.00000E+00
 -1       953 6.35417E-02 2.50000E-02 0.00000E+00
 -1       954 6.45833E-02 2.50000E-02 0.00000E+00
 -1       955 6.56250E-02 2.50000E-02 0.00000E+00
 -1       956 6.77083E-02 2.50000E-02 0.00000E+00
 -1       957 6.87500E-02 2.50000E-02 0.00000E+00
 -1       958 6.97917E-02 2.50000E-02 0.00000E+00
 -1       959 7.08333E-02 2.50000E-02 0.00000E+00
 -1       960 7.18750E-02 2.50000E-02 0.00000E+00
 -1       961 7.29167E-02 2.50000E-02 0.00000E+00
 -1       962 7.39583E-02 2.50000E-02 0.00000E+00
 -1       963 7.50000E-02 2.50000E-02 0.00000E+00
 -1       964 7.60417E-02 2.50000E-02 0.00000E+00
 -1       965 7.70833E-02 2.50000E-02 0.00000E+00
 -1       966 7.81250E-02 2.50000E-02 0.00000E+00
 -1       967 7.91667E-02 2.50000E-02 0.00000E+00
 -1       968 8.02083E-02 2.50000E-02 0.00000E+00
 -1       969 8.12500E-02 2.50000E-02 0.00000E+00
 -1       970 8.22917E-02 2.50000E-02 0.00000E+00
 -1       971 8.43750E-02 2.50000E-02 0.00000E+00
 -1       972 8.54167E-02 2.50000E-02 0.00000E+00
 -1       973 8.64583E-02 2.50000E-02 0.00000E+00
 -1       974 8.75000E-02 2.50000E-02 0.00000E+00
 -1       975 8.85417E-02 2.50000E-02 0.00000E+00
 -1       976 8.95833E-02 2.50000E-02 0.00000E+00
 -1       977 9.06250E-02 2.50000E-02 0.00000E+00
 -1       978 9.16667E-02 2.50000E-02 0.00000E+00
 -1       979 9.27083E-02 2.50000E-02 0.00000E+00
 -1       980 9.37500E-02 2.50000E-02 0.00000E+00
 -1       981 9.47917E-02 2.50000E-02 0.00000E+00
 -1       982 9.58333E-02 2.50000E-02 0.00000E+00
 -1       983 9.68750E-02 2.50000E-02 0.00000E+00
 -1       984 9.79167E-02 2.50000E-02 0.00000E+00
 -1       985 9.89583E-02 2.50000E-02 0.00000E+00
 -3
    3C                           440                                     1
 -1         1   12    0    1
 -2         1        37        36
 -1         2   12    0    1
 -2        37        39        38
 -1         3   12    0    1
 -2        39        41        40
 -1         4   12    0    1
 -2        41        43        42
 -1         5   12    0    1
 -2        43        45        44
 -1         6   12    0    1
 -2        45        47        46
 -1         7   12    0    1
 -2        47        49        48
 -1         8   12    0    1
 -2        49         2        50
 -1         9   12    0    1
 -2         1        52        51
 -1        10   12    0    1
 -2        52        54        53
 -1        11   12    0    1
 -2        54         8        55
 -1        12   12    0    1
 -2         1        57        56
 -1        13   12    0    1
 -2        57        59        58
 -1        14   12    0    1
 -2        59        61        60
 -1        15   12    0    1
 -2        61        63        62
 -1        16   12    0    1
 -2        63        65        64
 -1        17   12    0    1
 -2        65        67        66
 -1        18   12    0    1
 -2        67        69        68
 -1        19   12    0    1
 -2        69         9        70
 -1        20   12    0    1
 -2         2        72        71
 -1        21   12    0    1
 -2        72        74        73
 -1        22   12    0    1
 -2        74        76        75
 -1        23   12    0    1
 -2        76        78        77
 -1        24   12    0    1
 -2        78        80        79
 -1        25   12    0    1
 -2        80        82        81
 -1        26   12    0    1
 -2        82        84        83
 -1        27   12    0    1
 -2        84         3        85
 -1        28   12    0    1
 -2         2        87        86
 -1        29   12    0    1
 -2        87        89        88
 -1        30   12    0    1
 -2        89         9        90
 -1        31   12    0    1
 -2         2        92        91
 -1        32   12    0    1
 -2        92        94        93
 -1        33   12    0    1
 -2        94        96        95
 -1        34   12    0    1
 -2        96        98        97
 -1        35   12    0    1
 -2        98       100        99
 -1        36   12    0    1
 -2       100       102       101
 -1        37   12    0    1
 -2       102       104       103
 -1        38   12    0    1
 -2       104        10       105
 -1        39   12    0    1
 -2         3       107       106
 -1        40   12    0    1
 -2       107       109       108
 -1        41   12    0    1
 -2       109       111       110
 -1        42   12    0    1
 -2       111       113       112
 -1        43   12    0    1
 -2       113       115       114
 -1        44   12    0    1
 -2       115       117       116
 -1        45   12    0    1
 -2       117       119       118
 -1        46   12    0    1
 -2       119         4       120
 -1        47   12    0    1
 -2         3       122       121
 -1        48   12    0    1
 -2       122       124       123
 -1        49   12    0    1
 -2       124        10       125
 -1        50   12    0    1
 -2         3       127       126
 -1        51   12    0    1
 -2       127       129       128
 -1        52   12    0    1
 -2       129       131       130
 -1        53   12    0    1
 -2       131       133       132
 -1        54   12    0    1
 -2       133       135       134
 -1        55   12    0    1
 -2       135       137       136
 -1        56   12    0    1
 -2       137       139       138
 -1        57   12    0    1
 -2       139        11       140
 -1        58   12    0    1
 -2         4       142       141
 -1        59   12    0    1
 -2       142       144       143
 -1        60   12    0    1
 -2       144       146       145
 -1        61   12    0    1
 -2       146       148       147
 -1        62   12    0    1
 -2       148       150       149
 -1        63   12    0    1
 -2       150       152       151
 -1        64   12    0    1
 -2       152       154       153
 -1        65   12    0    1
 -2       154         5       155
 -1        66   12    0    1
 -2         4       157       156
 -1        67   12    0    1
 -2       157       159       158
 -1        68   12    0    1
 -2       159        11       160
 -1        69   12    0    1
 -2         4       162       161
 -1        70   12    0    1
 -2       162       164       163
 -1        71   12    0    1
 -2       164       166       165
 -1        72   12    0    1
 -2       166       168       167
 -1        73   12    0    1
 -2       168       170       169
 -1        74   12    0    1
 -2       170       172       171
 -1        75   12    0    1
 -2       172       174       173
 -1        76   12    0    1
 -2       174        12       175
 -1        77   12    0    1
 -2         5       192       191
 -1        78   12    0    1
 -2       192       194       193
 -1        79   12    0    1
 -2       194        12       195
 -1        80   12    0    1
 -2         8       252       251
 -1        81   12    0    1
 -2       252       254       253
 -1        82   12    0    1
 -2       254       256       255
 -1        83   12    0    1
 -2       256       258       257
 -1        84   12    0    1
 -2       258       260       259
 -1        85   12    0    1
 -2       260       262       261
 -1        86   12    0    1
 -2       262       264       263
 -1        87   12    0    1
 -2       264         9       265
 -1        88   12    0    1
 -2         8       267       266
 -1        89   12    0    1
 -2       267       269       268
 -1        90   12    0    1
 -2       269        15       270
 -1        91   12    0    1
 -2         8       272       271
 -1        92   12    0    1
 -2       272       274       273
 -1        93   12    0    1
 -2       274       276       275
 -1        94   12    0    1
 -2       276       278       277
 -1        95   12    0    1
 -2       278       280       279
 -1        96   12    0    1
 -2       280       282       281
 -1        97   12    0    1
 -2       282       284       283
 -1        98   12    0    1
 -2       284        16       285
 -1        99   12    0    1
 -2         9       287       286
 -1       100   12    0    1
 -2       287       289       288
 -1       101   12    0    1
 -2       289       291       290
 -1       102   12    0    1
 -2       291       293       292
 -1       103   12    0    1
 -2       293       295       294
 -1       104   12    0    1
 -2       295       297       296
 -1       105   12    0    1
 -2       297       299       298
 -1       106   12    0    1
 -2       299        10       300
 -1       107   12    0    1
 -2         9       302       301
 -1       108   12    0    1
 -2       302       304       303
 -1       109   12    0    1
 -2       304        16       305
 -1       110   12    0    1
 -2         9       307       306
 -1       111   12    0    1
 -2       307       309       308
 -1       112   12    0    1
 -2       309       311       310
 -1       113   12    0    1
 -2       311       313       312
 -1       114   12    0    1
 -2       313       315       314
 -1       115   12    0    1
 -2       315       317       316
 -1       116   12    0    1
 -2       317       319       318
 -1       117   12    0    1
 -2       319        17       320
 -1       118   12    0    1
 -2        10       322       321
 -1       119   12    0    1
 -2       322       324       323
 -1       120   12    0    1
 -2       324       326       325
 -1       121   12    0    1
 -2       326       328       327
 -1       122   12    0    1
 -2       328       330       329
 -1       123   12    0    1
 -2       330       332       331
 -1       124   12    0    1
 -2       332       334       333
 -1       125   12    0    1
 -2       334        11       335
 -1       126   12    0    1
 -2        10       337       336
 -1       127   12    0    1
 -2       337       339       338
 -1       128   12    0    1
 -2       339        17       340
 -1       129   12    0    1
 -2        10       342       341
 -1       130   12    0    1
 -2       342       344       343
 -1       131   12    0    1
 -2       344       346       345
 -1       132   12    0    1
 -2       346       348       347
 -1       133   12    0    1
 -2       348       350       349
 -1       134   12    0    1
 -2       350       352       351
 -1       135   12    0    1
 -2       352       354       353
 -1       136   12    0    1
 -2       354        18       355
 -1       137   12    0    1
 -2        11       357       356
 -1       138   12    0    1
 -2       357       359       358
 -1       139   12    0    1
 -2       359       361       360
 -1       140   12    0    1
 -2       361       363       362
 -1       141   12    0    1
 -2       363       365       364
 -1       142   12    0    1
 -2       365       367       366
 -1       143   12    0    1
 -2       367       369       368
 -1       144   12    0    1
 -2       369        12       370
 -1       145   12    0    1
 -2        11       372       371
 -1       146   12    0    1
 -2       372       374       373
 -1       147   12    0    1
 -2       374        18       375
 -1       148   12    0    1
 -2        11       377       376
 -1       149   12    0    1
 -2       377       379       378
 -1       150   12    0    1
 -2       379       381       380
 -1       151   12    0    1
 -2       381       383       382
 -1       152   12    0    1
 -2       383       385       384
 -1       153   12    0    1
 -2       385       387       386
 -1       154   12    0    1
 -2       387       389       388
 -1       155   12    0    1
 -2       389        19       390
 -1       156   12    0    1
 -2        12       407       406
 -1       157   12    0    1
 -2       407       409       408
 -1       158   12    0    1
 -2       409        19       410
 -1       159   12    0    1
 -2        15       467       466
 -1       160   12    0    1
 -2       467       469       468
 -1       161   12    0    1
 -2       469       471       470
 -1       162   12    0    1
 -2       471       473       472
 -1       163   12    0    1
 -2       473       475       474
 -1       164   12    0    1
 -2       475       477       476
 -1       165   12    0    1
 -2       477       479       478
 -1       166   12    0    1
 -2       479        16       480
 -1       167   12    0    1
 -2        15       482       481
 -1       168   12    0    1
 -2       482       484       483
 -1       169   12    0    1
 -2       484        22       485
 -1       170   12    0    1
 -2        15       487       486
 -1       171   12    0    1
 -2       487       489       488
 -1       172   12    0    1
 -2       489       491       490
 -1       173   12    0    1
 -2       491       493       492
 -1       174   12    0    1
 -2       493       495       494
 -1       175   12    0    1
 -2       495       497       496
 -1       176   12    0    1
 -2       497       499       498
 -1       177   12    0    1
 -2       499        23       500
 -1       178   12    0    1
 -2        16       502       501
 -1       179   12    0    1
 -2       502       504       503
 -1       180   12    0    1
 -2       504       506       505
 -1       181   12    0    1
 -2       506       508       507
 -1       182   12    0    1
 -2       508       510       509
 -1       183   12    0    1
 -2       510       512       511
 -1       184   12    0    1
 -2       512       514       513
 -1       185   12    0    1
 -2       514        17       515
 -1       186   12    0    1
 -2        16       517       516
 -1       187   12    0    1
 -2       517       519       518
 -1       188   12    0    1
 -2       519        23       520
 -1       189   12    0    1
 -2        16       522       521
 -1       190   12    0    1
 -2       522       524       523
 -1       191   12    0    1
 -2       524       526       525
 -1       192   12    0    1
 -2       526       528       527
 -1       193   12    0    1
 -2       528       530       529
 -1       194   12    0    1
 -2       530       532       531
 -1       195   12    0    1
 -2       532       534       533
 -1       196   12    0    1
 -2       534        24       535
 -1       197   12    0    1
 -2        17       537       536
 -1       198   12    0    1
 -2       537       539       538
 -1       199   12    0    1
 -2       539       541       540
 -1       200   12    0    1
 -2       541       543       542
 -1       201   12    0    1
 -2       543       545       544
 -1       202   12    0    1
 -2       545       547       546
 -1       203   12    0    1
 -2       547       549       548
 -1       204   12    0    1
 -2       549        18       550
 -1       205   12    0    1
 -2        17       552       551
 -1       206   12    0    1
 -2       552       554       553
 -1       207   12    0    1
 -2       554        24       555
 -1       208   12    0    1
 -2        17       557       556
 -1       209   12    0    1
 -2       557       559       558
 -1       210   12    0    1
 -2       559       561       560
 -1       211   12    0    1
 -2       561       563       562
 -1       212   12    0    1
 -2       563       565       564
 -1       213   12    0    1
 -2       565       567       566
 -1       214   12    0    1
 -2       567       569       568
 -1       215   12    0    1
 -2       569        25       570
 -1       216   12    0    1
 -2        18       572       571
 -1       217   12    0    1
 -2       572       574       573
 -1       218   12    0    1
 -2       574       576       575
 -1       219   12    0    1
 -2       576       578       577
 -1       220   12    0    1
 -2       578       580       579
 -1       221   12    0    1
 -2       580       582       581
 -1       222   12    0    1
 -2       582       584       583
 -1       223   12    0    1
 -2       584        19       585
 -1       224   12    0    1
 -2        18       587       586
 -1       225   12    0    1
 -2       587       589       588
 -1       226   12    0    1
 -2       589        25       590
 -1       227   12    0    1
 -2        18       592       591
 -1       228   12    0    1
 -2       592       594       593
 -1       229   12    0    1
 -2       594       596       595
 -1       230   12    0    1
 -2       596       598       597
 -1       231   12    0    1
 -2       598       600       599
 -1       232   12    0    1
 -2       600       602       601
 -1       233   12    0    1
 -2       602       604       603
 -1       234   12    0    1
 -2       604        26       605
 -1       235   12    0    1
 -2        19       607       606
 -1       236   12    0    1
 -2       607       609       608
 -1       237   12    0    1
 -2       609       611       610
 -1       238   12    0    1
 -2       611       613       612
 -1       239   12    0    1
 -2       613       615       614
 -1       240   12    0    1
 -2       615       617       616
 -1       241   12    0    1
 -2       617       619       618
 -1       242   12    0    1
 -2       619        20       620
 -1       243   12    0    1
 -2        19       622       621
 -1       244   12    0    1
 -2       622       624       623
 -1       245   12    0    1
 -2       624        26       625
 -1       246   12    0    1
 -2        19       627       626
 -1       247   12    0    1
 -2       627       629       628
 -1       248   12    0    1
 -2       629       631       630
 -1       249   12    0    1
 -2       631       633       632
 -1       250   12    0    1
 -2       633       635       634
 -1       251   12    0    1
 -2       635       637       636
 -1       252   12    0    1
 -2       637       639       638
 -1       253   12    0    1
 -2       639        27       640
 -1       254   12    0    1
 -2        20       642       641
 -1       255   12    0    1
 -2       642       644       643
 -1       256   12    0    1
 -2       644       646       645
 -1       257   12    0    1
 -2       646       648       647
 -1       258   12    0    1
 -2       648       650       649
 -1       259   12    0    1
 -2       650       652       651
 -1       260   12    0    1
 -2       652       654       653
 -1       261   12    0    1
 -2       654        21       655
 -1       262   12    0    1
 -2        20       657       656
 -1       263   12    0    1
 -2       657       659       658
 -1       264   12    0    1
 -2       659        27       660
 -1       265   12    0    1
 -2        20       662       661
 -1       266   12    0    1
 -2       662       664       663
 -1       267   12    0    1
 -2       664       666       665
 -1       268   12    0    1
 -2       666       668       667
 -1       269   12    0    1
 -2       668       670       669
 -1       270   12    0    1
 -2       670       672       671
 -1       271   12    0    1
 -2       672       674       673
 -1       272   12    0    1
 -2       674        28       675
 -1       273   12    0    1
 -2        21       677       676
 -1       274   12    0    1
 -2       677       679       678
 -1       275   12    0    1
 -2       679        28       680
 -1       276   12    0    1
 -2        22       682       681
 -1       277   12    0    1
 -2       682       684       683
 -1       278   12    0    1
 -2       684       686       685
 -1       279   12    0    1
 -2       686       688       687
 -1       280   12    0    1
 -2       688       690       689
 -1       281   12    0    1
 -2       690       692       691
 -1       282   12    0    1
 -2       692       694       693
 -1       283   12    0    1
 -2       694        23       695
 -1       284   12    0    1
 -2        22       697       696
 -1       285   12    0    1
 -2       697       699       698
 -1       286   12    0    1
 -2       699        29       700
 -1       287   12    0    1
 -2        22       702       701
 -1       288   12    0    1
 -2       702       704       703
 -1       289   12    0    1
 -2       704       706       705
 -1       290   12    0    1
 -2       706       708       707
 -1       291   12    0    1
 -2       708       710       709
 -1       292   12    0    1
 -2       710       712       711
 -1       293   12    0    1
 -2       712       714       713
 -1       294   12    0    1
 -2       714        30       715
 -1       295   12    0    1
 -2        23       717       716
 -1       296   12    0    1
 -2       717       719       718
 -1       297   12    0    1
 -2       719       721       720
 -1       298   12    0    1
 -2       721       723       722
 -1       299   12    0    1
 -2       723       725       724
 -1       300   12    0    1
 -2       725       727       726
 -1       301   12    0    1
 -2       727       729       728
 -1       302   12    0    1
 -2       729        24       730
 -1       303   12    0    1
 -2        23       732       731
 -1       304   12    0    1
 -2       732       734       733
 -1       305   12    0    1
 -2       734        30       735
 -1       306   12    0    1
 -2        23       737       736
 -1       307   12    0    1
 -2       737       739       738
 -1       308   12    0    1
 -2       739       741       740
 -1       309   12    0    1
 -2       741       743       742
 -1       310   12    0    1
 -2       743       745       744
 -1       311   12    0    1
 -2       745       747       746
 -1       312   12    0    1
 -2       747       749       748
 -1       313   12    0    1
 -2       749        31       750
 -1       314   12    0    1
 -2        24       752       751
 -1       315   12    0    1
 -2       752       754       753
 -1       316   12    0    1
 -2       754       756       755
 -1       317   12    0    1
 -2       756       758       757
 -1       318   12    0    1
 -2       758       760       759
 -1       319   12    0    1
 -2       760       762       761
 -1       320   12    0    1
 -2       762       764       763
 -1       321   12    0    1
 -2       764        25       765
 -1       322   12    0    1
 -2        24       767       766
 -1       323   12    0    1
 -2       767       769       768
 -1       324   12    0    1
 -2       769        31       770
 -1       325   12    0    1
 -2        24       772       771
 -1       326   12    0    1
 -2       772       774       773
 -1       327   12    0    1
 -2       774       776       775
 -1       328   12    0    1
 -2       776       778       777
 -1       329   12    0    1
 -2       778       780       779
 -1       330   12    0    1
 -2       780       782       781
 -1       331   12    0    1
 -2       782       784       783
 -1       332   12    0    1
 -2       784        32       785
 -1       333   12    0    1
 -2        25       787       786
 -1       334   12    0    1
 -2       787       789       788
 -1       335   12    0    1
 -2       789       791       790
 -1       336   12    0    1
 -2       791       793       792
 -1       337   12    0    1
 -2       793       795       794
 -1       338   12    0    1
 -2       795       797       796
 -1       339   12    0    1
 -2       797       799       798
 -1       340   12    0    1
 -2       799        26       800
 -1       341   12    0    1
 -2        25       802       801
 -1       342   12    0    1
 -2       802       804       803
 -1       343   12    0    1
 -2       804        32       805
 -1       344   12    0    1
 -2        25       807       806
 -1       345   12    0    1
 -2       807       809       808
 -1       346   12    0    1
 -2       809       811       810
 -1       347   12    0    1
 -2       811       813       812
 -1       348   12    0    1
 -2       813       815       814
 -1       349   12    0    1
 -2       815       817       816
 -1       350   12    0    1
 -2       817       819       818
 -1       351   12    0    1
 -2       819        33       820
 -1       352   12    0    1
 -2        26       822       821
 -1       353   12    0    1
 -2       822       824       823
 -1       354   12    0    1
 -2       824       826       825
 -1       355   12    0    1
 -2       826       828       827
 -1       356   12    0    1
 -2       828       830       829
 -1       357   12    0    1
 -2       830       832       831
 -1       358   12    0    1
 -2       832       834       833
 -1       359   12    0    1
 -2       834        27       835
 -1       360   12    0    1
 -2        26       837       836
 -1       361   12    0    1
 -2       837       839       838
 -1       362   12    0    1
 -2       839        33       840
 -1       363   12    0    1
 -2        26       842       841
 -1       364   12    0    1
 -2       842       844       843
 -1       365   12    0    1
 -2       844       846       845
 -1       366   12    0    1
 -2       846       848       847
 -1       367   12    0    1
 -2       848       850       849
 -1       368   12    0    1
 -2       850       852       851
 -1       369   12    0    1
 -2       852       854       853
 -1       370   12    0    1
 -2       854        34       855
 -1       371   12    0    1
 -2        27       857       856
 -1       372   12    0    1
 -2       857       859       858
 -1       373   12    0    1
 -2       859       861       860
 -1       374   12    0    1
 -2       861       863       862
 -1       375   12    0    1
 -2       863       865       864
 -1       376   12    0    1
 -2       865       867       866
 -1       377   12    0    1
 -2       867       869       868
 -1       378   12    0    1
 -2       869        28       870
 -1       379   12    0    1
 -2        27       872       871
 -1       380   12    0    1
 -2       872       874       873
 -1       381   12    0    1
 -2       874        34       875
 -1       382   12    0    1
 -2        27       877       876
 -1       383   12    0    1
 -2       877       879       878
 -1       384   12    0    1
 -2       879       881       880
 -1       385   12    0    1
 -2       881       883       882
 -1       386   12    0    1
 -2       883       885       884
 -1       387   12    0    1
 -2       885       887       886
 -1       388   12    0    1
 -2       887       889       888
 -1       389   12    0    1
 -2       889        35       890
 -1       390   12    0    1
 -2        28       892       891
 -1       391   12    0    1
 -2       892       894       893
 -1       392   12    0    1
 -2       894        35       895
 -1       393   12    0    1
 -2        29       897       896
 -1       394   12    0    1
 -2       897       899       898
 -1       395   12    0    1
 -2       899       901       900
 -1       396   12    0    1
 -2       901       903       902
 -1       397   12    0    1
 -2       903       905       904
 -1       398   12    0    1
 -2       905       907       906
 -1       399   12    0    1
 -2       907       909       908
 -1       400   12    0    1
 -2       909        30       910
 -1       401   12    0    1
 -2        30       912       911
 -1       402   12    0    1
 -2       912       914       913
 -1       403   12    0    1
 -2       914       916       915
 -1       404   12    0    1
 -2       916       918       917
 -1       405   12    0    1
 -2       918       920       919
 -1       406   12    0    1
 -2       920       922       921
 -1       407   12    0    1
 -2       922       924       923
 -1       408   12    0    1
 -2       924        31       925
 -1       409   12    0    1
 -2        31       927       926
 -1       410   12    0    1
 -2       927       929       928
 -1       411   12    0    1
 -2       929       931       930
 -1       412   12    0    1
 -2       931       933       932
 -1       413   12    0    1
 -2       933       935       934
 -1       414   12    0    1
 -2       935       937       936
 -1       415   12    0    1
 -2       937       939       938
 -1       416   12    0    1
 -2       939        32       940
 -1       417   12    0    1
 -2        32       942       941
 -1       418   12    0    1
 -2       942       944       943
 -1       419   12    0    1
 -2       944       946       945
 -1       420   12    0    1
 -2       946       948       947
 -1       421   12    0    1
 -2       948       950       949
 -1       422   12    0    1
 -2       950       952       951
 -1       423   12    0    1
 -2       952       954       953
 -1       424   12    0    1
 -2       954        33       955
 -1       425   12    0    1
 -2        33       957       956
 -1       426   12    0    1
 -2       957       959       958
 -1       427   12    0    1
 -2       959       961       960
 -1       428   12    0    1
 -2       961       963       962
 -1       429   12    0    1
 -2       963       965       964
 -1       430   12    0    1
 -2       965       967       966
 -1       431   12    0    1
 -2       967       969       968
 -1       432   12    0    1
 -2       969        34       970
 -1       433   12    0    1
 -2        34       972       971
 -1       434   12    0    1
 -2       972       974       973
 -1       435   12    0    1
 -2       974       976       975
 -1       436   12    0    1
 -2       976       978       977
 -1       437   12    0    1
 -2       978       980       979
 -1       438   12    0    1
 -2       980       982       981
 -1       439   12    0    1
 -2       982       984       983
 -1       440   12    0    1
 -2       984        35       985
 -3
    1PSTEP                         1           1           1          
  100CL  101 6.25000E-02         841                     0    1           1
 -4  DISP        4    1
 -5  D1          1    2    1    0
 -5  D2          1    2    2    0
 -5  D3          1    2    3    0
 -5  ALL         1    2    0    0    1ALL
 -1         1 7.75439E-06 0.00000E+00 0.00000E+00
 -1         2 5.71997E-06 0.00000E+00 0.00000E+00
 -1         3 4.76514E-06 0.00000E+00 0.00000E+00
 -1         4 4.22443E-06 0.00000E+00 0.00000E+00
 -1         5 3.97131E-06 0.00000E+00 0.00000E+00
 -1         8 6.12075E-06-7.70606E-08 0.00000E+00
 -1         9 4.79047E-06 3.70762E-08 0.00000E+00
 -1        10 4.46513E-06-1.82278E-07 0.00000E+00
 -1        11 4.16232E-06-3.41740E-08 0.00000E+00
 -1        12 3.84288E-06 9.28883E-08 0.00000E+00
 -1        15 2.61754E-06-1.61515E-07 0.00000E+00
 -1        16 3.60518E-06 3.39164E-08 0.00000E+00
 -1        17 3.31034E-06-3.65880E-07 0.00000E+00
 -1        18 3.33772E-06-6.97354E-08 0.00000E+00
 -1        19 3.49305E-06 1.84335E-07 0.00000E+00
 -1        20 3.54584E-06 1.97679E-06 0.00000E+00
 -1        21 3.54431E-06 4.72616E-06 0.00000E+00
 -1        22 9.70333E-07-1.04877E-07 0.00000E+00
 -1        23 1.30362E-06 1.13602E-07 0.00000E+00
 -1        24 1.35978E-06-4.36749E-07 0.00000E+00
 -1        25 2.97313E-06-4.60186E-08 0.00000E+00
 -1        26 3.11470E-06 2.44772E-07 0.00000E+00
 -1        27 2.96491E-06 1.90565E-06 0.00000E+00
 -1        28 2.78563E-06 4.65848E-06 0.00000E+00
 -1        29 0.00000E+00 0.00000E+00 0.00000E+00
 -1        30 4.65597E-07 1.59338E-07 0.00000E+00
 -1        31 5.94658E-07-3.41423E-07 0.00000E+00
 -1        32 0.00000E+00 0.00000E+00 0.00000E+00
 -1        33 2.62111E-06 3.79479E-07 0.00000E+00
 -1        34 2.48764E-06 1.89888E-06 0.00000E+00
 -1        35 2.23180E-06 4.62225E-06 0.00000E+00
 -1        36 7.63134E-06-1.88063E-20 1.65436E-24
 -1        37 7.50421E-06-4.65669E-20 1.65436E-24
 -1        38 7.37734E-06-7.56419E-20-3.30872E-24
 -1        39 7.24970E-06-7.84151E-20 0.00000E+00
 -1        40 7.12203E-06-7.86388E-20-3.30872E-24
 -1        41 6.99421E-06-7.77316E-20 0.00000E+00
 -1        42 6.86636E-06-6.88556E-20 0.00000E+00
 -1        43 6.73850E-06-4.62711E-20 1.65436E-24
 -1        44 6.61062E-06-2.82475E-20 0.00000E+00
 -1        45 6.48277E-06-1.82748E-20-1.65436E-24
 -1        46 6.35492E-06 2.92098E-21-3.30872E-24
 -1        47 6.22717E-06 7.44980E-21 1.65436E-24
 -1        48 6.09943E-06 6.89863E-21-3.30872E-24
 -1        49 5.97219E-06 5.37543E-21 0.00000E+00
 -1        50 5.84478E-06 6.67390E-21 0.00000E+00
 -1        51 7.63011E-06-1.31985E-08 0.00000E+00
 -1        52 7.42526E-06-2.58008E-08 0.00000E+00
 -1        53 7.15547E-06-3.82731E-08 0.00000E+00
 -1        54 6.83714E-06-5.07838E-08 0.00000E+00
 -1        55 6.48672E-06-6.35102E-08-5.68687E-25
 -1        56 7.59831E-06-5.89817E-08 3.30872E-24
 -1        57 7.43654E-06-1.19919E-07 1.65436E-24
 -1        58 7.27431E-06-1.78710E-07-3.30872E-24
 -1        59 7.10966E-06-2.33959E-07-3.30872E-24
 -1        60 6.94282E-06-2.83461E-07-6.61744E-24
 -1        61 6.77296E-06-3.25431E-07 0.00000E+00
 -1        62 6.59956E-06-3.58047E-07 0.00000E+00
 -1        63 6.42197E-06-3.79581E-07 0.00000E+00
 -1        64 6.23960E-06-3.88352E-07 0.00000E+00
 -1        65 6.05186E-06-3.82723E-07 0.00000E+00
 -1        66 5.85816E-06-3.61160E-07 0.00000E+00
 -1        67 5.65810E-06-3.22131E-07 0.00000E+00
 -1        68 5.45104E-06-2.64314E-07 3.30872E-24
 -1        69 5.23735E-06-1.86073E-07-1.65436E-24
 -1        70 5.01540E-06-8.66878E-08 0.00000E+00
 -1        71 5.66001E-06-5.95260E-21-1.65436E-24
 -1        72 5.60020E-06-7.56863E-21 8.27181E-25
 -1        73 5.54038E-06-1.37451E-20 0.00000E+00
 -1        74 5.48059E-06-2.50109E-20-8.27181E-25
 -1        75 5.42080E-06-3.38434E-20 0.00000E+00
 -1        76 5.36101E-06-4.50906E-20 0.00000E+00
 -1        77 5.30123E-06-5.83520E-20 1.65436E-24
 -1        78 5.24145E-06-6.82754E-20 0.00000E+00
 -1        79 5.18167E-06-8.30244E-20 1.65436E-24
 -1        80 5.12191E-06-9.17340E-20 0.00000E+00
 -1        81 5.06214E-06-7.70121E-20 1.65436E-24
 -1        82 5.00242E-06-5.41955E-20 0.00000E+00
 -1        83 4.94271E-06-4.79699E-20 1.65436E-24
 -1        84 4.88320E-06-2.41483E-20 0.00000E+00
 -1        85 4.82362E-06-3.98639E-21 0.00000E+00
 -1        86 5.68181E-06 4.07740E-09 8.27181E-25
 -1        87 5.56789E-06 1.09413E-08 0.00000E+00
 -1        88 5.40011E-06 1.76049E-08 0.00000E+00
 -1        89 5.20037E-06 2.45052E-08 0.00000E+00
 -1        90 4.99003E-06 3.15260E-08 0.00000E+00
 -1        91 5.65263E-06-4.02678E-08 0.00000E+00
 -1        92 5.59475E-06-1.06909E-07 8.27181E-25
 -1        93 5.54406E-06-1.92645E-07 0.00000E+00
 -1        94 5.49776E-06-2.90318E-07 8.27181E-25
 -1        95 5.45240E-06-3.90471E-07-1.65436E-24
 -1        96 5.40441E-06-4.83662E-07 0.00000E+00
 -1        97 5.35091E-06-5.62161E-07-1.65436E-24
 -1        98 5.28903E-06-6.18294E-07 0.00000E+00
 -1        99 5.21720E-06-6.47921E-07 0.00000E+00
 -1       100 5.13393E-06-6.46985E-07 0.00000E+00
 -1       101 5.03969E-06-6.16792E-07 0.00000E+00
 -1       102 4.93506E-06-5.58718E-07-8.27181E-25
 -1       103 4.82231E-06-4.78997E-07 0.00000E+00
 -1       104 4.70410E-06-3.83800E-07-8.27181E-25
 -1       105 4.58333E-06-2.82152E-07 0.00000E+00
 -1       106 4.73133E-06 3.42958E-20 0.00000E+00
 -1       107 4.69747E-06 1.31839E-19 0.00000E+00
 -1       108 4.66361E-06 2.55380E-19 0.00000E+00
 -1       109 4.62975E-06 4.09426E-19-4.13590E-25
 -1       110 4.59588E-06 5.88873E-19 0.00000E+00
 -1       111 4.56202E-06 7.70947E-19 0.00000E+00
 -1       112 4.52815E-06 9.14701E-19-8.27181E-25
 -1       113 4.49428E-06 1.00461E-18 0.00000E+00
 -1       114 4.46042E-06 1.02954E-18 0.00000E+00
 -1       115 4.42656E-06 9.65773E-19 0.00000E+00
 -1       116 4.39270E-06 8.21820E-19 0.00000E+00
 -1       117 4.35887E-06 5.78524E-19 4.13590E-25
 -1       118 4.32504E-06 3.18955E-19 0.00000E+00
 -1       119 4.29132E-06 1.44461E-19 0.00000E+00
 -1       120 4.25757E-06 4.11075E-20 0.00000E+00
 -1       121 4.76081E-06-3.04477E-08 8.27181E-25
 -1       122 4.74342E-06-6.07976E-08 0.00000E+00
 -1       123 4.70904E-06-9.11514E-08 0.00000E+00
 -1       124 4.65379E-06-1.21503E-07 0.00000E+00
 -1       125 4.57377E-06-1.51852E-07 0.00000E+00
 -1       126 4.73247E-06-1.55175E-08 8.27181E-25
 -1       127 4.70188E-06-3.67453E-08 0.00000E+00
 -1       128 4.67280E-06-6.19612E-08 0.00000E+00
 -1       129 4.64456E-06-8.94611E-08 0.00000E+00
 -1       130 4.61641E-06-1.17185E-07 8.27181E-25
 -1       131 4.58757E-06-1.43077E-07 0.00000E+00
 -1       132 4.55743E-06-1.65513E-07-8.27181E-25
 -1       133 4.52539E-06-1.82874E-07 4.13590E-25
 -1       134 4.49095E-06-1.93838E-07 0.00000E+00
 -1       135 4.45363E-06-1.97094E-07-4.13590E-25
 -1       136 4.41315E-06-1.91936E-07 0.00000E+00
 -1       137 4.36927E-06-1.77661E-07 0.00000E+00
 -1       138 4.32202E-06-1.54373E-07 0.00000E+00
 -1       139 4.27153E-06-1.22141E-07 0.00000E+00
 -1       140 4.21798E-06-8.18660E-08-8.27181E-25
 -1       141 4.20835E-06-1.21842E-20 4.13590E-25
 -1       142 4.19239E-06-2.38794E-20-2.06795E-25
 -1       143 4.17641E-06-3.25951E-20 0.00000E+00
 -1       144 4.16046E-06-3.47222E-20 0.00000E+00
 -1       145 4.14450E-06-4.07301E-20 4.13590E-25
 -1       146 4.12856E-06-3.23184E-20 0.00000E+00
 -1       147 4.11261E-06-2.68989E-20 0.00000E+00
 -1       148 4.09666E-06-2.79061E-20 2.06795E-25
 -1       149 4.08072E-06-2.54753E-20 0.00000E+00
 -1       150 4.06479E-06-1.77117E-20 2.06795E-25
 -1       151 4.04887E-06-2.57442E-20-4.13590E-25
 -1       152 4.03299E-06-2.86705E-20 2.06795E-25
 -1       153 4.01712E-06-2.56064E-20 0.00000E+00
 -1       154 4.00149E-06-2.05665E-20 0.00000E+00
 -1       155 3.98577E-06-1.03313E-20-1.29247E-26
 -1       156 4.22727E-06-6.01487E-09 0.00000E+00
 -1       157 4.23558E-06-1.15191E-08-1.03398E-25
 -1       158 4.24128E-06-1.70615E-08-2.06795E-25
 -1       159 4.23628E-06-2.26102E-08 0.00000E+00
 -1       160 4.21261E-06-2.81191E-08 0.00000E+00
 -1       161 4.20546E-06-7.57216E-09 4.13590E-25
 -1       162 4.18676E-06-1.59401E-08-2.06795E-25
 -1       163 4.16812E-06-2.44489E-08-4.13590E-25
 -1       164 4.14928E-06-3.24522E-08-2.06795E-25
 -1       165 4.13000E-06-3.92537E-08 0.00000E+00
 -1       166 4.11000E-06-4.41609E-08 0.00000E+00
 -1       167 4.08911E-06-4.66914E-08 4.13590E-25
 -1       168 4.06716E-06-4.63651E-08 0.00000E+00
 -1       169 4.04398E-06-4.27874E-08 0.00000E+00
 -1       170 4.01945E-06-3.55630E-08 0.00000E+00
 -1       171 3.99347E-06-2.44747E-08 0.00000E+00
 -1       172 3.96601E-06-9.29047E-09-2.06795E-25
 -1       173 3.93701E-06 1.00136E-08-4.13590E-25
 -1       174 3.90670E-06 3.35705E-08 0.00000E+00
 -1       175 3.87481E-06 6.10706E-08-1.03398E-25
 -1       191 3.96700E-06 1.54705E-08 0.00000E+00
 -1       192 3.95568E-06 3.09592E-08 0.00000E+00
 -1       193 3.93744E-06 4.64522E-08 0.00000E+00
 -1       194 3.91244E-06 6.19440E-08 0.00000E+00
 -1       195 3.88084E-06 7.74290E-08 0.00000E+00
 -1       251 6.03960E-06 1.88582E-07 0.00000E+00
 -1       252 5.95638E-06 4.06524E-07 0.00000E+00
 -1       253 5.87329E-06 5.65552E-07 0.00000E+00
 -1       254 5.78982E-06 6.54668E-07 1.65436E-24
 -1       255 5.70634E-06 6.75022E-07 0.00000E+00
 -1       256 5.62278E-06 6.28019E-07 0.00000E+00
 -1       257 5.53920E-06 5.26770E-07 0.00000E+00
 -1       258 5.45561E-06 3.84589E-07-1.65436E-24
 -1       259 5.37202E-06 2.21896E-07-3.30872E-24
 -1       260 5.28844E-06 5.91967E-08 0.00000E+00
 -1       261 5.20487E-06-8.30052E-08 3.30872E-24
 -1       262 5.12138E-06-1.84286E-07 0.00000E+00
 -1       263 5.03791E-06-2.31328E-07 1.65436E-24
 -1       264 4.95483E-06-2.11017E-07 0.00000E+00
 -1       265 4.87162E-06-1.21935E-07-1.65436E-24
 -1       266 5.73318E-06-9.18216E-08 0.00000E+00
 -1       267 5.15111E-06-1.05925E-07 2.06795E-25
 -1       268 4.46135E-06-1.20136E-07 4.13590E-25
 -1       269 3.75081E-06-1.34133E-07 0.00000E+00
 -1       270 3.10705E-06-1.48111E-07 2.06795E-25
 -1       271 5.89482E-06 1.26267E-07 3.30872E-24
 -1       272 5.68885E-06 2.62912E-07 0.00000E+00
 -1       273 5.50429E-06 3.42759E-07-3.30872E-24
 -1       274 5.33729E-06 3.73835E-07 1.65436E-24
 -1       275 5.18528E-06 3.64709E-07 0.00000E+00
 -1       276 5.04508E-06 3.23776E-07-1.65436E-24
 -1       277 4.91359E-06 2.59515E-07 3.30872E-24
 -1       278 4.78766E-06 1.80406E-07-1.65436E-24
 -1       279 4.66410E-06 9.49488E-08 0.00000E+00
 -1       280 4.53975E-06 1.16564E-08-1.65436E-24
 -1       281 4.41142E-06-6.09722E-08 3.30872E-24
 -1       282 4.27602E-06-1.14430E-07 0.00000E+00
 -1       283 4.13033E-06-1.40263E-07 0.00000E+00
 -1       284 3.97171E-06-1.29856E-07-1.65436E-24
 -1       285 3.79634E-06-7.50656E-08 0.00000E+00
 -1       286 4.76966E-06 2.02105E-07 0.00000E+00
 -1       287 4.74934E-06 3.09468E-07 0.00000E+00
 -1       288 4.72899E-06 3.64365E-07 0.00000E+00
 -1       289 4.70874E-06 3.72045E-07 0.00000E+00
 -1       290 4.68849E-06 3.39831E-07 0.00000E+00
 -1       291 4.66826E-06 2.75085E-07 0.00000E+00
 -1       292 4.64802E-06 1.86599E-07 0.00000E+00
 -1       293 4.62779E-06 8.31832E-08 0.00000E+00
 -1       294 4.60756E-06-2.56918E-08 0.00000E+00
 -1       295 4.58733E-06-1.30552E-07-4.13590E-25
 -1       296 4.56709E-06-2.22101E-07-8.27181E-25
 -1       297 4.54684E-06-2.91055E-07-4.13590E-25
 -1       298 4.52659E-06-3.29119E-07 8.27181E-25
 -1       299 4.50624E-06-3.28032E-07 0.00000E+00
 -1       300 4.48593E-06-2.81252E-07 0.00000E+00
 -1       301 4.59261E-06 3.56937E-08 0.00000E+00
 -1       302 4.39350E-06 3.57015E-08 1.03398E-25
 -1       303 4.19418E-06 3.59406E-08-2.06795E-25
 -1       304 3.99566E-06 3.61243E-08 0.00000E+00
 -1       305 3.79899E-06 3.59567E-08 0.00000E+00
 -1       306 4.64438E-06 1.61804E-07-1.65436E-24
 -1       307 4.51964E-06 2.22151E-07-1.65436E-24
 -1       308 4.41531E-06 2.28270E-07 0.00000E+00
 -1       309 4.32747E-06 1.89327E-07-1.65436E-24
 -1       310 4.25293E-06 1.14779E-07 0.00000E+00
 -1       311 4.18816E-06 1.39963E-08 1.65436E-24
 -1       312 4.12968E-06-1.03607E-07 0.00000E+00
 -1       313 4.07397E-06-2.28621E-07 0.00000E+00
 -1       314 4.01751E-06-3.51624E-07 0.00000E+00
 -1       315 3.95677E-06-4.63193E-07 0.00000E+00
 -1       316 3.88824E-06-5.53926E-07 0.00000E+00
 -1       317 3.80846E-06-6.14415E-07 0.00000E+00
 -1       318 3.71388E-06-6.35305E-07 3.30872E-24
 -1       319 3.60140E-06-6.07126E-07 8.27181E-25
 -1       320 3.46701E-06-5.20763E-07 1.65436E-24
 -1       321 4.44562E-06-7.19891E-08-8.27181E-25
 -1       322 4.42666E-06 8.64805E-09 0.00000E+00
 -1       323 4.40766E-06 6.20547E-08 8.27181E-25
 -1       324 4.38876E-06 9.06764E-08 0.00000E+00
 -1       325 4.36987E-06 9.79756E-08 4.13590E-25
 -1       326 4.35100E-06 8.74324E-08-2.06795E-25
 -1       327 4.33213E-06 6.32590E-08 4.13590E-25
 -1       328 4.31327E-06 2.96796E-08 0.00000E+00
 -1       329 4.29440E-06-8.69519E-09 0.00000E+00
 -1       330 4.27554E-06-4.72521E-08 0.00000E+00
 -1       331 4.25668E-06-8.13692E-08 0.00000E+00
 -1       332 4.23781E-06-1.06428E-07 0.00000E+00
 -1       333 4.21895E-06-1.18184E-07 0.00000E+00
 -1       334 4.20008E-06-1.12400E-07-2.06795E-25
 -1       335 4.18121E-06-8.55630E-08 4.13590E-25
 -1       336 4.32339E-06-2.13060E-07 0.00000E+00
 -1       337 4.15435E-06-2.43769E-07 4.13590E-25
 -1       338 3.96326E-06-2.74471E-07 0.00000E+00
 -1       339 3.75538E-06-3.05095E-07 0.00000E+00
 -1       340 3.53598E-06-3.35725E-07 0.00000E+00
 -1       341 4.36117E-06-8.31219E-08-1.65436E-24
 -1       342 4.25914E-06 7.45642E-09 0.00000E+00
 -1       343 4.16192E-06 8.54410E-08 1.65436E-24
 -1       344 4.07089E-06 1.46290E-07 0.00000E+00
 -1       345 3.98699E-06 1.88158E-07 1.65436E-24
 -1       346 3.91086E-06 2.09156E-07-8.27181E-25
 -1       347 3.84216E-06 2.10363E-07 1.65436E-24
 -1       348 3.78045E-06 1.92896E-07-8.27181E-25
 -1       349 3.72425E-06 1.60774E-07 1.65436E-24
 -1       350 3.67203E-06 1.18057E-07 0.00000E+00
 -1       351 3.62184E-06 6.99509E-08 0.00000E+00
 -1       352 3.57180E-06 2.17139E-08 8.27181E-25
 -1       353 3.51980E-06-2.12857E-08-1.65436E-24
 -1       354 3.46428E-06-5.34821E-08 0.00000E+00
 -1       355 3.40315E-06-7.12499E-08 0.00000E+00
 -1       356 4.14222E-06 2.20616E-08 8.27181E-25
 -1       357 4.12210E-06 6.33901E-08 4.13590E-25
 -1       358 4.10198E-06 9.10831E-08 0.00000E+00
 -1       359 4.08186E-06 1.06424E-07 0.00000E+00
 -1       360 4.06174E-06 1.11236E-07 0.00000E+00
 -1       361 4.04161E-06 1.07352E-07 0.00000E+00
 -1       362 4.02149E-06 9.69875E-08 0.00000E+00
 -1       363 4.00137E-06 8.23601E-08 4.13590E-25
 -1       364 3.98125E-06 6.58760E-08 0.00000E+00
 -1       365 3.96114E-06 4.99428E-08 4.13590E-25
 -1       366 3.94104E-06 3.69440E-08 4.13590E-25
 -1       367 3.92099E-06 2.92600E-08 0.00000E+00
 -1       368 3.90095E-06 2.90395E-08 0.00000E+00
 -1       369 3.88119E-06 3.84239E-08 2.06795E-25
 -1       370 3.86132E-06 5.91362E-08-1.03398E-25
 -1       371 4.06741E-06-4.06918E-08-4.13590E-25
 -1       372 3.91088E-06-4.66501E-08 1.03398E-25
 -1       373 3.72620E-06-5.26451E-08 2.06795E-25
 -1       374 3.54684E-06-5.84642E-08 5.16988E-26
 -1       375 3.40621E-06-6.42964E-08 0.00000E+00
 -1       376 4.10889E-06 1.15724E-08 8.27181E-25
 -1       377 4.05945E-06 4.50750E-08 4.13590E-25
 -1       378 4.01422E-06 6.74595E-08 0.00000E+00
 -1       379 3.97273E-06 7.96075E-08 4.13590E-25
 -1       380 3.93440E-06 8.32976E-08 0.00000E+00
 -1       381 3.89857E-06 8.02770E-08 4.13590E-25
 -1       382 3.86438E-06 7.28730E-08 0.00000E+00
 -1       383 3.83096E-06 6.34130E-08-4.13590E-25
 -1       384 3.79735E-06 5.44732E-08 8.27181E-25
 -1       385 3.76259E-06 4.86332E-08 0.00000E+00
 -1       386 3.72589E-06 4.79834E-08 0.00000E+00
 -1       387 3.68651E-06 5.46278E-08 4.13590E-25
 -1       388 3.64379E-06 7.02028E-08 0.00000E+00
 -1       389 3.59741E-06 9.64679E-08 4.13590E-25
 -1       390 3.54666E-06 1.34036E-07 0.00000E+00
 -1       406 3.79696E-06 1.08217E-07 0.00000E+00
 -1       407 3.74539E-06 1.23557E-07 0.00000E+00
 -1       408 3.68867E-06 1.38889E-07 0.00000E+00
 -1       409 3.62733E-06 1.54184E-07 0.00000E+00
 -1       410 3.56193E-06 1.69399E-07 0.00000E+00
 -1       466 2.67687E-06 1.83730E-07 0.00000E+00
 -1       467 2.73886E-06 3.97621E-07 8.27181E-25
 -1       468 2.80070E-06 5.08704E-07 0.00000E+00
 -1       469 2.86304E-06 5.45230E-07-8.27181E-25
 -1       470 2.92539E-06 5.24708E-07-1.65436E-24
 -1       471 2.98785E-06 4.64483E-07-8.27181E-25
 -1       472 3.05031E-06 3.76172E-07 1.65436E-24
 -1       473 3.11278E-06 2.71312E-07 8.27181E-25
 -1       474 3.17525E-06 1.59049E-07 1.65436E-24
 -1       475 3.23769E-06 4.85082E-08 0.00000E+00
 -1       476 3.30011E-06-5.09332E-08 1.65436E-24
 -1       477 3.36237E-06-1.29872E-07 0.00000E+00
 -1       478 3.42461E-06-1.75941E-07 0.00000E+00
 -1       479 3.48604E-06-1.76685E-07-4.13590E-25
 -1       480 3.54774E-06-1.13120E-07 0.00000E+00
 -1       481 2.22935E-06-1.52510E-07 0.00000E+00
 -1       482 1.88747E-06-1.43005E-07-1.03398E-25
 -1       483 1.59105E-06-1.33518E-07 0.00000E+00
 -1       484 1.33929E-06-1.23951E-07 0.00000E+00
 -1       485 1.13233E-06-1.14362E-07 0.00000E+00
 -1       486 2.40776E-06 2.03669E-07-8.27181E-25
 -1       487 2.21219E-06 5.23013E-07-8.27181E-25
 -1       488 2.03979E-06 7.81160E-07-1.65436E-24
 -1       489 1.89600E-06 9.61630E-07 0.00000E+00
 -1       490 1.78273E-06 1.06074E-06 1.65436E-24
 -1       491 1.70125E-06 1.07483E-06 0.00000E+00
 -1       492 1.64788E-06 1.01394E-06 1.65436E-24
 -1       493 1.61876E-06 8.88317E-07-8.27181E-25
 -1       494 1.60622E-06 7.18455E-07 0.00000E+00
 -1       495 1.60255E-06 5.25002E-07 0.00000E+00
 -1       496 1.59857E-06 3.32363E-07-1.65436E-24
 -1       497 1.58522E-06 1.64961E-07-8.27181E-25
 -1       498 1.55475E-06 4.32170E-08 0.00000E+00
 -1       499 1.49997E-06-1.24086E-08 8.27181E-25
 -1       500 1.41664E-06 7.58990E-09 1.65436E-24
 -1       501 3.58568E-06 1.86636E-07 0.00000E+00
 -1       502 3.56718E-06 2.66842E-07 0.00000E+00
 -1       503 3.54862E-06 2.83011E-07 0.00000E+00
 -1       504 3.53026E-06 2.43673E-07-4.13590E-25
 -1       505 3.51189E-06 1.59570E-07 0.00000E+00
 -1       506 3.49357E-06 4.14839E-08-2.06795E-25
 -1       507 3.47524E-06-9.84481E-08 4.13590E-25
 -1       508 3.45692E-06-2.48076E-07 0.00000E+00
 -1       509 3.43860E-06-3.94858E-07 4.13590E-25
 -1       510 3.42029E-06-5.26256E-07 0.00000E+00
 -1       511 3.40197E-06-6.30349E-07 4.13590E-25
 -1       512 3.38366E-06-6.95233E-07 0.00000E+00
 -1       513 3.36536E-06-7.10567E-07 0.00000E+00
 -1       514 3.34704E-06-6.66053E-07-2.06795E-25
 -1       515 3.32872E-06-5.53777E-07 0.00000E+00
 -1       516 3.34089E-06 4.54614E-08 0.00000E+00
 -1       517 2.92803E-06 5.92253E-08 2.58494E-26
 -1       518 2.44223E-06 7.28043E-08 0.00000E+00
 -1       519 1.95910E-06 8.66265E-08-5.16988E-26
 -1       520 1.55431E-06 1.00565E-07 0.00000E+00
 -1       521 3.41842E-06 1.39635E-07 3.30872E-24
 -1       522 3.25055E-06 1.83328E-07-1.65436E-24
 -1       523 3.10211E-06 1.75472E-07 3.30872E-24
 -1       524 2.96904E-06 1.24955E-07 0.00000E+00
 -1       525 2.84838E-06 4.11209E-08-3.30872E-24
 -1       526 2.73666E-06-6.68302E-08 1.65436E-24
 -1       527 2.63048E-06-1.89635E-07 3.30872E-24
 -1       528 2.52638E-06-3.18038E-07-1.65436E-24
 -1       529 2.42090E-06-4.42772E-07-3.30872E-24
 -1       530 2.31060E-06-5.54574E-07 0.00000E+00
 -1       531 2.19200E-06-6.44201E-07 0.00000E+00
 -1       532 2.06173E-06-7.02415E-07-1.65436E-24
 -1       533 1.91631E-06-7.20045E-07 0.00000E+00
 -1       534 1.75279E-06-6.87794E-07 1.65436E-24
 -1       535 1.56714E-06-5.96813E-07 0.00000E+00
 -1       536 3.31104E-06-1.66932E-07-4.13590E-25
 -1       537 3.31265E-06-1.59179E-08 0.00000E+00
 -1       538 3.31426E-06 9.22482E-08 0.00000E+00
 -1       539 3.31600E-06 1.62698E-07 0.00000E+00
 -1       540 3.31777E-06 2.00550E-07 2.26182E-26
 -1       541 3.31956E-06 2.10927E-07 1.93870E-26
 -1       542 3.32136E-06 1.98951E-07 5.16988E-26
 -1       543 3.32316E-06 1.69744E-07 2.58494E-26
 -1       544 3.32497E-06 1.28426E-07-5.16988E-26
 -1       545 3.32678E-06 8.01194E-08 0.00000E+00
 -1       546 3.32859E-06 2.99441E-08 0.00000E+00
 -1       547 3.33040E-06-1.69781E-08 2.58494E-26
 -1       548 3.33221E-06-5.55268E-08-1.03398E-25
 -1       549 3.33403E-06-8.05818E-08 5.16988E-26
 -1       550 3.33585E-06-8.70182E-08-1.03398E-25
 -1       551 3.01914E-06-3.77528E-07-1.29247E-25
 -1       552 2.69442E-06-3.88858E-07-5.16988E-26
 -1       553 2.35103E-06-4.00177E-07 4.13590E-25
 -1       554 2.00409E-06-4.11638E-07 1.24077E-24
 -1       555 1.66871E-06-4.23419E-07 0.00000E+00
 -1       556 3.22621E-06-1.79198E-07 0.00000E+00
 -1       557 3.15862E-06-3.55822E-08 0.00000E+00
 -1       558 3.10571E-06 6.90850E-08 0.00000E+00
 -1       559 3.06577E-06 1.39322E-07 0.00000E+00
 -1       560 3.03705E-06 1.79650E-07 0.00000E+00
 -1       561 3.01784E-06 1.94629E-07 0.00000E+00
 -1       562 3.00644E-06 1.88819E-07 0.00000E+00
 -1       563 3.00112E-06 1.66782E-07 0.00000E+00
 -1       564 3.00018E-06 1.33084E-07 0.00000E+00
 -1       565 3.00190E-06 9.22879E-08 2.06795E-25
 -1       566 3.00457E-06 4.89591E-08 0.00000E+00
 -1       567 3.00649E-06 7.66298E-09 0.00000E+00
 -1       568 3.00595E-06-2.70362E-08 1.03398E-25
 -1       569 3.00127E-06-5.05782E-08 2.58494E-26
 -1       570 2.99077E-06-5.84061E-08-1.03398E-25
 -1       571 3.34705E-06-4.77924E-08 2.06795E-25
 -1       572 3.35666E-06-3.26997E-08 7.75482E-26
 -1       573 3.36635E-06-2.32222E-08 0.00000E+00
 -1       574 3.37608E-06-1.80610E-08 0.00000E+00
 -1       575 3.38583E-06-1.59121E-08 2.06795E-25
 -1       576 3.39558E-06-1.54626E-08 0.00000E+00
 -1       577 3.40534E-06-1.53992E-08 0.00000E+00
 -1       578 3.41509E-06-1.44076E-08-2.06795E-25
 -1       579 3.42485E-06-1.11730E-08-4.13590E-25
 -1       580 3.43461E-06-4.38119E-09 0.00000E+00
 -1       581 3.44437E-06 7.28220E-09 4.13590E-25
 -1       582 3.45412E-06 2.51300E-08 0.00000E+00
 -1       583 3.46388E-06 5.04738E-08 0.00000E+00
 -1       584 3.47362E-06 8.46116E-08 0.00000E+00
 -1       585 3.48336E-06 1.28835E-07 0.00000E+00
 -1       586 3.28544E-06-6.57059E-08-2.06795E-25
 -1       587 3.22555E-06-6.16419E-08 0.00000E+00
 -1       588 3.16117E-06-5.75811E-08 0.00000E+00
 -1       589 3.09551E-06-5.35596E-08 1.29247E-26
 -1       590 3.03177E-06-4.96283E-08 0.00000E+00
 -1       591 3.32204E-06-4.41021E-08-1.03398E-25
 -1       592 3.30760E-06-2.29933E-08 0.00000E+00
 -1       593 3.29445E-06-5.54505E-09 0.00000E+00
 -1       594 3.28233E-06 9.03034E-09-1.03398E-25
 -1       595 3.27098E-06 2.15204E-08-2.06795E-25
 -1       596 3.26010E-06 3.27071E-08 0.00000E+00
 -1       597 3.24942E-06 4.33717E-08 2.06795E-25
 -1       598 3.23865E-06 5.42943E-08-1.03398E-25
 -1       599 3.22748E-06 6.62557E-08-1.03398E-25
 -1       600 3.21563E-06 8.00358E-08 0.00000E+00
 -1       601 3.20281E-06 9.64150E-08-1.03398E-25
 -1       602 3.18873E-06 1.16175E-07-7.75482E-26
 -1       603 3.17311E-06 1.40097E-07 1.80946E-25
 -1       604 3.15568E-06 1.68967E-07 1.93870E-26
 -1       605 3.13619E-06 2.03574E-07 5.16988E-26
 -1       606 3.49668E-06 2.58338E-07 0.00000E+00
 -1       607 3.50007E-06 3.39693E-07 0.00000E+00
 -1       608 3.50340E-06 4.27970E-07 0.00000E+00
 -1       609 3.50669E-06 5.22674E-07-2.06795E-25
 -1       610 3.50997E-06 6.23310E-07 0.00000E+00
 -1       611 3.51324E-06 7.29371E-07 0.00000E+00
 -1       612 3.51651E-06 8.40350E-07 0.00000E+00
 -1       613 3.51978E-06 9.55742E-07 0.00000E+00
 -1       614 3.52305E-06 1.07504E-06 2.06795E-25
 -1       615 3.52631E-06 1.19773E-06 0.00000E+00
 -1       616 3.52958E-06 1.32331E-06 0.00000E+00
 -1       617 3.53284E-06 1.45127E-06 0.00000E+00
 -1       618 3.53611E-06 1.58111E-06 0.00000E+00
 -1       619 3.53937E-06 1.71231E-06 0.00000E+00
 -1       620 3.54262E-06 1.84437E-06 1.03398E-25
 -1       621 3.42336E-06 1.94443E-07 0.00000E+00
 -1       622 3.35522E-06 2.04606E-07 0.00000E+00
 -1       623 3.28945E-06 2.14770E-07 2.06795E-25
 -1       624 3.22689E-06 2.24907E-07 1.03398E-25
 -1       625 3.16838E-06 2.34984E-07-2.06795E-25
 -1       626 3.47142E-06 2.62100E-07 4.13590E-25
 -1       627 3.44679E-06 3.47545E-07-2.06795E-25
 -1       628 3.41951E-06 4.39962E-07 0.00000E+00
 -1       629 3.38991E-06 5.38547E-07 0.00000E+00
 -1       630 3.35828E-06 6.42498E-07 4.13590E-25
 -1       631 3.32496E-06 7.50994E-07 0.00000E+00
 -1       632 3.29023E-06 8.63216E-07 0.00000E+00
 -1       633 3.25441E-06 9.78348E-07-1.03398E-25
 -1       634 3.21780E-06 1.09557E-06 2.06795E-25
 -1       635 3.18072E-06 1.21406E-06 0.00000E+00
 -1       636 3.14347E-06 1.33299E-06 0.00000E+00
 -1       637 3.10636E-06 1.45156E-06-5.16988E-26
 -1       638 3.06968E-06 1.56893E-06 1.03398E-25
 -1       639 3.03372E-06 1.68429E-06 5.16988E-26
 -1       640 2.99876E-06 1.79681E-06 2.58494E-26
 -1       641 3.54591E-06 2.11395E-06 0.00000E+00
 -1       642 3.54588E-06 2.26540E-06 0.00000E+00
 -1       643 3.54584E-06 2.42905E-06 0.00000E+00
 -1       644 3.54579E-06 2.60284E-06 1.61559E-27
 -1       645 3.54573E-06 2.78471E-06 8.07794E-28
 -1       646 3.54567E-06 2.97257E-06-2.01948E-28
 -1       647 3.54561E-06 3.16437E-06 0.00000E+00
 -1       648 3.54554E-06 3.35804E-06 8.07794E-28
 -1       649 3.54547E-06 3.55150E-06 3.23117E-27
 -1       650 3.54540E-06 3.74268E-06 3.23117E-27
 -1       651 3.54533E-06 3.92952E-06-1.29247E-26
 -1       652 3.54525E-06 4.10995E-06-1.29247E-26
 -1       653 3.54516E-06 4.28189E-06 5.16988E-26
 -1       654 3.54500E-06 4.44329E-06-5.16988E-26
 -1       655 3.54486E-06 4.59206E-06 2.06795E-25
 -1       656 3.42731E-06 1.96534E-06 2.06795E-25
 -1       657 3.32518E-06 1.95329E-06 0.00000E+00
 -1       658 3.23367E-06 1.94126E-06-2.06795E-25
 -1       659 3.14699E-06 1.92923E-06 0.00000E+00
 -1       660 3.05934E-06 1.91717E-06 0.00000E+00
 -1       661 3.50774E-06 2.11802E-06-2.06795E-25
 -1       662 3.46598E-06 2.27042E-06-2.06795E-25
 -1       663 3.42068E-06 2.43222E-06 0.00000E+00
 -1       664 3.37254E-06 2.60182E-06 0.00000E+00
 -1       665 3.32208E-06 2.77761E-06 0.00000E+00
 -1       666 3.26992E-06 2.95796E-06 0.00000E+00
 -1       667 3.21665E-06 3.14127E-06 0.00000E+00
 -1       668 3.16288E-06 3.32594E-06 0.00000E+00
 -1       669 3.10920E-06 3.51035E-06-4.13590E-25
 -1       670 3.05622E-06 3.69289E-06 0.00000E+00
 -1       671 3.00454E-06 3.87196E-06 0.00000E+00
 -1       672 2.95475E-06 4.04594E-06 0.00000E+00
 -1       673 2.90745E-06 4.21323E-06 0.00000E+00
 -1       674 2.86316E-06 4.37218E-06 0.00000E+00
 -1       675 2.82260E-06 4.52122E-06-2.06795E-25
 -1       676 3.41759E-06 4.71482E-06-4.13590E-25
 -1       677 3.29092E-06 4.70346E-06 0.00000E+00
 -1       678 3.16435E-06 4.69210E-06 4.13590E-25
 -1       679 3.03791E-06 4.68079E-06 1.03398E-25
 -1       680 2.91166E-06 4.66947E-06 0.00000E+00
 -1       681 9.90666E-07 1.10739E-08-4.13590E-25
 -1       682 1.01160E-06 8.01352E-08 0.00000E+00
 -1       683 1.03250E-06 1.10665E-07 0.00000E+00
 -1       684 1.05351E-06 1.10984E-07 0.00000E+00
 -1       685 1.07452E-06 8.79926E-08 0.00000E+00
 -1       686 1.09555E-06 4.85663E-08-4.13590E-25
 -1       687 1.11659E-06-1.19169E-09 0.00000E+00
 -1       688 1.13763E-06-5.51880E-08 0.00000E+00
 -1       689 1.15866E-06-1.07531E-07 0.00000E+00
 -1       690 1.17969E-06-1.52325E-07 0.00000E+00
 -1       691 1.20072E-06-1.83319E-07 8.27181E-25
 -1       692 1.22169E-06-1.94252E-07 0.00000E+00
 -1       693 1.24265E-06-1.77914E-07 4.13590E-25
 -1       694 1.26336E-06-1.27071E-07 2.06795E-25
 -1       695 1.28416E-06-3.28647E-08 1.03398E-25
 -1       696 8.20548E-07-8.78691E-08 4.13590E-25
 -1       697 6.50498E-07-7.03990E-08-2.06795E-25
 -1       698 4.71778E-07-5.29574E-08 4.13590E-25
 -1       699 2.95981E-07-3.53838E-08 2.06795E-25
 -1       700 1.34817E-07-1.78192E-08-8.27181E-25
 -1       701 9.01252E-07 1.51178E-08-2.06795E-25
 -1       702 8.39696E-07 1.11485E-07 0.00000E+00
 -1       703 7.86680E-07 1.85329E-07 0.00000E+00
 -1       704 7.41664E-07 2.37194E-07 4.13590E-25
 -1       705 7.04159E-07 2.69031E-07-8.27181E-25
 -1       706 6.73414E-07 2.82719E-07-4.13590E-25
 -1       707 6.48371E-07 2.81196E-07 0.00000E+00
 -1       708 6.27923E-07 2.67399E-07-4.13590E-25
 -1       709 6.10727E-07 2.44929E-07 0.00000E+00
 -1       710 5.95437E-07 2.17396E-07 0.00000E+00
 -1       711 5.80590E-07 1.88688E-07 0.00000E+00
 -1       712 5.64765E-07 1.62708E-07 0.00000E+00
 -1       713 5.46512E-07 1.43204E-07 0.00000E+00
 -1       714 5.24631E-07 1.34011E-07 0.00000E+00
 -1       715 4.97646E-07 1.38186E-07 0.00000E+00
 -1       716 1.30667E-06 2.47593E-07 0.00000E+00
 -1       717 1.31037E-06 3.04436E-07 8.07794E-28
 -1       718 1.31402E-06 2.96237E-07 0.00000E+00
 -1       719 1.31780E-06 2.35087E-07-5.16988E-26
 -1       720 1.32157E-06 1.32635E-07 0.00000E+00
 -1       721 1.32537E-06 5.23459E-10 5.16988E-26
 -1       722 1.32916E-06-1.49855E-07-1.03398E-25
 -1       723 1.33296E-06-3.07113E-07 0.00000E+00
 -1       724 1.33675E-06-4.59920E-07 1.03398E-25
 -1       725 1.34053E-06-5.96941E-07 0.00000E+00
 -1       726 1.34430E-06-7.06714E-07-5.16988E-26
 -1       727 1.34800E-06-7.77770E-07 1.29247E-26
 -1       728 1.35169E-06-7.98311E-07 0.00000E+00
 -1       729 1.35499E-06-7.56537E-07 0.00000E+00
 -1       730 1.35842E-06-6.40127E-07-8.27181E-25
 -1       731 1.12917E-06 1.20533E-07 0.00000E+00
 -1       732 9.51561E-07 1.28255E-07 0.00000E+00
 -1       733 7.83515E-07 1.35929E-07 2.06795E-25
 -1       734 6.37759E-07 1.43740E-07 1.03398E-25
 -1       735 5.27411E-07 1.51567E-07 0.00000E+00
 -1       736 1.19655E-06 2.56866E-07 8.27181E-25
 -1       737 1.09698E-06 3.75613E-07 8.27181E-25
 -1       738 1.00835E-06 4.65473E-07 0.00000E+00
 -1       739 9.32153E-07 5.21396E-07-8.27181E-25
 -1       740 8.69008E-07 5.42502E-07-1.65436E-24
 -1       741 8.19209E-07 5.27865E-07 0.00000E+00
 -1       742 7.81569E-07 4.80795E-07 1.65436E-24
 -1       743 7.54820E-07 4.04650E-07 0.00000E+00
 -1       744 7.36412E-07 3.06260E-07 0.00000E+00
 -1       745 7.23773E-07 1.92504E-07 0.00000E+00
 -1       746 7.13663E-07 7.20098E-08-1.65436E-24
 -1       747 7.02882E-07-4.65567E-08 0.00000E+00
 -1       748 6.88228E-07-1.54788E-07-1.65436E-24
 -1       749 6.66795E-07-2.44194E-07 8.27181E-25
 -1       750 6.35902E-07-3.08651E-07 8.27181E-25
 -1       751 1.45460E-06-2.26454E-07-8.27181E-25
 -1       752 1.55545E-06-8.90051E-08-8.27181E-25
 -1       753 1.65591E-06-6.00001E-09 3.30872E-24
 -1       754 1.75752E-06 4.07132E-08 0.00000E+00
 -1       755 1.85917E-06 6.04953E-08 0.00000E+00
 -1       756 1.96104E-06 6.25834E-08 0.00000E+00
 -1       757 2.06294E-06 5.19185E-08-3.30872E-24
 -1       758 2.16488E-06 3.33833E-08 0.00000E+00
 -1       759 2.26682E-06 9.94868E-09 0.00000E+00
 -1       760 2.36874E-06-1.54374E-08 0.00000E+00
 -1       761 2.47065E-06-4.03004E-08 3.30872E-24
 -1       762 2.57239E-06-6.21636E-08 1.65436E-24
 -1       763 2.67411E-06-7.78224E-08 0.00000E+00
 -1       764 2.77502E-06-8.40431E-08 0.00000E+00
 -1       765 2.87620E-06-7.53052E-08 1.65436E-24
 -1       766 1.13216E-06-4.22817E-07-4.13590E-25
 -1       767 9.43317E-07-4.06356E-07 0.00000E+00
 -1       768 7.93886E-07-3.90062E-07 0.00000E+00
 -1       769 6.84515E-07-3.73520E-07 0.00000E+00
 -1       770 6.17373E-07-3.56873E-07 0.00000E+00
 -1       771 1.21351E-06-2.43268E-07 3.30872E-24
 -1       772 1.08084E-06-8.85850E-08 0.00000E+00
 -1       773 9.61229E-07 3.08197E-08 3.30872E-24
 -1       774 8.53415E-07 1.18515E-07 0.00000E+00
 -1       775 7.56125E-07 1.78069E-07-3.30872E-24
 -1       776 6.68033E-07 2.13060E-07-1.65436E-24
 -1       777 5.87805E-07 2.27067E-07 0.00000E+00
 -1       778 5.14102E-07 2.23669E-07 0.00000E+00
 -1       779 4.45583E-07 2.06447E-07 1.65436E-24
 -1       780 3.80909E-07 1.78980E-07 8.27181E-25
 -1       781 3.18738E-07 1.44853E-07 0.00000E+00
 -1       782 2.57738E-07 1.07649E-07 0.00000E+00
 -1       783 1.96577E-07 7.09538E-08 0.00000E+00
 -1       784 1.33977E-07 3.83619E-08 0.00000E+00
 -1       785 6.86644E-08 1.34693E-08 1.65436E-24
 -1       786 2.98143E-06-1.09757E-08 0.00000E+00
 -1       787 2.99025E-06 1.62035E-08 0.00000E+00
 -1       788 2.99907E-06 3.67181E-08-2.06795E-25
 -1       789 3.00796E-06 5.17735E-08 0.00000E+00
 -1       790 3.01687E-06 6.25733E-08 0.00000E+00
 -1       791 3.02579E-06 7.03216E-08 0.00000E+00
 -1       792 3.03472E-06 7.62221E-08 0.00000E+00
 -1       793 3.04365E-06 8.14782E-08-1.03398E-25
 -1       794 3.05258E-06 8.72934E-08 0.00000E+00
 -1       795 3.06151E-06 9.48713E-08 0.00000E+00
 -1       796 3.07044E-06 1.05415E-07 2.06795E-25
 -1       797 3.07936E-06 1.20130E-07 0.00000E+00
 -1       798 3.08827E-06 1.40218E-07 0.00000E+00
 -1       799 3.09716E-06 1.66885E-07-1.03398E-25
 -1       800 3.10604E-06 2.01337E-07 0.00000E+00
 -1       801 2.71064E-06-3.80620E-08 0.00000E+00
 -1       802 2.16420E-06-2.97671E-08-1.03398E-25
 -1       803 1.47670E-06-2.16102E-08 1.29247E-26
 -1       804 7.91386E-07-1.37298E-08 4.13590E-25
 -1       805 2.51519E-07-5.73865E-09 0.00000E+00
 -1       806 2.94975E-06-1.46032E-08-4.13590E-25
 -1       807 2.92734E-06 1.32813E-08 0.00000E+00
 -1       808 2.90591E-06 3.82906E-08 8.27181E-25
 -1       809 2.88529E-06 6.10402E-08-2.06795E-25
 -1       810 2.86528E-06 8.21429E-08-4.13590E-25
 -1       811 2.84564E-06 1.02208E-07 2.06795E-25
 -1       812 2.82617E-06 1.21843E-07 4.13590E-25
 -1       813 2.80662E-06 1.41655E-07 2.06795E-25
 -1       814 2.78679E-06 1.62253E-07 2.06795E-25
 -1       815 2.76643E-06 1.84244E-07 1.03398E-25
 -1       816 2.74532E-06 2.08235E-07-2.06795E-25
 -1       817 2.72324E-06 2.34834E-07 0.00000E+00
 -1       818 2.69996E-06 2.64648E-07 2.06795E-25
 -1       819 2.67529E-06 2.98286E-07 5.16988E-26
 -1       820 2.64901E-06 3.36357E-07-2.06795E-25
 -1       821 3.10589E-06 3.00462E-07 0.00000E+00
 -1       822 3.09654E-06 3.68826E-07 0.00000E+00
 -1       823 3.08719E-06 4.48533E-07-2.06795E-25
 -1       824 3.07775E-06 5.38238E-07 1.03398E-25
 -1       825 3.06831E-06 6.36601E-07 0.00000E+00
 -1       826 3.05884E-06 7.42279E-07 0.00000E+00
 -1       827 3.04938E-06 8.53926E-07-2.06795E-25
 -1       828 3.03991E-06 9.70202E-07 0.00000E+00
 -1       829 3.03044E-06 1.08976E-06 0.00000E+00
 -1       830 3.02097E-06 1.21126E-06 0.00000E+00
 -1       831 3.01150E-06 1.33335E-06 0.00000E+00
 -1       832 3.00205E-06 1.45469E-06 0.00000E+00
 -1       833 2.99261E-06 1.57393E-06 0.00000E+00
 -1       834 2.98323E-06 1.68973E-06 1.03398E-25
 -1       835 2.97385E-06 1.80075E-06 0.00000E+00
 -1       836 3.05036E-06 2.66809E-07 0.00000E+00
 -1       837 2.96570E-06 2.89629E-07 0.00000E+00
 -1       838 2.87058E-06 3.12409E-07 0.00000E+00
 -1       839 2.77486E-06 3.35133E-07 0.00000E+00
 -1       840 2.68842E-06 3.57891E-07 0.00000E+00
 -1       841 3.09367E-06 3.00306E-07 0.00000E+00
 -1       842 3.06725E-06 3.69743E-07 0.00000E+00
 -1       843 3.03621E-06 4.51532E-07-1.61559E-27
 -1       844 3.00111E-06 5.44045E-07-3.23117E-27
 -1       845 2.96260E-06 6.45672E-07 0.00000E+00
 -1       846 2.92127E-06 7.54788E-07 0.00000E+00
 -1       847 2.87774E-06 8.69764E-07 0.00000E+00
 -1       848 2.83262E-06 9.88972E-07 0.00000E+00
 -1       849 2.78652E-06 1.11078E-06-1.29247E-26
 -1       850 2.74006E-06 1.23355E-06 6.46235E-27
 -1       851 2.69386E-06 1.35565E-06 1.29247E-26
 -1       852 2.64850E-06 1.47545E-06 0.00000E+00
 -1       853 2.60463E-06 1.59131E-06-2.58494E-26
 -1       854 2.56280E-06 1.70160E-06 0.00000E+00
 -1       855 2.52368E-06 1.80469E-06 0.00000E+00
 -1       856 2.95426E-06 2.01853E-06 1.03398E-25
 -1       857 2.94307E-06 2.15195E-06 1.03398E-25
 -1       858 2.93189E-06 2.30324E-06 4.13590E-25
 -1       859 2.92063E-06 2.46966E-06 2.06795E-25
 -1       860 2.90935E-06 2.64850E-06-4.13590E-25
 -1       861 2.89806E-06 2.83705E-06 2.06795E-25
 -1       862 2.88676E-06 3.03259E-06 0.00000E+00
 -1       863 2.87546E-06 3.23241E-06 0.00000E+00
 -1       864 2.86416E-06 3.43377E-06-4.13590E-25
 -1       865 2.85286E-06 3.63397E-06 2.06795E-25
 -1       866 2.84156E-06 3.83028E-06 0.00000E+00
 -1       867 2.83028E-06 4.01999E-06 2.06795E-25
 -1       868 2.81900E-06 4.20038E-06 4.13590E-25
 -1       869 2.80777E-06 4.36874E-06 0.00000E+00
 -1       870 2.79654E-06 4.52234E-06 0.00000E+00
 -1       871 2.87623E-06 1.90469E-06 0.00000E+00
 -1       872 2.79480E-06 1.90364E-06 0.00000E+00
 -1       873 2.71794E-06 1.90255E-06 0.00000E+00
 -1       874 2.64294E-06 1.90143E-06 0.00000E+00
 -1       875 2.56708E-06 1.90026E-06 0.00000E+00
 -1       876 2.93837E-06 2.02225E-06-2.06795E-25
 -1       877 2.90591E-06 2.15653E-06-2.06795E-25
 -1       878 2.86773E-06 2.30602E-06 4.13590E-25
 -1       879 2.82477E-06 2.46853E-06 0.00000E+00
 -1       880 2.77777E-06 2.64182E-06 4.13590E-25
 -1       881 2.72759E-06 2.82364E-06 0.00000E+00
 -1       882 2.67505E-06 3.01179E-06 4.13590E-25
 -1       883 2.62097E-06 3.20403E-06 0.00000E+00
 -1       884 2.56618E-06 3.39814E-06 0.00000E+00
 -1       885 2.51153E-06 3.59190E-06-2.06795E-25
 -1       886 2.45783E-06 3.78309E-06 0.00000E+00
 -1       887 2.40591E-06 3.96948E-06 0.00000E+00
 -1       888 2.35662E-06 4.14885E-06 4.13590E-25
 -1       889 2.31067E-06 4.31895E-06 2.06795E-25
 -1       890 2.26905E-06 4.47758E-06 0.00000E+00
 -1       891 2.67683E-06 4.65248E-06 0.00000E+00
 -1       892 2.58955E-06 4.64639E-06 1.03398E-25
 -1       893 2.51261E-06 4.64031E-06 0.00000E+00
 -1       894 2.43481E-06 4.63424E-06-5.16988E-26
 -1       895 2.34493E-06 4.62816E-06-1.03398E-25
 -1       896 2.89422E-08 1.05483E-07 0.00000E+00
 -1       897 5.81283E-08 1.79092E-07 0.00000E+00
 -1       898 8.73008E-08 2.26290E-07 0.00000E+00
 -1       899 1.16520E-07 2.52505E-07 4.13590E-25
 -1       900 1.45740E-07 2.61783E-07 0.00000E+00
 -1       901 1.74970E-07 2.58147E-07 4.13590E-25
 -1       902 2.04200E-07 2.44772E-07 0.00000E+00
 -1       903 2.33430E-07 2.24819E-07 0.00000E+00
 -1       904 2.62659E-07 2.01013E-07 8.27181E-25
 -1       905 2.91880E-07 1.76078E-07 0.00000E+00
 -1       906 3.21097E-07 1.52662E-07 0.00000E+00
 -1       907 3.50278E-07 1.33413E-07 0.00000E+00
 -1       908 3.79454E-07 1.21258E-07 0.00000E+00
 -1       909 4.08447E-07 1.19128E-07 0.00000E+00
 -1       910 4.37501E-07 1.30618E-07 0.00000E+00
 -1       911 4.73653E-07 1.86875E-07-2.06795E-25
 -1       912 4.81819E-07 1.94790E-07-1.03398E-25
 -1       913 4.89978E-07 1.85857E-07 0.00000E+00
 -1       914 4.98158E-07 1.62845E-07 0.00000E+00
 -1       915 5.06337E-07 1.28268E-07 2.06795E-25
 -1       916 5.14520E-07 8.46336E-08-1.03398E-25
 -1       917 5.22703E-07 3.42876E-08 0.00000E+00
 -1       918 5.30885E-07-2.04289E-08 0.00000E+00
 -1       919 5.39065E-07-7.72528E-08-2.06795E-25
 -1       920 5.47238E-07-1.33921E-07 0.00000E+00
 -1       921 5.55406E-07-1.88171E-07 0.00000E+00
 -1       922 5.63538E-07-2.37736E-07 0.00000E+00
 -1       923 5.71665E-07-2.80265E-07 0.00000E+00
 -1       924 5.79609E-07-3.13405E-07-2.58494E-26
 -1       925 5.87614E-07-3.34634E-07 0.00000E+00
 -1       926 5.58474E-07-3.39586E-07 0.00000E+00
 -1       927 5.21420E-07-3.34988E-07 0.00000E+00
 -1       928 4.84422E-07-3.27293E-07 0.00000E+00
 -1       929 4.47257E-07-3.16172E-07 0.00000E+00
 -1       930 4.10087E-07-3.01570E-07 0.00000E+00
 -1       931 3.72885E-07-2.83436E-07-4.13590E-25
 -1       932 3.35677E-07-2.62002E-07-8.27181E-25
 -1       933 2.98462E-07-2.37505E-07 0.00000E+00
 -1       934 2.61245E-07-2.10428E-07 0.00000E+00
 -1       935 2.24023E-07-1.81257E-07-4.13590E-25
 -1       936 1.86798E-07-1.50646E-07 8.27181E-25
 -1       937 1.49558E-07-1.19251E-07 4.13590E-25
 -1       938 1.12315E-07-8.77910E-08-8.27181E-25
 -1       939 7.49945E-08-5.69851E-08-8.27181E-25
 -1       940 3.77005E-08-2.75001E-08-1.65436E-24
 -1       941 1.55347E-07 2.51166E-08-1.65436E-24
 -1       942 3.19279E-07 4.74874E-08 0.00000E+00
 -1       943 4.82663E-07 6.79496E-08 3.30872E-24
 -1       944 6.47683E-07 8.73253E-08-1.65436E-24
 -1       945 8.12748E-07 1.05987E-07 6.61744E-24
 -1       946 9.78139E-07 1.24304E-07-3.30872E-24
 -1       947 1.14357E-06 1.42499E-07-6.61744E-24
 -1       948 1.30905E-06 1.60796E-07 0.00000E+00
 -1       949 1.47454E-06 1.79460E-07-6.61744E-24
 -1       950 1.63999E-06 1.98759E-07 0.00000E+00
 -1       951 1.80541E-06 2.19227E-07 6.61744E-24
 -1       952 1.97057E-06 2.41403E-07-1.65436E-24
 -1       953 2.13569E-06 2.66539E-07 0.00000E+00
 -1       954 2.29950E-06 2.95905E-07-1.65436E-24
 -1       955 2.46375E-06 3.32525E-07-3.30872E-24
 -1       956 2.61292E-06 4.39412E-07 1.03398E-25
 -1       957 2.60460E-06 5.08567E-07-5.16988E-26
 -1       958 2.59626E-06 5.86025E-07 2.06795E-25
 -1       959 2.58789E-06 6.70804E-07 0.00000E+00
 -1       960 2.57953E-06 7.61920E-07 1.03398E-25
 -1       961 2.57116E-06 8.58381E-07-1.03398E-25
 -1       962 2.56278E-06 9.59196E-07-2.06795E-25
 -1       963 2.55441E-06 1.06337E-06 0.00000E+00
 -1       964 2.54604E-06 1.16992E-06 0.00000E+00
 -1       965 2.53766E-06 1.27785E-06 0.00000E+00
 -1       966 2.52929E-06 1.38616E-06-2.06795E-25
 -1       967 2.52092E-06 1.49387E-06 0.00000E+00
 -1       968 2.51255E-06 1.59998E-06 0.00000E+00
 -1       969 2.50420E-06 1.70350E-06 0.00000E+00
 -1       970 2.49587E-06 1.80345E-06 0.00000E+00
 -1       971 2.47207E-06 2.00139E-06 4.13590E-25
 -1       972 2.45606E-06 2.12582E-06-2.06795E-25
 -1       973 2.44005E-06 2.26942E-06 4.13590E-25
 -1       974 2.42398E-06 2.42944E-06-2.06795E-25
 -1       975 2.40789E-06 2.60311E-06 4.13590E-25
 -1       976 2.39180E-06 2.78766E-06 2.06795E-25
 -1       977 2.37569E-06 2.98032E-06-4.13590E-25
 -1       978 2.35959E-06 3.17833E-06-2.06795E-25
 -1       979 2.34348E-06 3.37890E-06 4.13590E-25
 -1       980 2.32738E-06 3.57928E-06 0.00000E+00
 -1       981 2.31128E-06 3.77669E-06 0.00000E+00
 -1       982 2.29520E-06 3.96835E-06-2.06795E-25
 -1       983 2.27914E-06 4.15151E-06 4.13590E-25
 -1       984 2.26316E-06 4.32339E-06-2.06795E-25
 -1       985 2.24718E-06 4.48122E-06-4.13590E-25
 -3
    1PSTEP                         2           1           1          
  100CL  101 6.25000E-02         841                     0    1           1
 -4  STRESS      6    1
 -5  SXX         1    4    1    1
 -5  SYY         1    4    2    2
 -5  SZZ         1    4    3    3
 -5  SXY         1    4    1    2
 -5  SYZ         1    4    2    3
 -5  SZX         1    4    3    1
 -1         1-2.65813E+05-8.55469E+04-5.49673E+04-7.49822E+04-5.69950E-11-8.48862E-12
 -1         2-1.68579E+05-1.19970E+04 2.12899E+02-1.67030E+04-1.07434E-11 4.52303E-10
 -1         3-8.84861E+04-3.00305E+04-4.99771E+03-7.23335E+03 1.05157E-10-3.70228E-10
 -1         4-4.55002E+04-7.57346E+03 6.95518E+01-4.44942E+03-9.33387E-12 5.95506E-11
 -1         5-2.42180E+04 1.07033E+04-1.13147E+04-4.78675E+02 9.07448E-10 3.70783E-10
 -1         8-1.43329E+05-5.76304E+04-2.19951E+04-5.28806E+04-5.95719E-11-4.06544E-10
 -1         9-1.51700E+05-3.61865E+04-1.91208E+04-3.44581E+04-1.78261E-10 2.37681E-10
 -1        10-7.52848E+04-4.12418E+04-4.90998E+03-1.85417E+04-3.35357E-10-4.10031E-10
 -1        11-4.36607E+04-1.17848E+04 6.02461E+01-9.49542E+03 9.45472E-11 3.63703E-11
 -1        12-2.86273E+04 8.28287E+03-1.25869E+04-3.81184E+03 2.99821E-10 9.54903E-11
 -1        15 1.66213E+03-7.41483E+03 2.73463E+02-1.27177E+04-8.20819E-11 2.75577E-10
 -1        16-8.11836E+04-1.26095E+04 5.85693E+03-3.80576E+04 5.34328E-11 5.06522E-10
 -1        17-4.99670E+04-3.24548E+04-5.34173E+03-2.72323E+04-3.48336E-10 2.71939E-10
 -1        18-2.47065E+04-1.23802E+04-9.17390E+03-1.33449E+04-1.33298E-10-1.40403E-10
 -1        19-5.47399E+03 5.85212E+03-4.95468E+03-3.90363E+03-8.37872E-11-7.06753E-11
 -1        20 8.33696E+03-6.26351E+03-1.08578E+03 4.55307E+03 3.60615E-10 3.78520E-10
 -1        21 8.80538E+01-1.24972E+04 3.45736E+03 1.76219E+00 7.35213E-10-2.21026E-10
 -1        22 2.74260E+03 1.58248E+04 1.05768E+02-3.85343E+03-8.27640E-11-1.92131E-11
 -1        23-3.26191E+04 5.05221E+02 3.53617E+02-1.51364E+04 7.37070E-11-9.47390E-12
 -1        24-1.81552E+04 3.72140E+03 2.39502E+04-3.94244E+04-1.40555E-09 1.03379E-10
 -1        25 4.95370E+04 1.58433E+04 1.50414E+04-2.47803E+04 9.76570E-11-9.40948E-11
 -1        26 1.94941E+02 1.31802E+04 6.57026E+02-2.44171E+03-4.07804E-11-2.32490E-10
 -1        27-2.92279E+03-5.24139E+03-2.26159E+03 6.33789E+03 4.37505E-11-2.66406E-10
 -1        28-9.97785E+02-9.91618E+03-5.39595E+01 4.79543E+03 8.29914E-12-4.25990E-10
 -1        29 4.00170E+04 2.70551E+04 1.12054E+02-1.32209E+02 2.27183E-11 2.73985E-11
 -1        30 1.25358E+04 4.00118E+03 1.69763E+02-3.89612E+03-1.25636E-10 1.75987E-10
 -1        31-4.65227E+04 3.74512E+03 3.97755E+02-9.70949E+03 7.91011E-10 1.42904E-10
 -1        32 6.79062E+04 3.79701E+04 4.82072E+04-4.08117E+04 1.26110E-09 4.12456E-10
 -1        33 1.15665E+05 4.58865E+04 3.53666E+04-3.54707E+03-2.37343E-09 1.09139E-10
 -1        34-1.68423E+04-2.13221E+03-4.00611E+02 3.64913E+03-4.80540E-11 1.04592E-10
 -1        35-2.82855E+03-3.32070E+03-5.82730E+01 7.16664E+03 3.87985E-10-1.82051E-10
 -1        36-3.60696E+05 1.10534E+04-2.55622E+04-3.06176E-08-8.02773E-11-1.78261E-10
 -1        37-3.71762E+05-1.27959E+04-1.80879E+04-2.69137E-08-2.92623E-11-2.77851E-10
 -1        38-3.64970E+05 1.73273E+03-6.61746E+03 7.10786E-09 1.18934E-12 2.63753E-10
 -1        39-3.66781E+05-2.00518E+03-4.16146E+03-3.43853E-08 9.85802E-12-3.34751E-10
 -1        40-3.65674E+05 2.71022E+02-1.70057E+03 2.95028E-09-1.57283E-10 3.44812E-10
 -1        41-3.65959E+05-3.17204E+02-1.01365E+03-4.23983E-08-4.83815E-10 7.86059E-10
 -1        42-3.65791E+05 4.59936E+01-4.92268E+02-3.38401E-08-5.47462E-10 1.32530E-10
 -1        43-3.65835E+05-7.91362E+01-3.83345E+02-1.48476E-08 2.16897E-10-4.02110E-10
 -1        44-3.65798E+05 3.31096E+01-3.76770E+02-8.47490E-09-3.26757E-12-1.51495E-10
 -1        45-3.65900E+05-2.06426E+02-6.79370E+02 5.91015E-09 3.94949E-11-5.56845E-10
 -1        46-3.65726E+05 1.73197E+02-1.09891E+03 1.02726E-08-1.42197E-10-4.22347E-11
 -1        47-3.66420E+05-1.27781E+03-2.65878E+03-3.39137E-08-5.22279E-11-4.57533E-10
 -1        48-3.65278E+05 1.10370E+03-4.21877E+03-4.65830E-08 4.85945E-10-3.55158E-10
 -1        49-3.69592E+05-8.15025E+03-1.15226E+04-5.67897E-09-3.47932E-10-4.07454E-10
 -1        50-3.62557E+05 7.04018E+03-1.62828E+04 1.01667E-08-4.18609E-10 7.09406E-11
 -1        51 2.95944E+03-3.51859E+04 4.68783E+03-9.11636E+04 5.45697E-12 7.27596E-12
 -1        52 1.14030E+03-3.44680E+04 2.80258E+03-1.00347E+05 1.72804E-11 3.11502E-10
 -1        53 5.85646E+02-3.50332E+04 2.25219E+03-9.09363E+04 1.00044E-11-2.63753E-10
 -1        54 1.50199E+03-3.44310E+04 3.40124E+03-1.00601E+05-3.72893E-11-4.18368E-11
 -1        55 4.04423E+03-3.54195E+04 6.18080E+03-9.09076E+04-1.09139E-11 3.36968E-10
 -1        56-4.00778E+05-4.53190E+04-3.29681E+04-1.55071E+05 5.00222E-12 2.91038E-11
 -1        57-4.16401E+05-7.19653E+04-2.21058E+04-1.51049E+05 4.12456E-10 7.06223E-10
 -1        58-4.07155E+05-5.57300E+04-7.77121E+03-1.53313E+05 5.08180E-11-3.40151E-10
 -1        59-4.09052E+05-5.97081E+04-4.60689E+03-1.53180E+05-1.03000E-10 2.95586E-10
 -1        60-4.08065E+05-5.71631E+04-1.81915E+03-1.53093E+05-4.21210E-11 1.05842E-10
 -1        61-4.08008E+05-5.80246E+04-1.02979E+03-1.53437E+05-7.44109E-10-1.43542E-09
 -1        62-4.08190E+05-5.73622E+04-5.02707E+02-1.53074E+05-1.09836E-10 3.91623E-10
 -1        63-4.07890E+05-5.78109E+04-4.21218E+02-1.53449E+05-1.52976E-10 1.16501E-10
 -1        64-4.08183E+05-5.73715E+04-4.89910E+02-1.53083E+05-4.46718E-11 6.15998E-10
 -1        65-4.08036E+05-5.79798E+04-9.92179E+02-1.53399E+05 2.32419E-11 1.17744E-09
 -1        66-4.08045E+05-5.71984E+04-1.74766E+03-1.53122E+05-1.71624E-10-5.11818E-10
 -1        67-4.09072E+05-5.95602E+04-4.42252E+03-1.53112E+05 1.38840E-11-3.21506E-10
 -1        68-4.07155E+05-5.58405E+04-7.45925E+03-1.53353E+05 6.59384E-11-3.64707E-10
 -1        69-4.16158E+05-7.12911E+04-2.12171E+04-1.51028E+05 1.90994E-10-1.14142E-10
 -1        70-4.01018E+05-4.58641E+04-3.16431E+04-1.55059E+05-3.86535E-11 3.65617E-10
 -1        71-1.71203E+05-4.07014E+02 9.41126E+02 1.11051E-08-1.34393E-10-6.13340E-11
 -1        72-1.70779E+05 4.71152E+02 6.65200E+02 7.49531E-09-2.38260E-10 4.96811E-10
 -1        73-1.71046E+05-6.37656E+01 2.41832E+02-4.98213E-08 1.39448E-10 5.41050E-10
 -1        74-1.70963E+05 7.35176E+01 1.49240E+02-2.83191E-09 9.71169E-11 2.74410E-10
 -1        75-1.71019E+05-9.69924E+00 5.49023E+01 1.02007E-08-4.68665E-11 3.66676E-11
 -1        76-1.70994E+05 9.52936E+00 2.07872E+01 1.95970E-08-1.27130E-10 2.32578E-10
 -1        77-1.71014E+05 1.76674E-01-1.28784E+01 2.24732E-09-1.77135E-10 2.08887E-10
 -1        78-1.71006E+05-1.11715E+01-5.41375E+01 2.25592E-09-1.39130E-11 4.59810E-10
 -1        79-1.71008E+05 1.09902E+01-1.09852E+02 1.70121E-08-2.82275E-11-5.12074E-10
 -1        80-1.71044E+05-8.34497E+01-2.59859E+02-1.86821E-08-3.81844E-10-2.14612E-10
 -1        81-1.70976E+05 7.24087E+01-4.50214E+02-1.01465E-08 7.26760E-11-6.48583E-11
 -1        82-1.71265E+05-5.36970E+02-1.11222E+03 1.40612E-08 3.00872E-10 1.42975E-10
 -1        83-1.70787E+05 4.64179E+02-1.77184E+03-2.05339E-08-1.11076E-10 1.72122E-10
 -1        84-1.72600E+05-3.42805E+03-4.84561E+03-1.25425E-08-3.08606E-10-2.12594E-10
 -1        85-1.69642E+05 2.96118E+03-6.84906E+03 1.40914E-08-2.03920E-10-2.36469E-10
 -1        86-7.85090E+03 1.77767E+04 1.84354E+04 7.69315E+01-5.45697E-12 3.44102E-10
 -1        87 9.74961E+03 2.59958E+04 1.42069E+04-3.16863E+02-3.91083E-11 1.84198E-10
 -1        88-1.89097E+03 2.04975E+04 7.13219E+03 7.09710E+01-7.77618E-11 5.90747E-10
 -1        89 6.40267E+03 2.44467E+04 9.84538E+03-3.09578E+02-2.93312E-11-1.53152E-10
 -1        90-4.50666E+03 1.93255E+04 1.09315E+04 6.96465E+01-1.00044E-10 1.50167E-10
 -1        91-1.81835E+05-2.46891E+04-2.20652E+03-6.85455E+04 2.83137E-10 8.08654E-10
 -1        92-1.82916E+05-2.67826E+04-1.53216E+03-6.82329E+04 2.07237E-09-2.97078E-10
 -1        93-1.82297E+05-2.54704E+04-5.18362E+02-6.83814E+04 7.54767E-07-2.82121E-07
 -1        94-1.82379E+05-2.58784E+04-3.26054E+02-6.84221E+04 1.50500E-06-5.63770E-07
 -1        95-1.82372E+05-2.55927E+04-1.26050E+02-6.83564E+04 7.54446E-07-2.82777E-07
 -1        96-1.82304E+05-2.57286E+04-8.38812E+01-6.84389E+04 2.42677E-09-1.70052E-09
 -1        97-1.82372E+05-2.56201E+04-5.52211E+01-6.83647E+04 7.78124E-11-6.70546E-11
 -1        98-1.82327E+05-2.56946E+04-8.14314E+01-6.84095E+04 5.19194E-10 8.27072E-12
 -1        99-1.82349E+05-2.56267E+04-1.27545E+02-6.83858E+04 1.29120E-10 3.76474E-10
 -1       100-1.82421E+05-2.57557E+04-3.08389E+02-6.83530E+04 6.10285E-10 8.82324E-10
 -1       101-1.82278E+05-2.55591E+04-5.28774E+02-6.84211E+04-1.20238E-10 6.96417E-10
 -1       102-1.82827E+05-2.63586E+04-1.42269E+03-6.82016E+04-8.65523E-09 3.56124E-09
 -1       103-1.81943E+05-2.50241E+04-2.27702E+03-6.85371E+04-3.35677E-06 1.25924E-06
 -1       104-1.85151E+05-3.03878E+04-6.74596E+03-6.74197E+04-6.69090E-06 2.51047E-06
 -1       105-1.79956E+05-2.15326E+04-9.71636E+03-6.92023E+04-3.35930E-06 1.25955E-06
 -1       106-9.68287E+04 1.27982E+02-2.96210E+02-2.24232E-08 1.74382E-11-4.39059E-10
 -1       107-9.69485E+04-1.48182E+02-2.09916E+02-7.71409E-09-5.48854E-11 3.26708E-11
 -1       108-9.68782E+04 2.00825E+01-7.75736E+01-2.59366E-08-6.13733E-11 3.72399E-10
 -1       109-9.68910E+04-2.33751E+01-5.01744E+01-1.84544E-08 4.60809E-11 5.31410E-10
 -1       110-9.68862E+04 3.27596E+00-2.34941E+01-5.04641E-10-7.72777E-11 4.88808E-10
 -1       111-9.68821E+04-4.72816E+00-1.98607E+01-1.04893E-09-1.02566E-10 2.58542E-10
 -1       112-9.68871E+04 1.44991E+00-2.09167E+01 3.18000E-08-6.64249E-11 7.73794E-11
 -1       113-9.68842E+04-7.82498E+00-3.79252E+01 9.18865E-09-6.95356E-12 1.25342E-10
 -1       114-9.68842E+04 6.37184E+00-6.50599E+01-1.38434E-08-5.81479E-11 9.62785E-13
 -1       115-9.69049E+04-4.70480E+01-1.47611E+02-3.89316E-09-1.40231E-10-2.73673E-10
 -1       116-9.68664E+04 4.06478E+01-2.53423E+02-1.36319E-08 3.07409E-11-4.42824E-10
 -1       117-9.70287E+04-3.01243E+02-6.24367E+02-8.56587E-09-5.56927E-11 9.33582E-11
 -1       118-9.67604E+04 2.60378E+02-9.94164E+02-1.23449E-09 3.10265E-11-2.37890E-10
 -1       119-9.77772E+04-1.92293E+03-2.71826E+03-3.72919E-08 3.67923E-10-3.67862E-10
 -1       120-9.61180E+04 1.66104E+03-3.84200E+03 7.03269E-09 1.63724E-10 1.90994E-11
 -1       121-1.35599E+02-8.68620E+04 6.46517E+02 7.32794E+02-3.31397E-11 1.03739E-11
 -1       122 2.02281E+02-8.66206E+04 4.60279E+02 2.63162E+03-7.16796E-11 1.96422E-10
 -1       123-2.40821E+01-8.67767E+04 2.81269E+02 7.36862E+02-1.08869E-10 6.87237E-11
 -1       124 1.62894E+02-8.66435E+04 3.89184E+02 2.61746E+03-2.20780E-10 2.95586E-11
 -1       125-1.05642E+02-8.68379E+04 5.10866E+02 7.46964E+02-2.21689E-10-1.14483E-10
 -1       126-8.47096E+04-1.18046E+04-2.64047E+02-3.18059E+04 9.83869E-07-3.68583E-07
 -1       127-8.48239E+04-1.20637E+04-1.83472E+02-3.17771E+04 1.96049E-06-7.35332E-07
 -1       128-8.47643E+04-1.18986E+04-6.23552E+01-3.17868E+04 9.99196E-07-3.74735E-07
 -1       129-8.47604E+04-1.19549E+04-3.97606E+01-3.17989E+04 3.19287E-08-1.22703E-08
 -1       130-8.47730E+04-1.19133E+04-1.65571E+01-3.17841E+04-1.24748E-06 4.67829E-07
 -1       131-8.47516E+04-1.19377E+04-1.34462E+01-3.18011E+04-2.52633E-06 9.47843E-07
 -1       132-8.47731E+04-1.19157E+04-1.30668E+01-3.17846E+04-3.62677E-06 1.35976E-06
 -1       133-8.47565E+04-1.19376E+04-2.52587E+01-3.17974E+04-4.72580E-06 1.77329E-06
 -1       134-8.47681E+04-1.19135E+04-4.35144E+01-3.17878E+04-5.43037E-06 2.03569E-06
 -1       135-8.47825E+04-1.19677E+04-1.08102E+02-3.17862E+04-6.13306E-06 2.30007E-06
 -1       136-8.47471E+04-1.18856E+04-1.86262E+02-3.17958E+04-6.20850E-06 2.32694E-06
 -1       137-8.49193E+04-1.21871E+04-5.01884E+02-3.17402E+04-6.28015E-06 2.35604E-06
 -1       138-8.46313E+04-1.16942E+04-8.03446E+02-3.18337E+04-5.52476E-06 2.07139E-06
 -1       139-8.57378E+04-1.36103E+04-2.38038E+03-3.14660E+04-4.75867E-06 1.78494E-06
 -1       140-8.39289E+04-1.04634E+04-3.42854E+03-3.20697E+04-2.38537E-06 8.94800E-07
 -1       141-4.57613E+04-2.98218E+02 6.89437E+02 1.42928E-08 6.04503E-11-1.73117E-10
 -1       142-4.54578E+04 3.45194E+02 4.87058E+02 6.15605E-09 2.85232E-11-9.91065E-11
 -1       143-4.56459E+04-4.67052E+01 1.76487E+02-2.30207E-08-6.15696E-11-2.07095E-10
 -1       144-4.55925E+04 5.37446E+01 1.07830E+02-1.39499E-08-6.66509E-11-8.13039E-12
 -1       145-4.56267E+04-7.00020E+00 3.73013E+01-7.34733E-09 4.12354E-11-1.43093E-10
 -1       146-4.56161E+04 6.16737E+00 8.96260E+00 8.21378E-09-3.87806E-11 4.62634E-10
 -1       147-4.56223E+04 8.37671E-01-2.11871E+01 1.27566E-08 5.35515E-12 1.70242E-10
 -1       148-4.56273E+04-1.35194E+01-6.55302E+01 9.68602E-09 3.17437E-11 8.28777E-11
 -1       149-4.56154E+04 1.26760E+01-1.27371E+02-2.76429E-09-8.69105E-11-3.50944E-10
 -1       150-4.56708E+04-9.56219E+01-2.98328E+02 2.41818E-08-7.87221E-11-3.70772E-10
 -1       151-4.55789E+04 8.28886E+01-5.15765E+02 3.31968E-08-1.74282E-11 3.43761E-10
 -1       152-4.59237E+04-6.14587E+02-1.27330E+03 1.23182E-08 6.73758E-11 6.75300E-10
 -1       153-4.53625E+04 5.31259E+02-2.02821E+03 5.08359E-09 2.18920E-10 8.57199E-11
 -1       154-4.74508E+04-3.92348E+03-5.54616E+03 1.06318E-08 8.88164E-11-3.14003E-10
 -1       155-4.40518E+04 3.38913E+03-7.83903E+03-4.46707E-09 5.48113E-10 2.56023E-10
 -1       156-1.48590E+03-1.60673E+04 3.53683E+03-2.82422E+01-2.50111E-11 4.12560E-06
 -1       157 1.95550E+03-1.44553E+04 2.91995E+03 1.15294E+02-9.68612E-11 8.21392E-06
 -1       158-4.68072E+02-1.56059E+04 1.76539E+03-2.80492E+01-1.20792E-13 4.12251E-06
 -1       159 2.04263E+03-1.44147E+04 3.03352E+03 1.13848E+02 1.01466E-11 1.19158E-08
 -1       160-1.57297E+03-1.61079E+04 3.73205E+03-2.67961E+01 3.79714E-11 2.16275E-10
 -1       161-4.79941E+04-6.70343E+03-1.12994E+02-1.80152E+04-3.37531E-08 1.27884E-08
 -1       162-4.80426E+04-6.81342E+03-7.88761E+01-1.80018E+04-6.77891E-08 2.55796E-08
 -1       163-4.80173E+04-6.74380E+03-2.76183E+01-1.80073E+04-4.23898E-07 1.58921E-07
 -1       164-4.80163E+04-6.76657E+03-1.92157E+01-1.80104E+04-7.80242E-07 2.92725E-07
 -1       165-4.80204E+04-6.75025E+03-1.14208E+01-1.80066E+04-1.13854E-06 4.27159E-07
 -1       166-4.80141E+04-6.76048E+03-1.58008E+01-1.80106E+04-1.49672E-06 5.60939E-07
 -1       167-4.80194E+04-6.74989E+03-2.46651E+01-1.80071E+04-1.76717E-06 6.62230E-07
 -1       168-4.80228E+04-6.77158E+03-5.65188E+01-1.80079E+04-2.03707E-06 7.64570E-07
 -1       169-4.80118E+04-6.73915E+03-1.02045E+02-1.80093E+04-2.20025E-06 8.25116E-07
 -1       170-4.80754E+04-6.85385E+03-2.56306E+02-1.79925E+04-2.36325E-06 8.86056E-07
 -1       171-4.79669E+04-6.66766E+03-4.42644E+02-1.80225E+04-2.37732E-06 8.91324E-07
 -1       172-4.83907E+04-7.38603E+03-1.19341E+03-1.78949E+04-2.38999E-06 8.96645E-07
 -1       173-4.76966E+04-6.20730E+03-1.91071E+03-1.81068E+04-2.16084E-06 8.10151E-07
 -1       174-5.03259E+04-1.07815E+04-5.66087E+03-1.72552E+04-1.92753E-06 7.23158E-07
 -1       175-4.60319E+04-3.27443E+03-8.15349E+03-1.86613E+04-9.66533E-07 3.61983E-07
 -1       191 9.10804E+01 4.43361E+04 1.44654E+02-9.17930E+02-5.91172E-11 2.36128E-10
 -1       192 3.41922E+01 4.43554E+04 8.65594E+01-9.75937E+02-7.61133E-11 6.82121E-13
 -1       193 1.68431E+01 4.43432E+04 6.99105E+01-8.99333E+02-1.50713E-10-3.14230E-10
 -1       194 4.48285E+01 4.43589E+04 1.05969E+02-1.01116E+03-1.76101E-10-2.44881E-10
 -1       195 1.24274E+02 4.43324E+04 1.92929E+02-8.82696E+02-2.19757E-10-5.82077E-11
 -1       251-2.36508E+05 5.66139E+03-1.30946E+04-1.13262E+02-8.34390E-11 2.42835E-10
 -1       252-2.42167E+05-6.55392E+03-9.26500E+03 1.12873E+02-8.03335E-11 5.18412E-11
 -1       253-2.38698E+05 8.87418E+02-3.39153E+03-4.68003E+01-1.17518E-10 5.93445E-11
 -1       254-2.39615E+05-1.02712E+03-2.13335E+03-3.02069E+01-8.05418E-11 7.72587E-10
 -1       255-2.39059E+05 1.38912E+02-8.76448E+02 2.98195E+01 2.66137E-10 1.08969E-10
 -1       256-2.39196E+05-1.63757E+02-5.29018E+02-1.67211E+02-1.70074E-10 4.56311E-10
 -1       257-2.39117E+05 2.47262E+01-2.71669E+02 9.02063E+01-2.01060E-10-1.29674E-11
 -1       258-2.39139E+05-4.93376E+01-2.38790E+02-2.50410E+02-4.40561E-10-8.94803E-10
 -1       259-2.39116E+05 2.46137E+01-2.70076E+02 1.13020E+02-2.13450E-10-3.22160E-11
 -1       260-2.39198E+05-1.62473E+02-5.25351E+02-2.50425E+02 2.26115E-11 4.87482E-10
 -1       261-2.39058E+05 1.37787E+02-8.68730E+02 9.02210E+01-3.53602E-11 4.10751E-10
 -1       262-2.39612E+05-1.01820E+03-2.11512E+03-1.67189E+02-3.04048E-10 2.06541E-10
 -1       263-2.38702E+05 8.79661E+02-3.36190E+03 2.97830E+01-1.49841E-10 3.80396E-10
 -1       264-2.42139E+05-6.49652E+03-9.18368E+03-2.94559E+01 1.77723E-10-5.95151E-10
 -1       265-2.36532E+05 5.61171E+03-1.29804E+04-4.75143E+01-4.68519E-10 2.52840E-10
 -1       266-1.94323E+03-4.04741E+04 4.40044E+03 3.13365E+02-3.86535E-12 4.98481E-11
 -1       267 2.05864E+03-3.85827E+04 2.77325E+03-1.21191E+03 4.32010E-12 1.87470E-10
 -1       268-1.13189E+02-3.96126E+04 4.28558E+02 3.33133E+02 2.50111E-12 4.26086E-11
 -1       269-1.08404E+03-4.00415E+04-1.32236E+03-1.21952E+03 1.54614E-11 7.88792E-10
 -1       270 1.19707E+03-3.90155E+04-2.64278E+03 3.20979E+02-4.32010E-12 7.89900E-10
 -1       271-3.36293E+05-4.26630E+04-2.59863E+04-1.29885E+05 4.50200E-11-5.92991E-10
 -1       272-3.44426E+05-5.98613E+04-1.62911E+04-1.31056E+05-2.93028E-11-1.92813E-10
 -1       273-3.40728E+05-4.82946E+04-6.13035E+03-1.29310E+05 4.98090E-11 2.54204E-10
 -1       274-3.39311E+05-5.24039E+04-3.34801E+03-1.32154E+05-2.18279E-11 2.68528E-10
 -1       275-3.41234E+05-4.88740E+04-1.42576E+03-1.29257E+05-5.38307E-11 2.56023E-10
 -1       276-3.38727E+05-5.16599E+04-7.52610E+02-1.32257E+05-1.17097E-11 8.37304E-11
 -1       277-3.41299E+05-4.89306E+04-3.86762E+02-1.29248E+05-8.07177E-12 6.30394E-11
 -1       278-3.38659E+05-5.15970E+04-3.01875E+02-1.32271E+05 4.39400E-11-4.82384E-10
 -1       279-3.41302E+05-4.89295E+04-3.60041E+02-1.29246E+05-2.63007E-11 2.53237E-11
 -1       280-3.38713E+05-5.16574E+04-6.79338E+02-1.32266E+05 8.09948E-11-1.75646E-11
 -1       281-3.41246E+05-4.88763E+04-1.27595E+03-1.29251E+05 6.11351E-11-1.02546E-10
 -1       282-3.39231E+05-5.23256E+04-2.99101E+03-1.32179E+05-4.13110E-11-2.98314E-10
 -1       283-3.40797E+05-4.83574E+04-5.47358E+03-1.29297E+05 7.72928E-11-1.04592E-11
 -1       284-3.43793E+05-5.89877E+04-1.45451E+04-1.31204E+05 6.48015E-12 1.87583E-10
 -1       285-3.36840E+05-4.33266E+04-2.32002E+04-1.29807E+05-2.25100E-11 1.00044E-10
 -1       286-5.84656E+04-1.31713E+03 3.04619E+03 6.50643E+00 1.95525E-10 6.43468E-11
 -1       287-5.71336E+04 1.52479E+03 2.15619E+03-7.89276E+01 2.57785E-11-5.73749E-10
 -1       288-5.79558E+04-2.06493E+02 7.88780E+02 2.04863E+01-2.39759E-10-5.84464E-10
 -1       289-5.77281E+04 2.38982E+02 4.96881E+02-1.03630E+02-3.38130E-10-1.15570E-10
 -1       290-5.78712E+04-3.23344E+01 2.03739E+02 3.12096E+01-1.89082E-10-3.18728E-10
 -1       291-5.78268E+04 3.81001E+01 1.23340E+02-1.20745E+02-2.92366E-10-2.46679E-10
 -1       292-5.78571E+04-5.74080E+00 6.31610E+01 3.76013E+01-1.11019E-07 3.54468E-10
 -1       293-5.78411E+04 1.14562E+01 5.55899E+01-1.28609E+02-2.21542E-07 4.12718E-11
 -1       294-5.78570E+04-5.69892E+00 6.28238E+01 3.90736E+01-1.10975E-07 6.09985E-10
 -1       295-5.78274E+04 3.77570E+01 1.22235E+02-1.26496E+02-2.33055E-10 5.12799E-10
 -1       296-5.78708E+04-3.20264E+01 2.01932E+02 3.54887E+01 6.22506E-11 2.41108E-10
 -1       297-5.77298E+04 2.36730E+02 4.92118E+02-1.14606E+02 1.18920E-10 7.44684E-10
 -1       298-5.79545E+04-2.04540E+02 7.81434E+02 2.71834E+01 3.79732E-11 3.66413E-10
 -1       299-5.71410E+04 1.51042E+03 2.13578E+03-9.41020E+01-9.45377E-12 3.19176E-11
 -1       300-5.84596E+04-1.30471E+03 3.01757E+03 1.49841E+01 4.24052E-11 1.00272E-10
 -1       301 4.59194E+03 1.06774E+03 1.03153E+04-3.37667E+03-8.18545E-11-9.39409E-11
 -1       302 1.55236E+03 3.01776E+03 6.33570E+03-3.97154E+03-9.37348E-11-3.64449E-10
 -1       303 4.23828E+02 1.76077E+03 5.09191E+03-3.37403E+03-7.88987E-11-8.38014E-11
 -1       304 2.01830E+03 3.29839E+03 7.59944E+03-3.96819E+03-1.19826E-10 8.12719E-11
 -1       305 6.09687E+03 7.87340E+02 1.33754E+04-3.37971E+03-7.18501E-11 2.01851E-10
 -1       306-2.21902E+05-2.91790E+04-1.43294E+04-8.59932E+04 7.84439E-12 1.32786E-10
 -1       307-2.24918E+05-4.01198E+04-8.98232E+03-8.83117E+04 3.88951E-11-1.74509E-10
 -1       308-2.24353E+05-3.22761E+04-3.38112E+03-8.56692E+04-6.82121E-12-1.95996E-10
 -1       309-2.22094E+05-3.60158E+04-1.84756E+03-8.89260E+04 7.43512E-11 2.34166E-10
 -1       310-2.24633E+05-3.25944E+04-7.89227E+02-8.56387E+04 1.26420E-10-3.12070E-11
 -1       311-2.21773E+05-3.56057E+04-4.21458E+02-8.89839E+04 1.34406E-10-1.07448E-10
 -1       312-2.24668E+05-3.26260E+04-2.26509E+02-8.56350E+04 1.02872E-10-1.20731E-10
 -1       313-2.21739E+05-3.55704E+04-1.95345E+02-8.89892E+04 1.04963E-10 4.50697E-10
 -1       314-2.24667E+05-3.26255E+04-2.56941E+02-8.56353E+04-8.91731E-11 1.41853E-10
 -1       315-2.21784E+05-3.56149E+04-5.05287E+02-8.89819E+04-8.98837E-11-2.43062E-10
 -1       316-2.24623E+05-3.25866E+04-9.59555E+02-8.56398E+04 4.74643E-11-3.69880E-10
 -1       317-2.22177E+05-3.61170E+04-2.25522E+03-8.89125E+04 5.15001E-11 1.95996E-10
 -1       318-2.24281E+05-3.21969E+04-4.12936E+03-8.56760E+04-4.02167E-11-9.36780E-11
 -1       319-2.25625E+05-4.11349E+04-1.09733E+04-8.81670E+04-8.11973E-11-2.31466E-10
 -1       320-2.21290E+05-2.84093E+04-1.75046E+04-8.60680E+04-1.71440E-10-7.27596E-11
 -1       321-5.46351E+04-1.45339E+03 3.36171E+03 1.57863E+00-2.87671E-10-3.01952E-10
 -1       322-5.31697E+04 1.68255E+03 2.37857E+03-3.81844E+01-1.45574E-10-2.19870E-10
 -1       323-5.40729E+04-2.27830E+02 8.69821E+02 8.30277E+00-5.28266E-11-2.88026E-10
 -1       324-5.38249E+04 2.63576E+02 5.46358E+02-5.02619E+01 2.48073E-11-1.67717E-10
 -1       325-5.39800E+04-3.55626E+01 2.21616E+02 1.36565E+01-4.62426E-11-4.15525E-11
 -1       326-5.39335E+04 4.11334E+01 1.28976E+02-5.90361E+01-1.24504E-10-8.43130E-11
 -1       327-5.39643E+04-5.54728E+00 5.65037E+01 1.70771E+01-3.50442E-08 1.31699E-11
 -1       328-5.39519E+04 6.65200E+00 3.22689E+01-6.36616E+01-6.99016E-08-1.61563E-10
 -1       329-5.39617E+04-1.10005E+00 1.66316E+01 1.82820E+01-8.43018E-08 1.90226E-10
 -1       330-5.39542E+04 2.90255E+00 1.35329E+01-6.37494E+01-9.82142E-08-1.67892E-10
 -1       331-5.39620E+04-1.79931E+00 1.39180E+01 1.71650E+01-4.92431E-08-5.69671E-10
 -1       332-5.39496E+04 1.25593E+01 2.75805E+01-5.92915E+01-1.29372E-10-8.78466E-11
 -1       333-5.39663E+04-1.07520E+01 4.17969E+01 1.38240E+01-2.34981E-11 1.32891E-10
 -1       334-5.39186E+04 7.92910E+01 1.12535E+02-5.06671E+01-4.21504E-11 1.16785E-10
 -1       335-5.39929E+04-6.84824E+01 1.58434E+02 8.54043E+00-1.07639E-10-3.67002E-10
 -1       336-7.66121E+01-8.78910E+04 2.37008E+02-9.85301E+02-3.46120E-10 2.14186E-10
 -1       337 3.26141E+01-8.78157E+04-1.56175E+02-3.52481E+03-6.19075E-10-4.02935E-10
 -1       338 5.55176E+01-8.77845E+04-6.54281E+02-9.75493E+02-4.08136E-10-7.72502E-11
 -1       339-8.80947E+02-8.83708E+04-1.81860E+03-3.53630E+03-7.51584E-10 5.40297E-11
 -1       340 6.36074E+02-8.73372E+04-2.92881E+03-9.73843E+02-4.41787E-10 4.91440E-10
 -1       341-1.48459E+05-1.82989E+04-6.63480E+03-5.68438E+04 3.63912E-10 2.45109E-10
 -1       342-1.51988E+05-2.43602E+04-4.60708E+03-5.56429E+04 4.71516E-11 1.02943E-10
 -1       343-1.49819E+05-2.06794E+04-1.55686E+03-5.63858E+04-1.68882E-10 2.01226E-11
 -1       344-1.50398E+05-2.16131E+04-9.75835E+02-5.61809E+04-2.98819E-11 3.63642E-10
 -1       345-1.50048E+05-2.10441E+04-3.69917E+02-5.63064E+04-6.56470E-11-2.16147E-10
 -1       346-1.50125E+05-2.12034E+04-2.30903E+02-5.62823E+04 7.33138E-11 5.73749E-10
 -1       347-1.50092E+05-2.10889E+04-1.25812E+02-5.62844E+04-1.85923E-10 1.63173E-10
 -1       348-1.50081E+05-2.11776E+04-1.48308E+02-5.63110E+04 3.76269E-09-1.79419E-09
 -1       349-1.50092E+05-2.10698E+04-2.06941E+02-5.62777E+04 1.32538E-06-4.96987E-07
 -1       350-1.50159E+05-2.13318E+04-4.83397E+02-5.62983E+04 2.64089E-06-9.90764E-07
 -1       351-1.50014E+05-2.09348E+04-8.22377E+02-5.62970E+04 1.55979E-07-5.87430E-08
 -1       352-1.50738E+05-2.23173E+04-2.20818E+03-5.61217E+04-2.33548E-06 8.75057E-07
 -1       353-1.49513E+05-2.00849E+04-3.53293E+03-5.64541E+04-4.04107E-06 1.51480E-06
 -1       354-1.54324E+05-2.85863E+04-1.04654E+04-5.49299E+04-5.72780E-06 2.14831E-06
 -1       355-1.46429E+05-1.46699E+04-1.50728E+04-5.74876E+04-2.87345E-06 1.07649E-06
 -1       356-5.75431E+04 6.96774E+01-1.61630E+02 6.39030E-01-5.15650E-11-1.62565E-10
 -1       357-5.76077E+04-8.07129E+01-1.15106E+02-2.00455E+01-8.30813E-10-2.87164E-10
 -1       358-5.75700E+04 1.09694E+01-4.39784E+01 4.29537E+00-2.61095E-07 4.72095E-10
 -1       359-5.75767E+04-1.30187E+01-3.09603E+01-2.65230E+01-5.20776E-07-3.76697E-10
 -1       360-5.75741E+04 2.03885E+00-1.98271E+01 7.11667E+00-4.28616E-07 9.91567E-10
 -1       361-5.75731E+04-4.52874E+00-2.58360E+01-3.10840E+01-3.34868E-07-5.41785E-10
 -1       362-5.75736E+04 2.48825E+00-3.95537E+01 8.85647E+00-2.04805E-07 2.78797E-10
 -1       363-5.75807E+04-1.70495E+01-8.26318E+01-3.33208E+01-7.46179E-08 1.16685E-10
 -1       364-5.75665E+04 1.45546E+01-1.47778E+02 9.35351E+00-2.28131E-09 8.32685E-11
 -1       365-5.76289E+04-1.08277E+02-3.39042E+02-3.30319E+01 6.98649E-08 4.25587E-10
 -1       366-5.75254E+04 9.36584E+01-5.83524E+02 8.56753E+00 8.54520E-08-2.54602E-10
 -1       367-5.79144E+04-6.94214E+02-1.43866E+03-3.02341E+01 1.01267E-07 3.41601E-10
 -1       368-5.72811E+04 6.00059E+02-2.29108E+03 6.55570E+00 1.34157E-07-3.41743E-10
 -1       369-5.96391E+04-4.43155E+03-6.26442E+03-2.50781E+01 1.66920E-07 4.18936E-10
 -1       370-5.58007E+04 3.82800E+03-8.85414E+03 3.41147E+00 8.40587E-08-9.29958E-10
 -1       371-1.46965E+03-1.74523E+04 3.33156E+03 1.17639E+02 1.33241E-10-7.05533E-11
 -1       372 1.55104E+03-1.60478E+04 2.08482E+03-4.74612E+02 2.54886E-10 1.79390E-10
 -1       373-8.00872E+01-1.68096E+04 3.02395E+02 1.19798E+02 1.98440E-10-1.52663E-10
 -1       374-8.65785E+02-1.71638E+04-1.06426E+03-4.73721E+02 2.32490E-10 2.00568E-10
 -1       375 9.45235E+02-1.63363E+04-2.08745E+03 1.16748E+02 1.18916E-10 1.24095E-10
 -1       376-8.05380E+04-1.01126E+04-3.09680E+03-3.07355E+04 2.64235E-06-9.90939E-07
 -1       377-8.21541E+04-1.29713E+04-2.15047E+03-3.02091E+04 5.26924E-06-1.97652E-06
 -1       378-8.11733E+04-1.12231E+04-7.27079E+02-3.05212E+04 4.88310E-06-1.83077E-06
 -1       379-8.14144E+04-1.16874E+04-4.56430E+02-3.04579E+04 4.48484E-06-1.68179E-06
 -1       380-8.12776E+04-1.13957E+04-1.74502E+02-3.04870E+04 3.41139E-06-1.27892E-06
 -1       381-8.12936E+04-1.14906E+04-1.12084E+02-3.04980E+04 2.33666E-06-8.77296E-07
 -1       382-8.12940E+04-1.14198E+04-6.67910E+01-3.04812E+04 1.03549E-06-3.88141E-07
 -1       383-8.12831E+04-1.14760E+04-8.86406E+01-3.05025E+04-2.65672E-07 9.94055E-08
 -1       384-8.12880E+04-1.14103E+04-1.31992E+02-3.04825E+04-1.49848E-06 5.61758E-07
 -1       385-8.13439E+04-1.15707E+04-3.14736E+02-3.04844E+04-2.73125E-06 1.02496E-06
 -1       386-8.12333E+04-1.13251E+04-5.37803E+02-3.04993E+04-3.60299E-06 1.35028E-06
 -1       387-8.17276E+04-1.22118E+04-1.44581E+03-3.03634E+04-4.47198E-06 1.67780E-06
 -1       388-8.09044E+04-1.07696E+04-2.31368E+03-3.06033E+04-4.52597E-06 1.69653E-06
 -1       389-8.40747E+04-1.63185E+04-6.85378E+03-2.95842E+04-4.56847E-06 1.71330E-06
 -1       390-7.88867E+04-7.22117E+03-9.87142E+03-3.12775E+04-2.29095E-06 8.58338E-07
 -1       406 1.01306E+02 4.39404E+04 2.23980E+02-3.06054E+03-2.97405E-10 7.24185E-11
 -1       407 6.74279E+01 4.39817E+04 2.78644E+02-3.35227E+03-3.23581E-10-2.95870E-10
 -1       408 1.13935E+02 4.39333E+04 4.64563E+02-3.04519E+03-3.56522E-10-7.90124E-11
 -1       409 4.61229E+02 4.41142E+04 1.00043E+03-3.37629E+03-4.36813E-10 6.78142E-11
 -1       410 1.33269E+03 4.38072E+04 2.01900E+03-3.03640E+03-4.23370E-10 1.58764E-10
 -1       466 1.75534E+05-7.10629E+03 1.64376E+04 1.76625E+02 4.86615E-11 5.85715E-10
 -1       467 1.82674E+05 8.22664E+03 1.16351E+04-3.87543E+02 2.15848E-10 3.72438E-10
 -1       468 1.78288E+05-1.11395E+03 4.25995E+03 8.88703E+01 1.35357E-10-1.34150E-11
 -1       469 1.79465E+05 1.28963E+03 2.68601E+03-2.52100E+02 1.52884E-10-3.28129E-10
 -1       470 1.78743E+05-1.74784E+02 1.11083E+03 4.11823E+01 3.72635E-11-8.04903E-11
 -1       471 1.78937E+05 2.08522E+02 6.88379E+02-1.81011E+02-1.61261E-09-6.72173E-12
 -1       472 1.78817E+05-3.36101E+01 3.84376E+02 1.77799E+01-5.31148E-07 3.25073E-10
 -1       473 1.78872E+05 8.15122E+01 3.95443E+02-1.51436E+02-1.05957E-06-1.70012E-10
 -1       474 1.78808E+05-4.78492E+01 5.12079E+02 1.16066E+01-5.31690E-07-2.19586E-10
 -1       475 1.79002E+05 3.30926E+02 1.05773E+03-1.54512E+02-1.80529E-09-3.12880E-10
 -1       476 1.78686E+05-2.82862E+02 1.77590E+03 2.08566E+01 2.39566E-10-2.01453E-10
 -1       477 1.79861E+05 2.09303E+03 4.34599E+03-1.91228E+02-2.77185E-11 1.26875E-10
 -1       478 1.77949E+05-1.80864E+03 6.91088E+03 4.83234E+01 1.77964E-11-3.27418E-11
 -1       479 1.85062E+05 1.33571E+04 1.88861E+04-2.74058E+02 1.93073E-10-1.56660E-10
 -1       480 1.73485E+05-1.15376E+04 2.66925E+04 1.03686E+02 6.18186E-10 3.51065E-10
 -1       481-1.33604E+03 2.70166E+04 3.11217E+03-1.46164E+01 1.00044E-11 1.95437E-10
 -1       482 1.60206E+03 2.83864E+04 2.29819E+03 3.71340E+00-2.25953E-11 6.11120E-10
 -1       483-2.64784E+02 2.75068E+04 9.98404E+02-8.47433E+00-1.08571E-11 3.06616E-10
 -1       484 6.59566E+02 2.79508E+04 1.07008E+03-8.22587E+00-1.08766E-11-3.08020E-12
 -1       485-3.94294E+02 2.74521E+04 9.98983E+02-2.67727E+00 1.29603E-11-1.97773E-10
 -1       486-1.63778E+05-1.70800E+04-1.54150E+04-6.41914E+04 1.37561E-10 3.11047E-10
 -1       487-1.72063E+05-3.10923E+04-1.07023E+04-6.13227E+04 1.92699E-10 2.81943E-11
 -1       488-1.66963E+05-2.25890E+04-3.61464E+03-6.31018E+04-1.39266E-11-7.50333E-11
 -1       489-1.68319E+05-2.47552E+04-2.25879E+03-6.26255E+04-2.54758E-10 1.28750E-11
 -1       490-1.67521E+05-2.34130E+04-8.46038E+02-6.28899E+04 1.16060E-10-3.61780E-10
 -1       491-1.67638E+05-2.38411E+04-5.02612E+02-6.29117E+04 3.53923E-10-3.06926E-10
 -1       492-1.67644E+05-2.35025E+04-2.30309E+02-6.28158E+04 1.93413E-10 8.42135E-11
 -1       493-1.67487E+05-2.37752E+04-1.94879E+02-6.30171E+04-7.83240E-11-1.71984E-10
 -1       494-1.67671E+05-2.34788E+04-2.08366E+02-6.27844E+04-5.88216E-09 2.42528E-09
 -1       495-1.67531E+05-2.39115E+04-4.36893E+02-6.30281E+04-1.20445E-08 4.73911E-09
 -1       496-1.67601E+05-2.33662E+04-7.24968E+02-6.28048E+04-5.69406E-09 2.31722E-09
 -1       497-1.68062E+05-2.47420E+04-1.93282E+03-6.28413E+04 3.11267E-10-5.97140E-11
 -1       498-1.67140E+05-2.26489E+04-3.08952E+03-6.29711E+04 1.77863E-10-2.81489E-10
 -1       499-1.71255E+05-3.01579E+04-9.14651E+03-6.17274E+04-2.46644E-10-3.86081E-10
 -1       500-1.64408E+05-1.79540E+04-1.31746E+04-6.39176E+04-2.08729E-10 1.07320E-10
 -1       501-5.36227E+04-2.70362E+03 6.25294E+03 1.93524E+01 8.36700E-11-1.88720E-10
 -1       502-5.08968E+04 3.12987E+03 4.42502E+03-1.23743E+02 4.36042E-11-2.10093E-10
 -1       503-5.25762E+04-4.23818E+02 1.61780E+03 3.46079E+01-3.74936E-11-8.93579E-11
 -1       504-5.21170E+04 4.90299E+02 1.01653E+03-1.49875E+02-3.27915E-11 4.06999E-11
 -1       505-5.24027E+04-6.61431E+01 4.12192E+02 4.54859E+01 5.77760E-12 3.40208E-11
 -1       506-5.23201E+04 7.65079E+01 2.39951E+02-1.66078E+02-4.00184E-10-2.96634E-10
 -1       507-5.23731E+04-1.03042E+01 1.05132E+02 5.08108E+01-1.71062E-07-5.06780E-10
 -1       508-5.23544E+04 1.23716E+01 6.00571E+01-1.70708E+02-3.41479E-07-4.12669E-10
 -1       509-5.23684E+04-2.03990E+00 3.09789E+01 5.01164E+01-1.71138E-07-3.46729E-10
 -1       510-5.23581E+04 5.43764E+00 2.54485E+01-1.63359E+02-4.58487E-10-2.63896E-11
 -1       511-5.23695E+04-3.38607E+00 2.59973E+01 4.34611E+01 6.69491E-11 2.13962E-11
 -1       512-5.23479E+04 2.36646E+01 5.22939E+01-1.44634E+02 1.56442E-10-9.85718E-11
 -1       513-5.23785E+04-2.02829E+01 7.83850E+01 3.13911E+01-4.84457E-11 1.10422E-10
 -1       514-5.22879E+04 1.49481E+02 2.12623E+02-1.16035E+02-1.08709E-10 5.58416E-11
 -1       515-5.24294E+04-1.29138E+02 2.97812E+02 1.48622E+01-6.15650E-11 2.22485E-10
 -1       516-6.33161E+03 3.80604E+04 1.48208E+04 2.55500E+02-7.73070E-11 1.98984E-10
 -1       517 7.76426E+03 4.46518E+04 1.12510E+04-1.10219E+03-1.00954E-10 4.52825E-10
 -1       518-1.42608E+03 4.03111E+04 5.38053E+03 2.41141E+02-2.53408E-10 2.89018E-10
 -1       519 4.42290E+03 4.31088E+04 6.89715E+03-1.10318E+03 2.33626E-11 2.53131E-13
 -1       520-2.99298E+03 3.96033E+04 7.32803E+03 2.56490E+02-2.06455E-10-2.55351E-10
 -1       521-3.29526E+05-4.25367E+04-2.24693E+04-1.27102E+05-1.38016E-10-4.96584E-10
 -1       522-3.35953E+05-5.80066E+04-1.40859E+04-1.28802E+05 3.52287E-11-5.50017E-10
 -1       523-3.33362E+05-4.74040E+04-5.30066E+03-1.26603E+05-2.35758E-11-1.25510E-10
 -1       524-3.31530E+05-5.15603E+04-2.89539E+03-1.29752E+05 7.55733E-11 1.58479E-10
 -1       525-3.33798E+05-4.79051E+04-1.23358E+03-1.26556E+05-7.37828E-11 3.99950E-10
 -1       526-3.31027E+05-5.09150E+04-6.52758E+02-1.29840E+05 1.26406E-10 2.10708E-09
 -1       527-3.33854E+05-4.79558E+04-3.38418E+02-1.26551E+05-2.64222E-10 2.39588E-10
 -1       528-3.30972E+05-5.08570E+04-2.69886E+02-1.29846E+05-2.02883E-10 1.65912E-10
 -1       529-3.33853E+05-4.79571E+04-3.29198E+02-1.26552E+05-1.91676E-10-4.19789E-11
 -1       530-3.31028E+05-5.09084E+04-6.27436E+02-1.29835E+05-1.70047E-10-3.71301E-10
 -1       531-3.33798E+05-4.79107E+04-1.18183E+03-1.26559E+05-2.57501E-11 3.97904E-12
 -1       532-3.31514E+05-5.15219E+04-2.77193E+03-1.29747E+05-7.69944E-11 5.55360E-11
 -1       533-3.33377E+05-4.74335E+04-5.07343E+03-1.26606E+05 5.82645E-12 1.11868E-10
 -1       534-3.35752E+05-5.76855E+04-1.34817E+04-1.28829E+05-1.21403E-10 2.80124E-10
 -1       535-3.29702E+05-4.27792E+04-2.15051E+04-1.27088E+05-1.20963E-10 2.24645E-10
 -1       536 4.23382E+03-1.20946E+03 5.59781E+03-9.78115E+02 9.16316E-11 6.75300E-11
 -1       537 6.22913E+03 1.69386E+03 3.56043E+03-3.43915E+03-2.09980E-10-1.16643E-10
 -1       538 5.07009E+03-1.21697E+02 1.44833E+03-9.65135E+02-5.41149E-11-1.51829E-10
 -1       539 5.29822E+03 1.60252E+02 8.02733E+02-3.45305E+03 1.93438E-10-2.54374E-11
 -1       540 5.16194E+03-1.32724E+01 3.64866E+02-9.64133E+02 1.35856E-11 2.50679E-11
 -1       541 5.19275E+03 1.48808E+01 1.90940E+02-3.45388E+03-1.51346E-10 8.12435E-11
 -1       542 5.17354E+03-1.64495E+00 8.98678E+01-9.64304E+02 1.73372E-11 3.95772E-11
 -1       543 5.17804E+03 1.44951E+00 4.40840E+01-3.45362E+03-1.96110E-11 2.50175E-10
 -1       544 5.17540E+03-7.17802E-02 1.73188E+01-9.64398E+02-2.64038E-11 1.01757E-10
 -1       545 5.17463E+03-4.64185E-01 2.37418E-01-3.45351E+03-3.79519E-11 3.14721E-10
 -1       546 5.17644E+03 8.07698E-01-1.59676E+01-9.64418E+02 2.66240E-11 1.45420E-10
 -1       547 5.16819E+03-9.26960E+00-4.46320E+01-3.45309E+03-5.57776E-11 6.35438E-11
 -1       548 5.18207E+03 7.09957E+00-8.43851E+01-9.64818E+02-7.47491E-11 9.94902E-11
 -1       549 5.11383E+03-1.00308E+02-2.09971E+02-3.44562E+03-2.16289E-11-6.74305E-11
 -1       550 5.23179E+03 7.11241E+01-3.31179E+02-9.71882E+02-2.31353E-11 1.38254E-10
 -1       551 1.19094E+03-3.19251E+04 2.93581E+03-4.94476E+04 3.18323E-11-5.77529E-11
 -1       552 4.72616E+02-3.13628E+04 2.41169E+03-5.80774E+04-1.23691E-10 5.64910E-10
 -1       553 2.76144E+02-3.18142E+04 2.93931E+03-4.93645E+04 3.18323E-11 2.06683E-10
 -1       554 1.66181E+03-3.06507E+04 5.63269E+03-5.80917E+04-9.54969E-12-6.02540E-11
 -1       555 5.02942E+03-3.26448E+04 1.07353E+04-4.94322E+04 2.04636E-11-2.60115E-10
 -1       556-2.13791E+04-1.19599E+04 2.11836E+03-2.13534E+04-2.36241E-10-2.48292E-10
 -1       557-1.94553E+04-1.40506E+04 1.04169E+03-2.28413E+04 1.41199E-10 2.24532E-12
 -1       558-2.13844E+04-1.26625E+04 4.40595E+02-2.09275E+04-1.02773E-10 2.27374E-11
 -1       559-1.96192E+04-1.44039E+04 2.15222E+02-2.28909E+04 9.36780E-11-2.53806E-11
 -1       560-2.13837E+04-1.26810E+04 9.69144E+01-2.09080E+04 4.59295E-11 1.56774E-10
 -1       561-1.96354E+04-1.44195E+04 4.52222E+01-2.29031E+04-5.16138E-11 1.46009E-10
 -1       562-2.13855E+04-1.26770E+04 1.65138E+01-2.09097E+04 8.66294E-11 9.67475E-11
 -1       563-1.96399E+04-1.44177E+04-1.07516E+00-2.29067E+04 7.73070E-12-1.08685E-10
 -1       564-2.13864E+04-1.26742E+04-1.98395E+01-2.09113E+04 6.02540E-12-1.98781E-10
 -1       565-1.96443E+04-1.44164E+04-5.09950E+01-2.29088E+04-2.29647E-11 6.79847E-11
 -1       566-2.13841E+04-1.26719E+04-1.08648E+02-2.09117E+04-3.17186E-11 9.33369E-11
 -1       567-1.96657E+04-1.44264E+04-2.40162E+02-2.29079E+04 3.15481E-11-2.53181E-10
 -1       568-2.13695E+04-1.27053E+04-4.92770E+02-2.08963E+04 4.36557E-11 1.02318E-10
 -1       569-1.99455E+04-1.47172E+04-1.16248E+03-2.28351E+04-1.13118E-11-1.68029E-10
 -1       570-2.12687E+04-1.35911E+04-2.36614E+03-2.05281E+04 1.75078E-11-2.87059E-11
 -1       571 2.77710E+04 1.35522E+03 2.05056E+03-7.23034E+03-7.84439E-12 4.22062E-11
 -1       572 2.80832E+04 4.66031E+02 1.00620E+03-7.95595E+03-5.91172E-12 1.53648E-10
 -1       573 2.78997E+04 1.07120E+02 4.47432E+02-7.21124E+03-4.53610E-11 2.66766E-10
 -1       574 2.79375E+04 3.37662E+01 2.24406E+02-7.97749E+03-7.38680E-11 4.37751E-10
 -1       575 2.79153E+04 3.40700E+00 1.06029E+02-7.20873E+03-1.51203E-11 1.15790E-10
 -1       576 2.79191E+04 7.95106E-02 5.40751E+01-7.98033E+03 4.68958E-13 2.58979E-10
 -1       577 2.79176E+04-1.60862E+00 2.69101E+01-7.20840E+03 5.01359E-11 2.91891E-10
 -1       578 2.79165E+04-9.97719E-01 1.51343E+01-7.98065E+03-3.36513E-11 2.58808E-10
 -1       579 2.79182E+04-1.00227E+00 1.02315E+01-7.20841E+03-1.56319E-11 5.36602E-11
 -1       580 2.79168E+04-5.71982E-01 1.10558E+01-7.98017E+03 4.75211E-11-6.26983E-11
 -1       581 2.79185E+04-1.62131E-01 1.69021E+01-7.20888E+03-5.83213E-11-3.35376E-12
 -1       582 2.79201E+04 4.11422E+00 3.32415E+01-7.97573E+03-3.10365E-11-3.76303E-11
 -1       583 2.79170E+04 1.45103E+01 6.50037E+01-7.21285E+03 1.75078E-11-2.29562E-10
 -1       584 2.79420E+04 6.61582E+01 1.45539E+02-7.94241E+03-1.85992E-10-1.67233E-10
 -1       585 2.78993E+04 1.94450E+02 2.96199E+02-7.24221E+03 1.05729E-11 3.21052E-10
 -1       586 2.16338E+02 1.17063E+04 4.06189E+02-1.77867E+04 4.68390E-11 1.55751E-11
 -1       587 1.13472E+02 1.17794E+04 3.93248E+02-1.96234E+04 1.55069E-10 9.81117E-11
 -1       588 1.40791E+02 1.17067E+04 5.66242E+02-1.77639E+04 4.85443E-11-6.99742E-11
 -1       589 5.35015E+02 1.19211E+04 1.16578E+03-1.96301E+04 1.90994E-10 1.66480E-10
 -1       590 1.53441E+03 1.15636E+04 2.32743E+03-1.77800E+04 5.82077E-11-7.33280E-12
 -1       591-1.31563E+04-4.45366E+03-2.49991E+03-6.73566E+03-3.15481E-11 1.79853E-10
 -1       592-1.32409E+04-4.15961E+03-1.22818E+03-7.47229E+03 6.56428E-10-3.81846E-10
 -1       593-1.32334E+04-3.54439E+03-5.21206E+02-7.15306E+03 3.50107E-09 4.60918E-09
 -1       594-1.29725E+04-3.82500E+03-2.55089E+02-7.51537E+03 7.03295E-11 1.42299E-10
 -1       595-1.32453E+04-3.51182E+03-1.17511E+02-7.17137E+03-3.54359E-09-4.75229E-09
 -1       596-1.29523E+04-3.81201E+03-5.96689E+01-7.51346E+03-6.90932E-10 2.82171E-10
 -1       597-1.32476E+04-3.51363E+03-3.26059E+01-7.17145E+03 1.31354E-10-2.04352E-10
 -1       598-1.29504E+04-3.81217E+03-2.63088E+01-7.51263E+03 2.48036E-10 7.16796E-11
 -1       599-1.32475E+04-3.51359E+03-3.36466E+01-7.17145E+03 1.89701E-10 1.21872E-10
 -1       600-1.29525E+04-3.81203E+03-6.24562E+01-7.51349E+03 1.09765E-10 2.72223E-10
 -1       601-1.32450E+04-3.51165E+03-1.23365E+02-7.17132E+03-7.28733E-11 1.48361E-11
 -1       602-1.29740E+04-3.82547E+03-2.68148E+02-7.51521E+03 1.49214E-10-6.11635E-11
 -1       603-1.32323E+04-3.54622E+03-5.47920E+02-7.15233E+03 7.86144E-11 7.14522E-11
 -1       604-1.32585E+04-4.17474E+03-1.29118E+03-7.46702E+03-1.15961E-11 1.11129E-10
 -1       605-1.31486E+04-4.50411E+03-2.62802E+03-6.71601E+03-8.29914E-11 1.47509E-10
 -1       606 9.48916E+03-1.11818E+03-1.69149E+03 2.80551E+03-5.42173E-10 1.75532E-10
 -1       607 9.22850E+03-3.84503E+02-8.29933E+02 3.05859E+03-4.12115E-11-3.28825E-10
 -1       608 9.38234E+03-8.83601E+01-3.68996E+02 2.78703E+03 3.41515E-10-5.01075E-11
 -1       609 9.34793E+03-2.76184E+01-1.84908E+02 3.07939E+03-3.06670E-10 2.54488E-10
 -1       610 9.36894E+03-2.54733E+00-8.71073E+01 2.78463E+03-6.87805E-10-1.78829E-10
 -1       611 9.36278E+03 3.48417E-01-4.38745E+01 3.08208E+03-1.06729E-09-3.34410E-10
 -1       612 9.36679E+03 1.63784E+00-2.07919E+01 2.78434E+03-4.55316E-10-3.68942E-10
 -1       613 9.36491E+03 1.18486E+00-9.60849E+00 3.08246E+03-6.02029E-10 4.28884E-11
 -1       614 9.36624E+03 9.24856E-01-2.81437E+00 2.78425E+03-4.17799E-11 8.39293E-11
 -1       615 9.36544E+03 9.30218E-01 2.49935E+00 3.08252E+03 6.29598E-10 6.43752E-11
 -1       616 9.36582E+03 1.12222E+00 8.96432E+00 2.78427E+03-3.66072E-10-1.40915E-10
 -1       617 9.36721E+03 4.10765E+00 2.11669E+01 3.08244E+03-6.86953E-11 1.90227E-10
 -1       618 9.36417E+03 1.11793E+01 4.32472E+01 2.78433E+03 7.49765E-11-5.00222E-11
 -1       619 9.38130E+03 4.62223E+01 9.78514E+01 3.08203E+03 7.23901E-11-1.77607E-10
 -1       620 9.35154E+03 1.32776E+02 1.99688E+02 2.78466E+03 1.39153E-10-6.08509E-11
 -1       621 1.95608E+02 2.91433E+04 5.00467E+02-2.70965E+03-2.29988E-10-3.43022E-10
 -1       622 7.44954E+01 2.92387E+04 4.25516E+02-3.19717E+03-2.22656E-10-9.15179E-11
 -1       623 4.48365E+01 2.91627E+04 5.36826E+02-2.71201E+03-2.14669E-10-1.58025E-10
 -1       624 3.02339E+02 2.93760E+04 1.04364E+03-3.18414E+03-2.02476E-10-4.16946E-11
 -1       625 9.31542E+02 2.90063E+04 1.99709E+03-2.72265E+03-1.83917E-10 2.66027E-11
 -1       626 1.35900E+04 4.50019E+03-6.76200E+02 9.20457E+03 2.30807E-09 7.02687E-09
 -1       627 1.32362E+04 5.02154E+03-3.20544E+02 9.39529E+03-1.98497E-10 5.90745E-11
 -1       628 1.36090E+04 4.83366E+03-1.34531E+02 9.03986E+03 1.29489E-10 3.92504E-11
 -1       629 1.32858E+04 5.16207E+03-6.45444E+01 9.38619E+03-1.09594E-10-2.72847E-10
 -1       630 1.36092E+04 4.85648E+03-2.83349E+01 9.02683E+03 3.46745E-11-1.50671E-10
 -1       631 1.32901E+04 5.17225E+03-1.25445E+01 9.38712E+03-5.60249E-10 7.65965E-12
 -1       632 1.36086E+04 4.85688E+03-3.09773E+00 9.02606E+03-7.38282E-10-9.18021E-12
 -1       633 1.32909E+04 5.17251E+03 4.10921E+00 9.38774E+03 3.14913E-10 4.01940E-10
 -1       634 1.36080E+04 4.85596E+03 1.34787E+01 9.02614E+03-2.18847E-12-1.46230E-10
 -1       635 1.32928E+04 5.17282E+03 3.17289E+01 9.38827E+03 2.86320E-10 2.58069E-11
 -1       636 1.36066E+04 4.85756E+03 6.63970E+01 9.02506E+03-8.78771E-10 4.96783E-10
 -1       637 1.33087E+04 5.19150E+03 1.48677E+02 9.38520E+03-4.07228E-09-6.50550E-09
 -1       638 1.36029E+04 4.91383E+03 3.08465E+02 9.00052E+03-2.92033E-10 2.36071E-10
 -1       639 1.34650E+04 5.47028E+03 7.34440E+02 9.31589E+03-2.20780E-10 2.63981E-10
 -1       640 1.36108E+04 5.71689E+03 1.54981E+03 8.66757E+03-2.53578E-10 1.76101E-10
 -1       641 1.43420E+00 2.91800E+02-6.74895E+02-7.22667E+00 5.30617E-06-8.65612E-10
 -1       642-2.91312E+02-3.37791E+02-4.77202E+02 2.95284E+01 1.05793E-05-8.54513E-10
 -1       643-1.11387E+02 4.57258E+01-1.74002E+02-7.22027E+00 1.02078E-05-1.82087E-09
 -1       644-1.59828E+02-5.27982E+01-1.08244E+02 2.95272E+01 9.81130E-06-1.11516E-09
 -1       645-1.30055E+02 7.03873E+00-4.17608E+01-7.22556E+00 7.74960E-06-1.67089E-09
 -1       646-1.37655E+02-7.48681E+00-2.00087E+01 2.95335E+01 5.68482E-06-5.96348E-10
 -1       647-1.33562E+02 4.48491E-01-3.30828E-01-7.22653E+00 2.67282E-06-2.31590E-10
 -1       648-1.31489E+02 3.67425E+00 1.77682E+01 2.95344E+01-3.41632E-07 5.02958E-10
 -1       649-1.36221E+02-4.11570E+00 4.06106E+01-7.22646E+00-4.12939E-06 1.00275E-09
 -1       650-1.16552E+02 3.17570E+01 9.84722E+01 2.95283E+01-7.92024E-06 1.44380E-09
 -1       651-1.48499E+02-2.76169E+01 1.71483E+02-7.22050E+00-1.21146E-05 2.84788E-09
 -1       652-3.21005E+01 2.04872E+02 4.24260E+02 2.95080E+01-1.63079E-05 2.61816E-09
 -1       653-2.20672E+02-1.77103E+02 6.76039E+02-7.20614E+00-1.89303E-05 4.05299E-09
 -1       654 4.77071E+02 1.30795E+03 1.84891E+03 2.94381E+01-2.14959E-05 2.71095E-09
 -1       655-6.57667E+02-1.12981E+03 2.61334E+03-7.15067E+00-1.07847E-05 1.93472E-09
 -1       656 8.47375E+02-3.42327E+04-4.06506E+03 1.10077E+03-3.22871E-11 5.54792E-11
 -1       657-1.28043E+03-3.56963E+04-2.94281E+03 3.90593E+03-2.12594E-10 2.83279E-10
 -1       658 1.58983E+02-3.47567E+04-1.88357E+03 1.09513E+03-1.69884E-10-5.14149E-11
 -1       659-1.17043E+03-3.56300E+04-2.74290E+03 3.90876E+03-3.55357E-10 1.06446E-10
 -1       660 7.61911E+02-3.42994E+04-3.68424E+03 1.09795E+03 4.45652E-11 1.12124E-10
 -1       661 3.33960E+04 4.29407E+03 2.72396E+03 1.30296E+04 7.61418E-11-3.61069E-10
 -1       662 3.40174E+04 6.32780E+03 1.70771E+03 1.34177E+04 7.22778E-10-1.29830E-10
 -1       663 3.38598E+04 4.88525E+03 6.42930E+02 1.29705E+04 2.87557E-11-1.06013E-11
 -1       664 3.34833E+04 5.54440E+03 3.51610E+02 1.35301E+04-5.90546E-10-2.95074E-10
 -1       665 3.39116E+04 4.94712E+03 1.50670E+02 1.29661E+04-3.85249E-10-3.89413E-10
 -1       666 3.34238E+04 5.46480E+03 8.15147E+01 1.35388E+04-1.07502E-10 5.05551E-11
 -1       667 3.39177E+04 4.95373E+03 4.58184E+01 1.29660E+04-1.57224E-09 4.00364E-10
 -1       668 3.34182E+04 5.45792E+03 4.31511E+01 1.35391E+04-4.44300E-10 1.49244E-10
 -1       669 3.39171E+04 4.95329E+03 6.08940E+01 1.29660E+04 1.80169E-10 2.82029E-10
 -1       670 3.34288E+04 5.46997E+03 1.23101E+02 1.35386E+04 9.92326E-10-2.16289E-11
 -1       671 3.39072E+04 4.94275E+03 2.35244E+02 1.29661E+04 2.05546E-10 1.45960E-10
 -1       672 3.35231E+04 5.59583E+03 5.53822E+02 1.35251E+04-3.22892E-10-2.62787E-10
 -1       673 3.38254E+04 4.84494E+03 1.01426E+03 1.29730E+04 1.01843E-09 1.51391E-09
 -1       674 3.43654E+04 6.83358E+03 2.69554E+03 1.33488E+04 1.27390E-10-1.97815E-11
 -1       675 3.30939E+04 3.91080E+03 4.29970E+03 1.30652E+04-7.00311E-11 1.38698E-10
 -1       676 6.06726E+01-3.25047E+04-3.60808E+02-4.15560E+00-2.47447E-10 2.78756E-10
 -1       677-1.36876E+02-3.26417E+04-4.38312E+02-2.51209E+01-1.20479E-09 2.45892E-10
 -1       678 4.90025E+01-3.25101E+04-5.79837E+02-4.16555E+00-2.03471E-10 3.18916E-10
 -1       679-6.17149E+02-3.29330E+04-1.31198E+03-2.50628E+01-9.45718E-10 1.00782E-10
 -1       680 4.34915E+02-3.22135E+04-2.02471E+03-4.22652E+00-5.31031E-10 2.45441E-10
 -1       681 5.94672E+04-1.61176E+03 3.72826E+03 3.79589E+01-5.02265E-12-6.11635E-11
 -1       682 6.10829E+04 1.86590E+03 2.63896E+03-1.17159E+02-3.51941E-13-3.89093E-11
 -1       683 6.00912E+04-2.52685E+02 9.66717E+02 2.69853E+01 4.25082E-12 3.67208E-11
 -1       684 6.03560E+04 2.92627E+02 6.10352E+02-9.96337E+01-2.84541E-10-8.50378E-11
 -1       685 6.01941E+04-3.97354E+01 2.54270E+02 2.04333E+01-1.23569E-07 1.04194E-10
 -1       686 6.02368E+04 4.79578E+01 1.61131E+02-9.01874E+01-2.46195E-07-1.62606E-10
 -1       687 6.02104E+04-8.19167E+00 9.65993E+01 1.75388E+01-1.46832E-07 1.23807E-10
 -1       688 6.02243E+04 2.27682E+01 1.10433E+02-8.77561E+01-4.64152E-08-1.01649E-10
 -1       689 6.02067E+04-1.45622E+01 1.53750E+02 1.80020E+01-2.31333E-08 1.96110E-11
 -1       690 6.02663E+04 1.02734E+02 3.26541E+02-9.20944E+01-1.16033E-10-6.32312E-11
 -1       691 6.01683E+04-8.81095E+01 5.51938E+02 2.18772E+01 4.13305E-11 1.82752E-11
 -1       692 6.05345E+04 6.52291E+02 1.35372E+03-1.03641E+02 8.55653E-11 3.20597E-11
 -1       693 5.99385E+04-5.63719E+02 2.15330E+03 2.95487E+01 4.91704E-11 1.75078E-11
 -1       694 6.21558E+04 4.16313E+03 5.88601E+03-1.23905E+02-6.23275E-11 7.50333E-11
 -1       695 5.85470E+04-3.59611E+03 8.31840E+03 4.21414E+01 1.27184E-10-2.54659E-11
 -1       696-1.21724E+03 4.96683E+04 2.77240E+03 3.34370E+01 1.19826E-10 6.95145E-07
 -1       697 1.31325E+03 5.08377E+04 1.78661E+03-1.74772E+02 2.49884E-10 1.38225E-06
 -1       698-9.49315E+01 5.01856E+04 3.58080E+02 3.14656E+01-1.32445E-11 2.73749E-08
 -1       699-5.02225E+02 4.99991E+04-5.79006E+02-1.76260E+02-2.49457E-10-1.32828E-06
 -1       700 5.96781E+02 5.05070E+04-1.29818E+03 3.49243E+01-1.18803E-10-6.67824E-07
 -1       701-5.46705E+04-4.98753E+03-6.89380E+03-2.16899E+04-7.02585E-11 2.92857E-10
 -1       702-5.82928E+04-1.13399E+04-4.78642E+03-2.05066E+04 5.88898E-11-6.86668E-11
 -1       703-5.60822E+04-7.46282E+03-1.61648E+03-2.12161E+04-2.98428E-11-9.76002E-11
 -1       704-5.66493E+04-8.47698E+03-1.01103E+03-2.10561E+04 7.26175E-12 3.71188E-11
 -1       705-5.63138E+04-7.84861E+03-3.78604E+02-2.11411E+04 1.75504E-12 6.97042E-11
 -1       706-5.63785E+04-8.03427E+03-2.26515E+02-2.11449E+04-1.03425E-10-8.90452E-11
 -1       707-5.63529E+04-7.90526E+03-1.05136E+02-2.11274E+04-5.50766E-08 2.10069E-08
 -1       708-5.63374E+04-7.97920E+03-9.28718E+01-2.11609E+04-1.10068E-07 4.12708E-08
 -1       709-5.63548E+04-7.90365E+03-1.03227E+02-2.11252E+04-5.38191E-08 2.02793E-08
 -1       710-5.63707E+04-8.03882E+03-2.20719E+02-2.11533E+04 2.48623E-09-9.18249E-10
 -1       711-5.63196E+04-7.84567E+03-3.67969E+02-2.11350E+04-5.61879E-08 2.10275E-08
 -1       712-5.66285E+04-8.47424E+03-9.82435E+02-2.10733E+04-1.14913E-07 4.31410E-08
 -1       713-5.60971E+04-7.46850E+03-1.57031E+03-2.12050E+04-1.84105E-07 6.89278E-08
 -1       714-5.82205E+04-1.12600E+04-4.64989E+03-2.05448E+04-2.52066E-07 9.44656E-08
 -1       715-5.47279E+04-5.06176E+03-6.69691E+03-2.16629E+04-1.27007E-07 4.76143E-08
 -1       716 1.01199E+04-1.71247E+03 3.96067E+03 4.43792E+01 1.12900E-10-6.88942E-11
 -1       717 1.18455E+04 1.98249E+03 2.80459E+03-1.73039E+02 3.58784E-11-2.19416E-11
 -1       718 1.07836E+04-2.68494E+02 1.02783E+03 4.08608E+01-6.34852E-11 7.44649E-11
 -1       719 1.10719E+04 3.11070E+02 6.50789E+02-1.67399E+02 1.03770E-11-8.01137E-11
 -1       720 1.08934E+04-4.23588E+01 2.74212E+02 3.87387E+01 1.13702E-10 1.89530E-10
 -1       721 1.09450E+04 5.21013E+01 1.80090E+02-1.64347E+02-8.65106E-10 1.50919E-11
 -1       722 1.09104E+04-9.69339E+00 1.19245E+02 3.78090E+01-3.39637E-07 1.05270E-10
 -1       723 1.09353E+04 3.17340E+01 1.53914E+02-1.63642E+02-6.77423E-07 5.60760E-11
 -1       724 1.09031E+04-2.20027E+01 2.29648E+02 3.80336E+01-3.39597E-07 1.64590E-10
 -1       725 1.10023E+04 1.57935E+02 4.99708E+02-1.65256E+02-9.35328E-10 2.93269E-10
 -1       726 1.08434E+04-1.35824E+02 8.49279E+02 3.94234E+01 1.53818E-10-1.35287E-11
 -1       727 1.14172E+04 1.00599E+03 2.08711E+03-1.69296E+02 2.13733E-10-1.56774E-10
 -1       728 1.04883E+04-8.69462E+02 3.32032E+03 4.20735E+01-1.63682E-11-1.71212E-10
 -1       729 1.39191E+04 6.42101E+03 9.07835E+03-1.76707E+02 1.12189E-10 1.25965E-10
 -1       730 8.34171E+03-5.54648E+03 1.28295E+04 4.68342E+01 2.86221E-10-1.54614E-10
 -1       731-2.16313E+03 2.15755E+04 5.01763E+03 4.01155E+01-7.77618E-11-5.29765E-12
 -1       732 2.54330E+03 2.37651E+04 3.61443E+03-1.85678E+02-4.94538E-12-2.84084E-11
 -1       733-3.78129E+02 2.23933E+04 1.42615E+03 4.12707E+01-8.43556E-11 1.00429E-10
 -1       734 6.86676E+02 2.29084E+04 1.19531E+03-1.90598E+02-5.10880E-12 1.76928E-10
 -1       735-3.08018E+02 2.24322E+04 8.54319E+02 4.50356E+01-6.76437E-11 9.35225E-11
 -1       736-1.19449E+05-1.33818E+04-8.77928E+03-4.63380E+04 2.95131E-10-3.29237E-10
 -1       737-1.24119E+05-2.14086E+04-6.09535E+03-4.47579E+04 3.96085E-10 2.58240E-10
 -1       738-1.21253E+05-1.65276E+04-2.05845E+03-4.57272E+04 6.06803E-11 1.46883E-10
 -1       739-1.22009E+05-1.77794E+04-1.28714E+03-4.54768E+04-2.78817E-11-4.39968E-11
 -1       740-1.21558E+05-1.70086E+04-4.81771E+02-4.56199E+04-1.95257E-11 1.07832E-10
 -1       741-1.21643E+05-1.72354E+04-2.87245E+02-4.56127E+04 6.05676E-11 8.70806E-11
 -1       742-1.21618E+05-1.70713E+04-1.32099E+02-4.55913E+04-5.23821E-11 1.59872E-12
 -1       743-1.21574E+05-1.71810E+04-1.13608E+02-4.56525E+04 4.11879E-10-2.64578E-10
 -1       744-1.21628E+05-1.70630E+04-1.23220E+02-4.55801E+04 1.04691E-07-3.91082E-08
 -1       745-1.21602E+05-1.72604E+04-2.60282E+02-4.56558E+04 2.07007E-07-7.73919E-08
 -1       746-1.21589E+05-1.69918E+04-4.32710E+02-4.55880E+04-4.53704E-07 1.70288E-07
 -1       747-1.21905E+05-1.77717E+04-1.15438E+03-4.55619E+04-1.11307E-06 4.17240E-07
 -1       748-1.21325E+05-1.65520E+04-1.84485E+03-4.56740E+04-5.58308E-07 2.09356E-07
 -1       749-1.23786E+05-2.10335E+04-5.46278E+03-4.49282E+04-1.94575E-09 7.32769E-10
 -1       750-1.19709E+05-1.37323E+04-7.86783E+03-4.62209E+04 1.78716E-10-1.05956E-10
 -1       751 2.84265E+05-1.62773E+04 3.76627E+04 1.39576E+02-3.19925E-09-9.27685E-11
 -1       752 3.00591E+05 1.88445E+04 2.66465E+04-2.41220E+02-5.39117E-10-1.18689E-10
 -1       753 2.90563E+05-2.55172E+03 9.75228E+03 6.27423E+01-1.86750E-10 1.00044E-11
 -1       754 2.93256E+05 2.95309E+03 6.13389E+03-1.27569E+02-1.49978E-11 2.23622E-10
 -1       755 2.91603E+05-3.99225E+02 2.50956E+03 2.59278E+01-2.32790E-10 5.41149E-11
 -1       756 2.92046E+05 4.67905E+02 1.50027E+03-7.33930E+01-4.15227E-10 5.50529E-11
 -1       757 2.91774E+05-6.84031E+01 7.37100E+02 8.56532E+00-4.41391E-08 3.85199E-10
 -1       758 2.91865E+05 1.21610E+02 5.89898E+02-4.93646E+01-8.79158E-08-5.96287E-11
 -1       759 2.91783E+05-5.31549E+01 6.00212E+02 1.89899E+00-4.53963E-08 2.71129E-10
 -1       760 2.91975E+05 3.36780E+02 1.10414E+03-4.34083E+01-3.24165E-09 8.25651E-12
 -1       761 2.91665E+05-2.83425E+02 1.79667E+03 2.60892E+00-9.57126E-08-4.64979E-11
 -1       762 2.92828E+05 2.09206E+03 4.35373E+03-5.25729E+01-1.86894E-07 5.07498E-10
 -1       763 2.90929E+05-1.80711E+03 6.91075E+03 1.10637E+01-9.33636E-08 2.67846E-10
 -1       764 2.98020E+05 1.33445E+04 1.88714E+04-8.17819E+01 3.41017E-10 1.00044E-10
 -1       765 2.86470E+05-1.15266E+04 2.66704E+04 3.18179E+01-1.57172E-11 1.27329E-11
 -1       766-7.06401E+03 4.54383E+04 1.65662E+04-1.12534E+01 3.21052E-10-2.07523E-11
 -1       767 8.72067E+03 5.28020E+04 1.26745E+04-1.57470E+01 4.91127E-10-1.14468E-11
 -1       768-1.64977E+03 4.79094E+04 6.22240E+03-1.34229E+00 1.73486E-10-6.10028E-11
 -1       769 5.37089E+03 5.12546E+04 8.30961E+03-3.54833E+01 1.67347E-10 8.70986E-11
 -1       770-3.71697E+03 4.69856E+04 9.05465E+03 8.48181E+00 1.50067E-11 4.69289E-10
 -1       771-1.57965E+05-3.18615E+04-5.27187E+03-6.85674E+04-2.46928E-10-1.60981E-10
 -1       772-1.57482E+05-3.18842E+04-2.58901E+03-7.08561E+04 2.33058E-10-2.10889E-10
 -1       773-1.58170E+05-2.99037E+04-1.09947E+03-6.94046E+04-1.04137E-10-6.95763E-11
 -1       774-1.56878E+05-3.12213E+04-5.37641E+02-7.09998E+04 1.02773E-10-2.40448E-11
 -1       775-1.58201E+05-2.98288E+04-2.47719E+02-6.94406E+04 5.22959E-11-1.57286E-10
 -1       776-1.56835E+05-3.11971E+04-1.25409E+02-7.10032E+04-6.27551E-11-3.19446E-10
 -1       777-1.58209E+05-2.98310E+04-6.80130E+01-6.94419E+04 8.41283E-12-1.22071E-11
 -1       778-1.56832E+05-3.11968E+04-5.33763E+01-7.10037E+04 3.08091E-11 2.89404E-10
 -1       779-1.58211E+05-2.98300E+04-6.70869E+01-6.94428E+04 3.06954E-11 8.10019E-11
 -1       780-1.56837E+05-3.11962E+04-1.23048E+02-7.10068E+04 1.52340E-11-1.68825E-11
 -1       781-1.58207E+05-2.98255E+04-2.42704E+02-6.94430E+04-5.52518E-11-3.78577E-11
 -1       782-1.56880E+05-3.12226E+04-5.27157E+02-7.10108E+04 5.74403E-11-2.84217E-11
 -1       783-1.58182E+05-2.98933E+04-1.07718E+03-6.94057E+04 2.63753E-11 3.77440E-11
 -1       784-1.57441E+05-3.19089E+04-2.53868E+03-7.09151E+04-1.35529E-10-1.83718E-10
 -1       785-1.58017E+05-3.17776E+04-5.16713E+03-6.85485E+04 3.45608E-11 1.44610E-10
 -1       786 2.50075E+04-7.02786E+02 3.25748E+03-2.28563E+02 5.62892E-11-2.63753E-11
 -1       787 2.61647E+04 9.86333E+02 2.07175E+03-8.09342E+02-6.31317E-11-1.58565E-10
 -1       788 2.54943E+04-7.02862E+01 8.43316E+02-2.26467E+02-3.77582E-11-3.90514E-11
 -1       789 2.56241E+04 9.36647E+01 4.67852E+02-8.11462E+02 3.54561E-12 1.69130E-10
 -1       790 2.55479E+04-7.48087E+00 2.14031E+02-2.26434E+02 4.29452E-11-1.20778E-10
 -1       791 2.55637E+04 8.79287E+00 1.14406E+02-8.11479E+02-5.22959E-12 2.33754E-10
 -1       792 2.55547E+04-9.55983E-01 5.88762E+01-2.26450E+02 1.46549E-12 1.43046E-10
 -1       793 2.55563E+04 1.12830E+00 3.91384E+01-8.11475E+02 1.64917E-11-2.45441E-10
 -1       794 2.55553E+04-5.26469E-01 3.63919E+01-2.26439E+02 2.50111E-12 6.26397E-11
 -1       795 2.55585E+04 3.87593E+00 5.53668E+01-8.11561E+02 4.27463E-11-3.78049E-11
 -1       796 2.55526E+04-3.29450E+00 9.60486E+01-2.26364E+02-3.51434E-11-6.70539E-11
 -1       797 2.55847E+04 4.08475E+01 2.05498E+02-8.11545E+02-1.90070E-11-2.79705E-11
 -1       798 2.55292E+04-3.06971E+01 3.68634E+02-2.26455E+02-2.56364E-11-1.31593E-10
 -1       799 2.58205E+04 4.30356E+02 9.04344E+02-8.09104E+02-1.08798E-10 3.48592E-11
 -1       800 2.53168E+04-3.06712E+02 1.42154E+03-2.28809E+02-1.60298E-11-1.64221E-10
 -1       801-7.41934E+02 2.42062E+04 3.87174E+03-2.70905E+04-1.08412E-09 3.61069E-10
 -1       802 1.49592E+03 2.56176E+04 4.01307E+03-9.64667E+04-4.68390E-10-4.43833E-10
 -1       803-3.46401E+02 2.43949E+04 4.56167E+03-2.69938E+04-1.47907E-09 6.57764E-10
 -1       804 4.65517E+03 2.75374E+04 9.76246E+03-9.64649E+04-7.83302E-10-4.70664E-10
 -1       805-3.20634E+03 2.22911E+04 1.48213E+04-2.70925E+04-5.65706E-10 4.90218E-10
 -1       806-2.47346E+04-6.80390E+03-2.07348E+03-1.16946E+04 3.02691E-11 2.09297E-10
 -1       807-2.47206E+04-6.29202E+03-9.82633E+02-1.23538E+04-6.68194E-11 4.10637E-10
 -1       808-2.47213E+04-5.73236E+03-4.12972E+02-1.21436E+04-2.75691E-11 7.10401E-11
 -1       809-2.45151E+04-5.91553E+03-1.99437E+02-1.24428E+04-5.42286E-11-1.62743E-10
 -1       810-2.47260E+04-5.65721E+03-9.00487E+01-1.21769E+04 5.66160E-11 9.06084E-11
 -1       811-2.44946E+04-5.89002E+03-4.50426E+01-1.24466E+04 9.73444E-12 2.33342E-11
 -1       812-2.47276E+04-5.65478E+03-2.33800E+01-1.21785E+04-1.58593E-11 3.72893E-11
 -1       813-2.44924E+04-5.88926E+03-1.69564E+01-1.24462E+04 1.31614E-10-1.21332E-10
 -1       814-2.47277E+04-5.65501E+03-1.92951E+01-1.21784E+04 8.64020E-12 1.85395E-10
 -1       815-2.44939E+04-5.88999E+03-3.42015E+01-1.24463E+04 1.45519E-11 3.21165E-10
 -1       816-2.47263E+04-5.65698E+03-6.67220E+01-1.21772E+04-1.05558E-10-1.77920E-10
 -1       817-2.45096E+04-5.90828E+03-1.47050E+02-1.24427E+04 1.48020E-10-1.86105E-10
 -1       818-2.47225E+04-5.71295E+03-3.04070E+02-1.21533E+04-5.12159E-11 2.79044E-10
 -1       819-2.46653E+04-6.18072E+03-7.23279E+02-1.23718E+04-1.71894E-10 1.59389E-10
 -1       820-2.47277E+04-6.50548E+03-1.52597E+03-1.18274E+04-5.16138E-11-9.34364E-11
 -1       821-2.65099E+04 7.37060E+02-3.41681E+03 2.54510E+02-2.93539E-10 3.70619E-11
 -1       822-2.77235E+04-1.03455E+03-2.17316E+03 8.98445E+02-1.37732E-10 7.19922E-11
 -1       823-2.70206E+04 7.36914E+01-8.84869E+02 2.50625E+02 3.03572E-10 3.66640E-11
 -1       824-2.71568E+04-9.81445E+01-4.91361E+02 9.02708E+02-1.93836E-10 1.95115E-11
 -1       825-2.70768E+04 7.86795E+00-2.25794E+02 2.50239E+02-5.78524E-10-8.66862E-13
 -1       826-2.70936E+04-9.08735E+00-1.22644E+02 9.03227E+02-8.17550E-10-9.65734E-11
 -1       827-2.70839E+04 1.09586E+00-6.69762E+01 2.50104E+02-4.72482E-10 3.37046E-11
 -1       828-2.70864E+04-1.30589E+00-5.18121E+01 9.03471E+02-6.88001E-10 6.35758E-12
 -1       829-2.70841E+04 9.58574E-01-5.91534E+01 2.49994E+02-3.70726E-11-1.04183E-10
 -1       830-2.70918E+04-7.34237E+00-1.02116E+02 9.03581E+02 4.94422E-10-2.82022E-10
 -1       831-2.70785E+04 6.44825E+00-1.84754E+02 2.49995E+02-4.26267E-10-1.70303E-10
 -1       832-2.71432E+04-7.97070E+01-4.00133E+02 9.03427E+02 1.60313E-10-1.37256E-10
 -1       833-2.70328E+04 5.99840E+01-7.19780E+02 2.50149E+02-4.05151E-11-1.52284E-10
 -1       834-2.76041E+04-8.41103E+02-1.76720E+03 9.01268E+02-1.48859E-11-3.55982E-10
 -1       835-2.66176E+04 5.99406E+02-2.77834E+03 2.52171E+02 3.17314E-10-2.24873E-10
 -1       836-1.12212E+03 6.50527E+04 5.49377E+03-1.87198E+03-9.73159E-11-2.80465E-10
 -1       837 1.76796E+03 6.70449E+04 4.26229E+03-6.65410E+03 1.01181E-11 8.79368E-11
 -1       838-2.70850E+02 6.56944E+04 3.20982E+03-1.86551E+03-1.79170E-10-2.22748E-10
 -1       839 2.40795E+03 6.74329E+04 5.42652E+03-6.65432E+03 5.69003E-11-3.17215E-10
 -1       840-1.62072E+03 6.46645E+04 7.71120E+03-1.87176E+03-1.61890E-10 2.17142E-11
 -1       841-6.67794E+02 2.67686E+02-9.30680E+02-4.14853E+02-1.54399E-06 5.78799E-07
 -1       842-1.17478E+03-5.72908E+02-6.46089E+02-2.35829E+02-3.07803E-06 1.15516E-06
 -1       843-8.57770E+02-6.72015E+01-2.17914E+02-3.51689E+02-2.56922E-06 9.63360E-07
 -1       844-9.54017E+02-1.85086E+02-1.35785E+02-3.08611E+02-2.05157E-06 7.70261E-07
 -1       845-8.88526E+02-1.19887E+02-4.96475E+01-3.42169E+02-1.42872E-06 5.35371E-07
 -1       846-9.18042E+02-1.23802E+02-2.72444E+01-3.19565E+02-8.04829E-07 3.02119E-07
 -1       847-8.93741E+02-1.28448E+02-7.79472E+00-3.40750E+02-4.41359E-07 1.65302E-07
 -1       848-9.10770E+02-1.12080E+02 2.75997E+00-3.21448E+02-7.85938E-08 2.98925E-08
 -1       849-8.95797E+02-1.31602E+02 1.40113E+01-3.40288E+02-6.49633E-08 2.46917E-08
 -1       850-9.01316E+02-9.68778E+01 4.05620E+01-3.23951E+02-5.23851E-08 1.98951E-08
 -1       851-9.03194E+02-1.43642E+02 7.18962E+01-3.38250E+02-3.82162E-07 1.43224E-07
 -1       852-8.49654E+02-9.23069E+00 1.95203E+02-3.39688E+02-7.12546E-07 2.66919E-07
 -1       853-9.47452E+02-2.19197E+02 3.12857E+02-3.24570E+02-1.17254E-06 4.40053E-07
 -1       854-5.32722E+02 5.47171E+02 9.27286E+02-4.44276E+02-1.62795E-06 6.10467E-07
 -1       855-1.22008E+03-6.99680E+02 1.33566E+03-2.33797E+02-8.16591E-07 3.06996E-07
 -1       856-3.17361E+04 7.02366E+02-3.25621E+03 5.12930E+02-5.10795E-10-2.55682E-10
 -1       857-3.28920E+04-9.85616E+02-2.07090E+03 1.81870E+03-6.78739E-10-5.22931E-10
 -1       858-3.22228E+04 7.02685E+01-8.43141E+02 5.06671E+02-8.36280E-10-5.13353E-10
 -1       859-3.23522E+04-9.31129E+01-4.67914E+02 1.82578E+03 2.25668E-11-6.36589E-10
 -1       860-3.22765E+04 7.60352E+00-2.14521E+02 5.05829E+02 1.55296E-10-1.65898E-10
 -1       861-3.22921E+04-8.15971E+00-1.15513E+02 1.82680E+03-6.41435E-10-1.00783E-10
 -1       862-3.22833E+04 1.16090E+00-6.11497E+01 5.05647E+02 1.03583E-09-2.10179E-10
 -1       863-3.22850E+04-5.73033E-01-4.38617E+01 1.82703E+03 1.69351E-09-4.63160E-10
 -1       864-3.22837E+04 8.75282E-01-4.56274E+01 5.05600E+02 1.02124E-09-2.87958E-10
 -1       865-3.22886E+04-4.73404E+00-7.47657E+01 1.82691E+03 1.30374E-09-1.67795E-10
 -1       866-3.22797E+04 4.74602E+00-1.33079E+02 5.05769E+02-3.54078E-10-5.93193E-10
 -1       867-3.23251E+04-5.65921E+01-2.86835E+02 1.82619E+03-9.59517E-11-7.91005E-10
 -1       868-3.22469E+04 4.29962E+01-5.15484E+02 5.06323E+02 4.95817E-10-5.47061E-10
 -1       869-3.26547E+04-6.01745E+02-1.26513E+03 1.82025E+03-2.20666E-10-2.71626E-10
 -1       870-3.19496E+04 4.29039E+02-1.98897E+03 5.11721E+02 8.34120E-10-2.43972E-10
 -1       871-3.07369E+02-3.04239E+03-5.87533E+02 8.92060E+03-3.93698E-10-9.59517E-11
 -1       872-9.18018E+01-3.14788E+03-1.70414E+02 1.04718E+04-6.64954E-10-1.79398E-10
 -1       873 1.33727E+01-3.10562E+03 1.77139E+02 8.90318E+03-4.88797E-10-2.42181E-10
 -1       874 2.12774E+02-2.96485E+03 6.55206E+02 1.04793E+04-6.86271E-10-1.04794E-10
 -1       875 6.76048E+02-3.22616E+03 1.41153E+03 8.91317E+03-5.95890E-10-5.46549E-11
 -1       876 3.87279E+04 4.91318E+03 3.65428E+03 1.52110E+04-4.69527E-11 1.09594E-10
 -1       877 3.95420E+04 7.66179E+03 2.29088E+03 1.57550E+04 2.95643E-10 3.14827E-10
 -1       878 3.93505E+04 5.70599E+03 8.62323E+02 1.51313E+04-5.30775E-11 1.08798E-10
 -1       879 3.88252E+04 6.61107E+03 4.71288E+02 1.59059E+04 8.32827E-11-2.22208E-10
 -1       880 3.94198E+04 5.78907E+03 2.01276E+02 1.51254E+04 2.29647E-11-1.04123E-10
 -1       881 3.87454E+04 6.50411E+03 1.07521E+02 1.59174E+04-4.77570E-10-5.57044E-10
 -1       882 3.94280E+04 5.79811E+03 5.77249E+01 1.51254E+04-1.70933E-09 8.99476E-11
 -1       883 3.87374E+04 6.49432E+03 4.96950E+01 1.59176E+04-4.59735E-10 8.27702E-11
 -1       884 3.94276E+04 5.79797E+03 6.52031E+01 1.51255E+04 7.38640E-10 1.42588E-10
 -1       885 3.87481E+04 6.50642E+03 1.28160E+02 1.59170E+04 1.34580E-09-1.27358E-10
 -1       886 3.94174E+04 5.78714E+03 2.43239E+02 1.51257E+04 2.06221E-10 3.15609E-10
 -1       887 3.88454E+04 6.63624E+03 5.71633E+02 1.59029E+04-3.76303E-11 1.98099E-10
 -1       888 3.93330E+04 5.68622E+03 1.04651E+03 1.51327E+04 6.88924E-10 1.50749E-10
 -1       889 3.97147E+04 7.91289E+03 2.78100E+03 1.57208E+04 2.17568E-11 1.90312E-10
 -1       890 3.85780E+04 4.72276E+03 4.43593E+03 1.52282E+04-2.44256E-10-8.66294E-11
 -1       891 1.37178E+02-1.73806E+04-6.80979E+02 2.11982E+03-4.23341E-10 1.63993E-10
 -1       892-2.22126E+02-1.76266E+04-5.43075E+02 7.54765E+03-1.39630E-09-9.66338E-11
 -1       893 3.62598E+01-1.74569E+04-4.32544E+02 2.11207E+03-3.63400E-10-2.54829E-10
 -1       894-3.42813E+02-1.76997E+04-7.62554E+02 7.54717E+03-9.20807E-10 1.48134E-10
 -1       895 2.31132E+02-1.73074E+04-1.09901E+03 2.12030E+03-8.42419E-11 5.94923E-10
 -1       896 8.33383E+04-6.54394E+02 1.51381E+03 2.94340E+01 6.02380E-11 1.48702E-10
 -1       897 8.39892E+04 7.57584E+02 1.07179E+03-7.36387E+01 3.26498E-10 1.27997E-10
 -1       898 8.35917E+04-1.02606E+02 3.93166E+02 1.90880E+01 7.59144E-11 5.24807E-11
 -1       899 8.36941E+04 1.18920E+02 2.49249E+02-5.66876E+01-2.03278E-09 2.79776E-11
 -1       900 8.36334E+04-1.62321E+01 1.05967E+02 1.24826E+01-6.31088E-07 2.60059E-11
 -1       901 8.36461E+04 2.02296E+01 7.12770E+01-4.62907E+01-1.25902E-06-4.34790E-11
 -1       902 8.36396E+04-3.98684E+00 5.01711E+01 8.69094E+00-8.51865E-07 1.01190E-11
 -1       903 8.36435E+04 1.42168E+01 6.89451E+01-4.09972E+01-4.42006E-07-6.81526E-11
 -1       904 8.36360E+04-1.02232E+01 1.06120E+02 7.18900E+00-1.56967E-07-5.00613E-11
 -1       905 8.36749E+04 7.38509E+01 2.33153E+02-4.00874E+01 1.27283E-07-7.02869E-11
 -1       906 8.36083E+04-6.35826E+01 3.97358E+02 7.78113E+00 2.84073E-07-9.57527E-11
 -1       907 8.38684E+04 4.70965E+02 9.76792E+02-4.34443E+01 4.40971E-07 1.42109E-14
 -1       908 8.34425E+04-4.07044E+02 1.55466E+03 1.05460E+01 5.21658E-07-8.60609E-11
 -1       909 8.50384E+04 3.00606E+03 4.24983E+03-5.15962E+01 6.01544E-07-6.13909E-11
 -1       910 8.24381E+04-2.59662E+03 6.00668E+03 1.59331E+01 3.01668E-07 1.11413E-11
 -1       911 2.32845E+04-2.95527E+02 6.83813E+02 1.06204E+01 2.68336E-11 1.65699E-11
 -1       912 2.35796E+04 3.42152E+02 4.84428E+02-3.97049E+01 2.61090E-11 4.14957E-12
 -1       913 2.33988E+04-4.63577E+01 1.78394E+02 8.77997E+00-4.57077E-11-5.81011E-11
 -1       914 2.34465E+04 5.38522E+01 1.14354E+02-3.66003E+01-4.06074E-10-8.40927E-11
 -1       915 2.34176E+04-7.45669E+00 5.12968E+01 7.51566E+00-1.39799E-07-4.84146E-11
 -1       916 2.34254E+04 1.00966E+01 3.95571E+01-3.46031E+01-2.78497E-07-1.22398E-10
 -1       917 2.34199E+04-2.63341E+00 3.64650E+01 6.78277E+00-1.29050E-07-7.03366E-11
 -1       918 2.34274E+04 1.26920E+01 6.15254E+01-3.36409E+01 2.09501E-08-1.21958E-10
 -1       919 2.34156E+04-1.00513E+01 1.03011E+02 6.55345E+00-6.76792E-08-9.10063E-11
 -1       920 2.34597E+04 7.38792E+01 2.32119E+02-3.36746E+01-1.57380E-07-1.43885E-10
 -1       921 2.33876E+04-6.37811E+01 3.97894E+02 6.81648E+00-4.67634E-07-1.69848E-10
 -1       922 2.36540E+04 4.72633E+02 9.79822E+02-3.47050E+01-7.78257E-07-3.63087E-11
 -1       923 2.32213E+04-4.08513E+02 1.55999E+03 7.58380E+00-1.09438E-06-1.73998E-10
 -1       924 2.48283E+04 3.01689E+03 4.26499E+03-3.67984E+01-1.40574E-06-4.40536E-11
 -1       925 2.22134E+04-2.60598E+03 6.02831E+03 8.90998E+00-7.05600E-07-5.91172E-12
 -1       926-1.05377E+05 2.35801E+03-5.45392E+03 1.26692E+00-2.17402E-07-2.88765E-11
 -1       927-1.07735E+05-2.72978E+03-3.85843E+03-5.33088E+00-4.34568E-07 1.15961E-10
 -1       928-1.06289E+05 3.69615E+02-1.41055E+03-2.71622E-01-4.75667E-07-2.73417E-11
 -1       929-1.06673E+05-4.27514E+02-8.84734E+02-2.06545E+00-5.15678E-07 2.20552E-11
 -1       930-1.06440E+05 5.75921E+01-3.56672E+02-1.99858E+00-4.80554E-07-9.77707E-12
 -1       931-1.06496E+05-6.59328E+01-2.02955E+02 1.29634E+00-4.44816E-07 5.21680E-11
 -1       932-1.06465E+05 8.30072E+00-8.00118E+01-3.63347E+00-3.68818E-07 7.97584E-12
 -1       933-1.06464E+05-5.50136E+00-2.66626E+01 4.20964E+00-2.92651E-07 4.70068E-11
 -1       934-1.06472E+05-2.80181E+00 1.95628E+01-4.91194E+00-2.09028E-07 4.23306E-11
 -1       935-1.06445E+05 2.95301E+01 8.52118E+01 6.20192E+00-1.25752E-07 5.25091E-12
 -1       936-1.06485E+05-2.67097E+01 1.61980E+02-5.62578E+00-6.67667E-08 6.17604E-11
 -1       937-1.06362E+05 1.99283E+02 4.10482E+02 6.94571E+00-7.76268E-09-1.09708E-11
 -1       938-1.06555E+05-1.72428E+02 6.57034E+02-5.65574E+00 8.28181E-09-3.88241E-11
 -1       939-1.05866E+05 1.27360E+03 1.79971E+03 6.31043E+00 2.41541E-08 3.27418E-11
 -1       940-1.06980E+05-1.10017E+03 2.54451E+03-4.99051E+00 1.20276E-08 1.07548E-10
 -1       941 4.62971E+05-2.32650E+04 5.38401E+04 1.54757E+01-1.25703E-08 4.94765E-10
 -1       942 4.86293E+05 2.69347E+04 3.80895E+04-3.09269E+00-2.86989E-08-3.96540E-10
 -1       943 4.71971E+05-3.64732E+03 1.39431E+04 1.09315E+01-3.01988E-08-9.09495E-13
 -1       944 4.75813E+05 4.22129E+03 8.77142E+03 3.06441E+00-3.08569E-08-2.06455E-10
 -1       945 4.73457E+05-5.70845E+02 3.59332E+03 9.31917E+00-1.86605E-08 3.89718E-10
 -1       946 4.74086E+05 6.70312E+02 2.15630E+03 4.94970E+00-7.41257E-09 7.12816E-10
 -1       947 4.73701E+05-9.90645E+01 1.07524E+03 9.04630E+00 1.43258E-08 4.53184E-10
 -1       948 4.73833E+05 1.83489E+02 8.90303E+02 4.41073E+00 3.62880E-08 3.02217E-10
 -1       949 4.73710E+05-8.43470E+01 9.43120E+02 9.85817E+00 8.41529E-08-7.24526E-10
 -1       950 4.74018E+05 5.43774E+02 1.77402E+03 1.01283E+00 1.32532E-07 6.31530E-10
 -1       951 4.73516E+05-4.59106E+02 2.90526E+03 1.24442E+01 2.49009E-07-7.64771E-10
 -1       952 4.75402E+05 3.39044E+03 7.05369E+03-8.16044E+00 3.65280E-07-2.05546E-10
 -1       953 4.72324E+05-2.92885E+03 1.12009E+04 1.90315E+01 5.70934E-07-2.05091E-10
 -1       954 4.83816E+05 2.16284E+04 3.05875E+04-3.13744E+01 7.76549E-07-5.41149E-11
 -1       955 4.65096E+05-1.86816E+04 4.32319E+04 3.56574E+01 3.87409E-07 7.65795E-10
 -1       956-2.38633E+04-4.21753E+02-8.97137E+02 3.24141E+03-4.59295E-10-3.85967E-11
 -1       957-2.40281E+04-1.35390E+02-4.53614E+02 3.77470E+03-1.31877E-10-8.07745E-11
 -1       958-2.39358E+04-1.62035E+01-2.03933E+02 3.22221E+03 3.86876E-10-2.25100E-11
 -1       959-2.39499E+04-4.14491E+00-1.03825E+02 3.79575E+03-2.57558E-10-2.17483E-10
 -1       960-2.39425E+04 1.79063E+00-5.03417E+01 3.22034E+03-6.12886E-10-1.77238E-10
 -1       961-2.39430E+04 1.32611E+00-2.65493E+01 3.79780E+03-1.04205E-09 2.95074E-10
 -1       962-2.39435E+04 1.38559E+00-1.48472E+01 3.22016E+03-4.08079E-10 1.45633E-10
 -1       963-2.39423E+04 1.22591E+00-1.13519E+01 3.79802E+03-4.83723E-10 1.53705E-10
 -1       964-2.39437E+04 1.36583E+00-1.30444E+01 3.22012E+03-1.09395E-10-9.93623E-11
 -1       965-2.39431E+04 1.36697E+00-2.19480E+01 3.79795E+03 2.96971E-10-1.75049E-10
 -1       966-2.39430E+04 1.76228E+00-4.08394E+01 3.22022E+03-3.75351E-10-1.20991E-10
 -1       967-2.39488E+04-2.94782E+00-8.38297E+01 3.79683E+03 4.35563E-11-1.52539E-10
 -1       968-2.39378E+04-1.26521E+01-1.64448E+02 3.22124E+03-2.44995E-11-6.04103E-11
 -1       969-2.40120E+04-1.08667E+02-3.65712E+02 3.78548E+03-7.38680E-11 6.16396E-11
 -1       970-2.38795E+04-3.39539E+02-7.23225E+02 3.23162E+03 1.71781E-10-2.76771E-10
 -1       971-4.55829E+04 5.76061E+02-2.67107E+03 5.21145E+02-4.79361E-10-8.23093E-11
 -1       972-4.65292E+04-8.08428E+02-1.69890E+03 1.84969E+03-4.06516E-10-2.69438E-10
 -1       973-4.59821E+04 5.76211E+01-6.92115E+02 5.14258E+02-5.99755E-10-1.96820E-10
 -1       974-4.60865E+04-7.63034E+01-3.84851E+02 1.85764E+03 1.39124E-11 1.29234E-10
 -1       975-4.60261E+04 6.26057E+00-1.78045E+02 5.13180E+02 3.02805E-10-3.42922E-10
 -1       976-4.60375E+04-6.62275E+00-9.89994E+01 1.85903E+03-6.02427E-10 2.37939E-10
 -1       977-4.60316E+04 1.06368E+00-5.85211E+01 5.12871E+02 8.23775E-10-4.30788E-10
 -1       978-4.60326E+04-8.38337E-01-5.32126E+01 1.85944E+03 2.11269E-09-2.28688E-10
 -1       979-4.60312E+04 1.32434E+00-7.10208E+01 5.12768E+02 8.87816E-10-4.31985E-10
 -1       980-4.60405E+04-9.29573E+00-1.31845E+02 1.85937E+03 1.10893E-09-4.05027E-11
 -1       981-4.60236E+04 8.65480E+00-2.43655E+02 5.12937E+02-5.03064E-11-3.13598E-10
 -1       982-4.61088E+04-1.05565E+02-5.30807E+02 1.85858E+03-9.43601E-12-5.14504E-11
 -1       983-4.59628E+04 7.97578E+01-9.56144E+02 5.13565E+02 3.24633E-10-4.93287E-10
 -1       984-4.67211E+04-1.11757E+03-2.34838E+03 1.85260E+03-2.27431E-10-2.97803E-10
 -1       985-4.54109E+04 7.96597E+02-3.69235E+03 5.18948E+02 4.89422E-11-1.70758E-10
 -3
    1PSTEP                         3           2           1          
  100CL  102 1.25000E-01         841                     0    2           1
 -4  DISP        4    1
 -5  D1          1    2    1    0
 -5  D2          1    2    2    0
 -5  D3          1    2    3    0
 -5  ALL         1    2    0    0    1ALL
 -1         1 1.55130E-05 0.00000E+00 0.00000E+00
 -1         2 1.14440E-05 0.00000E+00 0.00000E+00
 -1         3 9.53379E-06 0.00000E+00 0.00000E+00
 -1         4 8.45099E-06 0.00000E+00 0.00000E+00
 -1         5 7.94394E-06 0.00000E+00 0.00000E+00
 -1         8 1.22449E-05-1.54605E-07 0.00000E+00
 -1         9 9.58360E-06 7.55256E-08 0.00000E+00
 -1        10 8.93409E-06-3.64689E-07 0.00000E+00
 -1        11 8.32709E-06-6.76492E-08 0.00000E+00
 -1        12 7.68712E-06 1.85817E-07 0.00000E+00
 -1        15 5.23792E-06-3.24418E-07 0.00000E+00
 -1        16 7.21145E-06 6.90242E-08 0.00000E+00
 -1        17 6.62309E-06-7.32242E-07 0.00000E+00
 -1        18 6.67698E-06-1.38139E-07 0.00000E+00
 -1        19 6.98766E-06 3.68733E-07 0.00000E+00
 -1        20 7.09305E-06 3.95282E-06 0.00000E+00
 -1        21 7.08998E-06 9.45097E-06 0.00000E+00
 -1        22 1.94239E-06-2.10704E-07 0.00000E+00
 -1        23 2.60965E-06 2.28052E-07 0.00000E+00
 -1        24 2.72025E-06-8.74591E-07 0.00000E+00
 -1        25 5.94786E-06-9.06743E-08 0.00000E+00
 -1        26 6.23127E-06 4.89614E-07 0.00000E+00
 -1        27 5.93150E-06 3.81048E-06 0.00000E+00
 -1        28 5.57245E-06 9.31552E-06 0.00000E+00
 -1        29 0.00000E+00 0.00000E+00 0.00000E+00
 -1        30 9.30690E-07 3.19507E-07 0.00000E+00
 -1        31 1.18778E-06-6.84828E-07 0.00000E+00
 -1        32 0.00000E+00 0.00000E+00 0.00000E+00
 -1        33 5.24423E-06 7.59031E-07 0.00000E+00
 -1        34 4.97718E-06 3.79690E-06 0.00000E+00
 -1        35 4.46502E-06 9.24301E-06 0.00000E+00
 -1        36 1.52669E-05-1.89651E-20 3.30872E-24
 -1        37 1.50126E-05-8.36972E-20 3.30872E-24
 -1        38 1.47589E-05-1.99021E-19 6.61744E-24
 -1        39 1.45036E-05-2.80023E-19 3.30872E-24
 -1        40 1.42482E-05-3.30867E-19-6.61744E-24
 -1        41 1.39926E-05-3.52318E-19 0.00000E+00
 -1        42 1.37369E-05-2.81759E-19-6.61744E-24
 -1        43 1.34811E-05-1.18457E-19-3.30872E-24
 -1        44 1.32254E-05 2.52912E-20 0.00000E+00
 -1        45 1.29696E-05 1.63903E-19-3.30872E-24
 -1        46 1.27139E-05 2.74479E-19 0.00000E+00
 -1        47 1.24584E-05 3.09550E-19 0.00000E+00
 -1        48 1.22029E-05 2.32863E-19 0.00000E+00
 -1        49 1.19484E-05 1.54102E-19 0.00000E+00
 -1        50 1.16936E-05 6.64631E-20 0.00000E+00
 -1        51 1.52644E-05-2.64450E-08 0.00000E+00
 -1        52 1.48546E-05-5.17073E-08 0.00000E+00
 -1        53 1.43149E-05-7.67247E-08 0.00000E+00
 -1        54 1.36781E-05-1.01836E-07 0.00000E+00
 -1        55 1.29770E-05-1.27392E-07-1.55096E-24
 -1        56 1.52012E-05-1.18924E-07-6.61744E-24
 -1        57 1.48785E-05-2.43362E-07 0.00000E+00
 -1        58 1.45554E-05-3.64529E-07-6.61744E-24
 -1        59 1.42275E-05-4.79058E-07 6.61744E-24
 -1        60 1.38953E-05-5.82014E-07 1.32349E-23
 -1        61 1.35567E-05-6.69337E-07 0.00000E+00
 -1        62 1.32108E-05-7.37002E-07 1.32349E-23
 -1        63 1.28560E-05-7.81238E-07 6.61744E-24
 -1        64 1.24911E-05-7.98531E-07 0.00000E+00
 -1        65 1.21149E-05-7.85554E-07 0.00000E+00
 -1        66 1.17263E-05-7.39385E-07 0.00000E+00
 -1        67 1.13246E-05-6.57231E-07 6.61744E-24
 -1        68 1.09086E-05-5.36948E-07 0.00000E+00
 -1        69 1.04795E-05-3.75908E-07 3.30872E-24
 -1        70 1.00341E-05-1.73562E-07 6.61744E-24
 -1        71 1.13240E-05-4.72698E-20 3.30872E-24
 -1        72 1.12044E-05-1.02178E-19 1.65436E-24
 -1        73 1.10847E-05-1.24652E-19 0.00000E+00
 -1        74 1.09651E-05-1.79537E-19 0.00000E+00
 -1        75 1.08455E-05-2.44755E-19 0.00000E+00
 -1        76 1.07259E-05-3.04106E-19-1.65436E-24
 -1        77 1.06063E-05-3.69205E-19 0.00000E+00
 -1        78 1.04867E-05-4.27655E-19 1.65436E-24
 -1        79 1.03671E-05-4.73363E-19 3.30872E-24
 -1        80 1.02475E-05-4.92825E-19 1.65436E-24
 -1        81 1.01280E-05-4.74490E-19 3.30872E-24
 -1        82 1.00085E-05-4.09592E-19 0.00000E+00
 -1        83 9.88902E-06-2.89832E-19-3.30872E-24
 -1        84 9.76997E-06-1.55549E-19 1.65436E-24
 -1        85 9.65079E-06-5.34952E-20 0.00000E+00
 -1        86 1.13674E-05 8.40473E-09 0.00000E+00
 -1        87 1.11389E-05 2.23785E-08 0.00000E+00
 -1        88 1.08027E-05 3.59367E-08 0.00000E+00
 -1        89 1.04033E-05 4.99569E-08-2.06795E-25
 -1        90 9.98286E-06 6.42147E-08 0.00000E+00
 -1        91 1.12575E-05 5.77225E-08 0.00000E+00
 -1        92 1.09865E-05 3.38341E-07 0.00000E+00
 -1        93 1.06578E-05 7.72821E-07 3.30872E-24
 -1        94 1.02977E-05 1.29076E-06 1.65436E-24
 -1        95 9.94264E-06 1.79495E-06 3.30872E-24
 -1        96 9.62925E-06 2.18821E-06 1.65436E-24
 -1        97 9.38072E-06 2.40866E-06 3.30872E-24
 -1        98 9.21984E-06 2.39551E-06 0.00000E+00
 -1        99 9.14046E-06 2.16499E-06 3.30872E-24
 -1       100 9.13595E-06 1.73472E-06 0.00000E+00
 -1       101 9.17524E-06 1.18752E-06 0.00000E+00
 -1       102 9.22714E-06 6.06989E-07-1.65436E-24
 -1       103 9.25615E-06 8.76079E-08 3.30872E-24
 -1       104 9.22762E-06-2.76323E-07 0.00000E+00
 -1       105 9.12438E-06-4.41598E-07 0.00000E+00
 -1       106 9.46608E-06-5.19392E-20 0.00000E+00
 -1       107 9.39827E-06-1.95874E-19 0.00000E+00
 -1       108 9.33048E-06-4.00846E-19 0.00000E+00
 -1       109 9.26266E-06-6.30439E-19 0.00000E+00
 -1       110 9.19484E-06-8.70623E-19 0.00000E+00
 -1       111 9.12702E-06-1.07247E-18 0.00000E+00
 -1       112 9.05920E-06-1.22158E-18 0.00000E+00
 -1       113 8.99138E-06-1.32049E-18 0.00000E+00
 -1       114 8.92357E-06-1.31897E-18 1.65436E-24
 -1       115 8.85576E-06-1.21324E-18-8.27181E-25
 -1       116 8.78796E-06-1.01598E-18 0.00000E+00
 -1       117 8.72021E-06-7.12952E-19 0.00000E+00
 -1       118 8.65246E-06-3.88467E-19 1.65436E-24
 -1       119 8.58494E-06-1.48857E-19 8.27181E-25
 -1       120 8.51735E-06-3.15383E-20 0.00000E+00
 -1       121 9.52520E-06-6.09142E-08-1.65436E-24
 -1       122 9.49053E-06-1.21633E-07 8.27181E-25
 -1       123 9.42191E-06-1.82360E-07 0.00000E+00
 -1       124 9.31149E-06-2.43084E-07 0.00000E+00
 -1       125 9.15147E-06-3.03807E-07 0.00000E+00
 -1       126 9.47126E-06-3.86866E-08 0.00000E+00
 -1       127 9.41863E-06-1.04021E-07 0.00000E+00
 -1       128 9.37321E-06-1.88581E-07-1.65436E-24
 -1       129 9.33219E-06-2.84936E-07 0.00000E+00
 -1       130 9.29198E-06-3.83425E-07 1.65436E-24
 -1       131 9.24894E-06-4.74389E-07 0.00000E+00
 -1       132 9.20012E-06-5.49933E-07 0.00000E+00
 -1       133 9.14257E-06-6.02204E-07-8.27181E-25
 -1       134 9.07467E-06-6.26869E-07-1.65436E-24
 -1       135 8.99484E-06-6.19678E-07 8.27181E-25
 -1       136 8.90337E-06-5.81458E-07-1.65436E-24
 -1       137 8.80065E-06-5.13118E-07 8.27181E-25
 -1       138 8.68883E-06-4.20520E-07 0.00000E+00
 -1       139 8.57034E-06-3.09506E-07 0.00000E+00
 -1       140 8.44823E-06-1.89068E-07 0.00000E+00
 -1       141 8.41878E-06 3.45782E-21 0.00000E+00
 -1       142 8.38680E-06-8.20853E-21 0.00000E+00
 -1       143 8.35480E-06-3.34461E-20 0.00000E+00
 -1       144 8.32284E-06-5.61980E-20 0.00000E+00
 -1       145 8.29088E-06-5.38429E-20 8.27181E-25
 -1       146 8.25894E-06-4.90855E-20 4.13590E-25
 -1       147 8.22699E-06-4.53559E-20 0.00000E+00
 -1       148 8.19505E-06-4.69206E-20 0.00000E+00
 -1       149 8.16312E-06-2.69430E-20 0.00000E+00
 -1       150 8.13120E-06-1.41819E-20 4.13590E-25
 -1       151 8.09930E-06-1.31924E-20 8.27181E-25
 -1       152 8.06750E-06-8.47851E-21-4.13590E-25
 -1       153 8.03570E-06-1.28767E-20-8.27181E-25
 -1       154 8.00439E-06 3.76288E-21 0.00000E+00
 -1       155 7.97291E-06 2.32943E-21 0.00000E+00
 -1       156 8.45875E-06-1.19159E-08-8.27181E-25
 -1       157 8.48156E-06-2.28054E-08 0.00000E+00
 -1       158 8.49949E-06-3.37717E-08-4.13590E-25
 -1       159 8.49261E-06-4.47503E-08 0.00000E+00
 -1       160 8.44159E-06-5.56498E-08 0.00000E+00
 -1       161 8.41347E-06-1.64056E-08 0.00000E+00
 -1       162 8.37743E-06-3.68818E-08 0.00000E+00
 -1       163 8.34213E-06-5.92914E-08 0.00000E+00
 -1       164 8.30674E-06-8.15116E-08 0.00000E+00
 -1       165 8.27044E-06-1.01292E-07 0.00000E+00
 -1       166 8.23238E-06-1.16390E-07 0.00000E+00
 -1       167 8.19198E-06-1.25242E-07 8.27181E-25
 -1       168 8.14865E-06-1.26291E-07 0.00000E+00
 -1       169 8.10206E-06-1.18615E-07 0.00000E+00
 -1       170 8.05188E-06-1.01300E-07 4.13590E-25
 -1       171 7.99808E-06-7.43416E-08 0.00000E+00
 -1       172 7.94078E-06-3.77183E-08-4.13590E-25
 -1       173 7.88018E-06 7.66182E-09 8.27181E-25
 -1       174 7.81715E-06 6.11002E-08 0.00000E+00
 -1       175 7.75160E-06 1.20672E-07 0.00000E+00
 -1       191 7.93532E-06 3.09482E-08 0.00000E+00
 -1       192 7.91268E-06 6.19328E-08 0.00000E+00
 -1       193 7.87620E-06 9.29258E-08-1.65436E-24
 -1       194 7.82621E-06 1.23916E-07 0.00000E+00
 -1       195 7.76304E-06 1.54893E-07-1.65436E-24
 -1       251 1.20826E-05 3.21485E-07 0.00000E+00
 -1       252 1.19162E-05 5.90346E-07-1.65436E-24
 -1       253 1.17501E-05 6.20469E-07 3.30872E-24
 -1       254 1.15831E-05 3.82132E-07 0.00000E+00
 -1       255 1.14161E-05-6.61983E-08 0.00000E+00
 -1       256 1.12488E-05-6.64497E-07 3.30872E-24
 -1       257 1.10815E-05-1.30345E-06 0.00000E+00
 -1       258 1.09142E-05-1.87345E-06 3.30872E-24
 -1       259 1.07470E-05-2.28756E-06-6.61744E-24
 -1       260 1.05799E-05-2.45998E-06 0.00000E+00
 -1       261 1.04128E-05-2.38435E-06-6.61744E-24
 -1       262 1.02458E-05-2.05617E-06 3.30872E-24
 -1       263 1.00788E-05-1.55391E-06 0.00000E+00
 -1       264 9.91250E-06-9.57359E-07 0.00000E+00
 -1       265 9.74595E-06-3.77321E-07-3.30872E-24
 -1       266 1.14625E-05-1.84092E-07 0.00000E+00
 -1       267 1.02773E-05-2.12457E-07 0.00000E+00
 -1       268 8.87510E-06-2.41170E-07 8.27181E-25
 -1       269 7.44240E-06-2.69469E-07-4.13590E-25
 -1       270 6.16735E-06-2.97616E-07-4.13590E-25
 -1       271 1.17927E-05 2.52645E-07 0.00000E+00
 -1       272 1.13802E-05 5.26983E-07 0.00000E+00
 -1       273 1.10105E-05 6.87767E-07 6.61744E-24
 -1       274 1.06761E-05 7.50793E-07 0.00000E+00
 -1       275 1.03718E-05 7.33048E-07 0.00000E+00
 -1       276 1.00913E-05 6.51278E-07-3.30872E-24
 -1       277 9.82832E-06 5.22470E-07 0.00000E+00
 -1       278 9.57657E-06 3.63676E-07 0.00000E+00
 -1       279 9.32963E-06 1.92025E-07 0.00000E+00
 -1       280 9.08112E-06 2.46846E-08 0.00000E+00
 -1       281 8.82461E-06-1.21207E-07 6.61744E-24
 -1       282 8.55386E-06-2.28526E-07 0.00000E+00
 -1       283 8.26244E-06-2.80296E-07 0.00000E+00
 -1       284 7.94503E-06-2.59294E-07-3.30872E-24
 -1       285 7.59404E-06-1.49325E-07 6.61744E-24
 -1       286 9.54203E-06 4.11180E-07 0.00000E+00
 -1       287 9.50146E-06 6.41826E-07-8.27181E-25
 -1       288 9.46084E-06 7.70936E-07 1.65436E-24
 -1       289 9.42042E-06 8.02163E-07 0.00000E+00
 -1       290 9.38000E-06 7.47633E-07 0.00000E+00
 -1       291 9.33961E-06 6.19624E-07 8.27181E-25
 -1       292 9.29921E-06 4.36772E-07 1.65436E-24
 -1       293 9.25882E-06 2.17806E-07 8.27181E-25
 -1       294 9.21842E-06-1.54165E-08 0.00000E+00
 -1       295 9.17802E-06-2.41011E-07 0.00000E+00
 -1       296 9.13763E-06-4.37761E-07-1.65436E-24
 -1       297 9.09720E-06-5.84495E-07 0.00000E+00
 -1       298 9.05677E-06-6.64366E-07-1.65436E-24
 -1       299 9.01617E-06-6.60655E-07 8.27181E-25
 -1       300 8.97562E-06-5.63870E-07 0.00000E+00
 -1       301 9.18759E-06 7.27304E-08 8.27181E-25
 -1       302 8.78911E-06 7.27153E-08 0.00000E+00
 -1       303 8.39021E-06 7.31627E-08-4.13590E-25
 -1       304 7.99293E-06 7.34995E-08-4.13590E-25
 -1       305 7.59934E-06 7.31343E-08 0.00000E+00
 -1       306 9.29119E-06 3.25408E-07 0.00000E+00
 -1       307 9.04149E-06 4.46540E-07-3.30872E-24
 -1       308 8.83267E-06 4.59039E-07 0.00000E+00
 -1       309 8.65694E-06 3.81141E-07 0.00000E+00
 -1       310 8.50793E-06 2.31734E-07-6.61744E-24
 -1       311 8.37855E-06 2.95936E-08-3.30872E-24
 -1       312 8.26182E-06-2.06378E-07 0.00000E+00
 -1       313 8.15066E-06-4.57257E-07-3.30872E-24
 -1       314 8.03798E-06-7.04080E-07-6.61744E-24
 -1       315 7.91670E-06-9.27892E-07 0.00000E+00
 -1       316 7.77975E-06-1.10979E-06 6.61744E-24
 -1       317 7.62018E-06-1.23091E-06-3.30872E-24
 -1       318 7.43091E-06-1.27251E-06 0.00000E+00
 -1       319 7.20573E-06-1.21572E-06 0.00000E+00
 -1       320 6.93669E-06-1.04245E-06-3.30872E-24
 -1       321 8.89498E-06-1.42076E-07 0.00000E+00
 -1       322 8.85696E-06 2.48678E-08 8.27181E-25
 -1       323 8.81888E-06 1.37792E-07 1.65436E-24
 -1       324 8.78100E-06 1.98439E-07 0.00000E+00
 -1       325 8.74313E-06 2.12795E-07 0.00000E+00
 -1       326 8.70531E-06 1.86924E-07 0.00000E+00
 -1       327 8.66748E-06 1.30154E-07-8.27181E-25
 -1       328 8.62966E-06 5.18660E-08-4.13590E-25
 -1       329 8.59185E-06-3.68118E-08-8.27181E-25
 -1       330 8.55404E-06-1.24736E-07 0.00000E+00
 -1       331 8.51622E-06-2.00824E-07 8.27181E-25
 -1       332 8.47841E-06-2.54009E-07 0.00000E+00
 -1       333 8.44060E-06-2.75088E-07 8.27181E-25
 -1       334 8.40278E-06-2.54910E-07 0.00000E+00
 -1       335 8.36496E-06-1.87672E-07-8.27181E-25
 -1       336 8.65044E-06-4.26295E-07 0.00000E+00
 -1       337 8.31218E-06-4.87762E-07 0.00000E+00
 -1       338 7.92976E-06-5.49222E-07-1.65436E-24
 -1       339 7.51374E-06-6.10534E-07 0.00000E+00
 -1       340 7.07466E-06-6.71862E-07 0.00000E+00
 -1       341 8.65459E-06 2.48160E-08-3.30872E-24
 -1       342 8.23600E-06 7.77730E-07 1.65436E-24
 -1       343 7.72849E-06 1.76760E-06-3.30872E-24
 -1       344 7.17984E-06 2.86565E-06 0.00000E+00
 -1       345 6.64989E-06 3.91391E-06-3.30872E-24
 -1       346 6.19796E-06 4.75452E-06 0.00000E+00
 -1       347 5.86202E-06 5.28644E-06 0.00000E+00
 -1       348 5.67930E-06 5.41021E-06-1.65436E-24
 -1       349 5.64484E-06 5.13860E-06 0.00000E+00
 -1       350 5.75292E-06 4.48651E-06-1.65436E-24
 -1       351 5.95906E-06 3.57242E-06-3.30872E-24
 -1       352 6.21851E-06 2.51631E-06 0.00000E+00
 -1       353 6.47158E-06 1.47726E-06 0.00000E+00
 -1       354 6.65970E-06 6.14726E-07 0.00000E+00
 -1       355 6.74003E-06 3.91402E-08 1.65436E-24
 -1       356 8.28683E-06 6.38989E-08-1.65436E-24
 -1       357 8.24651E-06 1.65608E-07 0.00000E+00
 -1       358 8.20621E-06 2.37888E-07-1.65436E-24
 -1       359 8.16589E-06 2.81200E-07 0.00000E+00
 -1       360 8.12558E-06 2.98506E-07 0.00000E+00
 -1       361 8.08526E-06 2.92818E-07 0.00000E+00
 -1       362 8.04495E-06 2.69132E-07 1.65436E-24
 -1       363 8.00464E-06 2.32478E-07-8.27181E-25
 -1       364 7.96433E-06 1.89002E-07-1.65436E-24
 -1       365 7.92405E-06 1.44869E-07-8.27181E-25
 -1       366 7.88378E-06 1.06295E-07 8.27181E-25
 -1       367 7.84362E-06 7.94892E-08 0.00000E+00
 -1       368 7.80348E-06 6.96437E-08 8.27181E-25
 -1       369 7.76387E-06 8.19206E-08 4.13590E-25
 -1       370 7.72408E-06 1.19576E-07-2.06795E-25
 -1       371 8.12331E-06-8.05740E-08 8.27181E-25
 -1       372 7.80637E-06-9.23883E-08 0.00000E+00
 -1       373 7.43983E-06-1.04283E-07 4.13590E-25
 -1       374 7.08727E-06-1.15823E-07 1.03398E-25
 -1       375 6.81192E-06-1.27378E-07 0.00000E+00
 -1       376 8.21276E-06 4.35734E-08 0.00000E+00
 -1       377 8.10592E-06 1.31614E-07 0.00000E+00
 -1       378 8.00830E-06 1.95287E-07-1.65436E-24
 -1       379 7.92022E-06 2.32953E-07 0.00000E+00
 -1       380 7.84093E-06 2.47171E-07-1.65436E-24
 -1       381 7.76944E-06 2.40480E-07 8.27181E-25
 -1       382 7.70359E-06 2.18752E-07 0.00000E+00
 -1       383 7.64117E-06 1.87893E-07 0.00000E+00
 -1       384 7.57936E-06 1.55391E-07 0.00000E+00
 -1       385 7.51537E-06 1.28748E-07 0.00000E+00
 -1       386 7.44691E-06 1.14083E-07 1.65436E-24
 -1       387 7.37179E-06 1.17522E-07 8.27181E-25
 -1       388 7.28855E-06 1.42605E-07 0.00000E+00
 -1       389 7.19649E-06 1.93079E-07 0.00000E+00
 -1       390 7.09493E-06 2.68178E-07-8.27181E-25
 -1       406 7.59531E-06 2.16479E-07 1.65436E-24
 -1       407 7.49220E-06 2.47164E-07 0.00000E+00
 -1       408 7.37877E-06 2.77832E-07 1.65436E-24
 -1       409 7.25612E-06 3.08426E-07-4.13590E-25
 -1       410 7.12537E-06 3.38860E-07-8.27181E-25
 -1       466 5.35641E-06 2.94357E-07 1.65436E-24
 -1       467 5.48027E-06 6.44167E-07-1.65436E-24
 -1       468 5.60385E-06 7.98268E-07-3.30872E-24
 -1       469 5.72843E-06 8.28795E-07 1.65436E-24
 -1       470 5.85303E-06 7.70537E-07 0.00000E+00
 -1       471 5.97784E-06 6.57781E-07 1.65436E-24
 -1       472 6.10265E-06 5.08309E-07-3.30872E-24
 -1       473 6.22749E-06 3.39698E-07 0.00000E+00
 -1       474 6.35233E-06 1.63719E-07 3.30872E-24
 -1       475 6.47710E-06-7.89214E-09 0.00000E+00
 -1       476 6.60184E-06-1.62077E-07-3.30872E-24
 -1       477 6.72626E-06-2.85684E-07 0.00000E+00
 -1       478 6.85064E-06-3.56298E-07 3.30872E-24
 -1       479 6.97340E-06-3.51206E-07-8.27181E-25
 -1       480 7.09670E-06-2.24849E-07 8.27181E-25
 -1       481 4.51212E-06-3.06370E-07 2.06795E-25
 -1       482 3.84395E-06-2.87312E-07-2.06795E-25
 -1       483 3.24244E-06-2.68278E-07 4.13590E-25
 -1       484 2.71672E-06-2.49067E-07 2.06795E-25
 -1       485 2.27921E-06-2.29790E-07 0.00000E+00
 -1       486 4.86260E-06 2.88084E-07-1.65436E-24
 -1       487 4.55338E-06 7.08668E-07 0.00000E+00
 -1       488 4.33384E-06 8.91430E-07 3.30872E-24
 -1       489 4.22007E-06 7.89287E-07 1.65436E-24
 -1       490 4.19812E-06 4.42196E-07 0.00000E+00
 -1       491 4.25235E-06-1.08846E-07 1.65436E-24
 -1       492 4.34435E-06-7.60787E-07-3.30872E-24
 -1       493 4.43530E-06-1.41003E-06 1.65436E-24
 -1       494 4.48681E-06-1.95393E-06 0.00000E+00
 -1       495 4.46067E-06-2.29047E-06 1.65436E-24
 -1       496 4.34214E-06-2.38047E-06-3.30872E-24
 -1       497 4.11716E-06-2.18623E-06 0.00000E+00
 -1       498 3.80363E-06-1.75612E-06-3.30872E-24
 -1       499 3.42100E-06-1.13953E-06-1.65436E-24
 -1       500 3.00804E-06-4.43166E-07-3.30872E-24
 -1       501 7.17251E-06 3.77569E-07 1.65436E-24
 -1       502 7.13561E-06 5.46511E-07 8.27181E-25
 -1       503 7.09860E-06 5.87226E-07 0.00000E+00
 -1       504 7.06196E-06 5.11296E-07-8.27181E-25
 -1       505 7.02532E-06 3.39465E-07-8.27181E-25
 -1       506 6.98874E-06 9.26379E-08-4.13590E-25
 -1       507 6.95216E-06-2.02394E-07 0.00000E+00
 -1       508 6.91559E-06-5.18771E-07-4.13590E-25
 -1       509 6.87903E-06-8.27948E-07-8.27181E-25
 -1       510 6.84248E-06-1.10139E-06 0.00000E+00
 -1       511 6.80594E-06-1.31339E-06-8.27181E-25
 -1       512 6.76941E-06-1.43830E-06 0.00000E+00
 -1       513 6.73290E-06-1.45734E-06-8.27181E-25
 -1       514 6.69635E-06-1.35187E-06-4.13590E-25
 -1       515 6.65979E-06-1.11305E-06 0.00000E+00
 -1       516 6.72004E-06 9.21461E-08 8.27181E-25
 -1       517 6.00491E-06 1.19676E-07 5.16988E-26
 -1       518 5.15193E-06 1.46796E-07 0.00000E+00
 -1       519 4.24681E-06 1.74356E-07 1.03398E-25
 -1       520 3.37192E-06 2.02110E-07-1.61559E-27
 -1       521 6.83769E-06 2.80893E-07-6.61744E-24
 -1       522 6.50170E-06 3.68721E-07-3.30872E-24
 -1       523 6.20467E-06 3.53210E-07 0.00000E+00
 -1       524 5.93851E-06 2.52009E-07-3.30872E-24
 -1       525 5.69733E-06 8.37839E-08 6.61744E-24
 -1       526 5.47415E-06-1.33010E-07 3.30872E-24
 -1       527 5.26213E-06-3.79728E-07 6.61744E-24
 -1       528 5.05430E-06-6.37711E-07 0.00000E+00
 -1       529 4.84368E-06-8.88255E-07-6.61744E-24
 -1       530 4.62330E-06-1.11268E-06-3.30872E-24
 -1       531 4.38620E-06-1.29237E-06 0.00000E+00
 -1       532 4.12558E-06-1.40878E-06 0.00000E+00
 -1       533 3.83449E-06-1.44358E-06 0.00000E+00
 -1       534 3.50708E-06-1.37827E-06 3.30872E-24
 -1       535 3.13535E-06-1.19539E-06 6.61744E-24
 -1       536 6.62441E-06-3.34084E-07 0.00000E+00
 -1       537 6.62756E-06-3.18192E-08 0.00000E+00
 -1       538 6.63071E-06 1.84726E-07 1.03398E-25
 -1       539 6.63414E-06 3.25819E-07 0.00000E+00
 -1       540 6.63763E-06 4.01699E-07-4.11975E-26
 -1       541 6.64116E-06 4.22613E-07-3.87741E-26
 -1       542 6.64471E-06 3.98805E-07 1.03398E-25
 -1       543 6.64827E-06 3.40516E-07-5.16988E-26
 -1       544 6.65183E-06 2.57991E-07-1.03398E-25
 -1       545 6.65539E-06 1.61469E-07 0.00000E+00
 -1       546 6.65896E-06 6.11904E-08 1.03398E-25
 -1       547 6.66252E-06-3.26026E-08 0.00000E+00
 -1       548 6.66610E-06-1.09671E-07 0.00000E+00
 -1       549 6.66969E-06-1.59774E-07 0.00000E+00
 -1       550 6.67328E-06-1.72664E-07 0.00000E+00
 -1       551 6.04043E-06-7.55625E-07-4.91138E-25
 -1       552 5.39074E-06-7.78384E-07 2.06795E-25
 -1       553 4.70369E-06-8.01133E-07 8.27181E-25
 -1       554 4.00951E-06-8.24169E-07 8.27181E-25
 -1       555 3.33844E-06-8.47836E-07 0.00000E+00
 -1       556 6.45469E-06-3.58619E-07-3.30872E-24
 -1       557 6.31939E-06-7.11401E-08 0.00000E+00
 -1       558 6.21347E-06 1.38423E-07 0.00000E+00
 -1       559 6.13349E-06 2.79105E-07 8.27181E-25
 -1       560 6.07598E-06 3.59948E-07 0.00000E+00
 -1       561 6.03751E-06 3.90069E-07 8.27181E-25
 -1       562 6.01464E-06 3.78587E-07 0.00000E+00
 -1       563 6.00396E-06 3.34631E-07-8.27181E-25
 -1       564 6.00204E-06 2.67330E-07 8.27181E-25
 -1       565 6.00545E-06 1.85813E-07 0.00000E+00
 -1       566 6.01077E-06 9.92127E-08 8.27181E-25
 -1       567 6.01459E-06 1.66610E-08-2.06795E-25
 -1       568 6.01350E-06-5.27115E-08 6.20385E-25
 -1       569 6.00414E-06-9.97832E-08 1.03398E-25
 -1       570 5.98315E-06-1.15438E-07 0.00000E+00
 -1       571 6.69563E-06-9.43134E-08 5.16988E-26
 -1       572 6.71485E-06-6.41956E-08 0.00000E+00
 -1       573 6.73424E-06-4.53139E-08 2.06795E-25
 -1       574 6.75371E-06-3.50698E-08 0.00000E+00
 -1       575 6.77320E-06-3.08540E-08 0.00000E+00
 -1       576 6.79271E-06-3.00402E-08 0.00000E+00
 -1       577 6.81222E-06-3.00008E-08 0.00000E+00
 -1       578 6.83174E-06-2.81062E-08-4.13590E-25
 -1       579 6.85125E-06-2.17263E-08 0.00000E+00
 -1       580 6.87077E-06-8.23135E-09 0.00000E+00
 -1       581 6.89028E-06 1.50081E-08 0.00000E+00
 -1       582 6.90980E-06 5.06187E-08 1.65436E-24
 -1       583 6.92931E-06 1.01225E-07 1.65436E-24
 -1       584 6.94880E-06 1.69423E-07-8.27181E-25
 -1       585 6.96827E-06 2.57798E-07 0.00000E+00
 -1       586 6.57245E-06-1.30074E-07 0.00000E+00
 -1       587 6.45268E-06-1.21941E-07 0.00000E+00
 -1       588 6.32393E-06-1.13815E-07 0.00000E+00
 -1       589 6.19261E-06-1.05767E-07-2.58494E-26
 -1       590 6.06515E-06-9.78991E-08 0.00000E+00
 -1       591 6.64562E-06-8.69323E-08 0.00000E+00
 -1       592 6.61676E-06-4.47808E-08 0.00000E+00
 -1       593 6.59048E-06-9.95597E-09 0.00000E+00
 -1       594 6.56626E-06 1.91185E-08 0.00000E+00
 -1       595 6.54358E-06 4.40183E-08-4.13590E-25
 -1       596 6.52186E-06 6.63085E-08 0.00000E+00
 -1       597 6.50052E-06 8.75521E-08 0.00000E+00
 -1       598 6.47899E-06 1.09310E-07 0.00000E+00
 -1       599 6.45668E-06 1.33146E-07 2.06795E-25
 -1       600 6.43301E-06 1.60619E-07 1.03398E-25
 -1       601 6.40739E-06 1.93291E-07 0.00000E+00
 -1       602 6.37926E-06 2.32726E-07 1.55096E-25
 -1       603 6.34803E-06 2.80488E-07-3.10193E-25
 -1       604 6.31320E-06 3.38151E-07 3.87741E-26
 -1       605 6.27423E-06 4.07289E-07-1.03398E-25
 -1       606 6.99491E-06 5.16686E-07 0.00000E+00
 -1       607 7.00169E-06 6.79345E-07 0.00000E+00
 -1       608 7.00833E-06 8.55845E-07 0.00000E+00
 -1       609 7.01490E-06 1.04520E-06 4.13590E-25
 -1       610 7.02145E-06 1.24642E-06 0.00000E+00
 -1       611 7.02799E-06 1.45849E-06 4.13590E-25
 -1       612 7.03452E-06 1.68040E-06 0.00000E+00
 -1       613 7.04104E-06 1.91113E-06 0.00000E+00
 -1       614 7.04757E-06 2.14967E-06-4.13590E-25
 -1       615 7.05409E-06 2.39501E-06 0.00000E+00
 -1       616 7.06060E-06 2.64612E-06 0.00000E+00
 -1       617 7.06712E-06 2.90199E-06 0.00000E+00
 -1       618 7.07363E-06 3.16161E-06 0.00000E+00
 -1       619 7.08014E-06 3.42397E-06 0.00000E+00
 -1       620 7.08662E-06 3.68804E-06 0.00000E+00
 -1       621 6.84833E-06 3.88950E-07 0.00000E+00
 -1       622 6.71209E-06 4.09276E-07 0.00000E+00
 -1       623 6.58061E-06 4.29606E-07 0.00000E+00
 -1       624 6.45555E-06 4.49881E-07 0.00000E+00
 -1       625 6.33857E-06 4.70037E-07-2.06795E-25
 -1       626 6.94440E-06 5.24208E-07 0.00000E+00
 -1       627 6.89515E-06 6.95042E-07 0.00000E+00
 -1       628 6.84061E-06 8.79819E-07 0.00000E+00
 -1       629 6.78141E-06 1.07693E-06 0.00000E+00
 -1       630 6.71817E-06 1.28478E-06-8.27181E-25
 -1       631 6.65153E-06 1.50171E-06 0.00000E+00
 -1       632 6.58208E-06 1.72610E-06 8.27181E-25
 -1       633 6.51045E-06 1.95630E-06 2.06795E-25
 -1       634 6.43724E-06 2.19069E-06-4.13590E-25
 -1       635 6.36309E-06 2.42761E-06-2.06795E-25
 -1       636 6.28859E-06 2.66542E-06-4.13590E-25
 -1       637 6.21436E-06 2.90250E-06-2.06795E-25
 -1       638 6.14101E-06 3.13719E-06-2.06795E-25
 -1       639 6.06910E-06 3.36786E-06 5.16988E-26
 -1       640 5.99918E-06 3.59285E-06 1.55096E-25
 -1       641 7.09321E-06 4.22710E-06 0.00000E+00
 -1       642 7.09314E-06 4.52993E-06 2.58494E-26
 -1       643 7.09307E-06 4.85717E-06 0.00000E+00
 -1       644 7.09296E-06 5.20469E-06 0.00000E+00
 -1       645 7.09285E-06 5.56835E-06 3.23117E-27
 -1       646 7.09272E-06 5.94401E-06 0.00000E+00
 -1       647 7.09258E-06 6.32756E-06 0.00000E+00
 -1       648 7.09244E-06 6.71483E-06-1.61559E-27
 -1       649 7.09230E-06 7.10169E-06-6.46235E-27
 -1       650 7.09216E-06 7.48402E-06 6.46235E-27
 -1       651 7.09201E-06 7.85767E-06 2.58494E-26
 -1       652 7.09183E-06 8.21850E-06 0.00000E+00
 -1       653 7.09166E-06 8.56238E-06 0.00000E+00
 -1       654 7.09134E-06 8.88517E-06 1.03398E-25
 -1       655 7.09107E-06 9.18274E-06 0.00000E+00
 -1       656 6.85604E-06 3.92992E-06 0.00000E+00
 -1       657 6.65183E-06 3.90580E-06 0.00000E+00
 -1       658 6.46887E-06 3.88174E-06 0.00000E+00
 -1       659 6.29556E-06 3.85766E-06 0.00000E+00
 -1       660 6.12029E-06 3.83353E-06 0.00000E+00
 -1       661 7.01685E-06 4.23523E-06 0.00000E+00
 -1       662 6.93332E-06 4.54000E-06 0.00000E+00
 -1       663 6.84272E-06 4.86354E-06 0.00000E+00
 -1       664 6.74642E-06 5.20270E-06 4.13590E-25
 -1       665 6.64549E-06 5.55422E-06 8.27181E-25
 -1       666 6.54116E-06 5.91486E-06 4.13590E-25
 -1       667 6.43462E-06 6.28143E-06 8.27181E-25
 -1       668 6.32707E-06 6.65070E-06 4.13590E-25
 -1       669 6.21970E-06 7.01945E-06 8.27181E-25
 -1       670 6.11373E-06 7.38449E-06 0.00000E+00
 -1       671 6.01035E-06 7.74258E-06 8.27181E-25
 -1       672 5.91075E-06 8.09051E-06 4.13590E-25
 -1       673 5.81613E-06 8.42506E-06-8.27181E-25
 -1       674 5.72754E-06 8.74294E-06-2.06795E-25
 -1       675 5.64641E-06 9.04102E-06-4.13590E-25
 -1       676 6.83648E-06 9.42829E-06-8.27181E-25
 -1       677 6.58310E-06 9.40554E-06 0.00000E+00
 -1       678 6.32992E-06 9.38282E-06-8.27181E-25
 -1       679 6.07702E-06 9.36017E-06-2.06795E-25
 -1       680 5.82450E-06 9.33752E-06 0.00000E+00
 -1       681 1.98311E-06 1.06424E-08 8.27181E-25
 -1       682 2.02504E-06 1.02898E-07-4.13590E-25
 -1       683 2.06690E-06 9.36123E-08 0.00000E+00
 -1       684 2.10898E-06 1.01424E-08 0.00000E+00
 -1       685 2.15106E-06-1.27260E-07 0.00000E+00
 -1       686 2.19318E-06-2.98447E-07 8.27181E-25
 -1       687 2.23530E-06-4.86510E-07 0.00000E+00
 -1       688 2.27743E-06-6.74567E-07-8.27181E-25
 -1       689 2.31955E-06-8.45745E-07 1.65436E-24
 -1       690 2.36167E-06-9.83132E-07 8.27181E-25
 -1       691 2.40377E-06-1.06658E-06 1.65436E-24
 -1       692 2.44578E-06-1.07583E-06 0.00000E+00
 -1       693 2.48777E-06-9.83523E-07 0.00000E+00
 -1       694 2.52923E-06-7.62103E-07 0.00000E+00
 -1       695 2.57082E-06-3.71654E-07 0.00000E+00
 -1       696 1.63693E-06-1.76530E-07 8.27181E-25
 -1       697 1.29370E-06-1.41433E-07-4.13590E-25
 -1       698 9.35428E-07-1.06396E-07-8.27181E-25
 -1       699 5.84831E-07-7.10932E-08 0.00000E+00
 -1       700 2.65232E-07-3.58031E-08 0.00000E+00
 -1       701 1.79726E-06 4.75869E-08-4.13590E-25
 -1       702 1.65894E-06 2.80574E-07 4.13590E-25
 -1       703 1.53268E-06 4.81925E-07 0.00000E+00
 -1       704 1.42059E-06 6.44200E-07 0.00000E+00
 -1       705 1.32420E-06 7.64601E-07 1.65436E-24
 -1       706 1.24452E-06 8.40223E-07 0.00000E+00
 -1       707 1.18085E-06 8.73161E-07 0.00000E+00
 -1       708 1.13236E-06 8.65563E-07 8.27181E-25
 -1       709 1.09662E-06 8.23973E-07-1.65436E-24
 -1       710 1.07116E-06 7.55006E-07 0.00000E+00
 -1       711 1.05237E-06 6.68267E-07 0.00000E+00
 -1       712 1.03671E-06 5.73422E-07-8.27181E-25
 -1       713 1.02013E-06 4.81021E-07 1.65436E-24
 -1       714 9.99087E-07 4.01793E-07 0.00000E+00
 -1       715 9.69594E-07 3.44629E-07 0.00000E+00
 -1       716 2.61554E-06 8.11967E-07 0.00000E+00
 -1       717 2.62281E-06 1.15480E-06 3.23117E-27
 -1       718 2.63004E-06 1.29223E-06-1.03398E-25
 -1       719 2.63751E-06 1.25987E-06-1.03398E-25
 -1       720 2.64498E-06 1.09047E-06 2.06795E-25
 -1       721 2.65248E-06 8.16793E-07 0.00000E+00
 -1       722 2.65996E-06 4.69810E-07 0.00000E+00
 -1       723 2.66742E-06 8.04828E-08 1.03398E-25
 -1       724 2.67488E-06-3.20934E-07 0.00000E+00
 -1       725 2.68231E-06-7.04187E-07-1.03398E-25
 -1       726 2.68974E-06-1.03873E-06 0.00000E+00
 -1       727 2.69704E-06-1.29400E-06 2.58494E-26
 -1       728 2.70433E-06-1.43809E-06 2.06795E-25
 -1       729 2.71086E-06-1.43908E-06-2.06795E-25
 -1       730 2.71763E-06-1.26270E-06 0.00000E+00
 -1       731 1.99233E-06 2.41796E-07 0.00000E+00
 -1       732 1.54941E-06 2.57211E-07-1.03398E-25
 -1       733 1.25048E-06 2.72576E-07 0.00000E+00
 -1       734 1.06525E-06 2.88235E-07 0.00000E+00
 -1       735 9.67400E-07 3.03931E-07 4.13590E-25
 -1       736 2.18847E-06 1.06640E-06 1.65436E-24
 -1       737 1.63849E-06 2.23819E-06 0.00000E+00
 -1       738 1.02192E-06 3.58748E-06 3.30872E-24
 -1       739 3.97440E-07 4.95614E-06 0.00000E+00
 -1       740-1.73327E-07 6.18208E-06-3.30872E-24
 -1       741-6.29655E-07 7.10356E-06 0.00000E+00
 -1       742-9.36624E-07 7.62756E-06 3.30872E-24
 -1       743-1.06013E-06 7.66275E-06 0.00000E+00
 -1       744-1.00755E-06 7.22814E-06 0.00000E+00
 -1       745-7.86997E-07 6.34484E-06 0.00000E+00
 -1       746-4.44367E-07 5.13508E-06-3.30872E-24
 -1       747-2.59243E-08 3.72265E-06 1.65436E-24
 -1       748 4.04933E-07 2.27704E-06-3.30872E-24
 -1       749 7.85290E-07 9.68060E-07 1.65436E-24
 -1       750 1.06251E-06-6.55103E-08-1.65436E-24
 -1       751 2.90992E-06-4.65272E-07 0.00000E+00
 -1       752 3.11166E-06-2.24130E-07 0.00000E+00
 -1       753 3.31265E-06-9.75664E-08 0.00000E+00
 -1       754 3.51593E-06-3.30490E-08 3.30872E-24
 -1       755 3.71928E-06-1.06960E-08 0.00000E+00
 -1       756 3.92309E-06-1.10122E-08 0.00000E+00
 -1       757 4.12695E-06-2.64761E-08 0.00000E+00
 -1       758 4.33089E-06-4.97042E-08 0.00000E+00
 -1       759 4.53483E-06-7.74162E-08 0.00000E+00
 -1       760 4.73873E-06-1.06374E-07 3.30872E-24
 -1       761 4.94260E-06-1.33996E-07 0.00000E+00
 -1       762 5.14614E-06-1.57689E-07 0.00000E+00
 -1       763 5.34964E-06-1.72785E-07-6.61744E-24
 -1       764 5.55152E-06-1.74538E-07 1.65436E-24
 -1       765 5.75395E-06-1.51171E-07 0.00000E+00
 -1       766 2.22606E-06-8.46894E-07 8.27181E-25
 -1       767 1.73391E-06-8.14160E-07 0.00000E+00
 -1       768 1.31173E-06-7.81741E-07 0.00000E+00
 -1       769 1.02753E-06-7.48789E-07-2.06795E-25
 -1       770 9.59910E-07-7.15600E-07 5.16988E-26
 -1       771 2.42750E-06-4.87260E-07 0.00000E+00
 -1       772 2.16199E-06-1.77548E-07 0.00000E+00
 -1       773 1.92262E-06 6.15696E-08 0.00000E+00
 -1       774 1.70687E-06 2.37220E-07 0.00000E+00
 -1       775 1.51219E-06 3.56535E-07 0.00000E+00
 -1       776 1.33594E-06 4.26668E-07 0.00000E+00
 -1       777 1.17544E-06 4.54776E-07 0.00000E+00
 -1       778 1.02801E-06 4.48021E-07 1.65436E-24
 -1       779 8.90963E-07 4.13569E-07 0.00000E+00
 -1       780 7.61624E-07 3.58590E-07 1.65436E-24
 -1       781 6.37305E-07 2.90256E-07-3.30872E-24
 -1       782 5.15337E-07 2.15746E-07-1.65436E-24
 -1       783 3.93051E-07 1.42239E-07 0.00000E+00
 -1       784 2.67888E-07 7.69366E-08 0.00000E+00
 -1       785 1.37298E-07 2.70382E-08 0.00000E+00
 -1       786 5.96447E-06-2.06145E-08 0.00000E+00
 -1       787 5.98214E-06 3.37004E-08 0.00000E+00
 -1       788 5.99979E-06 7.46725E-08 0.00000E+00
 -1       789 6.01760E-06 1.04715E-07-2.06795E-25
 -1       790 6.03543E-06 1.26239E-07 4.13590E-25
 -1       791 6.05329E-06 1.41652E-07 0.00000E+00
 -1       792 6.07116E-06 1.53364E-07 4.13590E-25
 -1       793 6.08904E-06 1.63783E-07 2.06795E-25
 -1       794 6.10692E-06 1.75316E-07 0.00000E+00
 -1       795 6.12479E-06 1.90372E-07 0.00000E+00
 -1       796 6.14266E-06 2.11358E-07-4.13590E-25
 -1       797 6.16053E-06 2.40685E-07 0.00000E+00
 -1       798 6.17837E-06 2.80762E-07 4.13590E-25
 -1       799 6.19616E-06 3.34000E-07-2.06795E-25
 -1       800 6.21394E-06 4.02818E-07 0.00000E+00
 -1       801 5.42275E-06-7.48181E-08 0.00000E+00
 -1       802 4.32954E-06-5.84723E-08 0.00000E+00
 -1       803 2.95415E-06-4.25454E-08-2.58494E-26
 -1       804 1.58316E-06-2.71691E-08 0.00000E+00
 -1       805 5.03134E-07-1.14247E-08-1.65436E-24
 -1       806 5.90111E-06-2.78708E-08 8.27181E-25
 -1       807 5.85630E-06 2.78591E-08 0.00000E+00
 -1       808 5.81346E-06 7.78273E-08 0.00000E+00
 -1       809 5.77224E-06 1.23266E-07 4.13590E-25
 -1       810 5.73223E-06 1.65403E-07 8.27181E-25
 -1       811 5.69299E-06 2.05455E-07 0.00000E+00
 -1       812 5.65406E-06 2.44641E-07 0.00000E+00
 -1       813 5.61501E-06 2.84177E-07-2.06795E-25
 -1       814 5.57536E-06 3.25279E-07 0.00000E+00
 -1       815 5.53468E-06 3.69163E-07 4.13590E-25
 -1       816 5.49249E-06 4.17044E-07 4.13590E-25
 -1       817 5.44837E-06 4.70141E-07-4.13590E-25
 -1       818 5.40185E-06 5.29668E-07 8.27181E-25
 -1       819 5.35252E-06 5.96842E-07 0.00000E+00
 -1       820 5.30001E-06 6.72886E-07 2.06795E-25
 -1       821 6.21365E-06 6.00923E-07 0.00000E+00
 -1       822 6.19493E-06 7.37570E-07-2.06795E-25
 -1       823 6.17622E-06 8.96901E-07 0.00000E+00
 -1       824 6.15735E-06 1.07623E-06 0.00000E+00
 -1       825 6.13844E-06 1.27288E-06 4.13590E-25
 -1       826 6.11951E-06 1.48417E-06 0.00000E+00
 -1       827 6.10056E-06 1.70741E-06-4.13590E-25
 -1       828 6.08160E-06 1.93991E-06 0.00000E+00
 -1       829 6.06265E-06 2.17898E-06 0.00000E+00
 -1       830 6.04369E-06 2.42193E-06 0.00000E+00
 -1       831 6.02474E-06 2.66607E-06-4.13590E-25
 -1       832 6.00582E-06 2.90872E-06 0.00000E+00
 -1       833 5.98692E-06 3.14717E-06 0.00000E+00
 -1       834 5.96815E-06 3.37874E-06-2.06795E-25
 -1       835 5.94938E-06 3.60073E-06 0.00000E+00
 -1       836 6.10263E-06 5.33692E-07 0.00000E+00
 -1       837 5.93333E-06 5.79333E-07 0.00000E+00
 -1       838 5.74308E-06 6.24891E-07 0.00000E+00
 -1       839 5.55165E-06 6.70337E-07 4.13590E-25
 -1       840 5.37879E-06 7.15854E-07 0.00000E+00
 -1       841 6.18924E-06 6.00589E-07-1.03398E-25
 -1       842 6.13644E-06 7.39314E-07 1.29247E-26
 -1       843 6.07441E-06 9.02721E-07 3.23117E-27
 -1       844 6.00425E-06 1.08759E-06 0.00000E+00
 -1       845 5.92725E-06 1.29071E-06-1.29247E-26
 -1       846 5.84461E-06 1.50884E-06-1.29247E-26
 -1       847 5.75755E-06 1.73873E-06 2.58494E-26
 -1       848 5.66729E-06 1.97712E-06-1.29247E-26
 -1       849 5.57508E-06 2.22073E-06 2.58494E-26
 -1       850 5.48213E-06 2.46629E-06 1.29247E-26
 -1       851 5.38968E-06 2.71051E-06-2.58494E-26
 -1       852 5.29895E-06 2.95013E-06-2.58494E-26
 -1       853 5.21117E-06 3.18185E-06 0.00000E+00
 -1       854 5.12749E-06 3.40240E-06 0.00000E+00
 -1       855 5.04925E-06 3.60856E-06-2.06795E-25
 -1       856 5.91016E-06 4.03618E-06 0.00000E+00
 -1       857 5.88778E-06 4.30296E-06 0.00000E+00
 -1       858 5.86539E-06 4.60546E-06-4.13590E-25
 -1       859 5.84284E-06 4.93824E-06 0.00000E+00
 -1       860 5.82026E-06 5.29587E-06 0.00000E+00
 -1       861 5.79764E-06 5.67293E-06 4.13590E-25
 -1       862 5.77501E-06 6.06398E-06 0.00000E+00
 -1       863 5.75237E-06 6.46357E-06 0.00000E+00
 -1       864 5.72972E-06 6.86628E-06 0.00000E+00
 -1       865 5.70708E-06 7.26665E-06 0.00000E+00
 -1       866 5.68445E-06 7.65926E-06 8.27181E-25
 -1       867 5.66184E-06 8.03866E-06 0.00000E+00
 -1       868 5.63925E-06 8.39941E-06-8.27181E-25
 -1       869 5.61677E-06 8.73609E-06 0.00000E+00
 -1       870 5.59429E-06 9.04325E-06 0.00000E+00
 -1       871 5.75417E-06 3.80856E-06 0.00000E+00
 -1       872 5.59134E-06 3.80644E-06 0.00000E+00
 -1       873 5.43767E-06 3.80427E-06 0.00000E+00
 -1       874 5.28771E-06 3.80202E-06-5.16988E-26
 -1       875 5.13601E-06 3.79967E-06 2.06795E-25
 -1       876 5.87841E-06 4.04366E-06 0.00000E+00
 -1       877 5.81347E-06 4.31221E-06 4.13590E-25
 -1       878 5.73709E-06 4.61117E-06-8.27181E-25
 -1       879 5.65114E-06 4.93619E-06 0.00000E+00
 -1       880 5.55713E-06 5.28272E-06 8.27181E-25
 -1       881 5.45675E-06 5.64634E-06-4.13590E-25
 -1       882 5.35164E-06 6.02257E-06 0.00000E+00
 -1       883 5.24346E-06 6.40699E-06 4.13590E-25
 -1       884 5.13388E-06 6.79515E-06 0.00000E+00
 -1       885 5.02456E-06 7.18261E-06 0.00000E+00
 -1       886 4.91715E-06 7.56492E-06 0.00000E+00
 -1       887 4.81330E-06 7.93764E-06 0.00000E+00
 -1       888 4.71469E-06 8.29634E-06 8.27181E-25
 -1       889 4.62279E-06 8.63648E-06 0.00000E+00
 -1       890 4.53953E-06 8.95371E-06 0.00000E+00
 -1       891 5.35486E-06 9.30352E-06 4.13590E-25
 -1       892 5.18033E-06 9.29133E-06 2.06795E-25
 -1       893 5.02650E-06 9.27916E-06 0.00000E+00
 -1       894 4.87094E-06 9.26701E-06 1.03398E-25
 -1       895 4.69124E-06 9.25485E-06-2.06795E-25
 -1       896 5.78488E-08 2.06417E-07 0.00000E+00
 -1       897 1.16186E-07 3.50574E-07 0.00000E+00
 -1       898 1.74499E-07 4.45348E-07 1.65436E-24
 -1       899 2.32906E-07 5.03480E-07-8.27181E-25
 -1       900 2.91316E-07 5.32786E-07-1.65436E-24
 -1       901 3.49744E-07 5.41004E-07-8.27181E-25
 -1       902 4.08173E-07 5.33035E-07 1.65436E-24
 -1       903 4.66603E-07 5.13738E-07 0.00000E+00
 -1       904 5.25030E-07 4.86444E-07 1.65436E-24
 -1       905 5.83442E-07 4.54467E-07 8.27181E-25
 -1       906 6.41845E-07 4.20488E-07 0.00000E+00
 -1       907 7.00176E-07 3.87183E-07 0.00000E+00
 -1       908 7.58496E-07 3.57320E-07-1.65436E-24
 -1       909 8.16451E-07 3.33674E-07 0.00000E+00
 -1       910 8.74529E-07 3.19857E-07 0.00000E+00
 -1       911 9.46747E-07 3.32321E-07 4.13590E-25
 -1       912 9.63020E-07 3.57774E-07 2.06795E-25
 -1       913 9.79280E-07 3.91267E-07 0.00000E+00
 -1       914 9.95580E-07 4.28207E-07 0.00000E+00
 -1       915 1.01188E-06 4.64128E-07 0.00000E+00
 -1       916 1.02819E-06 4.94561E-07-2.06795E-25
 -1       917 1.04450E-06 5.14838E-07 0.00000E+00
 -1       918 1.06081E-06 5.20284E-07 0.00000E+00
 -1       919 1.07711E-06 5.05685E-07 0.00000E+00
 -1       920 1.09340E-06 4.65810E-07 0.00000E+00
 -1       921 1.10968E-06 3.94508E-07-4.13590E-25
 -1       922 1.12588E-06 2.85608E-07 2.06795E-25
 -1       923 1.14207E-06 1.31568E-07 0.00000E+00
 -1       924 1.15788E-06-7.51879E-08 0.00000E+00
 -1       925 1.17380E-06-3.44143E-07 0.00000E+00
 -1       926 1.11547E-06-1.05150E-06 0.00000E+00
 -1       927 1.04143E-06-1.39753E-06 0.00000E+00
 -1       928 9.67511E-07-1.69822E-06 1.65436E-24
 -1       929 8.93281E-07-1.92904E-06-8.27181E-25
 -1       930 8.19056E-07-2.07631E-06 0.00000E+00
 -1       931 7.44775E-07-2.12663E-06-8.27181E-25
 -1       932 6.70484E-07-2.08167E-06-1.65436E-24
 -1       933 5.96170E-07-1.94342E-06 0.00000E+00
 -1       934 5.21840E-07-1.72836E-06 0.00000E+00
 -1       935 4.47485E-07-1.45325E-06-8.27181E-25
 -1       936 3.73115E-07-1.14416E-06 1.65436E-24
 -1       937 2.98713E-07-8.27295E-07 0.00000E+00
 -1       938 2.24310E-07-5.30050E-07-1.65436E-24
 -1       939 1.49764E-07-2.79766E-07 1.65436E-24
 -1       940 7.52850E-08-9.64800E-08 0.00000E+00
 -1       941 3.10818E-07 5.03283E-08 0.00000E+00
 -1       942 6.38807E-07 9.55103E-08 0.00000E+00
 -1       943 9.65701E-07 1.37451E-07 0.00000E+00
 -1       944 1.29587E-06 1.78006E-07 0.00000E+00
 -1       945 1.62612E-06 2.17702E-07 1.32349E-23
 -1       946 1.95703E-06 2.57056E-07-6.61744E-24
 -1       947 2.28802E-06 2.96252E-07 1.32349E-23
 -1       948 2.61911E-06 3.35474E-07 6.61744E-24
 -1       949 2.95022E-06 3.74929E-07 1.32349E-23
 -1       950 3.28124E-06 4.14829E-07 0.00000E+00
 -1       951 3.61221E-06 4.55813E-07 0.00000E+00
 -1       952 3.94265E-06 4.98537E-07 0.00000E+00
 -1       953 4.27302E-06 5.45330E-07-6.61744E-24
 -1       954 4.60077E-06 5.98582E-07-3.30872E-24
 -1       955 4.92939E-06 6.66879E-07 6.61744E-24
 -1       956 5.22785E-06 8.78809E-07 4.13590E-25
 -1       957 5.21122E-06 1.01703E-06 5.16988E-26
 -1       958 5.19452E-06 1.17187E-06 2.06795E-25
 -1       959 5.17779E-06 1.34136E-06-1.03398E-25
 -1       960 5.16104E-06 1.52352E-06-2.06795E-25
 -1       961 5.14429E-06 1.71638E-06 1.03398E-25
 -1       962 5.12754E-06 1.91795E-06 0.00000E+00
 -1       963 5.11078E-06 2.12625E-06 0.00000E+00
 -1       964 5.09403E-06 2.33929E-06-4.13590E-25
 -1       965 5.07727E-06 2.55509E-06-2.06795E-25
 -1       966 5.06051E-06 2.77167E-06 4.13590E-25
 -1       967 5.04376E-06 2.98704E-06 0.00000E+00
 -1       968 5.02702E-06 3.19921E-06 0.00000E+00
 -1       969 5.01030E-06 3.40622E-06 0.00000E+00
 -1       970 4.99363E-06 3.60608E-06-4.13590E-25
 -1       971 4.94601E-06 4.00185E-06-8.27181E-25
 -1       972 4.91398E-06 4.25063E-06 0.00000E+00
 -1       973 4.88195E-06 4.53777E-06 8.27181E-25
 -1       974 4.84978E-06 4.85774E-06 4.13590E-25
 -1       975 4.81758E-06 5.20503E-06 0.00000E+00
 -1       976 4.78535E-06 5.57408E-06 4.13590E-25
 -1       977 4.75311E-06 5.95938E-06 0.00000E+00
 -1       978 4.72086E-06 6.35537E-06-4.13590E-25
 -1       979 4.68861E-06 6.75651E-06-8.27181E-25
 -1       980 4.65636E-06 7.15726E-06-4.13590E-25
 -1       981 4.62413E-06 7.55206E-06-8.27181E-25
 -1       982 4.59193E-06 7.93538E-06 0.00000E+00
 -1       983 4.55977E-06 8.30166E-06 8.27181E-25
 -1       984 4.52779E-06 8.64538E-06 0.00000E+00
 -1       985 4.49581E-06 8.96100E-06 0.00000E+00
 -3
    1PSTEP                         4           2           1          
  100CL  102 1.25000E-01         841                     0    2           1
 -4  STRESS      6    1
 -5  SXX         1    4    1    1
 -5  SYY         1    4    2    2
 -5  SZZ         1    4    3    3
 -5  SXY         1    4    1    2
 -5  SYZ         1    4    2    3
 -5  SZX         1    4    3    1
 -1         1-5.31564E+05-1.71073E+05-1.10020E+05-1.49993E+05-1.35212E-10 4.05028E-10
 -1         2-3.37141E+05-2.37479E+04 4.26341E+02-3.33007E+04-2.83507E-10-6.55518E-10
 -1         3-1.77067E+05-6.00951E+04-1.00102E+04-1.44692E+04 8.71871E-11-1.83562E-10
 -1         4-9.10972E+04-1.50862E+04 1.39613E+02-8.89509E+03-1.00044E-10-2.63277E-10
 -1         5-4.85103E+04 2.13979E+04-2.26504E+04-9.58903E+02 1.79216E-09 1.81458E-10
 -1         8-2.86575E+05-1.15092E+05-4.39588E+04-1.05609E+05 1.42336E-10 7.60338E-10
 -1         9-3.03328E+05-7.22045E+04-3.82076E+04-6.86537E+04-2.62692E-10-3.05590E-10
 -1        10-1.50481E+05-8.23799E+04-9.78068E+03-3.69407E+04-6.16069E-10-1.63254E-10
 -1        11-8.74186E+04-2.34669E+04 1.21662E+02-1.89595E+04 3.26660E-10-3.25334E-10
 -1        12-5.73326E+04 1.65554E+04-2.51957E+04-7.62773E+03 5.41519E-10 4.49925E-11
 -1        15 3.30152E+03-1.44974E+04 5.51808E+02-2.54762E+04-1.55524E-10 9.63155E-10
 -1        16-1.62379E+05-2.51642E+04 1.17157E+04-7.59498E+04 7.21532E-11 6.34316E-10
 -1        17-9.99101E+04-6.49082E+04-1.06864E+04-5.44153E+04-6.99856E-10 2.80428E-10
 -1        18-4.92432E+04-2.47192E+04-1.83077E+04-2.67237E+04-1.05539E-10-1.91145E-10
 -1        19-1.09743E+04 1.17027E+04-9.91745E+03-7.81253E+03-1.39873E-10 1.58328E-10
 -1        20 1.66932E+04-1.25197E+04-2.16720E+03 9.11025E+03 5.87590E-10 2.58296E-10
 -1        21 2.16938E+02-2.49846E+04 6.92375E+03 5.39442E+00 2.94132E-09 7.07529E-10
 -1        22 5.49437E+03 3.18778E+04 2.13206E+02-7.80060E+03-1.64277E-10 3.53111E-10
 -1        23-6.53313E+04 1.37590E+03 7.11244E+02-2.96888E+04-2.24342E-11-7.92776E-11
 -1        24-3.63076E+04 7.39396E+03 4.78799E+04-7.90705E+04-2.86142E-09 3.22567E-10
 -1        25 9.91346E+04 3.17889E+04 3.00864E+04-4.95876E+04 1.62913E-10 2.64587E-10
 -1        26 3.93100E+02 2.63658E+04 1.31440E+03-4.89154E+03-1.12067E-10 1.63330E-11
 -1        27-5.85038E+03-1.04803E+04-4.52366E+03 1.26754E+04 8.13619E-11-6.81818E-10
 -1        28-1.99796E+03-1.98283E+04-1.08191E+02 9.59256E+03-1.39494E-10-4.12648E-10
 -1        29 8.00306E+04 5.43452E+04 2.25456E+02-2.96292E+02 1.57338E-10-4.02451E-11
 -1        30 2.49733E+04 8.00551E+03 3.38780E+02-7.57634E+03-2.73046E-10 3.78463E-10
 -1        31-9.26510E+04 7.33888E+03 8.05768E+02-1.98482E+04 1.52239E-09-3.06500E-10
 -1        32 1.36076E+05 7.61139E+04 9.64529E+04-8.16096E+04 2.20937E-09 7.53971E-10
 -1        33 2.31488E+05 9.17965E+04 7.07613E+04-7.11825E+03-4.71850E-09 1.07548E-10
 -1        34-3.36890E+04-4.26565E+03-8.02854E+02 7.29032E+03-4.65413E-10-9.28821E-11
 -1        35-5.66098E+03-6.63551E+03-1.16960E+02 1.43330E+04 8.17893E-10-4.23521E-10
 -1        36-7.21257E+05 2.21184E+04-5.11381E+04 4.38189E-08 5.57028E-10-1.06957E-09
 -1        37-7.43396E+05-2.56045E+04-3.61877E+04 3.20447E-08-1.27055E-11-1.96815E-09
 -1        38-7.29805E+05 3.46716E+03-1.32368E+04-2.15981E-08-2.88364E-10 2.51021E-10
 -1        39-7.33428E+05-4.01230E+03-8.32415E+03-3.43853E-10 2.65994E-11-4.01087E-10
 -1        40-7.31214E+05 5.42301E+02-3.40100E+03-8.55096E-09-1.97907E-10-3.47654E-10
 -1        41-7.31783E+05-6.34706E+02-2.02719E+03-9.79083E-09-1.27362E-09 1.59821E-09
 -1        42-7.31446E+05 9.20312E+01-9.84308E+02-1.87038E-10-3.79707E-10 8.55579E-10
 -1        43-7.31535E+05-1.58357E+02-7.66548E+02-2.50468E-08-2.81199E-10-1.23056E-09
 -1        44-7.31461E+05 6.62597E+01-7.53427E+02-2.96183E-08-6.32877E-10-4.04683E-10
 -1        45-7.31664E+05-4.13120E+02-1.35886E+03-5.89047E-08-7.66324E-11-2.52712E-10
 -1        46-7.31318E+05 3.46621E+02-2.19812E+03-4.31018E-08-2.23671E-10 4.72255E-10
 -1        47-7.32707E+05-2.55732E+03-5.31932E+03-3.62175E-08 9.13677E-10 6.70468E-10
 -1        48-7.30421E+05 2.20890E+03-8.44039E+03 6.17301E-08-4.94452E-10-2.01453E-10
 -1        49-7.39056E+05-1.63116E+04-2.30572E+04-4.71813E-08-5.53068E-12-5.27507E-10
 -1        50-7.24976E+05 1.40902E+04-3.25816E+04 8.45856E-09-1.04288E-09-1.76442E-10
 -1        51 5.88170E+03-7.01557E+04 9.32496E+03-1.82341E+05-7.27596E-12 3.87445E-10
 -1        52 2.31794E+03-6.88035E+04 5.58837E+03-2.00708E+05-3.63798E-12 1.26238E-09
 -1        53 1.23795E+03-7.00143E+04 4.49653E+03-1.81883E+05-5.54792E-11 1.21690E-09
 -1        54 3.12144E+03-6.88725E+04 6.80353E+03-2.01215E+05-6.00267E-11 4.81123E-10
 -1        55 8.20908E+03-7.08734E+04 1.23636E+04-1.81823E+05 8.00355E-11 5.82077E-11
 -1        56-8.01447E+05-9.06005E+04-6.59513E+04-3.10097E+05 9.73159E-11 2.07001E-09
 -1        57-8.32588E+05-1.44043E+05-4.42261E+04-3.02181E+05 1.02091E-10 4.34738E-10
 -1        58-8.14203E+05-1.11436E+05-1.55434E+04-3.06577E+05 6.91216E-11-2.53476E-09
 -1        59-8.17889E+05-1.19505E+05-9.21448E+03-3.06435E+05 1.03682E-10-6.95763E-11
 -1        60-8.16015E+05-1.14312E+05-3.63760E+03-3.06147E+05 4.70379E-10 1.84173E-09
 -1        61-8.15823E+05-1.16114E+05-2.05908E+03-3.06924E+05-2.50338E-10-3.88582E-10
 -1        62-8.16250E+05-1.14725E+05-1.00491E+03-3.06125E+05-8.01492E-11 8.61633E-10
 -1        63-8.15619E+05-1.15652E+05-8.41870E+02-3.06909E+05-8.86686E-11-3.20309E-10
 -1        64-8.16216E+05-1.14763E+05-9.79197E+02-3.06165E+05-9.03242E-11 8.30767E-10
 -1        65-8.15953E+05-1.15947E+05-1.98334E+03-3.06760E+05-1.46976E-10 5.09175E-10
 -1        66-8.15918E+05-1.14440E+05-3.49385E+03-3.06270E+05-3.24007E-11 1.07320E-10
 -1        67-8.18077E+05-1.19059E+05-8.84332E+03-3.06127E+05-3.14714E-10 1.29671E-09
 -1        68-8.14110E+05-1.11751E+05-1.49156E+04-3.06762E+05 8.77662E-11-1.02864E-09
 -1        69-8.32312E+05-1.42472E+05-4.24370E+04-3.01895E+05 3.69482E-10 2.56478E-10
 -1        70-8.01808E+05-9.18201E+04-6.32847E+04-3.10211E+05-7.00311E-11 5.56611E-10
 -1        71-3.42462E+05-8.02402E+02 1.85527E+03 6.33136E-08-2.52770E-10 1.04296E-09
 -1        72-3.41625E+05 9.28845E+02 1.31128E+03 8.36628E-09 1.95302E-10 1.53086E-09
 -1        73-3.42151E+05-1.25708E+02 4.76635E+02-3.26926E-08-5.78628E-11 2.02618E-10
 -1        74-3.41987E+05 1.44926E+02 2.94065E+02 6.01200E-08 5.39437E-10-4.34852E-12
 -1        75-3.42100E+05-1.91137E+01 1.08008E+02 8.57284E-09 1.95064E-10 3.84382E-10
 -1        76-3.42050E+05 1.87291E+01 4.05359E+01-8.24929E-08 2.14927E-10 4.35577E-10
 -1        77-3.42089E+05 3.98051E-01-2.62000E+01-3.02436E-08-2.66470E-10-3.91040E-10
 -1        78-3.42073E+05-2.23984E+01-1.08507E+02-1.94201E-08 1.55458E-10-4.77982E-11
 -1        79-3.42077E+05 2.19910E+01-2.19785E+02 1.06183E-07-3.10714E-10-1.97403E-10
 -1        80-3.42150E+05-1.66936E+02-5.19744E+02 3.18782E-08 5.94698E-10 8.02416E-11
 -1        81-3.42013E+05 1.44844E+02-9.00401E+02 6.76013E-08 5.23616E-11-1.67120E-10
 -1        82-3.42592E+05-1.07413E+03-2.22451E+03 2.21158E-09 1.21336E-10-1.22128E-10
 -1        83-3.41635E+05 9.28528E+02-3.54379E+03 8.92933E-09-3.79206E-10 3.57886E-10
 -1        84-3.45261E+05-6.85737E+03-9.69229E+03 2.58586E-08-8.22331E-10 3.96881E-10
 -1        85-3.39345E+05 5.92350E+03-1.36995E+04 1.43117E-08-7.38691E-10 1.02773E-10
 -1        86-1.57229E+04 3.62859E+04 3.69223E+04 1.57256E+02-7.27596E-12-4.82437E-10
 -1        87 1.95280E+04 5.27585E+04 2.84582E+04-6.50182E+02-8.04903E-11 4.92870E-10
 -1        88-3.78937E+03 4.17377E+04 1.42928E+04 1.33068E+02-1.52113E-10 8.18130E-10
 -1        89 1.28410E+04 4.96579E+04 1.97435E+04-6.20643E+02-6.18456E-11 3.64367E-10
 -1        90-9.04138E+03 3.93851E+04 2.19302E+04 1.27719E+02-1.96451E-10 3.55240E-10
 -1        91-3.63352E+05-4.95164E+04-4.42218E+03-1.37216E+05 3.04340E-10 3.16049E-11
 -1        92-3.66182E+05-5.29944E+04-3.06275E+03-1.35770E+05 1.41124E-09 1.96479E-10
 -1        93-3.64039E+05-5.12974E+04-1.03814E+03-1.37135E+05 1.12328E-09 3.82215E-10
 -1        94-3.65329E+05-5.09814E+04-6.51699E+02-1.35917E+05 5.64000E-10 1.41006E-09
 -1        95-3.64205E+05-5.15279E+04-2.53060E+02-1.37069E+05 5.49793E-10 1.24899E-10
 -1        96-3.64900E+05-5.09308E+04-1.61244E+02-1.36232E+05 3.80986E-10 6.32390E-10
 -1        97-3.64467E+05-5.13482E+04-1.16272E+02-1.36819E+05-6.97824E-11-7.96794E-10
 -1        98-3.64381E+05-5.14108E+04-1.52939E+02-1.36799E+05-6.63453E-10-1.11274E-10
 -1        99-3.64723E+05-5.10481E+04-2.58690E+02-1.36502E+05-6.90051E-10 1.31934E-10
 -1       100-3.64098E+05-5.20358E+04-6.12544E+02-1.37266E+05 8.16247E-10 1.20622E-10
 -1       101-3.64752E+05-5.07229E+04-1.05633E+03-1.36353E+05 5.86752E-10 2.45336E-10
 -1       102-3.64783E+05-5.33786E+04-2.84119E+03-1.37123E+05 3.64793E-11-7.29244E-10
 -1       103-3.64039E+05-4.97060E+04-4.55177E+03-1.36645E+05-4.70436E-10 1.05092E-09
 -1       104-3.69699E+05-6.11281E+04-1.34734E+04-1.35211E+05-7.12987E-10 1.25738E-09
 -1       105-3.59838E+05-4.29794E+04-1.94224E+04-1.38263E+05-5.90717E-10-3.00133E-10
 -1       106-1.93891E+05 2.62742E+02-6.08078E+02 9.03515E-09-1.33929E-10-6.11266E-10
 -1       107-1.94137E+05-3.04211E+02-4.30907E+02 7.83568E-09 1.11265E-10-1.92870E-10
 -1       108-1.93992E+05 4.12274E+01-1.59194E+02-3.56267E-08-1.35386E-10 5.08706E-10
 -1       109-1.94019E+05-4.79799E+01-1.02895E+02 5.54178E-09-1.21988E-10 5.35850E-10
 -1       110-1.94009E+05 6.71838E+00-4.80319E+01-1.26168E-08-4.03724E-10 1.03679E-10
 -1       111-1.94001E+05-9.65313E+00-4.03539E+01-2.10531E-08-6.16311E-12-1.92587E-10
 -1       112-1.94011E+05 2.93006E+00-4.21599E+01-1.42590E-08-8.54423E-11 3.10786E-10
 -1       113-1.94005E+05-1.57139E+01-7.61460E+01-3.50550E-08 1.56602E-10 1.14791E-09
 -1       114-1.94005E+05 1.27774E+01-1.30463E+02 4.32730E-08 4.37414E-11-4.71957E-10
 -1       115-1.94046E+05-9.43227E+01-2.95911E+02 3.27381E-08 4.81896E-11-1.44530E-09
 -1       116-1.93969E+05 8.14886E+01-5.07992E+02-1.81833E-08-1.36730E-10-6.72173E-11
 -1       117-1.94295E+05-6.03915E+02-1.25159E+03-4.97340E-08-2.84237E-10 6.84125E-10
 -1       118-1.93757E+05 5.21991E+02-1.99287E+03-5.34484E-08-6.77837E-10-3.69027E-10
 -1       119-1.95795E+05-3.85498E+03-5.44919E+03-1.54633E-08-7.97773E-10-8.29345E-10
 -1       120-1.92469E+05 3.32998E+03-7.70187E+03 2.61249E-09-4.48303E-10-3.65162E-10
 -1       121-2.71796E+02-1.73767E+05 1.29449E+03 1.47854E+03-5.69571E-11-1.25192E-09
 -1       122 4.04539E+02-1.73282E+05 9.21284E+02 5.30239E+03-1.47239E-10-1.42359E-09
 -1       123-4.87504E+01-1.73596E+05 5.62000E+02 1.48926E+03-1.94703E-10-7.78869E-10
 -1       124 3.23939E+02-1.73327E+05 7.76895E+02 5.26761E+03-4.11319E-10-1.21298E-09
 -1       125-2.11946E+02-1.73717E+05 1.01850E+03 1.51332E+03-4.41219E-10-2.71370E-10
 -1       126-1.69519E+05-2.36130E+04-5.32041E+02-6.36381E+04 1.23713E-10-3.39782E-10
 -1       127-1.69714E+05-2.41694E+04-3.69503E+02-6.36196E+04 2.20261E-09-1.32772E-09
 -1       128-1.69638E+05-2.37932E+04-1.25632E+02-6.35894E+04 9.41831E-07-3.52159E-07
 -1       129-1.69576E+05-2.39605E+04-8.00506E+01-6.36753E+04 1.87858E-06-7.03356E-07
 -1       130-1.69656E+05-2.38218E+04-3.33349E+01-6.35825E+04 9.41582E-07-3.52630E-07
 -1       131-1.69564E+05-2.39200E+04-2.69904E+01-6.36729E+04 2.79219E-09-6.54117E-10
 -1       132-1.69650E+05-2.38337E+04-2.62269E+01-6.35918E+04-6.44023E-10 5.73833E-10
 -1       133-1.69594E+05-2.38999E+04-5.05252E+01-6.36429E+04 6.03169E-10-5.38408E-10
 -1       134-1.69627E+05-2.38418E+04-8.71904E+01-6.36125E+04-8.95676E-10 3.32861E-10
 -1       135-1.69671E+05-2.39341E+04-2.16367E+02-6.35906E+04 7.71140E-10 5.47569E-10
 -1       136-1.69572E+05-2.37995E+04-3.73043E+02-6.36440E+04-7.28512E-10 5.60973E-10
 -1       137-1.69968E+05-2.43511E+04-1.00499E+03-6.34728E+04-1.89475E-08 7.90088E-09
 -1       138-1.69330E+05-2.34252E+04-1.60897E+03-6.37303E+04-7.22076E-06 2.70805E-06
 -1       139-1.71617E+05-2.71915E+04-4.76708E+03-6.29123E+04-1.43933E-05 5.40155E-06
 -1       140-1.67923E+05-2.09610E+04-6.86622E+03-6.42040E+04-7.22610E-06 2.70884E-06
 -1       141-9.16630E+04-5.92536E+02 1.36984E+03-4.77015E-08 1.00864E-10-3.30090E-10
 -1       142-9.10600E+04 6.85874E+02 9.67714E+02-7.92129E-08 1.10531E-10 6.43183E-11
 -1       143-9.14338E+04-9.27988E+01 3.50623E+02-3.37748E-08-4.27932E-12-1.71809E-10
 -1       144-9.13275E+04 1.06781E+02 2.14179E+02-3.86885E-08 3.59992E-11-3.30122E-10
 -1       145-9.13955E+04-1.39044E+01 7.39893E+01-4.61585E-09 2.85513E-11 1.22540E-10
 -1       146-9.13744E+04 1.22202E+01 1.75479E+01-1.01498E-08-3.70733E-11-2.56563E-10
 -1       147-9.13869E+04 1.69383E+00-4.25801E+01-4.07706E-08-9.16863E-11 8.04015E-11
 -1       148-9.13969E+04-2.70837E+01-1.31266E+02-3.00192E-08-1.23799E-10-7.13342E-10
 -1       149-9.13731E+04 2.53784E+01-2.55003E+02 3.01613E-08-4.54356E-11-6.82121E-12
 -1       150-9.14839E+04-1.91427E+02-5.97201E+02-5.88441E-09-3.56344E-11-7.09321E-10
 -1       151-9.12999E+04 1.65934E+02-1.03244E+03-6.93850E-08 6.34481E-11 3.17470E-10
 -1       152-9.19903E+04-1.23033E+03-2.54889E+03-2.05726E-08 1.19371E-10 1.43928E-10
 -1       153-9.08668E+04 1.06352E+03-4.06006E+03 5.53058E-09 4.32995E-10-7.98764E-10
 -1       154-9.50474E+04-7.85436E+03-1.11025E+04-1.20595E-08 1.79544E-10-5.52063E-10
 -1       155-8.82429E+04 6.78470E+03-1.56921E+04 1.74396E-08 1.04187E-09-4.00178E-10
 -1       156-2.98685E+03-3.17970E+04 7.10938E+03-6.97472E+01-2.75577E-10 1.76569E-05
 -1       157 3.93043E+03-2.85566E+04 5.86875E+03 2.83206E+02-1.05803E-09 3.51545E-05
 -1       158-9.40512E+02-3.08694E+04 3.54726E+03-6.90225E+01-1.01736E-10 1.76439E-05
 -1       159 4.10339E+03-2.84748E+04 6.09430E+03 2.76617E+02 2.30216E-11 5.15934E-08
 -1       160-3.15970E+03-3.18787E+04 7.49640E+03-6.31578E+01 9.00400E-11 4.06119E-09
 -1       161-9.60866E+04-1.34164E+04-2.32093E+02-3.60657E+04 5.75145E-07-2.15295E-07
 -1       162-9.61788E+04-1.36499E+04-1.61982E+02-3.60470E+04 1.14389E-06-4.28224E-07
 -1       163-9.61347E+04-1.34987E+04-5.66665E+01-3.60489E+04-1.03913E-06 3.89156E-07
 -1       164-9.61245E+04-1.35539E+04-3.93231E+01-3.60649E+04-3.22784E-06 1.21151E-06
 -1       165-9.61409E+04-1.35124E+04-2.31796E+01-3.60478E+04-5.51709E-06 2.06876E-06
 -1       166-9.61217E+04-1.35396E+04-3.18025E+01-3.60634E+04-7.80310E-06 2.92683E-06
 -1       167-9.61375E+04-1.35130E+04-4.94340E+01-3.60504E+04-9.32081E-06 3.49441E-06
 -1       168-9.61422E+04-1.35586E+04-1.13141E+02-3.60544E+04-1.08350E-05 4.06402E-06
 -1       169-9.61204E+04-1.34934E+04-2.04231E+02-3.60568E+04-1.12759E-05 4.22689E-06
 -1       170-9.62511E+04-1.37195E+04-5.12938E+02-3.60193E+04-1.17123E-05 4.39373E-06
 -1       171-9.60286E+04-1.33522E+04-8.85846E+02-3.60855E+04-1.09519E-05 4.10630E-06
 -1       172-9.68857E+04-1.47810E+04-2.38839E+03-3.58198E+04-1.01849E-05 3.82111E-06
 -1       173-9.54860E+04-1.24325E+04-3.82391E+03-3.62561E+04-8.32511E-06 3.12056E-06
 -1       174-1.00761E+05-2.15743E+04-1.13295E+04-3.45368E+04-6.45274E-06 2.42071E-06
 -1       175-9.21536E+04-6.56335E+03-1.63177E+04-3.73670E+04-3.23475E-06 1.21092E-06
 -1       191 1.81692E+02 8.86980E+04 2.89337E+02-1.83871E+03-1.14596E-10 5.45697E-11
 -1       192 6.78754E+01 8.87368E+04 1.73169E+02-1.95492E+03-1.61577E-10-6.24482E-10
 -1       193 3.31471E+01 8.87121E+04 1.39838E+02-1.80155E+03-2.93667E-10-2.89219E-10
 -1       194 8.92680E+01 8.87436E+04 2.12026E+02-2.02527E+03-3.45153E-10 1.18234E-10
 -1       195 2.48317E+02 8.86902E+04 3.85991E+02-1.76831E+03-4.45880E-10-2.91038E-11
 -1       251-4.72875E+05 1.13197E+04-2.61855E+04-4.32016E+02 1.52085E-10-5.12955E-10
 -1       252-4.84122E+05-1.31030E+04-1.85151E+04 3.54387E+02 8.22098E-11 4.84306E-11
 -1       253-4.77265E+05 1.77269E+03-6.78663E+03 1.03231E+02-1.09921E-10-3.42425E-10
 -1       254-4.79032E+05-2.05254E+03-4.25785E+03-6.48100E+02-9.27264E-10 1.11561E-09
 -1       255-4.77962E+05 2.78013E+02-1.75310E+03 5.70487E+02 1.80727E-10-1.74737E-10
 -1       256-4.78226E+05-3.28058E+02-1.05676E+03-1.20573E+03-5.06887E-10-8.02430E-10
 -1       257-4.78071E+05 5.02590E+01-5.42814E+02 6.60868E+02 3.21840E-11 5.19648E-10
 -1       258-4.78089E+05-9.80481E+01-4.71834E+02-9.49597E+02-1.02361E-10-1.60818E-09
 -1       259-4.78098E+05 4.77386E+01-5.45478E+02 3.14354E+02-4.10456E-10 4.05564E-10
 -1       260-4.78176E+05-3.22522E+02-1.03842E+03-5.16970E+01-4.76906E-10 7.18785E-11
 -1       261-4.77984E+05 2.73899E+02-1.74239E+03-2.37049E+02-5.53985E-10-4.92719E-10
 -1       262-4.79034E+05-2.03506E+03-4.22277E+03 8.87220E+02-5.91236E-10-2.91038E-10
 -1       263-4.77242E+05 1.75959E+03-6.72051E+03-6.24580E+02 1.87830E-10-5.91172E-11
 -1       264-4.84114E+05-1.29896E+04-1.83611E+04 1.23850E+03-1.14605E-09 6.80302E-10
 -1       265-4.72908E+05 1.12204E+04-2.59522E+04-5.88332E+02-9.66011E-10 1.36424E-10
 -1       266-3.91207E+03-8.04338E+04 8.83968E+03 6.92387E+02-5.00222E-12-3.17328E-11
 -1       267 4.14796E+03-7.65489E+04 5.59182E+03-2.54177E+03-8.18545E-12-1.00295E-09
 -1       268-2.30170E+02-7.86600E+04 8.75961E+02 7.71375E+02-6.82121E-13-7.52272E-10
 -1       269-2.14685E+03-7.94783E+04-2.61244E+03-2.56355E+03 1.17097E-11 8.03777E-10
 -1       270 2.37812E+03-7.75054E+04-5.26498E+03 7.14163E+02-1.59162E-11 1.66547E-09
 -1       271-6.72556E+05-8.53872E+04-5.19879E+04-2.59854E+05-1.61890E-10-1.08776E-09
 -1       272-6.88941E+05-1.19679E+05-3.25923E+04-2.62047E+05 2.89617E-11-1.06593E-09
 -1       273-6.81457E+05-9.66276E+04-1.22632E+04-2.58669E+05 2.28461E-10 6.18002E-10
 -1       274-6.78663E+05-1.04803E+05-6.69641E+03-2.64304E+05-1.57797E-10 5.46152E-10
 -1       275-6.82488E+05-9.77654E+04-2.85167E+03-2.58539E+05-8.90168E-11-1.38016E-10
 -1       276-6.77465E+05-1.03346E+05-1.50482E+03-2.64550E+05-7.32712E-11-2.99565E-11
 -1       277-6.82632E+05-9.78657E+04-7.73290E+02-2.58509E+05 1.06240E-10-1.70587E-10
 -1       278-6.77315E+05-1.03235E+05-6.03420E+02-2.64596E+05 1.75802E-10 4.01457E-11
 -1       279-6.82641E+05-9.78600E+04-7.19732E+02-2.58501E+05-1.44958E-10 3.25201E-10
 -1       280-6.77426E+05-1.03353E+05-1.35830E+03-2.64584E+05 8.85620E-11-1.73941E-11
 -1       281-6.82523E+05-9.77595E+04-2.55165E+03-2.58516E+05-5.46976E-10-1.35833E-09
 -1       282-6.78480E+05-1.04672E+05-5.98216E+03-2.64385E+05-1.21616E-10 4.58385E-10
 -1       283-6.81610E+05-9.67359E+04-1.09485E+04-2.58625E+05-4.61284E-11 1.07320E-10
 -1       284-6.87641E+05-1.17967E+05-2.90979E+04-2.62391E+05 6.57678E-11 1.89175E-10
 -1       285-6.73672E+05-8.66922E+04-4.64119E+04-2.59673E+05-6.54836E-11 2.81943E-10
 -1       286-1.16697E+05-2.64274E+03 6.11112E+03-3.44772E+01 1.82368E-10-1.13687E-10
 -1       287-1.14018E+05 3.05943E+03 4.32682E+03-7.11504E+01-5.65992E-11 1.62458E-10
 -1       288-1.15675E+05-4.14388E+02 1.58196E+03 1.94684E+01-1.01986E-10-4.46221E-10
 -1       289-1.15212E+05 4.79563E+02 9.97645E+02-1.71108E+02-7.29274E-11 5.06461E-10
 -1       290-1.15505E+05-6.49100E+01 4.08423E+02 6.54832E+01 1.20760E-10 1.02872E-10
 -1       291-1.15412E+05 7.64573E+01 2.47816E+02-2.46591E+02 1.30706E-10-8.97415E-10
 -1       292-1.15475E+05-1.15019E+01 1.26649E+02 9.49521E+01 2.07858E-10 3.55445E-10
 -1       293-1.15442E+05 2.29681E+01 1.11603E+02-2.83726E+02 1.45823E-10 3.39363E-10
 -1       294-1.15474E+05-1.14070E+01 1.26101E+02 1.02619E+02 2.57717E-10 1.81437E-10
 -1       295-1.15414E+05 7.57857E+01 2.45477E+02-2.75889E+02 1.60426E-10-1.03636E-09
 -1       296-1.15503E+05-6.42950E+01 4.05220E+02 8.71154E+01 2.91935E-10 1.94746E-10
 -1       297-1.15217E+05 4.75308E+02 9.88408E+02-2.24499E+02 3.06401E-10-5.30207E-11
 -1       298-1.15672E+05-4.10699E+02 1.56832E+03 5.12281E+01 1.73088E-11-8.93579E-11
 -1       299-1.14033E+05 3.03251E+03 4.28850E+03-1.39054E+02 4.68132E-11-2.16005E-10
 -1       300-1.16686E+05-2.61950E+03 6.05742E+03 1.66869E+00 4.41460E-11 3.48791E-10
 -1       301 9.18677E+03 2.15469E+03 2.06315E+04-6.72276E+03-1.99179E-10-4.07425E-10
 -1       302 3.10774E+03 6.05401E+03 1.26718E+04-7.90922E+03-1.96223E-10-1.49194E-10
 -1       303 8.50267E+02 3.54046E+03 1.01846E+04-6.71931E+03-1.79398E-10-2.12538E-10
 -1       304 4.03999E+03 6.61564E+03 1.52005E+04-7.90243E+03-2.17369E-10 1.69990E-10
 -1       305 1.21983E+04 1.59401E+03 2.67551E+04-6.72833E+03-1.13687E-10 7.17364E-10
 -1       306-4.43819E+05-5.83802E+04-2.86700E+04-1.72018E+05 1.84173E-10-2.74667E-10
 -1       307-4.49903E+05-8.02122E+04-1.79704E+04-1.76587E+05-1.59588E-10-5.52745E-10
 -1       308-4.48741E+05-6.45576E+04-6.76463E+03-1.71350E+05-2.10321E-11-4.14275E-10
 -1       309-4.44227E+05-7.20288E+04-3.69560E+03-1.77854E+05 1.11413E-10 2.84672E-10
 -1       310-4.49313E+05-6.51813E+04-1.57882E+03-1.71276E+05 3.91651E-10 1.81444E-10
 -1       311-4.43571E+05-7.12247E+04-8.42795E+02-1.77992E+05 1.84059E-10-2.37549E-10
 -1       312-4.49390E+05-6.52382E+04-4.52901E+02-1.71262E+05 1.94120E-11 2.34683E-10
 -1       313-4.43499E+05-7.11588E+04-3.90516E+02-1.78009E+05-4.04921E-10-1.92239E-09
 -1       314-4.49387E+05-6.52380E+04-5.13759E+02-1.71264E+05-2.62560E-10 3.64594E-10
 -1       315-4.43595E+05-7.12406E+04-1.01032E+03-1.77985E+05 1.96962E-10-3.84148E-10
 -1       316-4.49291E+05-6.51679E+04-1.91937E+03-1.71280E+05-4.25985E-10-4.39968E-10
 -1       317-4.44398E+05-7.22260E+04-4.51047E+03-1.77820E+05-2.51816E-11 3.51633E-10
 -1       318-4.48594E+05-6.44029E+04-8.26053E+03-1.71367E+05 1.78272E-09 3.09319E-09
 -1       319-4.51322E+05-8.22344E+04-2.19510E+04-1.76287E+05-3.35941E-10 1.17780E-10
 -1       320-4.42589E+05-5.68461E+04-3.50177E+04-1.72173E+05-8.48786E-10-3.63798E-11
 -1       321-1.09505E+05-2.89846E+03 6.70389E+03-2.18972E+01-3.75383E-10-1.16279E-09
 -1       322-1.06581E+05 3.35547E+03 4.74362E+03-3.90694E+01-3.32982E-10-6.78483E-10
 -1       323-1.08384E+05-4.54375E+02 1.73440E+03 4.84830E+00-1.71124E-10-1.49271E-10
 -1       324-1.07887E+05 5.25656E+02 1.08974E+03-8.90911E+01 1.01432E-10-7.50390E-10
 -1       325-1.08198E+05-7.09291E+01 4.41808E+02 2.81258E+01-5.49214E-11-8.29942E-10
 -1       326-1.08105E+05 8.20242E+01 2.57259E+02-1.27915E+02-2.74871E-10-8.49170E-10
 -1       327-1.08167E+05-1.10518E+01 1.12562E+02 4.36730E+01-1.31082E-07-2.64649E-10
 -1       328-1.08142E+05 1.32161E+01 6.41794E+01-1.48694E+02-2.61793E-07-5.42610E-10
 -1       329-1.08161E+05-2.14932E+00 3.28341E+01 4.89047E+01-1.31475E-07 1.61427E-09
 -1       330-1.08146E+05 5.53369E+00 2.62451E+01-1.47961E+02-5.44192E-10-1.58268E-09
 -1       331-1.08162E+05-3.37292E+00 2.64031E+01 4.29405E+01-5.06155E-11-6.54677E-10
 -1       332-1.08137E+05 2.34872E+01 5.18837E+01-1.25836E+02 4.28417E-11 9.60053E-10
 -1       333-1.08171E+05-2.01046E+01 7.80681E+01 2.67796E+01-6.08589E-11 2.58410E-10
 -1       334-1.08079E+05 1.48188E+02 2.10532E+02-8.60014E+01-1.64189E-10-4.12058E-10
 -1       335-1.08220E+05-1.27995E+02 2.95783E+02 3.10476E+00-1.91231E-10-1.62316E-10
 -1       336-1.52717E+02-1.75834E+05 4.69581E+02-1.94195E+03-6.64841E-10-3.44471E-10
 -1       337 6.60947E+01-1.75686E+05-3.15304E+02-7.01837E+03-1.22747E-09 6.19366E-10
 -1       338 1.11680E+02-1.75622E+05-1.31092E+03-1.91887E+03-7.84155E-10 2.50566E-10
 -1       339-1.76087E+03-1.76798E+05-3.64095E+03-7.04675E+03-1.44826E-09 4.58328E-10
 -1       340 1.27419E+03-1.74727E+05-5.86295E+03-1.91373E+03-8.29004E-10 6.95479E-10
 -1       341-2.96201E+05-3.68155E+04-1.32325E+04-1.13799E+05 1.18007E-09 6.22094E-10
 -1       342-3.04148E+05-4.78403E+04-9.16602E+03-1.10194E+05 6.36476E-10-2.31921E-10
 -1       343-2.98594E+05-4.18072E+04-3.10191E+03-1.13170E+05-1.42120E-09-2.50907E-10
 -1       344-3.01250E+05-4.21474E+04-1.94075E+03-1.11013E+05 1.50907E-09 2.67136E-10
 -1       345-2.99098E+05-4.25039E+04-7.40642E+02-1.12980E+05 2.10954E-09-3.28669E-10
 -1       346-3.00295E+05-4.16534E+04-4.39794E+02-1.11574E+05-1.32556E-09 8.64304E-11
 -1       347-2.99547E+05-4.23018E+04-2.67478E+02-1.12608E+05 6.48726E-12-3.61560E-10
 -1       348-2.99462E+05-4.22967E+04-2.65557E+02-1.12421E+05 1.06301E-09-3.48471E-10
 -1       349-2.99931E+05-4.18613E+04-4.26511E+02-1.12132E+05-1.12757E-09 1.82922E-10
 -1       350-2.99017E+05-4.32864E+04-9.50317E+02-1.13186E+05 2.06938E-10 6.88516E-11
 -1       351-2.99993E+05-4.13113E+04-1.64328E+03-1.11844E+05 1.89672E-07-7.20999E-08
 -1       352-2.99965E+05-4.55203E+04-4.40555E+03-1.13146E+05 3.81266E-07-1.44906E-07
 -1       353-2.98985E+05-3.96278E+04-7.05612E+03-1.12173E+05 1.91590E-07-7.20856E-08
 -1       354-3.07369E+05-5.77225E+04-2.08794E+04-1.10402E+05 6.45855E-10-5.45697E-10
 -1       355-2.92592E+05-2.91181E+04-3.01110E+04-1.14586E+05 2.28010E-09-9.60426E-10
 -1       356-1.15271E+05 1.46487E+02-3.39842E+02-1.60787E+01-6.10543E-11 2.48050E-10
 -1       357-1.15407E+05-1.69682E+02-2.41815E+02-1.57578E+01-1.19067E-10 2.85464E-10
 -1       358-1.15328E+05 2.30498E+01-9.22880E+01-2.68641E-01-1.77476E-11-6.14584E-11
 -1       359-1.15342E+05-2.73267E+01-6.45269E+01-4.55271E+01 2.59366E-10 1.02737E-09
 -1       360-1.15336E+05 4.24921E+00-4.07945E+01 1.36911E+01 3.19647E-10 5.78267E-10
 -1       361-1.15334E+05-9.26464E+00-5.22932E+01-6.91558E+01-1.01500E-09-2.76110E-10
 -1       362-1.15335E+05 5.00965E+00-7.94618E+01 2.33605E+01-3.78665E-07 8.59036E-10
 -1       363-1.15349E+05-3.41700E+01-1.65560E+02-8.24849E+01-7.54831E-07-9.45629E-10
 -1       364-1.15321E+05 2.91484E+01-2.95905E+02 2.70204E+01-1.91082E-07 2.36383E-10
 -1       365-1.15446E+05-2.16794E+02-6.78784E+02-8.31611E+01 3.73298E-07 6.18456E-11
 -1       366-1.15239E+05 1.87520E+02-1.16822E+03 2.40368E+01 1.87713E-07-4.96357E-10
 -1       367-1.16017E+05-1.38991E+03-2.88023E+03-7.10311E+01 6.41759E-10-1.08571E-11
 -1       368-1.14750E+05 1.20140E+03-4.58683E+03 1.48902E+01 4.54089E-10-1.48702E-10
 -1       369-1.19470E+05-8.87259E+03-1.25419E+04-4.78123E+01 8.14939E-11-2.33740E-10
 -1       370-1.11786E+05 7.66426E+03-1.77263E+04 8.17879E-01 1.25824E-09 4.27463E-10
 -1       371-2.95412E+03-3.45459E+04 6.69710E+03 2.26353E+02 2.70575E-10 6.32522E-10
 -1       372 3.12131E+03-3.17167E+04 4.19825E+03-8.94185E+02 5.04428E-10 7.82218E-10
 -1       373-1.64441E+02-3.32534E+04 6.21372E+02 2.33916E+02 4.03361E-10-1.27908E-10
 -1       374-1.71250E+03-3.39467E+04-2.09988E+03-8.89718E+02 4.62080E-10-1.97534E-10
 -1       375 1.87577E+03-3.23160E+04-4.14213E+03 2.21885E+02 2.50793E-10-7.33387E-11
 -1       376-1.61200E+05-2.02570E+04-6.20765E+03-6.15466E+04 7.49651E-10-8.53561E-10
 -1       377-1.64477E+05-2.59491E+04-4.31063E+03-6.04469E+04 3.75621E-10-1.00323E-09
 -1       378-1.62481E+05-2.24756E+04-1.45744E+03-6.11082E+04-2.16829E-10 7.16227E-11
 -1       379-1.62978E+05-2.33914E+04-9.14774E+02-6.09642E+04 3.83594E-10 1.02466E-09
 -1       380-1.62698E+05-2.28130E+04-3.49788E+02-6.10299E+04-9.13182E-10 5.81679E-10
 -1       381-1.62722E+05-2.30116E+04-2.24546E+02-6.10614E+04 2.19065E-09-2.56600E-10
 -1       382-1.62737E+05-2.28551E+04-1.33788E+02-6.10111E+04 8.61066E-07-3.22135E-07
 -1       383-1.62693E+05-2.29896E+04-1.77442E+02-6.10788E+04 1.70155E-06-6.37998E-07
 -1       384-1.62726E+05-2.28349E+04-2.64170E+02-6.10124E+04-5.17171E-06 1.93866E-06
 -1       385-1.62818E+05-2.31765E+04-6.29888E+02-6.10396E+04-1.20325E-05 4.51324E-06
 -1       386-1.62613E+05-2.26683E+04-1.07633E+03-6.10503E+04-6.03338E-06 2.26143E-06
 -1       387-1.63597E+05-2.44486E+04-2.89363E+03-6.07847E+04-1.67721E-08 7.03906E-09
 -1       388-1.61948E+05-2.15637E+04-4.63064E+03-6.12671E+04 4.39400E-10-5.29781E-10
 -1       389-1.68310E+05-3.26534E+04-1.37179E+04-5.92078E+04 4.53610E-10 7.36691E-10
 -1       390-1.57901E+05-1.44689E+04-1.97572E+04-6.26256E+04-5.09317E-11 6.10271E-10
 -1       406 2.02918E+02 8.79048E+04 4.48084E+02-6.12986E+03-6.05496E-10-4.18595E-10
 -1       407 1.35293E+02 8.79873E+04 5.57496E+02-6.71379E+03-7.14067E-10-1.76897E-10
 -1       408 2.28358E+02 8.78902E+04 9.29453E+02-6.09919E+03-7.13271E-10 3.33557E-10
 -1       409 9.23402E+02 8.82520E+04 2.00157E+03-6.76171E+03-8.52424E-10-5.71333E-10
 -1       410 2.66697E+03 8.76375E+04 4.03940E+03-6.08142E+03-8.43102E-10 1.59730E-10
 -1       466 3.50808E+05-1.41922E+04 3.28248E+04 5.35634E+02-2.68869E-11 8.82210E-10
 -1       467 3.65106E+05 1.64290E+04 2.32405E+04-9.98553E+02 3.58696E-10-3.67436E-10
 -1       468 3.56326E+05-2.22409E+03 8.50794E+03 2.01489E+02 3.14818E-10-1.81899E-12
 -1       469 3.58680E+05 2.57478E+03 5.36487E+03-5.15987E+02 7.45395E-10 1.47168E-10
 -1       470 3.57237E+05-3.48881E+02 2.21893E+03 5.30718E+01-2.67029E-10 1.75419E-10
 -1       471 3.57624E+05 4.16257E+02 1.37505E+03-3.06382E+02-2.01336E-09-6.18755E-10
 -1       472 3.57383E+05-6.70970E+01 7.68110E+02-8.11993E+00-7.15169E-07 3.74158E-10
 -1       473 3.57494E+05 1.62848E+02 7.90434E+02-2.32909E+02-1.42713E-06-3.44727E-10
 -1       474 3.57366E+05-9.56264E+01 1.02387E+03-2.04024E+01-7.15580E-07 1.45633E-10
 -1       475 3.57754E+05 6.61461E+02 2.11488E+03-2.49664E+02-1.84858E-09-1.41492E-09
 -1       476 3.57122E+05-5.65387E+02 3.55091E+03 8.63557E+00 3.22989E-10-3.02407E-10
 -1       477 3.59471E+05 4.18379E+03 8.68916E+03-3.67303E+02 6.18964E-10 1.23919E-10
 -1       478 3.55648E+05-3.61532E+03 1.38172E+04 9.72387E+01 2.94067E-10 1.69166E-10
 -1       479 3.69874E+05 2.67011E+04 3.77580E+04-6.65144E+02 4.28980E-10 2.76486E-10
 -1       480 3.46716E+05-2.30636E+04 5.33658E+04 3.06472E+02 1.42383E-09 3.71074E-10
 -1       481-2.67811E+03 5.44609E+04 6.23922E+03-1.16637E+01 7.27596E-12 7.68043E-11
 -1       482 3.21247E+03 5.72068E+04 4.60894E+03-1.63099E+02-6.53699E-11 7.75671E-10
 -1       483-5.31737E+02 5.54419E+04 2.00475E+03 6.62011E+00-3.04681E-11 4.81782E-10
 -1       484 1.32958E+03 5.63402E+04 2.15573E+03-2.04384E+02-1.53406E-11-7.80322E-10
 -1       485-7.96787E+02 5.53277E+04 2.01591E+03 2.96206E+01 3.21734E-11-6.67089E-10
 -1       486-3.27119E+05-3.42573E+04-3.08267E+04-1.28428E+05 2.79215E-10 4.72937E-11
 -1       487-3.43872E+05-6.20266E+04-2.13908E+04-1.22393E+05 6.13340E-10-1.90084E-10
 -1       488-3.33714E+05-4.50681E+04-7.23427E+03-1.26014E+05 2.61480E-11-5.86169E-10
 -1       489-3.35985E+05-4.97558E+04-4.50681E+03-1.25459E+05 1.33582E-11 3.12639E-12
 -1       490-3.35002E+05-4.65199E+04-1.69400E+03-1.25364E+05 5.76108E-10 8.32358E-10
 -1       491-3.34436E+05-4.81572E+04-1.00378E+03-1.26298E+05 1.63215E-10 7.22764E-11
 -1       492-3.35263E+05-4.66649E+04-4.59097E+02-1.25175E+05 3.53673E-10 1.06274E-09
 -1       493-3.34276E+05-4.78792E+04-3.87511E+02-1.26341E+05 8.08858E-10 7.49582E-10
 -1       494-3.35162E+05-4.67976E+04-4.20019E+02-1.25321E+05 1.20472E-10 2.08360E-10
 -1       495-3.34789E+05-4.76807E+04-8.62535E+02-1.25819E+05 9.68754E-11 4.07681E-10
 -1       496-3.34749E+05-4.68641E+04-1.45648E+03-1.25697E+05-3.62832E-10-1.53705E-10
 -1       497-3.36368E+05-4.88306E+04-3.85457E+03-1.24861E+05 2.61480E-10-2.83876E-10
 -1       498-3.33584E+05-4.56488E+04-6.17898E+03-1.26278E+05 6.52676E-10-6.40739E-10
 -1       499-3.43021E+05-5.94378E+04-1.82869E+04-1.22385E+05 1.23691E-10-7.22366E-10
 -1       500-3.28100E+05-3.62636E+04-2.63398E+04-1.28172E+05-5.84805E-10 1.03864E-09
 -1       501-1.06973E+05-5.41875E+03 1.25309E+04-1.21344E+00 6.12097E-11 5.70253E-10
 -1       502-1.01498E+05 6.27309E+03 8.86976E+03-1.74757E+02-7.73746E-11-3.03430E-10
 -1       503-1.04875E+05-8.49518E+02 3.24142E+03 5.96786E+01-1.09887E-10 7.88305E-10
 -1       504-1.03946E+05 9.82729E+02 2.03818E+03-2.82139E+02-4.07816E-11 3.13776E-11
 -1       505-1.04525E+05-1.32574E+02 8.25742E+02 1.06172E+02 1.08720E-10-2.46075E-10
 -1       506-1.04357E+05 1.53329E+02 4.81200E+02-3.52065E+02-2.42288E-09 7.09782E-10
 -1       507-1.04464E+05-2.06070E+01 2.10768E+02 1.29606E+02-8.88708E-07-6.92651E-10
 -1       508-1.04427E+05 2.47989E+01 1.20612E+02-3.71998E+02-1.77192E-06-8.94545E-10
 -1       509-1.04455E+05-4.08730E+00 6.24141E+01 1.26105E+02-8.88856E-07-1.15537E-09
 -1       510-1.04432E+05 1.11958E+01 5.23695E+01-3.38623E+02-2.86254E-09 2.89673E-10
 -1       511-1.04459E+05-7.07547E+00 5.32418E+01 9.62302E+01 1.94404E-11-2.15845E-11
 -1       512-1.04407E+05 4.94247E+01 1.09879E+02-2.57294E+02 1.61218E-10 5.78785E-10
 -1       513-1.04480E+05-4.24184E+01 1.62435E+02 4.47752E+01-1.23254E-10 1.98106E-10
 -1       514-1.04280E+05 3.11918E+02 4.44643E+02-1.41028E+02-1.18067E-10 3.55243E-10
 -1       515-1.04586E+05-2.69474E+02 6.19739E+02-2.00384E+01-1.91100E-10 2.52783E-10
 -1       516-1.26730E+04 7.63599E+04 2.96652E+04 2.69524E+02-1.61890E-10-1.22391E-11
 -1       517 1.55404E+04 8.95593E+04 2.25191E+04-1.29658E+03-2.38515E-10-1.47465E-08
 -1       518-2.85411E+03 8.08660E+04 1.07668E+04 2.15908E+02-4.93628E-09-5.31742E-06
 -1       519 8.84633E+03 8.64485E+04 1.37945E+04-1.25398E+03-9.55839E-09-1.05969E-05
 -1       520-5.98417E+03 7.94699E+04 1.46612E+04 2.26923E+02-4.61205E-09-5.32282E-06
 -1       521-6.59012E+05-8.50973E+04-4.49461E+04-2.54231E+05-1.89175E-10-6.56655E-10
 -1       522-6.71937E+05-1.15972E+05-2.81764E+04-2.57539E+05 4.66116E-12-1.33514E-09
 -1       523-6.66710E+05-9.48095E+04-1.06019E+04-2.53203E+05 6.15330E-12-2.18279E-10
 -1       524-6.63053E+05-1.03115E+05-5.79032E+03-2.59493E+05 3.03146E-10 7.23048E-11
 -1       525-6.67601E+05-9.57943E+04-2.46679E+03-2.53092E+05 4.49006E-10 7.34644E-10
 -1       526-6.62025E+05-1.01847E+05-1.30501E+03-2.59698E+05-2.15095E-10-1.94815E-09
 -1       527-6.67718E+05-9.58878E+04-6.76449E+02-2.53073E+05 2.14072E-10 2.34976E-11
 -1       528-6.61910E+05-1.01736E+05-5.39412E+02-2.59718E+05-2.53312E-10-1.93126E-10
 -1       529-6.67715E+05-9.58923E+04-6.58106E+02-2.53077E+05-2.72223E-10-7.25663E-10
 -1       530-6.62032E+05-1.01826E+05-1.25440E+03-2.59680E+05-5.42201E-10-7.18899E-10
 -1       531-6.67593E+05-9.58114E+04-2.36364E+03-2.53103E+05 8.07177E-12 1.27557E-10
 -1       532-6.63032E+05-1.03024E+05-5.54362E+03-2.59464E+05 9.83960E-11-3.55612E-10
 -1       533-6.66731E+05-9.48783E+04-1.01483E+04-2.53220E+05-4.79190E-11-3.57431E-10
 -1       534-6.71556E+05-1.15309E+05-2.69692E+04-2.57568E+05 6.50800E-10 1.63345E-09
 -1       535-6.59350E+05-8.55957E+04-4.30202E+04-2.54218E+05-1.95541E-10 4.62023E-10
 -1       536 8.33005E+03-2.41943E+03 1.11815E+04-1.95550E+03 6.75300E-11-1.63709E-11
 -1       537 1.23224E+04 3.38091E+03 7.11287E+03-6.87968E+03-4.15639E-10 4.80554E-10
 -1       538 9.99973E+03-2.44999E+02 2.89258E+03-1.92989E+03-6.88942E-11 3.61865E-10
 -1       539 1.04588E+04 3.18577E+02 1.60375E+03-6.90669E+03 2.59320E-10-3.00730E-10
 -1       540 1.01825E+04-2.74162E+01 7.28513E+02-1.92818E+03 7.50333E-11-3.46176E-11
 -1       541 1.02453E+04 2.93259E+01 3.81503E+02-6.90786E+03-1.35060E-10 4.38888E-10
 -1       542 1.02052E+04-3.52188E+00 1.79350E+02-1.92872E+03-2.92175E-11-2.13191E-10
 -1       543 1.02141E+04 3.22868E+00 8.80015E+01-6.90703E+03-1.55524E-10-2.55426E-10
 -1       544 1.02086E+04-1.56068E-02 3.43720E+01-1.92902E+03 1.20650E-10-6.99686E-10
 -1       545 1.02066E+04-3.28350E-01 2.26728E-02-6.90667E+03-2.21810E-10-3.99311E-10
 -1       546 1.02107E+04 1.82565E+00-3.28071E+01-1.92908E+03 7.22906E-11 2.24333E-10
 -1       547 1.01938E+04-1.84218E+01-9.11692E+01-6.90589E+03-1.38073E-10 3.61183E-10
 -1       548 1.02223E+04 1.44168E+01-1.72352E+02-1.92980E+03-1.52170E-10-1.40005E-10
 -1       549 1.00842E+04-2.04698E+02-4.28472E+02-6.89121E+03-6.05951E-11-9.49285E-11
 -1       550 1.03242E+04 1.44481E+02-6.76228E+02-1.94376E+03 3.37650E-11 9.41327E-11
 -1       551 2.43146E+03-6.38708E+04 5.86829E+03-9.88554E+04 9.50422E-11 3.72893E-10
 -1       552 1.01889E+03-6.27726E+04 4.82438E+03-1.16112E+05-2.40107E-10 3.45608E-10
 -1       553 6.16803E+02-6.36742E+04 5.87916E+03-9.86891E+04-1.45519E-11 4.01997E-10
 -1       554 3.40029E+03-6.13545E+04 1.12663E+04-1.16140E+05 2.81943E-11 6.56428E-10
 -1       555 1.01142E+04-6.53194E+04 2.14682E+04-9.88226E+04 2.54659E-11-6.02995E-10
 -1       556-4.27231E+04-2.39361E+04 4.23210E+03-4.26884E+04-2.61480E-10-2.41926E-10
 -1       557-3.88769E+04-2.81124E+04 2.08199E+03-4.56638E+04 3.51065E-10 3.43903E-11
 -1       558-4.27452E+04-2.53351E+04 8.79524E+02-4.18428E+04 4.29281E-10-9.12905E-10
 -1       559-3.92170E+04-2.88145E+04 4.30090E+02-4.57714E+04 4.23552E-09 6.09361E-09
 -1       560-4.27529E+04-2.53670E+04 1.93138E+02-4.18098E+04 7.44876E-10-1.19371E-11
 -1       561-3.92583E+04-2.88417E+04 9.03994E+01-4.58020E+04-5.45697E-12 2.40483E-10
 -1       562-4.27629E+04-2.53554E+04 3.28269E+01-4.18173E+04 3.43334E-10-6.64500E-10
 -1       563-3.92731E+04-2.88356E+04-2.04721E+00-4.58132E+04 2.56478E-10 6.24709E-11
 -1       564-4.27682E+04-2.53479E+04-3.96396E+01-4.18227E+04 9.89075E-11-1.35628E-10
 -1       565-3.92845E+04-2.88319E+04-1.01862E+02-4.58191E+04 1.09139E-11 5.79575E-10
 -1       566-4.27644E+04-2.53428E+04-2.17285E+02-4.18241E+04-6.69900E-11 2.57387E-10
 -1       567-3.93266E+04-2.88522E+04-4.80398E+02-4.58167E+04 7.29869E-11-7.23048E-11
 -1       568-4.27333E+04-2.54107E+04-9.86087E+02-4.17919E+04 8.23093E-11-3.17414E-10
 -1       569-3.98824E+04-2.94358E+04-2.32614E+03-4.56686E+04-7.29869E-11-2.29193E-10
 -1       570-4.25272E+04-2.71852E+04-4.73543E+03-4.10522E+04-1.40972E-11-5.42059E-10
 -1       571 5.55506E+04 2.70948E+03 4.10110E+03-1.44660E+04 2.16005E-11-1.08855E-10
 -1       572 5.61746E+04 9.31356E+02 2.01244E+03-1.59177E+04-6.40057E-11 4.97266E-10
 -1       573 5.58069E+04 2.13780E+02 8.94885E+02-1.44277E+04-4.77485E-11 2.18392E-10
 -1       574 5.58823E+04 6.73165E+01 4.48856E+02-1.59607E+04 3.41061E-12-6.18911E-10
 -1       575 5.58375E+04 6.71986E+00 2.12085E+02-1.44226E+04 2.06910E-11-4.64183E-10
 -1       576 5.58450E+04 1.58090E-01 1.08184E+02-1.59664E+04 2.01339E-10-3.12866E-10
 -1       577 5.58420E+04-3.26369E+00 5.38419E+01-1.44220E+04 2.34195E-11-8.02629E-11
 -1       578 5.58400E+04-2.12027E+00 3.02955E+01-1.59670E+04-1.32900E-10 1.47566E-10
 -1       579 5.58437E+04-2.34314E+00 2.04679E+01-1.44220E+04-1.28580E-10-3.68004E-10
 -1       580 5.58415E+04-1.73964E+00 2.21259E+01-1.59661E+04 9.04947E-11-3.55385E-10
 -1       581 5.58453E+04-1.29569E+00 3.37650E+01-1.44229E+04-1.26420E-10-1.24260E-10
 -1       582 5.58495E+04 6.81973E+00 6.64473E+01-1.59573E+04-2.70575E-11 3.69141E-10
 -1       583 5.58440E+04 2.70822E+01 1.29812E+02-1.44308E+04 4.95675E-11-5.67866E-11
 -1       584 5.58955E+04 1.29774E+02 2.90739E+02-1.58907E+04-2.45336E-10-4.40707E-10
 -1       585 5.58105E+04 3.85682E+02 5.91523E+02-1.44896E+04 1.50067E-10-3.84262E-10
 -1       586 4.37296E+02 2.34375E+04 8.14357E+02-3.55896E+04 9.39053E-11 3.23553E-10
 -1       587 2.32035E+02 2.35821E+04 7.87686E+02-3.92645E+04 3.38332E-10 6.68479E-11
 -1       588 2.86063E+02 2.34361E+04 1.13308E+03-3.55440E+04 1.04819E-10-2.36184E-10
 -1       589 1.07509E+03 2.38647E+04 2.33203E+03-3.92778E+04 3.80396E-10-8.45830E-11
 -1       590 3.07289E+03 2.31509E+04 4.65512E+03-3.55760E+04 1.23123E-10-7.95808E-11
 -1       591-2.63272E+04-8.91250E+03-5.00215E+03-1.34789E+04 3.68999E-10-2.31921E-11
 -1       592-2.64964E+04-8.32419E+03-2.45750E+03-1.49529E+04-7.89214E-10 1.09188E-09
 -1       593-2.64815E+04-7.09311E+03-1.04290E+03-1.43143E+04-3.04823E-09-4.97863E-09
 -1       594-2.59595E+04-7.65460E+03-5.10407E+02-1.50393E+04 3.81050E-10-5.80188E-10
 -1       595-2.65055E+04-7.02788E+03-2.35125E+02-1.43510E+04 3.71921E-09 4.91364E-09
 -1       596-2.59192E+04-7.62856E+03-1.19386E+02-1.50355E+04 3.10564E-10 5.12671E-10
 -1       597-2.65101E+04-7.03148E+03-6.52366E+01-1.43512E+04-3.22565E-09-4.50427E-09
 -1       598-2.59152E+04-7.62889E+03-5.26355E+01-1.50338E+04-4.09059E-10 7.06677E-10
 -1       599-2.65099E+04-7.03144E+03-6.73223E+01-1.43511E+04 2.28454E-10-1.77806E-10
 -1       600-2.59195E+04-7.62866E+03-1.24965E+02-1.50355E+04 5.02496E-11-1.27153E-09
 -1       601-2.65046E+04-7.02763E+03-2.46848E+02-1.43508E+04 1.09594E-10 1.35969E-10
 -1       602-2.59622E+04-7.65563E+03-5.36537E+02-1.50388E+04 3.69994E-10-1.75589E-10
 -1       603-2.64790E+04-7.09694E+03-1.09636E+03-1.43127E+04 2.18279E-10-3.64366E-10
 -1       604-2.65313E+04-8.35460E+03-2.58356E+03-1.49421E+04-8.73115E-11-3.77213E-10
 -1       605-2.63114E+04-9.01359E+03-5.25849E+03-1.34393E+04-1.85196E-10 2.24645E-10
 -1       606 1.89831E+04-2.23656E+03-3.38372E+03 5.61334E+03-9.87939E-10-6.36419E-10
 -1       607 1.84615E+04-7.68749E+02-1.66021E+03 6.11952E+03-1.38698E-10-3.74740E-10
 -1       608 1.87689E+04-1.76355E+02-7.38176E+02 5.57631E+03 7.16682E-10-5.10710E-10
 -1       609 1.86998E+04-5.45637E+01-3.69886E+02 6.16108E+03-4.14275E-10-2.45564E-11
 -1       610 1.87416E+04-4.41301E+00-1.74270E+02 5.57150E+03-1.23873E-09-3.81249E-10
 -1       611 1.87290E+04 1.65372E+00-8.77641E+01 6.16643E+03-2.13231E-09 8.07745E-11
 -1       612 1.87369E+04 4.20515E+00-4.16051E+01 5.57092E+03-8.49468E-10-4.60659E-10
 -1       613 1.87329E+04 3.55249E+00-1.92184E+01 6.16718E+03-1.28784E-09-6.43581E-10
 -1       614 1.87355E+04 2.97531E+00-5.63702E+00 5.57076E+03-2.45791E-10-5.90944E-10
 -1       615 1.87336E+04 3.21705E+00 5.00154E+00 6.16730E+03 1.34042E-09 2.56364E-10
 -1       616 1.87344E+04 3.51544E+00 1.79275E+01 5.57080E+03-6.77801E-10 4.33147E-10
 -1       617 1.87369E+04 9.69424E+00 4.23396E+01 6.16713E+03-1.75078E-10-8.08654E-10
 -1       618 1.87309E+04 2.37251E+01 8.64998E+01 5.57091E+03-2.71825E-10-7.62498E-10
 -1       619 1.87650E+04 9.39978E+01 1.95716E+02 6.16630E+03 8.75957E-11-2.77510E-10
 -1       620 1.87056E+04 2.66975E+02 3.99396E+02 5.57155E+03 4.69413E-10-4.06089E-10
 -1       621 3.92222E+02 5.83018E+04 1.00163E+03-5.42532E+03-4.29281E-10 3.27873E-10
 -1       622 1.49876E+02 5.84926E+04 8.51485E+02-6.40078E+03-4.85556E-10-2.32518E-10
 -1       623 9.02821E+01 5.83407E+04 1.07403E+03-5.43004E+03-4.61341E-10 1.46883E-10
 -1       624 6.05459E+02 5.87677E+04 2.08786E+03-6.37474E+03-4.06544E-10-1.29046E-09
 -1       625 1.86401E+03 5.80282E+04 3.99521E+03-5.45124E+03-3.27020E-10-3.41515E-10
 -1       626 2.71765E+04 9.00222E+03-1.35374E+03 1.84112E+04 2.15107E-09 6.47242E-09
 -1       627 2.64684E+04 1.00456E+04-6.41688E+02 1.87922E+04-3.07523E-10-8.87894E-11
 -1       628 2.72139E+04 9.67000E+03-2.69342E+02 1.80812E+04 2.09184E-10 3.08660E-11
 -1       629 2.65671E+04 1.03271E+04-1.29199E+02 1.87735E+04-1.78261E-10-4.83166E-10
 -1       630 2.72137E+04 9.71594E+03-5.67330E+01 1.80548E+04 1.70530E-10-2.25562E-10
 -1       631 2.65753E+04 1.03477E+04-2.51063E+01 1.87751E+04-9.28253E-10 2.17355E-10
 -1       632 2.72122E+04 9.71693E+03-6.20757E+00 1.80530E+04-1.29012E-09-7.60565E-11
 -1       633 2.65766E+04 1.03484E+04 8.22144E+00 1.87761E+04 7.05768E-10-1.02568E-09
 -1       634 2.72107E+04 9.71519E+03 2.69599E+01 1.80531E+04-4.79190E-11-4.70379E-10
 -1       635 2.65803E+04 1.03490E+04 6.34658E+01 1.87771E+04 4.31442E-10 8.16840E-11
 -1       636 2.72080E+04 9.71840E+03 1.32800E+02 1.80509E+04 1.54608E-09 7.26453E-09
 -1       637 2.66120E+04 1.03864E+04 2.97361E+02 1.87709E+04 9.24970E-10 8.61849E-09
 -1       638 2.72007E+04 9.83088E+03 6.16927E+02 1.80018E+04-2.70404E-10 6.83599E-10
 -1       639 2.69248E+04 1.09438E+04 1.46886E+03 1.86324E+04-2.05887E-10 3.53282E-10
 -1       640 2.72167E+04 1.14368E+04 3.09956E+03 1.73360E+04-4.52928E-10 6.13511E-10
 -1       641 8.14198E+01 5.80654E+02-1.34307E+03-1.44893E+01 9.29665E-11 5.57066E-11
 -1       642-5.00668E+02-6.72163E+02-9.49558E+02 5.90399E+01-7.03024E-10 2.72237E-10
 -1       643-1.42992E+02 9.09871E+01-3.46273E+02-1.44564E+01-4.62909E-10 6.71463E-11
 -1       644-2.39188E+02-1.05047E+02-2.15361E+02 5.90161E+01 3.91710E-08 4.98915E-10
 -1       645-1.80076E+02 1.40021E+01-8.30758E+01-1.44655E+01 1.13716E-05-3.65728E-09
 -1       646-1.95156E+02-1.48713E+01-3.97381E+01 5.90283E+01 2.26762E-05-6.72567E-09
 -1       647-1.87029E+02 8.80832E-01-5.22081E-01-1.44687E+01 1.07011E-05-2.98630E-09
 -1       648-1.82885E+02 7.39164E+00 3.56593E+01 5.90304E+01-1.35223E-06 1.67816E-09
 -1       649-1.92349E+02-8.24736E+00 8.13587E+01-1.44678E+01-1.64833E-05 7.02611E-09
 -1       650-1.52944E+02 6.36147E+01 1.97220E+02 5.90118E+01-3.15342E-05 1.05922E-08
 -1       651-2.16969E+02-5.53076E+01 3.43402E+02-1.44499E+01-1.58121E-05 6.79299E-09
 -1       652 1.62753E+01 4.10283E+02 8.49627E+02 5.89411E+01-5.19239E-08 7.98934E-10
 -1       653-3.61563E+02-3.54660E+02 1.35377E+03-1.43971E+01 2.32988E-10 6.51539E-10
 -1       654 1.03609E+03 2.61925E+03 3.70257E+03 5.86723E+01-2.14913E-09-1.94859E-10
 -1       655-1.23675E+03-2.26251E+03 5.23332E+03-1.41816E+01-9.39008E-10 2.72394E-10
 -1       656 1.69423E+03-6.84688E+04-8.13103E+03 2.20831E+03 6.77574E-11-4.18936E-10
 -1       657-2.56269E+03-7.13952E+04-5.88613E+03 7.81764E+03-4.76973E-10 5.89637E-10
 -1       658 3.17615E+02-6.95173E+04-3.76736E+03 2.19635E+03-3.19162E-10 3.19176E-10
 -1       659-2.34233E+03-7.12629E+04-5.48604E+03 7.82392E+03-9.76058E-10-7.33564E-11
 -1       660 1.52352E+03-6.86027E+04-7.36876E+03 2.20207E+03 7.45786E-11-7.00794E-10
 -1       661 6.67888E+04 8.59647E+03 5.44793E+03 2.60696E+04-5.94014E-11-2.66027E-10
 -1       662 6.80301E+04 1.26657E+04 3.41546E+03 2.68472E+04 1.13645E-09 8.09052E-10
 -1       663 6.77160E+04 9.77929E+03 1.28587E+03 2.59520E+04-6.65125E-10-1.47793E-11
 -1       664 6.69625E+04 1.10982E+04 7.03247E+02 2.70710E+04-1.98341E-10-3.31852E-10
 -1       665 6.78192E+04 9.90337E+03 3.01346E+02 2.59434E+04-5.77558E-10-6.02711E-10
 -1       666 6.68439E+04 1.09386E+04 1.63043E+02 2.70878E+04-1.05828E-09 1.69550E-10
 -1       667 6.78313E+04 9.91676E+03 9.16459E+01 2.59433E+04-3.33555E-09 1.36645E-10
 -1       668 6.68327E+04 1.09247E+04 8.63131E+01 2.70884E+04-2.61804E-09-1.39028E-09
 -1       669 6.78301E+04 9.91586E+03 1.21800E+02 2.59433E+04 7.26814E-10 2.30315E-10
 -1       670 6.68538E+04 1.09490E+04 2.46227E+02 2.70876E+04 2.16803E-09-6.62396E-10
 -1       671 6.78105E+04 9.89458E+03 4.70514E+02 2.59434E+04-2.06158E-09-2.20697E-09
 -1       672 6.70420E+04 1.12012E+04 1.10771E+03 2.70611E+04-1.30297E-09 3.53111E-10
 -1       673 6.76472E+04 9.69859E+03 2.02860E+03 2.59568E+04 2.48251E-10-2.43847E-09
 -1       674 6.87261E+04 1.36774E+04 5.39127E+03 2.67096E+04 9.40496E-10 3.10138E-10
 -1       675 6.61847E+04 7.82983E+03 8.59974E+03 2.61407E+04-4.61796E-10 8.86757E-11
 -1       676 1.21469E+02-6.50090E+04-7.22165E+02-1.05644E+00-8.42547E-10 1.68907E-10
 -1       677-2.73917E+02-6.52833E+04-8.76981E+02-4.47261E+01-1.65289E-09-4.85525E-10
 -1       678 9.80254E+01-6.50199E+04-1.15983E+03-1.08413E+00-3.45722E-10 1.07282E-09
 -1       679-1.23437E+03-6.58658E+04-2.62412E+03-4.46329E+01-1.71067E-09-2.19849E-10
 -1       680 8.69898E+02-6.44266E+04-4.04957E+03-1.20080E+00-8.12634E-10-2.29635E-10
 -1       681 1.19116E+05-3.22238E+03 7.45149E+03 1.32815E+02 7.11609E-11 1.16415E-10
 -1       682 1.22359E+05 3.73029E+03 5.27684E+03-3.92953E+02 4.22222E-11-1.80933E-10
 -1       683 1.20367E+05-5.05083E+02 1.93217E+03 7.49892E+01 6.62581E-13 7.49196E-11
 -1       684 1.20900E+05 5.84887E+02 1.22048E+03-3.04777E+02 5.14291E-11 1.30896E-10
 -1       685 1.20575E+05-7.93767E+01 5.08273E+02 4.46389E+01 4.11764E-11 1.84457E-10
 -1       686 1.20660E+05 9.58091E+01 3.22138E+02-2.64952E+02 5.07654E-10-2.20737E-10
 -1       687 1.20607E+05-1.63278E+01 1.93148E+02 3.51634E+01 1.87471E-10 2.28148E-10
 -1       688 1.20635E+05 4.54384E+01 2.20849E+02-2.64963E+02-1.71594E-11-1.51299E-10
 -1       689 1.20599E+05-2.90425E+01 3.07347E+02 4.46501E+01 2.84350E-11 1.22242E-10
 -1       690 1.20722E+05 2.05201E+02 6.53365E+02-3.04787E+02-3.69544E-11-1.60121E-10
 -1       691 1.20521E+05-1.76033E+02 1.10318E+03 7.49881E+01 5.35287E-11 3.83693E-11
 -1       692 1.21264E+05 1.30386E+03 2.70835E+03-3.92414E+02 1.74926E-10 1.66210E-10
 -1       693 1.20057E+05-1.12701E+03 4.30405E+03 1.32278E+02-1.45086E-10-1.43245E-11
 -1       694 1.24523E+05 8.32471E+03 1.17736E+04-5.48167E+02-3.68246E-10 4.43379E-10
 -1       695 1.17263E+05-7.19141E+03 1.66280E+04 2.30740E+02 7.24576E-11-4.39286E-10
 -1       696-2.44646E+03 9.98668E+04 5.57327E+03 5.04716E+01 7.06677E-10 2.19719E-06
 -1       697 2.64226E+03 1.02219E+05 3.59667E+03-3.61451E+02 1.53074E-09 4.37410E-06
 -1       698-1.93550E+02 1.00906E+05 7.30150E+02 4.36419E+01 7.25549E-10 2.19597E-06
 -1       699-9.88341E+02 1.00543E+05-1.13413E+03-3.69339E+02-6.77574E-11 7.16723E-09
 -1       700 1.18123E+03 1.01544E+05-2.56747E+03 5.83594E+01-4.20641E-11 7.10751E-10
 -1       701-1.09499E+05-1.00165E+04-1.38253E+04-4.34916E+04-2.54431E-10 3.63798E-12
 -1       702-1.16853E+05-2.26682E+04-9.59933E+03-4.10170E+04 5.00791E-11-3.95517E-10
 -1       703-1.12335E+05-1.49772E+04-3.24182E+03-4.25371E+04 1.83604E-11 3.14913E-11
 -1       704-1.13543E+05-1.69387E+04-2.02738E+03-4.21330E+04 2.53166E-11 1.81956E-10
 -1       705-1.12808E+05-1.57423E+04-7.59379E+02-4.23769E+04-4.63558E-11-3.22871E-11
 -1       706-1.12980E+05-1.60703E+04-4.53917E+02-4.23333E+04-4.17977E-11 1.01288E-10
 -1       707-1.12898E+05-1.58451E+04-2.10901E+02-4.23369E+04 6.15842E-10 1.04279E-10
 -1       708-1.12877E+05-1.59808E+04-1.85824E+02-4.23894E+04 5.57549E-10-1.88166E-10
 -1       709-1.12911E+05-1.58318E+04-2.06773E+02-4.23209E+04 4.42814E-10 1.45633E-10
 -1       710-1.12928E+05-1.61167E+04-4.41694E+02-4.23933E+04 1.65192E-10 6.47233E-11
 -1       711-1.12847E+05-1.57092E+04-7.36554E+02-4.23329E+04 4.85343E-08-1.82004E-08
 -1       712-1.13436E+05-1.69966E+04-1.96644E+03-4.22428E+04 9.70234E-08-3.61453E-08
 -1       713-1.12403E+05-1.49525E+04-3.14315E+03-4.24713E+04 4.87779E-08-1.83427E-08
 -1       714-1.16625E+05-2.25710E+04-9.30758E+03-4.11827E+04 1.25169E-10-1.59162E-10
 -1       715-1.09659E+05-1.01384E+04-1.34048E+04-4.33918E+04-4.52928E-10 4.26553E-10
 -1       716 2.00112E+04-3.40953E+03 7.87616E+03 1.41935E+02 5.13907E-10-5.68434E-11
 -1       717 2.35020E+04 3.94652E+03 5.58755E+03-5.07397E+02 3.03949E-10 1.08969E-10
 -1       718 2.13435E+04-5.34418E+02 2.04300E+03 1.19619E+02 8.75744E-12 2.72848E-12
 -1       719 2.19437E+04 6.18906E+02 1.29794E+03-4.71132E+02 1.65205E-10-2.52300E-10
 -1       720 2.15690E+04-8.42006E+01 5.44919E+02 1.05671E+02 1.23974E-10 3.85000E-10
 -1       721 2.16808E+04 1.03545E+02 3.59484E+02-4.49793E+02-2.12310E-11 2.24148E-10
 -1       722 2.16062E+04-1.92048E+01 2.37614E+02 9.82784E+01 2.22973E-10 4.17572E-10
 -1       723 2.16570E+04 6.32578E+01 3.07318E+02-4.41183E+02 1.13928E-10-1.40172E-10
 -1       724 2.15925E+04-4.38545E+01 4.58855E+02 9.70616E+01 4.41503E-10 2.43858E-10
 -1       725 2.17918E+04 3.15527E+02 9.98773E+02-4.44871E+02 2.82272E-10-1.75646E-11
 -1       726 2.14715E+04-2.71347E+02 1.69696E+03 1.01967E+02 4.12442E-10-2.50111E-12
 -1       727 2.26271E+04 2.01042E+03 4.17246E+03-4.61255E+02 5.22677E-10-4.24848E-10
 -1       728 2.07574E+04-1.73767E+03 6.63445E+03 1.13446E+02 1.96135E-10 1.13687E-11
 -1       729 2.76406E+04 1.28334E+04 1.81471E+04-4.94862E+02 4.53859E-11 3.00133E-10
 -1       730 1.64593E+04-1.10857E+04 2.56375E+04 1.35571E+02 4.24102E-10-4.18368E-11
 -1       731-4.32219E+03 4.32384E+04 1.00203E+04-1.40417E+02-3.15595E-10-3.47292E-10
 -1       732 5.08242E+03 4.76490E+04 7.22678E+03 4.21943E+02 4.72937E-11-1.85859E-10
 -1       733-7.56569E+02 4.48806E+04 2.85229E+03-1.08094E+02-1.54500E-10 1.35003E-10
 -1       734 1.38048E+03 4.59256E+04 2.40165E+03 3.71006E+02-6.82121E-12 9.02078E-11
 -1       735-6.23000E+02 4.49615E+04 1.72520E+03-8.94819E+01-8.52651E-11 1.70520E-10
 -1       736-2.37875E+05-2.70859E+04-1.75246E+04-9.28749E+04 1.63573E-09-1.17780E-09
 -1       737-2.48475E+05-4.17142E+04-1.21508E+04-8.81323E+04 2.82040E-09 7.10543E-11
 -1       738-2.41251E+05-3.35244E+04-4.10525E+03-9.18426E+04 8.04960E-10 2.23099E-09
 -1       739-2.44355E+05-3.43954E+04-2.56074E+03-8.94707E+04-1.55747E-09-1.94291E-10
 -1       740-2.41994E+05-3.43997E+04-9.69489E+02-9.15380E+04-1.62856E-10-1.25090E-09
 -1       741-2.43113E+05-3.36925E+04-5.40687E+02-9.01629E+04-1.07954E-09-1.00236E-09
 -1       742-2.42490E+05-3.42281E+04-2.87301E+02-9.11489E+04 3.80133E-10-3.01824E-10
 -1       743-2.42234E+05-3.42652E+04-1.82892E+02-9.10157E+04 1.17716E-09 4.51434E-10
 -1       744-2.42872E+05-3.38276E+04-2.65302E+02-9.06844E+04 3.49658E-10 1.65841E-11
 -1       745-2.41730E+05-3.50918E+04-4.95967E+02-9.18014E+04 6.53266E-10 3.81171E-10
 -1       746-2.42997E+05-3.34003E+04-8.66204E+02-9.03646E+04 2.04996E-09 2.63017E-09
 -1       747-2.42109E+05-3.64346E+04-2.29759E+03-9.19980E+04 5.92351E-10 6.01233E-10
 -1       748-2.42494E+05-3.24843E+04-3.67881E+03-9.04889E+04 1.38232E-09 5.25915E-10
 -1       749-2.45979E+05-4.27459E+04-1.08734E+04-9.05148E+04-1.36788E-09 7.11225E-10
 -1       750-2.39127E+05-2.70941E+04-1.57034E+04-9.18458E+04-1.40744E-10-7.04858E-10
 -1       751 5.68800E+05-3.25586E+04 7.53529E+04 4.85777E+02-6.35718E-09-3.23780E-10
 -1       752 6.01474E+05 3.76945E+04 5.33093E+04-7.13349E+02-8.58610E-10-5.20231E-10
 -1       753 5.81407E+05-5.10389E+03 1.95129E+04 1.61766E+02-2.42570E-10-2.08274E-10
 -1       754 5.86795E+05 5.90675E+03 1.22729E+04-2.73831E+02 4.51440E-10 6.79165E-10
 -1       755 5.83488E+05-7.98504E+02 5.02200E+03 4.62728E+01 4.30854E-10 2.27374E-11
 -1       756 5.84374E+05 9.35883E+02 3.00226E+03-1.17034E+02 5.06682E-10 1.74566E-10
 -1       757 5.83831E+05-1.36819E+02 1.47531E+03 4.96660E+00 7.38796E-08 6.82292E-10
 -1       758 5.84014E+05 2.43255E+02 1.18068E+03-6.35079E+01 1.46996E-07-1.34445E-10
 -1       759 5.83849E+05-1.06332E+02 1.20139E+03-7.25394E+00 3.71793E-08 4.07454E-10
 -1       760 5.84233E+05 6.73707E+02 2.20973E+03-5.49237E+01-7.59685E-08 2.03499E-11
 -1       761 5.83612E+05-5.66973E+02 3.59564E+03-3.61771E+00-3.91464E-07-8.49923E-10
 -1       762 5.85940E+05 4.18501E+03 8.71167E+03-8.20351E+01-7.04297E-07 9.62132E-10
 -1       763 5.82140E+05-3.61495E+03 1.38283E+04 1.98579E+01-3.51807E-07 8.23093E-10
 -1       764 5.96325E+05 2.66945E+04 3.77555E+04-1.75510E+02-5.89051E-10 1.30967E-09
 -1       765 5.73218E+05-2.30574E+04 5.33627E+04 8.98560E+01 1.30060E-10 3.63798E-12
 -1       766-1.41149E+04 9.05838E+04 3.31052E+04 1.80702E+02 7.89441E-10-4.67590E-11
 -1       767 1.74238E+04 1.05300E+05 2.53241E+04-1.01854E+03 1.43928E-09-1.29678E-10
 -1       768-3.29444E+03 9.55133E+04 1.24259E+04 2.15220E+02 5.75255E-10-1.86624E-11
 -1       769 1.07217E+04 1.02246E+05 1.65950E+04-1.15469E+03 3.79941E-10 1.47416E-10
 -1       770-7.41926E+03 9.36383E+04 1.80568E+04 3.16843E+02-1.94632E-10 6.94456E-10
 -1       771-3.15869E+05-6.37468E+04-1.05491E+04-1.37126E+05-5.07043E-10-1.30967E-10
 -1       772-3.14905E+05-6.37859E+04-5.17997E+03-1.41700E+05 3.63798E-10-5.65024E-11
 -1       773-3.16285E+05-5.98273E+04-2.20052E+03-1.38806E+05-2.88310E-10-6.13909E-11
 -1       774-3.13704E+05-6.24580E+04-1.07567E+03-1.41995E+05 2.26919E-10-2.94904E-10
 -1       775-3.16355E+05-5.96730E+04-4.96101E+02-1.38881E+05 9.54969E-11-5.25915E-10
 -1       776-3.13623E+05-6.24080E+04-2.50911E+02-1.42008E+05-7.91260E-11-7.03039E-10
 -1       777-3.16377E+05-5.96740E+04-1.36301E+02-1.38886E+05 5.45697E-11-1.36424E-11
 -1       778-3.13621E+05-6.24061E+04-1.06733E+02-1.42013E+05 8.64020E-11 6.15955E-10
 -1       779-3.16385E+05-5.96698E+04-1.34244E+02-1.38890E+05 9.45874E-11 1.83491E-10
 -1       780-3.13635E+05-6.24043E+04-2.46076E+02-1.42022E+05 9.74296E-11-4.32010E-12
 -1       781-3.16378E+05-5.96597E+04-4.85519E+02-1.38891E+05-1.29603E-10-7.88987E-11
 -1       782-3.13721E+05-6.24568E+04-1.05465E+03-1.42031E+05 8.93579E-11-5.25233E-11
 -1       783-3.16328E+05-5.97954E+04-2.15532E+03-1.38817E+05 7.30864E-11 8.41283E-11
 -1       784-3.14842E+05-6.38304E+04-5.08007E+03-1.41838E+05-2.51532E-10-3.15595E-10
 -1       785-3.15996E+05-6.35668E+04-1.03402E+04-1.37101E+05 5.93445E-11 2.82398E-10
 -1       786 5.00643E+04-1.40614E+03 6.51739E+03-4.56460E+02 8.04619E-11 5.40240E-10
 -1       787 5.23797E+04 1.97326E+03 4.14504E+03-1.61991E+03-6.03961E-12-4.32010E-10
 -1       788 5.10383E+04-1.40667E+02 1.68727E+03-4.52564E+02-1.29234E-10-4.36330E-10
 -1       789 5.12981E+04 1.87339E+02 9.36069E+02-1.62364E+03 3.96668E-10-4.71800E-12
 -1       790 5.11456E+04-1.49844E+01 4.28231E+02-4.52693E+02 1.71099E-10-6.78540E-10
 -1       791 5.11771E+04 1.75673E+01 2.28912E+02-1.62340E+03-9.82713E-10-5.19407E-10
 -1       792 5.11592E+04-1.91735E+00 1.17814E+02-4.52809E+02 6.77183E-11-6.14151E-10
 -1       793 5.11623E+04 2.24013E+00 7.83365E+01-1.62333E+03 3.91694E-10-8.71673E-10
 -1       794 5.11604E+04-1.06261E+00 7.28632E+01-4.52761E+02-1.54188E-11-2.30880E-10
 -1       795 5.11667E+04 7.72697E+00 1.10884E+02-1.62366E+03 9.72022E-12 7.74203E-11
 -1       796 5.11548E+04-6.62733E+00 1.92362E+02-4.52477E+02-7.05995E-11-4.91042E-10
 -1       797 5.12193E+04 8.17329E+01 4.11591E+02-1.62401E+03-1.51203E-10-6.52168E-10
 -1       798 5.11081E+04-6.15472E+01 7.38306E+02-4.52414E+02 7.01448E-11 2.21235E-10
 -1       799 5.16918E+04 8.61792E+02 1.81128E+03-1.61973E+03-3.28228E-10-5.22959E-12
 -1       800 5.06827E+04-6.14410E+02 2.84709E+03-4.56774E+02 2.77964E-11-5.86624E-11
 -1       801-1.53793E+03 4.86290E+04 7.69883E+03-5.42243E+04-2.18188E-09 4.27463E-10
 -1       802 3.22179E+03 5.13379E+04 8.05320E+03-1.93027E+05-9.64064E-10-8.75616E-10
 -1       803-6.15667E+02 4.89279E+04 9.13695E+03-5.40365E+04-3.02589E-09 1.42427E-09
 -1       804 9.53708E+03 5.51833E+04 1.95507E+04-1.93022E+05-1.61162E-09-1.13573E-09
 -1       805-6.46963E+03 4.48024E+04 2.95951E+04-5.42299E+04-1.13869E-09 9.91349E-10
 -1       806-4.94719E+04-1.36151E+04-4.15022E+03-2.33956E+04-1.39551E-11-2.66027E-10
 -1       807-4.94437E+04-1.25907E+04-1.96681E+03-2.47151E+04-8.84484E-11 7.86713E-11
 -1       808-4.94453E+04-1.14704E+04-8.26583E+02-2.42945E+04-3.45608E-11 2.10434E-10
 -1       809-4.90326E+04-1.18370E+04-3.99174E+02-2.48934E+04-2.58495E-10 1.96223E-10
 -1       810-4.94547E+04-1.13199E+04-1.80230E+02-2.43612E+04-4.28031E-11 3.60671E-11
 -1       811-4.89915E+04-1.17860E+04-9.01463E+01-2.49011E+04 5.58202E-11-1.14881E-10
 -1       812-4.94580E+04-1.13150E+04-4.67886E+01-2.43644E+04 2.60059E-12-5.41718E-11
 -1       813-4.89872E+04-1.17844E+04-3.39277E+01-2.49002E+04 1.73699E-10-5.53996E-10
 -1       814-4.94581E+04-1.13155E+04-3.86064E+01-2.43643E+04 1.11982E-11-1.22157E-10
 -1       815-4.89901E+04-1.17859E+04-6.84269E+01-2.49003E+04 1.58025E-11 1.64050E-10
 -1       816-4.94552E+04-1.13196E+04-1.33501E+02-2.43618E+04-1.90312E-10-1.98725E-10
 -1       817-4.90212E+04-1.18226E+04-2.94219E+02-2.48931E+04 3.47939E-10 3.25599E-10
 -1       818-4.94473E+04-1.14316E+04-6.08411E+02-2.43137E+04-9.56106E-11 1.32445E-10
 -1       819-4.93326E+04-1.23678E+04-1.44720E+03-2.47510E+04-4.39229E-10 7.52777E-10
 -1       820-4.94575E+04-1.30174E+04-3.05334E+03-2.36615E+04-6.62794E-11 3.64878E-10
 -1       821-5.30245E+04 1.47426E+03-6.83460E+03 5.04413E+02-5.57520E-10-4.01087E-10
 -1       822-5.54517E+04-2.06926E+03-4.34691E+03 1.78948E+03-2.42949E-10-3.33102E-10
 -1       823-5.40460E+04 1.47381E+02-1.77001E+03 4.96137E+02 6.71207E-10-2.29079E-10
 -1       824-5.43184E+04-1.96056E+02-9.82834E+02 1.79891E+03-8.08598E-11 1.38812E-10
 -1       825-5.41586E+04 1.57784E+01-4.51663E+02 4.94950E+02-1.12041E-09-4.12285E-10
 -1       826-5.41922E+04-1.78311E+01-2.45307E+02 1.80065E+03-1.96667E-09-5.85828E-10
 -1       827-5.41727E+04 2.27827E+00-1.33972E+02 4.94393E+02-1.13442E-09-4.54605E-10
 -1       828-5.41779E+04-2.21314E+00-1.03626E+02 1.80158E+03-1.42555E-09-9.20409E-10
 -1       829-5.41732E+04 2.02907E+00-1.18310E+02 4.94014E+02-1.40169E-10-7.90718E-10
 -1       830-5.41889E+04-1.42650E+01-2.04235E+02 1.80199E+03 9.67571E-10-8.55111E-10
 -1       831-5.41619E+04 1.30140E+01-3.69518E+02 4.93987E+02-7.33834E-10-8.12008E-11
 -1       832-5.42916E+04-1.59014E+02-8.00295E+02 1.80162E+03 1.67617E-10-6.53017E-10
 -1       833-5.40704E+04 1.20079E+02-1.43962E+03 4.94395E+02 4.07852E-12-2.76827E-10
 -1       834-5.52133E+04-1.68195E+03-3.53460E+03 1.79703E+03-1.95314E-10-1.43132E-10
 -1       835-5.32400E+04 1.19898E+03-5.55696E+03 4.98636E+02 4.16378E-10-1.23305E-09
 -1       836-2.24435E+03 1.30131E+05 1.09892E+04-3.75745E+03-2.02817E-10 4.56225E-10
 -1       837 3.53858E+03 1.34115E+05 8.52602E+03-1.33301E+04 7.52891E-11 2.49770E-10
 -1       838-5.41012E+02 1.31415E+05 6.42077E+03-3.74563E+03-3.41061E-10 4.91159E-10
 -1       839 4.81857E+03 1.34891E+05 1.08545E+04-1.33304E+04 1.15961E-10 1.18803E-11
 -1       840-3.24140E+03 1.29355E+05 1.54244E+04-3.75717E+03-3.70164E-10 4.60432E-11
 -1       841-1.35426E+03 5.33605E+02-1.86362E+03-8.37084E+02 2.40078E-10-2.37605E-10
 -1       842-2.36861E+03-1.14991E+03-1.29366E+03-4.78926E+02-4.54008E-10-3.45608E-11
 -1       843-1.73453E+03-1.37023E+02-4.36373E+02-7.10667E+02 8.04036E-10 1.70900E-10
 -1       844-1.92682E+03-3.73232E+02-2.71865E+02-6.24556E+02 2.30231E-09-8.40661E-10
 -1       845-1.79601E+03-2.42567E+02-9.94274E+01-6.91651E+02 4.52882E-10 7.97051E-11
 -1       846-1.85496E+03-2.50438E+02-5.45487E+01-6.46412E+02-3.74132E-10 1.47421E-10
 -1       847-1.80638E+03-2.59742E+02-1.56256E+01-6.88841E+02-1.59329E-07 5.99375E-08
 -1       848-1.84050E+03-2.26927E+02 5.49448E+00-6.50139E+02-3.17243E-07 1.20362E-07
 -1       849-1.81046E+03-2.66065E+02 2.79929E+01-6.87931E+02-2.61622E-07 9.85790E-08
 -1       850-1.82163E+03-1.96528E+02 8.10621E+01-6.55132E+02-2.07731E-07 7.88867E-08
 -1       851-1.82525E+03-2.90124E+02 1.43688E+02-6.83855E+02-1.52545E-06 5.72403E-07
 -1       852-1.71831E+03-2.13866E+01 3.90137E+02-6.86615E+02-2.84747E-06 1.06759E-06
 -1       853-1.91376E+03-4.41101E+02 6.25268E+02-6.56487E+02-4.68689E-06 1.75987E-06
 -1       854-1.08473E+03 1.09055E+03 1.85329E+03-8.95741E+02-6.50983E-06 2.44284E-06
 -1       855-2.45873E+03-1.40133E+03 2.66945E+03-4.74997E+02-3.26597E-06 1.22551E-06
 -1       856-6.34739E+04 1.40456E+03-6.51271E+03 1.01605E+03-1.02227E-09-2.59888E-10
 -1       857-6.57856E+04-1.97052E+03-4.14181E+03 3.62340E+03-8.67203E-10-7.37202E-10
 -1       858-6.44475E+04 1.40602E+02-1.68639E+03 1.00258E+03-1.26670E-09-4.04839E-10
 -1       859-6.47068E+04-1.85149E+02-9.35799E+02 3.63919E+03 2.62816E-10-7.62299E-10
 -1       860-6.45550E+04 1.54628E+01-4.29075E+02 1.00018E+03-2.09809E-10-5.61613E-10
 -1       861-6.45871E+04-1.50174E+01-2.31006E+02 3.64234E+03-1.85557E-09-1.10109E-09
 -1       862-6.45687E+04 2.68695E+00-1.22297E+02 9.99418E+02 1.94203E-09-2.05347E-11
 -1       863-6.45732E+04 2.54170E-01-8.77115E+01 3.64329E+03 3.95534E-09-2.66638E-10
 -1       864-6.45696E+04 2.14022E+00-9.12478E+01 9.99235E+02 1.60596E-09-4.74159E-10
 -1       865-6.45802E+04-8.09540E+00-1.49526E+02 3.64291E+03 2.07667E-09-6.69129E-10
 -1       866-6.45615E+04 9.82157E+00-2.66187E+02 9.99794E+02-3.24633E-10-6.22126E-10
 -1       867-6.46529E+04-1.11972E+02-5.73692E+02 3.64072E+03-4.14275E-10-9.69678E-10
 -1       868-6.44959E+04 8.61835E+01-1.03112E+03 1.00143E+03 1.03438E-09-2.74383E-10
 -1       869-6.53115E+04-1.20264E+03-2.53045E+03 3.62754E+03-3.67919E-10-4.88484E-10
 -1       870-6.39011E+04 8.58113E+02-3.97846E+03 1.01303E+03 1.01534E-09-6.24595E-10
 -1       871-6.18128E+02-6.08352E+03-1.17537E+03 1.78390E+04-1.05820E-09 1.37447E-10
 -1       872-1.86908E+02-6.29466E+03-3.40915E+02 2.09409E+04-1.42495E-09-1.00545E-09
 -1       873 2.40855E+01-6.21111E+03 3.54181E+02 1.78042E+04-6.20332E-10 1.07889E-10
 -1       874 4.22503E+02-5.92920E+03 1.31026E+03 2.09560E+04-9.20068E-10 9.00620E-10
 -1       875 1.34916E+03-6.45195E+03 2.82265E+03 1.78244E+04-8.70614E-10 4.65548E-10
 -1       876 7.74478E+04 9.83479E+03 7.30855E+03 3.04318E+04 2.57671E-10-1.35060E-10
 -1       877 7.90725E+04 1.53364E+04 4.58186E+03 3.15240E+04 1.46815E-09 7.83700E-10
 -1       878 7.86922E+04 1.14214E+04 1.72463E+03 3.02735E+04 2.42778E-10-4.70322E-10
 -1       879 7.76399E+04 1.32336E+04 9.42632E+02 3.18240E+04 2.98428E-10-5.90475E-10
 -1       880 7.88302E+04 1.15882E+04 4.02546E+02 3.02623E+04 1.26363E-10-3.68573E-10
 -1       881 7.74810E+04 1.30188E+04 2.15068E+02 3.18456E+04-4.68845E-10-1.14295E-09
 -1       882 7.88461E+04 1.16067E+04 1.15456E+02 3.02627E+04-2.71686E-09-8.18687E-11
 -1       883 7.74653E+04 1.29988E+04 9.94036E+01 3.18455E+04-1.30828E-09 3.57314E-12
 -1       884 7.88452E+04 1.16066E+04 1.30419E+02 3.02629E+04 2.52633E-10-1.62395E-10
 -1       885 7.74868E+04 1.30230E+04 2.56336E+02 3.18442E+04 2.22970E-09-5.88379E-10
 -1       886 7.88250E+04 1.15847E+04 4.86486E+02 3.02631E+04 1.82679E-09 8.11440E-11
 -1       887 7.76809E+04 1.32831E+04 1.14329E+03 3.18169E+04 1.20544E-10 2.47837E-11
 -1       888 7.86566E+04 1.13825E+04 2.09301E+03 3.02768E+04 1.98388E-09 2.08843E-10
 -1       889 7.94189E+04 1.58372E+04 5.56194E+03 3.14540E+04 1.03797E-09-2.00498E-09
 -1       890 7.71474E+04 9.45494E+03 8.87173E+03 3.04671E+04 6.27097E-10-4.82032E-11
 -1       891 2.73028E+02-3.47588E+04-1.36229E+03 4.24340E+03-7.64544E-11 2.69210E-10
 -1       892-4.46649E+02-3.52487E+04-1.08605E+03 1.51006E+04-2.51612E-09-4.53525E-10
 -1       893 7.19319E+01-3.49118E+04-8.65038E+02 4.22757E+03-7.39419E-10 6.92779E-13
 -1       894-6.88097E+02-3.53947E+04-1.52500E+03 1.50996E+04-6.75868E-10-6.06178E-10
 -1       895 4.60822E+02-3.46123E+04-2.19840E+03 4.24442E+03-2.64890E-10 5.36943E-10
 -1       896 1.66602E+05-1.29712E+03 3.00037E+03 8.52333E+01 1.32649E-10 2.91379E-10
 -1       897 1.67894E+05 1.50163E+03 2.12468E+03-1.67067E+02 2.59114E-10 2.56023E-10
 -1       898 1.67105E+05-2.03360E+02 7.79322E+02 4.65477E+01-1.37904E-10 1.12720E-10
 -1       899 1.67308E+05 2.35687E+02 4.94171E+02-1.05904E+02-2.97344E-11 7.01021E-11
 -1       900 1.67188E+05-3.21690E+01 2.10163E+02 2.40696E+01-8.60911E-11 3.85256E-11
 -1       901 1.67213E+05 4.01158E+01 1.41547E+02-7.08196E+01-3.56571E-09-6.73257E-11
 -1       902 1.67200E+05-7.92709E+00 9.99076E+01 1.14625E+01-1.08191E-06 3.75013E-11
 -1       903 1.67208E+05 2.83804E+01 1.37673E+02-5.19808E+01-2.15805E-06-7.95257E-11
 -1       904 1.67193E+05-2.04407E+01 2.12166E+02 5.23048E+00-1.33329E-06 1.62501E-11
 -1       905 1.67270E+05 1.47700E+02 4.66318E+02-4.41877E+01-5.03654E-07-1.39003E-10
 -1       906 1.67137E+05-1.27170E+02 7.94810E+02 3.66925E+00 4.62676E-08-1.89743E-10
 -1       907 1.67657E+05 9.41962E+02 1.95376E+03-4.53040E+01 5.93865E-07-1.86731E-11
 -1       908 1.66806E+05-8.14111E+02 3.10967E+03 6.34685E+00 8.82762E-07-9.74296E-11
 -1       909 1.69997E+05 6.01229E+03 8.50017E+03-5.57140E+01 1.16812E-06-2.86491E-11
 -1       910 1.64797E+05-5.19334E+03 1.20144E+04 1.40794E+01 5.86245E-07 3.00133E-11
 -1       911 4.64040E+04-5.88211E+02 1.36119E+03-1.57482E+01 4.60316E-07 1.02887E-11
 -1       912 4.69907E+04 6.81018E+02 9.64155E+02 6.72640E+01 9.15984E-07 7.21911E-11
 -1       913 4.66315E+04-9.22678E+01 3.55141E+02-1.39991E+01 2.97881E-07 8.06324E-11
 -1       914 4.67260E+04 1.07186E+02 2.27589E+02 6.57371E+01-3.21768E-07 1.59968E-10
 -1       915 4.66687E+04-1.48395E+01 1.02149E+02-1.42212E+01-1.61638E-07-9.16600E-13
 -1       916 4.66843E+04 2.00942E+01 7.88013E+01 6.81699E+01 1.16983E-10 8.48743E-12
 -1       917 4.66732E+04-5.24312E+00 7.26797E+01-1.64320E+01 3.69919E-10-1.87637E-11
 -1       918 4.66887E+04 2.52911E+01 1.22782E+02 7.47326E+01-8.83633E-11-5.59943E-11
 -1       919 4.66644E+04-2.00417E+01 2.05429E+02-2.07840E+01 6.16098E-11-8.63167E-11
 -1       920 4.67536E+04 1.47338E+02 4.63225E+02 8.59311E+01 4.13054E-11-1.19279E-10
 -1       921 4.66082E+04-1.27222E+02 7.93629E+02-2.76307E+01 4.89224E-10-1.41938E-10
 -1       922 4.71422E+04 9.42785E+02 1.95498E+03 1.02715E+02 1.00542E-09-2.21462E-10
 -1       923 4.62757E+04-8.14920E+02 3.11174E+03-3.75679E+01 3.83953E-10-2.52157E-10
 -1       924 4.94863E+04 6.01832E+03 8.50875E+03 1.27314E+02 7.55396E-11-4.09727E-10
 -1       925 4.42641E+04-5.19865E+03 1.20253E+04-5.22286E+01 4.40476E-10-4.55202E-10
 -1       926-2.10385E+05 4.70939E+03-1.08919E+04 1.70144E+02 6.65112E-10-5.41604E-10
 -1       927-2.15092E+05-5.45176E+03-7.70520E+03-2.79411E+02 6.87769E-10-5.06475E-10
 -1       928-2.12208E+05 7.38115E+02-2.81730E+03 1.24489E+02 2.78913E-10-4.32806E-10
 -1       929-2.12966E+05-8.53632E+02-1.76544E+03-1.50944E+02 3.68061E-11-5.88443E-10
 -1       930-2.12511E+05 1.14848E+02-7.13102E+02 4.16752E+01 3.68209E-10-2.25441E-10
 -1       931-2.12611E+05-1.31444E+02-4.03470E+02 2.61159E+01 5.00919E-10 3.33671E-11
 -1       932-2.12562E+05 1.64185E+01-1.60457E+02-5.25737E+01 1.58700E-10 8.73115E-11
 -1       933-2.12550E+05-1.07854E+01-5.17720E+01 1.96321E+02 1.33750E-10 3.37815E-10
 -1       934-2.12573E+05-5.67875E+00 3.93112E+01-1.28533E+02-7.10161E-11 4.35328E-10
 -1       935-2.12516E+05 5.94179E+01 1.71769E+02 3.05890E+02-7.52554E-11 4.40338E-10
 -1       936-2.12596E+05-5.36563E+01 3.25760E+02-1.62144E+02 1.77583E-10 5.43011E-10
 -1       937-2.12350E+05 4.00759E+02 8.25514E+02 3.20071E+02 4.90744E-10 4.74884E-10
 -1       938-2.12739E+05-3.46753E+02 1.32086E+03-1.42714E+02 3.37661E-10 2.71314E-10
 -1       939-2.11348E+05 2.56138E+03 3.61969E+03 2.34494E+02 6.01865E-11 3.77440E-10
 -1       940-2.13597E+05-2.21262E+03 5.11560E+03-7.65664E+01-3.25958E-10 3.33102E-10
 -1       941 9.26582E+05-4.65353E+04 1.07739E+05 5.65072E+01-4.65433E-08 8.00355E-10
 -1       942 9.73236E+05 5.38783E+04 7.62084E+04 8.58071E+00-9.89963E-08-8.67658E-10
 -1       943 9.44590E+05-7.29583E+03 2.79041E+04 4.08541E+01-9.25772E-08 1.83718E-10
 -1       944 9.52277E+05 8.44412E+03 1.75537E+04 2.81779E+01-8.53702E-08-4.74756E-10
 -1       945 9.47563E+05-1.14190E+03 7.19289E+03 3.69132E+01-5.53753E-08 7.33962E-10
 -1       946 9.48822E+05 1.34089E+03 4.31647E+03 3.28345E+01-2.47263E-08 1.37402E-09
 -1       947 9.48053E+05-1.98172E+02 2.15299E+03 3.61981E+01 1.83410E-08 9.68896E-10
 -1       948 9.48317E+05 3.67076E+02 1.78273E+03 3.25159E+01 6.34185E-08 7.60675E-10
 -1       949 9.48070E+05-1.68746E+02 1.88862E+03 3.72318E+01 1.91019E-07-1.41523E-09
 -1       950 9.48687E+05 1.08790E+03 3.55169E+03 2.66622E+01 3.18282E-07 1.55080E-09
 -1       951 9.47683E+05-9.18502E+02 5.81630E+03 4.20518E+01 7.37772E-07-1.65392E-09
 -1       952 9.51454E+05 6.78298E+03 1.41179E+04 3.64202E+00 1.15486E-06-5.45469E-10
 -1       953 9.45295E+05-5.85942E+03 2.24189E+04 6.02519E+01 5.76224E-07 9.01309E-10
 -1       954 9.68285E+05 4.32695E+04 6.12062E+04-8.37075E+01-7.37519E-11-5.45697E-12
 -1       955 9.30831E+05-3.73726E+04 8.65183E+04 1.29396E+02-5.05090E-09-1.09139E-10
 -1       956-4.77219E+04-8.43428E+02-1.79459E+03 6.47932E+03-8.33097E-10 4.09386E-10
 -1       957-4.80517E+04-2.70271E+02-9.07344E+02 7.54584E+03-3.53793E-10 5.37057E-10
 -1       958-4.78677E+04-3.18894E+01-4.07964E+02 6.44086E+03 7.64430E-10-2.34252E-10
 -1       959-4.78963E+04-7.33917E+00-2.07675E+02 7.58800E+03-4.56680E-10-2.11969E-10
 -1       960-4.78816E+04 4.47744E+00-1.00718E+02 6.43708E+03-9.14724E-10-3.53168E-10
 -1       961-4.78831E+04 3.93520E+00-5.31003E+01 7.59215E+03-1.71678E-09 2.31523E-10
 -1       962-4.78841E+04 3.93069E+00-2.97011E+01 6.43670E+03-4.50086E-10-3.97335E-10
 -1       963-4.78820E+04 3.94473E+00-2.26943E+01 7.59262E+03-7.49310E-10 4.73563E-10
 -1       964-4.78846E+04 4.03473E+00-2.60794E+01 6.43660E+03 2.24247E-10 4.50768E-11
 -1       965-4.78836E+04 4.31299E+00-4.38765E+01 7.59251E+03 5.58025E-10-1.19826E-10
 -1       966-4.78833E+04 4.85122E+00-8.16552E+01 6.43681E+03-1.13523E-09 3.88866E-10
 -1       967-4.78950E+04-4.35207E+00-1.67617E+02 7.59027E+03-1.84059E-10 3.68004E-10
 -1       968-4.78728E+04-2.40654E+01-3.28836E+02 6.43886E+03 5.25768E-09-7.90692E-11
 -1       969-4.80211E+04-2.15905E+02-7.31290E+02 7.56754E+03 1.04660E-08-5.26313E-10
 -1       970-4.77558E+04-6.77891E+02-1.44623E+03 6.45969E+03 5.43764E-09-3.17186E-10
 -1       971-9.11635E+04 1.15186E+03-5.34246E+03 1.02897E+03-1.07514E-09-1.85310E-10
 -1       972-9.30558E+04-1.61622E+03-3.39780E+03 3.67949E+03-6.12431E-10-6.18456E-11
 -1       973-9.19622E+04 1.15254E+02-1.38436E+03 1.01369E+03-1.25226E-09-5.24267E-10
 -1       974-9.21714E+04-1.51577E+02-7.69663E+02 3.69799E+03 8.93237E-10-3.86677E-11
 -1       975-9.20504E+04 1.27461E+01-3.56132E+02 1.01042E+03-4.64979E-11-5.37568E-10
 -1       976-9.20739E+04-1.19584E+01-1.97972E+02 3.70254E+03-1.74941E-09 4.69740E-10
 -1       977-9.20614E+04 2.48157E+00-1.17040E+02 1.00913E+03 1.62723E-09-7.13172E-10
 -1       978-9.20644E+04-2.64151E-01-1.06406E+02 3.70423E+03 3.44293E-09-8.03993E-10
 -1       979-9.20607E+04 3.04414E+00-1.42023E+02 1.00872E+03 1.97571E-09-5.79561E-10
 -1       980-9.20803E+04-1.71845E+01-2.63667E+02 3.70407E+03 2.83379E-09 4.81312E-10
 -1       981-9.20454E+04 1.76584E+01-4.87301E+02 1.00930E+03-2.36071E-10-6.99174E-10
 -1       982-9.22165E+04-2.09866E+02-1.06158E+03 3.70155E+03-1.73566E-09-6.89511E-11
 -1       983-9.19237E+04 1.59737E+02-1.91232E+03 1.01125E+03-1.28523E-09-7.08951E-10
 -1       984-9.34405E+04-2.23419E+03-4.69676E+03 3.68787E+03-2.23429E-09-7.34985E-11
 -1       985-9.08198E+04 1.59327E+03-7.38485E+03 1.02309E+03-1.91108E-09-6.11180E-10
 -3
    1PSTEP                         5           3           1          
  100CL  103 1.30859E-01         841                     0    3           1
 -4  DISP        4    1
 -5  D1          1    2    1    0
 -5  D2          1    2    2    0
 -5  D3          1    2    3    0
 -5  ALL         1    2    0    0    1ALL
 -1         1 1.62416E-05 0.00000E+00 0.00000E+00
 -1         2 1.19847E-05 0.00000E+00 0.00000E+00
 -1         3 9.98598E-06 0.00000E+00 0.00000E+00
 -1         4 8.84941E-06 0.00000E+00 0.00000E+00
 -1         5 8.31703E-06 0.00000E+00 0.00000E+00
 -1         8 1.28200E-05-1.61905E-07 0.00000E+00
 -1         9 1.00340E-05 7.91109E-08 0.00000E+00
 -1        10 9.36002E-06-3.81665E-07 0.00000E+00
 -1        11 8.72073E-06-7.08941E-08 0.00000E+00
 -1        12 8.04795E-06 1.94527E-07 0.00000E+00
 -1        15 5.48580E-06-3.39684E-07 0.00000E+00
 -1        16 7.55016E-06 7.23050E-08 0.00000E+00
 -1        17 6.93396E-06-7.66579E-07 0.00000E+00
 -1        18 6.98980E-06-1.44624E-07 0.00000E+00
 -1        19 7.31525E-06 3.86012E-07 0.00000E+00
 -1        20 7.42556E-06 4.13828E-06 0.00000E+00
 -1        21 7.42233E-06 9.89409E-06 0.00000E+00
 -1        22 2.03531E-06-2.20757E-07 0.00000E+00
 -1        23 2.73553E-06 2.39660E-07 0.00000E+00
 -1        24 2.84797E-06-9.15688E-07 0.00000E+00
 -1        25 6.22681E-06-9.48850E-08 0.00000E+00
 -1        26 6.52330E-06 5.12548E-07 0.00000E+00
 -1        27 6.20952E-06 3.98925E-06 0.00000E+00
 -1        28 5.83362E-06 9.75228E-06 0.00000E+00
 -1        29 0.00000E+00 0.00000E+00 0.00000E+00
 -1        30 9.73663E-07 3.35605E-07 0.00000E+00
 -1        31 1.24050E-06-7.18186E-07 0.00000E+00
 -1        32 0.00000E+00 0.00000E+00 0.00000E+00
 -1        33 5.49017E-06 7.94602E-07 0.00000E+00
 -1        34 5.21055E-06 3.97503E-06 0.00000E+00
 -1        35 4.67431E-06 9.67637E-06 0.00000E+00
 -1        36 1.59841E-05-4.62125E-21 0.00000E+00
 -1        37 1.57181E-05 6.59198E-20-3.30872E-24
 -1        38 1.54526E-05 1.56612E-19 0.00000E+00
 -1        39 1.51855E-05 2.14016E-19 0.00000E+00
 -1        40 1.49184E-05 2.16182E-19 0.00000E+00
 -1        41 1.46509E-05 1.51762E-19 3.30872E-24
 -1        42 1.43834E-05 9.68521E-20 0.00000E+00
 -1        43 1.41159E-05 3.88504E-20-3.30872E-24
 -1        44 1.38483E-05-3.99613E-20-6.61744E-24
 -1        45 1.35808E-05-6.94908E-20 3.30872E-24
 -1        46 1.33133E-05-6.04719E-20 6.61744E-24
 -1        47 1.30460E-05-3.37873E-20 3.30872E-24
 -1        48 1.27787E-05-2.89195E-20 6.61744E-24
 -1        49 1.25124E-05-4.84366E-21 3.30872E-24
 -1        50 1.22459E-05 1.15417E-20 0.00000E+00
 -1        51 1.59813E-05-2.76902E-08 0.00000E+00
 -1        52 1.55523E-05-5.41432E-08 0.00000E+00
 -1        53 1.49872E-05-8.03414E-08 0.00000E+00
 -1        54 1.43205E-05-1.06640E-07 0.00000E+00
 -1        55 1.35865E-05-1.33405E-07-2.06795E-25
 -1        56 1.59151E-05-1.24602E-07 6.61744E-24
 -1        57 1.55774E-05-2.55145E-07-3.30872E-24
 -1        58 1.52392E-05-3.82373E-07 0.00000E+00
 -1        59 1.48962E-05-5.02703E-07 0.00000E+00
 -1        60 1.45485E-05-6.10911E-07 1.32349E-23
 -1        61 1.41942E-05-7.02696E-07 0.00000E+00
 -1        62 1.38322E-05-7.73803E-07-1.32349E-23
 -1        63 1.34608E-05-8.20252E-07-6.61744E-24
 -1        64 1.30788E-05-8.38348E-07 0.00000E+00
 -1        65 1.26849E-05-8.24599E-07-6.61744E-24
 -1        66 1.22779E-05-7.75961E-07 1.32349E-23
 -1        67 1.18572E-05-6.89539E-07 0.00000E+00
 -1        68 1.14215E-05-5.63137E-07-1.32349E-23
 -1        69 1.09721E-05-3.94068E-07-3.30872E-24
 -1        70 1.05057E-05-1.81849E-07 0.00000E+00
 -1        71 1.18592E-05-6.83749E-20 0.00000E+00
 -1        72 1.17340E-05-2.86256E-19-1.65436E-24
 -1        73 1.16088E-05-6.12990E-19 0.00000E+00
 -1        74 1.14836E-05-1.01162E-18 0.00000E+00
 -1        75 1.13585E-05-1.38973E-18 0.00000E+00
 -1        76 1.12333E-05-1.72458E-18-1.65436E-24
 -1        77 1.11082E-05-2.01450E-18 3.30872E-24
 -1        78 1.09830E-05-2.12500E-18-1.65436E-24
 -1        79 1.08579E-05-2.12149E-18-3.30872E-24
 -1        80 1.07328E-05-1.97220E-18-1.65436E-24
 -1        81 1.06077E-05-1.66527E-18 0.00000E+00
 -1        82 1.04827E-05-1.28196E-18 0.00000E+00
 -1        83 1.03577E-05-8.47728E-19 0.00000E+00
 -1        84 1.02331E-05-4.37857E-19 0.00000E+00
 -1        85 1.01084E-05-1.24196E-19 0.00000E+00
 -1        86 1.19043E-05 8.81210E-09 0.00000E+00
 -1        87 1.16644E-05 2.34494E-08 0.00000E+00
 -1        88 1.13117E-05 3.76506E-08 0.00000E+00
 -1        89 1.08929E-05 5.23334E-08-2.06795E-25
 -1        90 1.04522E-05 6.72647E-08 8.27181E-25
 -1        91 1.17991E-05 3.50683E-08-3.30872E-24
 -1        92 1.15442E-05 2.52801E-07-1.65436E-24
 -1        93 1.12425E-05 5.94981E-07 3.30872E-24
 -1        94 1.09163E-05 1.00216E-06 0.00000E+00
 -1        95 1.05961E-05 1.39326E-06 3.30872E-24
 -1        96 1.03124E-05 1.68724E-06 0.00000E+00
 -1        97 1.00835E-05 1.83513E-06 0.00000E+00
 -1        98 9.92737E-06 1.78890E-06 1.65436E-24
 -1        99 9.83705E-06 1.56725E-06 3.30872E-24
 -1       100 9.80503E-06 1.19006E-06 0.00000E+00
 -1       101 9.80407E-06 7.30002E-07-3.30872E-24
 -1       102 9.80682E-06 2.60369E-07 1.65436E-24
 -1       103 9.78452E-06-1.42348E-07 0.00000E+00
 -1       104 9.70928E-06-4.01859E-07-1.65436E-24
 -1       105 9.56986E-06-4.90898E-07 3.30872E-24
 -1       106 9.91492E-06 7.46045E-20 1.65436E-24
 -1       107 9.84375E-06 2.54277E-19 0.00000E+00
 -1       108 9.77259E-06 4.79186E-19 0.00000E+00
 -1       109 9.70140E-06 7.60319E-19 0.00000E+00
 -1       110 9.63021E-06 1.06717E-18 0.00000E+00
 -1       111 9.55903E-06 1.33976E-18-8.27181E-25
 -1       112 9.48784E-06 1.54187E-18 0.00000E+00
 -1       113 9.41665E-06 1.63810E-18 0.00000E+00
 -1       114 9.34546E-06 1.64189E-18 1.65436E-24
 -1       115 9.27429E-06 1.52012E-18 0.00000E+00
 -1       116 9.20312E-06 1.24296E-18 0.00000E+00
 -1       117 9.13200E-06 8.41745E-19 0.00000E+00
 -1       118 9.06089E-06 4.71143E-19 0.00000E+00
 -1       119 8.99002E-06 2.18567E-19 8.27181E-25
 -1       120 8.91907E-06 5.68341E-20-1.65436E-24
 -1       121 9.97730E-06-6.37506E-08 0.00000E+00
 -1       122 9.94163E-06-1.27296E-07 0.00000E+00
 -1       123 9.87049E-06-1.90850E-07 0.00000E+00
 -1       124 9.75546E-06-2.54400E-07 0.00000E+00
 -1       125 9.58808E-06-3.17950E-07-1.65436E-24
 -1       126 9.92098E-06-4.20366E-08 0.00000E+00
 -1       127 9.86745E-06-1.14958E-07-8.27181E-25
 -1       128 9.82231E-06-2.10213E-07-1.65436E-24
 -1       129 9.78230E-06-3.19233E-07 0.00000E+00
 -1       130 9.74324E-06-4.30787E-07 1.65436E-24
 -1       131 9.70091E-06-5.33640E-07 0.00000E+00
 -1       132 9.65188E-06-6.18603E-07 0.00000E+00
 -1       133 9.59272E-06-6.76540E-07 8.27181E-25
 -1       134 9.52161E-06-7.02627E-07-1.65436E-24
 -1       135 9.43680E-06-6.92144E-07 0.00000E+00
 -1       136 9.33880E-06-6.46474E-07 0.00000E+00
 -1       137 9.22820E-06-5.67100E-07 0.00000E+00
 -1       138 9.10768E-06-4.61289E-07 0.00000E+00
 -1       139 8.98023E-06-3.36295E-07-8.27181E-25
 -1       140 8.84948E-06-2.02798E-07 0.00000E+00
 -1       141 8.81560E-06-2.31821E-20-8.27181E-25
 -1       142 8.78202E-06-4.28858E-20 4.13590E-25
 -1       143 8.74842E-06-1.40161E-20 0.00000E+00
 -1       144 8.71486E-06 1.99256E-20-4.13590E-25
 -1       145 8.68131E-06 3.65087E-20-8.27181E-25
 -1       146 8.64777E-06 6.70975E-20 4.13590E-25
 -1       147 8.61423E-06 8.60415E-20 8.27181E-25
 -1       148 8.58069E-06 7.95932E-20 0.00000E+00
 -1       149 8.54716E-06 1.00348E-19 8.27181E-25
 -1       150 8.51365E-06 1.17106E-19 4.13590E-25
 -1       151 8.48016E-06 8.93582E-20 8.27181E-25
 -1       152 8.44676E-06 3.56063E-20 4.13590E-25
 -1       153 8.41338E-06 1.79201E-20 8.27181E-25
 -1       154 8.38050E-06 5.48227E-21-2.06795E-25
 -1       155 8.34746E-06 3.38252E-21 2.58494E-26
 -1       156 8.85798E-06-1.24887E-08 0.00000E+00
 -1       157 8.88317E-06-2.38994E-08-4.13590E-25
 -1       158 8.90338E-06-3.53908E-08-4.13590E-25
 -1       159 8.89701E-06-4.68953E-08-4.13590E-25
 -1       160 8.84310E-06-5.83166E-08 0.00000E+00
 -1       161 8.81010E-06-1.73705E-08-1.65436E-24
 -1       162 8.77245E-06-3.93185E-08 0.00000E+00
 -1       163 8.73565E-06-6.35022E-08 1.65436E-24
 -1       164 8.69880E-06-8.75941E-08 0.00000E+00
 -1       165 8.66099E-06-1.09123E-07-1.65436E-24
 -1       166 8.62130E-06-1.25628E-07-8.27181E-25
 -1       167 8.57908E-06-1.35391E-07 0.00000E+00
 -1       168 8.53369E-06-1.36703E-07 8.27181E-25
 -1       169 8.48477E-06-1.28583E-07 0.00000E+00
 -1       170 8.43198E-06-1.10059E-07-8.27181E-25
 -1       171 8.37531E-06-8.11918E-08 0.00000E+00
 -1       172 8.31489E-06-4.20195E-08 0.00000E+00
 -1       173 8.25101E-06 6.38002E-09 0.00000E+00
 -1       174 8.18460E-06 6.31481E-08 0.00000E+00
 -1       175 8.11564E-06 1.26111E-07 0.00000E+00
 -1       191 8.30800E-06 3.23989E-08-1.65436E-24
 -1       192 8.28427E-06 6.48360E-08 0.00000E+00
 -1       193 8.24605E-06 9.72818E-08 0.00000E+00
 -1       194 8.19367E-06 1.29725E-07 0.00000E+00
 -1       195 8.12748E-06 1.62153E-07 1.65436E-24
 -1       251 1.26501E-05 3.61569E-07 3.30872E-24
 -1       252 1.24758E-05 7.17808E-07-1.65436E-24
 -1       253 1.23019E-05 8.53195E-07 6.61744E-24
 -1       254 1.21271E-05 7.15836E-07 0.00000E+00
 -1       255 1.19523E-05 3.47176E-07 0.00000E+00
 -1       256 1.17772E-05-2.09541E-07 3.30872E-24
 -1       257 1.16021E-05-8.46698E-07 0.00000E+00
 -1       258 1.14270E-05-1.45605E-06 0.00000E+00
 -1       259 1.12519E-05-1.93889E-06 0.00000E+00
 -1       260 1.10769E-05-2.19747E-06 3.30872E-24
 -1       261 1.09020E-05-2.21082E-06 0.00000E+00
 -1       262 1.07272E-05-1.95989E-06 0.00000E+00
 -1       263 1.05523E-05-1.51607E-06 0.00000E+00
 -1       264 1.03783E-05-9.52291E-07 0.00000E+00
 -1       265 1.02039E-05-3.82544E-07 0.00000E+00
 -1       266 1.20081E-05-1.92755E-07 1.65436E-24
 -1       267 1.07883E-05-2.22427E-07 0.00000E+00
 -1       268 9.34277E-06-2.52471E-07 0.00000E+00
 -1       269 7.85381E-06-2.82100E-07 0.00000E+00
 -1       270 6.50653E-06-3.11589E-07-4.13590E-25
 -1       271 1.23465E-05 2.64510E-07-6.61744E-24
 -1       272 1.19146E-05 5.51817E-07 3.30872E-24
 -1       273 1.15276E-05 7.20243E-07 6.61744E-24
 -1       274 1.11774E-05 7.86300E-07 0.00000E+00
 -1       275 1.08588E-05 7.67757E-07 0.00000E+00
 -1       276 1.05651E-05 6.82143E-07 3.30872E-24
 -1       277 1.02898E-05 5.47247E-07 0.00000E+00
 -1       278 1.00263E-05 3.80930E-07-3.30872E-24
 -1       279 9.76778E-06 2.01138E-07 0.00000E+00
 -1       280 9.50763E-06 2.58604E-08-3.30872E-24
 -1       281 9.23911E-06-1.26947E-07-6.61744E-24
 -1       282 8.95566E-06-2.39343E-07 0.00000E+00
 -1       283 8.65055E-06-2.93551E-07 6.61744E-24
 -1       284 8.31823E-06-2.71536E-07-3.30872E-24
 -1       285 7.95074E-06-1.56352E-07-6.61744E-24
 -1       286 9.99080E-06 4.30973E-07 1.65436E-24
 -1       287 9.94870E-06 6.73678E-07-8.27181E-25
 -1       288 9.90655E-06 8.10298E-07 0.00000E+00
 -1       289 9.86462E-06 8.44101E-07 8.27181E-25
 -1       290 9.82268E-06 7.87579E-07 0.00000E+00
 -1       291 9.78078E-06 6.53390E-07 0.00000E+00
 -1       292 9.73887E-06 4.61156E-07 0.00000E+00
 -1       293 9.69696E-06 2.30602E-07 8.27181E-25
 -1       294 9.65505E-06-1.51056E-08 0.00000E+00
 -1       295 9.61314E-06-2.52775E-07 0.00000E+00
 -1       296 9.57122E-06-4.59940E-07 1.65436E-24
 -1       297 9.52928E-06-6.14184E-07 0.00000E+00
 -1       298 9.48734E-06-6.97836E-07 0.00000E+00
 -1       299 9.44521E-06-6.93359E-07 0.00000E+00
 -1       300 9.40313E-06-5.91120E-07-1.65436E-24
 -1       301 9.61931E-06 7.61846E-08 0.00000E+00
 -1       302 9.20208E-06 7.61689E-08 4.13590E-25
 -1       303 8.78440E-06 7.66374E-08-4.13590E-25
 -1       304 8.36842E-06 7.69901E-08 0.00000E+00
 -1       305 7.95631E-06 7.66079E-08 0.00000E+00
 -1       306 9.72776E-06 3.40778E-07-3.30872E-24
 -1       307 9.46629E-06 4.67653E-07 0.00000E+00
 -1       308 9.24762E-06 4.80778E-07 0.00000E+00
 -1       309 9.06361E-06 3.99235E-07 0.00000E+00
 -1       310 8.90758E-06 2.42798E-07-6.61744E-24
 -1       311 8.77211E-06 3.11247E-08 0.00000E+00
 -1       312 8.64989E-06-2.15986E-07 0.00000E+00
 -1       313 8.53351E-06-4.78713E-07-3.30872E-24
 -1       314 8.41553E-06-7.37192E-07 6.61744E-24
 -1       315 8.28855E-06-9.71564E-07 0.00000E+00
 -1       316 8.14515E-06-1.16203E-06 0.00000E+00
 -1       317 7.97806E-06-1.28884E-06 0.00000E+00
 -1       318 7.77986E-06-1.33237E-06-6.61744E-24
 -1       319 7.54406E-06-1.27287E-06 0.00000E+00
 -1       320 7.26233E-06-1.09140E-06-3.30872E-24
 -1       321 9.31886E-06-1.47625E-07 0.00000E+00
 -1       322 9.27881E-06 2.82294E-08 0.00000E+00
 -1       323 9.23871E-06 1.47274E-07 0.00000E+00
 -1       324 9.19881E-06 2.10991E-07-8.27181E-25
 -1       325 9.15893E-06 2.25583E-07 1.65436E-24
 -1       326 9.11909E-06 1.97342E-07-8.27181E-25
 -1       327 9.07925E-06 1.36214E-07-1.65436E-24
 -1       328 9.03942E-06 5.22046E-08-8.27181E-25
 -1       329 8.99959E-06-4.27254E-08 0.00000E+00
 -1       330 8.95976E-06-1.36600E-07 8.27181E-25
 -1       331 8.91993E-06-2.17531E-07 1.65436E-24
 -1       332 8.88011E-06-2.73651E-07-8.27181E-25
 -1       333 8.84028E-06-2.95214E-07 1.65436E-24
 -1       334 8.80045E-06-2.72535E-07 8.27181E-25
 -1       335 8.76062E-06-1.99702E-07 0.00000E+00
 -1       336 9.06192E-06-4.46176E-07 0.00000E+00
 -1       337 8.70639E-06-5.10546E-07-8.27181E-25
 -1       338 8.30460E-06-5.74910E-07 0.00000E+00
 -1       339 7.86777E-06-6.39119E-07 0.00000E+00
 -1       340 7.40714E-06-7.03345E-07 1.65436E-24
 -1       341 8.93896E-06 3.72129E-07 0.00000E+00
 -1       342 8.11345E-06 2.19333E-06 0.00000E+00
 -1       343 7.01103E-06 4.74870E-06 3.30872E-24
 -1       344 5.75847E-06 7.70002E-06 0.00000E+00
 -1       345 4.52609E-06 1.05979E-05 3.30872E-24
 -1       346 3.48367E-06 1.29930E-05 0.00000E+00
 -1       347 2.74682E-06 1.45779E-05 3.30872E-24
 -1       348 2.42881E-06 1.50493E-05 0.00000E+00
 -1       349 2.52393E-06 1.44190E-05 0.00000E+00
 -1       350 3.02423E-06 1.27048E-05 0.00000E+00
 -1       351 3.80804E-06 1.02302E-05 3.30872E-24
 -1       352 4.75286E-06 7.32336E-06 0.00000E+00
 -1       353 5.69086E-06 4.43495E-06 3.30872E-24
 -1       354 6.45523E-06 2.01600E-06-1.65436E-24
 -1       355 6.92566E-06 3.84262E-07 0.00000E+00
 -1       356 8.67841E-06 7.02933E-08 0.00000E+00
 -1       357 8.63603E-06 1.80154E-07-8.27181E-25
 -1       358 8.59366E-06 2.58801E-07 1.65436E-24
 -1       359 8.55128E-06 3.06404E-07 0.00000E+00
 -1       360 8.50890E-06 3.25950E-07 0.00000E+00
 -1       361 8.46651E-06 3.20477E-07 0.00000E+00
 -1       362 8.42413E-06 2.95294E-07-1.65436E-24
 -1       363 8.38176E-06 2.55744E-07-8.27181E-25
 -1       364 8.33938E-06 2.08474E-07 0.00000E+00
 -1       365 8.29704E-06 1.60147E-07-8.27181E-25
 -1       366 8.25470E-06 1.17520E-07 0.00000E+00
 -1       367 8.21248E-06 8.73412E-08 0.00000E+00
 -1       368 8.17028E-06 7.52284E-08 0.00000E+00
 -1       369 8.12864E-06 8.67669E-08 0.00000E+00
 -1       370 8.08681E-06 1.25402E-07 0.00000E+00
 -1       371 8.50461E-06-8.44184E-08-8.27181E-25
 -1       372 8.17149E-06-9.67760E-08 0.00000E+00
 -1       373 7.78745E-06-1.09219E-07 0.00000E+00
 -1       374 7.41867E-06-1.21289E-07-1.03398E-25
 -1       375 7.13088E-06-1.33373E-07 0.00000E+00
 -1       376 8.59946E-06 4.92211E-08 0.00000E+00
 -1       377 8.48586E-06 1.45517E-07 8.27181E-25
 -1       378 8.38198E-06 2.16133E-07 1.65436E-24
 -1       379 8.28838E-06 2.58737E-07 0.00000E+00
 -1       380 8.20438E-06 2.75716E-07 1.65436E-24
 -1       381 8.12907E-06 2.69445E-07 0.00000E+00
 -1       382 8.06013E-06 2.46169E-07 1.65436E-24
 -1       383 7.99520E-06 2.12174E-07 0.00000E+00
 -1       384 7.93122E-06 1.75659E-07 0.00000E+00
 -1       385 7.86513E-06 1.44842E-07 8.27181E-25
 -1       386 7.79437E-06 1.26520E-07 0.00000E+00
 -1       387 7.71651E-06 1.27494E-07 0.00000E+00
 -1       388 7.62995E-06 1.51664E-07-1.65436E-24
 -1       389 7.53388E-06 2.03144E-07-8.27181E-25
 -1       390 7.42764E-06 2.81011E-07 0.00000E+00
 -1       406 7.95176E-06 2.26625E-07 0.00000E+00
 -1       407 7.84373E-06 2.58748E-07-8.27181E-25
 -1       408 7.72490E-06 2.90853E-07 0.00000E+00
 -1       409 7.59643E-06 3.22880E-07-8.27181E-25
 -1       410 7.45947E-06 3.54740E-07 8.27181E-25
 -1       466 5.60971E-06 3.61253E-07 0.00000E+00
 -1       467 5.73926E-06 7.56243E-07 1.65436E-24
 -1       468 5.86853E-06 9.29820E-07 0.00000E+00
 -1       469 5.99885E-06 9.65200E-07-1.65436E-24
 -1       470 6.12919E-06 9.01699E-07 0.00000E+00
 -1       471 6.25974E-06 7.78055E-07 1.65436E-24
 -1       472 6.39031E-06 6.13862E-07 0.00000E+00
 -1       473 6.52089E-06 4.28475E-07 1.65436E-24
 -1       474 6.65148E-06 2.34495E-07 0.00000E+00
 -1       475 6.78200E-06 4.44783E-08 0.00000E+00
 -1       476 6.91248E-06-1.27757E-07 0.00000E+00
 -1       477 7.04263E-06-2.68294E-07 0.00000E+00
 -1       478 7.17274E-06-3.53123E-07 0.00000E+00
 -1       479 7.30115E-06-3.57908E-07 8.27181E-25
 -1       480 7.43013E-06-2.32931E-07 8.27181E-25
 -1       481 4.67646E-06-3.20847E-07 0.00000E+00
 -1       482 3.95913E-06-3.00928E-07-2.06795E-25
 -1       483 3.33418E-06-2.81016E-07 0.00000E+00
 -1       484 2.80208E-06-2.60910E-07 2.06795E-25
 -1       485 2.36753E-06-2.40733E-07 0.00000E+00
 -1       486 5.04888E-06 4.18930E-07 1.65436E-24
 -1       487 4.64245E-06 1.07973E-06 0.00000E+00
 -1       488 4.30944E-06 1.54623E-06 0.00000E+00
 -1       489 4.08503E-06 1.72043E-06 1.65436E-24
 -1       490 3.97213E-06 1.59730E-06 3.30872E-24
 -1       491 3.97179E-06 1.17324E-06 0.00000E+00
 -1       492 4.04983E-06 5.39841E-07 0.00000E+00
 -1       493 4.17144E-06-2.10040E-07 0.00000E+00
 -1       494 4.28818E-06-9.46924E-07 0.00000E+00
 -1       495 4.35164E-06-1.54139E-06 1.65436E-24
 -1       496 4.33014E-06-1.90897E-06 0.00000E+00
 -1       497 4.19264E-06-1.96661E-06 1.65436E-24
 -1       498 3.94438E-06-1.72901E-06 3.30872E-24
 -1       499 3.59231E-06-1.21231E-06 1.65436E-24
 -1       500 3.17446E-06-5.21501E-07 0.00000E+00
 -1       501 7.50938E-06 3.95671E-07 1.65436E-24
 -1       502 7.47074E-06 5.73433E-07 8.27181E-25
 -1       503 7.43197E-06 6.16921E-07 0.00000E+00
 -1       504 7.39360E-06 5.37690E-07-8.27181E-25
 -1       505 7.35523E-06 3.57380E-07 1.65436E-24
 -1       506 7.31692E-06 9.78047E-08 0.00000E+00
 -1       507 7.27861E-06-2.12713E-07 0.00000E+00
 -1       508 7.24031E-06-5.45772E-07 0.00000E+00
 -1       509 7.20201E-06-8.71115E-07 0.00000E+00
 -1       510 7.16373E-06-1.15850E-06-4.13590E-25
 -1       511 7.12546E-06-1.38079E-06 0.00000E+00
 -1       512 7.08721E-06-1.51098E-06-4.13590E-25
 -1       513 7.04896E-06-1.52961E-06 0.00000E+00
 -1       514 7.01069E-06-1.41740E-06-8.27181E-25
 -1       515 6.97240E-06-1.16582E-06 0.00000E+00
 -1       516 7.04687E-06 9.66654E-08-8.27181E-25
 -1       517 6.33135E-06 1.25659E-07 5.16988E-26
 -1       518 5.47410E-06 1.54223E-07-2.06795E-25
 -1       519 4.54541E-06 1.83235E-07 0.00000E+00
 -1       520 3.61074E-06 2.12416E-07 0.00000E+00
 -1       521 7.15882E-06 2.94183E-07 6.61744E-24
 -1       522 6.80702E-06 3.86201E-07 0.00000E+00
 -1       523 6.49602E-06 3.70006E-07 0.00000E+00
 -1       524 6.21735E-06 2.64063E-07-3.30872E-24
 -1       525 5.96485E-06 8.79091E-08-6.61744E-24
 -1       526 5.73120E-06-1.39126E-07-3.30872E-24
 -1       527 5.50925E-06-3.97515E-07 0.00000E+00
 -1       528 5.29169E-06-6.67706E-07-3.30872E-24
 -1       529 5.07121E-06-9.30102E-07 0.00000E+00
 -1       530 4.84050E-06-1.16513E-06 3.30872E-24
 -1       531 4.59227E-06-1.35329E-06 6.61744E-24
 -1       532 4.31940E-06-1.47517E-06 0.00000E+00
 -1       533 4.01462E-06-1.51156E-06 0.00000E+00
 -1       534 3.67180E-06-1.44312E-06 3.30872E-24
 -1       535 3.28258E-06-1.25158E-06 0.00000E+00
 -1       536 6.93531E-06-3.49694E-07 0.00000E+00
 -1       537 6.93857E-06-3.32080E-08 0.00000E+00
 -1       538 6.94183E-06 1.93529E-07 0.00000E+00
 -1       539 6.94539E-06 3.41266E-07 0.00000E+00
 -1       540 6.94900E-06 4.20724E-07-4.54384E-26
 -1       541 6.95266E-06 4.42631E-07 1.29247E-26
 -1       542 6.95634E-06 4.17711E-07-5.16988E-26
 -1       543 6.96003E-06 3.56688E-07 5.16988E-26
 -1       544 6.96372E-06 2.70285E-07 0.00000E+00
 -1       545 6.96741E-06 1.69222E-07-5.16988E-26
 -1       546 6.97111E-06 6.42213E-08-1.03398E-25
 -1       547 6.97481E-06-3.39948E-08-5.16988E-26
 -1       548 6.97852E-06-1.14707E-07 0.00000E+00
 -1       549 6.98224E-06-1.67194E-07 0.00000E+00
 -1       550 6.98597E-06-1.80726E-07-2.06795E-25
 -1       551 6.32393E-06-7.91071E-07-2.32645E-25
 -1       552 5.64375E-06-8.14912E-07 3.10193E-25
 -1       553 4.92446E-06-8.38743E-07 0.00000E+00
 -1       554 4.19771E-06-8.62874E-07 0.00000E+00
 -1       555 3.49516E-06-8.87665E-07 0.00000E+00
 -1       556 6.75762E-06-3.75383E-07 0.00000E+00
 -1       557 6.61594E-06-7.43786E-08 0.00000E+00
 -1       558 6.50503E-06 1.45050E-07 3.30872E-24
 -1       559 6.42127E-06 2.92358E-07-8.27181E-25
 -1       560 6.36104E-06 3.77016E-07-1.65436E-24
 -1       561 6.32074E-06 4.08565E-07 1.65436E-24
 -1       562 6.29679E-06 3.96554E-07 0.00000E+00
 -1       563 6.28559E-06 3.50539E-07 0.00000E+00
 -1       564 6.28357E-06 2.80078E-07 8.27181E-25
 -1       565 6.28713E-06 1.94728E-07 4.13590E-25
 -1       566 6.29269E-06 1.04051E-07 0.00000E+00
 -1       567 6.29668E-06 1.76079E-08-4.13590E-25
 -1       568 6.29553E-06-5.50429E-08 0.00000E+00
 -1       569 6.28573E-06-1.04351E-07-3.36042E-25
 -1       570 6.26375E-06-1.20774E-07-2.06795E-25
 -1       571 7.00934E-06-9.87829E-08 1.03398E-25
 -1       572 7.02948E-06-6.72860E-08 1.55096E-25
 -1       573 7.04979E-06-4.75462E-08-4.13590E-25
 -1       574 7.07018E-06-3.68432E-08 0.00000E+00
 -1       575 7.09060E-06-3.24457E-08-4.13590E-25
 -1       576 7.11103E-06-3.16043E-08 0.00000E+00
 -1       577 7.13147E-06-3.15686E-08-8.27181E-25
 -1       578 7.15192E-06-2.95856E-08 0.00000E+00
 -1       579 7.17236E-06-2.29023E-08 8.27181E-25
 -1       580 7.19281E-06-8.76572E-09 4.13590E-25
 -1       581 7.21325E-06 1.55765E-08 0.00000E+00
 -1       582 7.23369E-06 5.28743E-08 0.00000E+00
 -1       583 7.25412E-06 1.05874E-07 0.00000E+00
 -1       584 7.27455E-06 1.77296E-07 0.00000E+00
 -1       585 7.29494E-06 2.69843E-07-1.65436E-24
 -1       586 6.88043E-06-1.36173E-07 0.00000E+00
 -1       587 6.75510E-06-1.27650E-07 0.00000E+00
 -1       588 6.62037E-06-1.19134E-07 0.00000E+00
 -1       589 6.48295E-06-1.10701E-07 7.75482E-26
 -1       590 6.34956E-06-1.02456E-07 0.00000E+00
 -1       591 6.95700E-06-9.10523E-08 0.00000E+00
 -1       592 6.92680E-06-4.69531E-08 0.00000E+00
 -1       593 6.89930E-06-1.05175E-08-4.13590E-25
 -1       594 6.87396E-06 1.99043E-08 0.00000E+00
 -1       595 6.85022E-06 4.59613E-08 0.00000E+00
 -1       596 6.82749E-06 6.92913E-08 0.00000E+00
 -1       597 6.80516E-06 9.15301E-08 4.13590E-25
 -1       598 6.78263E-06 1.14312E-07-2.06795E-25
 -1       599 6.75927E-06 1.39271E-07-2.06795E-25
 -1       600 6.73450E-06 1.68042E-07-2.06795E-25
 -1       601 6.70768E-06 2.02257E-07 4.13590E-25
 -1       602 6.67823E-06 2.43555E-07 1.03398E-25
 -1       603 6.64554E-06 2.93571E-07-5.16988E-26
 -1       604 6.60907E-06 3.53953E-07 5.16988E-26
 -1       605 6.56827E-06 4.26349E-07 0.00000E+00
 -1       606 7.32284E-06 5.40932E-07 0.00000E+00
 -1       607 7.32993E-06 7.11243E-07 0.00000E+00
 -1       608 7.33688E-06 8.96041E-07 0.00000E+00
 -1       609 7.34376E-06 1.09429E-06 0.00000E+00
 -1       610 7.35062E-06 1.30496E-06 0.00000E+00
 -1       611 7.35746E-06 1.52699E-06 0.00000E+00
 -1       612 7.36429E-06 1.75931E-06 0.00000E+00
 -1       613 7.37112E-06 2.00087E-06 0.00000E+00
 -1       614 7.37795E-06 2.25060E-06 0.00000E+00
 -1       615 7.38477E-06 2.50744E-06 0.00000E+00
 -1       616 7.39160E-06 2.77032E-06-4.13590E-25
 -1       617 7.39842E-06 3.03819E-06 4.13590E-25
 -1       618 7.40523E-06 3.30999E-06 0.00000E+00
 -1       619 7.41204E-06 3.58464E-06 0.00000E+00
 -1       620 7.41883E-06 3.86109E-06-2.06795E-25
 -1       621 7.16936E-06 4.07175E-07 0.00000E+00
 -1       622 7.02671E-06 4.28452E-07-4.13590E-25
 -1       623 6.88904E-06 4.49732E-07 0.00000E+00
 -1       624 6.75811E-06 4.70956E-07-2.06795E-25
 -1       625 6.63564E-06 4.92055E-07 0.00000E+00
 -1       626 7.26995E-06 5.48808E-07 0.00000E+00
 -1       627 7.21838E-06 7.27679E-07 4.13590E-25
 -1       628 7.16127E-06 9.21142E-07 8.27181E-25
 -1       629 7.09929E-06 1.12752E-06 4.13590E-25
 -1       630 7.03308E-06 1.34512E-06 0.00000E+00
 -1       631 6.96331E-06 1.57224E-06 4.13590E-25
 -1       632 6.89060E-06 1.80716E-06 0.00000E+00
 -1       633 6.81560E-06 2.04817E-06 0.00000E+00
 -1       634 6.73897E-06 2.29354E-06 0.00000E+00
 -1       635 6.66134E-06 2.54157E-06 2.06795E-25
 -1       636 6.58334E-06 2.79054E-06 0.00000E+00
 -1       637 6.50564E-06 3.03873E-06-2.06795E-25
 -1       638 6.42884E-06 3.28442E-06 2.06795E-25
 -1       639 6.35357E-06 3.52590E-06-1.03398E-25
 -1       640 6.28037E-06 3.76143E-06-5.16988E-26
 -1       641 7.42572E-06 4.42542E-06 0.00000E+00
 -1       642 7.42564E-06 4.74244E-06 0.00000E+00
 -1       643 7.42558E-06 5.08501E-06 2.58494E-26
 -1       644 7.42546E-06 5.44881E-06 0.00000E+00
 -1       645 7.42534E-06 5.82951E-06 3.23117E-27
 -1       646 7.42520E-06 6.22278E-06-2.52435E-29
 -1       647 7.42506E-06 6.62429E-06-1.61559E-27
 -1       648 7.42491E-06 7.02971E-06 1.61559E-27
 -1       649 7.42476E-06 7.43470E-06 0.00000E+00
 -1       650 7.42461E-06 7.83494E-06-6.46235E-27
 -1       651 7.42446E-06 8.22610E-06 0.00000E+00
 -1       652 7.42427E-06 8.60383E-06-2.58494E-26
 -1       653 7.42409E-06 8.96383E-06 1.03398E-25
 -1       654 7.42375E-06 9.30176E-06 1.03398E-25
 -1       655 7.42347E-06 9.61328E-06 0.00000E+00
 -1       656 7.17742E-06 4.11430E-06 0.00000E+00
 -1       657 6.96364E-06 4.08905E-06 0.00000E+00
 -1       658 6.77209E-06 4.06386E-06-4.13590E-25
 -1       659 6.59064E-06 4.03864E-06 2.06795E-25
 -1       660 6.40716E-06 4.01338E-06 4.13590E-25
 -1       661 7.34578E-06 4.43393E-06 4.13590E-25
 -1       662 7.25833E-06 4.75298E-06-4.13590E-25
 -1       663 7.16348E-06 5.09169E-06 0.00000E+00
 -1       664 7.06266E-06 5.44674E-06-4.13590E-25
 -1       665 6.95700E-06 5.81473E-06-8.27181E-25
 -1       666 6.84778E-06 6.19227E-06 0.00000E+00
 -1       667 6.73623E-06 6.57602E-06-8.27181E-25
 -1       668 6.62364E-06 6.96259E-06 0.00000E+00
 -1       669 6.51123E-06 7.34862E-06-8.27181E-25
 -1       670 6.40029E-06 7.73075E-06-4.13590E-25
 -1       671 6.29207E-06 8.10563E-06 8.27181E-25
 -1       672 6.18779E-06 8.46986E-06-4.13590E-25
 -1       673 6.08874E-06 8.82009E-06-8.27181E-25
 -1       674 5.99599E-06 9.15287E-06 4.13590E-25
 -1       675 5.91105E-06 9.46492E-06 0.00000E+00
 -1       676 7.15694E-06 9.87035E-06 0.00000E+00
 -1       677 6.89167E-06 9.84653E-06-4.13590E-25
 -1       678 6.62661E-06 9.82274E-06-8.27181E-25
 -1       679 6.36185E-06 9.79904E-06 0.00000E+00
 -1       680 6.09749E-06 9.77532E-06 0.00000E+00
 -1       681 2.07805E-06-9.68209E-09 8.27181E-25
 -1       682 2.12206E-06 6.24729E-08 4.13590E-25
 -1       683 2.16599E-06 2.60605E-08 0.00000E+00
 -1       684 2.21016E-06-8.87844E-08 0.00000E+00
 -1       685 2.25432E-06-2.59823E-07 0.00000E+00
 -1       686 2.29852E-06-4.64932E-07 8.27181E-25
 -1       687 2.34273E-06-6.85419E-07 0.00000E+00
 -1       688 2.38694E-06-9.02619E-07 0.00000E+00
 -1       689 2.43115E-06-1.09755E-06 0.00000E+00
 -1       690 2.47535E-06-1.25116E-06 0.00000E+00
 -1       691 2.51955E-06-1.34026E-06 0.00000E+00
 -1       692 2.56364E-06-1.34151E-06-8.27181E-25
 -1       693 2.60771E-06-1.22274E-06 8.27181E-25
 -1       694 2.65122E-06-9.51528E-07 0.00000E+00
 -1       695 2.69484E-06-4.80110E-07-4.13590E-25
 -1       696 1.72965E-06-1.84947E-07-8.27181E-25
 -1       697 1.37529E-06-1.48174E-07 0.00000E+00
 -1       698 9.98638E-07-1.11465E-07 8.27181E-25
 -1       699 6.26056E-07-7.44805E-08 0.00000E+00
 -1       700 2.84258E-07-3.75087E-08 1.65436E-24
 -1       701 1.88936E-06 3.33566E-08 0.00000E+00
 -1       702 1.74868E-06 2.65950E-07-4.13590E-25
 -1       703 1.61891E-06 4.69947E-07 0.00000E+00
 -1       704 1.50246E-06 6.37105E-07 0.00000E+00
 -1       705 1.40119E-06 7.63784E-07 1.65436E-24
 -1       706 1.31642E-06 8.46232E-07 0.00000E+00
 -1       707 1.24770E-06 8.85869E-07 1.65436E-24
 -1       708 1.19447E-06 8.84173E-07 0.00000E+00
 -1       709 1.15442E-06 8.47316E-07 0.00000E+00
 -1       710 1.12522E-06 7.81551E-07 0.00000E+00
 -1       711 1.10329E-06 6.96433E-07 1.65436E-24
 -1       712 1.08510E-06 6.01588E-07-8.27181E-25
 -1       713 1.06653E-06 5.07755E-07 0.00000E+00
 -1       714 1.04398E-06 4.25860E-07 4.13590E-25
 -1       715 1.01334E-06 3.65048E-07 0.00000E+00
 -1       716 2.74145E-06 9.44768E-07 2.06795E-25
 -1       717 2.74883E-06 1.37185E-06-6.46235E-27
 -1       718 2.75619E-06 1.56148E-06 0.00000E+00
 -1       719 2.76382E-06 1.55413E-06 0.00000E+00
 -1       720 2.77144E-06 1.38694E-06 2.06795E-25
 -1       721 2.77909E-06 1.09700E-06 0.00000E+00
 -1       722 2.78671E-06 7.19307E-07 0.00000E+00
 -1       723 2.79431E-06 2.88798E-07 0.00000E+00
 -1       724 2.80190E-06-1.60464E-07 2.06795E-25
 -1       725 2.80947E-06-5.94427E-07 0.00000E+00
 -1       726 2.81703E-06-9.78790E-07-1.03398E-25
 -1       727 2.82446E-06-1.27922E-06 0.00000E+00
 -1       728 2.83189E-06-1.45997E-06-2.06795E-25
 -1       729 2.83852E-06-1.48524E-06-2.06795E-25
 -1       730 2.84542E-06-1.31664E-06 0.00000E+00
 -1       731 2.01109E-06 2.54035E-07-1.03398E-25
 -1       732 1.52573E-06 2.70203E-07 0.00000E+00
 -1       733 1.22830E-06 2.86337E-07 0.00000E+00
 -1       734 1.06778E-06 3.02779E-07 0.00000E+00
 -1       735 9.98200E-07 3.19258E-07 4.13590E-25
 -1       736 2.20267E-06 1.36297E-06 0.00000E+00
 -1       737 1.43064E-06 3.11196E-06-1.65436E-24
 -1       738 5.16958E-07 5.23717E-06 0.00000E+00
 -1       739-4.44016E-07 7.48599E-06-1.65436E-24
 -1       740-1.34561E-06 9.57740E-06 0.00000E+00
 -1       741-2.08210E-06 1.12307E-05 1.65436E-24
 -1       742-2.58668E-06 1.22680E-05-3.30872E-24
 -1       743-2.79393E-06 1.25139E-05 0.00000E+00
 -1       744-2.70835E-06 1.19787E-05-3.30872E-24
 -1       745-2.33575E-06 1.06762E-05-1.65436E-24
 -1       746-1.74895E-06 8.79997E-06-3.30872E-24
 -1       747-1.02143E-06 6.54648E-06-1.65436E-24
 -1       748-2.59461E-07 4.20064E-06-3.30872E-24
 -1       749 4.31073E-07 2.04800E-06 0.00000E+00
 -1       750 9.59819E-07 3.28613E-07 1.65436E-24
 -1       751 3.04652E-06-4.88048E-07-1.65436E-24
 -1       752 3.25771E-06-2.38202E-07 0.00000E+00
 -1       753 3.46811E-06-1.08657E-07 6.61744E-24
 -1       754 3.68092E-06-4.30894E-08 0.00000E+00
 -1       755 3.89380E-06-2.07092E-08 0.00000E+00
 -1       756 4.10716E-06-2.11407E-08-3.30872E-24
 -1       757 4.32057E-06-3.67251E-08 6.61744E-24
 -1       758 4.53407E-06-5.99481E-08 0.00000E+00
 -1       759 4.74757E-06-8.75570E-08-6.61744E-24
 -1       760 4.96102E-06-1.16341E-07 3.30872E-24
 -1       761 5.17444E-06-1.43746E-07 6.61744E-24
 -1       762 5.38752E-06-1.67202E-07 0.00000E+00
 -1       763 5.60056E-06-1.81941E-07-6.61744E-24
 -1       764 5.81190E-06-1.83109E-07 3.30872E-24
 -1       765 6.02381E-06-1.58307E-07-3.30872E-24
 -1       766 2.30168E-06-8.86869E-07-8.27181E-25
 -1       767 1.70097E-06-8.52811E-07-2.58494E-26
 -1       768 1.16710E-06-8.19081E-07 0.00000E+00
 -1       769 8.21390E-07-7.84761E-07 0.00000E+00
 -1       770 8.00226E-07-7.50179E-07 0.00000E+00
 -1       771 2.54146E-06-5.10166E-07 0.00000E+00
 -1       772 2.26348E-06-1.85905E-07 0.00000E+00
 -1       773 2.01287E-06 6.44497E-08 6.61744E-24
 -1       774 1.78698E-06 2.48357E-07-3.30872E-24
 -1       775 1.58317E-06 3.73283E-07 0.00000E+00
 -1       776 1.39864E-06 4.46716E-07 0.00000E+00
 -1       777 1.23060E-06 4.76148E-07 0.00000E+00
 -1       778 1.07625E-06 4.69079E-07 0.00000E+00
 -1       779 9.32771E-07 4.33010E-07-3.30872E-24
 -1       780 7.97362E-07 3.75448E-07 1.65436E-24
 -1       781 6.67209E-07 3.03903E-07 0.00000E+00
 -1       782 5.39518E-07 2.25891E-07 1.65436E-24
 -1       783 4.11494E-07 1.48929E-07 0.00000E+00
 -1       784 2.80458E-07 8.05555E-08 0.00000E+00
 -1       785 1.43741E-07 2.83105E-08 3.30872E-24
 -1       786 6.24419E-06-2.15703E-08-2.06795E-25
 -1       787 6.26267E-06 3.52661E-08 2.06795E-25
 -1       788 6.28113E-06 7.81387E-08-4.13590E-25
 -1       789 6.29977E-06 1.09574E-07 0.00000E+00
 -1       790 6.31842E-06 1.32095E-07-4.13590E-25
 -1       791 6.33711E-06 1.48223E-07 0.00000E+00
 -1       792 6.35580E-06 1.60480E-07 4.13590E-25
 -1       793 6.37450E-06 1.71386E-07 0.00000E+00
 -1       794 6.39321E-06 1.83461E-07 0.00000E+00
 -1       795 6.41191E-06 1.99226E-07 0.00000E+00
 -1       796 6.43061E-06 2.21201E-07 0.00000E+00
 -1       797 6.44929E-06 2.51909E-07 2.06795E-25
 -1       798 6.46796E-06 2.93874E-07 4.13590E-25
 -1       799 6.48656E-06 3.49617E-07 0.00000E+00
 -1       800 6.50517E-06 4.21671E-07 0.00000E+00
 -1       801 5.67709E-06-7.82759E-08 0.00000E+00
 -1       802 4.53262E-06-6.11719E-08 0.00000E+00
 -1       803 3.09272E-06-4.45206E-08 2.58494E-26
 -1       804 1.65742E-06-2.84453E-08 0.00000E+00
 -1       805 5.26737E-07-1.19704E-08-1.65436E-24
 -1       806 6.17787E-06-2.91662E-08 0.00000E+00
 -1       807 6.13097E-06 2.91523E-08-4.13590E-25
 -1       808 6.08613E-06 8.14435E-08 8.27181E-25
 -1       809 6.04298E-06 1.28998E-07-1.24077E-24
 -1       810 6.00109E-06 1.73098E-07 0.00000E+00
 -1       811 5.96001E-06 2.15021E-07 0.00000E+00
 -1       812 5.91926E-06 2.56039E-07 8.27181E-25
 -1       813 5.87837E-06 2.97427E-07 0.00000E+00
 -1       814 5.83687E-06 3.40457E-07-4.13590E-25
 -1       815 5.79427E-06 3.86402E-07 2.06795E-25
 -1       816 5.75010E-06 4.36534E-07 0.00000E+00
 -1       817 5.70390E-06 4.92127E-07 0.00000E+00
 -1       818 5.65519E-06 5.54454E-07 8.27181E-25
 -1       819 5.60355E-06 6.24788E-07 4.13590E-25
 -1       820 5.54857E-06 7.04406E-07-2.06795E-25
 -1       821 6.50486E-06 6.29087E-07-2.06795E-25
 -1       822 6.48527E-06 7.72153E-07 0.00000E+00
 -1       823 6.46568E-06 9.38966E-07 0.00000E+00
 -1       824 6.44593E-06 1.12672E-06 2.06795E-25
 -1       825 6.42614E-06 1.33260E-06 4.13590E-25
 -1       826 6.40632E-06 1.55381E-06 0.00000E+00
 -1       827 6.38648E-06 1.78753E-06 4.13590E-25
 -1       828 6.36664E-06 2.03094E-06 4.13590E-25
 -1       829 6.34680E-06 2.28123E-06 0.00000E+00
 -1       830 6.32696E-06 2.53559E-06 0.00000E+00
 -1       831 6.30712E-06 2.79119E-06-4.13590E-25
 -1       832 6.28732E-06 3.04521E-06-2.06795E-25
 -1       833 6.26753E-06 3.29485E-06 4.13590E-25
 -1       834 6.24789E-06 3.53728E-06 2.06795E-25
 -1       835 6.22823E-06 3.76968E-06 2.06795E-25
 -1       836 6.38863E-06 5.58693E-07 8.27181E-25
 -1       837 6.21143E-06 6.06475E-07 4.13590E-25
 -1       838 6.01231E-06 6.54170E-07 0.00000E+00
 -1       839 5.81196E-06 7.01748E-07 0.00000E+00
 -1       840 5.63103E-06 7.49399E-07 4.13590E-25
 -1       841 6.47931E-06 6.28740E-07 0.00000E+00
 -1       842 6.42404E-06 7.73978E-07-1.29247E-26
 -1       843 6.35911E-06 9.45055E-07 0.00000E+00
 -1       844 6.28568E-06 1.13860E-06 0.00000E+00
 -1       845 6.20507E-06 1.35125E-06 0.00000E+00
 -1       846 6.11856E-06 1.57962E-06 1.29247E-26
 -1       847 6.02742E-06 1.82030E-06 2.58494E-26
 -1       848 5.93295E-06 2.06988E-06 0.00000E+00
 -1       849 5.83642E-06 2.32492E-06 2.58494E-26
 -1       850 5.73912E-06 2.58200E-06-1.29247E-26
 -1       851 5.64234E-06 2.83769E-06 0.00000E+00
 -1       852 5.54736E-06 3.08855E-06-2.58494E-26
 -1       853 5.45548E-06 3.33115E-06 5.16988E-26
 -1       854 5.36789E-06 3.56204E-06 0.00000E+00
 -1       855 5.28599E-06 3.77786E-06 0.00000E+00
 -1       856 6.18719E-06 4.22552E-06 2.06795E-25
 -1       857 6.16375E-06 4.50480E-06 0.00000E+00
 -1       858 6.14031E-06 4.82147E-06 0.00000E+00
 -1       859 6.11671E-06 5.16984E-06 4.13590E-25
 -1       860 6.09306E-06 5.54423E-06-8.27181E-25
 -1       861 6.06938E-06 5.93896E-06-4.13590E-25
 -1       862 6.04569E-06 6.34834E-06-8.27181E-25
 -1       863 6.02198E-06 6.76666E-06 0.00000E+00
 -1       864 5.99828E-06 7.18824E-06 8.27181E-25
 -1       865 5.97457E-06 7.60738E-06-4.13590E-25
 -1       866 5.95088E-06 8.01839E-06 0.00000E+00
 -1       867 5.92721E-06 8.41557E-06 0.00000E+00
 -1       868 5.90356E-06 8.79324E-06 8.27181E-25
 -1       869 5.88002E-06 9.14569E-06 0.00000E+00
 -1       870 5.85648E-06 9.46726E-06 0.00000E+00
 -1       871 6.02389E-06 3.98724E-06 0.00000E+00
 -1       872 5.85344E-06 3.98502E-06-1.03398E-25
 -1       873 5.69258E-06 3.98274E-06 0.00000E+00
 -1       874 5.53561E-06 3.98039E-06 0.00000E+00
 -1       875 5.37681E-06 3.97793E-06 2.06795E-25
 -1       876 6.15394E-06 4.23336E-06 0.00000E+00
 -1       877 6.08597E-06 4.51449E-06-4.13590E-25
 -1       878 6.00600E-06 4.82747E-06 0.00000E+00
 -1       879 5.91602E-06 5.16771E-06-4.13590E-25
 -1       880 5.81761E-06 5.53049E-06 8.27181E-25
 -1       881 5.71253E-06 5.91114E-06 0.00000E+00
 -1       882 5.60249E-06 6.30501E-06 0.00000E+00
 -1       883 5.48924E-06 6.70745E-06-4.13590E-25
 -1       884 5.37452E-06 7.11379E-06 0.00000E+00
 -1       885 5.26007E-06 7.51941E-06 0.00000E+00
 -1       886 5.14763E-06 7.91964E-06 8.27181E-25
 -1       887 5.03892E-06 8.30983E-06 4.13590E-25
 -1       888 4.93568E-06 8.68533E-06-8.27181E-25
 -1       889 4.83948E-06 9.04141E-06-4.13590E-25
 -1       890 4.75231E-06 9.37351E-06 4.13590E-25
 -1       891 5.60584E-06 9.73972E-06-4.13590E-25
 -1       892 5.42313E-06 9.72696E-06 2.06795E-25
 -1       893 5.26209E-06 9.71422E-06 0.00000E+00
 -1       894 5.09925E-06 9.70150E-06 2.06795E-25
 -1       895 4.91113E-06 9.68876E-06 0.00000E+00
 -1       896 6.05195E-08 2.21338E-07 0.00000E+00
 -1       897 1.21550E-07 3.75505E-07 0.00000E+00
 -1       898 1.82556E-07 4.76601E-07 1.65436E-24
 -1       899 2.43660E-07 5.38579E-07 8.27181E-25
 -1       900 3.04767E-07 5.69872E-07 0.00000E+00
 -1       901 3.65893E-07 5.78833E-07 0.00000E+00
 -1       902 4.27021E-07 5.70661E-07-1.65436E-24
 -1       903 4.88149E-07 5.50509E-07 0.00000E+00
 -1       904 5.49274E-07 5.21839E-07 1.65436E-24
 -1       905 6.10384E-07 4.88090E-07-8.27181E-25
 -1       906 6.71484E-07 4.51984E-07-1.65436E-24
 -1       907 7.32508E-07 4.16238E-07 0.00000E+00
 -1       908 7.93521E-07 3.83617E-07 0.00000E+00
 -1       909 8.54151E-07 3.56896E-07-8.27181E-25
 -1       910 9.14911E-07 3.39681E-07 0.00000E+00
 -1       911 9.90346E-07 3.58558E-07 0.00000E+00
 -1       912 1.00725E-06 4.22038E-07 0.00000E+00
 -1       913 1.02414E-06 5.14898E-07 4.13590E-25
 -1       914 1.04107E-06 6.26012E-07-2.06795E-25
 -1       915 1.05800E-06 7.44949E-07 0.00000E+00
 -1       916 1.07494E-06 8.61279E-07 0.00000E+00
 -1       917 1.09188E-06 9.64475E-07 4.13590E-25
 -1       918 1.10882E-06 1.04400E-06 2.06795E-25
 -1       919 1.12576E-06 1.08843E-06 4.13590E-25
 -1       920 1.14268E-06 1.08629E-06-2.06795E-25
 -1       921 1.15959E-06 1.02437E-06 0.00000E+00
 -1       922 1.17642E-06 8.89399E-07 0.00000E+00
 -1       923 1.19323E-06 6.65352E-07 4.13590E-25
 -1       924 1.20962E-06 3.36126E-07 0.00000E+00
 -1       925 1.22610E-06-1.18335E-07 0.00000E+00
 -1       926 1.16489E-06-1.37849E-06 0.00000E+00
 -1       927 1.08749E-06-2.01261E-06 8.27181E-25
 -1       928 1.01025E-06-2.57440E-06 1.65436E-24
 -1       929 9.32714E-07-3.01799E-06 0.00000E+00
 -1       930 8.55221E-07-3.31661E-06 0.00000E+00
 -1       931 7.77695E-07-3.44401E-06-8.27181E-25
 -1       932 7.00165E-07-3.40165E-06 0.00000E+00
 -1       933 6.22599E-07-3.19158E-06 0.00000E+00
 -1       934 5.44993E-07-2.84301E-06 0.00000E+00
 -1       935 4.67334E-07-2.38559E-06-1.65436E-24
 -1       936 3.89641E-07-1.86664E-06-3.30872E-24
 -1       937 3.11909E-07-1.33366E-06 1.65436E-24
 -1       938 2.34187E-07-8.36423E-07 0.00000E+00
 -1       939 1.56339E-07-4.24588E-07 0.00000E+00
 -1       940 7.85862E-08-1.33982E-07 3.30872E-24
 -1       941 3.25395E-07 5.26952E-08 0.00000E+00
 -1       942 6.68766E-07 1.00017E-07 0.00000E+00
 -1       943 1.01099E-06 1.43979E-07-6.61744E-24
 -1       944 1.35664E-06 1.86543E-07 6.61744E-24
 -1       945 1.70238E-06 2.28246E-07 0.00000E+00
 -1       946 2.04881E-06 2.69612E-07 0.00000E+00
 -1       947 2.39532E-06 3.10822E-07 0.00000E+00
 -1       948 2.74194E-06 3.52053E-07 0.00000E+00
 -1       949 3.08858E-06 3.93506E-07 0.00000E+00
 -1       950 3.43512E-06 4.35382E-07 0.00000E+00
 -1       951 3.78161E-06 4.78319E-07 1.32349E-23
 -1       952 4.12755E-06 5.22970E-07-6.61744E-24
 -1       953 4.47342E-06 5.71742E-07 0.00000E+00
 -1       954 4.81653E-06 6.27104E-07-3.30872E-24
 -1       955 5.16057E-06 6.98246E-07-6.61744E-24
 -1       956 5.47302E-06 9.20006E-07-3.10193E-25
 -1       957 5.45560E-06 1.06473E-06 1.03398E-25
 -1       958 5.43812E-06 1.22684E-06-2.06795E-25
 -1       959 5.42060E-06 1.40428E-06 0.00000E+00
 -1       960 5.40307E-06 1.59499E-06 2.06795E-25
 -1       961 5.38553E-06 1.79691E-06 1.03398E-25
 -1       962 5.36799E-06 2.00794E-06-4.13590E-25
 -1       963 5.35044E-06 2.22602E-06 0.00000E+00
 -1       964 5.33290E-06 2.44906E-06 0.00000E+00
 -1       965 5.31535E-06 2.67499E-06 0.00000E+00
 -1       966 5.29781E-06 2.90173E-06-4.13590E-25
 -1       967 5.28027E-06 3.12720E-06 0.00000E+00
 -1       968 5.26274E-06 3.34933E-06 0.00000E+00
 -1       969 5.24523E-06 3.56604E-06 0.00000E+00
 -1       970 5.22778E-06 3.77527E-06 8.27181E-25
 -1       971 5.17792E-06 4.18958E-06 0.00000E+00
 -1       972 5.14438E-06 4.45001E-06 0.00000E+00
 -1       973 5.11084E-06 4.75060E-06 8.27181E-25
 -1       974 5.07716E-06 5.08556E-06 4.13590E-25
 -1       975 5.04345E-06 5.44912E-06-8.27181E-25
 -1       976 5.00970E-06 5.83547E-06 4.13590E-25
 -1       977 4.97594E-06 6.23883E-06 0.00000E+00
 -1       978 4.94218E-06 6.65338E-06-4.13590E-25
 -1       979 4.90841E-06 7.07333E-06 0.00000E+00
 -1       980 4.87465E-06 7.49286E-06-4.13590E-25
 -1       981 4.84090E-06 7.90617E-06 8.27181E-25
 -1       982 4.80719E-06 8.30745E-06 4.13590E-25
 -1       983 4.77351E-06 8.69091E-06 0.00000E+00
 -1       984 4.74003E-06 9.05073E-06 0.00000E+00
 -1       985 4.70655E-06 9.38114E-06 8.27181E-25
 -3
    1PSTEP                         6           3           1          
  100CL  103 1.30859E-01         841                     0    3           1
 -4  STRESS      6    1
 -5  SXX         1    4    1    1
 -5  SYY         1    4    2    2
 -5  SZZ         1    4    3    3
 -5  SXY         1    4    1    2
 -5  SYZ         1    4    2    3
 -5  SZX         1    4    3    1
 -1         1-5.56299E+05-1.79048E+05-1.15143E+05-1.57031E+05-1.57646E-11 2.27980E-10
 -1         2-3.52684E+05-2.48438E+04 4.45179E+02-3.48496E+04-3.43135E-10 5.40695E-10
 -1         3-1.85529E+05-6.29502E+04-1.05207E+04-1.51275E+04 2.90711E-10 2.72280E-11
 -1         4-9.56200E+04-1.58231E+04 1.46662E+02-9.33278E+03 1.14628E-11-4.46221E-12
 -1         5-5.09291E+04 2.23654E+04-2.37476E+04-1.00688E+03 1.84309E-09 6.91955E-10
 -1         8-3.00018E+05-1.20471E+05-4.60184E+04-1.10466E+05-7.45786E-11 6.40284E-10
 -1         9-3.17381E+05-7.55415E+04-3.99574E+04-7.18648E+04-2.85278E-10 4.02603E-10
 -1        10-1.56767E+05-8.57888E+04-1.00315E+04-3.82641E+04-7.64468E-10-2.40865E-10
 -1        11-9.18133E+04-2.46039E+04 1.27756E+02-1.98849E+04 2.50348E-10 7.28164E-11
 -1        12-6.02166E+04 1.72746E+04-2.64263E+04-8.01006E+03 6.29186E-10 1.71695E-10
 -1        15 3.38865E+03-1.50929E+04 5.75894E+02-2.65388E+04-1.52568E-10 7.23048E-10
 -1        16-1.70044E+05-2.62807E+04 1.22680E+04-7.94715E+04 1.85385E-10 4.80213E-10
 -1        17-1.04638E+05-6.79695E+04-1.11928E+04-5.69879E+04-8.01416E-10 1.25207E-10
 -1        18-5.06262E+04-2.56939E+04-1.89525E+04-2.78945E+04 1.23578E-10 2.45033E-10
 -1        19-1.15633E+04 1.22210E+04-1.04045E+04-8.20304E+03-1.56585E-10 1.44534E-10
 -1        20 1.74755E+04-1.31072E+04-2.26855E+03 9.53639E+03 9.06994E-10-2.50225E-10
 -1        21 2.30518E+02-2.61550E+04 7.24906E+03 5.73477E+00 2.66228E-09 6.55990E-10
 -1        22 5.76321E+03 3.33809E+04 2.23665E+02-8.17472E+03-1.62686E-10 1.61663E-10
 -1        23-6.82314E+04 1.66782E+03 7.55116E+02-3.08262E+04-2.60343E-11 9.67096E-11
 -1        24-3.81370E+04 7.63438E+03 5.00825E+04-8.29118E+04-2.79018E-09 1.91600E-10
 -1        25 1.03772E+05 3.32959E+04 3.14961E+04-5.19148E+04 1.81065E-10 1.20887E-10
 -1        26 4.14171E+02 2.76035E+04 1.37643E+03-5.11666E+03-1.05985E-10-5.85525E-10
 -1        27-6.12131E+03-1.09715E+04-4.73550E+03 1.32704E+04 1.70833E-10-8.00052E-10
 -1        28-2.09178E+03-2.07579E+04-1.13288E+02 1.00420E+04-9.96806E-10-1.25270E-10
 -1        29 8.37365E+04 5.69280E+04 2.36343E+02-3.33385E+02 4.71618E-11 1.58593E-10
 -1        30 2.59676E+04 8.38724E+03 3.54338E+02-7.86347E+03-2.68638E-10 2.76714E-10
 -1        31-9.64759E+04 7.57097E+03 8.61797E+02-2.10489E+04 1.70164E-09-6.41649E-10
 -1        32 1.42650E+05 7.97513E+04 1.01022E+05-8.54089E+04 2.35932E-09 7.72161E-10
 -1        33 2.42348E+05 9.61022E+04 7.40808E+04-7.45153E+03-4.77029E-09 6.60521E-11
 -1        34-3.52632E+04-4.46301E+03-8.38260E+02 7.63492E+03-7.38547E-11 2.33285E-10
 -1        35-5.92692E+03-6.94634E+03-1.22491E+02 1.50054E+04 9.66040E-10-4.92643E-10
 -1        36-7.54532E+05 2.31361E+04-5.34900E+04 7.77886E-08-6.08087E-10 1.01863E-09
 -1        37-7.77690E+05-2.67827E+04-3.78523E+04 1.61158E-07-6.34950E-10-9.20409E-10
 -1        38-7.63474E+05 3.62670E+03-1.38454E+04 8.34271E-08-6.43914E-10 3.17414E-10
 -1        39-7.67264E+05-4.19691E+03-8.70689E+03-1.56887E-08-1.32270E-09 4.33715E-10
 -1        40-7.64947E+05 5.67253E+02-3.55732E+03-5.91534E-08-3.28987E-11 1.07320E-10
 -1        41-7.65543E+05-6.63911E+02-2.12037E+03-1.23458E-08-1.32563E-10 5.40012E-10
 -1        42-7.65191E+05 9.62671E+01-1.02955E+03 2.77307E-08-1.04009E-09 9.22853E-11
 -1        43-7.65283E+05-1.65654E+02-8.01821E+02 1.21626E-08 2.88775E-10-1.75209E-10
 -1        44-7.65206E+05 6.93186E+01-7.88142E+02-3.01982E-08-8.25994E-10-9.03100E-11
 -1        45-7.65418E+05-4.32204E+02-1.42155E+03-2.54414E-09-1.08384E-09 8.61476E-10
 -1        46-7.65056E+05 3.62636E+02-2.29956E+03 4.58505E-08-7.97772E-10 1.69189E-09
 -1        47-7.66509E+05-2.67548E+03-5.56492E+03 1.00959E-07-4.18096E-10 1.17927E-09
 -1        48-7.64118E+05 2.31096E+03-8.83010E+03-8.71978E-09-5.02162E-10 3.29692E-10
 -1        49-7.73151E+05-1.70653E+04-2.41222E+04-8.79387E-08-1.61407E-09-7.28960E-10
 -1        50-7.58422E+05 1.47412E+04-3.40865E+04-4.23363E-08-1.00412E-09 1.36424E-10
 -1        51 6.15336E+03-7.34257E+04 9.75651E+03-1.90897E+05 1.09139E-11-1.29148E-09
 -1        52 2.43014E+03-7.20185E+04 5.84845E+03-2.10127E+05 5.09317E-11-3.81988E-11
 -1        53 1.30253E+03-7.32939E+04 4.70652E+03-1.90419E+05 1.81899E-11-4.01997E-10
 -1        54 3.27943E+03-7.21047E+04 7.12276E+03-2.10658E+05-2.54659E-11-1.03046E-09
 -1        55 8.60612E+03-7.42018E+04 1.29438E+04-1.90355E+05-3.45608E-11-6.43922E-10
 -1        56-8.39019E+05-9.48451E+04-6.90459E+04-3.24634E+05 1.74623E-10 1.54250E-09
 -1        57-8.71610E+05-1.50809E+05-4.63018E+04-3.16360E+05 6.00267E-11-4.31555E-10
 -1        58-8.52374E+05-1.16660E+05-1.62725E+04-3.20949E+05 1.94859E-10-5.90262E-10
 -1        59-8.56221E+05-1.25118E+05-9.64672E+03-3.20812E+05 8.03198E-11-1.10276E-11
 -1        60-8.54270E+05-1.19671E+05-3.80814E+03-3.20499E+05 6.77574E-11-4.67480E-10
 -1        61-8.54060E+05-1.21565E+05-2.15560E+03-3.21322E+05-3.67891E-10 4.16236E-10
 -1        62-8.54514E+05-1.20105E+05-1.05200E+03-3.20478E+05 1.14511E-10-6.00949E-10
 -1        63-8.53850E+05-1.21079E+05-8.81297E+02-3.21302E+05-3.59698E-10-1.53829E-10
 -1        64-8.54477E+05-1.20147E+05-1.02506E+03-3.20523E+05-2.74468E-10 1.60071E-10
 -1        65-8.54205E+05-1.21383E+05-2.07626E+03-3.21141E+05 3.14486E-11-2.88310E-10
 -1        66-8.54162E+05-1.19811E+05-3.65756E+03-3.20635E+05-3.06386E-10-9.60654E-10
 -1        67-8.56433E+05-1.24636E+05-9.25789E+03-3.20473E+05 2.61053E-10 6.51653E-10
 -1        68-8.52267E+05-1.16998E+05-1.56149E+04-3.21153E+05 4.91127E-11 3.45608E-10
 -1        69-8.71342E+05-1.49143E+05-4.44276E+04-3.16036E+05 6.17547E-10-3.14230E-10
 -1        70-8.39386E+05-9.61349E+04-6.62526E+04-3.24768E+05-6.29370E-10-3.49246E-10
 -1        71-3.58327E+05-8.36336E+02 1.93372E+03-4.47515E-08-1.97838E-10-9.77707E-12
 -1        72-3.57455E+05 9.68125E+02 1.36672E+03 3.63409E-08 2.41611E-10 2.79087E-10
 -1        73-3.58003E+05-1.31024E+02 4.96773E+02-8.65361E-08 2.06651E-10-1.22185E-10
 -1        74-3.57832E+05 1.51053E+02 3.06471E+02 2.02937E-08-2.91975E-10-4.98527E-10
 -1        75-3.57950E+05-1.99203E+01 1.12524E+02 1.74064E-09-1.90479E-10-6.48015E-10
 -1        76-3.57897E+05 1.95075E+01 4.21452E+01-3.78076E-08-1.30594E-10 1.56217E-09
 -1        77-3.57939E+05 4.26711E-01-2.75026E+01-3.04594E-08-1.27691E-10 1.09580E-09
 -1        78-3.57921E+05-2.34347E+01-1.13523E+02 5.89365E-08-9.73844E-11 1.32239E-10
 -1        79-3.57925E+05 2.29982E+01-2.29855E+02-8.38383E-09-1.42244E-10-6.06761E-10
 -1        80-3.58002E+05-1.74572E+02-5.43512E+02 4.30760E-08 8.99964E-11-1.89743E-10
 -1        81-3.57858E+05 1.51468E+02-9.41560E+02 1.45790E-08-8.62275E-11-1.82126E-10
 -1        82-3.58464E+05-1.12325E+03-2.32620E+03 1.31646E-07 1.49515E-10-6.22379E-10
 -1        83-3.57463E+05 9.70988E+02-3.70579E+03-7.83015E-09-4.30479E-10-4.10182E-10
 -1        84-3.61256E+05-7.17094E+03-1.01354E+04 1.39840E-08-9.44682E-10 9.43828E-10
 -1        85-3.55069E+05 6.19438E+03-1.43259E+04 9.55055E-10-5.68910E-10 1.04592E-10
 -1        86-1.64503E+04 3.80176E+04 3.86309E+04 1.65585E+02-7.27596E-12 4.97089E-10
 -1        87 2.04325E+04 5.52540E+04 2.97769E+04-6.84872E+02-7.63976E-11-5.56793E-10
 -1        88-3.96562E+03 4.37216E+04 1.49576E+04 1.39020E+02-1.61663E-10-1.46211E-09
 -1        89 1.34423E+04 5.20123E+04 2.06671E+04-6.52482E+02-6.87805E-11 1.67236E-10
 -1        90-9.46591E+03 4.12579E+04 2.29593E+04 1.33197E+02-2.07365E-10 9.59877E-10
 -1        91-3.80072E+05-5.17656E+04-4.61955E+03-1.43489E+05 6.55064E-10-9.68839E-10
 -1        92-3.82928E+05-5.55213E+04-3.20275E+03-1.42118E+05 8.06779E-10 5.13097E-10
 -1        93-3.80836E+05-5.35895E+04-1.08466E+03-1.43362E+05 2.23878E-10 4.06260E-10
 -1        94-3.81987E+05-5.34581E+04-6.81429E+02-1.42317E+05-2.03215E-10 2.76700E-10
 -1        95-3.81012E+05-5.38274E+04-2.64240E+02-1.43290E+05-1.49274E-10 2.20936E-10
 -1        96-3.81580E+05-5.33743E+04-1.70718E+02-1.42613E+05-2.10588E-10-4.35600E-10
 -1        97-3.81243E+05-5.36733E+04-1.19570E+02-1.43066E+05-2.29949E-10-6.14033E-10
 -1        98-3.81136E+05-5.37860E+04-1.63700E+02-1.43104E+05-4.18908E-10 2.47611E-10
 -1        99-3.81456E+05-5.34157E+04-2.68833E+02-1.42799E+05-2.55056E-10-1.29617E-10
 -1       100-3.80932E+05-5.43366E+04-6.42481E+02-1.43473E+05 2.61320E-10 1.18661E-09
 -1       101-3.81447E+05-5.31226E+04-1.10486E+03-1.42697E+05 6.50843E-10 1.10492E-09
 -1       102-3.81696E+05-5.56869E+04-2.97227E+03-1.43259E+05 2.77709E-10 1.88265E-10
 -1       103-3.80693E+05-5.20663E+04-4.76084E+03-1.43012E+05 7.41238E-11 9.39735E-10
 -1       104-3.86818E+05-6.38254E+04-1.40961E+04-1.41298E+05 5.42059E-10 1.31149E-09
 -1       105-3.76328E+05-4.49901E+04-2.03141E+04-1.44658E+05-2.48292E-10 3.25599E-10
 -1       106-2.03512E+05 2.95994E+02-6.85005E+02-3.68717E-08 2.01180E-10-7.03437E-11
 -1       107-2.03791E+05-3.42707E+02-4.85366E+02-2.56171E-08 6.52144E-11 1.37852E-10
 -1       108-2.03626E+05 4.64419E+01-1.79189E+02 5.11172E-08 8.21577E-11 4.44651E-10
 -1       109-2.03658E+05-5.40266E+01-1.15597E+02 6.94969E-08 3.09444E-10 3.68587E-10
 -1       110-2.03645E+05 7.54635E+00-5.34961E+01 6.13176E-09 1.80229E-10-2.41490E-10
 -1       111-2.03637E+05-1.07041E+01-4.41472E+01-5.26879E-08-4.30957E-10 1.02023E-09
 -1       112-2.03647E+05 3.15250E+00-4.50344E+01-4.15460E-08-4.38739E-10 3.70937E-10
 -1       113-2.03641E+05-1.65852E+01-8.03664E+01-6.43760E-08 2.96853E-11 5.22038E-10
 -1       114-2.03641E+05 1.34259E+01-1.37156E+02 6.33421E-09 6.07820E-11 3.06031E-11
 -1       115-2.03684E+05-9.90368E+01-3.10757E+02 2.17285E-08-4.36640E-10-4.51688E-10
 -1       116-2.03603E+05 8.55514E+01-5.33349E+02-6.15611E-08 3.28721E-11-9.98170E-11
 -1       117-2.03945E+05-6.34013E+02-1.31398E+03-3.89397E-08-1.63377E-10-3.75451E-11
 -1       118-2.03380E+05 5.48005E+02-2.09218E+03-2.81849E-08-2.16776E-10-4.33147E-10
 -1       119-2.05520E+05-4.04709E+03-5.72073E+03-5.54126E-08-4.19318E-11 4.13934E-10
 -1       120-2.02029E+05 3.49594E+03-8.08567E+03-1.81863E-10 3.75784E-11 3.60615E-10
 -1       121-2.85560E+02-1.81855E+05 1.35940E+03 1.59379E+03-6.55973E-11 5.65024E-11
 -1       122 4.24579E+02-1.81347E+05 9.65993E+02 5.71432E+03-1.60668E-10 8.48502E-10
 -1       123-5.09697E+01-1.81675E+05 5.86673E+02 1.60513E+03-1.94504E-10 6.96900E-11
 -1       124 3.35703E+02-1.81396E+05 8.06845E+02 5.67715E+03-3.73916E-10-1.25027E-09
 -1       125-2.19652E+02-1.81801E+05 1.05518E+03 1.63096E+03-3.97790E-10-2.15323E-10
 -1       126-1.77735E+05-2.47457E+04-5.83777E+02-6.67249E+04-2.76259E-11-1.86475E-10
 -1       127-1.77946E+05-2.53595E+04-4.05375E+02-6.67084E+04 2.98084E-09-2.22278E-09
 -1       128-1.77867E+05-2.49420E+04-1.37799E+02-6.66697E+04 1.19284E-06-4.46708E-07
 -1       129-1.77794E+05-2.51318E+04-8.77113E+01-6.67714E+04 2.37980E-06-8.91735E-07
 -1       130-1.77888E+05-2.49732E+04-3.63511E+01-6.66619E+04 1.19275E-06-4.46671E-07
 -1       131-1.77782E+05-2.50864E+04-2.90803E+01-6.67677E+04 3.51532E-09-1.40361E-09
 -1       132-1.77879E+05-2.49874E+04-2.77955E+01-6.66734E+04-1.42092E-10 1.03854E-09
 -1       133-1.77816E+05-2.50609E+04-5.30332E+01-6.67315E+04 6.15869E-10 2.78260E-10
 -1       134-1.77853E+05-2.49987E+04-9.13494E+01-6.66982E+04-9.16309E-10-4.28493E-11
 -1       135-1.77903E+05-2.50913E+04-2.26455E+02-6.66707E+04 5.37644E-10 3.24047E-10
 -1       136-1.77792E+05-2.49570E+04-3.90460E+02-6.67342E+04-6.93802E-10 1.00465E-09
 -1       137-1.78218E+05-2.55237E+04-1.05182E+03-6.65428E+04-1.91026E-08 8.20485E-09
 -1       138-1.77539E+05-2.45666E+04-1.68396E+03-6.68260E+04-7.37978E-06 2.76742E-06
 -1       139-1.79945E+05-2.84957E+04-4.98928E+03-6.59552E+04-1.47101E-05 5.52029E-06
 -1       140-1.76066E+05-2.19870E+04-7.18627E+03-6.73212E+04-7.38511E-06 2.76884E-06
 -1       141-9.62407E+04-6.20470E+02 1.43441E+03 1.33911E-08 8.18134E-12-7.36691E-11
 -1       142-9.56092E+04 7.18209E+02 1.01333E+03 6.36037E-08-1.23841E-10 1.14696E-10
 -1       143-9.60006E+04-9.71736E+01 3.67146E+02-8.56813E-10 3.93029E-11-6.11038E-10
 -1       144-9.58893E+04 1.11814E+02 2.24264E+02-4.77593E-08-1.47519E-10 2.39471E-10
 -1       145-9.59606E+04-1.45591E+01 7.74559E+01-5.25382E-08-6.72074E-11-9.39743E-10
 -1       146-9.59384E+04 1.27904E+01 1.83300E+01 4.76000E-08-6.99043E-11-5.43272E-10
 -1       147-9.59515E+04 1.77879E+00-4.46717E+01 2.48277E-08-1.15233E-10-3.74776E-11
 -1       148-9.59620E+04-2.83989E+01-1.37640E+02-8.02527E-08 1.12067E-10-1.88408E-10
 -1       149-9.59370E+04 2.66082E+01-2.67360E+02-6.95142E-08 4.74798E-12-3.19901E-10
 -1       150-9.60532E+04-2.00700E+02-6.26129E+02-2.37566E-08-1.44764E-10-4.63018E-10
 -1       151-9.58603E+04 1.73972E+02-1.08245E+03 3.54609E-08-9.86718E-11-1.55751E-11
 -1       152-9.65841E+04-1.28993E+03-2.67235E+03-4.62290E-09 1.10983E-11 2.08615E-11
 -1       153-9.54062E+04 1.11504E+03-4.25671E+03-8.58973E-09 4.38172E-10 5.65251E-10
 -1       154-9.97893E+04-8.23483E+03-1.16403E+04 2.23074E-08 2.10045E-10 4.05635E-10
 -1       155-9.26552E+04 7.11336E+03-1.64521E+04 8.75492E-09 1.12069E-09 3.75621E-10
 -1       156-3.13692E+03-3.33204E+04 7.46668E+03-7.56332E+01-3.32875E-10 1.94963E-05
 -1       157 4.12812E+03-2.99170E+04 6.16405E+03 3.06943E+02-1.28603E-09 3.88165E-05
 -1       158-9.87968E+02-3.23463E+04 3.72625E+03-7.48545E+01-1.34975E-10 1.94819E-05
 -1       159 4.31112E+03-2.98303E+04 6.40272E+03 2.99549E+02 2.56932E-11 5.54260E-08
 -1       160-3.31981E+03-3.34070E+04 7.87608E+03-6.82387E+01 9.36780E-11 3.57994E-09
 -1       161-1.00837E+05-1.40798E+04-2.42635E+02-3.78484E+04 7.25630E-07-2.72084E-07
 -1       162-1.00933E+05-1.43250E+04-1.69341E+02-3.78299E+04 1.44382E-06-5.40976E-07
 -1       163-1.00888E+05-1.41658E+04-5.92466E+01-3.78307E+04-1.05433E-06 3.94880E-07
 -1       164-1.00876E+05-1.42247E+04-4.11238E+01-3.78487E+04-3.55906E-06 1.33485E-06
 -1       165-1.00894E+05-1.41801E+04-2.42627E+01-3.78296E+04-6.18850E-06 2.32039E-06
 -1       166-1.00873E+05-1.42095E+04-3.33162E+01-3.78469E+04-8.81507E-06 3.30625E-06
 -1       167-1.00890E+05-1.41810E+04-5.18124E+01-3.78325E+04-1.05388E-05 3.95151E-06
 -1       168-1.00895E+05-1.42290E+04-1.18598E+02-3.78370E+04-1.22585E-05 4.59905E-06
 -1       169-1.00872E+05-1.41606E+04-2.14090E+02-3.78395E+04-1.27070E-05 4.76395E-06
 -1       170-1.01010E+05-1.43971E+04-5.37701E+02-3.77996E+04-1.31501E-05 4.93378E-06
 -1       171-1.00776E+05-1.40129E+04-9.28614E+02-3.78698E+04-1.22002E-05 4.57430E-06
 -1       172-1.01675E+05-1.55095E+04-2.50371E+03-3.75900E+04-1.12430E-05 4.21759E-06
 -1       173-1.00207E+05-1.30489E+04-4.00854E+03-3.80489E+04-9.07886E-06 3.40351E-06
 -1       174-1.05738E+05-2.26307E+04-1.18765E+04-3.62448E+04-6.90181E-06 2.58880E-06
 -1       175-9.67134E+04-6.89641E+03-1.71055E+04-3.92135E+04-3.45923E-06 1.29607E-06
 -1       191 1.90432E+02 9.28565E+04 3.03334E+02-1.93047E+03-1.13232E-10 5.51836E-10
 -1       192 7.11094E+01 9.28972E+04 1.81559E+02-2.05264E+03-1.54387E-10 5.83896E-10
 -1       193 3.47031E+01 9.28713E+04 1.46625E+02-1.89155E+03-2.91124E-10 2.47837E-10
 -1       194 9.35721E+01 9.29043E+04 2.22341E+02-2.12633E+03-3.42595E-10 9.01537E-10
 -1       195 2.60376E+02 9.28483E+04 4.04779E+02-1.85673E+03-4.77030E-10 1.10958E-10
 -1       251-4.95040E+05 1.18516E+04-2.74118E+04-5.39139E+02-2.08715E-10-5.76620E-10
 -1       252-5.06833E+05-1.37183E+04-1.93854E+04 6.04585E+02 3.98046E-11-1.12777E-10
 -1       253-4.99644E+05 1.85585E+03-7.10477E+03-2.07422E+01-9.01622E-10-1.97815E-10
 -1       254-5.01489E+05-2.14847E+03-4.45634E+03-4.52576E+02-9.63155E-10 1.29467E-09
 -1       255-5.00380E+05 2.90532E+02-1.83652E+03 5.18041E+02-2.41773E-10-1.73145E-10
 -1       256-5.00647E+05-3.43190E+02-1.10547E+03-1.17855E+03-2.40998E-10-5.42897E-10
 -1       257-5.00486E+05 5.27766E+01-5.67825E+02 7.05245E+02-1.51146E-10 6.50900E-10
 -1       258-5.00515E+05-1.03043E+02-4.95516E+02-1.07137E+03-2.14292E-10-1.09451E-10
 -1       259-5.00511E+05 5.03680E+01-5.69946E+02 4.10865E+02-3.85846E-10 2.73104E-10
 -1       260-5.00602E+05-3.37802E+02-1.08790E+03-2.06363E+02-1.97189E-09-1.21048E-10
 -1       261-5.00399E+05 2.86566E+02-1.82445E+03-1.59783E+02-5.55289E-10-3.67663E-10
 -1       262-5.01492E+05-2.13032E+03-4.41999E+03 8.13730E+02 7.82610E-11 2.48752E-09
 -1       263-4.99623E+05 1.84199E+03-7.03631E+03-6.09245E+02-5.25038E-10-2.18733E-10
 -1       264-5.06815E+05-1.35995E+04-1.92227E+04 1.27779E+03-9.85421E-10-1.78034E-10
 -1       265-4.95081E+05 1.17474E+04-2.71694E+04-6.23851E+02-1.25386E-09-7.45786E-11
 -1       266-4.09875E+03-8.41171E+04 9.26273E+03 6.82181E+02-5.91172E-12-5.84883E-10
 -1       267 4.34677E+03-8.00491E+04 5.86025E+03-2.47680E+03 4.54747E-12-6.21307E-11
 -1       268-2.42173E+02-8.22613E+04 9.20315E+02 7.68241E+02-2.22826E-11 3.78184E-10
 -1       269-2.24482E+03-8.31239E+04-2.73156E+03-2.50929E+03-2.61480E-12 1.03608E-09
 -1       270 2.48812E+03-8.10436E+04-5.50393E+03 7.14671E+02-5.91172E-12 1.73086E-09
 -1       271-7.04112E+05-8.94000E+04-5.44289E+04-2.72055E+05-8.91305E-11 4.18368E-10
 -1       272-7.21278E+05-1.25290E+05-3.41228E+04-2.74338E+05-2.29932E-10-2.95586E-10
 -1       273-7.13434E+05-1.01166E+05-1.28389E+04-2.70812E+05 9.83107E-11 7.94898E-10
 -1       274-7.10512E+05-1.09721E+05-7.01069E+03-2.76706E+05-1.90767E-10 2.04182E-10
 -1       275-7.14516E+05-1.02355E+05-2.98551E+03-2.70673E+05 7.46809E-10 1.90585E-09
 -1       276-7.09256E+05-1.08198E+05-1.57540E+03-2.76968E+05 3.47427E-10-4.28770E-10
 -1       277-7.14668E+05-1.02459E+05-8.09555E+02-2.70640E+05 2.52612E-10-2.00970E-10
 -1       278-7.09097E+05-1.08083E+05-6.31704E+02-2.77018E+05 1.21773E-10-6.03059E-10
 -1       279-7.14677E+05-1.02452E+05-7.53473E+02-2.70632E+05-1.77970E-10-6.03848E-10
 -1       280-7.09213E+05-1.08207E+05-1.42200E+03-2.77004E+05-5.11022E-11-6.36277E-10
 -1       281-7.14553E+05-1.02348E+05-2.67137E+03-2.70649E+05-5.67212E-10-6.61657E-10
 -1       282-7.10318E+05-1.09586E+05-6.26291E+03-2.76794E+05-6.94911E-11 1.51419E-09
 -1       283-7.13596E+05-1.01277E+05-1.14624E+04-2.70764E+05-3.10649E-11 1.50067E-11
 -1       284-7.19913E+05-1.23503E+05-3.04643E+04-2.74702E+05 2.51248E-11 3.37877E-10
 -1       285-7.05283E+05-9.07640E+04-4.85911E+04-2.71863E+05-6.62567E-10-1.30967E-09
 -1       286-1.21098E+05-2.80816E+03 6.49358E+03-3.98912E+01 3.20082E-10-1.02773E-10
 -1       287-1.18251E+05 3.25093E+03 4.59767E+03-6.75631E+01 1.06564E-10 1.23350E-11
 -1       288-1.20012E+05-4.40333E+02 1.68093E+03 1.85621E+01-9.36282E-11 3.64025E-10
 -1       289-1.19519E+05 5.09588E+02 1.06014E+03-1.76293E+02 8.68390E-11-3.70235E-10
 -1       290-1.19831E+05-6.89767E+01 4.33939E+02 6.88410E+01 1.35518E-11-9.53179E-10
 -1       291-1.19732E+05 8.12412E+01 2.63327E+02-2.58927E+02 2.74507E-10-1.44866E-09
 -1       292-1.19799E+05-1.22170E+01 1.34506E+02 1.01198E+02 2.24552E-10 7.59954E-10
 -1       293-1.19764E+05 2.43758E+01 1.18457E+02-2.99738E+02 6.77391E-11 1.08137E-10
 -1       294-1.19798E+05-1.20938E+01 1.33748E+02 1.09653E+02 1.68588E-10 5.35369E-10
 -1       295-1.19735E+05 8.03477E+01 2.60286E+02-2.91183E+02 8.31564E-11 4.54378E-10
 -1       296-1.19829E+05-6.81636E+01 4.29593E+02 9.26431E+01 1.58860E-10 1.19496E-09
 -1       297-1.19525E+05 5.03904E+02 1.04791E+03-2.34867E+02 2.56192E-10-8.10019E-10
 -1       298-1.20008E+05-4.35410E+02 1.66262E+03 5.33358E+01 1.79202E-10-3.48336E-10
 -1       299-1.18270E+05 3.21494E+03 4.54652E+03-1.41570E+02 1.07568E-10 6.76039E-10
 -1       300-1.21083E+05-2.77708E+03 6.42173E+03-6.56552E-01-4.99298E-11 8.93124E-10
 -1       301 9.61811E+03 2.26662E+03 2.15996E+04-7.03631E+03-1.80080E-10 1.45604E-10
 -1       302 3.25386E+03 6.34883E+03 1.32665E+04-8.27831E+03-2.29704E-10-2.21155E-10
 -1       303 8.90433E+02 3.71737E+03 1.06627E+04-7.03288E+03-1.63027E-10-3.53168E-10
 -1       304 4.23000E+03 6.93691E+03 1.59143E+04-8.27118E+03-1.79398E-10-7.56614E-10
 -1       305 1.27714E+04 1.67957E+03 2.80116E+04-7.04209E+03-1.69166E-10-2.30386E-10
 -1       306-4.64712E+05-6.11294E+04-3.00238E+04-1.80118E+05 4.13820E-11 5.09317E-11
 -1       307-4.71089E+05-8.39853E+04-1.88189E+04-1.84894E+05 4.60432E-11 1.00044E-10
 -1       308-4.69868E+05-6.75967E+04-7.08405E+03-1.79416E+05-6.27779E-10-1.97906E-09
 -1       309-4.65143E+05-7.54182E+04-3.87002E+03-1.86225E+05 1.61322E-10 3.75508E-10
 -1       310-4.70468E+05-6.82485E+04-1.65335E+03-1.79338E+05 2.75577E-10 5.23869E-10
 -1       311-4.64454E+05-7.45776E+04-8.82542E+02-1.86372E+05 4.25871E-10-9.11314E-10
 -1       312-4.70550E+05-6.83075E+04-4.74244E+02-1.79323E+05 1.01437E-09 1.91407E-09
 -1       313-4.64379E+05-7.45092E+04-4.08892E+02-1.86391E+05 1.20456E-09 2.26194E-09
 -1       314-4.70546E+05-6.83074E+04-5.37920E+02-1.79324E+05 8.76810E-11 1.07258E-09
 -1       315-4.64480E+05-7.45941E+04-1.05782E+03-1.86364E+05-2.11628E-10 1.02841E-09
 -1       316-4.70444E+05-6.82347E+04-2.00967E+03-1.79342E+05 2.83649E-10-3.21279E-10
 -1       317-4.65323E+05-7.56240E+04-4.72260E+03-1.86189E+05-6.76437E-12 4.55429E-10
 -1       318-4.69714E+05-6.74352E+04-8.64919E+03-1.79435E+05-2.01800E-09-1.71212E-09
 -1       319-4.72575E+05-8.61003E+04-2.29838E+04-1.84580E+05-1.50173E-10 4.24279E-10
 -1       320-4.63424E+05-5.95248E+04-3.66654E+04-1.80281E+05 9.95897E-11 3.63798E-10
 -1       321-1.15312E+05-3.00110E+03 6.94127E+03-2.58229E+01-3.91834E-10 1.54614E-11
 -1       322-1.12284E+05 3.47431E+03 4.91163E+03-3.69294E+01-5.22014E-10-4.49461E-10
 -1       323-1.14152E+05-4.70470E+02 1.79579E+03 3.81085E+00-8.44764E-11 1.06866E-11
 -1       324-1.13637E+05 5.44274E+02 1.12835E+03-9.25793E+01 8.05609E-11 3.29692E-12
 -1       325-1.13960E+05-7.34418E+01 4.57406E+02 2.98284E+01-9.89431E-11-1.02747E-09
 -1       326-1.13862E+05 8.49214E+01 2.66323E+02-1.36025E+02-7.75773E-11-3.01160E-10
 -1       327-1.13927E+05-1.14350E+01 1.16427E+02 4.72571E+01-1.17758E-10 1.98064E-10
 -1       328-1.13901E+05 1.36294E+01 6.61983E+01-1.59245E+02 1.19642E-10 4.20878E-10
 -1       329-1.13921E+05-2.17786E+00 3.35333E+01 5.30490E+01-2.68171E-11-2.06835E-10
 -1       330-1.13906E+05 5.38701E+00 2.61124E+01-1.58168E+02-1.50940E-10-6.63551E-10
 -1       331-1.13922E+05-3.19694E+00 2.54930E+01 4.61803E+01-5.61307E-11 1.28030E-10
 -1       332-1.13897E+05 2.21335E+01 4.92125E+01-1.32979E+02-6.84472E-11 7.78499E-10
 -1       333-1.13930E+05-1.89292E+01 7.35938E+01 2.78595E+01-1.58408E-10-6.45421E-11
 -1       334-1.13842E+05 1.39482E+02 1.98290E+02-8.80832E+01-9.47962E-11-3.30946E-10
 -1       335-1.13977E+05-1.20475E+02 2.78328E+02 1.28358E+00-1.30322E-11 7.05327E-10
 -1       336-1.55263E+02-1.84126E+05 4.70039E+02-2.06595E+03-6.84963E-10-4.18709E-10
 -1       337 6.29831E+01-1.83979E+05-3.43848E+02-7.47256E+03-1.28657E-09 6.44036E-10
 -1       338 1.17489E+02-1.83908E+05-1.37817E+03-2.04135E+03-8.97842E-10 1.47793E-12
 -1       339-1.84402E+03-1.85140E+05-3.81534E+03-7.50269E+03-1.52562E-09 4.55117E-10
 -1       340 1.33438E+03-1.82971E+05-6.14012E+03-2.03601E+03-9.14952E-10 9.62018E-10
 -1       341-3.06544E+05-3.86594E+04-1.36192E+04-1.18312E+05 3.26190E-09 7.08496E-10
 -1       342-3.15466E+05-4.79838E+04-9.24828E+03-1.12353E+05 1.78886E-09 6.61203E-10
 -1       343-3.08052E+05-4.41966E+04-3.17776E+03-1.18171E+05-3.13008E-09-1.08059E-09
 -1       344-3.13412E+05-4.17243E+04-1.95876E+03-1.12688E+05 4.82938E-09 1.35438E-09
 -1       345-3.08602E+05-4.49060E+04-7.72524E+02-1.17984E+05 5.76971E-09-1.64277E-10
 -1       346-3.11464E+05-4.16973E+04-3.29753E+02-1.13746E+05-1.93145E-09-7.97129E-10
 -1       347-3.09993E+05-4.42335E+04-3.78867E+02-1.17106E+05-8.09280E-10-1.76826E-10
 -1       348-3.08930E+05-4.36087E+04-7.06166E+01-1.15998E+05-7.48024E-10-5.12586E-11
 -1       349-3.11130E+05-4.30039E+04-5.38878E+02-1.15725E+05-1.15583E-09-1.03440E-09
 -1       350-3.07569E+05-4.60188E+04-8.74768E+02-1.18432E+05 1.80091E-09-1.62706E-09
 -1       351-3.11361E+05-4.18133E+04-1.71263E+03-1.14680E+05-5.69457E-10-1.62231E-09
 -1       352-3.08382E+05-4.89374E+04-4.53699E+03-1.19141E+05-6.38840E-09-4.18351E-09
 -1       353-3.10324E+05-4.00770E+04-7.31912E+03-1.15023E+05 1.66551E-09 8.46285E-10
 -1       354-3.16194E+05-6.09187E+04-2.14938E+04-1.15541E+05-2.50157E-09-7.23958E-10
 -1       355-3.03545E+05-2.98506E+04-3.12811E+04-1.18271E+05 1.26056E-09-8.33097E-10
 -1       356-1.21178E+05 1.59855E+02-3.70822E+02-1.93179E+01-1.07224E-10-7.03352E-10
 -1       357-1.21326E+05-1.85162E+02-2.63785E+02-1.29502E+01-1.64257E-10 1.92159E-10
 -1       358-1.21239E+05 2.51482E+01-1.00525E+02-1.68922E+00-7.75962E-11-7.13403E-10
 -1       359-1.21255E+05-2.97872E+01-7.00039E+01-4.64120E+01 4.89302E-11-4.49516E-10
 -1       360-1.21249E+05 4.60812E+00-4.37502E+01 1.41444E+01-1.48773E-10 1.67392E-10
 -1       361-1.21246E+05-9.89505E+00-5.54079E+01-7.33772E+01-1.58402E-09 5.85327E-10
 -1       362-1.21248E+05 5.28027E+00-8.36224E+01 2.52765E+01-4.70768E-07 5.17463E-10
 -1       363-1.21262E+05-3.58844E+01-1.73860E+02-8.88640E+01-9.38214E-07-1.21753E-09
 -1       364-1.21233E+05 3.05918E+01-3.10570E+02 2.96314E+01-2.58237E-07 1.07292E-11
 -1       365-1.21364E+05-2.27503E+02-7.12322E+02-9.00030E+01 4.22395E-07-2.58510E-10
 -1       366-1.21146E+05 1.96779E+02-1.22591E+03 2.64156E+01 2.12414E-07-1.39551E-10
 -1       367-1.21963E+05-1.45854E+03-3.02242E+03-7.65463E+01 9.72713E-10 3.83750E-10
 -1       368-1.20633E+05 1.26072E+03-4.81327E+03 1.61744E+01 4.72685E-10-4.25871E-10
 -1       369-1.25587E+05-9.31065E+03-1.31610E+04-5.05166E+01 8.96270E-11-7.68523E-10
 -1       370-1.17523E+05 8.04267E+03-1.86014E+04 3.85837E-01 1.41966E-09 5.40240E-10
 -1       371-3.10703E+03-3.61311E+04 7.04433E+03 2.35879E+02 2.93767E-10 8.58094E-10
 -1       372 3.28433E+03-3.31545E+04 4.41861E+03-9.29494E+02 5.33078E-10 7.82158E-10
 -1       373-1.74398E+02-3.47723E+04 6.59012E+02 2.44000E+02 4.16549E-10 3.20199E-10
 -1       374-1.79013E+03-3.54953E+04-2.19305E+03-9.24419E+02 4.81919E-10 1.01210E-10
 -1       375 1.96332E+03-3.37904E+04-4.33465E+03 2.30804E+02 2.47383E-10-2.24762E-10
 -1       376-1.69197E+05-2.12658E+04-6.51325E+03-6.46036E+04 8.74593E-10-8.18545E-11
 -1       377-1.72642E+05-2.72318E+04-4.52283E+03-6.34423E+04 7.86997E-11 1.27159E-10
 -1       378-1.70542E+05-2.35929E+04-1.52919E+03-6.41427E+04 3.15140E-10-7.44478E-10
 -1       379-1.71067E+05-2.45502E+04-9.59784E+02-6.39874E+04-1.71116E-10 7.15247E-10
 -1       380-1.70772E+05-2.39456E+04-3.67013E+02-6.40590E+04 1.07640E-10 1.16046E-10
 -1       381-1.70795E+05-2.41542E+04-2.35578E+02-6.40922E+04 3.83706E-09-1.29591E-09
 -1       382-1.70813E+05-2.39886E+04-1.40366E+02-6.40380E+04 1.35693E-06-5.09196E-07
 -1       383-1.70764E+05-2.41328E+04-1.86150E+02-6.41125E+04 2.70707E-06-1.01529E-06
 -1       384-1.70803E+05-2.39669E+04-2.77128E+02-6.40387E+04 1.35732E-06-5.08810E-07
 -1       385-1.70894E+05-2.43291E+04-6.60787E+02-6.40716E+04 3.69754E-09-2.52864E-09
 -1       386-1.70683E+05-2.37925E+04-1.12913E+03-6.40789E+04 1.76428E-10-7.61133E-11
 -1       387-1.71713E+05-2.56623E+04-3.03558E+03-6.38027E+04 2.81304E-10 2.91436E-10
 -1       388-1.69985E+05-2.26346E+04-4.85781E+03-6.43073E+04 7.38737E-10-4.82032E-10
 -1       389-1.76659E+05-3.42677E+04-1.43909E+04-6.21461E+04 4.37467E-10 3.73120E-10
 -1       390-1.65739E+05-1.51928E+04-2.07264E+04-6.57337E+04 3.87899E-10-5.75710E-10
 -1       406 2.12766E+02 9.20240E+04 4.69525E+02-6.43793E+03-6.12772E-10-2.70802E-10
 -1       407 1.41773E+02 9.21104E+04 5.83783E+02-7.05136E+03-7.12774E-10-2.72507E-10
 -1       408 2.39094E+02 9.20087E+04 9.72961E+02-6.40580E+03-7.72047E-10 1.86901E-10
 -1       409 9.66593E+02 9.23873E+04 2.09507E+03-7.10149E+03-9.13360E-10-3.48791E-10
 -1       410 2.79156E+03 9.17442E+04 4.22802E+03-6.38722E+03-8.74934E-10 6.70184E-10
 -1       466 3.66964E+05-1.48462E+04 3.43341E+04 6.26730E+02 9.11200E-11 1.04956E-09
 -1       467 3.81938E+05 1.71857E+04 2.43126E+04-1.15209E+03 2.04519E-10 7.67614E-10
 -1       468 3.72743E+05-2.32632E+03 8.89943E+03 2.31231E+02-9.25233E-11 4.88853E-10
 -1       469 3.75208E+05 2.69307E+03 5.61217E+03-5.83666E+02-5.32992E-10-2.21348E-10
 -1       470 3.73697E+05-3.64873E+02 2.32110E+03 5.83111E+01 3.92895E-11-2.95472E-10
 -1       471 3.74102E+05 4.35342E+02 1.43845E+03-3.40049E+02-3.69995E-09-3.36030E-10
 -1       472 3.73850E+05-7.01709E+01 8.03574E+02-1.23893E+01-1.05989E-06 2.56762E-10
 -1       473 3.73966E+05 1.70364E+02 8.27027E+02-2.54364E+02-2.11424E-06-6.85336E-10
 -1       474 3.73832E+05-1.00053E+02 1.07138E+03-2.73749E+01-1.06009E-06 1.12010E-10
 -1       475 3.74238E+05 6.92146E+02 2.21305E+03-2.70372E+02-3.26576E-09-1.22213E-11
 -1       476 3.73577E+05-5.91614E+02 3.71578E+03 3.61851E+00 4.81140E-10-6.40966E-10
 -1       477 3.76035E+05 4.37793E+03 9.09258E+03-3.98789E+02 4.87960E-10-7.12703E-10
 -1       478 3.72034E+05-3.78308E+03 1.44587E+04 1.01045E+02 2.37749E-10-2.28283E-10
 -1       479 3.86922E+05 2.79404E+04 3.95109E+04-7.30382E+02 3.35930E-10-8.10360E-10
 -1       480 3.62686E+05-2.41341E+04 5.58430E+04 3.35206E+02 1.56869E-09 7.63976E-11
 -1       481-2.80191E+03 5.69870E+04 6.52662E+03-5.00540E+01 2.18279E-11 2.59273E-10
 -1       482 3.36067E+03 5.98660E+04 4.82210E+03-4.19204E+01-5.18412E-11 9.37876E-10
 -1       483-5.56124E+02 5.80146E+04 2.09641E+03-2.37317E+01-2.29647E-11 4.87679E-10
 -1       484 1.38955E+03 5.89562E+04 2.25367E+03-9.48607E+01 5.01288E-12-4.34994E-10
 -1       485-8.32393E+02 5.78969E+04 2.10644E+03 2.88545E+00 3.29123E-11-6.14367E-10
 -1       486-3.42036E+05-3.59557E+04-3.22436E+04-1.34478E+05 1.28239E-10 2.00089E-11
 -1       487-3.60029E+05-6.45693E+04-2.23795E+04-1.27669E+05 7.63976E-10-6.86668E-10
 -1       488-3.48895E+05-4.73213E+04-7.56743E+03-1.32020E+05 3.61638E-10-6.36646E-12
 -1       489-3.51733E+05-5.17367E+04-4.70944E+03-1.30876E+05-3.64025E-10 4.47642E-10
 -1       490-3.50328E+05-4.87802E+04-1.77692E+03-1.31273E+05 3.13435E-10 2.42153E-10
 -1       491-3.49909E+05-5.02607E+04-1.04362E+03-1.31978E+05-6.11351E-11-1.50749E-10
 -1       492-3.50719E+05-4.87954E+04-4.81706E+02-1.30918E+05 3.46301E-10 4.17813E-10
 -1       493-3.49528E+05-5.02228E+04-4.06693E+02-1.32316E+05 4.91985E-10 5.66453E-10
 -1       494-3.50709E+05-4.88174E+04-4.37162E+02-1.30935E+05 2.18341E-10 5.53683E-10
 -1       495-3.49929E+05-5.01530E+04-9.04499E+02-1.31928E+05-4.42917E-11 2.56790E-10
 -1       496-3.50317E+05-4.88659E+04-1.52583E+03-1.31306E+05-4.17288E-10 3.52827E-10
 -1       497-3.51602E+05-5.13030E+04-4.03022E+03-1.30860E+05 2.41982E-10-1.13289E-10
 -1       498-3.49037E+05-4.76691E+04-6.47288E+03-1.32002E+05 5.64000E-10-5.11136E-10
 -1       499-3.58760E+05-6.22195E+04-1.91407E+04-1.28052E+05 3.29692E-12-4.18822E-10
 -1       500-3.43163E+05-3.79564E+04-2.75757E+04-1.34113E+05-7.07132E-10 1.06957E-09
 -1       501-1.12029E+05-5.67156E+03 1.31154E+04-5.35076E+00 2.37527E-10 4.91127E-10
 -1       502-1.06298E+05 6.56576E+03 9.28366E+03-1.75457E+02 3.58426E-10-1.86446E-10
 -1       503-1.09834E+05-8.89164E+02 3.39253E+03 6.14285E+01-1.66729E-11-2.10548E-10
 -1       504-1.08860E+05 1.02859E+03 2.13337E+03-2.93554E+02-3.05071E-10-1.29546E-09
 -1       505-1.09467E+05-1.38762E+02 8.64219E+02 1.12750E+02-1.00213E-10-1.01630E-09
 -1       506-1.09291E+05 1.60481E+02 5.03679E+02-3.70810E+02-2.81923E-09-5.42258E-10
 -1       507-1.09404E+05-2.15626E+01 2.20596E+02 1.38686E+02-1.00014E-06-1.47234E-09
 -1       508-1.09364E+05 2.59511E+01 1.26242E+02-3.92815E+02-1.99397E-06-3.79202E-10
 -1       509-1.09394E+05-4.27375E+00 6.53151E+01 1.34755E+02-1.00026E-06-8.54749E-10
 -1       510-1.09369E+05 1.17198E+01 5.48657E+01-3.55748E+02-3.10638E-09 1.08653E-09
 -1       511-1.09399E+05-7.41120E+00 5.56661E+01 1.01619E+02 1.61597E-10-9.78915E-11
 -1       512-1.09343E+05 5.17404E+01 1.15125E+02-2.65830E+02 4.69483E-10-5.67260E-10
 -1       513-1.09420E+05-4.44090E+01 1.69897E+02 4.48354E+01 1.37192E-10 4.85159E-10
 -1       514-1.09210E+05 3.26454E+02 4.65467E+02-1.38115E+02-2.82641E-10 6.42054E-10
 -1       515-1.09532E+05-2.82027E+02 6.48469E+02-2.60991E+01-2.43471E-10 7.64487E-10
 -1       516-1.32848E+04 8.03997E+04 3.10993E+04 2.13489E+02-1.58252E-10 1.16956E-09
 -1       517 1.62903E+04 9.42308E+04 2.36057E+04-1.07836E+03-2.23508E-10 2.04134E-09
 -1       518-2.99173E+03 8.51189E+04 1.12848E+04 1.55734E+02-4.43379E-10 1.29562E-09
 -1       519 9.26931E+03 9.09670E+04 1.44549E+04-1.01692E+03-1.14483E-10-6.83545E-10
 -1       520-6.26934E+03 8.36625E+04 1.53630E+04 1.52052E+02-4.26553E-10-7.37204E-10
 -1       521-6.89954E+05-8.90953E+04-4.70583E+04-2.66172E+05-5.01586E-10-3.67436E-10
 -1       522-7.03494E+05-1.21414E+05-2.95006E+04-2.69626E+05 2.30472E-10 8.24912E-10
 -1       523-6.98016E+05-9.92616E+04-1.11000E+04-2.65093E+05-5.06475E-11-3.16049E-10
 -1       524-6.94188E+05-1.07956E+05-6.06230E+03-2.71677E+05 4.49177E-10-1.70189E-10
 -1       525-6.98950E+05-1.00291E+05-2.58264E+03-2.64974E+05 2.74667E-10 5.16820E-10
 -1       526-6.93110E+05-1.06630E+05-1.36626E+03-2.71894E+05-1.04595E-09-1.39732E-09
 -1       527-6.99074E+05-1.00388E+05-7.08186E+02-2.64954E+05-2.11628E-10-3.54760E-10
 -1       528-6.92990E+05-1.06515E+05-5.64708E+02-2.71916E+05-5.11811E-10 3.58114E-12
 -1       529-6.99071E+05-1.00393E+05-6.88975E+02-2.64958E+05-5.31259E-10-1.07036E-10
 -1       530-6.93118E+05-1.06608E+05-1.31324E+03-2.71874E+05-3.95232E-10-4.86239E-10
 -1       531-6.98942E+05-1.00309E+05-2.47459E+03-2.64987E+05 9.48148E-11 9.09495E-13
 -1       532-6.94168E+05-1.07859E+05-5.80382E+03-2.71645E+05 1.28296E-10-2.66027E-11
 -1       533-6.98037E+05-9.93346E+04-1.06248E+04-2.65111E+05 2.31751E-10 8.91305E-11
 -1       534-7.03096E+05-1.20717E+05-2.82358E+04-2.69653E+05 3.35149E-10 2.49202E-10
 -1       535-6.90307E+05-8.96188E+04-4.50407E+04-2.66159E+05 7.95808E-10 2.47564E-09
 -1       536 8.62087E+03-2.53196E+03 1.16999E+04-2.04723E+03 1.25965E-10 1.17780E-10
 -1       537 1.27990E+04 3.53740E+03 7.44274E+03-7.20271E+03-5.24437E-10 3.75508E-10
 -1       538 1.03679E+04-2.56548E+02 3.02665E+03-2.02045E+03 1.40972E-11 7.68637E-10
 -1       539 1.08486E+04 3.33196E+02 1.67813E+03-7.23093E+03 2.46018E-10-4.20187E-10
 -1       540 1.05591E+04-2.87774E+01 7.62247E+02-2.01868E+03 5.22959E-12-5.71617E-10
 -1       541 1.06249E+04 3.06456E+01 3.99176E+02-7.23211E+03 4.35421E-11 3.07637E-10
 -1       542 1.05827E+04-3.70829E+00 1.87601E+02-2.01927E+03-7.43512E-11-1.81899E-12
 -1       543 1.05921E+04 3.40860E+00 9.19767E+01-7.23122E+03 9.22284E-11 5.12003E-10
 -1       544 1.05863E+04-3.99061E-04 3.57500E+01-2.01958E+03-3.20028E-11-2.14015E-10
 -1       545 1.05841E+04-3.15884E-01-4.27379E-01-7.23084E+03-1.33049E-10 3.09939E-11
 -1       546 1.05885E+04 1.95869E+00-3.51935E+01-2.01964E+03 8.73115E-11 2.39268E-10
 -1       547 1.05705E+04-1.96076E+01-9.72989E+01-7.23002E+03-5.05338E-11 2.53195E-10
 -1       548 1.06009E+04 1.53649E+01-1.83792E+02-2.02040E+03-1.52284E-10-1.92387E-10
 -1       549 1.04538E+04-2.18213E+02-4.56787E+02-7.21467E+03-2.50111E-12 9.79696E-11
 -1       550 1.07095E+04 1.53981E+02-7.20912E+02-2.03499E+03-9.95897E-11 4.88740E-10
 -1       551 2.55165E+03-6.68792E+04 6.14597E+03-1.03476E+05 3.41061E-11 7.94898E-10
 -1       552 1.07431E+03-6.57315E+04 5.05227E+03-1.21540E+05-3.14685E-10 1.28966E-09
 -1       553 6.52125E+02-6.66756E+04 6.15586E+03-1.03302E+05-7.82165E-11-6.36305E-10
 -1       554 3.56749E+03-6.42477E+04 1.17958E+04-1.21570E+05-1.39153E-10-5.81736E-10
 -1       555 1.05946E+04-6.83965E+04 2.24763E+04-1.03442E+05 1.18234E-10-6.31644E-10
 -1       556-4.47544E+04-2.50651E+04 4.43023E+03-4.47008E+04-7.73070E-10-1.80989E-10
 -1       557-4.07279E+04-2.94368E+04 2.17954E+03-4.78159E+04 6.94399E-10-3.23098E-10
 -1       558-4.47787E+04-2.65291E+04 9.20628E+02-4.38162E+04 2.80215E-09 4.88080E-09
 -1       559-4.10852E+04-3.01714E+04 4.50235E+02-4.79293E+04 6.65295E-10 2.39254E-10
 -1       560-4.47877E+04-2.65620E+04 2.02130E+02-4.37822E+04-2.75577E-10 6.93490E-12
 -1       561-4.11294E+04-3.01995E+04 9.46328E+01-4.79619E+04-4.15184E-10 1.30896E-10
 -1       562-4.47988E+04-2.65495E+04 3.43397E+01-4.37905E+04-4.27463E-11-6.78710E-11
 -1       563-4.11454E+04-3.01928E+04-2.14933E+00-4.79741E+04 7.52607E-11 9.74865E-11
 -1       564-4.48047E+04-2.65414E+04-4.15289E+01-4.37964E+04 5.00222E-12-4.49973E-10
 -1       565-4.11576E+04-3.01889E+04-1.06701E+02-4.79804E+04-3.50155E-11 4.05635E-10
 -1       566-4.48008E+04-2.65360E+04-2.27626E+02-4.37979E+04-1.77067E-10-2.07137E-10
 -1       567-4.12016E+04-3.02102E+04-5.03267E+02-4.79779E+04 7.27596E-12-2.76941E-10
 -1       568-4.47680E+04-2.66073E+04-1.03307E+03-4.37641E+04 1.03455E-10-4.91127E-11
 -1       569-4.17834E+04-3.08218E+04-2.43695E+03-4.78225E+04-1.18348E-10 1.75078E-10
 -1       570-4.45517E+04-2.84665E+04-4.96109E+03-4.29887E+04-1.36424E-11 1.23407E-10
 -1       571 5.81906E+04 2.83608E+03 4.29285E+03-1.51433E+04 1.65983E-10-3.88070E-10
 -1       572 5.88437E+04 9.74837E+02 2.10654E+03-1.66629E+04 6.91216E-11-9.22569E-10
 -1       573 5.84587E+04 2.23732E+02 9.36731E+02-1.51031E+04-1.25283E-10-5.21823E-11
 -1       574 5.85376E+04 7.04437E+01 4.69849E+02-1.67079E+04-2.01339E-10 3.27304E-10
 -1       575 5.84907E+04 7.02507E+00 2.22007E+02-1.50979E+04-1.15108E-10-3.75735E-10
 -1       576 5.84985E+04 1.65100E-01 1.13251E+02-1.67139E+04-1.00897E-12-4.93856E-10
 -1       577 5.84954E+04-3.42203E+00 5.63721E+01-1.50972E+04 7.91260E-11-3.08205E-10
 -1       578 5.84933E+04-2.23351E+00 3.17361E+01-1.67146E+04 1.30001E-10 6.69047E-10
 -1       579 5.84972E+04-2.48922E+00 2.14677E+01-1.50972E+04 6.32099E-11-2.62617E-10
 -1       580 5.84950E+04-1.88044E+00 2.32491E+01-1.67136E+04-1.93268E-12 4.68958E-10
 -1       581 5.84990E+04-1.44746E+00 3.55120E+01-1.50981E+04-8.86757E-11-1.25283E-10
 -1       582 5.85035E+04 7.05364E+00 6.99156E+01-1.67043E+04 1.63709E-11 1.88152E-10
 -1       583 5.84977E+04 2.83308E+01 1.36590E+02-1.51064E+04-3.31966E-11 3.73461E-11
 -1       584 5.85521E+04 1.36349E+02 3.05937E+02-1.66346E+04-4.65434E-10-1.34548E-10
 -1       585 5.84627E+04 4.05603E+02 6.22431E+02-1.51680E+04 4.41105E-11-3.41061E-11
 -1       586 4.57028E+02 2.45611E+04 8.50987E+02-3.72489E+04 8.57199E-11 6.05496E-10
 -1       587 2.43031E+02 2.47121E+04 8.24104E+02-4.10951E+04 3.29464E-10-5.91115E-10
 -1       588 2.99952E+02 2.45593E+04 1.18644E+03-3.72011E+04 8.09450E-11-1.67688E-11
 -1       589 1.12657E+03 2.50081E+04 2.44254E+03-4.11090E+04 3.98813E-10 4.74529E-10
 -1       590 3.21913E+03 2.42606E+04 4.87601E+03-3.72346E+04 1.34037E-10 3.62320E-10
 -1       591-2.75493E+04-9.32844E+03-5.23911E+03-1.41044E+04-2.08303E-10 2.89219E-10
 -1       592-2.77270E+04-8.71181E+03-2.57392E+03-1.56477E+04 4.34284E-11-1.55012E-10
 -1       593-2.77109E+04-7.42288E+03-1.09230E+03-1.49793E+04 3.01310E-09 4.73932E-09
 -1       594-2.71647E+04-8.01047E+03-5.34584E+02-1.57381E+04 1.32314E-09-1.62455E-10
 -1       595-2.77361E+04-7.35455E+03-2.46261E+02-1.50178E+04 3.20341E-09 4.79652E-09
 -1       596-2.71225E+04-7.98320E+03-1.25036E+02-1.57342E+04-2.50367E-10 7.38396E-10
 -1       597-2.77408E+04-7.35833E+03-6.83173E+01-1.50180E+04-3.54873E-09-4.52593E-09
 -1       598-2.71183E+04-7.98355E+03-5.51087E+01-1.57324E+04-8.98346E-10 1.13459E-10
 -1       599-2.77406E+04-7.35829E+03-7.04710E+01-1.50179E+04 1.34207E-10-3.80453E-10
 -1       600-2.71227E+04-7.98331E+03-1.30797E+02-1.57341E+04 2.30102E-10-6.30791E-10
 -1       601-2.77351E+04-7.35432E+03-2.58364E+02-1.50175E+04 3.89946E-11-1.26533E-10
 -1       602-2.71675E+04-8.01154E+03-5.61564E+02-1.57375E+04 3.49928E-10-3.24462E-10
 -1       603-2.77082E+04-7.42686E+03-1.14750E+03-1.49776E+04 9.81458E-10-4.39059E-10
 -1       604-2.77631E+04-8.74312E+03-2.70406E+03-1.56364E+04-1.07724E-09-7.81654E-09
 -1       605-2.75329E+04-9.43292E+03-5.50377E+03-1.40635E+04 6.57678E-10-3.31966E-11
 -1       606 1.98719E+04-2.34185E+03-3.54306E+03 5.87515E+03-9.61336E-10 7.02585E-11
 -1       607 1.93258E+04-8.04909E+02-1.73839E+03 6.40492E+03 1.78488E-11 1.91790E-10
 -1       608 1.96476E+04-1.84620E+02-7.72940E+02 5.83639E+03 9.38599E-10-4.17629E-10
 -1       609 1.95752E+04-5.70660E+01-3.87303E+02 6.44841E+03-5.16593E-10-3.29806E-10
 -1       610 1.96190E+04-4.55402E+00-1.82479E+02 5.83136E+03-1.50999E-09-2.60741E-10
 -1       611 1.96058E+04 1.82495E+00-9.18966E+01 6.45402E+03-2.50952E-09 2.22826E-10
 -1       612 1.96140E+04 4.49374E+00-4.35655E+01 5.83075E+03-1.11345E-09-4.63274E-11
 -1       613 1.96097E+04 3.83492E+00-2.01230E+01 6.45479E+03-1.61049E-09 2.86605E-10
 -1       614 1.96125E+04 3.22495E+00-5.90293E+00 5.83058E+03-3.11616E-10 3.68914E-11
 -1       615 1.96105E+04 3.50049E+00 5.23768E+00 6.45492E+03 1.14801E-09-6.01631E-10
 -1       616 1.96113E+04 3.80460E+00 1.87722E+01 5.83062E+03-7.68864E-10-1.70019E-10
 -1       617 1.96140E+04 1.02947E+01 4.43349E+01 6.45475E+03-1.99407E-10 5.88898E-11
 -1       618 1.96077E+04 2.49757E+01 9.05756E+01 5.83074E+03-2.61650E-10-1.41256E-10
 -1       619 1.96433E+04 9.85771E+01 2.04938E+02 6.45387E+03 1.54813E-10 6.30280E-10
 -1       620 1.95811E+04 2.79691E+02 4.18215E+02 5.83140E+03 6.60521E-10 4.31953E-10
 -1       621 4.10183E+02 6.10302E+04 1.04751E+03-5.67623E+03-4.23881E-10-8.24230E-11
 -1       622 1.56814E+02 6.12298E+04 8.90795E+02-6.69677E+03-4.94538E-10 7.65453E-10
 -1       623 9.45372E+01 6.10709E+04 1.12399E+03-5.68119E+03-4.35023E-10 1.47338E-10
 -1       624 6.33788E+02 6.15178E+04 2.18526E+03-6.66950E+03-3.88468E-10-4.59750E-10
 -1       625 1.95109E+03 6.07438E+04 4.18174E+03-5.70337E+03-3.38161E-10-3.71188E-10
 -1       626 2.84535E+04 9.42427E+03-1.41746E+03 1.92751E+04 2.01010E-09 6.79142E-09
 -1       627 2.77122E+04 1.05167E+04-6.71888E+02 1.96738E+04-3.41061E-10 4.91241E-10
 -1       628 2.84925E+04 1.01235E+04-2.82020E+02 1.89295E+04 1.69621E-10 4.67423E-10
 -1       629 2.78154E+04 1.08114E+04-1.35279E+02 1.96542E+04-1.99179E-10 6.50619E-10
 -1       630 2.84923E+04 1.01716E+04-5.94041E+01 1.89018E+04 2.18279E-10-2.22315E-10
 -1       631 2.78240E+04 1.08330E+04-2.62874E+01 1.96558E+04-1.30103E-09-5.37995E-10
 -1       632 2.84907E+04 1.01727E+04-6.50079E+00 1.88999E+04-1.50089E-09-4.78906E-10
 -1       633 2.78253E+04 1.08337E+04 8.60702E+00 1.96568E+04 1.20372E-09 1.48134E-10
 -1       634 2.84891E+04 1.01709E+04 2.82246E+01 1.89000E+04 4.52474E-10-8.35087E-10
 -1       635 2.78291E+04 1.08344E+04 6.64437E+01 1.96578E+04 9.52753E-10 1.76840E-10
 -1       636 2.84862E+04 1.01742E+04 1.39030E+02 1.88977E+04 8.23093E-11 3.52429E-11
 -1       637 2.78624E+04 1.08735E+04 3.11311E+02 1.96514E+04 2.86391E-10-3.38787E-11
 -1       638 2.84786E+04 1.02920E+04 6.45866E+02 1.88463E+04 5.82645E-10-4.07226E-10
 -1       639 2.81899E+04 1.14571E+04 1.53776E+03 1.95064E+04-2.46700E-10 8.27640E-11
 -1       640 2.84954E+04 1.19732E+04 3.24495E+03 1.81492E+04-3.16845E-10-1.40858E-10
 -1       641 9.17451E+01 6.07537E+02-1.40526E+03-1.51704E+01 1.00961E-10 4.04725E-10
 -1       642-5.17247E+02-7.03280E+02-9.93517E+02 6.18032E+01-1.37393E-09 5.81281E-10
 -1       643-1.43047E+02 9.51991E+01-3.62306E+02-1.51336E+01-1.50367E-09 1.07249E-10
 -1       644-2.43677E+02-1.09909E+02-2.25327E+02 6.17756E+01 4.29408E-08 4.44693E-10
 -1       645-1.81842E+02 1.46498E+01-8.69192E+01-1.51429E+01 1.24623E-05-4.63091E-09
 -1       646-1.97616E+02-1.55570E+01-4.15694E+01 6.17880E+01 2.48503E-05-8.65857E-09
 -1       647-1.89115E+02 9.20384E-01-5.31454E-01-1.51462E+01 1.17280E-05-4.33878E-09
 -1       648-1.84776E+02 7.74238E+00 3.73430E+01 6.17901E+01-1.48014E-06 1.34599E-09
 -1       649-1.94684E+02-8.63539E+00 8.51848E+01-1.51451E+01-1.80609E-05 7.76460E-09
 -1       650-1.53425E+02 6.66053E+01 2.06488E+02 6.17701E+01-3.45549E-05 1.33170E-08
 -1       651-2.20463E+02-5.79064E+01 3.59536E+02-1.51260E+01-1.73268E-05 7.90595E-09
 -1       652 2.37538E+01 4.29560E+02 8.89546E+02 6.16935E+01-5.89287E-08-1.59559E-10
 -1       653-3.71857E+02-3.71323E+02 1.41737E+03-1.50685E+01-2.71805E-10 8.70159E-10
 -1       654 1.09149E+03 2.74230E+03 3.87652E+03 6.14000E+01-1.63169E-09-7.79323E-11
 -1       655-1.28817E+03-2.36880E+03 5.47919E+03-1.48330E+01-1.13048E-09 3.74484E-10
 -1       656 1.77364E+03-7.16831E+04-8.51249E+03 2.31196E+03 6.68479E-11 2.68187E-10
 -1       657-2.68307E+03-7.47466E+04-6.16230E+03 8.18277E+03-7.99218E-10 2.07592E-10
 -1       658 3.32486E+02-7.27808E+04-3.94418E+03 2.29938E+03-3.46887E-10 5.04855E-10
 -1       659-2.45246E+03-7.46083E+04-5.74364E+03 8.18941E+03-7.51299E-10 3.18212E-10
 -1       660 1.59504E+03-7.18232E+04-7.71483E+03 2.30537E+03 8.45830E-11 6.28035E-10
 -1       661 6.99144E+04 8.99962E+03 5.70304E+03 2.72908E+04 1.01522E-10-1.33923E-09
 -1       662 7.12138E+04 1.32596E+04 3.57539E+03 2.81050E+04 1.16935E-09-6.43013E-10
 -1       663 7.08851E+04 1.02379E+04 1.34608E+03 2.71677E+04-2.92303E-10-3.65503E-10
 -1       664 7.00962E+04 1.16186E+04 7.36180E+02 2.83392E+04-3.82599E-10-1.11982E-11
 -1       665 7.09931E+04 1.03678E+04 3.15458E+02 2.71588E+04-1.88322E-09-3.01537E-09
 -1       666 6.99721E+04 1.14515E+04 1.70679E+02 2.83567E+04 3.59847E-10 5.58980E-10
 -1       667 7.10057E+04 1.03818E+04 9.59382E+01 2.71587E+04-4.51007E-09-1.61883E-09
 -1       668 6.99604E+04 1.14370E+04 9.03558E+01 2.83573E+04-1.33412E-09 4.08711E-10
 -1       669 7.10045E+04 1.03809E+04 1.27505E+02 2.71587E+04 1.20796E-09 3.81064E-10
 -1       670 6.99825E+04 1.14624E+04 2.57758E+02 2.83565E+04 2.57529E-09 8.80007E-11
 -1       671 7.09840E+04 1.03586E+04 4.92548E+02 2.71588E+04 4.05691E-10 6.51085E-10
 -1       672 7.01794E+04 1.17264E+04 1.15959E+03 2.83288E+04-8.62030E-11-3.98671E-10
 -1       673 7.08130E+04 1.01534E+04 2.12360E+03 2.71728E+04-6.53403E-10-2.23724E-09
 -1       674 7.19424E+04 1.43187E+04 5.64373E+03 2.79610E+04-6.00672E-10 1.49157E-10
 -1       675 6.92821E+04 8.19707E+03 9.00246E+03 2.73652E+04-3.19346E-10 9.77707E-11
 -1       676 1.27173E+02-6.80563E+04-7.56059E+02-4.46497E-01-5.57165E-10 5.66619E-10
 -1       677-2.86769E+02-6.83435E+04-9.18112E+02-4.64709E+01-1.59108E-09-1.56421E-10
 -1       678 1.02621E+02-6.80677E+04-1.21420E+03-4.76329E-01-1.13175E-09 1.50934E-09
 -1       679-1.29223E+03-6.89532E+04-2.74711E+03-4.63749E+01-2.66991E-09-2.36129E-10
 -1       680 9.10670E+02-6.74466E+04-4.23935E+03-5.98483E-01-1.63641E-09 4.38760E-11
 -1       681 1.25022E+05-3.38540E+03 7.82809E+03 1.43928E+02 1.54568E-10 2.63753E-11
 -1       682 1.28431E+05 3.91899E+03 5.54388E+03-4.36234E+02 2.05175E-10-2.34422E-10
 -1       683 1.26337E+05-5.30616E+02 2.02983E+03 7.90663E+01 1.49738E-10-3.19460E-11
 -1       684 1.26898E+05 6.14456E+02 1.28218E+03-3.38186E+02 6.82654E-12 2.59774E-11
 -1       685 1.26555E+05-8.33777E+01 5.33919E+02 4.58796E+01 2.23693E-10 2.16318E-10
 -1       686 1.26645E+05 1.00628E+02 3.38279E+02-2.95938E+02 4.40858E-10 2.12374E-10
 -1       687 1.26590E+05-1.71249E+01 2.02660E+02 3.68171E+01 2.52960E-10 1.19186E-10
 -1       688 1.26619E+05 4.75911E+01 2.31482E+02-3.00016E+02 2.45858E-10-2.04205E-10
 -1       689 1.26581E+05-3.03833E+01 3.21820E+02 4.99578E+01 1.80733E-10-1.66267E-12
 -1       690 1.26711E+05 2.14737E+02 6.84230E+02-3.51240E+02-2.98925E-11-8.22666E-11
 -1       691 1.26498E+05-1.84226E+02 1.15472E+03 8.80423E+01 7.57119E-11-2.01908E-10
 -1       692 1.27281E+05 1.36481E+03 2.83591E+03-4.60396E+02 1.69564E-10 2.59035E-10
 -1       693 1.26011E+05-1.17977E+03 4.50513E+03 1.59115E+02-8.47820E-11-1.60981E-10
 -1       694 1.30699E+05 8.71513E+03 1.23273E+04-6.53899E+02-4.19512E-10 7.41238E-11
 -1       695 1.23080E+05-7.52893E+03 1.74052E+04 2.81544E+02-7.19353E-11-4.77485E-10
 -1       696-2.56417E+03 1.04640E+05 5.84158E+03 6.25403E+01 2.04636E-11-1.92220E-10
 -1       697 2.77023E+03 1.07106E+05 3.77151E+03-4.17627E+02 4.51905E-11-1.36516E-11
 -1       698-2.03694E+02 1.05729E+05 7.68468E+02 5.17764E+01-4.51337E-11 1.84909E-10
 -1       699-1.02946E+03 1.05351E+05-1.17967E+03-4.22186E+02-7.48059E-11 5.01140E-10
 -1       700 1.23248E+03 1.06395E+05-2.67819E+03 6.70984E+01-4.32010E-11 2.89541E-10
 -1       701-1.14906E+05-1.05139E+04-1.45017E+04-4.56385E+04-4.89536E-10-2.46473E-10
 -1       702-1.22624E+05-2.37810E+04-1.00691E+04-4.30388E+04-7.50333E-11-3.27304E-10
 -1       703-1.17879E+05-1.57186E+04-3.40039E+03-4.46387E+04 2.02192E-10 5.02041E-10
 -1       704-1.19154E+05-1.77694E+04-2.12661E+03-4.42072E+04-7.83302E-11 3.42652E-10
 -1       705-1.18375E+05-1.65217E+04-7.96498E+02-4.44714E+04-4.02579E-10-1.02318E-10
 -1       706-1.18564E+05-1.68579E+04-4.76122E+02-4.44167E+04 1.17401E-10 3.92220E-11
 -1       707-1.18469E+05-1.66295E+04-2.21173E+02-4.44294E+04-9.01501E-12 3.26914E-10
 -1       708-1.18455E+05-1.67645E+04-1.94809E+02-4.44761E+04-4.09791E-10 8.50524E-11
 -1       709-1.18484E+05-1.66151E+04-2.16709E+02-4.44120E+04-2.05873E-10 4.22347E-11
 -1       710-1.18506E+05-1.69081E+04-4.62829E+02-4.44816E+04-8.75922E-11 7.29372E-11
 -1       711-1.18417E+05-1.64859E+04-7.71793E+02-4.44239E+04-2.02758E-09 8.41851E-10
 -1       712-1.19038E+05-1.78313E+04-2.06049E+03-4.43253E+04-4.18561E-09 1.73418E-09
 -1       713-1.17953E+05-1.56925E+04-3.29347E+03-4.45682E+04-1.90795E-09 7.08724E-10
 -1       714-1.22378E+05-2.36734E+04-9.75276E+03-4.32157E+04 1.67290E-10-1.53022E-10
 -1       715-1.15078E+05-1.06476E+04-1.40459E+04-4.55323E+04-5.41831E-10 4.36557E-11
 -1       716 2.03852E+04-3.53541E+03 8.16341E+03 1.62879E+02 6.66063E-10-2.95586E-11
 -1       717 2.40254E+04 4.09200E+03 5.79523E+03-5.76318E+02 2.60741E-10-5.69571E-11
 -1       718 2.17706E+04-5.54096E+02 2.11718E+03 1.36479E+02-5.76641E-11 1.46429E-10
 -1       719 2.24032E+04 6.41597E+02 1.34685E+03-5.33310E+02-5.57900E-11 1.43586E-10
 -1       720 2.20067E+04-8.72699E+01 5.64791E+02 1.19871E+02 2.72964E-10 4.35818E-10
 -1       721 2.21266E+04 1.07343E+02 3.73550E+02-5.07668E+02 5.33735E-10-2.01148E-10
 -1       722 2.20467E+04-1.99268E+01 2.47144E+02 1.10838E+02 4.30208E-10 3.73696E-10
 -1       723 2.21004E+04 6.59469E+01 3.20591E+02-4.96710E+02 2.00281E-10-1.15307E-10
 -1       724 2.20328E+04-4.57787E+01 4.79254E+02 1.08912E+02 6.41653E-10 4.09386E-10
 -1       725 2.22410E+04 3.29686E+02 1.04358E+03-4.99878E+02 7.46334E-10 1.77778E-11
 -1       726 2.19061E+04-2.83530E+02 1.77323E+03 1.14006E+02 5.12888E-10 1.08230E-10
 -1       727 2.31154E+04 2.10090E+03 4.36049E+03-5.17572E+02 4.65704E-10-2.59661E-10
 -1       728 2.11587E+04-1.81589E+03 6.93277E+03 1.26607E+02 1.67848E-10-5.77529E-11
 -1       729 2.83578E+04 1.34113E+04 1.89649E+04-5.54868E+02 1.51479E-10 3.04453E-10
 -1       730 1.66650E+04-1.15849E+04 2.67907E+04 1.51298E+02 6.67931E-10-1.21872E-10
 -1       731-4.51839E+03 4.53861E+04 1.04705E+04-2.21578E+02-3.81078E-10-1.98654E-10
 -1       732 5.31442E+03 5.00245E+04 7.55989E+03 7.18614E+02 7.08269E-11 7.91243E-11
 -1       733-7.92459E+02 4.71116E+04 2.98761E+03-1.77404E+02-2.01567E-10 1.78932E-10
 -1       734 1.45661E+03 4.82152E+04 2.53024E+03 6.54106E+02-1.95683E-11 7.12790E-11
 -1       735-6.63215E+02 4.71948E+04 1.83174E+03-1.57071E+02-5.18412E-11 1.13400E-10
 -1       736-2.47843E+05-2.84528E+04-1.82944E+04-9.70578E+04 1.72213E-09-1.59889E-09
 -1       737-2.59423E+05-4.28762E+04-1.26369E+04-9.11587E+04 3.92123E-09 9.96920E-10
 -1       738-2.51068E+05-3.53091E+04-4.27914E+03-9.61476E+04 1.10253E-09 3.71642E-09
 -1       739-2.55374E+05-3.51082E+04-2.66201E+03-9.23912E+04-2.45713E-09-6.58986E-10
 -1       740-2.51891E+05-3.62144E+04-1.01873E+03-9.58280E+04-4.30461E-10-1.95183E-09
 -1       741-2.53708E+05-3.45529E+04-5.18830E+02-9.32907E+04 4.62677E-10-1.59263E-09
 -1       742-2.52727E+05-3.58677E+04-3.36403E+02-9.52440E+04 4.36714E-10 1.48091E-10
 -1       743-2.52196E+05-3.55956E+04-1.16592E+02-9.46726E+04-9.11527E-10 6.06033E-10
 -1       744-2.53400E+05-3.51743E+04-3.13167E+02-9.44434E+04-4.02437E-10-5.90525E-10
 -1       745-2.51301E+05-3.69749E+04-4.71628E+02-9.61028E+04 1.68052E-09 9.39849E-10
 -1       746-2.53627E+05-3.44853E+04-9.11029E+02-9.38171E+04 2.38924E-09 4.39033E-09
 -1       747-2.51588E+05-3.86738E+04-2.38543E+03-9.66766E+04 1.05017E-09 7.75259E-10
 -1       748-2.53119E+05-3.34723E+04-3.83256E+03-9.38732E+04 2.04830E-09 1.11527E-09
 -1       749-2.55626E+05-4.51365E+04-1.12981E+04-9.50067E+04-1.17541E-09 1.53295E-09
 -1       750-2.49587E+05-2.80292E+04-1.63859E+04-9.54838E+04-4.46107E-10-1.25874E-09
 -1       751 5.95462E+05-3.40853E+04 7.88880E+04 5.27758E+02-6.10331E-09-2.00089E-10
 -1       752 6.29670E+05 3.94621E+04 5.58100E+04-7.66806E+02-1.12126E-09-5.89353E-10
 -1       753 6.08661E+05-5.34320E+03 2.04285E+04 1.71565E+02 1.86089E-10-4.54747E-11
 -1       754 6.14301E+05 6.18370E+03 1.28487E+04-2.86741E+02 4.77815E-10 7.34190E-10
 -1       755 6.10839E+05-8.35942E+02 5.25770E+03 4.77092E+01-6.46009E-10 7.00311E-11
 -1       756 6.11767E+05 9.79762E+02 3.14316E+03-1.19626E+02-8.39536E-10-2.08786E-10
 -1       757 6.11199E+05-1.43233E+02 1.54457E+03 4.44776E+00 8.88532E-08 3.68459E-10
 -1       758 6.11390E+05 2.54657E+02 1.23610E+03-6.38510E+01 1.76825E-07 1.65482E-10
 -1       759 6.11218E+05-1.11315E+02 1.25776E+03-8.06674E+00 4.52215E-08 7.16824E-10
 -1       760 6.11620E+05 7.05276E+02 2.31337E+03-5.52701E+01-8.70966E-08 2.19956E-10
 -1       761 6.10969E+05-5.93539E+02 3.76427E+03-4.13330E+00-4.25300E-07-1.00749E-09
 -1       762 6.13406E+05 4.38111E+03 9.12009E+03-8.41284E+01-7.61953E-07 7.31120E-10
 -1       763 6.09428E+05-3.78432E+03 1.44766E+04 2.07921E+01-3.81161E-07 1.11231E-09
 -1       764 6.24278E+05 2.79453E+04 3.95250E+04-1.84836E+02-6.71951E-10 1.91358E-09
 -1       765 6.00088E+05-2.41377E+04 5.58641E+04 9.65727E+01-7.25651E-11 2.54659E-11
 -1       766-1.47593E+04 9.43732E+04 3.46153E+04 3.59515E+02 8.91305E-10-2.81236E-10
 -1       767 1.82156E+04 1.09768E+05 2.64748E+04-1.80097E+03 1.81171E-09-3.01998E-10
 -1       768-3.44076E+03 9.95236E+04 1.29799E+04 3.93368E+02 7.21684E-10 1.23148E-10
 -1       769 1.11920E+04 1.06625E+05 1.73327E+04-1.99386E+03 4.40764E-10-3.67972E-11
 -1       770-7.74332E+03 9.75179E+04 1.88201E+04 5.52403E+02-2.40107E-10 8.08399E-10
 -1       771-3.30688E+05-6.67398E+04-1.10433E+04-1.43561E+05-4.47926E-10-2.23736E-10
 -1       772-3.29679E+05-6.67804E+04-5.42255E+03-1.48348E+05 5.82531E-10-3.34694E-10
 -1       773-3.31125E+05-6.26366E+04-2.30364E+03-1.45319E+05-2.33740E-10-2.56023E-10
 -1       774-3.28423E+05-6.53902E+04-1.12604E+03-1.48658E+05 3.06500E-10-5.08976E-10
 -1       775-3.31199E+05-6.24745E+04-5.19383E+02-1.45399E+05 7.45786E-11-5.33760E-10
 -1       776-3.28338E+05-6.53377E+04-2.62665E+02-1.48672E+05-1.90994E-10-6.44064E-10
 -1       777-3.31222E+05-6.24752E+04-1.42714E+02-1.45404E+05 3.77440E-11 4.97096E-11
 -1       778-3.28337E+05-6.53355E+04-1.11742E+02-1.48678E+05 1.41881E-10 6.57479E-10
 -1       779-3.31230E+05-6.24706E+04-1.40566E+02-1.45408E+05 4.86580E-11 1.70587E-10
 -1       780-3.28351E+05-6.53336E+04-2.57660E+02-1.48687E+05 4.32010E-11-1.24601E-10
 -1       781-3.31224E+05-6.24600E+04-5.08396E+02-1.45410E+05-1.52568E-10-1.00499E-10
 -1       782-3.28442E+05-6.53886E+04-1.10436E+03-1.48697E+05 8.24798E-11-9.64064E-11
 -1       783-3.31171E+05-6.26020E+04-2.25693E+03-1.45332E+05 8.63167E-11 1.04592E-11
 -1       784-3.29615E+05-6.68270E+04-5.31960E+03-1.48495E+05-2.20922E-10-4.07908E-10
 -1       785-3.30823E+05-6.65514E+04-1.08278E+04-1.43534E+05 8.60609E-11 3.04681E-10
 -1       786 5.23752E+04-1.47135E+03 6.81963E+03-4.77703E+02 5.28644E-11-9.04947E-11
 -1       787 5.47980E+04 2.06475E+03 4.33726E+03-1.69564E+03-2.11742E-11 4.70095E-11
 -1       788 5.33944E+04-1.47194E+02 1.76551E+03-4.73655E+02 2.30358E-10 2.94449E-11
 -1       789 5.36663E+04 1.96021E+02 9.79479E+02-1.69950E+03 4.49347E-11-1.12621E-10
 -1       790 5.35066E+04-1.56809E+01 4.48088E+02-4.73808E+02 2.51308E-09-3.79913E-10
 -1       791 5.35396E+04 1.83794E+01 2.39524E+02-1.69922E+03 5.49194E-09-7.46368E-10
 -1       792 5.35208E+04-2.00663E+00 1.23270E+02-4.73937E+02 2.50471E-09-1.97431E-10
 -1       793 5.35241E+04 2.34170E+00 8.19521E+01-1.69914E+03 1.48450E-11-3.88162E-10
 -1       794 5.35221E+04-1.11216E+00 7.62078E+01-4.73885E+02 2.53294E-10-3.84816E-10
 -1       795 5.35287E+04 8.07599E+00 1.15954E+02-1.69951E+03 1.36033E-10 2.22665E-10
 -1       796 5.35163E+04-6.93269E+00 2.01144E+02-4.73574E+02-1.09878E-10-3.31539E-11
 -1       797 5.35837E+04 8.54542E+01 4.30375E+02-1.69991E+03-1.29219E-10-1.75934E-10
 -1       798 5.34674E+04-6.43621E+01 7.71994E+02-4.73484E+02-4.04441E-11 3.12639E-10
 -1       799 5.40779E+04 9.01099E+02 1.89393E+03-1.69549E+03-2.50651E-10 6.67654E-10
 -1       800 5.30226E+04-6.42456E+02 2.97700E+03-4.78015E+02-3.86535E-12 2.29647E-11
 -1       801-1.61632E+03 5.09751E+04 8.06004E+03-5.67708E+04-2.30602E-09 5.31145E-10
 -1       802 3.39688E+03 5.38014E+04 8.43677E+03-2.02087E+05-9.79526E-10-5.67297E-10
 -1       803-6.37132E+02 5.12808E+04 9.56876E+03-5.65748E+04-3.11502E-09 1.03600E-09
 -1       804 1.00078E+04 5.78276E+04 2.04728E+04-2.02081E+05-1.67893E-09-1.00385E-09
 -1       805-6.77936E+03 4.69695E+04 3.09820E+04-5.67769E+04-1.19690E-09 9.47693E-10
 -1       806-5.17976E+04-1.42536E+04-4.34536E+03-2.44933E+04 1.39977E-10-7.13953E-11
 -1       807-5.17683E+04-1.31808E+04-2.05928E+03-2.58746E+04-2.79897E-09-7.00766E-09
 -1       808-5.17698E+04-1.20080E+04-8.65446E+02-2.54344E+04 2.45564E-09 7.23702E-09
 -1       809-5.13379E+04-1.23917E+04-4.17941E+02-2.60612E+04-5.64796E-10 3.92212E-10
 -1       810-5.17796E+04-1.18505E+04-1.88703E+02-2.55043E+04 5.72413E-11-7.81313E-11
 -1       811-5.12948E+04-1.23382E+04-9.43837E+01-2.60693E+04 1.89118E-10-4.86523E-10
 -1       812-5.17830E+04-1.18454E+04-4.89874E+01-2.55076E+04-3.49587E-12 2.09297E-10
 -1       813-5.12903E+04-1.23367E+04-3.55210E+01-2.60684E+04 6.08864E-11 3.32761E-10
 -1       814-5.17831E+04-1.18459E+04-4.04188E+01-2.55075E+04-8.81641E-11-4.20641E-12
 -1       815-5.12934E+04-1.23382E+04-7.16381E+01-2.60685E+04-6.25562E-11 3.57545E-10
 -1       816-5.17801E+04-1.18501E+04-1.39767E+02-2.55048E+04-2.51816E-10-2.10775E-10
 -1       817-5.13259E+04-1.23766E+04-3.08026E+02-2.60609E+04 2.41243E-10-3.96540E-10
 -1       818-5.17718E+04-1.19675E+04-6.36966E+02-2.54545E+04-1.02546E-10 2.37833E-10
 -1       819-5.16519E+04-1.29474E+04-1.51512E+03-2.59122E+04-3.77895E-10 6.06519E-11
 -1       820-5.17825E+04-1.36277E+04-3.19665E+03-2.47717E+04 6.54836E-11 7.33280E-11
 -1       821-5.54994E+04 1.54319E+03-7.15418E+03 5.27681E+02-5.62807E-10 1.10504E-10
 -1       822-5.80401E+04-2.16600E+03-4.55017E+03 1.87291E+03-3.21052E-10-1.02642E-09
 -1       823-5.65686E+04 1.54270E+02-1.85278E+03 5.18967E+02 7.55335E-10-7.47264E-10
 -1       824-5.68538E+04-2.05198E+02-1.02879E+03 1.88287E+03-1.93495E-10-5.44333E-10
 -1       825-5.66865E+04 1.65202E+01-4.72784E+02 5.17684E+02-1.05385E-09 1.78090E-10
 -1       826-5.67217E+04-1.86307E+01-2.56776E+02 1.88475E+03-1.83894E-09 9.45306E-11
 -1       827-5.67013E+04 2.39328E+00-1.40236E+02 5.17073E+02-1.16864E-09 3.02691E-12
 -1       828-5.67068E+04-2.27720E+00-1.08469E+02 1.88578E+03-1.35503E-09-3.60622E-10
 -1       829-5.67018E+04 2.13489E+00-1.23839E+02 5.16661E+02-1.24771E-10-4.10132E-10
 -1       830-5.67183E+04-1.48901E+01-2.13779E+02 1.88622E+03 8.84741E-10-9.84023E-10
 -1       831-5.66900E+04 1.36337E+01-3.86785E+02 5.16630E+02-7.03839E-10-1.04808E-09
 -1       832-5.68258E+04-1.66405E+02-8.37693E+02 1.88582E+03 2.31168E-10-5.85644E-10
 -1       833-5.65942E+04 1.25701E+02-1.50690E+03 5.17067E+02 6.64784E-11-1.43245E-11
 -1       834-5.77905E+04-1.76052E+03-3.69978E+03 1.88099E+03-1.50806E-10 1.73486E-10
 -1       835-5.57250E+04 1.25503E+03-5.81665E+03 5.21527E+02 5.49164E-10-4.82487E-10
 -1       836-2.34960E+03 1.36237E+05 1.15047E+04-3.93219E+03-1.82354E-10 2.34195E-11
 -1       837 3.70478E+03 1.40408E+05 8.92604E+03-1.39475E+04 3.77440E-11-1.01764E-09
 -1       838-5.66327E+02 1.37581E+05 6.72211E+03-3.91993E+03-2.97746E-10 5.53726E-11
 -1       839 5.04496E+03 1.41220E+05 1.13640E+04-1.39477E+04 1.87470E-10 3.48919E-10
 -1       840-3.39351E+03 1.35425E+05 1.61484E+04-3.93191E+03-3.85626E-10 7.97399E-10
 -1       841-1.38964E+03 5.61561E+02-1.94842E+03-8.65343E+02 2.23309E-10-3.30033E-10
 -1       842-2.45012E+03-1.19851E+03-1.35252E+03-4.90849E+02-1.88635E-10 4.90701E-11
 -1       843-1.78719E+03-1.39582E+02-4.56228E+02-7.33179E+02 4.43286E-10 1.59645E-10
 -1       844-1.98825E+03-3.86497E+02-2.84229E+02-6.43099E+02 1.47020E-09-5.55801E-10
 -1       845-1.85146E+03-2.49931E+02-1.03948E+02-7.13300E+02-6.74572E-11-2.05624E-10
 -1       846-1.91313E+03-2.58109E+02-5.70192E+01-6.65946E+02-6.36733E-10 1.68987E-10
 -1       847-1.86230E+03-2.67891E+02-1.63176E+01-7.10363E+02-1.74571E-07 6.48470E-08
 -1       848-1.89802E+03-2.33514E+02 5.79076E+00-6.69842E+02-3.48077E-07 1.30932E-07
 -1       849-1.86657E+03-2.74512E+02 2.93506E+01-7.09411E+02-2.86511E-07 1.07440E-07
 -1       850-1.87825E+03-2.01663E+02 8.49618E+01-6.75073E+02-2.28568E-07 8.57646E-08
 -1       851-1.88207E+03-2.99726E+02 1.50591E+02-7.05139E+02-1.67202E-06 6.27667E-07
 -1       852-1.76997E+03-1.81144E+01 4.08874E+02-7.08070E+02-3.11232E-06 1.16741E-06
 -1       853-1.97483E+03-4.57950E+02 6.55294E+02-6.76455E+02-1.56061E-06 5.85839E-07
 -1       854-1.10594E+03 1.14721E+03 1.94229E+03-9.27244E+02-4.29077E-09 1.59392E-09
 -1       855-2.54599E+03-1.46429E+03 2.79763E+03-4.86246E+02 3.50724E-11 1.34150E-11
 -1       856-6.64441E+04 1.47032E+03-6.81774E+03 1.06273E+03-1.22111E-09-6.48924E-10
 -1       857-6.88641E+04-2.06273E+03-4.33578E+03 3.79192E+03-1.01090E-09-9.39963E-10
 -1       858-6.74634E+04 1.47193E+02-1.76538E+03 1.04853E+03-1.18814E-09-7.47150E-10
 -1       859-6.77348E+04-1.93714E+02-9.79621E+02 3.80861E+03 4.42810E-11-7.23560E-10
 -1       860-6.75759E+04 1.62119E+01-4.49172E+02 1.04596E+03 1.86446E-11-6.17945E-10
 -1       861-6.76096E+04-1.55930E+01-2.41822E+02 3.81202E+03-1.38557E-09-8.08555E-10
 -1       862-6.75902E+04 2.84841E+00-1.28022E+02 1.04511E+03 1.97565E-09-6.51383E-10
 -1       863-6.75951E+04 4.03556E-01-9.18149E+01 3.81306E+03 4.39363E-09-5.05047E-10
 -1       864-6.75911E+04 2.27840E+00-9.55145E+01 1.04491E+03 1.59993E-09-9.96003E-10
 -1       865-6.76024E+04-8.33885E+00-1.56515E+02 3.81265E+03 3.06676E-09-6.80400E-10
 -1       866-6.75827E+04 1.03128E+01-2.78632E+02 1.04552E+03-3.17357E-10-8.35804E-10
 -1       867-6.76785E+04-1.17086E+02-6.00508E+02 3.81028E+03-2.58126E-10-1.22181E-10
 -1       868-6.75140E+04 9.02303E+01-1.07932E+03 1.04729E+03 3.44073E-10-1.48435E-09
 -1       869-6.83678E+04-1.25876E+03-2.64874E+03 3.79635E+03-3.17726E-10-7.95808E-10
 -1       870-6.68914E+04 8.98225E+02-4.16447E+03 1.05951E+03 2.13015E-09-7.84439E-11
 -1       871-6.47613E+02-6.36985E+03-1.23086E+03 1.86790E+04-9.62018E-10-2.84331E-10
 -1       872-1.96050E+02-6.59097E+03-3.57064E+02 2.19271E+04-1.45928E-09-2.57160E-10
 -1       873 2.49506E+01-6.50356E+03 3.70748E+02 1.86427E+04-9.64064E-10-5.18071E-09
 -1       874 4.42045E+02-6.20838E+03 1.37175E+03 2.19429E+04-1.25692E-09-1.00285E-08
 -1       875 1.41223E+03-6.75569E+03 2.95517E+03 1.86638E+04-8.24457E-10-5.42610E-09
 -1       876 8.10821E+04 1.02972E+04 7.65141E+03 3.18611E+04 2.01112E-10 3.40151E-10
 -1       877 8.27827E+04 1.60573E+04 4.79682E+03 3.30048E+04 1.10194E-09-1.18007E-10
 -1       878 8.23847E+04 1.19583E+04 1.80553E+03 3.16954E+04-6.20446E-11-3.78122E-10
 -1       879 8.12829E+04 1.38558E+04 9.86859E+02 3.33188E+04 1.95115E-10-4.17401E-10
 -1       880 8.25292E+04 1.21331E+04 4.21430E+02 3.16838E+04 1.92529E-10-4.20897E-10
 -1       881 8.11167E+04 1.36308E+04 2.25160E+02 3.33412E+04-7.04958E-10-9.15293E-10
 -1       882 8.25458E+04 1.21525E+04 1.20874E+02 3.16842E+04-3.42010E-09 1.46954E-10
 -1       883 8.11003E+04 1.36098E+04 1.04069E+02 3.33410E+04-5.88358E-10 1.37351E-09
 -1       884 8.25449E+04 1.21524E+04 1.36541E+02 3.16844E+04 1.23748E-09 2.00458E-10
 -1       885 8.11228E+04 1.36351E+04 2.68368E+02 3.33397E+04 3.89795E-09 1.78593E-09
 -1       886 8.25237E+04 1.21295E+04 5.09320E+02 3.16846E+04 6.95479E-10 4.16634E-10
 -1       887 8.13259E+04 1.39075E+04 1.19695E+03 3.33112E+04 1.25638E-10-3.86763E-10
 -1       888 8.23474E+04 1.19176E+04 2.19124E+03 3.16990E+04 7.66814E-10-5.22050E-10
 -1       889 8.31454E+04 1.65816E+04 5.82297E+03 3.29314E+04-6.61096E-10-1.56297E-09
 -1       890 8.07675E+04 9.89961E+03 9.28810E+03 3.18981E+04-2.70802E-10 1.45519E-11
 -1       891 2.85724E+02-3.63897E+04-1.42632E+03 4.44274E+03-1.15170E-09 3.19346E-10
 -1       892-4.67864E+02-3.69026E+04-1.13704E+03 1.58092E+04-1.24766E-09-7.77561E-10
 -1       893 7.52516E+01-3.65501E+04-9.05648E+02 4.42613E+03-2.33342E-10 8.66564E-10
 -1       894-7.20637E+02-3.70553E+04-1.59658E+03 1.58081E+04-2.25600E-09 4.13792E-10
 -1       895 4.82310E+02-3.62364E+04-2.30162E+03 4.44381E+03-5.56383E-10-1.99975E-10
 -1       896 1.74297E+05-1.35398E+03 3.13179E+03 9.44365E+01 2.19506E-10 3.07409E-10
 -1       897 1.75647E+05 1.56743E+03 2.21785E+03-1.82659E+02 1.83112E-10 2.62531E-10
 -1       898 1.74823E+05-2.12269E+02 8.13473E+02 5.09424E+01 1.51166E-10 1.36595E-10
 -1       899 1.75035E+05 2.46010E+02 5.15864E+02-1.14134E+02 4.26242E-10 1.23634E-10
 -1       900 1.74909E+05-3.35782E+01 2.19414E+02 2.59105E+01 7.14380E-11 2.54445E-11
 -1       901 1.74936E+05 4.18826E+01 1.47846E+02-7.51421E+01-4.04706E-09-5.10294E-11
 -1       902 1.74922E+05-8.28415E+00 1.04458E+02 1.19498E+01-1.23978E-06 1.32332E-11
 -1       903 1.74930E+05 2.97013E+01 1.44088E+02-5.42363E+01-2.47297E-06-1.72513E-10
 -1       904 1.74914E+05-2.14040E+01 2.22153E+02 5.00425E+00-1.55549E-06-3.45963E-11
 -1       905 1.74996E+05 1.54677E+02 4.88338E+02-4.53682E+01-6.33420E-07-1.74147E-10
 -1       906 1.74856E+05-1.33179E+02 8.32370E+02 3.08157E+00-2.90902E-08-1.16643E-10
 -1       907 1.75401E+05 9.86477E+02 2.04610E+03-4.59879E+01 5.72700E-07 2.73133E-11
 -1       908 1.74509E+05-8.52584E+02 3.25665E+03 5.62404E+00 8.89040E-07-1.85764E-10
 -1       909 1.77851E+05 6.29641E+03 8.90190E+03-5.63463E+01 1.20177E-06-1.69734E-10
 -1       910 1.72405E+05-5.43876E+03 1.25822E+04 1.34400E+01 6.03242E-07 9.45874E-11
 -1       911 4.82117E+04-6.08145E+02 1.40699E+03-3.89471E+01 3.08770E-10 6.87237E-11
 -1       912 4.88197E+04 7.04086E+02 9.96896E+02 1.63467E+02 3.34689E-09 2.64265E-10
 -1       913 4.84474E+04-9.53804E+01 3.67125E+02-3.23036E+01 9.95198E-07 8.66862E-11
 -1       914 4.85454E+04 1.10807E+02 2.35342E+02 1.55056E+02 1.98453E-06 8.95000E-11
 -1       915 4.84861E+04-1.53302E+01 1.05705E+02-3.05360E+01 9.95015E-07-3.19389E-12
 -1       916 4.85023E+04 2.07823E+01 8.16915E+01 1.56259E+02 3.14272E-09 2.36950E-10
 -1       917 4.84905E+04-5.42574E+00 7.55127E+01-3.35072E+01 2.11203E-10 1.34399E-10
 -1       918 4.85076E+04 2.62845E+01 1.27969E+02 1.67148E+02 2.40242E-10 1.68287E-10
 -1       919 4.84808E+04-2.08507E+01 2.13848E+02-4.14250E+01 2.50321E-10-5.82858E-11
 -1       920 4.85770E+04 1.53414E+02 4.83056E+02 1.88594E+02-5.27329E-11-8.71978E-11
 -1       921 4.84212E+04-1.32513E+02 8.26481E+02-5.49529E+01 3.72228E-10-6.40057E-11
 -1       922 4.89851E+04 9.82161E+02 2.03790E+03 2.22467E+02 3.39746E-10-2.40647E-10
 -1       923 4.80727E+04-8.49063E+02 3.24120E+03-7.52991E+01 2.39174E-10-4.99767E-10
 -1       924 5.14335E+04 6.27073E+03 8.86727E+03 2.73292E+02 5.81895E-10-7.70910E-10
 -1       925 4.59730E+04-5.41691E+03 1.25270E+04-1.05776E+02 7.74168E-10-8.75843E-10
 -1       926-2.19554E+05 4.91536E+03-1.13684E+04 3.17019E+02 5.80353E-10-1.13687E-09
 -1       927-2.24463E+05-5.68998E+03-8.04146E+03-5.17699E+02 1.11154E-09-9.14952E-10
 -1       928-2.21461E+05 7.70263E+02-2.94133E+03 2.40895E+02-2.38856E-10-8.32642E-10
 -1       929-2.22234E+05-8.90571E+02-1.83994E+03-2.91622E+02-1.30303E-09-9.65855E-10
 -1       930-2.21783E+05 1.19496E+02-7.46090E+02 9.09395E+01-1.80759E-10-2.70063E-10
 -1       931-2.21859E+05-1.36670E+02-4.17244E+02 3.35683E+01 4.74879E-10-8.28777E-11
 -1       932-2.21836E+05 1.67755E+01-1.68987E+02-8.43008E+01-3.76481E-11 1.76826E-10
 -1       933-2.21801E+05-1.08137E+01-5.07825E+01 3.51762E+02-2.20401E-11 4.63576E-10
 -1       934-2.21841E+05-6.10956E+00 4.15702E+01-2.27259E+02 1.05759E-10 7.46148E-10
 -1       935-2.21774E+05 6.29664E+01 1.82874E+02 5.58245E+02 3.81757E-11 8.79112E-10
 -1       936-2.21862E+05-5.66837E+01 3.45137E+02-2.90788E+02-1.58263E-10 9.16373E-10
 -1       937-2.21600E+05 4.24391E+02 8.74514E+02 5.84844E+02 7.65807E-10 8.83745E-10
 -1       938-2.22016E+05-3.67220E+02 1.39814E+03-2.53859E+02 5.35422E-10 5.75369E-10
 -1       939-2.20531E+05 2.71295E+03 3.83481E+03 4.23058E+02 2.30312E-10 6.55689E-10
 -1       940-2.22930E+05-2.34365E+03 5.41480E+03-1.28999E+02-2.56399E-10 4.32919E-10
 -1       941 9.70064E+05-4.87166E+04 1.12794E+05 6.16537E+01-5.08898E-08 8.58563E-10
 -1       942 1.01890E+06 5.64039E+04 7.97825E+04 1.04570E+01-1.08841E-07-8.73115E-10
 -1       943 9.88916E+05-7.63783E+03 2.92135E+04 4.46539E+01-1.00492E-07 3.27418E-11
 -1       944 9.96964E+05 8.83998E+03 1.83773E+04 3.16063E+01-9.04980E-08-6.22094E-10
 -1       945 9.92030E+05-1.19544E+03 7.53057E+03 4.05080E+01-5.74486E-08 7.53516E-10
 -1       946 9.93348E+05 1.40376E+03 4.51913E+03 3.64977E+01-2.61449E-08 1.38334E-09
 -1       947 9.92542E+05-2.07463E+02 2.25413E+03 3.97631E+01 1.83451E-08 1.10208E-09
 -1       948 9.92819E+05 3.84288E+02 1.86649E+03 3.62183E+01 6.41411E-08 8.18002E-10
 -1       949 9.92560E+05-1.76660E+02 1.97736E+03 4.07875E+01 1.99547E-07-1.24987E-09
 -1       950 9.93205E+05 1.13892E+03 3.71850E+03 3.02545E+01 3.35316E-07 9.97488E-10
 -1       951 9.92154E+05-9.61576E+02 6.08946E+03 4.57269E+01 7.89558E-07-1.68734E-09
 -1       952 9.96103E+05 7.10108E+03 1.47806E+04 6.01325E+00 1.24012E-06-1.52340E-10
 -1       953 9.89655E+05-6.13419E+03 2.34712E+04 6.50285E+01 6.19124E-07 1.26693E-09
 -1       954 1.01372E+06 4.52986E+04 6.40778E+04-8.92327E+01 1.03061E-09 9.45874E-11
 -1       955 9.74512E+05-3.91250E+04 9.05784E+04 1.40967E+02-5.96182E-09 2.47383E-10
 -1       956-4.99652E+04-8.83025E+02-1.87889E+03 6.78365E+03-8.16044E-10-2.36810E-10
 -1       957-5.03105E+04-2.82911E+02-9.49962E+02 7.90032E+03-3.06954E-10 3.81988E-11
 -1       958-5.01179E+04-3.33356E+01-4.27130E+02 6.74338E+03 5.88443E-10-1.05558E-10
 -1       959-5.01478E+04-7.58999E+00-2.17429E+02 7.94447E+03-4.27349E-10-6.38863E-10
 -1       960-5.01325E+04 4.77610E+00-1.05451E+02 6.73942E+03-1.26147E-09-6.40171E-10
 -1       961-5.01341E+04 4.24646E+00-5.55943E+01 7.94882E+03-2.00652E-09 2.49315E-10
 -1       962-5.01351E+04 4.22955E+00-3.10970E+01 6.73902E+03-1.14039E-09 2.74554E-10
 -1       963-5.01331E+04 4.27705E+00-2.37604E+01 7.94932E+03-1.85196E-09-2.83990E-10
 -1       964-5.01357E+04 4.35261E+00-2.73057E+01 6.73892E+03-9.72079E-10-8.00810E-10
 -1       965-5.01347E+04 4.67105E+00-4.59404E+01 7.94920E+03 8.58165E-10-7.40783E-10
 -1       966-5.01344E+04 5.20979E+00-8.54978E+01 6.73913E+03 4.96755E-10-5.42798E-10
 -1       967-5.01467E+04-4.40566E+00-1.75506E+02 7.94685E+03 6.51653E-10 1.10560E-10
 -1       968-5.01234E+04-2.50773E+01-3.44315E+02 6.74127E+03-5.29053E-09-2.56080E-10
 -1       969-5.02786E+04-2.25932E+02-7.65713E+02 7.92305E+03-1.07871E-08 1.46514E-11
 -1       970-5.00008E+04-7.09697E+02-1.51431E+03 6.76309E+03-5.17025E-09-6.50971E-10
 -1       971-9.54418E+04 1.20586E+03-5.59305E+03 1.07591E+03-9.79412E-10-1.17552E-10
 -1       972-9.74227E+04-1.69195E+03-3.55715E+03 3.85007E+03-1.06559E-09-2.86661E-10
 -1       973-9.62779E+04 1.20660E+02-1.44929E+03 1.05976E+03-9.80890E-10-6.89511E-10
 -1       974-9.64970E+04-1.58585E+02-8.05755E+02 3.86969E+03 7.51299E-10 5.37852E-10
 -1       975-9.63702E+04 1.33656E+01-3.72838E+02 1.05623E+03 2.81165E-09-6.51312E-10
 -1       976-9.63949E+04-1.23932E+01-2.07255E+02 3.87462E+03 3.99280E-09 6.68052E-10
 -1       977-9.63817E+04 2.63239E+00-1.22530E+02 1.05482E+03 4.63083E-09-7.59883E-10
 -1       978-9.63850E+04-1.38224E-01-1.11397E+02 3.87649E+03 4.08134E-09-5.08706E-10
 -1       979-9.63811E+04 3.22545E+00-1.48686E+02 1.05437E+03 2.28825E-09 1.39053E-11
 -1       980-9.64017E+04-1.78533E+01-2.76039E+02 3.87631E+03 2.45628E-09 8.22053E-10
 -1       981-9.63650E+04 1.85210E+01-5.10170E+02 1.05500E+03 1.50635E-12-8.63935E-10
 -1       982-9.65442E+04-2.19592E+02-1.11140E+03 3.87359E+03-6.84395E-10 1.12237E-10
 -1       983-9.62376E+04 1.67255E+02-2.00207E+03 1.05711E+03 2.38629E-09-9.03356E-10
 -1       984-9.78256E+04-2.33896E+03-4.91720E+03 3.85910E+03 4.84366E-09 7.51584E-10
 -1       985-9.50819E+04 1.66805E+03-7.73146E+03 1.06961E+03 3.99325E-09-3.31056E-10
 -3
    1PSTEP                         7           4           1          
  100CL  104 1.36719E-01         841                     0    4           1
 -4  DISP        4    1
 -5  D1          1    2    1    0
 -5  D2          1    2    2    0
 -5  D3          1    2    3    0
 -5  ALL         1    2    0    0    1ALL
 -1         1 1.69723E-05 0.00000E+00 0.00000E+00
 -1         2 1.25336E-05 0.00000E+00 0.00000E+00
 -1         3 1.04476E-05 0.00000E+00 0.00000E+00
 -1         4 9.25188E-06 0.00000E+00 0.00000E+00
 -1         5 8.69142E-06 0.00000E+00 0.00000E+00
 -1         8 1.33970E-05-1.69218E-07 0.00000E+00
 -1         9 1.04862E-05 8.29387E-08 0.00000E+00
 -1        10 9.79955E-06-3.98481E-07 0.00000E+00
 -1        11 9.12051E-06-7.44431E-08 0.00000E+00
 -1        12 8.40966E-06 2.03233E-07 0.00000E+00
 -1        15 5.73991E-06-3.54713E-07 0.00000E+00
 -1        16 7.89018E-06 7.58735E-08 0.00000E+00
 -1        17 7.24551E-06-8.01058E-07 0.00000E+00
 -1        18 7.30225E-06-1.51401E-07 0.00000E+00
 -1        19 7.64282E-06 4.03274E-07 0.00000E+00
 -1        20 7.75803E-06 4.32421E-06 0.00000E+00
 -1        21 7.75464E-06 1.03377E-05 0.00000E+00
 -1        22 2.13333E-06-2.31024E-07 0.00000E+00
 -1        23 2.87089E-06 2.54044E-07 0.00000E+00
 -1        24 2.97619E-06-9.57016E-07 0.00000E+00
 -1        25 6.50593E-06-9.92865E-08 0.00000E+00
 -1        26 6.81506E-06 5.35443E-07 0.00000E+00
 -1        27 6.48739E-06 4.16848E-06 0.00000E+00
 -1        28 6.09470E-06 1.01895E-05 0.00000E+00
 -1        29 0.00000E+00 0.00000E+00 0.00000E+00
 -1        30 1.01486E-06 3.55040E-07 0.00000E+00
 -1        31 1.28466E-06-7.54798E-07 0.00000E+00
 -1        32 0.00000E+00 0.00000E+00 0.00000E+00
 -1        33 5.73614E-06 8.30147E-07 0.00000E+00
 -1        34 5.44389E-06 4.15360E-06 0.00000E+00
 -1        35 4.88351E-06 1.01102E-05 0.00000E+00
 -1        36 1.67038E-05-1.92201E-20-6.61744E-24
 -1        37 1.64264E-05-3.36726E-20 0.00000E+00
 -1        38 1.61496E-05-4.81690E-20 0.00000E+00
 -1        39 1.58711E-05-2.50697E-20 0.00000E+00
 -1        40 1.55926E-05 2.44914E-20 0.00000E+00
 -1        41 1.53137E-05 7.75001E-20 0.00000E+00
 -1        42 1.50348E-05 1.43828E-19 0.00000E+00
 -1        43 1.47558E-05 2.38333E-19-3.30872E-24
 -1        44 1.44768E-05 3.37266E-19-6.61744E-24
 -1        45 1.41978E-05 3.89361E-19-3.30872E-24
 -1        46 1.39189E-05 4.21809E-19 6.61744E-24
 -1        47 1.36402E-05 3.84802E-19 3.30872E-24
 -1        48 1.33615E-05 2.52587E-19 6.61744E-24
 -1        49 1.30839E-05 1.65224E-19 3.30872E-24
 -1        50 1.28059E-05 6.72667E-20 0.00000E+00
 -1        51 1.67003E-05-2.89370E-08 0.00000E+00
 -1        52 1.62520E-05-5.65827E-08 0.00000E+00
 -1        53 1.56616E-05-8.39638E-08 0.00000E+00
 -1        54 1.49649E-05-1.11451E-07 0.00000E+00
 -1        55 1.41980E-05-1.39428E-07 1.49926E-24
 -1        56 1.66312E-05-1.30296E-07 0.00000E+00
 -1        57 1.62785E-05-2.66979E-07 0.00000E+00
 -1        58 1.59253E-05-4.00317E-07 0.00000E+00
 -1        59 1.55670E-05-5.26499E-07 0.00000E+00
 -1        60 1.52039E-05-6.40009E-07 0.00000E+00
 -1        61 1.48339E-05-7.36299E-07 0.00000E+00
 -1        62 1.44557E-05-8.10879E-07 0.00000E+00
 -1        63 1.40677E-05-8.59552E-07-6.61744E-24
 -1        64 1.36686E-05-8.78442E-07 0.00000E+00
 -1        65 1.32569E-05-8.63890E-07-6.61744E-24
 -1        66 1.28316E-05-8.12733E-07 0.00000E+00
 -1        67 1.23918E-05-7.21971E-07 0.00000E+00
 -1        68 1.19364E-05-5.89364E-07 1.32349E-23
 -1        69 1.14666E-05-4.12172E-07 3.30872E-24
 -1        70 1.09792E-05-1.89982E-07 0.00000E+00
 -1        71 1.24026E-05-8.22659E-20 3.30872E-24
 -1        72 1.22719E-05-2.44235E-19 0.00000E+00
 -1        73 1.21412E-05-4.61432E-19 3.30872E-24
 -1        74 1.20106E-05-7.28734E-19-1.65436E-24
 -1        75 1.18800E-05-1.01906E-18 0.00000E+00
 -1        76 1.17494E-05-1.22387E-18 1.65436E-24
 -1        77 1.16188E-05-1.33548E-18 0.00000E+00
 -1        78 1.14882E-05-1.35508E-18 1.65436E-24
 -1        79 1.13576E-05-1.33028E-18 0.00000E+00
 -1        80 1.12270E-05-1.22049E-18 0.00000E+00
 -1        81 1.10964E-05-1.02901E-18 0.00000E+00
 -1        82 1.09660E-05-7.97760E-19 0.00000E+00
 -1        83 1.08355E-05-5.32298E-19 3.30872E-24
 -1        84 1.07055E-05-2.72745E-19-1.65436E-24
 -1        85 1.05753E-05-8.41658E-20 0.00000E+00
 -1        86 1.24490E-05 9.26677E-09 1.65436E-24
 -1        87 1.21966E-05 2.46080E-08 0.00000E+00
 -1        88 1.18258E-05 3.94924E-08-4.13590E-25
 -1        89 1.13859E-05 5.48764E-08 0.00000E+00
 -1        90 1.09238E-05 7.05198E-08 0.00000E+00
 -1        91 1.23455E-05 2.26059E-08-3.30872E-24
 -1        92 1.20955E-05 2.07735E-07 0.00000E+00
 -1        93 1.18046E-05 5.01931E-07-6.61744E-24
 -1        94 1.14931E-05 8.50566E-07-3.30872E-24
 -1        95 1.11887E-05 1.18031E-06 0.00000E+00
 -1        96 1.09189E-05 1.41789E-06-3.30872E-24
 -1        97 1.06993E-05 1.52153E-06 0.00000E+00
 -1        98 1.05453E-05 1.45037E-06 0.00000E+00
 -1        99 1.04487E-05 1.22591E-06 0.00000E+00
 -1       100 1.04012E-05 8.70757E-07 3.30872E-24
 -1       101 1.03770E-05 4.53460E-07 0.00000E+00
 -1       102 1.03503E-05 4.30865E-08 1.65436E-24
 -1       103 1.02961E-05-2.93810E-07 0.00000E+00
 -1       104 1.01902E-05-4.90925E-07-1.65436E-24
 -1       105 1.00254E-05-5.31592E-07-3.30872E-24
 -1       106 1.03728E-05 3.86953E-20 1.65436E-24
 -1       107 1.02980E-05 1.94629E-19 0.00000E+00
 -1       108 1.02231E-05 4.25951E-19 1.65436E-24
 -1       109 1.01482E-05 7.07332E-19 0.00000E+00
 -1       110 1.00733E-05 1.01104E-18 0.00000E+00
 -1       111 9.99842E-06 1.28215E-18 8.27181E-25
 -1       112 9.92353E-06 1.48760E-18 1.65436E-24
 -1       113 9.84864E-06 1.58578E-18-8.27181E-25
 -1       114 9.77375E-06 1.58617E-18 1.65436E-24
 -1       115 9.69887E-06 1.46436E-18-8.27181E-25
 -1       116 9.62400E-06 1.21577E-18 1.65436E-24
 -1       117 9.54918E-06 8.39882E-19 8.27181E-25
 -1       118 9.47436E-06 4.73057E-19-1.65436E-24
 -1       119 9.39981E-06 2.21807E-19 0.00000E+00
 -1       120 9.32517E-06 5.90506E-20 0.00000E+00
 -1       121 1.04393E-05-6.65626E-08 0.00000E+00
 -1       122 1.04038E-05-1.32908E-07 8.27181E-25
 -1       123 1.03314E-05-1.99263E-07 0.00000E+00
 -1       124 1.02129E-05-2.65613E-07 0.00000E+00
 -1       125 1.00387E-05-3.31963E-07 0.00000E+00
 -1       126 1.03801E-05-4.60315E-08-1.65436E-24
 -1       127 1.03262E-05-1.28342E-07 0.00000E+00
 -1       128 1.02821E-05-2.36947E-07 0.00000E+00
 -1       129 1.02441E-05-3.61838E-07 8.27181E-25
 -1       130 1.02072E-05-4.89771E-07 0.00000E+00
 -1       131 1.01665E-05-6.07500E-07 8.27181E-25
 -1       132 1.01179E-05-7.04186E-07 0.00000E+00
 -1       133 1.00574E-05-7.69050E-07-8.27181E-25
 -1       134 9.98291E-06-7.96677E-07-1.65436E-24
 -1       135 9.89249E-06-7.81773E-07 8.27181E-25
 -1       136 9.78693E-06-7.26487E-07 1.65436E-24
 -1       137 9.66712E-06-6.33084E-07 0.00000E+00
 -1       138 9.53642E-06-5.10662E-07 1.65436E-24
 -1       139 9.39851E-06-3.68313E-07 8.27181E-25
 -1       140 9.25783E-06-2.18842E-07 0.00000E+00
 -1       141 9.21629E-06-1.30993E-20 0.00000E+00
 -1       142 9.18094E-06-1.61344E-20 0.00000E+00
 -1       143 9.14557E-06 2.22744E-22-8.27181E-25
 -1       144 9.11024E-06 1.23093E-20 0.00000E+00
 -1       145 9.07492E-06 2.57444E-20 8.27181E-25
 -1       146 9.03961E-06 4.78145E-20-4.13590E-25
 -1       147 9.00430E-06 5.67617E-20-8.27181E-25
 -1       148 8.96900E-06 7.34008E-20-4.13590E-25
 -1       149 8.93370E-06 9.44393E-20 8.27181E-25
 -1       150 8.89843E-06 1.14540E-19 0.00000E+00
 -1       151 8.86317E-06 1.07098E-19 8.27181E-25
 -1       152 8.82801E-06 7.02290E-20 0.00000E+00
 -1       153 8.79287E-06 2.82518E-20 0.00000E+00
 -1       154 8.75825E-06-2.48874E-21 2.06795E-25
 -1       155 8.72346E-06-2.64147E-21 5.16988E-26
 -1       156 9.26156E-06-1.31150E-08 8.27181E-25
 -1       157 9.29004E-06-2.50953E-08 0.00000E+00
 -1       158 9.31360E-06-3.71606E-08-4.13590E-25
 -1       159 9.30851E-06-4.92399E-08 4.13590E-25
 -1       160 9.25180E-06-6.12317E-08 0.00000E+00
 -1       161 9.21061E-06-1.84388E-08 0.00000E+00
 -1       162 9.17122E-06-4.20370E-08 8.27181E-25
 -1       163 9.13281E-06-6.82213E-08 1.65436E-24
 -1       164 9.09439E-06-9.44319E-08 0.00000E+00
 -1       165 9.05497E-06-1.17947E-07 0.00000E+00
 -1       166 9.01352E-06-1.36054E-07-8.27181E-25
 -1       167 8.96933E-06-1.46861E-07 1.65436E-24
 -1       168 8.92170E-06-1.48487E-07 0.00000E+00
 -1       169 8.87024E-06-1.39890E-07 1.65436E-24
 -1       170 8.81459E-06-1.20039E-07-8.27181E-25
 -1       171 8.75477E-06-8.90729E-08 0.00000E+00
 -1       172 8.69095E-06-4.71116E-08 0.00000E+00
 -1       173 8.62349E-06 4.56484E-09 0.00000E+00
 -1       174 8.55342E-06 6.49047E-08-4.13590E-25
 -1       175 8.48078E-06 1.31448E-07 2.06795E-25
 -1       191 8.68195E-06 3.38488E-08 0.00000E+00
 -1       192 8.65710E-06 6.77376E-08 0.00000E+00
 -1       193 8.61707E-06 1.01636E-07 0.00000E+00
 -1       194 8.56222E-06 1.35531E-07 0.00000E+00
 -1       195 8.49292E-06 1.69410E-07-1.65436E-24
 -1       251 1.32194E-05 3.96882E-07-3.30872E-24
 -1       252 1.30374E-05 8.26120E-07 0.00000E+00
 -1       253 1.28557E-05 1.04436E-06 6.61744E-24
 -1       254 1.26731E-05 9.79198E-07 0.00000E+00
 -1       255 1.24904E-05 6.59034E-07 0.00000E+00
 -1       256 1.23075E-05 1.14362E-07 0.00000E+00
 -1       257 1.21246E-05-5.44445E-07-6.61744E-24
 -1       258 1.19415E-05-1.20608E-06 0.00000E+00
 -1       259 1.17586E-05-1.75825E-06 0.00000E+00
 -1       260 1.15758E-05-2.08954E-06 0.00000E+00
 -1       261 1.13930E-05-2.16712E-06 0.00000E+00
 -1       262 1.12104E-05-1.96025E-06 0.00000E+00
 -1       263 1.10277E-05-1.53939E-06-6.61744E-24
 -1       264 1.08459E-05-9.76759E-07 0.00000E+00
 -1       265 1.06637E-05-3.95032E-07-3.30872E-24
 -1       266 1.25594E-05-2.01386E-07 0.00000E+00
 -1       267 1.13167E-05-2.32309E-07 0.00000E+00
 -1       268 9.84019E-06-2.63625E-07 8.27181E-25
 -1       269 8.30150E-06-2.94533E-07 4.13590E-25
 -1       270 6.87625E-06-3.25334E-07-4.13590E-25
 -1       271 1.29022E-05 2.76402E-07 6.61744E-24
 -1       272 1.24509E-05 5.76711E-07-3.30872E-24
 -1       273 1.20464E-05 7.52804E-07 6.61744E-24
 -1       274 1.16805E-05 8.21908E-07 0.00000E+00
 -1       275 1.13475E-05 8.02575E-07 6.61744E-24
 -1       276 1.10406E-05 7.13118E-07 3.30872E-24
 -1       277 1.07530E-05 5.72129E-07 0.00000E+00
 -1       278 1.04776E-05 3.98282E-07 3.30872E-24
 -1       279 1.02075E-05 2.10343E-07 6.61744E-24
 -1       280 9.93571E-06 2.71251E-08 0.00000E+00
 -1       281 9.65513E-06-1.32594E-07 0.00000E+00
 -1       282 9.35895E-06-2.50056E-07 0.00000E+00
 -1       283 9.04012E-06-3.06675E-07 0.00000E+00
 -1       284 8.69284E-06-2.83609E-07 0.00000E+00
 -1       285 8.30880E-06-1.63158E-07 0.00000E+00
 -1       286 1.04421E-05 4.50810E-07 0.00000E+00
 -1       287 1.03992E-05 7.04810E-07 8.27181E-25
 -1       288 1.03563E-05 8.47893E-07 1.65436E-24
 -1       289 1.03136E-05 8.83221E-07 0.00000E+00
 -1       290 1.02709E-05 8.23796E-07 0.00000E+00
 -1       291 1.02282E-05 6.82798E-07 8.27181E-25
 -1       292 1.01855E-05 4.80853E-07 0.00000E+00
 -1       293 1.01428E-05 2.38695E-07 8.27181E-25
 -1       294 1.01001E-05-1.92669E-08-1.65436E-24
 -1       295 1.00574E-05-2.68594E-07 0.00000E+00
 -1       296 1.00148E-05-4.85640E-07-1.65436E-24
 -1       297 9.97203E-06-6.46818E-07 8.27181E-25
 -1       298 9.92932E-06-7.33633E-07 0.00000E+00
 -1       299 9.88639E-06-7.27740E-07 0.00000E+00
 -1       300 9.84353E-06-6.19253E-07 0.00000E+00
 -1       301 1.00528E-05 7.98888E-08-8.27181E-25
 -1       302 9.61670E-06 7.98802E-08 4.13590E-25
 -1       303 9.18015E-06 8.03775E-08 4.13590E-25
 -1       304 8.74539E-06 8.07539E-08 0.00000E+00
 -1       305 8.31467E-06 8.03622E-08-1.65436E-24
 -1       306 1.01661E-05 3.56438E-07-3.30872E-24
 -1       307 9.89275E-06 4.89073E-07 3.30872E-24
 -1       308 9.66415E-06 5.02816E-07 0.00000E+00
 -1       309 9.47178E-06 4.17597E-07 0.00000E+00
 -1       310 9.30867E-06 2.54079E-07 6.61744E-24
 -1       311 9.16705E-06 3.28087E-08 0.00000E+00
 -1       312 9.03930E-06-2.25515E-07 0.00000E+00
 -1       313 8.91763E-06-5.00168E-07-3.30872E-24
 -1       314 8.79430E-06-7.70377E-07 0.00000E+00
 -1       315 8.66156E-06-1.01538E-06-3.30872E-24
 -1       316 8.51166E-06-1.21448E-06 0.00000E+00
 -1       317 8.33697E-06-1.34701E-06-3.30872E-24
 -1       318 8.12978E-06-1.39248E-06 0.00000E+00
 -1       319 7.88327E-06-1.33025E-06 0.00000E+00
 -1       320 7.58876E-06-1.14055E-06 0.00000E+00
 -1       321 9.75588E-06-1.51921E-07 0.00000E+00
 -1       322 9.71335E-06 3.37740E-08 8.27181E-25
 -1       323 9.67075E-06 1.59582E-07-1.65436E-24
 -1       324 9.62838E-06 2.26600E-07 0.00000E+00
 -1       325 9.58601E-06 2.41246E-07-1.65436E-24
 -1       326 9.54368E-06 2.10034E-07-8.27181E-25
 -1       327 9.50136E-06 1.43633E-07 0.00000E+00
 -1       328 9.45905E-06 5.27768E-08 0.00000E+00
 -1       329 9.41673E-06-4.95864E-08-1.65436E-24
 -1       330 9.37442E-06-1.50489E-07 0.00000E+00
 -1       331 9.33211E-06-2.37093E-07-1.65436E-24
 -1       332 9.28980E-06-2.96587E-07-8.27181E-25
 -1       333 9.24749E-06-3.18616E-07 1.65436E-24
 -1       334 9.20518E-06-2.92894E-07 8.27181E-25
 -1       335 9.16287E-06-2.13457E-07 0.00000E+00
 -1       336 9.48517E-06-4.65940E-07 0.00000E+00
 -1       337 9.10981E-06-5.33265E-07 8.27181E-25
 -1       338 8.68578E-06-6.00583E-07 0.00000E+00
 -1       339 8.22545E-06-6.67742E-07-8.27181E-25
 -1       340 7.74123E-06-7.34919E-07 1.65436E-24
 -1       341 9.18442E-06 8.67003E-07 0.00000E+00
 -1       342 7.78881E-06 4.19297E-06-1.65436E-24
 -1       343 5.84844E-06 8.95524E-06 0.00000E+00
 -1       344 3.60161E-06 1.45214E-05-1.65436E-24
 -1       345 1.37627E-06 2.00310E-05 0.00000E+00
 -1       346-5.00120E-07 2.46236E-05 1.65436E-24
 -1       347-1.80161E-06 2.76998E-05 0.00000E+00
 -1       348-2.30764E-06 2.86676E-05 1.65436E-24
 -1       349-2.02629E-06 2.75355E-05 3.30872E-24
 -1       350-9.69932E-07 2.43240E-05 0.00000E+00
 -1       351 6.30359E-07 1.96458E-05-3.30872E-24
 -1       352 2.54286E-06 1.41231E-05 0.00000E+00
 -1       353 4.44832E-06 8.61962E-06 3.30872E-24
 -1       354 6.02841E-06 3.99953E-06-1.65436E-24
 -1       355 7.05362E-06 8.74323E-07-1.65436E-24
 -1       356 9.07580E-06 7.79720E-08 0.00000E+00
 -1       357 9.03103E-06 1.97493E-07 0.00000E+00
 -1       358 8.98626E-06 2.83818E-07-1.65436E-24
 -1       359 8.94148E-06 3.36712E-07 0.00000E+00
 -1       360 8.89670E-06 3.59135E-07 0.00000E+00
 -1       361 8.85192E-06 3.54110E-07-8.27181E-25
 -1       362 8.80714E-06 3.27285E-07 0.00000E+00
 -1       363 8.76237E-06 2.84351E-07-8.27181E-25
 -1       364 8.71760E-06 2.32539E-07-1.65436E-24
 -1       365 8.67286E-06 1.79098E-07 0.00000E+00
 -1       366 8.62813E-06 1.31435E-07-1.65436E-24
 -1       367 8.58352E-06 9.69418E-08 0.00000E+00
 -1       368 8.53893E-06 8.17544E-08-8.27181E-25
 -1       369 8.49493E-06 9.19686E-08 0.00000E+00
 -1       370 8.45073E-06 1.31257E-07 0.00000E+00
 -1       371 8.89046E-06-8.85734E-08 8.27181E-25
 -1       372 8.53958E-06-1.01472E-07 2.06795E-25
 -1       373 8.13668E-06-1.14461E-07-4.13590E-25
 -1       374 7.75058E-06-1.27056E-07-1.03398E-25
 -1       375 7.44966E-06-1.39665E-07 0.00000E+00
 -1       376 8.99131E-06 5.62084E-08-1.65436E-24
 -1       377 8.86985E-06 1.62677E-07 8.27181E-25
 -1       378 8.75860E-06 2.42170E-07-1.65436E-24
 -1       379 8.65847E-06 2.91400E-07 8.27181E-25
 -1       380 8.56891E-06 3.12418E-07 0.00000E+00
 -1       381 8.48912E-06 3.07269E-07 0.00000E+00
 -1       382 8.41666E-06 2.82556E-07 0.00000E+00
 -1       383 8.34905E-06 2.44932E-07 0.00000E+00
 -1       384 8.28289E-06 2.03433E-07 1.65436E-24
 -1       385 8.21481E-06 1.67120E-07 0.00000E+00
 -1       386 8.14193E-06 1.43646E-07 0.00000E+00
 -1       387 8.06150E-06 1.40673E-07 0.00000E+00
 -1       388 7.97173E-06 1.62611E-07 0.00000E+00
 -1       389 7.87166E-06 2.14087E-07 0.00000E+00
 -1       390 7.76061E-06 2.94071E-07 0.00000E+00
 -1       406 8.30892E-06 2.36765E-07 1.65436E-24
 -1       407 8.19582E-06 2.70323E-07 0.00000E+00
 -1       408 8.07143E-06 3.03862E-07 0.00000E+00
 -1       409 7.93698E-06 3.37321E-07 0.00000E+00
 -1       410 7.79368E-06 3.70605E-07-8.27181E-25
 -1       466 5.86891E-06 4.56035E-07 0.00000E+00
 -1       467 6.00384E-06 9.11910E-07 1.65436E-24
 -1       468 6.13849E-06 1.11225E-06-3.30872E-24
 -1       469 6.27424E-06 1.15481E-06 0.00000E+00
 -1       470 6.41002E-06 1.08489E-06 0.00000E+00
 -1       471 6.54601E-06 9.47137E-07-1.65436E-24
 -1       472 6.68201E-06 7.63571E-07-3.30872E-24
 -1       473 6.81804E-06 5.55949E-07 1.65436E-24
 -1       474 6.95406E-06 3.38003E-07 0.00000E+00
 -1       475 7.09002E-06 1.23409E-07-1.65436E-24
 -1       476 7.22594E-06-7.30429E-08-3.30872E-24
 -1       477 7.36151E-06-2.36456E-07 0.00000E+00
 -1       478 7.49704E-06-3.40927E-07 0.00000E+00
 -1       479 7.63081E-06-3.60194E-07 0.00000E+00
 -1       480 7.76516E-06-2.39728E-07 0.00000E+00
 -1       481 4.82095E-06-3.35187E-07 2.06795E-25
 -1       482 4.04354E-06-3.14488E-07-2.06795E-25
 -1       483 3.39568E-06-2.93770E-07-4.13590E-25
 -1       484 2.86552E-06-2.72836E-07 0.00000E+00
 -1       485 2.44680E-06-2.51826E-07-4.13590E-25
 -1       486 5.21974E-06 6.08453E-07 0.00000E+00
 -1       487 4.67604E-06 1.61684E-06 0.00000E+00
 -1       488 4.18120E-06 2.49644E-06-3.30872E-24
 -1       489 3.79976E-06 3.07122E-06 0.00000E+00
 -1       490 3.56110E-06 3.26569E-06 3.30872E-24
 -1       491 3.49239E-06 3.00639E-06 0.00000E+00
 -1       492 3.56545E-06 2.36857E-06-3.30872E-24
 -1       493 3.75105E-06 1.42992E-06 1.65436E-24
 -1       494 3.98333E-06 3.66457E-07 0.00000E+00
 -1       495 4.19616E-06-6.44938E-07 1.65436E-24
 -1       496 4.32974E-06-1.44443E-06 0.00000E+00
 -1       497 4.32486E-06-1.87359E-06 0.00000E+00
 -1       498 4.16718E-06-1.89510E-06 3.30872E-24
 -1       499 3.84442E-06-1.47398E-06 1.65436E-24
 -1       500 3.39653E-06-7.20819E-07-3.30872E-24
 -1       501 7.84752E-06 4.14160E-07 0.00000E+00
 -1       502 7.80709E-06 6.00871E-07 8.27181E-25
 -1       503 7.76653E-06 6.47224E-07-1.65436E-24
 -1       504 7.72639E-06 5.64680E-07 0.00000E+00
 -1       505 7.68625E-06 3.75767E-07 1.65436E-24
 -1       506 7.64617E-06 1.03208E-07 0.00000E+00
 -1       507 7.60609E-06-2.23101E-07-1.65436E-24
 -1       508 7.56601E-06-5.73176E-07 0.00000E+00
 -1       509 7.52594E-06-9.14986E-07 0.00000E+00
 -1       510 7.48589E-06-1.21652E-06 0.00000E+00
 -1       511 7.44586E-06-1.44921E-06-1.65436E-24
 -1       512 7.40584E-06-1.58463E-06 0.00000E+00
 -1       513 7.36583E-06-1.60268E-06 0.00000E+00
 -1       514 7.32579E-06-1.48347E-06-8.27181E-25
 -1       515 7.28573E-06-1.21888E-06 0.00000E+00
 -1       516 7.39109E-06 1.01888E-07 0.00000E+00
 -1       517 6.72297E-06 1.32803E-07-2.58494E-26
 -1       518 5.91311E-06 1.63277E-07 0.00000E+00
 -1       519 4.98861E-06 1.94191E-07-2.06795E-25
 -1       520 3.96832E-06 2.25199E-07 0.00000E+00
 -1       521 7.48117E-06 3.07813E-07 0.00000E+00
 -1       522 7.11349E-06 4.04049E-07 0.00000E+00
 -1       523 6.78846E-06 3.87177E-07 0.00000E+00
 -1       524 6.49722E-06 2.76476E-07 0.00000E+00
 -1       525 6.23335E-06 9.23613E-08 0.00000E+00
 -1       526 5.98919E-06-1.44965E-07-3.30872E-24
 -1       527 5.75727E-06-4.15086E-07-6.61744E-24
 -1       528 5.52994E-06-6.97553E-07 3.30872E-24
 -1       529 5.29955E-06-9.71874E-07-6.61744E-24
 -1       530 5.05848E-06-1.21758E-06 0.00000E+00
 -1       531 4.79908E-06-1.41428E-06 6.61744E-24
 -1       532 4.51393E-06-1.54168E-06-3.30872E-24
 -1       533 4.19541E-06-1.57971E-06 0.00000E+00
 -1       534 3.83713E-06-1.50817E-06 0.00000E+00
 -1       535 3.43037E-06-1.30800E-06 6.61744E-24
 -1       536 7.24681E-06-3.65347E-07 0.00000E+00
 -1       537 7.25011E-06-3.45641E-08 0.00000E+00
 -1       538 7.25342E-06 2.02420E-07 0.00000E+00
 -1       539 7.25704E-06 3.56839E-07 0.00000E+00
 -1       540 7.26071E-06 4.39895E-07 4.20053E-26
 -1       541 7.26444E-06 4.62799E-07-3.87741E-26
 -1       542 7.26818E-06 4.36758E-07 0.00000E+00
 -1       543 7.27193E-06 3.72978E-07-5.16988E-26
 -1       544 7.27569E-06 2.82665E-07 0.00000E+00
 -1       545 7.27945E-06 1.77021E-07 0.00000E+00
 -1       546 7.28321E-06 6.72498E-08 1.03398E-25
 -1       547 7.28698E-06-3.54432E-08 0.00000E+00
 -1       548 7.29075E-06-1.19856E-07 0.00000E+00
 -1       549 7.29454E-06-1.74787E-07 0.00000E+00
 -1       550 7.29833E-06-1.89021E-07 2.06795E-25
 -1       551 6.60804E-06-8.26675E-07-1.80946E-25
 -1       552 5.89731E-06-8.51612E-07 3.10193E-25
 -1       553 5.14575E-06-8.76538E-07 0.00000E+00
 -1       554 4.38642E-06-9.01779E-07 0.00000E+00
 -1       555 3.65238E-06-9.27709E-07 3.30872E-24
 -1       556 7.06116E-06-3.92201E-07 0.00000E+00
 -1       557 6.91305E-06-7.75971E-08 0.00000E+00
 -1       558 6.79708E-06 1.51754E-07 0.00000E+00
 -1       559 6.70949E-06 3.05733E-07 0.00000E+00
 -1       560 6.64650E-06 3.94234E-07 0.00000E+00
 -1       561 6.60434E-06 4.27228E-07 0.00000E+00
 -1       562 6.57926E-06 4.14693E-07 1.65436E-24
 -1       563 6.56752E-06 3.66612E-07 0.00000E+00
 -1       564 6.56536E-06 2.92974E-07-8.27181E-25
 -1       565 6.56905E-06 2.03765E-07-4.13590E-25
 -1       566 6.57484E-06 1.08977E-07 0.00000E+00
 -1       567 6.57899E-06 1.85985E-08 2.06795E-25
 -1       568 6.57777E-06-5.73807E-08 2.06795E-25
 -1       569 6.56750E-06-1.08982E-07 1.80946E-25
 -1       570 6.54454E-06-1.26234E-07-2.06795E-25
 -1       571 7.32270E-06-1.03594E-07 5.16988E-26
 -1       572 7.34377E-06-7.07580E-08 1.03398E-25
 -1       573 7.36503E-06-5.01899E-08 2.06795E-25
 -1       574 7.38637E-06-3.90482E-08-4.13590E-25
 -1       575 7.40774E-06-3.44795E-08 4.13590E-25
 -1       576 7.42912E-06-3.36119E-08 4.13590E-25
 -1       577 7.45051E-06-3.35722E-08 0.00000E+00
 -1       578 7.47190E-06-3.14847E-08-4.13590E-25
 -1       579 7.49330E-06-2.44735E-08 0.00000E+00
 -1       580 7.51469E-06-9.66290E-09 0.00000E+00
 -1       581 7.53609E-06 1.58224E-08 0.00000E+00
 -1       582 7.55748E-06 5.48548E-08 0.00000E+00
 -1       583 7.57886E-06 1.10304E-07-1.65436E-24
 -1       584 7.60023E-06 1.85010E-07 0.00000E+00
 -1       585 7.62158E-06 2.81798E-07-1.65436E-24
 -1       586 7.18811E-06-1.42545E-07-8.27181E-25
 -1       587 7.05732E-06-1.33615E-07-2.06795E-25
 -1       588 6.91670E-06-1.24693E-07 0.00000E+00
 -1       589 6.77327E-06-1.15858E-07 0.00000E+00
 -1       590 6.63405E-06-1.07220E-07 0.00000E+00
 -1       591 7.26803E-06-9.55070E-08 0.00000E+00
 -1       592 7.23652E-06-4.94915E-08 0.00000E+00
 -1       593 7.20782E-06-1.14650E-08 4.13590E-25
 -1       594 7.18137E-06 2.02945E-08 0.00000E+00
 -1       595 7.15659E-06 4.75088E-08 0.00000E+00
 -1       596 7.13286E-06 7.18873E-08-2.06795E-25
 -1       597 7.10954E-06 9.51376E-08-4.13590E-25
 -1       598 7.08601E-06 1.18966E-07-2.06795E-25
 -1       599 7.06162E-06 1.45078E-07 2.06795E-25
 -1       600 7.03573E-06 1.75179E-07 0.00000E+00
 -1       601 7.00772E-06 2.10976E-07-2.06795E-25
 -1       602 6.97694E-06 2.54176E-07-1.03398E-25
 -1       603 6.94279E-06 3.06488E-07 0.00000E+00
 -1       604 6.90468E-06 3.69631E-07-6.46235E-26
 -1       605 6.86205E-06 4.45327E-07 0.00000E+00
 -1       606 7.65075E-06 5.65231E-07 0.00000E+00
 -1       607 7.65816E-06 7.43256E-07 0.00000E+00
 -1       608 7.66542E-06 9.36407E-07 0.00000E+00
 -1       609 7.67261E-06 1.14360E-06 4.13590E-25
 -1       610 7.67977E-06 1.36377E-06 0.00000E+00
 -1       611 7.68691E-06 1.59578E-06 0.00000E+00
 -1       612 7.69405E-06 1.83855E-06 0.00000E+00
 -1       613 7.70118E-06 2.09096E-06 4.13590E-25
 -1       614 7.70831E-06 2.35190E-06-4.13590E-25
 -1       615 7.71544E-06 2.62026E-06 0.00000E+00
 -1       616 7.72256E-06 2.89494E-06 0.00000E+00
 -1       617 7.72969E-06 3.17482E-06 2.06795E-25
 -1       618 7.73680E-06 3.45880E-06 0.00000E+00
 -1       619 7.74391E-06 3.74576E-06-1.03398E-25
 -1       620 7.75100E-06 4.03460E-06-2.06795E-25
 -1       621 7.49031E-06 4.25380E-07 4.13590E-25
 -1       622 7.34120E-06 4.47604E-07 0.00000E+00
 -1       623 7.19731E-06 4.69831E-07-4.13590E-25
 -1       624 7.06047E-06 4.92000E-07 0.00000E+00
 -1       625 6.93247E-06 5.14038E-07 2.06795E-25
 -1       626 7.59546E-06 5.73463E-07 8.27181E-25
 -1       627 7.54155E-06 7.60437E-07 0.00000E+00
 -1       628 7.48186E-06 9.62645E-07-8.27181E-25
 -1       629 7.41708E-06 1.17834E-06 0.00000E+00
 -1       630 7.34788E-06 1.40575E-06 0.00000E+00
 -1       631 7.27496E-06 1.64309E-06 0.00000E+00
 -1       632 7.19898E-06 1.88857E-06 0.00000E+00
 -1       633 7.12062E-06 2.14041E-06 0.00000E+00
 -1       634 7.04054E-06 2.39680E-06 0.00000E+00
 -1       635 6.95943E-06 2.65596E-06 0.00000E+00
 -1       636 6.87794E-06 2.91610E-06-4.13590E-25
 -1       637 6.79675E-06 3.17541E-06 0.00000E+00
 -1       638 6.71652E-06 3.43211E-06 0.00000E+00
 -1       639 6.63788E-06 3.68439E-06 1.03398E-25
 -1       640 6.56141E-06 3.93046E-06 5.16988E-26
 -1       641 7.75820E-06 4.62422E-06 1.03398E-25
 -1       642 7.75812E-06 4.95543E-06 0.00000E+00
 -1       643 7.75805E-06 5.31334E-06 2.58494E-26
 -1       644 7.75793E-06 5.69343E-06 0.00000E+00
 -1       645 7.75780E-06 6.09116E-06 3.23117E-27
 -1       646 7.75765E-06 6.50202E-06 1.57772E-30
 -1       647 7.75750E-06 6.92150E-06 0.00000E+00
 -1       648 7.75735E-06 7.34505E-06-1.61559E-27
 -1       649 7.75719E-06 7.76817E-06 0.00000E+00
 -1       650 7.75703E-06 8.18632E-06 6.46235E-27
 -1       651 7.75686E-06 8.59498E-06 2.58494E-26
 -1       652 7.75667E-06 8.98962E-06 0.00000E+00
 -1       653 7.75648E-06 9.36574E-06 0.00000E+00
 -1       654 7.75612E-06 9.71880E-06 0.00000E+00
 -1       655 7.75583E-06 1.00443E-05 4.13590E-25
 -1       656 7.49876E-06 4.29915E-06 0.00000E+00
 -1       657 7.27537E-06 4.27277E-06-2.06795E-25
 -1       658 7.07521E-06 4.24644E-06 8.27181E-25
 -1       659 6.88560E-06 4.22009E-06 2.06795E-25
 -1       660 6.69388E-06 4.19369E-06 0.00000E+00
 -1       661 7.67467E-06 4.63311E-06 0.00000E+00
 -1       662 7.58330E-06 4.96645E-06 0.00000E+00
 -1       663 7.48419E-06 5.32032E-06 0.00000E+00
 -1       664 7.37884E-06 5.69128E-06 4.13590E-25
 -1       665 7.26844E-06 6.07573E-06 0.00000E+00
 -1       666 7.15432E-06 6.47018E-06 4.13590E-25
 -1       667 7.03778E-06 6.87109E-06 0.00000E+00
 -1       668 6.92014E-06 7.27496E-06 0.00000E+00
 -1       669 6.80270E-06 7.67827E-06 0.00000E+00
 -1       670 6.68678E-06 8.07751E-06 0.00000E+00
 -1       671 6.57370E-06 8.46915E-06 0.00000E+00
 -1       672 6.46475E-06 8.84968E-06 4.13590E-25
 -1       673 6.36126E-06 9.21559E-06-8.27181E-25
 -1       674 6.26435E-06 9.56327E-06-4.13590E-25
 -1       675 6.17560E-06 9.88928E-06 0.00000E+00
 -1       676 7.47734E-06 1.03129E-05-8.27181E-25
 -1       677 7.20017E-06 1.02880E-05 0.00000E+00
 -1       678 6.92322E-06 1.02631E-05 8.27181E-25
 -1       679 6.64659E-06 1.02384E-05 0.00000E+00
 -1       680 6.37039E-06 1.02136E-05 4.13590E-25
 -1       681 2.17837E-06-4.91279E-08 0.00000E+00
 -1       682 2.22475E-06-2.41641E-08 0.00000E+00
 -1       683 2.27104E-06-1.20642E-07 1.65436E-24
 -1       684 2.31757E-06-3.03326E-07-8.27181E-25
 -1       685 2.36410E-06-5.46141E-07 1.65436E-24
 -1       686 2.41067E-06-8.23146E-07 0.00000E+00
 -1       687 2.45724E-06-1.11203E-06 1.65436E-24
 -1       688 2.50382E-06-1.39051E-06-8.27181E-25
 -1       689 2.55040E-06-1.63519E-06 0.00000E+00
 -1       690 2.59697E-06-1.82261E-06 8.27181E-25
 -1       691 2.64355E-06-1.92323E-06 0.00000E+00
 -1       692 2.69001E-06-1.90729E-06 0.00000E+00
 -1       693 2.73645E-06-1.73266E-06 0.00000E+00
 -1       694 2.78228E-06-1.35688E-06 0.00000E+00
 -1       695 2.82816E-06-7.16104E-07 0.00000E+00
 -1       696 1.83855E-06-1.93540E-07 0.00000E+00
 -1       697 1.47684E-06-1.55052E-07-4.13590E-25
 -1       698 1.08022E-06-1.16636E-07-8.27181E-25
 -1       699 6.80702E-07-7.79346E-08 0.00000E+00
 -1       700 3.10033E-07-3.92465E-08 1.65436E-24
 -1       701 1.99111E-06 5.92011E-09 8.27181E-25
 -1       702 1.85116E-06 2.28921E-07 0.00000E+00
 -1       703 1.71958E-06 4.30161E-07 0.00000E+00
 -1       704 1.59903E-06 6.00578E-07 8.27181E-25
 -1       705 1.49189E-06 7.35226E-07-1.65436E-24
 -1       706 1.39998E-06 8.29032E-07 0.00000E+00
 -1       707 1.32339E-06 8.81950E-07-1.65436E-24
 -1       708 1.26212E-06 8.93992E-07 8.27181E-25
 -1       709 1.21435E-06 8.70052E-07 0.00000E+00
 -1       710 1.17821E-06 8.15107E-07 8.27181E-25
 -1       711 1.15044E-06 7.37862E-07 1.65436E-24
 -1       712 1.12784E-06 6.47102E-07 0.00000E+00
 -1       713 1.10641E-06 5.53236E-07 1.65436E-24
 -1       714 1.08267E-06 4.66884E-07 0.00000E+00
 -1       715 1.05245E-06 3.97324E-07 0.00000E+00
 -1       716 2.87620E-06 1.21384E-06 0.00000E+00
 -1       717 2.88309E-06 1.82297E-06 0.00000E+00
 -1       718 2.89003E-06 2.13095E-06-1.03398E-25
 -1       719 2.89726E-06 2.18722E-06 1.03398E-25
 -1       720 2.90450E-06 2.03713E-06-2.06795E-25
 -1       721 2.91174E-06 1.72600E-06-1.03398E-25
 -1       722 2.91895E-06 1.29653E-06 2.06795E-25
 -1       723 2.92613E-06 7.91349E-07 0.00000E+00
 -1       724 2.93329E-06 2.51903E-07-2.06795E-25
 -1       725 2.94041E-06-2.80391E-07 0.00000E+00
 -1       726 2.94754E-06-7.64014E-07 0.00000E+00
 -1       727 2.95454E-06-1.15741E-06 0.00000E+00
 -1       728 2.96155E-06-1.41758E-06 0.00000E+00
 -1       729 2.96775E-06-1.50148E-06 0.00000E+00
 -1       730 2.97422E-06-1.36326E-06-1.65436E-24
 -1       731 1.92757E-06 2.69067E-07-1.03398E-25
 -1       732 1.36668E-06 2.86081E-07 0.00000E+00
 -1       733 1.09001E-06 3.03104E-07 4.13590E-25
 -1       734 9.99623E-07 3.20446E-07 0.00000E+00
 -1       735 1.00478E-06 3.37821E-07 0.00000E+00
 -1       736 2.10998E-06 1.97438E-06 0.00000E+00
 -1       737 8.78322E-07 4.93183E-06-1.65436E-24
 -1       738-6.53977E-07 8.68385E-06-3.30872E-24
 -1       739-2.31857E-06 1.27829E-05 1.65436E-24
 -1       740-3.91373E-06 1.66989E-05 3.30872E-24
 -1       741-5.23883E-06 1.99019E-05 1.65436E-24
 -1       742-6.15913E-06 2.20337E-05 3.30872E-24
 -1       743-6.54273E-06 2.27403E-05-1.65436E-24
 -1       744-6.38764E-06 2.20106E-05 0.00000E+00
 -1       745-5.69442E-06 1.98399E-05-1.65436E-24
 -1       746-4.59227E-06 1.65704E-05 3.30872E-24
 -1       747-3.21134E-06 1.25497E-05 0.00000E+00
 -1       748-1.74795E-06 8.30681E-06 3.30872E-24
 -1       749-3.98062E-07 4.37161E-06 1.65436E-24
 -1       750 6.68169E-07 1.19996E-06 1.65436E-24
 -1       751 3.18360E-06-5.11086E-07-1.65436E-24
 -1       752 3.40422E-06-2.52659E-07-1.65436E-24
 -1       753 3.62402E-06-1.20261E-07 0.00000E+00
 -1       754 3.84634E-06-5.36993E-08-3.30872E-24
 -1       755 4.06872E-06-3.12932E-08-6.61744E-24
 -1       756 4.29161E-06-3.18043E-08-3.30872E-24
 -1       757 4.51455E-06-4.74512E-08 0.00000E+00
 -1       758 4.73759E-06-7.06035E-08 0.00000E+00
 -1       759 4.96062E-06-9.80410E-08 6.61744E-24
 -1       760 5.18361E-06-1.26587E-07-3.30872E-24
 -1       761 5.40656E-06-1.53715E-07 6.61744E-24
 -1       762 5.62916E-06-1.76886E-07 0.00000E+00
 -1       763 5.85171E-06-1.91235E-07 6.61744E-24
 -1       764 6.07249E-06-1.91810E-07 0.00000E+00
 -1       765 6.29386E-06-1.65591E-07 3.30872E-24
 -1       766 2.34240E-06-9.27514E-07 8.27181E-25
 -1       767 1.52852E-06-8.92654E-07 2.58494E-26
 -1       768 7.70278E-07-8.58132E-07 0.00000E+00
 -1       769 3.03537E-07-8.22900E-07-2.06795E-25
 -1       770 3.88093E-07-7.87373E-07-5.16988E-26
 -1       771 2.65590E-06-5.33295E-07 0.00000E+00
 -1       772 2.36542E-06-1.94475E-07 3.30872E-24
 -1       773 2.10353E-06 6.71256E-08 0.00000E+00
 -1       774 1.86748E-06 2.59300E-07 3.30872E-24
 -1       775 1.65449E-06 3.89847E-07 0.00000E+00
 -1       776 1.46166E-06 4.66590E-07-3.30872E-24
 -1       777 1.28605E-06 4.97358E-07 0.00000E+00
 -1       778 1.12475E-06 4.89986E-07 0.00000E+00
 -1       779 9.74811E-07 4.52314E-07 0.00000E+00
 -1       780 8.33300E-07 3.92183E-07-1.65436E-24
 -1       781 6.97282E-07 3.17443E-07 3.30872E-24
 -1       782 5.63834E-07 2.35946E-07 0.00000E+00
 -1       783 4.30040E-07 1.55547E-07-3.30872E-24
 -1       784 2.93097E-07 8.41247E-08 1.65436E-24
 -1       785 1.50218E-07 2.95566E-08 3.30872E-24
 -1       786 6.52405E-06-2.27661E-08 0.00000E+00
 -1       787 6.54332E-06 3.65548E-08 2.06795E-25
 -1       788 6.56257E-06 8.13023E-08 4.13590E-25
 -1       789 6.58200E-06 1.14115E-07-2.06795E-25
 -1       790 6.60145E-06 1.37627E-07 4.13590E-25
 -1       791 6.62093E-06 1.54472E-07 0.00000E+00
 -1       792 6.64042E-06 1.67284E-07 0.00000E+00
 -1       793 6.65992E-06 1.78693E-07 0.00000E+00
 -1       794 6.67942E-06 1.91332E-07 0.00000E+00
 -1       795 6.69892E-06 2.07833E-07 0.00000E+00
 -1       796 6.71842E-06 2.30829E-07-8.27181E-25
 -1       797 6.73790E-06 2.62952E-07 2.06795E-25
 -1       798 6.75737E-06 3.06839E-07 4.13590E-25
 -1       799 6.77676E-06 3.65124E-07 0.00000E+00
 -1       800 6.79616E-06 4.40450E-07 0.00000E+00
 -1       801 5.93163E-06-8.18922E-08 0.00000E+00
 -1       802 4.73589E-06-6.39979E-08-2.06795E-25
 -1       803 3.23145E-06-4.65913E-08-2.58494E-26
 -1       804 1.73179E-06-2.97862E-08 0.00000E+00
 -1       805 5.50388E-07-1.25485E-08 0.00000E+00
 -1       806 6.45482E-06-3.07004E-08 0.00000E+00
 -1       807 6.40583E-06 3.01700E-08 0.00000E+00
 -1       808 6.35900E-06 8.47584E-08-8.27181E-25
 -1       809 6.31392E-06 1.34412E-07 4.13590E-25
 -1       810 6.27016E-06 1.80469E-07 0.00000E+00
 -1       811 6.22723E-06 2.24264E-07 0.00000E+00
 -1       812 6.18465E-06 2.67124E-07 8.27181E-25
 -1       813 6.14191E-06 3.10380E-07-4.13590E-25
 -1       814 6.09853E-06 3.55360E-07-4.13590E-25
 -1       815 6.05401E-06 4.03393E-07-2.06795E-25
 -1       816 6.00785E-06 4.55807E-07 0.00000E+00
 -1       817 5.95955E-06 5.13931E-07 0.00000E+00
 -1       818 5.90864E-06 5.79095E-07-4.13590E-25
 -1       819 5.85466E-06 6.52627E-07-2.06795E-25
 -1       820 5.79719E-06 7.35862E-07-4.13590E-25
 -1       821 6.79580E-06 6.57247E-07-2.06795E-25
 -1       822 6.77535E-06 8.06770E-07 0.00000E+00
 -1       823 6.75490E-06 9.81107E-07 4.13590E-25
 -1       824 6.73427E-06 1.17732E-06 0.00000E+00
 -1       825 6.71360E-06 1.39248E-06 8.27181E-25
 -1       826 6.69290E-06 1.62365E-06 0.00000E+00
 -1       827 6.67219E-06 1.86789E-06 0.00000E+00
 -1       828 6.65147E-06 2.12226E-06 0.00000E+00
 -1       829 6.63075E-06 2.38381E-06 0.00000E+00
 -1       830 6.61003E-06 2.64960E-06-4.13590E-25
 -1       831 6.58932E-06 2.91669E-06-8.27181E-25
 -1       832 6.56863E-06 3.18213E-06-4.13590E-25
 -1       833 6.54797E-06 3.44296E-06-4.13590E-25
 -1       834 6.52746E-06 3.69626E-06-2.06795E-25
 -1       835 6.50693E-06 3.93908E-06 4.13590E-25
 -1       836 6.67438E-06 5.83658E-07 8.27181E-25
 -1       837 6.48934E-06 6.33583E-07 0.00000E+00
 -1       838 6.28143E-06 6.83417E-07-8.27181E-25
 -1       839 6.07224E-06 7.33128E-07 0.00000E+00
 -1       840 5.88330E-06 7.82917E-07-4.13590E-25
 -1       841 6.76911E-06 6.56895E-07-1.03398E-25
 -1       842 6.71139E-06 8.08695E-07 0.00000E+00
 -1       843 6.64356E-06 9.87491E-07 0.00000E+00
 -1       844 6.56686E-06 1.18976E-06 0.00000E+00
 -1       845 6.48266E-06 1.41198E-06 0.00000E+00
 -1       846 6.39230E-06 1.65063E-06 0.00000E+00
 -1       847 6.29710E-06 1.90214E-06 2.58494E-26
 -1       848 6.19841E-06 2.16294E-06-1.29247E-26
 -1       849 6.09758E-06 2.42945E-06 0.00000E+00
 -1       850 5.99595E-06 2.69808E-06 0.00000E+00
 -1       851 5.89486E-06 2.96526E-06-2.58494E-26
 -1       852 5.79565E-06 3.22737E-06 2.58494E-26
 -1       853 5.69968E-06 3.48086E-06 0.00000E+00
 -1       854 5.60820E-06 3.72211E-06-5.16988E-26
 -1       855 5.52267E-06 3.94761E-06-2.06795E-25
 -1       856 6.46406E-06 4.41531E-06-4.13590E-25
 -1       857 6.43958E-06 4.70709E-06-2.06795E-25
 -1       858 6.41510E-06 5.03792E-06 0.00000E+00
 -1       859 6.39043E-06 5.40188E-06 4.13590E-25
 -1       860 6.36573E-06 5.79304E-06 0.00000E+00
 -1       861 6.34099E-06 6.20543E-06 0.00000E+00
 -1       862 6.31624E-06 6.63314E-06-8.27181E-25
 -1       863 6.29148E-06 7.07019E-06 4.13590E-25
 -1       864 6.26671E-06 7.51065E-06 8.27181E-25
 -1       865 6.24195E-06 7.94857E-06 4.13590E-25
 -1       866 6.21719E-06 8.37798E-06 8.27181E-25
 -1       867 6.19246E-06 8.79295E-06-4.13590E-25
 -1       868 6.16776E-06 9.18752E-06 0.00000E+00
 -1       869 6.14316E-06 9.55576E-06 0.00000E+00
 -1       870 6.11858E-06 9.89173E-06 4.13590E-25
 -1       871 6.29348E-06 4.16637E-06 0.00000E+00
 -1       872 6.11543E-06 4.16405E-06 0.00000E+00
 -1       873 5.94740E-06 4.16167E-06 0.00000E+00
 -1       874 5.78344E-06 4.15921E-06 5.16988E-26
 -1       875 5.61757E-06 4.15664E-06 2.06795E-25
 -1       876 6.42933E-06 4.42351E-06 8.27181E-25
 -1       877 6.35832E-06 4.71722E-06 4.13590E-25
 -1       878 6.27478E-06 5.04421E-06 0.00000E+00
 -1       879 6.18078E-06 5.39968E-06 4.13590E-25
 -1       880 6.07796E-06 5.77870E-06 0.00000E+00
 -1       881 5.96817E-06 6.17640E-06 4.13590E-25
 -1       882 5.85321E-06 6.58790E-06 8.27181E-25
 -1       883 5.73490E-06 7.00835E-06 0.00000E+00
 -1       884 5.61504E-06 7.43288E-06 0.00000E+00
 -1       885 5.49547E-06 7.85666E-06-4.13590E-25
 -1       886 5.37800E-06 8.27481E-06 0.00000E+00
 -1       887 5.26442E-06 8.68246E-06-4.13590E-25
 -1       888 5.15657E-06 9.07478E-06 0.00000E+00
 -1       889 5.05606E-06 9.44680E-06-4.13590E-25
 -1       890 4.96500E-06 9.79377E-06 4.13590E-25
 -1       891 5.85671E-06 1.01764E-05 0.00000E+00
 -1       892 5.66583E-06 1.01631E-05 2.06795E-25
 -1       893 5.49759E-06 1.01497E-05 0.00000E+00
 -1       894 5.32746E-06 1.01364E-05-2.06795E-25
 -1       895 5.13092E-06 1.01231E-05 2.06795E-25
 -1       896 6.30811E-08 2.42437E-07 1.65436E-24
 -1       897 1.26694E-07 4.11619E-07 8.27181E-25
 -1       898 1.90282E-07 5.23104E-07 1.65436E-24
 -1       899 2.53972E-07 5.92283E-07-8.27181E-25
 -1       900 3.17665E-07 6.28314E-07 1.65436E-24
 -1       901 3.81379E-07 6.40261E-07 8.27181E-25
 -1       902 4.45094E-07 6.33640E-07-1.65436E-24
 -1       903 5.08809E-07 6.13913E-07 0.00000E+00
 -1       904 5.72522E-07 5.84610E-07 0.00000E+00
 -1       905 6.36218E-07 5.49233E-07 0.00000E+00
 -1       906 6.99904E-07 5.10391E-07-1.65436E-24
 -1       907 7.63511E-07 4.70681E-07 8.27181E-25
 -1       908 8.27106E-07 4.32575E-07 1.65436E-24
 -1       909 8.90300E-07 3.98546E-07 0.00000E+00
 -1       910 9.53630E-07 3.71670E-07 0.00000E+00
 -1       911 1.03180E-06 3.95310E-07 0.00000E+00
 -1       912 1.04896E-06 5.38376E-07 0.00000E+00
 -1       913 1.06609E-06 7.58645E-07-4.13590E-25
 -1       914 1.08325E-06 1.03058E-06 0.00000E+00
 -1       915 1.10040E-06 1.33064E-06 4.13590E-25
 -1       916 1.11756E-06 1.63530E-06-2.06795E-25
 -1       917 1.13473E-06 1.92120E-06 4.13590E-25
 -1       918 1.15190E-06 2.16498E-06 2.06795E-25
 -1       919 1.16909E-06 2.34166E-06 0.00000E+00
 -1       920 1.18627E-06 2.42620E-06-2.06795E-25
 -1       921 1.20344E-06 2.39002E-06 0.00000E+00
 -1       922 1.22052E-06 2.20446E-06 0.00000E+00
 -1       923 1.23753E-06 1.83511E-06 4.13590E-25
 -1       924 1.25406E-06 1.24741E-06 0.00000E+00
 -1       925 1.27053E-06 3.98480E-07 2.06795E-25
 -1       926 1.20602E-06-2.04460E-06 0.00000E+00
 -1       927 1.12555E-06-3.29965E-06 8.27181E-25
 -1       928 1.04534E-06-4.42685E-06 1.65436E-24
 -1       929 9.64983E-07-5.33360E-06 0.00000E+00
 -1       930 8.84821E-07-5.96403E-06 0.00000E+00
 -1       931 8.04736E-07-6.26330E-06 0.00000E+00
 -1       932 7.24684E-07-6.23178E-06-3.30872E-24
 -1       933 6.44552E-07-5.87107E-06 0.00000E+00
 -1       934 5.64289E-07-5.23766E-06-3.30872E-24
 -1       935 4.83861E-07-4.38903E-06 1.65436E-24
 -1       936 4.03323E-07-3.41857E-06 0.00000E+00
 -1       937 3.22723E-07-2.42012E-06-1.65436E-24
 -1       938 2.42181E-07-1.49213E-06 0.00000E+00
 -1       939 1.61595E-07-7.32880E-07 1.65436E-24
 -1       940 8.12150E-08-2.12432E-07 3.30872E-24
 -1       941 3.39974E-07 5.50890E-08 0.00000E+00
 -1       942 6.98729E-07 1.04559E-07 0.00000E+00
 -1       943 1.05629E-06 1.50542E-07-6.61744E-24
 -1       944 1.41742E-06 1.95111E-07 0.00000E+00
 -1       945 1.77866E-06 2.38815E-07 0.00000E+00
 -1       946 2.14061E-06 2.82189E-07-6.61744E-24
 -1       947 2.50264E-06 3.25407E-07 0.00000E+00
 -1       948 2.86479E-06 3.68642E-07 0.00000E+00
 -1       949 3.22695E-06 4.12086E-07 1.32349E-23
 -1       950 3.58903E-06 4.55934E-07-6.61744E-24
 -1       951 3.95104E-06 5.00819E-07-1.32349E-23
 -1       952 4.31248E-06 5.47390E-07 0.00000E+00
 -1       953 4.67384E-06 5.98130E-07 0.00000E+00
 -1       954 5.03233E-06 6.55585E-07-3.30872E-24
 -1       955 5.39178E-06 7.29564E-07-6.61744E-24
 -1       956 5.71823E-06 9.61219E-07 1.03398E-25
 -1       957 5.70002E-06 1.11247E-06-1.55096E-25
 -1       958 5.68174E-06 1.28190E-06 4.13590E-25
 -1       959 5.66343E-06 1.46734E-06 1.03398E-25
 -1       960 5.64511E-06 1.66665E-06 2.06795E-25
 -1       961 5.62678E-06 1.87766E-06 0.00000E+00
 -1       962 5.60844E-06 2.09820E-06 4.13590E-25
 -1       963 5.59010E-06 2.32609E-06 2.06795E-25
 -1       964 5.57176E-06 2.55917E-06 0.00000E+00
 -1       965 5.55343E-06 2.79525E-06 2.06795E-25
 -1       966 5.53509E-06 3.03218E-06 4.13590E-25
 -1       967 5.51675E-06 3.26778E-06-4.13590E-25
 -1       968 5.49843E-06 3.49987E-06 0.00000E+00
 -1       969 5.48014E-06 3.72630E-06 0.00000E+00
 -1       970 5.46189E-06 3.94491E-06-8.27181E-25
 -1       971 5.40979E-06 4.37775E-06 0.00000E+00
 -1       972 5.37474E-06 4.64983E-06 0.00000E+00
 -1       973 5.33970E-06 4.96387E-06 0.00000E+00
 -1       974 5.30450E-06 5.31382E-06 0.00000E+00
 -1       975 5.26927E-06 5.69365E-06-8.27181E-25
 -1       976 5.23400E-06 6.09730E-06 0.00000E+00
 -1       977 5.19872E-06 6.51872E-06 0.00000E+00
 -1       978 5.16344E-06 6.95184E-06 0.00000E+00
 -1       979 5.12815E-06 7.39059E-06-8.27181E-25
 -1       980 5.09286E-06 7.82891E-06-4.13590E-25
 -1       981 5.05759E-06 8.26073E-06-8.27181E-25
 -1       982 5.02237E-06 8.67998E-06 0.00000E+00
 -1       983 4.98717E-06 9.08061E-06 0.00000E+00
 -1       984 4.95219E-06 9.45655E-06 0.00000E+00
 -1       985 4.91719E-06 9.80174E-06 0.00000E+00
 -3
    1PSTEP                         8           4           1          
  100CL  104 1.36719E-01         841                     0    4           1
 -4  STRESS      6    1
 -5  SXX         1    4    1    1
 -5  SYY         1    4    2    2
 -5  SZZ         1    4    3    3
 -5  SXY         1    4    1    2
 -5  SYZ         1    4    2    3
 -5  SZX         1    4    3    1
 -1         1-5.80677E+05-1.86937E+05-1.20179E+05-1.64079E+05-1.53401E-10-2.25555E-10
 -1         2-3.67732E+05-2.58530E+04 4.64357E+02-3.63240E+04-4.71289E-10 1.15278E-10
 -1         3-1.94300E+05-6.58778E+04-1.11042E+04-1.57530E+04 2.41776E-10 2.11301E-10
 -1         4-1.00593E+05-1.66300E+04 1.54560E+02-9.81048E+03 1.38442E-10 1.95207E-10
 -1         5-5.36022E+04 2.32694E+04-2.49065E+04-1.06017E+03 1.97451E-09 7.23460E-10
 -1         8-3.13463E+05-1.25824E+05-4.80708E+04-1.15309E+05 1.63709E-11 6.73026E-10
 -1         9-3.31098E+05-7.87787E+04-4.16216E+04-7.50808E+04-1.50067E-10-3.41364E-10
 -1        10-1.61222E+05-8.85094E+04-9.84638E+03-3.90428E+04-7.07435E-10-3.17262E-10
 -1        11-9.67630E+04-2.58331E+04 1.34317E+02-2.08871E+04 3.29109E-10 2.29079E-11
 -1        12-6.34611E+04 1.78883E+04-2.77473E+04-8.43756E+03 5.74147E-10 2.92410E-10
 -1        15 3.43649E+03-1.56453E+04 6.00332E+02-2.74810E+04-1.82126E-10 6.43922E-10
 -1        16-1.77861E+05-2.72364E+04 1.28262E+04-8.29386E+04 1.74775E-10 8.50074E-10
 -1        17-1.09458E+05-7.10772E+04-1.17087E+04-5.96238E+04-8.18848E-10 1.73410E-10
 -1        18-5.03286E+04-2.61068E+04-1.91654E+04-2.86708E+04 4.68162E-10-3.08319E-10
 -1        19-1.22912E+04 1.26816E+04-1.09326E+04-8.63948E+03-1.84286E-10 4.38073E-11
 -1        20 1.82542E+04-1.36972E+04-2.37024E+03 9.96012E+03 5.70367E-10-2.99906E-10
 -1        21 2.43326E+02-2.73255E+04 7.57421E+03 5.90701E+00 2.41396E-09 2.33163E-10
 -1        22 6.04265E+03 3.48402E+04 2.35073E+02-8.61297E+03-1.85196E-10 6.18456E-11
 -1        23-7.05542E+04 2.46638E+03 8.32977E+02-3.14919E+04-1.73221E-10-2.74213E-10
 -1        24-4.03226E+04 7.58918E+03 5.21739E+04-8.69194E+04-3.08652E-09 4.37770E-10
 -1        25 1.08379E+05 3.48188E+04 3.29036E+04-5.42424E+04 2.32527E-10 1.16264E-10
 -1        26 4.39599E+02 2.88436E+04 1.43909E+03-5.33255E+03-1.64230E-10 2.46132E-10
 -1        27-6.38511E+03-1.14632E+04-4.94686E+03 1.38671E+04 1.84590E-10-6.73936E-10
 -1        28-2.18552E+03-2.16886E+04-1.18385E+02 1.04908E+04-2.78135E-10-8.83309E-10
 -1        29 8.73079E+04 5.95419E+04 2.47750E+02-3.84181E+02 9.32304E-11 9.86802E-11
 -1        30 2.64665E+04 8.78080E+03 3.69508E+02-8.09220E+03-3.10274E-10 1.74737E-10
 -1        31-9.90435E+04 7.68350E+03 9.68436E+02-2.24215E+04 1.81334E-09-1.52613E-09
 -1        32 1.49763E+05 8.35463E+04 1.05730E+05-8.91770E+04 2.46676E-09 8.32188E-10
 -1        33 2.53206E+05 1.00411E+05 7.74024E+04-7.78006E+03-5.17163E-09 2.08502E-10
 -1        34-3.68272E+04-4.65520E+03-8.69165E+02 7.98633E+03-2.26059E-10 8.33325E-11
 -1        35-6.19327E+03-7.25783E+03-1.28041E+02 1.56788E+04 1.00968E-09-3.39848E-10
 -1        36-7.86756E+05 2.41133E+04-5.57480E+04 3.68897E-08-2.51376E-10-1.63709E-10
 -1        37-8.10892E+05-2.79138E+04-3.94504E+04-1.29410E-08 5.92602E-10-1.89220E-09
 -1        38-7.96075E+05 3.77987E+03-1.44297E+04 5.74011E-08 2.39494E-10 4.35648E-10
 -1        39-8.00025E+05-4.37416E+03-9.07436E+03-7.65956E-08-5.98546E-10 3.64935E-11
 -1        40-7.97611E+05 5.91210E+02-3.70741E+03 6.27106E-08-1.20522E-09-4.74529E-10
 -1        41-7.98232E+05-6.91956E+02-2.20986E+03 4.86689E-08-5.22756E-10 1.63709E-10
 -1        42-7.97864E+05 1.00338E+02-1.07306E+03 1.38520E-08-1.06616E-10 1.71468E-10
 -1        43-7.97961E+05-1.72693E+02-8.35835E+02-1.15253E-07 1.44115E-10-5.24214E-10
 -1        44-7.97881E+05 7.22828E+01-8.21744E+02-8.20687E-08 5.87190E-10 2.98400E-10
 -1        45-7.98102E+05-4.50732E+02-1.48236E+03 1.06330E-08-4.45047E-10-2.05773E-11
 -1        46-7.97724E+05 3.78189E+02-2.39804E+03-1.60544E-08 1.90347E-10 8.00810E-10
 -1        47-7.99240E+05-2.79024E+03-5.80341E+03-1.14814E-08 3.94035E-10 1.39016E-09
 -1        48-7.96746E+05 2.41008E+03-9.20856E+03 9.41759E-09-1.89911E-10 5.76620E-10
 -1        49-8.06167E+05-1.77972E+04-2.51565E+04 4.83413E-09-1.91556E-09 9.04038E-10
 -1        50-7.90806E+05 1.53735E+04-3.55479E+04-1.93379E-08-2.06236E-09-7.27596E-12
 -1        51 6.42394E+03-7.66977E+04 1.01865E+04-1.99471E+05-1.09139E-11 3.41970E-10
 -1        52 2.54245E+03-7.52364E+04 6.10792E+03-2.19564E+05-1.09139E-11 1.44610E-09
 -1        53 1.36772E+03-7.65771E+04 4.91641E+03-1.98970E+05 0.00000E+00-9.89530E-10
 -1        54 3.43870E+03-7.53410E+04 7.44235E+03-2.20118E+05 3.63798E-12-1.28875E-09
 -1        55 9.00490E+03-7.75346E+04 1.35250E+04-1.98903E+05-3.63798E-11 2.00998E-10
 -1        56-8.76626E+05-9.90931E+04-7.21448E+04-3.39185E+05-8.91305E-11 5.05679E-10
 -1        57-9.10668E+05-1.57584E+05-4.83804E+04-3.30554E+05 7.13953E-11-9.85438E-10
 -1        58-8.90580E+05-1.21887E+05-1.70025E+04-3.35334E+05 7.02585E-11-1.57070E-09
 -1        59-8.94588E+05-1.30738E+05-1.00795E+04-3.35205E+05-3.53566E-10 3.10820E-10
 -1        60-8.92560E+05-1.25035E+05-3.97890E+03-3.34865E+05 2.11685E-10 1.48634E-09
 -1        61-8.92333E+05-1.27023E+05-2.25225E+03-3.35735E+05-1.66267E-12 1.03614E-09
 -1        62-8.92815E+05-1.25490E+05-1.09914E+03-3.34844E+05 4.86011E-10 1.63587E-09
 -1        63-8.92117E+05-1.26511E+05-9.20773E+02-3.35710E+05-2.24887E-10 1.17168E-09
 -1        64-8.92773E+05-1.25536E+05-1.07098E+03-3.34894E+05-4.79332E-11 4.89905E-10
 -1        65-8.92492E+05-1.26824E+05-2.16930E+03-3.35536E+05-5.21947E-11-1.56743E-09
 -1        66-8.92442E+05-1.25188E+05-3.82149E+03-3.35014E+05-2.24986E-10-7.87168E-10
 -1        67-8.94826E+05-1.30218E+05-9.67303E+03-3.34832E+05-4.98062E-10 2.96950E-10
 -1        68-8.90459E+05-1.22251E+05-1.63151E+04-3.35559E+05 9.61791E-11-5.54792E-11
 -1        69-9.10410E+05-1.55819E+05-4.64209E+04-3.30189E+05 4.05862E-10-2.97405E-10
 -1        70-8.76997E+05-1.00454E+05-6.92245E+04-3.39339E+05 8.82210E-11 2.69210E-10
 -1        71-3.73965E+05-8.56555E+02 1.98044E+03 4.60334E-08-3.61392E-10-4.60432E-11
 -1        72-3.73072E+05 9.91530E+02 1.39972E+03 5.04160E-08 1.92480E-10-4.02736E-10
 -1        73-3.73634E+05-1.34190E+02 5.08711E+02-3.76589E-08-8.51115E-11-1.03884E-09
 -1        74-3.73458E+05 1.54693E+02 3.13736E+02-3.30328E-08-5.83214E-10 1.93136E-10
 -1        75-3.73579E+05-2.03921E+01 1.14974E+02 6.48219E-08-1.01307E-10-4.59799E-10
 -1        76-3.73525E+05 1.99043E+01 4.25881E+01 2.28428E-08-1.27222E-10 1.10517E-09
 -1        77-3.73567E+05 5.02107E-01-2.92448E+01 9.94123E-09-2.41815E-10 1.19600E-09
 -1        78-3.73550E+05-2.44913E+01-1.18638E+02-3.95846E-08 1.92262E-10 3.80084E-10
 -1        79-3.73554E+05 2.39790E+01-2.39708E+02-2.40159E-08 2.69281E-10 4.67708E-10
 -1        80-3.73633E+05-1.81960E+02-5.66550E+02-7.54232E-08-4.52537E-10 4.98396E-10
 -1        81-3.73484E+05 1.57871E+02-9.81371E+02 6.24119E-08-8.21546E-11 7.29642E-10
 -1        82-3.74115E+05-1.17073E+03-2.42451E+03-4.40720E-08 2.85378E-10-3.51662E-10
 -1        83-3.73072E+05 1.01203E+03-3.86237E+03-3.83464E-08-8.09474E-11 3.79259E-10
 -1        84-3.77025E+05-7.47404E+03-1.05638E+04 2.44424E-08-2.64743E-10-5.55133E-10
 -1        85-3.70576E+05 6.45620E+03-1.49313E+04 1.06762E-08-4.74490E-10-4.05635E-10
 -1        86-1.71600E+04 3.98706E+04 4.02988E+04 1.75272E+02-2.00089E-11-6.87567E-10
 -1        87 2.13170E+04 5.78536E+04 3.10680E+04-7.25263E+02-8.91305E-11-1.54718E-09
 -1        88-4.13973E+03 4.58198E+04 1.56144E+04 1.46060E+02-1.67347E-10 4.83833E-10
 -1        89 1.40452E+04 5.44805E+04 2.15910E+04-6.89808E+02-6.58247E-11 1.10330E-09
 -1        90-9.89414E+03 4.32422E+04 2.39958E+04 1.39819E+02-2.08274E-10 7.19415E-10
 -1        91-3.95993E+05-5.39271E+04-4.79022E+03-1.49476E+05 1.81558E-10 1.77238E-09
 -1        92-3.98905E+05-5.78821E+04-3.32252E+03-1.48122E+05 4.69868E-10 5.72413E-11
 -1        93-3.96809E+05-5.57988E+04-1.12482E+03-1.49321E+05-2.32433E-10-2.29875E-10
 -1        94-3.97901E+05-5.57661E+04-7.06891E+02-1.48357E+05 9.91918E-11-9.88258E-10
 -1        95-3.96996E+05-5.60416E+04-2.74026E+02-1.49242E+05 8.81286E-11 1.82993E-10
 -1        96-3.97494E+05-5.56678E+04-1.78137E+02-1.48651E+05 5.01532E-11 1.39254E-09
 -1        97-3.97216E+05-5.58971E+04-1.23377E+02-1.49027E+05 4.85240E-10 3.75747E-10
 -1        98-3.97082E+05-5.60499E+04-1.72098E+02-1.49109E+05 6.39860E-10 3.15303E-10
 -1        99-3.97407E+05-5.56595E+04-2.79141E+02-1.48784E+05 2.58773E-10-2.78746E-10
 -1       100-3.96926E+05-5.65632E+04-6.69976E+02-1.49423E+05 3.68257E-10 5.82915E-10
 -1       101-3.97373E+05-5.53837E+04-1.15082E+03-1.48713E+05 7.30552E-10 9.24103E-10
 -1       102-3.97756E+05-5.79311E+04-3.09606E+03-1.49157E+05-1.30825E-10-1.84286E-10
 -1       103-3.96578E+05-5.42925E+04-4.95885E+03-1.49050E+05-3.19233E-10 1.17143E-09
 -1       104-4.03086E+05-6.64201E+04-1.46841E+04-1.47127E+05 9.11200E-11 7.00993E-10
 -1       105-3.92047E+05-4.69010E+04-2.11586E+04-1.50742E+05-6.10271E-10 1.91903E-10
 -1       106-2.14076E+05 3.65304E+02-8.45334E+02 2.13923E-08 1.97803E-10 2.00146E-10
 -1       107-2.14423E+05-4.22948E+02-5.98833E+02-2.76955E-08-1.46324E-10 6.68763E-10
 -1       108-2.14217E+05 5.73088E+01-2.20771E+02 1.77877E-09-1.15523E-10 8.01307E-10
 -1       109-2.14259E+05-6.66141E+01-1.41867E+02-2.23119E-08-3.30076E-10-1.11036E-09
 -1       110-2.14240E+05 9.25792E+00-6.44937E+01-2.97682E-08-2.86190E-11 1.44199E-10
 -1       111-2.14233E+05-1.27857E+01-5.12154E+01 2.24162E-08 1.07999E-10 3.57326E-10
 -1       112-2.14243E+05 3.52131E+00-4.94541E+01-4.18659E-08 7.33774E-11 7.19902E-10
 -1       113-2.14237E+05-1.76869E+01-8.57032E+01-9.16123E-09 6.26564E-11 1.34603E-09
 -1       114-2.14237E+05 1.41583E+01-1.44835E+02-1.47385E-08 1.90816E-11-4.46995E-10
 -1       115-2.14282E+05-1.04245E+02-3.27259E+02 2.83606E-08-2.37293E-10-5.33738E-10
 -1       116-2.14197E+05 9.00241E+01-5.61325E+02 8.84900E-09-6.13848E-11 4.68418E-10
 -1       117-2.14557E+05-6.67131E+02-1.38266E+03 4.61271E-08-2.81961E-10 1.12266E-10
 -1       118-2.13962E+05 5.76626E+02-2.20146E+03 1.24300E-08-1.13766E-10-1.94632E-10
 -1       119-2.16214E+05-4.25846E+03-6.01950E+03-3.02125E-08 6.29352E-10-8.01720E-10
 -1       120-2.12540E+05 3.67852E+03-8.50792E+03 2.91251E-09 3.63259E-10 3.42880E-10
 -1       121-3.01063E+02-1.89871E+05 1.43152E+03 1.78422E+03-6.07088E-11 3.78748E-10
 -1       122 4.46457E+02-1.89335E+05 1.01278E+03 6.39468E+03-1.27997E-10 4.18368E-11
 -1       123-5.28788E+01-1.89680E+05 6.07374E+02 1.79594E+03-2.07748E-10 7.75117E-10
 -1       124 3.40360E+02-1.89394E+05 8.22756E+02 6.35490E+03-4.58726E-10 4.12797E-10
 -1       125-2.22333E+02-1.89805E+05 1.06829E+03 1.82401E+03-4.56907E-10-1.45292E-10
 -1       126-1.86404E+05-2.59245E+04-6.78335E+02-6.99878E+04 3.26253E-10-8.91589E-11
 -1       127-1.86652E+05-2.66378E+04-4.70949E+02-6.99690E+04 3.92810E-09-3.01171E-09
 -1       128-1.86559E+05-2.61516E+04-1.59998E+02-6.99225E+04 1.52812E-06-5.72525E-07
 -1       129-1.86473E+05-2.63744E+04-1.01629E+02-7.00437E+04 3.04824E-06-1.14355E-06
 -1       130-1.86583E+05-2.61877E+04-4.16848E+01-6.99132E+04 1.52806E-06-5.73226E-07
 -1       131-1.86460E+05-2.63207E+04-3.24913E+01-7.00386E+04 5.00496E-09-2.21283E-09
 -1       132-1.86572E+05-2.62053E+04-2.98759E+01-6.99276E+04 2.76392E-11-2.93513E-10
 -1       133-1.86501E+05-2.62876E+04-5.57450E+01-6.99942E+04 1.51192E-10-1.72991E-10
 -1       134-1.86541E+05-2.62208E+04-9.55144E+01-6.99576E+04-6.11890E-10-5.78730E-10
 -1       135-1.86599E+05-2.63121E+04-2.36267E+02-6.99227E+04 9.50101E-10-4.00853E-10
 -1       136-1.86475E+05-2.61809E+04-4.07357E+02-6.99991E+04-7.41231E-10-1.55822E-10
 -1       137-1.86932E+05-2.67579E+04-1.09716E+03-6.97832E+04-1.95915E-08 8.13949E-09
 -1       138-1.86208E+05-2.57753E+04-1.75656E+03-7.00970E+04-7.33849E-06 2.75278E-06
 -1       139-1.88735E+05-2.98570E+04-5.20438E+03-6.91693E+04-1.46275E-05 5.48901E-06
 -1       140-1.84673E+05-2.30837E+04-7.49610E+03-7.06125E+04-7.34372E-06 2.75333E-06
 -1       141-1.01312E+05-6.49616E+02 1.50179E+03-7.28175E-09-4.02663E-11-2.32490E-11
 -1       142-1.00651E+05 7.51945E+02 1.06092E+03-5.20256E-08 9.12524E-11 1.74737E-10
 -1       143-1.01061E+05-1.01738E+02 3.84383E+02-6.12470E-08 1.03380E-12 6.06946E-10
 -1       144-1.00944E+05 1.17065E+02 2.34781E+02-4.48425E-08-2.43225E-10 6.62681E-10
 -1       145-1.01019E+05-1.52419E+01 8.10625E+01 8.77468E-09-3.83380E-11 1.70132E-10
 -1       146-1.00996E+05 1.33825E+01 1.91242E+01-1.35164E-08-6.13474E-11 2.35651E-10
 -1       147-1.01009E+05 1.86991E+00-4.68948E+01 1.77019E-08 3.78026E-11 7.66384E-10
 -1       148-1.01020E+05-2.97899E+01-1.44380E+02 1.54426E-09-5.52402E-11 2.96925E-10
 -1       149-1.00994E+05 2.79074E+01-2.80417E+02-9.71095E-10-3.60823E-11-1.41910E-10
 -1       150-1.01116E+05-2.10495E+02-6.56688E+02 4.07412E-08-3.90137E-11-8.50704E-10
 -1       151-1.00914E+05 1.82462E+02-1.13527E+03 1.88242E-08-6.61775E-12 5.21084E-10
 -1       152-1.01673E+05-1.35288E+03-2.80276E+03-2.05396E-08 2.64979E-10 5.09885E-11
 -1       153-1.00437E+05 1.16946E+03-4.46443E+03 2.89974E-08 5.69388E-10 4.56339E-10
 -1       154-1.05034E+05-8.63672E+03-1.22084E+04-2.60189E-08 2.04693E-10-1.25510E-10
 -1       155-9.75522E+04 7.46053E+03-1.72550E+04-7.52833E-08 1.22130E-09-4.27463E-10
 -1       156-3.30234E+03-3.49851E+04 7.86074E+03-8.30644E+01-4.09273E-10 2.13720E-05
 -1       157 4.34657E+03-3.14018E+04 6.49071E+03 3.36901E+02-1.58752E-09 4.25506E-05
 -1       158-1.04083E+03-3.39601E+04 3.92564E+03-8.22497E+01-1.98824E-10 2.13558E-05
 -1       159 4.54429E+03-3.13080E+04 6.74860E+03 3.28544E+02 2.22258E-11 6.21183E-08
 -1       160-3.49994E+03-3.50789E+04 8.30299E+03-7.47070E+01 1.00954E-10 3.49549E-09
 -1       161-1.06026E+05-1.48057E+04-2.51051E+02-3.97950E+04 9.09313E-07-3.40693E-07
 -1       162-1.06123E+05-1.50608E+04-1.75225E+02-3.97775E+04 1.80886E-06-6.78645E-07
 -1       163-1.06079E+05-1.48945E+04-6.13341E+01-3.97765E+04-1.05346E-06 3.93559E-07
 -1       164-1.06064E+05-1.49571E+04-4.26266E+01-3.97970E+04-3.92402E-06 1.47165E-06
 -1       165-1.06085E+05-1.49094E+04-2.52569E+01-3.97755E+04-6.94900E-06 2.60506E-06
 -1       166-1.06062E+05-1.49411E+04-3.48239E+01-3.97948E+04-9.97148E-06 3.73909E-06
 -1       167-1.06081E+05-1.49105E+04-5.42804E+01-3.97787E+04-1.19287E-05 4.47260E-06
 -1       168-1.06086E+05-1.49611E+04-1.24317E+02-3.97838E+04-1.38815E-05 5.20717E-06
 -1       169-1.06062E+05-1.48895E+04-2.24449E+02-3.97865E+04-1.43258E-05 5.37034E-06
 -1       170-1.06206E+05-1.51368E+04-5.63737E+02-3.97439E+04-1.47644E-05 5.53867E-06
 -1       171-1.05960E+05-1.47349E+04-9.73588E+02-3.98186E+04-1.35764E-05 5.09129E-06
 -1       172-1.06905E+05-1.63026E+04-2.62498E+03-3.95236E+04-1.23804E-05 4.64424E-06
 -1       173-1.05363E+05-1.37244E+04-4.20270E+03-4.00066E+04-9.85807E-06 3.69486E-06
 -1       174-1.11165E+05-2.37685E+04-1.24518E+04-3.81130E+04-7.32200E-06 2.74626E-06
 -1       175-1.01701E+05-7.27384E+03-1.79341E+04-4.12276E+04-3.66994E-06 1.37454E-06
 -1       191 1.99663E+02 9.70131E+04 3.18131E+02-2.03202E+03-1.25056E-10 1.03432E-09
 -1       192 7.45281E+01 9.70558E+04 1.90446E+02-2.16105E+03-1.69734E-10-1.41199E-10
 -1       193 3.63576E+01 9.70286E+04 1.53845E+02-1.99126E+03-3.17442E-10 2.46700E-10
 -1       194 9.81719E+01 9.70632E+04 2.33353E+02-2.23818E+03-3.65731E-10-3.56067E-10
 -1       195 2.73270E+02 9.70043E+04 4.24862E+02-1.95483E+03-4.81577E-10-7.18956E-10
 -1       251-5.17194E+05 1.23822E+04-2.86363E+04-6.43361E+02 6.65796E-11-1.13141E-09
 -1       252-5.29523E+05-1.43322E+04-2.02531E+04 8.36637E+02-2.53618E-10-7.71024E-10
 -1       253-5.22011E+05 1.93880E+03-7.42262E+03-1.25972E+02-1.30115E-10 2.87855E-10
 -1       254-5.23928E+05-2.24414E+03-4.65391E+03-3.01266E+02-6.89759E-11-9.13985E-10
 -1       255-5.22785E+05 3.03023E+02-1.91996E+03 4.94560E+02-1.23965E-10-6.53245E-10
 -1       256-5.23050E+05-3.58259E+02-1.15363E+03-1.19927E+03 2.42150E-10-6.48853E-10
 -1       257-5.22888E+05 5.52725E+01-5.93083E+02 7.72052E+02 9.51100E-11 1.32871E-11
 -1       258-5.22922E+05-1.07893E+02-5.18245E+02-1.21067E+03-1.04194E-10-2.97299E-10
 -1       259-5.22913E+05 5.28421E+01-5.95033E+02 5.05961E+02-1.54362E-10 4.76064E-11
 -1       260-5.23008E+05-3.52868E+02-1.13622E+03-3.27854E+02-6.84693E-10 2.27374E-10
 -1       261-5.22801E+05 2.99116E+02-1.90694E+03-1.10783E+02-7.33316E-10-3.22188E-10
 -1       262-5.23934E+05-2.22548E+03-4.61664E+03 8.09765E+02-6.64309E-10 6.60805E-10
 -1       263-5.21989E+05 1.92443E+03-7.35194E+03-6.31679E+02 1.50472E-10 2.91948E-10
 -1       264-5.29500E+05-1.42089E+04-2.00836E+04 1.37793E+03-1.27905E-09 1.31877E-09
 -1       265-5.17241E+05 1.22740E+04-2.83862E+04-6.78955E+02-1.39829E-09 2.21917E-10
 -1       266-4.29046E+03-8.76736E+04 9.69925E+03 6.48111E+02 4.54747E-12 4.24542E-10
 -1       267 4.55221E+03-8.34220E+04 6.13853E+03-2.31655E+03 1.95541E-11-6.24834E-10
 -1       268-2.55935E+02-8.57378E+04 9.70437E+02 7.41093E+02-1.86446E-11-4.66389E-10
 -1       269-2.33689E+03-8.66445E+04-2.84199E+03-2.36518E+03 1.46656E-11 2.73781E-10
 -1       270 2.59387E+03-8.44528E+04-5.73021E+03 6.96741E+02-1.13687E-11 1.50067E-09
 -1       271-7.35732E+05-9.34215E+04-5.68756E+04-2.84283E+05-9.36780E-11-6.18456E-10
 -1       272-7.53682E+05-1.30914E+05-3.56567E+04-2.86653E+05-3.59279E-10-1.77670E-09
 -1       273-7.45476E+05-1.05713E+05-1.34159E+04-2.82980E+05-3.91687E-10-1.72167E-09
 -1       274-7.42427E+05-1.14649E+05-7.32566E+03-2.89134E+05-5.18412E-11-7.95808E-11
 -1       275-7.46609E+05-1.06954E+05-3.11964E+03-2.82832E+05 4.59977E-10 1.22577E-09
 -1       276-7.41111E+05-1.13061E+05-1.64613E+03-2.89412E+05-2.64890E-11-1.04257E-09
 -1       277-7.46769E+05-1.07061E+05-8.45899E+02-2.82797E+05 1.35287E-11-1.76414E-10
 -1       278-7.40944E+05-1.12942E+05-6.60048E+02-2.89466E+05 5.44048E-10 2.05728E-09
 -1       279-7.46779E+05-1.07054E+05-7.87286E+02-2.82788E+05 1.20458E-10 5.40808E-10
 -1       280-7.41066E+05-1.13072E+05-1.48585E+03-2.89451E+05-6.84508E-10-2.81739E-09
 -1       281-7.46649E+05-1.06945E+05-2.79135E+03-2.82806E+05 1.37675E-10 4.36557E-11
 -1       282-7.42222E+05-1.14510E+05-6.54428E+03-2.89229E+05-1.97986E-10 6.86896E-10
 -1       283-7.45647E+05-1.05828E+05-1.19775E+04-2.82928E+05-5.03064E-11 4.01997E-10
 -1       284-7.52252E+05-1.29049E+05-3.18336E+04-2.87038E+05-2.05205E-11-5.34783E-10
 -1       285-7.36959E+05-9.48445E+04-5.07752E+04-2.84080E+05 6.18456E-11 3.12866E-10
 -1       286-1.23417E+05-3.05431E+03 7.06280E+03-4.35173E+01 2.44516E-10 1.29148E-10
 -1       287-1.20321E+05 3.53590E+03 5.00069E+03-6.75537E+01 8.94662E-12-2.24986E-10
 -1       288-1.22235E+05-4.78934E+02 1.82825E+03 1.86692E+01 1.11307E-10-1.13232E-09
 -1       289-1.21700E+05 5.54258E+02 1.15306E+03-1.83446E+02 1.45910E-11 1.08400E-10
 -1       290-1.22038E+05-7.50234E+01 4.71924E+02 7.23779E+01-2.08367E-11-3.66839E-10
 -1       291-1.21932E+05 8.83521E+01 2.86328E+02-2.71753E+02 1.80059E-10-2.52669E-11
 -1       292-1.22004E+05-1.32772E+01 1.46124E+02 1.06978E+02 1.47649E-10 8.83219E-10
 -1       293-1.21967E+05 2.64345E+01 1.28467E+02-3.15331E+02 1.99624E-10 6.98832E-10
 -1       294-1.22003E+05-1.30859E+01 1.44793E+02 1.15957E+02 1.47349E-10 6.31772E-10
 -1       295-1.21935E+05 8.68917E+01 2.81546E+02-3.05980E+02 2.45266E-10 8.08335E-10
 -1       296-1.22036E+05-7.37076E+01 4.64552E+02 9.76265E+01 3.53961E-10 6.52818E-10
 -1       297-1.21708E+05 5.44878E+02 1.13316E+03-2.45486E+02 3.23958E-10-2.45862E-10
 -1       298-1.22230E+05-4.70814E+02 1.79778E+03 5.54614E+01-4.60023E-11-2.46700E-10
 -1       299-1.20351E+05 3.47632E+03 4.91619E+03-1.45658E+02-1.24291E-10 1.06064E-09
 -1       300-1.23393E+05-3.00287E+03 6.94382E+03-2.20309E+00 2.83038E-10 4.68390E-10
 -1       301 1.00503E+04 2.40191E+03 2.25697E+04-7.35129E+03-1.47338E-10 3.36769E-10
 -1       302 3.40029E+03 6.66737E+03 1.38626E+04-8.64911E+03-1.25851E-10-4.95224E-10
 -1       303 9.30740E+02 3.91775E+03 1.11423E+04-7.34789E+03-1.79512E-10-1.31251E-10
 -1       304 4.42073E+03 7.28215E+03 1.66305E+04-8.64165E+03-2.55795E-10 7.68040E-10
 -1       305 1.33467E+04 1.78826E+03 2.92727E+04-7.35728E+03-1.54614E-10 4.14673E-10
 -1       306-4.85780E+05-6.39000E+04-3.13961E+04-1.88287E+05 1.33696E-10-1.65528E-10
 -1       307-4.92458E+05-8.77909E+04-1.96790E+04-1.93270E+05-3.05590E-10-5.41604E-10
 -1       308-4.91174E+05-7.06610E+04-7.40781E+03-1.87551E+05-2.15323E-10-5.26597E-10
 -1       309-4.86237E+05-7.88350E+04-4.04680E+03-1.94666E+05-8.71921E-10-1.28182E-09
 -1       310-4.91803E+05-7.13412E+04-1.72888E+03-1.87467E+05-7.81029E-11 9.33824E-10
 -1       311-4.85515E+05-7.79578E+04-9.22809E+02-1.94821E+05-7.03153E-10-1.98881E-09
 -1       312-4.91888E+05-7.14022E+04-4.95840E+02-1.87451E+05 2.05091E-10 2.24354E-12
 -1       313-4.85436E+05-7.78866E+04-4.27438E+02-1.94841E+05 6.08569E-10 7.64544E-11
 -1       314-4.91884E+05-7.14022E+04-5.62252E+02-1.87453E+05 3.80851E-11-3.65162E-10
 -1       315-4.85543E+05-7.79746E+04-1.10561E+03-1.94813E+05-1.28523E-10-1.07934E-09
 -1       316-4.91777E+05-7.13271E+04-2.10050E+03-1.87472E+05-5.46834E-11-2.93312E-11
 -1       317-4.86425E+05-7.90491E+04-4.93598E+03-1.94627E+05 2.29988E-10-1.85651E-10
 -1       318-4.91012E+05-7.04930E+04-9.04016E+03-1.87571E+05-3.11047E-10 4.81123E-10
 -1       319-4.94008E+05-8.99959E+04-2.40227E+04-1.92941E+05-1.73948E-10-7.27596E-12
 -1       320-4.84437E+05-6.22270E+04-3.83229E+04-1.88457E+05-5.20686E-10 5.80258E-10
 -1       321-1.22434E+05-3.03961E+03 7.03025E+03-3.08904E+01-3.55747E-10 4.76575E-10
 -1       322-1.19366E+05 3.51888E+03 4.97467E+03-3.34023E+01-4.05509E-10-3.37536E-10
 -1       323-1.21259E+05-4.76511E+02 1.81875E+03 2.32316E+00-2.06716E-10-3.46745E-11
 -1       324-1.20736E+05 5.51257E+02 1.14282E+03-9.60828E+01 8.58411E-11 1.48029E-09
 -1       325-1.21064E+05-7.43835E+01 4.63158E+02 3.17918E+01-8.45288E-11-2.50481E-10
 -1       326-1.20965E+05 8.59875E+01 2.69581E+02-1.45363E+02-3.44491E-11-9.68527E-10
 -1       327-1.21031E+05-1.15595E+01 1.17570E+02 5.16040E+01-2.03447E-10-6.33179E-10
 -1       328-1.21004E+05 1.36456E+01 6.62958E+01-1.71657E+02-1.39707E-10 1.07949E-09
 -1       329-1.21025E+05-2.06778E+00 3.25957E+01 5.80869E+01 1.59021E-11 6.70251E-10
 -1       330-1.21009E+05 4.44734E+00 2.33059E+01-1.70080E+02-1.49043E-10-5.19438E-10
 -1       331-1.21025E+05-2.36662E+00 2.03848E+01 5.00269E+01 1.08300E-11 1.55971E-10
 -1       332-1.21003E+05 1.59647E+01 3.65037E+01-1.40920E+02-2.80956E-10 4.22533E-10
 -1       333-1.21031E+05-1.35970E+01 5.32030E+01 2.89257E+01-6.02407E-11-1.50603E-10
 -1       334-1.20963E+05 1.00076E+02 1.42643E+02-8.95766E+01-1.06986E-10 1.58103E-10
 -1       335-1.21065E+05-8.64374E+01 1.99514E+02-1.31704E+00-1.18650E-10 5.40979E-10
 -1       336-1.48227E+02-1.92558E+05 4.25938E+02-2.27767E+03-7.50561E-10 4.84647E-10
 -1       337 4.66183E+01-1.92427E+05-4.01156E+02-8.24134E+03-1.42407E-09 1.76897E-10
 -1       338 1.24464E+02-1.92340E+05-1.45798E+03-2.25118E+03-9.39281E-10-1.59730E-10
 -1       339-1.92959E+03-1.93631E+05-3.99889E+03-8.27310E+03-1.54535E-09-2.11458E-10
 -1       340 1.39585E+03-1.91361E+05-6.42447E+03-2.24610E+03-9.37007E-10 6.47958E-10
 -1       341-3.10366E+05-4.01354E+04-1.35391E+04-1.20465E+05 6.23163E-09 2.77396E-10
 -1       342-3.18661E+05-4.59630E+04-8.61052E+03-1.10800E+05 4.14889E-09-1.59162E-10
 -1       343-3.09824E+05-4.59866E+04-3.12126E+03-1.20867E+05-4.04827E-09-3.03874E-09
 -1       344-3.18649E+05-3.94036E+04-1.83121E+03-1.10591E+05 1.06625E-08 1.14517E-09
 -1       345-3.10408E+05-4.66673E+04-7.96883E+02-1.20699E+05 9.22912E-09 2.94449E-11
 -1       346-3.14703E+05-3.99622E+04 3.37419E+01-1.12110E+05-6.19372E-09-1.16205E-09
 -1       347-3.13735E+05-4.54542E+04-6.86829E+02-1.19322E+05 1.48836E-09-8.01975E-10
 -1       348-3.09141E+05-4.35491E+04 5.45872E+02-1.16129E+05-8.97330E-10-9.73856E-10
 -1       349-3.15938E+05-4.31049E+04-8.44466E+02-1.16656E+05-2.25799E-09-1.29137E-09
 -1       350-3.07105E+05-4.80878E+04-5.50676E+02-1.21151E+05 2.10008E-09-2.38049E-09
 -1       351-3.15805E+05-4.08893E+04-1.77109E+03-1.14326E+05-1.51641E-09-2.70899E-09
 -1       352-3.08305E+05-5.20211E+04-4.51956E+03-1.23158E+05-1.24251E-08-7.05342E-09
 -1       353-3.14772E+05-3.91477E+04-7.44717E+03-1.14673E+05 3.40162E-09 4.29281E-10
 -1       354-3.15763E+05-6.30421E+04-2.13685E+04-1.18230E+05-4.14320E-09-1.07707E-09
 -1       355-3.08316E+05-2.99029E+04-3.19653E+04-1.19226E+05 1.33696E-10-7.58519E-10
 -1       356-1.28024E+05 1.84530E+02-4.27961E+02-2.34778E+01-2.14467E-10-3.15765E-10
 -1       357-1.28197E+05-2.13732E+02-3.04265E+02-8.84042E+00-3.39278E-10 6.07223E-10
 -1       358-1.28096E+05 2.90188E+01-1.15553E+02-3.66811E+00-2.46211E-10-6.11074E-10
 -1       359-1.28114E+05-3.43010E+01-7.97687E+01-4.68172E+01 3.04164E-10-7.94162E-10
 -1       360-1.28107E+05 5.24624E+00-4.85172E+01 1.44997E+01 7.29869E-11-8.22417E-10
 -1       361-1.28104E+05-1.08686E+01-5.97015E+01-7.79921E+01-1.90501E-09-5.56256E-10
 -1       362-1.28106E+05 5.61435E+00-8.85616E+01 2.75073E+01-6.00376E-07 8.77748E-10
 -1       363-1.28121E+05-3.78041E+01-1.83152E+02-9.62913E+01-1.19646E-06-2.02380E-10
 -1       364-1.28090E+05 3.21770E+01-3.26711E+02 3.27992E+01-3.60923E-07 6.64414E-10
 -1       365-1.28228E+05-2.39226E+02-7.49068E+02-9.81399E+01 4.75916E-07-6.01091E-10
 -1       366-1.27999E+05 2.06910E+02-1.28904E+03 2.93560E+01 2.39456E-07-3.79032E-10
 -1       367-1.28858E+05-1.53362E+03-3.17800E+03-8.31365E+01 1.08610E-09 5.03803E-10
 -1       368-1.27460E+05 1.32562E+03-5.06103E+03 1.77954E+01 5.21228E-10-2.86491E-10
 -1       369-1.32668E+05-9.78994E+03-1.38385E+04-5.36884E+01 1.87339E-10-5.43878E-10
 -1       370-1.24189E+05 8.45670E+03-1.95589E+04-9.21498E-02 1.40967E-09 2.82853E-10
 -1       371-3.28528E+03-3.77134E+04 7.44997E+03 2.45903E+02 3.10592E-10 4.50093E-10
 -1       372 3.47630E+03-3.45643E+04 4.67952E+03-9.66371E+02 5.71276E-10-1.66870E-09
 -1       373-1.87934E+02-3.62783E+04 7.10156E+02 2.54569E+02 4.44288E-10 1.56468E-10
 -1       374-1.86611E+03-3.70283E+04-2.28121E+03-9.60563E+02 4.99313E-10 3.28532E-10
 -1       375 2.05279E+03-3.52495E+04-4.53000E+03 2.40094E+02 2.56705E-10-2.63672E-10
 -1       376-1.78021E+05-2.23822E+04-6.84413E+03-6.79765E+04 7.82165E-10-5.14774E-10
 -1       377-1.81650E+05-2.86425E+04-4.75260E+03-6.67462E+04-9.04095E-11 2.92403E-10
 -1       378-1.79435E+05-2.48267E+04-1.60687E+03-6.74913E+04 9.68612E-11-6.72173E-10
 -1       379-1.79992E+05-2.58272E+04-1.00851E+03-6.73218E+04-7.46745E-11 4.17245E-10
 -1       380-1.79678E+05-2.51957E+04-3.85666E+02-6.74014E+04-1.48226E-10 7.49694E-10
 -1       381-1.79704E+05-2.54143E+04-2.47517E+02-6.74357E+04 5.82428E-09-2.43251E-09
 -1       382-1.79724E+05-2.52392E+04-1.47491E+02-6.73774E+04 2.13827E-06-8.01622E-07
 -1       383-1.79669E+05-2.53944E+04-1.95579E+02-6.74599E+04 4.26570E-06-1.60073E-06
 -1       384-1.79713E+05-2.52156E+04-2.91160E+02-6.73772E+04 2.13839E-06-8.02226E-07
 -1       385-1.79805E+05-2.56012E+04-6.94249E+02-6.74176E+04 6.29197E-09-2.78391E-09
 -1       386-1.79588E+05-2.50325E+04-1.18631E+03-6.74197E+04 8.89315E-11-3.71472E-10
 -1       387-1.80666E+05-2.70006E+04-3.18930E+03-6.71336E+04-4.87717E-11 2.09184E-11
 -1       388-1.78853E+05-2.38171E+04-5.10383E+03-6.76610E+04 1.17757E-09-3.33557E-10
 -1       389-1.85865E+05-3.60394E+04-1.51198E+04-6.53902E+04 1.62629E-10 3.58341E-10
 -1       390-1.74390E+05-1.59997E+04-2.17761E+04-6.91612E+04 5.37966E-10-5.25688E-10
 -1       406 2.23205E+02 9.61377E+04 4.91787E+02-6.78360E+03-6.69615E-10 3.29464E-10
 -1       407 1.48444E+02 9.62281E+04 6.10341E+02-7.43046E+03-7.84937E-10-9.97034E-11
 -1       408 2.49811E+02 9.61217E+04 1.01633E+03-6.75001E+03-8.13884E-10 6.05496E-10
 -1       409 1.00947E+03 9.65171E+04 2.18791E+03-7.48277E+03-9.03242E-10 2.97973E-10
 -1       410 2.91515E+03 9.58454E+04 4.41512E+03-6.73066E+03-9.18590E-10 5.25347E-10
 -1       466 3.82250E+05-1.54671E+04 3.57645E+04 7.46189E+02 2.64684E-10 7.36691E-10
 -1       467 3.97881E+05 1.79039E+04 2.53309E+04-1.35332E+03-9.49072E-11-2.11458E-10
 -1       468 3.88282E+05-2.42320E+03 9.27059E+03 2.70642E+02-2.39122E-10 5.58884E-10
 -1       469 3.90855E+05 2.80513E+03 5.84695E+03-6.72866E+02 5.11420E-10 1.68598E-10
 -1       470 3.89278E+05-3.79997E+02 2.41805E+03 6.57399E+01-1.46339E-10 3.01611E-10
 -1       471 3.89701E+05 4.53403E+02 1.49872E+03-3.84762E+02 3.80814E-10 3.05349E-10
 -1       472 3.89438E+05-7.30859E+01 8.37428E+02-1.74674E+01 5.44237E-10 5.16835E-10
 -1       473 3.89559E+05 1.77579E+02 8.62210E+02-2.82800E+02 1.92737E-10 6.93976E-10
 -1       474 3.89420E+05-1.04332E+02 1.11729E+03-3.62236E+01 3.88292E-11-4.04214E-10
 -1       475 3.89843E+05 7.21877E+02 2.30815E+03-2.96983E+02 1.73573E-10-6.48924E-10
 -1       476 3.89153E+05-6.17030E+02 3.87558E+03-3.28453E+00 6.65795E-10-1.09571E-09
 -1       477 3.91718E+05 4.56611E+03 9.48364E+03-4.37285E+02-5.37508E-11-3.77327E-10
 -1       478 3.87544E+05-3.94569E+03 1.50805E+04 1.04082E+02 1.42828E-10-3.32875E-10
 -1       479 4.03075E+05 2.91418E+04 4.12104E+04-8.07239E+02 4.70941E-10-4.86580E-11
 -1       480 3.77793E+05-2.51718E+04 5.82442E+04 3.66663E+02 1.69532E-09 5.60249E-10
 -1       481-2.91787E+03 5.93063E+04 6.79412E+03-1.03792E+02 9.09495E-12-1.46578E-10
 -1       482 3.49866E+03 6.23174E+04 5.02081E+03 1.31873E+02-4.56453E-11 1.25021E-09
 -1       483-5.78244E+02 6.03799E+04 2.17931E+03-6.55929E+01-3.88241E-11 7.61171E-10
 -1       484 1.44054E+03 6.13620E+04 2.33844E+03 6.20240E+01-1.83178E-11-5.36922E-11
 -1       485-8.61326E+02 6.02617E+04 2.18107E+03-3.39436E+01 3.60387E-11-5.00997E-10
 -1       486-3.56084E+05-3.76394E+04-3.35832E+04-1.40289E+05 2.65572E-10 5.62068E-10
 -1       487-3.75500E+05-6.67794E+04-2.33113E+04-1.32438E+05 6.42785E-10 1.05501E-10
 -1       488-3.63149E+05-4.95621E+04-7.88206E+03-1.37827E+05 4.26894E-10-7.48059E-10
 -1       489-3.66782E+05-5.34254E+04-4.89397E+03-1.35783E+05 2.84246E-10-1.51658E-10
 -1       490-3.64796E+05-5.09859E+04-1.86212E+03-1.36944E+05 5.28303E-10-2.38742E-12
 -1       491-3.64526E+05-5.22041E+04-1.06813E+03-1.37289E+05-1.73983E-10-3.85853E-10
 -1       492-3.65403E+05-5.07819E+04-5.09505E+02-1.36321E+05 2.59696E-10 5.50472E-10
 -1       493-3.63797E+05-5.25688E+04-4.19063E+02-1.38112E+05 2.74078E-10 1.72816E-09
 -1       494-3.65527E+05-5.06194E+04-4.54252E+02-1.36123E+05-2.13621E-10 8.21345E-10
 -1       495-3.64039E+05-5.26960E+04-9.44101E+02-1.37937E+05 4.26148E-11 4.07510E-10
 -1       496-3.65161E+05-5.06552E+04-1.59716E+03-1.36496E+05 3.47342E-10 2.96438E-10
 -1       497-3.65850E+05-5.37630E+04-4.19596E+03-1.36661E+05 1.93026E-10 2.01396E-10
 -1       498-3.63715E+05-4.95551E+04-6.77330E+03-1.37398E+05 8.48786E-10-1.85537E-10
 -1       499-3.73672E+05-6.48207E+04-1.99813E+04-1.33330E+05 3.06954E-10-5.27962E-10
 -1       500-3.57344E+05-3.96049E+04-2.88124E+04-1.39825E+05-8.90850E-10 1.40244E-09
 -1       501-1.17197E+05-5.92084E+03 1.36917E+04-9.97624E+00 9.45697E-11-3.48336E-10
 -1       502-1.11212E+05 6.85435E+03 9.69180E+03-1.75288E+02-2.90878E-11-2.86491E-10
 -1       503-1.14905E+05-9.28258E+02 3.54152E+03 6.30566E+01-2.31431E-10 1.92131E-10
 -1       504-1.13888E+05 1.07381E+03 2.22723E+03-3.04818E+02-1.00307E-10 3.64025E-10
 -1       505-1.14522E+05-1.44864E+02 9.02149E+02 1.19557E+02 1.07613E-10 3.38787E-10
 -1       506-1.14337E+05 1.67534E+02 5.25846E+02-3.89946E+02-3.11648E-09 4.25871E-10
 -1       507-1.14456E+05-2.25036E+01 2.30282E+02 1.48186E+02-1.12346E-06-1.20455E-09
 -1       508-1.14414E+05 2.70839E+01 1.31783E+02-4.14170E+02-2.23975E-06-8.58293E-10
 -1       509-1.14446E+05-4.45483E+00 6.81512E+01 1.43782E+02-1.12360E-06-1.38610E-09
 -1       510-1.14419E+05 1.22206E+01 5.72845E+01-3.73103E+02-3.46509E-09-2.87734E-10
 -1       511-1.14451E+05-7.72926E+00 5.79574E+01 1.07119E+02 4.09983E-11-3.64953E-10
 -1       512-1.14391E+05 5.39195E+01 1.20095E+02-2.73945E+02 1.79352E-10 8.17700E-10
 -1       513-1.14473E+05-4.62819E+01 1.76887E+02 4.46215E+01-1.64093E-10-6.04814E-11
 -1       514-1.14252E+05 3.40104E+02 4.85047E+02-1.34043E+02-1.94254E-10-2.82853E-10
 -1       515-1.14589E+05-2.93814E+02 6.75420E+02-3.27854E+01-1.13964E-10 9.23023E-10
 -1       516-1.39436E+04 8.56496E+04 3.26461E+04 6.10299E+01-1.47338E-10 1.09518E-09
 -1       517 1.70963E+04 1.00153E+05 2.47735E+04-4.55783E+02-2.42835E-10 2.30920E-10
 -1       518-3.13872E+03 9.05910E+04 1.18375E+04 2.67548E-01-4.02224E-10 4.25267E-10
 -1       519 9.71454E+03 9.67322E+04 1.51536E+04-3.50906E+02-1.78204E-10-1.67766E-10
 -1       520-6.56787E+03 8.90700E+04 1.60968E+04-4.38463E+01-4.31100E-10-9.18858E-10
 -1       521-7.21030E+05-9.31101E+04-4.91824E+04-2.78165E+05-4.27463E-11-8.58563E-10
 -1       522-7.35189E+05-1.26879E+05-3.08322E+04-2.81764E+05-2.92346E-10-3.43653E-09
 -1       523-7.29458E+05-1.03733E+05-1.16009E+04-2.77034E+05 1.41938E-10 5.68434E-11
 -1       524-7.25459E+05-1.12817E+05-6.33579E+03-2.83913E+05 1.42677E-11 3.59705E-10
 -1       525-7.30436E+05-1.04807E+05-2.69913E+03-2.76908E+05 2.80693E-10 2.91266E-10
 -1       526-7.24329E+05-1.11435E+05-1.42785E+03-2.84143E+05-1.91307E-10-1.03938E-10
 -1       527-7.30566E+05-1.04907E+05-7.40081E+02-2.76886E+05-4.61284E-11 1.82652E-10
 -1       528-7.24203E+05-1.11314E+05-5.90109E+02-2.84166E+05-5.98202E-10 1.27613E-10
 -1       529-7.30562E+05-1.04913E+05-7.19948E+02-2.76891E+05-4.56794E-10-2.43062E-10
 -1       530-7.24339E+05-1.11411E+05-1.37225E+03-2.84121E+05-4.00405E-10-1.10185E-09
 -1       531-7.30427E+05-1.04827E+05-2.58587E+03-2.76922E+05 8.02629E-11 4.14275E-10
 -1       532-7.25438E+05-1.12715E+05-6.06480E+03-2.83877E+05-4.68390E-11 3.60274E-10
 -1       533-7.29479E+05-1.03810E+05-1.11028E+04-2.77054E+05 1.16529E-11 6.04814E-11
 -1       534-7.34774E+05-1.26146E+05-2.95061E+04-2.81790E+05-2.14300E-10 2.07820E-10
 -1       535-7.21398E+05-9.36603E+04-4.70672E+04-2.78153E+05 3.71529E-10 2.35741E-09
 -1       536 8.72277E+03-2.64257E+03 1.22093E+04-2.13931E+03 1.26420E-10 4.09273E-11
 -1       537 1.30836E+04 3.69114E+03 7.76689E+03-7.52682E+03-6.15046E-10-5.05224E-10
 -1       538 1.05458E+04-2.67922E+02 3.15837E+03-2.11133E+03-2.00089E-11-5.81849E-10
 -1       539 1.10478E+04 3.47540E+02 1.75121E+03-7.55627E+03 2.69893E-10-1.02045E-09
 -1       540 1.07452E+04-3.01268E+01 7.95365E+02-2.10950E+03 8.74252E-11-4.98403E-10
 -1       541 1.08140E+04 3.19365E+01 4.16491E+02-7.55749E+03-1.62970E-10 2.19615E-10
 -1       542 1.07698E+04-3.89374E+00 1.95604E+02-2.11012E+03-4.09273E-12-5.77387E-10
 -1       543 1.07796E+04 3.58359E+00 9.56698E+01-7.55654E+03-1.87015E-11-2.51191E-10
 -1       544 1.07736E+04 2.31447E-02 3.66875E+01-2.11045E+03 5.90319E-11-4.99824E-10
 -1       545 1.07711E+04-3.63862E-01-1.74334E+00-7.55614E+03-1.16806E-10 3.19744E-12
 -1       546 1.07759E+04 2.15044E+00-3.92055E+01-2.11052E+03 3.00417E-11 4.20627E-10
 -1       547 1.07562E+04-2.15003E+01-1.06985E+02-7.55529E+03-9.31664E-11 1.49953E-10
 -1       548 1.07896E+04 1.68471E+01-2.01645E+02-2.11130E+03-1.23748E-10 7.81597E-11
 -1       549 1.06283E+04-2.39228E+02-5.00855E+02-7.53926E+03-1.98440E-10 1.94632E-10
 -1       550 1.09086E+04 1.68819E+02-7.90370E+02-2.12654E+03 8.28777E-11-4.69697E-10
 -1       551 2.67491E+03-6.99266E+04 6.42945E+03-1.08078E+05 2.18279E-11-4.01087E-10
 -1       552 1.13124E+03-6.87286E+04 5.28354E+03-1.26945E+05-2.90129E-10 1.65983E-10
 -1       553 6.88189E+02-6.97158E+04 6.43494E+03-1.07896E+05 2.63753E-11-2.34195E-11
 -1       554 3.73612E+03-6.71790E+04 1.23284E+04-1.26976E+05-4.82032E-11 6.74845E-10
 -1       555 1.10779E+04-7.15126E+04 2.34896E+04-1.08042E+05 4.00178E-11-2.12822E-10
 -1       556-4.68556E+04-2.62054E+04 4.62937E+03-4.67419E+04-5.37148E-09-1.03164E-08
 -1       557-4.26483E+04-3.07730E+04 2.27760E+03-4.99966E+04-2.98314E-10-1.49157E-10
 -1       558-4.68821E+04-2.77347E+04 9.61936E+02-4.58181E+04-2.44199E-09-5.86761E-09
 -1       559-4.30229E+04-3.15402E+04 4.70482E+02-5.01160E+04 7.07132E-10 6.20730E-11
 -1       560-4.68924E+04-2.77686E+04 2.11161E+02-4.57832E+04 1.04865E-09-5.95037E-10
 -1       561-4.30700E+04-3.15691E+04 9.88811E+01-5.01508E+04 6.00267E-10-1.04004E-09
 -1       562-4.69047E+04-2.77552E+04 3.58438E+01-4.57922E+04 4.79758E-10-2.47326E-10
 -1       563-4.30874E+04-3.15619E+04-2.28291E+00-5.01639E+04 3.50155E-10-7.51925E-10
 -1       564-4.69112E+04-2.77465E+04-4.34933E+01-4.57986E+04 7.82165E-11 5.15001E-10
 -1       565-4.31004E+04-3.15577E+04-1.11704E+02-5.01707E+04-3.47882E-11 3.47427E-10
 -1       566-4.69072E+04-2.77408E+04-2.38308E+02-4.58003E+04-2.53806E-11-2.98087E-10
 -1       567-4.31464E+04-3.15801E+04-5.26887E+02-5.01681E+04 1.21418E-10 1.50067E-11
 -1       568-4.68728E+04-2.78155E+04-1.08159E+03-4.57647E+04 8.48104E-11 9.09495E-13
 -1       569-4.37550E+04-3.22207E+04-2.55139E+03-5.00053E+04-1.33696E-10-4.17913E-10
 -1       570-4.66460E+04-2.97621E+04-5.19416E+03-4.49525E+04-9.54969E-12 3.94266E-10
 -1       571 6.08968E+04 2.96175E+03 4.48322E+03-1.58188E+04 8.57199E-11-6.79847E-10
 -1       572 6.15788E+04 1.01800E+03 2.19996E+03-1.74063E+04 8.09450E-11-6.16410E-10
 -1       573 6.11767E+04 2.33609E+02 9.78276E+02-1.57769E+04 1.06866E-11 6.13909E-12
 -1       574 6.12591E+04 7.35473E+01 4.90694E+02-1.74533E+04 8.13998E-11 1.61435E-10
 -1       575 6.12101E+04 7.32729E+00 2.31863E+02-1.57714E+04-4.72937E-11 1.29603E-11
 -1       576 6.12181E+04 1.71159E-01 1.18292E+02-1.74595E+04-1.07569E-10 5.03746E-10
 -1       577 6.12150E+04-3.58222E+00 5.89042E+01-1.57707E+04 1.89289E-11 3.94266E-10
 -1       578 6.12128E+04-2.35101E+00 3.32076E+01-1.74602E+04 1.36993E-11-2.86946E-10
 -1       579 6.12169E+04-2.64411E+00 2.25406E+01-1.57707E+04-7.63976E-11-3.78918E-10
 -1       580 6.12146E+04-2.02828E+00 2.45302E+01-1.74592E+04 3.36513E-11-1.85310E-10
 -1       581 6.12189E+04-1.60000E+00 3.75736E+01-1.57717E+04-1.83491E-10-1.55183E-10
 -1       582 6.12238E+04 7.37324E+00 7.40532E+01-1.74496E+04-1.81899E-12-1.22782E-10
 -1       583 6.12176E+04 2.98798E+01 1.44703E+02-1.57804E+04-1.59162E-11-1.57098E-09
 -1       584 6.12754E+04 1.44291E+02 3.24139E+02-1.73767E+04-2.92857E-10-2.15948E-10
 -1       585 6.11806E+04 4.29543E+02 6.59459E+02-1.58447E+04 1.34150E-10 2.38742E-10
 -1       586 4.74614E+02 2.57332E+04 8.84551E+02-3.88823E+04 1.17097E-10-1.25510E-10
 -1       587 2.53400E+02 2.58902E+04 8.59511E+02-4.28972E+04 3.43107E-10 3.00474E-10
 -1       588 3.13998E+02 2.57308E+04 1.24035E+03-3.88325E+04 9.86802E-11 2.54715E-10
 -1       589 1.17934E+03 2.62003E+04 2.55556E+03-4.29117E+04 4.22006E-10 7.66477E-10
 -1       590 3.36923E+03 2.54182E+04 5.10260E+03-3.88675E+04 1.21872E-10 7.59883E-10
 -1       591-2.87447E+04-9.74029E+03-5.48065E+03-1.47163E+04 1.14943E-09-4.71573E-10
 -1       592-2.89318E+04-9.09396E+03-2.69258E+03-1.63293E+04-1.76851E-09 1.27901E-09
 -1       593-2.89137E+04-7.74693E+03-1.14266E+03-1.56316E+04-4.50825E-09-2.25327E-10
 -1       594-2.83437E+04-8.36023E+03-5.59226E+02-1.64238E+04-5.70225E-10-8.65104E-11
 -1       595-2.89400E+04-7.67545E+03-2.57607E+02-1.56719E+04 4.43185E-09 4.16726E-09
 -1       596-2.82995E+04-8.33170E+03-1.30786E+02-1.64197E+04 1.14329E-09-7.50987E-10
 -1       597-2.89450E+04-7.67940E+03-7.14394E+01-1.56721E+04-2.71122E-09-5.29400E-09
 -1       598-2.82952E+04-8.33206E+03-5.75908E+01-1.64179E+04-4.26617E-10-2.42437E-10
 -1       599-2.89448E+04-7.67937E+03-7.36010E+01-1.56720E+04 3.56238E-10-5.61442E-10
 -1       600-2.82998E+04-8.33182E+03-1.36571E+02-1.64196E+04 1.71610E-10-2.14868E-10
 -1       601-2.89390E+04-7.67523E+03-2.69752E+02-1.56716E+04-1.67120E-10-6.85532E-11
 -1       602-2.83465E+04-8.36130E+03-5.86305E+02-1.64232E+04 2.52896E-10-7.83984E-10
 -1       603-2.89109E+04-7.75099E+03-1.19805E+03-1.56299E+04-6.51767E-10 5.56383E-10
 -1       604-2.89683E+04-9.12511E+03-2.82319E+03-1.63175E+04-4.21119E-09-7.11429E-09
 -1       605-2.87278E+04-9.84543E+03-5.74622E+03-1.46756E+04-9.68612E-10 8.18545E-11
 -1       606 2.07580E+04-2.44798E+03-3.70367E+03 6.13412E+03-1.03478E-09-1.55296E-10
 -1       607 2.01871E+04-8.41351E+02-1.81719E+03 6.68721E+03-1.65073E-10 4.00462E-11
 -1       608 2.05235E+04-1.92947E+02-8.07980E+02 6.09364E+03 7.68978E-10 3.57431E-10
 -1       609 2.04478E+04-5.95829E+01-4.04859E+02 6.73261E+03-4.83396E-10 1.02716E-10
 -1       610 2.04935E+04-4.69102E+00-1.90752E+02 6.08838E+03-1.41949E-09-5.67468E-10
 -1       611 2.04797E+04 2.00422E+00-9.60618E+01 6.73846E+03-2.31705E-09 2.08047E-10
 -1       612 2.04883E+04 4.79096E+00-4.55414E+01 6.08775E+03-9.90894E-10-1.72861E-10
 -1       613 2.04838E+04 4.12737E+00-2.10346E+01 6.73927E+03-1.57456E-09-5.00620E-10
 -1       614 2.04866E+04 3.48387E+00-6.17065E+00 6.08757E+03-5.30008E-10-2.66937E-10
 -1       615 2.04846E+04 3.79483E+00 5.47644E+00 6.73940E+03 1.27068E-09 4.53269E-10
 -1       616 2.04854E+04 4.10413E+00 1.96249E+01 6.08762E+03-7.07246E-10 5.47914E-10
 -1       617 2.04881E+04 1.09096E+01 4.63492E+01 6.73922E+03 6.93490E-11-8.40259E-10
 -1       618 2.04816E+04 2.62461E+01 9.46898E+01 6.08774E+03-2.04636E-11-6.82803E-10
 -1       619 2.05188E+04 1.03209E+02 2.14247E+02 6.73831E+03 7.51470E-11-6.09248E-10
 -1       620 2.04538E+04 2.92535E+02 4.37210E+02 6.08843E+03 2.52044E-10-2.44938E-10
 -1       621 4.27162E+02 6.37476E+04 1.09122E+03-5.92023E+03-4.86125E-10-1.20070E-09
 -1       622 1.63432E+02 6.39554E+04 9.28881E+02-6.98468E+03-5.26711E-10 4.52701E-10
 -1       623 9.87281E+01 6.37899E+04 1.17313E+03-5.92545E+03-4.67992E-10-1.87924E-10
 -1       624 6.61876E+02 6.42565E+04 2.28166E+03-6.95614E+03-4.76803E-10 2.49429E-10
 -1       625 2.03746E+03 6.34483E+04 4.36664E+03-5.94862E+03-3.48280E-10 8.41055E-10
 -1       626 2.97366E+04 9.84614E+03-1.48146E+03 2.01401E+04-8.76105E-09 3.43925E-09
 -1       627 2.89622E+04 1.09876E+04-7.02222E+02 2.05564E+04-1.19499E-08 1.72034E-08
 -1       628 2.97774E+04 1.05770E+04-2.94755E+02 1.97789E+04-7.68341E-09 3.16538E-09
 -1       629 2.90701E+04 1.12956E+04-1.41385E+02 2.05359E+04-1.04114E-09-1.96081E-10
 -1       630 2.97771E+04 1.06273E+04-6.20873E+01 1.97499E+04-1.32491E-09 1.94646E-10
 -1       631 2.90790E+04 1.13182E+04-2.74741E+01 2.05375E+04-2.57660E-09 4.81563E-10
 -1       632 2.97754E+04 1.06284E+04-6.79632E+00 1.97480E+04-2.22519E-09 4.12939E-10
 -1       633 2.90803E+04 1.13189E+04 8.99228E+00 2.05385E+04 8.02629E-10 6.16240E-10
 -1       634 2.97737E+04 1.06266E+04 2.94907E+01 1.97480E+04 6.21867E-11-1.04137E-10
 -1       635 2.90843E+04 1.13196E+04 6.94253E+01 2.05396E+04 2.95358E-10-6.17149E-10
 -1       636 2.97707E+04 1.06301E+04 1.45268E+02 1.97456E+04-3.88184E-10 3.05818E-11
 -1       637 2.91191E+04 1.13605E+04 3.25280E+02 2.05329E+04 3.22501E-10 6.64386E-10
 -1       638 2.97627E+04 1.07531E+04 6.74844E+02 1.96920E+04 7.31916E-10-2.02135E-10
 -1       639 2.94613E+04 1.19702E+04 1.60676E+03 2.03814E+04-9.21716E-11 7.80290E-10
 -1       640 2.97803E+04 1.25097E+04 3.39053E+03 1.89636E+04-2.78760E-10 1.55069E-10
 -1       641 1.00483E+02 6.34306E+02-1.46718E+03-1.58501E+01-1.93401E-10 9.55765E-10
 -1       642-5.35297E+02-7.34268E+02-1.03729E+03 6.45573E+01-8.87008E-10 1.26987E-09
 -1       643-1.44645E+02 9.93935E+01-3.78273E+02-1.58094E+01-1.06923E-09 4.78011E-10
 -1       644-2.49689E+02-1.14750E+02-2.35252E+02 6.45260E+01 4.64100E-08 1.13135E-09
 -1       645-1.85143E+02 1.52949E+01-9.07456E+01-1.58189E+01 1.36011E-05-5.49549E-09
 -1       646-2.01607E+02-1.62395E+01-4.33910E+01 6.45388E+01 2.71232E-05-8.91229E-09
 -1       647-1.92734E+02 9.59509E-01-5.37008E-01-1.58223E+01 1.28013E-05-5.14663E-09
 -1       648-1.88201E+02 8.09353E+00 3.90280E+01 6.45410E+01-1.61323E-06 1.47985E-09
 -1       649-1.98552E+02-9.02331E+00 8.90098E+01-1.58212E+01-1.97081E-05 9.74612E-09
 -1       650-1.55441E+02 6.95947E+01 2.15752E+02 6.45195E+01-3.77082E-05 1.44687E-08
 -1       651-2.25491E+02-6.05040E+01 3.75661E+02-1.58006E+01-1.89078E-05 9.35766E-09
 -1       652 2.96948E+01 4.48828E+02 9.29446E+02 6.44366E+01-6.34486E-08 6.01062E-10
 -1       653-3.83682E+02-3.87978E+02 1.48094E+03-1.57383E+01-9.49112E-11 3.57147E-10
 -1       654 1.14534E+03 2.86530E+03 4.05039E+03 6.41169E+01-3.84399E-10 7.56415E-10
 -1       655-1.34110E+03-2.47505E+03 5.72493E+03-1.54816E+01-1.40168E-09 1.53932E-10
 -1       656 1.85312E+03-7.49057E+04-8.89436E+03 2.41468E+03-5.17048E-10 4.81350E-10
 -1       657-2.80360E+03-7.81065E+04-6.43885E+03 8.54441E+03-8.18204E-10 2.93539E-10
 -1       658 3.47387E+02-7.60526E+04-4.12139E+03 2.40147E+03-3.26622E-10 7.61531E-10
 -1       659-2.56297E+03-7.79622E+04-6.00203E+03 8.55141E+03-1.12891E-09 9.92948E-10
 -1       660 1.66681E+03-7.50519E+04-8.06208E+03 2.40773E+03-1.04137E-10 4.17685E-10
 -1       661 7.30311E+04 9.40166E+03 5.95764E+03 2.85087E+04 3.71415E-10-9.28139E-10
 -1       662 7.43883E+04 1.38520E+04 3.73501E+03 2.93593E+04 1.77522E-09-8.62201E-10
 -1       663 7.40451E+04 1.06952E+04 1.40617E+03 2.83801E+04 4.50299E-10 3.58284E-10
 -1       664 7.32209E+04 1.21377E+04 7.69047E+02 2.96039E+04-5.41149E-10 6.00267E-11
 -1       665 7.41579E+04 1.08310E+04 3.29541E+02 2.83708E+04-1.56112E-09-2.56695E-09
 -1       666 7.30912E+04 1.19631E+04 1.78299E+02 2.96221E+04 5.71063E-11-8.51088E-11
 -1       667 7.41710E+04 1.08457E+04 1.00222E+02 2.83708E+04-3.37354E-09-1.53289E-10
 -1       668 7.30790E+04 1.19479E+04 9.43905E+01 2.96227E+04-1.34795E-09 1.22449E-09
 -1       669 7.41698E+04 1.08447E+04 1.33198E+02 2.83707E+04 1.24111E-09 3.11104E-10
 -1       670 7.31021E+04 1.19745E+04 2.69267E+02 2.96219E+04 2.68312E-09-1.02300E-09
 -1       671 7.41484E+04 1.08214E+04 5.14539E+02 2.83708E+04-5.43338E-10 3.26281E-10
 -1       672 7.33078E+04 1.22504E+04 1.21136E+03 2.95931E+04-2.16914E-10 2.00657E-10
 -1       673 7.39698E+04 1.06070E+04 2.21840E+03 2.83854E+04 1.52779E-09-8.96989E-11
 -1       674 7.51494E+04 1.49584E+04 5.89569E+03 2.92089E+04 6.49557E-10 4.52133E-10
 -1       675 7.23706E+04 8.56328E+03 9.40436E+03 2.85864E+04-4.75438E-10 3.11502E-10
 -1       676 1.32875E+02-7.11035E+04-7.89936E+02 1.27396E-01-5.09488E-10-2.17893E-10
 -1       677-2.99614E+02-7.14036E+04-9.59223E+02-4.85269E+01-1.82058E-09-1.04877E-09
 -1       678 1.07215E+02-7.11155E+04-1.26854E+03 9.52273E-02-1.96053E-10 6.23714E-10
 -1       679-1.35005E+03-7.20406E+04-2.87004E+03-4.84273E+01-3.63889E-09-1.04993E-09
 -1       680 9.51423E+02-7.04666E+04-4.42905E+03-3.33031E-02-1.63777E-09 2.47670E-10
 -1       681 1.31744E+05-3.58187E+03 8.28144E+03 1.61625E+02-3.79998E-11 3.41061E-11
 -1       682 1.35356E+05 4.14638E+03 5.86575E+03-5.17450E+02-7.88702E-13 1.36197E-10
 -1       683 1.33138E+05-5.61366E+02 2.14736E+03 8.52395E+01 1.24825E-10 1.25283E-10
 -1       684 1.33732E+05 6.50067E+02 1.35645E+03-4.03652E+02 1.01000E-10-6.09361E-11
 -1       685 1.33369E+05-8.81771E+01 5.64640E+02 4.78262E+01 3.00089E-10 2.03329E-10
 -1       686 1.33464E+05 1.06376E+02 3.57343E+02-3.58865E+02 4.58809E-10-2.78785E-10
 -1       687 1.33405E+05-1.80232E+01 2.13422E+02 4.04510E+01 1.14724E-10 1.10809E-10
 -1       688 1.33437E+05 4.98249E+01 2.42831E+02-3.72500E+02 1.71462E-10 3.11751E-11
 -1       689 1.33396E+05-3.16842E+01 3.36416E+02 6.14621E+01 3.36469E-10 3.59165E-10
 -1       690 1.33535E+05 2.24058E+02 7.15379E+02-4.47518E+02-8.41531E-11-5.95364E-10
 -1       691 1.33308E+05-1.92255E+02 1.20556E+03 1.15470E+02 1.35108E-10 8.82778E-11
 -1       692 1.34138E+05 1.42499E+03 2.96365E+03-6.00557E+02 3.28216E-10 2.30955E-10
 -1       693 1.32793E+05-1.23202E+03 4.70346E+03 2.14504E+02-5.69820E-11-2.13731E-11
 -1       694 1.37727E+05 9.10304E+03 1.28801E+04-8.70368E+02-7.50205E-10 6.15728E-10
 -1       695 1.29719E+05-7.86475E+03 1.81725E+04 3.85279E+02-1.65343E-10-8.35826E-10
 -1       696-2.68773E+03 1.09519E+05 6.12369E+03 8.32626E+01 1.72804E-11-2.89420E-10
 -1       697 2.90623E+03 1.12107E+05 3.95855E+03-5.02521E+02 4.38831E-11-5.26633E-10
 -1       698-2.15990E+02 1.10660E+05 8.14934E+02 6.54289E+01-4.38831E-11 9.62140E-11
 -1       699-1.06006E+03 1.10274E+05-1.20981E+03-4.99734E+02-6.23004E-11 5.96829E-10
 -1       700 1.27541E+03 1.11352E+05-2.76928E+03 8.04752E+01-4.13820E-11 1.33006E-10
 -1       701-1.21064E+05-1.10878E+04-1.52482E+04-4.80773E+04-2.23508E-10 4.02906E-10
 -1       702-1.29182E+05-2.50360E+04-1.05875E+04-4.53414E+04 2.22826E-11-2.89560E-10
 -1       703-1.24187E+05-1.65635E+04-3.57536E+03-4.70294E+04 1.50465E-10 3.60160E-10
 -1       704-1.25539E+05-1.87097E+04-2.23617E+03-4.65642E+04 4.56879E-11 1.24714E-10
 -1       705-1.24707E+05-1.74101E+04-8.37415E+02-4.68558E+04 1.15037E-10 2.00828E-10
 -1       706-1.24921E+05-1.77485E+04-5.00618E+02-4.67812E+04-7.97069E-11-1.79362E-10
 -1       707-1.24805E+05-1.75242E+04-2.32403E+02-4.68126E+04-6.51301E-11 8.81926E-11
 -1       708-1.24806E+05-1.76497E+04-2.04505E+02-4.68431E+04-4.73133E-10 1.26302E-10
 -1       709-1.24821E+05-1.75088E+04-2.27261E+02-4.67940E+04-2.61515E-10 1.08280E-10
 -1       710-1.24859E+05-1.78019E+04-4.85087E+02-4.68508E+04-6.55003E-10 1.69365E-10
 -1       711-1.24753E+05-1.73720E+04-8.08877E+02-4.68048E+04-1.75952E-07 6.60736E-08
 -1       712-1.25412E+05-1.87725E+04-2.15937E+03-4.66907E+04-3.50620E-07 1.31478E-07
 -1       713-1.24268E+05-1.65387E+04-3.45153E+03-4.69540E+04-4.26625E-08 1.60310E-08
 -1       714-1.28910E+05-2.48988E+04-1.02209E+04-4.55320E+04 2.65653E-07-9.95400E-08
 -1       715-1.21257E+05-1.12498E+04-1.47200E+04-4.79622E+04 1.32531E-07-4.98849E-08
 -1       716 1.92294E+04-3.56801E+03 8.22936E+03 2.00072E+02 8.32472E-10-1.60981E-10
 -1       717 2.29576E+04 4.12911E+03 5.85241E+03-7.02562E+02-6.25278E-12-4.14957E-11
 -1       718 2.06373E+04-5.59084E+02 2.13339E+03 1.68058E+02-1.14138E-10-1.61663E-10
 -1       719 2.13038E+04 6.47109E+02 1.36213E+03-6.50172E+02 6.64997E-11-1.45064E-10
 -1       720 2.08820E+04-8.79875E+01 5.69517E+02 1.47682E+02 2.06509E-10 3.87132E-10
 -1       721 2.10146E+04 1.08331E+02 3.79711E+02-6.18229E+02 4.61420E-10-3.67223E-10
 -1       722 2.09259E+04-2.02063E+01 2.52334E+02 1.36115E+02 3.96666E-10 3.32260E-10
 -1       723 2.09835E+04 6.79204E+01 3.30787E+02-6.03323E+02 1.32063E-10-7.34701E-11
 -1       724 2.09127E+04-4.73853E+01 4.96598E+02 1.32776E+02 7.87377E-10 5.79632E-10
 -1       725 2.11288E+04 3.42160E+02 1.08290E+03-6.04720E+02 8.46060E-10 3.49019E-10
 -1       726 2.07806E+04-2.94287E+02 1.84066E+03 1.37511E+02 5.90582E-10 3.67550E-10
 -1       727 2.20397E+04 2.18117E+03 4.52753E+03-6.22764E+02 6.86455E-10 9.25411E-11
 -1       728 2.00022E+04-1.88530E+03 7.19700E+03 1.50821E+02 7.70228E-11 4.40650E-10
 -1       729 2.74900E+04 1.39243E+04 1.96916E+04-6.63165E+02-2.05759E-10 5.12955E-10
 -1       730 1.53319E+04-1.20283E+04 2.78127E+04 1.77908E+02 2.58382E-10-2.83762E-10
 -1       731-4.69603E+03 4.78412E+04 1.08662E+04-4.03423E+02-5.00677E-10-3.12959E-10
 -1       732 5.52825E+03 5.27551E+04 7.87505E+03 1.39250E+03 1.44041E-10 7.57368E-11
 -1       733-8.29266E+02 4.96655E+04 3.12719E+03-3.33255E+02-1.45519E-10 1.52518E-10
 -1       734 1.56394E+03 5.08521E+04 2.70212E+03 1.29981E+03-2.02931E-11-8.03206E-11
 -1       735-7.33667E+02 4.97424E+04 2.00737E+03-3.10733E+02-3.31966E-11-7.11551E-11
 -1       736-2.54934E+05-2.97942E+04-1.89342E+04-1.00443E+05 2.15050E-09-2.11094E-09
 -1       737-2.67487E+05-4.27500E+04-1.28770E+04-9.21666E+04 5.27371E-09 1.67017E-09
 -1       738-2.57406E+05-3.71042E+04-4.40725E+03-9.97995E+04 1.62038E-09 6.47174E-09
 -1       739-2.64060E+05-3.45065E+04-2.71174E+03-9.31414E+04-3.40546E-09-8.39918E-10
 -1       740-2.58368E+05-3.80258E+04-1.07365E+03-9.94771E+04 3.84532E-10-3.54174E-09
 -1       741-2.61331E+05-3.42702E+04-3.75050E+02-9.43619E+04-3.90759E-10-2.68813E-09
 -1       742-2.60117E+05-3.73525E+04-4.80839E+02-9.85659E+04-1.37945E-09 3.44897E-11
 -1       743-2.58246E+05-3.62582E+04 1.58301E+02-9.67600E+04-1.46412E-09 1.79307E-09
 -1       744-2.61439E+05-3.60482E+04-4.63966E+02-9.70683E+04 7.04233E-10-6.78380E-10
 -1       745-2.56687E+05-3.88329E+04-3.06861E+02-9.96182E+04 5.60874E-09 9.76087E-10
 -1       746-2.61689E+05-3.47679E+04-9.71750E+02-9.57177E+04 3.60524E-09 8.01327E-09
 -1       747-2.57018E+05-4.12869E+04-2.41614E+03-1.01117E+05-6.43183E-11 1.38650E-09
 -1       748-2.61127E+05-3.35815E+04-3.93467E+03-9.55828E+04 3.35740E-09 1.70166E-09
 -1       749-2.61065E+05-4.76508E+04-1.14922E+04-9.91088E+04-1.97923E-09 2.66880E-09
 -1       750-2.57635E+05-2.84148E+04-1.69244E+04-9.77187E+04-1.34469E-09-2.30102E-09
 -1       751 6.22065E+05-3.56130E+04 8.24257E+04 5.71277E+02-6.98571E-09 4.72937E-11
 -1       752 6.57808E+05 4.12310E+04 5.83125E+04-8.21653E+02-1.70963E-09-4.17458E-10
 -1       753 6.35857E+05-5.58266E+03 2.13447E+04 1.81389E+02-6.87498E-10 2.31921E-10
 -1       754 6.41750E+05 6.46084E+03 1.34249E+04-2.99439E+02 8.21277E-10 3.61069E-10
 -1       755 6.38133E+05-8.73405E+02 5.49358E+03 4.90817E+01-1.01311E-10 9.39053E-11
 -1       756 6.39103E+05 1.02367E+03 3.28416E+03-1.21986E+02-5.09271E-10-3.14458E-10
 -1       757 6.38509E+05-1.49651E+02 1.61385E+03 3.93369E+00 1.01992E-07 1.19314E-10
 -1       758 6.38708E+05 2.66056E+02 1.29150E+03-6.40635E+01 2.05562E-07-4.33005E-10
 -1       759 6.38529E+05-1.16291E+02 1.31408E+03-8.84143E+00 5.36634E-08-4.11831E-11
 -1       760 6.38948E+05 7.36788E+02 2.41685E+03-5.55107E+01-9.91997E-08 4.23881E-10
 -1       761 6.38269E+05-6.20056E+02 3.93261E+03-4.61929E+00-4.61434E-07-6.34145E-10
 -1       762 6.40814E+05 4.57683E+03 9.52778E+03-8.60863E+01-8.21304E-07 3.44812E-10
 -1       763 6.36659E+05-3.95339E+03 1.51238E+04 2.17347E+01-4.10956E-07 5.97538E-10
 -1       764 6.52172E+05 2.91937E+04 4.12913E+04-1.94146E+02-1.64019E-09 1.84991E-09
 -1       765 6.26902E+05-2.52160E+04 5.83609E+04 1.03439E+02-4.48873E-10-1.81899E-11
 -1       766-1.53584E+04 9.69258E+04 3.60111E+04 7.49686E+02 1.08594E-09-3.66608E-10
 -1       767 1.89407E+04 1.12984E+05 2.75290E+04-3.47863E+03 2.56819E-09-3.41490E-10
 -1       768-3.56450E+03 1.02284E+05 1.34576E+04 7.77418E+02 9.82709E-10 1.48709E-10
 -1       769 1.15727E+04 1.09885E+05 1.79583E+04-3.78457E+03 5.54337E-10-9.83391E-11
 -1       770-8.00181E+03 1.00031E+05 1.93570E+04 1.05562E+03-5.30235E-10 6.95010E-10
 -1       771-3.45564E+05-6.97406E+04-1.15354E+04-1.50017E+05-5.37057E-10-1.76442E-10
 -1       772-3.44510E+05-6.97831E+04-5.66413E+03-1.55018E+05 4.22006E-10-2.70347E-10
 -1       773-3.46020E+05-6.54542E+04-2.40635E+03-1.51855E+05-2.62844E-10 2.18279E-11
 -1       774-3.43198E+05-6.83308E+04-1.17621E+03-1.55342E+05 2.43745E-10-4.71118E-10
 -1       775-3.46098E+05-6.52845E+04-5.42578E+02-1.51938E+05 1.28239E-10-4.54406E-10
 -1       776-3.43110E+05-6.82758E+04-2.74380E+02-1.55358E+05-1.94177E-10-7.41238E-10
 -1       777-3.46124E+05-6.52849E+04-1.49123E+02-1.51944E+05 5.50244E-11 1.64363E-10
 -1       778-3.43109E+05-6.82734E+04-1.16772E+02-1.55365E+05 1.30058E-10 7.11665E-10
 -1       779-3.46132E+05-6.52798E+04-1.46951E+02-1.51948E+05 9.18590E-11 2.19757E-10
 -1       780-3.43124E+05-6.82713E+04-2.69387E+02-1.55375E+05 2.25100E-11-8.94715E-11
 -1       781-3.46126E+05-6.52686E+04-5.31570E+02-1.51950E+05-1.48930E-10-5.13865E-11
 -1       782-3.43219E+05-6.83287E+04-1.15472E+03-1.55384E+05 7.71365E-11-1.77351E-11
 -1       783-3.46071E+05-6.54171E+04-2.35989E+03-1.51868E+05 8.73115E-11 5.20686E-11
 -1       784-3.44446E+05-6.98328E+04-5.56231E+03-1.55174E+05-2.46189E-10-3.96994E-10
 -1       785-3.45707E+05-6.95467E+04-1.13219E+04-1.49989E+05 8.37872E-11 3.04226E-10
 -1       786 5.46074E+04-1.53510E+03 7.11507E+03-4.98761E+02 2.11912E-10-5.62068E-10
 -1       787 5.71352E+04 2.15419E+03 4.52516E+03-1.77075E+03-1.69976E-10-8.71808E-10
 -1       788 5.56707E+04-1.53575E+02 1.84200E+03-4.94564E+02-3.30033E-10 1.52681E-10
 -1       789 5.59544E+04 2.04507E+02 1.02191E+03-1.77473E+03-1.79966E-10 4.40025E-10
 -1       790 5.57878E+04-1.63619E+01 4.67494E+02-4.94743E+02-2.30553E-09 7.27368E-10
 -1       791 5.58223E+04 1.91729E+01 2.49888E+02-1.77441E+03-5.49073E-09-6.24496E-11
 -1       792 5.58026E+04-2.09377E+00 1.28583E+02-4.94886E+02-2.40788E-09 3.27702E-10
 -1       793 5.58060E+04 2.43954E+00 8.54467E+01-1.77432E+03 1.55431E-12 8.07447E-10
 -1       794 5.58040E+04-1.15943E+00 7.93999E+01-4.94828E+02-3.28342E-10 4.17096E-10
 -1       795 5.58109E+04 8.40382E+00 1.20748E+02-1.77472E+03 2.64748E-11 1.62264E-10
 -1       796 5.57979E+04-7.22076E+00 2.09418E+02-4.94489E+02-1.10560E-10 2.57245E-10
 -1       797 5.58681E+04 8.89543E+01 4.48055E+02-1.77517E+03-1.21787E-11 1.49370E-10
 -1       798 5.57471E+04-6.70122E+01 8.03695E+02-4.94372E+02-5.76676E-11 3.76815E-10
 -1       799 5.63826E+04 9.38083E+02 1.97170E+03-1.77061E+03-3.33046E-10 1.69507E-10
 -1       800 5.52840E+04-6.68849E+02 3.09923E+03-4.99071E+02 8.18545E-12 3.05135E-10
 -1       801-1.69733E+03 5.34207E+04 8.43098E+03-5.93200E+04-2.36969E-09 5.76620E-10
 -1       802 3.57722E+03 5.63672E+04 8.82795E+03-2.11154E+05-9.92259E-10-1.00408E-09
 -1       803-6.58309E+02 5.37339E+04 1.00055E+04-5.91157E+04-3.28055E-09 1.63124E-09
 -1       804 1.04835E+04 6.05740E+04 2.14023E+04-2.11148E+05-1.73077E-09-1.12004E-09
 -1       805-7.09157E+03 4.92363E+04 3.23780E+04-5.93266E+04-1.26602E-09 1.09867E-09
 -1       806-5.41361E+04-1.48913E+04-4.54108E+03-2.55917E+04 8.47251E-10-3.88354E-10
 -1       807-5.41060E+04-1.37697E+04-2.15203E+03-2.70346E+04-1.19684E-09-6.98498E-09
 -1       808-5.41071E+04-1.25446E+04-9.04426E+02-2.65753E+04 7.00197E-10-4.39002E-10
 -1       809-5.36562E+04-1.29450E+04-4.36764E+02-2.72297E+04-2.60627E-10-3.18323E-12
 -1       810-5.41174E+04-1.23800E+04-1.97201E+02-2.66483E+04 1.48646E-10 2.49798E-10
 -1       811-5.36113E+04-1.28891E+04-9.86335E+01-2.72382E+04 1.11356E-10-2.47439E-10
 -1       812-5.41209E+04-1.23746E+04-5.11922E+01-2.66518E+04 8.15277E-11 7.38396E-11
 -1       813-5.36065E+04-1.28875E+04-3.71178E+01-2.72372E+04 2.52555E-10-4.28713E-10
 -1       814-5.41210E+04-1.23752E+04-4.22338E+01-2.66516E+04 5.12159E-11-2.06001E-10
 -1       815-5.36098E+04-1.28891E+04-7.48532E+01-2.72373E+04-8.67999E-11 4.08363E-10
 -1       816-5.41179E+04-1.23796E+04-1.46040E+02-2.66489E+04-2.17142E-10-9.42009E-10
 -1       817-5.36437E+04-1.29292E+04-3.21849E+02-2.72294E+04 2.26862E-10-8.00810E-10
 -1       818-5.41092E+04-1.25022E+04-6.65553E+02-2.65963E+04-3.09228E-11 5.83213E-10
 -1       819-5.39843E+04-1.35257E+04-1.58312E+03-2.70739E+04-2.26805E-10 8.21331E-10
 -1       820-5.41203E+04-1.42369E+04-3.34012E+03-2.58828E+04 4.35421E-11 4.53241E-10
 -1       821-5.79531E+04 1.61176E+03-7.47212E+03 5.51056E+02-7.23333E-10 4.87034E-10
 -1       822-6.06067E+04-2.26225E+03-4.75238E+03 1.95679E+03-2.84103E-10-1.55524E-10
 -1       823-5.90698E+04 1.61124E+02-1.93512E+03 5.41899E+02 6.17206E-10 3.53566E-11
 -1       824-5.93677E+04-2.14290E+02-1.07451E+03 1.96728E+03 9.08358E-11 1.25553E-10
 -1       825-5.91929E+04 1.72586E+01-4.93796E+02 5.40516E+02-1.21076E-09 1.23549E-10
 -1       826-5.92298E+04-1.94224E+01-2.68185E+02 1.96932E+03-2.03904E-09-6.17980E-10
 -1       827-5.92084E+04 2.50865E+00-1.46467E+02 5.39848E+02-1.07664E-09-7.54007E-10
 -1       828-5.92142E+04-2.33655E+00-1.13286E+02 1.97044E+03-1.38425E-09-1.48547E-09
 -1       829-5.92089E+04 2.24132E+00-1.29336E+02 5.39402E+02-1.40915E-10-1.28205E-09
 -1       830-5.92262E+04-1.55069E+01-2.23265E+02 1.97092E+03 1.10378E-09-1.72292E-10
 -1       831-5.91966E+04 1.42508E+01-4.03948E+02 5.39367E+02-1.07066E-09-1.07917E-10
 -1       832-5.93385E+04-1.73747E+02-8.74864E+02 1.97049E+03-2.21291E-10-4.76405E-10
 -1       833-5.90966E+04 1.31289E+02-1.57376E+03 5.39834E+02-2.56173E-09 1.11982E-11
 -1       834-6.03460E+04-1.83861E+03-3.86395E+03 1.96542E+03-5.04190E-09 4.47017E-10
 -1       835-5.81888E+04 1.31073E+03-6.07476E+03 5.44518E+02-2.43591E-09-1.03000E-10
 -1       836-2.45493E+03 1.42350E+05 1.20206E+04-4.10189E+03-2.11458E-10 3.49587E-10
 -1       837 3.87114E+03 1.46708E+05 9.32649E+03-1.45467E+04 1.75078E-11 2.34877E-10
 -1       838-5.91680E+02 1.43754E+05 7.02394E+03-4.08923E+03-3.77213E-10-6.39663E-10
 -1       839 5.27184E+03 1.47557E+05 1.18746E+04-1.45469E+04 1.60640E-10 6.40085E-10
 -1       840-3.54596E+03 1.41501E+05 1.68741E+04-4.10163E+03-3.41061E-10 9.03356E-10
 -1       841-1.36847E+03 5.95416E+02-2.02799E+03-8.71505E+02 1.98838E-10-2.28965E-10
 -1       842-2.47237E+03-1.23638E+03-1.40774E+03-4.81542E+02-1.56433E-10 1.18723E-09
 -1       843-1.78225E+03-1.34358E+02-4.74859E+02-7.33942E+02 3.57360E-10 9.81686E-10
 -1       844-1.99164E+03-3.91208E+02-2.95826E+02-6.40013E+02 1.44639E-09-6.56883E-10
 -1       845-1.84914E+03-2.49213E+02-1.08181E+02-7.13250E+02-8.33715E-11-2.26770E-10
 -1       846-1.91347E+03-2.57573E+02-5.93162E+01-6.63797E+02-3.01006E-10 4.97332E-10
 -1       847-1.86042E+03-2.67910E+02-1.69270E+01-7.10191E+02-1.89833E-07 7.12728E-08
 -1       848-1.89772E+03-2.31943E+02 6.16464E+00-6.67858E+02-3.79017E-07 1.43117E-07
 -1       849-1.86488E+03-2.74829E+02 3.07995E+01-7.09195E+02-3.13209E-07 1.17339E-07
 -1       850-1.87701E+03-1.98584E+02 8.90618E+01-6.73338E+02-2.51554E-07 9.44126E-08
 -1       851-1.88113E+03-3.01251E+02 1.57830E+02-7.04719E+02-1.82761E-06 6.86256E-07
 -1       852-1.76353E+03-6.22758E+00 4.28509E+02-7.07918E+02-3.40009E-06 1.27558E-06
 -1       853-1.97834E+03-4.67070E+02 6.86755E+02-6.74657E+02-1.70499E-06 6.40516E-07
 -1       854-1.06762E+03 1.21504E+03 2.03554E+03-9.37616E+02-4.87071E-09 1.87194E-09
 -1       855-2.57692E+03-1.52172E+03 2.93195E+03-4.75315E+02-1.38925E-10 2.80352E-10
 -1       856-6.94044E+04 1.53596E+03-7.12224E+03 1.10935E+03-1.04774E-09-3.96540E-10
 -1       857-7.19324E+04-2.15477E+03-4.52941E+03 3.96040E+03-1.00209E-09-7.43682E-10
 -1       858-7.04692E+04 1.53773E+02-1.84423E+03 1.09442E+03-1.41620E-09-7.55222E-10
 -1       859-7.07528E+04-2.02255E+02-1.02337E+03 3.97801E+03 2.43375E-10-3.73603E-10
 -1       860-7.05867E+04 1.69619E+01-4.69234E+02 1.09166E+03 1.15085E-09-3.93413E-10
 -1       861-7.06220E+04-1.61556E+01-2.52617E+02 3.98168E+03-9.96920E-10-2.55270E-10
 -1       862-7.06017E+04 3.01284E+00-1.33735E+02 1.09073E+03 1.87450E-09-5.11989E-10
 -1       863-7.06069E+04 5.65666E-01-9.59053E+01 3.98282E+03 5.06395E-09-9.83732E-10
 -1       864-7.06027E+04 2.41967E+00-9.97623E+01 1.09052E+03 3.00560E-09-6.22570E-10
 -1       865-7.06145E+04-8.56743E+00-1.63469E+02 3.98238E+03 2.92846E-09-1.50959E-09
 -1       866-7.05938E+04 1.08047E+01-2.91011E+02 1.09117E+03-4.66002E-10-7.70271E-10
 -1       867-7.06940E+04-1.22160E+02-6.27179E+02 3.97983E+03 3.15310E-10-1.39094E-09
 -1       868-7.05221E+04 9.42568E+01-1.12727E+03 1.09308E+03 9.94305E-10-3.20483E-10
 -1       869-7.14138E+04-1.31458E+03-2.76638E+03 3.96514E+03-2.98741E-10-2.54204E-10
 -1       870-6.98718E+04 9.38117E+02-4.34946E+03 1.10593E+03 1.97417E-09-9.93850E-10
 -1       871-6.77459E+02-6.65853E+03-1.28703E+03 1.95268E+04-9.91349E-10 1.49601E-09
 -1       872-2.05326E+02-6.88975E+03-3.73514E+02 2.29222E+04-1.61276E-09 6.56541E-10
 -1       873 2.57867E+01-6.79844E+03 3.87268E+02 1.94888E+04-7.94444E-10 3.91321E-09
 -1       874 4.61629E+02-6.48994E+03 1.43341E+03 2.29387E+04-1.92358E-09 7.54702E-09
 -1       875 1.47551E+03-7.06190E+03 3.08814E+03 1.95108E+04-1.48634E-09 4.26149E-09
 -1       876 8.47252E+04 1.07609E+04 7.99478E+03 3.32938E+04-1.97815E-10-2.74667E-10
 -1       877 8.65017E+04 1.67798E+04 5.01209E+03 3.44892E+04 1.57334E-09-1.53932E-10
 -1       878 8.60861E+04 1.24966E+04 1.88656E+03 3.31208E+04-1.78773E-10-2.80124E-10
 -1       879 8.49348E+04 1.44793E+04 1.03115E+03 3.48170E+04-5.97311E-10-4.67764E-10
 -1       880 8.62370E+04 1.26793E+04 4.40342E+02 3.31087E+04 5.26370E-11-6.92353E-11
 -1       881 8.47612E+04 1.42442E+04 2.35268E+02 3.48403E+04-1.88179E-09-1.08022E-09
 -1       882 8.62543E+04 1.26996E+04 1.26301E+02 3.31091E+04-2.94409E-09-3.12731E-10
 -1       883 8.47441E+04 1.42222E+04 1.08744E+02 3.48401E+04-3.15580E-10 1.93156E-09
 -1       884 8.62533E+04 1.26995E+04 1.42677E+02 3.31094E+04 1.30491E-09 1.99478E-09
 -1       885 8.47676E+04 1.42487E+04 2.80428E+02 3.48387E+04 1.80395E-09 2.99778E-11
 -1       886 8.62312E+04 1.26756E+04 5.32206E+02 3.31096E+04 1.29980E-09 1.67972E-09
 -1       887 8.49798E+04 1.45334E+04 1.25073E+03 3.48090E+04 3.30260E-11 2.72138E-10
 -1       888 8.60471E+04 1.24542E+04 2.28970E+03 3.31246E+04 1.35270E-09 5.00222E-12
 -1       889 8.68810E+04 1.73276E+04 6.08461E+03 3.44122E+04 4.33943E-10-1.98418E-09
 -1       890 8.43962E+04 1.03454E+04 9.70544E+03 3.33326E+04 1.50067E-10 8.18545E-12
 -1       891 2.98462E+02-3.80243E+04-1.49061E+03 4.64223E+03-1.10066E-09 6.93717E-10
 -1       892-4.89182E+02-3.85601E+04-1.18823E+03 1.65183E+04-3.68141E-09-8.33523E-10
 -1       893 7.85766E+01-3.81919E+04-9.46382E+02 4.62484E+03-1.23345E-09 8.19085E-10
 -1       894-7.53280E+02-3.87196E+04-1.66834E+03 1.65171E+04-1.73600E-10 2.03528E-10
 -1       895 5.03838E+02-3.78641E+04-2.40511E+03 4.64335E+03-8.44011E-10-1.81217E-10
 -1       896 1.81679E+05-1.40277E+03 3.24452E+03 1.05867E+02 4.43290E-11 3.30147E-10
 -1       897 1.83078E+05 1.62390E+03 2.29783E+03-2.00768E+02 2.80540E-10 2.68955E-10
 -1       898 1.82224E+05-2.19910E+02 8.42788E+02 5.65793E+01-1.67283E-10 1.40062E-10
 -1       899 1.82444E+05 2.54867E+02 5.34538E+02-1.23294E+02-1.14439E-10 9.63141E-11
 -1       900 1.82314E+05-3.47895E+01 2.27447E+02 2.83918E+01-1.26708E-10 4.02594E-11
 -1       901 1.82341E+05 4.34239E+01 1.53466E+02-7.93354E+01-5.11684E-09-2.78462E-11
 -1       902 1.82327E+05-8.61395E+00 1.08758E+02 1.26202E+01-1.55801E-06 5.35556E-11
 -1       903 1.82335E+05 3.10139E+01 1.50466E+02-5.54250E+01-3.10884E-06-2.31784E-10
 -1       904 1.82319E+05-2.23864E+01 2.32303E+02 4.48100E+00-2.07513E-06-4.03304E-11
 -1       905 1.82404E+05 1.61827E+02 5.10874E+02-4.43393E+01-1.03544E-06-1.84556E-10
 -1       906 1.82258E+05-1.39342E+02 8.70869E+02 1.53436E+00-3.69198E-07-1.75987E-10
 -1       907 1.82828E+05 1.03213E+03 2.14079E+03-4.27455E+01 2.94525E-07-4.88853E-12
 -1       908 1.81895E+05-8.92043E+02 3.40739E+03 2.88715E+00 6.40232E-07-1.00954E-10
 -1       909 1.85392E+05 6.58782E+03 9.31390E+03-5.01965E+01 9.82204E-07-1.40062E-10
 -1       910 1.79694E+05-5.69047E+03 1.31646E+04 8.98558E+00 4.93321E-07 9.09495E-12
 -1       911 4.89522E+04-6.05845E+02 1.39966E+03-9.04365E+01 1.81497E-10 1.73543E-10
 -1       912 4.95672E+04 7.01350E+02 9.93547E+02 3.75529E+02 7.21698E-11 3.52657E-10
 -1       913 4.91902E+04-9.49460E+01 3.65339E+02-7.27085E+01 3.30393E-11 4.50015E-10
 -1       914 4.92896E+04 1.10329E+02 2.34650E+02 3.51347E+02-2.69361E-10 4.72678E-10
 -1       915 4.92297E+04-1.52093E+01 1.05644E+02-6.62545E+01-4.81275E-10 4.28567E-10
 -1       916 4.92462E+04 2.07339E+01 8.22229E+01 3.49203E+02-3.47372E-10 5.14166E-10
 -1       917 4.92336E+04-5.41113E+00 7.66935E+01-7.05648E+01-2.99986E-10 4.53280E-10
 -1       918 4.92549E+04 2.67213E+01 1.31540E+02 3.68882E+02-6.30944E-11 4.82050E-10
 -1       919 4.92211E+04-2.12689E+01 2.18754E+02-8.59330E+01-3.93765E-11 1.38897E-10
 -1       920 4.93337E+04 1.57084E+02 4.97709E+02 4.11978E+02-1.16656E-10 1.57598E-11
 -1       921 4.91550E+04-1.35866E+02 8.46702E+02-1.13662E+02 1.54401E-11-2.21917E-10
 -1       922 4.97674E+04 1.00775E+03 2.09649E+03 4.82295E+02 6.26104E-10-3.37536E-10
 -1       923 4.87879E+04-8.71637E+02 3.32326E+03-1.56251E+02 4.31697E-10-8.13088E-10
 -1       924 5.23080E+04 6.43862E+03 9.11199E+03 5.89235E+02 9.66276E-10-1.32059E-09
 -1       925 4.66151E+04-5.56292E+03 1.28501E+04-2.20601E+02 9.98291E-10-1.71076E-09
 -1       926-2.26689E+05 5.07629E+03-1.17410E+04 6.36753E+02 2.19567E-10-2.09502E-09
 -1       927-2.31746E+05-5.87541E+03-8.30217E+03-1.03874E+03 2.29927E-09-2.06080E-09
 -1       928-2.28675E+05 7.94983E+02-3.04085E+03 4.97642E+02-7.92546E-10-1.62026E-09
 -1       929-2.29404E+05-9.18118E+02-1.88939E+03-6.04524E+02-1.68978E-09-1.69331E-09
 -1       930-2.29029E+05 1.21865E+02-7.77886E+02 2.02530E+02-4.58044E-10-6.94740E-10
 -1       931-2.28993E+05-1.38960E+02-4.15001E+02 4.31511E+01 9.76421E-10-2.26208E-10
 -1       932-2.29084E+05 1.58031E+01-1.80902E+02-1.50044E+02 4.64382E-10 4.10864E-10
 -1       933-2.28955E+05-9.33889E+00-3.89906E+01 6.86312E+02-2.72943E-10 8.71463E-10
 -1       934-2.29068E+05-7.04466E+00 4.48641E+01-4.40642E+02-7.74786E-10 1.24641E-09
 -1       935-2.28966E+05 6.87536E+01 2.03253E+02 1.10675E+03-6.56264E-10 1.62574E-09
 -1       936-2.29075E+05-6.11717E+01 3.76735E+02-5.70485E+02-6.59641E-10 1.63834E-09
 -1       937-2.28783E+05 4.62376E+02 9.54230E+02 1.16142E+03 1.35333E-09 1.76313E-09
 -1       938-2.29252E+05-4.00197E+02 1.52096E+03-4.95318E+02 1.46500E-09 1.18257E-09
 -1       939-2.27584E+05 2.95825E+03 4.18547E+03 8.32397E+02 6.82443E-10 1.22856E-09
 -1       940-2.30272E+05-2.55599E+03 5.89001E+03-2.41455E+02-4.48146E-10 6.58929E-10
 -1       941 1.01356E+06-5.08980E+04 1.17849E+05 6.70829E+01-5.47729E-08 8.58563E-10
 -1       942 1.06458E+06 5.89298E+04 8.33570E+04 1.23701E+01-1.16274E-07-1.01863E-09
 -1       943 1.03325E+06-7.97987E+03 3.05231E+04 4.86311E+01-1.07625E-07 5.09317E-11
 -1       944 1.04166E+06 9.23587E+03 1.92011E+04 3.51858E+01-9.68473E-08-4.48608E-10
 -1       945 1.03651E+06-1.24897E+03 7.86833E+03 4.42712E+01-6.30152E-08 7.93989E-10
 -1       946 1.03788E+06 1.46663E+03 4.72184E+03 4.03217E+01-2.81645E-08 1.58883E-09
 -1       947 1.03704E+06-2.16755E+02 2.35530E+03 4.34959E+01 1.81043E-08 1.13175E-09
 -1       948 1.03733E+06 4.01504E+02 1.95027E+03 4.00854E+01 6.52368E-08 1.30763E-09
 -1       949 1.03706E+06-1.84575E+02 2.06615E+03 4.45075E+01 2.08507E-07-1.44303E-09
 -1       950 1.03773E+06 1.18996E+03 3.88538E+03 3.40269E+01 3.50795E-07 1.80268E-09
 -1       951 1.03664E+06-1.00467E+03 6.36274E+03 4.95545E+01 8.41604E-07-1.64391E-09
 -1       952 1.04076E+06 7.41929E+03 1.54435E+04 8.57502E+00 1.32775E-06 4.75211E-11
 -1       953 1.03402E+06-6.40907E+03 2.45240E+04 6.99591E+01 6.62996E-07 1.11868E-09
 -1       954 1.05917E+06 4.73284E+04 6.69504E+04-9.49437E+01 1.64066E-09 4.31100E-10
 -1       955 1.01820E+06-4.08781E+04 9.46402E+04 1.53067E+02-5.63665E-09 9.82254E-11
 -1       956-5.22213E+04-9.22746E+02-1.96346E+03 7.08968E+03-9.22000E-10 1.99407E-10
 -1       957-5.25821E+04-2.95587E+02-9.92716E+02 8.25681E+03-3.23780E-10-7.76481E-10
 -1       958-5.23809E+04-3.47810E+01-4.46358E+02 7.04759E+03 5.28871E-10-5.94014E-11
 -1       959-5.24122E+04-7.83227E+00-2.27215E+02 8.30294E+03-6.97582E-10-9.03867E-10
 -1       960-5.23962E+04 5.08446E+00-1.10200E+02 7.04345E+03-1.32718E-09-6.31758E-10
 -1       961-5.23979E+04 4.57090E+00-5.80968E+01 8.30749E+03-2.14186E-09 2.10321E-11
 -1       962-5.23990E+04 4.54038E+00-3.24987E+01 7.04303E+03-1.13846E-09-1.94746E-10
 -1       963-5.23969E+04 4.62440E+00-2.48324E+01 8.30802E+03-1.40898E-09 6.15728E-10
 -1       964-5.23996E+04 4.68378E+00-2.85409E+01 7.04292E+03-6.82121E-10-7.11054E-10
 -1       965-5.23986E+04 5.04488E+00-4.80210E+01 8.30790E+03 8.03524E-10-6.72685E-10
 -1       966-5.23983E+04 5.58198E+00-8.93730E+01 7.04315E+03-1.14255E-10 1.47793E-12
 -1       967-5.24111E+04-4.44758E+00-1.83462E+02 8.30544E+03-1.02736E-09-2.07592E-10
 -1       968-5.23867E+04-2.60884E+01-3.59928E+02 7.04539E+03 2.36071E-09 3.03828E-11
 -1       969-5.25490E+04-2.36035E+02-8.00433E+02 8.28055E+03 1.01455E-08-5.33035E-10
 -1       970-5.22586E+04-7.41769E+02-1.58298E+03 7.06821E+03 7.55858E-09-2.71712E-10
 -1       971-9.97297E+04 1.25990E+03-5.84387E+03 1.12277E+03-7.57268E-10-4.57931E-10
 -1       972-1.01799E+05-1.76776E+03-3.71665E+03 4.02058E+03-1.22697E-09-2.54943E-10
 -1       973-1.00603E+05 1.26071E+02-1.51429E+03 1.10574E+03-1.52227E-09-6.47333E-10
 -1       974-1.00832E+05-1.65590E+02-8.41881E+02 4.04135E+03 1.66125E-10-2.29520E-10
 -1       975-1.00700E+05 1.39875E+01-3.89561E+02 1.10193E+03 2.48917E-10-9.34676E-10
 -1       976-1.00726E+05-1.28174E+01-2.16547E+02 4.04669E+03-1.44837E-09 2.81460E-10
 -1       977-1.00712E+05 2.78636E+00-1.28027E+02 1.10039E+03 2.13876E-09-4.71772E-10
 -1       978-1.00715E+05-8.08321E-05-1.16396E+02 4.04873E+03 3.97080E-09-4.34461E-10
 -1       979-1.00711E+05 3.41042E+00-1.55363E+02 1.09989E+03 1.34235E-09-9.92266E-10
 -1       980-1.00733E+05-1.85118E+01-2.88439E+02 4.04854E+03 2.40832E-09-1.04100E-09
 -1       981-1.00694E+05 1.93885E+01-5.33092E+02 1.10058E+03-3.16251E-09-1.37778E-09
 -1       982-1.00882E+05-2.29329E+02-1.16133E+03 4.04560E+03-4.69515E-09-9.42748E-11
 -1       983-1.00561E+05 1.74792E+02-2.09204E+03 1.10285E+03-4.17310E-09-9.60540E-10
 -1       984-1.02221E+05-2.44395E+03-5.13814E+03 4.03028E+03-6.32386E-09 2.12367E-10
 -1       985-9.93536E+04 1.74301E+03-8.07887E+03 1.11602E+03-1.64459E-09-2.34650E-10
 -3
    1PSTEP                         9           5           1          
  100CL  105 1.42578E-01         841                     0    5           1
 -4  DISP        4    1
 -5  D1          1    2    1    0
 -5  D2          1    2    2    0
 -5  D3          1    2    3    0
 -5  ALL         1    2    0    0    1ALL
 -1         1 1.77045E-05 0.00000E+00 0.00000E+00
 -1         2 1.30853E-05 0.00000E+00 0.00000E+00
 -1         3 1.09122E-05 0.00000E+00 0.00000E+00
 -1         4 9.65612E-06 0.00000E+00 0.00000E+00
 -1         5 9.06693E-06 0.00000E+00 0.00000E+00
 -1         8 1.39754E-05-1.76527E-07 0.00000E+00
 -1         9 1.09391E-05 8.83553E-08 0.00000E+00
 -1        10 1.02435E-05-4.15564E-07 0.00000E+00
 -1        11 9.52265E-06-7.80986E-08 0.00000E+00
 -1        12 8.77236E-06 2.11944E-07 0.00000E+00
 -1        15 6.00213E-06-3.69344E-07 0.00000E+00
 -1        16 8.23100E-06 8.10868E-08 0.00000E+00
 -1        17 7.55815E-06-8.36200E-07 0.00000E+00
 -1        18 7.61538E-06-1.58294E-07 0.00000E+00
 -1        19 7.97117E-06 4.20548E-07 0.00000E+00
 -1        20 8.09127E-06 4.51038E-06 0.00000E+00
 -1        21 8.08771E-06 1.07817E-05 0.00000E+00
 -1        22 2.23863E-06-2.41531E-07 0.00000E+00
 -1        23 3.01943E-06 2.73390E-07 0.00000E+00
 -1        24 3.10528E-06-9.99143E-07 0.00000E+00
 -1        25 6.78579E-06-1.03772E-07 0.00000E+00
 -1        26 7.10749E-06 5.58350E-07 0.00000E+00
 -1        27 6.76595E-06 4.34794E-06 0.00000E+00
 -1        28 6.35646E-06 1.06271E-05 0.00000E+00
 -1        29 0.00000E+00 0.00000E+00 0.00000E+00
 -1        30 1.05358E-06 3.80170E-07 0.00000E+00
 -1        31 1.31664E-06-7.96377E-07 0.00000E+00
 -1        32 0.00000E+00 0.00000E+00 0.00000E+00
 -1        33 5.98278E-06 8.65720E-07 0.00000E+00
 -1        34 5.67787E-06 4.33241E-06 0.00000E+00
 -1        35 5.09334E-06 1.05444E-05 0.00000E+00
 -1        36 1.74251E-05-5.49456E-20 0.00000E+00
 -1        37 1.71365E-05-1.99068E-19 0.00000E+00
 -1        38 1.68484E-05-3.15457E-19-6.61744E-24
 -1        39 1.65586E-05-3.43487E-19 0.00000E+00
 -1        40 1.62687E-05-3.02145E-19 0.00000E+00
 -1        41 1.59785E-05-1.86819E-19-3.30872E-24
 -1        42 1.56882E-05-5.50758E-20 0.00000E+00
 -1        43 1.53979E-05 1.26433E-19 0.00000E+00
 -1        44 1.51075E-05 3.03707E-19-6.61744E-24
 -1        45 1.48172E-05 4.57250E-19 0.00000E+00
 -1        46 1.45270E-05 5.67686E-19-6.61744E-24
 -1        47 1.42369E-05 5.35854E-19 0.00000E+00
 -1        48 1.39469E-05 3.81126E-19-6.61744E-24
 -1        49 1.36580E-05 1.91019E-19 3.30872E-24
 -1        50 1.33687E-05 5.53581E-20 0.00000E+00
 -1        51 1.74209E-05-3.01827E-08 0.00000E+00
 -1        52 1.69533E-05-5.90201E-08 0.00000E+00
 -1        53 1.63374E-05-8.75833E-08 0.00000E+00
 -1        54 1.56108E-05-1.16259E-07 8.27181E-25
 -1        55 1.48109E-05-1.45447E-07-2.06795E-25
 -1        56 1.73489E-05-1.35984E-07 6.61744E-24
 -1        57 1.69811E-05-2.78784E-07 0.00000E+00
 -1        58 1.66128E-05-4.18187E-07 1.32349E-23
 -1        59 1.62393E-05-5.50157E-07 0.00000E+00
 -1        60 1.58607E-05-6.68885E-07-1.32349E-23
 -1        61 1.54749E-05-7.69574E-07 0.00000E+00
 -1        62 1.50805E-05-8.47501E-07 0.00000E+00
 -1        63 1.46759E-05-8.98257E-07 0.00000E+00
 -1        64 1.42595E-05-9.17783E-07-1.32349E-23
 -1        65 1.38301E-05-9.02265E-07 0.00000E+00
 -1        66 1.33863E-05-8.48422E-07-1.32349E-23
 -1        67 1.29274E-05-7.53161E-07 6.61744E-24
 -1        68 1.24522E-05-6.14206E-07-1.32349E-23
 -1        69 1.19620E-05-4.28776E-07-3.30872E-24
 -1        70 1.14534E-05-1.96543E-07 6.61744E-24
 -1        71 1.29489E-05-4.18881E-20 0.00000E+00
 -1        72 1.28127E-05-7.78081E-20 0.00000E+00
 -1        73 1.26766E-05-7.63510E-20 0.00000E+00
 -1        74 1.25405E-05-7.47452E-20 0.00000E+00
 -1        75 1.24044E-05-6.09095E-20 0.00000E+00
 -1        76 1.22684E-05-3.78626E-20 0.00000E+00
 -1        77 1.21323E-05 1.16122E-20 0.00000E+00
 -1        78 1.19963E-05 5.38114E-20 0.00000E+00
 -1        79 1.18602E-05 1.00773E-20 0.00000E+00
 -1        80 1.17242E-05-4.05904E-20 0.00000E+00
 -1        81 1.15882E-05-8.46623E-20-3.30872E-24
 -1        82 1.14522E-05-1.14852E-19 0.00000E+00
 -1        83 1.13163E-05-1.01126E-19-3.30872E-24
 -1        84 1.11809E-05-5.44536E-20 1.65436E-24
 -1        85 1.10453E-05-1.41468E-20 3.30872E-24
 -1        86 1.29964E-05 9.98387E-09 1.65436E-24
 -1        87 1.27311E-05 2.62972E-08-4.13590E-25
 -1        88 1.23416E-05 4.21322E-08 0.00000E+00
 -1        89 1.18802E-05 5.84838E-08-2.06795E-25
 -1        90 1.13962E-05 7.51066E-08 8.27181E-25
 -1        91 1.28931E-05 1.44920E-08 0.00000E+00
 -1        92 1.26433E-05 1.79970E-07 0.00000E+00
 -1        93 1.23562E-05 4.45034E-07 6.61744E-24
 -1        94 1.20513E-05 7.57133E-07 0.00000E+00
 -1        95 1.17547E-05 1.04707E-06 0.00000E+00
 -1        96 1.14923E-05 1.24572E-06 0.00000E+00
 -1        97 1.12780E-05 1.31624E-06 0.00000E+00
 -1        98 1.11252E-05 1.22270E-06 0.00000E+00
 -1        99 1.10246E-05 9.89785E-07-6.61744E-24
 -1       100 1.09667E-05 6.43214E-07-3.30872E-24
 -1       101 1.09263E-05 2.50042E-07 0.00000E+00
 -1       102 1.08782E-05-1.22261E-07 0.00000E+00
 -1       103 1.07999E-05-4.13917E-07 3.30872E-24
 -1       104 1.06698E-05-5.65461E-07 1.65436E-24
 -1       105 1.04839E-05-5.68919E-07 0.00000E+00
 -1       106 1.08337E-05-6.33651E-20 1.65436E-24
 -1       107 1.07550E-05-2.08204E-19 0.00000E+00
 -1       108 1.06764E-05-4.37953E-19 3.30872E-24
 -1       109 1.05977E-05-7.18553E-19 0.00000E+00
 -1       110 1.05191E-05-9.94678E-19 3.30872E-24
 -1       111 1.04404E-05-1.21118E-18 0.00000E+00
 -1       112 1.03617E-05-1.39557E-18 0.00000E+00
 -1       113 1.02830E-05-1.49191E-18-1.65436E-24
 -1       114 1.02044E-05-1.53742E-18 0.00000E+00
 -1       115 1.01257E-05-1.47114E-18 0.00000E+00
 -1       116 1.00470E-05-1.23540E-18 0.00000E+00
 -1       117 9.96843E-06-8.83210E-19-8.27181E-25
 -1       118 9.88984E-06-5.19686E-19-1.65436E-24
 -1       119 9.81152E-06-2.46123E-19-8.27181E-25
 -1       120 9.73310E-06-6.80588E-20 0.00000E+00
 -1       121 1.09045E-05-6.94194E-08 1.65436E-24
 -1       122 1.08693E-05-1.38610E-07 0.00000E+00
 -1       123 1.07962E-05-2.07811E-07-1.65436E-24
 -1       124 1.06745E-05-2.77005E-07-8.27181E-25
 -1       125 1.04937E-05-3.46200E-07-1.65436E-24
 -1       126 1.08425E-05-5.06926E-08 1.65436E-24
 -1       127 1.07888E-05-1.44358E-07 8.27181E-25
 -1       128 1.07468E-05-2.69241E-07 1.65436E-24
 -1       129 1.07121E-05-4.13546E-07 0.00000E+00
 -1       130 1.06788E-05-5.61521E-07 0.00000E+00
 -1       131 1.06409E-05-6.97412E-07 0.00000E+00
 -1       132 1.05936E-05-8.08320E-07 3.30872E-24
 -1       133 1.05322E-05-8.81430E-07 0.00000E+00
 -1       134 1.04543E-05-9.10624E-07 3.30872E-24
 -1       135 1.03577E-05-8.89940E-07-8.27181E-25
 -1       136 1.02436E-05-8.22538E-07 0.00000E+00
 -1       137 1.01133E-05-7.11725E-07 8.27181E-25
 -1       138 9.97094E-06-5.68918E-07 0.00000E+00
 -1       139 9.82116E-06-4.05541E-07 0.00000E+00
 -1       140 9.66934E-06-2.37009E-07 0.00000E+00
 -1       141 9.61870E-06-2.09287E-20 0.00000E+00
 -1       142 9.58154E-06-1.86049E-20 0.00000E+00
 -1       143 9.54436E-06 2.66585E-20 8.27181E-25
 -1       144 9.50722E-06 6.77252E-20 0.00000E+00
 -1       145 9.47009E-06 8.31560E-20 0.00000E+00
 -1       146 9.43297E-06 1.15376E-19-4.13590E-25
 -1       147 9.39585E-06 1.48320E-19-8.27181E-25
 -1       148 9.35874E-06 1.63713E-19 0.00000E+00
 -1       149 9.32164E-06 1.82846E-19 8.27181E-25
 -1       150 9.28456E-06 1.88439E-19-4.13590E-25
 -1       151 9.24749E-06 1.66154E-19-8.27181E-25
 -1       152 9.21053E-06 1.30388E-19 0.00000E+00
 -1       153 9.17359E-06 7.35692E-20-8.27181E-25
 -1       154 9.13720E-06 3.18959E-20 0.00000E+00
 -1       155 9.10062E-06 9.64511E-21 0.00000E+00
 -1       156 9.66711E-06-1.37595E-08 0.00000E+00
 -1       157 9.69946E-06-2.63266E-08 4.13590E-25
 -1       158 9.72701E-06-3.89830E-08-8.27181E-25
 -1       159 9.72360E-06-5.16545E-08 4.13590E-25
 -1       160 9.66391E-06-6.42341E-08 8.27181E-25
 -1       161 9.61286E-06-1.95542E-08 0.00000E+00
 -1       162 9.57172E-06-4.49125E-08 8.27181E-25
 -1       163 9.53170E-06-7.32493E-08 0.00000E+00
 -1       164 9.49174E-06-1.01752E-07 0.00000E+00
 -1       165 9.45072E-06-1.27424E-07 0.00000E+00
 -1       166 9.40751E-06-1.47277E-07 0.00000E+00
 -1       167 9.36134E-06-1.59229E-07 1.65436E-24
 -1       168 9.31144E-06-1.61209E-07 0.00000E+00
 -1       169 9.25739E-06-1.52113E-07-1.65436E-24
 -1       170 9.19879E-06-1.30848E-07 0.00000E+00
 -1       171 9.13574E-06-9.76456E-08-1.65436E-24
 -1       172 9.06840E-06-5.27218E-08-8.27181E-25
 -1       173 8.99724E-06 2.41481E-09 0.00000E+00
 -1       174 8.92340E-06 6.64937E-08 0.00000E+00
 -1       175 8.84699E-06 1.36739E-07 0.00000E+00
 -1       191 9.05702E-06 3.52997E-08 0.00000E+00
 -1       192 9.03102E-06 7.06414E-08-8.27181E-25
 -1       193 8.98917E-06 1.05993E-07 0.00000E+00
 -1       194 8.93184E-06 1.41341E-07 0.00000E+00
 -1       195 8.85939E-06 1.76673E-07-1.65436E-24
 -1       251 1.37902E-05 4.30812E-07-3.30872E-24
 -1       252 1.36003E-05 9.28841E-07-3.30872E-24
 -1       253 1.34107E-05 1.22230E-06 0.00000E+00
 -1       254 1.32203E-05 1.21767E-06-3.30872E-24
 -1       255 1.30298E-05 9.31497E-07-6.61744E-24
 -1       256 1.28390E-05 3.82716E-07-3.30872E-24
 -1       257 1.26482E-05-3.12759E-07-6.61744E-24
 -1       258 1.24572E-05-1.03777E-06 3.30872E-24
 -1       259 1.22664E-05-1.66426E-06 6.61744E-24
 -1       260 1.20756E-05-2.06501E-06 0.00000E+00
 -1       261 1.18850E-05-2.19616E-06 0.00000E+00
 -1       262 1.16945E-05-2.01613E-06-3.30872E-24
 -1       263 1.15040E-05-1.59826E-06 0.00000E+00
 -1       264 1.13143E-05-1.01793E-06 3.30872E-24
 -1       265 1.11243E-05-4.10512E-07 3.30872E-24
 -1       266 1.31132E-05-2.09946E-07 0.00000E+00
 -1       267 1.18508E-05-2.42048E-07 8.27181E-25
 -1       268 1.03471E-05-2.74563E-07-8.27181E-25
 -1       269 8.76127E-06-3.06680E-07 0.00000E+00
 -1       270 7.25809E-06-3.38729E-07 0.00000E+00
 -1       271 1.34593E-05 2.88332E-07-6.61744E-24
 -1       272 1.29885E-05 6.01714E-07 0.00000E+00
 -1       273 1.25666E-05 7.85571E-07 0.00000E+00
 -1       274 1.21849E-05 8.57840E-07-3.30872E-24
 -1       275 1.18375E-05 8.37850E-07-6.61744E-24
 -1       276 1.15174E-05 7.44693E-07 0.00000E+00
 -1       277 1.12173E-05 5.97758E-07 0.00000E+00
 -1       278 1.09300E-05 4.16529E-07-6.61744E-24
 -1       279 1.06483E-05 2.20588E-07 0.00000E+00
 -1       280 1.03648E-05 2.95678E-08 3.30872E-24
 -1       281 1.00721E-05-1.36935E-07-6.61744E-24
 -1       282 9.76313E-06-2.59347E-07 3.30872E-24
 -1       283 9.43054E-06-3.18282E-07 6.61744E-24
 -1       284 9.06828E-06-2.94092E-07-3.30872E-24
 -1       285 8.66767E-06-1.68329E-07 0.00000E+00
 -1       286 1.08944E-05 4.72145E-07 1.65436E-24
 -1       287 1.08509E-05 7.37190E-07 0.00000E+00
 -1       288 1.08074E-05 8.86402E-07 0.00000E+00
 -1       289 1.07642E-05 9.22913E-07 8.27181E-25
 -1       290 1.07209E-05 8.60273E-07 0.00000E+00
 -1       291 1.06777E-05 7.12222E-07 0.00000E+00
 -1       292 1.06345E-05 5.00390E-07-1.65436E-24
 -1       293 1.05912E-05 2.46523E-07-8.27181E-25
 -1       294 1.05480E-05-2.37427E-08 1.65436E-24
 -1       295 1.05048E-05-2.84742E-07 0.00000E+00
 -1       296 1.04615E-05-5.11672E-07 0.00000E+00
 -1       297 1.04183E-05-6.79787E-07-8.27181E-25
 -1       298 1.03750E-05-7.69776E-07 0.00000E+00
 -1       299 1.03315E-05-7.62480E-07 0.00000E+00
 -1       300 1.02881E-05-6.47730E-07 0.00000E+00
 -1       301 1.04870E-05 8.51912E-08 8.27181E-25
 -1       302 1.00321E-05 8.51992E-08-4.13590E-25
 -1       303 9.57668E-06 8.57348E-08 8.27181E-25
 -1       304 9.12315E-06 8.61442E-08 4.13590E-25
 -1       305 8.67382E-06 8.57524E-08 1.65436E-24
 -1       306 1.06051E-05 3.73641E-07-3.30872E-24
 -1       307 1.03199E-05 5.11946E-07 0.00000E+00
 -1       308 1.00814E-05 5.26175E-07 0.00000E+00
 -1       309 9.88074E-06 4.37117E-07-3.30872E-24
 -1       310 9.71059E-06 2.66327E-07-6.61744E-24
 -1       311 9.56287E-06 3.52494E-08 3.30872E-24
 -1       312 9.42962E-06-2.34510E-07 6.61744E-24
 -1       313 9.30273E-06-5.21312E-07 3.30872E-24
 -1       314 9.17411E-06-8.03472E-07 6.61744E-24
 -1       315 9.03565E-06-1.05931E-06 3.30872E-24
 -1       316 8.87927E-06-1.26722E-06 0.00000E+00
 -1       317 8.69703E-06-1.40563E-06 3.30872E-24
 -1       318 8.48085E-06-1.45317E-06-6.61744E-24
 -1       319 8.22363E-06-1.38830E-06 3.30872E-24
 -1       320 7.91632E-06-1.19040E-06 3.30872E-24
 -1       321 1.01972E-05-1.56411E-07 1.65436E-24
 -1       322 1.01520E-05 3.91233E-08 8.27181E-25
 -1       323 1.01068E-05 1.71567E-07-1.65436E-24
 -1       324 1.00618E-05 2.41577E-07 0.00000E+00
 -1       325 1.00168E-05 2.55800E-07 0.00000E+00
 -1       326 9.97190E-06 2.20992E-07-8.27181E-25
 -1       327 9.92697E-06 1.48615E-07 0.00000E+00
 -1       328 9.88204E-06 5.02068E-08-8.27181E-25
 -1       329 9.83712E-06-6.01986E-08 0.00000E+00
 -1       330 9.79219E-06-1.68545E-07 0.00000E+00
 -1       331 9.74727E-06-2.60971E-07 1.65436E-24
 -1       332 9.70235E-06-3.23647E-07-8.27181E-25
 -1       333 9.65743E-06-3.45600E-07 0.00000E+00
 -1       334 9.61251E-06-3.15935E-07 0.00000E+00
 -1       335 9.56759E-06-2.28710E-07 0.00000E+00
 -1       336 9.91247E-06-4.86036E-07-1.65436E-24
 -1       337 9.51667E-06-5.56381E-07 8.27181E-25
 -1       338 9.06965E-06-6.26720E-07 0.00000E+00
 -1       339 8.58510E-06-6.96895E-07 8.27181E-25
 -1       340 8.07670E-06-7.67090E-07 0.00000E+00
 -1       341 9.47910E-06 1.24413E-06-3.30872E-24
 -1       342 7.64589E-06 5.72217E-06 0.00000E+00
 -1       343 5.06177E-06 1.21720E-05 0.00000E+00
 -1       344 2.05061E-06 1.97365E-05-1.65436E-24
 -1       345-9.37850E-07 2.72415E-05-3.30872E-24
 -1       346-3.45434E-06 3.35130E-05 0.00000E+00
 -1       347-5.18835E-06 3.77287E-05 3.30872E-24
 -1       348-5.83777E-06 3.90760E-05 0.00000E+00
 -1       349-5.41382E-06 3.75607E-05-3.30872E-24
 -1       350-3.93354E-06 3.32047E-05 0.00000E+00
 -1       351-1.71194E-06 2.68417E-05 3.30872E-24
 -1       352 9.36145E-07 1.93186E-05 1.65436E-24
 -1       353 3.57698E-06 1.18154E-05 0.00000E+00
 -1       354 5.77769E-06 5.51266E-06 0.00000E+00
 -1       355 7.22570E-06 1.24636E-06 0.00000E+00
 -1       356 9.47546E-06 8.70080E-08-1.65436E-24
 -1       357 9.42820E-06 2.17591E-07 0.00000E+00
 -1       358 9.38095E-06 3.12829E-07-1.65436E-24
 -1       359 9.33369E-06 3.71973E-07 8.27181E-25
 -1       360 9.28643E-06 3.97911E-07 0.00000E+00
 -1       361 9.23917E-06 3.93601E-07 8.27181E-25
 -1       362 9.19191E-06 3.65051E-07-1.65436E-24
 -1       363 9.14466E-06 3.18318E-07 0.00000E+00
 -1       364 9.09741E-06 2.61290E-07 0.00000E+00
 -1       365 9.05018E-06 2.01881E-07 8.27181E-25
 -1       366 9.00297E-06 1.48241E-07 0.00000E+00
 -1       367 8.95589E-06 1.08509E-07 8.27181E-25
 -1       368 8.90883E-06 8.94250E-08 0.00000E+00
 -1       369 8.86239E-06 9.76830E-08 0.00000E+00
 -1       370 8.81574E-06 1.37230E-07-2.06795E-25
 -1       371 9.27745E-06-9.28389E-08 0.00000E+00
 -1       372 8.90823E-06-1.06280E-07 4.13590E-25
 -1       373 8.48629E-06-1.19816E-07 0.00000E+00
 -1       374 8.08296E-06-1.32939E-07 0.00000E+00
 -1       375 7.76907E-06-1.46074E-07 1.03398E-25
 -1       376 9.38480E-06 6.47412E-08 0.00000E+00
 -1       377 9.25462E-06 1.83409E-07 8.27181E-25
 -1       378 9.13512E-06 2.73895E-07 0.00000E+00
 -1       379 9.02762E-06 3.31677E-07-8.27181E-25
 -1       380 8.93183E-06 3.58258E-07 0.00000E+00
 -1       381 8.84713E-06 3.55148E-07 8.27181E-25
 -1       382 8.77097E-06 3.29262E-07 0.00000E+00
 -1       383 8.70072E-06 2.87577E-07 0.00000E+00
 -1       384 8.63266E-06 2.40085E-07 1.65436E-24
 -1       385 8.56305E-06 1.96805E-07-8.27181E-25
 -1       386 8.48860E-06 1.66463E-07 1.65436E-24
 -1       387 8.40617E-06 1.57788E-07 8.27181E-25
 -1       388 8.31370E-06 1.75894E-07-1.65436E-24
 -1       389 8.21000E-06 2.26121E-07 0.00000E+00
 -1       390 8.09433E-06 3.07416E-07 8.27181E-25
 -1       406 8.66706E-06 2.46912E-07 0.00000E+00
 -1       407 8.54883E-06 2.81906E-07-8.27181E-25
 -1       408 8.41884E-06 3.16881E-07 0.00000E+00
 -1       409 8.27837E-06 3.51772E-07 0.00000E+00
 -1       410 8.12869E-06 3.86480E-07 8.27181E-25
 -1       466 6.13577E-06 5.55993E-07 0.00000E+00
 -1       467 6.27562E-06 1.07503E-06 0.00000E+00
 -1       468 6.41519E-06 1.30281E-06 0.00000E+00
 -1       469 6.55592E-06 1.35252E-06 0.00000E+00
 -1       470 6.69667E-06 1.27575E-06-3.30872E-24
 -1       471 6.83764E-06 1.12329E-06 0.00000E+00
 -1       472 6.97863E-06 9.19672E-07-3.30872E-24
 -1       473 7.11964E-06 6.89132E-07 0.00000E+00
 -1       474 7.26064E-06 4.46546E-07 0.00000E+00
 -1       475 7.40157E-06 2.06723E-07-1.65436E-24
 -1       476 7.54247E-06-1.45680E-08 0.00000E+00
 -1       477 7.68300E-06-2.01450E-07 0.00000E+00
 -1       478 7.82350E-06-3.26114E-07 0.00000E+00
 -1       479 7.96215E-06-3.60357E-07-1.65436E-24
 -1       480 8.10143E-06-2.44754E-07 0.00000E+00
 -1       481 4.96867E-06-3.49244E-07-2.06795E-25
 -1       482 4.12858E-06-3.27876E-07 0.00000E+00
 -1       483 3.45720E-06-3.06456E-07 4.13590E-25
 -1       484 2.93001E-06-2.84799E-07-2.06795E-25
 -1       485 2.52959E-06-2.63058E-07-4.13590E-25
 -1       486 5.39565E-06 8.07778E-07 3.30872E-24
 -1       487 4.70921E-06 2.17937E-06 0.00000E+00
 -1       488 4.04822E-06 3.48457E-06 0.00000E+00
 -1       489 3.51013E-06 4.45995E-06 0.00000E+00
 -1       490 3.15276E-06 4.95440E-06 3.30872E-24
 -1       491 3.03133E-06 4.81954E-06 0.00000E+00
 -1       492 3.12148E-06 4.11984E-06 3.30872E-24
 -1       493 3.39734E-06 2.92351E-06 0.00000E+00
 -1       494 3.77061E-06 1.46652E-06 3.30872E-24
 -1       495 4.15242E-06-1.33189E-08-1.65436E-24
 -1       496 4.45107E-06-1.27048E-06 0.00000E+00
 -1       497 4.57540E-06-2.06095E-06-1.65436E-24
 -1       498 4.49262E-06-2.29842E-06 3.30872E-24
 -1       499 4.17232E-06-1.89993E-06-1.65436E-24
 -1       500 3.66252E-06-9.98149E-07 3.30872E-24
 -1       501 8.18648E-06 4.34282E-07-1.65436E-24
 -1       502 8.14428E-06 6.29931E-07 0.00000E+00
 -1       503 8.10195E-06 6.79086E-07 0.00000E+00
 -1       504 8.06006E-06 5.93069E-07 0.00000E+00
 -1       505 8.01816E-06 3.95299E-07 0.00000E+00
 -1       506 7.97633E-06 1.09406E-07-8.27181E-25
 -1       507 7.93449E-06-2.33100E-07-1.65436E-24
 -1       508 7.89267E-06-6.00613E-07 8.27181E-25
 -1       509 7.85085E-06-9.59283E-07 0.00000E+00
 -1       510 7.80904E-06-1.27528E-06 0.00000E+00
 -1       511 7.76726E-06-1.51858E-06 1.65436E-24
 -1       512 7.72549E-06-1.65932E-06 8.27181E-25
 -1       513 7.68373E-06-1.67676E-06 0.00000E+00
 -1       514 7.64194E-06-1.55043E-06 0.00000E+00
 -1       515 7.60013E-06-1.27270E-06 0.00000E+00
 -1       516 7.74519E-06 1.09310E-07-8.27181E-25
 -1       517 7.15125E-06 1.42731E-07 0.00000E+00
 -1       518 6.41822E-06 1.75705E-07-4.13590E-25
 -1       519 5.51495E-06 2.09109E-07 2.06795E-25
 -1       520 4.39697E-06 2.42496E-07 0.00000E+00
 -1       521 7.80430E-06 3.23037E-07 0.00000E+00
 -1       522 7.42072E-06 4.23396E-07 0.00000E+00
 -1       523 7.08165E-06 4.05711E-07 0.00000E+00
 -1       524 6.77786E-06 2.90083E-07-3.30872E-24
 -1       525 6.50263E-06 9.78086E-08 6.61744E-24
 -1       526 6.24799E-06-1.50028E-07 3.30872E-24
 -1       527 6.00614E-06-4.32111E-07 0.00000E+00
 -1       528 5.76907E-06-7.27091E-07-3.30872E-24
 -1       529 5.52882E-06-1.01357E-06 6.61744E-24
 -1       530 5.27741E-06-1.27017E-06-3.30872E-24
 -1       531 5.00687E-06-1.47561E-06 6.61744E-24
 -1       532 4.70944E-06-1.60869E-06-3.30872E-24
 -1       533 4.37719E-06-1.64850E-06 6.61744E-24
 -1       534 4.00343E-06-1.57397E-06 0.00000E+00
 -1       535 3.57909E-06-1.36521E-06-6.61744E-24
 -1       536 7.55939E-06-3.81601E-07-8.27181E-25
 -1       537 7.56271E-06-3.64636E-08 0.00000E+00
 -1       538 7.56604E-06 2.10823E-07 2.06795E-25
 -1       539 7.56968E-06 3.71976E-07 0.00000E+00
 -1       540 7.57339E-06 4.58679E-07 3.23117E-26
 -1       541 7.57715E-06 4.82625E-07-2.58494E-26
 -1       542 7.58094E-06 4.55505E-07 0.00000E+00
 -1       543 7.58473E-06 3.89006E-07 5.16988E-26
 -1       544 7.58853E-06 2.94816E-07-1.03398E-25
 -1       545 7.59232E-06 1.84619E-07 5.16988E-26
 -1       546 7.59613E-06 7.01036E-08-1.03398E-25
 -1       547 7.59993E-06-3.70453E-08 5.16988E-26
 -1       548 7.60374E-06-1.25143E-07-2.06795E-25
 -1       549 7.60758E-06-1.82505E-07 0.00000E+00
 -1       550 7.61141E-06-1.97435E-07 0.00000E+00
 -1       551 6.89319E-06-8.62964E-07 2.58494E-25
 -1       552 6.15187E-06-8.89019E-07-3.10193E-25
 -1       553 5.36800E-06-9.15065E-07-8.27181E-25
 -1       554 4.57606E-06-9.41438E-07 8.27181E-25
 -1       555 3.81051E-06-9.68530E-07 0.00000E+00
 -1       556 7.36577E-06-4.09622E-07 0.00000E+00
 -1       557 7.21118E-06-8.13621E-08 0.00000E+00
 -1       558 7.09014E-06 1.57967E-07 0.00000E+00
 -1       559 6.99869E-06 3.18670E-07 3.30872E-24
 -1       560 6.93291E-06 4.11065E-07 1.65436E-24
 -1       561 6.88886E-06 4.45552E-07-8.27181E-25
 -1       562 6.86263E-06 4.32536E-07 0.00000E+00
 -1       563 6.85032E-06 3.82431E-07 0.00000E+00
 -1       564 6.84801E-06 3.05653E-07 0.00000E+00
 -1       565 6.85180E-06 2.12618E-07 0.00000E+00
 -1       566 6.85779E-06 1.13747E-07-8.27181E-25
 -1       567 6.86208E-06 1.94579E-08 2.06795E-25
 -1       568 6.86077E-06-5.98303E-08 6.20385E-25
 -1       569 6.85004E-06-1.13711E-07 7.75482E-26
 -1       570 6.82607E-06-1.31782E-07-4.13590E-25
 -1       571 7.63675E-06-1.08523E-07 2.06795E-25
 -1       572 7.65876E-06-7.43481E-08 2.06795E-25
 -1       573 7.68096E-06-5.29514E-08 0.00000E+00
 -1       574 7.70326E-06-4.13695E-08 4.13590E-25
 -1       575 7.72558E-06-3.66273E-08 0.00000E+00
 -1       576 7.74792E-06-3.57301E-08 0.00000E+00
 -1       577 7.77027E-06-3.56817E-08 0.00000E+00
 -1       578 7.79262E-06-3.34836E-08 0.00000E+00
 -1       579 7.81497E-06-2.61370E-08 8.27181E-25
 -1       580 7.83732E-06-1.06431E-08 0.00000E+00
 -1       581 7.85967E-06 1.59961E-08 0.00000E+00
 -1       582 7.88201E-06 5.67758E-08-1.65436E-24
 -1       583 7.90435E-06 1.14688E-07 0.00000E+00
 -1       584 7.92668E-06 1.92695E-07 0.00000E+00
 -1       585 7.94897E-06 2.93742E-07 0.00000E+00
 -1       586 7.49649E-06-1.49029E-07 0.00000E+00
 -1       587 7.36024E-06-1.39687E-07-2.06795E-25
 -1       588 7.21375E-06-1.30353E-07 0.00000E+00
 -1       589 7.06432E-06-1.21110E-07 5.16988E-26
 -1       590 6.91928E-06-1.12073E-07 0.00000E+00
 -1       591 7.57974E-06-1.00078E-07 0.00000E+00
 -1       592 7.54692E-06-5.21441E-08-4.13590E-25
 -1       593 7.51703E-06-1.25237E-08 0.00000E+00
 -1       594 7.48947E-06 2.05779E-08-2.06795E-25
 -1       595 7.46365E-06 4.89545E-08 4.13590E-25
 -1       596 7.43892E-06 7.43877E-08 0.00000E+00
 -1       597 7.41461E-06 9.86568E-08 0.00000E+00
 -1       598 7.39008E-06 1.23539E-07-2.06795E-25
 -1       599 7.36464E-06 1.50813E-07-4.13590E-25
 -1       600 7.33765E-06 1.82255E-07-1.03398E-25
 -1       601 7.30843E-06 2.19643E-07 0.00000E+00
 -1       602 7.27634E-06 2.64757E-07-1.55096E-25
 -1       603 7.24071E-06 3.19377E-07 2.06795E-25
 -1       604 7.20096E-06 3.85295E-07-1.93870E-26
 -1       605 7.15651E-06 4.64304E-07 0.00000E+00
 -1       606 7.97944E-06 5.89563E-07 8.27181E-25
 -1       607 7.98716E-06 7.75322E-07 0.00000E+00
 -1       608 7.99473E-06 9.76844E-07 0.00000E+00
 -1       609 8.00222E-06 1.19300E-06-4.13590E-25
 -1       610 8.00969E-06 1.42267E-06 0.00000E+00
 -1       611 8.01713E-06 1.66470E-06 0.00000E+00
 -1       612 8.02457E-06 1.91792E-06 0.00000E+00
 -1       613 8.03201E-06 2.18120E-06 0.00000E+00
 -1       614 8.03944E-06 2.45337E-06 0.00000E+00
 -1       615 8.04687E-06 2.73326E-06 0.00000E+00
 -1       616 8.05430E-06 3.01975E-06 0.00000E+00
 -1       617 8.06172E-06 3.31165E-06 0.00000E+00
 -1       618 8.06914E-06 3.60782E-06 0.00000E+00
 -1       619 8.07655E-06 3.90710E-06-4.13590E-25
 -1       620 8.08394E-06 4.20834E-06-2.06795E-25
 -1       621 7.81201E-06 4.43596E-07 4.13590E-25
 -1       622 7.65642E-06 4.66767E-07 4.13590E-25
 -1       623 7.50629E-06 4.89942E-07-4.13590E-25
 -1       624 7.36352E-06 5.13055E-07 4.13590E-25
 -1       625 7.22998E-06 5.36032E-07 0.00000E+00
 -1       626 7.92173E-06 5.98151E-07 8.27181E-25
 -1       627 7.86548E-06 7.93248E-07 0.00000E+00
 -1       628 7.80319E-06 1.00422E-06 0.00000E+00
 -1       629 7.73560E-06 1.22924E-06 0.00000E+00
 -1       630 7.66342E-06 1.46648E-06 0.00000E+00
 -1       631 7.58735E-06 1.71406E-06 4.13590E-25
 -1       632 7.50809E-06 1.97013E-06 8.27181E-25
 -1       633 7.42635E-06 2.23281E-06 4.13590E-25
 -1       634 7.34283E-06 2.50023E-06 0.00000E+00
 -1       635 7.25823E-06 2.77053E-06-2.06795E-25
 -1       636 7.17324E-06 3.04184E-06 0.00000E+00
 -1       637 7.08857E-06 3.31229E-06 0.00000E+00
 -1       638 7.00490E-06 3.58000E-06 2.06795E-25
 -1       639 6.92288E-06 3.84311E-06-2.06795E-25
 -1       640 6.84314E-06 4.09973E-06 0.00000E+00
 -1       641 8.09144E-06 4.82326E-06 0.00000E+00
 -1       642 8.09136E-06 5.16869E-06 0.00000E+00
 -1       643 8.09129E-06 5.54194E-06 0.00000E+00
 -1       644 8.09116E-06 5.93832E-06 0.00000E+00
 -1       645 8.09102E-06 6.35310E-06 0.00000E+00
 -1       646 8.09087E-06 6.78157E-06 0.00000E+00
 -1       647 8.09071E-06 7.21901E-06-1.61559E-27
 -1       648 8.09054E-06 7.66072E-06 0.00000E+00
 -1       649 8.09038E-06 8.10196E-06-6.46235E-27
 -1       650 8.09021E-06 8.53802E-06 6.46235E-27
 -1       651 8.09003E-06 8.96420E-06-2.58494E-26
 -1       652 8.08983E-06 9.37576E-06 2.58494E-26
 -1       653 8.08963E-06 9.76800E-06-1.03398E-25
 -1       654 8.08926E-06 1.01362E-05 1.03398E-25
 -1       655 8.08895E-06 1.04757E-05-4.13590E-25
 -1       656 7.82085E-06 4.48424E-06 0.00000E+00
 -1       657 7.58784E-06 4.45672E-06 2.06795E-25
 -1       658 7.37905E-06 4.42926E-06-8.27181E-25
 -1       659 7.18127E-06 4.40177E-06 0.00000E+00
 -1       660 6.98130E-06 4.37424E-06 4.13590E-25
 -1       661 8.00432E-06 4.83254E-06 0.00000E+00
 -1       662 7.90901E-06 5.18018E-06 0.00000E+00
 -1       663 7.80564E-06 5.54923E-06 0.00000E+00
 -1       664 7.69577E-06 5.93609E-06 0.00000E+00
 -1       665 7.58063E-06 6.33703E-06 0.00000E+00
 -1       666 7.46161E-06 6.74838E-06 0.00000E+00
 -1       667 7.34006E-06 7.16648E-06 0.00000E+00
 -1       668 7.21736E-06 7.58766E-06-4.13590E-25
 -1       669 7.09488E-06 8.00825E-06-8.27181E-25
 -1       670 6.97399E-06 8.42459E-06 0.00000E+00
 -1       671 6.85605E-06 8.83303E-06 0.00000E+00
 -1       672 6.74242E-06 9.22986E-06 0.00000E+00
 -1       673 6.63448E-06 9.61145E-06 0.00000E+00
 -1       674 6.53341E-06 9.97404E-06 4.13590E-25
 -1       675 6.44084E-06 1.03140E-05-4.13590E-25
 -1       676 7.79850E-06 1.07558E-05 8.27181E-25
 -1       677 7.50941E-06 1.07298E-05-4.13590E-25
 -1       678 7.22056E-06 1.07039E-05-8.27181E-25
 -1       679 6.93205E-06 1.06781E-05 4.13590E-25
 -1       680 6.64398E-06 1.06522E-05-4.13590E-25
 -1       681 2.28634E-06-9.55781E-08 0.00000E+00
 -1       682 2.33548E-06-1.29285E-07 0.00000E+00
 -1       683 2.38451E-06-3.00693E-07 0.00000E+00
 -1       684 2.43379E-06-5.68149E-07 0.00000E+00
 -1       685 2.48306E-06-9.00835E-07 0.00000E+00
 -1       686 2.53237E-06-1.26809E-06 8.27181E-25
 -1       687 2.58168E-06-1.64314E-06 0.00000E+00
 -1       688 2.63101E-06-1.99923E-06 0.00000E+00
 -1       689 2.68035E-06-2.30749E-06 0.00000E+00
 -1       690 2.72968E-06-2.53891E-06 8.27181E-25
 -1       691 2.77902E-06-2.65582E-06 0.00000E+00
 -1       692 2.82825E-06-2.62029E-06 8.27181E-25
 -1       693 2.87744E-06-2.37716E-06 1.65436E-24
 -1       694 2.92595E-06-1.87082E-06 0.00000E+00
 -1       695 2.97443E-06-1.01599E-06-4.13590E-25
 -1       696 1.95780E-06-2.02333E-07-8.27181E-25
 -1       697 1.58911E-06-1.62088E-07 4.13590E-25
 -1       698 1.17102E-06-1.21924E-07 1.65436E-24
 -1       699 7.41896E-07-8.14649E-08 8.27181E-25
 -1       700 3.39090E-07-4.10206E-08 1.65436E-24
 -1       701 2.10101E-06-2.52845E-08 0.00000E+00
 -1       702 1.96190E-06 1.86604E-07 0.00000E+00
 -1       703 1.82790E-06 3.85444E-07 0.00000E+00
 -1       704 1.70199E-06 5.61218E-07 8.27181E-25
 -1       705 1.58722E-06 7.07267E-07 0.00000E+00
 -1       706 1.48606E-06 8.16781E-07 8.27181E-25
 -1       707 1.39936E-06 8.87718E-07 1.65436E-24
 -1       708 1.32786E-06 9.18089E-07 0.00000E+00
 -1       709 1.27040E-06 9.11026E-07-1.65436E-24
 -1       710 1.22578E-06 8.69749E-07 8.27181E-25
 -1       711 1.19116E-06 8.01830E-07-1.65436E-24
 -1       712 1.16376E-06 7.14932E-07 0.00000E+00
 -1       713 1.13970E-06 6.19133E-07 0.00000E+00
 -1       714 1.11565E-06 5.24743E-07 0.00000E+00
 -1       715 1.08725E-06 4.41438E-07-8.27181E-25
 -1       716 3.02329E-06 1.55994E-06 0.00000E+00
 -1       717 3.02887E-06 2.40528E-06 0.00000E+00
 -1       718 3.03462E-06 2.86929E-06-5.16988E-26
 -1       719 3.04070E-06 3.01172E-06 5.16988E-26
 -1       720 3.04680E-06 2.88798E-06-2.06795E-25
 -1       721 3.05289E-06 2.55338E-06 0.00000E+00
 -1       722 3.05893E-06 2.06038E-06-2.06795E-25
 -1       723 3.06491E-06 1.46137E-06 0.00000E+00
 -1       724 3.07086E-06 8.07296E-07 0.00000E+00
 -1       725 3.07676E-06 1.49112E-07-5.16988E-26
 -1       726 3.08268E-06-4.62320E-07-1.03398E-25
 -1       727 3.08847E-06-9.76102E-07 0.00000E+00
 -1       728 3.09430E-06-1.34001E-06 0.00000E+00
 -1       729 3.09931E-06-1.50180E-06 0.00000E+00
 -1       730 3.10462E-06-1.40652E-06 0.00000E+00
 -1       731 1.79677E-06 2.89103E-07 1.03398E-25
 -1       732 1.14059E-06 3.07093E-07 1.03398E-25
 -1       733 8.92297E-07 3.25158E-07 0.00000E+00
 -1       734 8.93654E-07 3.43540E-07 2.06795E-25
 -1       735 9.96703E-07 3.61950E-07 0.00000E+00
 -1       736 1.97525E-06 2.74077E-06 1.65436E-24
 -1       737 1.75566E-07 7.19284E-06 0.00000E+00
 -1       738-2.12070E-06 1.29505E-05 3.30872E-24
 -1       739-4.65407E-06 1.93276E-05 0.00000E+00
 -1       740-7.10508E-06 2.54888E-05 3.30872E-24
 -1       741-9.15555E-06 3.05993E-05 0.00000E+00
 -1       742-1.05870E-05 3.40789E-05 0.00000E+00
 -1       743-1.11860E-05 3.53545E-05 0.00000E+00
 -1       744-1.09436E-05 3.43874E-05 0.00000E+00
 -1       745-9.85480E-06 3.11498E-05 0.00000E+00
 -1       746-8.11855E-06 2.61654E-05 3.30872E-24
 -1       747-5.93453E-06 1.99674E-05 1.65436E-24
 -1       748-3.60885E-06 1.33850E-05 3.30872E-24
 -1       749-1.44714E-06 7.24943E-06-1.65436E-24
 -1       750 2.82786E-07 2.28316E-06 0.00000E+00
 -1       751 3.32155E-06-5.34930E-07 1.65436E-24
 -1       752 3.55159E-06-2.68010E-07 0.00000E+00
 -1       753 3.78078E-06-1.32847E-07 0.00000E+00
 -1       754 4.01259E-06-6.53051E-08-3.30872E-24
 -1       755 4.24448E-06-4.28319E-08 6.61744E-24
 -1       756 4.47688E-06-4.33454E-08 0.00000E+00
 -1       757 4.70935E-06-5.89559E-08 0.00000E+00
 -1       758 4.94191E-06-8.19312E-08 0.00000E+00
 -1       759 5.17447E-06-1.09089E-07 6.61744E-24
 -1       760 5.40699E-06-1.37290E-07-3.30872E-24
 -1       761 5.63946E-06-1.64042E-07-6.61744E-24
 -1       762 5.87157E-06-1.86836E-07 3.30872E-24
 -1       763 6.10363E-06-2.00718E-07 0.00000E+00
 -1       764 6.33384E-06-2.00644E-07 3.30872E-24
 -1       765 6.56466E-06-1.72972E-07 0.00000E+00
 -1       766 2.36722E-06-9.69558E-07 8.27181E-25
 -1       767 1.29057E-06-9.34588E-07-5.16988E-26
 -1       768 2.54189E-07-8.99971E-07 0.00000E+00
 -1       769-3.62990E-07-8.64451E-07-2.06795E-25
 -1       770-1.47225E-07-8.28608E-07-5.16988E-26
 -1       771 2.77117E-06-5.57195E-07 0.00000E+00
 -1       772 2.46813E-06-2.03785E-07 0.00000E+00
 -1       773 2.19492E-06 6.90959E-08 0.00000E+00
 -1       774 1.94867E-06 2.69574E-07 0.00000E+00
 -1       775 1.72645E-06 4.05782E-07 6.61744E-24
 -1       776 1.52526E-06 4.85879E-07 3.30872E-24
 -1       777 1.34203E-06 5.18029E-07 0.00000E+00
 -1       778 1.17372E-06 5.10403E-07 0.00000E+00
 -1       779 1.01726E-06 4.71178E-07 0.00000E+00
 -1       780 8.69596E-07 4.08533E-07 3.30872E-24
 -1       781 7.27655E-07 3.30654E-07-3.30872E-24
 -1       782 5.88393E-07 2.45732E-07-1.65436E-24
 -1       783 4.48769E-07 1.61959E-07 0.00000E+00
 -1       784 3.05859E-07 8.75533E-08-1.65436E-24
 -1       785 1.56756E-07 3.07306E-08 0.00000E+00
 -1       786 6.80465E-06-2.40431E-08 0.00000E+00
 -1       787 6.82470E-06 3.77652E-08 2.06795E-25
 -1       788 6.84473E-06 8.43905E-08 0.00000E+00
 -1       789 6.86495E-06 1.18583E-07 2.06795E-25
 -1       790 6.88519E-06 1.43090E-07 4.13590E-25
 -1       791 6.90547E-06 1.60656E-07-4.13590E-25
 -1       792 6.92575E-06 1.74027E-07 0.00000E+00
 -1       793 6.94604E-06 1.85944E-07 4.13590E-25
 -1       794 6.96634E-06 1.99153E-07 0.00000E+00
 -1       795 6.98663E-06 2.16396E-07 4.13590E-25
 -1       796 7.00691E-06 2.40418E-07 0.00000E+00
 -1       797 7.02719E-06 2.73965E-07 0.00000E+00
 -1       798 7.04745E-06 3.19782E-07 0.00000E+00
 -1       799 7.06763E-06 3.80619E-07 0.00000E+00
 -1       800 7.08782E-06 4.59229E-07 4.13590E-25
 -1       801 6.18687E-06-8.55774E-08 0.00000E+00
 -1       802 4.93974E-06-6.68785E-08 0.00000E+00
 -1       803 3.37061E-06-4.87039E-08 0.00000E+00
 -1       804 1.80643E-06-3.11563E-08 0.00000E+00
 -1       805 5.74155E-07-1.31417E-08 1.65436E-24
 -1       806 6.73251E-06-3.23158E-08 0.00000E+00
 -1       807 6.68143E-06 3.11101E-08 0.00000E+00
 -1       808 6.63260E-06 8.79998E-08 0.00000E+00
 -1       809 6.58558E-06 1.39757E-07-4.13590E-25
 -1       810 6.53994E-06 1.87777E-07 8.27181E-25
 -1       811 6.49517E-06 2.33449E-07 0.00000E+00
 -1       812 6.45074E-06 2.78158E-07-8.27181E-25
 -1       813 6.40616E-06 3.23289E-07 4.13590E-25
 -1       814 6.36090E-06 3.70227E-07 8.27181E-25
 -1       815 6.31445E-06 4.20356E-07-2.06795E-25
 -1       816 6.26628E-06 4.75059E-07 4.13590E-25
 -1       817 6.21589E-06 5.35724E-07 0.00000E+00
 -1       818 6.16277E-06 6.03733E-07 8.27181E-25
 -1       819 6.10644E-06 6.80473E-07 2.06795E-25
 -1       820 6.04648E-06 7.67334E-07 2.06795E-25
 -1       821 7.08742E-06 6.85434E-07 2.06795E-25
 -1       822 7.06610E-06 8.41429E-07 2.06795E-25
 -1       823 7.04478E-06 1.02330E-06-4.13590E-25
 -1       824 7.02328E-06 1.22800E-06-4.13590E-25
 -1       825 7.00174E-06 1.45245E-06 8.27181E-25
 -1       826 6.98016E-06 1.69360E-06 0.00000E+00
 -1       827 6.95857E-06 1.94838E-06 0.00000E+00
 -1       828 6.93698E-06 2.21371E-06 4.13590E-25
 -1       829 6.91538E-06 2.48654E-06 0.00000E+00
 -1       830 6.89378E-06 2.76378E-06-4.13590E-25
 -1       831 6.87219E-06 3.04237E-06 0.00000E+00
 -1       832 6.85063E-06 3.31923E-06 0.00000E+00
 -1       833 6.82909E-06 3.59128E-06 0.00000E+00
 -1       834 6.80771E-06 3.85547E-06 2.06795E-25
 -1       835 6.78632E-06 4.10871E-06 0.00000E+00
 -1       836 6.96079E-06 6.08637E-07 0.00000E+00
 -1       837 6.76790E-06 6.60708E-07 4.13590E-25
 -1       838 6.55122E-06 7.12684E-07-1.65436E-24
 -1       839 6.33319E-06 7.64532E-07 0.00000E+00
 -1       840 6.13625E-06 8.16460E-07 4.13590E-25
 -1       841 7.05959E-06 6.85078E-07 0.00000E+00
 -1       842 6.99940E-06 8.43457E-07 2.58494E-26
 -1       843 6.92868E-06 1.02999E-06-6.46235E-27
 -1       844 6.84871E-06 1.24099E-06-3.23117E-27
 -1       845 6.76092E-06 1.47281E-06 1.29247E-26
 -1       846 6.66669E-06 1.72176E-06 0.00000E+00
 -1       847 6.56743E-06 1.98411E-06-2.58494E-26
 -1       848 6.46453E-06 2.25615E-06-1.29247E-26
 -1       849 6.35939E-06 2.53413E-06 0.00000E+00
 -1       850 6.25343E-06 2.81433E-06 0.00000E+00
 -1       851 6.14803E-06 3.09300E-06 0.00000E+00
 -1       852 6.04460E-06 3.36639E-06 0.00000E+00
 -1       853 5.94454E-06 3.63077E-06-5.16988E-26
 -1       854 5.84917E-06 3.88239E-06 5.16988E-26
 -1       855 5.76000E-06 4.11758E-06 2.06795E-25
 -1       856 6.74162E-06 4.60534E-06 0.00000E+00
 -1       857 6.71609E-06 4.90962E-06 2.06795E-25
 -1       858 6.69057E-06 5.25464E-06 0.00000E+00
 -1       859 6.66485E-06 5.63420E-06 0.00000E+00
 -1       860 6.63909E-06 6.04212E-06 0.00000E+00
 -1       861 6.61330E-06 6.47220E-06 4.13590E-25
 -1       862 6.58748E-06 6.91824E-06-8.27181E-25
 -1       863 6.56166E-06 7.37404E-06 0.00000E+00
 -1       864 6.53583E-06 7.83338E-06 8.27181E-25
 -1       865 6.51001E-06 8.29008E-06 0.00000E+00
 -1       866 6.48420E-06 8.73791E-06 0.00000E+00
 -1       867 6.45841E-06 9.17067E-06 4.13590E-25
 -1       868 6.43265E-06 9.58217E-06-8.27181E-25
 -1       869 6.40700E-06 9.96620E-06-4.13590E-25
 -1       870 6.38136E-06 1.03166E-05 0.00000E+00
 -1       871 6.56374E-06 4.34574E-06 0.00000E+00
 -1       872 6.37809E-06 4.34332E-06 0.00000E+00
 -1       873 6.20290E-06 4.34084E-06 0.00000E+00
 -1       874 6.03193E-06 4.33827E-06 5.16988E-26
 -1       875 5.85898E-06 4.33559E-06 1.03398E-25
 -1       876 6.70540E-06 4.61390E-06-8.27181E-25
 -1       877 6.63135E-06 4.92020E-06-4.13590E-25
 -1       878 6.54423E-06 5.26121E-06-8.27181E-25
 -1       879 6.44620E-06 5.63193E-06 0.00000E+00
 -1       880 6.33898E-06 6.02720E-06 0.00000E+00
 -1       881 6.22449E-06 6.44194E-06 4.13590E-25
 -1       882 6.10460E-06 6.87109E-06 0.00000E+00
 -1       883 5.98122E-06 7.30956E-06-4.13590E-25
 -1       884 5.85623E-06 7.75230E-06 0.00000E+00
 -1       885 5.73153E-06 8.19424E-06 0.00000E+00
 -1       886 5.60903E-06 8.63032E-06 8.27181E-25
 -1       887 5.49058E-06 9.05545E-06 0.00000E+00
 -1       888 5.37811E-06 9.46458E-06 8.27181E-25
 -1       889 5.27329E-06 9.85256E-06-4.13590E-25
 -1       890 5.17832E-06 1.02144E-05-4.13590E-25
 -1       891 6.10827E-06 1.06134E-05 0.00000E+00
 -1       892 5.90920E-06 1.05995E-05-2.06795E-25
 -1       893 5.73375E-06 1.05856E-05 0.00000E+00
 -1       894 5.55633E-06 1.05718E-05 0.00000E+00
 -1       895 5.35136E-06 1.05579E-05 0.00000E+00
 -1       896 6.54916E-08 2.66617E-07 0.00000E+00
 -1       897 1.31532E-07 4.53493E-07-8.27181E-25
 -1       898 1.97548E-07 5.77732E-07-1.65436E-24
 -1       899 2.63669E-07 6.56246E-07 8.27181E-25
 -1       900 3.29795E-07 6.98940E-07 0.00000E+00
 -1       901 3.95941E-07 7.15616E-07 8.27181E-25
 -1       902 4.62089E-07 7.12088E-07 0.00000E+00
 -1       903 5.28237E-07 6.94109E-07 8.27181E-25
 -1       904 5.94382E-07 6.65214E-07 0.00000E+00
 -1       905 6.60511E-07 6.28911E-07 0.00000E+00
 -1       906 7.26628E-07 5.87569E-07 0.00000E+00
 -1       907 7.92662E-07 5.43542E-07 0.00000E+00
 -1       908 8.58684E-07 4.98773E-07 0.00000E+00
 -1       909 9.24287E-07 4.55205E-07 0.00000E+00
 -1       910 9.90031E-07 4.14959E-07 0.00000E+00
 -1       911 1.07026E-06 4.39443E-07 0.00000E+00
 -1       912 1.08713E-06 6.80185E-07 0.00000E+00
 -1       913 1.10395E-06 1.05864E-06 4.13590E-25
 -1       914 1.12076E-06 1.53116E-06 0.00000E+00
 -1       915 1.13756E-06 2.05766E-06 0.00000E+00
 -1       916 1.15435E-06 2.59808E-06 0.00000E+00
 -1       917 1.17115E-06 3.11290E-06-4.13590E-25
 -1       918 1.18799E-06 3.56257E-06 0.00000E+00
 -1       919 1.20486E-06 3.90508E-06 0.00000E+00
 -1       920 1.22175E-06 4.09835E-06 0.00000E+00
 -1       921 1.23865E-06 4.09463E-06 0.00000E+00
 -1       922 1.25544E-06 3.84605E-06-2.06795E-25
 -1       923 1.27210E-06 3.29547E-06-4.13590E-25
 -1       924 1.28811E-06 2.38552E-06 0.00000E+00
 -1       925 1.30379E-06 1.04531E-06-2.06795E-25
 -1       926 1.23529E-06-2.87148E-06-1.65436E-24
 -1       927 1.15212E-06-4.90631E-06 0.00000E+00
 -1       928 1.06942E-06-6.74742E-06 0.00000E+00
 -1       929 9.86917E-07-8.24215E-06-1.65436E-24
 -1       930 9.04932E-07-9.29659E-06 3.30872E-24
 -1       931 8.23279E-07-9.81841E-06-1.65436E-24
 -1       932 7.41746E-07-9.80573E-06 0.00000E+00
 -1       933 6.60051E-07-9.25860E-06-1.65436E-24
 -1       934 5.78032E-07-8.26779E-06 3.30872E-24
 -1       935 4.95607E-07-6.92567E-06 0.00000E+00
 -1       936 4.12905E-07-5.38427E-06 3.30872E-24
 -1       937 3.30092E-07-3.79634E-06 0.00000E+00
 -1       938 2.47437E-07-2.32249E-06-3.30872E-24
 -1       939 1.64932E-07-1.12297E-06-1.65436E-24
 -1       940 8.28630E-08-3.11404E-07 3.30872E-24
 -1       941 3.54593E-07 5.75491E-08 3.30872E-24
 -1       942 7.28773E-07 1.09198E-07-3.30872E-24
 -1       943 1.10171E-06 1.57210E-07 0.00000E+00
 -1       944 1.47837E-06 2.03788E-07 6.61744E-24
 -1       945 1.85514E-06 2.49493E-07-1.32349E-23
 -1       946 2.23265E-06 2.94871E-07 0.00000E+00
 -1       947 2.61025E-06 3.40094E-07 1.32349E-23
 -1       948 2.98797E-06 3.85330E-07 6.61744E-24
 -1       949 3.36571E-06 4.30762E-07 0.00000E+00
 -1       950 3.74335E-06 4.76579E-07 0.00000E+00
 -1       951 4.12092E-06 5.23407E-07 1.32349E-23
 -1       952 4.49791E-06 5.71893E-07 0.00000E+00
 -1       953 4.87481E-06 6.24587E-07 0.00000E+00
 -1       954 5.24870E-06 6.84112E-07 0.00000E+00
 -1       955 5.62361E-06 7.60910E-07 0.00000E+00
 -1       956 5.96409E-06 1.00247E-06 4.13590E-25
 -1       957 5.94509E-06 1.16027E-06-5.16988E-26
 -1       958 5.92603E-06 1.33703E-06-2.06795E-25
 -1       959 5.90693E-06 1.53049E-06-1.03398E-25
 -1       960 5.88781E-06 1.73841E-06 0.00000E+00
 -1       961 5.86869E-06 1.95853E-06 2.06795E-25
 -1       962 5.84956E-06 2.18858E-06 0.00000E+00
 -1       963 5.83042E-06 2.42630E-06 2.06795E-25
 -1       964 5.81129E-06 2.66942E-06 0.00000E+00
 -1       965 5.79216E-06 2.91568E-06 0.00000E+00
 -1       966 5.77302E-06 3.16281E-06-8.27181E-25
 -1       967 5.75390E-06 3.40855E-06 0.00000E+00
 -1       968 5.73478E-06 3.65062E-06 0.00000E+00
 -1       969 5.71569E-06 3.88678E-06-4.13590E-25
 -1       970 5.69666E-06 4.11477E-06 0.00000E+00
 -1       971 5.64231E-06 4.56616E-06 0.00000E+00
 -1       972 5.60575E-06 4.84990E-06-4.13590E-25
 -1       973 5.56920E-06 5.17740E-06-8.27181E-25
 -1       974 5.53248E-06 5.54235E-06-4.13590E-25
 -1       975 5.49573E-06 5.93847E-06 8.27181E-25
 -1       976 5.45895E-06 6.35942E-06 0.00000E+00
 -1       977 5.42215E-06 6.79891E-06-8.27181E-25
 -1       978 5.38534E-06 7.25060E-06 0.00000E+00
 -1       979 5.34853E-06 7.70817E-06-8.27181E-25
 -1       980 5.31172E-06 8.16529E-06 4.13590E-25
 -1       981 5.27493E-06 8.61563E-06 0.00000E+00
 -1       982 5.23818E-06 9.05286E-06 0.00000E+00
 -1       983 5.20148E-06 9.47067E-06 0.00000E+00
 -1       984 5.16498E-06 9.86273E-06-4.13590E-25
 -1       985 5.12848E-06 1.02227E-05 0.00000E+00
 -3
    1PSTEP                        10           5           1          
  100CL  105 1.42578E-01         841                     0    5           1
 -4  STRESS      6    1
 -5  SXX         1    4    1    1
 -5  SYY         1    4    2    2
 -5  SZZ         1    4    3    3
 -5  SXY         1    4    1    2
 -5  SYZ         1    4    2    3
 -5  SZX         1    4    3    1
 -1         1-6.04977E+05-1.94807E+05-1.25198E+05-1.71130E+05-2.79518E-10 1.66862E-09
 -1         2-3.82637E+05-2.66823E+04 4.85019E+02-3.77750E+04-5.13353E-10-4.36899E-10
 -1         3-2.03144E+05-6.88379E+04-1.16845E+04-1.63738E+04 2.75882E-10-1.50322E-10
 -1         4-1.05674E+05-1.74571E+04 1.62652E+02-1.02970E+04 8.09308E-12-1.31827E-10
 -1         5-5.63356E+04 2.41596E+04-2.60805E+04-1.11473E+03 2.07001E-09 1.18226E-09
 -1         8-3.26924E+05-1.31132E+05-5.01184E+04-1.20143E+05-8.64020E-12 2.63753E-10
 -1         9-3.44703E+05-8.18634E+04-4.32374E+04-7.82954E+04-2.36772E-10-7.24564E-10
 -1        10-1.65099E+05-9.11238E+04-9.51789E+03-3.97440E+04-7.65908E-10-9.42843E-10
 -1        11-1.01856E+05-2.70878E+04 1.40953E+02-2.19060E+04 3.15386E-10 1.94367E-10
 -1        12-6.67959E+04 1.84772E+04-2.90914E+04-8.87587E+03 6.39545E-10 2.38742E-10
 -1        15 3.46468E+03-1.61646E+04 6.26194E+02-2.83127E+04-1.50067E-10 8.90395E-10
 -1        16-1.85843E+05-2.79648E+04 1.33963E+04-8.63745E+04 1.70379E-10 1.41794E-09
 -1        17-1.14301E+05-7.42248E+04-1.22249E+04-6.22799E+04-8.55228E-10-1.23994E-10
 -1        18-4.96278E+04-2.63089E+04-1.92597E+04-2.92722E+04 6.63022E-10-2.69362E-10
 -1        19-1.30545E+04 1.31285E+04-1.14713E+04-9.08793E+03-2.04598E-10 1.78716E-10
 -1        20 1.90324E+04-1.42876E+04-2.47196E+03 1.03834E+04 3.73575E-10-1.03910E-10
 -1        21 2.56310E+02-2.84959E+04 7.89940E+03 6.06571E+00 3.49752E-09-3.94719E-11
 -1        22 6.33106E+03 3.62301E+04 2.47626E+02-9.13732E+03-1.79966E-10 2.05091E-10
 -1        23-7.19747E+04 3.88893E+03 9.61159E+02-3.16786E+04-3.53604E-10-3.76228E-10
 -1        24-4.29784E+04 7.15572E+03 5.41161E+04-9.10122E+04-3.05439E-09 4.47471E-10
 -1        25 1.12977E+05 3.63502E+04 3.43109E+04-5.65725E+04 2.41206E-10-2.16763E-11
 -1        26 4.66186E+02 3.00853E+04 1.50189E+03-5.54716E+03-1.55950E-10-3.08508E-10
 -1        27-6.64772E+03-1.19549E+04-5.15812E+03 1.44640E+04 2.18885E-10-9.01158E-10
 -1        28-2.27926E+03-2.26194E+04-1.23484E+02 1.09395E+04-7.14124E-10-3.28160E-10
 -1        29 9.06901E+04 6.21860E+04 2.59809E+02-4.39891E+02 1.92701E-10 4.29736E-11
 -1        30 2.62759E+04 9.18589E+03 3.84449E+02-8.34889E+03-3.45637E-10 1.22327E-10
 -1        31-9.99657E+04 7.77457E+03 1.14683E+03-2.36113E+04 1.99768E-09-2.77646E-09
 -1        32 1.57687E+05 8.75560E+04 1.10645E+05-9.29368E+04 2.29937E-09 8.33097E-10
 -1        33 2.64093E+05 1.04729E+05 8.07322E+04-8.10833E+03-5.26784E-09 2.09639E-10
 -1        34-3.83895E+04-4.84656E+03-8.99323E+02 8.33886E+03-1.31743E-10 1.82467E-10
 -1        35-6.45972E+03-7.56940E+03-1.33597E+02 1.63524E+04 1.37577E-09-2.89826E-10
 -1        36-8.18736E+05 2.50814E+04-5.79847E+04 1.41944E-09-7.10168E-10 7.63976E-11
 -1        37-8.43840E+05-2.90343E+04-4.10334E+04 3.71444E-08-4.72580E-11-4.27463E-10
 -1        38-8.28428E+05 3.93160E+03-1.50085E+04 5.19101E-08-2.14990E-11 1.15415E-09
 -1        39-8.32537E+05-4.54974E+03-9.43835E+03-4.27086E-08 5.27486E-10 2.49838E-09
 -1        40-8.30025E+05 6.14943E+02-3.85609E+03-3.06772E-08 4.25615E-11 4.87717E-10
 -1        41-8.30671E+05-7.19743E+02-2.29855E+03-3.56903E-08-9.35641E-10 1.27145E-09
 -1        42-8.30289E+05 1.04376E+02-1.11623E+03-3.30551E-08-5.20000E-10 1.01238E-10
 -1        43-8.30389E+05-1.79702E+02-8.69706E+02 5.18084E-08-2.85159E-10-1.11473E-09
 -1        44-8.30306E+05 7.52516E+01-8.55354E+02 9.97215E-08-5.43271E-10 4.78749E-10
 -1        45-8.30536E+05-4.69327E+02-1.54336E+03 3.53073E-08 3.56223E-10 2.16232E-10
 -1        46-8.30143E+05 3.93804E+02-2.49689E+03-8.13607E-08-5.29107E-10 9.77025E-10
 -1        47-8.31721E+05-2.90547E+03-6.04287E+03-1.97313E-08-8.66259E-10 8.29459E-10
 -1        48-8.29124E+05 2.50961E+03-9.58856E+03 3.01568E-08-1.79160E-09 1.57161E-09
 -1        49-8.38934E+05-1.85322E+04-2.61951E+04-6.98392E-08-2.14732E-09 1.25510E-09
 -1        50-8.22939E+05 1.60085E+04-3.70154E+04-6.89748E-08-1.57223E-09 8.03993E-10
 -1        51 6.69413E+03-7.99636E+04 1.06160E+04-2.08046E+05-3.27418E-11 9.49512E-10
 -1        52 2.65507E+03-7.84488E+04 6.36720E+03-2.29003E+05-1.00044E-11-2.23736E-10
 -1        53 1.43350E+03-7.98555E+04 5.12620E+03-2.07524E+05-1.27329E-11 6.00267E-10
 -1        54 3.59901E+03-7.85731E+04 7.76193E+03-2.29582E+05-9.09495E-11-6.63022E-10
 -1        55 9.40473E+03-8.08635E+04 1.41062E+04-2.07453E+05-9.82254E-11-2.19188E-10
 -1        56-9.14251E+05-1.03343E+05-7.52462E+04-3.53743E+05 1.01863E-10 9.78616E-10
 -1        57-9.49744E+05-1.64363E+05-5.04606E+04-3.44755E+05 3.22871E-10 1.99634E-10
 -1        58-9.28805E+05-1.27118E+05-1.77331E+04-3.49726E+05 3.51520E-10 1.38698E-09
 -1        59-9.32974E+05-1.36361E+05-1.05127E+04-3.49605E+05 5.64341E-10 3.00588E-10
 -1        60-9.30869E+05-1.30402E+05-4.14978E+03-3.49238E+05-4.46789E-11-6.25050E-10
 -1        61-9.30623E+05-1.32484E+05-2.34897E+03-3.50154E+05 1.08400E-10-1.51022E-09
 -1        62-9.31133E+05-1.30878E+05-1.14631E+03-3.49218E+05 7.63691E-11-3.51804E-10
 -1        63-9.30402E+05-1.31946E+05-9.60282E+02-3.50124E+05-1.20338E-10 1.42317E-09
 -1        64-9.31087E+05-1.30928E+05-1.11695E+03-3.49272E+05-4.74415E-10 1.45599E-09
 -1        65-9.30799E+05-1.32267E+05-2.26244E+03-3.49937E+05 6.26876E-12 1.22145E-09
 -1        66-9.30739E+05-1.30568E+05-3.98561E+03-3.49401E+05-2.21917E-10 1.40767E-09
 -1        67-9.33238E+05-1.35801E+05-1.00887E+04-3.49196E+05-8.02430E-10-4.21096E-10
 -1        68-9.28668E+05-1.27507E+05-1.70161E+04-3.49972E+05-1.01863E-10 4.85670E-10
 -1        69-9.49499E+05-1.62498E+05-4.84167E+04-3.44347E+05 2.62162E-10-2.80124E-10
 -1        70-9.14624E+05-1.04776E+05-7.22002E+04-3.53919E+05-1.20053E-10 1.27329E-09
 -1        71-3.89569E+05-8.65767E+02 2.00171E+03 1.25894E-09-4.42866E-10-1.54273E-10
 -1        72-3.88665E+05 1.00219E+03 1.41471E+03-3.58478E-08-2.33719E-10 8.74891E-10
 -1        73-3.89235E+05-1.35631E+02 5.14065E+02-2.59339E-08 2.10130E-10-2.24532E-11
 -1        74-3.89056E+05 1.56338E+02 3.16873E+02 7.93892E-09-6.71631E-10 3.43221E-10
 -1        75-3.89179E+05-2.05951E+01 1.15760E+02 5.04511E-08 1.72082E-10 6.56755E-11
 -1        76-3.89123E+05 1.99936E+01 4.20871E+01 2.91299E-08-4.53303E-10 2.15998E-09
 -1        77-3.89168E+05 6.15898E-01-3.13542E+01-1.31591E-08-6.35371E-10-3.67400E-10
 -1        78-3.89149E+05-2.55710E+01-1.23865E+02 7.06685E-09-1.61726E-10-2.48122E-11
 -1        79-3.89153E+05 2.49444E+01-2.49447E+02-1.49687E-08-4.01344E-10 9.49584E-10
 -1        80-3.89236E+05-1.89194E+02-5.89135E+02 2.93875E-08-2.18039E-10 1.09196E-10
 -1        81-3.89081E+05 1.64135E+02-1.02033E+03 2.78408E-08-4.49889E-10 2.73417E-11
 -1        82-3.89737E+05-1.21717E+03-2.52067E+03 4.33564E-09 3.20485E-11 7.43881E-10
 -1        83-3.88653E+05 1.05217E+03-4.01552E+03-5.78166E-08 2.62986E-10-2.09639E-10
 -1        84-3.92762E+05-7.77048E+03-1.09827E+04 4.39217E-08-2.22790E-10-1.12504E-09
 -1        85-3.86058E+05 6.71228E+03-1.55234E+04-1.05706E-08-5.44992E-10 1.27329E-11
 -1        86-1.78877E+04 4.24881E+04 4.20103E+04 1.85555E+02 3.63798E-12 2.03869E-10
 -1        87 2.22268E+04 6.12382E+04 3.23978E+04-7.68383E+02-9.82254E-11-1.13155E-09
 -1        88-4.32103E+03 4.86875E+04 1.62983E+04 1.53087E+02-1.83718E-10 2.59272E-10
 -1        89 1.46843E+04 5.77387E+04 2.25679E+04-7.29191E+02-7.28733E-11 1.60363E-09
 -1        90-1.03514E+04 4.59859E+04 2.51006E+04 1.46367E+02-2.30102E-10 2.83811E-11
 -1        91-4.11703E+05-5.60622E+04-4.96798E+03-1.55392E+05 4.74756E-10 6.71434E-10
 -1        92-4.14692E+05-6.01990E+04-3.44662E+03-1.54028E+05 9.49854E-10 7.18671E-10
 -1        93-4.12564E+05-5.79906E+04-1.16659E+03-1.55217E+05 2.12140E-10-9.08926E-11
 -1        94-4.13632E+05-5.80220E+04-7.33255E+02-1.54292E+05-2.23565E-10-5.34229E-10
 -1        95-4.12762E+05-5.82377E+04-2.84219E+02-1.55129E+05-1.94511E-11-4.14673E-10
 -1        96-4.13214E+05-5.79173E+04-1.85326E+02-1.54594E+05 1.47026E-10-7.70402E-10
 -1        97-4.12981E+05-5.80953E+04-1.27563E+02-1.54915E+05 2.33737E-10 4.19944E-10
 -1        98-4.12817E+05-5.82865E+04-1.79739E+02-1.55038E+05 1.78439E-10 5.60904E-10
 -1        99-4.13159E+05-5.78685E+04-2.89477E+02-1.54685E+05 3.77781E-10 6.35936E-11
 -1       100-4.12694E+05-5.87769E+04-6.96460E+02-1.55315E+05 6.37066E-10 2.65550E-09
 -1       101-4.13104E+05-5.76049E+04-1.19560E+03-1.54638E+05-1.11356E-10 1.72520E-10
 -1       102-4.13588E+05-6.01648E+04-3.21645E+03-1.55000E+05 4.43762E-10-4.47187E-10
 -1       103-4.12267E+05-5.64815E+04-5.15168E+03-1.55000E+05 7.66249E-11 3.94721E-10
 -1       104-4.19126E+05-6.89864E+04-1.52561E+04-1.52894E+05-2.06171E-10 9.02219E-10
 -1       105-4.07569E+05-4.87897E+04-2.19810E+04-1.56743E+05-6.86668E-11-1.00044E-10
 -1       106-2.24866E+05 4.38662E+02-1.01502E+03-1.47627E-08 3.05527E-10-3.16618E-10
 -1       107-2.25286E+05-5.07875E+02-7.18926E+02-4.09298E-08-8.03998E-11 3.14870E-10
 -1       108-2.25035E+05 6.88104E+01-2.64777E+02 1.00352E-08-2.80907E-10 1.03924E-10
 -1       109-2.25088E+05-7.99362E+01-1.69663E+02 7.92173E-09-2.13458E-10-2.10166E-10
 -1       110-2.25063E+05 1.10689E+01-7.61168E+01-1.68551E-08-1.82778E-10-2.40721E-10
 -1       111-2.25057E+05-1.49842E+01-5.86609E+01 8.79119E-08-8.48761E-11 8.69591E-10
 -1       112-2.25066E+05 3.90766E+00-5.40655E+01 2.74174E-09-3.11959E-10 7.54193E-10
 -1       113-2.25060E+05-1.88229E+01-9.12058E+01 5.08989E-08 5.39053E-11 2.48145E-10
 -1       114-2.25060E+05 1.49075E+01-1.52698E+02 2.32027E-08 9.46340E-12 1.77970E-10
 -1       115-2.25108E+05-1.09563E+02-3.44115E+02-2.73076E-08 5.96473E-11-2.24887E-11
 -1       116-2.25018E+05 9.45899E+01-5.89887E+02-1.18455E-08-9.27499E-11 7.30722E-10
 -1       117-2.25396E+05-7.00936E+02-1.45276E+03 2.01888E-08-2.98895E-10 3.92305E-10
 -1       118-2.24772E+05 6.05842E+02-2.31300E+03-3.37673E-08-5.85387E-10 4.20414E-10
 -1       119-2.27138E+05-4.47421E+03-6.32446E+03-1.93713E-08 7.98158E-12 5.33873E-10
 -1       120-2.23278E+05 3.86490E+03-8.93893E+03 2.18640E-08-3.81516E-11-3.31966E-10
 -1       121-3.16413E+02-1.98014E+05 1.50260E+03 1.99087E+03-5.68434E-11-2.17653E-10
 -1       122 4.67898E+02-1.97452E+05 1.05799E+03 7.13291E+03-1.41256E-10 7.99218E-10
 -1       123-5.45946E+01-1.97813E+05 6.25671E+02 2.00291E+03-2.21078E-10 4.43379E-11
 -1       124 3.42293E+02-1.97522E+05 8.32996E+02 7.09043E+03-4.65093E-10-1.88038E-10
 -1       125-2.23159E+02-1.97937E+05 1.07254E+03 2.03336E+03-4.94992E-10 1.54159E-10
 -1       126-1.95173E+05-2.71169E+04-7.72066E+02-7.32867E+04 3.30317E-10 4.16435E-10
 -1       127-1.95452E+05-2.79316E+04-5.35911E+02-7.32690E+04 5.41876E-09-2.69517E-09
 -1       128-1.95350E+05-2.73735E+04-1.82002E+02-7.32102E+04 1.96169E-06-7.34646E-07
 -1       129-1.95247E+05-2.76340E+04-1.15417E+02-7.33564E+04 3.91244E-06-1.46857E-06
 -1       130-1.95378E+05-2.74143E+04-4.69708E+01-7.31994E+04 1.96134E-06-7.36588E-07
 -1       131-1.95233E+05-2.75714E+04-3.58568E+01-7.33492E+04 6.27364E-09-3.20473E-09
 -1       132-1.95364E+05-2.74361E+04-3.19428E+01-7.32174E+04 1.22000E-11 6.07123E-10
 -1       133-1.95283E+05-2.75288E+04-5.83907E+01-7.32945E+04 6.71302E-10 4.08292E-10
 -1       134-1.95328E+05-2.74570E+04-9.96346E+01-7.32540E+04-1.02630E-09-6.29505E-10
 -1       135-1.95393E+05-2.75449E+04-2.45902E+02-7.32094E+04-1.78205E-10 2.71612E-10
 -1       136-1.95254E+05-2.74200E+04-4.24004E+02-7.33025E+04-7.90706E-10 2.25782E-10
 -1       137-1.95748E+05-2.80022E+04-1.14180E+03-7.30568E+04-1.82602E-08 6.62537E-09
 -1       138-1.94974E+05-2.70001E+04-1.82804E+03-7.34067E+04-6.99146E-06 2.62166E-06
 -1       139-1.97624E+05-3.12267E+04-5.41616E+03-7.24169E+04-1.39359E-05 5.22917E-06
 -1       140-1.93378E+05-2.41976E+04-7.80118E+03-7.39417E+04-6.99589E-06 2.62308E-06
 -1       141-1.06501E+05-6.79216E+02 1.57022E+03 8.26655E-08 1.43789E-10-4.08477E-10
 -1       142-1.05809E+05 7.86208E+02 1.10926E+03 7.96773E-08 1.03259E-11-8.21728E-10
 -1       143-1.06238E+05-1.06374E+02 4.01889E+02-4.76906E-08-1.29224E-10-7.99332E-10
 -1       144-1.06116E+05 1.22398E+02 2.45464E+02-7.79406E-08-8.31204E-11-2.03936E-10
 -1       145-1.06194E+05-1.59353E+01 8.47274E+01 2.70820E-08-7.31396E-11 1.55836E-10
 -1       146-1.06170E+05 1.39844E+01 1.99353E+01-8.51141E-08-2.68424E-11-6.05311E-10
 -1       147-1.06184E+05 1.96194E+00-4.91441E+01-1.86379E-08-4.06829E-11 6.90299E-10
 -1       148-1.06195E+05-3.11986E+01-1.51206E+02 2.37998E-08 3.81483E-11 8.04192E-10
 -1       149-1.06168E+05 2.92236E+01-2.93642E+02-7.64454E-08-8.40801E-11 3.83295E-10
 -1       150-1.06296E+05-2.20419E+02-6.87644E+02 4.42696E-08-1.79694E-11-7.70498E-10
 -1       151-1.06084E+05 1.91064E+02-1.18878E+03-2.61006E-08-5.61752E-11 4.77257E-10
 -1       152-1.06879E+05-1.41666E+03-2.93486E+03-3.62146E-08-1.00489E-10-3.20881E-10
 -1       153-1.05585E+05 1.22459E+03-4.67486E+03 1.24406E-08 4.43309E-10-4.08136E-10
 -1       154-1.10399E+05-9.04386E+03-1.27839E+04-3.64212E-08 1.48245E-10 2.74667E-10
 -1       155-1.02564E+05 7.81223E+03-1.80683E+04-5.01034E-09 1.24399E-09 6.63022E-10
 -1       156-3.47092E+03-3.66996E+04 8.26243E+03-9.16263E+01-5.09317E-10 2.33859E-05
 -1       157 4.56939E+03-3.29328E+04 6.82403E+03 3.71399E+02-1.97247E-09 4.65609E-05
 -1       158-1.09489E+03-3.56227E+04 4.12955E+03-9.07840E+01-2.81361E-10 2.33694E-05
 -1       159 4.78334E+03-3.28310E+04 7.10312E+03 3.61932E+02 1.61435E-11 6.81606E-08
 -1       160-3.68475E+03-3.68014E+04 8.74087E+03-8.21588E+01 1.05956E-10 4.32394E-09
 -1       161-1.11320E+05-1.55466E+04-2.58670E+02-4.17807E+04 1.12701E-06-4.22152E-07
 -1       162-1.11418E+05-1.58111E+04-1.80556E+02-4.17645E+04 2.24231E-06-8.39835E-07
 -1       163-1.11374E+05-1.56379E+04-6.32363E+01-4.17615E+04-1.02991E-06 3.86673E-07
 -1       164-1.11358E+05-1.57043E+04-4.40158E+01-4.17848E+04-4.31387E-06 1.61813E-06
 -1       165-1.11381E+05-1.56533E+04-2.62144E+01-4.17605E+04-7.78646E-06 2.91943E-06
 -1       166-1.11355E+05-1.56876E+04-3.63213E+01-4.17820E+04-1.12584E-05 4.22261E-06
 -1       167-1.11376E+05-1.56546E+04-5.67671E+01-4.17642E+04-1.34768E-05 5.05255E-06
 -1       168-1.11381E+05-1.57079E+04-1.30099E+02-4.17699E+04-1.56662E-05 5.87654E-06
 -1       169-1.11356E+05-1.56330E+04-2.34931E+02-4.17727E+04-7.84770E-06 2.94305E-06
 -1       170-1.11508E+05-1.58911E+04-5.90086E+02-4.17273E+04-4.15152E-08 1.60881E-08
 -1       171-1.11249E+05-1.54715E+04-1.01910E+03-4.18067E+04-6.79900E-06 2.55034E-06
 -1       172-1.12239E+05-1.71109E+04-2.74771E+03-4.14961E+04-1.35679E-05 5.09032E-06
 -1       173-1.10624E+05-1.44139E+04-4.39920E+03-4.20037E+04-1.06606E-05 3.99631E-06
 -1       174-1.16699E+05-2.49257E+04-1.30341E+04-4.00192E+04-7.71703E-06 2.89464E-06
 -1       175-1.06790E+05-7.66178E+03-1.87726E+04-4.32818E+04-3.86657E-06 1.44835E-06
 -1       191 2.09010E+02 1.01173E+05 3.33122E+02-2.13588E+03-1.26875E-10 1.13482E-09
 -1       192 7.79879E+01 1.01218E+05 1.99456E+02-2.27200E+03-1.69450E-10 3.35604E-10
 -1       193 3.80327E+01 1.01189E+05 1.61174E+02-2.09328E+03-3.32108E-10-6.39375E-10
 -1       194 1.02843E+02 1.01225E+05 2.44541E+02-2.35259E+03-3.81931E-10 5.29212E-10
 -1       195 2.86373E+02 1.01164E+05 4.45272E+02-2.05522E+03-4.91582E-10 8.64020E-11
 -1       251-5.39453E+05 1.29169E+04-2.98709E+04-7.52163E+02 7.67741E-12-9.20409E-10
 -1       252-5.52320E+05-1.49509E+04-2.11273E+04 1.07519E+03 1.05608E-10 5.40012E-10
 -1       253-5.44484E+05 2.02237E+03-7.74325E+03-2.29030E+02-5.27578E-10-6.57565E-10
 -1       254-5.46471E+05-2.34048E+03-4.85250E+03-1.62506E+02-3.14799E-10-2.38003E-09
 -1       255-5.45296E+05 3.15533E+02-2.00439E+03 4.85550E+02-1.07979E-09 4.10409E-10
 -1       256-5.45557E+05-3.73391E+02-1.20171E+03-1.24904E+03-4.45588E-10-8.00668E-10
 -1       257-5.45397E+05 5.78084E+01-6.18687E+02 8.57527E+02 2.38436E-11 1.20465E-10
 -1       258-5.45432E+05-1.12739E+02-5.40691E+02-1.37125E+03-7.43383E-10-1.67518E-09
 -1       259-5.45422E+05 5.52724E+01-6.20695E+02 6.07762E+02-4.18666E-10 4.15284E-10
 -1       260-5.45516E+05-3.67919E+02-1.18418E+03-4.37948E+02-4.73650E-10 2.56318E-09
 -1       261-5.45312E+05 3.11652E+02-1.99065E+03-7.57951E+01 2.43929E-11 4.00291E-10
 -1       262-5.46478E+05-2.32145E+03-4.81462E+03 8.49377E+02 7.97634E-10-1.72577E-10
 -1       263-5.44461E+05 2.00768E+03-7.67051E+03-6.79585E+02-1.02023E-10-1.06957E-09
 -1       264-5.52291E+05-1.48238E+04-2.09521E+04 1.52273E+03-1.40536E-09 8.49241E-10
 -1       265-5.39505E+05 1.28053E+04-2.96146E+04-7.49155E+02-1.49413E-09 3.98359E-10
 -1       266-4.48959E+03-9.10344E+04 1.01539E+04 6.08303E+02-7.27596E-12-7.35980E-11
 -1       267 4.76736E+03-8.65921E+04 6.43141E+03-2.13376E+03 6.36646E-12-5.88008E-10
 -1       268-2.72025E+02-8.90175E+04 1.02915E+03 7.08048E+02-2.11458E-11-3.57481E-10
 -1       269-2.41917E+03-8.99611E+04-2.93764E+03-2.20047E+03 8.98126E-12 1.37880E-09
 -1       270 2.69211E+03-8.76673E+04-5.93876E+03 6.75006E+02 4.54747E-13 2.18459E-09
 -1       271-7.67353E+05-9.74431E+04-5.93228E+04-2.96511E+05-2.24645E-10-8.07631E-10
 -1       272-7.86089E+05-1.36535E+05-3.71910E+04-2.98965E+05-2.29448E-10-1.98634E-09
 -1       273-7.77519E+05-1.10261E+05-1.39930E+04-2.95149E+05-3.84759E-10-1.41608E-09
 -1       274-7.74345E+05-1.19575E+05-7.64069E+03-3.01559E+05 3.77895E-10 8.94715E-11
 -1       275-7.78703E+05-1.11552E+05-3.25380E+03-2.94992E+05-9.08472E-10-1.19257E-09
 -1       276-7.72969E+05-1.17922E+05-1.71687E+03-3.01854E+05 3.83125E-11 8.04562E-10
 -1       277-7.78871E+05-1.11663E+05-8.82245E+02-2.94954E+05-5.66729E-11 3.86763E-10
 -1       278-7.72794E+05-1.17800E+05-6.88393E+02-3.01912E+05 1.18575E-10-1.90440E-10
 -1       279-7.78882E+05-1.11655E+05-8.21099E+02-2.94944E+05-7.01590E-11-2.89049E-10
 -1       280-7.72921E+05-1.17934E+05-1.54969E+03-3.01897E+05 3.61084E-10 7.19183E-10
 -1       281-7.78746E+05-1.11542E+05-2.91134E+03-2.94963E+05-1.00101E-10 1.78261E-10
 -1       282-7.74129E+05-1.19433E+05-6.82567E+03-3.01663E+05-8.23093E-11 7.53062E-10
 -1       283-7.77700E+05-1.10379E+05-1.24926E+04-2.95092E+05-8.56062E-11-3.80169E-10
 -1       284-7.84594E+05-1.34594E+05-3.32032E+04-2.99372E+05 1.01863E-10-5.73436E-10
 -1       285-7.68635E+05-9.89249E+04-5.29596E+04-2.96296E+05-1.53705E-10 7.53062E-10
 -1       286-1.25092E+05-3.32467E+03 7.68801E+03-4.66426E+01 2.56914E-10-1.38425E-09
 -1       287-1.21723E+05 3.84890E+03 5.44335E+03-6.84998E+01 3.91296E-11-5.33134E-10
 -1       288-1.23806E+05-5.21331E+02 1.99007E+03 1.90580E+01 1.48029E-10 2.83876E-10
 -1       289-1.23224E+05 6.03323E+02 1.25512E+03-1.91106E+02-4.72724E-11-3.47697E-10
 -1       290-1.23591E+05-8.16644E+01 5.13659E+02 7.59668E+01 3.98970E-12-3.84460E-10
 -1       291-1.23476E+05 9.61647E+01 3.11608E+02-2.84681E+02 4.39375E-10-3.73038E-10
 -1       292-1.23554E+05-1.44441E+01 1.58926E+02 1.12634E+02 2.36009E-10 4.56204E-11
 -1       293-1.23515E+05 2.87138E+01 1.39547E+02-3.30783E+02-8.53340E-11-8.58669E-10
 -1       294-1.23553E+05-1.41915E+01 1.57081E+02 1.22070E+02 2.76906E-10-2.31402E-10
 -1       295-1.23480E+05 9.41949E+01 3.05257E+02-3.20627E+02 2.58105E-10 8.20428E-10
 -1       296-1.23588E+05-7.98968E+01 5.03572E+02 1.02478E+02 2.83953E-10 4.05265E-10
 -1       297-1.23234E+05 5.90620E+02 1.22831E+03-2.56177E+02 3.84915E-10 3.52316E-10
 -1       298-1.23799E+05-5.10338E+02 1.94868E+03 5.76190E+01 1.30703E-10 7.49992E-10
 -1       299-1.21762E+05 3.76814E+03 5.32890E+03-1.50207E+02 2.00941E-11-9.18590E-11
 -1       300-1.25059E+05-3.25494E+03 7.52671E+03-3.49468E+00 3.70189E-10-4.12001E-10
 -1       301 1.04828E+04 2.56530E+03 2.35406E+04-7.66717E+03-1.68257E-10 2.95984E-10
 -1       302 3.54686E+03 7.01416E+03 1.44592E+04-9.02098E+03-2.25555E-10-2.98149E-10
 -1       303 9.71135E+02 4.14627E+03 1.16225E+04-7.66382E+03-1.82126E-10-1.07224E-09
 -1       304 4.61191E+03 7.65583E+03 1.73482E+04-9.01318E+03-2.58296E-10-5.89353E-10
 -1       305 1.39234E+04 1.92487E+03 3.05367E+04-7.67337E+03-1.38243E-10 1.27056E-09
 -1       306-5.06912E+05-6.66789E+04-3.27770E+04-1.96482E+05-6.47333E-10-3.11775E-09
 -1       307-5.13892E+05-9.16111E+04-2.05444E+04-2.01673E+05 4.23768E-11-8.49468E-10
 -1       308-5.12546E+05-7.37351E+04-7.73360E+03-1.95711E+05-1.19030E-10-7.86713E-10
 -1       309-5.07396E+05-8.22644E+04-4.22468E+03-2.03134E+05 1.09594E-10-1.63857E-09
 -1       310-5.13204E+05-7.44439E+04-1.80488E+03-1.95623E+05 4.00405E-10 6.49266E-10
 -1       311-5.06641E+05-8.13503E+04-9.63313E+02-2.03299E+05 5.49903E-10 2.17621E-09
 -1       312-5.13294E+05-7.45069E+04-5.17543E+02-1.95605E+05 6.86668E-11-1.27631E-11
 -1       313-5.06557E+05-8.12765E+04-4.46042E+02-2.03321E+05 1.86751E-10 7.36577E-10
 -1       314-5.13289E+05-7.45070E+04-5.86624E+02-1.95607E+05-2.00316E-10 7.00936E-10
 -1       315-5.06670E+05-8.13675E+04-1.15344E+03-2.03290E+05-5.20117E-11 7.53744E-11
 -1       316-5.13177E+05-7.44294E+04-2.19142E+03-1.95628E+05-2.53522E-11-4.55884E-10
 -1       317-5.07592E+05-8.24865E+04-5.14954E+03-2.03093E+05 1.86162E-10 3.11502E-11
 -1       318-5.12378E+05-7.35608E+04-9.43147E+03-1.95732E+05 5.57634E-11 4.69299E-10
 -1       319-5.15506E+05-9.39038E+04-2.50624E+04-2.01329E+05-1.31802E-10-7.03949E-10
 -1       320-5.05515E+05-6.49393E+04-3.99818E+04-1.96660E+05-4.29736E-10 1.47338E-10
 -1       321-1.29914E+05-3.06544E+03 7.08991E+03-3.64924E+01-3.74365E-10-6.18911E-10
 -1       322-1.26819E+05 3.54879E+03 5.01696E+03-2.92781E+01-4.08062E-10-3.74200E-10
 -1       323-1.28729E+05-4.80566E+02 1.83412E+03 6.88458E-01-1.07931E-11-4.70209E-10
 -1       324-1.28201E+05 5.55943E+02 1.15254E+03-9.97856E+01 1.25509E-10-1.39153E-10
 -1       325-1.28532E+05-7.50151E+01 4.66959E+02 3.40169E+01-7.33191E-11 1.14852E-10
 -1       326-1.28431E+05 8.66905E+01 2.71683E+02-1.55570E+02-8.03833E-11 1.61688E-09
 -1       327-1.28498E+05-1.16313E+01 1.18153E+02 5.64740E+01-2.61269E-10 1.02276E-09
 -1       328-1.28471E+05 1.35732E+01 6.59664E+01-1.85203E+02-7.57557E-11 8.88205E-11
 -1       329-1.28492E+05-1.92149E+00 3.12490E+01 6.36501E+01-1.01942E-11-3.71330E-11
 -1       330-1.28477E+05 3.28778E+00 1.97761E+01-1.82852E+02-2.12206E-10-8.48322E-10
 -1       331-1.28492E+05-1.35267E+00 1.41050E+01 5.41228E+01-1.87424E-10-4.56253E-11
 -1       332-1.28474E+05 8.44100E+00 2.09806E+01-1.48973E+02-1.66534E-10 1.65894E-11
 -1       333-1.28496E+05-7.09494E+00 2.83280E+01 2.97708E+01-9.50902E-11-1.21352E-10
 -1       334-1.28452E+05 5.20250E+01 7.47785E+01-9.02091E+01 1.08602E-10-3.38514E-10
 -1       335-1.28514E+05-4.49311E+01 1.03414E+02-4.64217E+00-1.85889E-10 2.99480E-10
 -1       336-1.38040E+02-2.01178E+05 3.66757E+02-2.51590E+03-7.42375E-10-3.20870E-09
 -1       337 2.56726E+01-2.01069E+05-4.69251E+02-9.10579E+03-1.51979E-09-2.32944E-09
 -1       338 1.32052E+02-2.00961E+05-1.54451E+03-2.48735E+03-9.65031E-10-2.69824E-09
 -1       339-2.01900E+03-2.02316E+05-4.19194E+03-9.13923E+03-1.61486E-09-4.87262E-10
 -1       340 1.45998E+03-1.99939E+05-6.72141E+03-2.48267E+03-9.54060E-10 8.00128E-10
 -1       341-3.12571E+05-4.13428E+04-1.33212E+04-1.21770E+05 7.90396E-09 1.11640E-09
 -1       342-3.18996E+05-4.39289E+04-7.76213E+03-1.08899E+05 4.39741E-09 2.29761E-10
 -1       343-3.09900E+05-4.71880E+04-3.02612E+03-1.22445E+05-4.37666E-09-3.58750E-09
 -1       344-3.21122E+05-3.73972E+04-1.65983E+03-1.08419E+05 1.47712E-08 1.62242E-09
 -1       345-3.10502E+05-4.78259E+04-8.16187E+02-1.22297E+05 1.62886E-08 3.02180E-10
 -1       346-3.15167E+05-3.83311E+04 4.65619E+02-1.10109E+05-5.96879E-09-1.20092E-09
 -1       347-3.15791E+05-4.63029E+04-1.04724E+03-1.20706E+05 4.49631E-11-6.17490E-10
 -1       348-3.06796E+05-4.31109E+04 1.27843E+03-1.15308E+05 6.31226E-09-1.75949E-09
 -1       349-3.18812E+05-4.30925E+04-1.20425E+03-1.17051E+05-3.92492E-09-5.70321E-10
 -1       350-3.04737E+05-4.93746E+04-1.55580E+02-1.22489E+05 5.02109E-09-3.59081E-09
 -1       351-3.17914E+05-3.99905E+04-1.82568E+03-1.13574E+05-1.33338E-09-3.62138E-09
 -1       352-3.06720E+05-5.41646E+04-4.45908E+03-1.25663E+05-1.64377E-08-9.79497E-09
 -1       353-3.16891E+05-3.82564E+04-7.53653E+03-1.13924E+05 6.37226E-09 2.66937E-10
 -1       354-3.13365E+05-6.42736E+04-2.10376E+04-1.19562E+05-5.47118E-09-1.15301E-09
 -1       355-3.11210E+05-2.99388E+04-3.25155E+04-1.19625E+05-2.40561E-10-4.76575E-10
 -1       356-1.35112E+05 2.12001E+02-4.91568E+02-2.84358E+01-1.53869E-10-2.13220E-10
 -1       357-1.35311E+05-2.45538E+02-3.49319E+02-3.55395E+00-4.35799E-10 1.69674E-10
 -1       358-1.35194E+05 3.33272E+01-1.32263E+02-6.17256E+00-1.92656E-10-1.03145E-09
 -1       359-1.35216E+05-3.93219E+01-9.05894E+01-4.67124E+01 1.20200E-10-3.86287E-10
 -1       360-1.35206E+05 5.95297E+00-5.37356E+01 1.47233E+01-4.08695E-12-4.53593E-10
 -1       361-1.35204E+05-1.19269E+01-6.42849E+01-8.28722E+01-2.54055E-09 8.35945E-11
 -1       362-1.35205E+05 5.96425E+00-9.36988E+01 2.99879E+01-7.77975E-07 9.12852E-10
 -1       363-1.35222E+05-3.97766E+01-1.92698E+02-1.04612E+02-1.55073E-06-9.15563E-10
 -1       364-1.35189E+05 3.37991E+01-3.43235E+02 3.64639E+01-5.09589E-07 8.14779E-10
 -1       365-1.35334E+05-2.51213E+02-7.86646E+02-1.07459E+02 5.33429E-07-4.20016E-10
 -1       366-1.35094E+05 2.17269E+02-1.35359E+03 3.28351E+01 2.68601E-07-2.80068E-10
 -1       367-1.35996E+05-1.61038E+03-3.33706E+03-9.07839E+01 1.09711E-09-1.00044E-11
 -1       368-1.34527E+05 1.39197E+03-5.31433E+03 1.97880E+01 5.65648E-10-3.54476E-10
 -1       369-1.39996E+05-1.02799E+04-1.45311E+04-5.74343E+01 1.61598E-10-1.26670E-09
 -1       370-1.31093E+05 8.87998E+03-2.05377E+04-5.14648E-01 1.49280E-09 1.83718E-10
 -1       371-3.46986E+03-3.93011E+04 7.87022E+03 2.55427E+02 3.35604E-10 2.83151E-10
 -1       372 3.67547E+03-3.59732E+04 4.95050E+03-1.00075E+03 5.81053E-10 3.32079E-10
 -1       373-2.02334E+02-3.77872E+04 7.64550E+02 2.64586E+02 4.54293E-10 1.10465E-10
 -1       374-1.94192E+03-3.85635E+04-2.36847E+03-9.94087E+02 5.17559E-10-4.64997E-10
 -1       375 2.14296E+03-3.67108E+04-4.72657E+03 2.48758E+02 2.60798E-10 4.61995E-10
 -1       376-1.87055E+05-2.35268E+04-7.18116E+03-7.14306E+04 8.66862E-10-1.66619E-09
 -1       377-1.90874E+05-3.00843E+04-4.98663E+03-7.01270E+04-1.81103E-10-2.64549E-10
 -1       378-1.88540E+05-2.60908E+04-1.68600E+03-7.09206E+04 2.59604E-10-3.40947E-10
 -1       379-1.89131E+05-2.71332E+04-1.05814E+03-7.07342E+04-3.69589E-10 1.35201E-09
 -1       380-1.88797E+05-2.64760E+04-4.04672E+02-7.08240E+04 7.47917E-11 7.33294E-10
 -1       381-1.88824E+05-2.67041E+04-2.59669E+02-7.08584E+04 9.01706E-09-3.89964E-09
 -1       382-1.88847E+05-2.65196E+04-1.54754E+02-7.07964E+04 3.27889E-06-1.22942E-06
 -1       383-1.88784E+05-2.66866E+04-2.05187E+02-7.08878E+04 6.54158E-06-2.45256E-06
 -1       384-1.88837E+05-2.64935E+04-3.05463E+02-7.07946E+04 3.27939E-06-1.22870E-06
 -1       385-1.88926E+05-2.69048E+04-7.28367E+02-7.08449E+04 9.25915E-09-4.45709E-09
 -1       386-1.88705E+05-2.63015E+04-1.24460E+03-7.08393E+04 2.52982E-10 1.90312E-10
 -1       387-1.89831E+05-2.83717E+04-3.34603E+03-7.05453E+04 9.09495E-13 7.28733E-10
 -1       388-1.87932E+05-2.50276E+04-5.35467E+03-7.10939E+04 7.46013E-10-5.98220E-10
 -1       389-1.95289E+05-3.78517E+04-1.58629E+04-6.87128E+04 2.67846E-10 4.32919E-10
 -1       390-1.83249E+05-1.68277E+04-2.28464E+04-7.26700E+04 6.67114E-10-1.72804E-11
 -1       406 2.33802E+02 1.00254E+05 5.14276E+02-7.13856E+03-6.74845E-10-3.39696E-10
 -1       407 1.55174E+02 1.00348E+05 6.37004E+02-7.81980E+03-7.96263E-10-6.70184E-10
 -1       408 2.60543E+02 1.00237E+05 1.05972E+03-7.10348E+03-8.18773E-10-2.43062E-10
 -1       409 1.05233E+03 1.00649E+05 2.28073E+03-7.87429E+03-9.92657E-10 6.02540E-12
 -1       410 3.03869E+03 9.99491E+04 4.60214E+03-7.08338E+03-9.44056E-10-2.65572E-10
 -1       466 3.96243E+05-1.60379E+04 3.70775E+04 8.74106E+02 2.33953E-10 1.33514E-09
 -1       467 4.12486E+05 1.85638E+04 2.62674E+04-1.56720E+03 2.27738E-10 4.54747E-10
 -1       468 4.02511E+05-2.51211E+03 9.61144E+03 3.12162E+02 4.30294E-10 6.75300E-10
 -1       469 4.05185E+05 2.90794E+03 6.06279E+03-7.66353E+02 2.80764E-10 1.26374E-09
 -1       470 4.03546E+05-3.93858E+02 2.50718E+03 7.32699E+01 2.47953E-10 2.06683E-10
 -1       471 4.03985E+05 4.69975E+02 1.55427E+03-4.31150E+02-2.51253E-10-7.20547E-10
 -1       472 4.03712E+05-7.57738E+01 8.68855E+02-2.30465E+01-1.09232E-10-8.10019E-13
 -1       473 4.03838E+05 1.84348E+02 8.95254E+02-3.12147E+02 2.76271E-11-5.25546E-10
 -1       474 4.03693E+05-1.08388E+02 1.16079E+03-4.57348E+01 1.24271E-10-7.31518E-10
 -1       475 4.04133E+05 7.50152E+02 2.39854E+03-3.24333E+02 2.95795E-10 1.89857E-11
 -1       476 4.03416E+05-6.41209E+02 4.02758E+03-1.08607E+01 5.17044E-10-8.84484E-10
 -1       477 4.06081E+05 4.74516E+03 9.85575E+03-4.76679E+02 5.14962E-10-2.80693E-10
 -1       478 4.01743E+05-4.10041E+03 1.56721E+04 1.06615E+02 2.84395E-11-2.67391E-10
 -1       479 4.17886E+05 3.02850E+04 4.28276E+04-8.85991E+02 4.30377E-10-7.04858E-11
 -1       480 3.91608E+05-2.61593E+04 6.05291E+04 3.98444E+02 1.56051E-09 7.02130E-10
 -1       481-3.02222E+03 6.13284E+04 7.03296E+03-1.59431E+02 3.36513E-11-1.86304E-10
 -1       482 3.62174E+03 6.44654E+04 5.19802E+03 3.10462E+02-3.09228E-11 1.28255E-09
 -1       483-5.97129E+02 6.24460E+04 2.24990E+03-1.08161E+02-4.08136E-11 7.32896E-10
 -1       484 1.47909E+03 6.34629E+04 2.40466E+03 2.21947E+02-4.14282E-11-2.34595E-10
 -1       485-8.81072E+02 6.23306E+04 2.23371E+03-7.09171E+01 1.56888E-11-4.79137E-10
 -1       486-3.68920E+05-3.92284E+04-3.48099E+04-1.45661E+05 3.16504E-10 2.05546E-10
 -1       487-3.89743E+05-6.86925E+04-2.41567E+04-1.36678E+05 1.21645E-09 5.16593E-10
 -1       488-3.76147E+05-5.16636E+04-8.16964E+03-1.43202E+05-1.40517E-10-8.12634E-10
 -1       489-3.80591E+05-5.48919E+04-5.05373E+03-1.40178E+05 9.61734E-10-4.33602E-10
 -1       490-3.78065E+05-5.30223E+04-1.94821E+03-1.42160E+05 6.61885E-10-6.95763E-11
 -1       491-3.77809E+05-5.39944E+04-1.07398E+03-1.42152E+05-5.99272E-11-2.06242E-10
 -1       492-3.78926E+05-5.25607E+04-5.43450E+02-1.41227E+05 5.45256E-10 9.06610E-10
 -1       493-3.76711E+05-5.48164E+04-4.22025E+02-1.43523E+05 7.82094E-11 1.28503E-09
 -1       494-3.79166E+05-5.21971E+04-4.71927E+02-1.40792E+05-4.61448E-10 5.91768E-10
 -1       495-3.76834E+05-5.51227E+04-9.78928E+02-1.43545E+05 1.71582E-10 1.10936E-09
 -1       496-3.78804E+05-5.22543E+04-1.67129E+03-1.41206E+05 6.05866E-10 6.22663E-10
 -1       497-3.78834E+05-5.60144E+04-4.34770E+03-1.41951E+05 7.37103E-10 1.38016E-10
 -1       498-3.77163E+05-5.13097E+04-7.07983E+03-1.42383E+05 7.95467E-10-8.75843E-10
 -1       499-3.87399E+05-6.71218E+04-2.08007E+04-1.38001E+05-7.35326E-10-1.19235E-09
 -1       500-3.70244E+05-4.11547E+04-3.00418E+04-1.45155E+05-1.31377E-09 1.39335E-09
 -1       501-1.22311E+05-6.17215E+03 1.42726E+04-1.49366E+01 2.75623E-10 2.93767E-10
 -1       502-1.16071E+05 7.14529E+03 1.01033E+04-1.74510E+02 1.40980E-10-6.10498E-11
 -1       503-1.19922E+05-9.67673E+02 3.69172E+03 6.46196E+01 5.23492E-11 1.54159E-10
 -1       504-1.18860E+05 1.11940E+03 2.32189E+03-3.16015E+02-1.11783E-10-6.43780E-10
 -1       505-1.19523E+05-1.51017E+02 9.40394E+02 1.26573E+02 6.08491E-11-1.15091E-09
 -1       506-1.19330E+05 1.74647E+02 5.48220E+02-4.09436E+02-3.70429E-09-2.78128E-10
 -1       507-1.19453E+05-2.34541E+01 2.40087E+02 1.58042E+02-1.25685E-06-1.28992E-09
 -1       508-1.19410E+05 2.82445E+01 1.37460E+02-4.35988E+02-2.50585E-06-8.31291E-10
 -1       509-1.19443E+05-4.65340E+00 7.11745E+01 1.53125E+02-1.25734E-06-1.71212E-09
 -1       510-1.19415E+05 1.28482E+01 6.01122E+01-3.90665E+02-4.19053E-09 4.59158E-11
 -1       511-1.19448E+05-8.15665E+00 6.09169E+01 1.12719E+02 9.24008E-11 3.07097E-10
 -1       512-1.19385E+05 5.69006E+01 1.26742E+02-2.81748E+02 1.73849E-10 3.49131E-10
 -1       513-1.19472E+05-4.88478E+01 1.86503E+02 4.42057E+01-3.31198E-10-3.93328E-10
 -1       514-1.19238E+05 3.58857E+02 5.11849E+02-1.29105E+02 2.32250E-11-1.50635E-10
 -1       515-1.19594E+05-3.10007E+02 7.12554E+02-3.99271E+01 1.61080E-11 4.57021E-11
 -1       516-1.46655E+04 9.25213E+04 3.43405E+04-1.44059E+02-1.61890E-10 6.53612E-10
 -1       517 1.79769E+04 1.07766E+05 2.60498E+04 3.87440E+02-2.88537E-10 1.24117E-09
 -1       518-3.29729E+03 9.77046E+04 1.24352E+04-2.07372E+02-3.80851E-10 1.29535E-09
 -1       519 1.01894E+04 1.04195E+05 1.59052E+04 5.55510E+02-3.18551E-10 2.51404E-10
 -1       520-6.88504E+03 9.60917E+04 1.68651E+04-3.12129E+02-4.75666E-10-1.51710E-09
 -1       521-7.52216E+05-9.71391E+04-5.13180E+04-2.90202E+05-5.66615E-10-2.91038E-10
 -1       522-7.66998E+05-1.32366E+05-3.21710E+04-2.93947E+05-8.56971E-10-3.25417E-09
 -1       523-7.61013E+05-1.08220E+05-1.21045E+04-2.89018E+05-3.64153E-10 1.28239E-10
 -1       524-7.56841E+05-1.17698E+05-6.61075E+03-2.96195E+05 1.80421E-10 7.53289E-10
 -1       525-7.62035E+05-1.09339E+05-2.81624E+03-2.88885E+05 2.69324E-10 9.72591E-10
 -1       526-7.55661E+05-1.16258E+05-1.48975E+03-2.96438E+05-2.12793E-10-6.08026E-10
 -1       527-7.62172E+05-1.09443E+05-7.72119E+02-2.88861E+05-1.04507E-10 9.26050E-11
 -1       528-7.55529E+05-1.16133E+05-6.15586E+02-2.96463E+05-4.44977E-10-6.33975E-10
 -1       529-7.62168E+05-1.09449E+05-7.50970E+02-2.88866E+05-1.09014E-09-2.14061E-09
 -1       530-7.55672E+05-1.16232E+05-1.43132E+03-2.96414E+05-3.24178E-10-8.87439E-10
 -1       531-7.62025E+05-1.09361E+05-2.69725E+03-2.88900E+05-4.95675E-11-1.99861E-10
 -1       532-7.56821E+05-1.17589E+05-6.32597E+03-2.96155E+05-8.93010E-11-1.50521E-10
 -1       533-7.61035E+05-1.08303E+05-1.15811E+04-2.89041E+05 1.68825E-11 4.32010E-10
 -1       534-7.66564E+05-1.31594E+05-3.07775E+04-2.93972E+05-1.30740E-10 1.92358E-10
 -1       535-7.52602E+05-9.77184E+04-4.90953E+04-2.90190E+05-4.16094E-10 3.78350E-10
 -1       536 8.75037E+03-2.75295E+03 1.27174E+04-2.23137E+03 2.78760E-10-6.40284E-10
 -1       537 1.32934E+04 3.84447E+03 8.09023E+03-7.85081E+03-8.23093E-10-1.92472E-10
 -1       538 1.06492E+04-2.79286E+02 3.28975E+03-2.20219E+03-4.38831E-11-1.35515E-10
 -1       539 1.11724E+04 3.61834E+02 1.82410E+03-7.88150E+03 2.22258E-10-1.76897E-10
 -1       540 1.08568E+04-3.14818E+01 8.28388E+02-2.20028E+03 1.29603E-10-5.34953E-10
 -1       541 1.09287E+04 3.32195E+01 4.33746E+02-7.88276E+03-2.30784E-10-3.35319E-10
 -1       542 1.08824E+04-4.08095E+00 2.03549E+02-2.20094E+03 3.58114E-11-4.65036E-10
 -1       543 1.08926E+04 3.75854E+00 9.92807E+01-7.88175E+03-1.58337E-10 8.94474E-10
 -1       544 1.08863E+04 4.99992E-02 3.74791E+01-2.20129E+03 3.36513E-11-2.19927E-10
 -1       545 1.08835E+04-4.29893E-01-3.35723E+00-7.88133E+03-9.15676E-11-2.77609E-10
 -1       546 1.08888E+04 2.36355E+00-4.37824E+01-2.20136E+03 6.92637E-11-2.89901E-11
 -1       547 1.08672E+04-2.36372E+01-1.17911E+02-7.88045E+03-2.63867E-10 7.42375E-10
 -1       548 1.09038E+04 1.85151E+01-2.21734E+02-2.20217E+03-9.81117E-11 4.20641E-11
 -1       549 1.07266E+04-2.62859E+02-5.50418E+02-7.86374E+03-1.91847E-10-1.35628E-10
 -1       550 1.10346E+04 1.85515E+02-8.68471E+02-2.21806E+03-5.13865E-11 1.75433E-10
 -1       551 2.79856E+03-7.30360E+04 6.71302E+03-1.12672E+05 1.12777E-10-1.98270E-10
 -1       552 1.18883E+03-7.17879E+04 5.51533E+03-1.32342E+05-2.22826E-10 1.05001E-09
 -1       553 7.24910E+02-7.28183E+04 6.71518E+03-1.12482E+05 5.18412E-11 2.10775E-10
 -1       554 3.90621E+03-7.01721E+04 1.28636E+04-1.32373E+05-7.09406E-11 1.66892E-10
 -1       555 1.15640E+04-7.46912E+04 2.45082E+04-1.12634E+05 2.09184E-11-7.03949E-10
 -1       556-4.89767E+04-2.73467E+04 4.83222E+03-4.87903E+04-1.98270E-10-3.73802E-10
 -1       557-4.45883E+04-3.21110E+04 2.37749E+03-5.21839E+04-2.79215E-10-4.00007E-10
 -1       558-4.90055E+04-2.89427E+04 1.00401E+03-4.78267E+04-3.46154E-09-4.85988E-09
 -1       559-4.49808E+04-3.29112E+04 4.91107E+02-5.23093E+04-2.40107E-10 3.36343E-10
 -1       560-4.90172E+04-2.89775E+04 2.20358E+02-4.77908E+04 4.32919E-10-2.01226E-10
 -1       561-4.50309E+04-3.29410E+04 1.03211E+02-5.23462E+04 2.11003E-10-1.31791E-10
 -1       562-4.90307E+04-2.89631E+04 3.73800E+01-4.78007E+04 2.28283E-10 2.91493E-10
 -1       563-4.50496E+04-3.29332E+04-2.40778E+00-5.23603E+04 2.79442E-10-1.58707E-10
 -1       564-4.90379E+04-2.89538E+04-4.54718E+01-4.78077E+04 3.63798E-11-5.30235E-10
 -1       565-4.50635E+04-3.29287E+04-1.16752E+02-5.23677E+04 9.34506E-11-1.30058E-10
 -1       566-4.90338E+04-2.89479E+04-2.49092E+02-4.78095E+04 4.82316E-11 1.45064E-10
 -1       567-4.51115E+04-3.29521E+04-5.50734E+02-5.23649E+04 1.73657E-10-7.06223E-10
 -1       568-4.89976E+04-2.90260E+04-1.13058E+03-4.77721E+04 1.18007E-10-4.93401E-10
 -1       569-4.57470E+04-3.36221E+04-2.66694E+03-5.21947E+04-5.61613E-11 6.09361E-11
 -1       570-4.87603E+04-3.10608E+04-5.42947E+03-4.69227E+04 2.50111E-11 3.09797E-10
 -1       571 6.36184E+04 3.08713E+03 4.67315E+03-1.64950E+04-1.13687E-12 1.46088E-11
 -1       572 6.43293E+04 1.06105E+03 2.29317E+03-1.81504E+04 6.82121E-12-5.20458E-10
 -1       573 6.39101E+04 2.43460E+02 1.01973E+03-1.64513E+04-1.36424E-12 9.84528E-11
 -1       574 6.39959E+04 7.66418E+01 5.11491E+02-1.81994E+04-2.23395E-11-4.42014E-10
 -1       575 6.39448E+04 7.62790E+00 2.41697E+02-1.64456E+04-9.60654E-11-3.43334E-11
 -1       576 6.39532E+04 1.76883E-01 1.23324E+02-1.82059E+04-6.90150E-11 2.19643E-10
 -1       577 6.39499E+04-3.74317E+00 6.14351E+01-1.64449E+04 2.12026E-11-7.46923E-10
 -1       578 6.39476E+04-2.47044E+00 3.46849E+01-1.82066E+04 1.54614E-11-2.02363E-11
 -1       579 6.39520E+04-2.80348E+00 2.36287E+01-1.64449E+04 5.09317E-11 2.11230E-10
 -1       580 6.39496E+04-2.18214E+00 2.58448E+01-1.82056E+04 1.54728E-10-1.78034E-10
 -1       581 6.39541E+04-1.75996E+00 3.97016E+01-1.64459E+04-1.97133E-10-3.26168E-10
 -1       582 6.39595E+04 7.70062E+00 7.83328E+01-1.81955E+04 5.93445E-11-1.37788E-10
 -1       583 6.39529E+04 3.14783E+01 1.53098E+02-1.64550E+04 1.22782E-11-7.59371E-10
 -1       584 6.40142E+04 1.52506E+02 3.42977E+02-1.81195E+04-2.99906E-10-8.57710E-10
 -1       585 6.39139E+04 4.54315E+02 6.97782E+02-1.65220E+04 9.41327E-11-3.25144E-10
 -1       586 4.91976E+02 2.69213E+04 9.17796E+02-4.05086E+04 1.04137E-10-3.36513E-11
 -1       587 2.63746E+02 2.70842E+04 8.94903E+02-4.46914E+04 3.96767E-10-9.10518E-10
 -1       588 3.28145E+02 2.69182E+04 1.29453E+03-4.04567E+04 1.05956E-10-2.64890E-11
 -1       589 1.23252E+03 2.74086E+04 2.66935E+03-4.47065E+04 4.37467E-10 4.45851E-10
 -1       590 3.52046E+03 2.65916E+04 5.33082E+03-4.04931E+04 1.54841E-10 1.00044E-11
 -1       591-2.99354E+04-1.01519E+04-5.72357E+03-1.53261E+04 1.31053E-10-2.96950E-10
 -1       592-3.01323E+04-9.47556E+03-2.81192E+03-1.70090E+04 2.02363E-10-6.69331E-10
 -1       593-3.01119E+04-8.07027E+03-1.19330E+03-1.62821E+04 5.42343E-09 1.16158E-08
 -1       594-2.95182E+04-8.70925E+03-5.84009E+02-1.71077E+04-7.40926E-10 2.93658E-10
 -1       595-3.01394E+04-7.99562E+03-2.69018E+02-1.63241E+04-7.27357E-09-1.17916E-08
 -1       596-2.94720E+04-8.67945E+03-1.36568E+02-1.71034E+04-1.39764E-09 2.96524E-10
 -1       597-3.01446E+04-7.99975E+03-7.45752E+01-1.63243E+04-7.55108E-09 2.69847E-09
 -1       598-2.94675E+04-8.67983E+03-6.00784E+01-1.71015E+04-1.53236E-08 6.06605E-09
 -1       599-3.01444E+04-7.99972E+03-7.67311E+01-1.63243E+04-7.54505E-09 2.75452E-09
 -1       600-2.94723E+04-8.67958E+03-1.42340E+02-1.71033E+04-9.32289E-10 3.82101E-10
 -1       601-3.01384E+04-7.99542E+03-2.81127E+02-1.63239E+04-1.60094E-09 8.76526E-10
 -1       602-2.95209E+04-8.71032E+03-6.11015E+02-1.71070E+04-5.48198E-10 1.92358E-10
 -1       603-3.01090E+04-8.07438E+03-1.24854E+03-1.62804E+04-1.10720E-09 7.24071E-10
 -1       604-3.01689E+04-9.50631E+03-2.94216E+03-1.69969E+04-4.35375E-09-6.24448E-09
 -1       605-2.99182E+04-1.02571E+04-5.98838E+03-1.52858E+04-9.34165E-10-1.73941E-10
 -1       606 2.16436E+04-2.55437E+03-3.86468E+03 6.39257E+03-1.24828E-09-2.78305E-10
 -1       607 2.10479E+04-8.77880E+02-1.89619E+03 6.96895E+03-2.04523E-10-2.35559E-10
 -1       608 2.13989E+04-2.01291E+02-8.43107E+02 6.35038E+03 8.69477E-10-1.03620E-09
 -1       609 2.13199E+04-6.21001E+01-4.22458E+02 7.01626E+03-4.27463E-10-8.40544E-10
 -1       610 2.13676E+04-4.82252E+00-1.99046E+02 6.34490E+03-1.44428E-09 4.81464E-11
 -1       611 2.13531E+04 2.19191E+00-1.00237E+02 7.02235E+03-2.35764E-09-8.60496E-10
 -1       612 2.13621E+04 5.09662E+00-4.75223E+01 6.34424E+03-1.01318E-09-7.55392E-10
 -1       613 2.13574E+04 4.43024E+00-2.19486E+01 7.02319E+03-1.43780E-09-3.02805E-10
 -1       614 2.13603E+04 3.75263E+00-6.43925E+00 6.34405E+03-3.68345E-10-2.26123E-10
 -1       615 2.13581E+04 4.10090E+00 5.71545E+00 7.02332E+03 1.36993E-09 1.05956E-10
 -1       616 2.13590E+04 4.41467E+00 2.04790E+01 6.34411E+03-7.46013E-10-6.98037E-11
 -1       617 2.13619E+04 1.15377E+01 4.83668E+01 7.02314E+03 6.16751E-11-3.21108E-10
 -1       618 2.13550E+04 2.75299E+01 9.88111E+01 6.34423E+03-1.74737E-10-7.05938E-10
 -1       619 2.13939E+04 1.07861E+02 2.23571E+02 7.02218E+03 6.24993E-11-3.81078E-10
 -1       620 2.13260E+04 3.05413E+02 4.56239E+02 6.34494E+03 1.74936E-10-9.05629E-10
 -1       621 4.44018E+02 6.64655E+04 1.13466E+03-6.16348E+03-4.75723E-10 2.31921E-11
 -1       622 1.70013E+02 6.66817E+04 9.66811E+02-7.27171E+03-4.81009E-10-2.53635E-10
 -1       623 1.02916E+02 6.65094E+04 1.22217E+03-6.16897E+03-4.89081E-10-8.10246E-10
 -1       624 6.89944E+02 6.69957E+04 2.37795E+03-7.24190E+03-4.25644E-10-2.26237E-10
 -1       625 2.12376E+03 6.61534E+04 4.55138E+03-6.19313E+03-3.31966E-10 2.74554E-10
 -1       626 3.10208E+04 1.02679E+04-1.54569E+03 2.10053E+04 7.41193E-09-3.52293E-09
 -1       627 3.02132E+04 1.14583E+04-7.32663E+02 2.14392E+04 2.26739E-08 1.19190E-08
 -1       628 3.10632E+04 1.10304E+04-3.07536E+02 2.06285E+04 8.31938E-09-2.95813E-09
 -1       629 3.03257E+04 1.17797E+04-1.47514E+02 2.14176E+04-6.74163E-11-4.52250E-10
 -1       630 3.10629E+04 1.10830E+04-6.47804E+01 2.05982E+04 7.76026E-10-5.30008E-10
 -1       631 3.03350E+04 1.18033E+04-2.86654E+01 2.14193E+04-7.82279E-10-1.03796E-09
 -1       632 3.10610E+04 1.10842E+04-7.09400E+00 2.05962E+04-1.13357E-09-7.22309E-10
 -1       633 3.03364E+04 1.18041E+04 9.37671E+00 2.14204E+04 1.39534E-09-7.50504E-10
 -1       634 3.10592E+04 1.10822E+04 3.07566E+01 2.05962E+04 4.91355E-10-6.72685E-10
 -1       635 3.03405E+04 1.18048E+04 7.24075E+01 2.14215E+04 1.07605E-09-3.22302E-11
 -1       636 3.10561E+04 1.10859E+04 1.51508E+02 2.05937E+04-2.45223E-10-6.56769E-10
 -1       637 3.03767E+04 1.18475E+04 3.39251E+02 2.14145E+04-1.22682E-10 5.90035E-10
 -1       638 3.10479E+04 1.12142E+04 7.03828E+02 2.05377E+04 4.74984E-10 2.57160E-10
 -1       639 3.07337E+04 1.24834E+04 1.67577E+03 2.12565E+04-3.34722E-10 4.14559E-10
 -1       640 3.10662E+04 1.30462E+04 3.53615E+03 1.97781E+04-3.21961E-10 1.42109E-11
 -1       641 1.09542E+02 6.61033E+02-1.52902E+03-1.65297E+01-1.22757E-10 2.22599E-10
 -1       642-5.52977E+02-7.65205E+02-1.08099E+03 6.73103E+01-1.44592E-09 2.11401E-10
 -1       643-1.45904E+02 1.03581E+02-3.94214E+02-1.64849E+01-6.32879E-10 6.56655E-10
 -1       644-2.55352E+02-1.19583E+02-2.45160E+02 6.72751E+01 5.17004E-08 8.40615E-10
 -1       645-1.88102E+02 1.59388E+01-9.45656E+01-1.64945E+01 1.47914E-05-6.12692E-09
 -1       646-2.05254E+02-1.69206E+01-4.52088E+01 6.72882E+01 2.94958E-05-1.08667E-08
 -1       647-1.96010E+02 9.98436E-01-5.40816E-01-1.64981E+01 1.39222E-05-6.36297E-09
 -1       648-1.91282E+02 8.44508E+00 4.07141E+01 6.72904E+01-1.75155E-06 1.48826E-09
 -1       649-2.02077E+02-9.41134E+00 9.28358E+01-1.64969E+01-2.14291E-05 1.01865E-08
 -1       650-1.57113E+02 7.25846E+01 2.25018E+02 6.72673E+01-4.10027E-05 1.67343E-08
 -1       651-2.30176E+02-6.31019E+01 3.91789E+02-1.64749E+01-2.05591E-05 9.59709E-09
 -1       652 3.59814E+01 4.68098E+02 9.69351E+02 6.71779E+01-6.88255E-08-2.50438E-10
 -1       653-3.95165E+02-4.04634E+02 1.54452E+03-1.64074E+01 2.99284E-10 3.31227E-10
 -1       654 1.19954E+03 2.98831E+03 4.22428E+03 6.68311E+01-1.45679E-11 2.04636E-12
 -1       655-1.39369E+03-2.58130E+03 5.97070E+03-1.61287E+01-9.11726E-10 7.24185E-10
 -1       656 1.93262E+03-7.81299E+04-9.27632E+03 2.51728E+03-8.68567E-11-1.01409E-10
 -1       657-2.92418E+03-8.14680E+04-6.71548E+03 8.90546E+03-1.16597E-09 1.12141E-09
 -1       658 3.62291E+02-7.93260E+04-4.29868E+03 2.50344E+03-4.86125E-10 8.83460E-10
 -1       659-2.67356E+03-8.13178E+04-6.26057E+03 8.91283E+03-1.07860E-09 5.30984E-10
 -1       660 1.73863E+03-7.82822E+04-8.40955E+03 2.50996E+03-1.37788E-10 4.14104E-11
 -1       661 7.61463E+04 9.80357E+03 6.21215E+03 2.97261E+04-1.35060E-10-7.43967E-10
 -1       662 7.75612E+04 1.44442E+04 3.89457E+03 3.06132E+04 8.50051E-10-7.85803E-10
 -1       663 7.72035E+04 1.11525E+04 1.46625E+03 2.95920E+04 6.62467E-10 4.74643E-11
 -1       664 7.63441E+04 1.26567E+04 8.01905E+02 3.08681E+04 5.99854E-10-7.34644E-10
 -1       665 7.73210E+04 1.12941E+04 3.43620E+02 2.95824E+04-3.36468E-09-3.11708E-09
 -1       666 7.62089E+04 1.24745E+04 1.85918E+02 3.08870E+04-1.53923E-09 7.75934E-10
 -1       667 7.73347E+04 1.13094E+04 1.04504E+02 2.95824E+04 1.06867E-09 7.06582E-09
 -1       668 7.61961E+04 1.24587E+04 9.84239E+01 3.08877E+04-1.10849E-09 1.37263E-10
 -1       669 7.73334E+04 1.13083E+04 1.38889E+02 2.95823E+04 8.22631E-10 3.03530E-10
 -1       670 7.62202E+04 1.24864E+04 2.80772E+02 3.08868E+04 3.26145E-09-5.26441E-10
 -1       671 7.73111E+04 1.12840E+04 5.36521E+02 2.95824E+04 9.24928E-10 2.19899E-10
 -1       672 7.64346E+04 1.27741E+04 1.26311E+03 3.08568E+04-1.43964E-09-2.08092E-09
 -1       673 7.71250E+04 1.10604E+04 2.31318E+03 2.95975E+04 2.75928E-09 1.65778E-09
 -1       674 7.83549E+04 1.55979E+04 6.14756E+03 3.04563E+04 1.80688E-09-7.25322E-11
 -1       675 7.54575E+04 8.92937E+03 9.80613E+03 2.98071E+04 2.02249E-10-2.81034E-10
 -1       676 1.38576E+02-7.41508E+04-8.23815E+02 7.49357E-01-5.07228E-10-3.04150E-10
 -1       677-3.12460E+02-7.44637E+04-1.00033E+03-5.05931E+01-1.18542E-09 1.12387E-10
 -1       678 1.11808E+02-7.41632E+04-1.32288E+03 7.14749E-01-7.63066E-10 1.13606E-09
 -1       679-1.40787E+03-7.51280E+04-2.99296E+03-5.04900E+01-2.91260E-09-3.62196E-10
 -1       680 9.92174E+02-7.34866E+04-4.61873E+03 5.79706E-01-1.29785E-09-3.31680E-10
 -1       681 1.39560E+05-3.82358E+03 8.83894E+03 1.83521E+02 3.99972E-10 2.30557E-10
 -1       682 1.43422E+05 4.42614E+03 6.26177E+03-6.20601E+02 5.21451E-10 1.36424E-10
 -1       683 1.41050E+05-5.99183E+02 2.29186E+03 9.18418E+01 3.11452E-10 1.71099E-10
 -1       684 1.41685E+05 6.93867E+02 1.44771E+03-4.85939E+02 7.31939E-09-1.65073E-10
 -1       685 1.41297E+05-9.40649E+01 6.02229E+02 4.88570E+01 2.22585E-06 1.07013E-09
 -1       686 1.41398E+05 1.13385E+02 3.80370E+02-4.37830E+02 4.43887E-06 1.40571E-09
 -1       687 1.41336E+05-1.90656E+01 2.25853E+02 4.37324E+01 2.22587E-06 1.26776E-09
 -1       688 1.41370E+05 5.21726E+01 2.55092E+02-4.64218E+02 7.26049E-09 8.18261E-11
 -1       689 1.41325E+05-3.29350E+01 3.51132E+02 7.52448E+01-1.07610E-10 1.11655E-10
 -1       690 1.41476E+05 2.33061E+02 7.46614E+02-5.71204E+02-1.32303E-11-5.06802E-10
 -1       691 1.41230E+05-2.00024E+02 1.25527E+03 1.50721E+02 1.67198E-10-5.45128E-11
 -1       692 1.42116E+05 1.48380E+03 3.09054E+03-7.83935E+02-3.26553E-10 5.53882E-10
 -1       693 1.40686E+05-1.28326E+03 4.89716E+03 2.87980E+02-4.83226E-10-3.92674E-10
 -1       694 1.45890E+05 9.48511E+03 1.34276E+04-1.15903E+03-1.26178E-09 3.75167E-10
 -1       695 1.37458E+05-8.19608E+03 1.89224E+04 5.25817E+02-5.23954E-10-8.81300E-10
 -1       696-2.81879E+03 1.14516E+05 6.42361E+03 1.07307E+02 1.22782E-11 1.37970E-10
 -1       697 3.05256E+03 1.17236E+05 4.16135E+03-5.98490E+02 2.97860E-11 1.84324E-10
 -1       698-2.31106E+02 1.15712E+05 8.72057E+02 8.07498E+01-5.07043E-11 5.51012E-10
 -1       699-1.07679E+03 1.15326E+05-1.21962E+03-5.86314E+02-6.88942E-11 7.59162E-10
 -1       700 1.30729E+03 1.16426E+05-2.83438E+03 9.51294E+01-4.61569E-11 2.78659E-10
 -1       701-1.28242E+05-1.17679E+04-1.60886E+04-5.09137E+04-1.74168E-10 3.56522E-10
 -1       702-1.36809E+05-2.64828E+04-1.11712E+04-4.80246E+04 2.45564E-11-1.43928E-10
 -1       703-1.31532E+05-1.75495E+04-3.77234E+03-4.98127E+04 1.47224E-11-1.83036E-10
 -1       704-1.32972E+05-1.98010E+04-2.35950E+03-4.93071E+04-7.20064E-11 4.36557E-11
 -1       705-1.32078E+05-1.84454E+04-8.83449E+02-4.96326E+04-1.18177E-10-5.00222E-12
 -1       706-1.32324E+05-1.87830E+04-5.28134E+02-4.95317E+04-1.43205E-10-5.41149E-11
 -1       707-1.32181E+05-1.85669E+04-2.44927E+02-4.95883E+04 1.65771E-10 2.13163E-13
 -1       708-1.32203E+05-1.86783E+04-2.15123E+02-4.95965E+04 3.29441E-10-1.05466E-10
 -1       709-1.32199E+05-1.85500E+04-2.38624E+02-4.95678E+04-6.28368E-11-1.27137E-10
 -1       710-1.32254E+05-1.88407E+04-5.08807E+02-4.96080E+04-1.59334E-09 4.98332E-10
 -1       711-1.32129E+05-1.84045E+04-8.48354E+02-4.95768E+04-5.21392E-07 1.95302E-07
 -1       712-1.32830E+05-1.98634E+04-2.26453E+03-4.94456E+04-1.03949E-06 3.89536E-07
 -1       713-1.31623E+05-1.75279E+04-3.61962E+03-4.97300E+04-3.91279E-07 1.46943E-07
 -1       714-1.36493E+05-2.62933E+04-1.07187E+04-4.82367E+04 2.57709E-07-9.64498E-08
 -1       715-1.28468E+05-1.19788E+04-1.54369E+04-5.07843E+04 1.29023E-07-4.89927E-08
 -1       716 1.59683E+04-3.47089E+03 7.98985E+03 2.39733E+02 1.29473E-09-8.84938E-10
 -1       717 1.96867E+04 4.01572E+03 5.69957E+03-8.49303E+02 5.95506E-10-9.54969E-12
 -1       718 1.73536E+04-5.43698E+02 2.06974E+03 2.05039E+02 3.58682E-11-2.55795E-10
 -1       719 1.80509E+04 6.28860E+02 1.33027E+03-7.92386E+02 1.22640E-11-1.31934E-10
 -1       720 1.76022E+04-8.54758E+01 5.53401E+02 1.82815E+02 2.84444E-10 3.88411E-10
 -1       721 1.77523E+04 1.05472E+02 3.74787E+02-7.57093E+02 7.42654E-10-3.22512E-10
 -1       722 1.76511E+04-1.98972E+01 2.51516E+02 1.69745E+02 7.55511E-10 6.70022E-10
 -1       723 1.77143E+04 6.89230E+01 3.36756E+02-7.39499E+02 3.59213E-10-2.26521E-11
 -1       724 1.76397E+04-4.85717E+01 5.09684E+02 1.65221E+02 6.16871E-10 4.76149E-10
 -1       725 1.78624E+04 3.52316E+02 1.11464E+03-7.38798E+02 2.95099E-10-3.40052E-10
 -1       726 1.75029E+04-3.03089E+02 1.89588E+03 1.69044E+02 4.54019E-10 3.92447E-10
 -1       727 1.88054E+04 2.24732E+03 4.66537E+03-7.55274E+02 8.97447E-10-3.66640E-11
 -1       728 1.66972E+04-1.94252E+03 7.41421E+03 1.81698E+02 3.50674E-10-6.23004E-11
 -1       729 2.44323E+04 1.43476E+04 2.02917E+04-7.95244E+02 1.31791E-10 6.43468E-11
 -1       730 1.18780E+04-1.23941E+04 2.86534E+04 2.09010E+02 8.50015E-10-7.45786E-11
 -1       731-4.84656E+03 5.06949E+04 1.11831E+04-6.38633E+02-6.78028E-10-6.10086E-10
 -1       732 5.71520E+03 5.59466E+04 8.16243E+03 2.25844E+03 1.23123E-10-2.13163E-11
 -1       733-8.66907E+02 5.26400E+04 3.27166E+03-5.32281E+02-1.50521E-10-1.04102E-10
 -1       734 1.71369E+03 5.39423E+04 2.93251E+03 2.12670E+03-1.83036E-11-2.19127E-10
 -1       735-8.45564E+02 5.26954E+04 2.27639E+03-5.06886E+02 3.43334E-11-1.02183E-10
 -1       736-2.58251E+05-3.08991E+04-1.94005E+04-1.02488E+05 3.55840E-09-2.61571E-09
 -1       737-2.70849E+05-4.14409E+04-1.27617E+04-9.10561E+04 1.02129E-08 2.49747E-09
 -1       738-2.59315E+05-3.85031E+04-4.47469E+03-1.02071E+05 2.86775E-09 9.79162E-09
 -1       739-2.68663E+05-3.28910E+04-2.68895E+03-9.18017E+04-2.89560E-09-1.06229E-09
 -1       740-2.60460E+05-3.94249E+04-1.13386E+03-1.01764E+05 3.88169E-09-6.71179E-09
 -1       741-2.64218E+05-3.29928E+04-6.43722E+01-9.32516E+04 8.16470E-10-6.64889E-09
 -1       742-2.63720E+05-3.84305E+04-7.57917E+02-1.00590E+05 5.08351E-10 3.36343E-10
 -1       743-2.58738E+05-3.60586E+04 7.28898E+02-9.67330E+04 1.53807E-09 8.47059E-10
 -1       744-2.65903E+05-3.63863E+04-7.63482E+02-9.82545E+04 3.19903E-09-1.31959E-09
 -1       745-2.56679E+05-4.01626E+04 6.22269E+01-1.01465E+05 4.94693E-09 1.94105E-09
 -1       746-2.65809E+05-3.43038E+04-1.05809E+03-9.58814E+04 6.73708E-09 1.13125E-08
 -1       747-2.57585E+05-4.36189E+04-2.36498E+03-1.04302E+05 2.28681E-09 3.23803E-09
 -1       748-2.65043E+05-3.28971E+04-3.96454E+03-9.54509E+04 5.59140E-09 3.18641E-09
 -1       749-2.61335E+05-4.96319E+04-1.13661E+04-1.01856E+05-3.49536E-09 3.21188E-09
 -1       750-2.62042E+05-2.83094E+04-1.72651E+04-9.83122E+04-2.02863E-09-3.75258E-09
 -1       751 6.48642E+05-3.71441E+04 8.59712E+04 6.16351E+02-7.36892E-09-1.56433E-10
 -1       752 6.85925E+05 4.30037E+04 6.08206E+04-8.77829E+02-1.45549E-09-5.21140E-10
 -1       753 6.63029E+05-5.82264E+03 2.22630E+04 1.91249E+02-4.01583E-10-1.60071E-10
 -1       754 6.69175E+05 6.73858E+03 1.40025E+04-3.11875E+02-5.20586E-10 8.91305E-11
 -1       755 6.65403E+05-9.10950E+02 5.72998E+03 5.04180E+01-3.11803E-10 2.13049E-10
 -1       756 6.66414E+05 1.06767E+03 3.42546E+03-1.24084E+02 1.61215E-09 1.66949E-10
 -1       757 6.65795E+05-1.56080E+02 1.68327E+03 3.45617E+00 1.18418E-07 3.32022E-10
 -1       758 6.66003E+05 2.77464E+02 1.34696E+03-6.41215E+01 2.35139E-07-5.48194E-10
 -1       759 6.65815E+05-1.21266E+02 1.37039E+03-9.54613E+00 6.25415E-08 4.05805E-10
 -1       760 6.66253E+05 7.68275E+02 2.52026E+03-5.56221E+01-1.10044E-07-2.95870E-11
 -1       761 6.65544E+05-6.46550E+02 4.10082E+03-5.04329E+00-4.98027E-07-6.28461E-10
 -1       762 6.68199E+05 4.77238E+03 9.93513E+03-8.78871E+01-8.82665E-07 1.22611E-09
 -1       763 6.63866E+05-4.12229E+03 1.57704E+04 2.27194E+01-4.41045E-07 1.16415E-09
 -1       764 6.80041E+05 3.04410E+04 4.30560E+04-2.03427E+02-4.66041E-10 8.94943E-10
 -1       765 6.53691E+05-2.62933E+04 6.08556E+04 1.10495E+02-1.41452E-10 3.41970E-10
 -1       766-1.58955E+04 9.77559E+04 3.72460E+04 1.23939E+03 1.28784E-09-4.52019E-10
 -1       767 1.95727E+04 1.14470E+05 2.84494E+04-5.57428E+03 3.49723E-09-1.32758E-10
 -1       768-3.65608E+03 1.03313E+05 1.38291E+04 1.25766E+03 1.46201E-09 3.88795E-10
 -1       769 1.18269E+04 1.11595E+05 1.84265E+04-6.01754E+03 4.95106E-10-1.06887E-10
 -1       770-8.16822E+03 1.00648E+05 1.95759E+04 1.68264E+03-9.10404E-10 3.41828E-10
 -1       771-3.60518E+05-7.27518E+04-1.20254E+04-1.56503E+05-7.39419E-10-2.54659E-10
 -1       772-3.59418E+05-7.27966E+04-5.90464E+03-1.61718E+05 2.38742E-10-4.82942E-10
 -1       773-3.60995E+05-6.82831E+04-2.50861E+03-1.58419E+05-6.83940E-10-6.73026E-11
 -1       774-3.58051E+05-7.12825E+04-1.22615E+03-1.62057E+05 3.10592E-10-3.56295E-10
 -1       775-3.61077E+05-6.81057E+04-5.65679E+02-1.58506E+05-3.98450E-09 1.11299E-09
 -1       776-3.57961E+05-7.12250E+04-2.86054E+02-1.62073E+05-1.07284E-08-2.94688E-09
 -1       777-3.61104E+05-6.81057E+04-1.55529E+02-1.58513E+05-4.03634E-09 1.58522E-09
 -1       778-3.57960E+05-7.12225E+04-1.21831E+02-1.62081E+05 1.37334E-10 7.18643E-10
 -1       779-3.61114E+05-6.81002E+04-1.53411E+02-1.58518E+05-2.89674E-10 3.53566E-10
 -1       780-3.57976E+05-7.12201E+04-2.81283E+02-1.62092E+05-2.41926E-10 1.03341E-10
 -1       781-3.61107E+05-6.80884E+04-5.55097E+02-1.58520E+05-3.77895E-10 4.29736E-11
 -1       782-3.58075E+05-7.12801E+04-1.20586E+03-1.62102E+05 2.30784E-11-6.68479E-11
 -1       783-3.61050E+05-6.82435E+04-2.46443E+03-1.58434E+05 3.96909E-11 5.00222E-11
 -1       784-3.59356E+05-7.28510E+04-5.80877E+03-1.61882E+05-2.86491E-10-4.12911E-10
 -1       785-3.60669E+05-7.25561E+04-1.18236E+04-1.56472E+05 7.74207E-11 3.24235E-10
 -1       786 5.68276E+04-1.59860E+03 7.40935E+03-5.19830E+02 1.12266E-10-3.90173E-10
 -1       787 5.94599E+04 2.24327E+03 4.71232E+03-1.84592E+03-6.37925E-11 6.83826E-11
 -1       788 5.79349E+04-1.59932E+02 1.91818E+03-5.15487E+02-3.09200E-10-2.06910E-11
 -1       789 5.82303E+04 2.12959E+02 1.06417E+03-1.85001E+03-7.12816E-11 4.65334E-10
 -1       790 5.80568E+04-1.70403E+01 4.86823E+02-5.15693E+02-2.44414E-09 1.78517E-10
 -1       791 5.80927E+04 1.99630E+01 2.60209E+02-1.84965E+03-5.39819E-09-5.45541E-10
 -1       792 5.80722E+04-2.18057E+00 1.33873E+02-5.15849E+02-2.35838E-09-5.05267E-11
 -1       793 5.80758E+04 2.53660E+00 8.89205E+01-1.84956E+03-1.32047E-10-6.64784E-10
 -1       794 5.80736E+04-1.20639E+00 8.25658E+01-5.15786E+02-2.81901E-10-2.11834E-10
 -1       795 5.80808E+04 8.72771E+00 1.25494E+02-1.84999E+03 6.25349E-11 8.33857E-10
 -1       796 5.80674E+04-7.50608E+00 2.17606E+02-5.15419E+02-3.52713E-11 4.35506E-10
 -1       797 5.81403E+04 9.24157E+01 4.65547E+02-1.85050E+03-1.19925E-10 1.24004E-10
 -1       798 5.80145E+04-6.96345E+01 8.35055E+02-5.15272E+02-9.73159E-11 1.74936E-10
 -1       799 5.86748E+04 9.74667E+02 2.04863E+03-1.84581E+03-1.77607E-10 3.72893E-10
 -1       800 5.75334E+04-6.94958E+02 3.22015E+03-5.20137E+02-1.81899E-11 9.52014E-10
 -1       801-1.77979E+03 5.59152E+04 8.80611E+03-6.18741E+04-2.51475E-09 4.65661E-10
 -1       802 3.76115E+03 5.89824E+04 9.22289E+03-2.20239E+05-1.09503E-09-8.01720E-10
 -1       803-6.78983E+02 5.62357E+04 1.04448E+04-6.16617E+04-3.32420E-09 1.47196E-09
 -1       804 1.09632E+04 6.33701E+04 2.23361E+04-2.20232E+05-1.78989E-09-1.34014E-09
 -1       805-7.40549E+03 5.15517E+04 3.37794E+04-6.18811E+04-1.28421E-09 1.04592E-09
 -1       806-5.64789E+04-1.55298E+04-4.73732E+03-2.66914E+04 3.26907E-10 1.75078E-10
 -1       807-5.64480E+04-1.43592E+04-2.24503E+03-2.81961E+04-5.20970E-10 5.77046E-10
 -1       808-5.64486E+04-1.30817E+04-9.43509E+02-2.77176E+04-5.47004E-09-9.72818E-09
 -1       809-5.59788E+04-1.34988E+04-4.55637E+02-2.83996E+04-9.52468E-10 5.05167E-10
 -1       810-5.64593E+04-1.29099E+04-2.05722E+02-2.77938E+04 3.39298E-10-5.24437E-10
 -1       811-5.59319E+04-1.34405E+04-1.02895E+02-2.84084E+04 4.62364E-10-7.72673E-10
 -1       812-5.64630E+04-1.29044E+04-5.34027E+01-2.77974E+04 3.26551E-10-5.84919E-11
 -1       813-5.59270E+04-1.34388E+04-3.87184E+01-2.84074E+04 5.58295E-10 3.22302E-11
 -1       814-5.64631E+04-1.29049E+04-4.40530E+01-2.77973E+04 1.46997E-10 2.03158E-10
 -1       815-5.59303E+04-1.34405E+04-7.80752E+01-2.84075E+04 2.84501E-11 2.45564E-11
 -1       816-5.64598E+04-1.29095E+04-1.52326E+02-2.77944E+04-1.57229E-10 3.71301E-10
 -1       817-5.59657E+04-1.34824E+04-3.35702E+02-2.83992E+04 3.30601E-10 8.99263E-11
 -1       818-5.64507E+04-1.30375E+04-6.94201E+02-2.77395E+04-3.38787E-11-1.77010E-10
 -1       819-5.63209E+04-1.41045E+04-1.65126E+03-2.82371E+04-4.02906E-10 7.33849E-11
 -1       820-5.64623E+04-1.48469E+04-3.48389E+03-2.69952E+04-1.28694E-10-5.47914E-10
 -1       821-6.04030E+04 1.68030E+03-7.78991E+03 5.74419E+02-7.77050E-10 9.68612E-11
 -1       822-6.31695E+04-2.35845E+03-4.95450E+03 2.04070E+03-2.87173E-10-4.39741E-10
 -1       823-6.15673E+04 1.67974E+02-2.01742E+03 5.64815E+02 7.84155E-10-4.29964E-10
 -1       824-6.18778E+04-2.23375E+02-1.12020E+03 2.05175E+03-4.49148E-10 3.95858E-10
 -1       825-6.16956E+04 1.79970E+01-5.14798E+02 5.63329E+02-1.28665E-09-3.34268E-10
 -1       826-6.17340E+04-2.02105E+01-2.79588E+02 2.05395E+03-2.37412E-09-7.61986E-10
 -1       827-6.17117E+04 2.62475E+00-1.52695E+02 5.62602E+02-1.00681E-09-3.95417E-11
 -1       828-6.17178E+04-2.39214E+00-1.18098E+02 2.05516E+03-1.55435E-09-9.10447E-10
 -1       829-6.17123E+04 2.34866E+00-1.34827E+02 5.62121E+02-1.27244E-10-4.09388E-10
 -1       830-6.17303E+04-1.61190E+01-2.32741E+02 2.05568E+03 1.12546E-09-5.28912E-10
 -1       831-6.16994E+04 1.48683E+01-4.21092E+02 5.62081E+02-8.02956E-10-8.95568E-11
 -1       832-6.18473E+04-1.81076E+02-9.11993E+02 2.05523E+03-5.78893E-10 1.94404E-11
 -1       833-6.15952E+04 1.36873E+02-1.64056E+03 5.62579E+02-2.63010E-09-5.15570E-11
 -1       834-6.28977E+04-1.91660E+03-4.02794E+03 2.04990E+03-3.47131E-09-5.77870E-10
 -1       835-6.06488E+04 1.36637E+03-6.33258E+03 5.67489E+02-2.37353E-09-1.14824E-09
 -1       836-2.56036E+03 1.48471E+05 1.25370E+04-4.27102E+03-1.75078E-10-4.61569E-11
 -1       837 4.03769E+03 1.53016E+05 9.72737E+03-1.51436E+04 4.57021E-11-2.97973E-10
 -1       838-6.17056E+02 1.49935E+05 7.32612E+03-4.25796E+03-3.96767E-10 9.51825E-10
 -1       839 5.49901E+03 1.53901E+05 1.23858E+04-1.51438E+04 1.37675E-10-1.82695E-10
 -1       840-3.69860E+03 1.47585E+05 1.76006E+04-4.27076E+03-3.07409E-10-2.27260E-10
 -1       841-1.33798E+03 6.30294E+02-2.10683E+03-8.74046E+02 2.75577E-10-2.92971E-10
 -1       842-2.48490E+03-1.27255E+03-1.46246E+03-4.68732E+02-2.88289E-10 3.51164E-10
 -1       843-1.76784E+03-1.27845E+02-4.93318E+02-7.31131E+02 3.46105E-10 7.94785E-10
 -1       844-1.98550E+03-3.94522E+02-3.07315E+02-6.33370E+02 1.50190E-09-2.60798E-10
 -1       845-1.83732E+03-2.47165E+02-1.12373E+02-7.09632E+02 1.02442E-11-4.62997E-10
 -1       846-1.90429E+03-2.55690E+02-6.15887E+01-6.58083E+02-6.68206E-10 1.92224E-10
 -1       847-1.84904E+03-2.66592E+02-1.75244E+01-7.06452E+02-2.06098E-07 7.69503E-08
 -1       848-1.88792E+03-2.29029E+02 6.55047E+00-6.62310E+02-4.11082E-07 1.54920E-07
 -1       849-1.85369E+03-2.73809E+02 3.22632E+01-7.05412E+02-3.40405E-07 1.27571E-07
 -1       850-1.86627E+03-1.94155E+02 9.31947E+01-6.68039E+02-2.74109E-07 1.02242E-07
 -1       851-1.87069E+03-3.01448E+02 1.65124E+02-7.00730E+02-1.98949E-06 7.46442E-07
 -1       852-1.74755E+03 7.07625E+00 4.48292E+02-7.04214E+02-3.70143E-06 1.38880E-06
 -1       853-1.97239E+03-4.74920E+02 7.18454E+02-6.69282E+02-1.85623E-06 6.96657E-07
 -1       854-1.01951E+03 1.28471E+03 2.12949E+03-9.44514E+02-5.25775E-09 1.48469E-09
 -1       855-2.59860E+03-1.57825E+03 3.06727E+03-4.60738E+02-2.35900E-10 2.60570E-10
 -1       856-7.23630E+04 1.60159E+03-7.42665E+03 1.15589E+03-1.29342E-09-5.35238E-10
 -1       857-7.49990E+04-2.24679E+03-4.72299E+03 4.12878E+03-8.32017E-10-1.45224E-09
 -1       858-7.34733E+04 1.60352E+02-1.92306E+03 1.14022E+03-5.95605E-10-1.42620E-09
 -1       859-7.37691E+04-2.10783E+02-1.06710E+03 4.14732E+03 1.00530E-09-8.11042E-10
 -1       860-7.35959E+04 1.77139E+01-4.89290E+02 1.13726E+03 2.30898E-10-4.68503E-10
 -1       861-7.36328E+04-1.67066E+01-2.63409E+02 4.15126E+03-1.41881E-09-1.78900E-10
 -1       862-7.36115E+04 3.18041E+00-1.39446E+02 1.13626E+03 2.17511E-09-4.64041E-10
 -1       863-7.36170E+04 7.40199E-01-9.99934E+01 4.15250E+03 4.41315E-09-1.03550E-09
 -1       864-7.36125E+04 2.56427E+00-1.04007E+02 1.13602E+03 1.77351E-09-1.34984E-09
 -1       865-7.36250E+04-8.78343E+00-1.70416E+02 4.15203E+03 2.64494E-09-1.36900E-09
 -1       866-7.36033E+04 1.12989E+01-3.03378E+02 1.13673E+03 4.06430E-11-7.45132E-10
 -1       867-7.37077E+04-1.27219E+02-6.53825E+02 4.14929E+03-2.37605E-11-7.17591E-10
 -1       868-7.35285E+04 9.82812E+01-1.17517E+03 1.13877E+03 7.72843E-10-8.03425E-10
 -1       869-7.44581E+04-1.37033E+03-2.88392E+03 4.13384E+03-1.22748E-09-9.08415E-10
 -1       870-7.28506E+04 9.77971E+02-4.53428E+03 1.15226E+03 1.25658E-09-7.60338E-10
 -1       871-7.07397E+02-6.94775E+03-1.34333E+03 2.03758E+04-1.33537E-09-1.74600E-09
 -1       872-2.14651E+02-7.18910E+03-3.90020E+02 2.39188E+04-1.58684E-09-3.06096E-09
 -1       873 2.65975E+01-7.09387E+03 4.03775E+02 2.03361E+04-7.90919E-10-1.45606E-08
 -1       874 4.81195E+02-6.77204E+03 1.49510E+03 2.39361E+04-1.60730E-09-2.73339E-08
 -1       875 1.53880E+03-7.36866E+03 3.22117E+03 2.03592E+04-9.55652E-10-1.41636E-08
 -1       876 8.83696E+04 1.12248E+04 8.33825E+03 3.47272E+04-2.03556E-10 1.36424E-11
 -1       877 9.02223E+04 1.75027E+04 5.22743E+03 3.59742E+04 9.40020E-10 4.60489E-10
 -1       878 8.97890E+04 1.30352E+04 1.96761E+03 3.45468E+04 1.77948E-10-4.48154E-10
 -1       879 8.85881E+04 1.51032E+04 1.07546E+03 3.63160E+04-1.69422E-10-7.78130E-10
 -1       880 8.99462E+04 1.32258E+04 4.59259E+02 3.45343E+04-1.28011E-10-1.39437E-10
 -1       881 8.84071E+04 1.48579E+04 2.45379E+02 3.63401E+04-7.66207E-10-2.30159E-10
 -1       882 8.99643E+04 1.32471E+04 1.31729E+02 3.45348E+04-3.26617E-09 1.49718E-10
 -1       883 8.83893E+04 1.48349E+04 1.13421E+02 3.63398E+04-9.39963E-10-5.82496E-10
 -1       884 8.99632E+04 1.32469E+04 1.48815E+02 3.45351E+04 1.32101E-09 2.16963E-09
 -1       885 8.84138E+04 1.48625E+04 2.92493E+02 3.63384E+04 1.56457E-09-1.68213E-09
 -1       886 8.99402E+04 1.32220E+04 5.55102E+02 3.45353E+04-1.10207E-09-5.51640E-09
 -1       887 8.86351E+04 1.51595E+04 1.30454E+03 3.63075E+04 3.66640E-12 1.10418E-10
 -1       888 8.97482E+04 1.29910E+04 2.38819E+03 3.45508E+04-2.67782E-10-1.87981E-09
 -1       889 9.06180E+04 1.80741E+04 6.34636E+03 3.58938E+04 7.59179E-10-2.17142E-11
 -1       890 8.80264E+04 1.07914E+04 1.01229E+04 3.47677E+04 1.11254E-09-4.18368E-10
 -1       891 3.11197E+02-3.96595E+04-1.55494E+03 4.84178E+03 2.35502E-10 5.79689E-10
 -1       892-5.10535E+02-4.02181E+04-1.23945E+03 1.72274E+04-1.76180E-09-1.62572E-10
 -1       893 8.18982E+01-3.98344E+04-9.87136E+02 4.82361E+03-7.01220E-10-3.79316E-10
 -1       894-7.85959E+02-4.03846E+04-1.74013E+03 1.72262E+04-1.47270E-09 6.17689E-10
 -1       895 5.25362E+02-3.94924E+04-2.50864E+03 4.84295E+03-1.01090E-09 1.96792E-09
 -1       896 1.88624E+05-1.44086E+03 3.33247E+03 1.18432E+02 3.20322E-10 3.64935E-10
 -1       897 1.90061E+05 1.66798E+03 2.36032E+03-2.19559E+02 4.56582E-10 2.98030E-10
 -1       898 1.89183E+05-2.25873E+02 8.65697E+02 6.28789E+01 2.53745E-10 1.42165E-10
 -1       899 1.89410E+05 2.61781E+02 5.49204E+02-1.32384E+02 1.20938E-10 1.38634E-10
 -1       900 1.89276E+05-3.57391E+01 2.33868E+02 3.12563E+01-1.28183E-10 5.16849E-11
 -1       901 1.89304E+05 4.46675E+01 1.58187E+02-8.29451E+01-1.27952E-10-9.52127E-13
 -1       902 1.89289E+05-8.90816E+00 1.12732E+02 1.34387E+01-1.91378E-10-1.18607E-11
 -1       903 1.89298E+05 3.23184E+01 1.56809E+02-5.54973E+01-3.04339E-09-7.08766E-11
 -1       904 1.89281E+05-2.33965E+01 2.42694E+02 3.80803E+00-8.53261E-07-2.07336E-11
 -1       905 1.89370E+05 1.69222E+02 5.34149E+02-4.14183E+01-1.70173E-06-2.41016E-10
 -1       906 1.89217E+05-1.45723E+02 9.10708E+02-6.40536E-01-9.96513E-07-8.57767E-11
 -1       907 1.89813E+05 1.07941E+03 2.23884E+03-3.63004E+01-2.87562E-07-6.73026E-11
 -1       908 1.88837E+05-9.32905E+02 3.56349E+03-1.30992E+00 8.71829E-08-1.09594E-10
 -1       909 1.92495E+05 6.88959E+03 9.74057E+03-3.85073E+01 4.58621E-07-2.02135E-10
 -1       910 1.86535E+05-5.95113E+03 1.37677E+04 1.56662E+00 2.31025E-07-1.28239E-10
 -1       911 4.81785E+04-5.71937E+02 1.31616E+03-1.55258E+02 2.59050E-10 3.19972E-10
 -1       912 4.87831E+04 6.61911E+02 9.39048E+02 6.41657E+02 3.01680E-10 5.74687E-10
 -1       913 4.84110E+04-8.94535E+01 3.43798E+02-1.24138E+02 2.18284E-10 6.94925E-10
 -1       914 4.85100E+04 1.04009E+02 2.21990E+02 5.98345E+02 6.11395E-11 9.51438E-10
 -1       915 4.84512E+04-1.42043E+01 1.00414E+02-1.11945E+02-4.61384E-10 8.51667E-10
 -1       916 4.84673E+04 1.96337E+01 7.93848E+01 5.91945E+02-9.28152E-10 1.00693E-09
 -1       917 4.84536E+04-5.10256E+00 7.55214E+01-1.17738E+02-4.06055E-10 8.14946E-10
 -1       918 4.84831E+04 2.63581E+01 1.32854E+02 6.21892E+02 8.50058E-11 7.72998E-10
 -1       919 4.84358E+04-2.11171E+01 2.18606E+02-1.41892E+02-3.94230E-10 3.56223E-10
 -1       920 4.85795E+04 1.57311E+02 5.05227E+02 6.90570E+02-6.94467E-11 1.85501E-10
 -1       921 4.83579E+04-1.36449E+02 8.48755E+02-1.86419E+02 1.02730E-10-1.96565E-10
 -1       922 4.90491E+04 1.01370E+03 2.12106E+03 8.03939E+02 6.11774E-10-6.33463E-10
 -1       923 4.79674E+04-8.77786E+02 3.33742E+03-2.55263E+02 4.62137E-10-1.25851E-09
 -1       924 5.16684E+04 6.48656E+03 9.19604E+03 9.77037E+02 1.97176E-09-1.92813E-09
 -1       925 4.57408E+04-5.60648E+03 1.29181E+04-3.59517E+02 1.51785E-09-2.76850E-09
 -1       926-2.30858E+05 5.17053E+03-1.19602E+04 1.04393E+03-2.85285E-10-3.50610E-09
 -1       927-2.35983E+05-5.98267E+03-8.45128E+03-1.70889E+03 3.35934E-09-3.57250E-09
 -1       928-2.32915E+05 8.08760E+02-3.10399E+03 8.29134E+02-4.76177E-10-2.67744E-09
 -1       929-2.33511E+05-9.31696E+02-1.90151E+03-1.01520E+03-2.45599E-09-2.75577E-09
 -1       930-2.33326E+05 1.20765E+02-8.08332E+02 3.50228E+02 1.76371E-10-1.24601E-09
 -1       931-2.33040E+05-1.36706E+02-3.87977E+02 4.39712E+01 4.60464E-10-5.94866E-10
 -1       932-2.33384E+05 1.27013E+01-1.98524E+02-2.30054E+02-2.93696E-10 5.18099E-10
 -1       933-2.33048E+05-5.49530E+00-1.02000E+01 1.10577E+03-8.90253E-10 1.32253E-09
 -1       934-2.33319E+05-8.76675E+00 4.92855E+01-7.11581E+02-6.57025E-10 1.95096E-09
 -1       935-2.33143E+05 7.78069E+01 2.37579E+02 1.80353E+03 9.81970E-12 2.67130E-09
 -1       936-2.33292E+05-6.77222E+01 4.26247E+02-9.27837E+02-1.00510E-09 2.62651E-09
 -1       937-2.32951E+05 5.21360E+02 1.07908E+03 1.89590E+03 2.20237E-09 2.88013E-09
 -1       938-2.33513E+05-4.51509E+02 1.71029E+03-8.03946E+02 2.31443E-09 1.99088E-09
 -1       939-2.31526E+05 3.34118E+03 4.73553E+03 1.35217E+03 1.59190E-09 2.01345E-09
 -1       940-2.34713E+05-2.88775E+03 6.62232E+03-3.84097E+02-4.27519E-10 9.29049E-10
 -1       941 1.05717E+06-5.30844E+04 1.22917E+05 7.28848E+01-5.94740E-08 9.38599E-10
 -1       942 1.11039E+06 6.14615E+04 8.69399E+04 1.42251E+01-1.26382E-07-8.94943E-10
 -1       943 1.07771E+06-8.32269E+03 3.18359E+04 5.28093E+01-1.16237E-07 6.91216E-11
 -1       944 1.08648E+06 9.63267E+03 2.00269E+04 3.89017E+01-1.04508E-07-7.40329E-10
 -1       945 1.08110E+06-1.30263E+03 8.20691E+03 4.82127E+01-6.63232E-08 9.15406E-10
 -1       946 1.08254E+06 1.52964E+03 4.92504E+03 4.43084E+01-3.06944E-08 1.76561E-09
 -1       947 1.08166E+06-2.26069E+02 2.45673E+03 4.74033E+01 1.69072E-08 1.10595E-09
 -1       948 1.08196E+06 4.18762E+02 2.03428E+03 4.41234E+01 6.66553E-08 1.10321E-09
 -1       949 1.08168E+06-1.92512E+02 2.15518E+03 4.83978E+01 2.18309E-07-1.66500E-09
 -1       950 1.08238E+06 1.24113E+03 4.05273E+03 3.79890E+01 3.66697E-07 1.69820E-09
 -1       951 1.08124E+06-1.04787E+03 6.63678E+03 5.35377E+01 8.92949E-07-2.12253E-09
 -1       952 1.08554E+06 7.73833E+03 1.61083E+04 1.13498E+01 1.41829E-06-4.52246E-10
 -1       953 1.07852E+06-6.68466E+03 2.55797E+04 7.50366E+01 7.07405E-07 8.96762E-10
 -1       954 1.10474E+06 4.93636E+04 6.98308E+04-1.00789E+02 1.05060E-09 5.67525E-10
 -1       955 1.06201E+06-4.26357E+04 9.87129E+04 1.65669E+02-5.97672E-09 2.91038E-10
 -1       956-5.44794E+04-9.62490E+02-2.04808E+03 7.39611E+03-9.96806E-10-8.54925E-11
 -1       957-5.48559E+04-3.08265E+02-1.03550E+03 8.61377E+03-4.76803E-10-2.46246E-10
 -1       958-5.46460E+04-3.62224E+01-4.65599E+02 7.35221E+03 5.59567E-10-7.23048E-10
 -1       959-5.46787E+04-8.06589E+00-2.37007E+02 8.66189E+03-4.83965E-10-4.95731E-10
 -1       960-5.46620E+04 5.40129E+00-1.14952E+02 7.34788E+03-1.06434E-09-4.39286E-10
 -1       961-5.46639E+04 4.90731E+00-6.06009E+01 8.66665E+03-2.10275E-09 2.48406E-11
 -1       962-5.46650E+04 4.86201E+00-3.39015E+01 7.34744E+03-7.88646E-10-2.57614E-10
 -1       963-5.46628E+04 4.98559E+00-2.59052E+01 8.66720E+03-9.98170E-10-3.74200E-10
 -1       964-5.46657E+04 5.02706E+00-2.97775E+01 7.34733E+03-4.51791E-10-6.34543E-10
 -1       965-5.46647E+04 5.43333E+00-5.01043E+01 8.66708E+03-4.72824E-10-7.88702E-10
 -1       966-5.46643E+04 5.96648E+00-9.32533E+01 7.34757E+03-2.68216E-09-2.78476E-10
 -1       967-5.46777E+04-4.47584E+00-1.91429E+02 8.66451E+03-6.56883E-10-2.60911E-11
 -1       968-5.46522E+04-2.70899E+01-3.75560E+02 7.34991E+03-4.13695E-09-4.16975E-10
 -1       969-5.48215E+04-2.46139E+02-8.35198E+02 8.63852E+03-8.27714E-09-9.81046E-10
 -1       970-5.45185E+04-7.73874E+02-1.65173E+03 7.37374E+03-4.35784E-09-9.57698E-10
 -1       971-1.04019E+05 1.31395E+03-6.09474E+03 1.16950E+03-1.10845E-09-7.98082E-11
 -1       972-1.06178E+05-1.84356E+03-3.87618E+03 4.19094E+03-1.03483E-09-8.78401E-10
 -1       973-1.04930E+05 1.31483E+02-1.57930E+03 1.15159E+03-1.69598E-09-6.84622E-10
 -1       974-1.05169E+05-1.72588E+02-8.78013E+02 4.21288E+03-1.04876E-10 2.39538E-10
 -1       975-1.05031E+05 1.46115E+01-4.06287E+02 1.14750E+03-3.05818E-11-1.13292E-09
 -1       976-1.05058E+05-1.32303E+01-2.25840E+02 4.21863E+03-1.99043E-09 5.38336E-10
 -1       977-1.05044E+05 2.94339E+00-1.33525E+02 1.14582E+03 5.57657E-09-4.90431E-10
 -1       978-1.05047E+05 1.50476E-01-1.21396E+02 4.22085E+03 8.72161E-09-2.04174E-10
 -1       979-1.05043E+05 3.59883E+00-1.62042E+02 1.14528E+03 4.89852E-09-8.34916E-10
 -1       980-1.05066E+05-1.91583E+01-3.00843E+02 4.22065E+03 2.73795E-09-8.66303E-11
 -1       981-1.05025E+05 2.02593E+01-5.56022E+02 1.14602E+03 2.06643E-09-1.22786E-09
 -1       982-1.05221E+05-2.39060E+02-1.21129E+03 4.21749E+03 4.68208E-09 7.98650E-12
 -1       983-1.04886E+05 1.82334E+02-2.18203E+03 1.14846E+03 6.05570E-09-8.65043E-10
 -1       984-1.06617E+05-2.54898E+03-5.35917E+03 4.20133E+03 5.43378E-09 9.09495E-11
 -1       985-1.03627E+05 1.81799E+03-8.42642E+03 1.16231E+03 4.56509E-09-3.09683E-10
 -3
    1PSTEP                        11           6           1          
  100CL  106 1.51367E-01         841                     0    6           1
 -4  DISP        4    1
 -5  D1          1    2    1    0
 -5  D2          1    2    2    0
 -5  D3          1    2    3    0
 -5  ALL         1    2    0    0    1ALL
 -1         1 1.88038E-05 0.00000E+00 0.00000E+00
 -1         2 1.39143E-05 0.00000E+00 0.00000E+00
 -1         3 1.16104E-05 0.00000E+00 0.00000E+00
 -1         4 1.02634E-05 0.00000E+00 0.00000E+00
 -1         5 9.63094E-06 0.00000E+00 0.00000E+00
 -1         8 1.48441E-05-1.87490E-07 0.00000E+00
 -1         9 1.16189E-05 9.77769E-08 0.00000E+00
 -1        10 1.09112E-05-4.41436E-07 0.00000E+00
 -1        11 1.01270E-05-8.36240E-08 0.00000E+00
 -1        12 9.31715E-06 2.25019E-07 0.00000E+00
 -1        15 6.40135E-06-3.91002E-07 0.00000E+00
 -1        16 8.74271E-06 9.02421E-08 0.00000E+00
 -1        17 8.02796E-06-8.89457E-07 0.00000E+00
 -1        18 8.08571E-06-1.68680E-07 0.00000E+00
 -1        19 8.46434E-06 4.46472E-07 0.00000E+00
 -1        20 8.59177E-06 4.78977E-06 0.00000E+00
 -1        21 8.58796E-06 1.14479E-05 0.00000E+00
 -1        22 2.40219E-06-2.57460E-07 0.00000E+00
 -1        23 3.25210E-06 3.06064E-07 0.00000E+00
 -1        24 3.29961E-06-1.06299E-06 0.00000E+00
 -1        25 7.20618E-06-1.10532E-07 0.00000E+00
 -1        26 7.54674E-06 5.92727E-07 0.00000E+00
 -1        27 7.18439E-06 4.61726E-06 0.00000E+00
 -1        28 6.74971E-06 1.12838E-05 0.00000E+00
 -1        29 0.00000E+00 0.00000E+00 0.00000E+00
 -1        30 1.11009E-06 4.21998E-07 0.00000E+00
 -1        31 1.35571E-06-8.62438E-07 0.00000E+00
 -1        32 0.00000E+00 0.00000E+00 0.00000E+00
 -1        33 6.35331E-06 9.19107E-07 0.00000E+00
 -1        34 6.02942E-06 4.60076E-06 0.00000E+00
 -1        35 5.40865E-06 1.11960E-05 0.00000E+00
 -1        36 1.85081E-05-1.47877E-19 0.00000E+00
 -1        37 1.82025E-05-6.39999E-19 3.30872E-24
 -1        38 1.78976E-05-1.22274E-18 0.00000E+00
 -1        39 1.75908E-05-1.63509E-18 3.30872E-24
 -1        40 1.72840E-05-1.76467E-18-6.61744E-24
 -1        41 1.69768E-05-1.43666E-18 0.00000E+00
 -1        42 1.66695E-05-8.09389E-19-6.61744E-24
 -1        43 1.63622E-05 1.24884E-19 3.30872E-24
 -1        44 1.60548E-05 1.06365E-18 0.00000E+00
 -1        45 1.57475E-05 1.74108E-18-3.30872E-24
 -1        46 1.54403E-05 2.04374E-18 0.00000E+00
 -1        47 1.51332E-05 1.88086E-18 0.00000E+00
 -1        48 1.48262E-05 1.38011E-18 0.00000E+00
 -1        49 1.45204E-05 7.71478E-19 0.00000E+00
 -1        50 1.42142E-05 2.20432E-19 0.00000E+00
 -1        51 1.85026E-05-3.20507E-08 0.00000E+00
 -1        52 1.80061E-05-6.26751E-08 0.00000E+00
 -1        53 1.73522E-05-9.30112E-08 0.00000E+00
 -1        54 1.65806E-05-1.23470E-07-8.27181E-25
 -1        55 1.57312E-05-1.54475E-07 1.29247E-24
 -1        56 1.84262E-05-1.44520E-07 0.00000E+00
 -1        57 1.80359E-05-2.96502E-07-6.61744E-24
 -1        58 1.76451E-05-4.45004E-07 1.32349E-23
 -1        59 1.72487E-05-5.85647E-07-6.61744E-24
 -1        60 1.68469E-05-7.12173E-07 0.00000E+00
 -1        61 1.64373E-05-8.19408E-07 0.00000E+00
 -1        62 1.60186E-05-9.02276E-07 0.00000E+00
 -1        63 1.55889E-05-9.56050E-07 0.00000E+00
 -1        64 1.51467E-05-9.76401E-07 1.32349E-23
 -1        65 1.46905E-05-9.59279E-07-6.61744E-24
 -1        66 1.42189E-05-9.01239E-07 0.00000E+00
 -1        67 1.37313E-05-7.99057E-07 0.00000E+00
 -1        68 1.32263E-05-6.50420E-07-1.32349E-23
 -1        69 1.27054E-05-4.52497E-07-6.61744E-24
 -1        70 1.21651E-05-2.05110E-07 0.00000E+00
 -1        71 1.37696E-05 2.85591E-18 3.30872E-24
 -1        72 1.36253E-05 1.13699E-17 0.00000E+00
 -1        73 1.34810E-05 2.39255E-17 0.00000E+00
 -1        74 1.33367E-05 3.88578E-17-1.65436E-24
 -1        75 1.31925E-05 5.37767E-17 3.30872E-24
 -1        76 1.30482E-05 6.63309E-17 0.00000E+00
 -1        77 1.29040E-05 7.48477E-17 0.00000E+00
 -1        78 1.27597E-05 7.76578E-17-1.65436E-24
 -1        79 1.26155E-05 7.47391E-17 0.00000E+00
 -1        80 1.24713E-05 6.61532E-17 1.65436E-24
 -1        81 1.23271E-05 5.35339E-17 0.00000E+00
 -1        82 1.21830E-05 3.86035E-17 0.00000E+00
 -1        83 1.20389E-05 2.37569E-17 0.00000E+00
 -1        84 1.18953E-05 1.12870E-17 1.65436E-24
 -1        85 1.17515E-05 2.81721E-18-3.30872E-24
 -1        86 1.38188E-05 1.12731E-08-1.65436E-24
 -1        87 1.35339E-05 2.92636E-08-4.13590E-25
 -1        88 1.31162E-05 4.67427E-08-4.13590E-25
 -1        89 1.26222E-05 6.47635E-08 0.00000E+00
 -1        90 1.21054E-05 8.30736E-08 8.27181E-25
 -1        91 1.37143E-05 6.77159E-09 6.61744E-24
 -1        92 1.34599E-05 1.56068E-07 0.00000E+00
 -1        93 1.31713E-05 3.96538E-07 6.61744E-24
 -1        94 1.28680E-05 6.75679E-07-3.30872E-24
 -1        95 1.25753E-05 9.26712E-07-6.61744E-24
 -1        96 1.23181E-05 1.08300E-06 0.00000E+00
 -1        97 1.21082E-05 1.11310E-06 0.00000E+00
 -1        98 1.19571E-05 9.86537E-07 0.00000E+00
 -1        99 1.18533E-05 7.33628E-07 0.00000E+00
 -1       100 1.17852E-05 3.85686E-07 3.30872E-24
 -1       101 1.17274E-05 1.02793E-08-6.61744E-24
 -1       102 1.16546E-05-3.24738E-07 0.00000E+00
 -1       103 1.15471E-05-5.67070E-07 0.00000E+00
 -1       104 1.13862E-05-6.64845E-07 0.00000E+00
 -1       105 1.11722E-05-6.21954E-07-3.30872E-24
 -1       106 1.15263E-05-2.85579E-20 0.00000E+00
 -1       107 1.14419E-05-1.61037E-19 0.00000E+00
 -1       108 1.13576E-05-4.12293E-19 3.30872E-24
 -1       109 1.12732E-05-7.08872E-19 0.00000E+00
 -1       110 1.11888E-05-1.06233E-18-3.30872E-24
 -1       111 1.11045E-05-1.38678E-18-1.65436E-24
 -1       112 1.10201E-05-1.60397E-18 0.00000E+00
 -1       113 1.09357E-05-1.71194E-18 1.65436E-24
 -1       114 1.08514E-05-1.70946E-18 0.00000E+00
 -1       115 1.07670E-05-1.56905E-18 1.65436E-24
 -1       116 1.06826E-05-1.32881E-18 3.30872E-24
 -1       117 1.05983E-05-9.67475E-19 0.00000E+00
 -1       118 1.05141E-05-5.65887E-19 0.00000E+00
 -1       119 1.04301E-05-2.62117E-19 8.27181E-25
 -1       120 1.03460E-05-6.88330E-20 1.65436E-24
 -1       121 1.16035E-05-7.37458E-08 0.00000E+00
 -1       122 1.15691E-05-1.47246E-07 0.00000E+00
 -1       123 1.14948E-05-2.20756E-07 1.65436E-24
 -1       124 1.13685E-05-2.94259E-07 0.00000E+00
 -1       125 1.11780E-05-3.67762E-07 1.65436E-24
 -1       126 1.15380E-05-5.93662E-08 0.00000E+00
 -1       127 1.14866E-05-1.75095E-07 1.65436E-24
 -1       128 1.14506E-05-3.31896E-07 3.30872E-24
 -1       129 1.14242E-05-5.14409E-07-1.65436E-24
 -1       130 1.13996E-05-7.01831E-07 0.00000E+00
 -1       131 1.13691E-05-8.73349E-07 1.65436E-24
 -1       132 1.13262E-05-1.01194E-06 0.00000E+00
 -1       133 1.12646E-05-1.10070E-06-1.65436E-24
 -1       134 1.11816E-05-1.13220E-06 0.00000E+00
 -1       135 1.10744E-05-1.09923E-06 1.65436E-24
 -1       136 1.09450E-05-1.00715E-06-3.30872E-24
 -1       137 1.07956E-05-8.61497E-07 0.00000E+00
 -1       138 1.06322E-05-6.78448E-07 3.30872E-24
 -1       139 1.04611E-05-4.74194E-07 0.00000E+00
 -1       140 1.02896E-05-2.69297E-07-1.65436E-24
 -1       141 1.02233E-05-1.80209E-20 1.65436E-24
 -1       142 1.01834E-05-2.20873E-20 0.00000E+00
 -1       143 1.01435E-05-2.61230E-20 0.00000E+00
 -1       144 1.01036E-05-2.74345E-20 0.00000E+00
 -1       145 1.00637E-05-3.20872E-20 0.00000E+00
 -1       146 1.00239E-05-2.14414E-20 0.00000E+00
 -1       147 9.98405E-06-4.83583E-21-1.65436E-24
 -1       148 9.94421E-06 9.24714E-21 0.00000E+00
 -1       149 9.90438E-06 3.95303E-20 1.65436E-24
 -1       150 9.86458E-06 5.12907E-20 0.00000E+00
 -1       151 9.82479E-06 2.64718E-20-8.27181E-25
 -1       152 9.78512E-06-1.24698E-20-4.13590E-25
 -1       153 9.74546E-06-3.55303E-20 0.00000E+00
 -1       154 9.70640E-06-3.27844E-20 0.00000E+00
 -1       155 9.66713E-06-2.21857E-20-5.16988E-26
 -1       156 1.02768E-05-1.47332E-08-8.27181E-25
 -1       157 1.03161E-05-2.81874E-08-4.13590E-25
 -1       158 1.03509E-05-4.17374E-08-8.27181E-25
 -1       159 1.03506E-05-5.53040E-08 0.00000E+00
 -1       160 1.02858E-05-6.87721E-08 0.00000E+00
 -1       161 1.02172E-05-2.12906E-08 1.65436E-24
 -1       162 1.01735E-05-4.94693E-08 8.27181E-25
 -1       163 1.01311E-05-8.12956E-08 0.00000E+00
 -1       164 1.00890E-05-1.13541E-07-8.27181E-25
 -1       165 1.00456E-05-1.42751E-07 0.00000E+00
 -1       166 9.99989E-06-1.65482E-07 0.00000E+00
 -1       167 9.95080E-06-1.79332E-07 0.00000E+00
 -1       168 9.89750E-06-1.81917E-07 0.00000E+00
 -1       169 9.83953E-06-1.72031E-07 1.65436E-24
 -1       170 9.77646E-06-1.48488E-07 0.00000E+00
 -1       171 9.70842E-06-1.11688E-07-1.65436E-24
 -1       172 9.63570E-06-6.20133E-08-8.27181E-25
 -1       173 9.55885E-06-1.36558E-09 0.00000E+00
 -1       174 9.47923E-06 6.86085E-08 4.13590E-25
 -1       175 9.39707E-06 1.44611E-07-2.06795E-25
 -1       191 9.62037E-06 3.74773E-08 1.65436E-24
 -1       192 9.59267E-06 7.49993E-08-8.27181E-25
 -1       193 9.54808E-06 1.12531E-07 0.00000E+00
 -1       194 9.48700E-06 1.50060E-07 0.00000E+00
 -1       195 9.40984E-06 1.87572E-07 0.00000E+00
 -1       251 1.46473E-05 4.82396E-07 3.30872E-24
 -1       252 1.44456E-05 1.08559E-06 0.00000E+00
 -1       253 1.42442E-05 1.49149E-06 0.00000E+00
 -1       254 1.40419E-05 1.57129E-06 3.30872E-24
 -1       255 1.38397E-05 1.32310E-06 0.00000E+00
 -1       256 1.36370E-05 7.48002E-07 0.00000E+00
 -1       257 1.34343E-05-2.56729E-08 0.00000E+00
 -1       258 1.32314E-05-8.67807E-07 3.30872E-24
 -1       259 1.30286E-05-1.62165E-06 6.61744E-24
 -1       260 1.28260E-05-2.13124E-06-3.30872E-24
 -1       261 1.26235E-05-2.33568E-06 0.00000E+00
 -1       262 1.24213E-05-2.17683E-06 0.00000E+00
 -1       263 1.22189E-05-1.73798E-06 6.61744E-24
 -1       264 1.20174E-05-1.10492E-06 3.30872E-24
 -1       265 1.18156E-05-4.39089E-07-3.30872E-24
 -1       266 1.39415E-05-2.22737E-07-1.65436E-24
 -1       267 1.26398E-05-2.56566E-07 0.00000E+00
 -1       268 1.10851E-05-2.90841E-07 0.00000E+00
 -1       269 9.42430E-06-3.24727E-07 0.00000E+00
 -1       270 7.81166E-06-3.58595E-07 8.27181E-25
 -1       271 1.42960E-05 3.06258E-07 0.00000E+00
 -1       272 1.37959E-05 6.39312E-07 0.00000E+00
 -1       273 1.33478E-05 8.34904E-07-6.61744E-24
 -1       274 1.29423E-05 9.12025E-07-6.61744E-24
 -1       275 1.25733E-05 8.91163E-07 1.32349E-23
 -1       276 1.22332E-05 7.92574E-07-6.61744E-24
 -1       277 1.19145E-05 6.36838E-07 1.32349E-23
 -1       278 1.16094E-05 4.44652E-07 6.61744E-24
 -1       279 1.13101E-05 2.36820E-07 0.00000E+00
 -1       280 1.10090E-05 3.42032E-08 0.00000E+00
 -1       281 1.06981E-05-1.42376E-07 1.32349E-23
 -1       282 1.03699E-05-2.72126E-07 6.61744E-24
 -1       283 1.00167E-05-3.34459E-07 0.00000E+00
 -1       284 9.63193E-06-3.08524E-07 3.30872E-24
 -1       285 9.20645E-06-1.74756E-07 6.61744E-24
 -1       286 1.15733E-05 5.05415E-07-1.65436E-24
 -1       287 1.15291E-05 7.86974E-07 0.00000E+00
 -1       288 1.14848E-05 9.45305E-07 1.65436E-24
 -1       289 1.14408E-05 9.83501E-07 0.00000E+00
 -1       290 1.13968E-05 9.15935E-07-1.65436E-24
 -1       291 1.13529E-05 7.57192E-07 0.00000E+00
 -1       292 1.13089E-05 5.30411E-07 1.65436E-24
 -1       293 1.12650E-05 2.58860E-07 0.00000E+00
 -1       294 1.12210E-05-2.99838E-08 0.00000E+00
 -1       295 1.11771E-05-3.08612E-07 0.00000E+00
 -1       296 1.11331E-05-5.50482E-07 1.65436E-24
 -1       297 1.10891E-05-7.29115E-07-8.27181E-25
 -1       298 1.10451E-05-8.23967E-07 1.65436E-24
 -1       299 1.10009E-05-8.14664E-07 8.27181E-25
 -1       300 1.09567E-05-6.90611E-07 0.00000E+00
 -1       301 1.11387E-05 9.44481E-08 0.00000E+00
 -1       302 1.06556E-05 9.44874E-08 0.00000E+00
 -1       303 1.01719E-05 9.50869E-08 0.00000E+00
 -1       304 9.69024E-06 9.55523E-08 0.00000E+00
 -1       305 9.21302E-06 9.51669E-08 0.00000E+00
 -1       306 1.12641E-05 4.00705E-07-6.61744E-24
 -1       307 1.09611E-05 5.47442E-07 0.00000E+00
 -1       308 1.07078E-05 5.62299E-07 0.00000E+00
 -1       309 1.04947E-05 4.67349E-07 0.00000E+00
 -1       310 1.03140E-05 2.85496E-07-6.61744E-24
 -1       311 1.01572E-05 3.95356E-08 0.00000E+00
 -1       312 1.00157E-05-2.47558E-07 0.00000E+00
 -1       313 9.88106E-06-5.52773E-07-3.30872E-24
 -1       314 9.74454E-06-8.53040E-07 0.00000E+00
 -1       315 9.59756E-06-1.12530E-06-3.30872E-24
 -1       316 9.43152E-06-1.34658E-06-6.61744E-24
 -1       317 9.23797E-06-1.49395E-06 0.00000E+00
 -1       318 9.00832E-06-1.54468E-06 0.00000E+00
 -1       319 8.73505E-06-1.47590E-06-3.30872E-24
 -1       320 8.40853E-06-1.26572E-06 3.30872E-24
 -1       321 1.08609E-05-1.63627E-07 1.65436E-24
 -1       322 1.08118E-05 4.61247E-08 0.00000E+00
 -1       323 1.07626E-05 1.87640E-07 0.00000E+00
 -1       324 1.07137E-05 2.60890E-07-8.27181E-25
 -1       325 1.06647E-05 2.72953E-07 1.65436E-24
 -1       326 1.06158E-05 2.31041E-07 0.00000E+00
 -1       327 1.05669E-05 1.47983E-07 1.65436E-24
 -1       328 1.05180E-05 3.66991E-08-8.27181E-25
 -1       329 1.04692E-05-8.69507E-08 1.65436E-24
 -1       330 1.04203E-05-2.07084E-07-8.27181E-25
 -1       331 1.03714E-05-3.08181E-07 0.00000E+00
 -1       332 1.03225E-05-3.74763E-07 0.00000E+00
 -1       333 1.02736E-05-3.94946E-07 0.00000E+00
 -1       334 1.02248E-05-3.56946E-07 0.00000E+00
 -1       335 1.01759E-05-2.55035E-07 1.65436E-24
 -1       336 1.05553E-05-5.16475E-07 0.00000E+00
 -1       337 1.01286E-05-5.91401E-07 0.00000E+00
 -1       338 9.64691E-06-6.66322E-07 0.00000E+00
 -1       339 9.12576E-06-7.41072E-07 8.27181E-25
 -1       340 8.58087E-06-8.15843E-07 1.65436E-24
 -1       341 9.97106E-06 1.68219E-06-3.30872E-24
 -1       342 7.62465E-06 7.50675E-06 1.65436E-24
 -1       343 4.28536E-06 1.59261E-05 0.00000E+00
 -1       344 3.77322E-07 2.58215E-05 0.00000E+00
 -1       345-3.50630E-06 3.56532E-05 0.00000E+00
 -1       346-6.77269E-06 4.38818E-05 0.00000E+00
 -1       347-9.01251E-06 4.94256E-05 0.00000E+00
 -1       348-9.82911E-06 5.12152E-05-1.65436E-24
 -1       349-9.23882E-06 4.92526E-05-3.30872E-24
 -1       350-7.26566E-06 4.35614E-05 0.00000E+00
 -1       351-4.32284E-06 3.52327E-05 3.30872E-24
 -1       352-8.21696E-07 2.53753E-05 0.00000E+00
 -1       353 2.67189E-06 1.55388E-05 0.00000E+00
 -1       354 5.59278E-06 7.27341E-06 1.65436E-24
 -1       355 7.53198E-06 1.67689E-06 0.00000E+00
 -1       356 1.00761E-05 1.04039E-07 1.65436E-24
 -1       357 1.00251E-05 2.54570E-07 0.00000E+00
 -1       358 9.97407E-06 3.66126E-07 0.00000E+00
 -1       359 9.92306E-06 4.36952E-07 8.27181E-25
 -1       360 9.87205E-06 4.69711E-07 0.00000E+00
 -1       361 9.82104E-06 4.67154E-07-8.27181E-25
 -1       362 9.77003E-06 4.35861E-07 0.00000E+00
 -1       363 9.71903E-06 3.82479E-07 8.27181E-25
 -1       364 9.66803E-06 3.16049E-07 1.65436E-24
 -1       365 9.61706E-06 2.45643E-07-8.27181E-25
 -1       366 9.56610E-06 1.80766E-07 1.65436E-24
 -1       367 9.51528E-06 1.30907E-07 8.27181E-25
 -1       368 9.46448E-06 1.03929E-07 0.00000E+00
 -1       369 9.41435E-06 1.07643E-07 0.00000E+00
 -1       370 9.36400E-06 1.46537E-07 2.06795E-25
 -1       371 9.85645E-06-9.92813E-08-8.27181E-25
 -1       372 9.45893E-06-1.13537E-07-4.13590E-25
 -1       373 9.00887E-06-1.27896E-07 0.00000E+00
 -1       374 8.58077E-06-1.41808E-07-2.06795E-25
 -1       375 8.24846E-06-1.55732E-07 0.00000E+00
 -1       376 9.97459E-06 8.16521E-08 1.65436E-24
 -1       377 9.82933E-06 2.23890E-07 0.00000E+00
 -1       378 9.69529E-06 3.36514E-07 0.00000E+00
 -1       379 9.57475E-06 4.12407E-07-1.65436E-24
 -1       380 9.46796E-06 4.51656E-07 0.00000E+00
 -1       381 9.37482E-06 4.54374E-07 0.00000E+00
 -1       382 9.29268E-06 4.27753E-07 3.30872E-24
 -1       383 9.21881E-06 3.79076E-07 0.00000E+00
 -1       384 9.14882E-06 3.20041E-07 3.30872E-24
 -1       385 9.07835E-06 2.62392E-07 0.00000E+00
 -1       386 9.00328E-06 2.17030E-07 0.00000E+00
 -1       387 8.91967E-06 1.94861E-07 8.27181E-25
 -1       388 8.82484E-06 2.02640E-07-1.65436E-24
 -1       389 8.71702E-06 2.47353E-07 8.27181E-25
 -1       390 8.59531E-06 3.28239E-07-8.27181E-25
 -1       406 9.20497E-06 2.62140E-07-1.65436E-24
 -1       407 9.07906E-06 2.99289E-07 8.27181E-25
 -1       408 8.94065E-06 3.36419E-07 0.00000E+00
 -1       409 8.79113E-06 3.73458E-07 8.27181E-25
 -1       410 8.63188E-06 4.10304E-07 0.00000E+00
 -1       466 6.54164E-06 6.77723E-07-1.65436E-24
 -1       467 6.68852E-06 1.27387E-06 1.65436E-24
 -1       468 6.83515E-06 1.53343E-06-3.30872E-24
 -1       469 6.98300E-06 1.59009E-06 1.65436E-24
 -1       470 7.13087E-06 1.50341E-06 3.30872E-24
 -1       471 7.27898E-06 1.33199E-06 0.00000E+00
 -1       472 7.42709E-06 1.10337E-06 3.30872E-24
 -1       473 7.57523E-06 8.44744E-07 1.65436E-24
 -1       474 7.72336E-06 5.72266E-07 0.00000E+00
 -1       475 7.87142E-06 3.02022E-07 0.00000E+00
 -1       476 8.01943E-06 5.09102E-08-3.30872E-24
 -1       477 8.16707E-06-1.64048E-07 0.00000E+00
 -1       478 8.31467E-06-3.12588E-07 3.30872E-24
 -1       479 8.46033E-06-3.63999E-07 1.65436E-24
 -1       480 8.60664E-06-2.52140E-07-8.27181E-25
 -1       481 5.22207E-06-3.70110E-07 0.00000E+00
 -1       482 4.29796E-06-3.47810E-07 0.00000E+00
 -1       483 3.58952E-06-3.25416E-07 0.00000E+00
 -1       484 3.05752E-06-3.02753E-07 0.00000E+00
 -1       485 2.67176E-06-2.79997E-07-4.13590E-25
 -1       486 5.68909E-06 1.04503E-06 3.30872E-24
 -1       487 4.83327E-06 2.84321E-06 0.00000E+00
 -1       488 3.98298E-06 4.62794E-06 0.00000E+00
 -1       489 3.27917E-06 6.02055E-06 1.65436E-24
 -1       490 2.81288E-06 6.78174E-06 0.00000E+00
 -1       491 2.67180E-06 6.67607E-06 3.30872E-24
 -1       492 2.82889E-06 5.77422E-06 0.00000E+00
 -1       493 3.25494E-06 4.15251E-06 3.30872E-24
 -1       494 3.82633E-06 2.14130E-06 6.61744E-24
 -1       495 4.41868E-06 7.39139E-08 0.00000E+00
 -1       496 4.90029E-06-1.69649E-06 0.00000E+00
 -1       497 5.14010E-06-2.81895E-06 0.00000E+00
 -1       498 5.09165E-06-3.17124E-06 0.00000E+00
 -1       499 4.71147E-06-2.63628E-06 1.65436E-24
 -1       500 4.07125E-06-1.41086E-06-3.30872E-24
 -1       501 8.69542E-06 4.65818E-07 0.00000E+00
 -1       502 8.65060E-06 6.74943E-07 8.27181E-25
 -1       503 8.60564E-06 7.28328E-07 0.00000E+00
 -1       504 8.56114E-06 6.36985E-07-8.27181E-25
 -1       505 8.51663E-06 4.25662E-07 0.00000E+00
 -1       506 8.47220E-06 1.19344E-07 0.00000E+00
 -1       507 8.42775E-06-2.47976E-07 1.65436E-24
 -1       508 8.38332E-06-6.42195E-07 0.00000E+00
 -1       509 8.33889E-06-1.02665E-06 1.65436E-24
 -1       510 8.29448E-06-1.36470E-06 0.00000E+00
 -1       511 8.25010E-06-1.62411E-06 0.00000E+00
 -1       512 8.20573E-06-1.77279E-06 0.00000E+00
 -1       513 8.16137E-06-1.78914E-06 1.65436E-24
 -1       514 8.11698E-06-1.65183E-06-8.27181E-25
 -1       515 8.07256E-06-1.35409E-06 1.65436E-24
 -1       516 8.27201E-06 1.22170E-07-8.27181E-25
 -1       517 7.77512E-06 1.59745E-07-3.23117E-27
 -1       518 7.14283E-06 1.96860E-07 0.00000E+00
 -1       519 6.26567E-06 2.34408E-07-2.06795E-25
 -1       520 5.01266E-06 2.71770E-07 1.03398E-25
 -1       521 8.28945E-06 3.47168E-07 6.61744E-24
 -1       522 7.88202E-06 4.53637E-07 3.30872E-24
 -1       523 7.52190E-06 4.34623E-07-6.61744E-24
 -1       524 7.19930E-06 3.11465E-07 6.61744E-24
 -1       525 6.90707E-06 1.06787E-07 1.32349E-23
 -1       526 6.63675E-06-1.56998E-07-6.61744E-24
 -1       527 6.38003E-06-4.57220E-07 0.00000E+00
 -1       528 6.12840E-06-7.71168E-07 0.00000E+00
 -1       529 5.87339E-06-1.07607E-06 1.32349E-23
 -1       530 5.60651E-06-1.34920E-06 6.61744E-24
 -1       531 5.31928E-06-1.56791E-06 0.00000E+00
 -1       532 5.00345E-06-1.70967E-06-6.61744E-24
 -1       533 4.65060E-06-1.75225E-06-6.61744E-24
 -1       534 4.25362E-06-1.67328E-06 0.00000E+00
 -1       535 3.80289E-06-1.45168E-06-6.61744E-24
 -1       536 8.02908E-06-4.06488E-07 0.00000E+00
 -1       537 8.03242E-06-3.97777E-08-2.06795E-25
 -1       538 8.03576E-06 2.23004E-07 0.00000E+00
 -1       539 8.03944E-06 3.94297E-07 0.00000E+00
 -1       540 8.04319E-06 4.86510E-07 1.29247E-26
 -1       541 8.04700E-06 5.12059E-07-3.87741E-26
 -1       542 8.05082E-06 4.83357E-07-1.03398E-25
 -1       543 8.05466E-06 4.12815E-07 0.00000E+00
 -1       544 8.05850E-06 3.12845E-07 1.03398E-25
 -1       545 8.06235E-06 1.95852E-07 0.00000E+00
 -1       546 8.06619E-06 7.42481E-08 0.00000E+00
 -1       547 8.07004E-06-3.95588E-08 0.00000E+00
 -1       548 8.07390E-06-1.33161E-07 0.00000E+00
 -1       549 8.07778E-06-1.94152E-07-1.03398E-25
 -1       550 8.08167E-06-2.10112E-07-2.06795E-25
 -1       551 7.32173E-06-9.17959E-07-2.84343E-25
 -1       552 6.53450E-06-9.45710E-07-1.03398E-25
 -1       553 5.70215E-06-9.73452E-07 0.00000E+00
 -1       554 4.86126E-06-1.00154E-06 0.00000E+00
 -1       555 4.04842E-06-1.03040E-06-3.30872E-24
 -1       556 7.82351E-06-4.36260E-07 0.00000E+00
 -1       557 7.65920E-06-8.74750E-08 0.00000E+00
 -1       558 7.53051E-06 1.66861E-07 0.00000E+00
 -1       559 7.43327E-06 3.37691E-07 0.00000E+00
 -1       560 7.36327E-06 4.35967E-07 0.00000E+00
 -1       561 7.31637E-06 4.72732E-07 0.00000E+00
 -1       562 7.28840E-06 4.59034E-07 0.00000E+00
 -1       563 7.27522E-06 4.05928E-07 0.00000E+00
 -1       564 7.27266E-06 3.24475E-07 1.65436E-24
 -1       565 7.27660E-06 2.25735E-07-4.13590E-25
 -1       566 7.28287E-06 1.20769E-07 0.00000E+00
 -1       567 7.28735E-06 2.06420E-08-2.06795E-25
 -1       568 7.28591E-06-6.35856E-08-6.20385E-25
 -1       569 7.27447E-06-1.20863E-07-2.58494E-25
 -1       570 7.24897E-06-1.40149E-07 6.20385E-25
 -1       571 8.10845E-06-1.15956E-07 0.00000E+00
 -1       572 8.13188E-06-7.97687E-08-2.58494E-25
 -1       573 8.15551E-06-5.71250E-08-4.13590E-25
 -1       574 8.17923E-06-4.48798E-08-4.13590E-25
 -1       575 8.20299E-06-3.98746E-08 4.13590E-25
 -1       576 8.22676E-06-3.89305E-08-4.13590E-25
 -1       577 8.25054E-06-3.88670E-08 8.27181E-25
 -1       578 8.27433E-06-3.65010E-08-1.24077E-24
 -1       579 8.29811E-06-2.86491E-08 0.00000E+00
 -1       580 8.32190E-06-1.21282E-08-8.27181E-25
 -1       581 8.34568E-06 1.62445E-08 0.00000E+00
 -1       582 8.36946E-06 5.96485E-08 0.00000E+00
 -1       583 8.39324E-06 1.21260E-07 0.00000E+00
 -1       584 8.41700E-06 2.04223E-07 0.00000E+00
 -1       585 8.44072E-06 3.11665E-07 0.00000E+00
 -1       586 7.95968E-06-1.58797E-07 0.00000E+00
 -1       587 7.81524E-06-1.48834E-07 0.00000E+00
 -1       588 7.65993E-06-1.38881E-07 0.00000E+00
 -1       589 7.50151E-06-1.29023E-07-5.16988E-26
 -1       590 7.34772E-06-1.19386E-07 0.00000E+00
 -1       591 8.04794E-06-1.06974E-07-4.13590E-25
 -1       592 8.01315E-06-5.61570E-08-2.06795E-25
 -1       593 7.98146E-06-1.41410E-08 0.00000E+00
 -1       594 7.95224E-06 2.09776E-08 2.06795E-25
 -1       595 7.92486E-06 5.11016E-08 4.13590E-25
 -1       596 7.89863E-06 7.81201E-08 2.06795E-25
 -1       597 7.87284E-06 1.03920E-07 0.00000E+00
 -1       598 7.84680E-06 1.30387E-07 0.00000E+00
 -1       599 7.81980E-06 1.59406E-07 0.00000E+00
 -1       600 7.79114E-06 1.92862E-07 2.06795E-25
 -1       601 7.76012E-06 2.32641E-07 0.00000E+00
 -1       602 7.72604E-06 2.80629E-07 2.06795E-25
 -1       603 7.68821E-06 3.38714E-07 4.13590E-25
 -1       604 7.64600E-06 4.08798E-07-7.75482E-26
 -1       605 7.59879E-06 4.92781E-07 0.00000E+00
 -1       606 8.47311E-06 6.26081E-07-8.27181E-25
 -1       607 8.48131E-06 8.23450E-07 0.00000E+00
 -1       608 8.48934E-06 1.03754E-06 0.00000E+00
 -1       609 8.49729E-06 1.26715E-06 0.00000E+00
 -1       610 8.50521E-06 1.51109E-06 0.00000E+00
 -1       611 8.51312E-06 1.76813E-06 0.00000E+00
 -1       612 8.52101E-06 2.03705E-06 0.00000E+00
 -1       613 8.52890E-06 2.31663E-06 0.00000E+00
 -1       614 8.53679E-06 2.60564E-06 0.00000E+00
 -1       615 8.54467E-06 2.90286E-06-4.13590E-25
 -1       616 8.55255E-06 3.20705E-06 0.00000E+00
 -1       617 8.56043E-06 3.51699E-06 0.00000E+00
 -1       618 8.56830E-06 3.83146E-06 0.00000E+00
 -1       619 8.57616E-06 4.14923E-06-4.13590E-25
 -1       620 8.58400E-06 4.46907E-06 0.00000E+00
 -1       621 8.29521E-06 4.70934E-07-8.27181E-25
 -1       622 8.12989E-06 4.95526E-07-4.13590E-25
 -1       623 7.97039E-06 5.20122E-07 0.00000E+00
 -1       624 7.81872E-06 5.44653E-07 4.13590E-25
 -1       625 7.67687E-06 5.69040E-07 4.13590E-25
 -1       626 8.41179E-06 6.35205E-07 0.00000E+00
 -1       627 8.35201E-06 8.42494E-07 0.00000E+00
 -1       628 8.28583E-06 1.06662E-06-8.27181E-25
 -1       629 8.21403E-06 1.30565E-06 0.00000E+00
 -1       630 8.13735E-06 1.55763E-06-8.27181E-25
 -1       631 8.05656E-06 1.82058E-06 0.00000E+00
 -1       632 7.97238E-06 2.09253E-06 0.00000E+00
 -1       633 7.88558E-06 2.37148E-06 0.00000E+00
 -1       634 7.79689E-06 2.65546E-06 0.00000E+00
 -1       635 7.70705E-06 2.94248E-06 2.06795E-25
 -1       636 7.61681E-06 3.23056E-06 0.00000E+00
 -1       637 7.52691E-06 3.51771E-06-2.06795E-25
 -1       638 7.43807E-06 3.80195E-06-4.13590E-25
 -1       639 7.35099E-06 4.08130E-06-2.06795E-25
 -1       640 7.26634E-06 4.35374E-06-4.13590E-25
 -1       641 8.59196E-06 5.12198E-06 0.00000E+00
 -1       642 8.59187E-06 5.48872E-06 2.58494E-26
 -1       643 8.59179E-06 5.88500E-06 0.00000E+00
 -1       644 8.59165E-06 6.30582E-06-6.46235E-27
 -1       645 8.59150E-06 6.74618E-06-3.23117E-27
 -1       646 8.59134E-06 7.20106E-06-5.04871E-29
 -1       647 8.59117E-06 7.66547E-06 1.61559E-27
 -1       648 8.59099E-06 8.13440E-06 0.00000E+00
 -1       649 8.59081E-06 8.60284E-06 6.46235E-27
 -1       650 8.59062E-06 9.06579E-06 0.00000E+00
 -1       651 8.59044E-06 9.51824E-06 0.00000E+00
 -1       652 8.59022E-06 9.95518E-06 0.00000E+00
 -1       653 8.59001E-06 1.03716E-05 0.00000E+00
 -1       654 8.58961E-06 1.07626E-05-1.03398E-25
 -1       655 8.58929E-06 1.11230E-05 4.13590E-25
 -1       656 8.30463E-06 4.76201E-06 0.00000E+00
 -1       657 8.05718E-06 4.73279E-06 0.00000E+00
 -1       658 7.83544E-06 4.70362E-06 8.27181E-25
 -1       659 7.62539E-06 4.67443E-06-4.13590E-25
 -1       660 7.41304E-06 4.64519E-06 0.00000E+00
 -1       661 8.49944E-06 5.13182E-06 0.00000E+00
 -1       662 8.39823E-06 5.50092E-06 0.00000E+00
 -1       663 8.28847E-06 5.89275E-06 0.00000E+00
 -1       664 8.17180E-06 6.30348E-06-4.13590E-25
 -1       665 8.04954E-06 6.72915E-06 0.00000E+00
 -1       666 7.92316E-06 7.16587E-06 0.00000E+00
 -1       667 7.79410E-06 7.60974E-06 0.00000E+00
 -1       668 7.66383E-06 8.05689E-06 4.13590E-25
 -1       669 7.53378E-06 8.50341E-06 8.27181E-25
 -1       670 7.40542E-06 8.94543E-06-4.13590E-25
 -1       671 7.28019E-06 9.37904E-06 0.00000E+00
 -1       672 7.15954E-06 9.80035E-06 4.13590E-25
 -1       673 7.04493E-06 1.02055E-05 8.27181E-25
 -1       674 6.93760E-06 1.05904E-05 4.13590E-25
 -1       675 6.83931E-06 1.09514E-05 0.00000E+00
 -1       676 8.28086E-06 1.14204E-05 8.27181E-25
 -1       677 7.97390E-06 1.13929E-05 0.00000E+00
 -1       678 7.66719E-06 1.13653E-05 0.00000E+00
 -1       679 7.36085E-06 1.13379E-05 4.13590E-25
 -1       680 7.05499E-06 1.13105E-05 0.00000E+00
 -1       681 2.45417E-06-1.52228E-07-8.27181E-25
 -1       682 2.50771E-06-2.58578E-07 0.00000E+00
 -1       683 2.56113E-06-5.25474E-07 1.65436E-24
 -1       684 2.61480E-06-9.02266E-07 0.00000E+00
 -1       685 2.66846E-06-1.35186E-06-1.65436E-24
 -1       686 2.72215E-06-1.83736E-06 8.27181E-25
 -1       687 2.77586E-06-2.32627E-06 0.00000E+00
 -1       688 2.82958E-06-2.78613E-06 0.00000E+00
 -1       689 2.88332E-06-3.18088E-06 0.00000E+00
 -1       690 2.93708E-06-3.47430E-06 0.00000E+00
 -1       691 2.99085E-06-3.61765E-06-1.65436E-24
 -1       692 3.04451E-06-3.56183E-06 8.27181E-25
 -1       693 3.09810E-06-3.23315E-06 1.65436E-24
 -1       694 3.15091E-06-2.55724E-06-4.13590E-25
 -1       695 3.20351E-06-1.41693E-06 0.00000E+00
 -1       696 2.13277E-06-2.15665E-07-8.27181E-25
 -1       697 1.74935E-06-1.72756E-07 0.00000E+00
 -1       698 1.29860E-06-1.29940E-07 0.00000E+00
 -1       699 8.27089E-07-8.68171E-08 8.27181E-25
 -1       700 3.79366E-07-4.37089E-08 0.00000E+00
 -1       701 2.26675E-06-6.05831E-08 0.00000E+00
 -1       702 2.12441E-06 1.45670E-07 0.00000E+00
 -1       703 1.98270E-06 3.50880E-07 1.65436E-24
 -1       704 1.84522E-06 5.43161E-07-8.27181E-25
 -1       705 1.71620E-06 7.12870E-07 0.00000E+00
 -1       706 1.59923E-06 8.50184E-07 0.00000E+00
 -1       707 1.49636E-06 9.49881E-07-1.65436E-24
 -1       708 1.40952E-06 1.00680E-06 0.00000E+00
 -1       709 1.33846E-06 1.02163E-06 0.00000E+00
 -1       710 1.28290E-06 9.95183E-07 8.27181E-25
 -1       711 1.24038E-06 9.33968E-07 0.00000E+00
 -1       712 1.20853E-06 8.44611E-07 0.00000E+00
 -1       713 1.18329E-06 7.37626E-07 1.65436E-24
 -1       714 1.16119E-06 6.23802E-07 0.00000E+00
 -1       715 1.13723E-06 5.14382E-07 8.27181E-25
 -1       716 3.25314E-06 2.04024E-06 4.13590E-25
 -1       717 3.25614E-06 3.21243E-06 5.16988E-26
 -1       718 3.25952E-06 3.89468E-06-6.46235E-27
 -1       719 3.26331E-06 4.15897E-06 2.58494E-26
 -1       720 3.26713E-06 4.07372E-06 1.03398E-25
 -1       721 3.27095E-06 3.70727E-06 0.00000E+00
 -1       722 3.27466E-06 3.12557E-06 0.00000E+00
 -1       723 3.27829E-06 2.39449E-06 0.00000E+00
 -1       724 3.28185E-06 1.57864E-06 0.00000E+00
 -1       725 3.28535E-06 7.42624E-07 0.00000E+00
 -1       726 3.28887E-06-4.91620E-08 0.00000E+00
 -1       727 3.29228E-06-7.32287E-07 0.00000E+00
 -1       728 3.29577E-06-1.24140E-06 0.00000E+00
 -1       729 3.29844E-06-1.51113E-06 0.00000E+00
 -1       730 3.30144E-06-1.47413E-06 1.65436E-24
 -1       731 1.64605E-06 3.22838E-07 0.00000E+00
 -1       732 8.53997E-07 3.42382E-07-1.03398E-25
 -1       733 6.36859E-07 3.62110E-07 0.00000E+00
 -1       734 7.56089E-07 3.82140E-07-2.06795E-25
 -1       735 9.88270E-07 4.02191E-07 0.00000E+00
 -1       736 1.83877E-06 3.74734E-06-1.65436E-24
 -1       737-6.86102E-07 1.01010E-05 1.65436E-24
 -1       738-3.95202E-06 1.83905E-05 0.00000E+00
 -1       739-7.58411E-06 2.76303E-05 1.65436E-24
 -1       740-1.11141E-05 3.66046E-05 0.00000E+00
 -1       741-1.40755E-05 4.40984E-05 1.65436E-24
 -1       742-1.61453E-05 4.92567E-05 3.30872E-24
 -1       743-1.70095E-05 5.12340E-05 0.00000E+00
 -1       744-1.66526E-05 4.99586E-05 3.30872E-24
 -1       745-1.50651E-05 4.53738E-05-1.65436E-24
 -1       746-1.25341E-05 3.82306E-05-3.30872E-24
 -1       747-9.34629E-06 2.92943E-05-1.65436E-24
 -1       748-5.94357E-06 1.97699E-05 3.30872E-24
 -1       749-2.76687E-06 1.08660E-05 0.00000E+00
 -1       750-2.04861E-07 3.63917E-06-1.65436E-24
 -1       751 3.52914E-06-5.71400E-07-1.65436E-24
 -1       752 3.77331E-06-2.91943E-07 0.00000E+00
 -1       753 4.01658E-06-1.52839E-07 6.61744E-24
 -1       754 4.26263E-06-8.38970E-08 0.00000E+00
 -1       755 4.50876E-06-6.12929E-08 0.00000E+00
 -1       756 4.75544E-06-6.17176E-08-3.30872E-24
 -1       757 5.00219E-06-7.71447E-08 0.00000E+00
 -1       758 5.24904E-06-9.97137E-08 0.00000E+00
 -1       759 5.49589E-06-1.26307E-07 0.00000E+00
 -1       760 5.74268E-06-1.53852E-07 0.00000E+00
 -1       761 5.98944E-06-1.79907E-07-6.61744E-24
 -1       762 6.23580E-06-2.02016E-07 0.00000E+00
 -1       763 6.48211E-06-2.15101E-07 0.00000E+00
 -1       764 6.72646E-06-2.13986E-07 0.00000E+00
 -1       765 6.97147E-06-1.84096E-07 3.30872E-24
 -1       766 2.42317E-06-1.03370E-06 0.00000E+00
 -1       767 1.00579E-06-9.99057E-07-5.16988E-26
 -1       768-3.90915E-07-9.64794E-07 0.00000E+00
 -1       769-1.20528E-06-9.29291E-07 0.00000E+00
 -1       770-8.27134E-07-8.93441E-07 5.16988E-26
 -1       771 2.94471E-06-5.93676E-07-6.61744E-24
 -1       772 2.62282E-06-2.18354E-07 0.00000E+00
 -1       773 2.33259E-06 7.14774E-08 0.00000E+00
 -1       774 2.07097E-06 2.84444E-07 0.00000E+00
 -1       775 1.83488E-06 4.29179E-07 6.61744E-24
 -1       776 1.62110E-06 5.14344E-07-3.30872E-24
 -1       777 1.42640E-06 5.48607E-07 0.00000E+00
 -1       778 1.24754E-06 5.40642E-07 3.30872E-24
 -1       779 1.08126E-06 4.99130E-07 0.00000E+00
 -1       780 9.24315E-07 4.32759E-07 0.00000E+00
 -1       781 7.73444E-07 3.50218E-07-6.61744E-24
 -1       782 6.25417E-07 2.60206E-07 0.00000E+00
 -1       783 4.77001E-07 1.71421E-07 0.00000E+00
 -1       784 3.25094E-07 9.25907E-08 0.00000E+00
 -1       785 1.66609E-07 3.24382E-08 0.00000E+00
 -1       786 7.22614E-06-2.59810E-08 0.00000E+00
 -1       787 7.24737E-06 3.95655E-08 2.06795E-25
 -1       788 7.26858E-06 8.90130E-08 0.00000E+00
 -1       789 7.28998E-06 1.25281E-07 0.00000E+00
 -1       790 7.31141E-06 1.51282E-07 0.00000E+00
 -1       791 7.33287E-06 1.69932E-07 0.00000E+00
 -1       792 7.35435E-06 1.84141E-07 0.00000E+00
 -1       793 7.37583E-06 1.96822E-07 4.13590E-25
 -1       794 7.39731E-06 2.10886E-07 0.00000E+00
 -1       795 7.41879E-06 2.29243E-07-4.13590E-25
 -1       796 7.44027E-06 2.54805E-07-8.27181E-25
 -1       797 7.46173E-06 2.90487E-07 0.00000E+00
 -1       798 7.48318E-06 3.39203E-07 8.27181E-25
 -1       799 7.50455E-06 4.03869E-07 0.00000E+00
 -1       800 7.52592E-06 4.87409E-07 0.00000E+00
 -1       801 6.57027E-06-9.11288E-08 0.00000E+00
 -1       802 5.24597E-06-7.12179E-08-2.06795E-25
 -1       803 3.57968E-06-5.18885E-08 0.00000E+00
 -1       804 1.91859E-06-3.32243E-08 0.00000E+00
 -1       805 6.09894E-07-1.40392E-08 0.00000E+00
 -1       806 7.14964E-06-3.47616E-08 0.00000E+00
 -1       807 7.09542E-06 3.25051E-08 0.00000E+00
 -1       808 7.04358E-06 9.28534E-08 0.00000E+00
 -1       809 6.99367E-06 1.47772E-07-4.13590E-25
 -1       810 6.94520E-06 1.98741E-07 8.27181E-25
 -1       811 6.89765E-06 2.47233E-07 4.13590E-25
 -1       812 6.85047E-06 2.94718E-07-8.27181E-25
 -1       813 6.80311E-06 3.42664E-07 0.00000E+00
 -1       814 6.75503E-06 3.92541E-07 0.00000E+00
 -1       815 6.70568E-06 4.45816E-07-2.06795E-25
 -1       816 6.65450E-06 5.03956E-07 4.13590E-25
 -1       817 6.60097E-06 5.68433E-07 2.06795E-25
 -1       818 6.54452E-06 6.40713E-07 8.27181E-25
 -1       819 6.48468E-06 7.22267E-07 0.00000E+00
 -1       820 6.42097E-06 8.14568E-07 2.06795E-25
 -1       821 7.52545E-06 7.27737E-07-2.06795E-25
 -1       822 7.50283E-06 8.93445E-07 2.06795E-25
 -1       823 7.48022E-06 1.08663E-06 4.13590E-25
 -1       824 7.45740E-06 1.30405E-06 0.00000E+00
 -1       825 7.43455E-06 1.54245E-06 0.00000E+00
 -1       826 7.41166E-06 1.79857E-06 0.00000E+00
 -1       827 7.38876E-06 2.06916E-06-8.27181E-25
 -1       828 7.36584E-06 2.35096E-06-4.13590E-25
 -1       829 7.34293E-06 2.64071E-06 0.00000E+00
 -1       830 7.32001E-06 2.93514E-06 4.13590E-25
 -1       831 7.29711E-06 3.23099E-06 8.27181E-25
 -1       832 7.27423E-06 3.52499E-06-4.13590E-25
 -1       833 7.25138E-06 3.81388E-06-8.27181E-25
 -1       834 7.22870E-06 4.09439E-06 0.00000E+00
 -1       835 7.20600E-06 4.36327E-06 0.00000E+00
 -1       836 7.39100E-06 6.46125E-07 0.00000E+00
 -1       837 7.18634E-06 7.01416E-07-8.27181E-25
 -1       838 6.95648E-06 7.56607E-07 0.00000E+00
 -1       839 6.72519E-06 8.11660E-07 0.00000E+00
 -1       840 6.51623E-06 8.66800E-07 0.00000E+00
 -1       841 7.49590E-06 7.27376E-07-1.03398E-25
 -1       842 7.43203E-06 8.95628E-07-2.58494E-26
 -1       843 7.35696E-06 1.09377E-06 0.00000E+00
 -1       844 7.27207E-06 1.31789E-06-3.23117E-27
 -1       845 7.17889E-06 1.56411E-06-1.29247E-26
 -1       846 7.07887E-06 1.82850E-06 0.00000E+00
 -1       847 6.97351E-06 2.10712E-06 0.00000E+00
 -1       848 6.86429E-06 2.39602E-06 0.00000E+00
 -1       849 6.75270E-06 2.69124E-06 0.00000E+00
 -1       850 6.64023E-06 2.98878E-06-1.29247E-26
 -1       851 6.52836E-06 3.28471E-06-2.58494E-26
 -1       852 6.41858E-06 3.57502E-06 2.58494E-26
 -1       853 6.31239E-06 3.85576E-06 5.16988E-26
 -1       854 6.21118E-06 4.12293E-06-5.16988E-26
 -1       855 6.11656E-06 4.37265E-06-2.06795E-25
 -1       856 7.15857E-06 4.89054E-06-4.13590E-25
 -1       857 7.13147E-06 5.21357E-06 2.06795E-25
 -1       858 7.10438E-06 5.57986E-06 0.00000E+00
 -1       859 7.07708E-06 5.98283E-06 4.13590E-25
 -1       860 7.04974E-06 6.41591E-06 0.00000E+00
 -1       861 7.02235E-06 6.87251E-06 0.00000E+00
 -1       862 6.99495E-06 7.34607E-06 8.27181E-25
 -1       863 6.96753E-06 7.82999E-06-4.13590E-25
 -1       864 6.94012E-06 8.31767E-06 8.27181E-25
 -1       865 6.91270E-06 8.80255E-06 0.00000E+00
 -1       866 6.88530E-06 9.27801E-06 8.27181E-25
 -1       867 6.85793E-06 9.73748E-06 0.00000E+00
 -1       868 6.83058E-06 1.01744E-05 8.27181E-25
 -1       869 6.80336E-06 1.05821E-05 0.00000E+00
 -1       870 6.77614E-06 1.09541E-05 0.00000E+00
 -1       871 6.96974E-06 4.61493E-06 0.00000E+00
 -1       872 6.77268E-06 4.61235E-06 0.00000E+00
 -1       873 6.58672E-06 4.60971E-06 0.00000E+00
 -1       874 6.40525E-06 4.60698E-06-5.16988E-26
 -1       875 6.22166E-06 4.60413E-06 2.06795E-25
 -1       876 7.12012E-06 4.89963E-06 0.00000E+00
 -1       877 7.04150E-06 5.22482E-06 0.00000E+00
 -1       878 6.94901E-06 5.58687E-06 8.27181E-25
 -1       879 6.84494E-06 5.98046E-06 4.13590E-25
 -1       880 6.73110E-06 6.40011E-06 0.00000E+00
 -1       881 6.60955E-06 6.84044E-06 0.00000E+00
 -1       882 6.48227E-06 7.29606E-06 8.27181E-25
 -1       883 6.35128E-06 7.76158E-06 4.13590E-25
 -1       884 6.21858E-06 8.23162E-06 0.00000E+00
 -1       885 6.08620E-06 8.70081E-06 0.00000E+00
 -1       886 5.95613E-06 9.16379E-06 0.00000E+00
 -1       887 5.83038E-06 9.61515E-06 0.00000E+00
 -1       888 5.71097E-06 1.00495E-05-8.27181E-25
 -1       889 5.59969E-06 1.04614E-05 0.00000E+00
 -1       890 5.49887E-06 1.08456E-05 0.00000E+00
 -1       891 6.48620E-06 1.12693E-05-4.13590E-25
 -1       892 6.27484E-06 1.12545E-05 2.06795E-25
 -1       893 6.08856E-06 1.12398E-05 0.00000E+00
 -1       894 5.90019E-06 1.12250E-05 0.00000E+00
 -1       895 5.68259E-06 1.12103E-05-4.13590E-25
 -1       896 6.90124E-08 3.00074E-07 0.00000E+00
 -1       897 1.38596E-07 5.11659E-07 8.27181E-25
 -1       898 2.08157E-07 6.54014E-07 0.00000E+00
 -1       899 2.77828E-07 7.46173E-07 8.27181E-25
 -1       900 3.47504E-07 7.99045E-07-1.65436E-24
 -1       901 4.17202E-07 8.23420E-07-8.27181E-25
 -1       902 4.86902E-07 8.25468E-07 1.65436E-24
 -1       903 5.56601E-07 8.11292E-07 0.00000E+00
 -1       904 6.26297E-07 7.84367E-07-1.65436E-24
 -1       905 6.95976E-07 7.48127E-07 0.00000E+00
 -1       906 7.65642E-07 7.04500E-07 0.00000E+00
 -1       907 8.35220E-07 6.55388E-07 8.27181E-25
 -1       908 9.04784E-07 6.01806E-07-1.65436E-24
 -1       909 9.73901E-07 5.44756E-07 0.00000E+00
 -1       910 1.04317E-06 4.84676E-07 0.00000E+00
 -1       911 1.12601E-06 5.00528E-07-4.13590E-25
 -1       912 1.14204E-06 8.62331E-07 0.00000E+00
 -1       913 1.15797E-06 1.44033E-06 0.00000E+00
 -1       914 1.17384E-06 2.16760E-06-2.06795E-25
 -1       915 1.18965E-06 2.98262E-06 0.00000E+00
 -1       916 1.20544E-06 3.82390E-06 2.06795E-25
 -1       917 1.22126E-06 4.63090E-06 0.00000E+00
 -1       918 1.23715E-06 5.34306E-06 0.00000E+00
 -1       919 1.25313E-06 5.89642E-06 0.00000E+00
 -1       920 1.26918E-06 6.22688E-06 0.00000E+00
 -1       921 1.28528E-06 6.26232E-06 0.00000E+00
 -1       922 1.30124E-06 5.93042E-06 0.00000E+00
 -1       923 1.31695E-06 5.14563E-06 0.00000E+00
 -1       924 1.33171E-06 3.82208E-06 5.16988E-26
 -1       925 1.34558E-06 1.85461E-06 2.06795E-25
 -1       926 1.27053E-06-3.93999E-06 0.00000E+00
 -1       927 1.18352E-06-6.98051E-06 0.00000E+00
 -1       928 1.09738E-06-9.74995E-06 1.65436E-24
 -1       929 1.01209E-06-1.20153E-05 1.65436E-24
 -1       930 9.27978E-07-1.36305E-05 0.00000E+00
 -1       931 8.44724E-07-1.44520E-05-1.65436E-24
 -1       932 7.61783E-07-1.44728E-05-3.30872E-24
 -1       933 6.78528E-07-1.36893E-05-1.65436E-24
 -1       934 5.94567E-07-1.22363E-05 0.00000E+00
 -1       935 5.09712E-07-1.02514E-05 1.65436E-24
 -1       936 4.24241E-07-7.96362E-06-3.30872E-24
 -1       937 3.38560E-07-5.60336E-06 0.00000E+00
 -1       938 2.53235E-07-3.41338E-06-3.30872E-24
 -1       939 1.68454E-07-1.63586E-06 0.00000E+00
 -1       940 8.45703E-08-4.41805E-07 3.30872E-24
 -1       941 3.76555E-07 6.12874E-08 0.00000E+00
 -1       942 7.73909E-07 1.16224E-07 0.00000E+00
 -1       943 1.16994E-06 1.67287E-07 0.00000E+00
 -1       944 1.56993E-06 2.16883E-07 0.00000E+00
 -1       945 1.97003E-06 2.65592E-07 0.00000E+00
 -1       946 2.37092E-06 3.13981E-07-6.61744E-24
 -1       947 2.77191E-06 3.62216E-07-1.32349E-23
 -1       948 3.17302E-06 4.10457E-07-6.61744E-24
 -1       949 3.57415E-06 4.58878E-07 0.00000E+00
 -1       950 3.97518E-06 5.07654E-07 6.61744E-24
 -1       951 4.37614E-06 5.57402E-07 1.32349E-23
 -1       952 4.77647E-06 6.08760E-07 0.00000E+00
 -1       953 5.17671E-06 6.64375E-07 1.32349E-23
 -1       954 5.57377E-06 7.26972E-07 3.30872E-24
 -1       955 5.97189E-06 8.07965E-07 0.00000E+00
 -1       956 6.33345E-06 1.06438E-06 4.13590E-25
 -1       957 6.31327E-06 1.23201E-06-1.03398E-25
 -1       958 6.29302E-06 1.41976E-06 4.13590E-25
 -1       959 6.27273E-06 1.62524E-06 0.00000E+00
 -1       960 6.25243E-06 1.84609E-06-8.27181E-25
 -1       961 6.23211E-06 2.07988E-06 2.06795E-25
 -1       962 6.21179E-06 2.32421E-06-8.27181E-25
 -1       963 6.19147E-06 2.57668E-06-4.13590E-25
 -1       964 6.17114E-06 2.83488E-06 8.27181E-25
 -1       965 6.15081E-06 3.09641E-06 0.00000E+00
 -1       966 6.13049E-06 3.35885E-06 8.27181E-25
 -1       967 6.11017E-06 3.61980E-06 4.13590E-25
 -1       968 6.08987E-06 3.87685E-06 8.27181E-25
 -1       969 6.06959E-06 4.12761E-06 0.00000E+00
 -1       970 6.04937E-06 4.36969E-06 0.00000E+00
 -1       971 5.99165E-06 4.84892E-06 0.00000E+00
 -1       972 5.95283E-06 5.15015E-06 0.00000E+00
 -1       973 5.91401E-06 5.49784E-06 0.00000E+00
 -1       974 5.87502E-06 5.88530E-06 4.13590E-25
 -1       975 5.83599E-06 6.30585E-06 0.00000E+00
 -1       976 5.79692E-06 6.75277E-06 0.00000E+00
 -1       977 5.75784E-06 7.21938E-06 8.27181E-25
 -1       978 5.71875E-06 7.69894E-06 0.00000E+00
 -1       979 5.67965E-06 8.18474E-06-8.27181E-25
 -1       980 5.64057E-06 8.67007E-06 0.00000E+00
 -1       981 5.60149E-06 9.14820E-06-8.27181E-25
 -1       982 5.56247E-06 9.61241E-06 0.00000E+00
 -1       983 5.52348E-06 1.00560E-05 0.00000E+00
 -1       984 5.48472E-06 1.04722E-05-4.13590E-25
 -1       985 5.44596E-06 1.08544E-05 0.00000E+00
 -3
    1PSTEP                        12           6           1          
  100CL  106 1.51367E-01         841                     0    6           1
 -4  STRESS      6    1
 -5  SXX         1    4    1    1
 -5  SYY         1    4    2    2
 -5  SZZ         1    4    3    3
 -5  SXY         1    4    1    2
 -5  SYZ         1    4    2    3
 -5  SZX         1    4    3    1
 -1         1-6.41408E+05-2.06607E+05-1.32723E+05-1.81707E+05-1.15203E-10-2.69210E-10
 -1         2-4.04939E+05-2.77851E+04 5.17245E+02-3.99398E+04-8.47876E-10 6.20730E-10
 -1         3-2.16430E+05-7.32962E+04-1.25424E+04-1.73061E+04 1.42549E-10 6.74731E-10
 -1         4-1.13326E+05-1.87045E+04 1.74845E+02-1.10273E+04 4.51355E-11 3.91573E-10
 -1         5-6.04526E+04 2.54921E+04-2.78461E+04-1.19690E+03 2.19279E-09 1.03304E-09
 -1         8-3.47121E+05-1.39054E+05-5.31843E+04-1.27402E+05-7.50333E-11-3.89264E-10
 -1         9-3.65059E+05-8.63750E+04-4.56312E+04-8.31077E+04-2.30860E-10-6.11180E-10
 -1        10-1.70671E+05-9.50514E+04-8.96334E+03-4.08071E+04-1.08654E-09-6.27324E-10
 -1        11-1.09540E+05-2.89763E+04 1.50923E+02-2.34334E+04 3.76806E-10-4.58859E-10
 -1        12-7.18256E+04 1.93541E+04-3.11147E+04-9.53651E+03 6.76323E-10-3.44795E-10
 -1        15 3.51731E+03-1.69377E+04 6.66644E+02-2.95313E+04-1.35742E-10 1.13050E-09
 -1        16-1.97933E+05-2.88909E+04 1.42605E+04-9.15504E+04 1.55069E-10 1.08177E-09
 -1        17-1.21571E+05-7.89731E+04-1.29982E+04-6.62720E+04-8.88879E-10 2.91341E-10
 -1        18-4.84672E+04-2.65074E+04-1.93594E+04-3.00762E+04 1.01810E-09 3.29540E-10
 -1        19-1.42102E+04 1.37951E+04-1.22824E+04-9.76462E+03-2.06910E-10 1.06517E-09
 -1        20 2.02000E+04-1.51731E+04-2.62446E+03 1.10185E+04 6.72742E-10-6.87805E-11
 -1        21 2.76462E+02-3.02515E+04 8.38733E+03 6.33502E+00 3.32673E-09 2.52587E-10
 -1        22 6.76613E+03 3.82640E+04 2.67203E+02-9.98728E+03-1.59957E-10 2.42835E-10
 -1        23-7.33895E+04 6.42319E+03 1.19112E+03-3.17557E+04-5.84767E-10-4.80062E-10
 -1        24-4.73066E+04 6.22491E+03 5.69206E+04-9.70777E+04-3.23447E-09 2.60722E-10
 -1        25 1.19873E+05 3.86535E+04 3.64220E+04-6.00700E+04 2.43593E-10 7.57912E-13
 -1        26 5.06479E+02 3.19489E+04 1.59611E+03-5.86934E+03-1.46770E-10-1.18424E-10
 -1        27-7.04164E+03-1.26925E+04-5.47502E+03 1.53593E+04 1.09026E-10-3.54551E-10
 -1        28-2.41990E+03-2.40156E+04-1.31136E+02 1.16126E+04-1.17296E-09-6.77043E-10
 -1        29 9.56445E+04 6.61756E+04 2.78374E+02-5.13684E+02 3.58421E-11 3.75167E-12
 -1        30 2.54954E+04 9.79869E+03 4.07061E+02-8.85248E+03-3.77484E-10 1.33127E-10
 -1        31-1.00241E+05 8.03386E+03 1.46727E+03-2.48728E+04 2.20278E-09-3.93493E-09
 -1        32 1.70214E+05 9.37389E+04 1.18180E+05-9.86022E+04 2.43176E-09 9.04038E-10
 -1        33 2.80452E+05 1.11214E+05 8.57338E+04-8.60140E+03-5.55013E-09 8.01492E-11
 -1        34-4.07331E+04-5.13364E+03-9.44564E+02 8.86759E+03-5.56392E-10 2.57614E-10
 -1        35-6.85947E+03-8.03664E+03-1.41938E+02 1.73627E+04 1.36469E-09-1.00075E-09
 -1        36-8.66639E+05 2.65312E+04-6.13345E+04 1.08923E-07-2.18978E-11-1.21145E-09
 -1        37-8.93194E+05-3.07126E+04-4.34043E+04 7.09949E-08 1.93784E-10 3.76986E-10
 -1        38-8.76891E+05 4.15886E+03-1.58753E+04-9.55071E-08 1.91844E-10-2.71939E-10
 -1        39-8.81237E+05-4.81273E+03-9.98350E+03-6.15601E-09-1.21587E-09-1.68154E-09
 -1        40-8.78581E+05 6.50490E+02-4.07877E+03-3.23027E-08-9.93386E-10-2.38515E-10
 -1        41-8.79264E+05-7.61365E+02-2.43139E+03-8.21127E-08-5.08508E-10-3.11502E-11
 -1        42-8.78860E+05 1.10427E+02-1.18094E+03-9.48512E-09-1.42321E-09-1.59554E-09
 -1        43-8.78966E+05-1.90228E+02-9.20558E+02-2.22012E-08-1.23188E-09-7.88631E-10
 -1        44-8.78878E+05 7.97215E+01-9.05922E+02-5.13412E-08-7.79216E-10 3.85896E-10
 -1        45-8.79122E+05-4.97352E+02-1.63526E+03-1.15626E-07-1.67102E-10 1.45266E-09
 -1        46-8.78704E+05 4.17344E+02-2.64587E+03-1.47813E-08 2.70040E-10 1.48714E-09
 -1        47-8.80377E+05-3.07917E+03-6.40380E+03-4.63137E-08-6.97452E-11 1.12379E-09
 -1        48-8.77625E+05 2.65966E+03-1.01613E+04-1.47704E-08-1.13914E-10-6.09816E-10
 -1        49-8.88022E+05-1.96402E+04-2.77606E+04 8.57360E-08-1.72699E-09-3.61524E-10
 -1        50-8.71071E+05 1.69656E+04-3.92275E+04 1.33927E-08-2.09415E-09 8.03993E-10
 -1        51 7.09883E+03-8.48546E+04 1.12594E+04-2.20909E+05 3.63798E-12-5.51154E-10
 -1        52 2.82462E+03-8.32612E+04 6.75585E+03-2.43162E+05 8.73115E-11 2.35559E-09
 -1        53 1.53326E+03-8.47682E+04 5.44074E+03-2.20354E+05 2.18279E-11-2.21917E-10
 -1        54 3.84139E+03-8.34174E+04 8.24125E+03-2.43776E+05 1.27329E-11-7.74889E-10
 -1        55 1.00064E+04-8.58534E+04 1.49779E+04-2.20279E+05-4.72937E-11 1.01772E-09
 -1        56-9.70697E+05-1.09717E+05-7.98997E+04-3.75583E+05 2.34650E-10-1.55705E-09
 -1        57-1.00837E+06-1.74534E+05-5.35821E+04-3.66060E+05 4.86807E-10-1.17234E-09
 -1        58-9.86151E+05-1.34964E+05-1.88294E+04-3.71317E+05-2.31921E-10-1.92813E-10
 -1        59-9.90560E+05-1.44797E+05-1.11626E+04-3.71208E+05-3.31340E-10-2.47428E-09
 -1        60-9.88341E+05-1.38453E+05-4.40617E+03-3.70800E+05 3.14685E-10-7.16682E-10
 -1        61-9.88068E+05-1.40676E+05-2.49407E+03-3.71787E+05-5.40865E-11 6.75669E-10
 -1        62-9.88618E+05-1.38961E+05-1.21709E+03-3.70782E+05-2.53948E-10 5.99698E-10
 -1        63-9.87839E+05-1.40098E+05-1.01956E+03-3.71748E+05-7.54738E-11 1.88923E-09
 -1        64-9.88566E+05-1.39018E+05-1.18593E+03-3.70844E+05-2.84558E-10 8.22524E-11
 -1        65-9.88268E+05-1.40432E+05-2.40221E+03-3.71540E+05-3.71774E-11-5.81082E-10
 -1        66-9.88192E+05-1.38640E+05-4.23190E+03-3.70985E+05-4.03020E-11 6.15273E-10
 -1        67-9.90868E+05-1.44175E+05-1.07124E+04-3.70743E+05-4.00178E-10 7.22594E-10
 -1        68-9.85989E+05-1.35395E+05-1.80683E+04-3.71598E+05-1.05047E-10 6.63931E-11
 -1        69-1.00814E+06-1.72516E+05-5.14122E+04-3.65583E+05 1.34605E-10-1.07866E-09
 -1        70-9.71072E+05-1.11261E+05-7.66661E+04-3.75794E+05-6.31189E-10-4.47471E-10
 -1        71-4.12981E+05-8.72063E+02 2.01622E+03-3.98330E-10-5.43701E-10 8.55039E-10
 -1        72-4.12068E+05 1.00947E+03 1.42489E+03-3.90677E-08 1.17051E-10 8.05230E-10
 -1        73-4.12644E+05-1.36613E+02 5.17597E+02-2.22952E-08 4.69323E-11-1.10651E-09
 -1        74-4.12462E+05 1.57442E+02 3.18755E+02-3.04322E-08 2.84214E-11-4.00433E-10
 -1        75-4.12588E+05-2.07159E+01 1.15802E+02-5.24213E-09-4.80601E-10 4.81272E-10
 -1        76-4.12530E+05 1.99173E+01 4.06886E+01 5.35263E-08-1.82749E-10 1.46027E-09
 -1        77-4.12576E+05 8.13056E-01-3.47730E+01 1.36598E-08-1.28529E-10 9.94557E-10
 -1        78-4.12556E+05-2.72080E+01-1.31788E+02-3.39861E-08-2.85048E-10-2.72699E-10
 -1        79-4.12561E+05 2.63836E+01-2.63990E+02 3.28307E-08-4.20189E-10 1.52440E-09
 -1        80-4.12648E+05-1.99950E+02-6.22737E+02-5.68190E-08 9.27893E-11 8.71154E-10
 -1        81-4.12484E+05 1.73445E+02-1.07825E+03 4.57380E-08 1.51631E-10 4.76518E-10
 -1        82-4.13178E+05-1.28618E+03-2.66358E+03-7.82027E-09-3.57749E-10 1.98952E-10
 -1        83-4.12032E+05 1.11183E+03-4.24314E+03 4.21997E-08 2.45151E-10 2.86718E-10
 -1        84-4.16374E+05-8.21107E+03-1.16053E+04 4.37535E-08-8.51358E-10-3.82670E-10
 -1        85-4.09290E+05 7.09287E+03-1.64034E+04 3.78790E-08-5.74545E-10 4.15639E-10
 -1        86-1.89968E+04 4.70385E+04 4.46195E+04 2.01351E+02-1.09139E-11 1.00142E-09
 -1        87 2.36153E+04 6.69590E+04 3.44286E+04-8.34907E+02-1.01863E-10-7.22189E-10
 -1        88-4.59931E+03 5.36184E+04 1.73481E+04 1.63268E+02-1.86901E-10 3.90726E-10
 -1        89 1.56732E+04 6.32726E+04 2.40777E+04-7.89308E+02-7.00311E-11 8.75314E-10
 -1        90-1.10612E+04 5.07230E+04 2.68141E+04 1.55756E+02-2.51021E-10-1.34516E-10
 -1        91-4.35189E+05-5.92573E+04-5.24398E+03-1.64248E+05 8.39123E-10 5.51609E-10
 -1        92-4.38324E+05-6.36490E+04-3.63875E+03-1.62837E+05 1.50786E-09 5.91172E-11
 -1        93-4.36112E+05-6.12807E+04-1.23140E+03-1.64049E+05-6.21839E-10-1.02318E-12
 -1        94-4.37181E+05-6.13722E+04-7.74038E+02-1.63139E+05-5.21013E-10 1.61387E-09
 -1        95-4.36331E+05-6.15325E+04-3.00058E+02-1.63946E+05 5.18558E-10 3.37806E-10
 -1        96-4.36736E+05-6.12683E+04-1.95991E+02-1.63466E+05 3.45039E-10 3.33932E-10
 -1        97-4.36557E+05-6.13845E+04-1.34237E+02-1.63722E+05-2.90932E-11-1.02435E-10
 -1        98-4.36341E+05-6.16361E+04-1.90623E+02-1.63910E+05 2.28169E-10-6.23771E-10
 -1        99-4.36726E+05-6.11647E+04-3.05076E+02-1.63502E+05-2.57430E-10-1.49328E-10
 -1       100-4.36258E+05-6.21045E+04-7.35521E+02-1.64146E+05 5.85850E-10 8.77307E-10
 -1       101-4.36640E+05-6.09161E+04-1.26213E+03-1.63486E+05 7.08098E-10 6.14989E-10
 -1       102-4.37247E+05-6.35215E+04-3.39502E+03-1.63758E+05-3.30132E-10 3.83068E-10
 -1       103-4.35738E+05-5.97488E+04-5.43801E+03-1.63890E+05 5.61613E-11-6.54381E-10
 -1       104-4.43104E+05-7.28269E+04-1.61048E+04-1.61527E+05 4.12854E-10-1.92358E-10
 -1       105-4.30787E+05-5.16174E+04-2.32021E+04-1.65716E+05-5.59339E-10 9.78616E-10
 -1       106-2.41113E+05 5.47232E+02-1.26616E+03-4.04417E-08-6.07307E-11-3.91594E-10
 -1       107-2.41641E+05-6.33567E+02-8.96661E+02-4.56226E-08-7.52967E-11 4.17344E-10
 -1       108-2.41325E+05 8.58327E+01-3.29906E+02 2.03058E-08 1.41364E-10-8.78231E-12
 -1       109-2.41395E+05-9.96532E+01-2.10806E+02 7.87071E-08 2.49348E-10-9.64359E-10
 -1       110-2.41359E+05 1.37495E+01-9.33294E+01 7.39390E-08-1.16690E-10-4.11546E-11
 -1       111-2.41355E+05-1.82412E+01-6.97037E+01 6.06719E-08 7.50818E-11 8.21728E-10
 -1       112-2.41364E+05 4.48219E+00-6.09351E+01 1.19131E-07-3.04186E-10 1.02744E-10
 -1       113-2.41358E+05-2.05247E+01-9.94487E+01-3.53376E-08-5.30561E-10 9.85518E-10
 -1       114-2.41357E+05 1.60341E+01-1.64514E+02 2.82532E-08-2.48365E-11 2.62226E-10
 -1       115-2.41409E+05-1.17567E+02-3.69478E+02 5.97196E-08 2.64788E-10-1.56902E-09
 -1       116-2.41313E+05 1.01462E+02-6.32872E+02-5.51458E-09-1.18761E-10-1.46343E-10
 -1       117-2.41718E+05-7.51819E+02-1.55828E+03-1.70204E-08-5.33045E-10-5.28757E-10
 -1       118-2.41048E+05 6.49816E+02-2.48089E+03-7.34953E-08-6.39563E-10-4.08932E-10
 -1       119-2.43586E+05-4.79897E+03-6.78348E+03-3.52294E-08-2.87535E-10 1.11868E-10
 -1       120-2.39445E+05 4.14542E+03-9.58768E+03 3.45047E-08-2.50443E-11 5.01586E-10
 -1       121-3.39072E+02-2.10348E+05 1.60737E+03 2.30410E+03-5.94582E-11-5.00222E-11
 -1       122 4.99439E+02-2.09747E+05 1.12420E+03 8.25190E+03-1.50123E-10-5.04087E-10
 -1       123-5.70549E+01-2.10130E+05 6.51619E+02 2.31666E+03-2.37151E-10 2.75350E-10
 -1       124 3.43830E+02-2.09834E+05 8.45466E+02 8.20524E+03-5.01160E-10 6.70639E-10
 -1       125-2.23548E+02-2.10252E+05 1.07459E+03 2.35078E+03-5.35465E-10-1.08184E-09
 -1       126-2.08346E+05-2.89093E+04-9.05972E+02-7.82393E+04 5.55573E-10 9.08472E-10
 -1       127-2.08663E+05-2.98773E+04-6.28593E+02-7.82327E+04 7.78188E-09-2.71104E-09
 -1       128-2.08559E+05-2.92052E+04-2.13438E+02-7.81437E+04 2.86524E-06-1.07286E-06
 -1       129-2.08417E+05-2.95338E+04-1.35093E+02-7.83419E+04 5.71449E-06-2.14168E-06
 -1       130-2.08592E+05-2.92525E+04-5.45355E+01-7.81302E+04 2.86450E-06-1.07428E-06
 -1       131-2.08403E+05-2.94567E+04-4.06501E+01-7.83294E+04 8.74565E-09-2.25914E-09
 -1       132-2.08572E+05-2.92823E+04-3.49868E+01-7.81561E+04 2.94786E-10 8.48722E-10
 -1       133-2.08471E+05-2.93945E+04-6.22038E+01-7.82532E+04 1.61569E-10-2.39844E-11
 -1       134-2.08524E+05-2.93147E+04-1.05817E+02-7.82064E+04-5.28748E-10 1.30470E-10
 -1       135-2.08607E+05-2.93921E+04-2.60173E+02-7.81410E+04 3.98039E-10-1.67105E-10
 -1       136-2.08436E+05-2.92848E+04-4.48852E+02-7.82683E+04-9.94831E-11 1.37908E-09
 -1       137-2.08996E+05-2.98626E+04-1.20833E+03-7.79642E+04-1.46933E-08 5.94065E-09
 -1       138-2.08135E+05-2.88445E+04-1.93463E+03-7.83832E+04-5.56021E-06 2.08559E-06
 -1       139-2.10983E+05-3.32742E+04-5.73193E+03-7.72860E+04-1.10823E-05 4.15949E-06
 -1       140-2.06450E+05-2.58754E+04-8.25610E+03-7.89458E+04-5.56321E-06 2.08589E-06
 -1       141-1.14316E+05-7.23785E+02 1.67325E+03 2.07009E-08 4.46265E-11 2.67278E-10
 -1       142-1.13579E+05 8.37797E+02 1.18204E+03-2.54954E-08-3.82119E-11-2.30784E-11
 -1       143-1.14036E+05-1.13353E+02 4.28248E+02 4.65924E-08 1.71078E-10 1.62004E-12
 -1       144-1.13906E+05 1.30428E+02 2.61549E+02 4.82860E-08 4.75667E-12 9.57186E-10
 -1       145-1.13989E+05-1.69796E+01 9.02473E+01 1.82906E-08 5.63176E-11-1.79213E-10
 -1       146-1.13963E+05 1.48912E+01 2.11599E+01-5.15871E-08-6.11468E-11-1.44854E-09
 -1       147-1.13979E+05 2.10012E+00-5.25243E+01 8.18948E-10-8.42427E-11 6.44988E-10
 -1       148-1.13991E+05-3.33170E+01-1.61470E+02-8.56051E-09-1.09536E-10 4.41986E-10
 -1       149-1.13962E+05 3.12028E+01-3.13531E+02-1.94575E-08-1.93295E-10 3.17911E-10
 -1       150-1.14098E+05-2.35342E+02-7.34197E+02-6.86958E-08-1.39794E-10 1.20664E-10
 -1       151-1.13872E+05 2.03999E+02-1.26925E+03-3.59647E-08-2.46730E-10-2.01226E-10
 -1       152-1.14720E+05-1.51257E+03-3.13354E+03-2.27528E-08-4.57987E-11-6.41762E-10
 -1       153-1.13339E+05 1.30749E+03-4.99131E+03 4.13820E-08 4.56152E-10 2.53294E-10
 -1       154-1.18479E+05-9.65613E+03-1.36493E+04-1.88604E-08 2.09735E-10 3.55612E-10
 -1       155-1.10114E+05 8.34113E+03-1.92914E+04 8.70432E-09 1.31968E-09 5.58430E-10
 -1       156-3.72452E+03-3.92909E+04 8.86670E+03-1.06928E+02-2.68301E-11-9.31266E-10
 -1       157 4.90465E+03-3.52479E+04 7.32560E+03 4.33017E+02-7.28164E-11 8.54019E-11
 -1       158-1.17628E+03-3.81359E+04 4.43657E+03-1.06056E+02-1.66693E-11-8.72904E-10
 -1       159 5.14354E+03-3.51335E+04 7.63728E+03 4.21556E+02 2.83649E-11 2.39735E-10
 -1       160-3.96329E+03-3.94051E+04 9.40068E+03-9.54657E+01 1.20963E-10 8.00640E-10
 -1       161-1.19290E+05-1.66621E+04-2.69792E+02-4.47702E+04 1.52410E-06-5.71214E-07
 -1       162-1.19390E+05-1.69407E+04-1.88339E+02-4.47564E+04 3.03081E-06-1.13685E-06
 -1       163-1.19347E+05-1.67570E+04-6.60182E+01-4.47497E+04-9.45548E-07 3.54108E-07
 -1       164-1.19326E+05-1.68295E+04-4.60557E+01-4.47777E+04-4.93956E-06 1.85206E-06
 -1       165-1.19354E+05-1.67732E+04-2.76360E+01-4.47489E+04-9.19001E-06 3.44523E-06
 -1       166-1.19325E+05-1.68115E+04-3.85618E+01-4.47741E+04-1.34133E-05 5.03066E-06
 -1       167-1.19348E+05-1.67750E+04-6.05020E+01-4.47533E+04-6.72209E-06 2.52005E-06
 -1       168-1.19353E+05-1.68323E+04-1.38790E+02-4.47599E+04-1.85665E-08 8.86092E-09
 -1       169-1.19326E+05-1.67525E+04-2.50691E+02-4.47631E+04-1.04798E-09 1.67532E-10
 -1       170-1.19490E+05-1.70267E+04-6.29702E+02-4.47132E+04-2.11955E-08 8.68121E-09
 -1       171-1.19212E+05-1.65807E+04-1.08754E+03-4.48000E+04-7.77120E-06 2.91423E-06
 -1       172-1.20271E+05-1.83275E+04-2.93225E+03-4.44654E+04-1.55098E-05 5.81734E-06
 -1       173-1.18544E+05-1.54524E+04-4.69465E+03-4.50107E+04-1.18963E-05 4.46097E-06
 -1       174-1.25031E+05-2.66669E+04-1.39095E+04-4.28890E+04-8.24541E-06 3.09337E-06
 -1       175-1.14453E+05-8.24668E+03-2.00334E+04-4.63746E+04-4.13033E-06 1.54776E-06
 -1       191 2.23055E+02 1.07416E+05 3.55664E+02-2.29233E+03-1.37334E-10 7.34872E-10
 -1       192 8.31812E+01 1.07464E+05 2.13006E+02-2.43912E+03-1.79568E-10 8.01265E-10
 -1       193 4.05430E+01 1.07433E+05 1.72198E+02-2.24696E+03-3.48777E-10-8.36735E-11
 -1       194 1.09866E+02 1.07472E+05 2.61376E+02-2.52492E+03-4.16321E-10 2.09752E-10
 -1       195 3.06087E+02 1.07406E+05 4.75987E+02-2.20646E+03-5.55247E-10 1.09139E-11
 -1       251-5.72909E+05 1.37218E+04-3.17296E+04-9.32599E+02-5.58951E-11-5.60249E-10
 -1       252-5.86580E+05-1.58820E+04-2.24425E+04 1.47319E+03-5.39981E-10 3.54703E-11
 -1       253-5.78263E+05 2.14815E+03-8.22633E+03-3.97013E+02 3.43121E-11-1.75532E-10
 -1       254-5.80346E+05-2.48523E+03-5.15004E+03 5.36424E+01-3.85668E-10-3.30431E-10
 -1       255-5.79137E+05 3.34066E+02-2.13248E+03 4.86977E+02 1.30242E-11-1.23464E-10
 -1       256-5.79380E+05-3.95982E+02-1.27294E+03-1.36504E+03 6.05226E-10 3.87516E-10
 -1       257-5.79228E+05 6.17045E+01-6.57426E+02 1.02169E+03-4.86876E-10 7.68082E-10
 -1       258-5.79261E+05-1.20026E+02-5.73827E+02-1.66205E+03-6.20766E-11-2.08712E-09
 -1       259-5.79256E+05 5.88804E+01-6.59838E+02 7.83994E+02-7.73856E-10-3.67280E-10
 -1       260-5.79337E+05-3.90280E+02-1.25481E+03-6.02804E+02-1.20741E-09 9.90440E-10
 -1       261-5.79151E+05 3.30194E+02-2.11784E+03-3.75710E+01 5.10312E-11 1.03842E-09
 -1       262-5.80358E+05-2.46581E+03-5.11157E+03 9.73557E+02 4.48541E-10 3.62888E-10
 -1       263-5.78237E+05 2.13316E+03-8.15048E+03-7.92395E+02-2.34710E-10-8.53106E-10
 -1       264-5.86547E+05-1.57499E+04-2.22600E+04 1.81742E+03-1.77501E-09-1.08776E-09
 -1       265-5.72969E+05 1.36054E+04-3.14652E+04-8.81447E+02-1.05281E-09-6.76664E-10
 -1       266-4.79450E+03-9.59230E+04 1.08494E+04 5.70423E+02 7.27596E-12-7.38915E-10
 -1       267 5.09804E+03-9.11835E+04 6.88270E+03-1.94604E+03-2.19416E-11-3.10057E-08
 -1       268-2.97779E+02-9.37799E+04 1.12404E+03 6.80678E+02-1.57534E-08-1.01744E-05
 -1       269-2.53433E+03-9.47681E+04-3.06832E+03-2.03684E+03-3.32971E-08-2.02710E-05
 -1       270 2.83287E+03-9.23407E+04-6.23907E+03 6.61224E+02-1.48007E-08-1.01800E-05
 -1       271-8.14777E+05-1.03475E+05-6.29935E+04-3.14851E+05-9.00400E-11-1.44428E-09
 -1       272-8.34694E+05-1.44963E+05-3.94923E+04-3.17428E+05-1.49583E-10-2.29420E-09
 -1       273-8.25577E+05-1.17082E+05-1.48587E+04-3.13399E+05 2.79286E-10 4.82942E-10
 -1       274-8.22216E+05-1.26961E+05-8.11321E+03-3.20193E+05 2.72848E-12 1.23237E-09
 -1       275-8.26837E+05-1.18449E+05-3.45502E+03-3.13228E+05 1.13687E-11 2.16460E-10
 -1       276-8.20750E+05-1.25211E+05-1.82296E+03-3.20513E+05-1.42279E-10-6.10669E-10
 -1       277-8.27018E+05-1.18564E+05-9.36757E+02-3.13185E+05 4.82203E-10 1.28310E-09
 -1       278-8.20562E+05-1.25084E+05-7.30900E+02-3.20577E+05-4.47926E-11-3.20526E-10
 -1       279-8.27030E+05-1.18556E+05-8.71806E+02-3.13174E+05 2.59433E-10 1.34531E-09
 -1       280-8.20696E+05-1.25227E+05-1.64544E+03-3.20561E+05-3.03032E-10-1.45872E-09
 -1       281-8.26884E+05-1.18437E+05-3.09130E+03-3.13196E+05 4.77144E-10-5.57066E-11
 -1       282-8.21983E+05-1.26815E+05-7.24771E+03-3.20308E+05 3.54248E-10-9.54969E-10
 -1       283-8.25771E+05-1.17204E+05-1.32652E+04-3.13335E+05 3.49019E-10 2.36469E-11
 -1       284-8.33101E+05-1.42908E+05-3.52574E+04-3.17868E+05 4.43379E-11 5.25688E-10
 -1       285-8.16142E+05-1.05045E+05-5.62359E+04-3.14619E+05-2.72848E-11 4.94765E-10
 -1       286-1.27344E+05-3.73964E+03 8.64763E+03-5.12790E+01 7.63833E-12 2.43745E-10
 -1       287-1.23556E+05 4.32930E+03 6.12278E+03-6.99869E+01-1.95944E-10-6.43922E-10
 -1       288-1.25898E+05-5.86405E+02 2.23844E+03 1.96714E+01-1.25848E-10-3.12525E-10
 -1       289-1.25245E+05 6.78631E+02 1.41179E+03-2.02638E+02 1.49268E-10 5.52092E-10
 -1       290-1.25656E+05-9.18583E+01 5.77724E+02 8.13751E+01-3.88489E-12-1.23765E-09
 -1       291-1.25528E+05 1.08159E+02 3.50433E+02-3.04105E+02 3.64969E-10-8.03148E-10
 -1       292-1.25614E+05-1.62373E+01 1.78613E+02 1.21141E+02 7.80451E-11 5.71916E-10
 -1       293-1.25572E+05 3.22300E+01 1.56641E+02-3.53985E+02-9.51388E-11 5.82436E-10
 -1       294-1.25613E+05-1.59035E+01 1.76100E+02 1.31256E+02 1.20847E-10 6.84530E-10
 -1       295-1.25533E+05 1.05520E+02 3.42016E+02-3.42611E+02 2.42838E-10-1.10536E-10
 -1       296-1.25653E+05-8.94968E+01 5.64087E+02 1.09766E+02 2.54301E-10-2.07308E-10
 -1       297-1.25257E+05 6.61573E+02 1.37591E+03-2.72221E+02 5.55033E-10-1.74310E-10
 -1       298-1.25889E+05-5.71647E+02 2.18275E+03 6.08653E+01 2.13154E-10-3.43903E-10
 -1       299-1.23609E+05 4.22079E+03 5.96907E+03-1.57053E+02-8.02141E-11 1.22009E-09
 -1       300-1.27301E+05-3.64593E+03 8.43084E+03-5.40439E+00-2.86420E-11 4.26098E-10
 -1       301 1.11317E+04 2.83081E+03 2.49972E+04-8.14077E+03-2.16460E-10-9.39423E-10
 -1       302 3.76683E+03 7.55481E+03 1.53546E+04-9.57854E+03-2.30557E-10-9.72982E-11
 -1       303 1.03181E+03 4.50946E+03 1.23434E+04-8.13752E+03-1.80194E-10-4.13763E-10
 -1       304 4.89898E+03 8.23694E+03 1.84257E+04-9.57025E+03-2.00089E-10-2.37605E-11
 -1       305 1.47892E+04 2.15007E+03 3.24344E+04-8.14726E+03-1.72804E-10 3.18778E-10
 -1       306-5.38642E+05-7.08512E+04-3.48532E+04-2.08787E+05 1.33696E-10 5.71163E-10
 -1       307-5.46076E+05-9.73491E+04-2.18455E+04-2.14290E+05 4.63842E-11-1.07661E-09
 -1       308-5.44635E+05-7.83512E+04-8.22341E+03-2.07964E+05 3.76303E-11 6.54836E-11
 -1       309-5.39164E+05-8.74150E+04-4.49210E+03-2.15851E+05 3.30147E-10 1.63084E-09
 -1       310-5.45337E+05-7.91025E+04-1.91913E+03-2.07868E+05 4.99995E-10 1.97360E-10
 -1       311-5.38358E+05-8.64459E+04-1.02419E+03-2.16030E+05 1.60526E-10 5.75923E-10
 -1       312-5.45433E+05-7.91685E+04-5.50153E+02-2.07848E+05 2.28511E-10 1.02181E-09
 -1       313-5.38269E+05-8.63682E+04-4.73973E+02-2.16054E+05 3.02551E-10 8.62570E-10
 -1       314-5.45429E+05-7.91687E+04-6.23189E+02-2.07850E+05-8.12861E-11 4.23540E-10
 -1       315-5.38389E+05-8.64636E+04-1.22519E+03-2.16020E+05-1.73145E-10-1.00852E-09
 -1       316-5.45308E+05-7.90877E+04-2.32779E+03-2.07874E+05 1.37561E-11-3.39014E-10
 -1       317-5.39372E+05-8.76489E+04-5.46984E+03-2.15806E+05-1.72633E-10 5.09317E-11
 -1       318-5.44456E+05-7.81677E+04-1.00184E+04-2.07987E+05-1.93381E-10 6.98492E-10
 -1       319-5.47783E+05-9.97715E+04-2.66220E+04-2.13925E+05-2.71946E-10-6.29825E-10
 -1       320-5.37163E+05-6.90131E+04-4.24700E+04-2.08976E+05-6.28916E-10 3.21961E-10
 -1       321-1.41259E+05-3.10214E+03 7.17466E+03-4.54617E+01-8.30767E-10 2.59206E-10
 -1       322-1.38125E+05 3.59128E+03 5.07707E+03-2.28679E+01-5.05840E-10 9.93793E-10
 -1       323-1.40060E+05-4.86330E+02 1.85594E+03-1.65279E+00-4.34763E-11-7.71934E-11
 -1       324-1.39524E+05 5.62603E+02 1.16635E+03-1.06453E+02-1.13829E-10 9.23123E-10
 -1       325-1.39861E+05-7.59130E+01 4.72335E+02 3.81260E+01-9.32587E-11-2.25668E-10
 -1       326-1.39757E+05 8.76853E+01 2.74646E+02-1.72995E+02 1.43200E-10-1.03142E-10
 -1       327-1.39826E+05-1.17287E+01 1.18923E+02 6.48896E+01-2.26636E-10-6.51639E-11
 -1       328-1.39798E+05 1.34419E+01 6.53685E+01-2.07807E+02-1.93618E-10 5.88241E-10
 -1       329-1.39820E+05-1.68908E+00 2.91009E+01 7.29387E+01-6.67528E-11 4.71532E-10
 -1       330-1.39805E+05 1.46709E+00 1.42289E+01-2.03461E+02-9.34204E-11-3.69426E-10
 -1       331-1.39820E+05 2.36594E-01 4.24304E+00 6.05433E+01 2.02854E-10-5.94333E-10
 -1       332-1.39806E+05-3.35380E+00-3.34470E+00-1.60874E+02-2.13785E-10 3.78933E-10
 -1       333-1.39819E+05 3.09726E+00-1.06876E+01 3.03518E+01-1.22391E-10 3.01499E-10
 -1       334-1.39813E+05-2.33126E+01-3.16103E+01-8.90961E+01-1.37680E-10 6.29763E-12
 -1       335-1.39812E+05 2.01454E+01-4.72729E+01-1.12362E+01-2.24292E-10 2.24482E-10
 -1       336-1.21404E+02-2.14246E+05 2.71295E+02-2.88355E+03-8.54357E-10-3.57431E-09
 -1       337-7.72936E+00-2.14174E+05-5.76592E+02-1.04409E+04-1.50261E-09-4.77257E-09
 -1       338 1.43820E+02-2.14033E+05-1.67828E+03-2.85177E+03-1.06445E-09-2.40505E-09
 -1       339-2.15593E+03-2.15484E+05-4.48828E+03-1.04770E+04-1.71445E-09 1.60298E-10
 -1       340 1.55825E+03-2.12945E+05-7.17649E+03-2.84771E+03-1.01545E-09 8.81698E-10
 -1       341-3.15403E+05-4.29695E+04-1.29415E+04-1.23323E+05 1.07839E-08 1.87492E-09
 -1       342-3.18162E+05-4.11912E+04-6.41062E+03-1.06291E+05 5.41166E-09 7.36691E-10
 -1       343-3.09648E+05-4.85559E+04-2.86966E+03-1.24157E+05-7.97627E-09-4.50405E-09
 -1       344-3.23400E+05-3.49564E+04-1.38679E+03-1.05657E+05 1.93151E-08 1.89877E-09
 -1       345-3.10266E+05-4.91233E+04-8.43044E+02-1.24037E+05 2.06849E-08-4.59863E-11
 -1       346-3.14567E+05-3.62447E+04 1.13613E+03-1.07348E+05-5.58558E-09-2.87652E-09
 -1       347-3.18372E+05-4.73507E+04-1.60549E+03-1.22380E+05-8.53163E-10-4.84334E-10
 -1       348-3.02380E+05-4.23205E+04 2.41768E+03-1.13742E+05 8.83847E-09-9.02496E-10
 -1       349-3.22349E+05-4.31277E+04-1.76342E+03-1.17564E+05-2.22599E-10-9.23812E-10
 -1       350-3.00834E+05-5.07075E+04 4.62363E+02-1.23638E+05 4.25845E-09-3.89475E-09
 -1       351-3.20026E+05-3.88808E+04-1.90676E+03-1.12569E+05-3.51548E-09-5.01592E-09
 -1       352-3.04270E+05-5.65923E+04-4.35354E+03-1.28361E+05-2.08879E-08-1.25175E-08
 -1       353-3.19020E+05-3.71624E+04-7.65728E+03-1.12921E+05 5.97436E-09 4.74301E-10
 -1       354-3.09394E+05-6.54860E+04-2.04687E+04-1.20713E+05-7.77618E-09-2.83308E-09
 -1       355-3.14798E+05-3.00792E+04-3.32935E+04-1.20133E+05-1.01954E-09-5.40240E-10
 -1       356-1.45818E+05 2.54083E+02-5.89008E+02-3.76413E+01 6.83054E-11-1.30996E-10
 -1       357-1.46058E+05-2.94259E+02-4.18325E+02 7.00662E+00-3.69881E-10-5.69031E-10
 -1       358-1.45916E+05 3.99254E+01-1.57860E+02-1.11419E+01 7.69793E-11-3.71841E-10
 -1       359-1.45944E+05-4.70101E+01-1.07137E+02-4.53465E+01 9.43108E-11 5.74651E-13
 -1       360-1.45931E+05 7.03313E+00-6.17125E+01 1.47128E+01-2.19444E-10-1.31184E-12
 -1       361-1.45930E+05-1.35396E+01-7.12393E+01-9.07293E+01-3.90754E-11-3.33627E-10
 -1       362-1.45931E+05 6.49388E+00-1.01471E+02 3.42417E+01-1.60308E-10 3.87502E-10
 -1       363-1.45948E+05-4.27522E+01-2.07094E+02-1.19117E+02 3.22358E-10 8.54474E-10
 -1       364-1.45913E+05 3.62446E+01-3.68142E+02 4.31014E+01 3.10224E-07-2.49258E-11
 -1       365-1.46068E+05-2.69279E+02-8.43279E+02-1.24225E+02 6.19508E-07-8.07390E-10
 -1       366-1.45811E+05 2.32881E+02-1.45087E+03 3.93495E+01 3.10619E-07-6.15216E-10
 -1       367-1.46777E+05-1.72607E+03-3.57677E+03-1.04872E+02 1.37317E-09 1.19252E-09
 -1       368-1.45204E+05 1.49196E+03-5.69606E+03 2.37481E+01 5.96541E-10-2.40107E-10
 -1       369-1.51065E+05-1.10184E+04-1.55748E+04-6.46606E+01 1.52879E-10-6.80984E-10
 -1       370-1.41523E+05 9.51788E+03-2.20129E+04-8.62314E-01 1.67548E-09 3.72893E-10
 -1       371-3.74871E+03-4.16832E+04 8.50528E+03 2.67739E+02 3.55158E-10 1.42325E-10
 -1       372 3.97649E+03-3.80856E+04 5.36013E+03-1.04326E+03 6.09361E-10 1.51031E-10
 -1       373-2.24222E+02-4.00507E+04 8.47194E+02 2.77437E+02 4.79304E-10-1.00628E-09
 -1       374-2.05554E+03-4.08664E+04-2.49900E+03-1.03500E+03 5.54223E-10 2.80686E-10
 -1       375 2.27839E+03-3.89025E+04-5.02168E+03 2.59478E+02 2.94222E-10 4.13355E-10
 -1       376-2.00668E+05-2.52545E+04-7.68854E+03-7.66392E+04 1.21804E-09-1.02500E-09
 -1       377-2.04780E+05-3.22523E+04-5.33896E+03-7.52170E+04 3.81135E-11-5.71276E-11
 -1       378-2.02259E+05-2.79986E+04-1.80514E+03-7.60919E+04 3.64793E-10-1.08616E-09
 -1       379-2.02909E+05-2.90976E+04-1.13282E+03-7.58727E+04 1.10267E-09 6.22038E-10
 -1       380-2.02538E+05-2.84071E+04-4.33303E+02-7.59841E+04-5.75170E-10 1.04578E-10
 -1       381-2.02572E+05-2.86468E+04-2.77932E+02-7.60156E+04 1.69978E-08-6.66963E-09
 -1       382-2.02596E+05-2.84491E+04-1.65703E+02-7.59491E+04 5.99323E-06-2.24644E-06
 -1       383-2.02521E+05-2.86360E+04-2.19645E+02-7.60562E+04 1.19353E-05-4.47627E-06
 -1       384-2.02589E+05-2.84179E+04-3.27000E+02-7.59435E+04-1.09380E-06 4.10014E-07
 -1       385-2.02669E+05-2.88733E+04-7.79748E+02-7.60145E+04-1.41199E-05 5.29521E-06
 -1       386-2.02448E+05-2.82119E+04-1.33239E+03-7.59908E+04-7.08744E-06 2.65656E-06
 -1       387-2.03639E+05-3.04418E+04-3.58204E+03-7.56917E+04-2.04675E-08 8.04062E-09
 -1       388-2.01619E+05-2.68504E+04-5.73241E+03-7.62661E+04 8.95511E-10 8.57199E-11
 -1       389-2.09489E+05-4.05847E+04-1.69820E+04-7.37229E+04 2.27772E-10 1.56911E-09
 -1       390-1.96601E+05-1.80757E+04-2.44581E+04-7.79576E+04 2.81943E-11 1.50067E-10
 -1       406 2.49754E+02 1.06431E+05 5.48086E+02-7.67374E+03-7.47150E-10-1.81899E-11
 -1       407 1.65299E+02 1.06531E+05 6.77049E+02-8.40685E+03-8.15959E-10-1.83718E-10
 -1       408 2.76666E+02 1.06413E+05 1.12486E+03-7.63644E+03-8.47081E-10 7.43967E-10
 -1       409 1.11669E+03 1.06851E+05 2.42004E+03-8.46460E+03-1.00403E-09 2.27374E-11
 -1       410 3.22412E+03 1.06108E+05 4.88283E+03-7.61522E+03-9.93623E-10-2.91948E-10
 -1       466 4.16270E+05-1.68563E+04 3.89597E+04 1.04813E+03-1.83732E-10 1.04228E-09
 -1       467 4.33394E+05 1.95100E+04 2.76103E+04-1.85309E+03 3.06155E-11 8.05812E-10
 -1       468 4.22879E+05-2.63954E+03 1.01002E+04 3.65731E+02 5.34026E-10 8.68113E-10
 -1       469 4.25696E+05 3.05531E+03 6.37222E+03-8.86225E+02-1.54309E-10 3.04567E-10
 -1       470 4.23969E+05-4.13726E+02 2.63505E+03 8.12703E+01 3.56529E-10 7.02585E-10
 -1       471 4.24432E+05 4.93748E+02 1.63404E+03-4.88620E+02 7.83684E-12-3.70733E-10
 -1       472 4.24144E+05-7.96443E+01 9.14189E+02-3.18817E+01 1.83200E-11 8.58478E-11
 -1       473 4.24277E+05 1.94174E+02 9.43223E+02-3.48064E+02-1.89845E-10 3.26565E-11
 -1       474 4.24124E+05-1.14310E+02 1.22423E+03-5.92875E+01 1.62370E-10-6.27665E-10
 -1       475 4.24588E+05 7.91477E+02 2.53060E+03-3.58485E+02 7.62139E-11 9.32232E-11
 -1       476 4.23832E+05-6.76557E+02 4.24978E+03-2.14608E+01 3.47506E-10-7.19410E-10
 -1       477 4.26645E+05 5.00692E+03 1.03997E+04-5.28052E+02 4.24150E-10-1.92244E-10
 -1       478 4.22066E+05-4.32660E+03 1.65371E+04 1.10283E+02-2.02975E-10-3.27418E-10
 -1       479 4.39104E+05 3.19563E+04 4.51918E+04-9.93841E+02 1.61904E-10-2.86946E-10
 -1       480 4.11368E+05-2.76029E+04 6.38696E+04 4.44320E+02 1.67842E-09 3.31056E-10
 -1       481-3.17009E+03 6.41468E+04 7.37039E+03-2.26624E+02 2.72848E-11 5.04819E-10
 -1       482 3.79537E+03 6.74652E+04 5.44769E+03 5.17700E+02-2.60343E-11 1.85939E-09
 -1       483-6.23106E+02 6.53285E+04 2.34700E+03-1.58204E+02-4.45652E-11 1.27608E-09
 -1       484 1.52811E+03 6.63924E+04 2.49062E+03 4.04326E+02-2.72955E-11-2.12005E-10
 -1       485-9.04211E+02 6.52191E+04 2.29704E+03-1.13249E+02 3.16049E-11-3.56355E-10
 -1       486-3.87331E+05-4.14907E+04-3.65671E+04-1.53336E+05 1.13687E-10 3.60160E-10
 -1       487-4.10042E+05-7.14857E+04-2.53587E+04-1.42808E+05 7.95353E-10 7.91260E-10
 -1       488-3.94821E+05-5.46141E+04-8.58248E+03-1.50833E+05 1.39721E-10-9.07676E-10
 -1       489-4.00185E+05-5.71111E+04-5.27212E+03-1.46599E+05 4.52701E-10-6.36476E-10
 -1       490-3.97177E+05-5.58602E+04-2.07940E+03-1.49543E+05 4.33516E-10-6.95763E-10
 -1       491-3.96633E+05-5.66811E+04-1.06988E+03-1.49248E+05-3.77081E-10-2.44626E-10
 -1       492-3.98368E+05-5.50453E+04-5.96627E+02-1.48182E+05 1.04386E-10 8.15760E-10
 -1       493-3.95132E+05-5.80770E+04-4.22699E+02-1.51314E+05 1.05809E-09 1.81052E-09
 -1       494-3.98684E+05-5.44583E+04-4.98082E+02-1.47481E+05-1.52653E-10 1.92145E-10
 -1       495-3.95220E+05-5.84844E+04-1.02306E+03-1.51435E+05-2.20020E-10 1.32768E-09
 -1       496-3.98281E+05-5.46373E+04-1.78968E+03-1.48062E+05 1.21830E-10 1.67415E-09
 -1       497-3.97577E+05-5.90022E+04-4.55900E+03-1.49236E+05 1.14596E-10 1.01159E-09
 -1       498-3.96321E+05-5.39479E+04-7.54417E+03-1.49674E+05 8.70841E-10-6.25732E-10
 -1       499-4.07252E+05-7.02371E+04-2.20189E+04-1.44429E+05 8.82665E-10-1.30240E-09
 -1       500-3.88613E+05-4.34099E+04-3.18733E+04-1.52869E+05-8.82665E-10 1.88447E-09
 -1       501-1.29918E+05-6.55148E+03 1.51496E+04-2.30520E+01 2.41229E-11 2.54659E-10
 -1       502-1.23292E+05 7.58445E+03 1.07244E+04-1.72073E+02 6.77627E-11 2.34650E-10
 -1       503-1.27382E+05-1.02717E+03 3.91841E+03 6.67905E+01-2.41307E-10 2.77851E-10
 -1       504-1.26253E+05 1.18822E+03 2.46478E+03-3.32563E+02-1.06869E-10-1.15580E-09
 -1       505-1.26958E+05-1.60306E+02 9.98120E+02 1.37443E+02 3.40950E-10 4.59977E-10
 -1       506-1.26752E+05 1.85387E+02 5.82020E+02-4.39231E+02-4.13563E-09 9.57534E-10
 -1       507-1.26883E+05-2.48899E+01 2.54924E+02 1.73460E+02-1.47880E-06-1.32879E-09
 -1       508-1.26837E+05 3.00122E+01 1.46114E+02-4.69481E+02-2.94867E-06-9.04919E-10
 -1       509-1.26872E+05-4.96707E+00 7.58828E+01 1.67694E+02-1.47921E-06-1.99910E-09
 -1       510-1.26842E+05 1.39059E+01 6.47359E+01-4.17282E+02-4.28821E-09 5.61330E-11
 -1       511-1.26879E+05-8.89843E+00 6.59552E+01 1.21260E+02 3.19940E-10-6.12808E-11
 -1       512-1.26808E+05 6.21019E+01 1.38247E+02-2.92740E+02 2.67825E-10 1.83832E-10
 -1       513-1.26905E+05-5.33271E+01 2.03298E+02 4.31497E+01-2.84349E-10 8.97842E-11
 -1       514-1.26649E+05 3.91611E+02 5.58608E+02-1.19951E+02-2.17679E-10 2.00316E-10
 -1       515-1.27038E+05-3.38288E+02 7.77479E+02-5.15330E+01-2.03585E-10 9.51104E-10
 -1       516-1.57943E+04 1.03990E+05 3.69863E+04-4.20596E+02-1.74623E-10 5.22962E-10
 -1       517 1.93515E+04 1.20407E+05 2.80435E+04 1.52291E+03-3.06500E-10-2.51568E-10
 -1       518-3.54263E+03 1.09557E+05 1.33639E+04-4.88266E+02-3.14230E-10 6.42718E-10
 -1       519 1.09248E+04 1.16640E+05 1.70759E+04 1.79449E+03-4.42071E-10-4.69246E-10
 -1       520-7.37679E+03 1.07759E+05 1.80358E+04-6.92174E+02-4.82032E-10-1.39339E-09
 -1       521-7.99066E+05-1.03192E+05-5.45291E+04-3.08286E+05 5.97538E-10 2.17915E-09
 -1       522-8.14785E+05-1.40611E+05-3.41840E+04-3.12249E+05-1.83718E-10-2.67346E-09
 -1       523-8.08418E+05-1.14962E+05-1.28617E+04-3.07023E+05 1.98185E-10-5.21140E-10
 -1       524-8.03986E+05-1.25032E+05-7.02415E+03-3.14647E+05 2.03499E-10-4.36671E-10
 -1       525-8.09507E+05-1.16148E+05-2.99231E+03-3.06878E+05 3.40151E-10 2.93880E-10
 -1       526-8.02728E+05-1.23505E+05-1.58280E+03-3.14910E+05-4.04299E-10-1.16188E-10
 -1       527-8.09654E+05-1.16257E+05-8.20262E+02-3.06851E+05-2.56307E-10 3.95858E-10
 -1       528-8.02586E+05-1.23373E+05-6.53842E+02-3.14938E+05-8.39819E-10 1.60298E-11
 -1       529-8.09649E+05-1.16264E+05-7.97518E+02-3.06857E+05 7.24754E-11 1.70019E-09
 -1       530-8.02740E+05-1.23476E+05-1.51993E+03-3.14884E+05-3.52372E-10-9.01821E-10
 -1       531-8.09496E+05-1.16172E+05-2.86432E+03-3.06895E+05-4.69527E-11 1.21418E-10
 -1       532-8.03966E+05-1.24912E+05-6.71773E+03-3.14602E+05-2.12026E-11-3.52429E-12
 -1       533-8.08440E+05-1.15052E+05-1.22986E+04-3.07048E+05 1.71553E-10-2.18279E-11
 -1       534-8.14320E+05-1.39778E+05-3.26846E+04-3.12272E+05-1.26761E-10 1.63709E-10
 -1       535-7.99480E+05-1.03817E+05-5.21377E+04-3.08275E+05-2.95131E-10 4.83851E-10
 -1       536 8.75354E+03-2.91857E+03 1.34796E+04-2.36939E+03 1.71440E-10-2.61934E-10
 -1       537 1.35701E+04 4.07442E+03 8.57526E+03-8.33653E+03-8.26844E-10-6.71889E-11
 -1       538 1.07660E+04-2.96364E+02 3.48681E+03-2.33841E+03 3.18323E-11 2.70347E-10
 -1       539 1.13213E+04 3.83247E+02 1.93344E+03-8.36907E+03 2.91948E-10 1.85707E-10
 -1       540 1.09860E+04-3.35297E+01 8.77914E+02-2.33639E+03-8.75389E-11-8.90168E-11
 -1       541 1.10624E+04 3.51363E+01 4.59622E+02-8.37040E+03-7.10543E-12-1.18405E-10
 -1       542 1.10130E+04-4.36591E+00 2.15450E+02-2.33709E+03-1.61435E-11 6.31019E-10
 -1       543 1.10238E+04 4.02483E+00 1.04664E+02-8.36932E+03-9.00968E-12 1.00107E-09
 -1       544 1.10171E+04 9.31998E-02 3.86008E+01-2.33747E+03-5.65592E-11-2.30074E-10
 -1       545 1.10139E+04-5.29752E-01-5.91559E+00-8.36887E+03-9.32232E-11 8.31335E-11
 -1       546 1.10199E+04 2.69536E+00-5.09108E+01-2.33754E+03 7.72360E-11 1.76755E-10
 -1       547 1.09954E+04-2.69505E+01-1.34877E+02-8.36794E+03-9.21148E-11-1.72236E-11
 -1       548 1.10370E+04 2.11032E+01-2.52915E+02-2.33841E+03-1.67802E-10 2.51589E-10
 -1       549 1.08352E+04-2.99529E+02-6.27329E+02-8.35021E+03-1.46883E-10 7.78186E-11
 -1       550 1.11860E+04 2.11420E+02-9.89665E+02-2.35526E+03-1.51203E-10 1.32445E-10
 -1       551 2.98444E+03-7.77474E+04 7.13761E+03-1.19558E+05 5.45697E-11-1.37607E-09
 -1       552 1.27631E+03-7.64245E+04 5.86301E+03-1.40431E+05-3.83807E-10-3.66299E-10
 -1       553 7.81101E+02-7.75197E+04 7.13620E+03-1.19357E+05-2.81943E-11-4.61262E-09
 -1       554 4.16316E+03-7.47092E+04 1.36684E+04-1.40464E+05-6.27551E-11-7.47923E-09
 -1       555 1.22960E+04-7.95069E+04 2.60398E+04-1.19518E+05 0.00000E+00-5.07725E-09
 -1       556-5.21654E+04-2.90581E+04 5.13942E+03-5.18649E+04-8.88576E-10 2.59206E-10
 -1       557-4.75049E+04-3.41178E+04 2.52878E+03-5.54662E+04 7.27596E-10-3.70846E-10
 -1       558-5.21977E+04-3.07550E+04 1.06772E+03-5.08411E+04 3.74712E-10-2.52521E-09
 -1       559-4.79248E+04-3.49679E+04 5.22345E+02-5.56007E+04 9.80890E-10-6.99458E-10
 -1       560-5.22117E+04-3.07912E+04 2.34282E+02-5.08040E+04-2.71939E-10 4.61682E-10
 -1       561-4.79796E+04-3.49990E+04 1.09772E+02-5.56410E+04-4.82487E-10 3.67407E-10
 -1       562-5.22271E+04-3.07753E+04 3.97104E+01-5.08152E+04-1.44610E-10 4.45652E-10
 -1       563-4.80005E+04-3.49903E+04-2.58250E+00-5.56566E+04 7.20775E-11 4.81464E-11
 -1       564-5.22354E+04-3.07651E+04-4.84411E+01-5.08230E+04-3.18323E-12-3.17868E-10
 -1       565-4.80157E+04-3.49853E+04-1.24338E+02-5.56647E+04 6.29825E-11-2.50111E-11
 -1       566-5.22311E+04-3.07587E+04-2.65305E+02-5.08250E+04-1.07832E-10 1.39835E-10
 -1       567-4.80667E+04-3.50103E+04-5.86592E+02-5.56617E+04 8.34461E-11-1.49157E-10
 -1       568-5.21923E+04-3.08421E+04-1.20425E+03-5.07850E+04 6.50289E-11-6.18456E-11
 -1       569-4.87427E+04-3.57244E+04-2.84071E+03-5.54803E+04-8.73115E-11-3.02407E-10
 -1       570-5.19391E+04-3.30095E+04-5.78336E+03-4.98794E+04 1.54159E-10-1.39721E-10
 -1       571 6.77048E+04 3.27505E+03 4.95785E+03-1.75101E+04 1.31195E-10 7.60565E-11
 -1       572 6.84589E+04 1.12558E+03 2.43289E+03-1.92676E+04 4.36557E-11-2.21007E-10
 -1       573 6.80141E+04 2.58218E+02 1.08186E+03-1.74638E+04-1.57115E-10 3.82670E-10
 -1       574 6.81050E+04 8.12772E+01 5.42667E+02-1.93195E+04-1.25453E-10 3.65844E-10
 -1       575 6.80508E+04 8.07698E+00 2.56439E+02-1.74577E+04 5.51381E-11-6.00721E-10
 -1       576 6.80597E+04 1.85326E-01 1.30868E+02-1.93264E+04 1.53904E-10-1.07025E-09
 -1       577 6.80562E+04-3.98554E+00 6.52302E+01-1.74569E+04 7.61702E-11-7.12362E-10
 -1       578 6.80538E+04-2.65211E+00 3.69016E+01-1.93271E+04-6.11067E-11 9.98625E-10
 -1       579 6.80585E+04-3.04884E+00 2.52635E+01-1.74570E+04-1.18689E-10-2.67846E-10
 -1       580 6.80561E+04-2.42353E+00 2.78234E+01-1.93260E+04-9.03810E-11 1.69166E-10
 -1       581 6.80609E+04-2.01649E+00 4.29061E+01-1.74581E+04-2.97405E-10-1.05160E-09
 -1       582 6.80669E+04 8.17142E+00 8.47796E+01-1.93153E+04-2.73076E-10-1.75987E-10
 -1       583 6.80598E+04 3.38561E+01 1.65744E+02-1.74676E+04-4.54747E-11-9.66907E-11
 -1       584 6.81265E+04 1.64842E+02 3.71353E+02-1.92346E+04-4.96584E-10-1.83718E-10
 -1       585 6.80178E+04 4.91587E+02 7.55508E+02-1.75389E+04 1.55069E-10 2.77396E-10
 -1       586 5.18171E+02 2.87105E+04 9.67839E+02-4.29456E+04 1.18007E-10-1.89857E-10
 -1       587 2.79381E+02 2.88822E+04 9.48130E+02-4.73799E+04 3.83352E-10-1.03262E-09
 -1       588 3.49473E+02 2.87063E+04 1.37597E+03-4.28905E+04 1.03682E-10-3.79089E-10
 -1       589 1.31251E+03 2.92280E+04 2.84034E+03-4.73961E+04 4.66571E-10 1.22782E-11
 -1       590 3.74777E+03 2.83587E+04 5.67377E+03-4.29291E+04 1.46201E-10-1.54387E-10
 -1       591-3.17215E+04-1.07698E+04-6.08852E+03-1.62410E+04 2.96467E-09 6.90216E-09
 -1       592-3.19329E+04-1.00483E+04-2.99122E+03-1.80289E+04-9.82482E-10 2.62617E-10
 -1       593-3.19092E+04-8.55551E+03-1.26939E+03-1.72581E+04-1.26386E-09 1.99032E-09
 -1       594-3.12797E+04-9.23305E+03-6.21241E+02-1.81339E+04-1.51067E-09 7.84231E-10
 -1       595-3.19384E+04-8.47609E+03-2.86160E+02-1.73028E+04-1.07809E-09 4.59877E-10
 -1       596-3.12307E+04-9.20134E+03-1.45253E+02-1.81293E+04 1.34469E-09-3.68175E-10
 -1       597-3.19439E+04-8.48049E+03-7.92853E+01-1.73031E+04-2.83281E-09-3.54368E-09
 -1       598-3.12259E+04-9.20175E+03-6.38134E+01-1.81272E+04-1.33188E-08-8.89179E-09
 -1       599-3.19437E+04-8.48047E+03-8.14291E+01-1.73030E+04-5.20134E-09 2.18529E-09
 -1       600-3.12309E+04-9.20149E+03-1.50997E+02-1.81292E+04-1.08071E-09 1.56660E-10
 -1       601-3.19373E+04-8.47592E+03-2.98196E+02-1.73025E+04-1.14778E-09 5.31827E-10
 -1       602-3.12825E+04-9.23411E+03-6.48094E+02-1.81330E+04-8.61746E-11 7.85008E-10
 -1       603-3.19062E+04-8.55970E+03-1.32431E+03-1.72564E+04 5.04656E-10 7.40101E-11
 -1       604-3.19698E+04-1.00784E+04-3.12069E+03-1.80162E+04 3.55180E-09 6.12681E-09
 -1       605-3.17037E+04-1.08749E+04-6.35175E+03-1.62014E+04 4.29168E-10-3.57431E-10
 -1       606 2.29722E+04-2.71405E+03-4.10636E+03 6.78023E+03-1.28330E-09-4.30191E-10
 -1       607 2.23392E+04-9.32704E+02-2.01477E+03 7.39153E+03-2.74554E-10-1.11973E-09
 -1       608 2.27121E+04-2.13808E+02-8.95835E+02 6.73548E+03 1.00226E-09 1.55410E-10
 -1       609 2.26281E+04-6.58671E+01-4.48875E+02 7.44170E+03-4.37467E-10 6.57110E-11
 -1       610 2.26787E+04-5.00864E+00-2.11497E+02 6.72966E+03-1.61049E-09-6.43524E-10
 -1       611 2.26633E+04 2.48924E+00-1.06505E+02 7.44816E+03-2.58876E-09 3.73461E-10
 -1       612 2.26728E+04 5.57053E+00-5.04960E+01 6.72896E+03-9.49512E-10 1.57740E-10
 -1       613 2.26678E+04 4.90398E+00-2.33205E+01 7.44905E+03-1.59957E-09 1.33298E-10
 -1       614 2.26709E+04 4.17423E+00-6.84273E+00 6.72877E+03-3.72893E-11-1.93381E-10
 -1       615 2.26685E+04 4.58217E+00 6.07383E+00 7.44919E+03 1.52085E-09-1.42279E-10
 -1       616 2.26694E+04 4.90121E+00 2.17602E+01 6.72882E+03-7.18160E-10-8.77947E-10
 -1       617 2.26724E+04 1.25040E+01 5.13937E+01 7.44899E+03-8.94147E-11-3.03430E-10
 -1       618 2.26652E+04 2.94780E+01 1.04994E+02 6.72895E+03-1.41085E-10-5.93900E-10
 -1       619 2.27064E+04 1.14866E+02 2.37560E+02 7.44797E+03-2.04295E-10-4.26610E-10
 -1       620 2.26344E+04 3.24755E+02 4.84785E+02 6.72971E+03 4.92776E-10-5.86056E-10
 -1       621 4.69342E+02 7.05446E+04 1.19987E+03-6.52875E+03-5.81451E-10-1.62686E-10
 -1       622 1.79907E+02 7.07732E+04 1.02375E+03-7.70269E+03-5.53996E-10 4.15525E-11
 -1       623 1.09209E+02 7.05908E+04 1.29577E+03-6.53464E+03-5.31031E-10 4.91809E-10
 -1       624 7.32068E+02 7.11068E+04 2.52243E+03-7.67098E+03-4.78508E-10-6.51710E-10
 -1       625 2.25325E+03 7.02131E+04 4.82856E+03-6.56029E+03-4.14730E-10-5.12159E-10
 -1       626 3.29470E+04 1.09003E+04-1.64221E+03 2.23032E+04-1.08413E-08 3.44426E-09
 -1       627 3.20897E+04 1.21645E+04-7.78404E+02 2.27634E+04-2.72113E-08-1.08959E-08
 -1       628 3.29920E+04 1.17106E+04-3.26740E+02 2.19028E+04-9.24751E-09 3.40629E-09
 -1       629 3.22092E+04 1.25060E+04-1.56722E+02 2.27403E+04 4.31487E-09 1.02408E-08
 -1       630 3.29915E+04 1.17665E+04-6.88273E+01 2.18707E+04-1.22282E-09-2.86832E-10
 -1       631 3.22189E+04 1.25310E+04-3.04557E+01 2.27420E+04-3.52475E-09 4.75239E-10
 -1       632 3.29895E+04 1.17678E+04-7.54210E+00 2.18684E+04-2.96382E-09 1.59901E-10
 -1       633 3.22203E+04 1.25318E+04 9.95271E+00 2.27431E+04 1.90863E-09-5.51438E-10
 -1       634 3.29876E+04 1.17657E+04 3.26553E+01 2.18684E+04 9.98705E-09 2.05761E-08
 -1       635 3.22247E+04 1.25327E+04 7.68808E+01 2.27443E+04 5.28985E-10-1.38471E-10
 -1       636 3.29842E+04 1.17696E+04 1.60867E+02 2.18657E+04-1.59328E-09 2.18279E-10
 -1       637 3.22632E+04 1.25779E+04 3.60209E+02 2.27369E+04-5.92976E-10 7.32598E-10
 -1       638 3.29755E+04 1.19058E+04 7.47305E+02 2.18064E+04 3.61183E-10 2.64890E-11
 -1       639 3.26422E+04 1.32531E+04 1.77928E+03 2.25691E+04-6.91955E-10-6.49152E-11
 -1       640 3.29950E+04 1.38510E+04 3.75458E+03 2.09998E+04-1.11538E-09 9.65770E-11
 -1       641 1.24430E+02 7.01072E+02-1.62164E+03-1.75493E+01 1.71380E-10 4.96925E-10
 -1       642-5.78142E+02-8.11553E+02-1.14647E+03 7.14407E+01-1.20950E-09 1.73640E-09
 -1       643-1.46473E+02 1.09855E+02-4.18096E+02-1.74978E+01-7.10426E-10-2.02277E-10
 -1       644-2.62516E+02-1.26823E+02-2.60003E+02 7.13987E+01 5.75615E-08 6.25278E-10
 -1       645-1.91216E+02 1.69034E+01-1.00288E+02-1.75074E+01 1.66712E-05-7.97049E-09
 -1       646-2.09399E+02-1.79404E+01-4.79306E+01 7.14120E+01 3.32437E-05-1.38360E-08
 -1       647-1.99599E+02 1.05655E+00-5.44140E-01-1.75113E+01 1.56935E-05-6.94153E-09
 -1       648-1.94579E+02 8.97311E+00 4.32454E+01 7.14143E+01-1.97207E-06 1.39560E-09
 -1       649-2.06040E+02-9.99364E+00 9.85771E+01-1.75099E+01-2.41448E-05 1.19635E-08
 -1       650-1.58295E+02 7.70712E+01 2.38921E+02 7.13889E+01-4.62018E-05 2.13175E-08
 -1       651-2.35879E+02-6.69999E+01 4.15987E+02-1.74857E+01-2.31660E-05 1.23322E-08
 -1       652 4.67426E+01 4.97013E+02 1.02923E+03 7.12894E+01-7.79230E-08 1.58899E-09
 -1       653-4.11069E+02-4.29627E+02 1.63991E+03-1.74104E+01-5.83908E-10 2.93994E-10
 -1       654 1.28220E+03 3.17289E+03 4.48520E+03 7.09000E+01-1.10064E-09 3.82670E-10
 -1       655-1.47128E+03-2.74074E+03 6.33947E+03-1.70971E+01-1.60593E-09 3.48336E-10
 -1       656 2.05185E+03-8.29664E+04-9.84929E+03 2.67128E+03-2.86491E-11 6.48015E-11
 -1       657-3.10509E+03-8.65105E+04-7.13044E+03 9.44706E+03-9.93793E-10-4.65320E-10
 -1       658 3.84642E+02-8.42364E+04-4.56462E+03 2.65647E+03-3.07942E-10-6.36959E-10
 -1       659-2.83947E+03-8.63515E+04-6.64838E+03 9.45499E+03-1.06206E-09 2.82272E-11
 -1       660 1.84634E+03-8.31278E+04-8.93076E+03 2.66340E+03-5.32054E-11 1.77067E-10
 -1       661 8.08189E+04 1.04066E+04 6.59392E+03 3.15522E+04 1.58877E-10-6.94854E-10
 -1       662 8.23205E+04 1.53327E+04 4.13392E+03 3.24941E+04 1.49922E-09 9.08869E-10
 -1       663 8.19410E+04 1.18384E+04 1.55636E+03 3.14100E+04-3.47242E-10-2.93994E-10
 -1       664 8.10286E+04 1.34352E+04 8.51190E+02 3.27646E+04 2.34778E-10 1.55552E-09
 -1       665 8.20657E+04 1.19888E+04 3.64739E+02 3.13999E+04 1.26752E-09 1.33468E-09
 -1       666 8.08852E+04 1.32418E+04 1.97346E+02 3.27846E+04-9.37682E-10-1.31969E-09
 -1       667 8.20802E+04 1.20051E+04 1.10928E+02 3.13999E+04-2.73921E-09 2.48016E-09
 -1       668 8.08717E+04 1.32250E+04 1.04474E+02 3.27852E+04 8.47575E-11-2.90669E-10
 -1       669 8.20788E+04 1.20040E+04 1.47427E+02 3.13998E+04 1.37253E-09 4.55969E-10
 -1       670 8.08972E+04 1.32544E+04 2.98030E+02 3.27844E+04 2.82699E-09-6.67342E-10
 -1       671 8.20552E+04 1.19781E+04 5.69495E+02 3.13999E+04-2.10321E-11 8.46967E-10
 -1       672 8.11247E+04 1.35599E+04 1.34075E+03 3.27526E+04-8.47876E-10 2.24313E-09
 -1       673 8.18577E+04 1.17407E+04 2.45534E+03 3.14159E+04 9.07491E-10-1.54091E-09
 -1       674 8.31629E+04 1.65573E+04 6.52537E+03 3.23277E+04 2.09184E-11 4.20187E-10
 -1       675 8.00878E+04 9.47863E+03 1.04088E+04 3.16382E+04-2.88537E-10 1.76897E-10
 -1       676 1.47131E+02-7.87217E+04-8.74642E+02 1.80257E+00-2.12536E-09 3.15446E-10
 -1       677-3.31730E+02-7.90539E+04-1.06201E+03-5.36017E+01-2.13647E-09-1.29208E-09
 -1       678 1.18698E+02-7.87349E+04-1.40439E+03 1.76414E+00-9.37916E-10 3.07685E-10
 -1       679-1.49461E+03-7.97591E+04-3.17735E+03-5.34934E+01-2.63964E-09-6.62144E-10
 -1       680 1.05330E+03-7.80166E+04-4.90326E+03 1.61935E+00-9.46784E-10-2.17096E-10
 -1       681 1.52072E+05-4.21892E+03 9.75077E+03 2.15539E+02 1.77728E-10 9.64064E-11
 -1       682 1.56342E+05 4.88369E+03 6.90945E+03-7.66265E+02-4.01457E-11-8.27640E-11
 -1       683 1.53719E+05-6.61028E+02 2.52818E+03 9.91363E+01 1.55969E-10 1.15961E-10
 -1       684 1.54421E+05 7.65498E+02 1.59690E+03-5.97593E+02 3.44478E-09-1.57314E-10
 -1       685 1.53993E+05-1.03689E+02 6.63585E+02 4.68655E+01 1.01617E-06 8.49525E-10
 -1       686 1.54104E+05 1.24816E+02 4.17792E+02-5.42885E+02 2.02598E-06 8.71346E-10
 -1       687 1.54035E+05-2.07369E+01 2.45705E+02 4.44269E+01 1.01592E-06 8.60009E-10
 -1       688 1.54074E+05 5.57735E+01 2.74109E+02-5.87192E+02 3.27516E-09-1.91761E-10
 -1       689 1.54023E+05-3.47692E+01 3.73311E+02 9.11731E+01 1.28946E-10 1.05018E-11
 -1       690 1.54193E+05 2.46293E+02 7.93386E+02-7.41733E+02 3.92541E-10-5.84350E-11
 -1       691 1.53917E+05-2.11449E+02 1.32905E+03 1.98971E+02 1.64672E-10 2.53522E-11
 -1       692 1.54892E+05 1.57086E+03 3.28001E+03-1.04614E+03-2.55591E-10 4.67480E-10
 -1       693 1.53325E+05-1.35924E+03 5.18422E+03 3.95587E+02-5.28416E-10-4.27917E-10
 -1       694 1.58953E+05 1.00538E+04 1.42453E+04-1.58783E+03-1.52643E-09 7.49651E-10
 -1       695 1.49859E+05-8.68976E+03 2.00334E+04 7.40665E+02-7.05043E-10-1.17507E-09
 -1       696-3.02089E+03 1.22097E+05 6.88659E+03 1.37584E+02 3.45608E-11-6.99728E-10
 -1       697 3.27949E+03 1.25020E+05 4.47684E+03-7.23616E+02 4.47926E-11-5.32984E-09
 -1       698-2.55717E+02 1.23376E+05 9.65043E+02 9.88549E+01-8.40487E-10-1.78523E-06
 -1       699-1.09276E+03 1.22996E+05-1.22088E+03-6.98775E+02-1.71258E-09-3.55748E-06
 -1       700 1.34794E+03 1.24121E+05-2.91507E+03 1.12742E+02-7.72388E-10-1.78672E-06
 -1       701-1.39754E+05-1.28679E+04-1.74179E+04-5.54626E+04 5.73757E-07-2.14850E-07
 -1       702-1.49037E+05-2.87921E+04-1.20943E+04-5.23272E+04 1.14352E-06-4.29429E-07
 -1       703-1.43310E+05-1.91334E+04-4.08394E+03-5.42776E+04 5.73455E-07-2.14780E-07
 -1       704-1.44892E+05-2.15485E+04-2.55451E+03-5.37046E+04 1.20934E-09-1.67688E-10
 -1       705-1.43897E+05-2.01069E+04-9.56269E+02-5.40867E+04 3.05192E-10 3.34182E-10
 -1       706-1.44193E+05-2.04424E+04-5.71562E+02-5.39432E+04-1.98854E-10-1.28090E-10
 -1       707-1.44008E+05-2.02388E+04-2.64683E+02-5.40392E+04 1.54952E-11 2.06377E-10
 -1       708-1.44060E+05-2.03308E+04-2.31689E+02-5.40157E+04-1.84547E-10 1.81064E-10
 -1       709-1.44031E+05-2.02184E+04-2.56285E+02-5.40142E+04 1.83320E-12 2.01240E-10
 -1       710-1.44108E+05-2.05115E+04-5.45451E+02-5.40360E+04 1.82361E-11-3.84262E-11
 -1       711-1.43960E+05-2.00582E+04-9.09365E+02-5.40189E+04 2.03073E-11 1.60298E-11
 -1       712-1.44716E+05-2.16164E+04-2.42695E+03-5.38721E+04-1.72690E-10-1.09821E-10
 -1       713-1.43422E+05-1.91142E+04-3.87927E+03-5.41779E+04 5.34794E-09-2.14527E-09
 -1       714-1.48634E+05-2.85155E+04-1.14876E+04-5.25856E+04 1.03183E-08-3.64810E-09
 -1       715-1.40044E+05-1.31636E+04-1.65441E+04-5.53040E+04 4.49768E-09-1.73623E-09
 -1       716 9.51996E+03-3.22951E+03 7.40639E+03 2.78611E+02 1.70240E-09-6.62112E-10
 -1       717 1.31460E+04 3.73470E+03 5.31515E+03-1.02537E+03 7.56703E-10-2.88765E-11
 -1       718 1.08355E+04-5.05678E+02 1.91551E+03 2.49165E+02 1.34975E-10-2.31239E-10
 -1       719 1.15770E+04 5.84083E+02 1.24790E+03-9.77366E+02-1.05434E-10-1.61336E-10
 -1       720 1.10860E+04-7.93768E+01 5.13771E+02 2.30604E+02 3.54646E-10 2.83734E-10
 -1       721 1.12674E+04 9.83902E+01 3.59454E+02-9.47564E+02 4.03132E-10-1.15193E-10
 -1       722 1.11432E+04-1.90164E+01 2.45776E+02 2.19362E+02 9.71347E-11 7.26248E-10
 -1       723 1.12169E+04 6.97165E+01 3.42707E+02-9.31923E+02 3.09752E-11-5.58614E-10
 -1       724 1.11355E+04-5.00423E+01 5.26133E+02 2.14963E+02 1.32221E-09 5.29667E-10
 -1       725 1.13675E+04 3.65833E+02 1.15666E+03-9.29781E+02 1.20603E-09-9.97460E-11
 -1       726 1.09925E+04-3.14847E+02 1.96966E+03 2.17220E+02 9.63665E-10 3.19915E-10
 -1       727 1.23551E+04 2.33608E+03 4.85045E+03-9.41419E+02 1.23055E-09-7.88987E-11
 -1       728 1.01487E+04-2.01932E+03 7.70521E+03 2.26602E+02 3.47963E-10 2.25100E-10
 -1       729 1.82229E+04 1.49158E+04 2.10980E+04-9.74000E+02 1.35417E-10 3.96994E-10
 -1       730 5.12733E+03-1.28852E+04 2.97804E+04 2.49796E+02 8.89536E-10-3.16504E-10
 -1       731-5.05295E+03 5.52419E+04 1.15979E+04-9.58000E+02-9.20409E-10-3.60856E-10
 -1       732 5.97595E+03 6.10624E+04 8.57398E+03 3.41228E+03 2.07478E-10 4.20073E-11
 -1       733-9.23564E+02 5.73920E+04 3.49116E+03-7.95230E+02-1.87242E-10-5.39870E-11
 -1       734 1.96840E+03 5.88936E+04 3.31981E+03 3.21880E+03-6.80416E-11-4.33136E-10
 -1       735-1.04310E+03 5.74028E+04 2.74592E+03-7.64510E+02 1.21929E-10-2.02213E-10
 -1       736-2.60649E+05-3.21928E+04-1.99725E+04-1.04352E+05 6.07452E-09-3.38423E-09
 -1       737-2.71842E+05-3.91885E+04-1.23248E+04-8.84986E+04 1.60244E-08 3.95096E-09
 -1       738-2.59315E+05-3.99227E+04-4.53210E+03-1.04019E+05 4.92946E-09 1.32181E-08
 -1       739-2.71791E+05-3.04977E+04-2.60128E+03-8.91447E+04-6.38711E-09-2.69861E-09
 -1       740-2.60754E+05-4.08364E+04-1.22692E+03-1.03751E+05 1.79570E-09-9.47716E-09
 -1       741-2.64516E+05-3.09160E+04 5.20579E+02-9.06392E+04-3.98259E-10-8.79238E-09
 -1       742-2.66507E+05-3.95654E+04-1.26840E+03-1.02460E+05-1.08258E-09 7.49253E-10
 -1       743-2.55330E+05-3.52012E+04 1.79940E+03-9.52271E+04 3.90716E-09 4.16644E-09
 -1       744-2.69861E+05-3.66105E+04-1.32204E+03-9.91031E+04 2.63236E-09-7.51001E-10
 -1       745-2.53150E+05-4.13111E+04 7.67551E+02-1.02483E+05 4.20141E-09 2.74326E-09
 -1       746-2.68749E+05-3.34091E+04-1.20813E+03-9.52523E+04 7.87873E-09 1.55607E-08
 -1       747-2.55612E+05-4.61532E+04-2.22744E+03-1.07289E+05 8.64745E-10 2.77990E-09
 -1       748-2.67496E+05-3.16969E+04-3.95629E+03-9.43690E+04 7.30438E-09 4.17003E-09
 -1       749-2.58622E+05-5.15497E+04-1.09470E+04-1.04222E+05-5.05059E-09 4.83965E-09
 -1       750-2.65703E+05-2.80459E+04-1.76310E+04-9.82893E+04-4.02633E-09-4.90490E-09
 -1       751 6.88494E+05-3.94433E+04 9.12958E+04 6.86851E+02-7.54930E-09-3.60160E-10
 -1       752 7.28089E+05 4.56657E+04 6.45870E+04-9.64592E+02-1.15557E-09-5.80258E-10
 -1       753 7.03773E+05-6.18301E+03 2.36421E+04 2.06061E+02-9.47864E-12-1.46429E-10
 -1       754 7.10301E+05 7.15565E+03 1.48698E+04-3.30051E+02-1.22232E-10 5.56611E-10
 -1       755 7.06295E+05-9.67328E+02 6.08502E+03 5.23345E+01 3.26832E-11-1.30740E-10
 -1       756 7.07369E+05 1.13374E+03 3.63765E+03-1.26785E+02 1.87083E-09-3.95687E-10
 -1       757 7.06711E+05-1.65734E+02 1.78750E+03 2.79197E+00 1.41199E-07 7.27994E-10
 -1       758 7.06932E+05 2.94586E+02 1.43019E+03-6.39618E+01 2.81198E-07 1.61247E-10
 -1       759 7.06733E+05-1.28726E+02 1.45488E+03-1.04897E+01 7.64274E-08 6.17320E-10
 -1       760 7.07197E+05 8.15489E+02 2.67536E+03-5.55916E+01-1.28843E-07 8.75019E-10
 -1       761 7.06445E+05-6.86275E+02 4.35307E+03-5.57832E+00-5.53096E-07-1.16779E-09
 -1       762 7.09263E+05 5.06559E+03 1.05460E+04-9.03496E+01-9.74648E-07 9.63269E-10
 -1       763 7.04663E+05-4.37556E+03 1.67399E+04 2.42689E+01-4.87605E-07 1.12504E-09
 -1       764 7.21832E+05 3.23113E+04 4.57022E+04-2.17391E+02-1.03845E-09 2.15368E-09
 -1       765 6.93864E+05-2.79086E+04 6.45963E+04 1.21461E+02-3.85020E-10-3.71074E-10
 -1       766-1.66565E+04 9.77381E+04 3.89795E+04 1.86508E+03 1.51522E-09-7.61119E-10
 -1       767 2.04526E+04 1.15447E+05 2.97333E+04-8.25087E+03 4.62887E-09-4.07923E-10
 -1       768-3.76910E+03 1.03598E+05 1.43084E+04 1.87073E+03 1.82990E-09 6.03507E-10
 -1       769 1.21145E+04 1.13039E+05 1.90131E+04-8.86695E+03 5.97424E-10-1.96614E-10
 -1       770-8.35017E+03 1.00181E+05 1.96663E+04 2.48116E+03-1.45337E-09 2.46359E-10
 -1       771-3.83009E+05-7.72765E+04-1.27590E+04-1.66255E+05-2.96041E-10-5.38421E-10
 -1       772-3.81840E+05-7.73250E+04-6.26472E+03-1.71789E+05 1.09003E-09-5.54792E-10
 -1       773-3.83516E+05-7.25348E+04-2.66173E+03-1.68289E+05 3.57431E-10-2.53749E-10
 -1       774-3.80391E+05-7.57184E+04-1.30094E+03-1.72150E+05 6.98492E-10-6.80075E-10
 -1       775-3.83604E+05-7.23458E+04-6.00278E+02-1.68382E+05 3.35876E-09-1.73918E-09
 -1       776-3.80296E+05-7.56571E+04-3.03542E+02-1.72169E+05 4.99858E-09-8.91092E-09
 -1       777-3.83634E+05-7.23452E+04-1.65140E+02-1.68389E+05 6.83031E-09 3.59944E-09
 -1       778-3.80296E+05-7.56542E+04-1.29439E+02-1.72177E+05 1.25146E-09 2.45933E-10
 -1       779-3.83645E+05-7.23390E+04-1.63159E+02-1.68394E+05 6.55746E-10-7.36691E-11
 -1       780-3.80314E+05-7.56516E+04-2.99255E+02-1.72189E+05 2.41471E-10-1.90084E-10
 -1       781-3.83638E+05-7.23262E+04-5.90653E+02-1.68396E+05-6.98037E-11-1.13687E-10
 -1       782-3.80419E+05-7.57154E+04-1.28315E+03-1.72200E+05 1.71553E-10-1.72349E-10
 -1       783-3.83577E+05-7.24912E+04-2.62245E+03-1.68306E+05 1.28580E-10 3.91083E-11
 -1       784-3.81782E+05-7.73872E+04-6.18132E+03-1.71966E+05-2.63412E-10-4.10182E-10
 -1       785-3.83172E+05-7.70804E+04-1.25820E+04-1.66217E+05 9.37916E-11 3.44698E-10
 -1       786 6.01589E+04-1.69383E+03 7.85074E+03-5.51461E+02 3.46745E-12-1.40972E-11
 -1       787 6.29481E+04 2.37688E+03 4.99303E+03-1.95883E+03-3.57545E-11 4.79417E-10
 -1       788 6.13322E+04-1.69466E+02 2.03245E+03-5.46903E+02 1.64022E-10 5.83441E-10
 -1       789 6.16452E+04 2.25635E+02 1.12757E+03-1.96309E+03 1.00556E-10 4.94992E-10
 -1       790 6.14614E+04-1.80582E+01 5.15814E+02-5.47152E+02 2.61763E-09-4.19419E-10
 -1       791 6.14994E+04 2.11477E+01 2.75690E+02-1.96266E+03 5.29985E-09-3.45651E-10
 -1       792 6.14777E+04-2.31085E+00 1.41806E+02-5.47331E+02 2.52942E-09-1.26256E-10
 -1       793 6.14815E+04 2.68184E+00 9.41310E+01-1.96255E+03 4.08367E-11-1.81487E-10
 -1       794 6.14792E+04-1.27697E+00 8.73141E+01-5.47259E+02 2.34337E-10 2.21146E-10
 -1       795 6.14868E+04 9.21287E+00 1.32613E+02-1.96304E+03 6.25562E-11 4.80788E-10
 -1       796 6.14726E+04-7.93450E+00 2.29885E+02-5.46847E+02-1.71241E-10 3.49772E-10
 -1       797 6.15497E+04 9.76058E+01 4.91780E+02-1.96365E+03 7.03011E-11 1.25510E-10
 -1       798 6.14168E+04-7.35686E+01 8.82089E+02-5.46651E+02-9.20863E-12 2.48122E-10
 -1       799 6.21143E+04 1.02953E+03 2.16401E+03-1.95876E+03-4.27548E-10 2.13419E-10
 -1       800 6.09085E+04-7.34119E+02 3.40150E+03-5.51759E+02 1.21929E-10-4.24961E-10
 -1       801-1.90492E+03 5.96870E+04 9.37058E+03-6.57095E+04-2.66937E-09 9.82254E-10
 -1       802 4.04176E+03 6.29344E+04 9.81771E+03-2.33879E+05-1.13960E-09-5.27507E-10
 -1       803-7.08808E+02 6.00174E+04 1.11056E+04-6.54849E+04-3.57704E-09 1.62564E-09
 -1       804 1.16876E+04 6.75935E+04 2.37396E+04-2.33872E+05-1.90630E-09-1.35014E-09
 -1       805-7.87804E+03 5.50549E+04 3.58840E+04-6.57172E+04-1.36788E-09 1.12414E-09
 -1       806-5.99948E+04-1.64883E+04-5.03207E+03-2.83421E+04 8.41567E-11-5.41149E-11
 -1       807-5.99627E+04-1.52441E+04-2.38471E+03-2.99396E+04-2.90584E-10-4.20471E-10
 -1       808-5.99625E+04-1.38880E+04-1.00221E+03-2.94322E+04 5.05486E-09 1.46121E-08
 -1       809-5.94644E+04-1.43302E+04-4.83985E+02-3.01557E+04-3.98927E-10-1.16394E-10
 -1       810-5.99739E+04-1.37056E+04-2.18520E+02-2.95132E+04 1.63595E-10 1.25851E-10
 -1       811-5.94146E+04-1.42683E+04-1.09294E+02-3.01651E+04 1.80023E-10-3.70051E-10
 -1       812-5.99779E+04-1.36996E+04-5.67226E+01-2.95171E+04 1.66906E-10-4.83396E-10
 -1       813-5.94093E+04-1.42664E+04-4.11222E+01-3.01640E+04 3.42254E-10-3.60103E-10
 -1       814-5.99779E+04-1.37003E+04-4.67850E+01-2.95169E+04 3.05249E-11 5.78098E-10
 -1       815-5.94129E+04-1.42683E+04-8.29138E+01-3.01641E+04-1.87526E-10 7.61361E-10
 -1       816-5.99744E+04-1.37051E+04-1.61766E+02-2.95138E+04-2.95245E-10 3.14913E-10
 -1       817-5.94504E+04-1.43127E+04-3.56504E+02-3.01553E+04 3.27418E-10 6.40512E-10
 -1       818-5.99648E+04-1.38410E+04-7.37222E+02-2.94555E+04-8.96989E-11 3.60728E-10
 -1       819-5.98276E+04-1.49734E+04-1.75359E+03-2.99830E+04-4.21551E-10 3.47825E-10
 -1       820-5.99770E+04-1.57625E+04-3.69981E+03-2.86651E+04-9.02673E-11-1.10276E-10
 -1       821-6.40777E+04 1.78313E+03-8.26670E+03 6.09393E+02-6.83599E-10-1.35515E-10
 -1       822-6.70134E+04-2.50277E+03-5.25774E+03 2.16647E+03-5.95577E-10-2.19416E-10
 -1       823-6.53132E+04 1.78251E+02-2.14090E+03 5.99110E+02 8.51401E-10-5.60476E-11
 -1       824-6.56427E+04-2.37001E+02-1.18876E+03 2.17835E+03-3.45864E-10-6.28603E-10
 -1       825-6.54494E+04 1.91056E+01-5.46308E+02 5.97462E+02-1.19354E-09-2.96808E-10
 -1       826-6.54902E+04-2.13871E+01-2.96696E+02 2.18081E+03-2.47132E-09-2.35332E-11
 -1       827-6.54665E+04 2.80036E+00-1.62037E+02 5.96643E+02-1.35321E-09-3.12433E-10
 -1       828-6.54730E+04-2.46883E+00-1.25318E+02 2.18217E+03-1.51454E-09-9.26697E-10
 -1       829-6.54671E+04 2.51153E+00-1.43064E+02 5.96105E+02-2.09440E-10-5.30799E-10
 -1       830-6.54863E+04-1.70300E+01-2.46955E+02 2.18275E+03 7.91355E-10-8.69092E-10
 -1       831-6.54534E+04 1.57965E+01-4.46805E+02 5.96059E+02-8.67626E-10-7.42119E-10
 -1       832-6.56105E+04-1.92063E+02-9.67684E+02 2.18226E+03 1.87697E-10-5.03746E-10
 -1       833-6.53429E+04 1.45249E+02-1.74074E+03 5.96606E+02-3.50562E-09-3.35717E-10
 -1       834-6.67249E+04-2.03358E+03-4.27392E+03 2.17655E+03-5.34949E-09-6.33690E-10
 -1       835-6.43387E+04 1.44982E+03-6.71929E+03 6.01858E+02-1.55558E-09-3.16504E-10
 -1       836-2.71859E+03 1.57658E+05 1.33121E+04-4.52504E+03-2.02817E-10-1.01466E-09
 -1       837 4.28769E+03 1.62483E+05 1.03290E+04-1.60397E+04 6.09361E-11-2.00089E-11
 -1       838-6.55128E+02 1.59212E+05 7.77962E+03-4.51141E+03-4.06544E-10 8.16897E-10
 -1       839 5.83997E+03 1.63424E+05 1.31529E+04-1.60399E+04 1.16415E-10-7.09861E-10
 -1       840-3.92766E+03 1.56716E+05 1.86910E+04-4.52480E+03-3.11047E-10-3.88809E-10
 -1       841-1.29230E+03 6.82650E+02-2.22521E+03-8.77901E+02 2.54488E-10-6.96105E-10
 -1       842-2.50383E+03-1.32687E+03-1.54462E+03-4.49537E+02-3.38211E-10 1.20124E-10
 -1       843-1.74630E+03-1.18081E+02-5.21035E+02-7.26951E+02 3.25471E-10 6.46622E-10
 -1       844-1.97638E+03-3.99514E+02-3.24566E+02-6.23434E+02 1.36794E-09 2.89436E-10
 -1       845-1.81968E+03-2.44104E+02-1.18669E+02-7.04240E+02-3.37069E-10-7.06301E-10
 -1       846-1.89062E+03-2.52877E+02-6.50010E+01-6.49545E+02-5.02835E-10 2.09230E-10
 -1       847-1.83206E+03-2.64628E+02-1.84221E+01-7.00877E+02-2.32270E-07 8.73221E-08
 -1       848-1.87330E+03-2.24672E+02 7.12842E+00-6.54021E+02-4.62857E-07 1.74029E-07
 -1       849-1.83700E+03-2.72292E+02 3.44584E+01-6.99772E+02-3.84268E-07 1.43521E-07
 -1       850-1.85024E+03-1.87524E+02 9.93939E+01-6.60125E+02-3.10686E-07 1.15784E-07
 -1       851-1.85511E+03-3.01756E+02 1.76065E+02-6.94781E+02-2.24701E-06 8.43165E-07
 -1       852-1.72367E+03 2.70196E+01 4.77967E+02-6.98693E+02-4.17853E-06 1.56757E-06
 -1       853-1.96355E+03-4.86708E+02 7.66003E+02-6.61252E+02-2.09491E-06 7.86497E-07
 -1       854-9.47436E+02 1.38920E+03 2.27042E+03-9.54896E+02-5.36717E-09 1.13914E-09
 -1       855-2.63121E+03-1.66305E+03 3.27026E+03-4.38906E+02-2.29420E-10 1.21190E-10
 -1       856-7.68008E+04 1.70001E+03-7.88326E+03 1.22554E+03-1.54637E-09-1.55069E-10
 -1       857-7.95989E+04-2.38479E+03-5.01334E+03 4.38112E+03-1.46997E-09-1.40176E-09
 -1       858-7.79794E+04 1.70220E+02-2.04130E+03 1.20873E+03-1.66074E-09-7.93648E-10
 -1       859-7.82935E+04-2.23558E+02-1.13269E+03 4.40108E+03 1.43558E-10-5.67013E-10
 -1       860-7.81096E+04 1.88459E+01-5.19374E+02 1.20547E+03-3.05988E-10-9.08017E-10
 -1       861-7.81489E+04-1.75115E+01-2.79595E+02 4.40546E+03-2.08578E-09-8.94985E-10
 -1       862-7.81261E+04 3.43767E+00-1.48011E+02 1.20434E+03 2.40260E-09-8.95298E-10
 -1       863-7.81322E+04 1.02507E+00-1.06125E+02 4.40685E+03 4.18217E-09-1.61651E-09
 -1       864-7.81272E+04 2.78749E+00-1.10373E+02 1.20407E+03 1.83092E-09-6.18620E-10
 -1       865-7.81406E+04-9.08479E+00-1.80837E+02 4.40633E+03 3.44826E-09-1.43598E-09
 -1       866-7.81174E+04 1.20456E+01-3.21928E+02 1.20487E+03 2.86661E-10-1.10510E-09
 -1       867-7.82284E+04-1.34787E+02-6.93793E+02 4.40330E+03 1.44468E-10-7.97293E-10
 -1       868-7.80380E+04 1.04321E+02-1.24703E+03 1.20712E+03 6.73538E-10-3.96767E-10
 -1       869-7.90245E+04-1.45394E+03-3.06022E+03 4.38666E+03 4.55316E-11-1.06772E-09
 -1       870-7.73186E+04 1.03775E+03-4.81151E+03 1.22158E+03 2.02238E-09-1.13300E-09
 -1       871-7.52365E+02-7.38168E+03-1.42779E+03 2.16492E+04-1.39448E-09-3.81533E-10
 -1       872-2.28696E+02-7.63824E+03-4.14787E+02 2.54138E+04-1.64459E-09-6.72742E-10
 -1       873 2.77689E+01-7.53715E+03 4.28530E+02 2.16071E+04-8.90054E-10 5.77990E-09
 -1       874 5.10494E+02-7.19533E+03 1.58762E+03 2.54321E+04-1.36822E-09 1.05834E-08
 -1       875 1.63367E+03-7.82894E+03 3.42072E+03 2.16317E+04-1.22691E-09 5.33373E-09
 -1       876 9.38363E+04 1.19208E+04 8.85345E+03 3.68774E+04 7.20377E-10 1.98315E-09
 -1       877 9.58029E+04 1.85872E+04 5.55044E+03 3.82021E+04 1.44242E-09 1.49441E-10
 -1       878 9.53432E+04 1.38433E+04 2.08918E+03 3.66861E+04 2.64265E-10-7.82165E-10
 -1       879 9.40680E+04 1.60393E+04 1.14192E+03 3.85646E+04-1.51203E-11-6.11777E-10
 -1       880 9.55100E+04 1.40458E+04 4.87635E+02 3.66729E+04-9.43601E-10-2.25413E-09
 -1       881 9.38759E+04 1.57786E+04 2.60546E+02 3.85900E+04-6.51596E-10-1.39036E-09
 -1       882 9.55291E+04 1.40684E+04 1.39872E+02 3.66735E+04-3.47325E-09-2.39751E-10
 -1       883 9.38571E+04 1.57541E+04 1.20436E+02 3.85896E+04-1.73019E-09-5.72092E-10
 -1       884 9.55280E+04 1.40683E+04 1.58022E+02 3.66739E+04 1.11862E-09 1.91002E-09
 -1       885 9.38831E+04 1.57835E+04 3.10591E+02 3.85881E+04 3.06477E-09-4.59480E-10
 -1       886 9.55036E+04 1.40418E+04 5.89446E+02 3.66740E+04 6.25803E-10-1.65403E-09
 -1       887 9.41180E+04 1.60989E+04 1.38525E+03 3.85554E+04 2.75968E-10 3.83807E-10
 -1       888 9.52998E+04 1.37964E+04 2.53594E+03 3.66904E+04 4.61784E-09 2.32706E-09
 -1       889 9.62235E+04 1.91939E+04 6.73898E+03 3.81163E+04 1.25799E-09-1.62800E-10
 -1       890 9.34715E+04 1.14607E+04 1.07492E+04 3.69206E+04 9.55310E-10 3.80169E-10
 -1       891 3.30277E+02-4.21123E+04-1.65145E+03 5.14116E+03-5.65819E-10-3.82101E-10
 -1       892-5.42604E+02-4.27052E+04-1.31627E+03 1.82913E+04-1.93910E-09-2.45689E-09
 -1       893 8.68708E+01-4.22981E+04-1.04827E+03 5.12181E+03-1.33167E-09-7.36027E-09
 -1       894-8.35018E+02-4.28819E+04-1.84782E+03 1.82900E+04-2.89901E-09-1.28748E-08
 -1       895 5.57624E+02-4.19349E+04-2.66394E+03 5.14241E+03-1.16142E-09-8.26753E-09
 -1       896 1.98764E+05-1.49105E+03 3.44833E+03 1.36655E+02 2.12758E-10 4.10409E-10
 -1       897 2.00253E+05 1.72606E+03 2.44268E+03-2.45389E+02-3.39986E-11 3.32648E-10
 -1       898 1.99344E+05-2.33728E+02 8.95911E+02 7.19578E+01-1.08985E-10 1.63880E-10
 -1       899 1.99578E+05 2.70894E+02 5.68601E+02-1.44146E+02 2.18807E-10 1.16025E-10
 -1       900 1.99439E+05-3.69943E+01 2.42462E+02 3.54105E+01-1.53122E-11 5.03917E-11
 -1       901 1.99468E+05 4.63418E+01 1.64694E+02-8.68533E+01 5.10016E-10-1.36140E-11
 -1       902 1.99453E+05-9.32785E+00 1.18504E+02 1.46637E+01-9.76057E-11 2.29183E-12
 -1       903 1.99463E+05 3.42799E+01 1.66348E+02-5.42530E+01-4.57967E-09-1.00671E-10
 -1       904 1.99444E+05-2.49381E+01 2.58523E+02 2.80956E+00-1.48243E-06-6.39488E-11
 -1       905 1.99540E+05 1.80538E+02 5.69742E+02-3.55271E+01-2.95811E-06-3.52479E-10
 -1       906 1.99377E+05-1.55491E+02 9.71679E+02-4.06245E+00-2.25794E-06-9.00968E-11
 -1       907 2.00013E+05 1.15179E+03 2.38894E+03-2.44752E+01-1.55261E-06-8.00355E-11
 -1       908 1.98971E+05-9.95464E+02 3.80246E+03-8.24252E+00-1.15662E-06-5.09317E-11
 -1       909 2.02874E+05 7.35159E+03 1.03938E+04-1.72886E+01-7.60656E-07-4.01087E-10
 -1       910 1.96515E+05-6.35020E+03 1.46911E+04-1.12488E+01-3.80620E-07-2.81034E-10
 -1       911 4.59008E+04-4.97696E+02 1.13374E+03-2.38534E+02 3.55676E-10 3.86649E-10
 -1       912 4.64813E+04 5.75568E+02 8.19670E+02 9.82206E+02 2.14134E-10 9.85978E-10
 -1       913 4.61207E+04-7.74521E+01 2.96635E+02-1.92003E+02 4.75449E-10 1.06876E-09
 -1       914 4.62188E+04 9.01837E+01 1.94194E+02 9.16786E+02 4.57952E-10 1.46196E-09
 -1       915 4.61623E+04-1.20194E+01 8.87092E+01-1.73113E+02-7.71920E-10 1.38104E-09
 -1       916 4.61775E+04 1.71918E+01 7.26155E+01 9.05290E+02-1.74288E-09 1.55668E-09
 -1       917 4.61619E+04-4.40114E+00 7.20022E+01-1.80506E+02-7.81709E-10 1.15910E-09
 -1       918 4.62071E+04 2.52049E+01 1.33234E+02 9.46788E+02-2.52477E-10 1.17571E-09
 -1       919 4.61333E+04-2.04523E+01 2.14497E+02-2.14611E+02-6.92197E-10 6.33420E-10
 -1       920 4.63374E+04 1.55068E+02 5.11539E+02 1.04442E+03-4.13394E-10 4.50939E-10
 -1       921 4.60332E+04-1.35262E+02 8.37946E+02-2.78138E+02 5.53932E-10-2.44313E-10
 -1       922 4.68708E+04 1.00797E+03 2.13324E+03 1.20626E+03 1.02614E-09-8.06267E-10
 -1       923 4.56028E+04-8.74788E+02 3.30732E+03-3.76457E+02 1.53420E-10-1.74646E-09
 -1       924 4.95997E+04 6.46894E+03 9.20299E+03 1.45335E+03 1.85392E-09-2.97405E-09
 -1       925 4.33094E+04-5.59542E+03 1.28286E+04-5.25240E+02 1.94561E-09-3.95357E-09
 -1       926-2.34796E+05 5.25890E+03-1.21670E+04 1.58038E+03-2.71472E-10-5.04315E-09
 -1       927-2.39962E+05-6.08138E+03-8.58681E+03-2.60636E+03 4.93139E-09-5.40422E-09
 -1       928-2.36953E+05 8.20875E+02-3.16958E+03 1.27455E+03-2.88914E-10-4.03020E-09
 -1       929-2.37276E+05-9.40808E+02-1.88929E+03-1.58137E+03-2.42633E-09-4.05529E-09
 -1       930-2.37474E+05 1.16113E+02-8.54009E+02 5.55361E+02 9.03441E-10-1.87481E-09
 -1       931-2.36683E+05-1.29209E+02-3.24911E+02 2.20194E+01 6.61444E-10-9.22967E-10
 -1       932-2.37540E+05 5.93225E+00-2.31305E+02-3.28852E+02-2.38742E-10 6.74191E-10
 -1       933-2.36783E+05 2.56459E+00 4.91929E+01 1.64520E+03 1.86090E-09 2.05184E-09
 -1       934-2.37378E+05-1.21056E+01 5.57987E+01-1.06783E+03 8.05471E-11 2.86749E-09
 -1       935-2.37050E+05 9.39631E+01 3.00896E+02 2.71825E+03 2.75431E-10 4.01384E-09
 -1       936-2.37281E+05-7.89844E+01 5.14536E+02-1.40193E+03 4.58472E-10 3.91157E-09
 -1       937-2.36846E+05 6.26218E+02 1.30196E+03 2.86432E+03 4.51256E-09 4.33590E-09
 -1       938-2.37583E+05-5.42833E+02 2.04579E+03-1.21392E+03 3.32001E-09 3.02578E-09
 -1       939-2.35001E+05 4.02386E+03 5.71847E+03 2.03453E+03 1.84073E-09 2.98564E-09
 -1       940-2.39118E+05-3.47951E+03 7.91978E+03-5.72104E+02-3.78904E-10 1.29694E-09
 -1       941 1.12269E+06-5.63681E+04 1.30528E+05 8.21406E+01-6.85724E-08 8.94943E-10
 -1       942 1.17920E+06 6.52639E+04 9.23214E+04 1.71034E+01-1.44214E-07-1.12414E-09
 -1       943 1.14450E+06-8.83758E+03 3.38077E+04 5.94195E+01-1.28878E-07 1.34605E-10
 -1       944 1.15382E+06 1.02286E+04 2.12672E+04 4.47929E+01-1.14006E-07-6.28688E-10
 -1       945 1.14811E+06-1.38323E+03 8.71550E+03 5.44564E+01-7.21820E-08 9.71340E-10
 -1       946 1.14963E+06 1.62428E+03 5.23028E+03 5.06159E+01-3.30810E-08 1.78443E-09
 -1       947 1.14870E+06-2.40057E+02 2.60911E+03 5.35974E+01 1.63486E-08 1.34185E-09
 -1       948 1.14902E+06 4.44685E+02 2.16049E+03 5.05120E+01 6.74808E-08 1.12128E-09
 -1       949 1.14872E+06-2.04433E+02 2.28894E+03 5.45605E+01 2.29366E-07-1.70314E-09
 -1       950 1.14947E+06 1.31800E+03 4.30416E+03 4.42972E+01 3.92315E-07 1.35691E-09
 -1       951 1.14825E+06-1.11277E+03 7.04850E+03 5.98122E+01 9.73733E-07-2.19188E-09
 -1       952 1.15282E+06 8.21760E+03 1.71070E+04 1.59362E+01 1.55525E-06-2.56478E-10
 -1       953 1.14536E+06-7.09865E+03 2.71657E+04 8.29211E+01 7.77219E-07 7.14863E-10
 -1       954 1.17321E+06 5.24208E+04 7.41578E+04-1.09726E+02 7.93914E-10-4.73847E-10
 -1       955 1.12783E+06-4.52760E+04 1.04831E+05 1.85466E+02-6.26365E-09 2.76486E-10
 -1       956-5.78667E+04-1.02211E+03-2.17503E+03 7.85583E+03-1.06047E-09 9.65429E-10
 -1       957-5.82665E+04-3.27275E+02-1.09967E+03 9.14930E+03-3.47200E-10-6.59384E-11
 -1       958-5.80437E+04-3.83757E+01-4.94463E+02 7.80920E+03 7.11680E-10-6.37385E-10
 -1       959-5.80785E+04-8.40020E+00-2.51696E+02 9.20042E+03-6.57337E-10-6.63704E-10
 -1       960-5.80608E+04 5.89176E+00-1.22080E+02 7.80460E+03-1.39403E-09 2.80238E-10
 -1       961-5.80628E+04 5.43368E+00-6.43572E+01 9.20548E+03-2.25100E-09-8.94715E-11
 -1       962-5.80641E+04 5.36410E+00-3.60059E+01 7.80413E+03-5.18980E-10-1.79000E-10
 -1       963-5.80618E+04 5.55262E+00-2.75144E+01 9.20607E+03-1.18280E-09 2.33968E-10
 -1       964-5.80648E+04 5.56397E+00-3.16323E+01 7.80401E+03-4.94879E-10 7.88987E-11
 -1       965-5.80638E+04 6.04262E+00-5.32287E+01 9.20594E+03-1.48304E-10 4.62705E-11
 -1       966-5.80633E+04 6.56558E+00-9.90731E+01 7.80426E+03-3.23271E-09-4.16264E-10
 -1       967-5.80776E+04-4.49225E+00-2.03378E+02 9.20321E+03-1.52011E-09-1.56035E-10
 -1       968-5.80505E+04-2.85713E+01-3.99008E+02 7.80675E+03-3.99052E-09-5.51125E-10
 -1       969-5.82304E+04-2.61270E+02-8.87343E+02 9.17558E+03-7.55693E-09-9.19385E-10
 -1       970-5.79084E+04-8.22010E+02-1.75487E+03 7.83209E+03-3.97313E-09-1.23237E-10
 -1       971-1.10454E+05 1.39502E+03-6.47104E+03 1.23939E+03-1.01909E-09 6.57565E-10
 -1       972-1.12745E+05-1.95727E+03-4.11546E+03 4.44614E+03-1.15961E-09 7.56302E-10
 -1       973-1.11421E+05 1.39601E+02-1.67682E+03 1.22011E+03-1.35049E-09-8.33325E-10
 -1       974-1.11675E+05-1.83068E+02-9.32209E+02 4.46987E+03-4.39798E-10-4.24507E-10
 -1       975-1.11528E+05 1.55510E+01-4.31376E+02 1.21558E+03 7.24128E-10-7.70513E-10
 -1       976-1.11557E+05-1.38285E+01-2.39780E+02 4.47629E+03-1.34787E-09-1.13566E-10
 -1       977-1.11541E+05 3.18460E+00-1.41772E+02 1.21368E+03 8.30255E-10-1.57050E-09
 -1       978-1.11545E+05 3.99555E-01-1.28896E+02 4.47879E+03 4.08786E-09-7.75131E-10
 -1       979-1.11541E+05 3.88781E+00-1.72061E+02 1.21307E+03 1.65521E-09-6.12481E-10
 -1       980-1.11565E+05-2.01048E+01-3.19449E+02 4.47858E+03 2.02448E-09 2.31570E-10
 -1       981-1.11522E+05 2.15711E+01-5.90419E+02 1.21390E+03-2.19114E-09-8.98382E-10
 -1       982-1.11730E+05-2.53635E+02-1.28622E+03 4.47506E+03-6.17285E-09-2.56648E-10
 -1       983-1.11374E+05 1.93651E+02-2.31703E+03 1.21661E+03-2.05125E-09-7.93875E-10
 -1       984-1.13212E+05-2.70652E+03-5.69072E+03 4.45761E+03-2.39197E-10 7.87054E-10
 -1       985-1.10037E+05 1.93048E+03-8.94775E+03 1.23150E+03 6.42785E-10-1.14642E-09
 -3
    1PSTEP                        13           7           1          
  100CL  107 1.64551E-01         841                     0    7           1
 -4  DISP        4    1
 -5  D1          1    2    1    0
 -5  D2          1    2    2    0
 -5  D3          1    2    3    0
 -5  ALL         1    2    0    0    1ALL
 -1         1 2.04535E-05 0.00000E+00 0.00000E+00
 -1         2 1.51586E-05 0.00000E+00 0.00000E+00
 -1         3 1.26585E-05 0.00000E+00 0.00000E+00
 -1         4 1.11749E-05 0.00000E+00 0.00000E+00
 -1         5 1.04774E-05 0.00000E+00 0.00000E+00
 -1         8 1.61477E-05-2.03945E-07 0.00000E+00
 -1         9 1.26390E-05 1.12468E-07 0.00000E+00
 -1        10 1.19139E-05-4.80380E-07 0.00000E+00
 -1        11 1.10342E-05-9.19227E-08 0.00000E+00
 -1        12 1.01348E-05 2.44636E-07 0.00000E+00
 -1        15 7.00420E-06-4.23283E-07 0.00000E+00
 -1        16 9.51069E-06 1.04544E-07 0.00000E+00
 -1        17 8.73323E-06-9.69652E-07 0.00000E+00
 -1        18 8.79160E-06-1.84248E-07 0.00000E+00
 -1        19 9.20450E-06 4.85366E-07 0.00000E+00
 -1        20 9.34293E-06 5.20890E-06 0.00000E+00
 -1        21 9.33875E-06 1.24473E-05 0.00000E+00
 -1        22 2.65064E-06-2.81411E-07 0.00000E+00
 -1        23 3.60622E-06 3.56586E-07 0.00000E+00
 -1        24 3.59150E-06-1.15914E-06 0.00000E+00
 -1        25 7.83714E-06-1.20651E-07 0.00000E+00
 -1        26 8.20602E-06 6.44304E-07 0.00000E+00
 -1        27 7.81244E-06 5.02129E-06 0.00000E+00
 -1        28 7.33995E-06 1.22689E-05 0.00000E+00
 -1        29 0.00000E+00 0.00000E+00 0.00000E+00
 -1        30 1.19453E-06 4.86350E-07 0.00000E+00
 -1        31 1.41029E-06-9.63581E-07 0.00000E+00
 -1        32 0.00000E+00 0.00000E+00 0.00000E+00
 -1        33 6.90947E-06 9.99205E-07 0.00000E+00
 -1        34 6.55710E-06 5.00332E-06 0.00000E+00
 -1        35 5.88195E-06 1.21734E-05 0.00000E+00
 -1        36 2.01332E-05 2.60868E-20-6.61744E-24
 -1        37 1.98023E-05 1.29674E-19 3.30872E-24
 -1        38 1.94721E-05 2.92786E-19 0.00000E+00
 -1        39 1.91399E-05 3.90501E-19 0.00000E+00
 -1        40 1.88076E-05 4.14837E-19 0.00000E+00
 -1        41 1.84749E-05 3.09926E-19 0.00000E+00
 -1        42 1.81422E-05 8.77040E-20 0.00000E+00
 -1        43 1.78094E-05-1.68098E-19-6.61744E-24
 -1        44 1.74766E-05-3.62047E-19 1.32349E-23
 -1        45 1.71438E-05-4.66595E-19 0.00000E+00
 -1        46 1.68111E-05-5.36431E-19 1.32349E-23
 -1        47 1.64786E-05-4.66460E-19 0.00000E+00
 -1        48 1.61461E-05-3.08439E-19 0.00000E+00
 -1        49 1.58150E-05-9.15887E-20 3.30872E-24
 -1        50 1.54834E-05 7.99253E-21-6.61744E-24
 -1        51 2.01260E-05-3.48534E-08 0.00000E+00
 -1        52 1.95861E-05-6.81595E-08 0.00000E+00
 -1        53 1.88750E-05-1.01157E-07 0.00000E+00
 -1        54 1.80360E-05-1.34292E-07 0.00000E+00
 -1        55 1.71123E-05-1.68025E-07-7.23783E-25
 -1        56 2.00430E-05-1.57361E-07 0.00000E+00
 -1        57 1.96188E-05-3.23208E-07 6.61744E-24
 -1        58 1.91942E-05-4.85486E-07 0.00000E+00
 -1        59 1.87635E-05-6.39275E-07 0.00000E+00
 -1        60 1.83269E-05-7.77626E-07 0.00000E+00
 -1        61 1.78819E-05-8.94778E-07-6.61744E-24
 -1        62 1.74267E-05-9.85112E-07 0.00000E+00
 -1        63 1.69594E-05-1.04341E-06 6.61744E-24
 -1        64 1.64783E-05-1.06493E-06 0.00000E+00
 -1        65 1.59819E-05-1.04527E-06 0.00000E+00
 -1        66 1.54687E-05-9.80761E-07 1.32349E-23
 -1        67 1.49378E-05-8.67984E-07 0.00000E+00
 -1        68 1.43881E-05-7.04595E-07 0.00000E+00
 -1        69 1.38211E-05-4.87725E-07 0.00000E+00
 -1        70 1.32331E-05-2.17454E-07 0.00000E+00
 -1        71 1.50016E-05 5.48278E-20 6.61744E-24
 -1        72 1.48450E-05 2.73129E-19 0.00000E+00
 -1        73 1.46884E-05 6.25341E-19 6.61744E-24
 -1        74 1.45319E-05 1.05301E-18 3.30872E-24
 -1        75 1.43753E-05 1.52169E-18 0.00000E+00
 -1        76 1.42188E-05 1.87952E-18-3.30872E-24
 -1        77 1.40623E-05 2.05668E-18 6.61744E-24
 -1        78 1.39057E-05 2.07862E-18 0.00000E+00
 -1        79 1.37492E-05 1.92914E-18-6.61744E-24
 -1        80 1.35927E-05 1.63034E-18 0.00000E+00
 -1        81 1.34362E-05 1.25105E-18 0.00000E+00
 -1        82 1.32798E-05 8.46541E-19 0.00000E+00
 -1        83 1.31235E-05 4.95419E-19 0.00000E+00
 -1        84 1.29677E-05 2.42968E-19 0.00000E+00
 -1        85 1.28117E-05 6.43765E-20 3.30872E-24
 -1        86 1.50532E-05 1.32998E-08 0.00000E+00
 -1        87 1.47387E-05 3.39010E-08 0.00000E+00
 -1        88 1.42785E-05 5.39403E-08 0.00000E+00
 -1        89 1.37357E-05 7.45580E-08 2.06795E-25
 -1        90 1.31695E-05 9.54925E-08 0.00000E+00
 -1        91 1.49446E-05 1.45212E-09 0.00000E+00
 -1        92 1.46762E-05 1.45184E-07 3.30872E-24
 -1        93 1.43757E-05 3.74863E-07 0.00000E+00
 -1        94 1.40642E-05 6.32953E-07 3.30872E-24
 -1        95 1.37679E-05 8.50850E-07 0.00000E+00
 -1        96 1.35122E-05 9.60208E-07-3.30872E-24
 -1        97 1.33067E-05 9.35993E-07 6.61744E-24
 -1        98 1.31602E-05 7.54275E-07 0.00000E+00
 -1        99 1.30572E-05 4.56513E-07 0.00000E+00
 -1       100 1.29818E-05 8.51562E-08 3.30872E-24
 -1       101 1.29068E-05-2.87350E-07-6.61744E-24
 -1       102 1.28053E-05-5.88476E-07 0.00000E+00
 -1       103 1.26609E-05-7.75049E-07 0.00000E+00
 -1       104 1.24584E-05-8.04539E-07 3.30872E-24
 -1       105 1.22050E-05-6.99216E-07 0.00000E+00
 -1       106 1.25659E-05-8.15734E-20 0.00000E+00
 -1       107 1.24730E-05-3.08472E-19-1.65436E-24
 -1       108 1.23801E-05-6.49613E-19 0.00000E+00
 -1       109 1.22872E-05-1.06432E-18 1.65436E-24
 -1       110 1.21943E-05-1.43868E-18 3.30872E-24
 -1       111 1.21013E-05-1.73084E-18-1.65436E-24
 -1       112 1.20084E-05-1.94169E-18 0.00000E+00
 -1       113 1.19155E-05-2.06040E-18 0.00000E+00
 -1       114 1.18225E-05-2.02237E-18 3.30872E-24
 -1       115 1.17296E-05-1.81887E-18 0.00000E+00
 -1       116 1.16367E-05-1.49518E-18 0.00000E+00
 -1       117 1.15438E-05-1.06165E-18 0.00000E+00
 -1       118 1.14510E-05-6.11457E-19 0.00000E+00
 -1       119 1.13585E-05-2.60800E-19 0.00000E+00
 -1       120 1.12659E-05-4.53254E-20 1.65436E-24
 -1       121 1.26529E-05-8.02580E-08-3.30872E-24
 -1       122 1.26196E-05-1.60245E-07 0.00000E+00
 -1       123 1.25436E-05-2.40243E-07-3.30872E-24
 -1       124 1.24105E-05-3.20230E-07-1.65436E-24
 -1       125 1.22054E-05-4.00219E-07 0.00000E+00
 -1       126 1.25846E-05-7.92909E-08 0.00000E+00
 -1       127 1.25444E-05-2.48823E-07-1.65436E-24
 -1       128 1.25289E-05-4.84390E-07-3.30872E-24
 -1       129 1.25290E-05-7.61619E-07 0.00000E+00
 -1       130 1.25320E-05-1.04680E-06 0.00000E+00
 -1       131 1.25255E-05-1.30622E-06 0.00000E+00
 -1       132 1.24989E-05-1.51237E-06 3.30872E-24
 -1       133 1.24421E-05-1.63796E-06-1.65436E-24
 -1       134 1.23513E-05-1.67259E-06 0.00000E+00
 -1       135 1.22226E-05-1.60623E-06-1.65436E-24
 -1       136 1.20602E-05-1.45028E-06 0.00000E+00
 -1       137 1.18688E-05-1.21653E-06 0.00000E+00
 -1       138 1.16588E-05-9.33471E-07 0.00000E+00
 -1       139 1.14414E-05-6.29665E-07 0.00000E+00
 -1       140 1.12285E-05-3.38344E-07 1.65436E-24
 -1       141 1.11307E-05-9.61778E-21 0.00000E+00
 -1       142 1.10867E-05-3.70200E-20-8.27181E-25
 -1       143 1.10426E-05-2.11174E-20 0.00000E+00
 -1       144 1.09987E-05-3.21718E-20 8.27181E-25
 -1       145 1.09547E-05-7.67812E-20 0.00000E+00
 -1       146 1.09108E-05-8.80713E-20 8.27181E-25
 -1       147 1.08669E-05-7.34383E-20 0.00000E+00
 -1       148 1.08229E-05-9.61324E-20 8.27181E-25
 -1       149 1.07790E-05-9.15193E-20-1.65436E-24
 -1       150 1.07351E-05-8.88403E-20 0.00000E+00
 -1       151 1.06912E-05-5.89060E-20 0.00000E+00
 -1       152 1.06475E-05-3.39817E-20 0.00000E+00
 -1       153 1.06038E-05-3.11379E-20 0.00000E+00
 -1       154 1.05607E-05-1.86203E-20 0.00000E+00
 -1       155 1.05174E-05-5.04417E-21 0.00000E+00
 -1       156 1.11934E-05-1.61952E-08 0.00000E+00
 -1       157 1.12480E-05-3.09813E-08 0.00000E+00
 -1       158 1.12987E-05-4.58730E-08-8.27181E-25
 -1       159 1.13056E-05-6.07835E-08 0.00000E+00
 -1       160 1.12303E-05-7.55857E-08 8.27181E-25
 -1       161 1.11243E-05-2.40461E-08 0.00000E+00
 -1       162 1.10769E-05-5.69014E-08 0.00000E+00
 -1       163 1.10313E-05-9.46121E-08 0.00000E+00
 -1       164 1.09861E-05-1.33234E-07 0.00000E+00
 -1       165 1.09396E-05-1.68513E-07-1.65436E-24
 -1       166 1.08903E-05-1.96209E-07-8.27181E-25
 -1       167 1.08370E-05-2.13360E-07-1.65436E-24
 -1       168 1.07786E-05-2.17031E-07 0.00000E+00
 -1       169 1.07147E-05-2.05858E-07 0.00000E+00
 -1       170 1.06448E-05-1.78503E-07-8.27181E-25
 -1       171 1.05690E-05-1.35687E-07-1.65436E-24
 -1       172 1.04879E-05-7.81185E-08 8.27181E-25
 -1       173 1.04022E-05-8.40461E-09 0.00000E+00
 -1       174 1.03137E-05 7.11208E-08-4.13590E-25
 -1       175 1.02227E-05 1.56256E-07 2.06795E-25
 -1       191 1.04659E-05 4.07445E-08-1.65436E-24
 -1       192 1.04356E-05 8.15379E-08 0.00000E+00
 -1       193 1.03869E-05 1.22342E-07-1.65436E-24
 -1       194 1.03202E-05 1.63143E-07-8.27181E-25
 -1       195 1.02360E-05 2.03925E-07 0.00000E+00
 -1       251 1.59337E-05 5.67805E-07 3.30872E-24
 -1       252 1.57141E-05 1.35260E-06 0.00000E+00
 -1       253 1.54950E-05 1.95218E-06 0.00000E+00
 -1       254 1.52751E-05 2.17011E-06 0.00000E+00
 -1       255 1.50551E-05 1.96973E-06 0.00000E+00
 -1       256 1.48347E-05 1.31852E-06 0.00000E+00
 -1       257 1.46140E-05 3.72665E-07 0.00000E+00
 -1       258 1.43932E-05-7.08760E-07 0.00000E+00
 -1       259 1.41725E-05-1.70995E-06-6.61744E-24
 -1       260 1.39520E-05-2.41585E-06-3.30872E-24
 -1       261 1.37318E-05-2.73502E-06 0.00000E+00
 -1       262 1.35118E-05-2.57986E-06-3.30872E-24
 -1       263 1.32917E-05-2.06129E-06-6.61744E-24
 -1       264 1.30725E-05-1.29381E-06 0.00000E+00
 -1       265 1.28530E-05-4.96207E-07-3.30872E-24
 -1       266 1.51819E-05-2.41893E-07 0.00000E+00
 -1       267 1.38128E-05-2.78276E-07 8.27181E-25
 -1       268 1.21731E-05-3.15159E-07 0.00000E+00
 -1       269 1.03960E-05-3.51667E-07 0.00000E+00
 -1       270 8.62518E-06-3.88224E-07 0.00000E+00
 -1       271 1.55516E-05 3.33164E-07 0.00000E+00
 -1       272 1.50077E-05 6.95785E-07 0.00000E+00
 -1       273 1.45201E-05 9.09051E-07-1.32349E-23
 -1       274 1.40789E-05 9.93521E-07-6.61744E-24
 -1       275 1.36775E-05 9.71414E-07 1.32349E-23
 -1       276 1.33075E-05 8.64727E-07 6.61744E-24
 -1       277 1.29608E-05 6.95832E-07 0.00000E+00
 -1       278 1.26289E-05 4.87241E-07 0.00000E+00
 -1       279 1.23033E-05 2.61596E-07-1.32349E-23
 -1       280 1.19757E-05 4.16036E-08-6.61744E-24
 -1       281 1.16376E-05-1.50071E-07-1.32349E-23
 -1       282 1.12806E-05-2.90805E-07-6.61744E-24
 -1       283 1.08964E-05-3.58211E-07 1.32349E-23
 -1       284 1.04778E-05-3.29632E-07 3.30872E-24
 -1       285 1.00151E-05-1.83837E-07 6.61744E-24
 -1       286 1.25920E-05 5.55915E-07 1.65436E-24
 -1       287 1.25468E-05 8.62356E-07 0.00000E+00
 -1       288 1.25014E-05 1.03450E-06 0.00000E+00
 -1       289 1.24564E-05 1.07533E-06 0.00000E+00
 -1       290 1.24113E-05 1.00044E-06-1.65436E-24
 -1       291 1.23664E-05 8.25649E-07 0.00000E+00
 -1       292 1.23214E-05 5.76374E-07 0.00000E+00
 -1       293 1.22764E-05 2.78171E-07-8.27181E-25
 -1       294 1.22314E-05-3.86980E-08 0.00000E+00
 -1       295 1.21864E-05-3.43937E-07 8.27181E-25
 -1       296 1.21414E-05-6.08374E-07-1.65436E-24
 -1       297 1.20963E-05-8.02909E-07 0.00000E+00
 -1       298 1.20513E-05-9.05154E-07 1.65436E-24
 -1       299 1.20060E-05-8.92908E-07 8.27181E-25
 -1       300 1.19607E-05-7.54968E-07 0.00000E+00
 -1       301 1.21167E-05 1.08894E-07 1.65436E-24
 -1       302 1.15912E-05 1.08982E-07 0.00000E+00
 -1       303 1.10652E-05 1.09679E-07 0.00000E+00
 -1       304 1.05413E-05 1.10230E-07 0.00000E+00
 -1       305 1.00222E-05 1.09856E-07 0.00000E+00
 -1       306 1.22529E-05 4.41849E-07 0.00000E+00
 -1       307 1.19233E-05 6.01210E-07 0.00000E+00
 -1       308 1.16477E-05 6.16965E-07 6.61744E-24
 -1       309 1.14159E-05 5.13116E-07 0.00000E+00
 -1       310 1.12195E-05 3.14588E-07-6.61744E-24
 -1       311 1.10490E-05 4.62079E-08 3.30872E-24
 -1       312 1.08953E-05-2.66994E-07 0.00000E+00
 -1       313 1.07490E-05-5.99934E-07 0.00000E+00
 -1       314 1.06007E-05-9.27468E-07 0.00000E+00
 -1       315 1.04410E-05-1.22446E-06 0.00000E+00
 -1       316 1.02604E-05-1.46588E-06 0.00000E+00
 -1       317 1.00499E-05-1.62673E-06 0.00000E+00
 -1       318 9.80011E-06-1.68228E-06 6.61744E-24
 -1       319 9.50276E-06-1.60765E-06 0.00000E+00
 -1       320 9.14741E-06-1.37904E-06 3.30872E-24
 -1       321 1.18576E-05-1.75699E-07 0.00000E+00
 -1       322 1.18025E-05 5.22797E-08 0.00000E+00
 -1       323 1.17474E-05 2.02526E-07 0.00000E+00
 -1       324 1.16925E-05 2.74206E-07 8.27181E-25
 -1       325 1.16376E-05 2.75621E-07 0.00000E+00
 -1       326 1.15827E-05 2.15249E-07 0.00000E+00
 -1       327 1.15278E-05 1.08751E-07-1.65436E-24
 -1       328 1.14730E-05-2.80964E-08 8.27181E-25
 -1       329 1.14181E-05-1.75985E-07 0.00000E+00
 -1       330 1.13632E-05-3.15586E-07-8.27181E-25
 -1       331 1.13084E-05-4.28527E-07 1.65436E-24
 -1       332 1.12535E-05-4.96504E-07 0.00000E+00
 -1       333 1.11987E-05-5.06445E-07-1.65436E-24
 -1       334 1.11439E-05-4.45416E-07 8.27181E-25
 -1       335 1.10890E-05-3.08740E-07 1.65436E-24
 -1       336 1.15206E-05-5.62299E-07 0.00000E+00
 -1       337 1.10477E-05-6.44124E-07 0.00000E+00
 -1       338 1.05138E-05-7.25947E-07-3.30872E-24
 -1       339 9.93754E-06-8.07589E-07 0.00000E+00
 -1       340 9.33777E-06-8.89255E-07 1.65436E-24
 -1       341 1.07643E-05 2.19523E-06 0.00000E+00
 -1       342 7.80975E-06 9.60871E-06-1.65436E-24
 -1       343 3.57544E-06 2.03483E-05-3.30872E-24
 -1       344-1.39597E-06 3.29874E-05 0.00000E+00
 -1       345-6.34041E-06 4.55567E-05-3.30872E-24
 -1       346-1.04941E-05 5.60871E-05-1.65436E-24
 -1       347-1.33312E-05 6.31927E-05 0.00000E+00
 -1       348-1.43446E-05 6.55021E-05 0.00000E+00
 -1       349-1.35586E-05 6.30128E-05 3.30872E-24
 -1       350-1.10076E-05 5.57496E-05 1.65436E-24
 -1       351-7.22080E-06 4.51061E-05-3.30872E-24
 -1       352-2.72246E-06 3.24994E-05 1.65436E-24
 -1       353 1.76783E-06 1.99153E-05 3.30872E-24
 -1       354 5.53110E-06 9.33991E-06 0.00000E+00
 -1       355 8.04561E-06 2.17882E-06-1.65436E-24
 -1       356 1.09777E-05 1.44100E-07 0.00000E+00
 -1       357 1.09210E-05 3.38237E-07 8.27181E-25
 -1       358 1.08644E-05 4.86226E-07 0.00000E+00
 -1       359 1.08077E-05 5.83913E-07 0.00000E+00
 -1       360 1.07511E-05 6.33184E-07 0.00000E+00
 -1       361 1.06944E-05 6.36048E-07 0.00000E+00
 -1       362 1.06378E-05 6.00078E-07 1.65436E-24
 -1       363 1.05811E-05 5.32952E-07 0.00000E+00
 -1       364 1.05245E-05 4.46078E-07 0.00000E+00
 -1       365 1.04679E-05 3.50920E-07 0.00000E+00
 -1       366 1.04113E-05 2.59937E-07 0.00000E+00
 -1       367 1.03549E-05 1.85572E-07 0.00000E+00
 -1       368 1.02984E-05 1.38280E-07-1.65436E-24
 -1       369 1.02428E-05 1.28444E-07 0.00000E+00
 -1       370 1.01868E-05 1.61967E-07 0.00000E+00
 -1       371 1.07147E-05-1.08956E-07 8.27181E-25
 -1       372 1.02718E-05-1.24431E-07-4.13590E-25
 -1       373 9.78198E-06-1.40019E-07 0.00000E+00
 -1       374 9.32165E-06-1.55112E-07-2.06795E-25
 -1       375 8.96637E-06-1.70213E-07 1.03398E-25
 -1       376 1.08533E-05 1.24746E-07 1.65436E-24
 -1       377 1.06767E-05 3.25646E-07 0.00000E+00
 -1       378 1.05112E-05 4.97097E-07 0.00000E+00
 -1       379 1.03618E-05 6.24819E-07 0.00000E+00
 -1       380 1.02307E-05 7.03882E-07 0.00000E+00
 -1       381 1.01196E-05 7.29434E-07-1.65436E-24
 -1       382 1.00261E-05 7.07922E-07-3.30872E-24
 -1       383 9.94785E-06 6.45964E-07 1.65436E-24
 -1       384 9.87900E-06 5.58853E-07-3.30872E-24
 -1       385 9.81384E-06 4.61994E-07-1.65436E-24
 -1       386 9.74604E-06 3.72195E-07 0.00000E+00
 -1       387 9.66946E-06 3.06290E-07 1.65436E-24
 -1       388 9.57937E-06 2.76424E-07 0.00000E+00
 -1       389 9.47208E-06 2.94970E-07-8.27181E-25
 -1       390 9.34571E-06 3.63428E-07 0.00000E+00
 -1       406 1.00123E-05 2.84987E-07 1.65436E-24
 -1       407 9.87482E-06 3.25371E-07-8.27181E-25
 -1       408 9.72379E-06 3.65732E-07 0.00000E+00
 -1       409 9.56069E-06 4.05996E-07 0.00000E+00
 -1       410 9.38706E-06 4.46050E-07 0.00000E+00
 -1       466 7.15423E-06 8.36277E-07-1.65436E-24
 -1       467 7.31144E-06 1.53203E-06 0.00000E+00
 -1       468 7.46843E-06 1.82985E-06 3.30872E-24
 -1       469 7.62673E-06 1.89274E-06 0.00000E+00
 -1       470 7.78506E-06 1.79098E-06 0.00000E+00
 -1       471 7.94363E-06 1.59367E-06 3.30872E-24
 -1       472 8.10221E-06 1.33213E-06-6.61744E-24
 -1       473 8.26082E-06 1.03721E-06 3.30872E-24
 -1       474 8.41941E-06 7.26539E-07-6.61744E-24
 -1       475 8.57793E-06 4.17648E-07 0.00000E+00
 -1       476 8.73641E-06 1.28768E-07-3.30872E-24
 -1       477 8.89448E-06-1.21734E-07 0.00000E+00
 -1       478 9.05250E-06-3.00306E-07 3.30872E-24
 -1       479 9.20844E-06-3.72883E-07 0.00000E+00
 -1       480 9.36509E-06-2.63648E-07 0.00000E+00
 -1       481 5.62835E-06-4.01248E-07 0.00000E+00
 -1       482 4.58806E-06-3.77595E-07 2.06795E-25
 -1       483 3.82417E-06-3.53782E-07 0.00000E+00
 -1       484 3.27788E-06-3.29654E-07 0.00000E+00
 -1       485 2.90228E-06-3.05420E-07-8.27181E-25
 -1       486 6.15367E-06 1.34730E-06 3.30872E-24
 -1       487 5.08332E-06 3.68034E-06 0.00000E+00
 -1       488 4.00614E-06 6.03280E-06-3.30872E-24
 -1       489 3.12653E-06 7.85809E-06 0.00000E+00
 -1       490 2.57641E-06 8.80823E-06 0.00000E+00
 -1       491 2.48305E-06 8.54111E-06 3.30872E-24
 -1       492 2.80245E-06 7.17091E-06 6.61744E-24
 -1       493 3.48755E-06 4.82023E-06 0.00000E+00
 -1       494 4.35521E-06 1.97926E-06 0.00000E+00
 -1       495 5.22142E-06-8.57788E-07 3.30872E-24
 -1       496 5.90275E-06-3.19816E-06 0.00000E+00
 -1       497 6.21668E-06-4.55313E-06 0.00000E+00
 -1       498 6.11724E-06-4.80343E-06 0.00000E+00
 -1       499 5.56253E-06-3.83789E-06-1.65436E-24
 -1       500 4.67951E-06-2.00167E-06 0.00000E+00
 -1       501 9.45925E-06 5.13793E-07 0.00000E+00
 -1       502 9.41050E-06 7.43439E-07-8.27181E-25
 -1       503 9.36160E-06 8.03428E-07 0.00000E+00
 -1       504 9.31320E-06 7.04068E-07-8.27181E-25
 -1       505 9.26479E-06 4.72062E-07-1.65436E-24
 -1       506 9.21645E-06 1.34406E-07-8.27181E-25
 -1       507 9.16811E-06-2.71042E-07-1.65436E-24
 -1       508 9.11977E-06-7.06289E-07-8.27181E-25
 -1       509 9.07144E-06-1.13027E-06-1.65436E-24
 -1       510 9.02313E-06-1.50194E-06-8.27181E-25
 -1       511 8.97485E-06-1.78564E-06 1.65436E-24
 -1       512 8.92660E-06-1.94591E-06-8.27181E-25
 -1       513 8.87835E-06-1.95994E-06 1.65436E-24
 -1       514 8.83007E-06-1.80526E-06 8.27181E-25
 -1       515 8.78175E-06-1.47675E-06 1.65436E-24
 -1       516 9.05188E-06 1.42205E-07 8.27181E-25
 -1       517 8.66872E-06 1.86174E-07 2.58494E-26
 -1       518 8.15407E-06 2.29655E-07-4.13590E-25
 -1       519 7.30055E-06 2.73598E-07 0.00000E+00
 -1       520 5.86581E-06 3.17104E-07 2.06795E-25
 -1       521 9.01758E-06 3.83921E-07 0.00000E+00
 -1       522 8.57435E-06 4.99529E-07 0.00000E+00
 -1       523 8.18265E-06 4.78477E-07 0.00000E+00
 -1       524 7.83183E-06 3.43957E-07-6.61744E-24
 -1       525 7.51412E-06 1.20581E-07-1.32349E-23
 -1       526 7.22029E-06-1.67235E-07 6.61744E-24
 -1       527 6.94129E-06-4.94787E-07-1.32349E-23
 -1       528 6.66785E-06-8.37311E-07 0.00000E+00
 -1       529 6.39071E-06-1.16998E-06-1.32349E-23
 -1       530 6.10064E-06-1.46800E-06 6.61744E-24
 -1       531 5.78838E-06-1.70669E-06-1.32349E-23
 -1       532 5.44496E-06-1.86152E-06 6.61744E-24
 -1       533 5.06119E-06-1.90828E-06 0.00000E+00
 -1       534 4.62937E-06-1.82267E-06 0.00000E+00
 -1       535 4.13902E-06-1.58180E-06 0.00000E+00
 -1       536 8.73416E-06-4.44098E-07 8.27181E-25
 -1       537 8.73750E-06-4.49980E-08 0.00000E+00
 -1       538 8.74086E-06 2.41054E-07 0.00000E+00
 -1       539 8.74459E-06 4.27586E-07 0.00000E+00
 -1       540 8.74838E-06 5.28091E-07 2.58494E-26
 -1       541 8.75224E-06 5.56069E-07 0.00000E+00
 -1       542 8.75613E-06 5.25018E-07 1.03398E-25
 -1       543 8.76002E-06 4.48435E-07 2.58494E-26
 -1       544 8.76392E-06 3.39813E-07-1.03398E-25
 -1       545 8.76783E-06 2.12645E-07 0.00000E+00
 -1       546 8.77173E-06 8.04248E-08 0.00000E+00
 -1       547 8.77564E-06-4.33546E-08 0.00000E+00
 -1       548 8.77956E-06-1.45202E-07 0.00000E+00
 -1       549 8.78351E-06-2.11625E-07-1.03398E-25
 -1       550 8.78746E-06-2.29121E-07 0.00000E+00
 -1       551 7.96505E-06-1.00077E-06 1.21492E-24
 -1       552 7.10893E-06-1.03108E-06-5.16988E-25
 -1       553 6.20384E-06-1.06138E-06 1.65436E-24
 -1       554 5.28951E-06-1.09206E-06 0.00000E+00
 -1       555 4.40570E-06-1.12357E-06-3.30872E-24
 -1       556 8.51065E-06-4.76496E-07 0.00000E+00
 -1       557 8.33174E-06-9.68939E-08 0.00000E+00
 -1       558 8.19157E-06 1.79983E-07 0.00000E+00
 -1       559 8.08561E-06 3.66031E-07 0.00000E+00
 -1       560 8.00930E-06 4.73157E-07 0.00000E+00
 -1       561 7.95810E-06 5.13365E-07-8.27181E-25
 -1       562 7.92751E-06 4.98668E-07 0.00000E+00
 -1       563 7.91300E-06 4.41085E-07-1.65436E-24
 -1       564 7.91007E-06 3.52641E-07-1.65436E-24
 -1       565 7.91421E-06 2.45360E-07 0.00000E+00
 -1       566 7.92091E-06 1.31271E-07 0.00000E+00
 -1       567 7.92567E-06 2.24011E-08 0.00000E+00
 -1       568 7.92401E-06-6.92226E-08-4.13590E-25
 -1       569 7.91149E-06-1.31586E-07 5.16988E-26
 -1       570 7.88371E-06-1.52683E-07 6.20385E-25
 -1       571 8.81640E-06-1.27092E-07 4.13590E-25
 -1       572 8.84195E-06-8.78827E-08 3.61892E-25
 -1       573 8.86772E-06-6.33673E-08 6.20385E-25
 -1       574 8.89359E-06-5.01265E-08 0.00000E+00
 -1       575 8.91950E-06-4.47271E-08-8.27181E-25
 -1       576 8.94543E-06-4.37135E-08 4.13590E-25
 -1       577 8.97136E-06-4.36285E-08 0.00000E+00
 -1       578 8.99730E-06-4.10122E-08 0.00000E+00
 -1       579 9.02324E-06-3.24041E-08 0.00000E+00
 -1       580 9.04917E-06-1.43441E-08 0.00000E+00
 -1       581 9.07511E-06 1.66273E-08 0.00000E+00
 -1       582 9.10104E-06 6.39664E-08 0.00000E+00
 -1       583 9.12697E-06 1.31126E-07-1.65436E-24
 -1       584 9.15288E-06 2.21523E-07 0.00000E+00
 -1       585 9.17875E-06 3.38558E-07 0.00000E+00
 -1       586 8.65486E-06-1.73437E-07 0.00000E+00
 -1       587 8.49813E-06-1.62541E-07 0.00000E+00
 -1       588 8.32960E-06-1.51656E-07 0.00000E+00
 -1       589 8.15769E-06-1.40876E-07 7.75482E-26
 -1       590 7.99078E-06-1.30336E-07 0.00000E+00
 -1       591 8.75063E-06-1.17302E-07 0.00000E+00
 -1       592 8.71289E-06-6.21587E-08 0.00000E+00
 -1       593 8.67851E-06-1.65476E-08 0.00000E+00
 -1       594 8.64680E-06 2.15977E-08 0.00000E+00
 -1       595 8.61707E-06 5.43428E-08 0.00000E+00
 -1       596 8.58858E-06 8.37389E-08 0.00000E+00
 -1       597 8.56057E-06 1.11835E-07-4.13590E-25
 -1       598 8.53227E-06 1.40677E-07 2.06795E-25
 -1       599 8.50293E-06 1.72313E-07 0.00000E+00
 -1       600 8.47178E-06 2.08789E-07 2.06795E-25
 -1       601 8.43805E-06 2.52151E-07-2.06795E-25
 -1       602 8.40099E-06 3.04449E-07-1.03398E-25
 -1       603 8.35985E-06 3.67732E-07-1.03398E-25
 -1       604 8.31395E-06 4.44063E-07-6.46235E-26
 -1       605 8.26261E-06 5.35507E-07 0.00000E+00
 -1       606 9.21403E-06 6.80870E-07 8.27181E-25
 -1       607 9.22294E-06 8.95656E-07 0.00000E+00
 -1       608 9.23167E-06 1.12859E-06 0.00000E+00
 -1       609 9.24031E-06 1.37838E-06 0.00000E+00
 -1       610 9.24891E-06 1.64373E-06 8.27181E-25
 -1       611 9.25750E-06 1.92330E-06 0.00000E+00
 -1       612 9.26607E-06 2.21577E-06 0.00000E+00
 -1       613 9.27464E-06 2.51981E-06-4.13590E-25
 -1       614 9.28321E-06 2.83409E-06 0.00000E+00
 -1       615 9.29177E-06 3.15728E-06 0.00000E+00
 -1       616 9.30033E-06 3.48804E-06 0.00000E+00
 -1       617 9.30888E-06 3.82505E-06 0.00000E+00
 -1       618 9.31743E-06 4.16696E-06 0.00000E+00
 -1       619 9.32597E-06 4.51247E-06 0.00000E+00
 -1       620 9.33449E-06 4.86022E-06-2.06795E-25
 -1       621 9.02041E-06 5.11950E-07 0.00000E+00
 -1       622 8.84049E-06 5.38675E-07-4.13590E-25
 -1       623 8.66694E-06 5.65403E-07 0.00000E+00
 -1       624 8.50191E-06 5.92062E-07-2.06795E-25
 -1       625 8.34758E-06 6.18563E-07 4.13590E-25
 -1       626 9.14729E-06 6.90797E-07 0.00000E+00
 -1       627 9.08221E-06 9.16377E-07 0.00000E+00
 -1       628 9.01020E-06 1.16024E-06 0.00000E+00
 -1       629 8.93207E-06 1.42028E-06 0.00000E+00
 -1       630 8.84866E-06 1.69438E-06 0.00000E+00
 -1       631 8.76078E-06 1.98039E-06 0.00000E+00
 -1       632 8.66922E-06 2.27615E-06 0.00000E+00
 -1       633 8.57482E-06 2.57951E-06 0.00000E+00
 -1       634 8.47837E-06 2.88832E-06-8.27181E-25
 -1       635 8.38068E-06 3.20042E-06-2.06795E-25
 -1       636 8.28256E-06 3.51366E-06 0.00000E+00
 -1       637 8.18481E-06 3.82588E-06 2.06795E-25
 -1       638 8.08822E-06 4.13492E-06-2.06795E-25
 -1       639 7.99356E-06 4.43862E-06-1.03398E-25
 -1       640 7.90152E-06 4.73482E-06 1.03398E-25
 -1       641 9.34313E-06 5.57009E-06 0.00000E+00
 -1       642 9.34304E-06 5.96882E-06 0.00000E+00
 -1       643 9.34295E-06 6.39964E-06 2.58494E-26
 -1       644 9.34279E-06 6.85713E-06 6.46235E-27
 -1       645 9.34263E-06 7.33585E-06 0.00000E+00
 -1       646 9.34244E-06 7.83035E-06 0.00000E+00
 -1       647 9.34225E-06 8.33521E-06 0.00000E+00
 -1       648 9.34206E-06 8.84498E-06 0.00000E+00
 -1       649 9.34186E-06 9.35422E-06 0.00000E+00
 -1       650 9.34165E-06 9.85750E-06 0.00000E+00
 -1       651 9.34144E-06 1.03494E-05-2.58494E-26
 -1       652 9.34120E-06 1.08244E-05 0.00000E+00
 -1       653 9.34097E-06 1.12771E-05 0.00000E+00
 -1       654 9.34053E-06 1.17022E-05-1.03398E-25
 -1       655 9.34018E-06 1.20940E-05-4.13590E-25
 -1       656 9.03070E-06 5.17871E-06-4.13590E-25
 -1       657 8.76158E-06 5.14693E-06-4.13590E-25
 -1       658 8.52041E-06 5.11521E-06 8.27181E-25
 -1       659 8.29197E-06 5.08347E-06 4.13590E-25
 -1       660 8.06104E-06 5.05167E-06 4.13590E-25
 -1       661 9.24251E-06 5.58080E-06 0.00000E+00
 -1       662 9.13246E-06 5.98209E-06 0.00000E+00
 -1       663 9.01310E-06 6.40808E-06-8.27181E-25
 -1       664 8.88624E-06 6.85461E-06-4.13590E-25
 -1       665 8.75330E-06 7.31738E-06 0.00000E+00
 -1       666 8.61589E-06 7.79215E-06-4.13590E-25
 -1       667 8.47556E-06 8.27470E-06 8.27181E-25
 -1       668 8.33391E-06 8.76080E-06-4.13590E-25
 -1       669 8.19251E-06 9.24622E-06 8.27181E-25
 -1       670 8.05294E-06 9.72674E-06-4.13590E-25
 -1       671 7.91678E-06 1.01981E-05 8.27181E-25
 -1       672 7.78559E-06 1.06562E-05 4.13590E-25
 -1       673 7.66097E-06 1.10966E-05 8.27181E-25
 -1       674 7.54427E-06 1.15151E-05 0.00000E+00
 -1       675 7.43739E-06 1.19075E-05-4.13590E-25
 -1       676 9.00481E-06 1.24175E-05 0.00000E+00
 -1       677 8.67103E-06 1.23875E-05 4.13590E-25
 -1       678 8.33753E-06 1.23576E-05 0.00000E+00
 -1       679 8.00443E-06 1.23278E-05 0.00000E+00
 -1       680 7.67186E-06 1.22979E-05 0.00000E+00
 -1       681 2.70916E-06-2.18716E-07 8.27181E-25
 -1       682 2.76944E-06-4.09046E-07-8.27181E-25
 -1       683 2.82956E-06-7.89413E-07 0.00000E+00
 -1       684 2.88997E-06-1.29734E-06 0.00000E+00
 -1       685 2.95034E-06-1.88817E-06 0.00000E+00
 -1       686 3.01075E-06-2.51749E-06 8.27181E-25
 -1       687 3.07117E-06-3.14623E-06 0.00000E+00
 -1       688 3.13162E-06-3.73535E-06 0.00000E+00
 -1       689 3.19212E-06-4.24025E-06 0.00000E+00
 -1       690 3.25264E-06-4.61612E-06 0.00000E+00
 -1       691 3.31320E-06-4.80008E-06-1.65436E-24
 -1       692 3.37364E-06-4.72873E-06 8.27181E-25
 -1       693 3.43396E-06-4.30299E-06 1.65436E-24
 -1       694 3.49335E-06-3.42280E-06 8.27181E-25
 -1       695 3.55223E-06-1.92466E-06 0.00000E+00
 -1       696 2.38649E-06-2.35713E-07 0.00000E+00
 -1       697 1.97593E-06-1.88799E-07 8.27181E-25
 -1       698 1.47625E-06-1.41996E-07 0.00000E+00
 -1       699 9.44572E-07-9.48661E-08 0.00000E+00
 -1       700 4.34583E-07-4.77517E-08 0.00000E+00
 -1       701 2.51251E-06-9.81267E-08 0.00000E+00
 -1       702 2.35920E-06 1.15544E-07 8.27181E-25
 -1       703 2.19994E-06 3.45764E-07-1.65436E-24
 -1       704 2.03960E-06 5.77006E-07 0.00000E+00
 -1       705 1.88458E-06 7.94094E-07 0.00000E+00
 -1       706 1.74051E-06 9.81632E-07-8.27181E-25
 -1       707 1.61153E-06 1.12893E-06 1.65436E-24
 -1       708 1.50162E-06 1.22536E-06 8.27181E-25
 -1       709 1.41183E-06 1.26814E-06 1.65436E-24
 -1       710 1.34318E-06 1.25460E-06 0.00000E+00
 -1       711 1.29338E-06 1.19082E-06 0.00000E+00
 -1       712 1.26020E-06 1.08302E-06 0.00000E+00
 -1       713 1.23864E-06 9.44254E-07 0.00000E+00
 -1       714 1.22431E-06 7.87916E-07 0.00000E+00
 -1       715 1.21048E-06 6.29575E-07 8.27181E-25
 -1       716 3.60262E-06 2.67437E-06 4.13590E-25
 -1       717 3.60140E-06 4.27924E-06 0.00000E+00
 -1       718 3.60090E-06 5.25527E-06-1.03398E-25
 -1       719 3.60096E-06 5.68656E-06 0.00000E+00
 -1       720 3.60112E-06 5.65695E-06 2.58494E-26
 -1       721 3.60124E-06 5.25030E-06-3.23117E-27
 -1       722 3.60122E-06 4.55029E-06 0.00000E+00
 -1       723 3.60102E-06 3.64056E-06 6.46235E-27
 -1       724 3.60071E-06 2.60470E-06 0.00000E+00
 -1       725 3.60032E-06 1.52628E-06 0.00000E+00
 -1       726 3.59994E-06 4.88808E-07 0.00000E+00
 -1       727 3.59949E-06-4.24160E-07-1.03398E-25
 -1       728 3.59917E-06-1.12903E-06 0.00000E+00
 -1       729 3.59805E-06-1.54222E-06 4.13590E-25
 -1       730 3.59732E-06-1.58014E-06 1.65436E-24
 -1       731 1.49969E-06 3.74888E-07 0.00000E+00
 -1       732 5.21972E-07 3.96790E-07 2.06795E-25
 -1       733 3.32846E-07 4.19054E-07-4.13590E-25
 -1       734 5.92930E-07 4.41585E-07 2.06795E-25
 -1       735 9.85637E-07 4.64127E-07-4.13590E-25
 -1       736 1.74337E-06 4.98147E-06-1.65436E-24
 -1       737-1.63556E-06 1.35627E-05 0.00000E+00
 -1       738-6.03155E-06 2.47814E-05 0.00000E+00
 -1       739-1.09357E-05 3.73078E-05 1.65436E-24
 -1       740-1.57084E-05 4.94954E-05 3.30872E-24
 -1       741-1.97122E-05 5.96982E-05 1.65436E-24
 -1       742-2.25064E-05 6.67530E-05-3.30872E-24
 -1       743-2.36649E-05 6.95085E-05 1.65436E-24
 -1       744-2.31682E-05 6.78575E-05 3.30872E-24
 -1       745-2.10055E-05 6.17134E-05 1.65436E-24
 -1       746-1.75655E-05 5.20857E-05 3.30872E-24
 -1       747-1.32341E-05 4.00038E-05 1.65436E-24
 -1       748-8.60564E-06 2.71012E-05 0.00000E+00
 -1       749-4.27229E-06 1.50162E-05 1.65436E-24
 -1       750-7.58518E-07 5.18636E-06 1.65436E-24
 -1       751 3.84094E-06-6.26643E-07-1.65436E-24
 -1       752 4.10630E-06-3.28861E-07 0.00000E+00
 -1       753 4.37068E-06-1.84335E-07 6.61744E-24
 -1       754 4.63809E-06-1.13487E-07 3.30872E-24
 -1       755 4.90558E-06-9.06727E-08-6.61744E-24
 -1       756 5.17368E-06-9.08264E-08 0.00000E+00
 -1       757 5.44184E-06-1.05769E-07 0.00000E+00
 -1       758 5.71011E-06-1.27501E-07 0.00000E+00
 -1       759 5.97839E-06-1.53015E-07 0.00000E+00
 -1       760 6.24661E-06-1.79352E-07 0.00000E+00
 -1       761 6.51479E-06-2.04156E-07 6.61744E-24
 -1       762 6.78254E-06-2.25054E-07 0.00000E+00
 -1       763 7.05023E-06-2.36800E-07 0.00000E+00
 -1       764 7.31579E-06-2.34038E-07 0.00000E+00
 -1       765 7.58206E-06-2.00777E-07 3.30872E-24
 -1       766 2.54148E-06-1.13053E-06 0.00000E+00
 -1       767 7.13507E-07-1.09663E-06 1.03398E-25
 -1       768-1.11601E-06-1.06316E-06 0.00000E+00
 -1       769-2.17069E-06-1.02793E-06-2.06795E-25
 -1       770-1.60976E-06-9.92316E-07-1.03398E-25
 -1       771 3.20541E-06-6.48760E-07-6.61744E-24
 -1       772 2.85519E-06-2.40547E-07 3.30872E-24
 -1       773 2.53940E-06 7.47362E-08 0.00000E+00
 -1       774 2.25471E-06 3.06462E-07-3.30872E-24
 -1       775 1.99778E-06 4.64014E-07 6.61744E-24
 -1       776 1.76511E-06 5.56806E-07-3.30872E-24
 -1       777 1.55318E-06 5.94263E-07-6.61744E-24
 -1       778 1.35847E-06 5.85814E-07 3.30872E-24
 -1       779 1.17743E-06 5.40898E-07 0.00000E+00
 -1       780 1.00654E-06 4.68960E-07 0.00000E+00
 -1       781 8.42248E-07 3.79450E-07-6.61744E-24
 -1       782 6.81047E-07 2.81825E-07 0.00000E+00
 -1       783 5.19420E-07 1.85546E-07-6.61744E-24
 -1       784 3.53994E-07 1.00101E-07 0.00000E+00
 -1       785 1.81413E-07 3.49765E-08 0.00000E+00
 -1       786 7.85876E-06-2.88627E-08 2.06795E-25
 -1       787 7.88175E-06 4.22938E-08 0.00000E+00
 -1       788 7.90473E-06 9.59760E-08-4.13590E-25
 -1       789 7.92791E-06 1.35356E-07 0.00000E+00
 -1       790 7.95112E-06 1.63600E-07-8.27181E-25
 -1       791 7.97436E-06 1.83873E-07 0.00000E+00
 -1       792 7.99762E-06 1.99341E-07 8.27181E-25
 -1       793 8.02089E-06 2.13164E-07-4.13590E-25
 -1       794 8.04416E-06 2.28507E-07 0.00000E+00
 -1       795 8.06743E-06 2.48532E-07 0.00000E+00
 -1       796 8.09069E-06 2.76404E-07 0.00000E+00
 -1       797 8.11394E-06 3.15286E-07 0.00000E+00
 -1       798 8.13717E-06 3.68348E-07 0.00000E+00
 -1       799 8.16031E-06 4.38757E-07-4.13590E-25
 -1       800 8.18346E-06 5.29690E-07 4.13590E-25
 -1       801 7.14573E-06-9.94319E-08 0.00000E+00
 -1       802 5.70562E-06-7.77072E-08 0.00000E+00
 -1       803 3.89350E-06-5.66549E-08 5.16988E-26
 -1       804 2.08696E-06-3.63254E-08 0.00000E+00
 -1       805 6.63553E-07-1.53884E-08 0.00000E+00
 -1       806 7.77570E-06-3.84053E-08 8.27181E-25
 -1       807 7.71678E-06 3.46258E-08 0.00000E+00
 -1       808 7.66043E-06 1.00164E-07-8.27181E-25
 -1       809 7.60617E-06 1.59826E-07 0.00000E+00
 -1       810 7.55347E-06 2.15219E-07 0.00000E+00
 -1       811 7.50175E-06 2.67942E-07 4.13590E-25
 -1       812 7.45043E-06 3.19590E-07-8.27181E-25
 -1       813 7.39891E-06 3.71758E-07-4.13590E-25
 -1       814 7.34660E-06 4.26042E-07 8.27181E-25
 -1       815 7.29290E-06 4.84034E-07 4.13590E-25
 -1       816 7.23721E-06 5.47328E-07 4.13590E-25
 -1       817 7.17895E-06 6.17520E-07 0.00000E+00
 -1       818 7.11753E-06 6.96205E-07 4.13590E-25
 -1       819 7.05242E-06 7.84977E-07-4.13590E-25
 -1       820 6.98309E-06 8.85438E-07-4.13590E-25
 -1       821 8.18289E-06 7.91203E-07 0.00000E+00
 -1       822 8.15832E-06 9.71482E-07-2.06795E-25
 -1       823 8.13376E-06 1.18164E-06 0.00000E+00
 -1       824 8.10898E-06 1.41814E-06 4.13590E-25
 -1       825 8.08417E-06 1.67746E-06-8.27181E-25
 -1       826 8.05930E-06 1.95605E-06 0.00000E+00
 -1       827 8.03442E-06 2.25036E-06 0.00000E+00
 -1       828 8.00954E-06 2.55686E-06-4.13590E-25
 -1       829 7.98464E-06 2.87199E-06 0.00000E+00
 -1       830 7.95975E-06 3.19220E-06 4.13590E-25
 -1       831 7.93487E-06 3.51394E-06 0.00000E+00
 -1       832 7.91003E-06 3.83366E-06 0.00000E+00
 -1       833 7.88521E-06 4.14780E-06 0.00000E+00
 -1       834 7.86056E-06 4.45282E-06 2.06795E-25
 -1       835 7.83591E-06 4.74516E-06 4.13590E-25
 -1       836 8.03671E-06 7.02370E-07 0.00000E+00
 -1       837 7.81439E-06 7.62492E-07 0.00000E+00
 -1       838 7.56476E-06 8.22505E-07 1.65436E-24
 -1       839 7.31357E-06 8.82369E-07 0.00000E+00
 -1       840 7.08657E-06 9.42327E-07 8.27181E-25
 -1       841 8.15077E-06 7.90834E-07 1.03398E-25
 -1       842 8.08135E-06 9.73899E-07 0.00000E+00
 -1       843 7.99977E-06 1.18945E-06 0.00000E+00
 -1       844 7.90751E-06 1.43325E-06 0.00000E+00
 -1       845 7.80623E-06 1.70107E-06 0.00000E+00
 -1       846 7.69753E-06 1.98864E-06 0.00000E+00
 -1       847 7.58302E-06 2.29167E-06 2.58494E-26
 -1       848 7.46432E-06 2.60587E-06-1.29247E-26
 -1       849 7.34304E-06 2.92691E-06 0.00000E+00
 -1       850 7.22080E-06 3.25050E-06 0.00000E+00
 -1       851 7.09923E-06 3.57230E-06-2.58494E-26
 -1       852 6.97994E-06 3.88799E-06-2.58494E-26
 -1       853 6.86455E-06 4.19326E-06 0.00000E+00
 -1       854 6.75457E-06 4.48378E-06-5.16988E-26
 -1       855 6.65177E-06 4.75531E-06 0.00000E+00
 -1       856 7.78438E-06 5.31837E-06 4.13590E-25
 -1       857 7.75493E-06 5.66955E-06 0.00000E+00
 -1       858 7.72548E-06 6.06775E-06 0.00000E+00
 -1       859 7.69580E-06 6.50583E-06-4.13590E-25
 -1       860 7.66608E-06 6.97664E-06 8.27181E-25
 -1       861 7.63631E-06 7.47304E-06 0.00000E+00
 -1       862 7.60653E-06 7.98788E-06 0.00000E+00
 -1       863 7.57672E-06 8.51398E-06-4.13590E-25
 -1       864 7.54692E-06 9.04418E-06-8.27181E-25
 -1       865 7.51712E-06 9.57132E-06 0.00000E+00
 -1       866 7.48733E-06 1.00882E-05 0.00000E+00
 -1       867 7.45757E-06 1.05878E-05 4.13590E-25
 -1       868 7.42785E-06 1.10627E-05-8.27181E-25
 -1       869 7.39826E-06 1.15060E-05 0.00000E+00
 -1       870 7.36868E-06 1.19105E-05 0.00000E+00
 -1       871 7.57912E-06 5.01875E-06 0.00000E+00
 -1       872 7.36494E-06 5.01595E-06 0.00000E+00
 -1       873 7.16283E-06 5.01307E-06-2.06795E-25
 -1       874 6.96560E-06 5.01010E-06 0.00000E+00
 -1       875 6.76606E-06 5.00699E-06 2.06795E-25
 -1       876 7.74257E-06 5.32827E-06 8.27181E-25
 -1       877 7.65711E-06 5.68181E-06 0.00000E+00
 -1       878 7.55656E-06 6.07542E-06-1.65436E-24
 -1       879 7.44342E-06 6.50331E-06 0.00000E+00
 -1       880 7.31966E-06 6.95955E-06 1.65436E-24
 -1       881 7.18752E-06 7.43825E-06-8.27181E-25
 -1       882 7.04914E-06 7.93357E-06-1.65436E-24
 -1       883 6.90673E-06 8.43966E-06-8.27181E-25
 -1       884 6.76247E-06 8.95067E-06 0.00000E+00
 -1       885 6.61855E-06 9.46075E-06 0.00000E+00
 -1       886 6.47715E-06 9.96408E-06 1.65436E-24
 -1       887 6.34045E-06 1.04548E-05-4.13590E-25
 -1       888 6.21063E-06 1.09270E-05 0.00000E+00
 -1       889 6.08965E-06 1.13748E-05 0.00000E+00
 -1       890 5.98004E-06 1.17925E-05 4.13590E-25
 -1       891 7.05345E-06 1.22531E-05 0.00000E+00
 -1       892 6.82366E-06 1.22371E-05 2.06795E-25
 -1       893 6.62114E-06 1.22210E-05 0.00000E+00
 -1       894 6.41635E-06 1.22050E-05 0.00000E+00
 -1       895 6.17977E-06 1.21890E-05 2.06795E-25
 -1       896 7.42735E-08 3.45689E-07-1.65436E-24
 -1       897 1.49152E-07 5.91070E-07 8.27181E-25
 -1       898 2.24010E-07 7.58461E-07 0.00000E+00
 -1       899 2.98985E-07 8.69911E-07-8.27181E-25
 -1       900 3.73966E-07 9.37686E-07 0.00000E+00
 -1       901 4.48971E-07 9.73905E-07-8.27181E-25
 -1       902 5.23977E-07 9.85166E-07 0.00000E+00
 -1       903 5.98983E-07 9.77981E-07 8.27181E-25
 -1       904 6.73986E-07 9.55635E-07-1.65436E-24
 -1       905 7.48969E-07 9.21361E-07 0.00000E+00
 -1       906 8.23939E-07 8.76306E-07 1.65436E-24
 -1       907 8.98812E-07 8.21581E-07 0.00000E+00
 -1       908 9.73670E-07 7.56603E-07 0.00000E+00
 -1       909 1.04804E-06 6.80758E-07-8.27181E-25
 -1       910 1.12257E-06 5.91527E-07 0.00000E+00
 -1       911 1.20911E-06 5.77409E-07 4.13590E-25
 -1       912 1.22372E-06 1.07453E-06 2.06795E-25
 -1       913 1.23813E-06 1.88290E-06-4.13590E-25
 -1       914 1.25237E-06 2.90791E-06-2.06795E-25
 -1       915 1.26647E-06 4.06210E-06 4.13590E-25
 -1       916 1.28054E-06 5.25806E-06 0.00000E+00
 -1       917 1.29465E-06 6.40975E-06 0.00000E+00
 -1       918 1.30890E-06 7.43116E-06 0.00000E+00
 -1       919 1.32334E-06 8.23192E-06-4.13590E-25
 -1       920 1.33795E-06 8.72155E-06 2.06795E-25
 -1       921 1.35265E-06 8.79934E-06-4.13590E-25
 -1       922 1.36719E-06 8.36431E-06 0.00000E+00
 -1       923 1.38126E-06 7.29861E-06 0.00000E+00
 -1       924 1.39390E-06 5.48399E-06 0.00000E+00
 -1       925 1.40471E-06 2.77771E-06 0.00000E+00
 -1       926 1.31942E-06-5.22136E-06-1.65436E-24
 -1       927 1.22662E-06-9.46528E-06 0.00000E+00
 -1       928 1.13530E-06-1.33596E-05 0.00000E+00
 -1       929 1.04593E-06-1.65702E-05 1.65436E-24
 -1       930 9.58894E-07-1.88827E-05 3.30872E-24
 -1       931 8.73659E-07-2.00862E-05 0.00000E+00
 -1       932 7.89102E-07-2.01646E-05 0.00000E+00
 -1       933 7.03989E-07-1.91061E-05 0.00000E+00
 -1       934 6.17508E-07-1.70982E-05 3.30872E-24
 -1       935 5.29268E-07-1.43324E-05-1.65436E-24
 -1       936 4.39805E-07-1.11329E-05 0.00000E+00
 -1       937 3.49943E-07-7.82597E-06 0.00000E+00
 -1       938 2.60783E-07-4.75635E-06 0.00000E+00
 -1       939 1.72869E-07-2.26810E-06 0.00000E+00
 -1       940 8.66659E-08-6.03090E-07-3.30872E-24
 -1       941 4.09520E-07 6.69142E-08 0.00000E+00
 -1       942 8.41659E-07 1.26786E-07 0.00000E+00
 -1       943 1.27236E-06 1.82425E-07 1.32349E-23
 -1       944 1.70736E-06 2.36555E-07 6.61744E-24
 -1       945 2.14249E-06 2.89784E-07 0.00000E+00
 -1       946 2.57847E-06 3.42705E-07 0.00000E+00
 -1       947 3.01456E-06 3.95474E-07 0.00000E+00
 -1       948 3.45079E-06 4.48243E-07-6.61744E-24
 -1       949 3.88703E-06 5.01169E-07-1.32349E-23
 -1       950 4.32317E-06 5.54407E-07 6.61744E-24
 -1       951 4.75922E-06 6.08557E-07-1.32349E-23
 -1       952 5.19460E-06 6.64236E-07 0.00000E+00
 -1       953 5.62988E-06 7.24220E-07 0.00000E+00
 -1       954 6.06169E-06 7.91365E-07 0.00000E+00
 -1       955 6.49467E-06 8.78589E-07 0.00000E+00
 -1       956 6.88787E-06 1.15726E-06-1.03398E-25
 -1       957 6.86592E-06 1.33963E-06-3.10193E-25
 -1       958 6.84389E-06 1.54387E-06-4.13590E-25
 -1       959 6.82181E-06 1.76740E-06 1.03398E-25
 -1       960 6.79972E-06 2.00762E-06-4.13590E-25
 -1       961 6.77762E-06 2.26192E-06 0.00000E+00
 -1       962 6.75551E-06 2.52768E-06-4.13590E-25
 -1       963 6.73340E-06 2.80228E-06-4.13590E-25
 -1       964 6.71128E-06 3.08310E-06 0.00000E+00
 -1       965 6.68917E-06 3.36752E-06 0.00000E+00
 -1       966 6.66706E-06 3.65293E-06 8.27181E-25
 -1       967 6.64495E-06 3.93671E-06 0.00000E+00
 -1       968 6.62286E-06 4.21623E-06-8.27181E-25
 -1       969 6.60080E-06 4.48889E-06 0.00000E+00
 -1       970 6.57881E-06 4.75210E-06 8.27181E-25
 -1       971 6.51603E-06 5.27310E-06 8.27181E-25
 -1       972 6.47381E-06 5.60058E-06 4.13590E-25
 -1       973 6.43159E-06 5.97855E-06 0.00000E+00
 -1       974 6.38919E-06 6.39978E-06 0.00000E+00
 -1       975 6.34674E-06 6.85697E-06 0.00000E+00
 -1       976 6.30425E-06 7.34285E-06 8.27181E-25
 -1       977 6.26174E-06 7.85013E-06 1.65436E-24
 -1       978 6.21922E-06 8.37150E-06 8.27181E-25
 -1       979 6.17670E-06 8.89966E-06 1.65436E-24
 -1       980 6.13419E-06 9.42730E-06-8.27181E-25
 -1       981 6.09169E-06 9.94712E-06 0.00000E+00
 -1       982 6.04924E-06 1.04518E-05 8.27181E-25
 -1       983 6.00684E-06 1.09340E-05-1.65436E-24
 -1       984 5.96469E-06 1.13866E-05 0.00000E+00
 -1       985 5.92253E-06 1.18021E-05-8.27181E-25
 -3
    1PSTEP                        14           7           1          
  100CL  107 1.64551E-01         841                     0    7           1
 -4  STRESS      6    1
 -5  SXX         1    4    1    1
 -5  SYY         1    4    2    2
 -5  SZZ         1    4    3    3
 -5  SXY         1    4    1    2
 -5  SYZ         1    4    2    3
 -5  SZX         1    4    3    1
 -1         1-6.96046E+05-2.24303E+05-1.44013E+05-1.97574E+05 1.45519E-11 1.43094E-10
 -1         2-4.38370E+05-2.93725E+04 5.66139E+02-4.31755E+04-6.16240E-10 1.75760E-09
 -1         3-2.36365E+05-7.99957E+04-1.38220E+04-1.87085E+04 2.53529E-10 2.62304E-10
 -1         4-1.24820E+05-2.05779E+04 1.93177E+02-1.21145E+04-1.00274E-10 9.98526E-11
 -1         5-6.66395E+04 2.74890E+04-3.04976E+04-1.32041E+03 2.46337E-09 8.25935E-10
 -1         8-3.77393E+05-1.50896E+05-5.77720E+04-1.38268E+05-2.59206E-11 7.23958E-10
 -1         9-3.95552E+05-9.30868E+04-4.92045E+04-9.02963E+04-3.11957E-10-4.28069E-10
 -1        10-1.78862E+05-1.00967E+05-8.09550E+03-4.24349E+04-1.02053E-09-2.82247E-10
 -1        11-1.21099E+05-3.18023E+04 1.65957E+02-2.57010E+04 4.17449E-10 3.23051E-10
 -1        12-7.93860E+04 2.06660E+04-3.41541E+04-1.05303E+04 6.84935E-10 8.49933E-11
 -1        15 3.59517E+03-1.80582E+04 7.30005E+02-3.13262E+04-2.21235E-10 1.10686E-09
 -1        16-2.16159E+05-3.02088E+04 1.55534E+04-9.93594E+04 1.00044E-11 1.42821E-09
 -1        17-1.32482E+05-8.61109E+04-1.41582E+04-7.22644E+04-9.97867E-10 3.69861E-10
 -1        18-4.66835E+04-2.67162E+04-1.94835E+04-3.11904E+04 1.37451E-09-7.26535E-10
 -1        19-1.59482E+04 1.47922E+04-1.35009E+04-1.07829E+04-2.39159E-10-5.44181E-11
 -1        20 2.19521E+04-1.65012E+04-2.85306E+03 1.19711E+04 6.98890E-10 7.34417E-11
 -1        21 3.08213E+02-3.28844E+04 9.11956E+03 6.81058E+00 4.03662E-09 8.40691E-11
 -1        22 7.41825E+03 4.12857E+04 2.96799E+02-1.12866E+04-2.66596E-10 2.00089E-11
 -1        23-7.51039E+04 1.04154E+04 1.55384E+03-3.18472E+04-8.73191E-10-8.23547E-10
 -1        24-5.39650E+04 4.68751E+03 6.10745E+04-1.06029E+05-3.73863E-09 3.71680E-10
 -1        25 1.30216E+05 4.21148E+04 3.95887E+04-6.53182E+04 2.89750E-10-1.66741E-12
 -1        26 5.67209E+02 3.47452E+04 1.73747E+03-6.35303E+03-1.67972E-10-5.18374E-10
 -1        27-7.63269E+03-1.37988E+04-5.95038E+03 1.67023E+04-1.97664E-10-8.75843E-10
 -1        28-2.63096E+03-2.61098E+04-1.42625E+02 1.26223E+04-3.35177E-10-9.99462E-10
 -1        29 1.03052E+05 7.21721E+04 3.06453E+02-6.12186E+02-1.79131E-11 1.52113E-10
 -1        30 2.41097E+04 1.07178E+04 4.41442E+02-9.74260E+03-3.71680E-10 1.74168E-10
 -1        31-1.00122E+05 8.60764E+03 1.97465E+03-2.61827E+04 2.34657E-09-5.67002E-09
 -1        32 1.89411E+05 1.03122E+05 1.29586E+05-1.07138E+05 2.53904E-09 9.33142E-10
 -1        33 3.05010E+05 1.20947E+05 9.32408E+04-9.34196E+03-6.34020E-09 7.25322E-11
 -1        34-4.42486E+04-5.56430E+03-1.01249E+03 9.66040E+03-2.45881E-10 3.93698E-10
 -1        35-7.45924E+03-8.73730E+03-1.54466E+02 1.88783E+04 1.47082E-10-6.66963E-11
 -1        36-9.38459E+05 2.87053E+04-6.63572E+04 9.24265E-08-2.34114E-10 1.17507E-09
 -1        37-9.67189E+05-3.32292E+04-4.69593E+04 4.24804E-08 6.36989E-10-1.24419E-09
 -1        38-9.49550E+05 4.49963E+03-1.71750E+04 1.50073E-07-1.95221E-11-7.17591E-10
 -1        39-9.54252E+05-5.20707E+03-1.08008E+04-5.10124E-08-1.06593E-10-7.53971E-10
 -1        40-9.51378E+05 7.03792E+02-4.41262E+03 8.59503E-09-1.10787E-09 1.02909E-09
 -1        41-9.52117E+05-8.23779E+02-2.63057E+03 1.34301E-07-1.79901E-09-3.01725E-10
 -1        42-9.51679E+05 1.19502E+02-1.27797E+03 2.96706E-08 5.83445E-10-5.33134E-10
 -1        43-9.51794E+05-2.06022E+02-9.96847E+02 3.32515E-08-3.73747E-11-5.06343E-10
 -1        44-9.51699E+05 8.64338E+01-9.81828E+02-4.28396E-08-7.22449E-10-2.39109E-09
 -1        45-9.51964E+05-5.39448E+02-1.77325E+03-8.40967E-08-1.11005E-10-2.94307E-10
 -1        46-9.51511E+05 4.52704E+02-2.86960E+03 1.42557E-08 3.54297E-10 8.94488E-10
 -1        47-9.53326E+05-3.34010E+03-6.94593E+03 1.32942E-07-7.73157E-10-2.22826E-10
 -1        48-9.50340E+05 2.88505E+03-1.10217E+04 1.28277E-07-1.17109E-09-7.59428E-10
 -1        49-9.61619E+05-2.13047E+04-3.01123E+04 1.20080E-07-9.85547E-10 2.59752E-09
 -1        50-9.43231E+05 1.84035E+04-4.25503E+04 6.96780E-08-1.57609E-09 9.29504E-10
 -1        51 7.70456E+03-9.21802E+04 1.22227E+04-2.40204E+05-3.63798E-12-3.45608E-10
 -1        52 3.08037E+03-9.04718E+04 7.33822E+03-2.64400E+05 5.27507E-11-1.96451E-10
 -1        53 1.68539E+03-9.21324E+04 5.91224E+03-2.39599E+05-2.72848E-11 1.33878E-09
 -1        54 4.20930E+03-9.06813E+04 8.96019E+03-2.65068E+05-6.91216E-11 1.53705E-10
 -1        55 1.09132E+04-9.33364E+04 1.62853E+04-2.39516E+05 7.27596E-12 5.35692E-10
 -1        56-1.05537E+06-1.19279E+05-8.68819E+04-4.08345E+05 1.56433E-10 1.46974E-09
 -1        57-1.09630E+06-1.89798E+05-5.82657E+04-3.98026E+05 6.02313E-10 2.21917E-09
 -1        58-1.07218E+06-1.46735E+05-2.04741E+04-4.03706E+05 2.42380E-10-2.22644E-09
 -1        59-1.07694E+06-1.57457E+05-1.21377E+04-4.03622E+05-5.86624E-10-3.24781E-09
 -1        60-1.07456E+06-1.50531E+05-4.79079E+03-4.03147E+05 2.75577E-10-1.82968E-09
 -1        61-1.07424E+06-1.52969E+05-2.71176E+03-4.04243E+05-9.16657E-10-1.12325E-09
 -1        62-1.07485E+06-1.51088E+05-1.32327E+03-4.03132E+05 1.08116E-10 9.05004E-10
 -1        63-1.07400E+06-1.52330E+05-1.10848E+03-4.04188E+05-7.85008E-11-5.81981E-10
 -1        64-1.07479E+06-1.51156E+05-1.28940E+03-4.03206E+05-7.34545E-10 1.04876E-10
 -1        65-1.07448E+06-1.52680E+05-2.61188E+03-4.03947E+05 1.70115E-10-1.50095E-10
 -1        66-1.07438E+06-1.50752E+05-4.60137E+03-4.03368E+05-2.46416E-10-2.49429E-10
 -1        67-1.07732E+06-1.56736E+05-1.16483E+04-4.03064E+05-5.17559E-10-5.79348E-10
 -1        68-1.07197E+06-1.47230E+05-1.96467E+04-4.04043E+05 4.31555E-10-1.10958E-10
 -1        69-1.09613E+06-1.87541E+05-5.59067E+04-3.97435E+05 7.13953E-10 1.59616E-09
 -1        70-1.05575E+06-1.20992E+05-8.33666E+04-4.08615E+05 1.78261E-10 2.40107E-10
 -1        71-4.48112E+05-8.77601E+02 2.02894E+03 2.54968E-08-2.11094E-10-6.74731E-10
 -1        72-4.47191E+05 1.01588E+03 1.43377E+03-3.00487E-08-5.14080E-10-1.43839E-09
 -1        73-4.47773E+05-1.37474E+02 5.20560E+02-5.36507E-08-8.85565E-11 2.15209E-10
 -1        74-4.47587E+05 1.58389E+02 3.20114E+02 4.39279E-08 2.09948E-10 6.27246E-10
 -1        75-4.47716E+05-2.08017E+01 1.15273E+02-9.77715E-09-3.99475E-10 7.62476E-10
 -1        76-4.47656E+05 1.96935E+01 3.82533E+01-9.53748E-09-3.20294E-10 1.31455E-09
 -1        77-4.47704E+05 1.12276E+00-4.00366E+01 4.25906E-08-1.12794E-10 1.08528E-10
 -1        78-4.47684E+05-2.96742E+01-1.43724E+02-5.38985E-08 1.89932E-10-1.70900E-10
 -1        79-4.47688E+05 2.85391E+01-2.85785E+02-4.13161E-08-4.73212E-10 6.57778E-10
 -1        80-4.47782E+05-2.16045E+02-6.73029E+02 4.67339E-08-5.35886E-10 4.34028E-10
 -1        81-4.47606E+05 1.87375E+02-1.16491E+03 1.67994E-08 1.93757E-10-2.97462E-10
 -1        82-4.48354E+05-1.38945E+03-2.87741E+03 5.92483E-08 4.43384E-10 9.64235E-10
 -1        83-4.47117E+05 1.20109E+03-4.58368E+03-3.50719E-08 3.19024E-11-1.10003E-09
 -1        84-4.51808E+05-8.87029E+03-1.25369E+04 2.56160E-08-3.93283E-10-8.86757E-10
 -1        85-4.44155E+05 7.66233E+03-1.77200E+04 4.32019E-08-8.87626E-10 2.81943E-10
 -1        86-2.06679E+04 5.41360E+04 4.85513E+04 2.25373E+02 7.27596E-12 2.19714E-10
 -1        87 2.57084E+04 7.58208E+04 3.74904E+04-9.36472E+02-1.14596E-10-2.53461E-10
 -1        88-5.01946E+03 6.12891E+04 1.89331E+04 1.77856E+02-2.06228E-10 8.90124E-10
 -1        89 1.71697E+04 7.18552E+04 2.63617E+04-8.80182E+02-8.95852E-11 5.63019E-10
 -1        90-1.21363E+04 5.80994E+04 2.94089E+04 1.69088E+02-2.71939E-10-7.00133E-11
 -1        91-4.70360E+05-6.40527E+04-5.66084E+03-1.77526E+05 1.98952E-11 7.04404E-10
 -1        92-4.73755E+05-6.87850E+04-3.92832E+03-1.75993E+05 7.06834E-10 3.12298E-10
 -1        93-4.71365E+05-6.62285E+04-1.32922E+03-1.77302E+05-2.02363E-11 8.04334E-10
 -1        94-4.72491E+05-6.63553E+04-8.35414E+02-1.76352E+05-6.55632E-10 6.61515E-10
 -1        95-4.71623E+05-6.64807E+04-3.24101E+02-1.77168E+05 5.03515E-10-1.20845E-09
 -1        96-4.71978E+05-6.62756E+04-2.11505E+02-1.76742E+05 2.81517E-11-1.04389E-09
 -1        97-4.71877E+05-6.63082E+04-1.44653E+02-1.76912E+05-1.21066E-10-1.30920E-10
 -1        98-4.71560E+05-6.66688E+04-2.06306E+02-1.77217E+05 3.64922E-09-1.83284E-09
 -1        99-4.72041E+05-6.60874E+04-3.28590E+02-1.76693E+05 1.15354E-06-4.32929E-07
 -1       100-4.71528E+05-6.71136E+04-7.93516E+02-1.77402E+05 2.29955E-06-8.60626E-07
 -1       101-4.71909E+05-6.58633E+04-1.36163E+03-1.76726E+05 1.15336E-06-4.30709E-07
 -1       102-4.72671E+05-6.85617E+04-3.66142E+03-1.76891E+05 3.35342E-09-1.89237E-09
 -1       103-4.70899E+05-6.46406E+04-5.86580E+03-1.77204E+05-5.19549E-11-1.83263E-10
 -1       104-4.79021E+05-7.85730E+04-1.73720E+04-1.74455E+05-6.31132E-10-1.05319E-09
 -1       105-4.65564E+05-5.58592E+04-2.50261E+04-1.79161E+05-7.44876E-10-4.65661E-10
 -1       106-2.65520E+05 7.09342E+02-1.64114E+03 2.91101E-08-1.63034E-10-2.96609E-10
 -1       107-2.66208E+05-8.21242E+02-1.16204E+03-6.55228E-08-1.40556E-10 3.35376E-10
 -1       108-2.65794E+05 1.11249E+02-4.27151E+02 2.13942E-08-1.80589E-10 5.54394E-10
 -1       109-2.65889E+05-1.29093E+02-2.72238E+02-1.53188E-07 1.25975E-10 1.95545E-09
 -1       110-2.65839E+05 1.77521E+01-1.19035E+02-3.40776E-08-3.52079E-10 6.43148E-10
 -1       111-2.65838E+05-2.31060E+01-8.62038E+01 4.32893E-08 1.32179E-10 2.73097E-10
 -1       112-2.65845E+05 5.34149E+00-7.12156E+01-2.03731E-08 3.78709E-11 3.34334E-10
 -1       113-2.65839E+05-2.30767E+01-1.11808E+02-2.66329E-08-2.80424E-10-8.86871E-10
 -1       114-2.65838E+05 1.77257E+01-1.82253E+02-1.42533E-08-2.61454E-10 2.40320E-10
 -1       115-2.65895E+05-1.29588E+02-4.07566E+02 8.55152E-08-1.99699E-10 2.64585E-10
 -1       116-2.65789E+05 1.11784E+02-6.97432E+02-2.32687E-08-4.71660E-10-3.59535E-10
 -1       117-2.66235E+05-8.28249E+02-1.71677E+03-2.20259E-08-3.56945E-10-4.23000E-10
 -1       118-2.65498E+05 7.15869E+02-2.73307E+03-4.91447E-08-4.09108E-10-3.50269E-10
 -1       119-2.68293E+05-5.28677E+03-7.47295E+03-3.41678E-08-1.37318E-10-4.00178E-10
 -1       120-2.63732E+05 4.56679E+03-1.05621E+04-4.94423E-08-5.17512E-11-1.07775E-10
 -1       121-3.72849E+02-2.28913E+05 1.76347E+03 2.77446E+03-6.25278E-11 4.05066E-10
 -1       122 5.46391E+02-2.28255E+05 1.22259E+03 9.93224E+03-1.66096E-10-1.19093E-09
 -1       123-6.07016E+01-2.28672E+05 6.89673E+02 2.78786E+03-2.28141E-10 9.18362E-10
 -1       124 3.45290E+02-2.28366E+05 8.62514E+02 9.87903E+03-4.68390E-10-1.41767E-10
 -1       125-2.23733E+02-2.28790E+05 1.07514E+03 2.82769E+03-5.48766E-10 3.25599E-10
 -1       126-2.28109E+05-3.15926E+04-1.10196E+03-8.56579E+04 4.94495E-10-6.59895E-10
 -1       127-2.28445E+05-3.28157E+04-7.63603E+02-8.57030E+04 1.42388E-08-6.29655E-09
 -1       128-2.28382E+05-3.19355E+04-2.59439E+02-8.55223E+04 5.30380E-06-1.98653E-06
 -1       129-2.28129E+05-3.24170E+04-1.63767E+02-8.58574E+04 1.05787E-05-3.96408E-06
 -1       130-2.28424E+05-3.19910E+04-6.56189E+01-8.55036E+04 5.30351E-06-1.98730E-06
 -1       131-2.28123E+05-3.23113E+04-4.74494E+01-8.58290E+04 1.54957E-08-6.26777E-09
 -1       132-2.28388E+05-3.20412E+04-3.96892E+01-8.55508E+04 6.51921E-10-4.79572E-11
 -1       133-2.28237E+05-3.21984E+04-6.73498E+01-8.56955E+04-1.02812E-09-4.77482E-10
 -1       134-2.28309E+05-3.21040E+04-1.15352E+02-8.56369E+04 1.65193E-10-1.62509E-09
 -1       135-2.28438E+05-3.21432E+04-2.81027E+02-8.55142E+04-4.64434E-10 4.74397E-10
 -1       136-2.28188E+05-3.20964E+04-4.86124E+02-8.57321E+04 2.85318E-10 6.69615E-11
 -1       137-2.28896E+05-3.26181E+04-1.30760E+03-8.52837E+04 1.47501E-09-1.62072E-09
 -1       138-2.27852E+05-3.16295E+04-2.09386E+03-8.58674E+04 7.42108E-07-2.79030E-07
 -1       139-2.31046E+05-3.63111E+04-6.20359E+03-8.45506E+04 1.48033E-06-5.56346E-07
 -1       140-2.26039E+05-2.84058E+04-8.93597E+03-8.64646E+04 7.43487E-07-2.79801E-07
 -1       141-1.26061E+05-7.90579E+02 1.82765E+03-2.09855E-08 1.04153E-10-7.62839E-10
 -1       142-1.25256E+05 9.15113E+02 1.29111E+03-7.23247E-09-3.89530E-11-1.06868E-09
 -1       143-1.25755E+05-1.23814E+02 4.67750E+02-3.97695E-08 1.69938E-11 5.54223E-11
 -1       144-1.25613E+05 1.42462E+02 2.85652E+02-2.74563E-09 1.90996E-11 1.21378E-09
 -1       145-1.25704E+05-1.85444E+01 9.85156E+01 2.19699E-08 7.86949E-11 4.00100E-10
 -1       146-1.25676E+05 1.62490E+01 2.29869E+01-3.08966E-08-7.53569E-11 2.38167E-10
 -1       147-1.25693E+05 2.30816E+00-5.76057E+01-1.51545E-08 1.34372E-10-3.75522E-11
 -1       148-1.25706E+05-3.64988E+01-1.76887E+02-4.50605E-08-3.03734E-11-3.68534E-10
 -1       149-1.25674E+05 3.41752E+01-3.43399E+02-3.28677E-08-1.13349E-10 3.57574E-10
 -1       150-1.25823E+05-2.57754E+02-8.04107E+02-1.53702E-08-3.88629E-11-1.19752E-09
 -1       151-1.25576E+05 2.23424E+02-1.39010E+03 8.05575E-08 1.02027E-11-5.39217E-10
 -1       152-1.26505E+05-1.65660E+03-3.43189E+03 1.19176E-07 8.01476E-11 5.78893E-10
 -1       153-1.24992E+05 1.43200E+03-5.46654E+03-3.28460E-08 7.04933E-10 1.34378E-10
 -1       154-1.30621E+05-1.05756E+04-1.49489E+04-1.02346E-08 2.27456E-10-5.34328E-11
 -1       155-1.21459E+05 9.13542E+03-2.11281E+04-6.02847E-08 1.52725E-09 1.27056E-09
 -1       156-4.10561E+03-4.31809E+04 9.77474E+03-1.39888E+02-3.45608E-11 3.26589E-10
 -1       157 5.40845E+03-3.87226E+04 8.07939E+03 5.65697E+02-1.05501E-10-5.54745E-10
 -1       158-1.29858E+03-4.19088E+04 4.89798E+03-1.39026E+02-3.27347E-11-7.27593E-10
 -1       159 5.68502E+03-3.85883E+04 8.44042E+03 5.50002E+02 2.56932E-11-4.32336E-10
 -1       160-4.38208E+03-4.33150E+04 1.03922E+04-1.24192E+02 1.53250E-10 2.23814E-10
 -1       161-1.31264E+05-1.83378E+04-2.86544E+02-4.92611E+04 2.30905E-06-8.65198E-07
 -1       162-1.31364E+05-1.86383E+04-2.00060E+02-4.92518E+04 4.59381E-06-1.72219E-06
 -1       163-1.31325E+05-1.84379E+04-7.02071E+01-4.92387E+04-6.76459E-07 2.55138E-07
 -1       164-1.31297E+05-1.85207E+04-4.91253E+01-4.92749E+04-5.97242E-06 2.24153E-06
 -1       165-1.31332E+05-1.84553E+04-2.97735E+01-4.92380E+04-1.16675E-05 4.37491E-06
 -1       166-1.31296E+05-1.85007E+04-4.19260E+01-4.92698E+04-1.73296E-05 6.49917E-06
 -1       167-1.31325E+05-1.84579E+04-6.61114E+01-4.92438E+04-8.68309E-06 3.25581E-06
 -1       168-1.31329E+05-1.85216E+04-1.51837E+02-4.92521E+04-2.45206E-08 9.65163E-09
 -1       169-1.31300E+05-1.84344E+04-2.74355E+02-4.92558E+04-1.00866E-09 1.21787E-10
 -1       170-1.31481E+05-1.87322E+04-6.89183E+02-4.91984E+04 1.13525E-09-1.50622E-09
 -1       171-1.31173E+05-1.82475E+04-1.19030E+03-4.92974E+04-1.29202E-09 4.58840E-10
 -1       172-1.32338E+05-2.01543E+04-3.20933E+03-4.89253E+04-1.01950E-08 4.51860E-09
 -1       173-1.30443E+05-1.70131E+04-5.13828E+03-4.95286E+04-4.42098E-06 1.65858E-06
 -1       174-1.37548E+05-2.92816E+04-1.52241E+04-4.71995E+04-8.81370E-06 3.30749E-06
 -1       175-1.25965E+05-9.12619E+03-2.19265E+04-5.10212E+04-4.42582E-06 1.65801E-06
 -1       191 2.44121E+02 1.16783E+05 3.89506E+02-2.52744E+03-1.49157E-10 4.51791E-10
 -1       192 9.09572E+01 1.16836E+05 2.33351E+02-2.69027E+03-1.91449E-10-3.15822E-10
 -1       193 4.42905E+01 1.16802E+05 1.88752E+02-2.47791E+03-3.94934E-10-4.52019E-10
 -1       194 1.20396E+02 1.16845E+05 2.86658E+02-2.78389E+03-4.65946E-10 4.76575E-10
 -1       195 3.35682E+02 1.16772E+05 5.22115E+02-2.43374E+03-5.78439E-10-5.75255E-11
 -1       251-6.23051E+05 1.49275E+04-3.45149E+04-1.26530E+03-6.40309E-10-1.63709E-10
 -1       252-6.37915E+05-1.72766E+04-2.44111E+04 2.23215E+03-2.32552E-10 1.49157E-10
 -1       253-6.28891E+05 2.33662E+03-8.95120E+03-7.19082E+02-1.10647E-09-1.35287E-09
 -1       254-6.31087E+05-2.70112E+03-5.59069E+03 4.60093E+02-6.03308E-10-2.07820E-10
 -1       255-6.29870E+05 3.60560E+02-2.32828E+03 5.06780E+02 9.22924E-11 4.45993E-10
 -1       256-6.30045E+05-4.29030E+02-1.37514E+03-1.62842E+03-2.96509E-10 3.77156E-10
 -1       257-6.29933E+05 6.78408E+01-7.16057E+02 1.36947E+03-5.01348E-10 1.87242E-09
 -1       258-6.29949E+05-1.31042E+02-6.21706E+02-2.25619E+03-7.66357E-10-4.68450E-10
 -1       259-6.29967E+05 6.42724E+01-7.19759E+02 1.13456E+03-3.18842E-10 2.97092E-10
 -1       260-6.29996E+05-4.22763E+02-1.35534E+03-8.89202E+02-7.67319E-10 3.38389E-10
 -1       261-6.29882E+05 3.56695E+02-2.31239E+03 2.45496E+00 8.60354E-10 1.34048E-09
 -1       262-6.31107E+05-2.68131E+03-5.55193E+03 1.30801E+03 4.65523E-10-5.67979E-10
 -1       263-6.28859E+05 2.32150E+03-8.87011E+03-1.06268E+03-1.56830E-09 6.14818E-10
 -1       264-6.37874E+05-1.71370E+04-2.42177E+04 2.46158E+03-1.66185E-09 8.07631E-10
 -1       265-6.23125E+05 1.48036E+04-3.42389E+04-1.15114E+03-1.31528E-09-4.69299E-10
 -1       266-5.25749E+03-1.03116E+05 1.19049E+04 5.32057E+02-9.09495E-13 1.41185E-11
 -1       267 5.60116E+03-9.79205E+04 7.57038E+03-1.73575E+03 3.22871E-11-2.48317E-11
 -1       268-3.37820E+02-1.00780E+05 1.27217E+03 6.59013E+02-1.43245E-11-1.46793E-09
 -1       269-2.70031E+03-1.01825E+05-3.25369E+03-1.86188E+03 1.22782E-11 4.49322E-10
 -1       270 3.03865E+03-9.92141E+04-6.67953E+03 6.58187E+02-1.04592E-11 1.96001E-09
 -1       271-8.85909E+05-1.12525E+05-6.85004E+04-3.42363E+05 8.18545E-12 9.45874E-11
 -1       272-9.07605E+05-1.57603E+05-4.29450E+04-3.45119E+05-1.56888E-10-2.16005E-10
 -1       273-8.97661E+05-1.27314E+05-1.61573E+04-3.40774E+05 3.95808E-10 1.30149E-09
 -1       274-8.94023E+05-1.38039E+05-8.82203E+03-3.48142E+05-1.37845E-10 1.54614E-10
 -1       275-8.99038E+05-1.28795E+05-3.75687E+03-3.40583E+05-2.91379E-10 1.40744E-10
 -1       276-8.92421E+05-1.36145E+05-1.98208E+03-3.48500E+05-6.09361E-11 7.84382E-10
 -1       277-8.99237E+05-1.28917E+05-1.01852E+03-3.40532E+05 6.22549E-10 1.80225E-09
 -1       278-8.92212E+05-1.36011E+05-7.94647E+02-3.48576E+05 2.24532E-10-5.41647E-11
 -1       279-8.99252E+05-1.28906E+05-9.47849E+02-3.40519E+05 1.56916E-10-7.84098E-10
 -1       280-8.92359E+05-1.36165E+05-1.78903E+03-3.48558E+05-2.91948E-10-2.05915E-09
 -1       281-8.99091E+05-1.28779E+05-3.36120E+03-3.40544E+05 4.20414E-10 7.12816E-10
 -1       282-8.93763E+05-1.37887E+05-7.88071E+03-3.48276E+05-2.27487E-10 2.13845E-10
 -1       283-8.97877E+05-1.27442E+05-1.44241E+04-3.40701E+05-5.42855E-11 2.63753E-10
 -1       284-9.05862E+05-1.55378E+05-3.83387E+04-3.45610E+05-6.09361E-10-2.69847E-09
 -1       285-8.87400E+05-1.14226E+05-6.11502E+04-3.42104E+05-1.65528E-10-6.91216E-10
 -1       286-1.30579E+05-4.36740E+03 1.00993E+04-5.85309E+01 4.84036E-10 7.63976E-11
 -1       287-1.26157E+05 5.05606E+03 7.15063E+03-7.16007E+01 1.89203E-10 8.08654E-10
 -1       288-1.28890E+05-6.84850E+02 2.61414E+03 2.04245E+01 9.53193E-12-6.40057E-11
 -1       289-1.28129E+05 7.92557E+02 1.64881E+03-2.19633E+02-1.05321E-10-9.94959E-10
 -1       290-1.28608E+05-1.07281E+02 6.74630E+02 8.95054E+01-1.19256E-10-1.20062E-09
 -1       291-1.28460E+05 1.26305E+02 4.09191E+02-3.33264E+02 3.37971E-10-2.08144E-09
 -1       292-1.28559E+05-1.89505E+01 2.08413E+02 1.34057E+02 5.72113E-10 1.14753E-10
 -1       293-1.28511E+05 3.75572E+01 1.82547E+02-3.88990E+02 3.92973E-10 1.76074E-09
 -1       294-1.28558E+05-1.85001E+01 2.04950E+02 1.45232E+02 3.95320E-10 8.75005E-10
 -1       295-1.28466E+05 1.22711E+02 3.97813E+02-3.75751E+02 8.93814E-11 1.28551E-10
 -1       296-1.28604E+05-1.04071E+02 6.55942E+02 1.20819E+02 3.47944E-10-7.39419E-10
 -1       297-1.28145E+05 7.69289E+02 1.60000E+03-2.96220E+02 5.68374E-10-6.01631E-10
 -1       298-1.28879E+05-6.64722E+02 2.53806E+03 6.56992E+01 2.17430E-10 7.40556E-10
 -1       299-1.26228E+05 4.90796E+03 6.94093E+03-1.66948E+02-1.09748E-10 1.58252E-10
 -1       300-1.30520E+05-4.23951E+03 9.80339E+03-8.45646E+00 1.25965E-10 3.57431E-10
 -1       301 1.21053E+04 3.23792E+03 2.71824E+04-8.84944E+03-2.35559E-10-1.06300E-09
 -1       302 4.09692E+03 8.37466E+03 1.66979E+04-1.04129E+04-2.98655E-10 1.06777E-09
 -1       303 1.12293E+03 5.06310E+03 1.34251E+04-8.84642E+03-2.34877E-10 3.91083E-10
 -1       304 5.32991E+03 9.11758E+03 2.00426E+04-1.04039E+04-3.04908E-10-1.24459E-10
 -1       305 1.60886E+04 2.49665E+03 3.52823E+04-8.85635E+03-2.41926E-10 3.66754E-10
 -1       306-5.86251E+05-7.71126E+04-3.79700E+04-2.27253E+05 1.09594E-10 1.12777E-10
 -1       307-5.94370E+05-1.05959E+05-2.37987E+04-2.33222E+05-1.24487E-11 2.40334E-10
 -1       308-5.92786E+05-8.52779E+04-8.95873E+03-2.26351E+05 5.29667E-10 5.87988E-10
 -1       309-5.86832E+05-9.51440E+04-4.89353E+03-2.34933E+05 2.41698E-10-6.12090E-10
 -1       310-5.93554E+05-8.60926E+04-2.09065E+03-2.26242E+05 3.82329E-10 9.72250E-10
 -1       311-5.85951E+05-9.40929E+04-1.11557E+03-2.35135E+05 1.53591E-10 4.10253E-10
 -1       312-5.93661E+05-8.61627E+04-5.99088E+02-2.26218E+05 1.94859E-10 2.62133E-10
 -1       313-5.85853E+05-9.40096E+04-5.15873E+02-2.35163E+05 2.89070E-10 1.25738E-10
 -1       314-5.93656E+05-8.61632E+04-6.78035E+02-2.26221E+05-7.34872E-10-2.57080E-09
 -1       315-5.85985E+05-9.41112E+04-1.33279E+03-2.35122E+05-1.16870E-10-4.77201E-10
 -1       316-5.93522E+05-8.60774E+04-2.53235E+03-2.26249E+05 1.88720E-11-1.06547E-09
 -1       317-5.87058E+05-9.53952E+04-5.95027E+03-2.34883E+05 3.26338E-10-4.84988E-10
 -1       318-5.92592E+05-8.50807E+04-1.08988E+04-2.26376E+05-1.60298E-10 6.50289E-10
 -1       319-5.96217E+05-1.08575E+05-2.89614E+04-2.32825E+05-4.25473E-10-3.67436E-10
 -1       320-5.84652E+05-7.51273E+04-4.62025E+04-2.27458E+05-6.08907E-10 1.92813E-10
 -1       321-1.58361E+05-3.15544E+03 7.29765E+03-5.92229E+01-5.20064E-10-1.37334E-10
 -1       322-1.55170E+05 3.65299E+03 5.16442E+03-1.62305E+01-7.11793E-10-1.03364E-09
 -1       323-1.57141E+05-4.94708E+02 1.88757E+03-3.13515E+00-2.12491E-10-1.15335E-09
 -1       324-1.56593E+05 5.72279E+02 1.18644E+03-1.23578E+02 1.12598E-10-1.29573E-09
 -1       325-1.56939E+05-7.72172E+01 4.80111E+02 4.81276E+01-1.73763E-11-1.34662E-10
 -1       326-1.56831E+05 8.91239E+01 2.78926E+02-2.08507E+02-3.25638E-10 6.49976E-10
 -1       327-1.56903E+05-1.18615E+01 1.19994E+02 8.17945E+01-2.63384E-10-4.81748E-12
 -1       328-1.56873E+05 1.32219E+01 6.43806E+01-2.50238E+02 3.29575E-10 4.50777E-11
 -1       329-1.56897E+05-1.32730E+00 2.57700E+01 8.98598E+01-2.54357E-11-1.55666E-10
 -1       330-1.56881E+05-1.32969E+00 5.73261E+00-2.38827E+02-2.10665E-10-8.16176E-10
 -1       331-1.56895E+05 2.67212E+00-1.09410E+01 7.03834E+01-1.00422E-10-3.19979E-10
 -1       332-1.56889E+05-2.14536E+01-4.06112E+01-1.76976E+02 1.70532E-10 1.61648E-10
 -1       333-1.56889E+05 1.87351E+01-7.06485E+01 2.80072E+01-1.07399E-11-1.95769E-10
 -1       334-1.56941E+05-1.38972E+02-1.94879E+02-7.93488E+01 5.96003E-11 3.41974E-10
 -1       335-1.56843E+05 1.20055E+02-2.78681E+02-2.72452E+01-3.89893E-10 9.77280E-11
 -1       336-9.56666E+01-2.33926E+05 1.24201E+02-3.44216E+03-9.39394E-10-2.98451E-09
 -1       337-5.87393E+01-2.33909E+05-7.40577E+02-1.24726E+04-1.68771E-09-6.34986E-09
 -1       338 1.61762E+02-2.33719E+05-1.88117E+03-3.40531E+03-1.16847E-09-1.89061E-09
 -1       339-2.36261E+03-2.35316E+05-4.93658E+03-1.25128E+04-2.00066E-09 1.82712E-09
 -1       340 1.70689E+03-2.32531E+05-7.86450E+03-3.40222E+03-1.15824E-09 6.82547E-10
 -1       341-3.19438E+05-4.52277E+04-1.23405E+04-1.25328E+05 1.27752E-08 2.15232E-09
 -1       342-3.15855E+05-3.75213E+04-4.33524E+03-1.02809E+05 6.90983E-09 3.59933E-10
 -1       343-3.09230E+05-5.01682E+04-2.62709E+03-1.26127E+05-7.66232E-09-5.66047E-09
 -1       344-3.25596E+05-3.19924E+04-9.67079E+02-1.02221E+05 2.41793E-08 2.81887E-09
 -1       345-3.09862E+05-5.06262E+04-8.81975E+02-1.26049E+05 2.64029E-08 2.42153E-10
 -1       346-3.12641E+05-3.35813E+04 2.15523E+03-1.03640E+05-1.03942E-08-2.47439E-09
 -1       347-3.22008E+05-4.87148E+04-2.45313E+03-1.24567E+05 3.61638E-09-1.25783E-09
 -1       348-2.95214E+05-4.10548E+04 4.15079E+03-1.11192E+05 5.45219E-09-1.28750E-09
 -1       349-3.27116E+05-4.32848E+04-2.61414E+03-1.18366E+05-1.60549E-09-1.27002E-09
 -1       350-2.95014E+05-5.20968E+04 1.40504E+03-1.24558E+05 7.23085E-09-5.98530E-09
 -1       351-3.22384E+05-3.75377E+04-2.02796E+03-1.11339E+05-5.99118E-09-6.06497E-09
 -1       352-3.00903E+05-5.94028E+04-4.18575E+03-1.31362E+05-2.57628E-08-1.60858E-08
 -1       353-3.21403E+05-3.58456E+04-7.83045E+03-1.11692E+05 9.96693E-09 2.95131E-10
 -1       354-3.03458E+05-6.66731E+04-1.95713E+04-1.21645E+05-1.03593E-08-2.06455E-09
 -1       355-3.19655E+05-3.04127E+04-3.44323E+04-1.20921E+05-2.52840E-09-3.96540E-10
 -1       356-1.61919E+05 3.17880E+02-7.36744E+02-5.80743E+01 3.11742E-11 4.90843E-10
 -1       357-1.62221E+05-3.68116E+02-5.22902E+02 3.25984E+01-5.68471E-10 4.05208E-10
 -1       358-1.62042E+05 4.99217E+01-1.96695E+02-2.32233E+01-1.80265E-10-3.22508E-10
 -1       359-1.62078E+05-5.86554E+01-1.32143E+02-3.87689E+01 3.96070E-11-8.87731E-10
 -1       360-1.62061E+05 8.66272E+00-7.38238E+01 1.32942E+01 1.06827E-10-3.12528E-10
 -1       361-1.62059E+05-1.59726E+01-8.16767E+01-1.04590E+02 1.07452E-10-7.91708E-10
 -1       362-1.62061E+05 7.28889E+00-1.13195E+02 4.25988E+01-6.61946E-11-7.68487E-10
 -1       363-1.62079E+05-4.72258E+01-2.28711E+02-1.48784E+02 1.20603E-09-3.89775E-10
 -1       364-1.62041E+05 3.99222E+01-4.05576E+02 5.74891E+01 3.25615E-07-1.40147E-10
 -1       365-1.62211E+05-2.96429E+02-9.28379E+02-1.60531E+02 6.49167E-07 2.44768E-10
 -1       366-1.61929E+05 2.56342E+02-1.59705E+03 5.43464E+01 3.25547E-07-4.08704E-11
 -1       367-1.62992E+05-1.89990E+03-3.93694E+03-1.36900E+02 1.18444E-09 2.06228E-10
 -1       368-1.61261E+05 1.64221E+03-6.26967E+03 3.38572E+01 7.20461E-10-1.07457E-09
 -1       369-1.67712E+05-1.21280E+04-1.71432E+04-8.27978E+01 1.29535E-10-4.03816E-10
 -1       370-1.57210E+05 1.04764E+04-2.42296E+04 2.43835E-01 1.74228E-09 4.00178E-10
 -1       371-4.16835E+03-4.52427E+04 9.46149E+03 2.77542E+02 3.91083E-10-1.81124E-10
 -1       372 4.42971E+03-4.12408E+04 5.97691E+03-1.06804E+03 6.42331E-10 5.84708E-10
 -1       373-2.57380E+02-4.34328E+04 9.72219E+02 2.87039E+02 5.05679E-10-8.14948E-11
 -1       374-2.22529E+03-4.43071E+04-2.69371E+03-1.05620E+03 6.00153E-10-3.53850E-11
 -1       375 2.48118E+03-4.21764E+04-5.46320E+03 2.65701E+02 3.13321E-10 8.26770E-10
 -1       376-2.21111E+05-2.78603E+04-8.45073E+03-8.44763E+04 1.08275E-09-8.47649E-10
 -1       377-2.25694E+05-3.54884E+04-5.86828E+03-8.28402E+04 8.24116E-10-5.60306E-10
 -1       378-2.22860E+05-3.08766E+04-1.98412E+03-8.38749E+04 2.88139E-10-1.05240E-09
 -1       379-2.23627E+05-3.20301E+04-1.24490E+03-8.35714E+04 6.06363E-10 4.51905E-11
 -1       380-2.23177E+05-3.13163E+04-4.76410E+02-8.37457E+04-7.73667E-10-3.07125E-10
 -1       381-2.23233E+05-3.15580E+04-3.05181E+02-8.37552E+04-7.14282E-11-8.65473E-10
 -1       382-2.23254E+05-3.13484E+04-1.82237E+02-8.36912E+04-1.22939E-10-5.39604E-11
 -1       383-2.23152E+05-3.15718E+04-2.41277E+02-8.38293E+04-1.09903E-08 4.13237E-09
 -1       384-2.23257E+05-3.13024E+04-3.59345E+02-8.36716E+04-4.04313E-06 1.51509E-06
 -1       385-2.23300E+05-3.18484E+04-8.56933E+02-8.38016E+04-8.06436E-06 3.02320E-06
 -1       386-2.23107E+05-3.10720E+04-1.46424E+03-8.37190E+04-4.04312E-06 1.51421E-06
 -1       387-2.24367E+05-3.35713E+04-3.93650E+03-8.34458E+04-1.14713E-08 4.55452E-09
 -1       388-2.22191E+05-2.95806E+04-6.29984E+03-8.40271E+04 5.12500E-10-8.56744E-10
 -1       389-2.30810E+05-4.47024E+04-1.86628E+04-8.12638E+04 4.64524E-10 1.18234E-10
 -1       390-2.16666E+05-1.99482E+04-2.68791E+04-8.58988E+04 2.86946E-10-1.90994E-10
 -1       406 2.73722E+02 1.15699E+05 5.98846E+02-8.47818E+03-7.48969E-10 5.22277E-10
 -1       407 1.80522E+02 1.15809E+05 7.37152E+02-9.28924E+03-9.37007E-10 1.63084E-09
 -1       408 3.00884E+02 1.15680E+05 1.22261E+03-8.43755E+03-9.32459E-10 1.32661E-08
 -1       409 1.21329E+03 1.16155E+05 2.62908E+03-9.35188E+03-1.03046E-09 2.21233E-08
 -1       410 3.50239E+03 1.15348E+05 5.30400E+03-8.41463E+03-1.05865E-09 9.25559E-09
 -1       466 4.45671E+05-1.80585E+04 4.17229E+04 1.30331E+03 9.80691E-11 1.40790E-09
 -1       467 4.64097E+05 2.08998E+04 2.95834E+04-2.26368E+03 7.63208E-10 7.62611E-10
 -1       468 4.52785E+05-2.82655E+03 1.08180E+04 4.39359E+02 4.08942E-10 8.49013E-10
 -1       469 4.55813E+05 3.27157E+03 6.82662E+03-1.04981E+03-6.69900E-10 3.68345E-11
 -1       470 4.53957E+05-4.42874E+02 2.82291E+03 8.94559E+01 2.46066E-10 5.42514E-10
 -1       471 4.54454E+05 5.28641E+02 1.75126E+03-5.63819E+02 7.46947E-10-9.19556E-10
 -1       472 4.54145E+05-8.53361E+01 9.80973E+02-4.66385E+01 1.35026E-10 6.56541E-12
 -1       473 4.54287E+05 2.08693E+02 1.01411E+03-3.94354E+02 6.32675E-10 1.87271E-10
 -1       474 4.54123E+05-1.23085E+02 1.31821E+03-8.00126E+01 1.64661E-10-3.37081E-11
 -1       475 4.54623E+05 8.52751E+02 2.72638E+03-4.03338E+02-4.19218E-11-2.53294E-10
 -1       476 4.53808E+05-7.28972E+02 4.57927E+03-3.76541E+01 3.04991E-10-3.22643E-10
 -1       477 4.56839E+05 5.39508E+03 1.12064E+04-5.98451E+02 6.24835E-10-4.84306E-11
 -1       478 4.51905E+05-4.66202E+03 1.78199E+04 1.15105E+02 2.20089E-10-3.08319E-10
 -1       479 4.70270E+05 3.44347E+04 4.86980E+04-1.14954E+03 5.39366E-10-1.21418E-09
 -1       480 4.40373E+05-2.97438E+04 6.88235E+04 5.13427E+02 1.75258E-09 1.38243E-10
 -1       481-3.38675E+03 6.82578E+04 7.86314E+03-3.18191E+02-8.18545E-12 5.05906E-11
 -1       482 4.04923E+03 7.18487E+04 5.81296E+03 7.91772E+02-9.03810E-12 1.35491E-09
 -1       483-6.60680E+02 6.95363E+04 2.48751E+03-2.25012E+02-3.48450E-11 1.15859E-09
 -1       484 1.59683E+03 7.06680E+04 2.61232E+03 6.42738E+02-1.22711E-11-5.00847E-10
 -1       485-9.35505E+02 6.94374E+04 2.38394E+03-1.69157E+02 3.19460E-11-6.49209E-10
 -1       486-4.14374E+05-4.48246E+04-3.91514E+04-1.64620E+05-5.54792E-11 3.20142E-10
 -1       487-4.39796E+05-7.55833E+04-2.71134E+04-1.51799E+05 9.60426E-10 1.09594E-09
 -1       488-4.22307E+05-5.89018E+04-9.19360E+03-1.61992E+05 5.01700E-10-4.63388E-10
 -1       489-4.28710E+05-6.04785E+04-5.56696E+03-1.56133E+05-4.78394E-10-4.33943E-10
 -1       490-4.25443E+05-5.99280E+04-2.29261E+03-1.60279E+05 1.76826E-10-1.00272E-09
 -1       491-4.23957E+05-6.08135E+04-1.03979E+03-1.59864E+05-4.63700E-10-5.64981E-10
 -1       492-4.27052E+05-5.85704E+04-6.78366E+02-1.58257E+05 3.41785E-10 9.51815E-10
 -1       493-4.22056E+05-6.29795E+04-4.23295E+02-1.62880E+05 5.39799E-10 3.28499E-09
 -1       494-4.27357E+05-5.77500E+04-5.35010E+02-1.57274E+05-6.99764E-10 1.43824E-09
 -1       495-4.22253E+05-6.32633E+04-1.06632E+03-1.62822E+05-1.68592E-10 1.62970E-09
 -1       496-4.26856E+05-5.82868E+04-1.99081E+03-1.58314E+05 5.17261E-10 1.23487E-09
 -1       497-4.25301E+05-6.29924E+04-4.83739E+03-1.59451E+05 6.59242E-10-8.10587E-10
 -1       498-4.24297E+05-5.80342E+04-8.24844E+03-1.60634E+05 1.04444E-09 2.01453E-10
 -1       499-4.36761E+05-7.44856E+04-2.38377E+04-1.53464E+05 2.37264E-10-6.89397E-10
 -1       500-4.15407E+05-4.67977E+04-3.45918E+04-1.64304E+05-1.71440E-09 2.85218E-09
 -1       501-1.41301E+05-7.12167E+03 1.64677E+04-3.68886E+01 2.02789E-10 1.02591E-09
 -1       502-1.34096E+05 8.24456E+03 1.16581E+04-1.65255E+02-2.20970E-10-1.67120E-10
 -1       503-1.38545E+05-1.11661E+03 4.25910E+03 6.95642E+01-3.06883E-11 7.01220E-10
 -1       504-1.37315E+05 1.29167E+03 2.67964E+03-3.56656E+02-6.39204E-11-4.28827E-10
 -1       505-1.38083E+05-1.74272E+02 1.08487E+03 1.54518E+02 1.95101E-10-3.19801E-10
 -1       506-1.37858E+05 2.01533E+02 6.32856E+02-4.85139E+02 4.62546E-10-1.06442E-09
 -1       507-1.38002E+05-2.70458E+01 2.77242E+02 1.98050E+02 4.38267E-10-9.18547E-10
 -1       508-1.37952E+05 3.26747E+01 1.59163E+02-5.21433E+02 7.41528E-10-1.51917E-09
 -1       509-1.37990E+05-5.44357E+00 8.30199E+01 1.90812E+02 4.07654E-10-9.48326E-10
 -1       510-1.37955E+05 1.55501E+01 7.18812E+01-4.57708E+02-2.27563E-10 1.16817E-11
 -1       511-1.37998E+05-1.00635E+01 7.37597E+01 1.34324E+02-1.86763E-10-1.11379E-09
 -1       512-1.37917E+05 7.02512E+01 1.56275E+02-3.07343E+02-1.43304E-10-2.53859E-11
 -1       513-1.38028E+05-6.03455E+01 2.29546E+02 4.04440E+01-2.77431E-10-2.20112E-10
 -1       514-1.37737E+05 4.42877E+02 6.31800E+02-1.01900E+02-3.84802E-10 5.69742E-10
 -1       515-1.38177E+05-3.82546E+02 8.79105E+02-7.11232E+01-1.16994E-10 7.83643E-10
 -1       516-1.75096E+04 1.21722E+05 4.10023E+04-7.68404E+02-1.87356E-10 4.78881E-10
 -1       517 2.14379E+04 1.39944E+05 3.10715E+04 2.94925E+03-3.52884E-10-4.91445E-10
 -1       518-3.91254E+03 1.27880E+05 1.47702E+04-8.43104E+02-2.61025E-10-2.23324E-11
 -1       519 1.20383E+04 1.35932E+05 1.88570E+04 3.38980E+03-6.49095E-10-1.70465E-09
 -1       520-8.12348E+03 1.25742E+05 1.97837E+04-1.20896E+03-5.27507E-10-2.55579E-09
 -1       521-8.69382E+05-1.12277E+05-5.93501E+04-3.35429E+05-1.32513E-09-1.28057E-09
 -1       522-8.86511E+05-1.52985E+05-3.72063E+04-3.39717E+05-7.72104E-10-2.12412E-09
 -1       523-8.79568E+05-1.25081E+05-1.39985E+04-3.34046E+05-3.11118E-10 1.72804E-11
 -1       524-8.74745E+05-1.36039E+05-7.64475E+03-3.42341E+05-3.25713E-11 8.05358E-10
 -1       525-8.80758E+05-1.26367E+05-3.25662E+03-3.33883E+05-1.32900E-10-7.43967E-10
 -1       526-8.73370E+05-1.34384E+05-1.72247E+03-3.42636E+05-2.50054E-10-3.54390E-10
 -1       527-8.80921E+05-1.26484E+05-8.92513E+02-3.33852E+05-9.77138E-11 2.43958E-10
 -1       528-8.73215E+05-1.34242E+05-7.11239E+02-3.42669E+05-8.54691E-10 4.02451E-11
 -1       529-8.80914E+05-1.26491E+05-8.67347E+02-3.33859E+05-1.08514E-09-2.14868E-09
 -1       530-8.73385E+05-1.34350E+05-1.65284E+03-3.42605E+05-7.42887E-10-4.82089E-10
 -1       531-8.80744E+05-1.26395E+05-3.11495E+03-3.33904E+05-1.78034E-10 2.52612E-10
 -1       532-8.74726E+05-1.35903E+05-7.30541E+03-3.42288E+05-7.95808E-12 6.62794E-10
 -1       533-8.79590E+05-1.25183E+05-1.33750E+04-3.34077E+05-9.07221E-11 5.01132E-10
 -1       534-8.86000E+05-1.52057E+05-3.55459E+04-3.39737E+05-2.21178E-10 5.91172E-11
 -1       535-8.69838E+05-1.12972E+05-5.67021E+04-3.35420E+05-1.86901E-10 2.00089E-10
 -1       536 8.73242E+03-3.16703E+03 1.46223E+04-2.57641E+03 2.45109E-10-1.21872E-10
 -1       537 1.39594E+04 4.41911E+03 9.30253E+03-9.06504E+03-7.56359E-10 3.25599E-10
 -1       538 1.09153E+04-3.22042E+02 3.78227E+03-2.54272E+03-2.88765E-11 4.63160E-10
 -1       539 1.15187E+04 4.15296E+02 2.09739E+03-9.10038E+03 3.88468E-10 9.02787E-10
 -1       540 1.11537E+04-3.66349E+01 9.52157E+02-2.54054E+03-9.23137E-11-2.48917E-10
 -1       541 1.12370E+04 3.79943E+01 4.98418E+02-9.10179E+03 6.53699E-11 2.55795E-12
 -1       542 1.11829E+04-4.80246E+00 2.33277E+02-2.54131E+03-2.46700E-11-2.71314E-10
 -1       543 1.11946E+04 4.43533E+00 1.12715E+02-9.10061E+03 2.79101E-11 1.28097E-10
 -1       544 1.11873E+04 1.63122E-01 4.02377E+01-2.54173E+03 8.40714E-11-1.70388E-10
 -1       545 1.11834E+04-6.63387E-01-9.84523E+00-9.10012E+03-2.24361E-10 3.22018E-11
 -1       546 1.11905E+04 3.20599E+00-6.17795E+01-2.54181E+03 1.38982E-10-3.42965E-10
 -1       547 1.11616E+04-3.19793E+01-1.60714E+02-9.09910E+03-2.99423E-10 5.91328E-10
 -1       548 1.12107E+04 2.50412E+01-3.00389E+02-2.54274E+03-1.97588E-10 7.43796E-11
 -1       549 1.09715E+04-3.55351E+02-7.44414E+02-9.07985E+03-2.41130E-10 4.30589E-10
 -1       550 1.13875E+04 2.50836E+02-1.17417E+03-2.56105E+03 6.19593E-11-9.49854E-11
 -1       551 3.26494E+03-8.48398E+04 7.77409E+03-1.29884E+05 2.93767E-10 2.63117E-09
 -1       552 1.41020E+03-8.34059E+04 6.38460E+03-1.52561E+05-2.45564E-10 3.87740E-09
 -1       553 8.67799E+02-8.45981E+04 7.76813E+03-1.29666E+05 1.90994E-11 1.34968E-08
 -1       554 4.55172E+03-8.15413E+04 1.48765E+04-1.52597E+05-4.72937E-11 2.51493E-08
 -1       555 1.33970E+04-8.67564E+04 2.83391E+04-1.29840E+05 1.38243E-10 1.25501E-08
 -1       556-5.69522E+04-3.16256E+04 5.60160E+03-5.64777E+04-1.02136E-09-6.00267E-11
 -1       557-5.18836E+04-3.71284E+04 2.75642E+03-6.03903E+04 3.28782E-09 6.83025E-09
 -1       558-5.69902E+04-3.34742E+04 1.16354E+03-5.53638E+04 3.85626E-10-2.11321E-09
 -1       559-5.23450E+04-3.80536E+04 5.69344E+02-6.05387E+04 8.27185E-10-3.52429E-12
 -1       560-5.70079E+04-3.35124E+04 2.55212E+02-5.53250E+04-2.19188E-10-3.10195E-10
 -1       561-5.24072E+04-3.80863E+04 1.19647E+02-6.05842E+04-3.28328E-10 5.92223E-10
 -1       562-5.70264E+04-3.34940E+04 4.32129E+01-5.53383E+04-3.00133E-11 9.25752E-10
 -1       563-5.24316E+04-3.80762E+04-2.83589E+00-6.06024E+04-1.20963E-10 8.03198E-10
 -1       564-5.70364E+04-3.34823E+04-5.28960E+01-5.53474E+04-5.91172E-11-1.80080E-10
 -1       565-5.24489E+04-3.80704E+04-1.35723E+02-6.06117E+04-9.09495E-13-1.51658E-10
 -1       566-5.70320E+04-3.34752E+04-2.89651E+02-5.53498E+04-5.50813E-11-3.15595E-10
 -1       567-5.25043E+04-3.80978E+04-6.40440E+02-6.06084E+04 2.40334E-10 3.63798E-11
 -1       568-5.69891E+04-3.35665E+04-1.31490E+03-5.53057E+04-1.18234E-11-3.50610E-10
 -1       569-5.32410E+04-3.88784E+04-3.10169E+03-6.04101E+04-1.01863E-10 7.92625E-10
 -1       570-5.67120E+04-3.59332E+04-6.31489E+03-5.43157E+04 7.41238E-11 6.67683E-10
 -1       571 7.38364E+04 3.55680E+03 5.38475E+03-1.90336E+04 4.36557E-11-3.48052E-10
 -1       572 7.46553E+04 1.22232E+03 2.64239E+03-2.09441E+04 3.63798E-11-8.00355E-11
 -1       573 7.41721E+04 2.80332E+02 1.17502E+03-1.89832E+04-1.81899E-12 2.31012E-10
 -1       574 7.42707E+04 8.82202E+01 5.89415E+02-2.10005E+04-2.68301E-11-4.82942E-10
 -1       575 7.42117E+04 8.74722E+00 2.78545E+02-1.89767E+04 3.18323E-11 5.51836E-10
 -1       576 7.42214E+04 1.97960E-01 1.42181E+02-2.10079E+04 1.08209E-10 3.08546E-10
 -1       577 7.42176E+04-4.35106E+00 7.09219E+01-1.89758E+04 9.70317E-11-7.41238E-11
 -1       578 7.42151E+04-2.92992E+00 4.02274E+01-2.10087E+04-1.00499E-10 1.25601E-09
 -1       579 7.42203E+04-3.43055E+00 2.77168E+01-1.89758E+04-2.22826E-11 7.19865E-10
 -1       580 7.42179E+04-2.80917E+00 3.07942E+01-2.10075E+04 6.10498E-11 8.71978E-10
 -1       581 7.42232E+04-2.43896E+00 4.77166E+01-1.89770E+04-1.55978E-10 5.71390E-10
 -1       582 7.42302E+04 8.82483E+00 9.44598E+01-2.09959E+04-8.00355E-11 7.79892E-11
 -1       583 7.42223E+04 3.73537E+01 1.84728E+02-1.89874E+04-9.23137E-11 2.39879E-11
 -1       584 7.42970E+04 1.83273E+02 4.13957E+02-2.09081E+04-4.20869E-10-5.47800E-10
 -1       585 7.41758E+04 5.47441E+02 8.42169E+02-1.90650E+04 1.47793E-10 2.44654E-10
 -1       586 5.57696E+02 3.13995E+04 1.04309E+03-4.65996E+04 1.32104E-10 6.50743E-10
 -1       587 3.03042E+02 3.15843E+04 1.02810E+03-5.14110E+04 4.55657E-10 1.03034E-09
 -1       588 3.81649E+02 3.13934E+04 1.49825E+03-4.65397E+04 1.30058E-10-1.76556E-10
 -1       589 1.43277E+03 3.19622E+04 3.09705E+03-5.14286E+04 5.13865E-10-3.07978E-10
 -1       590 4.08912E+03 3.10145E+04 6.18859E+03-4.65815E+04 1.36424E-10 6.34600E-10
 -1       591-3.44008E+04-1.16971E+04-6.63633E+03-1.76138E+04-2.77285E-09-7.15227E-09
 -1       592-3.46342E+04-1.09078E+04-3.26035E+03-1.95593E+04 1.79227E-10 4.34682E-10
 -1       593-3.46053E+04-9.28367E+03-1.38360E+03-1.87225E+04 3.47541E-10-2.32160E-09
 -1       594-3.39224E+04-1.00191E+04-6.77128E+02-1.96736E+04 1.94859E-10-5.51609E-10
 -1       595-3.46372E+04-9.19710E+03-3.11891E+02-1.87713E+04-1.14215E-09-4.02324E-10
 -1       596-3.38689E+04-9.98451E+03-1.58290E+02-1.96686E+04-4.89166E-10-2.99565E-10
 -1       597-3.46432E+04-9.20189E+03-8.63547E+01-1.87716E+04-3.93210E-09 1.77732E-09
 -1       598-3.38637E+04-9.98496E+03-6.94184E+01-1.96663E+04-7.81253E-09 2.55852E-09
 -1       599-3.46430E+04-9.20189E+03-8.84785E+01-1.87715E+04-3.79600E-09 1.98224E-09
 -1       600-3.38691E+04-9.98470E+03-1.63986E+02-1.96684E+04-4.24961E-10 3.59705E-10
 -1       601-3.46360E+04-9.19698E+03-3.23807E+02-1.87709E+04-7.55222E-10-1.22441E-10
 -1       602-3.39250E+04-1.00201E+04-7.03729E+02-1.96726E+04 6.70752E-11-2.59831E-10
 -1       603-3.46021E+04-9.28799E+03-1.43799E+03-1.87208E+04 7.55222E-10-9.01991E-10
 -1       604-3.46713E+04-1.09369E+04-3.38855E+03-1.95456E+04-1.12459E-09-7.99969E-09
 -1       605-3.43822E+04-1.18019E+04-6.89695E+03-1.75752E+04 5.15115E-10-5.43196E-10
 -1       606 2.49652E+04-2.95364E+03-4.46898E+03 7.36181E+03-1.46701E-09-6.82121E-10
 -1       607 2.42763E+04-1.01495E+03-2.19268E+03 8.02549E+03-1.99861E-10-8.92726E-11
 -1       608 2.46820E+04-2.32574E+02-9.74950E+02 7.31319E+03 1.07502E-09 3.26395E-10
 -1       609 2.45906E+04-7.14938E+01-4.88512E+02 8.07993E+03-5.06589E-10 2.62560E-10
 -1       610 2.46456E+04-5.26249E+00-2.30178E+02 7.30688E+03-1.66960E-09-6.53188E-10
 -1       611 2.46287E+04 2.97066E+00-1.15909E+02 8.08694E+03-2.89219E-09-1.05894E-09
 -1       612 2.46390E+04 6.31579E+00-5.49583E+01 7.30612E+03-1.41199E-09-1.43189E-10
 -1       613 2.46335E+04 5.65811E+00-2.53790E+01 8.08790E+03-1.85901E-09 5.76449E-10
 -1       614 2.46368E+04 4.84798E+00-7.44850E+00 7.30591E+03-2.25555E-10-3.56636E-10
 -1       615 2.46342E+04 5.35377E+00 6.61138E+00 8.08805E+03 1.75442E-09 3.25485E-10
 -1       616 2.46352E+04 5.67755E+00 2.36819E+01 7.30597E+03-9.64292E-10-1.24942E-10
 -1       617 2.46384E+04 1.40075E+01 5.59343E+01 8.08783E+03 5.98561E-11-1.30029E-09
 -1       618 2.46305E+04 3.24501E+01 1.14268E+02 7.30611E+03-1.72008E-10-1.42381E-09
 -1       619 2.46754E+04 1.25429E+02 2.58545E+02 8.08673E+03-2.78874E-10-7.20490E-10
 -1       620 2.45970E+04 3.53820E+02 5.27605E+02 7.30692E+03 4.04157E-11-5.38193E-10
 -1       621 5.07378E+02 7.66648E+04 1.29775E+03-7.07716E+03-5.94582E-10-3.34239E-10
 -1       622 1.94785E+02 7.69120E+04 1.10918E+03-8.34974E+03-6.89113E-10-1.50123E-10
 -1       623 1.18671E+02 7.67146E+04 1.40619E+03-7.08364E+03-6.11408E-10-3.42880E-10
 -1       624 7.95288E+02 7.72750E+04 2.73920E+03-8.31517E+03-5.64285E-10 5.45469E-10
 -1       625 2.44754E+03 7.63044E+04 5.24441E+03-7.11151E+03-4.59067E-10 2.34195E-11
 -1       626 3.58362E+04 1.18491E+04-1.78711E+03 2.42501E+04-1.08339E-08-1.22418E-09
 -1       627 3.49042E+04 1.32238E+04-8.47076E+02 2.47496E+04-1.94591E-08 2.58137E-09
 -1       628 3.58849E+04 1.27310E+04-3.55573E+02 2.38144E+04 3.26963E-10 1.34150E-11
 -1       629 3.50341E+04 1.35954E+04-1.70546E+02 2.47243E+04 1.56100E-08-9.97832E-09
 -1       630 3.58842E+04 1.27918E+04-7.49035E+01 2.37793E+04 8.27004E-09-2.81261E-09
 -1       631 3.50446E+04 1.36227E+04-3.31436E+01 2.47260E+04-1.32911E-09-8.38327E-10
 -1       632 3.58819E+04 1.27933E+04-8.21547E+00 2.37768E+04-1.04933E-09-6.90392E-10
 -1       633 3.50461E+04 1.36236E+04 1.08164E+01 2.47272E+04 1.64965E-09-2.35332E-11
 -1       634 3.58798E+04 1.27911E+04 3.55032E+01 2.37767E+04 8.40600E-10-6.53813E-10
 -1       635 3.50508E+04 1.36245E+04 8.35908E+01 2.47284E+04 1.35179E-09-7.11339E-10
 -1       636 3.58762E+04 1.27953E+04 1.74907E+02 2.37738E+04-2.47411E-10 9.61791E-11
 -1       637 3.50927E+04 1.36737E+04 3.91646E+02 2.47204E+04 2.01922E-10 8.77776E-10
 -1       638 3.58667E+04 1.29434E+04 8.12520E+02 2.37093E+04 9.19670E-10 4.65320E-10
 -1       639 3.55049E+04 1.44077E+04 1.93455E+03 2.45380E+04-1.41256E-10 1.03000E-10
 -1       640 3.58880E+04 1.50583E+04 4.08221E+03 2.28324E+04-6.23800E-10-2.02363E-10
 -1       641 1.49693E+02 7.61021E+02-1.76034E+03-1.90791E+01 6.09854E-10 1.62527E-09
 -1       642-6.12831E+02-8.80946E+02-1.24449E+03 7.76384E+01-2.63852E-09 9.91008E-10
 -1       643-1.44350E+02 1.19247E+02-4.53854E+02-1.90164E+01-9.03653E-10 2.78362E-10
 -1       644-2.70260E+02-1.37663E+02-2.82225E+02 7.75847E+01 6.54627E-08 9.53442E-10
 -1       645-1.92902E+02 1.83475E+01-1.08854E+02-1.90255E+01 1.97022E-05-9.49363E-09
 -1       646-2.12626E+02-1.94664E+01-5.20029E+01 7.75978E+01 3.92831E-05-1.84777E-08
 -1       647-2.01994E+02 1.14312E+00-5.43912E-01-1.90297E+01 1.85498E-05-1.00537E-08
 -1       648-1.96536E+02 9.76684E+00 4.70470E+01 7.75998E+01-2.23220E-06 1.47029E-09
 -1       649-2.08995E+02-1.08675E+01 1.07194E+02-1.90276E+01-1.15140E-06 1.83014E-10
 -1       650-1.57078E+02 8.38047E+01 2.59786E+02 7.75710E+01-3.72408E-09 9.93339E-10
 -1       651-2.41449E+02-7.28499E+01 4.52301E+02-1.90008E+01 2.31763E-09 1.09844E-09
 -1       652 6.58864E+01 5.40404E+02 1.11908E+03 7.74560E+01-9.73362E-10 9.01537E-10
 -1       653-4.31950E+02-4.67132E+02 1.78306E+03-1.89128E+01 1.54267E-09 1.20065E-09
 -1       654 1.40924E+03 3.44987E+03 4.87675E+03 7.69988E+01-3.50286E-09-7.89555E-11
 -1       655-1.58473E+03-2.97999E+03 6.89287E+03-1.85443E+01-5.96087E-10 6.28006E-10
 -1       656 2.23069E+03-9.02214E+04-1.07088E+04 2.90252E+03-4.24279E-10 6.52562E-11
 -1       657-3.37651E+03-9.40744E+04-7.75291E+03 1.02597E+04-6.51426E-10 4.17117E-10
 -1       658 4.18155E+02-9.16022E+04-4.96353E+03 2.88625E+03-4.12154E-10 2.94250E-10
 -1       659-3.08839E+03-9.39021E+04-7.23012E+03 1.02685E+04-1.12203E-09-3.16781E-10
 -1       660 2.00791E+03-9.03965E+04-9.71260E+03 2.89378E+03-2.49202E-10-7.69660E-11
 -1       661 8.78276E+04 1.13114E+04 7.16658E+03 3.42919E+04 7.89669E-10-5.39785E-10
 -1       662 8.94592E+04 1.66659E+04 4.49294E+03 3.53160E+04 2.42879E-09-6.28916E-10
 -1       663 8.90471E+04 1.28677E+04 1.69152E+03 3.41375E+04 6.44334E-10 2.21689E-10
 -1       664 8.80553E+04 1.46034E+04 9.25120E+02 3.56097E+04-1.24150E-09-1.39693E-10
 -1       665 8.91825E+04 1.30312E+04 3.96416E+02 3.41265E+04-1.93319E-09-2.66840E-09
 -1       666 8.78995E+04 1.43931E+04 2.14488E+02 3.56313E+04-6.09816E-10-5.27962E-10
 -1       667 8.91982E+04 1.30490E+04 1.20564E+02 3.41266E+04-3.61588E-09-1.88202E-09
 -1       668 8.78849E+04 1.43747E+04 1.13550E+02 3.56319E+04-1.10210E-09 2.14214E-10
 -1       669 8.91968E+04 1.30478E+04 1.60233E+02 3.41265E+04-5.43565E-11-1.29558E-09
 -1       670 8.79126E+04 1.44068E+04 3.23918E+02 3.56311E+04 2.52754E-09-5.82986E-10
 -1       671 8.91711E+04 1.30196E+04 6.18958E+02 3.41265E+04-7.88560E-11 9.65770E-11
 -1       672 8.81597E+04 1.47389E+04 1.45720E+03 3.55967E+04-1.84968E-10 1.17532E-09
 -1       673 8.89566E+04 1.27615E+04 2.66858E+03 3.41438E+04 1.66306E-09 1.14937E-10
 -1       674 9.03747E+04 1.79968E+04 7.09209E+03 3.51352E+04 1.72776E-10 4.31555E-10
 -1       675 8.70331E+04 1.03028E+04 1.13128E+04 3.43853E+04-2.06796E-10-5.46152E-10
 -1       676 1.59967E+02-8.55780E+04-9.50903E+02 3.65288E+00-4.32522E-10 1.89417E-10
 -1       677-3.60643E+02-8.59392E+04-1.15453E+03-5.79084E+01-2.34803E-09-2.30585E-10
 -1       678 1.29034E+02-8.55924E+04-1.52666E+03 3.60836E+00-1.24771E-09 4.71059E-10
 -1       679-1.62471E+03-8.67058E+04-3.45393E+03-5.77931E+01-2.16642E-09-7.18774E-10
 -1       680 1.14499E+03-8.48115E+04-5.33005E+03 3.44901E+00-2.04045E-09-1.97870E-10
 -1       681 1.71231E+05-4.82841E+03 1.11566E+04 2.59348E+02-1.54621E-10-7.68523E-11
 -1       682 1.76132E+05 5.58912E+03 7.90798E+03-9.60652E+02-3.69340E-11-3.64139E-10
 -1       683 1.73122E+05-7.56363E+02 2.89254E+03 1.04248E+02-2.88614E-10 4.65207E-10
 -1       684 1.73927E+05 8.75929E+02 1.82688E+03-7.38536E+02-4.91538E-09-6.29825E-11
 -1       685 1.73436E+05-1.18522E+02 7.58120E+02 3.72288E+01-1.45724E-06-5.03121E-10
 -1       686 1.73564E+05 1.42423E+02 4.75366E+02-6.72000E+02-2.90626E-06-2.32723E-09
 -1       687 1.73485E+05-2.32911E+01 2.76079E+02 3.77116E+01-1.45760E-06-5.21929E-10
 -1       688 1.73531E+05 6.11753E+01 3.02862E+02-7.40582E+02-4.87970E-09 2.29274E-10
 -1       689 1.73470E+05-3.74545E+01 4.06610E+02 1.05811E+02-8.13163E-11 4.91923E-10
 -1       690 1.73669E+05 2.65784E+02 8.63247E+02-9.63941E+02-1.74278E-11-2.12410E-10
 -1       691 1.73348E+05-2.28281E+02 1.43911E+03 2.61075E+02-2.00330E-10-1.19485E-10
 -1       692 1.74460E+05 1.70011E+03 3.56343E+03-1.40677E+03 8.00298E-10 3.04908E-10
 -1       693 1.72680E+05-1.47224E+03 5.61159E+03 5.48654E+02-1.76051E-10-6.39602E-10
 -1       694 1.78976E+05 1.09034E+04 1.54708E+04-2.21074E+03-2.18950E-09 1.15688E-09
 -1       695 1.68838E+05-9.42831E+03 2.16854E+04 1.06505E+03-1.07241E-09-1.70530E-09
 -1       696-3.32657E+03 1.33500E+05 7.58694E+03 1.75496E+02 2.50111E-11-1.00865E-10
 -1       697 3.62310E+03 1.36733E+05 4.95482E+03-8.87224E+02 2.72848E-11-3.40879E-09
 -1       698-2.93297E+02 1.34907E+05 1.10703E+03 1.19308E+02-6.13795E-10-1.11684E-06
 -1       699-1.11419E+03 1.34536E+05-1.21894E+03-8.44925E+02-1.24692E-09-2.22533E-06
 -1       700 1.40706E+03 1.35697E+05-3.03170E+03 1.33196E+02-5.67752E-10-1.11775E-06
 -1       701-1.57395E+05-1.45602E+04-1.94460E+04-6.24361E+04-1.37203E-06 5.13992E-07
 -1       702-1.67775E+05-3.23222E+04-1.35026E+04-5.89164E+04-2.73130E-06 1.02513E-06
 -1       703-1.61355E+05-2.15654E+04-4.55935E+03-6.11245E+04-1.37049E-06 5.14933E-07
 -1       704-1.63163E+05-2.42203E+04-2.85195E+03-6.04375E+04-3.52856E-09 1.87609E-09
 -1       705-1.62006E+05-2.26569E+04-1.06739E+03-6.09167E+04 5.32623E-11 1.77351E-10
 -1       706-1.62386E+05-2.29822E+04-6.37726E+02-6.07003E+04 1.40489E-10-1.94831E-10
 -1       707-1.62132E+05-2.28027E+04-2.94844E+02-6.08619E+04 1.07221E-10 1.33753E-10
 -1       708-1.62227E+05-2.28656E+04-2.56777E+02-6.07906E+04 7.98250E-11 2.73133E-10
 -1       709-1.62165E+05-2.27735E+04-2.83176E+02-6.08263E+04 8.15454E-11 1.72165E-10
 -1       710-1.62263E+05-2.30805E+04-6.00925E+02-6.08316E+04 2.20211E-10 9.71170E-11
 -1       711-1.62097E+05-2.25879E+04-1.00196E+03-6.08209E+04 1.87470E-10 4.68958E-11
 -1       712-1.62917E+05-2.43146E+04-2.67322E+03-6.06708E+04-9.90667E-10 5.79917E-10
 -1       713-1.61511E+05-2.15401E+04-4.27310E+03-6.09870E+04-4.18147E-07 1.56369E-07
 -1       714-1.67221E+05-3.19258E+04-1.26537E+04-5.92671E+04-8.33554E-07 3.12389E-07
 -1       715-1.57794E+05-1.49816E+04-1.82235E+04-6.22231E+04-4.19065E-07 1.57312E-07
 -1       716-8.93120E+02-2.81945E+03 6.41817E+03 2.99409E+02 2.13646E-09-1.46565E-09
 -1       717 2.56347E+03 3.25769E+03 4.66186E+03-1.20632E+03 7.48482E-10-2.57842E-10
 -1       718 2.96773E+02-4.41352E+02 1.65373E+03 2.93163E+02 5.34854E-10 8.21956E-11
 -1       719 1.11681E+03 5.08372E+02 1.10863E+03-1.19828E+03 9.97034E-10 3.33031E-10
 -1       720 5.48981E+02-6.91570E+01 4.45825E+02 2.91355E+02 4.08740E-10 5.72925E-10
 -1       721 7.89253E+02 8.64167E+01 3.33532E+02-1.19552E+03 1.34143E-10-3.57144E-10
 -1       722 6.21223E+02-1.74939E+01 2.34579E+02 2.90402E+02 7.82165E-10 9.19223E-10
 -1       723 7.15469E+02 7.05387E+01 3.50524E+02-1.19419E+03 5.88919E-10-6.64677E-11
 -1       724 6.21042E+02-5.20631E+01 5.49235E+02 2.90028E+02 1.30331E-09 7.67557E-10
 -1       725 8.67185E+02 3.85272E+02 1.21707E+03-1.19387E+03 7.89863E-10-3.44471E-11
 -1       726 4.69161E+02-3.31770E+02 2.07604E+03 2.90082E+02 1.05296E-09 6.60975E-10
 -1       727 1.92071E+03 2.46432E+03 5.11806E+03-1.19492E+03 1.60230E-09-7.26914E-10
 -1       728-4.31386E+02-2.13030E+03 8.12507E+03 2.91074E+02 5.79639E-10 3.32420E-10
 -1       729 8.14101E+03 1.57369E+04 2.22637E+04-1.20594E+03 5.81654E-10 2.36241E-10
 -1       730-5.74734E+03-1.35950E+04 3.14072E+04 3.01097E+02 1.00560E-09 9.45874E-11
 -1       731-5.35348E+03 6.21528E+04 1.21780E+04-1.37128E+03-1.23373E-09-7.70285E-10
 -1       732 6.35645E+03 6.89178E+04 9.18410E+03 4.86189E+03 3.11957E-10 1.52909E-11
 -1       733-1.00755E+03 6.46477E+04 3.81891E+03-1.12095E+03-1.76215E-10-2.43098E-10
 -1       734 2.36285E+03 6.64678E+04 3.91895E+03 4.57101E+03-1.04887E-10-5.82943E-10
 -1       735-1.35258E+03 6.45879E+04 3.47891E+03-1.08039E+03 1.78488E-10-3.58238E-10
 -1       736-2.62965E+05-3.37738E+04-2.07507E+04-1.06312E+05 6.91534E-09-4.84306E-09
 -1       737-2.70766E+05-3.61452E+04-1.15458E+04-8.47539E+04 2.04246E-08 4.47517E-09
 -1       738-2.58093E+05-4.13680E+04-4.59186E+03-1.05791E+05 3.31545E-09 1.87144E-08
 -1       739-2.73833E+05-2.75629E+04-2.44219E+03-8.55495E+04-7.08566E-09-4.32283E-09
 -1       740-2.60001E+05-4.22725E+04-1.36981E+03-1.05600E+05 4.81333E-09-1.29907E-08
 -1       741-2.62361E+05-2.81876E+04 1.45712E+03-8.67614E+04-3.38241E-09-1.06573E-08
 -1       742-2.69414E+05-4.08553E+04-2.07824E+03-1.04461E+05-2.56409E-09 1.12573E-09
 -1       743-2.48010E+05-3.36940E+04 3.50367E+03-9.22840E+04-5.43082E-10 5.88136E-09
 -1       744-2.74206E+05-3.68768E+04-2.20894E+03-9.99672E+04-1.40460E-09-3.13571E-09
 -1       745-2.46402E+05-4.22169E+04 1.89564E+03-1.02664E+05 6.98560E-09 4.25556E-09
 -1       746-2.71134E+05-3.22482E+04-1.44290E+03-9.41686E+04 1.08449E-08 2.38377E-08
 -1       747-2.51778E+05-4.88172E+04-1.99108E+03-1.10102E+05 1.33525E-09 4.18265E-09
 -1       748-2.69007E+05-3.01428E+04-3.91625E+03-9.26620E+04 1.04332E-08 4.37421E-09
 -1       749-2.53479E+05-5.33286E+04-1.02097E+04-1.06222E+05-4.65579E-09 6.64943E-09
 -1       750-2.69367E+05-2.77928E+04-1.80986E+04-9.79966E+04-4.55702E-09-6.70479E-09
 -1       751 7.48272E+05-4.28936E+04 9.92868E+04 7.99035E+02-8.11384E-09 2.91038E-11
 -1       752 7.91336E+05 4.96605E+04 7.02395E+04-1.10031E+03-6.59739E-10-5.13865E-10
 -1       753 7.64891E+05-6.72379E+03 2.57118E+04 2.28234E+02-8.25919E-10 1.03682E-10
 -1       754 7.71990E+05 7.78152E+03 1.61714E+04-3.56239E+02-3.77963E-10 4.52701E-10
 -1       755 7.67633E+05-1.05193E+03 6.61788E+03 5.49953E+01-3.19178E-10 7.54881E-11
 -1       756 7.68801E+05 1.23289E+03 3.95613E+03-1.29910E+02 1.77587E-09-7.34190E-10
 -1       757 7.68086E+05-1.80220E+02 1.94393E+03 1.90279E+00 1.74978E-07 7.46923E-11
 -1       758 7.68326E+05 3.20274E+02 1.55510E+03-6.32479E+01 3.48443E-07 6.17444E-10
 -1       759 7.68110E+05-1.39917E+02 1.58164E+03-1.16684E+01 9.54290E-08 5.35607E-10
 -1       760 7.68615E+05 8.86306E+02 2.90804E+03-5.51715E+01-1.57085E-07 8.78572E-10
 -1       761 7.67797E+05-7.45859E+02 4.73148E+03-6.17377E+00-6.41030E-07-1.06866E-09
 -1       762 7.70859E+05 5.50538E+03 1.14622E+04-9.35772E+01-1.11938E-06 5.96629E-10
 -1       763 7.65860E+05-4.75542E+03 1.81943E+04 2.67380E+01-5.59808E-07 1.70348E-09
 -1       764 7.84520E+05 3.51164E+04 4.96712E+04-2.38530E+02-5.00506E-10 2.60479E-09
 -1       765 7.54122E+05-3.03314E+04 7.02072E+04 1.38776E+02-3.38377E-10 2.07365E-10
 -1       766-1.77755E+04 9.70382E+04 4.15151E+04 2.59997E+03 1.96269E-09-8.70841E-10
 -1       767 2.17362E+04 1.16259E+05 3.16090E+04-1.13969E+04 6.14273E-09-6.72644E-10
 -1       768-3.92447E+03 1.03363E+05 1.49846E+04 2.59066E+03 2.41016E-09 8.07731E-10
 -1       769 1.24951E+04 1.14642E+05 1.98335E+04-1.22128E+04 5.54849E-10-4.20670E-10
 -1       770-8.58749E+03 9.87204E+04 1.96641E+04 3.41591E+03-1.93086E-09-5.91172E-11
 -1       771-4.16777E+05-8.40685E+04-1.38590E+04-1.80895E+05-9.13133E-10-2.09184E-10
 -1       772-4.15506E+05-8.41225E+04-6.80463E+03-1.86907E+05 8.77662E-11-8.02629E-11
 -1       773-4.17330E+05-7.89174E+04-2.89134E+03-1.83105E+05-1.25419E-09 9.36780E-11
 -1       774-4.13934E+05-8.23771E+04-1.41306E+03-1.87301E+05-6.31189E-10-3.24917E-10
 -1       775-4.17428E+05-7.87108E+04-6.52175E+02-1.83207E+05-3.72256E-09 8.41624E-10
 -1       776-4.13832E+05-8.23101E+04-3.29767E+02-1.87324E+05-4.56203E-09 6.86344E-09
 -1       777-4.17461E+05-7.87093E+04-1.79570E+02-1.83216E+05 2.09457E-09 1.35857E-08
 -1       778-4.13833E+05-8.23065E+04-1.40866E+02-1.87334E+05-2.00998E-10 8.97614E-10
 -1       779-4.17474E+05-7.87018E+04-1.77818E+02-1.83222E+05-9.20409E-10 6.08793E-10
 -1       780-4.13853E+05-8.23035E+04-3.26287E+02-1.87348E+05-7.40783E-10 1.77806E-10
 -1       781-4.17467E+05-7.86876E+04-6.44148E+02-1.83224E+05-6.35964E-10 7.70797E-11
 -1       782-4.13968E+05-8.23731E+04-1.39944E+03-1.87360E+05-1.13459E-10-5.22959E-11
 -1       783-4.17401E+05-7.88676E+04-2.86023E+03-1.83125E+05-5.16422E-11 1.59616E-10
 -1       784-4.15454E+05-8.41967E+04-6.74191E+03-1.87105E+05-4.07908E-10-4.01087E-10
 -1       785-4.16959E+05-8.38731E+04-1.37232E+04-1.80846E+05 7.24185E-11 3.89264E-10
 -1       786 6.51580E+04-1.83671E+03 8.51288E+03-5.98904E+02 6.57678E-11-1.31422E-10
 -1       787 6.81824E+04 2.57731E+03 5.41415E+03-2.12830E+03-9.10347E-11-5.18412E-10
 -1       788 6.64302E+04-1.83771E+02 2.20386E+03-5.94033E+02-2.90925E-10-2.91038E-10
 -1       789 6.67696E+04 2.44648E+02 1.22266E+03-2.13280E+03-1.61421E-10-3.31397E-11
 -1       790 6.65703E+04-1.95857E+01 5.59305E+02-5.94353E+02-2.29295E-09-1.14824E-11
 -1       791 6.66115E+04 2.29240E+01 2.98914E+02-2.13226E+03-5.50088E-09 1.12493E-10
 -1       792 6.65880E+04-2.50646E+00 1.53708E+02-5.94569E+02-2.37308E-09 4.50470E-10
 -1       793 6.65921E+04 2.89906E+00 1.01948E+02-2.13213E+03-8.01155E-11-8.26361E-11
 -1       794 6.65896E+04-1.38320E+00 9.44387E+01-5.94483E+02-2.22073E-10-7.62270E-11
 -1       795 6.65978E+04 9.93951E+00 1.43295E+02-2.13270E+03-7.99290E-11 5.78433E-10
 -1       796 6.65825E+04-8.57848E+00 2.48311E+02-5.93999E+02-1.25624E-10-2.78106E-11
 -1       797 6.66657E+04 1.05391E+02 5.31147E+02-2.13346E+03-1.49498E-11 3.47121E-10
 -1       798 6.65222E+04-7.94745E+01 9.52666E+02-5.93721E+02-1.29148E-10-3.93527E-10
 -1       799 6.72756E+04 1.11186E+03 2.33715E+03-2.12831E+03-2.77623E-10-1.29603E-11
 -1       800 6.59733E+04-7.92887E+02 3.67364E+03-5.99182E+02 4.97380E-11 2.55113E-10
 -1       801-2.09496E+03 6.53676E+04 1.02170E+04-7.14665E+04-2.89992E-09 3.09228E-10
 -1       802 4.47179E+03 6.88814E+04 1.07120E+04-2.54351E+05-1.25419E-09-4.06999E-10
 -1       803-7.50701E+02 6.57101E+04 1.20980E+04-7.12239E+04-3.92629E-09 1.81845E-09
 -1       804 1.27834E+04 7.39480E+04 2.58473E+04-2.54343E+05-2.09002E-09-1.34742E-09
 -1       805-8.58937E+03 6.03325E+04 3.90411E+04-7.14752E+04-1.50249E-09 1.29330E-09
 -1       806-6.52696E+04-1.79268E+04-5.47450E+03-3.08189E+04-3.46176E-11 1.10049E-10
 -1       807-6.52357E+04-1.65722E+04-2.59438E+03-3.25557E+04-1.97645E-10 6.46935E-10
 -1       808-6.52345E+04-1.50979E+04-1.09032E+03-3.20050E+04-2.46587E-10 4.54747E-11
 -1       809-6.46938E+04-1.55779E+04-5.26533E+02-3.27907E+04-2.40675E-10 6.54609E-10
 -1       810-6.52469E+04-1.48995E+04-2.37729E+02-3.20931E+04 1.66267E-10-4.73449E-10
 -1       811-6.46396E+04-1.55104E+04-1.18900E+02-3.28009E+04 2.85297E-10-1.33355E-10
 -1       812-6.52512E+04-1.48930E+04-6.17054E+01-3.20973E+04 2.50395E-11 9.15179E-11
 -1       813-6.46339E+04-1.55084E+04-4.47299E+01-3.27997E+04 1.36644E-10-2.87173E-10
 -1       814-6.52513E+04-1.48937E+04-5.08852E+01-3.20971E+04-9.03242E-11 4.00178E-11
 -1       815-6.46377E+04-1.55104E+04-9.01753E+01-3.27998E+04-1.26050E-10 7.68523E-11
 -1       816-6.52474E+04-1.48990E+04-1.75934E+02-3.20937E+04-1.74396E-10-7.12816E-11
 -1       817-6.46785E+04-1.55588E+04-3.87725E+02-3.27902E+04 4.05635E-10 4.24961E-10
 -1       818-6.52368E+04-1.50469E+04-8.01790E+02-3.20303E+04-2.95586E-11 3.40833E-10
 -1       819-6.50886E+04-1.62774E+04-1.90718E+03-3.26028E+04-5.68434E-10 4.41105E-10
 -1       820-6.52501E+04-1.71367E+04-4.02385E+03-3.11705E+04-1.19144E-10-2.46985E-10
 -1       821-6.95897E+04 1.93739E+03-8.98197E+03 6.61687E+02-7.50219E-10-3.30147E-10
 -1       822-7.27794E+04-2.71929E+03-5.71265E+03 2.35487E+03-5.47004E-10-8.64475E-10
 -1       823-7.09322E+04 1.93667E+02-2.32615E+03 6.50366E+02 8.74934E-10-5.78666E-10
 -1       824-7.12902E+04-2.57434E+02-1.29161E+03 2.36804E+03-4.04015E-10 2.86491E-10
 -1       825-7.10802E+04 2.07702E+01-5.93579E+02 6.48462E+02-1.45303E-09-7.40641E-10
 -1       826-7.11245E+04-2.31393E+01-3.22361E+02 2.37090E+03-2.43051E-09-5.14135E-10
 -1       827-7.10988E+04 3.06698E+00-1.76053E+02 6.47492E+02-1.40270E-09-4.28457E-11
 -1       828-7.11059E+04-2.56889E+00-1.36148E+02 2.37249E+03-1.70689E-09-3.50994E-10
 -1       829-7.10994E+04 2.75996E+00-1.55420E+02 6.46865E+02 2.08104E-10-5.10332E-10
 -1       830-7.11204E+04-1.83808E+01-2.68275E+02 2.37318E+03 1.23332E-09-2.07336E-10
 -1       831-7.10846E+04 1.71930E+01-4.85376E+02 6.46807E+02-5.21574E-10-1.57570E-10
 -1       832-7.12552E+04-2.08528E+02-1.05122E+03 2.37262E+03-6.45443E-10-4.16790E-10
 -1       833-7.09645E+04 1.57817E+02-1.89101E+03 6.47431E+02-3.24448E-09-3.07864E-10
 -1       834-7.24659E+04-2.20904E+03-4.64287E+03 2.36634E+03-2.91207E-09-1.32400E-09
 -1       835-6.98736E+04 1.57501E+03-7.29934E+03 6.53203E+02-1.83388E-09-1.29830E-09
 -1       836-2.95599E+03 1.71442E+05 1.44750E+04-4.90666E+03-2.70120E-10 3.65617E-10
 -1       837 4.66284E+03 1.76688E+05 1.12317E+04-1.73850E+04 2.14300E-10 9.14042E-11
 -1       838-7.12220E+02 1.73131E+05 8.46004E+03-4.89220E+03-4.05066E-10-4.35637E-10
 -1       839 6.35159E+03 1.77711E+05 1.43038E+04-1.73851E+04 1.18234E-10 2.92545E-10
 -1       840-4.27130E+03 1.70417E+05 2.03268E+04-4.90643E+03-4.34738E-10 7.26459E-10
 -1       841-1.22455E+03 7.61135E+02-2.40293E+03-8.83996E+02 3.58966E-10 9.49285E-11
 -1       842-2.53304E+03-1.40853E+03-1.66795E+03-4.21022E+02-5.10546E-10 1.46059E-10
 -1       843-1.71479E+03-1.03538E+02-5.62646E+02-7.20982E+02 1.85167E-10-1.23919E-11
 -1       844-1.96350E+03-4.07123E+02-3.50464E+02-6.08824E+02 1.64019E-09-1.21563E-10
 -1       845-1.79401E+03-2.39622E+02-1.28121E+02-6.96450E+02 6.78781E-11-9.42357E-10
 -1       846-1.87090E+03-2.48771E+02-7.01237E+01-6.37033E+02-5.76934E-10 1.07596E-09
 -1       847-1.80738E+03-2.61792E+02-1.97708E+01-6.92813E+02-2.73361E-07 1.02140E-07
 -1       848-1.85217E+03-2.18247E+02 7.99390E+00-6.41884E+02-5.45655E-07 2.04667E-07
 -1       849-1.81275E+03-2.70127E+02 3.77497E+01-6.91608E+02-4.54165E-07 1.69946E-07
 -1       850-1.82700E+03-1.77690E+02 1.08690E+02-6.48551E+02-3.68931E-07 1.38519E-07
 -1       851-1.83255E+03-3.02327E+02 1.92473E+02-6.86154E+02-2.66012E-06 9.97613E-07
 -1       852-1.68864E+03 5.68178E+01 5.22469E+02-6.90706E+02-4.94652E-06 1.85487E-06
 -1       853-1.95108E+03-5.04494E+02 8.37307E+02-6.49505E+02-2.48022E-06 9.31426E-07
 -1       854-8.40133E+02 1.54579E+03 2.48177E+03-9.70757E+02-7.18943E-09 1.71474E-09
 -1       855-2.68091E+03-1.79033E+03 3.57466E+03-4.06460E+02-2.58865E-10 4.71118E-10
 -1       856-8.34576E+04 1.84765E+03-8.56818E+03 1.32965E+03-1.59059E-09-9.92713E-10
 -1       857-8.64987E+04-2.59176E+03-5.44887E+03 4.75912E+03-1.30308E-09-6.75755E-10
 -1       858-8.47386E+04 1.85025E+02-2.21867E+03 1.31112E+03-1.49612E-09-1.79625E-10
 -1       859-8.50801E+04-2.42681E+02-1.23108E+03 4.78127E+03-2.37605E-11-7.69774E-10
 -1       860-8.48801E+04 2.05532E+01-5.64501E+02 1.30738E+03 2.32546E-10-2.51475E-10
 -1       861-8.49231E+04-1.86709E+01-3.03874E+02 4.78633E+03-1.03705E-09-1.30768E-09
 -1       862-8.48982E+04 3.83676E+00-1.60859E+02 1.30603E+03 2.59973E-09-9.47935E-10
 -1       863-8.49050E+04 1.50413E+00-1.15322E+02 4.78798E+03 4.80378E-09-1.84880E-09
 -1       864-8.48994E+04 3.13644E+00-1.19923E+02 1.30572E+03 2.35958E-09-1.09603E-09
 -1       865-8.49142E+04-9.48609E+00-1.96468E+02 4.78738E+03 3.21866E-09-9.78602E-10
 -1       866-8.48887E+04 1.31776E+01-3.49756E+02 1.30664E+03-6.18741E-10-5.16366E-10
 -1       867-8.50094E+04-1.46094E+02-7.53746E+02 4.78387E+03-1.47529E-09-9.29496E-10
 -1       868-8.48024E+04 1.13387E+02-1.35482E+03 1.30924E+03 1.48407E-09-1.08076E-09
 -1       869-8.58742E+04-1.57932E+03-3.32469E+03 4.76543E+03-4.25189E-11-9.43373E-10
 -1       870-8.40208E+04 1.12743E+03-5.22738E+03 1.32518E+03 2.00976E-09-7.45786E-10
 -1       871-8.19946E+02-8.03259E+03-1.55450E+03 2.35594E+04-1.09230E-09 6.04587E-10
 -1       872-2.49888E+02-8.31196E+03-4.51942E+02 2.76561E+04-1.65460E-09-1.18098E-09
 -1       873 2.94261E+01-8.20212E+03 4.65657E+02 2.35136E+04-9.46102E-10 4.62825E-09
 -1       874 5.54326E+02-7.83030E+03 1.72639E+03 2.76760E+04-1.85935E-09 9.65847E-09
 -1       875 1.77588E+03-8.51940E+03 3.72001E+03 2.35403E+04-1.17689E-09 4.64303E-09
 -1       876 1.02036E+05 1.29652E+04 9.62626E+03 4.01032E+04 8.36621E-10 1.16552E-09
 -1       877 1.04173E+05 2.02145E+04 6.03495E+03 4.15444E+04 1.70520E-09-1.54728E-10
 -1       878 1.03674E+05 1.50557E+04 2.27154E+03 3.98954E+04-4.10580E-10-5.17616E-10
 -1       879 1.02287E+05 1.74438E+04 1.24161E+03 4.19380E+04-8.07631E-10-6.50431E-10
 -1       880 1.03855E+05 1.52761E+04 5.30200E+02 3.98813E+04 4.18538E-10 1.85068E-09
 -1       881 1.02079E+05 1.71601E+04 2.83297E+02 4.19653E+04 4.76120E-10-1.25188E-09
 -1       882 1.03876E+05 1.53008E+04 1.52086E+02 3.98820E+04-4.28358E-09-1.71592E-09
 -1       883 1.02058E+05 1.71333E+04 1.30960E+02 4.19647E+04-1.48836E-09-4.49827E-11
 -1       884 1.03875E+05 1.53007E+04 1.71833E+02 3.98824E+04 3.64874E-10-1.61150E-09
 -1       885 1.02087E+05 1.71653E+04 3.37738E+02 4.19630E+04 2.64353E-09-7.17080E-11
 -1       886 1.03848E+05 1.52718E+04 6.40962E+02 3.98826E+04 1.21739E-09 2.60383E-09
 -1       887 1.02342E+05 1.75084E+04 1.50632E+03 4.19277E+04 3.18963E-10 5.19833E-10
 -1       888 1.03627E+05 1.50049E+04 2.75756E+03 3.99003E+04 2.34067E-10-1.86310E-09
 -1       889 1.04631E+05 2.08742E+04 7.32791E+03 4.14506E+04 2.33534E-10 2.60002E-10
 -1       890 1.01639E+05 1.24649E+04 1.16886E+04 4.01504E+04 1.13801E-09 1.80898E-09
 -1       891 3.58848E+02-4.57914E+04-1.79622E+03 5.59037E+03-1.84116E-09 1.44109E-09
 -1       892-5.90798E+02-4.64357E+04-1.43150E+03 1.98872E+04-2.64629E-09 5.15683E-10
 -1       893 9.43079E+01-4.59936E+04-1.13996E+03 5.56924E+03 2.55511E-10 6.85467E-09
 -1       894-9.08700E+02-4.66277E+04-2.00934E+03 1.98858E+04-3.00361E-10 1.38933E-08
 -1       895 6.05965E+02-4.55985E+04-2.89691E+03 5.59174E+03-2.66937E-10 9.32414E-09
 -1       896 2.13918E+05-1.56461E+03 3.61813E+03 1.63664E+02 2.53834E-10 4.82714E-10
 -1       897 2.15481E+05 1.81117E+03 2.56340E+03-2.81558E+02 1.60182E-10 3.84460E-10
 -1       898 2.14526E+05-2.45238E+02 9.40204E+02 8.52315E+01-9.92104E-11 2.21064E-10
 -1       899 2.14772E+05 2.84248E+02 5.97049E+02-1.59401E+02 2.02904E-10 1.95513E-10
 -1       900 2.14627E+05-3.88349E+01 2.55107E+02 4.15053E+01 1.49053E-10 7.34843E-11
 -1       901 2.14657E+05 4.88080E+01 1.74332E+02-9.07147E+01 1.05405E-10-1.92379E-12
 -1       902 2.14642E+05-9.95425E+00 1.27156E+02 1.65440E+01 2.65904E-10 3.49210E-11
 -1       903 2.14652E+05 3.72406E+01 1.80749E+02-5.05836E+01 4.88108E-10 1.16849E-11
 -1       904 2.14632E+05-2.72723E+01 2.82485E+02 1.37337E+00-2.29035E-11-4.87574E-11
 -1       905 2.14737E+05 1.97681E+02 6.23667E+02-2.46218E+01-6.91441E-11-9.22711E-11
 -1       906 2.14557E+05-1.70290E+02 1.06406E+03-9.41826E+00 3.14901E-10-1.60071E-10
 -1       907 2.15255E+05 1.26146E+03 2.61639E+03-3.53142E+00 9.77717E-11 5.26086E-11
 -1       908 2.14113E+05-1.09025E+03 4.16456E+03-1.97173E+01 1.57237E-10-1.39607E-10
 -1       909 2.18388E+05 8.05164E+03 1.13836E+04 2.05949E+01 7.34447E-10-2.60002E-10
 -1       910 2.11423E+05-6.95489E+03 1.60902E+04-3.35442E+01 8.58266E-10-1.85537E-10
 -1       911 4.19658E+04-3.75585E+02 8.32183E+02-3.37550E+02 3.97968E-10 6.37044E-10
 -1       912 4.25141E+04 4.33483E+02 6.23708E+02 1.38497E+03 3.27830E-10 1.18803E-09
 -1       913 4.21670E+04-5.76802E+01 2.18598E+02-2.76336E+02 6.75392E-10 1.43460E-09
 -1       914 4.22661E+04 6.73930E+01 1.48541E+02 1.29831E+03 5.19276E-10 1.98321E-09
 -1       915 4.22119E+04-8.37956E+00 6.93034E+01-2.50894E+02-1.00937E-09 1.85804E-09
 -1       916 4.22258E+04 1.31236E+01 6.12597E+01 1.28161E+03-1.96227E-09 2.26920E-09
 -1       917 4.22069E+04-3.19221E+00 6.58264E+01-2.59629E+02-1.24769E-09 1.84259E-09
 -1       918 4.22790E+04 2.31403E+01 1.33221E+02 1.33367E+03-2.17796E-10 1.94129E-09
 -1       919 4.21598E+04-1.92168E+01 2.06073E+02-3.02959E+02-3.03181E-10 1.01699E-09
 -1       920 4.24667E+04 1.50360E+02 5.19153E+02 1.45807E+03-2.48377E-10 6.64016E-10
 -1       921 4.20222E+04-1.32453E+02 8.13861E+02-3.84031E+02 6.76650E-10-3.92561E-10
 -1       922 4.31039E+04 9.91805E+02 2.13985E+03 1.66424E+03 1.88163E-09-1.33855E-09
 -1       923 4.15282E+04-8.64023E+02 3.23425E+03-5.09139E+02 1.05223E-09-2.40470E-09
 -1       924 4.59929E+04 6.39564E+03 9.15201E+03 1.97812E+03 2.83381E-09-3.95084E-09
 -1       925 3.91431E+04-5.53877E+03 1.25925E+04-6.97955E+02 2.56875E-09-5.54428E-09
 -1       926-2.39276E+05 5.35809E+03-1.24012E+04 2.24259E+03-1.27695E-09-7.20502E-09
 -1       927-2.44471E+05-6.19022E+03-8.73574E+03-3.74118E+03 8.30383E-09-7.68705E-09
 -1       928-2.41575E+05 8.34031E+02-3.24922E+03 1.84062E+03-1.09750E-09-5.67411E-09
 -1       929-2.41436E+05-9.47071E+02-1.85010E+03-2.32699E+03-6.13806E-09-5.61658E-09
 -1       930-2.42293E+05 1.06700E+02-9.25076E+02 8.28323E+02-6.65807E-10-2.76611E-09
 -1       931-2.40617E+05-1.14186E+02-2.09412E+02-4.77486E+01-2.44114E-10-1.31175E-09
 -1       932-2.42384E+05-6.56358E+00-2.88752E+02-4.38634E+02 1.98327E-10 1.00188E-09
 -1       933-2.40868E+05 1.71178E+01 1.54995E+02 2.28734E+03-1.14089E-09 2.85346E-09
 -1       934-2.42050E+05-1.79361E+01 6.31337E+01-1.50675E+03-5.90703E-10 3.99915E-09
 -1       935-2.41446E+05 1.19888E+02 4.05359E+02 3.84261E+03 1.84652E-09 5.62318E-09
 -1       936-2.41823E+05-9.63865E+01 6.55642E+02-1.99397E+03-6.88679E-10 5.44492E-09
 -1       937-2.41235E+05 7.93570E+02 1.65891E+03 4.06288E+03 3.55210E-09 6.19616E-09
 -1       938-2.42264E+05-6.88742E+02 2.57978E+03-1.72704E+03 5.04416E-09 4.32590E-09
 -1       939-2.38687E+05 5.11639E+03 7.29475E+03 2.87400E+03 2.80357E-09 4.20380E-09
 -1       940-2.44354E+05-4.42695E+03 9.98445E+03-8.05020E+02-3.61979E-10 1.75442E-09
 -1       941 1.22105E+06-6.12960E+04 1.41953E+05 9.70848E+01-8.23927E-08 9.09495E-10
 -1       942 1.28250E+06 7.09703E+04 1.00398E+05 2.18819E+01-1.72433E-07-1.14414E-09
 -1       943 1.24477E+06-9.61029E+03 3.67674E+04 7.00633E+01-1.51316E-07 9.27685E-11
 -1       944 1.25490E+06 1.11230E+04 2.31290E+04 5.44100E+01-1.27945E-07-6.78483E-10
 -1       945 1.24869E+06-1.50418E+03 9.47898E+03 6.45634E+01-8.36866E-08 1.00954E-09
 -1       946 1.25035E+06 1.76632E+03 5.68850E+03 6.08325E+01-3.71447E-08 1.84070E-09
 -1       947 1.24934E+06-2.61051E+02 2.83787E+03 6.36419E+01 1.61203E-08 1.06456E-09
 -1       948 1.24968E+06 4.83591E+02 2.34997E+03 6.08467E+01 7.21261E-08 8.25665E-10
 -1       949 1.24936E+06-2.22327E+02 2.48977E+03 6.45494E+01 2.46979E-07-1.97360E-09
 -1       950 1.25017E+06 1.43337E+03 4.68163E+03 5.45796E+01 4.23203E-07 1.53045E-09
 -1       951 1.24885E+06-1.21018E+03 7.66662E+03 6.99090E+01 1.09641E-06-2.41425E-09
 -1       952 1.25382E+06 8.93696E+03 1.86063E+04 2.37881E+01 1.76447E-06-5.70253E-10
 -1       953 1.24570E+06-7.72003E+03 2.95465E+04 9.53402E+01 8.82487E-07 1.37334E-09
 -1       954 1.27599E+06 5.70094E+04 8.06529E+04-1.23431E+02 2.66962E-09 5.05679E-10
 -1       955 1.22664E+06-4.92387E+04 1.14016E+05 2.17117E+02-6.64077E-09 6.25732E-10
 -1       956-6.29474E+04-1.11153E+03-2.36546E+03 8.54533E+03-1.12254E-09 7.71252E-10
 -1       957-6.33823E+04-3.55770E+02-1.19594E+03 9.95253E+03-3.38332E-10 6.71889E-11
 -1       958-6.31401E+04-4.15858E+01-5.37763E+02 8.49461E+03 7.69660E-10-5.58998E-10
 -1       959-6.31781E+04-8.86550E+00-2.73730E+02 1.00081E+04-6.16751E-10-9.85892E-10
 -1       960-6.31589E+04 6.66152E+00-1.32775E+02 8.48959E+03-1.40903E-09-8.09450E-10
 -1       961-6.31612E+04 6.27185E+00-6.99919E+01 1.00136E+04-2.56148E-09 1.89630E-10
 -1       962-6.31625E+04 6.16115E+00-3.91627E+01 8.48907E+03-9.04834E-10 8.29914E-12
 -1       963-6.31602E+04 6.45962E+00-2.99278E+01 1.00143E+04-1.13351E-09 1.98611E-10
 -1       964-6.31634E+04 6.41856E+00-3.44139E+01 8.48894E+03-2.34593E-10-1.39380E-10
 -1       965-6.31624E+04 7.01614E+00-5.79145E+01 1.00142E+04 1.62087E-09-9.35358E-10
 -1       966-6.31618E+04 7.51420E+00-1.07802E+02 8.48921E+03-7.25038E-11-3.57204E-10
 -1       967-6.31774E+04-4.45876E+00-2.21300E+02 1.00112E+04 4.72028E-10-1.24487E-10
 -1       968-6.31477E+04-3.07469E+01-4.34176E+02 8.49192E+03 4.61978E-09-2.70688E-10
 -1       969-6.33435E+04-2.83913E+02-9.65553E+02 9.98110E+03 9.95465E-09-6.62112E-10
 -1       970-6.29930E+04-8.94168E+02-1.90955E+03 8.51954E+03 5.05281E-09-6.20730E-11
 -1       971-1.20105E+05 1.51662E+03-7.03550E+03 1.34373E+03-1.23805E-09-3.10592E-10
 -1       972-1.22597E+05-2.12779E+03-4.47439E+03 4.82819E+03-1.56933E-09 3.92220E-11
 -1       973-1.21157E+05 1.51778E+02-1.82310E+03 1.32234E+03-1.63789E-09-3.09910E-10
 -1       974-1.21433E+05-1.98750E+02-1.01350E+03 4.85472E+03 3.78577E-10-3.15936E-10
 -1       975-1.21273E+05 1.69680E+01-4.69012E+02 1.31710E+03 2.68130E-10-6.14961E-10
 -1       976-1.21305E+05-1.46784E+01-2.60688E+02 4.86219E+03-2.40422E-09 2.03585E-10
 -1       977-1.21288E+05 3.55909E+00-1.54143E+02 1.31486E+03 2.40425E-09-1.43316E-09
 -1       978-1.21293E+05 8.25333E-01-1.40146E+02 4.86516E+03 5.46731E-09-1.06589E-09
 -1       979-1.21287E+05 4.33548E+00-1.87088E+02 1.31413E+03 3.56280E-09-1.10207E-09
 -1       980-1.21313E+05-2.14727E+01-3.47357E+02 4.86492E+03 4.14204E-09-1.58908E-10
 -1       981-1.21267E+05 2.35513E+01-6.42012E+02 1.31510E+03 8.01663E-10-9.26974E-10
 -1       982-1.21493E+05-2.75451E+02-1.39861E+03 4.86083E+03 1.52968E-09-3.65532E-10
 -1       983-1.21106E+05 2.10634E+02-2.51953E+03 1.31825E+03 3.79043E-09-1.20212E-09
 -1       984-1.23105E+05-2.94278E+03-6.18804E+03 4.84138E+03 1.32820E-09 5.00222E-11
 -1       985-1.19652E+05 2.09920E+03-9.72976E+03 1.33473E+03 1.48657E-09-8.70841E-10
 -3
    1PSTEP                        15           8           1          
  100CL  108 1.84326E-01         841                     0    8           1
 -4  DISP        4    1
 -5  D1          1    2    1    0
 -5  D2          1    2    2    0
 -5  D3          1    2    3    0
 -5  ALL         1    2    0    0    1ALL
 -1         1 2.29291E-05 0.00000E+00 0.00000E+00
 -1         2 1.70264E-05 0.00000E+00 0.00000E+00
 -1         3 1.42323E-05 0.00000E+00 0.00000E+00
 -1         4 1.25432E-05 0.00000E+00 0.00000E+00
 -1         5 1.17476E-05 0.00000E+00 0.00000E+00
 -1         8 1.81042E-05-2.28657E-07 0.00000E+00
 -1         9 1.41699E-05 1.33956E-07 0.00000E+00
 -1        10 1.34194E-05-5.38870E-07 0.00000E+00
 -1        11 1.23957E-05-1.04389E-07 0.00000E+00
 -1        12 1.13616E-05 2.74066E-07 0.00000E+00
 -1        15 7.91612E-06-4.71149E-07 0.00000E+00
 -1        16 1.06638E-05 1.25409E-07 0.00000E+00
 -1        17 9.79166E-06-1.09013E-06 0.00000E+00
 -1        18 9.85081E-06-2.07506E-07 0.00000E+00
 -1        19 1.03151E-05 5.43714E-07 0.00000E+00
 -1        20 1.04700E-05 5.83757E-06 0.00000E+00
 -1        21 1.04653E-05 1.39464E-05 0.00000E+00
 -1        22 3.02385E-06-3.17158E-07 0.00000E+00
 -1        23 4.13799E-06 4.31219E-07 0.00000E+00
 -1        24 4.02963E-06-1.30363E-06 0.00000E+00
 -1        25 8.78398E-06-1.35727E-07 0.00000E+00
 -1        26 9.19533E-06 7.21680E-07 0.00000E+00
 -1        27 8.75490E-06 5.62730E-06 0.00000E+00
 -1        28 8.22566E-06 1.37466E-05 0.00000E+00
 -1        29 0.00000E+00 0.00000E+00 0.00000E+00
 -1        30 1.32156E-06 5.81311E-07 0.00000E+00
 -1        31 1.49134E-06-1.11665E-06 0.00000E+00
 -1        32 0.00000E+00 0.00000E+00 0.00000E+00
 -1        33 7.74412E-06 1.11936E-06 0.00000E+00
 -1        34 7.34901E-06 5.60713E-06 0.00000E+00
 -1        35 6.59227E-06 1.36395E-05 0.00000E+00
 -1        36 2.25720E-05-1.22923E-19 6.61744E-24
 -1        37 2.22032E-05-3.74680E-19 0.00000E+00
 -1        38 2.18351E-05-6.02645E-19 1.32349E-23
 -1        39 2.14647E-05-6.96319E-19-6.61744E-24
 -1        40 2.10943E-05-7.22583E-19 0.00000E+00
 -1        41 2.07234E-05-6.18616E-19 0.00000E+00
 -1        42 2.03525E-05-3.76271E-19-1.32349E-23
 -1        43 1.99815E-05-2.66351E-20 0.00000E+00
 -1        44 1.96105E-05 2.68405E-19-1.32349E-23
 -1        45 1.92395E-05 4.29553E-19-6.61744E-24
 -1        46 1.88686E-05 5.02433E-19 0.00000E+00
 -1        47 1.84979E-05 4.38671E-19 0.00000E+00
 -1        48 1.81273E-05 2.98447E-19 1.32349E-23
 -1        49 1.77581E-05 1.56499E-19 0.00000E+00
 -1        50 1.73885E-05 3.52261E-20-6.61744E-24
 -1        51 2.25621E-05-3.90595E-08 0.00000E+00
 -1        52 2.19572E-05-7.63908E-08 0.00000E+00
 -1        53 2.11604E-05-1.13383E-07 0.00000E+00
 -1        54 2.02202E-05-1.50539E-07 0.00000E+00
 -1        55 1.91852E-05-1.88371E-07 1.34417E-24
 -1        56 2.24693E-05-1.76726E-07 6.61744E-24
 -1        57 2.19944E-05-3.63640E-07 6.61744E-24
 -1        58 2.15192E-05-5.46959E-07 0.00000E+00
 -1        59 2.10372E-05-7.20895E-07-6.61744E-24
 -1        60 2.05486E-05-8.77407E-07 0.00000E+00
 -1        61 2.00503E-05-1.00981E-06 6.61744E-24
 -1        62 1.95405E-05-1.11162E-06 0.00000E+00
 -1        63 1.90169E-05-1.17685E-06 0.00000E+00
 -1        64 1.84775E-05-1.20014E-06 1.32349E-23
 -1        65 1.79207E-05-1.17656E-06-6.61744E-24
 -1        66 1.73448E-05-1.10208E-06 0.00000E+00
 -1        67 1.67490E-05-9.73054E-07 6.61744E-24
 -1        68 1.61320E-05-7.87139E-07-1.32349E-23
 -1        69 1.54956E-05-5.41469E-07 0.00000E+00
 -1        70 1.48360E-05-2.36597E-07 0.00000E+00
 -1        71 1.68511E-05-3.25239E-20 6.61744E-24
 -1        72 1.66761E-05-2.57874E-20-3.30872E-24
 -1        73 1.65010E-05 4.67269E-20-6.61744E-24
 -1        74 1.63261E-05 1.62167E-19 0.00000E+00
 -1        75 1.61511E-05 2.62529E-19-6.61744E-24
 -1        76 1.59762E-05 3.83836E-19 0.00000E+00
 -1        77 1.58012E-05 4.25496E-19-6.61744E-24
 -1        78 1.56263E-05 4.33576E-19 0.00000E+00
 -1        79 1.54513E-05 3.53776E-19 6.61744E-24
 -1        80 1.52764E-05 2.25499E-19 0.00000E+00
 -1        81 1.51016E-05 1.38807E-19 0.00000E+00
 -1        82 1.49268E-05 5.13069E-20-3.30872E-24
 -1        83 1.47520E-05-2.99144E-20-6.61744E-24
 -1        84 1.45779E-05-3.13619E-20 3.30872E-24
 -1        85 1.44035E-05-1.70113E-20 0.00000E+00
 -1        86 1.69061E-05 1.62532E-08 3.30872E-24
 -1        87 1.65471E-05 4.06789E-08 0.00000E+00
 -1        88 1.60229E-05 6.44657E-08-4.13590E-25
 -1        89 1.54067E-05 8.88851E-08 2.06795E-25
 -1        90 1.47664E-05 1.13662E-07 0.00000E+00
 -1        91 1.67872E-05 5.07238E-09 6.61744E-24
 -1        92 1.64849E-05 1.75091E-07 0.00000E+00
 -1        93 1.61493E-05 4.33881E-07 6.61744E-24
 -1        94 1.58093E-05 7.03910E-07-3.30872E-24
 -1        95 1.54959E-05 9.03233E-07 6.61744E-24
 -1        96 1.52395E-05 9.50477E-07 3.30872E-24
 -1        97 1.50455E-05 8.31278E-07 6.61744E-24
 -1        98 1.49186E-05 5.32809E-07 3.30872E-24
 -1        99 1.48333E-05 1.23660E-07 6.61744E-24
 -1       100 1.47634E-05-3.26524E-07 3.30872E-24
 -1       101 1.46759E-05-7.29869E-07 0.00000E+00
 -1       102 1.45383E-05-9.98862E-07 3.30872E-24
 -1       103 1.43402E-05-1.10645E-06-6.61744E-24
 -1       104 1.40728E-05-1.02671E-06-3.30872E-24
 -1       105 1.37568E-05-8.18343E-07 0.00000E+00
 -1       106 1.41269E-05 1.22295E-19-3.30872E-24
 -1       107 1.40212E-05 4.43456E-19 0.00000E+00
 -1       108 1.39154E-05 8.62460E-19 0.00000E+00
 -1       109 1.38096E-05 1.36666E-18 0.00000E+00
 -1       110 1.37038E-05 1.89987E-18 0.00000E+00
 -1       111 1.35980E-05 2.39664E-18 1.65436E-24
 -1       112 1.34922E-05 2.80564E-18 0.00000E+00
 -1       113 1.33864E-05 3.00484E-18 0.00000E+00
 -1       114 1.32806E-05 2.95398E-18 3.30872E-24
 -1       115 1.31748E-05 2.65364E-18 0.00000E+00
 -1       116 1.30690E-05 2.15621E-18 3.30872E-24
 -1       117 1.29633E-05 1.51219E-18-1.65436E-24
 -1       118 1.28576E-05 8.91385E-19 0.00000E+00
 -1       119 1.27522E-05 4.12122E-19 0.00000E+00
 -1       120 1.26468E-05 1.03085E-19 0.00000E+00
 -1       121 1.42287E-05-9.00379E-08 0.00000E+00
 -1       122 1.41969E-05-1.79768E-07-1.65436E-24
 -1       123 1.41184E-05-2.69508E-07-3.30872E-24
 -1       124 1.39749E-05-3.59233E-07-1.65436E-24
 -1       125 1.37480E-05-4.48963E-07 0.00000E+00
 -1       126 1.41825E-05-1.78963E-07 0.00000E+00
 -1       127 1.42374E-05-6.38272E-07 0.00000E+00
 -1       128 1.43696E-05-1.30396E-06-3.30872E-24
 -1       129 1.45510E-05-2.10125E-06-1.65436E-24
 -1       130 1.47418E-05-2.92339E-06 0.00000E+00
 -1       131 1.49018E-05-3.66357E-06 1.65436E-24
 -1       132 1.49988E-05-4.23536E-06 0.00000E+00
 -1       133 1.50007E-05-4.55312E-06 1.65436E-24
 -1       134 1.48978E-05-4.59149E-06-3.30872E-24
 -1       135 1.46811E-05-4.32645E-06-1.65436E-24
 -1       136 1.43687E-05-3.80629E-06 0.00000E+00
 -1       137 1.39790E-05-3.08045E-06 0.00000E+00
 -1       138 1.35491E-05-2.24758E-06 3.30872E-24
 -1       139 1.31165E-05-1.40669E-06 0.00000E+00
 -1       140 1.27189E-05-6.58991E-07 3.30872E-24
 -1       141 1.24927E-05-4.58658E-20 0.00000E+00
 -1       142 1.24426E-05-1.09591E-19 0.00000E+00
 -1       143 1.23924E-05-1.42986E-19 0.00000E+00
 -1       144 1.23422E-05-1.48090E-19 0.00000E+00
 -1       145 1.22921E-05-1.47308E-19 0.00000E+00
 -1       146 1.22420E-05-1.23078E-19 8.27181E-25
 -1       147 1.21919E-05-9.35736E-20 0.00000E+00
 -1       148 1.21418E-05-8.38205E-20-8.27181E-25
 -1       149 1.20917E-05-4.42499E-20 0.00000E+00
 -1       150 1.20416E-05-1.71406E-20 0.00000E+00
 -1       151 1.19915E-05-1.16220E-20 1.65436E-24
 -1       152 1.19416E-05-2.96912E-20 8.27181E-25
 -1       153 1.18918E-05-4.20554E-20 8.27181E-25
 -1       154 1.18426E-05-2.30872E-20 0.00000E+00
 -1       155 1.17932E-05-7.86152E-21-1.03398E-25
 -1       156 1.25867E-05-1.83837E-08-8.27181E-25
 -1       157 1.27151E-05-3.51667E-08 4.13590E-25
 -1       158 1.28437E-05-5.20704E-08 0.00000E+00
 -1       159 1.28878E-05-6.89907E-08 0.00000E+00
 -1       160 1.27656E-05-8.57921E-08-1.65436E-24
 -1       161 1.24861E-05-2.86034E-08 0.00000E+00
 -1       162 1.24336E-05-6.97183E-08 8.27181E-25
 -1       163 1.23838E-05-1.18071E-07 0.00000E+00
 -1       164 1.23348E-05-1.68389E-07 0.00000E+00
 -1       165 1.22843E-05-2.14901E-07 1.65436E-24
 -1       166 1.22302E-05-2.51852E-07 0.00000E+00
 -1       167 1.21710E-05-2.75215E-07 0.00000E+00
 -1       168 1.21053E-05-2.81003E-07-8.27181E-25
 -1       169 1.20323E-05-2.67591E-07 0.00000E+00
 -1       170 1.19516E-05-2.33395E-07 0.00000E+00
 -1       171 1.18636E-05-1.79816E-07 0.00000E+00
 -1       172 1.17691E-05-1.08256E-07 0.00000E+00
 -1       173 1.16693E-05-2.27222E-08 0.00000E+00
 -1       174 1.15665E-05 7.30815E-08 0.00000E+00
 -1       175 1.14618E-05 1.73278E-07-4.13590E-25
 -1       191 1.17346E-05 4.56461E-08 0.00000E+00
 -1       192 1.17004E-05 9.13476E-08 0.00000E+00
 -1       193 1.16456E-05 1.37061E-07 0.00000E+00
 -1       194 1.15704E-05 1.82771E-07-8.27181E-25
 -1       195 1.14756E-05 2.28459E-07 0.00000E+00
 -1       251 1.78644E-05 7.39054E-07 0.00000E+00
 -1       252 1.76181E-05 1.92465E-06 0.00000E+00
 -1       253 1.73724E-05 2.96354E-06 6.61744E-24
 -1       254 1.71259E-05 3.49267E-06 3.30872E-24
 -1       255 1.68795E-05 3.38425E-06 0.00000E+00
 -1       256 1.66325E-05 2.51749E-06 3.30872E-24
 -1       257 1.63849E-05 1.12137E-06-6.61744E-24
 -1       258 1.61369E-05-5.69356E-07 0.00000E+00
 -1       259 1.58889E-05-2.18406E-06 0.00000E+00
 -1       260 1.56416E-05-3.35290E-06 0.00000E+00
 -1       261 1.53948E-05-3.91171E-06 6.61744E-24
 -1       262 1.51484E-05-3.70303E-06-3.30872E-24
 -1       263 1.49017E-05-2.92336E-06-6.61744E-24
 -1       264 1.46559E-05-1.77547E-06 0.00000E+00
 -1       265 1.44097E-05-6.32129E-07 6.61744E-24
 -1       266 1.70490E-05-2.70532E-07-1.65436E-24
 -1       267 1.55946E-05-3.10602E-07 0.00000E+00
 -1       268 1.38441E-05-3.51255E-07 1.65436E-24
 -1       269 1.19011E-05-3.91575E-07-4.13590E-25
 -1       270 9.88521E-06-4.32097E-07 0.00000E+00
 -1       271 1.74361E-05 3.73527E-07 0.00000E+00
 -1       272 1.68263E-05 7.80568E-07 0.00000E+00
 -1       273 1.62796E-05 1.02041E-06 1.32349E-23
 -1       274 1.57850E-05 1.11595E-06 0.00000E+00
 -1       275 1.53349E-05 1.09199E-06-1.32349E-23
 -1       276 1.49200E-05 9.73129E-07 0.00000E+00
 -1       277 1.45312E-05 7.84430E-07 0.00000E+00
 -1       278 1.41591E-05 5.51139E-07 0.00000E+00
 -1       279 1.37942E-05 2.98664E-07 0.00000E+00
 -1       280 1.34269E-05 5.24940E-08 6.61744E-24
 -1       281 1.30479E-05-1.61932E-07 0.00000E+00
 -1       282 1.26477E-05-3.19233E-07 0.00000E+00
 -1       283 1.22170E-05-3.94316E-07 0.00000E+00
 -1       284 1.17478E-05-3.61817E-07 6.61744E-24
 -1       285 1.12290E-05-1.98012E-07 0.00000E+00
 -1       286 1.41210E-05 6.31199E-07 0.00000E+00
 -1       287 1.40742E-05 9.75277E-07-8.27181E-25
 -1       288 1.40272E-05 1.16855E-06 1.65436E-24
 -1       289 1.39807E-05 1.21368E-06 8.27181E-25
 -1       290 1.39341E-05 1.12803E-06-1.65436E-24
 -1       291 1.38876E-05 9.29235E-07 0.00000E+00
 -1       292 1.38411E-05 6.46137E-07 1.65436E-24
 -1       293 1.37946E-05 3.07752E-07 0.00000E+00
 -1       294 1.37481E-05-5.14244E-08-1.65436E-24
 -1       295 1.37016E-05-3.96848E-07-8.27181E-25
 -1       296 1.36550E-05-6.95351E-07-1.65436E-24
 -1       297 1.36085E-05-9.13849E-07 8.27181E-25
 -1       298 1.35619E-05-1.02719E-06-1.65436E-24
 -1       299 1.35150E-05-1.01045E-06 0.00000E+00
 -1       300 1.34682E-05-8.51585E-07-1.65436E-24
 -1       301 1.35846E-05 1.30008E-07-1.65436E-24
 -1       302 1.29956E-05 1.30163E-07 0.00000E+00
 -1       303 1.24060E-05 1.31000E-07 8.27181E-25
 -1       304 1.18188E-05 1.31673E-07 0.00000E+00
 -1       305 1.12371E-05 1.31309E-07 0.00000E+00
 -1       306 1.37370E-05 5.03003E-07-6.61744E-24
 -1       307 1.33673E-05 6.81311E-07 3.30872E-24
 -1       308 1.30584E-05 6.98428E-07 0.00000E+00
 -1       309 1.27985E-05 5.81239E-07 0.00000E+00
 -1       310 1.25785E-05 3.57697E-07-6.61744E-24
 -1       311 1.23876E-05 5.56738E-08-3.30872E-24
 -1       312 1.22155E-05-2.96708E-07 6.61744E-24
 -1       313 1.20518E-05-6.71255E-07 3.30872E-24
 -1       314 1.18857E-05-1.03970E-06-6.61744E-24
 -1       315 1.17068E-05-1.37379E-06 0.00000E+00
 -1       316 1.15046E-05-1.64537E-06-6.61744E-24
 -1       317 1.12686E-05-1.82640E-06-3.30872E-24
 -1       318 1.09885E-05-1.88912E-06 0.00000E+00
 -1       319 1.06549E-05-1.80561E-06-3.30872E-24
 -1       320 1.02563E-05-1.54927E-06 0.00000E+00
 -1       321 1.33541E-05-2.08390E-07 0.00000E+00
 -1       322 1.32900E-05 3.54762E-09 0.00000E+00
 -1       323 1.32259E-05 1.00397E-07 0.00000E+00
 -1       324 1.31620E-05 8.59447E-08-8.27181E-25
 -1       325 1.30981E-05-2.10457E-08-1.65436E-24
 -1       326 1.30342E-05-2.01546E-07 0.00000E+00
 -1       327 1.29703E-05-4.26643E-07 0.00000E+00
 -1       328 1.29064E-05-6.67288E-07 8.27181E-25
 -1       329 1.28426E-05-8.92343E-07 0.00000E+00
 -1       330 1.27787E-05-1.07072E-06 8.27181E-25
 -1       331 1.27149E-05-1.17760E-06 0.00000E+00
 -1       332 1.26510E-05-1.18838E-06 0.00000E+00
 -1       333 1.25872E-05-1.09138E-06 1.65436E-24
 -1       334 1.25234E-05-8.75221E-07 8.27181E-25
 -1       335 1.24595E-05-5.44565E-07 1.65436E-24
 -1       336 1.29701E-05-6.31123E-07 3.30872E-24
 -1       337 1.24276E-05-7.23316E-07 1.65436E-24
 -1       338 1.18151E-05-8.15512E-07-3.30872E-24
 -1       339 1.11560E-05-9.07512E-07-1.65436E-24
 -1       340 1.04738E-05-9.99539E-07 0.00000E+00
 -1       341 1.20164E-05 2.80284E-06 0.00000E+00
 -1       342 8.33142E-06 1.21149E-05-1.65436E-24
 -1       343 3.02201E-06 2.56215E-05 0.00000E+00
 -1       344-3.22725E-06 4.15296E-05 0.00000E+00
 -1       345-9.44576E-06 5.73588E-05 0.00000E+00
 -1       346-1.46632E-05 7.06289E-05 0.00000E+00
 -1       347-1.82145E-05 7.95928E-05 3.30872E-24
 -1       348-1.94623E-05 8.25203E-05-1.65436E-24
 -1       349-1.84435E-05 7.94028E-05 0.00000E+00
 -1       350-1.52074E-05 7.02661E-05 0.00000E+00
 -1       351-1.04221E-05 5.68636E-05-3.30872E-24
 -1       352-4.74560E-06 4.09794E-05 1.65436E-24
 -1       353 9.22112E-07 2.51202E-05-3.30872E-24
 -1       354 5.68135E-06 1.17932E-05 0.00000E+00
 -1       355 8.87703E-06 2.76991E-06-1.65436E-24
 -1       356 1.23306E-05 3.60564E-07 1.65436E-24
 -1       357 1.22655E-05 7.65362E-07 8.27181E-25
 -1       358 1.22004E-05 1.09364E-06 0.00000E+00
 -1       359 1.21352E-05 1.32923E-06-8.27181E-25
 -1       360 1.20701E-05 1.46870E-06 1.65436E-24
 -1       361 1.20050E-05 1.50887E-06-8.27181E-25
 -1       362 1.19399E-05 1.46019E-06-1.65436E-24
 -1       363 1.18748E-05 1.33336E-06 8.27181E-25
 -1       364 1.18097E-05 1.14979E-06 0.00000E+00
 -1       365 1.17446E-05 9.31073E-07 8.27181E-25
 -1       366 1.16796E-05 7.03599E-07 0.00000E+00
 -1       367 1.16147E-05 4.93792E-07 0.00000E+00
 -1       368 1.15498E-05 3.25660E-07 0.00000E+00
 -1       369 1.14858E-05 2.23089E-07-4.13590E-25
 -1       370 1.14215E-05 2.00998E-07 0.00000E+00
 -1       371 1.18848E-05-1.23519E-07 0.00000E+00
 -1       372 1.13428E-05-1.40821E-07 4.13590E-25
 -1       373 1.08196E-05-1.58220E-07 0.00000E+00
 -1       374 1.03650E-05-1.75038E-07 0.00000E+00
 -1       375 1.00264E-05-1.91866E-07-1.03398E-25
 -1       376 1.20964E-05 3.90711E-07 0.00000E+00
 -1       377 1.17677E-05 9.59326E-07 0.00000E+00
 -1       378 1.14355E-05 1.53764E-06 0.00000E+00
 -1       379 1.11236E-05 2.06096E-06 1.65436E-24
 -1       380 1.08517E-05 2.47780E-06 0.00000E+00
 -1       381 1.06389E-05 2.73703E-06 1.65436E-24
 -1       382 1.04904E-05 2.82478E-06 0.00000E+00
 -1       383 1.04111E-05 2.72792E-06-1.65436E-24
 -1       384 1.03896E-05 2.47709E-06-3.30872E-24
 -1       385 1.04141E-05 2.10362E-06 0.00000E+00
 -1       386 1.04622E-05 1.66705E-06 0.00000E+00
 -1       387 1.05117E-05 1.22725E-06 0.00000E+00
 -1       388 1.05396E-05 8.45219E-07-3.30872E-24
 -1       389 1.05241E-05 5.82095E-07-8.27181E-25
 -1       390 1.04514E-05 4.70197E-07 0.00000E+00
 -1       406 1.12237E-05 3.19265E-07 0.00000E+00
 -1       407 1.10689E-05 3.64499E-07 0.00000E+00
 -1       408 1.08989E-05 4.09709E-07-1.65436E-24
 -1       409 1.07154E-05 4.54809E-07 0.00000E+00
 -1       410 1.05202E-05 4.99674E-07 1.65436E-24
 -1       466 8.08025E-06 1.10919E-06 0.00000E+00
 -1       467 8.25254E-06 1.96949E-06 0.00000E+00
 -1       468 8.42467E-06 2.32802E-06 3.30872E-24
 -1       469 8.59825E-06 2.39905E-06 0.00000E+00
 -1       470 8.77186E-06 2.27088E-06-6.61744E-24
 -1       471 8.94573E-06 2.03023E-06 3.30872E-24
 -1       472 9.11961E-06 1.71442E-06-6.61744E-24
 -1       473 9.29351E-06 1.36018E-06-3.30872E-24
 -1       474 9.46740E-06 9.87332E-07 0.00000E+00
 -1       475 9.64120E-06 6.15579E-07 0.00000E+00
 -1       476 9.81496E-06 2.65088E-07 0.00000E+00
 -1       477 9.98827E-06-4.38127E-08 3.30872E-24
 -1       478 1.01615E-05-2.72522E-07 3.30872E-24
 -1       479 1.03325E-05-3.81808E-07 0.00000E+00
 -1       480 1.05042E-05-2.80214E-07 8.27181E-25
 -1       481 6.21329E-06-4.47558E-07 0.00000E+00
 -1       482 4.99080E-06-4.21950E-07 2.06795E-25
 -1       483 4.15097E-06-3.96045E-07 0.00000E+00
 -1       484 3.59660E-06-3.69753E-07-4.13590E-25
 -1       485 3.24754E-06-3.43337E-07 0.00000E+00
 -1       486 6.83281E-06 1.86904E-06-3.30872E-24
 -1       487 5.39778E-06 5.11740E-06 0.00000E+00
 -1       488 3.94768E-06 8.40700E-06-6.61744E-24
 -1       489 2.80996E-06 1.08668E-05 0.00000E+00
 -1       490 2.18590E-06 1.19637E-05 0.00000E+00
 -1       491 2.26915E-06 1.11749E-05-3.30872E-24
 -1       492 2.96587E-06 8.74304E-06 0.00000E+00
 -1       493 4.17781E-06 4.92471E-06 0.00000E+00
 -1       494 5.59975E-06 5.40069E-07 6.61744E-24
 -1       495 6.92570E-06-3.58545E-06-3.30872E-24
 -1       496 7.88823E-06-6.73188E-06 6.61744E-24
 -1       497 8.22129E-06-8.18812E-06-3.30872E-24
 -1       498 7.91236E-06-7.92971E-06 6.61744E-24
 -1       499 6.95557E-06-5.94602E-06 0.00000E+00
 -1       500 5.60736E-06-2.92736E-06 3.30872E-24
 -1       501 1.06061E-05 5.85402E-07 3.30872E-24
 -1       502 1.05514E-05 8.46590E-07-8.27181E-25
 -1       503 1.04965E-05 9.17172E-07-1.65436E-24
 -1       504 1.04423E-05 8.05802E-07 0.00000E+00
 -1       505 1.03880E-05 5.42047E-07 1.65436E-24
 -1       506 1.03337E-05 1.55846E-07 8.27181E-25
 -1       507 1.02795E-05-3.08800E-07 0.00000E+00
 -1       508 1.02253E-05-8.07714E-07 0.00000E+00
 -1       509 1.01710E-05-1.29277E-06-1.65436E-24
 -1       510 1.01169E-05-1.71588E-06 0.00000E+00
 -1       511 1.00627E-05-2.03608E-06-1.65436E-24
 -1       512 1.00086E-05-2.21263E-06 0.00000E+00
 -1       513 9.95447E-06-2.22129E-06 0.00000E+00
 -1       514 9.90031E-06-2.03823E-06 0.00000E+00
 -1       515 9.84612E-06-1.66163E-06 0.00000E+00
 -1       516 1.02141E-05 1.71641E-07 0.00000E+00
 -1       517 9.97573E-06 2.25147E-07 0.00000E+00
 -1       518 9.61078E-06 2.78117E-07 0.00000E+00
 -1       519 8.78109E-06 3.31618E-07 0.00000E+00
 -1       520 7.08984E-06 3.84272E-07 0.00000E+00
 -1       521 1.01108E-05 4.38441E-07 0.00000E+00
 -1       522 9.61386E-06 5.67763E-07-6.61744E-24
 -1       523 9.17475E-06 5.43663E-07 1.32349E-23
 -1       524 8.78156E-06 3.92096E-07 0.00000E+00
 -1       525 8.42559E-06 1.40657E-07-1.32349E-23
 -1       526 8.09646E-06-1.83240E-07 0.00000E+00
 -1       527 7.78402E-06-5.51828E-07 1.32349E-23
 -1       528 7.47783E-06-9.37254E-07 6.61744E-24
 -1       529 7.16748E-06-1.31159E-06 0.00000E+00
 -1       530 6.84258E-06-1.64695E-06 0.00000E+00
 -1       531 6.49273E-06-1.91559E-06 1.32349E-23
 -1       532 6.10784E-06-2.08995E-06 0.00000E+00
 -1       533 5.67762E-06-2.14289E-06-1.32349E-23
 -1       534 5.19345E-06-2.04720E-06 6.61744E-24
 -1       535 4.64359E-06-1.77730E-06 0.00000E+00
 -1       536 9.79231E-06-5.00654E-07-8.27181E-25
 -1       537 9.79566E-06-5.29309E-08 0.00000E+00
 -1       538 9.79902E-06 2.68062E-07 0.00000E+00
 -1       539 9.80280E-06 4.77482E-07 0.00000E+00
 -1       540 9.80666E-06 5.90450E-07 0.00000E+00
 -1       541 9.81060E-06 6.22095E-07 4.52364E-26
 -1       542 9.81456E-06 5.87541E-07-5.16988E-26
 -1       543 9.81853E-06 5.01910E-07 0.00000E+00
 -1       544 9.82251E-06 3.80326E-07 0.00000E+00
 -1       545 9.82649E-06 2.37905E-07 5.16988E-26
 -1       546 9.83047E-06 8.97684E-08 1.03398E-25
 -1       547 9.83446E-06-4.89636E-08 0.00000E+00
 -1       548 9.83846E-06-1.63174E-07 0.00000E+00
 -1       549 9.84250E-06-2.37743E-07 1.03398E-25
 -1       550 9.84654E-06-2.57542E-07 0.00000E+00
 -1       551 8.93054E-06-1.12519E-06-7.75482E-25
 -1       552 7.97104E-06-1.15934E-06-7.23783E-25
 -1       553 6.95678E-06-1.19349E-06-1.65436E-24
 -1       554 5.93226E-06-1.22807E-06 0.00000E+00
 -1       555 4.94195E-06-1.26357E-06 0.00000E+00
 -1       556 9.54188E-06-5.36992E-07 0.00000E+00
 -1       557 9.34105E-06-1.11126E-07 0.00000E+00
 -1       558 9.18365E-06 1.99598E-07 0.00000E+00
 -1       559 9.06460E-06 4.08505E-07 0.00000E+00
 -1       560 8.97879E-06 5.28933E-07 0.00000E+00
 -1       561 8.92114E-06 5.74331E-07 0.00000E+00
 -1       562 8.88660E-06 5.58156E-07-1.65436E-24
 -1       563 8.87011E-06 4.93874E-07 0.00000E+00
 -1       564 8.86661E-06 3.94958E-07 0.00000E+00
 -1       565 8.87104E-06 2.74878E-07 0.00000E+00
 -1       566 8.87837E-06 1.47112E-07-8.27181E-25
 -1       567 8.88356E-06 2.51346E-08 0.00000E+00
 -1       568 8.88156E-06-7.75790E-08 0.00000E+00
 -1       569 8.86742E-06-1.47568E-07-3.10193E-25
 -1       570 8.83621E-06-1.71381E-07 8.27181E-25
 -1       571 9.87870E-06-1.43704E-07 0.00000E+00
 -1       572 9.90744E-06-9.99656E-08 2.06795E-25
 -1       573 9.93642E-06-7.26468E-08 4.13590E-25
 -1       574 9.96551E-06-5.79178E-08-2.06795E-25
 -1       575 9.99465E-06-5.19329E-08-8.27181E-25
 -1       576 1.00238E-05-5.08214E-08 4.13590E-25
 -1       577 1.00530E-05-5.07111E-08 0.00000E+00
 -1       578 1.00821E-05-4.77264E-08 0.00000E+00
 -1       579 1.01113E-05-3.79912E-08 0.00000E+00
 -1       580 1.01405E-05-1.76299E-08 0.00000E+00
 -1       581 1.01696E-05 1.72328E-08 1.65436E-24
 -1       582 1.01988E-05 7.04680E-08 0.00000E+00
 -1       583 1.02280E-05 1.45943E-07-1.65436E-24
 -1       584 1.02571E-05 2.47487E-07 0.00000E+00
 -1       585 1.02862E-05 3.78906E-07 0.00000E+00
 -1       586 9.69801E-06-1.95303E-07-8.27181E-25
 -1       587 9.52285E-06-1.83006E-07 0.00000E+00
 -1       588 9.33450E-06-1.70722E-07 4.13590E-25
 -1       589 9.14233E-06-1.58557E-07 1.03398E-25
 -1       590 8.95575E-06-1.46661E-07 0.00000E+00
 -1       591 9.80505E-06-1.32703E-07 0.00000E+00
 -1       592 9.76289E-06-7.10720E-08 2.06795E-25
 -1       593 9.72446E-06-2.00714E-08-8.27181E-25
 -1       594 9.68901E-06 2.26095E-08-4.13590E-25
 -1       595 9.65577E-06 5.92815E-08 0.00000E+00
 -1       596 9.62389E-06 9.22386E-08-2.06795E-25
 -1       597 9.59255E-06 1.23772E-07 0.00000E+00
 -1       598 9.56087E-06 1.56172E-07 0.00000E+00
 -1       599 9.52801E-06 1.91726E-07 0.00000E+00
 -1       600 9.49312E-06 2.32724E-07 0.00000E+00
 -1       601 9.45533E-06 2.81455E-07 2.06795E-25
 -1       602 9.41381E-06 3.40211E-07-1.03398E-25
 -1       603 9.36771E-06 4.11284E-07 3.10193E-25
 -1       604 9.31628E-06 4.96980E-07 1.03398E-25
 -1       605 9.25875E-06 5.99611E-07 0.00000E+00
 -1       606 1.03258E-05 7.63060E-07 0.00000E+00
 -1       607 1.03358E-05 1.00397E-06 0.00000E+00
 -1       608 1.03455E-05 1.26518E-06 0.00000E+00
 -1       609 1.03552E-05 1.54524E-06-4.13590E-25
 -1       610 1.03648E-05 1.84269E-06 8.27181E-25
 -1       611 1.03745E-05 2.15606E-06 0.00000E+00
 -1       612 1.03840E-05 2.48385E-06-8.27181E-25
 -1       613 1.03936E-05 2.82458E-06-8.27181E-25
 -1       614 1.04032E-05 3.17676E-06 0.00000E+00
 -1       615 1.04128E-05 3.53890E-06 0.00000E+00
 -1       616 1.04224E-05 3.90951E-06 0.00000E+00
 -1       617 1.04320E-05 4.28711E-06 0.00000E+00
 -1       618 1.04415E-05 4.67020E-06 0.00000E+00
 -1       619 1.04511E-05 5.05730E-06-2.06795E-25
 -1       620 1.04606E-05 5.44692E-06 0.00000E+00
 -1       621 1.01086E-05 5.73482E-07-8.27181E-25
 -1       622 9.90678E-06 6.03405E-07 0.00000E+00
 -1       623 9.71215E-06 6.33333E-07-8.27181E-25
 -1       624 9.52710E-06 6.63182E-07 0.00000E+00
 -1       625 9.35406E-06 6.92856E-07-4.13590E-25
 -1       626 1.02509E-05 7.74190E-07 0.00000E+00
 -1       627 1.01779E-05 1.02720E-06-1.65436E-24
 -1       628 1.00971E-05 1.30067E-06 0.00000E+00
 -1       629 1.00095E-05 1.59222E-06 0.00000E+00
 -1       630 9.91601E-06 1.89950E-06 0.00000E+00
 -1       631 9.81749E-06 2.22008E-06 4.13590E-25
 -1       632 9.71487E-06 2.55157E-06 0.00000E+00
 -1       633 9.60907E-06 2.89155E-06 0.00000E+00
 -1       634 9.50098E-06 3.23760E-06 0.00000E+00
 -1       635 9.39151E-06 3.58732E-06 0.00000E+00
 -1       636 9.28157E-06 3.93830E-06 4.13590E-25
 -1       637 9.17205E-06 4.28811E-06-2.06795E-25
 -1       638 9.06384E-06 4.63434E-06 4.13590E-25
 -1       639 8.95778E-06 4.97458E-06-2.06795E-25
 -1       640 8.85469E-06 5.30639E-06-4.13590E-25
 -1       641 1.04703E-05 6.24224E-06-1.03398E-25
 -1       642 1.04702E-05 6.68894E-06-2.58494E-26
 -1       643 1.04701E-05 7.17156E-06-2.58494E-26
 -1       644 1.04699E-05 7.68405E-06 6.46235E-27
 -1       645 1.04697E-05 8.22031E-06-6.46235E-27
 -1       646 1.04695E-05 8.77424E-06 0.00000E+00
 -1       647 1.04693E-05 9.33977E-06 0.00000E+00
 -1       648 1.04690E-05 9.91080E-06-3.23117E-27
 -1       649 1.04688E-05 1.04812E-05-6.46235E-27
 -1       650 1.04686E-05 1.10450E-05 0.00000E+00
 -1       651 1.04683E-05 1.15960E-05 2.58494E-26
 -1       652 1.04680E-05 1.21281E-05-2.58494E-26
 -1       653 1.04678E-05 1.26353E-05 1.03398E-25
 -1       654 1.04673E-05 1.31115E-05-1.03398E-25
 -1       655 1.04669E-05 1.35506E-05 0.00000E+00
 -1       656 1.01202E-05 5.80373E-06 0.00000E+00
 -1       657 9.81857E-06 5.76811E-06-4.13590E-25
 -1       658 9.54825E-06 5.73256E-06 8.27181E-25
 -1       659 9.29221E-06 5.69699E-06 4.13590E-25
 -1       660 9.03343E-06 5.66135E-06-4.13590E-25
 -1       661 1.03575E-05 6.25423E-06 8.27181E-25
 -1       662 1.02342E-05 6.70381E-06 0.00000E+00
 -1       663 1.01004E-05 7.18105E-06-8.27181E-25
 -1       664 9.95826E-06 7.68128E-06 0.00000E+00
 -1       665 9.80930E-06 8.19969E-06 1.65436E-24
 -1       666 9.65534E-06 8.73153E-06 8.27181E-25
 -1       667 9.49811E-06 9.27209E-06 1.65436E-24
 -1       668 9.33939E-06 9.81662E-06 8.27181E-25
 -1       669 9.18096E-06 1.03604E-05 0.00000E+00
 -1       670 9.02458E-06 1.08987E-05 0.00000E+00
 -1       671 8.87202E-06 1.14267E-05 0.00000E+00
 -1       672 8.72503E-06 1.19398E-05 0.00000E+00
 -1       673 8.58539E-06 1.24332E-05-8.27181E-25
 -1       674 8.45462E-06 1.29020E-05-4.13590E-25
 -1       675 8.33485E-06 1.33417E-05 0.00000E+00
 -1       676 1.00911E-05 1.39130E-05 8.27181E-25
 -1       677 9.71708E-06 1.38794E-05-4.13590E-25
 -1       678 9.34338E-06 1.38459E-05 0.00000E+00
 -1       679 8.97014E-06 1.38125E-05 4.13590E-25
 -1       680 8.59752E-06 1.37790E-05-8.27181E-25
 -1       681 3.09220E-06-3.09600E-07-1.65436E-24
 -1       682 3.16263E-06-6.08244E-07-8.27181E-25
 -1       683 3.23284E-06-1.13416E-06 0.00000E+00
 -1       684 3.30336E-06-1.80914E-06 0.00000E+00
 -1       685 3.37383E-06-2.57948E-06-1.65436E-24
 -1       686 3.44435E-06-3.39182E-06 0.00000E+00
 -1       687 3.51488E-06-4.19970E-06 0.00000E+00
 -1       688 3.58546E-06-4.95662E-06 8.27181E-25
 -1       689 3.65611E-06-5.60772E-06 1.65436E-24
 -1       690 3.72682E-06-6.09779E-06 0.00000E+00
 -1       691 3.79759E-06-6.34508E-06 0.00000E+00
 -1       692 3.86824E-06-6.26707E-06 0.00000E+00
 -1       693 3.93872E-06-5.72765E-06 1.65436E-24
 -1       694 4.00799E-06-4.58927E-06 8.27181E-25
 -1       695 4.07622E-06-2.61587E-06 0.00000E+00
 -1       696 2.76433E-06-2.65633E-07-8.27181E-25
 -1       697 2.31157E-06-2.12738E-07 0.00000E+00
 -1       698 1.73847E-06-1.59985E-07 1.65436E-24
 -1       699 1.11763E-06-1.06878E-07 8.27181E-25
 -1       700 5.15859E-07-5.37860E-08 1.65436E-24
 -1       701 2.87817E-06-1.45050E-07-8.27181E-25
 -1       702 2.70110E-06 9.90924E-08 8.27181E-25
 -1       703 2.50526E-06 3.94027E-07 0.00000E+00
 -1       704 2.29832E-06 7.16438E-07 8.27181E-25
 -1       705 2.09143E-06 1.03868E-06 1.65436E-24
 -1       706 1.89495E-06 1.33280E-06-8.27181E-25
 -1       707 1.71755E-06 1.57605E-06 1.65436E-24
 -1       708 1.56772E-06 1.74579E-06 0.00000E+00
 -1       709 1.44903E-06 1.83250E-06 0.00000E+00
 -1       710 1.36497E-06 1.82694E-06 0.00000E+00
 -1       711 1.31280E-06 1.73639E-06 0.00000E+00
 -1       712 1.28976E-06 1.56848E-06 0.00000E+00
 -1       713 1.28766E-06 1.34469E-06-1.65436E-24
 -1       714 1.29902E-06 1.08698E-06-8.27181E-25
 -1       715 1.31253E-06 8.22778E-07 8.27181E-25
 -1       716 4.12709E-06 3.56283E-06 4.13590E-25
 -1       717 4.11932E-06 5.78465E-06 0.00000E+00
 -1       718 4.11294E-06 7.19031E-06 0.00000E+00
 -1       719 4.10742E-06 7.87363E-06 0.00000E+00
 -1       720 4.10215E-06 7.93679E-06 0.00000E+00
 -1       721 4.09681E-06 7.48207E-06 1.03398E-25
 -1       722 4.09122E-06 6.61773E-06 0.00000E+00
 -1       723 4.08533E-06 5.45209E-06-1.03398E-25
 -1       724 4.07920E-06 4.09696E-06-2.06795E-25
 -1       725 4.07294E-06 2.66418E-06-1.03398E-25
 -1       726 4.06669E-06 1.26646E-06 2.06795E-25
 -1       727 4.06042E-06 1.65289E-08-2.06795E-25
 -1       728 4.05440E-06-9.74606E-07 8.27181E-25
 -1       729 4.04763E-06-1.59602E-06-4.13590E-25
 -1       730 4.04138E-06-1.74118E-06 0.00000E+00
 -1       731 1.33495E-06 4.51511E-07 0.00000E+00
 -1       732 8.87861E-08 4.76895E-07 0.00000E+00
 -1       733-7.59666E-08 5.02966E-07 4.13590E-25
 -1       734 3.66556E-07 5.29228E-07 0.00000E+00
 -1       735 9.78331E-07 5.55476E-07 0.00000E+00
 -1       736 1.70599E-06 6.54984E-06-1.65436E-24
 -1       737-2.69601E-06 1.77817E-05 0.00000E+00
 -1       738-8.41998E-06 3.24127E-05-3.30872E-24
 -1       739-1.48005E-05 4.87164E-05 1.65436E-24
 -1       740-2.10016E-05 6.45625E-05 0.00000E+00
 -1       741-2.61905E-05 7.78208E-05-1.65436E-24
 -1       742-2.97963E-05 8.69891E-05 0.00000E+00
 -1       743-3.12707E-05 9.05787E-05 0.00000E+00
 -1       744-3.05955E-05 8.84488E-05 0.00000E+00
 -1       745-2.77647E-05 8.04850E-05 1.65436E-24
 -1       746-2.32836E-05 6.79902E-05 0.00000E+00
 -1       747-1.76512E-05 5.22944E-05 0.00000E+00
 -1       748-1.16310E-05 3.55154E-05 0.00000E+00
 -1       749-5.98257E-06 1.97779E-05-1.65436E-24
 -1       750-1.38147E-06 6.95031E-06 0.00000E+00
 -1       751 4.30893E-06-7.10092E-07 3.30872E-24
 -1       752 4.60608E-06-3.85834E-07 0.00000E+00
 -1       753 4.90214E-06-2.34190E-07 6.61744E-24
 -1       754 5.20159E-06-1.60875E-07 0.00000E+00
 -1       755 5.50114E-06-1.37708E-07 0.00000E+00
 -1       756 5.80135E-06-1.37184E-07 0.00000E+00
 -1       757 6.10165E-06-1.51004E-07-6.61744E-24
 -1       758 6.40207E-06-1.71059E-07 0.00000E+00
 -1       759 6.70250E-06-1.94534E-07 6.61744E-24
 -1       760 7.00286E-06-2.18659E-07 0.00000E+00
 -1       761 7.30317E-06-2.41219E-07 0.00000E+00
 -1       762 7.60300E-06-2.59975E-07 3.30872E-24
 -1       763 7.90277E-06-2.69463E-07 6.61744E-24
 -1       764 8.20015E-06-2.64092E-07 0.00000E+00
 -1       765 8.49834E-06-2.25714E-07 0.00000E+00
 -1       766 2.75819E-06-1.27617E-06-1.65436E-24
 -1       767 4.29573E-07-1.24355E-06 0.00000E+00
 -1       768-1.92550E-06-1.21148E-06 0.00000E+00
 -1       769-3.27643E-06-1.17679E-06 0.00000E+00
 -1       770-2.50980E-06-1.14169E-06 0.00000E+00
 -1       771 3.59671E-06-7.31605E-07-1.32349E-23
 -1       772 3.20399E-06-2.74014E-07 0.00000E+00
 -1       773 2.84983E-06 7.94832E-08-6.61744E-24
 -1       774 2.53052E-06 3.39381E-07-3.30872E-24
 -1       775 2.24230E-06 5.16186E-07 0.00000E+00
 -1       776 1.98127E-06 6.20444E-07 0.00000E+00
 -1       777 1.74347E-06 6.62710E-07 0.00000E+00
 -1       778 1.52496E-06 6.53550E-07 0.00000E+00
 -1       779 1.32177E-06 6.03538E-07 0.00000E+00
 -1       780 1.12994E-06 5.23257E-07 0.00000E+00
 -1       781 9.45512E-07 4.23297E-07 0.00000E+00
 -1       782 7.64538E-07 3.14256E-07-3.30872E-24
 -1       783 5.83082E-07 2.06735E-07 6.61744E-24
 -1       784 3.97367E-07 1.11367E-07 3.30872E-24
 -1       785 2.03629E-07 3.87840E-08-3.30872E-24
 -1       786 8.80809E-06-3.30839E-08 2.06795E-25
 -1       787 8.83372E-06 4.64853E-08 0.00000E+00
 -1       788 8.85934E-06 1.06516E-07 0.00000E+00
 -1       789 8.88519E-06 1.50560E-07 0.00000E+00
 -1       790 8.91107E-06 1.82161E-07-8.27181E-25
 -1       791 8.93700E-06 2.04865E-07 0.00000E+00
 -1       792 8.96294E-06 2.22212E-07 0.00000E+00
 -1       793 8.98888E-06 2.37743E-07-4.13590E-25
 -1       794 9.01483E-06 2.54998E-07-8.27181E-25
 -1       795 9.04078E-06 2.77518E-07 0.00000E+00
 -1       796 9.06672E-06 3.08844E-07 0.00000E+00
 -1       797 9.09264E-06 3.52520E-07 0.00000E+00
 -1       798 9.11855E-06 4.12093E-07 8.27181E-25
 -1       799 9.14436E-06 4.91108E-07 0.00000E+00
 -1       800 9.17017E-06 5.93125E-07 0.00000E+00
 -1       801 8.00928E-06-1.11787E-07 0.00000E+00
 -1       802 6.39536E-06-8.73600E-08 0.00000E+00
 -1       803 4.36443E-06-6.37540E-08 0.00000E+00
 -1       804 2.33963E-06-4.09568E-08 0.00000E+00
 -1       805 7.44077E-07-1.74098E-08 0.00000E+00
 -1       806 8.71520E-06-4.37699E-08-8.27181E-25
 -1       807 8.64921E-06 3.79057E-08 0.00000E+00
 -1       808 8.58610E-06 1.11226E-07-8.27181E-25
 -1       809 8.52530E-06 1.77999E-07 0.00000E+00
 -1       810 8.46625E-06 2.40023E-07 8.27181E-25
 -1       811 8.40829E-06 2.99087E-07 4.13590E-25
 -1       812 8.35076E-06 3.56974E-07 8.27181E-25
 -1       813 8.29300E-06 4.15469E-07 4.13590E-25
 -1       814 8.23434E-06 4.76356E-07 8.27181E-25
 -1       815 8.17412E-06 5.41417E-07 4.13590E-25
 -1       816 8.11167E-06 6.12434E-07 0.00000E+00
 -1       817 8.04633E-06 6.91193E-07-2.06795E-25
 -1       818 7.97745E-06 7.79477E-07 0.00000E+00
 -1       819 7.90442E-06 8.79070E-07-2.06795E-25
 -1       820 7.82668E-06 9.91763E-07 0.00000E+00
 -1       821 9.16946E-06 8.86407E-07 0.00000E+00
 -1       822 9.14196E-06 1.08854E-06 0.00000E+00
 -1       823 9.11448E-06 1.32415E-06 8.27181E-25
 -1       824 9.08676E-06 1.58928E-06-4.13590E-25
 -1       825 9.05898E-06 1.87997E-06-8.27181E-25
 -1       826 9.03116E-06 2.19225E-06 0.00000E+00
 -1       827 9.00332E-06 2.52215E-06 8.27181E-25
 -1       828 8.97547E-06 2.86569E-06 0.00000E+00
 -1       829 8.94761E-06 3.21889E-06-8.27181E-25
 -1       830 8.91976E-06 3.57777E-06-4.13590E-25
 -1       831 8.89191E-06 3.93835E-06-8.27181E-25
 -1       832 8.86410E-06 4.29664E-06 0.00000E+00
 -1       833 8.83633E-06 4.64865E-06 0.00000E+00
 -1       834 8.80875E-06 4.99042E-06 4.13590E-25
 -1       835 8.78117E-06 5.31796E-06-4.13590E-25
 -1       836 9.00568E-06 7.86746E-07 1.65436E-24
 -1       837 8.75687E-06 8.54117E-07 8.27181E-25
 -1       838 8.47758E-06 9.21363E-07-1.65436E-24
 -1       839 8.19654E-06 9.88443E-07 0.00000E+00
 -1       840 7.94250E-06 1.05563E-06-8.27181E-25
 -1       841 9.13347E-06 8.86027E-07-1.03398E-25
 -1       842 9.05574E-06 1.09131E-06 0.00000E+00
 -1       843 8.96439E-06 1.33298E-06-1.29247E-26
 -1       844 8.86107E-06 1.60629E-06-1.61559E-27
 -1       845 8.74765E-06 1.90651E-06 0.00000E+00
 -1       846 8.62592E-06 2.22884E-06 0.00000E+00
 -1       847 8.49768E-06 2.56847E-06-2.58494E-26
 -1       848 8.36475E-06 2.92061E-06 0.00000E+00
 -1       849 8.22894E-06 3.28042E-06 0.00000E+00
 -1       850 8.09207E-06 3.64304E-06 1.29247E-26
 -1       851 7.95594E-06 4.00366E-06 0.00000E+00
 -1       852 7.82237E-06 4.35742E-06-2.58494E-26
 -1       853 7.69318E-06 4.69949E-06-1.03398E-25
 -1       854 7.57006E-06 5.02502E-06 0.00000E+00
 -1       855 7.45498E-06 5.32925E-06-2.06795E-25
 -1       856 8.72348E-06 5.96008E-06 0.00000E+00
 -1       857 8.69049E-06 6.35347E-06-4.13590E-25
 -1       858 8.65751E-06 6.79953E-06 0.00000E+00
 -1       859 8.62427E-06 7.29027E-06-4.13590E-25
 -1       860 8.59098E-06 7.81770E-06-8.27181E-25
 -1       861 8.55763E-06 8.37379E-06 0.00000E+00
 -1       862 8.52426E-06 8.95053E-06-8.27181E-25
 -1       863 8.49088E-06 9.53991E-06-4.13590E-25
 -1       864 8.45749E-06 1.01339E-05 0.00000E+00
 -1       865 8.42411E-06 1.07244E-05-4.13590E-25
 -1       866 8.39073E-06 1.13035E-05 0.00000E+00
 -1       867 8.35740E-06 1.18631E-05 0.00000E+00
 -1       868 8.32410E-06 1.23953E-05 8.27181E-25
 -1       869 8.29096E-06 1.28919E-05 4.13590E-25
 -1       870 8.25783E-06 1.33449E-05-8.27181E-25
 -1       871 8.49358E-06 5.62445E-06 0.00000E+00
 -1       872 8.25371E-06 5.62130E-06-2.06795E-25
 -1       873 8.02738E-06 5.61807E-06 0.00000E+00
 -1       874 7.80652E-06 5.61473E-06 1.03398E-25
 -1       875 7.58306E-06 5.61125E-06 4.13590E-25
 -1       876 8.67664E-06 5.97119E-06 8.27181E-25
 -1       877 8.58090E-06 6.36725E-06-4.13590E-25
 -1       878 8.46826E-06 6.80820E-06 1.65436E-24
 -1       879 8.34151E-06 7.28756E-06-8.27181E-25
 -1       880 8.20288E-06 7.79866E-06 1.65436E-24
 -1       881 8.05484E-06 8.33493E-06 0.00000E+00
 -1       882 7.89982E-06 8.88981E-06 0.00000E+00
 -1       883 7.74029E-06 9.45675E-06 8.27181E-25
 -1       884 7.57868E-06 1.00292E-05-1.65436E-24
 -1       885 7.41745E-06 1.06006E-05 8.27181E-25
 -1       886 7.25905E-06 1.11645E-05 1.65436E-24
 -1       887 7.10590E-06 1.17142E-05 0.00000E+00
 -1       888 6.96047E-06 1.22432E-05 0.00000E+00
 -1       889 6.82494E-06 1.27449E-05 4.13590E-25
 -1       890 6.70215E-06 1.32128E-05 0.00000E+00
 -1       891 7.90468E-06 1.37288E-05-4.13590E-25
 -1       892 7.64724E-06 1.37108E-05 0.00000E+00
 -1       893 7.42035E-06 1.36929E-05 4.13590E-25
 -1       894 7.19093E-06 1.36749E-05-2.06795E-25
 -1       895 6.92591E-06 1.36570E-05 2.06795E-25
 -1       896 8.21850E-08 4.13012E-07 0.00000E+00
 -1       897 1.65028E-07 7.08801E-07-1.65436E-24
 -1       898 2.47854E-07 9.14295E-07 0.00000E+00
 -1       899 3.30809E-07 1.05607E-06 0.00000E+00
 -1       900 4.13771E-07 1.14831E-06 0.00000E+00
 -1       901 4.96760E-07 1.20501E-06 0.00000E+00
 -1       902 5.79751E-07 1.23322E-06 0.00000E+00
 -1       903 6.62741E-07 1.23991E-06 0.00000E+00
 -1       904 7.45728E-07 1.22785E-06-3.30872E-24
 -1       905 8.28693E-07 1.19973E-06 0.00000E+00
 -1       906 9.11642E-07 1.15512E-06 0.00000E+00
 -1       907 9.94481E-07 1.09354E-06-1.65436E-24
 -1       908 1.07730E-06 1.01117E-06 0.00000E+00
 -1       909 1.15957E-06 9.04148E-07 0.00000E+00
 -1       910 1.24202E-06 7.63795E-07-1.65436E-24
 -1       911 1.33412E-06 6.59488E-07 4.13590E-25
 -1       912 1.34656E-06 1.29811E-06 0.00000E+00
 -1       913 1.35865E-06 2.36849E-06 4.13590E-25
 -1       914 1.37039E-06 3.74215E-06 2.06795E-25
 -1       915 1.38188E-06 5.29922E-06 4.13590E-25
 -1       916 1.39328E-06 6.91988E-06 0.00000E+00
 -1       917 1.40476E-06 8.48610E-06 0.00000E+00
 -1       918 1.41648E-06 9.87987E-06 0.00000E+00
 -1       919 1.42854E-06 1.09783E-05-4.13590E-25
 -1       920 1.44095E-06 1.16582E-05-2.06795E-25
 -1       921 1.45354E-06 1.17849E-05 0.00000E+00
 -1       922 1.46592E-06 1.12231E-05-1.03398E-25
 -1       923 1.47747E-06 9.81829E-06 0.00000E+00
 -1       924 1.48682E-06 7.41547E-06-6.46235E-27
 -1       925 1.49287E-06 3.83169E-06 0.00000E+00
 -1       926 1.39187E-06-6.77833E-06 0.00000E+00
 -1       927 1.29012E-06-1.24862E-05 0.00000E+00
 -1       928 1.19069E-06-1.77726E-05 0.00000E+00
 -1       929 1.09501E-06-2.21716E-05 1.65436E-24
 -1       930 1.00360E-06-2.53765E-05 0.00000E+00
 -1       931 9.15654E-07-2.70850E-05-1.65436E-24
 -1       932 8.29072E-07-2.72636E-05 0.00000E+00
 -1       933 7.41568E-07-2.58844E-05-1.65436E-24
 -1       934 6.51573E-07-2.31992E-05 0.00000E+00
 -1       935 5.58314E-07-1.94645E-05 1.65436E-24
 -1       936 4.62753E-07-1.51256E-05-3.30872E-24
 -1       937 3.66443E-07-1.06296E-05 1.65436E-24
 -1       938 2.71418E-07-6.45222E-06-3.30872E-24
 -1       939 1.78869E-07-3.06765E-06-1.65436E-24
 -1       940 8.94396E-08-8.07757E-07-3.30872E-24
 -1       941 4.58993E-07 7.53531E-08 0.00000E+00
 -1       942 9.43333E-07 1.42615E-07 6.61744E-24
 -1       943 1.42606E-06 2.05110E-07 0.00000E+00
 -1       944 1.91361E-06 2.66056E-07 0.00000E+00
 -1       945 2.40130E-06 3.26094E-07 0.00000E+00
 -1       946 2.88995E-06 3.85847E-07 6.61744E-24
 -1       947 3.37871E-06 4.45455E-07 0.00000E+00
 -1       948 3.86764E-06 5.05057E-07 0.00000E+00
 -1       949 4.35658E-06 5.64784E-07 1.32349E-23
 -1       950 4.84540E-06 6.24767E-07 0.00000E+00
 -1       951 5.33413E-06 6.85568E-07-1.32349E-23
 -1       952 5.82210E-06 7.47768E-07 0.00000E+00
 -1       953 6.30995E-06 8.14287E-07-1.32349E-23
 -1       954 6.79393E-06 8.88145E-07 6.61744E-24
 -1       955 7.27921E-06 9.84587E-07 0.00000E+00
 -1       956 7.71990E-06 1.29659E-06 0.00000E+00
 -1       957 7.69529E-06 1.50106E-06-5.16988E-26
 -1       958 7.67059E-06 1.73004E-06-8.27181E-25
 -1       959 7.64584E-06 1.98063E-06 4.13590E-25
 -1       960 7.62107E-06 2.24992E-06-8.27181E-25
 -1       961 7.59628E-06 2.53498E-06 0.00000E+00
 -1       962 7.57149E-06 2.83286E-06 8.27181E-25
 -1       963 7.54670E-06 3.14065E-06 0.00000E+00
 -1       964 7.52190E-06 3.45540E-06 0.00000E+00
 -1       965 7.49711E-06 3.77417E-06-4.13590E-25
 -1       966 7.47231E-06 4.09403E-06-8.27181E-25
 -1       967 7.44753E-06 4.41204E-06 0.00000E+00
 -1       968 7.42276E-06 4.72526E-06 0.00000E+00
 -1       969 7.39802E-06 5.03079E-06 0.00000E+00
 -1       970 7.37336E-06 5.32568E-06 8.27181E-25
 -1       971 7.30299E-06 5.90933E-06-8.27181E-25
 -1       972 7.25568E-06 6.27616E-06 0.00000E+00
 -1       973 7.20836E-06 6.69958E-06 1.65436E-24
 -1       974 7.16083E-06 7.17144E-06-8.27181E-25
 -1       975 7.11325E-06 7.68361E-06 1.65436E-24
 -1       976 7.06563E-06 8.22791E-06 0.00000E+00
 -1       977 7.01798E-06 8.79620E-06-1.65436E-24
 -1       978 6.97032E-06 9.38029E-06 0.00000E+00
 -1       979 6.92265E-06 9.97198E-06-1.65436E-24
 -1       980 6.87499E-06 1.05631E-05 0.00000E+00
 -1       981 6.82736E-06 1.11454E-05-1.65436E-24
 -1       982 6.77978E-06 1.17108E-05 0.00000E+00
 -1       983 6.73225E-06 1.22511E-05 0.00000E+00
 -1       984 6.68500E-06 1.27580E-05 0.00000E+00
 -1       985 6.63775E-06 1.32235E-05-8.27181E-25
 -3
    1PSTEP                        16           8           1          
  100CL  108 1.84326E-01         841                     0    8           1
 -4  STRESS      6    1
 -5  SXX         1    4    1    1
 -5  SYY         1    4    2    2
 -5  SZZ         1    4    3    3
 -5  SXY         1    4    1    2
 -5  SYZ         1    4    2    3
 -5  SZX         1    4    3    1
 -1         1-7.77994E+05-2.50846E+05-1.60955E+05-2.21381E+05-2.66785E-10-9.38599E-10
 -1         2-4.88508E+05-3.17894E+04 6.39137E+02-4.80107E+04-7.77050E-11 2.25668E-10
 -1         3-2.66177E+05-9.00628E+04-1.57243E+04-2.08354E+04 4.13237E-10-1.24058E-09
 -1         4-1.42131E+05-2.33902E+04 2.20825E+02-1.36444E+04-1.28644E-11-2.22364E-10
 -1         5-7.59716E+04 3.04726E+04-3.44878E+04-1.50675E+03 2.73076E-09-7.53545E-10
 -1         8-4.22653E+05-1.68533E+05-6.46028E+04-1.54370E+05-1.25510E-10 7.74889E-10
 -1         9-4.41205E+05-1.03173E+05-5.45499E+04-1.00969E+05-3.53490E-10-2.94070E-10
 -1        10-1.91034E+05-1.09871E+05-6.77302E+03-4.49264E+04-1.08177E-09 4.13365E-10
 -1        11-1.38472E+05-3.59319E+04 1.90780E+02-2.88159E+04 8.35120E-10 4.96944E-10
 -1        12-9.07461E+04 2.26277E+04-3.87186E+04-1.20429E+04 7.51484E-10 8.42446E-11
 -1        15 3.64720E+03-1.94852E+04 8.40299E+02-3.37598E+04-2.64663E-10 1.27329E-09
 -1        16-2.43728E+05-3.22460E+04 1.74420E+04-1.11115E+05 3.48640E-11 1.74396E-09
 -1        17-1.48871E+05-9.68297E+04-1.59039E+04-8.12537E+04-9.97716E-10-9.88318E-11
 -1        18-4.40021E+04-2.69406E+04-1.96511E+04-3.27069E+04 1.80527E-09-4.02906E-10
 -1        19-1.85137E+04 1.62805E+04-1.53221E+04-1.23240E+04-2.92289E-10 6.03298E-11
 -1        20 2.45819E+04-1.84927E+04-3.19561E+03 1.34004E+04 1.17876E-09 7.12589E-10
 -1        21 3.59242E+02-3.68330E+04 1.02187E+04 7.68185E+00 3.92220E-09 3.58120E-10
 -1        22 8.39670E+03 4.57757E+04 3.40850E+02-1.32068E+04-2.53067E-10 2.13731E-10
 -1        23-7.73599E+04 1.65731E+04 2.10379E+03-3.19011E+04-1.22547E-09-1.27102E-09
 -1        24-6.39405E+04 2.32849E+03 6.73016E+04-1.19289E+05-4.16700E-09 4.42014E-10
 -1        25 1.45736E+05 4.73166E+04 4.43395E+04-7.31939E+04 2.78950E-10-8.48559E-10
 -1        26 6.58526E+02 3.89404E+04 1.94952E+03-7.07917E+03-1.74111E-10 4.76727E-11
 -1        27-8.51961E+03-1.54581E+04-6.66348E+03 1.87168E+04 4.01011E-10-5.16138E-10
 -1        28-2.94774E+03-2.92507E+04-1.59881E+02 1.41370E+04-6.19764E-10-4.98951E-10
 -1        29 1.14191E+05 8.11374E+04 3.48504E+02-7.57179E+02 4.90351E-11 6.41194E-11
 -1        30 2.20244E+04 1.20876E+04 4.93541E+02-1.11843E+04-4.96504E-10 2.41471E-10
 -1        31-9.96291E+04 9.67547E+03 2.74400E+03-2.75801E+04 2.47100E-09-7.52561E-09
 -1        32 2.18567E+05 1.17297E+05 1.46782E+05-1.19984E+05 2.65003E-09 9.78616E-10
 -1        33 3.41871E+05 1.35551E+05 1.04507E+05-1.04546E+04-6.95947E-09 6.03677E-11
 -1        34-4.95221E+04-6.21036E+03-1.11447E+03 1.08490E+04-2.10383E-10 2.61707E-10
 -1        35-8.35923E+03-9.78779E+03-1.73292E+02 2.11516E+04 1.85442E-09-7.33053E-10
 -1        36-1.04612E+06 3.19651E+04-7.38873E+04 1.97016E-08-8.06136E-10 5.38421E-10
 -1        37-1.07811E+06-3.70024E+04-5.22891E+04 7.79163E-08 3.45766E-10-2.09548E-09
 -1        38-1.05847E+06 5.01057E+03-1.91232E+04 6.58752E-08-7.26929E-10 5.14774E-10
 -1        39-1.06370E+06-5.79833E+03-1.20261E+04 1.06451E-07 1.06577E-09-8.36735E-11
 -1        40-1.06050E+06 7.83710E+02-4.91305E+03-4.15246E-08 1.57866E-09 1.60139E-09
 -1        41-1.06133E+06-9.17356E+02-2.92911E+03 6.50479E-10-9.61363E-10 1.76595E-09
 -1        42-1.06084E+06 1.33108E+02-1.42338E+03 2.76505E-08-8.88069E-10 1.08821E-09
 -1        43-1.06097E+06-2.29692E+02-1.11114E+03 5.47553E-08-1.19682E-09-1.60075E-09
 -1        44-1.06086E+06 9.64886E+01-1.09550E+03-7.21131E-08-7.43808E-10-2.23636E-09
 -1        45-1.06116E+06-6.02497E+02-1.97989E+03-1.19649E-07-3.37060E-10-8.57852E-10
 -1        46-1.06065E+06 5.05661E+02-3.20461E+03 1.24897E-08-1.53427E-09 3.60046E-10
 -1        47-1.06268E+06-3.73089E+03-7.75772E+03 8.13495E-08-1.17328E-09 1.89539E-09
 -1        48-1.05934E+06 3.22261E+03-1.23100E+04-4.98547E-08 1.04856E-09 4.62933E-10
 -1        49-1.07194E+06-2.37975E+04-3.36340E+04 1.11444E-07-1.91797E-10 1.68711E-10
 -1        50-1.05140E+06 2.05569E+04-4.75263E+04 3.40771E-08-1.17554E-09-2.61934E-10
 -1        51 8.61037E+03-1.03144E+05 1.36640E+04-2.69140E+05 4.00178E-11-8.23638E-09
 -1        52 3.46722E+03-1.01270E+05 8.21058E+03-2.96251E+05 1.20053E-10-2.11876E-08
 -1        53 1.91917E+03-1.03168E+05 6.61881E+03-2.68462E+05 0.00000E+00-7.45786E-10
 -1        54 4.77090E+03-1.01572E+05 1.00384E+04-2.96999E+05-1.23691E-10 1.81362E-08
 -1        55 1.22833E+04-1.04558E+05 1.82459E+04-2.68367E+05-1.20053E-10 8.31005E-09
 -1        56-1.18243E+06-1.33624E+05-9.73617E+04-4.57505E+05 1.85537E-10 1.20053E-09
 -1        57-1.22825E+06-2.12713E+05-6.52959E+04-4.46002E+05-1.86446E-10-2.74304E-09
 -1        58-1.20126E+06-1.64395E+05-2.29425E+04-4.52304E+05-7.18501E-11-1.12686E-09
 -1        59-1.20655E+06-1.76464E+05-1.36011E+04-4.52269E+05-6.21014E-10-7.54198E-10
 -1        60-1.20392E+06-1.68654E+05-5.36795E+03-4.51682E+05-1.00158E-10 9.65656E-10
 -1        61-1.20353E+06-1.71421E+05-3.03840E+03-4.52952E+05-2.36554E-10 3.26702E-09
 -1        62-1.20425E+06-1.69285E+05-1.48256E+03-4.51674E+05-2.17426E-10-7.55307E-10
 -1        63-1.20328E+06-1.70688E+05-1.24186E+03-4.52870E+05-4.53142E-10-2.33237E-09
 -1        64-1.20417E+06-1.69372E+05-1.44462E+03-4.51769E+05 1.76641E-11 1.55677E-09
 -1        65-1.20384E+06-1.71057E+05-2.92643E+03-4.52573E+05 1.93211E-10-1.08912E-10
 -1        66-1.20369E+06-1.68931E+05-5.15569E+03-4.51965E+05-1.09992E-10 1.41767E-09
 -1        67-1.20705E+06-1.75578E+05-1.30525E+04-4.51555E+05-3.58341E-10 1.32582E-09
 -1        68-1.20099E+06-1.64997E+05-2.20151E+04-4.52736E+05-2.33285E-10-5.36602E-11
 -1        69-1.22815E+06-2.10077E+05-6.26513E+04-4.45219E+05 3.22871E-10-8.73115E-11
 -1        70-1.18279E+06-1.35604E+05-9.34214E+04-4.57875E+05-5.49335E-10-1.77533E-09
 -1        71-5.00762E+05-8.88775E+02 2.05466E+03 1.85553E-08-1.23667E-09-6.94172E-10
 -1        72-4.99825E+05 1.02880E+03 1.45177E+03-1.22268E-07-3.25481E-10 1.19564E-09
 -1        73-5.00418E+05-1.39215E+02 5.26720E+02-4.84726E-10-2.02845E-10-4.04839E-10
 -1        74-5.00226E+05 1.60331E+02 3.23232E+02 1.36491E-08-1.52695E-10-4.17380E-10
 -1        75-5.00361E+05-2.10007E+01 1.14923E+02 5.62702E-08-6.11230E-10 4.44714E-10
 -1        76-5.00296E+05 1.94402E+01 3.48665E+01-2.38187E-08-4.50061E-10 1.63858E-10
 -1        77-5.00349E+05 1.57512E+00-4.77981E+01-7.02082E-08-6.39419E-11-9.77280E-11
 -1        78-5.00326E+05-3.33511E+01-1.61516E+02 2.09997E-08-1.81157E-10 6.97781E-10
 -1        79-5.00331E+05 3.17621E+01-3.18356E+02 7.81097E-08 4.95287E-10 2.96154E-10
 -1        80-5.00435E+05-2.40121E+02-7.48240E+02 5.31344E-08-5.07359E-10-8.32614E-11
 -1        81-5.00239E+05 2.08213E+02-1.29453E+03-2.09268E-08-3.52322E-10-9.26036E-10
 -1        82-5.01071E+05-1.54393E+03-3.19726E+03-1.22742E-08 2.64075E-10 3.69084E-10
 -1        83-4.99696E+05 1.33462E+03-5.09309E+03 7.58172E-10 8.89265E-11-6.44150E-10
 -1        84-5.04908E+05-9.85646E+03-1.39304E+04 7.65889E-08 2.71294E-11 1.79034E-09
 -1        85-4.96406E+05 8.51422E+03-1.96896E+04 2.44864E-08-8.43990E-10 6.33918E-10
 -1        86-2.31657E+04 6.45271E+04 5.44277E+04 2.61922E+02-1.09139E-11-3.85544E-10
 -1        87 2.88362E+04 8.88502E+04 4.20655E+04-1.09163E+03-1.14142E-10 9.76976E-10
 -1        88-5.64680E+03 7.25378E+04 2.12998E+04 1.98539E+02-2.42380E-10 2.07198E-09
 -1        89 1.94019E+04 8.44647E+04 2.97690E+04-1.01754E+03-7.70797E-11-8.92806E-11
 -1        90-1.37391E+04 6.89099E+04 3.32781E+04 1.87839E+02-3.00133E-10 4.27090E-10
 -1        91-5.23071E+05-7.12713E+04-6.28245E+03-1.97465E+05 2.03613E-10 2.80806E-10
 -1        92-5.26954E+05-7.64030E+04-4.35898E+03-1.95626E+05 1.09549E-09 3.00815E-10
 -1        93-5.24178E+05-7.36908E+04-1.47492E+03-1.97222E+05 3.31340E-10 1.57166E-09
 -1        94-5.25499E+05-7.37569E+04-9.26203E+02-1.96081E+05 7.26740E-10 6.89198E-10
 -1        95-5.24525E+05-7.39155E+04-3.60574E+02-1.97010E+05 5.92777E-10 5.98803E-10
 -1        96-5.24810E+05-7.37849E+04-2.33264E+02-1.96647E+05 8.67935E-10-7.21620E-10
 -1        97-5.24866E+05-7.36627E+04-1.60923E+02-1.96656E+05 2.47127E-10-7.93063E-10
 -1        98-5.24301E+05-7.42741E+04-2.28966E+02-1.97235E+05 3.17945E-10 3.67208E-11
 -1        99-5.25035E+05-7.34261E+04-3.63910E+02-1.96422E+05 5.62665E-10-1.39690E-09
 -1       100-5.24360E+05-7.46694E+04-8.79559E+02-1.97328E+05-6.93809E-11 6.61771E-10
 -1       101-5.24807E+05-7.32674E+04-1.51141E+03-1.96563E+05 9.79782E-10 5.21140E-10
 -1       102-5.25797E+05-7.60998E+04-4.05933E+03-1.96559E+05 5.44759E-10-1.00817E-09
 -1       103-5.23599E+05-7.19974E+04-6.50704E+03-1.97191E+05 3.39924E-10 1.78261E-09
 -1       104-5.32926E+05-8.71310E+04-1.92697E+04-1.93774E+05 5.77529E-11 9.42919E-10
 -1       105-5.17685E+05-6.22440E+04-2.77587E+04-1.99348E+05-5.02951E-10 6.00267E-10
 -1       106-3.02242E+05 9.56357E+02-2.21251E+03-5.27646E-09 4.69490E-10-8.37304E-10
 -1       107-3.03175E+05-1.10721E+03-1.56640E+03-1.78049E-08 2.62261E-10 8.04931E-10
 -1       108-3.02611E+05 1.49978E+02-5.75316E+02-8.88328E-08-2.55789E-10 1.24857E-09
 -1       109-3.02744E+05-1.73952E+02-3.65830E+02 6.70922E-09 1.52258E-10-1.51888E-09
 -1       110-3.02672E+05 2.38505E+01-1.58179E+02-2.55639E-08 4.19382E-10-3.94209E-11
 -1       111-3.02675E+05-3.05131E+01-1.11301E+02 4.46450E-08-1.56471E-10 9.29750E-10
 -1       112-3.02681E+05 6.64599E+00-8.67982E+01 3.55158E-08-5.59599E-11 2.38076E-10
 -1       113-3.02674E+05-2.69288E+01-1.30462E+02-1.28128E-08 2.32181E-10 1.39196E-09
 -1       114-3.02673E+05 2.02716E+01-2.08959E+02-4.38513E-08 9.44979E-11-8.96868E-10
 -1       115-3.02738E+05-1.47669E+02-4.64860E+02 6.71426E-08-5.25455E-10-2.73752E-09
 -1       116-3.02617E+05 1.27309E+02-7.94527E+02-2.02778E-08-1.03160E-10-3.19886E-10
 -1       117-3.03126E+05-9.43195E+02-1.95512E+03 3.25607E-08-8.65888E-10-5.49221E-10
 -1       118-3.02285E+05 8.15209E+02-3.11231E+03-7.45564E-09-9.58261E-10-8.37076E-10
 -1       119-3.05469E+05-6.02039E+03-8.50985E+03 5.79242E-08 5.25531E-10-4.69868E-10
 -1       120-3.00275E+05 5.20052E+03-1.20276E+04 7.06682E-08 1.72860E-10 3.68345E-10
 -1       121-4.23125E+02-2.56794E+05 1.99578E+03 3.47669E+03-4.47926E-11-7.56359E-10
 -1       122 6.16232E+02-2.56050E+05 1.36888E+03 1.24409E+04-1.62174E-10-8.16954E-10
 -1       123-6.61710E+01-2.56517E+05 7.45935E+02 3.49151E+03-2.33882E-10 1.61390E-09
 -1       124 3.46836E+02-2.56198E+05 8.87014E+02 1.23773E+04-5.61386E-10 5.70253E-10
 -1       125-2.24006E+02-2.56629E+05 1.07442E+03 3.54037E+03-6.55632E-10 2.50793E-10
 -1       126-2.57636E+05-3.55341E+04-1.38051E+03-9.66323E+04-2.08104E-10-1.20008E-09
 -1       127-2.57617E+05-3.74144E+04-9.42612E+02-9.70915E+04-9.25279E-10-1.55239E-10
 -1       128-2.58073E+05-3.58341E+04-3.24557E+02-9.63173E+04-4.44064E-10 4.22617E-10
 -1       129-2.57118E+05-3.70599E+04-2.02073E+02-9.74486E+04-3.39027E-11-1.17750E-09
 -1       130-2.58135E+05-3.58877E+04-8.13892E+01-9.62758E+04-7.35447E-10-4.26187E-10
 -1       131-2.57178E+05-3.68405E+04-5.19762E+01-9.73105E+04 9.45063E-10 1.92051E-09
 -1       132-2.58012E+05-3.60538E+04-5.11635E+01-9.64551E+04 6.63697E-10 4.76357E-10
 -1       133-2.57550E+05-3.64316E+04-6.33344E+01-9.68353E+04-3.77057E-10-1.27727E-10
 -1       134-2.57763E+05-3.62973E+04-1.36121E+02-9.67504E+04-3.97680E-10-5.62707E-10
 -1       135-2.58104E+05-3.60496E+04-3.02283E+02-9.62679E+04-1.19119E-09 2.29175E-10
 -1       136-2.57459E+05-3.64357E+04-5.43962E+02-9.70226E+04-1.97133E-10-3.79686E-10
 -1       137-2.58850E+05-3.63805E+04-1.45182E+03-9.57905E+04 1.21609E-10 7.37529E-10
 -1       138-2.57017E+05-3.59662E+04-2.32875E+03-9.72284E+04-1.06724E-09-1.21531E-10
 -1       139-2.61219E+05-4.05065E+04-6.89671E+03-9.49979E+04 1.15665E-09-4.13024E-10
 -1       140-2.55091E+05-3.23123E+04-9.94367E+03-9.78145E+04 7.87622E-10 4.68390E-10
 -1       141-1.43778E+05-8.89667E+02 2.05671E+03 7.43916E-08 6.03736E-11-4.10637E-10
 -1       142-1.42872E+05 1.02981E+03 1.45291E+03-3.93655E-08-4.64261E-11 6.53102E-10
 -1       143-1.43434E+05-1.39331E+02 5.26338E+02-4.51381E-08-1.15671E-10 3.72864E-10
 -1       144-1.43274E+05 1.60313E+02 3.21387E+02 4.36000E-08-2.38356E-10 3.15119E-10
 -1       145-1.43377E+05-2.08642E+01 1.10740E+02 6.05135E-09-1.31285E-10-5.53911E-10
 -1       146-1.43345E+05 1.82520E+01 2.56098E+01-5.23418E-08-1.16001E-10-3.21418E-10
 -1       147-1.43364E+05 2.62667E+00-6.53072E+01-4.00837E-08-2.35976E-10 3.13371E-10
 -1       148-1.43379E+05-4.12934E+01-2.00116E+02 3.21465E-08-4.13664E-11-9.90809E-10
 -1       149-1.43343E+05 3.86493E+01-3.88359E+02-3.03226E-08-1.68403E-10-8.50250E-10
 -1       150-1.43511E+05-2.91481E+02-9.09318E+02 4.69792E-08-1.41741E-10-2.13232E-09
 -1       151-1.43231E+05 2.52658E+02-1.57195E+03 4.24784E-08-1.60457E-10-1.94916E-10
 -1       152-1.44282E+05-1.87335E+03-3.88087E+03 9.70104E-09-2.63289E-12 9.53776E-10
 -1       153-1.42572E+05 1.61936E+03-6.18169E+03 5.01216E-09 5.96084E-10 7.54653E-10
 -1       154-1.48937E+05-1.19594E+04-1.69048E+04 3.82290E-08 3.28316E-10 5.12500E-10
 -1       155-1.38577E+05 1.03308E+04-2.38922E+04-6.44428E-08 1.62759E-09 8.46740E-10
 -1       156-4.68088E+03-4.90004E+04 1.11442E+04-2.97197E+02-8.59472E-11-4.45658E-10
 -1       157 6.16779E+03-4.39091E+04 9.21595E+03 1.19923E+03-2.36014E-10-7.14152E-10
 -1       158-1.48195E+03-4.75504E+04 5.59089E+03-2.96900E+02-9.14326E-11-1.28008E-10
 -1       159 6.49739E+03-4.37304E+04 9.64810E+03 1.16492E+03 5.68434E-13-7.24199E-10
 -1       160-5.01070E+03-4.91784E+04 1.18721E+04-2.62883E+02 2.53749E-10-6.62943E-10
 -1       161-1.49306E+05-2.08614E+04-3.13451E+02-5.60275E+04 4.05649E-06-1.52121E-06
 -1       162-1.49407E+05-2.11988E+04-2.18868E+02-5.60270E+04 8.07014E-06-3.02772E-06
 -1       163-1.49374E+05-2.09696E+04-7.69077E+01-5.60014E+04 1.79206E-07-6.86939E-08
 -1       164-1.49331E+05-2.10713E+04-5.39904E+01-5.60535E+04-7.71791E-06 2.89496E-06
 -1       165-1.49381E+05-2.09889E+04-3.30823E+01-5.60010E+04-3.87414E-06 1.45278E-06
 -1       166-1.49333E+05-2.10474E+04-4.70351E+01-5.60455E+04-1.13906E-08 4.22947E-09
 -1       167-1.49372E+05-2.09934E+04-7.45729E+01-5.60094E+04 8.99663E-11-6.65423E-10
 -1       168-1.49374E+05-2.10672E+04-1.71464E+02-5.60209E+04 3.76883E-10-6.93488E-10
 -1       169-1.49341E+05-2.09692E+04-3.09957E+02-5.60256E+04-2.59931E-10 1.03330E-09
 -1       170-1.49550E+05-2.13007E+04-7.78647E+02-5.59552E+04 1.13280E-09 1.20608E-10
 -1       171-1.49196E+05-2.07601E+04-1.34486E+03-5.60751E+04-6.70980E-10 6.61089E-10
 -1       172-1.50522E+05-2.29045E+04-3.62611E+03-5.56431E+04-1.10688E-08 4.95578E-09
 -1       173-1.48369E+05-1.93664E+04-5.80555E+03-5.63375E+04-4.51132E-06 1.69141E-06
 -1       174-1.56409E+05-3.32168E+04-1.72013E+04-5.36926E+04-8.99437E-06 3.37437E-06
 -1       175-1.43311E+05-1.04544E+04-2.47740E+04-5.80233E+04-4.51601E-06 1.69155E-06
 -1       191 2.75764E+02 1.30837E+05 4.40406E+02-2.88209E+03-1.67347E-10-9.69294E-10
 -1       192 1.02606E+02 1.30897E+05 2.63947E+02-3.06918E+03-2.27544E-10 2.25555E-10
 -1       193 4.98739E+01 1.30858E+05 2.13629E+02-2.82632E+03-4.21736E-10-1.20963E-10
 -1       194 1.36179E+02 1.30907E+05 3.24644E+02-3.17451E+03-5.09090E-10 1.12618E-09
 -1       195 3.80110E+02 1.30824E+05 5.91406E+02-2.77666E+03-6.69388E-10 8.39236E-10
 -1       251-6.97839E+05 1.67167E+04-3.86594E+04-2.02301E+03-2.42707E-10-2.78305E-10
 -1       252-7.14403E+05-1.93463E+04-2.73269E+04 4.08752E+03 1.02418E-09-5.49335E-10
 -1       253-7.04402E+05 2.61785E+03-1.00330E+04-1.54025E+03-8.32188E-10-4.86580E-10
 -1       254-7.06604E+05-3.01693E+03-6.21813E+03 1.51277E+03-2.07249E-09-5.32850E-10
 -1       255-7.05622E+05 3.92422E+02-2.64201E+03 5.51781E+02-7.53033E-10 5.77415E-10
 -1       256-7.05454E+05-4.73285E+02-1.50072E+03-2.31466E+03 6.56915E-10 3.39924E-10
 -1       257-7.05551E+05 7.84414E+01-8.06885E+02 2.28724E+03-8.71005E-10 1.15128E-09
 -1       258-7.05474E+05-1.48100E+02-6.83683E+02-3.80086E+03-1.86186E-09-1.71085E-09
 -1       259-7.05607E+05 7.26181E+01-8.14861E+02 2.03802E+03-1.31913E-09 1.25019E-09
 -1       260-7.05387E+05-4.65520E+02-1.47621E+03-1.55202E+03 7.78922E-10-3.26395E-10
 -1       261-7.05631E+05 3.88758E+02-2.62379E+03 3.83464E+01-3.11019E-10 9.53492E-10
 -1       262-7.06648E+05-2.99721E+03-6.18080E+03 2.32138E+03-1.41142E-10 5.32964E-10
 -1       263-7.04350E+05 2.60333E+03-9.94164E+03-1.83544E+03-5.16181E-10-6.72571E-10
 -1       264-7.14347E+05-1.91940E+04-2.71147E+04 4.17787E+03-2.71902E-09-4.31100E-10
 -1       265-6.97948E+05 1.65792E+04-3.83663E+04-1.81817E+03-2.31208E-09-5.31145E-10
 -1       266-5.96512E+03-1.13536E+05 1.35216E+04 4.42392E+02-1.81899E-11 1.12448E-09
 -1       267 6.37255E+03-1.07647E+05 8.62742E+03-1.28958E+03 3.60387E-11 2.81942E-09
 -1       268-4.01718E+02-1.10914E+05 1.50755E+03 5.95619E+02-6.82121E-13 4.57788E-10
 -1       269-2.93537E+03-1.12025E+05-3.50919E+03-1.48357E+03 3.67208E-11-1.74002E-10
 -1       270 3.33681E+03-1.09161E+05-7.31643E+03 6.36383E+02 1.90994E-11 2.17607E-09
 -1       271-9.92617E+05-1.26106E+05-7.67643E+04-3.83643E+05-1.68257E-10 6.54836E-11
 -1       272-1.01699E+06-1.76561E+05-4.81261E+04-3.86653E+05-1.25056E-10-2.68619E-09
 -1       273-1.00580E+06-1.42667E+05-1.81060E+04-3.81847E+05 5.83498E-11 7.38510E-10
 -1       274-1.00175E+06-1.54658E+05-9.88558E+03-3.90070E+05 1.05501E-10 5.90262E-10
 -1       275-1.00735E+06-1.44317E+05-4.20978E+03-3.81621E+05-1.15733E-10 3.02180E-10
 -1       276-9.99940E+05-1.52549E+05-2.22080E+03-3.90490E+05-4.00973E-10 9.50649E-10
 -1       277-1.00758E+06-1.44447E+05-1.14116E+03-3.81559E+05-3.85171E-10-8.97273E-10
 -1       278-9.99700E+05-1.52406E+05-8.90238E+02-3.90584E+05-2.30784E-10 2.15266E-10
 -1       279-1.00760E+06-1.44434E+05-1.06186E+03-3.81542E+05 7.86471E-10 2.60002E-10
 -1       280-9.99865E+05-1.52579E+05-2.00434E+03-3.90562E+05 2.78646E-10-3.03385E-09
 -1       281-1.00742E+06-1.44294E+05-3.76590E+03-3.81573E+05 7.84780E-10 1.34833E-10
 -1       282-1.00145E+06-1.54499E+05-8.82994E+03-3.90235E+05-2.54005E-10 1.37493E-09
 -1       283-1.00605E+06-1.42803E+05-1.61619E+04-3.81756E+05 8.50093E-10 9.60426E-10
 -1       284-1.01502E+06-1.74084E+05-4.29599E+04-3.87227E+05 4.09273E-11 4.27463E-10
 -1       285-9.94300E+05-1.28003E+05-6.85205E+04-3.83340E+05-1.23691E-10 1.11322E-09
 -1       286-1.35326E+05-5.31355E+03 1.22872E+04-7.02515E+01 3.49939E-10-5.05679E-10
 -1       287-1.29947E+05 6.15142E+03 8.69986E+03-7.23376E+01-1.64677E-11-1.58127E-09
 -1       288-1.33272E+05-8.33235E+02 3.18035E+03 2.10866E+01-1.58362E-10-2.38288E-10
 -1       289-1.32346E+05 9.64275E+02 2.00613E+03-2.44326E+02 2.31812E-10-2.62503E-10
 -1       290-1.32928E+05-1.30530E+02 8.20657E+02 1.01741E+02 4.47322E-11-1.37376E-09
 -1       291-1.32749E+05 1.53658E+02 4.97787E+02-3.77090E+02 1.51275E-10 9.04492E-10
 -1       292-1.32868E+05-2.30384E+01 2.53325E+02 1.53853E+02 2.73584E-10-1.75639E-10
 -1       293-1.32811E+05 4.55867E+01 2.21607E+02-4.42061E+02 1.39718E-10-9.63782E-10
 -1       294-1.32867E+05-2.24126E+01 2.48456E+02 1.66714E+02 3.83373E-10 7.14806E-11
 -1       295-1.32757E+05 1.48638E+02 4.81976E+02-4.25909E+02 1.98277E-10 1.16017E-09
 -1       296-1.32923E+05-1.26051E+02 7.94458E+02 1.37700E+02-3.69862E-10 5.17559E-10
 -1       297-1.32367E+05 9.31752E+02 1.93803E+03-3.32007E+02-5.00698E-10 8.26333E-10
 -1       298-1.33255E+05-8.05106E+02 3.07390E+03 7.28103E+01-3.73287E-10-3.69027E-10
 -1       299-1.30046E+05 5.94438E+03 8.40679E+03-1.80693E+02-3.26182E-10-3.06159E-10
 -1       300-1.35244E+05-5.13476E+03 1.18735E+04-1.36170E+01 2.63828E-10-2.23736E-10
 -1       301 1.35660E+04 3.83989E+03 3.04606E+04-9.90734E+03-2.51930E-10 1.16100E-09
 -1       302 4.59234E+03 9.59573E+03 1.87132E+04-1.16587E+04-3.35945E-10-1.85132E-11
 -1       303 1.25990E+03 5.88482E+03 1.50484E+04-9.90481E+03-3.02407E-10-3.90031E-10
 -1       304 5.97705E+03 1.04301E+04 2.24696E+04-1.16485E+04-2.71257E-10-2.11912E-10
 -1       305 1.80397E+04 3.00756E+03 3.95576E+04-9.91484E+03-2.56478E-10 3.80965E-10
 -1       306-6.57676E+05-8.65074E+04-4.26460E+04-2.54956E+05-2.13731E-11-7.20320E-10
 -1       307-6.66825E+05-1.18871E+05-2.67290E+04-2.61619E+05-8.64020E-12-5.47516E-10
 -1       308-6.65023E+05-9.56693E+04-1.00619E+04-2.53934E+05-5.77757E-10-1.97315E-09
 -1       309-6.58348E+05-1.06737E+05-5.49568E+03-2.63559E+05 2.53408E-10-1.28011E-09
 -1       310-6.65892E+05-9.65781E+04-2.34794E+03-2.53805E+05 5.19663E-10-8.13088E-10
 -1       311-6.57351E+05-1.05565E+05-1.25261E+03-2.63796E+05 2.10491E-10-3.97989E-10
 -1       312-6.66015E+05-9.66537E+04-6.72478E+02-2.53776E+05 3.87161E-10-1.56842E-10
 -1       313-6.57239E+05-1.05473E+05-5.78705E+02-2.63831E+05 1.39353E-10-8.18545E-11
 -1       314-6.66009E+05-9.66547E+04-7.60291E+02-2.53779E+05 5.23869E-10 7.20433E-10
 -1       315-6.57390E+05-1.05584E+05-1.49417E+03-2.63780E+05-1.78488E-10 1.10140E-09
 -1       316-6.65856E+05-9.65622E+04-2.83920E+03-2.53815E+05 1.15961E-10 4.69754E-10
 -1       317-6.58602E+05-1.07014E+05-6.67088E+03-2.63499E+05 4.63842E-11-3.91083E-11
 -1       318-6.64806E+05-9.54519E+04-1.22196E+04-2.53964E+05 7.27596E-12 8.94033E-10
 -1       319-6.68884E+05-1.21776E+05-3.24707E+04-2.61172E+05-2.83180E-10 3.47427E-10
 -1       320-6.55894E+05-8.43020E+04-5.18017E+04-2.55188E+05-5.79348E-10 7.85803E-10
 -1       321-1.84124E+05-3.23227E+03 7.47359E+03-6.30405E+01-6.24382E-10 2.56932E-10
 -1       322-1.80843E+05 3.74192E+03 5.29089E+03-7.89436E+01-2.36032E-10 7.78755E-12
 -1       323-1.82873E+05-5.06815E+02 1.93259E+03 3.39003E+01-7.76108E-11 2.08502E-10
 -1       324-1.82304E+05 5.86209E+02 1.21568E+03-2.54481E+02 5.04414E-11-6.75755E-10
 -1       325-1.82664E+05-7.90517E+01 4.91229E+02 1.12500E+02 3.49988E-10-4.46704E-10
 -1       326-1.82551E+05 9.11192E+01 2.84903E+02-3.70962E+02 1.56008E-10-5.97499E-10
 -1       327-1.82626E+05-1.19748E+01 1.21507E+02 1.50384E+02-1.41206E-10-3.11907E-10
 -1       328-1.82594E+05 1.28055E+01 6.27573E+01-3.95606E+02 1.92539E-11 6.60890E-10
 -1       329-1.82621E+05-7.56107E-01 2.03067E+01 1.37145E+02 1.41228E-10 8.37913E-10
 -1       330-1.82600E+05-5.65089E+00-6.85291E+00-3.21583E+02-7.94156E-11 7.33436E-10
 -1       331-1.82620E+05 6.38459E+00-3.52909E+01 7.63592E+01-1.73069E-10-1.16949E-09
 -1       332-1.82616E+05-4.96243E+01-9.77377E+01-1.69202E+02 4.72983E-10 2.39517E-10
 -1       333-1.82605E+05 4.30691E+01-1.65133E+02-1.52387E+01 1.26228E-10 4.65192E-10
 -1       334-1.82740E+05-3.19784E+02-4.49471E+02 1.97743E+01 2.69985E-10-8.41169E-10
 -1       335-1.82497E+05 2.76302E+02-6.41159E+02-1.12620E+02-5.03556E-10 2.58296E-10
 -1       336-5.66235E+01-2.63486E+05-9.87129E+01-4.28479E+03-1.07968E-09 3.93538E-09
 -1       337-1.35223E+02-2.63554E+05-9.88177E+02-1.55452E+04-2.00325E-09 6.30530E-09
 -1       338 1.88992E+02-2.63288E+05-2.18669E+03-4.23991E+03-1.33184E-09 7.18637E-09
 -1       339-2.67265E+03-2.65106E+05-5.61096E+03-1.55920E+04-2.21087E-09 4.57098E-09
 -1       340 1.93064E+03-2.61950E+05-8.89924E+03-4.23831E+03-1.25601E-09 3.14847E-09
 -1       341-3.25425E+05-4.84277E+04-1.14200E+04-1.28046E+05 1.73652E-08 2.24554E-09
 -1       342-3.11454E+05-3.25495E+04-1.19025E+03-9.81507E+04 1.08546E-08-2.65629E-10
 -1       343-3.08758E+05-5.21217E+04-2.25872E+03-1.28487E+05-1.05337E-08-7.33377E-09
 -1       344-3.27735E+05-2.83589E+04-3.29997E+02-9.79369E+04 2.90444E-08 3.70034E-09
 -1       345-3.09408E+05-5.24136E+04-9.40198E+02-1.28471E+05 3.15611E-08 2.40362E-10
 -1       346-3.08827E+05-3.01393E+04 3.69389E+03-9.86438E+04-7.58155E-09-4.46275E-09
 -1       347-3.27387E+05-5.05555E+04-3.73201E+03-1.27557E+05 1.22399E-08-1.52249E-09
 -1       348-2.84108E+05-3.91032E+04 6.76791E+03-1.07234E+05 2.12290E-08-2.94659E-09
 -1       349-3.33854E+05-4.36605E+04-3.89901E+03-1.19675E+05-2.88151E-09-3.42624E-09
 -1       350-2.86556E+05-5.35326E+04 2.83060E+03-1.25128E+05 1.28738E-08-6.60650E-09
 -1       351-3.25218E+05-3.59124E+04-2.20988E+03-1.09882E+05-4.29395E-09-7.33394E-09
 -1       352-2.96411E+05-6.27179E+04-3.92705E+03-1.34772E+05-4.14526E-08-2.01323E-08
 -1       353-3.24276E+05-3.42618E+04-8.08571E+03-1.10238E+05 1.00518E-08-3.17868E-10
 -1       354-2.94813E+05-6.77922E+04-1.81946E+04-1.22237E+05-1.22809E-08-2.87923E-09
 -1       355-3.26537E+05-3.10644E+04-3.61235E+04-1.22204E+05-3.41151E-09-1.07502E-09
 -1       356-1.86064E+05 4.15666E+02-9.63443E+02-1.52579E+02-3.34470E-10-8.84995E-10
 -1       357-1.86458E+05-4.81247E+02-6.82718E+02 1.62645E+02-7.58691E-10 4.66336E-10
 -1       358-1.86227E+05 6.51561E+01-2.56688E+02-8.61466E+01-3.90401E-10 3.71273E-10
 -1       359-1.86268E+05-7.63644E+01-1.69397E+02 1.28936E+01 1.77611E-10 9.32911E-10
 -1       360-1.86253E+05 1.10450E+01-9.29291E+01-2.82479E+00-9.91047E-11-6.16758E-10
 -1       361-1.86243E+05-1.95692E+01-9.64957E+01-1.47474E+02 1.72211E-10 3.80943E-10
 -1       362-1.86252E+05 8.43093E+00-1.31281E+02 7.42239E+01-3.99307E-10-3.47832E-10
 -1       363-1.86268E+05-5.39173E+01-2.60677E+02-2.73690E+02-6.77852E-09-1.69319E-09
 -1       364-1.86228E+05 4.54618E+01-4.61830E+02 1.23393E+02-2.00607E-06 1.03481E-09
 -1       365-1.86421E+05-3.37186E+02-1.05597E+03-3.30466E+02-4.00316E-06-1.78973E-09
 -1       366-1.86100E+05 2.91578E+02-1.81626E+03 1.31001E+02-2.00662E-06 2.29306E-10
 -1       367-1.87308E+05-2.16062E+03-4.47696E+03-3.01883E+02-5.93997E-09-1.24919E-09
 -1       368-1.85341E+05 1.86753E+03-7.13019E+03 9.48088E+01 7.98719E-10-3.83807E-10
 -1       369-1.92672E+05-1.37921E+04-1.94946E+04-1.94372E+02 5.45954E-10-8.09223E-10
 -1       370-1.80736E+05 1.19139E+04-2.75547E+04 2.34891E+01 1.86434E-09-9.27685E-11
 -1       371-4.79712E+03-5.05127E+04 1.08975E+04 1.96832E+02 5.80712E-10-1.17480E-09
 -1       372 5.10939E+03-4.59148E+04 6.90203E+03-6.82339E+02 7.45104E-10-9.82071E-10
 -1       373-3.07844E+02-4.84450E+04 1.16074E+03 1.93534E+02 5.65251E-10 2.08717E-10
 -1       374-2.47780E+03-4.94078E+04-2.98279E+03-6.52923E+02 5.60590E-10-7.19691E-10
 -1       375 2.78377E+03-4.70198E+04-6.11889E+03 1.67414E+02 2.93312E-10 4.88516E-10
 -1       376-2.51552E+05-3.18695E+04-9.58900E+03-9.63197E+04 6.96701E-06-2.61485E-06
 -1       377-2.57208E+05-4.00659E+04-6.65807E+03-9.39378E+04 1.38769E-05-5.21488E-06
 -1       378-2.53501E+05-3.53259E+04-2.25121E+03-9.56767E+04 6.96083E-06-2.61505E-06
 -1       379-2.54837E+05-3.61579E+04-1.41031E+03-9.47837E+04 1.73423E-08-7.03901E-09
 -1       380-2.53922E+05-3.57751E+04-5.42796E+02-9.54744E+04-1.34456E-10-8.31335E-11
 -1       381-2.54212E+05-3.57820E+04-3.40693E+02-9.51732E+04-1.73972E-09-1.23610E-09
 -1       382-2.54125E+05-3.57016E+04-2.10045E+02-9.52869E+04 6.03119E-10-1.56955E-09
 -1       383-2.53900E+05-3.60241E+04-2.69290E+02-9.55175E+04-8.81670E-10-5.95985E-11
 -1       384-2.54234E+05-3.55328E+04-4.08934E+02-9.51301E+04-1.12085E-09-8.33012E-10
 -1       385-2.53905E+05-3.65179E+04-9.71320E+02-9.56943E+04-1.36871E-09-1.44735E-09
 -1       386-2.54120E+05-3.52078E+04-1.66134E+03-9.51104E+04 9.72619E-10-4.44516E-11
 -1       387-2.55074E+05-3.85161E+04-4.46589E+03-9.53404E+04-9.96437E-10-4.79417E-10
 -1       388-2.53066E+05-3.35359E+04-7.14938E+03-9.54839E+04-2.02363E-10 3.92447E-10
 -1       389-2.62483E+05-5.10331E+04-2.11730E+04-9.27332E+04 7.95808E-10-5.05679E-10
 -1       390-2.46713E+05-2.26993E+04-3.05026E+04-9.77150E+04 9.42691E-10 2.51021E-10
 -1       406 3.09721E+02 1.29603E+05 6.75001E+02-9.68843E+03-8.97671E-10 1.14574E-09
 -1       407 2.03413E+02 1.29727E+05 8.27320E+02-1.06168E+04-1.03068E-09 1.48577E-09
 -1       408 3.37268E+02 1.29582E+05 1.36926E+03-9.64281E+03-1.08776E-09 1.04326E-08
 -1       409 1.35827E+03 1.30114E+05 2.94267E+03-1.06867E+04-1.24385E-09 1.97756E-08
 -1       410 3.91992E+03 1.29210E+05 5.93582E+03-9.61734E+03-1.22327E-09 9.85540E-09
 -1       466 4.88619E+05-1.98164E+04 4.57504E+04 1.75966E+03-4.01457E-11 1.76078E-09
 -1       467 5.09012E+05 2.29303E+04 3.24710E+04-2.98589E+03 2.78174E-10 9.82254E-10
 -1       468 4.96497E+05-3.09894E+03 1.18654E+04 5.64783E+02-2.48967E-10 7.38510E-10
 -1       469 4.99839E+05 3.58641E+03 7.49051E+03-1.32670E+03-2.01332E-10 3.30601E-10
 -1       470 4.97792E+05-4.85209E+02 3.09727E+03 1.00485E+02-1.86251E-10-1.01977E-10
 -1       471 4.98339E+05 5.79356E+02 1.92261E+03-6.87763E+02-5.99964E-10 3.33557E-10
 -1       472 4.97999E+05-9.36190E+01 1.07891E+03-7.41652E+01 1.86625E-10-2.19558E-10
 -1       473 4.98156E+05 2.30033E+02 1.11852E+03-4.69885E+02 4.69633E-10-3.81860E-10
 -1       474 4.97974E+05-1.36043E+02 1.45709E+03-1.17398E+02 1.42293E-10-6.91784E-10
 -1       475 4.98528E+05 9.43418E+02 3.01609E+03-4.75997E+02-5.22303E-10-1.33127E-09
 -1       476 4.97626E+05-8.06535E+02 5.06698E+03-6.80526E+01 3.60122E-10-6.82803E-10
 -1       477 5.00981E+05 5.96959E+03 1.24006E+04-7.12072E+02 9.99741E-10-7.62157E-10
 -1       478 4.95519E+05-5.15845E+03 1.97188E+04 1.18682E+02 1.83642E-10 5.32054E-10
 -1       479 5.15851E+05 3.81035E+04 5.38886E+04-1.40551E+03 5.36009E-10-6.06633E-10
 -1       480 4.82750E+05-3.29128E+04 7.61563E+04 6.25375E+02 2.18664E-09 5.05679E-10
 -1       481-3.70546E+03 7.42939E+04 8.57746E+03-4.94300E+02 2.13731E-11 3.56792E-10
 -1       482 4.42127E+03 7.83367E+04 6.35191E+03 1.33266E+03-8.18545E-12 2.39451E-09
 -1       483-7.15054E+02 7.57333E+04 2.69084E+03-3.54062E+02 2.30784E-11 1.23198E-09
 -1       484 1.69466E+03 7.69717E+04 2.78800E+03 1.11926E+03 2.44000E-11 2.53621E-10
 -1       485-9.79234E+02 7.56564E+04 2.50743E+03-2.80889E+02 3.63798E-11-3.95421E-10
 -1       486-4.53762E+05-4.99356E+04-4.29553E+04-1.81390E+05 3.16504E-10 3.91083E-10
 -1       487-4.83602E+05-8.10199E+04-2.96386E+04-1.64273E+05 7.38055E-10 1.13323E-09
 -1       488-4.62362E+05-6.53609E+04-1.01068E+04-1.78546E+05-3.96540E-10-3.98359E-10
 -1       489-4.70046E+05-6.51211E+04-5.87961E+03-1.69660E+05 2.53749E-10-9.29958E-10
 -1       490-4.67284E+05-6.58451E+04-2.70401E+03-1.75984E+05 9.68470E-10-4.70322E-10
 -1       491-4.62944E+05-6.71250E+04-8.69210E+02-1.75601E+05 6.46168E-11 4.53156E-10
 -1       492-4.69450E+05-6.33652E+04-8.25200E+02-1.72596E+05 3.53552E-10 2.24745E-09
 -1       493-4.60714E+05-7.06820E+04-3.99210E+02-1.80354E+05 2.92246E-10 4.69635E-09
 -1       494-4.69547E+05-6.22591E+04-5.91241E+02-1.71258E+05 2.47713E-10 1.50504E-09
 -1       495-4.61186E+05-7.02521E+04-1.02397E+03-1.79388E+05-8.04369E-10 1.94794E-09
 -1       496-4.68970E+05-6.38029E+04-2.39276E+03-1.73554E+05-7.70513E-11 2.10412E-09
 -1       497-4.65745E+05-6.80913E+04-5.09641E+03-1.73436E+05 2.95387E-10-3.06159E-10
 -1       498-4.64962E+05-6.44457E+04-9.33291E+03-1.77187E+05 1.27579E-09-1.58934E-09
 -1       499-4.80610E+05-7.98691E+04-2.65003E+04-1.65673E+05 1.56751E-09-1.46974E-09
 -1       500-4.54138E+05-5.20134E+04-3.85808E+04-1.81336E+05-2.47564E-09 3.63980E-09
 -1       501-1.58469E+05-7.97495E+03 1.84402E+04-6.16242E+01 3.45747E-10 3.26509E-10
 -1       502-1.50395E+05 9.23245E+03 1.30554E+04-1.47419E+02 9.57936E-11 1.63186E-09
 -1       503-1.55383E+05-1.25049E+03 4.76882E+03 7.25247E+01-2.40853E-10 2.32831E-10
 -1       504-1.54001E+05 1.44652E+03 3.00132E+03-3.91017E+02 2.92104E-11-1.75055E-09
 -1       505-1.54866E+05-1.95183E+02 1.21461E+03 1.81981E+02 2.50228E-10-9.73728E-11
 -1       506-1.54611E+05 2.25697E+02 7.08968E+02-5.56962E+02 3.09229E-10 5.74246E-10
 -1       507-1.54773E+05-3.02618E+01 3.10609E+02 2.38472E+02 3.79518E-10-1.68697E-10
 -1       508-1.54717E+05 3.66408E+01 1.78643E+02-6.03471E+02 2.48912E-10-4.46033E-10
 -1       509-1.54761E+05-6.14255E+00 9.35674E+01 2.28491E+02 5.72443E-10 3.15978E-11
 -1       510-1.54719E+05 1.79413E+01 8.24211E+01-5.19375E+02 1.14191E-09 4.63669E-10
 -1       511-1.54771E+05-1.17550E+01 8.48979E+01 1.54374E+02 3.34605E-10-7.43423E-10
 -1       512-1.54672E+05 8.19488E+01 1.82338E+02-3.24384E+02 1.44476E-10 3.95687E-10
 -1       513-1.54807E+05-7.04146E+01 2.66958E+02 3.34963E+01 3.70868E-10 1.11189E-09
 -1       514-1.54464E+05 5.16204E+02 7.36607E+02-6.42234E+01-4.19398E-10 1.35913E-10
 -1       515-1.54979E+05-4.45826E+02 1.02437E+03-1.05791E+02-2.70440E-10-1.00215E-10
 -1       516-2.00820E+04 1.48236E+05 4.70183E+04-1.23493E+03-1.90994E-10 1.18284E-10
 -1       517 2.45608E+04 1.69199E+05 3.56083E+04 4.86869E+03-3.78350E-10-6.55255E-10
 -1       518-4.46081E+03 1.55289E+05 1.68662E+04-1.31918E+03-1.82808E-10 6.15124E-10
 -1       519 1.36942E+04 1.64933E+05 2.15256E+04 5.60795E+03-9.46443E-10-5.54060E-10
 -1       520-9.23719E+03 1.52519E+05 2.23303E+04-1.97424E+03-5.40240E-10-3.20833E-09
 -1       521-9.74932E+05-1.25917E+05-6.65865E+04-3.76176E+05-2.76486E-10 1.05501E-10
 -1       522-9.94184E+05-1.71553E+05-4.17428E+04-3.80941E+05 9.65173E-10-5.45697E-12
 -1       523-9.86371E+05-1.40271E+05-1.57048E+04-3.74610E+05 1.77863E-10-2.94676E-10
 -1       524-9.80965E+05-1.52559E+05-8.57616E+03-3.83910E+05 2.56819E-10 2.31466E-10
 -1       525-9.87715E+05-1.41705E+05-3.65329E+03-3.74418E+05 1.32673E-10-8.10815E-10
 -1       526-9.79411E+05-1.50713E+05-1.93206E+03-3.84256E+05-3.78463E-10 7.80545E-10
 -1       527-9.87900E+05-1.41832E+05-1.00092E+03-3.74379E+05 4.47926E-11 2.67050E-10
 -1       528-9.79235E+05-1.50556E+05-7.97363E+02-3.84295E+05-3.28505E-10-8.30710E-10
 -1       529-9.87893E+05-1.41841E+05-9.72146E+02-3.74388E+05-5.35579E-10-6.93831E-10
 -1       530-9.79431E+05-1.50672E+05-1.85233E+03-3.84216E+05-7.84610E-10-6.76664E-10
 -1       531-9.87696E+05-1.41739E+05-3.49120E+03-3.74444E+05 4.70664E-10 1.71940E-09
 -1       532-9.80947E+05-1.52398E+05-8.18762E+03-3.83842E+05-3.99950E-10-1.00044E-11
 -1       533-9.86393E+05-1.40391E+05-1.49911E+04-3.74649E+05 9.33369E-11 9.82254E-11
 -1       534-9.93606E+05-1.70482E+05-3.98416E+04-3.80953E+05-4.33715E-11-9.27685E-11
 -1       535-9.75448E+05-1.26718E+05-6.35550E+04-3.76171E+05-2.56478E-10 6.76664E-10
 -1       536 8.67313E+03-3.53970E+03 1.63349E+04-2.88698E+03 1.73713E-10 9.18590E-11
 -1       537 1.45157E+04 4.93546E+03 1.03925E+04-1.01580E+04-6.40284E-10-2.86036E-10
 -1       538 1.11113E+04-3.60691E+02 4.22502E+03-2.84923E+03-1.21645E-10 2.78078E-10
 -1       539 1.17871E+04 4.63193E+02 2.34313E+03-1.01975E+04 5.36602E-10 5.86851E-10
 -1       540 1.13773E+04-4.13671E+01 1.06339E+03-2.84680E+03-2.59206E-11 9.01935E-10
 -1       541 1.14711E+04 4.22416E+01 5.56566E+02-1.01991E+04 2.19416E-11 9.10973E-10
 -1       542 1.14097E+04-5.47772E+00 2.59974E+02-2.84768E+03-1.43814E-10-1.84770E-10
 -1       543 1.14228E+04 5.07717E+00 1.24761E+02-1.01977E+04-8.68567E-11-1.00698E-10
 -1       544 1.14145E+04 2.78792E-01 4.26422E+01-2.84816E+03 1.37504E-10 9.75149E-11
 -1       545 1.14096E+04-8.18120E-01-1.58349E+01-1.01972E+04-1.14426E-10 2.71712E-11
 -1       546 1.14184E+04 3.99354E+00-7.82640E+01-2.84825E+03 1.45519E-11-3.99126E-10
 -1       547 1.13827E+04-3.95596E+01-1.99866E+02-1.01960E+04-2.02135E-10 3.03203E-10
 -1       548 1.14434E+04 3.10028E+01-3.72328E+02-2.84929E+03-1.58707E-10 1.19630E-09
 -1       549 1.11474E+04-4.39926E+02-9.21808E+02-1.01745E+04-1.83661E-10-7.15602E-10
 -1       550 1.16623E+04 3.10506E+02-1.45376E+03-2.86978E+03-3.84262E-11 5.58771E-11
 -1       551 3.68997E+03-9.54900E+04 8.72890E+03-1.45369E+05 1.54614E-10-1.42973E-09
 -1       552 1.61723E+03-9.38916E+04 7.16741E+03-1.70752E+05-2.68301E-10-6.73026E-11
 -1       553 1.00324E+03-9.52293E+04 8.71654E+03-1.45125E+05-3.09228E-11-4.11183E-09
 -1       554 5.14119E+03-9.18033E+04 1.66896E+04-1.70792E+05-3.63798E-12-7.10679E-09
 -1       555 1.50538E+04-9.76429E+04 3.17897E+04-1.45319E+05-4.82032E-11-5.18594E-09
 -1       556-6.41347E+04-3.54791E+04 6.29506E+03-6.33979E+04 1.66438E-10 1.63709E-10
 -1       557-5.84538E+04-4.16464E+04 3.09806E+03-6.77773E+04 5.06770E-09 4.41219E-09
 -1       558-6.41821E+04-3.75550E+04 1.30726E+03-6.21491E+04 6.26642E-09 1.19092E-08
 -1       559-5.89787E+04-4.26837E+04 6.39872E+02-6.79472E+04 5.23869E-10-3.13776E-10
 -1       560-6.42061E+04-3.75955E+04 2.86574E+02-6.21082E+04-8.09450E-11-3.96767E-10
 -1       561-5.90529E+04-4.27187E+04 1.34466E+02-6.80012E+04-2.05546E-10-7.45928E-10
 -1       562-6.42299E+04-3.75733E+04 4.84539E+01-6.21251E+04-1.00044E-11 1.35117E-10
 -1       563-5.90829E+04-4.27061E+04-3.20742E+00-6.80235E+04 1.86446E-11-2.73985E-11
 -1       564-6.42428E+04-3.75592E+04-5.95801E+01-6.21365E+04 2.95586E-11-3.36286E-10
 -1       565-5.91036E+04-4.26992E+04-1.52803E+02-6.80348E+04-7.88987E-11 2.04864E-10
 -1       566-6.42382E+04-3.75509E+04-3.26195E+02-6.21393E+04-1.12379E-10-8.00355E-11
 -1       567-5.91657E+04-4.27302E+04-7.21277E+02-6.80309E+04 1.90028E-10 5.15683E-10
 -1       568-6.41891E+04-3.76542E+04-1.48104E+03-6.20891E+04 4.13820E-11-8.86757E-11
 -1       569-5.99930E+04-4.36107E+04-3.49353E+03-6.78071E+04-3.01043E-10 6.91216E-10
 -1       570-6.38756E+04-4.03203E+04-7.11302E+03-6.09721E+04 1.19144E-10 4.07454E-10
 -1       571 8.30352E+04 3.97924E+03 6.02494E+03-2.13198E+04 1.94859E-10 1.64789E-10
 -1       572 8.39513E+04 1.36733E+03 2.95657E+03-2.34599E+04 1.96451E-10-2.20780E-10
 -1       573 8.34103E+04 3.13460E+02 1.31474E+03-2.12634E+04-1.88038E-10-2.38515E-10
 -1       574 8.35204E+04 9.86165E+01 6.59526E+02-2.35229E+04-1.80421E-10 2.41016E-11
 -1       575 8.34544E+04 9.74558E+00 3.11699E+02-2.12560E+04-8.06040E-11-4.23825E-10
 -1       576 8.34650E+04 2.17114E-01 1.59150E+02-2.35312E+04 8.99973E-11-2.68074E-10
 -1       577 8.34609E+04-4.90367E+00 7.94594E+01-2.12551E+04-2.33058E-11-1.70530E-11
 -1       578 8.34582E+04-3.35841E+00 4.52173E+01-2.35322E+04-1.41199E-10 1.37697E-09
 -1       579 8.34641E+04-4.03356E+00 3.13963E+01-2.12551E+04-6.38920E-11-9.26320E-10
 -1       580 8.34617E+04-3.44045E+00 3.52510E+01-2.35308E+04 7.36691E-11-7.38510E-10
 -1       581 8.34679E+04-3.15769E+00 5.49280E+01-2.12564E+04-6.86668E-11-7.73980E-10
 -1       582 8.34766E+04 9.68227E+00 1.08975E+02-2.35178E+04 8.54925E-11-3.27645E-10
 -1       583 8.34674E+04 4.24319E+01 2.13183E+02-2.12681E+04 1.49157E-10-1.22725E-09
 -1       584 8.35544E+04 2.10697E+02 4.77825E+02-2.34194E+04-5.48425E-10-6.08509E-10
 -1       585 8.34144E+04 6.30936E+02 9.72068E+02-2.13550E+04 7.50333E-11 2.21007E-10
 -1       586 6.17450E+02 3.54381E+04 1.15630E+03-5.20798E+04 1.48020E-10-5.90489E-10
 -1       587 3.38978E+02 3.56427E+04 1.14827E+03-5.74570E+04 4.83851E-10-2.23281E-10
 -1       588 4.30294E+02 3.54293E+04 1.68184E+03-5.20129E+04 1.06866E-10-6.21071E-10
 -1       589 1.61364E+03 3.60687E+04 3.48237E+03-5.74766E+04 5.42059E-10 4.49262E-10
 -1       590 4.60174E+03 3.50032E+04 6.96125E+03-5.20596E+04 1.38016E-10 3.21847E-10
 -1       591-3.84208E+04-1.30887E+04-7.45842E+03-1.96736E+04-2.63131E-09-6.92489E-09
 -1       592-3.86871E+04-1.21976E+04-3.66423E+03-2.18556E+04 1.54444E-10 5.04542E-10
 -1       593-3.86506E+04-1.03764E+04-1.55499E+03-2.09199E+04 5.52996E-09 1.22012E-08
 -1       594-3.78873E+04-1.11987E+04-7.60996E+02-2.19839E+04 3.22984E-10 5.43343E-10
 -1       595-3.86865E+04-1.02791E+04-3.50505E+02-2.09748E+04-5.97083E-10 7.62839E-11
 -1       596-3.78273E+04-1.11598E+04-1.77853E+02-2.19783E+04-1.86105E-10-4.15696E-10
 -1       597-3.86933E+04-1.02844E+04-9.69627E+01-2.09751E+04-8.43443E-10 2.87969E-10
 -1       598-3.78213E+04-1.11603E+04-7.78283E+01-2.19758E+04-4.11237E-09-6.57030E-09
 -1       599-3.86929E+04-1.02845E+04-9.90558E+01-2.09749E+04-6.12545E-10-1.36197E-10
 -1       600-3.78274E+04-1.11600E+04-1.83475E+02-2.19781E+04-2.48974E-10-5.94753E-10
 -1       601-3.86851E+04-1.02790E+04-3.62234E+02-2.09743E+04-2.86946E-10 3.11161E-10
 -1       602-3.78898E+04-1.11997E+04-7.87203E+02-2.19827E+04 9.28821E-11-2.67619E-10
 -1       603-3.86471E+04-1.03809E+04-1.60855E+03-2.09182E+04 2.49292E-09 8.04357E-09
 -1       604-3.87245E+04-1.22252E+04-3.79046E+03-2.18405E+04-1.62117E-10-7.62839E-10
 -1       605-3.84009E+04-1.31930E+04-7.71499E+03-1.96367E+04-1.88038E-10 2.36923E-10
 -1       606 2.79551E+04-3.31310E+03-5.01306E+03 8.23429E+03-1.54114E-09-9.82709E-10
 -1       607 2.71822E+04-1.13831E+03-2.45962E+03 8.97653E+03-3.88127E-10-1.68120E-09
 -1       608 2.76371E+04-2.60696E+02-1.09366E+03 8.17988E+03 1.08321E-09-8.29232E-10
 -1       609 2.75345E+04-7.98782E+01-5.47981E+02 9.03739E+03-7.40329E-10-4.22460E-10
 -1       610 2.75961E+04-5.58614E+00-2.58209E+02 8.17282E+03-1.81262E-09-7.88987E-10
 -1       611 2.75771E+04 3.77239E+00-1.30019E+02 9.04522E+03-3.10138E-09 8.67658E-10
 -1       612 2.75886E+04 7.51087E+00-6.16545E+01 8.17196E+03-1.37470E-09-4.66571E-10
 -1       613 2.75822E+04 6.88706E+00-2.84673E+01 9.04630E+03-1.95666E-09-9.44851E-10
 -1       614 2.75860E+04 5.95150E+00-8.35804E+00 8.17173E+03-3.45608E-10-1.77863E-10
 -1       615 2.75829E+04 6.62286E+00 7.41792E+00 9.04646E+03 1.46565E-09 3.22359E-10
 -1       616 2.75841E+04 6.94662E+00 2.65645E+01 8.17180E+03-1.48839E-09-4.92776E-10
 -1       617 2.75875E+04 1.63843E+01 6.27461E+01 9.04621E+03-4.10637E-10-6.45514E-10
 -1       618 2.75787E+04 3.70208E+01 1.28181E+02 8.17196E+03-1.35060E-10-1.65755E-10
 -1       619 2.76290E+04 1.41403E+02 2.90024E+02 9.04497E+03-6.48015E-12-2.19882E-09
 -1       620 2.75411E+04 3.97537E+02 5.91842E+02 8.17285E+03 4.67850E-10-9.83050E-10
 -1       621 5.64513E+02 8.58470E+04 1.44462E+03-7.90006E+03-6.50516E-10-1.03717E-09
 -1       622 2.17172E+02 8.61223E+04 1.23738E+03-9.32060E+03-6.03166E-10-5.19776E-10
 -1       623 1.32914E+02 8.59023E+04 1.57187E+03-7.90744E+03-6.46537E-10-2.12981E-09
 -1       624 8.90186E+02 8.65293E+04 3.06441E+03-9.28175E+03-6.02029E-10-1.44939E-09
 -1       625 2.73907E+03 8.54434E+04 5.86831E+03-7.93864E+03-4.94083E-10 9.10973E-10
 -1       626 4.01699E+04 1.32723E+04-2.00462E+03 2.71706E+04-9.66202E-09 2.38424E-09
 -1       627 3.91258E+04 1.48130E+04-9.50159E+02 2.77291E+04-2.34113E-08-4.31419E-09
 -1       628 4.02241E+04 1.42617E+04-3.98856E+02 2.66819E+04-1.60890E-09 1.92870E-10
 -1       629 3.92714E+04 1.52297E+04-1.91297E+02 2.77004E+04 1.03760E-08-1.70146E-08
 -1       630 4.02231E+04 1.43301E+04-8.40252E+01 2.66424E+04 6.90261E-09-3.61030E-09
 -1       631 3.92830E+04 1.52604E+04-3.71778E+01 2.77022E+04-1.97224E-09-2.26350E-10
 -1       632 4.02204E+04 1.43318E+04-9.22698E+00 2.66395E+04-1.00999E-09-6.18456E-10
 -1       633 3.92845E+04 1.52615E+04 1.21121E+01 2.77034E+04 2.25867E-09-6.53131E-10
 -1       634 4.02179E+04 1.43294E+04 3.97752E+01 2.66394E+04 5.33419E-10-3.43050E-10
 -1       635 3.92897E+04 1.52626E+04 9.36568E+01 2.77048E+04 1.94393E-09 3.61524E-11
 -1       636 4.02139E+04 1.43342E+04 1.95967E+02 2.66361E+04 4.31157E-11-3.93356E-11
 -1       637 3.93367E+04 1.53177E+04 4.38803E+02 2.76958E+04 8.06381E-10 3.04226E-10
 -1       638 4.02033E+04 1.45001E+04 9.10344E+02 2.65638E+04 1.02256E-09-8.08313E-11
 -1       639 3.97986E+04 1.61400E+04 2.16746E+03 2.74915E+04-8.68795E-10-5.18412E-11
 -1       640 4.02274E+04 1.68695E+04 4.57368E+03 2.55813E+04-5.86056E-10 4.36330E-10
 -1       641 1.94130E+02 8.50696E+02-1.96781E+03-2.13744E+01-1.86054E-09 7.09974E-10
 -1       642-6.58035E+02-9.84748E+02-1.39112E+03 8.69409E+01-1.74556E-09 5.90489E-10
 -1       643-1.34518E+02 1.33297E+02-5.07344E+02-2.12916E+01-1.72209E-09 1.17146E-09
 -1       644-2.75173E+02-1.53877E+02-3.15463E+02 8.68655E+01-1.17035E-10 1.68894E-09
 -1       645-1.88763E+02 2.05070E+01-1.21667E+02-2.12993E+01 2.68412E-10 1.00506E-09
 -1       646-2.10789E+02-2.17469E+01-5.80878E+01 8.68767E+01-7.28982E-09 2.07506E-09
 -1       647-1.98914E+02 1.27184E+00-5.31712E-01-2.13029E+01-1.43979E-06 1.78112E-09
 -1       648-1.92799E+02 1.09610E+01 5.27596E+01 8.68779E+01-2.86961E-06 2.53786E-09
 -1       649-2.06756E+02-1.21799E+01 1.20131E+02-2.13005E+01-1.43942E-06 2.02249E-09
 -1       650-1.48574E+02 9.39135E+01 2.91106E+02 8.68440E+01-2.29465E-09 1.85048E-09
 -1       651-2.43136E+02-8.16309E+01 5.06809E+02-2.12690E+01 3.51877E-10 1.77951E-09
 -1       652 1.01307E+02 6.05536E+02 1.25395E+03 8.67047E+01-4.63638E-10 1.87306E-09
 -1       653-4.56624E+02-5.23429E+02 1.99792E+03-2.11614E+01 2.15204E-09-4.41787E-10
 -1       654 1.60662E+03 3.86562E+03 5.46447E+03 8.61377E+01-1.06883E-09-1.48066E-09
 -1       655-1.74837E+03-3.33911E+03 7.72353E+03-2.07029E+01 5.86462E-10 1.53750E-09
 -1       656 2.49890E+03-1.01104E+05-1.19981E+04 3.24993E+03-5.91172E-11 4.74643E-10
 -1       657-3.78380E+03-1.05421E+05-8.68667E+03 1.14790E+04-9.72705E-10-9.43885E-11
 -1       658 4.68396E+02-1.02652E+05-5.56194E+03 3.23141E+03-1.08074E-11 6.81780E-10
 -1       659-3.46190E+03-1.05229E+05-8.10276E+03 1.14891E+04-2.02363E-10 5.52673E-10
 -1       660 2.25024E+03-1.01300E+05-1.08854E+04 3.23986E+03-1.13232E-10 8.91873E-11
 -1       661 9.83403E+04 1.26693E+04 8.02555E+03 3.84022E+04-5.19549E-11-6.76664E-10
 -1       662 1.00167E+05 1.86664E+04 5.03147E+03 3.95497E+04 1.86220E-09-1.19070E-09
 -1       663 9.97057E+04 1.44124E+04 1.89427E+03 3.82295E+04 2.65260E-10-4.15753E-10
 -1       664 9.85948E+04 1.63564E+04 1.03602E+03 3.98782E+04-9.05317E-10 2.09221E-09
 -1       665 9.98573E+04 1.45956E+04 4.43933E+02 3.82173E+04-2.88961E-09-2.58152E-09
 -1       666 9.84205E+04 1.61207E+04 2.40202E+02 3.99021E+04-1.05547E-09 3.93015E-10
 -1       667 9.98748E+04 1.46156E+04 1.35019E+02 3.82175E+04-2.82554E-09 9.11969E-10
 -1       668 9.84042E+04 1.61001E+04 1.27164E+02 3.99027E+04-1.09753E-09 5.91527E-10
 -1       669 9.98732E+04 1.46142E+04 1.79443E+02 3.82174E+04 1.70813E-09 3.94920E-10
 -1       670 9.84351E+04 1.61360E+04 3.62751E+02 3.99019E+04 3.21560E-09-9.27969E-12
 -1       671 9.98445E+04 1.45826E+04 6.93152E+02 3.82173E+04 8.09067E-10 9.89587E-10
 -1       672 9.87118E+04 1.65082E+04 1.63188E+03 3.98638E+04 5.55417E-10-2.26038E-10
 -1       673 9.96044E+04 1.42934E+04 2.98846E+03 3.82365E+04 2.07029E-09-2.95472E-09
 -1       674 1.01192E+05 2.01569E+04 7.94218E+03 3.93473E+04 1.33787E-09 2.15550E-10
 -1       675 9.74506E+04 1.15398E+04 1.26688E+04 3.85068E+04-2.30784E-11 4.76575E-10
 -1       676 1.79232E+02-9.58624E+04-1.06534E+03 7.03451E+00-3.07054E-10 1.50561E-09
 -1       677-4.04025E+02-9.62671E+04-1.29334E+03-6.39123E+01-2.12458E-09 2.95601E-10
 -1       678 1.44539E+02-9.58786E+04-1.71008E+03 6.98001E+00-6.96161E-10 1.17726E-09
 -1       679-1.81987E+03-9.71257E+04-3.86882E+03-6.37878E+01-2.64299E-09-7.71848E-10
 -1       680 1.28254E+03-9.50040E+04-5.97025E+03 6.79890E+00-8.41055E-10 7.09242E-10
 -1       681 2.00087E+05-5.74880E+03 1.32793E+04 3.17524E+02-4.75687E-10 3.04681E-10
 -1       682 2.05940E+05 6.65438E+03 9.41581E+03-1.22729E+03 3.07189E-10-6.30280E-10
 -1       683 2.02345E+05-9.00288E+02 3.44277E+03 1.00801E+02-1.58757E-10 7.08269E-10
 -1       684 2.03306E+05 1.04268E+03 2.17410E+03-9.20479E+02-1.91925E-08 4.89990E-11
 -1       685 2.02721E+05-1.40906E+02 9.00827E+02 1.07062E+01-5.86506E-06-4.31703E-09
 -1       686 2.02872E+05 1.68994E+02 5.62193E+02-8.34644E+02-1.16955E-05-9.28642E-09
 -1       687 2.02779E+05-2.71064E+01 3.21763E+02 1.49639E+01-5.86519E-06-4.12496E-09
 -1       688 2.02834E+05 6.91107E+01 3.45764E+02-9.38932E+02-1.93165E-08-2.54566E-10
 -1       689 2.02759E+05-4.12858E+01 4.56184E+02 1.14996E+02-6.75282E-10 1.03839E-10
 -1       690 2.03002E+05 2.94004E+02 9.66909E+02-1.26855E+03 6.82761E-11-2.02775E-10
 -1       691 2.02612E+05-2.52674E+02 1.60215E+03 3.44592E+02-7.67912E-10-6.41762E-11
 -1       692 2.03942E+05 1.89004E+03 3.98566E+03-1.93571E+03 1.43450E-09 6.68990E-10
 -1       693 2.01823E+05-1.63876E+03 6.24303E+03 7.82168E+02-1.05315E-09-8.18545E-10
 -1       694 2.09198E+05 1.21668E+04 1.73038E+04-3.18733E+03-2.28307E-09 1.06365E-09
 -1       695 1.97367E+05-1.05292E+04 2.41203E+04 1.59624E+03-1.60770E-09-2.30830E-09
 -1       696-3.78390E+03 1.50530E+05 8.63379E+03 2.31644E+02 3.27418E-11-2.05475E-10
 -1       697 4.13666E+03 1.54227E+05 5.66902E+03-1.13023E+03 5.45697E-11 1.92966E-10
 -1       698-3.49000E+02 1.52128E+05 1.31756E+03 1.45912E+02 2.04636E-11 1.57996E-07
 -1       699-1.14978E+03 1.51770E+05-1.22100E+03-1.05834E+03 9.41327E-11 3.14602E-07
 -1       700 1.49856E+03 1.52987E+05-3.21325E+03 1.59751E+02 2.11458E-11 1.57709E-07
 -1       701-1.83946E+05-1.71130E+04-2.24939E+04-7.29355E+04-3.13776E-11 5.25688E-10
 -1       702-1.95989E+05-3.76185E+04-1.56183E+04-6.88175E+04 7.94842E-10-6.42558E-10
 -1       703-1.88502E+05-2.52389E+04-5.27379E+03-7.14442E+04 6.97804E-08-2.56134E-08
 -1       704-1.90688E+05-2.82148E+04-3.29879E+03-7.05405E+04 1.38270E-07-5.15103E-08
 -1       705-1.89245E+05-2.65107E+04-1.23437E+03-7.12143E+04 6.93353E-08-2.52089E-08
 -1       706-1.89790E+05-2.67806E+04-7.36969E+02-7.08420E+04 3.18419E-10 2.72969E-10
 -1       707-1.89400E+05-2.66723E+04-3.40336E+02-7.11430E+04 2.87798E-10 4.56865E-10
 -1       708-1.89576E+05-2.66718E+04-2.94000E+02-7.09768E+04-1.38016E-10 2.13348E-10
 -1       709-1.89458E+05-2.66193E+04-3.23938E+02-7.10794E+04-3.90916E-10 1.12529E-10
 -1       710-1.89571E+05-2.69602E+04-6.83796E+02-7.10740E+04 3.47669E-11-7.09974E-11
 -1       711-1.89405E+05-2.63841E+04-1.14147E+03-7.10458E+04-1.20480E-10 2.49088E-10
 -1       712-1.90277E+05-2.84066E+04-3.04340E+03-7.09386E+04-8.57625E-11 5.10454E-10
 -1       713-1.88754E+05-2.51737E+04-4.86556E+03-7.12147E+04 5.61499E-10 1.28921E-10
 -1       714-1.95160E+05-3.70938E+04-1.44079E+04-6.93643E+04 1.73657E-10-1.10731E-10
 -1       715-1.84524E+05-1.77026E+04-2.07499E+04-7.26184E+04-6.93944E-10 9.27685E-11
 -1       716-1.63228E+04-2.19594E+03 4.91025E+03 2.75129E+02 2.58700E-09-1.49339E-09
 -1       717-1.30799E+04 2.53250E+03 3.67319E+03-1.36843E+03 8.80789E-11 4.37183E-10
 -1       718-1.53304E+04-3.44141E+02 1.25118E+03 3.27828E+02 4.26681E-10-4.33317E-10
 -1       719-1.43386E+04 3.93704E+02 9.03091E+02-1.46394E+03-1.82304E-10-5.64114E-10
 -1       720-1.50711E+04-5.39258E+01 3.39466E+02 3.70604E+02 6.36746E-10 2.10790E-10
 -1       721-1.47061E+04 6.83170E+01 2.98065E+02-1.53511E+03 1.54174E-09-5.45732E-10
 -1       722-1.49682E+04-1.51852E+01 2.16180E+02 3.98994E+02 1.39568E-09 1.08350E-09
 -1       723-1.48292E+04 7.16742E+01 3.63609E+02-1.57666E+03 5.17323E-10-1.00689E-09
 -1       724-1.49512E+04-5.49680E+01 5.83986E+02 4.12155E+02 1.76473E-09 7.37344E-10
 -1       725-1.46823E+04 4.14562E+02 1.30850E+03-1.58727E+03 1.52425E-09-1.70758E-10
 -1       726-1.51159E+04-3.57238E+02 2.23688E+03 4.09604E+02 1.30252E-09 8.57199E-10
 -1       727-1.35252E+04 2.65839E+03 5.52361E+03-1.56715E+03 2.04917E-09-5.94582E-10
 -1       728-1.61066E+04-2.29828E+03 8.75908E+03 3.92040E+02 7.82599E-10 7.23958E-10
 -1       729-6.76091E+03 1.69798E+04 2.40298E+04-1.52806E+03 1.58973E-10 2.98314E-10
 -1       730-2.18744E+04-1.46695E+04 3.38650E+04 3.70503E+02 5.60306E-10-4.67480E-10
 -1       731-5.79908E+03 7.24247E+04 1.29852E+04-1.94618E+03-1.59253E-09-7.23588E-10
 -1       732 6.91635E+03 8.08368E+04 1.00995E+04 6.80070E+03 3.94266E-10 1.31735E-10
 -1       733-1.12934E+03 7.55298E+04 4.29856E+03-1.54728E+03-2.12822E-10-3.79387E-10
 -1       734 2.95116E+03 7.78579E+04 4.81653E+03 6.34145E+03-9.71809E-11-9.98766E-10
 -1       735-1.81725E+03 7.53752E+04 4.57879E+03-1.48689E+03 2.82171E-10-4.35818E-10
 -1       736-2.65579E+05-3.57739E+04-2.18365E+04-1.08570E+05 8.73388E-09-6.53290E-09
 -1       737-2.67528E+05-3.22020E+04-1.03738E+04-7.96938E+04 2.73786E-08 5.59021E-09
 -1       738-2.55728E+05-4.28669E+04-4.65660E+03-1.07454E+05 5.40388E-09 2.40220E-08
 -1       739-2.74821E+05-2.40670E+04-2.19236E+03-8.09872E+04-1.66330E-08-1.95524E-09
 -1       740-2.58457E+05-4.37747E+04-1.59596E+03-1.07416E+05 4.60730E-09-1.62541E-08
 -1       741-2.57231E+05-2.47186E+04 2.88835E+03-8.14306E+04-5.81363E-09-1.46807E-08
 -1       742-2.73064E+05-4.24035E+04-3.30180E+03-1.06810E+05-3.66799E-09 1.85770E-09
 -1       743-2.35876E+05-3.14089E+04 6.06692E+03-8.76197E+04 1.34577E-09 5.71987E-11
 -1       744-2.79566E+05-3.72700E+04-3.53509E+03-1.01041E+05 1.87561E-09-5.82654E-09
 -1       745-2.35893E+05-4.28347E+04 3.58542E+03-1.01875E+05 1.72338E-08 4.30731E-09
 -1       746-2.73235E+05-3.08376E+04-1.79188E+03-9.27041E+04 1.53443E-08 2.75451E-08
 -1       747-2.46052E+05-5.16440E+04-1.62984E+03-1.12775E+05 9.16799E-10 6.32409E-09
 -1       748-2.69708E+05-2.82349E+04-3.84280E+03-9.03633E+04 1.34678E-08 7.53039E-09
 -1       749-2.45677E+05-5.49373E+04-9.07334E+03-1.07835E+05-6.20537E-09 9.33164E-09
 -1       750-2.73498E+05-2.76338E+04-1.87372E+04-9.75601E+04-5.60726E-09-7.82256E-09
 -1       751 8.37963E+05-4.80706E+04 1.11278E+05 9.81594E+02-9.20262E-09 4.36557E-11
 -1       752 8.86236E+05 5.56546E+04 7.87216E+04-1.31605E+03-1.15666E-09-3.90173E-10
 -1       753 8.56594E+05-7.53515E+03 2.88178E+04 2.61193E+02-3.29935E-10 5.82077E-11
 -1       754 8.64550E+05 8.72055E+03 1.81247E+04-3.92976E+02 1.08236E-09 6.61203E-10
 -1       755 8.59668E+05-1.17887E+03 7.41759E+03 5.85608E+01-1.89976E-10 4.98858E-10
 -1       756 8.60976E+05 1.38166E+03 4.43409E+03-1.32662E+02 1.62292E-09-3.26111E-10
 -1       757 8.60175E+05-2.01955E+02 2.17872E+03 8.76920E-01 2.25785E-07 5.30690E-10
 -1       758 8.60444E+05 3.58815E+02 1.74257E+03-6.12335E+01 4.47453E-07 3.12639E-13
 -1       759 8.60202E+05-1.56707E+02 1.77188E+03-1.28690E+01 1.21456E-07-1.14596E-10
 -1       760 8.60767E+05 9.92549E+02 3.25719E+03-5.37782E+01-2.06649E-07 1.01045E-09
 -1       761 8.59851E+05-8.35247E+02 5.29930E+03-6.57855E+00-7.74080E-07-2.29534E-09
 -1       762 8.63281E+05 6.16515E+03 1.28370E+04-9.74139E+01-1.33951E-06 1.36174E-09
 -1       763 8.57682E+05-5.32529E+03 2.03766E+04 3.07675E+01-6.70214E-07 1.91994E-09
 -1       764 8.78578E+05 3.93246E+04 5.56260E+04-2.70682E+02-1.45416E-09 3.05135E-09
 -1       765 8.44537E+05-3.39659E+04 7.86258E+04 1.66686E+02-7.37774E-10-3.27418E-10
 -1       766-1.94414E+04 9.55859E+04 4.52785E+04 3.46958E+03 2.44472E-09-9.57755E-10
 -1       767 2.36394E+04 1.17106E+05 3.43931E+04-1.51225E+04 7.78527E-09-7.39046E-10
 -1       768-4.14739E+03 1.02619E+05 1.59704E+04 3.44253E+03 3.11866E-09 1.13548E-09
 -1       769 1.30331E+04 1.16759E+05 2.10300E+04-1.61689E+04 7.24015E-10-3.78876E-10
 -1       770-8.92190E+03 9.60437E+04 1.95586E+04 4.51613E+03-2.58115E-09-3.10763E-10
 -1       771-4.67448E+05-9.42620E+04-1.55095E+04-2.02862E+05-5.58703E-09 1.60253E-09
 -1       772-4.66023E+05-9.43234E+04-7.61468E+03-2.09592E+05-1.10995E-08-2.22690E-09
 -1       773-4.68070E+05-8.84962E+04-3.23590E+03-2.05337E+05-5.64432E-09 2.07274E-09
 -1       774-4.64267E+05-9.23696E+04-1.58129E+03-2.10037E+05 2.47383E-10-1.88038E-10
 -1       775-4.68184E+05-8.82630E+04-7.30081E+02-2.05453E+05-3.25144E-09-1.21418E-09
 -1       776-4.64156E+05-9.22939E+04-3.69117E+02-2.10065E+05 1.79580E-09 2.28873E-08
 -1       777-4.68224E+05-8.82597E+04-2.01244E+02-2.05464E+05-6.16637E-10 6.30689E-09
 -1       778-4.64158E+05-9.22893E+04-1.58018E+02-2.10079E+05 5.27507E-11 9.94362E-10
 -1       779-4.68240E+05-8.82502E+04-1.99840E+02-2.05472E+05-9.42691E-10 7.19979E-10
 -1       780-4.64182E+05-9.22856E+04-3.66892E+02-2.10096E+05-6.73026E-10 1.32331E-10
 -1       781-4.68233E+05-8.82337E+04-7.24520E+02-2.05475E+05-6.93717E-10 5.95719E-11
 -1       782-4.64312E+05-9.23638E+04-1.57418E+03-2.10110E+05-2.46018E-10 3.88809E-11
 -1       783-4.68158E+05-8.84363E+04-3.21752E+03-2.05364E+05-2.41300E-11 1.48248E-10
 -1       784-4.65984E+05-9.44156E+04-7.58429E+03-2.09823E+05-3.35149E-10-5.09317E-10
 -1       785-4.67660E+05-9.40673E+04-1.54381E+04-2.02800E+05 1.19371E-10 4.10637E-10
 -1       786 7.26595E+04-2.05105E+03 9.50622E+03-6.70020E+02 2.44995E-11 5.50244E-11
 -1       787 7.60369E+04 2.87798E+03 6.04590E+03-2.38262E+03-5.25233E-11-8.73342E-10
 -1       788 7.40801E+04-2.05234E+02 2.46102E+03-6.64704E+02 1.39380E-10 1.22213E-10
 -1       789 7.44592E+04 2.73168E+02 1.36533E+03-2.38742E+03 7.56017E-11 1.07860E-09
 -1       790 7.42365E+04-2.18787E+01 6.24551E+02-6.65146E+02 2.59763E-09 4.78309E-10
 -1       791 7.42826E+04 2.55866E+01 3.33755E+02-2.38670E+03 5.44711E-09-1.02730E-10
 -1       792 7.42563E+04-2.80029E+00 1.71564E+02-6.65422E+02 2.47917E-09-2.47965E-10
 -1       793 7.42609E+04 3.22342E+00 1.13677E+02-2.38654E+03 2.29344E-10 1.61165E-10
 -1       794 7.42582E+04-1.54335E+00 1.05130E+02-6.65313E+02 1.80989E-10-3.47150E-10
 -1       795 7.42672E+04 1.10269E+01 1.59325E+02-2.38725E+03 1.04265E-10-2.19096E-10
 -1       796 7.42502E+04-9.54739E+00 2.75962E+02-6.64709E+02-1.61748E-10 2.93433E-10
 -1       797 7.43428E+04 1.17068E+02 5.90224E+02-2.38827E+03-2.17142E-11 1.36204E-10
 -1       798 7.41832E+04-8.83431E+01 1.05858E+03-6.64289E+02-1.28978E-10-1.91449E-10
 -1       799 7.50205E+04 1.23539E+03 2.59699E+03-2.38277E+03-5.49562E-10-6.00494E-10
 -1       800 7.35733E+04-8.81091E+02 4.08203E+03-6.70252E+02 5.98561E-11-9.97034E-10
 -1       801-2.38475E+03 7.39134E+04 1.14835E+04-8.01078E+04-3.20870E-09 4.94765E-10
 -1       802 5.13651E+03 7.78174E+04 1.20563E+04-2.85075E+05-1.35515E-09-9.53150E-10
 -1       803-8.07030E+02 7.42674E+04 1.35881E+04-7.98387E+04-4.41287E-09 2.16892E-09
 -1       804 1.44466E+04 8.34956E+04 2.90114E+04-2.85065E+05-2.29466E-09-1.53523E-09
 -1       805-9.66129E+03 6.82741E+04 4.37735E+04-8.01183E+04-1.67529E-09 1.32968E-09
 -1       806-7.31830E+04-2.00854E+04-6.13848E+03-3.45351E+04 3.80282E-11-6.25732E-10
 -1       807-7.31465E+04-1.85650E+04-2.90904E+03-3.64808E+04-1.26420E-10 1.71696E-10
 -1       808-7.31436E+04-1.69135E+04-1.22256E+03-3.58651E+04-9.58380E-11-6.23572E-11
 -1       809-7.25390E+04-1.74500E+04-5.90388E+02-3.67443E+04-1.76442E-10-1.03455E-11
 -1       810-7.31575E+04-1.66909E+04-2.66557E+02-3.59640E+04 8.93579E-11-7.78698E-10
 -1       811-7.24783E+04-1.73743E+04-1.33315E+02-3.67557E+04 1.40631E-10-6.64500E-10
 -1       812-7.31624E+04-1.66837E+04-6.91830E+01-3.59687E+04-2.40590E-11-8.44182E-10
 -1       813-7.24719E+04-1.73721E+04-5.01435E+01-3.67543E+04 1.80293E-10-8.08143E-10
 -1       814-7.31624E+04-1.66845E+04-5.70379E+01-3.59685E+04 2.39879E-11 1.76897E-10
 -1       815-7.24761E+04-1.73744E+04-1.01072E+02-3.67544E+04-1.63197E-10 4.90900E-10
 -1       816-7.31580E+04-1.66905E+04-1.97194E+02-3.59646E+04-3.53907E-10 4.05862E-11
 -1       817-7.25218E+04-1.74286E+04-4.34575E+02-3.67435E+04 3.33841E-10-4.30418E-10
 -1       818-7.31460E+04-1.68563E+04-8.98683E+02-3.58934E+04-1.93950E-10 6.94399E-10
 -1       819-7.29813E+04-1.82341E+04-2.13765E+03-3.65334E+04-4.14275E-10 5.87875E-10
 -1       820-7.31609E+04-1.91986E+04-4.51013E+03-3.49297E+04-1.43473E-10-5.63375E-10
 -1       821-7.78583E+04 2.16881E+03-1.00550E+04 7.39754E+02-8.54470E-10-1.65528E-10
 -1       822-8.14290E+04-3.04408E+03-6.39510E+03 2.63688E+03-5.11733E-10-1.47065E-09
 -1       823-7.93612E+04 2.16793E+02-2.60405E+03 7.26835E+02 8.24627E-10-3.37309E-10
 -1       824-7.97620E+04-2.88063E+02-1.44590E+03 2.65205E+03-3.40037E-10-9.94476E-11
 -1       825-7.95269E+04 2.32705E+01-6.64495E+02 7.24510E+02-1.68762E-09-1.23003E-09
 -1       826-7.95766E+04-2.57386E+01-3.60861E+02 2.65557E+03-2.87667E-09-1.32958E-09
 -1       827-7.95477E+04 3.47407E+00-1.97079E+02 7.23291E+02-1.73452E-09-5.53555E-10
 -1       828-7.95558E+04-2.68533E+00-1.52393E+02 2.65756E+03-1.96117E-09 8.26873E-10
 -1       829-7.95484E+04 3.14187E+00-1.73954E+02 7.22517E+02-2.52697E-10-2.53063E-10
 -1       830-7.95720E+04-2.03716E+01-3.00256E+02 2.65842E+03 1.50945E-09-7.61387E-10
 -1       831-7.95318E+04 1.92975E+01-5.43233E+02 7.22441E+02-1.59535E-09-6.08011E-10
 -1       832-7.97230E+04-2.33191E+02-1.17653E+03 2.65776E+03-8.89600E-11 1.51928E-10
 -1       833-7.93974E+04 1.76679E+02-2.11643E+03 7.23187E+02-1.48640E-09 1.91449E-10
 -1       834-8.10779E+04-2.47221E+03-5.19634E+03 2.65058E+03-5.44775E-09-7.19808E-10
 -1       835-7.81765E+04 1.76282E+03-8.16947E+03 7.29758E+02-2.10315E-09-8.78572E-10
 -1       836-3.31212E+03 1.92121E+05 1.62197E+04-5.48019E+03-3.17414E-10 2.02363E-11
 -1       837 5.22583E+03 1.97999E+05 1.25860E+04-1.94047E+04 8.31051E-11 6.34486E-10
 -1       838-7.97812E+02 1.94014E+05 9.48083E+03-5.46458E+03-4.61341E-10-6.60073E-10
 -1       839 7.11929E+03 1.99147E+05 1.60305E+04-1.94048E+04 2.79215E-10-7.07900E-10
 -1       840-4.78679E+03 1.90973E+05 2.27810E+04-5.48002E+03-5.07498E-10 2.70461E-10
 -1       841-1.12392E+03 8.78781E+02-2.66967E+03-8.93544E+02 2.90925E-10-2.71712E-10
 -1       842-2.57792E+03-1.53123E+03-1.85307E+03-3.78609E+02-2.73246E-10-1.40403E-10
 -1       843-1.66856E+03-8.18571E+01-6.25103E+02-7.12419E+02 3.56863E-10-3.61524E-11
 -1       844-1.94521E+03-4.18689E+02-3.89331E+02-5.87286E+02 1.87063E-09 2.80750E-10
 -1       845-1.75655E+03-2.33042E+02-1.42309E+02-6.85152E+02-1.64860E-10-5.77238E-10
 -1       846-1.84236E+03-2.42756E+02-7.78119E+01-6.18648E+02-6.78757E-10 9.11893E-10
 -1       847-1.77140E+03-2.57681E+02-2.17964E+01-6.81101E+02-3.42543E-07 1.27283E-07
 -1       848-1.82150E+03-2.08754E+02 9.29060E+00-6.24064E+02-6.83730E-07 2.57271E-07
 -1       849-1.77741E+03-2.67023E+02 4.26852E+01-6.79747E+02-5.71749E-07 2.14027E-07
 -1       850-1.79317E+03-1.63083E+02 1.22631E+02-6.31577E+02-4.66530E-07 1.75030E-07
 -1       851-1.79973E+03-3.03328E+02 2.17079E+02-6.73599E+02-3.34439E-06 1.25580E-06
 -1       852-1.63714E+03 1.01364E+02 5.89208E+02-6.79110E+02-6.21635E-06 2.33122E-06
 -1       853-1.93342E+03-5.31312E+02 9.44241E+02-6.32271E+02-3.11669E-06 1.17004E-06
 -1       854-6.80229E+02 1.78049E+03 2.79872E+03-9.94928E+02-9.04031E-09 2.38310E-09
 -1       855-2.75647E+03-1.98135E+03 4.03118E+03-3.58183E+02-6.48924E-10 5.85032E-10
 -1       856-9.34428E+04 2.06909E+03-9.59558E+03 1.48500E+03-2.13890E-09-2.14186E-10
 -1       857-9.68484E+04-2.90217E+03-6.10215E+03 5.32495E+03-1.72781E-09-6.00267E-10
 -1       858-9.48775E+04 2.07236E+02-2.48473E+03 1.46380E+03-1.76465E-09-8.02743E-10
 -1       859-9.52601E+04-2.71275E+02-1.37867E+03 5.35052E+03-1.43382E-09-6.99970E-10
 -1       860-9.50360E+04 2.31345E+01-6.32193E+02 1.45928E+03 5.48539E-10-9.16941E-10
 -1       861-9.50846E+04-2.03020E+01-3.40291E+02 5.35670E+03-1.16825E-09-1.18590E-09
 -1       862-9.50563E+04 4.46500E+00-1.80131E+02 1.45758E+03 2.81835E-09-9.51431E-10
 -1       863-9.50644E+04 2.33904E+00-1.29117E+02 5.35878E+03 6.14178E-09-1.81478E-09
 -1       864-9.50576E+04 3.69152E+00-1.34247E+02 1.45719E+03 3.18798E-09-1.11079E-09
 -1       865-9.50746E+04-9.97399E+00-2.19913E+02 5.35804E+03 2.71353E-09-2.47525E-10
 -1       866-9.50457E+04 1.49022E+01-3.91498E+02 1.45832E+03 5.55190E-10-2.86491E-10
 -1       867-9.51810E+04-1.62954E+02-8.43675E+02 5.35377E+03-5.46038E-10-9.26093E-10
 -1       868-9.49490E+04 1.27000E+02-1.51651E+03 1.46149E+03 3.02407E-10-6.46878E-10
 -1       869-9.61487E+04-1.76733E+03-3.72139E+03 5.33250E+03-1.60077E-09-1.05112E-09
 -1       870-9.40741E+04 1.26193E+03-5.85122E+03 1.47971E+03 1.76851E-09-1.43382E-09
 -1       871-9.21611E+02-9.00890E+03-1.74460E+03 2.64246E+04-1.08298E-09 3.18551E-10
 -1       872-2.81956E+02-9.32249E+03-5.07688E+02 3.10196E+04-1.76965E-09-9.82709E-10
 -1       873 3.16872E+01-9.19962E+03 5.21339E+02 2.63733E+04-1.13721E-09-5.29349E-09
 -1       874 6.19819E+02-8.78275E+03 1.93454E+03 3.10418E+04-2.16698E-09-1.04133E-08
 -1       875 1.98893E+03-9.55510E+03 4.16892E+03 2.64033E+04-1.44792E-09-5.54076E-09
 -1       876 1.14335E+05 1.45325E+04 1.07855E+04 4.49427E+04-9.17794E-10-1.53341E-09
 -1       877 1.16728E+05 2.26564E+04 6.76174E+03 4.65591E+04 1.05503E-09-9.09267E-10
 -1       878 1.16170E+05 1.68752E+04 2.54507E+03 4.47103E+04-2.27999E-10-6.74049E-10
 -1       879 1.14616E+05 1.95515E+04 1.39116E+03 4.69992E+04-2.20439E-10-2.58183E-10
 -1       880 1.16373E+05 1.71225E+04 5.94046E+02 4.46948E+04 1.15358E-09 1.39025E-09
 -1       881 1.14382E+05 1.92332E+04 3.17427E+02 4.70292E+04-7.62043E-10-4.23270E-10
 -1       882 1.16396E+05 1.71504E+04 1.70408E+02 4.46958E+04-3.69343E-09-2.60208E-10
 -1       883 1.14360E+05 1.92031E+04 1.46746E+02 4.70282E+04-1.03196E-09-8.38559E-10
 -1       884 1.16394E+05 1.71503E+04 1.92551E+02 4.46963E+04-8.51927E-10-3.34339E-10
 -1       885 1.14391E+05 1.92389E+04 3.78461E+02 4.70263E+04 1.25311E-09-5.59901E-09
 -1       886 1.16365E+05 1.71178E+04 7.18238E+02 4.46964E+04 1.10575E-10-1.13414E-09
 -1       887 1.14677E+05 1.96236E+04 1.68793E+03 4.69871E+04 5.22007E-10 1.07411E-09
 -1       888 1.16117E+05 1.68185E+04 3.09000E+03 4.47161E+04 4.63645E-09 8.03311E-10
 -1       889 1.17242E+05 2.33955E+04 8.21131E+03 4.64531E+04-2.40163E-10 7.23048E-10
 -1       890 1.13889E+05 1.39720E+04 1.30977E+04 4.49960E+04-1.64812E-09-5.36602E-11
 -1       891 4.01595E+02-5.13098E+04-2.01342E+03 6.26450E+03-1.04717E-09 1.95996E-10
 -1       892-6.63291E+02-5.20311E+04-1.60435E+03 2.22816E+04-2.41698E-09-8.05016E-10
 -1       893 1.05414E+02-5.15367E+04-1.27751E+03 6.24068E+03-8.19853E-10 8.80355E-10
 -1       894-1.01943E+03-5.22460E+04-2.25163E+03 2.22801E+04-3.78213E-09-1.08403E-09
 -1       895 6.78355E+02-5.10937E+04-3.24640E+03 6.26605E+03-1.10936E-09 3.74030E-10
 -1       896 2.36717E+05-1.67771E+03 3.87917E+03 2.06770E+02 1.76133E-10 5.82986E-10
 -1       897 2.38396E+05 1.94203E+03 2.74902E+03-3.34596E+02 8.17559E-11 5.03775E-10
 -1       898 2.37370E+05-2.62929E+02 1.00830E+03 1.06291E+02-1.27937E-10 2.70461E-10
 -1       899 2.37634E+05 3.04770E+02 6.40761E+02-1.79237E+02 3.45365E-10 2.33456E-10
 -1       900 2.37478E+05-4.16611E+01 2.74504E+02 5.14094E+01 1.81156E-10 1.33454E-10
 -1       901 2.37510E+05 5.25842E+01 1.89049E+02-9.28370E+01 3.51953E-10 6.45830E-11
 -1       902 2.37494E+05-1.09054E+01 1.40271E+02 1.98893E+01 6.99113E-10 7.58664E-11
 -1       903 2.37506E+05 4.17057E+01 2.02486E+02-4.05534E+01 3.98675E-10-1.61364E-11
 -1       904 2.37483E+05-3.07863E+01 3.18584E+02-8.75156E-01 2.74645E-11 4.87148E-11
 -1       905 2.37602E+05 2.23486E+02 7.04880E+02-1.52774E+00 5.25775E-11-1.13346E-10
 -1       906 2.37398E+05-1.92568E+02 1.20315E+03-1.91370E+01 4.64838E-10-2.30386E-10
 -1       907 2.38188E+05 1.42656E+03 2.95889E+03 3.98150E+01 4.80032E-10-3.13207E-11
 -1       908 2.36896E+05-1.23296E+03 4.70971E+03-4.22185E+01 6.54183E-11-1.34605E-10
 -1       909 2.41732E+05 9.10565E+03 1.28741E+04 1.00774E+02 3.19617E-10-6.20275E-10
 -1       910 2.33853E+05-7.86534E+03 1.81965E+04-8.00954E+01 7.24212E-10-4.17458E-10
 -1       911 3.59831E+04-1.91568E+02 3.73000E+02-4.58530E+02 4.88512E-10 8.61036E-10
 -1       912 3.65070E+04 2.19128E+02 3.29639E+02 1.87287E+03 5.22267E-10 1.67610E-09
 -1       913 3.61626E+04-2.77837E+01 9.96011E+01-3.85785E+02 7.69852E-10 2.01265E-09
 -1       914 3.62705E+04 3.28529E+01 8.00372E+01 1.76910E+03 3.93356E-10 2.86449E-09
 -1       915 3.62159E+04-2.76692E+00 3.98127E+01-3.54762E+02-1.23129E-09 2.63581E-09
 -1       916 3.62282E+04 6.83747E+00 4.39601E+01 1.74731E+03-2.56070E-09 3.10211E-09
 -1       917 3.62041E+04-1.25105E+00 5.62458E+01-3.63991E+02-1.64574E-09 2.27941E-09
 -1       918 3.63202E+04 1.98407E+01 1.33389E+02 1.80631E+03-4.93756E-10 2.59989E-09
 -1       919 3.61260E+04-1.72438E+01 1.91920E+02-4.13764E+02-1.18160E-09 1.47728E-09
 -1       920 3.66028E+04 1.42705E+02 5.31128E+02 1.94948E+03-1.83539E-09 9.57812E-10
 -1       921 3.59269E+04-1.27871E+02 7.72742E+02-5.07162E+02-1.40261E-11-5.41775E-10
 -1       922 3.74050E+04 9.64129E+02 2.14644E+03 2.18611E+03 2.16232E-09-1.53796E-09
 -1       923 3.53338E+04-8.45132E+02 3.10925E+03-6.50429E+02 2.34351E-09-3.20551E-09
 -1       924 4.05286E+04 6.26266E+03 9.04668E+03 2.54476E+03 3.94581E-09-5.32930E-09
 -1       925 3.28203E+04-5.43401E+03 1.21871E+04-8.65918E+02 2.86488E-09-7.19228E-09
 -1       926-2.44826E+05 5.47866E+03-1.26906E+04 3.07992E+03-1.27680E-09-9.51331E-09
 -1       927-2.50040E+05-6.32066E+03-8.91565E+03-5.22014E+03 9.49859E-09-1.05799E-08
 -1       928-2.47327E+05 8.50261E+02-3.35209E+03 2.58394E+03-2.95600E-10-7.89305E-09
 -1       929-2.46444E+05-9.49927E+02-1.77143E+03-3.34745E+03-1.10294E-08-7.62088E-09
 -1       930-2.48392E+05 8.96626E+01-1.03802E+03 1.20705E+03-5.92564E-10-3.83636E-09
 -1       931-2.45202E+05-8.64076E+01-7.00101E+00-2.06327E+02 2.95705E-09-2.05055E-09
 -1       932-2.48547E+05-2.91199E+01-3.89536E+02-5.57181E+02-1.19937E-09 1.23212E-09
 -1       933-2.45691E+05 4.29088E+01 3.39591E+02 3.06216E+03 1.83928E-09 3.61885E-09
 -1       934-2.47918E+05-2.81220E+01 6.77008E+01-2.06134E+03-6.50289E-11 5.35573E-09
 -1       935-2.46816E+05 1.60345E+02 5.73974E+02 5.26037E+03 1.48395E-09 7.63546E-09
 -1       936-2.47453E+05-1.22317E+02 8.74428E+02-2.75552E+03-7.45459E-10 7.37953E-09
 -1       937-2.46615E+05 1.05274E+03 2.21415E+03 5.58828E+03 7.19108E-09 8.44989E-09
 -1       938-2.48124E+05-9.15102E+02 3.40428E+03-2.38929E+03 6.04614E-09 5.95401E-09
 -1       939-2.42925E+05 6.81462E+03 9.75095E+03 3.93507E+03 3.53212E-09 5.73277E-09
 -1       940-2.51115E+05-5.90051E+03 1.31714E+04-1.10217E+03-8.22922E-10 2.32649E-09
 -1       941 1.36868E+06-6.86901E+04 1.59098E+05 1.21781E+02-1.04634E-07 9.24047E-10
 -1       942 1.43755E+06 7.95327E+04 1.12519E+05 3.02355E+01-2.16942E-07-1.34787E-09
 -1       943 1.39527E+06-1.07697E+04 4.12096E+04 8.76456E+01-1.86798E-07 5.63887E-11
 -1       944 1.40662E+06 1.24651E+04 2.59231E+04 7.06292E+01-1.56876E-07-5.27507E-10
 -1       945 1.39966E+06-1.68567E+03 1.06250E+04 8.13967E+01-1.00315E-07 1.06456E-09
 -1       946 1.40152E+06 1.97945E+03 6.37631E+03 7.78643E+01-4.28319E-08 2.09343E-09
 -1       947 1.40039E+06-2.92553E+02 3.18131E+03 8.04119E+01 1.36610E-08 1.51033E-09
 -1       948 1.40078E+06 5.41973E+02 2.63445E+03 7.80375E+01 7.16569E-08 1.13693E-09
 -1       949 1.40041E+06-2.49178E+02 2.79130E+03 8.12239E+01 2.70146E-07-2.18171E-09
 -1       950 1.40132E+06 1.60652E+03 5.24829E+03 7.18277E+01 4.71387E-07 2.08746E-09
 -1       951 1.39984E+06-1.35636E+03 8.59455E+03 8.66217E+01 1.28088E-06-2.58842E-09
 -1       952 1.40541E+06 1.00165E+04 2.08566E+04 3.77715E+01 2.09096E-06-7.52152E-10
 -1       953 1.39631E+06-8.65249E+03 3.31202E+04 1.15279E+02 1.04428E-06 1.87356E-09
 -1       954 1.43026E+06 6.38954E+04 9.04009E+04-1.44557E+02 1.67484E-09 1.47338E-09
 -1       955 1.37495E+06-5.51854E+04 1.27801E+05 2.68935E+02-8.11147E-09 1.45519E-11
 -1       956-7.05682E+04-1.24566E+03-2.65114E+03 9.57933E+03-1.15824E-09 7.38964E-11
 -1       957-7.10558E+04-3.98469E+02-1.34036E+03 1.11571E+04-2.03954E-10-1.25675E-09
 -1       958-7.07845E+04-4.63566E+01-6.02721E+02 9.52245E+03 9.25411E-10-1.27784E-09
 -1       959-7.08273E+04-9.48224E+00-3.06784E+02 1.12195E+04-7.18956E-10-8.58677E-10
 -1       960-7.08059E+04 7.89269E+00-1.48819E+02 9.51682E+03-1.75351E-09-5.34214E-10
 -1       961-7.08086E+04 7.63839E+00-7.84440E+01 1.12257E+04-2.86809E-09-1.23237E-10
 -1       962-7.08101E+04 7.45539E+00-4.38984E+01 9.51622E+03-8.51287E-10 4.15980E-10
 -1       963-7.08076E+04 7.94699E+00-3.35471E+01 1.12264E+04-1.11271E-09 6.43240E-10
 -1       964-7.08112E+04 7.81106E+00-3.85857E+01 9.51607E+03 4.07738E-10-7.69205E-10
 -1       965-7.08102E+04 8.61033E+00-6.49419E+01 1.12263E+04 3.07711E-09-5.57861E-10
 -1       966-7.08094E+04 9.04943E+00-1.20893E+02 9.51637E+03 1.69251E-09-5.92308E-10
 -1       967-7.08270E+04-4.27804E+00-2.48180E+02 1.12229E+04 6.08651E-10-4.36899E-10
 -1       968-7.07936E+04-3.39059E+01-4.86926E+02 9.51943E+03 1.41982E-08-4.69981E-10
 -1       969-7.10132E+04-3.17758E+02-1.08286E+03 1.11891E+04 2.87979E-08-9.39622E-11
 -1       970-7.06200E+04-1.00231E+03-2.14157E+03 9.55046E+03 1.50259E-08-5.43878E-10
 -1       971-1.34582E+05 1.69899E+03-7.88223E+03 1.49911E+03-1.40562E-09-2.67846E-10
 -1       972-1.37373E+05-2.38353E+03-5.01278E+03 5.39961E+03-1.91926E-09-1.02318E-10
 -1       973-1.35761E+05 1.70044E+02-2.04253E+03 1.47445E+03-2.07160E-09-5.88443E-10
 -1       974-1.36070E+05-2.22189E+02-1.13544E+03 5.43055E+03 2.65572E-10 6.75300E-11
 -1       975-1.35891E+05 1.91112E+01-5.25469E+02 1.46806E+03 4.88058E-10-9.07107E-10
 -1       976-1.35927E+05-1.58469E+01-2.92048E+02 5.43975E+03-1.58911E-09-4.77968E-10
 -1       977-1.35907E+05 4.14916E+00-1.72698E+02 1.46523E+03 2.40274E-09-1.18830E-09
 -1       978-1.35913E+05 1.58117E+00-1.57019E+02 5.44348E+03 5.90119E-09 2.34508E-10
 -1       979-1.35906E+05 5.03878E+00-2.09627E+02 1.46432E+03 4.92295E-09-1.10844E-09
 -1       980-1.35937E+05-2.34079E+01-3.89218E+02 5.44320E+03 4.05926E-09 2.54482E-10
 -1       981-1.35884E+05 2.65495E+01-7.19403E+02 1.46552E+03 1.08798E-10-1.04984E-09
 -1       982-1.36137E+05-3.08071E+02-1.56720E+03 5.43818E+03 7.65340E-10-4.26965E-10
 -1       983-1.35704E+05 2.36127E+02-2.82329E+03 1.46937E+03 3.31738E-09-1.00647E-09
 -1       984-1.37944E+05-3.29711E+03-6.93404E+03 5.41560E+03-4.93344E-10 8.24798E-10
 -1       985-1.34074E+05 2.35230E+03-1.09028E+04 1.48834E+03 2.67107E-09-7.40783E-10
 -3
    1PSTEP                        17           9           1          
  100CL  109 2.13989E-01         841                     0    9           1
 -4  DISP        4    1
 -5  D1          1    2    1    0
 -5  D2          1    2    2    0
 -5  D3          1    2    3    0
 -5  ALL         1    2    0    0    1ALL
 -1         1 2.66471E-05 0.00000E+00 0.00000E+00
 -1         2 1.98306E-05 0.00000E+00 0.00000E+00
 -1         3 1.65930E-05 0.00000E+00 0.00000E+00
 -1         4 1.45955E-05 0.00000E+00 0.00000E+00
 -1         5 1.36536E-05 0.00000E+00 0.00000E+00
 -1         8 2.10450E-05-2.65748E-07 0.00000E+00
 -1         9 1.64679E-05 1.62194E-07 0.00000E+00
 -1        10 1.56792E-05-6.26572E-07 0.00000E+00
 -1        11 1.44409E-05-1.22512E-07 0.00000E+00
 -1        12 1.32027E-05 3.18223E-07 0.00000E+00
 -1        15 9.32665E-06-5.39323E-07 0.00000E+00
 -1        16 1.23994E-05 1.52454E-07 0.00000E+00
 -1        17 1.13801E-05-1.27085E-06 0.00000E+00
 -1        18 1.14403E-05-2.42151E-07 0.00000E+00
 -1        19 1.19817E-05 6.31260E-07 0.00000E+00
 -1        20 1.21613E-05 6.78061E-06 0.00000E+00
 -1        21 1.21557E-05 1.61951E-05 0.00000E+00
 -1        22 3.57110E-06-3.69102E-07 0.00000E+00
 -1        23 4.91712E-06 5.32411E-07 0.00000E+00
 -1        24 4.68730E-06-1.52042E-06 0.00000E+00
 -1        25 1.02048E-05-1.58089E-07 0.00000E+00
 -1        26 1.06800E-05 8.37776E-07 0.00000E+00
 -1        27 1.01692E-05 6.53634E-06 0.00000E+00
 -1        28 9.55476E-06 1.59630E-05 0.00000E+00
 -1        29 0.00000E+00 0.00000E+00 0.00000E+00
 -1        30 1.50885E-06 7.10459E-07 0.00000E+00
 -1        31 1.61040E-06-1.34756E-06 0.00000E+00
 -1        32 0.00000E+00 0.00000E+00 0.00000E+00
 -1        33 8.99675E-06 1.29965E-06 0.00000E+00
 -1        34 8.53752E-06 6.51285E-06 0.00000E+00
 -1        35 7.65829E-06 1.58386E-05 0.00000E+00
 -1        36 2.62347E-05 7.87776E-20 0.00000E+00
 -1        37 2.58088E-05 2.75459E-19 6.61744E-24
 -1        38 2.53837E-05 4.16367E-19 1.32349E-23
 -1        39 2.49560E-05 5.50729E-19 0.00000E+00
 -1        40 2.45282E-05 5.29087E-19 0.00000E+00
 -1        41 2.40999E-05 3.90986E-19 0.00000E+00
 -1        42 2.36716E-05 1.91161E-19 0.00000E+00
 -1        43 2.32431E-05 2.08902E-20-6.61744E-24
 -1        44 2.28147E-05-4.67826E-20 0.00000E+00
 -1        45 2.23863E-05-5.44713E-20-6.61744E-24
 -1        46 2.19579E-05-5.07711E-20-1.32349E-23
 -1        47 2.15299E-05-4.14550E-20-6.61744E-24
 -1        48 2.11019E-05-3.15232E-20 1.32349E-23
 -1        49 2.06756E-05 1.28591E-20-6.61744E-24
 -1        50 2.02487E-05 4.67642E-20 0.00000E+00
 -1        51 2.62210E-05-4.53681E-08 0.00000E+00
 -1        52 2.55186E-05-8.87377E-08 0.00000E+00
 -1        53 2.45935E-05-1.31726E-07 0.00000E+00
 -1        54 2.35019E-05-1.74919E-07 0.00000E+00
 -1        55 2.23001E-05-2.18906E-07 7.23783E-25
 -1        56 2.61132E-05-2.06065E-07-1.32349E-23
 -1        57 2.55622E-05-4.25224E-07-6.61744E-24
 -1        58 2.50111E-05-6.40977E-07 1.32349E-23
 -1        59 2.44523E-05-8.46118E-07-6.61744E-24
 -1        60 2.38856E-05-1.03085E-06-1.32349E-23
 -1        61 2.33076E-05-1.18698E-06 6.61744E-24
 -1        62 2.27158E-05-1.30668E-06 0.00000E+00
 -1        63 2.21076E-05-1.38271E-06 6.61744E-24
 -1        64 2.14805E-05-1.40878E-06-1.32349E-23
 -1        65 2.08327E-05-1.37913E-06 0.00000E+00
 -1        66 2.01624E-05-1.28931E-06 1.32349E-23
 -1        67 1.94687E-05-1.13536E-06 0.00000E+00
 -1        68 1.87502E-05-9.15074E-07 1.32349E-23
 -1        69 1.80093E-05-6.25755E-07 6.61744E-24
 -1        70 1.72419E-05-2.68869E-07 1.32349E-23
 -1        71 1.96275E-05 1.47443E-20 0.00000E+00
 -1        72 1.94247E-05 7.04941E-20-3.30872E-24
 -1        73 1.92219E-05 7.74196E-20 0.00000E+00
 -1        74 1.90192E-05 1.13526E-19 0.00000E+00
 -1        75 1.88164E-05 2.33334E-19 0.00000E+00
 -1        76 1.86137E-05 3.45705E-19 0.00000E+00
 -1        77 1.84110E-05 4.19716E-19 0.00000E+00
 -1        78 1.82083E-05 3.87273E-19 0.00000E+00
 -1        79 1.80056E-05 2.50993E-19-6.61744E-24
 -1        80 1.78029E-05 9.12507E-20-3.30872E-24
 -1        81 1.76003E-05-1.33922E-20 0.00000E+00
 -1        82 1.73978E-05-1.25039E-19 0.00000E+00
 -1        83 1.71953E-05-1.50091E-19 6.61744E-24
 -1        84 1.69935E-05-1.03674E-19 0.00000E+00
 -1        85 1.67914E-05-4.44822E-20 0.00000E+00
 -1        86 1.96877E-05 2.00318E-08 3.30872E-24
 -1        87 1.92615E-05 4.95232E-08 0.00000E+00
 -1        88 1.86409E-05 7.82573E-08 4.13590E-25
 -1        89 1.79143E-05 1.07705E-07-2.06795E-25
 -1        90 1.71629E-05 1.37570E-07-1.65436E-24
 -1        91 1.95339E-05 6.26501E-08 0.00000E+00
 -1        92 1.91223E-05 4.27568E-07 0.00000E+00
 -1        93 1.86633E-05 9.19134E-07-6.61744E-24
 -1        94 1.82232E-05 1.35978E-06-3.30872E-24
 -1        95 1.78589E-05 1.59841E-06 0.00000E+00
 -1        96 1.76262E-05 1.48598E-06-3.30872E-24
 -1        97 1.75150E-05 1.04956E-06 0.00000E+00
 -1        98 1.75137E-05 3.19654E-07 0.00000E+00
 -1        99 1.75549E-05-5.23731E-07 0.00000E+00
 -1       100 1.75708E-05-1.29934E-06 0.00000E+00
 -1       101 1.75063E-05-1.86047E-06 0.00000E+00
 -1       102 1.73076E-05-2.06265E-06 0.00000E+00
 -1       103 1.69882E-05-1.94309E-06-6.61744E-24
 -1       104 1.65643E-05-1.54206E-06 0.00000E+00
 -1       105 1.61031E-05-1.04272E-06 0.00000E+00
 -1       106 1.64684E-05 2.28037E-19 0.00000E+00
 -1       107 1.63434E-05 9.56636E-19 0.00000E+00
 -1       108 1.62183E-05 2.03747E-18 3.30872E-24
 -1       109 1.60932E-05 3.29928E-18-1.65436E-24
 -1       110 1.59681E-05 4.51666E-18 0.00000E+00
 -1       111 1.58429E-05 5.55059E-18-1.65436E-24
 -1       112 1.57178E-05 6.27817E-18 0.00000E+00
 -1       113 1.55927E-05 6.54773E-18-1.65436E-24
 -1       114 1.54675E-05 6.30648E-18-3.30872E-24
 -1       115 1.53424E-05 5.58710E-18 1.65436E-24
 -1       116 1.52173E-05 4.53699E-18-3.30872E-24
 -1       117 1.50922E-05 3.22427E-18 0.00000E+00
 -1       118 1.49672E-05 1.92782E-18 0.00000E+00
 -1       119 1.48426E-05 9.08742E-19 1.65436E-24
 -1       120 1.47179E-05 2.25843E-19 3.30872E-24
 -1       121 1.65924E-05-1.04703E-07 3.30872E-24
 -1       122 1.65631E-05-2.09040E-07-1.65436E-24
 -1       123 1.64812E-05-3.13389E-07 0.00000E+00
 -1       124 1.63226E-05-4.17716E-07 1.65436E-24
 -1       125 1.60632E-05-5.22052E-07 0.00000E+00
 -1       126 1.64901E-05-9.13890E-08 3.30872E-24
 -1       127 1.64214E-05-2.75074E-07-1.65436E-24
 -1       128 1.63756E-05-5.19956E-07-3.30872E-24
 -1       129 1.63410E-05-7.94765E-07 0.00000E+00
 -1       130 1.63026E-05-1.05936E-06 0.00000E+00
 -1       131 1.62454E-05-1.27369E-06-1.65436E-24
 -1       132 1.61598E-05-1.41255E-06 0.00000E+00
 -1       133 1.60367E-05-1.45113E-06 0.00000E+00
 -1       134 1.58768E-05-1.39195E-06 3.30872E-24
 -1       135 1.56815E-05-1.23807E-06 0.00000E+00
 -1       136 1.54616E-05-1.01861E-06 0.00000E+00
 -1       137 1.52282E-05-7.63040E-07-1.65436E-24
 -1       138 1.49961E-05-5.10972E-07 0.00000E+00
 -1       139 1.47805E-05-3.01847E-07 1.65436E-24
 -1       140 1.45914E-05-1.63525E-07 3.30872E-24
 -1       141 1.45357E-05-3.44923E-20-1.65436E-24
 -1       142 1.44763E-05-6.16730E-20 8.27181E-25
 -1       143 1.44169E-05-3.08947E-20 1.65436E-24
 -1       144 1.43575E-05-1.65621E-20 8.27181E-25
 -1       145 1.42982E-05-1.63275E-20 1.65436E-24
 -1       146 1.42389E-05 7.98178E-21-8.27181E-25
 -1       147 1.41795E-05 1.45291E-20 1.65436E-24
 -1       148 1.41202E-05-3.31379E-21 0.00000E+00
 -1       149 1.40609E-05 7.92961E-21 0.00000E+00
 -1       150 1.40017E-05 4.02008E-20 0.00000E+00
 -1       151 1.39424E-05 5.73161E-20 0.00000E+00
 -1       152 1.38833E-05 5.83988E-20 0.00000E+00
 -1       153 1.38243E-05 3.25314E-20 0.00000E+00
 -1       154 1.37661E-05 6.22801E-21 0.00000E+00
 -1       155 1.37076E-05-4.03780E-21-1.03398E-25
 -1       156 1.45896E-05-2.16010E-08 0.00000E+00
 -1       157 1.45721E-05-4.12979E-08-4.13590E-25
 -1       158 1.45457E-05-6.11379E-08 0.00000E+00
 -1       159 1.45130E-05-8.10080E-08 0.00000E+00
 -1       160 1.44771E-05-1.00727E-07-1.65436E-24
 -1       161 1.45291E-05-3.66970E-08 0.00000E+00
 -1       162 1.44704E-05-9.40065E-08 0.00000E+00
 -1       163 1.44165E-05-1.63912E-07 0.00000E+00
 -1       164 1.43642E-05-2.38381E-07 8.27181E-25
 -1       165 1.43103E-05-3.08362E-07 0.00000E+00
 -1       166 1.42513E-05-3.64822E-07-8.27181E-25
 -1       167 1.41848E-05-4.01420E-07 0.00000E+00
 -1       168 1.41086E-05-4.11874E-07-8.27181E-25
 -1       169 1.40217E-05-3.94106E-07-1.65436E-24
 -1       170 1.39236E-05-3.46114E-07 0.00000E+00
 -1       171 1.38153E-05-2.70970E-07 0.00000E+00
 -1       172 1.36982E-05-1.71769E-07 0.00000E+00
 -1       173 1.35747E-05-5.56752E-08 0.00000E+00
 -1       174 1.34485E-05 7.04956E-08 0.00000E+00
 -1       175 1.33216E-05 1.97421E-07-4.13590E-25
 -1       191 1.36383E-05 5.30008E-08 0.00000E+00
 -1       192 1.35984E-05 1.06066E-07 0.00000E+00
 -1       193 1.35343E-05 1.59146E-07 0.00000E+00
 -1       194 1.34465E-05 2.12221E-07 0.00000E+00
 -1       195 1.33357E-05 2.65269E-07 1.65436E-24
 -1       251 2.07679E-05 1.34849E-06 0.00000E+00
 -1       252 2.04812E-05 4.18546E-06 3.30872E-24
 -1       253 2.01947E-05 7.12781E-06-6.61744E-24
 -1       254 1.99092E-05 9.05659E-06 0.00000E+00
 -1       255 1.96252E-05 9.37979E-06 0.00000E+00
 -1       256 1.93394E-05 7.52576E-06-3.30872E-24
 -1       257 1.90496E-05 4.05266E-06 0.00000E+00
 -1       258 1.87557E-05-4.60838E-07-3.30872E-24
 -1       259 1.84622E-05-4.89598E-06 6.61744E-24
 -1       260 1.81731E-05-8.13484E-06-3.30872E-24
 -1       261 1.78877E-05-9.68062E-06 6.61744E-24
 -1       262 1.76036E-05-9.05806E-06 0.00000E+00
 -1       263 1.73177E-05-6.91704E-06-6.61744E-24
 -1       264 1.70311E-05-3.92673E-06 3.30872E-24
 -1       265 1.67446E-05-1.19786E-06 0.00000E+00
 -1       266 1.98964E-05-3.12787E-07 1.65436E-24
 -1       267 1.84346E-05-3.57501E-07 0.00000E+00
 -1       268 1.66466E-05-4.02883E-07 0.00000E+00
 -1       269 1.45199E-05-4.48117E-07 0.00000E+00
 -1       270 1.20734E-05-4.94122E-07 0.00000E+00
 -1       271 2.02687E-05 4.33927E-07 6.61744E-24
 -1       272 1.95601E-05 9.07611E-07 0.00000E+00
 -1       273 1.89246E-05 1.18739E-06 1.32349E-23
 -1       274 1.83495E-05 1.29958E-06-6.61744E-24
 -1       275 1.78263E-05 1.27282E-06 0.00000E+00
 -1       276 1.73440E-05 1.13561E-06 6.61744E-24
 -1       277 1.68922E-05 9.17038E-07 1.32349E-23
 -1       278 1.64598E-05 6.46444E-07 0.00000E+00
 -1       279 1.60358E-05 3.53403E-07-1.32349E-23
 -1       280 1.56092E-05 6.75943E-08 6.61744E-24
 -1       281 1.51688E-05-1.81366E-07 0.00000E+00
 -1       282 1.47040E-05-3.63952E-07 0.00000E+00
 -1       283 1.42035E-05-4.51007E-07 0.00000E+00
 -1       284 1.36585E-05-4.13121E-07 0.00000E+00
 -1       285 1.30559E-05-2.22857E-07 6.61744E-24
 -1       286 1.64161E-05 7.39828E-07 3.30872E-24
 -1       287 1.63668E-05 1.14079E-06 8.27181E-25
 -1       288 1.63175E-05 1.36656E-06 0.00000E+00
 -1       289 1.62686E-05 1.41898E-06 8.27181E-25
 -1       290 1.62198E-05 1.31791E-06 1.65436E-24
 -1       291 1.61710E-05 1.08352E-06 8.27181E-25
 -1       292 1.61222E-05 7.49849E-07 0.00000E+00
 -1       293 1.60734E-05 3.51109E-07 8.27181E-25
 -1       294 1.60246E-05-7.17128E-08 1.65436E-24
 -1       295 1.59758E-05-4.77580E-07 0.00000E+00
 -1       296 1.59270E-05-8.27226E-07 0.00000E+00
 -1       297 1.58782E-05-1.08150E-06-8.27181E-25
 -1       298 1.58293E-05-1.21113E-06 0.00000E+00
 -1       299 1.57800E-05-1.18715E-06 8.27181E-25
 -1       300 1.57308E-05-9.96519E-07 0.00000E+00
 -1       301 1.57886E-05 1.57642E-07 0.00000E+00
 -1       302 1.51051E-05 1.57855E-07-4.13590E-25
 -1       303 1.44210E-05 1.58860E-07 0.00000E+00
 -1       304 1.37396E-05 1.59674E-07 0.00000E+00
 -1       305 1.30646E-05 1.59282E-07 0.00000E+00
 -1       306 1.59648E-05 5.90238E-07-6.61744E-24
 -1       307 1.55353E-05 7.96714E-07 0.00000E+00
 -1       308 1.51763E-05 8.15807E-07 0.00000E+00
 -1       309 1.48745E-05 6.78677E-07 0.00000E+00
 -1       310 1.46189E-05 4.17788E-07 0.00000E+00
 -1       311 1.43973E-05 6.55586E-08 0.00000E+00
 -1       312 1.41977E-05-3.45267E-07 0.00000E+00
 -1       313 1.40076E-05-7.81838E-07 0.00000E+00
 -1       314 1.38148E-05-1.21121E-06 0.00000E+00
 -1       315 1.36071E-05-1.60044E-06 3.30872E-24
 -1       316 1.33721E-05-1.91676E-06-6.61744E-24
 -1       317 1.30978E-05-2.12751E-06 3.30872E-24
 -1       318 1.27720E-05-2.20043E-06 0.00000E+00
 -1       319 1.23841E-05-2.10314E-06 0.00000E+00
 -1       320 1.19204E-05-1.80482E-06 0.00000E+00
 -1       321 1.56004E-05-1.75896E-07-3.30872E-24
 -1       322 1.55229E-05 2.56158E-07-1.65436E-24
 -1       323 1.54452E-05 6.42830E-07 0.00000E+00
 -1       324 1.53679E-05 9.57529E-07 0.00000E+00
 -1       325 1.52905E-05 1.18526E-06 3.30872E-24
 -1       326 1.52133E-05 1.31133E-06-1.65436E-24
 -1       327 1.51360E-05 1.33745E-06 0.00000E+00
 -1       328 1.50587E-05 1.26567E-06 0.00000E+00
 -1       329 1.49815E-05 1.11382E-06 0.00000E+00
 -1       330 1.49042E-05 9.00014E-07-8.27181E-25
 -1       331 1.48269E-05 6.52369E-07 1.65436E-24
 -1       332 1.47497E-05 3.99108E-07 0.00000E+00
 -1       333 1.46724E-05 1.69354E-07 0.00000E+00
 -1       334 1.45952E-05-7.83995E-09 0.00000E+00
 -1       335 1.45180E-05-1.11901E-07 1.65436E-24
 -1       336 1.51458E-05-7.34328E-07-3.30872E-24
 -1       337 1.44988E-05-8.42077E-07 0.00000E+00
 -1       338 1.37684E-05-9.49837E-07 3.30872E-24
 -1       339 1.29849E-05-1.05738E-06 0.00000E+00
 -1       340 1.21786E-05-1.16496E-06 3.30872E-24
 -1       341 1.39662E-05 3.52735E-06-3.30872E-24
 -1       342 9.39543E-06 1.51277E-05-1.65436E-24
 -1       343 2.78199E-06 3.19613E-05-3.30872E-24
 -1       344-5.01804E-06 5.17963E-05 0.00000E+00
 -1       345-1.27817E-05 7.15390E-05 0.00000E+00
 -1       346-1.92862E-05 8.80958E-05 0.00000E+00
 -1       347-2.36993E-05 9.92880E-05-3.30872E-24
 -1       348-2.52287E-05 1.02956E-04 0.00000E+00
 -1       349-2.39305E-05 9.90833E-05-3.30872E-24
 -1       350-1.98766E-05 8.76959E-05 0.00000E+00
 -1       351-1.39023E-05 7.09777E-05 3.30872E-24
 -1       352-6.82481E-06 5.11536E-05-1.65436E-24
 -1       353 2.42706E-07 3.13583E-05-3.30872E-24
 -1       354 6.18714E-06 1.47269E-05-1.65436E-24
 -1       355 1.01948E-05 3.46994E-06-1.65436E-24
 -1       356 1.43632E-05-9.89407E-08-1.65436E-24
 -1       357 1.42853E-05-1.00682E-07-8.27181E-25
 -1       358 1.42073E-05-1.22768E-07 1.65436E-24
 -1       359 1.41293E-05-1.60157E-07 1.65436E-24
 -1       360 1.40514E-05-2.05319E-07 3.30872E-24
 -1       361 1.39734E-05-2.50696E-07 0.00000E+00
 -1       362 1.38954E-05-2.88694E-07 3.30872E-24
 -1       363 1.38174E-05-3.11745E-07 8.27181E-25
 -1       364 1.37394E-05-3.14715E-07 0.00000E+00
 -1       365 1.36615E-05-2.92538E-07-8.27181E-25
 -1       366 1.35836E-05-2.44240E-07-1.65436E-24
 -1       367 1.35059E-05-1.68940E-07 8.27181E-25
 -1       368 1.34282E-05-7.01506E-08 0.00000E+00
 -1       369 1.33515E-05 4.85345E-08 8.27181E-25
 -1       370 1.32745E-05 1.80285E-07 0.00000E+00
 -1       371 1.42372E-05-1.44614E-07 1.65436E-24
 -1       372 1.37021E-05-1.64629E-07 0.00000E+00
 -1       373 1.29952E-05-1.84870E-07 0.00000E+00
 -1       374 1.22758E-05-2.04468E-07 2.06795E-25
 -1       375 1.17042E-05-2.24041E-07 2.06795E-25
 -1       376 1.43913E-05-3.47697E-07 0.00000E+00
 -1       377 1.45022E-05-1.00706E-06-1.65436E-24
 -1       378 1.47274E-05-1.97182E-06-3.30872E-24
 -1       379 1.50180E-05-3.11240E-06 1.65436E-24
 -1       380 1.53078E-05-4.25074E-06 0.00000E+00
 -1       381 1.55301E-05-5.20894E-06-1.65436E-24
 -1       382 1.56369E-05-5.85844E-06 0.00000E+00
 -1       383 1.55805E-05-6.07238E-06 0.00000E+00
 -1       384 1.53580E-05-5.84319E-06 3.30872E-24
 -1       385 1.49671E-05-5.16569E-06 0.00000E+00
 -1       386 1.44523E-05-4.15859E-06 0.00000E+00
 -1       387 1.38591E-05-2.94219E-06 1.65436E-24
 -1       388 1.32538E-05-1.69387E-06-3.30872E-24
 -1       389 1.27044E-05-5.90703E-07-1.65436E-24
 -1       390 1.22612E-05 2.28956E-07 0.00000E+00
 -1       406 1.30414E-05 3.70694E-07 0.00000E+00
 -1       407 1.28607E-05 4.23207E-07 0.00000E+00
 -1       408 1.26622E-05 4.75692E-07 0.00000E+00
 -1       409 1.24482E-05 5.28050E-07 8.27181E-25
 -1       410 1.22207E-05 5.80134E-07-1.65436E-24
 -1       466 9.50903E-06 1.80533E-06 3.30872E-24
 -1       467 9.70147E-06 3.05889E-06 0.00000E+00
 -1       468 9.89407E-06 3.56423E-06 0.00000E+00
 -1       469 1.00883E-05 3.65757E-06-3.30872E-24
 -1       470 1.02827E-05 3.46955E-06 0.00000E+00
 -1       471 1.04772E-05 3.12834E-06 0.00000E+00
 -1       472 1.06718E-05 2.68548E-06-6.61744E-24
 -1       473 1.08664E-05 2.19160E-06 3.30872E-24
 -1       474 1.10610E-05 1.67179E-06 0.00000E+00
 -1       475 1.12554E-05 1.15092E-06 3.30872E-24
 -1       476 1.14498E-05 6.53332E-07 6.61744E-24
 -1       477 1.16438E-05 2.03553E-07-3.30872E-24
 -1       478 1.18376E-05-1.49958E-07 3.30872E-24
 -1       479 1.20289E-05-3.57899E-07 0.00000E+00
 -1       480 1.22211E-05-2.98491E-07-8.27181E-25
 -1       481 6.87059E-06-5.14356E-07 0.00000E+00
 -1       482 5.28990E-06-4.86192E-07 0.00000E+00
 -1       483 4.37063E-06-4.57307E-07-8.27181E-25
 -1       484 3.89975E-06-4.27902E-07 0.00000E+00
 -1       485 3.69416E-06-3.98367E-07 8.27181E-25
 -1       486 7.67681E-06 3.23385E-06 3.30872E-24
 -1       487 5.30629E-06 8.87790E-06 0.00000E+00
 -1       488 2.89771E-06 1.46234E-05 0.00000E+00
 -1       489 1.12414E-06 1.86956E-05 0.00000E+00
 -1       490 3.70277E-07 2.00691E-05 0.00000E+00
 -1       491 1.00281E-06 1.77404E-05 0.00000E+00
 -1       492 2.76787E-06 1.23592E-05 0.00000E+00
 -1       493 5.40570E-06 4.60545E-06 0.00000E+00
 -1       494 8.27402E-06-3.77679E-06 0.00000E+00
 -1       495 1.07308E-05-1.10364E-05-3.30872E-24
 -1       496 1.23141E-05-1.59266E-05 6.61744E-24
 -1       497 1.25628E-05-1.72257E-05 0.00000E+00
 -1       498 1.16077E-05-1.53173E-05 6.61744E-24
 -1       499 9.59534E-06-1.06134E-05 0.00000E+00
 -1       500 7.15064E-06-4.77477E-06 3.30872E-24
 -1       501 1.23320E-05 6.88568E-07 0.00000E+00
 -1       502 1.22681E-05 9.98482E-07-1.65436E-24
 -1       503 1.22040E-05 1.08623E-06-1.65436E-24
 -1       504 1.21405E-05 9.56472E-07 8.27181E-25
 -1       505 1.20771E-05 6.42886E-07 1.65436E-24
 -1       506 1.20137E-05 1.79679E-07 8.27181E-25
 -1       507 1.19503E-05-3.78992E-07 1.65436E-24
 -1       508 1.18869E-05-9.78716E-07 0.00000E+00
 -1       509 1.18235E-05-1.55960E-06 0.00000E+00
 -1       510 1.17601E-05-2.06178E-06-8.27181E-25
 -1       511 1.16968E-05-2.43594E-06-1.65436E-24
 -1       512 1.16336E-05-2.63306E-06 8.27181E-25
 -1       513 1.15704E-05-2.62776E-06-1.65436E-24
 -1       514 1.15071E-05-2.39520E-06-8.27181E-25
 -1       515 1.14437E-05-1.94087E-06 0.00000E+00
 -1       516 1.19756E-05 2.10735E-07 0.00000E+00
 -1       517 1.19889E-05 2.77669E-07-2.06795E-25
 -1       518 1.18862E-05 3.44002E-07 0.00000E+00
 -1       519 1.11141E-05 4.11026E-07 4.13590E-25
 -1       520 9.01246E-06 4.76359E-07-4.13590E-25
 -1       521 1.17567E-05 5.15358E-07 1.32349E-23
 -1       522 1.11790E-05 6.64936E-07 6.61744E-24
 -1       523 1.06685E-05 6.36160E-07-1.32349E-23
 -1       524 1.02115E-05 4.59070E-07 0.00000E+00
 -1       525 9.79787E-06 1.65697E-07-1.32349E-23
 -1       526 9.41546E-06-2.12068E-07 6.61744E-24
 -1       527 9.05247E-06-6.41878E-07 0.00000E+00
 -1       528 8.69676E-06-1.09125E-06 0.00000E+00
 -1       529 8.33616E-06-1.52761E-06 1.32349E-23
 -1       530 7.95856E-06-1.91844E-06 0.00000E+00
 -1       531 7.55185E-06-2.23140E-06-1.32349E-23
 -1       532 7.10429E-06-2.43444E-06 6.61744E-24
 -1       533 6.60392E-06-2.49602E-06 0.00000E+00
 -1       534 6.04074E-06-2.38464E-06-6.61744E-24
 -1       535 5.40122E-06-2.07078E-06 1.32349E-23
 -1       536 1.13803E-05-5.85435E-07 8.27181E-25
 -1       537 1.13836E-05-6.47327E-08 0.00000E+00
 -1       538 1.13870E-05 3.08707E-07 0.00000E+00
 -1       539 1.13908E-05 5.52490E-07 0.00000E+00
 -1       540 1.13948E-05 6.84177E-07 0.00000E+00
 -1       541 1.13988E-05 7.21339E-07 3.39273E-26
 -1       542 1.14029E-05 6.81543E-07-2.58494E-26
 -1       543 1.14070E-05 5.82351E-07 0.00000E+00
 -1       544 1.14111E-05 4.41328E-07-1.03398E-25
 -1       545 1.14152E-05 2.76031E-07 0.00000E+00
 -1       546 1.14193E-05 1.04022E-07-1.03398E-25
 -1       547 1.14234E-05-5.71387E-08 1.03398E-25
 -1       548 1.14275E-05-1.89893E-07 2.06795E-25
 -1       549 1.14316E-05-2.76682E-07-1.03398E-25
 -1       550 1.14358E-05-2.99932E-07 0.00000E+00
 -1       551 1.03795E-05-1.31183E-06-1.55096E-24
 -1       552 9.26485E-06-1.35176E-06-2.06795E-25
 -1       553 8.08681E-06-1.39169E-06 0.00000E+00
 -1       554 6.89695E-06-1.43212E-06 0.00000E+00
 -1       555 5.74685E-06-1.47362E-06 6.61744E-24
 -1       556 1.10894E-05-6.27686E-07 0.00000E+00
 -1       557 1.08557E-05-1.32377E-07 0.00000E+00
 -1       558 1.06724E-05 2.29157E-07 0.00000E+00
 -1       559 1.05337E-05 4.72385E-07-1.65436E-24
 -1       560 1.04337E-05 6.12793E-07-3.30872E-24
 -1       561 1.03663E-05 6.65998E-07-3.30872E-24
 -1       562 1.03259E-05 6.47622E-07 0.00000E+00
 -1       563 1.03064E-05 5.73303E-07 0.00000E+00
 -1       564 1.03020E-05 4.58685E-07-1.65436E-24
 -1       565 1.03069E-05 3.19411E-07 8.27181E-25
 -1       566 1.03152E-05 1.71130E-07-8.27181E-25
 -1       567 1.03210E-05 2.94915E-08-4.13590E-25
 -1       568 1.03185E-05-8.98583E-08 0.00000E+00
 -1       569 1.03019E-05-1.71288E-07-2.58494E-26
 -1       570 1.02656E-05-1.99177E-07-8.27181E-25
 -1       571 1.14728E-05-1.68381E-07 1.03398E-25
 -1       572 1.15063E-05-1.17855E-07-2.06795E-25
 -1       573 1.15401E-05-8.63417E-08-4.13590E-25
 -1       574 1.15741E-05-6.93946E-08-2.06795E-25
 -1       575 1.16080E-05-6.25484E-08 8.27181E-25
 -1       576 1.16420E-05-6.13093E-08 4.13590E-25
 -1       577 1.16760E-05-6.11815E-08-1.65436E-24
 -1       578 1.17101E-05-5.76653E-08 8.27181E-25
 -1       579 1.17441E-05-4.62605E-08 0.00000E+00
 -1       580 1.17781E-05-2.24675E-08 0.00000E+00
 -1       581 1.18121E-05 1.82130E-08 0.00000E+00
 -1       582 1.18461E-05 8.02756E-08-1.65436E-24
 -1       583 1.18801E-05 1.68211E-07-1.65436E-24
 -1       584 1.19141E-05 2.86463E-07 0.00000E+00
 -1       585 1.19480E-05 4.39454E-07-1.65436E-24
 -1       586 1.12634E-05-2.27857E-07 0.00000E+00
 -1       587 1.10606E-05-2.13456E-07 0.00000E+00
 -1       588 1.08425E-05-1.99072E-07 4.13590E-25
 -1       589 1.06199E-05-1.84827E-07-5.16988E-26
 -1       590 1.04038E-05-1.70898E-07 0.00000E+00
 -1       591 1.13873E-05-1.55562E-07 0.00000E+00
 -1       592 1.13385E-05-8.42014E-08 0.00000E+00
 -1       593 1.12940E-05-2.51234E-08 0.00000E+00
 -1       594 1.12530E-05 2.43516E-08 4.13590E-25
 -1       595 1.12145E-05 6.69019E-08 0.00000E+00
 -1       596 1.11775E-05 1.05186E-07 4.13590E-25
 -1       597 1.11412E-05 1.41861E-07 0.00000E+00
 -1       598 1.11044E-05 1.79578E-07-2.06795E-25
 -1       599 1.10663E-05 2.20993E-07 8.27181E-25
 -1       600 1.10258E-05 2.68757E-07 2.06795E-25
 -1       601 1.09819E-05 3.25523E-07-4.13590E-25
 -1       602 1.09337E-05 3.93947E-07 0.00000E+00
 -1       603 1.08802E-05 4.76688E-07 2.06795E-25
 -1       604 1.08204E-05 5.76417E-07-1.80946E-25
 -1       605 1.07536E-05 6.95812E-07-2.06795E-25
 -1       606 1.19941E-05 8.86374E-07 0.00000E+00
 -1       607 1.20057E-05 1.16647E-06 0.00000E+00
 -1       608 1.20170E-05 1.47009E-06 0.00000E+00
 -1       609 1.20282E-05 1.79555E-06 0.00000E+00
 -1       610 1.20394E-05 2.14117E-06 0.00000E+00
 -1       611 1.20505E-05 2.50523E-06 0.00000E+00
 -1       612 1.20617E-05 2.88600E-06 0.00000E+00
 -1       613 1.20728E-05 3.28177E-06 0.00000E+00
 -1       614 1.20839E-05 3.69080E-06 0.00000E+00
 -1       615 1.20950E-05 4.11137E-06 0.00000E+00
 -1       616 1.21061E-05 4.54176E-06 0.00000E+00
 -1       617 1.21172E-05 4.98024E-06 0.00000E+00
 -1       618 1.21283E-05 5.42509E-06-4.13590E-25
 -1       619 1.21393E-05 5.87458E-06-2.06795E-25
 -1       620 1.21504E-05 6.32700E-06 4.13590E-25
 -1       621 1.17415E-05 6.65804E-07 0.00000E+00
 -1       622 1.15069E-05 7.00527E-07 0.00000E+00
 -1       623 1.12806E-05 7.35256E-07 0.00000E+00
 -1       624 1.10655E-05 7.69893E-07-2.06795E-25
 -1       625 1.08644E-05 8.04327E-07 0.00000E+00
 -1       626 1.19070E-05 8.99309E-07 0.00000E+00
 -1       627 1.18221E-05 1.19348E-06 0.00000E+00
 -1       628 1.17282E-05 1.51135E-06-1.65436E-24
 -1       629 1.16264E-05 1.85017E-06-1.65436E-24
 -1       630 1.15177E-05 2.20721E-06 0.00000E+00
 -1       631 1.14032E-05 2.57967E-06-8.27181E-25
 -1       632 1.12840E-05 2.96474E-06 0.00000E+00
 -1       633 1.11611E-05 3.35964E-06 0.00000E+00
 -1       634 1.10355E-05 3.76156E-06 0.00000E+00
 -1       635 1.09084E-05 4.16771E-06 4.13590E-25
 -1       636 1.07807E-05 4.57528E-06 0.00000E+00
 -1       637 1.06535E-05 4.98148E-06 0.00000E+00
 -1       638 1.05279E-05 5.38350E-06 0.00000E+00
 -1       639 1.04048E-05 5.77854E-06 2.06795E-25
 -1       640 1.02851E-05 6.16378E-06 0.00000E+00
 -1       641 1.21616E-05 7.25050E-06 0.00000E+00
 -1       642 1.21615E-05 7.76914E-06-2.58494E-26
 -1       643 1.21614E-05 8.32948E-06 2.58494E-26
 -1       644 1.21611E-05 8.92446E-06 0.00000E+00
 -1       645 1.21609E-05 9.54701E-06 6.46235E-27
 -1       646 1.21607E-05 1.01901E-05 8.07794E-28
 -1       647 1.21604E-05 1.08466E-05 1.61559E-27
 -1       648 1.21601E-05 1.15095E-05 0.00000E+00
 -1       649 1.21598E-05 1.21718E-05 0.00000E+00
 -1       650 1.21595E-05 1.28263E-05 0.00000E+00
 -1       651 1.21593E-05 1.34659E-05 2.58494E-26
 -1       652 1.21589E-05 1.40838E-05 0.00000E+00
 -1       653 1.21586E-05 1.46726E-05 0.00000E+00
 -1       654 1.21581E-05 1.52255E-05 1.03398E-25
 -1       655 1.21576E-05 1.57354E-05 0.00000E+00
 -1       656 1.17550E-05 6.74129E-06-4.13590E-25
 -1       657 1.14047E-05 6.69991E-06 4.13590E-25
 -1       658 1.10906E-05 6.65861E-06 0.00000E+00
 -1       659 1.07932E-05 6.61729E-06 4.13590E-25
 -1       660 1.04926E-05 6.57589E-06 4.13590E-25
 -1       661 1.20306E-05 7.26441E-06 8.27181E-25
 -1       662 1.18874E-05 7.78642E-06 0.00000E+00
 -1       663 1.17320E-05 8.34052E-06 1.65436E-24
 -1       664 1.15669E-05 8.92130E-06 0.00000E+00
 -1       665 1.13939E-05 9.52317E-06 0.00000E+00
 -1       666 1.12151E-05 1.01406E-05 0.00000E+00
 -1       667 1.10325E-05 1.07682E-05-1.65436E-24
 -1       668 1.08482E-05 1.14004E-05 0.00000E+00
 -1       669 1.06642E-05 1.20316E-05 0.00000E+00
 -1       670 1.04826E-05 1.26566E-05 0.00000E+00
 -1       671 1.03055E-05 1.32696E-05 1.65436E-24
 -1       672 1.01347E-05 1.38653E-05 8.27181E-25
 -1       673 9.97258E-06 1.44381E-05-1.65436E-24
 -1       674 9.82069E-06 1.49824E-05-4.13590E-25
 -1       675 9.68158E-06 1.54929E-05 4.13590E-25
 -1       676 1.17211E-05 1.61563E-05-8.27181E-25
 -1       677 1.12867E-05 1.61173E-05-4.13590E-25
 -1       678 1.08527E-05 1.60784E-05 8.27181E-25
 -1       679 1.04193E-05 1.60396E-05 4.13590E-25
 -1       680 9.98656E-06 1.60007E-05-8.27181E-25
 -1       681 3.65400E-06-4.76075E-07 0.00000E+00
 -1       682 3.73941E-06-9.61495E-07 8.27181E-25
 -1       683 3.82450E-06-1.72342E-06 0.00000E+00
 -1       684 3.90994E-06-2.66097E-06 0.00000E+00
 -1       685 3.99529E-06-3.70874E-06 0.00000E+00
 -1       686 4.08069E-06-4.80177E-06-1.65436E-24
 -1       687 4.16611E-06-5.88424E-06 0.00000E+00
 -1       688 4.25162E-06-6.90028E-06 0.00000E+00
 -1       689 4.33724E-06-7.78061E-06 3.30872E-24
 -1       690 4.42299E-06-8.45540E-06-1.65436E-24
 -1       691 4.50886E-06-8.81322E-06 3.30872E-24
 -1       692 4.59463E-06-8.74144E-06 0.00000E+00
 -1       693 4.68012E-06-8.04052E-06 0.00000E+00
 -1       694 4.76388E-06-6.50848E-06 0.00000E+00
 -1       695 4.84538E-06-3.77562E-06 0.00000E+00
 -1       696 3.34649E-06-3.09093E-07 0.00000E+00
 -1       697 2.84329E-06-2.47496E-07 0.00000E+00
 -1       698 2.16176E-06-1.86097E-07 0.00000E+00
 -1       699 1.40167E-06-1.24311E-07 8.27181E-25
 -1       700 6.51564E-07-6.25473E-08-1.65436E-24
 -1       701 3.41382E-06-2.12179E-07 0.00000E+00
 -1       702 3.17302E-06 1.53294E-07 0.00000E+00
 -1       703 2.87173E-06 6.80812E-07 3.30872E-24
 -1       704 2.52720E-06 1.32092E-06 0.00000E+00
 -1       705 2.16773E-06 2.00073E-06-3.30872E-24
 -1       706 1.82075E-06 2.64687E-06 0.00000E+00
 -1       707 1.51119E-06 3.19333E-06-3.30872E-24
 -1       708 1.26368E-06 3.57449E-06 1.65436E-24
 -1       709 1.08958E-06 3.76009E-06 3.30872E-24
 -1       710 9.99896E-07 3.72070E-06 0.00000E+00
 -1       711 9.87518E-07 3.47513E-06 0.00000E+00
 -1       712 1.04515E-06 3.04313E-06 0.00000E+00
 -1       713 1.15024E-06 2.48443E-06 0.00000E+00
 -1       714 1.28092E-06 1.85968E-06-8.27181E-25
 -1       715 1.40827E-06 1.24296E-06 0.00000E+00
 -1       716 4.89497E-06 5.02390E-06 0.00000E+00
 -1       717 4.87785E-06 8.29747E-06-2.06795E-25
 -1       718 4.86363E-06 1.04537E-05 0.00000E+00
 -1       719 4.85111E-06 1.15939E-05 2.06795E-25
 -1       720 4.83921E-06 1.18456E-05-4.13590E-25
 -1       721 4.82722E-06 1.13367E-05 2.06795E-25
 -1       722 4.81477E-06 1.02150E-05 0.00000E+00
 -1       723 4.80171E-06 8.62853E-06 2.06795E-25
 -1       724 4.78814E-06 6.73725E-06 0.00000E+00
 -1       725 4.77425E-06 4.70142E-06 0.00000E+00
 -1       726 4.76037E-06 2.68492E-06 0.00000E+00
 -1       727 4.74659E-06 8.51699E-07-4.13590E-25
 -1       728 4.73332E-06-6.39077E-07 0.00000E+00
 -1       729 4.71949E-06-1.62846E-06 8.27181E-25
 -1       730 4.70645E-06-1.97073E-06 0.00000E+00
 -1       731 9.53376E-07 5.54261E-07 1.03398E-25
 -1       732-7.52810E-07 5.84503E-07 2.06795E-25
 -1       733-8.89861E-07 6.16176E-07-8.27181E-25
 -1       734-1.43863E-07 6.47843E-07 0.00000E+00
 -1       735 8.62972E-07 6.79398E-07 0.00000E+00
 -1       736 1.67302E-06 8.77310E-06 0.00000E+00
 -1       737-4.02547E-06 2.33372E-05 0.00000E+00
 -1       738-1.13533E-05 4.20474E-05 0.00000E+00
 -1       739-1.94580E-05 6.27140E-05-1.65436E-24
 -1       740-2.72842E-05 8.26785E-05 0.00000E+00
 -1       741-3.37820E-05 9.92828E-05 1.65436E-24
 -1       742-3.82474E-05 1.10677E-04 0.00000E+00
 -1       743-4.00093E-05 1.15025E-04-1.65436E-24
 -1       744-3.90655E-05 1.12175E-04-3.30872E-24
 -1       745-3.54286E-05 1.02005E-04-1.65436E-24
 -1       746-2.97392E-05 8.61527E-05 0.00000E+00
 -1       747-2.26245E-05 6.62929E-05 0.00000E+00
 -1       748-1.50313E-05 4.50800E-05-3.30872E-24
 -1       749-7.90038E-06 2.51780E-05 1.65436E-24
 -1       750-2.06961E-06 8.92931E-06 0.00000E+00
 -1       751 5.01138E-06-8.35993E-07 3.30872E-24
 -1       752 5.35623E-06-4.74044E-07 3.30872E-24
 -1       753 5.69981E-06-3.13717E-07 0.00000E+00
 -1       754 6.04733E-06-2.37389E-07 6.61744E-24
 -1       755 6.39497E-06-2.13529E-07 1.32349E-23
 -1       756 6.74338E-06-2.11428E-07-6.61744E-24
 -1       757 7.09189E-06-2.22803E-07-1.32349E-23
 -1       758 7.44054E-06-2.39578E-07 0.00000E+00
 -1       759 7.78920E-06-2.59252E-07 0.00000E+00
 -1       760 8.13778E-06-2.79368E-07 0.00000E+00
 -1       761 8.48630E-06-2.97923E-07-1.32349E-23
 -1       762 8.83427E-06-3.12893E-07 0.00000E+00
 -1       763 9.18216E-06-3.18554E-07 0.00000E+00
 -1       764 9.52729E-06-3.09039E-07-3.30872E-24
 -1       765 9.87334E-06-2.62896E-07 0.00000E+00
 -1       766 3.13076E-06-1.49487E-06-1.65436E-24
 -1       767 1.90479E-07-1.46442E-06 0.00000E+00
 -1       768-2.80345E-06-1.43465E-06 0.00000E+00
 -1       769-4.52109E-06-1.40099E-06 0.00000E+00
 -1       770-3.52908E-06-1.36683E-06 0.00000E+00
 -1       771 4.18407E-06-8.55869E-07 0.00000E+00
 -1       772 3.72753E-06-3.24156E-07 0.00000E+00
 -1       773 3.31577E-06 8.67106E-08 0.00000E+00
 -1       774 2.94448E-06 3.88906E-07-3.30872E-24
 -1       775 2.60930E-06 5.94623E-07 6.61744E-24
 -1       776 2.30568E-06 7.16099E-07 0.00000E+00
 -1       777 2.02905E-06 7.65589E-07-6.61744E-24
 -1       778 1.77482E-06 7.55361E-07 0.00000E+00
 -1       779 1.53838E-06 6.97695E-07 0.00000E+00
 -1       780 1.31513E-06 6.04882E-07-3.30872E-24
 -1       781 1.10048E-06 4.89223E-07 6.61744E-24
 -1       782 8.89828E-07 3.63028E-07 3.30872E-24
 -1       783 6.78616E-07 2.38613E-07-6.61744E-24
 -1       784 4.62452E-07 1.28329E-07 0.00000E+00
 -1       785 2.36967E-07 4.45252E-08 0.00000E+00
 -1       786 1.02327E-05-3.91633E-08 2.06795E-25
 -1       787 1.02623E-05 5.30206E-08-2.06795E-25
 -1       788 1.02919E-05 1.22566E-07 8.27181E-25
 -1       789 1.03217E-05 1.73595E-07-4.13590E-25
 -1       790 1.03516E-05 2.10221E-07 0.00000E+00
 -1       791 1.03816E-05 2.36555E-07-4.13590E-25
 -1       792 1.04115E-05 2.56705E-07-8.27181E-25
 -1       793 1.04415E-05 2.74779E-07 0.00000E+00
 -1       794 1.04715E-05 2.94885E-07 8.27181E-25
 -1       795 1.05015E-05 3.21128E-07 0.00000E+00
 -1       796 1.05314E-05 3.57618E-07-8.27181E-25
 -1       797 1.05614E-05 4.08466E-07 0.00000E+00
 -1       798 1.05913E-05 4.77786E-07 0.00000E+00
 -1       799 1.06211E-05 5.69695E-07 0.00000E+00
 -1       800 1.06509E-05 6.88324E-07 0.00000E+00
 -1       801 9.30514E-06-1.30077E-07 0.00000E+00
 -1       802 7.43042E-06-1.01641E-07 0.00000E+00
 -1       803 5.07111E-06-7.42772E-08 1.03398E-25
 -1       804 2.71877E-06-4.78504E-08 0.00000E+00
 -1       805 8.64903E-07-2.04327E-08 0.00000E+00
 -1       806 1.01250E-05-5.15649E-08-8.27181E-25
 -1       807 1.00485E-05 4.30735E-08 8.27181E-25
 -1       808 9.97520E-06 1.28060E-07-1.65436E-24
 -1       809 9.90462E-06 2.05491E-07-8.27181E-25
 -1       810 9.83604E-06 2.77451E-07 1.65436E-24
 -1       811 9.76871E-06 3.46013E-07 0.00000E+00
 -1       812 9.70187E-06 4.13245E-07 8.27181E-25
 -1       813 9.63476E-06 4.81214E-07 0.00000E+00
 -1       814 9.56659E-06 5.51990E-07 0.00000E+00
 -1       815 9.49659E-06 6.27637E-07 4.13590E-25
 -1       816 9.42400E-06 7.10222E-07 0.00000E+00
 -1       817 9.34805E-06 8.01813E-07 0.00000E+00
 -1       818 9.26797E-06 9.04479E-07-4.13590E-25
 -1       819 9.18308E-06 1.02029E-06 4.13590E-25
 -1       820 9.09271E-06 1.15131E-06 8.27181E-25
 -1       821 1.06500E-05 1.02924E-06 4.13590E-25
 -1       822 1.06181E-05 1.26413E-06 4.13590E-25
 -1       823 1.05862E-05 1.53791E-06 8.27181E-25
 -1       824 1.05541E-05 1.84597E-06 0.00000E+00
 -1       825 1.05219E-05 2.18372E-06 8.27181E-25
 -1       826 1.04896E-05 2.54654E-06 0.00000E+00
 -1       827 1.04573E-05 2.92981E-06-8.27181E-25
 -1       828 1.04250E-05 3.32892E-06 4.13590E-25
 -1       829 1.03927E-05 3.73923E-06 8.27181E-25
 -1       830 1.03604E-05 4.15612E-06 0.00000E+00
 -1       831 1.03281E-05 4.57496E-06-8.27181E-25
 -1       832 1.02959E-05 4.99112E-06-4.13590E-25
 -1       833 1.02637E-05 5.39995E-06 8.27181E-25
 -1       834 1.02317E-05 5.79685E-06-4.13590E-25
 -1       835 1.01997E-05 6.17718E-06 0.00000E+00
 -1       836 1.04598E-05 9.13347E-07 0.00000E+00
 -1       837 1.01713E-05 9.91591E-07 0.00000E+00
 -1       838 9.84747E-06 1.06969E-06 1.65436E-24
 -1       839 9.52166E-06 1.14760E-06 0.00000E+00
 -1       840 9.22703E-06 1.22562E-06 8.27181E-25
 -1       841 1.06082E-05 1.02884E-06 0.00000E+00
 -1       842 1.05180E-05 1.26744E-06 2.58494E-26
 -1       843 1.04120E-05 1.54829E-06-2.58494E-26
 -1       844 1.02921E-05 1.86587E-06 0.00000E+00
 -1       845 1.01605E-05 2.21467E-06 0.00000E+00
 -1       846 1.00192E-05 2.58914E-06-6.46235E-27
 -1       847 9.87035E-06 2.98369E-06-2.58494E-26
 -1       848 9.71607E-06 3.39275E-06 0.00000E+00
 -1       849 9.55846E-06 3.81068E-06 0.00000E+00
 -1       850 9.39962E-06 4.23187E-06-1.29247E-26
 -1       851 9.24166E-06 4.65071E-06 0.00000E+00
 -1       852 9.08666E-06 5.06157E-06 0.00000E+00
 -1       853 8.93676E-06 5.45885E-06 1.03398E-25
 -1       854 8.79392E-06 5.83688E-06 0.00000E+00
 -1       855 8.66043E-06 6.19018E-06-4.13590E-25
 -1       856 1.01328E-05 6.92267E-06-4.13590E-25
 -1       857 1.00945E-05 7.37936E-06 0.00000E+00
 -1       858 1.00562E-05 7.89721E-06 0.00000E+00
 -1       859 1.00176E-05 8.46695E-06-4.13590E-25
 -1       860 9.97894E-06 9.07928E-06 0.00000E+00
 -1       861 9.94022E-06 9.72490E-06 4.13590E-25
 -1       862 9.90147E-06 1.03945E-05-8.27181E-25
 -1       863 9.86270E-06 1.10788E-05 0.00000E+00
 -1       864 9.82392E-06 1.17684E-05-8.27181E-25
 -1       865 9.78516E-06 1.24541E-05 4.13590E-25
 -1       866 9.74641E-06 1.31265E-05 8.27181E-25
 -1       867 9.70770E-06 1.37762E-05 0.00000E+00
 -1       868 9.66904E-06 1.43940E-05-8.27181E-25
 -1       869 9.63056E-06 1.49706E-05 0.00000E+00
 -1       870 9.59210E-06 1.54967E-05 0.00000E+00
 -1       871 9.86590E-06 6.53301E-06 0.00000E+00
 -1       872 9.58751E-06 6.52935E-06 0.00000E+00
 -1       873 9.32485E-06 6.52558E-06 0.00000E+00
 -1       874 9.06854E-06 6.52170E-06-1.03398E-25
 -1       875 8.80919E-06 6.51764E-06-2.06795E-25
 -1       876 1.00784E-05 6.93559E-06 0.00000E+00
 -1       877 9.96722E-06 7.39544E-06-8.27181E-25
 -1       878 9.83643E-06 7.90741E-06-1.65436E-24
 -1       879 9.68927E-06 8.46397E-06 0.00000E+00
 -1       880 9.52830E-06 9.05738E-06-1.65436E-24
 -1       881 9.35642E-06 9.67999E-06 0.00000E+00
 -1       882 9.17643E-06 1.03242E-05 1.65436E-24
 -1       883 8.99121E-06 1.09824E-05 0.00000E+00
 -1       884 8.80357E-06 1.16470E-05 1.65436E-24
 -1       885 8.61638E-06 1.23104E-05 0.00000E+00
 -1       886 8.43247E-06 1.29650E-05 0.00000E+00
 -1       887 8.25465E-06 1.36032E-05-8.27181E-25
 -1       888 8.08579E-06 1.42175E-05-1.65436E-24
 -1       889 7.92843E-06 1.47999E-05-8.27181E-25
 -1       890 7.78586E-06 1.53432E-05 0.00000E+00
 -1       891 9.18205E-06 1.59424E-05 8.27181E-25
 -1       892 8.88315E-06 1.59215E-05 0.00000E+00
 -1       893 8.61972E-06 1.59006E-05 0.00000E+00
 -1       894 8.35335E-06 1.58798E-05 0.00000E+00
 -1       895 8.04565E-06 1.58589E-05 0.00000E+00
 -1       896 9.38384E-08 5.30108E-07 0.00000E+00
 -1       897 1.88421E-07 9.19197E-07 1.65436E-24
 -1       898 2.82996E-07 1.20093E-06-3.30872E-24
 -1       899 3.77718E-07 1.40851E-06 0.00000E+00
 -1       900 4.72452E-07 1.55850E-06 3.30872E-24
 -1       901 5.67218E-07 1.66721E-06-1.65436E-24
 -1       902 6.61988E-07 1.74168E-06 0.00000E+00
 -1       903 7.56758E-07 1.78882E-06 0.00000E+00
 -1       904 8.51525E-07 1.80939E-06-3.30872E-24
 -1       905 9.46266E-07 1.80404E-06 0.00000E+00
 -1       906 1.04099E-06 1.76759E-06-3.30872E-24
 -1       907 1.13558E-06 1.69475E-06 0.00000E+00
 -1       908 1.23015E-06 1.57203E-06 0.00000E+00
 -1       909 1.32406E-06 1.38577E-06 8.27181E-25
 -1       910 1.41817E-06 1.10802E-06 0.00000E+00
 -1       911 1.51844E-06 6.44888E-07-4.13590E-25
 -1       912 1.52776E-06 1.35965E-06 0.00000E+00
 -1       913 1.53651E-06 2.68165E-06 0.00000E+00
 -1       914 1.54461E-06 4.43801E-06 1.03398E-25
 -1       915 1.55222E-06 6.46517E-06 2.06795E-25
 -1       916 1.55961E-06 8.59962E-06 0.00000E+00
 -1       917 1.56711E-06 1.06801E-05 0.00000E+00
 -1       918 1.57502E-06 1.25455E-05 1.03398E-25
 -1       919 1.58352E-06 1.40299E-05 0.00000E+00
 -1       920 1.59265E-06 1.49674E-05 1.03398E-25
 -1       921 1.60214E-06 1.51804E-05 0.00000E+00
 -1       922 1.61136E-06 1.44909E-05 0.00000E+00
 -1       923 1.61921E-06 1.27019E-05-1.03398E-25
 -1       924 1.62368E-06 9.61583E-06 0.00000E+00
 -1       925 1.62259E-06 5.00786E-06 0.00000E+00
 -1       926 1.49833E-06-8.66883E-06 0.00000E+00
 -1       927 1.38304E-06-1.61536E-05-8.27181E-25
 -1       928 1.27112E-06-2.31627E-05 3.30872E-24
 -1       929 1.16572E-06-2.90589E-05 0.00000E+00
 -1       930 1.06778E-06-3.34096E-05 0.00000E+00
 -1       931 9.76138E-07-3.57884E-05 0.00000E+00
 -1       932 8.87123E-07-3.61317E-05-3.30872E-24
 -1       933 7.96670E-07-3.43837E-05 1.65436E-24
 -1       934 7.01872E-07-3.08731E-05 0.00000E+00
 -1       935 6.01244E-07-2.59357E-05 1.65436E-24
 -1       936 4.96440E-07-2.01699E-05 0.00000E+00
 -1       937 3.90238E-07-1.41772E-05 0.00000E+00
 -1       938 2.86282E-07-8.60075E-06-3.30872E-24
 -1       939 1.86899E-07-4.08231E-06 0.00000E+00
 -1       940 9.30284E-08-1.06851E-06 0.00000E+00
 -1       941 5.33243E-07 8.79879E-08 6.61744E-24
 -1       942 1.09592E-06 1.66301E-07 0.00000E+00
 -1       943 1.65673E-06 2.39067E-07-1.32349E-23
 -1       944 2.22315E-06 3.10271E-07-6.61744E-24
 -1       945 2.78972E-06 3.80580E-07 0.00000E+00
 -1       946 3.35741E-06 4.50644E-07 0.00000E+00
 -1       947 3.92523E-06 5.20582E-07 1.32349E-23
 -1       948 4.49324E-06 5.90509E-07 0.00000E+00
 -1       949 5.06127E-06 6.60523E-07 1.32349E-23
 -1       950 5.62916E-06 7.30722E-07 0.00000E+00
 -1       951 6.19694E-06 8.01599E-07 0.00000E+00
 -1       952 6.76384E-06 8.73666E-07-6.61744E-24
 -1       953 7.33061E-06 9.49978E-07 0.00000E+00
 -1       954 7.89287E-06 1.03370E-06 6.61744E-24
 -1       955 8.45664E-06 1.14373E-06 0.00000E+00
 -1       956 8.96860E-06 1.50562E-06 0.00000E+00
 -1       957 8.94000E-06 1.74322E-06 0.00000E+00
 -1       958 8.91129E-06 2.00930E-06-2.06795E-25
 -1       959 8.88253E-06 2.30048E-06 2.06795E-25
 -1       960 8.85374E-06 2.61337E-06 4.13590E-25
 -1       961 8.82493E-06 2.94456E-06 4.13590E-25
 -1       962 8.79612E-06 3.29064E-06 4.13590E-25
 -1       963 8.76730E-06 3.64821E-06 4.13590E-25
 -1       964 8.73848E-06 4.01385E-06 8.27181E-25
 -1       965 8.70966E-06 4.38413E-06 0.00000E+00
 -1       966 8.68084E-06 4.75567E-06-8.27181E-25
 -1       967 8.65203E-06 5.12504E-06 4.13590E-25
 -1       968 8.62323E-06 5.48882E-06 0.00000E+00
 -1       969 8.59448E-06 5.84363E-06 4.13590E-25
 -1       970 8.56581E-06 6.18607E-06-8.27181E-25
 -1       971 8.48406E-06 6.86368E-06 8.27181E-25
 -1       972 8.42910E-06 7.28955E-06 0.00000E+00
 -1       973 8.37413E-06 7.78110E-06 0.00000E+00
 -1       974 8.31891E-06 8.32892E-06-8.27181E-25
 -1       975 8.26363E-06 8.92354E-06 1.65436E-24
 -1       976 8.20830E-06 9.55550E-06-8.27181E-25
 -1       977 8.15293E-06 1.02153E-05 0.00000E+00
 -1       978 8.09754E-06 1.08935E-05 0.00000E+00
 -1       979 8.04216E-06 1.15805E-05 0.00000E+00
 -1       980 7.98678E-06 1.22668E-05 8.27181E-25
 -1       981 7.93142E-06 1.29429E-05 0.00000E+00
 -1       982 7.87613E-06 1.35994E-05 0.00000E+00
 -1       983 7.82091E-06 1.42267E-05 0.00000E+00
 -1       984 7.76601E-06 1.48153E-05 0.00000E+00
 -1       985 7.71112E-06 1.53557E-05-8.27181E-25
 -3
    1PSTEP                        18           9           1          
  100CL  109 2.13989E-01         841                     0    9           1
 -4  STRESS      6    1
 -5  SXX         1    4    1    1
 -5  SYY         1    4    2    2
 -5  SZZ         1    4    3    3
 -5  SXY         1    4    1    2
 -5  SYZ         1    4    2    3
 -5  SZX         1    4    3    1
 -1         1-9.01249E+05-2.90756E+05-1.86465E+05-2.57122E+05 1.61284E-10 9.99231E-10
 -1         2-5.64047E+05-3.57338E+04 7.46864E+02-5.51624E+04-1.49839E-10-6.02995E-10
 -1         3-3.11324E+05-1.05138E+05-1.86466E+04-2.39404E+04 3.60444E-10-3.68885E-10
 -1         4-1.68023E+05-2.75662E+04 2.62042E+02-1.64739E+04 3.55271E-13-1.50116E-10
 -1         5-8.98789E+04 3.49731E+04-4.04516E+04-1.78434E+03 3.24962E-09 2.14584E-10
 -1         8-4.88436E+05-1.93975E+05-7.42489E+04-1.77062E+05-1.13687E-10 1.52068E-09
 -1         9-5.08470E+05-1.18322E+05-6.23222E+04-1.16193E+05-4.32313E-10-3.54703E-10
 -1        10-2.09205E+05-1.23193E+05-4.77230E+03-4.85860E+04-1.23517E-09 2.63602E-10
 -1        11-1.64230E+05-4.25328E+04 2.31821E+02-3.48362E+04 1.81473E-10 8.61936E-11
 -1        12-1.07901E+05 2.55512E+04-4.55930E+04-1.42209E+04 1.01602E-09 1.36847E-09
 -1        15 3.56442E+03-2.01384E+04 1.13208E+03-3.58974E+04-2.76486E-10 1.86992E-09
 -1        16-2.86537E+05-3.60230E+04 1.99013E+04-1.28745E+05 3.08470E-10 2.28325E-09
 -1        17-1.73599E+05-1.12934E+05-1.85615E+04-9.47223E+04-1.31089E-09-1.46732E-10
 -1        18-4.00055E+04-2.72059E+04-1.98939E+04-3.52630E+04 2.28859E-09-5.86927E-10
 -1        19-2.24532E+04 1.86677E+04-1.80423E+04-1.44682E+04-2.86718E-10 1.77958E-10
 -1        20 2.85298E+04-2.14789E+04-3.70864E+03 1.55449E+04 1.52363E-09-3.27645E-10
 -1        21 4.43446E+02-4.27541E+04 1.18690E+04 9.34738E+00 2.80738E-09 2.61332E-10
 -1        22 9.85436E+03 5.22551E+04 4.05359E+02-1.58635E+04-3.06272E-10 4.27463E-11
 -1        23-7.95060E+04 2.63850E+04 2.95739E+03-3.11299E+04-1.80936E-09-1.55781E-09
 -1        24-7.82309E+04-1.12025E+03 7.68011E+04-1.39015E+05-4.61750E-09 7.03949E-10
 -1        25 1.69028E+05 5.51393E+04 5.14663E+04-8.50144E+04 3.40454E-10-5.97235E-10
 -1        26 7.96440E+02 4.52354E+04 2.26787E+03-8.17003E+03-2.14849E-10-3.43031E-10
 -1        27-9.85098E+03-1.79469E+04-7.73332E+03 2.17386E+04 3.20597E-11-1.55311E-09
 -1        28-3.42335E+03-3.39614E+04-1.85816E+02 1.64092E+04-5.97879E-10-7.90750E-10
 -1        29 1.30607E+05 9.42078E+04 4.09814E+02-9.87427E+02 1.81743E-10 1.45974E-10
 -1        30 1.90289E+04 1.40573E+04 5.70983E+02-1.33229E+04-5.63408E-10-6.95763E-11
 -1        31-9.84767E+04 1.14506E+04 3.86911E+03-2.90001E+04 2.49507E-09-9.78048E-09
 -1        32 2.62856E+05 1.38721E+05 1.72714E+05-1.39308E+05 2.58496E-09 1.01863E-09
 -1        33 3.97205E+05 1.57466E+05 1.21414E+05-1.21277E+04-7.90501E-09-1.89630E-10
 -1        34-5.74333E+04-7.17967E+03-1.26768E+03 1.26308E+04-4.92490E-10 5.32509E-10
 -1        35-9.70996E+03-1.13625E+04-2.01611E+02 2.45616E+04 1.97478E-09-6.47257E-10
 -1        36-1.20797E+06 3.68704E+04-8.52164E+04-3.16637E-08-1.14320E-09-1.00408E-09
 -1        37-1.24487E+06-4.26803E+04-6.03083E+04 1.08137E-07 4.09879E-11-5.01132E-10
 -1        38-1.22221E+06 5.77942E+03-2.20542E+04 6.48656E-08-9.03901E-10-7.28505E-10
 -1        39-1.22825E+06-6.68803E+03-1.38694E+04 9.36275E-08 9.42048E-11-1.81467E-09
 -1        40-1.22456E+06 9.03965E+02-5.66573E+03-1.07913E-08-7.71127E-10-3.88354E-10
 -1        41-1.22551E+06-1.05815E+03-3.37806E+03-8.17099E-08-1.94997E-09 6.00494E-10
 -1        42-1.22494E+06 1.53569E+02-1.64187E+03 3.70311E-08-4.45350E-10-3.41174E-10
 -1        43-1.22509E+06-2.65222E+02-1.28260E+03 8.67779E-08 2.46716E-10-1.40574E-10
 -1        44-1.22497E+06 1.11543E+02-1.26569E+03-8.18315E-08 1.38949E-10 1.62942E-09
 -1        45-1.22531E+06-6.96806E+02-2.28893E+03-6.70936E-08-6.82385E-10 1.28739E-09
 -1        46-1.22473E+06 5.84862E+02-3.70548E+03-1.34463E-07 6.94030E-10 1.06388E-09
 -1        47-1.22707E+06-4.31532E+03-8.97148E+03-2.31889E-08-6.16469E-10-5.48425E-10
 -1        48-1.22321E+06 3.72745E+03-1.42362E+04 4.95644E-08 4.21274E-10 5.66615E-10
 -1        49-1.23779E+06-2.75255E+04-3.89001E+04 1.99626E-08-8.70348E-10 1.85219E-09
 -1        50-1.21403E+06 2.37775E+04-5.49669E+04 1.96180E-08-1.37597E-09 9.05857E-10
 -1        51 9.96679E+03-1.19520E+05 1.58232E+04-3.12457E+05-2.91038E-11 9.92441E-09
 -1        52 4.05588E+03-1.17412E+05 9.51869E+03-3.43930E+05 9.27685E-11 2.21498E-08
 -1        53 2.28218E+03-1.19681E+05 7.67715E+03-3.11667E+05-8.73115E-11 5.96629E-10
 -1        54 5.63358E+03-1.17879E+05 1.16531E+04-3.44799E+05-1.56433E-10-1.86410E-08
 -1        55 1.43559E+04-1.21364E+05 2.11802E+04-3.11555E+05 1.60071E-10-7.41693E-09
 -1        56-1.37359E+06-1.55198E+05-1.13139E+05-5.31465E+05-1.09139E-11 1.49885E-09
 -1        57-1.42674E+06-2.47217E+05-7.58810E+04-5.18206E+05 4.01997E-10-1.46611E-09
 -1        58-1.39547E+06-1.90961E+05-2.66583E+04-5.25418E+05-1.54614E-11-1.68257E-09
 -1        59-1.40152E+06-2.05080E+05-1.58040E+04-5.25481E+05 2.17142E-10 1.18871E-09
 -1        60-1.39855E+06-1.95918E+05-6.23661E+03-5.24702E+05-5.75255E-11 1.73691E-09
 -1        61-1.39803E+06-1.99198E+05-3.52999E+03-5.26251E+05 6.09248E-10 3.19289E-10
 -1        62-1.39892E+06-1.96666E+05-1.72226E+03-5.24708E+05-1.04421E-10-1.88010E-10
 -1        63-1.39778E+06-1.98313E+05-1.44254E+03-5.26118E+05-5.95165E-10 2.78057E-10
 -1        64-1.39881E+06-1.96785E+05-1.67818E+03-5.24840E+05 3.35646E-10-7.41579E-10
 -1        65-1.39847E+06-1.98702E+05-3.39975E+03-5.25727E+05-1.46589E-10-1.99549E-09
 -1        66-1.39823E+06-1.96295E+05-5.98989E+03-5.25093E+05 9.14042E-11-7.07132E-11
 -1        67-1.40224E+06-2.03912E+05-1.51660E+04-5.24493E+05-6.29825E-10 9.00400E-10
 -1        68-1.39507E+06-1.91745E+05-2.55800E+04-5.26015E+05 4.62933E-10 1.31877E-10
 -1        69-1.42681E+06-2.43964E+05-7.28053E+04-5.17080E+05 2.01908E-10-2.21917E-10
 -1        70-1.37390E+06-1.57604E+05-1.08557E+05-5.32014E+05-3.85626E-10 1.82627E-09
 -1        71-5.80163E+05-9.14033E+02 2.11289E+03 5.69505E-08-9.61775E-10-2.15914E-09
 -1        72-5.79193E+05 1.05803E+03 1.49268E+03-8.41374E-08-1.59266E-10 3.09879E-09
 -1        73-5.79809E+05-1.43158E+02 5.41034E+02 1.31929E-08 5.36522E-10-2.64322E-12
 -1        74-5.79606E+05 1.64782E+02 3.31083E+02 1.54054E-07-9.05965E-10 6.06811E-10
 -1        75-5.79750E+05-2.15058E+01 1.15659E+02 7.41887E-08-3.32714E-10-7.15723E-10
 -1        76-5.79678E+05 1.92913E+01 3.04674E+01 1.00244E-07 1.23712E-10 5.21432E-10
 -1        77-5.79737E+05 2.22958E+00-5.92452E+01-4.54631E-08-3.39175E-10-4.63132E-10
 -1        78-5.79711E+05-3.88904E+01-1.88313E+02 6.00086E-09-8.95670E-12 9.97062E-10
 -1        79-5.79717E+05 3.66447E+01-3.67658E+02 7.17400E-09-1.42205E-10 1.02953E-09
 -1        80-5.79837E+05-2.76626E+02-8.62231E+02 7.46266E-09-5.69842E-10 1.06211E-09
 -1        81-5.79612E+05 2.39814E+02-1.49105E+03-2.90742E-08-8.21372E-10 1.37260E-09
 -1        82-5.80569E+05-1.77819E+03-3.68224E+03-1.49140E-08 1.00023E-10-3.59648E-10
 -1        83-5.78986E+05 1.53712E+03-5.86549E+03-6.61146E-08-3.16837E-10-1.29603E-10
 -1        84-5.84989E+05-1.13520E+04-1.60435E+04 7.80663E-08 1.08243E-10 9.99307E-10
 -1        85-5.75196E+05 9.80610E+03-2.26762E+04 3.86710E-08-7.90816E-10 8.63110E-10
 -1        86-2.68623E+04 7.82127E+04 6.31217E+04 3.17897E+02-7.27596E-12-7.70491E-10
 -1        87 3.34590E+04 1.06441E+05 4.88237E+04-1.32999E+03-1.56888E-10-8.11663E-10
 -1        88-6.56898E+03 8.74970E+04 2.47789E+04 2.28247E+02-2.85127E-10-5.11660E-10
 -1        89 2.26585E+04 1.01413E+05 3.47457E+04-1.22689E+03-9.09495E-11-9.36586E-10
 -1        90-1.60706E+04 8.32364E+04 3.89107E+04 2.14810E+02-3.47427E-10-1.86933E-09
 -1        91-6.01961E+05-8.22732E+04-7.16039E+03-2.27527E+05 1.02818E-09-8.46740E-10
 -1        92-6.07100E+05-8.73392E+04-4.95823E+03-2.24537E+05 1.10526E-09 2.52516E-09
 -1        93-6.03115E+05-8.51032E+04-1.67943E+03-2.27337E+05 7.68040E-10 2.34479E-09
 -1        94-6.05230E+05-8.45209E+04-1.04579E+03-2.25275E+05-9.43782E-10-3.46461E-10
 -1        95-6.03829E+05-8.50896E+04-4.19977E+02-2.26789E+05-1.41080E-11-8.79808E-10
 -1        96-6.03809E+05-8.51638E+04-2.51877E+02-2.26617E+05 6.90704E-10 5.41604E-10
 -1        97-6.04534E+05-8.44609E+04-1.88741E+02-2.25993E+05 2.33555E-10-5.01903E-10
 -1        98-6.02927E+05-8.60749E+04-2.58328E+02-2.27696E+05-8.64823E-10 1.01299E-09
 -1        99-6.04712E+05-8.41774E+04-4.16965E+02-2.25711E+05 3.35383E-10 6.60705E-10
 -1       100-6.03318E+05-8.61757E+04-9.99425E+02-2.27396E+05 8.43521E-11 5.38506E-10
 -1       101-6.04143E+05-8.43607E+04-1.74464E+03-2.26294E+05 7.47491E-11 8.04903E-10
 -1       102-6.05645E+05-8.71193E+04-4.64447E+03-2.25712E+05 1.27500E-10 8.55664E-10
 -1       103-6.02386E+05-8.32360E+04-7.47057E+03-2.27394E+05-8.72205E-10 5.18412E-10
 -1       104-6.14147E+05-9.95122E+04-2.21106E+04-2.22216E+05 8.44693E-11 7.44194E-10
 -1       105-5.95650E+05-7.19758E+04-3.18561E+04-2.29790E+05-8.34461E-10 1.37516E-09
 -1       106-3.57365E+05 1.32618E+03-3.06789E+03-7.60687E-09 9.91667E-11-1.00658E-09
 -1       107-3.58665E+05-1.53535E+03-2.17176E+03-2.89919E-08-1.29394E-10 2.59433E-10
 -1       108-3.57878E+05 2.07960E+02-7.97126E+02-1.30100E-07-3.18141E-10-4.37808E-10
 -1       109-3.58068E+05-2.41113E+02-5.05948E+02-1.71892E-07 3.79495E-10-1.06678E-09
 -1       110-3.57962E+05 3.29813E+01-2.16796E+02 1.25426E-08-3.10895E-10-4.53426E-10
 -1       111-3.57971E+05-4.16078E+01-1.48909E+02 8.14675E-08-3.87954E-10 4.73690E-10
 -1       112-3.57974E+05 8.60360E+00-1.10199E+02-2.24156E-08 1.32835E-10 1.39521E-09
 -1       113-3.57968E+05-3.27304E+01-1.58552E+02-1.15498E-07 5.41795E-11 9.36140E-11
 -1       114-3.57965E+05 2.41132E+01-2.49237E+02-2.85200E-08 1.09213E-10-8.32614E-11
 -1       115-3.58043E+05-1.74963E+02-5.51325E+02 3.62365E-08-5.08462E-10-1.91400E-09
 -1       116-3.57900E+05 1.50745E+02-9.41076E+02-4.50688E-08-3.53332E-10-1.16700E-10
 -1       117-3.58502E+05-1.11672E+03-2.31489E+03 9.75077E-09 3.62425E-10 1.13101E-09
 -1       118-3.57507E+05 9.65173E+02-3.68476E+03 3.24175E-08 1.60918E-11-1.20008E-09
 -1       119-3.61276E+05-7.12789E+03-1.00751E+04 5.34005E-08 7.24297E-10-1.50010E-09
 -1       120-3.55127E+05 6.15720E+03-1.42398E+04 2.81822E-08 1.45174E-10 5.08408E-10
 -1       121-5.00103E+02-2.98597E+05 2.35152E+03 4.54142E+03-4.60432E-11 2.79385E-10
 -1       122 7.23156E+02-2.97720E+05 1.59282E+03 1.62449E+04-1.36140E-10 4.44288E-10
 -1       123-7.46545E+01-2.98266E+05 8.31819E+02 4.55870E+03-2.78362E-10 2.76941E-10
 -1       124 3.48548E+02-2.97925E+05 9.23999E+02 1.61641E+04-6.18570E-10 8.91305E-11
 -1       125-2.24835E+02-2.98366E+05 1.07214E+03 4.62221E+03-7.19638E-10-6.08907E-10
 -1       126-3.02199E+05-4.17026E+04-1.82825E+03-1.13548E+05-1.94854E-09 7.12362E-10
 -1       127-3.02837E+05-4.36344E+04-1.25939E+03-1.13533E+05-3.99811E-08 1.44777E-08
 -1       128-3.02599E+05-4.22610E+04-4.13601E+02-1.13349E+05-1.43772E-05 5.38708E-06
 -1       129-3.02321E+05-4.28954E+04-2.47759E+02-1.13737E+05-2.86738E-05 1.07455E-05
 -1       130-3.02646E+05-4.23716E+04-8.86931E+01-1.13343E+05-1.43782E-05 5.38656E-06
 -1       131-3.02365E+05-4.27126E+04-6.02085E+01-1.13655E+05-3.81944E-08 1.70492E-08
 -1       132-3.02610E+05-4.24994E+04-5.15771E+01-1.13432E+05-1.39214E-09-3.17266E-10
 -1       133-3.02583E+05-4.25622E+04-9.00029E+01-1.13445E+05 3.25093E-09-1.02582E-09
 -1       134-3.02504E+05-4.25978E+04-1.47308E+02-1.13553E+05-2.14520E-09-1.14106E-10
 -1       135-3.02809E+05-4.24823E+04-3.54610E+02-1.13227E+05-3.64972E-08 1.32584E-08
 -1       136-3.02337E+05-4.25313E+04-6.09534E+02-1.13650E+05-1.30966E-05 4.91301E-06
 -1       137-3.03280E+05-4.31331E+04-1.65888E+03-1.13017E+05-2.61257E-05 9.80823E-06
 -1       138-3.01951E+05-4.18656E+04-2.67308E+03-1.13763E+05-1.30971E-05 4.91347E-06
 -1       139-3.05940E+05-4.80151E+04-7.96047E+03-1.12207E+05-3.65582E-08 1.40532E-08
 -1       140-2.99716E+05-3.76895E+04-1.14854E+04-1.14459E+05-1.06138E-09 1.59162E-09
 -1       141-1.70179E+05-1.04060E+03 2.40562E+03 6.28629E-08 2.71910E-10-1.16654E-09
 -1       142-1.69119E+05 1.20452E+03 1.69937E+03 1.11327E-07 1.93606E-10 2.03954E-10
 -1       143-1.69776E+05-1.62969E+02 6.15600E+02-1.11092E-08 1.74285E-11 1.39266E-11
 -1       144-1.69589E+05 1.87507E+02 3.75861E+02 1.85057E-08 2.08103E-11-1.69280E-10
 -1       145-1.69709E+05-2.44009E+01 1.29443E+02 7.02820E-09 5.35823E-11-8.38860E-10
 -1       146-1.69671E+05 2.13258E+01 2.97809E+01-6.97429E-08 1.11924E-10-1.41266E-09
 -1       147-1.69694E+05 3.09200E+00-7.67080E+01 7.80739E-09-3.49716E-10-3.12710E-10
 -1       148-1.69711E+05-4.84473E+01-2.34774E+02 3.16278E-10 5.55512E-11-7.23162E-10
 -1       149-1.69669E+05 4.53349E+01-4.55526E+02-7.58370E-08-1.22771E-10-4.90246E-10
 -1       150-1.69867E+05-3.41891E+02-1.06655E+03-7.14862E-08-1.29671E-10-1.07497E-09
 -1       151-1.69538E+05 2.96353E+02-1.84374E+03-6.24460E-08-8.55952E-11-4.01542E-10
 -1       152-1.70771E+05-2.19733E+03-4.55191E+03 4.21714E-08 3.77922E-11 1.66818E-09
 -1       153-1.68765E+05 1.89942E+03-7.25055E+03 2.19779E-08 7.96682E-10-5.59339E-11
 -1       154-1.76231E+05-1.40276E+04-1.98280E+04-8.65322E-09 3.46167E-10-4.78622E-10
 -1       155-1.64079E+05 1.21174E+04-2.80234E+04-1.94522E-08 2.08549E-09-3.54703E-10
 -1       156-5.54589E+03-5.75407E+04 1.32072E+04 9.36465E+00 3.31056E-10 2.78635E-05
 -1       157 7.31290E+03-5.15174E+04 1.09268E+04-3.74092E+01 1.27420E-09 5.54778E-05
 -1       158-1.76031E+03-5.58249E+04 6.63985E+03 1.15792E+01 8.36110E-10 2.78440E-05
 -1       159 7.72527E+03-5.13275E+04 1.14646E+04-4.03681E+01 5.05906E-11 8.03463E-08
 -1       160-5.95792E+03-5.77306E+04 1.41336E+04 1.23236E+01 5.27507E-11 3.88831E-09
 -1       161-1.76232E+05-2.46273E+04-3.50282E+02-6.61228E+04 8.63086E-06-3.23419E-06
 -1       162-1.76324E+05-2.50233E+04-2.44596E+02-6.61439E+04 1.71777E-05-6.44053E-06
 -1       163-1.76311E+05-2.47446E+04-8.61272E+01-6.60895E+04 3.12804E-06-1.17186E-06
 -1       164-1.76237E+05-2.48839E+04-6.07585E+01-6.61769E+04-1.09421E-05 4.10358E-06
 -1       165-1.76319E+05-2.47667E+04-3.78481E+01-6.60898E+04-5.49619E-06 2.06175E-06
 -1       166-1.76244E+05-2.48527E+04-5.45484E+01-6.61623E+04-1.66392E-08 6.25395E-09
 -1       167-1.76304E+05-2.47758E+04-8.71974E+01-6.61041E+04 4.00070E-10 2.08710E-09
 -1       168-1.76302E+05-2.48664E+04-2.00758E+02-6.61224E+04-1.89110E-10 1.63920E-09
 -1       169-1.76262E+05-2.47530E+04-3.63201E+02-6.61296E+04-4.48793E-10-8.19867E-10
 -1       170-1.76519E+05-2.51296E+04-9.12401E+02-6.60333E+04 7.74612E-10-1.95935E-09
 -1       171-1.76087E+05-2.45128E+04-1.57599E+03-6.61932E+04-7.81000E-10-5.56213E-10
 -1       172-1.77664E+05-2.70023E+04-4.24936E+03-6.56599E+04-8.26321E-09 2.82091E-09
 -1       173-1.75117E+05-2.28814E+04-6.80340E+03-6.65028E+04-3.26405E-06 1.22336E-06
 -1       174-1.84563E+05-3.90878E+04-2.01582E+04-6.33745E+04-6.50840E-06 2.44104E-06
 -1       175-1.69190E+05-1.24351E+04-2.90323E+04-6.84760E+04-3.26785E-06 1.22456E-06
 -1       191 3.22926E+02 1.51925E+05 5.16463E+02-3.41059E+03-1.95087E-10 9.27230E-10
 -1       192 1.19905E+02 1.51995E+05 3.09718E+02-3.63368E+03-2.65345E-10-2.12140E-10
 -1       193 5.81299E+01 1.51950E+05 2.50917E+02-3.34546E+03-5.12728E-10 5.79348E-10
 -1       194 1.59805E+02 1.52007E+05 3.81687E+02-3.75657E+03-6.10385E-10-2.31012E-10
 -1       195 4.46811E+02 1.51909E+05 6.95515E+02-3.28756E+03-7.72161E-10 9.05402E-10
 -1       251-8.04219E+05 1.90829E+04-4.44450E+04-5.08443E+03-6.15074E-10-8.53106E-10
 -1       252-8.21535E+05-2.21121E+04-3.11143E+04 1.24320E+04 6.25356E-10 1.21281E-09
 -1       253-8.11352E+05 3.03645E+03-1.15515E+04-5.49654E+03-3.74627E-10-7.63521E-10
 -1       254-8.11274E+05-3.37875E+03-6.66517E+03 6.77904E+03-6.63178E-10 1.09412E-09
 -1       255-8.14419E+05 3.14837E+02-3.43403E+03 5.68667E+02-5.99755E-10-1.17836E-09
 -1       256-8.09848E+05-4.51774E+02-1.23661E+03-5.39571E+03-7.21343E-11-1.04865E-09
 -1       257-8.12774E+05 1.10866E+02-1.00390E+03 6.67827E+03 4.78593E-10 4.21380E-10
 -1       258-8.11368E+05-1.79462E+02-6.13116E+02-1.12095E+04-1.27871E-09-3.90069E-09
 -1       259-8.12950E+05 9.27218E+01-1.03629E+03 6.38278E+03-2.34638E-09 6.28120E-10
 -1       260-8.09684E+05-4.37373E+02-1.19031E+03-4.52548E+03-7.12447E-10-4.31831E-09
 -1       261-8.14402E+05 3.13941E+02-3.40715E+03-6.08433E+00 5.41490E-10-3.96881E-10
 -1       262-8.11437E+05-3.36467E+03-6.64538E+03 7.59937E+03 9.07178E-10 2.85013E-10
 -1       263-8.11211E+05 3.02846E+03-1.14283E+04-5.74211E+03-1.50393E-09-7.69887E-10
 -1       264-8.21414E+05-2.19304E+04-3.08565E+04 1.23296E+04-6.14433E-09 9.58607E-10
 -1       265-8.04480E+05 1.89080E+04-4.41337E+04-4.73644E+03-3.35197E-09 1.15142E-09
 -1       266-7.09851E+03-1.27092E+05 1.61336E+04 5.45761E+01 2.09184E-11 1.00406E-09
 -1       267 7.62025E+03-1.20107E+05 1.03538E+04 3.73735E+02 3.18323E-11-1.12323E-09
 -1       268-5.17921E+02-1.24067E+05 1.93163E+03 2.44654E+02 7.27596E-12 6.24276E-10
 -1       269-3.21078E+03-1.25118E+05-3.76096E+03-6.84785E+00-3.19460E-11 3.05925E-09
 -1       270 3.72390E+03-1.22083E+05-8.15201E+03 4.35153E+02-6.82121E-12 1.28185E-09
 -1       271-1.15283E+06-1.46505E+05-8.91878E+04-4.45640E+05 8.73115E-11-2.04818E-09
 -1       272-1.18126E+06-2.05016E+05-5.59154E+04-4.48998E+05-6.50971E-10-2.81216E-09
 -1       273-1.16817E+06-1.65726E+05-2.10354E+04-4.43526E+05 5.52049E-10 1.92267E-09
 -1       274-1.16352E+06-1.79604E+05-1.14842E+04-4.53016E+05-8.00355E-11-3.58341E-10
 -1       275-1.16999E+06-1.67625E+05-4.89052E+03-4.43245E+05 2.55795E-10 5.00677E-10
 -1       276-1.16139E+06-1.77179E+05-2.57948E+03-4.53537E+05-5.78666E-10 4.99540E-10
 -1       277-1.17027E+06-1.67766E+05-1.32536E+03-4.43160E+05 8.61860E-10 2.50054E-09
 -1       278-1.16110E+06-1.77025E+05-1.03365E+03-4.53662E+05-2.09184E-11 1.40703E-09
 -1       279-1.17029E+06-1.67747E+05-1.23274E+03-4.43139E+05-9.66622E-11 3.26793E-10
 -1       280-1.16129E+06-1.77224E+05-2.32694E+03-4.53634E+05-3.25144E-11 1.20423E-09
 -1       281-1.17008E+06-1.67589E+05-4.37232E+03-4.43179E+05 5.20515E-10 1.32786E-09
 -1       282-1.16314E+06-1.79439E+05-1.02524E+04-4.53235E+05 1.30342E-10-7.55790E-10
 -1       283-1.16848E+06-1.65870E+05-1.87663E+04-4.43405E+05 7.77732E-10 2.08456E-09
 -1       284-1.17893E+06-2.02155E+05-4.98861E+04-4.49706E+05-2.72848E-11-1.74623E-10
 -1       285-1.15482E+06-1.48700E+05-7.95669E+04-4.45266E+05-2.18279E-10 4.91127E-10
 -1       286-1.42443E+05-6.73472E+03 1.55735E+04-8.98882E+01 9.39693E-12 2.36469E-11
 -1       287-1.35624E+05 7.79674E+03 1.10270E+04-6.91910E+01-1.48832E-10 4.54747E-12
 -1       288-1.39839E+05-1.05613E+03 4.03070E+03 2.08785E+01-2.63373E-10 2.69438E-10
 -1       289-1.38665E+05 1.22222E+03 2.54298E+03-2.79166E+02 2.47818E-10 9.67503E-10
 -1       290-1.39404E+05-1.65460E+02 1.03991E+03 1.20093E+02 1.57488E-10-1.68291E-09
 -1       291-1.39178E+05 1.94746E+02 6.30927E+02-4.42732E+02 1.39708E-10 2.18471E-10
 -1       292-1.39327E+05-2.91733E+01 3.20742E+02 1.84447E+02 6.35838E-11 8.52786E-10
 -1       293-1.39257E+05 5.76293E+01 2.80228E+02-5.22705E+02 6.62794E-11-1.04963E-09
 -1       294-1.39324E+05-2.82709E+01 3.13694E+02 2.00068E+02 3.81334E-10-1.10234E-10
 -1       295-1.39188E+05 1.87499E+02 6.08176E+02-5.01875E+02 3.09166E-10 4.69413E-10
 -1       296-1.39396E+05-1.59001E+02 1.00204E+03 1.63616E+02 4.98053E-10 3.74882E-10
 -1       297-1.38696E+05 1.17528E+03 2.44481E+03-3.84810E+02 9.33875E-10-5.51069E-10
 -1       298-1.39816E+05-1.01554E+03 3.87697E+03 8.30010E+01 4.20521E-10-5.47288E-10
 -1       299-1.35767E+05 7.49790E+03 1.06041E+04-1.98314E+02-2.07756E-10 9.41441E-10
 -1       300-1.42324E+05-6.47667E+03 1.49762E+04-2.28848E+01 3.59030E-10 9.79526E-10
 -1       301 1.57547E+04 4.64112E+03 3.53729E+04-1.14672E+04-3.36513E-10 1.00482E-09
 -1       302 5.33519E+03 1.13246E+04 2.17357E+04-1.34961E+04-4.01997E-10-1.63967E-09
 -1       303 1.46608E+03 7.01497E+03 1.74870E+04-1.14658E+04-3.27645E-10-4.42753E-10
 -1       304 6.95160E+03 1.22987E+04 2.61207E+04-1.34841E+04-4.53838E-10 6.01631E-10
 -1       305 2.09773E+04 3.66978E+03 4.59929E+04-1.14755E+04-2.54659E-10 3.62775E-10
 -1       306-7.64699E+05-1.00587E+05-4.96458E+04-2.96468E+05-1.17780E-10-4.11092E-10
 -1       307-7.75406E+05-1.38199E+05-3.11152E+04-3.04149E+05 1.13687E-12 5.92991E-10
 -1       308-7.73267E+05-1.11238E+05-1.17132E+04-2.95261E+05-7.31802E-10-1.74714E-09
 -1       309-7.65518E+05-1.24097E+05-6.39690E+03-3.06439E+05 3.33216E-10 1.02045E-09
 -1       310-7.74289E+05-1.12285E+05-2.73305E+03-2.95101E+05 3.13094E-10 1.81376E-09
 -1       311-7.64346E+05-1.22746E+05-1.45769E+03-3.06733E+05 7.99275E-10 3.30965E-09
 -1       312-7.74437E+05-1.12367E+05-7.82306E+02-2.95062E+05 2.77794E-10 1.07396E-09
 -1       313-7.64212E+05-1.22643E+05-6.72754E+02-3.06779E+05 4.61201E-10 3.08034E-10
 -1       314-7.74429E+05-1.12369E+05-8.83475E+02-2.95066E+05 5.20231E-10 9.48148E-10
 -1       315-7.64393E+05-1.22765E+05-1.73587E+03-3.06712E+05-3.00361E-10-1.82808E-10
 -1       316-7.74245E+05-1.12269E+05-3.29894E+03-2.95114E+05 8.27640E-11 3.31511E-10
 -1       317-7.65814E+05-1.24411E+05-7.75045E+03-3.06363E+05 6.14023E-10-1.30944E-09
 -1       318-7.73013E+05-1.10991E+05-1.41985E+04-2.95300E+05 6.47333E-10 1.96906E-09
 -1       319-7.77784E+05-1.41539E+05-3.77288E+04-3.03623E+05-1.21176E-10 5.94810E-10
 -1       320-7.62642E+05-9.80518E+04-6.01915E+04-2.96740E+05-7.03949E-10 6.54836E-10
 -1       321-2.22520E+05-3.35407E+03 7.75846E+03-1.96622E+02-5.66079E-10-1.75532E-10
 -1       322-2.19129E+05 3.88391E+03 5.48936E+03 2.84924E+02-6.76163E-10-9.88337E-10
 -1       323-2.21224E+05-5.24813E+02 2.00688E+03-1.50681E+02-7.44258E-11-3.30715E-10
 -1       324-2.20635E+05 6.10052E+02 1.26183E+03 1.49658E+02-7.09228E-11-2.70006E-12
 -1       325-2.21012E+05-8.07077E+01 5.09450E+02-6.13531E+01-1.98012E-10 4.38234E-10
 -1       326-2.20883E+05 9.61910E+01 2.96622E+02-4.24062E+01 1.52348E-10 1.78903E-09
 -1       327-2.20976E+05-1.17312E+01 1.23492E+02 4.13873E+01 9.95861E-11 1.97488E-10
 -1       328-2.20931E+05 1.30390E+01 6.19538E+01-2.27455E+02 1.38861E-10 1.69425E-09
 -1       329-2.20967E+05-1.61113E-02 1.28589E+01 1.23699E+02-1.42523E-10 1.33679E-09
 -1       330-2.20950E+05-1.18253E+01-2.64911E+01-3.44576E+02-6.97371E-10-9.53875E-10
 -1       331-2.20959E+05 1.23863E+01-6.75591E+01 1.58510E+02-7.76068E-11 1.52426E-10
 -1       332-2.20988E+05-8.87435E+01-1.82137E+02-3.55211E+02-8.44480E-12-4.99242E-10
 -1       333-2.20926E+05 7.98849E+01-2.95296E+02 1.34334E+02-8.76446E-10-2.34280E-10
 -1       334-2.21206E+05-5.72731E+02-8.11059E+02-2.55803E+02-1.16969E-09-1.04090E-09
 -1       335-2.20736E+05 5.00375E+02-1.15032E+03 5.91022E+01-2.65349E-10-1.03057E-10
 -1       336 2.26114E+00-3.07810E+05-4.34915E+02-5.55134E+03-1.21850E-09 2.25305E-09
 -1       337-2.48821E+02-3.08006E+05-1.36056E+03-2.01814E+04-2.40505E-09 3.16743E-09
 -1       338 2.30358E+02-3.07627E+05-2.64543E+03-5.49345E+03-1.53909E-09 2.29090E-09
 -1       339-3.13594E+03-3.09777E+05-6.62286E+03-2.02390E+04-2.59479E-09 1.52494E-09
 -1       340 2.26680E+03-3.06063E+05-1.04517E+04-5.49414E+03-1.46838E-09 2.66667E-10
 -1       341-3.34430E+05-5.30220E+04-1.00283E+04-1.31839E+05 2.16016E-08 3.05738E-09
 -1       342-3.03952E+05-2.57334E+04 3.54394E+03-9.18672E+04 8.88005E-09 1.97147E-10
 -1       343-3.08362E+05-5.45359E+04-1.70411E+03-1.31395E+05-1.68764E-08-9.15190E-09
 -1       344-3.29755E+05-2.38600E+04 6.31609E+02-9.25622E+04 2.96766E-08 5.30210E-09
 -1       345-3.09038E+05-5.45795E+04-1.02897E+03-1.31476E+05 5.07357E-08 8.13714E-11
 -1       346-3.02205E+05-2.56285E+04 6.00902E+03-9.18529E+04-1.39016E-08-3.94860E-09
 -1       347-3.35480E+05-5.30996E+04-5.65456E+03-1.31756E+05-8.03766E-11-3.13412E-09
 -1       348-2.67218E+05-3.61421E+04 1.07033E+04-1.01209E+05 1.25374E-08-4.68646E-09
 -1       349-3.43599E+05-4.43958E+04-5.83113E+03-1.21798E+05-3.24076E-09-8.23945E-10
 -1       350-2.74335E+05-5.49694E+04 4.97598E+03-1.25117E+05 1.18583E-08-8.30455E-09
 -1       351-3.28794E+05-3.39404E+04-2.48326E+03-1.08190E+05-6.88283E-09-9.86728E-09
 -1       352-2.90452E+05-6.66762E+04-3.53292E+03-1.38684E+05-4.40391E-08-2.59197E-08
 -1       353-3.27916E+05-3.23541E+04-8.46653E+03-1.08552E+05 1.61532E-08 3.69710E-10
 -1       354-2.82300E+05-6.87457E+04-1.61091E+04-1.22263E+05-1.69489E-08-3.47427E-09
 -1       355-3.36510E+05-3.22202E+04-3.86483E+04-1.24283E+05-5.55838E-09-7.47605E-10
 -1       356-2.22833E+05 5.82544E+02-1.34054E+03 8.33464E+00-2.88041E-10-5.92763E-10
 -1       357-2.23394E+05-6.68103E+02-9.51006E+02-6.73333E+01-2.17171E-10 1.40831E-09
 -1       358-2.23058E+05 9.28913E+01-3.54301E+02 2.94758E+01-4.60543E-11 9.57812E-11
 -1       359-2.23136E+05-1.05357E+02-2.34900E+02-9.65499E+01 1.42700E-10-6.03052E-10
 -1       360-2.23095E+05 1.58091E+01-1.21964E+02 3.75490E+01 1.33326E-07-3.79927E-10
 -1       361-2.23100E+05-2.57692E+01-1.23655E+02-9.69623E+01 2.66529E-07-1.06313E-09
 -1       362-2.23097E+05 1.04368E+01-1.57943E+02 2.98868E+01 1.33583E-07 5.92728E-10
 -1       363-2.23123E+05-6.37485E+01-3.10710E+02-6.84553E+01 3.16537E-10 3.25397E-10
 -1       364-2.23071E+05 5.45945E+01-5.46683E+02 9.04083E+00 4.75466E-10 1.07758E-09
 -1       365-2.23298E+05-3.97403E+02-1.24882E+03-2.04810E+01 1.53885E-09 6.11365E-10
 -1       366-2.22919E+05 3.46271E+02-2.14792E+03-1.80894E+01 2.92637E-10 8.26276E-10
 -1       367-2.24350E+05-2.55415E+03-5.29521E+03 3.11949E+01 3.07642E-10 1.14147E-09
 -1       368-2.22020E+05 2.21011E+03-8.43275E+03-4.26361E+01 8.48333E-10-7.73070E-11
 -1       369-2.30701E+05-1.63138E+04-2.30600E+04 7.02196E+01 6.66552E-11-1.30876E-09
 -1       370-2.16571E+05 1.40930E+04-3.25906E+04-5.71124E+01 2.24500E-09 2.58296E-10
 -1       371-5.74710E+03-5.85984E+04 1.30386E+04 5.59082E+02 3.80169E-10 3.22061E-10
 -1       372 6.13406E+03-5.29874E+04 8.30063E+03-2.23368E+03 9.71340E-10 5.52905E-10
 -1       373-3.80127E+02-5.60735E+04 1.44281E+03 6.02253E+02 7.86258E-10-5.93739E-10
 -1       374-2.85792E+03-5.71488E+04-3.41717E+03-2.23789E+03 9.70431E-10 9.40686E-10
 -1       375 3.23783E+03-5.44377E+04-7.12085E+03 5.63285E+02 4.86125E-10 4.87432E-10
 -1       376-2.97835E+05-3.71954E+04-1.12888E+04-1.13256E+05 7.87168E-10-1.93177E-09
 -1       377-3.02473E+05-4.86243E+04-7.80283E+03-1.12500E+05-2.19982E-08 5.99994E-09
 -1       378-3.00387E+05-4.09090E+04-2.64806E+03-1.12097E+05-8.10816E-06 3.02989E-06
 -1       379-2.99558E+05-4.42717E+04-1.65697E+03-1.13773E+05-1.61706E-05 6.04368E-06
 -1       380-3.00753E+05-4.15477E+04-6.36799E+02-1.11984E+05-8.10757E-06 3.03109E-06
 -1       381-2.99392E+05-4.32030E+04-3.88409E+02-1.13505E+05-2.17489E-08 9.34043E-09
 -1       382-3.00552E+05-4.19783E+04-2.60515E+02-1.12364E+05-1.23994E-09-3.96302E-10
 -1       383-3.00067E+05-4.23395E+04-2.84152E+02-1.12582E+05-1.43515E-09-1.14877E-09
 -1       384-3.00076E+05-4.24114E+04-4.99972E+02-1.12906E+05 1.55372E-09 8.94943E-10
 -1       385-3.01160E+05-4.18898E+04-1.12182E+03-1.11615E+05 3.86811E-09 5.10127E-10
 -1       386-2.99461E+05-4.24275E+04-1.95929E+03-1.13332E+05-2.25987E-09-1.42711E-09
 -1       387-3.03006E+05-4.38723E+04-5.25625E+03-1.10785E+05 2.77095E-09 6.81155E-10
 -1       388-2.98233E+05-4.04300E+04-8.41895E+03-1.13737E+05 2.61230E-09-2.01590E-09
 -1       389-3.11192E+05-5.90872E+04-2.49179E+04-1.08259E+05-1.08969E-09 6.05041E-10
 -1       390-2.91278E+05-2.72235E+04-3.59346E+04-1.15855E+05-3.01043E-10 5.05679E-10
 -1       406 3.64053E+02 1.50468E+05 7.89627E+02-1.15086E+04-1.02546E-09 2.72212E-09
 -1       407 2.37962E+02 1.50612E+05 9.62808E+02-1.26132E+04-1.18848E-09 9.13133E-10
 -1       408 3.92009E+02 1.50444E+05 1.58939E+03-1.14554E+04-1.22611E-09 1.91549E-08
 -1       409 1.57602E+03 1.51060E+05 3.41331E+03-1.26941E+04-1.48952E-09 3.68905E-08
 -1       410 4.54666E+03 1.50012E+05 6.88398E+03-1.14261E+04-1.46838E-09 2.01073E-08
 -1       466 5.46602E+05-2.22003E+04 5.11284E+04 2.85576E+03 5.08521E-10 2.92130E-09
 -1       467 5.70070E+05 2.56746E+04 3.64034E+04-4.70684E+03 1.09924E-09-5.78439E-10
 -1       468 5.55687E+05-3.46169E+03 1.32713E+04 8.61149E+02 1.13388E-10 3.11047E-10
 -1       469 5.59500E+05 4.00469E+03 8.38782E+03-1.97806E+03 1.72520E-11-6.35737E-10
 -1       470 5.57167E+05-5.40770E+02 3.46688E+03 1.26994E+02 2.31246E-10-5.32964E-10
 -1       471 5.57786E+05 6.46112E+02 2.15460E+03-9.79469E+02 9.99655E-10-1.00488E-09
 -1       472 5.57401E+05-1.04562E+02 1.21320E+03-1.37459E+02 7.37806E-10 6.06747E-10
 -1       473 5.57579E+05 2.59569E+02 1.26443E+03-6.47552E+02 3.36384E-10-8.25423E-10
 -1       474 5.57373E+05-1.54340E+02 1.65394E+03-2.04928E+02 2.25485E-11-1.44541E-09
 -1       475 5.58003E+05 1.07263E+03 3.42874E+03-6.40528E+02 6.60480E-10-3.83864E-10
 -1       476 5.56976E+05-9.17078E+02 5.76263E+03-1.44483E+02 6.71664E-10-8.81755E-10
 -1       477 5.60795E+05 6.78913E+03 1.41046E+04-9.51770E+02 1.28960E-10-7.03494E-10
 -1       478 5.54578E+05-5.86657E+03 2.24283E+04 1.06322E+02-2.50449E-10-7.19410E-10
 -1       479 5.77732E+05 4.33394E+04 6.12980E+04-1.92138E+03 4.80558E-10-5.79348E-10
 -1       480 5.40034E+05-3.74360E+04 8.66178E+04 8.25104E+02 2.37589E-09 1.25146E-09
 -1       481-4.15489E+03 8.26759E+04 9.50441E+03-1.00138E+03 5.00222E-12-9.06937E-11
 -1       482 4.93653E+03 8.77407E+04 7.12584E+03 2.98283E+03-7.23048E-11 2.95681E-09
 -1       483-7.85803E+02 8.44854E+04 2.95709E+03-7.31800E+02-3.43334E-11 1.37824E-09
 -1       484 1.81746E+03 8.59285E+04 3.02330E+03 2.60778E+03 3.32356E-11-2.36435E-10
 -1       485-1.03195E+03 8.44790E+04 2.66598E+03-6.26309E+02 2.08047E-11 1.39584E-10
 -1       486-5.06596E+05-5.82684E+04-4.83293E+04-2.05755E+05 2.53749E-10 1.10595E-09
 -1       487-5.44443E+05-8.50949E+04-3.27556E+04-1.77169E+05 7.36009E-10 2.79761E-09
 -1       488-5.15782E+05-7.54341E+04-1.14764E+04-2.02660E+05-4.93401E-10-1.06866E-09
 -1       489-5.23786E+05-6.91164E+04-5.45540E+03-1.84718E+05 1.95683E-09-8.77776E-10
 -1       490-5.27145E+05-7.43230E+04-3.98748E+03-1.98124E+05 1.19684E-09-4.20641E-12
 -1       491-5.10206E+05-7.62520E+04 2.93606E+02-1.96914E+05 9.30171E-10 1.25851E-09
 -1       492-5.29331E+05-6.83212E+04-1.23362E+03-1.90443E+05-7.84894E-10 4.98883E-09
 -1       493-5.08956E+05-8.37302E+04-1.11587E+02-2.06656E+05 1.28462E-09 9.55729E-09
 -1       494-5.28519E+05-6.67349E+04-7.42169E+02-1.88483E+05-1.69825E-09 3.30706E-09
 -1       495-5.09095E+05-8.02516E+04-1.70214E+02-2.01831E+05-7.17250E-10 2.87062E-09
 -1       496-5.29120E+05-7.18642E+04-3.67884E+03-1.95209E+05-1.50436E-10 2.66903E-09
 -1       497-5.17956E+05-7.23008E+04-4.47255E+03-1.88588E+05 6.90136E-10 1.67233E-10
 -1       498-5.19595E+05-7.47448E+04-1.10928E+04-2.01673E+05 2.85627E-09-2.56750E-09
 -1       499-5.41944E+05-8.37378E+04-2.99269E+04-1.77979E+05 1.38141E-09-4.31828E-09
 -1       500-5.05264E+05-6.03296E+04-4.41558E+04-2.05919E+05-4.37103E-09 5.84805E-09
 -1       501-1.85147E+05-9.23125E+03 2.13442E+04-1.08863E+02 3.75451E-10 7.63976E-11
 -1       502-1.75792E+05 1.06870E+04 1.51130E+04-1.01160E+02-2.79485E-10-9.18590E-11
 -1       503-1.81577E+05-1.44767E+03 5.51895E+03 7.39320E+01-4.20513E-10 2.04864E-10
 -1       504-1.79965E+05 1.67459E+03 3.47530E+03-4.38245E+02 1.20215E-10 1.67455E-09
 -1       505-1.80976E+05-2.25999E+02 1.40536E+03 2.28231E+02 3.59499E-10 4.10182E-10
 -1       506-1.80676E+05 2.61263E+02 8.20999E+02-6.72870E+02 8.27090E-10-5.40339E-10
 -1       507-1.80867E+05-3.49516E+01 3.59397E+02 3.08561E+02 7.10044E-10 1.50956E-09
 -1       508-1.80800E+05 4.23137E+01 2.06635E+02-7.37337E+02 3.02912E-10-1.80797E-09
 -1       509-1.80852E+05-7.03423E+00 1.07697E+02 2.92699E+02 5.76744E-10-1.27479E-09
 -1       510-1.80799E+05 2.05267E+01 9.51923E+01-6.13734E+02 5.35639E-10-3.00489E-10
 -1       511-1.80867E+05-1.34599E+01 9.57347E+01 1.84956E+02 2.56584E-10-5.86880E-10
 -1       512-1.80743E+05 9.29785E+01 2.08190E+02-3.35685E+02 5.93374E-11-7.13744E-10
 -1       513-1.80908E+05-7.98702E+01 3.00990E+02 1.46447E+01-2.27253E-10-6.58204E-10
 -1       514-1.80509E+05 5.83990E+02 8.34281E+02 2.11150E+01-5.97005E-10 5.05125E-10
 -1       515-1.81100E+05-5.04223E+02 1.15795E+03-1.71850E+02-3.69688E-10 2.63242E-10
 -1       516-2.38593E+04 1.85593E+05 5.58316E+04-1.99980E+03-2.32831E-10 9.07221E-10
 -1       517 2.91164E+04 2.10687E+05 4.22401E+04 8.06737E+03-5.01586E-10-6.24972E-10
 -1       518-5.23474E+03 1.93978E+05 1.98665E+04-2.08973E+03-4.00178E-11 4.90104E-10
 -1       519 1.60169E+04 2.06484E+05 2.53593E+04 9.41301E+03-1.35901E-09-1.76901E-09
 -1       520-1.08013E+04 1.89840E+05 2.56744E+04-3.34557E+03-5.98448E-10-3.89429E-09
 -1       521-1.13376E+06-1.46444E+05-7.74661E+04-4.37491E+05-1.39153E-10-4.80213E-10
 -1       522-1.15623E+06-1.99463E+05-4.85633E+04-4.42940E+05 8.90168E-10-5.38876E-10
 -1       523-1.14709E+06-1.63124E+05-1.82698E+04-4.35645E+05 2.06683E-10-9.60426E-10
 -1       524-1.14082E+06-1.77396E+05-9.97624E+03-4.46438E+05 4.15412E-10 1.33241E-10
 -1       525-1.14867E+06-1.64777E+05-4.24954E+03-4.35406E+05 1.20224E-09 3.10797E-09
 -1       526-1.13900E+06-1.75268E+05-2.24706E+03-4.46865E+05-4.82885E-10-5.88443E-10
 -1       527-1.14889E+06-1.64918E+05-1.16389E+03-4.35353E+05 9.66338E-11-3.08475E-10
 -1       528-1.13879E+06-1.75090E+05-9.26913E+02-4.46917E+05-5.63659E-10-6.42046E-10
 -1       529-1.14888E+06-1.64931E+05-1.12994E+03-4.35365E+05-7.47832E-10-8.24457E-10
 -1       530-1.13903E+06-1.75214E+05-2.15280E+03-4.46811E+05-5.57293E-10-7.81824E-10
 -1       531-1.14864E+06-1.64822E+05-4.05814E+03-4.35442E+05-6.84622E-10-2.17756E-09
 -1       532-1.14081E+06-1.77195E+05-9.51696E+03-4.46343E+05-1.59730E-10 4.33829E-10
 -1       533-1.14711E+06-1.63274E+05-1.74266E+04-4.35698E+05 1.48475E-10 3.41061E-10
 -1       534-1.15556E+06-1.98181E+05-4.63160E+04-4.42934E+05-2.22826E-11 6.77574E-10
 -1       535-1.13436E+06-1.47401E+05-7.38834E+04-4.37496E+05-4.20187E-10 6.40284E-10
 -1       536 8.57330E+03-4.09874E+03 1.89009E+04-3.35295E+03 2.53749E-10 7.92170E-10
 -1       537 1.53395E+04 5.70859E+03 1.20259E+04-1.17980E+04-9.40645E-10 9.16771E-10
 -1       538 1.13938E+04-4.18966E+02 4.88829E+03-3.30912E+03-5.50244E-11 6.75072E-10
 -1       539 1.21788E+04 5.34660E+02 2.71136E+03-1.18437E+04 4.13138E-10 3.68743E-10
 -1       540 1.17010E+04-4.86333E+01 1.23000E+03-3.30634E+03-2.32831E-10-6.73481E-10
 -1       541 1.18107E+04 4.85251E+01 6.43708E+02-1.18455E+04-1.16870E-10-9.89189E-10
 -1       542 1.17381E+04-6.53669E+00 2.99944E+02-3.30738E+03-2.49213E-09 2.72962E-10
 -1       543 1.17533E+04 6.10039E+00 1.42807E+02-1.18439E+04-5.55133E-09 5.09317E-10
 -1       544 1.17435E+04 4.75306E-01 4.62188E+01-3.30795E+03-2.42028E-09-3.08091E-11
 -1       545 1.17369E+04-9.33372E-01-2.48599E+01-1.18432E+04-4.53916E-10 1.59284E-09
 -1       546 1.17484E+04 5.21198E+00-1.03069E+02-3.30806E+03-1.08514E-10 1.91136E-10
 -1       547 1.17025E+04-5.08680E+01-2.58762E+02-1.18419E+04-1.34122E-10 4.33914E-10
 -1       548 1.17806E+04 3.99591E+01-4.80569E+02-3.30926E+03-2.72280E-10 4.14957E-11
 -1       549 1.13996E+04-5.67154E+02-1.18866E+03-1.18169E+04-7.81597E-11-9.37462E-10
 -1       550 1.20629E+04 4.00147E+02-1.87441E+03-3.33302E+03-1.63027E-10 6.23004E-11
 -1       551 4.33734E+03-1.11441E+05 1.01619E+04-1.68584E+05 2.27374E-10-6.94854E-10
 -1       552 1.94174E+03-1.09600E+05 8.34316E+03-1.98024E+05-4.34738E-10 1.97861E-09
 -1       553 1.21861E+03-1.11156E+05 1.01412E+04-1.68301E+05-1.81899E-12-4.74574E-09
 -1       554 6.04083E+03-1.07177E+05 1.94134E+04-1.98070E+05-1.09139E-10-1.01873E-08
 -1       555 1.75530E+04-1.13950E+05 3.69726E+04-1.68525E+05 1.05501E-10-5.66433E-09
 -1       556-7.49029E+04-4.12644E+04 7.33236E+03-7.37760E+04-2.53749E-09 6.42467E-09
 -1       557-6.83039E+04-4.84271E+04 3.60925E+03-7.88560E+04-1.10158E-08-2.33865E-09
 -1       558-7.49666E+04-4.36792E+04 1.52209E+03-7.23264E+04-8.35826E-09-4.26871E-09
 -1       559-6.89261E+04-4.96315E+04 7.45391E+02-7.90599E+04-4.25644E-10-3.62888E-10
 -1       560-7.50018E+04-4.37224E+04 3.33391E+02-7.22836E+04-4.63842E-10 6.21640E-10
 -1       561-6.90199E+04-4.96691E+04 1.56641E+02-7.91278E+04-5.56611E-10 6.50346E-10
 -1       562-7.50347E+04-4.36936E+04 5.62538E+01-7.23066E+04 1.50976E-10 3.98586E-10
 -1       563-6.90596E+04-4.96524E+04-3.75719E+00-7.91569E+04 3.48791E-10 7.27596E-10
 -1       564-7.50526E+04-4.36755E+04-6.96065E+01-7.23217E+04 1.24146E-10-4.97721E-10
 -1       565-6.90857E+04-4.96434E+04-1.78405E+02-7.91716E+04-2.97860E-11 3.74712E-10
 -1       566-7.50480E+04-4.36655E+04-3.81019E+02-7.23254E+04-1.92699E-10 8.65384E-10
 -1       567-6.91577E+04-4.96799E+04-8.42566E+02-7.91667E+04 3.63798E-12 3.53339E-10
 -1       568-7.49891E+04-4.37869E+04-1.73039E+03-7.22657E+04 2.08274E-10-3.07409E-10
 -1       569-7.01203E+04-5.07107E+04-4.08163E+03-7.89042E+04-1.85992E-10-2.81489E-10
 -1       570-7.46203E+04-4.69027E+04-8.31101E+03-7.09575E+04 2.36469E-11 3.46745E-11
 -1       571 9.68362E+04 4.61279E+03 6.98531E+03-2.47529E+04 1.02546E-10-1.42450E-10
 -1       572 9.78979E+04 1.58474E+03 3.42789E+03-2.72379E+04 1.61435E-10-1.49294E-09
 -1       573 9.72702E+04 3.63074E+02 1.52434E+03-2.46875E+04-6.52562E-11-6.49379E-10
 -1       574 9.73976E+04 1.14176E+02 7.64709E+02-2.73110E+04-1.89857E-11 8.14907E-10
 -1       575 9.73209E+04 1.12283E+01 3.61439E+02-2.46790E+04 1.10049E-10 4.71346E-10
 -1       576 9.73331E+04 2.46820E-01 1.84612E+02-2.73206E+04 7.48912E-11 1.95996E-10
 -1       577 9.73284E+04-5.74214E+00 9.22703E+01-2.46779E+04 1.03455E-10-2.93312E-11
 -1       578 9.73254E+04-4.02726E+00 5.27068E+01-2.73217E+04-3.17186E-11-3.88127E-10
 -1       579 9.73325E+04-5.00638E+00 3.69149E+01-2.46779E+04-4.29736E-11 1.90994E-11
 -1       580 9.73303E+04-4.50623E+00 4.19353E+01-2.73201E+04 2.50111E-12-1.39380E-10
 -1       581 9.73378E+04-4.42767E+00 6.57301E+01-2.46794E+04-2.77851E-10-5.18412E-10
 -1       582 9.73491E+04 1.06899E+01 1.30726E+02-2.73050E+04-2.59433E-10 3.84716E-10
 -1       583 9.73382E+04 4.96637E+01 2.55797E+02-2.46930E+04 6.45741E-11-8.45034E-10
 -1       584 9.74439E+04 2.51307E+02 5.73492E+02-2.71907E+04-4.80213E-10-1.63323E-09
 -1       585 9.72759E+04 7.55462E+02 1.16661E+03-2.47941E+04 2.49656E-10 1.13869E-09
 -1       586 7.07990E+02 4.15024E+04 1.32660E+03-6.03037E+04 1.68029E-10-3.09910E-10
 -1       587 3.93820E+02 4.17363E+04 1.32883E+03-6.65296E+04 5.45697E-10-1.08662E-09
 -1       588 5.04079E+02 4.14890E+04 1.95739E+03-6.02261E+04 1.61435E-10-3.65389E-10
 -1       589 1.88590E+03 4.22343E+04 4.06053E+03-6.65525E+04 6.76209E-10 9.58266E-10
 -1       590 5.37153E+03 4.09924E+04 8.12047E+03-6.02800E+04 2.12367E-10 5.61613E-11
 -1       591-4.44566E+04-1.51781E+04-8.69244E+03-2.27666E+04 2.89771E-09 6.94536E-09
 -1       592-4.47722E+04-1.41344E+04-4.27050E+03-2.53037E+04-3.40435E-10 1.74396E-10
 -1       593-4.47243E+04-1.20172E+04-1.81226E+03-2.42195E+04-2.44029E-09-7.99992E-09
 -1       594-4.38404E+04-1.29699E+04-8.86886E+02-2.54531E+04 1.13687E-10-8.88541E-10
 -1       595-4.47662E+04-1.19038E+04-4.08465E+02-2.42834E+04 5.30349E-11-2.51418E-10
 -1       596-4.37705E+04-1.29246E+04-2.07217E+02-2.54466E+04 2.96097E-10 3.83409E-10
 -1       597-4.47742E+04-1.19100E+04-1.12885E+02-2.42838E+04 8.73321E-10 8.36621E-10
 -1       598-4.37636E+04-1.29252E+04-9.04514E+01-2.54436E+04-1.04843E-09-7.04836E-09
 -1       599-4.47737E+04-1.19101E+04-1.14933E+02-2.42836E+04 8.33495E-10 1.67427E-09
 -1       600-4.37705E+04-1.29249E+04-2.12728E+02-2.54462E+04-1.83661E-10 3.84034E-10
 -1       601-4.47645E+04-1.19039E+04-4.19918E+02-2.42828E+04-9.41782E-10 2.16573E-10
 -1       602-4.38427E+04-1.29710E+04-9.12506E+02-2.54514E+04-3.60376E-09-6.57758E-09
 -1       603-4.47203E+04-1.20220E+04-1.86460E+03-2.42177E+04 2.15209E-09 7.85485E-09
 -1       604-4.48101E+04-1.41597E+04-4.39378E+03-2.52863E+04-4.96584E-10 5.25688E-10
 -1       605-4.44348E+04-1.52818E+04-8.94296E+03-2.27320E+04-3.94266E-10 1.06843E-09
 -1       606 3.24407E+04-3.85250E+03-5.82961E+03 9.54308E+03-1.85264E-09-6.81212E-10
 -1       607 3.15418E+04-1.32337E+03-2.86025E+03 1.04031E+04-3.75621E-10-5.06873E-10
 -1       608 3.20705E+04-3.02822E+02-1.27181E+03 9.47997E+03 1.17325E-09 4.30020E-10
 -1       609 3.19510E+04-9.23318E+01-6.37231E+02 1.04736E+04-9.84983E-10-3.14003E-10
 -1       610 3.20224E+04-5.94323E+00-3.00281E+02 9.47178E+03-2.30148E-09-1.28375E-09
 -1       611 3.20001E+04 5.15410E+00-1.51193E+02 1.04827E+04-3.63616E-09-4.04157E-10
 -1       612 3.20133E+04 9.47728E+00-7.17063E+01 9.47080E+03-1.11686E-09-1.96678E-10
 -1       613 3.20058E+04 8.95046E+00-3.31018E+01 1.04839E+04-2.16096E-09 1.86901E-10
 -1       614 3.20101E+04 7.81578E+00-9.72450E+00 9.47053E+03-3.93584E-10-4.79417E-10
 -1       615 3.20064E+04 8.77771E+00 8.62833E+00 1.04841E+04 1.66528E-09-3.60842E-10
 -1       616 3.20077E+04 9.08541E+00 3.08892E+01 9.47061E+03-1.36765E-09-2.35218E-10
 -1       617 3.20116E+04 2.02231E+01 7.29670E+01 1.04838E+04-6.74561E-10-2.41812E-10
 -1       618 3.20013E+04 4.41302E+01 1.49056E+02 9.47080E+03-4.95675E-10-5.91740E-10
 -1       619 3.20596E+04 1.65654E+02 3.37256E+02 1.04824E+04 9.93055E-11-4.29736E-11
 -1       620 3.19575E+04 4.63389E+02 6.88222E+02 9.47180E+03 3.38787E-10-4.84306E-10
 -1       621 6.50463E+02 9.96272E+04 1.66521E+03-9.13429E+03-7.18785E-10-7.75628E-10
 -1       622 2.50936E+02 9.99445E+04 1.42987E+03-1.07766E+04-7.39988E-10-2.36923E-10
 -1       623 1.54396E+02 9.96907E+04 1.82056E+03-9.14302E+03-6.83485E-10 1.16120E-09
 -1       624 1.03273E+03 1.00418E+05 3.55254E+03-1.07314E+04-6.79393E-10 1.58707E-10
 -1       625 3.17668E+03 9.91586E+04 6.80470E+03-9.17921E+03-5.27052E-10-7.15772E-10
 -1       626 4.66709E+04 1.54074E+04-2.33130E+03 3.15520E+04-4.06544E-10-1.35469E-09
 -1       627 4.54587E+04 1.71971E+04-1.10497E+03 3.21988E+04-2.22190E-09-8.64972E-09
 -1       628 4.67333E+04 1.65583E+04-4.63862E+02 3.09835E+04 6.95763E-10 4.02906E-10
 -1       629 4.56276E+04 1.76817E+04-2.22458E+02 3.21649E+04 4.95675E-11 5.16614E-10
 -1       630 4.67318E+04 1.66380E+04-9.77260E+01 3.09373E+04 6.02495E-09 1.02119E-08
 -1       631 4.56408E+04 1.77176E+04-4.32355E+01 3.21667E+04 3.73745E-09 9.95880E-09
 -1       632 4.67283E+04 1.66402E+04-1.07477E+01 3.09338E+04-2.11003E-09-7.25322E-11
 -1       633 4.56423E+04 1.77190E+04 1.40559E+01 3.21680E+04 1.21941E-09-1.11413E-10
 -1       634 4.67253E+04 1.66374E+04 4.61844E+01 3.09335E+04-1.87583E-11-1.60071E-10
 -1       635 4.56482E+04 1.77202E+04 1.08759E+02 3.21694E+04 8.65725E-10 1.73475E-09
 -1       636 4.67205E+04 1.66430E+04 2.27562E+02 3.09297E+04-8.13657E-10 6.96332E-10
 -1       637 4.57028E+04 1.77842E+04 5.09549E+02 3.21590E+04 8.94715E-11 6.38920E-10
 -1       638 4.67083E+04 1.68356E+04 1.05710E+03 3.08459E+04 3.49604E-09 6.55359E-09
 -1       639 4.62394E+04 1.87390E+04 2.51686E+03 3.19218E+04-1.07025E-09 2.75122E-11
 -1       640 4.67366E+04 1.95868E+04 5.31095E+03 2.97050E+04-9.92827E-10 1.07434E-09
 -1       641 2.75520E+02 9.84642E+02-2.27772E+03-2.48172E+01-1.88429E-09 5.14888E-10
 -1       642-7.10455E+02-1.13979E+03-1.61014E+03 1.00913E+02-1.73649E-09 5.85288E-10
 -1       643-1.04800E+02 1.54283E+02-5.87247E+02-2.46964E+01-2.46018E-09 1.31448E-09
 -1       644-2.67439E+02-1.78092E+02-3.65104E+02 1.00794E+02 4.60296E-10 1.03498E-09
 -1       645-1.67535E+02 2.37321E+01-1.40800E+02-2.46986E+01-8.92233E-11 1.37086E-09
 -1       646-1.92991E+02-2.51479E+01-6.71615E+01 1.00798E+02-8.26204E-09 1.01915E-09
 -1       647-1.79264E+02 1.46159E+00-4.86819E-01-2.47007E+01-1.92631E-06 2.56105E-09
 -1       648-1.72164E+02 1.27604E+01 6.13518E+01 1.00797E+02-3.84219E-06 3.95195E-09
 -1       649-1.88367E+02-1.41514E+01 1.39563E+02-2.46974E+01-1.92640E-06 1.41856E-09
 -1       650-1.20776E+02 1.09095E+02 3.38138E+02 1.00755E+02-3.27501E-09-1.00727E-09
 -1       651-2.30647E+02-9.48162E+01 5.88652E+02-2.46594E+01-3.91305E-11 2.77680E-10
 -1       652 1.69538E+02 7.03336E+02 1.45647E+03 1.00579E+02 2.82287E-10 9.23421E-10
 -1       653-4.78663E+02-6.07958E+02 2.32054E+03-2.45207E+01 1.09456E-10-1.65528E-10
 -1       654 1.91808E+03 4.48988E+03 6.34694E+03 9.98295E+01-2.95457E-09 5.90717E-10
 -1       655-1.97907E+03-3.87833E+03 8.97075E+03-2.39116E+01 1.96631E-09 4.41105E-11
 -1       656 2.90115E+03-1.17431E+05-1.39324E+04 3.77225E+03 1.00044E-11-1.30399E-10
 -1       657-4.39511E+03-1.22442E+05-1.00875E+04 1.33088E+04-5.92706E-10 2.12685E-09
 -1       658 5.43698E+02-1.19228E+05-6.45965E+03 3.75023E+03-1.55609E-12 1.31990E-10
 -1       659-4.02248E+03-1.22220E+05-9.41188E+03 1.33211E+04-1.55273E-09-6.88917E-10
 -1       660 2.61371E+03-1.17658E+05-1.26448E+04 3.76007E+03 1.23237E-10 8.27413E-10
 -1       661 1.14108E+05 1.47076E+04 9.31400E+03 4.45694E+04 1.71781E-10-9.07221E-10
 -1       662 1.16227E+05 2.16690E+04 5.83927E+03 4.59024E+04 2.13535E-09-1.05467E-09
 -1       663 1.15693E+05 1.67309E+04 2.19838E+03 4.43693E+04-6.94683E-10-1.31161E-09
 -1       664 1.14403E+05 1.89876E+04 1.20236E+03 4.62828E+04-9.53150E-10-9.71113E-10
 -1       665 1.15868E+05 1.69439E+04 5.15209E+02 4.43555E+04 1.07710E-09 1.94822E-09
 -1       666 1.14201E+05 1.87137E+04 2.78776E+02 4.63101E+04-1.41301E-09 5.58462E-10
 -1       667 1.15888E+05 1.69672E+04 1.56702E+02 4.43558E+04-5.51427E-09 8.61485E-10
 -1       668 1.14182E+05 1.86897E+04 1.47588E+02 4.63107E+04-2.31441E-09-1.43629E-10
 -1       669 1.15887E+05 1.69656E+04 2.08259E+02 4.43557E+04 1.81986E-09 3.86308E-10
 -1       670 1.14218E+05 1.87316E+04 4.21005E+02 4.63099E+04 3.73575E-09 8.17295E-10
 -1       671 1.15854E+05 1.69287E+04 8.04446E+02 4.43555E+04-8.21615E-10 3.03260E-10
 -1       672 1.14539E+05 1.91639E+04 1.89390E+03 4.62662E+04-1.07286E-09-8.91703E-10
 -1       673 1.15575E+05 1.65928E+04 3.46827E+03 4.43774E+04 6.55524E-10-1.44382E-09
 -1       674 1.17416E+05 2.33989E+04 9.21732E+03 4.56675E+04 1.42279E-10 5.98902E-10
 -1       675 1.13076E+05 1.33967E+04 1.47028E+04 4.46907E+04-1.76897E-10-3.19233E-10
 -1       676 2.08151E+02-1.11289E+05-1.23710E+03 1.34719E+01-1.65747E-09 9.49214E-10
 -1       677-4.69129E+02-1.11759E+05-1.50162E+03-7.18899E+01-2.72069E-09-1.00717E-10
 -1       678 1.67800E+02-1.11308E+05-1.98523E+03 1.34006E+01-1.09787E-09 1.01504E-09
 -1       679-2.11262E+03-1.12756E+05-4.49117E+03-7.17547E+01-4.42697E-09 4.88583E-10
 -1       680 1.48886E+03-1.10293E+05-6.93057E+03 1.31869E+01-1.70758E-09 1.76881E-10
 -1       681 2.42785E+05-7.11697E+03 1.64336E+04 3.90240E+02 2.05176E-10 2.97405E-10
 -1       682 2.50057E+05 8.23797E+03 1.16572E+04-1.63410E+03 3.99922E-10-4.11092E-10
 -1       683 2.45592E+05-1.11410E+03 4.26055E+03 7.04049E+01 2.52044E-10 5.97083E-10
 -1       684 2.46784E+05 1.29055E+03 2.68998E+03-1.18793E+03 1.43792E-10-9.80208E-10
 -1       685 2.46058E+05-1.74090E+02 1.11278E+03-5.59321E+01-2.80742E-10 9.07846E-10
 -1       686 2.46246E+05 2.08408E+02 6.90830E+02-1.07377E+03-4.54539E-10-5.74119E-11
 -1       687 2.46130E+05-3.25647E+01 3.88976E+02-4.37577E+01-2.05462E-11 7.29024E-10
 -1       688 2.46200E+05 8.00012E+01 4.08022E+02-1.24169E+03 6.36438E-10 2.49704E-10
 -1       689 2.46104E+05-4.60857E+01 5.27015E+02 1.11989E+02-4.50715E-10 5.11761E-10
 -1       690 2.46419E+05 3.31295E+02 1.11570E+03-1.76129E+03 7.39359E-10 1.44382E-10
 -1       691 2.45913E+05-2.85098E+02 1.83234E+03 4.75850E+02 5.46422E-10-9.16316E-11
 -1       692 2.47625E+05 2.15304E+03 4.59603E+03-2.84920E+03-2.66596E-10 9.36325E-10
 -1       693 2.44906E+05-1.87150E+03 7.12975E+03 1.19993E+03-8.61490E-10-1.52204E-09
 -1       694 2.54209E+05 1.39778E+04 1.99760E+04-4.99051E+03-3.56127E-09 1.61640E-09
 -1       695 2.39354E+05-1.21178E+04 2.75193E+04 2.61726E+03-2.31887E-09-3.35604E-09
 -1       696-4.45086E+03 1.75298E+05 1.01560E+04 3.38447E+02 5.00222E-11-3.70171E-10
 -1       697 4.88406E+03 1.79689E+05 6.70833E+03-1.55548E+03 4.77485E-11-5.61723E-10
 -1       698-4.28664E+02 1.77184E+05 1.61896E+03 1.90169E+02-7.98082E-11 1.73454E-10
 -1       699-1.21178E+03 1.76840E+05-1.23821E+03-1.41588E+03-1.05956E-10 1.08340E-09
 -1       700 1.64065E+03 1.78148E+05-3.49796E+03 1.98843E+02-6.75300E-11 2.01895E-10
 -1       701-2.23100E+05-2.09018E+04-2.69811E+04-8.84414E+04-3.26054E-10 1.12777E-10
 -1       702-2.37667E+05-4.53268E+04-1.87269E+04-8.33066E+04 2.95699E-10-1.02432E-09
 -1       703-2.28460E+05-3.07357E+04-6.32579E+03-8.67535E+04 3.53452E-10 5.49335E-10
 -1       704-2.31450E+05-3.39290E+04-3.95542E+03-8.52374E+04 4.33786E-10 8.04675E-10
 -1       705-2.29315E+05-3.22921E+04-1.47998E+03-8.65130E+04 1.12834E-10 1.00408E-09
 -1       706-2.30360E+05-3.22156E+04-8.81406E+02-8.56059E+04-4.36078E-10 1.88464E-10
 -1       707-2.29550E+05-3.24481E+04-4.09011E+02-8.63851E+04 4.09761E-10 4.11703E-10
 -1       708-2.29953E+05-3.22122E+04-3.43673E+02-8.59112E+04 1.28951E-10 5.33183E-10
 -1       709-2.29721E+05-3.22957E+04-3.87479E+02-8.62073E+04 2.14939E-10 7.76907E-11
 -1       710-2.29752E+05-3.27427E+04-8.00297E+02-8.62444E+04-3.71159E-10-1.06454E-10
 -1       711-2.29751E+05-3.19178E+04-1.34961E+03-8.60518E+04-2.37208E-10 3.68459E-10
 -1       712-2.30444E+05-3.46099E+04-3.58725E+03-8.62716E+04 1.84173E-10 1.17296E-09
 -1       713-2.29030E+05-3.04292E+04-5.73983E+03-8.61802E+04 4.77485E-11-5.52518E-11
 -1       714-2.36167E+05-4.49066E+04-1.69958E+04-8.44725E+04-3.03658E-10 1.33468E-10
 -1       715-2.24030E+05-2.16276E+04-2.44781E+04-8.78492E+04-1.26784E-09-1.32786E-10
 -1       716-3.51563E+04-1.37454E+03 2.87622E+03 1.74105E+02 4.58695E-09-2.45586E-09
 -1       717-3.18707E+04 1.57571E+03 2.39887E+03-1.52771E+03 2.46606E-09-5.83270E-10
 -1       718-3.44159E+04-2.17729E+02 6.94447E+02 3.47934E+02 1.10751E-09-9.38144E-10
 -1       719-3.29242E+04 2.42876E+02 6.62789E+02-1.84179E+03 3.58114E-12-4.26326E-12
 -1       720-3.41141E+04-3.46979E+01 1.85102E+02 4.88099E+02 3.85640E-10 5.58202E-10
 -1       721-3.34179E+04 4.44709E+01 2.71346E+02-2.07849E+03 1.72120E-09-5.33936E-10
 -1       722-3.39323E+04-1.21795E+01 1.89270E+02 5.84612E+02 1.13523E-09 1.65471E-09
 -1       723-3.36715E+04 7.42021E+01 3.94474E+02-2.22294E+03 1.14492E-09-1.00295E-09
 -1       724-3.38674E+04-5.94373E+01 6.43150E+02 6.32561E+02 2.60928E-09 1.80094E-09
 -1       725-3.35559E+04 4.63002E+02 1.46170E+03-2.26763E+03 2.58441E-09-3.70761E-10
 -1       726-3.40501E+04-3.99096E+02 2.50453E+03 6.29303E+02 2.15535E-09 9.26093E-10
 -1       727-3.22161E+04 2.98099E+03 6.19985E+03-2.21096E+03 3.20292E-09-4.89194E-10
 -1       728-3.52041E+04-2.57760E+03 9.80933E+03 5.75886E+02 9.13545E-10 8.13998E-10
 -1       729-2.45110E+04 1.90476E+04 2.69732E+04-2.07219E+03 3.22586E-10 1.16415E-10
 -1       730-4.17452E+04-1.64576E+04 3.79388E+04 4.90521E+02 1.03641E-09-4.31100E-10
 -1       731-6.43928E+03 8.70917E+04 1.39215E+04-2.89402E+03-2.27465E-09-1.01210E-09
 -1       732 7.70177E+03 9.89173E+04 1.14589E+04 9.85356E+03 6.09361E-10 9.11768E-11
 -1       733-1.29227E+03 9.14799E+04 4.95217E+03-2.19771E+03-2.46928E-10-5.67709E-10
 -1       734 3.79688E+03 9.46911E+04 6.12542E+03 9.04457E+03-9.67049E-11-1.60663E-09
 -1       735-2.49598E+03 9.12579E+04 6.18917E+03-2.08489E+03 5.36375E-10-6.86363E-10
 -1       736-2.67562E+05-3.81857E+04-2.32878E+04-1.10953E+05 1.12354E-08-7.87986E-09
 -1       737-2.61599E+05-2.71623E+04-8.87799E+03-7.29332E+04 3.28914E-08 8.38838E-09
 -1       738-2.51220E+05-4.42725E+04-4.70014E+03-1.08660E+05 6.56019E-09 2.98969E-08
 -1       739-2.73711E+05-1.99134E+04-1.81918E+03-7.51350E+04-2.10065E-08-3.50991E-09
 -1       740-2.55704E+05-4.52406E+04-1.98864E+03-1.08958E+05 6.01730E-09-1.86733E-08
 -1       741-2.47125E+05-2.03345E+04 5.05211E+03-7.41013E+04-4.35273E-09-1.76017E-08
 -1       742-2.77396E+05-4.41542E+04-5.09708E+03-1.09368E+05-2.46155E-09 1.78659E-10
 -1       743-2.16827E+05-2.81692E+04 9.74781E+03-8.06632E+04-9.54884E-09 6.34995E-09
 -1       744-2.85619E+05-3.76928E+04-5.40011E+03-1.02112E+05 1.10394E-08-7.59206E-09
 -1       745-2.20237E+05-4.30438E+04 5.94836E+03-9.97080E+04 1.36520E-08 2.80986E-09
 -1       746-2.74289E+05-2.90554E+04-2.26202E+03-9.05642E+04 1.20814E-08 3.44026E-08
 -1       747-2.37555E+05-5.44932E+04-1.11989E+03-1.14965E+05 4.18251E-09 6.83639E-09
 -1       748-2.68776E+05-2.58873E+04-3.72239E+03-8.72019E+04 2.10696E-08 8.71501E-09
 -1       749-2.34015E+05-5.61012E+04-7.39163E+03-1.08607E+05-1.01994E-08 1.06766E-08
 -1       750-2.77651E+05-2.75860E+04-1.95570E+04-9.67920E+04-8.68022E-09-1.07066E-08
 -1       751 9.72542E+05-5.58383E+04 1.29274E+05 1.28689E+03-1.07316E-08 3.05590E-10
 -1       752 1.02864E+06 6.46484E+04 9.14504E+04-1.66574E+03-1.01775E-09-5.83896E-10
 -1       753 9.94195E+05-8.75246E+03 3.34794E+04 3.09407E+02 1.61602E-10 3.81988E-10
 -1       754 1.00344E+06 1.01294E+04 2.10562E+04-4.41972E+02 2.06409E-10 3.39924E-10
 -1       755 9.97766E+05-1.36932E+03 8.61792E+03 6.31873E+01-6.48403E-10-1.01409E-10
 -1       756 9.99287E+05 1.60486E+03 5.15148E+03-1.32825E+02-1.17693E-09-1.72520E-10
 -1       757 9.98356E+05-2.34565E+02 2.53116E+03 2.56739E-01 2.91803E-07 1.02432E-09
 -1       758 9.98668E+05 4.16638E+02 2.02397E+03-5.63670E+01 5.83165E-07 2.05091E-10
 -1       759 9.98387E+05-1.81896E+02 2.05743E+03-1.32718E+01 1.52525E-07 9.18533E-10
 -1       760 9.99043E+05 1.15193E+03 3.78118E+03-5.01160E+01-2.78507E-07 3.27589E-10
 -1       761 9.97980E+05-9.69348E+02 6.15143E+03-5.99430E+00-1.40163E-07-5.29781E-10
 -1       762 1.00196E+06 7.15493E+03 1.48998E+04-1.00958E+02 1.32260E-09 1.56388E-09
 -1       763 9.95462E+05-6.18020E+03 2.36510E+04 3.75713E+01 3.38599E-09 1.05865E-09
 -1       764 1.01971E+06 4.56378E+04 6.45603E+04-3.19829E+02 1.12559E-09 8.01265E-10
 -1       765 9.80204E+05-3.94183E+04 9.12574E+04 2.12869E+02-4.93076E-10-4.98403E-10
 -1       766-2.19224E+04 9.28865E+04 5.08735E+04 4.49342E+03 2.84490E-09-1.33124E-09
 -1       767 2.64654E+04 1.17862E+05 3.85261E+04-1.95089E+04 9.85938E-09-1.09904E-09
 -1       768-4.47010E+03 1.00988E+05 1.74099E+04 4.44541E+03 3.91674E-09 1.35657E-09
 -1       769 1.37863E+04 1.19454E+05 2.27535E+04-2.08118E+04 8.97160E-10-7.47647E-10
 -1       770-9.38166E+03 9.14770E+04 1.92759E+04 5.79659E+03-3.17323E-09-7.52721E-10
 -1       771-5.43497E+05-1.09565E+05-1.79879E+04-2.35832E+05-1.83218E-09 2.98314E-10
 -1       772-5.41842E+05-1.09636E+05-8.83096E+03-2.43638E+05 2.14641E-10 7.57655E-09
 -1       773-5.44224E+05-1.02876E+05-3.75340E+03-2.38705E+05-5.86806E-09-4.28554E-09
 -1       774-5.39811E+05-1.07369E+05-1.83388E+03-2.44160E+05-9.96806E-10 5.52518E-11
 -1       775-5.44362E+05-1.02602E+05-8.47146E+02-2.38842E+05-9.37325E-09 2.90652E-09
 -1       776-5.39686E+05-1.07280E+05-4.28203E+02-2.44198E+05-2.07315E-08 2.98087E-10
 -1       777-5.44412E+05-1.02595E+05-2.33836E+02-2.38858E+05-5.98720E-09 8.41851E-09
 -1       778-5.39693E+05-1.07273E+05-1.83773E+02-2.44218E+05 1.21418E-10 1.08540E-09
 -1       779-5.44434E+05-1.02582E+05-2.32933E+02-2.38868E+05-1.40062E-09 8.46967E-10
 -1       780-5.39722E+05-1.07268E+05-4.27893E+02-2.44239E+05-1.04183E-09 2.93994E-10
 -1       781-5.44428E+05-1.02562E+05-8.45294E+02-2.38872E+05-8.57426E-10 1.74623E-10
 -1       782-5.39875E+05-1.07360E+05-1.83677E+03-2.44256E+05-1.23578E-10-7.09406E-11
 -1       783-5.44340E+05-1.02798E+05-3.75451E+03-2.38742E+05-6.84111E-11 1.17780E-10
 -1       784-5.41824E+05-1.09754E+05-8.85045E+03-2.43920E+05-4.99540E-10-6.13909E-10
 -1       785-5.43759E+05-1.09370E+05-1.80158E+04-2.35749E+05 6.38920E-11 5.22959E-10
 -1       786 8.39255E+04-2.37276E+03 1.09971E+04-7.76603E+02 2.09127E-10-6.22549E-10
 -1       787 8.78327E+04 3.32922E+03 6.99410E+03-2.76440E+03-2.45109E-10-3.39696E-10
 -1       788 8.55689E+04-2.37455E+02 2.84699E+03-7.70670E+02 1.49157E-10 3.36968E-10
 -1       789 8.60075E+04 3.15961E+02 1.57945E+03-2.76958E+03 9.46159E-10 8.91987E-10
 -1       790 8.57498E+04-2.53232E+01 7.22480E+02-7.71328E+02 2.76501E-09 7.81768E-10
 -1       791 8.58031E+04 2.95785E+01 3.86051E+02-2.76854E+03 3.45279E-09 5.48283E-10
 -1       792 8.57727E+04-3.24215E+00 1.98368E+02-7.71711E+02 2.56813E-09 3.35120E-10
 -1       793 8.57780E+04 3.70702E+00 1.31288E+02-2.76831E+03 8.86047E-10-1.08457E-09
 -1       794 8.57749E+04-1.78558E+00 1.21188E+02-7.71561E+02 2.17611E-10 1.26867E-10
 -1       795 8.57853E+04 1.26541E+01 1.83412E+02-2.76926E+03 2.10719E-10 2.63406E-10
 -1       796 8.57657E+04-1.10089E+01 3.17512E+02-7.70753E+02-1.20480E-10-6.21718E-10
 -1       797 8.58723E+04 1.34600E+02 6.79005E+02-2.77075E+03-2.04665E-10 1.32445E-10
 -1       798 8.56887E+04-1.01683E+02 1.21774E+03-7.70076E+02-6.38920E-11-1.06422E-09
 -1       799 8.66521E+04 1.42101E+03 2.98747E+03-2.76482E+03-4.68447E-10-1.50891E-09
 -1       800 8.49871E+04-1.01366E+03 4.69573E+03-7.76729E+02 1.05160E-10-7.18501E-10
 -1       801-2.82987E+03 8.67770E+04 1.33753E+04-9.30815E+04-3.76167E-09 4.83851E-10
 -1       802 6.17753E+03 9.12450E+04 1.40784E+04-3.31189E+05-1.59343E-09-9.33142E-10
 -1       803-8.76855E+02 8.71333E+04 1.58265E+04-9.27737E+04-5.07953E-09 2.12702E-09
 -1       804 1.69852E+04 9.78416E+04 3.37639E+04-3.31177E+05-2.70666E-09-2.00862E-09
 -1       805-1.12803E+04 8.02317E+04 5.08650E+04-9.30951E+04-1.98270E-09 1.64619E-09
 -1       806-8.50548E+04-2.33252E+04-7.13522E+03-4.01113E+04-1.30854E-10 6.73026E-10
 -1       807-8.50143E+04-2.15560E+04-3.38138E+03-4.23707E+04-3.10706E-10-3.59250E-11
 -1       808-8.50089E+04-1.96384E+04-1.42106E+03-4.16576E+04-2.08956E-10-5.74119E-12
 -1       809-8.43084E+04-2.02598E+04-6.86241E+02-4.26770E+04-1.62345E-10 5.24409E-10
 -1       810-8.50252E+04-1.93797E+04-3.09831E+02-4.17726E+04 1.81217E-10-6.57053E-10
 -1       811-8.42380E+04-2.01718E+04-1.54953E+02-4.26903E+04-6.65636E-11-4.82032E-10
 -1       812-8.50308E+04-1.93713E+04-8.04067E+01-4.17781E+04-1.72918E-10 2.36582E-10
 -1       813-8.42304E+04-2.01692E+04-5.82682E+01-4.26887E+04 4.80000E-10-1.18484E-09
 -1       814-8.50308E+04-1.93722E+04-6.62718E+01-4.17778E+04 5.75255E-11-4.25871E-10
 -1       815-8.42353E+04-2.01719E+04-1.17424E+02-4.26887E+04-1.35287E-10 3.16618E-11
 -1       816-8.50256E+04-1.93793E+04-2.29102E+02-4.17733E+04-3.57204E-10-6.42785E-10
 -1       817-8.42881E+04-2.02350E+04-5.04885E+02-4.26760E+04 5.05224E-10 4.00632E-10
 -1       818-8.50115E+04-1.95719E+04-1.04410E+03-4.16904E+04 1.70530E-11 2.26009E-10
 -1       819-8.48218E+04-2.11709E+04-2.48355E+03-4.24317E+04-4.36103E-10 6.43013E-10
 -1       820-8.50286E+04-2.22933E+04-5.23996E+03-4.05705E+04-1.83491E-10 4.67480E-10
 -1       821-9.02640E+04 2.51601E+03-1.16650E+04 8.56035E+02-9.90553E-10 1.75987E-10
 -1       822-9.44063E+04-3.53137E+03-7.41903E+03 3.05866E+03-9.18703E-10-1.87242E-10
 -1       823-9.20075E+04 2.51485E+02-3.02102E+03 8.40624E+02 1.10765E-09-1.65528E-10
 -1       824-9.24726E+04-3.33971E+02-1.67738E+03 3.07700E+03-5.69116E-10 7.83501E-10
 -1       825-9.21998E+04 2.70292E+01-7.70899E+02 8.37591E+02-1.87646E-09-6.12715E-10
 -1       826-9.22577E+04-2.95730E+01-4.18623E+02 3.08165E+03-3.13230E-09-6.71065E-10
 -1       827-9.22240E+04 4.10074E+00-2.28626E+02 8.35945E+02-1.73372E-09 1.05786E-10
 -1       828-9.22337E+04-2.78432E+00-1.76764E+02 3.08432E+03-2.36048E-09-8.95518E-10
 -1       829-9.22249E+04 3.73552E+00-2.01759E+02 8.34921E+02-6.15046E-10-9.60577E-10
 -1       830-9.22525E+04-2.32785E+01-3.48235E+02 3.08545E+03 1.59521E-09-6.34435E-10
 -1       831-9.22056E+04 2.24764E+01-6.30034E+02 8.34813E+02-1.30292E-10-9.10831E-10
 -1       832-9.24275E+04-2.70117E+02-1.36452E+03 3.08463E+03-1.17632E-09-1.68626E-10
 -1       833-9.20497E+04 2.04996E+02-2.45461E+03 8.35763E+02-4.81307E-09 6.93490E-11
 -1       834-9.39989E+04-2.86698E+03-6.02670E+03 3.07606E+03-3.06801E-09-1.92040E-09
 -1       835-9.06337E+04 2.04459E+03-9.47492E+03 8.43569E+02-3.64992E-10-1.11231E-09
 -1       836-3.84642E+03 2.23151E+05 1.88374E+04-6.34330E+03-4.16549E-10-4.53156E-10
 -1       837 6.07093E+03 2.29976E+05 1.46180E+04-2.24393E+04 1.11299E-10 1.57638E-09
 -1       838-9.26097E+02 2.25349E+05 1.10125E+04-6.32618E+03-5.86851E-10 8.79574E-10
 -1       839 8.27147E+03 2.31310E+05 1.86212E+04-2.24393E+04 2.61934E-10-1.29691E-09
 -1       840-5.56013E+03 2.21816E+05 2.64631E+04-6.34325E+03-6.08452E-10-2.57842E-10
 -1       841-9.75890E+02 1.05500E+03-3.07021E+03-9.09026E+02 1.48532E-10-7.31120E-10
 -1       842-2.64829E+03-1.71589E+03-2.13101E+03-3.16039E+02-3.93001E-10 1.57718E-09
 -1       843-1.60218E+03-4.97298E+01-7.18890E+02-7.00700E+02 3.81846E-10-4.99654E-11
 -1       844-1.92075E+03-4.36478E+02-4.47687E+02-5.56073E+02 2.22819E-09-6.56257E-11
 -1       845-1.70334E+03-2.23586E+02-1.63615E+02-6.69323E+02 1.43036E-10 2.34515E-10
 -1       846-1.80252E+03-2.34150E+02-8.93552E+01-5.92178E+02-1.62810E-09 1.50254E-09
 -1       847-1.72040E+03-2.51931E+02-2.48412E+01-6.64648E+02-4.61673E-07 1.72046E-07
 -1       848-1.77848E+03-1.94930E+02 1.12316E+01-5.98446E+02-9.22032E-07 3.46290E-07
 -1       849-1.72738E+03-2.62783E+02 5.00840E+01-6.63067E+02-7.73098E-07 2.89644E-07
 -1       850-1.74540E+03-1.41590E+02 1.43534E+02-6.07227E+02-6.22024E-07 2.33755E-07
 -1       851-1.75349E+03-3.05241E+02 2.53973E+02-6.55878E+02-3.11309E-07 1.16624E-07
 -1       852-1.56287E+03 1.67749E+02 6.89280E+02-6.62825E+02-8.74934E-10 3.90514E-10
 -1       853-1.90989E+03-5.71937E+02 1.10458E+03-6.07537E+02-1.22812E-09 6.62851E-10
 -1       854-4.43400E+02 2.13199E+03 3.27398E+03-1.03227E+03 2.86434E-10-3.83409E-10
 -1       855-2.87275E+03-2.26819E+03 4.71569E+03-2.86898E+02 6.14250E-10-5.79803E-11
 -1       856-1.08420E+05 2.40120E+03-1.11367E+04 1.71620E+03-1.66187E-09-2.01408E-09
 -1       857-1.12373E+05-3.36763E+03-7.08206E+03 6.17109E+03-1.87833E-09-1.08366E-09
 -1       858-1.10086E+05 2.40562E+02-2.88382E+03 1.69081E+03-7.07132E-11-1.26226E-09
 -1       859-1.10530E+05-3.13966E+02-1.60003E+03 6.20209E+03 4.88694E-09-2.50012E-09
 -1       860-1.10270E+05 2.70520E+01-7.33736E+02 1.68499E+03 2.24986E-09-1.98753E-09
 -1       861-1.10327E+05-2.25059E+01-3.94910E+02 6.21016E+03-2.36537E-09-1.99026E-09
 -1       862-1.10293E+05 5.47352E+00-2.09038E+02 1.68270E+03 4.07437E-09-8.19909E-10
 -1       863-1.10304E+05 3.85285E+00-1.49806E+02 6.21298E+03 7.34764E-09-2.50573E-09
 -1       864-1.10295E+05 4.59496E+00-1.55730E+02 1.68216E+03 3.07405E-09-1.45408E-09
 -1       865-1.10315E+05-1.04495E+01-2.55078E+02 6.21202E+03 4.08602E-09-1.63061E-09
 -1       866-1.10281E+05 1.75486E+01-4.54113E+02 1.68366E+03-5.33475E-10-8.68553E-10
 -1       867-1.10438E+05-1.88016E+02-9.78566E+02 6.20644E+03-1.05047E-09-6.25732E-10
 -1       868-1.10169E+05 1.47454E+02-1.75906E+03 1.68776E+03 7.12816E-10-1.82922E-09
 -1       869-1.11560E+05-2.04916E+03-4.31644E+03 6.18070E+03-5.71276E-11-1.39607E-09
 -1       870-1.09154E+05 1.46369E+03-6.78701E+03 1.70957E+03 1.80046E-09-2.92403E-10
 -1       871-1.07478E+03-1.04735E+04-2.02986E+03 3.07223E+04-2.24509E-09 5.00677E-10
 -1       872-3.30695E+02-1.08385E+04-5.91349E+02 3.60647E+04-2.81625E-09-7.30438E-10
 -1       873 3.45729E+01-1.06962E+04 6.04834E+02 3.06627E+04-1.72929E-09 4.28031E-09
 -1       874 7.17481E+02-1.02117E+04 2.24674E+03 3.60905E+04-2.29738E-09 1.02024E-08
 -1       875 2.30797E+03-1.11090E+04 4.84222E+03 3.06978E+04-1.54478E-09 5.33339E-09
 -1       876 1.32782E+05 1.68851E+04 1.25243E+04 5.22040E+04 7.32712E-10 1.89539E-09
 -1       877 1.35559E+05 2.63219E+04 7.85196E+03 5.40839E+04 1.69473E-09-4.04498E-10
 -1       878 1.34912E+05 1.96062E+04 2.95538E+03 5.19349E+04-6.74902E-10-5.41149E-11
 -1       879 1.33107E+05 2.27154E+04 1.61549E+03 5.45935E+04-5.74971E-11 1.13005E-10
 -1       880 1.35147E+05 1.98940E+04 6.89816E+02 5.19174E+04-3.25315E-10-2.99110E-10
 -1       881 1.32836E+05 2.23450E+04 3.68626E+02 5.46272E+04-7.18217E-10-1.17002E-09
 -1       882 1.35174E+05 1.99267E+04 1.97893E+02 5.19189E+04-4.77903E-09-1.20565E-10
 -1       883 1.32810E+05 2.23096E+04 1.70429E+02 5.46255E+04-1.49861E-09-1.74673E-10
 -1       884 1.35172E+05 1.99268E+04 2.23632E+02 5.19196E+04-1.34854E-09-2.20800E-09
 -1       885 1.32847E+05 2.23512E+04 4.39549E+02 5.46234E+04 2.23149E-09-1.90784E-09
 -1       886 1.35138E+05 1.98889E+04 8.34156E+02 5.19196E+04-1.86589E-10 3.97222E-10
 -1       887 1.33179E+05 2.27985E+04 1.96035E+03 5.45784E+04 9.16145E-10-8.06381E-10
 -1       888 1.34850E+05 1.95409E+04 3.58866E+03 5.19420E+04 3.93464E-09 3.62206E-10
 -1       889 1.36157E+05 2.71797E+04 9.53642E+03 5.39594E+04-1.31919E-10 3.13662E-10
 -1       890 1.32264E+05 1.62345E+04 1.52113E+04 5.22666E+04 5.60703E-10-3.09228E-10
 -1       891 4.65466E+02-5.95872E+04-2.33928E+03 7.27641E+03-9.42123E-10-1.93268E-10
 -1       892-7.72486E+02-6.04235E+04-1.86360E+03 2.58743E+04-3.56533E-09-2.88736E-10
 -1       893 1.21964E+02-5.98512E+04-1.48382E+03 7.24849E+03 5.88329E-11 5.75923E-10
 -1       894-1.18599E+03-6.06729E+04-2.61504E+03 2.58724E+04-1.67245E-09-5.47971E-10
 -1       895 7.86672E+02-5.93363E+04-3.77072E+03 7.27825E+03 5.42741E-10 4.55429E-10
 -1       896 2.70353E+05-1.85125E+03 4.27964E+03 2.80849E+02 2.29768E-10 7.41920E-10
 -1       897 2.72210E+05 2.14280E+03 3.03387E+03-4.03885E+02 2.03819E-10 6.45002E-10
 -1       898 2.71076E+05-2.90056E+02 1.11275E+03 1.44403E+02 1.33452E-10 3.82499E-10
 -1       899 2.71368E+05 3.36233E+02 7.07766E+02-1.94566E+02 3.15410E-11 3.26310E-10
 -1       900 2.71196E+05-4.59864E+01 3.04135E+02 7.15264E+01 2.80567E-11 2.08956E-10
 -1       901 2.71231E+05 5.83321E+01 2.11361E+02-7.84172E+01 1.77294E-10 1.64370E-10
 -1       902 2.71213E+05-1.23281E+01 1.59862E+02 2.82527E+01 3.93822E-10 1.62595E-10
 -1       903 2.71228E+05 4.82992E+01 2.34706E+02-1.54487E+00 4.91949E-10 6.10214E-11
 -1       904 2.71199E+05-3.59574E+01 3.71857E+02-5.34732E+00-2.66274E-10 2.88480E-12
 -1       905 2.71340E+05 2.61477E+02 8.24736E+02 7.13849E+01-1.70822E-10-1.02673E-10
 -1       906 2.71101E+05-2.25373E+02 1.40819E+03-4.46784E+01 3.89030E-10-1.49328E-10
 -1       907 2.72028E+05 1.66985E+03 3.46417E+03 1.73953E+02-4.37256E-10-1.84230E-10
 -1       908 2.70511E+05-1.44330E+03 5.51326E+03-1.07917E+02-2.14159E-10-3.05590E-10
 -1       909 2.76183E+05 1.06599E+04 1.50729E+04 3.55636E+02 2.73540E-10-6.57337E-10
 -1       910 2.66944E+05-9.20810E+03 2.13011E+04-2.26360E+02 1.01701E-09-6.81212E-10
 -1       911 2.71663E+04 7.55125E+01-3.10370E+02-6.18205E+02 5.21169E-10 7.17336E-10
 -1       912 2.77435E+04-9.29654E+01-9.22255E+01 2.50426E+03 6.55348E-10 1.96188E-09
 -1       913 2.73365E+04 1.59550E+01-7.83359E+01-5.41056E+02 1.32096E-09 2.55969E-09
 -1       914 2.74876E+04-1.80295E+01-1.77380E+01 2.39235E+03 9.44764E-10 3.41649E-09
 -1       915 2.74149E+04 5.80884E+00-3.91266E+00-5.06305E+02-1.56810E-09 3.40980E-09
 -1       916 2.74264E+04-2.77833E+00 1.82517E+01 2.36454E+03-2.92391E-09 3.96303E-09
 -1       917 2.73960E+04 1.94584E+00 4.22220E+01-5.13255E+02-2.30109E-09 3.16288E-09
 -1       918 2.75778E+04 1.46796E+01 1.33494E+02 2.42013E+03-1.05493E-09 3.16454E-09
 -1       919 2.72670E+04-1.41355E+01 1.69377E+02-5.61881E+02-2.26635E-10 1.79268E-09
 -1       920 2.80156E+04 1.30933E+02 5.50123E+02 2.56123E+03-1.21989E-09 1.21611E-09
 -1       921 2.69676E+04-1.20888E+02 7.05656E+02-6.54357E+02 1.01039E-11-5.77984E-10
 -1       922 2.90771E+04 9.20021E+02 2.15422E+03 2.79459E+03 2.93289E-09-1.80739E-09
 -1       923 2.62224E+04-8.14610E+02 2.90614E+03-7.95309E+02 1.09108E-09-4.17231E-09
 -1       924 3.25338E+04 6.04058E+03 8.85884E+03 3.14746E+03 5.55237E-09-6.66751E-09
 -1       925 2.35384E+04-5.25664E+03 1.15310E+04-1.00747E+03 3.81925E-09-9.14270E-09
 -1       926-2.51351E+05 5.61479E+03-1.30302E+04 4.13735E+03-1.85874E-09-1.23491E-08
 -1       927-2.56555E+05-6.46481E+03-9.11852E+03-7.14899E+03 1.61311E-08-1.40225E-08
 -1       928-2.54111E+05 8.70079E+02-3.47772E+03 3.56263E+03-3.72012E-10-1.04490E-08
 -1       929-2.52079E+05-9.45027E+02-1.62867E+03-4.74643E+03-1.27066E-08-1.03066E-08
 -1       930-2.55776E+05 6.03751E+01-1.21380E+03 1.73437E+03-1.96962E-09-5.14194E-09
 -1       931-2.50068E+05-3.69881E+01 3.37590E+02-5.05397E+02 2.95221E-09-2.98428E-09
 -1       932-2.56081E+05-6.89464E+01-5.62473E+02-6.78366E+02 1.94620E-09 1.46376E-09
 -1       933-2.50909E+05 8.81341E+01 6.56494E+02 3.99274E+03 1.00242E-09 4.78209E-09
 -1       934-2.54959E+05-4.59661E+01 6.39525E+01-2.76348E+03-1.28230E-09 7.11586E-09
 -1       935-2.52974E+05 2.23839E+02 8.46328E+02 7.05307E+03 1.98961E-09 1.01879E-08
 -1       936-2.54072E+05-1.60925E+02 1.21357E+03-3.73894E+03-1.01677E-09 9.91042E-09
 -1       937-2.52830E+05 1.45418E+03 3.07757E+03 7.53771E+03 7.85422E-09 1.13200E-08
 -1       938-2.55115E+05-1.26614E+03 4.67821E+03-3.24823E+03 8.05670E-09 8.02493E-09
 -1       939-2.47291E+05 9.45391E+03 1.35765E+04 5.28316E+03 4.10910E-09 7.67682E-09
 -1       940-2.59560E+05-8.19186E+03 1.80932E+04-1.48409E+03-9.16714E-10 3.06864E-09
 -1       941 1.59030E+06-7.97848E+04 1.84834E+05 1.63871E+02-1.41527E-07 6.40284E-10
 -1       942 1.67030E+06 9.23809E+04 1.30710E+05 4.55766E+01-2.94463E-07-1.64437E-09
 -1       943 1.62119E+06-1.25095E+04 4.78777E+04 1.17647E+02-2.43814E-07 2.20098E-10
 -1       944 1.63438E+06 1.44789E+04 3.01174E+04 9.90249E+01-1.91889E-07-9.26775E-10
 -1       945 1.62630E+06-1.95800E+03 1.23456E+04 1.10436E+02-1.20384E-07 1.41836E-09
 -1       946 1.62846E+06 2.29926E+03 7.40901E+03 1.07256E+02-5.22928E-08 2.82762E-09
 -1       947 1.62714E+06-3.39825E+02 3.69706E+03 1.09419E+02 1.16328E-08 1.94689E-09
 -1       948 1.62759E+06 6.29585E+02 3.06167E+03 1.07615E+02 7.69091E-08 1.01932E-09
 -1       949 1.62717E+06-2.89473E+02 3.24415E+03 1.10077E+02 3.05989E-07-2.79601E-09
 -1       950 1.62823E+06 1.86635E+03 6.09917E+03 1.01740E+02 5.35773E-07 2.09343E-09
 -1       951 1.62650E+06-1.57574E+03 9.98784E+03 1.15294E+02 1.56054E-06-2.31012E-09
 -1       952 1.63297E+06 1.16365E+04 2.42349E+04 6.37334E+01 2.58546E-06 5.36602E-11
 -1       953 1.62240E+06-1.00518E+04 3.84852E+04 1.48081E+02 1.29174E-06 2.45200E-09
 -1       954 1.66184E+06 7.42289E+04 1.05032E+05-1.77294E+02 2.80126E-09 2.13186E-09
 -1       955 1.59757E+06-6.41090E+04 1.48494E+05 3.56299E+02-9.46575E-09-1.60071E-10
 -1       956-8.19992E+04-1.44686E+03-3.07976E+03 1.11300E+04-1.38471E-09 2.93539E-10
 -1       957-8.25658E+04-4.62425E+02-1.55702E+03 1.29637E+04-3.20824E-10-2.50054E-10
 -1       958-8.22510E+04-5.34134E+01-7.00187E+02 1.10639E+04 1.23282E-09-6.22663E-10
 -1       959-8.23010E+04-1.02248E+01-3.56374E+02 1.30362E+04-9.13133E-10-8.87439E-10
 -1       960-8.22763E+04 9.91168E+00-1.72894E+02 1.10573E+04-1.97974E-09-2.67278E-10
 -1       961-8.22798E+04 9.93425E+00-9.11236E+01 1.30434E+04-3.58534E-09 9.00286E-10
 -1       962-8.22816E+04 9.61895E+00-5.10038E+01 1.10566E+04-1.78693E-09-3.35376E-11
 -1       963-8.22790E+04 1.04638E+01-3.89745E+01 1.30443E+04-2.42312E-09-5.76051E-10
 -1       964-8.22830E+04 1.01489E+01-4.48419E+01 1.10564E+04-8.10587E-10-9.62473E-10
 -1       965-8.22821E+04 1.13032E+01-7.54797E+01 1.30442E+04 1.27822E-09-4.87375E-10
 -1       966-8.22810E+04 1.16052E+01-1.40527E+02 1.10568E+04-1.19999E-09-9.03810E-10
 -1       967-8.23016E+04-3.71306E+00-2.88494E+02 1.30403E+04-3.03089E-10 3.15026E-10
 -1       968-8.22625E+04-3.84095E+01-5.66042E+02 1.10603E+04-4.59181E-09-7.27880E-10
 -1       969-8.25178E+04-3.68256E+02-1.25881E+03 1.30010E+04-9.75581E-09-1.79659E-09
 -1       970-8.20604E+04-1.16431E+03-2.48957E+03 1.10965E+04-5.12114E-09-1.09367E-09
 -1       971-1.56298E+05 1.97249E+03-9.15238E+03 1.72968E+03-1.54796E-09-9.76343E-10
 -1       972-1.59539E+05-2.76703E+03-5.82037E+03 6.25298E+03-2.33194E-09-4.87489E-10
 -1       973-1.57666E+05 1.97441E+02-2.37170E+03 1.69981E+03-2.10969E-09-1.07082E-09
 -1       974-1.58026E+05-2.57156E+02-1.31833E+03 6.29102E+03 7.26686E-10 3.12582E-10
 -1       975-1.57818E+05 2.23649E+01-6.10163E+02 1.69148E+03-4.13593E-10-3.90401E-10
 -1       976-1.57860E+05-1.73605E+01-3.39084E+02 6.30315E+03-2.96200E-09 9.73245E-10
 -1       977-1.57837E+05 5.09744E+00-2.00532E+02 1.68765E+03 3.00827E-09-1.86922E-09
 -1       978-1.57845E+05 2.97819E+00-1.82325E+02 6.30821E+03 6.23896E-09-1.35188E-09
 -1       979-1.57836E+05 6.16471E+00-2.43432E+02 1.68642E+03 4.12235E-09-7.56536E-10
 -1       980-1.57872E+05-2.60486E+01-4.52006E+02 6.30785E+03 4.96752E-09-3.91558E-10
 -1       981-1.57810E+05 3.11092E+01-8.35490E+02 1.68801E+03-7.76708E-10-1.39943E-09
 -1       982-1.58105E+05-3.56767E+02-1.82008E+03 6.30127E+03-1.26687E-09 1.38272E-10
 -1       983-1.57601E+05 2.74404E+02-3.27893E+03 1.69305E+03 9.62814E-10-7.97513E-10
 -1       984-1.60202E+05-3.82843E+03-8.05305E+03 6.27364E+03 3.64935E-10 8.91987E-10
 -1       985-1.55708E+05 2.73197E+03-1.26624E+04 1.71596E+03 2.45507E-09-6.48470E-10
 -3
    1PSTEP                        19          10           1          
  100CL  110 2.16770E-01         841                     0   10           1
 -4  DISP        4    1
 -5  D1          1    2    1    0
 -5  D2          1    2    2    0
 -5  D3          1    2    3    0
 -5  ALL         1    2    0    0    1ALL
 -1         1 2.69964E-05 0.00000E+00 0.00000E+00
 -1         2 2.00942E-05 0.00000E+00 0.00000E+00
 -1         3 1.68152E-05 0.00000E+00 0.00000E+00
 -1         4 1.47882E-05 0.00000E+00 0.00000E+00
 -1         5 1.38323E-05 0.00000E+00 0.00000E+00
 -1         8 2.13217E-05-2.69227E-07 0.00000E+00
 -1         9 1.66830E-05 1.64765E-07 0.00000E+00
 -1        10 1.58914E-05-6.34764E-07 0.00000E+00
 -1        11 1.46331E-05-1.24176E-07 0.00000E+00
 -1        12 1.33752E-05 3.22361E-07 0.00000E+00
 -1        15 9.46427E-06-5.45251E-07 0.00000E+00
 -1        16 1.25628E-05 1.54883E-07 0.00000E+00
 -1        17 1.15288E-05-1.28774E-06 0.00000E+00
 -1        18 1.15891E-05-2.45386E-07 0.00000E+00
 -1        19 1.21378E-05 6.39462E-07 0.00000E+00
 -1        20 1.23197E-05 6.86902E-06 0.00000E+00
 -1        21 1.23141E-05 1.64059E-05 0.00000E+00
 -1        22 3.62052E-06-3.73740E-07 0.00000E+00
 -1        23 4.98735E-06 5.40934E-07 0.00000E+00
 -1        24 4.74898E-06-1.54068E-06 0.00000E+00
 -1        25 1.03379E-05-1.60173E-07 0.00000E+00
 -1        26 1.08190E-05 8.48654E-07 0.00000E+00
 -1        27 1.03017E-05 6.62156E-06 0.00000E+00
 -1        28 9.67921E-06 1.61708E-05 0.00000E+00
 -1        29 0.00000E+00 0.00000E+00 0.00000E+00
 -1        30 1.52569E-06 7.21300E-07 0.00000E+00
 -1        31 1.62099E-06-1.36918E-06 0.00000E+00
 -1        32 0.00000E+00 0.00000E+00 0.00000E+00
 -1        33 9.11406E-06 1.31654E-06 0.00000E+00
 -1        34 8.64882E-06 6.59776E-06 0.00000E+00
 -1        35 7.75809E-06 1.60447E-05 0.00000E+00
 -1        36 2.65789E-05 6.74297E-21 6.61744E-24
 -1        37 2.61475E-05 8.94210E-20-6.61744E-24
 -1        38 2.57171E-05 1.68495E-19-1.32349E-23
 -1        39 2.52840E-05 2.32733E-19 0.00000E+00
 -1        40 2.48509E-05 3.30793E-19 0.00000E+00
 -1        41 2.44172E-05 3.98730E-19 6.61744E-24
 -1        42 2.39835E-05 3.08689E-19 0.00000E+00
 -1        43 2.35496E-05 1.08551E-19 0.00000E+00
 -1        44 2.31158E-05-9.74477E-20 0.00000E+00
 -1        45 2.26820E-05-2.38508E-19 6.61744E-24
 -1        46 2.22483E-05-2.85309E-19-1.32349E-23
 -1        47 2.18149E-05-1.94961E-19-6.61744E-24
 -1        48 2.13815E-05-1.18683E-19 0.00000E+00
 -1        49 2.09498E-05-6.96494E-20 0.00000E+00
 -1        50 2.05176E-05 7.44463E-21-1.32349E-23
 -1        51 2.65648E-05-4.59598E-08 0.00000E+00
 -1        52 2.58534E-05-8.98956E-08 0.00000E+00
 -1        53 2.49163E-05-1.33447E-07 0.00000E+00
 -1        54 2.38105E-05-1.77205E-07 0.00000E+00
 -1        55 2.25931E-05-2.21770E-07-2.06795E-25
 -1        56 2.64555E-05-2.08838E-07 0.00000E+00
 -1        57 2.58973E-05-4.31044E-07-6.61744E-24
 -1        58 2.53390E-05-6.49859E-07 1.32349E-23
 -1        59 2.47729E-05-8.57941E-07 6.61744E-24
 -1        60 2.41989E-05-1.04532E-06 0.00000E+00
 -1        61 2.36134E-05-1.20367E-06 0.00000E+00
 -1        62 2.30138E-05-1.32502E-06-1.32349E-23
 -1        63 2.23975E-05-1.40204E-06 0.00000E+00
 -1        64 2.17622E-05-1.42832E-06 1.32349E-23
 -1        65 2.11058E-05-1.39806E-06-6.61744E-24
 -1        66 2.04265E-05-1.30674E-06 0.00000E+00
 -1        67 1.97235E-05-1.15042E-06-6.61744E-24
 -1        68 1.89954E-05-9.26902E-07 1.32349E-23
 -1        69 1.82447E-05-6.33514E-07 6.61744E-24
 -1        70 1.74672E-05-2.71827E-07 0.00000E+00
 -1        71 1.98885E-05-3.66774E-20 0.00000E+00
 -1        72 1.96831E-05-3.98994E-20 3.30872E-24
 -1        73 1.94777E-05-1.13944E-22 6.61744E-24
 -1        74 1.92724E-05 8.39787E-20-3.30872E-24
 -1        75 1.90671E-05 1.76976E-19 6.61744E-24
 -1        76 1.88618E-05 2.96837E-19 3.30872E-24
 -1        77 1.86565E-05 4.19462E-19 6.61744E-24
 -1        78 1.84512E-05 5.00104E-19-3.30872E-24
 -1        79 1.82459E-05 4.73339E-19 0.00000E+00
 -1        80 1.80406E-05 4.15720E-19-3.30872E-24
 -1        81 1.78354E-05 3.08126E-19 0.00000E+00
 -1        82 1.76303E-05 2.15579E-19 0.00000E+00
 -1        83 1.74252E-05 1.34913E-19 0.00000E+00
 -1        84 1.72208E-05 8.52865E-20-3.30872E-24
 -1        85 1.70162E-05 4.06455E-20 6.61744E-24
 -1        86 1.99492E-05 2.03741E-08 0.00000E+00
 -1        87 1.95164E-05 5.03277E-08-4.13590E-25
 -1        88 1.88864E-05 7.95127E-08-4.13590E-25
 -1        89 1.81492E-05 1.09419E-07 2.06795E-25
 -1        90 1.73873E-05 1.39747E-07 0.00000E+00
 -1        91 1.97889E-05 7.66213E-08 6.61744E-24
 -1        92 1.93575E-05 4.85369E-07 0.00000E+00
 -1        93 1.88754E-05 1.02933E-06 6.61744E-24
 -1        94 1.84170E-05 1.50952E-06-3.30872E-24
 -1        95 1.80448E-05 1.76027E-06-6.61744E-24
 -1        96 1.78198E-05 1.61830E-06 3.30872E-24
 -1        97 1.77286E-05 1.11951E-06 6.61744E-24
 -1        98 1.77561E-05 3.03660E-07-3.30872E-24
 -1        99 1.78263E-05-6.26401E-07 6.61744E-24
 -1       100 1.78629E-05-1.46655E-06 3.30872E-24
 -1       101 1.78067E-05-2.05889E-06 0.00000E+00
 -1       102 1.75998E-05-2.24815E-06 0.00000E+00
 -1       103 1.72607E-05-2.08517E-06-6.61744E-24
 -1       104 1.68109E-05-1.62420E-06-3.30872E-24
 -1       105 1.63265E-05-1.07229E-06-6.61744E-24
 -1       106 1.66888E-05 2.26833E-19 0.00000E+00
 -1       107 1.65619E-05 9.05660E-19 1.65436E-24
 -1       108 1.64350E-05 1.89560E-18 3.30872E-24
 -1       109 1.63081E-05 3.06468E-18 0.00000E+00
 -1       110 1.61811E-05 4.24919E-18 0.00000E+00
 -1       111 1.60541E-05 5.30271E-18-1.65436E-24
 -1       112 1.59271E-05 6.07456E-18 0.00000E+00
 -1       113 1.58001E-05 6.36536E-18 1.65436E-24
 -1       114 1.56731E-05 6.19318E-18-3.30872E-24
 -1       115 1.55462E-05 5.54638E-18 0.00000E+00
 -1       116 1.54192E-05 4.50399E-18 0.00000E+00
 -1       117 1.52923E-05 3.17744E-18 0.00000E+00
 -1       118 1.51655E-05 1.91245E-18 0.00000E+00
 -1       119 1.50390E-05 9.24174E-19 1.65436E-24
 -1       120 1.49125E-05 2.43375E-19 0.00000E+00
 -1       121 1.68148E-05-1.06073E-07-3.30872E-24
 -1       122 1.67858E-05-2.11774E-07 0.00000E+00
 -1       123 1.67034E-05-3.17488E-07 0.00000E+00
 -1       124 1.65432E-05-4.23179E-07-1.65436E-24
 -1       125 1.62806E-05-5.28880E-07 0.00000E+00
 -1       126 1.67335E-05-1.52811E-07 3.30872E-24
 -1       127 1.67314E-05-5.19233E-07-1.65436E-24
 -1       128 1.67847E-05-1.03341E-06 3.30872E-24
 -1       129 1.68684E-05-1.62885E-06 0.00000E+00
 -1       130 1.69489E-05-2.21572E-06 3.30872E-24
 -1       131 1.69925E-05-2.70425E-06 1.65436E-24
 -1       132 1.69763E-05-3.03318E-06 3.30872E-24
 -1       133 1.68777E-05-3.14210E-06-1.65436E-24
 -1       134 1.66968E-05-3.03173E-06 0.00000E+00
 -1       135 1.64344E-05-2.70404E-06-1.65436E-24
 -1       136 1.61139E-05-2.22165E-06 3.30872E-24
 -1       137 1.57593E-05-1.64800E-06-1.65436E-24
 -1       138 1.54038E-05-1.07222E-06 3.30872E-24
 -1       139 1.50813E-05-5.83296E-07 0.00000E+00
 -1       140 1.48157E-05-2.46219E-07-3.30872E-24
 -1       141 1.47275E-05-3.19384E-20-1.65436E-24
 -1       142 1.46673E-05-5.73077E-20 0.00000E+00
 -1       143 1.46069E-05-6.46883E-20 0.00000E+00
 -1       144 1.45467E-05-7.00947E-20-8.27181E-25
 -1       145 1.44865E-05-6.44083E-20-1.65436E-24
 -1       146 1.44263E-05-3.30771E-20 8.27181E-25
 -1       147 1.43661E-05-2.00937E-20-1.65436E-24
 -1       148 1.43059E-05-4.69747E-20-8.27181E-25
 -1       149 1.42457E-05-2.91740E-20 0.00000E+00
 -1       150 1.41855E-05 7.99796E-21-8.27181E-25
 -1       151 1.41254E-05 4.76846E-20 1.65436E-24
 -1       152 1.40655E-05 4.89702E-20-8.27181E-25
 -1       153 1.40055E-05 4.70250E-20 0.00000E+00
 -1       154 1.39465E-05 2.49443E-20 4.13590E-25
 -1       155 1.38871E-05 8.94585E-21 1.03398E-25
 -1       156 1.47847E-05-2.18963E-08 1.65436E-24
 -1       157 1.47742E-05-4.18597E-08 0.00000E+00
 -1       158 1.47552E-05-6.19682E-08 0.00000E+00
 -1       159 1.47261E-05-8.21071E-08 0.00000E+00
 -1       160 1.46857E-05-1.02093E-07-1.65436E-24
 -1       161 1.47210E-05-3.75786E-08 0.00000E+00
 -1       162 1.46619E-05-9.67570E-08 0.00000E+00
 -1       163 1.46077E-05-1.69193E-07-1.65436E-24
 -1       164 1.45553E-05-2.46527E-07 0.00000E+00
 -1       165 1.45013E-05-3.19307E-07 1.65436E-24
 -1       166 1.44420E-05-3.78104E-07 8.27181E-25
 -1       167 1.43749E-05-4.16292E-07-1.65436E-24
 -1       168 1.42977E-05-4.27313E-07 8.27181E-25
 -1       169 1.42095E-05-4.09040E-07 1.65436E-24
 -1       170 1.41096E-05-3.59428E-07 0.00000E+00
 -1       171 1.39992E-05-2.81766E-07 1.65436E-24
 -1       172 1.38797E-05-1.79371E-07 0.00000E+00
 -1       173 1.37538E-05-5.97954E-08 0.00000E+00
 -1       174 1.36251E-05 6.97559E-08-8.27181E-25
 -1       175 1.34960E-05 1.99556E-07 0.00000E+00
 -1       191 1.38168E-05 5.36899E-08 1.65436E-24
 -1       192 1.37763E-05 1.07445E-07 0.00000E+00
 -1       193 1.37113E-05 1.61216E-07 0.00000E+00
 -1       194 1.36224E-05 2.14980E-07 1.65436E-24
 -1       195 1.35100E-05 2.68718E-07-1.65436E-24
 -1       251 2.10416E-05 1.46257E-06 0.00000E+00
 -1       252 2.07510E-05 4.62403E-06 3.30872E-24
 -1       253 2.04604E-05 7.94653E-06 6.61744E-24
 -1       254 2.01715E-05 1.01591E-05-3.30872E-24
 -1       255 1.98845E-05 1.05727E-05-6.61744E-24
 -1       256 1.95953E-05 8.52166E-06 0.00000E+00
 -1       257 1.93010E-05 4.62974E-06 0.00000E+00
 -1       258 1.90016E-05-4.55503E-07-3.30872E-24
 -1       259 1.87025E-05-5.46177E-06 6.61744E-24
 -1       260 1.84090E-05-9.11759E-06 3.30872E-24
 -1       261 1.81204E-05-1.08587E-05 0.00000E+00
 -1       262 1.78333E-05-1.01454E-05-3.30872E-24
 -1       263 1.75438E-05-7.72236E-06 6.61744E-24
 -1       264 1.72531E-05-4.35620E-06-3.30872E-24
 -1       265 1.69628E-05-1.30814E-06 0.00000E+00
 -1       266 2.01684E-05-3.16659E-07 0.00000E+00
 -1       267 1.87176E-05-3.61702E-07-8.27181E-25
 -1       268 1.69386E-05-4.07416E-07 0.00000E+00
 -1       269 1.48011E-05-4.53010E-07 0.00000E+00
 -1       270 1.23084E-05-4.99463E-07-8.27181E-25
 -1       271 2.05354E-05 4.39551E-07 0.00000E+00
 -1       272 1.98174E-05 9.19480E-07-6.61744E-24
 -1       273 1.91736E-05 1.20302E-06 0.00000E+00
 -1       274 1.85909E-05 1.31681E-06 6.61744E-24
 -1       275 1.80608E-05 1.28984E-06-1.32349E-23
 -1       276 1.75722E-05 1.15097E-06 0.00000E+00
 -1       277 1.71144E-05 9.29638E-07-1.32349E-23
 -1       278 1.66763E-05 6.55591E-07-6.61744E-24
 -1       279 1.62467E-05 3.58782E-07 1.32349E-23
 -1       280 1.58145E-05 6.92777E-08 0.00000E+00
 -1       281 1.53684E-05-1.82916E-07 0.00000E+00
 -1       282 1.48974E-05-3.67888E-07-6.61744E-24
 -1       283 1.43905E-05-4.56105E-07 0.00000E+00
 -1       284 1.38383E-05-4.17785E-07 0.00000E+00
 -1       285 1.32279E-05-2.25146E-07-1.32349E-23
 -1       286 1.66310E-05 7.49777E-07 0.00000E+00
 -1       287 1.65816E-05 1.15592E-06 0.00000E+00
 -1       288 1.65320E-05 1.38459E-06 1.65436E-24
 -1       289 1.64830E-05 1.43756E-06 0.00000E+00
 -1       290 1.64340E-05 1.33494E-06-1.65436E-24
 -1       291 1.63850E-05 1.09715E-06 0.00000E+00
 -1       292 1.63360E-05 7.58700E-07 0.00000E+00
 -1       293 1.62871E-05 3.54303E-07 0.00000E+00
 -1       294 1.62381E-05-7.44477E-08 0.00000E+00
 -1       295 1.61891E-05-4.85909E-07 8.27181E-25
 -1       296 1.61401E-05-8.40249E-07 0.00000E+00
 -1       297 1.60911E-05-1.09775E-06 8.27181E-25
 -1       298 1.60421E-05-1.22877E-06-1.65436E-24
 -1       299 1.59926E-05-1.20396E-06-8.27181E-25
 -1       300 1.59432E-05-1.01021E-06 3.30872E-24
 -1       301 1.59951E-05 1.60153E-07 0.00000E+00
 -1       302 1.53030E-05 1.60366E-07-4.13590E-25
 -1       303 1.46101E-05 1.61382E-07 0.00000E+00
 -1       304 1.39201E-05 1.62204E-07-8.27181E-25
 -1       305 1.32365E-05 1.61804E-07 0.00000E+00
 -1       306 1.61735E-05 5.98207E-07 0.00000E+00
 -1       307 1.57384E-05 8.07232E-07 3.30872E-24
 -1       308 1.53747E-05 8.26452E-07 0.00000E+00
 -1       309 1.50690E-05 6.87423E-07 0.00000E+00
 -1       310 1.48101E-05 4.23026E-07 0.00000E+00
 -1       311 1.45857E-05 6.61032E-08 6.61744E-24
 -1       312 1.43834E-05-3.50172E-07 1.32349E-23
 -1       313 1.41909E-05-7.92515E-07 0.00000E+00
 -1       314 1.39956E-05-1.22754E-06 1.32349E-23
 -1       315 1.37851E-05-1.62189E-06 3.30872E-24
 -1       316 1.35470E-05-1.94234E-06 6.61744E-24
 -1       317 1.32691E-05-2.15582E-06 0.00000E+00
 -1       318 1.29391E-05-2.22964E-06 0.00000E+00
 -1       319 1.25461E-05-2.13101E-06 3.30872E-24
 -1       320 1.20763E-05-1.82872E-06 0.00000E+00
 -1       321 1.58113E-05-1.78713E-07-3.30872E-24
 -1       322 1.57325E-05 2.56079E-07 0.00000E+00
 -1       323 1.56536E-05 6.42536E-07 0.00000E+00
 -1       324 1.55750E-05 9.53766E-07 1.65436E-24
 -1       325 1.54964E-05 1.17518E-06-3.30872E-24
 -1       326 1.54179E-05 1.29251E-06 1.65436E-24
 -1       327 1.53394E-05 1.30854E-06 0.00000E+00
 -1       328 1.52609E-05 1.22638E-06-1.65436E-24
 -1       329 1.51823E-05 1.06526E-06 0.00000E+00
 -1       330 1.51038E-05 8.44643E-07 0.00000E+00
 -1       331 1.50253E-05 5.93765E-07 3.30872E-24
 -1       332 1.49468E-05 3.41956E-07 0.00000E+00
 -1       333 1.48683E-05 1.18694E-07 3.30872E-24
 -1       334 1.47898E-05-4.66348E-08 0.00000E+00
 -1       335 1.47114E-05-1.34132E-07 1.65436E-24
 -1       336 1.53500E-05-7.43970E-07 0.00000E+00
 -1       337 1.46931E-05-8.53173E-07 0.00000E+00
 -1       338 1.39515E-05-9.62388E-07-3.30872E-24
 -1       339 1.31562E-05-1.07139E-06 1.65436E-24
 -1       340 1.23383E-05-1.18042E-06 0.00000E+00
 -1       341 1.41519E-05 3.58837E-06 0.00000E+00
 -1       342 9.50591E-06 1.53823E-05 1.65436E-24
 -1       343 2.78180E-06 3.24967E-05-3.30872E-24
 -1       344-5.14987E-06 5.26631E-05 1.65436E-24
 -1       345-1.30446E-05 7.27358E-05 3.30872E-24
 -1       346-1.96582E-05 8.95697E-05 0.00000E+00
 -1       347-2.41441E-05 1.00950E-04-3.30872E-24
 -1       348-2.56973E-05 1.04680E-04 0.00000E+00
 -1       349-2.43756E-05 1.00744E-04 0.00000E+00
 -1       350-2.02529E-05 8.91661E-05-1.65436E-24
 -1       351-1.41788E-05 7.21681E-05 3.30872E-24
 -1       352-6.98379E-06 5.20115E-05 0.00000E+00
 -1       353 2.01110E-07 3.18839E-05 0.00000E+00
 -1       354 6.24498E-06 1.49738E-05-1.65436E-24
 -1       355 1.03208E-05 3.52853E-06 1.65436E-24
 -1       356 1.45541E-05-7.87809E-08-1.65436E-24
 -1       357 1.44749E-05-6.01967E-08 1.65436E-24
 -1       358 1.43958E-05-6.47553E-08-3.30872E-24
 -1       359 1.43166E-05-8.87074E-08-1.65436E-24
 -1       360 1.42373E-05-1.25100E-07 0.00000E+00
 -1       361 1.41581E-05-1.66937E-07 1.65436E-24
 -1       362 1.40789E-05-2.06322E-07 0.00000E+00
 -1       363 1.39997E-05-2.35368E-07-1.65436E-24
 -1       364 1.39205E-05-2.47894E-07-3.30872E-24
 -1       365 1.38413E-05-2.37781E-07-8.27181E-25
 -1       366 1.37622E-05-2.02647E-07 1.65436E-24
 -1       367 1.36832E-05-1.40199E-07 8.27181E-25
 -1       368 1.36043E-05-5.26565E-08-1.65436E-24
 -1       369 1.35264E-05 5.76734E-08-8.27181E-25
 -1       370 1.34482E-05 1.84722E-07 0.00000E+00
 -1       371 1.44103E-05-1.46574E-07 1.65436E-24
 -1       372 1.38633E-05-1.66855E-07-4.13590E-25
 -1       373 1.31496E-05-1.87362E-07 0.00000E+00
 -1       374 1.24272E-05-2.07214E-07 0.00000E+00
 -1       375 1.18544E-05-2.27041E-07 0.00000E+00
 -1       376 1.45917E-05-3.76136E-07 3.30872E-24
 -1       377 1.47471E-05-1.15955E-06-1.65436E-24
 -1       378 1.50436E-05-2.31979E-06 0.00000E+00
 -1       379 1.54222E-05-3.70102E-06 0.00000E+00
 -1       380 1.58022E-05-5.08573E-06 3.30872E-24
 -1       381 1.61022E-05-6.25661E-06-1.65436E-24
 -1       382 1.62631E-05-7.05562E-06-3.30872E-24
 -1       383 1.62264E-05-7.32681E-06-1.65436E-24
 -1       384 1.59881E-05-7.06068E-06 0.00000E+00
 -1       385 1.55456E-05-6.25062E-06 0.00000E+00
 -1       386 1.49531E-05-5.04200E-06 0.00000E+00
 -1       387 1.42664E-05-3.58217E-06 0.00000E+00
 -1       388 1.35666E-05-2.08790E-06 0.00000E+00
 -1       389 1.29367E-05-7.75637E-07 0.00000E+00
 -1       390 1.24377E-05 1.87535E-07-1.65436E-24
 -1       406 1.32118E-05 3.75513E-07 0.00000E+00
 -1       407 1.30286E-05 4.28708E-07 0.00000E+00
 -1       408 1.28275E-05 4.81874E-07 0.00000E+00
 -1       409 1.26105E-05 5.34911E-07 8.27181E-25
 -1       410 1.23799E-05 5.87671E-07-1.65436E-24
 -1       466 9.64800E-06 1.89832E-06 0.00000E+00
 -1       467 9.84202E-06 3.20304E-06 1.65436E-24
 -1       468 1.00363E-05 3.72776E-06 0.00000E+00
 -1       469 1.02322E-05 3.82433E-06-3.30872E-24
 -1       470 1.04282E-05 3.62884E-06-6.61744E-24
 -1       471 1.06244E-05 3.27480E-06-3.30872E-24
 -1       472 1.08206E-05 2.81558E-06 6.61744E-24
 -1       473 1.10168E-05 2.30364E-06 0.00000E+00
 -1       474 1.12131E-05 1.76477E-06 0.00000E+00
 -1       475 1.14092E-05 1.22454E-06 3.30872E-24
 -1       476 1.16053E-05 7.07800E-07 0.00000E+00
 -1       477 1.18008E-05 2.39626E-07 0.00000E+00
 -1       478 1.19963E-05-1.30376E-07 0.00000E+00
 -1       479 1.21892E-05-3.51730E-07 0.00000E+00
 -1       480 1.23831E-05-2.99213E-07 8.27181E-25
 -1       481 6.91244E-06-5.20265E-07 0.00000E+00
 -1       482 5.29019E-06-4.91903E-07-4.13590E-25
 -1       483 4.36687E-06-4.62758E-07 0.00000E+00
 -1       484 3.91280E-06-4.33079E-07 4.13590E-25
 -1       485 3.72993E-06-4.03273E-07 8.27181E-25
 -1       486 7.74026E-06 3.41830E-06-3.30872E-24
 -1       487 5.24403E-06 9.38658E-06 0.00000E+00
 -1       488 2.70589E-06 1.54663E-05-6.61744E-24
 -1       489 8.46656E-07 1.97588E-05 0.00000E+00
 -1       490 7.59851E-08 2.11714E-05-6.61744E-24
 -1       491 7.83842E-07 1.86347E-05-3.30872E-24
 -1       492 2.69369E-06 1.28556E-05 0.00000E+00
 -1       493 5.52311E-06 4.57332E-06-3.30872E-24
 -1       494 8.58427E-06-4.34183E-06 6.61744E-24
 -1       495 1.11898E-05-1.20121E-05-3.30872E-24
 -1       496 1.28527E-05-1.71235E-05-6.61744E-24
 -1       497 1.30868E-05-1.83892E-05 0.00000E+00
 -1       498 1.20439E-05-1.62537E-05 0.00000E+00
 -1       499 9.89337E-06-1.11917E-05 0.00000E+00
 -1       500 7.30983E-06-4.99469E-06 0.00000E+00
 -1       501 1.24945E-05 6.98026E-07 0.00000E+00
 -1       502 1.24296E-05 1.01252E-06 0.00000E+00
 -1       503 1.23646E-05 1.10188E-06-1.65436E-24
 -1       504 1.23003E-05 9.70282E-07 0.00000E+00
 -1       505 1.22359E-05 6.51782E-07 1.65436E-24
 -1       506 1.21716E-05 1.80977E-07 0.00000E+00
 -1       507 1.21073E-05-3.86947E-07 0.00000E+00
 -1       508 1.20430E-05-9.96540E-07 0.00000E+00
 -1       509 1.19787E-05-1.58671E-06 0.00000E+00
 -1       510 1.19144E-05-2.09641E-06 8.27181E-25
 -1       511 1.18502E-05-2.47550E-06 0.00000E+00
 -1       512 1.17860E-05-2.67418E-06-8.27181E-25
 -1       513 1.17219E-05-2.66703E-06 0.00000E+00
 -1       514 1.16577E-05-2.42923E-06 8.27181E-25
 -1       515 1.15934E-05-1.96714E-06-1.65436E-24
 -1       516 1.21434E-05 2.14178E-07 1.65436E-24
 -1       517 1.21859E-05 2.82250E-07 0.00000E+00
 -1       518 1.21136E-05 3.49713E-07 8.27181E-25
 -1       519 1.13497E-05 4.17889E-07 4.13590E-25
 -1       520 9.20540E-06 4.84271E-07 4.13590E-25
 -1       521 1.19118E-05 5.22313E-07 1.32349E-23
 -1       522 1.13265E-05 6.73687E-07 6.61744E-24
 -1       523 1.08093E-05 6.44410E-07 1.32349E-23
 -1       524 1.03463E-05 4.64897E-07 0.00000E+00
 -1       525 9.92719E-06 1.67590E-07 0.00000E+00
 -1       526 9.53973E-06-2.15205E-07-6.61744E-24
 -1       527 9.17196E-06-6.50716E-07 0.00000E+00
 -1       528 8.81154E-06-1.10603E-06 0.00000E+00
 -1       529 8.44617E-06-1.54815E-06-1.32349E-23
 -1       530 8.06356E-06-1.94410E-06 0.00000E+00
 -1       531 7.65145E-06-2.26114E-06 1.32349E-23
 -1       532 7.19794E-06-2.46680E-06 0.00000E+00
 -1       533 6.69093E-06-2.52913E-06 1.32349E-23
 -1       534 6.12029E-06-2.41623E-06 0.00000E+00
 -1       535 5.47231E-06-2.09822E-06 0.00000E+00
 -1       536 1.15290E-05-5.93344E-07-8.27181E-25
 -1       537 1.15323E-05-6.58112E-08 4.13590E-25
 -1       538 1.15357E-05 3.12537E-07-4.13590E-25
 -1       539 1.15396E-05 5.59535E-07-1.03398E-25
 -1       540 1.15435E-05 6.92973E-07 0.00000E+00
 -1       541 1.15476E-05 7.30650E-07 2.26182E-26
 -1       542 1.15517E-05 6.90362E-07 0.00000E+00
 -1       543 1.15558E-05 5.89899E-07 5.16988E-26
 -1       544 1.15599E-05 4.47055E-07-1.03398E-25
 -1       545 1.15640E-05 2.79615E-07 0.00000E+00
 -1       546 1.15681E-05 1.05370E-07 1.03398E-25
 -1       547 1.15722E-05-5.78911E-08 0.00000E+00
 -1       548 1.15763E-05-1.92382E-07 2.06795E-25
 -1       549 1.15805E-05-2.80317E-07-1.03398E-25
 -1       550 1.15847E-05-3.03892E-07 0.00000E+00
 -1       551 1.05152E-05-1.32927E-06-9.04729E-25
 -1       552 9.38606E-06-1.36974E-06-8.27181E-25
 -1       553 8.19270E-06-1.41021E-06 0.00000E+00
 -1       554 6.98737E-06-1.45119E-06 0.00000E+00
 -1       555 5.82232E-06-1.49326E-06 0.00000E+00
 -1       556 1.12344E-05-6.36148E-07 0.00000E+00
 -1       557 1.09976E-05-1.34341E-07 0.00000E+00
 -1       558 1.08119E-05 2.31948E-07 0.00000E+00
 -1       559 1.06713E-05 4.78387E-07 0.00000E+00
 -1       560 1.05699E-05 6.20664E-07 0.00000E+00
 -1       561 1.05017E-05 6.74598E-07 0.00000E+00
 -1       562 1.04607E-05 6.56014E-07 3.30872E-24
 -1       563 1.04409E-05 5.80755E-07 0.00000E+00
 -1       564 1.04365E-05 4.64665E-07 0.00000E+00
 -1       565 1.04414E-05 3.23593E-07 8.27181E-25
 -1       566 1.04498E-05 1.73391E-07 8.27181E-25
 -1       567 1.04556E-05 2.99107E-08 0.00000E+00
 -1       568 1.04531E-05-9.09972E-08 0.00000E+00
 -1       569 1.04363E-05-1.73498E-07-2.58494E-25
 -1       570 1.03995E-05-2.01769E-07-4.13590E-25
 -1       571 1.16221E-05-1.70685E-07 0.00000E+00
 -1       572 1.16561E-05-1.19527E-07-1.03398E-25
 -1       573 1.16903E-05-8.76239E-08-4.13590E-25
 -1       574 1.17247E-05-7.04722E-08 4.13590E-25
 -1       575 1.17591E-05-6.35485E-08 0.00000E+00
 -1       576 1.17936E-05-6.23004E-08 0.00000E+00
 -1       577 1.18281E-05-6.21735E-08-1.65436E-24
 -1       578 1.18625E-05-5.86096E-08 8.27181E-25
 -1       579 1.18970E-05-4.70501E-08 0.00000E+00
 -1       580 1.19315E-05-2.29364E-08 0.00000E+00
 -1       581 1.19659E-05 1.82890E-08-1.65436E-24
 -1       582 1.20004E-05 8.11795E-08 0.00000E+00
 -1       583 1.20348E-05 1.70284E-07 0.00000E+00
 -1       584 1.20693E-05 2.90105E-07 0.00000E+00
 -1       585 1.21036E-05 4.45120E-07 1.65436E-24
 -1       586 1.14100E-05-2.30896E-07 0.00000E+00
 -1       587 1.12046E-05-2.16298E-07 8.27181E-25
 -1       588 1.09837E-05-2.01717E-07 0.00000E+00
 -1       589 1.07583E-05-1.87278E-07 5.16988E-26
 -1       590 1.05394E-05-1.73157E-07 0.00000E+00
 -1       591 1.15355E-05-1.57695E-07 4.13590E-25
 -1       592 1.14861E-05-8.54252E-08 4.13590E-25
 -1       593 1.14410E-05-2.55920E-08 0.00000E+00
 -1       594 1.13995E-05 2.45183E-08 0.00000E+00
 -1       595 1.13604E-05 6.76183E-08-8.27181E-25
 -1       596 1.13230E-05 1.06401E-07 0.00000E+00
 -1       597 1.12862E-05 1.43557E-07 8.27181E-25
 -1       598 1.12490E-05 1.81772E-07 2.06795E-25
 -1       599 1.12104E-05 2.23735E-07-8.27181E-25
 -1       600 1.11693E-05 2.72133E-07-2.06795E-25
 -1       601 1.11249E-05 3.29652E-07 4.13590E-25
 -1       602 1.10761E-05 3.98982E-07 1.03398E-25
 -1       603 1.10218E-05 4.82816E-07 3.10193E-25
 -1       604 1.09613E-05 5.83860E-07-3.87741E-26
 -1       605 1.08936E-05 7.04826E-07-2.06795E-25
 -1       606 1.21504E-05 8.97932E-07 0.00000E+00
 -1       607 1.21621E-05 1.18171E-06 0.00000E+00
 -1       608 1.21736E-05 1.48931E-06 0.00000E+00
 -1       609 1.21849E-05 1.81903E-06 8.27181E-25
 -1       610 1.21962E-05 2.16917E-06 0.00000E+00
 -1       611 1.22075E-05 2.53798E-06 0.00000E+00
 -1       612 1.22188E-05 2.92371E-06 0.00000E+00
 -1       613 1.22301E-05 3.32464E-06 0.00000E+00
 -1       614 1.22413E-05 3.73900E-06 8.27181E-25
 -1       615 1.22526E-05 4.16505E-06 0.00000E+00
 -1       616 1.22638E-05 4.60104E-06-8.27181E-25
 -1       617 1.22750E-05 5.04523E-06 0.00000E+00
 -1       618 1.22863E-05 5.49587E-06-4.13590E-25
 -1       619 1.22975E-05 5.95121E-06 0.00000E+00
 -1       620 1.23087E-05 6.40951E-06 0.00000E+00
 -1       621 1.18945E-05 6.74453E-07 8.27181E-25
 -1       622 1.16567E-05 7.09627E-07 0.00000E+00
 -1       623 1.14275E-05 7.44805E-07-8.27181E-25
 -1       624 1.12096E-05 7.79891E-07 0.00000E+00
 -1       625 1.10059E-05 8.14771E-07 0.00000E+00
 -1       626 1.20621E-05 9.11037E-07 0.00000E+00
 -1       627 1.19761E-05 1.20907E-06 0.00000E+00
 -1       628 1.18810E-05 1.53110E-06 0.00000E+00
 -1       629 1.17778E-05 1.87436E-06 0.00000E+00
 -1       630 1.16677E-05 2.23607E-06 0.00000E+00
 -1       631 1.15517E-05 2.61339E-06 0.00000E+00
 -1       632 1.14309E-05 3.00349E-06 8.27181E-25
 -1       633 1.13064E-05 3.40353E-06 0.00000E+00
 -1       634 1.11792E-05 3.81069E-06 8.27181E-25
 -1       635 1.10505E-05 4.22213E-06 4.13590E-25
 -1       636 1.09211E-05 4.63501E-06 0.00000E+00
 -1       637 1.07923E-05 5.04649E-06 4.13590E-25
 -1       638 1.06650E-05 5.45374E-06 0.00000E+00
 -1       639 1.05403E-05 5.85391E-06-2.06795E-25
 -1       640 1.04190E-05 6.24416E-06 2.06795E-25
 -1       641 1.23200E-05 7.34502E-06-1.03398E-25
 -1       642 1.23199E-05 7.87041E-06 0.00000E+00
 -1       643 1.23198E-05 8.43803E-06 0.00000E+00
 -1       644 1.23196E-05 9.04074E-06 0.00000E+00
 -1       645 1.23193E-05 9.67139E-06 0.00000E+00
 -1       646 1.23191E-05 1.03228E-05 8.07794E-28
 -1       647 1.23188E-05 1.09879E-05 0.00000E+00
 -1       648 1.23185E-05 1.16594E-05 0.00000E+00
 -1       649 1.23182E-05 1.23302E-05 0.00000E+00
 -1       650 1.23179E-05 1.29932E-05 0.00000E+00
 -1       651 1.23176E-05 1.36412E-05 0.00000E+00
 -1       652 1.23173E-05 1.42671E-05-2.58494E-26
 -1       653 1.23170E-05 1.48636E-05 1.03398E-25
 -1       654 1.23164E-05 1.54237E-05 0.00000E+00
 -1       655 1.23159E-05 1.59402E-05 0.00000E+00
 -1       656 1.19081E-05 6.82918E-06-4.13590E-25
 -1       657 1.15532E-05 6.78726E-06 4.13590E-25
 -1       658 1.12351E-05 6.74543E-06 8.27181E-25
 -1       659 1.09338E-05 6.70357E-06-4.13590E-25
 -1       660 1.06293E-05 6.66162E-06-4.13590E-25
 -1       661 1.21873E-05 7.35911E-06-8.27181E-25
 -1       662 1.20422E-05 7.88792E-06 8.27181E-25
 -1       663 1.18848E-05 8.44922E-06-1.65436E-24
 -1       664 1.17176E-05 9.03755E-06 8.27181E-25
 -1       665 1.15423E-05 9.64724E-06 0.00000E+00
 -1       666 1.13612E-05 1.02727E-05 0.00000E+00
 -1       667 1.11762E-05 1.09084E-05 0.00000E+00
 -1       668 1.09895E-05 1.15488E-05 0.00000E+00
 -1       669 1.08031E-05 1.21883E-05-1.65436E-24
 -1       670 1.06192E-05 1.28213E-05 0.00000E+00
 -1       671 1.04397E-05 1.34424E-05-1.65436E-24
 -1       672 1.02668E-05 1.40458E-05-8.27181E-25
 -1       673 1.01025E-05 1.46261E-05-1.65436E-24
 -1       674 9.94862E-06 1.51775E-05 4.13590E-25
 -1       675 9.80770E-06 1.56946E-05 4.13590E-25
 -1       676 1.18738E-05 1.63666E-05 8.27181E-25
 -1       677 1.14337E-05 1.63271E-05 4.13590E-25
 -1       678 1.09941E-05 1.62876E-05 0.00000E+00
 -1       679 1.05550E-05 1.62483E-05-4.13590E-25
 -1       680 1.01166E-05 1.62090E-05 0.00000E+00
 -1       681 3.70474E-06-4.93400E-07-1.65436E-24
 -1       682 3.79151E-06-9.98906E-07 8.27181E-25
 -1       683 3.87794E-06-1.78594E-06 3.30872E-24
 -1       684 3.96474E-06-2.75129E-06 0.00000E+00
 -1       685 4.05143E-06-3.82837E-06 3.30872E-24
 -1       686 4.13818E-06-4.95107E-06 1.65436E-24
 -1       687 4.22495E-06-6.06262E-06-3.30872E-24
 -1       688 4.31181E-06-7.10622E-06-1.65436E-24
 -1       689 4.39879E-06-8.01111E-06 0.00000E+00
 -1       690 4.48590E-06-8.70597E-06-1.65436E-24
 -1       691 4.57315E-06-9.07621E-06 3.30872E-24
 -1       692 4.66030E-06-9.00602E-06 1.65436E-24
 -1       693 4.74715E-06-8.28895E-06 0.00000E+00
 -1       694 4.83221E-06-6.71603E-06 0.00000E+00
 -1       695 4.91486E-06-3.90258E-06 8.27181E-25
 -1       696 3.40058E-06-3.12972E-07-1.65436E-24
 -1       697 2.89362E-06-2.50597E-07 0.00000E+00
 -1       698 2.20248E-06-1.88426E-07 1.65436E-24
 -1       699 1.42949E-06-1.25866E-07 0.00000E+00
 -1       700 6.65162E-07-6.33288E-08 0.00000E+00
 -1       701 3.46074E-06-2.14365E-07 0.00000E+00
 -1       702 3.20846E-06 1.77324E-07 0.00000E+00
 -1       703 2.88860E-06 7.49910E-07 3.30872E-24
 -1       704 2.52027E-06 1.44890E-06 0.00000E+00
 -1       705 2.13497E-06 2.19304E-06 0.00000E+00
 -1       706 1.76328E-06 2.90051E-06 0.00000E+00
 -1       707 1.43301E-06 3.49770E-06 0.00000E+00
 -1       708 1.17165E-06 3.91133E-06 0.00000E+00
 -1       709 9.91701E-07 4.10807E-06 0.00000E+00
 -1       710 9.05322E-07 4.05544E-06-1.65436E-24
 -1       711 9.04248E-07 3.77528E-06 0.00000E+00
 -1       712 9.80016E-07 3.29043E-06 0.00000E+00
 -1       713 1.10719E-06 2.66832E-06 0.00000E+00
 -1       714 1.26103E-06 1.97731E-06 8.27181E-25
 -1       715 1.40939E-06 1.30006E-06 0.00000E+00
 -1       716 4.96417E-06 5.17894E-06 4.13590E-25
 -1       717 4.94629E-06 8.56571E-06-2.06795E-25
 -1       718 4.93149E-06 1.08028E-05 0.00000E+00
 -1       719 4.91851E-06 1.19926E-05 0.00000E+00
 -1       720 4.90619E-06 1.22652E-05 4.13590E-25
 -1       721 4.89379E-06 1.17515E-05 0.00000E+00
 -1       722 4.88091E-06 1.06034E-05 0.00000E+00
 -1       723 4.86737E-06 8.97295E-06 0.00000E+00
 -1       724 4.85329E-06 7.02531E-06 4.13590E-25
 -1       725 4.83887E-06 4.92573E-06-2.06795E-25
 -1       726 4.82445E-06 2.84349E-06-4.13590E-25
 -1       727 4.81015E-06 9.47908E-07-4.13590E-25
 -1       728 4.79639E-06-5.96719E-07 0.00000E+00
 -1       729 4.78210E-06-1.62633E-06 0.00000E+00
 -1       730 4.76862E-06-1.99089E-06-3.30872E-24
 -1       731 8.98036E-07 5.62780E-07 1.03398E-25
 -1       732-8.59077E-07 5.93433E-07 2.06795E-25
 -1       733-9.94121E-07 6.25614E-07-8.27181E-25
 -1       734-2.14772E-07 6.57761E-07 0.00000E+00
 -1       735 8.38508E-07 6.89779E-07 0.00000E+00
 -1       736 1.66387E-06 8.98849E-06 0.00000E+00
 -1       737-4.14950E-06 2.38465E-05 0.00000E+00
 -1       738-1.16128E-05 4.28994E-05 0.00000E+00
 -1       739-1.98581E-05 6.39194E-05 0.00000E+00
 -1       740-2.78129E-05 8.42079E-05 3.30872E-24
 -1       741-3.44107E-05 1.01067E-04-1.65436E-24
 -1       742-3.89383E-05 1.12621E-04 0.00000E+00
 -1       743-4.07162E-05 1.17012E-04 0.00000E+00
 -1       744-3.97446E-05 1.14087E-04-3.30872E-24
 -1       745-3.60388E-05 1.03727E-04-1.65436E-24
 -1       746-3.02502E-05 8.75989E-05 0.00000E+00
 -1       747-2.30165E-05 6.74025E-05-1.65436E-24
 -1       748-1.52984E-05 4.58351E-05 0.00000E+00
 -1       749-8.05043E-06 2.56023E-05 0.00000E+00
 -1       750-2.12281E-06 9.08283E-06 0.00000E+00
 -1       751 5.07725E-06-8.47787E-07 0.00000E+00
 -1       752 5.42656E-06-4.82425E-07-3.30872E-24
 -1       753 5.77459E-06-3.21396E-07 0.00000E+00
 -1       754 6.12661E-06-2.44821E-07 0.00000E+00
 -1       755 6.47875E-06-2.20885E-07 1.32349E-23
 -1       756 6.83167E-06-2.18606E-07 6.61744E-24
 -1       757 7.18469E-06-2.29712E-07 0.00000E+00
 -1       758 7.53785E-06-2.46143E-07 6.61744E-24
 -1       759 7.89102E-06-2.65425E-07-1.32349E-23
 -1       760 8.24411E-06-2.85133E-07-6.61744E-24
 -1       761 8.59714E-06-3.03284E-07 0.00000E+00
 -1       762 8.94961E-06-3.17872E-07-6.61744E-24
 -1       763 9.30201E-06-3.23155E-07 6.61744E-24
 -1       764 9.65160E-06-3.13242E-07 0.00000E+00
 -1       765 1.00021E-05-2.66368E-07 6.61744E-24
 -1       766 3.16806E-06-1.51532E-06 0.00000E+00
 -1       767 1.77319E-07-1.48508E-06 2.06795E-25
 -1       768-2.86914E-06-1.45555E-06 0.00000E+00
 -1       769-4.61738E-06-1.42199E-06 1.03398E-25
 -1       770-3.60850E-06-1.38793E-06 0.00000E+00
 -1       771 4.23917E-06-8.67472E-07 6.61744E-24
 -1       772 3.77664E-06-3.28824E-07 0.00000E+00
 -1       773 3.35948E-06 8.74112E-08-6.61744E-24
 -1       774 2.98332E-06 3.93564E-07 0.00000E+00
 -1       775 2.64373E-06 6.01985E-07-6.61744E-24
 -1       776 2.33612E-06 7.25071E-07 3.30872E-24
 -1       777 2.05585E-06 7.75235E-07 0.00000E+00
 -1       778 1.79827E-06 7.64905E-07 3.30872E-24
 -1       779 1.55871E-06 7.06520E-07 0.00000E+00
 -1       780 1.33252E-06 6.12533E-07-3.30872E-24
 -1       781 1.11502E-06 4.95401E-07 0.00000E+00
 -1       782 9.01587E-07 3.67599E-07 0.00000E+00
 -1       783 6.87582E-07 2.41601E-07 0.00000E+00
 -1       784 4.68560E-07 1.29918E-07-3.30872E-24
 -1       785 2.40095E-07 4.50635E-08 6.61744E-24
 -1       786 1.03661E-05-3.97225E-08-2.06795E-25
 -1       787 1.03961E-05 5.36422E-08 4.13590E-25
 -1       788 1.04261E-05 1.24078E-07 8.27181E-25
 -1       789 1.04563E-05 1.75761E-07 0.00000E+00
 -1       790 1.04866E-05 2.12856E-07 0.00000E+00
 -1       791 1.05169E-05 2.39529E-07-4.13590E-25
 -1       792 1.05472E-05 2.59942E-07 0.00000E+00
 -1       793 1.05776E-05 2.78254E-07 0.00000E+00
 -1       794 1.06079E-05 2.98625E-07-8.27181E-25
 -1       795 1.06383E-05 3.25217E-07 4.13590E-25
 -1       796 1.06686E-05 3.62190E-07-8.27181E-25
 -1       797 1.06989E-05 4.13709E-07 0.00000E+00
 -1       798 1.07292E-05 4.83942E-07 0.00000E+00
 -1       799 1.07594E-05 5.77059E-07 0.00000E+00
 -1       800 1.07896E-05 6.97244E-07 0.00000E+00
 -1       801 9.42652E-06-1.31779E-07 0.00000E+00
 -1       802 7.52736E-06-1.02970E-07 0.00000E+00
 -1       803 5.13731E-06-7.52575E-08 5.16988E-26
 -1       804 2.75428E-06-4.84942E-08 0.00000E+00
 -1       805 8.76221E-07-2.07159E-08 0.00000E+00
 -1       806 1.02571E-05-5.22850E-08 0.00000E+00
 -1       807 1.01795E-05 4.35667E-08 0.00000E+00
 -1       808 1.01053E-05 1.29646E-07 1.65436E-24
 -1       809 1.00338E-05 2.08074E-07 0.00000E+00
 -1       810 9.96433E-06 2.80964E-07 0.00000E+00
 -1       811 9.89613E-06 3.50415E-07 0.00000E+00
 -1       812 9.82842E-06 4.18522E-07-8.27181E-25
 -1       813 9.76043E-06 4.87378E-07 0.00000E+00
 -1       814 9.69137E-06 5.59079E-07 8.27181E-25
 -1       815 9.62045E-06 6.35718E-07-4.13590E-25
 -1       816 9.54691E-06 7.19386E-07 0.00000E+00
 -1       817 9.46996E-06 8.12180E-07 0.00000E+00
 -1       818 9.38884E-06 9.16194E-07 4.13590E-25
 -1       819 9.30284E-06 1.03352E-06 2.06795E-25
 -1       820 9.21129E-06 1.16626E-06-8.27181E-25
 -1       821 1.07886E-05 1.04262E-06 2.06795E-25
 -1       822 1.07564E-05 1.28059E-06 4.13590E-25
 -1       823 1.07241E-05 1.55795E-06 8.27181E-25
 -1       824 1.06915E-05 1.87003E-06 4.13590E-25
 -1       825 1.06589E-05 2.21219E-06 0.00000E+00
 -1       826 1.06262E-05 2.57975E-06 0.00000E+00
 -1       827 1.05935E-05 2.96802E-06 8.27181E-25
 -1       828 1.05608E-05 3.37234E-06 4.13590E-25
 -1       829 1.05281E-05 3.78801E-06 8.27181E-25
 -1       830 1.04953E-05 4.21034E-06 4.13590E-25
 -1       831 1.04626E-05 4.63464E-06-8.27181E-25
 -1       832 1.04300E-05 5.05622E-06 4.13590E-25
 -1       833 1.03973E-05 5.47039E-06 8.27181E-25
 -1       834 1.03649E-05 5.87246E-06 0.00000E+00
 -1       835 1.03325E-05 6.25774E-06 0.00000E+00
 -1       836 1.05960E-05 9.25210E-07-1.65436E-24
 -1       837 1.03037E-05 1.00447E-06-8.27181E-25
 -1       838 9.97577E-06 1.08359E-06 0.00000E+00
 -1       839 9.64576E-06 1.16251E-06 8.27181E-25
 -1       840 9.34734E-06 1.24156E-06 8.27181E-25
 -1       841 1.07463E-05 1.04222E-06 2.06795E-25
 -1       842 1.06550E-05 1.28394E-06 2.58494E-26
 -1       843 1.05476E-05 1.56847E-06-2.58494E-26
 -1       844 1.04261E-05 1.89020E-06 0.00000E+00
 -1       845 1.02928E-05 2.24356E-06 0.00000E+00
 -1       846 1.01497E-05 2.62292E-06 0.00000E+00
 -1       847 9.99890E-06 3.02262E-06 0.00000E+00
 -1       848 9.84263E-06 3.43701E-06-1.29247E-26
 -1       849 9.68297E-06 3.86039E-06 2.58494E-26
 -1       850 9.52207E-06 4.28707E-06 0.00000E+00
 -1       851 9.36206E-06 4.71138E-06 0.00000E+00
 -1       852 9.20506E-06 5.12759E-06 0.00000E+00
 -1       853 9.05322E-06 5.53004E-06 1.03398E-25
 -1       854 8.90853E-06 5.91300E-06 1.03398E-25
 -1       855 8.77331E-06 6.27090E-06 4.13590E-25
 -1       856 1.02647E-05 7.01291E-06-4.13590E-25
 -1       857 1.02259E-05 7.47553E-06 0.00000E+00
 -1       858 1.01872E-05 8.00011E-06 0.00000E+00
 -1       859 1.01481E-05 8.57725E-06 0.00000E+00
 -1       860 1.01089E-05 9.19754E-06 8.27181E-25
 -1       861 1.00697E-05 9.85155E-06 0.00000E+00
 -1       862 1.00304E-05 1.05299E-05 8.27181E-25
 -1       863 9.99116E-06 1.12231E-05 0.00000E+00
 -1       864 9.95188E-06 1.19217E-05 0.00000E+00
 -1       865 9.91261E-06 1.26162E-05 8.27181E-25
 -1       866 9.87336E-06 1.32973E-05 0.00000E+00
 -1       867 9.83415E-06 1.39555E-05 0.00000E+00
 -1       868 9.79498E-06 1.45814E-05-8.27181E-25
 -1       869 9.75601E-06 1.51655E-05 0.00000E+00
 -1       870 9.71704E-06 1.56984E-05-8.27181E-25
 -1       871 9.99442E-06 6.61819E-06 0.00000E+00
 -1       872 9.71242E-06 6.61447E-06 0.00000E+00
 -1       873 9.44635E-06 6.61066E-06 0.00000E+00
 -1       874 9.18672E-06 6.60673E-06 1.03398E-25
 -1       875 8.92401E-06 6.60262E-06-2.06795E-25
 -1       876 1.02096E-05 7.02600E-06 8.27181E-25
 -1       877 1.00970E-05 7.49183E-06-8.27181E-25
 -1       878 9.96456E-06 8.01046E-06 1.65436E-24
 -1       879 9.81548E-06 8.57425E-06 0.00000E+00
 -1       880 9.65242E-06 9.17537E-06 0.00000E+00
 -1       881 9.47830E-06 9.80608E-06 0.00000E+00
 -1       882 9.29598E-06 1.04587E-05-1.65436E-24
 -1       883 9.10834E-06 1.11254E-05 8.27181E-25
 -1       884 8.91826E-06 1.17987E-05 0.00000E+00
 -1       885 8.72864E-06 1.24707E-05 8.27181E-25
 -1       886 8.54234E-06 1.31338E-05 0.00000E+00
 -1       887 8.36221E-06 1.37803E-05 0.00000E+00
 -1       888 8.19116E-06 1.44025E-05 1.65436E-24
 -1       889 8.03175E-06 1.49926E-05-8.27181E-25
 -1       890 7.88733E-06 1.55429E-05-8.27181E-25
 -1       891 9.30167E-06 1.61499E-05 0.00000E+00
 -1       892 8.99887E-06 1.61287E-05 0.00000E+00
 -1       893 8.73202E-06 1.61076E-05-4.13590E-25
 -1       894 8.46219E-06 1.60865E-05 0.00000E+00
 -1       895 8.15049E-06 1.60653E-05-4.13590E-25
 -1       896 9.48861E-08 5.42512E-07 0.00000E+00
 -1       897 1.90525E-07 9.42301E-07-1.65436E-24
 -1       898 2.86156E-07 1.23353E-06-3.30872E-24
 -1       899 3.81937E-07 1.44988E-06 0.00000E+00
 -1       900 4.77731E-07 1.60803E-06 3.30872E-24
 -1       901 5.73557E-07 1.72442E-06-1.65436E-24
 -1       902 6.69387E-07 1.80598E-06 0.00000E+00
 -1       903 7.65218E-07 1.85950E-06-1.65436E-24
 -1       904 8.61045E-07 1.88540E-06 0.00000E+00
 -1       905 9.56847E-07 1.88398E-06 0.00000E+00
 -1       906 1.05263E-06 1.84932E-06 3.30872E-24
 -1       907 1.14828E-06 1.77537E-06 0.00000E+00
 -1       908 1.24391E-06 1.64715E-06 0.00000E+00
 -1       909 1.33887E-06 1.44946E-06 0.00000E+00
 -1       910 1.43403E-06 1.15131E-06 0.00000E+00
 -1       911 1.53502E-06 6.28296E-07 0.00000E+00
 -1       912 1.54405E-06 1.33772E-06 0.00000E+00
 -1       913 1.55250E-06 2.67238E-06 0.00000E+00
 -1       914 1.56027E-06 4.45535E-06-1.03398E-25
 -1       915 1.56752E-06 6.51897E-06 0.00000E+00
 -1       916 1.57454E-06 8.69568E-06-1.03398E-25
 -1       917 1.58167E-06 1.08202E-05 2.06795E-25
 -1       918 1.58922E-06 1.27274E-05 1.03398E-25
 -1       919 1.59738E-06 1.42475E-05 2.06795E-25
 -1       920 1.60620E-06 1.52105E-05 0.00000E+00
 -1       921 1.61540E-06 1.54351E-05 0.00000E+00
 -1       922 1.62433E-06 1.47396E-05-1.03398E-25
 -1       923 1.63186E-06 1.29234E-05 1.03398E-25
 -1       924 1.63588E-06 9.78543E-06 0.00000E+00
 -1       925 1.63415E-06 5.09748E-06 4.13590E-25
 -1       926 1.50781E-06-8.82319E-06 0.00000E+00
 -1       927 1.39129E-06-1.64521E-05 0.00000E+00
 -1       928 1.27824E-06-2.36022E-05 3.30872E-24
 -1       929 1.17195E-06-2.96221E-05-1.65436E-24
 -1       930 1.07342E-06-3.40683E-05 0.00000E+00
 -1       931 9.81469E-07-3.65039E-05-1.65436E-24
 -1       932 8.92264E-07-3.68622E-05-3.30872E-24
 -1       933 8.01576E-07-3.50851E-05-1.65436E-24
 -1       934 7.06368E-07-3.15074E-05-3.30872E-24
 -1       935 6.05085E-07-2.64713E-05-1.65436E-24
 -1       936 4.99445E-07-2.05878E-05 0.00000E+00
 -1       937 3.92342E-07-1.44713E-05 0.00000E+00
 -1       938 2.87574E-07-8.77904E-06 3.30872E-24
 -1       939 1.87580E-07-4.16661E-06 0.00000E+00
 -1       940 9.33283E-08-1.09025E-06-3.30872E-24
 -1       941 5.40197E-07 8.91718E-08 0.00000E+00
 -1       942 1.11022E-06 1.68519E-07 0.00000E+00
 -1       943 1.67834E-06 2.42247E-07 0.00000E+00
 -1       944 2.25214E-06 3.14413E-07 0.00000E+00
 -1       945 2.82610E-06 3.85688E-07 0.00000E+00
 -1       946 3.40119E-06 4.56721E-07 6.61744E-24
 -1       947 3.97642E-06 5.27630E-07 0.00000E+00
 -1       948 4.55183E-06 5.98528E-07-6.61744E-24
 -1       949 5.12727E-06 6.69510E-07 0.00000E+00
 -1       950 5.70256E-06 7.40671E-07 6.61744E-24
 -1       951 6.27775E-06 8.12498E-07-1.32349E-23
 -1       952 6.85204E-06 8.85494E-07-6.61744E-24
 -1       953 7.42620E-06 9.62723E-07 0.00000E+00
 -1       954 7.99579E-06 1.04736E-06 6.61744E-24
 -1       955 8.56691E-06 1.15864E-06 0.00000E+00
 -1       956 9.08555E-06 1.52521E-06-6.20385E-25
 -1       957 9.05657E-06 1.76592E-06 3.10193E-25
 -1       958 9.02749E-06 2.03548E-06 4.13590E-25
 -1       959 8.99835E-06 2.33046E-06 4.13590E-25
 -1       960 8.96918E-06 2.64744E-06-8.27181E-25
 -1       961 8.94000E-06 2.98295E-06 2.06795E-25
 -1       962 8.91081E-06 3.33356E-06 0.00000E+00
 -1       963 8.88161E-06 3.69579E-06 4.13590E-25
 -1       964 8.85241E-06 4.06620E-06 0.00000E+00
 -1       965 8.82321E-06 4.44132E-06 4.13590E-25
 -1       966 8.79401E-06 4.81770E-06 8.27181E-25
 -1       967 8.76482E-06 5.19188E-06 4.13590E-25
 -1       968 8.73565E-06 5.56041E-06 0.00000E+00
 -1       969 8.70653E-06 5.91984E-06 4.13590E-25
 -1       970 8.67748E-06 6.26673E-06 0.00000E+00
 -1       971 8.59466E-06 6.95315E-06 0.00000E+00
 -1       972 8.53898E-06 7.38455E-06 0.00000E+00
 -1       973 8.48329E-06 7.88249E-06 0.00000E+00
 -1       974 8.42736E-06 8.43742E-06 8.27181E-25
 -1       975 8.37135E-06 9.03977E-06 1.65436E-24
 -1       976 8.31529E-06 9.67994E-06 0.00000E+00
 -1       977 8.25920E-06 1.03483E-05 0.00000E+00
 -1       978 8.20309E-06 1.10353E-05 0.00000E+00
 -1       979 8.14698E-06 1.17312E-05 0.00000E+00
 -1       980 8.09088E-06 1.24265E-05-8.27181E-25
 -1       981 8.03480E-06 1.31114E-05 0.00000E+00
 -1       982 7.97879E-06 1.37764E-05 8.27181E-25
 -1       983 7.92284E-06 1.44118E-05 1.65436E-24
 -1       984 7.86723E-06 1.50081E-05-8.27181E-25
 -1       985 7.81162E-06 1.55556E-05 0.00000E+00
 -3
    1PSTEP                        20          10           1          
  100CL  110 2.16770E-01         841                     0   10           1
 -4  STRESS      6    1
 -5  SXX         1    4    1    1
 -5  SYY         1    4    2    2
 -5  SZZ         1    4    3    3
 -5  SXY         1    4    1    2
 -5  SYZ         1    4    2    3
 -5  SZX         1    4    3    1
 -1         1-9.12854E+05-2.94514E+05-1.88868E+05-2.60480E+05-2.66785E-11 9.11920E-10
 -1         2-5.71143E+05-3.60946E+04 7.57494E+02-5.58158E+04-7.42659E-10-1.52113E-10
 -1         3-3.15482E+05-1.06572E+05-1.89140E+04-2.42605E+04 6.87663E-11 3.30260E-11
 -1         4-1.70502E+05-2.79583E+04 2.65846E+02-1.67004E+04-4.70557E-11-6.74042E-10
 -1         5-9.12172E+04 3.53861E+04-4.10190E+04-1.81109E+03 3.23826E-09 5.48397E-10
 -1         8-4.94080E+05-1.96169E+05-7.50139E+04-1.78973E+05-1.20963E-10 1.36424E-09
 -1         9-5.14429E+05-1.19666E+05-6.29675E+04-1.17498E+05-1.87053E-10-1.43700E-10
 -1        10-2.10898E+05-1.24426E+05-4.58242E+03-4.89242E+04-1.40426E-09-1.15961E-10
 -1        11-1.66605E+05-4.31031E+04 2.37800E+02-3.52655E+04 1.42222E-10-7.42659E-11
 -1        12-1.09544E+05 2.58141E+04-4.62462E+04-1.44369E+04 1.07497E-09-1.68447E-10
 -1        15 3.56318E+03-2.00293E+04 1.17716E+03-3.59344E+04-2.36923E-10 1.96633E-09
 -1        16-2.90752E+05-3.64786E+04 2.00814E+04-1.30397E+05 9.62549E-11 1.49024E-09
 -1        17-1.75940E+05-1.14445E+05-1.88167E+04-9.59815E+04-1.32483E-09 7.20926E-10
 -1        18-3.96314E+04-2.72312E+04-1.99168E+04-3.54699E+04 2.29511E-09-6.57868E-10
 -1        19-2.27722E+04 1.89208E+04-1.82815E+04-1.46451E+04-2.53825E-10 1.02318E-10
 -1        20 2.88999E+04-2.17590E+04-3.75672E+03 1.57458E+04 9.62473E-10-6.94854E-10
 -1        21 4.51746E+02-4.33091E+04 1.20238E+04 9.51505E+00 3.00298E-09-1.13923E-09
 -1        22 9.98766E+03 5.28305E+04 4.11358E+02-1.60841E+04-3.34921E-10-7.32143E-11
 -1        23-7.95380E+04 2.73540E+04 3.04316E+03-3.09621E+04-1.68067E-09-1.56403E-09
 -1        24-7.94862E+04-1.42754E+03 7.77129E+04-1.40859E+05-4.45743E-09 9.27078E-10
 -1        25 1.71206E+05 5.58729E+04 5.21332E+04-8.61218E+04 3.36892E-10-1.51886E-10
 -1        26 8.09290E+02 4.58259E+04 2.29779E+03-8.27185E+03-2.37283E-10-2.21159E-10
 -1        27-9.97560E+03-1.81804E+04-7.83366E+03 2.20220E+04 4.96433E-10-1.30058E-09
 -1        28-3.46796E+03-3.44030E+04-1.88251E+02 1.66222E+04-1.38783E-09-1.28707E-09
 -1        29 1.32085E+05 9.53772E+04 4.15285E+02-1.00678E+03 3.19019E-10 1.11640E-10
 -1        30 1.87574E+04 1.42285E+04 5.78064E+02-1.35130E+04-6.24788E-10 2.41016E-11
 -1        31-9.83475E+04 1.16161E+04 3.97019E+03-2.90982E+04 2.77923E-09-9.89894E-09
 -1        32 2.67031E+05 1.40738E+05 1.75152E+05-1.41121E+05 2.52412E-09 9.80435E-10
 -1        33 4.02388E+05 1.59519E+05 1.22998E+05-1.22846E+04-8.20541E-09-6.79847E-11
 -1        34-5.81747E+04-7.27033E+03-1.28184E+03 1.27981E+04 3.71562E-10-7.02585E-11
 -1        35-9.83666E+03-1.15101E+04-2.04271E+02 2.48813E+04 8.12458E-10-1.35818E-10
 -1        36-1.22314E+06 3.73300E+04-8.62776E+04 8.23043E-08-4.65149E-10-1.47338E-09
 -1        37-1.26050E+06-4.32123E+04-6.10596E+04 5.31388E-08-3.97506E-10-8.00355E-10
 -1        38-1.23756E+06 5.85145E+03-2.23287E+04 2.52872E-08 6.21374E-10-3.41606E-09
 -1        39-1.24367E+06-6.77138E+03-1.40421E+04-1.34193E-07 6.89081E-10-7.03494E-10
 -1        40-1.23994E+06 9.15231E+02-5.73623E+03-8.18848E-08-8.02326E-10 1.47293E-09
 -1        41-1.24090E+06-1.07134E+03-3.42011E+03-5.20207E-08-8.04661E-10 1.29467E-09
 -1        42-1.24033E+06 1.55486E+02-1.66233E+03 7.82705E-09 1.61731E-10-1.08133E-09
 -1        43-1.24048E+06-2.68550E+02-1.29866E+03-1.10288E-07-7.08992E-11-2.83538E-09
 -1        44-1.24035E+06 1.12953E+02-1.28163E+03-5.68953E-08 9.31704E-11-1.25712E-09
 -1        45-1.24070E+06-7.05639E+02-2.31787E+03-2.04443E-07-1.45224E-09 4.26780E-10
 -1        46-1.24011E+06 5.92280E+02-3.75239E+03 2.60642E-09 9.97309E-11 1.73873E-09
 -1        47-1.24248E+06-4.37007E+03-9.08516E+03-6.79253E-08-1.91317E-09-1.31877E-10
 -1        48-1.23858E+06 3.77473E+03-1.44166E+04 6.94186E-10-9.88444E-12 4.46562E-10
 -1        49-1.25333E+06-2.78747E+04-3.93934E+04 9.17956E-08-1.06791E-09 2.02044E-09
 -1        50-1.22928E+06 2.40791E+04-5.56638E+04-3.43660E-08-3.09441E-09 3.13958E-09
 -1        51 1.00945E+04-1.21051E+05 1.60265E+04-3.16498E+05 5.82077E-11-1.15906E-08
 -1        52 4.11179E+03-1.18922E+05 9.64173E+03-3.48378E+05-4.18368E-11-2.16314E-08
 -1        53 2.31694E+03-1.21227E+05 7.77628E+03-3.15698E+05-4.91127E-11-1.64655E-08
 -1        54 5.71541E+03-1.19406E+05 1.18039E+04-3.49259E+05 5.45697E-11-1.85973E-08
 -1        55 1.45505E+04-1.22938E+05 2.14539E+04-3.15584E+05-8.00355E-11-1.10740E-08
 -1        56-1.39165E+06-1.57236E+05-1.14632E+05-5.38454E+05 6.11180E-10 2.10275E-09
 -1        57-1.44549E+06-2.50478E+05-7.68822E+04-5.25029E+05 9.04947E-11 1.81899E-09
 -1        58-1.41382E+06-1.93471E+05-2.70097E+04-5.32326E+05-1.31422E-10-1.60981E-09
 -1        59-1.41995E+06-2.07784E+05-1.60124E+04-5.32399E+05 3.15481E-10-1.24828E-10
 -1        60-1.41695E+06-1.98494E+05-6.31875E+03-5.31602E+05 5.33078E-10-6.55291E-10
 -1        61-1.41641E+06-2.01823E+05-3.57647E+03-5.33177E+05-1.62686E-10-8.31790E-10
 -1        62-1.41731E+06-1.99253E+05-1.74493E+03-5.31610E+05-4.94595E-10-4.89962E-10
 -1        63-1.41616E+06-2.00923E+05-1.46152E+03-5.33039E+05-2.41968E-10-1.58084E-09
 -1        64-1.41720E+06-1.99376E+05-1.70029E+03-5.31746E+05-9.70743E-11 8.52594E-10
 -1        65-1.41686E+06-2.01313E+05-3.44456E+03-5.32638E+05-2.06910E-10-2.10139E-09
 -1        66-1.41661E+06-1.98881E+05-6.06887E+03-5.32004E+05 1.41597E-10 1.76647E-09
 -1        67-1.42069E+06-2.06588E+05-1.53661E+04-5.31383E+05 9.69180E-11 4.42469E-10
 -1        68-1.41340E+06-1.94273E+05-2.59175E+04-5.32941E+05 4.54747E-11 3.27418E-11
 -1        69-1.44558E+06-2.47165E+05-7.37670E+04-5.23868E+05 3.86535E-10-4.10182E-10
 -1        70-1.39196E+06-1.59683E+05-1.09991E+05-5.39021E+05-3.72893E-10-4.43833E-10
 -1        71-5.87579E+05-9.17775E+02 2.12152E+03 7.44532E-08-1.54162E-10-1.49396E-09
 -1        72-5.86605E+05 1.06236E+03 1.49876E+03-1.35402E-07 1.81538E-10 8.15135E-11
 -1        73-5.87224E+05-1.43743E+02 5.43198E+02 2.85758E-08 1.18203E-10-1.76811E-10
 -1        74-5.87019E+05 1.65449E+02 3.32336E+02 1.44640E-07-7.67026E-11-1.07031E-09
 -1        75-5.87165E+05-2.15868E+01 1.15938E+02 4.42549E-08-5.39981E-10-3.48088E-10
 -1        76-5.87092E+05 1.93163E+01 3.01782E+01-1.82357E-08-6.98504E-10 1.52669E-09
 -1        77-5.87152E+05 2.28555E+00-6.02624E+01-5.54923E-08 1.91853E-10 1.71173E-09
 -1        78-5.87125E+05-3.94024E+01-1.90789E+02 5.27632E-08 7.58149E-10 1.96900E-09
 -1        79-5.87132E+05 3.71005E+01-3.72254E+02 2.27051E-07-6.66506E-10-1.16529E-11
 -1        80-5.87253E+05-2.80039E+02-8.72882E+02-8.45317E-08-1.22519E-10 7.92369E-10
 -1        81-5.87024E+05 2.42769E+02-1.50942E+03-8.74055E-08-8.54913E-10 1.45405E-10
 -1        82-5.87994E+05-1.80010E+03-3.72759E+03 6.23700E-08-4.13797E-10-6.80529E-10
 -1        83-5.86392E+05 1.55606E+03-5.93771E+03 4.09335E-09-5.65163E-10-4.61569E-11
 -1        84-5.92468E+05-1.14918E+04-1.62411E+04-2.91848E-08-4.28143E-10-2.88310E-10
 -1        85-5.82555E+05 9.92691E+03-2.29555E+04-3.25419E-09-1.17700E-09-2.50111E-10
 -1        86-2.72078E+04 7.94605E+04 6.39341E+04 3.23513E+02-2.18279E-11-1.04229E-09
 -1        87 3.38909E+04 1.08054E+05 4.94550E+04-1.35395E+03-1.29148E-10-4.44684E-11
 -1        88-6.65502E+03 8.88641E+04 2.51036E+04 2.31168E+02-2.91948E-10-3.38462E-10
 -1        89 2.29618E+04 1.02966E+05 3.52094E+04-1.24795E+03-8.93579E-11-3.96713E-10
 -1        90-1.62876E+04 8.45447E+04 3.94350E+04 2.17527E+02-3.58341E-10-2.03246E-10
 -1        91-6.09360E+05-8.33349E+04-7.24561E+03-2.30386E+05 8.18545E-12-4.95220E-10
 -1        92-6.14708E+05-8.82906E+04-5.01423E+03-2.27166E+05 1.38959E-09-5.11079E-10
 -1        93-6.10501E+05-8.62142E+04-1.69902E+03-2.30213E+05 6.83059E-10 7.58632E-10
 -1        94-6.12772E+05-8.54794E+04-1.05515E+03-2.27957E+05-1.22287E-09 1.66487E-09
 -1        95-6.11294E+05-8.61444E+04-4.27728E+02-2.29595E+05 2.07649E-10-5.60874E-10
 -1        96-6.11199E+05-8.62582E+04-2.50709E+02-2.29461E+05 2.33162E-09-1.33014E-09
 -1        97-6.12072E+05-8.54360E+04-1.92255E+02-2.28707E+05 5.51992E-10 1.20636E-09
 -1        98-6.10246E+05-8.72548E+04-2.60120E+02-2.30640E+05 4.71413E-10 2.94729E-09
 -1        99-6.12249E+05-8.51463E+04-4.22178E+02-2.28418E+05-8.61888E-11 2.23721E-10
 -1       100-6.10704E+05-8.72854E+04-1.00835E+03-2.30253E+05 1.11568E-09 7.56543E-10
 -1       101-6.11614E+05-8.54062E+04-1.76896E+03-2.29093E+05-1.45320E-10-4.25189E-11
 -1       102-6.13194E+05-8.81032E+04-4.69716E+03-2.28391E+05 8.29345E-11 6.41535E-10
 -1       103-6.09760E+05-8.43308E+04-7.56218E+03-2.30279E+05-6.40284E-10-5.27962E-10
 -1       104-6.21859E+05-1.00599E+05-2.23784E+04-2.24800E+05-6.05951E-11-5.90262E-10
 -1       105-6.02958E+05-7.29178E+04-3.22444E+04-2.32685E+05-6.30735E-10-2.80124E-10
 -1       106-3.62630E+05 1.36538E+03-3.15856E+03-6.41227E-08 2.70973E-10-8.36053E-10
 -1       107-3.63968E+05-1.58073E+03-2.23592E+03 6.55164E-08-3.73665E-10 1.19627E-10
 -1       108-3.63157E+05 2.14106E+02-8.20632E+02-7.09653E-09-9.55005E-11-9.59517E-11
 -1       109-3.63353E+05-2.48231E+02-5.20788E+02-1.11451E-07 3.39021E-11-2.04338E-09
 -1       110-3.63244E+05 3.39483E+01-2.22985E+02-1.15276E-08 1.33655E-10 7.44834E-10
 -1       111-3.63254E+05-4.27772E+01-1.52845E+02 9.44663E-08 2.90316E-10 4.97664E-10
 -1       112-3.63257E+05 8.80535E+00-1.12584E+02 1.04441E-07 1.89589E-10 1.83636E-10
 -1       113-3.63250E+05-3.33019E+01-1.61319E+02 8.18119E-08 3.39157E-10 2.68395E-09
 -1       114-3.63247E+05 2.44828E+01-2.53125E+02-2.04541E-08-3.38984E-10-1.10440E-09
 -1       115-3.63326E+05-1.77575E+02-5.59611E+02 5.61527E-08-7.64820E-10-1.82614E-09
 -1       116-3.63181E+05 1.52986E+02-9.55097E+02 5.39536E-08-4.12599E-10-1.59048E-10
 -1       117-3.63792E+05-1.13331E+03-2.34930E+03-8.82972E-08-1.73144E-10 5.59226E-10
 -1       118-3.62782E+05 9.79513E+02-3.73950E+03-8.85411E-08-6.41112E-10-6.92580E-10
 -1       119-3.66608E+05-7.23378E+03-1.02248E+04-4.20843E-08 4.91669E-10 4.09727E-10
 -1       120-3.60367E+05 6.24868E+03-1.44513E+04-1.39151E-08-8.36072E-11 1.25874E-09
 -1       121-5.07207E+02-3.02501E+05 2.38433E+03 4.63889E+03-4.83169E-11-1.36424E-10
 -1       122 7.33012E+02-3.01613E+05 1.61346E+03 1.65931E+04-1.27727E-10 1.28807E-09
 -1       123-7.54472E+01-3.02165E+05 8.39697E+02 4.65644E+03-2.97575E-10-1.45747E-10
 -1       124 3.48623E+02-3.01822E+05 9.27310E+02 1.65107E+04-6.13454E-10-2.84547E-09
 -1       125-2.24922E+02-3.02265E+05 1.07174E+03 4.72140E+03-7.58178E-10-1.34810E-09
 -1       126-3.06317E+05-4.22027E+04-1.86413E+03-1.14992E+05-5.31060E-10 5.91399E-10
 -1       127-3.06657E+05-4.44664E+04-1.28555E+03-1.15295E+05 2.71378E-10-1.53364E-10
 -1       128-3.06835E+05-4.27085E+04-4.37820E+02-1.14679E+05-3.00574E-10 4.88996E-10
 -1       129-3.06085E+05-4.38456E+04-2.74437E+02-1.15616E+05-2.85935E-10-1.50298E-10
 -1       130-3.06889E+05-4.28227E+04-1.09367E+02-1.14671E+05-8.86757E-10 1.03514E-09
 -1       131-3.06179E+05-4.35440E+04-7.06417E+01-1.15426E+05 2.43129E-09 2.42529E-10
 -1       132-3.06741E+05-4.30103E+04-6.06291E+01-1.14869E+05-3.72342E-10 1.14853E-09
 -1       133-3.06573E+05-4.31340E+04-8.37511E+01-1.14956E+05 5.54418E-10-6.00764E-10
 -1       134-3.06495E+05-4.32330E+04-1.54389E+02-1.15141E+05-1.30683E-09 4.13507E-10
 -1       135-3.07063E+05-4.28511E+04-3.63383E+02-1.14481E+05-3.33798E-08 1.25561E-08
 -1       136-3.06251E+05-4.32930E+04-6.32671E+02-1.15344E+05-1.13383E-05 4.25738E-06
 -1       137-3.07693E+05-4.34471E+04-1.70105E+03-1.14157E+05-2.26202E-05 8.49977E-06
 -1       138-3.05866E+05-4.26372E+04-2.72528E+03-1.15465E+05-1.13394E-05 4.25704E-06
 -1       139-3.10270E+05-4.84475E+04-8.06661E+03-1.13425E+05-3.17884E-08 1.27047E-08
 -1       140-3.03675E+05-3.82961E+04-1.16327E+04-1.16075E+05-9.22682E-10 1.89948E-09
 -1       141-1.72720E+05-1.05418E+03 2.43700E+03 3.97366E-08 2.34142E-10-7.77050E-10
 -1       142-1.71647E+05 1.22023E+03 1.72154E+03-1.93077E-08 2.97590E-10-1.08912E-10
 -1       143-1.72313E+05-1.65095E+02 6.23623E+02-6.20046E-08 1.19606E-10-3.37650E-10
 -1       144-1.72123E+05 1.89952E+02 3.80749E+02-8.16597E-08 9.74623E-11 5.92394E-10
 -1       145-1.72245E+05-2.47183E+01 1.31102E+02 8.83731E-09-1.42058E-10 1.10204E-09
 -1       146-1.72206E+05 2.15961E+01 3.01084E+01 1.95868E-08-8.33322E-11 4.41968E-10
 -1       147-1.72229E+05 3.13924E+00-7.78227E+01 5.10079E-08-2.89562E-10 8.70948E-10
 -1       148-1.72247E+05-4.91314E+01-2.38087E+02-4.05516E-08-3.27671E-11-1.64238E-10
 -1       149-1.72204E+05 4.59714E+01-4.61924E+02 2.33656E-08-6.36703E-11-8.90452E-11
 -1       150-1.72404E+05-3.46688E+02-1.08151E+03 3.90702E-08-4.34315E-11-1.36808E-10
 -1       151-1.72072E+05 3.00510E+02-1.86960E+03 5.73220E-08-4.07379E-11-1.94746E-10
 -1       152-1.73321E+05-2.22815E+03-4.61575E+03-2.55774E-08 2.75290E-11-1.52056E-10
 -1       153-1.71287E+05 1.92606E+03-7.35223E+03-1.06684E-08 8.07969E-10 3.57431E-10
 -1       154-1.78858E+05-1.42244E+04-2.01061E+04-9.24190E-08 2.67558E-10-1.44610E-10
 -1       155-1.66536E+05 1.22874E+04-2.84164E+04-5.77089E-08 2.00228E-09 8.84029E-10
 -1       156-5.62994E+03-5.83213E+04 1.34068E+04-5.59160E+00 1.81444E-10 2.62720E-05
 -1       157 7.42245E+03-5.22075E+04 1.10909E+04 2.27485E+01 7.24299E-10 5.23886E-05
 -1       158-1.78668E+03-5.65794E+04 6.73844E+03-3.42393E+00 1.38556E-09 5.78964E-05
 -1       159 7.83863E+03-5.20152E+04 1.16332E+04 1.78886E+01 2.10639E-09 6.31343E-05
 -1       160-6.04578E+03-5.85135E+04 1.43400E+04-7.31672E-01 1.46156E-09 3.16763E-05
 -1       161-1.78814E+05-2.49878E+04-3.54863E+02-6.70906E+04 9.23726E-06-3.46349E-06
 -1       162-1.78904E+05-2.53909E+04-2.47788E+02-6.71142E+04 1.83854E-05-6.89452E-06
 -1       163-1.78894E+05-2.51062E+04-8.72563E+01-6.70564E+04 3.55836E-06-1.33389E-06
 -1       164-1.78816E+05-2.52501E+04-6.15590E+01-6.71481E+04-1.12909E-05 4.23254E-06
 -1       165-1.78902E+05-2.51286E+04-3.83598E+01-6.70567E+04-5.67161E-06 2.12660E-06
 -1       166-1.78824E+05-2.52179E+04-5.52941E+01-6.71327E+04-1.66519E-08 6.83505E-09
 -1       167-1.78887E+05-2.51383E+04-8.84116E+01-6.70718E+04 5.35185E-10 8.28820E-10
 -1       168-1.78883E+05-2.52307E+04-2.03545E+02-6.70909E+04-1.84152E-10 1.70677E-09
 -1       169-1.78843E+05-2.51159E+04-3.68264E+02-6.70985E+04-2.79670E-11 6.22379E-10
 -1       170-1.79105E+05-2.54962E+04-9.25104E+02-6.69992E+04 9.41583E-10-8.61988E-10
 -1       171-1.78665E+05-2.48729E+04-1.59794E+03-6.71636E+04-6.47674E-10 1.57968E-10
 -1       172-1.80267E+05-2.73943E+04-4.30856E+03-6.66196E+04-7.73056E-09 2.37088E-09
 -1       173-1.77681E+05-2.32190E+04-6.89818E+03-6.74777E+04-3.00979E-06 1.12852E-06
 -1       174-1.87262E+05-3.96484E+04-2.04391E+04-6.43025E+04-6.00144E-06 2.25316E-06
 -1       175-1.71672E+05-1.26267E+04-2.94368E+04-6.94781E+04-3.01374E-06 1.13013E-06
 -1       191 3.27406E+02 1.53901E+05 5.23695E+02-3.46146E+03-1.97815E-10 5.68889E-10
 -1       192 1.21545E+02 1.53972E+05 3.14070E+02-3.68806E+03-2.69495E-10 3.70164E-10
 -1       193 5.89086E+01 1.53926E+05 2.54462E+02-3.39545E+03-5.08237E-10 2.51930E-10
 -1       194 1.62045E+02 1.53984E+05 3.87109E+02-3.81260E+03-6.11635E-10-2.54659E-10
 -1       195 4.53146E+02 1.53885E+05 7.05409E+02-3.33677E+03-7.99901E-10 9.78616E-10
 -1       251-8.12788E+05 1.92216E+04-4.48870E+04-5.67676E+03-1.70559E-10 5.36602E-10
 -1       252-8.29666E+05-2.22850E+04-3.13176E+04 1.41069E+04 4.84088E-10 1.14414E-09
 -1       253-8.19804E+05 3.07675E+03-1.16658E+04-6.30857E+03 1.48788E-10-1.82217E-09
 -1       254-8.18937E+05-3.38508E+03-6.58149E+03 7.87292E+03-1.17586E-09 2.29386E-09
 -1       255-8.23443E+05 2.74812E+02-3.59289E+03 5.57332E+02-6.94911E-10-1.42222E-10
 -1       256-8.17435E+05-4.26568E+02-1.09222E+03-6.01112E+03-3.00346E-10-1.42001E-09
 -1       257-8.21299E+05 1.17464E+02-1.03999E+03 7.57548E+03-8.01407E-10-6.73083E-10
 -1       258-8.19443E+05-1.83943E+02-5.62701E+02-1.27281E+04 4.31747E-10-2.04423E-09
 -1       259-8.21500E+05 9.66600E+01-1.07771E+03 7.27467E+03-8.61775E-10-1.01221E-09
 -1       260-8.17251E+05-4.10841E+02-1.04152E+03-5.12764E+03-1.68986E-09-8.33069E-10
 -1       261-8.23421E+05 2.74633E+02-3.56435E+03-2.53565E+01 1.24771E-10 1.85207E-09
 -1       262-8.19124E+05-3.37254E+03-6.56611E+03 8.69784E+03 5.17517E-10-8.46967E-11
 -1       263-8.19645E+05 3.07036E+03-1.15374E+04-6.55080E+03-7.43157E-10-1.70394E-09
 -1       264-8.29532E+05-2.20994E+04-3.10534E+04 1.39880E+04-7.35736E-09 1.81171E-09
 -1       265-8.13079E+05 1.90408E+04-4.45763E+04-5.31562E+03-4.36108E-09 9.85892E-10
 -1       266-7.21379E+03-1.28105E+05 1.64012E+04-6.39600E+00 9.09495E-13-1.90781E-10
 -1       267 7.74848E+03-1.21009E+05 1.05333E+04 6.25024E+02-1.13687E-12-1.44646E-09
 -1       268-5.31186E+02-1.25045E+05 1.98015E+03 1.86541E+02-9.09495E-12-2.02984E-09
 -1       269-3.22664E+03-1.26065E+05-3.76724E+03 2.19100E+02 9.66338E-12-2.39538E-10
 -1       270 3.75220E+03-1.23050E+05-8.21665E+03 3.99519E+02 3.36513E-11 2.31282E-09
 -1       271-1.16790E+06-1.48423E+05-9.03589E+04-4.51471E+05-5.09317E-11-1.15688E-09
 -1       272-1.19672E+06-2.07690E+05-5.66497E+04-4.54857E+05 1.04535E-10-1.01863E-10
 -1       273-1.18344E+06-1.67894E+05-2.13115E+04-4.49327E+05-5.29752E-10-2.17187E-09
 -1       274-1.17873E+06-1.81948E+05-1.16349E+04-4.58933E+05-9.45988E-10-4.10273E-09
 -1       275-1.18529E+06-1.69817E+05-4.95468E+03-4.49040E+05-7.95808E-12 4.99995E-10
 -1       276-1.17658E+06-1.79494E+05-2.61327E+03-4.59464E+05 1.03500E-09 2.14152E-09
 -1       277-1.18557E+06-1.69958E+05-1.34271E+03-4.48954E+05 8.12292E-10 3.20131E-09
 -1       278-1.17628E+06-1.79339E+05-1.04713E+03-4.59592E+05 4.93685E-11 3.20320E-10
 -1       279-1.18560E+06-1.69939E+05-1.24878E+03-4.48931E+05-6.86313E-11-3.12070E-11
 -1       280-1.17648E+06-1.79540E+05-2.35720E+03-4.59564E+05-2.29193E-10-7.32086E-10
 -1       281-1.18538E+06-1.69779E+05-4.42920E+03-4.48973E+05-6.78256E-10-2.36241E-10
 -1       282-1.17835E+06-1.81783E+05-1.03858E+04-4.59158E+05-2.45564E-11-1.93495E-10
 -1       283-1.18376E+06-1.68040E+05-1.90106E+04-4.49202E+05-5.99414E-10-2.12640E-09
 -1       284-1.19435E+06-2.04792E+05-5.05358E+04-4.55579E+05 5.54792E-11 1.96815E-09
 -1       285-1.16991E+06-1.50648E+05-8.06031E+04-4.51090E+05-5.09317E-11 1.77533E-09
 -1       286-1.43012E+05-6.87157E+03 1.58900E+04-9.16584E+01 6.74614E-10 5.90262E-10
 -1       287-1.36055E+05 7.95517E+03 1.12511E+04-6.90126E+01 1.79922E-10-9.22796E-10
 -1       288-1.40355E+05-1.07760E+03 4.11258E+03 2.09060E+01 9.18021E-11-6.52562E-11
 -1       289-1.39157E+05 1.24706E+03 2.59468E+03-2.82505E+02 4.20671E-10-2.18981E-09
 -1       290-1.39911E+05-1.68824E+02 1.06102E+03 1.21840E+02 2.80917E-10-1.02489E-09
 -1       291-1.39680E+05 1.98702E+02 6.43748E+02-4.48916E+02 4.26802E-10 1.57669E-09
 -1       292-1.39833E+05-2.97637E+01 3.27231E+02 1.87319E+02 4.80281E-10 1.34430E-09
 -1       293-1.39762E+05 5.87877E+01 2.85868E+02-5.30248E+02 6.68938E-11 1.97069E-09
 -1       294-1.39830E+05-2.88340E+01 3.19968E+02 2.03174E+02 4.16710E-10 7.13172E-11
 -1       295-1.39691E+05 1.91236E+02 6.20312E+02-5.08934E+02 8.75722E-11-1.43699E-09
 -1       296-1.39903E+05-1.62169E+02 1.02200E+03 1.66005E+02 5.10029E-10-2.81659E-10
 -1       297-1.39189E+05 1.19870E+03 2.49354E+03-3.89666E+02 6.19735E-10 3.43448E-10
 -1       298-1.40332E+05-1.03578E+03 3.95418E+03 8.39046E+01 2.99952E-10-2.00998E-10
 -1       299-1.36201E+05 7.64726E+03 1.08154E+04-1.99873E+02 3.25670E-10 3.87558E-10
 -1       300-1.42889E+05-6.60568E+03 1.52745E+04-2.37931E+01 3.20842E-10-4.42014E-10
 -1       301 1.59590E+04 4.70279E+03 3.58316E+04-1.16091E+04-2.14641E-10-7.28704E-10
 -1       302 5.40458E+03 1.14729E+04 2.20185E+04-1.36632E+04-2.63526E-10-1.11458E-09
 -1       303 1.48547E+03 7.10729E+03 1.77160E+04-1.16078E+04-3.09456E-10 5.68434E-13
 -1       304 7.04356E+03 1.24607E+04 2.64648E+04-1.36511E+04-4.70664E-10 2.23423E-09
 -1       305 2.12545E+04 3.71793E+03 4.65999E+04-1.16175E+04-3.03771E-10 2.55454E-09
 -1       306-7.74704E+05-1.01904E+05-5.02997E+04-3.00349E+05-1.54614E-11-2.43745E-10
 -1       307-7.85559E+05-1.40005E+05-3.15250E+04-3.08123E+05-1.37106E-10 1.89175E-10
 -1       308-7.83387E+05-1.12693E+05-1.18674E+04-2.99124E+05 5.13865E-11 3.18323E-10
 -1       309-7.75538E+05-1.25719E+05-6.48108E+03-3.10446E+05-3.04681E-10-1.56251E-09
 -1       310-7.84423E+05-1.13753E+05-2.76902E+03-2.98961E+05 7.48287E-10 1.19826E-09
 -1       311-7.74350E+05-1.24351E+05-1.47684E+03-3.10746E+05 9.62928E-11-1.26326E-09
 -1       312-7.84574E+05-1.13836E+05-7.92564E+02-2.98921E+05 6.76607E-10 1.41043E-09
 -1       313-7.74214E+05-1.24247E+05-6.81540E+02-3.10792E+05 5.86737E-10 1.56885E-09
 -1       314-7.84566E+05-1.13838E+05-8.94987E+02-2.98925E+05-1.79796E-10-9.75888E-10
 -1       315-7.74398E+05-1.24370E+05-1.75846E+03-3.10724E+05-3.78066E-10-4.99313E-10
 -1       316-7.84379E+05-1.13737E+05-3.34191E+03-2.98974E+05 1.83036E-10 8.11497E-10
 -1       317-7.75839E+05-1.26036E+05-7.85135E+03-3.10369E+05 3.33102E-11 6.64841E-10
 -1       318-7.83130E+05-1.12443E+05-1.43835E+04-2.99164E+05-5.18298E-10-1.77261E-09
 -1       319-7.87967E+05-1.43385E+05-3.82203E+04-3.07590E+05-5.93673E-10-1.95041E-09
 -1       320-7.72622E+05-9.93373E+04-6.09758E+04-3.00625E+05-6.16637E-10-8.44011E-10
 -1       321-2.26098E+05-3.36601E+03 7.78556E+03-2.01116E+02-4.11966E-10 1.08230E-10
 -1       322-2.22695E+05 3.89689E+03 5.50840E+03 2.87406E+02-1.05806E-09 4.72937E-10
 -1       323-2.24799E+05-5.27737E+02 2.01342E+03-1.51356E+02-2.49518E-10-4.57021E-10
 -1       324-2.24207E+05 6.10614E+02 1.26568E+03 1.43904E+02 5.11484E-10 3.86379E-10
 -1       325-2.24587E+05-8.25154E+01 5.10531E+02-5.76108E+01-5.33671E-11-1.22927E-09
 -1       326-2.24456E+05 9.50756E+01 2.97025E+02-5.56529E+01-1.36389E-11-5.35550E-10
 -1       327-2.24550E+05-1.26205E+01 1.23372E+02 4.82045E+01 3.19922E-10 6.29385E-10
 -1       328-2.24503E+05 1.25572E+01 6.15337E+01-2.43964E+02-2.85606E-10 1.36171E-09
 -1       329-2.24539E+05 2.36178E-02 1.20975E+01 1.30704E+02-4.39271E-10 1.25968E-09
 -1       330-2.24522E+05-1.25133E+01-2.84824E+01-3.58091E+02-3.84961E-10 5.13815E-10
 -1       331-2.24531E+05 1.25316E+01-7.11765E+01 1.62334E+02-3.14170E-10-3.30033E-10
 -1       332-2.24562E+05-9.40493E+01-1.91094E+02-3.59893E+02-1.05806E-09 4.62173E-10
 -1       333-2.24499E+05 8.15019E+01-3.09774E+02 1.32505E+02-2.94020E-10 1.10610E-09
 -1       334-2.24792E+05-6.01988E+02-8.49384E+02-2.48703E+02 4.50686E-10 3.43334E-11
 -1       335-2.24301E+05 5.19973E+02-1.20441E+03 5.11426E+01-2.36673E-10 7.15090E-10
 -1       336 7.81829E+00-3.11951E+05-4.66573E+02-5.67025E+03-1.27295E-09 3.08114E-09
 -1       337-2.59394E+02-3.12159E+05-1.39547E+03-2.06179E+04-2.38254E-09 3.63070E-09
 -1       338 2.34256E+02-3.11769E+05-2.68829E+03-5.61111E+03-1.54637E-09 3.42686E-09
 -1       339-3.17903E+03-3.13951E+05-6.71727E+03-2.06766E+04-2.72121E-09 2.23554E-09
 -1       340 2.29819E+03-3.10184E+05-1.05965E+04-5.61203E+03-1.49021E-09 1.41321E-09
 -1       341-3.35281E+05-5.34461E+04-9.89989E+03-1.32186E+05 2.10812E-08 4.37569E-09
 -1       342-3.03213E+05-2.51179E+04 3.98862E+03-9.13030E+04 1.06476E-08 3.86024E-10
 -1       343-3.08339E+05-5.47431E+04-1.65248E+03-1.31645E+05-1.70537E-08-8.66311E-09
 -1       344-3.29900E+05-2.34741E+04 7.22081E+02-9.20977E+04 3.32151E-08 3.76772E-09
 -1       345-3.09018E+05-5.47636E+04-1.03765E+03-1.31735E+05 3.67657E-08 5.83782E-10
 -1       346-3.01547E+05-2.52292E+04 6.22760E+03-9.12409E+04-3.12378E-08-3.24076E-09
 -1       347-3.36246E+05-5.33312E+04-5.83609E+03-1.32141E+05 3.75735E-09-2.82512E-09
 -1       348-2.65618E+05-3.58618E+04 1.10747E+04-1.00639E+05 1.03955E-08 6.99387E-10
 -1       349-3.44505E+05-4.44721E+04-6.01349E+03-1.22005E+05-1.75100E-09-4.05663E-10
 -1       350-2.73203E+05-5.50769E+04 5.17852E+03-1.25083E+05 1.74811E-08-8.61338E-09
 -1       351-3.29107E+05-3.37733E+04-2.50907E+03-1.08051E+05-5.98766E-09-9.30203E-09
 -1       352-2.89923E+05-6.70094E+04-3.49547E+03-1.39006E+05-4.51617E-08-2.53046E-08
 -1       353-3.28235E+05-3.21931E+04-8.50238E+03-1.08414E+05 1.41575E-08 3.65162E-10
 -1       354-2.81140E+05-6.88072E+04-1.59116E+04-1.22232E+05-1.84435E-08-4.21346E-09
 -1       355-3.37438E+05-3.23364E+04-3.88858E+04-1.24486E+05-4.81759E-09-1.18962E-09
 -1       356-2.26359E+05 6.00701E+02-1.39109E+03-1.64235E+00-2.61628E-10-1.48520E-09
 -1       357-2.26941E+05-6.95592E+02-9.87025E+02-5.32766E+01-2.50466E-10-2.00671E-10
 -1       358-2.26591E+05 9.43399E+01-3.67942E+02 2.27889E+01 5.33666E-11 2.13205E-10
 -1       359-2.26672E+05-1.10368E+02-2.43583E+02-9.08280E+01-4.94479E-10-1.19260E-09
 -1       360-2.26628E+05 1.59511E+01-1.25876E+02 3.59097E+01-1.00469E-07-7.90120E-10
 -1       361-2.26633E+05-2.65467E+01-1.26607E+02-1.01362E+02-1.99884E-07-6.75591E-10
 -1       362-2.26630E+05 1.05876E+01-1.60772E+02 3.33230E+01-1.00393E-07-1.04678E-09
 -1       363-2.26657E+05-6.51723E+01-3.15728E+02-8.13555E+01-4.99094E-10-1.58553E-09
 -1       364-2.26604E+05 5.45558E+01-5.55169E+02 1.59030E+01-2.26759E-10-2.41414E-10
 -1       365-2.26836E+05-4.04677E+02-1.26782E+03-3.75362E+01-1.29766E-10-7.40641E-10
 -1       366-2.26451E+05 3.49873E+02-2.18010E+03-1.04971E+01-1.44306E-10-1.02602E-09
 -1       367-2.27902E+05-2.59325E+03-5.37364E+03 1.54896E+01 2.28250E-10 1.88720E-10
 -1       368-2.25538E+05 2.24154E+03-8.55710E+03-3.71237E+01 9.54785E-10-5.76165E-10
 -1       369-2.34346E+05-1.65542E+04-2.33991E+04 6.07365E+01 2.06197E-11 1.24464E-09
 -1       370-2.20008E+05 1.42999E+04-3.30696E+04-5.57436E+01 2.30908E-09 1.40062E-09
 -1       371-5.83258E+03-5.93646E+04 1.32322E+04 5.54424E+02 3.90173E-10-3.04610E-11
 -1       372 6.22527E+03-5.36751E+04 8.42428E+03-2.20836E+03 9.56788E-10 1.30455E-09
 -1       373-3.86724E+02-5.68050E+04 1.46659E+03 5.96844E+02 7.91943E-10 1.39072E-09
 -1       374-2.89579E+03-5.78944E+04-3.46097E+03-2.21085E+03 9.76797E-10 5.05472E-10
 -1       375 3.28127E+03-5.51460E+04-7.21601E+03 5.56909E+02 4.99767E-10 6.32028E-10
 -1       376-3.01953E+05-3.76769E+04-1.14386E+04-1.14755E+05-3.77895E-10-7.56700E-10
 -1       377-3.06361E+05-4.94242E+04-7.88854E+03-1.14188E+05-5.66458E-08 2.08956E-08
 -1       378-3.04578E+05-4.13485E+04-2.68249E+03-1.13483E+05-2.05410E-05 7.67362E-06
 -1       379-3.03363E+05-4.51088E+04-1.67544E+03-1.15584E+05-4.09645E-05 1.52994E-05
 -1       380-3.04951E+05-4.19876E+04-6.45503E+02-1.13362E+05-2.05389E-05 7.67357E-06
 -1       381-3.03226E+05-4.39601E+04-3.84468E+02-1.15231E+05-5.64189E-08 2.12757E-08
 -1       382-3.04712E+05-4.24984E+04-2.72225E+02-1.13834E+05-1.63752E-09 1.08620E-09
 -1       383-3.04042E+05-4.29107E+04-2.70813E+02-1.14091E+05-8.57710E-10 1.68679E-10
 -1       384-3.04133E+05-4.30387E+04-5.15936E+02-1.14500E+05 1.27302E-09-3.57119E-10
 -1       385-3.05354E+05-4.22866E+04-1.12676E+03-1.12923E+05 4.92375E-09-1.87327E-09
 -1       386-3.03403E+05-4.31212E+04-1.98709E+03-1.15005E+05-3.08779E-09-1.04171E-09
 -1       387-3.07337E+05-4.42258E+04-5.32502E+03-1.12007E+05 3.94607E-09 6.39147E-10
 -1       388-3.02153E+05-4.10992E+04-8.53302E+03-1.15417E+05 3.81942E-09-2.48474E-09
 -1       389-3.15533E+05-5.97047E+04-2.52430E+04-1.09514E+05-1.94359E-09-7.85121E-10
 -1       390-2.95209E+05-2.76535E+04-3.64266E+04-1.17494E+05-5.57520E-10-7.20320E-10
 -1       406 3.69202E+02 1.52423E+05 8.00438E+02-1.16833E+04-1.02909E-09-1.45974E-10
 -1       407 2.41223E+02 1.52569E+05 9.75520E+02-1.28048E+04-1.21946E-09-1.02136E-09
 -1       408 3.97141E+02 1.52398E+05 1.60999E+03-1.16295E+04-1.27886E-09-1.03223E-08
 -1       409 1.59639E+03 1.53022E+05 3.45731E+03-1.28868E+04-1.51067E-09-1.80622E-08
 -1       410 4.60526E+03 1.51961E+05 6.97261E+03-1.15998E+04-1.44291E-09-9.42123E-09
 -1       466 5.51222E+05-2.23915E+04 5.15488E+04 2.99632E+03-2.89617E-11 2.79397E-09
 -1       467 5.74990E+05 2.58935E+04 3.67210E+04-4.92735E+03-4.05784E-10 1.15324E-09
 -1       468 5.60426E+05-3.48991E+03 1.33822E+04 8.99255E+02 3.62611E-10 1.09048E-09
 -1       469 5.64282E+05 4.03709E+03 8.45940E+03-2.06167E+03 8.89422E-11 5.86624E-10
 -1       470 5.61923E+05-5.44984E+02 3.49620E+03 1.30655E+02-8.24429E-10-2.43062E-10
 -1       471 5.62548E+05 6.51202E+02 2.17316E+03-1.01714E+03 8.78009E-11-9.86176E-10
 -1       472 5.62160E+05-1.05403E+02 1.22420E+03-1.45288E+02 8.52678E-11-9.28054E-10
 -1       473 5.62340E+05 2.62028E+02 1.27676E+03-6.70537E+02 1.48034E-10-8.79481E-10
 -1       474 5.62132E+05-1.55913E+02 1.67094E+03-2.15958E+02 2.01825E-10-1.85935E-09
 -1       475 5.62768E+05 1.08389E+03 3.46467E+03-6.61401E+02 1.70828E-09 4.81691E-10
 -1       476 5.61730E+05-9.26717E+02 5.82334E+03-1.54424E+02 1.47131E-09-1.17439E-09
 -1       477 5.65590E+05 6.86068E+03 1.42534E+04-9.80858E+02 1.07671E-09-9.01309E-10
 -1       478 5.59306E+05-5.92839E+03 2.26649E+04 1.03507E+02 7.03320E-10 1.57343E-10
 -1       479 5.82708E+05 4.37968E+04 6.19454E+04-1.98136E+03 1.40284E-09-1.70076E-10
 -1       480 5.44606E+05-3.78311E+04 8.75312E+04 8.46061E+02 2.15597E-09-2.03727E-10
 -1       481-4.19365E+03 8.33784E+04 9.57304E+03-1.07280E+03-1.63709E-11 4.52445E-10
 -1       482 4.97967E+03 8.85846E+04 7.19444E+03 3.22097E+03-7.87850E-11 2.50662E-09
 -1       483-7.91058E+02 8.52404E+04 2.97742E+03-7.85487E+02-6.55973E-11 9.49299E-10
 -1       484 1.82622E+03 8.67080E+04 3.04216E+03 2.82487E+03 1.23990E-12-1.49683E-10
 -1       485-1.03553E+03 8.52447E+04 2.67790E+03-6.76685E+02 5.15001E-11-3.31096E-10
 -1       486-5.10808E+05-5.91007E+04-4.87940E+04-2.07902E+05 4.25644E-10 9.74978E-10
 -1       487-5.49431E+05-8.50457E+04-3.29598E+04-1.77738E+05 1.56774E-10 2.97223E-09
 -1       488-5.19986E+05-7.63923E+04-1.16053E+04-2.04792E+05 1.42563E-09-1.53568E-09
 -1       489-5.27715E+05-6.91531E+04-5.29757E+03-1.85508E+05 3.15758E-09-1.15983E-09
 -1       490-5.32401E+05-7.50816E+04-4.19671E+03-2.00039E+05-6.96332E-10-4.55088E-10
 -1       491-5.13245E+05-7.70156E+04 5.21784E+02-1.98563E+05 1.70326E-09 1.89459E-09
 -1       492-5.34424E+05-6.85548E+04-1.29568E+03-1.91713E+05-3.40378E-10 5.37668E-09
 -1       493-5.12313E+05-8.50573E+04-4.92712E+01-2.09032E+05 1.43911E-09 9.50613E-09
 -1       494-5.33472E+05-6.69154E+04-7.68504E+02-1.89683E+05-7.14863E-10 2.73641E-09
 -1       495-5.12252E+05-8.10964E+04 1.76225E+01-2.03590E+05-1.37059E-09 3.61524E-09
 -1       496-5.34401E+05-7.25915E+04-3.88972E+03-1.97087E+05 1.80847E-09 3.29942E-09
 -1       497-5.21705E+05-7.23360E+04-4.28557E+03-1.89356E+05 1.95297E-09 9.06084E-11
 -1       498-5.23951E+05-7.57393E+04-1.12707E+04-2.03859E+05 1.89073E-09-3.29237E-09
 -1       499-5.46995E+05-8.36763E+04-3.01695E+04-1.78495E+05-6.50743E-10-3.95084E-09
 -1       500-5.09261E+05-6.11378E+04-4.46343E+04-2.08063E+05-3.90082E-09 5.72436E-09
 -1       501-1.87803E+05-9.34497E+03 2.16071E+04-1.14056E+02 2.80522E-10 1.38516E-09
 -1       502-1.78331E+05 1.08186E+04 1.52992E+04-9.53322E+01 2.77318E-10 1.53159E-09
 -1       503-1.84189E+05-1.46553E+03 5.58682E+03 7.38543E+01 2.11827E-10 9.25411E-10
 -1       504-1.82556E+05 1.69524E+03 3.51823E+03-4.42373E+02-2.69608E-10-1.05842E-09
 -1       505-1.83580E+05-2.28791E+02 1.42260E+03 2.32993E+02 2.08967E-10 4.64638E-10
 -1       506-1.83277E+05 2.64480E+02 8.31120E+02-6.84405E+02 1.04003E-09 9.97829E-10
 -1       507-1.83470E+05-3.53704E+01 3.63756E+02 3.15891E+02 6.22190E-10-1.32104E-10
 -1       508-1.83402E+05 4.27998E+01 2.09046E+02-7.50717E+02 8.87628E-11-1.65744E-09
 -1       509-1.83455E+05-7.09189E+00 1.08739E+02 2.99306E+02 6.47791E-10-1.16874E-10
 -1       510-1.83401E+05 2.05948E+01 9.58444E+01-6.22637E+02 8.08612E-10 6.23240E-10
 -1       511-1.83470E+05-1.34727E+01 9.57744E+01 1.87808E+02 4.04803E-10-9.45342E-11
 -1       512-1.83344E+05 9.28936E+01 2.08311E+02-3.35482E+02 2.63983E-10 1.17595E-11
 -1       513-1.83512E+05-7.97878E+01 3.00445E+02 1.21468E+01-1.27102E-10 9.47082E-10
 -1       514-1.83111E+05 5.83155E+02 8.33277E+02 3.15009E+01-4.54584E-10 1.25210E-09
 -1       515-1.83703E+05-5.03481E+02 1.15612E+03-1.79182E+02-6.41027E-10 6.67399E-10
 -1       516-2.42020E+04 1.88754E+05 5.66289E+04-2.08232E+03-2.14641E-10 1.08967E-09
 -1       517 2.95260E+04 2.14234E+05 4.28376E+04 8.41722E+03-4.91582E-10 7.66676E-11
 -1       518-5.30123E+03 1.97261E+05 2.01288E+04-2.17194E+03-6.00267E-11 3.31895E-10
 -1       519 1.62125E+04 2.10080E+05 2.56929E+04 9.83214E+03-1.47043E-09-5.56291E-10
 -1       520-1.09325E+04 1.92955E+05 2.59291E+04-3.49739E+03-6.13909E-10-3.27276E-09
 -1       521-1.14874E+06-1.48379E+05-7.84904E+04-4.43272E+05-5.95719E-10 2.29193E-10
 -1       522-1.17152E+06-2.02090E+05-4.92054E+04-4.48782E+05-9.38826E-10-2.07092E-09
 -1       523-1.16225E+06-1.65278E+05-1.85113E+04-4.41399E+05-6.24013E-10 1.04683E-09
 -1       524-1.15590E+06-1.79735E+05-1.01080E+04-4.52330E+05 1.57343E-10 7.82165E-10
 -1       525-1.16385E+06-1.66951E+05-4.30567E+03-4.41155E+05-1.77010E-10-8.39236E-10
 -1       526-1.15405E+06-1.77580E+05-2.27671E+03-4.52765E+05-3.25656E-10-4.50711E-10
 -1       527-1.16407E+06-1.67094E+05-1.17924E+03-4.41101E+05-6.52392E-10 1.29006E-10
 -1       528-1.15383E+06-1.77400E+05-9.39130E+02-4.52818E+05-1.30857E-09-7.75117E-10
 -1       529-1.16406E+06-1.67107E+05-1.14484E+03-4.41114E+05-9.87370E-10-7.27482E-10
 -1       530-1.15408E+06-1.77524E+05-2.18119E+03-4.52710E+05-1.73986E-09-2.06228E-09
 -1       531-1.16382E+06-1.66998E+05-4.11174E+03-4.41192E+05 1.10958E-10 1.96860E-09
 -1       532-1.15589E+06-1.79530E+05-9.64263E+03-4.52232E+05 1.27329E-11-1.70303E-10
 -1       533-1.16226E+06-1.65431E+05-1.76569E+04-4.41454E+05-6.93490E-12-3.63798E-12
 -1       534-1.17084E+06-2.00790E+05-4.69281E+04-4.48774E+05-1.98247E-09-2.00635E-09
 -1       535-1.14935E+06-1.49351E+05-7.48600E+04-4.43278E+05-5.81167E-10 3.71074E-10
 -1       536 8.56265E+03-4.15105E+03 1.91407E+04-3.39657E+03 2.57387E-10-7.56700E-10
 -1       537 1.54153E+04 5.78084E+03 1.21786E+04-1.19515E+04-1.03500E-09 3.44698E-10
 -1       538 1.14189E+04-4.24437E+02 4.95029E+03-3.35217E+03 2.22826E-11 3.36286E-10
 -1       539 1.22141E+04 5.41323E+02 2.74579E+03-1.19978E+04 5.42173E-10 2.24645E-10
 -1       540 1.17299E+04-4.93234E+01 1.24557E+03-3.34936E+03 1.67802E-10-5.51836E-10
 -1       541 1.18411E+04 4.91077E+01 6.51856E+02-1.19996E+04-4.04725E-11-2.78760E-10
 -1       542 1.17675E+04-6.63859E+00 3.03679E+02-3.35042E+03 2.42596E-09 7.45899E-10
 -1       543 1.17828E+04 6.19987E+00 1.44493E+02-1.19980E+04 5.41968E-09-2.28468E-10
 -1       544 1.17729E+04 4.95161E-01 4.65495E+01-3.35099E+03 2.54755E-09-5.18781E-10
 -1       545 1.17661E+04-9.37250E-01-2.57112E+01-1.19973E+04-8.13074E-11 1.40707E-09
 -1       546 1.17779E+04 5.32857E+00-1.05403E+02-3.35110E+03 3.00076E-10 1.70732E-09
 -1       547 1.17310E+04-5.19258E+01-2.64302E+02-1.19960E+04-3.27645E-10 1.81956E-10
 -1       548 1.18108E+04 4.08007E+01-4.90749E+02-3.35232E+03-1.53250E-10-9.43601E-12
 -1       549 1.14218E+04-5.79119E+02-1.21376E+03-1.19707E+04-4.01315E-11-2.93312E-11
 -1       550 1.20990E+04 4.08570E+02-1.91398E+03-3.37638E+03-9.95897E-11 7.21002E-10
 -1       551 4.39869E+03-1.12929E+05 1.02965E+04-1.70755E+05 1.47338E-10 6.14818E-10
 -1       552 1.97303E+03-1.11066E+05 8.45367E+03-2.00574E+05-5.29326E-10 1.68802E-09
 -1       553 1.23955E+03-1.12642E+05 1.02751E+04-1.70468E+05 6.18456E-11-3.48996E-09
 -1       554 6.12624E+03-1.08611E+05 1.96696E+04-2.00620E+05-1.70985E-10-1.05656E-08
 -1       555 1.77886E+04-1.15472E+05 3.74600E+04-1.70694E+05 8.00355E-11-7.01766E-09
 -1       556-7.59129E+04-4.18067E+04 7.42895E+03-7.47481E+04 1.36424E-09-6.35191E-09
 -1       557-6.92281E+04-4.90624E+04 3.65686E+03-7.98938E+04 8.33461E-09-6.80734E-09
 -1       558-7.59782E+04-4.42530E+04 1.54208E+03-7.32799E+04 1.14233E-09-7.61111E-09
 -1       559-6.98595E+04-5.02823E+04 7.55217E+02-8.01009E+04 6.25732E-10 3.05306E-10
 -1       560-7.60147E+04-4.42963E+04 3.37744E+02-7.32370E+04 1.15142E-09-6.77574E-11
 -1       561-6.99552E+04-5.03201E+04 1.58705E+02-8.01702E+04 5.36602E-10-7.51967E-10
 -1       562-7.60484E+04-4.42669E+04 5.69763E+01-7.32606E+04 4.27463E-10-8.98126E-11
 -1       563-6.99958E+04-5.03030E+04-3.81070E+00-8.02001E+04 3.72438E-10-5.23983E-10
 -1       564-7.60669E+04-4.42484E+04-7.05475E+01-7.32761E+04-4.97494E-10-5.18639E-10
 -1       565-7.00225E+04-5.02938E+04-1.80804E+02-8.02150E+04 1.22964E-09 8.59745E-09
 -1       566-7.60622E+04-4.42382E+04-3.86159E+02-7.32799E+04-3.33313E-09-6.62612E-09
 -1       567-7.00954E+04-5.03308E+04-8.53938E+02-8.02101E+04 3.31170E-10-2.44654E-10
 -1       568-7.60025E+04-4.43614E+04-1.75378E+03-7.32193E+04 7.73070E-11-8.81300E-10
 -1       569-7.10707E+04-5.13757E+04-4.13677E+03-7.99439E+04-1.45064E-10 1.40881E-09
 -1       570-7.56284E+04-4.75194E+04-8.42335E+03-7.18931E+04-2.23736E-10 9.06539E-10
 -1       571 9.81303E+04 4.67219E+03 7.07536E+03-2.50752E+04 1.48702E-10-2.14186E-10
 -1       572 9.92056E+04 1.60512E+03 3.47208E+03-2.75925E+04-1.72804E-11 5.93900E-10
 -1       573 9.85697E+04 3.67722E+02 1.54399E+03-2.50089E+04-2.07137E-10-5.11591E-10
 -1       574 9.86988E+04 1.15633E+02 7.74573E+02-2.76665E+04 3.06954E-12-8.16726E-10
 -1       575 9.86210E+04 1.13666E+01 3.66103E+02-2.50003E+04 1.35401E-10 4.36330E-10
 -1       576 9.86334E+04 2.49778E-01 1.87000E+02-2.76762E+04 3.83125E-11-5.20231E-10
 -1       577 9.86286E+04-5.82129E+00 9.34716E+01-2.49992E+04-1.54046E-11-2.29420E-10
 -1       578 9.86256E+04-4.09157E+00 5.34090E+01-2.76774E+04-2.52498E-10 1.26443E-09
 -1       579 9.86329E+04-5.10183E+00 3.74315E+01-2.49992E+04-9.50422E-11-2.96268E-10
 -1       580 9.86306E+04-4.61361E+00 4.25603E+01-2.76758E+04 5.43423E-11 8.37645E-10
 -1       581 9.86382E+04-4.55888E+00 6.67388E+01-2.50007E+04-3.20597E-10-4.67253E-10
 -1       582 9.86498E+04 1.07659E+01 1.32757E+02-2.76605E+04-2.71484E-10 2.42608E-10
 -1       583 9.86388E+04 5.03144E+01 2.59775E+02-2.50144E+04 6.27551E-11-4.73619E-10
 -1       584 9.87462E+04 2.55068E+02 5.82423E+02-2.75447E+04-3.83807E-10-3.40037E-10
 -1       585 9.85756E+04 7.67052E+02 1.18476E+03-2.51169E+04 2.66027E-10 7.54881E-10
 -1       586 7.16528E+02 4.20710E+04 1.34259E+03-6.10741E+04 1.72122E-10-3.72438E-10
 -1       587 3.99017E+02 4.23077E+04 1.34577E+03-6.73796E+04 5.80258E-10-5.63887E-11
 -1       588 5.11047E+02 4.20572E+04 1.98324E+03-6.09956E+04 1.60526E-10-2.82853E-10
 -1       589 1.91149E+03 4.28124E+04 4.11476E+03-6.74028E+04 6.18456E-10-7.86855E-10
 -1       590 5.44376E+03 4.15540E+04 8.22918E+03-6.10501E+04 1.77351E-10-9.04947E-10
 -1       591-4.50229E+04-1.53739E+04-8.80816E+03-2.30566E+04 2.87224E-09 7.32507E-09
 -1       592-4.53431E+04-1.43160E+04-4.32735E+03-2.56270E+04-5.61329E-10-9.04379E-11
 -1       593-4.52942E+04-1.21710E+04-1.83638E+03-2.45288E+04 2.65391E-09 6.18365E-09
 -1       594-4.43989E+04-1.31359E+04-8.98691E+02-2.57784E+04 2.99508E-10 5.17714E-10
 -1       595-4.53366E+04-1.20560E+04-4.13900E+02-2.45936E+04 1.30171E-10-2.27544E-10
 -1       596-4.43281E+04-1.30900E+04-2.09970E+02-2.57718E+04 4.52417E-10 1.17439E-10
 -1       597-4.53446E+04-1.20624E+04-1.14378E+02-2.45940E+04 8.81343E-10-1.19451E-09
 -1       598-4.43211E+04-1.30906E+04-9.16349E+01-2.57687E+04 4.11060E-09 8.13770E-09
 -1       599-4.53442E+04-1.20625E+04-1.16422E+02-2.45938E+04 1.31524E-09 3.36513E-11
 -1       600-4.43280E+04-1.30903E+04-2.15471E+02-2.57713E+04 4.62478E-10-3.49246E-10
 -1       601-4.53349E+04-1.20561E+04-4.25327E+02-2.45930E+04 8.54584E-10-1.22805E-09
 -1       602-4.44012E+04-1.31370E+04-9.24255E+02-2.57766E+04-1.00169E-09-8.83381E-09
 -1       603-4.52900E+04-1.21759E+04-1.88860E+03-2.45270E+04-2.23940E-09-4.98676E-09
 -1       604-4.53810E+04-1.43410E+04-4.45034E+03-2.56094E+04-4.86580E-10 5.00222E-12
 -1       605-4.50009E+04-1.54776E+04-9.05809E+03-2.30222E+04 1.79625E-11-6.77119E-10
 -1       606 3.28611E+04-3.90314E+03-5.90626E+03 9.66554E+03-1.86719E-09-8.84029E-10
 -1       607 3.19504E+04-1.34074E+03-2.89786E+03 1.05366E+04-3.42652E-10-1.25618E-09
 -1       608 3.24860E+04-3.06772E+02-1.28854E+03 9.60162E+03 1.52886E-09-3.01725E-10
 -1       609 3.23649E+04-9.34931E+01-6.45610E+02 1.06080E+04-8.12406E-10 1.72531E-09
 -1       610 3.24372E+04-5.96896E+00-3.04230E+02 9.59332E+03-2.20734E-09-9.16884E-10
 -1       611 3.24146E+04 5.29457E+00-1.53181E+02 1.06172E+04-3.65981E-09 6.57224E-10
 -1       612 3.24280E+04 9.67229E+00-7.26501E+01 9.59233E+03-1.68620E-09-3.19460E-10
 -1       613 3.24204E+04 9.15731E+00-3.35368E+01 1.06184E+04-2.05910E-09-1.24373E-10
 -1       614 3.24247E+04 8.00327E+00-9.85279E+00 9.59206E+03-5.33191E-10-7.74207E-11
 -1       615 3.24209E+04 8.99500E+00 8.74209E+00 1.06186E+04 1.69723E-09-1.45860E-10
 -1       616 3.24222E+04 9.30023E+00 3.12953E+01 9.59214E+03-1.22350E-09 3.87217E-10
 -1       617 3.24262E+04 2.05999E+01 7.39270E+01 1.06183E+04-8.05244E-10-1.01340E-09
 -1       618 3.24158E+04 4.48128E+01 1.51016E+02 9.59233E+03-4.45993E-10-7.94785E-10
 -1       619 3.24748E+04 1.67949E+02 3.41692E+02 1.06168E+04-4.00092E-10 1.09219E-09
 -1       620 3.23714E+04 4.69589E+02 6.97273E+02 9.59334E+03 2.20751E-10 3.19460E-11
 -1       621 6.58501E+02 1.00919E+05 1.68584E+03-9.24873E+03-7.74776E-10-1.05956E-09
 -1       622 2.54101E+02 1.01241E+05 1.44789E+03-1.09117E+04-7.85690E-10-7.45786E-11
 -1       623 1.56415E+02 1.00984E+05 1.84387E+03-9.25760E+03-8.07518E-10 1.16052E-09
 -1       624 1.04610E+03 1.01720E+05 3.59831E+03-1.08658E+04-7.49196E-10-4.40423E-10
 -1       625 3.21774E+03 1.00445E+05 6.89253E+03-9.29425E+03-6.53699E-10-1.05115E-09
 -1       626 4.72811E+04 1.56075E+04-2.36193E+03 3.19629E+04-1.35105E-09 2.35559E-10
 -1       627 4.60531E+04 1.74207E+04-1.11948E+03 3.26180E+04-4.39650E-09-7.56307E-09
 -1       628 4.73443E+04 1.67736E+04-4.69958E+02 3.13869E+04-5.75255E-10-2.46018E-10
 -1       629 4.62243E+04 1.79116E+04-2.25380E+02 3.25836E+04-4.76302E-09-7.88260E-09
 -1       630 4.73427E+04 1.68544E+04-9.90107E+01 3.13401E+04 1.29212E-08 1.10578E-08
 -1       631 4.62376E+04 1.79479E+04-4.38034E+01 3.25854E+04 1.90302E-08 3.78733E-09
 -1       632 4.73392E+04 1.68566E+04-1.08903E+01 3.13365E+04 5.89966E-09-3.27896E-09
 -1       633 4.62391E+04 1.79494E+04 1.42384E+01 3.25867E+04 1.73793E-09 1.75788E-10
 -1       634 4.73361E+04 1.68538E+04 4.67858E+01 3.13363E+04 4.39741E-10-7.29983E-10
 -1       635 4.62451E+04 1.79506E+04 1.10176E+02 3.25881E+04 1.83701E-09 4.82601E-10
 -1       636 4.73313E+04 1.68595E+04 2.30527E+02 3.13324E+04 4.86466E-10 6.54495E-10
 -1       637 4.63004E+04 1.80154E+04 5.16186E+02 3.25776E+04 7.92141E-10 1.32627E-09
 -1       638 4.73189E+04 1.70545E+04 1.07087E+03 3.12475E+04 3.83068E-09 7.98173E-09
 -1       639 4.68440E+04 1.89827E+04 2.54964E+03 3.23373E+04-2.23565E-10 3.18096E-10
 -1       640 4.73476E+04 1.98415E+04 5.38012E+03 3.00918E+04-4.92946E-10 4.50314E-10
 -1       641 2.83924E+02 9.97158E+02-2.30668E+03-2.51399E+01-2.29268E-09 1.61901E-09
 -1       642-7.14548E+02-1.15428E+03-1.63060E+03 1.02223E+02-1.34821E-09 1.81683E-09
 -1       643-1.01223E+02 1.56244E+02-5.94714E+02-2.50149E+01-2.21411E-09 6.84366E-10
 -1       644-2.65914E+02-1.80354E+02-3.69742E+02 1.02099E+02 2.62818E-10-7.98501E-10
 -1       645-1.64750E+02 2.40334E+01-1.42587E+02-2.50164E+01 3.52125E-10 3.68495E-10
 -1       646-1.90527E+02-2.54653E+01-6.80083E+01 1.02103E+02-9.76951E-09 3.69589E-10
 -1       647-1.76627E+02 1.47917E+00-4.80742E-01-2.50183E+01-1.97465E-06 3.01135E-09
 -1       648-1.69434E+02 1.29296E+01 6.21589E+01 1.02101E+02-3.93940E-06 4.04493E-09
 -1       649-1.85848E+02-1.43364E+01 1.41386E+02-2.50150E+01-1.97528E-06 2.05999E-09
 -1       650-1.17374E+02 1.10520E+02 3.42550E+02 1.02059E+02-2.95094E-09 2.01448E-09
 -1       651-2.28682E+02-9.60531E+01 5.96329E+02-2.49763E+01 1.03085E-09 1.41509E-09
 -1       652 1.76734E+02 7.12510E+02 1.47547E+03 1.01879E+02 2.15572E-09 1.77144E-09
 -1       653-4.79937E+02-6.15887E+02 2.35080E+03-2.48347E+01 1.28708E-09 1.31490E-09
 -1       654 1.94809E+03 4.54844E+03 6.42972E+03 1.01112E+02-1.58932E-09 1.34571E-09
 -1       655-1.99992E+03-3.92892E+03 9.08775E+03-2.42104E+01 7.05008E-10 1.68120E-09
 -1       656 2.93886E+03-1.18962E+05-1.41138E+04 3.82123E+03-2.50111E-10 3.39367E-09
 -1       657-4.45246E+03-1.24039E+05-1.02189E+04 1.34802E+04-6.60293E-10 4.24063E-09
 -1       658 5.50756E+02-1.20782E+05-6.54385E+03 3.79887E+03-9.02482E-10 3.36900E-09
 -1       659-4.07508E+03-1.23814E+05-9.53468E+03 1.34927E+04-1.70064E-09 2.76279E-10
 -1       660 2.64781E+03-1.19192E+05-1.28099E+04 3.80884E+03-3.86990E-10-1.90539E-10
 -1       661 1.15586E+05 1.48987E+04 9.43477E+03 4.51475E+04-1.94404E-10-1.47656E-09
 -1       662 1.17732E+05 2.19505E+04 5.91498E+03 4.64978E+04 2.93934E-09-8.76184E-10
 -1       663 1.17191E+05 1.69483E+04 2.22689E+03 4.49449E+04 1.41029E-10-3.72779E-10
 -1       664 1.15884E+05 1.92343E+04 1.21796E+03 4.68831E+04-1.28998E-09-5.28416E-10
 -1       665 1.17369E+05 1.71640E+04 5.21890E+02 4.49309E+04 1.48452E-09 2.08274E-09
 -1       666 1.15680E+05 1.89568E+04 2.82391E+02 4.69107E+04 1.01153E-10-1.41075E-09
 -1       667 1.17389E+05 1.71876E+04 1.58734E+02 4.49312E+04-4.70186E-09 7.36140E-10
 -1       668 1.15661E+05 1.89325E+04 1.49502E+02 4.69113E+04-1.55258E-09 1.17404E-09
 -1       669 1.17387E+05 1.71860E+04 2.10960E+02 4.49310E+04-7.91388E-10 7.56401E-10
 -1       670 1.15697E+05 1.89749E+04 4.26465E+02 4.69105E+04 3.47836E-09 5.65322E-10
 -1       671 1.17354E+05 1.71487E+04 8.14878E+02 4.49308E+04 8.48416E-10 1.08571E-10
 -1       672 1.16022E+05 1.94129E+04 1.91846E+03 4.68663E+04 2.17574E-09-4.62819E-10
 -1       673 1.17072E+05 1.68083E+04 3.51324E+03 4.49531E+04 2.20433E-09-2.85991E-09
 -1       674 1.18937E+05 2.37028E+04 9.33683E+03 4.62600E+04 2.87343E-11 1.04126E-09
 -1       675 1.14540E+05 1.35708E+04 1.48935E+04 4.52703E+04-5.70481E-10-4.58385E-10
 -1       676 2.10863E+02-1.12735E+05-1.25321E+03 1.41536E+01-7.53801E-10 6.03429E-10
 -1       677-4.75234E+02-1.13211E+05-1.52115E+03-7.25953E+01-3.87329E-09 3.52926E-10
 -1       678 1.69981E+02-1.12754E+05-2.01103E+03 1.40805E+01-2.37060E-09 2.36729E-09
 -1       679-2.14006E+03-1.14221E+05-4.54952E+03-7.24591E+01-3.36934E-09-4.24944E-10
 -1       680 1.50820E+03-1.11726E+05-7.02060E+03 1.38637E+01-1.19144E-09 1.22959E-10
 -1       681 2.46671E+05-7.24213E+03 1.67219E+04 3.97107E+02 2.39254E-10 2.93767E-10
 -1       682 2.54074E+05 8.38284E+03 1.18623E+04-1.67697E+03 4.71509E-10-5.78893E-10
 -1       683 2.49528E+05-1.13364E+03 4.33531E+03 6.62585E+01 2.50147E-10 4.70664E-10
 -1       684 2.50742E+05 1.31322E+03 2.73715E+03-1.21601E+03-8.28564E-11-5.84350E-10
 -1       685 2.50003E+05-1.77112E+02 1.13214E+03-6.38623E+01 2.62869E-10 1.02102E-09
 -1       686 2.50194E+05 2.12002E+02 7.02545E+02-1.09894E+03 6.45376E-10 5.21254E-11
 -1       687 2.50076E+05-3.30392E+01 3.95043E+02-5.08106E+01 1.61629E-10 5.91548E-10
 -1       688 2.50148E+05 8.08987E+01 4.13552E+02-1.27374E+03 1.16568E-09 3.49303E-11
 -1       689 2.50050E+05-4.64281E+01 5.33155E+02 1.10934E+02-8.12506E-11 7.15772E-10
 -1       690 2.50373E+05 3.34204E+02 1.12873E+03-1.81408E+03 9.33653E-11 4.38774E-10
 -1       691 2.49854E+05-2.87651E+02 1.85198E+03 4.89544E+02 8.84626E-11-3.51292E-11
 -1       692 2.51607E+05 2.17496E+03 4.64984E+03-2.94907E+03 8.16286E-10 2.09639E-10
 -1       693 2.48823E+05-1.89114E+03 7.20494E+03 1.24595E+03-3.52458E-10-1.19917E-09
 -1       694 2.58336E+05 1.41356E+04 2.02137E+04-5.19265E+03-4.32978E-09 1.62777E-09
 -1       695 2.43152E+05-1.22574E+04 2.78055E+04 2.73323E+03-2.47184E-09-3.37604E-09
 -1       696-4.51059E+03 1.77512E+05 1.02921E+04 3.49109E+02 3.95630E-11-5.77245E-10
 -1       697 4.95092E+03 1.81966E+05 6.80133E+03-1.59588E+03 7.50333E-11-1.46748E-10
 -1       698-4.35722E+02 1.79423E+05 1.64567E+03 1.94007E+02-7.59428E-11 2.45334E-10
 -1       699-1.21782E+03 1.79081E+05-1.24043E+03-1.44847E+03-1.18632E-10 1.35470E-09
 -1       700 1.65379E+03 1.80397E+05-3.52440E+03 2.01689E+02-7.98082E-11 4.38554E-10
 -1       701-2.26649E+05-2.12507E+04-2.73878E+04-8.98533E+04-5.89353E-10-1.40062E-10
 -1       702-2.41460E+05-4.60073E+04-1.90071E+04-8.45997E+04 1.79966E-10-1.00317E-09
 -1       703-2.32072E+05-3.12474E+04-6.42115E+03-8.81570E+04 5.37057E-10 7.61702E-10
 -1       704-2.35173E+05-3.44191E+04-4.01465E+03-8.65379E+04 1.47821E-10 1.38817E-09
 -1       705-2.32934E+05-3.28314E+04-1.50219E+03-8.79176E+04 5.72982E-11 1.00050E-09
 -1       706-2.34061E+05-3.26840E+04-8.94073E+02-8.69163E+04-1.90994E-10-1.15492E-10
 -1       707-2.33183E+05-3.29815E+04-4.15645E+02-8.77786E+04 3.48439E-10 7.10287E-10
 -1       708-2.33617E+05-3.27059E+04-3.46975E+02-8.72547E+04 5.27104E-10 3.62334E-10
 -1       709-2.33377E+05-3.28097E+04-3.93999E+02-8.75788E+04-4.89571E-10-1.09665E-10
 -1       710-2.33377E+05-3.32792E+04-8.09624E+02-8.76331E+04-2.23736E-10-4.31726E-11
 -1       711-2.33424E+05-3.24084E+04-1.36890E+03-8.74001E+04 1.24373E-10 5.64796E-10
 -1       712-2.34056E+05-3.51997E+04-3.63606E+03-8.76930E+04-1.62046E-10 1.54569E-09
 -1       713-2.32699E+05-3.08899E+04-5.81895E+03-8.75191E+04 4.17231E-10-2.59206E-11
 -1       714-2.39857E+05-4.56428E+04-1.72299E+04-8.58747E+04 4.09273E-12-4.28145E-10
 -1       715-2.27626E+05-2.19719E+04-2.48157E+04-8.92167E+04-7.30779E-10-1.40972E-10
 -1       716-3.63298E+04-1.31453E+03 2.72059E+03 1.65183E+02 4.28295E-09-1.92063E-09
 -1       717-3.29954E+04 1.50550E+03 2.30948E+03-1.54768E+03 1.51041E-09 3.52543E-10
 -1       718-3.56045E+04-2.08624E+02 6.50289E+02 3.50562E+02 3.84631E-10-4.87205E-10
 -1       719-3.40421E+04 2.31767E+02 6.48922E+02-1.88286E+03-2.43659E-09-3.87075E-10
 -1       720-3.52948E+04-3.33510E+01 1.72124E+02 5.00272E+02 7.65539E-11 6.36383E-10
 -1       721-3.45547E+04 4.26862E+01 2.71808E+02-2.13596E+03 3.32811E-10-7.75677E-10
 -1       722-3.51026E+04-1.19578E+01 1.87154E+02 6.03639E+02 9.55197E-10 1.27262E-09
 -1       723-3.48256E+04 7.45700E+01 3.98676E+02-2.29094E+03 9.42837E-10-7.47058E-10
 -1       724-3.50313E+04-5.99018E+01 6.49702E+02 6.55256E+02 2.11006E-09 1.56692E-09
 -1       725-3.47149E+04 4.68183E+02 1.47826E+03-2.33950E+03 1.90177E-09-1.48844E-10
 -1       726-3.52157E+04-4.03546E+02 2.53326E+03 6.52206E+02 2.03409E-09 1.47338E-09
 -1       727-3.33551E+04 3.01553E+03 6.27239E+03-2.27981E+03 3.15657E-09-1.26590E-09
 -1       728-3.63879E+04-2.60751E+03 9.92160E+03 5.95562E+02 1.09818E-09 3.07409E-10
 -1       729-2.55469E+04 1.92692E+04 2.72889E+04-2.13196E+03 6.88104E-10 1.69166E-10
 -1       730-4.30134E+04-1.66492E+04 3.83743E+04 5.04341E+02 1.41705E-09-1.40062E-10
 -1       731-6.49467E+03 8.83744E+04 1.39783E+04-2.99325E+03-2.37833E-09-1.42256E-09
 -1       732 7.76796E+03 1.00611E+05 1.15820E+04 1.01645E+04 6.59384E-10 3.57829E-10
 -1       733-1.30537E+03 9.29168E+04 5.00542E+03-2.26260E+03-2.11799E-10-6.52420E-10
 -1       734 3.87169E+03 9.62233E+04 6.24305E+03 9.31366E+03-4.04299E-11-1.75403E-09
 -1       735-2.55718E+03 9.26978E+04 6.33514E+03-2.14222E+03 5.53200E-10-8.33495E-10
 -1       736-2.67585E+05-3.83718E+04-2.34123E+04-1.11112E+05 1.19967E-08-8.23184E-09
 -1       737-2.61033E+05-2.67384E+04-8.76826E+03-7.23429E+04 3.13215E-08 8.83153E-09
 -1       738-2.50719E+05-4.43609E+04-4.70107E+03-1.08702E+05 8.04641E-09 3.01695E-08
 -1       739-2.73463E+05-1.95729E+04-1.78532E+03-7.46256E+04-1.66059E-08-4.37711E-09
 -1       740-2.55415E+05-4.53397E+04-2.03083E+03-1.09040E+05 2.36847E-09-1.95089E-08
 -1       741-2.46042E+05-1.99643E+04 5.25461E+03-7.34449E+04-3.38275E-09-2.08065E-08
 -1       742-2.77715E+05-4.42827E+04-5.26024E+03-1.09545E+05-6.35885E-09 9.12848E-10
 -1       743-2.15024E+05-2.78865E+04 1.00738E+04-8.00300E+04 8.11281E-09 4.28577E-09
 -1       744-2.86039E+05-3.77121E+04-5.56120E+03-1.02163E+05 1.57727E-08-7.18853E-09
 -1       745-2.18799E+05-4.30398E+04 6.15027E+03-9.94737E+04 2.70413E-08 4.00036E-09
 -1       746-2.74253E+05-2.88974E+04-2.30005E+03-9.03509E+04 1.61015E-08 3.85358E-08
 -1       747-2.36753E+05-5.46954E+04-1.07638E+03-1.15083E+05 1.49811E-10 2.98905E-09
 -1       748-2.68576E+05-2.56898E+04-3.71101E+03-8.69114E+04 1.91826E-08 7.39897E-09
 -1       749-2.32915E+05-5.61505E+04-7.23717E+03-1.08597E+05-9.61259E-09 1.10413E-08
 -1       750-2.77907E+05-2.75853E+04-1.96224E+04-9.67028E+04-7.56609E-09-1.12741E-08
 -1       751 9.85133E+05-5.65657E+04 1.30959E+05 1.31736E+03-1.09578E-08 1.01863E-10
 -1       752 1.04196E+06 6.54906E+04 9.26424E+04-1.70001E+03-5.07820E-10-6.65750E-10
 -1       753 1.00707E+06-8.86645E+03 3.39159E+04 3.13818E+02 4.23496E-10 4.49290E-10
 -1       754 1.01643E+06 1.02614E+04 2.13307E+04-4.46170E+02 8.26347E-10 1.25351E-09
 -1       755 1.01069E+06-1.38715E+03 8.73034E+03 6.35866E+01 9.27876E-11 2.94676E-10
 -1       756 1.01223E+06 1.62576E+03 5.21867E+03-1.32617E+02 2.92348E-09 3.72893E-11
 -1       757 1.01128E+06-2.37619E+02 2.56416E+03 2.63170E-01 2.98733E-07 1.15494E-09
 -1       758 1.01160E+06 4.22051E+02 2.05032E+03-5.58114E+01 5.95736E-07 6.14804E-10
 -1       759 1.01132E+06-1.84253E+02 2.08416E+03-1.32207E+01 1.55982E-07 9.91122E-10
 -1       760 1.01198E+06 1.16685E+03 3.83022E+03-4.96841E+01-2.84818E-07 7.97854E-10
 -1       761 1.01090E+06-9.81895E+02 6.23118E+03-5.86417E+00-1.44930E-07-8.53333E-10
 -1       762 1.01493E+06 7.24753E+03 1.50929E+04-1.01159E+02 1.32398E-09 5.45697E-11
 -1       763 1.00835E+06-6.26019E+03 2.39574E+04 3.82550E+01 3.28848E-09 4.27463E-11
 -1       764 1.03292E+06 4.62284E+04 6.53962E+04-3.24486E+02 1.11849E-09 8.58563E-10
 -1       765 9.92898E+05-3.99284E+04 9.24393E+04 2.17456E+02-9.36373E-10 3.41970E-10
 -1       766-2.21539E+04 9.26015E+04 5.13955E+04 4.57551E+03 3.01952E-09-7.43455E-10
 -1       767 2.67287E+04 1.17897E+05 3.89106E+04-1.98605E+04 9.94214E-09-9.15481E-10
 -1       768-4.49995E+03 1.00803E+05 1.75427E+04 4.52581E+03 4.14229E-09 1.65576E-09
 -1       769 1.38527E+04 1.19661E+05 2.29078E+04-2.11827E+04 1.00863E-09-7.51356E-10
 -1       770-9.42083E+03 9.10267E+04 1.92446E+04 5.89810E+03-3.29601E-09-9.18362E-10
 -1       771-5.50633E+05-1.11000E+05-1.82205E+04-2.38924E+05-1.29785E-09 1.34605E-10
 -1       772-5.48956E+05-1.11072E+05-8.94508E+03-2.46831E+05 2.36560E-09 7.16682E-09
 -1       773-5.51370E+05-1.04224E+05-3.80196E+03-2.41836E+05-4.23825E-10-2.11912E-10
 -1       774-5.46900E+05-1.08775E+05-1.85758E+03-2.47361E+05 1.13505E-09-4.88285E-10
 -1       775-5.51510E+05-1.03946E+05-8.58136E+02-2.41975E+05 4.34193E-09-2.03136E-09
 -1       776-5.46774E+05-1.08685E+05-4.33748E+02-2.47399E+05 7.12680E-09-4.00917E-09
 -1       777-5.51562E+05-1.03939E+05-2.36897E+02-2.41990E+05 7.79437E-10-6.15131E-09
 -1       778-5.46781E+05-1.08679E+05-1.86190E+02-2.47420E+05 1.56433E-10 1.36691E-09
 -1       779-5.51584E+05-1.03926E+05-2.36040E+02-2.42001E+05 1.01863E-09 7.74207E-11
 -1       780-5.46811E+05-1.08674E+05-4.33619E+02-2.47442E+05 5.57748E-10-4.90900E-10
 -1       781-5.51578E+05-1.03906E+05-8.56633E+02-2.42005E+05 1.97588E-10-2.61707E-10
 -1       782-5.46966E+05-1.08766E+05-1.86142E+03-2.47460E+05 5.45356E-10-2.90129E-10
 -1       783-5.51489E+05-1.04145E+05-3.80493E+03-2.41873E+05 2.83279E-10 2.77396E-11
 -1       784-5.48941E+05-1.11193E+05-8.96935E+03-2.47119E+05-3.74996E-10-6.21185E-10
 -1       785-5.50900E+05-1.10805E+05-1.82578E+04-2.38840E+05 1.75532E-10 4.99313E-10
 -1       786 8.49789E+04-2.40286E+03 1.11367E+04-7.86580E+02 6.37783E-11-1.20963E-09
 -1       787 8.89357E+04 3.37145E+03 7.08283E+03-2.80017E+03 4.72369E-11-6.15046E-10
 -1       788 8.66431E+04-2.40471E+02 2.88311E+03-7.80592E+02-2.23963E-11-4.47699E-10
 -1       789 8.70873E+04 3.19965E+02 1.59949E+03-2.80538E+03 1.04619E-09 9.89985E-10
 -1       790 8.68263E+04-2.56457E+01 7.31644E+02-7.81272E+02 2.63458E-09 7.37998E-10
 -1       791 8.68803E+04 2.99518E+01 3.90945E+02-2.80431E+03 3.59701E-09 4.64887E-10
 -1       792 8.68495E+04-3.28355E+00 2.00876E+02-7.81666E+02 2.65867E-09 7.30296E-10
 -1       793 8.68549E+04 3.75202E+00 1.32935E+02-2.80407E+03 9.73113E-10-1.28067E-09
 -1       794 8.68517E+04-1.80832E+00 1.22689E+02-7.81512E+02-9.83391E-12 5.92326E-10
 -1       795 8.68623E+04 1.28056E+01 1.85662E+02-2.80505E+03 2.23352E-10-3.48393E-10
 -1       796 8.68425E+04-1.11457E+01 3.21391E+02-7.80684E+02-1.50692E-10-6.07187E-10
 -1       797 8.69503E+04 1.36236E+02 6.87294E+02-2.80658E+03-1.55751E-11-4.48935E-10
 -1       798 8.67645E+04-1.02929E+02 1.23260E+03-7.79980E+02-6.92921E-11-1.35287E-10
 -1       799 8.77397E+04 1.43833E+03 3.02392E+03-2.80063E+03-5.81110E-10-1.36518E-09
 -1       800 8.60544E+04-1.02604E+03 4.75302E+03-7.86693E+02-1.21076E-11-3.53339E-10
 -1       801-2.87226E+03 8.79870E+04 1.35523E+04-9.42970E+04-3.85262E-09 6.83940E-10
 -1       802 6.27785E+03 9.25066E+04 1.42685E+04-3.35508E+05-1.59343E-09-9.96806E-10
 -1       803-8.82526E+02 8.83426E+04 1.60367E+04-9.39856E+04-5.15502E-09 2.12583E-09
 -1       804 1.72260E+04 9.91895E+04 3.42101E+04-3.35496E+05-2.72303E-09-1.74487E-09
 -1       805-1.14329E+04 8.13567E+04 5.15298E+04-9.43108E+04-1.92085E-09 1.64982E-09
 -1       806-8.61680E+04-2.36290E+04-7.22867E+03-4.06341E+04 5.78666E-11-1.95996E-10
 -1       807-8.61272E+04-2.18365E+04-3.42567E+03-4.29230E+04-7.91829E-11-1.68711E-10
 -1       808-8.61215E+04-1.98939E+04-1.43967E+03-4.22007E+04-1.71894E-10 6.03904E-10
 -1       809-8.54120E+04-2.05232E+04-6.95228E+02-4.32332E+04-3.85796E-10 8.66876E-10
 -1       810-8.61380E+04-1.96318E+04-3.13888E+02-4.23172E+04 8.54925E-11-6.12317E-10
 -1       811-8.53407E+04-2.04341E+04-1.56982E+02-4.32467E+04 2.53863E-10-1.19644E-09
 -1       812-8.61437E+04-1.96233E+04-8.14589E+01-4.23228E+04 1.03455E-11-7.85576E-11
 -1       813-8.53330E+04-2.04315E+04-5.90297E+01-4.32451E+04 2.72394E-10 2.73872E-10
 -1       814-8.61437E+04-1.96242E+04-6.71372E+01-4.23225E+04-5.71845E-11 4.88853E-11
 -1       815-8.53379E+04-2.04342E+04-1.18957E+02-4.32451E+04-2.14186E-10 8.68283E-10
 -1       816-8.61384E+04-1.96314E+04-2.32093E+02-4.23179E+04-3.59933E-10 1.91676E-10
 -1       817-8.53915E+04-2.04981E+04-5.11475E+02-4.32322E+04 4.58272E-10-2.11912E-10
 -1       818-8.61241E+04-1.98266E+04-1.05773E+03-4.22340E+04-1.88948E-10 7.73070E-12
 -1       819-8.59321E+04-2.14463E+04-2.51597E+03-4.29847E+04-3.11616E-10 3.32420E-10
 -1       820-8.61415E+04-2.25834E+04-5.30836E+03-4.10994E+04-1.29148E-10-1.14335E-09
 -1       821-9.14272E+04 2.54856E+03-1.18159E+04 8.66902E+02-9.49058E-10-2.81489E-10
 -1       822-9.56232E+04-3.57706E+03-7.51502E+03 3.09818E+03-6.62851E-10-4.76689E-10
 -1       823-9.31934E+04 2.54737E+02-3.06011E+03 8.51251E+02 1.16984E-09-9.92372E-10
 -1       824-9.36644E+04-3.38272E+02-1.69909E+03 3.11683E+03-4.08818E-10-5.42315E-10
 -1       825-9.33881E+04 2.73821E+01-7.80875E+02 8.48147E+02-2.09479E-09-3.50383E-10
 -1       826-9.34468E+04-2.99284E+01-4.24038E+02 3.12160E+03-3.82124E-09-8.97387E-10
 -1       827-9.34126E+04 4.16048E+00-2.31584E+02 8.46458E+02-1.74970E-09 2.95870E-11
 -1       828-9.34224E+04-2.78890E+00-1.79049E+02 3.12433E+03-2.30307E-09-4.71445E-11
 -1       829-9.34135E+04 3.79247E+00-2.04367E+02 8.45409E+02 1.06553E-10-2.74765E-10
 -1       830-9.34415E+04-2.35462E+01-3.52734E+02 3.12549E+03 1.63634E-09-8.04050E-11
 -1       831-9.33940E+04 2.27758E+01-6.38175E+02 8.45297E+02-3.80453E-10-1.53705E-10
 -1       832-9.36188E+04-2.73576E+02-1.38215E+03 3.12466E+03 4.66045E-11 6.43894E-10
 -1       833-9.32361E+04 2.07653E+02-2.48633E+03 8.46268E+02 1.67259E-09-7.78414E-10
 -1       834-9.52105E+04-2.90400E+03-6.10457E+03 3.11595E+03 5.89455E-09 3.93015E-10
 -1       835-9.18017E+04 2.07102E+03-9.59735E+03 8.54192E+02 3.50741E-09-6.96673E-10
 -1       836-3.89653E+03 2.26060E+05 1.90829E+04-6.42418E+03-3.17414E-10 7.22366E-10
 -1       837 6.15021E+03 2.32975E+05 1.48085E+04-2.27234E+04 5.51381E-12 5.01359E-10
 -1       838-9.38120E+02 2.28287E+05 1.11561E+04-6.40692E+03-6.01062E-10 1.29796E-09
 -1       839 8.37955E+03 2.34326E+05 1.88641E+04-2.27233E+04 3.29237E-10-1.65755E-10
 -1       840-5.63265E+03 2.24708E+05 2.68084E+04-6.42413E+03-5.16593E-10 1.75078E-10
 -1       841-9.59545E+02 1.07176E+03-3.10750E+03-9.09508E+02 3.89491E-10 9.42805E-10
 -1       842-2.65228E+03-1.73272E+03-2.15689E+03-3.09244E+02-7.34957E-10-3.76730E-10
 -1       843-1.59344E+03-4.63793E+01-7.27622E+02-6.98649E+02 6.92850E-10 8.52197E-10
 -1       844-1.91591E+03-4.37767E+02-4.53119E+02-5.52198E+02 2.17190E-09 7.67017E-10
 -1       845-1.69583E+03-2.22346E+02-1.65599E+02-6.66889E+02 2.67285E-10-2.25526E-10
 -1       846-1.79626E+03-2.32982E+02-9.04286E+01-5.88746E+02-1.32009E-09 5.42244E-10
 -1       847-1.71309E+03-2.51036E+02-2.51226E+01-6.62155E+02-4.74178E-07 1.77498E-07
 -1       848-1.77192E+03-1.93276E+02 1.14173E+01-5.95094E+02-9.46543E-07 3.56196E-07
 -1       849-1.72016E+03-2.62029E+02 5.07819E+01-6.60553E+02-7.93849E-07 2.98010E-07
 -1       850-1.73839E+03-1.39215E+02 1.45503E+02-6.03994E+02-6.39459E-07 2.40466E-07
 -1       851-1.74662E+03-3.05067E+02 2.57448E+02-6.53266E+02-3.20348E-07 1.19958E-07
 -1       852-1.55336E+03 1.74352E+02 6.98703E+02-6.60352E+02-8.63317E-10 1.14369E-09
 -1       853-1.90516E+03-5.75408E+02 1.11968E+03-6.04264E+02-1.10364E-09-3.96767E-10
 -1       854-4.18587E+02 2.16544E+03 3.31873E+03-1.03485E+03 2.65459E-10-9.01764E-10
 -1       855-2.88119E+03-2.29484E+03 4.78014E+03-2.79243E+02 4.30532E-10 1.08571E-09
 -1       856-1.09824E+05 2.43233E+03-1.12812E+04 1.73776E+03-1.87379E-09-1.25056E-09
 -1       857-1.13828E+05-3.41125E+03-7.17391E+03 6.25026E+03-3.58858E-09-2.06728E-09
 -1       858-1.11511E+05 2.43687E+02-2.92123E+03 1.71197E+03-5.27814E-09-9.31550E-10
 -1       859-1.11961E+05-3.17955E+02-1.62078E+03 6.28179E+03-1.89209E-09-1.20767E-09
 -1       860-1.11697E+05 2.74220E+01-7.43254E+02 1.70602E+03-2.02999E-09-3.37025E-10
 -1       861-1.11755E+05-2.26975E+01-4.00029E+02 6.29005E+03-3.08455E-09-1.16583E-09
 -1       862-1.11721E+05 5.57210E+00-2.11747E+02 1.70367E+03 2.31938E-09-9.78901E-10
 -1       863-1.11732E+05 4.01085E+00-1.51744E+02 6.29294E+03 5.53774E-09-2.13313E-09
 -1       864-1.11723E+05 4.68397E+00-1.57742E+02 1.70312E+03 2.86364E-09-1.77944E-09
 -1       865-1.11744E+05-1.04781E+01-2.58372E+02 6.29196E+03 5.13910E-09-1.24396E-09
 -1       866-1.11709E+05 1.78002E+01-4.59979E+02 1.70465E+03-2.59377E-10-1.25270E-09
 -1       867-1.11868E+05-1.90350E+02-9.91202E+02 6.28626E+03-8.11667E-10-1.23289E-09
 -1       868-1.11595E+05 1.49372E+02-1.78178E+03 1.70885E+03 1.95212E-09-1.55018E-09
 -1       869-1.13005E+05-2.07555E+03-4.37219E+03 6.26008E+03-2.77169E-09-2.11998E-09
 -1       870-1.10567E+05 1.48259E+03-6.87468E+03 1.73100E+03 1.22702E-09-1.16142E-09
 -1       871-1.08920E+03-1.06109E+04-2.05666E+03 3.11257E+04-1.45906E-09 3.17414E-10
 -1       872-3.35310E+02-1.09808E+04-5.99215E+02 3.65382E+04-2.68506E-09 1.02170E-09
 -1       873 3.48120E+01-1.08367E+04 6.12656E+02 3.10654E+04-1.67131E-09 5.08021E-09
 -1       874 7.26606E+02-1.03459E+04 2.27602E+03 3.65644E+04-3.01270E-09 8.58347E-09
 -1       875 2.33786E+03-1.12548E+04 4.90537E+03 3.11009E+04-1.91744E-09 4.74279E-09
 -1       876 1.34512E+05 1.71058E+04 1.26874E+04 5.28851E+04-2.48974E-11 2.23736E-10
 -1       877 1.37325E+05 2.66658E+04 7.95419E+03 5.47898E+04 1.40454E-09-2.46700E-11
 -1       878 1.36670E+05 1.98625E+04 2.99386E+03 5.26125E+04 2.84501E-10 1.96042E-09
 -1       879 1.34841E+05 2.30122E+04 1.63652E+03 5.53058E+04 2.71143E-10-9.08130E-10
 -1       880 1.36908E+05 2.01540E+04 6.98796E+02 5.25949E+04-1.07491E-10-3.17073E-10
 -1       881 1.34567E+05 2.26369E+04 3.73428E+02 5.53399E+04-3.50951E-10-2.07342E-09
 -1       882 1.36935E+05 2.01872E+04 2.00470E+02 5.25964E+04-4.87711E-09 4.93671E-10
 -1       883 1.34540E+05 2.26011E+04 1.72650E+02 5.53381E+04-3.38790E-09 1.72520E-11
 -1       884 1.36933E+05 2.01872E+04 2.26546E+02 5.25971E+04 3.33577E-09 3.05646E-09
 -1       885 1.34578E+05 2.26432E+04 4.45278E+02 5.53360E+04 3.17010E-09 2.38899E-10
 -1       886 1.36898E+05 2.01489E+04 8.45027E+02 5.25971E+04 1.65124E-09 5.44333E-10
 -1       887 1.34914E+05 2.30963E+04 1.98590E+03 5.52905E+04 4.53142E-10 1.81672E-10
 -1       888 1.36607E+05 1.97963E+04 3.63542E+03 5.26198E+04 6.69388E-10-3.75849E-09
 -1       889 1.37931E+05 2.75347E+04 9.66069E+03 5.46634E+04 2.50188E-09 2.80124E-10
 -1       890 1.33987E+05 1.64468E+04 1.54095E+04 5.29486E+04 7.94898E-10-6.48470E-10
 -1       891 4.71442E+02-6.03634E+04-2.36985E+03 7.37132E+03-1.31342E-09 8.64475E-10
 -1       892-7.82756E+02-6.12105E+04-1.88792E+03 2.62112E+04-3.28333E-09-2.82398E-10
 -1       893 1.23509E+02-6.06309E+04-1.50317E+03 7.34302E+03-3.99211E-10 4.59309E-10
 -1       894-1.20164E+03-6.14631E+04-2.64912E+03 2.62092E+04-2.65482E-09 1.79568E-10
 -1       895 7.96814E+02-6.01092E+04-3.81990E+03 7.37320E+03-1.73293E-09-1.69393E-10
 -1       896 2.73382E+05-1.86719E+03 4.31645E+03 2.87967E+02 1.83860E-10 7.59655E-10
 -1       897 2.75256E+05 2.16125E+03 3.06004E+03-4.07609E+02 5.18646E-10 6.64102E-10
 -1       898 2.74112E+05-2.92548E+02 1.12235E+03 1.48436E+02 5.08997E-10 4.06544E-10
 -1       899 2.74406E+05 3.39124E+02 7.13920E+02-1.93617E+02 3.81350E-10 3.88525E-10
 -1       900 2.74232E+05-4.63834E+01 3.06853E+02 7.39715E+01-2.72209E-10 2.45294E-10
 -1       901 2.74268E+05 5.88584E+01 2.13402E+02-7.46356E+01-3.33720E-11 2.24885E-10
 -1       902 2.74250E+05-1.24569E+01 1.61641E+02 2.94532E+01 3.45231E-10 7.71934E-11
 -1       903 2.74265E+05 4.88929E+01 2.37625E+02 5.20131E+00-2.79998E-12 8.01492E-11
 -1       904 2.74236E+05-3.64221E+01 3.76668E+02-5.86684E+00-3.44333E-11 1.11072E-10
 -1       905 2.74379E+05 2.64897E+02 8.35572E+02 8.30312E+01-1.68904E-10-6.80984E-11
 -1       906 2.74136E+05-2.28329E+02 1.42670E+03-4.83781E+01 1.64722E-10-1.76044E-10
 -1       907 2.75076E+05 1.69180E+03 3.50985E+03 1.95126E+02 3.39507E-10-3.70619E-11
 -1       908 2.73538E+05-1.46229E+03 5.58578E+03-1.17963E+02 1.92795E-10-2.81489E-10
 -1       909 2.79287E+05 1.08003E+04 1.52717E+04 3.96206E+02 1.66492E-10-8.12406E-10
 -1       910 2.69923E+05-9.32944E+03 2.15812E+04-2.49457E+02 6.44224E-10-7.09406E-10
 -1       911 2.63466E+04 9.96675E+01-3.73952E+02-6.33010E+02 4.33658E-10 7.08894E-10
 -1       912 2.69382E+04-1.21307E+02-1.29820E+02 2.56177E+03 4.27658E-10 1.92897E-09
 -1       913 2.65182E+04 1.99420E+01-9.50022E+01-5.55977E+02 1.12158E-09 2.62795E-09
 -1       914 2.66768E+04-2.27188E+01-2.63610E+01 2.44977E+03 8.39997E-10 3.66005E-09
 -1       915 2.66003E+04 6.62104E+00-7.98061E+00-5.21020E+02-1.45884E-09 3.47228E-09
 -1       916 2.66119E+04-3.70166E+00 1.58599E+01 2.42134E+03-3.88040E-09 4.16013E-09
 -1       917 2.65813E+04 2.26775E+00 4.09768E+01-5.27546E+02-3.39214E-09 3.24924E-09
 -1       918 2.67684E+04 1.41804E+01 1.33375E+02 2.47582E+03-2.01301E-09 3.44721E-09
 -1       919 2.64474E+04-1.38303E+01 1.67271E+02-5.75496E+02-1.74732E-09 1.81205E-09
 -1       920 2.72212E+04 1.29822E+02 5.51776E+02 2.61521E+03-2.23471E-09 1.26674E-09
 -1       921 2.61383E+04-1.20224E+02 6.99156E+02-6.66931E+02 1.65309E-09-6.49436E-10
 -1       922 2.83074E+04 9.15743E+02 2.15458E+03 2.84591E+03 3.16220E-09-2.02888E-09
 -1       923 2.53787E+04-8.11615E+02 2.88631E+03-8.06272E+02 1.82635E-09-4.36205E-09
 -1       924 3.17939E+04 6.01837E+03 8.83914E+03 3.19488E+03 4.06123E-09-6.96082E-09
 -1       925 2.26803E+04-5.23876E+03 1.14668E+04-1.01615E+03 3.73251E-09-9.51377E-09
 -1       926-2.51853E+05 5.62476E+03-1.30561E+04 4.22469E+03-2.36500E-09-1.25701E-08
 -1       927-2.57053E+05-6.47520E+03-9.13338E+03-7.31086E+03 1.33075E-08-1.41773E-08
 -1       928-2.54634E+05 8.71641E+02-3.48757E+03 3.64517E+03-7.03579E-10-1.07345E-08
 -1       929-2.52497E+05-9.44148E+02-1.61466E+03-4.86663E+03-1.09864E-08-1.05715E-08
 -1       930-2.56356E+05 5.75686E+01-1.22985E+03 1.78003E+03 6.59355E-10-5.44014E-09
 -1       931-2.50410E+05-3.21715E+01 3.70573E+02-5.34212E+02 5.30686E-09-3.07587E-09
 -1       932-2.56678E+05-7.28303E+01-5.78986E+02-6.87210E+02 4.20965E-09 1.51320E-09
 -1       933-2.51283E+05 9.25644E+01 6.87148E+02 4.06777E+03-3.81590E-10 4.84513E-09
 -1       934-2.55509E+05-4.77407E+01 6.34448E+01-2.82166E+03 1.74964E-10 7.22780E-09
 -1       935-2.53438E+05 2.29957E+02 8.72620E+02 7.20152E+03 1.15747E-09 1.03476E-08
 -1       936-2.54581E+05-1.64615E+02 1.24603E+03-3.82121E+03 2.33985E-10 1.00372E-08
 -1       937-2.53300E+05 1.49261E+03 3.16024E+03 7.70002E+03 8.54951E-09 1.15815E-08
 -1       938-2.55659E+05-1.29974E+03 4.80022E+03-3.32026E+03 8.91225E-09 8.18545E-09
 -1       939-2.47584E+05 9.70664E+03 1.39428E+04 5.39518E+03 5.99176E-09 7.82256E-09
 -1       940-2.60244E+05-8.41127E+03 1.85645E+04-1.51606E+03-4.04725E-10 3.10320E-09
 -1       941 1.61106E+06-8.08241E+04 1.87245E+05 1.68126E+02-1.46241E-07 6.33008E-10
 -1       942 1.69211E+06 9.35846E+04 1.32414E+05 4.71828E+01-3.01451E-07-1.46429E-09
 -1       943 1.64235E+06-1.26725E+04 4.85026E+04 1.20681E+02-2.50614E-07 2.69210E-10
 -1       944 1.65571E+06 1.46675E+04 3.05105E+04 1.01933E+02-1.95598E-07-1.09867E-09
 -1       945 1.64753E+06-1.98351E+03 1.25068E+04 1.13389E+02-1.22208E-07 1.31604E-09
 -1       946 1.64971E+06 2.32923E+03 7.50580E+03 1.10244E+02-5.35297E-08 2.59445E-09
 -1       947 1.64838E+06-3.44254E+02 3.74540E+03 1.12373E+02 1.14066E-08 2.00816E-09
 -1       948 1.64884E+06 6.37792E+02 3.10170E+03 1.10618E+02 7.40117E-08 8.58222E-10
 -1       949 1.64841E+06-2.93247E+02 3.28659E+03 1.13016E+02 3.07524E-07-2.46428E-09
 -1       950 1.64948E+06 1.89069E+03 6.17889E+03 1.04786E+02 5.40977E-07 2.39754E-09
 -1       951 1.64773E+06-1.59628E+03 1.01184E+04 1.18204E+02 1.58791E-06-2.32376E-09
 -1       952 1.65429E+06 1.17882E+04 2.45513E+04 6.64704E+01 2.62622E-06-2.50111E-11
 -1       953 1.64358E+06-1.01829E+04 3.89878E+04 1.51330E+02 1.31353E-06 3.37786E-09
 -1       954 1.68353E+06 7.51967E+04 1.06402E+05-1.80422E+02 1.20985E-09 1.03682E-09
 -1       955 1.61843E+06-6.49448E+04 1.50432E+05 3.65074E+02-1.00611E-08-6.54836E-11
 -1       956-8.30716E+04-1.46573E+03-3.11997E+03 1.12755E+04-1.57888E-09 4.21778E-10
 -1       957-8.36456E+04-4.68419E+02-1.57735E+03 1.31332E+04-4.03816E-10-1.49765E-09
 -1       958-8.33268E+04-5.40693E+01-7.09332E+02 1.12085E+04 1.13914E-09-5.40581E-10
 -1       959-8.33774E+04-1.02832E+01-3.61027E+02 1.32066E+04-7.87622E-10-2.37947E-10
 -1       960-8.33524E+04 1.01117E+01-1.75153E+02 1.12018E+04-1.67938E-09 9.24274E-11
 -1       961-8.33560E+04 1.01648E+01-9.23132E+01 1.32140E+04-3.36229E-09-1.14937E-10
 -1       962-8.33578E+04 9.83560E+00-5.16705E+01 1.12011E+04-1.55569E-09-2.26805E-10
 -1       963-8.33552E+04 1.07175E+01-3.94837E+01 1.32149E+04-1.93739E-09 6.15273E-10
 -1       964-8.33593E+04 1.03836E+01-4.54289E+01 1.12009E+04-2.71370E-10-4.18709E-10
 -1       965-8.33583E+04 1.15743E+01-7.64684E+01 1.32147E+04 1.98914E-09-9.71113E-10
 -1       966-8.33572E+04 1.18605E+01-1.42369E+02 1.12013E+04-2.34877E-10-4.03361E-10
 -1       967-8.33781E+04-3.64209E+00-2.92277E+02 1.32108E+04-3.77270E-10 1.97474E-10
 -1       968-8.33384E+04-3.88179E+01-5.73466E+02 1.12049E+04 4.93060E-09-1.86731E-10
 -1       969-8.35971E+04-3.72979E+02-1.27532E+03 1.31710E+04 1.02399E-08 4.71914E-10
 -1       970-8.31337E+04-1.17950E+03-2.52223E+03 1.12416E+04 5.44287E-09-3.34921E-10
 -1       971-1.58334E+05 1.99813E+03-9.27147E+03 1.75114E+03-2.14163E-09 6.36646E-11
 -1       972-1.61617E+05-2.80298E+03-5.89609E+03 6.33276E+03-1.86668E-09-1.37106E-10
 -1       973-1.59721E+05 2.00010E+02-2.40256E+03 1.72077E+03-2.53851E-09-5.57066E-10
 -1       974-1.60085E+05-2.60423E+02-1.33548E+03 6.37150E+03 1.49475E-09-1.77351E-10
 -1       975-1.59874E+05 2.26723E+01-6.18104E+02 1.71225E+03 2.16585E-09-8.17579E-10
 -1       976-1.59917E+05-1.74877E+01-3.43494E+02 6.38392E+03-1.51488E-11-1.55751E-11
 -1       977-1.59893E+05 5.19020E+00-2.03142E+02 1.70832E+03 5.55002E-09-1.48039E-09
 -1       978-1.59901E+05 3.12531E+00-1.84698E+02 6.38911E+03 8.67531E-09-4.27249E-10
 -1       979-1.59892E+05 6.27461E+00-2.46602E+02 1.70705E+03 4.83808E-09-1.52954E-09
 -1       980-1.59929E+05-2.62802E+01-4.57894E+02 6.38874E+03 4.30600E-09-1.87814E-10
 -1       981-1.59866E+05 3.15405E+01-8.46377E+02 1.70868E+03-4.19959E-10-1.29239E-09
 -1       982-1.60165E+05-3.61320E+02-1.84380E+03 6.38201E+03-1.82968E-09-5.21396E-10
 -1       983-1.59654E+05 2.77996E+02-3.32166E+03 1.71384E+03 1.13141E-09-1.37902E-09
 -1       984-1.62289E+05-3.87824E+03-8.15799E+03 6.35389E+03-6.34316E-10 3.26509E-10
 -1       985-1.57736E+05 2.76757E+03-1.28274E+04 1.73712E+03 8.96762E-10-2.59206E-10
 -3
    1PSTEP                        21          11           1          
  100CL  111 2.19551E-01         841                     0   11           1
 -4  DISP        4    1
 -5  D1          1    2    1    0
 -5  D2          1    2    2    0
 -5  D3          1    2    3    0
 -5  ALL         1    2    0    0    1ALL
 -1         1 2.73461E-05 0.00000E+00 0.00000E+00
 -1         2 2.03587E-05 0.00000E+00 0.00000E+00
 -1         3 1.70388E-05 0.00000E+00 0.00000E+00
 -1         4 1.49814E-05 0.00000E+00 0.00000E+00
 -1         5 1.40110E-05 0.00000E+00 0.00000E+00
 -1         8 2.15989E-05-2.72708E-07 0.00000E+00
 -1         9 1.68980E-05 1.67439E-07 0.00000E+00
 -1        10 1.61040E-05-6.42939E-07 0.00000E+00
 -1        11 1.48261E-05-1.25752E-07 0.00000E+00
 -1        12 1.35477E-05 3.26492E-07 0.00000E+00
 -1        15 9.60328E-06-5.51062E-07 0.00000E+00
 -1        16 1.27265E-05 1.57407E-07 0.00000E+00
 -1        17 1.16775E-05-1.30459E-06 0.00000E+00
 -1        18 1.17379E-05-2.48617E-07 0.00000E+00
 -1        19 1.22938E-05 6.47650E-07 0.00000E+00
 -1        20 1.24780E-05 6.95743E-06 0.00000E+00
 -1        21 1.24722E-05 1.66167E-05 0.00000E+00
 -1        22 3.66946E-06-3.78317E-07 0.00000E+00
 -1        23 5.05682E-06 5.49332E-07 0.00000E+00
 -1        24 4.81067E-06-1.56090E-06 0.00000E+00
 -1        25 1.04709E-05-1.62252E-07 0.00000E+00
 -1        26 1.09579E-05 8.59520E-07 0.00000E+00
 -1        27 1.04340E-05 6.70678E-06 0.00000E+00
 -1        28 9.80353E-06 1.63785E-05 0.00000E+00
 -1        29 0.00000E+00 0.00000E+00 0.00000E+00
 -1        30 1.54232E-06 7.31936E-07 0.00000E+00
 -1        31 1.63142E-06-1.39077E-06 0.00000E+00
 -1        32 0.00000E+00 0.00000E+00 0.00000E+00
 -1        33 9.23127E-06 1.33343E-06 0.00000E+00
 -1        34 8.76000E-06 6.68267E-06 0.00000E+00
 -1        35 7.85778E-06 1.62508E-05 0.00000E+00
 -1        36 2.69233E-05 1.20382E-20-6.61744E-24
 -1        37 2.64867E-05 6.33542E-20 0.00000E+00
 -1        38 2.60509E-05 9.71743E-20-1.32349E-23
 -1        39 2.56125E-05 1.51758E-19 6.61744E-24
 -1        40 2.51740E-05 1.84808E-19 0.00000E+00
 -1        41 2.47350E-05 1.59032E-19 0.00000E+00
 -1        42 2.42959E-05 6.75556E-20-1.32349E-23
 -1        43 2.38567E-05-1.66551E-20 0.00000E+00
 -1        44 2.34176E-05-6.01654E-20 1.32349E-23
 -1        45 2.29784E-05-1.84232E-20 6.61744E-24
 -1        46 2.25393E-05 7.56405E-20 0.00000E+00
 -1        47 2.21005E-05 1.58376E-19 6.61744E-24
 -1        48 2.16618E-05 9.87035E-20 0.00000E+00
 -1        49 2.12248E-05 8.06855E-20-6.61744E-24
 -1        50 2.07872E-05 6.65870E-20 0.00000E+00
 -1        51 2.69090E-05-4.65519E-08 0.00000E+00
 -1        52 2.61884E-05-9.10543E-08 0.00000E+00
 -1        53 2.52394E-05-1.35168E-07 0.00000E+00
 -1        54 2.41194E-05-1.79493E-07 0.00000E+00
 -1        55 2.28866E-05-2.24636E-07 2.06795E-25
 -1        56 2.67981E-05-2.11616E-07-1.32349E-23
 -1        57 2.62327E-05-4.36867E-07 0.00000E+00
 -1        58 2.56672E-05-6.58736E-07 0.00000E+00
 -1        59 2.50938E-05-8.69743E-07 0.00000E+00
 -1        60 2.45124E-05-1.05976E-06 0.00000E+00
 -1        61 2.39192E-05-1.22030E-06-6.61744E-24
 -1        62 2.33119E-05-1.34327E-06-1.32349E-23
 -1        63 2.26876E-05-1.42124E-06 6.61744E-24
 -1        64 2.20439E-05-1.44771E-06 0.00000E+00
 -1        65 2.13788E-05-1.41680E-06 0.00000E+00
 -1        66 2.06906E-05-1.32398E-06 0.00000E+00
 -1        67 1.99783E-05-1.16527E-06 0.00000E+00
 -1        68 1.92406E-05-9.38519E-07 0.00000E+00
 -1        69 1.84800E-05-6.41078E-07 6.61744E-24
 -1        70 1.76923E-05-2.74625E-07 0.00000E+00
 -1        71 2.01504E-05 1.63775E-20 0.00000E+00
 -1        72 1.99425E-05 7.57673E-20 0.00000E+00
 -1        73 1.97345E-05 2.33243E-19 0.00000E+00
 -1        74 1.95266E-05 3.77198E-19-3.30872E-24
 -1        75 1.93187E-05 5.39801E-19 6.61744E-24
 -1        76 1.91109E-05 6.58752E-19 3.30872E-24
 -1        77 1.89030E-05 6.33282E-19-6.61744E-24
 -1        78 1.86952E-05 5.30932E-19-3.30872E-24
 -1        79 1.84873E-05 2.97251E-19-6.61744E-24
 -1        80 1.82795E-05 2.62615E-20 0.00000E+00
 -1        81 1.80717E-05-1.00043E-19 0.00000E+00
 -1        82 1.78640E-05-1.70239E-19 0.00000E+00
 -1        83 1.76564E-05-1.91206E-19 0.00000E+00
 -1        84 1.74495E-05-1.26329E-19-3.30872E-24
 -1        85 1.72423E-05-3.65029E-20 0.00000E+00
 -1        86 2.02113E-05 2.07338E-08 3.30872E-24
 -1        87 1.97718E-05 5.11669E-08-4.13590E-25
 -1        88 1.91322E-05 8.08201E-08 0.00000E+00
 -1        89 1.83841E-05 1.11201E-07 2.06795E-25
 -1        90 1.76114E-05 1.42011E-07 0.00000E+00
 -1        91 2.00434E-05 9.41358E-08 0.00000E+00
 -1        92 1.95882E-05 5.57276E-07 0.00000E+00
 -1        93 1.90782E-05 1.16623E-06-6.61744E-24
 -1        94 1.85980E-05 1.69560E-06 3.30872E-24
 -1        95 1.82165E-05 1.96180E-06 0.00000E+00
 -1        96 1.80016E-05 1.78403E-06-3.30872E-24
 -1        97 1.79355E-05 1.20913E-06-6.61744E-24
 -1        98 1.79988E-05 2.88337E-07-3.30872E-24
 -1        99 1.81052E-05-7.47514E-07 0.00000E+00
 -1       100 1.81678E-05-1.66626E-06 0.00000E+00
 -1       101 1.81224E-05-2.29649E-06 0.00000E+00
 -1       102 1.79061E-05-2.46988E-06-3.30872E-24
 -1       103 1.75438E-05-2.25411E-06 0.00000E+00
 -1       104 1.70634E-05-1.72065E-06 0.00000E+00
 -1       105 1.65519E-05-1.10555E-06 0.00000E+00
 -1       106 1.69105E-05 2.16294E-19 0.00000E+00
 -1       107 1.67817E-05 9.08839E-19 0.00000E+00
 -1       108 1.66530E-05 1.97669E-18 0.00000E+00
 -1       109 1.65241E-05 3.26819E-18-1.65436E-24
 -1       110 1.63952E-05 4.56759E-18-3.30872E-24
 -1       111 1.62663E-05 5.73254E-18 0.00000E+00
 -1       112 1.61374E-05 6.56141E-18 3.30872E-24
 -1       113 1.60085E-05 6.91255E-18 0.00000E+00
 -1       114 1.58796E-05 6.74914E-18 0.00000E+00
 -1       115 1.57508E-05 6.06012E-18 0.00000E+00
 -1       116 1.56219E-05 4.93937E-18 3.30872E-24
 -1       117 1.54931E-05 3.51133E-18 0.00000E+00
 -1       118 1.53644E-05 2.12033E-18 3.30872E-24
 -1       119 1.52360E-05 1.02045E-18 0.00000E+00
 -1       120 1.51076E-05 2.77051E-19 3.30872E-24
 -1       121 1.70387E-05-1.07439E-07-3.30872E-24
 -1       122 1.70097E-05-2.14502E-07-1.65436E-24
 -1       123 1.69267E-05-3.21578E-07 0.00000E+00
 -1       124 1.67648E-05-4.28630E-07-1.65436E-24
 -1       125 1.64988E-05-5.35692E-07 3.30872E-24
 -1       126 1.69933E-05-2.54096E-07 0.00000E+00
 -1       127 1.71028E-05-9.22719E-07 0.00000E+00
 -1       128 1.73209E-05-1.88183E-06-3.30872E-24
 -1       129 1.76006E-05-3.00592E-06-1.65436E-24
 -1       130 1.78775E-05-4.12219E-06 0.00000E+00
 -1       131 1.80868E-05-5.05790E-06 0.00000E+00
 -1       132 1.81834E-05-5.69241E-06 0.00000E+00
 -1       133 1.81226E-05-5.90675E-06-1.65436E-24
 -1       134 1.79040E-05-5.70041E-06 0.00000E+00
 -1       135 1.75281E-05-5.07522E-06 0.00000E+00
 -1       136 1.70400E-05-4.15134E-06-3.30872E-24
 -1       137 1.64855E-05-3.05056E-06-1.65436E-24
 -1       138 1.59290E-05-1.94478E-06-3.30872E-24
 -1       139 1.54357E-05-1.00582E-06-1.65436E-24
 -1       140 1.50520E-05-3.58688E-07 3.30872E-24
 -1       141 1.49199E-05-1.89728E-20 0.00000E+00
 -1       142 1.48587E-05-1.05835E-20-8.27181E-25
 -1       143 1.47974E-05 1.90204E-20 0.00000E+00
 -1       144 1.47363E-05 6.04957E-20 0.00000E+00
 -1       145 1.46751E-05 7.01617E-20 1.65436E-24
 -1       146 1.46140E-05 8.90710E-20 0.00000E+00
 -1       147 1.45529E-05 9.71882E-20 0.00000E+00
 -1       148 1.44918E-05 8.98686E-20 8.27181E-25
 -1       149 1.44307E-05 8.95446E-20-1.65436E-24
 -1       150 1.43696E-05 9.55992E-20 8.27181E-25
 -1       151 1.43086E-05 7.81438E-20 1.65436E-24
 -1       152 1.42477E-05 4.69767E-20-8.27181E-25
 -1       153 1.41869E-05 2.73909E-20-1.65436E-24
 -1       154 1.41269E-05 1.15465E-20 0.00000E+00
 -1       155 1.40666E-05 1.16665E-20 0.00000E+00
 -1       156 1.49792E-05-2.21791E-08-1.65436E-24
 -1       157 1.49723E-05-4.23947E-08 0.00000E+00
 -1       158 1.49571E-05-6.27577E-08 0.00000E+00
 -1       159 1.49298E-05-8.31507E-08 0.00000E+00
 -1       160 1.48872E-05-1.03388E-07 0.00000E+00
 -1       161 1.49134E-05-3.85055E-08-1.65436E-24
 -1       162 1.48538E-05-9.96674E-08 8.27181E-25
 -1       163 1.47994E-05-1.74797E-07-1.65436E-24
 -1       164 1.47470E-05-2.55184E-07 8.27181E-25
 -1       165 1.46928E-05-3.30951E-07 0.00000E+00
 -1       166 1.46333E-05-3.92242E-07 0.00000E+00
 -1       167 1.45657E-05-4.32130E-07 0.00000E+00
 -1       168 1.44875E-05-4.43756E-07 0.00000E+00
 -1       169 1.43979E-05-4.24947E-07 0.00000E+00
 -1       170 1.42961E-05-3.73613E-07-8.27181E-25
 -1       171 1.41835E-05-2.93280E-07-1.65436E-24
 -1       172 1.40615E-05-1.87501E-07 0.00000E+00
 -1       173 1.39330E-05-6.42518E-08 0.00000E+00
 -1       174 1.38018E-05 6.88481E-08 0.00000E+00
 -1       175 1.36704E-05 2.01642E-07 0.00000E+00
 -1       191 1.39953E-05 5.43779E-08-1.65436E-24
 -1       192 1.39543E-05 1.08822E-07-1.65436E-24
 -1       193 1.38884E-05 1.63282E-07-3.30872E-24
 -1       194 1.37982E-05 2.17736E-07-1.65436E-24
 -1       195 1.36844E-05 2.72162E-07 0.00000E+00
 -1       251 2.13159E-05 1.59215E-06 0.00000E+00
 -1       252 2.10214E-05 5.12433E-06 0.00000E+00
 -1       253 2.07267E-05 8.88197E-06 0.00000E+00
 -1       254 2.04342E-05 1.14200E-05-3.30872E-24
 -1       255 2.01444E-05 1.19379E-05 0.00000E+00
 -1       256 1.98520E-05 9.66133E-06-3.30872E-24
 -1       257 1.95531E-05 5.28955E-06 6.61744E-24
 -1       258 1.92475E-05-4.51209E-07 3.30872E-24
 -1       259 1.89424E-05-6.11230E-06-6.61744E-24
 -1       260 1.86445E-05-1.02459E-05 0.00000E+00
 -1       261 1.83527E-05-1.22104E-05 0.00000E+00
 -1       262 1.80627E-05-1.13922E-05-3.30872E-24
 -1       263 1.77697E-05-8.64503E-06 0.00000E+00
 -1       264 1.74748E-05-4.84765E-06 3.30872E-24
 -1       265 1.71807E-05-1.43389E-06 0.00000E+00
 -1       266 2.04416E-05-3.20511E-07 0.00000E+00
 -1       267 1.90041E-05-3.65857E-07 0.00000E+00
 -1       268 1.72364E-05-4.11877E-07 0.00000E+00
 -1       269 1.50894E-05-4.57804E-07 8.27181E-25
 -1       270 1.25493E-05-5.04689E-07 0.00000E+00
 -1       271 2.08024E-05 4.45159E-07 0.00000E+00
 -1       272 2.00751E-05 9.31335E-07-6.61744E-24
 -1       273 1.94229E-05 1.21865E-06 1.32349E-23
 -1       274 1.88327E-05 1.33407E-06-6.61744E-24
 -1       275 1.82956E-05 1.30691E-06-1.32349E-23
 -1       276 1.78006E-05 1.16640E-06 6.61744E-24
 -1       277 1.73369E-05 9.42349E-07 0.00000E+00
 -1       278 1.68931E-05 6.64880E-07 6.61744E-24
 -1       279 1.64579E-05 3.64330E-07-1.32349E-23
 -1       280 1.60201E-05 7.11534E-08 0.00000E+00
 -1       281 1.55682E-05-1.84258E-07 1.32349E-23
 -1       282 1.50911E-05-3.71611E-07-6.61744E-24
 -1       283 1.45776E-05-4.60997E-07 0.00000E+00
 -1       284 1.40183E-05-4.22261E-07-6.61744E-24
 -1       285 1.34001E-05-2.27283E-07 0.00000E+00
 -1       286 1.68458E-05 7.59734E-07 3.30872E-24
 -1       287 1.67962E-05 1.17089E-06 8.27181E-25
 -1       288 1.67465E-05 1.40227E-06-1.65436E-24
 -1       289 1.66973E-05 1.45562E-06 0.00000E+00
 -1       290 1.66482E-05 1.35130E-06 0.00000E+00
 -1       291 1.65991E-05 1.10999E-06-8.27181E-25
 -1       292 1.65500E-05 7.66691E-07 1.65436E-24
 -1       293 1.65009E-05 3.56623E-07-8.27181E-25
 -1       294 1.64518E-05-7.80274E-08 0.00000E+00
 -1       295 1.64026E-05-4.95017E-07 0.00000E+00
 -1       296 1.63535E-05-8.53958E-07 0.00000E+00
 -1       297 1.63044E-05-1.11457E-06 0.00000E+00
 -1       298 1.62552E-05-1.24686E-06 1.65436E-24
 -1       299 1.62056E-05-1.22109E-06-8.27181E-25
 -1       300 1.61561E-05-1.02406E-06 3.30872E-24
 -1       301 1.62015E-05 1.62764E-07 0.00000E+00
 -1       302 1.55007E-05 1.62977E-07 4.13590E-25
 -1       303 1.47993E-05 1.64002E-07 8.27181E-25
 -1       304 1.41007E-05 1.64831E-07 8.27181E-25
 -1       305 1.34086E-05 1.64422E-07 0.00000E+00
 -1       306 1.63820E-05 6.06227E-07 0.00000E+00
 -1       307 1.59413E-05 8.17760E-07 0.00000E+00
 -1       308 1.55730E-05 8.37078E-07 6.61744E-24
 -1       309 1.52634E-05 6.96131E-07 0.00000E+00
 -1       310 1.50012E-05 4.28218E-07 0.00000E+00
 -1       311 1.47739E-05 6.65990E-08 6.61744E-24
 -1       312 1.45690E-05-3.55122E-07 0.00000E+00
 -1       313 1.43740E-05-8.03229E-07 0.00000E+00
 -1       314 1.41763E-05-1.24390E-06-1.32349E-23
 -1       315 1.39631E-05-1.64335E-06 6.61744E-24
 -1       316 1.37219E-05-1.96792E-06 1.32349E-23
 -1       317 1.34404E-05-2.18411E-06 0.00000E+00
 -1       318 1.31060E-05-2.25882E-06 0.00000E+00
 -1       319 1.27079E-05-2.15885E-06 0.00000E+00
 -1       320 1.22321E-05-1.85259E-06-6.61744E-24
 -1       321 1.60227E-05-1.80112E-07 0.00000E+00
 -1       322 1.59427E-05 2.61228E-07-1.65436E-24
 -1       323 1.58626E-05 6.53134E-07 0.00000E+00
 -1       324 1.57827E-05 9.67845E-07 0.00000E+00
 -1       325 1.57029E-05 1.19042E-06 0.00000E+00
 -1       326 1.56231E-05 1.30624E-06-1.65436E-24
 -1       327 1.55434E-05 1.31844E-06 0.00000E+00
 -1       328 1.54637E-05 1.23051E-06 0.00000E+00
 -1       329 1.53839E-05 1.06258E-06 0.00000E+00
 -1       330 1.53042E-05 8.35074E-07 0.00000E+00
 -1       331 1.52244E-05 5.78312E-07 0.00000E+00
 -1       332 1.51447E-05 3.22715E-07 0.00000E+00
 -1       333 1.50649E-05 9.85081E-08 0.00000E+00
 -1       334 1.49853E-05-6.41888E-08 1.65436E-24
 -1       335 1.49056E-05-1.45477E-07 0.00000E+00
 -1       336 1.55544E-05-7.53591E-07 3.30872E-24
 -1       337 1.48875E-05-8.64246E-07 1.65436E-24
 -1       338 1.41346E-05-9.74914E-07 0.00000E+00
 -1       339 1.33275E-05-1.08536E-06 0.00000E+00
 -1       340 1.24979E-05-1.19584E-06 0.00000E+00
 -1       341 1.43382E-05 3.64923E-06 3.30872E-24
 -1       342 9.61728E-06 1.56357E-05 0.00000E+00
 -1       343 2.78299E-06 3.30297E-05-3.30872E-24
 -1       344-5.27974E-06 5.35256E-05 1.65436E-24
 -1       345-1.33050E-05 7.39266E-05-3.30872E-24
 -1       346-2.00271E-05 9.10359E-05 0.00000E+00
 -1       347-2.45855E-05 1.02603E-04 0.00000E+00
 -1       348-2.61622E-05 1.06395E-04-1.65436E-24
 -1       349-2.48171E-05 1.02395E-04-3.30872E-24
 -1       350-2.06261E-05 9.06285E-05 0.00000E+00
 -1       351-1.44528E-05 7.33521E-05 0.00000E+00
 -1       352-7.14099E-06 5.28646E-05 1.65436E-24
 -1       353 1.60550E-07 3.24066E-05-3.30872E-24
 -1       354 6.30324E-06 1.52193E-05-1.65436E-24
 -1       355 1.04469E-05 3.58678E-06 0.00000E+00
 -1       356 1.47458E-05-6.93024E-08-3.30872E-24
 -1       357 1.46654E-05-4.06552E-08 0.00000E+00
 -1       358 1.45849E-05-3.67805E-08 0.00000E+00
 -1       359 1.45044E-05-5.45590E-08 1.65436E-24
 -1       360 1.44239E-05-8.72397E-08-3.30872E-24
 -1       361 1.43434E-05-1.28019E-07 0.00000E+00
 -1       362 1.42629E-05-1.68733E-07 3.30872E-24
 -1       363 1.41824E-05-2.01219E-07-1.65436E-24
 -1       364 1.41019E-05-2.18696E-07 3.30872E-24
 -1       365 1.40214E-05-2.14435E-07 1.65436E-24
 -1       366 1.39410E-05-1.85353E-07 1.65436E-24
 -1       367 1.38608E-05-1.28456E-07 0.00000E+00
 -1       368 1.37806E-05-4.54173E-08 1.65436E-24
 -1       369 1.37014E-05 6.19986E-08-8.27181E-25
 -1       370 1.36219E-05 1.87941E-07-4.13590E-25
 -1       371 1.45923E-05-1.48456E-07-1.65436E-24
 -1       372 1.40351E-05-1.69016E-07 0.00000E+00
 -1       373 1.33128E-05-1.89803E-07 8.27181E-25
 -1       374 1.25834E-05-2.09926E-07 2.06795E-25
 -1       375 1.20056E-05-2.30023E-07 2.06795E-25
 -1       376 1.48148E-05-4.62245E-07 0.00000E+00
 -1       377 1.50715E-05-1.52085E-06 1.65436E-24
 -1       378 1.55201E-05-3.09277E-06-3.30872E-24
 -1       379 1.60813E-05-4.96717E-06 0.00000E+00
 -1       380 1.66448E-05-6.84799E-06 0.00000E+00
 -1       381 1.71002E-05-8.43935E-06-1.65436E-24
 -1       382 1.73673E-05-9.52656E-06 0.00000E+00
 -1       383 1.73664E-05-9.89781E-06 0.00000E+00
 -1       384 1.70929E-05-9.54216E-06-3.30872E-24
 -1       385 1.65437E-05-8.45263E-06 1.65436E-24
 -1       386 1.57934E-05-6.82914E-06 0.00000E+00
 -1       387 1.49184E-05-4.87432E-06 1.65436E-24
 -1       388 1.40298E-05-2.88341E-06-3.30872E-24
 -1       389 1.32402E-05-1.15135E-06-1.65436E-24
 -1       390 1.26317E-05 9.82953E-08 1.65436E-24
 -1       406 1.33821E-05 3.80324E-07-1.65436E-24
 -1       407 1.31964E-05 4.34199E-07-8.27181E-25
 -1       408 1.29926E-05 4.88046E-07 0.00000E+00
 -1       409 1.27728E-05 5.41762E-07 0.00000E+00
 -1       410 1.25391E-05 5.95197E-07 1.65436E-24
 -1       466 9.78827E-06 1.99649E-06-3.30872E-24
 -1       467 9.98380E-06 3.35505E-06 1.65436E-24
 -1       468 1.01796E-05 3.90022E-06 6.61744E-24
 -1       469 1.03771E-05 4.00025E-06-3.30872E-24
 -1       470 1.05747E-05 3.79696E-06 0.00000E+00
 -1       471 1.07725E-05 3.42944E-06-3.30872E-24
 -1       472 1.09703E-05 2.95305E-06 0.00000E+00
 -1       473 1.11681E-05 2.42213E-06 0.00000E+00
 -1       474 1.13659E-05 1.86322E-06 0.00000E+00
 -1       475 1.15636E-05 1.30262E-06 3.30872E-24
 -1       476 1.17612E-05 7.65745E-07 0.00000E+00
 -1       477 1.19584E-05 2.78218E-07 0.00000E+00
 -1       478 1.21555E-05-1.09160E-07 0.00000E+00
 -1       479 1.23499E-05-3.44692E-07 0.00000E+00
 -1       480 1.25453E-05-2.99615E-07 0.00000E+00
 -1       481 6.95109E-06-5.26084E-07 4.13590E-25
 -1       482 5.28602E-06-4.97534E-07 0.00000E+00
 -1       483 4.35948E-06-4.68132E-07 0.00000E+00
 -1       484 3.92394E-06-4.38184E-07 0.00000E+00
 -1       485 3.76521E-06-4.08112E-07 0.00000E+00
 -1       486 7.80114E-06 3.61340E-06 3.30872E-24
 -1       487 5.17196E-06 9.92480E-06 3.30872E-24
 -1       488 2.49663E-06 1.63586E-05-6.61744E-24
 -1       489 5.46686E-07 2.08848E-05 3.30872E-24
 -1       490-2.41805E-07 2.23392E-05-6.61744E-24
 -1       491 5.45706E-07 1.95832E-05 3.30872E-24
 -1       492 2.60854E-06 1.33836E-05 0.00000E+00
 -1       493 5.64026E-06 4.54288E-06-3.30872E-24
 -1       494 8.90488E-06-4.93490E-06-6.61744E-24
 -1       495 1.16671E-05-1.30380E-05-3.30872E-24
 -1       496 1.34138E-05-1.83817E-05 0.00000E+00
 -1       497 1.36322E-05-1.96108E-05 0.00000E+00
 -1       498 1.24967E-05-1.72351E-05 0.00000E+00
 -1       499 1.02006E-05-1.17962E-05-3.30872E-24
 -1       500 7.47154E-06-5.22336E-06-3.30872E-24
 -1       501 1.26571E-05 7.07532E-07-3.30872E-24
 -1       502 1.25914E-05 1.02658E-06 0.00000E+00
 -1       503 1.25254E-05 1.11753E-06 0.00000E+00
 -1       504 1.24602E-05 9.84050E-07 0.00000E+00
 -1       505 1.23948E-05 6.60562E-07 0.00000E+00
 -1       506 1.23296E-05 1.82055E-07-8.27181E-25
 -1       507 1.22644E-05-3.95234E-07 1.65436E-24
 -1       508 1.21991E-05-1.01480E-06 8.27181E-25
 -1       509 1.21338E-05-1.61433E-06 0.00000E+00
 -1       510 1.20687E-05-2.13158E-06 0.00000E+00
 -1       511 1.20035E-05-2.51556E-06 1.65436E-24
 -1       512 1.19384E-05-2.71569E-06 8.27181E-25
 -1       513 1.18734E-05-2.70656E-06 1.65436E-24
 -1       514 1.18082E-05-2.46338E-06-8.27181E-25
 -1       515 1.17430E-05-1.99341E-06-1.65436E-24
 -1       516 1.23119E-05 2.17686E-07 1.65436E-24
 -1       517 1.23845E-05 2.86862E-07 0.00000E+00
 -1       518 1.23436E-05 3.55424E-07 8.27181E-25
 -1       519 1.15886E-05 4.24721E-07-4.13590E-25
 -1       520 9.40069E-06 4.92116E-07-4.13590E-25
 -1       521 1.20670E-05 5.29304E-07 0.00000E+00
 -1       522 1.14742E-05 6.82433E-07-6.61744E-24
 -1       523 1.09503E-05 6.52627E-07 0.00000E+00
 -1       524 1.04813E-05 4.70675E-07 0.00000E+00
 -1       525 1.00567E-05 1.69427E-07 1.32349E-23
 -1       526 9.66420E-06-2.18398E-07 6.61744E-24
 -1       527 9.29161E-06-6.59603E-07-1.32349E-23
 -1       528 8.92646E-06-1.12085E-06 6.61744E-24
 -1       529 8.55630E-06-1.56870E-06-1.32349E-23
 -1       530 8.16866E-06-1.96976E-06-6.61744E-24
 -1       531 7.75113E-06-2.29087E-06 1.32349E-23
 -1       532 7.29166E-06-2.49912E-06 0.00000E+00
 -1       533 6.77799E-06-2.56219E-06 1.32349E-23
 -1       534 6.19986E-06-2.44776E-06 6.61744E-24
 -1       535 5.54342E-06-2.12561E-06 0.00000E+00
 -1       536 1.16776E-05-6.01229E-07-1.65436E-24
 -1       537 1.16810E-05-6.68724E-08 0.00000E+00
 -1       538 1.16843E-05 3.16379E-07 0.00000E+00
 -1       539 1.16882E-05 5.66589E-07-1.03398E-25
 -1       540 1.16922E-05 7.01776E-07-5.16988E-26
 -1       541 1.16962E-05 7.39968E-07-3.55429E-26
 -1       542 1.17003E-05 6.99187E-07 2.58494E-26
 -1       543 1.17044E-05 5.97454E-07-2.58494E-26
 -1       544 1.17085E-05 4.52790E-07 0.00000E+00
 -1       545 1.17126E-05 2.83209E-07 0.00000E+00
 -1       546 1.17167E-05 1.06729E-07 1.03398E-25
 -1       547 1.17209E-05-5.86328E-08-1.03398E-25
 -1       548 1.17250E-05-1.94861E-07-2.06795E-25
 -1       549 1.17292E-05-2.83942E-07-1.03398E-25
 -1       550 1.17334E-05-3.07843E-07 0.00000E+00
 -1       551 1.06508E-05-1.34667E-06-1.21492E-24
 -1       552 9.50720E-06-1.38768E-06 8.27181E-25
 -1       553 8.29853E-06-1.42870E-06-1.65436E-24
 -1       554 7.07775E-06-1.47022E-06 0.00000E+00
 -1       555 5.89776E-06-1.51285E-06-3.30872E-24
 -1       556 1.13792E-05-6.44587E-07 3.30872E-24
 -1       557 1.11393E-05-1.36288E-07-1.65436E-24
 -1       558 1.09512E-05 2.34751E-07 0.00000E+00
 -1       559 1.08089E-05 4.84397E-07 0.00000E+00
 -1       560 1.07061E-05 6.28541E-07 3.30872E-24
 -1       561 1.06370E-05 6.83203E-07 0.00000E+00
 -1       562 1.05954E-05 6.64411E-07 0.00000E+00
 -1       563 1.05753E-05 5.88211E-07 0.00000E+00
 -1       564 1.05708E-05 4.70651E-07 0.00000E+00
 -1       565 1.05758E-05 3.27782E-07 8.27181E-25
 -1       566 1.05842E-05 1.75658E-07 8.27181E-25
 -1       567 1.05902E-05 3.03375E-08 8.27181E-25
 -1       568 1.05876E-05-9.21281E-08 4.13590E-25
 -1       569 1.05705E-05-1.75701E-07 3.87741E-25
 -1       570 1.05332E-05-2.04355E-07 6.20385E-25
 -1       571 1.17713E-05-1.72990E-07 4.13590E-25
 -1       572 1.18057E-05-1.21203E-07 0.00000E+00
 -1       573 1.18404E-05-8.89154E-08 4.13590E-25
 -1       574 1.18752E-05-7.15637E-08 2.06795E-25
 -1       575 1.19101E-05-6.45666E-08 8.27181E-25
 -1       576 1.19450E-05-6.33133E-08 0.00000E+00
 -1       577 1.19799E-05-6.31906E-08 0.00000E+00
 -1       578 1.20149E-05-5.95817E-08 0.00000E+00
 -1       579 1.20498E-05-4.78692E-08 1.65436E-24
 -1       580 1.20847E-05-2.34359E-08 0.00000E+00
 -1       581 1.21196E-05 1.83343E-08 0.00000E+00
 -1       582 1.21545E-05 8.20536E-08 0.00000E+00
 -1       583 1.21894E-05 1.72329E-07 0.00000E+00
 -1       584 1.22243E-05 2.93722E-07 0.00000E+00
 -1       585 1.22591E-05 4.50767E-07 0.00000E+00
 -1       586 1.15565E-05-2.33930E-07 0.00000E+00
 -1       587 1.13485E-05-2.19136E-07 0.00000E+00
 -1       588 1.11248E-05-2.04358E-07 0.00000E+00
 -1       589 1.08966E-05-1.89723E-07-5.16988E-26
 -1       590 1.06750E-05-1.75412E-07 0.00000E+00
 -1       591 1.16836E-05-1.59827E-07 0.00000E+00
 -1       592 1.16335E-05-8.66505E-08 0.00000E+00
 -1       593 1.15879E-05-2.60642E-08-8.27181E-25
 -1       594 1.15458E-05 2.46798E-08 0.00000E+00
 -1       595 1.15063E-05 6.83284E-08 0.00000E+00
 -1       596 1.14684E-05 1.07609E-07-8.27181E-25
 -1       597 1.14311E-05 1.45245E-07 0.00000E+00
 -1       598 1.13934E-05 1.83959E-07-2.06795E-25
 -1       599 1.13543E-05 2.26471E-07 8.27181E-25
 -1       600 1.13128E-05 2.75502E-07-2.06795E-25
 -1       601 1.12677E-05 3.33774E-07-4.13590E-25
 -1       602 1.12183E-05 4.04010E-07-2.06795E-25
 -1       603 1.11633E-05 4.88936E-07 0.00000E+00
 -1       604 1.11021E-05 5.91295E-07 9.04729E-26
 -1       605 1.10335E-05 7.13830E-07-2.06795E-25
 -1       606 1.23065E-05 9.09484E-07 0.00000E+00
 -1       607 1.23184E-05 1.19694E-06 0.00000E+00
 -1       608 1.23300E-05 1.50853E-06 0.00000E+00
 -1       609 1.23415E-05 1.84251E-06-1.65436E-24
 -1       610 1.23529E-05 2.19717E-06 0.00000E+00
 -1       611 1.23644E-05 2.57073E-06 0.00000E+00
 -1       612 1.23758E-05 2.96144E-06 0.00000E+00
 -1       613 1.23872E-05 3.36752E-06 0.00000E+00
 -1       614 1.23986E-05 3.78721E-06-8.27181E-25
 -1       615 1.24100E-05 4.21874E-06 0.00000E+00
 -1       616 1.24213E-05 4.66033E-06 0.00000E+00
 -1       617 1.24327E-05 5.11023E-06-8.27181E-25
 -1       618 1.24441E-05 5.56665E-06 0.00000E+00
 -1       619 1.24555E-05 6.02784E-06 0.00000E+00
 -1       620 1.24668E-05 6.49202E-06-4.13590E-25
 -1       621 1.20473E-05 6.83090E-07-8.27181E-25
 -1       622 1.18065E-05 7.18713E-07-4.13590E-25
 -1       623 1.15743E-05 7.54342E-07-8.27181E-25
 -1       624 1.13536E-05 7.89877E-07 0.00000E+00
 -1       625 1.11472E-05 8.25204E-07-8.27181E-25
 -1       626 1.22171E-05 9.22759E-07 0.00000E+00
 -1       627 1.21299E-05 1.22466E-06 0.00000E+00
 -1       628 1.20336E-05 1.55086E-06 0.00000E+00
 -1       629 1.19291E-05 1.89856E-06 0.00000E+00
 -1       630 1.18175E-05 2.26494E-06 0.00000E+00
 -1       631 1.17001E-05 2.64712E-06 0.00000E+00
 -1       632 1.15777E-05 3.04225E-06 8.27181E-25
 -1       633 1.14516E-05 3.44744E-06 4.13590E-25
 -1       634 1.13228E-05 3.85984E-06-8.27181E-25
 -1       635 1.11924E-05 4.27656E-06 0.00000E+00
 -1       636 1.10614E-05 4.69475E-06 0.00000E+00
 -1       637 1.09309E-05 5.11151E-06 2.06795E-25
 -1       638 1.08020E-05 5.52399E-06 8.27181E-25
 -1       639 1.06756E-05 5.92929E-06 1.03398E-25
 -1       640 1.05528E-05 6.32454E-06 3.10193E-25
 -1       641 1.24783E-05 7.43954E-06-1.03398E-25
 -1       642 1.24782E-05 7.97167E-06-2.58494E-26
 -1       643 1.24780E-05 8.54657E-06-2.58494E-26
 -1       644 1.24778E-05 9.15701E-06 0.00000E+00
 -1       645 1.24776E-05 9.79575E-06 0.00000E+00
 -1       646 1.24773E-05 1.04555E-05-8.07794E-28
 -1       647 1.24770E-05 1.11291E-05 0.00000E+00
 -1       648 1.24767E-05 1.18092E-05-3.23117E-27
 -1       649 1.24765E-05 1.24887E-05 0.00000E+00
 -1       650 1.24762E-05 1.31602E-05 0.00000E+00
 -1       651 1.24759E-05 1.38165E-05 2.58494E-26
 -1       652 1.24755E-05 1.44504E-05 0.00000E+00
 -1       653 1.24752E-05 1.50546E-05-1.03398E-25
 -1       654 1.24746E-05 1.56218E-05 0.00000E+00
 -1       655 1.24742E-05 1.61449E-05 0.00000E+00
 -1       656 1.20611E-05 6.91708E-06 4.13590E-25
 -1       657 1.17016E-05 6.87462E-06 4.13590E-25
 -1       658 1.13794E-05 6.83225E-06-8.27181E-25
 -1       659 1.10742E-05 6.78984E-06 0.00000E+00
 -1       660 1.07658E-05 6.74736E-06 0.00000E+00
 -1       661 1.23439E-05 7.45382E-06 0.00000E+00
 -1       662 1.21969E-05 7.98941E-06 8.27181E-25
 -1       663 1.20375E-05 8.55791E-06-1.65436E-24
 -1       664 1.18681E-05 9.15379E-06 8.27181E-25
 -1       665 1.16906E-05 9.77130E-06 1.65436E-24
 -1       666 1.15071E-05 1.04048E-05 0.00000E+00
 -1       667 1.13198E-05 1.10487E-05 0.00000E+00
 -1       668 1.11307E-05 1.16973E-05-8.27181E-25
 -1       669 1.09419E-05 1.23449E-05 0.00000E+00
 -1       670 1.07556E-05 1.29861E-05-8.27181E-25
 -1       671 1.05738E-05 1.36151E-05 0.00000E+00
 -1       672 1.03986E-05 1.42262E-05-8.27181E-25
 -1       673 1.02322E-05 1.48140E-05 1.65436E-24
 -1       674 1.00764E-05 1.53724E-05 4.13590E-25
 -1       675 9.93367E-06 1.58962E-05 0.00000E+00
 -1       676 1.20263E-05 1.65768E-05 0.00000E+00
 -1       677 1.15806E-05 1.65368E-05 0.00000E+00
 -1       678 1.11353E-05 1.64968E-05 8.27181E-25
 -1       679 1.06905E-05 1.64570E-05-4.13590E-25
 -1       680 1.02466E-05 1.64172E-05 0.00000E+00
 -1       681 3.75499E-06-5.10176E-07 0.00000E+00
 -1       682 3.84311E-06-1.03574E-06 0.00000E+00
 -1       683 3.93088E-06-1.84820E-06 0.00000E+00
 -1       684 4.01901E-06-2.84187E-06-1.65436E-24
 -1       685 4.10704E-06-3.94895E-06-3.30872E-24
 -1       686 4.19512E-06-5.10210E-06 0.00000E+00
 -1       687 4.28322E-06-6.24357E-06 3.30872E-24
 -1       688 4.37141E-06-7.31559E-06-1.65436E-24
 -1       689 4.45974E-06-8.24588E-06 0.00000E+00
 -1       690 4.54820E-06-8.96156E-06 0.00000E+00
 -1       691 4.63681E-06-9.34484E-06 3.30872E-24
 -1       692 4.72532E-06-9.27662E-06 0.00000E+00
 -1       693 4.81351E-06-8.54337E-06 1.65436E-24
 -1       694 4.89987E-06-6.92888E-06 8.27181E-25
 -1       695 4.98364E-06-4.03305E-06-8.27181E-25
 -1       696 3.45371E-06-3.16800E-07 1.65436E-24
 -1       697 2.94294E-06-2.53658E-07 0.00000E+00
 -1       698 2.24241E-06-1.90724E-07 0.00000E+00
 -1       699 1.45688E-06-1.27400E-07 8.27181E-25
 -1       700 6.78648E-07-6.40997E-08 0.00000E+00
 -1       701 3.50623E-06-2.13872E-07 0.00000E+00
 -1       702 3.24007E-06 2.10418E-07-8.27181E-25
 -1       703 2.89822E-06 8.37199E-07-3.30872E-24
 -1       704 2.50206E-06 1.60590E-06 1.65436E-24
 -1       705 2.08680E-06 2.42538E-06 3.30872E-24
 -1       706 1.68675E-06 3.20392E-06 0.00000E+00
 -1       707 1.33306E-06 3.85905E-06-3.30872E-24
 -1       708 1.05653E-06 4.30871E-06 0.00000E+00
 -1       709 8.70915E-07 4.51618E-06 3.30872E-24
 -1       710 7.89573E-07 4.44574E-06-1.65436E-24
 -1       711 8.02796E-07 4.12304E-06 0.00000E+00
 -1       712 9.00632E-07 3.57488E-06 0.00000E+00
 -1       713 1.05420E-06 2.87786E-06-3.30872E-24
 -1       714 1.23533E-06 2.10959E-06 8.27181E-25
 -1       715 1.40811E-06 1.36272E-06 0.00000E+00
 -1       716 5.03264E-06 5.33750E-06 0.00000E+00
 -1       717 5.01402E-06 8.84002E-06-2.06795E-25
 -1       718 4.99870E-06 1.11597E-05 0.00000E+00
 -1       719 4.98530E-06 1.23998E-05-2.06795E-25
 -1       720 4.97262E-06 1.26938E-05 4.13590E-25
 -1       721 4.95987E-06 1.21751E-05 0.00000E+00
 -1       722 4.94660E-06 1.10000E-05-4.13590E-25
 -1       723 4.93264E-06 9.32487E-06 0.00000E+00
 -1       724 4.91810E-06 7.31986E-06 0.00000E+00
 -1       725 4.90319E-06 5.15540E-06 0.00000E+00
 -1       726 4.88828E-06 3.00621E-06-4.13590E-25
 -1       727 4.87351E-06 1.04707E-06 0.00000E+00
 -1       728 4.85931E-06-5.52522E-07 8.27181E-25
 -1       729 4.84460E-06-1.62329E-06 0.00000E+00
 -1       730 4.83075E-06-2.01080E-06 0.00000E+00
 -1       731 8.38529E-07 5.71139E-07-1.03398E-25
 -1       732-9.71398E-07 6.02191E-07 0.00000E+00
 -1       733-1.10492E-06 6.34874E-07 0.00000E+00
 -1       734-2.91426E-07 6.67493E-07-4.13590E-25
 -1       735 8.10395E-07 6.99965E-07 0.00000E+00
 -1       736 1.65314E-06 9.20579E-06 1.65436E-24
 -1       737-4.27434E-06 2.43554E-05 0.00000E+00
 -1       738-1.18711E-05 4.37454E-05 0.00000E+00
 -1       739-2.02537E-05 6.51106E-05 0.00000E+00
 -1       740-2.83335E-05 8.57135E-05 0.00000E+00
 -1       741-3.50276E-05 1.02817E-04 1.65436E-24
 -1       742-3.96144E-05 1.14524E-04 3.30872E-24
 -1       743-4.14064E-05 1.18953E-04-1.65436E-24
 -1       744-4.04064E-05 1.15952E-04 0.00000E+00
 -1       745-3.66325E-05 1.05405E-04 0.00000E+00
 -1       746-3.07468E-05 8.90053E-05 0.00000E+00
 -1       747-2.33970E-05 6.84805E-05 0.00000E+00
 -1       748-1.55574E-05 4.65678E-05-3.30872E-24
 -1       749-8.19582E-06 2.60135E-05 1.65436E-24
 -1       750-2.17424E-06 9.23113E-06-1.65436E-24
 -1       751 5.14312E-06-8.59560E-07 3.30872E-24
 -1       752 5.49689E-06-4.90807E-07-3.30872E-24
 -1       753 5.84936E-06-3.29093E-07-6.61744E-24
 -1       754 6.20586E-06-2.52278E-07 0.00000E+00
 -1       755 6.56249E-06-2.28263E-07 0.00000E+00
 -1       756 6.91992E-06-2.25802E-07 0.00000E+00
 -1       757 7.27744E-06-2.36635E-07-1.32349E-23
 -1       758 7.63511E-06-2.52716E-07 0.00000E+00
 -1       759 7.99278E-06-2.71603E-07-1.32349E-23
 -1       760 8.35037E-06-2.90899E-07 6.61744E-24
 -1       761 8.70791E-06-3.08642E-07 0.00000E+00
 -1       762 9.06488E-06-3.22845E-07 6.61744E-24
 -1       763 9.42177E-06-3.27747E-07-1.32349E-23
 -1       764 9.77582E-06-3.17436E-07 0.00000E+00
 -1       765 1.01308E-05-2.69834E-07 0.00000E+00
 -1       766 3.20577E-06-1.53574E-06-1.65436E-24
 -1       767 1.65733E-07-1.50571E-06 0.00000E+00
 -1       768-2.93201E-06-1.47640E-06-1.03398E-25
 -1       769-4.71024E-06-1.44295E-06-1.03398E-25
 -1       770-3.68521E-06-1.40899E-06 0.00000E+00
 -1       771 4.29427E-06-8.79049E-07-6.61744E-24
 -1       772 3.82577E-06-3.33474E-07-3.30872E-24
 -1       773 3.40321E-06 8.81203E-08 0.00000E+00
 -1       774 3.02217E-06 3.98225E-07-3.30872E-24
 -1       775 2.67818E-06 6.09345E-07-6.61744E-24
 -1       776 2.36658E-06 7.34037E-07 0.00000E+00
 -1       777 2.08267E-06 7.84874E-07 0.00000E+00
 -1       778 1.82173E-06 7.74441E-07 0.00000E+00
 -1       779 1.57905E-06 7.15337E-07 0.00000E+00
 -1       780 1.34991E-06 6.20175E-07-3.30872E-24
 -1       781 1.12957E-06 5.01573E-07 0.00000E+00
 -1       782 9.13352E-07 3.72165E-07 3.30872E-24
 -1       783 6.96553E-07 2.44585E-07-6.61744E-24
 -1       784 4.74671E-07 1.31506E-07-3.30872E-24
 -1       785 2.43225E-07 4.56009E-08 0.00000E+00
 -1       786 1.04994E-05-4.02801E-08 0.00000E+00
 -1       787 1.05298E-05 5.42634E-08-2.06795E-25
 -1       788 1.05601E-05 1.25589E-07-8.27181E-25
 -1       789 1.05907E-05 1.77923E-07 4.13590E-25
 -1       790 1.06214E-05 2.15488E-07 8.27181E-25
 -1       791 1.06521E-05 2.42499E-07 0.00000E+00
 -1       792 1.06828E-05 2.63173E-07 8.27181E-25
 -1       793 1.07135E-05 2.81722E-07-4.13590E-25
 -1       794 1.07442E-05 3.02360E-07-8.27181E-25
 -1       795 1.07749E-05 3.29300E-07 0.00000E+00
 -1       796 1.08056E-05 3.66756E-07 8.27181E-25
 -1       797 1.08363E-05 4.18946E-07 4.13590E-25
 -1       798 1.08670E-05 4.90091E-07-8.27181E-25
 -1       799 1.08976E-05 5.84415E-07 0.00000E+00
 -1       800 1.09281E-05 7.06154E-07-8.27181E-25
 -1       801 9.54780E-06-1.33477E-07 0.00000E+00
 -1       802 7.62423E-06-1.04295E-07 0.00000E+00
 -1       803 5.20344E-06-7.62355E-08 0.00000E+00
 -1       804 2.78977E-06-4.91369E-08 0.00000E+00
 -1       805 8.87531E-07-2.09987E-08 0.00000E+00
 -1       806 1.03890E-05-5.30036E-08-8.27181E-25
 -1       807 1.03105E-05 4.40590E-08 0.00000E+00
 -1       808 1.02353E-05 1.31228E-07-1.65436E-24
 -1       809 1.01629E-05 2.10652E-07-8.27181E-25
 -1       810 1.00925E-05 2.84470E-07-1.65436E-24
 -1       811 1.00234E-05 3.54809E-07 0.00000E+00
 -1       812 9.95486E-06 4.23789E-07-8.27181E-25
 -1       813 9.88599E-06 4.93532E-07 0.00000E+00
 -1       814 9.81603E-06 5.66158E-07 0.00000E+00
 -1       815 9.74421E-06 6.43788E-07-4.13590E-25
 -1       816 9.66971E-06 7.28540E-07-8.27181E-25
 -1       817 9.59177E-06 8.22537E-07 0.00000E+00
 -1       818 9.50960E-06 9.27898E-07-8.27181E-25
 -1       819 9.42248E-06 1.04674E-06 2.06795E-25
 -1       820 9.32975E-06 1.18121E-06 0.00000E+00
 -1       821 1.09272E-05 1.05599E-06 4.13590E-25
 -1       822 1.08945E-05 1.29703E-06 4.13590E-25
 -1       823 1.08618E-05 1.57796E-06 8.27181E-25
 -1       824 1.08288E-05 1.89408E-06 0.00000E+00
 -1       825 1.07957E-05 2.24065E-06 0.00000E+00
 -1       826 1.07627E-05 2.61295E-06 0.00000E+00
 -1       827 1.07295E-05 3.00623E-06-8.27181E-25
 -1       828 1.06964E-05 3.41576E-06-4.13590E-25
 -1       829 1.06632E-05 3.83679E-06 8.27181E-25
 -1       830 1.06301E-05 4.26456E-06 0.00000E+00
 -1       831 1.05970E-05 4.69433E-06 0.00000E+00
 -1       832 1.05639E-05 5.12134E-06 0.00000E+00
 -1       833 1.05308E-05 5.54083E-06-8.27181E-25
 -1       834 1.04980E-05 5.94807E-06-4.13590E-25
 -1       835 1.04652E-05 6.33829E-06-4.13590E-25
 -1       836 1.07320E-05 9.37061E-07 1.65436E-24
 -1       837 1.04361E-05 1.01735E-06 0.00000E+00
 -1       838 1.01039E-05 1.09748E-06 0.00000E+00
 -1       839 9.76975E-06 1.17742E-06 0.00000E+00
 -1       840 9.46753E-06 1.25748E-06-8.27181E-25
 -1       841 1.08843E-05 1.05559E-06 2.06795E-25
 -1       842 1.07918E-05 1.30044E-06 0.00000E+00
 -1       843 1.06830E-05 1.58864E-06 0.00000E+00
 -1       844 1.05600E-05 1.91452E-06 0.00000E+00
 -1       845 1.04250E-05 2.27244E-06-1.29247E-26
 -1       846 1.02800E-05 2.65669E-06 0.00000E+00
 -1       847 1.01273E-05 3.06154E-06 0.00000E+00
 -1       848 9.96905E-06 3.48127E-06 0.00000E+00
 -1       849 9.80735E-06 3.91010E-06-2.58494E-26
 -1       850 9.64439E-06 4.34228E-06 1.29247E-26
 -1       851 9.48234E-06 4.77204E-06 2.58494E-26
 -1       852 9.32333E-06 5.19360E-06-2.58494E-26
 -1       853 9.16955E-06 5.60123E-06 1.03398E-25
 -1       854 9.02302E-06 5.98911E-06 0.00000E+00
 -1       855 8.88608E-06 6.35161E-06 0.00000E+00
 -1       856 1.03966E-05 7.10314E-06 4.13590E-25
 -1       857 1.03573E-05 7.57170E-06 4.13590E-25
 -1       858 1.03180E-05 8.10300E-06 0.00000E+00
 -1       859 1.02784E-05 8.68754E-06 4.13590E-25
 -1       860 1.02387E-05 9.31578E-06 0.00000E+00
 -1       861 1.01990E-05 9.97819E-06 4.13590E-25
 -1       862 1.01593E-05 1.06652E-05 8.27181E-25
 -1       863 1.01195E-05 1.13673E-05 0.00000E+00
 -1       864 1.00797E-05 1.20748E-05 0.00000E+00
 -1       865 1.00399E-05 1.27783E-05 0.00000E+00
 -1       866 1.00002E-05 1.34682E-05-1.65436E-24
 -1       867 9.96045E-06 1.41348E-05 8.27181E-25
 -1       868 9.92078E-06 1.47687E-05 0.00000E+00
 -1       869 9.88131E-06 1.53603E-05 0.00000E+00
 -1       870 9.84184E-06 1.59001E-05 0.00000E+00
 -1       871 1.01228E-05 6.70336E-06 0.00000E+00
 -1       872 9.83719E-06 6.69960E-06 0.00000E+00
 -1       873 9.56772E-06 6.69574E-06 0.00000E+00
 -1       874 9.30478E-06 6.69175E-06-1.03398E-25
 -1       875 9.03871E-06 6.68759E-06 0.00000E+00
 -1       876 1.03408E-05 7.11641E-06-8.27181E-25
 -1       877 1.02267E-05 7.58821E-06-8.27181E-25
 -1       878 1.00925E-05 8.11349E-06 0.00000E+00
 -1       879 9.94155E-06 8.68452E-06 8.27181E-25
 -1       880 9.77640E-06 9.29335E-06 0.00000E+00
 -1       881 9.60005E-06 9.93215E-06 0.00000E+00
 -1       882 9.41538E-06 1.05931E-05-1.65436E-24
 -1       883 9.22534E-06 1.12684E-05 8.27181E-25
 -1       884 9.03283E-06 1.19503E-05 0.00000E+00
 -1       885 8.84077E-06 1.26310E-05 0.00000E+00
 -1       886 8.65208E-06 1.33026E-05 0.00000E+00
 -1       887 8.46964E-06 1.39574E-05 0.00000E+00
 -1       888 8.29639E-06 1.45875E-05 1.65436E-24
 -1       889 8.13494E-06 1.51852E-05 0.00000E+00
 -1       890 7.98866E-06 1.57425E-05-8.27181E-25
 -1       891 9.42114E-06 1.63574E-05 0.00000E+00
 -1       892 9.11446E-06 1.63359E-05 0.00000E+00
 -1       893 8.84418E-06 1.63145E-05-4.13590E-25
 -1       894 8.57090E-06 1.62931E-05 0.00000E+00
 -1       895 8.25520E-06 1.62717E-05 4.13590E-25
 -1       896 9.59204E-08 5.55038E-07 3.30872E-24
 -1       897 1.92601E-07 9.65918E-07 0.00000E+00
 -1       898 2.89277E-07 1.26722E-06-3.30872E-24
 -1       899 3.86103E-07 1.49306E-06 1.65436E-24
 -1       900 4.82943E-07 1.66017E-06 3.30872E-24
 -1       901 5.79815E-07 1.78507E-06 1.65436E-24
 -1       902 6.76693E-07 1.87454E-06 0.00000E+00
 -1       903 7.73570E-07 1.93524E-06 0.00000E+00
 -1       904 8.70446E-07 1.96718E-06-3.30872E-24
 -1       905 9.67295E-07 1.97026E-06 0.00000E+00
 -1       906 1.06413E-06 1.93774E-06 0.00000E+00
 -1       907 1.16082E-06 1.86274E-06 0.00000E+00
 -1       908 1.25749E-06 1.72861E-06 0.00000E+00
 -1       909 1.35349E-06 1.51842E-06 0.00000E+00
 -1       910 1.44968E-06 1.19781E-06 0.00000E+00
 -1       911 1.55137E-06 6.07707E-07 4.13590E-25
 -1       912 1.56013E-06 1.30861E-06 1.03398E-25
 -1       913 1.56828E-06 2.65336E-06 0.00000E+00
 -1       914 1.57572E-06 4.46089E-06 0.00000E+00
 -1       915 1.58263E-06 6.55949E-06 2.06795E-25
 -1       916 1.58928E-06 8.77746E-06 1.03398E-25
 -1       917 1.59603E-06 1.09455E-05 0.00000E+00
 -1       918 1.60322E-06 1.28944E-05 1.03398E-25
 -1       919 1.61104E-06 1.44504E-05 0.00000E+00
 -1       920 1.61955E-06 1.54397E-05-1.03398E-25
 -1       921 1.62847E-06 1.56772E-05 0.00000E+00
 -1       922 1.63711E-06 1.49773E-05 1.03398E-25
 -1       923 1.64430E-06 1.31359E-05 0.00000E+00
 -1       924 1.64790E-06 9.94842E-06 0.00000E+00
 -1       925 1.64553E-06 5.18350E-06 0.00000E+00
 -1       926 1.51714E-06-8.97353E-06 0.00000E+00
 -1       927 1.39942E-06-1.67424E-05 0.00000E+00
 -1       928 1.28524E-06-2.40298E-05 0.00000E+00
 -1       929 1.17808E-06-3.01701E-05-1.65436E-24
 -1       930 1.07897E-06-3.47095E-05-3.30872E-24
 -1       931 9.86712E-07-3.72005E-05 1.65436E-24
 -1       932 8.97323E-07-3.75738E-05-3.30872E-24
 -1       933 8.06407E-07-3.57684E-05-1.65436E-24
 -1       934 7.10799E-07-3.21255E-05 0.00000E+00
 -1       935 6.08871E-07-2.69932E-05 0.00000E+00
 -1       936 5.02405E-07-2.09951E-05 3.30872E-24
 -1       937 3.94412E-07-1.47581E-05 0.00000E+00
 -1       938 2.88843E-07-8.95288E-06-3.30872E-24
 -1       939 1.88248E-07-4.24884E-06 1.65436E-24
 -1       940 9.36217E-08-1.11146E-06 0.00000E+00
 -1       941 5.47144E-07 9.03558E-08 6.61744E-24
 -1       942 1.12449E-06 1.70737E-07 0.00000E+00
 -1       943 1.69992E-06 2.45426E-07 0.00000E+00
 -1       944 2.28110E-06 3.18554E-07 6.61744E-24
 -1       945 2.86244E-06 3.90794E-07 0.00000E+00
 -1       946 3.44493E-06 4.62796E-07-6.61744E-24
 -1       947 4.02755E-06 5.34675E-07 0.00000E+00
 -1       948 4.61037E-06 6.06544E-07 6.61744E-24
 -1       949 5.19320E-06 6.78494E-07 0.00000E+00
 -1       950 5.77589E-06 7.50617E-07 0.00000E+00
 -1       951 6.35848E-06 8.23392E-07 1.32349E-23
 -1       952 6.94015E-06 8.97319E-07-6.61744E-24
 -1       953 7.52170E-06 9.75464E-07-1.32349E-23
 -1       954 8.09861E-06 1.06101E-06 6.61744E-24
 -1       955 8.67708E-06 1.17355E-06-6.61744E-24
 -1       956 9.20239E-06 1.54479E-06-2.06795E-25
 -1       957 9.17303E-06 1.78861E-06 4.13590E-25
 -1       958 9.14357E-06 2.06165E-06 2.06795E-25
 -1       959 9.11405E-06 2.36044E-06 4.13590E-25
 -1       960 9.08451E-06 2.68150E-06 0.00000E+00
 -1       961 9.05495E-06 3.02135E-06 4.13590E-25
 -1       962 9.02538E-06 3.37647E-06 8.27181E-25
 -1       963 8.99580E-06 3.74338E-06-4.13590E-25
 -1       964 8.96623E-06 4.11856E-06 0.00000E+00
 -1       965 8.93665E-06 4.49851E-06 4.13590E-25
 -1       966 8.90707E-06 4.87974E-06-8.27181E-25
 -1       967 8.87751E-06 5.25873E-06 4.13590E-25
 -1       968 8.84796E-06 5.63200E-06 8.27181E-25
 -1       969 8.81845E-06 5.99604E-06 0.00000E+00
 -1       970 8.78903E-06 6.34739E-06 0.00000E+00
 -1       971 8.70514E-06 7.04261E-06-8.27181E-25
 -1       972 8.64875E-06 7.47954E-06-8.27181E-25
 -1       973 8.59234E-06 7.98386E-06 0.00000E+00
 -1       974 8.53568E-06 8.54591E-06 0.00000E+00
 -1       975 8.47896E-06 9.15599E-06 0.00000E+00
 -1       976 8.42217E-06 9.80437E-06 0.00000E+00
 -1       977 8.36535E-06 1.04813E-05-1.65436E-24
 -1       978 8.30852E-06 1.11771E-05 0.00000E+00
 -1       979 8.25168E-06 1.18820E-05 0.00000E+00
 -1       980 8.19485E-06 1.25862E-05 0.00000E+00
 -1       981 8.13805E-06 1.32799E-05-1.65436E-24
 -1       982 8.08132E-06 1.39534E-05 8.27181E-25
 -1       983 8.02465E-06 1.45970E-05-1.65436E-24
 -1       984 7.96832E-06 1.52009E-05 0.00000E+00
 -1       985 7.91199E-06 1.57554E-05 0.00000E+00
 -3
    1PSTEP                        22          11           1          
  100CL  111 2.19551E-01         841                     0   11           1
 -4  STRESS      6    1
 -5  SXX         1    4    1    1
 -5  SYY         1    4    2    2
 -5  SZZ         1    4    3    3
 -5  SXY         1    4    1    2
 -5  SYZ         1    4    2    3
 -5  SZX         1    4    3    1
 -1         1-9.24451E+05-2.98272E+05-1.91269E+05-2.63842E+05-2.15853E-10-4.85064E-11
 -1         2-5.78201E+05-3.64352E+04 7.68595E+02-5.64617E+04-4.76120E-10 1.46588E-09
 -1         3-3.19533E+05-1.07997E+05-1.91633E+04-2.45803E+04 3.49743E-10 7.14522E-10
 -1         4-1.73054E+05-2.83490E+04 2.69469E+02-1.69407E+04-1.54767E-10-8.01030E-10
 -1         5-9.25974E+04 3.57877E+04-4.15963E+04-1.83871E+03 3.36422E-09 8.10587E-11
 -1         8-4.99508E+05-1.98294E+05-7.57228E+04-1.80828E+05 2.41926E-10 1.09139E-10
 -1         9-5.20227E+05-1.20963E+05-6.35723E+04-1.18772E+05-2.76183E-10-1.62375E-09
 -1        10-2.12563E+05-1.25646E+05-4.38709E+03-4.92581E+04-9.94684E-10-4.66268E-10
 -1        11-1.68823E+05-4.36365E+04 2.52558E+02-3.56602E+04 1.00490E-10 4.80441E-10
 -1        12-1.11247E+05 2.60587E+04-4.69142E+04-1.46591E+04 1.01946E-09 8.59874E-10
 -1        15 3.56822E+03-1.98801E+04 1.22698E+03-3.59350E+04-3.32420E-10 1.50249E-09
 -1        16-2.95024E+05-3.69623E+04 2.02477E+04-1.32051E+05 3.37877E-10 9.43828E-10
 -1        17-1.78291E+05-1.15957E+05-1.90743E+04-9.72399E+04-1.36758E-09 5.28720E-10
 -1        18-3.92571E+04-2.72621E+04-1.99406E+04-3.56808E+04 2.40827E-09-1.00226E-09
 -1        19-2.29952E+04 1.92330E+04-1.84901E+04-1.47723E+04-2.94070E-10 3.79562E-10
 -1        20 2.92696E+04-2.20395E+04-3.80485E+03 1.59465E+04 1.06809E-09-9.64064E-11
 -1        21 4.60025E+02-4.38641E+04 1.21786E+04 9.67007E+00 4.36390E-09 3.94609E-10
 -1        22 1.01196E+04 5.33983E+04 4.17407E+02-1.62965E+04-3.12866E-10 6.21640E-10
 -1        23-7.95249E+04 2.83310E+04 3.13072E+03-3.07741E+04-2.00900E-09-1.70030E-09
 -1        24-8.07243E+04-1.73112E+03 7.86294E+04-1.42702E+05-4.52837E-09 7.06981E-10
 -1        25 1.73380E+05 5.66055E+04 5.27992E+04-8.72285E+04 3.15443E-10-2.44806E-10
 -1        26 8.21714E+02 4.64167E+04 2.32781E+03-8.37288E+03-2.19472E-10-1.86636E-10
 -1        27-1.01000E+04-1.84141E+04-7.93409E+03 2.23056E+04-3.39924E-10-6.93944E-10
 -1        28-3.51257E+03-3.48448E+04-1.90686E+02 1.68352E+04-1.78022E-09-1.46565E-09
 -1        29 1.33543E+05 9.65313E+04 4.20673E+02-1.02422E+03 9.48519E-12 2.12367E-10
 -1        30 1.84893E+04 1.43955E+04 5.85120E+02-1.37008E+04-4.27258E-10 1.01863E-10
 -1        31-9.82151E+04 1.17802E+04 4.07021E+03-2.91904E+04 2.59259E-09-1.02382E-08
 -1        32 2.71206E+05 1.42755E+05 1.77590E+05-1.42934E+05 2.95659E-09 9.98625E-10
 -1        33 4.07565E+05 1.61571E+05 1.24580E+05-1.24412E+04-8.21064E-09-5.88898E-11
 -1        34-5.89155E+04-7.36068E+03-1.29570E+03 1.29660E+04-1.05091E-09 1.10049E-10
 -1        35-9.96340E+03-1.16577E+04-2.06934E+02 2.52012E+04-3.49113E-10-6.49986E-10
 -1        36-1.23823E+06 3.77861E+04-8.73308E+04-2.87837E-08-7.57601E-10-7.78527E-10
 -1        37-1.27604E+06-4.37401E+04-6.18050E+04 9.56966E-08-2.20979E-09-3.13594E-09
 -1        38-1.25283E+06 5.92293E+03-2.26012E+04-9.42431E-08 1.20779E-10 8.35826E-10
 -1        39-1.25901E+06-6.85410E+03-1.42134E+04-1.35136E-07 7.76432E-10-4.94765E-10
 -1        40-1.25523E+06 9.26411E+02-5.80619E+03-3.98028E-08 4.53462E-11 3.37650E-10
 -1        41-1.25620E+06-1.08443E+03-3.46184E+03-1.53232E-08-4.75601E-10-2.22997E-10
 -1        42-1.25563E+06 1.57389E+02-1.68265E+03-1.03885E-07-9.85760E-10-8.56801E-10
 -1        43-1.25578E+06-2.71858E+02-1.31461E+03-1.50660E-07-5.36903E-10-8.11184E-10
 -1        44-1.25565E+06 1.14357E+02-1.29748E+03-3.46585E-08 6.18080E-12 1.90053E-09
 -1        45-1.25600E+06-7.14438E+02-2.34668E+03-1.09128E-07 1.57694E-09 1.28708E-09
 -1        46-1.25540E+06 5.99670E+02-3.79910E+03-1.22699E-07-1.49300E-09 1.17961E-09
 -1        47-1.25781E+06-4.42460E+03-9.19838E+03 9.33597E-08-4.90340E-10 5.82418E-10
 -1        48-1.25385E+06 3.82184E+03-1.45962E+04 8.74618E-08 1.59195E-10-2.74667E-10
 -1        49-1.26880E+06-2.82225E+04-3.98847E+04-5.85172E-08-1.49091E-09 1.44109E-09
 -1        50-1.24444E+06 2.43796E+04-5.63580E+04-1.37030E-07-2.09476E-09 1.78261E-10
 -1        51 1.02226E+04-1.22582E+05 1.62302E+04-3.20532E+05-5.82077E-11-1.19981E-08
 -1        52 4.16787E+03-1.20433E+05 9.76494E+03-3.52819E+05-5.45697E-11-2.08038E-08
 -1        53 2.35180E+03-1.22773E+05 7.87540E+03-3.19722E+05-2.51021E-10-1.82590E-08
 -1        54 5.79733E+03-1.20934E+05 1.19545E+04-3.53710E+05-3.52884E-10-1.78024E-08
 -1        55 1.47450E+04-1.24513E+05 2.17270E+04-3.19606E+05-5.09317E-11-1.03091E-08
 -1        56-1.40977E+06-1.59280E+05-1.16130E+05-5.45466E+05 1.21872E-10-1.02591E-09
 -1        57-1.46431E+06-2.53751E+05-7.78872E+04-5.31874E+05 6.04814E-11 1.44792E-09
 -1        58-1.43223E+06-1.95990E+05-2.73624E+04-5.39258E+05 1.75987E-10-1.49157E-09
 -1        59-1.43843E+06-2.10497E+05-1.62215E+04-5.39340E+05 3.41970E-10-7.58746E-10
 -1        60-1.43540E+06-2.01079E+05-6.40120E+03-5.38525E+05-1.67802E-10-2.39561E-09
 -1        61-1.43485E+06-2.04456E+05-3.62314E+03-5.40126E+05-3.54703E-11-1.17814E-09
 -1        62-1.43577E+06-2.01849E+05-1.76769E+03-5.38535E+05-8.78231E-11-1.65218E-09
 -1        63-1.43460E+06-2.03541E+05-1.48058E+03-5.39982E+05-1.85892E-10 1.46473E-09
 -1        64-1.43565E+06-2.01976E+05-1.72249E+03-5.38674E+05-1.95058E-10 1.77346E-09
 -1        65-1.43531E+06-2.03932E+05-3.48956E+03-5.39572E+05 6.15785E-10 1.33383E-09
 -1        66-1.43506E+06-2.01477E+05-6.14820E+03-5.38939E+05-5.99357E-10-9.77707E-11
 -1        67-1.43920E+06-2.09273E+05-1.55672E+04-5.38296E+05-4.51564E-10-3.07591E-09
 -1        68-1.43180E+06-1.96810E+05-2.62566E+04-5.39890E+05 3.73348E-10-1.79625E-09
 -1        69-1.46442E+06-2.50378E+05-7.47330E+04-5.30678E+05 7.93989E-10-1.76806E-09
 -1        70-1.41007E+06-1.61768E+05-1.11431E+05-5.46052E+05-4.16549E-10 1.45519E-10
 -1        71-5.94890E+05-9.23434E+02 2.13459E+03 1.70799E-09-8.86646E-12 1.02375E-09
 -1        72-5.93910E+05 1.06891E+03 1.50799E+03-1.78457E-09-3.10872E-10-7.30722E-11
 -1        73-5.94533E+05-1.44628E+02 5.46511E+02-4.03211E-08-1.75615E-10-1.20374E-09
 -1        74-5.94327E+05 1.66463E+02 3.34312E+02-8.74555E-09-1.03357E-09 2.23114E-09
 -1        75-5.94474E+05-2.17150E+01 1.16516E+02 4.23490E-08-3.03996E-10 1.64248E-09
 -1        76-5.94400E+05 1.93976E+01 3.00738E+01 8.74484E-08 3.12676E-10 1.32810E-09
 -1        77-5.94461E+05 2.33251E+00-6.11772E+01 2.93584E-09 1.29200E-10 2.63370E-10
 -1        78-5.94434E+05-3.98929E+01-1.93161E+02-1.65289E-08-6.85214E-10 1.08604E-09
 -1        79-5.94440E+05 3.75438E+01-3.76717E+02-2.69170E-08 2.87855E-10-8.85592E-10
 -1        80-5.94563E+05-2.83366E+02-8.83259E+02-4.68490E-08-3.66745E-10 5.06162E-10
 -1        81-5.94332E+05 2.45650E+02-1.52733E+03 5.13906E-08-2.12584E-10-7.38169E-10
 -1        82-5.95313E+05-1.82146E+03-3.77181E+03 1.61446E-07 1.91543E-10-4.43606E-10
 -1        83-5.93692E+05 1.57453E+03-6.00814E+03 1.14442E-08-6.10191E-10 2.76032E-10
 -1        84-5.99840E+05-1.16282E+04-1.64338E+04-1.88940E-08-1.05232E-09 3.71074E-10
 -1        85-5.89810E+05 1.00447E+04-2.32278E+04-1.37522E-08-1.58087E-09 1.04046E-09
 -1        86-2.75531E+04 8.07583E+04 6.47463E+04 3.29396E+02-1.45519E-11 9.10681E-10
 -1        87 3.43229E+04 1.09717E+05 5.00867E+04-1.37908E+03-1.47338E-10 1.66046E-09
 -1        88-6.74130E+03 9.02810E+04 2.54291E+04 2.34242E+02-2.98314E-10-3.98298E-10
 -1        89 2.32671E+04 1.04569E+05 3.56758E+04-1.27011E+03-1.07320E-10 6.82486E-10
 -1        90-1.65064E+04 8.59021E+04 3.99634E+04 2.20428E+02-3.87445E-10-8.65100E-10
 -1        91-6.16766E+05-8.44078E+04-7.33778E+03-2.33266E+05 5.97765E-10 2.66482E-10
 -1        92-6.22365E+05-8.92150E+04-5.07386E+03-2.29763E+05 2.61298E-09 1.36947E-09
 -1        93-6.17888E+05-8.73428E+04-1.72009E+03-2.33113E+05-1.12266E-10 9.25866E-10
 -1        94-6.20347E+05-8.64181E+04-1.06424E+03-2.30618E+05-1.49912E-09 1.76257E-09
 -1        95-6.18781E+05-8.72031E+04-4.36976E+02-2.32410E+05 1.22345E-10-1.16074E-10
 -1        96-6.18588E+05-8.73650E+04-2.48149E+02-2.32322E+05 1.21259E-09-7.86045E-10
 -1        97-6.19646E+05-8.63966E+04-1.96292E+02-2.31408E+05 5.30335E-10-1.50425E-10
 -1        98-6.17550E+05-8.84662E+04-2.61430E+02-2.33623E+05 4.79764E-10-6.53014E-10
 -1        99-6.19820E+05-8.61002E+04-4.27589E+02-2.31111E+05 9.36236E-10-9.04151E-10
 -1       100-6.18089E+05-8.84084E+04-1.01599E+03-2.33129E+05-4.39016E-10-3.80851E-12
 -1       101-6.19107E+05-8.64555E+04-1.79466E+03-2.31902E+05 5.42315E-10 1.67836E-09
 -1       102-6.20774E+05-8.90673E+04-4.74882E+03-2.31051E+05 8.53021E-10 3.00474E-10
 -1       103-6.17136E+05-8.54437E+04-7.65461E+03-2.33189E+05-1.34150E-09 6.48924E-10
 -1       104-6.29619E+05-1.01658E+05-2.26475E+04-2.27352E+05-1.11845E-09 8.84029E-10
 -1       105-6.10272E+05-7.38726E+04-3.26359E+04-2.35601E+05-3.20142E-10-4.34738E-10
 -1       106-3.68053E+05 1.41184E+03-3.26601E+03 4.34785E-08 1.97391E-10 1.41517E-09
 -1       107-3.69438E+05-1.63452E+03-2.31197E+03 6.30208E-09-3.38145E-10 1.12720E-09
 -1       108-3.68599E+05 2.21390E+02-8.48482E+02-1.91056E-08-5.99589E-10-5.32054E-10
 -1       109-3.68802E+05-2.56666E+02-5.38359E+02 1.98789E-08-2.15781E-10-4.27690E-10
 -1       110-3.68688E+05 3.50932E+01-2.30288E+02-7.61349E-08 1.30843E-10 6.81482E-11
 -1       111-3.68699E+05-4.41542E+01-1.57440E+02 7.27912E-08 6.00391E-10 1.89148E-09
 -1       112-3.68701E+05 9.03665E+00-1.15281E+02 7.09729E-09 1.83652E-10 2.04881E-09
 -1       113-3.68695E+05-3.39206E+01-1.64315E+02 2.31413E-08-4.72696E-10 6.30322E-10
 -1       114-3.68692E+05 2.48699E+01-2.57218E+02 8.83551E-08-2.89856E-10-8.23491E-10
 -1       115-3.68772E+05-1.80292E+02-5.68247E+02-7.93297E-08 2.22632E-10 5.15570E-11
 -1       116-3.68625E+05 1.55314E+02-9.69672E+02-8.38333E-08 1.56139E-11 7.38112E-10
 -1       117-3.69245E+05-1.15055E+03-2.38504E+03 5.88266E-08-7.22793E-10 3.45153E-10
 -1       118-3.68220E+05 9.94405E+02-3.79635E+03 8.18094E-08-6.98664E-10-1.06638E-10
 -1       119-3.72104E+05-7.34377E+03-1.03802E+04-4.20017E-08 3.25265E-10-5.73550E-10
 -1       120-3.65768E+05 6.34369E+03-1.46710E+04 5.81834E-08 5.76037E-11 1.06593E-09
 -1       121-5.13938E+02-3.06398E+05 2.41539E+03 4.73352E+03-4.72937E-11 1.03881E-09
 -1       122 7.42325E+02-3.05497E+05 1.63295E+03 1.69312E+04-1.87924E-10-9.47693E-10
 -1       123-7.61988E+01-3.06056E+05 8.47023E+02 4.75139E+03-2.91777E-10-2.99906E-10
 -1       124 3.48513E+02-3.05712E+05 9.30119E+02 1.68470E+04-6.02768E-10-1.66779E-10
 -1       125-2.24921E+02-3.06155E+05 1.07083E+03 4.81779E+03-7.51925E-10 8.95852E-10
 -1       126-3.10206E+05-4.26282E+04-1.87870E+03-1.16280E+05-7.69973E-10 4.58272E-10
 -1       127-3.09934E+05-4.53562E+04-1.27114E+03-1.17104E+05-6.23004E-10 7.84098E-10
 -1       128-3.10833E+05-4.29640E+04-4.39834E+02-1.15771E+05-2.59142E-10 1.12070E-09
 -1       129-3.09253E+05-4.49053E+04-2.71450E+02-1.17622E+05-1.74069E-09 1.40295E-09
 -1       130-3.10888E+05-4.30775E+04-1.11371E+02-1.15763E+05-1.14160E-09-5.21968E-10
 -1       131-3.09456E+05-4.44400E+04-5.71374E+01-1.17238E+05 1.32309E-09-5.68036E-10
 -1       132-3.10628E+05-4.34304E+04-7.30015E+01-1.16154E+05 7.85619E-10 6.64535E-11
 -1       133-3.10183E+05-4.36438E+04-6.05377E+01-1.16319E+05-8.37755E-10 4.54239E-10
 -1       134-3.10160E+05-4.38747E+04-1.67816E+02-1.16680E+05-2.99412E-10-6.10299E-10
 -1       135-3.11101E+05-4.29906E+04-3.53731E+02-1.15425E+05-2.26206E-09 1.39161E-09
 -1       136-3.09712E+05-4.40826E+04-6.40735E+02-1.17049E+05 5.81935E-12 5.58572E-10
 -1       137-3.11943E+05-4.34412E+04-1.71554E+03-1.14930E+05 7.07928E-10 2.89333E-10
 -1       138-3.09320E+05-4.34235E+04-2.75477E+03-1.17175E+05-1.87680E-09-9.61222E-10
 -1       139-3.14346E+05-4.86296E+04-8.13375E+03-1.14346E+05 2.95785E-10 7.87281E-10
 -1       140-3.07309E+05-3.88985E+04-1.17650E+04-1.17632E+05 1.19371E-09 7.30779E-10
 -1       141-1.75343E+05-1.06734E+03 2.46742E+03 1.58891E-08 1.26762E-10 1.01409E-09
 -1       142-1.74256E+05 1.23547E+03 1.74302E+03-7.93204E-10-3.60751E-11-1.12664E-10
 -1       143-1.74930E+05-1.67156E+02 6.31394E+02-2.21978E-08-1.47216E-10-3.06386E-11
 -1       144-1.74738E+05 1.92321E+02 3.85476E+02-2.21833E-08 1.87038E-10 5.17304E-10
 -1       145-1.74861E+05-2.50251E+01 1.32691E+02-1.64159E-08 1.40227E-10-2.75328E-10
 -1       146-1.74823E+05 2.18526E+01 3.03838E+01-3.10162E-08 5.80862E-11-4.74401E-10
 -1       147-1.74846E+05 3.18979E+00-7.89819E+01-2.13629E-08 6.18896E-11 6.75236E-10
 -1       148-1.74864E+05-4.98302E+01-2.41472E+02 1.24035E-08 7.98901E-12-1.21375E-10
 -1       149-1.74821E+05 4.66194E+01-4.68439E+02 4.75693E-08 1.95334E-11-1.63396E-09
 -1       150-1.75023E+05-3.51568E+02-1.09674E+03-2.81350E-08-3.57598E-10-1.12436E-10
 -1       151-1.74686E+05 3.04739E+02-1.89591E+03 7.15959E-08-1.36905E-10 6.99856E-10
 -1       152-1.75953E+05-2.25951E+03-4.68071E+03 4.54505E-08-1.22675E-10-2.25157E-10
 -1       153-1.73891E+05 1.95317E+03-7.45569E+03-5.14112E-09 7.83755E-10 3.50155E-10
 -1       154-1.81568E+05-1.44246E+04-2.03891E+04-1.54669E-08 1.10049E-10-7.72161E-10
 -1       155-1.69072E+05 1.24603E+04-2.88162E+04-2.05865E-08 1.99036E-09 6.22094E-10
 -1       156-5.71802E+03-5.90624E+04 1.36158E+04-1.32700E+01 1.37334E-10 2.79349E-05
 -1       157 7.53681E+03-5.28539E+04 1.12607E+04 5.36158E+01 5.15342E-10 5.56194E-05
 -1       158-1.81287E+03-5.72924E+04 6.83720E+03-1.11161E+01 6.07955E-10 2.79159E-05
 -1       159 7.94797E+03-5.26638E+04 1.17965E+04 4.77299E+01 4.04725E-11 8.10110E-08
 -1       160-6.12885E+03-5.92524E+04 1.45377E+04-7.38385E+00 5.91172E-11 4.92375E-09
 -1       161-1.81466E+05-2.53579E+04-3.60379E+02-6.80853E+04 9.89654E-06-3.70947E-06
 -1       162-1.81557E+05-2.57692E+04-2.51628E+02-6.81115E+04 1.96981E-05-7.38521E-06
 -1       163-1.81549E+05-2.54776E+04-8.86051E+01-6.80500E+04 4.03381E-06-1.51152E-06
 -1       164-1.81467E+05-2.56266E+04-6.24980E+01-6.81464E+04-1.16542E-05 4.36911E-06
 -1       165-1.81557E+05-2.55005E+04-3.89264E+01-6.80504E+04-5.85449E-06 2.19575E-06
 -1       166-1.81475E+05-2.55934E+04-5.60780E+01-6.81300E+04-1.76255E-08 6.91990E-09
 -1       167-1.81540E+05-2.55108E+04-8.96562E+01-6.80663E+04 5.30443E-10-6.01545E-11
 -1       168-1.81536E+05-2.56050E+04-2.06380E+02-6.80863E+04-5.31942E-10-6.69218E-10
 -1       169-1.81495E+05-2.54888E+04-3.73409E+02-6.80942E+04-2.41116E-10-5.23528E-11
 -1       170-1.81762E+05-2.58729E+04-9.38011E+02-6.79917E+04 5.98703E-10 6.05723E-10
 -1       171-1.81315E+05-2.52431E+04-1.62025E+03-6.81609E+04-2.74269E-10 4.74358E-10
 -1       172-1.82942E+05-2.77967E+04-4.36871E+03-6.76059E+04-6.90116E-09 6.88942E-10
 -1       173-1.80316E+05-2.35663E+04-6.99447E+03-6.84797E+04-2.71094E-06 1.01629E-06
 -1       174-1.90034E+05-4.02220E+04-2.07244E+04-6.52566E+04-5.40575E-06 2.02830E-06
 -1       175-1.74224E+05-1.28258E+04-2.98477E+04-7.05076E+04-2.71444E-06 1.01768E-06
 -1       191 3.31963E+02 1.55874E+05 5.31056E+02-3.51395E+03-2.02817E-10-4.77030E-10
 -1       192 1.23213E+02 1.55946E+05 3.18502E+02-3.74419E+03-2.70973E-10-4.44516E-10
 -1       193 5.97025E+01 1.55899E+05 2.58075E+02-3.44705E+03-5.34556E-10-4.25189E-10
 -1       194 1.64333E+02 1.55958E+05 3.92643E+02-3.87041E+03-6.18570E-10 5.21595E-10
 -1       195 4.59616E+02 1.55858E+05 7.15511E+02-3.38758E+03-8.12634E-10-7.24867E-10
 -1       251-8.20787E+05 1.93249E+04-4.52890E+04-6.35189E+03-1.37334E-10-4.20550E-09
 -1       252-8.37002E+05-2.24217E+04-3.14569E+04 1.60249E+04 2.61721E-10-2.41562E-09
 -1       253-8.27604E+05 3.11803E+03-1.17680E+04-7.24116E+03-9.16032E-10-1.11186E-09
 -1       254-8.25711E+05-3.38007E+03-6.44553E+03 9.13099E+03-1.01446E-09 2.18449E-09
 -1       255-8.31988E+05 2.20969E+02-3.78760E+03 5.42136E+02-3.47370E-10-1.33548E-09
 -1       256-8.24107E+05-3.91408E+02-8.96927E+02-6.71575E+03-1.07624E-09-2.51100E-09
 -1       257-8.29198E+05 1.25626E+02-1.08386E+03 8.60550E+03-4.91696E-10 1.09324E-09
 -1       258-8.26752E+05-1.88623E+02-4.93324E+02-1.44724E+04 1.79578E-09-3.94303E-09
 -1       259-8.29429E+05 1.01725E+02-1.12779E+03 8.29935E+03-2.79428E-09 1.26738E-09
 -1       260-8.23900E+05-3.74156E+02-8.41146E+02-5.81867E+03-1.48006E-10 2.22911E-10
 -1       261-8.31959E+05 2.21645E+02-3.75716E+03-4.88057E+01-2.23508E-10-8.91646E-10
 -1       262-8.25927E+05-3.36938E+03-6.43539E+03 9.96129E+03-1.17635E-08 1.00647E-09
 -1       263-8.27424E+05 3.11353E+03-1.16337E+04-7.48052E+03-3.91112E-06 1.17170E-08
 -1       264-8.36854E+05-2.22320E+04-3.11859E+04 1.58904E+04-7.82798E-06 3.43916E-08
 -1       265-8.21114E+05 1.91379E+04-4.49801E+04-5.97805E+03-3.90532E-06 4.40014E-09
 -1       266-7.33140E+03-1.29054E+05 1.66744E+04-7.19866E+01-2.72848E-12 2.47677E-10
 -1       267 7.87959E+03-1.21843E+05 1.07173E+04 8.94039E+02 1.75078E-11-2.32884E-10
 -1       268-5.45024E+02-1.25958E+05 2.03090E+03 1.23651E+02-1.27329E-11 1.50372E-10
 -1       269-3.23993E+03-1.26941E+05-3.76898E+03 4.61355E+02 2.95586E-11 2.37822E-09
 -1       270 3.77839E+03-1.23957E+05-8.27801E+03 3.60686E+02 3.63798E-12 2.75034E-09
 -1       271-1.18299E+06-1.50344E+05-9.15328E+04-4.57312E+05-3.18323E-10-2.65572E-10
 -1       272-1.21220E+06-2.10368E+05-5.73858E+04-4.60725E+05 1.17495E-10-2.91038E-11
 -1       273-1.19874E+06-1.70066E+05-2.15883E+04-4.55137E+05 6.43468E-11 3.99268E-10
 -1       274-1.19398E+06-1.84294E+05-1.17859E+04-4.64858E+05 5.91172E-11 4.82714E-10
 -1       275-1.20061E+06-1.72012E+05-5.01900E+03-4.54844E+05 7.38964E-11 6.68479E-10
 -1       276-1.19179E+06-1.81810E+05-2.64714E+03-4.65399E+05-2.77851E-10 1.47111E-10
 -1       277-1.20090E+06-1.72154E+05-1.36009E+03-4.54756E+05 9.28708E-10 3.28316E-09
 -1       278-1.19149E+06-1.81655E+05-1.06063E+03-4.65530E+05 1.20309E-10 2.04878E-10
 -1       279-1.20092E+06-1.72135E+05-1.26484E+03-4.54733E+05-2.55895E-10 7.76538E-10
 -1       280-1.19169E+06-1.81858E+05-2.38749E+03-4.65502E+05-5.51353E-10 1.33417E-09
 -1       281-1.20070E+06-1.71973E+05-4.48613E+03-4.54776E+05-5.91911E-10-1.80967E-09
 -1       282-1.19359E+06-1.84129E+05-1.05193E+04-4.65089E+05 1.73372E-11-9.81800E-10
 -1       283-1.19906E+06-1.70212E+05-1.92551E+04-4.55009E+05 3.81192E-10 1.16142E-09
 -1       284-1.20980E+06-2.07432E+05-5.11862E+04-4.61460E+05-1.57456E-10 8.73115E-10
 -1       285-1.18504E+06-1.52598E+05-8.16403E+04-4.56924E+05-5.45697E-12 1.37152E-09
 -1       286-1.43459E+05-7.01302E+03 1.62171E+04-9.32136E+01 7.02116E-10-8.84938E-10
 -1       287-1.36359E+05 8.11893E+03 1.14827E+04-6.92683E+01 2.55639E-10 8.33097E-10
 -1       288-1.40747E+05-1.09978E+03 4.19721E+03 2.10706E+01 2.28500E-10 8.08086E-10
 -1       289-1.39525E+05 1.27274E+03 2.64812E+03-2.86103E+02-8.91447E-11 1.49413E-10
 -1       290-1.40294E+05-1.72300E+02 1.08285E+03 1.23627E+02-4.97735E-11-1.44689E-09
 -1       291-1.40059E+05 2.02791E+02 6.56997E+02-4.55177E+02 4.17028E-10-1.57220E-09
 -1       292-1.40214E+05-3.03738E+01 3.33939E+02 1.90147E+02 5.01810E-10-1.34970E-09
 -1       293-1.40142E+05 5.99849E+01 2.91696E+02-5.37742E+02 7.91500E-11 1.50802E-09
 -1       294-1.40211E+05-2.94159E+01 3.26450E+02 2.06194E+02 3.71644E-10 8.09749E-10
 -1       295-1.40070E+05 1.95096E+02 6.32850E+02-5.15914E+02 4.41904E-10-1.48418E-10
 -1       296-1.40286E+05-1.65442E+02 1.04261E+03 1.68318E+02 3.78817E-10-3.36740E-10
 -1       297-1.39557E+05 1.22289E+03 2.54388E+03-3.94512E+02 8.51210E-10-4.23427E-10
 -1       298-1.40723E+05-1.05668E+03 4.03394E+03 8.47903E+01 8.32507E-11-6.32326E-10
 -1       299-1.36510E+05 7.80156E+03 1.10336E+04-2.01559E+02-1.85798E-10 4.41105E-10
 -1       300-1.43332E+05-6.73896E+03 1.55827E+04-2.46391E+01 1.09143E-10 5.79348E-10
 -1       301 1.61629E+04 4.76120E+03 3.62897E+04-1.17496E+04-3.11047E-10 2.26260E-09
 -1       302 5.47386E+03 1.16178E+04 2.23010E+04-1.38288E+04-3.72893E-10-2.27538E-11
 -1       303 1.50487E+03 7.19628E+03 1.79452E+04-1.17484E+04-2.99224E-10 7.95933E-09
 -1       304 7.13573E+03 1.26194E+04 2.68094E+04-1.38165E+04-4.09273E-10 1.86009E-08
 -1       305 2.15324E+04 3.76261E+03 4.72084E+04-1.17580E+04-1.65528E-10 9.62439E-09
 -1       306-7.84706E+05-1.03219E+05-5.09536E+04-3.04228E+05-2.41016E-11 2.36469E-10
 -1       307-7.95708E+05-1.41808E+05-3.19347E+04-3.12095E+05-1.02887E-11-1.80080E-09
 -1       308-7.93503E+05-1.14147E+05-1.20217E+04-3.02986E+05-9.51559E-11-1.69166E-09
 -1       309-7.85555E+05-1.27339E+05-6.56525E+03-3.14451E+05-7.19297E-10-1.26772E-09
 -1       310-7.94553E+05-1.15220E+05-2.80499E+03-3.02819E+05 4.60432E-10 6.71662E-10
 -1       311-7.84350E+05-1.25955E+05-1.49600E+03-3.14757E+05 1.09776E-09 1.66818E-09
 -1       312-7.94706E+05-1.15304E+05-8.02820E+02-3.02778E+05 4.75552E-10 1.23359E-09
 -1       313-7.84212E+05-1.25850E+05-6.90323E+02-3.14804E+05 6.98717E-10 3.40145E-09
 -1       314-7.94698E+05-1.15306E+05-9.06493E+02-3.02783E+05-3.36229E-10-7.19638E-11
 -1       315-7.84399E+05-1.25974E+05-1.78104E+03-3.14734E+05-1.69678E-10-1.26647E-09
 -1       316-7.94508E+05-1.15204E+05-3.38487E+03-3.02833E+05-1.15278E-10-6.86668E-11
 -1       317-7.85860E+05-1.27660E+05-7.95221E+03-3.14372E+05 7.31234E-10 2.56887E-09
 -1       318-7.93242E+05-1.13895E+05-1.45684E+04-3.03026E+05-3.81988E-11 6.36646E-10
 -1       319-7.98146E+05-1.45229E+05-3.87116E+04-3.11554E+05-2.92189E-10 8.69932E-10
 -1       320-7.82597E+05-1.00622E+05-6.17597E+04-3.04507E+05-1.31649E-09-1.73895E-09
 -1       321-2.29617E+05-3.37953E+03 7.81682E+03-2.07527E+02-1.13507E-10-1.47475E-09
 -1       322-2.26201E+05 3.91254E+03 5.53053E+03 2.96694E+02-9.42782E-10-2.66124E-09
 -1       323-2.28313E+05-5.29861E+02 2.02146E+03-1.55823E+02-1.91589E-10 6.66205E-11
 -1       324-2.27718E+05 6.13078E+02 1.27081E+03 1.47318E+02 3.63492E-10-7.45914E-10
 -1       325-2.28100E+05-8.28561E+01 5.12470E+02-5.81469E+01-2.16801E-10 7.92227E-10
 -1       326-2.27968E+05 9.54547E+01 2.98176E+02-6.02824E+01-3.60131E-10-9.36495E-11
 -1       327-2.28063E+05-1.26631E+01 1.23601E+02 5.17805E+01-3.10239E-10-1.30609E-09
 -1       328-2.28016E+05 1.25035E+01 6.12986E+01-2.55082E+02 4.67529E-10 2.27599E-10
 -1       329-2.28053E+05 1.20510E-01 1.12196E+01 1.36656E+02 1.62296E-10 3.55122E-10
 -1       330-2.28036E+05-1.32536E+01-3.07399E+01-3.71013E+02-5.32268E-11-1.03829E-09
 -1       331-2.28044E+05 1.31790E+01-7.51421E+01 1.67714E+02 3.32514E-10-1.87603E-09
 -1       332-2.28078E+05-9.88067E+01-2.00904E+02-3.68759E+02-2.95769E-10-7.12113E-10
 -1       333-2.28011E+05 8.56094E+01-3.25519E+02 1.34402E+02-1.35135E-10 1.13175E-09
 -1       334-2.28319E+05-6.32350E+02-8.92230E+02-2.49013E+02-1.47346E-10 8.25381E-10
 -1       335-2.27802E+05 5.46197E+02-1.26521E+03 4.79658E+01-6.08047E-11-2.25100E-10
 -1       336 1.34797E+01-3.16084E+05-4.98659E+02-5.78989E+03-1.33718E-09-2.00953E-09
 -1       337-2.70058E+02-3.16305E+05-1.43058E+03-2.10573E+04-2.50714E-09-3.80760E-09
 -1       338 2.38159E+02-3.15904E+05-2.73109E+03-5.72949E+03-1.59105E-09-2.67278E-09
 -1       339-3.22190E+03-3.18116E+05-6.81132E+03-2.11170E+04-2.71621E-09 2.40107E-10
 -1       340 2.32943E+03-3.14298E+05-1.07407E+04-5.73066E+03-1.52568E-09 3.72523E-10
 -1       341-3.36140E+05-5.38717E+04-9.77448E+03-1.32536E+05 2.06851E-08 3.41777E-09
 -1       342-3.02462E+05-2.45015E+04 4.43496E+03-9.07361E+04 9.80137E-09 1.39701E-09
 -1       343-3.08316E+05-5.49494E+04-1.60132E+03-1.31894E+05-1.82916E-08-9.43038E-09
 -1       344-3.30040E+05-2.30894E+04 8.12913E+02-9.16339E+04 2.70517E-08 4.09740E-09
 -1       345-3.08999E+05-5.49468E+04-1.04670E+03-1.31993E+05 4.17975E-08 3.80368E-10
 -1       346-3.00876E+05-2.48292E+04 6.44848E+03-9.06261E+04-1.23970E-08-5.22888E-09
 -1       347-3.37020E+05-5.35642E+04-6.01966E+03-1.32529E+05-6.30871E-09-1.51829E-09
 -1       348-2.64000E+05-3.55784E+04 1.14502E+04-1.00061E+05-6.68365E-09-1.75764E-09
 -1       349-3.45419E+05-4.45500E+04-6.19782E+03-1.22215E+05-1.13497E-08-3.14088E-09
 -1       350-2.72062E+05-5.51817E+04 5.38328E+03-1.25043E+05 6.28233E-09-1.01164E-08
 -1       351-3.29419E+05-3.36068E+04-2.53512E+03-1.07913E+05-5.96003E-09-1.16743E-08
 -1       352-2.89392E+05-6.73406E+04-3.45749E+03-1.39325E+05-4.43429E-08-2.65900E-08
 -1       353-3.28553E+05-3.20329E+04-8.53849E+03-1.08276E+05 1.25539E-08 3.98359E-10
 -1       354-2.79969E+05-6.88651E+04-1.57114E+04-1.22196E+05-1.63544E-08-3.81715E-09
 -1       355-3.38375E+05-3.24550E+04-3.91253E+04-1.24692E+05-5.46152E-09 1.10958E-10
 -1       356-2.30034E+05 6.33737E+02-1.46753E+03-6.87100E+00 7.64371E-11 4.77542E-10
 -1       357-2.30649E+05-7.33837E+02-1.04113E+03-4.64736E+01-1.63562E-10-2.95913E-10
 -1       358-2.30279E+05 9.95193E+01-3.87845E+02 1.97089E+01-2.55254E-10-1.11729E-09
 -1       359-2.30365E+05-1.16379E+02-2.56249E+02-8.90255E+01-4.86725E-11-9.33039E-10
 -1       360-2.30318E+05 1.67775E+01-1.31424E+02 3.56816E+01-1.54062E-09-1.14211E-09
 -1       361-2.30324E+05-2.76240E+01-1.30623E+02-1.04928E+02-2.70913E-09 3.22692E-10
 -1       362-2.30320E+05 1.08382E+01-1.64087E+02 3.56121E+01-1.26904E-09-8.17025E-10
 -1       363-2.30348E+05-6.62506E+01-3.20948E+02-8.87727E+01 1.13113E-10-1.37089E-09
 -1       364-2.30294E+05 5.53842E+01-5.63661E+02 1.95256E+01 4.13766E-10-5.48084E-10
 -1       365-2.30529E+05-4.10721E+02-1.28682E+03-4.60725E+01-3.74571E-11-3.39440E-10
 -1       366-2.30139E+05 3.55086E+02-2.21262E+03-7.08894E+00 2.04539E-11 1.45519E-09
 -1       367-2.31612E+05-2.63188E+03-5.45368E+03 8.72499E+00-1.46024E-10 6.83031E-10
 -1       368-2.29213E+05 2.27492E+03-8.68454E+03-3.52728E+01 9.00620E-10 4.38376E-10
 -1       369-2.38151E+05-1.68007E+04-2.37476E+04 5.78042E+01-1.27238E-10-1.08685E-10
 -1       370-2.23600E+05 1.45129E+04-3.35620E+04-5.61677E+01 2.31989E-09 2.96495E-10
 -1       371-5.91025E+03-6.01685E+04 1.34088E+04 5.56456E+02 3.96540E-10 7.19083E-10
 -1       372 6.30800E+03-5.44053E+04 8.53595E+03-2.21258E+03 9.94874E-10 4.20260E-10
 -1       373-3.91690E+02-5.75757E+04 1.48533E+03 5.99123E+02 8.07859E-10-6.35346E-10
 -1       374-2.93600E+03-5.86804E+04-3.50938E+03-2.21422E+03 9.67702E-10 1.00945E-09
 -1       375 3.32642E+03-5.58941E+04-7.31551E+03 5.58098E+02 4.91127E-10 3.53317E-10
 -1       376-3.05684E+05-3.80584E+04-1.15660E+04-1.16015E+05 1.61049E-09-1.22191E-09
 -1       377-3.09465E+05-5.03008E+04-7.93094E+03-1.15874E+05 5.71447E-10-2.69108E-09
 -1       378-3.08393E+05-4.15902E+04-2.71008E+03-1.14533E+05 3.04283E-10 6.05951E-10
 -1       379-3.06383E+05-4.61226E+04-1.68531E+03-1.17487E+05 1.66550E-09 2.09724E-09
 -1       380-3.08768E+05-4.22303E+04-6.53893E+02-1.14406E+05 2.37240E-09-1.68203E-09
 -1       381-3.06302E+05-4.48081E+04-3.63884E+02-1.16940E+05 2.02319E-09-8.11355E-10
 -1       382-3.08469E+05-4.29072E+04-2.97051E+02-1.15077E+05-1.21433E-09-6.25949E-10
 -1       383-3.07383E+05-4.33820E+04-2.28221E+02-1.15357E+05-2.53738E-09-6.24599E-10
 -1       384-3.07684E+05-4.36596E+04-5.45397E+02-1.15986E+05 4.48455E-09 6.43809E-10
 -1       385-3.09143E+05-4.24161E+04-1.11372E+03-1.13802E+05 4.40578E-09-7.22707E-10
 -1       386-3.06712E+05-4.38705E+04-2.01409E+03-1.16635E+05-4.22202E-09-1.94643E-09
 -1       387-3.11391E+05-4.42476E+04-5.38340E+03-1.12739E+05 3.19946E-09 5.95264E-10
 -1       388-3.05442E+05-4.18263E+04-8.63724E+03-1.17052E+05 4.54679E-09-2.20416E-09
 -1       389-3.19454E+05-6.00318E+04-2.55172E+04-1.10353E+05-2.45836E-09 1.79853E-10
 -1       390-2.98650E+05-2.80990E+04-3.68845E+04-1.19015E+05-1.07229E-09-4.69299E-10
 -1       406 3.74448E+02 1.54374E+05 8.11372E+02-1.18642E+04-1.06365E-09 7.52607E-10
 -1       407 2.44513E+02 1.54522E+05 9.88252E+02-1.30034E+04-1.26181E-09 2.39197E-10
 -1       408 4.02260E+02 1.54349E+05 1.63052E+03-1.18097E+04-1.34219E-09 1.06784E-08
 -1       409 1.61666E+03 1.54981E+05 3.50109E+03-1.30863E+04-1.53932E-09 2.02973E-08
 -1       410 4.66354E+03 1.53906E+05 7.06077E+03-1.17796E+04-1.51203E-09 1.02518E-08
 -1       466 5.55634E+05-2.25745E+04 5.19479E+04 3.14379E+03 3.37820E-10 2.83399E-09
 -1       467 5.79705E+05 2.61026E+04 3.70254E+04-5.15870E+03 7.16113E-10 1.18780E-09
 -1       468 5.64959E+05-3.51667E+03 1.34877E+04 9.39276E+02 5.91719E-10 4.73847E-10
 -1       469 5.68858E+05 4.06778E+03 8.52778E+03-2.14945E+03-5.06304E-10-3.72893E-10
 -1       470 5.66473E+05-5.48947E+02 3.52417E+03 1.34552E+02-7.10788E-10-4.69527E-10
 -1       471 5.67105E+05 6.55999E+02 2.19093E+03-1.05674E+03-7.05237E-10-1.68143E-09
 -1       472 5.66713E+05-1.06198E+02 1.23478E+03-1.53449E+02 9.78057E-10-3.04993E-10
 -1       473 5.66894E+05 2.64409E+02 1.28874E+03-6.94702E+02 8.73003E-10-1.09620E-09
 -1       474 5.66684E+05-1.57451E+02 1.68759E+03-2.27493E+02 2.62983E-10-3.56295E-10
 -1       475 5.67327E+05 1.09494E+03 3.49992E+03-6.83285E+02-5.57838E-10-9.48603E-10
 -1       476 5.66279E+05-9.36177E+02 5.88293E+03-1.64865E+02 1.02414E-09-1.71758E-09
 -1       477 5.70178E+05 6.93092E+03 1.43995E+04-1.01115E+03 9.15571E-10-2.03931E-09
 -1       478 5.63829E+05-5.98907E+03 2.28972E+04 1.00378E+02 4.26002E-10-9.48603E-10
 -1       479 5.87475E+05 4.42459E+04 6.25810E+04-2.04335E+03 1.50844E-09 4.12911E-10
 -1       480 5.48975E+05-3.82191E+04 8.84278E+04 8.67317E+02 2.52584E-09 1.50249E-09
 -1       481-4.23161E+03 8.40609E+04 9.63709E+03-1.14921E+03-2.45564E-11-4.03901E-10
 -1       482 5.02157E+03 8.94202E+04 7.26212E+03 3.47685E+03-5.79803E-12 1.86452E-09
 -1       483-7.95961E+02 8.59803E+04 2.99665E+03-8.43079E+02 3.52429E-12 1.61563E-10
 -1       484 1.83435E+03 8.74735E+04 3.06028E+03 3.05873E+03-5.78382E-12-9.29440E-10
 -1       485-1.03882E+03 8.59960E+04 2.68919E+03-7.31056E+02 3.13207E-11-7.29061E-11
 -1       486-5.14840E+05-5.99397E+04-4.92491E+04-2.10008E+05 4.54747E-10 1.28239E-09
 -1       487-5.54220E+05-8.49032E+04-3.31413E+04-1.78162E+05 2.84740E-09 2.94676E-09
 -1       488-5.23994E+05-7.73469E+04-1.17345E+04-2.06883E+05 6.22549E-10-1.22509E-09
 -1       489-5.31353E+05-6.91126E+04-5.10923E+03-1.86149E+05 5.05523E-10-1.24601E-09
 -1       490-5.37569E+05-7.58325E+04-4.42901E+03-2.01916E+05 3.36115E-10 1.58934E-10
 -1       491-5.15936E+05-7.77486E+04 7.80598E+02-2.00114E+05-1.79642E-09 2.13481E-09
 -1       492-5.39375E+05-6.87385E+04-1.36363E+03-1.92892E+05 3.48450E-10 5.38839E-09
 -1       493-5.15389E+05-8.63956E+04 2.24852E+01-2.11369E+05 1.56398E-09 9.88712E-09
 -1       494-5.38274E+05-6.70444E+04-7.98466E+02-1.90789E+05-3.60430E-10 1.89431E-09
 -1       495-5.15072E+05-8.19109E+04 2.33854E+02-2.05253E+05-2.01872E-09 1.59534E-09
 -1       496-5.39593E+05-7.33121E+04-4.12395E+03-1.98927E+05 4.42071E-10 2.17665E-09
 -1       497-5.25155E+05-7.22909E+04-4.06609E+03-1.89972E+05-1.76783E-10-1.60753E-10
 -1       498-5.28120E+05-7.67324E+04-1.14512E+04-2.06009E+05 2.00180E-09-2.13686E-09
 -1       499-5.51848E+05-8.35244E+04-3.03912E+04-1.78869E+05 2.95859E-09-3.35785E-09
 -1       500-5.13068E+05-6.19478E+04-4.51026E+04-2.10162E+05-3.92083E-09 6.55564E-09
 -1       501-1.90517E+05-9.45710E+03 2.18663E+04-1.19426E+02 4.76497E-10 1.85537E-10
 -1       502-1.80931E+05 1.09485E+04 1.54829E+04-8.91569E+01 3.22700E-10 4.09273E-11
 -1       503-1.86860E+05-1.48314E+03 5.65374E+03 7.37343E+01-1.72768E-11-2.26237E-10
 -1       504-1.85206E+05 1.71561E+03 3.56057E+03-4.46437E+02-1.26512E-10-1.29512E-09
 -1       505-1.86244E+05-2.31544E+02 1.43959E+03 2.37863E+02 1.55264E-10-6.42331E-10
 -1       506-1.85936E+05 2.67650E+02 8.41092E+02-6.96103E+02 5.51187E-10-5.79348E-10
 -1       507-1.86131E+05-3.57816E+01 3.68031E+02 3.23404E+02 5.50320E-10-9.90312E-10
 -1       508-1.86063E+05 4.32689E+01 2.11376E+02-7.64289E+02 2.59106E-10-2.29515E-09
 -1       509-1.86117E+05-7.14011E+00 1.09677E+02 3.06050E+02 6.86954E-10-1.30569E-09
 -1       510-1.86061E+05 2.05989E+01 9.62937E+01-6.31536E+02 7.10520E-10-4.57182E-10
 -1       511-1.86132E+05-1.34311E+01 9.54604E+01 1.90649E+02 2.10111E-10 1.48429E-10
 -1       512-1.86004E+05 9.23991E+01 2.07585E+02-3.34956E+02 3.74035E-10 9.97375E-10
 -1       513-1.86174E+05-7.93510E+01 2.98540E+02 9.46573E+00-2.25437E-10 1.86120E-10
 -1       514-1.85773E+05 5.79694E+02 8.28563E+02 4.24764E+01-7.27981E-10 8.43073E-10
 -1       515-1.86363E+05-5.00470E+02 1.14904E+03-1.86790E+02-5.36783E-10 1.36885E-09
 -1       516-2.45418E+04 1.91824E+05 5.74189E+04-2.16692E+03-1.96451E-10-1.27329E-10
 -1       517 2.99314E+04 2.17688E+05 4.34289E+04 8.77674E+03-5.06134E-10-4.33532E-10
 -1       518-5.36622E+03 2.00452E+05 2.03862E+04-2.25608E+03-1.27329E-11-4.65576E-10
 -1       519 1.64023E+04 2.13593E+05 2.60196E+04 1.02631E+04-1.49430E-09-1.66550E-09
 -1       520-1.10595E+04 1.95970E+05 2.61691E+04-3.65342E+03-6.03904E-10-4.04577E-09
 -1       521-1.16375E+06-1.50318E+05-7.95165E+04-4.49065E+05-2.45564E-11-5.63887E-10
 -1       522-1.18683E+06-2.04722E+05-4.98487E+04-4.54635E+05-7.56302E-11-4.31464E-09
 -1       523-1.17743E+06-1.67436E+05-1.87532E+04-4.47165E+05 1.21361E-10-7.47605E-10
 -1       524-1.17101E+06-1.82078E+05-1.02401E+04-4.58234E+05 2.81943E-10 8.81300E-10
 -1       525-1.17906E+06-1.69130E+05-4.36189E+03-4.46917E+05 3.16959E-10 5.14547E-10
 -1       526-1.16913E+06-1.79896E+05-2.30642E+03-4.58676E+05-2.09695E-10 3.93641E-11
 -1       527-1.17929E+06-1.69274E+05-1.19461E+03-4.46861E+05-3.19687E-10 3.01753E-10
 -1       528-1.16891E+06-1.79715E+05-9.51375E+02-4.58730E+05-9.61776E-10-5.03007E-10
 -1       529-1.17927E+06-1.69287E+05-1.15979E+03-4.46874E+05-1.18723E-09-9.17225E-10
 -1       530-1.16916E+06-1.79839E+05-2.20967E+03-4.58619E+05-1.38635E-09-1.57343E-10
 -1       531-1.17903E+06-1.69178E+05-4.16549E+03-4.46954E+05-2.73303E-10 1.38016E-10
 -1       532-1.17100E+06-1.81868E+05-9.76869E+03-4.58133E+05-2.24532E-10-7.04858E-11
 -1       533-1.17745E+06-1.67592E+05-1.78878E+04-4.47222E+05 1.32752E-09-2.76032E-09
 -1       534-1.18615E+06-2.03403E+05-4.75421E+04-4.54624E+05 5.41968E-09 1.08048E-09
 -1       535-1.16436E+06-1.51304E+05-7.58395E+04-4.49072E+05 2.22008E-09-5.34783E-10
 -1       536 8.54612E+03-4.20323E+03 1.93800E+04-3.44015E+03 3.84262E-10 2.59206E-10
 -1       537 1.54850E+04 5.85290E+03 1.23309E+04-1.21049E+04-1.01409E-09 5.42059E-10
 -1       538 1.14380E+04-4.29898E+02 5.01213E+03-3.39518E+03-6.18456E-11 1.30467E-09
 -1       539 1.22434E+04 5.47966E+02 2.78014E+03-1.21518E+04 5.25688E-10-7.19183E-10
 -1       540 1.17529E+04-5.00139E+01 1.26110E+03-3.39233E+03-4.86580E-11-1.22679E-09
 -1       541 1.18656E+04 4.96878E+01 6.59983E+02-1.21536E+04-1.27636E-09 6.23970E-10
 -1       542 1.17909E+04-6.74076E+00 3.07402E+02-3.39340E+03-2.62901E-09 3.42936E-10
 -1       543 1.18064E+04 6.29970E+00 1.46170E+02-1.21519E+04-3.21188E-09 2.00637E-09
 -1       544 1.17963E+04 5.15376E-01 4.68708E+01-3.39399E+03-2.52282E-09 1.12269E-09
 -1       545 1.17894E+04-9.41100E-01-2.65782E+01-1.21512E+04-1.38709E-09-6.84963E-10
 -1       546 1.18014E+04 5.44648E+00-1.07765E+02-3.39410E+03-5.23244E-11 1.93353E-10
 -1       547 1.17536E+04-5.29949E+01-2.69902E+02-1.21499E+04-2.76486E-10 1.15423E-09
 -1       548 1.18350E+04 4.16513E+01-5.01040E+02-3.39533E+03-1.30626E-10 6.76152E-10
 -1       549 1.14379E+04-5.91213E+02-1.23913E+03-1.21243E+04-3.02236E-10-8.24002E-10
 -1       550 1.21293E+04 4.17084E+02-1.95397E+03-3.41970E+03 2.54659E-11 7.45786E-11
 -1       551 4.46027E+03-1.14413E+05 1.04314E+04-1.72922E+05 2.39197E-10-5.72072E-10
 -1       552 2.00449E+03-1.12528E+05 8.56439E+03-2.03120E+05-4.47471E-10 1.28648E-09
 -1       553 1.26062E+03-1.14124E+05 1.04092E+04-1.72631E+05 8.18545E-11-4.70277E-09
 -1       554 6.21189E+03-1.10041E+05 1.99261E+04-2.03167E+05-8.91305E-11-9.66406E-09
 -1       555 1.80246E+04-1.16990E+05 3.79480E+04-1.72861E+05-1.20053E-10-5.83896E-09
 -1       556-7.69253E+04-4.23490E+04 7.52523E+03-7.57205E+04 1.56251E-09-7.31779E-09
 -1       557-7.01548E+04-4.96976E+04 3.70432E+03-8.09318E+04 1.05938E-08-6.83769E-09
 -1       558-7.69924E+04-4.48267E+04 1.56201E+03-7.42338E+04 8.46376E-09 1.20872E-09
 -1       559-7.07954E+04-5.09330E+04 7.65013E+02-8.11422E+04 1.54614E-09-8.92555E-10
 -1       560-7.70300E+04-4.48702E+04 3.42081E+02-7.41907E+04 6.18456E-10-4.17231E-10
 -1       561-7.08930E+04-5.09710E+04 1.60763E+02-8.12129E+04 4.59295E-10 1.54800E-09
 -1       562-7.70647E+04-4.48401E+04 5.76950E+01-7.42150E+04 6.97582E-10 1.08116E-10
 -1       563-7.09347E+04-5.09534E+04-3.86613E+00-8.12435E+04 4.49290E-10-8.67658E-10
 -1       564-7.70837E+04-4.48212E+04-7.14903E+01-7.42308E+04 7.85803E-10-5.01814E-10
 -1       565-7.09619E+04-5.09440E+04-1.83206E+02-8.12588E+04 3.96039E-09 7.37236E-09
 -1       566-7.70791E+04-4.48108E+04-3.91304E+02-7.42347E+04 3.10320E-09 7.46240E-09
 -1       567-7.10358E+04-5.09816E+04-8.65321E+02-8.12537E+04 3.43789E-10 1.08230E-10
 -1       568-7.70183E+04-4.49357E+04-1.77718E+03-7.41732E+04 3.67436E-10-9.42237E-10
 -1       569-7.20237E+04-5.20406E+04-4.19198E+03-8.09839E+04 3.18323E-11-9.43146E-10
 -1       570-7.66390E+04-4.81360E+04-8.53582E+03-7.28291E+04 1.98270E-10-3.29237E-10
 -1       571 9.94226E+04 4.73156E+03 7.16538E+03-2.53981E+04 8.07177E-11 1.68484E-10
 -1       572 1.00512E+05 1.62549E+03 3.51626E+03-2.79478E+04-1.54614E-10-7.58973E-10
 -1       573 9.98676E+04 3.72367E+02 1.56364E+03-2.53309E+04-1.41199E-10 1.08685E-10
 -1       574 9.99982E+04 1.17089E+02 7.84432E+02-2.80227E+04 2.69665E-10 2.74213E-10
 -1       575 9.99194E+04 1.15049E+01 3.70766E+02-2.53222E+04 2.51248E-10 1.23919E-10
 -1       576 9.99320E+04 2.52981E-01 1.89386E+02-2.80326E+04 1.24629E-11-2.02590E-10
 -1       577 9.99271E+04-5.90032E+00 9.46715E+01-2.53210E+04-7.16227E-12 1.30967E-10
 -1       578 9.99241E+04-4.15599E+00 5.41090E+01-2.80337E+04-2.36696E-10 8.78799E-10
 -1       579 9.99315E+04-5.19788E+00 3.79442E+01-2.53211E+04-1.39607E-10 4.41332E-10
 -1       580 9.99292E+04-4.72251E+00 4.31775E+01-2.80322E+04 1.54614E-10 7.51925E-10
 -1       581 9.99370E+04-4.69305E+00 6.77319E+01-2.53226E+04-2.57387E-10 3.19687E-10
 -1       582 9.99488E+04 1.08334E+01 1.34755E+02-2.80167E+04-2.52840E-10 1.04137E-09
 -1       583 9.99376E+04 5.09447E+01 2.63687E+02-2.53365E+04 6.09361E-11-4.38604E-10
 -1       584 1.00047E+05 2.58754E+02 5.91207E+02-2.78994E+04-4.17913E-10-1.68893E-09
 -1       585 9.98737E+04 7.78436E+02 1.20262E+03-2.54403E+04 2.07365E-10 2.96495E-10
 -1       586 7.25160E+02 4.26396E+04 1.35872E+03-6.18437E+04 1.76215E-10-3.52429E-11
 -1       587 4.04254E+02 4.28790E+04 1.36279E+03-6.82287E+04 5.42514E-10 1.77351E-10
 -1       588 5.18035E+02 4.26253E+04 2.00914E+03-6.17642E+04 1.51431E-10-5.60135E-10
 -1       589 1.93711E+03 4.33905E+04 4.16905E+03-6.82521E+04 6.58019E-10-7.11680E-11
 -1       590 5.51608E+03 4.21155E+04 8.33802E+03-6.18194E+04 1.67802E-10-4.58385E-10
 -1       591-4.55902E+04-1.55697E+04-8.92383E+03-2.33467E+04-2.23650E-09-8.04903E-09
 -1       592-4.59151E+04-1.44974E+04-4.38418E+03-2.59503E+04-2.87002E-10 1.35435E-09
 -1       593-4.58650E+04-1.23247E+04-1.86050E+03-2.48383E+04 2.26419E-09 8.13588E-09
 -1       594-4.49585E+04-1.33018E+04-9.10492E+02-2.61037E+04-3.07352E-10 8.16964E-10
 -1       595-4.59080E+04-1.22082E+04-4.19334E+02-2.49039E+04-4.74529E-10-4.36273E-11
 -1       596-4.48868E+04-1.32553E+04-2.12723E+02-2.60970E+04 4.76916E-11 1.75169E-09
 -1       597-4.59161E+04-1.22147E+04-1.15871E+02-2.49043E+04-3.22751E-09-5.81059E-09
 -1       598-4.48796E+04-1.32559E+04-9.28185E+01-2.60939E+04-3.86495E-09-5.72265E-09
 -1       599-4.59157E+04-1.22148E+04-1.17911E+02-2.49041E+04-1.14608E-09 1.03410E-09
 -1       600-4.48867E+04-1.32556E+04-2.18215E+02-2.60965E+04-6.63533E-10 1.19377E-09
 -1       601-4.59062E+04-1.22084E+04-4.30737E+02-2.49033E+04-1.58957E-09 4.57248E-10
 -1       602-4.49608E+04-1.33029E+04-9.36008E+02-2.61018E+04-5.99812E-10 2.01226E-10
 -1       603-4.58608E+04-1.23296E+04-1.91262E+03-2.48365E+04 2.63913E-09 5.86488E-09
 -1       604-4.59530E+04-1.45223E+04-4.50693E+03-2.59325E+04 3.03771E-10-4.21664E-10
 -1       605-4.55679E+04-1.56733E+04-9.17327E+03-2.33125E+04-5.34783E-10-4.10409E-10
 -1       606 3.32812E+04-3.95387E+03-5.98307E+03 9.78759E+03-1.89402E-09-2.62162E-10
 -1       607 3.23586E+04-1.35814E+03-2.93554E+03 1.06696E+04-3.49246E-10-1.38715E-09
 -1       608 3.29013E+04-3.10729E+02-1.30530E+03 9.72284E+03 1.40017E-09-1.66665E-10
 -1       609 3.27785E+04-9.46554E+01-6.54004E+02 1.07419E+04-4.12001E-10-4.70891E-10
 -1       610 3.28518E+04-5.99360E+00-3.08188E+02 9.71445E+03-1.97815E-09-2.05648E-09
 -1       611 3.28289E+04 5.43678E+00-1.55173E+02 1.07512E+04-3.36831E-09-7.71934E-10
 -1       612 3.28424E+04 9.86906E+00-7.35956E+01 9.71344E+03-1.78761E-09-7.12816E-10
 -1       613 3.28346E+04 9.36627E+00-3.39726E+01 1.07525E+04-2.48235E-09-3.95858E-10
 -1       614 3.28391E+04 8.19274E+00-9.98124E+00 9.71317E+03-7.61020E-10-1.27238E-09
 -1       615 3.28352E+04 9.21460E+00 8.85629E+00 1.07527E+04 1.56888E-09-2.67164E-10
 -1       616 3.28365E+04 9.51724E+00 3.17027E+01 9.71325E+03-1.51340E-09-4.29964E-10
 -1       617 3.28405E+04 2.09795E+01 7.48897E+01 1.07524E+04-9.22455E-10-1.89175E-10
 -1       618 3.28300E+04 4.54991E+01 1.52982E+02 9.71344E+03-2.33399E-10-5.82190E-10
 -1       619 3.28898E+04 1.70252E+02 3.46140E+02 1.07509E+04-1.11640E-10-1.59378E-09
 -1       620 3.27850E+04 4.75809E+02 7.06351E+02 9.71446E+03 1.15460E-09-1.31479E-09
 -1       621 6.66511E+02 1.02212E+05 1.70641E+03-9.36077E+03-7.57609E-10 1.01295E-09
 -1       622 2.57257E+02 1.02537E+05 1.46590E+03-1.10439E+04-7.75231E-10 1.67557E-09
 -1       623 1.58435E+02 1.02277E+05 1.86719E+03-9.36978E+03-7.77845E-10 2.53112E-09
 -1       624 1.05949E+03 1.03023E+05 3.64414E+03-1.09973E+04-6.36192E-10-4.38263E-10
 -1       625 3.25884E+03 1.01731E+05 6.98047E+03-9.40689E+03-5.37511E-10-2.67482E-09
 -1       626 4.78927E+04 1.58077E+04-2.39254E+03 3.23740E+04-6.60293E-10-1.38152E-09
 -1       627 4.66490E+04 1.76442E+04-1.13399E+03 3.30374E+04 2.69938E-09 7.10980E-09
 -1       628 4.79567E+04 1.69889E+04-4.76049E+02 3.17906E+04 1.41790E-09-6.95650E-10
 -1       629 4.68223E+04 1.81415E+04-2.28299E+02 3.30025E+04 2.04636E-12-1.69739E-09
 -1       630 4.79550E+04 1.70708E+04-1.00294E+02 3.17432E+04 8.21865E-09-3.68837E-09
 -1       631 4.68357E+04 1.81783E+04-4.43706E+01 3.30043E+04 1.37505E-08-5.69388E-09
 -1       632 4.79514E+04 1.70730E+04-1.10323E+01 3.17395E+04 7.94080E-09 3.72233E-09
 -1       633 4.68373E+04 1.81797E+04 1.44215E+01 3.30056E+04 1.95701E-09 8.35826E-10
 -1       634 4.79482E+04 1.70702E+04 4.73881E+01 3.17392E+04 9.11541E-10-3.17186E-11
 -1       635 4.68434E+04 1.81810E+04 1.11595E+02 3.30070E+04 1.80535E-09 4.47812E-10
 -1       636 4.79434E+04 1.70759E+04 2.33495E+02 3.17353E+04 3.42766E-11-6.75868E-10
 -1       637 4.68994E+04 1.82467E+04 5.22833E+02 3.29963E+04 2.54389E-10 3.81988E-11
 -1       638 4.79309E+04 1.72735E+04 1.08465E+03 3.16493E+04-1.73492E-09-7.32962E-09
 -1       639 4.74500E+04 1.92263E+04 2.58247E+03 3.27530E+04 2.98314E-10 4.65775E-10
 -1       640 4.79599E+04 2.00964E+04 5.44938E+03 3.04787E+04-4.77485E-11 5.59794E-10
 -1       641 2.92277E+02 1.00966E+03-2.33560E+03-2.54623E+01-1.61313E-09 1.09492E-09
 -1       642-7.18674E+02-1.16875E+03-1.65104E+03 1.03533E+02-1.94922E-09 1.21798E-09
 -1       643-9.76893E+01 1.58202E+02-6.02169E+02-2.53332E+01-1.28167E-09 9.05288E-10
 -1       644-2.64430E+02-1.82613E+02-3.74373E+02 1.03404E+02 2.80253E-10 5.63745E-10
 -1       645-1.62008E+02 2.43343E+01-1.44372E+02-2.53340E+01 5.46584E-10 1.19017E-09
 -1       646-1.88104E+02-2.57823E+01-6.88534E+01 1.03407E+02-9.47233E-09 1.74017E-09
 -1       647-1.74032E+02 1.49668E+00-4.73987E-01-2.53356E+01-2.02480E-06 2.79178E-09
 -1       648-1.66747E+02 1.30989E+01 6.29662E+01 1.03405E+02-4.03773E-06 4.42963E-09
 -1       649-1.83371E+02-1.45214E+01 1.43209E+02-2.53323E+01-2.02589E-06 2.20241E-09
 -1       650-1.14014E+02 1.11944E+02 3.46962E+02 1.03362E+02-4.85744E-09 5.04542E-10
 -1       651-2.26759E+02-9.72899E+01 6.04006E+02-2.52931E+01-4.74907E-10 7.28022E-10
 -1       652 1.83888E+02 7.21683E+02 1.49447E+03 1.03178E+02 9.02463E-10 1.29143E-09
 -1       653-4.81254E+02-6.23816E+02 2.38107E+03-2.51484E+01-1.96207E-11 5.89466E-10
 -1       654 1.97806E+03 4.60700E+03 6.51250E+03 1.02393E+02-2.29941E-09-1.08230E-10
 -1       655-2.02081E+03-3.97949E+03 9.20474E+03-2.45089E+01 8.54680E-10 1.47793E-10
 -1       656 2.97660E+03-1.20495E+05-1.42953E+04 3.87011E+03-4.18368E-10 3.15094E-09
 -1       657-4.50984E+03-1.25637E+05-1.03503E+04 1.36512E+04-2.58638E-10 6.39386E-09
 -1       658 5.57820E+02-1.22339E+05-6.62811E+03 3.84742E+03-1.14866E-10 3.07506E-09
 -1       659-4.12775E+03-1.25409E+05-9.65761E+03 1.36639E+04-1.53148E-09-7.73408E-10
 -1       660 2.68194E+03-1.20728E+05-1.29751E+04 3.85752E+03 1.80989E-10 1.30814E-09
 -1       661 1.17063E+05 1.50897E+04 9.55549E+03 4.57252E+04 1.34071E-09 1.80535E-09
 -1       662 1.19236E+05 2.22319E+04 5.99067E+03 4.70930E+04 2.04915E-09-3.00827E-09
 -1       663 1.18688E+05 1.71655E+04 2.25538E+03 4.55201E+04 1.60128E-10-5.01359E-10
 -1       664 1.17365E+05 1.94809E+04 1.23354E+03 4.74831E+04 3.30999E-10-6.98975E-10
 -1       665 1.18868E+05 1.73841E+04 5.28568E+02 4.55059E+04-1.81439E-09-8.93351E-10
 -1       666 1.17158E+05 1.91998E+04 2.86005E+02 4.75110E+04-1.33591E-09 1.37076E-09
 -1       667 1.18889E+05 1.74080E+04 1.60766E+02 4.55063E+04-3.93284E-09 1.23788E-09
 -1       668 1.17138E+05 1.91752E+04 1.51416E+02 4.75116E+04-1.64628E-09 1.34347E-09
 -1       669 1.18887E+05 1.74064E+04 2.13660E+02 4.55061E+04 5.11378E-10 1.15683E-09
 -1       670 1.17175E+05 1.92182E+04 4.31923E+02 4.75109E+04 2.86023E-09-3.58966E-10
 -1       671 1.18853E+05 1.73686E+04 8.25305E+02 4.55059E+04 1.65355E-09 2.45859E-09
 -1       672 1.17504E+05 1.96617E+04 1.94301E+03 4.74661E+04 2.03408E-09-3.61524E-11
 -1       673 1.18567E+05 1.70238E+04 3.55819E+03 4.55284E+04 3.85361E-09 1.55751E-09
 -1       674 1.20456E+05 2.40066E+04 9.45630E+03 4.68521E+04 2.15711E-09-6.49379E-10
 -1       675 1.16004E+05 1.37449E+04 1.50840E+04 4.58496E+04 3.14230E-10 1.20690E-09
 -1       676 2.13575E+02-1.14182E+05-1.26931E+03 1.48406E+01-4.77897E-10 8.50974E-10
 -1       677-4.81339E+02-1.14664E+05-1.54067E+03-7.33217E+01-3.06981E-09 1.07210E-09
 -1       678 1.72162E+02-1.14201E+05-2.03682E+03 1.47657E+01-4.89933E-10 4.28948E-10
 -1       679-2.16751E+03-1.15686E+05-4.60785E+03-7.31846E+01-3.48223E-09 6.12365E-10
 -1       680 1.52755E+03-1.13159E+05-7.11062E+03 1.45458E+01-1.23237E-09 1.80773E-10
 -1       681 2.50519E+05-7.36618E+03 1.70076E+04 4.04530E+02 1.49925E-11 7.65795E-10
 -1       682 2.58052E+05 8.52642E+03 1.20656E+04-1.72183E+03-3.26208E-10-5.29781E-10
 -1       683 2.53426E+05-1.15300E+03 4.40938E+03 6.21289E+01 3.10454E-10 6.95991E-10
 -1       684 2.54661E+05 1.33568E+03 2.78390E+03-1.24531E+03 7.15452E-10-3.57431E-10
 -1       685 2.53910E+05-1.80104E+02 1.15133E+03-7.19968E+01 5.99332E-10 7.27766E-10
 -1       686 2.54103E+05 2.15559E+02 7.14143E+02-1.12507E+03 7.38554E-10-3.05249E-10
 -1       687 2.53984E+05-3.35030E+01 4.01036E+02-5.81171E+01 8.03454E-10 1.01944E-09
 -1       688 2.54057E+05 8.17647E+01 4.18991E+02-1.30680E+03-1.84244E-11-3.90578E-10
 -1       689 2.53957E+05-4.67443E+01 5.39158E+02 1.09739E+02 6.92779E-13 5.28829E-10
 -1       690 2.54287E+05 3.36967E+02 1.14150E+03-1.86840E+03-4.17014E-10-9.06084E-11
 -1       691 2.53755E+05-2.90083E+02 1.87110E+03 5.03497E+02 1.15136E-10-2.96382E-10
 -1       692 2.55551E+05 2.19617E+03 4.70267E+03-3.05191E+03-4.09493E-10 6.82405E-10
 -1       693 2.52701E+05-1.91021E+03 7.27804E+03 1.29327E+03-9.81046E-10-1.29512E-09
 -1       694 2.62429E+05 1.42900E+04 2.04476E+04-5.40137E+03-3.08918E-09 1.07934E-09
 -1       695 2.46907E+05-1.23943E+04 2.80832E+04 2.85308E+03-2.33644E-09-3.85990E-09
 -1       696-4.56955E+03 1.79696E+05 1.04264E+04 3.59108E+02 2.09184E-11-2.64095E-10
 -1       697 5.01690E+03 1.84212E+05 6.89309E+03-1.63390E+03 5.92308E-11-7.01199E-10
 -1       698-4.42682E+02 1.81633E+05 1.67200E+03 1.97327E+02-7.34417E-11 5.73451E-10
 -1       699-1.22383E+03 1.81292E+05-1.24268E+03-1.47874E+03-1.00670E-10 1.60421E-09
 -1       700 1.66680E+03 1.82616E+05-3.55058E+03 2.03953E+02-6.98037E-11 5.27937E-10
 -1       701-2.30161E+05-2.15984E+04-2.77903E+04-9.12530E+04-3.04226E-10 6.40284E-10
 -1       702-2.45218E+05-4.66732E+04-1.92839E+04-8.58704E+04 4.17913E-10-1.27102E-09
 -1       703-2.35641E+05-3.17588E+04-6.51554E+03-8.95515E+04 4.29623E-10 7.82165E-10
 -1       704-2.38867E+05-3.48935E+04-4.07316E+03-8.78126E+04 5.77245E-11 1.33377E-09
 -1       705-2.36509E+05-3.33703E+04-1.52416E+03-8.93135E+04 2.55966E-10 1.20048E-09
 -1       706-2.37731E+05-3.31389E+04-9.06390E+02-8.82030E+04-4.90882E-10-8.25935E-11
 -1       707-2.36776E+05-3.35123E+04-4.22422E+02-8.91611E+04 2.91562E-10 9.35103E-10
 -1       708-2.37242E+05-3.31921E+04-3.49666E+02-8.85809E+04 6.33985E-10 3.76814E-10
 -1       709-2.36997E+05-3.33174E+04-4.00805E+02-8.89351E+04-5.03199E-10 6.32951E-11
 -1       710-2.36956E+05-3.38153E+04-8.18306E+02-8.90128E+04 8.74770E-10-2.47695E-10
 -1       711-2.37063E+05-3.28893E+04-1.38815E+03-8.87291E+04-4.71232E-11 6.21469E-10
 -1       712-2.37620E+05-3.57935E+04-3.68417E+03-8.91110E+04-7.97972E-09 4.36660E-09
 -1       713-2.36334E+05-3.13398E+04-5.89717E+03-8.88371E+04-2.87740E-06 1.07672E-06
 -1       714-2.43497E+05-4.63808E+04-1.74613E+04-8.72733E+04-5.73722E-06 2.14607E-06
 -1       715-2.31188E+05-2.23087E+04-2.51497E+04-9.05652E+04-2.87985E-06 1.07827E-06
 -1       716-3.73531E+04-1.25897E+03 2.57424E+03 1.57207E+02 5.30378E-09-2.20234E-09
 -1       717-3.39590E+04 1.44040E+03 2.22787E+03-1.57011E+03 2.83401E-09 2.41243E-10
 -1       718-3.66406E+04-2.00223E+02 6.08332E+02 3.53796E+02 1.34941E-09-1.25965E-09
 -1       719-3.50023E+04 2.21437E+02 6.37178E+02-1.92579E+03-1.31507E-10-1.92586E-10
 -1       720-3.63221E+04-3.21137E+01 1.59611E+02 5.12785E+02-1.58536E-10 7.23588E-10
 -1       721-3.55355E+04 4.10135E+01 2.72944E+02-2.19486E+03 1.25698E-09 5.77440E-11
 -1       722-3.61188E+04-1.17501E+01 1.85177E+02 6.22834E+02 1.72784E-09 1.64802E-09
 -1       723-3.58246E+04 7.49727E+01 4.03182E+02-2.36011E+03 7.52465E-10-6.31715E-10
 -1       724-3.60408E+04-6.03811E+01 6.56514E+02 6.78049E+02 2.84613E-09 1.59605E-09
 -1       725-3.57193E+04 4.73531E+02 1.49538E+03-2.41252E+03 1.83676E-09-1.17979E-10
 -1       726-3.62268E+04-4.08134E+02 2.56291E+03 6.75252E+02 1.98831E-09 2.03568E-09
 -1       727-3.43388E+04 3.05117E+03 6.34723E+03-2.35001E+03 3.26770E-09-6.74845E-10
 -1       728-3.74179E+04-2.63837E+03 1.00374E+04 6.15530E+02 1.30448E-09 1.08821E-09
 -1       729-2.64239E+04 1.94978E+04 2.76146E+04-2.19349E+03 6.65977E-10 4.94310E-10
 -1       730-4.41307E+04-1.68469E+04 3.88235E+04 5.18722E+02 1.32701E-09 2.38288E-10
 -1       731-6.54869E+03 8.96333E+04 1.40278E+04-3.09374E+03-2.47564E-09-1.14784E-09
 -1       732 7.83214E+03 1.02298E+05 1.17036E+04 1.04773E+04 6.23459E-10 1.45008E-10
 -1       733-1.31798E+03 9.43361E+04 5.05661E+03-2.32756E+03-2.12822E-10-6.28518E-10
 -1       734 3.94528E+03 9.77407E+04 6.35919E+03 9.58260E+03-2.17142E-11-1.79630E-09
 -1       735-2.61764E+03 9.41227E+04 6.47964E+03-2.19887E+03 4.88399E-10-7.92483E-10
 -1       736-2.67577E+05-3.85501E+04-2.35352E+04-1.11259E+05 1.22413E-08-8.40646E-09
 -1       737-2.60472E+05-2.63234E+04-8.66532E+03-7.17609E+04 3.58685E-08 9.41100E-09
 -1       738-2.50204E+05-4.44421E+04-4.70149E+03-1.08732E+05 6.99697E-09 3.19462E-08
 -1       739-2.73193E+05-1.92396E+04-1.75157E+03-7.41223E+04-1.36475E-08-5.94741E-09
 -1       740-2.55122E+05-4.54326E+04-2.07397E+03-1.09113E+05 4.10085E-09-2.17329E-08
 -1       741-2.44939E+05-1.96007E+04 5.45687E+03-7.27941E+04-1.32596E-08-2.05426E-08
 -1       742-2.78019E+05-4.44048E+04-5.42208E+03-1.09711E+05-1.27502E-08-6.63135E-10
 -1       743-2.13223E+05-2.76086E+04 1.03953E+04-7.94024E+04-3.78179E-10 6.54009E-09
 -1       744-2.86433E+05-3.77273E+04-5.71921E+03-1.02205E+05 1.12203E-08-5.36710E-09
 -1       745-2.17372E+05-4.30335E+04 6.34783E+03-9.92370E+04 1.29933E-08 3.55183E-09
 -1       746-2.74194E+05-2.87402E+04-2.33661E+03-9.01350E+04 2.83198E-08 3.47893E-08
 -1       747-2.35951E+05-5.48874E+04-1.03367E+03-1.15189E+05-2.18640E-09 7.96078E-09
 -1       748-2.68358E+05-2.54956E+04-3.69951E+03-8.66219E+04 1.79047E-08 9.31232E-09
 -1       749-2.31814E+05-5.61904E+04-7.08340E+03-1.08574E+05-7.02025E-09 1.11967E-08
 -1       750-2.78140E+05-2.75848E+04-1.96857E+04-9.66106E+04-8.05994E-09-1.11049E-08
 -1       751 9.97703E+05-5.72924E+04 1.32643E+05 1.34810E+03-1.11428E-08-3.92902E-10
 -1       752 1.05526E+06 6.63320E+04 9.38334E+04-1.73449E+03-2.75419E-09-7.82165E-11
 -1       753 1.01992E+06-8.98032E+03 3.43521E+04 3.18205E+02 1.23279E-12 1.56433E-10
 -1       754 1.02941E+06 1.03932E+04 2.16050E+04-4.50296E+02 4.87804E-10 8.24002E-10
 -1       755 1.02359E+06-1.40497E+03 8.84266E+03 6.39807E+01 1.70719E-10 2.72394E-10
 -1       756 1.02515E+06 1.64664E+03 5.28580E+03-1.32375E+02 7.06410E-10 2.06512E-10
 -1       757 1.02419E+06-2.40669E+02 2.59714E+03 2.81056E-01 3.04111E-07 4.39400E-10
 -1       758 1.02451E+06 4.27457E+02 2.07664E+03-5.52411E+01 6.07420E-07-3.84212E-10
 -1       759 1.02422E+06-1.86607E+02 2.11085E+03-1.31547E+01 1.57786E-07 1.31081E-10
 -1       760 1.02490E+06 1.18174E+03 3.87919E+03-4.92386E+01-2.92458E-07 3.66811E-10
 -1       761 1.02381E+06-9.94423E+02 6.31081E+03-5.72157E+00-1.47182E-07-6.68479E-11
 -1       762 1.02789E+06 7.34000E+03 1.52856E+04-1.01338E+02 1.91990E-09 8.07859E-10
 -1       763 1.02122E+06-6.34005E+03 2.42634E+04 3.89452E+01 3.22445E-09 2.00089E-10
 -1       764 1.04610E+06 4.68182E+04 6.62310E+04-3.29147E+02 1.16670E-09 3.99268E-10
 -1       765 1.00557E+06-4.04378E+04 9.36195E+04 2.22080E+02-1.92783E-10-5.20231E-10
 -1       766-2.23852E+04 9.23117E+04 5.19173E+04 4.65524E+03 3.03044E-09-1.79804E-09
 -1       767 2.69919E+04 1.17927E+05 3.92946E+04-2.02019E+04 1.02991E-08-9.79355E-10
 -1       768-4.52979E+03 1.00613E+05 1.76751E+04 4.60391E+03 4.14775E-09 1.35495E-09
 -1       769 1.39183E+04 1.19859E+05 2.30604E+04-2.15427E+04 1.00664E-09-7.48202E-10
 -1       770-9.45913E+03 9.05751E+04 1.92131E+04 5.99647E+03-3.46881E-09-9.24274E-10
 -1       771-5.57772E+05-1.12435E+05-1.84531E+04-2.42018E+05-2.50293E-09-7.76345E-09
 -1       772-5.56074E+05-1.12508E+05-9.05921E+03-2.50025E+05 2.39288E-09-1.27011E-09
 -1       773-5.58519E+05-1.05573E+05-3.85053E+03-2.44966E+05 4.25644E-10-3.63798E-10
 -1       774-5.53992E+05-1.10182E+05-1.88129E+03-2.50562E+05 7.55790E-10-6.45741E-10
 -1       775-5.58661E+05-1.05291E+05-8.69127E+02-2.45107E+05 5.25688E-10-6.06406E-10
 -1       776-5.53865E+05-1.10090E+05-4.39292E+02-2.50601E+05-6.35282E-10-8.98638E-10
 -1       777-5.58714E+05-1.05284E+05-2.39959E+02-2.45123E+05-3.13139E-09-4.88211E-09
 -1       778-5.53872E+05-1.10084E+05-1.88607E+02-2.50623E+05-2.70575E-10 1.20946E-09
 -1       779-5.58737E+05-1.05270E+05-2.39148E+02-2.45134E+05 3.96540E-10 1.36538E-10
 -1       780-5.53903E+05-1.10079E+05-4.39346E+02-2.50645E+05 5.04997E-10-2.31921E-10
 -1       781-5.58731E+05-1.05250E+05-8.67974E+02-2.45139E+05-2.49497E-09-7.41943E-09
 -1       782-5.54059E+05-1.10172E+05-1.88608E+03-2.50663E+05 4.44743E-10-3.28782E-10
 -1       783-5.58641E+05-1.05492E+05-3.85536E+03-2.45005E+05 2.37549E-10 1.12323E-10
 -1       784-5.56061E+05-1.12631E+05-9.08826E+03-2.50318E+05-3.44812E-10-6.27551E-10
 -1       785-5.58043E+05-1.12240E+05-1.84999E+04-2.41932E+05 1.56888E-10 4.96584E-10
 -1       786 8.60272E+04-2.43290E+03 1.12758E+04-7.96541E+02 8.41283E-12-1.03228E-09
 -1       787 9.00335E+04 3.41357E+03 7.17134E+03-2.83590E+03 7.61702E-11-1.26272E-09
 -1       788 8.77122E+04-2.43479E+02 2.91913E+03-7.90499E+02-2.69097E-10-3.96312E-10
 -1       789 8.81620E+04 3.23959E+02 1.61948E+03-2.84114E+03-8.30255E-10 2.19359E-10
 -1       790 8.78977E+04-2.59675E+01 7.40785E+02-7.91202E+02-2.61059E-09 6.23061E-10
 -1       791 8.79524E+04 3.03240E+01 3.95826E+02-2.84003E+03-3.23779E-09 2.94058E-10
 -1       792 8.79212E+04-3.32484E+00 2.03377E+02-7.91606E+02-2.52771E-09 5.93033E-10
 -1       793 8.79266E+04 3.79681E+00 1.34576E+02-2.83978E+03-9.73014E-10-3.38432E-10
 -1       794 8.79234E+04-1.83094E+00 1.24181E+02-7.91448E+02-2.41485E-10-3.76126E-10
 -1       795 8.79341E+04 1.29559E+01 1.87896E+02-2.84079E+03 2.21362E-10-3.64082E-11
 -1       796 8.79141E+04-1.12816E+01 3.25243E+02-7.90599E+02-1.84571E-10 4.37090E-10
 -1       797 8.80232E+04 1.37859E+02 6.95522E+02-2.84237E+03 9.29958E-11 1.09867E-09
 -1       798 8.78351E+04-1.04166E+02 1.24735E+03-7.89868E+02-1.79227E-10 4.82146E-10
 -1       799 8.88220E+04 1.45553E+03 3.06010E+03-2.83638E+03-3.03146E-10-1.59588E-10
 -1       800 8.71165E+04-1.03833E+03 4.80989E+03-7.96642E+02 1.29205E-10-3.71074E-10
 -1       801-2.91477E+03 8.91966E+04 1.37293E+04-9.55115E+04-3.90992E-09 6.18456E-10
 -1       802 6.37862E+03 9.37676E+04 1.44587E+04-3.39824E+05-1.69894E-09-8.45375E-10
 -1       803-8.88055E+02 8.95513E+04 1.62470E+04-9.51966E+04-5.19685E-09 2.29295E-09
 -1       804 1.74672E+04 1.00537E+05 3.46564E+04-3.39812E+05-2.69574E-09-1.72076E-09
 -1       805-1.15856E+04 8.24813E+04 5.21947E+04-9.55256E+04-1.98634E-09 1.73350E-09
 -1       806-8.72818E+04-2.39328E+04-7.32207E+03-4.11572E+04 3.60956E-11-3.79714E-10
 -1       807-8.72407E+04-2.21169E+04-3.46993E+03-4.34754E+04-2.54317E-10-4.22347E-11
 -1       808-8.72347E+04-2.01495E+04-1.45827E+03-4.27440E+04-2.51703E-10-9.45874E-11
 -1       809-8.65163E+04-2.07867E+04-7.04210E+02-4.37897E+04-2.32660E-10-1.54813E-10
 -1       810-8.72514E+04-1.98839E+04-3.17943E+02-4.28620E+04 3.54703E-11-4.20243E-10
 -1       811-8.64440E+04-2.06964E+04-1.59009E+02-4.38033E+04 6.17320E-11-3.37991E-10
 -1       812-8.72572E+04-1.98753E+04-8.25104E+01-4.28677E+04-4.79474E-11-4.77030E-10
 -1       813-8.64363E+04-2.06938E+04-5.97909E+01-4.38017E+04 3.71145E-10-9.60654E-10
 -1       814-8.72573E+04-1.98763E+04-6.80024E+01-4.28673E+04 1.48873E-10-2.02363E-11
 -1       815-8.64412E+04-2.06965E+04-1.20489E+02-4.38017E+04-2.31694E-10-1.42336E-10
 -1       816-8.72519E+04-1.98835E+04-2.35083E+02-4.28627E+04-3.59933E-10 2.20780E-10
 -1       817-8.64954E+04-2.07613E+04-5.18063E+02-4.37886E+04 4.87944E-10 6.52904E-10
 -1       818-8.72374E+04-2.00812E+04-1.07136E+03-4.27777E+04-1.20735E-10 3.06727E-10
 -1       819-8.70430E+04-2.17216E+04-2.54838E+03-4.35379E+04-6.18456E-10 7.21229E-10
 -1       820-8.72549E+04-2.28736E+04-5.37674E+03-4.16285E+04-1.11413E-10-2.94165E-10
 -1       821-9.25915E+04 2.58111E+03-1.19669E+04 8.77792E+02-1.16529E-09 7.40329E-10
 -1       822-9.68410E+04-3.62275E+03-7.61104E+03 3.13780E+03-4.31555E-10 3.48336E-10
 -1       823-9.43802E+04 2.57990E+02-3.09921E+03 8.61899E+02 9.71568E-10 9.09495E-11
 -1       824-9.48573E+04-3.42573E+02-1.72079E+03 3.15676E+03-2.90015E-10-3.68118E-10
 -1       825-9.45774E+04 2.77351E+01-7.90853E+02 8.58724E+02-2.12293E-09-5.67070E-10
 -1       826-9.46368E+04-3.02831E+01-4.29455E+02 3.16164E+03-3.22345E-09 1.40687E-12
 -1       827-9.46022E+04 4.22043E+00-2.34543E+02 8.56991E+02-2.16693E-09-4.69356E-10
 -1       828-9.46122E+04-2.79261E+00-1.81336E+02 3.16445E+03-2.58058E-09-1.09688E-09
 -1       829-9.46031E+04 3.84971E+00-2.06977E+02 8.55916E+02-3.22174E-10-1.19182E-09
 -1       830-9.46315E+04-2.38133E+01-3.57238E+02 3.16564E+03 1.83794E-09-1.26036E-09
 -1       831-9.45834E+04 2.30758E+01-6.46324E+02 8.55801E+02-9.82666E-10 2.55199E-10
 -1       832-9.48111E+04-2.77037E+02-1.39980E+03 3.16478E+03 7.83217E-10 8.46683E-11
 -1       833-9.44234E+04 2.10313E+02-2.51808E+03 8.56792E+02 2.92920E-09-5.32509E-10
 -1       834-9.64231E+04-2.94106E+03-6.18253E+03 3.15594E+03 3.16027E-09 2.20325E-10
 -1       835-9.29708E+04 2.09747E+03-9.71991E+03 8.64836E+02 2.42284E-09-5.06589E-10
 -1       836-3.94668E+03 2.28972E+05 1.93286E+04-6.50483E+03-3.69255E-10-7.44649E-10
 -1       837 6.22955E+03 2.35975E+05 1.49992E+04-2.30066E+04 7.45786E-11 1.57834E-09
 -1       838-9.50149E+02 2.31227E+05 1.12999E+04-6.48746E+03-5.44674E-10 7.23169E-10
 -1       839 8.48770E+03 2.37343E+05 1.91072E+04-2.30066E+04 3.02407E-10-1.19363E-09
 -1       840-5.70521E+03 2.27602E+05 2.71539E+04-6.50480E+03-6.18456E-10 6.83713E-10
 -1       841-9.39620E+02 1.08887E+03-3.14440E+03-9.08580E+02 2.68528E-10-5.17616E-10
 -1       842-2.65248E+03-1.74882E+03-2.18249E+03-3.01101E+02-5.69628E-10 5.29184E-10
 -1       843-1.58104E+03-4.25380E+01-7.36260E+02-6.95214E+02 4.25558E-10 6.47020E-10
 -1       844-1.90739E+03-4.38505E+02-4.58493E+02-5.46946E+02 1.99488E-09 8.61121E-10
 -1       845-1.68463E+03-2.20592E+02-1.67560E+02-6.63074E+02 3.24555E-10 1.53264E-10
 -1       846-1.78631E+03-2.31291E+02-9.14889E+01-5.83933E+02-1.09985E-09 1.17745E-09
 -1       847-1.70211E+03-2.49623E+02-2.53979E+01-6.58282E+02-4.85440E-07 1.81618E-07
 -1       848-1.76168E+03-1.91101E+02 1.16085E+01-5.90361E+02-9.69518E-07 3.65063E-07
 -1       849-1.70927E+03-2.60757E+02 5.14860E+01-6.56658E+02-8.14411E-07 3.05014E-07
 -1       850-1.72770E+03-1.36316E+02 1.47485E+02-5.99382E+02-6.56274E-07 2.46212E-07
 -1       851-1.73608E+03-3.04378E+02 2.60945E+02-6.49273E+02-3.28919E-07 1.22353E-07
 -1       852-1.54016E+03 1.81505E+02 7.08186E+02-6.56503E+02-8.56282E-10-8.28663E-10
 -1       853-1.89678E+03-5.78388E+02 1.13487E+03-5.99607E+02-1.07696E-09 8.38384E-10
 -1       854-3.89982E+02 2.19961E+03 3.36376E+03-1.03608E+03-5.65961E-10-1.92983E-10
 -1       855-2.88605E+03-2.32116E+03 4.84501E+03-2.70174E+02-5.51836E-10 9.58607E-10
 -1       856-1.11226E+05 2.46345E+03-1.14256E+04 1.75931E+03-2.14777E-09-5.72982E-10
 -1       857-1.15281E+05-3.45485E+03-7.26572E+03 6.32942E+03-3.09046E-09-1.47111E-09
 -1       858-1.12935E+05 2.46810E+02-2.95863E+03 1.73311E+03-5.62420E-09-4.88967E-10
 -1       859-1.13391E+05-3.21941E+02-1.64152E+03 6.36148E+03-4.80281E-09-1.96601E-09
 -1       860-1.13124E+05 2.77923E+01-7.52769E+02 1.72703E+03-5.30622E-09-1.87896E-09
 -1       861-1.13182E+05-2.28865E+01-4.05147E+02 6.36994E+03-6.06821E-09-2.28917E-09
 -1       862-1.13148E+05 5.67135E+00-2.14455E+02 1.72462E+03 2.91305E-09-1.03407E-09
 -1       863-1.13159E+05 4.17162E+00-1.53682E+02 6.37290E+03 9.99609E-09-2.15333E-09
 -1       864-1.13150E+05 4.77369E+00-1.59753E+02 1.72406E+03 5.78274E-09-2.46541E-09
 -1       865-1.13171E+05-1.05038E+01-2.61663E+02 6.37189E+03 6.29127E-09-2.64518E-09
 -1       866-1.13135E+05 1.80521E+01-4.65839E+02 1.72563E+03-4.56851E-10-1.04717E-09
 -1       867-1.13297E+05-1.92679E+02-1.00383E+03 6.36606E+03-1.27875E-09-9.51431E-10
 -1       868-1.13020E+05 1.51288E+02-1.80448E+03 1.72992E+03 6.27779E-10-1.75100E-09
 -1       869-1.14448E+05-2.10191E+03-4.42787E+03 6.33944E+03-1.03955E-09-2.88384E-09
 -1       870-1.11979E+05 1.50147E+03-6.96226E+03 1.75242E+03 8.01492E-10-1.16506E-09
 -1       871-1.10367E+03-1.07487E+04-2.08352E+03 3.15298E+04-1.55183E-09-1.38471E-10
 -1       872-3.39943E+02-1.11233E+04-6.07115E+02 3.70127E+04-2.37173E-09 7.81711E-10
 -1       873 3.50451E+01-1.09775E+04 6.20471E+02 3.14687E+04-2.06717E-09-4.00075E-09
 -1       874 7.35730E+02-1.04803E+04 2.30531E+03 3.70392E+04-2.46587E-09-1.03580E-08
 -1       875 2.36776E+03-1.14010E+04 4.96856E+03 3.15048E+04-1.79921E-09-4.97471E-09
 -1       876 1.36243E+05 1.73267E+04 1.28505E+04 5.35665E+04-9.50422E-11-4.87489E-10
 -1       877 1.39092E+05 2.70099E+04 8.05645E+03 5.54960E+04 1.24714E-09-2.79749E-09
 -1       878 1.38428E+05 2.01188E+04 3.03234E+03 5.32905E+04 7.70967E-10 8.53788E-10
 -1       879 1.36575E+05 2.33092E+04 1.65757E+03 5.60185E+04 5.49107E-10-6.79705E-10
 -1       880 1.38669E+05 2.04142E+04 7.07779E+02 5.32727E+04-4.77257E-10-2.70632E-09
 -1       881 1.36298E+05 2.29290E+04 3.78230E+02 5.60529E+04-4.00320E-10-7.70193E-10
 -1       882 1.38696E+05 2.04478E+04 2.03048E+02 5.32743E+04-4.61677E-09 2.04437E-10
 -1       883 1.36271E+05 2.28927E+04 1.74872E+02 5.60510E+04-1.79236E-09 3.84702E-10
 -1       884 1.38694E+05 2.04479E+04 2.29463E+02 5.32750E+04 2.33247E-09 2.55498E-09
 -1       885 1.36309E+05 2.29354E+04 4.51010E+02 5.60489E+04 4.31675E-09-3.70534E-10
 -1       886 1.38659E+05 2.04090E+04 8.55903E+02 5.32750E+04 1.66295E-10 3.61865E-10
 -1       887 1.36649E+05 2.33943E+04 2.01146E+03 5.60029E+04 1.16556E-09 2.62617E-10
 -1       888 1.38364E+05 2.00519E+04 3.68221E+03 5.32980E+04 6.29660E-09 4.46403E-09
 -1       889 1.39705E+05 2.78899E+04 9.78502E+03 5.53678E+04 2.28057E-09 3.76190E-10
 -1       890 1.35711E+05 1.66592E+04 1.56078E+04 5.36309E+04-9.54060E-10-2.53749E-09
 -1       891 4.77421E+02-6.11400E+04-2.40045E+03 7.46626E+03-1.39562E-09 6.23231E-10
 -1       892-7.93038E+02-6.19978E+04-1.91225E+03 2.65481E+04-1.30359E-09-1.14215E-09
 -1       893 1.25054E+02-6.14110E+04-1.52253E+03 7.43756E+03-6.75016E-10-1.02160E-09
 -1       894-1.21731E+03-6.22537E+04-2.68322E+03 2.65462E+04-2.52157E-09-9.23649E-10
 -1       895 8.06957E+02-6.08825E+04-3.86910E+03 7.46816E+03-1.93779E-09 4.22460E-10
 -1       896 2.76374E+05-1.88296E+03 4.35288E+03 2.94876E+02 5.68612E-11 7.78527E-10
 -1       897 2.78263E+05 2.17950E+03 3.08592E+03-4.10112E+02 1.79767E-11 6.72344E-10
 -1       898 2.77110E+05-2.95014E+02 1.13185E+03 1.52499E+02 2.99888E-10 4.15071E-10
 -1       899 2.77406E+05 3.41985E+02 7.20006E+02-1.91783E+02-3.94500E-10 3.38574E-10
 -1       900 2.77231E+05-4.67763E+01 3.09542E+02 7.65439E+01 6.66898E-11 2.37080E-10
 -1       901 2.77267E+05 5.93791E+01 2.15421E+02-7.00572E+01 1.21155E-10 1.80782E-10
 -1       902 2.77249E+05-1.25841E+01 1.63400E+02 3.07712E+01 1.91268E-10 1.78451E-10
 -1       903 2.77264E+05 4.94786E+01 2.40511E+02 1.28871E+01-6.12591E-10 5.86340E-11
 -1       904 2.77234E+05-3.68804E+01 3.81421E+02-6.40183E+00-2.06233E-10 8.15419E-11
 -1       905 2.77379E+05 2.68273E+02 8.46286E+02 9.60853E+01 1.35962E-11-5.81935E-11
 -1       906 2.77133E+05-2.31246E+02 1.44498E+03-5.24286E+01 4.74764E-10-2.64265E-10
 -1       907 2.78086E+05 1.71348E+03 3.55501E+03 2.18771E+02 2.72482E-10-2.22087E-10
 -1       908 2.76528E+05-1.48104E+03 5.65744E+03-1.29090E+02 5.59906E-10-2.04182E-10
 -1       909 2.82352E+05 1.09391E+04 1.54682E+04 4.41536E+02 9.47825E-10-7.12362E-10
 -1       910 2.72865E+05-9.44938E+03 2.18580E+04-2.75192E+02 1.03986E-09-6.42103E-10
 -1       911 2.55295E+04 1.23564E+02-4.37354E+02-6.47946E+02 4.78323E-10 6.44434E-10
 -1       912 2.61380E+04-1.49375E+02-1.66847E+02 2.61958E+03 3.98995E-10 2.05379E-09
 -1       913 2.57031E+04 2.38973E+01-1.11654E+02-5.71086E+02 9.68392E-10 2.74542E-09
 -1       914 2.58701E+04-2.73794E+01-3.48208E+01 2.50756E+03-5.56621E-11 3.80934E-09
 -1       915 2.57892E+04 7.43781E+00-1.20381E+01-5.35931E+02-1.50064E-09 3.54023E-09
 -1       916 2.58010E+04-4.62641E+00 1.34784E+01 2.47846E+03-3.38994E-09 4.27446E-09
 -1       917 2.57702E+04 2.59802E+00 3.97565E+01-5.41990E+02-2.09685E-09 3.38439E-09
 -1       918 2.59623E+04 1.36797E+01 1.33211E+02 2.53171E+03-3.30925E-10 3.75951E-09
 -1       919 2.56316E+04-1.35200E+01 1.65187E+02-5.89174E+02-6.76877E-10 2.09721E-09
 -1       920 2.64301E+04 1.28712E+02 5.53378E+02 2.66915E+03-2.49338E-09 1.27204E-09
 -1       921 2.53127E+04-1.19558E+02 6.92650E+02-6.79426E+02 4.86409E-10-4.64325E-10
 -1       922 2.75412E+04 9.11454E+02 2.15488E+03 2.89686E+03 4.52127E-09-1.92122E-09
 -1       923 2.45387E+04-8.08602E+02 2.86640E+03-8.16958E+02 2.43347E-09-4.33681E-09
 -1       924 3.10572E+04 5.99601E+03 8.81918E+03 3.24145E+03 4.36039E-09-6.93274E-09
 -1       925 2.18259E+04-5.22072E+03 1.14023E+04-1.02429E+03 3.99803E-09-9.79389E-09
 -1       926-2.52336E+05 5.63427E+03-1.30809E+04 4.30977E+03-1.73532E-09-1.27930E-08
 -1       927-2.57533E+05-6.48506E+03-9.14752E+03-7.46886E+03 1.52473E-08-1.44033E-08
 -1       928-2.55137E+05 8.73149E+02-3.49706E+03 3.72578E+03-1.51132E-09-1.09753E-08
 -1       929-2.52897E+05-9.43216E+02-1.60068E+03-4.98432E+03-1.08488E-08-1.08687E-08
 -1       930-2.56917E+05 5.47801E+01-1.24569E+03 1.82476E+03-2.10972E-09-5.49829E-09
 -1       931-2.50734E+05-2.73646E+01 4.03379E+02-5.62809E+02 6.87351E-10-3.08352E-09
 -1       932-2.57255E+05-7.66990E+01-5.95379E+02-6.95679E+02 1.76271E-10 1.57225E-09
 -1       933-2.51637E+05 9.69964E+01 7.17718E+02 4.14064E+03 2.02890E-09 4.98990E-09
 -1       934-2.56039E+05-4.95207E+01 6.29965E+01-2.87837E+03-2.32689E-09 7.36398E-09
 -1       935-2.53882E+05 2.36103E+02 8.98972E+02 7.34620E+03 1.62692E-09 1.04445E-08
 -1       936-2.55071E+05-1.68332E+02 1.27861E+03-3.90150E+03 4.86089E-10 1.02565E-08
 -1       937-2.53750E+05 1.53118E+03 3.24320E+03 7.85830E+03 7.30624E-09 1.18339E-08
 -1       938-2.56184E+05-1.33347E+03 4.92276E+03-3.39059E+03 8.45148E-09 8.32938E-09
 -1       939-2.47858E+05 9.96027E+03 1.43103E+04 5.50441E+03 5.50844E-09 8.01924E-09
 -1       940-2.60908E+05-8.63147E+03 1.90378E+04-1.54727E+03-6.76948E-10 3.18960E-09
 -1       941 1.63180E+06-8.18628E+04 1.89655E+05 1.72434E+02-1.49560E-07 6.47560E-10
 -1       942 1.71389E+06 9.47875E+04 1.34117E+05 4.88126E+01-3.09593E-07-1.64619E-09
 -1       943 1.66350E+06-1.28354E+04 4.91270E+04 1.23750E+02-2.55425E-07 1.90994E-10
 -1       944 1.67703E+06 1.48561E+04 3.09033E+04 1.04881E+02-1.93540E-07-9.07676E-10
 -1       945 1.66874E+06-2.00901E+03 1.26680E+04 1.16380E+02-1.24187E-07 1.15961E-09
 -1       946 1.67095E+06 2.35917E+03 7.60252E+03 1.13270E+02-5.59324E-08 2.80397E-09
 -1       947 1.66960E+06-3.48679E+02 3.79371E+03 1.15364E+02 7.79700E-09 1.84855E-09
 -1       948 1.67006E+06 6.45993E+02 3.14172E+03 1.13657E+02 7.46710E-08 1.05589E-09
 -1       949 1.66963E+06-2.97018E+02 3.32900E+03 1.15993E+02 3.11652E-07-2.55102E-09
 -1       950 1.67071E+06 1.91501E+03 6.25855E+03 1.07871E+02 5.45875E-07 2.18597E-09
 -1       951 1.66894E+06-1.61681E+03 1.02488E+04 1.21151E+02 1.61453E-06-2.48428E-09
 -1       952 1.67558E+06 1.19398E+04 2.48676E+04 6.92558E+01 2.67668E-06-1.03682E-10
 -1       953 1.66474E+06-1.03138E+04 3.94900E+04 1.54606E+02 1.33755E-06 3.36695E-09
 -1       954 1.70520E+06 7.61637E+04 1.07772E+05-1.83564E+02 2.55370E-09 2.15186E-09
 -1       955 1.63926E+06-6.57798E+04 1.52369E+05 3.73946E+02-8.47495E-09 1.52795E-10
 -1       956-8.41452E+04-1.48463E+03-3.16023E+03 1.14212E+04-1.36197E-09-4.11546E-10
 -1       957-8.47266E+04-4.74418E+02-1.59770E+03 1.33030E+04-1.82354E-10-1.03512E-09
 -1       958-8.44037E+04-5.47247E+01-7.18486E+02 1.13534E+04 1.07366E-09-1.63709E-10
 -1       959-8.44551E+04-1.03396E+01-3.65684E+02 1.33773E+04-6.47560E-10-1.06866E-10
 -1       960-8.44298E+04 1.03138E+01-1.77415E+02 1.13466E+04-2.14459E-09-5.82759E-10
 -1       961-8.44334E+04 1.03982E+01-9.35040E+01 1.33848E+04-3.38798E-09-8.86757E-11
 -1       962-8.44353E+04 1.00548E+01-5.23380E+01 1.13459E+04-9.79981E-10 3.08319E-10
 -1       963-8.44326E+04 1.09744E+01-3.99934E+01 1.33857E+04-1.66142E-09 8.30028E-10
 -1       964-8.44368E+04 1.06211E+01-4.60167E+01 1.13457E+04-2.83990E-10-5.45811E-10
 -1       965-8.44358E+04 1.18489E+01-7.74585E+01 1.33856E+04 2.22718E-09-8.24116E-10
 -1       966-8.44346E+04 1.21187E+01-1.44214E+02 1.13460E+04-3.19631E-10-1.28580E-10
 -1       967-8.44558E+04-3.56812E+00-2.96066E+02 1.33816E+04 5.40297E-10 7.81370E-10
 -1       968-8.44156E+04-3.92246E+01-5.80902E+02 1.13497E+04 4.45323E-09-2.86661E-10
 -1       969-8.46776E+04-3.77707E+02-1.29185E+03 1.33412E+04 7.65147E-09-8.56517E-10
 -1       970-8.42082E+04-1.19471E+03-2.55494E+03 1.13868E+04 4.34557E-09-2.96723E-10
 -1       971-1.60372E+05 2.02378E+03-9.39058E+03 1.77258E+03-1.58798E-09-3.96085E-10
 -1       972-1.63697E+05-2.83893E+03-5.97182E+03 6.41250E+03-1.59309E-09 4.89081E-10
 -1       973-1.61776E+05 2.02579E+02-2.43343E+03 1.74170E+03-1.51408E-09-4.00178E-10
 -1       974-1.62145E+05-2.63689E+02-1.35263E+03 6.45194E+03 2.70694E-09-3.01270E-10
 -1       975-1.61931E+05 2.29802E+01-6.26047E+02 1.73298E+03 7.59587E-09-6.70184E-11
 -1       976-1.61975E+05-1.76126E+01-3.47905E+02 6.46466E+03 9.76530E-09-7.52607E-11
 -1       977-1.61951E+05 5.28362E+00-2.05752E+02 1.72894E+03 1.07551E-08-1.35267E-09
 -1       978-1.61959E+05 3.27515E+00-1.87071E+02 6.46999E+03 8.42944E-09-8.73172E-10
 -1       979-1.61950E+05 6.38526E+00-2.49774E+02 1.72765E+03 3.81893E-09-1.37327E-09
 -1       980-1.61987E+05-2.65093E+01-4.63785E+02 6.46962E+03 2.41272E-09-1.94861E-10
 -1       981-1.61923E+05 3.19727E+01-8.57268E+02 1.72932E+03-1.76419E-09-1.43856E-09
 -1       982-1.62226E+05-3.65872E+02-1.86752E+03 6.46272E+03-1.83081E-09-4.94765E-10
 -1       983-1.61708E+05 2.81590E+02-3.36441E+03 1.73459E+03 2.75975E-09-9.63496E-10
 -1       984-1.64378E+05-3.92808E+03-8.26298E+03 6.43411E+03-5.14092E-10 3.50042E-10
 -1       985-1.59766E+05 2.80320E+03-1.29925E+04 1.75826E+03 1.94166E-09-6.56655E-10
 -3
    1PSTEP                        23          12           1          
  100CL  112 2.23722E-01         841                     0   12           1
 -4  DISP        4    1
 -5  D1          1    2    1    0
 -5  D2          1    2    2    0
 -5  D3          1    2    3    0
 -5  ALL         1    2    0    0    1ALL
 -1         1 2.78715E-05 0.00000E+00 0.00000E+00
 -1         2 2.07590E-05 0.00000E+00 0.00000E+00
 -1         3 1.73811E-05 0.00000E+00 0.00000E+00
 -1         4 1.52738E-05 0.00000E+00 0.00000E+00
 -1         5 1.42793E-05 0.00000E+00 0.00000E+00
 -1         8 2.20159E-05-2.77939E-07 0.00000E+00
 -1         9 1.72203E-05 1.71621E-07 0.00000E+00
 -1        10 1.64257E-05-6.55142E-07 0.00000E+00
 -1        11 1.51192E-05-1.27789E-07 0.00000E+00
 -1        12 1.38065E-05 3.32661E-07 0.00000E+00
 -1        15 9.81472E-06-5.59553E-07 0.00000E+00
 -1        16 1.29726E-05 1.61350E-07 0.00000E+00
 -1        17 1.19002E-05-1.32977E-06 0.00000E+00
 -1        18 1.19605E-05-2.53441E-07 0.00000E+00
 -1        19 1.25272E-05 6.59872E-07 0.00000E+00
 -1        20 1.27149E-05 7.09003E-06 0.00000E+00
 -1        21 1.27090E-05 1.69326E-05 0.00000E+00
 -1        22 3.74196E-06-3.85058E-07 0.00000E+00
 -1        23 5.15955E-06 5.61639E-07 0.00000E+00
 -1        24 4.90320E-06-1.59110E-06 0.00000E+00
 -1        25 1.06700E-05-1.65351E-07 0.00000E+00
 -1        26 1.11658E-05 8.75764E-07 0.00000E+00
 -1        27 1.06319E-05 6.83458E-06 0.00000E+00
 -1        28 9.98951E-06 1.66899E-05 0.00000E+00
 -1        29 0.00000E+00 0.00000E+00 0.00000E+00
 -1        30 1.56682E-06 7.47440E-07 0.00000E+00
 -1        31 1.64672E-06-1.42302E-06 0.00000E+00
 -1        32 0.00000E+00 0.00000E+00 0.00000E+00
 -1        33 9.40672E-06 1.35872E-06 0.00000E+00
 -1        34 8.92638E-06 6.81000E-06 0.00000E+00
 -1        35 8.00689E-06 1.65597E-05 0.00000E+00
 -1        36 2.74412E-05 3.21719E-20 0.00000E+00
 -1        37 2.69967E-05 7.27927E-20 0.00000E+00
 -1        38 2.65532E-05 7.03869E-20 0.00000E+00
 -1        39 2.61069E-05 1.12744E-19 0.00000E+00
 -1        40 2.56606E-05 1.82949E-19 0.00000E+00
 -1        41 2.52137E-05 2.07197E-19 0.00000E+00
 -1        42 2.47668E-05 9.37295E-20 0.00000E+00
 -1        43 2.43197E-05-2.79049E-20-6.61744E-24
 -1        44 2.38727E-05-6.81266E-20 0.00000E+00
 -1        45 2.34257E-05 8.16593E-21-6.61744E-24
 -1        46 2.29787E-05 1.53352E-19 0.00000E+00
 -1        47 2.25321E-05 2.61460E-19 6.61744E-24
 -1        48 2.20855E-05 2.51917E-19 0.00000E+00
 -1        49 2.16407E-05 1.85946E-19 0.00000E+00
 -1        50 2.11953E-05 1.00526E-19 1.32349E-23
 -1        51 2.74262E-05-4.74417E-08 0.00000E+00
 -1        52 2.66920E-05-9.27955E-08 0.00000E+00
 -1        53 2.57251E-05-1.37755E-07 0.00000E+00
 -1        54 2.45840E-05-1.82932E-07 0.00000E+00
 -1        55 2.33279E-05-2.28943E-07-2.58494E-24
 -1        56 2.73130E-05-2.15797E-07 0.00000E+00
 -1        57 2.67366E-05-4.45615E-07 6.61744E-24
 -1        58 2.61603E-05-6.72047E-07-1.32349E-23
 -1        59 2.55758E-05-8.87412E-07 6.61744E-24
 -1        60 2.49832E-05-1.08133E-06-1.32349E-23
 -1        61 2.43786E-05-1.24511E-06 0.00000E+00
 -1        62 2.37595E-05-1.37047E-06 0.00000E+00
 -1        63 2.31230E-05-1.44980E-06 6.61744E-24
 -1        64 2.24667E-05-1.47649E-06 0.00000E+00
 -1        65 2.17885E-05-1.44456E-06 0.00000E+00
 -1        66 2.10868E-05-1.34944E-06 0.00000E+00
 -1        67 2.03604E-05-1.18713E-06-6.61744E-24
 -1        68 1.96082E-05-9.55534E-07 0.00000E+00
 -1        69 1.88328E-05-6.52051E-07 0.00000E+00
 -1        70 1.80298E-05-2.78527E-07 0.00000E+00
 -1        71 2.05471E-05-2.83093E-20-6.61744E-24
 -1        72 2.03355E-05-1.73726E-20-3.30872E-24
 -1        73 2.01240E-05 5.81974E-20 6.61744E-24
 -1        74 1.99124E-05 1.73148E-19-3.30872E-24
 -1        75 1.97009E-05 2.24670E-19 0.00000E+00
 -1        76 1.94894E-05 2.62535E-19 0.00000E+00
 -1        77 1.92779E-05 2.47223E-19 0.00000E+00
 -1        78 1.90664E-05 2.26676E-19 0.00000E+00
 -1        79 1.88549E-05 1.11514E-19 6.61744E-24
 -1        80 1.86435E-05-4.34439E-20 0.00000E+00
 -1        81 1.84321E-05-1.87303E-19-6.61744E-24
 -1        82 1.82208E-05-2.74372E-19 0.00000E+00
 -1        83 1.80095E-05-2.49885E-19-6.61744E-24
 -1        84 1.77990E-05-1.40219E-19-3.30872E-24
 -1        85 1.75882E-05-4.16448E-20 0.00000E+00
 -1        86 2.06080E-05 2.13051E-08 0.00000E+00
 -1        87 2.01576E-05 5.24860E-08 0.00000E+00
 -1        88 1.95025E-05 8.28696E-08-4.13590E-25
 -1        89 1.87371E-05 1.13991E-07 0.00000E+00
 -1        90 1.79477E-05 1.45550E-07 0.00000E+00
 -1        91 2.04250E-05 1.30488E-07-6.61744E-24
 -1        92 1.99227E-05 7.05274E-07-3.30872E-24
 -1        93 1.93575E-05 1.44757E-06 0.00000E+00
 -1        94 1.88341E-05 2.07810E-06 0.00000E+00
 -1        95 1.84353E-05 2.37691E-06-6.61744E-24
 -1        96 1.82420E-05 2.12760E-06-3.30872E-24
 -1        97 1.82282E-05 1.39945E-06 0.00000E+00
 -1        98 1.83655E-05 2.67086E-07 3.30872E-24
 -1        99 1.85464E-05-9.81923E-07 0.00000E+00
 -1       100 1.86630E-05-2.05866E-06 0.00000E+00
 -1       101 1.86409E-05-2.76480E-06 6.61744E-24
 -1       102 1.84074E-05-2.90611E-06-3.30872E-24
 -1       103 1.80003E-05-2.58449E-06 0.00000E+00
 -1       104 1.74605E-05-1.90656E-06 0.00000E+00
 -1       105 1.68967E-05-1.16619E-06 6.61744E-24
 -1       106 1.72498E-05-2.69661E-19 3.30872E-24
 -1       107 1.71178E-05-1.08536E-18 1.65436E-24
 -1       108 1.69859E-05-2.30147E-18 3.30872E-24
 -1       109 1.68539E-05-3.72196E-18 0.00000E+00
 -1       110 1.67219E-05-5.18550E-18 0.00000E+00
 -1       111 1.65899E-05-6.39139E-18 0.00000E+00
 -1       112 1.64579E-05-7.21601E-18-3.30872E-24
 -1       113 1.63258E-05-7.49620E-18 0.00000E+00
 -1       114 1.61938E-05-7.31153E-18 0.00000E+00
 -1       115 1.60618E-05-6.57955E-18 0.00000E+00
 -1       116 1.59298E-05-5.37086E-18 0.00000E+00
 -1       117 1.57979E-05-3.87240E-18 0.00000E+00
 -1       118 1.56660E-05-2.35558E-18 0.00000E+00
 -1       119 1.55346E-05-1.10266E-18 0.00000E+00
 -1       120 1.54030E-05-2.75794E-19 0.00000E+00
 -1       121 1.73811E-05-1.09478E-07-3.30872E-24
 -1       122 1.73517E-05-2.18573E-07-1.65436E-24
 -1       123 1.72671E-05-3.27682E-07 3.30872E-24
 -1       124 1.71017E-05-4.36766E-07-1.65436E-24
 -1       125 1.68297E-05-5.45861E-07 0.00000E+00
 -1       126 1.74262E-05-5.00778E-07 0.00000E+00
 -1       127 1.78095E-05-1.90697E-06 0.00000E+00
 -1       128 1.84310E-05-3.95124E-06 3.30872E-24
 -1       129 1.91893E-05-6.36267E-06 0.00000E+00
 -1       130 1.99439E-05-8.76453E-06 0.00000E+00
 -1       131 2.05547E-05-1.07802E-05 0.00000E+00
 -1       132 2.09224E-05-1.21446E-05 0.00000E+00
 -1       133 2.09488E-05-1.25967E-05-1.65436E-24
 -1       134 2.06329E-05-1.21359E-05 0.00000E+00
 -1       135 1.99755E-05-1.07671E-05-1.65436E-24
 -1       136 1.90755E-05-8.75460E-06 0.00000E+00
 -1       137 1.80337E-05-6.36615E-06-1.65436E-24
 -1       138 1.69917E-05-3.97712E-06 0.00000E+00
 -1       139 1.60915E-05-1.96276E-06 0.00000E+00
 -1       140 1.54336E-05-5.91644E-07 0.00000E+00
 -1       141 1.52107E-05-3.36354E-20 1.65436E-24
 -1       142 1.51480E-05-7.19368E-20 0.00000E+00
 -1       143 1.50853E-05-7.61061E-20 1.65436E-24
 -1       144 1.50226E-05-9.60488E-20-8.27181E-25
 -1       145 1.49600E-05-1.22457E-19-1.65436E-24
 -1       146 1.48973E-05-1.51847E-19 0.00000E+00
 -1       147 1.48347E-05-2.07622E-19 0.00000E+00
 -1       148 1.47721E-05-2.47283E-19 8.27181E-25
 -1       149 1.47094E-05-2.40916E-19-1.65436E-24
 -1       150 1.46469E-05-2.08904E-19-8.27181E-25
 -1       151 1.45843E-05-1.76921E-19 1.65436E-24
 -1       152 1.45219E-05-1.53007E-19 8.27181E-25
 -1       153 1.44596E-05-1.18377E-19-1.65436E-24
 -1       154 1.43981E-05-7.20876E-20-4.13590E-25
 -1       155 1.43364E-05-2.15758E-20-1.03398E-25
 -1       156 1.52699E-05-2.25574E-08 0.00000E+00
 -1       157 1.52582E-05-4.30979E-08 4.13590E-25
 -1       158 1.52379E-05-6.37897E-08 0.00000E+00
 -1       159 1.52081E-05-8.45080E-08 0.00000E+00
 -1       160 1.51687E-05-1.05068E-07 1.65436E-24
 -1       161 1.52044E-05-4.00562E-08 0.00000E+00
 -1       162 1.51441E-05-1.04570E-07-8.27181E-25
 -1       163 1.50894E-05-1.84264E-07 1.65436E-24
 -1       164 1.50370E-05-2.69836E-07 8.27181E-25
 -1       165 1.49828E-05-3.50678E-07 0.00000E+00
 -1       166 1.49228E-05-4.16208E-07 0.00000E+00
 -1       167 1.48543E-05-4.58984E-07-1.65436E-24
 -1       168 1.47745E-05-4.71640E-07 0.00000E+00
 -1       169 1.46826E-05-4.51926E-07 0.00000E+00
 -1       170 1.45778E-05-3.97684E-07-8.27181E-25
 -1       171 1.44615E-05-3.12852E-07 0.00000E+00
 -1       172 1.43355E-05-2.01400E-07 0.00000E+00
 -1       173 1.42027E-05-7.20249E-08 0.00000E+00
 -1       174 1.40674E-05 6.69355E-08 8.27181E-25
 -1       175 1.39322E-05 2.04599E-07-4.13590E-25
 -1       191 1.42633E-05 5.54054E-08 0.00000E+00
 -1       192 1.42214E-05 1.10879E-07 0.00000E+00
 -1       193 1.41542E-05 1.66367E-07 0.00000E+00
 -1       194 1.40621E-05 2.21850E-07 0.00000E+00
 -1       195 1.39460E-05 2.77305E-07 0.00000E+00
 -1       251 2.17289E-05 1.81376E-06 0.00000E+00
 -1       252 2.14285E-05 5.98318E-06-3.30872E-24
 -1       253 2.11273E-05 1.04901E-05 6.61744E-24
 -1       254 2.08298E-05 1.35894E-05 0.00000E+00
 -1       255 2.05362E-05 1.42878E-05 0.00000E+00
 -1       256 2.02392E-05 1.16233E-05 0.00000E+00
 -1       257 1.99329E-05 6.42443E-06 6.61744E-24
 -1       258 1.96170E-05-4.46912E-07 3.30872E-24
 -1       259 1.93015E-05-7.23742E-06 6.61744E-24
 -1       260 1.89964E-05-1.21946E-05 0.00000E+00
 -1       261 1.87001E-05-1.45434E-05 0.00000E+00
 -1       262 1.84063E-05-1.35428E-05 0.00000E+00
 -1       263 1.81082E-05-1.02354E-05 0.00000E+00
 -1       264 1.78068E-05-5.69377E-06-3.30872E-24
 -1       265 1.75068E-05-1.64971E-06 0.00000E+00
 -1       266 2.08539E-05-3.26252E-07 0.00000E+00
 -1       267 1.94401E-05-3.72002E-07 8.27181E-25
 -1       268 1.76937E-05-4.18429E-07-1.65436E-24
 -1       269 1.55346E-05-4.64808E-07 0.00000E+00
 -1       270 1.29217E-05-5.12301E-07-8.27181E-25
 -1       271 2.12042E-05 4.53539E-07-1.32349E-23
 -1       272 2.04629E-05 9.49090E-07 0.00000E+00
 -1       273 1.97981E-05 1.24211E-06-1.32349E-23
 -1       274 1.91964E-05 1.35999E-06-6.61744E-24
 -1       275 1.86489E-05 1.33261E-06 0.00000E+00
 -1       276 1.81443E-05 1.18970E-06-6.61744E-24
 -1       277 1.76715E-05 9.61642E-07-1.32349E-23
 -1       278 1.72191E-05 6.79100E-07 0.00000E+00
 -1       279 1.67755E-05 3.72992E-07 1.32349E-23
 -1       280 1.63291E-05 7.43492E-08 0.00000E+00
 -1       281 1.58685E-05-1.85862E-07 1.32349E-23
 -1       282 1.53823E-05-3.76779E-07-6.61744E-24
 -1       283 1.48589E-05-4.67936E-07 0.00000E+00
 -1       284 1.42889E-05-4.28624E-07 0.00000E+00
 -1       285 1.36589E-05-2.30216E-07 0.00000E+00
 -1       286 1.71679E-05 7.74555E-07-3.30872E-24
 -1       287 1.71183E-05 1.19264E-06 0.00000E+00
 -1       288 1.70686E-05 1.42733E-06 0.00000E+00
 -1       289 1.70194E-05 1.48048E-06 8.27181E-25
 -1       290 1.69702E-05 1.37292E-06 0.00000E+00
 -1       291 1.69211E-05 1.12584E-06 0.00000E+00
 -1       292 1.68720E-05 7.74977E-07 0.00000E+00
 -1       293 1.68228E-05 3.56317E-07 0.00000E+00
 -1       294 1.67737E-05-8.70820E-08 0.00000E+00
 -1       295 1.67245E-05-5.12105E-07 0.00000E+00
 -1       296 1.66754E-05-8.77566E-07 0.00000E+00
 -1       297 1.66262E-05-1.14240E-06 8.27181E-25
 -1       298 1.65770E-05-1.27605E-06 0.00000E+00
 -1       299 1.65273E-05-1.24825E-06 0.00000E+00
 -1       300 1.64778E-05-1.04562E-06 0.00000E+00
 -1       301 1.65110E-05 1.66851E-07 0.00000E+00
 -1       302 1.57975E-05 1.67061E-07 0.00000E+00
 -1       303 1.50832E-05 1.68098E-07-8.27181E-25
 -1       304 1.43718E-05 1.68934E-07 0.00000E+00
 -1       305 1.36671E-05 1.68509E-07 0.00000E+00
 -1       306 1.66945E-05 6.18314E-07 0.00000E+00
 -1       307 1.62456E-05 8.33529E-07 3.30872E-24
 -1       308 1.58703E-05 8.52939E-07 6.61744E-24
 -1       309 1.55549E-05 7.09084E-07 0.00000E+00
 -1       310 1.52877E-05 4.35882E-07-1.32349E-23
 -1       311 1.50561E-05 6.72240E-08-6.61744E-24
 -1       312 1.48473E-05-3.62649E-07 1.32349E-23
 -1       313 1.46486E-05-8.19375E-07 0.00000E+00
 -1       314 1.44470E-05-1.26849E-06-1.32349E-23
 -1       315 1.42297E-05-1.67554E-06 0.00000E+00
 -1       316 1.39839E-05-2.00625E-06-1.32349E-23
 -1       317 1.36970E-05-2.22647E-06 3.30872E-24
 -1       318 1.33562E-05-2.30249E-06 0.00000E+00
 -1       319 1.29504E-05-2.20048E-06 0.00000E+00
 -1       320 1.24654E-05-1.88827E-06 0.00000E+00
 -1       321 1.63425E-05-1.77387E-07 0.00000E+00
 -1       322 1.62607E-05 2.86230E-07 0.00000E+00
 -1       323 1.61788E-05 7.04659E-07-3.30872E-24
 -1       324 1.60972E-05 1.04703E-06 0.00000E+00
 -1       325 1.60156E-05 1.29536E-06 3.30872E-24
 -1       326 1.59340E-05 1.43203E-06 0.00000E+00
 -1       327 1.58525E-05 1.45833E-06 0.00000E+00
 -1       328 1.57710E-05 1.37601E-06-1.65436E-24
 -1       329 1.56895E-05 1.20519E-06 3.30872E-24
 -1       330 1.56079E-05 9.66354E-07-1.65436E-24
 -1       331 1.55264E-05 6.91516E-07-3.30872E-24
 -1       332 1.54449E-05 4.12821E-07 1.65436E-24
 -1       333 1.53633E-05 1.63060E-07 3.30872E-24
 -1       334 1.52819E-05-2.50688E-08 1.65436E-24
 -1       335 1.52004E-05-1.29328E-07 0.00000E+00
 -1       336 1.58629E-05-7.67955E-07 0.00000E+00
 -1       337 1.51801E-05-8.80779E-07-1.65436E-24
 -1       338 1.44098E-05-9.93618E-07 0.00000E+00
 -1       339 1.35845E-05-1.10623E-06 1.65436E-24
 -1       340 1.27371E-05-1.21888E-06 3.30872E-24
 -1       341 1.46194E-05 3.74266E-06 3.30872E-24
 -1       342 9.78442E-06 1.60224E-05 0.00000E+00
 -1       343 2.78234E-06 3.38415E-05 0.00000E+00
 -1       344-5.47986E-06 5.48384E-05-1.65436E-24
 -1       345-1.37037E-05 7.57382E-05 0.00000E+00
 -1       346-2.05908E-05 9.32660E-05 0.00000E+00
 -1       347-2.52593E-05 1.05116E-04 3.30872E-24
 -1       348-2.68718E-05 1.09002E-04 0.00000E+00
 -1       349-2.54909E-05 1.04905E-04 3.30872E-24
 -1       350-2.11960E-05 9.28517E-05-1.65436E-24
 -1       351-1.48720E-05 7.51521E-05 3.30872E-24
 -1       352-7.38297E-06 5.41617E-05 0.00000E+00
 -1       353 9.56588E-08 3.32013E-05 0.00000E+00
 -1       354 6.38840E-06 1.55926E-05 0.00000E+00
 -1       355 1.06350E-05 3.67543E-06 0.00000E+00
 -1       356 1.50368E-05-8.75621E-08 0.00000E+00
 -1       357 1.49542E-05-7.60105E-08 0.00000E+00
 -1       358 1.48716E-05-8.87124E-08 0.00000E+00
 -1       359 1.47889E-05-1.21156E-07 1.65436E-24
 -1       360 1.47062E-05-1.65436E-07 3.30872E-24
 -1       361 1.46236E-05-2.13602E-07 0.00000E+00
 -1       362 1.45409E-05-2.57037E-07 0.00000E+00
 -1       363 1.44582E-05-2.87139E-07 1.65436E-24
 -1       364 1.43756E-05-2.97601E-07 0.00000E+00
 -1       365 1.42930E-05-2.82188E-07-1.65436E-24
 -1       366 1.42104E-05-2.39114E-07 3.30872E-24
 -1       367 1.41280E-05-1.66695E-07 0.00000E+00
 -1       368 1.40456E-05-6.82956E-08 0.00000E+00
 -1       369 1.39643E-05 5.26261E-08 0.00000E+00
 -1       370 1.38827E-05 1.88741E-07 0.00000E+00
 -1       371 1.48926E-05-1.50984E-07 0.00000E+00
 -1       372 1.43260E-05-1.72010E-07-4.13590E-25
 -1       373 1.35841E-05-1.93273E-07-8.27181E-25
 -1       374 1.28322E-05-2.13863E-07 2.06795E-25
 -1       375 1.22359E-05-2.34423E-07-2.06795E-25
 -1       376 1.52089E-05-7.38018E-07 0.00000E+00
 -1       377 1.57583E-05-2.58414E-06 0.00000E+00
 -1       378 1.66343E-05-5.30620E-06-3.30872E-24
 -1       379 1.77001E-05-8.53997E-06 1.65436E-24
 -1       380 1.87667E-05-1.17758E-05 0.00000E+00
 -1       381 1.96446E-05-1.45044E-05-1.65436E-24
 -1       382 2.01972E-05-1.63600E-05-3.30872E-24
 -1       383 2.02890E-05-1.69823E-05 1.65436E-24
 -1       384 1.99140E-05-1.63601E-05-3.30872E-24
 -1       385 1.90690E-05-1.44893E-05 0.00000E+00
 -1       386 1.78848E-05-1.17199E-05-3.30872E-24
 -1       387 1.64950E-05-8.40663E-06 0.00000E+00
 -1       388 1.50918E-05-5.05774E-06 0.00000E+00
 -1       389 1.38687E-05-2.18112E-06-1.65436E-24
 -1       390 1.29653E-05-1.52534E-07-1.65436E-24
 -1       406 1.36374E-05 3.87507E-07-1.65436E-24
 -1       407 1.34479E-05 4.42398E-07-8.27181E-25
 -1       408 1.32399E-05 4.97259E-07 1.65436E-24
 -1       409 1.30157E-05 5.51988E-07 8.27181E-25
 -1       410 1.27773E-05 6.06430E-07 0.00000E+00
 -1       466 1.00014E-05 2.15296E-06 3.30872E-24
 -1       467 1.01990E-05 3.59703E-06 1.65436E-24
 -1       468 1.03970E-05 4.17478E-06 0.00000E+00
 -1       469 1.05968E-05 4.28041E-06-3.30872E-24
 -1       470 1.07966E-05 4.06482E-06 0.00000E+00
 -1       471 1.09966E-05 3.67599E-06-3.30872E-24
 -1       472 1.11967E-05 3.17236E-06-6.61744E-24
 -1       473 1.13967E-05 2.61134E-06-3.30872E-24
 -1       474 1.15967E-05 2.02063E-06 6.61744E-24
 -1       475 1.17967E-05 1.42769E-06 0.00000E+00
 -1       476 1.19965E-05 8.58843E-07 0.00000E+00
 -1       477 1.21959E-05 3.40581E-07 0.00000E+00
 -1       478 1.23952E-05-7.44278E-08 0.00000E+00
 -1       479 1.25918E-05-3.32589E-07 0.00000E+00
 -1       480 1.27894E-05-2.99647E-07 0.00000E+00
 -1       481 7.00395E-06-5.34635E-07-4.13590E-25
 -1       482 5.27280E-06-5.05819E-07 0.00000E+00
 -1       483 4.34333E-06-4.76041E-07 8.27181E-25
 -1       484 3.93876E-06-4.45699E-07 4.13590E-25
 -1       485 3.81840E-06-4.15238E-07-8.27181E-25
 -1       486 7.88827E-06 3.92521E-06 0.00000E+00
 -1       487 5.04649E-06 1.07855E-05-3.30872E-24
 -1       488 2.15151E-06 1.77864E-05-6.61744E-24
 -1       489 5.62634E-08 2.26875E-05-3.30872E-24
 -1       490-7.60886E-07 2.42104E-05 6.61744E-24
 -1       491 1.53822E-07 2.11045E-05 3.30872E-24
 -1       492 2.46086E-06 1.42338E-05 0.00000E+00
 -1       493 5.81522E-06 4.50142E-06 0.00000E+00
 -1       494 9.40412E-06-5.87408E-06 6.61744E-24
 -1       495 1.24157E-05-1.46664E-05 3.30872E-24
 -1       496 1.42956E-05-2.03786E-05 0.00000E+00
 -1       497 1.44886E-05-2.15475E-05 3.30872E-24
 -1       498 1.32053E-05-1.87881E-05 0.00000E+00
 -1       499 1.06779E-05-1.27500E-05 0.00000E+00
 -1       500 7.71851E-06-5.58222E-06 0.00000E+00
 -1       501 1.29017E-05 7.21852E-07-3.30872E-24
 -1       502 1.28345E-05 1.04769E-06 1.65436E-24
 -1       503 1.27671E-05 1.14100E-06-1.65436E-24
 -1       504 1.27003E-05 1.00460E-06-8.27181E-25
 -1       505 1.26336E-05 6.73466E-07-1.65436E-24
 -1       506 1.25669E-05 1.83179E-07 0.00000E+00
 -1       507 1.25001E-05-4.08412E-07-1.65436E-24
 -1       508 1.24334E-05-1.04317E-06-8.27181E-25
 -1       509 1.23667E-05-1.65691E-06 1.65436E-24
 -1       510 1.23001E-05-2.18551E-06 0.00000E+00
 -1       511 1.22335E-05-2.57675E-06 0.00000E+00
 -1       512 1.21669E-05-2.77884E-06-8.27181E-25
 -1       513 1.21004E-05-2.76643E-06 0.00000E+00
 -1       514 1.20338E-05-2.51482E-06 0.00000E+00
 -1       515 1.19672E-05-2.03278E-06-1.65436E-24
 -1       516 1.25659E-05 2.23043E-07 1.65436E-24
 -1       517 1.26855E-05 2.93809E-07 0.00000E+00
 -1       518 1.26938E-05 3.63953E-07 0.00000E+00
 -1       519 1.19527E-05 4.34867E-07 0.00000E+00
 -1       520 9.69774E-06 5.03709E-07-8.27181E-25
 -1       521 1.23006E-05 5.39830E-07 0.00000E+00
 -1       522 1.16963E-05 6.95507E-07-6.61744E-24
 -1       523 1.11624E-05 6.64854E-07 0.00000E+00
 -1       524 1.06843E-05 4.79216E-07 6.61744E-24
 -1       525 1.02515E-05 1.72053E-07 1.32349E-23
 -1       526 9.85135E-06-2.23302E-07-6.61744E-24
 -1       527 9.47150E-06-6.73020E-07 0.00000E+00
 -1       528 9.09922E-06-1.14313E-06 6.61744E-24
 -1       529 8.72180E-06-1.59953E-06-1.32349E-23
 -1       530 8.32657E-06-2.00822E-06 0.00000E+00
 -1       531 7.90086E-06-2.33538E-06 1.32349E-23
 -1       532 7.43238E-06-2.54749E-06 6.61744E-24
 -1       533 6.90867E-06-2.61163E-06 1.32349E-23
 -1       534 6.31928E-06-2.49490E-06-6.61744E-24
 -1       535 5.65009E-06-2.16654E-06 0.00000E+00
 -1       536 1.19002E-05-6.12967E-07 0.00000E+00
 -1       537 1.19036E-05-6.83909E-08 0.00000E+00
 -1       538 1.19069E-05 3.22205E-07 0.00000E+00
 -1       539 1.19108E-05 5.77227E-07 0.00000E+00
 -1       540 1.19147E-05 7.15034E-07 5.16988E-26
 -1       541 1.19188E-05 7.53996E-07-1.93870E-26
 -1       542 1.19229E-05 7.12478E-07-2.58494E-26
 -1       543 1.19270E-05 6.08842E-07-5.16988E-26
 -1       544 1.19311E-05 4.61450E-07-1.03398E-25
 -1       545 1.19352E-05 2.88658E-07 0.00000E+00
 -1       546 1.19393E-05 1.08826E-07 0.00000E+00
 -1       547 1.19434E-05-5.96870E-08-1.03398E-25
 -1       548 1.19476E-05-1.98525E-07 0.00000E+00
 -1       549 1.19518E-05-2.89331E-07 0.00000E+00
 -1       550 1.19560E-05-3.13733E-07 0.00000E+00
 -1       551 1.08540E-05-1.37267E-06-1.55096E-25
 -1       552 9.68868E-06-1.41449E-06-6.20385E-25
 -1       553 8.45711E-06-1.45631E-06 1.65436E-24
 -1       554 7.21320E-06-1.49865E-06 0.00000E+00
 -1       555 6.01088E-06-1.54211E-06 0.00000E+00
 -1       556 1.15962E-05-6.57157E-07-3.30872E-24
 -1       557 1.13517E-05-1.39136E-07 1.65436E-24
 -1       558 1.11599E-05 2.39015E-07 0.00000E+00
 -1       559 1.10148E-05 4.93465E-07 0.00000E+00
 -1       560 1.09101E-05 6.40404E-07-3.30872E-24
 -1       561 1.08395E-05 6.96155E-07 0.00000E+00
 -1       562 1.07971E-05 6.77051E-07 0.00000E+00
 -1       563 1.07767E-05 5.99440E-07 0.00000E+00
 -1       564 1.07720E-05 4.79676E-07-1.65436E-24
 -1       565 1.07770E-05 3.34112E-07-8.27181E-25
 -1       566 1.07856E-05 1.79108E-07-1.65436E-24
 -1       567 1.07916E-05 3.10258E-08 4.13590E-25
 -1       568 1.07889E-05-9.37791E-08 8.27181E-25
 -1       569 1.07716E-05-1.78965E-07-2.32645E-25
 -1       570 1.07335E-05-2.08201E-07-4.13590E-25
 -1       571 1.19945E-05-1.76445E-07 0.00000E+00
 -1       572 1.20296E-05-1.23738E-07 4.13590E-25
 -1       573 1.20650E-05-9.08926E-08-8.27181E-25
 -1       574 1.21005E-05-7.32602E-08 4.13590E-25
 -1       575 1.21361E-05-6.61712E-08 0.00000E+00
 -1       576 1.21716E-05-6.49263E-08 0.00000E+00
 -1       577 1.22072E-05-6.48240E-08 0.00000E+00
 -1       578 1.22428E-05-6.11590E-08 0.00000E+00
 -1       579 1.22784E-05-4.92253E-08 0.00000E+00
 -1       580 1.23140E-05-2.43175E-08 0.00000E+00
 -1       581 1.23496E-05 1.82693E-08 0.00000E+00
 -1       582 1.23852E-05 8.32355E-08 0.00000E+00
 -1       583 1.24208E-05 1.75277E-07 0.00000E+00
 -1       584 1.24564E-05 2.99041E-07 0.00000E+00
 -1       585 1.24919E-05 4.59151E-07 0.00000E+00
 -1       586 1.17757E-05-2.38461E-07 0.00000E+00
 -1       587 1.15639E-05-2.23371E-07 4.13590E-25
 -1       588 1.13361E-05-2.08298E-07-4.13590E-25
 -1       589 1.11036E-05-1.93371E-07 0.00000E+00
 -1       590 1.08778E-05-1.78774E-07 0.00000E+00
 -1       591 1.19052E-05-1.63020E-07 0.00000E+00
 -1       592 1.18542E-05-8.84954E-08 0.00000E+00
 -1       593 1.18077E-05-2.67888E-08 8.27181E-25
 -1       594 1.17648E-05 2.48991E-08 0.00000E+00
 -1       595 1.17246E-05 6.93662E-08 8.27181E-25
 -1       596 1.16860E-05 1.09391E-07-4.13590E-25
 -1       597 1.16480E-05 1.47747E-07 0.00000E+00
 -1       598 1.16096E-05 1.87206E-07 0.00000E+00
 -1       599 1.15697E-05 2.30541E-07 0.00000E+00
 -1       600 1.15274E-05 2.80523E-07 0.00000E+00
 -1       601 1.14815E-05 3.39924E-07 0.00000E+00
 -1       602 1.14311E-05 4.11518E-07 2.06795E-25
 -1       603 1.13751E-05 4.98081E-07 1.03398E-25
 -1       604 1.13127E-05 6.02406E-07-1.03398E-25
 -1       605 1.12428E-05 7.27289E-07 0.00000E+00
 -1       606 1.25401E-05 9.26780E-07 0.00000E+00
 -1       607 1.25522E-05 1.21979E-06 0.00000E+00
 -1       608 1.25641E-05 1.53736E-06 0.00000E+00
 -1       609 1.25758E-05 1.87775E-06 0.00000E+00
 -1       610 1.25874E-05 2.23920E-06 0.00000E+00
 -1       611 1.25991E-05 2.61990E-06 0.00000E+00
 -1       612 1.26107E-05 3.01807E-06 0.00000E+00
 -1       613 1.26223E-05 3.43189E-06 4.13590E-25
 -1       614 1.26339E-05 3.85957E-06 0.00000E+00
 -1       615 1.26455E-05 4.29931E-06 0.00000E+00
 -1       616 1.26571E-05 4.74930E-06 0.00000E+00
 -1       617 1.26687E-05 5.20775E-06-8.27181E-25
 -1       618 1.26803E-05 5.67284E-06 0.00000E+00
 -1       619 1.26919E-05 6.14279E-06 2.06795E-25
 -1       620 1.27034E-05 6.61579E-06 0.00000E+00
 -1       621 1.22759E-05 6.95985E-07 8.27181E-25
 -1       622 1.20305E-05 7.32284E-07 0.00000E+00
 -1       623 1.17938E-05 7.68589E-07 8.27181E-25
 -1       624 1.15689E-05 8.04798E-07-4.13590E-25
 -1       625 1.13587E-05 8.40796E-07 4.13590E-25
 -1       626 1.24490E-05 9.40311E-07-1.65436E-24
 -1       627 1.23602E-05 1.24804E-06 0.00000E+00
 -1       628 1.22619E-05 1.58052E-06 0.00000E+00
 -1       629 1.21554E-05 1.93489E-06 0.00000E+00
 -1       630 1.20417E-05 2.30828E-06 1.65436E-24
 -1       631 1.19220E-05 2.69777E-06 0.00000E+00
 -1       632 1.17974E-05 3.10044E-06 0.00000E+00
 -1       633 1.16689E-05 3.51336E-06 0.00000E+00
 -1       634 1.15376E-05 3.93361E-06 8.27181E-25
 -1       635 1.14047E-05 4.35826E-06 0.00000E+00
 -1       636 1.12712E-05 4.78439E-06 0.00000E+00
 -1       637 1.11382E-05 5.20907E-06 2.06795E-25
 -1       638 1.10069E-05 5.62937E-06 4.13590E-25
 -1       639 1.08781E-05 6.04236E-06 1.03398E-25
 -1       640 1.07530E-05 6.44510E-06 1.03398E-25
 -1       641 1.27151E-05 7.58130E-06 1.03398E-25
 -1       642 1.27150E-05 8.12353E-06-2.58494E-26
 -1       643 1.27149E-05 8.70934E-06 0.00000E+00
 -1       644 1.27146E-05 9.33136E-06 0.00000E+00
 -1       645 1.27144E-05 9.98220E-06-6.46235E-27
 -1       646 1.27141E-05 1.06545E-05 0.00000E+00
 -1       647 1.27138E-05 1.13408E-05 0.00000E+00
 -1       648 1.27136E-05 1.20339E-05 3.23117E-27
 -1       649 1.27133E-05 1.27262E-05 1.29247E-26
 -1       650 1.27130E-05 1.34104E-05 0.00000E+00
 -1       651 1.27127E-05 1.40792E-05-2.58494E-26
 -1       652 1.27123E-05 1.47251E-05 0.00000E+00
 -1       653 1.27120E-05 1.53408E-05 0.00000E+00
 -1       654 1.27114E-05 1.59188E-05 0.00000E+00
 -1       655 1.27109E-05 1.64519E-05 0.00000E+00
 -1       656 1.22900E-05 7.04891E-06 4.13590E-25
 -1       657 1.19237E-05 7.00564E-06 4.13590E-25
 -1       658 1.15953E-05 6.96245E-06-8.27181E-25
 -1       659 1.12843E-05 6.91923E-06 0.00000E+00
 -1       660 1.09700E-05 6.87594E-06-4.13590E-25
 -1       661 1.25782E-05 7.59585E-06 0.00000E+00
 -1       662 1.24284E-05 8.14160E-06 0.00000E+00
 -1       663 1.22659E-05 8.72090E-06 1.65436E-24
 -1       664 1.20933E-05 9.32809E-06 8.27181E-25
 -1       665 1.19124E-05 9.95732E-06-1.65436E-24
 -1       666 1.17255E-05 1.06028E-05 8.27181E-25
 -1       667 1.15346E-05 1.12589E-05-1.65436E-24
 -1       668 1.13419E-05 1.19198E-05 0.00000E+00
 -1       669 1.11495E-05 1.25798E-05 1.65436E-24
 -1       670 1.09597E-05 1.32331E-05 0.00000E+00
 -1       671 1.07744E-05 1.38740E-05 1.65436E-24
 -1       672 1.05959E-05 1.44968E-05 0.00000E+00
 -1       673 1.04264E-05 1.50956E-05-1.65436E-24
 -1       674 1.02676E-05 1.56647E-05 0.00000E+00
 -1       675 1.01221E-05 1.61984E-05 4.13590E-25
 -1       676 1.22545E-05 1.68919E-05 0.00000E+00
 -1       677 1.18004E-05 1.68512E-05 0.00000E+00
 -1       678 1.13466E-05 1.68104E-05 0.00000E+00
 -1       679 1.08934E-05 1.67699E-05 4.13590E-25
 -1       680 1.04410E-05 1.67293E-05 0.00000E+00
 -1       681 3.82943E-06-5.33007E-07 0.00000E+00
 -1       682 3.91954E-06-1.08778E-06-8.27181E-25
 -1       683 4.00928E-06-1.93849E-06-3.30872E-24
 -1       684 4.09938E-06-2.97542E-06 0.00000E+00
 -1       685 4.18937E-06-4.12874E-06 0.00000E+00
 -1       686 4.27942E-06-5.32910E-06 0.00000E+00
 -1       687 4.36949E-06-6.51721E-06 3.30872E-24
 -1       688 4.45965E-06-7.63370E-06 0.00000E+00
 -1       689 4.54995E-06-8.60393E-06-3.30872E-24
 -1       690 4.64041E-06-9.35259E-06 1.65436E-24
 -1       691 4.73103E-06-9.75689E-06 3.30872E-24
 -1       692 4.82155E-06-9.69268E-06 1.65436E-24
 -1       693 4.91175E-06-8.93537E-06 1.65436E-24
 -1       694 5.00000E-06-7.25757E-06 8.27181E-25
 -1       695 5.08541E-06-4.23511E-06-8.27181E-25
 -1       696 3.53042E-06-3.22439E-07 1.65436E-24
 -1       697 3.01347E-06-2.58166E-07 0.00000E+00
 -1       698 2.29948E-06-1.94110E-07-1.65436E-24
 -1       699 1.49624E-06-1.29660E-07 0.00000E+00
 -1       700 6.98257E-07-6.52353E-08-1.65436E-24
 -1       701 3.57072E-06-2.05391E-07-1.65436E-24
 -1       702 3.27739E-06 2.84838E-07 0.00000E+00
 -1       703 2.89367E-06 1.01665E-06 3.30872E-24
 -1       704 2.44537E-06 1.91760E-06 1.65436E-24
 -1       705 1.97471E-06 2.87794E-06 0.00000E+00
 -1       706 1.52307E-06 3.78727E-06-1.65436E-24
 -1       707 1.12768E-06 4.54691E-06 0.00000E+00
 -1       708 8.25377E-07 5.05871E-06 1.65436E-24
 -1       709 6.32008E-07 5.28036E-06 0.00000E+00
 -1       710 5.62915E-07 5.17077E-06 0.00000E+00
 -1       711 6.05384E-07 4.76354E-06 0.00000E+00
 -1       712 7.46384E-07 4.09360E-06 0.00000E+00
 -1       713 9.50444E-07 3.25518E-06-3.30872E-24
 -1       714 1.18278E-06 2.34361E-06 0.00000E+00
 -1       715 1.40058E-06 1.46998E-06 0.00000E+00
 -1       716 5.13388E-06 5.58159E-06 0.00000E+00
 -1       717 5.11422E-06 9.26216E-06-2.06795E-25
 -1       718 5.09819E-06 1.17083E-05 4.13590E-25
 -1       719 5.08427E-06 1.30255E-05 0.00000E+00
 -1       720 5.07117E-06 1.33518E-05 0.00000E+00
 -1       721 5.05798E-06 1.28254E-05 0.00000E+00
 -1       722 5.04425E-06 1.16088E-05 4.13590E-25
 -1       723 5.02975E-06 9.86523E-06 0.00000E+00
 -1       724 5.01461E-06 7.77249E-06 0.00000E+00
 -1       725 4.99907E-06 5.50884E-06 2.06795E-25
 -1       726 4.98352E-06 3.25726E-06 0.00000E+00
 -1       727 4.96813E-06 1.20081E-06 0.00000E+00
 -1       728 4.95337E-06-4.83060E-07-8.27181E-25
 -1       729 4.93814E-06-1.61714E-06 0.00000E+00
 -1       730 4.92384E-06-2.04014E-06 0.00000E+00
 -1       731 7.41371E-07 5.83320E-07-2.06795E-25
 -1       732-1.15178E-06 6.14945E-07 2.06795E-25
 -1       733-1.28452E-06 6.48369E-07 8.27181E-25
 -1       734-4.18690E-07 6.81683E-07 4.13590E-25
 -1       735 7.60114E-07 7.14814E-07 8.27181E-25
 -1       736 1.63406E-06 9.53514E-06 1.65436E-24
 -1       737-4.46313E-06 2.51182E-05 0.00000E+00
 -1       738-1.22560E-05 4.50032E-05 0.00000E+00
 -1       739-2.08389E-05 6.68707E-05 0.00000E+00
 -1       740-2.90992E-05 8.79277E-05-3.30872E-24
 -1       741-3.59313E-05 1.05382E-04 0.00000E+00
 -1       742-4.06012E-05 1.17304E-04 0.00000E+00
 -1       743-4.24109E-05 1.21779E-04 0.00000E+00
 -1       744-4.13673E-05 1.18661E-04-3.30872E-24
 -1       745-3.74928E-05 1.07838E-04-1.65436E-24
 -1       746-3.14651E-05 9.10412E-05 3.30872E-24
 -1       747-2.39466E-05 7.00385E-05 0.00000E+00
 -1       748-1.59310E-05 4.76252E-05 3.30872E-24
 -1       749-8.40519E-06 2.66058E-05 1.65436E-24
 -1       750-2.24806E-06 9.44376E-06 1.65436E-24
 -1       751 5.24190E-06-8.77135E-07 0.00000E+00
 -1       752 5.60232E-06-5.03340E-07 0.00000E+00
 -1       753 5.96143E-06-3.40635E-07 0.00000E+00
 -1       754 6.32465E-06-2.63469E-07 6.61744E-24
 -1       755 6.68799E-06-2.39334E-07 0.00000E+00
 -1       756 7.05215E-06-2.36592E-07 0.00000E+00
 -1       757 7.41640E-06-2.47006E-07 0.00000E+00
 -1       758 7.78080E-06-2.62556E-07 0.00000E+00
 -1       759 8.14521E-06-2.80844E-07 0.00000E+00
 -1       760 8.50954E-06-2.99517E-07-6.61744E-24
 -1       761 8.87380E-06-3.16644E-07-1.32349E-23
 -1       762 9.23749E-06-3.30267E-07 6.61744E-24
 -1       763 9.60111E-06-3.34596E-07 0.00000E+00
 -1       764 9.96182E-06-3.23689E-07-3.30872E-24
 -1       765 1.03235E-05-2.75000E-07 0.00000E+00
 -1       766 3.26310E-06-1.56624E-06 0.00000E+00
 -1       767 1.51367E-07-1.53653E-06 0.00000E+00
 -1       768-3.02094E-06-1.50756E-06 5.16988E-26
 -1       769-4.84295E-06-1.47428E-06 1.03398E-25
 -1       770-3.79514E-06-1.44047E-06 0.00000E+00
 -1       771 4.37693E-06-8.96324E-07 0.00000E+00
 -1       772 3.89947E-06-3.40390E-07 6.61744E-24
 -1       773 3.46882E-06 8.92206E-08 0.00000E+00
 -1       774 3.08048E-06 4.05233E-07 6.61744E-24
 -1       775 2.72988E-06 6.20389E-07 6.61744E-24
 -1       776 2.41229E-06 7.47482E-07 3.30872E-24
 -1       777 2.12291E-06 7.99320E-07 6.61744E-24
 -1       778 1.85695E-06 7.88730E-07 3.30872E-24
 -1       779 1.60959E-06 7.28547E-07 0.00000E+00
 -1       780 1.37601E-06 6.31624E-07 3.30872E-24
 -1       781 1.15142E-06 5.10819E-07 6.61744E-24
 -1       782 9.31014E-07 3.79004E-07-3.30872E-24
 -1       783 7.10019E-07 2.49054E-07 0.00000E+00
 -1       784 4.83844E-07 1.33884E-07-3.30872E-24
 -1       785 2.47923E-07 4.64060E-08 6.61744E-24
 -1       786 1.06990E-05-4.11083E-08 0.00000E+00
 -1       787 1.07299E-05 5.51937E-08 0.00000E+00
 -1       788 1.07608E-05 1.27845E-07 8.27181E-25
 -1       789 1.07920E-05 1.81153E-07 0.00000E+00
 -1       790 1.08232E-05 2.19416E-07-8.27181E-25
 -1       791 1.08544E-05 2.46934E-07-4.13590E-25
 -1       792 1.08857E-05 2.67998E-07-8.27181E-25
 -1       793 1.09170E-05 2.86902E-07 4.13590E-25
 -1       794 1.09482E-05 3.07938E-07 8.27181E-25
 -1       795 1.09795E-05 3.35399E-07-4.13590E-25
 -1       796 1.10108E-05 3.73577E-07 0.00000E+00
 -1       797 1.10420E-05 4.26771E-07 0.00000E+00
 -1       798 1.10732E-05 4.99281E-07-8.27181E-25
 -1       799 1.11044E-05 5.95409E-07 4.13590E-25
 -1       800 1.11355E-05 7.19473E-07 0.00000E+00
 -1       801 9.72938E-06-1.36007E-07 0.00000E+00
 -1       802 7.76928E-06-1.06269E-07 0.00000E+00
 -1       803 5.30248E-06-7.76923E-08 0.00000E+00
 -1       804 2.84291E-06-5.00947E-08 0.00000E+00
 -1       805 9.04468E-07-2.14201E-08 3.30872E-24
 -1       806 1.05866E-05-5.40743E-08 0.00000E+00
 -1       807 1.05065E-05 4.47931E-08 0.00000E+00
 -1       808 1.04299E-05 1.33586E-07 1.65436E-24
 -1       809 1.03562E-05 2.14496E-07 0.00000E+00
 -1       810 1.02845E-05 2.89699E-07 0.00000E+00
 -1       811 1.02141E-05 3.61364E-07 8.27181E-25
 -1       812 1.01442E-05 4.31650E-07 0.00000E+00
 -1       813 1.00740E-05 5.02719E-07 4.13590E-25
 -1       814 1.00027E-05 5.76731E-07 0.00000E+00
 -1       815 9.92949E-06 6.55846E-07 4.13590E-25
 -1       816 9.85357E-06 7.42222E-07 0.00000E+00
 -1       817 9.77413E-06 8.38022E-07-4.13590E-25
 -1       818 9.69038E-06 9.45406E-07 4.13590E-25
 -1       819 9.60160E-06 1.06653E-06 0.00000E+00
 -1       820 9.50708E-06 1.20357E-06-8.27181E-25
 -1       821 1.11344E-05 1.07598E-06 2.06795E-25
 -1       822 1.11011E-05 1.32162E-06 4.13590E-25
 -1       823 1.10678E-05 1.60793E-06 0.00000E+00
 -1       824 1.10342E-05 1.93008E-06 0.00000E+00
 -1       825 1.10005E-05 2.28328E-06 8.27181E-25
 -1       826 1.09668E-05 2.66270E-06 0.00000E+00
 -1       827 1.09331E-05 3.06350E-06 0.00000E+00
 -1       828 1.08993E-05 3.48086E-06 0.00000E+00
 -1       829 1.08655E-05 3.90994E-06-8.27181E-25
 -1       830 1.08318E-05 4.34588E-06 4.13590E-25
 -1       831 1.07980E-05 4.78385E-06 8.27181E-25
 -1       832 1.07643E-05 5.21900E-06 0.00000E+00
 -1       833 1.07306E-05 5.64649E-06 0.00000E+00
 -1       834 1.06972E-05 6.06147E-06 4.13590E-25
 -1       835 1.06638E-05 6.45911E-06-4.13590E-25
 -1       836 1.09357E-05 9.54785E-07 1.65436E-24
 -1       837 1.06341E-05 1.03660E-06 0.00000E+00
 -1       838 1.02958E-05 1.11827E-06 1.65436E-24
 -1       839 9.95535E-06 1.19973E-06 0.00000E+00
 -1       840 9.64746E-06 1.28132E-06-8.27181E-25
 -1       841 1.10908E-05 1.07559E-06 2.06795E-25
 -1       842 1.09965E-05 1.32512E-06 2.58494E-26
 -1       843 1.08857E-05 1.61883E-06 0.00000E+00
 -1       844 1.07604E-05 1.95095E-06-1.00974E-28
 -1       845 1.06228E-05 2.31571E-06 1.29247E-26
 -1       846 1.04751E-05 2.70731E-06 0.00000E+00
 -1       847 1.03195E-05 3.11989E-06 0.00000E+00
 -1       848 1.01582E-05 3.54763E-06 1.29247E-26
 -1       849 9.99348E-06 3.98465E-06 0.00000E+00
 -1       850 9.82744E-06 4.42507E-06-1.29247E-26
 -1       851 9.66233E-06 4.86302E-06 0.00000E+00
 -1       852 9.50032E-06 5.29262E-06-2.58494E-26
 -1       853 9.34364E-06 5.70801E-06 0.00000E+00
 -1       854 9.19434E-06 6.10327E-06 0.00000E+00
 -1       855 9.05483E-06 6.47265E-06-4.13590E-25
 -1       856 1.05938E-05 7.23845E-06 0.00000E+00
 -1       857 1.05538E-05 7.71588E-06 4.13590E-25
 -1       858 1.05137E-05 8.25726E-06 0.00000E+00
 -1       859 1.04734E-05 8.85288E-06 0.00000E+00
 -1       860 1.04330E-05 9.49304E-06 8.27181E-25
 -1       861 1.03925E-05 1.01680E-05 0.00000E+00
 -1       862 1.03520E-05 1.08681E-05 1.65436E-24
 -1       863 1.03115E-05 1.15835E-05 0.00000E+00
 -1       864 1.02709E-05 1.23045E-05 1.65436E-24
 -1       865 1.02304E-05 1.30213E-05-8.27181E-25
 -1       866 1.01899E-05 1.37243E-05-1.65436E-24
 -1       867 1.01494E-05 1.44036E-05-8.27181E-25
 -1       868 1.01090E-05 1.50495E-05-8.27181E-25
 -1       869 1.00688E-05 1.56523E-05 0.00000E+00
 -1       870 1.00286E-05 1.62023E-05 0.00000E+00
 -1       871 1.03149E-05 6.83110E-06 0.00000E+00
 -1       872 1.00239E-05 6.82726E-06 0.00000E+00
 -1       873 9.74933E-06 6.82332E-06-4.13590E-25
 -1       874 9.48143E-06 6.81926E-06-1.03398E-25
 -1       875 9.21035E-06 6.81501E-06-2.06795E-25
 -1       876 1.05369E-05 7.25197E-06 0.00000E+00
 -1       877 1.04207E-05 7.73272E-06-8.27181E-25
 -1       878 1.02840E-05 8.26797E-06-1.65436E-24
 -1       879 1.01302E-05 8.84983E-06-8.27181E-25
 -1       880 9.96189E-06 9.47021E-06 0.00000E+00
 -1       881 9.78219E-06 1.01211E-05 8.27181E-25
 -1       882 9.59403E-06 1.07946E-05 1.65436E-24
 -1       883 9.40038E-06 1.14828E-05-8.27181E-25
 -1       884 9.20422E-06 1.21776E-05-1.65436E-24
 -1       885 9.00852E-06 1.28712E-05 0.00000E+00
 -1       886 8.81625E-06 1.35555E-05 0.00000E+00
 -1       887 8.63035E-06 1.42228E-05 0.00000E+00
 -1       888 8.45382E-06 1.48649E-05 0.00000E+00
 -1       889 8.28930E-06 1.54738E-05-8.27181E-25
 -1       890 8.14025E-06 1.60418E-05-8.27181E-25
 -1       891 9.59987E-06 1.66683E-05-8.27181E-25
 -1       892 9.28738E-06 1.66465E-05-4.13590E-25
 -1       893 9.01198E-06 1.66246E-05-4.13590E-25
 -1       894 8.73352E-06 1.66028E-05 0.00000E+00
 -1       895 8.41185E-06 1.65810E-05 0.00000E+00
 -1       896 9.74440E-08 5.73829E-07-3.30872E-24
 -1       897 1.95660E-07 1.00208E-06 1.65436E-24
 -1       898 2.93873E-07 1.31977E-06 3.30872E-24
 -1       899 3.92239E-07 1.56143E-06 0.00000E+00
 -1       900 4.90620E-07 1.74381E-06 0.00000E+00
 -1       901 5.89034E-07 1.88341E-06 1.65436E-24
 -1       902 6.87454E-07 1.98671E-06 3.30872E-24
 -1       903 7.85875E-07 2.06005E-06 1.65436E-24
 -1       904 8.84294E-07 2.10274E-06 0.00000E+00
 -1       905 9.82686E-07 2.11398E-06-1.65436E-24
 -1       906 1.08106E-06 2.08558E-06 3.30872E-24
 -1       907 1.17930E-06 2.00920E-06 0.00000E+00
 -1       908 1.27751E-06 1.86528E-06 0.00000E+00
 -1       909 1.37502E-06 1.63395E-06 8.27181E-25
 -1       910 1.47273E-06 1.27495E-06-1.65436E-24
 -1       911 1.57544E-06 5.67735E-07 0.00000E+00
 -1       912 1.58380E-06 1.24876E-06 1.03398E-25
 -1       913 1.59152E-06 2.60297E-06 0.00000E+00
 -1       914 1.59848E-06 4.44308E-06 0.00000E+00
 -1       915 1.60486E-06 6.59108E-06 2.06795E-25
 -1       916 1.61096E-06 8.86906E-06 0.00000E+00
 -1       917 1.61715E-06 1.11016E-05-2.06795E-25
 -1       918 1.62380E-06 1.31132E-05 0.00000E+00
 -1       919 1.63112E-06 1.47242E-05 0.00000E+00
 -1       920 1.63917E-06 1.57549E-05 1.03398E-25
 -1       921 1.64765E-06 1.60143E-05-2.06795E-25
 -1       922 1.65587E-06 1.53114E-05 1.03398E-25
 -1       923 1.66258E-06 1.34365E-05 0.00000E+00
 -1       924 1.66553E-06 1.01800E-05-5.16988E-26
 -1       925 1.66223E-06 5.30563E-06-4.13590E-25
 -1       926 1.53084E-06-9.19127E-06 0.00000E+00
 -1       927 1.41135E-06-1.71624E-05 0.00000E+00
 -1       928 1.29552E-06-2.46482E-05-3.30872E-24
 -1       929 1.18707E-06-3.09630E-05 1.65436E-24
 -1       930 1.08711E-06-3.56375E-05-3.30872E-24
 -1       931 9.94397E-07-3.82091E-05 0.00000E+00
 -1       932 9.04745E-07-3.86043E-05 0.00000E+00
 -1       933 8.13502E-07-3.67584E-05-1.65436E-24
 -1       934 7.17310E-07-3.30211E-05 3.30872E-24
 -1       935 6.14435E-07-2.77497E-05 0.00000E+00
 -1       936 5.06754E-07-2.15856E-05 0.00000E+00
 -1       937 3.97450E-07-1.51738E-05 0.00000E+00
 -1       938 2.90702E-07-9.20498E-06-3.30872E-24
 -1       939 1.89222E-07-4.36812E-06 0.00000E+00
 -1       940 9.40501E-08-1.14227E-06 3.30872E-24
 -1       941 5.57542E-07 9.21308E-08 0.00000E+00
 -1       942 1.14586E-06 1.74059E-07-6.61744E-24
 -1       943 1.73223E-06 2.50186E-07 0.00000E+00
 -1       944 2.32445E-06 3.24755E-07-6.61744E-24
 -1       945 2.91684E-06 3.98440E-07 0.00000E+00
 -1       946 3.51040E-06 4.71892E-07 0.00000E+00
 -1       947 4.10410E-06 5.45225E-07 1.32349E-23
 -1       948 4.69799E-06 6.18546E-07-6.61744E-24
 -1       949 5.29190E-06 6.91945E-07 1.32349E-23
 -1       950 5.88567E-06 7.65509E-07 6.61744E-24
 -1       951 6.47933E-06 8.39706E-07 1.32349E-23
 -1       952 7.07206E-06 9.15025E-07-6.61744E-24
 -1       953 7.66465E-06 9.94543E-07-1.32349E-23
 -1       954 8.25253E-06 1.08145E-06 6.61744E-24
 -1       955 8.84199E-06 1.19588E-06 0.00000E+00
 -1       956 9.37728E-06 1.57413E-06 6.20385E-25
 -1       957 9.34736E-06 1.82262E-06 3.10193E-25
 -1       958 9.31734E-06 2.10088E-06-8.27181E-25
 -1       959 9.28725E-06 2.40538E-06 0.00000E+00
 -1       960 9.25714E-06 2.73259E-06-4.13590E-25
 -1       961 9.22701E-06 3.07893E-06-2.06795E-25
 -1       962 9.19687E-06 3.44084E-06 8.27181E-25
 -1       963 9.16673E-06 3.81475E-06 4.13590E-25
 -1       964 9.13658E-06 4.19709E-06 0.00000E+00
 -1       965 9.10643E-06 4.58429E-06 0.00000E+00
 -1       966 9.07629E-06 4.97279E-06 0.00000E+00
 -1       967 9.04615E-06 5.35901E-06 4.13590E-25
 -1       968 9.01603E-06 5.73937E-06 0.00000E+00
 -1       969 8.98596E-06 6.11034E-06 4.13590E-25
 -1       970 8.95598E-06 6.46836E-06 0.00000E+00
 -1       971 8.87047E-06 7.17676E-06 8.27181E-25
 -1       972 8.81300E-06 7.62196E-06 0.00000E+00
 -1       973 8.75552E-06 8.13585E-06 0.00000E+00
 -1       974 8.69777E-06 8.70856E-06 8.27181E-25
 -1       975 8.63996E-06 9.33021E-06-1.65436E-24
 -1       976 8.58209E-06 9.99090E-06-8.27181E-25
 -1       977 8.52419E-06 1.06807E-05-1.65436E-24
 -1       978 8.46626E-06 1.13897E-05 0.00000E+00
 -1       979 8.40834E-06 1.21080E-05 1.65436E-24
 -1       980 8.35042E-06 1.28255E-05 0.00000E+00
 -1       981 8.29253E-06 1.35324E-05 0.00000E+00
 -1       982 8.23471E-06 1.42187E-05 0.00000E+00
 -1       983 8.17695E-06 1.48745E-05 1.65436E-24
 -1       984 8.11954E-06 1.54899E-05 8.27181E-25
 -1       985 8.06213E-06 1.60549E-05-8.27181E-25
 -3
    1PSTEP                        24          12           1          
  100CL  112 2.23722E-01         841                     0   12           1
 -4  STRESS      6    1
 -5  SXX         1    4    1    1
 -5  SYY         1    4    2    2
 -5  SZZ         1    4    3    3
 -5  SXY         1    4    1    2
 -5  SYZ         1    4    2    3
 -5  SZX         1    4    3    1
 -1         1-9.41732E+05-3.03887E+05-1.94841E+05-2.68895E+05-1.13990E-10-4.82639E-10
 -1         2-5.88567E+05-3.68943E+04 7.86777E+02-5.74086E+04-8.16271E-11-1.03682E-10
 -1         3-3.25094E+05-1.10022E+05-1.94385E+04-2.49888E+04 8.80576E-10-1.02227E-09
 -1         4-1.77237E+05-2.89376E+04 2.73972E+02-1.73552E+04-6.37179E-11 1.10688E-10
 -1         5-9.48734E+04 3.63344E+04-4.25108E+04-1.88446E+03 3.45017E-09 8.75389E-10
 -1         8-5.07165E+05-2.01332E+05-7.66609E+04-1.83514E+05-1.89175E-10-2.72848E-11
 -1         9-5.28531E+05-1.22804E+05-6.43810E+04-1.20629E+05-2.12519E-10-5.26294E-10
 -1        10-2.14955E+05-1.27429E+05-4.07269E+03-4.97491E+04-1.25942E-09 3.16656E-10
 -1        11-1.71430E+05-4.42682E+04 3.10029E+02-3.60561E+04-2.61574E-10-4.83169E-10
 -1        12-1.14061E+05 2.63442E+04-4.79800E+04-1.50242E+04 1.07011E-09-3.12911E-10
 -1        15 3.59153E+03-1.95773E+04 1.31154E+03-3.58657E+04-2.71484E-10 2.58478E-09
 -1        16-3.01562E+05-3.77474E+04 2.04676E+04-1.34536E+05 4.89308E-10 1.56767E-09
 -1        17-1.81854E+05-1.18229E+05-1.94676E+04-9.91276E+04-1.47566E-09 2.49202E-10
 -1        18-3.86934E+04-2.73296E+04-1.99788E+04-3.60089E+04 2.36219E-09-2.31466E-10
 -1        19-2.28563E+04 1.99346E+04-1.86627E+04-1.47785E+04-3.41439E-10 6.02995E-10
 -1        20 2.98226E+04-2.24619E+04-3.87725E+03 1.62462E+04 1.22134E-09-4.02906E-10
 -1        21 4.72162E+02-4.46967E+04 1.24108E+04 9.83939E+00 5.37722E-09-2.92715E-10
 -1        22 1.03146E+04 5.42364E+04 4.26699E+02-1.65967E+04-3.23780E-10 2.32376E-10
 -1        23-7.94151E+04 2.98095E+04 3.26584E+03-3.04551E+04-1.84893E-09-1.64543E-09
 -1        24-8.25545E+04-2.18029E+03 8.00121E+04-1.45467E+05-4.61144E-09 5.99660E-10
 -1        25 1.76623E+05 5.76999E+04 5.37949E+04-8.88866E+04 3.79941E-10 3.45608E-10
 -1        26 8.38230E+02 4.73045E+04 2.37324E+03-8.52093E+03-2.75728E-10 2.91607E-10
 -1        27-1.02854E+04-1.87658E+04-8.08513E+03 2.27318E+04-8.64778E-11-1.08245E-09
 -1        28-3.57943E+03-3.55078E+04-1.94338E+02 1.71543E+04 1.16529E-10-1.45612E-09
 -1        29 1.35693E+05 9.82314E+04 4.28582E+02-1.04472E+03 2.36695E-10 6.50289E-11
 -1        30 1.80956E+04 1.46365E+04 5.95730E+02-1.39797E+04-5.61575E-10-1.35515E-10
 -1        31-9.80118E+04 1.20232E+04 4.21804E+03-2.93176E+04 2.44337E-09-1.04355E-08
 -1        32 2.77459E+05 1.45778E+05 1.81246E+05-1.45653E+05 2.86439E-09 1.05501E-09
 -1        33 4.15313E+05 1.64647E+05 1.26951E+05-1.26753E+04-8.44372E-09-3.91083E-10
 -1        34-6.00248E+04-7.49495E+03-1.31524E+03 1.32200E+04 1.10541E-10 2.74895E-10
 -1        35-1.01537E+04-1.18795E+04-2.10936E+02 2.56814E+04 1.41200E-09-2.62541E-10
 -1        36-1.26038E+06 3.84510E+04-8.88662E+04-5.64116E-08 2.76492E-10-2.43017E-09
 -1        37-1.29886E+06-4.45098E+04-6.28919E+04-5.03495E-08 5.33671E-10-1.40790E-09
 -1        38-1.27523E+06 6.02714E+03-2.29984E+04 5.60422E-09-1.07080E-09 1.83445E-09
 -1        39-1.28153E+06-6.97469E+03-1.44632E+04 5.03045E-08-1.43017E-09-1.48702E-09
 -1        40-1.27768E+06 9.42712E+02-5.90818E+03-3.62167E-08-9.48521E-10 1.58025E-10
 -1        41-1.27867E+06-1.10352E+03-3.52270E+03-8.13251E-09 5.28380E-10 1.94615E-09
 -1        42-1.27808E+06 1.60165E+02-1.71230E+03-5.19300E-10-1.36712E-09 8.51060E-10
 -1        43-1.27824E+06-2.76698E+02-1.33796E+03-1.95666E-07-2.19314E-09 1.71209E-10
 -1        44-1.27811E+06 1.16418E+02-1.32075E+03-4.70563E-08-2.55127E-10 1.34219E-09
 -1        45-1.27847E+06-7.27378E+02-2.38905E+03-7.36495E-08 3.02010E-10 4.68503E-10
 -1        46-1.27786E+06 6.10541E+02-3.86781E+03-5.40726E-08-1.22956E-09 1.87515E-09
 -1        47-1.28030E+06-4.50482E+03-9.36495E+03-3.18071E-08-2.02615E-09-1.78602E-10
 -1        48-1.27628E+06 3.89114E+03-1.48606E+04 4.83309E-08-1.98538E-10 9.35870E-10
 -1        49-1.29149E+06-2.87343E+04-4.06075E+04 1.16454E-07-1.22060E-09 1.89948E-09
 -1        50-1.26669E+06 2.48217E+04-5.73793E+04-1.59894E-08-2.88588E-09-4.91127E-10
 -1        51 1.04151E+04-1.24883E+05 1.65366E+04-3.26572E+05 7.27596E-12 8.77117E-09
 -1        52 4.25230E+03-1.22701E+05 9.95006E+03-3.59467E+05-8.54925E-11 2.03217E-08
 -1        53 2.40432E+03-1.25096E+05 8.02406E+03-3.25746E+05 1.45519E-11 1.36060E-09
 -1        54 5.92040E+03-1.23230E+05 1.21801E+04-3.60375E+05-1.45519E-10-1.93349E-08
 -1        55 1.50365E+04-1.26879E+05 2.21359E+04-3.25628E+05-8.36735E-11-1.03155E-08
 -1        56-1.43711E+06-1.62364E+05-1.18391E+05-5.56043E+05 2.67391E-10 1.29512E-09
 -1        57-1.49270E+06-2.58688E+05-7.94042E+04-5.42200E+05 1.25965E-10 2.56841E-09
 -1        58-1.46001E+06-1.99789E+05-2.78949E+04-5.49714E+05 1.04592E-10-1.04410E-09
 -1        59-1.46631E+06-2.14590E+05-1.65372E+04-5.49810E+05-1.37788E-10-3.43425E-09
 -1        60-1.46323E+06-2.04979E+05-6.52565E+03-5.48968E+05 2.11685E-10-1.01636E-10
 -1        61-1.46267E+06-2.08428E+05-3.69357E+03-5.50607E+05-5.15456E-10 1.37703E-09
 -1        62-1.46361E+06-2.05766E+05-1.80204E+03-5.48980E+05 3.06954E-11 1.97815E-11
 -1        63-1.46241E+06-2.07490E+05-1.50936E+03-5.50455E+05 1.85196E-10 5.20870E-10
 -1        64-1.46348E+06-2.05898E+05-1.75602E+03-5.49126E+05-1.81331E-11 2.27715E-10
 -1        65-1.46315E+06-2.07883E+05-3.55755E+03-5.50030E+05 5.66118E-10 1.05092E-09
 -1        66-1.46288E+06-2.05392E+05-6.26805E+03-5.49399E+05-6.10441E-10 1.27784E-10
 -1        67-1.46712E+06-2.13321E+05-1.58709E+04-5.48722E+05-1.30422E-09-1.67779E-09
 -1        68-1.45956E+06-2.00637E+05-2.67689E+04-5.50372E+05-1.31877E-10-1.37879E-09
 -1        69-1.49284E+06-2.55224E+05-7.61924E+04-5.40949E+05-4.27463E-11-1.00772E-09
 -1        70-1.43740E+06-1.64913E+05-1.13606E+05-5.56658E+05-9.25866E-10-1.16415E-09
 -1        71-6.05291E+05-9.43695E+02 2.18143E+03-7.45935E-08 1.38608E-10 1.26090E-09
 -1        72-6.04289E+05 1.09236E+03 1.54108E+03-4.49716E-08-2.81221E-10 9.87882E-10
 -1        73-6.04926E+05-1.47802E+02 5.58532E+02-1.35267E-09 5.21111E-11 6.90818E-10
 -1        74-6.04715E+05 1.70121E+02 3.41720E+02 8.95613E-08 1.16917E-10-9.42414E-10
 -1        75-6.04865E+05-2.21967E+01 1.19217E+02 6.90401E-08-4.95277E-10-3.90983E-10
 -1        76-6.04790E+05 1.98637E+01 3.10446E+01-1.58573E-08-1.45715E-09 1.67027E-10
 -1        77-6.04852E+05 2.34852E+00-6.19352E+01-1.74127E-08-7.90407E-10-1.23947E-09
 -1        78-6.04824E+05-4.05033E+01-1.96113E+02 3.55430E-09-3.42415E-11 1.09384E-09
 -1        79-6.04831E+05 3.81379E+01-3.82650E+02 1.13624E-08-3.53362E-10 1.23694E-09
 -1        80-6.04955E+05-2.87871E+02-8.97271E+02-5.08007E-08-9.67992E-10 2.34827E-09
 -1        81-6.04721E+05 2.49558E+02-1.55159E+03 2.50186E-08-9.21994E-10-6.80188E-10
 -1        82-6.05717E+05-1.85045E+03-3.83179E+03 4.68024E-08-4.50081E-10-5.85089E-10
 -1        83-6.04070E+05 1.59958E+03-6.10369E+03-8.00359E-08 2.71410E-10-8.36508E-10
 -1        84-6.10316E+05-1.18132E+04-1.66952E+04 1.88777E-08-5.88303E-10 2.06001E-10
 -1        85-6.00126E+05 1.02046E+04-2.35973E+04-7.05639E-08-1.18206E-09 5.82986E-10
 -1        86-2.80642E+04 8.27899E+04 6.59486E+04 3.39187E+02 1.09139E-11-2.39787E-10
 -1        87 3.49633E+04 1.12290E+05 5.10238E+04-1.42093E+03-1.41881E-10 1.87279E-10
 -1        88-6.87008E+03 9.24885E+04 2.59151E+04 2.39539E+02-3.00588E-10-1.87381E-10
 -1        89 2.37272E+04 1.07057E+05 3.63778E+04-1.30733E+03-1.11640E-10-1.82092E-09
 -1        90-1.68373E+04 8.80187E+04 4.07619E+04 2.25601E+02-3.89264E-10 2.48059E-10
 -1        91-6.27919E+05-8.60486E+04-7.50747E+03-2.37654E+05 5.47175E-10 3.35604E-10
 -1        92-6.34012E+05-9.05335E+04-5.18123E+03-2.33576E+05 8.93266E-10 2.77964E-11
 -1        93-6.28996E+05-8.90886E+04-1.75864E+03-2.37544E+05 1.85054E-10 4.73847E-10
 -1        94-6.31830E+05-8.77742E+04-1.07829E+03-2.34561E+05 1.29234E-10 7.40627E-10
 -1        95-6.30098E+05-8.88067E+04-4.56238E+02-2.36668E+05 9.07878E-10-1.13243E-09
 -1        96-6.29690E+05-8.90641E+04-2.40067E+02-2.36670E+05 1.46328E-09 1.66857E-10
 -1        97-6.31134E+05-8.77998E+04-2.04117E+02-2.35433E+05 4.79574E-10-7.16231E-10
 -1        98-6.28488E+05-9.03765E+04-2.61885E+02-2.38218E+05-5.40613E-10 2.59272E-10
 -1        99-6.31303E+05-8.74915E+04-4.36457E+02-2.35123E+05 1.65560E-09 6.74419E-10
 -1       100-6.29185E+05-9.01344E+04-1.02333E+03-2.37502E+05 8.75978E-10 2.73535E-09
 -1       101-6.30436E+05-8.80438E+04-1.83782E+03-2.36148E+05 6.96843E-10-1.40415E-09
 -1       102-6.32258E+05-9.04609E+04-4.82330E+03-2.34991E+05 6.34827E-10-3.12394E-09
 -1       103-6.28231E+05-8.71675E+04-7.79638E+03-2.37633E+05-2.67733E-10-3.34694E-10
 -1       104-6.41417E+05-1.03168E+05-2.30565E+04-2.31100E+05-3.42311E-10 1.01863E-10
 -1       105-6.21288E+05-7.53442E+04-3.32353E+04-2.40041E+05-4.39741E-10 5.00222E-10
 -1       106-3.76958E+05 1.51658E+03-3.50826E+03-9.59502E-08 4.26370E-10 1.83036E-10
 -1       107-3.78446E+05-1.75578E+03-2.48339E+03-5.18946E-08-2.82417E-11 1.08835E-09
 -1       108-3.77544E+05 2.37810E+02-9.11238E+02-2.69123E-08 4.53639E-10 1.13363E-09
 -1       109-3.77764E+05-2.75676E+02-5.77904E+02 9.09033E-08-1.07286E-10 1.47384E-09
 -1       110-3.77640E+05 3.76695E+01-2.46621E+02-7.42367E-08-1.37879E-10 2.74099E-10
 -1       111-3.77653E+05-4.72217E+01-1.67517E+02-1.19687E-08-3.25032E-10 4.59936E-10
 -1       112-3.77654E+05 9.52611E+00-1.20832E+02-3.40683E-08-1.69734E-10 4.62164E-10
 -1       113-3.77648E+05-3.50743E+01-1.69900E+02 5.06548E-08 1.77423E-10 2.06357E-09
 -1       114-3.77645E+05 2.55337E+01-2.64330E+02 3.76039E-08 2.65713E-10 4.82359E-10
 -1       115-3.77727E+05-1.84859E+02-5.82843E+02 4.43421E-08-4.27445E-11-1.26762E-09
 -1       116-3.77576E+05 1.59214E+02-9.94138E+02 6.73226E-09-4.02360E-10-1.72804E-09
 -1       117-3.78212E+05-1.17940E+03-2.44490E+03-5.27668E-08-4.22954E-11 4.41872E-10
 -1       118-3.77161E+05 1.01934E+03-3.89154E+03-1.10929E-07-1.17488E-09-2.35332E-10
 -1       119-3.81142E+05-7.52789E+03-1.06404E+04-4.04383E-08-1.01392E-09-1.18189E-09
 -1       120-3.74647E+05 6.50274E+03-1.50387E+04 7.90970E-08-3.73997E-10-3.42880E-10
 -1       121-5.21983E+02-3.12213E+05 2.45235E+03 4.86081E+03-5.03633E-11-2.52328E-10
 -1       122 7.53329E+02-3.11298E+05 1.65590E+03 1.73860E+04-1.24032E-10 1.26016E-09
 -1       123-7.71070E+01-3.11866E+05 8.55155E+02 4.87931E+03-2.74383E-10 5.97538E-10
 -1       124 3.47559E+02-3.11519E+05 9.32013E+02 1.72990E+04-6.18343E-10 9.38599E-10
 -1       125-2.24562E+02-3.11963E+05 1.06738E+03 4.94791E+03-7.58178E-10 1.41426E-10
 -1       126-3.14805E+05-4.30461E+04-1.80825E+03-1.17551E+05-1.24879E-09-2.02488E-09
 -1       127-3.12637E+05-4.67150E+04-1.09809E+03-1.19579E+05-2.86849E-09-3.45821E-10
 -1       128-3.15543E+05-4.28786E+04-4.16192E+02-1.16530E+05-1.24968E-09 1.74106E-09
 -1       129-3.11854E+05-4.67710E+04-2.35850E+02-1.20607E+05-2.55352E-09 1.49569E-11
 -1       130-3.15594E+05-4.29849E+04-1.13067E+02-1.16528E+05-1.88869E-09-1.56163E-09
 -1       131-3.12215E+05-4.58792E+04 1.75421E+01-1.19688E+05 5.01316E-10 1.81303E-10
 -1       132-3.15176E+05-4.37753E+04-1.33973E+02-1.17444E+05 1.72335E-10 6.55938E-10
 -1       133-3.13648E+05-4.41022E+04 6.42881E+01-1.17615E+05-5.65869E-10 2.88830E-09
 -1       134-3.14155E+05-4.47667E+04-2.30146E+02-1.18596E+05-5.22917E-10 2.84672E-10
 -1       135-3.15740E+05-4.25647E+04-2.87879E+02-1.15737E+05-2.30150E-09 3.03036E-09
 -1       136-3.13090E+05-4.53080E+04-6.53250E+02-1.19326E+05 6.93177E-10 1.09409E-09
 -1       137-3.17197E+05-4.26848E+04-1.71350E+03-1.14890E+05 2.46879E-09 1.20511E-09
 -1       138-3.12705E+05-4.46422E+04-2.78430E+03-1.19448E+05-2.21291E-09 6.41990E-10
 -1       139-3.18964E+05-4.82398E+04-8.11527E+03-1.14670E+05 1.74782E-09 2.38310E-09
 -1       140-3.11318E+05-3.97612E+04-1.19203E+04-1.19540E+05 1.35742E-09-5.05679E-10
 -1       141-1.79676E+05-1.08531E+03 2.50895E+03-4.12541E-08 1.63558E-10-1.56888E-11
 -1       142-1.78570E+05 1.25626E+03 1.77234E+03 2.94741E-09 1.26062E-10 1.55333E-09
 -1       143-1.79256E+05-1.69969E+02 6.41984E+02-2.23255E-08-1.48091E-10 1.05658E-09
 -1       144-1.79060E+05 1.95553E+02 3.91884E+02 6.11641E-09-1.35535E-10-5.90575E-10
 -1       145-1.79186E+05-2.54408E+01 1.34770E+02-6.19093E-08-5.03391E-12-6.65352E-10
 -1       146-1.79147E+05 2.21776E+01 3.05655E+01-2.85163E-08-2.05614E-10 7.80069E-10
 -1       147-1.79170E+05 3.28077E+00-8.09288E+01 6.12890E-08-1.67808E-10 7.52280E-10
 -1       148-1.79188E+05-5.09498E+01-2.46896E+02-4.17087E-08-2.75581E-10-6.83979E-10
 -1       149-1.79144E+05 4.76476E+01-4.78787E+02 1.27580E-08-8.91700E-11-5.52660E-10
 -1       150-1.79352E+05-3.59302E+02-1.12087E+03 9.27071E-08 5.37505E-11-2.45052E-10
 -1       151-1.79007E+05 3.11440E+02-1.93760E+03 1.11726E-08-2.00002E-11-6.05041E-10
 -1       152-1.80302E+05-2.30919E+03-4.78361E+03 5.18210E-08-4.07166E-11 1.06832E-09
 -1       153-1.78194E+05 1.99612E+03-7.61959E+03 2.97349E-08 7.86880E-10 4.52474E-10
 -1       154-1.86040E+05-1.47418E+04-2.08374E+04-6.27864E-08 1.76004E-10-1.07411E-09
 -1       155-1.73270E+05 1.27343E+04-2.94497E+04-3.10547E-08 2.08148E-09 8.05812E-10
 -1       156-5.86916E+03-6.00272E+04 1.39718E+04-2.88568E+00 2.09184E-10 2.66693E-05
 -1       157 7.72711E+03-5.36592E+04 1.15397E+04 1.18690E+01 8.12520E-10 5.31710E-05
 -1       158-1.85188E+03-5.82061E+04 6.98433E+03-6.46281E-01 1.38108E-09 5.55931E-05
 -1       159 8.09088E+03-5.34911E+04 1.20137E+04 7.22875E+00 1.95246E-09 5.77537E-05
 -1       160-6.23263E+03-6.01952E+04 1.47875E+04 1.75459E+00 1.28966E-09 2.89745E-05
 -1       161-1.85793E+05-2.59603E+04-3.72324E+02-6.97080E+04 1.10282E-05-4.13261E-06
 -1       162-1.85884E+05-2.63878E+04-2.59936E+02-6.97380E+04 2.19518E-05-8.22962E-06
 -1       163-1.85879E+05-2.60833E+04-9.14930E+01-6.96707E+04 4.86714E-06-1.82495E-06
 -1       164-1.85790E+05-2.62411E+04-6.44535E+01-6.97748E+04-1.22458E-05 4.59114E-06
 -1       165-1.85887E+05-2.61069E+04-3.99964E+01-6.96712E+04-6.15221E-06 2.30723E-06
 -1       166-1.85799E+05-2.62059E+04-5.74146E+01-6.97570E+04-1.88068E-08 4.42494E-09
 -1       167-1.85869E+05-2.61185E+04-9.16599E+01-6.96885E+04 4.70864E-10-3.95715E-10
 -1       168-1.85864E+05-2.62156E+04-2.10870E+02-6.97098E+04-5.98086E-10 9.53118E-10
 -1       169-1.85822E+05-2.60973E+04-3.81532E+02-6.97184E+04-5.58558E-10-2.79073E-10
 -1       170-1.86097E+05-2.64869E+04-9.58361E+02-6.96104E+04 7.12308E-10-1.73475E-09
 -1       171-1.85636E+05-2.58473E+04-1.65541E+03-6.97878E+04-3.75906E-10 3.94891E-10
 -1       172-1.87304E+05-2.84511E+04-4.46352E+03-6.92147E+04-5.32214E-09 1.93359E-09
 -1       173-1.84616E+05-2.41344E+04-7.14627E+03-7.01139E+04-2.13752E-06 8.00926E-07
 -1       174-1.94550E+05-4.11465E+04-2.11743E+04-6.68148E+04-4.26246E-06 1.59851E-06
 -1       175-1.78392E+05-1.31601E+04-3.04955E+04-7.21851E+04-2.14062E-06 8.01350E-07
 -1       191 3.39185E+02 1.58821E+05 5.42720E+02-3.60059E+03-1.96906E-10 1.22827E-09
 -1       192 1.25859E+02 1.58894E+05 3.25531E+02-3.83707E+03-2.80522E-10 1.23146E-09
 -1       193 6.09669E+01 1.58847E+05 2.63817E+02-3.53231E+03-5.38932E-10 1.10640E-09
 -1       194 1.67978E+02 1.58907E+05 4.01445E+02-3.96585E+03-6.57906E-10-1.05160E-09
 -1       195 4.69917E+02 1.58804E+05 7.31588E+02-3.47165E+03-8.39464E-10-9.64064E-10
 -1       251-8.31518E+05 1.94000E+04-4.58041E+04-7.51004E+03-2.00487E-10 7.60338E-10
 -1       252-8.46223E+05-2.25451E+04-3.15212E+04 1.93294E+04 6.22764E-10 2.06455E-09
 -1       253-8.37846E+05 3.18235E+03-1.18937E+04-8.85227E+03 1.77124E-10-2.34149E-09
 -1       254-8.33882E+05-3.34731E+03-6.12429E+03 1.13071E+04-1.40778E-09 4.50314E-10
 -1       255-8.43737E+05 1.09053E+02-4.16053E+03 5.12496E+02 8.15362E-10-1.95280E-09
 -1       256-8.32064E+05-3.16292E+02-4.88936E+02-7.93023E+03-4.07965E-10 6.62908E-10
 -1       257-8.39648E+05 1.40951E+02-1.16763E+03 1.03847E+04-9.42634E-10 8.35854E-10
 -1       258-8.35994E+05-1.96559E+02-3.46405E+02-1.74875E+04-2.05857E-10-4.53633E-09
 -1       259-8.39931E+05 1.11589E+02-1.22254E+03 1.00706E+04-2.32791E-09 3.38690E-09
 -1       260-8.31815E+05-2.96379E+02-4.24286E+02-7.01228E+03-1.25269E-09-1.49754E-09
 -1       261-8.43695E+05 1.11271E+02-4.12683E+03-9.13570E+01-5.67695E-10-4.82032E-11
 -1       262-8.34149E+05-3.33998E+03-6.12359E+03 1.21471E+04 6.34188E-10 8.78458E-10
 -1       263-8.37630E+05 3.18126E+03-1.17495E+04-9.08840E+03-1.97932E-09-2.11412E-09
 -1       264-8.46050E+05-2.23491E+04-3.12393E+04 1.91737E+04-8.24644E-09 2.14277E-09
 -1       265-8.31906E+05 1.92025E+04-4.54995E+04-7.11825E+03-3.63087E-09-1.85173E-09
 -1       266-7.51260E+03-1.30348E+05 1.70958E+04-1.78600E+02-1.27329E-11 9.59574E-10
 -1       267 8.08217E+03-1.22958E+05 1.10027E+04 1.32904E+03 3.18323E-11-1.57476E-10
 -1       268-5.66931E+02-1.27198E+05 2.11153E+03 2.07813E+01-5.45697E-12 3.04809E-10
 -1       269-3.25464E+03-1.28110E+05-3.76238E+03 8.53729E+02 1.45519E-11 2.61380E-09
 -1       270 3.81342E+03-1.25195E+05-8.36366E+03 2.96696E+02 4.04725E-11 3.35536E-09
 -1       271-1.20570E+06-1.53233E+05-9.33013E+04-4.66099E+05-7.39419E-10-1.67711E-09
 -1       272-1.23549E+06-2.14394E+05-5.84946E+04-4.69551E+05-1.04131E-09-1.01409E-09
 -1       273-1.22176E+06-1.73333E+05-2.20053E+04-4.63878E+05 3.80496E-10 5.16593E-10
 -1       274-1.21691E+06-1.87822E+05-1.20134E+04-4.73771E+05 1.34833E-10 6.31189E-10
 -1       275-1.22367E+06-1.75315E+05-5.11587E+03-4.63577E+05 6.26642E-10 8.06949E-10
 -1       276-1.21468E+06-1.85294E+05-2.69816E+03-4.74327E+05-1.17097E-10-2.33422E-09
 -1       277-1.22396E+06-1.75458E+05-1.38626E+03-4.63486E+05-6.38693E-10-1.39721E-09
 -1       278-1.21437E+06-1.85137E+05-1.08095E+03-4.74463E+05-1.75646E-10-1.62856E-10
 -1       279-1.22399E+06-1.75437E+05-1.28899E+03-4.63462E+05 3.03984E-10 3.02975E-10
 -1       280-1.21458E+06-1.85344E+05-2.43304E+03-4.74433E+05 7.70115E-10 2.31574E-09
 -1       281-1.22376E+06-1.75273E+05-4.57172E+03-4.63506E+05 2.83023E-10 9.74524E-10
 -1       282-1.21652E+06-1.87656E+05-1.07201E+04-4.74010E+05 6.15728E-10 1.75760E-09
 -1       283-1.22208E+06-1.73480E+05-1.96227E+04-4.63746E+05 6.36192E-10 2.34104E-09
 -1       284-1.23304E+06-2.11400E+05-5.21639E+04-4.70307E+05 4.83169E-11-6.61203E-10
 -1       285-1.20779E+06-1.55532E+05-8.31996E+04-4.65700E+05-4.63842E-11 7.16682E-10
 -1       286-1.43621E+05-7.24476E+03 1.67529E+04-9.46012E+01 8.26670E-10-4.57476E-10
 -1       287-1.36286E+05 8.38721E+03 1.18622E+04-7.16087E+01 3.16234E-10-9.98398E-10
 -1       288-1.40820E+05-1.13613E+03 4.33588E+03 2.19264E+01 3.71365E-10-4.22915E-10
 -1       289-1.39557E+05 1.31479E+03 2.73564E+03-2.92689E+02 3.53657E-10-1.50226E-09
 -1       290-1.40351E+05-1.77993E+02 1.11861E+03 1.26485E+02 1.67631E-10-9.59403E-10
 -1       291-1.40109E+05 2.09488E+02 6.78687E+02-4.64957E+02 1.42787E-10-1.71818E-09
 -1       292-1.40269E+05-3.13728E+01 3.44930E+02 1.94197E+02 2.33017E-10-1.23060E-09
 -1       293-1.40195E+05 6.19448E+01 3.01234E+02-5.48822E+02 5.81916E-10-2.36818E-10
 -1       294-1.40266E+05-3.03687E+01 3.37056E+02 2.10352E+02 6.44381E-10 2.35261E-10
 -1       295-1.40120E+05 2.01409E+02 6.53360E+02-5.26101E+02 3.81774E-10-5.44162E-10
 -1       296-1.40343E+05-1.70795E+02 1.07634E+03 1.71475E+02 3.09468E-10-3.36740E-10
 -1       297-1.39591E+05 1.26245E+03 2.62622E+03-4.01815E+02 7.48341E-10 1.13207E-09
 -1       298-1.40794E+05-1.09086E+03 4.16440E+03 8.60644E+01 1.85267E-10 3.78577E-10
 -1       299-1.36445E+05 8.05392E+03 1.13906E+04-2.04734E+02 1.57875E-10-3.95744E-10
 -1       300-1.43488E+05-6.95695E+03 1.60867E+04-2.56105E+01 4.33289E-10 1.11413E-09
 -1       301 1.64683E+04 4.84275E+03 3.69757E+04-1.19575E+04-3.58341E-10-3.95659E-10
 -1       302 5.57762E+03 1.18289E+04 2.27246E+04-1.40737E+04-3.61752E-10-1.62569E-10
 -1       303 1.53401E+03 7.32357E+03 1.82895E+04-1.19565E+04-3.20824E-10-5.99186E-10
 -1       304 7.27454E+03 1.28516E+04 2.73282E+04-1.40612E+04-3.69255E-10-2.64663E-10
 -1       305 2.19510E+04 3.82314E+03 4.81248E+04-1.19660E+04-2.29193E-10 1.57002E-10
 -1       306-7.99724E+05-1.05194E+05-5.19364E+04-3.10052E+05 3.74257E-10-2.21917E-10
 -1       307-8.10949E+05-1.44516E+05-3.25506E+04-3.18056E+05 5.61613E-11-2.88037E-09
 -1       308-8.08693E+05-1.16330E+05-1.22535E+04-3.08783E+05 1.05251E-09-8.71296E-10
 -1       309-8.00598E+05-1.29771E+05-6.69178E+03-3.20462E+05 1.49873E-09 1.30785E-09
 -1       310-8.09765E+05-1.17422E+05-2.85906E+03-3.08612E+05 2.89447E-10-1.65028E-09
 -1       311-7.99368E+05-1.28361E+05-1.52478E+03-3.20777E+05 1.48043E-09-3.17300E-10
 -1       312-8.09921E+05-1.17507E+05-8.18231E+02-3.08570E+05-1.69337E-10-5.84574E-10
 -1       313-7.99226E+05-1.28255E+05-7.03516E+02-3.20825E+05-6.87752E-11 2.18967E-09
 -1       314-8.09913E+05-1.17509E+05-9.23772E+02-3.08574E+05-3.07978E-10-9.70772E-10
 -1       315-7.99418E+05-1.28380E+05-1.81494E+03-3.20753E+05 1.84457E-10 6.60066E-10
 -1       316-8.09718E+05-1.17406E+05-3.44936E+03-3.08626E+05-8.73115E-11 5.73664E-10
 -1       317-8.00908E+05-1.30096E+05-8.10364E+03-3.20381E+05 4.21096E-10-9.06766E-10
 -1       318-8.08426E+05-1.16074E+05-1.48460E+04-3.08825E+05-1.91449E-10 2.40107E-10
 -1       319-8.13432E+05-1.47996E+05-3.94493E+04-3.17504E+05-3.03785E-10 1.40972E-10
 -1       320-7.97576E+05-1.02551E+05-6.29368E+04-3.10337E+05-7.83075E-10 8.73115E-11
 -1       321-2.34726E+05-3.40470E+03 7.87506E+03-2.23298E+02-4.46961E-10-1.00272E-09
 -1       322-2.31284E+05 3.94170E+03 5.57165E+03 3.32333E+02-9.55610E-10-1.65807E-09
 -1       323-2.33412E+05-5.33799E+02 2.03650E+03-1.75031E+02-1.86562E-10 8.50605E-10
 -1       324-2.32812E+05 6.17655E+02 1.28026E+03 1.82156E+02 7.22959E-10-4.04455E-10
 -1       325-2.33198E+05-8.34905E+01 5.16055E+02-7.31173E+01-3.82617E-10-1.30598E-09
 -1       326-2.33063E+05 9.61727E+01 3.00368E+02-3.94368E+01-3.66181E-10-1.02588E-10
 -1       327-2.33161E+05-1.27633E+01 1.23816E+02 4.65651E+01-8.07390E-11-2.17011E-09
 -1       328-2.33111E+05 1.23918E+01 6.08366E+01-2.55098E+02-1.70915E-10 3.77078E-10
 -1       329-2.33150E+05 3.15998E-01 9.05751E+00 1.42548E+02-1.06423E-10 6.84487E-10
 -1       330-2.33133E+05-1.49241E+01-3.58143E+01-3.90150E+02-4.21780E-10 1.26692E-09
 -1       331-2.33140E+05 1.46548E+01-8.42058E+01 1.81619E+02-1.03190E-12 3.79785E-10
 -1       332-2.33180E+05-1.09676E+02-2.23394E+02-3.97828E+02-3.83437E-10-1.44011E-09
 -1       333-2.33103E+05 9.50063E+01-3.61354E+02 1.50226E+02-2.46013E-10-2.60769E-10
 -1       334-2.33447E+05-7.01657E+02-9.90161E+02-2.75397E+02-1.38396E-10-2.41016E-11
 -1       335-2.32872E+05 6.06055E+02-1.40389E+03 5.91862E+01 2.09468E-11-1.24948E-09
 -1       336 2.23867E+01-3.22259E+05-5.48453E+02-5.97206E+03-1.27920E-09 4.72778E-09
 -1       337-2.86439E+02-3.22499E+05-1.48401E+03-2.17272E+04-2.50688E-09 3.12650E-09
 -1       338 2.44022E+02-3.22082E+05-2.79504E+03-5.90983E+03-1.64323E-09 1.68632E-09
 -1       339-3.28536E+03-3.24340E+05-6.95088E+03-2.17882E+04-2.80500E-09 3.27930E-10
 -1       340 2.37572E+03-3.20445E+05-1.09542E+04-5.91149E+03-1.62345E-09 2.96751E-10
 -1       341-3.37463E+05-5.45208E+04-9.59965E+03-1.33077E+05 2.23122E-08 1.89323E-09
 -1       342-3.01293E+05-2.35617E+04 5.11309E+03-8.98617E+04 1.19357E-08-1.02465E-09
 -1       343-3.08281E+05-5.52623E+04-1.52653E+03-1.32273E+05-1.70330E-08-1.00420E-08
 -1       344-3.30244E+05-2.25041E+04 9.50911E+02-9.09245E+04 3.20479E-08 4.41126E-09
 -1       345-3.08972E+05-5.52251E+04-1.06196E+03-1.32387E+05 3.39565E-08 1.49274E-09
 -1       346-2.99823E+05-2.42155E+04 6.79061E+03-8.96791E+04-1.34073E-08-2.26268E-09
 -1       347-3.38219E+05-5.39228E+04-6.30463E+03-1.33127E+05-5.22107E-09-2.38254E-09
 -1       348-2.61485E+05-3.51387E+04 1.20323E+04-9.91649E+04 1.44933E-08-1.87133E-09
 -1       349-3.46831E+05-4.46721E+04-6.48363E+03-1.22541E+05-2.40811E-09-2.08888E-09
 -1       350-2.70294E+05-5.53366E+04 5.70078E+03-1.24973E+05 1.69543E-08-6.43148E-09
 -1       351-3.29894E+05-3.33533E+04-2.57537E+03-1.07703E+05-9.17112E-09-8.95602E-09
 -1       352-2.88574E+05-6.78430E+04-3.39814E+03-1.39806E+05-4.37355E-08-2.70803E-08
 -1       353-3.29038E+05-3.17894E+04-8.59386E+03-1.08068E+05 1.38348E-08 2.46018E-10
 -1       354-2.78156E+05-6.89458E+04-1.53990E+04-1.22131E+05-1.83326E-08-4.62205E-09
 -1       355-3.39822E+05-3.26415E+04-3.94938E+04-1.25011E+05-5.61886E-09-8.31278E-10
 -1       356-2.36169E+05 7.35107E+02-1.70203E+03 1.30043E+00-3.23546E-10 2.66709E-10
 -1       357-2.36885E+05-8.51197E+02-1.20711E+03-6.21351E+01 8.22093E-10 4.61569E-10
 -1       358-2.36453E+05 1.15416E+02-4.48699E+02 2.80219E+01 3.02750E-07 2.28840E-09
 -1       359-2.36555E+05-1.34800E+02-2.94781E+02-1.01883E+02 6.02191E-07-5.35522E-10
 -1       360-2.36498E+05 1.92900E+01-1.47686E+02 4.10486E+01 6.40999E-08 6.87201E-10
 -1       361-2.36506E+05-3.07191E+01-1.41347E+02-1.09700E+02-4.73137E-07 6.25135E-10
 -1       362-2.36501E+05 1.14195E+01-1.71295E+02 3.58397E+01-2.37807E-07-2.29615E-09
 -1       363-2.36530E+05-6.81905E+01-3.30339E+02-8.28787E+01-1.39717E-09-5.60963E-10
 -1       364-2.36475E+05 5.67393E+01-5.77839E+02 1.42267E+01-1.32333E-10 4.77399E-10
 -1       365-2.36715E+05-4.20490E+02-1.31767E+03-3.08108E+01 1.94587E-10-6.38778E-10
 -1       366-2.36316E+05 3.63492E+02-2.26516E+03-1.62293E+01-4.02923E-10 1.81399E-09
 -1       367-2.37824E+05-2.69415E+03-5.58279E+03 2.84132E+01-5.76774E-11 9.35188E-10
 -1       368-2.35368E+05 2.32874E+03-8.88999E+03-4.49983E+01 7.91271E-10-1.04046E-09
 -1       369-2.44518E+05-1.71982E+04-2.43094E+04 7.49237E+01-1.16536E-10 2.25236E-09
 -1       370-2.29622E+05 1.48563E+04-3.43558E+04-6.27392E+01 2.25007E-09 8.74934E-10
 -1       371-5.99437E+03-6.15166E+04 1.35956E+04 5.79721E+02 4.05635E-10 7.22856E-10
 -1       372 6.39350E+03-5.56646E+04 8.64900E+03-2.30847E+03 1.00226E-09-4.53898E-10
 -1       373-3.92947E+02-5.88803E+04 1.49082E+03 6.25960E+02 8.21501E-10-5.76643E-10
 -1       374-3.00840E+03-6.00147E+04-3.60228E+03-2.31165E+03 1.02534E-09 1.73928E-09
 -1       375 3.40011E+03-5.71673E+04-7.48180E+03 5.82891E+02 5.10227E-10 9.79988E-10
 -1       376-3.09401E+05-3.82986E+04-1.16591E+04-1.16943E+05 2.29829E-09-1.53659E-09
 -1       377-3.10952E+05-5.15894E+04-7.80386E+03-1.17953E+05 8.68340E-10-2.74497E-09
 -1       378-3.12128E+05-4.13221E+04-2.72120E+03-1.14882E+05 9.08130E-10 2.62048E-10
 -1       379-3.07869E+05-4.79138E+04-1.66154E+03-1.20145E+05 4.68670E-09 2.50176E-09
 -1       380-3.12494E+05-4.19620E+04-6.65852E+02-1.14760E+05 4.70001E-09-1.30171E-10
 -1       381-3.07831E+05-4.61219E+04-2.57102E+02-1.18996E+05 4.07449E-09-1.83861E-09
 -1       382-3.12155E+05-4.31225E+04-3.94688E+02-1.16022E+05-2.32242E-09 1.86454E-10
 -1       383-3.09503E+05-4.36441E+04-3.43078E+01-1.16157E+05-4.71352E-09-2.10235E-09
 -1       384-3.10810E+05-4.44489E+04-6.50143E+02-1.17590E+05 9.89783E-09-7.57922E-10
 -1       385-3.12609E+05-4.17789E+04-1.01572E+03-1.13614E+05 9.37560E-09-1.04976E-10
 -1       386-3.09060E+05-4.49794E+04-2.05079E+03-1.18573E+05-5.76819E-09-7.77959E-10
 -1       387-3.15664E+05-4.33070E+04-5.42391E+03-1.12222E+05 6.56843E-09-9.53150E-10
 -1       388-3.07768E+05-4.29130E+04-8.74935E+03-1.18991E+05 6.36942E-09-4.25644E-09
 -1       389-3.23038E+05-5.95768E+04-2.56967E+04-1.10147E+05-5.07862E-09-2.03750E-09
 -1       390-3.01680E+05-2.87280E+04-3.74147E+04-1.20637E+05-2.06546E-09 5.63887E-10
 -1       406 3.82720E+02 1.57285E+05 8.28288E+02-1.21635E+04-1.08912E-09-3.28828E-09
 -1       407 2.49565E+02 1.57436E+05 1.00742E+03-1.33320E+04-1.32684E-09-6.55291E-10
 -1       408 4.09872E+02 1.57259E+05 1.66097E+03-1.21079E+04-1.37652E-09-4.60341E-09
 -1       409 1.64660E+03 1.57903E+05 3.56576E+03-1.34165E+04-1.56729E-09-1.41681E-08
 -1       410 4.74955E+03 1.56808E+05 7.19085E+03-1.20774E+04-1.50521E-09-9.30322E-09
 -1       466 5.61843E+05-2.28325E+04 5.25043E+04 3.37722E+03 2.89276E-10 3.38332E-09
 -1       467 5.86371E+05 2.63967E+04 3.74561E+04-5.52493E+03-3.40144E-10 4.67480E-10
 -1       468 5.71350E+05-3.55391E+03 1.36354E+04 1.00271E+03 4.07319E-10 6.02995E-10
 -1       469 5.75314E+05 4.11039E+03 8.62398E+03-2.28852E+03-4.20819E-11 7.49878E-10
 -1       470 5.72890E+05-5.54396E+02 3.56343E+03 1.40824E+02 6.80021E-10 2.65345E-10
 -1       471 5.73531E+05 6.62611E+02 2.21596E+03-1.11956E+03 9.13836E-10-2.68386E-10
 -1       472 5.73133E+05-1.07299E+02 1.24986E+03-1.66274E+02 7.80076E-10-3.07068E-10
 -1       473 5.73317E+05 2.67829E+02 1.30605E+03-7.33051E+02 1.40413E-09-1.91525E-09
 -1       474 5.73104E+05-1.59689E+02 1.71185E+03-2.45689E+02 7.05784E-10-1.98406E-09
 -1       475 5.73757E+05 1.11111E+03 3.55147E+03-7.17911E+02 2.32389E-10-1.01028E-09
 -1       476 5.72692E+05-9.50016E+02 5.97012E+03-1.81413E+02 2.88175E-10-1.18121E-09
 -1       477 5.76651E+05 7.03373E+03 1.46133E+04-1.05871E+03-1.83761E-10-1.94336E-09
 -1       478 5.70206E+05-6.07789E+03 2.32371E+04 9.51185E+01-2.59046E-10-5.37511E-10
 -1       479 5.94210E+05 4.49033E+04 6.35116E+04-2.13982E+03 1.20156E-09-1.60981E-09
 -1       480 5.55127E+05-3.87870E+04 8.97403E+04 8.99671E+02 2.82010E-09-3.41970E-10
 -1       481-4.28707E+03 8.50458E+04 9.72404E+03-1.27358E+03-9.54969E-12 4.83311E-10
 -1       482 5.08202E+03 9.06592E+04 7.36197E+03 3.89597E+03-3.44471E-11 1.89711E-09
 -1       483-8.02600E+02 8.70615E+04 3.02342E+03-9.37278E+02 2.77396E-11 9.14483E-10
 -1       484 1.84534E+03 8.85954E+04 3.08609E+03 3.44324E+03 3.90514E-11-1.61727E-10
 -1       485-1.04325E+03 8.70957E+04 2.70497E+03-8.20808E+02 2.76259E-11-2.94075E-10
 -1       486-5.20540E+05-6.12088E+04-4.99138E+04-2.13081E+05 5.72982E-10 1.66256E-09
 -1       487-5.60996E+05-8.45120E+04-3.33678E+04-1.78522E+05 1.81478E-09 4.20687E-09
 -1       488-5.29621E+05-7.87684E+04-1.19288E+04-2.09937E+05 1.56592E-09-1.33605E-09
 -1       489-5.36220E+05-6.89019E+04-4.76459E+03-1.86819E+05-5.11363E-10-2.09207E-09
 -1       490-5.45152E+05-7.69452E+04-4.82467E+03-2.04656E+05-6.61203E-10-2.39311E-10
 -1       491-5.19281E+05-7.87826E+04 1.23123E+03-2.02243E+05 4.62592E-10 2.16153E-09
 -1       492-5.46520E+05-6.89195E+04-1.47750E+03-1.94484E+05 1.74396E-10 6.15825E-09
 -1       493-5.19447E+05-8.84177E+04 1.49508E+02-2.14785E+05 3.66015E-10 1.19054E-08
 -1       494-5.45174E+05-6.71404E+04-8.51125E+02-1.92267E+05-1.30547E-09 2.63884E-09
 -1       495-5.18631E+05-8.30681E+04 6.16439E+02-2.07552E+05-1.46130E-10 2.53047E-09
 -1       496-5.47212E+05-7.43811E+04-4.52302E+03-2.01616E+05 6.44462E-10 3.07830E-09
 -1       497-5.29723E+05-7.20682E+04-3.67108E+03-1.90596E+05 1.52679E-09-5.93104E-10
 -1       498-5.34003E+05-7.82154E+04-1.17269E+04-2.09155E+05 2.39856E-09-3.83352E-09
 -1       499-5.58724E+05-8.31245E+04-3.06813E+04-1.79156E+05 1.03580E-09-4.51655E-09
 -1       500-5.18412E+05-6.31639E+04-4.57855E+04-2.13214E+05-4.65388E-09 6.46105E-09
 -1       501-1.94746E+05-9.62077E+03 2.22446E+04-1.27892E+02 9.14611E-11-4.85670E-10
 -1       502-1.84992E+05 1.11380E+04 1.57510E+04-7.90877E+01-2.07848E-10-7.34872E-10
 -1       503-1.91026E+05-1.50884E+03 5.75139E+03 7.34547E+01-2.48118E-10 4.40195E-10
 -1       504-1.89342E+05 1.74533E+03 3.62238E+03-4.52386E+02-1.72854E-10 8.16954E-10
 -1       505-1.90399E+05-2.35564E+02 1.46436E+03 2.45416E+02 2.39364E-10-7.29244E-10
 -1       506-1.90085E+05 2.72274E+02 8.55622E+02-7.14022E+02 6.69893E-10-8.67772E-10
 -1       507-1.90284E+05-3.63769E+01 3.74214E+02 3.35096E+02 6.77261E-10-1.38112E-09
 -1       508-1.90214E+05 4.39264E+01 2.14651E+02-7.85088E+02 1.03743E-10-1.37807E-09
 -1       509-1.90270E+05-7.18747E+00 1.10808E+02 3.16483E+02 7.91834E-10-8.77417E-10
 -1       510-1.90212E+05 2.04361E+01 9.64312E+01-6.44881E+02 6.21991E-10-1.04844E-09
 -1       511-1.90286E+05-1.32258E+01 9.40636E+01 1.94886E+02 1.37721E-10 4.49916E-11
 -1       512-1.90155E+05 9.05832E+01 2.04273E+02-3.33428E+02 1.02697E-09-3.18323E-10
 -1       513-1.90327E+05-7.77665E+01 2.92118E+02 5.02423E+00-3.02478E-10 2.11827E-10
 -1       514-1.89929E+05 5.67624E+02 8.11766E+02 6.02943E+01-3.86443E-10 8.05073E-10
 -1       515-1.90511E+05-4.90009E+02 1.12470E+03-1.98843E+02-5.10401E-10 1.13437E-09
 -1       516-2.50459E+04 1.96244E+05 5.85897E+04-2.29750E+03-2.14641E-10-9.43274E-10
 -1       517 3.05308E+04 2.22684E+05 4.43038E+04 9.33323E+03-5.07498E-10-1.79324E-09
 -1       518-5.46076E+03 2.05054E+05 2.07628E+04-2.38570E+03 4.54747E-13-3.36968E-10
 -1       519 1.66756E+04 2.18695E+05 2.64956E+04 1.09305E+04-1.58116E-09-1.53938E-09
 -1       520-1.12419E+04 2.00291E+05 2.65003E+04-3.89494E+03-6.12090E-10-4.18248E-09
 -1       521-1.18634E+06-1.53237E+05-8.10601E+04-4.57785E+05-1.54614E-10-4.94765E-10
 -1       522-1.20989E+06-2.08681E+05-5.08164E+04-4.63442E+05 1.04953E-09 1.29239E-09
 -1       523-1.20030E+06-1.70685E+05-1.91171E+04-4.55844E+05-9.96181E-11 1.37334E-10
 -1       524-1.19375E+06-1.85601E+05-1.04387E+04-4.67117E+05 8.51969E-10 1.82672E-09
 -1       525-1.20195E+06-1.72410E+05-4.44647E+03-4.55589E+05 3.84489E-10 1.24646E-09
 -1       526-1.19184E+06-1.83380E+05-2.35111E+03-4.67572E+05-4.53554E-10 4.02451E-11
 -1       527-1.20219E+06-1.72555E+05-1.21776E+03-4.55531E+05-6.85532E-11-1.41199E-10
 -1       528-1.19162E+06-1.83196E+05-9.69815E+02-4.67628E+05-8.84441E-10-6.58076E-10
 -1       529-1.20218E+06-1.72569E+05-1.18230E+03-4.55545E+05 1.51658E-10 1.41222E-09
 -1       530-1.19187E+06-1.83321E+05-2.25260E+03-4.67513E+05-1.33764E-09-2.37219E-09
 -1       531-1.20192E+06-1.72459E+05-4.24654E+03-4.55628E+05 2.24759E-09 4.88262E-09
 -1       532-1.19375E+06-1.85386E+05-9.95873E+03-4.67012E+05 6.44604E-11 8.00355E-11
 -1       533-1.20031E+06-1.70845E+05-1.82361E+04-4.55904E+05 2.57626E-09-6.12090E-10
 -1       534-1.20920E+06-2.07334E+05-4.84679E+04-4.63428E+05 6.01392E-09 1.39426E-09
 -1       535-1.18697E+06-1.54243E+05-7.73163E+04-4.57794E+05 1.97633E-09-8.73115E-11
 -1       536 8.48953E+03-4.28097E+03 1.97364E+04-3.50538E+03 2.29193E-10-3.61069E-10
 -1       537 1.55568E+04 5.96022E+03 1.25578E+04-1.23344E+04-9.12223E-10 7.84894E-10
 -1       538 1.14345E+04-4.38042E+02 5.10425E+03-3.45955E+03-5.72982E-11 9.94078E-10
 -1       539 1.22552E+04 5.57852E+02 2.83129E+03-1.23822E+04 3.97222E-10-1.52340E-11
 -1       540 1.17551E+04-5.10470E+01 1.28423E+03-3.45665E+03 4.29509E-10-1.14107E-09
 -1       541 1.18700E+04 5.05497E+01 6.72082E+02-1.23840E+04 1.56547E-10-1.37277E-10
 -1       542 1.17937E+04-6.89412E+00 3.12935E+02-3.45775E+03 2.37776E-09-2.46189E-10
 -1       543 1.18095E+04 6.44933E+00 1.48646E+02-1.23823E+04 5.42497E-09 1.14966E-10
 -1       544 1.17992E+04 5.46821E-01 4.73042E+01-3.45834E+03 2.59689E-09 4.35534E-10
 -1       545 1.17921E+04-9.51090E-01-2.79643E+01-1.23816E+04-4.89038E-10-1.09927E-09
 -1       546 1.18045E+04 5.62941E+00-1.11464E+02-3.45846E+03 5.11960E-10-6.32838E-10
 -1       547 1.17551E+04-5.46644E+01-2.78641E+02-1.23803E+04-7.51925E-10-1.07093E-10
 -1       548 1.18391E+04 4.29780E+01-5.17086E+02-3.45971E+03-2.77396E-10 1.63823E-10
 -1       549 1.14295E+04-6.10065E+02-1.27867E+03-1.23542E+04 8.56801E-10 1.49385E-10
 -1       550 1.21428E+04 4.30360E+02-2.01631E+03-3.48454E+03 5.22959E-12-4.97607E-10
 -1       551 4.55347E+03-1.16631E+05 1.06352E+04-1.76161E+05-1.00044E-10-5.85715E-10
 -1       552 2.05213E+03-1.14711E+05 8.73140E+03-2.06926E+05-5.91172E-10 1.49294E-09
 -1       553 1.29247E+03-1.16339E+05 1.06112E+04-1.75865E+05 5.45697E-11 5.75210E-09
 -1       554 6.34084E+03-1.12178E+05 2.03118E+04-2.06973E+05-7.27596E-11 9.68816E-09
 -1       555 1.83795E+04-1.19258E+05 3.86817E+04-1.76099E+05 8.00355E-11 3.64435E-09
 -1       556-7.84565E+04-4.31633E+04 7.66884E+03-7.71818E+04 4.58658E-09 4.90218E-09
 -1       557-7.15578E+04-5.06508E+04 3.77511E+03-8.24914E+04 4.04816E-09-6.62351E-09
 -1       558-7.85262E+04-4.56877E+04 1.59174E+03-7.56674E+04 5.13683E-09 3.46427E-09
 -1       559-7.22121E+04-5.19092E+04 7.79623E+02-8.27069E+04 1.26511E-09-3.41174E-10
 -1       560-7.85656E+04-4.57315E+04 3.48548E+02-7.56242E+04 4.49290E-10-6.00267E-11
 -1       561-7.23127E+04-5.19475E+04 1.63830E+02-8.27796E+04 7.59428E-11-1.15786E-09
 -1       562-7.86018E+04-4.57003E+04 5.87623E+01-7.56494E+04 4.90218E-10 6.98719E-10
 -1       563-7.23558E+04-5.19293E+04-3.95653E+00-8.28112E+04 5.69344E-10 1.15961E-10
 -1       564-7.86215E+04-4.56809E+04-7.29134E+01-7.56658E+04 8.48104E-10-1.04478E-09
 -1       565-7.23839E+04-5.19196E+04-1.86825E+02-8.28270E+04 3.86945E-09 7.71115E-09
 -1       566-7.86169E+04-4.56702E+04-3.99054E+02-7.56699E+04 3.96767E-10 7.22594E-10
 -1       567-7.24591E+04-5.19579E+04-8.82465E+02-8.28219E+04 2.62958E-10-2.50111E-10
 -1       568-7.85548E+04-4.57977E+04-1.81243E+03-7.56070E+04 2.15550E-10-1.12323E-10
 -1       569-7.34661E+04-5.30382E+04-4.27511E+03-8.25465E+04-3.63798E-12-6.41194E-10
 -1       570-7.81676E+04-4.90615E+04-8.70519E+03-7.42358E+04 2.58296E-10 5.99584E-10
 -1       571 1.01352E+05 4.82046E+03 7.30018E+03-2.58848E+04-2.54659E-11 3.91879E-10
 -1       572 1.02462E+05 1.65599E+03 3.58242E+03-2.84835E+04 2.81943E-11-4.71800E-10
 -1       573 1.01806E+05 3.79322E+02 1.59306E+03-2.58164E+04-6.88942E-11 4.24052E-10
 -1       574 1.01939E+05 1.19271E+02 7.99196E+02-2.85599E+04-2.03727E-10-1.59571E-09
 -1       575 1.01858E+05 1.17127E+01 3.77746E+02-2.58075E+04-3.14913E-11-5.74801E-10
 -1       576 1.01871E+05 2.58866E-01 1.92958E+02-2.85699E+04 1.38741E-10 1.74759E-09
 -1       577 1.01866E+05-6.01800E+00 9.64641E+01-2.58064E+04 6.98037E-11-1.72577E-10
 -1       578 1.01863E+05-4.25232E+00 5.51485E+01-2.85711E+04 1.81899E-11-3.34694E-10
 -1       579 1.01871E+05-5.34268E+00 3.86942E+01-2.58064E+04-2.68301E-11-1.80080E-10
 -1       580 1.01868E+05-4.88927E+00 4.40654E+01-2.85694E+04 2.02590E-10 6.49379E-10
 -1       581 1.01876E+05-4.90233E+00 6.91468E+01-2.58080E+04-2.50566E-10 4.01997E-10
 -1       582 1.01889E+05 1.09029E+01 1.37595E+02-2.85537E+04 2.15550E-10-1.81444E-10
 -1       583 1.01877E+05 5.18035E+01 2.69240E+02-2.58221E+04 1.10049E-10-1.66654E-09
 -1       584 1.01989E+05 2.63942E+02 6.03674E+02-2.84341E+04-6.38465E-10-1.16614E-09
 -1       585 1.01812E+05 7.94542E+02 1.22796E+03-2.59279E+04 1.05047E-10-5.18412E-11
 -1       586 7.38570E+02 4.34921E+04 1.38361E+03-6.29943E+04 1.73713E-10-3.44244E-10
 -1       587 4.12288E+02 4.37358E+04 1.38872E+03-6.94979E+04 6.01176E-10-1.01602E-09
 -1       588 5.28597E+02 4.34772E+04 2.04828E+03-6.29132E+04 1.49612E-10-1.20792E-09
 -1       589 1.97572E+03 4.42573E+04 4.25088E+03-6.95218E+04 6.63931E-10-1.53508E-09
 -1       590 5.62500E+03 4.29575E+04 8.50194E+03-6.29694E+04 2.05773E-10-3.68573E-10
 -1       591-4.64455E+04-1.58630E+04-9.09710E+03-2.37823E+04 1.90710E-10 7.62157E-10
 -1       592-4.67775E+04-1.47690E+04-4.46930E+03-2.64356E+04-4.94026E-10-3.09910E-10
 -1       593-4.67257E+04-1.25550E+04-1.89662E+03-2.53029E+04-2.61923E-09-7.68932E-09
 -1       594-4.58025E+04-1.35502E+04-9.28169E+02-2.65919E+04 3.50155E-10 1.66731E-10
 -1       595-4.67695E+04-1.24363E+04-4.27472E+02-2.53699E+04-1.61094E-10 2.69779E-10
 -1       596-4.57293E+04-1.35027E+04-2.16846E+02-2.65851E+04-2.27942E-10 2.59888E-10
 -1       597-4.67778E+04-1.24428E+04-1.18108E+02-2.53703E+04 1.04296E-09 7.72502E-11
 -1       598-4.57221E+04-1.35034E+04-9.45934E+01-2.65819E+04 4.23415E-09 4.41059E-09
 -1       599-4.67774E+04-1.24429E+04-1.20146E+02-2.53700E+04 1.31030E-09 5.38876E-10
 -1       600-4.57292E+04-1.35031E+04-2.22334E+02-2.65846E+04-1.79853E-10 2.09229E-09
 -1       601-4.67677E+04-1.24364E+04-4.38860E+02-2.53692E+04-9.00400E-11 1.26590E-09
 -1       602-4.58047E+04-1.35513E+04-9.53653E+02-2.65900E+04-1.48930E-11 4.72255E-10
 -1       603-4.67214E+04-1.25600E+04-1.94868E+03-2.53011E+04-2.83762E-09-5.46902E-09
 -1       604-4.68156E+04-1.47937E+04-4.59189E+03-2.64174E+04-6.58929E-10-4.12001E-10
 -1       605-4.64230E+04-1.59667E+04-9.34620E+03-2.37483E+04-1.23237E-10 3.44698E-10
 -1       606 3.39103E+04-4.03038E+03-6.09890E+03 9.96885E+03-1.91358E-09-8.43556E-10
 -1       607 3.29698E+04-1.38438E+03-2.99237E+03 1.08672E+04-5.59339E-10-1.69530E-09
 -1       608 3.35229E+04-3.16694E+02-1.33057E+03 9.90290E+03 1.43427E-09-7.49367E-10
 -1       609 3.33978E+04-9.64066E+01-6.66664E+02 1.09408E+04-8.05358E-10-3.78350E-10
 -1       610 3.34724E+04-6.02924E+00-3.14156E+02 9.89434E+03-2.52885E-09-1.22702E-09
 -1       611 3.34490E+04 5.65295E+00-1.58176E+02 1.09503E+04-3.79714E-09 2.48747E-10
 -1       612 3.34628E+04 1.01674E+01-7.50216E+01 9.89332E+03-1.42018E-09-1.28125E-10
 -1       613 3.34549E+04 9.68311E+00-3.46297E+01 1.09516E+04-2.83956E-09-1.20383E-09
 -1       614 3.34594E+04 8.47999E+00-1.01745E+01 9.89304E+03 5.16138E-11-1.21020E-09
 -1       615 3.34554E+04 9.54751E+00 9.02942E+00 1.09517E+04 2.90902E-09-1.53955E-09
 -1       616 3.34567E+04 9.84613E+00 3.23188E+01 9.89313E+03-1.33946E-09-7.16454E-10
 -1       617 3.34608E+04 2.15543E+01 7.63454E+01 1.09514E+04-1.42336E-10-2.82739E-10
 -1       618 3.34501E+04 4.65374E+01 1.55955E+02 9.89332E+03-6.08566E-10-5.30235E-10
 -1       619 3.35110E+04 1.73735E+02 3.52866E+02 1.09499E+04-1.59000E-09-9.98170E-10
 -1       620 3.34042E+04 4.85212E+02 7.20075E+02 9.89435E+03 1.23578E-10-1.43859E-09
 -1       621 6.78408E+02 1.04153E+05 1.73704E+03-9.51830E+03-7.72957E-10 1.62049E-09
 -1       622 2.61954E+02 1.04484E+05 1.49284E+03-1.12298E+04-8.25025E-10 1.70974E-09
 -1       623 1.61467E+02 1.04219E+05 1.90224E+03-9.52755E+03-8.16954E-10 2.90129E-09
 -1       624 1.07965E+03 1.04979E+05 3.71311E+03-1.11824E+04-7.30779E-10-1.65414E-09
 -1       625 3.32074E+03 1.03663E+05 7.11287E+03-9.56536E+03-6.86668E-10-3.57090E-09
 -1       626 4.88160E+04 1.61080E+04-2.43833E+03 3.29918E+04-2.84217E-10-1.04228E-09
 -1       627 4.75488E+04 1.79793E+04-1.15569E+03 3.36674E+04 3.46904E-09 4.53747E-09
 -1       628 4.88811E+04 1.73118E+04-4.85161E+02 3.23971E+04 1.14369E-09-2.82000E-10
 -1       629 4.77254E+04 1.84861E+04-2.32666E+02 3.36318E+04-7.11680E-11 4.84384E-10
 -1       630 4.88794E+04 1.73953E+04-1.02214E+02 3.23488E+04 5.07043E-10-6.92779E-10
 -1       631 4.77390E+04 1.85237E+04-4.52183E+01 3.36336E+04-2.09002E-09-3.22871E-10
 -1       632 4.88757E+04 1.73976E+04-1.12434E+01 3.23450E+04 3.03316E-10 6.64318E-09
 -1       633 4.77406E+04 1.85251E+04 1.46987E+01 3.36348E+04 1.70735E-09 5.07072E-10
 -1       634 4.88724E+04 1.73948E+04 4.82958E+01 3.23447E+04 7.57154E-11-1.02659E-10
 -1       635 4.77467E+04 1.85265E+04 1.13732E+02 3.36363E+04 1.07454E-09-1.30854E-10
 -1       636 4.88674E+04 1.74006E+04 2.37965E+02 3.23407E+04-3.42425E-10-5.82418E-10
 -1       637 4.78038E+04 1.85934E+04 5.32840E+02 3.36254E+04 1.48977E-09 1.56467E-09
 -1       638 4.88547E+04 1.76020E+04 1.10541E+03 3.22531E+04-4.36353E-09-1.36272E-08
 -1       639 4.83651E+04 1.95918E+04 2.63189E+03 3.33775E+04-6.82803E-10 1.30842E-09
 -1       640 4.88844E+04 2.04788E+04 5.55367E+03 3.10601E+04-2.35673E-10 1.06820E-09
 -1       641 3.04217E+02 1.02834E+03-2.37883E+03-2.59454E+01-2.22588E-09 5.30463E-10
 -1       642-7.25388E+02-1.19037E+03-1.68159E+03 1.05494E+02-1.70128E-09 1.68572E-09
 -1       643-9.29550E+01 1.61129E+02-6.13315E+02-2.58102E+01-1.54417E-09 1.41924E-09
 -1       644-2.62757E+02-1.85990E+02-3.81296E+02 1.05358E+02 4.43534E-12-6.52847E-10
 -1       645-1.58457E+02 2.47840E+01-1.47039E+02-2.58099E+01 2.25573E-10 1.22335E-09
 -1       646-1.85030E+02-2.62558E+01-7.01158E+01 1.05359E+02-1.09702E-08 1.74477E-09
 -1       647-1.70700E+02 1.52269E+00-4.61638E-01-2.58112E+01-2.10077E-06 2.00044E-09
 -1       648-1.63276E+02 1.33531E+01 6.41782E+01 1.05357E+02-4.18911E-06 3.55791E-09
 -1       649-1.80216E+02-1.47989E+01 1.45944E+02-2.58077E+01-2.10033E-06 1.96794E-09
 -1       650-1.09535E+02 1.14080E+02 3.53578E+02 1.05313E+02-3.63770E-09 1.39445E-09
 -1       651-2.24435E+02-9.91447E+01 6.15519E+02-2.57676E+01-4.83150E-10 1.30257E-09
 -1       652 1.94057E+02 7.35441E+02 1.52295E+03 1.05124E+02 3.06210E-10 1.89090E-10
 -1       653-4.83788E+02-6.35707E+02 2.42645E+03-2.56182E+01 2.44990E-09 4.71118E-10
 -1       654 2.02245E+03 4.69481E+03 6.63663E+03 1.04310E+02-3.30887E-09 8.07177E-10
 -1       655-2.05270E+03-4.05534E+03 9.38018E+03-2.49554E+01 1.11703E-09-4.74756E-10
 -1       656 3.03327E+03-1.22801E+05-1.45679E+04 3.94303E+03-2.61025E-10-4.55714E-09
 -1       657-4.59605E+03-1.28040E+05-1.05478E+04 1.39061E+04-1.16916E-09-3.48064E-09
 -1       658 5.68438E+02-1.24679E+05-6.75479E+03 3.91984E+03 1.27223E-10-1.49959E-09
 -1       659-4.20698E+03-1.27809E+05-9.84251E+03 1.39192E+04-1.50794E-09-1.98898E-09
 -1       660 2.73330E+03-1.23037E+05-1.32237E+04 3.93012E+03-3.61069E-10-8.87724E-10
 -1       661 1.19274E+05 1.53757E+04 9.73639E+03 4.65905E+04-1.09821E-10-3.12002E-09
 -1       662 1.21488E+05 2.26533E+04 6.10409E+03 4.79843E+04 3.23331E-09 1.48202E-09
 -1       663 1.20930E+05 1.74909E+04 2.29808E+03 4.63815E+04-6.79080E-10 7.96263E-10
 -1       664 1.19582E+05 1.98502E+04 1.25690E+03 4.83817E+04-1.47054E-09 3.15481E-10
 -1       665 1.21114E+05 1.77137E+04 5.38576E+02 4.63671E+04 3.09910E-09 5.67297E-09
 -1       666 1.19371E+05 1.95638E+04 2.91421E+02 4.84101E+04-8.65583E-10 2.75122E-11
 -1       667 1.21135E+05 1.77381E+04 1.63811E+02 4.63675E+04-7.37283E-09 8.48688E-10
 -1       668 1.19351E+05 1.95386E+04 1.54283E+02 4.84107E+04-4.30769E-09 1.64911E-09
 -1       669 1.21133E+05 1.77364E+04 2.17706E+02 4.63673E+04-5.86439E-10 1.19070E-09
 -1       670 1.19388E+05 1.95825E+04 4.40100E+02 4.84099E+04 4.67021E-09-1.81174E-09
 -1       671 1.21098E+05 1.76978E+04 8.40927E+02 4.63671E+04 5.04144E-10 2.59990E-09
 -1       672 1.19724E+05 2.00345E+04 1.97979E+03 4.83644E+04-4.56566E-10-1.34060E-09
 -1       673 1.20807E+05 1.73465E+04 3.62554E+03 4.63899E+04 4.06328E-09 4.28508E-09
 -1       674 1.22732E+05 2.44617E+04 9.63528E+03 4.77389E+04 5.05906E-11 2.34536E-10
 -1       675 1.18195E+05 1.40055E+04 1.53695E+04 4.67172E+04-1.34310E-09-5.64796E-10
 -1       676 2.17643E+02-1.16351E+05-1.29347E+03 1.58591E+01 2.98286E-10-7.86827E-10
 -1       677-4.90493E+02-1.16842E+05-1.56996E+03-7.45278E+01-2.58601E-09-6.05552E-09
 -1       678 1.75432E+02-1.16371E+05-2.07550E+03 1.57816E+01-1.69166E-09-2.65351E-09
 -1       679-2.20866E+03-1.17884E+05-4.69534E+03-7.43888E+01-4.78002E-09-1.82963E-09
 -1       680 1.55655E+03-1.15309E+05-7.24560E+03 1.55564E+01-1.06320E-09 4.37694E-11
 -1       681 2.56207E+05-7.54981E+03 1.74300E+04 4.17542E+02 1.08727E-10 3.43789E-10
 -1       682 2.63934E+05 8.73893E+03 1.23666E+04-1.79436E+03 6.10967E-10-2.22599E-10
 -1       683 2.59189E+05-1.18164E+03 4.51895E+03 5.63418E+01 9.87193E-10 7.02357E-10
 -1       684 2.60456E+05 1.36891E+03 2.85309E+03-1.29239E+03 7.32875E-10-3.67606E-10
 -1       685 2.59685E+05-1.84522E+02 1.17970E+03-8.44374E+01 4.51897E-10 9.32914E-10
 -1       686 2.59884E+05 2.20816E+02 7.31281E+02-1.16652E+03 5.23067E-10-2.37556E-10
 -1       687 2.59761E+05-3.41762E+01 4.09870E+02-6.95259E+01 3.69006E-10 1.15672E-09
 -1       688 2.59837E+05 8.29999E+01 4.26958E+02-1.35861E+03 3.42217E-10 2.48349E-10
 -1       689 2.59733E+05-4.71659E+01 5.47887E+02 1.07650E+02 3.20625E-10 2.32433E-10
 -1       690 2.60076E+05 3.40821E+02 1.16013E+03-1.95297E+03 1.72770E-09-5.76776E-10
 -1       691 2.59524E+05-2.93487E+02 1.89874E+03 5.24850E+02 8.81471E-10 1.83377E-10
 -1       692 2.61386E+05 2.22657E+03 4.77994E+03-3.21193E+03 1.36052E-09 5.24608E-10
 -1       693 2.58432E+05-1.93766E+03 7.38346E+03 1.36664E+03-2.83251E-10-1.63982E-09
 -1       694 2.68495E+05 1.45150E+04 2.07908E+04-5.72700E+03-3.85274E-09 1.29171E-09
 -1       695 2.52448E+05-1.25943E+04 2.84825E+04 3.04008E+03-2.57705E-09-3.87627E-09
 -1       696-4.65635E+03 1.82913E+05 1.06242E+04 3.71697E+02 3.31966E-11-2.48995E-10
 -1       697 5.11405E+03 1.87521E+05 7.02818E+03-1.68284E+03 4.17231E-11 4.18964E-10
 -1       698-4.52937E+02 1.84888E+05 1.71078E+03 2.00659E+02-6.82121E-11 3.09472E-10
 -1       699-1.23271E+03 1.84549E+05-1.24606E+03-1.51680E+03-9.95897E-11 1.06834E-09
 -1       700 1.68600E+03 1.85886E+05-3.58918E+03 2.05653E+02-7.13953E-11 3.67450E-10
 -1       701-2.35346E+05-2.21188E+04-2.83855E+04-9.33284E+04-4.57021E-10 2.09184E-10
 -1       702-2.50782E+05-4.76369E+04-1.96915E+04-8.77245E+04 1.67802E-10-1.48611E-09
 -1       703-2.40900E+05-3.25272E+04-6.65510E+03-9.16265E+04 3.58682E-10 1.22100E-09
 -1       704-2.44350E+05-3.55679E+04-4.15938E+03-8.96649E+04 5.75454E-10 1.45769E-09
 -1       705-2.41777E+05-3.41797E+04-1.55662E+03-9.13909E+04 2.51191E-10 1.16449E-09
 -1       706-2.43169E+05-3.37902E+04-9.23947E+02-9.00792E+04-2.31669E-10-8.37019E-12
 -1       707-2.42080E+05-3.43039E+04-4.33066E+02-9.12122E+04 4.19498E-10 5.03405E-10
 -1       708-2.42592E+05-3.39053E+04-3.51987E+02-9.05330E+04 8.64350E-10 3.37621E-10
 -1       709-2.42352E+05-3.40651E+04-4.11865E+02-9.09364E+04 4.39961E-10-9.71241E-11
 -1       710-2.42221E+05-3.46212E+04-8.29631E+02-9.10656E+04 1.98831E-10-2.56804E-10
 -1       711-2.42452E+05-3.35882E+04-1.41705E+03-9.06795E+04 2.97860E-11 7.86940E-10
 -1       712-2.42856E+05-3.66969E+04-3.75478E+03-9.12352E+04-6.98392E-10 2.05500E-09
 -1       713-2.41718E+05-3.19898E+04-6.01257E+03-9.07673E+04-1.95844E-07 7.31800E-08
 -1       714-2.48849E+05-4.74947E+04-1.78025E+04-8.93665E+04-3.91217E-07 1.45468E-07
 -1       715-2.36461E+05-2.27971E+04-2.56431E+04-9.25466E+04-1.97075E-07 7.31616E-08
 -1       716-3.85912E+04-1.18455E+03 2.37327E+03 1.47500E+02 4.85258E-09-2.98905E-09
 -1       717-3.50859E+04 1.35295E+03 2.12102E+03-1.60916E+03 2.26808E-09 2.68045E-10
 -1       718-3.78930E+04-1.89023E+02 5.49827E+02 3.60043E+02 9.96977E-10-6.00238E-10
 -1       719-3.61311E+04 2.07492E+02 6.23752E+02-1.99403E+03-4.91696E-10-6.41506E-10
 -1       720-3.75592E+04-3.04714E+01 1.41801E+02 5.32247E+02 5.35564E-10-9.33653E-12
 -1       721-3.66982E+04 3.87242E+01 2.75951E+02-2.28585E+03 1.71295E-09-8.52855E-10
 -1       722-3.73382E+04-1.14654E+01 1.82506E+02 6.51827E+02 9.44198E-10 1.48337E-09
 -1       723-3.70167E+04 7.56456E+01 4.10530E+02-2.46581E+03 3.18695E-08-7.28768E-10
 -1       724-3.72495E+04-6.11311E+01 6.67254E+02 7.12217E+02 9.90982E-06 2.18905E-08
 -1       725-3.69200E+04 4.81883E+02 1.52216E+03-2.52384E+03 1.97636E-05 4.47306E-08
 -1       726-3.74379E+04-4.15292E+02 2.60923E+03 7.09867E+02 9.90965E-06 2.17241E-08
 -1       727-3.55072E+04 3.10680E+03 6.46408E+03-2.45751E+03 3.61456E-08-3.60160E-10
 -1       728-3.86586E+04-2.68653E+03 1.02182E+04 6.45887E+02 1.90737E-09 1.36060E-09
 -1       729-2.74253E+04 1.98546E+04 2.81232E+04-2.28901E+03 2.27807E-10 4.72937E-10
 -1       730-4.55080E+04-1.71555E+04 3.95246E+04 5.41346E+02 1.92212E-09-3.91083E-10
 -1       731-6.62684E+03 9.14731E+04 1.40880E+04-3.24560E+03-2.55204E-09-1.34071E-09
 -1       732 7.92434E+03 1.04815E+05 1.18825E+04 1.09446E+04 7.25777E-10 2.89333E-10
 -1       733-1.33597E+03 9.64274E+04 5.12915E+03-2.42396E+03-2.76373E-10-6.09305E-10
 -1       734 4.05315E+03 9.99848E+04 6.53026E+03 9.98027E+03-9.56675E-11-1.78782E-09
 -1       735-2.70670E+03 9.62284E+04 6.69329E+03-2.28106E+03 5.51381E-10-9.45221E-10
 -1       736-2.67511E+05-3.88031E+04-2.37166E+04-1.11460E+05 1.10526E-08-8.74388E-09
 -1       737-2.59644E+05-2.57189E+04-8.52435E+03-7.09049E+04 3.66339E-08 9.45397E-09
 -1       738-2.49410E+05-4.45516E+04-4.70154E+03-1.08758E+05 7.87668E-09 3.16199E-08
 -1       739-2.72749E+05-1.87541E+04-1.70151E+03-7.33797E+04-1.30623E-08-5.97350E-09
 -1       740-2.54677E+05-4.55616E+04-2.14071E+03-1.09207E+05 6.08014E-09-2.13427E-08
 -1       741-2.43251E+05-1.90685E+04 5.75933E+03-7.18300E+04-1.64284E-08-2.24438E-08
 -1       742-2.78447E+05-4.45769E+04-5.66219E+03-1.09941E+05-1.08128E-09 4.60375E-10
 -1       743-2.10533E+05-2.72017E+04 1.08688E+04-7.84740E+04 2.35832E-09 1.25744E-08
 -1       744-2.86975E+05-3.77425E+04-5.95017E+03-1.02252E+05-3.73075E-09-1.84320E-09
 -1       745-2.15254E+05-4.30206E+04 6.63551E+03-9.88800E+04 1.23781E-08 7.74719E-10
 -1       746-2.74066E+05-2.85064E+04-2.38878E+03-8.98068E+04 1.74787E-08 3.83854E-08
 -1       747-2.34753E+05-5.51581E+04-9.71537E+02-1.15325E+05 2.08803E-09 7.50995E-09
 -1       748-2.68003E+05-2.52113E+04-3.68244E+03-8.61905E+04 1.73640E-08 8.64270E-09
 -1       749-2.30168E+05-5.62341E+04-6.85454E+03-1.08518E+05-6.82019E-09 1.14633E-08
 -1       750-2.78451E+05-2.75848E+04-1.97769E+04-9.64678E+04-7.43194E-09-1.14314E-08
 -1       751 1.01650E+06-5.83802E+04 1.35163E+05 1.39468E+03-1.11959E-08-4.22006E-10
 -1       752 1.07515E+06 6.75916E+04 9.56163E+04-1.78655E+03-1.01230E-09-5.43878E-10
 -1       753 1.03914E+06-9.15079E+03 3.50051E+04 3.24730E+02-1.89894E-10-4.65661E-10
 -1       754 1.04880E+06 1.05905E+04 2.20156E+04-4.56348E+02 1.14079E-09 6.06178E-10
 -1       755 1.04287E+06-1.43164E+03 9.01081E+03 6.45621E+01-3.64193E-10 3.75167E-10
 -1       756 1.04446E+06 1.67789E+03 5.38629E+03-1.31950E+02 6.31840E-10-3.62490E-10
 -1       757 1.04349E+06-2.45235E+02 2.64650E+03 3.29017E-01 3.13816E-07 7.10770E-10
 -1       758 1.04382E+06 4.35547E+02 2.11602E+03-5.43611E+01 6.23853E-07 2.17646E-10
 -1       759 1.04352E+06-1.90128E+02 2.15079E+03-1.30286E+01 1.60880E-07 2.79044E-10
 -1       760 1.04421E+06 1.20401E+03 3.95244E+03-4.85464E+01-3.01458E-07 1.86731E-10
 -1       761 1.04310E+06-1.01316E+03 6.42991E+03-5.48574E+00-1.51901E-07-4.40650E-10
 -1       762 1.04726E+06 7.47829E+03 1.55739E+04-1.01563E+02 6.33946E-11 2.19870E-10
 -1       763 1.04047E+06-6.45950E+03 2.47210E+04 3.99890E+01 2.68185E-09 1.51704E-09
 -1       764 1.06581E+06 4.77003E+04 6.74794E+04-3.36126E+02-1.48642E-10 9.84983E-10
 -1       765 1.02452E+06-4.11996E+04 9.53846E+04 2.29070E+02-7.07422E-10 6.65750E-10
 -1       766-2.27320E+04 9.18693E+04 5.26999E+04 4.77034E+03 3.01588E-09-1.58403E-09
 -1       767 2.73866E+04 1.17960E+05 3.98700E+04-2.06946E+04 1.02755E-08-9.60949E-10
 -1       768-4.57460E+03 1.00320E+05 1.78734E+04 4.71663E+03 4.43424E-09 1.73304E-09
 -1       769 1.40150E+04 1.20137E+05 2.32860E+04-2.20620E+04 1.29955E-09-8.13657E-10
 -1       770-9.51491E+03 8.98978E+04 1.91656E+04 6.13805E+03-3.27054E-09-9.15520E-10
 -1       771-5.68487E+05-1.14588E+05-1.88019E+04-2.46658E+05-3.52975E-09-7.96717E-09
 -1       772-5.66756E+05-1.14661E+05-9.23037E+03-2.54816E+05 5.20231E-10-4.43833E-10
 -1       773-5.69248E+05-1.07596E+05-3.92337E+03-2.49663E+05-7.23958E-10 2.41016E-11
 -1       774-5.64636E+05-1.12291E+05-1.91683E+03-2.55365E+05 1.95541E-10-3.56522E-10
 -1       775-5.69394E+05-1.07308E+05-8.85611E+02-2.49807E+05-1.54614E-10-6.50289E-10
 -1       776-5.64507E+05-1.12198E+05-4.47607E+02-2.55405E+05 2.58751E-10-1.33400E-09
 -1       777-5.69449E+05-1.07300E+05-2.44551E+02-2.49824E+05 3.25872E-09 5.20589E-09
 -1       778-5.64515E+05-1.12191E+05-1.92231E+02-2.55428E+05 7.53971E-10 9.80094E-10
 -1       779-5.69473E+05-1.07286E+05-2.43808E+02-2.49835E+05-1.79170E-10 4.05294E-10
 -1       780-5.64547E+05-1.12186E+05-4.47935E+02-2.55451E+05-5.18412E-10 1.72349E-10
 -1       781-5.69466E+05-1.07265E+05-8.84983E+02-2.49840E+05 2.08047E-09 7.25481E-09
 -1       782-5.64706E+05-1.12281E+05-1.92307E+03-2.55469E+05 4.79758E-11-8.50378E-11
 -1       783-5.69375E+05-1.07512E+05-3.93100E+03-2.49704E+05 1.72378E-10 1.28239E-10
 -1       784-5.66747E+05-1.14789E+05-9.26662E+03-2.55117E+05-3.59364E-10-6.39375E-10
 -1       785-5.68765E+05-1.14393E+05-1.88631E+04-2.46570E+05 1.86674E-10 4.95675E-10
 -1       786 8.75771E+04-2.47761E+03 1.14830E+04-8.11414E+02 1.14142E-10-3.30147E-10
 -1       787 9.16570E+04 3.47629E+03 7.30313E+03-2.88925E+03-1.10589E-10-3.71074E-10
 -1       788 8.92930E+04-2.47959E+02 2.97278E+03-8.05292E+02-7.38964E-13 3.21847E-10
 -1       789 8.97511E+04 3.29906E+02 1.64924E+03-2.89453E+03 1.63800E-09 5.77302E-10
 -1       790 8.94820E+04-2.64466E+01 7.54395E+02-8.06029E+02 2.70279E-09 5.62011E-10
 -1       791 8.95377E+04 3.08782E+01 4.03091E+02-2.89337E+03 2.44177E-09 1.47175E-09
 -1       792 8.95059E+04-3.38629E+00 2.07095E+02-8.06450E+02 2.71108E-09 1.98838E-10
 -1       793 8.95114E+04 3.86311E+00 1.37008E+02-2.89312E+03 1.30159E-09-2.73346E-11
 -1       794 8.95081E+04-1.86433E+00 1.26383E+02-8.06285E+02 6.84963E-11 4.91529E-10
 -1       795 8.95191E+04 1.31761E+01 1.91180E+02-2.89416E+03 2.21448E-10 2.80175E-10
 -1       796 8.94986E+04-1.14813E+01 3.30896E+02-8.05405E+02-1.58906E-10-1.14618E-10
 -1       797 8.96097E+04 1.40241E+02 7.07595E+02-2.89581E+03-1.36083E-10 6.77147E-11
 -1       798 8.94184E+04-1.05982E+02 1.26899E+03-8.04633E+02-3.01270E-12 1.57002E-10
 -1       799 9.04224E+04 1.48076E+03 3.11319E+03-2.88978E+03-5.02496E-10 6.46480E-10
 -1       800 8.86873E+04-1.05635E+03 4.89333E+03-8.11496E+02-2.03386E-10-4.94083E-10
 -1       801-2.97869E+03 9.10040E+04 1.39945E+04-9.73302E+04-3.88354E-09 4.62023E-10
 -1       802 6.53048E+03 9.56518E+04 1.47439E+04-3.46287E+05-1.59707E-09-1.10640E-09
 -1       803-8.96089E+02 9.13572E+04 1.65624E+04-9.70100E+04-5.30326E-09 2.62276E-09
 -1       804 1.78298E+04 1.02550E+05 3.53260E+04-3.46274E+05-2.87037E-09-1.92813E-09
 -1       805-1.18148E+04 8.41612E+04 5.31918E+04-9.73448E+04-2.02999E-09 1.75351E-09
 -1       806-8.89556E+04-2.43884E+04-7.46186E+03-4.19425E+04 9.16884E-11-2.32831E-10
 -1       807-8.89139E+04-2.25377E+04-3.53618E+03-4.43048E+04-1.77351E-10 3.57261E-10
 -1       808-8.89076E+04-2.05329E+04-1.48611E+03-4.35597E+04-7.54881E-11 1.00539E-09
 -1       809-8.81757E+04-2.11820E+04-7.17653E+02-4.46250E+04-2.72337E-10-2.50253E-11
 -1       810-8.89247E+04-2.02623E+04-3.24012E+02-4.36800E+04-4.01315E-11-6.93717E-10
 -1       811-8.81020E+04-2.10900E+04-1.62044E+02-4.46389E+04 2.82370E-10-1.19996E-09
 -1       812-8.89306E+04-2.02535E+04-8.40848E+01-4.36858E+04-3.32818E-11-6.61885E-10
 -1       813-8.80942E+04-2.10873E+04-6.09311E+01-4.46373E+04 2.31012E-10-2.58183E-10
 -1       814-8.89306E+04-2.02545E+04-6.92991E+01-4.36854E+04-3.87104E-11 9.47466E-10
 -1       815-8.80992E+04-2.10901E+04-1.22786E+02-4.46373E+04 3.50155E-11 1.90767E-10
 -1       816-8.89251E+04-2.02619E+04-2.39566E+02-4.36806E+04-3.76076E-10-1.02841E-09
 -1       817-8.81544E+04-2.11561E+04-5.27941E+02-4.46239E+04 2.57955E-10 6.41876E-10
 -1       818-8.89103E+04-2.04633E+04-1.09179E+03-4.35940E+04-2.29193E-10-1.60526E-10
 -1       819-8.87124E+04-2.21348E+04-2.59698E+03-4.43684E+04-7.08496E-10-1.19144E-10
 -1       820-8.89281E+04-2.33090E+04-5.47929E+03-4.24229E+04-1.23691E-10-1.27329E-11
 -1       821-9.43424E+04 2.62999E+03-1.21935E+04 8.94243E+02-1.10822E-09-3.30147E-10
 -1       822-9.86724E+04-3.69135E+03-7.75519E+03 3.19768E+03-5.89239E-10-6.84054E-10
 -1       823-9.61650E+04 2.62874E+02-3.15792E+03 8.77986E+02 1.03546E-09-4.72937E-10
 -1       824-9.66511E+04-3.49030E+02-1.75338E+03 3.21711E+03-2.04352E-11 4.80668E-10
 -1       825-9.63659E+04 2.82652E+01-8.05834E+02 8.74700E+02-2.05114E-09 5.26768E-10
 -1       826-9.64265E+04-3.08140E+01-4.37588E+02 3.22217E+03-3.46438E-09-4.54392E-10
 -1       827-9.63913E+04 4.31086E+00-2.38987E+02 8.72900E+02-1.92858E-09-3.79671E-10
 -1       828-9.64014E+04-2.79642E+00-1.84772E+02 3.22508E+03-2.54303E-09-8.88186E-10
 -1       829-9.63921E+04 3.93628E+00-2.10902E+02 8.71786E+02-1.06468E-10-1.22579E-09
 -1       830-9.64211E+04-2.42135E+01-3.64015E+02 3.22631E+03 1.32042E-09-2.54454E-09
 -1       831-9.63720E+04 2.35278E+01-6.58586E+02 8.71666E+02-1.34042E-09-1.28531E-09
 -1       832-9.66041E+04-2.82244E+02-1.42636E+03 3.22543E+03 2.60847E-10-1.18905E-09
 -1       833-9.62090E+04 2.14316E+02-2.56586E+03 8.72689E+02 3.12156E-09-1.54182E-09
 -1       834-9.82467E+04-2.99683E+03-6.29985E+03 3.21639E+03 4.85113E-09-1.08116E-10
 -1       835-9.47288E+04 2.13729E+03-9.90435E+03 8.80914E+02 2.44233E-09-1.13960E-09
 -1       836-4.02206E+03 2.33344E+05 1.96979E+04-6.62483E+03-3.44698E-10 2.38742E-11
 -1       837 6.34883E+03 2.40481E+05 1.52859E+04-2.34278E+04 4.17799E-11-8.99490E-10
 -1       838-9.68228E+02 2.35643E+05 1.15159E+04-6.60727E+03-4.99199E-10 1.23471E-10
 -1       839 8.65020E+03 2.41876E+05 1.94725E+04-2.34278E+04 3.44471E-10-1.15620E-09
 -1       840-5.81425E+03 2.31948E+05 2.76731E+04-6.62482E+03-5.69344E-10-5.06589E-10
 -1       841-8.94700E+02 1.11599E+03-3.19805E+03-9.01265E+02 2.09411E-10-5.49790E-10
 -1       842-2.63689E+03-1.76996E+03-2.21972E+03-2.83233E+02-1.49427E-10 1.47338E-10
 -1       843-1.54706E+03-3.47165E+01-7.48823E+02-6.84250E+02 4.32124E-10 4.39286E-10
 -1       844-1.87909E+03-4.37298E+02-4.66307E+02-5.33288E+02 2.36842E-09 7.25009E-10
 -1       845-1.65242E+03-2.15805E+02-1.70410E+02-6.51555E+02 1.85558E-11 6.75975E-10
 -1       846-1.75595E+03-2.26551E+02-9.30238E+01-5.70917E+02-1.36955E-09 2.82885E-11
 -1       847-1.67019E+03-2.45331E+02-2.57849E+01-6.46676E+02-5.03882E-07 1.87810E-07
 -1       848-1.73088E+03-1.85654E+02 1.19187E+01-5.77464E+02-1.00589E-06 3.78341E-07
 -1       849-1.67749E+03-2.56677E+02 5.25686E+01-6.45020E+02-8.45515E-07 3.16648E-07
 -1       850-1.69622E+03-1.29767E+02 1.50516E+02-5.86668E+02-6.82476E-07 2.56314E-07
 -1       851-1.70485E+03-3.01188E+02 2.66285E+02-6.37484E+02-3.42253E-07 1.26847E-07
 -1       852-1.50484E+03 1.94549E+02 7.22665E+02-6.44954E+02-1.07606E-09-1.21126E-10
 -1       853-1.86883E+03-5.80799E+02 1.15807E+03-5.86805E+02-1.72938E-09-1.12323E-10
 -1       854-3.31153E+02 2.25390E+03 3.43252E+03-1.03229E+03 1.21091E-10-8.80561E-10
 -1       855-2.87832E+03-2.35919E+03 4.94404E+03-2.50641E+02 2.77169E-10 3.68345E-10
 -1       856-1.13326E+05 2.51007E+03-1.16420E+04 1.79162E+03-1.73577E-09-1.12959E-09
 -1       857-1.17458E+05-3.52019E+03-7.40331E+03 6.44816E+03-2.63594E-09-1.05774E-09
 -1       858-1.15067E+05 2.51490E+02-3.01467E+03 1.76481E+03-5.04690E-09-1.24010E-09
 -1       859-1.15532E+05-3.27910E+02-1.67260E+03 6.48102E+03-4.25484E-09-1.17117E-09
 -1       860-1.15260E+05 2.83482E+01-7.67027E+02 1.75852E+03 4.53042E-10-1.08503E-09
 -1       861-1.15319E+05-2.31647E+01-4.12814E+02 6.48977E+03 2.66263E-09-8.73030E-10
 -1       862-1.15284E+05 5.82143E+00-2.18512E+02 1.75602E+03 8.58560E-09-1.30299E-09
 -1       863-1.15295E+05 4.41801E+00-1.56582E+02 6.49285E+03 8.52609E-09-1.86198E-09
 -1       864-1.15286E+05 4.90952E+00-1.62762E+02 1.75544E+03 5.50286E-09-1.00265E-09
 -1       865-1.15308E+05-1.05363E+01-2.66584E+02 6.49181E+03 5.83078E-09-1.21101E-09
 -1       866-1.15271E+05 1.84303E+01-4.74601E+02 1.75706E+03 4.87717E-10-1.79055E-09
 -1       867-1.15436E+05-1.96155E+02-1.02270E+03 6.48577E+03-2.29420E-10-1.03842E-09
 -1       868-1.15154E+05 1.54155E+02-1.83842E+03 1.76150E+03 1.47452E-09-2.15823E-09
 -1       869-1.16608E+05-2.14132E+03-4.51113E+03 6.45850E+03-1.82172E-09-1.40722E-09
 -1       870-1.14093E+05 1.52970E+03-7.09320E+03 1.78452E+03 2.91209E-09-5.62522E-10
 -1       871-1.12553E+03-1.09564E+04-2.12414E+03 3.21393E+04-1.92540E-09-3.78805E-10
 -1       872-3.46953E+02-1.13384E+04-6.19103E+02 3.77281E+04-2.63844E-09-1.71087E-09
 -1       873 3.53821E+01-1.11897E+04 6.32167E+02 3.20770E+04-1.35856E-09-5.25949E-09
 -1       874 7.49433E+02-1.06830E+04 2.34931E+03 3.77551E+04-2.06091E-09-9.19363E-09
 -1       875 2.41270E+03-1.16213E+04 5.06351E+03 3.21138E+04-1.51522E-09-4.08625E-09
 -1       876 1.38843E+05 1.76584E+04 1.30953E+04 5.45901E+04 2.09525E-10 6.42103E-10
 -1       877 1.41745E+05 2.75266E+04 8.20996E+03 5.65567E+04 2.19035E-09 4.02906E-10
 -1       878 1.41070E+05 2.05039E+04 3.09012E+03 5.43090E+04-1.49123E-09-2.37696E-09
 -1       879 1.39181E+05 2.37552E+04 1.68916E+03 5.70890E+04-1.44638E-09-1.00192E-09
 -1       880 1.41315E+05 2.08050E+04 7.21264E+02 5.42909E+04-6.63135E-10-4.85613E-10
 -1       881 1.38899E+05 2.33677E+04 3.85441E+02 5.71239E+04-1.89200E-09-1.17576E-09
 -1       882 1.41343E+05 2.08393E+04 2.06919E+02 5.42925E+04-6.13505E-09-2.38558E-10
 -1       883 1.38872E+05 2.33306E+04 1.78209E+02 5.71219E+04-1.74572E-09-5.13513E-10
 -1       884 1.41341E+05 2.08394E+04 2.33842E+02 5.42933E+04 1.61731E-09 8.42178E-10
 -1       885 1.38910E+05 2.33742E+04 4.59619E+02 5.71198E+04 5.01526E-09-8.45105E-10
 -1       886 1.41305E+05 2.07998E+04 8.72239E+02 5.42932E+04 2.41724E-09 4.12456E-10
 -1       887 1.39257E+05 2.38419E+04 2.04985E+03 5.70729E+04 3.14486E-11-4.42242E-11
 -1       888 1.41004E+05 2.04358E+04 3.75248E+03 5.43166E+04 3.85594E-09 1.49339E-09
 -1       889 1.42371E+05 2.84234E+04 9.97176E+03 5.64259E+04 2.47931E-09-2.88651E-10
 -1       890 1.38300E+05 1.69783E+04 1.59057E+04 5.46558E+04-1.84468E-09-1.97997E-09
 -1       891 4.86406E+02-6.23063E+04-2.44645E+03 7.60872E+03-1.93870E-09 1.82354E-10
 -1       892-8.08504E+02-6.31803E+04-1.94883E+03 2.70537E+04-2.51333E-09 1.64277E-11
 -1       893 1.27375E+02-6.25825E+04-1.55162E+03 7.57944E+03 5.24835E-10 7.66590E-10
 -1       894-1.24084E+03-6.34410E+04-2.73445E+03 2.70517E+04-1.89743E-09-1.53346E-09
 -1       895 8.22190E+02-6.20439E+04-3.94301E+03 7.61067E+03-5.53655E-10 9.53378E-10
 -1       896 2.80782E+05-1.90621E+03 4.40663E+03 3.04521E+02 1.93538E-10 7.98764E-10
 -1       897 2.82694E+05 2.20640E+03 3.12407E+03-4.10647E+02 4.80682E-12 7.01164E-10
 -1       898 2.81527E+05-2.98650E+02 1.14586E+03 1.58564E+02 3.39606E-10 4.53610E-10
 -1       899 2.81827E+05 3.46206E+02 7.28978E+02-1.86791E+02-3.14012E-10 4.10779E-10
 -1       900 2.81650E+05-4.73560E+01 3.13509E+02 8.06624E+01 1.06271E-10 2.26819E-10
 -1       901 2.81686E+05 6.01476E+01 2.18398E+02-6.12430E+01-4.87492E-10 1.31958E-10
 -1       902 2.81667E+05-1.27711E+01 1.65993E+02 3.30139E+01-1.94720E-11 1.12311E-10
 -1       903 2.81683E+05 5.03403E+01 2.44771E+02 2.66501E+01-4.42730E-11 6.12701E-11
 -1       904 2.81653E+05-3.75543E+01 3.88430E+02-7.23219E+00-2.32987E-10 1.22853E-10
 -1       905 2.81801E+05 2.73244E+02 8.62100E+02 1.18961E+02 2.22389E-10-3.38787E-11
 -1       906 2.81549E+05-2.35543E+02 1.47195E+03-5.92987E+01 2.75819E-10-1.94177E-10
 -1       907 2.82521E+05 1.74544E+03 3.62167E+03 2.59974E+02 8.50847E-10-5.20686E-11
 -1       908 2.80932E+05-1.50870E+03 5.76310E+03-1.48247E+02 3.39945E-10-4.89536E-10
 -1       909 2.86871E+05 1.11439E+04 1.57584E+04 5.20522E+02 7.20902E-10-9.15179E-10
 -1       910 2.77198E+05-9.62638E+03 2.22661E+04-3.19845E+02 1.12842E-09-8.84029E-10
 -1       911 2.43097E+04 1.58835E+02-5.32101E+02-6.70761E+02 4.41005E-10 6.31246E-10
 -1       912 2.49496E+04-1.90881E+02-2.21119E+02 2.70745E+03 5.05878E-10 1.95617E-09
 -1       913 2.44878E+04 2.97565E+01-1.36615E+02-5.94245E+02 1.05175E-09 2.63348E-09
 -1       914 2.46697E+04-3.43152E+01-4.71432E+01 2.59546E+03 3.63855E-10 3.66170E-09
 -1       915 2.45807E+04 8.66722E+00-1.81081E+01-5.58782E+02-1.83366E-09 3.53529E-09
 -1       916 2.45929E+04-6.02394E+00 9.92830E+00 2.56526E+03-3.94613E-09 4.33763E-09
 -1       917 2.45622E+04 3.10733E+00 3.79816E+01-5.64050E+02-1.62515E-09 3.39078E-09
 -1       918 2.47610E+04 1.29214E+01 1.32864E+02 2.61640E+03 4.89251E-10 3.55785E-09
 -1       919 2.44165E+04-1.30441E+01 1.62120E+02-6.09915E+02-6.22990E-10 2.11701E-09
 -1       920 2.52513E+04 1.27048E+02 5.55671E+02 2.75049E+03-1.82998E-09 1.51573E-09
 -1       921 2.40827E+04-1.18555E+02 6.82904E+02-6.98140E+02-3.63229E-11-7.28477E-10
 -1       922 2.63999E+04 9.05016E+02 2.15522E+03 2.97311E+03 4.33917E-09-2.04295E-09
 -1       923 2.32871E+04-8.04070E+02 2.83645E+03-8.32615E+02 2.01496E-09-4.57953E-09
 -1       924 2.99605E+04 5.96231E+03 8.78897E+03 3.31034E+03 4.95697E-09-7.26152E-09
 -1       925 2.05530E+04-5.19351E+03 1.13053E+04-1.03566E+03 3.97216E-09-9.82436E-09
 -1       926-2.53027E+05 5.64769E+03-1.31163E+04 4.43298E+03-2.45058E-09-1.30258E-08
 -1       927-2.58217E+05-6.49892E+03-9.16747E+03-7.69829E+03 1.46797E-08-1.46475E-08
 -1       928-2.55857E+05 8.75314E+02-3.51065E+03 3.84293E+03 6.35509E-10-1.11972E-08
 -1       929-2.53464E+05-9.41745E+02-1.57987E+03-5.15586E+03-1.16343E-08-1.10402E-08
 -1       930-2.57721E+05 5.06442E+01-1.26900E+03 1.89005E+03-2.20462E-09-5.62318E-09
 -1       931-2.51189E+05-2.02077E+01 4.52083E+02-6.05196E+02 2.87289E-09-3.31568E-09
 -1       932-2.58085E+05-8.24600E+01-6.19651E+02-7.07676E+02 4.73483E-09 1.46444E-09
 -1       933-2.52136E+05 1.03622E+02 7.63272E+02 4.24576E+03-1.60929E-09 5.11485E-09
 -1       934-2.56800E+05-5.21983E+01 6.24805E+01-2.96055E+03 1.52698E-09 7.51959E-09
 -1       935-2.54515E+05 2.45376E+02 9.38575E+02 7.55585E+03 3.41004E-10 1.07726E-08
 -1       936-2.55770E+05-1.73969E+02 1.32772E+03-4.01805E+03-1.50344E-09 1.05402E-08
 -1       937-2.54392E+05 1.58932E+03 3.36817E+03 8.08788E+03 7.92361E-09 1.21391E-08
 -1       938-2.56936E+05-1.38429E+03 5.10758E+03-3.49271E+03 1.00624E-08 8.60814E-09
 -1       939-2.48235E+05 1.03424E+04 1.48639E+04 5.66282E+03 5.26346E-09 8.22706E-09
 -1       940-2.61870E+05-8.96320E+03 1.97516E+04-1.59262E+03-9.40418E-10 3.26600E-09
 -1       941 1.66285E+06-8.34186E+04 1.93265E+05 1.78992E+02-1.55620E-07 5.82077E-10
 -1       942 1.74650E+06 9.65892E+04 1.36669E+05 5.12943E+01-3.21052E-07-1.61526E-09
 -1       943 1.69515E+06-1.30794E+04 5.00625E+04 1.28416E+02-2.65187E-07 2.89219E-10
 -1       944 1.70894E+06 1.51385E+04 3.14916E+04 1.09370E+02-2.05322E-07-8.16726E-10
 -1       945 1.70049E+06-2.04720E+03 1.29094E+04 1.20931E+02-1.25933E-07 1.12414E-09
 -1       946 1.70274E+06 2.40402E+03 7.74741E+03 1.17873E+02-5.57356E-08 2.33626E-09
 -1       947 1.70137E+06-3.55308E+02 3.86608E+03 1.19917E+02 9.26750E-09 1.93847E-09
 -1       948 1.70184E+06 6.58274E+02 3.20164E+03 1.18280E+02 7.67264E-08 1.49029E-09
 -1       949 1.70140E+06-3.02665E+02 3.39250E+03 1.20524E+02 3.15686E-07-2.66311E-09
 -1       950 1.70250E+06 1.95141E+03 6.37783E+03 1.12564E+02 5.57588E-07 2.07001E-09
 -1       951 1.70070E+06-1.64754E+03 1.04441E+04 1.25632E+02 1.65540E-06-3.83079E-09
 -1       952 1.70746E+06 1.21668E+04 2.53410E+04 7.35180E+01 2.75076E-06-2.71029E-10
 -1       953 1.69641E+06-1.05099E+04 4.02418E+04 1.59568E+02 1.37448E-06 3.53612E-09
 -1       954 1.73764E+06 7.76114E+04 1.09822E+05-1.88312E+02 2.99883E-10 1.49885E-09
 -1       955 1.67045E+06-6.70299E+04 1.55269E+05 3.87437E+02-9.93517E-09 4.58385E-10
 -1       956-8.57607E+04-1.51304E+03-3.22078E+03 1.16407E+04-1.52204E-09-3.99496E-10
 -1       957-8.63533E+04-4.83439E+02-1.62831E+03 1.35587E+04-5.96401E-10 3.38559E-10
 -1       958-8.60243E+04-5.57083E+01-7.32255E+02 1.15715E+04 9.91349E-10-8.58790E-10
 -1       959-8.60766E+04-1.04208E+01-3.72689E+02 1.36345E+04-8.76526E-10-1.91505E-09
 -1       960-8.60508E+04 1.06213E+01-1.80816E+02 1.15646E+04-1.85491E-09-2.84103E-10
 -1       961-8.60546E+04 1.07542E+01-9.52952E+01 1.36421E+04-3.64219E-09-1.71212E-10
 -1       962-8.60565E+04 1.03891E+01-5.33422E+01 1.15639E+04-1.27875E-09-2.00316E-10
 -1       963-8.60539E+04 1.13666E+01-4.07607E+01 1.36430E+04-2.37600E-09 8.53561E-10
 -1       964-8.60581E+04 1.09833E+01-4.69019E+01 1.15637E+04-6.64613E-10-1.32673E-10
 -1       965-8.60571E+04 1.22678E+01-7.89502E+01 1.36429E+04 9.38385E-10-9.28594E-10
 -1       966-8.60559E+04 1.25120E+01-1.46994E+02 1.15640E+04-1.79088E-09-3.66072E-11
 -1       967-8.60775E+04-3.45185E+00-3.01774E+02 1.36388E+04-3.41061E-12 3.96767E-10
 -1       968-8.60365E+04-3.98336E+01-5.92105E+02 1.15678E+04-4.94708E-09-2.63185E-10
 -1       969-8.63036E+04-3.84825E+02-1.31677E+03 1.35977E+04-1.08606E-08 1.09708E-11
 -1       970-8.58250E+04-1.21762E+03-2.60422E+03 1.16056E+04-4.43606E-09-9.16543E-10
 -1       971-1.63432E+05 2.06226E+03-9.56935E+03 1.80470E+03-2.38083E-09-6.38920E-10
 -1       972-1.66820E+05-2.89289E+03-6.08548E+03 6.53207E+03-1.78233E-09-3.23212E-10
 -1       973-1.64863E+05 2.06434E+02-2.47976E+03 1.77305E+03-2.69017E-09-1.18393E-09
 -1       974-1.65239E+05-2.68586E+02-1.37837E+03 6.57257E+03-9.71454E-11 2.71854E-10
 -1       975-1.65021E+05 2.34429E+01-6.37968E+02 1.76402E+03-2.20973E-09-1.80978E-09
 -1       976-1.65066E+05-1.77955E+01-3.54524E+02 6.58575E+03-8.88136E-09 3.17328E-10
 -1       977-1.65041E+05 5.42499E+00-2.09671E+02 1.75983E+03-3.72665E-10-1.27277E-09
 -1       978-1.65049E+05 3.50487E+00-1.90635E+02 6.59128E+03 7.32530E-09-1.13165E-09
 -1       979-1.65040E+05 6.55270E+00-2.54536E+02 1.75849E+03 3.73969E-09-1.28860E-09
 -1       980-1.65078E+05-2.68487E+01-4.72632E+02 6.59090E+03 4.60079E-09 6.59004E-10
 -1       981-1.65012E+05 3.26230E+01-8.73627E+02 1.76022E+03-1.82894E-09-1.72361E-09
 -1       982-1.65321E+05-3.72705E+02-1.90316E+03 6.58376E+03 4.95675E-11-9.63496E-10
 -1       983-1.64794E+05 2.86989E+02-3.42863E+03 1.76568E+03 3.92538E-09-1.82945E-09
 -1       984-1.67514E+05-4.00293E+03-8.42068E+03 6.55440E+03 1.99634E-10-7.86713E-11
 -1       985-1.62815E+05 2.85670E+03-1.32405E+04 1.78993E+03 2.91675E-09-1.06502E-09
 -3
    1PSTEP                        25          13           1          
  100CL  113 2.29980E-01         841                     0   13           1
 -4  DISP        4    1
 -5  D1          1    2    1    0
 -5  D2          1    2    2    0
 -5  D3          1    2    3    0
 -5  ALL         1    2    0    0    1ALL
 -1         1 2.86617E-05 0.00000E+00 0.00000E+00
 -1         2 2.13664E-05 0.00000E+00 0.00000E+00
 -1         3 1.79060E-05 0.00000E+00 0.00000E+00
 -1         4 1.57165E-05 0.00000E+00 0.00000E+00
 -1         5 1.46823E-05 0.00000E+00 0.00000E+00
 -1         8 2.26439E-05-2.85804E-07 0.00000E+00
 -1         9 1.77029E-05 1.78488E-07 0.00000E+00
 -1        10 1.69124E-05-6.73337E-07 0.00000E+00
 -1        11 1.55658E-05-1.30117E-07 0.00000E+00
 -1        12 1.41945E-05 3.41863E-07 0.00000E+00
 -1        15 1.01388E-05-5.71738E-07 0.00000E+00
 -1        16 1.33430E-05 1.67822E-07 0.00000E+00
 -1        17 1.22335E-05-1.36731E-06 0.00000E+00
 -1        18 1.22934E-05-2.60630E-07 0.00000E+00
 -1        19 1.28762E-05 6.78093E-07 0.00000E+00
 -1        20 1.30690E-05 7.28886E-06 0.00000E+00
 -1        21 1.30629E-05 1.74059E-05 0.00000E+00
 -1        22 3.84876E-06-3.94848E-07 0.00000E+00
 -1        23 5.31008E-06 5.79547E-07 0.00000E+00
 -1        24 5.04199E-06-1.63616E-06 0.00000E+00
 -1        25 1.09679E-05-1.69956E-07 0.00000E+00
 -1        26 1.14766E-05 9.00024E-07 0.00000E+00
 -1        27 1.09278E-05 7.02618E-06 0.00000E+00
 -1        28 1.02675E-05 1.71564E-05 0.00000E+00
 -1        29 0.00000E+00 0.00000E+00 0.00000E+00
 -1        30 1.60231E-06 7.69714E-07 0.00000E+00
 -1        31 1.66881E-06-1.47110E-06 0.00000E+00
 -1        32 0.00000E+00 0.00000E+00 0.00000E+00
 -1        33 9.66914E-06 1.39656E-06 0.00000E+00
 -1        34 9.17516E-06 7.00088E-06 0.00000E+00
 -1        35 8.22971E-06 1.70226E-05 0.00000E+00
 -1        36 2.82203E-05-2.68668E-20-6.61744E-24
 -1        37 2.77644E-05-6.34716E-21 0.00000E+00
 -1        38 2.73095E-05 7.04714E-20 0.00000E+00
 -1        39 2.68517E-05 1.62232E-19-6.61744E-24
 -1        40 2.63939E-05 1.98341E-19 0.00000E+00
 -1        41 2.59355E-05 2.17362E-19 6.61744E-24
 -1        42 2.54771E-05 2.21220E-19 1.32349E-23
 -1        43 2.50186E-05 2.16545E-19 6.61744E-24
 -1        44 2.45600E-05 1.19183E-19 1.32349E-23
 -1        45 2.41015E-05 6.51818E-22 0.00000E+00
 -1        46 2.36431E-05-2.51260E-20-1.32349E-23
 -1        47 2.31850E-05 1.75195E-20-6.61744E-24
 -1        48 2.27269E-05 7.13079E-20-1.32349E-23
 -1        49 2.22707E-05 1.11495E-19 0.00000E+00
 -1        50 2.18138E-05 8.20693E-20 0.00000E+00
 -1        51 2.82040E-05-4.87797E-08 0.00000E+00
 -1        52 2.74496E-05-9.54136E-08 0.00000E+00
 -1        53 2.64558E-05-1.41644E-07 0.00000E+00
 -1        54 2.52832E-05-1.88101E-07 0.00000E+00
 -1        55 2.39923E-05-2.35418E-07 1.75776E-24
 -1        56 2.80871E-05-2.22096E-07 0.00000E+00
 -1        57 2.74942E-05-4.58748E-07 0.00000E+00
 -1        58 2.69014E-05-6.91967E-07 0.00000E+00
 -1        59 2.63002E-05-9.13775E-07 0.00000E+00
 -1        60 2.56905E-05-1.11342E-06 1.32349E-23
 -1        61 2.50685E-05-1.28191E-06 0.00000E+00
 -1        62 2.44314E-05-1.41068E-06 1.32349E-23
 -1        63 2.37765E-05-1.49189E-06 6.61744E-24
 -1        64 2.31011E-05-1.51875E-06-1.32349E-23
 -1        65 2.24031E-05-1.48515E-06 0.00000E+00
 -1        66 2.16808E-05-1.38647E-06 0.00000E+00
 -1        67 2.09332E-05-1.21871E-06-6.61744E-24
 -1        68 2.01591E-05-9.79851E-07 1.32349E-23
 -1        69 1.93613E-05-6.67400E-07 6.61744E-24
 -1        70 1.85353E-05-2.83468E-07 0.00000E+00
 -1        71 2.11493E-05-3.24331E-20 0.00000E+00
 -1        72 2.09325E-05 2.34548E-20 0.00000E+00
 -1        73 2.07158E-05 1.48958E-19 6.61744E-24
 -1        74 2.04991E-05 2.90487E-19 0.00000E+00
 -1        75 2.02824E-05 3.96650E-19 0.00000E+00
 -1        76 2.00658E-05 4.56351E-19-3.30872E-24
 -1        77 1.98491E-05 4.54446E-19-6.61744E-24
 -1        78 1.96325E-05 4.35961E-19 3.30872E-24
 -1        79 1.94158E-05 3.60670E-19 0.00000E+00
 -1        80 1.91992E-05 2.36230E-19 3.30872E-24
 -1        81 1.89826E-05 1.35004E-19 6.61744E-24
 -1        82 1.87662E-05 2.79471E-20 0.00000E+00
 -1        83 1.85498E-05-1.88062E-20 6.61744E-24
 -1        84 1.83341E-05 8.61891E-21-3.30872E-24
 -1        85 1.81181E-05 6.50143E-21 0.00000E+00
 -1        86 2.12094E-05 2.22658E-08 3.30872E-24
 -1        87 2.07410E-05 5.46684E-08-4.13590E-25
 -1        88 2.00607E-05 8.62469E-08 4.13590E-25
 -1        89 1.92674E-05 1.18577E-07 2.06795E-25
 -1        90 1.84514E-05 1.51358E-07-1.65436E-24
 -1        91 2.09889E-05 2.25944E-07 0.00000E+00
 -1        92 2.03701E-05 1.09014E-06 0.00000E+00
 -1        93 1.96674E-05 2.17769E-06 0.00000E+00
 -1        94 1.90377E-05 3.07057E-06 3.30872E-24
 -1        95 1.85987E-05 3.45574E-06 0.00000E+00
 -1        96 1.84654E-05 3.02580E-06 0.00000E+00
 -1        97 1.85895E-05 1.90825E-06 0.00000E+00
 -1        98 1.89198E-05 2.38614E-07 0.00000E+00
 -1        99 1.92949E-05-1.55071E-06 0.00000E+00
 -1       100 1.95526E-05-3.02586E-06 0.00000E+00
 -1       101 1.95938E-05-3.92163E-06 0.00000E+00
 -1       102 1.93214E-05-3.97954E-06-3.30872E-24
 -1       103 1.88059E-05-3.38997E-06 0.00000E+00
 -1       104 1.81224E-05-2.35021E-06 0.00000E+00
 -1       105 1.74342E-05-1.29926E-06 0.00000E+00
 -1       106 1.77696E-05 6.26028E-19-3.30872E-24
 -1       107 1.76325E-05 2.55063E-18 0.00000E+00
 -1       108 1.74955E-05 5.53427E-18-3.30872E-24
 -1       109 1.73583E-05 9.09932E-18 0.00000E+00
 -1       110 1.72212E-05 1.26479E-17 0.00000E+00
 -1       111 1.70840E-05 1.57106E-17-1.65436E-24
 -1       112 1.69468E-05 1.77990E-17 3.30872E-24
 -1       113 1.68096E-05 1.85602E-17 0.00000E+00
 -1       114 1.66724E-05 1.79367E-17 0.00000E+00
 -1       115 1.65353E-05 1.59414E-17 0.00000E+00
 -1       116 1.63981E-05 1.29266E-17-3.30872E-24
 -1       117 1.62611E-05 9.27401E-18 1.65436E-24
 -1       118 1.61240E-05 5.67753E-18-3.30872E-24
 -1       119 1.59874E-05 2.73841E-18-1.65436E-24
 -1       120 1.58507E-05 7.23633E-19 0.00000E+00
 -1       121 1.79058E-05-1.12515E-07 0.00000E+00
 -1       122 1.78750E-05-2.24641E-07 0.00000E+00
 -1       123 1.77868E-05-3.36781E-07 0.00000E+00
 -1       124 1.76146E-05-4.48895E-07-1.65436E-24
 -1       125 1.73320E-05-5.61023E-07 0.00000E+00
 -1       126 1.80777E-05-8.43813E-07 3.30872E-24
 -1       127 1.88422E-05-3.27640E-06-1.65436E-24
 -1       128 2.00229E-05-6.82843E-06-3.30872E-24
 -1       129 2.14422E-05-1.10239E-05 0.00000E+00
 -1       130 2.28543E-05-1.51998E-05 0.00000E+00
 -1       131 2.40132E-05-1.86931E-05 1.65436E-24
 -1       132 2.47456E-05-2.10396E-05-3.30872E-24
 -1       133 2.48791E-05-2.17823E-05 0.00000E+00
 -1       134 2.44134E-05-2.09275E-05 0.00000E+00
 -1       135 2.33515E-05-1.84904E-05 1.65436E-24
 -1       136 2.18696E-05-1.49432E-05 0.00000E+00
 -1       137 2.01481E-05-1.07637E-05 0.00000E+00
 -1       138 1.84372E-05-6.61247E-06 0.00000E+00
 -1       139 1.69878E-05-3.14962E-06-1.65436E-24
 -1       140 1.59733E-05-8.37202E-07 0.00000E+00
 -1       141 1.56509E-05-3.78404E-20 1.65436E-24
 -1       142 1.55856E-05-2.47098E-20 8.27181E-25
 -1       143 1.55204E-05 7.26456E-20 0.00000E+00
 -1       144 1.54552E-05 1.69180E-19-8.27181E-25
 -1       145 1.53901E-05 1.94432E-19 0.00000E+00
 -1       146 1.53250E-05 2.37236E-19 0.00000E+00
 -1       147 1.52598E-05 2.89827E-19 0.00000E+00
 -1       148 1.51947E-05 3.13109E-19 0.00000E+00
 -1       149 1.51296E-05 3.42068E-19 0.00000E+00
 -1       150 1.50645E-05 3.31560E-19 8.27181E-25
 -1       151 1.49995E-05 2.51954E-19 0.00000E+00
 -1       152 1.49346E-05 1.27339E-19-8.27181E-25
 -1       153 1.48698E-05 4.14590E-20 0.00000E+00
 -1       154 1.48058E-05 8.09691E-21 4.13590E-25
 -1       155 1.47416E-05-8.48998E-21-2.06795E-25
 -1       156 1.57015E-05-2.30188E-08 1.65436E-24
 -1       157 1.56569E-05-4.39279E-08 0.00000E+00
 -1       158 1.56019E-05-6.49950E-08 0.00000E+00
 -1       159 1.55558E-05-8.60779E-08-4.13590E-25
 -1       160 1.55375E-05-1.06998E-07 0.00000E+00
 -1       161 1.56448E-05-4.27264E-08-1.65436E-24
 -1       162 1.55835E-05-1.13126E-07-8.27181E-25
 -1       163 1.55287E-05-2.00880E-07 1.65436E-24
 -1       164 1.54764E-05-2.95635E-07-8.27181E-25
 -1       165 1.54224E-05-3.85484E-07-1.65436E-24
 -1       166 1.53620E-05-4.58542E-07 0.00000E+00
 -1       167 1.52923E-05-5.06452E-07 0.00000E+00
 -1       168 1.52100E-05-5.20939E-07 0.00000E+00
 -1       169 1.51142E-05-4.99631E-07 0.00000E+00
 -1       170 1.50043E-05-4.40264E-07 0.00000E+00
 -1       171 1.48818E-05-3.47532E-07-1.65436E-24
 -1       172 1.47488E-05-2.26171E-07 0.00000E+00
 -1       173 1.46088E-05-8.61778E-08 0.00000E+00
 -1       174 1.44666E-05 6.28174E-08 0.00000E+00
 -1       175 1.43251E-05 2.08660E-07 0.00000E+00
 -1       191 1.46657E-05 5.69379E-08 0.00000E+00
 -1       192 1.46225E-05 1.13946E-07 1.65436E-24
 -1       193 1.45531E-05 1.70970E-07 0.00000E+00
 -1       194 1.44581E-05 2.27988E-07 0.00000E+00
 -1       195 1.43383E-05 2.84977E-07 3.30872E-24
 -1       251 2.23520E-05 2.18782E-06 6.61744E-24
 -1       252 2.20426E-05 7.43738E-06 0.00000E+00
 -1       253 2.17310E-05 1.32161E-05-6.61744E-24
 -1       254 2.14261E-05 1.72695E-05 0.00000E+00
 -1       255 2.11280E-05 1.82755E-05 0.00000E+00
 -1       256 2.08247E-05 1.49525E-05 0.00000E+00
 -1       257 2.05064E-05 8.34836E-06 6.61744E-24
 -1       258 2.01719E-05-4.45122E-07 3.30872E-24
 -1       259 1.98380E-05-9.15578E-06 6.61744E-24
 -1       260 1.95212E-05-1.55122E-05-3.30872E-24
 -1       261 1.92190E-05-1.85126E-05 0.00000E+00
 -1       262 1.89205E-05-1.71998E-05 3.30872E-24
 -1       263 1.86149E-05-1.29379E-05 6.61744E-24
 -1       264 1.83031E-05-7.13004E-06 3.30872E-24
 -1       265 1.79943E-05-2.01484E-06 0.00000E+00
 -1       266 2.14775E-05-3.34774E-07 3.30872E-24
 -1       267 2.01067E-05-3.81011E-07 0.00000E+00
 -1       268 1.84002E-05-4.27926E-07-1.65436E-24
 -1       269 1.62273E-05-4.74863E-07-8.27181E-25
 -1       270 1.35018E-05-5.23181E-07-8.27181E-25
 -1       271 2.18093E-05 4.66026E-07-1.32349E-23
 -1       272 2.10469E-05 9.75649E-07 0.00000E+00
 -1       273 2.03631E-05 1.27728E-06-1.32349E-23
 -1       274 1.97442E-05 1.39900E-06 0.00000E+00
 -1       275 1.91809E-05 1.37143E-06 0.00000E+00
 -1       276 1.86617E-05 1.22510E-06 0.00000E+00
 -1       277 1.81753E-05 9.91194E-07 1.32349E-23
 -1       278 1.77098E-05 7.01214E-07 0.00000E+00
 -1       279 1.72534E-05 3.86922E-07-1.32349E-23
 -1       280 1.67942E-05 8.02046E-08 6.61744E-24
 -1       281 1.63204E-05-1.87123E-07 0.00000E+00
 -1       282 1.58203E-05-3.83353E-07 0.00000E+00
 -1       283 1.52821E-05-4.77195E-07-1.32349E-23
 -1       284 1.46961E-05-4.37123E-07 0.00000E+00
 -1       285 1.40484E-05-2.33765E-07 0.00000E+00
 -1       286 1.76506E-05 7.96768E-07 3.30872E-24
 -1       287 1.76013E-05 1.22407E-06 8.27181E-25
 -1       288 1.75518E-05 1.46230E-06-1.65436E-24
 -1       289 1.75029E-05 1.51373E-06 0.00000E+00
 -1       290 1.74540E-05 1.40010E-06 0.00000E+00
 -1       291 1.74052E-05 1.14346E-06 0.00000E+00
 -1       292 1.73563E-05 7.80738E-07 1.65436E-24
 -1       293 1.73075E-05 3.49078E-07-8.27181E-25
 -1       294 1.72586E-05-1.07213E-07-1.65436E-24
 -1       295 1.72098E-05-5.43774E-07-8.27181E-25
 -1       296 1.71609E-05-9.18305E-07 0.00000E+00
 -1       297 1.71120E-05-1.18863E-06 0.00000E+00
 -1       298 1.70631E-05-1.32338E-06 1.65436E-24
 -1       299 1.70137E-05-1.29151E-06 8.27181E-25
 -1       300 1.69644E-05-1.07928E-06 0.00000E+00
 -1       301 1.69749E-05 1.73570E-07 0.00000E+00
 -1       302 1.62424E-05 1.73770E-07-4.13590E-25
 -1       303 1.55093E-05 1.74819E-07 0.00000E+00
 -1       304 1.47792E-05 1.75661E-07 0.00000E+00
 -1       305 1.40558E-05 1.75206E-07 0.00000E+00
 -1       306 1.71627E-05 6.36750E-07 0.00000E+00
 -1       307 1.67014E-05 8.57270E-07 3.30872E-24
 -1       308 1.63157E-05 8.76668E-07 1.32349E-23
 -1       309 1.59915E-05 7.28353E-07 0.00000E+00
 -1       310 1.57169E-05 4.47169E-07 0.00000E+00
 -1       311 1.54788E-05 6.79413E-08-6.61744E-24
 -1       312 1.52642E-05-3.74137E-07 1.32349E-23
 -1       313 1.50599E-05-8.43744E-07 6.61744E-24
 -1       314 1.48526E-05-1.30545E-06-1.32349E-23
 -1       315 1.46292E-05-1.72384E-06-6.61744E-24
 -1       316 1.43763E-05-2.06367E-06 1.32349E-23
 -1       317 1.40812E-05-2.28987E-06 0.00000E+00
 -1       318 1.37307E-05-2.36779E-06 0.00000E+00
 -1       319 1.33134E-05-2.26269E-06-3.30872E-24
 -1       320 1.28147E-05-1.94154E-06 6.61744E-24
 -1       321 1.68268E-05-1.61166E-07-3.30872E-24
 -1       322 1.67424E-05 3.68735E-07 1.65436E-24
 -1       323 1.66580E-05 8.75850E-07 0.00000E+00
 -1       324 1.65738E-05 1.31977E-06 0.00000E+00
 -1       325 1.64897E-05 1.67109E-06 0.00000E+00
 -1       326 1.64056E-05 1.90076E-06 0.00000E+00
 -1       327 1.63216E-05 2.00097E-06 0.00000E+00
 -1       328 1.62376E-05 1.96440E-06-1.65436E-24
 -1       329 1.61536E-05 1.80761E-06-3.30872E-24
 -1       330 1.60695E-05 1.54758E-06 0.00000E+00
 -1       331 1.59855E-05 1.21934E-06 0.00000E+00
 -1       332 1.59014E-05 8.58179E-07 0.00000E+00
 -1       333 1.58174E-05 5.05113E-07 0.00000E+00
 -1       334 1.57334E-05 2.01140E-07 0.00000E+00
 -1       335 1.56494E-05-2.13089E-08 3.30872E-24
 -1       336 1.63285E-05-7.89373E-07-3.30872E-24
 -1       337 1.56207E-05-9.05433E-07 1.65436E-24
 -1       338 1.48231E-05-1.02151E-06 0.00000E+00
 -1       339 1.39699E-05-1.13736E-06-1.65436E-24
 -1       340 1.30953E-05-1.25325E-06 0.00000E+00
 -1       341 1.50446E-05 3.88526E-06 0.00000E+00
 -1       342 1.00368E-05 1.66088E-05 0.00000E+00
 -1       343 2.78083E-06 3.50702E-05 0.00000E+00
 -1       344-5.78315E-06 5.68239E-05 0.00000E+00
 -1       345-1.43072E-05 7.84766E-05-3.30872E-24
 -1       346-2.14436E-05 9.66358E-05-1.65436E-24
 -1       347-2.62784E-05 1.08913E-04-3.30872E-24
 -1       348-2.79447E-05 1.12941E-04 0.00000E+00
 -1       349-2.65097E-05 1.08697E-04 0.00000E+00
 -1       350-2.20580E-05 9.62091E-05 0.00000E+00
 -1       351-1.55068E-05 7.78702E-05 3.30872E-24
 -1       352-7.75049E-06 5.61202E-05 0.00000E+00
 -1       353-4.94551E-09 3.44012E-05-3.30872E-24
 -1       354 6.51398E-06 1.61563E-05-1.65436E-24
 -1       355 1.09158E-05 3.80939E-06 1.65436E-24
 -1       356 1.54798E-05-1.97870E-07-3.30872E-24
 -1       357 1.53935E-05-2.97411E-07-1.65436E-24
 -1       358 1.53072E-05-4.15083E-07 3.30872E-24
 -1       359 1.52209E-05-5.37155E-07 0.00000E+00
 -1       360 1.51345E-05-6.49111E-07 3.30872E-24
 -1       361 1.50482E-05-7.36474E-07 0.00000E+00
 -1       362 1.49618E-05-7.89174E-07-3.30872E-24
 -1       363 1.48754E-05-7.97272E-07 0.00000E+00
 -1       364 1.47891E-05-7.58824E-07 0.00000E+00
 -1       365 1.47028E-05-6.72064E-07 0.00000E+00
 -1       366 1.46165E-05-5.43886E-07 0.00000E+00
 -1       367 1.45305E-05-3.81339E-07 1.65436E-24
 -1       368 1.44444E-05-1.97634E-07-1.65436E-24
 -1       369 1.43595E-05-6.06480E-09 8.27181E-25
 -1       370 1.42742E-05 1.78662E-07-4.13590E-25
 -1       371 1.54099E-05-1.54129E-07-1.65436E-24
 -1       372 1.48434E-05-1.75957E-07 4.13590E-25
 -1       373 1.40568E-05-1.98054E-07 8.27181E-25
 -1       374 1.32414E-05-2.19478E-07 0.00000E+00
 -1       375 1.25895E-05-2.40862E-07 2.06795E-25
 -1       376 1.58459E-05-1.24998E-06 3.30872E-24
 -1       377 1.68843E-05-4.41025E-06-1.65436E-24
 -1       378 1.84551E-05-9.00523E-06 0.00000E+00
 -1       379 2.03288E-05-1.44212E-05 1.65436E-24
 -1       380 2.21928E-05-1.98107E-05 3.30872E-24
 -1       381 2.37340E-05-2.43269E-05-1.65436E-24
 -1       382 2.47289E-05-2.73712E-05 0.00000E+00
 -1       383 2.49552E-05-2.83538E-05 0.00000E+00
 -1       384 2.44063E-05-2.72697E-05-3.30872E-24
 -1       385 2.30800E-05-2.41256E-05 1.65436E-24
 -1       386 2.11966E-05-1.95120E-05-3.30872E-24
 -1       387 1.89816E-05-1.40268E-05 1.65436E-24
 -1       388 1.67562E-05-8.51411E-06 0.00000E+00
 -1       389 1.48428E-05-3.81773E-06-1.65436E-24
 -1       390 1.34717E-05-5.52263E-07 0.00000E+00
 -1       406 1.40201E-05 3.98221E-07-1.65436E-24
 -1       407 1.38247E-05 4.54624E-07 1.65436E-24
 -1       408 1.36103E-05 5.10997E-07 0.00000E+00
 -1       409 1.33792E-05 5.67234E-07 8.27181E-25
 -1       410 1.31337E-05 6.23177E-07 1.65436E-24
 -1       466 1.03276E-05 2.40474E-06-3.30872E-24
 -1       467 1.05280E-05 3.98581E-06 0.00000E+00
 -1       468 1.07290E-05 4.61593E-06-6.61744E-24
 -1       469 1.09317E-05 4.73075E-06 0.00000E+00
 -1       470 1.11345E-05 4.49566E-06 0.00000E+00
 -1       471 1.13376E-05 4.07282E-06 0.00000E+00
 -1       472 1.15406E-05 3.52566E-06 0.00000E+00
 -1       473 1.17436E-05 2.91646E-06 0.00000E+00
 -1       474 1.19466E-05 2.27485E-06-6.61744E-24
 -1       475 1.21495E-05 1.63017E-06 3.30872E-24
 -1       476 1.23524E-05 1.01012E-06 0.00000E+00
 -1       477 1.25547E-05 4.42646E-07 0.00000E+00
 -1       478 1.27570E-05-1.66716E-08 6.61744E-24
 -1       479 1.29566E-05-3.11254E-07-1.65436E-24
 -1       480 1.31571E-05-2.98315E-07-8.27181E-25
 -1       481 7.07628E-06-5.47019E-07 4.13590E-25
 -1       482 5.24515E-06-5.17839E-07 0.00000E+00
 -1       483 4.31736E-06-4.87512E-07 0.00000E+00
 -1       484 3.96619E-06-4.56601E-07-4.13590E-25
 -1       485 3.90531E-06-4.25581E-07-8.27181E-25
 -1       486 8.01230E-06 4.42957E-06-3.30872E-24
 -1       487 4.82582E-06 1.21799E-05 0.00000E+00
 -1       488 1.57383E-06 2.01026E-05 6.61744E-24
 -1       489-7.57974E-07 2.56152E-05-3.30872E-24
 -1       490-1.62248E-06 2.72531E-05-6.61744E-24
 -1       491-5.02567E-07 2.35840E-05 3.30872E-24
 -1       492 2.19878E-06 1.56287E-05-6.61744E-24
 -1       493 6.07389E-06 4.45429E-06 0.00000E+00
 -1       494 1.01860E-05-7.37276E-06-6.61744E-24
 -1       495 1.35999E-05-1.72776E-05 0.00000E+00
 -1       496 1.56943E-05-2.35829E-05-6.61744E-24
 -1       497 1.58462E-05-2.46522E-05 0.00000E+00
 -1       498 1.43245E-05-2.12727E-05 0.00000E+00
 -1       499 1.14251E-05-1.42713E-05 0.00000E+00
 -1       500 8.09684E-06-6.15121E-06 0.00000E+00
 -1       501 1.32697E-05 7.43630E-07-3.30872E-24
 -1       502 1.32001E-05 1.07954E-06 1.65436E-24
 -1       503 1.31304E-05 1.17625E-06 0.00000E+00
 -1       504 1.30613E-05 1.03518E-06 8.27181E-25
 -1       505 1.29923E-05 6.92152E-07-1.65436E-24
 -1       506 1.29233E-05 1.83616E-07 0.00000E+00
 -1       507 1.28542E-05-4.30052E-07 1.65436E-24
 -1       508 1.27852E-05-1.08817E-06 0.00000E+00
 -1       509 1.27162E-05-1.72361E-06 1.65436E-24
 -1       510 1.26472E-05-2.26933E-06 0.00000E+00
 -1       511 1.25783E-05-2.67124E-06-1.65436E-24
 -1       512 1.25095E-05-2.87571E-06 8.27181E-25
 -1       513 1.24407E-05-2.85762E-06 1.65436E-24
 -1       514 1.23718E-05-2.59256E-06 0.00000E+00
 -1       515 1.23028E-05-2.09179E-06 0.00000E+00
 -1       516 1.29495E-05 2.31480E-07 0.00000E+00
 -1       517 1.31433E-05 3.04463E-07-2.06795E-25
 -1       518 1.32287E-05 3.76812E-07 0.00000E+00
 -1       519 1.25099E-05 4.49993E-07 0.00000E+00
 -1       520 1.01509E-05 5.20823E-07 8.27181E-25
 -1       521 1.26521E-05 5.55870E-07 1.32349E-23
 -1       522 1.20308E-05 7.15149E-07 6.61744E-24
 -1       523 1.14817E-05 6.83078E-07 1.32349E-23
 -1       524 1.09900E-05 4.91828E-07 6.61744E-24
 -1       525 1.05448E-05 1.75760E-07 1.32349E-23
 -1       526 1.01331E-05-2.30879E-07 0.00000E+00
 -1       527 9.74225E-06-6.93320E-07 0.00000E+00
 -1       528 9.35915E-06-1.17664E-06-6.61744E-24
 -1       529 8.97075E-06-1.64580E-06 1.32349E-23
 -1       530 8.56399E-06-2.06582E-06 6.61744E-24
 -1       531 8.12588E-06-2.40196E-06-1.32349E-23
 -1       532 7.64380E-06-2.61978E-06 6.61744E-24
 -1       533 7.10492E-06-2.68547E-06-1.32349E-23
 -1       534 6.49854E-06-2.56526E-06 0.00000E+00
 -1       535 5.81016E-06-2.22760E-06 0.00000E+00
 -1       536 1.22334E-05-6.30413E-07 0.00000E+00
 -1       537 1.22367E-05-7.05451E-08 0.00000E+00
 -1       538 1.22400E-05 3.31040E-07 0.00000E+00
 -1       539 1.22439E-05 5.93262E-07-1.03398E-25
 -1       540 1.22478E-05 7.34991E-07-5.16988E-26
 -1       541 1.22519E-05 7.75107E-07-5.16988E-26
 -1       542 1.22559E-05 7.32486E-07 0.00000E+00
 -1       543 1.22600E-05 6.26001E-07 2.58494E-26
 -1       544 1.22641E-05 4.74525E-07 0.00000E+00
 -1       545 1.22682E-05 2.96925E-07 0.00000E+00
 -1       546 1.22723E-05 1.12071E-07 0.00000E+00
 -1       547 1.22764E-05-6.11662E-08 1.03398E-25
 -1       548 1.22805E-05-2.03920E-07 0.00000E+00
 -1       549 1.22847E-05-2.97324E-07 0.00000E+00
 -1       550 1.22889E-05-3.22493E-07 0.00000E+00
 -1       551 1.11582E-05-1.41145E-06-9.30578E-25
 -1       552 9.96041E-06-1.45447E-06-6.20385E-25
 -1       553 8.69461E-06-1.49749E-06 0.00000E+00
 -1       554 7.41615E-06-1.54106E-06 0.00000E+00
 -1       555 6.18044E-06-1.58577E-06 0.00000E+00
 -1       556 1.19210E-05-6.75849E-07 0.00000E+00
 -1       557 1.16695E-05-1.43286E-07-1.65436E-24
 -1       558 1.14723E-05 2.45504E-07 0.00000E+00
 -1       559 1.13231E-05 5.07139E-07 0.00000E+00
 -1       560 1.12153E-05 6.58258E-07 0.00000E+00
 -1       561 1.11427E-05 7.15638E-07 0.00000E+00
 -1       562 1.10990E-05 6.96066E-07 0.00000E+00
 -1       563 1.10779E-05 6.16342E-07-3.30872E-24
 -1       564 1.10731E-05 4.93277E-07-1.65436E-24
 -1       565 1.10781E-05 3.43677E-07 0.00000E+00
 -1       566 1.10869E-05 1.84359E-07 0.00000E+00
 -1       567 1.10930E-05 3.21374E-08 0.00000E+00
 -1       568 1.10902E-05-9.61765E-08 0.00000E+00
 -1       569 1.10723E-05-1.83786E-07-3.10193E-25
 -1       570 1.10332E-05-2.13909E-07-6.20385E-25
 -1       571 1.23284E-05-1.81617E-07 4.13590E-25
 -1       572 1.23645E-05-1.27564E-07 3.10193E-25
 -1       573 1.24009E-05-9.39181E-08-4.13590E-25
 -1       574 1.24374E-05-7.58986E-08-4.13590E-25
 -1       575 1.24739E-05-6.87033E-08 0.00000E+00
 -1       576 1.25105E-05-6.74996E-08 0.00000E+00
 -1       577 1.25471E-05-6.74527E-08 1.65436E-24
 -1       578 1.25838E-05-6.37239E-08 0.00000E+00
 -1       579 1.26204E-05-5.14737E-08 1.65436E-24
 -1       580 1.26570E-05-2.58631E-08 0.00000E+00
 -1       581 1.26936E-05 1.79461E-08 0.00000E+00
 -1       582 1.27302E-05 8.47877E-08 0.00000E+00
 -1       583 1.27668E-05 1.79491E-07 0.00000E+00
 -1       584 1.28033E-05 3.06834E-07 0.00000E+00
 -1       585 1.28398E-05 4.71573E-07 0.00000E+00
 -1       586 1.21036E-05-2.45210E-07 0.00000E+00
 -1       587 1.18861E-05-2.29677E-07 0.00000E+00
 -1       588 1.16521E-05-2.14162E-07 4.13590E-25
 -1       589 1.14133E-05-1.98798E-07 0.00000E+00
 -1       590 1.11814E-05-1.83773E-07 0.00000E+00
 -1       591 1.22366E-05-1.67789E-07-4.13590E-25
 -1       592 1.21842E-05-9.12652E-08 0.00000E+00
 -1       593 1.21365E-05-2.78953E-08 0.00000E+00
 -1       594 1.20924E-05 2.51959E-08 0.00000E+00
 -1       595 1.20510E-05 7.08820E-08 0.00000E+00
 -1       596 1.20114E-05 1.12016E-07-4.13590E-25
 -1       597 1.19723E-05 1.51448E-07 8.27181E-25
 -1       598 1.19328E-05 1.92025E-07 0.00000E+00
 -1       599 1.18919E-05 2.36594E-07-8.27181E-25
 -1       600 1.18483E-05 2.88001E-07 4.13590E-25
 -1       601 1.18012E-05 3.49092E-07-4.13590E-25
 -1       602 1.17493E-05 4.22718E-07 3.10193E-25
 -1       603 1.16918E-05 5.11730E-07 3.10193E-25
 -1       604 1.16276E-05 6.18997E-07-1.29247E-26
 -1       605 1.15558E-05 7.47390E-07 0.00000E+00
 -1       606 1.28895E-05 9.52655E-07 0.00000E+00
 -1       607 1.29019E-05 1.25402E-06 0.00000E+00
 -1       608 1.29141E-05 1.58061E-06 0.00000E+00
 -1       609 1.29261E-05 1.93063E-06 0.00000E+00
 -1       610 1.29381E-05 2.30228E-06 1.65436E-24
 -1       611 1.29501E-05 2.69370E-06 0.00000E+00
 -1       612 1.29620E-05 3.10305E-06-8.27181E-25
 -1       613 1.29739E-05 3.52849E-06 0.00000E+00
 -1       614 1.29859E-05 3.96815E-06 0.00000E+00
 -1       615 1.29978E-05 4.42019E-06 0.00000E+00
 -1       616 1.30097E-05 4.88277E-06-8.27181E-25
 -1       617 1.30216E-05 5.35403E-06 0.00000E+00
 -1       618 1.30335E-05 5.83211E-06 4.13590E-25
 -1       619 1.30454E-05 6.31518E-06 0.00000E+00
 -1       620 1.30573E-05 6.80138E-06-4.13590E-25
 -1       621 1.26177E-05 7.15217E-07 8.27181E-25
 -1       622 1.23654E-05 7.52531E-07-4.13590E-25
 -1       623 1.21221E-05 7.89851E-07 8.27181E-25
 -1       624 1.18909E-05 8.27074E-07 4.13590E-25
 -1       625 1.16748E-05 8.64078E-07 0.00000E+00
 -1       626 1.27957E-05 9.66572E-07 1.65436E-24
 -1       627 1.27044E-05 1.28307E-06 0.00000E+00
 -1       628 1.26033E-05 1.62500E-06 0.00000E+00
 -1       629 1.24938E-05 1.98940E-06 0.00000E+00
 -1       630 1.23769E-05 2.37334E-06 0.00000E+00
 -1       631 1.22539E-05 2.77380E-06 0.00000E+00
 -1       632 1.21257E-05 3.18778E-06 8.27181E-25
 -1       633 1.19936E-05 3.61229E-06 4.13590E-25
 -1       634 1.18586E-05 4.04432E-06 8.27181E-25
 -1       635 1.17220E-05 4.48085E-06 0.00000E+00
 -1       636 1.15848E-05 4.91888E-06 0.00000E+00
 -1       637 1.14481E-05 5.35542E-06 2.06795E-25
 -1       638 1.13131E-05 5.78744E-06-4.13590E-25
 -1       639 1.11808E-05 6.21193E-06 1.03398E-25
 -1       640 1.10522E-05 6.62587E-06 4.13590E-25
 -1       641 1.30693E-05 7.79384E-06 1.03398E-25
 -1       642 1.30692E-05 8.35119E-06 0.00000E+00
 -1       643 1.30690E-05 8.95334E-06 2.58494E-26
 -1       644 1.30688E-05 9.59270E-06-6.46235E-27
 -1       645 1.30685E-05 1.02617E-05-6.46235E-27
 -1       646 1.30683E-05 1.09527E-05 8.07794E-28
 -1       647 1.30680E-05 1.16582E-05 1.61559E-27
 -1       648 1.30677E-05 1.23705E-05 0.00000E+00
 -1       649 1.30674E-05 1.30822E-05 1.29247E-26
 -1       650 1.30670E-05 1.37855E-05 1.29247E-26
 -1       651 1.30667E-05 1.44729E-05 0.00000E+00
 -1       652 1.30664E-05 1.51368E-05 2.58494E-26
 -1       653 1.30660E-05 1.57696E-05 0.00000E+00
 -1       654 1.30654E-05 1.63638E-05 1.03398E-25
 -1       655 1.30649E-05 1.69117E-05 0.00000E+00
 -1       656 1.26323E-05 7.24657E-06 0.00000E+00
 -1       657 1.22557E-05 7.20207E-06 0.00000E+00
 -1       658 1.19181E-05 7.15766E-06 0.00000E+00
 -1       659 1.15984E-05 7.11323E-06 0.00000E+00
 -1       660 1.12753E-05 7.06871E-06-4.13590E-25
 -1       661 1.29285E-05 7.80879E-06 0.00000E+00
 -1       662 1.27745E-05 8.36978E-06-8.27181E-25
 -1       663 1.26075E-05 8.96524E-06 1.65436E-24
 -1       664 1.24301E-05 9.58936E-06 0.00000E+00
 -1       665 1.22442E-05 1.02361E-05 1.65436E-24
 -1       666 1.20520E-05 1.08997E-05-8.27181E-25
 -1       667 1.18558E-05 1.15740E-05 0.00000E+00
 -1       668 1.16577E-05 1.22533E-05 8.27181E-25
 -1       669 1.14599E-05 1.29317E-05 0.00000E+00
 -1       670 1.12647E-05 1.36032E-05 0.00000E+00
 -1       671 1.10743E-05 1.42620E-05 0.00000E+00
 -1       672 1.08909E-05 1.49021E-05 0.00000E+00
 -1       673 1.07166E-05 1.55177E-05 0.00000E+00
 -1       674 1.05533E-05 1.61026E-05 4.13590E-25
 -1       675 1.04038E-05 1.66512E-05-4.13590E-25
 -1       676 1.25958E-05 1.73641E-05-1.65436E-24
 -1       677 1.21289E-05 1.73222E-05 8.27181E-25
 -1       678 1.16624E-05 1.72803E-05 0.00000E+00
 -1       679 1.11966E-05 1.72386E-05 4.13590E-25
 -1       680 1.07315E-05 1.71969E-05 0.00000E+00
 -1       681 3.93905E-06-5.55079E-07 1.65436E-24
 -1       682 4.03206E-06-1.14730E-06 0.00000E+00
 -1       683 4.12467E-06-2.05309E-06 0.00000E+00
 -1       684 4.21764E-06-3.15535E-06 0.00000E+00
 -1       685 4.31049E-06-4.38049E-06 0.00000E+00
 -1       686 4.40339E-06-5.65544E-06 1.65436E-24
 -1       687 4.49632E-06-6.91817E-06 0.00000E+00
 -1       688 4.58934E-06-8.10660E-06-1.65436E-24
 -1       689 4.68253E-06-9.14216E-06-3.30872E-24
 -1       690 4.77588E-06-9.94566E-06 0.00000E+00
 -1       691 4.86943E-06-1.03864E-05 0.00000E+00
 -1       692 4.96289E-06-1.03321E-05 1.65436E-24
 -1       693 5.05599E-06-9.54097E-06 0.00000E+00
 -1       694 5.14699E-06-7.76781E-06-8.27181E-25
 -1       695 5.23472E-06-4.55041E-06 0.00000E+00
 -1       696 3.63282E-06-3.30632E-07 0.00000E+00
 -1       697 3.10360E-06-2.64719E-07-8.27181E-25
 -1       698 2.37155E-06-1.99032E-07 1.65436E-24
 -1       699 1.54654E-06-1.32945E-07 0.00000E+00
 -1       700 7.24155E-07-6.68850E-08 1.65436E-24
 -1       701 3.65384E-06-1.60971E-07 1.65436E-24
 -1       702 3.29553E-06 4.92881E-07 0.00000E+00
 -1       703 2.81606E-06 1.47006E-06 0.00000E+00
 -1       704 2.25175E-06 2.66999E-06-1.65436E-24
 -1       705 1.66058E-06 3.94126E-06 3.30872E-24
 -1       706 1.09962E-06 5.13178E-06 0.00000E+00
 -1       707 6.19109E-07 6.10840E-06-3.30872E-24
 -1       708 2.68721E-07 6.73880E-06 1.65436E-24
 -1       709 6.78621E-08 6.97098E-06-3.30872E-24
 -1       710 3.52363E-08 6.75468E-06 0.00000E+00
 -1       711 1.50457E-07 6.14374E-06 0.00000E+00
 -1       712 3.92669E-07 5.19386E-06 0.00000E+00
 -1       713 7.11360E-07 4.03947E-06 0.00000E+00
 -1       714 1.05668E-06 2.81634E-06 8.27181E-25
 -1       715 1.37090E-06 1.67546E-06 0.00000E+00
 -1       716 5.28226E-06 5.95979E-06-4.13590E-25
 -1       717 5.26122E-06 9.91532E-06 0.00000E+00
 -1       718 5.24433E-06 1.25554E-05-4.13590E-25
 -1       719 5.22988E-06 1.39901E-05 0.00000E+00
 -1       720 5.21637E-06 1.43648E-05 4.13590E-25
 -1       721 5.20280E-06 1.38254E-05 0.00000E+00
 -1       722 5.18860E-06 1.25447E-05 0.00000E+00
 -1       723 5.17354E-06 1.06960E-05 0.00000E+00
 -1       724 5.15775E-06 8.46884E-06 4.13590E-25
 -1       725 5.14148E-06 6.05343E-06 0.00000E+00
 -1       726 5.12519E-06 3.64520E-06 4.13590E-25
 -1       727 5.10911E-06 1.43970E-06-4.13590E-25
 -1       728 5.09374E-06-3.73506E-07 0.00000E+00
 -1       729 5.07798E-06-1.60513E-06 0.00000E+00
 -1       730 5.06323E-06-2.08322E-06-3.30872E-24
 -1       731 5.78314E-07 6.00873E-07-2.06795E-25
 -1       732-1.45093E-06 6.33288E-07 0.00000E+00
 -1       733-1.58903E-06 6.67788E-07 8.27181E-25
 -1       734-6.44333E-07 7.02103E-07 4.13590E-25
 -1       735 6.60229E-07 7.36167E-07 0.00000E+00
 -1       736 1.59910E-06 1.00354E-05 1.65436E-24
 -1       737-4.74928E-06 2.62590E-05-1.65436E-24
 -1       738-1.28279E-05 4.68640E-05 0.00000E+00
 -1       739-2.16984E-05 6.94520E-05-1.65436E-24
 -1       740-3.02150E-05 9.11527E-05 0.00000E+00
 -1       741-3.72398E-05 1.09096E-04 0.00000E+00
 -1       742-4.20228E-05 1.21310E-04 0.00000E+00
 -1       743-4.38517E-05 1.25836E-04 1.65436E-24
 -1       744-4.27404E-05 1.22536E-04 0.00000E+00
 -1       745-3.87182E-05 1.11307E-04 0.00000E+00
 -1       746-3.24853E-05 9.39359E-05-3.30872E-24
 -1       747-2.47252E-05 7.22477E-05 1.65436E-24
 -1       748-1.64590E-05 4.91201E-05 0.00000E+00
 -1       749-8.70021E-06 2.74400E-05 0.00000E+00
 -1       750-2.35145E-06 9.74064E-06 1.65436E-24
 -1       751 5.39002E-06-9.03340E-07 0.00000E+00
 -1       752 5.76039E-06-5.22081E-07 0.00000E+00
 -1       753 6.12940E-06-3.57960E-07 0.00000E+00
 -1       754 6.50264E-06-2.80290E-07 0.00000E+00
 -1       755 6.87601E-06-2.55966E-07 0.00000E+00
 -1       756 7.25021E-06-2.52786E-07-6.61744E-24
 -1       757 7.62452E-06-2.62554E-07 0.00000E+00
 -1       758 7.99897E-06-2.77292E-07 6.61744E-24
 -1       759 8.37343E-06-2.94667E-07 1.32349E-23
 -1       760 8.74781E-06-3.12394E-07 0.00000E+00
 -1       761 9.12213E-06-3.28585E-07-1.32349E-23
 -1       762 9.49585E-06-3.41328E-07 0.00000E+00
 -1       763 9.86949E-06-3.44794E-07-1.32349E-23
 -1       764 1.02402E-05-3.32996E-07 3.30872E-24
 -1       765 1.06118E-05-2.82686E-07 0.00000E+00
 -1       766 3.35091E-06-1.61174E-06-1.65436E-24
 -1       767 1.36771E-07-1.58251E-06 0.00000E+00
 -1       768-3.14193E-06-1.55405E-06-5.16988E-26
 -1       769-5.02689E-06-1.52103E-06 0.00000E+00
 -1       770-3.94823E-06-1.48743E-06-2.06795E-25
 -1       771 4.50095E-06-9.22064E-07 0.00000E+00
 -1       772 4.01006E-06-3.50657E-07 0.00000E+00
 -1       773 3.56729E-06 9.09264E-08 0.00000E+00
 -1       774 3.16800E-06 4.15761E-07 6.61744E-24
 -1       775 2.80751E-06 6.36941E-07-1.32349E-23
 -1       776 2.48094E-06 7.67614E-07-3.30872E-24
 -1       777 2.18336E-06 8.20943E-07-6.61744E-24
 -1       778 1.90985E-06 8.10109E-07 0.00000E+00
 -1       779 1.65545E-06 7.48308E-07 0.00000E+00
 -1       780 1.41523E-06 6.48747E-07-3.30872E-24
 -1       781 1.18423E-06 5.24644E-07 0.00000E+00
 -1       782 9.57544E-07 3.89229E-07 3.30872E-24
 -1       783 7.30245E-07 2.55735E-07 6.61744E-24
 -1       784 4.97621E-07 1.37438E-07 0.00000E+00
 -1       785 2.54978E-07 4.76081E-08 0.00000E+00
 -1       786 1.09977E-05-4.23296E-08 2.06795E-25
 -1       787 1.10294E-05 5.65925E-08 4.13590E-25
 -1       788 1.10611E-05 1.31219E-07 0.00000E+00
 -1       789 1.10930E-05 1.85976E-07-4.13590E-25
 -1       790 1.11250E-05 2.25282E-07 0.00000E+00
 -1       791 1.11571E-05 2.53552E-07 4.13590E-25
 -1       792 1.11892E-05 2.75199E-07 0.00000E+00
 -1       793 1.12213E-05 2.94632E-07 4.13590E-25
 -1       794 1.12534E-05 3.16263E-07 0.00000E+00
 -1       795 1.12855E-05 3.44502E-07 4.13590E-25
 -1       796 1.13175E-05 3.83761E-07 0.00000E+00
 -1       797 1.13496E-05 4.38455E-07 0.00000E+00
 -1       798 1.13817E-05 5.13003E-07 0.00000E+00
 -1       799 1.14136E-05 6.11828E-07 0.00000E+00
 -1       800 1.14455E-05 7.39365E-07 0.00000E+00
 -1       801 1.00011E-05-1.39764E-07 0.00000E+00
 -1       802 7.98631E-06-1.09200E-07 0.00000E+00
 -1       803 5.45067E-06-7.98560E-08 0.00000E+00
 -1       804 2.92243E-06-5.15181E-08 4.13590E-25
 -1       805 9.29819E-07-2.20462E-08 0.00000E+00
 -1       806 1.08821E-05-5.56605E-08 8.27181E-25
 -1       807 1.07999E-05 4.58933E-08-8.27181E-25
 -1       808 1.07212E-05 1.37106E-07 0.00000E+00
 -1       809 1.06453E-05 2.20227E-07 0.00000E+00
 -1       810 1.05716E-05 2.97495E-07 0.00000E+00
 -1       811 1.04992E-05 3.71137E-07 8.27181E-25
 -1       812 1.04274E-05 4.43373E-07 8.27181E-25
 -1       813 1.03552E-05 5.16423E-07 4.13590E-25
 -1       814 1.02819E-05 5.92508E-07 8.27181E-25
 -1       815 1.02067E-05 6.73846E-07-4.13590E-25
 -1       816 1.01286E-05 7.62657E-07-8.27181E-25
 -1       817 1.00469E-05 8.61160E-07-4.13590E-25
 -1       818 9.96082E-06 9.71577E-07 0.00000E+00
 -1       819 9.86953E-06 1.09613E-06 0.00000E+00
 -1       820 9.77234E-06 1.23704E-06 4.13590E-25
 -1       821 1.14444E-05 1.10585E-06 4.13590E-25
 -1       822 1.14101E-05 1.35838E-06 0.00000E+00
 -1       823 1.13759E-05 1.65274E-06 0.00000E+00
 -1       824 1.13414E-05 1.98396E-06 0.00000E+00
 -1       825 1.13067E-05 2.34711E-06 8.27181E-25
 -1       826 1.12721E-05 2.73722E-06 4.13590E-25
 -1       827 1.12374E-05 3.14931E-06 0.00000E+00
 -1       828 1.12027E-05 3.57843E-06 4.13590E-25
 -1       829 1.11680E-05 4.01959E-06 0.00000E+00
 -1       830 1.11332E-05 4.46779E-06 0.00000E+00
 -1       831 1.10985E-05 4.91808E-06-8.27181E-25
 -1       832 1.10639E-05 5.36545E-06 4.13590E-25
 -1       833 1.10293E-05 5.80492E-06 8.27181E-25
 -1       834 1.09949E-05 6.23152E-06 4.13590E-25
 -1       835 1.09605E-05 6.64025E-06 4.13590E-25
 -1       836 1.12401E-05 9.81268E-07-1.65436E-24
 -1       837 1.09303E-05 1.06539E-06 0.00000E+00
 -1       838 1.05827E-05 1.14935E-06 0.00000E+00
 -1       839 1.02329E-05 1.23310E-06 0.00000E+00
 -1       840 9.91658E-06 1.31698E-06 8.27181E-25
 -1       841 1.13996E-05 1.10546E-06 0.00000E+00
 -1       842 1.13027E-05 1.36201E-06 0.00000E+00
 -1       843 1.11888E-05 1.66401E-06 0.00000E+00
 -1       844 1.10600E-05 2.00549E-06 8.07794E-28
 -1       845 1.09186E-05 2.38052E-06-1.29247E-26
 -1       846 1.07668E-05 2.78315E-06 6.46235E-27
 -1       847 1.06069E-05 3.20734E-06-1.29247E-26
 -1       848 1.04411E-05 3.64711E-06-1.29247E-26
 -1       849 1.02718E-05 4.09641E-06 0.00000E+00
 -1       850 1.01011E-05 4.54920E-06 1.29247E-26
 -1       851 9.93143E-06 4.99944E-06 2.58494E-26
 -1       852 9.76493E-06 5.44108E-06 0.00000E+00
 -1       853 9.60392E-06 5.86811E-06 0.00000E+00
 -1       854 9.45050E-06 6.27443E-06 0.00000E+00
 -1       855 9.30713E-06 6.65414E-06 0.00000E+00
 -1       856 1.08886E-05 7.44128E-06 0.00000E+00
 -1       857 1.08475E-05 7.93200E-06 0.00000E+00
 -1       858 1.08063E-05 8.48845E-06-8.27181E-25
 -1       859 1.07649E-05 9.10068E-06 0.00000E+00
 -1       860 1.07233E-05 9.75869E-06-1.65436E-24
 -1       861 1.06817E-05 1.04525E-05 0.00000E+00
 -1       862 1.06401E-05 1.11721E-05 1.65436E-24
 -1       863 1.05984E-05 1.19075E-05-8.27181E-25
 -1       864 1.05567E-05 1.26486E-05-1.65436E-24
 -1       865 1.05151E-05 1.33855E-05 8.27181E-25
 -1       866 1.04734E-05 1.41080E-05 1.65436E-24
 -1       867 1.04318E-05 1.48063E-05-8.27181E-25
 -1       868 1.03903E-05 1.54703E-05 0.00000E+00
 -1       869 1.03489E-05 1.60899E-05-4.13590E-25
 -1       870 1.03076E-05 1.66552E-05 0.00000E+00
 -1       871 1.06020E-05 7.02259E-06 0.00000E+00
 -1       872 1.03029E-05 7.01864E-06 0.00000E+00
 -1       873 1.00208E-05 7.01459E-06 4.13590E-25
 -1       874 9.74555E-06 7.01041E-06-1.03398E-25
 -1       875 9.46699E-06 7.00604E-06-2.06795E-25
 -1       876 1.08302E-05 7.45518E-06 0.00000E+00
 -1       877 1.07108E-05 7.94933E-06-8.27181E-25
 -1       878 1.05703E-05 8.49950E-06 0.00000E+00
 -1       879 1.04121E-05 9.09759E-06 0.00000E+00
 -1       880 1.02392E-05 9.73527E-06-1.65436E-24
 -1       881 1.00545E-05 1.04044E-05-8.27181E-25
 -1       882 9.86105E-06 1.10967E-05-1.65436E-24
 -1       883 9.66201E-06 1.18040E-05 0.00000E+00
 -1       884 9.46038E-06 1.25182E-05 0.00000E+00
 -1       885 9.25923E-06 1.32311E-05-8.27181E-25
 -1       886 9.06160E-06 1.39346E-05 0.00000E+00
 -1       887 8.87052E-06 1.46204E-05 0.00000E+00
 -1       888 8.68908E-06 1.52805E-05 0.00000E+00
 -1       889 8.51999E-06 1.59064E-05 0.00000E+00
 -1       890 8.36679E-06 1.64902E-05 8.27181E-25
 -1       891 9.86699E-06 1.71342E-05 0.00000E+00
 -1       892 9.54581E-06 1.71117E-05 4.13590E-25
 -1       893 9.26276E-06 1.70893E-05 0.00000E+00
 -1       894 8.97657E-06 1.70669E-05 2.06795E-25
 -1       895 8.64595E-06 1.70444E-05 4.13590E-25
 -1       896 9.96549E-08 6.00810E-07 3.30872E-24
 -1       897 2.00098E-07 1.05673E-06 1.65436E-24
 -1       898 3.00539E-07 1.40268E-06-3.30872E-24
 -1       899 4.01139E-07 1.67307E-06-1.65436E-24
 -1       900 5.01754E-07 1.88422E-06-3.30872E-24
 -1       901 6.02405E-07 2.05220E-06 0.00000E+00
 -1       902 7.03062E-07 2.18270E-06 3.30872E-24
 -1       903 8.03721E-07 2.28127E-06 0.00000E+00
 -1       904 9.04379E-07 2.34579E-06 0.00000E+00
 -1       905 1.00501E-06 2.37399E-06-1.65436E-24
 -1       906 1.10562E-06 2.35490E-06 0.00000E+00
 -1       907 1.20610E-06 2.27735E-06-1.65436E-24
 -1       908 1.30654E-06 2.11614E-06 0.00000E+00
 -1       909 1.40626E-06 1.84572E-06 0.00000E+00
 -1       910 1.50617E-06 1.41438E-06 0.00000E+00
 -1       911 1.61031E-06 4.79770E-07 0.00000E+00
 -1       912 1.61807E-06 1.10936E-06-1.03398E-25
 -1       913 1.62518E-06 2.46113E-06 0.00000E+00
 -1       914 1.63145E-06 4.33798E-06 1.03398E-25
 -1       915 1.63707E-06 6.55214E-06-2.06795E-25
 -1       916 1.64236E-06 8.91589E-06 0.00000E+00
 -1       917 1.64773E-06 1.12442E-05 2.06795E-25
 -1       918 1.65356E-06 1.33519E-05-1.03398E-25
 -1       919 1.66012E-06 1.50502E-05 0.00000E+00
 -1       920 1.66747E-06 1.61499E-05-1.03398E-25
 -1       921 1.67532E-06 1.64513E-05 2.06795E-25
 -1       922 1.68292E-06 1.57545E-05-1.03398E-25
 -1       923 1.68893E-06 1.38419E-05 5.16988E-26
 -1       924 1.69098E-06 1.04955E-05 5.16988E-26
 -1       925 1.68634E-06 5.47243E-06-4.13590E-25
 -1       926 1.55062E-06-9.49987E-06 0.00000E+00
 -1       927 1.42857E-06-1.77559E-05 0.00000E+00
 -1       928 1.31035E-06-2.55222E-05-3.30872E-24
 -1       929 1.20002E-06-3.20840E-05 0.00000E+00
 -1       930 1.09883E-06-3.69501E-05 0.00000E+00
 -1       931 1.00548E-06-3.96364E-05 1.65436E-24
 -1       932 9.15460E-07-4.00633E-05 0.00000E+00
 -1       933 8.23757E-07-3.81605E-05-1.65436E-24
 -1       934 7.26730E-07-3.42901E-05 0.00000E+00
 -1       935 6.22490E-07-2.88219E-05-1.65436E-24
 -1       936 5.13049E-07-2.24228E-05-3.30872E-24
 -1       937 4.01841E-07-1.57635E-05 1.65436E-24
 -1       938 2.93383E-07-9.56264E-06-3.30872E-24
 -1       939 1.90623E-07-4.53744E-06 1.65436E-24
 -1       940 9.46666E-08-1.18608E-06-3.30872E-24
 -1       941 5.73096E-07 9.47935E-08 0.00000E+00
 -1       942 1.17783E-06 1.79039E-07 0.00000E+00
 -1       943 1.78055E-06 2.57317E-07 0.00000E+00
 -1       944 2.38930E-06 3.34041E-07-6.61744E-24
 -1       945 2.99821E-06 4.09887E-07 1.32349E-23
 -1       946 3.60833E-06 4.85509E-07 0.00000E+00
 -1       947 4.21859E-06 5.61016E-07 0.00000E+00
 -1       948 4.82906E-06 6.36512E-07 6.61744E-24
 -1       949 5.43953E-06 7.12078E-07 0.00000E+00
 -1       950 6.04986E-06 7.87798E-07 0.00000E+00
 -1       951 6.66008E-06 8.64125E-07 1.32349E-23
 -1       952 7.26935E-06 9.41530E-07 6.61744E-24
 -1       953 7.87848E-06 1.02310E-06-1.32349E-23
 -1       954 8.48276E-06 1.11203E-06 0.00000E+00
 -1       955 9.08867E-06 1.22928E-06 0.00000E+00
 -1       956 9.63887E-06 1.61805E-06 4.13590E-25
 -1       957 9.60810E-06 1.87354E-06-4.13590E-25
 -1       958 9.57722E-06 2.15965E-06 0.00000E+00
 -1       959 9.54628E-06 2.47273E-06 2.06795E-25
 -1       960 9.51531E-06 2.80916E-06 4.13590E-25
 -1       961 9.48433E-06 3.16525E-06-4.13590E-25
 -1       962 9.45333E-06 3.53734E-06 8.27181E-25
 -1       963 9.42233E-06 3.92177E-06 0.00000E+00
 -1       964 9.39133E-06 4.31486E-06 0.00000E+00
 -1       965 9.36032E-06 4.71294E-06 0.00000E+00
 -1       966 9.32932E-06 5.11233E-06 0.00000E+00
 -1       967 9.29833E-06 5.50937E-06 0.00000E+00
 -1       968 9.26736E-06 5.90039E-06-8.27181E-25
 -1       969 9.23643E-06 6.28173E-06 0.00000E+00
 -1       970 9.20559E-06 6.64973E-06-8.27181E-25
 -1       971 9.11768E-06 7.37784E-06 0.00000E+00
 -1       972 9.05859E-06 7.83544E-06 0.00000E+00
 -1       973 8.99948E-06 8.36364E-06 1.65436E-24
 -1       974 8.94011E-06 8.95231E-06-8.27181E-25
 -1       975 8.88067E-06 9.59130E-06 1.65436E-24
 -1       976 8.82116E-06 1.02704E-05 8.27181E-25
 -1       977 8.76162E-06 1.09795E-05 0.00000E+00
 -1       978 8.70206E-06 1.17083E-05 0.00000E+00
 -1       979 8.64250E-06 1.24466E-05 0.00000E+00
 -1       980 8.58294E-06 1.31842E-05 0.00000E+00
 -1       981 8.52341E-06 1.39108E-05-1.65436E-24
 -1       982 8.46396E-06 1.46163E-05 8.27181E-25
 -1       983 8.40458E-06 1.52904E-05 0.00000E+00
 -1       984 8.34555E-06 1.59229E-05 0.00000E+00
 -1       985 8.28652E-06 1.65037E-05 0.00000E+00
 -3
    1PSTEP                        26          13           1          
  100CL  113 2.29980E-01         841                     0   13           1
 -4  STRESS      6    1
 -5  SXX         1    4    1    1
 -5  SYY         1    4    2    2
 -5  SZZ         1    4    3    3
 -5  SXY         1    4    1    2
 -5  SYZ         1    4    2    3
 -5  SZX         1    4    3    1
 -1         1-9.67484E+05-3.12281E+05-2.00154E+05-2.76498E+05-3.52884E-10-6.45135E-10
 -1         2-6.03754E+05-3.74068E+04 8.20563E+02-5.87230E+04-1.22645E-09-2.25782E-10
 -1         3-3.32750E+05-1.12791E+05-1.97021E+04-2.53772E+04 3.75593E-10 3.54191E-10
 -1         4-1.84104E+05-2.98064E+04 2.79294E+02-1.80849E+04 1.86091E-11-1.47372E-09
 -1         5-9.86309E+04 3.70603E+04-4.39634E+04-1.96029E+03 3.43834E-09 3.61609E-10
 -1         8-5.17475E+05-2.05525E+05-7.77638E+04-1.87390E+05 2.00089E-11-4.62023E-10
 -1         9-5.40078E+05-1.25303E+05-6.53642E+04-1.23338E+05-2.67998E-10 1.98270E-10
 -1        10-2.18314E+05-1.29971E+05-3.54838E+03-5.04207E+04-1.41593E-09-7.67917E-10
 -1        11-1.74088E+05-4.49346E+04 4.56955E+02-3.63620E+04-6.20550E-10 1.91619E-10
 -1        12-1.18766E+05 2.66227E+04-4.96976E+04-1.56223E+04 1.22375E-09 1.60871E-09
 -1        15 3.67415E+03-1.89405E+04 1.46245E+03-3.56019E+04-2.71029E-10 1.79716E-09
 -1        16-3.11672E+05-3.90698E+04 2.07271E+04-1.38275E+05 2.51021E-10 9.77517E-10
 -1        17-1.87270E+05-1.21640E+05-2.00720E+04-1.01956E+05-1.38395E-09 2.78305E-10
 -1        18-3.78473E+04-2.74775E+04-2.00428E+04-3.65325E+04 2.47481E-09-1.16703E-09
 -1        19-2.17297E+04 2.13373E+04-1.86700E+04-1.45344E+04-3.35831E-10 2.69817E-10
 -1        20 3.06493E+04-2.30982E+04-3.98621E+03 1.66938E+04 1.26624E-09 8.01720E-10
 -1        21 4.89966E+02-4.59456E+04 1.27589E+04 9.98919E+00 3.00417E-09-4.95952E-10
 -1        22 1.05981E+04 5.54642E+04 4.41930E+02-1.69895E+04-3.32648E-10 7.04858E-11
 -1        23-7.90346E+04 3.20442E+04 3.47799E+03-2.99008E+04-2.19484E-09-1.74032E-09
 -1        24-8.52322E+04-2.83761E+03 8.21061E+04-1.49611E+05-4.76787E-09 9.52544E-10
 -1        25 1.81453E+05 5.93325E+04 5.52817E+04-9.13688E+04 3.58341E-10-1.95390E-10
 -1        26 8.59234E+02 4.86388E+04 2.44203E+03-8.73705E+03-2.28662E-10-7.99560E-10
 -1        27-1.05617E+04-1.92952E+04-8.31236E+03 2.33723E+04-8.17787E-11-9.36476E-10
 -1        28-3.67968E+03-3.65031E+04-1.99816E+02 1.76326E+04-1.83815E-09-1.30808E-09
 -1        29 1.38812E+05 1.00699E+05 4.39947E+02-1.05199E+03 3.42011E-10 1.82126E-10
 -1        30 1.75393E+04 1.49692E+04 6.12243E+02-1.43960E+04-5.83331E-10-3.73802E-10
 -1        31-9.76959E+04 1.23791E+04 4.43482E+03-2.94834E+04 2.70928E-09-1.07498E-08
 -1        32 2.86817E+05 1.50307E+05 1.86727E+05-1.49726E+05 3.21485E-09 9.98625E-10
 -1        33 4.26898E+05 1.69255E+05 1.30500E+05-1.30247E+04-8.63158E-09-3.50610E-10
 -1        34-6.16853E+04-7.69417E+03-1.34241E+03 1.36049E+04 4.20927E-10 6.13682E-10
 -1        35-1.04394E+04-1.22126E+04-2.16954E+02 2.64024E+04 1.05860E-09-8.10057E-10
 -1        36-1.29277E+06 3.94145E+04-9.10910E+04 1.37715E-07-4.29814E-11-3.41970E-10
 -1        37-1.33221E+06-4.56250E+04-6.44668E+04 1.30289E-07 4.67258E-10 8.33097E-10
 -1        38-1.30799E+06 6.17816E+03-2.35739E+04 2.09522E-08 1.16912E-09 4.94765E-10
 -1        39-1.31444E+06-7.14945E+03-1.48252E+04-2.84520E-07-6.24039E-10 5.61840E-10
 -1        40-1.31050E+06 9.66333E+02-6.05599E+03-4.47977E-08 8.77393E-10-1.79398E-10
 -1        41-1.31151E+06-1.13119E+03-3.61093E+03 1.42772E-07-4.88943E-10 1.98526E-09
 -1        42-1.31091E+06 1.64194E+02-1.75535E+03-1.20288E-09 2.57189E-10 1.27039E-09
 -1        43-1.31107E+06-2.83752E+02-1.37198E+03-2.66693E-08 6.91167E-10-1.88464E-10
 -1        44-1.31094E+06 1.19440E+02-1.35481E+03-4.03924E-08 2.73859E-11 6.68649E-10
 -1        45-1.31131E+06-7.46387E+02-2.45123E+03-2.77158E-08-7.00625E-10-5.13410E-10
 -1        46-1.31068E+06 6.26518E+02-3.96876E+03-1.02741E-07-2.16875E-09-9.31550E-10
 -1        47-1.31319E+06-4.62273E+03-9.60973E+03-6.38077E-09-3.48872E-10 3.41970E-10
 -1        48-1.30906E+06 3.99299E+03-1.52491E+04-3.01614E-08-8.25799E-10 3.91992E-10
 -1        49-1.32467E+06-2.94864E+04-4.16698E+04 1.10047E-07-1.19062E-09-1.40062E-09
 -1        50-1.29922E+06 2.54715E+04-5.88802E+04-1.32835E-08-1.26139E-09 1.95723E-09
 -1        51 1.07053E+04-1.28339E+05 1.69981E+04-3.35599E+05-1.45519E-11-9.30595E-09
 -1        52 4.37973E+03-1.26110E+05 1.02286E+04-3.69403E+05 2.43745E-10-1.95869E-08
 -1        53 2.48355E+03-1.28587E+05 8.24699E+03-3.34750E+05 1.81899E-12-1.33514E-09
 -1        54 6.10531E+03-1.26681E+05 1.25175E+04-3.70337E+05-1.45519E-10 2.06528E-08
 -1        55 1.54730E+04-1.30435E+05 2.27468E+04-3.34628E+05-1.09139E-11 9.13042E-09
 -1        56-1.47846E+06-1.67027E+05-1.21814E+05-5.72046E+05 1.87356E-10 1.38971E-09
 -1        57-1.53565E+06-2.66156E+05-8.17014E+04-5.57819E+05 5.22959E-11 5.84805E-10
 -1        58-1.50202E+06-2.05536E+05-2.87011E+04-5.65534E+05 3.89264E-10 2.69210E-10
 -1        59-1.50850E+06-2.20779E+05-1.70151E+04-5.65647E+05-1.70985E-10-6.43922E-10
 -1        60-1.50534E+06-2.10878E+05-6.71409E+03-5.64768E+05 2.24418E-10 1.36288E-09
 -1        61-1.50476E+06-2.14434E+05-3.80022E+03-5.66462E+05-7.23276E-10 1.26295E-09
 -1        62-1.50573E+06-2.11692E+05-1.85407E+03-5.64784E+05-5.63716E-10 8.00696E-10
 -1        63-1.50450E+06-2.13461E+05-1.55298E+03-5.66297E+05 2.96836E-10 3.14466E-09
 -1        64-1.50559E+06-2.11831E+05-1.80686E+03-5.64939E+05-2.30756E-10 2.42835E-09
 -1        65-1.50527E+06-2.13857E+05-3.66066E+03-5.65849E+05-3.37423E-10-3.66504E-09
 -1        66-1.50496E+06-2.11316E+05-6.44981E+03-5.65225E+05-4.64865E-10 1.63482E-10
 -1        67-1.50936E+06-2.19444E+05-1.63315E+04-5.64492E+05-5.56724E-10 2.04182E-10
 -1        68-1.50154E+06-2.06428E+05-2.75458E+04-5.66232E+05 3.07409E-10 3.89264E-10
 -1        69-1.53584E+06-2.62557E+05-7.84059E+04-5.56484E+05 1.61435E-10 7.27596E-12
 -1        70-1.47874E+06-1.69668E+05-1.16905E+05-5.72705E+05 2.16460E-10 6.83940E-10
 -1        71-6.20059E+05-9.86787E+02 2.28106E+03 6.14682E-08-1.46390E-09-6.87010E-10
 -1        72-6.19013E+05 1.14224E+03 1.61151E+03 2.30472E-08-1.92434E-09 1.79045E-09
 -1        73-6.19677E+05-1.54554E+02 5.84176E+02 1.11939E-07-1.03978E-09 9.54856E-10
 -1        74-6.19458E+05 1.77915E+02 3.57632E+02 4.85268E-08 5.85653E-10-1.25770E-09
 -1        75-6.19614E+05-2.32321E+01 1.25259E+02 6.57873E-08-6.23874E-10 1.11542E-09
 -1        76-6.19536E+05 2.09380E+01 3.37476E+01-2.77184E-08-3.25710E-10 1.99517E-09
 -1        77-6.19600E+05 2.31035E+00-6.23522E+01 1.03302E-07-4.32563E-10 1.10185E-09
 -1        78-6.19572E+05-4.12577E+01-1.99760E+02-4.50413E-08-4.65123E-10 6.00306E-10
 -1        79-6.19578E+05 3.89302E+01-3.90500E+02-4.76786E-08-2.08609E-10-4.29438E-10
 -1        80-6.19706E+05-2.93937E+02-9.16089E+02-2.90817E-08-8.06427E-10 1.25100E-09
 -1        81-6.19466E+05 2.54829E+02-1.58428E+03-1.06728E-07-1.72835E-10 5.97936E-10
 -1        82-6.20484E+05-1.88954E+03-3.91266E+03-2.79194E-08 7.30484E-10-8.49525E-10
 -1        83-6.18802E+05 1.63337E+03-6.23254E+03 6.19406E-09 7.34710E-11-7.84439E-10
 -1        84-6.25180E+05-1.20628E+04-1.70478E+04 7.87289E-08-2.54531E-10 1.59821E-09
 -1        85-6.14775E+05 1.04202E+04-2.40957E+04 9.95475E-08-8.31618E-10 6.65750E-10
 -1        86-2.88227E+04 8.61277E+04 6.77339E+04 3.55828E+02-1.45519E-11 2.41890E-10
 -1        87 3.59162E+04 1.16433E+05 5.24196E+04-1.49217E+03-1.55069E-10 3.05493E-09
 -1        88-7.06354E+03 9.60868E+04 2.66451E+04 2.48717E+02-3.17414E-10 9.04837E-10
 -1        89 2.44277E+04 1.11081E+05 3.74444E+04-1.37121E+03-1.08230E-10-1.46685E-09
 -1        90-1.73437E+04 9.14761E+04 4.19823E+04 2.34874E+02-3.89264E-10-1.04862E-09
 -1        91-6.44534E+05-8.86278E+04-7.81355E+03-2.44389E+05 7.08951E-10 1.22145E-09
 -1        92-6.51780E+05-9.21462E+04-5.35731E+03-2.38839E+05 2.43494E-09 1.02733E-09
 -1        93-6.45450E+05-9.18813E+04-1.82641E+03-2.44392E+05 6.84622E-10 1.99486E-09
 -1        94-6.49183E+05-8.95414E+04-1.08424E+03-2.40142E+05-1.45431E-09 3.79558E-10
 -1        95-6.47127E+05-9.12328E+04-5.07728E+02-2.43084E+05-4.28940E-10-1.01576E-09
 -1        96-6.46061E+05-9.17201E+04-2.01954E+02-2.43289E+05 1.96894E-09-5.91069E-10
 -1        97-6.48568E+05-8.97048E+04-2.23189E+02-2.41243E+05-9.11172E-10 2.09599E-10
 -1        98-6.44479E+05-9.35735E+04-2.53342E+02-2.45472E+05-1.17675E-09 2.28174E-09
 -1        99-6.48715E+05-8.93736E+04-4.53334E+02-2.40905E+05 6.08827E-10 3.76019E-10
 -1       100-6.45554E+05-9.28372E+04-1.00999E+03-2.44168E+05 3.12197E-09 3.05390E-09
 -1       101-6.47488E+05-9.04455E+04-1.92419E+03-2.42544E+05 3.55868E-10 1.55444E-09
 -1       102-6.49598E+05-9.22822E+04-4.91193E+03-2.40568E+05 5.48397E-10 1.55160E-09
 -1       103-6.44673E+05-8.99312E+04-8.01297E+03-2.44504E+05-5.15683E-10 1.05956E-09
 -1       104-6.59410E+05-1.05050E+05-2.36628E+04-2.36267E+05-1.14824E-11-1.18075E-09
 -1       105-6.37690E+05-7.76821E+04-3.41485E+04-2.46849E+05-1.71894E-10-7.93079E-10
 -1       106-3.91614E+05 1.73230E+03-4.00719E+03-3.17473E-08-1.46859E-10-4.61796E-10
 -1       107-3.93318E+05-2.00551E+03-2.83642E+03-7.33297E-09-1.05781E-10-1.20272E-09
 -1       108-3.92284E+05 2.71628E+02-1.04045E+03-8.60922E-08-3.87599E-10 4.29907E-10
 -1       109-3.92538E+05-3.14823E+02-6.59274E+02-5.30401E-09-2.05000E-10 1.09477E-09
 -1       110-3.92394E+05 4.29702E+01-2.80116E+02 1.34228E-08 2.83580E-10-6.98037E-10
 -1       111-3.92412E+05-5.34993E+01-1.87963E+02 6.51610E-09-2.49849E-10 2.56406E-10
 -1       112-3.92410E+05 1.04992E+01-1.31686E+02 9.31173E-08-3.54009E-10-5.43954E-10
 -1       113-3.92405E+05-3.71874E+01-1.80131E+02 4.47853E-09 1.53755E-10 4.04198E-10
 -1       114-3.92401E+05 2.66728E+01-2.76668E+02 4.37275E-08-3.02377E-10-2.88949E-10
 -1       115-3.92486E+05-1.92563E+02-6.07586E+02 4.37781E-08-8.37999E-10-7.67955E-10
 -1       116-3.92328E+05 1.65775E+02-1.03537E+03-8.30986E-08 7.81698E-11 1.67751E-09
 -1       117-3.92991E+05-1.22792E+03-2.54560E+03-5.45298E-08-2.11992E-10 1.07175E-09
 -1       118-3.91897E+05 1.06126E+03-4.05162E+03-1.28871E-07 8.31878E-11 8.34461E-10
 -1       119-3.96042E+05-7.83748E+03-1.10780E+04-3.78222E-08 4.58726E-10-8.84143E-10
 -1       120-3.89280E+05 6.77017E+03-1.56571E+04 2.41879E-08-1.21595E-10-4.55657E-10
 -1       121-5.30980E+02-3.20883E+05 2.49328E+03 5.02817E+03-6.09361E-11-2.21695E-09
 -1       122 7.65331E+02-3.19952E+05 1.68067E+03 1.79840E+04-1.87470E-10-6.25550E-09
 -1       123-7.81093E+01-3.20529E+05 8.62585E+02 5.04791E+03-3.01952E-10-2.18097E-09
 -1       124 3.44349E+02-3.20180E+05 9.30160E+02 1.78923E+04-6.33577E-10 8.50832E-10
 -1       125-2.23085E+02-3.20623E+05 1.05713E+03 5.11987E+03-7.62270E-10-1.04137E-09
 -1       126-3.19535E+05-4.35159E+04-1.55424E+03-1.18626E+05-2.36517E-09-1.85878E-11
 -1       127-3.13833E+05-4.81244E+04-5.97897E+02-1.22149E+05-4.84337E-09 2.39339E-09
 -1       128-3.20077E+05-4.24741E+04-3.37147E+02-1.16808E+05-2.87725E-09 1.09101E-09
 -1       129-3.13271E+05-4.90606E+04-1.32649E+02-1.23961E+05-5.35189E-09 4.45590E-10
 -1       130-3.20116E+05-4.25648E+04-1.14079E+02-1.16829E+05-4.24733E-09 1.21234E-09
 -1       131-3.13574E+05-4.75081E+04 2.19473E+02-1.22157E+05 4.66362E-09-1.30420E-10
 -1       132-3.19753E+05-4.40420E+04-2.95270E+02-1.18597E+05 1.74478E-09-1.80947E-10
 -1       133-3.15740E+05-4.42848E+04 3.95810E+02-1.18343E+05-3.58510E-09 4.76469E-10
 -1       134-3.17931E+05-4.58025E+04-3.89518E+02-1.20628E+05-1.76257E-09 8.15561E-10
 -1       135-3.19794E+05-4.15734E+04-1.11541E+02-1.15206E+05-5.05474E-09 1.08304E-09
 -1       136-3.15719E+05-4.67381E+04-6.70349E+02-1.21750E+05 4.20313E-11-3.78122E-10
 -1       137-3.22338E+05-4.13073E+04-1.67289E+03-1.14001E+05 3.54649E-09 2.87628E-11
 -1       138-3.15406E+05-4.60548E+04-2.80996E+03-1.21847E+05-3.10229E-09-1.55410E-09
 -1       139-3.22790E+05-4.72847E+04-7.89623E+03-1.14248E+05 3.39742E-09 2.43710E-09
 -1       140-3.15249E+05-4.07793E+04-1.20953E+04-1.21487E+05 2.34331E-09-2.41016E-10
 -1       141-1.86840E+05-1.10865E+03 2.56289E+03-2.56732E-08 5.20813E-11 1.42109E-11
 -1       142-1.85711E+05 1.28329E+03 1.81042E+03 6.70736E-09-6.87603E-11 4.83936E-10
 -1       143-1.86411E+05-1.73623E+02 6.55695E+02-5.44298E-08-4.42544E-11-4.95163E-10
 -1       144-1.86211E+05 1.99743E+02 4.00109E+02-7.33368E-08 1.76305E-10 4.67466E-11
 -1       145-1.86340E+05-2.59740E+01 1.37281E+02 4.11944E-09 8.23836E-11 2.32184E-10
 -1       146-1.86299E+05 2.25470E+01 3.03946E+01-8.90238E-08 1.21792E-10 1.97431E-10
 -1       147-1.86324E+05 3.44498E+00-8.42207E+01-8.46731E-08 1.65215E-13-3.92596E-10
 -1       148-1.86342E+05-5.27510E+01-2.55621E+02-2.12720E-08-3.55649E-10-5.78535E-10
 -1       149-1.86297E+05 4.92838E+01-4.95274E+02 2.72093E-08-3.13265E-10 3.65361E-10
 -1       150-1.86511E+05-3.71589E+02-1.15923E+03 9.18226E-09 1.40189E-10 6.99316E-11
 -1       151-1.86155E+05 3.22084E+02-2.00382E+03 4.44423E-08-7.90693E-11 3.14230E-10
 -1       152-1.87494E+05-2.38810E+03-4.94707E+03 1.21507E-08 1.15749E-10-1.70132E-10
 -1       153-1.85314E+05 2.06433E+03-7.87992E+03 2.25119E-08 1.08091E-09 9.51786E-10
 -1       154-1.93428E+05-1.52455E+04-2.15494E+04 5.18168E-09 3.99046E-10 8.93579E-11
 -1       155-1.80221E+05 1.31695E+04-3.04559E+04 3.79483E-08 2.04079E-09 2.29193E-10
 -1       156-6.13037E+03-6.11432E+04 1.45833E+04 6.74189E+01 4.82942E-10 1.54611E-05
 -1       157 8.04732E+03-5.45031E+04 1.20036E+04-2.70566E+02 1.82081E-09 3.07841E-05
 -1       158-1.91061E+03-5.92293E+04 7.20596E+03 7.00522E+01 8.19334E-10 1.54503E-05
 -1       159 8.27270E+03-5.43983E+04 1.22974E+04-2.66099E+02 5.37739E-11 4.33457E-08
 -1       160-6.35558E+03-6.12479E+04 1.50884E+04 6.29517E+01 4.54747E-12 3.67569E-09
 -1       161-1.92864E+05-2.69424E+04-3.98053E+02-7.23611E+04 1.30852E-05-4.90458E-06
 -1       162-1.92958E+05-2.74028E+04-2.77814E+02-7.23971E+04 2.60474E-05-9.76688E-06
 -1       163-1.92957E+05-2.70727E+04-9.76617E+01-7.23199E+04 6.42429E-06-2.40817E-06
 -1       164-1.92857E+05-2.72470E+04-6.85449E+01-7.24378E+04-1.32342E-05 4.96119E-06
 -1       165-1.92966E+05-2.70980E+04-4.20598E+01-7.23204E+04-6.65054E-06 2.49284E-06
 -1       166-1.92868E+05-2.72079E+04-5.97385E+01-7.24175E+04-2.03773E-08 7.89909E-09
 -1       167-1.92946E+05-2.71117E+04-9.49161E+01-7.23402E+04 7.44254E-10 2.81908E-11
 -1       168-1.92939E+05-2.72137E+04-2.18009E+02-7.23639E+04-1.11029E-09 5.63144E-10
 -1       169-1.92895E+05-2.70923E+04-3.94396E+02-7.23739E+04 2.41727E-10-1.12655E-09
 -1       170-1.93184E+05-2.74898E+04-9.90539E+02-7.22562E+04 5.30306E-10-4.01982E-10
 -1       171-1.92701E+05-2.68359E+04-1.71101E+03-7.24479E+04-2.36724E-10-5.99243E-10
 -1       172-1.94434E+05-2.95174E+04-4.61342E+03-7.18444E+04-1.68632E-09 4.47926E-11
 -1       173-1.91646E+05-2.50659E+04-7.38626E+03-7.27855E+04-9.66093E-07 3.62335E-07
 -1       174-2.01923E+05-4.26399E+04-2.18855E+04-6.93647E+04-1.92838E-06 7.22910E-07
 -1       175-1.85214E+05-1.37218E+04-3.15197E+04-7.49248E+04-9.68260E-07 3.62914E-07
 -1       191 3.50660E+02 1.63216E+05 5.61260E+02-3.74377E+03-2.07820E-10-1.01409E-10
 -1       192 1.30069E+02 1.63293E+05 3.36725E+02-3.99084E+03-2.99053E-10 9.11314E-10
 -1       193 6.29920E+01 1.63243E+05 2.72994E+02-3.67335E+03-5.50756E-10 1.35242E-09
 -1       194 1.73831E+02 1.63306E+05 4.15557E+02-4.12358E+03-6.13113E-10 1.12595E-09
 -1       195 4.86459E+02 1.63199E+05 7.57392E+02-3.61085E+03-8.32188E-10 9.86802E-11
 -1       251-8.44588E+05 1.93183E+04-4.63699E+04-9.47072E+03-1.76613E-10-1.64073E-09
 -1       252-8.55755E+05-2.25332E+04-3.12672E+04 2.49441E+04 8.53753E-10 3.30374E-09
 -1       253-8.49698E+05 3.28576E+03-1.20149E+04-1.15962E+04 4.91980E-11-3.56249E-09
 -1       254-8.41355E+05-3.23793E+03-5.36013E+03 1.50162E+04 6.80217E-10 4.50427E-10
 -1       255-8.58801E+05-1.34245E+02-4.91618E+03 4.57587E+02 1.47793E-11 1.38243E-10
 -1       256-8.39052E+05-1.49198E+02 4.02863E+02-9.99737E+03-2.93198E-10-1.01321E-09
 -1       257-8.51968E+05 1.70983E+02-1.33802E+03 1.34165E+04-9.55652E-10 2.80085E-09
 -1       258-8.45717E+05-2.10328E+02-2.11288E+01-2.26290E+04-3.23794E-10-2.77638E-09
 -1       259-8.52345E+05 1.31966E+02-1.41234E+03 1.30908E+04-2.64993E-09 2.12435E-09
 -1       260-8.38731E+05-1.24624E+02 4.83067E+02-9.04757E+03 2.50111E-12-1.59253E-09
 -1       261-8.58736E+05-1.29257E+02-4.87682E+03-1.66599E+02-4.16890E-10 3.63457E-10
 -1       262-8.41711E+05-3.23671E+03-5.37641E+03 1.58743E+04 3.96699E-09 1.71894E-10
 -1       263-8.49418E+05 3.29079E+03-1.18540E+04-1.18301E+04-2.17369E-09-3.66481E-09
 -1       264-8.55537E+05-2.23273E+04-3.09678E+04 2.47623E+04-1.09643E-08 3.11229E-09
 -1       265-8.45082E+05 1.91035E+04-4.60753E+04-9.05493E+03-5.35306E-09-5.51154E-10
 -1       266-7.79592E+03-1.31977E+05 1.77555E+04-3.53882E+02-3.27418E-11 1.38070E-09
 -1       267 8.40025E+03-1.24301E+05 1.14529E+04 2.03988E+03-1.27329E-11-7.31024E-10
 -1       268-6.02502E+02-1.28746E+05 2.24332E+03-1.49606E+02-1.22782E-11-1.20426E-09
 -1       269-3.26401E+03-1.29516E+05-3.73008E+03 1.49620E+03-4.54747E-13 3.40492E-10
 -1       270 3.85553E+03-1.26759E+05-8.47687E+03 1.89769E+02 5.45697E-11 4.35236E-09
 -1       271-1.23992E+06-1.57584E+05-9.59706E+04-4.79337E+05-4.09273E-11 3.09228E-10
 -1       272-1.27060E+06-2.20455E+05-6.01683E+04-4.82839E+05-1.40750E-09-5.72254E-09
 -1       273-1.25644E+06-1.78255E+05-2.26346E+04-4.77047E+05 7.64288E-10 2.00453E-09
 -1       274-1.25148E+06-1.93130E+05-1.23568E+04-4.87191E+05-6.25278E-12-1.18416E-09
 -1       275-1.25840E+06-1.80288E+05-5.26209E+03-4.76733E+05-1.09139E-10-2.71712E-10
 -1       276-1.24918E+06-1.90536E+05-2.77516E+03-4.87770E+05 1.81899E-11 5.98902E-10
 -1       277-1.25871E+06-1.80434E+05-1.42574E+03-4.76636E+05-8.09791E-10-3.14049E-09
 -1       278-1.24886E+06-1.90377E+05-1.11158E+03-4.87913E+05 1.46088E-10-1.57961E-09
 -1       279-1.25874E+06-1.80412E+05-1.32534E+03-4.76611E+05-3.42084E-10 1.96491E-09
 -1       280-1.24907E+06-1.90590E+05-2.50156E+03-4.87883E+05-8.79254E-10-1.05592E-09
 -1       281-1.25850E+06-1.80244E+05-4.70047E+03-4.76657E+05-2.52044E-10 1.96064E-09
 -1       282-1.25107E+06-1.92964E+05-1.10221E+04-4.87444E+05 5.85260E-10 3.16641E-09
 -1       283-1.25677E+06-1.78403E+05-2.01757E+04-4.76907E+05 4.26667E-10 2.27374E-09
 -1       284-1.26806E+06-2.17372E+05-5.36348E+04-4.83628E+05 9.64064E-11 1.30058E-09
 -1       285-1.24208E+06-1.59952E+05-8.55454E+04-4.78921E+05-1.20963E-10 1.71713E-09
 -1       286-1.42957E+05-7.62693E+03 1.76366E+04-9.48973E+01 4.62922E-10 5.33873E-10
 -1       287-1.35236E+05 8.82965E+03 1.24880E+04-7.87609E+01 2.45491E-10 1.23691E-10
 -1       288-1.40008E+05-1.19606E+03 4.56457E+03 2.43355E+01 7.37543E-11-1.17439E-09
 -1       289-1.38680E+05 1.38414E+03 2.87995E+03-3.04722E+02-5.06688E-10 1.08048E-09
 -1       290-1.39515E+05-1.87378E+02 1.17760E+03 1.31070E+02-2.66109E-10 3.01497E-10
 -1       291-1.39261E+05 2.20528E+02 7.14430E+02-4.80255E+02 4.33323E-10-7.82478E-10
 -1       292-1.39428E+05-3.30193E+01 3.63052E+02 1.99872E+02 4.46537E-10 5.99101E-10
 -1       293-1.39351E+05 6.51730E+01 3.16938E+02-5.65044E+02 1.19242E-10-3.61786E-10
 -1       294-1.39425E+05-3.19376E+01 3.54508E+02 2.15860E+02 4.95497E-10 9.81260E-11
 -1       295-1.39272E+05 2.11794E+02 6.87096E+02-5.40787E+02 3.38821E-10-1.83640E-10
 -1       296-1.39506E+05-1.79599E+02 1.13180E+03 1.75615E+02 2.69367E-10 6.40398E-10
 -1       297-1.38716E+05 1.32751E+03 2.76161E+03-4.12822E+02 1.62490E-10 2.28891E-09
 -1       298-1.39981E+05-1.14708E+03 4.37897E+03 8.78930E+01 2.06676E-10 5.43196E-10
 -1       299-1.35407E+05 8.46897E+03 1.19776E+04-2.10750E+02 1.63611E-10 5.10909E-10
 -1       300-1.42813E+05-7.31546E+03 1.69157E+04-2.64624E+01-1.15961E-10 6.63022E-10
 -1       301 1.69245E+04 4.94907E+03 3.80013E+04-1.22630E+04-3.47427E-10-1.66921E-10
 -1       302 5.73276E+03 1.21290E+04 2.33591E+04-1.44338E+04-3.60046E-10-1.08819E-09
 -1       303 1.57781E+03 7.49814E+03 1.88071E+04-1.22624E+04-3.10138E-10-1.94029E-09
 -1       304 7.48398E+03 1.31845E+04 2.81100E+04-1.44208E+04-3.76531E-10-3.12639E-10
 -1       305 2.25828E+04 3.89689E+03 4.95075E+04-1.22717E+04-2.67391E-10 2.21917E-10
 -1       306-8.22255E+05-1.08156E+05-5.34128E+04-3.18788E+05-1.14142E-10 4.00178E-11
 -1       307-8.33819E+05-1.48574E+05-3.34757E+04-3.26996E+05 4.95106E-11-1.37152E-09
 -1       308-8.31482E+05-1.19605E+05-1.26018E+04-3.17480E+05 2.14186E-10-6.43013E-10
 -1       309-8.23169E+05-1.33415E+05-6.88182E+03-3.29477E+05-4.10296E-10 2.10503E-09
 -1       310-8.32587E+05-1.20725E+05-2.94027E+03-3.17302E+05-1.95018E-09 2.45382E-09
 -1       311-8.21901E+05-1.31968E+05-1.56801E+03-3.29804E+05-2.07774E-09 2.07206E-09
 -1       312-8.32749E+05-1.20812E+05-8.41372E+02-3.17257E+05-2.24190E-09 1.68457E-09
 -1       313-8.21755E+05-1.31860E+05-7.23316E+02-3.29856E+05-1.94733E-10 1.66114E-09
 -1       314-8.32740E+05-1.20814E+05-9.49696E+02-3.17262E+05-8.46228E-10-2.15289E-09
 -1       315-8.21953E+05-1.31987E+05-1.86579E+03-3.29779E+05-2.99906E-10-1.25237E-09
 -1       316-8.32538E+05-1.20710E+05-3.54611E+03-3.17317E+05-2.81943E-11-1.48452E-09
 -1       317-8.23488E+05-1.33747E+05-8.33080E+03-3.29392E+05 6.51767E-10 1.43450E-09
 -1       318-8.31208E+05-1.19343E+05-1.52625E+04-3.17524E+05 2.02590E-10 3.96540E-10
 -1       319-8.36369E+05-1.52144E+05-4.05559E+04-3.26426E+05-5.49562E-10-2.54840E-09
 -1       320-8.20050E+05-1.05444E+05-6.47024E+04-3.19083E+05-5.92991E-10 5.02041E-10
 -1       321-2.41883E+05-3.45840E+03 7.99908E+03-2.63185E+02-9.49087E-10 4.23825E-10
 -1       322-2.38387E+05 4.00386E+03 5.65918E+03 4.43726E+02-1.15596E-09-2.09297E-10
 -1       323-2.40547E+05-5.42142E+02 2.06871E+03-2.38411E+02 5.51594E-11-9.19727E-10
 -1       324-2.39939E+05 6.27388E+02 1.30027E+03 3.15547E+02 6.20069E-10-8.40600E-10
 -1       325-2.40332E+05-8.48304E+01 5.23724E+02-1.35003E+02-1.14964E-10-9.45022E-10
 -1       326-2.40189E+05 9.77592E+01 3.05392E+02 6.74511E+01-6.21666E-10 7.26352E-11
 -1       327-2.40296E+05-1.30536E+01 1.24074E+02 9.68955E+00 2.33488E-10 7.07061E-10
 -1       328-2.40237E+05 1.23119E+01 6.07479E+01-2.11637E+02 3.35564E-10 2.38387E-10
 -1       329-2.40285E+05 6.04796E-01 4.48999E+00 1.44090E+02 3.94602E-10 8.57270E-12
 -1       330-2.40262E+05-1.81090E+01-4.52332E+01-4.22313E+02 3.05365E-09-6.43965E-11
 -1       331-2.40271E+05 1.75267E+01-1.02009E+02 2.20370E+02 8.80113E-07 4.02096E-11
 -1       332-2.40322E+05-1.30930E+02-2.67414E+02-4.89539E+02 1.75584E-06 8.08857E-10
 -1       333-2.40225E+05 1.13426E+02-4.31254E+02 2.11318E+02 8.79683E-07-7.50816E-10
 -1       334-2.40642E+05-8.37129E+02-1.18177E+03-3.89308E+02 2.80305E-09-3.10365E-11
 -1       335-2.39951E+05 7.23046E+02-1.67496E+03 1.20136E+02 4.48622E-10-3.20938E-10
 -1       336 3.66745E+01-3.31467E+05-6.26955E+02-6.24938E+03-1.33730E-09-3.16641E-09
 -1       337-3.11930E+02-3.31736E+05-1.56605E+03-2.27486E+04-2.58387E-09-5.43366E-09
 -1       338 2.52850E+02-3.31294E+05-2.89067E+03-6.18449E+03-1.66051E-09-2.76600E-09
 -1       339-3.37892E+03-3.33620E+05-7.15746E+03-2.28114E+04-2.87730E-09 1.71266E-09
 -1       340 2.44407E+03-3.29611E+05-1.12696E+04-6.18706E+03-1.70257E-09 1.24695E-09
 -1       341-3.39508E+05-5.55105E+04-9.36159E+03-1.33913E+05 2.38217E-08 4.03134E-09
 -1       342-2.99467E+05-2.21317E+04 6.14345E+03-8.85145E+04 1.17685E-08 4.92456E-10
 -1       343-3.08230E+05-5.57342E+04-1.41802E+03-1.32847E+05-1.96282E-08-1.05228E-08
 -1       344-3.30533E+05-2.16182E+04 1.16063E+03-8.98444E+04 4.31334E-08 3.98595E-09
 -1       345-3.08935E+05-5.56453E+04-1.08782E+03-1.32983E+05 3.89459E-08-1.34889E-10
 -1       346-2.98162E+05-2.32765E+04 7.32203E+03-8.82216E+04-2.44536E-08-7.16150E-09
 -1       347-3.40082E+05-5.44750E+04-6.74836E+03-1.34049E+05 1.62891E-09 5.77245E-10
 -1       348-2.57568E+05-3.44544E+04 1.29374E+04-9.77686E+04 1.93568E-08-3.95748E-09
 -1       349-3.49015E+05-4.48650E+04-6.92803E+03-1.23051E+05-5.43434E-09-1.82675E-09
 -1       350-2.67556E+05-5.55612E+04 6.19449E+03-1.24843E+05 1.35556E-08-1.07012E-08
 -1       351-3.30614E+05-3.29695E+04-2.63770E+03-1.07387E+05-2.22315E-09-9.98716E-09
 -1       352-2.87319E+05-6.86001E+04-3.30506E+03-1.40525E+05-4.26381E-08-2.83656E-08
 -1       353-3.29775E+05-3.14216E+04-8.67895E+03-1.07754E+05 1.79961E-08-8.04903E-11
 -1       354-2.75343E+05-6.90522E+04-1.49097E+04-1.22009E+05-1.79225E-08-4.14548E-09
 -1       355-3.42063E+05-3.29368E+04-4.00620E+04-1.25509E+05-6.16592E-09-6.87578E-10
 -1       356-2.46603E+05 9.82827E+02-2.27511E+03 5.98170E+01-2.63118E-10-5.73436E-10
 -1       357-2.47567E+05-1.13799E+03-1.61268E+03-1.65073E+02-4.37471E-09 1.31681E-09
 -1       358-2.46982E+05 1.54277E+02-5.97231E+02 8.06595E+01-1.37675E-06-2.47539E-09
 -1       359-2.47125E+05-1.79786E+02-3.88559E+02-1.74285E+02-2.74483E-06-1.58008E-09
 -1       360-2.47044E+05 2.53943E+01-1.86832E+02 6.90296E+01-1.37774E-06-3.08493E-09
 -1       361-2.47057E+05-3.80655E+01-1.65918E+02-1.22796E+02-4.38479E-09-6.37868E-12
 -1       362-2.47050E+05 1.26461E+01-1.86398E+02 2.91696E+01-3.46407E-11 1.91001E-10
 -1       363-2.47078E+05-7.16780E+01-3.47160E+02-2.94353E+01-5.01141E-11 2.51298E-10
 -1       364-2.47023E+05 5.89776E+01-6.01975E+02-2.43328E+01-4.12600E-10-1.58508E-10
 -1       365-2.47271E+05-4.36520E+02-1.36847E+03 7.17076E+01 8.09822E-10 2.86747E-10
 -1       366-2.46857E+05 3.77267E+02-2.35142E+03-7.19752E+01-3.36747E-10 1.01397E-09
 -1       367-2.48422E+05-2.79614E+03-5.79435E+03 1.43881E+02-1.51635E-10 2.39197E-10
 -1       368-2.45873E+05 2.41691E+03-9.22646E+03-9.65076E+01 3.32663E-09 1.81444E-10
 -1       369-2.55370E+05-1.78492E+04-2.52295E+04 1.61257E+02 5.00021E-09 3.09228E-10
 -1       370-2.39911E+05 1.54186E+04-3.56560E+04-8.93498E+01 4.94853E-09 2.55022E-09
 -1       371-6.06300E+03-6.38536E+04 1.37338E+04 6.64202E+02 3.66526E-10 2.87905E-10
 -1       372 6.45248E+03-5.78931E+04 8.72139E+03-2.67378E+03 1.06115E-09-1.03357E-11
 -1       373-3.83182E+02-6.11562E+04 1.45721E+03 7.24334E+02 8.67885E-10-1.28725E-10
 -1       374-3.14089E+03-6.23461E+04-3.78085E+03-2.68678E+03 1.11379E-09 2.78003E-10
 -1       375 3.52307E+03-5.94017E+04-7.76690E+03 6.77202E+02 5.52518E-10 1.28954E-09
 -1       376-3.11404E+05-3.82569E+04-1.16163E+04-1.16828E+05 2.98564E-09-1.09731E-09
 -1       377-3.08230E+05-5.27905E+04-7.27713E+03-1.19487E+05-4.45652E-10-1.71849E-09
 -1       378-3.13664E+05-4.02827E+04-2.67896E+03-1.13770E+05 2.01678E-09 1.76010E-09
 -1       379-3.05645E+05-5.00873E+04-1.55611E+03-1.22639E+05 7.94587E-09 2.33368E-09
 -1       380-3.14018E+05-4.09330E+04-6.86296E+02-1.13701E+05 7.91175E-09 5.42144E-10
 -1       381-3.05276E+05-4.74454E+04 4.74403E+01-1.20340E+05 7.84291E-09-4.84532E-10
 -1       382-3.14000E+05-4.29495E+04-6.53412E+02-1.16044E+05-3.22078E-09 1.53750E-09
 -1       383-3.07513E+05-4.32281E+04 4.90876E+02-1.15373E+05-9.52491E-09 2.39646E-09
 -1       384-3.11749E+05-4.51749E+04-9.12988E+02-1.18643E+05 1.12277E-08 1.24766E-09
 -1       385-3.13157E+05-4.00368E+04-7.32932E+02-1.11440E+05 1.09922E-08-7.00084E-10
 -1       386-3.08388E+05-4.61164E+04-2.09716E+03-1.20001E+05-1.01183E-08-6.89965E-10
 -1       387-3.17842E+05-4.11506E+04-5.40014E+03-1.09699E+05 1.08419E-08-1.73452E-09
 -1       388-3.07098E+05-4.40376E+04-8.84036E+03-1.20409E+05 1.07718E-08-7.47923E-09
 -1       389-3.23581E+05-5.79018E+04-2.55471E+04-1.08016E+05-9.23353E-09-2.09889E-09
 -1       390-3.02623E+05-2.93991E+04-3.79316E+04-1.21657E+05-4.03452E-09-2.21917E-09
 -1       406 3.95905E+02 1.61622E+05 8.54653E+02-1.26632E+04-1.13869E-09 5.21823E-10
 -1       407 2.57372E+02 1.61778E+05 1.03633E+03-1.38810E+04-1.43757E-09-2.75577E-10
 -1       408 4.21180E+02 1.61596E+05 1.70604E+03-1.26059E+04-1.35663E-09 1.08998E-08
 -1       409 1.69067E+03 1.62257E+05 3.66095E+03-1.39675E+04-1.59775E-09 2.25235E-08
 -1       410 4.87600E+03 1.61133E+05 7.38207E+03-1.25748E+04-1.55433E-09 1.04856E-08
 -1       466 5.70157E+05-2.31795E+04 5.32367E+04 3.74966E+03 3.32477E-10 3.23780E-09
 -1       467 5.95378E+05 2.67905E+04 3.80383E+04-6.10927E+03 5.93815E-10 7.79892E-10
 -1       468 5.79942E+05-3.60272E+03 1.38313E+04 1.10408E+03 6.83485E-10 7.91260E-10
 -1       469 5.84001E+05 4.16604E+03 8.75278E+03-2.51066E+03 5.65990E-10 8.09564E-10
 -1       470 5.81521E+05-5.61375E+02 3.61579E+03 1.51041E+02-4.15199E-10-3.36058E-10
 -1       471 5.82174E+05 6.71129E+02 2.24961E+03-1.22005E+03 1.17907E-10-1.59730E-11
 -1       472 5.81769E+05-1.08732E+02 1.27052E+03-1.86546E+02 5.72628E-10 2.36270E-10
 -1       473 5.81956E+05 2.72591E+02 1.33038E+03-7.94439E+02 2.54003E-10 4.10843E-10
 -1       474 5.81739E+05-1.62880E+02 1.74652E+03-2.74582E+02 4.23798E-10-3.02748E-10
 -1       475 5.82405E+05 1.13436E+03 3.62551E+03-7.73153E+02 4.09430E-10-9.75774E-10
 -1       476 5.81318E+05-9.69922E+02 6.09558E+03-2.07831E+02 1.59767E-09-6.32326E-10
 -1       477 5.85361E+05 7.18170E+03 1.49211E+04-1.13388E+03 7.47974E-10-1.83718E-10
 -1       478 5.78779E+05-6.20572E+03 2.37265E+04 8.61532E+01 2.05052E-10-5.82986E-10
 -1       479 6.03299E+05 4.58497E+04 6.48515E+04-2.29050E+03 6.74266E-10-3.28328E-10
 -1       480 5.63374E+05-3.96048E+04 9.16293E+04 9.48765E+02 2.51674E-09 1.06593E-09
 -1       481-4.36686E+03 8.64297E+04 9.83243E+03-1.48360E+03-1.36424E-12-8.04846E-10
 -1       482 5.16698E+03 9.24838E+04 7.50782E+03 4.61241E+03-4.18368E-11 2.08524E-09
 -1       483-8.10733E+02 8.86169E+04 3.05888E+03-1.09821E+03-2.42153E-11 5.21084E-10
 -1       484 1.85903E+03 9.02150E+04 3.12155E+03 4.10600E+03-6.50857E-12 6.26414E-11
 -1       485-1.04886E+03 8.86804E+04 2.72605E+03-9.77132E+02 2.46132E-11 2.26272E-11
 -1       486-5.28263E+05-6.31219E+04-5.08676E+04-2.17466E+05 2.24645E-10 1.94814E-09
 -1       487-5.70137E+05-8.35351E+04-3.35964E+04-1.78434E+05 2.10821E-09 4.33829E-09
 -1       488-5.37147E+05-8.08584E+04-1.22214E+04-2.14294E+05 1.19985E-09-1.16961E-09
 -1       489-5.42077E+05-6.82445E+04-4.09867E+03-1.87143E+05 2.82625E-10-6.27665E-10
 -1       490-5.56110E+05-7.85830E+04-5.53149E+03-2.08588E+05 2.66209E-09 1.44155E-10
 -1       491-5.22646E+05-8.01586E+04 2.05690E+03-2.04934E+05 8.50832E-10 2.73076E-09
 -1       492-5.56529E+05-6.89837E+04-1.67687E+03-1.96468E+05 6.19934E-10 7.43302E-09
 -1       493-5.24226E+05-9.14504E+04 3.87199E+02-2.19653E+05-5.39018E-11 1.32702E-08
 -1       494-5.54776E+05-6.70694E+04-9.49384E+02-1.94069E+05-2.74596E-09 3.09666E-09
 -1       495-5.22358E+05-8.46344E+04 1.33083E+03-2.10510E+05-8.63466E-10 2.56946E-09
 -1       496-5.58226E+05-7.59546E+04-5.23595E+03-2.05472E+05 1.19434E-09 2.54613E-09
 -1       497-5.35093E+05-7.13861E+04-2.92148E+03-1.90839E+05 3.45493E-09-4.65661E-10
 -1       498-5.41949E+05-8.04037E+04-1.21512E+04-2.13661E+05 4.21187E-09-3.88809E-09
 -1       499-5.68016E+05-8.21482E+04-3.10118E+04-1.78972E+05 3.27498E-09-5.33282E-09
 -1       500-5.25565E+05-6.49778E+04-4.67632E+04-2.17547E+05-3.94266E-09 6.88487E-09
 -1       501-2.01432E+05-9.85666E+03 2.27898E+04-1.41511E+02 2.68955E-10 6.67569E-10
 -1       502-1.91437E+05 1.14111E+04 1.61375E+04-6.21737E+01 3.52960E-10 6.37556E-10
 -1       503-1.97622E+05-1.54589E+03 5.89209E+03 7.28323E+01 2.82832E-11-2.36696E-10
 -1       504-1.95893E+05 1.78819E+03 3.71149E+03-4.61019E+02-2.27978E-11 6.45912E-10
 -1       505-1.96979E+05-2.41360E+02 1.50001E+03 2.57344E+02 3.52003E-10-7.62839E-10
 -1       506-1.96655E+05 2.78931E+02 8.76507E+02-7.41809E+02 9.64882E-10-2.05853E-09
 -1       507-1.96860E+05-3.72236E+01 3.82993E+02 3.53627E+02 6.40171E-10-1.46841E-10
 -1       508-1.96788E+05 4.48126E+01 2.19088E+02-8.17319E+02-1.58222E-10-6.19938E-10
 -1       509-1.96846E+05-7.20372E+00 1.11901E+02 3.32856E+02 2.68498E-10-1.04723E-09
 -1       510-1.96786E+05 1.98198E+01 9.54566E+01-6.64846E+02 5.16983E-10 3.06388E-10
 -1       511-1.96862E+05-1.26023E+01 8.99197E+01 2.01151E+02 2.25825E-10-2.78085E-10
 -1       512-1.96729E+05 8.54842E+01 1.94393E+02-3.29345E+02 9.36703E-10 3.96406E-10
 -1       513-1.96902E+05-7.33342E+01 2.74603E+02-2.65131E+00-3.05995E-10 7.39846E-10
 -1       514-1.96517E+05 5.34302E+02 7.65056E+02 9.02090E+01-1.10538E-09 2.23933E-09
 -1       515-1.97074E+05-4.61167E+02 1.05781E+03-2.18410E+02-2.99050E-10 1.10140E-09
 -1       516-2.57875E+04 2.02410E+05 6.03094E+04-2.50038E+03-2.18279E-10 6.02682E-10
 -1       517 3.14083E+04 2.29707E+05 4.55853E+04 1.02013E+04-5.41149E-10-7.41053E-10
 -1       518-5.59535E+03 2.11489E+05 2.13041E+04-2.58665E+03 5.09317E-11 2.68017E-11
 -1       519 1.70574E+04 2.25918E+05 2.71749E+04 1.19722E+04-1.69450E-09-9.92841E-10
 -1       520-1.14951E+04 2.06266E+05 2.69274E+04-4.27155E+03-6.50289E-10-4.21483E-09
 -1       521-1.22042E+06-1.57638E+05-8.33855E+04-4.70933E+05-2.01908E-10-1.53887E-09
 -1       522-1.24467E+06-2.14644E+05-5.22743E+04-4.76718E+05-2.35303E-10-3.46517E-09
 -1       523-1.23478E+06-1.75582E+05-1.96653E+04-4.68931E+05-9.99449E-11-6.00267E-11
 -1       524-1.22807E+06-1.90909E+05-1.07379E+04-4.80507E+05-1.00181E-09-1.52704E-09
 -1       525-1.23648E+06-1.77354E+05-4.57389E+03-4.68665E+05 3.63229E-10 8.85848E-10
 -1       526-1.22609E+06-1.88628E+05-2.41844E+03-4.80980E+05-5.30974E-10-2.13447E-10
 -1       527-1.23673E+06-1.77502E+05-1.25263E+03-4.68604E+05 1.19371E-11 3.36513E-11
 -1       528-1.22586E+06-1.88439E+05-9.97636E+02-4.81039E+05-2.45450E-10 1.54574E-09
 -1       529-1.23671E+06-1.77517E+05-1.21632E+03-4.68619E+05-1.11902E-09-1.89050E-09
 -1       530-1.22613E+06-1.88566E+05-2.31748E+03-4.80917E+05-9.74467E-10-2.05705E-09
 -1       531-1.23645E+06-1.77406E+05-4.36903E+03-4.68707E+05 1.43700E-10-9.95897E-11
 -1       532-1.22806E+06-1.90685E+05-1.02460E+04-4.80395E+05 5.83896E-10-3.94039E-10
 -1       533-1.23479E+06-1.75749E+05-1.87624E+04-4.68995E+05 2.33723E-09-1.34696E-09
 -1       534-1.24397E+06-2.13259E+05-4.98671E+04-4.76696E+05 1.47924E-09-3.90355E-09
 -1       535-1.22106E+06-1.58672E+05-7.95485E+04-4.70946E+05 1.82263E-09-2.32831E-10
 -1       536 8.35076E+03-4.39659E+03 2.02663E+04-3.60293E+03 1.86446E-10-5.90262E-10
 -1       537 1.56091E+04 6.11974E+03 1.28951E+04-1.26776E+04-8.92442E-10-5.40922E-10
 -1       538 1.13747E+04-4.50171E+02 5.24119E+03-3.55581E+03-1.87811E-10-1.21759E-09
 -1       539 1.22181E+04 5.72534E+02 2.90734E+03-1.27267E+04 5.99357E-10-2.54090E-09
 -1       540 1.17037E+04-5.25926E+01 1.31861E+03-3.55282E+03 3.02862E-10-1.11743E-09
 -1       541 1.18220E+04 5.18266E+01 6.90061E+02-1.27286E+04-2.29534E-10 1.31661E-09
 -1       542 1.17433E+04-7.12463E+00 3.21141E+02-3.55395E+03 2.57933E-09 3.79828E-10
 -1       543 1.17595E+04 6.67404E+00 1.52287E+02-1.27268E+04 5.04701E-09 1.15588E-09
 -1       544 1.17489E+04 5.96077E-01 4.78718E+01-3.55456E+03 2.62202E-09 2.87088E-10
 -1       545 1.17414E+04-9.71861E-01-3.01856E+01-1.27261E+04-3.60330E-10 1.41341E-10
 -1       546 1.17544E+04 5.91412E+00-1.17271E+02-3.55467E+03 5.89210E-10-2.00032E-10
 -1       547 1.17027E+04-5.72760E+01-2.92309E+02-1.27247E+04 4.98147E-10-1.01409E-10
 -1       548 1.17907E+04 4.50515E+01-5.42161E+02-3.55597E+03 2.50907E-09 1.23134E-09
 -1       549 1.13614E+04-6.39518E+02-1.34046E+03-1.26979E+04 3.00020E-09-7.07473E-10
 -1       550 1.21091E+04 4.51107E+02-2.11370E+03-3.58148E+03 2.82762E-09-7.95126E-10
 -1       551 4.69476E+03-1.19937E+05 1.09436E+04-1.80997E+05 1.25510E-10-1.64437E-09
 -1       552 2.12449E+03-1.17967E+05 8.98356E+03-2.12607E+05-4.23825E-10 1.15688E-09
 -1       553 1.34080E+03-1.19641E+05 1.09155E+04-1.80693E+05 1.70985E-10-4.43197E-09
 -1       554 6.53537E+03-1.15362E+05 2.08926E+04-2.12655E+05 7.27596E-12-7.85326E-09
 -1       555 1.89141E+04-1.22640E+05 3.97862E+04-1.80932E+05 4.00178E-11-5.29417E-09
 -1       556-8.07741E+04-4.43853E+04 7.88248E+03-7.93771E+04-5.29326E-09 6.96673E-10
 -1       557-7.36838E+04-5.20801E+04 3.88044E+03-8.48339E+04-1.02445E-08-2.62560E-09
 -1       558-8.08479E+04-4.69792E+04 1.63594E+03-7.78215E+04-5.64978E-09 7.55790E-10
 -1       559-7.43587E+04-5.33729E+04 8.01359E+02-8.50568E+04-6.47560E-10-4.10409E-11
 -1       560-8.08900E+04-4.70233E+04 3.58162E+02-7.77782E+04-7.82165E-10 4.85898E-10
 -1       561-7.44637E+04-5.34115E+04 1.68390E+02-8.51328E+04-6.85759E-10 1.50504E-09
 -1       562-8.09284E+04-4.69906E+04 6.03410E+01-7.78049E+04-2.36469E-10 1.08457E-09
 -1       563-7.45091E+04-5.33924E+04-4.10536E+00-8.51660E+04 4.00178E-11-5.93332E-10
 -1       564-8.09493E+04-4.69702E+04-7.50622E+01-7.78222E+04-6.05269E-10-2.77396E-10
 -1       565-7.45385E+04-5.33822E+04-1.92276E+02-8.51826E+04-3.88559E-09-6.50016E-09
 -1       566-8.09447E+04-4.69591E+04-4.10723E+02-7.78265E+04-7.18046E-10 4.32010E-11
 -1       567-7.46158E+04-5.34217E+04-9.08280E+02-8.51773E+04-7.88987E-11 8.40828E-10
 -1       568-8.08805E+04-4.70905E+04-1.86552E+03-7.77615E+04-4.36557E-11 1.82354E-10
 -1       569-7.56513E+04-5.45341E+04-4.40031E+03-8.48936E+04-1.69621E-10-4.87489E-10
 -1       570-8.04814E+04-5.04501E+04-8.96025E+03-7.63494E+04-1.75532E-10 7.62839E-11
 -1       571 1.04231E+05 4.95354E+03 7.50197E+03-2.66191E+04 4.72937E-11-1.83604E-10
 -1       572 1.05371E+05 1.70165E+03 3.68145E+03-2.92916E+04 1.74850E-10-4.00860E-10
 -1       573 1.04696E+05 3.89732E+02 1.63710E+03-2.65487E+04-4.04725E-11-2.89901E-10
 -1       574 1.04833E+05 1.22536E+02 8.21297E+02-2.93700E+04-6.53699E-11-4.18368E-10
 -1       575 1.04750E+05 1.20251E+01 3.88195E+02-2.65396E+04 8.39009E-11-1.65755E-10
 -1       576 1.04763E+05 2.69713E-01 1.98300E+02-2.93803E+04-3.06812E-11 4.08136E-10
 -1       577 1.04758E+05-6.19300E+00 9.91398E+01-2.65384E+04-1.44837E-10-5.62068E-10
 -1       578 1.04755E+05-4.39648E+00 5.66886E+01-2.93815E+04-3.05818E-10-1.13687E-10
 -1       579 1.04763E+05-5.56169E+00 3.97854E+01-2.65384E+04 1.05047E-10 3.03089E-10
 -1       580 1.04761E+05-5.14653E+00 4.53292E+01-2.93799E+04 5.40922E-10-2.30557E-10
 -1       581 1.04769E+05-5.23230E+00 7.11352E+01-2.65401E+04-1.07775E-10-4.58840E-10
 -1       582 1.04782E+05 1.09476E+01 1.41572E+02-2.93637E+04-3.79941E-10 7.82393E-10
 -1       583 1.04770E+05 5.29336E+01 2.77003E+02-2.65546E+04-1.38243E-10-3.38446E-10
 -1       584 1.04886E+05 2.71107E+02 6.21103E+02-2.92406E+04-6.45741E-10-7.30097E-10
 -1       585 1.04704E+05 8.16957E+02 1.26338E+03-2.66634E+04 1.78716E-10 5.36602E-10
 -1       586 7.59443E+02 4.47688E+04 1.42212E+03-6.47126E+04 1.72349E-10 3.38787E-10
 -1       587 4.24635E+02 4.50190E+04 1.42827E+03-7.13935E+04 5.81167E-10 5.56724E-10
 -1       588 5.44575E+02 4.47530E+04 2.10743E+03-6.46293E+04 1.72349E-10 3.17641E-10
 -1       589 2.03389E+03 4.55557E+04 4.37420E+03-7.14182E+04 6.80302E-10-1.53477E-10
 -1       590 5.78902E+03 4.42183E+04 8.74881E+03-6.46870E+04 1.68257E-10 2.30784E-10
 -1       591-4.77360E+04-1.63021E+04-9.35646E+03-2.44365E+04 3.30772E-10-7.75799E-10
 -1       592-4.80789E+04-1.51756E+04-4.59672E+03-2.71638E+04-2.17426E-10 8.80505E-10
 -1       593-4.80241E+04-1.28999E+04-1.95069E+03-2.60005E+04-2.57864E-09-8.03129E-09
 -1       594-4.70760E+04-1.39220E+04-9.54627E+02-2.73245E+04 1.38414E-10-3.88933E-11
 -1       595-4.80692E+04-1.27778E+04-4.39654E+02-2.60694E+04-1.41881E-10 8.13856E-10
 -1       596-4.70008E+04-1.38731E+04-2.23019E+02-2.73175E+04 5.94696E-10 9.92713E-10
 -1       597-4.80777E+04-1.27845E+04-1.21458E+02-2.60698E+04-7.30040E-10 8.46245E-09
 -1       598-4.69934E+04-1.38738E+04-9.72540E+01-2.73143E+04-1.14805E-08-2.12003E-09
 -1       599-4.80772E+04-1.27846E+04-1.23499E+02-2.60696E+04-7.77743E-09-6.56087E-10
 -1       600-4.70007E+04-1.38735E+04-2.28517E+02-2.73170E+04-9.15634E-10 2.04636E-11
 -1       601-4.80673E+04-1.27780E+04-4.51055E+02-2.60687E+04 3.12184E-10-9.20863E-11
 -1       602-4.70782E+04-1.39230E+04-9.80144E+02-2.73225E+04 5.84237E-10-1.06365E-09
 -1       603-4.80196E+04-1.29050E+04-2.00281E+03-2.59987E+04-2.67983E-09-4.89922E-09
 -1       604-4.81171E+04-1.52000E+04-4.71944E+03-2.71451E+04-6.17547E-10 1.36845E-09
 -1       605-4.77129E+04-1.64063E+04-9.60581E+03-2.44027E+04 2.04636E-11-5.70708E-10
 -1       606 3.48519E+04-4.14584E+03-6.27371E+03 1.02377E+04-2.00089E-09-8.86985E-10
 -1       607 3.38845E+04-1.42397E+03-3.07813E+03 1.11602E+04-3.02634E-10-2.65766E-09
 -1       608 3.44534E+04-3.25694E+02-1.36871E+03 1.01699E+04 1.38334E-09 1.74623E-10
 -1       609 3.43246E+04-9.90453E+01-6.85771E+02 1.12358E+04-8.96534E-10 6.18968E-10
 -1       610 3.44014E+04-6.07909E+00-3.23163E+02 1.01612E+04-2.12412E-09-7.92170E-10
 -1       611 3.43773E+04 5.98388E+00-1.62709E+02 1.12455E+04-3.93220E-09-9.27230E-10
 -1       612 3.43914E+04 1.06219E+01-7.71734E+01 1.01601E+04-1.67074E-09-1.12641E-09
 -1       613 3.43832E+04 1.01663E+01-3.56208E+01 1.12468E+04-2.63276E-09-1.91562E-10
 -1       614 3.43878E+04 8.91814E+00-1.04655E+01 1.01598E+04-3.50838E-10-5.96401E-10
 -1       615 3.43837E+04 1.00553E+01 9.29224E+00 1.12470E+04 1.96997E-09 1.21418E-10
 -1       616 3.43851E+04 1.03475E+01 3.32517E+01 1.01599E+04-1.62913E-09 8.91760E-10
 -1       617 3.43892E+04 2.24283E+01 7.85486E+01 1.12467E+04-2.10775E-10-2.31921E-11
 -1       618 3.43782E+04 4.81125E+01 1.60454E+02 1.01601E+04-3.24349E-10-4.71687E-10
 -1       619 3.44409E+04 1.79010E+02 3.63045E+02 1.12452E+04-1.94859E-10 3.47427E-10
 -1       620 3.43310E+04 4.99448E+02 7.40845E+02 1.01612E+04 6.81496E-10-7.55449E-10
 -1       621 6.96032E+02 1.07069E+05 1.78256E+03-9.73659E+03-7.69660E-10 1.55580E-09
 -1       622 2.68928E+02 1.07409E+05 1.53310E+03-1.14876E+04-7.90578E-10-3.55328E-10
 -1       623 1.66015E+02 1.07137E+05 1.95488E+03-9.74624E+03-7.36350E-10-5.46606E-10
 -1       624 1.11001E+03 1.07918E+05 3.81694E+03-1.14387E+04-6.93944E-10-1.98395E-09
 -1       625 3.41396E+03 1.06565E+05 7.31228E+03-9.78509E+03-6.24254E-10-1.03728E-09
 -1       626 5.02111E+04 1.65585E+04-2.50679E+03 3.39201E+04-2.33285E-10-7.59428E-10
 -1       627 4.89087E+04 1.84819E+04-1.18813E+03 3.46141E+04 3.83147E-09 5.64251E-09
 -1       628 5.02779E+04 1.77962E+04-4.98786E+02 3.33087E+04 1.26238E-09-6.37897E-10
 -1       629 4.90903E+04 1.90029E+04-2.39196E+02 3.45773E+04-7.24413E-10-5.46336E-10
 -1       630 5.02760E+04 1.78821E+04-1.05085E+02 3.32590E+04 3.13776E-10-8.07375E-10
 -1       631 4.91042E+04 1.90415E+04-4.64846E+01 3.45791E+04-2.21416E-09-7.77334E-10
 -1       632 5.02721E+04 1.78845E+04-1.15564E+01 3.32551E+04-3.40924E-09-8.74252E-11
 -1       633 4.91057E+04 1.90431E+04 1.51187E+01 3.45804E+04 2.85763E-09 8.96500E-09
 -1       634 5.02687E+04 1.78816E+04 4.96645E+01 3.32548E+04-1.03114E-10-5.47402E-10
 -1       635 4.91121E+04 1.90444E+04 1.16952E+02 3.45819E+04 1.46733E-09 6.61089E-10
 -1       636 5.02636E+04 1.78875E+04 2.44699E+02 3.32507E+04-4.21807E-10 1.63368E-10
 -1       637 4.91708E+04 1.91132E+04 5.47918E+02 3.45707E+04 4.78948E-10 1.11095E-09
 -1       638 5.02506E+04 1.80946E+04 1.13669E+03 3.31606E+04 1.01147E-09 2.44199E-10
 -1       639 4.97479E+04 2.01398E+04 2.70635E+03 3.43157E+04 1.63482E-10 1.07457E-09
 -1       640 5.02811E+04 2.10528E+04 5.71078E+03 3.19338E+04-5.31372E-10 5.10227E-10
 -1       641 3.21273E+02 1.05625E+03-2.44342E+03-2.66691E+01-1.52161E-09 1.98600E-09
 -1       642-7.36196E+02-1.22268E+03-1.72723E+03 1.08430E+02-1.91383E-09 6.00721E-10
 -1       643-8.66633E+01 1.65502E+02-6.29967E+02-2.65246E+01-2.60491E-09 9.20352E-10
 -1       644-2.61037E+02-1.91036E+02-3.91638E+02 1.08283E+02 6.57995E-10 1.41898E-09
 -1       645-1.53932E+02 2.54558E+01-1.51024E+02-2.65227E+01 4.85091E-10 8.48708E-10
 -1       646-1.81217E+02-2.69628E+01-7.19994E+01 1.08282E+02-9.71401E-09 1.99289E-09
 -1       647-1.66503E+02 1.56129E+00-4.39081E-01-2.65236E+01-2.21578E-06 3.28510E-09
 -1       648-1.58870E+02 1.37349E+01 6.59979E+01 1.08279E+02-4.41798E-06 6.62942E-09
 -1       649-1.76284E+02-1.52151E+01 1.50046E+02-2.65199E+01-2.21690E-06 2.00622E-09
 -1       650-1.03617E+02 1.17284E+02 3.63502E+02 1.08234E+02-3.64353E-09 1.05018E-10
 -1       651-2.21749E+02-1.01926E+02 6.32784E+02-2.64784E+01 1.70421E-09 1.67034E-10
 -1       652 2.08508E+02 7.56072E+02 1.56568E+03 1.08035E+02 2.36454E-09 1.14426E-09
 -1       653-4.88388E+02-6.53538E+02 2.49450E+03-2.63217E+01 1.43494E-09 2.18904E-09
 -1       654 2.08821E+03 4.82649E+03 6.82279E+03 1.07179E+02-1.98069E-09-5.79917E-10
 -1       655-2.10132E+03-4.16909E+03 9.64328E+03-2.56230E+01 9.84719E-10 4.44288E-10
 -1       656 3.11842E+03-1.26269E+05-1.49775E+04 4.05172E+03-7.91260E-11 3.45801E-09
 -1       657-4.72559E+03-1.31656E+05-1.08446E+04 1.42860E+04-1.29694E-09 4.54838E-09
 -1       658 5.84402E+02-1.28200E+05-6.94528E+03 4.02776E+03 1.57215E-10 1.92824E-09
 -1       659-4.32623E+03-1.31418E+05-1.01207E+04 1.42995E+04-8.62201E-10 1.32161E-09
 -1       660 2.81060E+03-1.26512E+05-1.35979E+04 4.03833E+03 2.23281E-10-2.46132E-10
 -1       661 1.22585E+05 1.58040E+04 1.00074E+04 4.78860E+04 4.51280E-09-4.14548E-09
 -1       662 1.24860E+05 2.32845E+04 6.27402E+03 4.93189E+04 9.65463E-09-2.58660E-09
 -1       663 1.24287E+05 1.79782E+04 2.36205E+03 4.76713E+04 4.14491E-09-2.41141E-09
 -1       664 1.22901E+05 2.04033E+04 1.29189E+03 4.97272E+04-1.01751E-09-8.52822E-10
 -1       665 1.24476E+05 1.82072E+04 5.53570E+02 4.76566E+04-1.51346E-10-1.70499E-09
 -1       666 1.22684E+05 2.01088E+04 2.99536E+02 4.97562E+04 7.04887E-10 1.37217E-09
 -1       667 1.24497E+05 1.82323E+04 1.68372E+02 4.76570E+04-4.43767E-09-1.44030E-09
 -1       668 1.22664E+05 2.00829E+04 1.58578E+02 4.97568E+04-2.08123E-09 7.83025E-10
 -1       669 1.24495E+05 1.82306E+04 2.23766E+02 4.76568E+04 1.00678E-09 8.57483E-10
 -1       670 1.22702E+05 2.01280E+04 4.52349E+02 4.97561E+04 5.61703E-09-7.34843E-10
 -1       671 1.24460E+05 1.81909E+04 8.64329E+02 4.76565E+04 3.91566E-10-1.20343E-09
 -1       672 1.23047E+05 2.05927E+04 2.03489E+03 4.97094E+04-3.39966E-10-2.07257E-09
 -1       673 1.24161E+05 1.78298E+04 3.72643E+03 4.76799E+04 6.79135E-10-2.96291E-09
 -1       674 1.26139E+05 2.51432E+04 9.90341E+03 4.90667E+04 2.10420E-10 2.37037E-10
 -1       675 1.21476E+05 1.43956E+04 1.57972E+04 4.80162E+04 3.72893E-10-9.14042E-10
 -1       676 2.23742E+02-1.19605E+05-1.32969E+03 1.73809E+01-1.22046E-09-8.73879E-10
 -1       677-5.04220E+02-1.20110E+05-1.61387E+03-7.65247E+01-2.97123E-09-5.42178E-09
 -1       678 1.80335E+02-1.19625E+05-2.13350E+03 1.72991E+01-1.43996E-09-9.93087E-10
 -1       679-2.27036E+03-1.21181E+05-4.82652E+03-7.63822E+01-3.78759E-09-7.37046E-11
 -1       680 1.60004E+03-1.18534E+05-7.44802E+03 1.70655E+01-6.12999E-10-1.62236E-09
 -1       681 2.64495E+05-7.81789E+03 1.80455E+04 4.45786E+02 3.22586E-12 4.42924E-10
 -1       682 2.72512E+05 9.04909E+03 1.28061E+04-1.92297E+03-4.33147E-11-3.20142E-10
 -1       683 2.67589E+05-1.22338E+03 4.67862E+03 5.06236E+01-4.33637E-10 7.60792E-10
 -1       684 2.68903E+05 1.41735E+03 2.95408E+03-1.37437E+03 5.49312E-11-8.77549E-10
 -1       685 2.68104E+05-1.90937E+02 1.22104E+03-1.02822E+02 4.33526E-10 1.15853E-09
 -1       686 2.68309E+05 2.28457E+02 7.56217E+02-1.23628E+03 5.27022E-10-6.91216E-11
 -1       687 2.68183E+05-3.51223E+01 4.22678E+02-8.74686E+01 2.01892E-10 3.93705E-10
 -1       688 2.68261E+05 8.46903E+01 4.38384E+02-1.44279E+03-1.54079E-10-9.37183E-10
 -1       689 2.68153E+05-4.76663E+01 5.60269E+02 1.03691E+02-5.78048E-10 9.56419E-10
 -1       690 2.68515E+05 3.45878E+02 1.18669E+03-2.08771E+03 3.16462E-10-5.87534E-10
 -1       691 2.67932E+05-2.97985E+02 1.93754E+03 5.57461E+02-2.62972E-11-2.40561E-10
 -1       692 2.69898E+05 2.26856E+03 4.89066E+03-3.46542E+03 1.56373E-09 7.29187E-10
 -1       693 2.66780E+05-1.97591E+03 7.53082E+03 1.48144E+03-1.07710E-09-1.52386E-09
 -1       694 2.77373E+05 1.48352E+04 2.12854E+04-6.24367E+03-4.27511E-09 1.39039E-09
 -1       695 2.60495E+05-1.28803E+04 2.90379E+04 3.33589E+03-2.61781E-09-3.57431E-09
 -1       696-4.78204E+03 1.87587E+05 1.09117E+04 3.78969E+02 2.18279E-11-1.07612E-10
 -1       697 5.25480E+03 1.92322E+05 7.22367E+03-1.71925E+03 4.69527E-11 4.59011E-11
 -1       698-4.67850E+02 1.89615E+05 1.76707E+03 1.98409E+02-8.41283E-11 3.19000E-10
 -1       699-1.24558E+03 1.89277E+05-1.25098E+03-1.54152E+03-1.21418E-10 1.21845E-09
 -1       700 1.71384E+03 1.90632E+05-3.64511E+03 2.01240E+02-6.84395E-11 4.02746E-10
 -1       701-2.42886E+05-2.29033E+04-2.92557E+04-9.63809E+04-6.89397E-10 1.52795E-10
 -1       702-2.58931E+05-4.89648E+04-2.02800E+04-9.03358E+04-3.91083E-11-1.00863E-09
 -1       703-2.48510E+05-3.36936E+04-6.85894E+03-9.47023E+04 4.80100E-10 1.28966E-09
 -1       704-2.52420E+05-3.64539E+04-4.28411E+03-9.22507E+04 1.82467E-10 1.67347E-09
 -1       705-2.49396E+05-3.54052E+04-1.60398E+03-9.44694E+04 4.96215E-10 1.74367E-09
 -1       706-2.51140E+05-3.46654E+04-9.46514E+02-9.27242E+04-4.83020E-10-3.96199E-11
 -1       707-2.49788E+05-3.54814E+04-4.51495E+02-9.42286E+04 3.78364E-13 7.31291E-10
 -1       708-2.50357E+05-3.49285E+04-3.48065E+02-9.33519E+04 7.82290E-10 8.29452E-10
 -1       709-2.50178E+05-3.51433E+04-4.32292E+02-9.38403E+04-1.16671E-10-2.43489E-10
 -1       710-2.49798E+05-3.58470E+04-8.39927E+02-9.41096E+04 4.62514E-10-2.32149E-10
 -1       711-2.50347E+05-3.45630E+04-1.46091E+03-9.34709E+04 2.47297E-10 1.07957E-09
 -1       712-2.50373E+05-3.81062E+04-3.85597E+03-9.44339E+04-2.24787E-10 2.87287E-09
 -1       713-2.49605E+05-3.28838E+04-6.18015E+03-9.35172E+04-7.04176E-10 3.27418E-11
 -1       714-2.56546E+05-4.91984E+04-1.82971E+04-9.25079E+04-1.17927E-09-4.03134E-10
 -1       715-2.44177E+05-2.34776E+04-2.63624E+04-9.53953E+04-1.55205E-09-5.20231E-10
 -1       716-3.97473E+04-1.09457E+03 2.11687E+03 1.39499E+02 5.54908E-09-3.05010E-09
 -1       717-3.60231E+04 1.24652E+03 1.99838E+03-1.68211E+03 1.78097E-09 2.50481E-10
 -1       718-3.90579E+04-1.75596E+02 4.72949E+02 3.73318E+02-5.91314E-10-1.46784E-09
 -1       719-3.70888E+04 1.90302E+02 6.13543E+02-2.10584E+03-6.08082E-11-5.14511E-10
 -1       720-3.86965E+04-2.85066E+01 1.17535E+02 5.63084E+02 8.77179E-10 4.92115E-10
 -1       721-3.77142E+04 3.58080E+01 2.83442E+02-2.42789E+03-4.89550E-10-4.68836E-10
 -1       722-3.84464E+04-1.10978E+01 1.79270E+02 6.95328E+02 2.14231E-09 1.60269E-09
 -1       723-3.80805E+04 7.68180E+01 4.22896E+02-2.62746E+03 1.08014E-08-1.09133E-09
 -1       724-3.83402E+04-6.23342E+01 6.84609E+02 7.62667E+02 3.19936E-06 8.85441E-09
 -1       725-3.79979E+04 4.95197E+02 1.56496E+03-2.69322E+03 6.37842E-06 1.52310E-08
 -1       726-3.85324E+04-4.26682E+02 2.68307E+03 7.61094E+02 3.19947E-06 8.79709E-09
 -1       727-3.65339E+04 3.19538E+03 6.65017E+03-2.62230E+03 1.44146E-08-7.01334E-10
 -1       728-3.98002E+04-2.76321E+03 1.05062E+04 6.91745E+02 1.35427E-09 1.16324E-09
 -1       729-2.81854E+04 2.04230E+04 2.89331E+04-2.43874E+03 1.77259E-10 2.47383E-10
 -1       730-4.68678E+04-1.76471E+04 4.06410E+04 5.77506E+02 1.30612E-09-3.09228E-10
 -1       731-6.73632E+03 9.41090E+04 1.41463E+04-3.46885E+03-2.82580E-09-1.35651E-09
 -1       732 8.05233E+03 1.08532E+05 1.21413E+04 1.16130E+04 8.60950E-10 4.01172E-11
 -1       733-1.36098E+03 9.94565E+04 5.22703E+03-2.55973E+03-1.71667E-10-6.87550E-10
 -1       734 4.20811E+03 1.03258E+05 6.77803E+03 1.05344E+04 4.35421E-11-1.92661E-09
 -1       735-2.83541E+03 9.92965E+04 7.00485E+03-2.39003E+03 6.54381E-10-1.02596E-09
 -1       736-2.67305E+05-3.91521E+04-2.39837E+04-1.11723E+05 1.33355E-08-9.58789E-09
 -1       737-2.58445E+05-2.48537E+04-8.34317E+03-6.96626E+04 3.62882E-08 8.37963E-09
 -1       738-2.48187E+05-4.46917E+04-4.70083E+03-1.08761E+05 7.10827E-09 3.37466E-08
 -1       739-2.72015E+05-1.80577E+04-1.62764E+03-7.22961E+04-2.10708E-08-5.41058E-09
 -1       740-2.54015E+05-4.57358E+04-2.24536E+03-1.09318E+05 1.01870E-08-2.26192E-08
 -1       741-2.40665E+05-1.82998E+04 6.21066E+03-7.04141E+04-6.36078E-09-1.55861E-08
 -1       742-2.79043E+05-4.48129E+04-6.01629E+03-1.10250E+05 5.79030E-09 1.08184E-09
 -1       743-2.06542E+05-2.66154E+04 1.15591E+04-7.71157E+04-6.40011E-09 5.49127E-09
 -1       744-2.87696E+05-3.77504E+04-6.28299E+03-1.02290E+05-3.59137E-10-3.34376E-09
 -1       745-2.12148E+05-4.29977E+04 7.04733E+03-9.83475E+04 2.24043E-08 7.50620E-09
 -1       746-2.73802E+05-2.81612E+04-2.46102E+03-8.93095E+04 2.35530E-08 3.96163E-08
 -1       747-2.32978E+05-5.55300E+04-8.82942E+02-1.15488E+05 4.36620E-09 7.39712E-09
 -1       748-2.67424E+05-2.48012E+04-3.65764E+03-8.55546E+04 1.66101E-08 8.14066E-09
 -1       749-2.27720E+05-5.62682E+04-6.51582E+03-1.08393E+05-1.03394E-08 1.22664E-08
 -1       750-2.78846E+05-2.75877E+04-1.99068E+04-9.62493E+04-9.20079E-09-1.16815E-08
 -1       751 1.04455E+06-6.00073E+04 1.38933E+05 1.46560E+03-1.17638E-08 1.38243E-10
 -1       752 1.10485E+06 6.94755E+04 9.82830E+04-1.86539E+03-2.73515E-09-7.13044E-10
 -1       753 1.06783E+06-9.40576E+03 3.59818E+04 3.34394E+02 3.24231E-10 3.45608E-11
 -1       754 1.07776E+06 1.08855E+04 2.26298E+04-4.65118E+02 7.33014E-10 7.60338E-10
 -1       755 1.07166E+06-1.47153E+03 9.26233E+03 6.54152E+01-5.62594E-10 1.67347E-10
 -1       756 1.07330E+06 1.72464E+03 5.53659E+03-1.31177E+02 1.32160E-09 1.88720E-10
 -1       757 1.07230E+06-2.52063E+02 2.72033E+03 4.50158E-01 3.25745E-07 6.64159E-10
 -1       758 1.07263E+06 4.47641E+02 2.17491E+03-5.29858E+01 6.47573E-07 1.33088E-09
 -1       759 1.07233E+06-1.95388E+02 2.21047E+03-1.27778E+01 1.65759E-07 1.56092E-10
 -1       760 1.07304E+06 1.23728E+03 4.06186E+03-4.74545E+01-3.17389E-07 1.48248E-10
 -1       761 1.07190E+06-1.04115E+03 6.60783E+03-5.08119E+00-1.60215E-07 6.66887E-10
 -1       762 1.07617E+06 7.68485E+03 1.60045E+04-1.01808E+02 1.44648E-09 1.93245E-09
 -1       763 1.06919E+06-6.63792E+03 2.54045E+04 4.15765E+01 1.74101E-09 1.10958E-09
 -1       764 1.09524E+06 4.90178E+04 6.93441E+04-3.46578E+02 6.90254E-10 1.52795E-09
 -1       765 1.05280E+06-4.23375E+04 9.80212E+04 2.39680E+02-6.50656E-10-7.42148E-10
 -1       766-2.32521E+04 9.11947E+04 5.38745E+04 4.93257E+03 3.23780E-09-9.45107E-10
 -1       767 2.79785E+04 1.17993E+05 4.07319E+04-2.13891E+04 1.09030E-08-1.17392E-09
 -1       768-4.64207E+03 9.98683E+04 1.81701E+04 4.87550E+03 4.36512E-09 1.78798E-09
 -1       769 1.41568E+04 1.20515E+05 2.36169E+04-2.27929E+04 1.11669E-09-1.73856E-10
 -1       770-9.59468E+03 8.88915E+04 1.90954E+04 6.33672E+03-3.62343E-09-8.19568E-10
 -1       771-5.84573E+05-1.17817E+05-1.93250E+04-2.53621E+05 1.84127E-09 6.78847E-09
 -1       772-5.82796E+05-1.17891E+05-9.48707E+03-2.62005E+05 1.03955E-09-3.94266E-10
 -1       773-5.85357E+05-1.10630E+05-4.03262E+03-2.56710E+05-6.54836E-11-1.96906E-10
 -1       774-5.80618E+05-1.15455E+05-1.97014E+03-2.62570E+05 9.09495E-10-7.21457E-10
 -1       775-5.85509E+05-1.10334E+05-9.10338E+02-2.56859E+05 5.36602E-10-1.03273E-09
 -1       776-5.80487E+05-1.15358E+05-4.60078E+02-2.62613E+05-5.83896E-10-1.05251E-09
 -1       777-5.85566E+05-1.10325E+05-2.51440E+02-2.56877E+05-2.99951E-09-4.95021E-09
 -1       778-5.80495E+05-1.15351E+05-1.97667E+02-2.62637E+05-8.45830E-11 1.31348E-09
 -1       779-5.85591E+05-1.10310E+05-2.50799E+02-2.56889E+05 4.56566E-10 2.43517E-10
 -1       780-5.80528E+05-1.15345E+05-4.60817E+02-2.62661E+05 2.75804E-10-1.09139E-10
 -1       781-5.85585E+05-1.10288E+05-9.10495E+02-2.56894E+05 2.43222E-09 7.11339E-09
 -1       782-5.80693E+05-1.15443E+05-1.97854E+03-2.62680E+05 2.39083E-10-2.61480E-10
 -1       783-5.85491E+05-1.10542E+05-4.04446E+03-2.56754E+05 2.29534E-10 7.23048E-11
 -1       784-5.82792E+05-1.18024E+05-9.53415E+03-2.62318E+05-3.38275E-10-5.90262E-10
 -1       785-5.84864E+05-1.17622E+05-1.94077E+04-2.53529E+05 1.84855E-10 5.25688E-10
 -1       786 8.98625E+04-2.54411E+03 1.17912E+04-8.33602E+02-2.95017E-11 3.05590E-10
 -1       787 9.40520E+04 3.56956E+03 7.49913E+03-2.96885E+03-9.64064E-11 1.09367E-10
 -1       788 9.16246E+04-2.54621E+02 3.05256E+03-8.27362E+02 7.28733E-11 1.25851E-10
 -1       789 9.20949E+04 3.38749E+02 1.69350E+03-2.97420E+03-2.98584E-10 6.64073E-10
 -1       790 9.18186E+04-2.71593E+01 7.74632E+02-8.28151E+02 1.46031E-10-3.11502E-11
 -1       791 9.18758E+04 3.17022E+01 4.13891E+02-2.97296E+03 7.21343E-11-2.20729E-09
 -1       792 9.18431E+04-3.47763E+00 2.12616E+02-8.28596E+02 8.95284E-11-3.67976E-10
 -1       793 9.18488E+04 3.96100E+00 1.40607E+02-2.97269E+03-1.12710E-10 5.57364E-10
 -1       794 9.18454E+04-1.91347E+00 1.29622E+02-8.28422E+02-4.69242E-11 2.58090E-10
 -1       795 9.18566E+04 1.34974E+01 1.95990E+02-2.97379E+03 1.40744E-10 5.03072E-10
 -1       796 9.18357E+04-1.17735E+01 3.39162E+02-8.27495E+02-1.32644E-10 6.81027E-10
 -1       797 9.19496E+04 1.43719E+02 7.25238E+02-2.97555E+03-1.37135E-10 5.70523E-10
 -1       798 9.17534E+04-1.08636E+02 1.30061E+03-8.26660E+02-1.62458E-10 3.44471E-10
 -1       799 9.27825E+04 1.51763E+03 3.19076E+03-2.96945E+03-1.58622E-10-1.47429E-09
 -1       800 9.10041E+04-1.08270E+03 5.01524E+03-8.33653E+02-5.79803E-12-9.73841E-10
 -1       801-3.07489E+03 9.37011E+04 1.43916E+04-1.00052E+05-4.01997E-09 7.56700E-10
 -1       802 6.75986E+03 9.84630E+04 1.51717E+04-3.55957E+05-1.61708E-09-9.29958E-10
 -1       803-9.07553E+02 9.40514E+04 1.70354E+04-9.97236E+04-5.48789E-09 2.52584E-09
 -1       804 1.83755E+04 1.05556E+05 3.63304E+04-3.55944E+05-2.97950E-09-1.80944E-09
 -1       805-1.21590E+04 8.66671E+04 5.46871E+04-1.00067E+05-2.12094E-09 1.92449E-09
 -1       806-9.14710E+04-2.50716E+04-7.67093E+03-4.31217E+04-3.12070E-11 2.64208E-10
 -1       807-9.14284E+04-2.31687E+04-3.63526E+03-4.55498E+04-2.30955E-10 4.96470E-10
 -1       808-9.14216E+04-2.11081E+04-1.52775E+03-4.47843E+04-1.00840E-10 1.95314E-10
 -1       809-9.06696E+04-2.17750E+04-7.37758E+02-4.58790E+04-4.03588E-10-3.64196E-10
 -1       810-9.14392E+04-2.08299E+04-3.33089E+02-4.49079E+04 4.47926E-11-9.09608E-10
 -1       811-9.05939E+04-2.16805E+04-1.66583E+02-4.58933E+04-2.65743E-11-1.00079E-09
 -1       812-9.14453E+04-2.08208E+04-8.64402E+01-4.49139E+04-1.03967E-10 2.87173E-10
 -1       813-9.05858E+04-2.16777E+04-6.26379E+01-4.58916E+04 3.96895E-10 1.07320E-10
 -1       814-9.14453E+04-2.08219E+04-7.12418E+01-4.49135E+04 1.02716E-10 6.34031E-10
 -1       815-9.05910E+04-2.16806E+04-1.26229E+02-4.58916E+04 2.12594E-11 9.68612E-11
 -1       816-9.14396E+04-2.08295E+04-2.46285E+02-4.49086E+04-4.01428E-10 2.94222E-10
 -1       817-9.06477E+04-2.17485E+04-5.42748E+02-4.58778E+04 4.71232E-10-9.17453E-10
 -1       818-9.14243E+04-2.10366E+04-1.12242E+03-4.48195E+04-2.78760E-10 1.25283E-10
 -1       819-9.12213E+04-2.27546E+04-2.66982E+03-4.56151E+04-6.83485E-10 4.20414E-10
 -1       820-9.14426E+04-2.39621E+04-5.63299E+03-4.36155E+04-1.11186E-10 7.09974E-11
 -1       821-9.69766E+04 2.70337E+03-1.25338E+04 9.19109E+02-1.11595E-09 1.31877E-09
 -1       822-1.01427E+05-3.79434E+03-7.97162E+03 3.28824E+03-7.64999E-10 4.18368E-11
 -1       823-9.88500E+04 2.70205E+02-3.24605E+03 9.02296E+02 1.01693E-09-7.53516E-10
 -1       824-9.93497E+04-3.58720E+02-1.80231E+03 3.30839E+03-5.06304E-10-7.89214E-10
 -1       825-9.90566E+04 2.90616E+01-8.28327E+02 8.98842E+02-2.07655E-09-1.26028E-09
 -1       826-9.91189E+04-3.16076E+01-4.49800E+02 3.31372E+03-3.48072E-09-1.04546E-09
 -1       827-9.90826E+04 4.44754E+00-2.45662E+02 8.96938E+02-2.23952E-09-1.55774E-09
 -1       828-9.90931E+04-2.79829E+00-1.89938E+02 3.31679E+03-2.86690E-09-1.45757E-09
 -1       829-9.90835E+04 4.06759E+00-2.16808E+02 8.95765E+02-6.42004E-10-6.36069E-10
 -1       830-9.91134E+04-2.48123E+01-3.74216E+02 3.31809E+03 2.14088E-09-1.47861E-09
 -1       831-9.90629E+04 2.42092E+01-6.77048E+02 8.95637E+02-7.26544E-10 6.23402E-10
 -1       832-9.93015E+04-2.90080E+02-1.46635E+03 3.31717E+03-5.05906E-12 1.01613E-09
 -1       833-9.88953E+04 2.20344E+02-2.63780E+03 8.96710E+02 2.24321E-09-3.74939E-10
 -1       834-1.00990E+05-3.08078E+03-6.47648E+03 3.30781E+03 5.26387E-09-5.28530E-10
 -1       835-9.73736E+04 2.19723E+03-1.01820E+04 9.05212E+02 2.84922E-09-7.50333E-11
 -1       836-4.13541E+03 2.39912E+05 2.02533E+04-6.80312E+03-3.46517E-10-2.93994E-10
 -1       837 6.52817E+03 2.47250E+05 1.57169E+04-2.40534E+04 3.80282E-11-8.66294E-11
 -1       838-9.95398E+02 2.42275E+05 1.18406E+04-6.78531E+03-6.35396E-10 2.18153E-09
 -1       839 8.89443E+03 2.48684E+05 2.00216E+04-2.40533E+04 2.92857E-10 1.48191E-10
 -1       840-5.97809E+03 2.38476E+05 2.84533E+04-6.80315E+03-6.09361E-10 3.63343E-10
 -1       841-8.01694E+02 1.15914E+03-3.27564E+03-8.80189E+02 3.56295E-10 5.80940E-10
 -1       842-2.58638E+03-1.79651E+03-2.27355E+03-2.46790E+02-4.25501E-10 1.23214E-09
 -1       843-1.46987E+03-1.94735E+01-7.66990E+02-6.57893E+02 5.65166E-10 9.73444E-11
 -1       844-1.81019E+03-4.31539E+02-4.77603E+02-5.02942E+02 2.62835E-09-5.52916E-10
 -1       845-1.57779E+03-2.04946E+02-1.74525E+02-6.24391E+02-2.94413E-11 3.68743E-10
 -1       846-1.68407E+03-2.15688E+02-9.52308E+01-5.41507E+02-1.82957E-09 6.92964E-10
 -1       847-1.59600E+03-2.35189E+02-2.63210E+01-6.19384E+02-5.30779E-07 1.98485E-07
 -1       848-1.65836E+03-1.73757E+02 1.24239E+01-5.48233E+02-1.06036E-06 3.99407E-07
 -1       849-1.60350E+03-2.46851E+02 5.42375E+01-6.17678E+02-8.93760E-07 3.35558E-07
 -1       850-1.62266E+03-1.16193E+02 1.55158E+02-5.57717E+02-7.25020E-07 2.72050E-07
 -1       851-1.63170E+03-2.92722E+02 2.74457E+02-6.09913E+02-3.63881E-07 1.35405E-07
 -1       852-1.42542E+03 2.18059E+02 7.44815E+02-6.17783E+02-1.34642E-09 4.22425E-10
 -1       853-1.80070E+03-5.80903E+02 1.19355E+03-5.57685E+02-1.25306E-09 6.71548E-10
 -1       854-2.15767E+02 2.34052E+03 3.53769E+03-1.01697E+03 1.30251E-09-4.64297E-10
 -1       855-2.84113E+03-2.41378E+03 5.09552E+03-2.11226E+02 6.92353E-11 6.23004E-11
 -1       856-1.16469E+05 2.57994E+03-1.19662E+04 1.84003E+03-1.76306E-09-1.72213E-09
 -1       857-1.20715E+05-3.61809E+03-7.60948E+03 6.62624E+03-1.41404E-09-1.04274E-09
 -1       858-1.18258E+05 2.58504E+02-3.09864E+03 1.81229E+03 5.24096E-10-1.17257E-09
 -1       859-1.18736E+05-3.36844E+02-1.71917E+03 6.66033E+03 5.27700E-09-2.22826E-09
 -1       860-1.18456E+05 2.91831E+01-7.88391E+02 1.80570E+03 2.79408E-09-1.19240E-09
 -1       861-1.18518E+05-2.35705E+01-4.24303E+02 6.66952E+03-2.15212E-09-1.94538E-09
 -1       862-1.18481E+05 6.04927E+00-2.24589E+02 1.80305E+03 6.10825E-09-1.04805E-09
 -1       863-1.18493E+05 4.79927E+00-1.60925E+02 6.67278E+03 1.06304E-08-8.67345E-10
 -1       864-1.18483E+05 5.11613E+00-1.67262E+02 1.80244E+03 5.73247E-09-1.26711E-09
 -1       865-1.18506E+05-1.05718E+01-2.73941E+02 6.67168E+03 4.61515E-09-9.03118E-10
 -1       866-1.18468E+05 1.89985E+01-4.87697E+02 1.80415E+03-1.66847E-09-1.02443E-09
 -1       867-1.18638E+05-2.01339E+02-1.05091E+03 6.66534E+03-1.43018E-09-1.59639E-09
 -1       868-1.18348E+05 1.58440E+02-1.88914E+03 1.80881E+03 6.53472E-10-2.09127E-09
 -1       869-1.19842E+05-2.20021E+03-4.63557E+03 6.63706E+03-1.50840E-09-1.48384E-09
 -1       870-1.17258E+05 1.57189E+03-7.28890E+03 1.83262E+03 2.25236E-09-1.09549E-09
 -1       871-1.15860E+03-1.12698E+04-2.18559E+03 3.30589E+04-2.48565E-09-9.33824E-10
 -1       872-3.57576E+02-1.16628E+04-6.37322E+02 3.88077E+04-2.33990E-09-5.92081E-10
 -1       873 3.58610E+01-1.15100E+04 6.49662E+02 3.29949E+04-1.04376E-09-4.47153E-09
 -1       874 7.70010E+02-1.09890E+04 2.41542E+03 3.88354E+04-2.33376E-09-1.08781E-08
 -1       875 2.48024E+03-1.19537E+04 5.20626E+03 3.30327E+04-1.72372E-09-5.17173E-09
 -1       876 1.42749E+05 1.81570E+04 1.34629E+04 5.61279E+04-2.18279E-11 3.29419E-09
 -1       877 1.45732E+05 2.83029E+04 8.44044E+03 5.81503E+04 1.51314E-09-2.67278E-10
 -1       878 1.45038E+05 2.10825E+04 3.17686E+03 5.58391E+04 5.92820E-10 1.29057E-09
 -1       879 1.43096E+05 2.44254E+04 1.73658E+03 5.86972E+04-7.97058E-10 5.27535E-10
 -1       880 1.45290E+05 2.13922E+04 7.41511E+02 5.58206E+04-9.48262E-10-6.35509E-10
 -1       881 1.42806E+05 2.40268E+04 3.96267E+02 5.87328E+04-6.67796E-10-2.64329E-09
 -1       882 1.45318E+05 2.14276E+04 2.12732E+02 5.58224E+04-4.74637E-09 2.20808E-09
 -1       883 1.42778E+05 2.39886E+04 1.83220E+02 5.87307E+04-1.40198E-09 3.43654E-11
 -1       884 1.45316E+05 2.14277E+04 2.40422E+02 5.58232E+04 1.74066E-09 9.19343E-10
 -1       885 1.42817E+05 2.40334E+04 4.72552E+02 5.87285E+04 2.50524E-09 8.66336E-10
 -1       886 1.45279E+05 2.13869E+04 8.96781E+02 5.58231E+04 1.21477E-09 8.79822E-10
 -1       887 1.43174E+05 2.45144E+04 2.10753E+03 5.86805E+04 4.48551E-10-2.86491E-10
 -1       888 1.44970E+05 2.10126E+04 3.85805E+03 5.58470E+04 4.41227E-09 2.29261E-09
 -1       889 1.46375E+05 2.92249E+04 1.02523E+04 5.80155E+04 7.02642E-10 1.08685E-09
 -1       890 1.42190E+05 1.74577E+04 1.63532E+04 5.61957E+04 2.55113E-09 2.21189E-09
 -1       891 4.99909E+02-6.40583E+04-2.51563E+03 7.82253E+03-9.16202E-10 1.32786E-09
 -1       892-8.31778E+02-6.49567E+04-2.00383E+03 2.78124E+04-2.71348E-09-6.02768E-10
 -1       893 1.30858E+02-6.43424E+04-1.59535E+03 7.79237E+03-1.78545E-10 4.80455E-10
 -1       894-1.27622E+03-6.52246E+04-2.81142E+03 2.78104E+04-1.87697E-09-5.52348E-10
 -1       895 8.45064E+02-6.37886E+04-4.05406E+03 7.82454E+03-3.85853E-10 5.64341E-10
 -1       896 2.87180E+05-1.93988E+03 4.48466E+03 3.15659E+02 6.79773E-10 8.62201E-10
 -1       897 2.89125E+05 2.24539E+03 3.17929E+03-3.99407E+02 4.93968E-10 7.43512E-10
 -1       898 2.87937E+05-3.03926E+02 1.16621E+03 1.67147E+02 7.02570E-10 5.05850E-10
 -1       899 2.88243E+05 3.52335E+02 7.41970E+02-1.71273E+02 8.31046E-11 4.29850E-10
 -1       900 2.88062E+05-4.81982E+01 3.19265E+02 8.75219E+01-1.05398E-10 2.24247E-10
 -1       901 2.88100E+05 6.12648E+01 2.22716E+02-4.13315E+01-1.38092E-10 2.39206E-10
 -1       902 2.88080E+05-1.30410E+01 1.69756E+02 3.72031E+01 2.44802E-10 2.27220E-10
 -1       903 2.88097E+05 5.15839E+01 2.50968E+02 5.47202E+01-9.87095E-11 1.15506E-10
 -1       904 2.88065E+05-3.85252E+01 3.98607E+02-8.53154E+00 3.55369E-11 1.61393E-10
 -1       905 2.88218E+05 2.80432E+02 8.85111E+02 1.63989E+02 1.95065E-10 4.91127E-11
 -1       906 2.87959E+05-2.41761E+02 1.51109E+03-7.20672E+01-1.04648E-10-2.25327E-10
 -1       907 2.88960E+05 1.79181E+03 3.71869E+03 3.40192E+02 1.27670E-10-2.27317E-10
 -1       908 2.87324E+05-1.54885E+03 5.91647E+03-1.84738E+02 3.47658E-10-4.91355E-10
 -1       909 2.93433E+05 1.14416E+04 1.61808E+04 6.74000E+02 5.55751E-10-7.86713E-10
 -1       910 2.83484E+05-9.88386E+03 2.28584E+04-4.05874E+02 1.14889E-09-9.62245E-10
 -1       911 2.25044E+04 2.09909E+02-6.73083E+02-7.06812E+02 3.29209E-10 4.86608E-10
 -1       912 2.32105E+04-2.51233E+02-2.98467E+02 2.84496E+03 4.97351E-10 1.82528E-09
 -1       913 2.26936E+04 3.83104E+01-1.74009E+02-6.30821E+02 7.23119E-10 2.59626E-09
 -1       914 2.29054E+04-4.45424E+01-6.44402E+01 2.73290E+03 1.51683E-10 3.79374E-09
 -1       915 2.27995E+04 1.05237E+01-2.71683E+01-5.94760E+02-1.79883E-09 3.64235E-09
 -1       916 2.28131E+04-8.15285E+00 4.69041E+00 2.70066E+03-4.48558E-09 4.42012E-09
 -1       917 2.27831E+04 3.91555E+00 3.54986E+01-5.98586E+02-3.06194E-09 3.63955E-09
 -1       918 2.29896E+04 1.17579E+01 1.32030E+02 2.74801E+03 8.42348E-10 3.96852E-09
 -1       919 2.26271E+04-1.22937E+01 1.57738E+02-6.42096E+02-2.36450E-09 2.23541E-09
 -1       920 2.35136E+04 1.24559E+02 5.58809E+02 2.87620E+03-1.94827E-09 1.53733E-09
 -1       921 2.22707E+04-1.17040E+02 6.68433E+02-7.26777E+02 9.20522E-10-5.15428E-10
 -1       922 2.47199E+04 8.95436E+02 2.15574E+03 3.09004E+03 2.14146E-09-2.14868E-09
 -1       923 2.14416E+04-7.97330E+02 2.79157E+03-8.56026E+02 1.71707E-09-4.51632E-09
 -1       924 2.83490E+04 5.91214E+03 8.74423E+03 3.41475E+03 4.67612E-09-7.23594E-09
 -1       925 1.86746E+04-5.15302E+03 1.11599E+04-1.05181E+03 3.47438E-09-1.01686E-08
 -1       926-2.53990E+05 5.66603E+03-1.31653E+04 4.60739E+03-2.55932E-09-1.33550E-08
 -1       927-2.59169E+05-6.51775E+03-9.19473E+03-8.02435E+03 1.63287E-08-1.52660E-08
 -1       928-2.56860E+05 8.78354E+02-3.52957E+03 4.00962E+03-1.92111E-09-1.15051E-08
 -1       929-2.54248E+05-9.39429E+02-1.54930E+03-5.40102E+03-1.32573E-08-1.16655E-08
 -1       930-2.58849E+05 4.45956E+01-1.30273E+03 1.98352E+03-3.10416E-09-5.86550E-09
 -1       931-2.51805E+05-9.67873E+00 5.23458E+02-6.67241E+02 1.81831E-09-3.37315E-09
 -1       932-2.59250E+05-9.09410E+01-6.55048E+02-7.24107E+02 3.34182E-09 1.54014E-09
 -1       933-2.52817E+05 1.13447E+02 8.30472E+02 4.39371E+03 1.02821E-09 5.30841E-09
 -1       934-2.57866E+05-5.62125E+01 6.22020E+01-3.07704E+03 2.72877E-09 7.84527E-09
 -1       935-2.55391E+05 2.59396E+02 9.97999E+02 7.85290E+03 2.57300E-09 1.13225E-08
 -1       936-2.56746E+05-1.82582E+02 1.40188E+03-4.18361E+03 1.35947E-09 1.09959E-08
 -1       937-2.55281E+05 1.67713E+03 3.55674E+03 8.41361E+03 9.94642E-09 1.26062E-08
 -1       938-2.57990E+05-1.46104E+03 5.38709E+03-3.63789E+03 9.82925E-09 8.93556E-09
 -1       939-2.48730E+05 1.09191E+04 1.56987E+04 5.88753E+03 4.83053E-09 8.52492E-09
 -1       940-2.63235E+05-9.46380E+03 2.08312E+04-1.65712E+03-4.85784E-10 3.40151E-09
 -1       941 1.70929E+06-8.57477E+04 1.98670E+05 1.89050E+02-1.65413E-07 4.36557E-10
 -1       942 1.79527E+06 9.92865E+04 1.40488E+05 5.50942E+01-3.41186E-07-1.80444E-09
 -1       943 1.74249E+06-1.34446E+04 5.14629E+04 1.35557E+02-2.78059E-07 2.54659E-10
 -1       944 1.75666E+06 1.55612E+04 3.23725E+04 1.16257E+02-2.12701E-07-7.40329E-10
 -1       945 1.74798E+06-2.10438E+03 1.32708E+04 1.27903E+02-1.31599E-07 1.32786E-09
 -1       946 1.75030E+06 2.47116E+03 7.96433E+03 1.24923E+02-5.47674E-08 2.80340E-09
 -1       947 1.74888E+06-3.65230E+02 3.97442E+03 1.26894E+02 9.41237E-09 1.99054E-09
 -1       948 1.74937E+06 6.76655E+02 3.29134E+03 1.25357E+02 7.46407E-08 1.22394E-09
 -1       949 1.74892E+06-3.11113E+02 3.48754E+03 1.27469E+02 3.19085E-07-2.46462E-09
 -1       950 1.75005E+06 2.00588E+03 6.55631E+03 1.19753E+02 5.68219E-07 2.76088E-09
 -1       951 1.74820E+06-1.69352E+03 1.07363E+04 1.32497E+02 1.71315E-06-3.52202E-09
 -1       952 1.75515E+06 1.25063E+04 2.60494E+04 8.01025E+01 2.85642E-06-1.11368E-09
 -1       953 1.74379E+06-1.08031E+04 4.13668E+04 1.67118E+02 1.42831E-06 3.68527E-09
 -1       954 1.78617E+06 7.97772E+04 1.12889E+05-1.95503E+02 2.36735E-09 2.87037E-09
 -1       955 1.71711E+06-6.89002E+04 1.59607E+05 4.08075E+02-1.02584E-08 4.22006E-10
 -1       956-8.81926E+04-1.55580E+03-3.31189E+03 1.19714E+04-1.56706E-09-9.86802E-11
 -1       957-8.88019E+04-4.97008E+02-1.67436E+03 1.39440E+04-5.42059E-10-1.47224E-11
 -1       958-8.84637E+04-5.71835E+01-7.52975E+02 1.19003E+04 1.18280E-09-6.28120E-10
 -1       959-8.85176E+04-1.05344E+01-3.83230E+02 1.40220E+04-1.04978E-09-2.21974E-09
 -1       960-8.84912E+04 1.10921E+01-1.85935E+02 1.18932E+04-2.06728E-09-5.60817E-10
 -1       961-8.84951E+04 1.13011E+01-9.79907E+01 1.40298E+04-3.77656E-09 4.87375E-10
 -1       962-8.84971E+04 1.09021E+01-5.48537E+01 1.18924E+04-1.38539E-09 2.77964E-10
 -1       963-8.84944E+04 1.19695E+01-4.19161E+01 1.40308E+04-2.39697E-09 1.67609E-09
 -1       964-8.84987E+04 1.15393E+01-4.82357E+01 1.18922E+04-1.00226E-09-1.71440E-10
 -1       965-8.84978E+04 1.29113E+01-8.11984E+01 1.40306E+04 9.18121E-10-9.66679E-10
 -1       966-8.84965E+04 1.31148E+01-1.51184E+02 1.18926E+04-2.46771E-09-4.64752E-10
 -1       967-8.85187E+04-3.26524E+00-3.10379E+02 1.40264E+04-6.05667E-10-1.08571E-10
 -1       968-8.84765E+04-4.07430E+01-6.08994E+02 1.18964E+04-3.58455E-09 3.59591E-10
 -1       969-8.87512E+04-3.95547E+02-1.35433E+03 1.39841E+04-8.05312E-09-3.14088E-10
 -1       970-8.82589E+04-1.25216E+03-2.67851E+03 1.19354E+04-3.37013E-09-7.42375E-10
 -1       971-1.68029E+05 2.12002E+03-9.83767E+03 1.85277E+03 5.45242E-10-7.43967E-10
 -1       972-1.71512E+05-2.97388E+03-6.25607E+03 6.71131E+03 1.59389E-09-9.20181E-10
 -1       973-1.69500E+05 2.12221E+02-2.54930E+03 1.81996E+03-1.29717E-10-1.04728E-09
 -1       974-1.69886E+05-2.75929E+02-1.41701E+03 6.75343E+03-1.53705E-10-5.41377E-10
 -1       975-1.69663E+05 2.41390E+01-6.55861E+02 1.81047E+03-2.52658E-09-9.91122E-10
 -1       976-1.69709E+05-1.80600E+01-3.64460E+02 6.76730E+03-6.29436E-09 6.19224E-10
 -1       977-1.69683E+05 5.63980E+00-2.15553E+02 1.80604E+03 7.16511E-10-1.06927E-09
 -1       978-1.69692E+05 3.86072E+00-1.95987E+02 6.77315E+03 6.41776E-09-2.01936E-10
 -1       979-1.69682E+05 6.80706E+00-2.61690E+02 1.80462E+03 3.64843E-09-5.29759E-10
 -1       980-1.69721E+05-2.73480E+01-4.85923E+02 6.77275E+03 4.99506E-09-3.67239E-10
 -1       981-1.69654E+05 3.36023E+01-8.98203E+02 1.80644E+03 6.61146E-10-4.29083E-10
 -1       982-1.69971E+05-3.82961E+02-1.95670E+03 6.76524E+03-8.42135E-10 3.09228E-10
 -1       983-1.69429E+05 2.95102E+02-3.52509E+03 1.81219E+03 1.71019E-09-1.81990E-09
 -1       984-1.72226E+05-4.11538E+03-8.65758E+03 6.73474E+03-3.30374E-10-1.33696E-10
 -1       985-1.67394E+05 2.93708E+03-1.36130E+04 1.83731E+03 1.21588E-09-1.09321E-09
 -3
    1PSTEP                        27          14           1          
  100CL  114 2.39365E-01         841                     0   14           1
 -4  DISP        4    1
 -5  D1          1    2    1    0
 -5  D2          1    2    2    0
 -5  D3          1    2    3    0
 -5  ALL         1    2    0    0    1ALL
 -1         1 2.98665E-05 0.00000E+00 0.00000E+00
 -1         2 2.24057E-05 0.00000E+00 0.00000E+00
 -1         3 1.89223E-05 0.00000E+00 0.00000E+00
 -1         4 1.64520E-05 0.00000E+00 0.00000E+00
 -1         5 1.52815E-05 0.00000E+00 0.00000E+00
 -1         8 2.36027E-05-2.97824E-07 0.00000E+00
 -1         9 1.84371E-05 1.81659E-07 0.00000E+00
 -1        10 1.77368E-05-6.99555E-07 0.00000E+00
 -1        11 1.62599E-05-1.34940E-07 0.00000E+00
 -1        12 1.47667E-05 3.54898E-07 0.00000E+00
 -1        15 1.06472E-05-5.89034E-07 0.00000E+00
 -1        16 1.39094E-05 1.70356E-07 0.00000E+00
 -1        17 1.27290E-05-1.42152E-06 0.00000E+00
 -1        18 1.27814E-05-2.71558E-07 0.00000E+00
 -1        19 1.33853E-05 7.03727E-07 0.00000E+00
 -1        20 1.35858E-05 7.57944E-06 0.00000E+00
 -1        21 1.35793E-05 1.80981E-05 0.00000E+00
 -1        22 4.00801E-06-4.08841E-07 0.00000E+00
 -1        23 5.53007E-06 5.96692E-07 0.00000E+00
 -1        24 5.24982E-06-1.70142E-06 0.00000E+00
 -1        25 1.14077E-05-1.76766E-07 0.00000E+00
 -1        26 1.19321E-05 9.34603E-07 0.00000E+00
 -1        27 1.13602E-05 7.30575E-06 0.00000E+00
 -1        28 1.06734E-05 1.78384E-05 0.00000E+00
 -1        29 0.00000E+00 0.00000E+00 0.00000E+00
 -1        30 1.65162E-06 7.91967E-07 0.00000E+00
 -1        31 1.69912E-06-1.54071E-06 0.00000E+00
 -1        32 0.00000E+00 0.00000E+00 0.00000E+00
 -1        33 1.00563E-05 1.45140E-06 0.00000E+00
 -1        34 9.54142E-06 7.27939E-06 0.00000E+00
 -1        35 8.55671E-06 1.76990E-05 0.00000E+00
 -1        36 2.94151E-05 6.13569E-20 0.00000E+00
 -1        37 2.89489E-05 2.31043E-19 6.61744E-24
 -1        38 2.84836E-05 4.23766E-19 0.00000E+00
 -1        39 2.80154E-05 5.56116E-19 6.61744E-24
 -1        40 2.75473E-05 5.95976E-19 1.32349E-23
 -1        41 2.70785E-05 4.90255E-19 0.00000E+00
 -1        42 2.66097E-05 3.57411E-19 0.00000E+00
 -1        43 2.61407E-05 2.14316E-19 6.61744E-24
 -1        44 2.56718E-05 1.00525E-20 0.00000E+00
 -1        45 2.52029E-05-1.39410E-19 6.61744E-24
 -1        46 2.47341E-05-2.04392E-19 1.32349E-23
 -1        47 2.42656E-05-1.24618E-19 0.00000E+00
 -1        48 2.37972E-05-5.20979E-20 0.00000E+00
 -1        49 2.33306E-05 5.88198E-20 0.00000E+00
 -1        50 2.28633E-05 4.90866E-20 1.32349E-23
 -1        51 2.93902E-05-5.08208E-08 0.00000E+00
 -1        52 2.86049E-05-9.94108E-08 0.00000E+00
 -1        53 2.75705E-05-1.47586E-07 0.00000E+00
 -1        54 2.63499E-05-1.96001E-07 0.00000E+00
 -1        55 2.50062E-05-2.45314E-07-1.13737E-24
 -1        56 2.92673E-05-2.31840E-07 0.00000E+00
 -1        57 2.86490E-05-4.79159E-07 0.00000E+00
 -1        58 2.80309E-05-7.23062E-07 0.00000E+00
 -1        59 2.74040E-05-9.55100E-07-6.61744E-24
 -1        60 2.67683E-05-1.16394E-06 0.00000E+00
 -1        61 2.61196E-05-1.34011E-06-6.61744E-24
 -1        62 2.54552E-05-1.47460E-06 2.64698E-23
 -1        63 2.47719E-05-1.55919E-06 0.00000E+00
 -1        64 2.40673E-05-1.58684E-06-2.64698E-23
 -1        65 2.33390E-05-1.55122E-06-6.61744E-24
 -1        66 2.25853E-05-1.44762E-06 1.32349E-23
 -1        67 2.18053E-05-1.27204E-06 0.00000E+00
 -1        68 2.09978E-05-1.02261E-06-1.32349E-23
 -1        69 2.01656E-05-6.96994E-07 6.61744E-24
 -1        70 1.93045E-05-2.97727E-07 1.32349E-23
 -1        71 2.21871E-05 2.02890E-20-6.61744E-24
 -1        72 2.19689E-05 6.69821E-20-3.30872E-24
 -1        73 2.17507E-05 6.53317E-20 0.00000E+00
 -1        74 2.15326E-05 9.93883E-20 3.30872E-24
 -1        75 2.13145E-05 7.32267E-20 0.00000E+00
 -1        76 2.10964E-05-1.15816E-20 3.30872E-24
 -1        77 2.08783E-05-1.66228E-19 0.00000E+00
 -1        78 2.06602E-05-3.02145E-19-3.30872E-24
 -1        79 2.04422E-05-4.85038E-19 6.61744E-24
 -1        80 2.02241E-05-6.03860E-19-3.30872E-24
 -1        81 2.00061E-05-5.68600E-19 0.00000E+00
 -1        82 1.97882E-05-4.64343E-19 3.30872E-24
 -1        83 1.95704E-05-3.65320E-19 0.00000E+00
 -1        84 1.93533E-05-2.49787E-19-3.30872E-24
 -1        85 1.91359E-05-7.79952E-20-6.61744E-24
 -1        86 2.22323E-05 2.26776E-08 0.00000E+00
 -1        87 2.17152E-05 5.56979E-08 0.00000E+00
 -1        88 2.09677E-05 8.78553E-08-4.13590E-25
 -1        89 2.01030E-05 1.20756E-07 2.06795E-25
 -1        90 1.92249E-05 1.54130E-07 0.00000E+00
 -1        91 2.18272E-05 7.32502E-07 0.00000E+00
 -1        92 2.06261E-05 3.11279E-06 0.00000E+00
 -1        93 1.92308E-05 6.00735E-06 0.00000E+00
 -1        94 1.80717E-05 8.27630E-06-3.30872E-24
 -1        95 1.74473E-05 9.12548E-06-6.61744E-24
 -1        96 1.76468E-05 7.77654E-06 0.00000E+00
 -1        97 1.85047E-05 4.66155E-06 0.00000E+00
 -1        98 1.98493E-05 2.34374E-07 0.00000E+00
 -1        99 2.12428E-05-4.32490E-06-6.61744E-24
 -1       100 2.22473E-05-7.83443E-06-3.30872E-24
 -1       101 2.26371E-05-9.69290E-06-6.61744E-24
 -1       102 2.21918E-05-9.31953E-06-3.30872E-24
 -1       103 2.11513E-05-7.36450E-06 6.61744E-24
 -1       104 1.97669E-05-4.49547E-06 3.30872E-24
 -1       105 1.84796E-05-1.88496E-06 0.00000E+00
 -1       106 1.87689E-05 4.87131E-18 0.00000E+00
 -1       107 1.86143E-05 1.95635E-17-1.65436E-24
 -1       108 1.84597E-05 4.13299E-17 3.30872E-24
 -1       109 1.83049E-05 6.72162E-17 0.00000E+00
 -1       110 1.81502E-05 9.30949E-17-3.30872E-24
 -1       111 1.79953E-05 1.14995E-16 0.00000E+00
 -1       112 1.78405E-05 1.29991E-16 0.00000E+00
 -1       113 1.76857E-05 1.35158E-16 1.65436E-24
 -1       114 1.75308E-05 1.30358E-16 0.00000E+00
 -1       115 1.73760E-05 1.15610E-16 0.00000E+00
 -1       116 1.72212E-05 9.38090E-17 0.00000E+00
 -1       117 1.70665E-05 6.77750E-17 1.65436E-24
 -1       118 1.69118E-05 4.17214E-17-3.30872E-24
 -1       119 1.67577E-05 1.98255E-17 0.00000E+00
 -1       120 1.66034E-05 4.95782E-18 0.00000E+00
 -1       121 1.89157E-05-1.16845E-07 3.30872E-24
 -1       122 1.88670E-05-2.33341E-07-1.65436E-24
 -1       123 1.87503E-05-3.49851E-07-3.30872E-24
 -1       124 1.85400E-05-4.66345E-07 1.65436E-24
 -1       125 1.82106E-05-5.82859E-07 3.30872E-24
 -1       126 1.79903E-05 2.14492E-06 3.30872E-24
 -1       127 1.54050E-05 8.64585E-06-1.65436E-24
 -1       128 1.15780E-05 1.83818E-05-3.30872E-24
 -1       129 6.93776E-06 3.02202E-05 0.00000E+00
 -1       130 2.12419E-06 4.25054E-05 0.00000E+00
 -1       131-2.21992E-06 5.35801E-05 0.00000E+00
 -1       132-5.57439E-06 6.20880E-05 3.30872E-24
 -1       133-7.43245E-06 6.66815E-05-1.65436E-24
 -1       134-7.67083E-06 6.69861E-05-3.30872E-24
 -1       135-6.17787E-06 6.26470E-05 0.00000E+00
 -1       136-3.26971E-06 5.44664E-05-3.30872E-24
 -1       137 7.38210E-07 4.32684E-05 0.00000E+00
 -1       138 5.26652E-06 3.06347E-05 3.30872E-24
 -1       139 9.73878E-06 1.81565E-05-1.65436E-24
 -1       140 1.35917E-05 7.38610E-06 3.30872E-24
 -1       141 1.63778E-05-1.11049E-20 0.00000E+00
 -1       142 1.63040E-05-6.49812E-20-8.27181E-25
 -1       143 1.62302E-05-1.27473E-19 0.00000E+00
 -1       144 1.61565E-05-2.13308E-19 8.27181E-25
 -1       145 1.60828E-05-2.94091E-19 1.65436E-24
 -1       146 1.60091E-05-3.34610E-19 0.00000E+00
 -1       147 1.59354E-05-3.65428E-19 1.65436E-24
 -1       148 1.58617E-05-3.80697E-19 8.27181E-25
 -1       149 1.57880E-05-3.27532E-19 0.00000E+00
 -1       150 1.57144E-05-2.79786E-19 8.27181E-25
 -1       151 1.56408E-05-2.36194E-19 0.00000E+00
 -1       152 1.55674E-05-1.79890E-19 0.00000E+00
 -1       153 1.54940E-05-1.37082E-19-1.65436E-24
 -1       154 1.54216E-05-5.86511E-20 8.27181E-25
 -1       155 1.53489E-05-1.83240E-20-2.06795E-25
 -1       156 1.58161E-05-2.20800E-08 0.00000E+00
 -1       157 1.39352E-05-4.31245E-08-4.13590E-25
 -1       158 1.19324E-05-6.45660E-08 0.00000E+00
 -1       159 1.09314E-05-8.44364E-08 0.00000E+00
 -1       160 1.20138E-05-1.04637E-07 0.00000E+00
 -1       161 1.63738E-05-5.17375E-08 0.00000E+00
 -1       162 1.63102E-05-1.42601E-07 1.65436E-24
 -1       163 1.62560E-05-2.58578E-07 0.00000E+00
 -1       164 1.62059E-05-3.85593E-07 0.00000E+00
 -1       165 1.61537E-05-5.07035E-07 3.30872E-24
 -1       166 1.60932E-05-6.06326E-07 0.00000E+00
 -1       167 1.60201E-05-6.71864E-07 0.00000E+00
 -1       168 1.59300E-05-6.92176E-07 0.00000E+00
 -1       169 1.58220E-05-6.64696E-07 0.00000E+00
 -1       170 1.56953E-05-5.87025E-07 0.00000E+00
 -1       171 1.55526E-05-4.66901E-07 3.30872E-24
 -1       172 1.53971E-05-3.12149E-07 0.00000E+00
 -1       173 1.52343E-05-1.37617E-07-1.65436E-24
 -1       174 1.50706E-05 4.22385E-08 0.00000E+00
 -1       175 1.49107E-05 2.10932E-07-4.13590E-25
 -1       191 1.52638E-05 5.91058E-08-3.30872E-24
 -1       192 1.52179E-05 1.18288E-07 0.00000E+00
 -1       193 1.51446E-05 1.77488E-07 0.00000E+00
 -1       194 1.50443E-05 2.36681E-07 0.00000E+00
 -1       195 1.49180E-05 2.95844E-07 0.00000E+00
 -1       251 2.33050E-05 2.76466E-06-6.61744E-24
 -1       252 2.29818E-05 9.68092E-06 0.00000E+00
 -1       253 2.26537E-05 1.74221E-05-6.61744E-24
 -1       254 2.23383E-05 2.29476E-05 0.00000E+00
 -1       255 2.20352E-05 2.44274E-05 6.61744E-24
 -1       256 2.17238E-05 2.00862E-05 0.00000E+00
 -1       257 2.13856E-05 1.13103E-05 0.00000E+00
 -1       258 2.10178E-05-4.54672E-07 0.00000E+00
 -1       259 2.06510E-05-1.21334E-05 0.00000E+00
 -1       260 2.03148E-05-2.06514E-05 0.00000E+00
 -1       261 2.00048E-05-2.46574E-05 0.00000E+00
 -1       262 1.97012E-05-2.28607E-05 0.00000E+00
 -1       263 1.93847E-05-1.71225E-05 6.61744E-24
 -1       264 1.90564E-05-9.35697E-06 3.30872E-24
 -1       265 1.87341E-05-2.58608E-06 6.61744E-24
 -1       266 2.24330E-05-3.47550E-07 3.30872E-24
 -1       267 2.11381E-05-3.94269E-07-8.27181E-25
 -1       268 1.95038E-05-4.41665E-07 0.00000E+00
 -1       269 1.73169E-05-4.89188E-07 0.00000E+00
 -1       270 1.44175E-05-5.38544E-07 0.00000E+00
 -1       271 2.27331E-05 4.84787E-07 0.00000E+00
 -1       272 2.19386E-05 1.01559E-06 0.00000E+00
 -1       273 2.12258E-05 1.33005E-06 1.32349E-23
 -1       274 2.05804E-05 1.45726E-06 0.00000E+00
 -1       275 1.99931E-05 1.42903E-06-1.32349E-23
 -1       276 1.94517E-05 1.27706E-06 0.00000E+00
 -1       277 1.89445E-05 1.03378E-06-1.32349E-23
 -1       278 1.84591E-05 7.31967E-07 6.61744E-24
 -1       279 1.79832E-05 4.04685E-07 0.00000E+00
 -1       280 1.75046E-05 8.51231E-08 0.00000E+00
 -1       281 1.70107E-05-1.93599E-07-1.32349E-23
 -1       282 1.64896E-05-3.98484E-07 0.00000E+00
 -1       283 1.59288E-05-4.96978E-07 1.32349E-23
 -1       284 1.53184E-05-4.56304E-07 0.00000E+00
 -1       285 1.46439E-05-2.45954E-07-1.32349E-23
 -1       286 1.83901E-05 8.17868E-07-3.30872E-24
 -1       287 1.83464E-05 1.24398E-06-8.27181E-25
 -1       288 1.83025E-05 1.46732E-06 1.65436E-24
 -1       289 1.82593E-05 1.49559E-06-8.27181E-25
 -1       290 1.82161E-05 1.35446E-06-1.65436E-24
 -1       291 1.81730E-05 1.06995E-06 0.00000E+00
 -1       292 1.81299E-05 6.81254E-07 0.00000E+00
 -1       293 1.80868E-05 2.27755E-07-8.27181E-25
 -1       294 1.80437E-05-2.45185E-07 0.00000E+00
 -1       295 1.80005E-05-6.92170E-07 0.00000E+00
 -1       296 1.79574E-05-1.07021E-06 0.00000E+00
 -1       297 1.79142E-05-1.33641E-06 0.00000E+00
 -1       298 1.78710E-05-1.45821E-06-1.65436E-24
 -1       299 1.78272E-05-1.40328E-06 0.00000E+00
 -1       300 1.77836E-05-1.15562E-06 0.00000E+00
 -1       301 1.76811E-05 1.76511E-07 1.65436E-24
 -1       302 1.69204E-05 1.76689E-07 0.00000E+00
 -1       303 1.61590E-05 1.77752E-07-8.27181E-25
 -1       304 1.54008E-05 1.78598E-07 0.00000E+00
 -1       305 1.46497E-05 1.78090E-07 0.00000E+00
 -1       306 1.78747E-05 6.57159E-07 6.61744E-24
 -1       307 1.73940E-05 8.85801E-07-3.30872E-24
 -1       308 1.69920E-05 9.05587E-07 0.00000E+00
 -1       309 1.66537E-05 7.51190E-07 6.61744E-24
 -1       310 1.63669E-05 4.58798E-07 1.32349E-23
 -1       311 1.61181E-05 6.45977E-08-6.61744E-24
 -1       312 1.58936E-05-3.94830E-07 1.32349E-23
 -1       313 1.56798E-05-8.82761E-07 6.61744E-24
 -1       314 1.54628E-05-1.36236E-06-1.32349E-23
 -1       315 1.52290E-05-1.79680E-06 0.00000E+00
 -1       316 1.49646E-05-2.14945E-06 0.00000E+00
 -1       317 1.46563E-05-2.38385E-06 0.00000E+00
 -1       318 1.42903E-05-2.46401E-06 0.00000E+00
 -1       319 1.38548E-05-2.35388E-06 3.30872E-24
 -1       320 1.33347E-05-2.01919E-06 6.61744E-24
 -1       321 1.76496E-05 5.85985E-07 0.00000E+00
 -1       322 1.75610E-05 3.31647E-06 0.00000E+00
 -1       323 1.74691E-05 7.12685E-06-3.30872E-24
 -1       324 1.73745E-05 1.16481E-05-1.65436E-24
 -1       325 1.72790E-05 1.63860E-05-3.30872E-24
 -1       326 1.71849E-05 2.08454E-05 1.65436E-24
 -1       327 1.70935E-05 2.45805E-05 0.00000E+00
 -1       328 1.70056E-05 2.71477E-05 1.65436E-24
 -1       329 1.69202E-05 2.83090E-05 0.00000E+00
 -1       330 1.68354E-05 2.78319E-05 0.00000E+00
 -1       331 1.67486E-05 2.57714E-05 0.00000E+00
 -1       332 1.66578E-05 2.21890E-05 0.00000E+00
 -1       333 1.65622E-05 1.74132E-05-3.30872E-24
 -1       334 1.64624E-05 1.17774E-05-1.65436E-24
 -1       335 1.63606E-05 5.76604E-06 0.00000E+00
 -1       336 1.70930E-05-8.20241E-07 0.00000E+00
 -1       337 1.63236E-05-9.40986E-07 0.00000E+00
 -1       338 1.54655E-05-1.06175E-06 0.00000E+00
 -1       339 1.45557E-05-1.18228E-06 0.00000E+00
 -1       340 1.36312E-05-1.30285E-06 3.30872E-24
 -1       341 1.57336E-05 4.21306E-06 0.00000E+00
 -1       342 1.03579E-05 1.78795E-05 0.00000E+00
 -1       343 2.56512E-06 3.76954E-05 0.00000E+00
 -1       344-6.63426E-06 6.10370E-05 1.65436E-24
 -1       345-1.57885E-05 8.42653E-05 3.30872E-24
 -1       346-2.34463E-05 1.03741E-04 0.00000E+00
 -1       347-2.86267E-05 1.16906E-04-3.30872E-24
 -1       348-3.04026E-05 1.21221E-04 0.00000E+00
 -1       349-2.88516E-05 1.16662E-04 3.30872E-24
 -1       350-2.40699E-05 1.03258E-04-1.65436E-24
 -1       351-1.70426E-05 8.35760E-05 3.30872E-24
 -1       352-8.72746E-06 6.02320E-05 0.00000E+00
 -1       353-4.24179E-07 3.69224E-05 0.00000E+00
 -1       354 6.56750E-06 1.73438E-05 0.00000E+00
 -1       355 1.12942E-05 4.09586E-06 0.00000E+00
 -1       356 1.61573E-05-6.02422E-06 3.30872E-24
 -1       357 1.60536E-05-1.20003E-05 0.00000E+00
 -1       358 1.59522E-05-1.75717E-05 3.30872E-24
 -1       359 1.58550E-05-2.22486E-05 0.00000E+00
 -1       360 1.57625E-05-2.57019E-05 0.00000E+00
 -1       361 1.56740E-05-2.76075E-05 0.00000E+00
 -1       362 1.55871E-05-2.79195E-05 0.00000E+00
 -1       363 1.54995E-05-2.65983E-05 1.65436E-24
 -1       364 1.54093E-05-2.38977E-05 0.00000E+00
 -1       365 1.53156E-05-2.00772E-05 0.00000E+00
 -1       366 1.52193E-05-1.55975E-05-3.30872E-24
 -1       367 1.51225E-05-1.09220E-05 1.65436E-24
 -1       368 1.50269E-05-6.54940E-06-1.65436E-24
 -1       369 1.49355E-05-2.97719E-06 8.27181E-25
 -1       370 1.48470E-05-5.59300E-07 0.00000E+00
 -1       371 2.03124E-05-1.65362E-07 0.00000E+00
 -1       372 2.08183E-05-1.85855E-07-4.13590E-25
 -1       373 1.90378E-05-2.07356E-07-8.27181E-25
 -1       374 1.62333E-05-2.30496E-07 0.00000E+00
 -1       375 1.37121E-05-2.53028E-07 1.03398E-25
 -1       376 1.88602E-05-7.46328E-06-3.30872E-24
 -1       377 2.25065E-05-1.76581E-05 0.00000E+00
 -1       378 2.66783E-05-2.92985E-05 0.00000E+00
 -1       379 3.08556E-05-4.09549E-05-1.65436E-24
 -1       380 3.45179E-05-5.11942E-05-3.30872E-24
 -1       381 3.71418E-05-5.85918E-05-1.65436E-24
 -1       382 3.84492E-05-6.24224E-05 0.00000E+00
 -1       383 3.81619E-05-6.19798E-05 0.00000E+00
 -1       384 3.63883E-05-5.76011E-05 0.00000E+00
 -1       385 3.32472E-05-4.96412E-05 0.00000E+00
 -1       386 2.92004E-05-3.93278E-05 0.00000E+00
 -1       387 2.47215E-05-2.78971E-05 0.00000E+00
 -1       388 2.03939E-05-1.68574E-05 3.30872E-24
 -1       389 1.68004E-05-7.71562E-06 0.00000E+00
 -1       390 1.43348E-05-1.51785E-06-1.65436E-24
 -1       406 1.45833E-05 4.13366E-07 0.00000E+00
 -1       407 1.43780E-05 4.71881E-07 0.00000E+00
 -1       408 1.41532E-05 5.30366E-07 0.00000E+00
 -1       409 1.39111E-05 5.88708E-07 0.00000E+00
 -1       410 1.36543E-05 6.46748E-07 1.65436E-24
 -1       466 1.08384E-05 2.80927E-06 0.00000E+00
 -1       467 1.10422E-05 4.60914E-06-1.65436E-24
 -1       468 1.12469E-05 5.32271E-06 6.61744E-24
 -1       469 1.14535E-05 5.45182E-06 0.00000E+00
 -1       470 1.16601E-05 5.18504E-06-6.61744E-24
 -1       471 1.18669E-05 4.70724E-06-3.30872E-24
 -1       472 1.20737E-05 4.08982E-06 0.00000E+00
 -1       473 1.22805E-05 3.40290E-06 0.00000E+00
 -1       474 1.24873E-05 2.67919E-06 6.61744E-24
 -1       475 1.26940E-05 1.95104E-06-3.30872E-24
 -1       476 1.29006E-05 1.24848E-06 0.00000E+00
 -1       477 1.31067E-05 6.01708E-07 3.30872E-24
 -1       478 1.33127E-05 7.09497E-08 6.61744E-24
 -1       479 1.35160E-05-2.82488E-07 0.00000E+00
 -1       480 1.37203E-05-3.02466E-07-8.27181E-25
 -1       481 7.19273E-06-5.64804E-07 0.00000E+00
 -1       482 5.23232E-06-5.35090E-07-4.13590E-25
 -1       483 4.33978E-06-5.03936E-07-8.27181E-25
 -1       484 4.09045E-06-4.72197E-07 4.13590E-25
 -1       485 4.10589E-06-4.40372E-07 0.00000E+00
 -1       486 8.19486E-06 5.25538E-06 3.30872E-24
 -1       487 4.43695E-06 1.44797E-05-3.30872E-24
 -1       488 5.89269E-07 2.39387E-05 0.00000E+00
 -1       489-2.14019E-06 3.04806E-05 0.00000E+00
 -1       490-3.08905E-06 3.23284E-05 6.61744E-24
 -1       491-1.63492E-06 2.77431E-05 0.00000E+00
 -1       492 1.71379E-06 1.80034E-05 6.61744E-24
 -1       493 6.44614E-06 4.44512E-06-3.30872E-24
 -1       494 1.14212E-05-9.78601E-06-6.61744E-24
 -1       495 1.55005E-05-2.15353E-05 0.00000E+00
 -1       496 1.79525E-05-2.88275E-05 0.00000E+00
 -1       497 1.80403E-05-2.97396E-05-3.30872E-24
 -1       498 1.61288E-05-2.53452E-05 6.61744E-24
 -1       499 1.26188E-05-1.67648E-05 0.00000E+00
 -1       500 8.68623E-06-7.08679E-06 3.30872E-24
 -1       501 1.38316E-05 7.69449E-07 0.00000E+00
 -1       502 1.37576E-05 1.12156E-06 0.00000E+00
 -1       503 1.36834E-05 1.22438E-06 3.30872E-24
 -1       504 1.36099E-05 1.07641E-06 0.00000E+00
 -1       505 1.35364E-05 7.14652E-07 0.00000E+00
 -1       506 1.34630E-05 1.76802E-07 0.00000E+00
 -1       507 1.33895E-05-4.72432E-07-1.65436E-24
 -1       508 1.33160E-05-1.16800E-06 0.00000E+00
 -1       509 1.32426E-05-1.83771E-06 0.00000E+00
 -1       510 1.31692E-05-2.40949E-06-8.27181E-25
 -1       511 1.30959E-05-2.82628E-06 0.00000E+00
 -1       512 1.30226E-05-3.03149E-06-8.27181E-25
 -1       513 1.29494E-05-3.00101E-06 1.65436E-24
 -1       514 1.28761E-05-2.71148E-06 0.00000E+00
 -1       515 1.28027E-05-2.17927E-06 1.65436E-24
 -1       516 1.35392E-05 2.36608E-07 1.65436E-24
 -1       517 1.38538E-05 3.12546E-07-2.06795E-25
 -1       518 1.40646E-05 3.87833E-07 0.00000E+00
 -1       519 1.33827E-05 4.64059E-07-8.27181E-25
 -1       520 1.08571E-05 5.37458E-07 0.00000E+00
 -1       521 1.31898E-05 5.72720E-07 0.00000E+00
 -1       522 1.25424E-05 7.37681E-07 0.00000E+00
 -1       523 1.19699E-05 7.04032E-07-1.32349E-23
 -1       524 1.14570E-05 5.05125E-07-6.61744E-24
 -1       525 1.09923E-05 1.76625E-07-1.32349E-23
 -1       526 1.05624E-05-2.45900E-07-6.61744E-24
 -1       527 1.01542E-05-7.26321E-07 0.00000E+00
 -1       528 9.75395E-06-1.22834E-06-6.61744E-24
 -1       529 9.34817E-06-1.71553E-06 0.00000E+00
 -1       530 8.92327E-06-2.15153E-06-6.61744E-24
 -1       531 8.46575E-06-2.50026E-06 0.00000E+00
 -1       532 7.96250E-06-2.72594E-06 0.00000E+00
 -1       533 7.40020E-06-2.79346E-06 0.00000E+00
 -1       534 6.76777E-06-2.66782E-06 6.61744E-24
 -1       535 6.05018E-06-2.31636E-06 0.00000E+00
 -1       536 1.27283E-05-6.54551E-07 0.00000E+00
 -1       537 1.27311E-05-7.18073E-08 4.13590E-25
 -1       538 1.27339E-05 3.46213E-07 0.00000E+00
 -1       539 1.27373E-05 6.19191E-07 0.00000E+00
 -1       540 1.27408E-05 7.66756E-07 0.00000E+00
 -1       541 1.27444E-05 8.08550E-07-2.58494E-26
 -1       542 1.27480E-05 7.64210E-07 5.16988E-26
 -1       543 1.27516E-05 6.53372E-07 5.16988E-26
 -1       544 1.27552E-05 4.95668E-07-1.03398E-25
 -1       545 1.27589E-05 3.10729E-07-5.16988E-26
 -1       546 1.27625E-05 1.18185E-07 0.00000E+00
 -1       547 1.27662E-05-6.23300E-08 0.00000E+00
 -1       548 1.27698E-05-2.11189E-07-2.06795E-25
 -1       549 1.27736E-05-3.08762E-07 1.03398E-25
 -1       550 1.27773E-05-3.35404E-07 0.00000E+00
 -1       551 1.16103E-05-1.46748E-06 7.75482E-26
 -1       552 1.03645E-05-1.51226E-06 6.20385E-25
 -1       553 9.04805E-06-1.55705E-06 0.00000E+00
 -1       554 7.71859E-06-1.60240E-06 1.65436E-24
 -1       555 6.43363E-06-1.64895E-06 0.00000E+00
 -1       556 1.24034E-05-7.01890E-07 0.00000E+00
 -1       557 1.21414E-05-1.47583E-07 0.00000E+00
 -1       558 1.19359E-05 2.57128E-07 3.30872E-24
 -1       559 1.17802E-05 5.29525E-07-1.65436E-24
 -1       560 1.16677E-05 6.86913E-07 0.00000E+00
 -1       561 1.15919E-05 7.46739E-07-1.65436E-24
 -1       562 1.15461E-05 7.26460E-07 0.00000E+00
 -1       563 1.15238E-05 6.43552E-07 0.00000E+00
 -1       564 1.15184E-05 5.15493E-07 0.00000E+00
 -1       565 1.15234E-05 3.59768E-07 8.27181E-25
 -1       566 1.15323E-05 1.93861E-07 1.65436E-24
 -1       567 1.15384E-05 3.52636E-08 0.00000E+00
 -1       568 1.15353E-05-9.85413E-08 1.65436E-24
 -1       569 1.15166E-05-1.90085E-07-8.01331E-25
 -1       570 1.14757E-05-2.21911E-07-4.13590E-25
 -1       571 1.28177E-05-1.89881E-07-5.16988E-25
 -1       572 1.28551E-05-1.34118E-07 1.03398E-25
 -1       573 1.28928E-05-9.95331E-08-4.13590E-25
 -1       574 1.29306E-05-8.11491E-08 0.00000E+00
 -1       575 1.29685E-05-7.39695E-08-8.27181E-25
 -1       576 1.30064E-05-7.29652E-08 0.00000E+00
 -1       577 1.30444E-05-7.31050E-08 1.65436E-24
 -1       578 1.30823E-05-6.93534E-08 0.00000E+00
 -1       579 1.31202E-05-5.66746E-08 0.00000E+00
 -1       580 1.31582E-05-3.00326E-08 1.65436E-24
 -1       581 1.31961E-05 1.56072E-08 0.00000E+00
 -1       582 1.32340E-05 8.52751E-08 0.00000E+00
 -1       583 1.32719E-05 1.83996E-07 0.00000E+00
 -1       584 1.33098E-05 3.16744E-07 0.00000E+00
 -1       585 1.33477E-05 4.88467E-07 0.00000E+00
 -1       586 1.25848E-05-2.55442E-07 0.00000E+00
 -1       587 1.23594E-05-2.39204E-07-8.27181E-25
 -1       588 1.21168E-05-2.22984E-07 0.00000E+00
 -1       589 1.18694E-05-2.06921E-07 5.16988E-26
 -1       590 1.16290E-05-1.91212E-07 0.00000E+00
 -1       591 1.27225E-05-1.75407E-07 0.00000E+00
 -1       592 1.26681E-05-9.61080E-08 0.00000E+00
 -1       593 1.26185E-05-3.03856E-08-8.27181E-25
 -1       594 1.25727E-05 2.47345E-08-4.13590E-25
 -1       595 1.25297E-05 7.22257E-08 8.27181E-25
 -1       596 1.24884E-05 1.15039E-07 0.00000E+00
 -1       597 1.24477E-05 1.56124E-07 0.00000E+00
 -1       598 1.24066E-05 1.98425E-07-4.13590E-25
 -1       599 1.23640E-05 2.44887E-07 4.13590E-25
 -1       600 1.23186E-05 2.98455E-07-4.13590E-25
 -1       601 1.22695E-05 3.62074E-07 0.00000E+00
 -1       602 1.22156E-05 4.38693E-07-3.10193E-25
 -1       603 1.21557E-05 5.31261E-07 0.00000E+00
 -1       604 1.20890E-05 6.42745E-07-1.55096E-25
 -1       605 1.20143E-05 7.76118E-07 2.06795E-25
 -1       606 1.33991E-05 9.89740E-07 0.00000E+00
 -1       607 1.34121E-05 1.30354E-06-8.27181E-25
 -1       608 1.34247E-05 1.64350E-06 0.00000E+00
 -1       609 1.34372E-05 2.00776E-06 0.00000E+00
 -1       610 1.34497E-05 2.39444E-06 0.00000E+00
 -1       611 1.34621E-05 2.80162E-06 0.00000E+00
 -1       612 1.34746E-05 3.22739E-06 0.00000E+00
 -1       613 1.34870E-05 3.66983E-06 0.00000E+00
 -1       614 1.34994E-05 4.12704E-06 0.00000E+00
 -1       615 1.35118E-05 4.59707E-06 0.00000E+00
 -1       616 1.35242E-05 5.07802E-06 8.27181E-25
 -1       617 1.35365E-05 5.56798E-06 0.00000E+00
 -1       618 1.35489E-05 6.06501E-06-8.27181E-25
 -1       619 1.35613E-05 6.56721E-06 2.06795E-25
 -1       620 1.35736E-05 7.07266E-06-4.13590E-25
 -1       621 1.31164E-05 7.42348E-07 0.00000E+00
 -1       622 1.28541E-05 7.81167E-07-4.13590E-25
 -1       623 1.26016E-05 8.19991E-07-8.27181E-25
 -1       624 1.23617E-05 8.58714E-07 4.13590E-25
 -1       625 1.21376E-05 8.97210E-07-4.13590E-25
 -1       626 1.33015E-05 1.00426E-06 0.00000E+00
 -1       627 1.32064E-05 1.33386E-06 0.00000E+00
 -1       628 1.31013E-05 1.68982E-06-1.65436E-24
 -1       629 1.29874E-05 2.06908E-06 0.00000E+00
 -1       630 1.28658E-05 2.46858E-06 0.00000E+00
 -1       631 1.27378E-05 2.88520E-06 0.00000E+00
 -1       632 1.26046E-05 3.31581E-06 0.00000E+00
 -1       633 1.24673E-05 3.75731E-06-4.13590E-25
 -1       634 1.23270E-05 4.20656E-06-8.27181E-25
 -1       635 1.21850E-05 4.66044E-06 0.00000E+00
 -1       636 1.20425E-05 5.11582E-06 8.27181E-25
 -1       637 1.19005E-05 5.56959E-06-2.06795E-25
 -1       638 1.17603E-05 6.01860E-06-4.13590E-25
 -1       639 1.16229E-05 6.45974E-06 2.06795E-25
 -1       640 1.14894E-05 6.88987E-06 0.00000E+00
 -1       641 1.35861E-05 8.10444E-06 2.06795E-25
 -1       642 1.35859E-05 8.68391E-06 0.00000E+00
 -1       643 1.35858E-05 9.30995E-06 0.00000E+00
 -1       644 1.35856E-05 9.97469E-06 0.00000E+00
 -1       645 1.35853E-05 1.06702E-05 0.00000E+00
 -1       646 1.35850E-05 1.13887E-05 0.00000E+00
 -1       647 1.35847E-05 1.21222E-05 0.00000E+00
 -1       648 1.35843E-05 1.28629E-05 3.23117E-27
 -1       649 1.35840E-05 1.36027E-05 0.00000E+00
 -1       650 1.35837E-05 1.43340E-05 1.29247E-26
 -1       651 1.35833E-05 1.50487E-05 0.00000E+00
 -1       652 1.35830E-05 1.57389E-05 0.00000E+00
 -1       653 1.35826E-05 1.63969E-05-2.06795E-25
 -1       654 1.35819E-05 1.70147E-05-2.06795E-25
 -1       655 1.35814E-05 1.75843E-05 8.27181E-25
 -1       656 1.31318E-05 7.53538E-06 8.27181E-25
 -1       657 1.27402E-05 7.48901E-06 4.13590E-25
 -1       658 1.23893E-05 7.44275E-06 0.00000E+00
 -1       659 1.20570E-05 7.39645E-06 0.00000E+00
 -1       660 1.17212E-05 7.35007E-06 8.27181E-25
 -1       661 1.34397E-05 8.12000E-06 8.27181E-25
 -1       662 1.32797E-05 8.70325E-06 8.27181E-25
 -1       663 1.31061E-05 9.32236E-06-1.65436E-24
 -1       664 1.29216E-05 9.97128E-06 0.00000E+00
 -1       665 1.27283E-05 1.06437E-05 0.00000E+00
 -1       666 1.25285E-05 1.13336E-05 0.00000E+00
 -1       667 1.23244E-05 1.20348E-05 1.65436E-24
 -1       668 1.21185E-05 1.27411E-05 0.00000E+00
 -1       669 1.19129E-05 1.34464E-05 1.65436E-24
 -1       670 1.17100E-05 1.41446E-05 8.27181E-25
 -1       671 1.15121E-05 1.48295E-05-1.65436E-24
 -1       672 1.13213E-05 1.54950E-05 0.00000E+00
 -1       673 1.11401E-05 1.61349E-05 0.00000E+00
 -1       674 1.09705E-05 1.67430E-05 0.00000E+00
 -1       675 1.08151E-05 1.73132E-05 4.13590E-25
 -1       676 1.30937E-05 1.80546E-05 0.00000E+00
 -1       677 1.26083E-05 1.80110E-05 8.27181E-25
 -1       678 1.21234E-05 1.79674E-05-1.65436E-24
 -1       679 1.16391E-05 1.79240E-05 0.00000E+00
 -1       680 1.11557E-05 1.78806E-05-8.27181E-25
 -1       681 4.10229E-06-5.04586E-07 0.00000E+00
 -1       682 4.19942E-06-1.10523E-06 1.65436E-24
 -1       683 4.29609E-06-2.07218E-06 0.00000E+00
 -1       684 4.39310E-06-3.26845E-06 0.00000E+00
 -1       685 4.48994E-06-4.61026E-06-3.30872E-24
 -1       686 4.58682E-06-6.01449E-06-1.65436E-24
 -1       687 4.68372E-06-7.41248E-06 0.00000E+00
 -1       688 4.78073E-06-8.73557E-06-1.65436E-24
 -1       689 4.87793E-06-9.89769E-06 0.00000E+00
 -1       690 4.97535E-06-1.08121E-05 0.00000E+00
 -1       691 5.07299E-06-1.13343E-05 0.00000E+00
 -1       692 5.17060E-06-1.13183E-05 0.00000E+00
 -1       693 5.26780E-06-1.04931E-05-3.30872E-24
 -1       694 5.36268E-06-8.58383E-06 8.27181E-25
 -1       695 5.45352E-06-5.06487E-06 8.27181E-25
 -1       696 3.71074E-06-3.42364E-07 1.65436E-24
 -1       697 3.13976E-06-2.74126E-07 0.00000E+00
 -1       698 2.39196E-06-2.06108E-07-1.65436E-24
 -1       699 1.56369E-06-1.37665E-07 0.00000E+00
 -1       700 7.38523E-07-6.92501E-08 0.00000E+00
 -1       701 3.70453E-06 1.01616E-07 0.00000E+00
 -1       702 3.10471E-06 1.38443E-06 8.27181E-25
 -1       703 2.28926E-06 3.24068E-06 0.00000E+00
 -1       704 1.33344E-06 5.46620E-06 1.65436E-24
 -1       705 3.48502E-07 7.76874E-06-3.30872E-24
 -1       706-5.55102E-07 9.85535E-06 0.00000E+00
 -1       707-1.28659E-06 1.14854E-05 0.00000E+00
 -1       708-1.75635E-06 1.24201E-05 1.65436E-24
 -1       709-1.93829E-06 1.25885E-05 0.00000E+00
 -1       710-1.80774E-06 1.19233E-05 1.65436E-24
 -1       711-1.41547E-06 1.05582E-05 0.00000E+00
 -1       712-8.13094E-07 8.63059E-06 1.65436E-24
 -1       713-1.02885E-07 6.41385E-06 0.00000E+00
 -1       714 6.13509E-07 4.18308E-06-1.65436E-24
 -1       715 1.23119E-06 2.21615E-06 0.00000E+00
 -1       716 5.49900E-06 6.55456E-06 0.00000E+00
 -1       717 5.47604E-06 1.09477E-05 0.00000E+00
 -1       718 5.45818E-06 1.38942E-05-4.13590E-25
 -1       719 5.44329E-06 1.55132E-05-2.06795E-25
 -1       720 5.42961E-06 1.59630E-05 0.00000E+00
 -1       721 5.41587E-06 1.54027E-05 2.06795E-25
 -1       722 5.40139E-06 1.40211E-05 0.00000E+00
 -1       723 5.38587E-06 1.20077E-05 0.00000E+00
 -1       724 5.36946E-06 9.57052E-06 0.00000E+00
 -1       725 5.35246E-06 6.91806E-06 0.00000E+00
 -1       726 5.33542E-06 4.26493E-06-4.13590E-25
 -1       727 5.31866E-06 1.82590E-06 0.00000E+00
 -1       728 5.30274E-06-1.90673E-07 0.00000E+00
 -1       729 5.28656E-06-1.57672E-06 0.00000E+00
 -1       730 5.27156E-06-2.14319E-06 0.00000E+00
 -1       731 2.81031E-07 6.16973E-07 2.06795E-25
 -1       732-2.00614E-06 6.50316E-07 0.00000E+00
 -1       733-2.19428E-06 6.86319E-07 8.27181E-25
 -1       734-1.14271E-06 7.22029E-07 0.00000E+00
 -1       735 3.91372E-07 7.57303E-07 8.27181E-25
 -1       736 1.53101E-06 1.08004E-05 0.00000E+00
 -1       737-5.18995E-06 2.79721E-05 0.00000E+00
 -1       738-1.36807E-05 4.96131E-05 0.00000E+00
 -1       739-2.29560E-05 7.32130E-05 1.65436E-24
 -1       740-3.18252E-05 9.57975E-05 0.00000E+00
 -1       741-3.91069E-05 1.14393E-04 0.00000E+00
 -1       742-4.40318E-05 1.26972E-04-3.30872E-24
 -1       743-4.58708E-05 1.31526E-04 0.00000E+00
 -1       744-4.46498E-05 1.27932E-04 3.30872E-24
 -1       745-4.04105E-05 1.16105E-04 0.00000E+00
 -1       746-3.38849E-05 9.79123E-05 0.00000E+00
 -1       747-2.57865E-05 7.52620E-05 0.00000E+00
 -1       748-1.71734E-05 5.11437E-05 0.00000E+00
 -1       749-9.09590E-06 2.85573E-05 1.65436E-24
 -1       750-2.48779E-06 1.01296E-05 0.00000E+00
 -1       751 5.61145E-06-9.40799E-07 3.30872E-24
 -1       752 5.99632E-06-5.48649E-07-3.30872E-24
 -1       753 6.37977E-06-3.82571E-07-1.32349E-23
 -1       754 6.76763E-06-3.04212E-07 0.00000E+00
 -1       755 7.15561E-06-2.79626E-07-1.32349E-23
 -1       756 7.54447E-06-2.75811E-07-6.61744E-24
 -1       757 7.93343E-06-2.84639E-07 1.32349E-23
 -1       758 8.32255E-06-2.98200E-07 0.00000E+00
 -1       759 8.71167E-06-3.14261E-07 1.32349E-23
 -1       760 9.10071E-06-3.30629E-07 0.00000E+00
 -1       761 9.48968E-06-3.45485E-07 0.00000E+00
 -1       762 9.87804E-06-3.56981E-07 6.61744E-24
 -1       763 1.02663E-05-3.59245E-07 0.00000E+00
 -1       764 1.06515E-05-3.46242E-07 0.00000E+00
 -1       765 1.10377E-05-2.93731E-07-6.61744E-24
 -1       766 3.48762E-06-1.67766E-06 1.65436E-24
 -1       767 1.34590E-07-1.64914E-06-4.13590E-25
 -1       768-3.28823E-06-1.62142E-06-1.29247E-26
 -1       769-5.26004E-06-1.58878E-06-1.03398E-25
 -1       770-4.14465E-06-1.55551E-06 0.00000E+00
 -1       771 4.68678E-06-9.58862E-07 0.00000E+00
 -1       772 4.17589E-06-3.64680E-07 0.00000E+00
 -1       773 3.71503E-06 9.45062E-08 1.32349E-23
 -1       774 3.29940E-06 4.32290E-07 0.00000E+00
 -1       775 2.92411E-06 6.62284E-07 0.00000E+00
 -1       776 2.58409E-06 7.98160E-07 0.00000E+00
 -1       777 2.27423E-06 8.53606E-07 0.00000E+00
 -1       778 1.98939E-06 8.42330E-07-3.30872E-24
 -1       779 1.72444E-06 7.78053E-07-6.61744E-24
 -1       780 1.47422E-06 6.74513E-07 0.00000E+00
 -1       781 1.23359E-06 5.45454E-07 6.61744E-24
 -1       782 9.97441E-07 4.04639E-07-3.30872E-24
 -1       783 7.60654E-07 2.65831E-07 0.00000E+00
 -1       784 5.18326E-07 1.42835E-07 0.00000E+00
 -1       785 2.65575E-07 4.94562E-08-6.61744E-24
 -1       786 1.14384E-05-4.44653E-08 2.06795E-25
 -1       787 1.14711E-05 5.81004E-08 0.00000E+00
 -1       788 1.15037E-05 1.35501E-07 0.00000E+00
 -1       789 1.15367E-05 1.92325E-07 0.00000E+00
 -1       790 1.15697E-05 2.33151E-07 0.00000E+00
 -1       791 1.16027E-05 2.62556E-07-4.13590E-25
 -1       792 1.16358E-05 2.85113E-07-8.27181E-25
 -1       793 1.16689E-05 3.05394E-07 4.13590E-25
 -1       794 1.17020E-05 3.27969E-07-8.27181E-25
 -1       795 1.17350E-05 3.57411E-07 0.00000E+00
 -1       796 1.17681E-05 3.98292E-07 8.27181E-25
 -1       797 1.18012E-05 4.55188E-07 0.00000E+00
 -1       798 1.18342E-05 5.32681E-07-8.27181E-25
 -1       799 1.18671E-05 6.35353E-07 0.00000E+00
 -1       800 1.19000E-05 7.67803E-07 8.27181E-25
 -1       801 1.04025E-05-1.45318E-07 0.00000E+00
 -1       802 8.30709E-06-1.13531E-07-4.13590E-25
 -1       803 5.66976E-06-8.30531E-08 0.00000E+00
 -1       804 3.04001E-06-5.36225E-08-1.65436E-24
 -1       805 9.67309E-07-2.29707E-08 0.00000E+00
 -1       806 1.13186E-05-5.83560E-08 0.00000E+00
 -1       807 1.12332E-05 4.68804E-08 0.00000E+00
 -1       808 1.11513E-05 1.41434E-07 0.00000E+00
 -1       809 1.10725E-05 2.27641E-07 2.48154E-24
 -1       810 1.09958E-05 3.07823E-07 0.00000E+00
 -1       811 1.09205E-05 3.84289E-07 0.00000E+00
 -1       812 1.08458E-05 4.59344E-07-1.65436E-24
 -1       813 1.07707E-05 5.35291E-07-4.13590E-25
 -1       814 1.06944E-05 6.14434E-07-8.27181E-25
 -1       815 1.06160E-05 6.99074E-07 8.27181E-25
 -1       816 1.05347E-05 7.91514E-07 1.65436E-24
 -1       817 1.04497E-05 8.94059E-07 8.27181E-25
 -1       818 1.03600E-05 1.00901E-06 8.27181E-25
 -1       819 1.02649E-05 1.13867E-06 0.00000E+00
 -1       820 1.01637E-05 1.28536E-06 0.00000E+00
 -1       821 1.18985E-05 1.14838E-06 2.06795E-25
 -1       822 1.18628E-05 1.41087E-06 0.00000E+00
 -1       823 1.18271E-05 1.71694E-06-8.27181E-25
 -1       824 1.17911E-05 2.06145E-06-4.13590E-25
 -1       825 1.17551E-05 2.43923E-06 0.00000E+00
 -1       826 1.17190E-05 2.84509E-06-4.13590E-25
 -1       827 1.16828E-05 3.27386E-06 0.00000E+00
 -1       828 1.16466E-05 3.72034E-06-4.13590E-25
 -1       829 1.16105E-05 4.17933E-06 8.27181E-25
 -1       830 1.15743E-05 4.64563E-06 0.00000E+00
 -1       831 1.15381E-05 5.11405E-06 0.00000E+00
 -1       832 1.15020E-05 5.57937E-06 0.00000E+00
 -1       833 1.14659E-05 6.03640E-06 8.27181E-25
 -1       834 1.14301E-05 6.47994E-06 4.13590E-25
 -1       835 1.13943E-05 6.90478E-06 0.00000E+00
 -1       836 1.16867E-05 1.01916E-06-1.65436E-24
 -1       837 1.13653E-05 1.10671E-06 0.00000E+00
 -1       838 1.10048E-05 1.19410E-06-1.65436E-24
 -1       839 1.06419E-05 1.28127E-06 0.00000E+00
 -1       840 1.03135E-05 1.36857E-06 0.00000E+00
 -1       841 1.18522E-05 1.14804E-06 0.00000E+00
 -1       842 1.17517E-05 1.41480E-06 0.00000E+00
 -1       843 1.16334E-05 1.72891E-06 2.58494E-26
 -1       844 1.14995E-05 2.08416E-06-3.23117E-27
 -1       845 1.13526E-05 2.47435E-06 6.46235E-27
 -1       846 1.11948E-05 2.89325E-06 0.00000E+00
 -1       847 1.10286E-05 3.33458E-06 1.29247E-26
 -1       848 1.08564E-05 3.79209E-06 0.00000E+00
 -1       849 1.06804E-05 4.25949E-06 0.00000E+00
 -1       850 1.05031E-05 4.73047E-06 0.00000E+00
 -1       851 1.03267E-05 5.19877E-06 0.00000E+00
 -1       852 1.01538E-05 5.65807E-06-2.58494E-26
 -1       853 9.98652E-06 6.10209E-06 0.00000E+00
 -1       854 9.82720E-06 6.52451E-06 1.03398E-25
 -1       855 9.67837E-06 6.91915E-06 0.00000E+00
 -1       856 1.13194E-05 7.73704E-06-4.13590E-25
 -1       857 1.12767E-05 8.24704E-06 4.13590E-25
 -1       858 1.12339E-05 8.82547E-06 0.00000E+00
 -1       859 1.11907E-05 9.46196E-06 4.13590E-25
 -1       860 1.11475E-05 1.01461E-05 0.00000E+00
 -1       861 1.11043E-05 1.08676E-05 0.00000E+00
 -1       862 1.10609E-05 1.16158E-05 0.00000E+00
 -1       863 1.10176E-05 1.23806E-05-8.27181E-25
 -1       864 1.09743E-05 1.31513E-05 0.00000E+00
 -1       865 1.09309E-05 1.39175E-05 8.27181E-25
 -1       866 1.08876E-05 1.46689E-05 0.00000E+00
 -1       867 1.08443E-05 1.53950E-05 0.00000E+00
 -1       868 1.08011E-05 1.60854E-05 0.00000E+00
 -1       869 1.07581E-05 1.67297E-05-4.13590E-25
 -1       870 1.07151E-05 1.73174E-05 0.00000E+00
 -1       871 1.10219E-05 7.30202E-06 0.00000E+00
 -1       872 1.07116E-05 7.29790E-06-2.06795E-25
 -1       873 1.04189E-05 7.29368E-06 0.00000E+00
 -1       874 1.01333E-05 7.28932E-06 0.00000E+00
 -1       875 9.84431E-06 7.28477E-06-2.06795E-25
 -1       876 1.12589E-05 7.75153E-06 8.27181E-25
 -1       877 1.11349E-05 8.26512E-06 8.27181E-25
 -1       878 1.09890E-05 8.83703E-06 0.00000E+00
 -1       879 1.08247E-05 9.45883E-06 0.00000E+00
 -1       880 1.06450E-05 1.01218E-05 1.65436E-24
 -1       881 1.04530E-05 1.08175E-05-8.27181E-25
 -1       882 1.02520E-05 1.15374E-05-1.65436E-24
 -1       883 1.00452E-05 1.22729E-05 0.00000E+00
 -1       884 9.83558E-06 1.30156E-05 1.65436E-24
 -1       885 9.62651E-06 1.37569E-05 0.00000E+00
 -1       886 9.42110E-06 1.44884E-05 0.00000E+00
 -1       887 9.22252E-06 1.52015E-05 0.00000E+00
 -1       888 9.03395E-06 1.58878E-05 0.00000E+00
 -1       889 8.85825E-06 1.65386E-05 8.27181E-25
 -1       890 8.69909E-06 1.71456E-05 0.00000E+00
 -1       891 1.02572E-05 1.78153E-05 0.00000E+00
 -1       892 9.92364E-06 1.77919E-05 0.00000E+00
 -1       893 9.62977E-06 1.77685E-05 0.00000E+00
 -1       894 9.33262E-06 1.77451E-05-2.06795E-25
 -1       895 8.98922E-06 1.77218E-05 0.00000E+00
 -1       896 1.02748E-07 6.29994E-07 0.00000E+00
 -1       897 2.06297E-07 1.13270E-06 0.00000E+00
 -1       898 3.09843E-07 1.53840E-06 3.30872E-24
 -1       899 4.13551E-07 1.87689E-06 0.00000E+00
 -1       900 5.17279E-07 2.16137E-06 3.30872E-24
 -1       901 6.21044E-07 2.40474E-06 0.00000E+00
 -1       902 7.24819E-07 2.60977E-06-3.30872E-24
 -1       903 8.28599E-07 2.77902E-06 1.65436E-24
 -1       904 9.32380E-07 2.90619E-06-3.30872E-24
 -1       905 1.03614E-06 2.98481E-06 0.00000E+00
 -1       906 1.13988E-06 2.99636E-06 0.00000E+00
 -1       907 1.24347E-06 2.92201E-06 0.00000E+00
 -1       908 1.34703E-06 2.72168E-06-3.30872E-24
 -1       909 1.44982E-06 2.35467E-06 1.65436E-24
 -1       910 1.55274E-06 1.73912E-06 1.65436E-24
 -1       911 1.65861E-06 2.00000E-07 0.00000E+00
 -1       912 1.66555E-06 6.47330E-07 0.00000E+00
 -1       913 1.67185E-06 1.91876E-06 0.00000E+00
 -1       914 1.67720E-06 3.79934E-06 1.03398E-25
 -1       915 1.68176E-06 6.08369E-06 2.06795E-25
 -1       916 1.68586E-06 8.56652E-06-1.03398E-25
 -1       917 1.68997E-06 1.10456E-05-2.06795E-25
 -1       918 1.69454E-06 1.33188E-05 1.03398E-25
 -1       919 1.69991E-06 1.51807E-05 0.00000E+00
 -1       920 1.70619E-06 1.64258E-05-1.03398E-25
 -1       921 1.71308E-06 1.68388E-05 0.00000E+00
 -1       922 1.71981E-06 1.62044E-05-5.16988E-26
 -1       923 1.72490E-06 1.42908E-05 5.16988E-26
 -1       924 1.72578E-06 1.08658E-05 5.16988E-26
 -1       925 1.71939E-06 5.67402E-06 4.13590E-25
 -1       926 1.57781E-06-9.90977E-06-1.65436E-24
 -1       927 1.45227E-06-1.85406E-05 0.00000E+00
 -1       928 1.33076E-06-2.66776E-05 3.30872E-24
 -1       929 1.21786E-06-3.35672E-05-1.65436E-24
 -1       930 1.11497E-06-3.86889E-05 0.00000E+00
 -1       931 1.02073E-06-4.15291E-05 0.00000E+00
 -1       932 9.30213E-07-4.20000E-05 3.30872E-24
 -1       933 8.37892E-07-4.00233E-05 0.00000E+00
 -1       934 7.39730E-07-3.59773E-05 0.00000E+00
 -1       935 6.33617E-07-3.02483E-05 0.00000E+00
 -1       936 5.21752E-07-2.35372E-05 0.00000E+00
 -1       937 4.07918E-07-1.65488E-05 0.00000E+00
 -1       938 2.97098E-07-1.00393E-05-3.30872E-24
 -1       939 1.92569E-07-4.76339E-06 1.65436E-24
 -1       940 9.55346E-08-1.24475E-06 0.00000E+00
 -1       941 5.96036E-07 9.87049E-08-6.61744E-24
 -1       942 1.22498E-06 1.86315E-07-6.61744E-24
 -1       943 1.85184E-06 2.67694E-07 0.00000E+00
 -1       944 2.48496E-06 3.47524E-07 0.00000E+00
 -1       945 3.11826E-06 4.26485E-07 1.32349E-23
 -1       946 3.75281E-06 5.05234E-07 0.00000E+00
 -1       947 4.38750E-06 5.83873E-07 0.00000E+00
 -1       948 5.02241E-06 6.62502E-07 0.00000E+00
 -1       949 5.65733E-06 7.41193E-07 0.00000E+00
 -1       950 6.29210E-06 8.20021E-07 0.00000E+00
 -1       951 6.92676E-06 8.99417E-07-1.32349E-23
 -1       952 7.56042E-06 9.79828E-07 6.61744E-24
 -1       953 8.19394E-06 1.06435E-06 0.00000E+00
 -1       954 8.82241E-06 1.15620E-06-6.61744E-24
 -1       955 9.45258E-06 1.27754E-06 0.00000E+00
 -1       956 1.00247E-05 1.68190E-06 6.20385E-25
 -1       957 9.99268E-06 1.94777E-06 3.10193E-25
 -1       958 9.96050E-06 2.24548E-06 0.00000E+00
 -1       959 9.92825E-06 2.57123E-06 0.00000E+00
 -1       960 9.89597E-06 2.92125E-06 8.27181E-25
 -1       961 9.86367E-06 3.29170E-06-2.06795E-25
 -1       962 9.83137E-06 3.67876E-06 0.00000E+00
 -1       963 9.79906E-06 4.07862E-06 4.13590E-25
 -1       964 9.76674E-06 4.48744E-06-8.27181E-25
 -1       965 9.73442E-06 4.90141E-06 0.00000E+00
 -1       966 9.70211E-06 5.31670E-06-8.27181E-25
 -1       967 9.66981E-06 5.72948E-06 0.00000E+00
 -1       968 9.63752E-06 6.13593E-06 1.65436E-24
 -1       969 9.60529E-06 6.53225E-06 0.00000E+00
 -1       970 9.57315E-06 6.91463E-06 8.27181E-25
 -1       971 9.48156E-06 7.67098E-06 1.65436E-24
 -1       972 9.42002E-06 8.14650E-06-8.27181E-25
 -1       973 9.35846E-06 8.69553E-06-1.65436E-24
 -1       974 9.29662E-06 9.30751E-06 8.27181E-25
 -1       975 9.23471E-06 9.97187E-06 1.65436E-24
 -1       976 9.17273E-06 1.06780E-05-8.27181E-25
 -1       977 9.11072E-06 1.14153E-05 0.00000E+00
 -1       978 9.04868E-06 1.21732E-05 0.00000E+00
 -1       979 8.98664E-06 1.29410E-05 0.00000E+00
 -1       980 8.92461E-06 1.37080E-05-8.27181E-25
 -1       981 8.86261E-06 1.44636E-05-1.65436E-24
 -1       982 8.80068E-06 1.51972E-05 8.27181E-25
 -1       983 8.73883E-06 1.58982E-05-1.65436E-24
 -1       984 8.67735E-06 1.65558E-05-8.27181E-25
 -1       985 8.61587E-06 1.71596E-05 0.00000E+00
 -3
    1PSTEP                        28          14           1          
  100CL  114 2.39365E-01         841                     0   14           1
 -4  STRESS      6    1
 -5  SXX         1    4    1    1
 -5  SYY         1    4    2    2
 -5  SZZ         1    4    3    3
 -5  SXY         1    4    1    2
 -5  SYZ         1    4    2    3
 -5  SZX         1    4    3    1
 -1         1-9.99952E+05-3.23435E+05-2.06606E+05-2.88123E+05-2.25555E-10-2.76486E-09
 -1         2-6.17761E+05-3.74141E+04 9.68613E+02-5.95277E+04-8.88690E-10-1.83854E-09
 -1         3-3.31878E+05-1.09888E+05-1.69849E+04-1.94874E+04 5.27137E-10-1.09674E-09
 -1         4-2.06650E+05-3.06309E+04 3.23988E+02-2.40126E+04 1.88393E-10-2.13447E-10
 -1         5-1.11360E+05 3.62587E+04-4.78292E+04-2.22341E+03 3.82806E-09 8.05898E-10
 -1         8-5.30976E+05-2.11203E+05-7.88667E+04-1.93259E+05-1.43700E-10 1.13323E-09
 -1         9-5.54016E+05-1.28818E+05-6.60683E+04-1.27550E+05-9.36780E-11-1.06472E-09
 -1        10-2.18488E+05-1.31842E+05-1.68058E+03-5.04317E+04-1.58692E-09-9.57092E-10
 -1        11-1.54560E+05-3.86731E+04 1.58048E+03-4.07497E+04-8.33093E-09 1.02553E-09
 -1        12-1.24432E+05 2.68473E+04-5.19589E+04-1.68363E+04 1.66531E-09 1.47157E-09
 -1        15 3.95071E+03-1.75515E+04 1.75501E+03-3.48267E+04-3.66526E-10 2.25191E-09
 -1        16-3.28043E+05-4.14976E+04 2.08843E+04-1.43981E+05 4.73544E-10 2.79253E-09
 -1        17-1.96377E+05-1.26880E+05-2.11228E+04-1.06308E+05-1.37303E-09 1.98876E-10
 -1        18-3.58632E+04-2.57137E+04-1.95665E+04-3.97043E+04 2.65125E-09-4.86428E-10
 -1        19-1.06488E+04 2.70083E+04-1.60854E+04-1.14964E+04-3.72514E-10-2.12519E-10
 -1        20 3.18639E+04-2.40752E+04-4.15288E+03 1.73484E+04 1.39596E-09-8.23775E-10
 -1        21 5.09850E+02-4.78206E+04 1.32797E+04 9.04592E+00 4.63660E-09-6.30771E-10
 -1        22 1.10115E+04 5.73226E+04 4.79266E+02-1.73115E+04-3.10365E-10 1.73713E-10
 -1        23-7.80956E+04 3.54104E+04 3.82101E+03-2.89471E+04-2.12284E-09-1.43230E-09
 -1        24-8.94346E+04-3.85931E+03 8.52265E+04-1.55822E+05-5.16108E-09 1.02591E-09
 -1        25 1.88302E+05 6.17148E+04 5.74467E+04-9.50399E+04 3.82367E-10-4.95675E-10
 -1        26 7.93585E+02 5.06236E+04 2.54200E+03-8.98853E+03-1.97891E-10-5.50737E-10
 -1        27-1.09659E+04-2.01041E+04-8.66123E+03 2.43460E+04-3.00664E-10-1.20538E-09
 -1        28-3.82933E+03-3.80032E+04-2.08023E+02 1.83456E+04-1.07269E-09-9.52954E-10
 -1        29 1.43174E+05 1.04206E+05 4.55432E+02-9.18567E+02 1.12093E-10 2.69893E-10
 -1        30 1.68771E+04 1.53529E+04 6.47582E+02-1.50653E+04-5.05282E-10-7.10997E-10
 -1        31-9.71983E+04 1.28791E+04 4.74757E+03-2.96568E+04 2.61932E-09-1.12341E-08
 -1        32 3.00566E+05 1.57039E+05 1.94896E+05-1.55798E+05 3.04925E-09 1.04046E-09
 -1        33 4.43943E+05 1.76086E+05 1.35752E+05-1.35237E+04-9.23577E-09-1.10344E-09
 -1        34-6.41480E+04-7.97267E+03-1.36569E+03 1.42121E+04-9.55875E-11 6.82576E-10
 -1        35-1.08705E+04-1.27166E+04-2.26087E+02 2.74904E+04 1.74083E-12-8.02781E-10
 -1        36-1.32213E+06 4.01110E+04-9.26990E+04-1.05723E-07-3.14889E-10-3.14321E-09
 -1        37-1.36227E+06-4.64311E+04-6.56050E+04 3.08758E-08-1.56557E-10 1.68257E-10
 -1        38-1.33763E+06 6.28732E+03-2.39898E+04 1.67945E-07-7.38416E-10-5.37511E-10
 -1        39-1.34419E+06-7.27577E+03-1.50869E+04-7.49085E-08-1.20073E-09-1.21372E-09
 -1        40-1.34018E+06 9.83416E+02-6.16302E+03-8.04733E-08-3.82735E-09 8.07404E-10
 -1        41-1.34121E+06-1.15125E+03-3.67519E+03-1.25461E-07-1.61339E-09 1.58371E-09
 -1        42-1.34060E+06 1.67165E+02-1.78743E+03 5.09984E-08-1.43318E-09 2.82114E-10
 -1        43-1.34076E+06-2.89297E+02-1.39871E+03 1.60602E-07-1.88930E-09-1.85299E-10
 -1        44-1.34062E+06 1.22012E+02-1.38333E+03-5.38005E-08-2.27866E-09 8.51003E-10
 -1        45-1.34100E+06-7.63015E+02-2.50518E+03-1.30555E-07-2.91794E-10 9.96380E-10
 -1        46-1.34036E+06 6.40565E+02-4.05722E+03 7.04010E-08 3.84133E-10 2.14277E-09
 -1        47-1.34293E+06-4.72648E+03-9.82494E+03 1.30315E-07-4.35544E-10 8.22752E-10
 -1        48-1.33870E+06 4.08262E+03-1.55909E+04 6.92678E-08 9.56415E-11 1.26420E-10
 -1        49-1.35467E+06-3.01484E+04-4.26046E+04-1.33802E-07 6.25334E-10 6.92125E-10
 -1        50-1.32865E+06 2.60433E+04-6.02010E+04 4.67873E-08-1.28683E-09 8.98581E-10
 -1        51 1.11326E+04-1.33617E+05 1.76788E+04-3.49303E+05 8.73115E-11 7.30870E-09
 -1        52 4.56954E+03-1.31322E+05 1.06417E+04-3.84486E+05-6.36646E-11 1.96233E-08
 -1        53 2.60402E+03-1.33923E+05 8.58095E+03-3.48418E+05-1.05501E-10 9.40418E-09
 -1        54 6.38762E+03-1.31958E+05 1.30272E+04-3.85458E+05-1.09139E-10 5.91172E-10
 -1        55 1.61371E+04-1.35872E+05 2.36724E+04-3.48289E+05 1.81899E-11 2.32285E-09
 -1        56-1.54210E+06-1.74194E+05-1.27109E+05-5.96673E+05-5.20231E-10-1.65892E-09
 -1        57-1.60174E+06-2.77662E+05-8.52536E+04-5.81854E+05 9.86802E-11-2.52385E-09
 -1        58-1.56668E+06-2.14379E+05-2.99477E+04-5.89876E+05-4.99313E-10-3.41606E-09
 -1        59-1.57342E+06-2.30308E+05-1.77542E+04-5.90020E+05-2.59320E-10-1.81217E-09
 -1        60-1.57014E+06-2.19956E+05-7.00544E+03-5.89080E+05-2.71257E-10-8.76526E-10
 -1        61-1.56952E+06-2.23678E+05-3.96509E+03-5.90861E+05 1.77153E-10 2.97860E-10
 -1        62-1.57054E+06-2.20810E+05-1.93446E+03-5.89102E+05 8.01265E-10 2.49418E-09
 -1        63-1.56926E+06-2.22651E+05-1.62030E+03-5.90675E+05 1.66665E-10-3.81327E-10
 -1        64-1.57039E+06-2.20962E+05-1.88527E+03-5.89272E+05-4.51593E-10 1.40909E-09
 -1        65-1.57008E+06-2.23049E+05-3.81963E+03-5.90191E+05 8.80540E-11 3.57295E-09
 -1        66-1.56972E+06-2.20432E+05-6.73002E+03-5.89579E+05-1.38812E-10 8.50378E-10
 -1        67-1.57436E+06-2.28866E+05-1.70417E+04-5.88759E+05-2.99508E-10 2.04022E-09
 -1        68-1.56615E+06-2.15338E+05-2.87436E+04-5.90638E+05-3.30147E-10 1.65346E-09
 -1        69-1.60201E+06-2.73844E+05-8.18187E+04-5.80386E+05 1.49157E-10 8.07631E-10
 -1        70-1.54235E+06-1.76982E+05-1.21992E+05-5.97401E+05-8.16726E-10-2.11003E-10
 -1        71-6.24308E+05-1.39628E+03 3.22814E+03-1.87180E-08-1.04031E-09-2.18370E-09
 -1        72-6.22851E+05 1.61630E+03 2.28155E+03-1.09248E-07 3.56025E-10-4.22460E-10
 -1        73-6.23769E+05-2.18747E+02 8.29266E+02-1.68522E-07-9.83006E-10-4.65207E-10
 -1        74-6.23481E+05 2.52197E+02 5.11720E+02 1.84780E-07-3.21152E-10 2.01344E-09
 -1        75-6.23679E+05-3.32692E+01 1.88144E+02-1.82527E-08-3.46843E-10-1.18698E-09
 -1        76-6.23589E+05 3.26634E+01 7.10862E+01-3.01833E-07-5.26379E-10 2.16571E-09
 -1        77-6.23661E+05 6.29129E-01-4.44992E+01-5.68051E-08 2.85603E-10 1.11529E-09
 -1        78-6.23629E+05-3.84968E+01-1.86391E+02 7.23358E-08-1.73485E-11 5.39288E-10
 -1        79-6.23639E+05 3.78516E+01-3.78045E+02 6.02526E-08-1.50803E-11-1.28057E-09
 -1        80-6.23761E+05-2.87394E+02-8.94378E+02 1.03879E-07-5.14183E-10 2.22003E-09
 -1        81-6.23529E+05 2.49368E+02-1.54953E+03-7.93311E-09-7.20008E-10-7.10315E-10
 -1        82-6.24523E+05-1.84928E+03-3.82883E+03 3.14346E-09 8.11345E-10 5.27734E-10
 -1        83-6.22879E+05 1.59861E+03-6.09963E+03 1.97816E-08 2.61548E-10 5.98675E-10
 -1        84-6.29119E+05-1.18061E+04-1.66849E+04-6.09091E-08-5.01303E-10 1.75692E-09
 -1        85-6.18938E+05 1.01984E+04-2.35829E+04-9.25044E-08-7.29275E-10 1.40153E-09
 -1        86-2.94772E+04 8.78094E+04 6.92834E+04 4.05910E+02 3.63798E-12-1.63088E-09
 -1        87 3.67668E+04 1.18839E+05 5.36841E+04-1.70347E+03-1.63709E-10 1.13412E-11
 -1        88-7.25874E+03 9.79864E+04 2.73822E+04 2.87014E+02-3.52429E-10 1.06208E-10
 -1        89 2.52476E+04 1.13463E+05 3.86681E+04-1.57504E+03-9.59517E-11 2.04111E-09
 -1        90-1.79674E+04 9.31802E+04 4.34661E+04 2.77495E+02-4.31100E-10 1.01820E-09
 -1        91-6.67525E+05-9.33538E+04-9.08749E+03-2.55544E+05 2.29716E-09 8.29004E-10
 -1        92-6.79430E+05-9.11872E+04-5.82974E+03-2.42022E+05 5.30019E-09 1.17979E-09
 -1        93-6.67050E+05-9.74011E+04-2.08527E+03-2.56015E+05 7.99332E-10 1.95882E-10
 -1        94-6.74308E+05-8.95304E+04-8.14610E+02-2.44798E+05-2.26552E-09-1.53682E-09
 -1        95-6.72625E+05-9.50336E+04-9.73990E+02-2.52748E+05-6.57963E-11-1.83169E-09
 -1        96-6.65905E+05-9.63083E+04 2.97549E+02-2.53262E+05 5.34639E-09-3.83857E-10
 -1        97-6.75435E+05-9.06326E+04-3.62758E+02-2.47539E+05-7.69461E-10-1.35603E-09
 -1        98-6.63134E+05-1.01076E+05-7.53436E+01-2.58951E+05-2.44873E-09 1.17039E-09
 -1        99-6.75424E+05-9.02150E+04-5.49645E+02-2.47093E+05 2.82722E-09 1.52247E-09
 -1       100-6.65449E+05-9.75630E+04-5.54725E+02-2.54309E+05 3.46057E-09 2.47871E-09
 -1       101-6.73097E+05-9.41916E+04-2.41687E+03-2.52152E+05 2.89873E-10 8.69591E-10
 -1       102-6.74504E+05-9.23196E+04-4.64314E+03-2.45234E+05-8.65725E-11 1.53670E-09
 -1       103-6.66378E+05-9.54616E+04-8.36488E+03-2.56171E+05-1.48100E-09-1.01727E-09
 -1       104-6.87277E+05-1.04184E+05-2.43481E+04-2.39374E+05 3.06841E-10-1.33355E-09
 -1       105-6.60361E+05-8.23034E+04-3.56590E+04-2.58038E+05 5.54792E-11 2.11003E-09
 -1       106-4.41373E+05 3.28535E+03-7.59892E+03-4.85052E-08-7.04536E-10 1.29603E-10
 -1       107-4.44631E+05-3.80343E+03-5.37775E+03-8.18046E-08 7.33253E-10 8.46399E-10
 -1       108-4.42642E+05 5.15086E+02-1.97017E+03-2.33400E-08 3.92978E-10-2.24759E-10
 -1       109-4.43151E+05-5.96565E+02-1.24396E+03 5.97497E-08 1.56783E-10-9.63837E-10
 -1       110-4.42851E+05 8.10539E+01-5.19100E+02-1.52927E-08-2.75231E-10-7.96234E-10
 -1       111-4.42909E+05-9.80940E+01-3.30553E+02 4.00579E-08-4.59627E-10 2.20392E-09
 -1       112-4.42884E+05 1.69839E+01-2.01199E+02-1.36275E-09-3.05532E-10 7.41640E-10
 -1       113-4.42885E+05-4.84753E+01-2.34785E+02 1.30442E-07 8.40430E-11-3.86990E-10
 -1       114-4.42876E+05 3.14713E+01-3.31054E+02 1.44347E-07-2.75204E-10-9.26377E-10
 -1       115-4.42976E+05-2.22659E+02-7.06401E+02-1.11801E-07-1.11733E-10-7.44862E-10
 -1       116-4.42793E+05 1.91055E+02-1.19556E+03 4.79989E-08-6.05774E-10-7.89385E-10
 -1       117-4.43557E+05-1.41446E+03-2.93355E+03-1.63510E-08-8.86892E-10-1.71377E-09
 -1       118-4.42296E+05 1.22239E+03-4.66726E+03 6.60732E-08-2.69371E-10-8.02629E-10
 -1       119-4.47071E+05-9.02736E+03-1.27599E+04 6.11513E-08 2.84700E-10-2.19188E-10
 -1       120-4.39282E+05 7.79802E+03-1.80338E+04 7.96929E-08 3.99588E-10 7.18501E-10
 -1       121-4.78642E+02-3.33360E+05 2.24393E+03 4.84485E+03-9.47011E-11-3.36217E-09
 -1       122 6.87252E+02-3.32515E+05 1.51209E+03 1.73284E+04-2.20041E-10-4.35534E-09
 -1       123-7.18689E+01-3.33040E+05 7.73970E+02 4.87157E+03-3.42709E-10-6.01790E-09
 -1       124 3.04833E+02-3.32717E+05 8.32807E+02 1.72242E+04-8.34348E-10-5.97265E-09
 -1       125-2.02258E+02-3.33123E+05 9.42955E+02 4.94911E+03-9.26320E-10-1.38198E-09
 -1       126-2.77637E+05-4.39416E+04 2.10727E+03-1.06306E+05 6.64078E-09-1.87583E-10
 -1       127-2.66780E+05-2.63480E+04 5.19302E+03-8.98851E+04 1.27163E-08 8.20705E-10
 -1       128-2.67111E+05-4.37198E+04 5.81423E+02-1.07985E+05 5.14589E-09-1.49595E-09
 -1       129-2.79318E+05-2.65803E+04 9.82666E+02-8.82412E+04 1.04508E-08-9.82830E-10
 -1       130-2.65235E+05-4.35710E+04 1.55945E+02-1.08073E+05 1.34461E-08-1.99172E-10
 -1       131-2.72612E+05-2.80306E+04 1.60604E+03-8.87187E+04-2.30916E-08-1.21255E-09
 -1       132-2.73773E+05-4.23970E+04-1.44698E+03-1.07431E+05-1.09920E-08 1.64601E-09
 -1       133-2.57102E+05-3.29089E+04 3.54246E+03-9.29901E+04 1.82077E-08 1.00127E-09
 -1       134-2.80555E+05-3.88206E+04-2.18759E+03-1.03663E+05 2.78226E-09 4.36927E-10
 -1       135-2.52240E+05-4.12662E+04 2.65231E+03-1.02871E+05 2.37873E-09-2.10110E-09
 -1       136-2.78644E+05-3.39514E+04-1.30591E+03-9.75956E+04-7.61611E-09-1.16387E-10
 -1       137-2.57246E+05-4.85909E+04-5.97246E+02-1.11904E+05-9.19567E-09-1.79018E-09
 -1       138-2.75767E+05-3.13692E+04-2.03596E+03-9.47772E+04 1.15776E-08 2.16698E-09
 -1       139-2.58804E+05-5.15119E+04-5.23458E+03-1.10795E+05-1.27935E-08-1.15278E-08
 -1       140-2.77118E+05-3.10867E+04-1.00600E+04-9.86939E+04-8.62724E-09-3.83807E-10
 -1       141-2.11320E+05-1.07459E+03 2.48397E+03 9.15216E-08 3.30345E-10-3.54930E-10
 -1       142-2.10222E+05 1.24384E+03 1.75433E+03 4.13782E-08-6.77119E-11 1.30422E-09
 -1       143-2.10904E+05-1.68270E+02 6.34617E+02-3.40060E-08-6.57350E-11 5.70395E-10
 -1       144-2.10708E+05 1.93451E+02 3.85854E+02-6.05221E-08-3.19557E-10 1.23514E-09
 -1       145-2.10835E+05-2.50397E+01 1.29307E+02 7.23785E-08-3.02130E-11-3.45587E-10
 -1       146-2.10793E+05 2.08104E+01 2.14324E+01-2.96618E-08-4.03307E-12-2.29954E-09
 -1       147-2.10818E+05 4.24660E+00-9.66734E+01-7.05998E-08 2.61322E-10-1.18756E-09
 -1       148-2.10839E+05-5.79646E+01-2.80871E+02-1.06335E-07 3.80975E-11 6.56875E-10
 -1       149-2.10790E+05 5.36936E+01-5.40064E+02-1.28085E-07 8.36368E-11-1.27358E-10
 -1       150-2.11022E+05-4.04350E+02-1.26179E+03 6.65039E-08-2.92714E-10-1.30294E-09
 -1       151-2.10635E+05 3.50416E+02-2.18025E+03-3.38028E-08-1.83180E-10-1.01591E-09
 -1       152-2.12091E+05-2.59810E+03-5.38210E+03 1.04797E-08-2.93221E-10-3.81078E-10
 -1       153-2.09721E+05 2.24585E+03-8.57267E+03 2.94711E-08 1.00233E-09-7.59428E-11
 -1       154-2.18547E+05-1.65861E+04-2.34440E+04 1.95518E-08 5.44002E-10 4.62023E-10
 -1       155-2.04180E+05 1.43275E+04-3.31332E+04 7.97570E-08 2.33263E-09 1.25146E-09
 -1       156-7.26532E+03-5.75613E+04 1.68734E+04 3.94592E+03 1.29603E-09-4.82629E-10
 -1       157 9.18343E+03-4.80092E+04 1.37829E+04-1.58724E+04 3.51156E-09-6.06150E-10
 -1       158-1.88447E+03-5.48609E+04 7.43544E+03 3.96770E+03 1.73850E-09-5.05594E-10
 -1       159 8.15310E+03-4.43619E+04 1.28585E+04-1.53959E+04 6.85304E-10-5.57193E-10
 -1       160-6.31219E+03-6.11037E+04 1.28210E+04 3.46962E+03-2.69301E-09-2.56023E-10
 -1       161-2.14733E+05-2.99646E+04-5.12428E+02-8.05704E+04-9.03391E-10 1.01488E-09
 -1       162-2.14852E+05-3.05625E+04-3.57191E+02-8.06232E+04-2.27953E-08 1.05071E-08
 -1       163-2.14856E+05-3.01287E+04-1.24808E+02-8.05131E+04-8.19529E-06 3.07300E-06
 -1       164-2.14717E+05-3.03656E+04-8.60870E+01-8.06802E+04-1.63459E-05 6.13006E-06
 -1       165-2.14867E+05-3.01613E+04-4.99539E+01-8.05135E+04-8.19464E-06 3.07190E-06
 -1       166-2.14733E+05-3.03103E+04-6.71057E+01-8.06503E+04-2.38071E-08 7.18685E-09
 -1       167-2.14840E+05-3.01840E+04-1.03772E+02-8.05429E+04-4.77038E-10 7.84841E-10
 -1       168-2.14826E+05-3.02989E+04-2.36263E+02-8.05732E+04-4.95778E-10 1.42706E-09
 -1       169-2.14774E+05-3.01728E+04-4.26988E+02-8.05906E+04-3.91751E-10 3.57886E-10
 -1       170-2.15109E+05-3.05801E+04-1.07166E+03-8.04370E+04 9.72307E-10-3.96085E-10
 -1       171-2.14557E+05-2.99029E+04-1.85116E+03-8.06792E+04-1.97872E-10 8.05471E-10
 -1       172-2.16471E+05-3.27651E+04-4.99119E+03-7.99814E+04 1.29165E-08-3.91310E-09
 -1       173-2.13414E+05-2.79893E+04-7.99104E+03-8.10459E+04 4.78491E-06-1.79529E-06
 -1       174-2.24567E+05-4.69673E+04-2.36777E+04-7.73042E+04 9.53580E-06-3.57840E-06
 -1       175-2.06463E+05-1.57098E+04-3.41007E+04-8.33535E+04 4.78805E-06-1.79186E-06
 -1       191 3.81096E+02 1.69447E+05 6.09225E+02-4.23056E+03-2.34650E-10-2.34195E-10
 -1       192 1.40961E+02 1.69530E+05 3.63578E+02-4.52093E+03-3.18323E-10 7.75799E-10
 -1       193 6.71946E+01 1.69476E+05 2.91569E+02-4.15627E+03-5.90461E-10 3.94266E-10
 -1       194 1.83504E+02 1.69543E+05 4.39915E+02-4.66035E+03-6.95195E-10 7.59428E-10
 -1       195 5.12893E+02 1.69430E+05 7.99170E+02-4.09094E+03-8.75389E-10 7.60338E-10
 -1       251-8.58754E+05 1.88297E+04-4.68344E+04-1.25011E+04 2.51703E-10-9.14952E-10
 -1       252-8.62209E+05-2.21459E+04-3.02289E+04 3.36288E+04 8.56915E-12 6.57110E-10
 -1       253-8.61096E+05 3.45455E+03-1.20667E+04-1.58426E+04 3.92049E-10-3.72120E-09
 -1       254-8.43877E+05-2.96408E+03-3.69762E+03 2.07546E+04 3.12525E-09 3.57795E-09
 -1       255-8.76771E+05-6.37286E+02-6.40817E+03 3.73776E+02-1.17029E-09 1.96053E-09
 -1       256-8.40524E+05 2.01840E+02 2.25629E+03-1.32095E+04 1.64243E-09-2.60017E-09
 -1       257-8.64381E+05 2.27742E+02-1.67786E+03 1.81187E+04-5.62750E-12 3.85316E-09
 -1       258-8.52763E+05-2.33082E+02 6.62247E+02-3.06088E+04 9.72555E-12-6.86652E-09
 -1       259-8.64912E+05 1.72708E+02-1.78435E+03 1.77768E+04-3.94721E-09 4.53852E-09
 -1       260-8.40082E+05 2.34189E+02 2.36240E+03-1.22113E+04-5.90120E-10-2.32114E-09
 -1       261-8.76669E+05-6.27736E+02-6.35927E+03-2.82538E+02 1.49498E-10 4.86693E-10
 -1       262-8.44381E+05-2.97272E+03-3.74150E+03 2.16464E+04 4.16105E-09 2.19075E-10
 -1       263-8.60710E+05 3.46949E+03-1.18774E+04-1.60781E+04-3.25016E-09-4.98676E-09
 -1       264-8.61918E+05-2.19221E+04-2.98989E+04 3.34180E+04-1.41178E-08 1.77170E-09
 -1       265-8.59425E+05 1.85851E+04-4.65533E+04-1.20548E+04-7.42614E-09-2.70848E-09
 -1       266-8.25461E+03-1.33752E+05 1.88236E+04-6.41211E+02-7.27596E-12 1.75282E-09
 -1       267 8.91800E+03-1.25599E+05 1.21907E+04 3.19814E+03 6.82121E-13 8.56652E-10
 -1       268-6.62780E+02-1.30392E+05 2.46917E+03-4.31102E+02-3.31966E-11-1.09868E-09
 -1       269-3.24925E+03-1.30863E+05-3.62969E+03 2.54560E+03 1.93268E-12 9.92912E-10
 -1       270 3.89587E+03-1.28481E+05-8.61565E+03 1.12902E+01 3.50155E-11 3.35679E-09
 -1       271-1.29237E+06-1.64252E+05-1.00073E+05-4.99634E+05-1.29148E-10-1.45519E-09
 -1       272-1.32443E+06-2.29747E+05-6.27404E+04-5.03208E+05-3.04340E-10-5.89353E-10
 -1       273-1.30960E+06-1.85799E+05-2.36018E+04-4.97236E+05 4.48793E-10-1.02591E-09
 -1       274-1.30448E+06-2.01267E+05-1.28845E+04-5.07763E+05-1.27159E-09-2.28579E-09
 -1       275-1.31166E+06-1.87914E+05-5.48677E+03-4.96902E+05-2.93312E-10 4.66343E-10
 -1       276-1.30207E+06-1.98570E+05-2.89344E+03-5.08378E+05-1.23578E-10-2.05318E-10
 -1       277-1.31198E+06-1.88061E+05-1.48637E+03-4.96797E+05-2.77737E-10-1.32218E-10
 -1       278-1.30173E+06-1.98409E+05-1.15854E+03-5.08534E+05-4.69242E-11-7.00425E-10
 -1       279-1.31201E+06-1.88037E+05-1.38102E+03-4.96769E+05-8.29061E-11 4.56112E-10
 -1       280-1.30195E+06-1.98631E+05-2.60645E+03-5.08501E+05 1.31223E-10 4.93401E-10
 -1       281-1.31176E+06-1.87864E+05-4.89754E+03-4.96820E+05-5.96003E-10-4.34511E-10
 -1       282-1.30404E+06-2.01099E+05-1.14844E+04-5.08037E+05-1.10049E-10-2.29875E-10
 -1       283-1.30996E+06-1.85950E+05-2.10221E+04-4.97084E+05-4.67253E-10-1.10958E-09
 -1       284-1.32175E+06-2.26524E+05-5.58863E+04-5.04049E+05-2.62844E-10 1.20963E-10
 -1       285-1.29464E+06-1.66729E+05-8.91360E+04-4.99190E+05 1.63709E-10 1.49157E-10
 -1       286-1.27112E+05-8.78759E+03 2.03205E+04-6.62947E+01 3.97719E-10-6.34827E-10
 -1       287-1.18218E+05 1.01733E+04 1.43884E+04-1.50099E+02-3.61666E-10 1.29103E-09
 -1       288-1.23713E+05-1.37799E+03 5.25943E+03 4.55822E+01-1.41824E-11-4.06999E-10
 -1       289-1.22189E+05 1.59466E+03 3.31766E+03-3.58532E+02-1.49228E-10 7.96888E-10
 -1       290-1.23144E+05-2.15814E+02 1.35700E+03 1.42146E+02 1.22274E-10 8.26105E-10
 -1       291-1.22858E+05 2.53993E+02 8.22492E+02-5.14723E+02 6.41972E-10-8.34561E-10
 -1       292-1.23044E+05-3.80008E+01 4.17946E+02 2.01776E+02 4.16870E-10 2.40149E-10
 -1       293-1.22960E+05 7.48713E+01 3.64026E+02-5.85489E+02 3.03870E-11 2.53408E-09
 -1       294-1.23042E+05-3.66266E+01 4.06502E+02 2.12913E+02 4.08677E-10 1.65312E-09
 -1       295-1.22870E+05 2.42600E+02 7.87251E+02-5.57151E+02 4.80740E-10 5.38449E-11
 -1       296-1.23135E+05-2.05694E+02 1.29639E+03 1.73437E+02 3.49852E-10-2.39538E-10
 -1       297-1.22233E+05 1.52033E+03 3.16289E+03-4.35283E+02 6.07621E-10 1.33031E-09
 -1       298-1.23678E+05-1.31370E+03 5.01534E+03 9.10432E+01 2.77893E-10-4.58840E-10
 -1       299-1.18443E+05 9.69935E+03 1.37179E+04-2.45909E+02-2.13523E-10 1.13232E-09
 -1       300-1.26923E+05-8.37828E+03 1.93735E+04-1.59433E+01 2.75300E-11 6.84850E-10
 -1       301 1.76203E+04 5.09786E+03 3.95662E+04-1.27112E+04-2.67391E-10 3.72353E-10
 -1       302 5.96943E+03 1.25735E+04 2.43285E+04-1.49620E+04-3.56522E-10 1.16699E-09
 -1       303 1.64493E+03 7.75088E+03 1.96000E+04-1.27111E+04-3.05363E-10 1.36424E-12
 -1       304 7.80590E+03 1.36803E+04 2.93107E+04-1.49485E+04-4.51109E-10 1.04745E-09
 -1       305 2.35542E+04 3.99455E+03 5.16326E+04-1.27201E+04-2.72848E-10 1.92961E-09
 -1       306-8.57612E+05-1.12784E+05-5.57632E+04-3.32486E+05 4.36557E-11-5.20231E-10
 -1       307-8.69754E+05-1.54911E+05-3.49486E+04-3.40973E+05-2.59661E-10-8.43556E-10
 -1       308-8.67249E+05-1.24733E+05-1.31562E+04-3.31115E+05-6.71207E-10-2.26282E-09
 -1       309-8.58628E+05-1.39091E+05-7.18438E+03-3.43573E+05 3.93015E-10-1.07275E-09
 -1       310-8.68406E+05-1.25899E+05-3.06952E+03-3.30925E+05 2.88446E-09-1.06866E-10
 -1       311-8.57301E+05-1.37586E+05-1.63679E+03-3.43921E+05 1.58383E-09-7.27255E-09
 -1       312-8.68577E+05-1.25987E+05-8.78103E+02-3.30877E+05 2.67141E-09-2.65292E-09
 -1       313-8.57147E+05-1.37474E+05-7.54601E+02-3.43976E+05 1.10211E-09 4.11603E-10
 -1       314-8.68568E+05-1.25990E+05-9.90482E+02-3.30883E+05 8.95852E-11-4.41332E-10
 -1       315-8.57355E+05-1.37604E+05-1.94566E+03-3.43893E+05 6.58815E-11-1.21781E-09
 -1       316-8.68355E+05-1.25884E+05-3.69800E+03-3.30942E+05 1.88720E-11-3.10365E-10
 -1       317-8.58962E+05-1.39434E+05-8.68741E+03-3.43481E+05 2.07820E-10-5.31145E-10
 -1       318-8.66963E+05-1.24463E+05-1.59163E+04-3.31163E+05 2.46473E-10 4.25644E-10
 -1       319-8.72402E+05-1.58611E+05-4.22931E+04-3.40378E+05-5.78787E-10-2.07729E-09
 -1       320-8.55322E+05-1.09974E+05-6.74743E+04-3.32794E+05-2.50111E-10-8.25821E-10
 -1       321-2.44867E+05-3.93917E+03 8.63299E+03-1.35117E+03-1.49529E-09-2.79533E-09
 -1       322-2.38737E+05 4.54305E+03 6.52485E+03 4.36523E+03-5.13923E-09 6.96900E-10
 -1       323-2.42583E+05-6.03414E+02 2.24473E+03-2.56280E+03 1.95503E-09-2.07376E-09
 -1       324-2.41507E+05 6.95999E+02 1.47293E+03 5.82053E+03 1.04212E-08 6.86299E-10
 -1       325-2.42124E+05-7.51413E+01 5.80029E+02-2.80662E+03-1.94792E-09-4.02076E-09
 -1       326-2.41365E+05 1.12159E+02 4.50808E+02 5.25033E+03-4.25337E-09 9.80862E-10
 -1       327-2.42714E+05-2.83167E+01 4.62279E+00-1.99252E+03 2.15132E-09-1.72733E-10
 -1       328-2.40104E+05 5.93882E+01 4.32203E+02 2.85175E+03 4.83311E-11 1.20246E-09
 -1       329-2.43351E+05-4.72177E+01-2.82281E+02-4.07918E+02-1.54063E-09-3.78670E-10
 -1       330-2.39654E+05 2.82550E+01 3.62552E+02-5.20090E+02-1.24462E-09 1.68789E-10
 -1       331-2.43150E+05-6.47722E+00-4.51153E+02 1.37920E+03-1.73907E-09 2.48770E-09
 -1       332-2.40758E+05-2.37301E+02-2.96675E+02-3.65065E+03-9.52929E-09-2.16741E-09
 -1       333-2.42275E+05 2.36245E+02-9.97305E+02 2.72264E+03-8.71276E-09 2.96956E-09
 -1       334-2.42615E+05-1.76920E+03-2.49248E+03-5.41890E+03-6.64232E-09-4.02636E-09
 -1       335-2.41320E+05 1.54976E+03-3.60608E+03 3.14765E+03 5.74865E-09 1.70940E-09
 -1       336 7.59797E+01-3.44734E+05-8.18813E+02-6.74828E+03-1.55956E-09-2.21712E-09
 -1       337-3.69572E+02-3.45077E+05-1.72756E+03-2.46040E+04-2.82341E-09-4.57294E-09
 -1       338 2.66699E+02-3.44581E+05-3.03246E+03-6.68175E+03-1.80762E-09-2.84047E-09
 -1       339-3.49451E+03-3.46996E+05-7.42439E+03-2.46638E+04-3.20762E-09 5.64910E-10
 -1       340 2.52864E+03-3.42843E+05-1.16622E+04-6.68903E+03-1.74668E-09 2.36122E-09
 -1       341-3.43774E+05-5.74061E+04-9.44441E+03-1.35756E+05 2.56750E-08 3.60678E-09
 -1       342-2.95509E+05-1.93255E+04 7.98270E+03-8.55248E+04 1.42730E-08-3.27404E-10
 -1       343-3.08030E+05-5.66770E+04-1.31861E+03-1.34035E+05-1.66038E-08-1.13516E-08
 -1       344-3.31024E+05-1.97861E+04 1.53382E+03-8.75212E+04 3.41032E-08 3.73198E-09
 -1       345-3.08825E+05-5.65111E+04-1.18177E+03-1.34220E+05 3.97308E-08 9.07420E-10
 -1       346-2.94320E+05-2.12616E+04 8.48154E+03-8.50399E+04-1.93326E-08-3.39284E-09
 -1       347-3.44137E+05-5.56608E+04-7.73706E+03-1.36031E+05 8.84165E-09-5.06270E-09
 -1       348-2.48831E+05-3.29408E+04 1.49310E+04-9.46631E+04 8.34615E-09 1.79313E-10
 -1       349-3.53723E+05-4.52899E+04-7.90723E+03-1.24154E+05-2.90140E-09-2.97274E-09
 -1       350-2.61496E+05-5.59888E+04 7.28244E+03-1.24463E+05 1.05529E-08-9.40524E-09
 -1       351-3.32068E+05-3.21540E+04-2.77022E+03-1.06706E+05-6.41899E-09-1.12030E-08
 -1       352-2.84547E+05-7.01631E+04-3.08791E+03-1.41980E+05-5.12890E-08-2.95583E-08
 -1       353-3.31274E+05-3.06489E+04-8.84826E+03-1.07080E+05 1.59961E-08 5.63887E-10
 -1       354-2.69085E+05-6.91728E+04-1.37724E+04-1.21646E+05-1.99224E-08-3.99655E-09
 -1       355-3.46922E+05-3.36269E+04-4.12329E+04-1.26588E+05-6.27870E-09-4.12911E-10
 -1       356-2.47143E+05 1.78359E+03-4.13007E+03 3.20657E+03 1.01880E-09 1.80216E-09
 -1       357-2.48635E+05-2.01912E+03-2.85918E+03-5.47042E+03 1.18307E-08-2.56136E-09
 -1       358-2.48212E+05 2.82129E+02-1.14603E+03 2.73746E+03 4.49155E-09 1.25249E-09
 -1       359-2.46638E+05-2.69007E+02-3.88832E+02-3.58973E+03-1.25928E-09-3.26930E-09
 -1       360-2.49118E+05 2.01222E+00-5.39005E+02 1.32568E+03-3.74260E-09-5.56213E-10
 -1       361-2.45574E+05 1.06059E+01 2.48549E+02-3.34689E+02-1.00691E-08 9.18803E-11
 -1       362-2.49272E+05-3.56245E+01-4.77383E+02-5.17357E+02 5.97083E-10 6.13717E-10
 -1       363-2.46158E+05-2.84528E+01 1.30075E+00 3.10127E+03-8.03510E-10 6.76991E-10
 -1       364-2.48549E+05 5.24389E+01-7.34438E+02-2.11013E+03-7.69114E-09-6.27892E-10
 -1       365-2.47670E+05-4.35795E+02-1.28816E+03 5.45403E+03 1.27040E-08 9.48717E-10
 -1       366-2.47779E+05 4.12359E+02-2.38458E+03-2.87009E+03-8.31897E-09-2.11764E-09
 -1       367-2.49142E+05-2.83137E+03-5.84302E+03 5.86668E+03-1.00553E-08 2.87253E-09
 -1       368-2.47082E+05 2.45670E+03-9.43763E+03-2.52274E+03-2.08901E-09-1.87356E-09
 -1       369-2.55059E+05-1.80262E+04-2.53582E+04 4.16890E+03-8.10059E-09 1.55887E-09
 -1       370-2.41848E+05 1.55598E+04-3.64920E+04-1.17231E+03 7.79551E-10-1.39880E-09
 -1       371-6.14165E+03-6.45824E+04 1.11353E+04 4.08667E+03-2.77305E-09 1.23009E-10
 -1       372 6.27441E+03-4.64405E+04 9.21674E+03-1.79287E+04 2.23690E-09 1.67871E-09
 -1       373-1.76735E+02-5.64078E+04 1.14431E+03 4.66261E+03 2.42608E-09 6.99671E-10
 -1       374-3.06696E+03-5.56564E+04-3.45250E+03-1.84263E+04 4.55384E-09-2.38720E-11
 -1       375 3.28329E+03-5.54919E+04-7.74038E+03 4.58412E+03 2.00544E-09 1.31777E-09
 -1       376-2.70083E+05-3.05061E+04-9.26147E+03-9.64160E+04 6.48015E-12 1.07684E-09
 -1       377-2.54396E+05-4.98112E+04-5.05556E+03-1.08034E+05 5.88818E-09-2.20490E-09
 -1       378-2.69342E+05-3.11255E+04-1.91195E+03-9.31659E+04 1.73918E-09 5.67297E-09
 -1       379-2.52690E+05-4.67442E+04-6.06252E+02-1.08677E+05 9.88422E-09 4.81418E-09
 -1       380-2.71794E+05-3.35744E+04-1.20674E+03-9.57743E+04 1.18274E-08-6.60206E-10
 -1       381-2.48894E+05-4.01484E+04 2.17194E+03-1.00610E+05 1.43948E-08 1.28230E-09
 -1       382-2.73008E+05-3.78817E+04-1.95935E+03-1.01109E+05-4.92889E-09 1.90963E-09
 -1       383-2.53647E+05-3.27172E+04 2.71109E+03-9.18107E+04-1.73351E-08-2.61664E-10
 -1       384-2.67004E+05-4.10431E+04-1.66899E+03-1.04538E+05 2.85467E-08 5.30406E-10
 -1       385-2.67260E+05-2.86020E+04 1.93811E+02-8.77336E+04 3.59351E-08-2.56551E-09
 -1       386-2.59520E+05-4.18533E+04-1.86484E+03-1.05303E+05-2.30343E-08-1.44917E-09
 -1       387-2.74468E+05-2.96762E+04-4.56535E+03-8.67451E+04 1.85377E-08-1.84718E-09
 -1       388-2.59868E+05-3.98976E+04-8.12707E+03-1.05591E+05 1.98477E-08-1.53627E-08
 -1       389-2.72465E+05-4.50017E+04-2.11820E+04-8.54707E+04-1.72395E-08-5.16957E-09
 -1       390-2.61421E+05-2.66595E+04-3.50109E+04-1.06473E+05-8.74115E-09-6.31189E-10
 -1       406 4.10928E+02 1.67677E+05 8.85236E+02-1.36281E+04-1.14960E-09-3.35376E-10
 -1       407 2.66851E+02 1.67838E+05 1.07155E+03-1.49430E+04-1.40324E-09-1.22100E-10
 -1       408 4.35574E+02 1.67650E+05 1.76247E+03-1.35686E+04-1.39289E-09-4.12456E-10
 -1       409 1.74667E+03 1.68332E+05 3.78112E+03-1.50321E+04-1.66688E-09-1.63141E-10
 -1       410 5.03625E+03 1.67172E+05 7.62393E+03-1.35371E+04-1.65255E-09 5.68207E-10
 -1       466 5.80612E+05-2.36183E+04 5.41252E+04 4.34438E+03 4.35648E-10 4.05271E-09
 -1       467 6.06891E+05 2.72843E+04 3.87821E+04-7.04321E+03 2.08331E-10 8.80846E-10
 -1       468 5.90826E+05-3.66145E+03 1.40725E+04 1.26579E+03 1.04077E-09 1.01591E-09
 -1       469 5.95023E+05 4.23252E+03 8.91431E+03-2.86607E+03 6.65047E-10-4.96470E-10
 -1       470 5.92460E+05-5.69374E+02 3.68095E+03 1.67228E+02 1.23546E-10-1.40153E-09
 -1       471 5.93132E+05 6.81019E+02 2.29214E+03-1.38128E+03 1.46984E-09-1.71440E-10
 -1       472 5.92715E+05-1.10435E+02 1.29763E+03-2.19033E+02 8.24648E-10-1.84173E-10
 -1       473 5.92908E+05 2.79029E+02 1.36380E+03-8.93195E+02 1.60374E-11-9.95925E-10
 -1       474 5.92684E+05-1.67370E+02 1.79546E+03-3.20861E+02 7.12192E-10-4.51223E-10
 -1       475 5.93371E+05 1.16753E+03 3.73101E+03-8.61928E+02-4.49361E-11-3.30670E-09
 -1       476 5.92251E+05-9.98334E+02 6.27472E+03-2.50300E+02 6.57752E-10-2.58228E-09
 -1       477 5.96416E+05 7.39315E+03 1.53610E+04-1.25368E+03 3.68068E-10 4.95675E-10
 -1       478 5.89635E+05-6.38837E+03 2.44258E+04 7.08983E+01 5.76708E-10-5.54792E-11
 -1       479 6.14898E+05 4.72027E+04 6.67671E+04-2.52772E+03 1.29023E-09-2.91311E-09
 -1       480 5.73763E+05-4.07738E+04 9.43285E+04 1.02372E+03 2.85591E-09-1.74623E-10
 -1       481-4.48387E+03 8.83426E+04 9.94634E+03-1.88264E+03-1.72804E-11 1.42677E-10
 -1       482 5.28554E+03 9.52324E+04 7.72534E+03 6.02186E+03-5.85487E-11 2.44526E-09
 -1       483-8.17942E+02 9.08796E+04 3.10566E+03-1.41612E+03-2.56932E-11 5.65464E-10
 -1       484 1.87476E+03 9.25729E+04 3.17026E+03 5.44222E+03-4.16378E-12-7.84187E-10
 -1       485-1.05725E+03 9.09754E+04 2.75416E+03-1.30292E+03 2.44427E-11-3.71223E-10
 -1       486-5.38318E+05-6.60443E+04-5.22435E+04-2.23642E+05 7.55790E-10 1.64073E-09
 -1       487-5.81684E+05-8.12372E+04-3.36846E+04-1.76969E+05 7.07587E-10 5.03860E-09
 -1       488-5.46641E+05-8.39265E+04-1.26718E+04-2.20427E+05 3.28782E-10-1.53841E-09
 -1       489-5.47669E+05-6.64882E+04-2.72379E+03-1.86112E+05 7.42403E-10-1.50112E-09
 -1       490-5.72025E+05-8.10504E+04-6.88917E+03-2.14251E+05 2.24702E-10 6.93717E-10
 -1       491-5.24003E+05-8.17986E+04 3.68623E+03-2.07827E+05-1.93685E-09 4.16745E-09
 -1       492-5.70243E+05-6.86702E+04-2.05416E+03-1.98667E+05-4.51962E-10 8.95932E-09
 -1       493-5.28620E+05-9.60069E+04 8.68351E+02-2.26419E+05 4.08022E-10 1.61082E-08
 -1       494-5.67763E+05-6.65184E+04-1.14682E+03-1.95948E+05-1.31971E-09 4.75887E-09
 -1       495-5.24348E+05-8.66126E+04 2.76485E+03-2.13875E+05-2.20575E-09 4.79554E-09
 -1       496-5.74250E+05-7.83052E+04-6.60366E+03-2.10996E+05-6.94627E-11 3.71961E-09
 -1       497-5.39801E+05-6.96051E+04-1.39339E+03-1.89690E+05 1.79601E-09 7.41124E-10
 -1       498-5.52200E+05-8.36301E+04-1.28251E+04-2.20035E+05 3.47779E-09-4.82532E-09
 -1       499-5.79780E+05-7.98756E+04-3.12563E+04-1.77388E+05 2.07899E-09-6.94126E-09
 -1       500-5.34646E+05-6.77159E+04-4.81464E+04-2.23602E+05-5.11409E-09 8.19091E-09
 -1       501-2.14194E+05-1.01233E+04 2.34059E+04-1.67704E+02 3.59663E-10 8.27640E-10
 -1       502-2.03924E+05 1.17199E+04 1.65744E+04-2.60491E+01-1.66892E-10-7.04404E-10
 -1       503-2.10282E+05-1.58783E+03 6.05081E+03 7.02329E+01-3.14241E-10 9.61336E-10
 -1       504-2.08500E+05 1.83667E+03 3.81238E+03-4.71853E+02 7.54596E-12-2.41982E-10
 -1       505-2.09621E+05-2.47925E+02 1.53992E+03 2.78110E+02 4.09763E-10 7.45104E-10
 -1       506-2.09286E+05 2.86395E+02 8.99693E+02-7.88277E+02 7.90287E-10-3.35532E-10
 -1       507-2.09498E+05-3.81013E+01 3.91932E+02 3.86663E+02 6.71017E-10-6.69914E-10
 -1       508-2.09424E+05 4.53578E+01 2.21983E+02-8.71634E+02 2.27989E-10-1.34292E-09
 -1       509-2.09483E+05-6.83390E+00 1.09163E+02 3.61468E+02 3.61968E-10-1.95737E-10
 -1       510-2.09421E+05 1.62813E+01 8.56012E+01-6.95372E+02 5.46038E-10 1.34059E-09
 -1       511-2.09501E+05-9.45658E+00 6.94958E+01 2.10398E+02 2.65931E-10-9.04366E-10
 -1       512-2.09372E+05 6.13169E+01 1.45318E+02-3.14613E+02 1.40902E-10-1.35376E-10
 -1       513-2.09532E+05-5.23993E+01 1.93632E+02-1.92978E+01 4.05002E-10-2.90783E-10
 -1       514-2.09223E+05 3.78663E+02 5.45587E+02 1.51558E+02 3.52257E-10 2.39677E-09
 -1       515-2.09649E+05-3.26606E+02 7.46512E+02-2.55781E+02-2.33083E-10 2.56387E-09
 -1       516-2.68788E+04 2.10626E+05 6.28335E+04-2.82549E+03-2.14641E-10 4.20030E-10
 -1       517 3.26897E+04 2.39214E+05 4.74597E+04 1.15994E+04-5.23869E-10-1.68905E-09
 -1       518-5.78333E+03 2.20105E+05 2.20736E+04-2.90761E+03 1.41881E-10-2.18378E-10
 -1       519 1.75785E+04 2.35837E+05 2.81362E+04 1.36494E+04-1.89539E-09-9.78801E-10
 -1       520-1.18388E+04 2.14088E+05 2.74240E+04-4.87584E+03-6.53927E-10-5.50415E-09
 -1       521-1.27258E+06-1.64370E+05-8.69359E+04-4.91048E+05 4.24734E-10 1.51704E-09
 -1       522-1.29794E+06-2.23737E+05-5.45002E+04-4.97001E+05 1.98497E-10-4.37467E-09
 -1       523-1.28756E+06-1.83071E+05-2.05022E+04-4.88954E+05 1.72378E-10-5.05679E-10
 -1       524-1.28061E+06-1.99001E+05-1.11947E+04-5.00966E+05 1.71894E-10 8.57199E-11
 -1       525-1.28934E+06-1.84913E+05-4.76843E+03-4.88671E+05-1.29603E-11-3.39696E-10
 -1       526-1.27855E+06-1.96629E+05-2.52128E+03-5.01467E+05-6.85304E-10 2.72365E-10
 -1       527-1.28960E+06-1.85066E+05-1.30598E+03-4.88606E+05-1.90369E-10 5.92692E-10
 -1       528-1.27831E+06-1.96434E+05-1.04032E+03-5.01529E+05-5.72406E-10 4.29736E-11
 -1       529-1.28958E+06-1.85082E+05-1.26867E+03-4.88621E+05-7.09178E-10-2.93426E-10
 -1       530-1.27858E+06-1.96562E+05-2.41748E+03-5.01398E+05-9.36780E-10-7.58519E-10
 -1       531-1.28931E+06-1.84970E+05-4.55791E+03-4.88717E+05 1.04137E-10 1.87811E-10
 -1       532-1.28061E+06-1.98765E+05-1.06890E+04-5.00842E+05-5.72072E-10-1.44746E-09
 -1       533-1.28757E+06-1.83247E+05-1.95741E+04-4.89023E+05 4.97607E-10 1.77261E-09
 -1       534-1.29722E+06-2.22303E+05-5.20254E+04-4.96967E+05 7.27596E-11-7.09406E-11
 -1       535-1.27323E+06-1.65439E+05-8.29915E+04-4.91068E+05-1.07866E-09-9.02219E-10
 -1       536 6.92969E+03-4.55344E+03 2.09839E+04-3.74867E+03 2.87400E-10-4.63842E-11
 -1       537 1.44475E+04 6.33563E+03 1.33520E+04-1.31884E+04-1.05570E-09 1.48566E-09
 -1       538 1.00605E+04-4.66735E+02 5.42660E+03-3.69944E+03-2.13731E-11 5.86397E-10
 -1       539 1.09349E+04 5.92313E+02 3.01030E+03-1.32398E+04 5.21936E-10 4.70322E-10
 -1       540 1.04009E+04-5.47511E+01 1.36504E+03-3.69619E+03-1.12550E-10 2.05091E-10
 -1       541 1.05239E+04 5.35252E+01 7.14192E+02-1.32420E+04-6.73026E-11 3.79828E-10
 -1       542 1.04417E+04-7.45078E+00 3.31796E+02-3.69726E+03-2.95586E-12 2.24986E-10
 -1       543 1.04586E+04 6.97568E+00 1.56296E+02-1.32403E+04-2.66255E-10 3.39412E-10
 -1       544 1.04475E+04 7.01626E-01 4.68323E+01-3.69784E+03 1.59503E-10 4.56737E-10
 -1       545 1.04391E+04-1.25103E+00-3.69876E+01-1.32397E+04-4.34056E-10 3.97762E-10
 -1       546 1.04535E+04 6.56814E+00-1.32373E+02-3.69795E+03 7.59997E-11 1.16842E-10
 -1       547 1.03961E+04-6.39619E+01-3.26724E+02-1.32382E+04-3.85228E-10 1.34793E-09
 -1       548 1.04940E+04 5.02519E+01-6.04833E+02-3.69933E+03 3.16970E-09-4.86011E-10
 -1       549 1.00152E+04-7.12989E+02-1.49468E+03-1.32102E+04 5.14729E-09 4.89763E-10
 -1       550 1.08488E+04 5.03099E+02-2.35655E+03-3.72594E+03 2.16801E-09 6.98378E-10
 -1       551 4.93205E+03-1.24779E+05 1.14602E+04-1.88049E+05 2.86491E-10 3.72893E-11
 -1       552 2.24170E+03-1.22722E+05 9.39120E+03-2.20892E+05-4.25644E-10 4.23825E-10
 -1       553 1.41515E+03-1.24472E+05 1.13893E+04-1.87734E+05-1.63709E-11 5.06043E-09
 -1       554 6.83167E+03-1.20013E+05 2.17821E+04-2.20942E+05-7.82165E-11 1.15360E-08
 -1       555 1.97280E+04-1.27594E+05 4.14701E+04-1.87982E+05-1.03682E-10 4.69390E-09
 -1       556-8.47120E+04-4.62682E+04 8.19104E+03-8.28148E+04 8.61291E-10-6.92307E-09
 -1       557-7.73394E+04-5.42679E+04 4.03260E+03-8.84902E+04 5.94082E-09-1.01418E-08
 -1       558-8.47922E+04-4.89621E+04 1.69976E+03-8.11995E+04 4.06362E-09-2.35286E-09
 -1       559-7.80442E+04-5.56104E+04 8.32742E+02-8.87247E+04 1.31240E-09-9.51559E-10
 -1       560-8.48387E+04-4.90064E+04 3.71999E+02-8.11562E+04 8.49468E-10-1.04524E-09
 -1       561-7.81560E+04-5.56494E+04 1.74917E+02-8.88055E+04 6.02085E-10 7.09548E-11
 -1       562-8.48804E+04-4.89713E+04 6.24919E+01-8.11851E+04-2.03090E-09-7.08064E-09
 -1       563-7.82049E+04-5.56288E+04-4.57483E+00-8.88413E+04 4.73847E-10 1.37106E-09
 -1       564-8.49033E+04-4.89495E+04-7.86964E+01-8.12038E+04-4.80668E-10-8.35144E-10
 -1       565-7.82363E+04-5.56178E+04-2.01286E+02-8.88591E+04-4.02088E-09-7.74116E-09
 -1       566-8.48988E+04-4.89378E+04-4.29916E+02-8.12085E+04-6.79563E-10 3.41061E-11
 -1       567-7.83169E+04-5.56593E+04-9.50693E+02-8.88535E+04 1.10276E-10-7.97627E-10
 -1       568-8.48311E+04-4.90755E+04-1.95270E+03-8.11401E+04 5.04770E-11-4.59295E-10
 -1       569-7.93990E+04-5.68250E+04-4.60590E+03-8.85571E+04-4.95675E-11-2.41926E-10
 -1       570-8.44133E+04-5.25917E+04-9.37909E+03-7.96604E+04 6.36646E-12-4.16776E-10
 -1       571 1.08005E+05 5.12673E+03 7.76464E+03-2.77007E+04 1.58252E-10 7.63407E-10
 -1       572 1.09184E+05 1.76105E+03 3.81036E+03-3.04821E+04 4.25189E-11-1.98952E-10
 -1       573 1.08486E+05 4.03269E+02 1.69442E+03-2.76276E+04-9.27685E-11-3.78805E-10
 -1       574 1.08627E+05 1.26791E+02 8.50050E+02-3.05636E+04 6.54836E-11 1.24123E-09
 -1       575 1.08542E+05 1.24414E+01 4.01760E+02-2.76181E+04 1.42336E-10 2.31239E-10
 -1       576 1.08555E+05 2.99318E-01 2.05181E+02-3.05743E+04 1.29063E-10 2.64208E-10
 -1       577 1.08550E+05-6.40736E+00 1.02473E+02-2.76169E+04 2.46814E-10-1.03637E-09
 -1       578 1.08547E+05-4.57703E+00 5.83871E+01-3.05755E+04 1.38698E-10-1.21076E-09
 -1       579 1.08555E+05-5.84705E+00 4.05994E+01-2.76169E+04-1.60298E-10-2.32149E-10
 -1       580 1.08553E+05-5.54532E+00 4.57243E+01-3.05738E+04-1.62117E-10 6.07542E-10
 -1       581 1.08562E+05-5.84045E+00 7.12495E+01-2.76186E+04-4.26553E-10-1.33195E-09
 -1       582 1.08575E+05 1.00767E+01 1.41509E+02-3.05569E+04-4.43379E-11-1.22918E-09
 -1       583 1.08564E+05 5.17115E+01 2.76646E+02-2.76338E+04 3.91083E-11-5.35010E-10
 -1       584 1.08680E+05 2.69305E+02 6.20272E+02-3.04288E+04-4.66116E-10 4.35762E-10
 -1       585 1.08499E+05 8.14187E+02 1.26154E+03-2.77471E+04 2.31921E-10 7.53062E-10
 -1       586 8.11866E+02 4.68067E+04 1.51291E+03-6.70850E+04 1.95087E-10 6.38465E-10
 -1       587 4.50780E+02 4.70719E+04 1.50611E+03-7.40108E+04 5.97083E-10-9.34165E-10
 -1       588 5.71589E+02 4.67914E+04 2.20907E+03-6.69986E+04 1.80989E-10-3.10706E-10
 -1       589 2.12796E+03 4.76311E+04 4.57622E+03-7.40363E+04 7.45786E-10 9.49285E-10
 -1       590 6.05362E+03 4.62327E+04 9.14846E+03-6.70584E+04 1.98497E-10 7.43285E-10
 -1       591-4.97049E+04-1.69290E+04-9.72922E+03-2.53923E+04 4.17003E-10-4.08363E-10
 -1       592-5.00669E+04-1.57522E+04-4.77986E+03-2.82221E+04-3.94834E-10 8.42419E-10
 -1       593-5.00043E+04-1.33914E+04-2.02841E+03-2.70189E+04 2.51100E-09 7.52323E-09
 -1       594-4.90243E+04-1.44484E+04-9.92658E+02-2.83891E+04 1.68029E-10 2.85832E-10
 -1       595-5.00513E+04-1.32644E+04-4.57167E+02-2.70906E+04-2.39879E-11 9.68100E-10
 -1       596-4.89461E+04-1.43976E+04-2.31900E+02-2.83818E+04 2.68358E-10 1.65733E-09
 -1       597-5.00601E+04-1.32714E+04-1.26290E+02-2.70910E+04 2.70423E-09 7.83524E-09
 -1       598-4.89383E+04-1.43983E+04-1.01116E+02-2.83784E+04-7.74065E-11-1.83798E-09
 -1       599-5.00596E+04-1.32715E+04-1.28396E+02-2.70907E+04-2.23940E-09-6.81405E-09
 -1       600-4.89459E+04-1.43980E+04-2.37571E+02-2.83812E+04 5.96799E-10 7.36122E-11
 -1       601-5.00492E+04-1.32646E+04-4.68927E+02-2.70898E+04-7.51015E-10 1.38607E-09
 -1       602-4.90265E+04-1.44495E+04-1.01897E+03-2.83869E+04 1.40562E-09 6.94558E-09
 -1       603-4.99997E+04-1.33967E+04-2.08216E+03-2.70170E+04-3.61479E-09-5.17161E-09
 -1       604-5.01063E+04-1.57772E+04-4.90641E+03-2.82026E+04-1.06388E-09 4.72596E-10
 -1       605-4.96809E+04-1.70366E+04-9.98636E+03-2.53576E+04-2.72621E-10 3.74712E-10
 -1       606 3.62464E+04-4.31790E+03-6.53422E+03 1.06161E+04-1.97315E-09-1.32036E-09
 -1       607 3.52389E+04-1.48298E+03-3.20595E+03 1.15728E+04-1.25510E-10 1.81501E-10
 -1       608 3.58313E+04-3.39098E+02-1.42555E+03 1.05459E+04 1.45064E-09 3.10706E-10
 -1       609 3.56971E+04-1.02971E+02-7.14245E+02 1.16511E+04-1.17711E-09 6.26414E-11
 -1       610 3.57770E+04-6.14865E+00-3.36585E+02 1.05368E+04-2.79897E-09-1.23180E-09
 -1       611 3.57518E+04 6.47952E+00-1.69462E+02 1.16612E+04-4.52201E-09-2.86718E-10
 -1       612 3.57666E+04 1.13003E+01-8.03747E+01 1.05357E+04-1.83400E-09-5.99584E-10
 -1       613 3.57579E+04 1.08855E+01-3.70871E+01 1.16625E+04-2.47837E-09 9.20863E-11
 -1       614 3.57627E+04 9.56886E+00-1.08774E+01 1.05354E+04-4.32692E-10-1.08878E-09
 -1       615 3.57584E+04 1.08095E+01 9.72855E+00 1.16627E+04 2.20052E-09-2.69551E-10
 -1       616 3.57598E+04 1.10946E+01 3.47302E+01 1.05355E+04-1.04160E-09-4.21551E-10
 -1       617 3.57640E+04 2.37548E+01 8.20191E+01 1.16624E+04 3.86535E-11-1.93199E-09
 -1       618 3.57526E+04 5.05452E+01 1.67532E+02 1.05357E+04-7.82165E-11-1.40824E-09
 -1       619 3.58180E+04 1.87255E+02 3.79054E+02 1.16608E+04-1.81615E-11-8.17977E-10
 -1       620 3.57033E+04 5.21790E+02 7.73510E+02 1.05368E+04 1.14076E-09 2.62389E-10
 -1       621 7.21343E+02 1.11388E+05 1.84890E+03-9.85627E+03-8.72774E-10-9.17453E-11
 -1       622 2.78954E+02 1.11741E+05 1.59290E+03-1.16307E+04-9.59858E-10-2.70256E-09
 -1       623 1.72769E+02 1.11458E+05 2.03438E+03-9.86703E+03-8.41965E-10-1.67233E-09
 -1       624 1.15609E+03 1.12272E+05 3.97470E+03-1.15792E+04-7.11907E-10 5.38307E-10
 -1       625 3.55582E+03 1.10863E+05 7.61580E+03-9.90729E+03-6.59043E-10-1.28398E-09
 -1       626 5.24024E+04 1.72448E+04-2.59581E+03 3.53319E+04-2.14527E-09 4.87034E-10
 -1       627 5.10496E+04 1.92406E+04-1.23031E+03 3.60551E+04 1.11413E-11 8.37534E-09
 -1       628 5.24715E+04 1.85264E+04-5.16497E+02 3.46986E+04-1.56660E-09 8.18659E-10
 -1       629 5.12373E+04 1.97803E+04-2.47675E+02 3.60170E+04-5.36784E-09-5.61436E-09
 -1       630 5.24694E+04 1.86154E+04-1.08798E+02 3.46470E+04-1.76442E-09 6.14833E-10
 -1       631 5.12516E+04 1.98203E+04-4.80896E+01 3.60188E+04-4.09091E-09-1.39181E-10
 -1       632 5.24653E+04 1.86179E+04-1.18792E+01 3.46429E+04-4.45903E-09 6.65977E-10
 -1       633 5.12531E+04 1.98219E+04 1.58451E+01 3.60200E+04-1.01977E-09-7.16159E-09
 -1       634 5.24617E+04 1.86149E+04 5.18124E+01 3.46425E+04 5.01336E-09 5.64410E-09
 -1       635 5.12597E+04 1.98234E+04 1.21936E+02 3.60216E+04-1.66199E-09-7.63509E-09
 -1       636 5.24564E+04 1.86211E+04 2.55094E+02 3.46382E+04-1.93609E-09 9.87029E-10
 -1       637 5.13210E+04 1.98951E+04 5.71179E+02 3.60099E+04-8.60908E-10 2.21871E-09
 -1       638 5.24429E+04 1.88369E+04 1.18493E+03 3.45443E+04-6.04359E-10 7.59883E-10
 -1       639 5.19227E+04 2.09652E+04 2.82121E+03 3.57442E+04 3.32989E-10 8.48559E-09
 -1       640 5.24748E+04 2.19207E+04 5.95313E+03 3.32655E+04-2.01419E-09 1.35788E-09
 -1       641 3.33021E+02 1.09742E+03-2.53868E+03-2.77448E+01-1.66398E-09 1.14551E-09
 -1       642-7.65533E+02-1.27034E+03-1.79454E+03 1.12760E+02-1.36256E-09 1.29964E-09
 -1       643-9.07877E+01 1.71952E+02-6.54525E+02-2.75889E+01-2.47039E-09 1.20633E-09
 -1       644-2.71900E+02-1.98476E+02-4.06888E+02 1.12602E+02 9.92795E-10 1.49794E-09
 -1       645-1.60661E+02 2.64464E+01-1.56894E+02-2.75866E+01 7.95666E-10 1.26180E-09
 -1       646-1.88992E+02-2.80037E+01-7.47651E+01 1.12600E+02-1.03313E-08 1.41443E-09
 -1       647-1.73715E+02 1.61676E+00-3.82821E-01-2.75878E+01-2.39629E-06 3.03629E-09
 -1       648-1.65766E+02 1.43088E+01 6.87324E+01 1.12597E+02-4.77911E-06 5.29869E-09
 -1       649-1.83893E+02-1.58381E+01 1.56188E+02-2.75837E+01-2.39619E-06 2.12309E-09
 -1       650-1.08253E+02 1.22076E+02 3.78348E+02 1.12548E+02-3.10980E-09 1.27791E-09
 -1       651-2.31222E+02-1.06087E+02 6.58611E+02-2.75389E+01 5.63655E-10 6.75499E-10
 -1       652 2.16638E+02 7.86933E+02 1.62958E+03 1.12334E+02 3.74079E-10 1.13016E-09
 -1       653-5.08761E+02-6.80211E+02 2.59630E+03-2.73693E+01 1.27107E-10 7.17591E-10
 -1       654 2.17310E+03 5.02348E+03 7.10125E+03 1.11406E+02-3.38714E-09-8.73115E-11
 -1       655-2.18754E+03-4.33924E+03 1.00368E+04-2.66129E+01 1.82428E-10 1.14960E-09
 -1       656 3.24711E+03-1.31551E+05-1.55970E+04 4.20932E+03 3.41061E-10 2.54624E-09
 -1       657-4.92156E+03-1.37160E+05-1.12941E+04 1.48361E+04-1.55603E-09 5.98010E-09
 -1       658 6.08674E+02-1.33562E+05-7.23488E+03 4.18422E+03-5.34527E-10 1.72173E-09
 -1       659-4.50846E+03-1.36915E+05-1.05455E+04 1.48503E+04-1.49430E-09 4.37656E-10
 -1       660 2.92887E+03-1.31802E+05-1.41700E+04 4.19519E+03-3.98359E-10 3.44016E-10
 -1       661 1.27494E+05 1.64389E+04 1.04111E+04 4.98074E+04 8.67431E-10-1.01045E-09
 -1       662 1.29861E+05 2.42215E+04 6.52707E+03 5.12983E+04 1.77586E-09-2.55613E-09
 -1       663 1.29265E+05 1.87009E+04 2.45732E+03 4.95841E+04 2.47240E-10-7.62839E-11
 -1       664 1.27823E+05 2.12238E+04 1.34400E+03 5.17228E+04-1.24885E-09-5.82077E-10
 -1       665 1.29461E+05 1.89392E+04 5.75898E+02 4.95690E+04-8.25878E-10-2.91720E-10
 -1       666 1.27597E+05 2.09173E+04 3.11620E+02 5.17529E+04-3.13392E-10 3.74601E-09
 -1       667 1.29483E+05 1.89654E+04 1.75163E+02 4.95694E+04-4.38774E-09 9.59904E-10
 -1       668 1.27576E+05 2.08904E+04 1.64972E+02 5.17534E+04-8.07121E-10 2.00885E-09
 -1       669 1.29481E+05 1.89636E+04 2.32784E+02 4.95692E+04 1.72638E-09 6.54353E-10
 -1       670 1.27616E+05 2.09374E+04 4.70577E+02 5.17527E+04 4.53771E-09-1.49176E-09
 -1       671 1.29444E+05 1.89223E+04 8.99151E+02 4.95689E+04-7.17506E-10-5.39444E-11
 -1       672 1.27974E+05 2.14209E+04 2.11687E+03 5.17043E+04 4.49575E-10 2.52157E-10
 -1       673 1.29133E+05 1.85465E+04 3.87655E+03 4.95931E+04 4.03267E-09 1.07070E-09
 -1       674 1.31191E+05 2.61549E+04 1.03024E+04 5.10360E+04-8.43855E-10 1.05410E-09
 -1       675 1.26340E+05 1.49739E+04 1.64336E+04 4.99429E+04-2.65368E-09-4.41105E-10
 -1       676 2.32868E+02-1.24486E+05-1.38388E+03 1.90966E+01-2.24085E-09 3.50124E-09
 -1       677-5.24760E+02-1.25012E+05-1.67959E+03-8.17615E+01-3.06976E-09 5.56411E-09
 -1       678 1.87676E+02-1.24507E+05-2.22032E+03 1.90072E+01-5.64569E-10 1.93953E-09
 -1       679-2.36274E+03-1.26126E+05-5.02291E+03-8.16062E+01-4.52701E-09-1.55911E-10
 -1       680 1.66515E+03-1.23372E+05-7.75105E+03 1.87542E+01-1.79716E-09 1.33042E-09
 -1       681 2.76164E+05-8.19556E+03 1.89040E+04 5.48381E+02-1.36069E-10 6.30280E-10
 -1       682 2.84629E+05 9.48543E+03 1.34270E+04-2.23808E+03 4.73541E-11-2.76941E-10
 -1       683 2.79430E+05-1.28172E+03 4.90163E+03 6.59630E+01 1.50965E-10 1.40585E-09
 -1       684 2.80817E+05 1.48504E+03 3.09635E+03-1.56581E+03-6.87672E-11-4.55486E-10
 -1       685 2.79974E+05-1.99767E+02 1.27890E+03-1.23895E+02 2.91651E-11 1.16626E-09
 -1       686 2.80190E+05 2.39047E+02 7.91050E+02-1.38418E+03 2.25671E-10-2.11173E-10
 -1       687 2.80058E+05-3.63114E+01 4.40573E+02-1.15672E+02-2.25846E-11 1.14604E-09
 -1       688 2.80140E+05 8.67716E+01 4.54020E+02-1.60263E+03 2.61513E-10-4.47704E-10
 -1       689 2.80024E+05-4.80388E+01 5.77108E+02 9.45530E+01 6.81162E-10 5.72243E-10
 -1       690 2.80418E+05 3.51610E+02 1.22331E+03-2.32507E+03 1.39373E-09-4.39613E-10
 -1       691 2.79784E+05-3.03154E+02 1.98931E+03 6.06782E+02-4.58058E-10-1.03455E-10
 -1       692 2.81924E+05 2.32272E+03 5.04544E+03-3.89677E+03 9.08038E-10 4.64127E-10
 -1       693 2.78531E+05-2.02619E+03 7.72562E+03 1.66630E+03-1.49717E-09-1.63254E-09
 -1       694 2.90014E+05 1.52760E+04 2.19847E+04-7.11218E+03-4.52933E-09 1.68461E-09
 -1       695 2.71742E+05-1.32785E+04 2.97639E+04 3.82245E+03-3.45995E-09-4.27463E-09
 -1       696-4.95816E+03 1.94263E+05 1.13215E+04 3.11460E+02 1.31877E-11-6.16616E-10
 -1       697 5.45293E+03 1.99150E+05 7.49775E+03-1.53236E+03 2.78533E-11-2.46395E-10
 -1       698-4.89647E+02 1.96352E+05 1.84873E+03 1.48699E+02-9.20863E-11 2.60380E-10
 -1       699-1.26020E+03 1.96016E+05-1.25315E+03-1.37301E+03-1.28068E-10 1.24534E-09
 -1       700 1.75013E+03 1.97397E+05-3.71675E+03 1.52105E+02-7.79892E-11 5.74810E-10
 -1       701-2.53481E+05-2.41785E+04-3.05164E+04-1.00880E+05-5.89807E-10 6.23913E-10
 -1       702-2.70654E+05-5.03849E+04-2.10747E+04-9.34799E+04 3.16049E-11-1.40608E-09
 -1       703-2.58958E+05-3.56096E+04-7.15141E+03-9.93493E+04 1.86333E-10 2.82853E-09
 -1       704-2.64279E+05-3.71595E+04-4.45456E+03-9.52589E+04 1.19314E-10 3.80010E-09
 -1       705-2.59858E+05-3.73921E+04-1.67320E+03-9.91069E+04 5.08749E-12 3.17004E-09
 -1       706-2.62604E+05-3.54922E+04-9.49640E+02-9.59565E+04-5.93067E-10 2.98641E-10
 -1       707-2.60628E+05-3.72779E+04-5.04619E+02-9.86495E+04-5.01501E-11 1.89108E-09
 -1       708-2.61028E+05-3.62886E+04-2.79557E+02-9.71809E+04-1.37825E-09 9.92481E-10
 -1       709-2.61428E+05-3.66000E+04-4.96710E+02-9.78780E+04-1.12813E-09 5.08024E-10
 -1       710-2.59900E+05-3.78749E+04-8.06192E+02-9.87028E+04 3.19140E-10-6.17490E-10
 -1       711-2.61758E+05-3.56905E+04-1.53510E+03-9.71288E+04 8.66891E-10 2.37208E-09
 -1       712-2.60359E+05-4.06200E+04-3.98790E+03-9.95304E+04 3.54476E-10 5.37142E-09
 -1       713-2.60976E+05-3.38514E+04-6.41375E+03-9.70550E+04-1.07605E-09-2.41926E-10
 -1       714-2.66838E+05-5.20334E+04-1.89732E+04-9.74272E+04-1.17291E-09-1.32059E-09
 -1       715-2.55282E+05-2.42844E+04-2.73915E+04-9.92301E+04-1.29103E-09-1.32604E-09
 -1       716-4.03239E+04-9.98773E+02 1.80958E+03 1.40511E+02 5.78160E-09-2.96995E-09
 -1       717-3.61506E+04 1.13142E+03 1.88452E+03-1.82251E+03 3.76542E-09 3.72438E-10
 -1       718-3.96213E+04-1.61564E+02 3.75466E+02 4.01561E+02 1.65466E-09-8.23604E-10
 -1       719-3.72850E+04 1.71112E+02 6.17853E+02-2.29575E+03 1.84201E-09-3.13122E-10
 -1       720-3.92072E+04-2.64426E+01 8.47171E+01 6.13557E+02-6.33349E-10 2.08306E-10
 -1       721-3.80166E+04 3.22743E+01 3.00954E+02-2.65601E+03 1.82583E-09-9.76736E-10
 -1       722-3.89066E+04-1.06208E+01 1.75490E+02 7.61755E+02 6.79179E-10 1.62930E-09
 -1       723-3.84650E+04 7.88181E+01 4.44151E+02-2.88041E+03-3.44993E-08-1.14872E-09
 -1       724-3.87708E+04-6.42396E+01 7.12830E+02 8.37972E+02-1.04143E-05-2.27792E-08
 -1       725-3.84075E+04 5.16554E+02 1.63388E+03-2.95638E+03-2.07753E-05-5.50417E-08
 -1       726-3.89685E+04-4.44906E+02 2.80166E+03 8.37743E+02-1.04143E-05-2.31066E-08
 -1       727-3.68609E+04 3.33747E+03 6.94883E+03-2.88065E+03-2.98259E-08-7.93193E-10
 -1       728-4.03127E+04-2.88619E+03 1.09679E+04 7.62229E+02 9.46272E-10 7.03039E-10
 -1       729-2.80809E+04 2.13350E+04 3.02333E+04-2.67995E+03 1.30785E-09 5.03405E-10
 -1       730-4.77332E+04-1.84360E+04 4.24310E+04 6.37014E+02 3.89662E-10-3.89264E-10
 -1       731-6.88195E+03 9.77355E+04 1.41756E+04-3.74677E+03-3.00497E-09-1.50874E-09
 -1       732 8.22286E+03 1.13884E+05 1.25090E+04 1.23401E+04 8.90964E-10 2.09837E-10
 -1       733-1.39713E+03 1.03654E+05 5.34428E+03-2.69701E+03-2.66482E-10-1.15494E-09
 -1       734 4.42306E+03 1.07886E+05 7.12830E+03 1.10527E+04 5.20117E-11-2.66508E-09
 -1       735-3.01285E+03 1.03628E+05 7.44809E+03-2.45905E+03 6.57110E-10-1.28050E-09
 -1       736-2.66746E+05-3.96121E+04-2.43561E+04-1.12028E+05 1.17720E-08-1.04055E-08
 -1       737-2.56777E+05-2.36447E+04-8.13636E+03-6.79000E+04 3.75758E-08 9.70977E-09
 -1       738-2.46283E+05-4.48514E+04-4.69427E+03-1.08688E+05 8.77787E-09 3.41688E-08
 -1       739-2.70762E+05-1.70814E+04-1.51619E+03-7.07374E+04-2.64793E-08-8.51770E-09
 -1       740-2.53049E+05-4.59574E+04-2.41415E+03-1.09426E+05-3.76735E-09-2.66972E-08
 -1       741-2.36658E+05-1.72151E+04 6.88525E+03-6.83615E+04-1.42070E-08-1.85894E-08
 -1       742-2.79846E+05-4.51161E+04-6.53372E+03-1.10632E+05-4.25189E-11 2.95159E-09
 -1       743-2.00672E+05-2.58010E+04 1.25456E+04-7.51731E+04 5.36556E-09 8.87758E-09
 -1       744-2.88566E+05-3.77228E+04-6.74761E+03-1.02269E+05 2.54897E-09-2.71683E-09
 -1       745-2.07678E+05-4.29697E+04 7.61346E+03-9.75789E+04 1.37929E-08 8.45932E-09
 -1       746-2.73241E+05-2.76510E+04-2.55251E+03-8.85465E+04 1.71150E-08 4.48424E-08
 -1       747-2.30379E+05-5.60190E+04-7.62505E+02-1.15654E+05 2.51003E-09 7.43671E-09
 -1       748-2.66465E+05-2.42246E+04-3.62344E+03-8.46292E+04 2.31074E-08 1.04958E-08
 -1       749-2.24089E+05-5.62463E+04-6.01474E+03-1.08109E+05-8.13631E-09 1.28667E-08
 -1       750-2.79295E+05-2.76044E+04-2.00884E+04-9.59211E+04-1.01417E-08-1.20172E-08
 -1       751 1.08545E+06-6.24068E+04 1.44493E+05 1.57266E+03-1.16876E-08-4.36557E-10
 -1       752 1.14817E+06 7.22537E+04 1.02216E+05-1.98373E+03 3.45258E-10-4.00178E-10
 -1       753 1.10966E+06-9.78174E+03 3.74222E+04 3.48424E+02-3.02402E-10 1.72804E-10
 -1       754 1.11999E+06 1.13207E+04 2.35355E+04-4.77596E+02-1.59968E-10 1.39198E-09
 -1       755 1.11366E+06-1.53036E+03 9.63323E+03 6.66162E+01 1.50740E-10-2.89674E-10
 -1       756 1.11536E+06 1.79357E+03 5.75820E+03-1.29863E+02 1.34591E-09-7.11680E-10
 -1       757 1.11432E+06-2.62126E+02 2.82909E+03 6.88527E-01 3.42956E-07 8.51514E-10
 -1       758 1.11467E+06 4.65423E+02 2.26150E+03-5.09127E+01 6.82904E-07-3.57232E-10
 -1       759 1.11435E+06-2.03101E+02 2.29805E+03-1.23354E+01 1.71187E-07 4.82430E-10
 -1       760 1.11508E+06 1.28600E+03 4.22221E+03-4.57696E+01-3.37640E-07 1.10998E-09
 -1       761 1.11390E+06-1.08213E+03 6.86844E+03-4.45465E+00-1.71386E-07-4.47926E-10
 -1       762 1.11834E+06 7.98735E+03 1.66352E+04-1.01911E+02-1.91890E-10-4.60204E-10
 -1       763 1.11108E+06-6.89919E+03 2.64056E+04 4.38067E+01 3.25214E-09-8.33097E-10
 -1       764 1.13816E+06 5.09472E+04 7.20749E+04-3.61456E+02 1.65014E-09-4.09273E-11
 -1       765 1.09405E+06-4.40037E+04 1.01882E+05 2.55081E+02-2.12324E-10 5.82077E-11
 -1       766-2.40349E+04 9.01595E+04 5.56456E+04 5.14644E+03 3.30328E-09-1.70797E-09
 -1       767 2.88705E+04 1.17997E+05 4.20263E+04-2.23047E+04 1.10927E-08-1.02729E-09
 -1       768-4.74511E+03 9.91663E+04 1.86164E+04 5.08485E+03 4.59067E-09 1.78088E-09
 -1       769 1.43600E+04 1.20955E+05 2.40898E+04-2.37542E+04 1.30876E-09-5.87164E-10
 -1       770-9.70227E+03 8.74377E+04 1.90012E+04 6.59641E+03-3.61069E-09-9.10518E-10
 -1       771-6.08789E+05-1.22655E+05-2.01061E+04-2.64076E+05 1.78261E-09 7.06859E-09
 -1       772-6.06943E+05-1.22727E+05-9.87032E+03-2.72794E+05 1.23873E-09-9.04492E-10
 -1       773-6.09606E+05-1.15177E+05-4.19574E+03-2.67291E+05-2.61753E-09-7.73798E-09
 -1       774-6.04679E+05-1.20192E+05-2.04973E+03-2.73384E+05 8.03993E-10-8.17522E-10
 -1       775-6.09766E+05-1.14867E+05-9.47262E+02-2.67447E+05 5.65706E-10-8.07631E-10
 -1       776-6.04544E+05-1.20091E+05-4.78700E+02-2.73430E+05-6.09361E-10-1.39090E-09
 -1       777-6.09827E+05-1.14857E+05-2.61735E+02-2.67466E+05-3.20961E-09-4.89530E-09
 -1       778-6.04554E+05-1.20083E+05-2.05799E+02-2.73456E+05-4.14275E-10 1.39644E-09
 -1       779-6.09854E+05-1.14841E+05-2.61271E+02-2.67479E+05 3.22871E-10 2.61025E-10
 -1       780-6.04589E+05-1.20077E+05-4.80123E+02-2.73482E+05 4.06544E-10-2.30557E-10
 -1       781-6.09848E+05-1.14817E+05-9.48735E+02-2.67484E+05-2.59115E-09-7.41124E-09
 -1       782-6.04760E+05-1.20179E+05-2.06170E+03-2.73502E+05 3.93356E-10-1.06866E-10
 -1       783-6.09750E+05-1.15083E+05-4.21453E+03-2.67338E+05 1.65045E-10 1.85537E-10
 -1       784-6.06948E+05-1.22868E+05-9.93520E+03-2.73125E+05-4.57419E-10-7.39419E-10
 -1       785-6.09096E+05-1.22460E+05-2.02242E+04-2.63978E+05 1.65983E-10 5.25688E-10
 -1       786 9.26201E+04-2.63312E+03 1.22037E+04-8.63809E+02 8.90168E-11-4.54747E-12
 -1       787 9.69562E+04 3.69439E+03 7.76145E+03-3.07721E+03 1.07264E-10-7.48969E-10
 -1       788 9.44438E+04-2.63538E+02 3.15933E+03-8.57406E+02-1.15051E-10 1.71440E-10
 -1       789 9.49307E+04 3.50583E+02 1.75272E+03-3.08265E+03-2.32774E-11-7.15204E-10
 -1       790 9.46446E+04-2.81134E+01 8.01684E+02-8.58263E+02 1.16472E-10-1.74396E-10
 -1       791 9.47038E+04 3.28030E+01 4.28276E+02-3.08131E+03-2.83649E-11 7.11111E-11
 -1       792 9.46700E+04-3.59881E+00 2.19868E+02-8.58741E+02 6.29754E-11 3.20455E-11
 -1       793 9.46759E+04 4.08258E+00 1.45142E+02-3.08102E+03-5.08749E-12-4.70024E-10
 -1       794 9.46724E+04-1.97047E+00 1.33407E+02-8.58553E+02-1.63283E-11 1.70132E-10
 -1       795 9.46839E+04 1.38347E+01 2.01274E+02-3.08220E+03-1.13687E-11 9.88848E-10
 -1       796 9.46624E+04-1.20884E+01 3.48023E+02-8.57561E+02-1.49271E-10 9.90340E-10
 -1       797 9.47793E+04 1.47401E+02 7.44014E+02-3.08411E+03 1.29603E-11 6.68827E-10
 -1       798 9.45781E+04-1.11462E+02 1.33420E+03-8.56643E+02-2.02078E-10 2.07081E-10
 -1       799 9.56337E+04 1.55675E+03 3.27313E+03-3.07791E+03-6.11635E-10 1.21366E-09
 -1       800 9.38094E+04-1.11068E+03 5.14467E+03-8.63821E+02 1.52227E-10 1.58025E-10
 -1       801-3.22192E+03 9.77095E+04 1.49960E+04-1.04082E+05-4.25280E-09 5.67525E-10
 -1       802 7.10921E+03 1.02645E+05 1.58201E+04-3.70276E+05-1.84991E-09-1.21781E-09
 -1       803-9.24203E+02 9.80557E+04 1.77487E+04-1.03742E+05-5.70162E-09 2.65788E-09
 -1       804 1.91980E+04 1.10028E+05 3.78415E+04-3.70261E+05-3.00497E-09-2.11548E-09
 -1       805-1.26768E+04 9.03893E+04 5.69344E+04-1.04098E+05-2.19734E-09 1.98634E-09
 -1       806-9.52965E+04-2.60764E+04-7.97450E+03-4.48834E+04 1.40403E-11-3.45153E-10
 -1       807-9.52537E+04-2.40967E+04-3.77912E+03-4.74059E+04-1.23691E-10 1.95541E-10
 -1       808-9.52451E+04-2.19561E+04-1.58821E+03-4.66119E+04-2.50111E-11 4.96470E-10
 -1       809-9.44650E+04-2.26477E+04-7.66953E+02-4.77480E+04-2.19018E-10 4.04810E-10
 -1       810-9.52633E+04-2.16670E+04-3.46270E+02-4.67405E+04 1.09480E-10-7.81938E-10
 -1       811-9.43863E+04-2.25494E+04-1.73178E+02-4.77629E+04 2.41101E-10 9.41327E-11
 -1       812-9.52696E+04-2.16575E+04-8.98711E+01-4.67467E+04-1.87953E-10 1.02682E-09
 -1       813-9.43779E+04-2.25465E+04-6.51393E+01-4.77611E+04 4.09841E-10-7.43398E-10
 -1       814-9.52696E+04-2.16586E+04-7.41103E+01-4.67463E+04-1.25169E-10 1.18212E-09
 -1       815-9.43832E+04-2.25495E+04-1.31331E+02-4.77610E+04 2.20950E-10 9.61109E-10
 -1       816-9.52636E+04-2.16666E+04-2.56254E+02-4.67412E+04-2.75850E-09-6.63726E-09
 -1       817-9.44422E+04-2.26202E+04-5.64722E+02-4.77467E+04 2.05091E-10 5.22959E-12
 -1       818-9.52477E+04-2.18821E+04-1.16787E+03-4.66484E+04 2.30170E-09 7.45513E-09
 -1       819-9.50389E+04-2.36671E+04-2.77794E+03-4.74733E+04-6.19366E-10 7.33621E-10
 -1       820-9.52667E+04-2.49261E+04-5.86111E+03-4.53956E+04-9.91349E-11 9.41213E-10
 -1       821-1.01046E+05 2.81386E+03-1.30462E+04 9.58052E+02-1.23759E-09-1.62800E-10
 -1       822-1.05679E+05-3.94942E+03-8.29750E+03 3.43003E+03-6.92978E-10-8.37645E-10
 -1       823-1.02996E+05 2.81243E+02-3.37877E+03 9.40372E+02 1.23191E-09-5.45697E-10
 -1       824-1.03517E+05-3.73306E+02-1.87599E+03 3.45131E+03-5.42059E-10 9.25411E-11
 -1       825-1.03211E+05 3.02618E+01-8.62208E+02 9.36649E+02-1.86071E-09 1.22566E-09
 -1       826-1.03276E+05-3.27940E+01-4.68214E+02 3.45707E+03-3.47171E-09-9.50195E-10
 -1       827-1.03239E+05 4.65629E+00-2.55765E+02 9.34583E+02-1.85287E-09-1.86049E-10
 -1       828-1.03250E+05-2.79370E+00-1.97821E+02 3.46040E+03-2.22798E-09-1.11017E-09
 -1       829-1.03239E+05 4.27180E+00-2.25905E+02 9.33316E+02-1.34548E-10 2.20084E-10
 -1       830-1.03271E+05-2.57372E+01-3.90008E+02 3.46180E+03 1.30795E-09-1.08923E-09
 -1       831-1.03218E+05 2.52668E+01-7.05668E+02 9.33180E+02-1.06265E-09-1.03546E-09
 -1       832-1.03467E+05-3.02232E+02-1.52837E+03 3.46081E+03 1.04890E-10 3.63798E-12
 -1       833-1.03043E+05 2.29694E+02-2.74938E+03 9.34335E+02 1.40574E-10 4.05521E-10
 -1       834-1.05227E+05-3.21102E+03-6.75045E+03 3.45093E+03-3.46461E-10 7.40101E-11
 -1       835-1.01457E+05 2.29021E+03-1.06128E+04 9.43288E+02 5.86397E-10-1.15051E-10
 -1       836-4.30625E+03 2.49706E+05 2.10901E+04-7.04524E+03-3.72893E-10-4.40195E-10
 -1       837 6.79828E+03 2.57347E+05 1.63659E+04-2.49016E+04 4.32578E-11-1.24936E-09
 -1       838-1.03626E+03 2.52167E+05 1.23288E+04-7.02711E+03-5.89125E-10-2.81744E-10
 -1       839 9.26097E+03 2.58839E+05 2.08460E+04-2.49014E+04 3.90855E-10-2.74611E-10
 -1       840-6.22396E+03 2.48212E+05 2.96244E+04-7.04531E+03-7.34872E-10 1.85310E-10
 -1       841-4.46104E+02 1.24264E+03-3.36254E+03-7.62522E+02 4.78622E-10 6.62340E-10
 -1       842-2.27926E+03-1.79011E+03-2.33383E+03-1.10841E+02-4.30944E-10 2.18591E-10
 -1       843-1.13203E+03 3.28267E+01-7.87325E+02-5.34261E+02 3.99055E-10 5.69514E-10
 -1       844-1.48244E+03-3.89037E+02-4.90221E+02-3.73907E+02 2.23944E-09-1.09031E-09
 -1       845-1.24283E+03-1.57527E+02-1.79082E+02-4.99820E+02-2.49742E-10-1.09694E-09
 -1       846-1.35292E+03-1.67500E+02-9.75776E+01-4.13584E+02-1.78080E-09 7.09328E-10
 -1       847-1.26156E+03-1.88570E+02-2.66870E+01-4.94644E+02-5.73387E-07 2.13901E-07
 -1       848-1.32639E+03-1.24309E+02 1.35515E+01-4.20565E+02-1.14407E-06 4.29865E-07
 -1       849-1.26937E+03-2.00692E+02 5.71319E+01-4.92853E+02-9.73183E-07 3.65229E-07
 -1       850-1.28899E+03-6.40282E+01 1.62939E+02-4.30510E+02-7.98752E-07 3.01664E-07
 -1       851-1.29895E+03-2.48818E+02 2.88069E+02-4.84712E+02-4.00123E-07 1.49367E-07
 -1       852-1.08204E+03 2.86744E+02 7.81650E+02-4.93517E+02-1.77220E-09 3.74854E-10
 -1       853-1.47629E+03-5.51255E+02 1.25255E+03-4.29922E+02-1.89232E-09 6.38067E-10
 -1       854 1.87373E+02 2.51414E+03 3.71254E+03-9.12383E+02 1.70246E-10-6.65864E-10
 -1       855-2.56812E+03-2.47475E+03 5.34734E+03-6.63753E+01-1.74396E-10 4.72255E-10
 -1       856-1.21119E+05 2.68417E+03-1.24500E+04 1.91273E+03-1.94655E-09-1.36015E-09
 -1       857-1.25538E+05-3.76415E+03-7.91709E+03 6.89379E+03-6.97355E-10-8.76639E-10
 -1       858-1.22981E+05 2.68967E+02-3.22393E+03 1.88359E+03 5.60590E-10-4.19959E-10
 -1       859-1.23478E+05-3.50160E+02-1.78866E+03 6.92973E+03 3.93857E-09-7.61105E-10
 -1       860-1.23187E+05 3.04317E+01-8.20263E+02 1.87653E+03 3.91856E-09-7.42489E-10
 -1       861-1.23251E+05-2.41556E+01-4.41433E+02 6.93961E+03-1.72076E-09-9.98028E-10
 -1       862-1.23213E+05 6.39457E+00-2.33636E+02 1.87366E+03 4.03787E-09-2.04318E-09
 -1       863-1.23226E+05 5.39205E+00-1.67362E+02 6.94314E+03 7.09998E-09-2.99229E-09
 -1       864-1.23215E+05 5.42923E+00-1.73896E+02 1.87299E+03 2.89752E-09-1.86931E-09
 -1       865-1.23239E+05-1.05894E+01-2.84750E+02 6.94196E+03 6.15427E-09-1.96432E-09
 -1       866-1.23200E+05 1.98399E+01-5.06918E+02 1.87484E+03 7.28733E-10-2.04792E-09
 -1       867-1.23376E+05-2.08915E+02-1.09229E+03 6.93515E+03-2.03090E-09-1.74485E-09
 -1       868-1.23074E+05 1.64729E+02-1.96356E+03 1.87983E+03-2.01226E-10-2.01055E-09
 -1       869-1.24628E+05-2.28658E+03-4.81812E+03 6.90535E+03-1.00272E-09-2.08183E-09
 -1       870-1.21941E+05 1.63377E+03-7.57600E+03 1.90485E+03 2.78305E-09-1.42199E-09
 -1       871-1.21020E+03-1.17432E+04-2.28171E+03 3.44850E+04-1.40199E-09 2.22531E-09
 -1       872-3.74146E+02-1.21536E+04-6.66315E+02 4.04818E+04-2.68392E-09 1.68257E-09
 -1       873 3.65453E+01-1.19943E+04 6.75811E+02 3.44183E+04-1.35469E-09 5.37852E-09
 -1       874 8.01379E+02-1.14513E+04 2.51598E+03 4.05107E+04-1.85628E-09 9.07153E-09
 -1       875 2.58324E+03-1.24565E+04 5.42387E+03 3.44578E+04-1.72895E-09 3.86876E-09
 -1       876 1.48664E+05 1.89125E+04 1.40169E+04 5.84564E+04 2.25839E-09-1.20508E-09
 -1       877 1.51770E+05 2.94765E+04 8.78777E+03 6.05626E+04 3.43150E-09-3.95266E-09
 -1       878 1.51047E+05 2.19586E+04 3.30757E+03 5.81559E+04 1.48259E-09-2.62457E-09
 -1       879 1.49026E+05 2.54391E+04 1.80806E+03 6.11314E+04 8.43556E-10-1.21614E-09
 -1       880 1.51309E+05 2.22812E+04 7.72023E+02 5.81368E+04-2.10400E-09-2.73405E-09
 -1       881 1.48723E+05 2.50239E+04 4.12586E+02 6.11681E+04-8.38355E-10-1.32188E-09
 -1       882 1.51339E+05 2.23182E+04 2.21500E+02 5.81388E+04-4.08471E-09 9.46528E-10
 -1       883 1.48694E+05 2.49839E+04 1.90791E+02 6.11657E+04-2.33334E-09-8.19981E-10
 -1       884 1.51336E+05 2.23183E+04 2.50375E+02 5.81396E+04 6.23292E-10-1.00641E-10
 -1       885 1.48736E+05 2.50306E+04 4.92128E+02 6.11635E+04 3.67433E-09-7.94159E-10
 -1       886 1.51298E+05 2.22758E+04 9.33933E+02 5.81395E+04 1.95666E-09 3.35945E-11
 -1       887 1.49107E+05 2.55317E+04 2.19485E+03 6.11136E+04 3.21029E-09 2.67573E-09
 -1       888 1.50976E+05 2.18859E+04 4.01788E+03 5.81643E+04 3.09008E-09 1.65983E-11
 -1       889 1.52441E+05 3.04375E+04 1.06770E+04 6.04215E+04 1.06223E-09 6.63931E-10
 -1       890 1.48082E+05 1.81835E+04 1.70306E+04 5.85272E+04-7.61929E-10-1.81899E-12
 -1       891 5.20489E+02-6.67095E+04-2.62106E+03 8.14396E+03-7.16909E-10 6.00267E-10
 -1       892-8.67218E+02-6.76449E+04-2.08753E+03 2.89530E+04-3.42811E-09-1.18484E-09
 -1       893 1.36149E+02-6.70057E+04-1.66173E+03 8.11246E+03-1.14358E-09 4.73534E-10
 -1       894-1.32982E+03-6.79237E+04-2.92807E+03 2.89509E+04-3.11775E-09-3.70903E-10
 -1       895 8.79697E+02-6.64287E+04-4.22227E+03 8.14606E+03-8.41965E-10-1.34833E-10
 -1       896 2.96120E+05-1.98418E+03 4.58827E+03 3.10537E+02 2.40640E-10 9.29049E-10
 -1       897 2.98104E+05 2.29679E+03 3.25170E+03-3.13220E+02 1.30494E-10 8.78913E-10
 -1       898 2.96893E+05-3.10918E+02 1.19320E+03 1.75366E+02 2.69633E-11 6.18627E-10
 -1       899 2.97203E+05 3.60494E+02 7.59060E+02-1.03161E+02 2.05270E-10 5.94241E-10
 -1       900 2.97020E+05-4.93221E+01 3.26940E+02 1.00476E+02 1.34190E-10 4.21778E-10
 -1       901 2.97058E+05 6.27729E+01 2.28520E+02 2.48248E+01-5.09665E-10 3.92532E-10
 -1       902 2.97038E+05-1.33980E+01 1.74919E+02 4.73782E+01 1.04725E-10 3.78896E-10
 -1       903 2.97056E+05 5.32671E+01 2.59634E+02 1.36188E+02-5.14928E-10 1.90344E-10
 -1       904 2.97022E+05-3.98336E+01 4.12795E+02-1.08887E+01-1.56364E-11 1.07917E-10
 -1       905 2.97184E+05 2.90295E+02 9.17542E+02 2.87376E+02 5.46265E-11 1.23919E-11
 -1       906 2.96911E+05-2.50320E+02 1.56574E+03-1.03813E+02 4.65086E-11-1.71212E-10
 -1       907 2.97959E+05 1.85632E+03 3.85563E+03 5.55245E+02-8.99016E-10-2.45109E-10
 -1       908 2.96247E+05-1.60487E+03 6.13049E+03-2.78762E+02-2.18659E-10-5.43196E-10
 -1       909 3.02625E+05 1.18599E+04 1.67778E+04 1.08224E+03 1.71834E-09-1.03955E-09
 -1       910 2.92243E+05-1.02464E+04 2.36840E+04-6.30806E+02 1.61097E-09-1.45792E-09
 -1       911 1.98218E+04 2.80557E+02-8.87159E+02-7.73931E+02-1.91642E-09-1.30740E-10
 -1       912 2.07241E+04-3.35978E+02-3.99101E+02 3.09448E+03 1.10288E-09 1.41802E-09
 -1       913 2.00497E+04 5.04894E+01-2.32087E+02-6.97480E+02 5.04770E-11 2.61710E-09
 -1       914 2.03450E+04-5.96196E+01-8.54252E+01 2.97976E+03-6.68188E-08 4.01626E-09
 -1       915 2.01881E+04 1.34583E+01-4.11621E+01-6.59215E+02-2.05685E-05 5.12942E-08
 -1       916 2.02088E+04-1.16171E+01-2.88428E+00 2.94187E+03-4.10159E-05 1.06331E-07
 -1       917 2.01819E+04 5.37531E+00 3.24915E+01-6.59599E+02-2.05681E-05 5.11242E-08
 -1       918 2.03886E+04 9.82748E+00 1.29183E+02 2.98101E+03-6.76678E-08 4.27836E-09
 -1       919 2.00125E+04-1.09408E+01 1.52200E+02-6.98351E+02-2.13394E-09 2.47530E-09
 -1       920 2.09640E+04 1.20730E+02 5.62064E+02 3.09793E+03-1.10950E-09 1.92366E-09
 -1       921 1.96194E+04-1.14624E+02 6.47281E+02-7.76510E+02-1.40142E-09-4.31385E-10
 -1       922 2.22661E+04 8.81218E+02 2.15703E+03 3.29617E+03 3.56044E-09-2.05387E-09
 -1       923 1.87337E+04-7.87409E+02 2.72367E+03-8.96691E+02 2.32473E-09-4.64411E-09
 -1       924 2.60157E+04 5.83890E+03 8.68189E+03 3.59951E+03 6.80936E-09-7.59155E-09
 -1       925 1.59066E+04-5.09430E+03 1.09397E+04-1.08023E+03 4.19965E-09-1.05028E-08
 -1       926-2.55282E+05 5.68977E+03-1.32300E+04 4.83895E+03-1.65275E-09-1.42054E-08
 -1       927-2.60445E+05-6.54206E+03-9.23026E+03-8.46060E+03 1.66732E-08-1.60080E-08
 -1       928-2.58204E+05 8.82494E+02-3.55434E+03 4.23307E+03-3.10877E-09-1.22154E-08
 -1       929-2.55293E+05-9.36088E+02-1.50718E+03-5.73255E+03-1.60633E-08-1.21223E-08
 -1       930-2.60366E+05 3.62522E+01-1.34874E+03 2.11027E+03 9.26093E-10-6.23243E-09
 -1       931-2.52617E+05 5.03224E+00 6.22676E+02-7.54968E+02 8.23064E-10-3.56830E-09
 -1       932-2.60822E+05-1.02833E+02-7.03624E+02-7.44445E+02-2.36560E-09 1.62370E-09
 -1       933-2.53714E+05 1.27494E+02 9.25495E+02 4.58775E+03 8.73968E-11 5.45039E-09
 -1       934-2.59300E+05-6.21137E+01 6.40040E+01-3.23197E+03 2.77367E-09 8.24258E-09
 -1       935-2.56558E+05 2.80699E+02 1.08636E+03 8.24779E+03 2.09260E-09 1.19165E-08
 -1       936-2.58055E+05-1.96076E+02 1.51442E+03-4.40484E+03 1.59242E-09 1.14866E-08
 -1       937-2.56463E+05 1.81046E+03 3.84222E+03 8.84777E+03 1.07305E-08 1.32861E-08
 -1       938-2.59411E+05-1.57746E+03 5.81293E+03-3.83212E+03 1.13832E-08 9.41168E-09
 -1       939-2.49336E+05 1.17928E+04 1.69608E+04 6.18689E+03 5.82403E-09 8.98626E-09
 -1       940-2.65113E+05-1.02219E+04 2.24759E+04-1.74349E+03-5.74119E-10 3.57159E-09
 -1       941 1.77781E+06-8.91999E+04 2.06682E+05 2.04436E+02-1.78871E-07 2.91038E-10
 -1       942 1.86725E+06 1.03285E+05 1.46150E+05 6.06054E+01-3.68897E-07-1.78989E-09
 -1       943 1.81234E+06-1.39860E+04 5.35390E+04 1.46327E+02-2.97220E-07 3.38332E-10
 -1       944 1.82709E+06 1.61879E+04 3.36783E+04 1.26638E+02-2.21315E-07-8.94943E-10
 -1       945 1.81805E+06-2.18912E+03 1.38066E+04 1.38422E+02-1.41400E-07 1.41154E-09
 -1       946 1.82047E+06 2.57067E+03 8.28587E+03 1.35549E+02-6.34003E-08 2.35013E-09
 -1       947 1.81899E+06-3.79932E+02 4.13495E+03 1.37420E+02 8.16058E-09 1.88913E-09
 -1       948 1.81950E+06 7.03860E+02 3.42414E+03 1.36022E+02 7.84157E-08 1.90411E-09
 -1       949 1.81903E+06-3.23600E+02 3.62808E+03 1.37949E+02 3.28613E-07-2.37594E-09
 -1       950 1.82021E+06 2.08635E+03 6.82009E+03 1.30592E+02 5.85850E-07 2.44574E-09
 -1       951 1.81828E+06-1.76146E+03 1.11681E+04 1.42849E+02 1.80164E-06-3.70892E-09
 -1       952 1.82551E+06 1.30080E+04 2.70960E+04 9.01097E+01 3.01092E-06-1.22418E-09
 -1       953 1.81370E+06-1.12364E+04 4.30289E+04 1.78429E+02 1.50725E-06 3.86353E-09
 -1       954 1.85778E+06 8.29770E+04 1.17421E+05-2.06684E+02 7.22272E-09 3.35604E-09
 -1       955 1.78594E+06-7.16633E+04 1.66017E+05 4.39612E+02-8.68152E-09 6.83940E-10
 -1       956-9.19156E+04-1.62057E+03-3.44994E+03 1.24687E+04-1.21781E-09 5.35238E-10
 -1       957-9.25504E+04-5.17553E+02-1.74414E+03 1.45238E+04-3.17186E-10-9.19727E-11
 -1       958-9.21982E+04-5.94059E+01-7.84367E+02 1.23947E+04 1.21963E-09-8.75275E-10
 -1       959-9.22544E+04-1.06912E+01-3.99202E+02 1.46048E+04-7.10088E-10-7.59314E-10
 -1       960-9.22269E+04 1.18194E+01-1.93692E+02 1.23873E+04-1.90130E-09-3.27532E-10
 -1       961-9.22312E+04 1.21459E+01-1.02079E+02 1.46130E+04-3.55374E-09 2.08047E-11
 -1       962-9.22332E+04 1.16935E+01-5.71523E+01 1.23865E+04-1.31467E-09-6.64159E-10
 -1       963-9.22305E+04 1.28982E+01-4.36848E+01 1.46140E+04-2.69608E-09-2.01794E-10
 -1       964-9.22350E+04 1.23950E+01-5.02925E+01 1.23863E+04-1.01431E-09-5.16820E-10
 -1       965-9.22341E+04 1.38993E+01-8.46787E+01 1.46138E+04 1.11952E-09-1.96678E-10
 -1       966-9.22326E+04 1.40390E+01-1.57679E+02 1.23867E+04-2.63935E-09 1.27329E-10
 -1       967-9.22559E+04-2.99026E+00-3.23721E+02 1.46095E+04-1.13050E-09 5.38989E-10
 -1       968-9.22117E+04-4.21682E+01-6.35182E+02 1.23907E+04-4.88114E-09-9.97829E-10
 -1       969-9.24982E+04-4.12191E+02-1.41256E+03 1.45653E+04-8.75718E-09-1.30564E-09
 -1       970-9.19847E+04-1.30573E+03-2.79370E+03 1.24315E+04-4.90013E-09-3.95630E-11
 -1       971-1.74986E+05 2.20712E+03-1.02423E+04 1.92495E+03 1.28671E-09 2.36469E-11
 -1       972-1.78612E+05-3.09599E+03-6.51331E+03 6.98065E+03 1.24612E-09-7.58519E-10
 -1       973-1.76518E+05 2.20944E+02-2.65416E+03 1.89034E+03-2.57614E-10-2.99906E-10
 -1       974-1.76920E+05-2.86994E+02-1.47526E+03 7.02526E+03 5.16138E-10 5.24665E-10
 -1       975-1.76687E+05 2.51895E+01-6.82845E+02 1.88014E+03 4.34738E-10-7.61418E-10
 -1       976-1.76735E+05-1.84463E+01-3.79447E+02 7.04023E+03-1.58479E-09-8.52737E-10
 -1       977-1.76709E+05 5.96698E+00-2.24433E+02 1.87533E+03 3.78407E-09-1.31558E-09
 -1       978-1.76718E+05 4.41179E+00-2.04075E+02 7.04657E+03 7.61334E-09-2.82469E-10
 -1       979-1.76707E+05 7.19518E+00-2.72512E+02 1.87379E+03 2.74360E-09-1.35089E-09
 -1       980-1.76748E+05-2.80919E+01-5.06037E+02 7.04615E+03 3.24087E-09-5.09814E-13
 -1       981-1.76678E+05 3.50872E+01-9.35402E+02 1.87576E+03 3.21052E-10-8.35826E-10
 -1       982-1.77009E+05-3.98476E+02-2.03773E+03 7.03806E+03-1.81245E-09-4.81776E-10
 -1       983-1.76444E+05 3.07382E+02-3.67112E+03 1.88194E+03 1.31411E-09-1.79443E-09
 -1       984-1.79356E+05-4.28559E+03-9.01620E+03 7.00580E+03-3.10308E-10 5.55360E-10
 -1       985-1.74324E+05 3.05876E+03-1.41769E+04 1.90841E+03 1.02500E-09-9.71340E-10
 -3
    1PSTEP                        29          15           1          
  100CL  115 2.48751E-01         841                     0   15           1
 -4  DISP        4    1
 -5  D1          1    2    1    0
 -5  D2          1    2    2    0
 -5  D3          1    2    3    0
 -5  ALL         1    2    0    0    1ALL
 -1         1 3.10638E-05 0.00000E+00 0.00000E+00
 -1         2 2.33911E-05 0.00000E+00 0.00000E+00
 -1         3 1.97526E-05 0.00000E+00 0.00000E+00
 -1         4 1.71268E-05 0.00000E+00 0.00000E+00
 -1         5 1.58799E-05 0.00000E+00 0.00000E+00
 -1         8 2.45573E-05-3.09697E-07 0.00000E+00
 -1         9 1.91595E-05 1.91187E-07 0.00000E+00
 -1        10 1.84610E-05-7.27307E-07 0.00000E+00
 -1        11 1.69127E-05-1.40027E-07 0.00000E+00
 -1        12 1.53426E-05 3.68618E-07 0.00000E+00
 -1        15 1.11712E-05-6.03691E-07 0.00000E+00
 -1        16 1.44728E-05 1.79018E-07 0.00000E+00
 -1        17 1.32257E-05-1.47757E-06 0.00000E+00
 -1        18 1.32766E-05-2.82588E-07 0.00000E+00
 -1        19 1.39040E-05 7.30856E-07 0.00000E+00
 -1        20 1.41123E-05 7.87546E-06 0.00000E+00
 -1        21 1.41055E-05 1.88038E-05 0.00000E+00
 -1        22 4.19573E-06-4.19824E-07 0.00000E+00
 -1        23 5.75521E-06 6.13680E-07 0.00000E+00
 -1        24 5.45889E-06-1.76861E-06 0.00000E+00
 -1        25 1.18511E-05-1.83869E-07 0.00000E+00
 -1        26 1.23944E-05 9.70721E-07 0.00000E+00
 -1        27 1.18000E-05 7.59094E-06 0.00000E+00
 -1        28 1.10863E-05 1.85339E-05 0.00000E+00
 -1        29 0.00000E+00 0.00000E+00 0.00000E+00
 -1        30 1.68421E-06 8.09057E-07 0.00000E+00
 -1        31 1.71965E-06-1.61171E-06 0.00000E+00
 -1        32 0.00000E+00 0.00000E+00 0.00000E+00
 -1        33 1.04467E-05 1.50778E-06 0.00000E+00
 -1        34 9.91135E-06 7.56352E-06 0.00000E+00
 -1        35 8.88770E-06 1.83891E-05 0.00000E+00
 -1        36 3.05995E-05-3.64971E-20 6.61744E-24
 -1        37 3.01200E-05-7.39853E-20 0.00000E+00
 -1        38 2.96415E-05-6.05473E-20-1.32349E-23
 -1        39 2.91600E-05 2.04384E-20 6.61744E-24
 -1        40 2.86786E-05 1.20428E-19-1.32349E-23
 -1        41 2.81965E-05 1.59231E-19-6.61744E-24
 -1        42 2.77144E-05 1.03254E-19 0.00000E+00
 -1        43 2.72321E-05-1.38422E-20 6.61744E-24
 -1        44 2.67499E-05-1.74348E-19 1.32349E-23
 -1        45 2.62677E-05-2.33699E-19 6.61744E-24
 -1        46 2.57855E-05-1.79329E-19-1.32349E-23
 -1        47 2.53037E-05-5.01553E-20 0.00000E+00
 -1        48 2.48220E-05-1.57460E-20 0.00000E+00
 -1        49 2.43422E-05-5.90400E-22 6.61744E-24
 -1        50 2.38617E-05 2.18731E-20 0.00000E+00
 -1        51 3.05690E-05-5.28399E-08 0.00000E+00
 -1        52 2.97533E-05-1.03362E-07 0.00000E+00
 -1        53 2.86789E-05-1.53456E-07 0.00000E+00
 -1        54 2.74110E-05-2.03805E-07 0.00000E+00
 -1        55 2.60152E-05-2.55090E-07 6.20385E-25
 -1        56 3.04397E-05-2.41487E-07 1.32349E-23
 -1        57 2.97958E-05-4.99119E-07 6.61744E-24
 -1        58 2.91520E-05-7.53132E-07 0.00000E+00
 -1        59 2.84991E-05-9.94639E-07-1.32349E-23
 -1        60 2.78369E-05-1.21177E-06 2.64698E-23
 -1        61 2.71610E-05-1.39461E-06 0.00000E+00
 -1        62 2.64687E-05-1.53377E-06 2.64698E-23
 -1        63 2.57566E-05-1.62072E-06-1.32349E-23
 -1        64 2.50223E-05-1.64818E-06 2.64698E-23
 -1        65 2.42633E-05-1.60969E-06 0.00000E+00
 -1        66 2.34778E-05-1.50053E-06 0.00000E+00
 -1        67 2.26651E-05-1.31675E-06 0.00000E+00
 -1        68 2.18240E-05-1.05668E-06-1.32349E-23
 -1        69 2.09575E-05-7.18214E-07 0.00000E+00
 -1        70 2.00615E-05-3.04374E-07 0.00000E+00
 -1        71 2.31629E-05 9.48114E-21 0.00000E+00
 -1        72 2.29350E-05 1.68898E-19 3.30872E-24
 -1        73 2.27071E-05 2.76359E-19 0.00000E+00
 -1        74 2.24793E-05 3.75973E-19-3.30872E-24
 -1        75 2.22514E-05 5.13013E-19 0.00000E+00
 -1        76 2.20236E-05 6.77005E-19 3.30872E-24
 -1        77 2.17958E-05 7.45595E-19 0.00000E+00
 -1        78 2.15680E-05 7.02389E-19 0.00000E+00
 -1        79 2.13402E-05 6.27220E-19 0.00000E+00
 -1        80 2.11125E-05 5.16109E-19 3.30872E-24
 -1        81 2.08848E-05 3.47260E-19 0.00000E+00
 -1        82 2.06572E-05 1.86962E-19-3.30872E-24
 -1        83 2.04296E-05 1.23454E-19 0.00000E+00
 -1        84 2.02028E-05 1.36038E-19 0.00000E+00
 -1        85 1.99757E-05 6.66332E-20 0.00000E+00
 -1        86 2.32037E-05 2.40849E-08-3.30872E-24
 -1        87 2.26450E-05 5.88002E-08-8.27181E-25
 -1        88 2.18403E-05 9.26102E-08 4.13590E-25
 -1        89 2.09145E-05 1.27163E-07 0.00000E+00
 -1        90 1.99826E-05 1.62214E-07 1.65436E-24
 -1        91 2.24697E-05 1.63066E-06 6.61744E-24
 -1        92 2.02486E-05 6.68855E-06 3.30872E-24
 -1        93 1.76377E-05 1.27703E-05-6.61744E-24
 -1        94 1.55563E-05 1.74619E-05 0.00000E+00
 -1        95 1.46206E-05 1.91245E-05 0.00000E+00
 -1        96 1.54204E-05 1.61516E-05 0.00000E+00
 -1        97 1.75756E-05 9.51617E-06 6.61744E-24
 -1        98 2.06988E-05 2.38657E-07 3.30872E-24
 -1        99 2.38735E-05-9.17930E-06 6.61744E-24
 -1       100 2.61829E-05-1.62341E-05 0.00000E+00
 -1       101 2.71832E-05-1.97464E-05 0.00000E+00
 -1       102 2.64361E-05-1.85839E-05 0.00000E+00
 -1       103 2.44785E-05-1.42176E-05 0.00000E+00
 -1       104 2.18751E-05-8.15236E-06 0.00000E+00
 -1       105 1.95585E-05-2.84142E-06-6.61744E-24
 -1       106 1.95897E-05-1.50334E-19 0.00000E+00
 -1       107 1.94253E-05-5.41646E-19-3.30872E-24
 -1       108 1.92611E-05-1.17523E-18 6.61744E-24
 -1       109 1.90965E-05-1.91721E-18 3.30872E-24
 -1       110 1.89320E-05-2.67672E-18 0.00000E+00
 -1       111 1.87674E-05-3.25775E-18 3.30872E-24
 -1       112 1.86028E-05-3.55972E-18 0.00000E+00
 -1       113 1.84382E-05-3.59322E-18 0.00000E+00
 -1       114 1.82736E-05-3.34888E-18 0.00000E+00
 -1       115 1.81091E-05-2.88594E-18 3.30872E-24
 -1       116 1.79445E-05-2.33470E-18 6.61744E-24
 -1       117 1.77800E-05-1.76697E-18 0.00000E+00
 -1       118 1.76156E-05-1.11967E-18-3.30872E-24
 -1       119 1.74518E-05-5.09418E-19 0.00000E+00
 -1       120 1.72877E-05-1.33474E-19 0.00000E+00
 -1       121 1.97430E-05-1.21483E-07 0.00000E+00
 -1       122 1.96851E-05-2.42603E-07-1.65436E-24
 -1       123 1.95534E-05-3.63739E-07 0.00000E+00
 -1       124 1.93223E-05-4.84855E-07 0.00000E+00
 -1       125 1.89666E-05-6.05997E-07 3.30872E-24
 -1       126 1.87262E-05 2.39446E-06 3.30872E-24
 -1       127 1.58553E-05 9.64172E-06 0.00000E+00
 -1       128 1.15970E-05 2.04944E-05-3.30872E-24
 -1       129 6.42821E-06 3.36928E-05 1.65436E-24
 -1       130 1.06333E-06 4.73945E-05 0.00000E+00
 -1       131-3.77961E-06 5.97557E-05 1.65436E-24
 -1       132-7.51951E-06 6.92651E-05 0.00000E+00
 -1       133-9.59124E-06 7.44206E-05-1.65436E-24
 -1       134-9.85754E-06 7.47997E-05-3.30872E-24
 -1       135-8.19463E-06 7.00013E-05 0.00000E+00
 -1       136-4.95377E-06 6.09113E-05-3.30872E-24
 -1       137-4.84517E-07 4.84399E-05-1.65436E-24
 -1       138 4.57067E-06 3.43455E-05-3.30872E-24
 -1       139 9.57329E-06 2.03976E-05 0.00000E+00
 -1       140 1.38972E-05 8.32885E-06 3.30872E-24
 -1       141 1.70478E-05-6.20784E-20-3.30872E-24
 -1       142 1.69692E-05-9.83356E-20 0.00000E+00
 -1       143 1.68906E-05-1.05193E-19 0.00000E+00
 -1       144 1.68121E-05-6.80861E-20 1.65436E-24
 -1       145 1.67336E-05-5.08484E-20 0.00000E+00
 -1       146 1.66551E-05 4.33280E-21 0.00000E+00
 -1       147 1.65765E-05 1.06167E-19 3.30872E-24
 -1       148 1.64981E-05 1.88955E-19 0.00000E+00
 -1       149 1.64196E-05 2.18427E-19 1.65436E-24
 -1       150 1.63411E-05 2.42059E-19 8.27181E-25
 -1       151 1.62627E-05 2.36054E-19 0.00000E+00
 -1       152 1.61846E-05 1.87888E-19 0.00000E+00
 -1       153 1.61064E-05 9.44432E-20 0.00000E+00
 -1       154 1.60293E-05 2.24432E-20-8.27181E-25
 -1       155 1.59518E-05-1.27079E-20 0.00000E+00
 -1       156 1.64072E-05-2.24907E-08 0.00000E+00
 -1       157 1.42787E-05-4.41680E-08-8.27181E-25
 -1       158 1.20127E-05-6.63146E-08 0.00000E+00
 -1       159 1.08807E-05-8.64432E-08-4.13590E-25
 -1       160 1.21067E-05-1.07037E-07 0.00000E+00
 -1       161 1.70454E-05-5.89304E-08 3.30872E-24
 -1       162 1.69825E-05-1.67471E-07-1.65436E-24
 -1       163 1.69318E-05-3.08335E-07 0.00000E+00
 -1       164 1.68866E-05-4.64146E-07 0.00000E+00
 -1       165 1.68392E-05-6.14012E-07 3.30872E-24
 -1       166 1.67817E-05-7.37081E-07-1.65436E-24
 -1       167 1.67088E-05-8.18746E-07 0.00000E+00
 -1       168 1.66148E-05-8.44566E-07 1.65436E-24
 -1       169 1.64990E-05-8.11767E-07 3.30872E-24
 -1       170 1.63602E-05-7.17797E-07 0.00000E+00
 -1       171 1.62024E-05-5.73149E-07-3.30872E-24
 -1       172 1.60298E-05-3.88436E-07-1.65436E-24
 -1       173 1.58494E-05-1.82851E-07-1.65436E-24
 -1       174 1.56695E-05 2.48246E-08 0.00000E+00
 -1       175 1.54960E-05 2.14359E-07 0.00000E+00
 -1       191 1.58613E-05 6.13898E-08 0.00000E+00
 -1       192 1.58135E-05 1.22860E-07 0.00000E+00
 -1       193 1.57368E-05 1.84349E-07 0.00000E+00
 -1       194 1.56322E-05 2.45831E-07 0.00000E+00
 -1       195 1.55005E-05 3.07281E-07 0.00000E+00
 -1       251 2.42551E-05 3.30481E-06 6.61744E-24
 -1       252 2.39178E-05 1.17793E-05 3.30872E-24
 -1       253 2.35721E-05 2.13540E-05 0.00000E+00
 -1       254 2.32463E-05 2.82534E-05-3.30872E-24
 -1       255 2.29394E-05 3.01743E-05 0.00000E+00
 -1       256 2.26206E-05 2.48813E-05 3.30872E-24
 -1       257 2.22610E-05 1.40755E-05 6.61744E-24
 -1       258 2.18557E-05-4.66935E-07 3.30872E-24
 -1       259 2.14516E-05-1.49193E-05 0.00000E+00
 -1       260 2.10946E-05-2.54558E-05-3.30872E-24
 -1       261 2.07776E-05-3.03993E-05 6.61744E-24
 -1       262 2.04701E-05-2.81491E-05 0.00000E+00
 -1       263 2.01428E-05-2.10302E-05-6.61744E-24
 -1       264 1.97969E-05-1.14336E-05 3.30872E-24
 -1       265 1.94607E-05-3.11404E-06 0.00000E+00
 -1       266 2.33794E-05-3.59774E-07 0.00000E+00
 -1       267 2.21443E-05-4.06575E-07 0.00000E+00
 -1       268 2.05662E-05-4.54056E-07 0.00000E+00
 -1       269 1.83603E-05-5.01751E-07 8.27181E-25
 -1       270 1.53027E-05-5.51705E-07-8.27181E-25
 -1       271 2.36530E-05 5.03378E-07 1.32349E-23
 -1       272 2.28266E-05 1.05544E-06-6.61744E-24
 -1       273 2.20848E-05 1.38312E-06 0.00000E+00
 -1       274 2.14131E-05 1.51649E-06-6.61744E-24
 -1       275 2.08016E-05 1.48844E-06 0.00000E+00
 -1       276 2.02379E-05 1.33181E-06 6.61744E-24
 -1       277 1.97096E-05 1.08020E-06-1.32349E-23
 -1       278 1.92042E-05 7.67614E-07-6.61744E-24
 -1       279 1.87087E-05 4.28333E-07 0.00000E+00
 -1       280 1.82104E-05 9.67986E-08-6.61744E-24
 -1       281 1.76965E-05-1.92627E-07-1.32349E-23
 -1       282 1.71543E-05-4.05713E-07-6.61744E-24
 -1       283 1.65712E-05-5.08705E-07 1.32349E-23
 -1       284 1.59366E-05-4.67634E-07 6.61744E-24
 -1       285 1.52357E-05-2.50913E-07 1.32349E-23
 -1       286 1.91123E-05 8.48577E-07-3.30872E-24
 -1       287 1.90687E-05 1.28609E-06 8.27181E-25
 -1       288 1.90250E-05 1.51188E-06 0.00000E+00
 -1       289 1.89820E-05 1.53451E-06 8.27181E-25
 -1       290 1.89389E-05 1.38119E-06 0.00000E+00
 -1       291 1.88960E-05 1.07946E-06 0.00000E+00
 -1       292 1.88530E-05 6.70481E-07 1.65436E-24
 -1       293 1.88100E-05 1.95599E-07 0.00000E+00
 -1       294 1.87670E-05-2.97786E-07-1.65436E-24
 -1       295 1.87240E-05-7.62241E-07 0.00000E+00
 -1       296 1.86811E-05-1.15300E-06 0.00000E+00
 -1       297 1.86380E-05-1.42541E-06-8.27181E-25
 -1       298 1.85950E-05-1.54568E-06 1.65436E-24
 -1       299 1.85513E-05-1.48033E-06 8.27181E-25
 -1       300 1.85078E-05-1.21290E-06 3.30872E-24
 -1       301 1.83768E-05 1.85772E-07 1.65436E-24
 -1       302 1.75895E-05 1.85891E-07-4.13590E-25
 -1       303 1.68014E-05 1.86929E-07 0.00000E+00
 -1       304 1.60165E-05 1.87739E-07-8.27181E-25
 -1       305 1.52391E-05 1.87140E-07-3.30872E-24
 -1       306 1.85757E-05 6.82722E-07 6.61744E-24
 -1       307 1.80768E-05 9.18439E-07 6.61744E-24
 -1       308 1.76593E-05 9.37698E-07 0.00000E+00
 -1       309 1.73079E-05 7.76427E-07 6.61744E-24
 -1       310 1.70099E-05 4.72145E-07 0.00000E+00
 -1       311 1.67511E-05 6.23879E-08 0.00000E+00
 -1       312 1.65176E-05-4.14885E-07-1.32349E-23
 -1       313 1.62951E-05-9.21561E-07 0.00000E+00
 -1       314 1.60692E-05-1.41940E-06 1.32349E-23
 -1       315 1.58258E-05-1.87019E-06 6.61744E-24
 -1       316 1.55506E-05-2.23592E-06-1.32349E-23
 -1       317 1.52297E-05-2.47876E-06-6.61744E-24
 -1       318 1.48489E-05-2.56138E-06 0.00000E+00
 -1       319 1.43960E-05-2.44643E-06 3.30872E-24
 -1       320 1.38553E-05-2.09842E-06-6.61744E-24
 -1       321 1.83715E-05 7.19425E-07 0.00000E+00
 -1       322 1.82799E-05 3.86385E-06 0.00000E+00
 -1       323 1.81836E-05 8.27913E-06-3.30872E-24
 -1       324 1.80837E-05 1.35337E-05 0.00000E+00
 -1       325 1.79825E-05 1.90450E-05 3.30872E-24
 -1       326 1.78831E-05 2.42294E-05 0.00000E+00
 -1       327 1.77874E-05 2.85622E-05 0.00000E+00
 -1       328 1.76966E-05 3.15218E-05 0.00000E+00
 -1       329 1.76091E-05 3.28332E-05 0.00000E+00
 -1       330 1.75223E-05 3.22278E-05 1.65436E-24
 -1       331 1.74328E-05 2.97807E-05-3.30872E-24
 -1       332 1.73377E-05 2.55745E-05 0.00000E+00
 -1       333 1.72363E-05 2.00069E-05-3.30872E-24
 -1       334 1.71294E-05 1.34815E-05 0.00000E+00
 -1       335 1.70201E-05 6.57366E-06 3.30872E-24
 -1       336 1.77809E-05-8.52699E-07 0.00000E+00
 -1       337 1.69731E-05-9.78177E-07-1.65436E-24
 -1       338 1.60753E-05-1.10368E-06 0.00000E+00
 -1       339 1.51260E-05-1.22894E-06-1.65436E-24
 -1       340 1.41634E-05-1.35423E-06 0.00000E+00
 -1       341 1.63722E-05 4.40850E-06 0.00000E+00
 -1       342 1.07626E-05 1.86731E-05 1.65436E-24
 -1       343 2.62771E-06 3.93493E-05 3.30872E-24
 -1       344-6.97725E-06 6.37008E-05 0.00000E+00
 -1       345-1.65341E-05 8.79317E-05 0.00000E+00
 -1       346-2.45248E-05 1.08246E-04 0.00000E+00
 -1       347-2.99262E-05 1.21976E-04 3.30872E-24
 -1       348-3.17724E-05 1.26475E-04 1.65436E-24
 -1       349-3.01482E-05 1.21718E-04 0.00000E+00
 -1       350-2.51575E-05 1.07733E-04 1.65436E-24
 -1       351-1.78286E-05 8.71968E-05 0.00000E+00
 -1       352-9.15955E-06 6.28392E-05 0.00000E+00
 -1       353-5.03033E-07 3.85180E-05-3.30872E-24
 -1       354 6.78804E-06 1.80920E-05 0.00000E+00
 -1       355 1.17204E-05 4.27227E-06 0.00000E+00
 -1       356 1.68031E-05-6.85078E-06 0.00000E+00
 -1       357 1.66914E-05-1.37495E-05 0.00000E+00
 -1       358 1.65824E-05-2.02464E-05 3.30872E-24
 -1       359 1.64790E-05-2.57531E-05 0.00000E+00
 -1       360 1.63818E-05-2.98637E-05 0.00000E+00
 -1       361 1.62903E-05-3.21777E-05 0.00000E+00
 -1       362 1.62011E-05-3.26257E-05 3.30872E-24
 -1       363 1.61110E-05-3.11454E-05 0.00000E+00
 -1       364 1.60174E-05-2.80294E-05 0.00000E+00
 -1       365 1.59190E-05-2.35771E-05 0.00000E+00
 -1       366 1.58170E-05-1.83337E-05 0.00000E+00
 -1       367 1.57140E-05-1.28476E-05 0.00000E+00
 -1       368 1.56127E-05-7.71231E-06-1.65436E-24
 -1       369 1.55169E-05-3.51957E-06 8.27181E-25
 -1       370 1.54251E-05-6.88173E-07 4.13590E-25
 -1       371 2.15173E-05-1.73131E-07 1.65436E-24
 -1       372 2.21431E-05-1.94050E-07-4.13590E-25
 -1       373 2.01995E-05-2.16071E-07-8.27181E-25
 -1       374 1.70983E-05-2.40280E-07 2.06795E-25
 -1       375 1.43030E-05-2.63753E-07 0.00000E+00
 -1       376 1.98365E-05-8.34940E-06 0.00000E+00
 -1       377 2.38824E-05-1.96426E-05 0.00000E+00
 -1       378 2.84812E-05-3.24613E-05 0.00000E+00
 -1       379 3.30644E-05-4.52382E-05-1.65436E-24
 -1       380 3.70685E-05-5.64162E-05-3.30872E-24
 -1       381 3.99256E-05-6.44486E-05 0.00000E+00
 -1       382 4.13371E-05-6.85585E-05 0.00000E+00
 -1       383 4.10032E-05-6.79905E-05-1.65436E-24
 -1       384 3.90451E-05-6.31249E-05 0.00000E+00
 -1       385 3.55956E-05-5.43610E-05-1.65436E-24
 -1       386 3.11608E-05-4.30431E-05 0.00000E+00
 -1       387 2.62599E-05-3.05237E-05 0.00000E+00
 -1       388 2.15308E-05-1.84471E-05 0.00000E+00
 -1       389 1.76104E-05-8.45568E-06 0.00000E+00
 -1       390 1.49276E-05-1.68827E-06 1.65436E-24
 -1       406 1.51514E-05 4.29334E-07 0.00000E+00
 -1       407 1.49375E-05 4.90098E-07 0.00000E+00
 -1       408 1.47033E-05 5.50830E-07 0.00000E+00
 -1       409 1.44512E-05 6.11415E-07 0.00000E+00
 -1       410 1.41839E-05 6.71686E-07-1.65436E-24
 -1       466 1.13635E-05 3.16737E-06 0.00000E+00
 -1       467 1.15696E-05 5.16072E-06 0.00000E+00
 -1       468 1.17769E-05 5.94821E-06-6.61744E-24
 -1       469 1.19861E-05 6.09011E-06 0.00000E+00
 -1       470 1.21953E-05 5.79547E-06 0.00000E+00
 -1       471 1.24048E-05 5.26920E-06 3.30872E-24
 -1       472 1.26142E-05 4.58977E-06 0.00000E+00
 -1       473 1.28236E-05 3.83423E-06 0.00000E+00
 -1       474 1.30330E-05 3.03804E-06-6.61744E-24
 -1       475 1.32423E-05 2.23630E-06-3.30872E-24
 -1       476 1.34515E-05 1.46105E-06 0.00000E+00
 -1       477 1.36602E-05 7.44584E-07-3.30872E-24
 -1       478 1.38688E-05 1.51282E-07 0.00000E+00
 -1       479 1.40746E-05-2.53312E-07 1.65436E-24
 -1       480 1.42815E-05-3.01217E-07 4.13590E-25
 -1       481 7.40252E-06-5.79811E-07 0.00000E+00
 -1       482 5.42314E-06-5.49364E-07 0.00000E+00
 -1       483 4.66239E-06-5.17297E-07 0.00000E+00
 -1       484 4.55151E-06-4.84723E-07 4.13590E-25
 -1       485 4.56954E-06-4.52092E-07 8.27181E-25
 -1       486 8.41268E-06 6.03330E-06 0.00000E+00
 -1       487 4.09390E-06 1.67015E-05-3.30872E-24
 -1       488-3.50289E-07 2.76956E-05-6.61744E-24
 -1       489-3.49115E-06 3.53033E-05-3.30872E-24
 -1       490-4.54764E-06 3.74256E-05-6.61744E-24
 -1       491-2.78981E-06 3.20079E-05 0.00000E+00
 -1       492 1.17452E-06 2.05653E-05 0.00000E+00
 -1       493 6.73807E-06 4.68260E-06 0.00000E+00
 -1       494 1.25614E-05-1.19251E-05 0.00000E+00
 -1       495 1.73086E-05-2.55325E-05 0.00000E+00
 -1       496 2.01355E-05-3.38582E-05 6.61744E-24
 -1       497 2.01875E-05-3.46854E-05 0.00000E+00
 -1       498 1.79156E-05-2.93527E-05 0.00000E+00
 -1       499 1.38165E-05-1.92529E-05 3.30872E-24
 -1       500 9.28863E-06-8.04365E-06 0.00000E+00
 -1       501 1.43907E-05 7.99910E-07 3.30872E-24
 -1       502 1.43125E-05 1.16663E-06-1.65436E-24
 -1       503 1.42342E-05 1.27388E-06 0.00000E+00
 -1       504 1.41565E-05 1.11726E-06 0.00000E+00
 -1       505 1.40789E-05 7.35010E-07 0.00000E+00
 -1       506 1.40013E-05 1.66192E-07 0.00000E+00
 -1       507 1.39236E-05-5.20002E-07-3.30872E-24
 -1       508 1.38460E-05-1.25399E-06 0.00000E+00
 -1       509 1.37683E-05-1.95844E-06-1.65436E-24
 -1       510 1.36908E-05-2.55614E-06 0.00000E+00
 -1       511 1.36133E-05-2.98713E-06 0.00000E+00
 -1       512 1.35359E-05-3.19200E-06 8.27181E-25
 -1       513 1.34585E-05-3.14789E-06 0.00000E+00
 -1       514 1.33811E-05-2.83279E-06-1.65436E-24
 -1       515 1.33035E-05-2.26847E-06 0.00000E+00
 -1       516 1.41321E-05 2.46931E-07 0.00000E+00
 -1       517 1.45831E-05 3.24832E-07 0.00000E+00
 -1       518 1.49359E-05 4.02066E-07-8.27181E-25
 -1       519 1.43000E-05 4.80370E-07 8.27181E-25
 -1       520 1.16007E-05 5.55306E-07 0.00000E+00
 -1       521 1.37251E-05 5.94360E-07 1.32349E-23
 -1       522 1.30521E-05 7.63804E-07 0.00000E+00
 -1       523 1.24566E-05 7.27503E-07 0.00000E+00
 -1       524 1.19229E-05 5.19989E-07 0.00000E+00
 -1       525 1.14391E-05 1.78223E-07 1.32349E-23
 -1       526 1.09915E-05-2.60909E-07 0.00000E+00
 -1       527 1.05661E-05-7.59921E-07 0.00000E+00
 -1       528 1.01490E-05-1.28114E-06 0.00000E+00
 -1       529 9.72612E-06-1.78676E-06 1.32349E-23
 -1       530 9.28327E-06-2.23906E-06 0.00000E+00
 -1       531 8.80649E-06-2.60058E-06-1.32349E-23
 -1       532 8.28219E-06-2.83423E-06 0.00000E+00
 -1       533 7.69657E-06-2.90363E-06-1.32349E-23
 -1       534 7.03817E-06-2.77253E-06 0.00000E+00
 -1       535 6.29141E-06-2.40716E-06 0.00000E+00
 -1       536 1.32248E-05-6.80954E-07 0.00000E+00
 -1       537 1.32274E-05-7.56579E-08 0.00000E+00
 -1       538 1.32302E-05 3.58573E-07 0.00000E+00
 -1       539 1.32334E-05 6.42173E-07 1.03398E-25
 -1       540 1.32368E-05 7.95528E-07 0.00000E+00
 -1       541 1.32403E-05 8.39031E-07-2.58494E-26
 -1       542 1.32439E-05 7.93074E-07 2.26182E-26
 -1       543 1.32474E-05 6.78046E-07 0.00000E+00
 -1       544 1.32510E-05 5.14333E-07 5.16988E-26
 -1       545 1.32545E-05 3.22319E-07 5.16988E-26
 -1       546 1.32581E-05 1.22390E-07 0.00000E+00
 -1       547 1.32617E-05-6.50698E-08 0.00000E+00
 -1       548 1.32653E-05-2.19678E-07 2.06795E-25
 -1       549 1.32689E-05-3.21051E-07 0.00000E+00
 -1       550 1.32726E-05-3.48790E-07-4.13590E-25
 -1       551 1.20639E-05-1.52535E-06-3.03730E-25
 -1       552 1.07702E-05-1.57192E-06-2.06795E-25
 -1       553 9.40316E-06-1.61849E-06-1.65436E-24
 -1       554 8.02260E-06-1.66565E-06 0.00000E+00
 -1       555 6.68824E-06-1.71405E-06 0.00000E+00
 -1       556 1.28874E-05-7.30145E-07 0.00000E+00
 -1       557 1.26152E-05-1.54397E-07 0.00000E+00
 -1       558 1.24015E-05 2.66007E-07 0.00000E+00
 -1       559 1.22397E-05 5.49010E-07 0.00000E+00
 -1       560 1.21227E-05 7.12577E-07 0.00000E+00
 -1       561 1.20437E-05 7.74824E-07 0.00000E+00
 -1       562 1.19960E-05 7.53878E-07 3.30872E-24
 -1       563 1.19727E-05 6.67882E-07 0.00000E+00
 -1       564 1.19670E-05 5.34985E-07 0.00000E+00
 -1       565 1.19720E-05 3.73341E-07 0.00000E+00
 -1       566 1.19811E-05 2.01107E-07 1.65436E-24
 -1       567 1.19873E-05 3.64411E-08 8.27181E-25
 -1       568 1.19840E-05-1.02501E-07-8.27181E-25
 -1       569 1.19644E-05-1.97582E-07-2.84343E-25
 -1       570 1.19218E-05-2.30677E-07 2.06795E-25
 -1       571 1.33144E-05-1.97895E-07-4.13590E-25
 -1       572 1.33532E-05-1.40103E-07-1.03398E-25
 -1       573 1.33924E-05-1.04293E-07-8.27181E-25
 -1       574 1.34317E-05-8.52927E-08 0.00000E+00
 -1       575 1.34710E-05-7.79106E-08-8.27181E-25
 -1       576 1.35104E-05-7.69212E-08 0.00000E+00
 -1       577 1.35498E-05-7.70970E-08 0.00000E+00
 -1       578 1.35892E-05-7.32058E-08 8.27181E-25
 -1       579 1.36287E-05-6.00150E-08 0.00000E+00
 -1       580 1.36681E-05-3.22925E-08 0.00000E+00
 -1       581 1.37075E-05 1.51934E-08 1.65436E-24
 -1       582 1.37469E-05 8.76692E-08 0.00000E+00
 -1       583 1.37863E-05 1.90356E-07 0.00000E+00
 -1       584 1.38256E-05 3.28422E-07 0.00000E+00
 -1       585 1.38649E-05 5.07009E-07 0.00000E+00
 -1       586 1.30727E-05-2.65805E-07 0.00000E+00
 -1       587 1.28387E-05-2.48895E-07 0.00000E+00
 -1       588 1.25871E-05-2.32003E-07 0.00000E+00
 -1       589 1.23302E-05-2.15274E-07-1.03398E-25
 -1       590 1.20808E-05-1.98915E-07 0.00000E+00
 -1       591 1.32155E-05-1.82828E-07 4.13590E-25
 -1       592 1.31590E-05-1.00536E-07 0.00000E+00
 -1       593 1.31075E-05-3.23135E-08 0.00000E+00
 -1       594 1.30600E-05 2.49250E-08 0.00000E+00
 -1       595 1.30153E-05 7.42642E-08 0.00000E+00
 -1       596 1.29724E-05 1.18767E-07-4.13590E-25
 -1       597 1.29302E-05 1.61490E-07 8.27181E-25
 -1       598 1.28874E-05 2.05491E-07-4.13590E-25
 -1       599 1.28431E-05 2.53825E-07 0.00000E+00
 -1       600 1.27960E-05 3.09547E-07 0.00000E+00
 -1       601 1.27450E-05 3.75710E-07 4.13590E-25
 -1       602 1.26889E-05 4.55376E-07 4.13590E-25
 -1       603 1.26267E-05 5.51604E-07-1.03398E-25
 -1       604 1.25574E-05 6.67471E-07-1.80946E-25
 -1       605 1.24798E-05 8.06062E-07 0.00000E+00
 -1       606 1.39184E-05 1.02821E-06 0.00000E+00
 -1       607 1.39318E-05 1.35441E-06 0.00000E+00
 -1       608 1.39450E-05 1.70776E-06 0.00000E+00
 -1       609 1.39580E-05 2.08633E-06 0.00000E+00
 -1       610 1.39709E-05 2.48817E-06-1.65436E-24
 -1       611 1.39839E-05 2.91130E-06 0.00000E+00
 -1       612 1.39968E-05 3.35373E-06 0.00000E+00
 -1       613 1.40096E-05 3.81346E-06-4.13590E-25
 -1       614 1.40225E-05 4.28852E-06 0.00000E+00
 -1       615 1.40354E-05 4.77689E-06 0.00000E+00
 -1       616 1.40483E-05 5.27660E-06 8.27181E-25
 -1       617 1.40611E-05 5.78565E-06 8.27181E-25
 -1       618 1.40740E-05 6.30205E-06 0.00000E+00
 -1       619 1.40868E-05 6.82381E-06 0.00000E+00
 -1       620 1.40996E-05 7.34894E-06 0.00000E+00
 -1       621 1.36246E-05 7.70981E-07 0.00000E+00
 -1       622 1.33520E-05 8.11311E-07 0.00000E+00
 -1       623 1.30897E-05 8.51647E-07-8.27181E-25
 -1       624 1.28406E-05 8.91877E-07 4.13590E-25
 -1       625 1.26078E-05 9.31872E-07 0.00000E+00
 -1       626 1.38170E-05 1.04331E-06-1.65436E-24
 -1       627 1.37181E-05 1.38593E-06 0.00000E+00
 -1       628 1.36088E-05 1.75592E-06 0.00000E+00
 -1       629 1.34904E-05 2.15010E-06 1.65436E-24
 -1       630 1.33641E-05 2.56528E-06 0.00000E+00
 -1       631 1.32311E-05 2.99823E-06 0.00000E+00
 -1       632 1.30927E-05 3.44570E-06 1.65436E-24
 -1       633 1.29500E-05 3.90445E-06 4.13590E-25
 -1       634 1.28043E-05 4.37124E-06 8.27181E-25
 -1       635 1.26568E-05 4.84282E-06 0.00000E+00
 -1       636 1.25087E-05 5.31594E-06 8.27181E-25
 -1       637 1.23612E-05 5.78737E-06 2.06795E-25
 -1       638 1.22156E-05 6.25384E-06 4.13590E-25
 -1       639 1.20729E-05 6.71212E-06 0.00000E+00
 -1       640 1.19342E-05 7.15893E-06 1.03398E-25
 -1       641 1.41126E-05 8.42091E-06 0.00000E+00
 -1       642 1.41124E-05 9.02295E-06 0.00000E+00
 -1       643 1.41123E-05 9.67337E-06 0.00000E+00
 -1       644 1.41120E-05 1.03640E-05 0.00000E+00
 -1       645 1.41117E-05 1.10866E-05-6.46235E-27
 -1       646 1.41114E-05 1.18331E-05-8.07794E-28
 -1       647 1.41111E-05 1.25952E-05 1.61559E-27
 -1       648 1.41107E-05 1.33646E-05 0.00000E+00
 -1       649 1.41104E-05 1.41333E-05 0.00000E+00
 -1       650 1.41100E-05 1.48931E-05 0.00000E+00
 -1       651 1.41097E-05 1.56356E-05 0.00000E+00
 -1       652 1.41093E-05 1.63528E-05 5.16988E-26
 -1       653 1.41089E-05 1.70364E-05 2.06795E-25
 -1       654 1.41082E-05 1.76782E-05 2.06795E-25
 -1       655 1.41077E-05 1.82701E-05 0.00000E+00
 -1       656 1.36406E-05 7.82965E-06 0.00000E+00
 -1       657 1.32338E-05 7.78145E-06 4.13590E-25
 -1       658 1.28691E-05 7.73335E-06-8.27181E-25
 -1       659 1.25238E-05 7.68522E-06 4.13590E-25
 -1       660 1.21751E-05 7.63701E-06 0.00000E+00
 -1       661 1.39605E-05 8.43708E-06 8.27181E-25
 -1       662 1.37942E-05 9.04306E-06-8.27181E-25
 -1       663 1.36138E-05 9.68629E-06-1.65436E-24
 -1       664 1.34222E-05 1.03605E-05 0.00000E+00
 -1       665 1.32213E-05 1.10592E-05 0.00000E+00
 -1       666 1.30137E-05 1.17759E-05-8.27181E-25
 -1       667 1.28017E-05 1.25044E-05 0.00000E+00
 -1       668 1.25878E-05 1.32382E-05 0.00000E+00
 -1       669 1.23742E-05 1.39709E-05-1.65436E-24
 -1       670 1.21634E-05 1.46963E-05 8.27181E-25
 -1       671 1.19577E-05 1.54079E-05 1.65436E-24
 -1       672 1.17595E-05 1.60993E-05-8.27181E-25
 -1       673 1.15713E-05 1.67642E-05-1.65436E-24
 -1       674 1.13950E-05 1.73959E-05 0.00000E+00
 -1       675 1.12335E-05 1.79883E-05 0.00000E+00
 -1       676 1.36010E-05 1.87586E-05-1.65436E-24
 -1       677 1.30967E-05 1.87133E-05 8.27181E-25
 -1       678 1.25928E-05 1.86680E-05-1.65436E-24
 -1       679 1.20897E-05 1.86229E-05 0.00000E+00
 -1       680 1.15874E-05 1.85778E-05 8.27181E-25
 -1       681 4.29262E-06-1.88908E-07 1.65436E-24
 -1       682 4.39254E-06-6.41997E-07 0.00000E+00
 -1       683 4.49194E-06-1.59359E-06 3.30872E-24
 -1       684 4.59159E-06-2.86044E-06 1.65436E-24
 -1       685 4.69099E-06-4.33462E-06-3.30872E-24
 -1       686 4.79036E-06-5.90921E-06-1.65436E-24
 -1       687 4.88972E-06-7.50126E-06 3.30872E-24
 -1       688 4.98919E-06-9.02788E-06-1.65436E-24
 -1       689 5.08888E-06-1.03906E-05-3.30872E-24
 -1       690 5.18885E-06-1.14901E-05 0.00000E+00
 -1       691 5.28915E-06-1.21642E-05 0.00000E+00
 -1       692 5.38948E-06-1.22486E-05 1.65436E-24
 -1       693 5.48942E-06-1.14381E-05 3.30872E-24
 -1       694 5.58680E-06-9.42336E-06 0.00000E+00
 -1       695 5.67927E-06-5.60771E-06 0.00000E+00
 -1       696 3.58098E-06-3.51692E-07 0.00000E+00
 -1       697 2.88973E-06-2.81687E-07-8.27181E-25
 -1       698 2.15442E-06-2.11825E-07 0.00000E+00
 -1       699 1.40741E-06-1.41475E-07-8.27181E-25
 -1       700 6.79111E-07-7.11433E-08 0.00000E+00
 -1       701 3.56552E-06 9.50989E-07-1.65436E-24
 -1       702 2.30367E-06 3.97917E-06 0.00000E+00
 -1       703 5.95518E-07 8.18622E-06 0.00000E+00
 -1       704-1.37685E-06 1.30857E-05-1.65436E-24
 -1       705-3.36305E-06 1.80213E-05 0.00000E+00
 -1       706-5.11353E-06 2.23365E-05 0.00000E+00
 -1       707-6.43813E-06 2.55280E-05 3.30872E-24
 -1       708-7.15013E-06 2.70974E-05 0.00000E+00
 -1       709-7.21594E-06 2.69472E-05 0.00000E+00
 -1       710-6.60539E-06 2.49881E-05 1.65436E-24
 -1       711-5.45500E-06 2.15787E-05 3.30872E-24
 -1       712-3.90251E-06 1.70849E-05-1.65436E-24
 -1       713-2.18381E-06 1.21422E-05 0.00000E+00
 -1       714-5.34057E-07 7.38848E-06 0.00000E+00
 -1       715 8.26554E-07 3.41448E-06 1.65436E-24
 -1       716 5.72015E-06 7.19024E-06 0.00000E+00
 -1       717 5.69480E-06 1.20544E-05 2.06795E-25
 -1       718 5.67566E-06 1.53328E-05 0.00000E+00
 -1       719 5.66015E-06 1.71530E-05 0.00000E+00
 -1       720 5.64613E-06 1.76869E-05 4.13590E-25
 -1       721 5.63209E-06 1.71068E-05 0.00000E+00
 -1       722 5.61718E-06 1.56189E-05 4.13590E-25
 -1       723 5.60102E-06 1.34299E-05 0.00000E+00
 -1       724 5.58377E-06 1.07675E-05 0.00000E+00
 -1       725 5.56581E-06 7.86004E-06 2.06795E-25
 -1       726 5.54778E-06 4.94288E-06 0.00000E+00
 -1       727 5.53010E-06 2.25162E-06 0.00000E+00
 -1       728 5.51343E-06 1.49389E-08 0.00000E+00
 -1       729 5.49666E-06-1.53881E-06 0.00000E+00
 -1       730 5.48125E-06-2.20228E-06 3.30872E-24
 -1       731-8.67307E-08 6.31723E-07 2.06795E-25
 -1       732-2.76730E-06 6.65069E-07-4.13590E-25
 -1       733-3.13543E-06 7.01989E-07 0.00000E+00
 -1       734-2.03605E-06 7.38606E-07 0.00000E+00
 -1       735-1.89741E-07 7.74366E-07-8.27181E-25
 -1       736 1.45051E-06 1.16086E-05-1.65436E-24
 -1       737-5.66033E-06 2.97694E-05 0.00000E+00
 -1       738-1.45780E-05 5.24800E-05 3.30872E-24
 -1       739-2.42679E-05 7.71131E-05 1.65436E-24
 -1       740-3.34933E-05 1.00588E-04 0.00000E+00
 -1       741-4.10283E-05 1.19824E-04 0.00000E+00
 -1       742-4.60851E-05 1.32743E-04 3.30872E-24
 -1       743-4.79195E-05 1.37285E-04-1.65436E-24
 -1       744-4.65717E-05 1.33350E-04-3.30872E-24
 -1       745-4.20984E-05 1.20877E-04 0.00000E+00
 -1       746-3.52659E-05 1.01821E-04-3.30872E-24
 -1       747-2.68201E-05 7.81792E-05 0.00000E+00
 -1       748-1.78577E-05 5.30598E-05 0.00000E+00
 -1       749-9.46699E-06 2.95803E-05 0.00000E+00
 -1       750-2.61289E-06 1.04600E-05 0.00000E+00
 -1       751 5.83426E-06-9.80184E-07-3.30872E-24
 -1       752 6.23377E-06-5.77287E-07 0.00000E+00
 -1       753 6.63182E-06-4.09393E-07-1.32349E-23
 -1       754 7.03444E-06-3.30344E-07 6.61744E-24
 -1       755 7.43719E-06-3.05407E-07 0.00000E+00
 -1       756 7.84084E-06-3.00835E-07-6.61744E-24
 -1       757 8.24461E-06-3.08584E-07 0.00000E+00
 -1       758 8.64854E-06-3.20832E-07 0.00000E+00
 -1       759 9.05247E-06-3.35442E-07 1.32349E-23
 -1       760 9.45632E-06-3.50318E-07-6.61744E-24
 -1       761 9.86010E-06-3.63704E-07-1.32349E-23
 -1       762 1.02632E-05-3.73814E-07 0.00000E+00
 -1       763 1.06663E-05-3.74730E-07 0.00000E+00
 -1       764 1.10661E-05-3.60365E-07 0.00000E+00
 -1       765 1.14670E-05-3.05425E-07 6.61744E-24
 -1       766 3.63181E-06-1.74549E-06 3.30872E-24
 -1       767 1.58494E-07-1.71760E-06-4.13590E-25
 -1       768-3.38901E-06-1.69055E-06-2.58494E-26
 -1       769-5.43891E-06-1.65825E-06 5.16988E-26
 -1       770-4.30111E-06-1.62526E-06-2.06795E-25
 -1       771 4.87378E-06-9.97510E-07 0.00000E+00
 -1       772 4.34282E-06-3.80460E-07 0.00000E+00
 -1       773 3.86381E-06 9.64239E-08 0.00000E+00
 -1       774 3.43176E-06 4.47254E-07 0.00000E+00
 -1       775 3.04161E-06 6.86163E-07 0.00000E+00
 -1       776 2.68808E-06 8.27347E-07 0.00000E+00
 -1       777 2.36586E-06 8.85019E-07 0.00000E+00
 -1       778 2.06962E-06 8.73412E-07 0.00000E+00
 -1       779 1.79403E-06 8.06778E-07 0.00000E+00
 -1       780 1.53373E-06 6.99381E-07 3.30872E-24
 -1       781 1.28339E-06 5.65497E-07 6.61744E-24
 -1       782 1.03770E-06 4.19419E-07 3.30872E-24
 -1       783 7.91338E-07 2.75440E-07 0.00000E+00
 -1       784 5.39217E-07 1.47899E-07 0.00000E+00
 -1       785 2.76268E-07 5.11325E-08 6.61744E-24
 -1       786 1.18829E-05-4.65286E-08 2.06795E-25
 -1       787 1.19168E-05 5.99491E-08 0.00000E+00
 -1       788 1.19506E-05 1.40309E-07 0.00000E+00
 -1       789 1.19847E-05 1.99314E-07 0.00000E+00
 -1       790 1.20189E-05 2.41720E-07 0.00000E+00
 -1       791 1.20532E-05 2.72277E-07 0.00000E+00
 -1       792 1.20874E-05 2.95733E-07 0.00000E+00
 -1       793 1.21217E-05 3.16834E-07 4.13590E-25
 -1       794 1.21560E-05 3.40325E-07 0.00000E+00
 -1       795 1.21902E-05 3.70952E-07 0.00000E+00
 -1       796 1.22245E-05 4.13463E-07 0.00000E+00
 -1       797 1.22587E-05 4.72609E-07 4.13590E-25
 -1       798 1.22930E-05 5.53145E-07 0.00000E+00
 -1       799 1.23270E-05 6.59831E-07-4.13590E-25
 -1       800 1.23611E-05 7.97441E-07 8.27181E-25
 -1       801 1.08070E-05-1.51112E-07 0.00000E+00
 -1       802 8.63023E-06-1.18052E-07 0.00000E+00
 -1       803 5.89048E-06-8.63957E-08 0.00000E+00
 -1       804 3.15852E-06-5.58271E-08-1.65436E-24
 -1       805 1.00515E-06-2.39464E-08-3.30872E-24
 -1       806 1.17586E-05-6.09661E-08 1.65436E-24
 -1       807 1.16698E-05 4.82737E-08 0.00000E+00
 -1       808 1.15848E-05 1.46437E-07 1.65436E-24
 -1       809 1.15029E-05 2.35948E-07 8.27181E-25
 -1       810 1.14232E-05 3.19219E-07-1.65436E-24
 -1       811 1.13450E-05 3.98646E-07 0.00000E+00
 -1       812 1.12673E-05 4.76624E-07 0.00000E+00
 -1       813 1.11892E-05 5.55543E-07 8.27181E-25
 -1       814 1.11099E-05 6.37795E-07-1.65436E-24
 -1       815 1.10285E-05 7.25770E-07 4.13590E-25
 -1       816 1.09440E-05 8.21859E-07 0.00000E+00
 -1       817 1.08556E-05 9.28454E-07 0.00000E+00
 -1       818 1.07624E-05 1.04795E-06-1.65436E-24
 -1       819 1.06636E-05 1.18273E-06 2.06795E-25
 -1       820 1.05584E-05 1.33520E-06-4.13590E-25
 -1       821 1.23595E-05 1.19282E-06 0.00000E+00
 -1       822 1.23224E-05 1.46555E-06 0.00000E+00
 -1       823 1.22853E-05 1.78360E-06 0.00000E+00
 -1       824 1.22479E-05 2.14159E-06 0.00000E+00
 -1       825 1.22104E-05 2.53418E-06 8.27181E-25
 -1       826 1.21729E-05 2.95595E-06-4.13590E-25
 -1       827 1.21353E-05 3.40153E-06-8.27181E-25
 -1       828 1.20977E-05 3.86552E-06 0.00000E+00
 -1       829 1.20601E-05 4.34250E-06 0.00000E+00
 -1       830 1.20225E-05 4.82707E-06 4.13590E-25
 -1       831 1.19849E-05 5.31383E-06-8.27181E-25
 -1       832 1.19474E-05 5.79735E-06 0.00000E+00
 -1       833 1.19099E-05 6.27222E-06 0.00000E+00
 -1       834 1.18727E-05 6.73305E-06 4.13590E-25
 -1       835 1.18355E-05 7.17441E-06 4.13590E-25
 -1       836 1.21395E-05 1.05859E-06 0.00000E+00
 -1       837 1.18059E-05 1.14958E-06-8.27181E-25
 -1       838 1.14316E-05 1.24039E-06 0.00000E+00
 -1       839 1.10549E-05 1.33098E-06-8.27181E-25
 -1       840 1.07138E-05 1.42171E-06 8.27181E-25
 -1       841 1.23114E-05 1.19249E-06 0.00000E+00
 -1       842 1.22070E-05 1.46969E-06 0.00000E+00
 -1       843 1.20842E-05 1.79613E-06 2.58494E-26
 -1       844 1.19452E-05 2.16532E-06-3.23117E-27
 -1       845 1.17925E-05 2.57082E-06 3.23117E-27
 -1       846 1.16286E-05 3.00614E-06-6.46235E-27
 -1       847 1.14560E-05 3.46476E-06 1.29247E-26
 -1       848 1.12771E-05 3.94019E-06 0.00000E+00
 -1       849 1.10943E-05 4.42588E-06 1.29247E-26
 -1       850 1.09101E-05 4.91528E-06 1.29247E-26
 -1       851 1.07269E-05 5.40188E-06 0.00000E+00
 -1       852 1.05473E-05 5.87911E-06 0.00000E+00
 -1       853 1.03735E-05 6.34045E-06 1.03398E-25
 -1       854 1.02081E-05 6.77932E-06 0.00000E+00
 -1       855 1.00535E-05 7.18931E-06 0.00000E+00
 -1       856 1.17577E-05 8.03895E-06 0.00000E+00
 -1       857 1.17132E-05 8.56875E-06 4.13590E-25
 -1       858 1.16688E-05 9.16968E-06 0.00000E+00
 -1       859 1.16240E-05 9.83095E-06 0.00000E+00
 -1       860 1.15791E-05 1.05418E-05-1.65436E-24
 -1       861 1.15341E-05 1.12913E-05 8.27181E-25
 -1       862 1.14891E-05 1.20688E-05 0.00000E+00
 -1       863 1.14440E-05 1.28633E-05 0.00000E+00
 -1       864 1.13990E-05 1.36641E-05 1.65436E-24
 -1       865 1.13539E-05 1.44603E-05 0.00000E+00
 -1       866 1.13089E-05 1.52410E-05-1.65436E-24
 -1       867 1.12640E-05 1.59954E-05 0.00000E+00
 -1       868 1.12191E-05 1.67127E-05-1.65436E-24
 -1       869 1.11744E-05 1.73821E-05 0.00000E+00
 -1       870 1.11297E-05 1.79927E-05 8.27181E-25
 -1       871 1.14487E-05 7.58706E-06 0.00000E+00
 -1       872 1.11265E-05 7.58278E-06 0.00000E+00
 -1       873 1.08226E-05 7.57838E-06-4.13590E-25
 -1       874 1.05260E-05 7.57385E-06 0.00000E+00
 -1       875 1.02259E-05 7.56911E-06 4.13590E-25
 -1       876 1.16949E-05 8.05402E-06 8.27181E-25
 -1       877 1.15661E-05 8.58758E-06 8.27181E-25
 -1       878 1.14145E-05 9.18175E-06 1.65436E-24
 -1       879 1.12438E-05 9.82776E-06 0.00000E+00
 -1       880 1.10571E-05 1.05166E-05 0.00000E+00
 -1       881 1.08577E-05 1.12394E-05-8.27181E-25
 -1       882 1.06489E-05 1.19873E-05 0.00000E+00
 -1       883 1.04340E-05 1.27515E-05 0.00000E+00
 -1       884 1.02162E-05 1.35231E-05 1.65436E-24
 -1       885 9.99904E-06 1.42933E-05 0.00000E+00
 -1       886 9.78565E-06 1.50533E-05 0.00000E+00
 -1       887 9.57934E-06 1.57943E-05 0.00000E+00
 -1       888 9.38345E-06 1.65073E-05 0.00000E+00
 -1       889 9.20092E-06 1.71835E-05-8.27181E-25
 -1       890 9.03559E-06 1.78141E-05 0.00000E+00
 -1       891 1.06540E-05 1.85099E-05 8.27181E-25
 -1       892 1.03075E-05 1.84856E-05 0.00000E+00
 -1       893 1.00023E-05 1.84613E-05-8.27181E-25
 -1       894 9.69368E-06 1.84370E-05 2.06795E-25
 -1       895 9.33699E-06 1.84127E-05 4.13590E-25
 -1       896 1.04891E-07 6.22929E-07 3.30872E-24
 -1       897 2.10554E-07 1.18392E-06 0.00000E+00
 -1       898 3.16197E-07 1.69552E-06 0.00000E+00
 -1       899 4.21997E-07 2.17005E-06 1.65436E-24
 -1       900 5.27815E-07 2.61042E-06 3.30872E-24
 -1       901 6.33674E-07 3.01942E-06 0.00000E+00
 -1       902 7.39548E-07 3.39184E-06-3.30872E-24
 -1       903 8.45434E-07 3.72233E-06-1.65436E-24
 -1       904 9.51332E-07 3.99492E-06 3.30872E-24
 -1       905 1.05722E-06 4.19336E-06-1.65436E-24
 -1       906 1.16310E-06 4.28263E-06 3.30872E-24
 -1       907 1.26883E-06 4.22717E-06 0.00000E+00
 -1       908 1.37451E-06 3.95483E-06-3.30872E-24
 -1       909 1.47934E-06 3.39240E-06 0.00000E+00
 -1       910 1.58407E-06 2.39334E-06 0.00000E+00
 -1       911 1.69007E-06-4.43966E-07 0.00000E+00
 -1       912 1.69655E-06-4.50439E-07-1.03398E-25
 -1       913 1.70261E-06 5.46972E-07 0.00000E+00
 -1       914 1.70762E-06 2.30588E-06 1.03398E-25
 -1       915 1.71163E-06 4.59494E-06 0.00000E+00
 -1       916 1.71493E-06 7.18288E-06 0.00000E+00
 -1       917 1.71805E-06 9.84273E-06-2.06795E-25
 -1       918 1.72155E-06 1.23476E-05 1.03398E-25
 -1       919 1.72588E-06 1.44684E-05 2.06795E-25
 -1       920 1.73127E-06 1.59758E-05 0.00000E+00
 -1       921 1.73750E-06 1.66317E-05 0.00000E+00
 -1       922 1.74378E-06 1.61978E-05 0.00000E+00
 -1       923 1.74856E-06 1.44200E-05 0.00000E+00
 -1       924 1.74905E-06 1.10440E-05 0.00000E+00
 -1       925 1.74180E-06 5.79269E-06 4.13590E-25
 -1       926 1.59603E-06-1.02449E-05 0.00000E+00
 -1       927 1.46794E-06-1.91578E-05 0.00000E+00
 -1       928 1.34409E-06-2.75674E-05-3.30872E-24
 -1       929 1.22943E-06-3.46932E-05 0.00000E+00
 -1       930 1.12546E-06-3.99948E-05 3.30872E-24
 -1       931 1.03075E-06-4.29391E-05 0.00000E+00
 -1       932 9.40034E-07-4.34335E-05 0.00000E+00
 -1       933 8.47406E-07-4.13954E-05 0.00000E+00
 -1       934 7.48539E-07-3.72154E-05 0.00000E+00
 -1       935 6.41158E-07-3.12924E-05 0.00000E+00
 -1       936 5.27616E-07-2.43518E-05 3.30872E-24
 -1       937 4.11955E-07-1.71227E-05 0.00000E+00
 -1       938 2.99514E-07-1.03881E-05-3.30872E-24
 -1       939 1.93800E-07-4.92943E-06-1.65436E-24
 -1       940 9.61084E-08-1.28851E-06 0.00000E+00
 -1       941 6.19170E-07 1.02782E-07 0.00000E+00
 -1       942 1.27253E-06 1.93880E-07 6.61744E-24
 -1       943 1.92372E-06 2.78461E-07-1.32349E-23
 -1       944 2.58142E-06 3.61498E-07 0.00000E+00
 -1       945 3.23931E-06 4.43673E-07-2.64698E-23
 -1       946 3.89849E-06 5.25649E-07 0.00000E+00
 -1       947 4.55783E-06 6.07521E-07 0.00000E+00
 -1       948 5.21738E-06 6.89382E-07-1.32349E-23
 -1       949 5.87696E-06 7.71298E-07 2.64698E-23
 -1       950 6.53637E-06 8.53336E-07 1.32349E-23
 -1       951 7.19566E-06 9.35902E-07 2.64698E-23
 -1       952 7.85392E-06 1.01942E-06 6.61744E-24
 -1       953 8.51204E-06 1.10699E-06-1.32349E-23
 -1       954 9.16491E-06 1.20181E-06 0.00000E+00
 -1       955 9.81955E-06 1.32730E-06 1.32349E-23
 -1       956 1.04139E-05 1.74734E-06 2.06795E-25
 -1       957 1.03806E-05 2.02366E-06 3.10193E-25
 -1       958 1.03471E-05 2.33306E-06-2.06795E-25
 -1       959 1.03136E-05 2.67160E-06 2.06795E-25
 -1       960 1.02800E-05 3.03534E-06-4.13590E-25
 -1       961 1.02464E-05 3.42031E-06 0.00000E+00
 -1       962 1.02128E-05 3.82254E-06-8.27181E-25
 -1       963 1.01792E-05 4.23805E-06 4.13590E-25
 -1       964 1.01456E-05 4.66287E-06 8.27181E-25
 -1       965 1.01120E-05 5.09301E-06 0.00000E+00
 -1       966 1.00784E-05 5.52451E-06 0.00000E+00
 -1       967 1.00448E-05 5.95339E-06 0.00000E+00
 -1       968 1.00113E-05 6.37567E-06 0.00000E+00
 -1       969 9.97775E-06 6.78740E-06 0.00000E+00
 -1       970 9.94434E-06 7.18462E-06-1.65436E-24
 -1       971 9.84913E-06 7.97027E-06-1.65436E-24
 -1       972 9.78515E-06 8.46425E-06 0.00000E+00
 -1       973 9.72116E-06 9.03462E-06 1.65436E-24
 -1       974 9.65688E-06 9.67041E-06 0.00000E+00
 -1       975 9.59252E-06 1.03607E-05 0.00000E+00
 -1       976 9.52809E-06 1.10943E-05 0.00000E+00
 -1       977 9.46362E-06 1.18604E-05 0.00000E+00
 -1       978 9.39913E-06 1.26478E-05-8.27181E-25
 -1       979 9.33463E-06 1.34456E-05-1.65436E-24
 -1       980 9.27015E-06 1.42425E-05 0.00000E+00
 -1       981 9.20569E-06 1.50276E-05-1.65436E-24
 -1       982 9.14131E-06 1.57898E-05 0.00000E+00
 -1       983 9.07702E-06 1.65181E-05-1.65436E-24
 -1       984 9.01310E-06 1.72014E-05-8.27181E-25
 -1       985 8.94920E-06 1.78287E-05-1.65436E-24
 -3
    1PSTEP                        30          15           1          
  100CL  115 2.48751E-01         841                     0   15           1
 -4  STRESS      6    1
 -5  SXX         1    4    1    1
 -5  SYY         1    4    2    2
 -5  SZZ         1    4    3    3
 -5  SXY         1    4    1    2
 -5  SYZ         1    4    2    3
 -5  SZX         1    4    3    1
 -1         1-1.03538E+06-3.35307E+05-2.13782E+05-2.99698E+05 1.32180E-10 1.48430E-09
 -1         2-6.34964E+05-3.53669E+04 1.42620E+03-5.80408E+04-8.18545E-10-4.29281E-10
 -1         3-3.44699E+05-1.13570E+05-1.74683E+04-1.92919E+04 5.76051E-10-4.26098E-10
 -1         4-2.19502E+05-3.18333E+04 3.45854E+02-2.57427E+04-1.89431E-10 1.46983E-10
 -1         5-1.18547E+05 3.69491E+04-5.03821E+04-2.36992E+03 3.97813E-09-1.00357E-09
 -1         8-5.42780E+05-2.16136E+05-7.95238E+04-1.99183E+05-3.61069E-10 1.58980E-09
 -1         9-5.69361E+05-1.32176E+05-6.70355E+04-1.31758E+05-1.27026E-10 1.00893E-09
 -1        10-2.19624E+05-1.33081E+05 2.18480E+02-4.92048E+04-1.87409E-09-9.87711E-10
 -1        11-1.54997E+05-3.80145E+04 1.90956E+03-4.19383E+04-9.13055E-09-5.20383E-10
 -1        12-1.29439E+05 2.76762E+04-5.40437E+04-1.78033E+04 2.00265E-09 4.29270E-09
 -1        15 4.44131E+03-1.56768E+04 2.10802E+03-3.36192E+04-2.17824E-10 2.78396E-09
 -1        16-3.44873E+05-4.44835E+04 2.08421E+04-1.49620E+05 3.24386E-10 1.94783E-09
 -1        17-2.04900E+05-1.32022E+05-2.21142E+04-1.10404E+05-1.51006E-09 9.11920E-10
 -1        18-3.45024E+04-2.53590E+04-1.95255E+04-4.07375E+04 2.69908E-09-2.30557E-10
 -1        19-8.61703E+03 2.90150E+04-1.60401E+04-1.12394E+04-3.64707E-10 8.75086E-10
 -1        20 3.31049E+04-2.50282E+04-4.31603E+03 1.80206E+04 1.53909E-09 2.58751E-10
 -1        21 5.37975E+02-4.96937E+04 1.38022E+04 9.31704E+00 3.63451E-09 1.06023E-09
 -1        22 1.15514E+04 5.93406E+04 6.08943E+02-1.67294E+04-4.53838E-10-1.54614E-10
 -1        23-7.73768E+04 3.82388E+04 4.18561E+03-2.80206E+04-2.71749E-09-1.60253E-09
 -1        24-9.36020E+04-4.86525E+03 8.83626E+04-1.62022E+05-5.20746E-09 1.01378E-09
 -1        25 1.95395E+05 6.41582E+04 5.96443E+04-9.87273E+04 3.76076E-10 3.34997E-10
 -1        26 8.07917E+02 5.26108E+04 2.64237E+03-9.30717E+03-2.65269E-10-1.82164E-10
 -1        27-1.13815E+04-2.08968E+04-9.00234E+03 2.53070E+04 4.42848E-10-9.94078E-10
 -1        28-3.97978E+03-3.94960E+04-2.16252E+02 1.90631E+04-1.52073E-09-2.56446E-10
 -1        29 1.46195E+05 1.06900E+05 4.65475E+02-3.57516E+02 1.69470E-10 7.07132E-11
 -1        30 1.72635E+04 1.54449E+04 7.61719E+02-1.57108E+04-1.36979E-10-1.59935E-09
 -1        31-9.62054E+04 1.33914E+04 5.07560E+03-2.96913E+04 2.54532E-09-1.15306E-08
 -1        32 3.14644E+05 1.63893E+05 2.03156E+05-1.61904E+05 3.38805E-09 9.58607E-10
 -1        33 4.61171E+05 1.82949E+05 1.41035E+05-1.40446E+04-9.37581E-09-4.11546E-10
 -1        34-6.66386E+04-8.27091E+03-1.40675E+03 1.47879E+04-4.22435E-10 2.11458E-11
 -1        35-1.12992E+04-1.32160E+04-2.35130E+02 2.85719E+04 4.52111E-10-8.79178E-10
 -1        36-1.35969E+06 4.11245E+04-9.50391E+04 1.68850E-07-7.89358E-11-4.29281E-10
 -1        37-1.40084E+06-4.76043E+04-6.72615E+04 5.60149E-08-2.20370E-09-1.61526E-09
 -1        38-1.37558E+06 6.44618E+03-2.45951E+04 1.41369E-07-1.85293E-09 1.91903E-09
 -1        39-1.38231E+06-7.45961E+03-1.54677E+04-4.08660E-08 3.65223E-10 5.89353E-10
 -1        40-1.37819E+06 1.00827E+03-6.31870E+03 3.61055E-08-1.09693E-09-1.64391E-09
 -1        41-1.37925E+06-1.18043E+03-3.76849E+03 5.08912E-08-5.10534E-10 1.79125E-09
 -1        42-1.37862E+06 1.71464E+02-1.83369E+03 9.19091E-08-1.02720E-09-8.24173E-10
 -1        43-1.37879E+06-2.97172E+02-1.43667E+03-2.28394E-08-2.85239E-09-1.43406E-09
 -1        44-1.37865E+06 1.25585E+02-1.42313E+03-5.85314E-08-3.53867E-10-1.03213E-09
 -1        45-1.37904E+06-7.85950E+02-2.57975E+03-1.20016E-07 7.99254E-10-3.12639E-10
 -1        46-1.37838E+06 6.59913E+02-4.17918E+03 5.57200E-10-7.45883E-10 1.52363E-09
 -1        47-1.38102E+06-4.86936E+03-1.01214E+04 6.43727E-08 7.92222E-10 1.35515E-10
 -1        48-1.37667E+06 4.20605E+03-1.60615E+04 1.99974E-09 1.46016E-09-3.56522E-10
 -1        49-1.39311E+06-3.10599E+04-4.38920E+04-1.16749E-07 1.06069E-09 9.89530E-10
 -1        50-1.36631E+06 2.68308E+04-6.20200E+04-6.85379E-08-2.24362E-09 1.23327E-09
 -1        51 1.15690E+04-1.38820E+05 1.83731E+04-3.62805E+05-3.63798E-11 1.23691E-10
 -1        52 4.76299E+03-1.36457E+05 1.10604E+04-3.99349E+05-7.63976E-11 1.13505E-09
 -1        53 2.72543E+03-1.39185E+05 8.91492E+03-3.61885E+05-8.00355E-11 2.08820E-09
 -1        54 6.66858E+03-1.37162E+05 1.35314E+04-4.00358E+05-9.82254E-11-1.04046E-09
 -1        55 1.67935E+04-1.41234E+05 2.45844E+04-3.61751E+05 1.09139E-11 1.80989E-09
 -1        56-1.60598E+06-1.81390E+05-1.32423E+05-6.21399E+05-4.43833E-10-3.20142E-10
 -1        57-1.66811E+06-2.89206E+05-8.88195E+04-6.05978E+05-2.09184E-10-8.31278E-10
 -1        58-1.63160E+06-2.23258E+05-3.11989E+04-6.14317E+05 5.32964E-10-2.01908E-10
 -1        59-1.63860E+06-2.39866E+05-1.84961E+04-6.14481E+05-7.23844E-10 1.80330E-09
 -1        60-1.63520E+06-2.29072E+05-7.29786E+03-6.13491E+05-4.20869E-10-9.46784E-10
 -1        61-1.63455E+06-2.32950E+05-4.13059E+03-6.15347E+05-1.16660E-09 1.50385E-09
 -1        62-1.63560E+06-2.29967E+05-2.01518E+03-6.13521E+05 7.24697E-10 1.28716E-09
 -1        63-1.63429E+06-2.31868E+05-1.68794E+03-6.15139E+05-6.11806E-10-9.29468E-10
 -1        64-1.63544E+06-2.30133E+05-1.96410E+03-6.13705E+05-3.58170E-10 2.49213E-09
 -1        65-1.63516E+06-2.32269E+05-3.97951E+03-6.14618E+05 5.58046E-10-1.59230E-09
 -1        66-1.63474E+06-2.29587E+05-7.01186E+03-6.14034E+05 1.10106E-10-1.41381E-09
 -1        67-1.63964E+06-2.38315E+05-1.77560E+04-6.13110E+05-4.55884E-10-8.15817E-10
 -1        68-1.63101E+06-2.24286E+05-2.99485E+04-6.15145E+05-3.97449E-10-1.39880E-09
 -1        69-1.66846E+06-2.85171E+05-8.52520E+04-6.04373E+05 4.21096E-10 1.55705E-09
 -1        70-1.60620E+06-1.84324E+05-1.27109E+05-6.22198E+05-4.47471E-10 1.01136E-09
 -1        71-6.51932E+05-1.00127E+03 2.31450E+03-3.22795E-09-1.43139E-09-9.76684E-10
 -1        72-6.50869E+05 1.15901E+03 1.63511E+03 1.16060E-08-1.24697E-10-2.14291E-09
 -1        73-6.51545E+05-1.56821E+02 5.92647E+02-3.04938E-08-7.35326E-10-7.44365E-10
 -1        74-6.51321E+05 1.80511E+02 3.62685E+02-1.90685E-07-1.40166E-09 1.44168E-09
 -1        75-6.51481E+05-2.35600E+01 1.26734E+02 6.19622E-08-1.06661E-09-1.59936E-10
 -1        76-6.51400E+05 2.11453E+01 3.34757E+01-1.38547E-08-8.45902E-10-9.43951E-10
 -1        77-6.51467E+05 2.43111E+00-6.47004E+01 9.41995E-08-6.34871E-10 1.44448E-09
 -1        78-6.51436E+05-4.25174E+01-2.05846E+02-2.45855E-08-2.29881E-10 1.20264E-09
 -1        79-6.51445E+05 4.00686E+01-4.01948E+02-1.36089E-07 1.37084E-09 1.73441E-09
 -1        80-6.51574E+05-3.02480E+02-9.42714E+02 5.53100E-08 5.97451E-10 2.98758E-09
 -1        81-6.51329E+05 2.62228E+02-1.63024E+03 3.25499E-08 6.19554E-10-9.36780E-11
 -1        82-6.52375E+05-1.94439E+03-4.02615E+03 1.58563E-08 1.13797E-10-2.05267E-09
 -1        83-6.50646E+05 1.68080E+03-6.41331E+03-1.00203E-07 4.99612E-11-1.12777E-10
 -1        84-6.57208E+05-1.24130E+04-1.75425E+04-2.76677E-08 9.29442E-10 9.36780E-10
 -1        85-6.46502E+05 1.07227E+04-2.47949E+04 1.13129E-07-8.66841E-10 1.43336E-09
 -1        86-3.03573E+04 9.25154E+04 7.13627E+04 4.48450E+02-2.54659E-11 7.21464E-10
 -1        87 3.78963E+04 1.24502E+05 5.53544E+04-1.88511E+03-1.78261E-10-7.58127E-10
 -1        88-7.50711E+03 1.02988E+05 2.83199E+04 3.15135E+02-3.65162E-10 2.28592E-09
 -1        89 2.62425E+04 1.19057E+05 4.01621E+04-1.74560E+03-1.08002E-10 5.96527E-10
 -1        90-1.87129E+04 9.79559E+04 4.52464E+04 3.08957E+02-4.54747E-10-8.46267E-10
 -1        91-6.78063E+05-9.86628E+04-9.43269E+03-2.63486E+05 3.79418E-09 9.64064E-11
 -1        92-6.92417E+05-8.32093E+04-4.43970E+03-2.34700E+05 8.29959E-09 4.82601E-11
 -1        93-6.72771E+05-1.02629E+05-2.02721E+03-2.64370E+05-1.50955E-09 4.01315E-10
 -1        94-6.81494E+05-8.40201E+04 9.73982E+02-2.39232E+05-4.47221E-09 1.61927E-09
 -1        95-6.88881E+05-9.79525E+04-2.58326E+03-2.58864E+05-3.11843E-10-4.76348E-11
 -1        96-6.63044E+05-9.89368E+04 2.40244E+03-2.56826E+05 7.81870E-09 5.68932E-11
 -1        97-6.91166E+05-8.77649E+04-8.09086E+02-2.46731E+05-2.82512E-11 6.98080E-10
 -1        98-6.61285E+05-1.09483E+05 6.89510E+02-2.69696E+05-3.42038E-09 3.27419E-09
 -1        99-6.90811E+05-8.72365E+04-9.14975E+02-2.46140E+05 5.46771E-09 2.46092E-09
 -1       100-6.62807E+05-1.00320E+05 1.47010E+03-2.58040E+05 3.88332E-09 3.49368E-09
 -1       101-6.89485E+05-9.70874E+04-4.07308E+03-2.58250E+05-4.88171E-10 1.88402E-09
 -1       102-6.81354E+05-8.68205E+04-2.84805E+03-2.39602E+05-2.55136E-09-3.89264E-10
 -1       103-6.72295E+05-1.00709E+05-8.46640E+03-2.64603E+05-5.75994E-09 4.54293E-10
 -1       104-7.00557E+05-9.64446E+04-2.33156E+04-2.32024E+05 6.24482E-10 5.71163E-10
 -1       105-6.70413E+05-8.73507E+04-3.63899E+04-2.65935E+05 1.80626E-09 1.48066E-09
 -1       106-4.69048E+05 3.81369E+03-8.82073E+03-1.04834E-07 7.27540E-10-5.25688E-10
 -1       107-4.72834E+05-4.41507E+03-6.24229E+03-6.49418E-08-3.91901E-10 1.29558E-09
 -1       108-4.70522E+05 5.97909E+02-2.28652E+03-7.90671E-08-3.02562E-10-1.15392E-10
 -1       109-4.71116E+05-6.92428E+02-1.44306E+03 1.45111E-08 2.29953E-10-7.17591E-10
 -1       110-4.70764E+05 9.40248E+01-6.00806E+02 2.94955E-08-2.56782E-10-1.62112E-09
 -1       111-4.70835E+05-1.13382E+02-3.79955E+02-1.63270E-08 3.88634E-10 9.94884E-10
 -1       112-4.70803E+05 1.92924E+01-2.26536E+02-4.07440E-08-6.44710E-10 1.69184E-09
 -1       113-4.70805E+05-5.30867E+01-2.57105E+02 1.16715E-07-5.33847E-10 1.27460E-09
 -1       114-4.70794E+05 3.37723E+01-3.56317E+02 6.61676E-08 2.92019E-10-2.65345E-10
 -1       115-4.70902E+05-2.37884E+02-7.55597E+02 2.47589E-08 1.02735E-10-2.29943E-09
 -1       116-4.70706E+05 2.03970E+02-1.27690E+03-2.23600E-08-2.52075E-10-4.10353E-10
 -1       117-4.71522E+05-1.50991E+03-3.13174E+03 6.34051E-09-3.88809E-10 6.32099E-10
 -1       118-4.70175E+05 1.30486E+03-4.98216E+03 1.94047E-08-6.12030E-10-5.00222E-10
 -1       119-4.75273E+05-9.63634E+03-1.36206E+04-8.68849E-08-1.51983E-10-4.77485E-12
 -1       120-4.66958E+05 8.32408E+03-1.92501E+04 7.50178E-09 6.72607E-11 9.72250E-10
 -1       121-4.96381E+02-3.46590E+05 2.31942E+03 4.81988E+03-9.41327E-11 4.36717E-09
 -1       122 7.07833E+02-3.45716E+05 1.54754E+03 1.72377E+04-2.64777E-10 5.25324E-09
 -1       123-7.17921E+01-3.46256E+05 7.63633E+02 4.85082E+03-4.20414E-10 6.07156E-09
 -1       124 2.69359E+02-3.45951E+05 7.67195E+02 1.71247E+04-8.26049E-10 3.30419E-09
 -1       125-1.77506E+02-3.46319E+05 8.25568E+02 4.93286E+03-9.56220E-10 1.43473E-09
 -1       126-2.79072E+05-4.51284E+04 2.87515E+03-1.06920E+05 7.01269E-09 3.11729E-10
 -1       127-2.64244E+05-2.42674E+04 6.62471E+03-8.79585E+04 1.38580E-08 8.27413E-10
 -1       128-2.66379E+05-4.43835E+04 7.69714E+02-1.08566E+05 6.15167E-09-1.61879E-09
 -1       129-2.79448E+05-2.51328E+04 1.24585E+03-8.64178E+04 1.56101E-08-1.49072E-10
 -1       130-2.64061E+05-4.41152E+04 2.05279E+02-1.08614E+05 1.75652E-08-2.41201E-10
 -1       131-2.71414E+05-2.66459E+04 1.99733E+03-8.67048E+04-1.93101E-08-2.83137E-09
 -1       132-2.74297E+05-4.29644E+04-1.78007E+03-1.08183E+05-3.84489E-09 1.39886E-09
 -1       133-2.53002E+05-3.18559E+04 4.40733E+03-9.10276E+04 1.91303E-08-6.82149E-10
 -1       134-2.82250E+05-3.90785E+04-2.69550E+03-1.04118E+05 5.81167E-10 4.97892E-10
 -1       135-2.47881E+05-4.12355E+04 3.36657E+03-1.02144E+05 8.46489E-09-2.11798E-09
 -1       136-2.79482E+05-3.35321E+04-1.51679E+03-9.71229E+04-3.99382E-10 2.20997E-11
 -1       137-2.54621E+05-4.95449E+04-3.94510E+02-1.12681E+05-1.43041E-08-2.46746E-09
 -1       138-2.75752E+05-3.05814E+04-1.97747E+03-9.37635E+04 1.26091E-08 2.56659E-09
 -1       139-2.56014E+05-5.22692E+04-4.88151E+03-1.11620E+05-1.46290E-08-1.25935E-08
 -1       140-2.78078E+05-3.08229E+04-1.01228E+04-9.81742E+04-1.05543E-08-2.49838E-09
 -1       141-2.25067E+05-1.09097E+03 2.52175E+03-4.94469E-08 1.06324E-10-3.14003E-10
 -1       142-2.23951E+05 1.26279E+03 1.78090E+03 3.60670E-08 2.12817E-10-8.62286E-10
 -1       143-2.24645E+05-1.70827E+02 6.43959E+02 2.15564E-08-7.79822E-11-1.10009E-09
 -1       144-2.24444E+05 1.96344E+02 3.91046E+02 1.40405E-08-5.52762E-11-1.37248E-09
 -1       145-2.24574E+05-2.53736E+01 1.29963E+02 9.22730E-08-1.42615E-10-4.40679E-11
 -1       146-2.24532E+05 2.07625E+01 1.89521E+01-3.06958E-09-4.82612E-10 1.24746E-10
 -1       147-2.24557E+05 4.62864E+00-1.03404E+02 2.81133E-08-2.77047E-10 6.80615E-10
 -1       148-2.24579E+05-6.12377E+01-2.96724E+02 1.28998E-08-4.48208E-11-1.29748E-09
 -1       149-2.24527E+05 5.65834E+01-5.69270E+02 2.07564E-08-8.55927E-11 4.15668E-10
 -1       150-2.24772E+05-4.25960E+02-1.32933E+03 2.54242E-09-3.07477E-10 5.18554E-10
 -1       151-2.24364E+05 3.69123E+02-2.29668E+03-7.39270E-09-1.69831E-10 9.13701E-10
 -1       152-2.25898E+05-2.73678E+03-5.66935E+03-5.54893E-08-1.89521E-10-4.47926E-11
 -1       153-2.23401E+05 2.36572E+03-9.03015E+03 4.88836E-08 9.69024E-10-7.11680E-10
 -1       154-2.32699E+05-1.74714E+04-2.46952E+04-5.70522E-08 6.18300E-10-1.42654E-09
 -1       155-2.17565E+05 1.50923E+04-3.49014E+04-4.38930E-08 2.41300E-09-4.69299E-10
 -1       156-7.81379E+03-5.83079E+04 1.80609E+04 4.46734E+03 1.46429E-09 7.27084E-10
 -1       157 9.79920E+03-4.76917E+04 1.47237E+04-1.79654E+04 3.96903E-09-9.09241E-10
 -1       158-1.94512E+03-5.53137E+04 7.75495E+03 4.49125E+03 1.96673E-09-5.55076E-10
 -1       159 8.40014E+03-4.30570E+04 1.34355E+04-1.74189E+04 7.70228E-10 1.19603E-09
 -1       160-6.51379E+03-6.28083E+04 1.26906E+04 3.92119E+03-3.02271E-09-8.25253E-10
 -1       161-2.27680E+05-3.17581E+04-5.63418E+02-8.54246E+04-1.23083E-09-3.16390E-10
 -1       162-2.27795E+05-3.24312E+04-3.92489E+02-8.55008E+04-2.62113E-08 1.09887E-08
 -1       163-2.27820E+05-3.19334E+04-1.36987E+02-8.53557E+04-9.46098E-06 3.54525E-06
 -1       164-2.27642E+05-3.22197E+04-9.40797E+01-8.55691E+04-1.88699E-05 7.07371E-06
 -1       165-2.27832E+05-3.19695E+04-5.38765E+01-8.53563E+04-9.45984E-06 3.54572E-06
 -1       166-2.27665E+05-3.21532E+04-7.12336E+01-8.55302E+04-2.77350E-08 1.08241E-08
 -1       167-2.27798E+05-3.19999E+04-1.09513E+02-8.53946E+04-1.37284E-10 2.00029E-09
 -1       168-2.27777E+05-3.21256E+04-2.48442E+02-8.54316E+04-8.24022E-10 1.75126E-09
 -1       169-2.27720E+05-3.19972E+04-4.49174E+02-8.54549E+04 6.76586E-10-6.75300E-11
 -1       170-2.28091E+05-3.24055E+04-1.12687E+03-8.52703E+04 5.63780E-10 1.85352E-10
 -1       171-2.27484E+05-3.17202E+04-1.94670E+03-8.55558E+04 5.76676E-10-1.43245E-10
 -1       172-2.29531E+05-3.46954E+04-5.24873E+03-8.47824E+04 2.77742E-08-1.07794E-08
 -1       173-2.26281E+05-2.97087E+04-8.40337E+03-8.59426E+04 1.04953E-05-3.94050E-06
 -1       174-2.38040E+05-4.96353E+04-2.48996E+04-8.19723E+04 2.09196E-05-7.85191E-06
 -1       175-2.18977E+05-1.67898E+04-3.58605E+04-8.83630E+04 1.05041E-05-3.93161E-06
 -1       191 4.01165E+02 1.76001E+05 6.41239E+02-4.50468E+03-2.32831E-10 1.39289E-09
 -1       192 1.48183E+02 1.76089E+05 3.82069E+02-4.81717E+03-3.02919E-10 4.97494E-10
 -1       193 7.02268E+01 1.76032E+05 3.05355E+02-4.42716E+03-6.14818E-10-2.27556E-09
 -1       194 1.91390E+02 1.76101E+05 4.59442E+02-4.96245E+03-7.41011E-10-2.44268E-09
 -1       195 5.34902E+02 1.75983E+05 8.33769E+02-4.35919E+03-9.34051E-10 5.99357E-10
 -1       251-8.69425E+05 1.80971E+04-4.70992E+04-1.53477E+04-1.62868E-09-3.37968E-09
 -1       252-8.63332E+05-2.15190E+04-2.87485E+04 4.17690E+04 2.70340E-10 3.00815E-09
 -1       253-8.68258E+05 3.64061E+03-1.20400E+04-1.98203E+04 8.62315E-10-4.92446E-09
 -1       254-8.40448E+05-2.61520E+03-1.66130E+03 2.61207E+04-4.51337E-11-6.33577E-10
 -1       255-8.91842E+05-1.24331E+03-8.17613E+03 3.01810E+02-2.33058E-11-3.08773E-10
 -1       256-8.35777E+05 6.27994E+02 4.49777E+03-1.62416E+04 4.60341E-09-3.45445E-09
 -1       257-8.72818E+05 2.92385E+02-2.08535E+03 2.25363E+04-1.74623E-10 3.35260E-09
 -1       258-8.54697E+05-2.56069E+02 1.49512E+03-3.81116E+04-9.51693E-10-6.77875E-09
 -1       259-8.73508E+05 2.20832E+02-2.22482E+03 2.21787E+04-4.39422E-09 5.44307E-09
 -1       260-8.35210E+05 6.68533E+02 4.63108E+03-1.51935E+04 7.41693E-10-1.72071E-09
 -1       261-8.91702E+05-1.22923E+03-8.11669E+03-3.88655E+02 1.84900E-09 1.33309E-09
 -1       262-8.41103E+05-2.63301E+03-1.73158E+03 2.70517E+04 1.64405E-09 1.38084E-09
 -1       263-8.67764E+05 3.66494E+03-1.18183E+04-2.00608E+04-5.21550E-09-3.06318E-09
 -1       264-8.62965E+05-2.12709E+04-2.83785E+04 4.15361E+04-1.84417E-08 3.37741E-09
 -1       265-8.70278E+05 1.78166E+04-4.68195E+04-1.48742E+04-7.42182E-09-2.25918E-09
 -1       266-8.75361E+03-1.34327E+05 1.99839E+04-8.90498E+02-1.09139E-11 1.12710E-09
 -1       267 9.48684E+03-1.25641E+05 1.30045E+04 4.20115E+03 1.15961E-11-2.05667E-09
 -1       268-7.33506E+02-1.30818E+05 2.73674E+03-6.76482E+02 3.13776E-11 9.43075E-10
 -1       269-3.18911E+03-1.30942E+05-3.45918E+03 3.45692E+03 3.59250E-11 1.12210E-09
 -1       270 3.90131E+03-1.29014E+05-8.68105E+03-1.46341E+02 6.59384E-11 4.34807E-09
 -1       271-1.34437E+06-1.70856E+05-1.04147E+05-5.19751E+05-3.31056E-10-7.63976E-10
 -1       272-1.37782E+06-2.38940E+05-6.52953E+04-5.23376E+05-3.18323E-10 3.05590E-09
 -1       273-1.36231E+06-1.93274E+05-2.45624E+04-5.17246E+05 2.51191E-10 2.24736E-09
 -1       274-1.35704E+06-2.09313E+05-1.34087E+04-5.28133E+05 6.11522E-10 3.46699E-09
 -1       275-1.36446E+06-1.95469E+05-5.70991E+03-5.16892E+05-5.36147E-10 1.51340E-09
 -1       276-1.35452E+06-2.06515E+05-3.01089E+03-5.28785E+05-9.61791E-11 9.73500E-10
 -1       277-1.36480E+06-1.95619E+05-1.54652E+03-5.16779E+05-3.65958E-10 1.00437E-09
 -1       278-1.35417E+06-2.06352E+05-1.20504E+03-5.28953E+05-1.19741E-10 1.32170E-09
 -1       279-1.36483E+06-1.95592E+05-1.43603E+03-5.16749E+05-4.03645E-10 1.76340E-09
 -1       280-1.35439E+06-2.06583E+05-2.70997E+03-5.28919E+05-8.01379E-10-9.37860E-10
 -1       281-1.36457E+06-1.95414E+05-5.09200E+03-5.16802E+05 7.86656E-10 1.25419E-09
 -1       282-1.35657E+06-2.09145E+05-1.19405E+04-5.28430E+05 3.28555E-11 1.21872E-10
 -1       283-1.36270E+06-1.93427E+05-2.18573E+04-5.17081E+05 5.15570E-10 1.62800E-09
 -1       284-1.37500E+06-2.35571E+05-5.81081E+04-5.24272E+05 3.83466E-10 1.09139E-10
 -1       285-1.34676E+06-1.73448E+05-9.26792E+04-5.19278E+05 1.94632E-10-7.27596E-11
 -1       286-1.26906E+05-9.33721E+03 2.15912E+04-6.59506E+01 9.03036E-10 9.29504E-10
 -1       287-1.17455E+05 1.08096E+04 1.52884E+04-1.63283E+02-1.12630E-10-1.22191E-09
 -1       288-1.23294E+05-1.46418E+03 5.58825E+03 5.01461E+01-2.01922E-10-2.97632E-10
 -1       289-1.21674E+05 1.69439E+03 3.52518E+03-3.79274E+02-7.75202E-11 6.25732E-10
 -1       290-1.22689E+05-2.29302E+02 1.44172E+03 1.50048E+02 3.17556E-10-9.71170E-10
 -1       291-1.22386E+05 2.69837E+02 8.73666E+02-5.40323E+02 6.30987E-10-1.81049E-09
 -1       292-1.22583E+05-4.03381E+01 4.43605E+02 2.11198E+02 3.61923E-10-2.89035E-10
 -1       293-1.22495E+05 7.93223E+01 3.85700E+02-6.12032E+02 1.06900E-10 7.66086E-10
 -1       294-1.22580E+05-3.87179E+01 4.29949E+02 2.21758E+02 6.07492E-10 1.90188E-09
 -1       295-1.22399E+05 2.56325E+02 8.32032E+02-5.80558E+02 2.36298E-10 9.49839E-10
 -1       296-1.22679E+05-2.17311E+02 1.36960E+03 1.79724E+02 2.30141E-10 1.75436E-09
 -1       297-1.21725E+05 1.60615E+03 3.34165E+03-4.52074E+02 3.61950E-11 9.39053E-11
 -1       298-1.23253E+05-1.38785E+03 5.29824E+03 9.32719E+01-3.92930E-11-2.28965E-10
 -1       299-1.17721E+05 1.02467E+04 1.44923E+04-2.54120E+02-1.21894E-10 1.14119E-09
 -1       300-1.26681E+05-8.85112E+03 2.04667E+04-1.82362E+01 4.21501E-10 1.45428E-09
 -1       301 1.83076E+04 5.13410E+03 4.11124E+04-1.31451E+04-2.92857E-10 3.08347E-10
 -1       302 6.20329E+03 1.29019E+04 2.52876E+04-1.54735E+04-4.24507E-10-1.28450E-09
 -1       303 1.71151E+03 7.88968E+03 2.03867E+04-1.31457E+04-2.78533E-10-4.53326E-10
 -1       304 8.12623E+03 1.40609E+04 3.05045E+04-1.54594E+04-4.18368E-10 4.20130E-10
 -1       305 2.45210E+04 3.97893E+03 5.37474E+04-1.31542E+04-2.65572E-10 9.58380E-11
 -1       306-8.91598E+05-1.17247E+05-5.79806E+04-3.45655E+05 2.40107E-10-3.34694E-10
 -1       307-9.04267E+05-1.61002E+05-3.63380E+04-3.54425E+05 3.70449E-10-1.36288E-09
 -1       308-9.01624E+05-1.29665E+05-1.36793E+04-3.44224E+05 4.01542E-10 1.04410E-09
 -1       309-8.92692E+05-1.44562E+05-7.46979E+03-3.57139E+05 1.13437E-09-5.85032E-10
 -1       310-9.02830E+05-1.30874E+05-3.19148E+03-3.44023E+05 3.33239E-09-1.40381E-09
 -1       311-8.91308E+05-1.43001E+05-1.70173E+03-3.57507E+05 3.37241E-09-3.30263E-09
 -1       312-9.03009E+05-1.30964E+05-9.12888E+02-3.43971E+05 2.72388E-09-1.51033E-09
 -1       313-8.91147E+05-1.42885E+05-7.84421E+02-3.57566E+05-1.25322E-11-6.05610E-10
 -1       314-9.02999E+05-1.30968E+05-1.02959E+03-3.43977E+05-2.42642E-09 8.88008E-10
 -1       315-8.91366E+05-1.43019E+05-2.02243E+03-3.57476E+05-2.46109E-09 4.40514E-09
 -1       316-9.02776E+05-1.30860E+05-3.84411E+03-3.44042E+05-2.10139E-09 1.33559E-09
 -1       317-8.93040E+05-1.44915E+05-9.03045E+03-3.57041E+05-2.69210E-10-9.18590E-10
 -1       318-9.01325E+05-1.29387E+05-1.65453E+04-3.44275E+05-5.70708E-10 2.81034E-10
 -1       319-9.07020E+05-1.64841E+05-4.39644E+04-3.53802E+05-5.69983E-10-8.29459E-10
 -1       320-8.89218E+05-1.14331E+05-7.01410E+04-3.45977E+05-7.54881E-10-1.27329E-09
 -1       321-2.50777E+05-4.23024E+03 9.12495E+03-1.56790E+03-1.40952E-09-1.82808E-09
 -1       322-2.43531E+05 4.87315E+03 7.03244E+03 5.09420E+03-5.53332E-09 1.51249E-09
 -1       323-2.48094E+05-6.43786E+02 2.37585E+03-3.02502E+03 1.10430E-09-2.34900E-09
 -1       324-2.46810E+05 7.41615E+02 1.58096E+03 6.84616E+03 7.60959E-09 2.79752E-09
 -1       325-2.47535E+05-7.39287E+01 6.17907E+02-3.32009E+03-1.78143E-09-2.71069E-09
 -1       326-2.46526E+05 1.21195E+02 5.18347E+02 6.16363E+03-3.04561E-09 9.13637E-10
 -1       327-2.48364E+05-3.58179E+01-3.63535E+01-2.34237E+03 4.50439E-09-2.15791E-09
 -1       328-2.44784E+05 7.87276E+01 5.77889E+02 3.28613E+03-1.42505E-09 1.95918E-09
 -1       329-2.49231E+05-6.76336E+01-3.81883E+02-4.42422E+02 1.66858E-09 3.23254E-10
 -1       330-2.44209E+05 4.90155E+01 5.20208E+02-7.40289E+02 2.09701E-09-2.21871E-10
 -1       331-2.48923E+05-1.82668E+01-5.48489E+02 1.68384E+03 1.90036E-09 5.47800E-10
 -1       332-2.45733E+05-2.50433E+02-2.65103E+02-4.43255E+03-1.18009E-08-2.63073E-09
 -1       333-2.47742E+05 2.59647E+02-1.10254E+03 3.24985E+03-1.18596E-08 1.64647E-09
 -1       334-2.48036E+05-1.93182E+03-2.72518E+03-6.44081E+03-8.28041E-09-3.03365E-09
 -1       335-2.46660E+05 1.69269E+03-3.95872E+03 3.69243E+03 6.40797E-09 3.31102E-09
 -1       336 1.08523E+02-3.58183E+05-9.84815E+02-6.95359E+03-1.58525E-09-2.67164E-09
 -1       337-4.22668E+02-3.58589E+05-1.87803E+03-2.53935E+04-2.97879E-09-6.62112E-09
 -1       338 2.80130E+02-3.58045E+05-3.18030E+03-6.88485E+03-1.92972E-09-1.43996E-09
 -1       339-3.62735E+03-3.60557E+05-7.72028E+03-2.54544E+04-3.22586E-09 4.25337E-09
 -1       340 2.62387E+03-3.56244E+05-1.21049E+04-6.89322E+03-1.78125E-09 3.85575E-09
 -1       341-3.46770E+05-5.88243E+04-9.14953E+03-1.36966E+05 2.68931E-08 3.51997E-09
 -1       342-2.92729E+05-1.73071E+04 9.46500E+03-8.36006E+04 1.48139E-08 5.85402E-10
 -1       343-3.07969E+05-5.73108E+04-1.17015E+03-1.34809E+05-2.19858E-08-1.14962E-08
 -1       344-3.31308E+05-1.85858E+04 1.83677E+03-8.60372E+04 4.07272E-08 4.86828E-09
 -1       345-3.08807E+05-5.70739E+04-1.22581E+03-1.35031E+05 5.36268E-08 2.64322E-11
 -1       346-2.91726E+05-1.99428E+04 9.27215E+03-8.29534E+04-1.13962E-08-7.15158E-09
 -1       347-3.46901E+05-5.64536E+04-8.39776E+03-1.37363E+05 3.34694E-09-1.54932E-09
 -1       348-2.42981E+05-3.19244E+04 1.62743E+04-9.25826E+04 1.45959E-08-2.68076E-09
 -1       349-3.56908E+05-4.55910E+04-8.56586E+03-1.24920E+05-3.16004E-09-3.72751E-09
 -1       350-2.57485E+05-5.62416E+04 8.01365E+03-1.24172E+05 1.13132E-08-9.68673E-09
 -1       351-3.33047E+05-3.16371E+04-2.86217E+03-1.06291E+05 2.29943E-09-1.26147E-08
 -1       352-2.82766E+05-7.11663E+04-2.94882E+03-1.42904E+05-4.90378E-08-3.27288E-08
 -1       353-3.32283E+05-3.01578E+04-8.97472E+03-1.06670E+05 1.62232E-08-2.74667E-10
 -1       354-2.64954E+05-6.92446E+04-1.30428E+04-1.21363E+05-2.11709E-08-4.10478E-09
 -1       355-3.50197E+05-3.40840E+04-4.20733E+04-1.27341E+05-5.54928E-09 5.18412E-10
 -1       356-2.53370E+05 1.95414E+03-4.56466E+03 3.78891E+03 1.04428E-09 2.73076E-09
 -1       357-2.54983E+05-2.23393E+03-3.15325E+03-6.57889E+03 1.30812E-08-1.30922E-09
 -1       358-2.54584E+05 2.99812E+02-1.27678E+03 3.31076E+03 5.74379E-09 2.56813E-09
 -1       359-2.52496E+05-2.96711E+02-3.69524E+02-4.45025E+03-4.15795E-09-2.34218E-09
 -1       360-2.55815E+05-1.38679E+01-6.50035E+02 1.65993E+03-6.27563E-09 2.78091E-09
 -1       361-2.50969E+05 3.20051E+01 4.10729E+02-5.85322E+02-8.67226E-09 6.58863E-10
 -1       362-2.56076E+05-5.63012E+01-5.91060E+02-5.54157E+02 2.23935E-10-2.30987E-10
 -1       363-2.51703E+05-1.19029E+01 1.37394E+02 3.56628E+03-4.96647E-09 3.54270E-10
 -1       364-2.55100E+05 4.45922E+01-8.05838E+02-2.49147E+03-8.80408E-09-1.45400E-09
 -1       365-2.53747E+05-4.55532E+02-1.28872E+03 6.43756E+03 1.33499E-08 2.15931E-09
 -1       366-2.54079E+05 4.24000E+02-2.45985E+03-3.42562E+03-1.11782E-08-2.05603E-09
 -1       367-2.55398E+05-2.92703E+03-6.00883E+03 6.95980E+03-1.30994E-08 1.84502E-09
 -1       368-2.53462E+05 2.52336E+03-9.74911E+03-3.01379E+03-2.54502E-09-2.76941E-09
 -1       369-2.61074E+05-1.85376E+04-2.60282E+04 4.91538E+03-9.57391E-09 8.79936E-10
 -1       370-2.48364E+05 1.59913E+04-3.76932E+04-1.38093E+03 5.86908E-10-2.54659E-10
 -1       371-6.34144E+03-6.68346E+04 1.08588E+04 4.55948E+03-3.18050E-09 4.87830E-10
 -1       372 6.41562E+03-4.53190E+04 9.60150E+03-2.00534E+04 2.43062E-09 3.66312E-09
 -1       373-1.33419E+02-5.71545E+04 1.09677E+03 5.21797E+03 2.68824E-09-1.10487E-09
 -1       374-3.15621E+03-5.59352E+04-3.49854E+03-2.06263E+04 5.10738E-09 2.37741E-09
 -1       375 3.33773E+03-5.63770E+04-7.98529E+03 5.13221E+03 2.23463E-09 3.01242E-09
 -1       376-2.69657E+05-3.01412E+04-9.13533E+03-9.55233E+04 2.84103E-10-1.63254E-10
 -1       377-2.51482E+05-5.02625E+04-4.76351E+03-1.08377E+05 4.91185E-09-1.34850E-09
 -1       378-2.68338E+05-3.04386E+04-1.84778E+03-9.20418E+04 3.91216E-09 2.71154E-09
 -1       379-2.49735E+05-4.72377E+04-4.27647E+02-1.08796E+05 1.71206E-08 5.01529E-10
 -1       380-2.71399E+05-3.31666E+04-1.36411E+03-9.51016E+04 1.36319E-08-7.50999E-10
 -1       381-2.44790E+05-3.98898E+04 2.69459E+03-9.96192E+04 8.81994E-09 6.13298E-10
 -1       382-2.73083E+05-3.79350E+04-2.30604E+03-1.01070E+05 1.52079E-09-4.14133E-10
 -1       383-2.49911E+05-3.17772E+04 3.28818E+03-8.99966E+04-1.61076E-08 1.51489E-09
 -1       384-2.66230E+05-4.13142E+04-1.90002E+03-1.04684E+05 3.64956E-08-4.51831E-09
 -1       385-2.65553E+05-2.74711E+04 4.08656E+02-8.58985E+04 3.56271E-08-3.11832E-09
 -1       386-2.57627E+05-4.21040E+04-1.88730E+03-1.05309E+05-2.58781E-08-5.75312E-09
 -1       387-2.73621E+05-2.85600E+04-4.53684E+03-8.50276E+04 2.12250E-08-6.77807E-09
 -1       388-2.58260E+05-4.01543E+04-8.23902E+03-1.05632E+05 2.17092E-08-1.75282E-08
 -1       389-2.70007E+05-4.38995E+04-2.09146E+04-8.36246E+04-1.97642E-08-5.63705E-09
 -1       390-2.61087E+05-2.68897E+04-3.55098E+04-1.06587E+05-9.51513E-09-5.02041E-10
 -1       406 4.26537E+02 1.74126E+05 9.18385E+02-1.42984E+04-1.24919E-09-6.85304E-10
 -1       407 2.77093E+02 1.74292E+05 1.11156E+03-1.56790E+04-1.41705E-09-1.66369E-09
 -1       408 4.52077E+02 1.74097E+05 1.82818E+03-1.42365E+04-1.49294E-09-3.31056E-10
 -1       409 1.81210E+03 1.74805E+05 3.92202E+03-1.57713E+04-1.69234E-09 4.17458E-10
 -1       410 5.22425E+03 1.73601E+05 7.90800E+03-1.42041E+04-1.60253E-09 6.95763E-11
 -1       466 5.87785E+05-2.39142E+04 5.46831E+04 4.86923E+03 2.94335E-10 4.40559E-09
 -1       467 6.14977E+05 2.76125E+04 3.92914E+04-7.86736E+03 6.49777E-10 1.29330E-09
 -1       468 5.98371E+05-3.69778E+03 1.42281E+04 1.40859E+03 4.32735E-10 1.38061E-09
 -1       469 6.02683E+05 4.27308E+03 9.02182E+03-3.17984E+03-8.78494E-10 2.29988E-10
 -1       470 6.00053E+05-5.73878E+02 3.72401E+03 1.81678E+02 7.81608E-10-7.93079E-10
 -1       471 6.00739E+05 6.86797E+02 2.32134E+03-1.52380E+03 6.75449E-10-1.62026E-09
 -1       472 6.00314E+05-1.11527E+02 1.31801E+03-2.47483E+02 4.29218E-10-1.32056E-09
 -1       473 6.00510E+05 2.84290E+02 1.39147E+03-9.80716E+02 7.13353E-10-1.44087E-09
 -1       474 6.00281E+05-1.71297E+02 1.83812E+03-3.61416E+02 2.87549E-10-1.12038E-09
 -1       475 6.00986E+05 1.19701E+03 3.82449E+03-9.40808E+02 4.19128E-10-7.64601E-10
 -1       476 5.99837E+05-1.02363E+03 6.43410E+03-2.87389E+02 1.48391E-09-1.12641E-09
 -1       477 6.04110E+05 7.58154E+03 1.57529E+04-1.36012E+03 7.71838E-10-5.82077E-11
 -1       478 5.97153E+05-6.55111E+03 2.50489E+04 5.79103E+01 4.69889E-10-3.50155E-10
 -1       479 6.23079E+05 4.84084E+04 6.84744E+04-2.73774E+03 8.27269E-10-1.84991E-09
 -1       480 5.80862E+05-4.18157E+04 9.67335E+04 1.09020E+03 2.56476E-09 6.54836E-10
 -1       481-4.60054E+03 9.01608E+04 1.00019E+04-2.43643E+03-6.68479E-11-7.39590E-10
 -1       482 5.39377E+03 9.80881E+04 7.94092E+03 8.10682E+03-5.45697E-11 2.58538E-09
 -1       483-8.15944E+02 9.32048E+04 3.15732E+03-1.89141E+03-2.43290E-11 8.11582E-10
 -1       484 1.89593E+03 9.49845E+04 3.23156E+03 7.50564E+03-1.04308E-11-6.01354E-10
 -1       485-1.08002E+03 9.32277E+04 2.78539E+03-1.83514E+03 1.54614E-11-3.10727E-10
 -1       486-5.45900E+05-6.87101E+04-5.34647E+04-2.28759E+05-1.71894E-10 2.23372E-09
 -1       487-5.89621E+05-7.83407E+04-3.34830E+04-1.74282E+05-1.18507E-09 6.87760E-09
 -1       488-5.53218E+05-8.65888E+04-1.30791E+04-2.25489E+05 2.03386E-09-1.96633E-09
 -1       489-5.49265E+05-6.40525E+04-1.07568E+03-1.83510E+05 2.70689E-09-2.12685E-09
 -1       490-5.85841E+05-8.33545E+04-8.45407E+03-2.19193E+05 2.44074E-09-1.43018E-10
 -1       491-5.21136E+05-8.26739E+04 5.62564E+03-2.09001E+05 2.32120E-10 4.89982E-09
 -1       492-5.81259E+05-6.80427E+04-2.50773E+03-1.99936E+05-2.22371E-10 1.02619E-08
 -1       493-5.29593E+05-1.00039E+05 1.45226E+03-2.31832E+05 3.36286E-10 1.88879E-08
 -1       494-5.77871E+05-6.55450E+04-1.36463E+03-1.96757E+05-2.91897E-09 4.11694E-09
 -1       495-5.22194E+05-8.80540E+04 4.45208E+03-2.15813E+05-1.53125E-09 4.00746E-09
 -1       496-5.88287E+05-8.03680E+04-8.16993E+03-2.15653E+05 1.54375E-09 3.50451E-09
 -1       497-5.40076E+05-6.72839E+04 4.78889E+02-1.87118E+05 5.46511E-09-3.79487E-10
 -1       498-5.59855E+05-8.64408E+04-1.34879E+04-2.25332E+05 1.37720E-09-4.14684E-09
 -1       499-5.87837E+05-7.69924E+04-3.11325E+04-1.74627E+05 1.47384E-09-8.10360E-09
 -1       500-5.41031E+05-7.02195E+04-4.92184E+04-2.28559E+05-5.91535E-09 8.96762E-09
 -1       501-2.26201E+05-1.04201E+04 2.40918E+04-1.93717E+02 1.44489E-10 1.23691E-10
 -1       502-2.15626E+05 1.20636E+04 1.70608E+04 1.01301E+01-2.52959E-10-1.21349E-09
 -1       503-2.22177E+05-1.63451E+03 6.22755E+03 6.81483E+01-1.52717E-10 1.12709E-09
 -1       504-2.20336E+05 1.89065E+03 3.92468E+03-4.83540E+02-1.21283E-10 6.10612E-10
 -1       505-2.21495E+05-2.55235E+02 1.58445E+03 2.99964E+02 2.29885E-10-4.02451E-11
 -1       506-2.21147E+05 2.94722E+02 9.25635E+02-8.36218E+02 8.62565E-10 6.27949E-10
 -1       507-2.21367E+05-3.90965E+01 4.02179E+02 4.20833E+02 5.50317E-10 4.77897E-10
 -1       508-2.21290E+05 4.60998E+01 2.25848E+02-9.26668E+02 2.66946E-10 1.53477E-11
 -1       509-2.21352E+05-6.54149E+00 1.07257E+02 3.90415E+02 6.15326E-10-1.39084E-09
 -1       510-2.21286E+05 1.31955E+01 7.72871E+01-7.24566E+02 6.40160E-10-3.60171E-10
 -1       511-2.21371E+05-6.69084E+00 5.13300E+01 2.18727E+02 5.29532E-11-4.09591E-10
 -1       512-2.21243E+05 3.98403E+01 1.01895E+02-2.96489E+02-3.92838E-10 8.04157E-10
 -1       513-2.21394E+05-3.37782E+01 1.21471E+02-3.76686E+01-1.84684E-10-1.86482E-10
 -1       514-2.21152E+05 2.40061E+02 3.50207E+02 2.16568E+02-3.72319E-10 1.01809E-09
 -1       515-2.21462E+05-2.06752E+02 4.69318E+02-2.94339E+02-1.54419E-10 1.49714E-09
 -1       516-2.78631E+04 2.16073E+05 6.51001E+04-3.17811E+03-2.25555E-10 7.66164E-10
 -1       517 3.38325E+04 2.45883E+05 4.91392E+04 1.31246E+04-5.84350E-10-8.49255E-10
 -1       518-5.93916E+03 2.25920E+05 2.27350E+04-3.25303E+03 2.15550E-10 4.52630E-10
 -1       519 1.80074E+04 2.43100E+05 2.89793E+04 1.54571E+04-2.14391E-09-6.12374E-10
 -1       520-1.21246E+04 2.18964E+05 2.76999E+04-5.51108E+03-6.49379E-10-4.34494E-09
 -1       521-1.32457E+06-1.71079E+05-9.04671E+04-5.11096E+05 9.98625E-10 2.54659E-09
 -1       522-1.35102E+06-2.32795E+05-5.67141E+04-5.17214E+05 6.79847E-11 2.94676E-10
 -1       523-1.34017E+06-1.90535E+05-2.13346E+04-5.08908E+05-4.84988E-10 4.27463E-11
 -1       524-1.33298E+06-2.07065E+05-1.16490E+04-5.21354E+05 3.48678E-10-1.13346E-09
 -1       525-1.34203E+06-1.92447E+05-4.96189E+03-5.08608E+05 9.92259E-10 2.14800E-09
 -1       526-1.33083E+06-2.04603E+05-2.62355E+03-5.21883E+05-4.77598E-10-5.96572E-10
 -1       527-1.34229E+06-1.92603E+05-1.35901E+03-5.08538E+05-3.87388E-10 1.43515E-10
 -1       528-1.33058E+06-2.04400E+05-1.08275E+03-5.21950E+05-1.91188E-09-1.56297E-09
 -1       529-1.34228E+06-1.92621E+05-1.32072E+03-5.08555E+05-1.85207E-09-2.51691E-09
 -1       530-1.33087E+06-2.04530E+05-2.51689E+03-5.21808E+05-2.20490E-09-2.92812E-09
 -1       531-1.34199E+06-1.92508E+05-4.74569E+03-5.08659E+05-1.21872E-10 2.34650E-10
 -1       532-1.33299E+06-2.06815E+05-1.11294E+04-5.21217E+05 9.75433E-11-9.09495E-12
 -1       533-1.34017E+06-1.90720E+05-2.03811E+04-5.08984E+05-5.90830E-10-1.82808E-09
 -1       534-1.35029E+06-2.31311E+05-5.41712E+04-5.17165E+05 1.20508E-11 1.34150E-09
 -1       535-1.32523E+06-1.72185E+05-8.64145E+04-5.11123E+05-7.94898E-10 5.96629E-10
 -1       536 6.57974E+03-4.72418E+03 2.17657E+04-3.89263E+03 2.55113E-10 2.27374E-10
 -1       537 1.43797E+04 6.57091E+03 1.38498E+04-1.36945E+04-9.83164E-10 2.21462E-10
 -1       538 9.82691E+03-4.84707E+02 5.62863E+03-3.84147E+03-9.09495E-11 4.50427E-10
 -1       539 1.07351E+04 6.13915E+02 3.12252E+03-1.37479E+04 7.10315E-10-2.50907E-10
 -1       540 1.01798E+04-5.70683E+01 1.41574E+03-3.83806E+03 8.75389E-11-9.75547E-10
 -1       541 1.03079E+04 5.53923E+01 7.40697E+02-1.37502E+04 2.04636E-12-1.79085E-09
 -1       542 1.02220E+04-7.80019E+00 3.43843E+02-3.83916E+03-1.62117E-10-8.07745E-11
 -1       543 1.02396E+04 7.31670E+00 1.61555E+02-1.37486E+04-9.97602E-11-5.60362E-10
 -1       544 1.02280E+04 7.82862E-01 4.74434E+01-3.83975E+03-3.41061E-13-8.42761E-10
 -1       545 1.02190E+04-1.29403E+00-4.07397E+01-1.37479E+04-2.02093E-10-4.57220E-10
 -1       546 1.02344E+04 7.02725E+00-1.41848E+02-3.83987E+03-5.77984E-10-6.45173E-11
 -1       547 1.01731E+04-6.81954E+01-3.48884E+02-1.37463E+04-5.29099E-10 1.34139E-09
 -1       548 1.02775E+04 5.36086E+01-6.45434E+02-3.84131E+03-1.70644E-09 6.04700E-10
 -1       549 9.76693E+03-7.60658E+02-1.59469E+03-1.37172E+04-5.70924E-09-1.14846E-09
 -1       550 1.06561E+04 5.36686E+02-2.51418E+03-3.86894E+03-3.36831E-09-6.97128E-10
 -1       551 5.14923E+03-1.29667E+05 1.19314E+04-1.95206E+05 1.73713E-10-6.02995E-10
 -1       552 2.35386E+03-1.27532E+05 9.77592E+03-2.29300E+05-4.22006E-10 1.52295E-09
 -1       553 1.49025E+03-1.29354E+05 1.18527E+04-1.94878E+05-5.09317E-11-4.00746E-09
 -1       554 7.12941E+03-1.24716E+05 2.26657E+04-2.29352E+05-2.54659E-10-9.34142E-09
 -1       555 2.05424E+04-1.32598E+05 4.31500E+04-1.95136E+05-4.72937E-11-5.88625E-09
 -1       556-8.82460E+04-4.80856E+04 8.50763E+03-8.60941E+04-1.11504E-09-4.01997E-10
 -1       557-8.05908E+04-5.63910E+04 4.18871E+03-9.19860E+04 4.84761E-10-1.96485E-09
 -1       558-8.83325E+04-5.08823E+04 1.76525E+03-8.44181E+04-8.11269E-10-7.13044E-10
 -1       559-8.13266E+04-5.77841E+04 8.64954E+02-9.22319E+04-7.27596E-12-5.16593E-10
 -1       560-8.83835E+04-5.09268E+04 3.86223E+02-8.43748E+04-6.34827E-10-5.92877E-10
 -1       561-8.14453E+04-5.78236E+04 1.81666E+02-9.23176E+04-4.01269E-09-6.02091E-09
 -1       562-8.84286E+04-5.08894E+04 6.48047E+01-8.44060E+04-3.94721E-10 7.77618E-10
 -1       563-8.14978E+04-5.78014E+04-4.83547E+00-9.23559E+04-2.90584E-10 1.65437E-09
 -1       564-8.84535E+04-5.08661E+04-8.19703E+01-8.44261E+04-2.01453E-10 6.07770E-10
 -1       565-8.15312E+04-5.77897E+04-2.09556E+02-9.23750E+04 2.31012E-10 2.41016E-11
 -1       566-8.84489E+04-5.08538E+04-4.47611E+02-8.44311E+04-2.93312E-11-3.70164E-10
 -1       567-8.16150E+04-5.78330E+04-9.89834E+02-9.23691E+04-2.48644E-09-8.32233E-09
 -1       568-8.83780E+04-5.09974E+04-2.03319E+03-8.43596E+04 0.00000E+00-2.53749E-10
 -1       569-8.27402E+04-5.90475E+04-4.79573E+03-9.20602E+04-4.30191E-10 2.25555E-10
 -1       570-8.79422E+04-5.46588E+04-9.76585E+03-8.28176E+04-9.82254E-11-8.53561E-10
 -1       571 1.12209E+05 5.31956E+03 8.05709E+03-2.87823E+04 3.39696E-10-7.52948E-10
 -1       572 1.13433E+05 1.82719E+03 3.95389E+03-3.16724E+04 2.78533E-10-1.30387E-09
 -1       573 1.12708E+05 4.18335E+02 1.75825E+03-2.87063E+04-2.05091E-10 9.15179E-10
 -1       574 1.12855E+05 1.31514E+02 8.82080E+02-3.17569E+04-5.38876E-11 1.81217E-10
 -1       575 1.12766E+05 1.28896E+01 4.16899E+02-2.86965E+04 9.94760E-11-4.35648E-10
 -1       576 1.12780E+05 3.14418E-01 2.12915E+02-3.17681E+04 3.50013E-11-8.56971E-10
 -1       577 1.12775E+05-6.66357E+00 1.06331E+02-2.86952E+04-7.69660E-11-2.56705E-10
 -1       578 1.12771E+05-4.79290E+00 6.05776E+01-3.17694E+04-6.49152E-11 6.12545E-10
 -1       579 1.12780E+05-6.18056E+00 4.20963E+01-2.86952E+04-1.77351E-11 9.25866E-10
 -1       580 1.12778E+05-5.95348E+00 4.73820E+01-3.17676E+04-2.75122E-11 7.89214E-10
 -1       581 1.12787E+05-6.38435E+00 7.37844E+01-2.86970E+04-1.05501E-10-5.77757E-10
 -1       582 1.12801E+05 9.95384E+00 1.46540E+02-3.17501E+04-2.09639E-10 8.13543E-10
 -1       583 1.12790E+05 5.28951E+01 2.86429E+02-2.87127E+04-3.72893E-11-2.57046E-10
 -1       584 1.12910E+05 2.78033E+02 6.42236E+02-3.16169E+04-5.92536E-10-3.02634E-10
 -1       585 1.12723E+05 8.42086E+02 1.30615E+03-2.88306E+04 1.57343E-10 1.00954E-10
 -1       586 8.46426E+02 4.87473E+04 1.57554E+03-6.96064E+04 2.09184E-10 6.91216E-10
 -1       587 4.70552E+02 4.90231E+04 1.56804E+03-7.67924E+04 6.67114E-10-1.10265E-09
 -1       588 5.96062E+02 4.87309E+04 2.29940E+03-6.95168E+04 1.42336E-10 1.59912E-09
 -1       589 2.21604E+03 4.96047E+04 4.76300E+03-7.68190E+04 7.22139E-10 1.83718E-09
 -1       590 6.30152E+03 4.81496E+04 9.52161E+03-6.95787E+04 2.04182E-10 1.07593E-09
 -1       591-5.16234E+04-1.75787E+04-1.01140E+04-2.63613E+04 2.07876E-10-3.63798E-12
 -1       592-5.20019E+04-1.63532E+04-4.96890E+03-2.93004E+04-1.20963E-10 2.95131E-10
 -1       593-5.19346E+04-1.39013E+04-2.10863E+03-2.80523E+04-3.10604E-09-5.91183E-09
 -1       594-5.09182E+04-1.49978E+04-1.03191E+03-2.94739E+04 1.29285E-09 8.84950E-09
 -1       595-5.19835E+04-1.37693E+04-4.75241E+02-2.81268E+04-1.67233E-10 1.75817E-10
 -1       596-5.08370E+04-1.49450E+04-2.41059E+02-2.94664E+04-1.20372E-09-8.56852E-09
 -1       597-5.19927E+04-1.37766E+04-1.31261E+02-2.81272E+04 9.63091E-10 7.12305E-10
 -1       598-5.08289E+04-1.49457E+04-1.05064E+02-2.94629E+04 3.15893E-10 1.21531E-10
 -1       599-5.19921E+04-1.37767E+04-1.33372E+02-2.81270E+04 3.03993E-09 7.75879E-09
 -1       600-5.08367E+04-1.49454E+04-2.46747E+02-2.94658E+04-1.04023E-11-3.83125E-11
 -1       601-5.19813E+04-1.37696E+04-4.87027E+02-2.81260E+04 3.90401E-10 5.21140E-10
 -1       602-5.09203E+04-1.49989E+04-1.05829E+03-2.94716E+04 4.56009E-09 5.95719E-09
 -1       603-5.19298E+04-1.39067E+04-2.16250E+03-2.80503E+04 9.93850E-10-1.68620E-09
 -1       604-5.20417E+04-1.63779E+04-5.09572E+03-2.92802E+04 2.30318E-09 6.94797E-09
 -1       605-5.15987E+04-1.76871E+04-1.03717E+04-2.63268E+04-2.36696E-10-5.45924E-10
 -1       606 3.76591E+04-4.48860E+03-6.79268E+03 1.10207E+04-2.18552E-09 9.89758E-10
 -1       607 3.66116E+04-1.54150E+03-3.33275E+03 1.20137E+04-3.11957E-10-1.13874E-09
 -1       608 3.72273E+04-3.52386E+02-1.48194E+03 1.09478E+04 1.56660E-09-7.47434E-10
 -1       609 3.70878E+04-1.06842E+02-7.42493E+02 1.20950E+04-7.08496E-10 4.81236E-10
 -1       610 3.71708E+04-6.19163E+00-3.49903E+02 1.09383E+04-2.55523E-09-1.29137E-09
 -1       611 3.71446E+04 7.01191E+00-1.76163E+02 1.21055E+04-4.48199E-09-7.09861E-10
 -1       612 3.71598E+04 1.20142E+01-8.35556E+01 1.09372E+04-1.81535E-09-1.60696E-09
 -1       613 3.71508E+04 1.16532E+01-3.85499E+01 1.21069E+04-2.51566E-09-8.94033E-10
 -1       614 3.71557E+04 1.02673E+01-1.13031E+01 1.09369E+04-1.59162E-12-6.98947E-10
 -1       615 3.71512E+04 1.16216E+01 1.01272E+01 1.21071E+04 2.47860E-09-4.29964E-10
 -1       616 3.71527E+04 1.18940E+01 3.61290E+01 1.09370E+04-8.53106E-10 2.88765E-11
 -1       617 3.71570E+04 2.51202E+01 8.53184E+01 1.21067E+04-3.46972E-10-5.98789E-10
 -1       618 3.71451E+04 5.29558E+01 1.74266E+02 1.09372E+04 2.69438E-11-8.46057E-10
 -1       619 3.72131E+04 1.95210E+02 3.94290E+02 1.21051E+04 1.24146E-10 2.04409E-10
 -1       620 3.70938E+04 5.43153E+02 8.04599E+02 1.09383E+04 4.36216E-10-3.93470E-10
 -1       621 7.47886E+02 1.15729E+05 1.91732E+03-1.01739E+04-8.24116E-10 3.20597E-11
 -1       622 2.89447E+02 1.16094E+05 1.65323E+03-1.20058E+04-8.71978E-10 1.13323E-09
 -1       623 1.79571E+02 1.15801E+05 2.11304E+03-1.01853E+04-8.47990E-10 2.13322E-09
 -1       624 1.20139E+03 1.16647E+05 4.12964E+03-1.19522E+04-8.80846E-10 1.62822E-09
 -1       625 3.69490E+03 1.15183E+05 7.91332E+03-1.02270E+04-6.36646E-10-6.41421E-10
 -1       626 5.44951E+04 1.79237E+04-2.69489E+03 3.67251E+04-8.69477E-10-1.39971E-09
 -1       627 5.30898E+04 1.99965E+04-1.27726E+03 3.74767E+04-9.22228E-10-9.61109E-10
 -1       628 5.45666E+04 1.92543E+04-5.36213E+02 3.60675E+04-1.14214E-08-2.79442E-10
 -1       629 5.32845E+04 2.05568E+04-2.57121E+02 3.74370E+04-2.24218E-08 4.32210E-09
 -1       630 5.45643E+04 1.93468E+04-1.12947E+02 3.60139E+04-1.15515E-08-1.44590E-09
 -1       631 5.32992E+04 2.05985E+04-4.99126E+01 3.74388E+04-2.91311E-09-8.40302E-10
 -1       632 5.45599E+04 1.93494E+04-1.23137E+01 3.60096E+04-3.38309E-09-7.41352E-10
 -1       633 5.33007E+04 2.06002E+04 1.64925E+01 3.74400E+04 1.32923E-09 1.41529E-09
 -1       634 5.45562E+04 1.93463E+04 5.38734E+01 3.60092E+04 3.60274E-10-9.81117E-11
 -1       635 5.33075E+04 2.06017E+04 1.26770E+02 3.74416E+04 1.57024E-09 2.04523E-10
 -1       636 5.45506E+04 1.93528E+04 2.65196E+02 3.60047E+04-4.67708E-10 3.10138E-10
 -1       637 5.33712E+04 2.06762E+04 5.93793E+02 3.74295E+04 1.74595E-10 2.11480E-09
 -1       638 5.45366E+04 1.95771E+04 1.23183E+03 3.59071E+04 6.74800E-09 1.37584E-08
 -1       639 5.39968E+04 2.17887E+04 2.93288E+03 3.71532E+04 3.66776E-09 5.79485E-09
 -1       640 5.45699E+04 2.27829E+04 6.18878E+03 3.45777E+04-1.96917E-09-6.24993E-09
 -1       641 3.61348E+02 1.13922E+03-2.63541E+03-2.88296E+01-1.87103E-09 1.09480E-10
 -1       642-7.78915E+02-1.31872E+03-1.86288E+03 1.17165E+02-1.55390E-09 1.20500E-09
 -1       643-7.85763E+01 1.78501E+02-6.79463E+02-2.86581E+01-2.61839E-09-4.07596E-10
 -1       644-2.66527E+02-2.06031E+02-4.22375E+02 1.16988E+02 4.56901E-10-4.44821E-10
 -1       645-1.51092E+02 2.74523E+01-1.62861E+02-2.86528E+01 2.89937E-10 2.17332E-09
 -1       646-1.80488E+02-2.90616E+01-7.75838E+01 1.16983E+02-1.06813E-08 1.44985E-09
 -1       647-1.64636E+02 1.67421E+00-3.45427E-01-2.86530E+01-2.58196E-06 3.07827E-09
 -1       648-1.56375E+02 1.48829E+01 7.14656E+01 1.16979E+02-5.15091E-06 5.16434E-09
 -1       649-1.75212E+02-1.64630E+01 1.62346E+02-2.86486E+01-2.58332E-06 2.85445E-09
 -1       650-9.65911E+01 1.26885E+02 3.93243E+02 1.16927E+02-4.41513E-09-3.79792E-10
 -1       651-2.24413E+02-1.10262E+02 6.84524E+02-2.86018E+01-5.64233E-11 3.40606E-10
 -1       652 2.41112E+02 8.17899E+02 1.69370E+03 1.16699E+02 5.34114E-10 2.40144E-09
 -1       653-5.12890E+02-7.06974E+02 2.69844E+03-2.84209E+01 8.23760E-10 2.17210E-09
 -1       654 2.27460E+03 5.22112E+03 7.38065E+03 1.15703E+02-2.66784E-09 1.49294E-09
 -1       655-2.25774E+03-4.50996E+03 1.04317E+04-2.76076E+01 7.33655E-10 1.86537E-09
 -1       656 3.37472E+03-1.36749E+05-1.62110E+04 4.37301E+03 1.80989E-10-3.61024E-09
 -1       657-5.11581E+03-1.42578E+05-1.17391E+04 1.54074E+04-9.10916E-10-4.64388E-09
 -1       658 6.32591E+02-1.38839E+05-7.52044E+03 4.34673E+03-2.46018E-10-2.41124E-09
 -1       659-4.68728E+03-1.42324E+05-1.09626E+04 1.54224E+04-1.53102E-09 9.00327E-10
 -1       660 3.04475E+03-1.37009E+05-1.47310E+04 4.35813E+03-5.02041E-10-2.49543E-11
 -1       661 1.32461E+05 1.70817E+04 1.08176E+04 5.17511E+04-1.73941E-11 3.46063E-10
 -1       662 1.34919E+05 2.51687E+04 6.78194E+03 5.33007E+04 1.36115E-09-5.42059E-10
 -1       663 1.34300E+05 1.94322E+04 2.55327E+03 5.15193E+04 3.38360E-10-3.46006E-09
 -1       664 1.32802E+05 2.20538E+04 1.39649E+03 5.37415E+04-2.05580E-09-2.36514E-09
 -1       665 1.34504E+05 1.96799E+04 5.98386E+02 5.15036E+04-1.65207E-09 1.08938E-09
 -1       666 1.32567E+05 2.17352E+04 3.23791E+02 5.37725E+04-6.01403E-11 1.96318E-09
 -1       667 1.34527E+05 1.97071E+04 1.82004E+02 5.15041E+04-3.60835E-09 2.28930E-09
 -1       668 1.32546E+05 2.17072E+04 1.71416E+02 5.37730E+04-1.43938E-09 1.56717E-09
 -1       669 1.34525E+05 1.97053E+04 2.41874E+02 5.15040E+04 2.36096E-09 9.44766E-10
 -1       670 1.32587E+05 2.17560E+04 4.88953E+02 5.37724E+04 4.29895E-09 1.11456E-09
 -1       671 1.34487E+05 1.96623E+04 9.34256E+02 5.15035E+04-8.42135E-11 9.06994E-10
 -1       672 1.32959E+05 2.22586E+04 2.19952E+03 5.37223E+04 4.51607E-10-2.30102E-10
 -1       673 1.34164E+05 1.92717E+04 4.02789E+03 5.15286E+04 1.79193E-09-2.11185E-09
 -1       674 1.36301E+05 2.71775E+04 1.07046E+04 5.30282E+04 1.66932E-09 4.96129E-10
 -1       675 1.31262E+05 1.55595E+04 1.70752E+04 5.18919E+04-1.41426E-10 2.05546E-10
 -1       676 2.42022E+02-1.29367E+05-1.43823E+03 2.16475E+01-1.38903E-09 3.04303E-09
 -1       677-5.45356E+02-1.29913E+05-1.74547E+03-8.45974E+01-3.18001E-09 4.99546E-09
 -1       678 1.95032E+02-1.29389E+05-2.30733E+03 2.15511E+01-1.46588E-09 5.34182E-09
 -1       679-2.45530E+03-1.31072E+05-5.21969E+03-8.44370E+01-3.56499E-09-7.95090E-10
 -1       680 1.73039E+03-1.28209E+05-8.05468E+03 2.12851E+01-3.82897E-10-8.76824E-10
 -1       681 2.83790E+05-8.43312E+03 1.94064E+04 8.39354E+02 6.41194E-11 1.68257E-10
 -1       682 2.92715E+05 9.75690E+03 1.38248E+04-2.91108E+03 1.19336E-10-4.80668E-10
 -1       683 2.87227E+05-1.31641E+03 5.03344E+03 1.63195E+02 2.00870E-10 8.09678E-10
 -1       684 2.88696E+05 1.52502E+03 3.18605E+03-1.95665E+03 3.81384E-10-3.14742E-10
 -1       685 2.87805E+05-2.04450E+02 1.31367E+03-1.15089E+02 1.74150E-10 1.56075E-09
 -1       686 2.88029E+05 2.44938E+02 8.12206E+02-1.65504E+03 8.17393E-10-5.46834E-10
 -1       687 2.87894E+05-3.65685E+01 4.51826E+02-1.38419E+02-1.80870E-10 8.44715E-10
 -1       688 2.87977E+05 8.73832E+01 4.63603E+02-1.85179E+03-5.55515E-10-4.83977E-10
 -1       689 2.87857E+05-4.74578E+01 5.87918E+02 8.16604E+01-5.74328E-10 9.08500E-10
 -1       690 2.88284E+05 3.52762E+02 1.24921E+03-2.64319E+03 1.10866E-09-7.50745E-10
 -1       691 2.87591E+05-3.04397E+02 2.02123E+03 6.52995E+02 3.56863E-10-2.27601E-10
 -1       692 2.89935E+05 2.35265E+03 5.16086E+03-4.41864E+03 9.15335E-10 3.47029E-10
 -1       693 2.86221E+05-2.05637E+03 7.84207E+03 1.85716E+03-1.76638E-09-1.44337E-09
 -1       694 2.98713E+05 1.55861E+04 2.25193E+04-8.09912E+03-5.05700E-09 2.07774E-09
 -1       695 2.78874E+05-1.35683E+04 3.01821E+04 4.33384E+03-3.37440E-09-4.48017E-09
 -1       696-5.08313E+03 1.99521E+05 1.16258E+04 2.23594E-01 2.91038E-11-7.44913E-10
 -1       697 5.59619E+03 2.04465E+05 7.69567E+03-6.08969E+02 4.22915E-11-7.77163E-09
 -1       698-5.08009E+02 2.01629E+05 1.91667E+03-4.01817E+01-2.05659E-09-2.74559E-06
 -1       699-1.25480E+03 2.01298E+05-1.23197E+03-5.86861E+02-4.07340E-09-5.47077E-06
 -1       700 1.76240E+03 2.02689E+05-3.73529E+03-2.18885E+01-1.97838E-09-2.74797E-06
 -1       701-2.60725E+05-2.56774E+04-3.15782E+04-1.04643E+05-4.54293E-10 4.60204E-10
 -1       702-2.78802E+05-4.97305E+04-2.14070E+04-9.36216E+04-3.54703E-11-3.85216E-09
 -1       703-2.64962E+05-3.77762E+04-7.37430E+03-1.03468E+05 1.94711E-09 5.54110E-09
 -1       704-2.73619E+05-3.58230E+04-4.53477E+03-9.51057E+04 2.58714E-09 7.42250E-09
 -1       705-2.65927E+05-3.95607E+04-1.74415E+03-1.03178E+05 9.08159E-10 6.76596E-09
 -1       706-2.70428E+05-3.46330E+04-7.49337E+02-9.62968E+04-1.59676E-09 2.06569E-10
 -1       707-2.68133E+05-3.89795E+04-7.24205E+02-1.02262E+05 2.95668E-09 3.05747E-09
 -1       708-2.66290E+05-3.67892E+04 1.69029E+02-9.89497E+04-1.07525E-09 1.98696E-09
 -1       709-2.70039E+05-3.74238E+04-7.57925E+02-1.00505E+05 1.30942E-09 5.28014E-10
 -1       710-2.64104E+05-4.01286E+04-5.02880E+02-1.02553E+05 1.71111E-09-1.59636E-09
 -1       711-2.70333E+05-3.56303E+04-1.64930E+03-9.86687E+04 2.76441E-09 6.26574E-09
 -1       712-2.64848E+05-4.40026E+04-4.02193E+03-1.04786E+05 6.16097E-10 1.24182E-08
 -1       713-2.69325E+05-3.35290E+04-6.56646E+03-9.82940E+04-1.64971E-09 5.34783E-10
 -1       714-2.71480E+05-5.52403E+04-1.92838E+04-1.02150E+05-2.67846E-09-2.11844E-09
 -1       715-2.63697E+05-2.44049E+04-2.82252E+04-1.01298E+05-2.11594E-09-2.74486E-09
 -1       716-4.13224E+04-9.24440E+02 1.53861E+03 1.34506E+02 6.03191E-09-3.91287E-09
 -1       717-3.65906E+04 1.04064E+03 1.81303E+03-1.95982E+03 2.56772E-09-4.40693E-10
 -1       718-4.05935E+04-1.51198E+02 2.83906E+02 4.27802E+02 5.03491E-10-8.28010E-10
 -1       719-3.78177E+04 1.55684E+02 6.37578E+02-2.49192E+03-1.70098E-09-1.09157E-10
 -1       720-4.01163E+04-2.50416E+01 5.13707E+01 6.66348E+02 2.21939E-09 7.30260E-10
 -1       721-3.86757E+04 2.92036E+01 3.24735E+02-2.89788E+03 3.09052E-09-9.20190E-10
 -1       722-3.97558E+04-1.01648E+01 1.70834E+02 8.33670E+02 1.83803E-09 1.81090E-09
 -1       723-3.92227E+04 8.07053E+01 4.67094E+02-3.15205E+03 4.39115E-11-9.73472E-10
 -1       724-3.95840E+04-6.59369E+01 7.40509E+02 9.20535E+02 2.98611E-09 2.09971E-09
 -1       725-3.91979E+04 5.37430E+02 1.70182E+03-3.24025E+03 3.17617E-09-1.01116E-09
 -1       726-3.97860E+04-4.62643E+02 2.91826E+03 9.21901E+02 3.34569E-09 2.16460E-09
 -1       727-3.75664E+04 3.47722E+03 7.24326E+03-3.15868E+03 4.46190E-09-1.03830E-09
 -1       728-4.12101E+04-3.00717E+03 1.14207E+04 8.38949E+02 1.41296E-09 1.24510E-09
 -1       729-2.83476E+04 2.22328E+04 3.15151E+04-2.93708E+03 7.10891E-10 7.11680E-10
 -1       730-4.89869E+04-1.92127E+04 4.41871E+04 7.00269E+02 1.99981E-09-9.09495E-12
 -1       731-6.98473E+03 9.99627E+04 1.41641E+04-3.79918E+03-3.35967E-09-1.96746E-09
 -1       732 8.34795E+03 1.17682E+05 1.28091E+04 1.21079E+04 9.68612E-10-1.06070E-10
 -1       733-1.43188E+03 1.06198E+05 5.37737E+03-2.61480E+03-4.82373E-10-1.03850E-09
 -1       734 4.55722E+03 1.11056E+05 7.37599E+03 1.05446E+04 2.16460E-10-2.63777E-09
 -1       735-3.11402E+03 1.06468E+05 7.72361E+03-2.23539E+03 7.37828E-10-1.50582E-09
 -1       736-2.66442E+05-4.01570E+04-2.46845E+04-1.12452E+05 1.51344E-08-1.05510E-08
 -1       737-2.55382E+05-2.24095E+04-7.89664E+03-6.61991E+04 4.16917E-08 1.06580E-08
 -1       738-2.44585E+05-4.50573E+04-4.67024E+03-1.08716E+05 7.74162E-09 3.69785E-08
 -1       739-2.69687E+05-1.61054E+04-1.37958E+03-6.92210E+04-2.41684E-08-5.31526E-09
 -1       740-2.52432E+05-4.62387E+04-2.60504E+03-1.09671E+05 1.05825E-09-2.27215E-08
 -1       741-2.32580E+05-1.61214E+04 7.63061E+03-6.63031E+04-1.49691E-09-2.01414E-08
 -1       742-2.81099E+05-4.54780E+04-7.09497E+03-1.11160E+05-7.81085E-09 1.86611E-09
 -1       743-1.94722E+05-2.50155E+04 1.35955E+04-7.32704E+04 4.18100E-09 5.82418E-09
 -1       744-2.89791E+05-3.77168E+04-7.23191E+03-1.02339E+05 8.79220E-09-1.08172E-08
 -1       745-2.03360E+05-4.30263E+04 8.18588E+03-9.69473E+04 2.25988E-08 5.93650E-09
 -1       746-2.72904E+05-2.71402E+04-2.63735E+03-8.78363E+04 1.76494E-08 4.44631E-08
 -1       747-2.28005E+05-5.65853E+04-6.54014E+02-1.15952E+05 5.76594E-09 7.18481E-09
 -1       748-2.65791E+05-2.36760E+04-3.61098E+03-8.38005E+04 2.13991E-08 8.62383E-09
 -1       749-2.20493E+05-5.62362E+04-5.50044E+03-1.07832E+05-6.23788E-09 1.41964E-08
 -1       750-2.80155E+05-2.76898E+04-2.03749E+04-9.57683E+04-8.89668E-09-1.21272E-08
 -1       751 1.12678E+06-6.48235E+04 1.50094E+05 1.68375E+03-1.24922E-08-2.91038E-11
 -1       752 1.19193E+06 7.50520E+04 1.06177E+05-2.10521E+03-1.52258E-09-9.22228E-10
 -1       753 1.15193E+06-1.01604E+04 3.88731E+04 3.62296E+02-3.78312E-10 6.91216E-11
 -1       754 1.16266E+06 1.17590E+04 2.44478E+04-4.89212E+02 8.04572E-10 1.14960E-09
 -1       755 1.15608E+06-1.58961E+03 1.00069E+04 6.78528E+01-3.37694E-10 2.02817E-10
 -1       756 1.15784E+06 1.86300E+03 5.98144E+03-1.28063E+02 1.83010E-09-1.43439E-09
 -1       757 1.15676E+06-2.72260E+02 2.93865E+03 1.14401E+00 3.60962E-07 3.44812E-10
 -1       758 1.15712E+06 4.83330E+02 2.34872E+03-4.85782E+01 7.18049E-07 7.29450E-10
 -1       759 1.15680E+06-2.10865E+02 2.38623E+03-1.16333E+01 1.78154E-07 1.09463E-09
 -1       760 1.15756E+06 1.33505E+03 4.38365E+03-4.38648E+01-3.59807E-07 1.12686E-09
 -1       761 1.15633E+06-1.12339E+03 7.13079E+03-3.56942E+00-1.80486E-07 3.15595E-10
 -1       762 1.16094E+06 8.29183E+03 1.72700E+04-1.01835E+02 2.96966E-09 2.47155E-10
 -1       763 1.15341E+06-7.16217E+03 2.74133E+04 4.63375E+01 5.23457E-09 9.47693E-10
 -1       764 1.18151E+06 5.28892E+04 7.48238E+04-3.77076E+02 1.03878E-09 4.08363E-10
 -1       765 1.13572E+06-4.56809E+04 1.05769E+05 2.71661E+02-5.58471E-10-5.09317E-10
 -1       766-2.48203E+04 8.92158E+04 5.74279E+04 5.32037E+03 3.32147E-09-1.14505E-09
 -1       767 2.97660E+04 1.18055E+05 4.33181E+04-2.30517E+04 1.17066E-08-1.09011E-09
 -1       768-4.84956E+03 9.85539E+04 1.90588E+04 5.25488E+03 4.86943E-09 1.93438E-09
 -1       769 1.45384E+04 1.21319E+05 2.45113E+04-2.45371E+04 1.33946E-09-1.08713E-10
 -1       770-9.78234E+03 8.62042E+04 1.89049E+04 6.80625E+03-3.74894E-09-7.21570E-10
 -1       771-6.33071E+05-1.27505E+05-2.08922E+04-2.74557E+05-3.49155E-09-7.37782E-09
 -1       772-6.31157E+05-1.27575E+05-1.02560E+04-2.83610E+05-1.04137E-09-3.97677E-09
 -1       773-6.33922E+05-1.19734E+05-4.35990E+03-2.77899E+05 1.92085E-09 7.18683E-09
 -1       774-6.28807E+05-1.24941E+05-2.12983E+03-2.84225E+05 8.26731E-10-1.05547E-09
 -1       775-6.34090E+05-1.19411E+05-9.84430E+02-2.78062E+05 3.80169E-10-9.44056E-10
 -1       776-6.28668E+05-1.24835E+05-4.97442E+02-2.84275E+05 4.43833E-10-1.37504E-09
 -1       777-6.34155E+05-1.19400E+05-2.72103E+02-2.78082E+05 3.26781E-09 5.15951E-09
 -1       778-6.28680E+05-1.24827E+05-2.13991E+02-2.84303E+05 4.06544E-10 1.35373E-09
 -1       779-6.34184E+05-1.19382E+05-2.71827E+02-2.78096E+05-2.06455E-10 4.67367E-10
 -1       780-6.28716E+05-1.24820E+05-4.99588E+02-2.84331E+05-2.45564E-10-2.18279E-11
 -1       781-6.34179E+05-1.19358E+05-9.87299E+02-2.78102E+05-2.97769E-09-7.36463E-09
 -1       782-6.28895E+05-1.24927E+05-2.14556E+03-2.84352E+05 2.01226E-10-2.04636E-10
 -1       783-6.34076E+05-1.19634E+05-4.38606E+03-2.77950E+05 1.51232E-10 1.50976E-10
 -1       784-6.31172E+05-1.27725E+05-1.03397E+04-2.83959E+05-4.00291E-10-7.14863E-10
 -1       785-6.33396E+05-1.27311E+05-2.10477E+04-2.74452E+05 1.64164E-10 5.81167E-10
 -1       786 9.59506E+04-2.73088E+03 1.26567E+04-8.96533E+02 2.14754E-10 2.66937E-10
 -1       787 1.00448E+05 3.83149E+03 8.04956E+03-3.19474E+03-3.45608E-11-1.06979E-10
 -1       788 9.78420E+04-2.73334E+02 3.27661E+03-8.89966E+02-8.65157E-11-3.16049E-10
 -1       789 9.83469E+04 3.63579E+02 1.81778E+03-3.20025E+03-1.99776E-10-9.76570E-10
 -1       790 9.80502E+04-2.91618E+01 8.31430E+02-8.90905E+02 2.13106E-10-3.45437E-10
 -1       791 9.81116E+04 3.40129E+01 4.44144E+02-3.19879E+03 7.84439E-11-1.28082E-10
 -1       792 9.80766E+04-3.73318E+00 2.27968E+02-8.91422E+02 7.31362E-11-1.14539E-10
 -1       793 9.80827E+04 4.22454E+00 1.50401E+02-3.19848E+03-3.87601E-12-6.03634E-10
 -1       794 9.80791E+04-2.04207E+00 1.38105E+02-8.91219E+02-9.30669E-11-6.28070E-10
 -1       795 9.80910E+04 1.42948E+01 2.08212E+02-3.19975E+03 2.42153E-11-6.36872E-10
 -1       796 9.80688E+04-1.25104E+01 3.59921E+02-8.90153E+02-1.10902E-10-4.22716E-10
 -1       797 9.81896E+04 1.52399E+02 7.69394E+02-3.20183E+03-2.29022E-10 2.87564E-10
 -1       798 9.79815E+04-1.15283E+02 1.37968E+03-8.89134E+02 1.19087E-10 1.33770E-09
 -1       799 9.90732E+04 1.60976E+03 3.38470E+03-3.19555E+03-6.54040E-10 1.79017E-09
 -1       800 9.71867E+04-1.14857E+03 5.32000E+03-8.96494E+02 9.78844E-11-1.07093E-10
 -1       801-3.37064E+03 1.01882E+05 1.56020E+04-1.08130E+05-4.36830E-09 2.83762E-10
 -1       802 7.46548E+03 1.06989E+05 1.64726E+04-3.84657E+05-1.84446E-09-5.23869E-10
 -1       803-9.39281E+02 1.02223E+05 1.84667E+04-1.07779E+05-5.82804E-09 3.66799E-09
 -1       804 2.00309E+04 1.14665E+05 3.93632E+04-3.84641E+05-3.12775E-09-2.23326E-09
 -1       805-1.31994E+04 9.42739E+04 5.91962E+04-1.08147E+05-2.26646E-09 1.44064E-09
 -1       806-9.90608E+04-2.70953E+04-8.28682E+03-4.66439E+04-8.25196E-10 1.46929E-09
 -1       807-9.90170E+04-2.50374E+04-3.92712E+03-4.92644E+04-4.21664E-09-5.30537E-09
 -1       808-9.90073E+04-2.28137E+04-1.65040E+03-4.84402E+04-8.70727E-10 2.71768E-10
 -1       809-9.81975E+04-2.35316E+04-7.96986E+02-4.96199E+04-5.52802E-10-4.21323E-10
 -1       810-9.90263E+04-2.25132E+04-3.59828E+02-4.85739E+04 2.28476E-09 7.04847E-09
 -1       811-9.81157E+04-2.34294E+04-1.79958E+02-4.96354E+04 2.62793E-09 7.34781E-09
 -1       812-9.90329E+04-2.25034E+04-9.33880E+01-4.85803E+04-2.01098E-10-1.94291E-10
 -1       813-9.81070E+04-2.34264E+04-6.76858E+01-4.96335E+04 5.20927E-10-1.95655E-09
 -1       814-9.90328E+04-2.25046E+04-7.70062E+01-4.85798E+04 1.74396E-10 3.62206E-10
 -1       815-9.81125E+04-2.34296E+04-1.36461E+02-4.96334E+04 6.50289E-11 2.59433E-10
 -1       816-9.90266E+04-2.25128E+04-2.66265E+02-4.85745E+04-2.85604E-09-7.00697E-09
 -1       817-9.81737E+04-2.35030E+04-5.86782E+02-4.96184E+04 1.81331E-10-2.24418E-10
 -1       818-9.90100E+04-2.27368E+04-1.21350E+03-4.84781E+04 2.25987E-09 7.89964E-09
 -1       819-9.87936E+04-2.45909E+04-2.88647E+03-4.93344E+04-9.92827E-10 5.99016E-10
 -1       820-9.90297E+04-2.58997E+04-6.09011E+03-4.71762E+04-1.84400E-10-2.81091E-10
 -1       821-1.05005E+05 2.92373E+03-1.35557E+04 9.95007E+02-1.10367E-09 4.04725E-10
 -1       822-1.09818E+05-4.10361E+03-8.62152E+03 3.56500E+03-7.36236E-10-2.13765E-09
 -1       823-1.07031E+05 2.92219E+02-3.51072E+03 9.76475E+02 1.40153E-09-4.45880E-10
 -1       824-1.07571E+05-3.87805E+02-1.94924E+03 3.58739E+03-3.42197E-10 8.32415E-10
 -1       825-1.07254E+05 3.14555E+01-8.95885E+02 9.72482E+02-2.18574E-09 1.10703E-09
 -1       826-1.07322E+05-3.39682E+01-4.86499E+02 3.59359E+03-3.46427E-09 7.11395E-10
 -1       827-1.07282E+05 4.86434E+00-2.65765E+02 9.70248E+02-2.16613E-09-1.33065E-09
 -1       828-1.07294E+05-2.78065E+00-2.05568E+02 3.59718E+03-2.57441E-09-1.86786E-09
 -1       829-1.07283E+05 4.47320E+00-2.34772E+02 9.68886E+02-4.45283E-10-9.65185E-10
 -1       830-1.07316E+05-2.66207E+01-4.05333E+02 3.59869E+03 2.27954E-09-2.23952E-10
 -1       831-1.07261E+05 2.62950E+01-7.33408E+02 9.68738E+02-1.43012E-09-1.47520E-09
 -1       832-1.07520E+05-3.13992E+02-1.58846E+03 3.59763E+03 4.09329E-10-2.66255E-10
 -1       833-1.07079E+05 2.38756E+02-2.85748E+03 9.69971E+02-7.28733E-11-2.65800E-10
 -1       834-1.09349E+05-3.33717E+03-7.01588E+03 3.58727E+03 3.74087E-10 2.88424E-10
 -1       835-1.05431E+05 2.38029E+03-1.10301E+04 9.79348E+02 1.06780E-09-1.72213E-09
 -1       836-4.47553E+03 2.59504E+05 2.19195E+04-7.30973E+03-4.24734E-10-1.10526E-09
 -1       837 7.06619E+03 2.67445E+05 1.70096E+04-2.58285E+04 9.38485E-11-2.18472E-09
 -1       838-1.07682E+03 2.62062E+05 1.28138E+04-7.29126E+03-6.50516E-10-1.08780E-09
 -1       839 9.62580E+03 2.68996E+05 2.16660E+04-2.58283E+04 2.89219E-10-6.28233E-10
 -1       840-6.46865E+03 2.57951E+05 3.07898E+04-7.30985E+03-7.07587E-10 7.43285E-10
 -1       841-3.07868E+02 1.30664E+03-3.47756E+03-7.31152E+02 4.63615E-10 6.42558E-10
 -1       842-2.20404E+03-1.82937E+03-2.41363E+03-5.66312E+01-6.61714E-10 4.58954E-10
 -1       843-1.01726E+03 5.54725E+01-8.14256E+02-4.95055E+02 4.04057E-10 1.44553E-10
 -1       844-1.37998E+03-3.80415E+02-5.06964E+02-3.28747E+02 2.68992E-09 1.15273E-09
 -1       845-1.13184E+03-1.41377E+02-1.85182E+02-4.59414E+02-3.16177E-10 1.01174E-10
 -1       846-1.24602E+03-1.51317E+02-1.00845E+02-3.69818E+02-1.81026E-09 1.02597E-09
 -1       847-1.15121E+03-1.73481E+02-2.74750E+01-4.54045E+02-6.16330E-07 2.30180E-07
 -1       848-1.21854E+03-1.06593E+02 1.43168E+01-3.77068E+02-1.23078E-06 4.63277E-07
 -1       849-1.15933E+03-1.86074E+02 5.96357E+01-4.52178E+02-1.05121E-06 3.92951E-07
 -1       850-1.17959E+03-4.38012E+01 1.69896E+02-3.87434E+02-8.68290E-07 3.26574E-07
 -1       851-1.19016E+03-2.36238E+02 3.00313E+02-4.43694E+02-4.35245E-07 1.62895E-07
 -1       852-9.63851E+02 3.21858E+02 8.14835E+02-4.53105E+02-2.21601E-09-9.37348E-11
 -1       853-1.37503E+03-5.51515E+02 1.30571E+03-3.86586E+02-1.86168E-09-6.32440E-10
 -1       854 3.59445E+02 2.64379E+03 3.87011E+03-8.89733E+02 7.29869E-10 4.23483E-11
 -1       855-2.51321E+03-2.55665E+03 5.57429E+03-7.61704E+00-1.39380E-10-1.92813E-10
 -1       856-1.25833E+05 2.78900E+03-1.29366E+04 1.98495E+03 7.86940E-10-9.70431E-10
 -1       857-1.30424E+05-3.91102E+03-8.22644E+03 7.16029E+03 3.31329E-09-1.98395E-09
 -1       858-1.27768E+05 2.79493E+02-3.34993E+03 1.95438E+03 2.74042E-09-7.88759E-10
 -1       859-1.28285E+05-3.63525E+02-1.85854E+03 7.19813E+03 5.25870E-09-8.13770E-10
 -1       860-1.27982E+05 3.16937E+01-8.52322E+02 1.94683E+03 3.64582E-09-4.26382E-10
 -1       861-1.28049E+05-2.47138E+01-4.58670E+02 7.20873E+03-2.94992E-09-1.64869E-09
 -1       862-1.28009E+05 6.75016E+00-2.42754E+02 1.94373E+03 3.57483E-09-1.54816E-09
 -1       863-1.28022E+05 6.01908E+00-1.73876E+02 7.21254E+03 7.81919E-09-1.82997E-09
 -1       864-1.28011E+05 5.75395E+00-1.80646E+02 1.94301E+03 3.10058E-09-2.18816E-09
 -1       865-1.28036E+05-1.05887E+01-2.95786E+02 7.21128E+03 4.58499E-09-2.75693E-09
 -1       866-1.27995E+05 2.07045E+01-5.26566E+02 1.94499E+03 3.59876E-10-1.40270E-09
 -1       867-1.28178E+05-2.16645E+02-1.13461E+03 7.20398E+03-3.72097E-10-1.43215E-09
 -1       868-1.27865E+05 1.71164E+02-2.03966E+03 1.95034E+03 5.45242E-10-1.55831E-09
 -1       869-1.29478E+05-2.37490E+03-5.00479E+03 7.17262E+03-1.12362E-09-1.54523E-09
 -1       870-1.26688E+05 1.69706E+03-7.86960E+03 1.97657E+03 1.55660E-09-7.46240E-10
 -1       871-1.25983E+03-1.22093E+04-2.37364E+03 3.58635E+04-1.13232E-09-3.68004E-09
 -1       872-3.90168E+02-1.26363E+04-6.93499E+02 4.21001E+04-2.66800E-09-1.05721E-08
 -1       873 3.71704E+01-1.24707E+04 7.02150E+02 3.57941E+04-1.65767E-09 1.01261E-09
 -1       874 8.32158E+02-1.19063E+04 2.61526E+03 4.21301E+04-1.97861E-09 1.08502E-08
 -1       875 2.68452E+03-1.29512E+04 5.63818E+03 3.58353E+04-2.03954E-09 4.22017E-09
 -1       876 1.54522E+05 1.96607E+04 1.45681E+04 6.07634E+04 4.32010E-12 6.20275E-10
 -1       877 1.57749E+05 3.06413E+04 9.13340E+03 6.29535E+04 1.33107E-09-9.22000E-11
 -1       878 1.56999E+05 2.28269E+04 3.43765E+03 6.04514E+04 2.12140E-10-2.44722E-09
 -1       879 1.54898E+05 2.64447E+04 1.87918E+03 6.35441E+04-2.31040E-10 5.96856E-10
 -1       880 1.57271E+05 2.31624E+04 8.02385E+02 6.04318E+04-1.88294E-09-2.38856E-10
 -1       881 1.54584E+05 2.60129E+04 4.28821E+02 6.35819E+04-2.11318E-09-2.66203E-09
 -1       882 1.57302E+05 2.32010E+04 2.30217E+02 6.04340E+04-5.35209E-09 2.19963E-09
 -1       883 1.54554E+05 2.59712E+04 1.98308E+02 6.35792E+04-1.93131E-09-8.57144E-10
 -1       884 1.57299E+05 2.32012E+04 2.60244E+02 6.04349E+04 2.45315E-11-6.82434E-10
 -1       885 1.54596E+05 2.60197E+04 5.11528E+02 6.35769E+04 2.64410E-09-1.09131E-09
 -1       886 1.57260E+05 2.31569E+04 9.70745E+02 6.04347E+04-2.12083E-10 2.85024E-09
 -1       887 1.54982E+05 2.65407E+04 2.28136E+03 6.35253E+04-1.17353E-09 4.46039E-09
 -1       888 1.56925E+05 2.27514E+04 4.17623E+03 6.04604E+04-7.54888E-10 2.05341E-09
 -1       889 1.58447E+05 3.16402E+04 1.10978E+04 6.28063E+04 4.03688E-10 5.02496E-11
 -1       890 1.53917E+05 1.89030E+04 1.77018E+04 6.08373E+04-2.10434E-09 1.10867E-09
 -1       891 5.40692E+02-6.93374E+04-2.72484E+03 8.46480E+03-1.19178E-09-8.41283E-12
 -1       892-9.02219E+02-7.03092E+04-2.17002E+03 3.00913E+04-4.41219E-09-1.92011E-09
 -1       893 1.41351E+02-6.96454E+04-1.72732E+03 8.43197E+03-1.66949E-10 6.01801E-10
 -1       894-1.38298E+03-7.05989E+04-3.04352E+03 3.00890E+04-3.15913E-09-1.40824E-09
 -1       895 9.13951E+02-6.90455E+04-4.38886E+03 8.46699E+03-2.20871E-09-2.22826E-10
 -1       896 3.02257E+05-2.00170E+03 4.63142E+03 2.38559E+02 3.46992E-10 9.84073E-10
 -1       897 3.04245E+05 2.31745E+03 3.27979E+03-2.76716E+01 5.63543E-10 1.00295E-09
 -1       898 3.03033E+05-3.13797E+02 1.20446E+03 1.68069E+02 1.49865E-10 7.76026E-10
 -1       899 3.03342E+05 3.63997E+02 7.65831E+02 9.11716E+01 1.22499E-10 8.38099E-10
 -1       900 3.03160E+05-4.97911E+01 3.30334E+02 1.19715E+02 7.10247E-10 6.88971E-10
 -1       901 3.03197E+05 6.34936E+01 2.31310E+02 1.91210E+02 5.11303E-10 7.53476E-10
 -1       902 3.03178E+05-1.35249E+01 1.77884E+02 6.80284E+01 1.01420E-09 7.01599E-10
 -1       903 3.03197E+05 5.41089E+01 2.65282E+02 3.24744E+02 8.96312E-10 6.84764E-10
 -1       904 3.03160E+05-4.04529E+01 4.21911E+02-1.38215E+01 9.22356E-11 3.65816E-10
 -1       905 3.03334E+05 2.95867E+02 9.39884E+02 5.60971E+02-4.57526E-10 9.31095E-11
 -1       906 3.03041E+05-2.55274E+02 1.60108E+03-1.68202E+02 1.53570E-10-2.85695E-10
 -1       907 3.04152E+05 1.89698E+03 3.95103E+03 1.02270E+03 7.93278E-10-2.39424E-10
 -1       908 3.02342E+05-1.64096E+03 6.26828E+03-4.75563E+02 6.17440E-10-8.28777E-10
 -1       909 3.09038E+05 1.21431E+04 1.71976E+04 1.96088E+03 1.42579E-09-1.59639E-09
 -1       910 2.98157E+05-1.04953E+04 2.42114E+04-1.10638E+03 2.00608E-09-2.33013E-09
 -1       911 1.80628E+04 3.13470E+02-1.06438E+03-8.81606E+02-6.07514E-10-9.95556E-10
 -1       912 1.94807E+04-3.80501E+02-4.20311E+02 3.47866E+03 6.09930E-11 9.97019E-10
 -1       913 1.84036E+04 5.76296E+01-2.84927E+02-7.96295E+02 9.23436E-10 2.48082E-09
 -1       914 1.89107E+04-7.03779E+01-8.29981E+01 3.34700E+03 3.16092E-10 3.80838E-09
 -1       915 1.86149E+04 1.63250E+01-5.39487E+01-7.49938E+02-2.26930E-09 4.12004E-09
 -1       916 1.86669E+04-1.53460E+01-6.60924E+00 3.29433E+03-4.03091E-09 4.99992E-09
 -1       917 1.86406E+04 7.46895E+00 3.20573E+01-7.43649E+02-2.74689E-09 4.26843E-09
 -1       918 1.88209E+04 7.41811E+00 1.23284E+02 3.32154E+03-2.91331E-09 4.47518E-09
 -1       919 1.84644E+04-8.92381E+00 1.50493E+02-7.77130E+02-2.50613E-09 2.93046E-09
 -1       920 1.94489E+04 1.16909E+02 5.63637E+02 3.42893E+03-1.98615E-09 2.46335E-09
 -1       921 1.80269E+04-1.12074E+02 6.30957E+02-8.51024E+02 2.42096E-10 6.49436E-11
 -1       922 2.08819E+04 8.70969E+02 2.16990E+03 3.61897E+03 1.63122E-09-1.78983E-09
 -1       923 1.70581E+04-7.81368E+02 2.66619E+03-9.67276E+02 1.04248E-09-4.55918E-09
 -1       924 2.48386E+04 5.79924E+03 8.67716E+03 3.91430E+03 5.27966E-09-7.50390E-09
 -1       925 1.41125E+04-5.06632E+03 1.07602E+04-1.14681E+03 4.35944E-09-1.06320E-08
 -1       926-2.55757E+05 5.69975E+03-1.32594E+04 5.00595E+03-1.40754E-09-1.45810E-08
 -1       927-2.60898E+05-6.55090E+03-9.24267E+03-8.76604E+03 1.81268E-08-1.66241E-08
 -1       928-2.58723E+05 8.83960E+02-3.56929E+03 4.38763E+03-3.19392E-09-1.27143E-08
 -1       929-2.55569E+05-9.31719E+02-1.46975E+03-5.95431E+03-1.26813E-08-1.26124E-08
 -1       930-2.61014E+05 2.95463E+01-1.38266E+03 2.19351E+03 5.60874E-10-6.47844E-09
 -1       931-2.52724E+05 1.64651E+01 7.00090E+02-8.02098E+02 8.16235E-09-3.64223E-09
 -1       932-2.61506E+05-1.11788E+02-7.37699E+02-7.64503E+02 3.52605E-09 1.66962E-09
 -1       933-2.53893E+05 1.38796E+02 1.00108E+03 4.73636E+03 1.20407E-09 5.53270E-09
 -1       934-2.59878E+05-6.71999E+01 7.40925E+01-3.34441E+03 3.33102E-11 8.48021E-09
 -1       935-2.56937E+05 3.02679E+02 1.17120E+03 8.53310E+03 4.47743E-09 1.22157E-08
 -1       936-2.58544E+05-2.11465E+02 1.63164E+03-4.56163E+03 4.13038E-11 1.18550E-08
 -1       937-2.56835E+05 1.94950E+03 4.13714E+03 9.15779E+03 9.85666E-09 1.36909E-08
 -1       938-2.59998E+05-1.69850E+03 6.26073E+03-3.96928E+03 1.02330E-08 9.71704E-09
 -1       939-2.49178E+05 1.26969E+04 1.82593E+04 6.40293E+03 6.02493E-09 9.23228E-09
 -1       940-2.66126E+05-1.10053E+04 2.42062E+04-1.80626E+03-1.14744E-09 3.67072E-09
 -1       941 1.84690E+06-9.26745E+04 2.14747E+05 2.20884E+02-1.94639E-07 2.61934E-10
 -1       942 1.93983E+06 1.07309E+05 1.51849E+05 6.63449E+01-4.00165E-07-1.84446E-09
 -1       943 1.88279E+06-1.45309E+04 5.56289E+04 1.57749E+02-3.22220E-07 3.38332E-10
 -1       944 1.89811E+06 1.68187E+04 3.49928E+04 1.37661E+02-2.34745E-07-6.31644E-10
 -1       945 1.88872E+06-2.27442E+03 1.43460E+04 1.49588E+02-1.46580E-07 1.67711E-09
 -1       946 1.89123E+06 2.67084E+03 8.60959E+03 1.46819E+02-6.54936E-08 2.85888E-09
 -1       947 1.88970E+06-3.94731E+02 4.29660E+03 1.48595E+02 5.35952E-09 2.34320E-09
 -1       948 1.89022E+06 7.31251E+02 3.55787E+03 1.47328E+02 7.80709E-08 1.76001E-09
 -1       949 1.88973E+06-3.36177E+02 3.76966E+03 1.49080E+02 3.41174E-07-2.54033E-09
 -1       950 1.89096E+06 2.16740E+03 7.08582E+03 1.42093E+02 6.03167E-07 2.30648E-09
 -1       951 1.88896E+06-1.82988E+03 1.16032E+04 1.53830E+02 1.88798E-06-3.51974E-09
 -1       952 1.89647E+06 1.35132E+04 2.81503E+04 1.00929E+02 3.17103E-06 2.78305E-10
 -1       953 1.88419E+06-1.16729E+04 4.47033E+04 1.90241E+02 1.58463E-06 3.89446E-09
 -1       954 1.92999E+06 8.61999E+04 1.21985E+05-2.17698E+02 1.63989E-09 2.66300E-09
 -1       955 1.85536E+06-7.44463E+04 1.72474E+05 4.72422E+02-9.02449E-09-8.80391E-10
 -1       956-9.55623E+04-1.68458E+03-3.58634E+03 1.29609E+04-1.57752E-09 1.08002E-10
 -1       957-9.62222E+04-5.37844E+02-1.81309E+03 1.50973E+04-6.23459E-10-4.88285E-10
 -1       958-9.58562E+04-6.15923E+01-8.15388E+02 1.28840E+04 1.12868E-09-1.05615E-09
 -1       959-9.59149E+04-1.08226E+01-4.14983E+02 1.51815E+04-7.91260E-10-1.05706E-09
 -1       960-9.58863E+04 1.25604E+01-2.01356E+02 1.28763E+04-2.39061E-09-1.03421E-09
 -1       961-9.58908E+04 1.30156E+01-1.06115E+02 1.51900E+04-3.95130E-09-6.81325E-10
 -1       962-9.58930E+04 1.25075E+01-5.94163E+01 1.28754E+04-1.66983E-09-6.03450E-10
 -1       963-9.58903E+04 1.38593E+01-4.54165E+01 1.51911E+04-2.88264E-09-2.55341E-10
 -1       964-9.58949E+04 1.32784E+01-5.22936E+01 1.28752E+04-8.24230E-10 1.27329E-10
 -1       965-9.58940E+04 1.49238E+01-8.80534E+01 1.51909E+04 1.30190E-09-1.16734E-09
 -1       966-9.58924E+04 1.49925E+01-1.63971E+02 1.28756E+04-2.21496E-09-2.00203E-10
 -1       967-9.59167E+04-2.65415E+00-3.36641E+02 1.51864E+04-7.76254E-10-9.75660E-10
 -1       968-9.58707E+04-4.34897E+01-6.60542E+02 1.28798E+04-6.59907E-09-1.37175E-09
 -1       969-9.61686E+04-4.28241E+02-1.46896E+03 1.51404E+04-9.83584E-09 8.32188E-11
 -1       970-9.56345E+04-1.35756E+03-2.90525E+03 1.29222E+04-3.15140E-09-3.81988E-11
 -1       971-1.81881E+05 2.29379E+03-1.06449E+04 1.99656E+03-4.36808E-09-5.67525E-10
 -1       972-1.85650E+05-3.21749E+03-6.76932E+03 7.24880E+03-4.48279E-09 6.11180E-10
 -1       973-1.83473E+05 2.29627E+02-2.75852E+03 1.96015E+03-4.76348E-09-3.64253E-10
 -1       974-1.83891E+05-2.97974E+02-1.53324E+03 7.29595E+03-2.33740E-10-5.06276E-10
 -1       975-1.83649E+05 2.62417E+01-7.09699E+02 1.94921E+03 6.64613E-10-1.08417E-09
 -1       976-1.83699E+05-1.87932E+01-3.94357E+02 7.31204E+03-9.79298E-10 1.65159E-10
 -1       977-1.83672E+05 6.30232E+00-2.33260E+02 1.94401E+03 1.33082E-09-7.74918E-10
 -1       978-1.83682E+05 5.00130E+00-2.12103E+02 7.31890E+03 5.53527E-10-5.97311E-10
 -1       979-1.83670E+05 7.59154E+00-2.83243E+02 1.94234E+03 1.79469E-09-1.64327E-09
 -1       980-1.83713E+05-2.87852E+01-5.25972E+02 7.31845E+03 4.28633E-09 8.11208E-10
 -1       981-1.83640E+05 3.65690E+01-9.72265E+02 1.94446E+03-4.55145E-10-1.07460E-09
 -1       982-1.83984E+05-4.13810E+02-2.11804E+03 7.30976E+03-6.10896E-10-7.70228E-10
 -1       983-1.83397E+05 3.19558E+02-3.81581E+03 1.95109E+03 1.94950E-09-1.69803E-09
 -1       984-1.86424E+05-4.45422E+03-9.37155E+03 7.27572E+03-4.06999E-11 6.24937E-10
 -1       985-1.81193E+05 3.17933E+03-1.47357E+04 1.97893E+03 1.30467E-09-1.14142E-09
 -3
    1PSTEP                        31          16           1          
  100CL  116 2.58136E-01         841                     0   16           1
 -4  DISP        4    1
 -5  D1          1    2    1    0
 -5  D2          1    2    2    0
 -5  D3          1    2    3    0
 -5  ALL         1    2    0    0    1ALL
 -1         1 3.22650E-05 0.00000E+00 0.00000E+00
 -1         2 2.44001E-05 0.00000E+00 0.00000E+00
 -1         3 2.05889E-05 0.00000E+00 0.00000E+00
 -1         4 1.78036E-05 0.00000E+00 0.00000E+00
 -1         5 1.64782E-05 0.00000E+00 0.00000E+00
 -1         8 2.55159E-05-3.21562E-07 0.00000E+00
 -1         9 1.98834E-05 1.96843E-07 0.00000E+00
 -1        10 1.91788E-05-7.55453E-07 0.00000E+00
 -1        11 1.75631E-05-1.45108E-07 0.00000E+00
 -1        12 1.59183E-05 3.82343E-07 0.00000E+00
 -1        15 1.17127E-05-6.15783E-07 0.00000E+00
 -1        16 1.50406E-05 1.83619E-07 0.00000E+00
 -1        17 1.37226E-05-1.53398E-06 0.00000E+00
 -1        18 1.37719E-05-2.93659E-07 0.00000E+00
 -1        19 1.44228E-05 7.57989E-07 0.00000E+00
 -1        20 1.46388E-05 8.17139E-06 0.00000E+00
 -1        21 1.46317E-05 1.95095E-05 0.00000E+00
 -1        22 4.42883E-06-4.27449E-07 0.00000E+00
 -1        23 5.99633E-06 6.20213E-07 0.00000E+00
 -1        24 5.66897E-06-1.83620E-06 0.00000E+00
 -1        25 1.22945E-05-1.91013E-07 0.00000E+00
 -1        26 1.28567E-05 1.00684E-06 0.00000E+00
 -1        27 1.22399E-05 7.87604E-06 0.00000E+00
 -1        28 1.14993E-05 1.92293E-05 0.00000E+00
 -1        29 0.00000E+00 0.00000E+00 0.00000E+00
 -1        30 1.69628E-06 8.10185E-07 0.00000E+00
 -1        31 1.72781E-06-1.68265E-06 0.00000E+00
 -1        32 0.00000E+00 0.00000E+00 0.00000E+00
 -1        33 1.08371E-05 1.56416E-06 0.00000E+00
 -1        34 1.02813E-05 7.84756E-06 0.00000E+00
 -1        35 9.21868E-06 1.90790E-05 0.00000E+00
 -1        36 3.17890E-05-7.69084E-20 0.00000E+00
 -1        37 3.12975E-05-1.26612E-19-6.61744E-24
 -1        38 3.08069E-05-1.36214E-19 1.32349E-23
 -1        39 3.03135E-05-3.87853E-20 6.61744E-24
 -1        40 2.98199E-05 7.34816E-20 1.32349E-23
 -1        41 2.93258E-05 8.31089E-20-6.61744E-24
 -1        42 2.88316E-05 7.44312E-20 0.00000E+00
 -1        43 2.83372E-05-1.05588E-20 0.00000E+00
 -1        44 2.78429E-05-1.21577E-19 0.00000E+00
 -1        45 2.73486E-05-1.81466E-19-6.61744E-24
 -1        46 2.68544E-05-2.80670E-19-1.32349E-23
 -1        47 2.63606E-05-3.51464E-19 0.00000E+00
 -1        48 2.58668E-05-3.21158E-19-1.32349E-23
 -1        49 2.53749E-05-1.94475E-19 0.00000E+00
 -1        50 2.48824E-05 7.64522E-22 0.00000E+00
 -1        51 3.17518E-05-5.48573E-08 0.00000E+00
 -1        52 3.09057E-05-1.07310E-07 0.00000E+00
 -1        53 2.97912E-05-1.59322E-07 0.00000E+00
 -1        54 2.84760E-05-2.11603E-07 0.00000E+00
 -1        55 2.70282E-05-2.64859E-07 8.27181E-25
 -1        56 3.16158E-05-2.51238E-07 0.00000E+00
 -1        57 3.09462E-05-5.19347E-07 6.61744E-24
 -1        58 3.02765E-05-7.83670E-07 1.32349E-23
 -1        59 2.95974E-05-1.03487E-06-1.32349E-23
 -1        60 2.89085E-05-1.26054E-06 2.64698E-23
 -1        61 2.82054E-05-1.45030E-06-1.32349E-23
 -1        62 2.74850E-05-1.59437E-06-2.64698E-23
 -1        63 2.67440E-05-1.68389E-06 0.00000E+00
 -1        64 2.59798E-05-1.71138E-06-2.64698E-23
 -1        65 2.51898E-05-1.67023E-06-1.32349E-23
 -1        66 2.43725E-05-1.55570E-06-2.64698E-23
 -1        67 2.35269E-05-1.36393E-06-1.32349E-23
 -1        68 2.26520E-05-1.09347E-06 1.32349E-23
 -1        69 2.17512E-05-7.42454E-07 0.00000E+00
 -1        70 2.08200E-05-3.14416E-07 0.00000E+00
 -1        71 2.41612E-05 1.62771E-20 6.61744E-24
 -1        72 2.39226E-05 1.24744E-19-3.30872E-24
 -1        73 2.36839E-05 3.76564E-19-6.61744E-24
 -1        74 2.34452E-05 5.82539E-19 3.30872E-24
 -1        75 2.32066E-05 6.33599E-19 6.61744E-24
 -1        76 2.29679E-05 5.60954E-19 0.00000E+00
 -1        77 2.27293E-05 4.67705E-19 0.00000E+00
 -1        78 2.24906E-05 3.38140E-19 0.00000E+00
 -1        79 2.22520E-05 1.47055E-19 0.00000E+00
 -1        80 2.20134E-05-1.25463E-19 0.00000E+00
 -1        81 2.17748E-05-2.82531E-19 6.61744E-24
 -1        82 2.15364E-05-3.38700E-19 3.30872E-24
 -1        83 2.12980E-05-3.26222E-19 0.00000E+00
 -1        84 2.10604E-05-1.76047E-19 3.30872E-24
 -1        85 2.08226E-05-5.80604E-20 0.00000E+00
 -1        86 2.41973E-05 2.48885E-08 3.30872E-24
 -1        87 2.35928E-05 6.06434E-08-8.27181E-25
 -1        88 2.27252E-05 9.54504E-08-4.13590E-25
 -1        89 2.17328E-05 1.30994E-07 0.00000E+00
 -1        90 2.07430E-05 1.67062E-07 1.65436E-24
 -1        91 2.31935E-05 2.38020E-06 0.00000E+00
 -1        92 2.01180E-05 9.67017E-06 0.00000E+00
 -1        93 1.64874E-05 1.84084E-05 6.61744E-24
 -1        94 1.36343E-05 2.51197E-05 0.00000E+00
 -1        95 1.24389E-05 2.74638E-05 0.00000E+00
 -1        96 1.37362E-05 2.31439E-05 3.30872E-24
 -1        97 1.69629E-05 1.35784E-05 6.61744E-24
 -1        98 2.15516E-05 2.56966E-07 0.00000E+00
 -1        99 2.61943E-05-1.32136E-05-6.61744E-24
 -1       100 2.95833E-05-2.32242E-05-3.30872E-24
 -1       101 3.10923E-05-2.81163E-05 0.00000E+00
 -1       102 3.00969E-05-2.63014E-05 0.00000E+00
 -1       103 2.73748E-05-1.99325E-05 0.00000E+00
 -1       104 2.37511E-05-1.12088E-05 3.30872E-24
 -1       105 2.05728E-05-3.64827E-06 0.00000E+00
 -1       106 2.04162E-05 2.04489E-19 0.00000E+00
 -1       107 2.02419E-05 7.28404E-19 0.00000E+00
 -1       108 2.00677E-05 1.48370E-18 6.61744E-24
 -1       109 1.98931E-05 2.35855E-18-3.30872E-24
 -1       110 1.97186E-05 3.12918E-18 0.00000E+00
 -1       111 1.95440E-05 3.75272E-18 0.00000E+00
 -1       112 1.93694E-05 4.10951E-18 0.00000E+00
 -1       113 1.91948E-05 4.10832E-18 0.00000E+00
 -1       114 1.90202E-05 3.78011E-18 0.00000E+00
 -1       115 1.88456E-05 3.21788E-18-3.30872E-24
 -1       116 1.86710E-05 2.53814E-18-6.61744E-24
 -1       117 1.84966E-05 1.81794E-18 0.00000E+00
 -1       118 1.83222E-05 1.15064E-18 6.61744E-24
 -1       119 1.81484E-05 5.82878E-19 0.00000E+00
 -1       120 1.79744E-05 1.58970E-19 0.00000E+00
 -1       121 2.05753E-05-1.26190E-07 0.00000E+00
 -1       122 2.05062E-05-2.52000E-07 0.00000E+00
 -1       123 2.03567E-05-3.77828E-07 0.00000E+00
 -1       124 2.01021E-05-5.03633E-07 0.00000E+00
 -1       125 1.97176E-05-6.29468E-07-3.30872E-24
 -1       126 1.94736E-05 2.62879E-06 0.00000E+00
 -1       127 1.63340E-05 1.05768E-05-1.65436E-24
 -1       128 1.16694E-05 2.24780E-05 0.00000E+00
 -1       129 6.00238E-06 3.69532E-05 1.65436E-24
 -1       130 1.17833E-07 5.19848E-05 3.30872E-24
 -1       131-5.19507E-06 6.55535E-05 0.00000E+00
 -1       132-9.29775E-06 7.60027E-05 0.00000E+00
 -1       133-1.15702E-05 8.16852E-05-1.65436E-24
 -1       134-1.18626E-05 8.21335E-05 3.30872E-24
 -1       135-1.00401E-05 7.69033E-05-1.65436E-24
 -1       136-6.48752E-06 6.69586E-05 3.30872E-24
 -1       137-1.58654E-06 5.32909E-05 0.00000E+00
 -1       138 3.96126E-06 3.78249E-05 0.00000E+00
 -1       139 9.45949E-06 2.24975E-05 1.65436E-24
 -1       140 1.42233E-05 9.21122E-06 0.00000E+00
 -1       141 1.77197E-05-5.57596E-20 0.00000E+00
 -1       142 1.76362E-05-9.54935E-20 1.65436E-24
 -1       143 1.75526E-05-7.76675E-20 0.00000E+00
 -1       144 1.74692E-05-5.61997E-20 1.65436E-24
 -1       145 1.73857E-05-6.63509E-20-3.30872E-24
 -1       146 1.73022E-05-1.76307E-20 0.00000E+00
 -1       147 1.72188E-05-1.28566E-20 0.00000E+00
 -1       148 1.71354E-05-8.13661E-21 0.00000E+00
 -1       149 1.70520E-05-6.66966E-21 0.00000E+00
 -1       150 1.69686E-05-3.14699E-20 0.00000E+00
 -1       151 1.68852E-05-2.43393E-20 0.00000E+00
 -1       152 1.68021E-05-2.76328E-20 0.00000E+00
 -1       153 1.67190E-05-6.35312E-20 0.00000E+00
 -1       154 1.66371E-05-1.04740E-19 0.00000E+00
 -1       155 1.65547E-05-4.12123E-20 4.13590E-25
 -1       156 1.70055E-05-2.28782E-08 1.65436E-24
 -1       157 1.46444E-05-4.51801E-08 0.00000E+00
 -1       158 1.21308E-05-6.80280E-08 8.27181E-25
 -1       159 1.08749E-05-8.83880E-08-4.13590E-25
 -1       160 1.22340E-05-1.09352E-07 0.00000E+00
 -1       161 1.77197E-05-6.82943E-08 3.30872E-24
 -1       162 1.76599E-05-2.00921E-07-1.65436E-24
 -1       163 1.76159E-05-3.76075E-07-3.30872E-24
 -1       164 1.75797E-05-5.71812E-07 1.65436E-24
 -1       165 1.75411E-05-7.61219E-07 0.00000E+00
 -1       166 1.74900E-05-9.17428E-07 0.00000E+00
 -1       167 1.74195E-05-1.02159E-06 0.00000E+00
 -1       168 1.73224E-05-1.05506E-06 0.00000E+00
 -1       169 1.71977E-05-1.01486E-06-3.30872E-24
 -1       170 1.70444E-05-8.98264E-07 0.00000E+00
 -1       171 1.68679E-05-7.19737E-07 0.00000E+00
 -1       172 1.66739E-05-4.93913E-07-1.65436E-24
 -1       173 1.64716E-05-2.46086E-07 0.00000E+00
 -1       174 1.62718E-05-1.12797E-09 0.00000E+00
 -1       175 1.60820E-05 2.15677E-07 0.00000E+00
 -1       191 1.64588E-05 6.36745E-08 3.30872E-24
 -1       192 1.64088E-05 1.27434E-07 1.65436E-24
 -1       193 1.63289E-05 1.91212E-07 0.00000E+00
 -1       194 1.62199E-05 2.54984E-07 0.00000E+00
 -1       195 1.60827E-05 3.18723E-07 0.00000E+00
 -1       251 2.52099E-05 3.79142E-06 0.00000E+00
 -1       252 2.48584E-05 1.36647E-05 3.30872E-24
 -1       253 2.44947E-05 2.48828E-05 0.00000E+00
 -1       254 2.41585E-05 3.30114E-05 3.30872E-24
 -1       255 2.38486E-05 3.53246E-05 6.61744E-24
 -1       256 2.35229E-05 2.91763E-05 0.00000E+00
 -1       257 2.31411E-05 1.65496E-05 6.61744E-24
 -1       258 2.26964E-05-4.84116E-07-3.30872E-24
 -1       259 2.22531E-05-1.74239E-05 0.00000E+00
 -1       260 2.18746E-05-2.97693E-05 0.00000E+00
 -1       261 2.15510E-05-3.55529E-05-6.61744E-24
 -1       262 2.12402E-05-3.28967E-05-3.30872E-24
 -1       263 2.09023E-05-2.45405E-05 0.00000E+00
 -1       264 2.05384E-05-1.33017E-05 3.30872E-24
 -1       265 2.01884E-05-3.59227E-06 0.00000E+00
 -1       266 2.43259E-05-3.71576E-07 3.30872E-24
 -1       267 2.31389E-05-4.18042E-07 0.00000E+00
 -1       268 2.16056E-05-4.65193E-07 0.00000E+00
 -1       269 1.93775E-05-5.12633E-07 8.27181E-25
 -1       270 1.61731E-05-5.62739E-07 0.00000E+00
 -1       271 2.45770E-05 5.21939E-07 0.00000E+00
 -1       272 2.37185E-05 1.09521E-06-6.61744E-24
 -1       273 2.29478E-05 1.43604E-06 1.32349E-23
 -1       274 2.22496E-05 1.57546E-06 0.00000E+00
 -1       275 2.16140E-05 1.54746E-06 1.32349E-23
 -1       276 2.10279E-05 1.38598E-06 0.00000E+00
 -1       277 2.04786E-05 1.12583E-06 0.00000E+00
 -1       278 1.99531E-05 8.02208E-07 6.61744E-24
 -1       279 1.94381E-05 4.50640E-07-1.32349E-23
 -1       280 1.89202E-05 1.06815E-07-6.61744E-24
 -1       281 1.83862E-05-1.93658E-07 1.32349E-23
 -1       282 1.78231E-05-4.15314E-07 0.00000E+00
 -1       283 1.72176E-05-5.23195E-07 0.00000E+00
 -1       284 1.65590E-05-4.82138E-07 6.61744E-24
 -1       285 1.58318E-05-2.59478E-07 1.32349E-23
 -1       286 1.98357E-05 8.75252E-07 3.30872E-24
 -1       287 1.97917E-05 1.32458E-06 0.00000E+00
 -1       288 1.97476E-05 1.55347E-06 1.65436E-24
 -1       289 1.97042E-05 1.57100E-06 0.00000E+00
 -1       290 1.96608E-05 1.40579E-06 0.00000E+00
 -1       291 1.96175E-05 1.08682E-06 0.00000E+00
 -1       292 1.95742E-05 6.57271E-07 0.00000E+00
 -1       293 1.95308E-05 1.60535E-07 0.00000E+00
 -1       294 1.94875E-05-3.53788E-07 0.00000E+00
 -1       295 1.94442E-05-8.36063E-07 8.27181E-25
 -1       296 1.94009E-05-1.23963E-06 0.00000E+00
 -1       297 1.93574E-05-1.51795E-06 0.00000E+00
 -1       298 1.93140E-05-1.63609E-06 0.00000E+00
 -1       299 1.92700E-05-1.55940E-06 0.00000E+00
 -1       300 1.92261E-05-1.27125E-06 0.00000E+00
 -1       301 1.90746E-05 1.91130E-07 0.00000E+00
 -1       302 1.82610E-05 1.91159E-07 0.00000E+00
 -1       303 1.74466E-05 1.92140E-07 8.27181E-25
 -1       304 1.66357E-05 1.92884E-07 0.00000E+00
 -1       305 1.58323E-05 1.92162E-07 3.30872E-24
 -1       306 1.92785E-05 7.04063E-07 6.61744E-24
 -1       307 1.87613E-05 9.46696E-07 6.61744E-24
 -1       308 1.83283E-05 9.65432E-07-1.32349E-23
 -1       309 1.79637E-05 7.97426E-07 0.00000E+00
 -1       310 1.76544E-05 4.81508E-07 0.00000E+00
 -1       311 1.73856E-05 5.65381E-08 0.00000E+00
 -1       312 1.71429E-05-4.38170E-07 0.00000E+00
 -1       313 1.69114E-05-9.63136E-07-6.61744E-24
 -1       314 1.66765E-05-1.47874E-06-1.32349E-23
 -1       315 1.64233E-05-1.94541E-06-6.61744E-24
 -1       316 1.61371E-05-2.32376E-06 1.32349E-23
 -1       317 1.58035E-05-2.57464E-06 0.00000E+00
 -1       318 1.54078E-05-2.65940E-06-1.32349E-23
 -1       319 1.49373E-05-2.53940E-06 0.00000E+00
 -1       320 1.43759E-05-2.17796E-06 0.00000E+00
 -1       321 1.90875E-05 8.46546E-07-3.30872E-24
 -1       322 1.89931E-05 4.38606E-06 1.65436E-24
 -1       323 1.88927E-05 9.37740E-06-3.30872E-24
 -1       324 1.87876E-05 1.53293E-05 0.00000E+00
 -1       325 1.86809E-05 2.15750E-05 0.00000E+00
 -1       326 1.85763E-05 2.74467E-05 0.00000E+00
 -1       327 1.84767E-05 3.23447E-05 3.30872E-24
 -1       328 1.83834E-05 3.56732E-05-1.65436E-24
 -1       329 1.82942E-05 3.71225E-05 3.30872E-24
 -1       330 1.82058E-05 3.63904E-05 0.00000E+00
 -1       331 1.81139E-05 3.35720E-05 0.00000E+00
 -1       332 1.80148E-05 2.87707E-05 1.65436E-24
 -1       333 1.79076E-05 2.24510E-05 0.00000E+00
 -1       334 1.77938E-05 1.50837E-05 0.00000E+00
 -1       335 1.76771E-05 7.33065E-06 0.00000E+00
 -1       336 1.84626E-05-8.85545E-07-3.30872E-24
 -1       337 1.76173E-05-1.01575E-06-1.65436E-24
 -1       338 1.66815E-05-1.14598E-06-3.30872E-24
 -1       339 1.56944E-05-1.27597E-06 0.00000E+00
 -1       340 1.46951E-05-1.40599E-06 0.00000E+00
 -1       341 1.70092E-05 4.59104E-06-3.30872E-24
 -1       342 1.11803E-05 1.94153E-05 0.00000E+00
 -1       343 2.72525E-06 4.08949E-05 0.00000E+00
 -1       344-7.25908E-06 6.61885E-05-1.65436E-24
 -1       345-1.71921E-05 9.13540E-05 0.00000E+00
 -1       346-2.54938E-05 1.12449E-04 0.00000E+00
 -1       347-3.11010E-05 1.26706E-04 0.00000E+00
 -1       348-3.30126E-05 1.31376E-04 0.00000E+00
 -1       349-3.13199E-05 1.26432E-04 0.00000E+00
 -1       350-2.61344E-05 1.11905E-04-1.65436E-24
 -1       351-1.85248E-05 9.05717E-05-3.30872E-24
 -1       352-9.52657E-06 6.52685E-05 0.00000E+00
 -1       353-5.41634E-07 4.00040E-05 0.00000E+00
 -1       354 7.02783E-06 1.87881E-05-1.65436E-24
 -1       355 1.21515E-05 4.43560E-06 0.00000E+00
 -1       356 1.74464E-05-7.62973E-06 0.00000E+00
 -1       357 1.73269E-05-1.54089E-05-1.65436E-24
 -1       358 1.72101E-05-2.27967E-05 3.30872E-24
 -1       359 1.71003E-05-2.91086E-05 0.00000E+00
 -1       360 1.69987E-05-3.38620E-05 0.00000E+00
 -1       361 1.69043E-05-3.65808E-05 0.00000E+00
 -1       362 1.68133E-05-3.71704E-05 0.00000E+00
 -1       363 1.67211E-05-3.55448E-05 0.00000E+00
 -1       364 1.66245E-05-3.20333E-05 0.00000E+00
 -1       365 1.65215E-05-2.69727E-05 0.00000E+00
 -1       366 1.64137E-05-2.09909E-05-3.30872E-24
 -1       367 1.63045E-05-1.47189E-05 0.00000E+00
 -1       368 1.61976E-05-8.84285E-06 0.00000E+00
 -1       369 1.60973E-05-4.04692E-06 8.27181E-25
 -1       370 1.60026E-05-8.13271E-07-4.13590E-25
 -1       371 2.26832E-05-1.80983E-07-1.65436E-24
 -1       372 2.34199E-05-2.02315E-07 4.13590E-25
 -1       373 2.13221E-05-2.24840E-07 0.00000E+00
 -1       374 1.79417E-05-2.50124E-07 0.00000E+00
 -1       375 1.48884E-05-2.74537E-07 1.03398E-25
 -1       376 2.07852E-05-9.16913E-06-3.30872E-24
 -1       377 2.51938E-05-2.14620E-05 1.65436E-24
 -1       378 3.01761E-05-3.53428E-05 0.00000E+00
 -1       379 3.51210E-05-4.91209E-05-1.65436E-24
 -1       380 3.94272E-05-6.11309E-05-3.30872E-24
 -1       381 4.24883E-05-6.97191E-05 0.00000E+00
 -1       382 4.39877E-05-7.40653E-05-3.30872E-24
 -1       383 4.36076E-05-7.33731E-05-1.65436E-24
 -1       384 4.14806E-05-6.80625E-05-3.30872E-24
 -1       385 3.77527E-05-5.85741E-05 0.00000E+00
 -1       386 3.29690E-05-4.63556E-05 0.00000E+00
 -1       387 2.76900E-05-3.28635E-05 0.00000E+00
 -1       388 2.26018E-05-1.98620E-05 3.30872E-24
 -1       389 1.83893E-05-9.11320E-06 0.00000E+00
 -1       390 1.55127E-05-1.83802E-06-8.27181E-25
 -1       406 1.57194E-05 4.45306E-07 0.00000E+00
 -1       407 1.54969E-05 5.08319E-07 0.00000E+00
 -1       408 1.52533E-05 5.71299E-07 0.00000E+00
 -1       409 1.49913E-05 6.34126E-07 0.00000E+00
 -1       410 1.47135E-05 6.96627E-07 0.00000E+00
 -1       466 1.19055E-05 3.49342E-06 3.30872E-24
 -1       467 1.21130E-05 5.66243E-06 3.30872E-24
 -1       468 1.23220E-05 6.51703E-06 6.61744E-24
 -1       469 1.25331E-05 6.67032E-06-3.30872E-24
 -1       470 1.27441E-05 6.34992E-06-6.61744E-24
 -1       471 1.29554E-05 5.77896E-06 0.00000E+00
 -1       472 1.31666E-05 5.04242E-06-6.61744E-24
 -1       473 1.33778E-05 4.22367E-06 3.30872E-24
 -1       474 1.35889E-05 3.36074E-06-6.61744E-24
 -1       475 1.37999E-05 2.49126E-06-3.30872E-24
 -1       476 1.40109E-05 1.64924E-06-6.61744E-24
 -1       477 1.42213E-05 8.68904E-07 3.30872E-24
 -1       478 1.44317E-05 2.18540E-07 6.61744E-24
 -1       479 1.46392E-05-2.32344E-07-1.65436E-24
 -1       480 1.48479E-05-3.04854E-07-4.13590E-25
 -1       481 7.67336E-06-5.92049E-07-4.13590E-25
 -1       482 5.71877E-06-5.60659E-07-4.13590E-25
 -1       483 5.12234E-06-5.27538E-07 8.27181E-25
 -1       484 5.15960E-06-4.94012E-07 0.00000E+00
 -1       485 5.15398E-06-4.60450E-07 0.00000E+00
 -1       486 8.66844E-06 6.76136E-06 0.00000E+00
 -1       487 3.81513E-06 1.88021E-05 3.30872E-24
 -1       488-1.20314E-06 3.12695E-05 6.61744E-24
 -1       489-4.74642E-06 3.99189E-05 3.30872E-24
 -1       490-5.91845E-06 4.23390E-05 0.00000E+00
 -1       491-3.88584E-06 3.61677E-05-3.30872E-24
 -1       492 6.51364E-07 2.31347E-05 0.00000E+00
 -1       493 6.99741E-06 5.05092E-06 0.00000E+00
 -1       494 1.36264E-05-1.38276E-05 6.61744E-24
 -1       495 1.90174E-05-2.92331E-05 0.00000E+00
 -1       496 2.22163E-05-3.85853E-05 6.61744E-24
 -1       497 2.22531E-05-3.93800E-05 0.00000E+00
 -1       498 1.96536E-05-3.31953E-05 6.61744E-24
 -1       499 1.50003E-05-2.16697E-05 3.30872E-24
 -1       500 9.90232E-06-8.99840E-06-3.30872E-24
 -1       501 1.49539E-05 8.25941E-07-3.30872E-24
 -1       502 1.48713E-05 1.20704E-06-1.65436E-24
 -1       503 1.47885E-05 1.31825E-06 0.00000E+00
 -1       504 1.47064E-05 1.15186E-06 1.65436E-24
 -1       505 1.46243E-05 7.47477E-07 0.00000E+00
 -1       506 1.45423E-05 1.45571E-07 0.00000E+00
 -1       507 1.44602E-05-5.79737E-07 0.00000E+00
 -1       508 1.43781E-05-1.35390E-06-1.65436E-24
 -1       509 1.42960E-05-2.09404E-06 0.00000E+00
 -1       510 1.42141E-05-2.71739E-06 1.65436E-24
 -1       511 1.41322E-05-3.16109E-06 0.00000E+00
 -1       512 1.40503E-05-3.36292E-06-1.65436E-24
 -1       513 1.39685E-05-3.30184E-06-3.30872E-24
 -1       514 1.38867E-05-2.95777E-06-1.65436E-24
 -1       515 1.38047E-05-2.35881E-06-3.30872E-24
 -1       516 1.47322E-05 2.52227E-07-1.65436E-24
 -1       517 1.53275E-05 3.31066E-07-2.06795E-25
 -1       518 1.58307E-05 4.09224E-07-8.27181E-25
 -1       519 1.52459E-05 4.88605E-07 8.27181E-25
 -1       520 1.23713E-05 5.64027E-07-8.27181E-25
 -1       521 1.42648E-05 6.11565E-07 0.00000E+00
 -1       522 1.35660E-05 7.85313E-07 6.61744E-24
 -1       523 1.29476E-05 7.46351E-07 0.00000E+00
 -1       524 1.23928E-05 5.30360E-07 0.00000E+00
 -1       525 1.18898E-05 1.75575E-07-1.32349E-23
 -1       526 1.14241E-05-2.79823E-07 0.00000E+00
 -1       527 1.09814E-05-7.97016E-07 0.00000E+00
 -1       528 1.05471E-05-1.33698E-06 6.61744E-24
 -1       529 1.01067E-05-1.86054E-06 0.00000E+00
 -1       530 9.64563E-06-2.32864E-06-6.61744E-24
 -1       531 9.14930E-06-2.70247E-06 1.32349E-23
 -1       532 8.60366E-06-2.94366E-06 0.00000E+00
 -1       533 7.99446E-06-3.01457E-06 0.00000E+00
 -1       534 7.30986E-06-2.87775E-06-6.61744E-24
 -1       535 6.53376E-06-2.49835E-06 0.00000E+00
 -1       536 1.37213E-05-7.07846E-07 0.00000E+00
 -1       537 1.37239E-05-8.00806E-08 0.00000E+00
 -1       538 1.37265E-05 3.70311E-07 0.00000E+00
 -1       539 1.37297E-05 6.64516E-07 0.00000E+00
 -1       540 1.37330E-05 8.23666E-07 0.00000E+00
 -1       541 1.37364E-05 8.68907E-07-2.58494E-26
 -1       542 1.37399E-05 8.21379E-07-1.01782E-25
 -1       543 1.37433E-05 7.02220E-07-2.58494E-26
 -1       544 1.37468E-05 5.32567E-07 0.00000E+00
 -1       545 1.37503E-05 3.33553E-07-5.16988E-26
 -1       546 1.37537E-05 1.26311E-07 0.00000E+00
 -1       547 1.37572E-05-6.80212E-08 1.03398E-25
 -1       548 1.37608E-05-2.28314E-07 0.00000E+00
 -1       549 1.37643E-05-3.33436E-07 0.00000E+00
 -1       550 1.37679E-05-3.62235E-07 0.00000E+00
 -1       551 1.25178E-05-1.58359E-06 6.36541E-25
 -1       552 1.11763E-05-1.63195E-06-6.20385E-25
 -1       553 9.75887E-06-1.68031E-06 1.65436E-24
 -1       554 8.32737E-06-1.72929E-06 0.00000E+00
 -1       555 6.94375E-06-1.77955E-06 0.00000E+00
 -1       556 1.33716E-05-7.58883E-07 0.00000E+00
 -1       557 1.30891E-05-1.61775E-07 0.00000E+00
 -1       558 1.28674E-05 2.74271E-07 0.00000E+00
 -1       559 1.26994E-05 5.67856E-07 0.00000E+00
 -1       560 1.25779E-05 7.37604E-07 0.00000E+00
 -1       561 1.24959E-05 8.02295E-07 0.00000E+00
 -1       562 1.24462E-05 7.80720E-07 3.30872E-24
 -1       563 1.24218E-05 6.91688E-07 0.00000E+00
 -1       564 1.24157E-05 5.54016E-07 1.65436E-24
 -1       565 1.24208E-05 3.86522E-07 8.27181E-25
 -1       566 1.24300E-05 2.08031E-07 1.65436E-24
 -1       567 1.24363E-05 3.73687E-08-8.27181E-25
 -1       568 1.24327E-05-1.06644E-07 0.00000E+00
 -1       569 1.24122E-05-2.05203E-07-2.58494E-25
 -1       570 1.23680E-05-2.39518E-07-8.27181E-25
 -1       571 1.38110E-05-2.05942E-07-1.03398E-25
 -1       572 1.38513E-05-1.46116E-07-2.06795E-25
 -1       573 1.38919E-05-1.09073E-07 4.13590E-25
 -1       574 1.39327E-05-8.94488E-08 4.13590E-25
 -1       575 1.39736E-05-8.18568E-08 8.27181E-25
 -1       576 1.40144E-05-8.08753E-08 8.27181E-25
 -1       577 1.40553E-05-8.10805E-08 1.65436E-24
 -1       578 1.40962E-05-7.70439E-08 0.00000E+00
 -1       579 1.41371E-05-6.33366E-08 1.65436E-24
 -1       580 1.41780E-05-3.45299E-08 0.00000E+00
 -1       581 1.42189E-05 1.48040E-08 0.00000E+00
 -1       582 1.42597E-05 9.00878E-08 1.65436E-24
 -1       583 1.43006E-05 1.96739E-07 0.00000E+00
 -1       584 1.43414E-05 3.40119E-07 1.65436E-24
 -1       585 1.43822E-05 5.25563E-07 0.00000E+00
 -1       586 1.35605E-05-2.76209E-07-8.27181E-25
 -1       587 1.33181E-05-2.58626E-07 8.27181E-25
 -1       588 1.30573E-05-2.41063E-07 0.00000E+00
 -1       589 1.27912E-05-2.23669E-07 1.55096E-25
 -1       590 1.25326E-05-2.06658E-07 0.00000E+00
 -1       591 1.37085E-05-1.90284E-07 0.00000E+00
 -1       592 1.36500E-05-1.04994E-07 0.00000E+00
 -1       593 1.35966E-05-3.42670E-08-1.65436E-24
 -1       594 1.35473E-05 2.50945E-08-4.13590E-25
 -1       595 1.35009E-05 7.62865E-08-8.27181E-25
 -1       596 1.34564E-05 1.22482E-07 4.13590E-25
 -1       597 1.34126E-05 1.66849E-07 0.00000E+00
 -1       598 1.33683E-05 2.12553E-07-4.13590E-25
 -1       599 1.33223E-05 2.62762E-07 4.13590E-25
 -1       600 1.32734E-05 3.20639E-07 2.06795E-25
 -1       601 1.32204E-05 3.89350E-07-4.13590E-25
 -1       602 1.31623E-05 4.72064E-07-1.03398E-25
 -1       603 1.30977E-05 5.71952E-07-5.16988E-25
 -1       604 1.30258E-05 6.92203E-07-1.29247E-25
 -1       605 1.29453E-05 8.36011E-07 0.00000E+00
 -1       606 1.44377E-05 1.06667E-06 1.65436E-24
 -1       607 1.44516E-05 1.40525E-06 0.00000E+00
 -1       608 1.44652E-05 1.77199E-06 0.00000E+00
 -1       609 1.44787E-05 2.16487E-06 0.00000E+00
 -1       610 1.44922E-05 2.58187E-06-1.65436E-24
 -1       611 1.45056E-05 3.02094E-06 0.00000E+00
 -1       612 1.45189E-05 3.48002E-06 0.00000E+00
 -1       613 1.45323E-05 3.95704E-06 0.00000E+00
 -1       614 1.45457E-05 4.44993E-06 0.00000E+00
 -1       615 1.45590E-05 4.95664E-06 0.00000E+00
 -1       616 1.45724E-05 5.47510E-06 8.27181E-25
 -1       617 1.45857E-05 6.00325E-06 0.00000E+00
 -1       618 1.45990E-05 6.53901E-06-8.27181E-25
 -1       619 1.46123E-05 7.08033E-06 0.00000E+00
 -1       620 1.46256E-05 7.62514E-06 0.00000E+00
 -1       621 1.41327E-05 7.99617E-07 8.27181E-25
 -1       622 1.38500E-05 8.41459E-07 0.00000E+00
 -1       623 1.35778E-05 8.83306E-07 8.27181E-25
 -1       624 1.33194E-05 9.25044E-07 4.13590E-25
 -1       625 1.30780E-05 9.66537E-07 0.00000E+00
 -1       626 1.43323E-05 1.08235E-06-1.65436E-24
 -1       627 1.42297E-05 1.43799E-06 0.00000E+00
 -1       628 1.41163E-05 1.82200E-06-1.65436E-24
 -1       629 1.39935E-05 2.23109E-06 0.00000E+00
 -1       630 1.38624E-05 2.66195E-06 0.00000E+00
 -1       631 1.37244E-05 3.11122E-06 0.00000E+00
 -1       632 1.35808E-05 3.57553E-06 0.00000E+00
 -1       633 1.34327E-05 4.05153E-06 0.00000E+00
 -1       634 1.32816E-05 4.53586E-06-8.27181E-25
 -1       635 1.31286E-05 5.02513E-06 0.00000E+00
 -1       636 1.29749E-05 5.51599E-06 0.00000E+00
 -1       637 1.28220E-05 6.00508E-06-2.06795E-25
 -1       638 1.26709E-05 6.48900E-06 4.13590E-25
 -1       639 1.25229E-05 6.96441E-06 2.06795E-25
 -1       640 1.23790E-05 7.42791E-06-1.03398E-25
 -1       641 1.46391E-05 8.73729E-06 0.00000E+00
 -1       642 1.46389E-05 9.36189E-06-5.16988E-26
 -1       643 1.46388E-05 1.00367E-05 5.16988E-26
 -1       644 1.46385E-05 1.07532E-05 0.00000E+00
 -1       645 1.46382E-05 1.15029E-05 6.46235E-27
 -1       646 1.46378E-05 1.22774E-05 0.00000E+00
 -1       647 1.46375E-05 1.30680E-05 0.00000E+00
 -1       648 1.46371E-05 1.38663E-05 0.00000E+00
 -1       649 1.46368E-05 1.46638E-05-1.29247E-26
 -1       650 1.46364E-05 1.54520E-05-1.29247E-26
 -1       651 1.46360E-05 1.62224E-05 0.00000E+00
 -1       652 1.46356E-05 1.69664E-05 0.00000E+00
 -1       653 1.46352E-05 1.76757E-05 0.00000E+00
 -1       654 1.46345E-05 1.83416E-05 0.00000E+00
 -1       655 1.46339E-05 1.89557E-05 0.00000E+00
 -1       656 1.41493E-05 8.12384E-06 8.27181E-25
 -1       657 1.37273E-05 8.07380E-06 0.00000E+00
 -1       658 1.33489E-05 8.02387E-06 8.27181E-25
 -1       659 1.29907E-05 7.97391E-06 0.00000E+00
 -1       660 1.26289E-05 7.92386E-06-8.27181E-25
 -1       661 1.44813E-05 8.75406E-06 0.00000E+00
 -1       662 1.43087E-05 9.38277E-06 8.27181E-25
 -1       663 1.41216E-05 1.00501E-05 1.65436E-24
 -1       664 1.39227E-05 1.07496E-05 8.27181E-25
 -1       665 1.37143E-05 1.14745E-05 0.00000E+00
 -1       666 1.34990E-05 1.22181E-05 0.00000E+00
 -1       667 1.32790E-05 1.29739E-05-1.65436E-24
 -1       668 1.30570E-05 1.37352E-05 0.00000E+00
 -1       669 1.28354E-05 1.44954E-05-1.65436E-24
 -1       670 1.26167E-05 1.52480E-05 8.27181E-25
 -1       671 1.24033E-05 1.59862E-05 0.00000E+00
 -1       672 1.21977E-05 1.67035E-05-8.27181E-25
 -1       673 1.20024E-05 1.73933E-05 1.65436E-24
 -1       674 1.18195E-05 1.80487E-05-4.13590E-25
 -1       675 1.16520E-05 1.86633E-05-8.27181E-25
 -1       676 1.41082E-05 1.94626E-05-1.65436E-24
 -1       677 1.35850E-05 1.94155E-05 0.00000E+00
 -1       678 1.30622E-05 1.93685E-05 1.65436E-24
 -1       679 1.25402E-05 1.93217E-05 0.00000E+00
 -1       680 1.20192E-05 1.92748E-05-8.27181E-25
 -1       681 4.52648E-06 2.12104E-07 0.00000E+00
 -1       682 4.62740E-06-4.75314E-08 0.00000E+00
 -1       683 4.72779E-06-9.64981E-07 3.30872E-24
 -1       684 4.82831E-06-2.30188E-06 0.00000E+00
 -1       685 4.92845E-06-3.92112E-06 0.00000E+00
 -1       686 5.02847E-06-5.68692E-06 0.00000E+00
 -1       687 5.12843E-06-7.49892E-06-3.30872E-24
 -1       688 5.22850E-06-9.25694E-06 1.65436E-24
 -1       689 5.32882E-06-1.08478E-05 3.30872E-24
 -1       690 5.42951E-06-1.21575E-05 0.00000E+00
 -1       691 5.53064E-06-1.30041E-05 0.00000E+00
 -1       692 5.63191E-06-1.32035E-05 0.00000E+00
 -1       693 5.73280E-06-1.24152E-05 3.30872E-24
 -1       694 5.83091E-06-1.02942E-05 0.00000E+00
 -1       695 5.92312E-06-6.17414E-06-1.65436E-24
 -1       696 3.42008E-06-3.58340E-07 0.00000E+00
 -1       697 2.57885E-06-2.87134E-07-8.27181E-25
 -1       698 1.85800E-06-2.15952E-07 0.00000E+00
 -1       699 1.21083E-06-1.44222E-07 0.00000E+00
 -1       700 6.02936E-07-7.24979E-08-3.30872E-24
 -1       701 3.40428E-06 1.98575E-06 0.00000E+00
 -1       702 1.34845E-06 7.10266E-06 1.65436E-24
 -1       703-1.42831E-06 1.41101E-05 0.00000E+00
 -1       704-4.61497E-06 2.21840E-05-1.65436E-24
 -1       705-7.79362E-06 3.02368E-05 0.00000E+00
 -1       706-1.05473E-05 3.71805E-05 1.65436E-24
 -1       707-1.25683E-05 4.22035E-05 0.00000E+00
 -1       708-1.35566E-05 4.45018E-05-1.65436E-24
 -1       709-1.34732E-05 4.39499E-05 0.00000E+00
 -1       710-1.22853E-05 4.04354E-05 1.65436E-24
 -1       711-1.02332E-05 3.45859E-05 0.00000E+00
 -1       712-7.55775E-06 2.70412E-05 0.00000E+00
 -1       713-4.65124E-06 1.88668E-05-3.30872E-24
 -1       714-1.90482E-06 1.11320E-05 1.65436E-24
 -1       715 3.27334E-07 4.79540E-06 0.00000E+00
 -1       716 5.95596E-06 7.83521E-06 0.00000E+00
 -1       717 5.92705E-06 1.31978E-05-2.06795E-25
 -1       718 5.90560E-06 1.68374E-05 0.00000E+00
 -1       719 5.88854E-06 1.88845E-05 0.00000E+00
 -1       720 5.87335E-06 1.95217E-05 4.13590E-25
 -1       721 5.85819E-06 1.89324E-05 0.00000E+00
 -1       722 5.84202E-06 1.73399E-05-4.13590E-25
 -1       723 5.82434E-06 1.49683E-05-2.06795E-25
 -1       724 5.80535E-06 1.20671E-05-4.13590E-25
 -1       725 5.78547E-06 8.88612E-06-2.06795E-25
 -1       726 5.76550E-06 5.68412E-06 8.27181E-25
 -1       727 5.74595E-06 2.72010E-06 0.00000E+00
 -1       728 5.72761E-06 2.45185E-07 8.27181E-25
 -1       729 5.70938E-06-1.48987E-06 8.27181E-25
 -1       730 5.69274E-06-2.25889E-06 3.30872E-24
 -1       731-4.64985E-07 6.34857E-07-2.06795E-25
 -1       732-3.58615E-06 6.67253E-07 0.00000E+00
 -1       733-4.18056E-06 7.04360E-07 0.00000E+00
 -1       734-3.05723E-06 7.41241E-07 0.00000E+00
 -1       735-8.78212E-07 7.76680E-07-8.27181E-25
 -1       736 1.37592E-06 1.24302E-05 0.00000E+00
 -1       737-6.14185E-06 3.16199E-05 0.00000E+00
 -1       738-1.55076E-05 5.54491E-05-3.30872E-24
 -1       739-2.56341E-05 8.11668E-05-1.65436E-24
 -1       740-3.52351E-05 1.05577E-04 0.00000E+00
 -1       741-4.30365E-05 1.25485E-04 0.00000E+00
 -1       742-4.82311E-05 1.38758E-04 3.30872E-24
 -1       743-5.00578E-05 1.43281E-04 0.00000E+00
 -1       744-4.85732E-05 1.38977E-04-3.30872E-24
 -1       745-4.38501E-05 1.25812E-04 0.00000E+00
 -1       746-3.66924E-05 1.05838E-04 0.00000E+00
 -1       747-2.78812E-05 8.11502E-05 1.65436E-24
 -1       748-1.85547E-05 5.49836E-05-3.30872E-24
 -1       749-9.84223E-06 3.05835E-05 1.65436E-24
 -1       750-2.74138E-06 1.07665E-05 0.00000E+00
 -1       751 6.05801E-06-1.02008E-06-3.30872E-24
 -1       752 6.47210E-06-6.06598E-07 3.30872E-24
 -1       753 6.88468E-06-4.37011E-07-1.32349E-23
 -1       754 7.30200E-06-3.57273E-07 0.00000E+00
 -1       755 7.71946E-06-3.31918E-07 0.00000E+00
 -1       756 8.13785E-06-3.26505E-07 0.00000E+00
 -1       757 8.55636E-06-3.33088E-07-1.32349E-23
 -1       758 8.97503E-06-3.43941E-07 0.00000E+00
 -1       759 9.39372E-06-3.57025E-07-1.32349E-23
 -1       760 9.81231E-06-3.70337E-07-6.61744E-24
 -1       761 1.02308E-05-3.82184E-07 1.32349E-23
 -1       762 1.06487E-05-3.90842E-07 0.00000E+00
 -1       763 1.10665E-05-3.90351E-07-1.32349E-23
 -1       764 1.14809E-05-3.74579E-07 6.61744E-24
 -1       765 1.18965E-05-3.17181E-07 0.00000E+00
 -1       766 3.78015E-06-1.81368E-06 3.30872E-24
 -1       767 1.95693E-07-1.78636E-06-4.13590E-25
 -1       768-3.46739E-06-1.75992E-06-5.16988E-26
 -1       769-5.59238E-06-1.72792E-06 5.16988E-26
 -1       770-4.44162E-06-1.69515E-06 0.00000E+00
 -1       771 5.06177E-06-1.03664E-06 1.32349E-23
 -1       772 4.51070E-06-3.96780E-07 0.00000E+00
 -1       773 4.01351E-06 9.77630E-08-1.32349E-23
 -1       774 3.56499E-06 4.61619E-07 0.00000E+00
 -1       775 3.15992E-06 7.09441E-07 0.00000E+00
 -1       776 2.79281E-06 8.55945E-07 0.00000E+00
 -1       777 2.45817E-06 9.15867E-07 0.00000E+00
 -1       778 2.15047E-06 9.03967E-07 0.00000E+00
 -1       779 1.86417E-06 8.35022E-07 6.61744E-24
 -1       780 1.59372E-06 7.23824E-07 0.00000E+00
 -1       781 1.33360E-06 5.85178E-07 0.00000E+00
 -1       782 1.07828E-06 4.33903E-07 3.30872E-24
 -1       783 8.22264E-07 2.84826E-07 0.00000E+00
 -1       784 5.60270E-07 1.52814E-07-3.30872E-24
 -1       785 2.87040E-07 5.27345E-08 0.00000E+00
 -1       786 1.23275E-05-4.86175E-08 4.13590E-25
 -1       787 1.23625E-05 6.17848E-08 0.00000E+00
 -1       788 1.23975E-05 1.45114E-07-8.27181E-25
 -1       789 1.24328E-05 2.06309E-07 0.00000E+00
 -1       790 1.24682E-05 2.50300E-07 8.27181E-25
 -1       791 1.25036E-05 2.82013E-07-4.13590E-25
 -1       792 1.25391E-05 3.06371E-07 0.00000E+00
 -1       793 1.25745E-05 3.28293E-07 0.00000E+00
 -1       794 1.26100E-05 3.52700E-07 0.00000E+00
 -1       795 1.26454E-05 3.84512E-07-4.13590E-25
 -1       796 1.26809E-05 4.28651E-07 0.00000E+00
 -1       797 1.27163E-05 4.90044E-07 4.13590E-25
 -1       798 1.27517E-05 5.73622E-07-8.27181E-25
 -1       799 1.27870E-05 6.84318E-07 0.00000E+00
 -1       800 1.28223E-05 8.27084E-07 0.00000E+00
 -1       801 1.12115E-05-1.56936E-07 0.00000E+00
 -1       802 8.95341E-06-1.22596E-07 0.00000E+00
 -1       803 6.11125E-06-8.97576E-08 0.00000E+00
 -1       804 3.27710E-06-5.80476E-08 0.00000E+00
 -1       805 1.04305E-06-2.49313E-08 3.30872E-24
 -1       806 1.21986E-05-6.36018E-08 0.00000E+00
 -1       807 1.21065E-05 4.96541E-08-8.27181E-25
 -1       808 1.20183E-05 1.51437E-07 1.65436E-24
 -1       809 1.19333E-05 2.44261E-07-8.27181E-25
 -1       810 1.18506E-05 3.30627E-07 1.65436E-24
 -1       811 1.17694E-05 4.13022E-07 0.00000E+00
 -1       812 1.16888E-05 4.93925E-07-1.65436E-24
 -1       813 1.16078E-05 5.75818E-07 0.00000E+00
 -1       814 1.15255E-05 6.61180E-07 1.65436E-24
 -1       815 1.14410E-05 7.52489E-07 0.00000E+00
 -1       816 1.13533E-05 8.52225E-07 0.00000E+00
 -1       817 1.12615E-05 9.62867E-07-4.13590E-25
 -1       818 1.11647E-05 1.08690E-06-8.27181E-25
 -1       819 1.10622E-05 1.22679E-06 4.13590E-25
 -1       820 1.09530E-05 1.38504E-06 4.13590E-25
 -1       821 1.28204E-05 1.23725E-06 4.13590E-25
 -1       822 1.27820E-05 1.52022E-06-4.13590E-25
 -1       823 1.27435E-05 1.85024E-06 0.00000E+00
 -1       824 1.27047E-05 2.22172E-06 4.13590E-25
 -1       825 1.26658E-05 2.62910E-06 8.27181E-25
 -1       826 1.26268E-05 3.06678E-06 0.00000E+00
 -1       827 1.25878E-05 3.52917E-06 0.00000E+00
 -1       828 1.25488E-05 4.01065E-06 0.00000E+00
 -1       829 1.25098E-05 4.50562E-06-8.27181E-25
 -1       830 1.24708E-05 5.00845E-06 4.13590E-25
 -1       831 1.24318E-05 5.51354E-06-8.27181E-25
 -1       832 1.23928E-05 6.01525E-06-4.13590E-25
 -1       833 1.23539E-05 6.50796E-06-8.27181E-25
 -1       834 1.23153E-05 6.98607E-06-4.13590E-25
 -1       835 1.22766E-05 7.44396E-06 0.00000E+00
 -1       836 1.25924E-05 1.09803E-06 1.65436E-24
 -1       837 1.22465E-05 1.19245E-06 0.00000E+00
 -1       838 1.18584E-05 1.28668E-06 1.65436E-24
 -1       839 1.14678E-05 1.38069E-06 8.27181E-25
 -1       840 1.11142E-05 1.47484E-06 8.27181E-25
 -1       841 1.27707E-05 1.23694E-06 0.00000E+00
 -1       842 1.26624E-05 1.52458E-06-5.16988E-26
 -1       843 1.25350E-05 1.86334E-06 0.00000E+00
 -1       844 1.23908E-05 2.24646E-06 0.00000E+00
 -1       845 1.22324E-05 2.66726E-06-1.61559E-27
 -1       846 1.20624E-05 3.11900E-06 3.23117E-27
 -1       847 1.18834E-05 3.59491E-06 1.29247E-26
 -1       848 1.16977E-05 4.08825E-06 0.00000E+00
 -1       849 1.15081E-05 4.59222E-06 0.00000E+00
 -1       850 1.13171E-05 5.10004E-06 0.00000E+00
 -1       851 1.11271E-05 5.60493E-06 2.58494E-26
 -1       852 1.09407E-05 6.10008E-06 0.00000E+00
 -1       853 1.07606E-05 6.57874E-06-1.03398E-25
 -1       854 1.05890E-05 7.03406E-06 0.00000E+00
 -1       855 1.04287E-05 7.45938E-06 4.13590E-25
 -1       856 1.21959E-05 8.34076E-06-4.13590E-25
 -1       857 1.21498E-05 8.89038E-06 4.13590E-25
 -1       858 1.21037E-05 9.51380E-06 8.27181E-25
 -1       859 1.20572E-05 1.01998E-05 0.00000E+00
 -1       860 1.20106E-05 1.09373E-05 0.00000E+00
 -1       861 1.19639E-05 1.17150E-05 0.00000E+00
 -1       862 1.19172E-05 1.25216E-05 0.00000E+00
 -1       863 1.18704E-05 1.33460E-05-8.27181E-25
 -1       864 1.18237E-05 1.41768E-05-1.65436E-24
 -1       865 1.17770E-05 1.50029E-05 0.00000E+00
 -1       866 1.17303E-05 1.58129E-05 0.00000E+00
 -1       867 1.16836E-05 1.65956E-05-8.27181E-25
 -1       868 1.16370E-05 1.73399E-05 1.65436E-24
 -1       869 1.15906E-05 1.80343E-05-8.27181E-25
 -1       870 1.15443E-05 1.86679E-05 0.00000E+00
 -1       871 1.18755E-05 7.87201E-06 0.00000E+00
 -1       872 1.15413E-05 7.86756E-06-2.06795E-25
 -1       873 1.12262E-05 7.86300E-06 0.00000E+00
 -1       874 1.09187E-05 7.85829E-06 0.00000E+00
 -1       875 1.06075E-05 7.85337E-06-2.06795E-25
 -1       876 1.21308E-05 8.35642E-06 1.65436E-24
 -1       877 1.19972E-05 8.90995E-06 0.00000E+00
 -1       878 1.18400E-05 9.52637E-06 0.00000E+00
 -1       879 1.16629E-05 1.01966E-05 0.00000E+00
 -1       880 1.14692E-05 1.09113E-05-1.65436E-24
 -1       881 1.12624E-05 1.16612E-05 0.00000E+00
 -1       882 1.10457E-05 1.24372E-05 0.00000E+00
 -1       883 1.08228E-05 1.32300E-05-8.27181E-25
 -1       884 1.05969E-05 1.40306E-05-1.65436E-24
 -1       885 1.03716E-05 1.48297E-05-8.27181E-25
 -1       886 1.01502E-05 1.56182E-05-1.65436E-24
 -1       887 9.93617E-06 1.63869E-05 0.00000E+00
 -1       888 9.73294E-06 1.71267E-05-1.65436E-24
 -1       889 9.54359E-06 1.78283E-05 0.00000E+00
 -1       890 9.37209E-06 1.84825E-05-8.27181E-25
 -1       891 1.10508E-05 1.92044E-05 8.27181E-25
 -1       892 1.06914E-05 1.91792E-05 0.00000E+00
 -1       893 1.03748E-05 1.91539E-05-8.27181E-25
 -1       894 1.00547E-05 1.91288E-05-4.13590E-25
 -1       895 9.68476E-06 1.91035E-05 4.13590E-25
 -1       896 1.05837E-07 6.09093E-07-3.30872E-24
 -1       897 2.12394E-07 1.23441E-06-1.65436E-24
 -1       898 3.18902E-07 1.86706E-06 0.00000E+00
 -1       899 4.25549E-07 2.49817E-06 1.65436E-24
 -1       900 5.32205E-07 3.11849E-06 3.30872E-24
 -1       901 6.38900E-07 3.71872E-06 1.65436E-24
 -1       902 7.45616E-07 4.28440E-06 3.30872E-24
 -1       903 8.52355E-07 4.80092E-06-1.65436E-24
 -1       904 9.59125E-07 5.24111E-06 0.00000E+00
 -1       905 1.06590E-06 5.57742E-06 1.65436E-24
 -1       906 1.17270E-06 5.75576E-06-3.30872E-24
 -1       907 1.27936E-06 5.72128E-06 0.00000E+00
 -1       908 1.38594E-06 5.36474E-06 0.00000E+00
 -1       909 1.49153E-06 4.57537E-06-1.65436E-24
 -1       910 1.59665E-06 3.13197E-06 0.00000E+00
 -1       911 1.70091E-06-1.21246E-06-2.06795E-25
 -1       912 1.70722E-06-1.75793E-06-1.03398E-25
 -1       913 1.71354E-06-1.09895E-06-2.06795E-25
 -1       914 1.71881E-06 4.92087E-07-1.03398E-25
 -1       915 1.72287E-06 2.75625E-06-2.06795E-25
 -1       916 1.72593E-06 5.43475E-06 0.00000E+00
 -1       917 1.72858E-06 8.27476E-06 0.00000E+00
 -1       918 1.73146E-06 1.10236E-05 0.00000E+00
 -1       919 1.73518E-06 1.34271E-05 0.00000E+00
 -1       920 1.74010E-06 1.52311E-05 0.00000E+00
 -1       921 1.74611E-06 1.61729E-05 0.00000E+00
 -1       922 1.75246E-06 1.59894E-05 0.00000E+00
 -1       923 1.75753E-06 1.44013E-05 0.00000E+00
 -1       924 1.75835E-06 1.11291E-05-5.16988E-26
 -1       925 1.75103E-06 5.86914E-06-4.13590E-25
 -1       926 1.60266E-06-1.05287E-05 0.00000E+00
 -1       927 1.47307E-06-1.96454E-05 0.00000E+00
 -1       928 1.34801E-06-2.82357E-05 3.30872E-24
 -1       929 1.23263E-06-3.55049E-05 1.65436E-24
 -1       930 1.12841E-06-4.09047E-05-3.30872E-24
 -1       931 1.03383E-06-4.38942E-05 0.00000E+00
 -1       932 9.43372E-07-4.43819E-05 3.30872E-24
 -1       933 8.50886E-07-4.22862E-05-1.65436E-24
 -1       934 7.51878E-07-3.80070E-05 3.30872E-24
 -1       935 6.44001E-07-3.19526E-05 0.00000E+00
 -1       936 5.29718E-07-2.48628E-05-3.30872E-24
 -1       937 4.13240E-07-1.74814E-05-1.65436E-24
 -1       938 3.00128E-07-1.06065E-05-3.30872E-24
 -1       939 1.94002E-07-5.03414E-06 1.65436E-24
 -1       940 9.62437E-08-1.31696E-06 0.00000E+00
 -1       941 6.42303E-07 1.06924E-07 6.61744E-24
 -1       942 1.32008E-06 2.01529E-07 0.00000E+00
 -1       943 1.99560E-06 2.89312E-07-1.32349E-23
 -1       944 2.67789E-06 3.75553E-07 1.32349E-23
 -1       945 3.36035E-06 4.60942E-07 0.00000E+00
 -1       946 4.04418E-06 5.46141E-07 1.32349E-23
 -1       947 4.72815E-06 6.31242E-07 2.64698E-23
 -1       948 5.41235E-06 7.16333E-07 1.32349E-23
 -1       949 6.09658E-06 8.01472E-07 0.00000E+00
 -1       950 6.78063E-06 8.86719E-07 0.00000E+00
 -1       951 7.46456E-06 9.72456E-07 0.00000E+00
 -1       952 8.14743E-06 1.05909E-06 1.32349E-23
 -1       953 8.83013E-06 1.14969E-06 0.00000E+00
 -1       954 9.50741E-06 1.24747E-06 0.00000E+00
 -1       955 1.01865E-05 1.37708E-06 0.00000E+00
 -1       956 1.08030E-05 1.81278E-06 6.20385E-25
 -1       957 1.07684E-05 2.09955E-06 2.06795E-25
 -1       958 1.07337E-05 2.42063E-06 4.13590E-25
 -1       959 1.06989E-05 2.77195E-06 0.00000E+00
 -1       960 1.06640E-05 3.14941E-06 8.27181E-25
 -1       961 1.06292E-05 3.54890E-06 0.00000E+00
 -1       962 1.05943E-05 3.96628E-06 0.00000E+00
 -1       963 1.05594E-05 4.39743E-06 4.13590E-25
 -1       964 1.05245E-05 4.83823E-06-8.27181E-25
 -1       965 1.04896E-05 5.28455E-06 4.13590E-25
 -1       966 1.04547E-05 5.73226E-06 0.00000E+00
 -1       967 1.04199E-05 6.17723E-06 0.00000E+00
 -1       968 1.03850E-05 6.61534E-06 0.00000E+00
 -1       969 1.03502E-05 7.04248E-06 0.00000E+00
 -1       970 1.03155E-05 7.45454E-06 1.65436E-24
 -1       971 1.02167E-05 8.26947E-06-1.65436E-24
 -1       972 1.01503E-05 8.78190E-06 0.00000E+00
 -1       973 1.00839E-05 9.37361E-06 1.65436E-24
 -1       974 1.00171E-05 1.00332E-05 0.00000E+00
 -1       975 9.95034E-06 1.07493E-05 0.00000E+00
 -1       976 9.88345E-06 1.15105E-05-8.27181E-25
 -1       977 9.81653E-06 1.23054E-05 0.00000E+00
 -1       978 9.74958E-06 1.31224E-05 0.00000E+00
 -1       979 9.68263E-06 1.39500E-05 1.65436E-24
 -1       980 9.61568E-06 1.47769E-05 0.00000E+00
 -1       981 9.54877E-06 1.55915E-05 0.00000E+00
 -1       982 9.48194E-06 1.63823E-05 0.00000E+00
 -1       983 9.41520E-06 1.71379E-05 0.00000E+00
 -1       984 9.34885E-06 1.78468E-05 8.27181E-25
 -1       985 9.28252E-06 1.84976E-05 0.00000E+00
 -3
    1PSTEP                        32          16           1          
  100CL  116 2.58136E-01         841                     0   16           1
 -4  STRESS      6    1
 -5  SXX         1    4    1    1
 -5  SYY         1    4    2    2
 -5  SZZ         1    4    3    3
 -5  SXY         1    4    1    2
 -5  SYZ         1    4    2    3
 -5  SZX         1    4    3    1
 -1         1-1.06978E+06-3.46943E+05-2.20707E+05-3.11323E+05-1.07927E-10 1.11565E-10
 -1         2-6.49653E+05-3.34637E+04 2.03730E+03-5.61876E+04-6.49322E-10-1.07104E-09
 -1         3-3.58500E+05-1.17484E+05-1.81136E+04-1.92060E+04 9.34619E-10 3.06159E-10
 -1         4-2.32676E+05-3.30423E+04 3.68255E+02-2.74699E+04 1.89004E-11 8.10957E-10
 -1         5-1.25938E+05 3.75900E+04-5.29849E+04-2.52073E+03 4.18277E-09-8.70102E-10
 -1         8-5.53775E+05-2.20567E+05-7.99235E+04-2.05315E+05 2.31921E-10-1.09321E-09
 -1         9-5.84606E+05-1.35821E+05-6.80142E+04-1.36108E+05-1.74320E-10 1.94026E-10
 -1        10-2.19011E+05-1.33976E+05 2.49725E+03-4.77797E+04-2.22849E-09-5.10227E-10
 -1        11-1.55099E+05-3.72343E+04 2.25020E+03-4.30477E+04-1.02138E-08-9.00817E-10
 -1        12-1.34183E+05 2.85621E+04-5.60659E+04-1.87934E+04 1.34884E-09 4.20641E-10
 -1        15 5.14343E+03-1.33155E+04 2.50491E+03-3.22037E+04-4.41560E-10 2.86309E-09
 -1        16-3.62427E+05-4.81042E+04 2.05703E+04-1.55266E+05 4.57173E-10 2.73053E-09
 -1        17-2.13562E+05-1.37193E+05-2.31373E+04-1.14445E+05-1.52037E-09 6.06330E-11
 -1        18-3.31760E+04-2.49960E+04-1.94888E+04-4.17491E+04 2.87082E-09-8.50681E-10
 -1        19-6.61578E+03 3.10016E+04-1.60045E+04-1.09979E+04-3.32193E-10 1.38850E-10
 -1        20 3.43468E+04-2.59808E+04-4.47903E+03 1.86932E+04 1.39573E-09-1.07502E-09
 -1        21 5.67104E+02-5.15665E+04 1.43250E+04 9.64653E+00 5.60658E-09 1.54204E-09
 -1        22 1.25122E+04 6.15880E+04 8.75747E+02-1.54954E+04-3.80169E-10-1.58252E-10
 -1        23-7.74747E+04 4.03899E+04 4.57301E+03-2.70700E+04-2.97549E-09-2.02499E-09
 -1        24-9.82557E+04-5.96692E+03 9.14051E+04-1.68221E+05-5.42817E-09 9.21621E-10
 -1        25 2.02457E+05 6.66032E+04 6.18351E+04-1.02411E+05 3.76455E-10-6.13909E-10
 -1        26 8.21150E+02 5.45977E+04 2.74250E+03-9.62644E+03-2.32755E-10 2.28662E-10
 -1        27-1.17978E+04-2.16894E+04-9.34347E+03 2.62679E+04-3.45911E-10-1.65528E-09
 -1        28-4.13029E+03-4.09887E+04-2.24488E+02 1.97806E+04-4.72141E-10-1.87987E-09
 -1        29 1.47588E+05 1.08726E+05 4.71413E+02 3.26023E+02 1.94365E-10 2.67619E-10
 -1        30 1.88832E+04 1.54786E+04 1.00033E+03-1.59792E+04 9.38707E-11-2.61298E-09
 -1        31-9.44841E+04 1.39658E+04 5.42881E+03-2.96262E+04 2.72365E-09-1.19285E-08
 -1        32 3.28990E+05 1.70836E+05 2.11502E+05-1.68028E+05 3.11901E-09 9.05857E-10
 -1        33 4.78401E+05 1.89812E+05 1.46318E+05-1.45664E+04-9.48559E-09 2.01680E-10
 -1        34-6.91300E+04-8.56953E+03-1.44821E+03 1.53629E+04 1.63823E-10 1.11891E-09
 -1        35-1.17280E+04-1.37152E+04-2.44182E+02 2.96532E+04 3.41583E-09-6.70601E-10
 -1        36-1.39379E+06 4.20034E+04-9.70681E+04-5.65296E-09-2.20165E-10 1.30240E-09
 -1        37-1.43582E+06-4.86216E+04-6.86979E+04 1.51649E-08-1.63443E-10-4.29281E-10
 -1        38-1.41001E+06 6.58393E+03-2.51200E+04 4.10405E-08-1.14864E-09-2.22917E-09
 -1        39-1.41689E+06-7.61903E+03-1.57979E+04-8.51807E-08-1.02042E-09 9.13133E-10
 -1        40-1.41268E+06 1.02983E+03-6.45373E+03-1.57180E-07-1.22588E-09 2.00930E-09
 -1        41-1.41376E+06-1.20574E+03-3.84954E+03-1.32239E-07-8.25347E-10 2.61917E-09
 -1        42-1.41312E+06 1.75209E+02-1.87409E+03-1.11256E-07-2.20089E-09 1.41677E-09
 -1        43-1.41329E+06-3.04134E+02-1.47023E+03 3.62246E-08-6.08810E-10 1.12536E-09
 -1        44-1.41315E+06 1.28799E+02-1.45880E+03-3.04617E-08-2.11816E-10 9.50621E-10
 -1        45-1.41355E+06-8.06704E+02-2.64710E+03-1.38590E-07-1.85755E-09 7.56586E-10
 -1        46-1.41287E+06 6.77442E+02-4.28958E+03-2.17813E-07-1.47776E-09 2.85422E-09
 -1        47-1.41559E+06-4.99882E+03-1.03899E+04-1.51134E-07-2.81735E-09-4.95106E-10
 -1        48-1.41112E+06 4.31790E+03-1.64880E+04-2.03946E-08 6.61181E-10-1.14596E-09
 -1        49-1.42800E+06-3.18858E+04-4.50584E+04-4.04700E-08-1.56714E-09 2.55386E-09
 -1        50-1.40048E+06 2.75443E+04-6.36680E+04 7.49941E-08-3.40330E-09 2.87400E-10
 -1        51 1.20052E+04-1.44010E+05 1.90670E+04-3.76305E+05-8.73115E-11-1.17980E-08
 -1        52 4.95739E+03-1.41580E+05 1.14789E+04-4.14208E+05 1.32786E-10-2.05109E-08
 -1        53 2.84827E+03-1.44436E+05 9.24857E+03-3.75350E+05 4.72937E-11-8.82937E-09
 -1        54 6.95179E+03-1.42357E+05 1.40351E+04-4.15256E+05-1.12777E-10 4.20187E-10
 -1        55 1.74515E+04-1.46588E+05 2.54950E+04-3.75210E+05 3.63798E-11 7.23958E-10
 -1        56-1.67039E+06-1.88640E+05-1.37789E+05-6.46324E+05 2.29193E-10 4.14730E-10
 -1        57-1.73501E+06-3.00850E+05-9.24200E+04-6.30297E+05-4.09727E-10 2.39470E-09
 -1        58-1.69704E+06-2.32208E+05-3.24623E+04-6.38955E+05 1.36424E-11-2.35195E-09
 -1        59-1.70431E+06-2.49503E+05-1.92451E+04-6.39141E+05-3.98359E-10 1.93450E-09
 -1        60-1.70078E+06-2.38261E+05-7.59308E+03-6.38099E+05 2.45336E-10 1.86446E-10
 -1        61-1.70010E+06-2.42298E+05-4.29764E+03-6.40031E+05-5.25091E-10 1.86958E-10
 -1        62-1.70119E+06-2.39198E+05-2.09663E+03-6.38136E+05-2.36014E-10 8.25935E-11
 -1        63-1.69985E+06-2.41159E+05-1.75616E+03-6.39800E+05-2.17938E-10 1.97227E-09
 -1        64-1.70102E+06-2.39378E+05-2.04356E+03-6.38336E+05-2.05802E-10-2.37264E-10
 -1        65-1.70076E+06-2.41561E+05-4.14062E+03-6.39242E+05 3.14060E-11-2.20984E-09
 -1        66-1.70029E+06-2.38818E+05-7.29586E+03-6.38688E+05-7.64658E-10-4.97039E-10
 -1        67-1.70544E+06-2.47839E+05-1.84759E+04-6.37656E+05 4.09273E-11 4.94765E-10
 -1        68-1.69640E+06-2.33308E+05-3.11627E+04-6.39852E+05 1.65983E-10 4.78394E-10
 -1        69-1.73544E+06-2.96587E+05-8.87121E+04-6.28550E+05 6.65295E-10-1.22236E-09
 -1        70-1.67058E+06-1.91727E+05-1.32266E+05-6.47198E+05-7.51243E-10 5.82077E-10
 -1        71-6.82655E+05-4.23555E+02 9.78317E+02 1.12710E-07-1.18213E-09 1.21304E-10
 -1        72-6.82168E+05 4.90195E+02 6.89710E+02 1.19541E-07-1.04487E-09-1.30676E-10
 -1        73-6.82491E+05-6.62531E+01 2.46683E+02-8.21290E-08-1.45473E-09-9.56547E-10
 -1        74-6.82360E+05 7.56800E+01 1.44899E+02-1.66005E-07-1.80311E-10 9.37916E-12
 -1        75-6.82463E+05-9.37163E+00 3.72549E+01 4.69590E-08-8.16866E-10-7.73500E-10
 -1        76-6.82396E+05 4.39059E+00-2.08280E+01-2.99794E-08-1.05440E-10 2.27180E-09
 -1        77-6.82455E+05 4.98753E+00-9.29342E+01 6.04810E-08-4.79362E-11 1.85216E-09
 -1        78-6.82427E+05-4.78021E+01-2.31418E+02 3.88328E-08-1.53920E-10 2.09404E-09
 -1        79-6.82433E+05 4.27947E+01-4.31685E+02 9.30275E-08 3.01611E-10-7.55762E-10
 -1        80-6.82571E+05-3.20694E+02-1.00138E+03-5.46951E-08 4.99471E-10 1.36015E-09
 -1        81-6.82311E+05 2.77705E+02-1.72757E+03-2.01791E-07 4.22886E-10 1.93529E-09
 -1        82-6.83419E+05-2.05881E+03-4.26361E+03-8.74892E-09-3.93621E-10 4.39741E-10
 -1        83-6.81587E+05 1.77966E+03-6.79067E+03 2.75013E-08-2.27372E-10-6.45741E-11
 -1        84-6.88536E+05-1.31431E+04-1.85742E+04 8.38987E-08 1.33563E-09 2.60206E-09
 -1        85-6.77200E+05 1.13534E+04-2.62529E+04 1.13841E-07-4.09185E-10 1.81171E-09
 -1        86-3.11029E+04 9.53891E+04 7.31257E+04 4.95757E+02 3.63798E-12 1.22872E-09
 -1        87 3.88599E+04 1.28196E+05 5.67837E+04-2.08612E+03-2.00089E-10 7.55769E-11
 -1        88-7.72411E+03 1.06113E+05 2.91395E+04 3.48780E+02-4.06999E-10 2.31173E-09
 -1        89 2.71361E+04 1.22710E+05 4.14993E+04-1.93748E+03-9.27685E-11 8.74369E-10
 -1        90-1.93885E+04 1.00870E+05 4.68558E+04 3.47136E+02-4.76575E-10 9.40460E-10
 -1        91-6.84360E+05-1.03197E+05-9.65642E+03-2.69014E+05 6.09498E-09-9.53150E-10
 -1        92-6.96054E+05-7.51248E+04-2.34993E+03-2.26021E+05 1.28177E-08 2.08729E-10
 -1        93-6.73098E+05-1.06292E+05-1.89325E+03-2.69723E+05-2.51496E-09-1.02875E-09
 -1        94-6.78610E+05-7.80155E+04 3.47969E+03-2.31316E+05-9.56626E-09 3.54646E-09
 -1        95-7.01588E+05-1.00520E+05-4.78556E+03-2.63530E+05-1.97781E-09-6.49720E-10
 -1        96-6.50990E+05-9.96130E+04 5.29398E+03-2.56289E+05 1.19511E-08 1.79568E-09
 -1        97-7.00609E+05-8.48008E+04-1.39963E+03-2.44661E+05 1.11868E-10 3.46986E-09
 -1        98-6.53000E+05-1.15614E+05 1.75785E+03-2.76183E+05-4.84694E-09 4.12924E-09
 -1        99-6.99927E+05-8.41696E+04-1.42822E+03-2.43936E+05 6.63698E-09-2.77851E-10
 -1       100-6.50958E+05-1.01117E+05 4.28867E+03-2.57665E+05 7.47744E-09 1.33541E-09
 -1       101-7.02320E+05-9.96310E+04-6.31458E+03-2.62896E+05 2.63526E-10 1.97986E-09
 -1       102-6.78137E+05-8.08275E+04-3.22156E+02-2.31635E+05-8.09514E-10 2.66027E-10
 -1       103-6.72820E+05-1.04392E+05-8.46257E+03-2.70021E+05-7.04915E-09-3.73348E-10
 -1       104-7.04433E+05-8.85501E+04-2.14993E+04-2.23338E+05 1.35060E-09-2.39288E-09
 -1       105-6.76276E+05-9.16723E+04-3.68859E+04-2.71407E+05 2.92403E-09 3.28328E-09
 -1       106-4.97414E+05 4.35325E+03-1.00685E+04-1.58951E-08 1.00702E-09 1.93268E-10
 -1       107-5.01740E+05-5.03971E+03-7.12518E+03 8.91534E-08-9.06424E-11-6.34145E-10
 -1       108-4.99097E+05 6.82493E+02-2.60957E+03-6.93313E-08 2.74319E-10 1.47418E-09
 -1       109-4.99779E+05-7.90329E+02-1.64638E+03 1.51171E-07-1.72586E-11 1.64229E-09
 -1       110-4.99374E+05 1.07272E+02-6.84249E+02-1.50203E-08 2.08703E-11 8.26873E-10
 -1       111-4.99457E+05-1.28997E+02-4.30418E+02-4.85312E-08 5.48006E-10-4.14545E-10
 -1       112-4.99417E+05 2.16515E+01-2.52434E+02-7.91154E-08 3.72400E-10 1.27496E-10
 -1       113-4.99422E+05-5.78084E+01-2.79957E+02-1.42966E-07-3.26350E-10-5.75501E-10
 -1       114-4.99409E+05 3.61329E+01-3.82223E+02-1.42741E-07 1.24772E-10-7.42588E-10
 -1       115-4.99524E+05-2.53511E+02-8.06082E+02 1.49328E-07 5.99741E-10-1.89634E-09
 -1       116-4.99315E+05 2.17228E+02-1.36038E+03 8.95958E-08-4.04687E-10-8.22581E-10
 -1       117-5.00184E+05-1.60789E+03-3.33519E+03 7.95303E-08-9.13750E-10-5.76620E-10
 -1       118-4.98750E+05 1.38952E+03-5.30542E+03-8.13739E-08-6.93651E-10-1.56774E-09
 -1       119-5.04178E+05-1.02615E+04-1.45042E+04-3.01246E-08-4.92083E-10 2.17369E-10
 -1       120-4.95324E+05 8.86412E+03-2.04987E+04 1.90789E-08-4.63882E-10 1.18871E-09
 -1       121-5.18470E+02-3.60010E+05 2.41302E+03 4.69208E+03-1.17780E-10 3.42652E-09
 -1       122 7.33400E+02-3.59101E+05 1.59094E+03 1.67788E+04-3.00616E-10 2.13856E-09
 -1       123-7.14359E+01-3.59659E+05 7.49548E+02 4.72800E+03-4.25018E-10 2.00907E-09
 -1       124 2.24161E+02-3.59378E+05 6.82390E+02 1.66566E+04-9.55197E-10-2.12185E-09
 -1       125-1.45122E+02-3.59697E+05 6.74782E+02 4.81420E+03-1.02841E-09-2.83217E-09
 -1       126-2.80777E+05-4.63496E+04 3.64338E+03-1.07610E+05 7.70191E-09-7.32143E-11
 -1       127-2.61731E+05-2.22166E+04 8.09568E+03-8.61250E+04 1.57656E-08 5.87306E-10
 -1       128-2.65860E+05-4.50226E+04 9.66015E+02-1.09181E+05 7.52217E-09-1.16449E-09
 -1       129-2.79644E+05-2.37553E+04 1.52505E+03-8.47397E+04 1.77475E-08-3.09598E-10
 -1       130-2.63099E+05-4.46382E+04 2.58397E+02-1.09180E+05 1.62973E-08-6.51923E-10
 -1       131-2.70282E+05-2.53389E+04 2.40101E+03-8.48067E+04-1.50992E-08-3.09092E-09
 -1       132-2.75079E+05-4.35470E+04-2.12598E+03-1.09000E+05-5.22550E-09 1.70533E-09
 -1       133-2.48919E+05-3.08158E+04 5.30636E+03-8.91040E+04 1.35035E-08 1.03901E-09
 -1       134-2.84189E+05-3.93651E+04-3.21658E+03-1.04674E+05 5.74562E-09-3.43704E-10
 -1       135-2.43585E+05-4.11528E+04 4.11771E+03-1.01407E+05 1.11137E-08-1.79091E-09
 -1       136-2.80492E+05-3.31514E+04-1.73094E+03-9.67642E+04-5.50159E-09-3.07296E-10
 -1       137-2.52197E+05-5.04424E+04-1.86141E+02-1.13437E+05-1.27306E-08-2.35720E-09
 -1       138-2.75872E+05-2.98545E+04-1.93019E+03-9.28637E+04 1.88502E-08 2.74724E-09
 -1       139-2.53462E+05-5.30036E+04-4.55775E+03-1.12418E+05-1.67126E-08-1.27854E-08
 -1       140-2.79213E+05-3.06030E+04-1.02449E+04-9.77725E+04-1.16796E-08-2.02499E-09
 -1       141-2.39207E+05-1.10494E+03 2.55398E+03 5.78422E-08 1.65045E-10 4.74415E-10
 -1       142-2.38076E+05 1.27896E+03 1.80353E+03 1.35544E-07-2.31081E-10 9.60057E-10
 -1       143-2.38780E+05-1.73008E+02 6.51853E+02-1.44580E-07-5.02809E-11-6.35623E-10
 -1       144-2.38576E+05 1.98801E+02 3.95316E+02-4.73156E-08-4.40485E-11-1.25823E-09
 -1       145-2.38708E+05-2.56474E+01 1.30217E+02 1.11356E-08 1.49824E-10-1.58231E-09
 -1       146-2.38664E+05 2.06367E+01 1.61825E+01 5.17999E-08-2.55314E-10-1.12726E-09
 -1       147-2.38691E+05 5.02848E+00-1.10371E+02 6.83556E-08-1.28674E-10 2.24195E-09
 -1       148-2.38713E+05-6.45869E+01-3.12943E+02-1.63425E-08-1.01383E-10-4.64553E-11
 -1       149-2.38659E+05 5.95312E+01-5.99072E+02 2.34277E-08 1.26506E-12 4.79560E-10
 -1       150-2.38916E+05-4.47995E+02-1.39820E+03 1.07326E-07-2.03434E-10 1.01113E-09
 -1       151-2.38488E+05 3.88197E+02-2.41539E+03-8.16518E-08-1.81188E-10 5.32054E-11
 -1       152-2.40101E+05-2.87818E+03-5.96223E+03-1.67540E-07 3.44621E-10-4.25075E-10
 -1       153-2.37475E+05 2.48795E+03-9.49657E+03 7.44824E-08 1.13937E-09-3.07409E-10
 -1       154-2.47253E+05-1.83740E+04-2.59709E+04-2.52089E-09 3.47234E-10-3.17868E-10
 -1       155-2.31337E+05 1.58720E+04-3.67041E+04-2.42829E-08 2.42750E-09 3.29237E-10
 -1       156-8.37922E+03-5.89744E+04 1.92829E+04 4.95644E+03 1.61708E-09 2.99792E-10
 -1       157 1.04324E+04-4.72514E+04 1.56906E+04-1.99279E+04 4.41469E-09 8.29026E-11
 -1       158-2.00492E+03-5.56738E+04 8.07658E+03 4.98214E+03 2.18881E-09 1.70076E-10
 -1       159 8.64173E+03-4.15850E+04 1.40149E+04-1.93149E+04 8.48559E-10-2.28471E-09
 -1       160-6.71046E+03-6.44756E+04 1.25218E+04 4.34379E+03-3.38605E-09-1.18041E-09
 -1       161-2.40933E+05-3.35915E+04-6.15699E+02-9.03900E+04-1.35670E-09 1.33565E-09
 -1       162-2.41033E+05-3.43512E+04-4.28537E+02-9.05012E+04-3.02475E-08 1.31578E-08
 -1       163-2.41093E+05-3.37751E+04-1.49463E+02-9.03057E+04-1.10074E-05 4.12419E-06
 -1       164-2.40859E+05-3.41278E+04-1.02238E+02-9.05847E+04-2.19550E-05 8.22961E-06
 -1       165-2.41106E+05-3.38147E+04-5.78973E+01-9.03065E+04-1.10066E-05 4.12591E-06
 -1       166-2.40891E+05-3.40467E+04-7.53587E+01-9.05329E+04-3.10180E-08 1.21396E-08
 -1       167-2.41061E+05-3.38563E+04-1.15425E+02-9.03574E+04-9.31951E-10 4.48537E-10
 -1       168-2.41030E+05-3.39949E+04-2.60680E+02-9.04036E+04 1.23828E-10 1.98523E-09
 -1       169-2.40967E+05-3.38665E+04-4.71810E+02-9.04359E+04-9.60426E-10 1.09654E-09
 -1       170-2.41383E+05-3.42660E+04-1.18292E+03-9.02082E+04 2.27860E-09-1.35731E-09
 -1       171-2.40709E+05-3.35854E+04-2.04386E+03-9.05529E+04-2.04665E-10 1.47065E-09
 -1       172-2.42907E+05-3.66594E+04-5.51058E+03-8.96836E+04 9.60597E-10 1.51135E-09
 -1       173-2.39444E+05-3.14747E+04-8.82262E+03-9.09602E+04 1.40813E-09 4.35193E-10
 -1       174-2.51833E+05-5.23523E+04-2.61419E+04-8.67418E+04 6.49266E-10 1.36424E-10
 -1       175-2.31785E+05-1.79025E+04-3.76498E+04-9.34916E+04-2.27374E-11-9.20409E-10
 -1       191 4.21603E+02 1.82557E+05 6.73811E+02-4.78657E+03-2.40107E-10 7.44421E-10
 -1       192 1.55515E+02 1.82650E+05 4.00789E+02-5.12200E+03-3.57772E-10 1.08639E-09
 -1       193 7.32500E+01 1.82590E+05 3.19149E+02-4.70582E+03-6.29058E-10 2.98496E-09
 -1       194 1.99158E+02 1.82662E+05 4.78766E+02-5.27313E+03-7.13499E-10-5.88898E-11
 -1       195 5.56557E+02 1.82539E+05 8.67856E+02-4.63522E+03-9.51331E-10-2.94676E-10
 -1       251-8.78284E+05 1.72379E+04-4.72501E+04-1.79199E+04 3.39924E-11-1.56251E-09
 -1       252-8.61744E+05-2.07665E+04-2.70412E+04 4.90953E+04 1.52091E-09 4.96220E-09
 -1       253-8.73240E+05 3.83351E+03-1.19697E+04-2.33930E+04-3.64111E-09-4.92901E-09
 -1       254-8.34048E+05-2.23038E+03 5.51618E+02 3.09298E+04-2.14368E-09 1.74180E-09
 -1       255-9.05352E+05-1.89694E+03-1.00702E+04 2.47381E+02-1.34901E-09 4.98858E-10
 -1       256-8.27922E+05 1.08961E+03 6.92194E+03-1.89920E+04 6.98265E-10-2.02616E-09
 -1       257-8.79204E+05 3.59622E+02-2.52557E+03 2.65194E+04-1.63141E-09 6.23700E-09
 -1       258-8.54030E+05-2.77199E+02 2.40097E+03-4.48801E+04-4.63481E-10-8.09839E-09
 -1       259-8.80052E+05 2.71677E+02-2.69755E+03 2.61463E+04-5.23482E-09 5.74767E-09
 -1       260-8.27231E+05 1.13848E+03 7.08283E+03-1.78932E+04-1.29421E-09-2.85445E-09
 -1       261-9.05175E+05-1.87856E+03-9.99949E+03-4.78400E+02-1.04205E-09 1.76055E-09
 -1       262-8.34852E+05-2.25617E+03 4.57472E+02 3.19030E+04 1.32854E-09 3.11775E-09
 -1       263-8.72638E+05 3.86623E+03-1.17122E+04-2.36404E+04-4.44004E-09-3.23462E-09
 -1       264-8.61299E+05-2.04873E+04-2.66219E+04 4.88437E+04-2.24395E-08 4.77667E-09
 -1       265-8.79320E+05 1.69158E+04-4.69577E+04-1.74208E+04-8.67908E-09-3.46881E-09
 -1       266-9.30085E+03-1.33672E+05 2.12557E+04-1.11279E+03 1.54614E-11-6.47921E-10
 -1       267 1.01157E+04-1.24396E+05 1.39066E+04 5.09298E+03 7.09406E-11 1.57642E-09
 -1       268-8.15810E+02-1.29994E+05 3.04973E+03-8.96985E+02-1.50067E-11-1.15327E-09
 -1       269-3.08506E+03-1.29732E+05-3.22041E+03 4.27344E+03 1.59162E-11-1.09389E-09
 -1       270 3.87447E+03-1.28319E+05-8.67529E+03-2.93361E+02 4.36557E-11 4.31447E-09
 -1       271-1.39653E+06-1.77481E+05-1.08240E+05-5.39932E+05 3.29237E-10 2.14641E-09
 -1       272-1.43137E+06-2.48160E+05-6.78616E+04-5.43601E+05-6.41307E-10-1.95541E-09
 -1       273-1.41518E+06-2.00773E+05-2.55273E+04-5.37318E+05 2.15636E-10 4.57840E-09
 -1       274-1.40976E+06-2.17381E+05-1.39351E+04-5.48563E+05 4.74074E-10 3.90241E-09
 -1       275-1.41742E+06-2.03047E+05-5.93402E+03-5.36944E+05-1.30740E-10-2.16005E-10
 -1       276-1.40714E+06-2.14483E+05-3.12881E+03-5.49253E+05 2.11901E-09 5.61380E-09
 -1       277-1.41778E+06-2.03199E+05-1.60688E+03-5.36821E+05 1.07366E-09 2.06734E-09
 -1       278-1.40676E+06-2.14319E+05-1.25162E+03-5.49433E+05 2.12992E-10 1.14790E-09
 -1       279-1.41781E+06-2.03170E+05-1.49104E+03-5.36788E+05-4.06715E-11-9.30640E-10
 -1       280-1.40700E+06-2.14558E+05-2.81345E+03-5.49398E+05-1.38701E-09-4.32652E-09
 -1       281-1.41754E+06-2.02986E+05-5.28633E+03-5.36846E+05 5.19549E-11 3.33785E-10
 -1       282-1.40926E+06-2.17213E+05-1.23964E+04-5.48884E+05 3.68686E-10 3.51088E-09
 -1       283-1.41559E+06-2.00928E+05-2.26920E+04-5.37140E+05-1.38527E-10 1.29876E-09
 -1       284-1.42841E+06-2.44641E+05-6.03286E+04-5.44554E+05 1.12448E-09 3.54794E-09
 -1       285-1.39904E+06-1.80190E+05-9.62202E+04-5.39428E+05-9.80435E-10-2.10275E-09
 -1       286-1.28106E+05-9.83731E+03 2.27475E+04-6.79493E+01 6.45649E-10 4.76575E-10
 -1       287-1.18147E+05 1.13885E+04 1.61074E+04-1.72133E+02 5.00146E-10 1.50362E-09
 -1       288-1.24299E+05-1.54261E+03 5.88736E+03 5.36745E+01-1.25056E-10-9.57471E-10
 -1       289-1.22593E+05 1.78514E+03 3.71403E+03-3.98302E+02-3.11218E-12-1.61299E-09
 -1       290-1.23662E+05-2.41577E+02 1.51874E+03 1.58229E+02 1.90283E-10-1.52932E-09
 -1       291-1.23343E+05 2.84241E+02 9.20156E+02-5.66396E+02 3.16331E-10-5.55701E-10
 -1       292-1.23550E+05-4.24506E+01 4.66763E+02 2.21771E+02 4.75211E-10 8.72774E-10
 -1       293-1.23458E+05 8.32849E+01 4.05017E+02-6.40053E+02 5.13987E-10 1.04609E-09
 -1       294-1.23547E+05-4.05445E+01 4.50541E+02 2.31887E+02 6.84221E-10-6.14392E-10
 -1       295-1.23357E+05 2.68271E+02 8.71110E+02-6.04925E+02 3.98778E-10 5.13438E-11
 -1       296-1.23651E+05-2.27415E+02 1.43325E+03 1.86642E+02 2.96449E-10 2.35087E-09
 -1       297-1.22652E+05 1.68076E+03 3.49717E+03-4.67951E+02 3.40194E-10 5.73550E-09
 -1       298-1.24252E+05-1.45233E+03 5.54411E+03 9.49104E+01 2.20169E-10 2.61161E-09
 -1       299-1.18461E+05 1.07226E+04 1.51656E+04-2.58812E+02-2.03853E-10-1.76237E-09
 -1       300-1.27839E+05-9.26218E+03 2.14169E+04-2.25033E+01 2.48050E-10-2.36469E-11
 -1       301 1.89970E+04 5.08275E+03 4.26640E+04-1.35724E+04-3.60160E-10 9.94419E-10
 -1       302 6.43796E+03 1.31437E+04 2.62506E+04-1.59772E+04-5.47857E-10 4.45355E-10
 -1       303 1.77844E+03 7.94117E+03 2.11774E+04-1.35735E+04-4.74301E-10-6.96105E-10
 -1       304 8.44858E+03 1.43556E+04 3.17054E+04-1.59625E+04-3.40606E-10-4.63501E-10
 -1       305 2.54939E+04 3.87501E+03 5.58753E+04-1.35816E+04-2.49202E-10 9.76570E-11
 -1       306-9.25606E+05-1.21712E+05-6.01883E+04-3.58828E+05-1.38698E-10-1.18598E-09
 -1       307-9.38806E+05-1.67083E+05-3.77214E+04-3.67873E+05-8.39691E-10-3.34876E-09
 -1       308-9.36019E+05-1.34598E+05-1.42000E+04-3.57337E+05 3.43107E-10 1.48975E-09
 -1       309-9.26783E+05-1.50024E+05-7.75395E+03-3.70701E+05-8.67090E-10 6.45514E-10
 -1       310-9.37274E+05-1.35850E+05-3.31290E+03-3.57124E+05-1.15847E-09 1.19849E-09
 -1       311-9.25342E+05-1.48408E+05-1.76639E+03-3.71089E+05-7.16682E-10 3.44721E-09
 -1       312-9.37462E+05-1.35942E+05-9.47551E+02-3.57069E+05-1.22157E-09 6.01542E-10
 -1       313-9.25175E+05-1.48290E+05-8.14183E+02-3.71151E+05 1.66326E-09 3.25576E-09
 -1       314-9.37451E+05-1.35946E+05-1.06869E+03-3.57076E+05 1.44234E-09-1.80705E-09
 -1       315-9.25404E+05-1.48426E+05-2.09920E+03-3.71055E+05 1.96945E-09-2.20837E-09
 -1       316-9.37217E+05-1.35836E+05-3.99027E+03-3.57145E+05 2.36946E-09-1.36333E-09
 -1       317-9.27147E+05-1.50388E+05-9.37362E+03-3.70595E+05 1.38516E-09-1.77351E-09
 -1       318-9.35706E+05-1.34311E+05-1.71745E+04-3.57392E+05-7.95808E-12-2.54659E-10
 -1       319-9.41667E+05-1.71063E+05-4.56364E+04-3.67221E+05-5.00670E-10 5.42059E-10
 -1       320-9.23133E+05-1.18688E+05-7.28089E+04-3.59165E+05-5.27507E-10 5.78439E-10
 -1       321-2.55435E+05-4.56837E+03 9.70807E+03-1.77523E+03-1.65966E-09-1.18916E-09
 -1       322-2.46945E+05 5.25689E+03 7.62005E+03 5.78921E+03-6.42399E-09 1.32604E-09
 -1       323-2.52307E+05-6.91200E+02 2.53091E+03-3.46657E+03 2.10738E-09-2.10082E-09
 -1       324-2.50792E+05 7.94673E+02 1.70653E+03 7.82318E+03 1.21879E-08 2.76196E-09
 -1       325-2.51636E+05-7.33459E+01 6.62241E+02-3.80952E+03-1.23516E-09-3.34055E-09
 -1       326-2.50350E+05 1.31611E+02 5.94912E+02 7.03082E+03-2.65994E-09 1.06814E-09
 -1       327-2.52730E+05-4.41742E+01-8.05628E+01-2.67404E+03 7.18231E-09-3.97218E-09
 -1       328-2.48082E+05 1.01225E+02 7.39914E+02 3.69270E+03 1.91551E-09 3.67734E-09
 -1       329-2.53845E+05-8.95537E+01-4.88650E+02-4.71182E+02-5.89409E-10 1.15750E-09
 -1       330-2.47378E+05 7.39891E+01 6.96262E+02-9.60516E+02-3.20412E-10-2.54982E-09
 -1       331-2.53414E+05-3.17709E+01-6.45930E+02 1.97884E+03-1.32670E-09-1.33899E-09
 -1       332-2.49369E+05-2.56628E+02-2.15133E+02-5.18531E+03-1.44170E-08-1.99023E-10
 -1       333-2.51902E+05 2.77745E+02-1.18693E+03 3.75362E+03-1.06502E-08 3.61251E-09
 -1       334-2.52123E+05-2.05223E+03-2.89953E+03-7.41338E+03-9.47224E-09-2.59644E-09
 -1       335-2.50710E+05 1.80129E+03-4.23146E+03 4.20737E+03 6.49629E-09 4.76143E-09
 -1       336 1.44591E+02-3.71617E+05-1.16678E+03-7.08328E+03-1.71173E-09-2.71939E-10
 -1       337-4.80982E+02-3.72091E+05-2.03850E+03-2.59155E+04-3.10638E-09 1.96223E-10
 -1       338 2.93741E+02-3.71496E+05-3.33176E+03-7.01279E+03-1.96485E-09 2.64072E-09
 -1       339-3.76054E+03-3.74105E+05-8.01711E+03-2.59774E+04-3.28083E-09 6.69270E-09
 -1       340 2.71860E+03-3.69634E+05-1.25464E+04-7.02194E+03-1.80762E-09 4.51979E-09
 -1       341-3.49678E+05-6.01988E+04-8.84801E+03-1.38128E+05 2.57296E-08 3.40674E-09
 -1       342-2.90005E+05-1.53669E+04 1.09117E+04-8.17638E+04 1.37481E-08-3.06699E-10
 -1       343-3.07921E+05-5.79068E+04-1.02223E+03-1.35535E+05-1.99059E-08-1.15079E-08
 -1       344-3.31539E+05-1.74568E+04 2.13307E+03-8.46389E+04 3.17978E-08 6.40593E-09
 -1       345-3.08807E+05-5.76011E+04-1.26849E+03-1.35794E+05 5.21339E-08-1.31519E-09
 -1       346-2.89174E+05-1.86879E+04 1.00407E+04-8.09559E+04-9.74222E-09-6.24667E-09
 -1       347-3.49586E+05-5.72148E+04-9.03889E+03-1.38645E+05 8.49013E-09-1.17603E-09
 -1       348-2.37301E+05-3.09385E+04 1.75773E+04-9.05634E+04 1.22595E-08-1.31581E-09
 -1       349-3.59985E+05-4.58887E+04-9.20439E+03-1.25668E+05-4.56225E-09-4.82771E-09
 -1       350-2.53616E+05-5.64612E+04 8.72239E+03-1.23860E+05 1.48598E-08-9.76972E-09
 -1       351-3.33972E+05-3.11536E+04-2.95142E+03-1.05907E+05-9.37246E-09-1.29063E-08
 -1       352-2.81071E+05-7.21008E+04-2.81409E+03-1.43755E+05-5.40545E-08-3.35244E-08
 -1       353-3.33238E+05-2.96997E+04-9.09841E+03-1.06293E+05 1.91722E-08 5.97083E-10
 -1       354-2.60965E+05-6.92887E+04-1.23368E+04-1.21055E+05-1.98516E-08-4.42515E-09
 -1       355-3.53361E+05-3.45324E+04-4.28915E+04-1.28078E+05-6.08725E-09-5.45697E-12
 -1       356-2.58384E+05 2.09891E+03-4.92505E+03 4.35009E+03 1.26035E-09 2.45382E-09
 -1       357-2.60066E+05-2.39605E+03-3.38837E+03-7.66185E+03 1.58613E-08-3.27691E-09
 -1       358-2.59714E+05 3.24738E+02-1.38322E+03 3.87495E+03 5.26745E-09 1.90204E-09
 -1       359-2.57079E+05-3.08531E+02-3.27988E+02-5.30869E+03-3.31676E-09-2.64222E-09
 -1       360-2.61318E+05-2.80137E+01-7.62125E+02 1.99644E+03-8.05542E-09 3.02285E-09
 -1       361-2.55029E+05 5.87640E+01 5.97257E+02-8.51957E+02-9.02493E-09-1.92382E-09
 -1       362-2.61716E+05-8.02730E+01-7.16465E+02-5.81772E+02-1.73600E-09 4.58101E-10
 -1       363-2.55912E+05 9.46672E+00 2.96646E+02 4.00580E+03-4.22540E-09 8.86537E-10
 -1       364-2.60457E+05 3.88989E+01-8.81403E+02-2.86098E+03-1.07522E-08-1.08349E-09
 -1       365-2.58549E+05-4.66138E+02-1.27467E+03 7.39358E+03 1.50164E-08 2.69813E-09
 -1       366-2.59142E+05 4.43893E+02-2.52460E+03-3.96980E+03-1.17766E-08-1.10583E-09
 -1       367-2.60399E+05-3.00502E+03-6.15102E+03 8.02872E+03-1.29970E-08 3.87899E-09
 -1       368-2.58624E+05 2.58843E+03-1.00329E+04-3.49625E+03-3.12994E-09-2.77487E-09
 -1       369-2.65761E+05-1.89855E+04-2.66056E+04 5.64428E+03-1.11623E-08 1.10913E-09
 -1       370-2.53728E+05 1.63708E+04-3.87980E+04-1.58498E+03 3.70108E-10-3.98359E-10
 -1       371-6.53478E+03-6.90775E+04 1.05399E+04 5.00107E+03-3.56704E-09 4.92832E-10
 -1       372 6.54754E+03-4.40638E+04 9.98159E+03-2.20443E+04 2.59547E-09 2.12736E-11
 -1       373-8.69247E+01-5.78378E+04 1.04257E+03 5.73934E+03 2.92175E-09 2.63100E-10
 -1       374-3.24396E+03-5.61289E+04-3.54129E+03-2.26902E+04 5.59100E-09 3.18415E-10
 -1       375 3.38899E+03-5.72054E+04-8.22742E+03 5.64664E+03 2.44245E-09 3.03766E-09
 -1       376-2.69223E+05-2.97886E+04-9.03593E+03-9.47031E+04-1.91562E-10 6.96673E-10
 -1       377-2.48808E+05-5.06431E+04-4.50413E+03-1.08662E+05 7.33512E-09-5.06162E-09
 -1       378-2.67366E+05-2.98009E+04-1.78653E+03-9.10242E+04-3.48450E-10 6.40648E-09
 -1       379-2.46965E+05-4.76293E+04-2.46338E+02-1.08841E+05 2.08009E-08 2.30837E-09
 -1       380-2.71055E+05-3.28076E+04-1.51951E+03-9.45180E+04 1.93994E-08-4.93024E-10
 -1       381-2.40894E+05-3.95996E+04 3.20570E+03-9.86278E+04 1.19676E-08 4.91757E-09
 -1       382-2.73206E+05-3.80030E+04-2.64173E+03-1.01064E+05 3.64957E-09 4.32141E-09
 -1       383-2.46360E+05-3.08893E+04 3.84287E+03-8.82821E+04-4.55233E-09-4.52376E-09
 -1       384-2.65539E+05-4.15554E+04-2.11781E+03-1.04820E+05 4.28788E-08-8.84540E-10
 -1       385-2.63909E+05-2.64330E+04 6.16983E+02-8.42184E+04 4.33303E-08-2.09496E-10
 -1       386-2.55871E+05-4.23000E+04-1.90268E+03-1.05292E+05-2.56713E-08-2.48633E-09
 -1       387-2.72770E+05-2.75446E+04-4.50444E+03-8.34725E+04 2.39705E-08-3.50087E-09
 -1       388-2.56789E+05-4.03628E+04-8.34679E+03-1.05653E+05 2.42630E-08-1.70794E-08
 -1       389-2.67637E+05-4.28913E+04-2.06641E+04-8.19162E+04-2.15632E-08-6.41421E-09
 -1       390-2.60825E+05-2.70970E+04-3.60064E+04-1.06703E+05-1.01045E-08 7.49424E-10
 -1       406 4.41625E+02 1.80574E+05 9.50741E+02-1.49586E+04-1.20326E-09-8.57654E-10
 -1       407 2.87171E+02 1.80746E+05 1.15121E+03-1.64040E+04-1.45155E-09-6.91216E-11
 -1       408 4.68566E+02 1.80544E+05 1.89377E+03-1.48944E+04-1.55569E-09 2.89901E-09
 -1       409 1.87760E+03 1.81277E+05 4.06296E+03-1.64994E+04-1.76897E-09 1.61333E-09
 -1       410 5.41243E+03 1.80030E+05 8.19228E+03-1.48609E+04-1.63891E-09 2.05773E-10
 -1       466 5.92614E+05-2.41003E+04 5.49873E+04 5.34175E+03-6.84395E-11 4.52565E-09
 -1       467 6.20608E+05 2.78138E+04 3.96210E+04-8.61174E+03 6.97469E-11 1.77306E-09
 -1       468 6.03530E+05-3.71693E+03 1.43179E+04 1.53771E+03-3.40634E-11 1.34060E-09
 -1       469 6.07939E+05 4.29376E+03 9.08796E+03-3.46494E+03-7.71372E-10 3.52316E-10
 -1       470 6.05252E+05-5.75696E+02 3.75012E+03 1.94896E+02 1.17940E-09-6.71207E-10
 -1       471 6.05950E+05 6.89426E+02 2.34040E+03-1.65410E+03-5.33458E-11-1.38903E-09
 -1       472 6.05517E+05-1.12155E+02 1.33336E+03-2.73162E+02 7.00085E-10-3.94579E-10
 -1       473 6.05718E+05 2.88708E+02 1.41505E+03-1.06116E+03 7.53240E-10-1.13560E-09
 -1       474 6.05484E+05-1.74844E+02 1.87651E+03-3.98051E+02-9.46953E-10-8.45148E-10
 -1       475 6.06204E+05 1.22407E+03 3.91003E+03-1.01361E+03-3.69520E-10-1.83672E-09
 -1       476 6.05029E+05-1.04688E+03 6.58050E+03-3.20713E+02 6.48061E-10-1.96815E-09
 -1       477 6.09401E+05 7.75483E+03 1.61132E+04-1.45842E+03 2.02250E-10-3.46836E-09
 -1       478 6.02282E+05-6.70079E+03 2.56219E+04 4.67704E+01 8.35563E-10-8.27640E-10
 -1       479 6.28819E+05 4.95178E+04 7.00451E+04-2.93063E+03 2.01818E-09-1.14505E-09
 -1       480 5.85606E+05-4.27743E+04 9.89457E+04 1.15147E+03 2.94087E-09-4.36557E-11
 -1       481-4.72337E+03 9.22817E+04 1.00333E+04-3.02932E+03-6.63931E-11 6.53699E-11
 -1       482 5.50376E+03 1.01402E+05 8.17103E+03 1.03636E+04-1.04706E-10 2.01230E-09
 -1       483-8.09533E+02 9.59341E+04 3.22094E+03-2.40542E+03-4.54747E-12 1.03191E-09
 -1       484 1.94045E+03 9.78876E+04 3.33795E+03 9.75968E+03 1.77387E-11-1.85736E-10
 -1       485-1.13094E+03 9.57501E+04 2.83104E+03-2.42529E+03-3.41061E-12-2.14669E-10
 -1       486-5.51708E+05-7.11317E+04-5.45861E+04-2.33046E+05-1.43700E-10 2.48838E-09
 -1       487-5.94809E+05-7.51577E+04-3.30862E+04-1.70868E+05 2.96791E-09 7.27186E-09
 -1       488-5.57719E+05-8.88812E+04-1.34553E+04-2.29680E+05 1.14824E-09-2.03818E-09
 -1       489-5.47921E+05-6.12385E+04 7.50895E+02-1.79904E+05 1.24162E-09-2.59172E-09
 -1       490-5.98067E+05-8.55146E+04-1.01555E+04-2.23572E+05-9.63269E-10 2.55341E-10
 -1       491-5.15288E+05-8.29686E+04 7.77530E+03-2.08906E+05-2.78169E-09 5.45069E-09
 -1       492-5.90236E+05-6.72528E+04-3.01662E+03-2.00597E+05-3.76281E-09 1.22395E-08
 -1       493-5.28212E+05-1.03569E+05 2.10627E+03-2.36127E+05 3.85796E-09 2.14492E-08
 -1       494-5.85772E+05-6.43355E+04-1.59082E+03-1.96863E+05-3.25372E-09 6.48419E-09
 -1       495-5.17165E+05-8.90537E+04 6.30596E+03-2.16667E+05-5.21879E-10 5.16798E-09
 -1       496-6.00795E+05-8.22170E+04-9.86158E+03-2.19664E+05-2.09411E-10 4.74915E-09
 -1       497-5.37096E+05-6.46397E+04 2.60152E+03-1.83606E+05 7.45274E-10-7.33962E-10
 -1       498-5.65681E+05-8.89001E+04-1.41254E+04-2.29777E+05 5.52564E-09-3.23325E-09
 -1       499-5.93055E+05-7.37600E+04-3.06891E+04-1.71173E+05 1.57286E-09-8.68204E-09
 -1       500-5.45484E+05-7.25238E+04-4.99726E+04-2.32632E+05-7.62975E-09 1.01554E-08
 -1       501-2.38959E+05-1.06959E+04 2.47292E+04-2.22400E+02 1.02646E-09 6.67569E-10
 -1       502-2.28099E+05 1.23831E+04 1.75130E+04 5.12249E+01 4.98522E-10 8.76753E-10
 -1       503-2.34830E+05-1.67792E+03 6.39168E+03 6.57441E+01-3.46098E-10 1.68711E-10
 -1       504-2.32933E+05 1.94085E+03 4.02918E+03-4.95403E+02-1.00028E-10-7.90806E-10
 -1       505-2.34129E+05-2.62039E+02 1.62568E+03 3.24240E+02 2.24375E-10-4.29509E-10
 -1       506-2.33768E+05 3.02440E+02 9.49605E+02-8.88213E+02 9.92514E-10-5.44532E-10
 -1       507-2.33996E+05-3.99857E+01 4.11350E+02 4.58561E+02 4.06335E-10-1.91534E-10
 -1       508-2.33916E+05 4.66231E+01 2.28691E+02-9.85486E+02 1.53874E-10-2.34284E-09
 -1       509-2.33982E+05-6.13401E+00 1.04005E+02 4.21515E+02 7.53802E-10-1.79584E-09
 -1       510-2.33911E+05 9.31100E+00 6.64657E+01-7.52887E+02 8.39762E-10-1.04190E-09
 -1       511-2.34001E+05-3.25096E+00 2.86382E+01 2.25957E+02 4.42601E-10-1.63561E-10
 -1       512-2.33877E+05 1.31844E+01 4.77854E+01-2.71150E+02-2.26731E-10 6.04867E-10
 -1       513-2.34014E+05-1.06645E+01 3.20785E+01-6.02307E+01 7.62412E-12-1.55964E-11
 -1       514-2.33856E+05 6.81865E+01 1.07762E+02 2.92593E+02-5.93621E-10 8.00721E-10
 -1       515-2.34022E+05-5.81333E+01 1.25772E+02-3.37795E+02-4.57408E-10 7.06386E-10
 -1       516-2.87453E+04 2.18666E+05 6.71218E+04-3.54406E+03-2.25555E-10 1.02938E-09
 -1       517 3.48464E+04 2.49631E+05 5.06391E+04 1.47105E+04-6.39375E-10-2.44992E-09
 -1       518-6.06805E+03 2.28849E+05 2.33059E+04-3.60921E+03 2.90584E-10-3.79657E-10
 -1       519 1.83722E+04 2.47605E+05 2.97406E+04 1.73104E+04-2.30466E-09-2.99339E-09
 -1       520-1.23750E+04 2.20825E+05 2.78197E+04-6.14455E+03-7.00311E-10-6.50505E-09
 -1       521-1.37683E+06-1.77823E+05-9.40064E+04-5.31241E+05 9.34961E-10 2.14641E-09
 -1       522-1.40438E+06-2.41883E+05-5.89331E+04-5.37514E+05 1.25965E-10-1.86265E-09
 -1       523-1.39304E+06-1.98033E+05-2.21689E+04-5.28959E+05-6.63093E-10-2.42835E-10
 -1       524-1.38562E+06-2.15156E+05-1.21044E+04-5.41830E+05 4.37467E-10 7.59201E-10
 -1       525-1.39498E+06-2.00015E+05-5.15578E+03-5.28643E+05-8.26503E-11 3.84262E-11
 -1       526-1.38338E+06-2.12604E+05-2.72605E+03-5.42389E+05-4.39513E-10-7.16511E-11
 -1       527-1.39526E+06-2.00175E+05-1.41218E+03-5.28567E+05-3.20824E-10-5.58202E-10
 -1       528-1.38312E+06-2.12395E+05-1.12533E+03-5.42460E+05-4.81876E-10 1.12817E-09
 -1       529-1.39524E+06-2.00195E+05-1.37298E+03-5.28586E+05-1.77954E-09-2.42312E-09
 -1       530-1.38343E+06-2.12526E+05-2.61675E+03-5.42307E+05-2.54840E-09-4.47199E-09
 -1       531-1.39493E+06-2.00081E+05-4.93436E+03-5.28698E+05-3.91537E-10 3.97904E-10
 -1       532-1.38564E+06-2.14892E+05-1.15719E+04-5.41681E+05-1.78602E-10-6.36646E-11
 -1       533-1.39304E+06-1.98228E+05-2.11921E+04-5.29043E+05-3.43789E-10-6.28461E-10
 -1       534-1.40365E+06-2.40351E+05-5.63275E+04-5.37450E+05 4.05691E-10-1.12777E-10
 -1       535-1.37750E+06-1.78963E+05-8.98541E+04-5.31277E+05-3.97449E-10 9.78616E-10
 -1       536 6.21454E+03-4.89485E+03 2.25469E+04-4.03580E+03 4.32919E-10 5.54792E-10
 -1       537 1.42966E+04 6.80595E+03 1.43472E+04-1.41979E+04-1.16597E-09 1.08230E-10
 -1       538 9.57803E+03-5.02702E+02 5.83049E+03-3.98272E+03-2.13277E-10 7.46695E-10
 -1       539 1.05199E+04 6.35469E+02 3.23465E+03-1.42532E+04 9.21318E-10 5.71163E-10
 -1       540 9.94341E+03-5.94013E+01 1.46639E+03-3.97916E+03-1.55978E-10 4.94538E-11
 -1       541 1.00765E+04 5.72489E+01 7.67181E+02-1.42557E+04 2.48974E-11-1.60048E-09
 -1       542 9.98694E+03-8.15428E+00 3.55874E+02-3.98028E+03-1.15278E-10-4.51621E-10
 -1       543 1.00051E+04 7.66225E+00 1.66802E+02-1.42540E+04-2.53294E-10 1.68259E-09
 -1       544 9.99306E+03 8.66303E-01 4.80346E+01-3.98088E+03 1.89004E-10-9.32062E-10
 -1       545 9.98340E+03-1.32925E+00-4.45293E+01-1.42533E+04-5.21467E-10-1.64354E-09
 -1       546 9.99979E+03 7.49191E+00-1.51394E+02-3.98100E+03 3.67493E-10-7.84269E-10
 -1       547 9.93470E+03-7.24513E+01-3.71198E+02-1.42517E+04-5.74971E-10 7.61247E-10
 -1       548 1.00457E+04 5.69871E+01-6.86315E+02-3.98250E+03-3.46245E-09 5.63944E-10
 -1       549 9.50304E+03-8.08655E+02-1.69539E+03-1.42215E+04-5.66251E-09-2.58467E-10
 -1       550 1.04482E+04 5.70492E+02-2.67289E+03-4.01116E+03-2.33308E-09-1.50067E-11
 -1       551 5.36742E+03-1.34563E+05 1.24033E+04-2.02342E+05 3.15595E-10-1.92631E-09
 -1       552 2.46754E+03-1.32351E+05 1.01620E+04-2.37684E+05-5.71163E-10 3.63798E-10
 -1       553 1.56682E+03-1.34244E+05 1.23186E+04-2.02002E+05 4.36557E-11-4.74051E-09
 -1       554 7.43036E+03-1.29427E+05 2.35550E+04-2.37737E+05 3.81988E-11-8.00151E-09
 -1       555 2.13631E+04-1.37611E+05 4.48410E+04-2.02268E+05-1.63709E-11-5.83350E-09
 -1       556-9.17828E+04-4.98957E+04 8.82536E+03-8.93646E+04 1.77533E-09 7.83984E-09
 -1       557-8.38462E+04-5.85059E+04 4.34540E+03-9.54712E+04 4.90218E-10-1.96678E-11
 -1       558-9.18758E+04-5.27957E+04 1.83096E+03-8.76277E+04-5.03860E-10-7.99446E-10
 -1       559-8.46134E+04-5.99497E+04 8.97282E+02-9.57286E+04 9.55879E-10-1.24794E-09
 -1       560-9.19314E+04-5.28404E+04 4.00490E+02-8.75845E+04 9.84073E-10-1.41824E-09
 -1       561-8.47393E+04-5.99894E+04 1.88443E+02-9.58194E+04 3.79077E-09 7.02974E-09
 -1       562-9.19801E+04-5.28005E+04 6.71269E+01-8.76182E+04 8.95852E-10 6.20275E-10
 -1       563-8.47955E+04-5.99657E+04-5.08741E+00-9.58604E+04 1.46883E-10 4.19732E-10
 -1       564-9.20070E+04-5.27757E+04-8.52391E+01-8.76398E+04-4.27463E-11-3.03771E-10
 -1       565-8.48309E+04-5.99532E+04-2.17819E+02-9.58807E+04 2.81489E-10-1.07775E-10
 -1       566-9.20025E+04-5.27628E+04-4.65300E+02-8.76451E+04-3.44460E-09 1.48111E-09
 -1       567-8.49178E+04-5.99984E+04-1.02896E+03-9.58744E+04-6.45446E-09 4.58340E-09
 -1       568-9.19283E+04-5.29123E+04-2.11366E+03-8.75704E+04-3.30056E-09 7.83075E-10
 -1       569-8.60860E+04-6.12617E+04-4.98551E+03-9.55531E+04-1.30967E-10-3.94721E-10
 -1       570-9.14744E+04-5.67188E+04-1.01525E+04-8.59661E+04-3.14685E-10-1.71781E-10
 -1       571 1.16404E+05 5.51197E+03 8.34894E+03-2.98625E+04-3.68345E-11-7.95808E-12
 -1       572 1.17672E+05 1.89317E+03 4.09713E+03-3.28613E+04-2.32831E-10-1.17552E-09
 -1       573 1.16921E+05 4.33360E+02 1.82195E+03-2.97838E+04-2.15095E-10 3.57886E-10
 -1       574 1.17073E+05 1.36222E+02 9.14046E+02-3.29489E+04 1.14596E-10 1.11640E-10
 -1       575 1.16981E+05 1.33349E+01 4.32007E+02-2.97736E+04 1.51317E-10 3.55840E-10
 -1       576 1.16995E+05 3.29390E-01 2.20634E+02-3.29604E+04 2.25555E-10 1.19780E-09
 -1       577 1.16990E+05-6.92055E+00 1.10180E+02-2.97722E+04 1.58252E-10 6.65750E-10
 -1       578 1.16986E+05-5.01167E+00 6.27602E+01-3.29618E+04-9.64064E-11-5.37511E-10
 -1       579 1.16996E+05-6.52165E+00 4.35824E+01-2.97722E+04-1.45519E-11-6.77574E-11
 -1       580 1.16994E+05-6.37577E+00 4.90205E+01-3.29600E+04 1.80989E-10 5.30690E-10
 -1       581 1.17004E+05-6.95192E+00 7.62813E+01-2.97741E+04-3.03771E-10-7.77163E-10
 -1       582 1.17018E+05 9.78700E+00 1.51492E+02-3.29418E+04-3.02407E-10-1.28148E-09
 -1       583 1.17007E+05 5.39977E+01 2.96053E+02-2.97904E+04-8.82210E-11-1.97565E-09
 -1       584 1.17131E+05 2.86543E+02 6.63845E+02-3.28035E+04-6.96673E-10-4.32692E-10
 -1       585 1.16938E+05 8.69445E+02 1.35003E+03-2.99127E+04 1.72804E-10 5.18412E-11
 -1       586 8.81330E+02 5.06883E+04 1.63858E+03-7.21221E+04 1.89175E-10-1.91721E-09
 -1       587 4.90508E+02 5.09746E+04 1.63016E+03-7.95676E+04 6.54836E-10 6.18456E-10
 -1       588 6.20630E+02 5.06707E+04 2.38977E+03-7.20291E+04 1.92813E-10-9.04197E-09
 -1       589 2.30416E+03 5.15787E+04 4.94970E+03-7.95952E+04 7.76708E-10-2.11637E-08
 -1       590 6.54936E+03 5.00668E+04 9.89453E+03-7.20932E+04 2.45109E-10-1.10808E-08
 -1       591-5.35420E+04-1.82283E+04-1.04984E+04-2.73301E+04 6.90761E-10 2.13731E-10
 -1       592-5.39370E+04-1.69540E+04-5.15777E+03-3.03786E+04-8.07177E-11-9.70999E-10
 -1       593-5.38650E+04-1.44111E+04-2.18878E+03-2.90855E+04 3.11456E-09 5.41149E-09
 -1       594-5.28122E+04-1.55471E+04-1.07113E+03-3.05586E+04 4.22000E-09 6.93740E-09
 -1       595-5.39157E+04-1.42741E+04-4.93298E+02-2.91629E+04 5.98561E-10 4.83681E-10
 -1       596-5.27279E+04-1.54922E+04-2.50209E+02-3.05508E+04 5.29553E-10-5.81622E-10
 -1       597-5.39253E+04-1.42817E+04-1.36227E+02-2.91633E+04 4.95476E-10 5.01814E-10
 -1       598-5.27195E+04-1.54929E+04-1.09010E+02-3.05471E+04 3.24889E-10 4.52928E-10
 -1       599-5.39247E+04-1.42818E+04-1.38347E+02-2.91631E+04 4.39513E-10 1.03057E-09
 -1       600-5.27276E+04-1.54927E+04-2.55922E+02-3.05501E+04-2.36241E-10 1.47679E-10
 -1       601-5.39134E+04-1.42744E+04-5.05125E+02-2.91620E+04 2.74940E-09 7.03881E-09
 -1       602-5.28143E+04-1.55482E+04-1.09760E+03-3.05562E+04-5.14774E-10-8.98717E-09
 -1       603-5.38599E+04-1.44167E+04-2.24284E+03-2.90835E+04 2.93539E-10-7.00766E-10
 -1       604-5.39772E+04-1.69784E+04-5.28502E+03-3.03576E+04 4.97039E-10 7.30324E-09
 -1       605-5.35165E+04-1.83375E+04-1.07570E+04-2.72958E+04-1.31718E-09-4.77485E-10
 -1       606 3.90721E+04-4.65909E+03-7.05083E+03 1.14257E+04-2.20689E-09-2.93539E-10
 -1       607 3.79847E+04-1.59995E+03-3.45941E+03 1.24552E+04-4.20187E-10-5.60874E-10
 -1       608 3.86238E+04-3.65650E+02-1.53827E+03 1.13501E+04 1.43928E-09-1.31649E-10
 -1       609 3.84789E+04-1.10692E+02-7.70708E+02 1.25394E+04-1.03341E-09 1.17581E-09
 -1       610 3.85649E+04-6.21892E+00-3.63206E+02 1.13402E+04-3.14776E-09 6.57110E-11
 -1       611 3.85376E+04 7.56539E+00-1.82856E+02 1.25502E+04-4.55748E-09-1.42109E-10
 -1       612 3.85534E+04 1.27482E+01-8.67329E+01 1.13391E+04-2.01726E-09-2.03647E-09
 -1       613 3.85440E+04 1.24466E+01-4.00109E+01 1.25517E+04-2.40834E-09-9.27912E-10
 -1       614 3.85491E+04 1.09902E+01-1.17282E+01 1.13388E+04-7.79892E-11-7.22707E-10
 -1       615 3.85443E+04 1.24632E+01 1.05259E+01 1.25519E+04 2.40766E-09-1.46031E-09
 -1       616 3.85458E+04 1.27211E+01 3.75269E+01 1.13389E+04-1.29876E-09-1.04592E-09
 -1       617 3.85503E+04 2.65173E+01 8.86156E+01 1.25515E+04-3.92447E-10-2.39459E-09
 -1       618 3.85380E+04 5.53949E+01 1.80997E+02 1.13391E+04-2.83421E-10-1.77090E-09
 -1       619 3.86085E+04 2.03195E+02 4.09517E+02 1.25498E+04 1.30171E-11-1.23703E-09
 -1       620 3.84847E+04 5.64532E+02 8.35668E+02 1.13402E+04 1.30964E-09-4.53610E-10
 -1       621 7.74553E+02 1.20069E+05 1.98598E+03-1.04922E+04-9.10404E-10-3.52088E-10
 -1       622 2.99989E+02 1.20448E+05 1.71367E+03-1.23817E+04-9.35756E-10 1.22736E-09
 -1       623 1.86388E+02 1.20144E+05 2.19175E+03-1.05041E+04-8.05812E-10 8.52879E-10
 -1       624 1.24670E+03 1.21021E+05 4.28461E+03-1.23259E+04-7.55790E-10 3.35262E-10
 -1       625 3.83399E+03 1.19502E+05 8.21084E+03-1.05474E+04-7.10656E-10-8.99036E-10
 -1       626 5.65868E+04 1.86029E+04-2.79380E+03 3.81182E+04-2.00180E-09-7.27596E-12
 -1       627 5.51291E+04 2.07525E+04-1.32413E+03 3.88983E+04 3.93811E-10-1.42632E-09
 -1       628 5.66608E+04 1.99823E+04-5.55895E+02 3.74364E+04-5.05361E-09 6.15159E-09
 -1       629 5.53308E+04 2.13335E+04-2.66550E+02 3.88570E+04-1.79400E-08 6.41872E-09
 -1       630 5.66582E+04 2.00782E+04-1.17090E+02 3.73807E+04-1.71140E-08-1.53435E-08
 -1       631 5.53459E+04 2.13767E+04-5.17321E+01 3.88587E+04-4.00382E-09 1.51402E-10
 -1       632 5.66536E+04 2.00810E+04-1.27467E+01 3.73762E+04-4.43265E-09 3.19858E-10
 -1       633 5.53473E+04 2.13786E+04 1.71407E+01 3.88599E+04 5.60476E-10-1.08480E-09
 -1       634 5.66497E+04 2.00779E+04 5.59344E+01 3.73757E+04 1.92449E-09 5.64330E-09
 -1       635 5.53543E+04 2.13802E+04 1.31603E+02 3.88616E+04 9.73500E-10-4.51678E-10
 -1       636 5.66439E+04 2.00846E+04 2.75296E+02 3.73711E+04-4.66514E-10 5.15229E-10
 -1       637 5.54205E+04 2.14575E+04 6.16404E+02 3.88490E+04 6.53472E-10 9.88962E-10
 -1       638 5.66293E+04 2.03174E+04 1.27873E+03 3.72698E+04 3.91492E-09 7.76913E-09
 -1       639 5.60700E+04 2.26123E+04 3.04454E+03 3.85623E+04-5.42059E-10 5.25233E-10
 -1       640 5.66640E+04 2.36452E+04 6.42438E+03 3.58898E+04-3.31841E-09-6.16797E-09
 -1       641 3.91615E+02 1.18097E+03-2.73201E+03-2.99141E+01-1.76391E-09 1.27409E-09
 -1       642-7.90293E+02-1.36704E+03-1.93114E+03 1.21574E+02-1.09090E-09 4.14389E-10
 -1       643-6.44013E+01 1.85041E+02-7.04369E+02-2.97257E+01-3.12365E-09 1.06013E-11
 -1       644-2.59178E+02-2.13576E+02-4.37841E+02 1.21377E+02-6.88542E-10 2.14126E-09
 -1       645-1.39555E+02 2.84568E+01-1.68818E+02-2.97170E+01-8.52800E-10 1.04581E-09
 -1       646-1.70014E+02-3.01175E+01-8.03972E+01 1.21367E+02-1.17577E-08-8.81727E-10
 -1       647-1.53588E+02 1.73134E+00-3.05258E-01-2.97161E+01-2.77507E-06 3.84492E-09
 -1       648-1.45014E+02 1.54580E+01 7.42014E+01 1.21361E+02-5.53376E-06 6.85219E-09
 -1       649-1.64562E+02-1.70882E+01 1.68507E+02-2.97114E+01-2.77383E-06 2.85645E-09
 -1       650-8.29582E+01 1.31696E+02 4.08144E+02 1.21308E+02-5.39842E-09 1.94039E-09
 -1       651-2.15636E+02-1.14439E+02 7.10447E+02-2.96626E+01 1.03102E-09 1.95797E-09
 -1       652 2.67564E+02 8.48877E+02 1.75785E+03 1.21066E+02 3.40529E-10 1.37084E-09
 -1       653-5.15057E+02-7.33749E+02 2.80062E+03-2.94705E+01 4.05311E-10 1.54023E-09
 -1       654 2.37811E+03 5.41885E+03 7.66017E+03 1.20001E+02-2.69074E-09 1.27034E-09
 -1       655-2.32601E+03-4.68075E+03 1.08267E+04-2.85986E+01 1.72202E-09 4.99767E-10
 -1       656 3.50230E+03-1.41945E+05-1.68250E+04 4.53695E+03-4.09273E-10-3.32329E-09
 -1       657-5.31008E+03-1.47995E+05-1.21840E+04 1.59792E+04-1.12516E-09-2.03215E-09
 -1       658 6.56496E+02-1.44114E+05-7.80595E+03 4.50948E+03-6.33946E-11-1.99896E-09
 -1       659-4.86609E+03-1.47732E+05-1.13796E+04 1.59950E+04-5.99357E-10-5.99159E-10
 -1       660 3.16058E+03-1.42215E+05-1.52918E+04 4.52132E+03-5.72982E-11 4.41503E-10
 -1       661 1.37428E+05 1.77248E+04 1.12241E+04 5.36954E+04 9.12337E-10-4.77485E-10
 -1       662 1.39978E+05 2.61162E+04 7.03683E+03 5.53036E+04 2.13717E-09 3.34353E-10
 -1       663 1.39336E+05 2.01637E+04 2.64923E+03 5.34550E+04-5.89552E-10-1.10811E-09
 -1       664 1.37781E+05 2.28840E+04 1.44898E+03 5.57607E+04-9.37774E-10 7.31575E-11
 -1       665 1.39547E+05 2.04209E+04 6.20877E+02 5.34389E+04-3.72151E-09-3.30971E-09
 -1       666 1.37538E+05 2.25534E+04 3.35964E+02 5.57927E+04-8.53305E-10-6.48370E-11
 -1       667 1.39571E+05 2.04492E+04 1.88847E+02 5.34394E+04-4.42404E-09 1.53119E-09
 -1       668 1.37516E+05 2.25242E+04 1.77860E+02 5.57932E+04-2.37733E-09 1.59332E-09
 -1       669 1.39569E+05 2.04472E+04 2.50966E+02 5.34392E+04 1.47125E-09-3.06358E-10
 -1       670 1.37559E+05 2.25750E+04 5.07332E+02 5.57926E+04 2.99680E-09-1.21236E-09
 -1       671 1.39530E+05 2.04026E+04 9.69366E+02 5.34387E+04 4.80355E-10 1.16927E-09
 -1       672 1.37945E+05 2.30965E+04 2.28219E+03 5.57408E+04-9.77778E-10-1.09867E-09
 -1       673 1.39195E+05 1.99972E+04 4.17925E+03 5.34647E+04 1.06779E-09-1.94564E-09
 -1       674 1.41412E+05 2.82006E+04 1.11068E+04 5.50209E+04 1.67240E-09 1.23487E-09
 -1       675 1.36184E+05 1.61454E+04 1.77169E+04 5.38414E+04-1.34628E-09 2.31921E-10
 -1       676 2.51178E+02-1.34248E+05-1.49260E+03 2.43688E+01-1.33701E-09 1.30124E-09
 -1       677-5.65957E+02-1.34815E+05-1.81136E+03-8.72816E+01-4.27360E-09-2.50670E-09
 -1       678 2.02388E+02-1.34271E+05-2.39434E+03 2.42652E+01-1.07207E-09 1.39205E-09
 -1       679-2.54787E+03-1.36017E+05-5.41648E+03-8.71164E+01-4.24552E-09-4.68319E-10
 -1       680 1.79563E+03-1.33046E+05-8.35833E+03 2.39863E+01-3.48882E-09-2.52371E-10
 -1       681 2.86351E+05-8.48414E+03 1.94495E+04 1.19290E+03 1.20409E-10 5.34783E-10
 -1       682 2.95684E+05 9.81000E+03 1.39231E+04-3.70178E+03-5.10170E-12-2.58296E-10
 -1       683 2.89934E+05-1.32033E+03 5.04711E+03 2.91101E+02 3.46851E-10 9.17225E-10
 -1       684 2.91483E+05 1.52904E+03 3.20592E+03-2.41722E+03 3.90258E-10-9.85551E-10
 -1       685 2.90545E+05-2.03926E+02 1.31835E+03-9.16680E+01 4.35236E-10 1.09117E-09
 -1       686 2.90776E+05 2.44814E+02 8.15813E+02-1.97196E+03 1.18747E-09-8.91589E-10
 -1       687 2.90640E+05-3.57599E+01 4.54440E+02-1.54159E+02 2.85601E-10 1.15236E-09
 -1       688 2.90724E+05 8.62929E+01 4.66236E+02-2.13606E+03-2.52001E-10-1.75120E-10
 -1       689 2.90598E+05-4.59544E+01 5.91645E+02 7.24299E+01 2.39549E-10 8.73882E-10
 -1       690 2.91064E+05 3.49306E+02 1.26339E+03-2.99049E+03 7.73326E-10-4.97565E-10
 -1       691 2.90304E+05-3.01775E+02 2.03132E+03 7.00277E+02 4.82572E-10-4.30759E-10
 -1       692 2.92874E+05 2.35724E+03 5.23153E+03-4.95970E+03-2.76174E-10 5.82816E-10
 -1       693 2.88807E+05-2.06531E+03 7.87419E+03 2.04170E+03-1.57900E-09-1.90721E-09
 -1       694 3.02359E+05 1.57485E+04 2.28586E+04-9.07267E+03-4.77773E-09 1.89630E-09
 -1       695 2.80896E+05-1.37331E+04 3.02753E+04 4.81374E+03-3.48729E-09-4.74029E-09
 -1       696-5.15719E+03 2.03245E+05 1.17949E+04-3.87859E+02 2.72848E-11-5.80698E-10
 -1       697 5.68395E+03 2.08292E+05 7.82561E+03 5.33663E+02 7.76481E-11-6.40087E-10
 -1       698-5.22528E+02 2.05390E+05 1.97232E+03-2.69166E+02-7.52607E-11 7.88729E-10
 -1       699-1.21775E+03 2.05089E+05-1.16967E+03 3.76529E+02-1.10560E-10 1.76738E-09
 -1       700 1.73920E+03 2.06449E+05-3.67539E+03-2.30728E+02-9.54969E-11 4.77725E-10
 -1       701-2.64237E+05-2.70980E+04-3.24305E+04-1.07080E+05-1.45519E-10 6.20275E-10
 -1       702-2.81264E+05-4.75432E+04-2.11442E+04-9.12046E+04-6.57678E-10-6.33167E-09
 -1       703-2.66082E+05-3.95387E+04-7.51151E+03-1.06102E+05 3.50622E-09 8.89167E-09
 -1       704-2.78360E+05-3.33032E+04-4.49502E+03-9.25494E+04 1.88308E-09 1.21419E-08
 -1       705-2.67193E+05-4.12887E+04-1.82940E+03-1.05780E+05-2.01513E-09 1.02052E-08
 -1       706-2.72487E+05-3.25767E+04-2.43557E+02-9.40195E+04-9.17019E-10 4.26297E-10
 -1       707-2.71897E+05-4.03065E+04-1.19226E+03-1.04588E+05 3.30846E-09 3.95795E-09
 -1       708-2.64408E+05-3.61984E+04 1.16255E+03-9.80678E+04-1.78261E-10 1.45542E-09
 -1       709-2.75203E+05-3.77184E+04-1.29470E+03-1.01680E+05-1.09077E-09 1.78666E-10
 -1       710-2.61671E+05-4.17463E+04 1.64817E+02-1.04393E+05-1.90505E-09-3.95104E-09
 -1       711-2.74676E+05-3.47276E+04-1.81266E+03-9.82954E+04 1.68370E-09 1.09702E-08
 -1       712-2.63790E+05-4.70894E+04-3.93064E+03-1.08642E+05 7.09406E-11 2.04437E-08
 -1       713-2.73162E+05-3.23174E+04-6.62509E+03-9.74889E+04-4.39547E-09 8.50832E-10
 -1       714-2.69972E+05-5.77188E+04-1.90922E+04-1.05233E+05-3.50303E-09-3.58796E-09
 -1       715-2.68473E+05-2.41241E+04-2.88615E+04-1.01685E+05-2.38379E-09-4.80395E-09
 -1       716-4.46756E+04-8.21956E+02 1.19978E+03 8.62753E+01 7.29545E-09-3.99041E-09
 -1       717-3.93779E+04 9.17863E+02 1.70043E+03-2.02664E+03 3.42756E-09 7.08425E-10
 -1       718-4.39467E+04-1.37371E+02 1.70640E+02 4.31785E+02 3.67032E-09-9.31266E-10
 -1       719-4.06706E+04 1.36147E+02 6.54987E+02-2.65532E+03 6.64031E-10-2.91966E-10
 -1       720-4.34068E+04-2.35698E+01 9.31296E+00 7.14622E+02 4.87120E-10 7.54103E-10
 -1       721-4.16644E+04 2.57023E+01 3.51744E+02-3.13809E+03 3.76420E-09-5.46628E-10
 -1       722-4.29768E+04-9.69444E+00 1.62103E+02 9.14437E+02 1.04490E-09 2.03637E-09
 -1       723-4.23290E+04 8.20768E+01 4.90007E+02-3.44284E+03-1.56376E-10-1.57570E-09
 -1       724-4.27599E+04-6.71144E+01 7.64266E+02 1.01939E+03 3.13035E-09 2.32643E-09
 -1       725-4.23492E+04 5.55717E+02 1.76223E+03-3.55144E+03 2.78339E-09-7.20377E-10
 -1       726-4.29634E+04-4.78084E+02 3.02174E+03 1.02307E+03 3.02095E-09 2.30966E-09
 -1       727-4.06353E+04 3.60156E+03 7.50644E+03-3.45869E+03 5.01639E-09-1.00135E-09
 -1       728-4.44677E+04-3.11489E+03 1.18209E+04 9.26629E+02 1.78363E-09 9.41327E-10
 -1       729-3.10016E+04 2.30328E+04 3.26607E+04-3.19814E+03 8.34149E-10 4.07454E-10
 -1       730-5.25763E+04-1.99052E+04 4.57415E+04 7.62471E+02 1.70814E-09-5.80258E-10
 -1       731-7.06858E+03 1.00313E+05 1.41218E+04-3.76698E+03-3.71710E-09-2.11105E-09
 -1       732 8.44217E+03 1.19609E+05 1.30677E+04 1.15579E+04 9.93509E-10 6.82846E-10
 -1       733-1.45538E+03 1.06750E+05 5.33045E+03-2.46501E+03-6.01972E-10-4.47244E-10
 -1       734 4.59298E+03 1.12465E+05 7.50834E+03 9.71506E+03 5.70708E-10-3.44025E-09
 -1       735-3.13112E+03 1.07325E+05 7.75709E+03-1.92351E+03 9.61336E-10-1.94661E-09
 -1       736-2.66581E+05-4.08468E+04-2.49399E+04-1.13048E+05 1.35719E-08-1.12177E-08
 -1       737-2.54168E+05-2.10806E+04-7.55042E+03-6.45190E+04 4.23961E-08 1.13550E-08
 -1       738-2.43154E+05-4.53381E+04-4.62036E+03-1.08890E+05 9.44874E-09 3.81854E-08
 -1       739-2.68864E+05-1.50938E+04-1.20667E+03-6.77175E+04-3.08364E-08-5.45811E-09
 -1       740-2.52187E+05-4.66064E+04-2.81353E+03-1.10097E+05 5.38080E-10-2.46138E-08
 -1       741-2.28453E+05-1.49726E+04 8.46396E+03-6.41838E+04 2.46524E-09-2.42078E-08
 -1       742-2.82914E+05-4.59386E+04-7.71691E+03-1.11902E+05 3.56636E-09 1.13783E-09
 -1       743-1.88572E+05-2.42082E+04 1.47540E+04-7.13290E+04-4.64570E-09 1.24273E-08
 -1       744-2.91539E+05-3.77658E+04-7.76321E+03-1.02566E+05 7.28789E-09-9.45397E-09
 -1       745-1.99070E+05-4.31532E+04 8.80220E+03-9.64189E+04 2.77556E-08 4.72849E-09
 -1       746-2.72906E+05-2.66320E+04-2.72800E+03-8.72031E+04 1.70642E-08 5.17360E-08
 -1       747-2.25834E+05-5.72628E+04-5.51644E+02-1.16420E+05 2.71277E-09 8.97182E-09
 -1       748-2.65467E+05-2.31385E+04-3.62486E+03-8.30645E+04 1.88624E-08 1.09640E-08
 -1       749-2.16899E+05-5.62823E+04-4.97747E+03-1.07605E+05-1.00561E-08 1.36174E-08
 -1       750-2.81548E+05-2.78364E+04-2.08042E+04-9.58086E+04-9.34858E-09-1.24073E-08
 -1       751 1.16792E+06-6.72378E+04 1.55689E+05 1.79787E+03-1.28445E-08-5.09317E-10
 -1       752 1.23551E+06 7.78474E+04 1.10134E+05-2.22886E+03-9.15023E-10-1.75714E-09
 -1       753 1.19402E+06-1.05387E+04 4.03227E+04 3.75905E+02 7.65906E-10-1.40062E-10
 -1       754 1.20515E+06 1.21968E+04 2.53593E+04-4.99997E+02 1.05420E-09 1.01863E-09
 -1       755 1.19832E+06-1.64879E+03 1.03801E+04 6.91196E+01-6.19562E-11-2.31012E-10
 -1       756 1.20015E+06 1.93235E+03 6.20444E+03-1.25886E+02 7.22857E-10-6.05951E-11
 -1       757 1.19903E+06-2.82381E+02 3.04806E+03 1.79131E+00 3.78806E-07 1.25976E-09
 -1       758 1.19941E+06 5.01195E+02 2.43575E+03-4.60533E+01 7.52268E-07 8.24514E-11
 -1       759 1.19907E+06-2.18602E+02 2.47413E+03-1.07149E+01 1.84705E-07 7.64942E-10
 -1       760 1.19986E+06 1.38390E+03 4.54447E+03-4.17686E+01-3.83112E-07 6.95195E-11
 -1       761 1.19858E+06-1.16447E+03 7.39211E+03-2.49344E+00-1.92928E-07-2.32376E-10
 -1       762 1.20336E+06 8.59504E+03 1.79023E+04-1.01475E+02 3.08375E-09 4.05635E-10
 -1       763 1.19555E+06-7.42406E+03 2.84169E+04 4.89923E+01 4.54526E-09 8.98581E-10
 -1       764 1.22468E+06 5.48232E+04 7.75614E+04-3.92679E+02 2.21548E-09-5.82077E-10
 -1       765 1.17722E+06-4.73511E+04 1.09640E+05 2.88699E+02-1.72449E-11-2.83762E-10
 -1       766-2.56138E+04 8.83900E+04 5.92295E+04 5.47340E+03 3.59432E-09-1.64698E-09
 -1       767 3.06686E+04 1.18218E+05 4.46146E+04-2.37111E+04 1.19444E-08-1.23652E-09
 -1       768-4.95353E+03 9.80634E+04 1.94950E+04 5.40403E+03 5.03360E-09 1.88879E-09
 -1       769 1.46891E+04 1.21709E+05 2.48857E+04-2.52276E+04 1.34841E-09-1.96422E-10
 -1       770-9.83437E+03 8.51654E+04 1.87760E+04 6.99045E+03-3.82806E-09-9.21432E-10
 -1       771-6.57473E+05-1.32370E+05-2.16802E+04-2.85077E+05 3.03498E-09-1.33514E-09
 -1       772-6.55491E+05-1.32437E+05-1.06426E+04-2.94466E+05 1.31331E-08 1.07957E-09
 -1       773-6.58357E+05-1.24305E+05-4.52448E+03-2.88547E+05 5.32054E-09-6.61748E-09
 -1       774-6.53055E+05-1.29702E+05-2.21012E+03-2.95106E+05 1.96360E-09-1.22986E-09
 -1       775-6.58534E+05-1.23969E+05-1.02170E+03-2.88717E+05-2.28465E-09-8.11542E-09
 -1       776-6.52912E+05-1.29593E+05-5.16233E+02-2.95159E+05-8.80391E-10-1.14824E-09
 -1       777-6.58603E+05-1.23956E+05-2.82509E+02-2.88739E+05-5.81440E-09-1.21384E-08
 -1       778-6.52926E+05-1.29583E+05-2.22219E+02-2.95190E+05-2.29193E-10 1.69717E-09
 -1       779-6.58634E+05-1.23937E+05-2.82446E+02-2.88754E+05 3.21961E-10 2.51930E-10
 -1       780-6.52965E+05-1.29576E+05-5.19179E+02-2.95220E+05 8.00355E-11-1.77351E-10
 -1       781-6.58629E+05-1.23911E+05-1.02612E+03-2.88760E+05 2.29829E-09 7.13771E-09
 -1       782-6.53151E+05-1.29687E+05-2.22999E+03-2.95242E+05 3.36399E-10-2.14186E-10
 -1       783-6.58523E+05-1.24198E+05-4.55874E+03-2.88602E+05 3.10479E-10 1.41426E-10
 -1       784-6.55516E+05-1.32596E+05-1.07469E+04-2.94833E+05-3.54873E-10-7.56700E-10
 -1       785-6.57815E+05-1.32178E+05-2.18768E+04-2.84966E+05 2.33513E-10 6.03904E-10
 -1       786 9.92809E+04-2.82859E+03 1.31095E+04-9.29276E+02 4.59295E-11-5.45697E-10
 -1       787 1.03939E+05 3.96851E+03 8.33752E+03-3.31240E+03-2.07166E-10-2.97405E-10
 -1       788 1.01240E+05-2.83124E+02 3.39382E+03-9.22548E+02 2.46132E-11-3.18323E-10
 -1       789 1.01763E+05 3.76568E+02 1.88280E+03-3.31797E+03-3.43050E-11 4.85585E-10
 -1       790 1.01456E+05-3.02099E+01 8.61160E+02-9.23574E+02 7.63407E-11 7.09520E-10
 -1       791 1.01519E+05 3.52215E+01 4.60004E+02-3.31639E+03 2.39780E-10 2.18409E-09
 -1       792 1.01483E+05-3.86759E+00 2.36064E+02-9.24131E+02 3.45395E-11 1.54725E-09
 -1       793 1.01489E+05 4.36601E+00 1.55658E+02-3.31605E+03 5.71845E-11-8.11475E-10
 -1       794 1.01485E+05-2.11385E+00 1.42802E+02-9.23913E+02-1.09182E-10-5.21091E-10
 -1       795 1.01498E+05 1.47541E+01 2.15150E+02-3.31741E+03-3.17186E-11 1.37309E-09
 -1       796 1.01475E+05-1.29329E+01 3.71818E+02-9.22769E+02-1.51772E-10-7.56486E-10
 -1       797 1.01600E+05 1.57395E+02 7.94774E+02-3.31968E+03 2.20268E-11-1.78154E-09
 -1       798 1.01385E+05-1.19105E+02 1.42515E+03-9.21646E+02-1.11186E-10-4.29793E-10
 -1       799 1.02513E+05 1.66276E+03 3.49626E+03-3.31333E+03-4.99199E-10-5.08749E-10
 -1       800 1.00564E+05-1.18647E+03 5.49533E+03-9.29182E+02 5.00222E-12-7.29415E-10
 -1       801-3.52123E+03 1.06095E+05 1.62107E+04-1.12176E+05-4.54111E-09 2.18279E-11
 -1       802 7.82800E+03 1.11372E+05 1.71290E+04-3.99028E+05-1.98452E-09-1.00590E-09
 -1       803-9.52958E+02 1.06428E+05 1.91884E+04-1.11814E+05-6.13545E-09 3.70272E-09
 -1       804 2.08722E+04 1.19342E+05 4.08926E+04-3.99012E+05-3.20870E-09-2.31012E-09
 -1       805-1.37254E+04 9.81971E+04 6.14675E+04-1.12194E+05-2.37196E-09 1.37879E-09
 -1       806-1.02824E+05-2.81146E+04-8.59931E+03-4.84046E+04-9.35586E-10 3.56977E-10
 -1       807-1.02779E+05-2.59786E+04-4.07521E+03-5.11232E+04 7.02585E-10 7.84530E-09
 -1       808-1.02768E+05-2.36716E+04-1.71264E+03-5.02688E+04-1.05865E-09 9.56391E-10
 -1       809-1.01929E+05-2.44159E+04-8.27036E+02-5.14921E+04-7.75856E-10-7.33792E-10
 -1       810-1.02788E+05-2.33598E+04-3.73394E+02-5.04074E+04 1.79853E-09 7.62486E-09
 -1       811-1.01844E+05-2.43099E+04-1.86741E+02-5.15082E+04-3.91458E-09-5.89716E-09
 -1       812-1.02795E+05-2.33496E+04-9.69066E+01-5.04141E+04-7.64175E-10-3.49360E-10
 -1       813-1.01835E+05-2.43067E+04-7.02330E+01-5.15062E+04 3.06301E-10-2.68187E-10
 -1       814-1.02795E+05-2.33508E+04-7.99026E+01-5.04136E+04-8.83347E-11 1.46042E-09
 -1       815-1.01840E+05-2.43100E+04-1.41590E+02-5.15061E+04-4.32465E-10 5.08521E-10
 -1       816-1.02788E+05-2.33595E+04-2.76277E+02-5.04081E+04 2.13140E-09 7.16182E-09
 -1       817-1.01904E+05-2.43863E+04-6.08843E+02-5.14905E+04 5.60249E-10 1.25056E-10
 -1       818-1.02771E+05-2.35919E+04-1.25913E+03-5.03080E+04-2.74872E-09-6.01813E-09
 -1       819-1.02547E+05-2.55150E+04-2.99500E+03-5.11957E+04-6.69047E-10 9.08358E-11
 -1       820-1.02791E+05-2.68737E+04-6.31912E+03-4.89571E+04-2.71257E-10 1.97417E-10
 -1       821-1.08964E+05 3.03360E+03-1.40653E+04 1.03183E+03-1.30103E-09 4.63842E-11
 -1       822-1.13958E+05-4.25782E+03-8.94559E+03 3.69970E+03-5.40695E-10-1.92131E-09
 -1       823-1.11066E+05 3.03195E+02-3.64269E+03 1.01243E+03 1.09640E-09 1.88265E-10
 -1       824-1.11627E+05-4.02299E+02-2.02251E+03 3.72322E+03-4.44231E-10-4.62705E-10
 -1       825-1.11298E+05 3.26503E+01-9.29568E+02 1.00816E+03-2.26089E-09-8.53788E-11
 -1       826-1.11368E+05-3.51348E+01-5.04788E+02 3.72987E+03-4.04918E-09-2.71982E-10
 -1       827-1.11327E+05 5.07428E+00-2.75767E+02 1.00575E+03-3.00452E-09-8.77947E-11
 -1       828-1.11339E+05-2.75861E+00-2.13315E+02 3.73374E+03-2.75998E-09-1.73155E-09
 -1       829-1.11328E+05 4.67706E+00-2.43640E+02 1.00429E+03 8.59373E-10-1.41501E-09
 -1       830-1.11362E+05-2.74949E+01-4.20660E+02 3.73536E+03 2.22154E-09-6.51569E-10
 -1       831-1.11305E+05 2.73260E+01-7.61153E+02 1.00413E+03-1.03964E-09-1.78116E-09
 -1       832-1.11574E+05-3.25745E+02-1.64856E+03 3.73423E+03 4.23995E-10-3.65759E-10
 -1       833-1.11117E+05 2.47822E+02-2.96560E+03 1.00544E+03 4.73960E-10-1.40858E-10
 -1       834-1.13472E+05-3.46334E+03-7.28136E+03 3.72338E+03 4.95447E-10-8.65725E-10
 -1       835-1.09406E+05 2.47039E+03-1.14474E+04 1.01525E+03 9.41668E-10-8.29004E-10
 -1       836-4.64480E+03 2.69302E+05 2.27489E+04-7.57474E+03-3.90173E-10-1.42563E-10
 -1       837 7.33415E+03 2.77543E+05 1.76533E+04-2.67568E+04 1.48361E-10-2.85411E-10
 -1       838-1.11736E+03 2.71957E+05 1.32988E+04-7.55596E+03-6.37556E-10 1.42919E-10
 -1       839 9.99066E+03 2.79153E+05 2.24860E+04-2.67565E+04 3.76986E-10-1.09048E-09
 -1       840-6.71332E+03 2.67691E+05 3.19551E+04-7.57492E+03-6.62112E-10-1.55978E-10
 -1       841-1.74415E+02 1.37014E+03-3.59304E+03-7.01652E+02 3.70449E-10 4.94765E-10
 -1       842-2.13383E+03-1.86954E+03-2.49375E+03-4.20832E+00-8.60325E-10 1.08909E-09
 -1       843-9.07354E+02 7.74613E+01-8.41293E+02-4.57687E+02 1.11119E-09 1.32331E-10
 -1       844-1.28242E+03-3.72514E+02-5.23773E+02-2.85411E+02 3.11037E-09-1.95655E-10
 -1       845-1.02574E+03-1.25909E+02-1.91307E+02-4.20841E+02 3.00439E-10-8.25416E-10
 -1       846-1.14401E+03-1.35826E+02-1.04127E+02-3.27883E+02-1.96777E-09 1.48272E-09
 -1       847-1.04576E+03-1.59077E+02-2.82702E+01-4.15278E+02-6.60825E-07 2.47076E-07
 -1       848-1.11558E+03-8.95656E+01 1.50755E+01-3.35405E+02-1.31919E-06 4.97585E-07
 -1       849-1.05418E+03-1.72141E+02 6.21316E+01-4.13334E+02-1.13139E-06 4.24586E-07
 -1       850-1.07507E+03-2.42685E+01 1.76836E+02-3.46190E+02-9.40180E-07 3.52444E-07
 -1       851-1.08626E+03-2.24338E+02 3.12528E+02-4.04508E+02-4.70564E-07 1.76876E-07
 -1       852-8.50576E+02 3.56244E+02 8.47943E+02-4.14519E+02-1.22137E-09 1.38553E-09
 -1       853-1.27864E+03-5.52426E+02 1.35875E+03-3.45087E+02-1.43694E-09 6.00380E-10
 -1       854 5.26481E+02 2.77250E+03 4.02732E+03-8.68867E+02 3.38943E-10-7.69830E-10
 -1       855-2.46305E+03-2.63901E+03 5.80071E+03 4.92673E+01 2.43631E-10 1.03682E-10
 -1       856-1.30548E+05 2.89383E+03-1.34232E+04 2.05694E+03 1.83627E-09-2.42562E-09
 -1       857-1.35312E+05-4.05790E+03-8.53583E+03 7.42648E+03 4.93128E-09-2.57751E-09
 -1       858-1.32556E+05 2.90020E+02-3.47596E+03 2.02492E+03 2.04136E-09-2.06637E-09
 -1       859-1.33092E+05-3.76867E+02-1.92842E+03 7.46625E+03 4.44334E-09-2.20371E-09
 -1       860-1.32778E+05 3.29611E+01-8.84385E+02 2.01687E+03 3.01816E-09-1.21258E-09
 -1       861-1.32848E+05-2.52433E+01-4.75908E+02 7.47758E+03-8.50434E-10-9.73500E-10
 -1       862-1.32806E+05 7.11351E+00-2.51873E+02 2.01353E+03 2.50429E-09-2.49486E-09
 -1       863-1.32820E+05 6.67713E+00-1.80391E+02 7.48169E+03 3.08347E-09-1.56685E-09
 -1       864-1.32808E+05 6.08701E+00-1.87398E+02 2.01275E+03 2.28997E-09-1.90016E-09
 -1       865-1.32834E+05-1.05579E+01-3.06826E+02 7.48034E+03 5.40933E-09-2.70573E-09
 -1       866-1.32792E+05 2.15764E+01-5.46220E+02 2.01488E+03-2.08212E-09-1.26718E-09
 -1       867-1.32982E+05-2.24350E+02-1.17694E+03 7.47254E+03-6.44093E-10-1.45076E-09
 -1       868-1.32656E+05 1.77605E+02-2.11579E+03 2.02059E+03 2.18427E-09-2.09900E-09
 -1       869-1.34330E+05-2.46322E+03-5.19153E+03 7.43959E+03-5.94810E-10-1.70616E-09
 -1       870-1.31436E+05 1.76037E+03-8.16330E+03 2.04806E+03 2.97791E-09-1.08685E-09
 -1       871-1.30950E+03-1.26750E+04-2.46551E+03 3.72412E+04-2.14322E-09-4.74711E-09
 -1       872-4.06253E+02-1.31186E+04-7.20652E+02 4.37174E+04-2.95677E-09-9.85403E-09
 -1       873 3.77366E+01-1.29469E+04 7.28495E+02 3.71692E+04-1.74009E-09-8.51810E-09
 -1       874 8.62864E+02-1.23608E+04 2.71453E+03 4.37486E+04-2.54158E-09-8.86719E-09
 -1       875 2.78572E+03-1.34455E+04 5.85244E+03 3.72120E+04-1.94336E-09-5.55463E-09
 -1       876 1.60379E+05 2.04089E+04 1.51194E+04 6.30704E+04 7.61474E-10-6.02085E-10
 -1       877 1.63728E+05 3.18062E+04 9.47901E+03 6.53445E+04 2.46740E-09-1.00590E-09
 -1       878 1.62950E+05 2.36953E+04 3.56771E+03 6.27469E+04 2.45620E-10-7.60792E-10
 -1       879 1.60769E+05 2.74504E+04 1.95030E+03 6.59568E+04-2.89674E-10-9.62757E-10
 -1       880 1.63232E+05 2.40437E+04 8.32743E+02 6.27267E+04-5.31031E-10-2.28630E-09
 -1       881 1.60443E+05 2.70020E+04 4.45056E+02 6.59956E+04-2.50995E-09-1.30058E-09
 -1       882 1.63264E+05 2.40839E+04 2.38934E+02 6.27291E+04-5.85106E-09-1.24004E-10
 -1       883 1.60412E+05 2.69586E+04 2.05824E+02 6.59927E+04-2.14786E-09-6.12957E-10
 -1       884 1.63261E+05 2.40841E+04 2.70112E+02 6.27301E+04-1.29126E-09-1.09998E-09
 -1       885 1.60456E+05 2.70090E+04 5.30927E+02 6.59903E+04 3.34580E-10-8.69463E-10
 -1       886 1.63220E+05 2.40381E+04 1.00755E+03 6.27299E+04 6.21043E-10 4.48210E-10
 -1       887 1.60857E+05 2.75499E+04 2.36786E+03 6.59369E+04 2.97719E-09-3.88764E-09
 -1       888 1.62873E+05 2.36171E+04 4.33457E+03 6.27564E+04 5.15082E-09-8.36053E-10
 -1       889 1.64453E+05 3.28429E+04 1.15186E+04 6.51911E+04 2.39852E-09-8.15817E-10
 -1       890 1.59750E+05 1.96226E+04 1.83730E+04 6.31474E+04 2.95586E-10-4.36557E-11
 -1       891 5.60859E+02-7.19649E+04-2.82862E+03 8.78571E+03-1.24783E-09 8.01265E-10
 -1       892-9.37266E+02-7.29731E+04-2.25249E+03 3.12296E+04-3.92231E-09-4.08704E-11
 -1       893 1.46540E+02-7.22848E+04-1.79289E+03 8.75154E+03 2.75236E-10 1.61316E-09
 -1       894-1.43619E+03-7.32737E+04-3.15895E+03 3.12273E+04-2.63299E-09-7.60338E-10
 -1       895 9.48167E+02-7.16620E+04-4.55543E+03 8.78801E+03-2.19757E-09 1.32559E-10
 -1       896 3.04927E+05-1.98135E+03 4.58489E+03 1.46560E+02 8.80443E-07 5.07725E-10
 -1       897 3.06890E+05 2.29420E+03 3.24612E+03 3.14640E+02 1.75227E-06 1.48475E-10
 -1       898 3.05694E+05-3.10628E+02 1.19250E+03 1.56520E+02 8.79795E-07 4.84704E-10
 -1       899 3.05998E+05 3.60549E+02 7.58125E+02 3.20154E+02 2.97323E-09 1.16982E-09
 -1       900 3.05820E+05-4.92502E+01 3.27507E+02 1.41047E+02 5.86653E-10 1.01677E-09
 -1       901 3.05856E+05 6.30040E+01 2.29891E+02 3.84882E+02 1.69802E-10 1.10123E-09
 -1       902 3.05837E+05-1.33260E+01 1.77890E+02 9.17911E+01 9.51111E-10 9.67914E-10
 -1       903 3.05858E+05 5.38732E+01 2.66949E+02 5.42988E+02-5.19123E-11 9.27624E-10
 -1       904 3.05817E+05-4.02107E+01 4.24593E+02-1.70612E+01 6.41545E-10 6.11493E-10
 -1       905 3.06007E+05 2.96097E+02 9.49264E+02 8.77174E+02-8.65263E-11 5.36829E-10
 -1       906 3.05689E+05-2.55720E+02 1.61202E+03-2.42402E+02 3.13193E-10 5.05338E-11
 -1       907 3.06879E+05 1.90763E+03 3.99328E+03 1.56284E+03 3.91605E-10-1.23748E-10
 -1       908 3.04947E+05-1.65188E+03 6.30986E+03-7.02743E+02 2.85532E-10-8.99945E-10
 -1       909 3.12010E+05 1.22545E+04 1.73906E+04 2.97587E+03 1.72356E-09-1.98042E-09
 -1       910 3.00563E+05-1.05994E+04 2.43626E+04-1.65544E+03 2.37455E-09-3.35058E-09
 -1       911 1.77618E+04 3.00871E+02-1.16849E+03-1.00224E+03-1.47023E-09-1.76067E-09
 -1       912 1.99264E+04-3.74588E+02-3.54758E+02 3.90003E+03-4.50058E-10 7.46283E-11
 -1       913 1.82682E+04 5.81468E+01-3.22261E+02-9.00671E+02 7.98238E-10 1.99138E-09
 -1       914 1.90856E+04-7.45202E+01-5.57199E+01 3.73974E+03 5.59481E-10 3.58085E-09
 -1       915 1.85778E+04 1.85050E+01-6.37343E+01-8.41917E+02-1.61204E-09 4.06415E-09
 -1       916 1.86934E+04-1.86010E+01-3.78808E+00 3.66678E+03-4.17937E-09 5.34695E-09
 -1       917 1.86499E+04 9.74488E+00 3.32677E+01-8.27736E+02-2.78758E-09 4.71283E-09
 -1       918 1.87992E+04 4.92704E+00 1.17712E+02 3.68277E+03-3.15551E-09 5.16170E-09
 -1       919 1.84743E+04-6.64231E+00 1.51743E+02-8.57905E+02-1.86121E-09 3.32678E-09
 -1       920 1.94730E+04 1.13636E+02 5.65805E+02 3.78790E+03-7.28178E-10 2.92442E-09
 -1       921 1.79916E+04-1.09836E+02 6.21152E+02-9.32837E+02 1.29387E-09 3.43704E-10
 -1       922 2.10515E+04 8.66428E+02 2.19528E+03 3.98398E+03 3.94209E-09-1.40102E-09
 -1       923 1.69262E+04-7.80419E+02 2.62803E+03-1.05409E+03 2.34641E-09-4.25462E-09
 -1       924 2.52739E+04 5.80193E+03 8.73689E+03 4.29325E+03 5.82521E-09-7.37475E-09
 -1       925 1.38181E+04-5.07599E+03 1.06515E+04-1.24263E+03 4.75285E-09-1.08826E-08
 -1       926-2.54989E+05 5.68914E+03-1.32355E+04 5.10733E+03-2.86178E-09-1.50203E-08
 -1       927-2.60089E+05-6.53592E+03-9.21871E+03-8.92464E+03 1.57814E-08-1.70767E-08
 -1       928-2.58000E+05 8.80956E+02-3.57181E+03 4.46295E+03-2.01842E-09-1.29057E-08
 -1       929-2.54635E+05-9.24639E+02-1.43211E+03-6.03926E+03-1.08156E-08-1.27698E-08
 -1       930-2.60367E+05 2.42478E+01-1.40353E+03 2.22121E+03 5.58941E-10-6.52392E-09
 -1       931-2.51708E+05 2.42883E+01 7.54424E+02-7.85034E+02 3.58398E-10-3.85460E-09
 -1       932-2.60863E+05-1.17164E+02-7.54581E+02-7.91188E+02-2.11963E-09 1.73948E-09
 -1       933-2.52945E+05 1.46641E+02 1.05375E+03 4.85030E+03-2.00055E-09 5.78381E-09
 -1       934-2.59165E+05-7.11258E+01 9.50594E+01-3.41356E+03-1.02784E-09 8.71745E-09
 -1       935-2.56109E+05 3.25682E+02 1.25243E+03 8.70664E+03 3.61479E-09 1.25583E-08
 -1       936-2.57784E+05-2.29401E+02 1.75649E+03-4.64794E+03 6.45329E-10 1.20721E-08
 -1       937-2.55968E+05 2.09775E+03 4.44838E+03 9.33614E+03 9.48779E-09 1.39807E-08
 -1       938-2.59324E+05-1.82714E+03 6.74216E+03-4.04326E+03 1.05834E-08 9.93714E-09
 -1       939-2.47827E+05 1.36526E+04 1.96231E+04 6.53281E+03 6.81422E-09 9.47512E-09
 -1       940-2.65848E+05-1.18322E+04 2.60680E+04-1.84406E+03-3.94948E-10 3.74348E-09
 -1       941 1.91600E+06-9.61519E+04 2.22819E+05 2.38180E+02-2.12439E-07-1.45519E-11
 -1       942 2.01242E+06 1.11336E+05 1.57554E+05 7.20990E+01-4.35789E-07-1.86446E-09
 -1       943 1.95323E+06-1.50762E+04 5.77208E+04 1.69605E+02-3.44652E-07 2.58296E-10
 -1       944 1.96913E+06 1.74499E+04 3.63085E+04 1.49114E+02-2.50926E-07-1.18052E-09
 -1       945 1.95939E+06-2.35978E+03 1.48859E+04 1.61188E+02-1.58744E-07 1.52158E-09
 -1       946 1.96200E+06 2.77109E+03 8.93363E+03 1.58517E+02-6.52325E-08 3.02157E-09
 -1       947 1.96041E+06-4.09542E+02 4.45840E+03 1.60206E+02 6.75124E-09 2.15277E-09
 -1       948 1.96095E+06 7.58655E+02 3.69171E+03 1.59060E+02 7.83595E-08 2.08797E-09
 -1       949 1.96044E+06-3.48754E+02 3.91131E+03 1.60646E+02 3.49563E-07-2.75941E-09
 -1       950 1.96172E+06 2.24846E+03 7.35162E+03 1.54033E+02 6.24167E-07 2.95495E-09
 -1       951 1.95964E+06-1.89830E+03 1.20383E+04 1.65232E+02 1.97837E-06-4.09909E-09
 -1       952 1.96743E+06 1.40185E+04 2.92048E+04 1.12313E+02 3.33073E-06-1.07639E-09
 -1       953 1.95470E+06-1.21093E+04 4.63779E+04 2.02363E+02 1.66583E-06 4.21278E-09
 -1       954 2.00220E+06 8.94227E+04 1.26550E+05-2.28827E+02 3.59142E-09 2.63208E-09
 -1       955 1.92478E+06-7.72292E+04 1.78931E+05 5.06334E+02-1.11005E-08-8.00355E-10
 -1       956-9.92077E+04-1.74856E+03-3.72273E+03 1.34527E+04-1.44564E-09 3.44698E-10
 -1       957-9.98928E+04-5.58119E+02-1.88203E+03 1.56703E+04-4.18368E-11-5.70026E-10
 -1       958-9.95131E+04-6.37661E+01-8.46405E+02 1.33728E+04 1.92313E-09-7.83075E-10
 -1       959-9.95740E+04-1.09322E+01-4.30761E+02 1.57578E+04 2.22144E-10-9.86006E-10
 -1       960-9.95445E+04 1.33218E+01-2.09019E+02 1.33648E+04-7.50788E-10-8.49241E-10
 -1       961-9.95493E+04 1.39144E+01-1.10150E+02 1.57666E+04-3.41606E-09-1.40631E-10
 -1       962-9.95515E+04 1.33476E+01-6.16800E+01 1.33639E+04 6.39943E-09 6.70752E-11
 -1       963-9.95488E+04 1.48541E+01-4.71474E+01 1.57677E+04 1.46428E-08 1.18348E-10
 -1       964-9.95535E+04 1.41911E+01-5.42937E+01 1.33637E+04 7.36748E-09-5.27393E-10
 -1       965-9.95528E+04 1.59839E+01-9.14263E+01 1.57676E+04 1.60895E-09-6.28688E-10
 -1       966-9.95510E+04 1.59758E+01-1.70259E+02 1.33641E+04-5.05730E-09-5.53086E-10
 -1       967-9.95762E+04-2.28325E+00-3.49555E+02 1.57628E+04-8.19205E-09 6.66205E-11
 -1       968-9.95284E+04-4.47828E+01-6.85890E+02 1.33685E+04-3.12161E-09-1.42563E-10
 -1       969-9.98378E+04-4.44253E+02-1.52533E+03 1.57150E+04 1.22884E-09-2.39879E-09
 -1       970-9.92830E+04-1.40933E+03-3.01675E+03 1.34125E+04 3.06954E-11-6.05723E-10
 -1       971-1.88775E+05 2.38045E+03-1.10476E+04 2.06788E+03-1.92676E-09-3.41061E-10
 -1       972-1.92686E+05-3.33898E+03-7.02532E+03 7.51650E+03-2.09729E-09-1.68563E-09
 -1       973-1.90428E+05 2.38310E+02-2.86288E+03 2.02961E+03-2.84126E-09-1.63777E-09
 -1       974-1.90862E+05-3.08931E+02-1.59121E+03 7.56624E+03-2.26862E-10 4.29594E-10
 -1       975-1.90611E+05 2.72983E+01-7.36552E+02 2.01792E+03 1.06331E-09-5.56327E-10
 -1       976-1.90663E+05-1.91118E+01-4.09265E+02 7.58350E+03-2.53817E-09 6.19593E-10
 -1       977-1.90634E+05 6.64498E+00-2.42086E+02 2.01231E+03 5.23158E-09-1.71329E-09
 -1       978-1.90644E+05 5.62210E+00-2.20130E+02 7.59089E+03 1.29496E-08-5.80172E-10
 -1       979-1.90633E+05 7.99615E+00-2.93971E+02 2.01051E+03 6.68827E-09-1.61899E-09
 -1       980-1.90677E+05-2.94473E+01-5.45904E+02 7.59042E+03 4.75426E-09-3.70020E-10
 -1       981-1.90601E+05 3.80579E+01-1.00912E+03 2.01279E+03-2.55113E-10-1.19235E-09
 -1       982-1.90958E+05-4.29115E+02-2.19832E+03 7.58110E+03-4.77996E-10-9.21034E-10
 -1       983-1.90348E+05 3.31736E+02-3.96049E+03 2.01989E+03 6.29643E-09-1.37175E-09
 -1       984-1.93490E+05-4.62280E+03-9.72686E+03 7.54524E+03 2.95222E-09-3.01270E-11
 -1       985-1.88062E+05 3.29988E+03-1.52945E+04 2.04911E+03 7.15818E-09-2.18643E-09
 -3
    1PSTEP                        33          17           1          
  100CL  117 2.67522E-01         841                     0   17           1
 -4  DISP        4    1
 -5  D1          1    2    1    0
 -5  D2          1    2    2    0
 -5  D3          1    2    3    0
 -5  ALL         1    2    0    0    1ALL
 -1         1 3.34676E-05 0.00000E+00 0.00000E+00
 -1         2 2.54146E-05 0.00000E+00 0.00000E+00
 -1         3 2.14269E-05 0.00000E+00 0.00000E+00
 -1         4 1.84810E-05 0.00000E+00 0.00000E+00
 -1         5 1.70762E-05 0.00000E+00 0.00000E+00
 -1         8 2.64762E-05-3.33424E-07 0.00000E+00
 -1         9 2.06080E-05 2.00776E-07 0.00000E+00
 -1        10 1.98961E-05-7.83667E-07 0.00000E+00
 -1        11 1.82132E-05-1.50218E-07 0.00000E+00
 -1        12 1.64938E-05 3.96066E-07 0.00000E+00
 -1        15 1.22632E-05-6.26732E-07 0.00000E+00
 -1        16 1.56102E-05 1.86414E-07 0.00000E+00
 -1        17 1.42195E-05-1.59046E-06 0.00000E+00
 -1        18 1.42672E-05-3.04692E-07 0.00000E+00
 -1        19 1.49414E-05 7.85116E-07 0.00000E+00
 -1        20 1.51652E-05 8.46710E-06 0.00000E+00
 -1        21 1.51578E-05 2.02147E-05 0.00000E+00
 -1        22 4.67321E-06-4.33942E-07 0.00000E+00
 -1        23 6.23946E-06 6.22463E-07 0.00000E+00
 -1        24 5.87934E-06-1.90387E-06 0.00000E+00
 -1        25 1.27380E-05-1.98119E-07 0.00000E+00
 -1        26 1.33190E-05 1.04295E-06 0.00000E+00
 -1        27 1.26797E-05 8.16093E-06 0.00000E+00
 -1        28 1.19122E-05 1.99244E-05 0.00000E+00
 -1        29 0.00000E+00 0.00000E+00 0.00000E+00
 -1        30 1.70219E-06 8.05585E-07 0.00000E+00
 -1        31 1.73218E-06-1.75354E-06 0.00000E+00
 -1        32 0.00000E+00 0.00000E+00 0.00000E+00
 -1        33 1.12276E-05 1.62053E-06 0.00000E+00
 -1        34 1.06513E-05 8.13139E-06 0.00000E+00
 -1        35 9.54975E-06 1.97685E-05 0.00000E+00
 -1        36 3.29801E-05 1.11686E-20 1.32349E-23
 -1        37 3.24768E-05 3.98250E-20-6.61744E-24
 -1        38 3.19746E-05 5.45844E-20 1.32349E-23
 -1        39 3.14693E-05 1.55904E-19 0.00000E+00
 -1        40 3.09640E-05 2.56936E-19 1.32349E-23
 -1        41 3.04580E-05 2.28281E-19 6.61744E-24
 -1        42 2.99520E-05 5.98294E-20 0.00000E+00
 -1        43 2.94459E-05 1.77534E-20 0.00000E+00
 -1        44 2.89397E-05 2.95901E-20 0.00000E+00
 -1        45 2.84337E-05 1.19608E-19 0.00000E+00
 -1        46 2.79276E-05 2.33836E-19 0.00000E+00
 -1        47 2.74220E-05 2.65881E-19 0.00000E+00
 -1        48 2.69164E-05 1.82040E-19 1.32349E-23
 -1        49 2.64128E-05 1.19942E-19 6.61744E-24
 -1        50 2.59085E-05 7.27001E-20-1.32349E-23
 -1        51 3.29360E-05-5.68737E-08 0.00000E+00
 -1        52 3.20595E-05-1.11256E-07 0.00000E+00
 -1        53 3.09050E-05-1.65186E-07 0.00000E+00
 -1        54 2.95426E-05-2.19398E-07 0.00000E+00
 -1        55 2.80427E-05-2.74625E-07-5.16988E-25
 -1        56 3.27934E-05-2.61048E-07 0.00000E+00
 -1        57 3.20978E-05-5.39748E-07 0.00000E+00
 -1        58 3.14024E-05-8.14534E-07-2.64698E-23
 -1        59 3.06970E-05-1.07561E-06 0.00000E+00
 -1        60 2.99815E-05-1.31000E-06-2.64698E-23
 -1        61 2.92510E-05-1.50684E-06 0.00000E+00
 -1        62 2.85025E-05-1.65598E-06-2.64698E-23
 -1        63 2.77326E-05-1.74820E-06 0.00000E+00
 -1        64 2.69384E-05-1.77581E-06 2.64698E-23
 -1        65 2.61175E-05-1.73206E-06-1.32349E-23
 -1        66 2.52682E-05-1.61221E-06 0.00000E+00
 -1        67 2.43897E-05-1.41248E-06-1.32349E-23
 -1        68 2.34809E-05-1.13166E-06 0.00000E+00
 -1        69 2.25456E-05-7.68150E-07-6.61744E-24
 -1        70 2.15793E-05-3.26013E-07-1.32349E-23
 -1        71 2.51650E-05 3.79574E-20-6.61744E-24
 -1        72 2.49153E-05 1.83835E-19 0.00000E+00
 -1        73 2.46655E-05 4.19224E-19 6.61744E-24
 -1        74 2.44158E-05 6.33773E-19-3.30872E-24
 -1        75 2.41661E-05 7.69807E-19 6.61744E-24
 -1        76 2.39163E-05 8.33388E-19 0.00000E+00
 -1        77 2.36666E-05 8.25400E-19-6.61744E-24
 -1        78 2.34169E-05 6.76312E-19 3.30872E-24
 -1        79 2.31672E-05 4.58077E-19 0.00000E+00
 -1        80 2.29175E-05 2.13088E-19 0.00000E+00
 -1        81 2.26678E-05-1.35982E-20 0.00000E+00
 -1        82 2.24183E-05-1.74560E-19 3.30872E-24
 -1        83 2.21689E-05-2.37947E-19-6.61744E-24
 -1        84 2.19202E-05-1.23862E-19 3.30872E-24
 -1        85 2.16713E-05-2.66019E-20 0.00000E+00
 -1        86 2.51962E-05 2.54180E-08 0.00000E+00
 -1        87 2.45450E-05 6.19218E-08 0.00000E+00
 -1        88 2.36133E-05 9.74336E-08 0.00000E+00
 -1        89 2.25529E-05 1.33675E-07 0.00000E+00
 -1        90 2.15043E-05 1.70465E-07-1.65436E-24
 -1        91 2.39794E-05 2.98048E-06-6.61744E-24
 -1        92 2.02162E-05 1.20570E-05 0.00000E+00
 -1        93 1.57643E-05 2.29210E-05-6.61744E-24
 -1        94 1.22906E-05 3.12490E-05 0.00000E+00
 -1        95 1.08864E-05 3.41403E-05 0.00000E+00
 -1        96 1.25788E-05 2.87465E-05 3.30872E-24
 -1        97 1.66559E-05 1.68383E-05 0.00000E+00
 -1        98 2.24058E-05 2.77790E-07 0.00000E+00
 -1        99 2.82124E-05-1.64406E-05 6.61744E-24
 -1       100 3.24600E-05-2.88196E-05 0.00000E+00
 -1       101 3.43755E-05-3.48183E-05 0.00000E+00
 -1       102 3.31829E-05-3.24859E-05 3.30872E-24
 -1       103 2.98479E-05-2.45192E-05-6.61744E-24
 -1       104 2.54027E-05-1.36690E-05 0.00000E+00
 -1       105 2.15299E-05-4.30551E-06-6.61744E-24
 -1       106 2.12443E-05-1.15143E-19 6.61744E-24
 -1       107 2.10599E-05-4.10199E-19 3.30872E-24
 -1       108 2.08757E-05-8.22893E-19 6.61744E-24
 -1       109 2.06911E-05-1.22972E-18-3.30872E-24
 -1       110 2.05065E-05-1.62950E-18 0.00000E+00
 -1       111 2.03218E-05-1.88980E-18 0.00000E+00
 -1       112 2.01371E-05-1.94292E-18-6.61744E-24
 -1       113 1.99524E-05-1.85510E-18 0.00000E+00
 -1       114 1.97677E-05-1.62615E-18-6.61744E-24
 -1       115 1.95831E-05-1.31783E-18 3.30872E-24
 -1       116 1.93984E-05-9.69591E-19 0.00000E+00
 -1       117 1.92139E-05-6.92213E-19 3.30872E-24
 -1       118 1.90294E-05-4.38725E-19-6.61744E-24
 -1       119 1.88456E-05-1.78052E-19 0.00000E+00
 -1       120 1.86615E-05-2.47918E-20-3.30872E-24
 -1       121 2.14091E-05-1.30909E-07 0.00000E+00
 -1       122 2.13283E-05-2.61421E-07 0.00000E+00
 -1       123 2.11606E-05-3.91953E-07-3.30872E-24
 -1       124 2.08818E-05-5.22458E-07 0.00000E+00
 -1       125 2.04682E-05-6.52998E-07 0.00000E+00
 -1       126 2.02294E-05 2.84520E-06 3.30872E-24
 -1       127 1.68411E-05 1.14403E-05 1.65436E-24
 -1       128 1.18002E-05 2.43100E-05 3.30872E-24
 -1       129 5.67110E-06 3.99651E-05 0.00000E+00
 -1       130-6.95772E-07 5.62265E-05 0.00000E+00
 -1       131-6.44526E-06 7.09134E-05 0.00000E+00
 -1       132-1.08854E-05 8.22345E-05 3.30872E-24
 -1       133-1.33456E-05 8.84090E-05 0.00000E+00
 -1       134-1.36642E-05 8.89268E-05 0.00000E+00
 -1       135-1.16965E-05 8.33029E-05 1.65436E-24
 -1       136-7.85798E-06 7.25726E-05 0.00000E+00
 -1       137-2.55998E-06 5.78009E-05-1.65436E-24
 -1       138 3.44184E-06 4.10657E-05 3.30872E-24
 -1       139 9.39815E-06 2.44582E-05 1.65436E-24
 -1       140 1.45702E-05 1.00380E-05-3.30872E-24
 -1       141 1.83920E-05-3.75651E-20-3.30872E-24
 -1       142 1.83035E-05-6.69819E-20 0.00000E+00
 -1       143 1.82150E-05-1.23411E-19-3.30872E-24
 -1       144 1.81265E-05-1.62026E-19 1.65436E-24
 -1       145 1.80381E-05-2.63356E-19 3.30872E-24
 -1       146 1.79496E-05-3.18023E-19 0.00000E+00
 -1       147 1.78612E-05-3.54236E-19 0.00000E+00
 -1       148 1.77728E-05-3.89421E-19 0.00000E+00
 -1       149 1.76844E-05-3.69781E-19-3.30872E-24
 -1       150 1.75960E-05-3.68862E-19-1.65436E-24
 -1       151 1.75077E-05-3.02316E-19 0.00000E+00
 -1       152 1.74196E-05-2.43999E-19 0.00000E+00
 -1       153 1.73315E-05-1.94275E-19 0.00000E+00
 -1       154 1.72446E-05-9.83336E-20 8.27181E-25
 -1       155 1.71574E-05-3.60040E-20 0.00000E+00
 -1       156 1.76086E-05-2.32496E-08 1.65436E-24
 -1       157 1.50280E-05-4.61751E-08 0.00000E+00
 -1       158 1.22804E-05-6.97259E-08 0.00000E+00
 -1       159 1.09072E-05-9.03011E-08 0.00000E+00
 -1       160 1.23913E-05-1.11623E-07 1.65436E-24
 -1       161 1.83958E-05-8.10929E-08 0.00000E+00
 -1       162 1.83427E-05-2.48063E-07 0.00000E+00
 -1       163 1.83112E-05-4.72594E-07 0.00000E+00
 -1       164 1.82906E-05-7.26151E-07 0.00000E+00
 -1       165 1.82674E-05-9.72988E-07 3.30872E-24
 -1       166 1.82284E-05-1.17741E-06 1.65436E-24
 -1       167 1.81640E-05-1.31431E-06 3.30872E-24
 -1       168 1.80651E-05-1.35891E-06-1.65436E-24
 -1       169 1.79303E-05-1.30793E-06 3.30872E-24
 -1       170 1.77586E-05-1.15853E-06 0.00000E+00
 -1       171 1.75576E-05-9.31081E-07 3.30872E-24
 -1       172 1.73354E-05-6.46230E-07 0.00000E+00
 -1       173 1.71045E-05-3.38209E-07-3.30872E-24
 -1       174 1.68790E-05-4.08077E-08 0.00000E+00
 -1       175 1.66691E-05 2.13575E-07 0.00000E+00
 -1       191 1.70559E-05 6.59589E-08 0.00000E+00
 -1       192 1.70039E-05 1.32007E-07-1.65436E-24
 -1       193 1.69207E-05 1.98075E-07 0.00000E+00
 -1       194 1.68073E-05 2.64136E-07 1.65436E-24
 -1       195 1.66647E-05 3.30162E-07 0.00000E+00
 -1       251 2.61666E-05 4.23172E-06 6.61744E-24
 -1       252 2.58009E-05 1.53658E-05 3.30872E-24
 -1       253 2.54191E-05 2.80632E-05-6.61744E-24
 -1       254 2.50726E-05 3.72957E-05 0.00000E+00
 -1       255 2.47599E-05 3.99592E-05 6.61744E-24
 -1       256 2.44275E-05 3.30398E-05-3.30872E-24
 -1       257 2.40233E-05 1.87733E-05 0.00000E+00
 -1       258 2.35382E-05-5.03623E-07 0.00000E+00
 -1       259 2.30548E-05-1.96826E-05-6.61744E-24
 -1       260 2.26545E-05-3.36556E-05 3.30872E-24
 -1       261 2.23245E-05-4.01948E-05 6.61744E-24
 -1       262 2.20109E-05-3.71741E-05 3.30872E-24
 -1       263 2.16623E-05-2.77052E-05 0.00000E+00
 -1       264 2.12803E-05-1.49879E-05 3.30872E-24
 -1       265 2.09164E-05-4.02596E-06-6.61744E-24
 -1       266 2.52740E-05-3.83175E-07 0.00000E+00
 -1       267 2.41352E-05-4.29096E-07 0.00000E+00
 -1       268 2.26472E-05-4.75710E-07 0.00000E+00
 -1       269 2.03983E-05-5.22682E-07 0.00000E+00
 -1       270 1.70493E-05-5.72745E-07 0.00000E+00
 -1       271 2.55025E-05 5.40468E-07-1.32349E-23
 -1       272 2.46119E-05 1.13491E-06 6.61744E-24
 -1       273 2.38122E-05 1.48886E-06 0.00000E+00
 -1       274 2.30877E-05 1.63428E-06 6.61744E-24
 -1       275 2.24278E-05 1.60625E-06 0.00000E+00
 -1       276 2.18193E-05 1.43985E-06 0.00000E+00
 -1       277 2.12491E-05 1.17105E-06 0.00000E+00
 -1       278 2.07036E-05 8.36274E-07 0.00000E+00
 -1       279 2.01690E-05 4.72282E-07-1.32349E-23
 -1       280 1.96316E-05 1.16018E-07-6.61744E-24
 -1       281 1.90775E-05-1.95658E-07 1.32349E-23
 -1       282 1.84935E-05-4.26045E-07 0.00000E+00
 -1       283 1.78657E-05-5.38977E-07 0.00000E+00
 -1       284 1.71831E-05-4.98099E-07-6.61744E-24
 -1       285 1.64296E-05-2.69671E-07 1.32349E-23
 -1       286 2.05596E-05 9.00099E-07 3.30872E-24
 -1       287 2.05152E-05 1.36128E-06 0.00000E+00
 -1       288 2.04707E-05 1.59340E-06 0.00000E+00
 -1       289 2.04268E-05 1.60596E-06 8.27181E-25
 -1       290 2.03830E-05 1.42898E-06 0.00000E+00
 -1       291 2.03393E-05 1.09284E-06 0.00000E+00
 -1       292 2.02955E-05 6.42769E-07 0.00000E+00
 -1       293 2.02518E-05 1.24209E-07 0.00000E+00
 -1       294 2.02080E-05-4.11012E-07 0.00000E+00
 -1       295 2.01643E-05-9.11029E-07 0.00000E+00
 -1       296 2.01205E-05-1.32727E-06 0.00000E+00
 -1       297 2.00767E-05-1.61132E-06-8.27181E-25
 -1       298 2.00329E-05-1.72708E-06 0.00000E+00
 -1       299 1.99884E-05-1.63879E-06 0.00000E+00
 -1       300 1.99441E-05-1.32975E-06 0.00000E+00
 -1       301 1.97733E-05 1.94751E-07 1.65436E-24
 -1       302 1.89336E-05 1.94676E-07 0.00000E+00
 -1       303 1.80932E-05 1.95588E-07 0.00000E+00
 -1       304 1.72563E-05 1.96252E-07-8.27181E-25
 -1       305 1.64272E-05 1.95392E-07-3.30872E-24
 -1       306 1.99821E-05 7.23545E-07 0.00000E+00
 -1       307 1.94466E-05 9.73034E-07 6.61744E-24
 -1       308 1.89982E-05 9.91254E-07 0.00000E+00
 -1       309 1.86204E-05 8.16574E-07-6.61744E-24
 -1       310 1.82996E-05 4.89123E-07-1.32349E-23
 -1       311 1.80207E-05 4.90788E-08 6.61744E-24
 -1       312 1.77688E-05-4.62899E-07 0.00000E+00
 -1       313 1.75284E-05-1.00597E-06 0.00000E+00
 -1       314 1.72843E-05-1.53915E-06 0.00000E+00
 -1       315 1.70212E-05-2.02149E-06 6.61744E-24
 -1       316 1.67239E-05-2.41227E-06 0.00000E+00
 -1       317 1.63775E-05-2.67099E-06 6.61744E-24
 -1       318 1.59669E-05-2.75772E-06 0.00000E+00
 -1       319 1.54788E-05-2.63254E-06-6.61744E-24
 -1       320 1.48967E-05-2.25759E-06 0.00000E+00
 -1       321 1.98032E-05 9.69681E-07-3.30872E-24
 -1       322 1.97061E-05 4.89256E-06 0.00000E+00
 -1       323 1.96017E-05 1.04420E-05 0.00000E+00
 -1       324 1.94913E-05 1.70689E-05-1.65436E-24
 -1       325 1.93788E-05 2.40245E-05-3.30872E-24
 -1       326 1.92692E-05 3.05588E-05 0.00000E+00
 -1       327 1.91656E-05 3.60000E-05-3.30872E-24
 -1       328 1.90699E-05 3.96801E-05 1.65436E-24
 -1       329 1.89793E-05 4.12567E-05 3.30872E-24
 -1       330 1.88895E-05 4.03957E-05-1.65436E-24
 -1       331 1.87953E-05 3.72126E-05 0.00000E+00
 -1       332 1.86921E-05 3.18324E-05 1.65436E-24
 -1       333 1.85791E-05 2.47853E-05 0.00000E+00
 -1       334 1.84580E-05 1.66083E-05 0.00000E+00
 -1       335 1.83338E-05 8.04746E-06 0.00000E+00
 -1       336 1.91439E-05-9.18458E-07-3.30872E-24
 -1       337 1.82612E-05-1.05339E-06 0.00000E+00
 -1       338 1.72876E-05-1.18835E-06 0.00000E+00
 -1       339 1.62628E-05-1.32307E-06 0.00000E+00
 -1       340 1.52269E-05-1.45782E-06-3.30872E-24
 -1       341 1.76483E-05 4.76657E-06 3.30872E-24
 -1       342 1.16080E-05 2.01297E-05-1.65436E-24
 -1       343 2.84417E-06 4.23821E-05-3.30872E-24
 -1       344-7.50592E-06 6.85817E-05-1.65436E-24
 -1       345-1.78016E-05 9.46456E-05 3.30872E-24
 -1       346-2.64026E-05 1.16491E-04 0.00000E+00
 -1       347-3.22080E-05 1.31253E-04 0.00000E+00
 -1       348-3.41822E-05 1.36087E-04-1.65436E-24
 -1       349-3.24235E-05 1.30965E-04 3.30872E-24
 -1       350-2.70510E-05 1.15915E-04 0.00000E+00
 -1       351-1.91722E-05 9.38158E-05 0.00000E+00
 -1       352-9.85830E-06 6.76033E-05 0.00000E+00
 -1       353-5.58450E-07 4.14318E-05 0.00000E+00
 -1       354 7.27800E-06 1.94564E-05 1.65436E-24
 -1       355 1.25853E-05 4.59205E-06 1.65436E-24
 -1       356 1.80895E-05-8.36957E-06 0.00000E+00
 -1       357 1.79618E-05-1.69948E-05-1.65436E-24
 -1       358 1.78371E-05-2.52456E-05-3.30872E-24
 -1       359 1.77208E-05-3.23432E-05 1.65436E-24
 -1       360 1.76145E-05-3.77285E-05 0.00000E+00
 -1       361 1.75174E-05-4.08497E-05-1.65436E-24
 -1       362 1.74248E-05-4.15861E-05 3.30872E-24
 -1       363 1.73308E-05-3.98268E-05 0.00000E+00
 -1       364 1.72313E-05-3.59358E-05 0.00000E+00
 -1       365 1.71237E-05-3.02861E-05 0.00000E+00
 -1       366 1.70101E-05-2.35860E-05 0.00000E+00
 -1       367 1.68945E-05-1.65476E-05-1.65436E-24
 -1       368 1.67818E-05-9.94803E-06-1.65436E-24
 -1       369 1.66772E-05-4.56249E-06 0.00000E+00
 -1       370 1.65796E-05-9.35411E-07 4.13590E-25
 -1       371 2.38187E-05-1.88920E-07 0.00000E+00
 -1       372 2.46583E-05-2.10637E-07 0.00000E+00
 -1       373 2.24132E-05-2.33633E-07 8.27181E-25
 -1       374 1.87674E-05-2.59978E-07 0.00000E+00
 -1       375 1.54694E-05-2.85317E-07-1.03398E-25
 -1       376 2.17142E-05-9.93736E-06 0.00000E+00
 -1       377 2.64585E-05-2.31583E-05 0.00000E+00
 -1       378 3.17937E-05-3.80195E-05 0.00000E+00
 -1       379 3.70698E-05-5.27174E-05 0.00000E+00
 -1       380 4.16515E-05-6.54882E-05 3.30872E-24
 -1       381 4.48974E-05-7.45808E-05 0.00000E+00
 -1       382 4.64750E-05-7.91373E-05 3.30872E-24
 -1       383 4.60500E-05-7.83245E-05 0.00000E+00
 -1       384 4.37657E-05-7.26000E-05 3.30872E-24
 -1       385 3.97801E-05-6.24427E-05 0.00000E+00
 -1       386 3.46746E-05-4.93953E-05 0.00000E+00
 -1       387 2.90472E-05-3.50095E-05 0.00000E+00
 -1       388 2.36285E-05-2.11589E-05 0.00000E+00
 -1       389 1.91474E-05-9.71512E-06-8.27181E-25
 -1       390 1.60925E-05-1.97383E-06 0.00000E+00
 -1       406 1.62871E-05 4.61276E-07-3.30872E-24
 -1       407 1.60561E-05 5.26537E-07 0.00000E+00
 -1       408 1.58032E-05 5.91764E-07 0.00000E+00
 -1       409 1.55312E-05 6.56833E-07 0.00000E+00
 -1       410 1.52430E-05 7.21564E-07 1.65436E-24
 -1       466 1.24559E-05 3.81791E-06 0.00000E+00
 -1       467 1.26644E-05 6.16147E-06 0.00000E+00
 -1       468 1.28747E-05 7.08299E-06 0.00000E+00
 -1       469 1.30871E-05 7.24770E-06 0.00000E+00
 -1       470 1.32995E-05 6.90170E-06 6.61744E-24
 -1       471 1.35121E-05 6.28617E-06-3.30872E-24
 -1       472 1.37247E-05 5.49258E-06 0.00000E+00
 -1       473 1.39372E-05 4.61066E-06 0.00000E+00
 -1       474 1.41496E-05 3.68101E-06 0.00000E+00
 -1       475 1.43620E-05 2.74382E-06 0.00000E+00
 -1       476 1.45743E-05 1.83506E-06 6.61744E-24
 -1       477 1.47860E-05 9.90966E-07 3.30872E-24
 -1       478 1.49977E-05 2.83700E-07 6.61744E-24
 -1       479 1.52065E-05-2.13257E-07-1.65436E-24
 -1       480 1.54165E-05-3.10230E-07-4.13590E-25
 -1       481 7.94391E-06-6.03208E-07 0.00000E+00
 -1       482 5.97992E-06-5.70896E-07 0.00000E+00
 -1       483 5.50997E-06-5.36719E-07 0.00000E+00
 -1       484 5.67524E-06-5.02215E-07-4.13590E-25
 -1       485 5.66623E-06-4.67680E-07 0.00000E+00
 -1       486 8.94166E-06 7.46807E-06 3.30872E-24
 -1       487 3.57583E-06 2.08210E-05 0.00000E+00
 -1       488-1.99013E-06 3.46893E-05 0.00000E+00
 -1       489-5.91395E-06 4.43219E-05 0.00000E+00
 -1       490-7.19155E-06 4.70144E-05 6.61744E-24
 -1       491-4.89394E-06 4.01159E-05 0.00000E+00
 -1       492 1.89275E-07 2.55612E-05 0.00000E+00
 -1       493 7.27724E-06 5.37801E-06 0.00000E+00
 -1       494 1.46683E-05-1.56618E-05 0.00000E+00
 -1       495 2.06672E-05-3.27732E-05 0.00000E+00
 -1       496 2.42167E-05-4.30946E-05 0.00000E+00
 -1       497 2.42370E-05-4.38521E-05 3.30872E-24
 -1       498 2.13240E-05-3.68526E-05-6.61744E-24
 -1       499 1.61411E-05-2.39693E-05 0.00000E+00
 -1       500 1.04994E-05-9.90807E-06 0.00000E+00
 -1       501 1.55188E-05 8.49912E-07 0.00000E+00
 -1       502 1.54317E-05 1.24498E-06-1.65436E-24
 -1       503 1.53443E-05 1.35929E-06-3.30872E-24
 -1       504 1.52577E-05 1.18159E-06 0.00000E+00
 -1       505 1.51711E-05 7.52978E-07 0.00000E+00
 -1       506 1.50845E-05 1.15522E-07 1.65436E-24
 -1       507 1.49979E-05-6.51297E-07 0.00000E+00
 -1       508 1.49112E-05-1.46752E-06 1.65436E-24
 -1       509 1.48246E-05-2.24432E-06-3.30872E-24
 -1       510 1.47381E-05-2.89301E-06 0.00000E+00
 -1       511 1.46517E-05-3.34788E-06 0.00000E+00
 -1       512 1.45653E-05-3.54393E-06 1.65436E-24
 -1       513 1.44790E-05-3.46255E-06 3.30872E-24
 -1       514 1.43926E-05-3.08616E-06 0.00000E+00
 -1       515 1.43061E-05-2.45004E-06-3.30872E-24
 -1       516 1.53306E-05 2.55336E-07-1.65436E-24
 -1       517 1.60592E-05 3.34708E-07 0.00000E+00
 -1       518 1.67009E-05 4.13383E-07 8.27181E-25
 -1       519 1.61604E-05 4.93441E-07 0.00000E+00
 -1       520 1.31166E-05 5.68941E-07-8.27181E-25
 -1       521 1.48062E-05 6.26822E-07 1.32349E-23
 -1       522 1.40818E-05 8.04814E-07-6.61744E-24
 -1       523 1.34402E-05 7.63196E-07 0.00000E+00
 -1       524 1.28644E-05 5.38789E-07 6.61744E-24
 -1       525 1.23420E-05 1.71091E-07 0.00000E+00
 -1       526 1.18581E-05-3.00431E-07 6.61744E-24
 -1       527 1.13979E-05-8.35634E-07 1.32349E-23
 -1       528 1.09464E-05-1.39415E-06-6.61744E-24
 -1       529 1.04884E-05-1.93545E-06 0.00000E+00
 -1       530 1.00089E-05-2.41913E-06-6.61744E-24
 -1       531 9.49290E-06-2.80507E-06-1.32349E-23
 -1       532 8.92580E-06-3.05359E-06 6.61744E-24
 -1       533 8.29290E-06-3.12584E-06 0.00000E+00
 -1       534 7.58199E-06-2.98315E-06 0.00000E+00
 -1       535 6.77645E-06-2.58962E-06 0.00000E+00
 -1       536 1.42180E-05-7.34814E-07 1.65436E-24
 -1       537 1.42204E-05-8.45851E-08-4.13590E-25
 -1       538 1.42229E-05 3.81967E-07 0.00000E+00
 -1       539 1.42260E-05 6.86780E-07 0.00000E+00
 -1       540 1.42292E-05 8.51733E-07 0.00000E+00
 -1       541 1.42325E-05 8.98722E-07 0.00000E+00
 -1       542 1.42359E-05 8.49635E-07 1.29247E-26
 -1       543 1.42393E-05 7.26358E-07 2.58494E-26
 -1       544 1.42427E-05 5.50780E-07-5.16988E-26
 -1       545 1.42461E-05 3.44778E-07 5.16988E-26
 -1       546 1.42494E-05 1.30239E-07 0.00000E+00
 -1       547 1.42528E-05-7.09546E-08-1.03398E-25
 -1       548 1.42563E-05-2.36922E-07 0.00000E+00
 -1       549 1.42598E-05-3.45784E-07 0.00000E+00
 -1       550 1.42633E-05-3.75640E-07 0.00000E+00
 -1       551 1.29719E-05-1.64190E-06 5.92618E-25
 -1       552 1.15827E-05-1.69204E-06-6.20385E-25
 -1       553 1.01148E-05-1.74220E-06 1.65436E-24
 -1       554 8.63238E-06-1.79299E-06 0.00000E+00
 -1       555 7.19952E-06-1.84511E-06 6.61744E-24
 -1       556 1.38559E-05-7.87697E-07 0.00000E+00
 -1       557 1.35631E-05-1.69235E-07 6.61744E-24
 -1       558 1.33334E-05 2.82454E-07 0.00000E+00
 -1       559 1.31592E-05 5.86625E-07-3.30872E-24
 -1       560 1.30332E-05 7.62560E-07-3.30872E-24
 -1       561 1.29481E-05 8.29703E-07 0.00000E+00
 -1       562 1.28965E-05 8.07511E-07 3.30872E-24
 -1       563 1.28711E-05 7.15456E-07 1.65436E-24
 -1       564 1.28645E-05 5.73022E-07 1.65436E-24
 -1       565 1.28696E-05 3.99693E-07-8.27181E-25
 -1       566 1.28790E-05 2.14958E-07 1.65436E-24
 -1       567 1.28854E-05 3.83106E-08 0.00000E+00
 -1       568 1.28815E-05-1.10763E-07 8.27181E-25
 -1       569 1.28601E-05-2.12792E-07-5.16988E-26
 -1       570 1.28142E-05-2.48322E-07 8.27181E-25
 -1       571 1.43077E-05-2.13952E-07 1.03398E-25
 -1       572 1.43495E-05-1.52089E-07 1.03398E-25
 -1       573 1.43916E-05-1.13812E-07 1.24077E-24
 -1       574 1.44338E-05-9.35620E-08-4.13590E-25
 -1       575 1.44761E-05-8.57577E-08 0.00000E+00
 -1       576 1.45185E-05-8.47819E-08 8.27181E-25
 -1       577 1.45608E-05-8.50146E-08 0.00000E+00
 -1       578 1.46032E-05-8.08314E-08 0.00000E+00
 -1       579 1.46455E-05-6.66075E-08-1.65436E-24
 -1       580 1.46879E-05-3.67180E-08 0.00000E+00
 -1       581 1.47302E-05 1.44608E-08 0.00000E+00
 -1       582 1.47726E-05 9.25477E-08 0.00000E+00
 -1       583 1.48149E-05 2.03156E-07 3.30872E-24
 -1       584 1.48572E-05 3.51840E-07 0.00000E+00
 -1       585 1.48994E-05 5.44128E-07 0.00000E+00
 -1       586 1.40485E-05-2.86573E-07 0.00000E+00
 -1       587 1.37976E-05-2.68318E-07 0.00000E+00
 -1       588 1.35276E-05-2.50083E-07 8.27181E-25
 -1       589 1.32521E-05-2.32024E-07 1.55096E-25
 -1       590 1.29845E-05-2.14363E-07 0.00000E+00
 -1       591 1.42016E-05-1.97704E-07 0.00000E+00
 -1       592 1.41410E-05-1.09417E-07 0.00000E+00
 -1       593 1.40857E-05-3.61870E-08-8.27181E-25
 -1       594 1.40346E-05 2.52964E-08 0.00000E+00
 -1       595 1.39866E-05 7.83398E-08 8.27181E-25
 -1       596 1.39405E-05 1.26226E-07 0.00000E+00
 -1       597 1.38951E-05 1.72235E-07 0.00000E+00
 -1       598 1.38491E-05 2.19642E-07 0.00000E+00
 -1       599 1.38014E-05 2.71723E-07 0.00000E+00
 -1       600 1.37508E-05 3.31753E-07-4.13590E-25
 -1       601 1.36959E-05 4.03008E-07-4.13590E-25
 -1       602 1.36356E-05 4.88767E-07 3.10193E-25
 -1       603 1.35688E-05 5.92310E-07 6.20385E-25
 -1       604 1.34942E-05 7.16939E-07-1.80946E-25
 -1       605 1.34108E-05 8.65957E-07 0.00000E+00
 -1       606 1.49569E-05 1.10511E-06 0.00000E+00
 -1       607 1.49713E-05 1.45606E-06 0.00000E+00
 -1       608 1.49855E-05 1.83616E-06 0.00000E+00
 -1       609 1.49994E-05 2.24333E-06 0.00000E+00
 -1       610 1.50133E-05 2.67548E-06 0.00000E+00
 -1       611 1.50272E-05 3.13048E-06 0.00000E+00
 -1       612 1.50411E-05 3.60619E-06 0.00000E+00
 -1       613 1.50549E-05 4.10048E-06 0.00000E+00
 -1       614 1.50688E-05 4.61121E-06 0.00000E+00
 -1       615 1.50826E-05 5.13624E-06 0.00000E+00
 -1       616 1.50964E-05 5.67344E-06-8.27181E-25
 -1       617 1.51102E-05 6.22067E-06 0.00000E+00
 -1       618 1.51240E-05 6.77578E-06 8.27181E-25
 -1       619 1.51378E-05 7.33665E-06 0.00000E+00
 -1       620 1.51516E-05 7.90113E-06-4.13590E-25
 -1       621 1.46408E-05 8.28248E-07 1.65436E-24
 -1       622 1.43479E-05 8.71599E-07-8.27181E-25
 -1       623 1.40659E-05 9.14958E-07 0.00000E+00
 -1       624 1.37983E-05 9.58202E-07 0.00000E+00
 -1       625 1.35483E-05 1.00119E-06 4.13590E-25
 -1       626 1.48477E-05 1.12136E-06-1.65436E-24
 -1       627 1.47414E-05 1.49000E-06 0.00000E+00
 -1       628 1.46238E-05 1.88802E-06 0.00000E+00
 -1       629 1.44965E-05 2.31200E-06 0.00000E+00
 -1       630 1.43607E-05 2.75852E-06 0.00000E+00
 -1       631 1.42177E-05 3.22410E-06 0.00000E+00
 -1       632 1.40689E-05 3.70524E-06 0.00000E+00
 -1       633 1.39155E-05 4.19848E-06 0.00000E+00
 -1       634 1.37589E-05 4.70033E-06 0.00000E+00
 -1       635 1.36003E-05 5.20728E-06 0.00000E+00
 -1       636 1.34412E-05 5.71587E-06 8.27181E-25
 -1       637 1.32827E-05 6.22260E-06-4.13590E-25
 -1       638 1.31262E-05 6.72398E-06-4.13590E-25
 -1       639 1.29729E-05 7.21651E-06-4.13590E-25
 -1       640 1.28239E-05 7.69669E-06 0.00000E+00
 -1       641 1.51655E-05 9.05344E-06 0.00000E+00
 -1       642 1.51654E-05 9.70060E-06 5.16988E-26
 -1       643 1.51652E-05 1.03998E-05 5.16988E-26
 -1       644 1.51649E-05 1.11422E-05-1.29247E-26
 -1       645 1.51646E-05 1.19190E-05-6.46235E-27
 -1       646 1.51642E-05 1.27214E-05 0.00000E+00
 -1       647 1.51639E-05 1.35405E-05-1.61559E-27
 -1       648 1.51635E-05 1.43677E-05 3.23117E-27
 -1       649 1.51631E-05 1.51940E-05-1.29247E-26
 -1       650 1.51627E-05 1.60107E-05 1.29247E-26
 -1       651 1.51623E-05 1.68089E-05 5.16988E-26
 -1       652 1.51619E-05 1.75798E-05 0.00000E+00
 -1       653 1.51615E-05 1.83147E-05 0.00000E+00
 -1       654 1.51607E-05 1.90046E-05 0.00000E+00
 -1       655 1.51602E-05 1.96409E-05 0.00000E+00
 -1       656 1.46581E-05 8.41780E-06 8.27181E-25
 -1       657 1.42208E-05 8.36594E-06 0.00000E+00
 -1       658 1.38288E-05 8.31418E-06 8.27181E-25
 -1       659 1.34576E-05 8.26239E-06-4.13590E-25
 -1       660 1.30828E-05 8.21050E-06 0.00000E+00
 -1       661 1.50020E-05 9.07082E-06 0.00000E+00
 -1       662 1.48232E-05 9.72224E-06 0.00000E+00
 -1       663 1.46293E-05 1.04137E-05-1.65436E-24
 -1       664 1.44233E-05 1.11384E-05 8.27181E-25
 -1       665 1.42074E-05 1.18895E-05 0.00000E+00
 -1       666 1.39842E-05 1.26600E-05-8.27181E-25
 -1       667 1.37563E-05 1.34431E-05 0.00000E+00
 -1       668 1.35263E-05 1.42319E-05 0.00000E+00
 -1       669 1.32966E-05 1.50195E-05 0.00000E+00
 -1       670 1.30700E-05 1.57993E-05 0.00000E+00
 -1       671 1.28489E-05 1.65642E-05 1.65436E-24
 -1       672 1.26359E-05 1.73074E-05 0.00000E+00
 -1       673 1.24335E-05 1.80221E-05 1.65436E-24
 -1       674 1.22440E-05 1.87012E-05 0.00000E+00
 -1       675 1.20705E-05 1.93380E-05 0.00000E+00
 -1       676 1.46154E-05 2.01661E-05 0.00000E+00
 -1       677 1.40732E-05 2.01174E-05 0.00000E+00
 -1       678 1.35316E-05 2.00686E-05-1.65436E-24
 -1       679 1.29907E-05 2.00201E-05-8.27181E-25
 -1       680 1.24509E-05 1.99716E-05 0.00000E+00
 -1       681 4.77102E-06 5.18567E-07 0.00000E+00
 -1       682 4.87236E-06 3.95710E-07 0.00000E+00
 -1       683 4.97315E-06-5.15249E-07 3.30872E-24
 -1       684 5.07397E-06-1.93067E-06 0.00000E+00
 -1       685 5.17429E-06-3.68922E-06 0.00000E+00
 -1       686 5.27440E-06-5.63117E-06-1.65436E-24
 -1       687 5.37440E-06-7.64130E-06-3.30872E-24
 -1       688 5.47450E-06-9.60468E-06-1.65436E-24
 -1       689 5.57490E-06-1.13951E-05 3.30872E-24
 -1       690 5.67575E-06-1.28855E-05 1.65436E-24
 -1       691 5.77715E-06-1.38759E-05 0.00000E+00
 -1       692 5.87880E-06-1.41642E-05 0.00000E+00
 -1       693 5.98008E-06-1.33777E-05-3.30872E-24
 -1       694 6.07833E-06-1.11387E-05 0.00000E+00
 -1       695 6.16965E-06-6.71835E-06 0.00000E+00
 -1       696 3.35575E-06-3.64056E-07 0.00000E+00
 -1       697 2.39024E-06-2.91815E-07-8.27181E-25
 -1       698 1.66919E-06-2.19488E-07-1.65436E-24
 -1       699 1.08596E-06-1.46575E-07-8.27181E-25
 -1       700 5.57260E-07-7.36597E-08 0.00000E+00
 -1       701 3.33668E-06 2.80263E-06 1.65436E-24
 -1       702 6.45750E-07 9.58223E-06 0.00000E+00
 -1       703-2.98962E-06 1.88246E-05 0.00000E+00
 -1       704-7.15480E-06 2.94369E-05 0.00000E+00
 -1       705-1.12958E-05 3.99863E-05 0.00000E+00
 -1       706-1.48598E-05 4.90400E-05-1.65436E-24
 -1       707-1.74443E-05 5.55386E-05-3.30872E-24
 -1       708-1.86584E-05 5.84327E-05 1.65436E-24
 -1       709-1.84601E-05 5.75719E-05 0.00000E+00
 -1       710-1.68157E-05 5.28234E-05 0.00000E+00
 -1       711-1.40487E-05 4.50279E-05 0.00000E+00
 -1       712-1.04819E-05 3.50430E-05-1.65436E-24
 -1       713-6.63111E-06 2.42786E-05 3.30872E-24
 -1       714-3.01042E-06 1.41494E-05 0.00000E+00
 -1       715-8.03239E-08 5.90995E-06 1.65436E-24
 -1       716 6.19357E-06 8.44377E-06 0.00000E+00
 -1       717 6.16091E-06 1.42841E-05 0.00000E+00
 -1       718 6.13700E-06 1.82732E-05-4.13590E-25
 -1       719 6.11829E-06 2.05424E-05 0.00000E+00
 -1       720 6.10184E-06 2.12832E-05 0.00000E+00
 -1       721 6.08549E-06 2.06885E-05-2.06795E-25
 -1       722 6.06798E-06 1.89978E-05 4.13590E-25
 -1       723 6.04872E-06 1.64515E-05 0.00000E+00
 -1       724 6.02787E-06 1.33201E-05 4.13590E-25
 -1       725 6.00598E-06 9.87460E-06 0.00000E+00
 -1       726 5.98394E-06 6.39675E-06 0.00000E+00
 -1       727 5.96242E-06 3.16854E-06-4.13590E-25
 -1       728 5.94232E-06 4.63131E-07 0.00000E+00
 -1       729 5.92254E-06-1.44680E-06 0.00000E+00
 -1       730 5.90459E-06-2.31701E-06 3.30872E-24
 -1       731-7.97814E-07 6.33425E-07 0.00000E+00
 -1       732-4.30558E-06 6.64659E-07 4.13590E-25
 -1       733-5.08240E-06 7.01734E-07-8.27181E-25
 -1       734-3.92210E-06 7.38661E-07 0.00000E+00
 -1       735-1.45216E-06 7.73563E-07 0.00000E+00
 -1       736 1.31779E-06 1.32082E-05-1.65436E-24
 -1       737-6.59159E-06 3.33852E-05 0.00000E+00
 -1       738-1.63908E-05 5.82931E-05 0.00000E+00
 -1       739-2.69418E-05 8.50618E-05 0.00000E+00
 -1       740-3.69093E-05 1.10383E-04 3.30872E-24
 -1       741-4.49724E-05 1.30950E-04-1.65436E-24
 -1       742-5.03040E-05 1.44574E-04 3.30872E-24
 -1       743-5.21266E-05 1.49086E-04 0.00000E+00
 -1       744-5.05123E-05 1.44432E-04 3.30872E-24
 -1       745-4.55494E-05 1.30602E-04-1.65436E-24
 -1       746-3.80783E-05 1.09740E-04 0.00000E+00
 -1       747-2.89139E-05 8.40377E-05 1.65436E-24
 -1       748-1.92348E-05 5.68536E-05 0.00000E+00
 -1       749-1.02102E-05 3.15580E-05 1.65436E-24
 -1       750-2.86977E-06 1.10628E-05 0.00000E+00
 -1       751 6.28204E-06-1.06011E-06 0.00000E+00
 -1       752 6.71070E-06-6.36199E-07 3.30872E-24
 -1       753 7.13779E-06-4.65056E-07 1.32349E-23
 -1       754 7.56979E-06-3.84650E-07-6.61744E-24
 -1       755 8.00194E-06-3.58832E-07 0.00000E+00
 -1       756 8.43506E-06-3.52518E-07 0.00000E+00
 -1       757 8.86829E-06-3.57869E-07 0.00000E+00
 -1       758 9.30170E-06-3.67271E-07 0.00000E+00
 -1       759 9.73512E-06-3.78776E-07 0.00000E+00
 -1       760 1.01684E-05-3.90476E-07-6.61744E-24
 -1       761 1.06017E-05-4.00738E-07-1.32349E-23
 -1       762 1.10343E-05-4.07900E-07 0.00000E+00
 -1       763 1.14667E-05-4.05966E-07 1.32349E-23
 -1       764 1.18958E-05-3.88767E-07-6.61744E-24
 -1       765 1.23259E-05-3.28900E-07-6.61744E-24
 -1       766 3.92915E-06-1.88193E-06 0.00000E+00
 -1       767 2.34647E-07-1.85515E-06-4.13590E-25
 -1       768-3.54306E-06-1.82932E-06-1.03398E-25
 -1       769-5.74316E-06-1.79760E-06 5.16988E-26
 -1       770-4.58132E-06-1.76502E-06 2.06795E-25
 -1       771 5.25002E-06-1.07585E-06 0.00000E+00
 -1       772 4.67884E-06-4.13190E-07-6.61744E-24
 -1       773 4.16344E-06 9.90081E-08 0.00000E+00
 -1       774 3.69845E-06 4.75890E-07 0.00000E+00
 -1       775 3.27844E-06 7.32625E-07 0.00000E+00
 -1       776 2.89774E-06 8.84452E-07 6.61744E-24
 -1       777 2.55066E-06 9.46630E-07 1.32349E-23
 -1       778 2.23148E-06 9.34443E-07 0.00000E+00
 -1       779 1.93445E-06 8.63195E-07-1.32349E-23
 -1       780 1.65383E-06 7.48204E-07 0.00000E+00
 -1       781 1.38390E-06 6.04804E-07 0.00000E+00
 -1       782 1.11894E-06 4.48344E-07 0.00000E+00
 -1       783 8.53251E-07 2.94177E-07-6.61744E-24
 -1       784 5.81363E-07 1.57705E-07 3.30872E-24
 -1       785 2.97833E-07 5.43249E-08 6.61744E-24
 -1       786 1.27720E-05-5.06698E-08-4.13590E-25
 -1       787 1.28082E-05 6.36556E-08 4.13590E-25
 -1       788 1.28444E-05 1.49953E-07 8.27181E-25
 -1       789 1.28809E-05 2.13337E-07 0.00000E+00
 -1       790 1.29175E-05 2.58912E-07 0.00000E+00
 -1       791 1.29541E-05 2.91780E-07 4.13590E-25
 -1       792 1.29907E-05 3.17038E-07 0.00000E+00
 -1       793 1.30274E-05 3.39780E-07-4.13590E-25
 -1       794 1.30640E-05 3.65101E-07 0.00000E+00
 -1       795 1.31007E-05 3.98095E-07-4.13590E-25
 -1       796 1.31373E-05 4.43859E-07 0.00000E+00
 -1       797 1.31740E-05 5.07495E-07 4.13590E-25
 -1       798 1.32105E-05 5.94109E-07 8.27181E-25
 -1       799 1.32470E-05 7.08809E-07 0.00000E+00
 -1       800 1.32835E-05 8.56725E-07 0.00000E+00
 -1       801 1.16160E-05-1.62724E-07 0.00000E+00
 -1       802 9.27664E-06-1.27111E-07 4.13590E-25
 -1       803 6.33207E-06-9.31002E-08 1.03398E-25
 -1       804 3.39571E-06-6.02586E-08 0.00000E+00
 -1       805 1.08096E-06-2.59134E-08 0.00000E+00
 -1       806 1.26386E-05-6.62010E-08 0.00000E+00
 -1       807 1.25432E-05 5.10691E-08-8.27181E-25
 -1       808 1.24518E-05 1.56470E-07 1.65436E-24
 -1       809 1.23637E-05 2.52605E-07-8.27181E-25
 -1       810 1.22781E-05 3.42065E-07 0.00000E+00
 -1       811 1.21940E-05 4.27423E-07-8.27181E-25
 -1       812 1.21104E-05 5.11250E-07 1.65436E-24
 -1       813 1.20264E-05 5.96113E-07 0.00000E+00
 -1       814 1.19411E-05 6.84581E-07 0.00000E+00
 -1       815 1.18535E-05 7.79222E-07-8.27181E-25
 -1       816 1.17626E-05 8.82600E-07 0.00000E+00
 -1       817 1.16675E-05 9.97286E-07 4.13590E-25
 -1       818 1.15672E-05 1.12585E-06 8.27181E-25
 -1       819 1.14609E-05 1.27085E-06 0.00000E+00
 -1       820 1.13477E-05 1.43488E-06 0.00000E+00
 -1       821 1.32815E-05 1.28167E-06-4.13590E-25
 -1       822 1.32416E-05 1.57487E-06-4.13590E-25
 -1       823 1.32017E-05 1.91684E-06 0.00000E+00
 -1       824 1.31615E-05 2.30179E-06-4.13590E-25
 -1       825 1.31212E-05 2.72395E-06-8.27181E-25
 -1       826 1.30808E-05 3.17753E-06 0.00000E+00
 -1       827 1.30404E-05 3.65670E-06-1.65436E-24
 -1       828 1.29999E-05 4.15567E-06-8.27181E-25
 -1       829 1.29595E-05 4.66861E-06 0.00000E+00
 -1       830 1.29190E-05 5.18969E-06 8.27181E-25
 -1       831 1.28786E-05 5.71309E-06 0.00000E+00
 -1       832 1.28382E-05 6.23298E-06 0.00000E+00
 -1       833 1.27979E-05 6.74352E-06 0.00000E+00
 -1       834 1.27579E-05 7.23891E-06 0.00000E+00
 -1       835 1.27178E-05 7.71331E-06 0.00000E+00
 -1       836 1.30453E-05 1.13746E-06 0.00000E+00
 -1       837 1.26871E-05 1.23530E-06 0.00000E+00
 -1       838 1.22853E-05 1.33297E-06 0.00000E+00
 -1       839 1.18809E-05 1.43039E-06-8.27181E-25
 -1       840 1.15147E-05 1.52796E-06 0.00000E+00
 -1       841 1.32300E-05 1.28137E-06 0.00000E+00
 -1       842 1.31178E-05 1.57945E-06 5.16988E-26
 -1       843 1.29858E-05 1.93051E-06 0.00000E+00
 -1       844 1.28364E-05 2.32755E-06 6.46235E-27
 -1       845 1.26724E-05 2.76364E-06 4.03897E-28
 -1       846 1.24963E-05 3.23178E-06 0.00000E+00
 -1       847 1.23108E-05 3.72497E-06 0.00000E+00
 -1       848 1.21185E-05 4.23620E-06 0.00000E+00
 -1       849 1.19221E-05 4.75844E-06 0.00000E+00
 -1       850 1.17241E-05 5.28466E-06 1.29247E-26
 -1       851 1.15274E-05 5.80782E-06-2.58494E-26
 -1       852 1.13343E-05 6.32089E-06 0.00000E+00
 -1       853 1.11477E-05 6.81684E-06 0.00000E+00
 -1       854 1.09700E-05 7.28860E-06 1.03398E-25
 -1       855 1.08040E-05 7.72925E-06 0.00000E+00
 -1       856 1.26342E-05 8.64236E-06 4.13590E-25
 -1       857 1.25864E-05 9.21177E-06 4.13590E-25
 -1       858 1.25386E-05 9.85767E-06-1.65436E-24
 -1       859 1.24904E-05 1.05685E-05 0.00000E+00
 -1       860 1.24421E-05 1.13326E-05-1.65436E-24
 -1       861 1.23938E-05 1.21384E-05 8.27181E-25
 -1       862 1.23453E-05 1.29742E-05 0.00000E+00
 -1       863 1.22969E-05 1.38284E-05 8.27181E-25
 -1       864 1.22485E-05 1.46892E-05 0.00000E+00
 -1       865 1.22000E-05 1.55452E-05 8.27181E-25
 -1       866 1.21516E-05 1.63845E-05 0.00000E+00
 -1       867 1.21032E-05 1.71955E-05 0.00000E+00
 -1       868 1.20550E-05 1.79667E-05 1.65436E-24
 -1       869 1.20069E-05 1.86863E-05 0.00000E+00
 -1       870 1.19589E-05 1.93427E-05 0.00000E+00
 -1       871 1.23023E-05 8.15674E-06 0.00000E+00
 -1       872 1.19562E-05 8.15213E-06 0.00000E+00
 -1       873 1.16299E-05 8.14740E-06 0.00000E+00
 -1       874 1.13114E-05 8.14251E-06 0.00000E+00
 -1       875 1.09891E-05 8.13741E-06 0.00000E+00
 -1       876 1.25668E-05 8.65860E-06 0.00000E+00
 -1       877 1.24284E-05 9.23208E-06 0.00000E+00
 -1       878 1.22655E-05 9.87076E-06 0.00000E+00
 -1       879 1.20821E-05 1.05652E-05 0.00000E+00
 -1       880 1.18814E-05 1.13057E-05 1.65436E-24
 -1       881 1.16671E-05 1.20827E-05-8.27181E-25
 -1       882 1.14427E-05 1.28867E-05-1.65436E-24
 -1       883 1.12117E-05 1.37082E-05-8.27181E-25
 -1       884 1.09776E-05 1.45377E-05 1.65436E-24
 -1       885 1.07442E-05 1.53657E-05 0.00000E+00
 -1       886 1.05148E-05 1.61827E-05 0.00000E+00
 -1       887 1.02931E-05 1.69793E-05 0.00000E+00
 -1       888 1.00825E-05 1.77458E-05 0.00000E+00
 -1       889 9.88635E-06 1.84727E-05-8.27181E-25
 -1       890 9.70867E-06 1.91505E-05-8.27181E-25
 -1       891 1.14476E-05 1.98986E-05-8.27181E-25
 -1       892 1.10753E-05 1.98724E-05 4.13590E-25
 -1       893 1.07474E-05 1.98462E-05 0.00000E+00
 -1       894 1.04159E-05 1.98201E-05 4.13590E-25
 -1       895 1.00326E-05 1.97940E-05 0.00000E+00
 -1       896 1.06408E-07 6.10500E-07 0.00000E+00
 -1       897 2.13489E-07 1.29612E-06 0.00000E+00
 -1       898 3.20490E-07 2.03167E-06-3.30872E-24
 -1       899 4.27610E-07 2.79216E-06 0.00000E+00
 -1       900 5.34727E-07 3.55903E-06 0.00000E+00
 -1       901 6.41881E-07 4.31377E-06-1.65436E-24
 -1       902 7.49060E-07 5.03472E-06 3.30872E-24
 -1       903 8.56273E-07 5.70006E-06 0.00000E+00
 -1       904 9.63536E-07 6.27369E-06 0.00000E+00
 -1       905 1.07083E-06 6.71906E-06-1.65436E-24
 -1       906 1.17817E-06 6.96664E-06-3.30872E-24
 -1       907 1.28539E-06 6.94598E-06 0.00000E+00
 -1       908 1.39249E-06 6.51765E-06-3.30872E-24
 -1       909 1.49848E-06 5.54029E-06 0.00000E+00
 -1       910 1.60357E-06 3.73168E-06-1.65436E-24
 -1       911 1.70559E-06-1.84566E-06 0.00000E+00
 -1       912 1.71176E-06-2.82782E-06 0.00000E+00
 -1       913 1.71840E-06-2.43932E-06 0.00000E+00
 -1       914 1.72405E-06-9.78180E-07 1.03398E-25
 -1       915 1.72833E-06 1.27352E-06 0.00000E+00
 -1       916 1.73138E-06 4.03389E-06 0.00000E+00
 -1       917 1.73380E-06 7.02859E-06 2.06795E-25
 -1       918 1.73632E-06 9.98341E-06 0.00000E+00
 -1       919 1.73967E-06 1.26235E-05 2.06795E-25
 -1       920 1.74434E-06 1.46739E-05 1.03398E-25
 -1       921 1.75030E-06 1.58509E-05 0.00000E+00
 -1       922 1.75687E-06 1.58706E-05 0.00000E+00
 -1       923 1.76235E-06 1.44319E-05-2.58494E-26
 -1       924 1.76359E-06 1.12333E-05-5.16988E-26
 -1       925 1.75632E-06 5.94747E-06-4.13590E-25
 -1       926 1.60570E-06-1.08017E-05-1.65436E-24
 -1       927 1.47491E-06-2.01019E-05 0.00000E+00
 -1       928 1.34897E-06-2.88469E-05 0.00000E+00
 -1       929 1.23318E-06-3.62319E-05 0.00000E+00
 -1       930 1.12898E-06-4.17048E-05 0.00000E+00
 -1       931 1.03473E-06-4.47207E-05 0.00000E+00
 -1       932 9.44685E-07-4.51912E-05 0.00000E+00
 -1       933 8.52485E-07-4.30376E-05 0.00000E+00
 -1       934 7.53512E-07-3.86682E-05-3.30872E-24
 -1       935 6.45374E-07-3.25000E-05 1.65436E-24
 -1       936 5.30635E-07-2.52844E-05 3.30872E-24
 -1       937 4.13651E-07-1.77766E-05 0.00000E+00
 -1       938 3.00163E-07-1.07862E-05-3.30872E-24
 -1       939 1.93869E-07-5.12066E-06 1.65436E-24
 -1       940 9.62338E-08-1.34086E-06 3.30872E-24
 -1       941 6.65441E-07 1.11075E-07 6.61744E-24
 -1       942 1.36764E-06 2.09188E-07-6.61744E-24
 -1       943 2.06750E-06 3.00168E-07 1.32349E-23
 -1       944 2.77437E-06 3.89615E-07 1.32349E-23
 -1       945 3.48143E-06 4.78218E-07-2.64698E-23
 -1       946 4.18989E-06 5.66644E-07 1.32349E-23
 -1       947 4.89851E-06 6.54977E-07 0.00000E+00
 -1       948 5.60737E-06 7.43299E-07 1.32349E-23
 -1       949 6.31625E-06 8.31665E-07-2.64698E-23
 -1       950 7.02495E-06 9.20125E-07 0.00000E+00
 -1       951 7.73353E-06 1.00904E-06 0.00000E+00
 -1       952 8.44100E-06 1.09879E-06-1.32349E-23
 -1       953 9.14831E-06 1.19243E-06 0.00000E+00
 -1       954 9.84999E-06 1.29315E-06-6.61744E-24
 -1       955 1.05536E-05 1.42686E-06 0.00000E+00
 -1       956 1.11923E-05 1.87820E-06 0.00000E+00
 -1       957 1.11564E-05 2.17539E-06 3.10193E-25
 -1       958 1.11204E-05 2.50815E-06 4.13590E-25
 -1       959 1.10843E-05 2.87224E-06 2.06795E-25
 -1       960 1.10481E-05 3.26341E-06 4.13590E-25
 -1       961 1.10120E-05 3.67740E-06-4.13590E-25
 -1       962 1.09758E-05 4.10992E-06-8.27181E-25
 -1       963 1.09397E-05 4.55671E-06-4.13590E-25
 -1       964 1.09035E-05 5.01348E-06-8.27181E-25
 -1       965 1.08673E-05 5.47595E-06 0.00000E+00
 -1       966 1.08312E-05 5.93986E-06 0.00000E+00
 -1       967 1.07950E-05 6.40091E-06-8.27181E-25
 -1       968 1.07589E-05 6.85483E-06-1.65436E-24
 -1       969 1.07228E-05 7.29736E-06 0.00000E+00
 -1       970 1.06868E-05 7.72425E-06 1.65436E-24
 -1       971 1.05844E-05 8.56845E-06-1.65436E-24
 -1       972 1.05155E-05 9.09932E-06 0.00000E+00
 -1       973 1.04467E-05 9.71235E-06 0.00000E+00
 -1       974 1.03775E-05 1.03958E-05 8.27181E-25
 -1       975 1.03082E-05 1.11377E-05-1.65436E-24
 -1       976 1.02389E-05 1.19265E-05 0.00000E+00
 -1       977 1.01695E-05 1.27500E-05 0.00000E+00
 -1       978 1.01001E-05 1.35966E-05 8.27181E-25
 -1       979 1.00307E-05 1.44542E-05 0.00000E+00
 -1       980 9.96131E-06 1.53110E-05 0.00000E+00
 -1       981 9.89194E-06 1.61550E-05-1.65436E-24
 -1       982 9.82267E-06 1.69745E-05 8.27181E-25
 -1       983 9.75347E-06 1.77574E-05 0.00000E+00
 -1       984 9.68470E-06 1.84919E-05 8.27181E-25
 -1       985 9.61593E-06 1.91662E-05 0.00000E+00
 -3
    1PSTEP                        34          17           1          
  100CL  117 2.67522E-01         841                     0   17           1
 -4  STRESS      6    1
 -5  SXX         1    4    1    1
 -5  SYY         1    4    2    2
 -5  SZZ         1    4    3    3
 -5  SXY         1    4    1    2
 -5  SYZ         1    4    2    3
 -5  SZX         1    4    3    1
 -1         1-1.10398E+06-3.58534E+05-2.27585E+05-3.22964E+05-1.28542E-10-2.75516E-09
 -1         2-6.63603E+05-3.19024E+04 2.68070E+03-5.45099E+04-6.62851E-10-1.46565E-09
 -1         3-3.72530E+05-1.21458E+05-1.87999E+04-1.91505E+04 9.88848E-10-1.26920E-09
 -1         4-2.45948E+05-3.42459E+04 3.91248E+02-2.91800E+04-3.95772E-10-1.42948E-09
 -1         5-1.33400E+05 3.82130E+04-5.56050E+04-2.67305E+03 4.55839E-09 2.01567E-10
 -1         8-5.64342E+05-2.24744E+05-8.01912E+04-2.11597E+05 9.27685E-11 1.10958E-10
 -1         9-5.99685E+05-1.39563E+05-6.89712E+04-1.40563E+05 1.39456E-10 5.26294E-10
 -1        10-2.17776E+05-1.34920E+05 4.87812E+03-4.64845E+04-2.85877E-09 1.99786E-10
 -1        11-1.55027E+05-3.63603E+04 2.59738E+03-4.40957E+04-1.11804E-08-7.23238E-11
 -1        12-1.38722E+05 2.94976E+04-5.80380E+04-1.97881E+04 1.30740E-09 6.05317E-10
 -1        15 5.99926E+03-1.07211E+04 2.92924E+03-3.07806E+04-2.51475E-10 3.24872E-09
 -1        16-3.80321E+05-5.19877E+04 2.01958E+04-1.60935E+05 3.66526E-10 1.99975E-09
 -1        17-2.22278E+05-1.42374E+05-2.41732E+04-1.18478E+05-1.64800E-09 4.24431E-11
 -1        18-3.18536E+04-2.46098E+04-1.94477E+04-4.27396E+04 2.80996E-09-1.10686E-09
 -1        19-4.64883E+03 3.29693E+04-1.59788E+04-1.07692E+04-4.25340E-10 6.61203E-10
 -1        20 3.55894E+04-2.69328E+04-4.64189E+03 1.93662E+04 1.32843E-09 4.48154E-10
 -1        21 5.97208E+02-5.34392E+04 1.48479E+04 1.00305E+01 3.17016E-09-6.46957E-10
 -1        22 1.36810E+04 6.38184E+04 1.18340E+03-1.43167E+04-3.51974E-10-4.49290E-10
 -1        23-7.76203E+04 4.23264E+04 4.97721E+03-2.60472E+04-3.22105E-09-2.06061E-09
 -1        24-1.02969E+05-7.06898E+03 9.44418E+04-1.74422E+05-5.68616E-09 7.85803E-10
 -1        25 2.09512E+05 6.90480E+04 6.40241E+04-1.06093E+05 4.38376E-10-1.16112E-10
 -1        26 8.33090E+02 5.65835E+04 2.84231E+03-9.94606E+03-2.89712E-10 1.07699E-10
 -1        27-1.22146E+04-2.24816E+04-9.68460E+03 2.72286E+04 2.99224E-10-8.14301E-10
 -1        28-4.28087E+03-4.24811E+04-2.32729E+02 2.04982E+04-1.92034E-09-1.39314E-09
 -1        29 1.48487E+05 1.10283E+05 4.76854E+02 8.43267E+02 2.95997E-11 3.05818E-10
 -1        30 2.07895E+04 1.56212E+04 1.27737E+03-1.59820E+04 4.89967E-10-3.47973E-09
 -1        31-9.25582E+04 1.45706E+04 5.78445E+03-2.95578E+04 2.95377E-09-1.21363E-08
 -1        32 3.43434E+05 1.77808E+05 2.19878E+05-1.74159E+05 3.43873E-09 8.84029E-10
 -1        33 4.95637E+05 1.96674E+05 1.51602E+05-1.50885E+04-9.98275E-09 6.21185E-10
 -1        34-7.16221E+04-8.86842E+03-1.49001E+03 1.59371E+04-8.22027E-10-7.33280E-10
 -1        35-1.21568E+04-1.42142E+04-2.53242E+02 3.07345E+04 2.30647E-09-8.51893E-10
 -1        36-1.42714E+06 4.28533E+04-9.90301E+04-1.67879E-07-6.69068E-10 6.18456E-10
 -1        37-1.47002E+06-4.96053E+04-7.00868E+04-1.18794E-07-9.64478E-10-1.23873E-09
 -1        38-1.44369E+06 6.71714E+03-2.56275E+04-3.49451E-08-9.42719E-10-4.00178E-10
 -1        39-1.45070E+06-7.77318E+03-1.61172E+04 1.53240E-07-4.83818E-10-2.51885E-09
 -1        40-1.44641E+06 1.05068E+03-6.58430E+03-7.06502E-08-9.29327E-11 1.08525E-09
 -1        41-1.44751E+06-1.23023E+03-3.92791E+03-1.73781E-07-1.48781E-09-1.26232E-09
 -1        42-1.44686E+06 1.78832E+02-1.91318E+03 9.85514E-08-2.56876E-09 8.49070E-10
 -1        43-1.44703E+06-3.10881E+02-1.50275E+03-4.54514E-09-3.12914E-09 4.20471E-10
 -1        44-1.44689E+06 1.31920E+02-1.49342E+03-4.30298E-09-9.69517E-10-6.76039E-10
 -1        45-1.44729E+06-8.26868E+02-2.71252E+03-4.50912E-08-2.01354E-09-2.45907E-09
 -1        46-1.44660E+06 6.94473E+02-4.39683E+03 8.50942E-10-8.43747E-10-5.26143E-10
 -1        47-1.44939E+06-5.12461E+03-1.06508E+04 1.16021E-08 1.57625E-09 7.08269E-10
 -1        48-1.44481E+06 4.42657E+03-1.69023E+04-1.31849E-07 2.60575E-09-1.32877E-09
 -1        49-1.46211E+06-3.26884E+04-4.61918E+04-1.05759E-07-5.84152E-10 2.31739E-09
 -1        50-1.43390E+06 2.82376E+04-6.52693E+04-1.14582E-07-3.71863E-09 1.62254E-09
 -1        51 1.24412E+04-1.49189E+05 1.97606E+04-3.89796E+05 5.82077E-11 6.80302E-09
 -1        52 5.15278E+03-1.46694E+05 1.18973E+04-4.29057E+05-5.82077E-11 2.31157E-08
 -1        53 2.97252E+03-1.49681E+05 9.58198E+03-3.88806E+05-2.54659E-11 1.25401E-08
 -1        54 7.23727E+03-1.47547E+05 1.45383E+04-4.30143E+05-2.76486E-10 9.44056E-10
 -1        55 1.81114E+04-1.51936E+05 2.64045E+04-3.88659E+05-3.63798E-11 4.74756E-10
 -1        56-1.73496E+06-1.95909E+05-1.43172E+05-6.71317E+05 2.18279E-10 1.36060E-09
 -1        57-1.80209E+06-3.12529E+05-9.60323E+04-6.54684E+05 4.23370E-10-2.25555E-09
 -1        58-1.76265E+06-2.41181E+05-3.37296E+04-6.63659E+05 1.54614E-11-2.36105E-09
 -1        59-1.77020E+06-2.59169E+05-1.99965E+04-6.63869E+05 6.82689E-10 1.31104E-09
 -1        60-1.76653E+06-2.47475E+05-7.88921E+03-6.62773E+05 3.34126E-10-1.20463E-09
 -1        61-1.76583E+06-2.51672E+05-4.46521E+03-6.64784E+05 4.50740E-10 3.29243E-09
 -1        62-1.76696E+06-2.48454E+05-2.17832E+03-6.62819E+05-2.87514E-10 3.11798E-09
 -1        63-1.76558E+06-2.50475E+05-1.82455E+03-6.64528E+05 7.18728E-10 1.11930E-09
 -1        64-1.76678E+06-2.48649E+05-2.12321E+03-6.63035E+05 5.78041E-10 1.05518E-09
 -1        65-1.76655E+06-2.50878E+05-4.30214E+03-6.63930E+05 3.79671E-10-1.92836E-09
 -1        66-1.76600E+06-2.48075E+05-7.58057E+03-6.63409E+05 3.98700E-10-9.34961E-10
 -1        67-1.77142E+06-2.57387E+05-1.91977E+04-6.62266E+05-1.00687E-09 1.30649E-09
 -1        68-1.76195E+06-2.42356E+05-3.23800E+04-6.64627E+05 2.12367E-10-5.25688E-10
 -1        69-1.80261E+06-3.08031E+05-9.21815E+04-6.52790E+05 1.08685E-10-2.43381E-09
 -1        70-1.73512E+06-1.99152E+05-1.37437E+05-6.72267E+05-9.76797E-10-1.91358E-09
 -1        71-7.14072E+05 1.90338E+02-4.41483E+02 6.26084E-08-9.62120E-10 1.09094E-09
 -1        72-7.14199E+05-2.20497E+02-3.14849E+02 1.23911E-08-1.27523E-09 7.77845E-10
 -1        73-7.14145E+05 2.99854E+01-1.20912E+02-5.59474E-08-3.61112E-11-1.72073E-09
 -1        74-7.14114E+05-3.57133E+01-8.64901E+01 3.66496E-08 6.20470E-10 5.25301E-10
 -1        75-7.14157E+05 5.70373E+00-5.77815E+01 1.61375E-07-9.03558E-11 1.29238E-09
 -1        76-7.14105E+05-1.34028E+01-7.84469E+01 7.74482E-08-3.64975E-10 1.46466E-09
 -1        77-7.14155E+05 7.69501E+00-1.22783E+02 6.67415E-08 5.00908E-12-4.37929E-10
 -1        78-7.14129E+05-5.33501E+01-2.58260E+02 1.66902E-07-6.46022E-10-1.39264E-09
 -1        79-7.14133E+05 4.56329E+01-4.62687E+02 5.64068E-08 1.32601E-10 1.56305E-09
 -1        80-7.14280E+05-3.39611E+02-1.06235E+03 4.03794E-08 3.57226E-10-1.37121E-10
 -1        81-7.14004E+05 2.93773E+02-1.82863E+03-1.73690E-08-3.23687E-10-4.53156E-10
 -1        82-7.15176E+05-2.17759E+03-4.51012E+03-2.09372E-08 1.46343E-10-1.07553E-09
 -1        83-7.13238E+05 1.88228E+03-7.18240E+03-1.86217E-07-1.34315E-10-1.32877E-09
 -1        84-7.20588E+05-1.39010E+04-1.96451E+04 3.89329E-08-2.07239E-09 3.58796E-10
 -1        85-7.08598E+05 1.20080E+04-2.77662E+04 8.41894E-08-1.08670E-09-5.98448E-10
 -1        86-3.18073E+04 9.74466E+04 7.47907E+04 5.44132E+02 3.63798E-12 2.24283E-10
 -1        87 3.97711E+04 1.31033E+05 5.81359E+04-2.29134E+03-2.03727E-10-6.81750E-10
 -1        88-7.92997E+03 1.08408E+05 2.99171E+04 3.83853E+02-4.35193E-10 7.31164E-10
 -1        89 2.79875E+04 1.25509E+05 4.27726E+04-2.13438E+03-9.89075E-11 2.30928E-10
 -1        90-2.00330E+04 1.02965E+05 4.83904E+04 3.87189E+02-5.22050E-10 7.00551E-10
 -1        91-6.90102E+05-1.07215E+05-9.84498E+03-2.73616E+05 6.96332E-09-6.66660E-10
 -1        92-6.96625E+05-6.80590E+04-1.01961E+02-2.18249E+05 1.52184E-08-2.58808E-10
 -1        93-6.72792E+05-1.09102E+05-1.74277E+03-2.73836E+05-1.55687E-09-1.66426E-09
 -1        94-6.72855E+05-7.26185E+04 6.13890E+03-2.23714E+05-1.12757E-08 2.17688E-09
 -1        95-7.13538E+05-1.02989E+05-7.11140E+03-2.67857E+05-2.43608E-09 1.56319E-11
 -1        96-6.37353E+05-9.95028E+04 8.34954E+03-2.54453E+05 1.88679E-08 2.61337E-09
 -1        97-7.08129E+05-8.23812E+04-2.02034E+03-2.42964E+05-1.71553E-10 2.52336E-09
 -1        98-6.44279E+05-1.20296E+05 2.89389E+03-2.80654E+05-6.02071E-09 5.85936E-09
 -1        99-7.07151E+05-8.16560E+04-1.97881E+03-2.42115E+05 8.07432E-09 3.05494E-09
 -1       100-6.37504E+05-1.01122E+05 7.27712E+03-2.55980E+05 6.05110E-09 4.88446E-09
 -1       101-7.14388E+05-1.02073E+05-8.67678E+03-2.67198E+05-1.88822E-09 9.19613E-10
 -1       102-6.72072E+05-7.54480E+04 2.35350E+03-2.23993E+05-4.19868E-09 8.77890E-10
 -1       103-6.72700E+05-1.07218E+05-8.43531E+03-2.74192E+05-9.54344E-09-1.43382E-09
 -1       104-7.05225E+05-8.16657E+04-1.95119E+04-2.15558E+05 6.56314E-10 3.47654E-10
 -1       105-6.81616E+05-9.54896E+04-3.73388E+04-2.75961E+05 3.92447E-09 3.19596E-09
 -1       106-5.25994E+05 4.89784E+03-1.13278E+04 1.30934E-07 7.12201E-10-7.80801E-10
 -1       107-5.30863E+05-5.67015E+03-8.01625E+03 5.20084E-08-1.10180E-10-2.97064E-10
 -1       108-5.27886E+05 7.67864E+02-2.93561E+03-1.60058E-07-1.59757E-10-1.16779E-09
 -1       109-5.28657E+05-8.89140E+02-1.85158E+03-2.68734E-08-5.05344E-11-2.89521E-09
 -1       110-5.28198E+05 1.20642E+02-7.68459E+02-8.87621E-08-4.90063E-10 3.12610E-10
 -1       111-5.28295E+05-1.44758E+02-4.81342E+02 9.34143E-08-6.22381E-11-2.60265E-10
 -1       112-5.28248E+05 2.40323E+01-2.78567E+02-3.14928E-08-1.58454E-11 2.16403E-10
 -1       113-5.28254E+05-6.25721E+01-3.03010E+02-8.33806E-08-3.31127E-10 2.02473E-09
 -1       114-5.28239E+05 3.85138E+01-4.08350E+02 6.41711E-08-2.06878E-10-4.20741E-10
 -1       115-5.28362E+05-2.69272E+02-8.56994E+02 1.43154E-07 1.49437E-10-2.10230E-09
 -1       116-5.28140E+05 2.30598E+02-1.44457E+03 1.23466E-09 5.51067E-10-3.13264E-10
 -1       117-5.29062E+05-1.70671E+03-3.54036E+03 3.26104E-08-7.07063E-10 8.22979E-10
 -1       118-5.27540E+05 1.47489E+03-5.63140E+03 9.76614E-08-7.48735E-10 1.11413E-11
 -1       119-5.33302E+05-1.08920E+04-1.53952E+04 1.82175E-07 2.76916E-10-8.26731E-10
 -1       120-5.23904E+05 9.40876E+03-2.17579E+04 3.45259E-08 6.65136E-11 4.69299E-10
 -1       121-5.41683E+02-3.73463E+05 2.51110E+03 4.54370E+03-1.63936E-10-3.26509E-10
 -1       122 7.60214E+02-3.72516E+05 1.63632E+03 1.62455E+04-3.56749E-10-3.98495E-09
 -1       123-7.10256E+01-3.73092E+05 7.34524E+02 4.58489E+03-5.36488E-10 5.20686E-10
 -1       124 1.76585E+02-3.72837E+05 5.92829E+02 1.61140E+04-1.10958E-09 4.61830E-09
 -1       125-1.10851E+02-3.73104E+05 5.15706E+02 4.67525E+03-1.12993E-09 1.89038E-09
 -1       126-2.82543E+05-4.75631E+04 4.41312E+03-1.08298E+05 9.10069E-09 5.65706E-10
 -1       127-2.59172E+05-2.02228E+04 9.57384E+03-8.43669E+04 1.63268E-08 1.44598E-09
 -1       128-2.65420E+05-4.56228E+04 1.16307E+03-1.09763E+05 7.45831E-09-1.22600E-09
 -1       129-2.79778E+05-2.24672E+04 1.80688E+03-8.31748E+04 1.43171E-08 7.65681E-11
 -1       130-2.62213E+05-4.51171E+04 3.13095E+02-1.09706E+05 1.91002E-08 5.70296E-10
 -1       131-2.69110E+05-2.41056E+04 2.80544E+03-8.30018E+04-2.41020E-08-3.16071E-09
 -1       132-2.75920E+05-4.41098E+04-2.47214E+03-1.09803E+05-7.45808E-09 2.09164E-09
 -1       133-2.44837E+05-2.97941E+04 6.20881E+03-8.72057E+04 2.08379E-08 8.68866E-10
 -1       134-2.86167E+05-3.96670E+04-3.74097E+03-1.05258E+05 1.93711E-09-9.61990E-10
 -1       135-2.39335E+05-4.10232E+04 4.87585E+03-1.00619E+05-1.66824E-09-1.47753E-09
 -1       136-2.81513E+05-3.28139E+04-1.94945E+03-9.64669E+04-5.98328E-09-3.02798E-11
 -1       137-2.49874E+05-5.12551E+04 2.40251E+01-1.14102E+05-1.06736E-08-2.25283E-09
 -1       138-2.75974E+05-2.91764E+04-1.88709E+03-9.20320E+04 1.41726E-08 3.21791E-09
 -1       139-2.51040E+05-5.36741E+04-4.25173E+03-1.13139E+05-1.60636E-08-1.46385E-08
 -1       140-2.80333E+05-3.04076E+04-1.03873E+04-9.74188E+04-1.23268E-08-2.28283E-09
 -1       141-2.53484E+05-1.11735E+03 2.58257E+03-1.19154E-08-2.12948E-10 9.92486E-11
 -1       142-2.52340E+05 1.29331E+03 1.82359E+03-4.44382E-08 3.01384E-10 1.35316E-09
 -1       143-2.53052E+05-1.74942E+02 6.58805E+02-1.12274E-07 5.30087E-11 9.07221E-11
 -1       144-2.52844E+05 2.00972E+02 3.98990E+02 1.13475E-07-3.46657E-10-9.33881E-10
 -1       145-2.52979E+05-2.58823E+01 1.30219E+02-2.54725E-08-1.60951E-10-3.69155E-10
 -1       146-2.52934E+05 2.04630E+01 1.32478E+01 1.02357E-07 1.45480E-10-5.68072E-10
 -1       147-2.52962E+05 5.43727E+00-1.17447E+02-1.44264E-08 2.64015E-11 1.25063E-09
 -1       148-2.52985E+05-6.79654E+01-3.29304E+02-7.06172E-08 3.00666E-10 2.25879E-09
 -1       149-2.52928E+05 6.24996E+01-6.29086E+02-7.03097E-08-4.09742E-10 3.25400E-10
 -1       150-2.53198E+05-4.70177E+02-1.46752E+03-7.91786E-08-4.71697E-10-2.45430E-09
 -1       151-2.52749E+05 4.07397E+02-2.53488E+03-7.44452E-08-2.65221E-10-5.53655E-10
 -1       152-2.54441E+05-3.02051E+03-6.25704E+03-3.15838E-08 1.20682E-10 2.36128E-10
 -1       153-2.51686E+05 2.61098E+03-9.96607E+03 6.87319E-08 1.23064E-09 9.27230E-10
 -1       154-2.61947E+05-1.92826E+04-2.72550E+04-2.86526E-08 5.13457E-10-4.90218E-10
 -1       155-2.45245E+05 1.66570E+04-3.85187E+04-1.48184E-08 2.67157E-09 1.83718E-10
 -1       156-8.95131E+03-5.95895E+04 2.05165E+04 5.41820E+03 1.77079E-09 2.25072E-10
 -1       157 1.10713E+04-4.67329E+04 1.66674E+04-2.17802E+04 4.82464E-09 5.96462E-10
 -1       158-2.06347E+03-5.59758E+04 8.39719E+03 5.44536E+03 2.38424E-09-1.47378E-09
 -1       159 8.88081E+03-3.99934E+04 1.45981E+04-2.11032E+04 9.48830E-10-9.05047E-10
 -1       160-6.90639E+03-6.61318E+04 1.23270E+04 4.74176E+03-3.68937E-09-1.73929E-09
 -1       161-2.54280E+05-3.54336E+04-6.68728E+02-9.53852E+04-1.18990E-09 4.32209E-10
 -1       162-2.54348E+05-3.62972E+04-4.64797E+02-9.55502E+04-3.55151E-08 1.60606E-08
 -1       163-2.54465E+05-3.56205E+04-1.62095E+02-9.52793E+04-1.30252E-05 4.87913E-06
 -1       164-2.54148E+05-3.60669E+04-1.10444E+02-9.56551E+04-2.59788E-05 9.73775E-06
 -1       165-2.54480E+05-3.56636E+04-6.19817E+01-9.52804E+04-1.30251E-05 4.88208E-06
 -1       166-2.54194E+05-3.59657E+04-7.93406E+01-9.55841E+04-3.74470E-08 1.45887E-08
 -1       167-2.54420E+05-3.57217E+04-1.21520E+02-9.53502E+04-6.06598E-10 1.45206E-09
 -1       168-2.54373E+05-3.58770E+04-2.72672E+02-9.54092E+04 3.71422E-10 4.01982E-10
 -1       169-2.54301E+05-3.57525E+04-4.94717E+02-9.54552E+04-6.85262E-10-7.31688E-10
 -1       170-2.54778E+05-3.61264E+04-1.23906E+03-9.51650E+04 2.28290E-09-1.02483E-09
 -1       171-2.54014E+05-3.54725E+04-2.14153E+03-9.55944E+04-1.05146E-09 9.16316E-10
 -1       172-2.56392E+05-3.86184E+04-5.77371E+03-9.45976E+04 2.65032E-10-1.88811E-09
 -1       173-2.52688E+05-3.32621E+04-9.24398E+03-9.60225E+04 1.82831E-09-2.71257E-09
 -1       174-2.65731E+05-5.50732E+04-2.73903E+04-9.15291E+04 5.03860E-10-4.04725E-10
 -1       175-2.44678E+05-1.90282E+04-3.94483E+04-9.86597E+04 1.69166E-10 1.22964E-09
 -1       191 4.42152E+02 1.89113E+05 7.06555E+02-5.07117E+03-2.50111E-10 1.19144E-09
 -1       192 1.62871E+02 1.89211E+05 4.19553E+02-5.42984E+03-3.34296E-10 7.88987E-10
 -1       193 7.62461E+01 1.89147E+05 3.32879E+02-4.98720E+03-6.54524E-10 3.43334E-09
 -1       194 2.06811E+02 1.89223E+05 4.97872E+02-5.58679E+03-7.63066E-10 1.54068E-09
 -1       195 5.77885E+02 1.89095E+05 9.01461E+02-4.91398E+03-9.91349E-10-1.07320E-10
 -1       251-8.86191E+05 1.63129E+04-4.73414E+04-2.02552E+04-1.23509E-09-3.62343E-09
 -1       252-8.58739E+05-1.99481E+04-2.52161E+04 5.57173E+04-1.45577E-09 5.58475E-09
 -1       253-8.77077E+05 4.02937E+03-1.18765E+04-2.66149E+04-2.64771E-09-6.39011E-09
 -1       254-8.26116E+05-1.82797E+03 2.85167E+03 3.52564E+04 1.34844E-09 1.12129E-09
 -1       255-9.18020E+05-2.57348E+03-1.20252E+04 2.08191E+02 1.32968E-09-1.22930E-09
 -1       256-8.18465E+05 1.56879E+03 9.43666E+03-2.14978E+04-1.48646E-10-2.76046E-09
 -1       257-8.84516E+05 4.27349E+02-2.98295E+03 3.01252E+04-7.66818E-10 7.41619E-09
 -1       258-8.52003E+05-2.95812E+02 3.34503E+03-5.10113E+04-1.80611E-11-9.36350E-09
 -1       259-8.85519E+05 3.23173E+02-3.18704E+03 2.97373E+04-5.72265E-09 7.60471E-09
 -1       260-8.17650E+05 1.62601E+03 9.62514E+03-2.03481E+04-4.28417E-09-5.29769E-09
 -1       261-9.17806E+05-2.55095E+03-1.19431E+04-5.53539E+02 6.09816E-10 1.26693E-09
 -1       262-8.27068E+05-1.86119E+03 2.73484E+03 3.62733E+04 3.73007E-09 2.47951E-09
 -1       263-8.76369E+05 4.07003E+03-1.15820E+04-2.68700E+04-5.27541E-09-5.82895E-09
 -1       264-8.58217E+05-1.96354E+04-2.47441E+04 5.54490E+04-2.33710E-08 3.76895E-09
 -1       265-8.87409E+05 1.59473E+04-4.70305E+04-1.97317E+04-9.96351E-09-2.86673E-09
 -1       266-9.87107E+03-1.32425E+05 2.25803E+04-1.33404E+03 4.54747E-12-1.79310E-09
 -1       267 1.07727E+04-1.22524E+05 1.48515E+04 5.97817E+03 3.81988E-11-2.13697E-09
 -1       268-9.03136E+02-1.28569E+05 3.38352E+03-1.11763E+03-2.68301E-11-6.33449E-10
 -1       269-2.95898E+03-1.27870E+05-2.94393E+03 5.08908E+03-9.43601E-12 2.51680E-09
 -1       270 3.83018E+03-1.27056E+05-8.64189E+03-4.45091E+02 3.45608E-11 3.84685E-09
 -1       271-1.44874E+06-1.84113E+05-1.12340E+05-5.60134E+05-2.16460E-10-1.06229E-09
 -1       272-1.48498E+06-2.57388E+05-7.04324E+04-5.63845E+05-2.36980E-10-5.21413E-09
 -1       273-1.46811E+06-2.08279E+05-2.64938E+04-5.57411E+05-8.48317E-10-1.05319E-09
 -1       274-1.46254E+06-2.25457E+05-1.44624E+04-5.69012E+05-4.41105E-10-3.90855E-10
 -1       275-1.47044E+06-2.10633E+05-6.15850E+03-5.57015E+05-5.07725E-10-1.03455E-09
 -1       276-1.45981E+06-2.22459E+05-3.24691E+03-5.69741E+05-5.32623E-10-2.12367E-10
 -1       277-1.47081E+06-2.10786E+05-1.66730E+03-5.56884E+05-1.61549E-10-2.00316E-10
 -1       278-1.45941E+06-2.22294E+05-1.29822E+03-5.69934E+05 7.92397E-11-2.40728E-09
 -1       279-1.47085E+06-2.10755E+05-1.54604E+03-5.56848E+05 7.05086E-10 2.83308E-10
 -1       280-1.45966E+06-2.22542E+05-2.91685E+03-5.69898E+05 2.52129E-10-1.51340E-09
 -1       281-1.47057E+06-2.10566E+05-5.48052E+03-5.56909E+05-1.06297E-11-7.82165E-11
 -1       282-1.46201E+06-2.25289E+05-1.28519E+04-5.69359E+05-1.23578E-09-1.19576E-09
 -1       283-1.46854E+06-2.08436E+05-2.35261E+04-5.57219E+05-3.91765E-10 7.09406E-11
 -1       284-1.48187E+06-2.53716E+05-6.25476E+04-5.64857E+05 2.51362E-10 3.36331E-09
 -1       285-1.45137E+06-1.86941E+05-9.97590E+04-5.59599E+05-1.14596E-09-3.71074E-10
 -1       286-1.29522E+05-1.03306E+04 2.38878E+04-7.04075E+01 7.85192E-10-1.05865E-09
 -1       287-1.19062E+05 1.19595E+04 1.69152E+04-1.80085E+02 9.06226E-11-9.15861E-10
 -1       288-1.25525E+05-1.61997E+03 6.18236E+03 5.69978E+01-4.63913E-11 1.11640E-10
 -1       289-1.23731E+05 1.87465E+03 3.90032E+03-4.16952E+02-2.19803E-10 1.61617E-09
 -1       290-1.24855E+05-2.53684E+02 1.59468E+03 1.66468E+02 3.20451E-10-9.61961E-10
 -1       291-1.24520E+05 2.98444E+02 9.65989E+02-5.92516E+02 8.40334E-10 1.28765E-10
 -1       292-1.24737E+05-4.45298E+01 4.89553E+02 2.32565E+02 6.10905E-10 1.43970E-10
 -1       293-1.24641E+05 8.71694E+01 4.23961E+02-6.68286E+02 1.20414E-10 9.65892E-10
 -1       294-1.24735E+05-4.23254E+01 4.70652E+02 2.42240E+02 3.84559E-10 2.24971E-09
 -1       295-1.24535E+05 2.79908E+02 9.09211E+02-6.29346E+02 4.84387E-10 1.60853E-10
 -1       296-1.24843E+05-2.37257E+02 1.49524E+03 1.93624E+02 2.14747E-10-3.42197E-10
 -1       297-1.23799E+05 1.75342E+03 3.64867E+03-4.83455E+02 4.27535E-10-5.57918E-10
 -1       298-1.25470E+05-1.51512E+03 5.78351E+03 9.63460E+01 4.18268E-10-3.68118E-10
 -1       299-1.19427E+05 1.11861E+04 1.58214E+04-2.62598E+02 2.50298E-10-1.32241E-09
 -1       300-1.29212E+05-9.66248E+03 2.23422E+04-2.72393E+01 8.09017E-10 7.84894E-10
 -1       301 1.96867E+04 4.99440E+03 4.42162E+04-1.39970E+04-3.14685E-10-5.01217E-10
 -1       302 6.67276E+03 1.33487E+04 2.72143E+04-1.64779E+04-2.90584E-10-2.11151E-09
 -1       303 1.84552E+03 7.95564E+03 2.19694E+04-1.39988E+04-2.66255E-10-1.90221E-09
 -1       304 8.77181E+03 1.46139E+04 3.29091E+04-1.64627E+04-5.74346E-10-5.77757E-10
 -1       305 2.64694E+04 3.73365E+03 5.80089E+04-1.40064E+04-2.83762E-10 1.80569E-09
 -1       306-9.59609E+05-1.26177E+05-6.23919E+04-3.71998E+05 4.54293E-10 7.74889E-10
 -1       307-9.73342E+05-1.73158E+05-3.91022E+04-3.81313E+05-1.18405E-10-3.25099E-09
 -1       308-9.70408E+05-1.39530E+05-1.47198E+04-3.70446E+05 7.84439E-10 3.18050E-09
 -1       309-9.60872E+05-1.55482E+05-8.03757E+03-3.84255E+05-9.05061E-10 2.64390E-09
 -1       310-9.71713E+05-1.40823E+05-3.43410E+03-3.70222E+05-1.64778E-09 1.31695E-09
 -1       311-9.59374E+05-1.53812E+05-1.83093E+03-3.84664E+05 1.74316E-09 8.67337E-09
 -1       312-9.71910E+05-1.40917E+05-9.82155E+02-3.70163E+05-1.76129E-09 1.15279E-09
 -1       313-9.59200E+05-1.53690E+05-8.43910E+02-3.84730E+05-2.20104E-09 1.00187E-09
 -1       314-9.71898E+05-1.40921E+05-1.10776E+03-3.70170E+05-2.31375E-09 3.97677E-10
 -1       315-9.59439E+05-1.53828E+05-2.17594E+03-3.84627E+05-2.75577E-09 3.37968E-09
 -1       316-9.71653E+05-1.40810E+05-4.13637E+03-3.70245E+05-1.63254E-09 2.28783E-09
 -1       317-9.61252E+05-1.55857E+05-9.71666E+03-3.84142E+05-9.54060E-10 1.07798E-09
 -1       318-9.70083E+05-1.39234E+05-1.78036E+04-3.70505E+05-6.62453E-10 1.05592E-09
 -1       319-9.76312E+05-1.77279E+05-4.73079E+04-3.80631E+05-7.48408E-10-1.51886E-10
 -1       320-9.57043E+05-1.23045E+05-7.54760E+04-3.72350E+05-1.01318E-09 7.27596E-12
 -1       321-2.59489E+05-4.93347E+03 1.03352E+04-1.97741E+03-2.11708E-09-3.17641E-09
 -1       322-2.49645E+05 5.67117E+03 8.25500E+03 6.46448E+03-7.24579E-09 2.38606E-09
 -1       323-2.55877E+05-7.42155E+02 2.69786E+03-3.89733E+03 2.19958E-09-1.30206E-09
 -1       324-2.54109E+05 8.51965E+02 1.84225E+03 8.77248E+03 1.24615E-08 1.44334E-09
 -1       325-2.55085E+05-7.24206E+01 7.10036E+02-4.28585E+03-3.00686E-09-3.86552E-09
 -1       326-2.53491E+05 1.43184E+02 6.79183E+02 7.86988E+03-6.60604E-09 6.86249E-10
 -1       327-2.56470E+05-5.35168E+01-1.29424E+02-2.99450E+03 6.89673E-09-1.97419E-09
 -1       328-2.50648E+05 1.26278E+02 9.18065E+02 4.07817E+03 3.46660E-09 2.99419E-09
 -1       329-2.57853E+05-1.13776E+02-6.04241E+02-4.93861E+02 2.26225E-09-2.05851E-10
 -1       330-2.49818E+05 1.01955E+02 8.89020E+02-1.18881E+03 9.72705E-10-7.52930E-10
 -1       331-2.57278E+05-4.66626E+01-7.46399E+02 2.27199E+03-2.24475E-10 2.45115E-09
 -1       332-2.52325E+05-2.59001E+02-1.54089E+02-5.92865E+03-9.13683E-09-2.73734E-09
 -1       333-2.55407E+05 2.94068E+02-1.26124E+03 4.24600E+03-9.18490E-09 3.15032E-09
 -1       334-2.55543E+05-2.15231E+03-3.04648E+03-8.35969E+03-1.13032E-08-1.78505E-09
 -1       335-2.54121E+05 1.89261E+03-4.46874E+03 4.70365E+03 6.78892E-09 2.24486E-09
 -1       336 1.81800E+02-3.85046E+05-1.35391E+03-7.20623E+03-1.66455E-09 8.99036E-10
 -1       337-5.40822E+02-3.85590E+05-2.20217E+03-2.64159E+04-3.00955E-09 2.62162E-09
 -1       338 3.07456E+02-3.84942E+05-3.48437E+03-7.13401E+03-2.02203E-09 4.07238E-09
 -1       339-3.89364E+03-3.87648E+05-8.31420E+03-2.64788E+04-3.42334E-09 2.95881E-09
 -1       340 2.81320E+03-3.83018E+05-1.29875E+04-7.14393E+03-1.92722E-09 3.25093E-09
 -1       341-3.52580E+05-6.15620E+04-8.54904E+03-1.39280E+05 2.84697E-08 4.04543E-09
 -1       342-2.87271E+05-1.34565E+04 1.23516E+04-7.99592E+04 1.45436E-08-1.68711E-10
 -1       343-3.07890E+05-5.84844E+04-8.75075E+02-1.36239E+05-2.09423E-08-1.19727E-08
 -1       344-3.31735E+05-1.63639E+04 2.42841E+03-8.32824E+04 5.30170E-08 5.12600E-09
 -1       345-3.08826E+05-5.81109E+04-1.31162E+03-1.36538E+05 4.72309E-08 1.42109E-09
 -1       346-2.86604E+05-1.74588E+04 1.08074E+04-7.89896E+04-2.03118E-08-6.57226E-09
 -1       347-3.52270E+05-5.79677E+04-9.67816E+03-1.39917E+05 5.66820E-09-1.04205E-09
 -1       348-2.31640E+05-2.99560E+04 1.88762E+04-8.85509E+04 1.66813E-08-3.30508E-09
 -1       349-3.63045E+05-4.61913E+04-9.84072E+03-1.26421E+05-7.94307E-09-3.16578E-09
 -1       350-2.49783E+05-5.66581E+04 9.42869E+03-1.23525E+05 1.31754E-08-8.62725E-09
 -1       351-3.34878E+05-3.06881E+04-3.04041E+03-1.05544E+05-5.63250E-09-1.29037E-08
 -1       352-2.79413E+05-7.29994E+04-2.67954E+03-1.44565E+05-6.18251E-08-3.40233E-08
 -1       353-3.34176E+05-2.92598E+04-9.22199E+03-1.05936E+05 2.04133E-08 6.27551E-11
 -1       354-2.57012E+05-6.93104E+04-1.16328E+04-1.20723E+05-2.10612E-08-4.88558E-09
 -1       355-3.56510E+05-3.49853E+04-4.37072E+04-1.28819E+05-7.18865E-09 3.78350E-10
 -1       356-2.62632E+05 2.22038E+03-5.23922E+03 4.89459E+03 1.03265E-09 3.51088E-09
 -1       357-2.64341E+05-2.53140E+03-3.58710E+03-8.72526E+03 1.59163E-08-2.73531E-09
 -1       358-2.64054E+05 3.47229E+02-1.47611E+03 4.43245E+03 6.19747E-09 4.14684E-09
 -1       359-2.60842E+05-3.15661E+02-2.72539E+02-6.16707E+03-2.30949E-09-3.45041E-09
 -1       360-2.66066E+05-4.40147E+01-8.77972E+02 2.33575E+03-6.20906E-09 1.78321E-09
 -1       361-2.58200E+05 8.94904E+01 8.05746E+02-1.13308E+03-1.12281E-08-1.92843E-09
 -1       362-2.66632E+05-1.07384E+02-8.53706E+02-6.01543E+02 3.26008E-09 3.36794E-10
 -1       363-2.59229E+05 3.43130E+01 4.77473E+02 4.42452E+03-7.01539E-09 1.45650E-09
 -1       364-2.65063E+05 3.17986E+01-9.63225E+02-3.22134E+03-1.17874E-08-4.85016E-10
 -1       365-2.62524E+05-4.75408E+02-1.25051E+03 8.32805E+03 1.78048E-08 6.73566E-10
 -1       366-2.63417E+05 4.64120E+02-2.58474E+03-4.50542E+03-1.33780E-08-3.35626E-09
 -1       367-2.64597E+05-3.07764E+03-6.27967E+03 9.07904E+03-1.77718E-08 2.41516E-09
 -1       368-2.63013E+05 2.64860E+03-1.03013E+04-3.97251E+03-4.32101E-09-3.44653E-09
 -1       369-2.69576E+05-1.93928E+04-2.71195E+04 6.35988E+03-1.21058E-08 2.75395E-09
 -1       370-2.58373E+05 1.67144E+04-3.98451E+04-1.78573E+03 3.04681E-10-5.82077E-10
 -1       371-6.72945E+03-7.12613E+04 1.01989E+04 5.41780E+03-3.89628E-09 6.38465E-10
 -1       372 6.67904E+03-4.26357E+04 1.03685E+04-2.39269E+04 2.78112E-09-7.53190E-10
 -1       373-3.91901E+01-5.84125E+04 9.87518E+02 6.23276E+03 3.13867E-09-1.19269E-09
 -1       374-3.32742E+03-5.61936E+04-3.57579E+03-2.46430E+04 5.99312E-09 4.07023E-09
 -1       375 3.43508E+03-5.79321E+04-8.46176E+03 6.13347E+03 2.61116E-09 4.16782E-09
 -1       376-2.68881E+05-2.94647E+04-8.96419E+03-9.39685E+04 4.97948E-10-4.04725E-11
 -1       377-2.46396E+05-5.10042E+04-4.27553E+03-1.08938E+05 1.18172E-08-6.80120E-09
 -1       378-2.66519E+05-2.92223E+04-1.73441E+03-9.01113E+04 4.38448E-09 6.64033E-09
 -1       379-2.44414E+05-4.79800E+04-6.83309E+01-1.08868E+05 2.03145E-08 4.55169E-09
 -1       380-2.70847E+05-3.24991E+04-1.67740E+03-9.40265E+04 1.97345E-08 1.26057E-09
 -1       381-2.37213E+05-3.93050E+04 3.71045E+03-9.76692E+04 1.42258E-08-3.54152E-09
 -1       382-2.73457E+05-3.80929E+04-2.97194E+03-1.01115E+05-2.44802E-09 9.62956E-10
 -1       383-2.43004E+05-3.00501E+04 4.38516E+03-8.66655E+04-9.14952E-09 2.09332E-09
 -1       384-2.65001E+05-4.17938E+04-2.32984E+03-1.04983E+05 4.30807E-08-7.23219E-10
 -1       385-2.62398E+05-2.54788E+04 8.18222E+02-8.26738E+04 4.38391E-08-4.13519E-09
 -1       386-2.54308E+05-4.24831E+04-1.91826E+03-1.05293E+05-2.95699E-08-7.60792E-10
 -1       387-2.72017E+05-2.66215E+04-4.47530E+03-8.20577E+04 2.43096E-08-3.43562E-09
 -1       388-2.55506E+05-4.05605E+04-8.45742E+03-1.05697E+05 2.42303E-08-1.96715E-08
 -1       389-2.65414E+05-4.19649E+04-2.04308E+04-8.03283E+04-2.27484E-08-5.45174E-09
 -1       390-2.60708E+05-2.73014E+04-3.65121E+04-1.06858E+05-1.09048E-08 6.23913E-10
 -1       406 4.56344E+02 1.87020E+05 9.82533E+02-1.56078E+04-1.29376E-09 5.56156E-10
 -1       407 2.97134E+02 1.87198E+05 1.19060E+03-1.71168E+04-1.48952E-09-8.84938E-10
 -1       408 4.85046E+02 1.86990E+05 1.95927E+03-1.55413E+04-1.52204E-09-5.31145E-10
 -1       409 1.94315E+03 1.87748E+05 4.20393E+03-1.72155E+04-1.87174E-09 3.16390E-09
 -1       410 5.60074E+03 1.86457E+05 8.47672E+03-1.55068E+04-1.75442E-09 1.42927E-09
 -1       466 5.96194E+05-2.42312E+04 5.51539E+04 5.80691E+03 4.65377E-10 5.55519E-09
 -1       467 6.24981E+05 2.79500E+04 3.98621E+04-9.34623E+03 1.03739E-09 2.14550E-09
 -1       468 6.07437E+05-3.72667E+03 1.43729E+04 1.66551E+03 1.58136E-09 1.56706E-09
 -1       469 6.11938E+05 4.30342E+03 9.13290E+03-3.74769E+03 4.72902E-10 2.16914E-10
 -1       470 6.09197E+05-5.75944E+02 3.76734E+03 2.08283E+02-4.83311E-10-7.96035E-10
 -1       471 6.09905E+05 6.90212E+02 2.35415E+03-1.78387E+03-8.74969E-10-1.79662E-09
 -1       472 6.09466E+05-1.12500E+02 1.34608E+03-2.98341E+02 9.37602E-10-4.99512E-10
 -1       473 6.09670E+05 2.92646E+02 1.43645E+03-1.14147E+03 1.43863E-09-9.08443E-10
 -1       474 6.09432E+05-1.78177E+02 1.91263E+03-4.34131E+02 3.62566E-10-2.50111E-10
 -1       475 6.10168E+05 1.24983E+03 3.99132E+03-1.08629E+03 4.86592E-10-3.53566E-10
 -1       476 6.08967E+05-1.06902E+03 6.71997E+03-3.53519E+02 1.57346E-09-1.49066E-09
 -1       477 6.13435E+05 7.92004E+03 1.64568E+04-1.55624E+03 4.49023E-10-9.66111E-10
 -1       478 6.06160E+05-6.84350E+03 2.61683E+04 3.58355E+01-3.55715E-10-5.09317E-10
 -1       479 6.33283E+05 5.05758E+04 7.15434E+04-3.12127E+03 8.62471E-10-5.49335E-10
 -1       480 5.89114E+05-4.36886E+04 1.01055E+05 1.21147E+03 2.73012E-09-1.96451E-10
 -1       481-4.84447E+03 9.45076E+04 1.00491E+04-3.55110E+03-6.32099E-11-5.83498E-10
 -1       482 5.61139E+03 1.04882E+05 8.40349E+03 1.23108E+04-9.60654E-11 2.55404E-09
 -1       483-8.02464E+02 9.87836E+04 3.28334E+03-2.84586E+03-7.11680E-11 7.04432E-11
 -1       484 1.99390E+03 1.00977E+05 3.46280E+03 1.16874E+04-9.39337E-12-3.78694E-10
 -1       485-1.19169E+03 9.83579E+04 2.88017E+03-2.92750E+03 3.24007E-11-8.10587E-10
 -1       486-5.56546E+05-7.34111E+04-5.56529E+04-2.36864E+05-5.23869E-10 2.04818E-09
 -1       487-5.98325E+05-7.18606E+04-3.25614E+04-1.67091E+05 1.61890E-09 7.37055E-09
 -1       488-5.61178E+05-9.09359E+04-1.38301E+04-2.33362E+05-5.18298E-10-2.49065E-09
 -1       489-5.44615E+05-5.82565E+04 2.73140E+03-1.75754E+05-3.44258E-10-1.78090E-09
 -1       490-6.09603E+05-8.75947E+04-1.19709E+04-2.27657E+05 3.48632E-09-2.35332E-10
 -1       491-5.07592E+05-8.29443E+04 1.00771E+04-2.08083E+05 1.20968E-09 5.53536E-09
 -1       492-5.98055E+05-6.63774E+04-3.55406E+03-2.00933E+05-1.17325E-10 1.34821E-08
 -1       493-5.25506E+05-1.06763E+05 2.81231E+03-2.39719E+05 1.40858E-09 2.50194E-08
 -1       494-5.92472E+05-6.30540E+04-1.83920E+03-1.96656E+05-2.62605E-09 6.44695E-09
 -1       495-5.10358E+05-8.96884E+04 8.30867E+03-2.16742E+05-7.31688E-10 6.21010E-09
 -1       496-6.12590E+05-8.40183E+04-1.16658E+04-2.23416E+05 5.90001E-09 4.25575E-09
 -1       497-5.32171E+05-6.17720E+04 4.89154E+03-1.79488E+05 1.65433E-09-3.08410E-09
 -1       498-5.70471E+05-9.11455E+04-1.47544E+04-2.33736E+05 7.44751E-09-7.06723E-09
 -1       499-5.96589E+05-7.03972E+04-3.00852E+04-1.67369E+05 1.86628E-09-1.03796E-08
 -1       500-5.48972E+05-7.46782E+04-5.06156E+04-2.36198E+05-8.56380E-09 1.25146E-08
 -1       501-2.52014E+05-1.09637E+04 2.53481E+04-2.53040E+02-1.08976E-10-1.26420E-09
 -1       502-2.40876E+05 1.26933E+04 1.79521E+04 9.56676E+01 3.86979E-11 4.16776E-10
 -1       503-2.47784E+05-1.72010E+03 6.55090E+03 6.34908E+01 2.49933E-10 6.27551E-10
 -1       504-2.45830E+05 1.98961E+03 4.13076E+03-5.08446E+02-1.88114E-10-2.68415E-10
 -1       505-2.47064E+05-2.68653E+02 1.66561E+03 3.51087E+02 4.79414E-10-4.80782E-10
 -1       506-2.46690E+05 3.09923E+02 9.72829E+02-9.44617E+02 1.43487E-09-1.34730E-09
 -1       507-2.46926E+05-4.08262E+01 4.20112E+02 4.99669E+02 5.50682E-10-5.40666E-10
 -1       508-2.46843E+05 4.70609E+01 2.31160E+02-1.04790E+03 2.61709E-10 9.91243E-11
 -1       509-2.46912E+05-5.68703E+00 1.00188E+02 4.54375E+02 9.56051E-10-1.77430E-09
 -1       510-2.46836E+05 5.13069E+00 5.47566E+01-7.79978E+02 6.13737E-10-6.23326E-10
 -1       511-2.46932E+05 4.34843E-01 4.08411E+00 2.31738E+02 3.98110E-10 4.08649E-10
 -1       512-2.46812E+05-1.55041E+01-1.04703E+01-2.38655E+02 4.66571E-10 1.36866E-09
 -1       513-2.46934E+05 1.42259E+01-6.41544E+01-8.69569E+01 2.49401E-12-1.69322E-11
 -1       514-2.46868E+05-1.16882E+02-1.53360E+02 3.78569E+02-3.07335E-10 5.53911E-10
 -1       515-2.46876E+05 1.01904E+02-2.44014E+02-3.85496E+02-8.55206E-10-8.95710E-11
 -1       516-2.95872E+04 2.20138E+05 6.90467E+04-3.88852E+03-2.43745E-10 1.98239E-09
 -1       517 3.58084E+04 2.52228E+05 5.20645E+04 1.62021E+04-5.87534E-10-3.18276E-09
 -1       518-6.18501E+03 2.30645E+05 2.38350E+04-3.94449E+03 3.71074E-10 1.23489E-09
 -1       519 1.86982E+04 2.51003E+05 3.04485E+04 1.90476E+04-2.48394E-09-9.38186E-10
 -1       520-1.25991E+04 2.21522E+05 2.78562E+04-6.73483E+03-6.77574E-10-5.58259E-09
 -1       521-1.42921E+06-1.84582E+05-9.75498E+04-5.51430E+05 9.29504E-10 2.14641E-09
 -1       522-1.45787E+06-2.50984E+05-6.11547E+04-5.57853E+05 1.81615E-10-2.49747E-09
 -1       523-1.44603E+06-2.05547E+05-2.30040E+04-5.49054E+05-3.90642E-10-4.72028E-10
 -1       524-1.43839E+06-2.23260E+05-1.25602E+04-5.62347E+05 3.17982E-10 5.18412E-11
 -1       525-1.44805E+06-2.07599E+05-5.34988E+03-5.48720E+05 1.56888E-10-2.04864E-10
 -1       526-1.43606E+06-2.20619E+05-2.82866E+03-5.62935E+05-5.11989E-10-2.67050E-10
 -1       527-1.44834E+06-2.07763E+05-1.46541E+03-5.48640E+05-5.31713E-10 4.01030E-11
 -1       528-1.43579E+06-2.20403E+05-1.16797E+03-5.63010E+05-1.27301E-09-1.61208E-10
 -1       529-1.44832E+06-2.07784E+05-1.42536E+03-5.48660E+05-1.77795E-09-2.51555E-09
 -1       530-1.43611E+06-2.20534E+05-2.71685E+03-5.62845E+05-7.29528E-10-7.65795E-10
 -1       531-1.44800E+06-2.07670E+05-5.12352E+03-5.48780E+05-3.72211E-10-8.07631E-10
 -1       532-1.43842E+06-2.22982E+05-1.20156E+04-5.62183E+05-9.79981E-10-5.28416E-10
 -1       533-1.44603E+06-2.05753E+05-2.20051E+04-5.49146E+05 1.01352E-10 4.25644E-10
 -1       534-1.45713E+06-2.49404E+05-5.84895E+04-5.57772E+05-4.20641E-12 3.22871E-10
 -1       535-1.42988E+06-1.85756E+05-9.33029E+04-5.51476E+05-5.23869E-10 9.31323E-10
 -1       536 5.83006E+03-5.06526E+03 2.33265E+04-4.17886E+03 3.30601E-10-4.29281E-10
 -1       537 1.41939E+04 7.04046E+03 1.48436E+04-1.47007E+04-9.58835E-10 6.49379E-10
 -1       538 9.30961E+03-5.20705E+02 6.03194E+03-4.12384E+03-8.23093E-11-6.48470E-10
 -1       539 1.02852E+04 6.56946E+02 3.34656E+03-1.47581E+04 6.07542E-10 7.97513E-10
 -1       540 9.68740E+03-6.17502E+01 1.51693E+03-4.12012E+03 5.16138E-11-5.72186E-10
 -1       541 9.82550E+03 5.90920E+01 7.93611E+02-1.47607E+04-2.81830E-10-4.50200E-10
 -1       542 9.73229E+03-8.51324E+00 3.67870E+02-4.12126E+03-6.70752E-11-5.74744E-10
 -1       543 9.75111E+03 8.01345E+00 1.72024E+02-1.47589E+04-1.04137E-10 4.97948E-11
 -1       544 9.73855E+03 9.52579E-01 4.85953E+01-4.12188E+03-2.83649E-11-9.81430E-10
 -1       545 9.72823E+03-1.35555E+00-4.83723E+01-1.47582E+04 1.76428E-10-3.37536E-10
 -1       546 9.74564E+03 7.96373E+00-1.61037E+02-4.12199E+03-5.75710E-10 3.98188E-10
 -1       547 9.67669E+03-7.67397E+01-3.93725E+02-1.47565E+04-4.84988E-10 1.03495E-09
 -1       548 9.79427E+03 6.03966E+01-7.27585E+02-4.12356E+03-1.82411E-09 4.68731E-10
 -1       549 9.21932E+03-8.57102E+02-1.79703E+03-1.47253E+04-5.80246E-09 8.26503E-10
 -1       550 1.02209E+04 6.04607E+02-2.83310E+03-4.15324E+03-2.95290E-09 1.68143E-10
 -1       551 5.58693E+03-1.39457E+05 1.28758E+04-2.09470E+05 7.82165E-11-5.45697E-11
 -1       552 2.58286E+03-1.37168E+05 1.05487E+04-2.46058E+05-3.16504E-10 2.15869E-09
 -1       553 1.64481E+03-1.39133E+05 1.27854E+04-2.09118E+05 4.91127E-11 5.20959E-09
 -1       554 7.73344E+03-1.34135E+05 2.44462E+04-2.46113E+05-6.62112E-10 8.25457E-09
 -1       555 2.21868E+04-1.42621E+05 4.65357E+04-2.09393E+05-9.82254E-11 3.01588E-09
 -1       556-9.53237E+04-5.17055E+04 9.14287E+03-9.26345E+04 6.75936E-09 2.31721E-08
 -1       557-8.71059E+04-6.06200E+04 4.50200E+03-9.89558E+04 5.68434E-10-2.19643E-10
 -1       558-9.54233E+04-5.47086E+04 1.89661E+03-9.08370E+04-3.14685E-10-6.29370E-10
 -1       559-8.79047E+04-6.21144E+04 9.29592E+02-9.92248E+04 8.91305E-10-1.68575E-09
 -1       560-9.54837E+04-5.47533E+04 4.14736E+02-9.07941E+04 1.17143E-09-8.84256E-10
 -1       561-8.80379E+04-6.21544E+04 1.95215E+02-9.93207E+04 4.29645E-09 7.22761E-09
 -1       562-9.55362E+04-5.47108E+04 6.94428E+01-9.08303E+04 9.84983E-10 5.79348E-10
 -1       563-8.80979E+04-6.21290E+04-5.33913E+00-9.93644E+04 9.11314E-10-1.11527E-10
 -1       564-9.55651E+04-5.46846E+04-8.85099E+01-9.08533E+04 1.33332E-09-6.42558E-10
 -1       565-8.81355E+04-6.21157E+04-2.26085E+02-9.93860E+04 1.19894E-09-1.61162E-09
 -1       566-9.55607E+04-5.46710E+04-4.82999E+02-9.08590E+04 6.28665E-09 5.99766E-09
 -1       567-8.82255E+04-6.21627E+04-1.06811E+03-9.93795E+04 4.52224E-09-7.82438E-09
 -1       568-9.54832E+04-5.48265E+04-2.19420E+03-9.07810E+04 3.60342E-09-1.94268E-09
 -1       569-8.94366E+04-6.34750E+04-5.17544E+03-9.90456E+04 6.65750E-10-3.98359E-10
 -1       570-9.50112E+04-5.87782E+04-1.05395E+04-8.91144E+04 8.46740E-10 5.80940E-10
 -1       571 1.20590E+05 5.70396E+03 8.64018E+03-3.09411E+04-1.63709E-11-1.32445E-09
 -1       572 1.21903E+05 1.95901E+03 4.24007E+03-3.40482E+04-2.10093E-10-1.43655E-09
 -1       573 1.21125E+05 4.48344E+02 1.88551E+03-3.08595E+04-3.04681E-11 2.48747E-10
 -1       574 1.21282E+05 1.40917E+02 9.45945E+02-3.41389E+04 1.22782E-11 9.26548E-10
 -1       575 1.21187E+05 1.37777E+01 4.47083E+02-3.08489E+04 1.50862E-10-2.07365E-10
 -1       576 1.21202E+05 3.44483E-01 2.28336E+02-3.41509E+04 3.66640E-10 4.93401E-10
 -1       577 1.21196E+05-7.17809E+00 1.14019E+02-3.08475E+04 1.43018E-10 2.10775E-10
 -1       578 1.21192E+05-5.23308E+00 6.49354E+01-3.41523E+04-1.68257E-11-1.97815E-09
 -1       579 1.21202E+05-6.87006E+00 4.50589E+01-3.08475E+04-9.73159E-11-1.18143E-09
 -1       580 1.21200E+05-6.81171E+00 5.06422E+01-3.41504E+04-9.70886E-11 8.37417E-10
 -1       581 1.21211E+05-7.54244E+00 7.87449E+01-3.08494E+04-3.92447E-10-1.88493E-10
 -1       582 1.21226E+05 9.57841E+00 1.56375E+02-3.41315E+04-4.04270E-10-5.23187E-10
 -1       583 1.21215E+05 5.50249E+01 3.05538E+02-3.08663E+04-4.54747E-12-5.49448E-10
 -1       584 1.21344E+05 2.94855E+02 6.85143E+02-3.39883E+04-5.76620E-10-5.97652E-10
 -1       585 1.21145E+05 8.96324E+02 1.39327E+03-3.09931E+04 1.41881E-10 6.04814E-10
 -1       586 9.16527E+02 5.26292E+04 1.70198E+03-7.46342E+04 1.85992E-10-1.11686E-09
 -1       587 5.10633E+02 5.29260E+04 1.69246E+03-8.23389E+04 7.54881E-10-6.93490E-12
 -1       588 6.45307E+02 5.26104E+04 2.48024E+03-7.45380E+04 2.09639E-10-7.81017E-09
 -1       589 2.39242E+03 5.35525E+04 5.13650E+03-8.23676E+04 7.76708E-10-1.67709E-08
 -1       590 6.79734E+03 5.19840E+04 1.02676E+04-7.46042E+04 2.33740E-10-1.00599E-08
 -1       591-5.54596E+04-1.88772E+04-1.08824E+04-2.82983E+04-9.11200E-11 9.82254E-11
 -1       592-5.58710E+04-1.75544E+04-5.34641E+03-3.14560E+04-2.76373E-10 1.49157E-10
 -1       593-5.57943E+04-1.49206E+04-2.26882E+03-3.01181E+04-2.38936E-09 8.94534E-09
 -1       594-5.47052E+04-1.60959E+04-1.11030E+03-3.16426E+04-9.62586E-09 5.64398E-09
 -1       595-5.58469E+04-1.47785E+04-5.11333E+02-3.01983E+04-5.03383E-09 1.73424E-09
 -1       596-5.46178E+04-1.60390E+04-2.59348E+02-3.16344E+04 3.34126E-10 5.85942E-10
 -1       597-5.58568E+04-1.47864E+04-1.41188E+02-3.01988E+04-2.05708E-09-9.11473E-09
 -1       598-5.46091E+04-1.60398E+04-1.12952E+02-3.16307E+04-1.23336E-09-7.49992E-09
 -1       599-5.58562E+04-1.47865E+04-1.43319E+02-3.01985E+04 9.46898E-10 3.16845E-10
 -1       600-5.46175E+04-1.60395E+04-2.65091E+02-3.16337E+04-9.69749E-11-1.15642E-09
 -1       601-5.58445E+04-1.47789E+04-5.23213E+02-3.01973E+04-2.54454E-09-7.68409E-09
 -1       602-5.47072E+04-1.60970E+04-1.13689E+03-3.16399E+04 4.66252E-09 6.57428E-09
 -1       603-5.57890E+04-1.49263E+04-2.32313E+03-3.01159E+04 1.03182E-09 4.94538E-10
 -1       604-5.59117E+04-1.75785E+04-5.47421E+03-3.14342E+04-9.32232E-11-7.66022E-10
 -1       605-5.54333E+04-1.89874E+04-1.11420E+04-2.82642E+04-2.56250E-10-3.37423E-10
 -1       606 4.04853E+04-4.82933E+03-7.30861E+03 1.18312E+04-2.26601E-09-7.77618E-10
 -1       607 3.93582E+04-1.65830E+03-3.58588E+03 1.28971E+04-4.99995E-10-2.40976E-09
 -1       608 4.00205E+04-3.78884E+02-1.59452E+03 1.17528E+04 1.38152E-09-6.47788E-10
 -1       609 3.98702E+04-1.14521E+02-7.98882E+02 1.29843E+04-1.14869E-09 9.47239E-10
 -1       610 3.99594E+04-6.23056E+00-3.76489E+02 1.17426E+04-2.87855E-09-7.62270E-10
 -1       611 3.99310E+04 8.13978E+00-1.89539E+02 1.29955E+04-4.77439E-09-7.46013E-10
 -1       612 3.99474E+04 1.35022E+01-8.99058E+01 1.17414E+04-2.02499E-09-9.81458E-10
 -1       613 3.99375E+04 1.32657E+01-4.14696E+01 1.29970E+04-2.60275E-09-1.35515E-09
 -1       614 3.99428E+04 1.17374E+01-1.21525E+01 1.17411E+04-1.96223E-10-1.68325E-09
 -1       615 3.99377E+04 1.33342E+01 1.09247E+01 1.29972E+04 2.38413E-09 1.69280E-10
 -1       616 3.99393E+04 1.35755E+01 3.89239E+01 1.17412E+04-1.18348E-09 6.53927E-10
 -1       617 3.99439E+04 2.79461E+01 9.19106E+01 1.29968E+04 4.74756E-10 6.54495E-10
 -1       618 3.99311E+04 5.78623E+01 1.87722E+02 1.17414E+04-1.42450E-10-2.19643E-10
 -1       619 4.00042E+04 2.11208E+02 4.24732E+02 1.29950E+04-1.36424E-10-1.08002E-09
 -1       620 3.98758E+04 5.85928E+02 8.66715E+02 1.17426E+04 1.02813E-09-3.57886E-10
 -1       621 8.01291E+02 1.24408E+05 2.05476E+03-1.08112E+04-1.00522E-09 9.68157E-10
 -1       622 3.10563E+02 1.24799E+05 1.77417E+03-1.27584E+04-1.06456E-09 1.12902E-09
 -1       623 1.93214E+02 1.24485E+05 2.27046E+03-1.08237E+04-8.91305E-10 1.13869E-09
 -1       624 1.29200E+03 1.25394E+05 4.43954E+03-1.27005E+04-7.77618E-10-1.02364E-09
 -1       625 3.97303E+03 1.23820E+05 8.50826E+03-1.08686E+04-5.94014E-10-7.15545E-10
 -1       626 5.86776E+04 1.92823E+04-2.89247E+03 3.95113E+04-1.71826E-09 2.09184E-10
 -1       627 5.71675E+04 2.15088E+04-1.37088E+03 4.03198E+04-2.99451E-10-9.32801E-11
 -1       628 5.87540E+04 2.07105E+04-5.75531E+02 3.88053E+04 2.78351E-09 4.14650E-09
 -1       629 5.73760E+04 2.21104E+04-2.75956E+02 4.02770E+04-7.89896E-10-1.40759E-10
 -1       630 5.87512E+04 2.08099E+04-1.21222E+02 3.87475E+04-9.34051E-10-4.59295E-11
 -1       631 5.73915E+04 2.21552E+04-5.35463E+01 4.02787E+04-4.01951E-09 2.60314E-10
 -1       632 5.87463E+04 2.08129E+04-1.31774E+01 3.87428E+04-6.54472E-09-7.49071E-09
 -1       633 5.73929E+04 2.21572E+04 1.77900E+01 4.02799E+04 2.16630E-09 1.47770E-09
 -1       634 5.87422E+04 2.08096E+04 5.79955E+01 3.87423E+04 4.98858E-10-3.28896E-10
 -1       635 5.74002E+04 2.21588E+04 1.36435E+02 4.02816E+04 1.48975E-09-7.32712E-10
 -1       636 5.87362E+04 2.08166E+04 2.85394E+02 3.87375E+04-9.70317E-11-1.35014E-09
 -1       637 5.74687E+04 2.22390E+04 6.39009E+02 4.02686E+04 1.18119E-09 6.56200E-10
 -1       638 5.87212E+04 2.10579E+04 1.32562E+03 3.86324E+04-9.64519E-10-7.58723E-09
 -1       639 5.81421E+04 2.34361E+04 3.15617E+03 3.99713E+04-1.20610E-09 1.63709E-11
 -1       640 5.87572E+04 2.45076E+04 6.65992E+03 3.72018E+04-2.87798E-09-2.89026E-09
 -1       641 4.23767E+02 1.22266E+03-2.82849E+03-3.09983E+01-2.15361E-09 1.15040E-09
 -1       642-7.99722E+02-1.41530E+03-1.99931E+03 1.25987E+02-1.59033E-09 8.43386E-10
 -1       643-4.83189E+01 1.91573E+02-7.29244E+02-3.07919E+01-3.09255E-09 5.60391E-10
 -1       644-2.49908E+02-2.21111E+02-4.53286E+02 1.25767E+02 6.05680E-10 2.25882E-09
 -1       645-1.26106E+02 2.94599E+01-1.74768E+02-3.07790E+01 5.90202E-10 2.08278E-09
 -1       646-1.57625E+02-3.11715E+01-8.32054E+01 1.25752E+02-1.33340E-08 1.30610E-09
 -1       647-1.40626E+02 1.78816E+00-2.62415E-01-3.07769E+01-2.97441E-06 3.42416E-09
 -1       648-1.31739E+02 1.60340E+01 7.69398E+01 1.25745E+02-5.92960E-06 5.71818E-09
 -1       649-1.51999E+02-1.77138E+01 1.74671E+02-3.07718E+01-2.97440E-06 1.84882E-09
 -1       650-6.74105E+01 1.36510E+02 4.23051E+02 1.25689E+02-6.02723E-09-1.11066E-09
 -1       651-2.04947E+02-1.18617E+02 7.36380E+02-3.07213E+01-2.28300E-10 1.09384E-09
 -1       652 2.95938E+02 8.79869E+02 1.82203E+03 1.25435E+02 3.46749E-10 2.80187E-09
 -1       653-5.15318E+02-7.60534E+02 2.90284E+03-3.05179E+01 1.27927E-10 1.87140E-09
 -1       654 2.48358E+03 5.61666E+03 7.93980E+03 1.24298E+02-1.17985E-09 1.42381E-09
 -1       655-2.39240E+03-4.85161E+03 1.12219E+04-2.95859E+01 1.90124E-09 1.10958E-10
 -1       656 3.62985E+03-1.47140E+05-1.74390E+04 4.70115E+03-9.56788E-10-2.47428E-09
 -1       657-5.50436E+03-1.53410E+05-1.26288E+04 1.65516E+04-1.09117E-09-3.76167E-09
 -1       658 6.80388E+02-1.49389E+05-8.09141E+03 4.67248E+03-6.55596E-10-2.20274E-09
 -1       659-5.04488E+03-1.53138E+05-1.17965E+04 1.65682E+04-1.87117E-09-1.39790E-09
 -1       660 3.27638E+03-1.47420E+05-1.58524E+04 4.68475E+03-2.62844E-10-7.74151E-10
 -1       661 1.42395E+05 1.83681E+04 1.16307E+04 5.56402E+04 7.53289E-10 4.41105E-11
 -1       662 1.45038E+05 2.70641E+04 7.29175E+03 5.73070E+04 2.76371E-09-1.30740E-09
 -1       663 1.44373E+05 2.08956E+04 2.74520E+03 5.53913E+04 5.47175E-10-7.39533E-10
 -1       664 1.42761E+05 2.37146E+04 1.50148E+03 5.77804E+04-5.68406E-10-4.81293E-10
 -1       665 1.44591E+05 2.11621E+04 6.43370E+02 5.53746E+04-2.31708E-09-2.24586E-09
 -1       666 1.42510E+05 2.33718E+04 3.48138E+02 5.78134E+04-1.07538E-09 5.98533E-10
 -1       667 1.44616E+05 2.11915E+04 1.95690E+02 5.53753E+04-4.04722E-09 6.08985E-10
 -1       668 1.42486E+05 2.33416E+04 1.84306E+02 5.78139E+04-9.14511E-10 6.71150E-10
 -1       669 1.44614E+05 2.11895E+04 2.60059E+02 5.53750E+04 2.88809E-09-9.31408E-10
 -1       670 1.42531E+05 2.33942E+04 5.25713E+02 5.78133E+04 4.66423E-09-1.36505E-09
 -1       671 1.44573E+05 2.11432E+04 1.00448E+03 5.53745E+04 1.17120E-09-3.65844E-10
 -1       672 1.42931E+05 2.39348E+04 2.36486E+03 5.77599E+04-1.99918E-10-2.20865E-09
 -1       673 1.44226E+05 2.07230E+04 4.33063E+03 5.54012E+04 1.66747E-09-2.79670E-11
 -1       674 1.46523E+05 2.92239E+04 1.15091E+04 5.70142E+04-2.72564E-10-4.27463E-10
 -1       675 1.41106E+05 1.67315E+04 1.83586E+04 5.57915E+04-1.06957E-09-5.32054E-10
 -1       676 2.60337E+02-1.39129E+05-1.54697E+03 2.72575E+01-1.26639E-09 1.90328E-09
 -1       677-5.86561E+02-1.39717E+05-1.87726E+03-8.98221E+01-3.10791E-11 1.09402E-09
 -1       678 2.09745E+02-1.39153E+05-2.48136E+03 2.71465E+01-1.05854E-09-5.08463E-10
 -1       679-2.64044E+03-1.40962E+05-5.61327E+03-8.96525E+01-5.60067E-09-1.14159E-09
 -1       680 1.86088E+03-1.37884E+05-8.66198E+03 2.68545E+01-3.98222E-09-6.84221E-10
 -1       681 2.87345E+05-8.47522E+03 1.93525E+04 1.47696E+03-7.23333E-11-2.80124E-10
 -1       682 2.97034E+05 9.79356E+03 1.39238E+04-4.35604E+03-9.53122E-11-6.31189E-10
 -1       683 2.91053E+05-1.31476E+03 5.02453E+03 3.91816E+02-9.03597E-11 5.17957E-10
 -1       684 2.92674E+05 1.52202E+03 3.20332E+03-2.80377E+03-4.37019E-11-1.10623E-09
 -1       685 2.91693E+05-2.01888E+02 1.31367E+03-7.53179E+01 4.22315E-10 1.87396E-09
 -1       686 2.91931E+05 2.42891E+02 8.13952E+02-2.24399E+03 1.14189E-09-2.23224E-10
 -1       687 2.91794E+05-3.46736E+01 4.54223E+02-1.67968E+02 4.03176E-10 1.98769E-09
 -1       688 2.91879E+05 8.46678E+01 4.66731E+02-2.38674E+03 7.03414E-10-8.67075E-11
 -1       689 2.91747E+05-4.42038E+01 5.92857E+02 6.74365E+01 4.19263E-10 1.44956E-09
 -1       690 2.92254E+05 3.44356E+02 1.27341E+03-3.30263E+03 1.74268E-09-6.62070E-10
 -1       691 2.91424E+05-2.97935E+02 2.03375E+03 7.47929E+02 1.13670E-09 7.66818E-10
 -1       692 2.94222E+05 2.35312E+03 5.28520E+03-5.44829E+03 8.42121E-10 5.30235E-10
 -1       693 2.89802E+05-2.06683E+03 7.87712E+03 2.21316E+03-8.77606E-10-1.73577E-09
 -1       694 3.04397E+05 1.58562E+04 2.31220E+04-9.94666E+03-5.34288E-09 2.95768E-09
 -1       695 2.81340E+05-1.38509E+04 3.02572E+04 5.24695E+03-4.42333E-09-5.91353E-09
 -1       696-5.21771E+03 2.06465E+05 1.19169E+04-6.87347E+02 3.63798E-11-2.41833E-10
 -1       697 5.75622E+03 2.11674E+05 7.93913E+03 1.39805E+03 7.73070E-11-2.21611E-10
 -1       698-5.35388E+02 2.08670E+05 2.02340E+03-4.44233E+02-7.32143E-11 1.53232E-10
 -1       699-1.17155E+03 2.08413E+05-1.09506E+03 1.10092E+03-1.49157E-10 5.94503E-10
 -1       700 1.70547E+03 2.09726E+05-3.59266E+03-3.90219E+02-8.68567E-11 6.04539E-11
 -1       701-2.66752E+05-2.82969E+04-3.32109E+04-1.08878E+05-2.97405E-10 7.63976E-10
 -1       702-2.81438E+05-4.54381E+04-2.07040E+04-8.86345E+04-1.11868E-09-8.86212E-09
 -1       703-2.66037E+05-4.08150E+04-7.62089E+03-1.07861E+05 3.64093E-09 1.25629E-08
 -1       704-2.80972E+05-3.11155E+04-4.41837E+03-9.00487E+04-2.08757E-10 1.73336E-08
 -1       705-2.67308E+05-4.25417E+04-1.91981E+03-1.07539E+05-9.02787E-10 1.34826E-08
 -1       706-2.72284E+05-3.06334E+04 3.53981E+02-9.14873E+04-2.31773E-09-7.93506E-10
 -1       707-2.74624E+05-4.13710E+04-1.73357E+03-1.06344E+05-1.66921E-09 5.13072E-09
 -1       708-2.60340E+05-3.52986E+04 2.31299E+03-9.64054E+04 3.00679E-09 2.35723E-09
 -1       709-2.79136E+05-3.79643E+04-1.90876E+03-1.02532E+05-8.46683E-10 1.06127E-09
 -1       710-2.57683E+05-4.27247E+04 9.32873E+02-1.05110E+05-1.59355E-09-3.69536E-09
 -1       711-2.77354E+05-3.38892E+04-1.98719E+03-9.76977E+04 2.12998E-09 1.32488E-08
 -1       712-2.61715E+05-4.93905E+04-3.80331E+03-1.11271E+05-2.79641E-10 2.67833E-08
 -1       713-2.75238E+05-3.11982E+04-6.65684E+03-9.64709E+04-4.81532E-09 8.32642E-10
 -1       714-2.67121E+05-5.93945E+04-1.87450E+04-1.07142E+05-5.44969E-09-4.77144E-09
 -1       715-2.71906E+05-2.39276E+04-2.94387E+04-1.01791E+05-3.78168E-09-5.99721E-09
 -1       716-4.82234E+04-7.24977E+02 8.75094E+02 2.50938E+01 8.57585E-09-4.13195E-09
 -1       717-4.23545E+04 8.01901E+02 1.59789E+03-2.06303E+03 3.55936E-09-3.07196E-10
 -1       718-4.75016E+04-1.24839E+02 5.96107E+01 4.26751E+02 7.19297E-10-1.67783E-09
 -1       719-4.37042E+04 1.18175E+02 6.77370E+02-2.79627E+03 1.26553E-09 4.86086E-10
 -1       720-4.69002E+04-2.25507E+01-3.34167E+01 7.57918E+02-4.47841E-10 8.86264E-10
 -1       721-4.48359E+04 2.26297E+01 3.81678E+02-3.36321E+03-3.12610E-10-1.30088E-09
 -1       722-4.63975E+04-9.34530E+00 1.52627E+02 9.93537E+02 2.88438E-09 1.65549E-09
 -1       723-4.56250E+04 8.34819E+01 5.13971E+02-3.72384E+03-2.39098E-11-1.52203E-09
 -1       724-4.61320E+04-6.82169E+01 7.87660E+02 1.11857E+03 3.99795E-09 2.22107E-09
 -1       725-4.56950E+04 5.73778E+02 1.82224E+03-3.85519E+03 4.28275E-09-1.54714E-09
 -1       726-4.63358E+04-4.93297E+02 3.12430E+03 1.12492E+03 3.89377E-09 2.27953E-09
 -1       727-4.38979E+04 3.72483E+03 7.76764E+03-3.75034E+03 5.24620E-09-1.51022E-09
 -1       728-4.79220E+04-3.22171E+03 1.22171E+04 1.01370E+03 1.76027E-09 1.11413E-09
 -1       729-3.38468E+04 2.38262E+04 3.37976E+04-3.44686E+03 8.94090E-10 2.36923E-10
 -1       730-5.63631E+04-2.05919E+04 4.72805E+04 8.21394E+02 1.09179E-09 5.27507E-11
 -1       731-7.14966E+03 1.00013E+05 1.40405E+04-3.79675E+03-3.96722E-09-2.39913E-09
 -1       732 8.52357E+03 1.21011E+05 1.33148E+04 1.13115E+04 1.23862E-09 1.84471E-10
 -1       733-1.46909E+03 1.06717E+05 5.26083E+03-2.38857E+03-6.79393E-10-9.74779E-10
 -1       734 4.59621E+03 1.13348E+05 7.60434E+03 9.23025E+03 6.63363E-10-3.82079E-09
 -1       735-3.12589E+03 1.07531E+05 7.70368E+03-1.71468E+03 9.73159E-10-2.32158E-09
 -1       736-2.66916E+05-4.15556E+04-2.51866E+04-1.13691E+05 1.32586E-08-1.20499E-08
 -1       737-2.53040E+05-1.97853E+04-7.18592E+03-6.29165E+04 4.11175E-08 1.20086E-08
 -1       738-2.41899E+05-4.56306E+04-4.56932E+03-1.09110E+05 1.49601E-08 4.23381E-08
 -1       739-2.68153E+05-1.41142E+04-1.02650E+03-6.62804E+04-1.75543E-08-6.10413E-09
 -1       740-2.52112E+05-4.69946E+04-3.02436E+03-1.10581E+05 1.02797E-08-2.73495E-08
 -1       741-2.24437E+05-1.38362E+04 9.30747E+03-6.21040E+04-4.39036E-09-1.92863E-08
 -1       742-2.84906E+05-4.64305E+04-8.34553E+03-1.12718E+05-4.75393E-09-5.55946E-09
 -1       743-1.82528E+05-2.33994E+04 1.59257E+04-6.94087E+04 6.25676E-10-3.87672E-10
 -1       744-2.93461E+05-3.78495E+04-8.30153E+03-1.02871E+05-2.71689E-09-9.96494E-09
 -1       745-1.94914E+05-4.32775E+04 9.42580E+03-9.59133E+04 2.61635E-08 4.26419E-09
 -1       746-2.73058E+05-2.61558E+04-2.82222E+03-8.66416E+04 2.62775E-08 4.65587E-08
 -1       747-2.23823E+05-5.79442E+04-4.51497E+02-1.16920E+05 3.17885E-09 9.36006E-09
 -1       748-2.65292E+05-2.26286E+04-3.64764E+03-8.23972E+04 2.41468E-08 1.01427E-08
 -1       749-2.13442E+05-5.63478E+04-4.46903E+03-1.07408E+05-1.10626E-08 1.34680E-08
 -1       750-2.83114E+05-2.80002E+04-2.12740E+04-9.59215E+04-1.22456E-08-1.36124E-08
 -1       751 1.20903E+06-6.96517E+04 1.61284E+05 1.91529E+03-1.31538E-08-4.22006E-10
 -1       752 1.27905E+06 8.06425E+04 1.14092E+05-2.35501E+03-1.52809E-09-6.54836E-10
 -1       753 1.23607E+06-1.09169E+04 4.17721E+04 3.89252E+02 6.22224E-10-2.72848E-11
 -1       754 1.24760E+06 1.26346E+04 2.62707E+04-5.10001E+02-3.60888E-10 9.32687E-10
 -1       755 1.24053E+06-1.70797E+03 1.07534E+04 7.04045E+01-1.31271E-09-1.45064E-10
 -1       756 1.24242E+06 2.00169E+03 6.42744E+03-1.23363E+02-1.05578E-11-3.69823E-10
 -1       757 1.24126E+06-2.92500E+02 3.15747E+03 2.61144E+00 3.94606E-07 1.00590E-09
 -1       758 1.24165E+06 5.19052E+02 2.52275E+03-4.33581E+01 7.87723E-07-5.73202E-10
 -1       759 1.24130E+06-2.26333E+02 2.56198E+03-9.60173E+00 1.90659E-07 2.80920E-10
 -1       760 1.24212E+06 1.43271E+03 4.70518E+03-3.94989E+01-4.07764E-07 7.10031E-10
 -1       761 1.24079E+06-1.20552E+03 7.65324E+03-1.24776E+00-2.04875E-07 5.45697E-11
 -1       762 1.24574E+06 8.89800E+03 1.85341E+04-1.00850E+02 6.69844E-10 2.46405E-09
 -1       763 1.23766E+06-7.68573E+03 2.94197E+04 5.17503E+01 3.37316E-09 1.49703E-09
 -1       764 1.26782E+06 5.67555E+04 8.02966E+04-4.08310E+02 1.19091E-09 9.17680E-10
 -1       765 1.21868E+06-4.90199E+04 1.13508E+05 3.06199E+02-2.46375E-10 8.22183E-10
 -1       766-2.64111E+04 8.76321E+04 6.10394E+04 5.62348E+03 3.64162E-09-1.98276E-09
 -1       767 3.15749E+04 1.18455E+05 4.59156E+04-2.43585E+04 1.24528E-08-1.04243E-09
 -1       768-5.05710E+03 9.76439E+04 1.99301E+04 5.55011E+03 5.11818E-09 2.13555E-09
 -1       769 1.48342E+04 1.22172E+05 2.52529E+04-2.59058E+04 1.50507E-09 1.22782E-11
 -1       770-9.88117E+03 8.41959E+04 1.86332E+04 7.17133E+03-3.90537E-09-8.37872E-10
 -1       771-6.81908E+05-1.37240E+05-2.24690E+04-2.95610E+05-5.16502E-09 8.07631E-10
 -1       772-6.79860E+05-1.37303E+05-1.10297E+04-3.05333E+05-4.41833E-09 7.15272E-09
 -1       773-6.82827E+05-1.28882E+05-4.68924E+03-2.99208E+05-4.59841E-09 1.38516E-09
 -1       774-6.77337E+05-1.34468E+05-2.29049E+03-3.05998E+05-5.89353E-10 2.38288E-10
 -1       775-6.83011E+05-1.28531E+05-1.05901E+03-2.99385E+05-3.62706E-09-7.31029E-09
 -1       776-6.77191E+05-1.34354E+05-5.35044E+02-3.06056E+05-4.80213E-10-1.25499E-09
 -1       777-6.83085E+05-1.28517E+05-2.92931E+02-2.99408E+05 2.51657E-09 5.42326E-09
 -1       778-6.77206E+05-1.34344E+05-2.30458E+02-3.06089E+05 4.41105E-11 1.57334E-09
 -1       779-6.83119E+05-1.28497E+05-2.93083E+02-2.99424E+05-6.47560E-10 5.90603E-10
 -1       780-6.77247E+05-1.34337E+05-5.38803E+02-3.06120E+05 3.93584E-10-3.22871E-10
 -1       781-6.83114E+05-1.28470E+05-1.06501E+03-2.99431E+05-4.75029E-09-1.70462E-08
 -1       782-6.77440E+05-1.34451E+05-2.31457E+03-3.06143E+05 7.73525E-10-4.09273E-10
 -1       783-6.83003E+05-1.28768E+05-4.73174E+03-2.99267E+05-3.92390E-10 2.46928E-10
 -1       784-6.79895E+05-1.37471E+05-1.11549E+04-3.05719E+05-1.06877E-09-5.46606E-10
 -1       785-6.82269E+05-1.37050E+05-2.27075E+04-2.95493E+05-1.93040E-10 7.43057E-10
 -1       786 1.02608E+05-2.92626E+03 1.35621E+04-9.61978E+02 1.35515E-10-3.72893E-10
 -1       787 1.07427E+05 4.10548E+03 8.62536E+03-3.42999E+03-1.50635E-10 1.00158E-09
 -1       788 1.04635E+05-2.92912E+02 3.51098E+03-9.55096E+02-3.10934E-11 7.35554E-10
 -1       789 1.05176E+05 3.89550E+02 1.94780E+03-3.43561E+03-2.48065E-10 1.48930E-09
 -1       790 1.04858E+05-3.12580E+01 8.90877E+02-9.56211E+02 1.54017E-10 1.67631E-10
 -1       791 1.04924E+05 3.64291E+01 4.75857E+02-3.43390E+03-3.49658E-11-4.23142E-10
 -1       792 1.04886E+05-4.00204E+00 2.44156E+02-9.56811E+02 1.60227E-10 9.53236E-10
 -1       793 1.04893E+05 4.50698E+00 1.60911E+02-3.43353E+03-4.66336E-10-6.76565E-10
 -1       794 1.04889E+05-2.18575E+00 1.47495E+02-9.56577E+02 1.79824E-10-9.25354E-10
 -1       795 1.04902E+05 1.52121E+01 2.22081E+02-3.43499E+03-1.28523E-10-7.00209E-10
 -1       796 1.04878E+05-1.33556E+01 3.83702E+02-9.55354E+02-1.62458E-10 2.09283E-10
 -1       797 1.05007E+05 1.62384E+02 8.20125E+02-3.43745E+03-7.09406E-11-1.64746E-10
 -1       798 1.04785E+05-1.22924E+02 1.47058E+03-9.54121E+02-1.83263E-10 3.89377E-11
 -1       799 1.05949E+05 1.71571E+03 3.60770E+03-3.43105E+03-3.94806E-10 9.81970E-10
 -1       800 1.03938E+05-1.22432E+03 5.67046E+03-9.61826E+02 7.29869E-11 4.61569E-10
 -1       801-3.67299E+03 1.10309E+05 1.68183E+04-1.16223E+05-4.70845E-09 1.06593E-09
 -1       802 8.19561E+03 1.15754E+05 1.77861E+04-4.13401E+05-2.11912E-09-1.19326E-09
 -1       803-9.64956E+02 1.10633E+05 1.99110E+04-1.15849E+05-6.35555E-09 2.02454E-09
 -1       804 2.17190E+04 1.24018E+05 4.24238E+04-4.13384E+05-3.39423E-09-1.98543E-09
 -1       805-1.42531E+04 1.02121E+05 6.37398E+04-1.16243E+05-2.44472E-09 2.48838E-09
 -1       806-1.06587E+05-2.91337E+04-8.91164E+03-5.01650E+04-9.84642E-10 1.68711E-09
 -1       807-1.06541E+05-2.69195E+04-4.22322E+03-5.29817E+04-4.34511E-09-6.47645E-09
 -1       808-1.06529E+05-2.45294E+04-1.77484E+03-5.20970E+04-7.73980E-10 7.80744E-10
 -1       809-1.05660E+05-2.53001E+04-8.57070E+02-5.33639E+04-3.27418E-10-2.26734E-09
 -1       810-1.06549E+05-2.42062E+04-3.86953E+02-5.22407E+04-3.10274E-09-8.82596E-09
 -1       811-1.05572E+05-2.51901E+04-1.93520E+02-5.33806E+04-3.53157E-09-6.32394E-09
 -1       812-1.06557E+05-2.41957E+04-1.00423E+02-5.22476E+04-7.55861E-10 5.28757E-10
 -1       813-1.05562E+05-2.51869E+04-7.27794E+01-5.33786E+04-2.90385E-10-1.68257E-11
 -1       814-1.06556E+05-2.41969E+04-8.27986E+01-5.22471E+04-5.60050E-09-8.84063E-09
 -1       815-1.05568E+05-2.51903E+04-1.46720E+02-5.33785E+04-8.30141E-10 2.68642E-09
 -1       816-1.06550E+05-2.42059E+04-2.86289E+02-5.22413E+04-2.75918E-09-6.25869E-09
 -1       817-1.05634E+05-2.52693E+04-6.30903E+02-5.33623E+04 9.48603E-10 8.90168E-10
 -1       818-1.06532E+05-2.44468E+04-1.30476E+03-5.21376E+04-2.36855E-09-6.30666E-09
 -1       819-1.06300E+05-2.64390E+04-3.10354E+03-5.30567E+04-6.53927E-10 2.09866E-10
 -1       820-1.06553E+05-2.78475E+04-6.54813E+03-5.07376E+04-2.19416E-10-1.30626E-10
 -1       821-1.12924E+05 3.14348E+03-1.45748E+04 1.06851E+03-1.19599E-09-3.74712E-10
 -1       822-1.18099E+05-4.41203E+03-9.26966E+03 3.83412E+03-4.96527E-10-2.03272E-10
 -1       823-1.15103E+05 3.14171E+02-3.77467E+03 1.04825E+03 1.25988E-09 7.13953E-11
 -1       824-1.15684E+05-4.16789E+02-2.09577E+03 3.85879E+03-4.33090E-10-5.10369E-10
 -1       825-1.15343E+05 3.38458E+01-9.63252E+02 1.04368E+03-2.60167E-09-7.34190E-10
 -1       826-1.15416E+05-3.62937E+01-5.23076E+02 3.86591E+03-4.03574E-09-7.60025E-10
 -1       827-1.15373E+05 5.28606E+00-2.85769E+02 1.04110E+03-2.90567E-09-4.03048E-10
 -1       828-1.15386E+05-2.72763E+00-2.21063E+02 3.87006E+03-3.24252E-09-8.58613E-10
 -1       829-1.15374E+05 4.88335E+00-2.52509E+02 1.03953E+03 7.11339E-10-7.26015E-10
 -1       830-1.15409E+05-2.83599E+01-4.35990E+02 3.87179E+03 1.82061E-09-1.61327E-09
 -1       831-1.15350E+05 2.83595E+01-7.88900E+02 1.03936E+03-1.91763E-09-1.70954E-09
 -1       832-1.15629E+05-3.37490E+02-1.70867E+03 3.87060E+03 2.54559E-10 2.90242E-10
 -1       833-1.15155E+05 2.56891E+02-3.07373E+03 1.04076E+03 1.98952E-13-8.48900E-10
 -1       834-1.17596E+05-3.58951E+03-7.54686E+03 3.85925E+03-5.01217E-10-1.59946E-09
 -1       835-1.13382E+05 2.56050E+03-1.18648E+04 1.05099E+03 6.04132E-10 3.36058E-10
 -1       836-4.81402E+03 2.79097E+05 2.35781E+04-7.84004E+03-4.19277E-10-1.26420E-10
 -1       837 7.60207E+03 2.87638E+05 1.82968E+04-2.76854E+04 1.31934E-10-8.56630E-11
 -1       838-1.15787E+03 2.81848E+05 1.37836E+04-7.82097E+03-7.32598E-10 1.94220E-09
 -1       839 1.03554E+04 2.89307E+05 2.33057E+04-2.76851E+04 2.03727E-10-4.17970E-10
 -1       840-6.95790E+03 2.77427E+05 3.31200E+04-7.84028E+03-6.09361E-10-5.08862E-10
 -1       841-4.48303E+01 1.43322E+03-3.70882E+03-6.73655E+02 4.46732E-10 6.14136E-10
 -1       842-2.06765E+03-1.91041E+03-2.57407E+03 4.67703E+01-3.78193E-10-5.79803E-10
 -1       843-8.01379E+02 9.89170E+01-8.68402E+02-4.21799E+02 5.45199E-10-2.28056E-10
 -1       844-1.18881E+03-3.65189E+02-5.40625E+02-2.43545E+02 2.85271E-09-5.01643E-10
 -1       845-9.23578E+02-1.10990E+02-1.97449E+02-3.83744E+02 6.55440E-11-1.05483E-09
 -1       846-1.04595E+03-1.20893E+02-1.07420E+02-2.87424E+02-2.00928E-09 2.13154E-09
 -1       847-9.44240E+02-1.45225E+02-2.90706E+01-3.77986E+02-7.06923E-07 2.64292E-07
 -1       848-1.01656E+03-7.30940E+01 1.58292E+01-2.95219E+02-1.41135E-06 5.31366E-07
 -1       849-9.52974E+02-1.58759E+02 6.46212E+01-3.75965E+02-1.21542E-06 4.55542E-07
 -1       850-9.74498E+02-5.29518E+00 1.83762E+02-3.06423E+02-1.01513E-06 3.81807E-07
 -1       851-9.86296E+02-2.12986E+02 3.24718E+02-3.66798E+02-5.08433E-07 1.90017E-07
 -1       852-7.41258E+02 3.90041E+02 8.80987E+02-3.77404E+02-2.55859E-09-5.84706E-10
 -1       853-1.18618E+03-5.53859E+02 1.41169E+03-3.05069E+02-1.26008E-09 2.24929E-10
 -1       854 6.89458E+02 2.90044E+03 4.18422E+03-8.49438E+02 4.25374E-10 8.46455E-10
 -1       855-2.41674E+03-2.72174E+03 6.02669E+03 1.04641E+02 1.83832E-10 1.15710E-09
 -1       856-1.35264E+05 2.99867E+03-1.39099E+04 2.12872E+03-5.17184E-09-1.33969E-09
 -1       857-1.40201E+05-4.20477E+03-8.84525E+03 7.69234E+03-7.82438E-09-5.42514E-10
 -1       858-1.37344E+05 3.00550E+02-3.60199E+03 2.09523E+03-8.03516E-09-9.03583E-10
 -1       859-1.37901E+05-3.90188E+02-1.99832E+03 7.73407E+03-4.87012E-09-6.20730E-10
 -1       860-1.37575E+05 3.42339E+01-9.16452E+02 2.08666E+03-2.86184E-09-1.05382E-09
 -1       861-1.37648E+05-2.57443E+01-4.93149E+02 7.74618E+03-2.63748E-09-1.76374E-09
 -1       862-1.37604E+05 7.48457E+00-2.60993E+02 2.08306E+03 5.99528E-09-1.50106E-09
 -1       863-1.37619E+05 7.36605E+00-1.86908E+02 7.75059E+03 1.16831E-08-2.95837E-09
 -1       864-1.37606E+05 6.42834E+00-1.94152E+02 2.08223E+03 7.12407E-09-1.41668E-09
 -1       865-1.37634E+05-1.04970E+01-3.17868E+02 7.74915E+03 6.26301E-09-2.15838E-09
 -1       866-1.37589E+05 2.24553E+01-5.65880E+02 2.08450E+03 6.17490E-10-1.43926E-09
 -1       867-1.37786E+05-2.32032E+02-1.21928E+03 7.74082E+03 1.82581E-09-2.89464E-09
 -1       868-1.37449E+05 1.84051E+02-2.19194E+03 2.09060E+03 1.05172E-09-1.71224E-09
 -1       869-1.39183E+05-2.55154E+03-5.37832E+03 7.70627E+03-1.99179E-09-1.78778E-09
 -1       870-1.36184E+05 1.82369E+03-8.45708E+03 2.11932E+03 3.13707E-09-1.39789E-09
 -1       871-1.35921E+03-1.31401E+04-2.55730E+03 3.86182E+04-2.05819E-09 1.33398E-08
 -1       872-4.22401E+02-1.36003E+04-7.47770E+02 4.53339E+04-2.25396E-09 2.65374E-08
 -1       873 3.82448E+01-1.34225E+04 7.54850E+02 3.85436E+04-1.49839E-09 1.10354E-08
 -1       874 8.93499E+02-1.28148E+04 2.81379E+03 4.53662E+04-1.95564E-09-6.33412E-09
 -1       875 2.88684E+03-1.39393E+04 6.06667E+03 3.85880E+04-1.98816E-09-3.18960E-09
 -1       876 1.66236E+05 2.11573E+04 1.56705E+04 6.53774E+04-3.43903E-10-5.06589E-10
 -1       877 1.69705E+05 3.29713E+04 9.82459E+03 6.77355E+04 1.57263E-09-8.75957E-10
 -1       878 1.68900E+05 2.45638E+04 3.69777E+03 6.50423E+04 1.24032E-10-5.91399E-10
 -1       879 1.66639E+05 2.84563E+04 2.02142E+03 6.83696E+04 6.51085E-10 1.79551E-09
 -1       880 1.69192E+05 2.49252E+04 8.63099E+02 6.50217E+04-1.70013E-09-1.63385E-09
 -1       881 1.66301E+05 2.79912E+04 4.61291E+02 6.84094E+04-2.19742E-09-2.31842E-09
 -1       882 1.69225E+05 2.49669E+04 2.47650E+02 6.50243E+04-6.48316E-09 8.61171E-10
 -1       883 1.66269E+05 2.79462E+04 2.13340E+02 6.84061E+04-2.25309E-09 4.75509E-10
 -1       884 1.69222E+05 2.49672E+04 2.79979E+02 6.50253E+04-6.76863E-10-1.53887E-09
 -1       885 1.66315E+05 2.79983E+04 5.50323E+02 6.84036E+04 3.00386E-09 1.94409E-09
 -1       886 1.69179E+05 2.49195E+04 1.04436E+03 6.50250E+04-1.01366E-09 9.73273E-10
 -1       887 1.66730E+05 2.85592E+04 2.45436E+03 6.83486E+04-9.88052E-10 3.81755E-09
 -1       888 1.68820E+05 2.44830E+04 4.49289E+03 6.50524E+04 1.76436E-09 1.43723E-09
 -1       889 1.70457E+05 3.40458E+04 1.19393E+04 6.75759E+04 4.56367E-10 5.13182E-10
 -1       890 1.65584E+05 2.03423E+04 1.90440E+04 6.54575E+04 7.17137E-10 4.92946E-10
 -1       891 5.80994E+02-7.45921E+04-2.93238E+03 9.10670E+03-1.24567E-09-4.76030E-09
 -1       892-9.72360E+02-7.56367E+04-2.33495E+03 3.23681E+04-3.19676E-09-1.07160E-08
 -1       893 1.51716E+02-7.49239E+04-1.85845E+03 9.07118E+03-5.37739E-11-5.36855E-09
 -1       894-1.48944E+03-7.59481E+04-3.27436E+03 3.23656E+04-2.65084E-09 2.16005E-11
 -1       895 9.82347E+02-7.42782E+04-4.72199E+03 9.10909E+03-1.40813E-09-2.43517E-10
 -1       896 3.06538E+05-1.95002E+03 4.51100E+03 7.98152E+01 3.73207E-10 1.10253E-09
 -1       897 3.08474E+05 2.25807E+03 3.19486E+03 5.78402E+02 7.95206E-09 1.38402E-09
 -1       898 3.07295E+05-3.05625E+02 1.17349E+03 1.51009E+02 2.43824E-06-5.09544E-10
 -1       899 3.07594E+05 3.54961E+02 7.46245E+02 4.98143E+02 4.86216E-06-2.13828E-09
 -1       900 3.07419E+05-4.83884E+01 3.22799E+02 1.60076E+02 2.43823E-06-5.29127E-10
 -1       901 3.07454E+05 6.21224E+01 2.27221E+02 5.37511E+02 7.89951E-09 1.43511E-09
 -1       902 3.07436E+05-1.30267E+01 1.76996E+02 1.11640E+02 1.06773E-09 1.08053E-09
 -1       903 3.07460E+05 5.33136E+01 2.67354E+02 7.17412E+02 1.05795E-09 1.15170E-09
 -1       904 3.07414E+05-3.97156E+01 4.25291E+02-1.98275E+01 3.82286E-10 8.05954E-10
 -1       905 3.07620E+05 2.94722E+02 9.54483E+02 1.13248E+03-1.40241E-09 7.34303E-10
 -1       906 3.07275E+05-2.54804E+02 1.61542E+03-3.03431E+02-2.77307E-10 6.42331E-11
 -1       907 3.08547E+05 1.90902E+03 4.01846E+03 2.00176E+03-5.23990E-10-3.14969E-10
 -1       908 3.06490E+05-1.65496E+03 6.32163E+03-8.89128E+02 8.79567E-10-1.34332E-09
 -1       909 3.13925E+05 1.23116E+04 1.75108E+04 3.80403E+03 2.70214E-09-2.74326E-09
 -1       910 3.01908E+05-1.06576E+04 2.43974E+04-2.10574E+03 2.88716E-09-4.11637E-09
 -1       911 1.80444E+04 2.75092E+02-1.23670E+03-1.10664E+03-2.06401E-09-2.81483E-09
 -1       912 2.09426E+04-3.53127E+02-2.68848E+02 4.26026E+03-2.78618E-10-6.68059E-10
 -1       913 1.87135E+04 5.64875E+01-3.50292E+02-9.88156E+02 7.25038E-10 1.60119E-09
 -1       914 1.98394E+04-7.60555E+01-2.31666E+01 4.07084E+03 5.29162E-10 3.55173E-09
 -1       915 1.91167E+04 2.01836E+01-7.17696E+01-9.17145E+02-2.20587E-09 4.21524E-09
 -1       916 1.93056E+04-2.13141E+01 1.76621E+00 3.97855E+03-4.33568E-09 5.50158E-09
 -1       917 1.92333E+04 1.17669E+01 3.42789E+01-8.95900E+02-2.54511E-09 4.91358E-09
 -1       918 1.93634E+04 2.69393E+00 1.14173E+02 3.98572E+03-1.24196E-09 5.59072E-09
 -1       919 1.90600E+04-4.58378E+00 1.53123E+02-9.24307E+02-3.17391E-09 3.93143E-09
 -1       920 2.00758E+04 1.10880E+02 5.69311E+02 4.09250E+03-1.94615E-09 3.50728E-09
 -1       921 1.85372E+04-1.07980E+02 6.13952E+02-1.00265E+03-1.01861E-09 7.35525E-10
 -1       922 2.17878E+04 8.64246E+02 2.22329E+03 4.30037E+03 5.96572E-10-1.05362E-09
 -1       923 1.73817E+04-7.81296E+02 2.60004E+03-1.13228E+03 6.51653E-10-4.15002E-09
 -1       924 2.62664E+04 5.81874E+03 8.81300E+03 4.63149E+03 5.05985E-09-7.16045E-09
 -1       925 1.41137E+04-5.09752E+03 1.05781E+04-1.33435E+03 4.21909E-09-1.09790E-08
 -1       926-2.53805E+05 5.67171E+03-1.31940E+04 5.18900E+03-2.58177E-09-1.53077E-08
 -1       927-2.58857E+05-6.51294E+03-9.18223E+03-9.03698E+03 1.70568E-08-1.73640E-08
 -1       928-2.56865E+05 8.76357E+02-3.57070E+03 4.51317E+03-1.45295E-09-1.32359E-08
 -1       929-2.53292E+05-9.16474E+02-1.39316E+03-6.07938E+03-1.51242E-08-1.30606E-08
 -1       930-2.59291E+05 1.92712E+01-1.42080E+03 2.23062E+03-7.25663E-10-6.73845E-09
 -1       931-2.50311E+05 3.10604E+01 8.02377E+02-7.45211E+02 8.00128E-10-3.92347E-09
 -1       932-2.59780E+05-1.21428E+02-7.66296E+02-8.20892E+02-9.23819E-10 1.71929E-09
 -1       933-2.51618E+05 1.53385E+02 1.09949E+03 4.95582E+03 7.81228E-10 5.83852E-09
 -1       934-2.58021E+05-7.46538E+01 1.19487E+02-3.46981E+03-2.30213E-09 8.89264E-09
 -1       935-2.54878E+05 3.49007E+02 1.33256E+03 8.84703E+03 5.35209E-10 1.28491E-08
 -1       936-2.56608E+05-2.48140E+02 1.88392E+03-4.71253E+03 2.46253E-10 1.23740E-08
 -1       937-2.54687E+05 2.24909E+03 4.76516E+03 9.47473E+03 1.03697E-08 1.41927E-08
 -1       938-2.58230E+05-1.95833E+03 7.23460E+03-4.09771E+03 1.13415E-08 1.00995E-08
 -1       939-2.46074E+05 1.46256E+04 2.10093E+04 6.63714E+03 6.12950E-09 9.63405E-09
 -1       940-2.65141E+05-1.26738E+04 2.79728E+04-1.87437E+03-1.17086E-09 3.84171E-09
 -1       941 1.98513E+06-9.96308E+04 2.30896E+05 2.56151E+02-2.29991E-07-1.16415E-10
 -1       942 2.08503E+06 1.15365E+05 1.63261E+05 7.80890E+01-4.71747E-07-2.02272E-09
 -1       943 2.02371E+06-1.56218E+04 5.98138E+04 1.81880E+02-3.71391E-07 6.33008E-10
 -1       944 2.04018E+06 1.80814E+04 3.76250E+04 1.61037E+02-2.63978E-07-6.36646E-10
 -1       945 2.03009E+06-2.44519E+03 1.54262E+04 1.73229E+02-1.66226E-07 1.66165E-09
 -1       946 2.03279E+06 2.87138E+03 9.25787E+03 1.70659E+02-7.08527E-08 3.51645E-09
 -1       947 2.03114E+06-4.24358E+02 4.62031E+03 1.72262E+02 3.87399E-09 2.28999E-09
 -1       948 2.03171E+06 7.86068E+02 3.82563E+03 1.71229E+02 7.98647E-08 9.23372E-10
 -1       949 2.03118E+06-3.61335E+02 4.05303E+03 1.72660E+02 3.56360E-07-2.99440E-09
 -1       950 2.03250E+06 2.32953E+03 7.61754E+03 1.66421E+02 6.39015E-07 3.02532E-09
 -1       951 2.03034E+06-1.96674E+03 1.24736E+04 1.77069E+02 2.06517E-06-3.87354E-09
 -1       952 2.03842E+06 1.45239E+04 3.02596E+04 1.24277E+02 3.48974E-06-7.70797E-10
 -1       953 2.02522E+06-1.25458E+04 4.80530E+04 2.14801E+02 1.74469E-06 4.52928E-09
 -1       954 2.07444E+06 9.26461E+04 1.31116E+05-2.40031E+02 2.95979E-09 2.89219E-09
 -1       955 1.99423E+06-8.00126E+04 1.85391E+05 5.41334E+02-1.11810E-08 3.92902E-10
 -1       956-1.02852E+05-1.81252E+03-3.85907E+03 1.39439E+04-1.71849E-09 6.00267E-10
 -1       957-1.03562E+05-5.78374E+02-1.95094E+03 1.62427E+04-7.14863E-10-8.10019E-11
 -1       958-1.03169E+05-6.59271E+01-8.77411E+02 1.38611E+04 1.17552E-09-2.28056E-10
 -1       959-1.03232E+05-1.10201E+01-4.46534E+02 1.63334E+04-1.51704E-09-1.12163E-09
 -1       960-1.03202E+05 1.41033E+01-2.16680E+02 1.38528E+04-3.03089E-09-6.29370E-10
 -1       961-1.03207E+05 1.48420E+01-1.14183E+02 1.63426E+04-4.92992E-09-1.54159E-10
 -1       962-1.03209E+05 1.42137E+01-6.39429E+01 1.38519E+04-2.41334E-09 3.07182E-10
 -1       963-1.03206E+05 1.58821E+01-4.88775E+01 1.63438E+04-3.32466E-09 3.10479E-10
 -1       964-1.03211E+05 1.51328E+01-5.62930E+01 1.38516E+04-4.67207E-09-4.41219E-10
 -1       965-1.03210E+05 1.70790E+01-9.47978E+01 1.63436E+04-6.78304E-09-9.49399E-10
 -1       966-1.03209E+05 1.69884E+01-1.76545E+02 1.38521E+04-8.91816E-10-3.08546E-10
 -1       967-1.03235E+05-1.87812E+00-3.62465E+02 1.63387E+04 1.00027E-08-4.07908E-10
 -1       968-1.03185E+05-4.60481E+01-7.11229E+02 1.38566E+04 5.70753E-09-3.08489E-10
 -1       969-1.03506E+05-4.60228E+02-1.58168E+03 1.62891E+04-3.11616E-10-2.91010E-10
 -1       970-1.02930E+05-1.46107E+03-3.12822E+03 1.39023E+04 6.12545E-10-1.08457E-09
 -1       971-1.95669E+05 2.46710E+03-1.14503E+04 2.13890E+03-2.42494E-09-9.21318E-10
 -1       972-1.99722E+05-3.46046E+03-7.28131E+03 7.78376E+03-1.78647E-09 2.52840E-10
 -1       973-1.97381E+05 2.46992E+02-2.96725E+03 2.09875E+03-1.65915E-09-3.14344E-10
 -1       974-1.97831E+05-3.19867E+02-1.64918E+03 7.83615E+03 9.65599E-10 2.15095E-10
 -1       975-1.97571E+05 2.83592E+01-7.63407E+02 2.08627E+03 4.18254E-10-1.32070E-09
 -1       976-1.97625E+05-1.94022E+01-4.24173E+02 7.85461E+03-2.92653E-09 6.68066E-10
 -1       977-1.97595E+05 6.99491E+00-2.50912E+02 2.08024E+03 1.50010E-09-1.93216E-09
 -1       978-1.97606E+05 6.27403E+00-2.28156E+02 7.86256E+03 1.27820E-09 7.79139E-10
 -1       979-1.97594E+05 8.40895E+00-3.04699E+02 2.07831E+03 1.51812E-09-7.94785E-10
 -1       980-1.97641E+05-3.00782E+01-5.65833E+02 7.86206E+03 6.12329E-09-1.65981E-10
 -1       981-1.97561E+05 3.95538E+01-1.04598E+03 2.08075E+03-3.93129E-10-1.52056E-09
 -1       982-1.97931E+05-4.44390E+02-2.27860E+03 7.85210E+03-7.96263E-10-8.60467E-10
 -1       983-1.97299E+05 3.43918E+02-4.10516E+03 2.08833E+03 1.44450E-09-1.28716E-09
 -1       984-2.00556E+05-4.79135E+03-1.00821E+04 7.81438E+03-1.61731E-09 6.67342E-11
 -1       985-1.94929E+05 3.42043E+03-1.58531E+04 2.11897E+03 4.02156E-09-1.76624E-09
 -3
    1PSTEP                        35          18           1          
  100CL  118 2.81600E-01         841                     0   18           1
 -4  DISP        4    1
 -5  D1          1    2    1    0
 -5  D2          1    2    2    0
 -5  D3          1    2    3    0
 -5  ALL         1    2    0    0    1ALL
 -1         1 3.52727E-05 0.00000E+00 0.00000E+00
 -1         2 2.69402E-05 0.00000E+00 0.00000E+00
 -1         3 2.26853E-05 0.00000E+00 0.00000E+00
 -1         4 1.94972E-05 0.00000E+00 0.00000E+00
 -1         5 1.79726E-05 0.00000E+00 0.00000E+00
 -1         8 2.79179E-05-3.51226E-07 0.00000E+00
 -1         9 2.16956E-05 2.05201E-07 0.00000E+00
 -1        10 2.09729E-05-8.25980E-07 0.00000E+00
 -1        11 1.91886E-05-1.57913E-07 0.00000E+00
 -1        12 1.73565E-05 4.16645E-07 0.00000E+00
 -1        15 1.30985E-05-6.42226E-07 0.00000E+00
 -1        16 1.64662E-05 1.89057E-07 0.00000E+00
 -1        17 1.49650E-05-1.67513E-06 0.00000E+00
 -1        18 1.50101E-05-3.21139E-07 0.00000E+00
 -1        19 1.57193E-05 8.25794E-07 0.00000E+00
 -1        20 1.59547E-05 8.91026E-06 0.00000E+00
 -1        21 1.59469E-05 2.12719E-05 0.00000E+00
 -1        22 5.04047E-06-4.43026E-07 0.00000E+00
 -1        23 6.60038E-06 6.22345E-07 0.00000E+00
 -1        24 6.19497E-06-2.00532E-06 0.00000E+00
 -1        25 1.34033E-05-2.08679E-07 0.00000E+00
 -1        26 1.40125E-05 1.09710E-06 0.00000E+00
 -1        27 1.33395E-05 8.58785E-06 0.00000E+00
 -1        28 1.25316E-05 2.09662E-05 0.00000E+00
 -1        29 0.00000E+00 0.00000E+00 0.00000E+00
 -1        30 1.70829E-06 7.94573E-07 0.00000E+00
 -1        31 1.73700E-06-1.85966E-06 0.00000E+00
 -1        32 0.00000E+00 0.00000E+00 0.00000E+00
 -1        33 1.18134E-05 1.70504E-06 0.00000E+00
 -1        34 1.12064E-05 8.55672E-06 0.00000E+00
 -1        35 1.00464E-05 2.08021E-05 0.00000E+00
 -1        36 3.47682E-05-2.25506E-19 0.00000E+00
 -1        37 3.42475E-05-5.19784E-19 0.00000E+00
 -1        38 3.37278E-05-7.65223E-19 1.32349E-23
 -1        39 3.32050E-05-6.94278E-19 0.00000E+00
 -1        40 3.26821E-05-4.08875E-19-1.32349E-23
 -1        41 3.21586E-05-1.73858E-19 0.00000E+00
 -1        42 3.16350E-05-5.10770E-20 1.32349E-23
 -1        43 3.11113E-05-9.01331E-20 6.61744E-24
 -1        44 3.05876E-05-2.08916E-19 1.32349E-23
 -1        45 3.00640E-05-3.96099E-19 6.61744E-24
 -1        46 2.95404E-05-4.21718E-19 0.00000E+00
 -1        47 2.90172E-05-3.18543E-19-6.61744E-24
 -1        48 2.84940E-05-2.49050E-19 0.00000E+00
 -1        49 2.79730E-05-8.27420E-20 0.00000E+00
 -1        50 2.74512E-05 9.96546E-21-1.32349E-23
 -1        51 3.47135E-05-5.98986E-08 0.00000E+00
 -1        52 3.37915E-05-1.17176E-07 0.00000E+00
 -1        53 3.25770E-05-1.73983E-07 0.00000E+00
 -1        54 3.11438E-05-2.31096E-07 0.00000E+00
 -1        55 2.95660E-05-2.89281E-07 1.34417E-24
 -1        56 3.45608E-05-2.75841E-07-1.32349E-23
 -1        57 3.38265E-05-5.70606E-07 6.61744E-24
 -1        58 3.30923E-05-8.61335E-07 2.64698E-23
 -1        59 3.23477E-05-1.13750E-06 0.00000E+00
 -1        60 3.15921E-05-1.38525E-06-2.64698E-23
 -1        61 3.08207E-05-1.59298E-06 0.00000E+00
 -1        62 3.00301E-05-1.74991E-06 0.00000E+00
 -1        63 2.92167E-05-1.84633E-06 0.00000E+00
 -1        64 2.83775E-05-1.87418E-06 0.00000E+00
 -1        65 2.75101E-05-1.82652E-06 1.32349E-23
 -1        66 2.66128E-05-1.69863E-06 0.00000E+00
 -1        67 2.56847E-05-1.48685E-06-1.32349E-23
 -1        68 2.47251E-05-1.19038E-06-2.64698E-23
 -1        69 2.37380E-05-8.08054E-07-6.61744E-24
 -1        70 2.27189E-05-3.44766E-07-1.32349E-23
 -1        71 2.66742E-05 2.18109E-20 6.61744E-24
 -1        72 2.64078E-05 2.35034E-19-3.30872E-24
 -1        73 2.61413E-05 5.77670E-19 0.00000E+00
 -1        74 2.58749E-05 8.99529E-19-3.30872E-24
 -1        75 2.56084E-05 1.04694E-18-6.61744E-24
 -1        76 2.53419E-05 9.93585E-19 0.00000E+00
 -1        77 2.50754E-05 7.99341E-19 0.00000E+00
 -1        78 2.48088E-05 4.95099E-19 0.00000E+00
 -1        79 2.45424E-05 1.09030E-19 0.00000E+00
 -1        80 2.42759E-05-2.44875E-19-3.30872E-24
 -1        81 2.40095E-05-4.78779E-19 6.61744E-24
 -1        82 2.37432E-05-5.75637E-19 0.00000E+00
 -1        83 2.34770E-05-4.63713E-19-6.61744E-24
 -1        84 2.32117E-05-2.51599E-19-3.30872E-24
 -1        85 2.29461E-05-6.34128E-20-6.61744E-24
 -1        86 2.66980E-05 2.59785E-08 3.30872E-24
 -1        87 2.59762E-05 6.33571E-08 0.00000E+00
 -1        88 2.49476E-05 9.96750E-08 0.00000E+00
 -1        89 2.37844E-05 1.36710E-07 4.13590E-25
 -1        90 2.26470E-05 1.74335E-07 0.00000E+00
 -1        91 2.52224E-05 3.72034E-06 0.00000E+00
 -1        92 2.06071E-05 1.49979E-05 0.00000E+00
 -1        93 1.51369E-05 2.84801E-05 0.00000E+00
 -1        94 1.08951E-05 3.87987E-05 0.00000E+00
 -1        95 9.23236E-06 4.23658E-05-6.61744E-24
 -1        96 1.14076E-05 3.56546E-05-3.30872E-24
 -1        97 1.65228E-05 2.08642E-05 0.00000E+00
 -1        98 2.36889E-05 3.10277E-07-3.30872E-24
 -1        99 3.09157E-05-2.04144E-05 0.00000E+00
 -1       100 3.62137E-05-3.57142E-05-3.30872E-24
 -1       101 3.86292E-05-4.30794E-05 6.61744E-24
 -1       102 3.71954E-05-4.01162E-05 0.00000E+00
 -1       103 3.31042E-05-3.01874E-05 6.61744E-24
 -1       104 2.76406E-05-1.67189E-05 3.30872E-24
 -1       105 2.29058E-05-5.13058E-06 0.00000E+00
 -1       106 2.24879E-05-8.84882E-20-6.61744E-24
 -1       107 2.22883E-05-3.52169E-19-3.30872E-24
 -1       108 2.20890E-05-7.28715E-19 6.61744E-24
 -1       109 2.18892E-05-1.14724E-18 3.30872E-24
 -1       110 2.16894E-05-1.57680E-18 0.00000E+00
 -1       111 2.14895E-05-1.86013E-18 0.00000E+00
 -1       112 2.12896E-05-2.02171E-18-6.61744E-24
 -1       113 2.10898E-05-1.99621E-18 0.00000E+00
 -1       114 2.08899E-05-1.83119E-18 0.00000E+00
 -1       115 2.06900E-05-1.60288E-18 3.30872E-24
 -1       116 2.04902E-05-1.28428E-18 0.00000E+00
 -1       117 2.02905E-05-9.95653E-19 3.30872E-24
 -1       118 2.00908E-05-6.66320E-19 0.00000E+00
 -1       119 1.98918E-05-2.89373E-19 3.30872E-24
 -1       120 1.96926E-05-6.82563E-20 3.30872E-24
 -1       121 2.26612E-05-1.37986E-07 3.30872E-24
 -1       122 2.25629E-05-2.75549E-07 1.65436E-24
 -1       123 2.23676E-05-4.13134E-07 0.00000E+00
 -1       124 2.20525E-05-5.50689E-07 0.00000E+00
 -1       125 2.15951E-05-6.88285E-07 0.00000E+00
 -1       126 2.13751E-05 3.14179E-06 0.00000E+00
 -1       127 1.76452E-05 1.26237E-05-1.65436E-24
 -1       128 1.20867E-05 2.68208E-05-3.30872E-24
 -1       129 5.32135E-06 4.40944E-05 1.65436E-24
 -1       130-1.71040E-06 6.20440E-05 0.00000E+00
 -1       131-8.06239E-06 7.82680E-05 0.00000E+00
 -1       132-1.29692E-05 9.07910E-05 0.00000E+00
 -1       133-1.56904E-05 9.76485E-05 0.00000E+00
 -1       134-1.60484E-05 9.82710E-05 0.00000E+00
 -1       135-1.38853E-05 9.21164E-05 0.00000E+00
 -1       136-9.65824E-06 8.03155E-05 0.00000E+00
 -1       137-3.81882E-06 6.40324E-05 0.00000E+00
 -1       138 2.80385E-06 4.55537E-05-3.30872E-24
 -1       139 9.38878E-06 2.71814E-05 0.00000E+00
 -1       140 1.51239E-05 1.11912E-05-3.30872E-24
 -1       141 1.94007E-05-3.76126E-20 0.00000E+00
 -1       142 1.93047E-05-7.35598E-20-1.65436E-24
 -1       143 1.92086E-05-4.57518E-20 3.30872E-24
 -1       144 1.91126E-05-7.03800E-20 0.00000E+00
 -1       145 1.90166E-05-1.06414E-19 0.00000E+00
 -1       146 1.89206E-05-1.41525E-19-1.65436E-24
 -1       147 1.88246E-05-8.24739E-20-3.30872E-24
 -1       148 1.87287E-05-2.80106E-20 0.00000E+00
 -1       149 1.86327E-05-2.25258E-20 0.00000E+00
 -1       150 1.85368E-05-1.19295E-20 1.65436E-24
 -1       151 1.84410E-05-3.40866E-21 3.30872E-24
 -1       152 1.83454E-05-4.24833E-20 0.00000E+00
 -1       153 1.82498E-05-8.41599E-20 0.00000E+00
 -1       154 1.81555E-05-9.97455E-20 8.27181E-25
 -1       155 1.80607E-05-3.44859E-20 4.13590E-25
 -1       156 1.85204E-05-2.37792E-08-1.65436E-24
 -1       157 1.56309E-05-4.76357E-08 0.00000E+00
 -1       158 1.25542E-05-7.22408E-08-8.27181E-25
 -1       159 1.10157E-05-9.31123E-08 0.00000E+00
 -1       160 1.26749E-05-1.14951E-07-1.65436E-24
 -1       161 1.94152E-05-1.13827E-07 3.30872E-24
 -1       162 1.93875E-05-3.72824E-07-1.65436E-24
 -1       163 1.93970E-05-7.31048E-07-3.30872E-24
 -1       164 1.94262E-05-1.14211E-06 1.65436E-24
 -1       165 1.94527E-05-1.54586E-06 0.00000E+00
 -1       166 1.94540E-05-1.88222E-06 0.00000E+00
 -1       167 1.94141E-05-2.10878E-06 3.30872E-24
 -1       168 1.93173E-05-2.18368E-06-1.65436E-24
 -1       169 1.91623E-05-2.10314E-06 0.00000E+00
 -1       170 1.89479E-05-1.86416E-06 0.00000E+00
 -1       171 1.86879E-05-1.50379E-06 0.00000E+00
 -1       172 1.83967E-05-1.05959E-06 1.65436E-24
 -1       173 1.80962E-05-5.90383E-07 0.00000E+00
 -1       174 1.78097E-05-1.54518E-07 0.00000E+00
 -1       175 1.75543E-05 1.96876E-07-8.27181E-25
 -1       191 1.79509E-05 6.93844E-08 0.00000E+00
 -1       192 1.78958E-05 1.38864E-07 0.00000E+00
 -1       193 1.78078E-05 2.08365E-07 0.00000E+00
 -1       194 1.76879E-05 2.77859E-07 1.65436E-24
 -1       195 1.75370E-05 3.47317E-07 3.30872E-24
 -1       251 2.76034E-05 4.82548E-06 0.00000E+00
 -1       252 2.72164E-05 1.76524E-05 0.00000E+00
 -1       253 2.68072E-05 3.23319E-05 0.00000E+00
 -1       254 2.64454E-05 4.30400E-05-3.30872E-24
 -1       255 2.61290E-05 4.61683E-05-6.61744E-24
 -1       256 2.57866E-05 3.82134E-05 0.00000E+00
 -1       257 2.53486E-05 2.17488E-05-6.61744E-24
 -1       258 2.48020E-05-5.35076E-07 3.30872E-24
 -1       259 2.42575E-05-2.27148E-05 6.61744E-24
 -1       260 2.38242E-05-3.88677E-05-3.30872E-24
 -1       261 2.34849E-05-4.64185E-05 0.00000E+00
 -1       262 2.31673E-05-4.29112E-05 3.30872E-24
 -1       263 2.28029E-05-3.19529E-05 0.00000E+00
 -1       264 2.23935E-05-1.72538E-05 0.00000E+00
 -1       265 2.20087E-05-4.61132E-06 0.00000E+00
 -1       266 2.66964E-05-4.00402E-07-3.30872E-24
 -1       267 2.56259E-05-4.45328E-07 8.27181E-25
 -1       268 2.42022E-05-4.90957E-07 1.65436E-24
 -1       269 2.19218E-05-5.37039E-07 8.27181E-25
 -1       270 1.83609E-05-5.86874E-07 0.00000E+00
 -1       271 2.68922E-05 5.68226E-07 1.32349E-23
 -1       272 2.59535E-05 1.19442E-06 6.61744E-24
 -1       273 2.51103E-05 1.56804E-06-1.32349E-23
 -1       274 2.43461E-05 1.72244E-06 0.00000E+00
 -1       275 2.36500E-05 1.69433E-06 0.00000E+00
 -1       276 2.30079E-05 1.52048E-06 6.61744E-24
 -1       277 2.24063E-05 1.23861E-06 1.32349E-23
 -1       278 2.18307E-05 8.86986E-07 0.00000E+00
 -1       279 2.12668E-05 5.04227E-07 1.32349E-23
 -1       280 2.07001E-05 1.29162E-07 0.00000E+00
 -1       281 2.01161E-05-1.99469E-07-1.32349E-23
 -1       282 1.95007E-05-4.43101E-07 0.00000E+00
 -1       283 1.88395E-05-5.63758E-07 0.00000E+00
 -1       284 1.81209E-05-5.23294E-07 0.00000E+00
 -1       285 1.73280E-05-2.86356E-07-1.32349E-23
 -1       286 2.16463E-05 9.35765E-07 0.00000E+00
 -1       287 2.16012E-05 1.41468E-06 8.27181E-25
 -1       288 2.15560E-05 1.65162E-06 0.00000E+00
 -1       289 2.15115E-05 1.65673E-06 0.00000E+00
 -1       290 2.14671E-05 1.46212E-06 0.00000E+00
 -1       291 2.14227E-05 1.10028E-06-8.27181E-25
 -1       292 2.13783E-05 6.19493E-07 0.00000E+00
 -1       293 2.13340E-05 6.82929E-08-8.27181E-25
 -1       294 2.12896E-05-4.98140E-07 0.00000E+00
 -1       295 2.12452E-05-1.02459E-06 0.00000E+00
 -1       296 2.12008E-05-1.45963E-06 1.65436E-24
 -1       297 2.11564E-05-1.75201E-06 0.00000E+00
 -1       298 2.11119E-05-1.86396E-06 0.00000E+00
 -1       299 2.10668E-05-1.75805E-06 0.00000E+00
 -1       300 2.10218E-05-1.41750E-06 0.00000E+00
 -1       301 2.08222E-05 1.98697E-07 0.00000E+00
 -1       302 1.99436E-05 1.98454E-07 8.27181E-25
 -1       303 1.90642E-05 1.99248E-07 0.00000E+00
 -1       304 1.81885E-05 1.99780E-07 0.00000E+00
 -1       305 1.73211E-05 1.98703E-07 0.00000E+00
 -1       306 2.10381E-05 7.51173E-07-6.61744E-24
 -1       307 2.04753E-05 1.01090E-06-6.61744E-24
 -1       308 2.00037E-05 1.02834E-06 0.00000E+00
 -1       309 1.96060E-05 8.43700E-07 0.00000E+00
 -1       310 1.92681E-05 4.99032E-07 0.00000E+00
 -1       311 1.89741E-05 3.64865E-08 0.00000E+00
 -1       312 1.87082E-05-5.01263E-07 0.00000E+00
 -1       313 1.84543E-05-1.07134E-06 0.00000E+00
 -1       314 1.81964E-05-1.63071E-06 0.00000E+00
 -1       315 1.79185E-05-2.13639E-06 0.00000E+00
 -1       316 1.76045E-05-2.54562E-06-1.32349E-23
 -1       317 1.72389E-05-2.81593E-06 0.00000E+00
 -1       318 1.68057E-05-2.90545E-06 0.00000E+00
 -1       319 1.62912E-05-2.77236E-06 0.00000E+00
 -1       320 1.56780E-05-2.37704E-06-6.61744E-24
 -1       321 2.08778E-05 1.14757E-06 0.00000E+00
 -1       322 2.07769E-05 5.62514E-06 0.00000E+00
 -1       323 2.06664E-05 1.19809E-05 0.00000E+00
 -1       324 2.05478E-05 1.95815E-05-1.65436E-24
 -1       325 2.04265E-05 2.75597E-05-3.30872E-24
 -1       326 2.03089E-05 3.50466E-05 0.00000E+00
 -1       327 2.01995E-05 4.12655E-05 0.00000E+00
 -1       328 2.01003E-05 4.54451E-05-1.65436E-24
 -1       329 2.00079E-05 4.71964E-05 3.30872E-24
 -1       330 1.99164E-05 4.61402E-05 0.00000E+00
 -1       331 1.98188E-05 4.24235E-05 0.00000E+00
 -1       332 1.97094E-05 3.62039E-05 1.65436E-24
 -1       333 1.95873E-05 2.81082E-05-3.30872E-24
 -1       334 1.94549E-05 1.87707E-05 0.00000E+00
 -1       335 1.93191E-05 9.05902E-06 3.30872E-24
 -1       336 2.01666E-05-9.67812E-07 0.00000E+00
 -1       337 1.92277E-05-1.10983E-06 1.65436E-24
 -1       338 1.81971E-05-1.25189E-06-3.30872E-24
 -1       339 1.71157E-05-1.39368E-06-1.65436E-24
 -1       340 1.60246E-05-1.53551E-06 0.00000E+00
 -1       341 1.86115E-05 5.01980E-06 0.00000E+00
 -1       342 1.22653E-05 2.11610E-05 0.00000E+00
 -1       343 3.05490E-06 4.45285E-05 3.30872E-24
 -1       344-7.82429E-06 7.20345E-05 0.00000E+00
 -1       345-1.86444E-05 9.93936E-05 3.30872E-24
 -1       346-2.76779E-05 1.22321E-04 1.65436E-24
 -1       347-3.37692E-05 1.37811E-04 0.00000E+00
 -1       348-3.58336E-05 1.42881E-04 0.00000E+00
 -1       349-3.39799E-05 1.37499E-04 3.30872E-24
 -1       350-2.83382E-05 1.21697E-04 0.00000E+00
 -1       351-2.00722E-05 9.84930E-05 3.30872E-24
 -1       352-1.03045E-05 7.09689E-05 0.00000E+00
 -1       353-5.52053E-07 4.34892E-05 3.30872E-24
 -1       354 7.66823E-06 2.04190E-05 0.00000E+00
 -1       355 1.32395E-05 4.81677E-06-1.65436E-24
 -1       356 1.90545E-05-9.41664E-06 0.00000E+00
 -1       357 1.89142E-05-1.92527E-05 0.00000E+00
 -1       358 1.87770E-05-2.87484E-05 0.00000E+00
 -1       359 1.86504E-05-3.69870E-05 1.65436E-24
 -1       360 1.85370E-05-4.32963E-05 0.00000E+00
 -1       361 1.84361E-05-4.70122E-05 1.65436E-24
 -1       362 1.83413E-05-4.79737E-05 0.00000E+00
 -1       363 1.82451E-05-4.60312E-05 0.00000E+00
 -1       364 1.81415E-05-4.15983E-05 3.30872E-24
 -1       365 1.80271E-05-3.50990E-05 0.00000E+00
 -1       366 1.79044E-05-2.73587E-05 0.00000E+00
 -1       367 1.77789E-05-1.92077E-05 1.65436E-24
 -1       368 1.76571E-05-1.15562E-05 0.00000E+00
 -1       369 1.75459E-05-5.31275E-06 0.00000E+00
 -1       370 1.74443E-05-1.11282E-06-4.13590E-25
 -1       371 2.54748E-05-2.00933E-07-1.65436E-24
 -1       372 2.64564E-05-2.23174E-07 4.13590E-25
 -1       373 2.40008E-05-2.46827E-07 0.00000E+00
 -1       374 1.99786E-05-2.74744E-07-2.06795E-25
 -1       375 1.63339E-05-3.01442E-07-1.03398E-25
 -1       376 2.30783E-05-1.10120E-05 0.00000E+00
 -1       377 2.82871E-05-2.55217E-05-1.65436E-24
 -1       378 3.41085E-05-4.17385E-05 0.00000E+00
 -1       379 3.98394E-05-5.77031E-05-1.65436E-24
 -1       380 4.47980E-05-7.15177E-05 3.30872E-24
 -1       381 4.82956E-05-8.12988E-05-1.65436E-24
 -1       382 4.99781E-05-8.61374E-05 3.30872E-24
 -1       383 4.94885E-05-8.51516E-05 1.65436E-24
 -1       384 4.69851E-05-7.88516E-05 0.00000E+00
 -1       385 4.26424E-05-6.77695E-05 0.00000E+00
 -1       386 3.70916E-05-5.35789E-05-3.30872E-24
 -1       387 3.09828E-05-3.79618E-05 0.00000E+00
 -1       388 2.51077E-05-2.29422E-05 3.30872E-24
 -1       389 2.02559E-05-1.05417E-05 0.00000E+00
 -1       390 1.69550E-05-2.15841E-06-8.27181E-25
 -1       406 1.71383E-05 4.85224E-07 0.00000E+00
 -1       407 1.68944E-05 5.53857E-07 1.65436E-24
 -1       408 1.66276E-05 6.22452E-07 0.00000E+00
 -1       409 1.63408E-05 6.90882E-07 0.00000E+00
 -1       410 1.60370E-05 7.58957E-07 0.00000E+00
 -1       466 1.32905E-05 4.29288E-06 0.00000E+00
 -1       467 1.34999E-05 6.89183E-06 0.00000E+00
 -1       468 1.37117E-05 7.91137E-06 6.61744E-24
 -1       469 1.39257E-05 8.09278E-06 0.00000E+00
 -1       470 1.41396E-05 7.70916E-06-6.61744E-24
 -1       471 1.43538E-05 7.02816E-06 3.30872E-24
 -1       472 1.45679E-05 6.15074E-06 0.00000E+00
 -1       473 1.47819E-05 5.17596E-06-3.30872E-24
 -1       474 1.49958E-05 4.14825E-06-6.61744E-24
 -1       475 1.52096E-05 3.11156E-06 3.30872E-24
 -1       476 1.54234E-05 2.10480E-06 0.00000E+00
 -1       477 1.56366E-05 1.16715E-06 3.30872E-24
 -1       478 1.58498E-05 3.76522E-07 0.00000E+00
 -1       479 1.60601E-05-1.87744E-07 0.00000E+00
 -1       480 1.62715E-05-3.20162E-07-2.06795E-25
 -1       481 8.35585E-06-6.19167E-07-4.13590E-25
 -1       482 6.33626E-06-5.85548E-07 0.00000E+00
 -1       483 6.00531E-06-5.49825E-07 8.27181E-25
 -1       484 6.33140E-06-5.13868E-07 4.13590E-25
 -1       485 6.33610E-06-4.77869E-07 8.27181E-25
 -1       486 9.37900E-06 8.48131E-06 0.00000E+00
 -1       487 3.28499E-06 2.36912E-05 3.30872E-24
 -1       488-3.05522E-06 3.95315E-05 6.61744E-24
 -1       489-7.51200E-06 5.05376E-05 0.00000E+00
 -1       490-8.93203E-06 5.35978E-05 6.61744E-24
 -1       491-6.25616E-06 4.56595E-05-3.30872E-24
 -1       492-4.02975E-07 2.89482E-05 0.00000E+00
 -1       493 7.72538E-06 5.79937E-06 0.00000E+00
 -1       494 1.61823E-05-1.82859E-05 0.00000E+00
 -1       495 2.30295E-05-3.77914E-05 0.00000E+00
 -1       496 2.70665E-05-4.94647E-05 0.00000E+00
 -1       497 2.70592E-05-5.01576E-05 0.00000E+00
 -1       498 2.37005E-05-4.20018E-05 0.00000E+00
 -1       499 1.77674E-05-2.72028E-05 0.00000E+00
 -1       500 1.13574E-05-1.11857E-05 3.30872E-24
 -1       501 1.63678E-05 8.83741E-07 0.00000E+00
 -1       502 1.62737E-05 1.29830E-06 0.00000E+00
 -1       503 1.61794E-05 1.41460E-06 0.00000E+00
 -1       504 1.60860E-05 1.21575E-06-1.65436E-24
 -1       505 1.59924E-05 7.45543E-07 3.30872E-24
 -1       506 1.58989E-05 4.89309E-08-1.65436E-24
 -1       507 1.58054E-05-7.85563E-07 0.00000E+00
 -1       508 1.57118E-05-1.66886E-06-1.65436E-24
 -1       509 1.56182E-05-2.50247E-06 0.00000E+00
 -1       510 1.55248E-05-3.18810E-06 0.00000E+00
 -1       511 1.54315E-05-3.65596E-06 0.00000E+00
 -1       512 1.53383E-05-3.83716E-06 1.65436E-24
 -1       513 1.52451E-05-3.71795E-06 3.30872E-24
 -1       514 1.51519E-05-3.28587E-06-1.65436E-24
 -1       515 1.50585E-05-2.58865E-06 0.00000E+00
 -1       516 1.62225E-05 2.58155E-07 1.65436E-24
 -1       517 1.71294E-05 3.38008E-07 0.00000E+00
 -1       518 1.79547E-05 4.17141E-07-8.27181E-25
 -1       519 1.74665E-05 4.97903E-07 0.00000E+00
 -1       520 1.41801E-05 5.73197E-07 0.00000E+00
 -1       521 1.56200E-05 6.48035E-07 0.00000E+00
 -1       522 1.48570E-05 8.32342E-07 0.00000E+00
 -1       523 1.41807E-05 7.86750E-07 1.32349E-23
 -1       524 1.35733E-05 5.49769E-07 6.61744E-24
 -1       525 1.30217E-05 1.62784E-07 1.32349E-23
 -1       526 1.25104E-05-3.32814E-07 0.00000E+00
 -1       527 1.20239E-05-8.94898E-07 1.32349E-23
 -1       528 1.15463E-05-1.48108E-06 0.00000E+00
 -1       529 1.10619E-05-2.04883E-06 0.00000E+00
 -1       530 1.05546E-05-2.55570E-06-6.61744E-24
 -1       531 1.00090E-05-2.95960E-06 0.00000E+00
 -1       532 9.40953E-06-3.21894E-06-6.61744E-24
 -1       533 8.74094E-06-3.29301E-06 1.32349E-23
 -1       534 7.99044E-06-3.14136E-06 0.00000E+00
 -1       535 7.14066E-06-2.72653E-06-1.32349E-23
 -1       536 1.49631E-05-7.75210E-07 1.65436E-24
 -1       537 1.49653E-05-9.12743E-08 4.13590E-25
 -1       538 1.49676E-05 3.99530E-07 0.00000E+00
 -1       539 1.49705E-05 7.20264E-07-1.03398E-25
 -1       540 1.49736E-05 8.93931E-07 0.00000E+00
 -1       541 1.49768E-05 9.43548E-07 0.00000E+00
 -1       542 1.49800E-05 8.92129E-07 7.75482E-26
 -1       543 1.49832E-05 7.62682E-07-2.58494E-26
 -1       544 1.49865E-05 5.78217E-07 0.00000E+00
 -1       545 1.49897E-05 3.61738E-07 0.00000E+00
 -1       546 1.49930E-05 1.36252E-07 1.03398E-25
 -1       547 1.49962E-05-7.52341E-08 1.03398E-25
 -1       548 1.49995E-05-2.49717E-07 0.00000E+00
 -1       549 1.50028E-05-3.64194E-07 0.00000E+00
 -1       550 1.50062E-05-3.95640E-07 0.00000E+00
 -1       551 1.36531E-05-1.72932E-06 1.18261E-24
 -1       552 1.21923E-05-1.78215E-06-4.13590E-25
 -1       553 1.06488E-05-1.83499E-06 1.65436E-24
 -1       554 9.08998E-06-1.88850E-06 1.65436E-24
 -1       555 7.58327E-06-1.94342E-06 0.00000E+00
 -1       556 1.45824E-05-8.30863E-07 0.00000E+00
 -1       557 1.42743E-05-1.80357E-07 0.00000E+00
 -1       558 1.40324E-05 2.94806E-07 6.61744E-24
 -1       559 1.38490E-05 6.14866E-07 0.00000E+00
 -1       560 1.37163E-05 8.00092E-07-3.30872E-24
 -1       561 1.36265E-05 8.70924E-07 0.00000E+00
 -1       562 1.35719E-05 8.47812E-07 0.00000E+00
 -1       563 1.35449E-05 7.51229E-07-1.65436E-24
 -1       564 1.35378E-05 6.01656E-07 0.00000E+00
 -1       565 1.35429E-05 4.19575E-07 0.00000E+00
 -1       566 1.35525E-05 2.25476E-07-1.65436E-24
 -1       567 1.35590E-05 3.98495E-08-4.13590E-25
 -1       568 1.35547E-05-1.16818E-07-1.24077E-24
 -1       569 1.35320E-05-2.24058E-07-4.91138E-25
 -1       570 1.34835E-05-2.61419E-07-4.13590E-25
 -1       571 1.50527E-05-2.25870E-07-8.27181E-25
 -1       572 1.50966E-05-1.60955E-07-4.13590E-25
 -1       573 1.51409E-05-1.20827E-07-8.27181E-25
 -1       574 1.51853E-05-9.96381E-08 4.13590E-25
 -1       575 1.52298E-05-9.15143E-08 0.00000E+00
 -1       576 1.52744E-05-9.05456E-08-8.27181E-25
 -1       577 1.53189E-05-9.08189E-08 0.00000E+00
 -1       578 1.53635E-05-8.64165E-08 0.00000E+00
 -1       579 1.54080E-05-7.14197E-08 0.00000E+00
 -1       580 1.54526E-05-3.99103E-08-8.27181E-25
 -1       581 1.54971E-05 1.40290E-08 0.00000E+00
 -1       582 1.55417E-05 9.63100E-08 3.30872E-24
 -1       583 1.55862E-05 2.12839E-07 0.00000E+00
 -1       584 1.56307E-05 3.69461E-07 0.00000E+00
 -1       585 1.56751E-05 5.71992E-07 0.00000E+00
 -1       586 1.47803E-05-3.02021E-07 0.00000E+00
 -1       587 1.45167E-05-2.82757E-07 4.13590E-25
 -1       588 1.42330E-05-2.63516E-07 0.00000E+00
 -1       589 1.39436E-05-2.44459E-07-1.03398E-25
 -1       590 1.36623E-05-2.25822E-07 0.00000E+00
 -1       591 1.49411E-05-2.08740E-07 0.00000E+00
 -1       592 1.48774E-05-1.15965E-07 0.00000E+00
 -1       593 1.48193E-05-3.89853E-08 8.27181E-25
 -1       594 1.47655E-05 2.56756E-08 4.13590E-25
 -1       595 1.47150E-05 8.14914E-08 0.00000E+00
 -1       596 1.46665E-05 1.31910E-07-4.13590E-25
 -1       597 1.46187E-05 1.80377E-07 8.27181E-25
 -1       598 1.45704E-05 2.30331E-07-4.13590E-25
 -1       599 1.45202E-05 2.85215E-07 0.00000E+00
 -1       600 1.44668E-05 3.48469E-07 4.13590E-25
 -1       601 1.44091E-05 4.23531E-07-8.27181E-25
 -1       602 1.43456E-05 5.13848E-07 0.00000E+00
 -1       603 1.42753E-05 6.22865E-07-8.27181E-25
 -1       604 1.41968E-05 7.54048E-07 7.75482E-26
 -1       605 1.41091E-05 9.10869E-07 2.06795E-25
 -1       606 1.57356E-05 1.16271E-06 1.65436E-24
 -1       607 1.57508E-05 1.53219E-06 0.00000E+00
 -1       608 1.57656E-05 1.93231E-06-1.65436E-24
 -1       609 1.57803E-05 2.36089E-06 0.00000E+00
 -1       610 1.57949E-05 2.81573E-06 0.00000E+00
 -1       611 1.58096E-05 3.29460E-06 0.00000E+00
 -1       612 1.58241E-05 3.79523E-06 0.00000E+00
 -1       613 1.58387E-05 4.31541E-06 0.00000E+00
 -1       614 1.58533E-05 4.85287E-06 0.00000E+00
 -1       615 1.58678E-05 5.40536E-06 0.00000E+00
 -1       616 1.58823E-05 5.97064E-06 8.27181E-25
 -1       617 1.58969E-05 6.54647E-06 0.00000E+00
 -1       618 1.59114E-05 7.13059E-06 0.00000E+00
 -1       619 1.59259E-05 7.72076E-06 0.00000E+00
 -1       620 1.59404E-05 8.31473E-06-4.13590E-25
 -1       621 1.54029E-05 8.71178E-07 8.27181E-25
 -1       622 1.50946E-05 9.16794E-07-4.13590E-25
 -1       623 1.47980E-05 9.62416E-07-1.65436E-24
 -1       624 1.45165E-05 1.00792E-06 0.00000E+00
 -1       625 1.42536E-05 1.05316E-06-8.27181E-25
 -1       626 1.56206E-05 1.17984E-06 0.00000E+00
 -1       627 1.55087E-05 1.56795E-06 0.00000E+00
 -1       628 1.53849E-05 1.98694E-06 0.00000E+00
 -1       629 1.52509E-05 2.43323E-06 1.65436E-24
 -1       630 1.51080E-05 2.90321E-06 0.00000E+00
 -1       631 1.49575E-05 3.39322E-06 0.00000E+00
 -1       632 1.48009E-05 3.89959E-06 0.00000E+00
 -1       633 1.46395E-05 4.41867E-06 0.00000E+00
 -1       634 1.44747E-05 4.94677E-06 0.00000E+00
 -1       635 1.43079E-05 5.48023E-06 4.13590E-25
 -1       636 1.41405E-05 6.01539E-06-8.27181E-25
 -1       637 1.39738E-05 6.54857E-06-4.13590E-25
 -1       638 1.38091E-05 7.07609E-06-8.27181E-25
 -1       639 1.36478E-05 7.59429E-06 3.10193E-25
 -1       640 1.34911E-05 8.09946E-06 3.10193E-25
 -1       641 1.59550E-05 9.52724E-06-2.06795E-25
 -1       642 1.59549E-05 1.02082E-05 0.00000E+00
 -1       643 1.59547E-05 1.09439E-05-5.16988E-26
 -1       644 1.59544E-05 1.17251E-05 0.00000E+00
 -1       645 1.59540E-05 1.25425E-05 0.00000E+00
 -1       646 1.59537E-05 1.33868E-05 0.00000E+00
 -1       647 1.59533E-05 1.42488E-05 1.61559E-27
 -1       648 1.59528E-05 1.51192E-05 0.00000E+00
 -1       649 1.59524E-05 1.59887E-05 1.29247E-26
 -1       650 1.59520E-05 1.68480E-05-1.29247E-26
 -1       651 1.59516E-05 1.76879E-05 5.16988E-26
 -1       652 1.59511E-05 1.84992E-05 0.00000E+00
 -1       653 1.59507E-05 1.92724E-05-2.06795E-25
 -1       654 1.59499E-05 1.99985E-05 0.00000E+00
 -1       655 1.59493E-05 2.06681E-05 8.27181E-25
 -1       656 1.54211E-05 8.85835E-06 8.27181E-25
 -1       657 1.49609E-05 8.80373E-06-4.13590E-25
 -1       658 1.45484E-05 8.74922E-06 1.65436E-24
 -1       659 1.41579E-05 8.69469E-06 0.00000E+00
 -1       660 1.37635E-05 8.64005E-06 0.00000E+00
 -1       661 1.57830E-05 9.54554E-06 0.00000E+00
 -1       662 1.55948E-05 1.02310E-05-8.27181E-25
 -1       663 1.53908E-05 1.09586E-05 0.00000E+00
 -1       664 1.51739E-05 1.17212E-05 0.00000E+00
 -1       665 1.49467E-05 1.25115E-05 0.00000E+00
 -1       666 1.47119E-05 1.33223E-05 0.00000E+00
 -1       667 1.44721E-05 1.41463E-05 0.00000E+00
 -1       668 1.42300E-05 1.49763E-05 0.00000E+00
 -1       669 1.39884E-05 1.58052E-05 1.65436E-24
 -1       670 1.37499E-05 1.66256E-05 0.00000E+00
 -1       671 1.35172E-05 1.74305E-05 0.00000E+00
 -1       672 1.32931E-05 1.82125E-05 8.27181E-25
 -1       673 1.30801E-05 1.89646E-05 1.65436E-24
 -1       674 1.28807E-05 1.96791E-05 8.27181E-25
 -1       675 1.26981E-05 2.03492E-05-8.27181E-25
 -1       676 1.53760E-05 2.12207E-05-1.65436E-24
 -1       677 1.48055E-05 2.11694E-05 0.00000E+00
 -1       678 1.42356E-05 2.11181E-05 1.65436E-24
 -1       679 1.36664E-05 2.10670E-05 8.27181E-25
 -1       680 1.30984E-05 2.10159E-05 0.00000E+00
 -1       681 5.13823E-06 8.64173E-07 1.65436E-24
 -1       682 5.23991E-06 8.81395E-07 0.00000E+00
 -1       683 5.34103E-06-4.79650E-08 3.30872E-24
 -1       684 5.44201E-06-1.58488E-06-1.65436E-24
 -1       685 5.54233E-06-3.53816E-06 3.30872E-24
 -1       686 5.64231E-06-5.71855E-06-1.65436E-24
 -1       687 5.74211E-06-7.99212E-06 0.00000E+00
 -1       688 5.84201E-06-1.02253E-05 0.00000E+00
 -1       689 5.94227E-06-1.22750E-05 3.30872E-24
 -1       690 6.04311E-06-1.39968E-05 1.65436E-24
 -1       691 6.14465E-06-1.51666E-05 0.00000E+00
 -1       692 6.24661E-06-1.55581E-05 0.00000E+00
 -1       693 6.34820E-06-1.47547E-05 0.00000E+00
 -1       694 6.44636E-06-1.23348E-05-8.27181E-25
 -1       695 6.53601E-06-7.48424E-06 0.00000E+00
 -1       696 3.36378E-06-3.72067E-07-1.65436E-24
 -1       697 2.24448E-06-2.98363E-07-8.27181E-25
 -1       698 1.50759E-06-2.24425E-07 0.00000E+00
 -1       699 9.79445E-07-1.49859E-07 0.00000E+00
 -1       700 5.22643E-07-7.52845E-08 3.30872E-24
 -1       701 3.33722E-06 3.75905E-06 1.65436E-24
 -1       702-1.08386E-07 1.25044E-05-1.65436E-24
 -1       703-4.76868E-06 2.43964E-05 0.00000E+00
 -1       704-1.01055E-05 3.80244E-05 1.65436E-24
 -1       705-1.54008E-05 5.15453E-05 0.00000E+00
 -1       706-1.99379E-05 6.31165E-05-1.65436E-24
 -1       707-2.32006E-05 7.13832E-05 0.00000E+00
 -1       708-2.46898E-05 7.50023E-05 0.00000E+00
 -1       709-2.43612E-05 7.37910E-05 0.00000E+00
 -1       710-2.21814E-05 6.75895E-05 0.00000E+00
 -1       711-1.85729E-05 5.74893E-05 0.00000E+00
 -1       712-1.39550E-05 4.46045E-05 1.65436E-24
 -1       713-8.98882E-06 3.07551E-05 3.30872E-24
 -1       714-4.33231E-06 1.77673E-05 0.00000E+00
 -1       715-5.71440E-07 7.24904E-06 0.00000E+00
 -1       716 6.54634E-06 9.28984E-06-8.27181E-25
 -1       717 6.50821E-06 1.57986E-05 0.00000E+00
 -1       718 6.48081E-06 2.02782E-05-4.13590E-25
 -1       719 6.45987E-06 2.28598E-05 2.06795E-25
 -1       720 6.44181E-06 2.37472E-05 4.13590E-25
 -1       721 6.42395E-06 2.31456E-05-2.06795E-25
 -1       722 6.40473E-06 2.13173E-05 0.00000E+00
 -1       723 6.38334E-06 1.85255E-05 0.00000E+00
 -1       724 6.35999E-06 1.50702E-05 0.00000E+00
 -1       725 6.33531E-06 1.12523E-05 0.00000E+00
 -1       726 6.31041E-06 7.38608E-06-8.27181E-25
 -1       727 6.28617E-06 3.78624E-06 0.00000E+00
 -1       728 6.26366E-06 7.57094E-07-1.65436E-24
 -1       729 6.24182E-06-1.39756E-06 0.00000E+00
 -1       730 6.22218E-06-2.40802E-06-3.30872E-24
 -1       731-1.22834E-06 6.27641E-07 0.00000E+00
 -1       732-5.24076E-06 6.57056E-07-4.13590E-25
 -1       733-6.23613E-06 6.93986E-07 0.00000E+00
 -1       734-5.00843E-06 7.30876E-07 0.00000E+00
 -1       735-2.16035E-06 7.64884E-07 8.27181E-25
 -1       736 1.25632E-06 1.42927E-05 0.00000E+00
 -1       737-7.20470E-06 3.58555E-05 1.65436E-24
 -1       738-1.76163E-05 6.22820E-05-3.30872E-24
 -1       739-2.87686E-05 9.05340E-05 1.65436E-24
 -1       740-3.92567E-05 1.17145E-04 3.30872E-24
 -1       741-4.76925E-05 1.38648E-04 1.65436E-24
 -1       742-5.32211E-05 1.52777E-04 0.00000E+00
 -1       743-5.50415E-05 1.57282E-04-1.65436E-24
 -1       744-5.32474E-05 1.52142E-04 0.00000E+00
 -1       745-4.79489E-05 1.37378E-04 0.00000E+00
 -1       746-4.00376E-05 1.15266E-04 3.30872E-24
 -1       747-3.03762E-05 8.81302E-05 1.65436E-24
 -1       748-2.02000E-05 5.95060E-05 0.00000E+00
 -1       749-1.07344E-05 3.29405E-05 0.00000E+00
 -1       750-3.05434E-06 1.14816E-05 1.65436E-24
 -1       751 6.61816E-06-1.12021E-06 0.00000E+00
 -1       752 7.06866E-06-6.80932E-07 3.30872E-24
 -1       753 7.51753E-06-5.07711E-07 0.00000E+00
 -1       754 7.97155E-06-4.26348E-07 0.00000E+00
 -1       755 8.42573E-06-3.99762E-07-1.32349E-23
 -1       756 8.88093E-06-3.92000E-07 0.00000E+00
 -1       757 9.33625E-06-3.95402E-07-1.32349E-23
 -1       758 9.79176E-06-4.02537E-07 0.00000E+00
 -1       759 1.02473E-05-4.11594E-07 0.00000E+00
 -1       760 1.07027E-05-4.20803E-07-6.61744E-24
 -1       761 1.11580E-05-4.28619E-07-1.32349E-23
 -1       762 1.16127E-05-4.33468E-07 0.00000E+00
 -1       763 1.20672E-05-4.29318E-07 1.32349E-23
 -1       764 1.25181E-05-4.09949E-07 0.00000E+00
 -1       765 1.29702E-05-3.46374E-07 0.00000E+00
 -1       766 4.15392E-06-1.98423E-06-3.30872E-24
 -1       767 2.97818E-07-1.95826E-06 0.00000E+00
 -1       768-3.64820E-06-1.93330E-06-1.03398E-25
 -1       769-5.95933E-06-1.90198E-06 0.00000E+00
 -1       770-4.78348E-06-1.86966E-06 0.00000E+00
 -1       771 5.53249E-06-1.13462E-06-1.32349E-23
 -1       772 4.93113E-06-4.37751E-07-6.61744E-24
 -1       773 4.38841E-06 1.00935E-07-1.32349E-23
 -1       774 3.89869E-06 4.97358E-07 0.00000E+00
 -1       775 3.45626E-06 7.67466E-07 0.00000E+00
 -1       776 3.05518E-06 9.27278E-07-6.61744E-24
 -1       777 2.68943E-06 9.92838E-07 0.00000E+00
 -1       778 2.35302E-06 9.80218E-07 0.00000E+00
 -1       779 2.03989E-06 9.05510E-07 1.32349E-23
 -1       780 1.74402E-06 7.84824E-07 0.00000E+00
 -1       781 1.45937E-06 6.34286E-07 0.00000E+00
 -1       782 1.17994E-06 4.70040E-07-3.30872E-24
 -1       783 8.99740E-07 3.08232E-07 6.61744E-24
 -1       784 6.13008E-07 1.65060E-07 0.00000E+00
 -1       785 3.14024E-07 5.67191E-08 0.00000E+00
 -1       786 1.34389E-05-5.36602E-08 0.00000E+00
 -1       787 1.34769E-05 6.65414E-08 4.13590E-25
 -1       788 1.35148E-05 1.57284E-07 0.00000E+00
 -1       789 1.35531E-05 2.23945E-07 0.00000E+00
 -1       790 1.35915E-05 2.71892E-07 0.00000E+00
 -1       791 1.36299E-05 3.06489E-07 4.13590E-25
 -1       792 1.36683E-05 3.33093E-07-8.27181E-25
 -1       793 1.37067E-05 3.57061E-07 0.00000E+00
 -1       794 1.37451E-05 3.83748E-07 0.00000E+00
 -1       795 1.37836E-05 4.18510E-07 0.00000E+00
 -1       796 1.38220E-05 4.66706E-07 8.27181E-25
 -1       797 1.38604E-05 5.33699E-07 0.00000E+00
 -1       798 1.38988E-05 6.24857E-07 0.00000E+00
 -1       799 1.39370E-05 7.45553E-07 4.13590E-25
 -1       800 1.39752E-05 9.01179E-07 8.27181E-25
 -1       801 1.22228E-05-1.71317E-07 0.00000E+00
 -1       802 9.76150E-06-1.33812E-07 0.00000E+00
 -1       803 6.66331E-06-9.80650E-08 0.00000E+00
 -1       804 3.57363E-06-6.35491E-08 8.27181E-25
 -1       805 1.13783E-06-2.73775E-08 0.00000E+00
 -1       806 1.32987E-05-7.00116E-08 0.00000E+00
 -1       807 1.31983E-05 5.32706E-08 0.00000E+00
 -1       808 1.31022E-05 1.64090E-07 0.00000E+00
 -1       809 1.30095E-05 2.65184E-07 8.27181E-25
 -1       810 1.29193E-05 3.59275E-07 1.65436E-24
 -1       811 1.28308E-05 4.49073E-07 0.00000E+00
 -1       812 1.27428E-05 5.37278E-07 1.65436E-24
 -1       813 1.26544E-05 6.26590E-07 0.00000E+00
 -1       814 1.25646E-05 7.19710E-07 0.00000E+00
 -1       815 1.24724E-05 8.19339E-07 4.13590E-25
 -1       816 1.23767E-05 9.28174E-07 1.65436E-24
 -1       817 1.22765E-05 1.04892E-06 4.13590E-25
 -1       818 1.21709E-05 1.18427E-06 8.27181E-25
 -1       819 1.20590E-05 1.33693E-06 4.13590E-25
 -1       820 1.19399E-05 1.50960E-06 4.13590E-25
 -1       821 1.39730E-05 1.34825E-06-4.13590E-25
 -1       822 1.39310E-05 1.65677E-06 0.00000E+00
 -1       823 1.38890E-05 2.01665E-06 8.27181E-25
 -1       824 1.38467E-05 2.42178E-06-8.27181E-25
 -1       825 1.38042E-05 2.86610E-06 0.00000E+00
 -1       826 1.37617E-05 3.34348E-06 0.00000E+00
 -1       827 1.37192E-05 3.84782E-06-1.65436E-24
 -1       828 1.36766E-05 4.37299E-06 0.00000E+00
 -1       829 1.36340E-05 4.91286E-06 1.65436E-24
 -1       830 1.35914E-05 5.46128E-06 8.27181E-25
 -1       831 1.35489E-05 6.01213E-06 0.00000E+00
 -1       832 1.35064E-05 6.55926E-06 8.27181E-25
 -1       833 1.34639E-05 7.09652E-06 8.27181E-25
 -1       834 1.34218E-05 7.61780E-06 0.00000E+00
 -1       835 1.33796E-05 8.11694E-06 8.27181E-25
 -1       836 1.37247E-05 1.19657E-06-1.65436E-24
 -1       837 1.33481E-05 1.29956E-06 0.00000E+00
 -1       838 1.29257E-05 1.40236E-06 3.30872E-24
 -1       839 1.25005E-05 1.50490E-06 0.00000E+00
 -1       840 1.21154E-05 1.60760E-06 0.00000E+00
 -1       841 1.39189E-05 1.34797E-06-2.06795E-25
 -1       842 1.38009E-05 1.66168E-06 5.16988E-26
 -1       843 1.36621E-05 2.03118E-06-5.16988E-26
 -1       844 1.35050E-05 2.44908E-06 0.00000E+00
 -1       845 1.33324E-05 2.90808E-06 1.61559E-27
 -1       846 1.31471E-05 3.40081E-06 0.00000E+00
 -1       847 1.29519E-05 3.91988E-06 0.00000E+00
 -1       848 1.27497E-05 4.45793E-06 0.00000E+00
 -1       849 1.25430E-05 5.00755E-06 1.29247E-26
 -1       850 1.23348E-05 5.56133E-06-1.29247E-26
 -1       851 1.21278E-05 6.11189E-06 0.00000E+00
 -1       852 1.19247E-05 6.65179E-06 2.58494E-26
 -1       853 1.17284E-05 7.17367E-06 1.03398E-25
 -1       854 1.15415E-05 7.67005E-06 0.00000E+00
 -1       855 1.13670E-05 8.13367E-06 4.13590E-25
 -1       856 1.32916E-05 9.09432E-06 8.27181E-25
 -1       857 1.32413E-05 9.69340E-06-4.13590E-25
 -1       858 1.31909E-05 1.03730E-05-1.65436E-24
 -1       859 1.31402E-05 1.11209E-05 8.27181E-25
 -1       860 1.30894E-05 1.19250E-05 1.65436E-24
 -1       861 1.30385E-05 1.27729E-05 0.00000E+00
 -1       862 1.29875E-05 1.36525E-05-1.65436E-24
 -1       863 1.29365E-05 1.45513E-05 0.00000E+00
 -1       864 1.28855E-05 1.54573E-05 0.00000E+00
 -1       865 1.28345E-05 1.63580E-05 0.00000E+00
 -1       866 1.27836E-05 1.72413E-05 0.00000E+00
 -1       867 1.27327E-05 1.80948E-05 0.00000E+00
 -1       868 1.26818E-05 1.89062E-05-1.65436E-24
 -1       869 1.26313E-05 1.96634E-05 0.00000E+00
 -1       870 1.25807E-05 2.03541E-05-8.27181E-25
 -1       871 1.29426E-05 8.58344E-06 0.00000E+00
 -1       872 1.25786E-05 8.57857E-06 0.00000E+00
 -1       873 1.22354E-05 8.57359E-06 0.00000E+00
 -1       874 1.19006E-05 8.56844E-06 1.03398E-25
 -1       875 1.15617E-05 8.56307E-06 2.06795E-25
 -1       876 1.32207E-05 9.11144E-06-1.65436E-24
 -1       877 1.30752E-05 9.71484E-06 8.27181E-25
 -1       878 1.29038E-05 1.03869E-05-1.65436E-24
 -1       879 1.27108E-05 1.11176E-05 0.00000E+00
 -1       880 1.24997E-05 1.18968E-05-1.65436E-24
 -1       881 1.22742E-05 1.27144E-05 8.27181E-25
 -1       882 1.20381E-05 1.35605E-05-1.65436E-24
 -1       883 1.17950E-05 1.44250E-05 8.27181E-25
 -1       884 1.15488E-05 1.52978E-05 0.00000E+00
 -1       885 1.13031E-05 1.61691E-05 0.00000E+00
 -1       886 1.10618E-05 1.70289E-05 0.00000E+00
 -1       887 1.08284E-05 1.78671E-05 0.00000E+00
 -1       888 1.06069E-05 1.86737E-05 1.65436E-24
 -1       889 1.04005E-05 1.94385E-05-8.27181E-25
 -1       890 1.02136E-05 2.01518E-05-8.27181E-25
 -1       891 1.20428E-05 2.09390E-05 0.00000E+00
 -1       892 1.16512E-05 2.09114E-05 4.13590E-25
 -1       893 1.13063E-05 2.08839E-05 0.00000E+00
 -1       894 1.09576E-05 2.08564E-05 0.00000E+00
 -1       895 1.05544E-05 2.08289E-05 0.00000E+00
 -1       896 1.07088E-07 6.28088E-07 0.00000E+00
 -1       897 2.14782E-07 1.39650E-06-1.65436E-24
 -1       898 3.22357E-07 2.26181E-06 0.00000E+00
 -1       899 4.30018E-07 3.18105E-06 0.00000E+00
 -1       900 5.37659E-07 4.12518E-06-3.30872E-24
 -1       901 6.45331E-07 5.06532E-06-1.65436E-24
 -1       902 7.53033E-07 5.97154E-06 0.00000E+00
 -1       903 8.60787E-07 6.81372E-06 0.00000E+00
 -1       904 9.68619E-07 7.54523E-06-3.30872E-24
 -1       905 1.07652E-06 8.11883E-06 0.00000E+00
 -1       906 1.18450E-06 8.44647E-06 0.00000E+00
 -1       907 1.29239E-06 8.43889E-06-1.65436E-24
 -1       908 1.40011E-06 7.92012E-06-3.30872E-24
 -1       909 1.50652E-06 6.71169E-06 0.00000E+00
 -1       910 1.61137E-06 4.45706E-06-1.65436E-24
 -1       911 1.70983E-06-2.61974E-06 0.00000E+00
 -1       912 1.71574E-06-4.12634E-06 0.00000E+00
 -1       913 1.72285E-06-4.05661E-06 0.00000E+00
 -1       914 1.72909E-06-2.74147E-06-1.03398E-25
 -1       915 1.73379E-06-4.92187E-07 0.00000E+00
 -1       916 1.73694E-06 2.38021E-06 0.00000E+00
 -1       917 1.73917E-06 5.57450E-06-2.06795E-25
 -1       918 1.74134E-06 8.78964E-06 0.00000E+00
 -1       919 1.74431E-06 1.17248E-05 2.06795E-25
 -1       920 1.74874E-06 1.40792E-05 0.00000E+00
 -1       921 1.75475E-06 1.55428E-05 0.00000E+00
 -1       922 1.76169E-06 1.58053E-05 0.00000E+00
 -1       923 1.76779E-06 1.45376E-05 0.00000E+00
 -1       924 1.76964E-06 1.14101E-05 0.00000E+00
 -1       925 1.76244E-06 6.06405E-06-4.13590E-25
 -1       926 1.60863E-06-1.11962E-05 1.65436E-24
 -1       927 1.47618E-06-2.07524E-05 0.00000E+00
 -1       928 1.34910E-06-2.97086E-05-3.30872E-24
 -1       929 1.23287E-06-3.72474E-05 0.00000E+00
 -1       930 1.12883E-06-4.28129E-05 3.30872E-24
 -1       931 1.03515E-06-4.58572E-05 0.00000E+00
 -1       932 9.45768E-07-4.62967E-05 0.00000E+00
 -1       933 8.54039E-07-4.40584E-05 0.00000E+00
 -1       934 7.55186E-07-3.95624E-05-3.30872E-24
 -1       935 6.46763E-07-3.32379E-05-1.65436E-24
 -1       936 5.31482E-07-2.58513E-05 0.00000E+00
 -1       937 4.13895E-07-1.81732E-05-1.65436E-24
 -1       938 2.99987E-07-1.10278E-05 0.00000E+00
 -1       939 1.93551E-07-5.23732E-06 0.00000E+00
 -1       940 9.61734E-08-1.37343E-06-3.30872E-24
 -1       941 7.00152E-07 1.17295E-07 6.61744E-24
 -1       942 1.43899E-06 2.20657E-07 6.61744E-24
 -1       943 2.17537E-06 3.16426E-07-2.64698E-23
 -1       944 2.91911E-06 4.10683E-07 0.00000E+00
 -1       945 3.66307E-06 5.04115E-07 0.00000E+00
 -1       946 4.40849E-06 5.97386E-07 1.32349E-23
 -1       947 5.15409E-06 6.90573E-07-2.64698E-23
 -1       948 5.89993E-06 7.83750E-07 1.32349E-23
 -1       949 6.64580E-06 8.76962E-07 2.64698E-23
 -1       950 7.39148E-06 9.70252E-07-1.32349E-23
 -1       951 8.13703E-06 1.06394E-06 0.00000E+00
 -1       952 8.88141E-06 1.15838E-06 1.32349E-23
 -1       953 9.62562E-06 1.25658E-06 0.00000E+00
 -1       954 1.03639E-05 1.36168E-06-6.61744E-24
 -1       955 1.11042E-05 1.50150E-06 0.00000E+00
 -1       956 1.17762E-05 1.97627E-06-4.13590E-25
 -1       957 1.17384E-05 2.28909E-06-3.10193E-25
 -1       958 1.17005E-05 2.63934E-06-6.20385E-25
 -1       959 1.16625E-05 3.02256E-06-2.06795E-25
 -1       960 1.16244E-05 3.43427E-06 4.13590E-25
 -1       961 1.15863E-05 3.86999E-06 0.00000E+00
 -1       962 1.15482E-05 4.32520E-06-8.27181E-25
 -1       963 1.15101E-05 4.79541E-06-4.13590E-25
 -1       964 1.14720E-05 5.27612E-06 8.27181E-25
 -1       965 1.14339E-05 5.76280E-06 0.00000E+00
 -1       966 1.13959E-05 6.25097E-06 0.00000E+00
 -1       967 1.13578E-05 6.73611E-06 8.27181E-25
 -1       968 1.13197E-05 7.21372E-06 1.65436E-24
 -1       969 1.12817E-05 7.67932E-06 0.00000E+00
 -1       970 1.12438E-05 8.12843E-06-1.65436E-24
 -1       971 1.11359E-05 9.01648E-06 0.00000E+00
 -1       972 1.10634E-05 9.57499E-06 8.27181E-25
 -1       973 1.09909E-05 1.02200E-05 0.00000E+00
 -1       974 1.09181E-05 1.09391E-05 0.00000E+00
 -1       975 1.08452E-05 1.17198E-05 1.65436E-24
 -1       976 1.07722E-05 1.25498E-05 0.00000E+00
 -1       977 1.06991E-05 1.34165E-05 1.65436E-24
 -1       978 1.06260E-05 1.43073E-05-8.27181E-25
 -1       979 1.05529E-05 1.52098E-05 0.00000E+00
 -1       980 1.04798E-05 1.61115E-05 0.00000E+00
 -1       981 1.04068E-05 1.69997E-05-1.65436E-24
 -1       982 1.03338E-05 1.78620E-05 8.27181E-25
 -1       983 1.02609E-05 1.86859E-05-1.65436E-24
 -1       984 1.01885E-05 1.94588E-05-8.27181E-25
 -1       985 1.01161E-05 2.01683E-05 0.00000E+00
 -3
    1PSTEP                        36          18           1          
  100CL  118 2.81600E-01         841                     0   18           1
 -4  STRESS      6    1
 -5  SXX         1    4    1    1
 -5  SYY         1    4    2    2
 -5  SZZ         1    4    3    3
 -5  SXY         1    4    1    2
 -5  SYZ         1    4    2    3
 -5  SZX         1    4    3    1
 -1         1-1.15517E+06-3.75899E+05-2.37881E+05-3.40436E+05-1.72198E-10 9.45874E-10
 -1         2-6.83978E+05-2.99432E+04 3.66335E+03-5.22548E+04-1.21815E-09-1.03967E-09
 -1         3-3.93732E+05-1.27470E+05-1.98639E+04-1.90930E+04 8.16215E-10 1.10276E-10
 -1         4-2.65946E+05-3.60400E+04 4.26983E+02-3.17167E+04 2.01211E-10-9.55680E-10
 -1         5-1.44678E+05 3.91255E+04-5.95557E+04-2.90334E+03 4.70754E-09-1.03242E-09
 -1         8-5.79765E+05-2.30769E+05-8.04637E+04-2.21239E+05-2.07365E-10 1.12050E-09
 -1         9-6.22084E+05-1.45236E+05-7.03694E+04-1.47392E+05-1.60071E-10-5.86927E-10
 -1        10-2.15339E+05-1.36423E+05 8.53280E+03-4.47281E+04-3.35020E-09-9.31929E-10
 -1        11-1.54677E+05-3.49063E+04 3.12810E+03-4.55725E+04-1.26408E-08 3.37574E-10
 -1        12-1.45214E+05 3.09854E+04-6.09170E+04-2.12767E+04 1.31658E-09 9.13342E-10
 -1        15 7.49957E+03-6.63442E+03 3.60316E+03-2.86752E+04-3.06045E-10 4.10455E-09
 -1        16-4.07509E+05-5.80363E+04 1.95363E+04-1.69474E+05 1.08230E-10 2.40145E-09
 -1        17-2.35405E+05-1.50153E+05-2.57390E+04-1.24527E+05-1.84264E-09 8.97368E-10
 -1        18-2.98679E+04-2.39900E+04-1.93764E+04-4.41909E+04 3.07849E-09-5.86321E-10
 -1        19-1.75186E+03 3.58925E+04-1.59555E+04-1.04449E+04-4.92491E-10 1.85689E-10
 -1        20 3.74546E+04-2.83599E+04-4.88593E+03 2.03762E+04 2.01521E-09-1.10504E-09
 -1        21 6.44149E+02-5.62476E+04 1.56328E+04 1.07022E+01 7.25936E-09-1.36498E-09
 -1        22 1.55622E+04 6.70708E+04 1.65932E+03-1.27433E+04-3.99950E-10-6.78483E-10
 -1        23-7.75361E+04 4.51039E+04 5.60308E+03-2.44672E+04-3.73120E-09-2.38045E-09
 -1        24-1.09919E+05-8.67776E+03 9.90309E+04-1.83721E+05-5.94143E-09 6.99705E-10
 -1        25 2.20090E+05 7.27149E+04 6.73061E+04-1.11618E+05 3.92978E-10-6.91519E-10
 -1        26 8.48873E+02 5.95602E+04 2.99153E+03-1.04259E+04-3.98226E-10-1.00567E-09
 -1        27-1.28405E+04-2.36695E+04-1.01963E+04 2.86695E+04-3.24841E-10-1.32483E-09
 -1        28-4.50683E+03-4.47196E+04-2.45103E+02 2.15747E+04-1.60043E-09-2.10953E-09
 -1        29 1.49607E+05 1.12470E+05 4.84966E+02 1.41865E+03 2.76902E-10 1.06866E-10
 -1        30 2.36997E+04 1.59549E+04 1.70644E+03-1.57890E+04 6.07814E-10-4.51655E-09
 -1        31-8.96480E+04 1.54910E+04 6.31105E+03-2.94633E+04 3.37983E-09-1.25456E-08
 -1        32 3.65126E+05 1.88275E+05 2.32449E+05-1.83360E+05 3.90887E-09 7.82165E-10
 -1        33 5.21497E+05 2.06967E+05 1.59529E+05-1.58724E+04-1.03161E-08 8.77662E-11
 -1        34-7.53610E+04-9.31710E+03-1.55318E+03 1.67973E+04-5.92381E-10 1.99634E-10
 -1        35-1.28002E+04-1.49624E+04-2.66849E+02 3.23564E+04 1.61782E-09-8.12482E-10
 -1        36-1.47672E+06 4.41113E+04-1.01934E+05-3.98680E-08-4.88035E-10 2.20462E-09
 -1        37-1.52085E+06-5.10613E+04-7.21424E+04-2.10727E-07-1.20475E-10-4.11092E-10
 -1        38-1.49375E+06 6.91430E+03-2.63785E+04-1.89747E-07-5.85546E-10-8.31278E-10
 -1        39-1.50097E+06-8.00134E+03-1.65897E+04-6.86688E-08 4.19407E-10 4.38831E-10
 -1        40-1.49656E+06 1.08153E+03-6.77754E+03-7.39757E-08 1.15199E-09-2.22371E-10
 -1        41-1.49769E+06-1.26646E+03-4.04390E+03-2.52617E-07-5.03660E-10 1.23333E-09
 -1        42-1.49702E+06 1.84194E+02-1.97102E+03-5.34871E-08-3.49642E-09-3.02151E-09
 -1        43-1.49720E+06-3.20866E+02-1.55086E+03 5.42505E-08-2.40606E-09-1.83354E-09
 -1        44-1.49705E+06 1.36538E+02-1.54464E+03 2.87073E-08 1.45053E-10-7.31006E-11
 -1        45-1.49747E+06-8.56705E+02-2.80931E+03 1.66149E-07 3.22677E-10-3.61950E-10
 -1        46-1.49675E+06 7.19674E+02-4.55550E+03-7.83310E-08 9.61751E-10 1.61549E-09
 -1        47-1.49964E+06-5.31074E+03-1.10369E+04-1.60082E-07-2.03919E-09 2.77669E-09
 -1        48-1.49489E+06 4.58737E+03-1.75154E+04-5.33710E-08-1.72669E-09-9.38599E-10
 -1        49-1.51283E+06-3.38759E+04-4.78687E+04-6.01682E-09-1.05303E-09 1.98725E-09
 -1        50-1.48359E+06 2.92635E+04-6.76387E+04 1.41228E-07-2.09948E-09 2.25918E-09
 -1        51 1.30942E+04-1.56943E+05 2.07998E+04-4.10021E+05-3.63798E-11 2.24099E-09
 -1        52 5.44757E+03-1.54355E+05 1.25247E+04-4.51319E+05 8.36735E-11 1.31695E-09
 -1        53 3.16159E+03-1.57540E+05 1.00817E+04-4.08978E+05-4.00178E-11 2.18279E-11
 -1        54 7.66998E+03-1.55328E+05 1.52926E+04-4.52461E+05 2.54659E-11-2.07547E-09
 -1        55 1.91053E+04-1.59955E+05 2.77675E+04-4.08822E+05 1.27329E-10-1.26056E-09
 -1        56-1.83196E+06-2.06825E+05-1.51262E+05-7.08860E+05 5.05679E-10-7.56700E-10
 -1        57-1.90286E+06-3.30080E+05-1.01461E+05-6.91325E+05 3.85626E-10 5.16593E-10
 -1        58-1.86122E+06-2.54660E+05-3.56340E+04-7.00768E+05 4.42924E-10-2.47383E-09
 -1        59-1.86916E+06-2.73695E+05-2.11256E+04-7.01023E+05-3.93811E-10-4.15207E-09
 -1        60-1.86531E+06-2.61315E+05-8.33414E+03-6.99838E+05 2.47837E-10-2.12685E-09
 -1        61-1.86456E+06-2.65759E+05-4.71698E+03-7.01973E+05-1.32383E-09 5.33760E-11
 -1        62-1.86576E+06-2.62360E+05-2.30104E+03-6.99897E+05 8.72546E-11-9.36211E-11
 -1        63-1.86432E+06-2.64472E+05-1.92729E+03-7.01677E+05-1.03020E-09-1.65258E-09
 -1        64-1.86555E+06-2.62578E+05-2.24286E+03-7.00140E+05-4.32465E-10 3.01191E-09
 -1        65-1.86536E+06-2.64873E+05-4.54474E+03-7.01017E+05 3.99123E-10 2.91197E-09
 -1        66-1.86472E+06-2.61984E+05-8.00824E+03-7.00549E+05-2.49997E-10-3.11957E-10
 -1        67-1.87054E+06-2.71726E+05-2.02819E+04-6.99230E+05-3.59876E-10-2.69870E-09
 -1        68-1.86043E+06-2.55953E+05-3.42087E+04-7.01850E+05-1.35969E-10-2.45200E-09
 -1        69-1.90352E+06-3.25219E+05-9.73938E+04-6.89197E+05 1.06911E-09-9.37689E-10
 -1        70-1.83207E+06-2.10311E+05-1.45204E+05-7.09932E+05-2.65572E-10 1.44064E-09
 -1        71-7.61596E+05 1.12983E+03-2.61422E+03 1.80954E-08-1.05030E-09 7.65112E-11
 -1        72-7.62662E+05-1.30812E+03-1.85214E+03 1.23846E-07-6.33486E-10-1.27605E-09
 -1        73-7.62032E+05 1.77266E+02-6.83425E+02-9.96996E-08-5.44441E-10-1.28355E-09
 -1        74-7.62154E+05-2.06185E+02-4.40568E+02-3.79241E-08 3.35000E-10-1.90624E-09
 -1        75-7.62104E+05 2.87740E+01-2.03192E+02 6.35601E-08-5.72904E-10 1.24105E-09
 -1        76-7.62074E+05-4.06295E+01-1.66586E+02-7.29223E-09-1.64160E-10 4.99238E-09
 -1        77-7.62111E+05 1.18352E+01-1.68402E+02 2.73930E-08-2.07616E-10 4.52474E-11
 -1        78-7.62089E+05-6.18159E+01-2.99214E+02-1.18035E-07 1.22080E-10 1.00339E-09
 -1        79-7.62089E+05 4.99550E+01-5.09908E+02-4.69432E-08-6.05995E-10 5.61045E-11
 -1        80-7.62251E+05-3.68403E+02-1.15514E+03-1.13359E-08-1.11874E-10-1.22957E-09
 -1        81-7.61950E+05 3.18226E+02-1.98242E+03-2.02101E-09 5.64408E-11-8.70273E-10
 -1        82-7.63221E+05-2.35834E+03-4.88524E+03 1.18556E-07-1.85111E-10 9.82936E-10
 -1        83-7.61121E+05 2.03845E+03-7.77848E+03-6.33532E-08-5.55108E-10 5.23414E-10
 -1        84-7.69082E+05-1.50543E+04-2.12748E+04-5.61128E-08-1.22256E-09 4.16549E-10
 -1        85-7.56096E+05 1.30043E+04-3.00692E+04-1.84980E-07-8.58975E-10 1.16233E-09
 -1        86-3.28336E+04 9.98402E+04 7.72158E+04 6.17417E+02-2.18279E-11-3.50553E-10
 -1        87 4.10989E+04 1.34567E+05 6.01067E+04-2.60204E+03-2.27828E-10 1.99488E-09
 -1        88-8.23001E+03 1.11151E+05 3.10508E+04 4.37271E+02-4.89308E-10-1.75050E-09
 -1        89 2.92296E+04 1.28988E+05 4.46301E+04-2.43316E+03-8.91305E-11-4.11390E-09
 -1        90-2.09734E+04 1.05413E+05 5.06290E+04 4.48551E+02-5.52973E-10 3.30263E-09
 -1        91-6.98623E+05-1.12724E+05-1.01024E+04-2.79734E+05 9.59312E-09-7.26118E-10
 -1        92-6.95069E+05-5.87023E+04 3.36391E+03-2.07872E+05 1.91488E-08-8.62059E-10
 -1        93-6.72314E+05-1.12502E+05-1.50800E+03-2.78920E+05-5.93582E-09-4.73278E-10
 -1        94-6.62174E+05-6.53335E+04 1.02067E+04-2.13029E+05-1.11547E-08 3.70358E-09
 -1        95-7.31004E+05-1.06611E+05-1.06598E+04-2.74123E+05-1.66892E-09-1.11208E-09
 -1        96-6.16273E+05-9.86658E+04 1.30167E+04-2.50709E+05 2.13004E-08 1.76385E-10
 -1        97-7.17963E+05-7.94211E+04-2.96905E+03-2.41041E+05 8.10360E-10 4.08500E-09
 -1        98-6.31542E+05-1.25882E+05 4.64079E+03-2.85519E+05-1.00267E-08 7.75790E-09
 -1        99-7.16564E+05-7.85620E+04-2.82819E+03-2.40016E+05 1.29824E-08 2.92636E-09
 -1       100-6.16682E+05-1.00454E+05 1.18478E+04-2.52457E+05 1.14840E-08 7.41007E-09
 -1       101-7.32024E+05-1.05653E+05-1.22779E+04-2.73425E+05 3.79259E-10 5.10511E-09
 -1       102-6.60941E+05-6.81945E+04 6.44161E+03-2.13254E+05-1.26929E-09-1.30149E-09
 -1       103-6.72491E+05-1.10638E+05-8.38302E+03-2.79360E+05-6.64465E-09-3.94948E-09
 -1       104-7.03990E+05-7.25784E+04-1.64343E+04-2.05165E+05-3.29692E-10 3.47791E-09
 -1       105-6.89551E+05-1.00705E+05-3.79977E+04-2.82015E+05 5.20049E-09 5.30417E-09
 -1       106-5.69070E+05 5.72143E+03-1.32322E+04-1.07988E-07 1.67918E-09-1.22782E-10
 -1       107-5.74762E+05-6.62358E+03-9.36379E+03-1.44587E-07 2.81503E-10 1.46656E-09
 -1       108-5.71281E+05 8.96971E+02-3.42864E+03-4.33087E-08-4.41564E-10 1.40039E-09
 -1       109-5.72184E+05-1.03857E+03-2.16189E+03-1.05100E-07 6.82991E-10 7.12362E-10
 -1       110-5.71645E+05 1.40861E+02-8.95793E+02-3.24015E-08 7.14363E-11-6.09418E-10
 -1       111-5.71761E+05-1.68590E+02-5.58338E+02 4.67542E-08-1.70104E-10-1.02740E-09
 -1       112-5.71703E+05 2.76317E+01-3.18063E+02 9.02527E-08 4.45511E-10 5.48816E-10
 -1       113-5.71712E+05-6.97680E+01-3.37828E+02 3.07781E-08 4.85683E-10 2.77189E-09
 -1       114-5.71694E+05 4.21073E+01-4.47784E+02 2.72320E-08-7.09651E-10-9.10831E-10
 -1       115-5.71828E+05-2.93054E+02-9.33816E+02-1.69028E-07-1.00117E-09-2.79292E-09
 -1       116-5.71586E+05 2.50773E+02-1.57159E+03-1.17649E-08-4.70135E-10 2.76714E-10
 -1       117-5.72590E+05-1.85581E+03-3.84992E+03-1.38157E-08-1.58488E-09-9.88848E-10
 -1       118-5.70934E+05 1.60372E+03-6.12324E+03-2.50148E-08-5.81213E-10-1.14551E-09
 -1       119-5.77200E+05-1.18433E+04-1.67397E+04-5.07909E-08 3.93260E-10 5.46834E-10
 -1       120-5.66980E+05 1.02306E+04-2.36578E+04 2.45135E-08 7.49879E-10 1.04501E-09
 -1       121-5.77467E+02-3.93636E+05 2.66180E+03 4.31473E+03-1.67120E-10 8.00355E-11
 -1       122 8.01456E+02-3.92631E+05 1.70602E+03 1.54215E+04-4.22204E-10-4.12729E-09
 -1       123-7.03987E+01-3.93236E+05 7.11285E+02 4.36414E+03-5.76904E-10 7.06450E-10
 -1       124 1.03424E+02-3.93021E+05 4.54848E+02 1.52753E+04-1.20690E-09 4.13820E-09
 -1       125-5.80075E+01-3.93207E+05 2.70687E+02 4.46093E+03-1.25067E-09 1.25283E-09
 -1       126-2.85259E+05-4.93625E+04 5.56749E+03-1.09316E+05 9.41367E-09 9.34051E-10
 -1       127-2.55292E+05-1.73327E+04 1.17897E+04-8.18543E+04 1.85470E-08 1.31513E-09
 -1       128-2.64877E+05-4.64644E+04 1.45744E+03-1.10578E+05 5.85196E-09-1.62379E-09
 -1       129-2.79887E+05-2.06803E+04 2.22950E+03-8.10051E+04 1.86406E-08 2.15095E-10
 -1       130-2.60999E+05-4.57699E+04 3.95898E+02-1.10429E+05 1.80152E-08-8.96449E-10
 -1       131-2.67311E+05-2.23759E+04 3.40751E+03-8.04457E+04-2.84817E-08-2.86570E-09
 -1       132-2.77252E+05-4.49202E+04-2.98792E+03-1.10976E+05-1.12144E-08 2.95009E-09
 -1       133-2.38755E+05-2.82972E+04 7.55791E+03-8.44114E+04 8.47996E-09-1.82769E-09
 -1       134-2.89166E+05-4.01392E+04-4.52730E+03-1.06166E+05 5.51051E-09 3.15964E-10
 -1       135-2.33060E+05-4.07621E+04 6.01612E+03-9.93680E+04 1.09919E-08-3.96627E-09
 -1       136-2.83054E+05-3.23767E+04-2.28361E+03-9.61125E+04 3.11786E-09-1.18941E-09
 -1       137-2.46550E+05-5.23463E+04 3.39298E+02-1.14957E+05-1.34693E-08-2.48839E-09
 -1       138-2.76097E+05-2.82395E+04-1.83006E+03-9.08893E+04 1.75857E-08 3.50815E-09
 -1       139-2.47621E+05-5.45841E+04-3.82287E+03-1.14103E+05-1.80237E-08-1.43611E-08
 -1       140-2.81970E+05-3.01505E+04-1.06260E+04-9.69563E+04-1.33422E-08-4.92946E-10
 -1       141-2.75063E+05-1.13286E+03 2.61832E+03 9.08950E-08-1.31609E-10-1.04149E-09
 -1       142-2.73901E+05 1.31126E+03 1.84863E+03 8.16504E-08-6.67395E-10 1.56751E-09
 -1       143-2.74625E+05-1.77360E+02 6.67382E+02-4.53688E-08-5.00130E-10-8.41396E-10
 -1       144-2.74413E+05 2.03668E+02 4.03333E+02-9.78976E-08 3.56285E-11-1.12674E-09
 -1       145-2.74552E+05-2.61587E+01 1.29738E+02 6.19443E-08 1.31163E-10-7.24015E-10
 -1       146-2.74505E+05 2.01111E+01 8.54166E+00 1.43160E-07-2.83301E-10-2.97291E-10
 -1       147-2.74533E+05 6.06574E+00-1.28238E+02 3.18655E-08 3.63315E-11 1.10170E-09
 -1       148-2.74559E+05-7.30737E+01-3.54039E+02-5.71436E-08 4.11627E-10 1.67621E-09
 -1       149-2.74498E+05 6.69773E+01-6.74371E+02 3.84054E-09-6.11079E-11-7.37145E-10
 -1       150-2.74787E+05-5.03626E+02-1.57207E+03-4.09511E-08-1.99701E-10-4.57476E-10
 -1       151-2.74306E+05 4.36349E+02-2.71506E+03-2.00031E-08-6.75515E-11-2.17483E-10
 -1       152-2.76118E+05-3.23513E+03-6.70156E+03-8.33478E-08 2.43737E-10-2.09639E-09
 -1       153-2.73167E+05 2.79650E+03-1.06740E+04 1.75663E-08 1.42024E-09-1.65528E-10
 -1       154-2.84157E+05-2.06527E+04-2.91913E+04-5.69479E-08 8.98603E-10 2.53794E-09
 -1       155-2.66268E+05 1.78405E+04-4.12548E+04 2.78416E-08 2.84109E-09-1.09321E-09
 -1       156-9.81748E+03-6.04272E+04 2.23796E+04 6.06785E+03 1.97360E-09-1.33849E-09
 -1       157 1.20362E+04-4.58312E+04 1.81449E+04-2.43852E+04 5.38444E-09-6.24706E-10
 -1       158-2.14926E+03-5.63343E+04 8.87597E+03 6.09658E+03 2.68153E-09-3.46972E-10
 -1       159 9.23648E+03-3.74181E+04 1.54799E+04-2.36167E+04 1.05672E-09-7.66846E-10
 -1       160-7.20021E+03-6.85934E+04 1.19975E+04 5.30004E+03-4.14275E-09-2.09297E-10
 -1       161-2.74390E+05-3.81927E+04-7.48673E+02-1.02888E+05-1.95274E-09 1.71431E-09
 -1       162-2.74332E+05-3.92759E+04-5.17748E+02-1.03207E+05-4.97911E-08 2.02323E-08
 -1       163-2.74629E+05-3.83621E+04-1.81031E+02-1.02724E+05-1.79301E-05 6.71323E-06
 -1       164-2.74077E+05-3.90575E+04-1.22455E+02-1.03369E+05-3.57615E-05 1.33975E-05
 -1       165-2.74646E+05-3.84107E+04-6.82219E+01-1.02726E+05-1.79293E-05 6.71699E-06
 -1       166-2.74161E+05-3.89044E+04-8.43285E+01-1.03244E+05-5.10634E-08 2.00970E-08
 -1       167-2.74545E+05-3.85153E+04-1.31530E+02-1.02849E+05-9.58540E-10 1.11964E-09
 -1       168-2.74447E+05-3.87086E+04-2.88955E+02-1.02941E+05 4.93037E-10-1.93006E-09
 -1       169-2.74360E+05-3.86067E+04-5.30048E+02-1.03029E+05-2.80494E-10-8.71722E-10
 -1       170-2.74986E+05-3.88751E+04-1.32247E+03-1.02566E+05 3.66501E-09-2.80161E-09
 -1       171-2.74006E+05-3.83489E+04-2.28856E+03-1.03224E+05-1.15764E-09 4.50200E-11
 -1       172-2.76760E+05-4.14946E+04-6.16923E+03-1.01911E+05 1.16813E-10 5.25120E-10
 -1       173-2.72587E+05-3.59888E+04-9.87768E+03-1.03684E+05 2.21803E-09 5.30235E-10
 -1       174-2.86696E+05-5.91153E+04-2.92668E+04-9.86750E+04 3.09228E-10-4.32465E-10
 -1       175-2.64074E+05-2.07395E+04-4.21539E+04-1.06457E+05 1.86446E-10 2.45564E-10
 -1       191 4.73098E+02 1.98944E+05 7.55859E+02-5.50132E+03-2.67391E-10 3.25417E-09
 -1       192 1.73920E+02 1.99049E+05 4.47726E+02-5.89521E+03-3.28271E-10-1.85878E-09
 -1       193 8.06886E+01 1.98981E+05 3.53349E+02-5.41253E+03-6.89624E-10-4.61114E-09
 -1       194 2.18102E+02 1.99061E+05 5.26163E+02-6.06086E+03-8.52424E-10-3.12411E-09
 -1       195 6.09346E+02 1.98925E+05 9.51081E+02-5.33540E+03-1.06411E-09 4.00632E-10
 -1       251-8.97102E+05 1.48589E+04-4.74192E+04-2.34198E+04 1.43359E-09-2.62844E-09
 -1       252-8.52806E+05-1.86531E+04-2.23588E+04 6.46395E+04 2.47093E-09 5.61977E-09
 -1       253-8.81690E+05 4.32536E+03-1.17146E+04-3.09433E+04-1.13585E-09-6.97082E-09
 -1       254-8.12697E+05-1.20761E+03 6.38667E+03 4.10511E+04 1.83377E-09 4.52985E-09
 -1       255-9.36163E+05-3.60965E+03-1.50157E+04 1.72260E+02 1.22759E-09 4.78394E-10
 -1       256-8.02683E+05 2.30470E+03 1.32974E+04-2.49069E+04 4.32362E-09-3.60205E-09
 -1       257-8.91411E+05 5.28220E+02-3.68731E+03 3.49926E+04-2.30693E-09 5.90887E-09
 -1       258-8.47590E+05-3.18550E+02 4.80189E+03-5.92936E+04 6.52953E-11-1.03629E-08
 -1       259-8.92648E+05 3.99773E+02-3.93935E+03 3.45827E+04-6.08645E-09 7.68213E-09
 -1       260-8.01683E+05 2.37453E+03 1.35275E+04-2.36805E+04-1.08651E-09-4.06590E-09
 -1       261-9.35896E+05-3.58105E+03-1.49164E+04-6.44314E+02 1.57888E-09 2.80045E-09
 -1       262-8.13868E+05-1.25157E+03 6.23667E+03 4.21351E+04 6.54455E-09 1.50919E-09
 -1       263-8.80823E+05 4.37767E+03-1.13634E+04-3.12106E+04-3.70864E-09-4.51519E-09
 -1       264-8.52168E+05-1.82881E+04-2.18052E+04 6.43478E+04-2.55665E-08 5.14228E-09
 -1       265-8.98592E+05 1.44263E+04-4.70760E+04-2.28606E+04-1.11493E-08-3.04317E-09
 -1       266-1.07471E+04-1.30026E+05 2.46137E+04-1.65619E+03-2.18279E-11 1.35277E-09
 -1       267 1.17831E+04-1.19150E+05 1.63078E+04 7.26582E+03 3.09228E-11-2.83485E-09
 -1       268-1.03816E+03-1.25894E+05 3.90248E+03-1.43987E+03-3.31966E-11 7.44109E-10
 -1       269-2.74873E+03-1.24471E+05-2.49087E+03 6.28277E+03 1.59162E-12 1.53162E-09
 -1       270 3.74603E+03-1.24672E+05-8.57136E+03-6.73346E+02 5.77529E-11 3.01878E-09
 -1       271-1.52709E+06-1.94068E+05-1.18496E+05-5.90458E+05 4.03816E-10-1.01863E-09
 -1       272-1.56545E+06-2.71236E+05-7.42926E+04-5.94222E+05 3.71188E-11-2.87855E-09
 -1       273-1.54754E+06-2.19547E+05-2.79450E+04-5.87570E+05 1.65571E-10 1.65528E-10
 -1       274-1.54175E+06-2.37576E+05-1.52541E+04-5.99702E+05 1.00044E-11 1.80421E-09
 -1       275-1.55001E+06-2.22019E+05-6.49553E+03-5.87140E+05-8.36735E-11-7.64885E-10
 -1       276-1.53885E+06-2.34430E+05-3.42420E+03-6.00491E+05-6.52562E-10 1.32468E-09
 -1       277-1.55040E+06-2.22174E+05-1.75800E+03-5.86995E+05 4.12683E-11 1.50635E-09
 -1       278-1.53843E+06-2.34264E+05-1.36813E+03-6.00705E+05-4.57760E-10-1.83558E-09
 -1       279-1.55045E+06-2.22139E+05-1.62849E+03-5.86954E+05-1.29333E-10-3.08205E-10
 -1       280-1.53869E+06-2.34525E+05-3.07187E+03-6.00667E+05 3.16902E-11-1.14676E-09
 -1       281-1.55015E+06-2.21942E+05-5.77164E+03-5.87021E+05 4.80213E-10 4.42469E-10
 -1       282-1.54117E+06-2.37410E+05-1.35348E+04-6.00089E+05 8.94545E-10 2.20189E-09
 -1       283-1.54801E+06-2.19705E+05-2.47766E+04-5.87354E+05-1.08344E-10-6.80302E-10
 -1       284-1.56210E+06-2.67335E+05-6.58747E+04-5.95327E+05 2.04636E-10-1.77351E-10
 -1       285-1.52992E+06-1.97076E+05-1.05065E+05-5.89874E+05-8.33097E-10-2.76486E-10
 -1       286-1.31613E+05-1.10729E+04 2.56040E+04-7.42074E+01 5.78204E-10-1.00408E-09
 -1       287-1.20399E+05 1.28189E+04 1.81310E+04-1.91747E+02 7.40792E-10-1.93154E-09
 -1       288-1.27329E+05-1.73640E+03 6.62629E+03 6.19484E+01-8.17941E-11 8.59472E-11
 -1       289-1.25405E+05 2.00936E+03 4.18069E+03-4.44832E+02-3.58639E-10 1.29296E-09
 -1       290-1.26610E+05-2.71904E+02 1.70894E+03 1.78887E+02 2.85180E-10-1.86446E-11
 -1       291-1.26251E+05 3.19817E+02 1.03496E+03-6.31733E+02 5.04644E-10 1.84700E-09
 -1       292-1.26484E+05-4.76549E+01 5.23818E+02 2.48853E+02 5.09106E-10 1.15533E-09
 -1       293-1.26381E+05 9.29977E+01 4.52395E+02-7.10666E+02-5.26553E-11 5.52741E-10
 -1       294-1.26480E+05-4.49906E+01 5.00774E+02 2.57822E+02 6.22949E-10 8.28834E-10
 -1       295-1.26268E+05 2.97318E+02 9.66248E+02-6.65852E+02 4.52746E-10 2.79204E-09
 -1       296-1.26596E+05-2.51981E+02 1.58795E+03 2.04038E+02 3.82105E-10 6.22094E-10
 -1       297-1.25484E+05 1.86212E+03 3.87533E+03-5.06336E+02 2.83812E-10-2.01175E-09
 -1       298-1.27263E+05-1.60905E+03 6.14159E+03 9.83031E+01 1.54429E-10 4.15412E-10
 -1       299-1.20841E+05 1.18793E+04 1.68023E+04-2.67689E+02-4.49782E-10-1.91221E-10
 -1       300-1.31237E+05-1.02613E+04 2.37262E+04-3.46172E+01 4.16350E-10 6.29370E-10
 -1       301 2.07213E+04 4.83014E+03 4.65445E+04-1.46316E+04-3.96540E-10-4.75382E-10
 -1       302 7.02503E+03 1.36244E+04 2.86604E+04-1.72261E+04-5.23642E-10-6.54172E-10
 -1       303 1.94630E+03 7.94554E+03 2.31586E+04-1.46344E+04-4.13820E-10 1.05126E-09
 -1       304 9.25755E+03 1.49701E+04 3.47173E+04-1.72101E+04-3.87899E-10 1.88675E-09
 -1       305 2.79355E+04 3.48938E+03 6.12147E+04-1.46412E+04-2.25555E-10 9.39167E-10
 -1       306-1.01061E+06-1.32874E+05-6.56947E+04-3.91750E+05-2.86491E-11-1.17143E-09
 -1       307-1.02515E+06-1.82263E+05-4.11718E+04-4.01467E+05-1.25908E-10-8.29459E-10
 -1       308-1.02199E+06-1.46926E+05-1.54988E+04-3.90107E+05 7.05995E-10-7.52152E-10
 -1       309-1.01200E+06-1.63664E+05-8.46261E+03-4.04582E+05 1.37459E-09 1.24260E-09
 -1       310-1.02337E+06-1.48281E+05-3.61574E+03-3.89865E+05 3.46063E-09 3.19233E-10
 -1       311-1.01042E+06-1.61913E+05-1.92766E+03-4.05022E+05 2.68585E-09-4.16520E-09
 -1       312-1.02358E+06-1.48377E+05-1.03402E+03-3.89801E+05 2.40209E-09-2.79407E-10
 -1       313-1.01024E+06-1.61786E+05-8.88471E+02-4.05094E+05 1.64629E-09 2.06342E-10
 -1       314-1.02357E+06-1.48382E+05-1.16634E+03-3.89809E+05-1.37049E-09 3.22188E-09
 -1       315-1.01049E+06-1.61928E+05-2.29102E+03-4.04980E+05-5.78984E-09-2.58569E-09
 -1       316-1.02330E+06-1.48269E+05-4.35551E+03-3.89891E+05-2.04159E-09 1.78579E-09
 -1       317-1.01241E+06-1.64054E+05-1.02312E+04-4.04456E+05 3.19005E-10-1.19371E-09
 -1       318-1.02164E+06-1.46618E+05-1.87471E+04-3.90173E+05-5.67070E-10 4.45652E-11
 -1       319-1.02828E+06-1.86598E+05-4.98150E+04-4.00740E+05-3.75955E-10 1.47702E-09
 -1       320-1.00790E+06-1.29579E+05-7.94764E+04-3.92126E+05-6.95763E-10 1.11322E-09
 -1       321-2.64742E+05-5.52005E+03 1.13353E+04-2.27175E+03-1.74981E-09-2.88674E-09
 -1       322-2.52688E+05 6.33637E+03 9.27625E+03 7.44317E+03-8.06466E-09 1.98668E-09
 -1       323-2.60338E+05-8.23722E+02 2.96453E+03-4.52379E+03 4.38902E-09-1.80694E-09
 -1       324-2.58160E+05 9.43575E+02 2.06037E+03 1.01474E+04 1.44710E-08 4.47267E-09
 -1       325-2.59351E+05-7.05763E+01 7.86427E+02-4.97665E+03-2.13846E-09-3.02967E-09
 -1       326-2.57244E+05 1.62136E+02 8.17981E+02 9.07989E+03-4.48165E-09 2.01427E-09
 -1       327-2.61219E+05-6.93111E+01-2.10920E+02-3.45593E+03 3.46370E-09-1.43527E-09
 -1       328-2.53461E+05 1.68082E+02 1.21197E+03 4.62260E+03 2.74659E-09-3.71173E-10
 -1       329-2.63035E+05-1.53921E+02-7.92476E+02-5.18957E+02 1.82223E-09 1.25659E-10
 -1       330-2.52444E+05 1.48640E+02 1.20507E+03-1.54016E+03 1.84971E-09 1.37382E-09
 -1       331-2.62210E+05-7.12205E+01-9.02564E+02 2.70604E+03 2.01248E-09 1.06117E-09
 -1       332-2.55808E+05-2.57414E+02-4.64531E+01-7.02194E+03-1.61921E-08-4.00274E-09
 -1       333-2.59753E+05 3.16075E+02-1.35875E+03 4.96286E+03-1.43879E-08 2.76350E-09
 -1       334-2.59744E+05-2.27424E+03-3.22876E+03-9.73108E+03-1.03905E-08-4.69657E-09
 -1       335-2.58352E+05 2.00501E+03-4.77694E+03 5.41609E+03 9.41448E-09 5.23892E-09
 -1       336 2.38741E+02-4.05164E+05-1.63961E+03-7.39711E+03-1.89334E-09 1.04137E-10
 -1       337-6.31865E+02-4.05814E+05-2.45061E+03-2.71940E+04-3.57844E-09 7.49878E-10
 -1       338 3.28146E+02-4.05088E+05-3.71401E+03-7.32222E+03-2.22508E-09 2.67698E-09
 -1       339-4.09258E+03-4.07939E+05-8.75914E+03-2.72585E+04-3.63423E-09 6.14152E-09
 -1       340 2.95468E+03-4.03071E+05-1.36472E+04-7.33338E+03-2.05637E-09 3.64736E-09
 -1       341-3.56947E+05-6.35970E+04-8.10873E+03-1.41001E+05 3.03148E-08 5.34874E-09
 -1       342-2.83135E+05-1.06273E+04 1.45081E+04-7.72901E+04 1.44086E-08 3.40094E-10
 -1       343-3.07870E+05-5.93249E+04-6.55952E+02-1.37268E+05-2.22411E-08-1.20756E-08
 -1       344-3.31978E+05-1.47754E+04 2.87146E+03-8.13054E+04 5.59316E-08 4.43008E-09
 -1       345-3.08886E+05-5.88513E+04-1.37775E+03-1.37626E+05 5.18437E-08 7.29344E-10
 -1       346-2.82704E+05-1.56472E+04 1.19605E+04-7.60752E+04-3.04797E-08-8.25582E-09
 -1       347-3.56317E+05-5.90902E+04-1.06394E+04-1.41819E+05 8.60018E-09-2.17227E-09
 -1       348-2.23132E+05-2.84795E+04 2.08285E+04-8.55265E+04 3.07327E-08 3.01944E-09
 -1       349-3.67637E+05-4.66559E+04-1.07969E+04-1.27564E+05-8.22820E-09-2.87184E-09
 -1       350-2.44062E+05-5.69175E+04 1.04902E+04-1.22979E+05 5.94355E-09-1.50678E-08
 -1       351-3.36215E+05-3.00159E+04-3.17423E+03-1.05029E+05-5.64671E-09-1.21181E-08
 -1       352-2.76974E+05-7.42956E+04-2.47669E+03-1.45722E+05-5.56426E-08-3.72434E-08
 -1       353-3.35561E+05-2.86264E+04-9.40800E+03-1.05431E+05 1.87297E-08 3.18778E-10
 -1       354-2.51106E+05-6.93060E+04-1.05739E+04-1.20182E+05-2.46008E-08-5.18571E-09
 -1       355-3.61236E+05-3.56762E+04-4.49327E+04-1.29946E+05-8.27640E-09-5.69344E-10
 -1       356-2.67904E+05 2.36774E+03-5.64463E+03 5.68036E+03 1.58289E-09 3.43857E-09
 -1       357-2.69584E+05-2.69483E+03-3.83119E+03-1.02774E+04 1.75224E-08-3.99427E-09
 -1       358-2.69419E+05 3.77669E+02-1.59545E+03 5.25133E+03 8.80286E-09 4.21642E-09
 -1       359-2.65297E+05-3.19500E+02-1.68387E+02-7.44208E+03-2.46953E-09-5.48687E-09
 -1       360-2.72107E+05-7.08573E+01-1.05830E+03 2.84407E+03-6.98958E-09 7.73881E-10
 -1       361-2.61653E+05 1.41982E+02 1.15427E+03-1.57075E+03-1.65870E-08-1.32415E-09
 -1       362-2.72973E+05-1.53308E+02-1.07958E+03-6.20029E+02 5.31725E-09-1.65379E-11
 -1       363-2.62894E+05 7.74187E+01 7.84780E+02 5.01862E+03 7.61702E-12 6.66773E-10
 -1       364-2.70898E+05 1.87132E+01-1.09699E+03-3.74446E+03-5.95017E-09-1.51957E-09
 -1       365-2.67282E+05-4.87216E+02-1.19769E+03 9.68782E+03 1.89653E-08 2.74872E-09
 -1       366-2.68693E+05 4.95181E+02-2.66836E+03-5.28970E+03-1.44099E-08-1.99270E-09
 -1       367-2.69730E+05-3.17885E+03-6.45258E+03 1.06151E+04-2.06142E-08 4.21824E-09
 -1       368-2.68480E+05 2.73172E+03-1.06820E+04-4.67210E+03-4.68978E-09-2.87127E-09
 -1       369-2.74022E+05-1.99438E+04-2.77954E+04 7.40621E+03-1.45887E-08 1.20053E-09
 -1       370-2.64312E+05 1.71764E+04-4.13349E+04-2.07997E+03 6.08225E-12-1.20417E-09
 -1       371-7.02525E+03-7.44344E+04 9.65682E+03 6.00459E+03-4.43197E-09 1.39494E-09
 -1       372 6.87762E+03-4.02125E+04 1.09623E+04-2.65825E+04 3.04499E-09 2.72772E-09
 -1       373 3.40341E+01-5.90941E+04 9.04881E+02 6.92927E+03 3.43698E-09-2.06046E-09
 -1       374-3.44510E+03-5.60775E+04-3.61329E+03-2.73993E+04 6.62612E-09 1.67317E-09
 -1       375 3.49560E+03-5.88532E+04-8.80009E+03 6.82069E+03 2.85900E-09 3.47870E-09
 -1       376-2.68538E+05-2.90248E+04-8.90058E+03-9.30039E+04-5.27450E-10 9.32232E-11
 -1       377-2.43180E+05-5.15259E+04-3.97728E+03-1.09352E+05 1.10778E-08-6.25096E-09
 -1       378-2.65465E+05-2.84408E+04-1.67019E+03-8.89017E+04 5.19839E-09 4.74347E-09
 -1       379-2.40925E+05-4.84587E+04 1.94055E+02-1.08906E+05 1.49590E-08 4.09067E-09
 -1       380-2.70766E+05-3.21102E+04-1.91847E+03-9.34305E+04 2.12922E-08 3.76950E-09
 -1       381-2.32018E+05-3.88660E+04 4.46039E+03-9.62943E+04 1.14874E-08-4.05039E-09
 -1       382-2.74063E+05-3.82634E+04-3.46108E+03-1.01284E+05-5.19287E-09-2.96583E-09
 -1       383-2.38272E+05-2.88647E+04 5.18383E+03-8.43904E+04-1.65151E-08-2.69893E-09
 -1       384-2.64454E+05-4.21541E+04-2.64115E+03-1.05283E+05 4.22942E-08 1.55467E-10
 -1       385-2.60351E+05-2.41683E+04 1.11136E+03-8.05575E+04 4.78051E-08-5.94014E-09
 -1       386-2.52272E+05-4.27464E+04-1.94226E+03-1.05337E+05-3.17533E-08-5.24062E-09
 -1       387-2.71065E+05-2.53689E+04-4.43642E+03-8.01428E+04 2.88610E-08-4.53213E-09
 -1       388-2.53884E+05-4.08488E+04-8.62846E+03-1.05810E+05 2.51746E-08-1.99902E-08
 -1       389-2.62320E+05-4.06935E+04-2.01057E+04-7.81245E+04-2.44526E-08-5.43537E-09
 -1       390-2.60777E+05-2.76103E+04-3.72885E+04-1.07161E+05-1.16952E-08-8.11269E-10
 -1       406 4.77870E+02 1.96687E+05 1.02937E+03-1.65640E+04-1.39198E-09-4.18822E-10
 -1       407 3.11909E+02 1.96874E+05 1.24929E+03-1.81664E+04-1.75555E-09-5.85715E-10
 -1       408 5.09756E+02 1.96654E+05 2.05739E+03-1.64940E+04-1.70758E-09 1.55978E-09
 -1       409 2.04153E+03 1.97450E+05 4.41541E+03-1.82699E+04-1.88516E-09 7.45786E-10
 -1       410 5.88339E+03 1.96095E+05 8.90357E+03-1.64579E+04-1.94086E-09 1.89402E-09
 -1       466 6.00160E+05-2.43688E+04 5.52536E+04 6.48422E+03-8.08313E-11 6.93763E-09
 -1       467 6.30148E+05 2.80848E+04 4.01303E+04-1.04173E+04 3.36456E-10 1.36015E-09
 -1       468 6.11902E+05-3.73093E+03 1.44178E+04 1.85213E+03 4.26965E-10 1.23237E-09
 -1       469 6.16539E+05 4.30577E+03 9.17756E+03-4.16125E+03 5.58607E-10 1.57524E-09
 -1       470 6.13719E+05-5.74558E+02 3.78357E+03 2.28005E+02 4.65025E-10-9.07676E-10
 -1       471 6.14442E+05 6.89332E+02 2.36904E+03-1.97416E+03-2.93142E-10-2.00848E-09
 -1       472 6.13994E+05-1.12694E+02 1.36228E+03-3.34995E+02 4.76721E-11-9.08301E-10
 -1       473 6.14202E+05 2.98013E+02 1.46616E+03-1.25945E+03-9.01906E-10-8.04334E-12
 -1       474 6.13957E+05-1.82931E+02 1.96429E+03-4.86721E+02-7.31922E-10-8.38270E-10
 -1       475 6.14716E+05 1.28700E+03 4.10850E+03-1.19318E+03 3.51955E-10-1.93575E-09
 -1       476 6.13478E+05-1.10099E+03 6.92137E+03-4.01259E+02 9.02565E-10-1.56115E-09
 -1       477 6.18085E+05 8.15874E+03 1.69533E+04-1.70003E+03 2.25914E-10-1.79989E-09
 -1       478 6.10584E+05-7.04967E+03 2.69577E+04 2.01389E+01-4.23501E-10-9.36780E-10
 -1       479 6.38556E+05 5.21049E+04 7.37090E+04-3.40064E+03 8.90269E-10-1.76169E-09
 -1       480 5.93003E+05-4.50101E+04 1.04102E+05 1.29932E+03 2.83929E-09-3.41970E-10
 -1       481-5.02147E+03 9.78347E+04 1.00481E+04-4.23695E+03-4.86580E-11 3.44869E-10
 -1       482 5.76676E+03 1.10161E+05 8.74926E+03 1.48142E+04-6.15046E-11 1.72264E-09
 -1       483-7.90622E+02 1.03064E+05 3.37135E+03-3.40782E+03-6.94627E-11 9.89857E-10
 -1       484 2.07695E+03 1.05663E+05 3.65781E+03 1.41419E+04-4.81766E-11-5.37195E-11
 -1       485-1.28697E+03 1.02263E+05 2.95308E+03-3.56441E+03 3.71756E-11-7.27027E-11
 -1       486-5.62802E+05-7.66469E+04-5.71980E+04-2.42039E+05-2.88310E-10 2.93221E-09
 -1       487-6.01539E+05-6.68692E+04-3.16082E+04-1.61104E+05-5.16138E-11 9.66429E-09
 -1       488-5.65289E+05-9.37091E+04-1.43986E+04-2.38278E+05-7.84439E-11-2.45427E-09
 -1       489-5.37201E+05-5.36314E+04 5.91810E+03-1.68930E+05 5.63134E-09-3.11184E-09
 -1       490-6.26290E+05-9.06496E+04-1.48553E+04-2.33499E+05-8.25366E-11 6.87805E-10
 -1       491-4.93830E+05-8.24951E+04 1.37398E+04-2.05940E+05-5.03701E-09 8.14251E-09
 -1       492-6.08469E+05-6.50180E+04-4.39838E+03-2.01138E+05-4.14002E-09 1.52376E-08
 -1       493-5.19977E+05-1.11078E+05 3.94586E+03-2.44190E+05 2.37179E-09 2.75931E-08
 -1       494-6.01171E+05-6.11150E+04-2.24856E+03-1.96082E+05-3.38923E-09 6.94848E-09
 -1       495-4.98006E+05-9.01462E+04 1.15241E+04-2.15853E+05-3.50229E-09 6.90602E-09
 -1       496-6.29624E+05-8.67067E+04-1.45348E+04-2.28818E+05 7.53857E-10 7.48787E-09
 -1       497-5.22399E+05-5.72404E+04 8.54592E+03-1.72623E+05 2.03917E-09 3.46745E-10
 -1       498-5.76552E+05-9.42313E+04-1.57009E+04-2.39097E+05 8.72819E-09-7.81938E-09
 -1       499-5.99833E+05-6.53119E+04-2.90079E+04-1.61359E+05 4.08977E-09-1.19508E-08
 -1       500-5.53230E+05-7.76949E+04-5.15105E+04-2.40952E+05-7.87077E-09 1.19962E-08
 -1       501-2.71864E+05-1.13583E+04 2.62597E+04-3.01986E+02 2.36675E-10 6.73026E-10
 -1       502-2.60316E+05 1.31503E+04 1.85993E+04 1.66740E+02 3.18039E-11-1.22964E-09
 -1       503-2.67485E+05-1.78231E+03 6.78528E+03 6.14270E+01-2.58552E-10 8.55380E-10
 -1       504-2.65447E+05 2.06152E+03 4.28067E+03-5.32466E+02-4.34405E-10 3.56067E-10
 -1       505-2.66737E+05-2.78412E+02 1.72433E+03 3.97235E+02 6.49322E-10-1.53398E-09
 -1       506-2.66343E+05 3.20935E+02 1.00702E+03-1.03923E+03 1.45240E-09-7.60778E-10
 -1       507-2.66590E+05-4.20270E+01 4.32902E+02 5.68205E+02 8.12135E-10-6.11180E-10
 -1       508-2.66503E+05 4.76432E+01 2.34591E+02-1.14858E+03 4.43570E-10-1.99450E-09
 -1       509-2.66578E+05-4.99756E+00 9.38712E+01 5.06578E+02 5.05647E-10-2.46266E-09
 -1       510-2.66492E+05-1.36278E+00 3.66153E+01-8.16907E+02 1.11520E-10-2.13824E-10
 -1       511-2.66600E+05 6.14280E+00-3.45843E+01 2.36529E+02 1.12067E-10-6.73523E-10
 -1       512-2.66484E+05-6.03495E+01-1.01459E+02-1.74323E+02 2.32603E-10-3.27699E-10
 -1       513-2.66585E+05 5.31763E+01-2.14735E+02-1.36017E+02-2.46125E-10-7.45175E-10
 -1       514-2.66662E+05-4.06501E+02-5.62094E+02 5.27348E+02-7.49729E-10 1.09594E-09
 -1       515-2.66423E+05 3.52378E+02-8.22447E+02-4.65153E+02-7.53300E-10 1.34855E-09
 -1       516-3.08194E+04 2.21480E+05 7.18594E+04-4.36313E+03-2.65572E-10 4.51564E-10
 -1       517 3.72095E+04 2.55233E+05 5.41414E+04 1.82533E+04-6.58019E-10-1.63012E-09
 -1       518-6.34927E+03 2.32465E+05 2.45890E+04-4.40737E+03 4.97039E-10-1.78289E-10
 -1       519 1.91424E+04 2.55241E+05 3.14484E+04 2.14356E+04-2.82375E-09-1.31975E-09
 -1       520-1.29020E+04 2.21672E+05 2.78156E+04-7.54644E+03-7.63066E-10-6.88806E-09
 -1       521-1.50789E+06-1.94735E+05-1.02870E+05-5.81761E+05-1.52795E-09-2.56114E-09
 -1       522-1.53823E+06-2.64650E+05-6.44904E+04-5.88400E+05 7.24356E-10-2.10730E-09
 -1       523-1.52564E+06-2.16834E+05-2.42580E+04-5.79241E+05 2.68088E-10 3.21961E-10
 -1       524-1.51767E+06-2.35430E+05-1.32446E+04-5.93163E+05 3.81647E-10 4.26326E-10
 -1       525-1.52778E+06-2.18990E+05-5.64127E+03-5.78880E+05 4.45652E-11-1.85582E-09
 -1       526-1.51520E+06-2.32655E+05-2.98270E+03-5.93796E+05-6.07827E-10-1.16557E-09
 -1       527-1.52809E+06-2.19160E+05-1.54534E+03-5.78792E+05-8.07631E-10-2.20652E-09
 -1       528-1.51491E+06-2.32429E+05-1.23203E+03-5.93877E+05-8.28763E-10-3.98813E-10
 -1       529-1.52807E+06-2.19184E+05-1.50407E+03-5.78815E+05-9.37234E-10-6.27210E-10
 -1       530-1.51526E+06-2.32561E+05-2.86730E+03-5.93695E+05-8.64816E-10-1.10981E-09
 -1       531-1.52772E+06-2.19069E+05-5.40787E+03-5.78948E+05 6.79847E-11-3.88809E-10
 -1       532-1.51771E+06-2.35129E+05-1.26825E+04-5.92976E+05 3.91083E-11-8.84711E-10
 -1       533-1.52563E+06-2.17056E+05-2.32274E+04-5.79345E+05 5.67525E-10 3.00133E-10
 -1       534-1.53748E+06-2.62998E+05-6.17399E+04-5.88291E+05-4.95675E-10 8.54925E-11
 -1       535-1.50857E+06-1.95960E+05-9.84879E+04-5.81821E+05-1.72440E-09-1.28057E-09
 -1       536 5.22224E+03-5.32038E+03 2.44930E+04-4.39345E+03 1.50976E-10-5.54792E-10
 -1       537 1.40078E+04 7.39125E+03 1.55864E+04-1.54549E+04-1.13778E-09-6.45741E-10
 -1       538 8.87542E+03-5.47723E+02 6.33334E+03-4.33552E+03-1.21418E-10-9.09495E-11
 -1       539 9.90155E+03 6.89015E+02 3.51403E+03-1.55153E+04 5.85715E-10-1.02398E-09
 -1       540 9.27174E+03-6.53041E+01 1.59254E+03-4.33156E+03 7.95808E-11-4.73960E-10
 -1       541 9.41745E+03 6.18316E+01 8.33156E+02-1.55181E+04-1.48248E-10 1.75385E-09
 -1       542 9.31862E+03-9.06095E+00 3.85804E+02-4.33272E+03 6.25278E-11 8.91873E-11
 -1       543 9.33840E+03 8.55164E+00 1.79815E+02-1.55163E+04-4.41162E-10-1.23464E-10
 -1       544 9.32508E+03 1.08742E+00 4.93854E+01-4.33335E+03 1.97701E-10-1.88152E-11
 -1       545 9.31376E+03-1.37633E+00-5.42243E+01-1.55156E+04-8.99760E-10 8.29260E-10
 -1       546 9.33272E+03 8.68430E+00-1.75663E+02-4.33347E+03 1.88362E-09 1.03091E-09
 -1       547 9.25792E+03-8.32214E+01-4.27864E+02-1.55138E+04-2.26066E-10 7.86684E-10
 -1       548 9.38553E+03 6.55606E+01-7.90121E+02-4.33513E+03-5.22391E-10 8.08313E-11
 -1       549 8.76163E+03-9.30507E+02-1.95103E+03-1.54809E+04 5.51950E-09-1.21571E-09
 -1       550 9.84879E+03 6.56276E+02-3.07585E+03-4.36635E+03 4.14548E-09 1.06184E-10
 -1       551 5.91877E+03-1.46786E+05 1.35859E+04-2.20156E+05 3.18323E-10-1.74441E-09
 -1       552 2.75895E+03-1.44382E+05 1.11298E+04-2.58612E+05-4.87489E-10 8.82210E-10
 -1       553 1.76440E+03-1.46455E+05 1.34865E+04-2.19786E+05 1.03682E-10-3.42152E-09
 -1       554 8.19143E+03-1.41187E+05 2.57842E+04-2.58670E+05 2.18279E-11-7.43034E-09
 -1       555 2.34254E+04-1.50127E+05 4.90798E+04-2.20073E+05 3.27418E-11-5.57520E-09
 -1       556-1.00641E+05-5.44219E+04 9.61817E+03-9.75409E+04-3.96903E-09-7.18865E-09
 -1       557-9.20020E+04-6.37924E+04 4.73646E+03-1.04184E+05 3.33785E-10-1.09708E-10
 -1       558-1.00751E+05-5.75790E+04 1.99485E+03-9.56528E+04-8.51287E-10-9.14042E-11
 -1       559-9.28487E+04-6.53623E+04 9.77961E+02-1.04471E+05 5.52973E-10-7.03949E-10
 -1       560-1.00819E+05-5.76236E+04 4.36041E+02-9.56105E+04 8.14907E-10-1.66040E-09
 -1       561-9.29932E+04-6.54026E+04 2.05352E+02-1.04575E+05-1.12504E-09-7.84064E-09
 -1       562-1.00878E+05-5.75772E+04 7.28988E+01-9.56506E+04 1.10504E-09 2.10093E-10
 -1       563-9.30592E+04-6.53746E+04-5.71923E+00-1.04623E+05 1.15324E-09-3.63798E-12
 -1       564-1.00910E+05-5.75485E+04-9.34217E+01-9.56760E+04-2.96586E-09 9.41782E-10
 -1       565-9.31000E+04-6.53601E+04-2.38490E+02-1.04646E+05-9.39826E-09-2.25145E-09
 -1       566-1.00906E+05-5.75339E+04-5.09569E+02-9.56822E+04-6.60521E-11-6.61657E-10
 -1       567-9.31946E+04-6.54099E+04-1.12690E+03-1.04639E+05 4.99062E-09-9.60245E-09
 -1       568-1.00823E+05-5.76985E+04-2.31512E+03-9.55994E+04 6.99765E-09-4.07181E-09
 -1       569-9.44701E+04-6.67958E+04-5.46060E+03-1.04287E+05 5.75892E-09-1.19981E-08
 -1       570-1.00324E+05-6.18684E+04-1.11206E+04-9.38390E+04 7.58155E-09 2.86002E-09
 -1       571 1.26855E+05 5.99126E+03 9.07606E+03-3.25558E+04 1.90084E-10 1.72463E-10
 -1       572 1.28234E+05 2.05751E+03 4.45400E+03-3.58252E+04 1.38698E-10 1.27784E-10
 -1       573 1.27417E+05 4.70752E+02 1.98064E+03-3.24699E+04-2.15550E-10 6.05269E-10
 -1       574 1.27581E+05 1.47936E+02 9.93688E+02-3.59206E+04-1.98156E-10 1.26875E-10
 -1       575 1.27481E+05 1.44373E+01 4.69648E+02-3.24588E+04-2.22826E-11 8.20819E-11
 -1       576 1.27497E+05 3.67508E-01 2.39863E+02-3.59331E+04 1.32360E-10 4.54975E-10
 -1       577 1.27491E+05-7.56545E+00 1.19763E+02-3.24574E+04-1.10731E-10 1.80080E-10
 -1       578 1.27487E+05-5.57015E+00 6.81868E+01-3.59346E+04 4.82032E-11-1.43018E-10
 -1       579 1.27497E+05-7.40645E+00 4.72585E+01-3.24574E+04 8.54925E-11-6.25278E-11
 -1       580 1.27496E+05-7.49108E+00 5.30487E+01-3.59326E+04 3.10138E-10 3.07409E-10
 -1       581 1.27507E+05-8.47076E+00 8.23886E+01-3.24593E+04-2.44654E-10 6.60975E-10
 -1       582 1.27524E+05 9.19081E+00 1.63594E+02-3.59128E+04-4.13820E-11 6.07088E-10
 -1       583 1.27512E+05 5.64350E+01 3.19548E+02-3.24772E+04-2.01908E-10 1.02887E-10
 -1       584 1.27648E+05 3.07002E+02 7.16608E+02-3.57620E+04-8.22183E-10 1.07434E-10
 -1       585 1.27440E+05 9.35878E+02 1.45714E+03-3.26106E+04 1.77351E-10-1.18689E-09
 -1       586 9.69773E+02 5.55399E+04 1.79758E+03-7.83974E+04 1.86901E-10-1.72440E-09
 -1       587 5.41107E+02 5.58525E+04 1.78619E+03-8.64904E+04 6.96218E-10-2.26123E-09
 -1       588 6.82519E+02 5.55192E+04 2.61611E+03-7.82963E+04 2.18279E-10-9.15247E-09
 -1       589 2.52505E+03 5.65126E+04 5.41687E+03-8.65206E+04 8.38554E-10-1.67500E-08
 -1       590 7.16961E+03 5.48591E+04 1.08274E+04-7.83657E+04 1.96451E-10-8.43784E-09
 -1       591-5.83336E+04-1.98497E+04-1.14575E+04-2.97494E+04-2.42949E-10 1.64619E-10
 -1       592-5.87697E+04-1.84541E+04-5.62896E+03-3.30707E+04-1.00226E-09 2.09218E-09
 -1       593-5.86860E+04-1.56840E+04-2.38873E+03-3.16655E+04-5.33771E-09-5.27712E-09
 -1       594-5.75425E+04-1.69183E+04-1.16897E+03-3.32670E+04-4.09557E-10 1.50579E-08
 -1       595-5.87414E+04-1.55344E+04-5.38348E+02-3.17500E+04-2.87059E-09 2.78422E-09
 -1       596-5.74505E+04-1.68584E+04-2.73037E+02-3.32585E+04-5.12102E-10 1.41006E-09
 -1       597-5.87519E+04-1.55427E+04-1.48619E+02-3.17505E+04-2.27601E-09-6.63476E-09
 -1       598-5.74413E+04-1.68592E+04-1.18859E+02-3.32545E+04 3.49704E-09 7.40897E-09
 -1       599-5.87512E+04-1.55429E+04-1.50769E+02-3.17502E+04 2.97518E-10 1.25567E-09
 -1       600-5.74501E+04-1.68590E+04-2.78833E+02-3.32577E+04-9.34506E-11-1.16415E-10
 -1       601-5.87388E+04-1.55349E+04-5.50323E+02-3.17489E+04 3.59046E-09 6.41012E-09
 -1       602-5.75443E+04-1.69195E+04-1.19578E+03-3.32641E+04 7.27596E-11-8.44420E-09
 -1       603-5.86803E+04-1.56900E+04-2.44347E+03-3.16633E+04 7.88759E-10-2.36923E-10
 -1       604-5.88110E+04-1.84779E+04-5.75776E+03-3.30477E+04-7.61247E-10 1.41881E-10
 -1       605-5.83061E+04-1.99614E+04-1.17192E+04-2.97154E+04-4.09500E-10 2.72848E-10
 -1       606 4.26058E+04-5.08426E+03-7.69465E+03 1.24400E+04-2.54204E-09 5.46152E-10
 -1       607 4.14190E+04-1.74567E+03-3.77528E+03 1.35607E+04-3.60387E-10-1.69962E-09
 -1       608 4.21162E+04-3.98686E+02-1.67875E+03 1.23576E+04 1.75760E-09-4.40878E-10
 -1       609 4.19578E+04-1.20226E+02-8.41075E+02 1.36524E+04-9.33596E-10 1.12732E-09
 -1       610 4.20516E+04-6.21888E+00-3.96383E+02 1.23469E+04-2.99087E-09-3.93584E-10
 -1       611 4.20216E+04 9.04051E+00-1.99547E+02 1.36641E+04-4.88535E-09 5.07725E-10
 -1       612 4.20387E+04 1.46706E+01-9.46579E+01 1.23456E+04-2.17324E-09-1.29944E-09
 -1       613 4.20282E+04 1.45420E+01-4.36537E+01 1.36657E+04-2.64731E-09-1.20122E-09
 -1       614 4.20337E+04 1.29039E+01-1.27878E+01 1.23453E+04-6.36646E-10-4.45198E-10
 -1       615 4.20283E+04 1.46956E+01 1.15231E+01 1.36659E+04 2.47292E-09 7.29187E-10
 -1       616 4.20300E+04 1.49086E+01 4.10181E+01 1.23454E+04-1.75237E-09 1.46929E-09
 -1       617 4.20347E+04 3.01485E+01 9.68496E+01 1.36655E+04 4.96811E-11-1.63175E-09
 -1       618 4.20212E+04 6.16170E+01 1.97803E+02 1.23456E+04-3.15822E-10 1.41426E-10
 -1       619 4.20982E+04 2.23282E+02 4.47538E+02 1.36636E+04 1.05842E-10 8.91418E-10
 -1       620 4.19629E+04 6.18055E+02 9.13249E+02 1.23468E+04 5.87420E-10-9.53946E-10
 -1       621 8.41484E+02 1.30911E+05 2.15806E+03-1.12908E+04-9.36552E-10-2.42380E-10
 -1       622 3.26468E+02 1.31323E+05 1.86496E+03-1.33248E+04-1.09799E-09 2.11548E-09
 -1       623 2.03469E+02 1.30992E+05 2.38851E+03-1.13042E+04-9.89303E-10 1.19826E-10
 -1       624 1.35993E+03 1.31949E+05 4.67182E+03-1.32636E+04-8.71751E-10 1.01443E-09
 -1       625 4.18149E+03 1.30292E+05 8.95414E+03-1.13513E+04-7.71820E-10-1.22395E-09
 -1       626 6.18124E+04 2.03020E+04-3.04006E+03 4.16010E+04-1.08093E-09-1.08412E-09
 -1       627 6.02236E+04 2.26437E+04-1.44082E+03 4.24523E+04-1.58252E-09 9.81572E-10
 -1       628 6.18925E+04 2.18031E+04-6.04902E+02 4.08588E+04-2.02544E-09-1.31854E-09
 -1       629 6.04424E+04 2.32761E+04-2.90025E+02 4.24071E+04-4.73847E-10-6.77126E-10
 -1       630 6.18893E+04 2.19077E+04-1.27403E+02 4.07978E+04 8.28095E-10-7.12163E-10
 -1       631 6.04585E+04 2.33233E+04-5.62586E+01 4.24087E+04-2.48042E-09 1.07497E-09
 -1       632 6.18839E+04 2.19109E+04-1.38195E+01 4.07927E+04-3.65844E-10 5.92996E-09
 -1       633 6.04598E+04 2.33254E+04 1.87659E+01 4.24099E+04 2.81534E-09-3.09342E-10
 -1       634 6.18795E+04 2.19075E+04 6.10876E+01 4.07921E+04 1.15551E-09-1.60355E-09
 -1       635 6.04674E+04 2.33272E+04 1.43683E+02 4.24116E+04 1.31047E-09-2.47496E-10
 -1       636 6.18732E+04 2.19148E+04 3.00539E+02 4.07871E+04-4.58240E-09-9.80640E-09
 -1       637 6.05396E+04 2.34116E+04 6.72910E+02 4.23979E+04-9.90894E-10-5.30019E-09
 -1       638 6.18574E+04 2.21690E+04 1.39593E+03 4.06765E+04 3.43084E-09-5.89580E-10
 -1       639 6.12489E+04 2.46721E+04 3.32357E+03 4.20850E+04-5.58828E-09-1.41613E-08
 -1       640 6.18955E+04 2.58015E+04 7.01314E+03 3.91700E+04-5.50790E-09-1.00199E-08
 -1       641 4.75444E+02 1.28510E+03-2.97297E+03-3.26236E+01-2.40331E-09 1.55410E-10
 -1       642-8.10294E+02-1.48757E+03-2.10139E+03 1.32614E+02-5.24778E-10 1.42217E-09
 -1       643-2.07028E+01 2.01354E+02-7.66495E+02-3.23878E+01-2.56445E-09 1.60199E-09
 -1       644-2.32485E+02-2.32393E+02-4.76414E+02 1.32358E+02 7.79647E-10 9.82737E-10
 -1       645-1.02431E+02 3.09619E+01-1.83677E+02-3.23679E+01-2.49970E-10 5.05267E-10
 -1       646-1.35535E+02-3.27487E+01-8.74078E+01 1.32333E+02-1.46953E-08-9.23947E-10
 -1       647-1.17680E+02 1.87279E+00-1.93020E-01-3.23632E+01-3.28434E-06 2.90896E-09
 -1       648-1.08324E+02 1.68998E+01 8.10522E+01 1.32323E+02-6.55132E-06 7.14586E-09
 -1       649-1.29650E+02-1.86529E+01 1.83923E+02-3.23576E+01-3.28232E-06 2.39476E-09
 -1       650-4.05822E+01 1.43735E+02 4.45424E+02 1.32264E+02-8.13969E-09-5.77806E-10
 -1       651-1.85413E+02-1.24888E+02 7.75300E+02-3.23048E+01 7.11486E-10 5.45214E-10
 -1       652 3.42020E+02 9.26380E+02 1.91834E+03 1.31991E+02 6.10899E-10 1.32655E-09
 -1       653-5.12219E+02-8.00731E+02 3.05625E+03-3.20846E+01 1.12534E-09 1.97588E-09
 -1       654 2.64537E+03 5.91352E+03 8.35945E+03 1.30744E+02-4.49991E-09 8.66862E-10
 -1       655-2.48854E+03-5.10803E+03 1.18150E+04-3.10596E+01 1.57842E-09 3.78350E-10
 -1       656 3.82113E+03-1.54931E+05-1.83597E+04 4.94791E+03 3.00133E-11 3.82852E-09
 -1       657-5.79581E+03-1.61532E+05-1.32959E+04 1.74110E+04-2.71166E-09 5.59930E-09
 -1       658 7.16204E+02-1.57298E+05-8.51952E+03 4.91740E+03-4.58023E-10 2.35690E-09
 -1       659-5.31306E+03-1.61246E+05-1.24217E+04 1.74288E+04-1.47395E-09-1.96561E-10
 -1       660 3.45002E+03-1.55225E+05-1.66932E+04 4.93033E+03 3.68345E-10-5.67354E-10
 -1       661 1.49848E+05 1.93337E+04 1.22406E+04 5.85582E+04 2.83194E-10 4.22006E-10
 -1       662 1.52628E+05 2.84864E+04 7.67414E+03 6.03131E+04 2.74976E-09-8.79936E-11
 -1       663 1.51929E+05 2.19939E+04 2.88916E+03 5.82964E+04-5.97851E-10-7.41693E-10
 -1       664 1.50232E+05 2.49610E+04 1.58023E+03 6.08108E+04-2.05910E-09-9.46926E-10
 -1       665 1.52159E+05 2.22746E+04 6.77112E+02 5.82791E+04 3.18607E-11 1.85028E-09
 -1       666 1.49968E+05 2.46000E+04 3.66400E+02 6.08453E+04-1.67064E-09 2.36469E-10
 -1       667 1.52185E+05 2.23056E+04 2.05956E+02 5.82798E+04-6.53479E-09 1.69289E-09
 -1       668 1.49943E+05 2.45682E+04 1.93975E+02 6.08456E+04-7.48244E-10 4.85016E-10
 -1       669 1.52182E+05 2.23035E+04 2.73700E+02 5.82796E+04 1.57593E-09-2.30614E-10
 -1       670 1.49990E+05 2.46237E+04 5.53288E+02 6.08452E+04 3.43402E-09-3.55566E-09
 -1       671 1.52139E+05 2.22546E+04 1.05716E+03 5.82789E+04-4.36700E-10 1.83377E-09
 -1       672 1.50411E+05 2.51928E+04 2.48888E+03 6.07893E+04-1.94620E-09 3.59250E-10
 -1       673 1.51774E+05 2.18122E+04 4.55773E+03 5.83069E+04 3.04945E-09-7.34644E-10
 -1       674 1.54191E+05 3.07596E+04 1.21126E+04 6.00049E+04 5.36446E-10 4.68617E-10
 -1       675 1.48491E+05 1.76112E+04 1.93213E+04 5.87173E+04-8.91305E-11-2.43199E-09
 -1       676 2.74082E+02-1.46451E+05-1.62856E+03 3.19005E+01-1.75186E-09 8.37625E-10
 -1       677-6.17476E+02-1.47069E+05-1.97613E+03-9.33766E+01-4.18765E-09 4.99822E-10
 -1       678 2.20781E+02-1.46475E+05-2.61190E+03 3.17778E+01-2.52146E-09 1.23402E-09
 -1       679-2.77931E+03-1.48380E+05-5.90848E+03-9.32009E+01-4.29918E-09-1.31863E-09
 -1       680 1.95875E+03-1.45140E+05-9.11748E+03 3.14664E+01-1.62845E-09 7.79242E-10
 -1       681 2.88104E+05-8.43390E+03 1.91455E+04 1.81639E+03 1.55126E-10-1.13687E-10
 -1       682 2.98284E+05 9.73678E+03 1.38784E+04-5.16325E+03 7.79323E-11-6.73253E-10
 -1       683 2.91985E+05-1.30217E+03 4.97462E+03 5.08505E+02-3.04937E-10 1.28739E-09
 -1       684 2.93706E+05 1.50664E+03 3.18887E+03-3.28653E+03-3.14273E-11-1.08929E-09
 -1       685 2.92665E+05-1.98204E+02 1.30243E+03-6.03366E+01 6.81158E-10 1.35839E-09
 -1       686 2.92913E+05 2.39244E+02 8.08634E+02-2.59060E+03 1.00181E-09-3.00474E-10
 -1       687 2.92773E+05-3.29358E+01 4.52493E+02-1.87430E+02-1.79078E-10 1.82921E-09
 -1       688 2.92861E+05 8.19389E+01 4.66367E+02-2.71428E+03-9.63285E-10-6.55026E-10
 -1       689 2.92718E+05-4.14342E+01 5.93106E+02 6.33395E+01-1.54893E-09 7.40812E-10
 -1       690 2.93289E+05 3.35929E+02 1.28575E+03-3.71878E+03 1.14342E-09-7.02201E-10
 -1       691 2.92353E+05-2.91368E+02 2.03235E+03 8.17072E+02-9.20295E-11 4.00405E-10
 -1       692 2.95492E+05 2.34108E+03 5.35429E+03-6.10618E+03 1.25485E-09 1.61248E-09
 -1       693 2.90543E+05-2.06414E+03 7.86223E+03 2.45083E+03-1.21247E-09-1.33923E-09
 -1       694 3.06692E+05 1.59813E+04 2.34666E+04-1.11256E+04-4.92025E-09 2.41380E-09
 -1       695 2.81268E+05-1.39962E+04 3.01562E+04 5.83737E+03-3.98290E-09-6.49743E-09
 -1       696-5.30183E+03 2.11004E+05 1.20751E+04-1.03001E+03 2.63753E-11-3.59250E-10
 -1       697 5.85671E+03 2.16491E+05 8.10093E+03 2.36094E+03 6.63931E-11-4.00696E-10
 -1       698-5.53516E+02 2.13316E+05 2.09671E+03-6.42266E+02-7.88987E-11 2.36486E-10
 -1       699-1.09939E+03 2.13127E+05-9.79551E+02 1.90115E+03-1.24885E-10 8.95433E-10
 -1       700 1.65110E+03 2.14366E+05-3.46083E+03-5.70222E+02-8.59472E-11 2.31807E-10
 -1       701-2.70146E+05-2.98689E+04-3.43375E+04-1.11133E+05 3.84716E-10 9.04038E-10
 -1       702-2.80337E+05-4.26679E+04-1.99689E+04-8.51134E+04-4.69981E-10-1.10194E-08
 -1       703-2.65656E+05-4.22803E+04-7.77123E+03-1.09835E+05 1.87947E-09 1.48661E-08
 -1       704-2.83475E+05-2.84278E+04-4.28757E+03-8.68307E+04-1.46969E-10 2.06110E-08
 -1       705-2.67156E+05-4.39876E+04-2.05616E+03-1.09538E+05 4.70546E-10 1.85535E-08
 -1       706-2.70680E+05-2.80838E+04 1.28176E+03-8.79388E+04-1.75525E-09 1.98202E-09
 -1       707-2.78283E+05-4.27484E+04-2.56979E+03-1.08595E+05 6.51971E-09 6.20014E-09
 -1       708-2.53300E+05-3.38392E+04 4.09078E+03-9.36033E+04 4.18459E-09 3.40930E-09
 -1       709-2.84346E+05-3.83761E+04-2.85484E+03-1.03728E+05-2.11776E-09-2.34239E-09
 -1       710-2.51320E+05-4.36285E+04 2.11808E+03-1.05370E+05-1.94885E-09-9.26094E-09
 -1       711-2.80387E+05-3.28653E+04-2.25170E+03-9.69279E+04 7.27607E-09 1.60987E-08
 -1       712-2.58579E+05-5.20449E+04-3.59789E+03-1.14152E+05 6.06022E-09 3.44558E-08
 -1       713-2.77308E+05-2.97941E+04-6.69249E+03-9.51106E+04-3.00736E-09 1.59798E-09
 -1       714-2.62617E+05-6.11813E+04-1.81596E+04-1.09056E+05-7.87622E-09-5.42445E-09
 -1       715-2.76272E+05-2.37968E+04-3.02712E+04-1.01963E+05-4.39104E-09-7.71070E-09
 -1       716-5.27503E+04-6.07194E+02 4.52984E+02-6.73480E+01 8.88366E-09-5.16235E-09
 -1       717-4.59958E+04 6.60344E+02 1.49030E+03-2.10181E+03 4.71078E-09 9.67191E-11
 -1       718-5.20356E+04-1.10716E+02-9.12793E+01 4.15208E+02 2.20993E-09-1.79260E-09
 -1       719-4.74347E+04 9.66952E+01 7.23862E+02-2.98655E+03-2.97408E-09-3.22968E-10
 -1       720-5.13418E+04-2.19757E+01-9.45420E+01 8.16835E+02 6.53131E-10 5.16110E-10
 -1       721-4.87761E+04 1.90706E+01 4.31391E+02-3.67660E+03 3.59445E-09-4.33212E-10
 -1       722-5.07274E+04-9.04674E+00 1.38941E+02 1.10504E+03 1.53098E-09 2.54114E-09
 -1       723-4.97582E+04 8.58900E+01 5.52175E+02-4.11952E+03-2.95941E-11-1.00431E-09
 -1       724-5.03855E+04-6.99620E+01 8.24028E+02 1.25979E+03 4.28138E-09 2.91465E-09
 -1       725-4.99070E+04 6.01719E+02 1.91529E+03-4.28479E+03 3.03816E-09-1.15304E-09
 -1       726-5.05892E+04-5.16809E+02 3.28299E+03 1.27037E+03 4.42571E-09 2.45541E-09
 -1       727-4.79821E+04 3.91542E+03 8.17151E+03-4.16282E+03 6.37534E-09-9.96351E-10
 -1       728-5.23022E+04-3.38688E+03 1.28295E+04 1.13778E+03 2.10372E-09 1.74350E-09
 -1       729-3.72858E+04 2.50528E+04 3.55552E+04-3.79731E+03 9.36950E-10 5.51154E-10
 -1       730-6.12569E+04-2.16536E+04 4.96600E+04 9.04801E+02 2.05819E-09-1.30967E-10
 -1       731-7.26605E+03 9.92253E+04 1.38705E+04-3.90880E+03-4.37922E-09-2.79704E-09
 -1       732 8.63183E+03 1.22909E+05 1.36733E+04 1.12793E+04 1.33514E-09 1.48788E-10
 -1       733-1.48144E+03 1.06411E+05 5.14253E+03-2.35523E+03-8.47876E-10-1.07917E-09
 -1       734 4.58392E+03 1.14441E+05 7.72950E+03 8.89169E+03 1.02963E-09-4.12764E-09
 -1       735-3.10909E+03 1.07530E+05 7.57857E+03-1.52005E+03 1.16688E-09-2.85556E-09
 -1       736-2.67590E+05-4.25891E+04-2.55717E+04-1.14672E+05 1.51517E-08-1.33614E-08
 -1       737-2.51484E+05-1.79579E+04-6.66091E+03-6.06680E+04 4.96469E-08 1.27089E-08
 -1       738-2.40244E+05-4.60577E+04-4.50131E+03-1.09468E+05 1.29378E-08 4.13515E-08
 -1       739-2.67199E+05-1.27291E+04-7.57503E+02-6.42578E+04-2.01078E-08-8.01833E-09
 -1       740-2.52194E+05-4.75787E+04-3.34055E+03-1.11345E+05 1.76904E-08-2.62987E-08
 -1       741-2.18634E+05-1.21887E+04 1.05575E+04-5.90984E+04 5.03388E-09-2.35730E-08
 -1       742-2.88015E+05-4.71830E+04-9.27566E+03-1.13988E+05 4.83124E-09 9.82823E-11
 -1       743-1.73774E+05-2.22078E+04 1.76577E+04-6.66085E+04 1.74678E-08 8.18122E-09
 -1       744-2.96449E+05-3.80118E+04-9.09755E+03-1.03400E+05 3.79714E-11-1.12950E-08
 -1       745-1.88972E+05-4.34420E+04 1.03475E+04-9.51780E+04 2.83101E-08 7.70561E-09
 -1       746-2.73424E+05-2.55007E+04-2.96350E+03-8.59029E+04 2.71431E-08 5.24678E-08
 -1       747-2.21055E+05-5.89260E+04-3.04902E+02-1.17661E+05 4.47682E-09 1.27897E-08
 -1       748-2.65179E+05-2.19196E+04-3.68777E+03-8.14996E+04 2.30463E-08 1.34398E-08
 -1       749-2.08521E+05-5.64448E+04-3.73048E+03-1.07136E+05-6.83845E-09 1.54718E-08
 -1       750-2.85585E+05-2.82654E+04-2.19929E+04-9.61630E+04-1.13556E-08-1.34005E-08
 -1       751 1.27069E+06-7.32723E+04 1.69676E+05 2.09767E+03-1.45303E-08-8.94943E-10
 -1       752 1.34436E+06 8.48347E+04 1.20027E+05-2.54900E+03-1.80763E-09-1.28603E-09
 -1       753 1.29914E+06-1.14842E+04 4.39464E+04 4.08759E+02 1.22317E-09 3.18323E-10
 -1       754 1.31126E+06 1.32911E+04 2.76378E+04-5.23557E+02 1.06431E-09 8.79936E-10
 -1       755 1.30382E+06-1.79672E+03 1.13134E+04 7.23742E+01-6.49016E-10 3.94721E-10
 -1       756 1.30582E+06 2.10568E+03 6.76196E+03-1.18962E+02-7.21856E-10 8.22183E-10
 -1       757 1.30460E+06-3.07676E+02 3.32159E+03 4.16227E+00 4.17448E-07 2.18279E-11
 -1       758 1.30501E+06 5.45834E+02 2.65327E+03-3.90125E+01 8.31399E-07-8.08427E-10
 -1       759 1.30464E+06-2.37927E+02 2.69377E+03-7.57633E+00 1.96400E-07 7.30154E-10
 -1       760 1.30550E+06 1.50591E+03 4.94624E+03-3.57810E+01-4.37025E-07 1.17234E-09
 -1       761 1.30411E+06-1.26708E+03 8.04491E+03 9.30728E-01-2.20789E-07 4.54747E-11
 -1       762 1.30931E+06 9.35233E+03 1.94816E+04-9.94289E+01 1.53433E-09 1.29603E-11
 -1       763 1.30081E+06-8.07814E+03 3.09238E+04 5.60723E+01 4.72371E-09 2.12822E-10
 -1       764 1.33251E+06 5.96533E+04 8.43989E+04-4.31826E+02 1.52161E-09 1.29512E-09
 -1       765 1.28087E+06-5.15225E+04 1.19309E+05 3.33313E+02-7.97110E-10-1.96451E-10
 -1       766-2.76108E+04 8.65768E+04 6.37624E+04 5.84115E+03 3.81624E-09-1.41989E-09
 -1       767 3.29386E+04 1.18895E+05 4.78731E+04-2.52986E+04 1.30717E-08-1.07006E-09
 -1       768-5.21312E+03 9.70979E+04 2.05853E+04 5.76180E+03 5.28144E-09 1.56595E-09
 -1       769 1.50530E+04 1.22947E+05 2.58055E+04-2.68907E+04 1.57752E-09-9.84585E-10
 -1       770-9.95184E+03 8.28260E+04 1.84210E+04 7.43394E+03-4.12638E-09-9.19954E-10
 -1       771-7.18572E+05-1.44547E+05-2.36530E+04-3.11413E+05 3.68345E-09-2.16460E-09
 -1       772-7.16423E+05-1.44605E+05-1.16106E+04-3.21639E+05 1.18798E-08 1.69348E-09
 -1       773-7.19542E+05-1.35748E+05-4.93656E+03-3.15203E+05 6.47015E-09 5.36875E-09
 -1       774-7.13772E+05-1.41620E+05-2.41112E+03-3.22342E+05 8.51287E-10-5.42514E-10
 -1       775-7.19740E+05-1.35378E+05-1.11504E+03-3.15391E+05 9.31323E-10-1.06252E-09
 -1       776-7.13620E+05-1.41499E+05-5.63278E+02-3.22405E+05-3.52884E-10-1.37163E-09
 -1       777-7.19820E+05-1.35361E+05-3.08582E+02-3.15417E+05-3.07409E-09-4.88558E-09
 -1       778-7.13638E+05-1.41488E+05-2.42819E+02-3.22442E+05-4.36103E-10 1.81078E-09
 -1       779-7.19857E+05-1.35338E+05-3.09044E+02-3.15435E+05 2.12822E-10 4.62478E-10
 -1       780-7.13682E+05-1.41480E+05-5.68240E+02-3.22477E+05 2.26009E-10-8.91305E-11
 -1       781-7.19852E+05-1.35309E+05-1.12335E+03-3.15442E+05-1.72213E-09 8.67112E-09
 -1       782-7.13887E+05-1.41600E+05-2.44146E+03-3.22502E+05-1.03328E-08-2.43153E-09
 -1       783-7.19736E+05-1.35624E+05-4.99131E+03-3.15269E+05-3.80496E-09 1.61799E-09
 -1       784-7.16476E+05-1.44786E+05-1.17671E+04-3.22054E+05-4.48779E-10-8.11269E-10
 -1       785-7.18961E+05-1.44361E+05-2.39538E+04-3.11287E+05-1.73941E-10 8.07631E-10
 -1       786 1.07593E+05-3.07269E+03 1.42406E+04-1.01094E+03 1.76556E-10-4.00178E-10
 -1       787 1.12653E+05 4.31082E+03 9.05691E+03-3.60616E+03 4.22915E-11 3.11729E-10
 -1       788 1.09721E+05-3.07588E+02 3.68664E+03-1.00383E+03-2.42039E-10 1.36424E-12
 -1       789 1.10289E+05 4.09010E+02 2.04525E+03-3.61185E+03-1.19002E-10-3.75849E-10
 -1       790 1.09955E+05-3.28300E+01 9.35431E+02-1.00509E+03 2.66397E-10-7.19069E-10
 -1       791 1.10024E+05 3.82386E+01 4.99625E+02-3.60992E+03 1.69834E-10 1.20224E-11
 -1       792 1.09985E+05-4.20379E+00 2.56288E+02-1.00576E+03-1.37703E-11-1.69521E-10
 -1       793 1.09992E+05 4.71753E+00 1.68785E+02-3.60952E+03-7.28591E-11-1.05667E-09
 -1       794 1.09988E+05-2.29383E+00 1.54527E+02-1.00550E+03-6.13909E-11-1.30171E-11
 -1       795 1.10001E+05 1.58965E+01 2.32462E+02-3.61113E+03 2.47383E-10 1.31570E-09
 -1       796 1.09976E+05-1.39899E+01 4.01499E+02-1.00415E+03-4.00917E-10 8.04576E-10
 -1       797 1.10111E+05 1.69851E+02 8.58090E+02-3.61388E+03 2.60144E-10 1.52914E-09
 -1       798 1.09879E+05-1.28645E+02 1.53860E+03-1.00274E+03-1.05331E-10 1.40909E-09
 -1       799 1.11097E+05 1.79499E+03 3.77458E+03-3.60742E+03-5.27677E-10-5.36602E-10
 -1       800 1.08993E+05-1.28101E+03 5.93272E+03-1.01069E+03-1.24487E-10-5.78893E-10
 -1       801-3.90258E+03 1.16620E+05 1.77263E+04-1.22295E+05-4.97403E-09 3.67436E-10
 -1       802 8.75613E+03 1.22311E+05 1.87719E+04-4.34964E+05-2.08274E-09-1.81899E-10
 -1       803-9.79693E+02 1.16926E+05 2.09948E+04-1.21905E+05-6.68297E-09 3.58307E-09
 -1       804 2.29986E+04 1.31017E+05 4.47210E+04-4.34945E+05-3.50701E-09-2.45745E-09
 -1       805-1.50468E+04 1.07997E+05 6.71456E+04-1.22317E+05-2.57933E-09 2.26646E-09
 -1       806-1.12230E+05-3.06616E+04-9.37974E+03-5.28048E+04 7.93932E-10-8.22183E-10
 -1       807-1.12182E+05-2.83302E+04-4.44505E+03-5.57685E+04 3.91663E-09 6.92921E-09
 -1       808-1.12169E+05-2.58155E+04-1.86805E+03-5.48384E+04 6.37328E-10 8.67999E-10
 -1       809-1.11255E+05-2.66256E+04-9.02082E+02-5.61708E+04-1.93950E-10 7.43597E-10
 -1       810-1.12191E+05-2.54753E+04-4.07273E+02-5.49897E+04-3.29010E-10-1.98474E-09
 -1       811-1.11163E+05-2.65099E+04-2.03680E+02-5.61884E+04-3.23269E-09-7.31211E-09
 -1       812-1.12198E+05-2.54642E+04-1.05694E+02-5.49971E+04-3.77611E-10 8.39009E-11
 -1       813-1.11153E+05-2.65065E+04-7.65966E+01-5.61862E+04-3.83395E-10-5.39217E-10
 -1       814-1.12198E+05-2.54656E+04-8.71411E+01-5.49965E+04-4.68219E-09-9.75228E-09
 -1       815-1.11159E+05-2.65101E+04-1.54413E+02-5.61861E+04-1.74748E-09-7.12862E-09
 -1       816-1.12191E+05-2.54751E+04-3.01304E+02-5.49904E+04 7.13953E-10-6.50061E-10
 -1       817-1.11228E+05-2.65933E+04-6.63990E+02-5.61690E+04 6.58815E-10 2.49884E-10
 -1       818-1.12172E+05-2.57287E+04-1.37319E+03-5.48811E+04 2.71621E-09 8.62724E-09
 -1       819-1.11929E+05-2.78245E+04-3.26633E+03-5.58473E+04-5.93445E-10 1.22964E-09
 -1       820-1.12194E+05-2.93077E+04-6.89161E+03-5.34076E+04 4.22915E-11 4.25530E-10
 -1       821-1.18865E+05 3.30828E+03-1.53391E+04 1.12330E+03-1.43439E-09-6.31189E-10
 -1       822-1.24312E+05-4.64331E+03-9.75573E+03 4.03526E+03-6.71719E-10-6.93831E-10
 -1       823-1.21158E+05 3.30632E+02-3.97262E+03 1.10170E+03 1.57570E-09 2.12367E-10
 -1       824-1.21770E+05-4.38510E+02-2.20566E+03 4.06170E+03-9.09495E-11 1.15483E-09
 -1       825-1.21411E+05 3.56404E+01-1.01377E+03 1.09669E+03-2.41266E-09-2.22656E-10
 -1       826-1.21488E+05-3.80174E+01-5.50506E+02 4.06954E+03-4.38467E-09-1.09860E-09
 -1       827-1.21443E+05 5.60713E+00-3.00772E+02 1.09382E+03-2.51345E-09-8.32017E-10
 -1       828-1.21456E+05-2.66440E+00-2.32684E+02 4.07413E+03-3.04738E-09 6.54943E-10
 -1       829-1.21444E+05 5.19728E+00-2.65812E+02 1.09209E+03 1.09003E-09-8.21588E-10
 -1       830-1.21481E+05-2.96397E+01-4.58985E+02 4.07605E+03 1.25982E-09-1.65719E-09
 -1       831-1.21419E+05 2.99147E+01-8.30525E+02 1.09190E+03-1.81520E-09-2.60911E-10
 -1       832-1.21712E+05-3.55092E+02-1.79884E+03 4.07475E+03-3.64594E-10-8.03283E-10
 -1       833-1.21213E+05 2.70500E+02-3.23595E+03 1.09342E+03 4.01883E-10-9.34278E-10
 -1       834-1.23783E+05-3.77878E+03-7.94516E+03 4.06265E+03-5.84862E-10-1.59798E-09
 -1       835-1.19346E+05 2.69569E+03-1.24910E+04 1.10432E+03-2.08615E-11-1.75896E-09
 -1       836-5.06773E+03 2.93783E+05 2.48213E+04-8.23838E+03-4.18368E-10 6.11180E-10
 -1       837 8.00386E+03 3.02773E+05 1.92616E+04-2.90788E+04 1.43586E-10 4.94083E-10
 -1       838-1.21858E+03 2.96679E+05 1.45106E+04-8.21892E+03-6.88260E-10 3.86478E-10
 -1       839 1.09024E+04 3.04530E+05 2.45347E+04-2.90783E+04 4.14502E-10-4.14673E-10
 -1       840-7.32459E+03 2.92024E+05 3.48666E+04-8.23872E+03-5.02041E-10 1.76442E-10
 -1       841 1.44234E+02 1.52724E+03-3.88286E+03-6.33714E+02 4.15014E-10-9.08130E-10
 -1       842-1.97386E+03-1.97264E+03-2.69481E+03 1.21259E+02-7.05313E-10-1.77977E-10
 -1       843-6.47804E+02 1.30367E+02-9.09153E+02-3.69995E+02 3.95204E-10 3.73177E-10
 -1       844-1.05381E+03-3.54985E+02-5.65956E+02-1.82760E+02 2.62730E-09 9.08912E-10
 -1       845-7.75730E+02-8.93648E+01-2.06683E+02-3.30121E+02-4.24940E-10-1.05079E-09
 -1       846-9.04244E+02-9.92544E+01-1.12370E+02-2.28756E+02-4.02050E-10-9.94277E-10
 -1       847-7.97367E+02-1.25201E+02-3.02776E+01-3.24069E+02 7.32497E-10 1.15303E-09
 -1       848-8.73421E+02-4.91469E+01 1.69531E+01-2.36962E+02-7.80390E-10 1.97762E-09
 -1       849-8.06559E+02-1.39440E+02 6.83470E+01-3.21932E+02-5.66114E-07 2.13167E-07
 -1       850-8.29038E+02 2.23986E+01 1.94131E+02-2.48794E+02-1.13003E-06 4.23198E-07
 -1       851-8.41747E+02-1.96707E+02 3.42971E+02-3.12253E+02-5.66632E-07 2.11169E-07
 -1       852-5.82705E+02 4.39932E+02 9.30463E+02-3.23746E+02-1.50147E-09-3.85285E-10
 -1       853-1.05285E+03-5.56725E+02 1.49095E+03-2.47070E+02-1.99290E-09-3.92617E-10
 -1       854 9.28358E+02 3.09129E+03 4.41915E+03-8.22259E+02 8.23377E-11 3.57431E-10
 -1       855-2.35252E+03-2.84632E+03 6.36506E+03 1.85633E+02 2.46928E-10 1.58752E-09
 -1       856-1.42339E+05 3.15594E+03-1.46400E+04 2.23597E+03 5.72982E-11-9.04038E-10
 -1       857-1.47534E+05-4.42507E+03-9.30944E+03 8.09053E+03 1.74805E-09-2.45018E-09
 -1       858-1.44529E+05 3.16348E+02-3.79107E+03 2.20023E+03-2.90538E-09-1.20349E-09
 -1       859-1.45114E+05-4.10128E+02-2.10317E+03 8.13528E+03-2.81381E-09-1.06314E-09
 -1       860-1.44771E+05 3.61529E+01-9.64560E+02 2.19085E+03-1.18905E-09-9.81686E-10
 -1       861-1.44848E+05-2.64426E+01-5.19011E+02 8.14858E+03-2.21712E-09-1.93984E-09
 -1       862-1.44802E+05 8.05553E+00-2.74675E+02 2.18686E+03 7.43159E-09-2.17381E-09
 -1       863-1.44818E+05 8.45726E+00-1.96683E+02 8.15347E+03 1.19352E-08-3.58527E-09
 -1       864-1.44804E+05 6.95577E+00-2.04284E+02 2.18594E+03 4.69529E-09-2.15591E-09
 -1       865-1.44834E+05-1.03492E+01-3.34435E+02 8.15189E+03 5.30463E-09-1.56213E-09
 -1       866-1.44786E+05 2.37868E+01-5.95378E+02 2.18845E+03-7.77163E-10-1.61442E-09
 -1       867-1.44994E+05-2.43507E+02-1.28281E+03 8.14275E+03-1.54068E-09-1.62717E-09
 -1       868-1.44639E+05 1.93730E+02-2.30620E+03 2.19513E+03 1.25613E-09-3.53577E-09
 -1       869-1.46463E+05-2.68403E+03-5.65859E+03 8.10571E+03-2.79164E-09-1.77533E-09
 -1       870-1.43308E+05 1.91871E+03-8.89790E+03 2.22577E+03 3.97904E-11-1.44883E-09
 -1       871-1.43386E+03-1.38369E+04-2.69489E+03 4.06826E+04-2.69029E-09 1.06911E-09
 -1       872-4.46742E+02-1.43219E+04-7.88394E+02 4.77573E+04-3.03294E-09-2.31012E-10
 -1       873 3.88985E+01-1.41349E+04 7.94401E+02 4.06041E+04-1.76760E-09 3.32625E-09
 -1       874 9.39323E+02-1.34949E+04 2.96267E+03 4.77913E+04-2.56887E-09 1.01343E-08
 -1       875 3.03839E+03-1.46790E+04 6.38799E+03 4.06510E+04-2.92266E-09 6.31860E-09
 -1       876 1.75020E+05 2.22802E+04 1.64972E+04 6.88379E+04-7.65795E-10-3.40151E-10
 -1       877 1.78670E+05 3.47193E+04 1.03429E+04 7.13222E+04 3.44676E-09 1.03046E-09
 -1       878 1.77823E+05 2.58668E+04 3.89283E+03 6.84856E+04-4.53610E-10-2.29193E-10
 -1       879 1.75442E+05 2.99655E+04 2.12808E+03 7.19888E+04-1.08741E-09-1.12408E-09
 -1       880 1.78131E+05 2.62476E+04 9.08629E+02 6.84642E+04 3.86535E-12 3.47370E-10
 -1       881 1.75088E+05 2.94754E+04 4.85641E+02 7.20300E+04-6.52193E-10 4.43833E-10
 -1       882 1.78165E+05 2.62918E+04 2.60723E+02 6.84671E+04-6.95309E-09 5.96103E-10
 -1       883 1.75054E+05 2.94277E+04 2.24613E+02 7.20262E+04-2.64558E-09-1.56964E-09
 -1       884 1.78162E+05 2.62921E+04 2.94779E+02 6.84683E+04 2.01496E-09 1.76908E-09
 -1       885 1.75103E+05 2.94827E+04 5.79415E+02 7.20236E+04 3.31644E-09-6.14037E-10
 -1       886 1.78117E+05 2.62418E+04 1.09956E+03 6.84679E+04 1.20383E-09 5.82645E-10
 -1       887 1.75539E+05 3.00734E+04 2.58409E+03 7.19661E+04 4.71971E-10-2.27936E-09
 -1       888 1.77739E+05 2.57820E+04 4.73034E+03 6.84965E+04 4.47742E-09-6.07315E-10
 -1       889 1.79463E+05 3.58504E+04 1.25702E+04 7.11532E+04 3.17846E-09 4.16549E-10
 -1       890 1.74332E+05 2.14222E+04 2.00505E+04 6.89227E+04-3.39924E-10-7.11225E-10
 -1       891 6.11133E+02-7.85324E+04-3.08801E+03 9.58833E+03-3.16618E-10 2.52112E-09
 -1       892-1.02509E+03-7.96313E+04-2.45861E+03 3.40759E+04-3.39526E-09 3.27401E-09
 -1       893 1.59453E+02-7.88820E+04-1.95679E+03 9.55077E+03-2.15528E-09 4.22482E-10
 -1       894-1.56942E+03-7.99590E+04-3.44746E+03 3.40733E+04-4.19050E-09-4.51018E-09
 -1       895 1.03355E+03-7.82019E+04-4.97183E+03 9.59087E+03-1.20303E-09-3.05749E-09
 -1       896 3.08468E+05-1.89913E+03 4.38984E+03 1.00958E+01 2.15881E-10 1.17666E-09
 -1       897 3.10366E+05 2.19925E+03 3.11187E+03 8.78106E+02-3.15801E-11 1.55859E-09
 -1       898 3.09211E+05-2.97436E+02 1.14235E+03 1.49621E+02 2.40801E-10 1.45388E-09
 -1       899 3.09502E+05 3.45761E+02 7.26952E+02 7.02758E+02-4.80507E-10 1.74145E-09
 -1       900 3.09333E+05-4.69692E+01 3.15027E+02 1.85448E+02-1.41742E-12 1.61801E-09
 -1       901 3.09365E+05 6.06378E+01 2.22740E+02 7.15869E+02-3.42291E-11 1.77343E-09
 -1       902 3.09348E+05-1.25371E+01 1.75279E+02 1.36510E+02 2.68966E-10 1.44892E-09
 -1       903 3.09376E+05 5.23320E+01 2.67382E+02 9.24466E+02-9.32554E-10 1.55688E-09
 -1       904 3.09323E+05-3.88643E+01 4.25439E+02-2.31529E+01 7.50322E-10 1.01706E-09
 -1       905 3.09555E+05 2.91938E+02 9.60308E+02 1.43900E+03-7.73980E-10 8.63068E-10
 -1       906 3.09170E+05-2.52811E+02 1.61706E+03-3.78036E+02-1.07543E-09 1.26875E-10
 -1       907 3.10563E+05 1.90681E+03 4.04805E+03 2.53280E+03 2.58865E-10-2.18279E-10
 -1       908 3.08319E+05-1.65593E+03 6.32558E+03-1.11697E+03 3.85910E-10-1.63800E-09
 -1       909 3.16311E+05 1.23718E+04 1.76564E+04 4.81143E+03 2.59023E-09-3.27009E-09
 -1       910 3.03442E+05-1.07232E+04 2.43958E+04-2.65674E+03 3.03578E-09-5.33328E-09
 -1       911 1.87986E+04 2.31085E+02-1.31543E+03-1.24255E+03-2.86900E-09-3.66930E-09
 -1       912 2.27424E+04-3.14108E+02-1.34728E+02 4.72208E+03-7.26686E-10-1.45592E-09
 -1       913 1.96995E+04 5.29991E+01-3.85528E+02-1.09891E+03 4.76831E-10 1.41294E-09
 -1       914 2.12679E+04-7.69324E+01 2.65258E+01 4.48975E+03 5.61471E-10 3.21629E-09
 -1       915 2.02333E+04 2.23156E+01-8.25576E+01-1.01009E+03-2.25013E-09 4.24880E-09
 -1       916 2.05364E+04-2.49177E+01 1.17506E+01 4.36989E+03-5.33343E-09 5.86579E-09
 -1       917 2.04119E+04 1.44865E+01 3.52806E+01-9.79090E+02-3.22929E-09 5.36047E-09
 -1       918 2.05260E+04-3.43517E-01 1.10903E+02 4.36575E+03-8.69285E-10 6.29421E-09
 -1       919 2.02430E+04-1.80116E+00 1.54893E+02-1.00596E+03-2.79773E-09 4.33383E-09
 -1       920 2.12893E+04 1.07251E+02 5.75653E+02 4.47759E+03-3.98809E-09 3.92629E-09
 -1       921 1.96664E+04-1.05569E+02 6.05109E+02-1.09089E+03 6.25278E-12 1.28577E-09
 -1       922 2.31841E+04 8.62585E+02 2.26543E+03 4.70652E+03 1.29747E-09-5.36517E-10
 -1       923 1.83865E+04-7.83700E+02 2.56632E+03-1.23499E+03 1.83871E-09-3.94834E-09
 -1       924 2.80242E+04 5.85199E+03 8.93305E+03 5.07482E+03 5.80410E-09-7.21764E-09
 -1       925 1.48900E+04-5.13612E+03 1.04951E+04-1.45987E+03 4.12575E-09-1.12254E-08
 -1       926-2.51906E+05 5.64378E+03-1.31269E+04 5.29675E+03-1.91130E-09-1.57279E-08
 -1       927-2.56882E+05-6.47641E+03-9.12376E+03-9.17482E+03 1.94469E-08-1.77437E-08
 -1       928-2.55041E+05 8.68902E+02-3.56821E+03 4.57257E+03-3.03504E-09-1.32923E-08
 -1       929-2.51160E+05-9.04117E+02-1.33537E+03-6.11348E+03-1.57766E-08-1.31305E-08
 -1       930-2.57545E+05 1.21609E+01-1.44452E+03 2.23455E+03-2.94460E-09-6.71372E-09
 -1       931-2.48118E+05 4.03951E+01 8.69464E+02-6.75132E+02 1.12504E-09-3.88993E-09
 -1       932-2.58017E+05-1.27079E+02-7.80545E+02-8.65627E+02-1.36129E-09 1.89289E-09
 -1       933-2.49529E+05 1.62765E+02 1.16333E+03 5.10478E+03-1.22374E-09 6.11686E-09
 -1       934-2.56173E+05-7.96928E+01 1.58093E+02-3.54472E+03-1.48984E-09 9.06843E-09
 -1       935-2.52916E+05 3.84061E+02 1.45160E+03 9.03365E+03 4.77286E-10 1.30878E-08
 -1       936-2.54721E+05-2.76639E+02 2.07581E+03-4.79496E+03-5.93133E-10 1.25710E-08
 -1       937-2.52645E+05 2.47704E+03 5.24173E+03 9.65534E+03 1.22025E-08 1.45797E-08
 -1       938-2.56463E+05-2.15586E+03 7.97700E+03-4.16661E+03 1.16464E-08 1.03341E-08
 -1       939-2.43336E+05 1.60898E+04 2.30936E+04 6.77571E+03 6.43807E-09 9.82186E-09
 -1       940-2.63946E+05-1.39400E+04 3.08450E+04-1.91473E+03-3.84432E-10 3.91810E-09
 -1       941 2.08884E+06-1.04850E+05 2.43014E+05 2.84273E+02-2.58830E-07-3.92902E-10
 -1       942 2.19398E+06 1.21410E+05 1.71823E+05 8.76384E+01-5.31767E-07-2.24827E-09
 -1       943 2.12944E+06-1.64403E+04 6.29544E+04 2.01069E+02-4.11278E-07 3.63798E-10
 -1       944 2.14678E+06 1.90289E+04 3.96003E+04 1.79820E+02-2.86200E-07-1.30831E-09
 -1       945 2.13615E+06-2.57331E+03 1.62370E+04 1.92120E+02-1.77446E-07 1.86992E-09
 -1       946 2.13900E+06 3.02183E+03 9.74444E+03 1.89708E+02-7.52440E-08 3.57204E-09
 -1       947 2.13726E+06-4.46585E+02 4.86329E+03 1.91186E+02 1.03464E-09 2.17142E-09
 -1       948 2.13786E+06 8.27193E+02 4.02660E+03 1.90306E+02 8.12878E-08 1.57107E-09
 -1       949 2.13730E+06-3.80208E+02 4.26572E+03 1.91524E+02 3.69326E-07-3.10024E-09
 -1       950 2.13869E+06 2.45115E+03 8.01655E+03 1.85843E+02 6.67019E-07 3.40981E-09
 -1       951 2.13642E+06-2.06940E+03 1.31267E+04 1.95648E+02 2.19970E-06-4.10819E-09
 -1       952 2.14492E+06 1.52820E+04 3.18422E+04 1.43312E+02 3.72733E-06-6.01176E-10
 -1       953 2.13103E+06-1.32006E+04 5.05663E+04 2.34051E+02 1.86468E-06 6.19548E-09
 -1       954 2.18282E+06 9.74817E+04 1.37966E+05-2.56950E+02 4.12094E-09 4.03816E-09
 -1       955 2.09842E+06-8.41879E+04 1.95081E+05 5.95860E+02-1.17101E-08-1.45519E-10
 -1       956-1.08317E+05-1.90842E+03-4.06349E+03 1.46798E+04-1.70212E-09 5.62750E-10
 -1       957-1.09065E+05-6.08721E+02-2.05426E+03 1.71003E+04-4.08363E-10 1.81444E-10
 -1       958-1.08651E+05-6.91447E+01-9.23903E+02 1.45926E+04 1.93904E-09-9.75547E-10
 -1       959-1.08718E+05-1.11112E+01-4.70183E+02 1.71958E+04-5.88443E-10-2.08399E-09
 -1       960-1.08685E+05 1.53132E+01-2.28168E+02 1.45839E+04 2.75577E-09-7.66249E-10
 -1       961-1.08691E+05 1.62872E+01-1.20230E+02 1.72054E+04 6.17115E-09-9.23592E-10
 -1       962-1.08693E+05 1.55614E+01-6.73361E+01 1.45829E+04 4.02497E-09-2.96723E-11
 -1       963-1.08691E+05 1.74866E+01-5.14713E+01 1.72067E+04-1.96314E-09 1.13914E-09
 -1       964-1.08696E+05 1.65997E+01-5.92907E+01 1.45826E+04 4.34432E-09-6.41762E-10
 -1       965-1.08695E+05 1.87872E+01-9.98529E+01 1.72065E+04 1.12797E-08-1.71508E-09
 -1       966-1.08693E+05 1.85621E+01-1.85971E+02 1.45831E+04 8.45563E-09-7.27482E-10
 -1       967-1.08721E+05-1.20649E+00-3.81823E+02 1.72013E+04 1.01469E-08 7.26459E-11
 -1       968-1.08668E+05-4.78947E+01-7.49227E+02 1.45878E+04 4.54656E-09-1.15142E-09
 -1       969-1.09006E+05-4.84127E+02-1.66619E+03 1.71491E+04 6.54836E-10-2.19106E-09
 -1       970-1.08400E+05-1.53860E+03-3.29537E+03 1.46361E+04 1.70780E-09-1.03000E-09
 -1       971-2.06008E+05 2.59708E+03-1.20543E+04 2.24488E+03-2.52180E-09 3.31056E-10
 -1       972-2.10275E+05-3.64265E+03-7.66531E+03 8.18381E+03-1.68427E-09 1.55069E-10
 -1       973-2.07811E+05 2.60014E+02-3.12380E+03 2.20184E+03-2.68028E-09-5.66160E-10
 -1       974-2.08285E+05-3.36229E+02-1.73613E+03 8.24029E+03-1.47361E-09 2.33655E-10
 -1       975-2.08011E+05 2.99587E+01-8.03691E+02 2.18813E+03-6.61657E-11-1.81575E-09
 -1       976-2.08068E+05-1.97851E+01-4.46533E+02 8.26064E+03-2.94278E-09-3.54703E-11
 -1       977-2.08036E+05 7.53335E+00-2.64151E+02 2.18144E+03-5.82077E-11-2.62077E-09
 -1       978-2.08048E+05 7.31023E+00-2.40194E+02 8.26945E+03 4.51136E-09-9.94149E-10
 -1       979-2.08035E+05 9.04344E+00-3.20788E+02 2.17930E+03 2.76842E-09-1.45529E-09
 -1       980-2.08084E+05-3.09662E+01-5.95723E+02 8.26891E+03 3.91461E-09 5.87225E-10
 -1       981-2.08000E+05 4.18108E+01-1.10125E+03 2.18199E+03-9.28424E-10-1.16066E-09
 -1       982-2.08390E+05-4.67247E+02-2.39901E+03 8.25796E+03 1.93268E-10-1.30950E-09
 -1       983-2.07724E+05 3.62196E+02-4.32213E+03 2.19033E+03 3.78293E-09-2.08638E-09
 -1       984-2.11153E+05-5.04411E+03-1.06150E+04 8.21737E+03 1.67142E-09 4.18140E-10
 -1       985-2.05229E+05 3.60123E+03-1.66911E+04 2.22313E+03 5.28075E-09-8.72205E-10
 -3
    1PSTEP                        37          19           1          
  100CL  119 3.02718E-01         841                     0   19           1
 -4  DISP        4    1
 -5  D1          1    2    1    0
 -5  D2          1    2    2    0
 -5  D3          1    2    3    0
 -5  ALL         1    2    0    0    1ALL
 -1         1 3.79821E-05 0.00000E+00 0.00000E+00
 -1         2 2.92333E-05 0.00000E+00 0.00000E+00
 -1         3 2.45766E-05 0.00000E+00 0.00000E+00
 -1         4 2.10252E-05 0.00000E+00 0.00000E+00
 -1         5 1.93160E-05 0.00000E+00 0.00000E+00
 -1         8 3.00825E-05-3.77963E-07 0.00000E+00
 -1         9 2.33282E-05 2.09851E-07 0.00000E+00
 -1        10 2.25913E-05-8.89387E-07 0.00000E+00
 -1        11 2.06533E-05-1.69456E-07 0.00000E+00
 -1        12 1.86495E-05 4.47487E-07 0.00000E+00
 -1        15 1.43643E-05-6.64451E-07 0.00000E+00
 -1        16 1.77523E-05 1.90939E-07 0.00000E+00
 -1        17 1.60835E-05-1.80202E-06 0.00000E+00
 -1        18 1.61241E-05-3.45580E-07 0.00000E+00
 -1        19 1.68857E-05 8.86769E-07 0.00000E+00
 -1        20 1.71385E-05 9.57416E-06 0.00000E+00
 -1        21 1.71300E-05 2.28561E-05 0.00000E+00
 -1        22 5.58643E-06-4.56074E-07 0.00000E+00
 -1        23 7.13356E-06 6.17832E-07 0.00000E+00
 -1        24 6.66845E-06-2.15740E-06 0.00000E+00
 -1        25 1.44011E-05-2.24294E-07 0.00000E+00
 -1        26 1.50526E-05 1.17825E-06 0.00000E+00
 -1        27 1.43290E-05 9.22739E-06 0.00000E+00
 -1        28 1.34605E-05 2.25274E-05 0.00000E+00
 -1        29 0.00000E+00 0.00000E+00 0.00000E+00
 -1        30 1.71562E-06 7.73274E-07 0.00000E+00
 -1        31 1.74314E-06-2.01843E-06 0.00000E+00
 -1        32 0.00000E+00 0.00000E+00 0.00000E+00
 -1        33 1.26922E-05 1.83171E-06 0.00000E+00
 -1        34 1.20392E-05 9.19387E-06 0.00000E+00
 -1        35 1.07915E-05 2.23509E-05 0.00000E+00
 -1        36 3.74523E-05-1.47575E-20 0.00000E+00
 -1        37 3.69056E-05-2.35947E-20 6.61744E-24
 -1        38 3.63599E-05 6.96757E-20-1.32349E-23
 -1        39 3.58109E-05 1.79651E-19-6.61744E-24
 -1        40 3.52619E-05 1.84677E-19-1.32349E-23
 -1        41 3.47123E-05 1.46052E-19 6.61744E-24
 -1        42 3.41625E-05 1.68907E-19 0.00000E+00
 -1        43 3.36127E-05 1.72634E-19 0.00000E+00
 -1        44 3.30628E-05 1.10927E-19 0.00000E+00
 -1        45 3.25130E-05 8.93564E-20 6.61744E-24
 -1        46 3.19633E-05 1.37528E-19 0.00000E+00
 -1        47 3.14139E-05 1.86672E-19 0.00000E+00
 -1        48 3.08647E-05 2.06169E-19-1.32349E-23
 -1        49 3.03176E-05 1.95487E-19 0.00000E+00
 -1        50 2.97697E-05 1.01776E-19 0.00000E+00
 -1        51 3.73815E-05-6.44389E-08 0.00000E+00
 -1        52 3.63913E-05-1.26062E-07 0.00000E+00
 -1        53 3.50868E-05-1.87191E-07 0.00000E+00
 -1        54 3.35475E-05-2.48659E-07 1.65436E-24
 -1        55 3.18527E-05-3.11290E-07-1.24077E-24
 -1        56 3.72137E-05-2.98190E-07 1.32349E-23
 -1        57 3.64214E-05-6.17446E-07-1.32349E-23
 -1        58 3.56292E-05-9.32634E-07 0.00000E+00
 -1        59 3.48257E-05-1.23206E-06 1.32349E-23
 -1        60 3.40103E-05-1.50046E-06-2.64698E-23
 -1        61 3.31776E-05-1.72508E-06-1.32349E-23
 -1        62 3.23239E-05-1.89413E-06-2.64698E-23
 -1        63 3.14453E-05-1.99709E-06-1.32349E-23
 -1        64 3.05386E-05-2.02539E-06 2.64698E-23
 -1        65 2.96013E-05-1.97176E-06 1.32349E-23
 -1        66 2.86317E-05-1.83154E-06 2.64698E-23
 -1        67 2.76291E-05-1.60132E-06 1.32349E-23
 -1        68 2.65929E-05-1.28097E-06-2.64698E-23
 -1        69 2.55279E-05-8.70057E-07-1.32349E-23
 -1        70 2.44295E-05-3.74835E-07 0.00000E+00
 -1        71 2.89426E-05-1.41776E-19 6.61744E-24
 -1        72 2.86511E-05-3.69277E-19 0.00000E+00
 -1        73 2.83596E-05-5.31506E-19 0.00000E+00
 -1        74 2.80679E-05-5.45311E-19-3.30872E-24
 -1        75 2.77762E-05-4.89229E-19-6.61744E-24
 -1        76 2.74845E-05-2.41086E-19 3.30872E-24
 -1        77 2.71928E-05 5.60614E-20 0.00000E+00
 -1        78 2.69010E-05 4.06468E-19 0.00000E+00
 -1        79 2.66093E-05 6.87447E-19 0.00000E+00
 -1        80 2.63176E-05 8.27000E-19 0.00000E+00
 -1        81 2.60260E-05 8.04008E-19 6.61744E-24
 -1        82 2.57345E-05 6.37266E-19 3.30872E-24
 -1        83 2.54431E-05 4.11774E-19 6.61744E-24
 -1        84 2.51527E-05 1.99784E-19 0.00000E+00
 -1        85 2.48620E-05 6.40805E-20 0.00000E+00
 -1        86 2.89553E-05 2.65072E-08-3.30872E-24
 -1        87 2.81268E-05 6.48644E-08 8.27181E-25
 -1        88 2.69518E-05 1.02051E-07 8.27181E-25
 -1        89 2.56336E-05 1.39933E-07 0.00000E+00
 -1        90 2.43623E-05 1.78469E-07-1.65436E-24
 -1        91 2.71686E-05 4.62528E-06-6.61744E-24
 -1        92 2.15042E-05 1.85934E-05 0.00000E+00
 -1        93 1.47793E-05 3.52748E-05 0.00000E+00
 -1        94 9.59355E-06 4.80244E-05-3.30872E-24
 -1        95 7.61288E-06 5.24195E-05 0.00000E+00
 -1        96 1.03719E-05 4.41072E-05 3.30872E-24
 -1        97 1.67415E-05 2.57999E-05 0.00000E+00
 -1        98 2.56169E-05 3.60212E-07-3.30872E-24
 -1        99 3.45591E-05-2.52697E-05 6.61744E-24
 -1       100 4.11300E-05-4.41440E-05 0.00000E+00
 -1       101 4.41552E-05-5.31841E-05 0.00000E+00
 -1       102 4.24298E-05-4.94611E-05 3.30872E-24
 -1       103 3.74125E-05-3.71446E-05 6.61744E-24
 -1       104 3.06945E-05-2.04774E-05 0.00000E+00
 -1       105 2.48958E-05-6.16323E-06 6.61744E-24
 -1       106 2.43569E-05-8.60969E-20 0.00000E+00
 -1       107 2.41347E-05-8.76197E-20 3.30872E-24
 -1       108 2.39126E-05-3.90392E-20 6.61744E-24
 -1       109 2.36901E-05 8.87772E-21 3.30872E-24
 -1       110 2.34675E-05-6.77647E-21 0.00000E+00
 -1       111 2.32448E-05 2.37873E-20 3.30872E-24
 -1       112 2.30221E-05 8.14063E-20 6.61744E-24
 -1       113 2.27995E-05 1.01355E-19-3.30872E-24
 -1       114 2.25768E-05 1.57399E-19-6.61744E-24
 -1       115 2.23541E-05 2.43281E-19-3.30872E-24
 -1       116 2.21315E-05 1.98178E-19 0.00000E+00
 -1       117 2.19090E-05 1.01148E-19 3.30872E-24
 -1       118 2.16865E-05 1.05193E-19-6.61744E-24
 -1       119 2.14649E-05 1.36977E-19 0.00000E+00
 -1       120 2.12429E-05 8.41017E-20-6.61744E-24
 -1       121 2.45430E-05-1.48590E-07 0.00000E+00
 -1       122 2.44184E-05-2.96718E-07-1.65436E-24
 -1       123 2.41816E-05-4.44872E-07-3.30872E-24
 -1       124 2.38120E-05-5.92990E-07-1.65436E-24
 -1       125 2.32886E-05-7.41163E-07 0.00000E+00
 -1       126 2.31148E-05 3.53987E-06 0.00000E+00
 -1       127 1.89252E-05 1.42117E-05 0.00000E+00
 -1       128 1.26687E-05 3.01909E-05-3.30872E-24
 -1       129 5.04402E-06 4.96385E-05 1.65436E-24
 -1       130-2.88674E-06 6.98581E-05 3.30872E-24
 -1       131-1.00543E-05 8.81521E-05 1.65436E-24
 -1       132-1.55938E-05 1.02298E-04-3.30872E-24
 -1       133-1.86710E-05 1.10085E-04 0.00000E+00
 -1       134-1.90872E-05 1.10861E-04-3.30872E-24
 -1       135-1.66668E-05 1.04007E-04 0.00000E+00
 -1       136-1.19235E-05 9.07779E-05-3.30872E-24
 -1       137-5.36203E-06 7.24681E-05 1.65436E-24
 -1       138 2.09089E-06 5.16434E-05 3.30872E-24
 -1       139 9.51957E-06 3.08875E-05 0.00000E+00
 -1       140 1.60142E-05 1.27672E-05 0.00000E+00
 -1       141 2.09172E-05-1.91986E-20 3.30872E-24
 -1       142 2.08095E-05-7.27476E-20 0.00000E+00
 -1       143 2.07018E-05-6.54464E-20-3.30872E-24
 -1       144 2.05942E-05-3.27332E-20 0.00000E+00
 -1       145 2.04866E-05-1.52672E-21 0.00000E+00
 -1       146 2.03790E-05 6.89878E-20 0.00000E+00
 -1       147 2.02714E-05 1.06443E-19-3.30872E-24
 -1       148 2.01638E-05 1.32063E-19 0.00000E+00
 -1       149 2.00563E-05 1.25842E-19 0.00000E+00
 -1       150 1.99488E-05 1.02780E-19-1.65436E-24
 -1       151 1.98413E-05 4.26058E-20-3.30872E-24
 -1       152 1.97341E-05-3.94718E-20 1.65436E-24
 -1       153 1.96270E-05-7.49994E-20 0.00000E+00
 -1       154 1.95212E-05-8.91468E-20-8.27181E-25
 -1       155 1.94150E-05-5.90275E-20 0.00000E+00
 -1       156 1.99043E-05-2.45149E-08-1.65436E-24
 -1       157 1.65885E-05-4.97538E-08 8.27181E-25
 -1       158 1.30571E-05-7.59345E-08 0.00000E+00
 -1       159 1.12893E-05-9.71975E-08 0.00000E+00
 -1       160 1.31882E-05-1.19766E-07 0.00000E+00
 -1       161 2.10133E-05-3.36293E-07 0.00000E+00
 -1       162 2.12183E-05-1.25272E-06-1.65436E-24
 -1       163 2.15755E-05-2.57628E-06 3.30872E-24
 -1       164 2.20194E-05-4.13175E-06 1.65436E-24
 -1       165 2.24602E-05-5.67904E-06 0.00000E+00
 -1       166 2.28083E-05-6.97817E-06 0.00000E+00
 -1       167 2.29999E-05-7.85877E-06-3.30872E-24
 -1       168 2.29719E-05-8.15278E-06-1.65436E-24
 -1       169 2.27218E-05-7.85472E-06 3.30872E-24
 -1       170 2.22485E-05-6.96229E-06-1.65436E-24
 -1       171 2.16128E-05-5.63811E-06 0.00000E+00
 -1       172 2.08769E-05-4.04695E-06 0.00000E+00
 -1       173 2.01304E-05-2.42773E-06 0.00000E+00
 -1       174 1.94647E-05-1.01885E-06 0.00000E+00
 -1       175 1.89460E-05-1.91332E-09 0.00000E+00
 -1       191 1.92924E-05 7.45182E-08-3.30872E-24
 -1       192 1.92326E-05 1.49141E-07 0.00000E+00
 -1       193 1.91373E-05 2.23788E-07 0.00000E+00
 -1       194 1.90075E-05 2.98427E-07 0.00000E+00
 -1       195 1.88445E-05 3.73027E-07-3.30872E-24
 -1       251 2.97608E-05 5.60832E-06 6.61744E-24
 -1       252 2.93420E-05 2.06534E-05 0.00000E+00
 -1       253 2.88915E-05 3.79235E-05 0.00000E+00
 -1       254 2.85068E-05 5.05529E-05 0.00000E+00
 -1       255 2.81851E-05 5.42803E-05-6.61744E-24
 -1       256 2.78283E-05 4.49689E-05-3.30872E-24
 -1       257 2.73391E-05 2.56301E-05 6.61744E-24
 -1       258 2.66992E-05-5.84980E-07 0.00000E+00
 -1       259 2.60620E-05-2.66867E-05 0.00000E+00
 -1       260 2.55789E-05-4.56858E-05 0.00000E+00
 -1       261 2.52260E-05-5.45573E-05 0.00000E+00
 -1       262 2.49028E-05-5.04173E-05-3.30872E-24
 -1       263 2.45148E-05-3.75162E-05 6.61744E-24
 -1       264 2.40641E-05-2.02264E-05 0.00000E+00
 -1       265 2.36480E-05-5.38366E-06 0.00000E+00
 -1       266 2.88264E-05-4.26067E-07 0.00000E+00
 -1       267 2.78425E-05-4.69298E-07-8.27181E-25
 -1       268 2.64993E-05-5.13252E-07 0.00000E+00
 -1       269 2.41660E-05-5.57787E-07 8.27181E-25
 -1       270 2.03008E-05-6.07090E-07-8.27181E-25
 -1       271 2.89786E-05 6.09822E-07-1.32349E-23
 -1       272 2.79678E-05 1.28368E-06 0.00000E+00
 -1       273 2.70592E-05 1.68683E-06 2.64698E-23
 -1       274 2.62355E-05 1.85470E-06 0.00000E+00
 -1       275 2.54849E-05 1.82643E-06 0.00000E+00
 -1       276 2.47926E-05 1.64129E-06-1.32349E-23
 -1       277 2.41438E-05 1.33968E-06 0.00000E+00
 -1       278 2.35232E-05 9.62589E-07 0.00000E+00
 -1       279 2.29154E-05 5.51457E-07 2.64698E-23
 -1       280 2.23047E-05 1.47953E-07-1.32349E-23
 -1       281 2.16758E-05-2.06346E-07 2.64698E-23
 -1       282 2.10135E-05-4.70072E-07 1.32349E-23
 -1       283 2.03022E-05-6.02520E-07 1.32349E-23
 -1       284 1.95297E-05-5.62855E-07 0.00000E+00
 -1       285 1.86778E-05-3.13313E-07 1.32349E-23
 -1       286 2.32775E-05 9.87080E-07-3.30872E-24
 -1       287 2.32316E-05 1.49233E-06 0.00000E+00
 -1       288 2.31854E-05 1.73625E-06-1.65436E-24
 -1       289 2.31402E-05 1.72997E-06 0.00000E+00
 -1       290 2.30949E-05 1.50876E-06 0.00000E+00
 -1       291 2.30497E-05 1.10828E-06 8.27181E-25
 -1       292 2.30046E-05 5.81467E-07-1.65436E-24
 -1       293 2.29594E-05-1.85317E-08-8.27181E-25
 -1       294 2.29142E-05-6.31512E-07 0.00000E+00
 -1       295 2.28690E-05-1.19724E-06 0.00000E+00
 -1       296 2.28238E-05-1.66005E-06 1.65436E-24
 -1       297 2.27785E-05-1.96446E-06 0.00000E+00
 -1       298 2.27333E-05-2.07020E-06 0.00000E+00
 -1       299 2.26872E-05-1.93744E-06 8.27181E-25
 -1       300 2.26414E-05-1.54930E-06 0.00000E+00
 -1       301 2.23968E-05 2.02612E-07-3.30872E-24
 -1       302 2.14600E-05 2.02102E-07 8.27181E-25
 -1       303 2.05223E-05 2.02705E-07 0.00000E+00
 -1       304 1.95887E-05 2.03021E-07 0.00000E+00
 -1       305 1.86638E-05 2.01602E-07 3.30872E-24
 -1       306 2.26233E-05 7.90511E-07-1.32349E-23
 -1       307 2.20195E-05 1.06555E-06 0.00000E+00
 -1       308 2.15131E-05 1.08187E-06 0.00000E+00
 -1       309 2.10856E-05 8.82358E-07 0.00000E+00
 -1       310 2.07220E-05 5.11967E-07 0.00000E+00
 -1       311 2.04051E-05 1.57983E-08 0.00000E+00
 -1       312 2.01182E-05-5.60460E-07 1.32349E-23
 -1       313 1.98441E-05-1.17088E-06 0.00000E+00
 -1       314 1.95654E-05-1.76935E-06 0.00000E+00
 -1       315 1.92651E-05-2.30982E-06 6.61744E-24
 -1       316 1.89260E-05-2.74651E-06 1.32349E-23
 -1       317 1.85314E-05-3.03398E-06 0.00000E+00
 -1       318 1.80644E-05-3.12744E-06 0.00000E+00
 -1       319 1.75102E-05-2.98225E-06 0.00000E+00
 -1       320 1.68501E-05-2.55620E-06 6.61744E-24
 -1       321 2.24934E-05 1.39972E-06-3.30872E-24
 -1       322 2.23870E-05 6.66487E-06-1.65436E-24
 -1       323 2.22670E-05 1.41624E-05 3.30872E-24
 -1       324 2.21358E-05 2.31398E-05 0.00000E+00
 -1       325 2.20007E-05 3.25611E-05 0.00000E+00
 -1       326 2.18709E-05 4.13885E-05 0.00000E+00
 -1       327 2.17526E-05 4.86980E-05 0.00000E+00
 -1       328 2.16487E-05 5.35716E-05 0.00000E+00
 -1       329 2.15540E-05 5.55563E-05 3.30872E-24
 -1       330 2.14603E-05 5.42111E-05 0.00000E+00
 -1       331 2.13580E-05 4.97295E-05 0.00000E+00
 -1       332 2.12389E-05 4.23180E-05-1.65436E-24
 -1       333 2.11026E-05 3.27417E-05 3.30872E-24
 -1       334 2.09526E-05 2.17748E-05 1.65436E-24
 -1       335 2.07989E-05 1.04573E-05 3.30872E-24
 -1       336 2.17035E-05-1.04177E-06-3.30872E-24
 -1       337 2.06798E-05-1.19441E-06 1.65436E-24
 -1       338 1.95629E-05-1.34709E-06 0.00000E+00
 -1       339 1.83959E-05-1.49950E-06-1.65436E-24
 -1       340 1.72217E-05-1.65195E-06 0.00000E+00
 -1       341 2.00664E-05 5.38128E-06 0.00000E+00
 -1       342 1.32818E-05 2.26342E-05 1.65436E-24
 -1       343 3.43187E-06 4.75926E-05 0.00000E+00
 -1       344-8.20516E-06 7.69616E-05-1.65436E-24
 -1       345-1.97760E-05 1.06167E-04-3.30872E-24
 -1       346-2.94280E-05 1.30635E-04 1.65436E-24
 -1       347-3.59274E-05 1.47162E-04 0.00000E+00
 -1       348-3.81203E-05 1.52567E-04 0.00000E+00
 -1       349-3.61310E-05 1.46816E-04-3.30872E-24
 -1       350-3.01065E-05 1.29940E-04 0.00000E+00
 -1       351-2.12905E-05 1.05160E-04 0.00000E+00
 -1       352-1.08788E-05 7.57654E-05 0.00000E+00
 -1       353-4.83964E-07 4.64199E-05-3.30872E-24
 -1       354 8.28125E-06 2.17890E-05 0.00000E+00
 -1       355 1.42276E-05 5.13556E-06-1.65436E-24
 -1       356 2.05034E-05-1.08691E-05 3.30872E-24
 -1       357 2.03435E-05-2.24036E-05 0.00000E+00
 -1       358 2.01867E-05-3.36589E-05-3.30872E-24
 -1       359 2.00439E-05-4.35217E-05 0.00000E+00
 -1       360 1.99194E-05-5.11551E-05 0.00000E+00
 -1       361 1.98129E-05-5.57322E-05 1.65436E-24
 -1       362 1.97154E-05-5.70312E-05 0.00000E+00
 -1       363 1.96165E-05-5.48442E-05 1.65436E-24
 -1       364 1.95072E-05-4.96531E-05-3.30872E-24
 -1       365 1.93824E-05-4.19530E-05 0.00000E+00
 -1       366 1.92456E-05-3.27362E-05 3.30872E-24
 -1       367 1.91044E-05-2.30015E-05 1.65436E-24
 -1       368 1.89683E-05-1.38507E-05 0.00000E+00
 -1       369 1.88470E-05-6.38311E-06 0.00000E+00
 -1       370 1.87396E-05-1.36516E-06-4.13590E-25
 -1       371 2.78743E-05-2.19080E-07 0.00000E+00
 -1       372 2.90458E-05-2.42014E-07 0.00000E+00
 -1       373 2.62931E-05-2.66565E-07 0.00000E+00
 -1       374 2.17455E-05-2.96807E-07-2.06795E-25
 -1       375 1.76178E-05-3.25498E-07 0.00000E+00
 -1       376 2.50740E-05-1.24867E-05 0.00000E+00
 -1       377 3.09133E-05-2.87538E-05 0.00000E+00
 -1       378 3.73921E-05-4.68127E-05 3.30872E-24
 -1       379 4.37361E-05-6.44934E-05 1.65436E-24
 -1       380 4.92019E-05-7.97179E-05 3.30872E-24
 -1       381 5.30369E-05-9.04245E-05-1.65436E-24
 -1       382 5.48581E-05-9.56371E-05 0.00000E+00
 -1       383 5.42781E-05-9.44098E-05-1.65436E-24
 -1       384 5.14749E-05-8.73241E-05-3.30872E-24
 -1       385 4.66453E-05-7.49856E-05 0.00000E+00
 -1       386 4.04881E-05-5.92440E-05-3.30872E-24
 -1       387 3.37240E-05-4.19584E-05 0.00000E+00
 -1       388 2.72280E-05-2.53550E-05-3.30872E-24
 -1       389 2.18722E-05-1.16581E-05-8.27181E-25
 -1       390 1.82369E-05-2.40435E-06-8.27181E-25
 -1       406 1.84141E-05 5.21118E-07-3.30872E-24
 -1       407 1.81511E-05 5.94806E-07 0.00000E+00
 -1       408 1.78636E-05 6.68453E-07 0.00000E+00
 -1       409 1.75547E-05 7.41921E-07 0.00000E+00
 -1       410 1.72276E-05 8.15010E-07 1.65436E-24
 -1       466 1.45545E-05 4.96267E-06 3.30872E-24
 -1       467 1.47645E-05 7.92187E-06-3.30872E-24
 -1       468 1.49779E-05 9.07947E-06 6.61744E-24
 -1       469 1.51936E-05 9.28402E-06-3.30872E-24
 -1       470 1.54092E-05 8.84677E-06 0.00000E+00
 -1       471 1.56250E-05 8.07270E-06-3.30872E-24
 -1       472 1.58407E-05 7.07625E-06 6.61744E-24
 -1       473 1.60563E-05 5.96966E-06 0.00000E+00
 -1       474 1.62718E-05 4.80281E-06 6.61744E-24
 -1       475 1.64872E-05 3.62503E-06 0.00000E+00
 -1       476 1.67025E-05 2.47943E-06 0.00000E+00
 -1       477 1.69173E-05 1.40941E-06 0.00000E+00
 -1       478 1.71321E-05 5.01176E-07-6.61744E-24
 -1       479 1.73438E-05-1.57521E-07 0.00000E+00
 -1       480 1.75567E-05-3.38572E-07 1.03398E-25
 -1       481 9.00841E-06-6.42313E-07 0.00000E+00
 -1       482 6.86321E-06-6.06841E-07-4.13590E-25
 -1       483 6.67479E-06-5.68856E-07 0.00000E+00
 -1       484 7.19263E-06-5.30754E-07-4.13590E-25
 -1       485 7.22676E-06-4.92574E-07 0.00000E+00
 -1       486 1.00910E-05 9.88691E-06-3.30872E-24
 -1       487 2.99168E-06 2.76458E-05 0.00000E+00
 -1       488-4.41301E-06 4.61807E-05 0.00000E+00
 -1       489-9.59600E-06 5.90512E-05 0.00000E+00
 -1       490-1.12043E-05 6.25969E-05-6.61744E-24
 -1       491-8.00814E-06 5.32239E-05 0.00000E+00
 -1       492-1.10630E-06 3.35540E-05 6.61744E-24
 -1       493 8.43224E-06 6.34346E-06-3.30872E-24
 -1       494 1.83309E-05-2.19060E-05-6.61744E-24
 -1       495 2.63251E-05-4.46749E-05 3.30872E-24
 -1       496 3.10209E-05-5.81831E-05 0.00000E+00
 -1       497 3.09732E-05-5.87797E-05 0.00000E+00
 -1       498 2.70019E-05-4.90396E-05 0.00000E+00
 -1       499 2.00369E-05-3.16215E-05 0.00000E+00
 -1       500 1.25711E-05-1.29328E-05 0.00000E+00
 -1       501 1.76432E-05 9.30040E-07 6.61744E-24
 -1       502 1.75386E-05 1.36702E-06 0.00000E+00
 -1       503 1.74339E-05 1.47492E-06 3.30872E-24
 -1       504 1.73300E-05 1.22826E-06 0.00000E+00
 -1       505 1.72260E-05 6.76966E-07 3.30872E-24
 -1       506 1.71219E-05-1.27609E-07 1.65436E-24
 -1       507 1.70178E-05-1.08029E-06-3.30872E-24
 -1       508 1.69137E-05-2.07525E-06 1.65436E-24
 -1       509 1.68097E-05-2.99763E-06 0.00000E+00
 -1       510 1.67058E-05-3.73292E-06 1.65436E-24
 -1       511 1.66021E-05-4.20640E-06 0.00000E+00
 -1       512 1.64985E-05-4.34451E-06 0.00000E+00
 -1       513 1.63948E-05-4.14496E-06 3.30872E-24
 -1       514 1.62911E-05-3.60705E-06 1.65436E-24
 -1       515 1.61873E-05-2.80193E-06-3.30872E-24
 -1       516 1.75492E-05 2.59961E-07 1.65436E-24
 -1       517 1.86833E-05 3.40179E-07 0.00000E+00
 -1       518 1.97402E-05 4.19640E-07 0.00000E+00
 -1       519 1.93052E-05 5.01100E-07-8.27181E-25
 -1       520 1.56749E-05 5.75702E-07 0.00000E+00
 -1       521 1.68429E-05 6.77657E-07 0.00000E+00
 -1       522 1.60219E-05 8.71416E-07 0.00000E+00
 -1       523 1.52934E-05 8.19895E-07 1.32349E-23
 -1       524 1.46384E-05 5.64128E-07 0.00000E+00
 -1       525 1.40430E-05 1.48312E-07-2.64698E-23
 -1       526 1.34905E-05-3.83282E-07 0.00000E+00
 -1       527 1.29643E-05-9.85551E-07-2.64698E-23
 -1       528 1.24476E-05-1.61309E-06-1.32349E-23
 -1       529 1.19232E-05-2.22030E-06 0.00000E+00
 -1       530 1.13742E-05-2.76174E-06 1.32349E-23
 -1       531 1.07838E-05-3.19235E-06 0.00000E+00
 -1       532 1.01358E-05-3.46764E-06 0.00000E+00
 -1       533 9.41346E-06-3.54417E-06 0.00000E+00
 -1       534 8.60341E-06-3.37885E-06-6.61744E-24
 -1       535 7.68710E-06-2.93187E-06-1.32349E-23
 -1       536 1.60809E-05-8.35639E-07 0.00000E+00
 -1       537 1.60828E-05-1.01102E-07-4.13590E-25
 -1       538 1.60848E-05 4.26114E-07-4.13590E-25
 -1       539 1.60874E-05 7.70758E-07 0.00000E+00
 -1       540 1.60902E-05 9.57517E-07 0.00000E+00
 -1       541 1.60932E-05 1.01109E-06 0.00000E+00
 -1       542 1.60961E-05 9.56185E-07-2.58494E-26
 -1       543 1.60991E-05 8.17487E-07 2.58494E-26
 -1       544 1.61021E-05 6.19694E-07-5.16988E-26
 -1       545 1.61051E-05 3.87494E-07 5.16988E-26
 -1       546 1.61081E-05 1.45580E-07 1.03398E-25
 -1       547 1.61111E-05-8.13551E-08 0.00000E+00
 -1       548 1.61142E-05-2.68624E-07 0.00000E+00
 -1       549 1.61173E-05-3.91539E-07-1.03398E-25
 -1       550 1.61204E-05-4.25390E-07 4.13590E-25
 -1       551 1.46749E-05-1.86034E-06-7.75482E-25
 -1       552 1.31068E-05-1.91719E-06-8.27181E-25
 -1       553 1.14498E-05-1.97407E-06 0.00000E+00
 -1       554 9.77645E-06-2.03166E-06 0.00000E+00
 -1       555 8.15894E-06-2.09077E-06 6.61744E-24
 -1       556 1.56723E-05-8.95449E-07 6.61744E-24
 -1       557 1.53412E-05-1.96837E-07 0.00000E+00
 -1       558 1.50811E-05 3.13572E-07 0.00000E+00
 -1       559 1.48838E-05 6.57495E-07-3.30872E-24
 -1       560 1.47409E-05 8.56682E-07 0.00000E+00
 -1       561 1.46441E-05 9.33064E-07 0.00000E+00
 -1       562 1.45851E-05 9.08586E-07 0.00000E+00
 -1       563 1.45557E-05 8.05219E-07-1.65436E-24
 -1       564 1.45477E-05 6.44940E-07 0.00000E+00
 -1       565 1.45528E-05 4.49729E-07 8.27181E-25
 -1       566 1.45628E-05 2.41576E-07 1.65436E-24
 -1       567 1.45694E-05 4.24700E-08 4.13590E-25
 -1       568 1.45644E-05-1.25604E-07 1.65436E-24
 -1       569 1.45398E-05-2.40680E-07-8.01331E-25
 -1       570 1.44875E-05-2.80811E-07-8.27181E-25
 -1       571 1.61699E-05-2.43529E-07-2.06795E-25
 -1       572 1.62170E-05-1.74046E-07-2.06795E-25
 -1       573 1.62646E-05-1.31148E-07-8.27181E-25
 -1       574 1.63123E-05-1.08553E-07-4.13590E-25
 -1       575 1.63601E-05-9.99524E-08-8.27181E-25
 -1       576 1.64079E-05-9.89965E-08 8.27181E-25
 -1       577 1.64557E-05-9.93338E-08 1.65436E-24
 -1       578 1.65036E-05-9.46071E-08 0.00000E+00
 -1       579 1.65514E-05-7.84587E-08 0.00000E+00
 -1       580 1.65993E-05-4.45311E-08 0.00000E+00
 -1       581 1.66471E-05 1.35323E-08 3.30872E-24
 -1       582 1.66949E-05 1.02082E-07-3.30872E-24
 -1       583 1.67428E-05 2.27463E-07-3.30872E-24
 -1       584 1.67905E-05 3.95954E-07 0.00000E+00
 -1       585 1.68382E-05 6.13803E-07 0.00000E+00
 -1       586 1.58777E-05-3.24962E-07 0.00000E+00
 -1       587 1.55951E-05-3.04188E-07 0.00000E+00
 -1       588 1.52910E-05-2.83436E-07 0.00000E+00
 -1       589 1.49806E-05-2.62884E-07 2.06795E-25
 -1       590 1.46790E-05-2.42784E-07 0.00000E+00
 -1       591 1.60501E-05-2.25081E-07 0.00000E+00
 -1       592 1.59818E-05-1.25590E-07-4.13590E-25
 -1       593 1.59194E-05-4.30001E-08 0.00000E+00
 -1       594 1.58617E-05 2.64139E-08 0.00000E+00
 -1       595 1.58075E-05 8.63756E-08-8.27181E-25
 -1       596 1.57553E-05 1.40581E-07 4.13590E-25
 -1       597 1.57040E-05 1.92721E-07 0.00000E+00
 -1       598 1.56520E-05 2.46484E-07 0.00000E+00
 -1       599 1.55981E-05 3.05559E-07 0.00000E+00
 -1       600 1.55408E-05 3.73631E-07-2.06795E-25
 -1       601 1.54787E-05 4.54388E-07 4.13590E-25
 -1       602 1.54105E-05 5.51522E-07 0.00000E+00
 -1       603 1.53349E-05 6.68726E-07 8.27181E-25
 -1       604 1.52506E-05 8.09716E-07-2.58494E-26
 -1       605 1.51564E-05 9.78212E-07 0.00000E+00
 -1       606 1.69032E-05 1.24902E-06 0.00000E+00
 -1       607 1.69195E-05 1.64622E-06 0.00000E+00
 -1       608 1.69355E-05 2.07631E-06 0.00000E+00
 -1       609 1.69512E-05 2.53695E-06 0.00000E+00
 -1       610 1.69670E-05 3.02577E-06-1.65436E-24
 -1       611 1.69827E-05 3.54038E-06 0.00000E+00
 -1       612 1.69983E-05 4.07836E-06 1.65436E-24
 -1       613 1.70140E-05 4.63731E-06 0.00000E+00
 -1       614 1.70296E-05 5.21481E-06 0.00000E+00
 -1       615 1.70452E-05 5.80845E-06-4.13590E-25
 -1       616 1.70608E-05 6.41582E-06 0.00000E+00
 -1       617 1.70764E-05 7.03450E-06 4.13590E-25
 -1       618 1.70920E-05 7.66209E-06 0.00000E+00
 -1       619 1.71076E-05 8.29617E-06 0.00000E+00
 -1       620 1.71231E-05 8.93433E-06 4.13590E-25
 -1       621 1.65456E-05 9.35530E-07 0.00000E+00
 -1       622 1.62145E-05 9.84538E-07 8.27181E-25
 -1       623 1.58959E-05 1.03355E-06 1.65436E-24
 -1       624 1.55937E-05 1.08244E-06 8.27181E-25
 -1       625 1.53114E-05 1.13104E-06 8.27181E-25
 -1       626 1.67796E-05 1.26745E-06 0.00000E+00
 -1       627 1.66593E-05 1.68470E-06 0.00000E+00
 -1       628 1.65263E-05 2.13510E-06 0.00000E+00
 -1       629 1.63823E-05 2.61480E-06 0.00000E+00
 -1       630 1.62287E-05 3.11992E-06-1.65436E-24
 -1       631 1.60670E-05 3.64652E-06-1.65436E-24
 -1       632 1.58987E-05 4.19068E-06 0.00000E+00
 -1       633 1.57253E-05 4.74845E-06-8.27181E-25
 -1       634 1.55483E-05 5.31590E-06 0.00000E+00
 -1       635 1.53691E-05 5.88907E-06 0.00000E+00
 -1       636 1.51892E-05 6.46403E-06-8.27181E-25
 -1       637 1.50102E-05 7.03684E-06 0.00000E+00
 -1       638 1.48333E-05 7.60354E-06 0.00000E+00
 -1       639 1.46601E-05 8.16019E-06-4.13590E-25
 -1       640 1.44918E-05 8.70282E-06-6.20385E-25
 -1       641 1.71389E-05 1.02370E-05 2.06795E-25
 -1       642 1.71387E-05 1.09687E-05 0.00000E+00
 -1       643 1.71385E-05 1.17592E-05 0.00000E+00
 -1       644 1.71381E-05 1.25985E-05 0.00000E+00
 -1       645 1.71378E-05 1.34767E-05-1.29247E-26
 -1       646 1.71374E-05 1.43839E-05-1.61559E-27
 -1       647 1.71369E-05 1.53100E-05 0.00000E+00
 -1       648 1.71365E-05 1.62452E-05 0.00000E+00
 -1       649 1.71360E-05 1.71794E-05 1.29247E-26
 -1       650 1.71356E-05 1.81027E-05 0.00000E+00
 -1       651 1.71351E-05 1.90052E-05 0.00000E+00
 -1       652 1.71346E-05 1.98768E-05-5.16988E-26
 -1       653 1.71341E-05 2.07077E-05 2.06795E-25
 -1       654 1.71333E-05 2.14878E-05 2.06795E-25
 -1       655 1.71326E-05 2.22073E-05 0.00000E+00
 -1       656 1.65652E-05 9.51832E-06 8.27181E-25
 -1       657 1.60707E-05 9.45957E-06 0.00000E+00
 -1       658 1.56276E-05 9.40095E-06 0.00000E+00
 -1       659 1.52080E-05 9.34229E-06 0.00000E+00
 -1       660 1.47844E-05 9.28353E-06-8.27181E-25
 -1       661 1.69540E-05 1.02567E-05 1.65436E-24
 -1       662 1.67519E-05 1.09932E-05 0.00000E+00
 -1       663 1.65326E-05 1.17750E-05-1.65436E-24
 -1       664 1.62996E-05 1.25944E-05 0.00000E+00
 -1       665 1.60555E-05 1.34435E-05 1.65436E-24
 -1       666 1.58031E-05 1.43146E-05 0.00000E+00
 -1       667 1.55454E-05 1.52000E-05 0.00000E+00
 -1       668 1.52853E-05 1.60918E-05-8.27181E-25
 -1       669 1.50257E-05 1.69823E-05 0.00000E+00
 -1       670 1.47695E-05 1.78639E-05 8.27181E-25
 -1       671 1.45195E-05 1.87287E-05 1.65436E-24
 -1       672 1.42786E-05 1.95689E-05 0.00000E+00
 -1       673 1.40498E-05 2.03769E-05-1.65436E-24
 -1       674 1.38356E-05 2.11446E-05 0.00000E+00
 -1       675 1.36394E-05 2.18645E-05 0.00000E+00
 -1       676 1.65167E-05 2.28010E-05 0.00000E+00
 -1       677 1.59036E-05 2.27459E-05 0.00000E+00
 -1       678 1.52912E-05 2.26907E-05 1.65436E-24
 -1       679 1.46797E-05 2.26358E-05 0.00000E+00
 -1       680 1.40694E-05 2.25808E-05 0.00000E+00
 -1       681 5.68395E-06 1.25366E-06-1.65436E-24
 -1       682 5.78592E-06 1.41183E-06-1.65436E-24
 -1       683 5.88733E-06 4.30531E-07 0.00000E+00
 -1       684 5.98836E-06-1.28341E-06-1.65436E-24
 -1       685 6.08847E-06-3.50201E-06 0.00000E+00
 -1       686 6.18807E-06-5.99969E-06 0.00000E+00
 -1       687 6.28738E-06-8.61905E-06-3.30872E-24
 -1       688 6.38680E-06-1.12032E-05 0.00000E+00
 -1       689 6.48669E-06-1.35869E-05 3.30872E-24
 -1       690 6.58732E-06-1.56037E-05 0.00000E+00
 -1       691 6.68891E-06-1.69974E-05-3.30872E-24
 -1       692 6.79114E-06-1.75092E-05 1.65436E-24
 -1       693 6.89298E-06-1.66646E-05 0.00000E+00
 -1       694 6.99081E-06-1.39827E-05 0.00000E+00
 -1       695 7.07770E-06-8.53546E-06 1.65436E-24
 -1       696 3.48979E-06-3.83575E-07-1.65436E-24
 -1       697 2.17740E-06-3.07757E-07 8.27181E-25
 -1       698 1.39951E-06-2.31501E-07 1.65436E-24
 -1       699 9.08216E-07-1.54567E-07 1.65436E-24
 -1       700 5.07093E-07-7.76166E-08 3.30872E-24
 -1       701 3.45265E-06 4.87603E-06-1.65436E-24
 -1       702-8.87132E-07 1.59361E-05 0.00000E+00
 -1       703-6.76687E-06 3.09551E-05 0.00000E+00
 -1       704-1.35016E-05 4.81479E-05-1.65436E-24
 -1       705-2.01762E-05 6.51870E-05 0.00000E+00
 -1       706-2.58767E-05 7.97449E-05 0.00000E+00
 -1       707-2.99514E-05 9.01166E-05-3.30872E-24
 -1       708-3.17735E-05 9.46107E-05 0.00000E+00
 -1       709-3.12977E-05 9.30028E-05 3.30872E-24
 -1       710-2.84930E-05 8.50978E-05-1.65436E-24
 -1       711-2.38998E-05 7.22804E-05 0.00000E+00
 -1       712-1.80505E-05 5.59660E-05 1.65436E-24
 -1       713-1.17755E-05 3.84602E-05 3.30872E-24
 -1       714-5.90016E-06 2.20775E-05-1.65436E-24
 -1       715-1.15733E-06 8.84560E-06 0.00000E+00
 -1       716 7.06766E-06 1.04382E-05-8.27181E-25
 -1       717 7.02175E-06 1.78580E-05 0.00000E+00
 -1       718 6.98958E-06 2.30061E-05 8.27181E-25
 -1       719 6.96580E-06 2.60131E-05 0.00000E+00
 -1       720 6.94588E-06 2.70994E-05-8.27181E-25
 -1       721 6.92633E-06 2.64869E-05 4.13590E-25
 -1       722 6.90509E-06 2.44688E-05 8.27181E-25
 -1       723 6.88107E-06 2.13394E-05 0.00000E+00
 -1       724 6.85449E-06 1.74394E-05-8.27181E-25
 -1       725 6.82614E-06 1.31106E-05-4.13590E-25
 -1       726 6.79747E-06 8.71215E-06 0.00000E+00
 -1       727 6.76966E-06 4.60379E-06 4.13590E-25
 -1       728 6.74407E-06 1.13283E-06 1.65436E-24
 -1       729 6.71968E-06-1.35405E-06-8.27181E-25
 -1       730 6.69804E-06-2.55207E-06 0.00000E+00
 -1       731-1.76192E-06 6.14476E-07 0.00000E+00
 -1       732-6.42827E-06 6.41104E-07 0.00000E+00
 -1       733-7.68740E-06 6.77752E-07 0.00000E+00
 -1       734-6.35531E-06 7.14516E-07 4.13590E-25
 -1       735-3.02460E-06 7.47135E-07 0.00000E+00
 -1       736 1.21016E-06 1.57701E-05 0.00000E+00
 -1       737-8.01164E-06 3.92352E-05 0.00000E+00
 -1       738-1.92707E-05 6.77522E-05 3.30872E-24
 -1       739-3.12573E-05 9.80522E-05 1.65436E-24
 -1       740-4.24695E-05 1.26448E-04 3.30872E-24
 -1       741-5.14255E-05 1.49254E-04 1.65436E-24
 -1       742-5.72313E-05 1.64091E-04 0.00000E+00
 -1       743-5.90533E-05 1.68600E-04 0.00000E+00
 -1       744-5.70154E-05 1.62799E-04-3.30872E-24
 -1       745-5.12577E-05 1.46753E-04-1.65436E-24
 -1       746-4.27424E-05 1.22917E-04 0.00000E+00
 -1       747-3.23975E-05 9.37992E-05 1.65436E-24
 -1       748-2.15366E-05 6.31803E-05 3.30872E-24
 -1       749-1.14621E-05 3.48533E-05 0.00000E+00
 -1       750-3.31179E-06 1.20549E-05 0.00000E+00
 -1       751 7.12235E-06-1.21044E-06-3.30872E-24
 -1       752 7.60563E-06-7.48706E-07 0.00000E+00
 -1       753 8.08714E-06-5.72897E-07-1.32349E-23
 -1       754 8.57420E-06-4.90178E-07 0.00000E+00
 -1       755 9.06143E-06-4.62278E-07-1.32349E-23
 -1       756 9.54975E-06-4.52136E-07 0.00000E+00
 -1       757 1.00382E-05-4.52402E-07 0.00000E+00
 -1       758 1.05269E-05-4.55955E-07 0.00000E+00
 -1       759 1.10155E-05-4.61182E-07 1.32349E-23
 -1       760 1.15041E-05-4.66505E-07 0.00000E+00
 -1       761 1.19925E-05-4.70511E-07 1.32349E-23
 -1       762 1.24802E-05-4.71754E-07-6.61744E-24
 -1       763 1.29678E-05-4.64169E-07-1.32349E-23
 -1       764 1.34515E-05-4.41494E-07 0.00000E+00
 -1       765 1.39365E-05-3.72344E-07 0.00000E+00
 -1       766 4.49406E-06-2.13753E-06 3.30872E-24
 -1       767 4.04426E-07-2.11275E-06 0.00000E+00
 -1       768-3.78462E-06-2.08907E-06 0.00000E+00
 -1       769-6.25760E-06-2.05831E-06 0.00000E+00
 -1       770-5.06634E-06-2.02632E-06 2.06795E-25
 -1       771 5.95619E-06-1.22263E-06 0.00000E+00
 -1       772 5.30953E-06-4.74431E-07 0.00000E+00
 -1       773 4.72582E-06 1.04008E-07-1.32349E-23
 -1       774 4.19901E-06 5.29761E-07-6.61744E-24
 -1       775 3.72296E-06 8.19936E-07 0.00000E+00
 -1       776 3.29128E-06 9.91729E-07 6.61744E-24
 -1       777 2.89754E-06 1.06236E-06 0.00000E+00
 -1       778 2.53527E-06 1.04908E-06 0.00000E+00
 -1       779 2.19800E-06 9.69167E-07 0.00000E+00
 -1       780 1.87925E-06 8.39920E-07-6.61744E-24
 -1       781 1.57254E-06 6.78651E-07 0.00000E+00
 -1       782 1.27142E-06 5.02699E-07-6.61744E-24
 -1       783 9.69449E-07 3.29400E-07 6.61744E-24
 -1       784 6.60460E-07 1.76150E-07 0.00000E+00
 -1       785 3.38304E-07 6.03389E-08 6.61744E-24
 -1       786 1.44393E-05-5.79445E-08 0.00000E+00
 -1       787 1.44799E-05 7.10510E-08 4.13590E-25
 -1       788 1.45204E-05 1.68444E-07 8.27181E-25
 -1       789 1.45614E-05 2.40007E-07 0.00000E+00
 -1       790 1.46024E-05 2.91500E-07 1.65436E-24
 -1       791 1.46434E-05 3.28679E-07 8.27181E-25
 -1       792 1.46845E-05 3.57292E-07 0.00000E+00
 -1       793 1.47256E-05 3.83088E-07-8.27181E-25
 -1       794 1.47667E-05 4.11814E-07 0.00000E+00
 -1       795 1.48078E-05 4.49216E-07 0.00000E+00
 -1       796 1.48489E-05 5.01045E-07 0.00000E+00
 -1       797 1.48900E-05 5.73056E-07-8.27181E-25
 -1       798 1.49310E-05 6.71010E-07 1.65436E-24
 -1       799 1.49719E-05 8.00675E-07 4.13590E-25
 -1       800 1.50128E-05 9.67837E-07-8.27181E-25
 -1       801 1.31331E-05-1.84001E-07 0.00000E+00
 -1       802 1.04888E-05-1.43698E-07 0.00000E+00
 -1       803 7.16016E-06-1.05400E-07 1.03398E-25
 -1       804 3.84050E-06-6.84249E-08 1.65436E-24
 -1       805 1.22313E-06-2.95525E-08 0.00000E+00
 -1       806 1.42888E-05-7.55262E-08 0.00000E+00
 -1       807 1.41810E-05 5.67520E-08 8.27181E-25
 -1       808 1.40777E-05 1.75678E-07 1.65436E-24
 -1       809 1.39781E-05 2.84190E-07 8.27181E-25
 -1       810 1.38812E-05 3.85213E-07 1.65436E-24
 -1       811 1.37860E-05 4.81651E-07-8.27181E-25
 -1       812 1.36915E-05 5.76405E-07 0.00000E+00
 -1       813 1.35965E-05 6.72374E-07 0.00000E+00
 -1       814 1.34999E-05 7.72457E-07 0.00000E+00
 -1       815 1.34007E-05 8.79550E-07-4.13590E-25
 -1       816 1.32978E-05 9.96552E-07 0.00000E+00
 -1       817 1.31902E-05 1.12636E-06-4.13590E-25
 -1       818 1.30766E-05 1.27187E-06-8.27181E-25
 -1       819 1.29563E-05 1.43599E-06-4.13590E-25
 -1       820 1.28282E-05 1.62162E-06 4.13590E-25
 -1       821 1.50102E-05 1.44803E-06 0.00000E+00
 -1       822 1.49650E-05 1.77949E-06 0.00000E+00
 -1       823 1.49199E-05 2.16617E-06 0.00000E+00
 -1       824 1.48743E-05 2.60153E-06-8.27181E-25
 -1       825 1.48287E-05 3.07902E-06 0.00000E+00
 -1       826 1.47830E-05 3.59207E-06 8.27181E-25
 -1       827 1.47373E-05 4.13410E-06 1.65436E-24
 -1       828 1.46915E-05 4.69852E-06 0.00000E+00
 -1       829 1.46457E-05 5.27873E-06-1.65436E-24
 -1       830 1.45999E-05 5.86811E-06 0.00000E+00
 -1       831 1.45542E-05 6.46009E-06-1.65436E-24
 -1       832 1.45085E-05 7.04802E-06-8.27181E-25
 -1       833 1.44628E-05 7.62532E-06-3.30872E-24
 -1       834 1.44175E-05 8.18537E-06-4.13590E-25
 -1       835 1.43722E-05 8.72158E-06 0.00000E+00
 -1       836 1.47437E-05 1.28518E-06 0.00000E+00
 -1       837 1.43396E-05 1.39588E-06 0.00000E+00
 -1       838 1.38863E-05 1.50637E-06 0.00000E+00
 -1       839 1.34300E-05 1.61658E-06 8.27181E-25
 -1       840 1.30166E-05 1.72698E-06 0.00000E+00
 -1       841 1.49522E-05 1.44777E-06-2.06795E-25
 -1       842 1.48255E-05 1.78490E-06 0.00000E+00
 -1       843 1.46764E-05 2.18201E-06 5.16988E-26
 -1       844 1.45077E-05 2.63116E-06 0.00000E+00
 -1       845 1.43223E-05 3.12448E-06 6.46235E-27
 -1       846 1.41233E-05 3.65404E-06 0.00000E+00
 -1       847 1.39137E-05 4.21189E-06-6.46235E-27
 -1       848 1.36964E-05 4.79011E-06-3.23117E-27
 -1       849 1.34744E-05 5.38074E-06-1.29247E-26
 -1       850 1.32508E-05 5.97582E-06 0.00000E+00
 -1       851 1.30285E-05 6.56740E-06-2.58494E-26
 -1       852 1.28104E-05 7.14751E-06-2.58494E-26
 -1       853 1.25996E-05 7.70821E-06 1.03398E-25
 -1       854 1.23989E-05 8.24149E-06-1.03398E-25
 -1       855 1.22115E-05 8.73951E-06-4.13590E-25
 -1       856 1.42775E-05 9.77138E-06-8.27181E-25
 -1       857 1.42235E-05 1.04149E-05-4.13590E-25
 -1       858 1.41694E-05 1.11450E-05 0.00000E+00
 -1       859 1.41148E-05 1.19486E-05 8.27181E-25
 -1       860 1.40602E-05 1.28125E-05 0.00000E+00
 -1       861 1.40054E-05 1.37236E-05 8.27181E-25
 -1       862 1.39507E-05 1.46687E-05 1.65436E-24
 -1       863 1.38958E-05 1.56346E-05-8.27181E-25
 -1       864 1.38410E-05 1.66081E-05-1.65436E-24
 -1       865 1.37862E-05 1.75760E-05-8.27181E-25
 -1       866 1.37314E-05 1.85251E-05-1.65436E-24
 -1       867 1.36766E-05 1.94422E-05 0.00000E+00
 -1       868 1.36220E-05 2.03141E-05 0.00000E+00
 -1       869 1.35676E-05 2.11277E-05 0.00000E+00
 -1       870 1.35133E-05 2.18698E-05 0.00000E+00
 -1       871 1.39028E-05 9.22263E-06 0.00000E+00
 -1       872 1.35121E-05 9.21740E-06 0.00000E+00
 -1       873 1.31438E-05 9.21203E-06 0.00000E+00
 -1       874 1.27844E-05 9.20649E-06 2.06795E-25
 -1       875 1.24206E-05 9.20071E-06 4.13590E-25
 -1       876 1.42015E-05 9.78981E-06 0.00000E+00
 -1       877 1.40452E-05 1.04381E-05 0.00000E+00
 -1       878 1.38611E-05 1.11601E-05 0.00000E+00
 -1       879 1.36539E-05 1.19452E-05 0.00000E+00
 -1       880 1.34271E-05 1.27824E-05 0.00000E+00
 -1       881 1.31848E-05 1.36610E-05 0.00000E+00
 -1       882 1.29311E-05 1.45700E-05-1.65436E-24
 -1       883 1.26700E-05 1.54989E-05 0.00000E+00
 -1       884 1.24054E-05 1.64368E-05 1.65436E-24
 -1       885 1.21415E-05 1.73730E-05 8.27181E-25
 -1       886 1.18822E-05 1.82968E-05 1.65436E-24
 -1       887 1.16316E-05 1.91974E-05 8.27181E-25
 -1       888 1.13936E-05 2.00641E-05 0.00000E+00
 -1       889 1.11719E-05 2.08859E-05 0.00000E+00
 -1       890 1.09711E-05 2.16522E-05 0.00000E+00
 -1       891 1.29354E-05 2.24982E-05 0.00000E+00
 -1       892 1.25149E-05 2.24685E-05 0.00000E+00
 -1       893 1.21445E-05 2.24389E-05-8.27181E-25
 -1       894 1.17701E-05 2.24093E-05 0.00000E+00
 -1       895 1.13372E-05 2.23797E-05 0.00000E+00
 -1       896 1.07986E-07 6.68889E-07 3.30872E-24
 -1       897 2.16485E-07 1.54857E-06 0.00000E+00
 -1       898 3.24809E-07 2.57568E-06 0.00000E+00
 -1       899 4.33173E-07 3.68756E-06-1.65436E-24
 -1       900 5.41492E-07 4.84368E-06 0.00000E+00
 -1       901 6.49831E-07 6.00375E-06 0.00000E+00
 -1       902 7.58210E-07 7.12847E-06 0.00000E+00
 -1       903 8.66665E-07 8.17840E-06-1.65436E-24
 -1       904 9.75239E-07 9.09455E-06 3.30872E-24
 -1       905 1.08394E-06 9.81728E-06 1.65436E-24
 -1       906 1.19277E-06 1.02365E-05 0.00000E+00
 -1       907 1.30155E-06 1.02404E-05 0.00000E+00
 -1       908 1.41008E-06 9.60928E-06 0.00000E+00
 -1       909 1.51700E-06 8.11988E-06 1.65436E-24
 -1       910 1.62138E-06 5.32555E-06 1.65436E-24
 -1       911 1.71437E-06-3.55934E-06-2.06795E-25
 -1       912 1.71985E-06-5.68923E-06 0.00000E+00
 -1       913 1.72758E-06-5.99013E-06 0.00000E+00
 -1       914 1.73468E-06-4.83516E-06 1.03398E-25
 -1       915 1.74004E-06-2.57228E-06 0.00000E+00
 -1       916 1.74345E-06 4.50898E-07 0.00000E+00
 -1       917 1.74557E-06 3.89988E-06 0.00000E+00
 -1       918 1.74737E-06 7.44042E-06 0.00000E+00
 -1       919 1.74995E-06 1.07398E-05-2.06795E-25
 -1       920 1.75418E-06 1.34651E-05 1.03398E-25
 -1       921 1.76033E-06 1.52736E-05 2.06795E-25
 -1       922 1.76785E-06 1.58224E-05 0.00000E+00
 -1       923 1.77484E-06 1.47466E-05 0.00000E+00
 -1       924 1.77754E-06 1.16809E-05 0.00000E+00
 -1       925 1.77043E-06 6.22593E-06-4.13590E-25
 -1       926 1.61204E-06-1.17569E-05 0.00000E+00
 -1       927 1.47728E-06-2.16643E-05 0.00000E+00
 -1       928 1.34866E-06-3.09053E-05-3.30872E-24
 -1       929 1.23190E-06-3.86471E-05 0.00000E+00
 -1       930 1.12817E-06-4.43308E-05-3.30872E-24
 -1       931 1.03535E-06-4.74053E-05 0.00000E+00
 -1       932 9.46940E-07-4.77957E-05-3.30872E-24
 -1       933 8.55896E-07-4.54372E-05-1.65436E-24
 -1       934 7.57235E-07-4.07665E-05 0.00000E+00
 -1       935 6.48452E-07-3.42293E-05 1.65436E-24
 -1       936 5.32467E-07-2.66119E-05-3.30872E-24
 -1       937 4.14099E-07-1.87051E-05-1.65436E-24
 -1       938 2.99669E-07-1.13522E-05-3.30872E-24
 -1       939 1.93081E-07-5.39454E-06-1.65436E-24
 -1       940 9.61030E-08-1.41783E-06 6.61744E-24
 -1       941 7.52226E-07 1.26598E-07 0.00000E+00
 -1       942 1.54603E-06 2.37809E-07 6.61744E-24
 -1       943 2.33718E-06 3.40746E-07-2.64698E-23
 -1       944 3.13626E-06 4.42221E-07 0.00000E+00
 -1       945 3.93556E-06 5.42909E-07 0.00000E+00
 -1       946 4.73644E-06 6.43461E-07 0.00000E+00
 -1       947 5.53750E-06 7.43942E-07 0.00000E+00
 -1       948 6.33883E-06 8.44415E-07 1.32349E-23
 -1       949 7.14018E-06 9.44913E-07 0.00000E+00
 -1       950 7.94134E-06 1.04547E-06 0.00000E+00
 -1       951 8.74235E-06 1.14635E-06 2.64698E-23
 -1       952 9.54211E-06 1.24786E-06 1.32349E-23
 -1       953 1.03417E-05 1.35290E-06 0.00000E+00
 -1       954 1.11349E-05 1.46451E-06 0.00000E+00
 -1       955 1.19302E-05 1.61342E-06 0.00000E+00
 -1       956 1.26522E-05 2.12325E-06 4.13590E-25
 -1       957 1.26115E-05 2.45949E-06-1.03398E-25
 -1       958 1.25707E-05 2.83594E-06 1.65436E-24
 -1       959 1.25298E-05 3.24780E-06 8.27181E-25
 -1       960 1.24889E-05 3.69029E-06 0.00000E+00
 -1       961 1.24479E-05 4.15855E-06-4.13590E-25
 -1       962 1.24070E-05 4.64775E-06 0.00000E+00
 -1       963 1.23660E-05 5.15304E-06 0.00000E+00
 -1       964 1.23250E-05 5.66959E-06 0.00000E+00
 -1       965 1.22840E-05 6.19253E-06-8.27181E-25
 -1       966 1.22430E-05 6.71704E-06 1.65436E-24
 -1       967 1.22020E-05 7.23827E-06-8.27181E-25
 -1       968 1.21611E-05 7.75137E-06 1.65436E-24
 -1       969 1.21202E-05 8.25152E-06 0.00000E+00
 -1       970 1.20794E-05 8.73391E-06 1.65436E-24
 -1       971 1.19634E-05 9.68764E-06 0.00000E+00
 -1       972 1.18854E-05 1.02876E-05-8.27181E-25
 -1       973 1.18075E-05 1.09805E-05 1.65436E-24
 -1       974 1.17291E-05 1.17530E-05-8.27181E-25
 -1       975 1.16507E-05 1.25919E-05 1.65436E-24
 -1       976 1.15721E-05 1.34837E-05-8.27181E-25
 -1       977 1.14935E-05 1.44149E-05 1.65436E-24
 -1       978 1.14149E-05 1.53722E-05 8.27181E-25
 -1       979 1.13363E-05 1.63420E-05-3.30872E-24
 -1       980 1.12577E-05 1.73109E-05 0.00000E+00
 -1       981 1.11791E-05 1.82654E-05 1.65436E-24
 -1       982 1.11006E-05 1.91920E-05-8.27181E-25
 -1       983 1.10222E-05 2.00772E-05 0.00000E+00
 -1       984 1.09443E-05 2.09077E-05 0.00000E+00
 -1       985 1.08664E-05 2.16700E-05 0.00000E+00
 -3
    1PSTEP                        38          19           1          
  100CL  119 3.02718E-01         841                     0   19           1
 -4  STRESS      6    1
 -5  SXX         1    4    1    1
 -5  SYY         1    4    2    2
 -5  SZZ         1    4    3    3
 -5  SXY         1    4    1    2
 -5  SYZ         1    4    2    3
 -5  SZX         1    4    3    1
 -1         1-1.23183E+06-4.01921E+05-2.53301E+05-3.66660E+05-3.17717E-10 2.05667E-09
 -1         2-7.13899E+05-2.75201E+04 5.15072E+03-4.92392E+04-9.48745E-10 3.55044E-10
 -1         3-4.25601E+05-1.36529E+05-2.14832E+04-1.90422E+04 1.35105E-09-3.35831E-10
 -1         4-2.95801E+05-3.87345E+04 4.95993E+02-3.54813E+04-4.63395E-10 4.95220E-10
 -1         5-1.62035E+05 4.03808E+04-6.55876E+04-3.25807E+03 5.20686E-09 7.38481E-10
 -1         8-6.02408E+05-2.39524E+05-8.07226E+04-2.36074E+05 5.91172E-11 2.79761E-09
 -1         9-6.55378E+05-1.53824E+05-7.24156E+04-1.57866E+05-9.42843E-11 4.25644E-10
 -1        10-2.10905E+05-1.38785E+05 1.41236E+04-4.23596E+04-3.95403E-09-3.12563E-10
 -1        11-1.53747E+05-3.24732E+04 3.94379E+03-4.76129E+04-1.38614E-08-1.42253E-09
 -1        12-1.54207E+05 3.35486E+04-6.50230E+04-2.33352E+04 1.40932E-09 4.50422E-10
 -1        15 1.01031E+04-3.10063E+02 4.66953E+03-2.56104E+04-3.37423E-10 3.66617E-09
 -1        16-4.48746E+05-6.73770E+04 1.84232E+04-1.82342E+05 3.88354E-10 2.59039E-09
 -1        17-2.55167E+05-1.61828E+05-2.81035E+04-1.33602E+05-1.83021E-09 1.34423E-09
 -1        18-2.68801E+04-2.29849E+04-1.92505E+04-4.63036E+04 3.22924E-09-2.03272E-09
 -1        19 2.50181E+03 4.02298E+04-1.59465E+04-9.98800E+03-4.40271E-10 3.11199E-10
 -1        20 4.02550E+04-3.04990E+04-5.25146E+03 2.18922E+04 2.21257E-09-5.55019E-10
 -1        21 7.18499E+02-6.04594E+04 1.68109E+04 1.19136E+01 6.09072E-09 8.58862E-10
 -1        22 1.84850E+04 7.18029E+04 2.37683E+03-1.06680E+04-3.58796E-10-3.67436E-10
 -1        23-7.68043E+04 4.91160E+04 6.56831E+03-2.21181E+04-3.68633E-09-2.54780E-09
 -1        24-1.20085E+05-1.10047E+04 1.05982E+05-1.97657E+05-6.51956E-09 6.18456E-10
 -1        25 2.35951E+05 7.82151E+04 7.22271E+04-1.19905E+05 4.95523E-10-2.60115E-10
 -1        26 8.68187E+02 6.40213E+04 3.21442E+03-1.11461E+04-3.56825E-10-1.37940E-11
 -1        27-1.37808E+04-2.54503E+04-1.09639E+04 3.08307E+04 6.57868E-11-2.53931E-09
 -1        28-4.84602E+03-4.80767E+04-2.63691E+02 2.31898E+04-2.19188E-10-2.23455E-09
 -1        29 1.51132E+05 1.15625E+05 4.97009E+02 2.04719E+03 2.88899E-10 9.36780E-11
 -1        30 2.80165E+04 1.65901E+04 2.35320E+03-1.53247E+04 1.03196E-09-5.82781E-09
 -1        31-8.53887E+04 1.68765E+04 7.08693E+03-2.93279E+04 3.06651E-09-1.33077E-08
 -1        32 3.97646E+05 2.03970E+05 2.51299E+05-1.97169E+05 4.57030E-09 6.53017E-10
 -1        33 5.60298E+05 2.22404E+05 1.71420E+05-1.70494E+04-1.13014E-08 1.26420E-10
 -1        34-8.09707E+04-9.99063E+03-1.64874E+03 1.80855E+04-1.03402E-11 8.90850E-10
 -1        35-1.37656E+04-1.60841E+04-2.87295E+02 3.47889E+04 1.74820E-09-1.51582E-11
 -1        36-1.55056E+06 4.59785E+04-1.06244E+05 3.68913E-08-1.18963E-10-1.76806E-09
 -1        37-1.59656E+06-5.32225E+04-7.51934E+04-5.56450E-08-7.96719E-10 2.60570E-09
 -1        38-1.56831E+06 7.20694E+03-2.74932E+04 7.31420E-08-2.03361E-09 1.58798E-09
 -1        39-1.57584E+06-8.34000E+03-1.72910E+04 2.06556E-07 6.68655E-10 9.96806E-10
 -1        40-1.57124E+06 1.12732E+03-7.06429E+03-1.05628E-07 7.55816E-11 2.44199E-10
 -1        41-1.57242E+06-1.32025E+03-4.21602E+03-1.04432E-07-6.98505E-11-6.28461E-10
 -1        42-1.57172E+06 1.92153E+02-2.05683E+03 1.28237E-07-1.39341E-09 9.98682E-10
 -1        43-1.57190E+06-3.35677E+02-1.62221E+03 4.79839E-08-8.12929E-10-1.74711E-09
 -1        44-1.57175E+06 1.43385E+02-1.62056E+03 8.32935E-08-1.11137E-09-2.78419E-10
 -1        45-1.57219E+06-9.00929E+02-2.95275E+03-3.13595E-07 1.20196E-09 1.15691E-09
 -1        46-1.57143E+06 7.57027E+02-4.79065E+03-2.41888E-07-1.05407E-09 2.37947E-09
 -1        47-1.57447E+06-5.58662E+03-1.16090E+04-1.20682E-07-1.28239E-09 8.48559E-10
 -1        48-1.56948E+06 4.82572E+03-1.84239E+04 6.16922E-08 8.99805E-10-4.32010E-10
 -1        49-1.58835E+06-3.56360E+04-5.03541E+04-7.52934E-08-2.52217E-09 8.27640E-11
 -1        50-1.55759E+06 3.07841E+04-7.11502E+04 1.18399E-07-2.43792E-09-8.47649E-10
 -1        51 1.40711E+04-1.68550E+05 2.23551E+04-4.40347E+05-2.91038E-11 7.78527E-10
 -1        52 5.89339E+03-1.65829E+05 1.34646E+04-4.84699E+05 3.60160E-10-2.91038E-10
 -1        53 3.45128E+03-1.69320E+05 1.08305E+04-4.39225E+05-1.45519E-11-3.63798E-10
 -1        54 8.32954E+03-1.66994E+05 1.64235E+04-4.85925E+05-2.07365E-10-1.12232E-09
 -1        55 2.06062E+04-1.71981E+05 2.98109E+04-4.39055E+05 2.18279E-11-5.71163E-10
 -1        56-1.97762E+06-2.23212E+05-1.63413E+05-7.65233E+05-7.49424E-10-7.85803E-10
 -1        57-2.05415E+06-3.56452E+05-1.09616E+05-7.46359E+05 3.70619E-10-4.88762E-09
 -1        58-2.00922E+06-2.74898E+05-3.84943E+04-7.56488E+05-3.81988E-10-3.59796E-09
 -1        59-2.01775E+06-2.95521E+05-2.28214E+04-7.56828E+05-5.28985E-10-1.11595E-09
 -1        60-2.01364E+06-2.82097E+05-9.00231E+03-7.55492E+05-2.28738E-10-1.49203E-09
 -1        61-2.01280E+06-2.86921E+05-5.09504E+03-7.57825E+05-1.15205E-09 9.75206E-10
 -1        62-2.01410E+06-2.83242E+05-2.48529E+03-7.55574E+05-2.88424E-10-4.35023E-10
 -1        63-2.01258E+06-2.85495E+05-2.08150E+03-7.57464E+05-3.25002E-10 1.02239E-09
 -1        64-2.01386E+06-2.83497E+05-2.42247E+03-7.55860E+05 2.05858E-10 2.17744E-09
 -1        65-2.01375E+06-2.85886E+05-4.90893E+03-7.56703E+05 3.59237E-09 1.91318E-09
 -1        66-2.01294E+06-2.82877E+05-8.65028E+03-7.56327E+05 7.21684E-10-7.36236E-10
 -1        67-2.01938E+06-2.93251E+05-2.19099E+04-7.54728E+05-1.06581E-09 1.51999E-09
 -1        68-2.00829E+06-2.76379E+05-3.69545E+04-7.57753E+05-2.64663E-10 1.25510E-10
 -1        69-2.05504E+06-3.51018E+05-1.05221E+05-7.43854E+05 7.23048E-10-7.27596E-12
 -1        70-1.97764E+06-2.27076E+05-1.56869E+05-7.66502E+05-9.93168E-10-1.71713E-09
 -1        71-8.33038E+05 2.54748E+03-5.89258E+03-1.26158E-07-7.73140E-10 9.57243E-11
 -1        72-8.35520E+05-2.94930E+03-4.17173E+03 3.48932E-08-1.33173E-09 1.69734E-09
 -1        73-8.34022E+05 3.99506E+02-1.53214E+03-5.05365E-08 1.37587E-10 2.77720E-09
 -1        74-8.34373E+05-4.63419E+02-9.74793E+02 1.18190E-07 1.70291E-10-5.05011E-10
 -1        75-8.34183E+05 6.35857E+01-4.22566E+02 8.69803E-09 1.06388E-09 6.98762E-10
 -1        76-8.34189E+05-8.17116E+01-2.99547E+02-1.54615E-07-9.97678E-12 4.72093E-10
 -1        77-8.34206E+05 1.80811E+01-2.37200E+02-4.88753E-09-3.26853E-11 4.36799E-10
 -1        78-8.34188E+05-7.45803E+01-3.60948E+02-9.53161E-09-2.54789E-10-1.26416E-10
 -1        79-8.34183E+05 5.64682E+01-5.81057E+02 8.15612E-08-7.08102E-10 4.19988E-10
 -1        80-8.34366E+05-4.11783E+02-1.29494E+03-2.52941E-08 1.11205E-09 3.00224E-09
 -1        81-8.34028E+05 3.55067E+02-2.21409E+03-5.06845E-08 5.52888E-10-3.07750E-10
 -1        82-8.35448E+05-2.63067E+03-5.45034E+03 1.14560E-07 1.31335E-10-9.50195E-10
 -1        83-8.33104E+05 2.27375E+03-8.67646E+03-1.32929E-07-1.81271E-09-5.79348E-10
 -1        84-8.41986E+05-1.67919E+04-2.37300E+04-8.27897E-08-4.18968E-10 4.16776E-09
 -1        85-8.27500E+05 1.45053E+04-3.35388E+04 1.79794E-08-1.12964E-09 1.27329E-10
 -1        86-3.43351E+04 1.02508E+05 8.07609E+04 7.28228E+02 3.63798E-12 5.25020E-09
 -1        87 4.30412E+04 1.38912E+05 6.29898E+04-3.07155E+03-1.16415E-10 1.32214E-07
 -1        88-8.66864E+03 1.14334E+05 3.27088E+04 5.18155E+02 5.33573E-08 4.50017E-05
 -1        89 3.10464E+04 1.33250E+05 4.73471E+04-2.88539E+03 1.19360E-07 8.96626E-05
 -1        90-2.23491E+04 1.08163E+05 5.39025E+04 5.42088E+02 4.92819E-08 4.50317E-05
 -1        91-7.11551E+05-1.20357E+05-1.04676E+04-2.88035E+05 1.05699E-08 1.03156E-09
 -1        92-6.90142E+05-4.63184E+04 8.64041E+03-1.94090E+05 2.43264E-08 9.52497E-10
 -1        93-6.71931E+05-1.16624E+05-1.15124E+03-2.85303E+05-5.73732E-09-5.50301E-10
 -1        94-6.44134E+05-5.55295E+04 1.63542E+04-1.98129E+05-1.71349E-08 2.25236E-09
 -1        95-7.56773E+05-1.11944E+05-1.60105E+04-2.83298E+05-1.76010E-09-9.19044E-10
 -1        96-5.84451E+05-9.66613E+04 2.00693E+04-2.44071E+05 2.02939E-08 6.18058E-10
 -1        97-7.31227E+05-7.58774E+04-4.41106E+03-2.39064E+05-1.02921E-09 2.89589E-09
 -1        98-6.13284E+05-1.32503E+05 7.30384E+03-2.90658E+05-1.10283E-08 1.11646E-08
 -1        99-7.29209E+05-7.48225E+04-4.12430E+03-2.37782E+05 1.48402E-08 4.84590E-09
 -1       100-5.85239E+05-9.87012E+04 1.87571E+04-2.46149E+05 1.19958E-08 1.26439E-08
 -1       101-7.58045E+05-1.10919E+05-1.77065E+04-2.82537E+05 5.25051E-09 3.52520E-09
 -1       102-6.42232E+05-5.84421E+04 1.26173E+04-1.98281E+05-3.35763E-09 2.85354E-09
 -1       103-6.72512E+05-1.14790E+05-8.30155E+03-2.85868E+05-9.72460E-09 3.18232E-09
 -1       104-6.99539E+05-6.05985E+04-1.17425E+04-1.91357E+05 5.82315E-09 2.03704E-09
 -1       105-7.01606E+05-1.07897E+05-3.89728E+04-2.90223E+05 6.09634E-09 5.55519E-09
 -1       106-6.33704E+05 6.95811E+03-1.60916E+04 1.99422E-08 1.34787E-09 8.29459E-10
 -1       107-6.40632E+05-8.05523E+03-1.13871E+04-2.26223E-08 1.47289E-11 4.14730E-10
 -1       108-6.36393E+05 1.09083E+03-4.16890E+03-1.04743E-07-1.08759E-09-4.10637E-10
 -1       109-6.37497E+05-1.26296E+03-2.62779E+03-1.66648E-07-4.84514E-10 1.82109E-09
 -1       110-6.36836E+05 1.71222E+02-1.08697E+03 7.39608E-08-8.54911E-10 1.89095E-09
 -1       111-6.36982E+05-2.04378E+02-6.73944E+02 4.19820E-08-6.03806E-10 2.60496E-09
 -1       112-6.36907E+05 3.30376E+01-3.77376E+02 1.50528E-07 7.28635E-10 2.92110E-09
 -1       113-6.36920E+05-8.05818E+01-3.90140E+02 3.12068E-08-9.55872E-10 2.80940E-09
 -1       114-6.36898E+05 4.75108E+01-5.07060E+02-1.23169E-09-8.00700E-10 6.83684E-11
 -1       115-6.37049E+05-3.28821E+02-1.04933E+03-1.06547E-07-6.82282E-10-2.69074E-09
 -1       116-6.36777E+05 2.81115E+02-1.76260E+03 8.85631E-08-7.21342E-12 6.92353E-11
 -1       117-6.37902E+05-2.08006E+03-4.31544E+03 8.52614E-08-7.27964E-10 1.06490E-09
 -1       118-6.36047E+05 1.79746E+03-6.86288E+03 1.40265E-07-1.73654E-09-7.68523E-10
 -1       119-6.43070E+05-1.32741E+04-1.87616E+04-2.95851E-08-4.33516E-10 1.25146E-09
 -1       120-6.31616E+05 1.14665E+04-2.65151E+04 1.00003E-07-3.06241E-10 2.90856E-09
 -1       121-6.31921E+02-4.23858E+05 2.88975E+03 3.97165E+03-2.24645E-10-1.31899E-09
 -1       122 8.63837E+02-4.22767E+05 1.81103E+03 1.41839E+04-5.12472E-10-5.29872E-09
 -1       123-6.94401E+01-4.23415E+05 6.74834E+02 4.03408E+03-6.48356E-10 6.34827E-10
 -1       124-8.62741E+00-4.23262E+05 2.42898E+02 1.40145E+04-1.35060E-09 3.89969E-09
 -1       125 2.30612E+01-4.23324E+05-1.05155E+02 4.14103E+03-1.36765E-09 2.06774E-09
 -1       126-2.89491E+05-5.20298E+04 7.28870E+03-1.10842E+05 1.02456E-08 9.85892E-10
 -1       127-2.49456E+05-1.31761E+04 1.51032E+04-7.83093E+04 2.18555E-08 8.05016E-10
 -1       128-2.64307E+05-4.76370E+04 1.89440E+03-1.11727E+05 9.39846E-09-2.48974E-09
 -1       129-2.79951E+05-1.82485E+04 2.86173E+03-7.80630E+04 2.43011E-08 1.46855E-10
 -1       130-2.59419E+05-4.66476E+04 5.20805E+02-1.11424E+05 2.97082E-08-2.81645E-10
 -1       131-2.64592E+05-1.99895E+04 4.30219E+03-7.68832E+04-2.98587E-08-5.42359E-09
 -1       132-2.79413E+05-4.60857E+04-3.75553E+03-1.12704E+05-8.28095E-09 1.64755E-09
 -1       133-2.29754E+05-2.61223E+04 9.57263E+03-8.03328E+04 9.92304E-09-1.72233E-09
 -1       134-2.93765E+05-4.08834E+04-5.70573E+03-1.07597E+05-8.75730E-10-2.66652E-10
 -1       135-2.23863E+05-4.02724E+04 7.73078E+03-9.74025E+04 2.10630E-08-2.62399E-09
 -1       136-2.85433E+05-3.18405E+04-2.79584E+03-9.57489E+04 3.85057E-10-1.89357E-09
 -1       137-2.41879E+05-5.37804E+04 8.11859E+02-1.16026E+05-1.54196E-08-4.01204E-09
 -1       138-2.76284E+05-2.69746E+04-1.75855E+03-8.93684E+04 1.71700E-08 2.76373E-09
 -1       139-2.42903E+05-5.57978E+04-3.23338E+03-1.15371E+05-2.44240E-08-1.75624E-08
 -1       140-2.84400E+05-2.98318E+04-1.10305E+04-9.63967E+04-1.57455E-08-5.29099E-09
 -1       141-3.08268E+05-1.12125E+03 2.59124E+03-3.41355E-08 4.28502E-11-1.15983E-09
 -1       142-3.07115E+05 1.29779E+03 1.82908E+03-5.19385E-08-1.37886E-10-1.63686E-09
 -1       143-3.07834E+05-1.75517E+02 6.59352E+02 4.02355E-08-4.28179E-10-8.86757E-12
 -1       144-3.07622E+05 2.01382E+02 3.96699E+02-3.44014E-08 3.98468E-10-1.21446E-10
 -1       145-3.07761E+05-2.57170E+01 1.23626E+02-1.34420E-07-4.01009E-10-9.14696E-10
 -1       146-3.07713E+05 1.85756E+01-1.76502E+00 1.49662E-08-1.62984E-10 4.99803E-10
 -1       147-3.07743E+05 7.15914E+00-1.46067E+02-8.48184E-08-1.36171E-10-9.13559E-10
 -1       148-3.07771E+05-8.10276E+01-3.92550E+02 2.33389E-08-2.55732E-10-1.15392E-09
 -1       149-3.07704E+05 7.38344E+01-7.43844E+02 8.82019E-08 2.95593E-10-1.35219E-09
 -1       150-3.08022E+05-5.54720E+02-1.73187E+03 3.09180E-08-1.43594E-10 7.25066E-10
 -1       151-3.07492E+05 4.80556E+02-2.99022E+03-5.93980E-08-4.83869E-10 3.44698E-10
 -1       152-3.09488E+05-3.56281E+03-7.38027E+03 2.24476E-09 2.45974E-10 6.78824E-10
 -1       153-3.06239E+05 3.07975E+03-1.17548E+04-3.99493E-09 1.72244E-09 3.03817E-09
 -1       154-3.18341E+05-2.27446E+04-3.21475E+04 2.35934E-08 6.79952E-10-1.34150E-10
 -1       155-2.98641E+05 1.96476E+04-4.54320E+04 4.79647E-08 3.14338E-09-1.54614E-10
 -1       156-1.11237E+04-6.15107E+04 2.51801E+04 6.96435E+03 2.26373E-09 5.83213E-11
 -1       157 1.34869E+04-4.42439E+04 2.03714E+04-2.79786E+04 6.17888E-09-7.95971E-10
 -1       158-2.27351E+03-5.66845E+04 9.58732E+03 6.99425E+03 3.05886E-09 2.10946E-10
 -1       159 9.76568E+03-3.32049E+04 1.68149E+04-2.70811E+04 1.21702E-09-6.49607E-10
 -1       160-7.64252E+03-7.22252E+04 1.14418E+04 6.06798E+03-4.73392E-09-5.24324E-10
 -1       161-3.04164E+05-4.20959E+04-8.34747E+02-1.13686E+05 1.41830E-09-8.92328E-10
 -1       162-3.02758E+05-4.42336E+04-5.17175E+02-1.15127E+05 2.29368E-09 2.41738E-09
 -1       163-3.04631E+05-4.19135E+04-1.98140E+02-1.13093E+05-8.94905E-10-1.31034E-09
 -1       164-3.02275E+05-4.43611E+04-1.24038E+02-1.15717E+05-3.08980E-11-9.26594E-10
 -1       165-3.04649E+05-4.19661E+04-7.80523E+01-1.13097E+05 3.21278E-09-2.47413E-10
 -1       166-3.02582E+05-4.38427E+04-5.76236E+01-1.15160E+05 1.29927E-09-1.60871E-09
 -1       167-3.04321E+05-4.24341E+04-1.73994E+02-1.13649E+05-1.72411E-09 3.43714E-09
 -1       168-3.03575E+05-4.28095E+04-2.54914E+02-1.13875E+05-1.46532E-09-4.49731E-10
 -1       169-3.03653E+05-4.30015E+04-6.10902E+02-1.14380E+05 2.63355E-09-2.07595E-09
 -1       170-3.05078E+05-4.22149E+04-1.41266E+03-1.12590E+05 7.16265E-09 7.15573E-10
 -1       171-3.02821E+05-4.30270E+04-2.50949E+03-1.14936E+05-3.82431E-09 1.26533E-10
 -1       172-3.07478E+05-4.47689E+04-6.74605E+03-1.11531E+05-1.27835E-09 2.97860E-10
 -1       173-3.01257E+05-4.04471E+04-1.08152E+04-1.15441E+05 4.44447E-09-2.07274E-09
 -1       174-3.17907E+05-6.43557E+04-3.19997E+04-1.08329E+05-1.76760E-09-3.02180E-09
 -1       175-2.92394E+05-2.34545E+04-4.61738E+04-1.18133E+05-1.36424E-09-1.52068E-09
 -1       191 5.20244E+02 2.13679E+05 8.30910E+02-6.16335E+03-2.84672E-10-1.09685E-09
 -1       192 1.90673E+02 2.13795E+05 4.90317E+02-6.61185E+03-3.88013E-10-6.43922E-10
 -1       193 8.72378E+01 2.13719E+05 3.83776E+02-6.06734E+03-7.41636E-10-8.35644E-09
 -1       194 2.34469E+02 2.13806E+05 5.67513E+02-6.79049E+03-8.62542E-10-1.77056E-08
 -1       195 6.54890E+02 2.13659E+05 1.02308E+03-5.98440E+03-1.18507E-09-9.51968E-09
 -1       251-9.12373E+05 1.26014E+04-4.74678E+04-2.76257E+04 1.69848E-10-8.31278E-10
 -1       252-8.42259E+05-1.66303E+04-1.79330E+04 7.63975E+04 4.39471E-10 7.83757E-09
 -1       253-8.87309E+05 4.76952E+03-1.14490E+04-3.66228E+04-1.75282E-09-8.72978E-09
 -1       254-7.90844E+05-2.59628E+02 1.17813E+04 4.86200E+04-9.72079E-10 2.25839E-09
 -1       255-9.62353E+05-5.18447E+03-1.95601E+04 1.57709E+02-7.84712E-09-7.93534E-10
 -1       256-7.77208E+05 3.42692E+03 1.91841E+04-2.94635E+04-5.13694E-10-3.44079E-09
 -1       257-9.00529E+05 6.76011E+02-4.76679E+03 4.14241E+04-1.18325E-09 9.20446E-09
 -1       258-8.39372E+05-3.40559E+02 7.03907E+03-7.02499E+04-1.88024E-09-1.53487E-08
 -1       259-9.02119E+05 5.10798E+02-5.09138E+03 4.09826E+04-7.27437E-09 8.62943E-09
 -1       260-7.75925E+05 3.51605E+03 1.94777E+04-2.81214E+04-7.34116E-09-4.49074E-09
 -1       261-9.62008E+05-5.14690E+03-1.94349E+04-7.42946E+02-2.35787E-10 2.16971E-09
 -1       262-7.92349E+05-3.19514E+02 1.15817E+04 4.98073E+04 4.14167E-09 3.17857E-09
 -1       263-8.86197E+05 4.83935E+03-1.10106E+04-3.69092E+04-4.99699E-09-5.80440E-09
 -1       264-8.41449E+05-1.61845E+04-1.72538E+04 7.60729E+04-3.05952E-08 3.72347E-09
 -1       265-9.14274E+05 1.20659E+04-4.70713E+04-2.70144E+04-1.29421E-08-6.10817E-09
 -1       266-1.20864E+04-1.25796E+05 2.77192E+04-2.10306E+03-3.09228E-11 2.02598E-09
 -1       267 1.33287E+04-1.13404E+05 1.85400E+04 9.05255E+03 3.54703E-11-3.77067E-09
 -1       268-1.24511E+03-1.21238E+05 4.70302E+03-1.88786E+03-1.36424E-11-1.17083E-10
 -1       269-2.40685E+03-1.18627E+05-1.76189E+03 7.95332E+03 4.54747E-13-6.42288E-10
 -1       270 3.59688E+03-1.20522E+05-8.44412E+03-1.00415E+03 8.59472E-11 3.32443E-09
 -1       271-1.64467E+06-2.09012E+05-1.27739E+05-6.35972E+05-4.36557E-11-1.82627E-09
 -1       272-1.68621E+06-2.92013E+05-8.00884E+04-6.39802E+05-3.17755E-10-1.65164E-09
 -1       273-1.66673E+06-2.36460E+05-3.01237E+04-6.32832E+05 4.51422E-10 1.06775E-09
 -1       274-1.66063E+06-2.55762E+05-1.64426E+04-6.45756E+05-5.05452E-10 7.10543E-10
 -1       275-1.66941E+06-2.39108E+05-7.00147E+03-6.32350E+05-3.76986E-10-1.31695E-09
 -1       276-1.65748E+06-2.52396E+05-3.69027E+03-6.46639E+05-4.23938E-10-3.99803E-09
 -1       277-1.66985E+06-2.39263E+05-1.89410E+03-6.32182E+05-3.86535E-11 1.56575E-09
 -1       278-1.65701E+06-2.52230E+05-1.47297E+03-6.46887E+05 3.47654E-10 2.08791E-09
 -1       279-1.66990E+06-2.39222E+05-1.75211E+03-6.32135E+05-3.62107E-10-9.03924E-10
 -1       280-1.65729E+06-2.52511E+05-3.30426E+03-6.46846E+05 6.93944E-10 2.46837E-09
 -1       281-1.66958E+06-2.39014E+05-6.20806E+03-6.32210E+05 1.47566E-10 3.84262E-10
 -1       282-1.65997E+06-2.55602E+05-1.45587E+04-6.46207E+05 9.62928E-11-1.58821E-09
 -1       283-1.66726E+06-2.36618E+05-2.66515E+04-6.32581E+05 2.22599E-10-7.00311E-10
 -1       284-1.68252E+06-2.87770E+05-7.08637E+04-6.41052E+05-1.19371E-10 2.15186E-09
 -1       285-1.64779E+06-2.12290E+05-1.13020E+05-6.35311E+05-6.60293E-10-4.87489E-10
 -1       286-1.34389E+05-1.22019E+04 2.82140E+04-7.95490E+01-7.01874E-11 7.02130E-10
 -1       287-1.22027E+05 1.41260E+04 1.99801E+04-2.09867E+02-1.75724E-10-2.03181E-09
 -1       288-1.29667E+05-1.91347E+03 7.30140E+03 6.95978E+01-1.81398E-10-2.72075E-09
 -1       289-1.27544E+05 2.21424E+03 4.60715E+03-4.87039E+02 1.86084E-10-3.29464E-09
 -1       290-1.28875E+05-2.99614E+02 1.88270E+03 1.97634E+02 3.70946E-10-2.44597E-09
 -1       291-1.28478E+05 3.52317E+02 1.13984E+03-6.90713E+02 8.84143E-10-1.22365E-09
 -1       292-1.28734E+05-5.24016E+01 5.75899E+02 2.73275E+02 4.99425E-10-2.40495E-09
 -1       293-1.28623E+05 1.01844E+02 4.95575E+02-7.74131E+02 1.44588E-10-1.13792E-09
 -1       294-1.28731E+05-4.90294E+01 5.46453E+02 2.81053E+02 4.98522E-10 1.92435E-09
 -1       295-1.28499E+05 3.23707E+02 1.05275E+03-7.20278E+02 1.85054E-10-1.11601E-09
 -1       296-1.28858E+05-2.74299E+02 1.72843E+03 2.19421E+02 2.51951E-10-5.01473E-10
 -1       297-1.27643E+05 2.02685E+03 4.21892E+03-5.40210E+02 6.94710E-10-3.49985E-10
 -1       298-1.29585E+05-1.75142E+03 6.68418E+03 1.00982E+02 1.98774E-11 6.80302E-10
 -1       299-1.22588E+05 1.29298E+04 1.82890E+04-2.75003E+02 1.29328E-10 4.06317E-10
 -1       300-1.33910E+05-1.11687E+04 2.58237E+04-4.57946E+01 7.17456E-10 5.71163E-10
 -1       301 2.22731E+04 4.54593E+03 5.00371E+04-1.55802E+04-4.54747E-10 7.46297E-10
 -1       302 7.55364E+03 1.40000E+04 3.08302E+04-1.83448E+04-5.00904E-10 1.06603E-09
 -1       303 2.09778E+03 7.89247E+03 2.49440E+04-1.55846E+04-4.10182E-10-7.66363E-10
 -1       304 9.98744E+03 1.54672E+04 3.74334E+04-1.83275E+04-3.99268E-10-6.74390E-10
 -1       305 3.01381E+04 3.08456E+03 6.60306E+04-1.55899E+04-2.51021E-10 2.04318E-09
 -1       306-1.08713E+06-1.42923E+05-7.06480E+04-4.21386E+05-3.31966E-10 1.33878E-09
 -1       307-1.10288E+06-1.95917E+05-4.42755E+04-4.31695E+05-3.31966E-11 1.99452E-09
 -1       308-1.09938E+06-1.58021E+05-1.66671E+04-4.19605E+05-6.72799E-10-1.66165E-09
 -1       309-1.08873E+06-1.75935E+05-9.09999E+03-4.35072E+05 7.73070E-12 2.88105E-09
 -1       310-1.10087E+06-1.59469E+05-3.88812E+03-4.19335E+05 2.97177E-09-1.17961E-09
 -1       311-1.08701E+06-1.74064E+05-2.07268E+03-4.35562E+05 6.16637E-09-1.58371E-09
 -1       312-1.10110E+06-1.59567E+05-1.11177E+03-4.19261E+05 2.68778E-09-6.26848E-10
 -1       313-1.08681E+06-1.73931E+05-9.55291E+02-4.35643E+05 4.02355E-10-2.17142E-10
 -1       314-1.10109E+06-1.59574E+05-1.25421E+03-4.19271E+05-3.18391E-09-1.67131E-09
 -1       315-1.08709E+06-1.74076E+05-2.46364E+03-4.35512E+05-7.44069E-09-2.36014E-09
 -1       316-1.10080E+06-1.59459E+05-4.68431E+03-4.19366E+05-2.43017E-09 1.37607E-09
 -1       317-1.08917E+06-1.76347E+05-1.10030E+04-4.34928E+05 2.04523E-10 1.07093E-09
 -1       318-1.09900E+06-1.57695E+05-2.01628E+04-4.19681E+05-5.87534E-10 2.07365E-10
 -1       319-1.10626E+06-2.00570E+05-5.35767E+04-4.30897E+05-4.79744E-10-6.47560E-10
 -1       320-1.08421E+06-1.39385E+05-8.54789E+04-4.21798E+05-1.63163E-09-2.72485E-09
 -1       321-2.71227E+05-6.46692E+03 1.29352E+04-2.69313E+03-2.36514E-09-3.87354E-09
 -1       322-2.55543E+05 7.40935E+03 1.09268E+04 8.83487E+03-9.10026E-09 2.33854E-10
 -1       323-2.65519E+05-9.54768E+02 3.39199E+03-5.41643E+03 2.43273E-09-3.42425E-09
 -1       324-2.62667E+05 1.09061E+03 2.41245E+03 1.20979E+04 1.81238E-08 3.99746E-09
 -1       325-2.64215E+05-6.69167E+01 9.08869E+02-5.95729E+03-1.22469E-10-4.04191E-09
 -1       326-2.61244E+05 1.93466E+02 1.04881E+03 1.07885E+04-5.73925E-09 4.64888E-09
 -1       327-2.66894E+05-9.63538E+01-3.48579E+02-4.10639E+03 4.11688E-09-3.47619E-09
 -1       328-2.55908E+05 2.38533E+02 1.70145E+03 5.37475E+03-6.66606E-09 2.58636E-09
 -1       329-2.69412E+05-2.21049E+02-1.10186E+03-5.42953E+02-4.24620E-09 9.18092E-11
 -1       330-2.54621E+05 2.27076E+02 1.72716E+03-2.06876E+03-4.04299E-10-1.00499E-09
 -1       331-2.68146E+05-1.11855E+02-1.14658E+03 3.33578E+03-7.10827E-10 9.62089E-10
 -1       332-2.59422E+05-2.46296E+02 1.42633E+02-8.59571E+03-1.43291E-08-4.17702E-09
 -1       333-2.64731E+05 3.45024E+02-1.48098E+03 5.98409E+03-1.46792E-08 2.37151E-09
 -1       334-2.64467E+05-2.40846E+03-3.43611E+03-1.16749E+04-1.39151E-08-6.76528E-09
 -1       335-2.63207E+05 2.13101E+03-5.15902E+03 6.41643E+03 9.80282E-09 3.03157E-09
 -1       336 3.25868E+02-4.35296E+05-2.07554E+03-7.70245E+03-2.04960E-09 7.26232E-10
 -1       337-7.70084E+02-4.36109E+05-2.82748E+03-2.84399E+04-3.66356E-09 6.16524E-10
 -1       338 3.59397E+02-4.35262E+05-4.05926E+03-7.62338E+03-2.32217E-09 8.09678E-10
 -1       339-4.38933E+03-4.38331E+05-9.42475E+03-2.85065E+04-3.88445E-09 5.24567E-09
 -1       340 3.16607E+03-4.33106E+05-1.46327E+04-7.63667E+03-2.20371E-09 6.13386E-09
 -1       341-3.63546E+05-6.66383E+04-7.46646E+03-1.43577E+05 3.07457E-08 5.45060E-09
 -1       342-2.76845E+05-6.44333E+03 1.77431E+04-7.33471E+04 1.47999E-08 7.30552E-10
 -1       343-3.07894E+05-6.05389E+04-3.30410E+02-1.38760E+05-2.69495E-08-1.36203E-08
 -1       344-3.32238E+05-1.24848E+04 3.53771E+03-7.84434E+04 4.62581E-08 6.22213E-09
 -1       345-3.09040E+05-5.99183E+04-1.48055E+03-1.39212E+05 6.43992E-08-2.04699E-09
 -1       346-2.76742E+05-1.29836E+04 1.37019E+04-7.17575E+04-1.58973E-08-5.29252E-09
 -1       347-3.62449E+05-6.07660E+04-1.20906E+04-1.44669E+05-3.97335E-09-3.72114E-09
 -1       348-2.10301E+05-2.62527E+04 2.37736E+04-8.09649E+04 2.77554E-08-6.47674E-09
 -1       349-3.74546E+05-4.73757E+04-1.22391E+04-1.29310E+05-7.55176E-09-3.28896E-09
 -1       350-2.35507E+05-5.72383E+04 1.20913E+04-1.22075E+05 1.32886E-08-1.21478E-08
 -1       351-3.38185E+05-2.90554E+04-3.37625E+03-1.04315E+05-1.92545E-08-1.43173E-08
 -1       352-2.73401E+05-7.61447E+04-2.16914E+03-1.47347E+05-5.76787E-08-3.64223E-08
 -1       353-3.37608E+05-2.77250E+04-9.68906E+03-1.04734E+05 2.28417E-08 8.13998E-10
 -1       354-2.42265E+05-6.92272E+04-8.97380E+03-1.19285E+05-2.41928E-08-6.19139E-09
 -1       355-3.68351E+05-3.67383E+04-4.67795E+04-1.31667E+05-8.08132E-09-3.38332E-10
 -1       356-2.73984E+05 2.52910E+03-6.14532E+03 6.79029E+03 2.14129E-10 5.36329E-09
 -1       357-2.75482E+05-2.87250E+03-4.10487E+03-1.24952E+04 2.03102E-08-5.82850E-09
 -1       358-2.75554E+05 4.18201E+02-1.74071E+03 6.42949E+03 1.13126E-08 4.26178E-09
 -1       359-2.69986E+05-3.13809E+02 2.38806E+01-9.29765E+03-2.04794E-09-2.02475E-09
 -1       360-2.79366E+05-1.15998E+02-1.34117E+03 3.59113E+03-9.71795E-09 3.37421E-09
 -1       361-2.64627E+05 2.32318E+02 1.74245E+03-2.23731E+03-1.58066E-08-1.45307E-09
 -1       362-2.80780E+05-2.31999E+02-1.45602E+03-6.30969E+02-6.65358E-09-1.03125E-10
 -1       363-2.66163E+05 1.53071E+02 1.31323E+03 5.84450E+03-2.53183E-09 9.00179E-10
 -1       364-2.77870E+05-5.61954E+00-1.31914E+03-4.48916E+03-1.05413E-08-1.62669E-09
 -1       365-2.72390E+05-5.01116E+02-1.08764E+03 1.16282E+04 2.70030E-08 3.86245E-09
 -1       366-2.74708E+05 5.43324E+02-2.78293E+03-6.41546E+03-1.63881E-08-3.92527E-09
 -1       367-2.75484E+05-3.31786E+03-6.67772E+03 1.28187E+04-2.49297E-08 4.32522E-09
 -1       368-2.74822E+05 2.84452E+03-1.12176E+04-5.68021E+03-8.29769E-09-3.38650E-09
 -1       369-2.78539E+05-2.06685E+04-2.86463E+04 8.90836E+03-1.72744E-08 5.02223E-09
 -1       370-2.71524E+05 1.77784E+04-4.34387E+04-2.50376E+03-6.19764E-10-2.57751E-09
 -1       371-7.47731E+03-7.90120E+04 8.79244E+03 6.81591E+03-5.10772E-09 9.17339E-10
 -1       372 7.17969E+03-3.60741E+04 1.18795E+04-3.02616E+04 3.39855E-09-4.34193E-09
 -1       373 1.46602E+02-5.97934E+04 7.81869E+02 7.89456E+03 3.85603E-09-3.73353E-09
 -1       374-3.60769E+03-5.55215E+04-3.64322E+03-3.12200E+04 7.52891E-09 4.37396E-09
 -1       375 3.57068E+03-5.99345E+04-9.28400E+03 7.77326E+03 3.21825E-09 1.67034E-09
 -1       376-2.68349E+05-2.84473E+04-8.88411E+03-9.18016E+04-6.47674E-10 3.03635E-09
 -1       377-2.39043E+05-5.22824E+04-3.60380E+03-1.09986E+05 1.51148E-08-5.73732E-09
 -1       378-2.64281E+05-2.74132E+04-1.59802E+03-8.73619E+04 2.11676E-09 4.75455E-09
 -1       379-2.36273E+05-4.91117E+04 5.80318E+02-1.08977E+05 2.11010E-08 2.69978E-09
 -1       380-2.71074E+05-3.16496E+04-2.28805E+03-9.27791E+04 2.15629E-08 8.10076E-10
 -1       381-2.24778E+05-3.82233E+04 5.57676E+03-9.43532E+04 1.71308E-08-1.25698E-09
 -1       382-2.75400E+05-3.85822E+04-4.18735E+03-1.01706E+05 1.07207E-10 4.82004E-09
 -1       383-2.31680E+05-2.72121E+04 6.36253E+03-8.12338E+04-2.66562E-08 2.07385E-09
 -1       384-2.64109E+05-4.27065E+04-3.09941E+03-1.05841E+05 4.78535E-08-5.55372E-09
 -1       385-2.57674E+05-2.24025E+04 1.53916E+03-7.77205E+04 4.82100E-08-3.26921E-09
 -1       386-2.49758E+05-4.31306E+04-1.97972E+03-1.05488E+05-3.43721E-08-2.68449E-09
 -1       387-2.69969E+05-2.37076E+04-4.38595E+03-7.76188E+04 3.48620E-08-5.35607E-09
 -1       388-2.51985E+05-4.12763E+04-8.89466E+03-1.06078E+05 2.78687E-08-2.12490E-08
 -1       389-2.58104E+05-3.89810E+04-1.96582E+04-7.51171E+04-2.70782E-08-6.07361E-09
 -1       390-2.61330E+05-2.80852E+04-3.84884E+04-1.07753E+05-1.31649E-08 1.03864E-09
 -1       406 5.08977E+02 2.11181E+05 1.09780E+03-1.79621E+04-1.48975E-09-5.32054E-11
 -1       407 3.33710E+02 2.11380E+05 1.33647E+03-1.97011E+04-1.68507E-09-7.73980E-10
 -1       408 5.46799E+02 2.11145E+05 2.20427E+03-1.78870E+04-1.72986E-09-1.07093E-09
 -1       409 2.18926E+03 2.11998E+05 4.73265E+03-1.98117E+04-2.01544E-09-1.60526E-10
 -1       410 6.30773E+03 2.10545E+05 9.54421E+03-1.78485E+04-2.17187E-09-1.16256E-09
 -1       466 6.04219E+05-2.44977E+04 5.52033E+04 7.43779E+03 8.39862E-10 6.74117E-09
 -1       467 6.36026E+05 2.81948E+04 4.04092E+04-1.19273E+04 5.48653E-10 1.37879E-09
 -1       468 6.16718E+05-3.72354E+03 1.44349E+04 2.11518E+03 1.03741E-09 2.40561E-09
 -1       469 6.21556E+05 4.29312E+03 9.21437E+03-4.74550E+03 9.59233E-10-1.39607E-10
 -1       470 6.18620E+05-5.70132E+02 3.79517E+03 2.55702E+02 2.79776E-10 1.56888E-10
 -1       471 6.19364E+05 6.85259E+02 2.38377E+03-2.24352E+03 3.23467E-10-5.93900E-10
 -1       472 6.18904E+05-1.12554E+02 1.38277E+03-3.86839E+02 1.37709E-09-1.02489E-09
 -1       473 6.19119E+05 3.05339E+02 1.50752E+03-1.42687E+03-1.77796E-10-2.08030E-09
 -1       474 6.18864E+05-1.89732E+02 2.03838E+03-5.60968E+02 1.03324E-09-8.98012E-10
 -1       475 6.19656E+05 1.34077E+03 4.27782E+03-1.34533E+03 4.82384E-10 1.75532E-10
 -1       476 6.18364E+05-1.14726E+03 7.21292E+03-4.68378E+02 8.78564E-10-6.58474E-10
 -1       477 6.23172E+05 8.50448E+03 1.76725E+04-1.90519E+03 6.50312E-10 9.07221E-11
 -1       478 6.15344E+05-7.34827E+03 2.81012E+04-1.08421E+00-4.61771E-10-7.60338E-10
 -1       479 6.44550E+05 5.43203E+04 7.68469E+04-3.79965E+03 1.08980E-09-2.54386E-09
 -1       480 5.96983E+05-4.69248E+04 1.08516E+05 1.42604E+03 3.27744E-09-5.60249E-10
 -1       481-5.27982E+03 1.02748E+05 1.00104E+04-5.12928E+03-6.04814E-11-1.83519E-09
 -1       482 5.99003E+03 1.18092E+05 9.26120E+03 1.79869E+04-8.93579E-11 2.51484E-09
 -1       483-7.70667E+02 1.09437E+05 3.49497E+03-4.11341E+03-4.10409E-11-3.68146E-10
 -1       484 2.20133E+03 1.12680E+05 3.95290E+03 1.72213E+04-3.04290E-11-1.42904E-09
 -1       485-1.43185E+03 1.08069E+05 3.06053E+03-4.36322E+03 2.26237E-11-1.36609E-09
 -1       486-5.70971E+05-8.11856E+04-5.94492E+04-2.48983E+05 1.20963E-10 3.71801E-09
 -1       487-6.03341E+05-5.95077E+04-2.99391E+04-1.51907E+05 2.57205E-09 1.04201E-08
 -1       488-5.70137E+05-9.73711E+04-1.52655E+04-2.44747E+05 1.39994E-09-3.04863E-09
 -1       489-5.22590E+05-4.65936E+04 1.10081E+04-1.57995E+05 2.91588E-09-4.91423E-09
 -1       490-6.50559E+05-9.51608E+04-1.94122E+04-2.41910E+05 3.17050E-09 1.60526E-10
 -1       491-4.70201E+05-8.11788E+04 1.95366E+04-2.01395E+05 1.89652E-09 8.32102E-09
 -1       492-6.22262E+05-6.30265E+04-5.72292E+03-2.01176E+05-6.24595E-10 1.77232E-08
 -1       493-5.09832E+05-1.16724E+05 5.76039E+03-2.49445E+05-5.28530E-10 3.24973E-08
 -1       494-6.12345E+05-5.82975E+04-2.92008E+03-1.95003E+05-1.79546E-09 7.26345E-09
 -1       495-4.76593E+05-9.00809E+04 1.66514E+04-2.13061E+05-5.63210E-09 4.27167E-09
 -1       496-6.54359E+05-9.07342E+04-1.90712E+04-2.36645E+05 1.63027E-10 4.56816E-09
 -1       497-5.04342E+05-5.02438E+04 1.43382E+04-1.61515E+05 2.17167E-09-2.47326E-09
 -1       498-5.84315E+05-9.83954E+04-1.71349E+04-2.46272E+05 7.66499E-09-8.41464E-09
 -1       499-6.01677E+05-5.78288E+04-2.71585E+04-1.52147E+05 3.54237E-09-1.01682E-08
 -1       500-5.58443E+05-8.18522E+04-5.27887E+04-2.47206E+05-7.60429E-09 1.50612E-08
 -1       501-3.01968E+05-1.19418E+04 2.76069E+04-3.79959E+02 8.69917E-11 1.82808E-09
 -1       502-2.89806E+05 1.38263E+04 1.95569E+04 2.75991E+02 1.19588E-10 1.42791E-10
 -1       503-2.97370E+05-1.87442E+03 7.13115E+03 6.65223E+01-4.50164E-10-2.16869E-09
 -1       504-2.95201E+05 2.16796E+03 4.50292E+03-5.89674E+02-4.66008E-10-2.12214E-09
 -1       505-2.96578E+05-2.92846E+02 1.81094E+03 4.85723E+02 2.72735E-10-5.96401E-10
 -1       506-2.96155E+05 3.37164E+02 1.05750E+03-1.21304E+03 1.23116E-09-8.85620E-11
 -1       507-2.96418E+05-4.37021E+01 4.51715E+02 6.89902E+02 5.72984E-10 2.63270E-10
 -1       508-2.96322E+05 4.84496E+01 2.39664E+02-1.31715E+03 1.08892E-10-3.37049E-10
 -1       509-2.96411E+05-4.01629E+00 8.33621E+01 5.89835E+02 1.00972E-09-1.62809E-09
 -1       510-2.96302E+05-1.12161E+01 9.47152E+00-8.56117E+02 7.69235E-10 1.33620E-09
 -1       511-2.96437E+05 1.47866E+01-9.52596E+01 2.28857E+02-1.45121E-10 2.22336E-10
 -1       512-2.96321E+05-1.29732E+02-2.41899E+02-2.95544E+01-5.02780E-10-2.42853E-10
 -1       513-2.96390E+05 1.13593E+02-4.48121E+02-2.36742E+02-1.65628E-11-4.89905E-10
 -1       514-2.96694E+05-8.55576E+02-1.19615E+03 8.04995E+02-3.78400E-11 5.83839E-10
 -1       515-2.96066E+05 7.40822E+02-1.71866E+03-6.05707E+02-3.90681E-10 2.54897E-09
 -1       516-3.26327E+04 2.22514E+05 7.59940E+04-4.99842E+03-2.87400E-10-1.24462E-09
 -1       517 3.92625E+04 2.58729E+05 5.71846E+04 2.09902E+04-7.03039E-10-5.30459E-09
 -1       518-6.58177E+03 2.34203E+05 2.56699E+04-5.02905E+03 6.09361E-10 1.51567E-09
 -1       519 1.97473E+04 2.60616E+05 3.28633E+04 2.46227E+04-3.16464E-09-2.45862E-09
 -1       520-1.33093E+04 2.20888E+05 2.76269E+04-8.63242E+03-8.31278E-10-8.02288E-09
 -1       521-1.62607E+06-2.09988E+05-1.10858E+05-6.27318E+05 1.11686E-09 1.60071E-10
 -1       522-1.65893E+06-2.85165E+05-6.94987E+04-6.34271E+05 2.28283E-10-1.98179E-09
 -1       523-1.64522E+06-2.33787E+05-2.61405E+04-6.24580E+05-2.52015E-10 5.58430E-10
 -1       524-1.63675E+06-2.53703E+05-1.42720E+04-6.39441E+05 1.20451E-09 2.27374E-11
 -1       525-1.64753E+06-2.36097E+05-6.07869E+03-6.24177E+05 5.96174E-10 4.54747E-10
 -1       526-1.63407E+06-2.50729E+05-3.21392E+03-6.40145E+05-8.11042E-10-1.60310E-09
 -1       527-1.64787E+06-2.36275E+05-1.66531E+03-6.24077E+05-1.49782E-10-1.40929E-09
 -1       528-1.63376E+06-2.50488E+05-1.32821E+03-6.40236E+05-1.43004E-09 1.13573E-10
 -1       529-1.64785E+06-2.36303E+05-1.62233E+03-6.24104E+05-1.16313E-09-1.10299E-09
 -1       530-1.63414E+06-2.50619E+05-3.09339E+03-6.40024E+05-1.52647E-09-3.42004E-09
 -1       531-1.64747E+06-2.36189E+05-5.83526E+03-6.24258E+05 7.57154E-11 2.31012E-10
 -1       532-1.63681E+06-2.53366E+05-1.36850E+04-6.39218E+05-4.87717E-10 1.24260E-09
 -1       533-1.64519E+06-2.34034E+05-2.50648E+04-6.24705E+05-1.74396E-10 5.16593E-10
 -1       534-1.65819E+06-2.83407E+05-6.66262E+04-6.34116E+05-3.79032E-10-1.38243E-10
 -1       535-1.62676E+06-2.11288E+05-1.06282E+05-6.27402E+05-3.72893E-10 5.31145E-10
 -1       536 4.24277E+03-5.70209E+03 2.62366E+04-4.71546E+03 3.17868E-10-6.35737E-10
 -1       537 1.36595E+04 7.91534E+03 1.66968E+04-1.65863E+04-1.36697E-09-1.69098E-09
 -1       538 8.15541E+03-5.88295E+02 6.78381E+03-4.65314E+03 4.18368E-11-1.55660E-09
 -1       539 9.25749E+03 7.36800E+02 3.76437E+03-1.66513E+04 2.18279E-10-6.71662E-10
 -1       540 8.57936E+03-7.07055E+01 1.70552E+03-4.64879E+03 8.00355E-11 4.39741E-10
 -1       541 8.73659E+03 6.58854E+01 8.92267E+02-1.66545E+04-2.87741E-10 5.58146E-10
 -1       542 8.62918E+03-9.90368E+00 4.12573E+02-4.64997E+03-1.57115E-10-5.28814E-10
 -1       543 8.65040E+03 9.38486E+00 1.91412E+02-1.66527E+04-1.15961E-11 7.27766E-10
 -1       544 8.63593E+03 1.30190E+00 5.04603E+01-4.65061E+03 1.24373E-10 3.58966E-10
 -1       545 8.62303E+03-1.36462E+00-6.31924E+01-1.66519E+04-6.74802E-10-2.53635E-10
 -1       546 8.64438E+03 9.79379E+00-1.97951E+02-4.65073E+03 4.73761E-10 2.10719E-10
 -1       547 8.56068E+03-9.30494E+01-4.79831E+02-1.66500E+04-3.65503E-10 9.23563E-10
 -1       548 8.70358E+03 7.34152E+01-8.85302E+02-4.65254E+03 2.30898E-09 1.21656E-09
 -1       549 8.00527E+03-1.04221E+03-2.18540E+03-1.66146E+04 4.97937E-09-1.12004E-09
 -1       550 9.22257E+03 7.34863E+02-3.44530E+03-4.68608E+03 2.71370E-09 1.25840E-09
 -1       551 6.42221E+03-1.57761E+05 1.46534E+04-2.36173E+05 1.56433E-10-1.00044E-10
 -1       552 3.03006E+03-1.55187E+05 1.20030E+04-2.77430E+05-5.40240E-10 9.68612E-10
 -1       553 1.94962E+03-1.57421E+05 1.45392E+04-2.35776E+05 1.23691E-10 7.52493E-09
 -1       554 8.88555E+03-1.51748E+05 2.77928E+04-2.77492E+05-3.63798E-10 1.16124E-08
 -1       555 2.52894E+04-1.61367E+05 5.28980E+04-2.36083E+05-1.27329E-11 2.48383E-09
 -1       556-1.08631E+05-5.85010E+04 1.03292E+04-1.04905E+05 1.38607E-09 7.11589E-09
 -1       557-9.93596E+04-6.85548E+04 5.08729E+03-1.12031E+05 9.42237E-10 2.77737E-10
 -1       558-1.08758E+05-6.18881E+04 2.14175E+03-1.02882E+05-2.98314E-10-9.54969E-12
 -1       559-1.00279E+05-7.02374E+04 1.05033E+03-1.12345E+05 9.86802E-10-2.15857E-09
 -1       560-1.08838E+05-6.19320E+04 4.67864E+02-1.02841E+05 1.19144E-09-8.33211E-10
 -1       561-1.00441E+05-7.02775E+04 2.20519E+02-1.12462E+05 4.05907E-09 6.68138E-09
 -1       562-1.08906E+05-6.18793E+04 7.80451E+01-1.02887E+05 1.29330E-09 1.31877E-11
 -1       563-1.00517E+05-7.02456E+04-6.29331E+00-1.12517E+05 2.66027E-10-2.04636E-09
 -1       564-1.08943E+05-6.18469E+04-1.00801E+02-1.02916E+05 3.33512E-09-2.05864E-09
 -1       565-1.00563E+05-7.02291E+04-2.57111E+02-1.12543E+05 7.49196E-09-2.92857E-10
 -1       566-1.08939E+05-6.18308E+04-5.49471E+02-1.02924E+05-3.48109E-10 9.74069E-10
 -1       567-1.00664E+05-7.02830E+04-1.21518E+03-1.12536E+05-7.53971E-09 9.77707E-10
 -1       568-1.08849E+05-6.20090E+04-2.49676E+03-1.02833E+05-3.80669E-09 7.40329E-10
 -1       569-1.02036E+05-7.17796E+04-5.88894E+03-1.12154E+05-1.76442E-10-2.07365E-10
 -1       570-1.08308E+05-6.65067E+04-1.19935E+04-1.00932E+05 2.23554E-09 4.62239E-09
 -1       571 1.36224E+05 6.42086E+03 9.72796E+03-3.49722E+04 2.73758E-10 1.76897E-10
 -1       572 1.37701E+05 2.20477E+03 4.77396E+03-3.84845E+04 2.00089E-11-1.20281E-09
 -1       573 1.36825E+05 5.04228E+02 2.12293E+03-3.48800E+04-2.81489E-10-4.63842E-11
 -1       574 1.37001E+05 1.58416E+02 1.06510E+03-3.85868E+04-1.83491E-10 2.64208E-10
 -1       575 1.36893E+05 1.54175E+01 5.03397E+02-3.48681E+04-1.13687E-11 2.79670E-10
 -1       576 1.36910E+05 4.03227E-01 2.57104E+02-3.86003E+04 1.85352E-10 2.71484E-10
 -1       577 1.36904E+05-8.14892E+00 1.28351E+02-3.48666E+04 1.70076E-10-1.36424E-10
 -1       578 1.36900E+05-6.08685E+00 7.30413E+01-3.86019E+04-1.35856E-10 7.18046E-10
 -1       579 1.36912E+05-8.24211E+00 5.05271E+01-3.48665E+04-2.54204E-10-1.90994E-09
 -1       580 1.36910E+05-8.56738E+00 5.66048E+01-3.85998E+04 3.83807E-10 4.22915E-11
 -1       581 1.36923E+05-9.95879E+00 8.77467E+01-3.48686E+04-3.02862E-10-1.43586E-09
 -1       582 1.36941E+05 8.44389E+00 1.74201E+02-3.85785E+04 1.09139E-10-5.35238E-10
 -1       583 1.36930E+05 5.82650E+01 3.40113E+02-3.48878E+04-3.81988E-11-1.06957E-09
 -1       584 1.37076E+05 3.24535E+02 7.62801E+02-3.84165E+04-9.54060E-10-8.30369E-10
 -1       585 1.36855E+05 9.93600E+02 1.55089E+03-3.50313E+04 1.95541E-10-1.08230E-10
 -1       586 1.05062E+03 5.99046E+04 1.94207E+03-8.40327E+04 1.67802E-10-1.98997E-09
 -1       587 5.87447E+02 6.02410E+04 1.92738E+03-9.27072E+04 7.31234E-10-1.75100E-09
 -1       588 7.38780E+02 5.98811E+04 2.82027E+03-8.39243E+04 2.37833E-10 1.64357E-09
 -1       589 2.72454E+03 6.09514E+04 5.83782E+03-9.27397E+04 9.01309E-10 1.21969E-09
 -1       590 7.72872E+03 5.91704E+04 1.16677E+04-8.39986E+04 2.78760E-10-8.45830E-11
 -1       591-6.26410E+04-2.13064E+04-1.23186E+04-3.19237E+04 3.77213E-10 2.44654E-10
 -1       592-6.31140E+04-1.98018E+04-6.05201E+03-3.54899E+04-1.19371E-10 2.85962E-09
 -1       593-6.30198E+04-1.68278E+04-2.56825E+03-3.39841E+04-2.76350E-09-8.49252E-09
 -1       594-6.17948E+04-1.81505E+04-1.25682E+03-3.57010E+04-3.33750E-09-6.88576E-09
 -1       595-6.30794E+04-1.66669E+04-5.78793E+02-3.40750E+04-5.03178E-10-4.32067E-10
 -1       596-6.16959E+04-1.80860E+04-2.93533E+02-3.56918E+04-5.18980E-11-2.93426E-10
 -1       597-6.30907E+04-1.66758E+04-1.59746E+02-3.40755E+04 9.16437E-10 1.00545E-09
 -1       598-6.16860E+04-1.80869E+04-1.27705E+02-3.56875E+04-6.50402E-10-7.44922E-09
 -1       599-6.30899E+04-1.66761E+04-1.61932E+02-3.40752E+04 1.08162E-09 1.83604E-10
 -1       600-6.16953E+04-1.80867E+04-2.99424E+02-3.56908E+04-1.02222E-09 1.33468E-09
 -1       601-6.30765E+04-1.66676E+04-5.90948E+02-3.40738E+04-4.12433E-09-4.56203E-09
 -1       602-6.17964E+04-1.81518E+04-1.28403E+03-3.56977E+04-3.64798E-09-5.65888E-09
 -1       603-6.30136E+04-1.68342E+04-2.62381E+03-3.39817E+04-1.40062E-10 3.84262E-10
 -1       604-6.31563E+04-1.98252E+04-6.18267E+03-3.54651E+04-3.69823E-10-1.95678E-09
 -1       605-6.26117E+04-2.14208E+04-1.25840E+04-3.18898E+04-4.33374E-10-4.35648E-10
 -1       606 4.57873E+04-5.46585E+03-8.27254E+03 1.33545E+04-2.91993E-09-5.13865E-11
 -1       607 4.45113E+04-1.87642E+03-4.05880E+03 1.45574E+04-6.50971E-10 1.16307E-09
 -1       608 4.52605E+04-4.28290E+02-1.80485E+03 1.32660E+04 1.69166E-09 8.71296E-10
 -1       609 4.50901E+04-1.28700E+02-9.04234E+02 1.46557E+04-1.12823E-09 4.40536E-10
 -1       610 4.51907E+04-6.13624E+00-4.26165E+02 1.32545E+04-3.07318E-09-1.06456E-09
 -1       611 4.51583E+04 1.04795E+01-2.14529E+02 1.46684E+04-5.57407E-09-5.54564E-10
 -1       612 4.51766E+04 1.65076E+01-1.01772E+02 1.32531E+04-2.30557E-09-5.17844E-10
 -1       613 4.51651E+04 1.65641E+01-4.69223E+01 1.46700E+04-3.09933E-09 4.46335E-10
 -1       614 4.51710E+04 1.47559E+01-1.37381E+01 1.32528E+04-8.73570E-10-1.30149E-09
 -1       615 4.51649E+04 1.68610E+01 1.24214E+01 1.46703E+04 2.73428E-09 5.78893E-10
 -1       616 4.51668E+04 1.70238E+01 4.41573E+01 1.32529E+04-1.79807E-09-1.61970E-09
 -1       617 4.51716E+04 3.35857E+01 1.04253E+02 1.46698E+04-5.27052E-10-6.71548E-10
 -1       618 4.51572E+04 6.73701E+01 2.12912E+02 1.32531E+04-3.29919E-10-7.52607E-11
 -1       619 4.52399E+04 2.41521E+02 4.81721E+02 1.46678E+04 1.40972E-11-1.15779E-09
 -1       620 4.50944E+04 6.66336E+02 9.82996E+02 1.32544E+04 7.56302E-10-2.12140E-10
 -1       621 9.01952E+02 1.40659E+05 2.31326E+03-1.20112E+04-1.04990E-09 8.26731E-10
 -1       622 3.50418E+02 1.41100E+05 2.00124E+03-1.41754E+04-1.03648E-09 4.45084E-10
 -1       623 2.18887E+02 1.40746E+05 2.56555E+03-1.20260E+04-9.70886E-10 1.27966E-09
 -1       624 1.46182E+03 1.41773E+05 5.02006E+03-1.41094E+04-8.16499E-10-1.16472E-09
 -1       625 4.49401E+03 1.39993E+05 9.62257E+03-1.20764E+04-8.16954E-10-1.04569E-09
 -1       626 6.65124E+04 2.18326E+04-3.26059E+03 4.47355E+04-1.04546E-09-2.12731E-09
 -1       627 6.48057E+04 2.43469E+04-1.54530E+03 4.56513E+04-1.51408E-09-4.51564E-10
 -1       628 6.65979E+04 2.34426E+04-6.48788E+02 4.39391E+04-2.23326E-09-2.54488E-09
 -1       629 6.50398E+04 2.50254E+04-3.11043E+02 4.56026E+04-1.00204E-09-7.51236E-10
 -1       630 6.65941E+04 2.35550E+04-1.36638E+02 4.38735E+04 3.20142E-10-1.33346E-09
 -1       631 6.50566E+04 2.50761E+04-6.03083E+01 4.56040E+04-3.15777E-09-1.23347E-09
 -1       632 6.65881E+04 2.35586E+04-1.47746E+01 4.38679E+04-1.65664E-09 6.34680E-09
 -1       633 6.50579E+04 2.50785E+04 2.02340E+01 4.56052E+04 9.88393E-10 5.39558E-10
 -1       634 6.65832E+04 2.35550E+04 6.57269E+01 4.38672E+04 1.60117E-09 7.05666E-09
 -1       635 6.50659E+04 2.50804E+04 1.54554E+02 4.56070E+04 1.51533E-09 9.40190E-10
 -1       636 6.65764E+04 2.35629E+04 3.23251E+02 4.38617E+04 3.23010E-09 1.04178E-08
 -1       637 6.51436E+04 2.51712E+04 7.23750E+02 4.55923E+04 2.01453E-09 8.14862E-09
 -1       638 6.65595E+04 2.38362E+04 1.50138E+03 4.37428E+04-6.97935E-09 3.03362E-09
 -1       639 6.59067E+04 2.65268E+04 3.57462E+03 4.52558E+04-1.32321E-08 1.84414E-08
 -1       640 6.66008E+04 2.77429E+04 7.54286E+03 4.21226E+04-1.67593E-08-1.45143E-08
 -1       641 5.60559E+02 1.37851E+03-3.18915E+03-3.50590E+01-2.54899E-09 6.30507E-10
 -1       642-8.18266E+02-1.59569E+03-2.25411E+03 1.42572E+02-1.89873E-09 3.44482E-09
 -1       643 2.84253E+01 2.15987E+02-8.22229E+02-3.47736E+01-4.02233E-09 1.49811E-09
 -1       644-1.98588E+02-2.49272E+02-5.11013E+02 1.42253E+02 6.63785E-10 1.64403E-09
 -1       645-5.91925E+01 3.32086E+01-1.97004E+02-3.47404E+01-1.02576E-11 2.23675E-09
 -1       646-9.46650E+01-3.51059E+01-9.36880E+01 1.42210E+02-1.69700E-08 2.63496E-09
 -1       647-7.55294E+01 1.99837E+00-7.69943E-02-3.47309E+01-3.77490E-06 4.82454E-09
 -1       648-6.54706E+01 1.82023E+01 8.72319E+01 1.42194E+02-7.53259E-06 7.24667E-09
 -1       649-8.83963E+01-2.00630E+01 1.97814E+02-3.47245E+01-3.77782E-06 4.07219E-09
 -1       650 7.39687E+00 1.54582E+02 4.79010E+02 1.42132E+02-1.13745E-08 1.57337E-09
 -1       651-1.48386E+02-1.34302E+02 8.33721E+02-3.46690E+01 3.04492E-10 1.12277E-09
 -1       652 4.18909E+02 9.96198E+02 2.06291E+03 1.41831E+02 1.65338E-10 2.38865E-09
 -1       653-4.99870E+02-8.61071E+02 3.28653E+03-3.44240E+01 1.47209E-09 6.27779E-10
 -1       654 2.89595E+03 6.35913E+03 8.98939E+03 1.40413E+02-4.20309E-09 7.96263E-10
 -1       655-2.62518E+03-5.49293E+03 1.27053E+04-3.32534E+01 1.47250E-09 4.18368E-11
 -1       656 4.10795E+03-1.66614E+05-1.97408E+04 5.31896E+03-1.60981E-10 3.20119E-09
 -1       657-6.23307E+03-1.73710E+05-1.42965E+04 1.87017E+04-1.43973E-09 7.00760E-09
 -1       658 7.69884E+02-1.69159E+05-9.16156E+03 5.28564E+03-4.62947E-10 2.48048E-09
 -1       659-5.71535E+03-1.73404E+05-1.33593E+04 1.87213E+04-2.14459E-09 1.55133E-09
 -1       660 3.71038E+03-1.66929E+05-1.79540E+04 5.29956E+03 3.22871E-10 8.92157E-10
 -1       661 1.61027E+05 2.07829E+04 1.31556E+04 6.29367E+04 9.80776E-10-2.65482E-09
 -1       662 1.64015E+05 3.06212E+04 8.24777E+03 6.48238E+04 3.92211E-09-2.33740E-10
 -1       663 1.63263E+05 2.36423E+04 3.10512E+03 6.26558E+04 6.43354E-10 8.74479E-10
 -1       664 1.61440E+05 2.68317E+04 1.69837E+03 6.53580E+04-6.21640E-10-1.52062E-09
 -1       665 1.63510E+05 2.39443E+04 7.27728E+02 6.26374E+04 4.36330E-10 2.28914E-09
 -1       666 1.61156E+05 2.64434E+04 3.93797E+02 6.53945E+04-2.30095E-09 7.93648E-10
 -1       667 1.63538E+05 2.39778E+04 2.21357E+02 6.26383E+04-6.40814E-09 1.00347E-09
 -1       668 1.61130E+05 2.64091E+04 2.08481E+02 6.53948E+04-2.05048E-09 4.22006E-10
 -1       669 1.63536E+05 2.39755E+04 2.94165E+02 6.26380E+04 1.41540E-10-1.94490E-10
 -1       670 1.61180E+05 2.64688E+04 5.94656E+02 6.53945E+04 6.80598E-09 2.82091E-09
 -1       671 1.63490E+05 2.39228E+04 1.13618E+03 6.26371E+04 2.70717E-10 1.27648E-09
 -1       672 1.61632E+05 2.70809E+04 2.67494E+03 6.53349E+04-1.48930E-10-4.33204E-10
 -1       673 1.63098E+05 2.34470E+04 4.89840E+03 6.26669E+04 6.07653E-09-1.92335E-09
 -1       674 1.65694E+05 3.30643E+04 1.30180E+04 6.44928E+04 3.11718E-09-4.35648E-10
 -1       675 1.59570E+05 1.89317E+04 2.07655E+04 6.31077E+04 3.26736E-09-1.25965E-09
 -1       676 2.94709E+02-1.57433E+05-1.75100E+03 3.95555E+01-1.60097E-09 2.03003E-09
 -1       677-6.63864E+02-1.58098E+05-2.12447E+03-9.81561E+01-1.46275E-09-1.60669E-09
 -1       678 2.37337E+02-1.57460E+05-2.80772E+03 3.94141E+01-3.96767E-10 4.50436E-10
 -1       679-2.98761E+03-1.59507E+05-6.35132E+03-9.79722E+01-4.01826E-09-1.70356E-09
 -1       680 2.10557E+03-1.56024E+05-9.80075E+03 3.90732E+01-1.34196E-09 2.01478E-09
 -1       681 2.88732E+05-8.35327E+03 1.87959E+04 2.22286E+03 1.71383E-10 4.12001E-10
 -1       682 2.99611E+05 9.63039E+03 1.37791E+04-6.15936E+03 3.31454E-10-7.07587E-10
 -1       683 2.92857E+05-1.28057E+03 4.88949E+03 6.43703E+02 2.05901E-10 1.45315E-09
 -1       684 2.94721E+05 1.48048E+03 3.16008E+03-3.88841E+03 4.63572E-10-5.14092E-10
 -1       685 2.93596E+05-1.92297E+02 1.28284E+03-4.81153E+01-2.71722E-10 2.02380E-09
 -1       686 2.93858E+05 2.33304E+02 7.98934E+02-3.03005E+03 4.99971E-10-6.32440E-10
 -1       687 2.93715E+05-3.02565E+01 4.48859E+02-2.14660E+02 5.18350E-11 2.09890E-09
 -1       688 2.93807E+05 7.75870E+01 4.64888E+02-3.13829E+03-3.44551E-10-5.67059E-10
 -1       689 2.93648E+05-3.71209E+01 5.91980E+02 6.01222E+01-2.98499E-11 1.27110E-09
 -1       690 2.94314E+05 3.22197E+02 1.30156E+03-4.26668E+03-1.72935E-09-4.82189E-10
 -1       691 2.93217E+05-2.80624E+02 2.02508E+03 9.13730E+02 3.12866E-10 1.91335E-10
 -1       692 2.96872E+05 2.31681E+03 5.44652E+03-6.98025E+03 4.02480E-10 7.63862E-10
 -1       693 2.91127E+05-2.05489E+03 7.81992E+03 2.77380E+03-1.67927E-09-1.88356E-09
 -1       694 3.09606E+05 1.61321E+04 2.39338E+04-1.26953E+04-6.06647E-09 3.20051E-09
 -1       695 2.80633E+05-1.41829E+04 2.99274E+04 6.63009E+03-5.40410E-09-6.84486E-09
 -1       696-5.42247E+03 2.17560E+05 1.22941E+04-1.42319E+03 3.18323E-11-8.99632E-10
 -1       697 6.00086E+03 2.23483E+05 8.33560E+03 3.42205E+03 7.63976E-11-6.68763E-10
 -1       698-5.79641E+02 2.20041E+05 2.20337E+03-8.64960E+02-1.05729E-10 4.03965E-10
 -1       699-9.90650E+02 2.19957E+05-8.06163E+02 2.77006E+03-1.41711E-10 7.10017E-10
 -1       700 1.56817E+03 2.21080E+05-3.26071E+03-7.71188E+02-9.52696E-11 2.28681E-10
 -1       701-2.75037E+05-3.19710E+04-3.59847E+04-1.14099E+05-2.09184E-10 1.18052E-09
 -1       702-2.77532E+05-3.90688E+04-1.88246E+04-8.04013E+04-4.17913E-10-1.38079E-08
 -1       703-2.65067E+05-4.39863E+04-7.98655E+03-1.12132E+05 4.39263E-09 1.96555E-08
 -1       704-2.85916E+05-2.51722E+04-4.08204E+03-8.27985E+04 1.87623E-09 2.59956E-08
 -1       705-2.66889E+05-4.56809E+04-2.25900E+03-1.11895E+05 1.50314E-09 2.06811E-08
 -1       706-2.67202E+05-2.47785E+04 2.68100E+03-8.31099E+04-1.10306E-08 3.86763E-10
 -1       707-2.83513E+05-4.45792E+04-3.82847E+03-1.11608E+05-9.54401E-10 7.27937E-09
 -1       708-2.42202E+05-3.16168E+04 6.76770E+03-8.92577E+04 7.29051E-09 2.86479E-09
 -1       709-2.91586E+05-3.90714E+04-4.27796E+03-1.05518E+05 7.98946E-09 8.53618E-10
 -1       710-2.41820E+05-4.43864E+04 3.90334E+03-1.04974E+05 9.48120E-09-1.02530E-08
 -1       711-2.84096E+05-3.16589E+04-2.64804E+03-9.60536E+04 1.36963E-08 2.14856E-08
 -1       712-2.54244E+05-5.51206E+04-3.28204E+03-1.17341E+05 5.35618E-09 4.43088E-08
 -1       713-2.79515E+05-2.80723E+04-6.73774E+03-9.34106E+04-8.94033E-09 2.63663E-09
 -1       714-2.56066E+05-6.30704E+04-1.72481E+04-1.10947E+05-8.59256E-09-7.41784E-09
 -1       715-2.82144E+05-2.38162E+04-3.14885E+04-1.02349E+05-5.04770E-09-1.03082E-08
 -1       716-5.79404E+04-4.80327E+02-6.46349E+01-1.97100E+02 9.55197E-09-5.30378E-09
 -1       717-4.98021E+04 5.06045E+02 1.41183E+03-2.14917E+03 5.75314E-09 5.99933E-10
 -1       718-5.72250E+04-9.77357E+01-2.89201E+02 3.96615E+02 1.56030E-09-1.62780E-09
 -1       719-5.13870E+04 7.40533E+01 8.15719E+02-3.24320E+03-1.54222E-09-1.99229E-10
 -1       720-5.63913E+04-2.26859E+01-1.80309E+02 8.96146E+02-1.70303E-10 4.66716E-10
 -1       721-5.30482E+04 1.54963E+01 5.13646E+02-4.10477E+03 2.84938E-09-1.31320E-09
 -1       722-5.56055E+04-8.95966E+00 1.19781E+02 1.25787E+03 3.17070E-09 2.46753E-09
 -1       723-5.43282E+04 9.00498E+01 6.13222E+02-4.66295E+03 1.05294E-09-1.23477E-09
 -1       724-5.51448E+04-7.27829E+01 8.81180E+02 1.45437E+03 5.34460E-09 3.05243E-09
 -1       725-5.46004E+04 6.45346E+02 2.06080E+03-4.87624E+03 4.01425E-09-1.89513E-09
 -1       726-5.53474E+04-5.53490E+02 3.53058E+03 1.47123E+03 5.05185E-09 2.76714E-09
 -1       727-5.24778E+04 4.21259E+03 8.80112E+03-4.73120E+03 7.42209E-09-1.12641E-09
 -1       728-5.72572E+04-3.64443E+03 1.37847E+04 1.30928E+03 1.92458E-09 1.06411E-09
 -1       729-4.07784E+04 2.69651E+04 3.82950E+04-4.28086E+03 1.03307E-09 2.29193E-10
 -1       730-6.70109E+04-2.33088E+04 5.33711E+04 1.02080E+03 2.39882E-09 2.54659E-11
 -1       731-7.43008E+03 9.77985E+04 1.35542E+04-4.13254E+03-5.02314E-09-3.33227E-09
 -1       732 8.77498E+03 1.25644E+05 1.41922E+04 1.15510E+04 1.40255E-09-2.98087E-10
 -1       733-1.49183E+03 1.05787E+05 4.95048E+03-2.38458E+03-9.76115E-10-1.16523E-09
 -1       734 4.55210E+03 1.15936E+05 7.90224E+03 8.77418E+03 1.36052E-09-4.52593E-09
 -1       735-3.07852E+03 1.07315E+05 7.35827E+03-1.35407E+03 1.36242E-09-3.45079E-09
 -1       736-2.68870E+05-4.40724E+04-2.61855E+04-1.16158E+05 1.72854E-08-1.46929E-08
 -1       737-2.49382E+05-1.54361E+04-5.92540E+03-5.75749E+04 5.20295E-08 1.41425E-08
 -1       738-2.38150E+05-4.66696E+04-4.41710E+03-1.10040E+05 1.76993E-08 4.35937E-08
 -1       739-2.65944E+05-1.08089E+04-3.59701E+02-6.14644E+04-1.18504E-08-8.39009E-09
 -1       740-2.52640E+05-4.84506E+04-3.81429E+03-1.12545E+05-4.12547E-09-3.06645E-08
 -1       741-2.10323E+05-9.82765E+03 1.23992E+04-5.48030E+04-1.12780E-08-2.05075E-08
 -1       742-2.92852E+05-4.83280E+04-1.06432E+04-1.15959E+05-1.95182E-08 6.23947E-09
 -1       743-1.61221E+05-2.04669E+04 2.02000E+04-6.25632E+04-2.22076E-09 4.03193E-09
 -1       744-3.01072E+05-3.83135E+04-1.02655E+04-1.04306E+05 1.43439E-08-8.97393E-09
 -1       745-1.80598E+05-4.36485E+04 1.16986E+04-9.41164E+04 2.43685E-08 1.20229E-08
 -1       746-2.74185E+05-2.46221E+04-3.17258E+03-8.49717E+04 1.83722E-08 5.67483E-08
 -1       747-2.17340E+05-6.03154E+04-9.09123E+01-1.18743E+05-1.40122E-09 9.10077E-09
 -1       748-2.65248E+05-2.09591E+04-3.75530E+03-8.03351E+04 1.21192E-08 1.14458E-08
 -1       749-2.01606E+05-5.65715E+04-2.65796E+03-1.06756E+05-9.53118E-09 1.50281E-08
 -1       750-2.89475E+05-2.87023E+04-2.30785E+04-9.66453E+04-1.16943E-08-1.47775E-08
 -1       751 1.36317E+06-7.87028E+04 1.82264E+05 2.38526E+03-1.56146E-08-2.98314E-10
 -1       752 1.44233E+06 9.11227E+04 1.28931E+05-2.85056E+03-2.47573E-09-3.92902E-10
 -1       753 1.39374E+06-1.23350E+04 4.72082E+04 4.36802E+02-1.10422E-09 2.18279E-11
 -1       754 1.40677E+06 1.42759E+04 2.96886E+04-5.40606E+02 1.45829E-09 7.67614E-10
 -1       755 1.39878E+06-1.92984E+03 1.21534E+04 7.54884E+01-9.60705E-10-2.92857E-10
 -1       756 1.40092E+06 2.26166E+03 7.26381E+03-1.11043E+02 1.32473E-09 9.36780E-11
 -1       757 1.39961E+06-3.30438E+02 3.56785E+03 7.23677E+00 4.52074E-07 1.49066E-09
 -1       758 1.40005E+06 5.86004E+02 2.84910E+03-3.18265E+01 8.99357E-07-1.89381E-10
 -1       759 1.39965E+06-2.55319E+02 2.89152E+03-3.72949E+00 2.05309E-07-3.01213E-10
 -1       760 1.40057E+06 1.61571E+03 5.30792E+03-2.94989E+01-4.90392E-07 2.37208E-10
 -1       761 1.39908E+06-1.35942E+03 8.63256E+03 4.90917E+00-2.47360E-07-9.16316E-10
 -1       762 1.40466E+06 1.00338E+04 2.09032E+04-9.62058E+01 1.56229E-09 1.62640E-09
 -1       763 1.39555E+06-8.66676E+03 3.31803E+04 6.29781E+01 3.62591E-09 1.19144E-09
 -1       764 1.42955E+06 6.40000E+04 9.05527E+04-4.67233E+02 1.58073E-09 3.27418E-10
 -1       765 1.37414E+06-5.52763E+04 1.28011E+05 3.75918E+02-2.23958E-10-4.72937E-10
 -1       766-2.94152E+04 8.51265E+04 6.78595E+04 6.14933E+03 4.15457E-09-2.21110E-09
 -1       767 3.49915E+04 1.19688E+05 5.08191E+04-2.66318E+04 1.37829E-08-9.03519E-10
 -1       768-5.44934E+03 9.64130E+04 2.15749E+04 6.06121E+03 5.91717E-09 1.98543E-09
 -1       769 1.53882E+04 1.24227E+05 2.66418E+04-2.82877E+04 1.84508E-09-6.44633E-10
 -1       770-1.00622E+04 8.09210E+04 1.81217E+04 7.80603E+03-4.08727E-09-1.33059E-09
 -1       771-7.73565E+05-1.55512E+05-2.54302E+04-3.35118E+05-6.29734E-09 1.23691E-09
 -1       772-7.71267E+05-1.55560E+05-1.24824E+04-3.46097E+05-6.17911E-09 1.04883E-08
 -1       773-7.74613E+05-1.46051E+05-5.30783E+03-3.39197E+05-5.71163E-09 1.82081E-09
 -1       774-7.68422E+05-1.52349E+05-2.59217E+03-3.46858E+05-1.38243E-10-6.69388E-10
 -1       775-7.74831E+05-1.45649E+05-1.19917E+03-3.39402E+05-9.73159E-10-1.66438E-10
 -1       776-7.68264E+05-1.52218E+05-6.05650E+02-3.46932E+05-5.95719E-10-1.00960E-09
 -1       777-7.74922E+05-1.45628E+05-3.32087E+02-3.39432E+05 2.55750E-09 5.57708E-09
 -1       778-7.68286E+05-1.52205E+05-2.61356E+02-3.46975E+05 1.10958E-10 1.87998E-09
 -1       779-7.74965E+05-1.45602E+05-3.32983E+02-3.39452E+05-1.03955E-09 7.30552E-10
 -1       780-7.68336E+05-1.52196E+05-6.12372E+02-3.47014E+05-1.01136E-09 1.70530E-11
 -1       781-7.74961E+05-1.45570E+05-1.21083E+03-3.39461E+05-4.13547E-09 1.20644E-09
 -1       782-7.68556E+05-1.52326E+05-2.63173E+03-3.47041E+05-4.49336E-09 7.67977E-09
 -1       783-7.74836E+05-1.45909E+05-5.38055E+03-3.39274E+05-3.42732E-09 1.44519E-09
 -1       784-7.71347E+05-1.55761E+05-1.26850E+04-3.46558E+05-1.38152E-09-4.89308E-10
 -1       785-7.73999E+05-1.55328E+05-2.58229E+04-3.34980E+05-6.52790E-10 9.88621E-10
 -1       786 1.15055E+05-3.29218E+03 1.52577E+04-1.08417E+03 1.66324E-10-3.49246E-10
 -1       787 1.20477E+05 4.61859E+03 9.70375E+03-3.86997E+03-9.07221E-11 4.71800E-11
 -1       788 1.17335E+05-3.29589E+02 3.94994E+03-1.07676E+03-6.63363E-11-9.04947E-11
 -1       789 1.17944E+05 4.38175E+02 2.19132E+03-3.87571E+03-2.03499E-10 3.55385E-10
 -1       790 1.17586E+05-3.51877E+01 1.00221E+03-1.07825E+03 2.70290E-10 9.54856E-10
 -1       791 1.17660E+05 4.09486E+01 5.35251E+02-3.87346E+03-1.82212E-10 1.15824E-09
 -1       792 1.17618E+05-4.50656E+00 2.74469E+02-1.07902E+03 2.08473E-11 7.30253E-10
 -1       793 1.17626E+05 5.03128E+00 1.80582E+02-3.87298E+03 2.83379E-10-1.05079E-09
 -1       794 1.17621E+05-2.45642E+00 1.65055E+02-1.07872E+03-2.35389E-10 2.56527E-10
 -1       795 1.17635E+05 1.69171E+01 2.47998E+02-3.87483E+03 6.72173E-12 4.36613E-10
 -1       796 1.17609E+05-1.49415E+01 4.28129E+02-1.07717E+03-1.12891E-10 4.17515E-10
 -1       797 1.17753E+05 1.81017E+02 9.14896E+02-3.87806E+03-1.32417E-10 5.54579E-10
 -1       798 1.17505E+05-1.37212E+02 1.64038E+03-1.07549E+03-8.91305E-11 7.36634E-10
 -1       799 1.18804E+05 1.91359E+03 4.02427E+03-3.87156E+03-6.29029E-10 2.53726E-09
 -1       800 1.16560E+05-1.36584E+03 6.32511E+03-1.08376E+03 1.88720E-10 7.77163E-10
 -1       801-4.25130E+03 1.26058E+05 1.90804E+04-1.31407E+05-5.29508E-09 2.91038E-11
 -1       802 9.61724E+03 1.32108E+05 2.02505E+04-4.67317E+05-2.21735E-09-2.17187E-09
 -1       803-9.94413E+02 1.26331E+05 2.26201E+04-1.30993E+05-7.15590E-09 3.22251E-09
 -1       804 2.49382E+04 1.41476E+05 4.81669E+04-4.67295E+05-3.99086E-09-2.29920E-09
 -1       805-1.62420E+04 1.16784E+05 7.22468E+04-1.31432E+05-2.85581E-09 2.35741E-09
 -1       806-1.20694E+05-3.29519E+04-1.00810E+04-5.67632E+04 5.83555E-10-3.27418E-11
 -1       807-1.20644E+05-3.04451E+04-4.77739E+03-5.99471E+04 3.72279E-09 6.12988E-09
 -1       808-1.20629E+05-2.77436E+04-2.00771E+03-5.89491E+04-2.14141E-09-6.57201E-09
 -1       809-1.19648E+05-2.86129E+04-9.69518E+02-6.03795E+04-3.28851E-09-6.08173E-09
 -1       810-1.20652E+05-2.73780E+04-4.37717E+02-5.91118E+04-1.11913E-09 3.22302E-10
 -1       811-1.19548E+05-2.84885E+04-2.18902E+02-6.03984E+04-4.48108E-09-7.06416E-09
 -1       812-1.20660E+05-2.73661E+04-1.13592E+02-5.91197E+04-1.14360E-09-4.64979E-10
 -1       813-1.19538E+05-2.84849E+04-8.23175E+01-6.03961E+04 1.15392E-09-1.32900E-10
 -1       814-1.20660E+05-2.73675E+04-9.36520E+01-5.91190E+04 5.40797E-09 1.14187E-08
 -1       815-1.19544E+05-2.84888E+04-1.65949E+02-6.03958E+04 8.69704E-12 7.24185E-11
 -1       816-1.20652E+05-2.73778E+04-3.23823E+02-5.91124E+04-7.57382E-10-8.16271E-10
 -1       817-1.19618E+05-2.85783E+04-7.13611E+02-6.03773E+04 2.42380E-10-2.56250E-10
 -1       818-1.20631E+05-2.76504E+04-1.47584E+03-5.89948E+04-3.20756E-09-6.97469E-09
 -1       819-1.20372E+05-2.99015E+04-3.51047E+03-6.00314E+04-1.23327E-09 1.27113E-09
 -1       820-1.20655E+05-3.14970E+04-7.40677E+03-5.74109E+04-7.06223E-10 1.11027E-09
 -1       821-1.27780E+05 3.55544E+03-1.64854E+04 1.20497E+03-1.33173E-09-5.67525E-10
 -1       822-1.33633E+05-4.99020E+03-1.04848E+04 4.33597E+03-9.70658E-10-1.80353E-09
 -1       823-1.30244E+05 3.55319E+02-4.26951E+03 1.18132E+03 1.76442E-09-7.82620E-10
 -1       824-1.30901E+05-4.71064E+02-2.37047E+03 4.36514E+03-5.73891E-10 2.15550E-10
 -1       825-1.30516E+05 3.83355E+01-1.08955E+03 1.17559E+03-2.17960E-09 8.95284E-11
 -1       826-1.30598E+05-4.05702E+01-5.91646E+02 4.37415E+03-4.45687E-09 1.40602E-10
 -1       827-1.30550E+05 6.09641E+00-3.23275E+02 1.17227E+03-3.10877E-09-1.23356E-09
 -1       828-1.30565E+05-2.53187E+00-2.50116E+02 4.37944E+03-3.21019E-09-3.27853E-09
 -1       829-1.30551E+05 5.67831E+00-2.85770E+02 1.17029E+03-4.78906E-10-6.74607E-11
 -1       830-1.30591E+05-3.15203E+01-4.93484E+02 4.38165E+03 2.36355E-09-3.12957E-10
 -1       831-1.30524E+05 3.22584E+01-8.92974E+02 1.17006E+03-1.58792E-09-1.31413E-09
 -1       832-1.30840E+05-3.81463E+02-1.93412E+03 4.38019E+03-7.01988E-10-1.35151E-09
 -1       833-1.30303E+05 2.90927E+02-3.47932E+03 1.17179E+03-5.51950E-11-1.22759E-09
 -1       834-1.33067E+05-4.06271E+03-8.54273E+03 4.36692E+03-1.21872E-10 8.10587E-11
 -1       835-1.28296E+05 2.89852E+03-1.34305E+04 1.18370E+03 1.06962E-09-1.09776E-09
 -1       836-5.44806E+03 3.15797E+05 2.66851E+04-8.83668E+03-5.42968E-10 4.30191E-10
 -1       837 8.60639E+03 3.25462E+05 2.07082E+04-3.11693E+04-3.29692E-12 1.46258E-09
 -1       838-1.30952E+03 3.18910E+05 1.56004E+04-8.81673E+03-9.75660E-10 3.99808E-10
 -1       839 1.17227E+04 3.27350E+05 2.63773E+04-3.11686E+04 2.61025E-10-1.27011E-09
 -1       840-7.87428E+03 3.13907E+05 3.74852E+04-8.83720E+03-7.80346E-10 1.57115E-10
 -1       841 4.18977E+02 1.66723E+03-4.14447E+03-5.77217E+02 4.82146E-10-3.00588E-10
 -1       842-1.84230E+03-2.06750E+03-2.87630E+03 2.29705E+02-4.84604E-10 1.75098E-09
 -1       843-4.26402E+02 1.76320E+02-9.70408E+02-2.95659E+02 7.23944E-10 1.23754E-09
 -1       844-8.60293E+02-3.40972E+02-6.04030E+02-9.49233E+01 3.02011E-09-9.91143E-10
 -1       845-5.62934E+02-5.81766E+01-2.20565E+02-2.53044E+02 1.36257E-10-9.55851E-10
 -1       846-7.00661E+02-6.80600E+01-1.19812E+02-1.44111E+02 1.79834E-10-2.49823E-10
 -1       847-5.86035E+02-9.64182E+01-3.20980E+01-2.46547E+02 3.13662E-10 1.43982E-09
 -1       848-6.67689E+02-1.44883E+01 1.86286E+01-1.52938E+02-1.66374E-09 1.38758E-09
 -1       849-5.95913E+02-1.11713E+02 7.39213E+01-2.44235E+02-6.59611E-07 2.48144E-07
 -1       850-6.19826E+02 6.26669E+01 2.09651E+02-1.65712E+02-1.31702E-06 4.94014E-07
 -1       851-6.33895E+02-1.73531E+02 3.70295E+02-2.33791E+02-6.60942E-07 2.47240E-07
 -1       852-3.53889E+02 5.13431E+02 1.00453E+03-2.46606E+02-3.29866E-09 5.97993E-10
 -1       853-8.61805E+02-5.62209E+02 1.60960E+03-1.63438E+02-2.67084E-09 2.38515E-10
 -1       854 1.27746E+03 3.37581E+03 4.77084E+03-7.84756E+02-1.15250E-10-1.25738E-09
 -1       855-2.26492E+03-3.03403E+03 6.87159E+03 3.03684E+02-2.65459E-10 8.04448E-10
 -1       856-1.52954E+05 3.39186E+03-1.57353E+04 2.39592E+03-5.84009E-09-1.00408E-09
 -1       857-1.58537E+05-4.75551E+03-1.00058E+04 8.68646E+03-5.94900E-09-2.76464E-09
 -1       858-1.55307E+05 3.40052E+02-4.07474E+03 2.35673E+03-8.25094E-09-2.01067E-09
 -1       859-1.55937E+05-4.39943E+02-2.26046E+03 8.73589E+03-5.19185E-09-7.73753E-10
 -1       860-1.55568E+05 3.90535E+01-1.03673E+03 2.34607E+03-3.99496E-10-1.29359E-09
 -1       861-1.55651E+05-2.73699E+01-5.57807E+02 8.75109E+03-3.70278E-09-3.10050E-09
 -1       862-1.55601E+05 8.94416E+00-2.95200E+02 2.34145E+03 6.20366E-09-2.05262E-09
 -1       863-1.55619E+05 1.02240E+01-2.11347E+02 8.75675E+03 1.47968E-08-4.23628E-09
 -1       864-1.55603E+05 7.78146E+00-2.19484E+02 2.34039E+03 6.02101E-09-1.92827E-09
 -1       865-1.55636E+05-1.00006E+01-3.59290E+02 8.75495E+03 5.75588E-09-1.63520E-09
 -1       866-1.55584E+05 2.58132E+01-6.39639E+02 2.34326E+03 6.56883E-10-1.20657E-09
 -1       867-1.55808E+05-2.60613E+02-1.37813E+03 8.74451E+03-4.09273E-10-9.38144E-10
 -1       868-1.55425E+05 2.08267E+02-2.47765E+03 2.35088E+03 1.63971E-09-1.84673E-09
 -1       869-1.57385E+05-2.88274E+03-6.07912E+03 8.70364E+03-1.71940E-09-2.24281E-09
 -1       870-1.53995E+05 2.06126E+03-9.55934E+03 2.38447E+03 2.49111E-09-1.11777E-09
 -1       871-1.54607E+03-1.48803E+04-2.90111E+03 4.37775E+04-2.10139E-09-7.19410E-10
 -1       872-4.83533E+02-1.54025E+04-8.49240E+02 5.13905E+04-3.30806E-09 2.76486E-10
 -1       873 3.96340E+01-1.52020E+04 8.53758E+02 4.36931E+04-1.93495E-09-3.81215E-09
 -1       874 1.00777E+03-1.45134E+04 3.18600E+03 5.14271E+04-3.11434E-09-1.07257E-08
 -1       875 3.26543E+03-1.57870E+04 6.86991E+03 4.37437E+04-2.56932E-09-4.23040E-09
 -1       876 1.88193E+05 2.39650E+04 1.77371E+04 7.40290E+04 1.76340E-09-7.58519E-10
 -1       877 1.92115E+05 3.73423E+04 1.11203E+04 7.67031E+04 3.46182E-09-5.24687E-09
 -1       878 1.91206E+05 2.78220E+04 4.18539E+03 7.36510E+04 2.44677E-09-2.55318E-09
 -1       879 1.88646E+05 3.22301E+04 2.28807E+03 7.74182E+04 5.40695E-10-1.42472E-09
 -1       880 1.91537E+05 2.82320E+04 9.76916E+02 7.36286E+04-5.11591E-12-1.51078E-09
 -1       881 1.88265E+05 3.17024E+04 5.22165E+02 7.74614E+04-2.38208E-09-2.02294E-09
 -1       882 1.91573E+05 2.82798E+04 2.80331E+02 7.36320E+04-6.58491E-09-1.34719E-09
 -1       883 1.88229E+05 3.16508E+04 2.41522E+02 7.74569E+04-2.27402E-09-6.51141E-10
 -1       884 1.91570E+05 2.82803E+04 3.16978E+02 7.36334E+04-1.49018E-09-1.78795E-09
 -1       885 1.88281E+05 3.17099E+04 6.23050E+02 7.74541E+04 6.89246E-09 4.18652E-10
 -1       886 1.91522E+05 2.82261E+04 1.18235E+03 7.36328E+04 1.13891E-09 6.14932E-10
 -1       887 1.88750E+05 3.23455E+04 2.77866E+03 7.73928E+04-3.10433E-09-2.34149E-09
 -1       888 1.91115E+05 2.77313E+04 5.08647E+03 7.36632E+04 4.86490E-09 2.03090E-09
 -1       889 1.92969E+05 3.85581E+04 1.35166E+04 7.65199E+04 2.47877E-09-3.12866E-10
 -1       890 1.87452E+05 2.30427E+04 2.15600E+04 7.41209E+04 2.25691E-09 1.35788E-09
 -1       891 6.56209E+02-8.44420E+04-3.32145E+03 1.03111E+04 3.56749E-10-3.33011E-09
 -1       892-1.10440E+03-8.56224E+04-2.64406E+03 3.66380E+04-3.37195E-09-7.55671E-09
 -1       893 1.71004E+02-8.48184E+04-2.10426E+03 1.02705E+04-1.05013E-09-3.00862E-09
 -1       894-1.68960E+03-8.59745E+04-3.70707E+03 3.66352E+04-5.56383E-09-5.24642E-09
 -1       895 1.11021E+03-8.40867E+04-5.34657E+03 1.03139E+04-1.33286E-09-2.94381E-09
 -1       896 3.11038E+05-1.82130E+03 4.20391E+03-5.93182E+01 5.85427E-10 1.30308E-09
 -1       897 3.12882E+05 2.10922E+03 2.98512E+03 1.21291E+03 3.45773E-10 1.81080E-09
 -1       898 3.11760E+05-2.84872E+02 1.09456E+03 1.54964E+02 5.97973E-10 1.76198E-09
 -1       899 3.12041E+05 3.31612E+02 6.97459E+02 9.34382E+02-2.92616E-10 2.14152E-09
 -1       900 3.11879E+05-4.47854E+01 3.03064E+02 2.19211E+02 7.27768E-10 1.92860E-09
 -1       901 3.11909E+05 5.83307E+01 2.15806E+02 9.21536E+02 6.03690E-10 2.10323E-09
 -1       902 3.11892E+05-1.17843E+01 1.72498E+02 1.67811E+02 1.14471E-09 1.81514E-09
 -1       903 3.11925E+05 5.07748E+01 2.67045E+02 1.16749E+03-9.57989E-12 1.90163E-09
 -1       904 3.11862E+05-3.75244E+01 4.25088E+02-2.67469E+01 8.09642E-10 1.39920E-09
 -1       905 3.12131E+05 2.87294E+02 9.67614E+02 1.80362E+03 3.45665E-10 1.16857E-09
 -1       906 3.11688E+05-2.49415E+02 1.61727E+03-4.68334E+02 6.38536E-10 1.74396E-10
 -1       907 3.13261E+05 1.90060E+03 4.08663E+03 3.17070E+03-3.93669E-10-1.61606E-10
 -1       908 3.10741E+05-1.65490E+03 6.32255E+03-1.39386E+03 9.93481E-10-1.84809E-09
 -1       909 3.19560E+05 1.24449E+04 1.78510E+04 6.03063E+03 3.55025E-09-3.68709E-09
 -1       910 3.05420E+05-1.08069E+04 2.43575E+04-3.32841E+03 4.37529E-09-6.31917E-09
 -1       911 2.01852E+04 1.62412E+02-1.41284E+03-1.42089E+03-3.48734E-09-5.03377E-09
 -1       912 2.56208E+04-2.51715E+02 6.59396E+01 5.31397E+03-8.47692E-10-2.22369E-09
 -1       913 2.14182E+04 4.72323E+01-4.31768E+02-1.23929E+03 4.51195E-10 9.81942E-10
 -1       914 2.36186E+04-7.72589E+01 9.99373E+01 5.01734E+03 1.19866E-09 3.14774E-09
 -1       915 2.21350E+04 2.51562E+01-9.74599E+01-1.12403E+03-1.94073E-09 4.25076E-09
 -1       916 2.26110E+04-2.98539E+01 2.80177E+01 4.85700E+03-5.04012E-09 6.12851E-09
 -1       917 2.24000E+04 1.81762E+01 3.61059E+01-1.07899E+03-3.36984E-09 5.82774E-09
 -1       918 2.25043E+04-4.49814E+00 1.08218E+02 4.83742E+03-1.17020E-09 6.70328E-09
 -1       919 2.22386E+04 1.97371E+00 1.57159E+02-1.10446E+03-3.15538E-09 4.89297E-09
 -1       920 2.33340E+04 1.02428E+02 5.86062E+02 4.95903E+03-3.99756E-09 4.76957E-09
 -1       921 2.15897E+04-1.02383E+02 5.94242E+02-1.20055E+03-7.27908E-10 1.72014E-09
 -1       922 2.54792E+04 8.61792E+02 2.32748E+03 5.22266E+03 1.58991E-09 1.84286E-10
 -1       923 2.01378E+04-7.88337E+02 2.52557E+03-1.36819E+03 8.42334E-10-3.65003E-09
 -1       924 3.08301E+04 5.90969E+03 9.11654E+03 5.65099E+03 5.24599E-09-7.30370E-09
 -1       925 1.63147E+04-5.19995E+03 1.04016E+04-1.62970E+03 4.13513E-09-1.17766E-08
 -1       926-2.49137E+05 5.60381E+03-1.30308E+04 5.43776E+03-3.07499E-09-1.64728E-08
 -1       927-2.53996E+05-6.42406E+03-9.03854E+03-9.34473E+03 1.91382E-08-1.84303E-08
 -1       928-2.52383E+05 8.57853E+02-3.56560E+03 4.64362E+03-2.01993E-09-1.39203E-08
 -1       929-2.48055E+05-8.86437E+02-1.25219E+03-6.13921E+03-2.18045E-08-1.35534E-08
 -1       930-2.54989E+05 2.19828E+00-1.47744E+03 2.23131E+03 3.85887E-09-6.85480E-09
 -1       931-2.44940E+05 5.31601E+01 9.62846E+02-5.65468E+02 8.47956E-09-3.89907E-09
 -1       932-2.55429E+05-1.34616E+02-7.97874E+02-9.29925E+02 3.40674E-09 2.01166E-09
 -1       933-2.46503E+05 1.75924E+02 1.25285E+03 5.31057E+03-3.40452E-09 6.37991E-09
 -1       934-2.53469E+05-8.69724E+01 2.17929E+02-3.64402E+03-1.33403E-09 9.34071E-09
 -1       935-2.50061E+05 4.36519E+02 1.62804E+03 9.28103E+03 4.78724E-09 1.34578E-08
 -1       936-2.51968E+05-3.19663E+02 2.36317E+03-4.90089E+03 5.53094E-10 1.29537E-08
 -1       937-2.49664E+05 2.81849E+03 5.95488E+03 9.89149E+03 1.11710E-08 1.49785E-08
 -1       938-2.53885E+05-2.45163E+03 9.08998E+03-4.25471E+03 1.16555E-08 1.06097E-08
 -1       939-2.39329E+05 1.82811E+04 2.62112E+04 6.96000E+03 6.71315E-09 1.00986E-08
 -1       940-2.62213E+05-1.58347E+04 3.51510E+04-1.96874E+03-2.16914E-10 4.06544E-09
 -1       941 2.24444E+06-1.12679E+05 2.61198E+05 3.29030E+02-3.04066E-07-9.60426E-10
 -1       942 2.35744E+06 1.30477E+05 1.84669E+05 1.03290E+02-6.24608E-07-2.47383E-09
 -1       943 2.28808E+06-1.76681E+04 6.76671E+04 2.31594E+02-4.72630E-07 8.00355E-10
 -1       944 2.30672E+06 2.04502E+04 4.25643E+04 2.10023E+02-3.15675E-07-1.05456E-09
 -1       945 2.29530E+06-2.76552E+03 1.74537E+04 2.22332E+02-1.97272E-07 2.14095E-09
 -1       946 2.29836E+06 3.24755E+03 1.04746E+04 2.20163E+02-8.13220E-08 3.95119E-09
 -1       947 2.29650E+06-4.79929E+02 5.22800E+03 2.21461E+02 1.47361E-09 2.78374E-09
 -1       948 2.29714E+06 8.88888E+02 4.32825E+03 2.20777E+02 7.95401E-08 1.78443E-09
 -1       949 2.29654E+06-4.08519E+02 4.58495E+03 2.21720E+02 3.86394E-07-3.49928E-09
 -1       950 2.29803E+06 2.63359E+03 8.61537E+03 2.16855E+02 7.01601E-07 3.18823E-09
 -1       951 2.29560E+06-2.22340E+03 1.41069E+04 2.25382E+02 2.39530E-06-5.21959E-09
 -1       952 2.30472E+06 1.64192E+04 3.42168E+04 1.74310E+02 4.08323E-06-1.24055E-09
 -1       953 2.28980E+06-1.41829E+04 5.43376E+04 2.64260E+02 2.03993E-06 5.78802E-09
 -1       954 2.34544E+06 1.04736E+05 1.48243E+05-2.82548E+02 4.44426E-09 4.00723E-09
 -1       955 2.25476E+06-9.04513E+04 2.09622E+05 6.82179E+02-1.29334E-08 2.61934E-10
 -1       956-1.16511E+05-2.05217E+03-4.36999E+03 1.57818E+04-2.38197E-09 8.70386E-10
 -1       957-1.17316E+05-6.54166E+02-2.20918E+03 1.83846E+04-9.60426E-10-7.49424E-10
 -1       958-1.16871E+05-7.39182E+01-9.93612E+02 1.56881E+04 6.16183E-10-6.43695E-10
 -1       959-1.16943E+05-1.11566E+01-5.05639E+02 1.84872E+04-2.15005E-09-6.46537E-10
 -1       960-1.16909E+05 1.72130E+01-2.45393E+02 1.56786E+04-7.61474E-09-3.78577E-10
 -1       961-1.16915E+05 1.85761E+01-1.29297E+02 1.84977E+04-1.38389E-08-1.58900E-09
 -1       962-1.16918E+05 1.76922E+01-7.24238E+01 1.56776E+04-7.16500E-09 6.98492E-10
 -1       963-1.16915E+05 2.00337E+01-5.53595E+01 1.84990E+04-4.95947E-09 8.42192E-10
 -1       964-1.16920E+05 1.89221E+01-6.37849E+01 1.56772E+04-6.55859E-09 3.44130E-10
 -1       965-1.16920E+05 2.14972E+01-1.07432E+02 1.84988E+04-6.57815E-09-2.79101E-10
 -1       966-1.16918E+05 2.10461E+01-2.00105E+02 1.56778E+04-9.50644E-09-3.88695E-10
 -1       967-1.16947E+05-5.54603E-02-4.10850E+02 1.84932E+04-8.82619E-09 6.53586E-10
 -1       968-1.16891E+05-5.05494E+01-8.06207E+02 1.56829E+04-5.25574E-09-6.85532E-11
 -1       969-1.17254E+05-5.19837E+02-1.79290E+03 1.84370E+04-1.69621E-09 1.64476E-10
 -1       970-1.16602E+05-1.65478E+03-3.54602E+03 1.57349E+04-1.12232E-09-1.22918E-09
 -1       971-2.21515E+05 2.79202E+03-1.29604E+04 2.40259E+03-2.47883E-09-1.31422E-10
 -1       972-2.26102E+05-3.91589E+03-8.24133E+03 8.78202E+03-2.97950E-09 1.13346E-10
 -1       973-2.23453E+05 2.79546E+02-3.35864E+03 2.35508E+03-6.08543E-09-1.12937E-09
 -1       974-2.23963E+05-3.60679E+02-1.86657E+03 8.84489E+03-4.92435E-09 2.84444E-10
 -1       975-2.23668E+05 3.23761E+01-8.64122E+02 2.33942E+03-3.48882E-09-1.36589E-09
 -1       976-2.23731E+05-2.02411E+01-4.80071E+02 8.86823E+03-4.82129E-09 7.46411E-10
 -1       977-2.23695E+05 8.37126E+00-2.84009E+02 2.33168E+03 1.24146E-09-2.26004E-09
 -1       978-2.23710E+05 8.99546E+00-2.58247E+02 8.87844E+03 3.96017E-09-8.10871E-10
 -1       979-2.23694E+05 1.00294E+01-3.44917E+02 2.32920E+03 1.89124E-09-1.19206E-09
 -1       980-2.23748E+05-3.21675E+01-6.40550E+02 8.87783E+03 6.14210E-09-5.37967E-10
 -1       981-2.23657E+05 4.52259E+01-1.18415E+03 2.33229E+03-1.87100E-09-2.01572E-09
 -1       982-2.24077E+05-5.01414E+02-2.57960E+03 8.86529E+03-3.92754E-09 3.34069E-10
 -1       983-2.23360E+05 3.89628E+02-4.64757E+03 2.34183E+03 2.96279E-09-2.66277E-09
 -1       984-2.27048E+05-5.42312E+03-1.14142E+04 8.82024E+03 9.92713E-10-2.95358E-10
 -1       985-2.20677E+05 3.87240E+03-1.79478E+04 2.37798E+03 1.59366E-09-7.04858E-10
 -3
    1PSTEP                        39          20           1          
  100CL  120 3.34394E-01         841                     0   20           1
 -4  DISP        4    1
 -5  D1          1    2    1    0
 -5  D2          1    2    2    0
 -5  D3          1    2    3    0
 -5  ALL         1    2    0    0    1ALL
 -1         1 4.20531E-05 0.00000E+00 0.00000E+00
 -1         2 3.27117E-05 0.00000E+00 0.00000E+00
 -1         3 2.74814E-05 0.00000E+00 0.00000E+00
 -1         4 2.34347E-05 0.00000E+00 0.00000E+00
 -1         5 2.13279E-05 0.00000E+00 0.00000E+00
 -1         8 3.33352E-05-4.18213E-07 0.00000E+00
 -1         9 2.57818E-05 2.12416E-07 0.00000E+00
 -1        10 2.50468E-05-9.84056E-07 0.00000E+00
 -1        11 2.28649E-05-1.86281E-07 0.00000E+00
 -1        12 2.05819E-05 4.93149E-07 0.00000E+00
 -1        15 1.62807E-05-6.96842E-07 0.00000E+00
 -1        16 1.96864E-05 1.89236E-07 0.00000E+00
 -1        17 1.77604E-05-1.99156E-06 0.00000E+00
 -1        18 1.77919E-05-3.81291E-07 0.00000E+00
 -1        19 1.86310E-05 9.77522E-07 0.00000E+00
 -1        20 1.89099E-05 1.05646E-05 0.00000E+00
 -1        21 1.89003E-05 2.52224E-05 0.00000E+00
 -1        22 6.39672E-06-4.75187E-07 0.00000E+00
 -1        23 7.92199E-06 6.03972E-07 0.00000E+00
 -1        24 7.37847E-06-2.38473E-06 0.00000E+00
 -1        25 1.58963E-05-2.46823E-07 0.00000E+00
 -1        26 1.66104E-05 1.29918E-06 0.00000E+00
 -1        27 1.58107E-05 1.01813E-05 0.00000E+00
 -1        28 1.48512E-05 2.48592E-05 0.00000E+00
 -1        29 0.00000E+00 0.00000E+00 0.00000E+00
 -1        30 1.72533E-06 7.33810E-07 0.00000E+00
 -1        31 1.75155E-06-2.25533E-06 0.00000E+00
 -1        32 0.00000E+00 0.00000E+00 0.00000E+00
 -1        33 1.40096E-05 2.02075E-06 0.00000E+00
 -1        34 1.32875E-05 1.01442E-05 0.00000E+00
 -1        35 1.19082E-05 2.46641E-05 0.00000E+00
 -1        36 4.14872E-05 6.42620E-20-1.32349E-23
 -1        37 4.09034E-05 3.34849E-19 6.61744E-24
 -1        38 4.03207E-05 5.63378E-19-1.32349E-23
 -1        39 3.97346E-05 7.04024E-19 6.61744E-24
 -1        40 3.91484E-05 7.21703E-19-1.32349E-23
 -1        41 3.85615E-05 5.47492E-19 6.61744E-24
 -1        42 3.79746E-05 3.32170E-19-1.32349E-23
 -1        43 3.73875E-05 1.32101E-19 6.61744E-24
 -1        44 3.68004E-05 1.16824E-19-1.32349E-23
 -1        45 3.62134E-05 2.58446E-19 6.61744E-24
 -1        46 3.56264E-05 4.59086E-19 0.00000E+00
 -1        47 3.50399E-05 4.97912E-19 6.61744E-24
 -1        48 3.44535E-05 3.28993E-19-1.32349E-23
 -1        49 3.38694E-05 2.09548E-19-6.61744E-24
 -1        50 3.32844E-05 1.14251E-19 1.32349E-23
 -1        51 4.13903E-05-7.12659E-08 0.00000E+00
 -1        52 4.02975E-05-1.39427E-07 0.00000E+00
 -1        53 3.88580E-05-2.07061E-07 0.00000E+00
 -1        54 3.71592E-05-2.75090E-07 0.00000E+00
 -1        55 3.52888E-05-3.44418E-07 4.13590E-25
 -1        56 4.11998E-05-3.32117E-07-1.32349E-23
 -1        57 4.03205E-05-6.89095E-07 1.32349E-23
 -1        58 3.94416E-05-1.04235E-06 0.00000E+00
 -1        59 3.85502E-05-1.37825E-06-1.32349E-23
 -1        60 3.76456E-05-1.67922E-06 0.00000E+00
 -1        61 3.67212E-05-1.93059E-06 0.00000E+00
 -1        62 3.57730E-05-2.11894E-06 0.00000E+00
 -1        63 3.47966E-05-2.23240E-06 1.32349E-23
 -1        64 3.37885E-05-2.26161E-06 0.00000E+00
 -1        65 3.27461E-05-2.19877E-06 1.32349E-23
 -1        66 3.16675E-05-2.03941E-06 0.00000E+00
 -1        67 3.05527E-05-1.78057E-06-1.32349E-23
 -1        68 2.94010E-05-1.42330E-06 2.64698E-23
 -1        69 2.82185E-05-9.68465E-07-1.32349E-23
 -1        70 2.70006E-05-4.24583E-07 0.00000E+00
 -1        71 3.23859E-05-3.39934E-19-6.61744E-24
 -1        72 3.20585E-05-1.11326E-18 0.00000E+00
 -1        73 3.17311E-05-1.78928E-18 0.00000E+00
 -1        74 3.14035E-05-2.23210E-18 0.00000E+00
 -1        75 3.10758E-05-2.29942E-18-1.32349E-23
 -1        76 3.07481E-05-1.78162E-18 0.00000E+00
 -1        77 3.04203E-05-7.85679E-19-1.32349E-23
 -1        78 3.00926E-05 4.97796E-19 0.00000E+00
 -1        79 2.97649E-05 1.60453E-18 0.00000E+00
 -1        80 2.94372E-05 2.31939E-18 6.61744E-24
 -1        81 2.91095E-05 2.56321E-18 1.32349E-23
 -1        82 2.87821E-05 2.27371E-18 6.61744E-24
 -1        83 2.84547E-05 1.58984E-18 0.00000E+00
 -1        84 2.81285E-05 8.36556E-19 3.30872E-24
 -1        85 2.78018E-05 2.16006E-19 0.00000E+00
 -1        86 3.23778E-05 2.66423E-08-3.30872E-24
 -1        87 3.13831E-05 6.57240E-08 0.00000E+00
 -1        88 2.99801E-05 1.03451E-07 8.27181E-25
 -1        89 2.84208E-05 1.41829E-07-4.13590E-25
 -1        90 2.69423E-05 1.80971E-07-1.65436E-24
 -1        91 3.02178E-05 5.74032E-06 0.00000E+00
 -1        92 2.32500E-05 2.30212E-05 0.00000E+00
 -1        93 1.49654E-05 4.36393E-05 0.00000E+00
 -1        94 8.61012E-06 5.93775E-05 0.00000E+00
 -1        95 6.23499E-06 6.47951E-05-6.61744E-24
 -1        96 9.70192E-06 5.45288E-05 0.00000E+00
 -1        97 1.75926E-05 3.19050E-05 0.00000E+00
 -1        98 2.85392E-05 4.44513E-07 0.00000E+00
 -1        99 3.95620E-05-3.12372E-05-6.61744E-24
 -1       100 4.76838E-05-5.45202E-05 3.30872E-24
 -1       101 5.14582E-05-6.56325E-05 0.00000E+00
 -1       102 4.93807E-05-6.09962E-05-3.30872E-24
 -1       103 4.32228E-05-4.57613E-05-6.61744E-24
 -1       104 3.49456E-05-2.51589E-05 0.00000E+00
 -1       105 2.78203E-05-7.47578E-06 0.00000E+00
 -1       106 2.72313E-05 2.62922E-20-6.61744E-24
 -1       107 2.69781E-05 7.19736E-20 0.00000E+00
 -1       108 2.67250E-05-1.30524E-20 0.00000E+00
 -1       109 2.64714E-05-1.12028E-19-3.30872E-24
 -1       110 2.62178E-05-2.16727E-19-6.61744E-24
 -1       111 2.59640E-05-2.32717E-19-3.30872E-24
 -1       112 2.57103E-05-7.91567E-20 0.00000E+00
 -1       113 2.54565E-05 7.21101E-20-3.30872E-24
 -1       114 2.52027E-05 1.54935E-19 0.00000E+00
 -1       115 2.49490E-05 2.08508E-19 0.00000E+00
 -1       116 2.46952E-05 2.11175E-19 6.61744E-24
 -1       117 2.44417E-05 1.38718E-19 0.00000E+00
 -1       118 2.41882E-05 1.16366E-19 0.00000E+00
 -1       119 2.39356E-05 1.12791E-19 0.00000E+00
 -1       120 2.36827E-05 4.55574E-20 6.61744E-24
 -1       121 2.74316E-05-1.64405E-07 6.61744E-24
 -1       122 2.72626E-05-3.28303E-07 0.00000E+00
 -1       123 2.69566E-05-4.92237E-07-6.61744E-24
 -1       124 2.64966E-05-6.56131E-07 0.00000E+00
 -1       125 2.58656E-05-8.20103E-07 0.00000E+00
 -1       126 2.58049E-05 4.10161E-06 3.30872E-24
 -1       127 2.09638E-05 1.64521E-05-1.65436E-24
 -1       128 1.37164E-05 3.49454E-05 0.00000E+00
 -1       129 4.87002E-06 5.74607E-05 1.65436E-24
 -1       130-4.33928E-06 8.08834E-05 0.00000E+00
 -1       131-1.26658E-05 1.02098E-04-1.65436E-24
 -1       132-1.91031E-05 1.18534E-04-3.30872E-24
 -1       133-2.26845E-05 1.27631E-04 0.00000E+00
 -1       134-2.31828E-05 1.28625E-04 3.30872E-24
 -1       135-2.04006E-05 1.20783E-04 1.65436E-24
 -1       136-1.49324E-05 1.05537E-04 0.00000E+00
 -1       137-7.35891E-06 8.43655E-05 1.65436E-24
 -1       138 1.25614E-06 6.02281E-05-3.30872E-24
 -1       139 9.86509E-06 3.61081E-05 1.65436E-24
 -1       140 1.74221E-05 1.49845E-05 0.00000E+00
 -1       141 2.33020E-05-7.87077E-20 0.00000E+00
 -1       142 2.31694E-05-2.40111E-19 0.00000E+00
 -1       143 2.30368E-05-4.47248E-19 3.30872E-24
 -1       144 2.29041E-05-6.59334E-19 0.00000E+00
 -1       145 2.27715E-05-8.97178E-19 3.30872E-24
 -1       146 2.26389E-05-1.13124E-18 0.00000E+00
 -1       147 2.25063E-05-1.31654E-18 0.00000E+00
 -1       148 2.23737E-05-1.43145E-18 1.65436E-24
 -1       149 2.22411E-05-1.42123E-18 3.30872E-24
 -1       150 2.21086E-05-1.30599E-18 0.00000E+00
 -1       151 2.19761E-05-1.06798E-18 0.00000E+00
 -1       152 2.18439E-05-7.90296E-19 1.65436E-24
 -1       153 2.17118E-05-5.50321E-19 0.00000E+00
 -1       154 2.15814E-05-3.48734E-19 0.00000E+00
 -1       155 2.14503E-05-1.10015E-19 8.27181E-25
 -1       156 2.21047E-05-2.52434E-08-1.65436E-24
 -1       157 1.81702E-05-5.24677E-08-8.27181E-25
 -1       158 1.39733E-05-8.09716E-08 0.00000E+00
 -1       159 1.18562E-05-1.02593E-07 4.13590E-25
 -1       160 1.40707E-05-1.25980E-07 1.65436E-24
 -1       161 2.26664E-05 1.65472E-06 0.00000E+00
 -1       162 2.06135E-05 6.70251E-06 0.00000E+00
 -1       163 1.76405E-05 1.41602E-05-3.30872E-24
 -1       164 1.41243E-05 2.30329E-05 0.00000E+00
 -1       165 1.06037E-05 3.19167E-05 0.00000E+00
 -1       166 7.61812E-06 3.94077E-05 0.00000E+00
 -1       167 5.54660E-06 4.45042E-05 3.30872E-24
 -1       168 4.75721E-06 4.62161E-05 0.00000E+00
 -1       169 5.24119E-06 4.45330E-05-3.30872E-24
 -1       170 6.98254E-06 3.94641E-05 0.00000E+00
 -1       171 9.60574E-06 3.20019E-05 0.00000E+00
 -1       172 1.27362E-05 2.31549E-05 1.65436E-24
 -1       173 1.58563E-05 1.43365E-05 0.00000E+00
 -1       174 1.84499E-05 6.96020E-06 1.65436E-24
 -1       175 2.01456E-05 2.01890E-06 8.27181E-25
 -1       191 2.13009E-05 8.21117E-08-3.30872E-24
 -1       192 2.12334E-05 1.64347E-07-1.65436E-24
 -1       193 2.11264E-05 2.46611E-07 0.00000E+00
 -1       194 2.09812E-05 3.28868E-07-1.65436E-24
 -1       195 2.07991E-05 4.11083E-07 3.30872E-24
 -1       251 3.30032E-05 6.62271E-06 0.00000E+00
 -1       252 3.25364E-05 2.45190E-05-3.30872E-24
 -1       253 3.20237E-05 4.51067E-05-6.61744E-24
 -1       254 3.16049E-05 6.01837E-05-3.30872E-24
 -1       255 3.12758E-05 6.46635E-05 6.61744E-24
 -1       256 3.08976E-05 5.36090E-05 0.00000E+00
 -1       257 3.03314E-05 3.05879E-05 0.00000E+00
 -1       258 2.95503E-05-6.64105E-07 0.00000E+00
 -1       259 2.87728E-05-3.17887E-05-6.61744E-24
 -1       260 2.82148E-05-5.44280E-05 3.30872E-24
 -1       261 2.78418E-05-6.49880E-05 0.00000E+00
 -1       262 2.75106E-05-6.00446E-05 0.00000E+00
 -1       263 2.70874E-05-4.46629E-05-6.61744E-24
 -1       264 2.65744E-05-2.40544E-05 0.00000E+00
 -1       265 2.61113E-05-6.38688E-06 0.00000E+00
 -1       266 3.20146E-05-4.64476E-07-3.30872E-24
 -1       267 3.11238E-05-5.04945E-07 8.27181E-25
 -1       268 2.98638E-05-5.46181E-07-1.65436E-24
 -1       269 2.74362E-05-5.88173E-07 0.00000E+00
 -1       270 2.31409E-05-6.36479E-07-8.27181E-25
 -1       271 3.21137E-05 6.72245E-07 0.00000E+00
 -1       272 3.09944E-05 1.41778E-06 0.00000E+00
 -1       273 2.99877E-05 1.86534E-06 0.00000E+00
 -1       274 2.90745E-05 2.05340E-06 1.32349E-23
 -1       275 2.82422E-05 2.02472E-06 0.00000E+00
 -1       276 2.74743E-05 1.82235E-06 0.00000E+00
 -1       277 2.67548E-05 1.49067E-06-2.64698E-23
 -1       278 2.60668E-05 1.07483E-06 1.32349E-23
 -1       279 2.53931E-05 6.20524E-07 0.00000E+00
 -1       280 2.47168E-05 1.73729E-07-1.32349E-23
 -1       281 2.40205E-05-2.19675E-07-2.64698E-23
 -1       282 2.32878E-05-5.14071E-07 0.00000E+00
 -1       283 2.25015E-05-6.64628E-07-2.64698E-23
 -1       284 2.16479E-05-6.26464E-07 0.00000E+00
 -1       285 2.07074E-05-3.58195E-07 0.00000E+00
 -1       286 2.57306E-05 1.05826E-06 3.30872E-24
 -1       287 2.56848E-05 1.59893E-06-8.27181E-25
 -1       288 2.56387E-05 1.84795E-06-1.65436E-24
 -1       289 2.55937E-05 1.81940E-06 0.00000E+00
 -1       290 2.55486E-05 1.55395E-06 1.65436E-24
 -1       291 2.55037E-05 1.09275E-06 0.00000E+00
 -1       292 2.54588E-05 4.95655E-07 1.65436E-24
 -1       293 2.54138E-05-1.77220E-07 8.27181E-25
 -1       294 2.53688E-05-8.58511E-07-1.65436E-24
 -1       295 2.53239E-05-1.48084E-06 0.00000E+00
 -1       296 2.52790E-05-1.98246E-06 1.65436E-24
 -1       297 2.52339E-05-2.30188E-06-8.27181E-25
 -1       298 2.51889E-05-2.39499E-06 0.00000E+00
 -1       299 2.51430E-05-2.21815E-06-8.27181E-25
 -1       300 2.50973E-05-1.75359E-06 0.00000E+00
 -1       301 2.47636E-05 2.04055E-07 3.30872E-24
 -1       302 2.37394E-05 2.03125E-07 0.00000E+00
 -1       303 2.27144E-05 2.03423E-07 0.00000E+00
 -1       304 2.16938E-05 2.03398E-07 8.27181E-25
 -1       305 2.06827E-05 2.01447E-07-3.30872E-24
 -1       306 2.50057E-05 8.45130E-07-1.32349E-23
 -1       307 2.43401E-05 1.14332E-06 0.00000E+00
 -1       308 2.37811E-05 1.15820E-06-1.32349E-23
 -1       309 2.33087E-05 9.36675E-07 0.00000E+00
 -1       310 2.29061E-05 5.28031E-07 1.32349E-23
 -1       311 2.25547E-05-1.82271E-08 0.00000E+00
 -1       312 2.22359E-05-6.51887E-07-1.32349E-23
 -1       313 2.19309E-05-1.32243E-06-6.61744E-24
 -1       314 2.16207E-05-1.97915E-06-1.32349E-23
 -1       315 2.12865E-05-2.57140E-06 0.00000E+00
 -1       316 2.09093E-05-3.04884E-06 1.32349E-23
 -1       317 2.04709E-05-3.36156E-06 0.00000E+00
 -1       318 1.99526E-05-3.46049E-06 0.00000E+00
 -1       319 1.93385E-05-3.29676E-06-6.61744E-24
 -1       320 1.86079E-05-2.82429E-06-6.61744E-24
 -1       321 2.49452E-05 1.76865E-06-3.30872E-24
 -1       322 2.48304E-05 8.16986E-06 1.65436E-24
 -1       323 2.46954E-05 1.73067E-05 0.00000E+00
 -1       324 2.45435E-05 2.82552E-05 0.00000E+00
 -1       325 2.43859E-05 3.97377E-05 3.30872E-24
 -1       326 2.42364E-05 5.04746E-05-1.65436E-24
 -1       327 2.41042E-05 5.93316E-05-3.30872E-24
 -1       328 2.39933E-05 6.51821E-05 1.65436E-24
 -1       329 2.38960E-05 6.74836E-05 0.00000E+00
 -1       330 2.37996E-05 6.57089E-05 0.00000E+00
 -1       331 2.36901E-05 6.01209E-05 0.00000E+00
 -1       332 2.35555E-05 5.09985E-05 1.65436E-24
 -1       333 2.33958E-05 3.93065E-05 0.00000E+00
 -1       334 2.32170E-05 2.60207E-05 0.00000E+00
 -1       335 2.30344E-05 1.24274E-05 3.30872E-24
 -1       336 2.40290E-05-1.15220E-06 0.00000E+00
 -1       337 2.28712E-05-1.32072E-06 0.00000E+00
 -1       338 2.16193E-05-1.48928E-06 6.61744E-24
 -1       339 2.03194E-05-1.65755E-06 0.00000E+00
 -1       340 1.90178E-05-1.82586E-06-3.30872E-24
 -1       341 2.22807E-05 5.91207E-06 3.30872E-24
 -1       342 1.48566E-05 2.47807E-05 0.00000E+00
 -1       343 4.07469E-06 5.20445E-05-3.30872E-24
 -1       344-8.66610E-06 8.41097E-05 1.65436E-24
 -1       345-2.13292E-05 1.15984E-04-3.30872E-24
 -1       346-3.18790E-05 1.42677E-04 0.00000E+00
 -1       347-3.89691E-05 1.60699E-04 0.00000E+00
 -1       348-4.13469E-05 1.66586E-04 1.65436E-24
 -1       349-3.91607E-05 1.60298E-04-3.30872E-24
 -1       350-3.25842E-05 1.41867E-04 0.00000E+00
 -1       351-2.29766E-05 1.14806E-04 0.00000E+00
 -1       352-1.16392E-05 8.27024E-05 0.00000E+00
 -1       353-3.21129E-07 5.06565E-05 0.00000E+00
 -1       354 9.22759E-06 2.37683E-05-1.65436E-24
 -1       355 1.57139E-05 5.59554E-06 0.00000E+00
 -1       356 2.26897E-05-1.29256E-05 3.30872E-24
 -1       357 2.24977E-05-2.68939E-05 1.65436E-24
 -1       358 2.23080E-05-4.06908E-05 0.00000E+00
 -1       359 2.21378E-05-5.29160E-05 0.00000E+00
 -1       360 2.19948E-05-6.24889E-05 0.00000E+00
 -1       361 2.18794E-05-6.83409E-05 0.00000E+00
 -1       362 2.17785E-05-7.01564E-05 0.00000E+00
 -1       363 2.16763E-05-6.76379E-05 0.00000E+00
 -1       364 2.15586E-05-6.13638E-05 0.00000E+00
 -1       365 2.14170E-05-5.19296E-05-1.65436E-24
 -1       366 2.12568E-05-4.05713E-05 0.00000E+00
 -1       367 2.10891E-05-2.85330E-05 0.00000E+00
 -1       368 2.09292E-05-1.71976E-05 0.00000E+00
 -1       369 2.07913E-05-7.94499E-06 8.27181E-25
 -1       370 2.06750E-05-1.73321E-06 0.00000E+00
 -1       371 3.13952E-05-2.46315E-07 0.00000E+00
 -1       372 3.28238E-05-2.70008E-07 0.00000E+00
 -1       373 2.96414E-05-2.95661E-07 0.00000E+00
 -1       374 2.43435E-05-3.29346E-07 2.06795E-25
 -1       375 1.95279E-05-3.60931E-07 0.00000E+00
 -1       376 2.80242E-05-1.45501E-05-3.30872E-24
 -1       377 3.47337E-05-3.32588E-05 1.65436E-24
 -1       378 4.21156E-05-5.38654E-05-3.30872E-24
 -1       379 4.92989E-05-7.39103E-05 0.00000E+00
 -1       380 5.54569E-05-9.10693E-05 0.00000E+00
 -1       381 5.97505E-05-1.03038E-04 0.00000E+00
 -1       382 6.17569E-05-1.08752E-04 0.00000E+00
 -1       383 6.10470E-05-1.07179E-04 0.00000E+00
 -1       384 5.78256E-05-9.90000E-05 0.00000E+00
 -1       385 5.23197E-05-8.49241E-05 1.65436E-24
 -1       386 4.53212E-05-6.70429E-05-3.30872E-24
 -1       387 3.76489E-05-4.74579E-05 1.65436E-24
 -1       388 3.02931E-05-2.86734E-05 0.00000E+00
 -1       389 2.42399E-05-1.31914E-05 8.27181E-25
 -1       390 2.01424E-05-2.73822E-06 0.00000E+00
 -1       406 2.03209E-05 5.74342E-07-3.30872E-24
 -1       407 2.00297E-05 6.55594E-07 0.00000E+00
 -1       408 1.97115E-05 7.36800E-07-3.30872E-24
 -1       409 1.93700E-05 8.17808E-07 0.00000E+00
 -1       410 1.90086E-05 8.98397E-07-3.30872E-24
 -1       466 1.64670E-05 5.87336E-06 0.00000E+00
 -1       467 1.66772E-05 9.32280E-06 0.00000E+00
 -1       468 1.68922E-05 1.06674E-05-6.61744E-24
 -1       469 1.71096E-05 1.09021E-05 0.00000E+00
 -1       470 1.73270E-05 1.03903E-05 0.00000E+00
 -1       471 1.75445E-05 9.48793E-06 0.00000E+00
 -1       472 1.77618E-05 8.32776E-06 0.00000E+00
 -1       473 1.79790E-05 7.04010E-06 0.00000E+00
 -1       474 1.81961E-05 5.68228E-06 0.00000E+00
 -1       475 1.84130E-05 4.31100E-06 3.30872E-24
 -1       476 1.86299E-05 2.97526E-06 0.00000E+00
 -1       477 1.88462E-05 1.72435E-06-3.30872E-24
 -1       478 1.90626E-05 6.56058E-07 6.61744E-24
 -1       479 1.92757E-05-1.30015E-07-1.65436E-24
 -1       480 1.94903E-05-3.74064E-07-2.06795E-25
 -1       481 1.00712E-05-6.76373E-07 4.13590E-25
 -1       482 7.70272E-06-6.38241E-07 0.00000E+00
 -1       483 7.64637E-06-5.96909E-07 0.00000E+00
 -1       484 8.37763E-06-5.55611E-07 0.00000E+00
 -1       485 8.44523E-06-5.14169E-07 0.00000E+00
 -1       486 1.12599E-05 1.17736E-05-3.30872E-24
 -1       487 2.81154E-06 3.29255E-05 3.30872E-24
 -1       488-6.01630E-06 5.50325E-05 6.61744E-24
 -1       489-1.21617E-05 7.03597E-05 3.30872E-24
 -1       490-1.40138E-05 7.45330E-05 0.00000E+00
 -1       491-1.01291E-05 6.32519E-05 3.30872E-24
 -1       492-1.84969E-06 3.96561E-05 0.00000E+00
 -1       493 9.53401E-06 7.05397E-06 0.00000E+00
 -1       494 2.13172E-05-2.67194E-05 6.61744E-24
 -1       495 3.08124E-05-5.38074E-05 3.30872E-24
 -1       496 3.63734E-05-6.97406E-05 0.00000E+00
 -1       497 3.62737E-05-7.02134E-05 0.00000E+00
 -1       498 3.14897E-05-5.83813E-05 6.61744E-24
 -1       499 2.31470E-05-3.74954E-05-3.30872E-24
 -1       500 1.42693E-05-1.52640E-05 0.00000E+00
 -1       501 1.95609E-05 9.78625E-07 6.61744E-24
 -1       502 1.94403E-05 1.40022E-06-1.65436E-24
 -1       503 1.93196E-05 1.41943E-06-3.30872E-24
 -1       504 1.91996E-05 1.00381E-06 1.65436E-24
 -1       505 1.90795E-05 2.26422E-07-3.30872E-24
 -1       506 1.89593E-05-8.37685E-07 0.00000E+00
 -1       507 1.88390E-05-2.04391E-06 0.00000E+00
 -1       508 1.87187E-05-3.24692E-06 0.00000E+00
 -1       509 1.85985E-05-4.30214E-06 0.00000E+00
 -1       510 1.84787E-05-5.06577E-06-1.65436E-24
 -1       511 1.83590E-05-5.46476E-06 0.00000E+00
 -1       512 1.82395E-05-5.42801E-06 1.65436E-24
 -1       513 1.81198E-05-4.99010E-06-3.30872E-24
 -1       514 1.80001E-05-4.18775E-06 0.00000E+00
 -1       515 1.78801E-05-3.14610E-06 0.00000E+00
 -1       516 1.95219E-05 2.57773E-07 0.00000E+00
 -1       517 2.09315E-05 3.38161E-07 1.29247E-26
 -1       518 2.22639E-05 4.17734E-07 0.00000E+00
 -1       519 2.18676E-05 4.99846E-07-8.27181E-25
 -1       520 1.77544E-05 5.72950E-07-8.27181E-25
 -1       521 1.86818E-05 7.17625E-07 0.00000E+00
 -1       522 1.77735E-05 9.25769E-07 0.00000E+00
 -1       523 1.69665E-05 8.65645E-07 0.00000E+00
 -1       524 1.62398E-05 5.82020E-07 0.00000E+00
 -1       525 1.55783E-05 1.23291E-07 2.64698E-23
 -1       526 1.49637E-05-4.61963E-07 1.32349E-23
 -1       527 1.43778E-05-1.12417E-06 0.00000E+00
 -1       528 1.38019E-05-1.81337E-06-1.32349E-23
 -1       529 1.32173E-05-2.47940E-06 0.00000E+00
 -1       530 1.26054E-05-3.07228E-06 0.00000E+00
 -1       531 1.19476E-05-3.54248E-06 2.64698E-23
 -1       532 1.12262E-05-3.84121E-06 0.00000E+00
 -1       533 1.04229E-05-3.92094E-06-2.64698E-23
 -1       534 9.52320E-06-3.73466E-06-6.61744E-24
 -1       535 8.50678E-06-3.23917E-06 1.32349E-23
 -1       536 1.77568E-05-9.25386E-07 0.00000E+00
 -1       537 1.77580E-05-1.14848E-07 4.13590E-25
 -1       538 1.77593E-05 4.67079E-07 0.00000E+00
 -1       539 1.77614E-05 8.47674E-07 0.00000E+00
 -1       540 1.77637E-05 1.05415E-06 0.00000E+00
 -1       541 1.77661E-05 1.11373E-06 0.00000E+00
 -1       542 1.77685E-05 1.05364E-06 0.00000E+00
 -1       543 1.77710E-05 9.01102E-07 1.29247E-26
 -1       544 1.77734E-05 6.83335E-07 2.58494E-26
 -1       545 1.77759E-05 4.27555E-07 0.00000E+00
 -1       546 1.77784E-05 1.60979E-07 0.00000E+00
 -1       547 1.77809E-05-8.91721E-08 0.00000E+00
 -1       548 1.77834E-05-2.95686E-07 2.06795E-25
 -1       549 1.77860E-05-4.31348E-07 0.00000E+00
 -1       550 1.77887E-05-4.68920E-07 0.00000E+00
 -1       551 1.62071E-05-2.05606E-06-1.00813E-24
 -1       552 1.44778E-05-2.11895E-06 1.24077E-24
 -1       553 1.26508E-05-2.18188E-06 0.00000E+00
 -1       554 1.08057E-05-2.24561E-06 1.65436E-24
 -1       555 9.02212E-06-2.31101E-06 0.00000E+00
 -1       556 1.73063E-05-9.91441E-07 0.00000E+00
 -1       557 1.69406E-05-2.20579E-07 0.00000E+00
 -1       558 1.66531E-05 3.42792E-07 0.00000E+00
 -1       559 1.64349E-05 7.22601E-07 6.61744E-24
 -1       560 1.62766E-05 9.42811E-07 0.00000E+00
 -1       561 1.61692E-05 1.02759E-06 0.00000E+00
 -1       562 1.61036E-05 1.00113E-06-3.30872E-24
 -1       563 1.60706E-05 8.87627E-07 0.00000E+00
 -1       564 1.60612E-05 7.11314E-07 3.30872E-24
 -1       565 1.60662E-05 4.96415E-07 0.00000E+00
 -1       566 1.60766E-05 2.67161E-07 0.00000E+00
 -1       567 1.60834E-05 4.77906E-08 8.27181E-25
 -1       568 1.60775E-05-1.37467E-07-8.27181E-25
 -1       569 1.60499E-05-2.64404E-07-4.52364E-25
 -1       570 1.59919E-05-3.08830E-07-4.13590E-25
 -1       571 1.78424E-05-2.69188E-07-4.13590E-25
 -1       572 1.78943E-05-1.92944E-07 2.06795E-25
 -1       573 1.79467E-05-1.45963E-07-1.24077E-24
 -1       574 1.79993E-05-1.21315E-07 4.13590E-25
 -1       575 1.80519E-05-1.12042E-07 1.65436E-24
 -1       576 1.81046E-05-1.11144E-07 0.00000E+00
 -1       577 1.81573E-05-1.11616E-07 0.00000E+00
 -1       578 1.82100E-05-1.06446E-07-1.65436E-24
 -1       579 1.82627E-05-8.86237E-08 0.00000E+00
 -1       580 1.83154E-05-5.11377E-08 0.00000E+00
 -1       581 1.83681E-05 1.30219E-08 0.00000E+00
 -1       582 1.84208E-05 1.10859E-07 0.00000E+00
 -1       583 1.84735E-05 2.49370E-07 0.00000E+00
 -1       584 1.85261E-05 4.35481E-07 0.00000E+00
 -1       585 1.85787E-05 6.76081E-07 0.00000E+00
 -1       586 1.75210E-05-3.58434E-07 0.00000E+00
 -1       587 1.72101E-05-3.35402E-07 8.27181E-25
 -1       588 1.68756E-05-3.12395E-07-8.27181E-25
 -1       589 1.65341E-05-2.89609E-07 2.06795E-25
 -1       590 1.62022E-05-2.67324E-07 0.00000E+00
 -1       591 1.77105E-05-2.48779E-07 0.00000E+00
 -1       592 1.76352E-05-1.39328E-07-4.13590E-25
 -1       593 1.75665E-05-4.84215E-08 8.27181E-25
 -1       594 1.75029E-05 2.80375E-08 0.00000E+00
 -1       595 1.74431E-05 9.41429E-08-8.27181E-25
 -1       596 1.73856E-05 1.53958E-07 0.00000E+00
 -1       597 1.73290E-05 2.11543E-07 0.00000E+00
 -1       598 1.72716E-05 2.70950E-07-4.13590E-25
 -1       599 1.72121E-05 3.36236E-07 8.27181E-25
 -1       600 1.71488E-05 4.11454E-07 2.06795E-25
 -1       601 1.70803E-05 5.00658E-07 0.00000E+00
 -1       602 1.70051E-05 6.07908E-07 4.13590E-25
 -1       603 1.69217E-05 7.37262E-07-2.06795E-25
 -1       604 1.68287E-05 8.92808E-07 5.16988E-26
 -1       605 1.67248E-05 1.07863E-06 0.00000E+00
 -1       606 1.86503E-05 1.37746E-06-1.65436E-24
 -1       607 1.86683E-05 1.81593E-06 0.00000E+00
 -1       608 1.86859E-05 2.29066E-06 0.00000E+00
 -1       609 1.87033E-05 2.79908E-06-8.27181E-25
 -1       610 1.87207E-05 3.33859E-06 0.00000E+00
 -1       611 1.87380E-05 3.90652E-06 0.00000E+00
 -1       612 1.87552E-05 4.50022E-06 0.00000E+00
 -1       613 1.87725E-05 5.11705E-06 0.00000E+00
 -1       614 1.87897E-05 5.75433E-06 1.65436E-24
 -1       615 1.88070E-05 6.40940E-06 1.65436E-24
 -1       616 1.88242E-05 7.07961E-06-8.27181E-25
 -1       617 1.88414E-05 7.76230E-06-4.13590E-25
 -1       618 1.88586E-05 8.45480E-06 0.00000E+00
 -1       619 1.88758E-05 9.15446E-06 4.13590E-25
 -1       620 1.88929E-05 9.85863E-06 4.13590E-25
 -1       621 1.82558E-05 1.03133E-06-1.65436E-24
 -1       622 1.78906E-05 1.08541E-06-8.27181E-25
 -1       623 1.75395E-05 1.13950E-06 1.65436E-24
 -1       624 1.72065E-05 1.19345E-06 4.13590E-25
 -1       625 1.68955E-05 1.24709E-06 0.00000E+00
 -1       626 1.85139E-05 1.39784E-06-1.65436E-24
 -1       627 1.83811E-05 1.85848E-06 0.00000E+00
 -1       628 1.82343E-05 2.35569E-06 0.00000E+00
 -1       629 1.80754E-05 2.88519E-06-1.65436E-24
 -1       630 1.79059E-05 3.44272E-06 0.00000E+00
 -1       631 1.77275E-05 4.02394E-06 0.00000E+00
 -1       632 1.75419E-05 4.62448E-06-1.65436E-24
 -1       633 1.73506E-05 5.24002E-06 0.00000E+00
 -1       634 1.71553E-05 5.86619E-06 0.00000E+00
 -1       635 1.69577E-05 6.49864E-06 4.13590E-25
 -1       636 1.67593E-05 7.13303E-06 0.00000E+00
 -1       637 1.65618E-05 7.76500E-06 0.00000E+00
 -1       638 1.63667E-05 8.39019E-06 0.00000E+00
 -1       639 1.61757E-05 9.00424E-06 2.06795E-25
 -1       640 1.59902E-05 9.60278E-06 0.00000E+00
 -1       641 1.89103E-05 1.12961E-05-2.06795E-25
 -1       642 1.89101E-05 1.21035E-05 5.16988E-26
 -1       643 1.89098E-05 1.29758E-05 0.00000E+00
 -1       644 1.89095E-05 1.39021E-05-1.29247E-26
 -1       645 1.89090E-05 1.48713E-05 1.29247E-26
 -1       646 1.89086E-05 1.58724E-05 0.00000E+00
 -1       647 1.89081E-05 1.68945E-05 0.00000E+00
 -1       648 1.89076E-05 1.79265E-05-3.23117E-27
 -1       649 1.89070E-05 1.89575E-05 0.00000E+00
 -1       650 1.89065E-05 1.99765E-05 0.00000E+00
 -1       651 1.89060E-05 2.09725E-05 0.00000E+00
 -1       652 1.89054E-05 2.19345E-05 0.00000E+00
 -1       653 1.89049E-05 2.28514E-05-2.06795E-25
 -1       654 1.89040E-05 2.37124E-05 0.00000E+00
 -1       655 1.89033E-05 2.45064E-05 0.00000E+00
 -1       656 1.82772E-05 1.05029E-05-8.27181E-25
 -1       657 1.77317E-05 1.04380E-05 0.00000E+00
 -1       658 1.72429E-05 1.03732E-05-1.65436E-24
 -1       659 1.67801E-05 1.03083E-05 0.00000E+00
 -1       660 1.63129E-05 1.02434E-05 8.27181E-25
 -1       661 1.87063E-05 1.13178E-05 0.00000E+00
 -1       662 1.84832E-05 1.21306E-05-8.27181E-25
 -1       663 1.82413E-05 1.29933E-05 0.00000E+00
 -1       664 1.79841E-05 1.38976E-05 0.00000E+00
 -1       665 1.77147E-05 1.48347E-05-1.65436E-24
 -1       666 1.74362E-05 1.57961E-05-8.27181E-25
 -1       667 1.71519E-05 1.67731E-05 1.65436E-24
 -1       668 1.68648E-05 1.77573E-05 8.27181E-25
 -1       669 1.65783E-05 1.87401E-05 1.65436E-24
 -1       670 1.62955E-05 1.97130E-05 0.00000E+00
 -1       671 1.60196E-05 2.06673E-05 0.00000E+00
 -1       672 1.57538E-05 2.15946E-05 8.27181E-25
 -1       673 1.55013E-05 2.24862E-05 0.00000E+00
 -1       674 1.52649E-05 2.33334E-05 0.00000E+00
 -1       675 1.50485E-05 2.41278E-05 8.27181E-25
 -1       676 1.82235E-05 2.51616E-05-1.65436E-24
 -1       677 1.75470E-05 2.51006E-05 0.00000E+00
 -1       678 1.68712E-05 2.50396E-05 1.65436E-24
 -1       679 1.61964E-05 2.49789E-05 8.27181E-25
 -1       680 1.55229E-05 2.49182E-05 0.00000E+00
 -1       681 6.49375E-06 1.70387E-06 0.00000E+00
 -1       682 6.59601E-06 2.00811E-06 0.00000E+00
 -1       683 6.69768E-06 9.34868E-07-3.30872E-24
 -1       684 6.79863E-06-1.02493E-06 0.00000E+00
 -1       685 6.89829E-06-3.59756E-06-3.30872E-24
 -1       686 6.99715E-06-6.51218E-06 0.00000E+00
 -1       687 7.09559E-06-9.58183E-06 3.30872E-24
 -1       688 7.19414E-06-1.26203E-05-1.65436E-24
 -1       689 7.29330E-06-1.54337E-05-3.30872E-24
 -1       690 7.39349E-06-1.78272E-05-1.65436E-24
 -1       691 7.49500E-06-1.95026E-05 0.00000E+00
 -1       692 7.59750E-06-2.01587E-05-1.65436E-24
 -1       693 7.69958E-06-1.92442E-05 0.00000E+00
 -1       694 7.79672E-06-1.62003E-05 0.00000E+00
 -1       695 7.87925E-06-9.94868E-06 0.00000E+00
 -1       696 3.79597E-06-4.00434E-07 0.00000E+00
 -1       697 2.23350E-06-3.21515E-07 0.00000E+00
 -1       698 1.37561E-06-2.41861E-07 1.65436E-24
 -1       699 8.91230E-07-1.61463E-07 0.00000E+00
 -1       700 5.19507E-07-8.10342E-08 3.30872E-24
 -1       701 3.74966E-06 6.19906E-06 0.00000E+00
 -1       702-1.66156E-06 2.00124E-05-8.27181E-25
 -1       703-9.00690E-06 3.87532E-05-3.30872E-24
 -1       704-1.74254E-05 6.01927E-05-1.65436E-24
 -1       705-2.57621E-05 8.14258E-05-3.30872E-24
 -1       706-3.28642E-05 9.95480E-05 0.00000E+00
 -1       707-3.79166E-05 1.12437E-04 3.30872E-24
 -1       708-4.01415E-05 1.17987E-04 0.00000E+00
 -1       709-3.94958E-05 1.15920E-04 0.00000E+00
 -1       710-3.59551E-05 1.05997E-04-1.65436E-24
 -1       711-3.02010E-05 8.99483E-05 0.00000E+00
 -1       712-2.29001E-05 6.95447E-05 1.65436E-24
 -1       713-1.50812E-05 4.76732E-05-3.30872E-24
 -1       714-7.76492E-06 2.72320E-05 0.00000E+00
 -1       715-1.85684E-06 1.07509E-05-1.65436E-24
 -1       716 7.83876E-06 1.19621E-05 0.00000E+00
 -1       717 7.78173E-06 2.05962E-05 4.13590E-25
 -1       718 7.74304E-06 2.66341E-05-8.27181E-25
 -1       719 7.71571E-06 3.02059E-05 0.00000E+00
 -1       720 7.69375E-06 3.15537E-05 0.00000E+00
 -1       721 7.67244E-06 3.09222E-05 0.00000E+00
 -1       722 7.64894E-06 2.86457E-05-8.27181E-25
 -1       723 7.62172E-06 2.50603E-05-4.13590E-25
 -1       724 7.59102E-06 2.05617E-05 8.27181E-25
 -1       725 7.55787E-06 1.55465E-05 0.00000E+00
 -1       726 7.52422E-06 1.04345E-05 0.00000E+00
 -1       727 7.49175E-06 5.64615E-06-4.13590E-25
 -1       728 7.46226E-06 1.58662E-06 0.00000E+00
 -1       729 7.43477E-06-1.33951E-06 1.65436E-24
 -1       730 7.41091E-06-2.78024E-06 0.00000E+00
 -1       731-2.38777E-06 5.87407E-07 2.06795E-25
 -1       732-7.89997E-06 6.09764E-07 4.13590E-25
 -1       733-9.48615E-06 6.45933E-07 0.00000E+00
 -1       734-8.01103E-06 6.82467E-07-4.13590E-25
 -1       735-4.07513E-06 7.12998E-07 0.00000E+00
 -1       736 1.21867E-06 1.77411E-05 1.65436E-24
 -1       737-9.03452E-06 4.37685E-05 0.00000E+00
 -1       738-2.14472E-05 7.51116E-05 0.00000E+00
 -1       739-3.45733E-05 1.08190E-04 0.00000E+00
 -1       740-4.67766E-05 1.39015E-04-3.30872E-24
 -1       741-5.64468E-05 1.63601E-04 0.00000E+00
 -1       742-6.26362E-05 1.79415E-04 3.30872E-24
 -1       743-6.44671E-05 1.83946E-04 0.00000E+00
 -1       744-6.21047E-05 1.77262E-04 3.30872E-24
 -1       745-5.57301E-05 1.59486E-04-1.65436E-24
 -1       746-4.64013E-05 1.33314E-04 0.00000E+00
 -1       747-3.51344E-05 1.01502E-04-1.65436E-24
 -1       748-2.33482E-05 6.81676E-05-3.30872E-24
 -1       749-1.24498E-05 3.74408E-05 1.65436E-24
 -1       750-3.66179E-06 1.28167E-05 1.65436E-24
 -1       751 7.87836E-06-1.34549E-06 0.00000E+00
 -1       752 8.41070E-06-8.51272E-07 6.61744E-24
 -1       753 8.94111E-06-6.72630E-07 0.00000E+00
 -1       754 9.47763E-06-5.87980E-07-6.61744E-24
 -1       755 1.00143E-05-5.57718E-07 0.00000E+00
 -1       756 1.05522E-05-5.43565E-07 0.00000E+00
 -1       757 1.10903E-05-5.38699E-07-1.32349E-23
 -1       758 1.16286E-05-5.36520E-07 6.61744E-24
 -1       759 1.21669E-05-5.35688E-07 0.00000E+00
 -1       760 1.27050E-05-5.34895E-07-6.61744E-24
 -1       761 1.32431E-05-5.32908E-07 0.00000E+00
 -1       762 1.37804E-05-5.28465E-07-6.61744E-24
 -1       763 1.43175E-05-5.15507E-07 0.00000E+00
 -1       764 1.48503E-05-4.87768E-07-6.61744E-24
 -1       765 1.53846E-05-4.10274E-07 6.61744E-24
 -1       766 5.01006E-06-2.36666E-06 3.30872E-24
 -1       767 5.87689E-07-2.34360E-06 8.27181E-25
 -1       768-3.94713E-06-2.32181E-06 2.06795E-25
 -1       769-6.65335E-06-2.29185E-06 0.00000E+00
 -1       770-5.44961E-06-2.26026E-06-2.06795E-25
 -1       771 6.59155E-06-1.35392E-06 0.00000E+00
 -1       772 5.87695E-06-5.28745E-07 6.61744E-24
 -1       773 5.23176E-06 1.09296E-07 1.32349E-23
 -1       774 4.64930E-06 5.79015E-07 0.00000E+00
 -1       775 4.12281E-06 8.99266E-07 1.32349E-23
 -1       776 3.64525E-06 1.08900E-06 0.00000E+00
 -1       777 3.20952E-06 1.16720E-06 0.00000E+00
 -1       778 2.80849E-06 1.15289E-06 0.00000E+00
 -1       779 2.43503E-06 1.06512E-06 0.00000E+00
 -1       780 2.08197E-06 9.22980E-07 0.00000E+00
 -1       781 1.74217E-06 7.45558E-07-1.32349E-23
 -1       782 1.40853E-06 5.51982E-07-6.61744E-24
 -1       783 1.07394E-06 3.61380E-07-1.32349E-23
 -1       784 7.31589E-07 1.92941E-07 0.00000E+00
 -1       785 3.74699E-07 6.58480E-08-6.61744E-24
 -1       786 1.59381E-05-6.36450E-08 0.00000E+00
 -1       787 1.59826E-05 7.84050E-08-4.13590E-25
 -1       788 1.60271E-05 1.85664E-07-8.27181E-25
 -1       789 1.60720E-05 2.64492E-07 0.00000E+00
 -1       790 1.61169E-05 3.21232E-07 1.65436E-24
 -1       791 1.61619E-05 3.62224E-07 8.27181E-25
 -1       792 1.62069E-05 3.93799E-07 0.00000E+00
 -1       793 1.62520E-05 4.22287E-07 0.00000E+00
 -1       794 1.62970E-05 4.54015E-07 0.00000E+00
 -1       795 1.63421E-05 4.95314E-07 0.00000E+00
 -1       796 1.63871E-05 5.52514E-07-1.65436E-24
 -1       797 1.64321E-05 6.31956E-07 0.00000E+00
 -1       798 1.64771E-05 7.39985E-07 1.65436E-24
 -1       799 1.65219E-05 8.82953E-07 8.27181E-25
 -1       800 1.65667E-05 1.06724E-06 8.27181E-25
 -1       801 1.44971E-05-2.02246E-07 0.00000E+00
 -1       802 1.15787E-05-1.57898E-07 0.00000E+00
 -1       803 7.90472E-06-1.15956E-07 1.03398E-25
 -1       804 4.24040E-06-7.54752E-08-1.65436E-24
 -1       805 1.35092E-06-3.27043E-08 0.00000E+00
 -1       806 1.57725E-05-8.30730E-08 0.00000E+00
 -1       807 1.56535E-05 6.25472E-08 0.00000E+00
 -1       808 1.55395E-05 1.93496E-07 0.00000E+00
 -1       809 1.54296E-05 3.13011E-07-8.27181E-25
 -1       810 1.53227E-05 4.24313E-07 1.65436E-24
 -1       811 1.52176E-05 5.30606E-07 8.27181E-25
 -1       812 1.51132E-05 6.35085E-07 0.00000E+00
 -1       813 1.50083E-05 7.40942E-07 0.00000E+00
 -1       814 1.49017E-05 8.51374E-07 0.00000E+00
 -1       815 1.47921E-05 9.69572E-07 8.27181E-25
 -1       816 1.46785E-05 1.09873E-06 8.27181E-25
 -1       817 1.45596E-05 1.24204E-06 4.13590E-25
 -1       818 1.44342E-05 1.40269E-06 8.27181E-25
 -1       819 1.43012E-05 1.58389E-06 4.13590E-25
 -1       820 1.41598E-05 1.78883E-06 0.00000E+00
 -1       821 1.65635E-05 1.59663E-06 4.13590E-25
 -1       822 1.65136E-05 1.96224E-06-4.13590E-25
 -1       823 1.64637E-05 2.38888E-06 0.00000E+00
 -1       824 1.64134E-05 2.86929E-06 8.27181E-25
 -1       825 1.63630E-05 3.39626E-06-1.65436E-24
 -1       826 1.63125E-05 3.96252E-06 0.00000E+00
 -1       827 1.62619E-05 4.56079E-06 1.65436E-24
 -1       828 1.62113E-05 5.18378E-06 0.00000E+00
 -1       829 1.61607E-05 5.82421E-06 1.65436E-24
 -1       830 1.61101E-05 6.47475E-06 0.00000E+00
 -1       831 1.60595E-05 7.12810E-06 0.00000E+00
 -1       832 1.60090E-05 7.77696E-06 0.00000E+00
 -1       833 1.59586E-05 8.41400E-06 1.65436E-24
 -1       834 1.59085E-05 9.03194E-06-4.13590E-25
 -1       835 1.58584E-05 9.62347E-06 0.00000E+00
 -1       836 1.62700E-05 1.41725E-06 0.00000E+00
 -1       837 1.58249E-05 1.53949E-06 0.00000E+00
 -1       838 1.53256E-05 1.66150E-06 3.30872E-24
 -1       839 1.48229E-05 1.78320E-06-1.65436E-24
 -1       840 1.43674E-05 1.90510E-06 1.65436E-24
 -1       841 1.64998E-05 1.59643E-06 0.00000E+00
 -1       842 1.63602E-05 1.96842E-06 0.00000E+00
 -1       843 1.61958E-05 2.40671E-06 0.00000E+00
 -1       844 1.60097E-05 2.90248E-06 0.00000E+00
 -1       845 1.58052E-05 3.44701E-06 1.29247E-26
 -1       846 1.55857E-05 4.03153E-06-1.61559E-27
 -1       847 1.53544E-05 4.64727E-06 0.00000E+00
 -1       848 1.51148E-05 5.28546E-06-3.23117E-27
 -1       849 1.48699E-05 5.93731E-06 0.00000E+00
 -1       850 1.46233E-05 6.59403E-06 6.46235E-27
 -1       851 1.43781E-05 7.24685E-06 0.00000E+00
 -1       852 1.41376E-05 7.88696E-06 2.58494E-26
 -1       853 1.39052E-05 8.50559E-06 1.03398E-25
 -1       854 1.36839E-05 9.09389E-06 1.03398E-25
 -1       855 1.34774E-05 9.64321E-06 0.00000E+00
 -1       856 1.57538E-05 1.07813E-05 0.00000E+00
 -1       857 1.56941E-05 1.14913E-05 0.00000E+00
 -1       858 1.56344E-05 1.22969E-05 1.65436E-24
 -1       859 1.55741E-05 1.31836E-05-8.27181E-25
 -1       860 1.55137E-05 1.41370E-05-1.65436E-24
 -1       861 1.54533E-05 1.51426E-05 0.00000E+00
 -1       862 1.53927E-05 1.61857E-05 1.65436E-24
 -1       863 1.53321E-05 1.72518E-05-8.27181E-25
 -1       864 1.52715E-05 1.83263E-05 0.00000E+00
 -1       865 1.52109E-05 1.93947E-05-8.27181E-25
 -1       866 1.51504E-05 2.04423E-05 0.00000E+00
 -1       867 1.50899E-05 2.14545E-05 0.00000E+00
 -1       868 1.50295E-05 2.24168E-05 0.00000E+00
 -1       869 1.49695E-05 2.33147E-05-8.27181E-25
 -1       870 1.49094E-05 2.41336E-05 3.30872E-24
 -1       871 1.53409E-05 1.01761E-05 0.00000E+00
 -1       872 1.49104E-05 1.01703E-05 0.00000E+00
 -1       873 1.45045E-05 1.01643E-05 0.00000E+00
 -1       874 1.41086E-05 1.01582E-05 1.03398E-25
 -1       875 1.37078E-05 1.01518E-05 0.00000E+00
 -1       876 1.56702E-05 1.08017E-05-1.65436E-24
 -1       877 1.54979E-05 1.15169E-05-8.27181E-25
 -1       878 1.52949E-05 1.23137E-05 0.00000E+00
 -1       879 1.50662E-05 1.31801E-05 0.00000E+00
 -1       880 1.48160E-05 1.41041E-05 0.00000E+00
 -1       881 1.45487E-05 1.50737E-05 1.65436E-24
 -1       882 1.42688E-05 1.60770E-05 3.30872E-24
 -1       883 1.39806E-05 1.71022E-05 1.65436E-24
 -1       884 1.36887E-05 1.81373E-05 3.30872E-24
 -1       885 1.33975E-05 1.91706E-05 1.65436E-24
 -1       886 1.31114E-05 2.01901E-05 3.30872E-24
 -1       887 1.28348E-05 2.11841E-05 0.00000E+00
 -1       888 1.25723E-05 2.21406E-05 0.00000E+00
 -1       889 1.23277E-05 2.30475E-05 0.00000E+00
 -1       890 1.21062E-05 2.38932E-05 0.00000E+00
 -1       891 1.42720E-05 2.48269E-05 8.27181E-25
 -1       892 1.38083E-05 2.47941E-05 0.00000E+00
 -1       893 1.34001E-05 2.47614E-05 0.00000E+00
 -1       894 1.29874E-05 2.47287E-05-4.13590E-25
 -1       895 1.25100E-05 2.46960E-05 8.27181E-25
 -1       896 1.09236E-07 7.40856E-07-3.30872E-24
 -1       897 2.18856E-07 1.76750E-06-1.65436E-24
 -1       898 3.28223E-07 2.99503E-06 0.00000E+00
 -1       899 4.37563E-07 4.33954E-06 1.65436E-24
 -1       900 5.46822E-07 5.74799E-06 0.00000E+00
 -1       901 6.56089E-07 7.16773E-06 0.00000E+00
 -1       902 7.65408E-07 8.54903E-06-3.30872E-24
 -1       903 8.74838E-07 9.84197E-06 1.65436E-24
 -1       904 9.84449E-07 1.09733E-05-3.30872E-24
 -1       905 1.09426E-06 1.18690E-05 0.00000E+00
 -1       906 1.20429E-06 1.23927E-05 3.30872E-24
 -1       907 1.31431E-06 1.24062E-05-1.65436E-24
 -1       908 1.42398E-06 1.16366E-05 0.00000E+00
 -1       909 1.53159E-06 9.80686E-06 0.00000E+00
 -1       910 1.63520E-06 6.36073E-06 0.00000E+00
 -1       911 1.71991E-06-4.70346E-06 4.13590E-25
 -1       912 1.72462E-06-7.57298E-06 2.06795E-25
 -1       913 1.73320E-06-8.30332E-06 2.06795E-25
 -1       914 1.74153E-06-7.32220E-06 1.03398E-25
 -1       915 1.74789E-06-5.02369E-06-2.06795E-25
 -1       916 1.75178E-06-1.80137E-06 1.03398E-25
 -1       917 1.75387E-06 1.96935E-06 0.00000E+00
 -1       918 1.75531E-06 5.91339E-06 0.00000E+00
 -1       919 1.75747E-06 9.65897E-06 0.00000E+00
 -1       920 1.76152E-06 1.28342E-05 1.03398E-25
 -1       921 1.76795E-06 1.50562E-05 0.00000E+00
 -1       922 1.77632E-06 1.59414E-05 1.03398E-25
 -1       923 1.78456E-06 1.50802E-05 0.00000E+00
 -1       924 1.78847E-06 1.20621E-05 0.00000E+00
 -1       925 1.78146E-06 6.43470E-06 0.00000E+00
 -1       926 1.61653E-06-1.25390E-05-1.65436E-24
 -1       927 1.47854E-06-2.29157E-05 0.00000E+00
 -1       928 1.34785E-06-3.25310E-05 0.00000E+00
 -1       929 1.23044E-06-4.05341E-05 0.00000E+00
 -1       930 1.12722E-06-4.63639E-05 0.00000E+00
 -1       931 1.03563E-06-4.94680E-05-1.65436E-24
 -1       932 9.48564E-07-4.97836E-05 3.30872E-24
 -1       933 8.58448E-07-4.72591E-05 0.00000E+00
 -1       934 7.60034E-07-4.23529E-05 0.00000E+00
 -1       935 6.50759E-07-3.55328E-05 0.00000E+00
 -1       936 5.33828E-07-2.76110E-05 0.00000E+00
 -1       937 4.14422E-07-1.94040E-05 0.00000E+00
 -1       938 2.99311E-07-1.17793E-05 0.00000E+00
 -1       939 1.92522E-07-5.60249E-06 0.00000E+00
 -1       940 9.60953E-08-1.47740E-06-6.61744E-24
 -1       941 8.30284E-07 1.40468E-07 1.32349E-23
 -1       942 1.70647E-06 2.63357E-07 0.00000E+00
 -1       943 2.57974E-06 3.76970E-07-2.64698E-23
 -1       944 3.46176E-06 4.89236E-07 1.32349E-23
 -1       945 4.34402E-06 6.00788E-07-2.64698E-23
 -1       946 5.22803E-06 7.12240E-07-1.32349E-23
 -1       947 6.11224E-06 8.23640E-07-2.64698E-23
 -1       948 6.99674E-06 9.35033E-07-1.32349E-23
 -1       949 7.88127E-06 1.04644E-06-2.64698E-23
 -1       950 8.76559E-06 1.15788E-06 0.00000E+00
 -1       951 9.64974E-06 1.26956E-06 2.64698E-23
 -1       952 1.05325E-05 1.38169E-06 1.32349E-23
 -1       953 1.14151E-05 1.49696E-06 0.00000E+00
 -1       954 1.22906E-05 1.61819E-06 0.00000E+00
 -1       955 1.31685E-05 1.78052E-06 0.00000E+00
 -1       956 1.39654E-05 2.34259E-06 2.06795E-25
 -1       957 1.39204E-05 2.71375E-06 3.10193E-25
 -1       958 1.38753E-05 3.12929E-06-8.27181E-25
 -1       959 1.38300E-05 3.58390E-06 8.27181E-25
 -1       960 1.37848E-05 4.07229E-06-8.27181E-25
 -1       961 1.37395E-05 4.58910E-06 8.27181E-25
 -1       962 1.36942E-05 5.12900E-06 8.27181E-25
 -1       963 1.36489E-05 5.68663E-06-4.13590E-25
 -1       964 1.36035E-05 6.25663E-06-1.65436E-24
 -1       965 1.35582E-05 6.83367E-06 0.00000E+00
 -1       966 1.35129E-05 7.41238E-06 1.65436E-24
 -1       967 1.34676E-05 7.98742E-06-8.27181E-25
 -1       968 1.34223E-05 8.55343E-06 0.00000E+00
 -1       969 1.33771E-05 9.10509E-06-8.27181E-25
 -1       970 1.33320E-05 9.63707E-06 0.00000E+00
 -1       971 1.32037E-05 1.06887E-05 1.65436E-24
 -1       972 1.31176E-05 1.13504E-05 0.00000E+00
 -1       973 1.30314E-05 1.21149E-05 3.30872E-24
 -1       974 1.29448E-05 1.29674E-05 0.00000E+00
 -1       975 1.28581E-05 1.38931E-05 0.00000E+00
 -1       976 1.27712E-05 1.48773E-05-1.65436E-24
 -1       977 1.26843E-05 1.59052E-05 0.00000E+00
 -1       978 1.25974E-05 1.69618E-05 1.65436E-24
 -1       979 1.25105E-05 1.80323E-05 3.30872E-24
 -1       980 1.24235E-05 1.91018E-05 0.00000E+00
 -1       981 1.23366E-05 2.01553E-05 0.00000E+00
 -1       982 1.22499E-05 2.11781E-05 0.00000E+00
 -1       983 1.21632E-05 2.21551E-05 0.00000E+00
 -1       984 1.20771E-05 2.30717E-05 8.27181E-25
 -1       985 1.19910E-05 2.39129E-05 0.00000E+00
 -3
    1PSTEP                        40          20           1          
  100CL  120 3.34394E-01         841                     0   20           1
 -4  STRESS      6    1
 -5  SXX         1    4    1    1
 -5  SYY         1    4    2    2
 -5  SZZ         1    4    3    3
 -5  SXY         1    4    1    2
 -5  SYZ         1    4    2    3
 -5  SZX         1    4    3    1
 -1         1-1.34499E+06-4.40524E+05-2.76001E+05-4.06069E+05-2.18279E-10 4.70512E-10
 -1         2-7.55583E+05-2.45030E+04 7.41720E+03-4.50946E+04-1.29154E-09 4.16492E-10
 -1         3-4.69663E+05-1.49305E+05-2.32168E+04-1.90467E+04 1.40471E-09 1.31877E-09
 -1         4-3.35590E+05-3.93485E+04 1.10625E+03-3.67289E+04 1.23559E-09-8.95767E-10
 -1         5-1.99300E+05 3.93771E+04-7.73429E+04-4.02715E+03 6.17820E-09 7.37828E-11
 -1         8-6.35923E+05-2.52363E+05-8.09577E+04-2.58930E+05-4.36557E-11 3.09228E-10
 -1         9-7.04528E+05-1.66845E+05-7.53328E+04-1.73949E+05-9.82254E-11 3.15292E-11
 -1        10-2.02502E+05-1.42205E+05 2.27947E+04-3.91657E+04-4.82108E-09-8.16120E-10
 -1        11-1.51602E+05-2.80410E+04 5.27015E+03-5.05042E+04-1.64930E-08-2.36817E-09
 -1        12-1.55491E+05 4.00546E+04-6.82343E+04-2.51870E+04 1.46150E-09 7.62697E-10
 -1        15 1.45369E+04 9.34026E+03 6.34258E+03-2.12287E+04-6.73026E-11 5.50608E-09
 -1        16-5.11285E+05-8.17247E+04 1.65890E+04-2.01759E+05 4.37467E-10 3.56727E-09
 -1        17-2.85127E+05-1.79369E+05-3.17005E+04-1.47219E+05-2.18097E-09 1.33393E-11
 -1        18-2.23105E+04-2.12256E+04-1.89759E+04-4.93618E+04 3.67815E-09-1.13717E-09
 -1        19 8.79306E+03 4.66855E+04-1.59491E+04-9.28311E+03-4.32768E-10-6.18456E-11
 -1        20 4.44602E+04-3.37044E+04-5.79867E+03 2.41683E+04 1.44075E-09-6.36646E-12
 -1        21 8.38252E+02-6.67752E+04 1.85799E+04 1.41079E+01 5.60186E-09-3.46016E-10
 -1        22 2.29537E+04 7.87368E+04 3.44960E+03-7.91606E+03-3.65162E-10-1.03500E-09
 -1        23-7.48423E+04 5.49084E+04 8.04908E+03-1.87467E+04-4.16442E-09-2.91069E-09
 -1        24-1.35045E+05-1.43885E+04 1.16488E+05-2.18533E+05-6.75451E-09 8.70690E-10
 -1        25 2.59650E+05 8.64180E+04 7.95875E+04-1.32323E+05 6.35055E-10-5.82077E-11
 -1        26 8.65345E+02 7.06923E+04 3.54402E+03-1.22195E+04-3.80510E-10-5.15153E-10
 -1        27-1.51961E+04-2.81196E+04-1.21163E+04 3.40728E+04 1.87507E-10-1.52340E-09
 -1        28-5.35529E+03-5.31113E+04-2.91630E+02 2.56127E+04-1.80660E-09-1.41142E-09
 -1        29 1.53300E+05 1.20264E+05 5.14705E+02 2.73069E+03 7.52340E-11 2.91038E-10
 -1        30 3.43632E+04 1.76918E+04 3.32065E+03-1.44850E+04 1.23719E-09-7.28937E-09
 -1        31-7.92476E+04 1.89524E+04 8.23043E+03-2.91162E+04 3.01170E-09-1.41242E-08
 -1        32 4.46290E+05 2.27444E+05 2.79538E+05-2.17883E+05 5.04892E-09 2.58296E-10
 -1        33 6.18468E+05 2.45533E+05 1.89243E+05-1.88139E+04-1.24137E-08 1.63936E-10
 -1        34-8.93885E+04-1.10012E+04-1.79373E+03 2.00129E+04-7.63453E-10-7.97172E-10
 -1        35-1.52144E+04-1.77653E+04-3.18053E+02 3.84376E+04 2.49975E-09-9.75585E-10
 -1        36-1.65565E+06 4.85609E+04-1.12204E+05-1.03244E-07-3.61530E-10-2.46655E-09
 -1        37-1.70424E+06-5.62114E+04-7.94126E+04-2.53905E-07 2.52577E-10 6.27551E-10
 -1        38-1.67440E+06 7.61168E+03-2.90345E+04-1.87815E-07-2.10583E-10 2.65391E-09
 -1        39-1.68235E+06-8.80838E+03-1.82607E+04-1.97659E-07-2.39998E-09-6.02540E-11
 -1        40-1.67749E+06 1.19066E+03-7.46087E+03-3.93515E-08-6.81709E-10-1.48157E-09
 -1        41-1.67873E+06-1.39466E+03-4.45423E+03 8.47345E-08 6.26826E-10-1.50675E-09
 -1        42-1.67800E+06 2.03188E+02-2.17593E+03 1.56478E-07-1.35257E-09-1.38476E-09
 -1        43-1.67819E+06-3.56375E+02-1.72188E+03 7.03002E-08 1.15811E-09 2.65700E-10
 -1        44-1.67803E+06 1.53040E+02-1.72739E+03-1.30722E-07-1.08235E-09 5.27564E-10
 -1        45-1.67850E+06-9.63479E+02-3.15539E+03-2.00911E-08-6.14187E-10-3.08501E-09
 -1        46-1.67769E+06 8.09886E+02-5.12321E+03-3.01421E-08-5.59402E-10 2.17369E-09
 -1        47-1.68094E+06-5.97706E+03-1.24184E+04-1.68718E-07-1.72949E-09-7.89214E-10
 -1        48-1.67560E+06 5.16304E+03-1.97094E+04 5.17515E-08-1.15607E-10-2.66664E-09
 -1        49-1.69579E+06-3.81271E+04-5.38714E+04-2.26836E-07-2.80635E-09-2.89947E-09
 -1        50-1.66289E+06 3.29362E+04-7.61196E+04-1.90147E-07-2.23602E-09 8.94943E-10
 -1        51 1.55263E+04-1.85934E+05 2.46741E+04-4.85890E+05 0.00000E+00-1.33878E-09
 -1        52 6.56925E+03-1.83032E+05 1.48695E+04-5.34828E+05 8.00355E-11 8.11269E-10
 -1        53 3.89981E+03-1.86998E+05 1.19519E+04-4.84648E+05-7.27596E-12-1.44792E-09
 -1        54 9.34417E+03-1.84516E+05 1.81210E+04-5.36181E+05-2.00089E-10 5.09317E-11
 -1        55 2.28847E+04-1.90049E+05 3.28787E+04-4.84455E+05 2.18279E-11-1.89175E-10
 -1        56-2.19653E+06-2.47832E+05-1.81689E+05-8.49957E+05 2.91038E-10-1.09139E-10
 -1        57-2.28151E+06-3.96129E+05-1.21882E+05-8.29110E+05 3.25144E-10-5.96629E-10
 -1        58-2.23167E+06-3.05308E+05-4.27956E+04-8.40227E+05-8.09450E-11-1.98997E-09
 -1        59-2.24103E+06-3.28357E+05-2.53717E+04-8.40736E+05 2.26237E-10 1.56615E-09
 -1        60-2.23657E+06-3.13328E+05-1.00069E+04-8.39136E+05-1.26192E-10 9.59517E-11
 -1        61-2.23558E+06-3.18752E+05-5.66338E+03-8.41796E+05 3.26054E-10 3.12275E-09
 -1        62-2.23705E+06-3.14629E+05-2.76223E+03-8.39258E+05 3.36172E-10 1.65170E-09
 -1        63-2.23539E+06-3.17102E+05-2.31319E+03-8.41322E+05 2.42977E-10-8.00526E-10
 -1        64-2.23674E+06-3.14949E+05-2.69231E+03-8.39616E+05 1.68342E-09-5.79121E-10
 -1        65-2.23676E+06-3.17464E+05-5.45605E+03-8.40393E+05 1.24274E-09-5.89318E-09
 -1        66-2.23569E+06-3.14296E+05-9.61489E+03-8.40178E+05 5.91854E-10-2.84217E-10
 -1        67-2.24309E+06-3.25586E+05-2.43563E+04-8.38119E+05-6.91102E-10 8.57654E-10
 -1        68-2.23049E+06-3.07101E+05-4.10805E+04-8.41800E+05-4.24734E-10-8.73115E-10
 -1        69-2.28280E+06-3.89771E+05-1.16986E+05-8.25972E+05 9.17225E-10 2.88128E-09
 -1        70-2.19640E+06-2.52296E+05-1.74400E+05-8.51553E+05-9.42237E-10 1.36788E-09
 -1        71-9.35049E+05 4.56723E+03-1.05628E+04 1.56386E-07-9.35764E-10 1.62345E-10
 -1        72-9.39549E+05-5.28748E+03-7.47619E+03-5.67600E-08 3.66061E-10 8.65271E-10
 -1        73-9.36813E+05 7.16129E+02-2.74107E+03-2.26135E-07-5.77804E-10-9.66338E-10
 -1        74-9.37492E+05-8.29894E+02-1.73572E+03 5.63739E-08 4.08762E-10-3.68505E-09
 -1        75-9.37103E+05 1.13178E+02-7.34921E+02 2.36607E-08 3.30073E-11 6.12772E-11
 -1        76-9.37157E+05-1.40211E+02-4.88697E+02-9.15743E-08-1.28430E-09 1.16871E-09
 -1        77-9.37146E+05 2.69537E+01-3.34752E+02 2.12526E-08-2.93085E-10-5.20074E-10
 -1        78-9.37136E+05-9.25705E+01-4.47925E+02 1.01190E-07 5.21583E-10 3.19461E-09
 -1        79-9.37124E+05 6.55783E+01-6.80676E+02 8.55575E-08 1.11227E-09 5.06304E-10
 -1        80-9.37336E+05-4.72326E+02-1.49011E+03-1.16327E-07 3.32598E-10 5.79462E-10
 -1        81-9.36947E+05 4.06464E+02-2.53729E+03-1.14646E-07 5.25191E-11-4.82942E-10
 -1        82-9.38573E+05-3.01056E+03-6.23858E+03 2.26704E-07 1.67847E-09 2.45564E-11
 -1        83-9.35890E+05 2.60199E+03-9.92895E+03-1.22997E-07-6.69557E-10-1.10822E-09
 -1        84-9.46055E+05-1.92159E+04-2.71548E+04-2.08975E-07-8.84724E-10 1.53705E-10
 -1        85-9.29477E+05 1.65993E+04-3.83783E+04-1.70583E-07-1.59579E-09-1.49157E-10
 -1        86-3.64156E+04 1.04492E+05 8.56711E+04 9.01786E+02-2.91038E-11-1.30729E-08
 -1        87 4.57442E+04 1.43256E+05 6.70103E+04-3.80540E+03-5.31145E-10-1.80885E-07
 -1        88-9.28771E+03 1.17042E+05 3.50505E+04 6.46739E+02-9.29549E-08-6.48619E-05
 -1        89 3.36549E+04 1.37508E+05 5.12403E+04-3.59519E+03-2.02931E-07-1.29240E-04
 -1        90-2.43347E+04 1.10232E+05 5.86183E+04 6.91603E+02-8.31387E-08-6.49017E-05
 -1        91-7.31436E+05-1.31062E+05-1.12468E+04-2.99631E+05 1.31365E-08 2.60570E-10
 -1        92-6.79824E+05-2.97564E+04 1.65411E+04-1.75490E+05 2.82411E-08-2.08826E-09
 -1        93-6.71993E+05-1.21679E+05-6.68284E+02-2.93522E+05-2.97678E-09-2.87790E-09
 -1        94-6.14764E+05-4.21662E+04 2.56364E+04-1.77120E+05-2.66913E-08 2.38742E-09
 -1        95-7.95300E+05-1.19879E+05-2.41149E+04-2.96933E+05-9.04015E-09-1.12618E-09
 -1        96-5.36402E+05-9.27833E+04 3.07667E+04-2.32922E+05 2.55759E-08 2.10690E-09
 -1        97-7.49760E+05-7.16564E+04-6.63094E+03-2.37276E+05-3.93811E-09 6.35163E-09
 -1        98-5.86882E+05-1.40402E+05 1.13928E+04-2.95895E+05-1.47858E-08 1.22330E-08
 -1        99-7.46758E+05-7.02941E+04-6.11078E+03-2.35588E+05 1.63666E-08 4.88586E-09
 -1       100-5.37793E+05-9.52243E+04 2.92325E+04-2.35531E+05 1.42392E-08 9.05527E-09
 -1       101-7.96970E+05-1.18742E+05-2.59203E+04-2.96063E+05 4.94924E-09 3.55726E-09
 -1       102-6.11776E+05-4.51466E+04 2.19797E+04-1.77162E+05-6.59574E-09 5.93991E-09
 -1       103-6.73240E+05-1.19911E+05-8.20537E+03-2.94286E+05-1.65562E-08-2.06637E-09
 -1       104-6.89908E+05-4.45587E+04-4.60858E+03-1.72731E+05 1.72258E-09-1.51203E-09
 -1       105-7.20147E+05-1.18004E+05-4.04880E+04-3.01656E+05 7.05768E-09 6.99038E-09
 -1       106-7.21863E+05 8.51279E+03-1.96860E+04-1.37418E-07 6.03400E-10 3.54703E-10
 -1       107-7.30344E+05-9.85500E+03-1.39306E+04 1.66444E-07-9.29768E-11 1.50521E-10
 -1       108-7.25152E+05 1.33455E+03-5.09945E+03 6.55369E-08-5.98873E-10 2.03613E-09
 -1       109-7.26508E+05-1.54505E+03-3.21361E+03-1.42649E-07-3.81628E-10-1.01932E-09
 -1       110-7.25694E+05 2.09405E+02-1.32768E+03-4.95203E-08-2.02051E-10 3.61467E-10
 -1       111-7.25878E+05-2.49489E+02-8.20170E+02 1.03474E-07 1.19833E-10 2.70596E-09
 -1       112-7.25781E+05 3.99394E+01-4.53666E+02-4.45296E-08 1.94618E-10 3.78414E-10
 -1       113-7.25800E+05-9.49747E+01-4.59743E+02 2.18597E-07 3.12813E-10-4.07534E-10
 -1       114-7.25772E+05 5.49959E+01-5.88555E+02 5.25358E-08 3.54006E-11-5.26740E-10
 -1       115-7.25948E+05-3.78947E+02-1.21063E+03 2.16082E-09 8.50487E-10-1.17466E-09
 -1       116-7.25634E+05 3.23727E+02-2.03045E+03 1.22799E-07 2.33058E-10-9.93623E-11
 -1       117-7.26930E+05-2.39509E+03-4.96914E+03-1.96063E-08-1.42581E-09-2.63697E-10
 -1       118-7.24793E+05 2.06966E+03-7.90177E+03-7.95669E-08-1.14799E-09-2.37378E-10
 -1       119-7.32880E+05-1.52842E+04-2.16020E+04-9.17306E-08-1.63406E-11 1.97133E-10
 -1       120-7.19691E+05 1.32030E+04-3.05289E+04 7.82808E-08 2.37486E-10 1.00772E-09
 -1       121-6.97656E+02-4.68957E+05 3.15188E+03 3.30998E+03-2.80579E-10-6.43922E-10
 -1       122 9.33057E+02-4.67762E+05 1.91617E+03 1.17940E+04-6.76124E-10 5.84805E-10
 -1       123-6.62795E+01-4.68460E+05 5.94623E+02 3.39526E+03-8.28493E-10 3.87354E-09
 -1       124-1.84592E+02-4.68407E+05-9.87748E+01 1.15853E+04-1.68097E-09 7.47696E-09
 -1       125 1.49532E+02-4.68275E+05-6.93605E+02 3.51853E+03-1.61970E-09 6.70661E-09
 -1       126-2.96758E+05-5.61412E+04 9.61841E+03-1.13444E+05 1.26136E-08-5.50244E-10
 -1       127-2.40397E+05-7.01194E+03 2.01388E+04-7.30196E+04 2.63727E-08 1.64755E-09
 -1       128-2.64044E+05-4.93907E+04 2.49212E+03-1.13567E+05 9.03408E-09-2.57182E-09
 -1       129-2.80171E+05-1.48113E+04 3.81777E+03-7.39325E+04 2.11713E-08 4.37581E-10
 -1       130-2.57552E+05-4.79278E+04 6.98460E+02-1.12982E+05 2.00106E-08 4.62393E-10
 -1       131-2.60395E+05-1.65324E+04 5.72786E+03-7.16868E+04-2.97629E-08-5.20500E-09
 -1       132-2.83485E+05-4.79205E+04-4.99708E+03-1.15541E+05-1.00415E-08 3.59108E-09
 -1       133-2.15642E+05-2.27867E+04 1.28139E+04-7.40567E+04 2.72237E-08-1.21210E-09
 -1       134-3.01645E+05-4.21683E+04-7.60781E+03-1.10106E+05 1.58366E-09-1.40574E-10
 -1       135-2.09655E+05-3.93940E+04 1.04954E+04-9.42304E+04 1.82519E-08-3.75158E-09
 -1       136-2.89636E+05-3.11926E+04-3.63549E+03-9.55185E+04-4.78713E-09-3.23234E-09
 -1       137-2.35160E+05-5.58183E+04 1.56001E+03-1.17522E+05-1.59846E-08-4.38975E-09
 -1       138-2.76857E+05-2.52052E+04-1.67627E+03-8.73422E+04 2.05091E-08 4.91013E-09
 -1       139-2.36204E+05-5.75303E+04-2.38321E+03-1.17174E+05-2.46622E-08-1.98193E-08
 -1       140-2.88590E+05-2.94837E+04-1.18168E+04-9.58651E+04-1.85185E-08-3.63571E-09
 -1       141-3.79368E+05-4.72339E+01 1.06732E+02 7.98390E-08-1.48153E-10-7.82961E-10
 -1       142-3.79287E+05 5.43936E+01 7.06298E+01-6.26854E-08-4.38233E-10-9.44082E-10
 -1       143-3.79349E+05-7.11635E+00 1.46224E+01-8.90981E-08-4.77915E-10-1.05521E-09
 -1       144-3.79310E+05 6.25828E+00-1.12311E+01 4.71236E-08-3.86316E-10-1.33038E-10
 -1       145-3.79345E+05 8.65248E-01-4.84333E+01 2.13685E-07-5.07190E-11 3.05533E-12
 -1       146-3.79323E+05-1.41420E+01-1.14823E+02 2.90561E-08-6.15852E-11 1.85564E-10
 -1       147-3.79336E+05 1.32759E+01-2.21179E+02-3.11184E-09-5.27755E-11 1.79394E-09
 -1       148-3.79374E+05-1.01126E+02-4.89851E+02-2.46046E-08-9.13289E-11 8.62748E-10
 -1       149-3.79293E+05 8.78076E+01-8.89310E+02-9.71846E-08-4.89053E-11 6.55120E-10
 -1       150-3.79667E+05-6.54990E+02-2.04860E+03 1.50876E-07-4.39189E-10 8.75190E-10
 -1       151-3.79044E+05 5.66795E+02-3.52884E+03-4.10272E-08-2.14795E-10 1.33582E-09
 -1       152-3.81396E+05-4.20149E+03-8.70403E+03-2.60140E-08 3.86835E-10 1.30967E-09
 -1       153-3.77566E+05 3.63175E+03-1.38614E+04-1.41301E-08 1.56702E-09 1.02773E-10
 -1       154-3.91836E+05-2.68211E+04-3.79084E+04-2.78668E-08 9.46513E-10-1.16961E-09
 -1       155-3.68607E+05 2.31692E+04-5.35718E+04-3.86995E-08 3.77940E-09-7.23958E-10
 -1       156-1.29057E+04-6.22072E+04 2.89247E+04 8.24656E+03 2.69574E-09 7.61702E-11
 -1       157 1.54457E+04-4.08688E+04 2.34323E+04-3.31244E+04 7.31643E-09-4.91539E-10
 -1       158-2.41675E+03-5.62825E+04 1.05370E+04 8.27709E+03 3.63571E-09-4.72880E-10
 -1       159 1.05667E+04-2.53208E+04 1.88784E+04-3.20525E+04 1.49129E-09 5.90120E-10
 -1       160-8.36139E+03-7.73023E+04 1.04583E+04 7.17656E+03-5.57429E-09-2.19757E-09
 -1       161-3.22713E+05-4.86065E+04 1.92644E+02-1.23423E+05-8.31182E-09-1.04251E-10
 -1       162-3.19480E+05-3.65172E+04 2.31762E+03-1.10537E+05-9.64280E-09 5.06816E-10
 -1       163-3.15409E+05-4.96193E+04 1.60894E+02-1.25224E+05 7.94078E-09-1.73543E-09
 -1       164-3.26975E+05-3.55494E+04 4.44082E+02-1.08773E+05-6.85731E-10 3.07665E-10
 -1       165-3.15302E+05-4.95034E+04-9.74188E+01-1.25256E+05-1.40402E-08-2.49452E-09
 -1       166-3.20126E+05-3.75319E+04 1.20464E+03-1.10293E+05-4.18495E-09 1.69166E-10
 -1       167-3.22176E+05-4.77077E+04-1.23568E+03-1.23636E+05-9.93055E-11 4.25516E-10
 -1       168-3.09409E+05-4.32927E+04 1.90174E+03-1.16211E+05 1.10288E-08 9.17371E-10
 -1       169-3.25936E+05-4.38146E+04-1.72074E+03-1.19270E+05-2.05010E-08 2.70930E-10
 -1       170-3.07535E+05-5.11179E+04-3.17027E+02-1.25062E+05-4.05658E-08-1.78993E-09
 -1       171-3.24133E+05-3.98108E+04-2.81893E+03-1.14854E+05 1.99012E-08 9.21762E-09
 -1       172-3.11011E+05-5.77601E+04-6.96274E+03-1.28998E+05 7.98499E-09 8.74593E-10
 -1       173-3.22545E+05-3.71031E+04-1.17326E+04-1.15400E+05-1.37857E-08-6.13909E-10
 -1       174-3.21024E+05-7.43909E+04-3.29150E+04-1.20494E+05 1.63142E-08 3.25008E-09
 -1       175-3.14038E+05-2.32666E+04-5.05729E+04-1.23286E+05 8.34007E-09-1.14596E-09
 -1       191 6.11562E+02 2.35493E+05 9.73381E+02-7.58632E+03-3.36513E-10-2.80215E-09
 -1       192 2.22214E+02 2.35629E+05 5.65406E+02-8.16122E+03-4.54577E-10-1.46383E-09
 -1       193 9.65484E+01 2.35541E+05 4.27367E+02-7.47900E+03-8.50264E-10-2.02617E-08
 -1       194 2.50327E+02 2.35633E+05 6.12719E+02-8.35936E+03-9.95669E-10-4.02870E-08
 -1       195 6.96331E+02 2.35477E+05 1.09131E+03-7.38780E+03-1.25601E-09-2.03563E-08
 -1       251-9.34143E+05 9.13471E+03-4.74632E+04-3.31471E+04-6.16183E-11-5.16775E-09
 -1       252-8.24717E+05-1.35038E+04-1.11408E+04 9.16476E+04 4.44413E-09 6.39920E-09
 -1       253-8.94431E+05 5.42949E+03-1.10336E+04-4.39429E+04-1.40949E-09-9.94032E-09
 -1       254-7.56333E+05 1.17728E+03 1.99599E+04 5.83098E+04-1.46747E-09 5.92161E-09
 -1       255-1.00051E+06-7.55922E+03-2.64205E+04 2.00514E+02 5.80008E-09-2.83717E-09
 -1       256-7.37198E+05 5.12659E+03 2.81009E+04-3.54941E+04 5.16002E-09-7.40033E-09
 -1       257-9.12965E+05 8.87764E+02-6.41424E+03 4.97980E+04-6.31644E-10 8.23387E-09
 -1       258-8.25348E+05-3.46080E+02 1.04616E+04-8.45398E+04-9.12901E-10-1.45150E-08
 -1       259-9.15102E+05 6.65583E+02-6.85127E+03 4.93111E+04-6.74004E-09 1.08490E-08
 -1       260-7.35473E+05 5.24592E+03 2.84937E+04-3.39766E+04 7.51743E-09-4.17126E-09
 -1       261-1.00004E+06-7.50811E+03-2.62558E+04-8.30163E+02 7.11088E-09 7.15772E-10
 -1       262-7.58354E+05 1.09286E+03 1.96837E+04 5.96561E+04 6.67796E-09 4.82305E-09
 -1       263-8.92939E+05 5.52672E+03-1.04592E+04-4.42582E+04-4.33681E-09-6.72253E-09
 -1       264-8.23646E+05-1.29331E+04-1.02678E+04 9.12754E+04-3.51060E-08 7.93784E-09
 -1       265-9.36678E+05 8.43981E+03-4.69828E+04-3.24592E+04-1.58698E-08-3.31602E-09
 -1       266-1.41276E+04-1.18719E+05 3.24464E+04-2.69232E+03-2.36469E-11 3.92220E-12
 -1       267 1.56846E+04-1.03984E+05 2.19479E+04 1.14117E+04-7.27596E-12-2.80451E-10
 -1       268-1.56052E+03-1.13500E+05 5.93105E+03-2.47966E+03-1.36424E-12-2.28360E-09
 -1       269-1.86252E+03-1.08984E+05-6.08453E+02 1.01883E+04 1.43245E-11 1.25628E-09
 -1       270 3.34560E+03-1.13642E+05-8.23138E+03-1.46944E+03 7.86713E-11 3.91117E-09
 -1       271-1.82133E+06-2.31480E+05-1.41632E+05-7.04376E+05 1.81899E-10-2.61934E-10
 -1       272-1.86767E+06-3.23224E+05-8.88006E+04-7.08272E+05-6.29484E-10-3.04135E-09
 -1       273-1.84583E+06-2.61881E+05-3.33984E+04-7.00851E+05 3.86322E-10-1.09139E-09
 -1       274-1.83924E+06-2.83086E+05-1.82288E+04-7.14953E+05-7.27596E-12-1.81899E-10
 -1       275-1.84882E+06-2.64788E+05-7.76183E+03-7.00285E+05-7.30552E-10-3.85489E-09
 -1       276-1.83571E+06-2.79398E+05-4.09001E+03-7.15986E+05 2.34991E-10 2.35366E-09
 -1       277-1.84933E+06-2.64942E+05-2.09855E+03-7.00079E+05-1.20963E-10 3.48166E-10
 -1       278-1.83517E+06-2.79236E+05-1.63038E+03-7.16290E+05 6.36646E-12-4.89067E-10
 -1       279-1.84939E+06-2.64890E+05-1.93768E+03-7.00020E+05-4.58584E-10 4.18822E-10
 -1       280-1.83548E+06-2.79547E+05-3.65312E+03-7.16245E+05-5.34897E-11 1.66119E-09
 -1       281-1.84903E+06-2.64666E+05-6.86330E+03-7.00110E+05 4.76007E-10 1.55524E-09
 -1       282-1.83847E+06-2.82943E+05-1.60962E+04-7.15510E+05-2.87002E-10 8.25139E-10
 -1       283-1.84645E+06-2.62035E+05-2.94669E+04-7.00540E+05 6.99515E-10 1.72440E-09
 -1       284-1.86344E+06-3.18473E+05-7.83564E+04-7.09754E+05 6.13909E-10 4.46562E-10
 -1       285-1.82489E+06-2.35158E+05-1.24968E+05-7.03593E+05-4.18368E-10-4.29281E-10
 -1       286-1.34461E+05-1.40593E+04 3.25080E+04-7.82280E+01 3.63940E-10 5.80258E-10
 -1       287-1.20209E+05 1.62763E+04 2.30224E+04-2.55774E+02-1.08891E-10 2.16460E-09
 -1       288-1.29019E+05-2.20478E+03 8.41213E+03 8.59652E+01-1.69898E-10 2.96041E-10
 -1       289-1.26569E+05 2.55127E+03 5.30870E+03-5.60089E+02-5.33960E-10-9.97716E-10
 -1       290-1.28104E+05-3.45179E+02 2.16867E+03 2.26099E+02 4.88178E-10-3.37423E-10
 -1       291-1.27648E+05 4.05772E+02 1.31235E+03-7.81071E+02 1.64295E-09-1.62770E-09
 -1       292-1.27941E+05-6.02112E+01 6.61715E+02 3.06951E+02 3.22444E-07 2.15721E-09
 -1       293-1.27815E+05 1.16443E+02 5.66837E+02-8.66933E+02 6.34780E-07 1.99345E-10
 -1       294-1.27937E+05-5.57173E+01 6.21995E+02 3.11963E+02 3.21592E-07 6.27703E-09
 -1       295-1.27673E+05 3.67418E+02 1.19605E+03-8.00124E+02 1.38845E-09-3.38432E-10
 -1       296-1.28083E+05-3.11272E+02 1.96113E+03 2.40140E+02 1.91918E-10 2.65049E-09
 -1       297-1.26698E+05 2.29977E+03 4.78826E+03-5.94319E+02 4.80043E-10 3.26696E-09
 -1       298-1.28910E+05-1.98728E+03 7.58315E+03 1.06155E+02-9.42606E-11 7.11680E-10
 -1       299-1.20960E+05 1.46705E+04 2.07523E+04-2.97126E+02 2.44853E-11-1.38334E-09
 -1       300-1.33818E+05-1.26723E+04 2.92988E+04-5.70632E+01 6.07855E-10-4.43833E-10
 -1       301 2.46055E+04 4.08499E+03 5.52856E+04-1.69972E+04-4.43833E-10 4.36040E-09
 -1       302 8.34843E+03 1.45306E+04 3.40912E+04-2.00163E+04-5.20231E-10 2.59835E-09
 -1       303 2.32587E+03 7.77876E+03 2.76280E+04-1.70046E+04-6.04814E-10 4.24166E-10
 -1       304 1.10855E+04 1.61807E+04 4.15175E+04-1.99972E+04-6.74845E-10-1.11584E-10
 -1       305 3.34510E+04 2.44198E+03 7.32733E+04-1.70071E+04-4.29281E-10 1.07434E-10
 -1       306-1.20237E+06-1.58055E+05-7.81153E+04-4.66019E+05 5.78439E-10-9.05857E-10
 -1       307-1.21997E+06-2.16460E+05-4.89544E+04-4.77194E+05 4.04725E-11-7.43967E-10
 -1       308-1.21594E+06-1.74727E+05-1.84283E+04-4.64025E+05 6.73026E-11 6.33008E-10
 -1       309-1.20429E+06-1.94400E+05-1.00607E+04-4.80974E+05-1.38243E-10-1.05069E-09
 -1       310-1.21760E+06-1.76312E+05-4.29868E+03-4.63710E+05-1.59912E-09 1.36015E-09
 -1       311-1.20237E+06-1.92351E+05-2.29122E+03-4.81542E+05-4.94720E-09 5.50244E-11
 -1       312-1.21786E+06-1.76414E+05-1.22892E+03-4.63621E+05-1.65107E-09 1.14475E-09
 -1       313-1.20215E+06-1.92208E+05-1.05593E+03-4.81638E+05-1.55559E-10 7.61247E-10
 -1       314-1.21784E+06-1.76423E+05-1.38655E+03-4.63634E+05-1.80671E-09 3.21870E-09
 -1       315-1.20247E+06-1.92358E+05-2.72359E+03-4.81478E+05-2.59422E-09 4.65661E-09
 -1       316-1.21752E+06-1.76307E+05-5.17958E+03-4.63750E+05-2.17733E-09 1.79261E-09
 -1       317-1.20479E+06-1.94844E+05-1.21657E+04-4.80797E+05 5.11591E-11-5.57748E-10
 -1       318-1.21551E+06-1.74375E+05-2.22954E+04-4.64117E+05 3.91083E-11 1.06411E-09
 -1       319-1.22372E+06-2.21590E+05-5.92435E+04-4.76287E+05 1.97886E-10 7.73980E-10
 -1       320-1.19913E+06-1.54153E+05-9.45213E+04-4.66487E+05-1.15870E-09-2.32831E-10
 -1       321-2.79054E+05-7.98580E+03 1.54316E+04-3.30757E+03-3.17419E-09-1.43609E-09
 -1       322-2.57237E+05 9.12738E+03 1.35850E+04 1.08420E+04-1.25555E-08 2.96018E-09
 -1       323-2.71141E+05-1.16244E+03 4.06232E+03-6.70140E+03 4.62396E-09-1.77397E-09
 -1       324-2.67152E+05 1.32314E+03 2.97672E+03 1.48938E+04 2.24225E-08 6.39324E-09
 -1       325-2.69308E+05-5.78858E+01 1.10181E+03-7.36137E+03-1.84545E-09-6.65204E-09
 -1       326-2.64816E+05 2.45552E+02 1.44303E+03 1.32266E+04-2.16176E-10 4.38393E-09
 -1       327-2.73402E+05-1.44379E+02-5.94218E+02-5.03312E+03 1.13308E-08-3.83478E-09
 -1       328-2.56807E+05 3.61779E+02 2.54957E+03 6.42896E+03 5.14461E-10 2.66703E-09
 -1       329-2.77108E+05-3.37766E+02-1.63326E+03-5.62716E+02 2.20507E-09-6.81595E-10
 -1       330-2.55124E+05 3.63697E+02 2.62468E+03-2.86229E+03 2.68690E-09-2.31443E-09
 -1       331-2.75040E+05-1.81517E+02-1.54608E+03 4.25559E+03 1.16262E-09 6.63420E-10
 -1       332-2.62429E+05-2.15527E+02 4.82544E+02-1.08746E+04-2.23685E-08-4.45415E-09
 -1       333-2.69987E+05 3.84567E+02-1.63650E+03 7.44989E+03-1.81195E-08 6.58241E-09
 -1       334-2.69261E+05-2.54417E+03-3.65930E+03-1.44528E+04-1.93689E-08-3.74985E-09
 -1       335-2.68358E+05 2.26289E+03-5.63978E+03 7.83621E+03 1.07736E-08 4.71914E-09
 -1       336 4.61471E+02-4.80266E+05-2.74849E+03-8.18863E+03-2.27777E-09-1.63391E-09
 -1       337-9.81266E+02-4.81331E+05-3.40179E+03-3.04415E+04-4.03122E-09 2.02817E-10
 -1       338 4.06527E+02-4.80299E+05-4.57475E+03-8.10386E+03-2.63049E-09-9.58607E-10
 -1       339-4.82471E+03-4.83690E+05-1.04071E+04-3.05093E+04-4.57931E-09 1.75945E-09
 -1       340 3.47698E+03-4.77941E+05-1.60824E+04-8.12169E+03-2.43381E-09 2.39322E-09
 -1       341-3.73806E+05-7.12745E+04-6.62752E+03-1.47565E+05 3.42027E-08 5.30008E-09
 -1       342-2.66970E+05-1.37221E+02 2.26666E+04-6.73434E+04 1.59754E-08 8.15589E-10
 -1       343-3.08013E+05-6.23170E+04 1.40281E+02-1.40967E+05-2.62129E-08-1.56095E-08
 -1       344-3.32430E+05-9.12376E+03 4.55568E+03-7.42057E+04 5.76667E-08 6.10510E-09
 -1       345-3.09398E+05-6.14838E+04-1.65510E+03-1.41575E+05 6.91088E-08 1.03853E-09
 -1       346-2.67267E+05-8.96070E+03 1.64210E+04-6.51667E+04-2.69379E-08-3.82244E-09
 -1       347-3.72056E+05-6.33449E+04-1.43589E+04-1.49076E+05 1.34874E-08-2.49304E-09
 -1       348-1.90271E+05-2.27797E+04 2.83683E+04-7.38463E+04 2.93697E-08-2.80227E-09
 -1       349-3.85280E+05-4.85313E+04-1.44877E+04-1.32071E+05-1.04458E-08-4.42452E-09
 -1       350-2.22297E+05-5.76013E+04 1.45885E+04-1.20510E+05 8.30232E-09-8.68150E-09
 -1       351-3.41152E+05-2.76596E+04-3.69054E+03-1.03316E+05-1.08153E-08-1.23019E-08
 -1       352-2.68013E+05-7.88179E+04-1.68295E+03-1.49642E+05-7.29925E-08-4.04526E-08
 -1       353-3.40703E+05-2.64247E+04-1.01241E+04-1.03763E+05 2.36033E-08-4.85215E-10
 -1       354-2.28587E+05-6.89516E+04-6.45754E+03-1.17727E+05-2.53829E-08-6.57747E-09
 -1       355-3.79420E+05-3.84401E+04-4.96361E+04-1.34389E+05-9.22137E-09 1.01863E-10
 -1       356-2.80855E+05 2.69805E+03-6.80151E+03 8.39196E+03 3.04510E-10 4.06271E-09
 -1       357-2.81805E+05-3.05754E+03-4.40594E+03-1.57329E+04 2.69853E-08-4.59568E-09
 -1       358-2.82344E+05 4.77149E+02-1.92275E+03 8.16177E+03 1.00820E-08 5.89273E-09
 -1       359-2.74369E+05-2.89145E+02 3.81125E+02-1.20595E+04-5.15897E-09-7.27658E-09
 -1       360-2.88129E+05-1.94898E+02-1.81224E+03 4.71585E+03-1.16876E-08 2.56263E-09
 -1       361-2.65903E+05 3.95205E+02 2.78695E+03-3.27502E+03-2.47639E-08 1.58639E-10
 -1       362-2.90597E+05-3.74313E+02-2.12044E+03-6.23144E+02-9.73387E-10 1.41564E-09
 -1       363-2.67845E+05 2.93223E+02 2.27309E+03 7.01836E+03-1.13062E-08 1.34980E-09
 -1       364-2.86237E+05-5.33026E+01-1.71058E+03-5.57453E+03-1.47093E-08-2.36230E-09
 -1       365-2.77342E+05-5.15220E+02-8.54098E+02 1.44616E+04 3.00454E-08 5.28610E-09
 -1       366-2.81340E+05 6.21824E+02-2.94187E+03-8.06765E+03-2.09136E-08-3.95062E-09
 -1       367-2.81610E+05-3.51103E+03-6.96430E+03 1.60528E+04-2.86714E-08 6.21458E-09
 -1       368-2.82043E+05 2.99840E+03-1.19883E+04-7.16689E+03-7.62884E-09-4.14957E-09
 -1       369-2.82327E+05-2.16069E+04-2.96642E+04 1.11173E+04-2.14615E-08 2.22644E-09
 -1       370-2.80424E+05 1.85456E+04-4.64840E+04-3.12971E+03-1.50681E-09-2.86127E-09
 -1       371-8.21683E+03-8.54244E+04 7.38154E+03 7.97022E+03-6.01449E-09 3.99268E-10
 -1       372 7.68312E+03-2.82198E+04 1.33998E+04-3.54820E+04 3.93811E-09 2.61775E-09
 -1       373 3.21590E+02-5.98621E+04 6.16601E+02 9.25870E+03 4.51655E-09-3.69454E-09
 -1       374-3.80196E+03-5.34980E+04-3.59112E+03-3.66346E+04 8.82301E-09 2.18219E-09
 -1       375 3.63113E+03-6.06571E+04-9.93329E+03 9.12115E+03 3.80396E-09 3.08376E-09
 -1       376-2.68504E+05-2.76713E+04-8.99113E+03-9.03030E+04-2.87474E-09 1.78898E-09
 -1       377-2.33659E+05-5.34065E+04-3.14738E+03-1.10964E+05 1.38389E-08-2.99815E-09
 -1       378-2.63014E+05-2.60421E+04-1.52723E+03-8.53898E+04 9.21489E-10 1.12141E-08
 -1       379-2.29897E+05-5.00065E+04 1.17248E+03-1.09075E+05 2.41539E-08 1.47314E-09
 -1       380-2.72191E+05-3.11254E+04-2.87931E+03-9.21388E+04 2.55286E-08-6.16453E-10
 -1       381-2.14317E+05-3.72347E+04 7.30467E+03-9.14957E+04 1.66233E-08 5.71482E-10
 -1       382-2.78113E+05-3.91721E+04-5.30710E+03-1.02612E+05 6.63579E-09-1.59838E-09
 -1       383-2.22164E+05-2.48340E+04 8.16760E+03-7.67094E+04-2.70800E-08-5.44276E-11
 -1       384-2.64275E+05-4.35748E+04-3.79803E+03-1.06858E+05 5.52163E-08-6.00789E-09
 -1       385-2.54069E+05-1.99730E+04 2.18704E+03-7.38320E+04 6.78481E-08-4.61455E-09
 -1       386-2.46660E+05-4.36985E+04-2.03743E+03-1.05835E+05-4.15380E-08-4.08761E-09
 -1       387-2.68723E+05-2.14667E+04-4.31227E+03-7.42363E+04 3.12349E-08-5.53752E-09
 -1       388-2.49834E+05-4.19254E+04-9.31355E+03-1.06624E+05 3.03789E-08-2.57164E-08
 -1       389-2.52137E+05-3.65983E+04-1.89895E+04-7.08996E+04-2.95887E-08-8.22661E-09
 -1       390-2.62871E+05-2.88556E+04-4.03645E+04-1.08869E+05-1.44619E-08-2.29375E-09
 -1       406 5.45162E+02 2.32872E+05 1.18459E+03-1.98364E+04-1.70940E-09-9.84073E-10
 -1       407 3.62840E+02 2.33087E+05 1.45954E+03-2.17573E+04-1.96974E-09 3.63798E-12
 -1       408 6.01593E+02 2.32830E+05 2.42134E+03-1.97540E+04-1.99293E-09 1.57388E-09
 -1       409 2.41078E+03 2.33768E+05 5.20725E+03-2.18783E+04-2.28192E-09 2.12299E-09
 -1       410 6.94474E+03 2.32169E+05 1.05053E+04-1.97118E+04-2.22008E-09 1.65846E-09
 -1       466 6.08071E+05-2.46001E+04 5.48900E+04 8.73732E+03 4.60886E-10 7.00675E-09
 -1       467 6.42647E+05 2.82516E+04 4.06840E+04-1.39881E+04 9.18547E-10 1.29603E-09
 -1       468 6.21727E+05-3.69599E+03 1.44016E+04 2.47341E+03 6.70582E-10 8.03084E-10
 -1       469 6.26864E+05 4.25476E+03 9.23401E+03-5.54386E+03 3.37018E-10-3.40719E-10
 -1       470 6.23756E+05-5.60660E+02 3.79756E+03 2.92651E+02 6.78895E-10 2.31694E-10
 -1       471 6.24529E+05 6.75839E+02 2.39686E+03-2.61217E+03-5.44194E-10-1.54205E-09
 -1       472 6.24052E+05-1.11822E+02 1.40903E+03-4.58336E+02-2.07438E-10-1.68089E-09
 -1       473 6.24276E+05 3.15477E+02 1.56585E+03-1.65678E+03 6.19593E-10-5.21865E-10
 -1       474 6.24008E+05-1.99550E+02 2.14562E+03-6.62754E+02-7.58741E-10-1.70280E-09
 -1       475 6.24848E+05 1.41918E+03 4.52449E+03-1.55538E+03 1.15252E-10-2.71757E-09
 -1       476 6.23478E+05-1.21473E+03 7.63830E+03-5.59737E+02 8.38638E-10-3.81033E-09
 -1       477 6.28580E+05 9.00912E+03 1.87223E+04-2.19017E+03-2.95586E-12-1.62959E-09
 -1       478 6.20272E+05-7.78408E+03 2.97703E+04-2.79442E+01 1.07711E-10-8.85848E-10
 -1       479 6.51287E+05 5.75550E+04 8.14290E+04-4.35698E+03 9.38272E-10-2.10093E-09
 -1       480 6.00769E+05-4.97205E+04 1.14959E+05 1.60702E+03 2.73825E-09 3.20142E-10
 -1       481-5.65898E+03 1.10048E+05 9.91268E+03-6.28381E+03-7.04858E-11-1.12050E-09
 -1       482 6.31329E+03 1.30020E+05 1.00209E+04 2.19604E+04-5.09317E-11 2.35970E-09
 -1       483-7.38197E+02 1.18962E+05 3.67169E+03-4.98641E+03-3.19460E-11 4.31015E-10
 -1       484 2.38620E+03 1.23193E+05 4.39522E+03 2.10357E+04 9.34364E-12-4.78071E-10
 -1       485-1.65010E+03 1.16751E+05 3.22308E+03-5.35848E+03 3.14913E-11-9.74751E-10
 -1       486-5.82000E+05-8.75031E+04-6.27631E+04-2.58304E+05-6.84850E-10 4.11092E-09
 -1       487-6.02039E+05-4.89356E+04-2.71272E+04-1.38222E+05 1.16188E-10 1.34178E-08
 -1       488-5.76085E+05-1.02136E+05-1.65970E+04-2.53234E+05 2.59536E-09-1.85992E-09
 -1       489-4.96249E+05-3.61129E+04 1.90341E+04-1.40973E+05 3.60535E-09-3.12707E-09
 -1       490-6.86136E+05-1.01856E+05-2.65321E+04-2.54140E+05 1.00972E-08 1.00022E-09
 -1       491-4.31257E+05-7.83112E+04 2.86147E+04-1.92835E+05-8.47194E-10 9.28844E-09
 -1       492-6.40699E+05-6.02849E+04-7.79246E+03-2.01141E+05-2.35264E-09 2.09433E-08
 -1       493-4.92635E+05-1.23894E+05 8.64388E+03-2.55243E+05 5.08692E-10 4.02552E-08
 -1       494-6.26784E+05-5.43749E+04-4.00831E+03-1.93357E+05-4.49802E-09 9.13411E-09
 -1       495-4.41107E+05-8.89573E+04 2.47247E+04-2.06980E+05 4.99824E-09 7.73434E-09
 -1       496-6.90571E+05-9.67778E+04-2.61626E+04-2.48085E+05 7.62066E-09 6.49266E-09
 -1       497-4.72935E+05-3.97071E+04 2.34191E+04-1.44094E+05 1.83002E-09-4.78849E-09
 -1       498-5.94597E+05-1.03957E+05-1.93214E+04-2.55870E+05 3.70579E-09-1.04828E-08
 -1       499-6.00421E+05-4.71044E+04-2.40856E+04-1.38464E+05 5.35533E-09-1.29426E-08
 -1       500-5.65093E+05-8.75232E+04-5.46539E+04-2.55415E+05-9.67157E-09 1.78479E-08
 -1       501-3.48010E+05-1.27920E+04 2.95651E+04-4.88130E+02 1.00440E-09 8.36735E-11
 -1       502-3.34920E+05 1.48115E+04 2.09555E+04 3.78101E+02 8.65583E-11-5.22959E-10
 -1       503-3.43094E+05-2.00923E+03 7.63200E+03 1.43135E+02-2.38266E-10-1.35060E-09
 -1       504-3.40711E+05 2.32332E+03 4.82854E+03-8.27633E+02-2.08615E-10 4.55657E-10
 -1       505-3.42226E+05-3.13583E+02 1.93703E+03 7.17626E+02 6.42956E-10-1.74578E-09
 -1       506-3.41762E+05 3.60384E+02 1.13020E+03-1.62817E+03 1.72695E-09-1.64005E-09
 -1       507-3.42047E+05-4.57430E+01 4.78856E+02 9.43689E+02 5.81889E-10 1.39437E-10
 -1       508-3.41925E+05 4.97693E+01 2.48801E+02-1.61912E+03 4.75044E-10-9.39941E-11
 -1       509-3.42063E+05-3.19816E+00 6.32129E+01 7.08573E+02 7.86372E-10-2.56230E-09
 -1       510-3.41874E+05-2.56007E+01-2.78541E+01-8.03968E+02 8.37712E-10-1.03698E-09
 -1       511-3.42096E+05 2.75651E+01-1.94084E+02 1.28521E+02 6.78000E-11-6.96019E-10
 -1       512-3.41955E+05-2.38859E+02-4.61512E+02 4.14370E+02 7.02833E-11 1.30471E-09
 -1       513-3.41980E+05 2.09399E+02-8.15462E+02-5.09785E+02 1.26867E-10 2.93915E-09
 -1       514-3.42656E+05-1.56450E+03-2.19861E+03 1.43419E+03-4.27464E-10 1.65159E-09
 -1       515-3.41398E+05 1.35403E+03-3.13136E+03-8.91316E+02-8.16224E-10 1.74441E-09
 -1       516-3.53170E+04 2.22995E+05 8.21123E+04-5.82633E+03-2.72848E-10 8.46057E-10
 -1       517 4.22911E+04 2.62864E+05 6.16735E+04 2.45390E+04-7.82165E-10-2.69969E-09
 -1       518-6.91559E+03 2.35723E+05 2.72351E+04-5.84317E+03 7.80346E-10-3.80425E-10
 -1       519 2.05816E+04 2.67594E+05 3.48844E+04 2.87580E+04-3.69073E-09 1.53477E-10
 -1       520-1.38629E+04 2.18618E+05 2.71955E+04-1.00477E+04-9.02219E-10-7.92579E-09
 -1       521-1.80371E+06-2.32919E+05-1.22861E+05-6.95802E+05-1.86810E-09-1.21508E-09
 -1       522-1.84040E+06-3.15982E+05-7.70250E+04-7.03199E+05 2.49656E-10-3.77895E-09
 -1       523-1.82497E+06-2.59268E+05-2.89691E+04-6.92731E+05 6.14762E-11-1.33878E-09
 -1       524-1.81576E+06-2.81159E+05-1.58156E+04-7.08991E+05 4.66230E-10 6.81666E-10
 -1       525-1.82755E+06-2.61807E+05-6.73583E+03-6.92261E+05 7.57154E-10 1.45337E-09
 -1       526-1.81277E+06-2.77889E+05-3.56124E+03-7.09806E+05-7.02585E-10-3.91026E-10
 -1       527-1.82794E+06-2.61994E+05-1.84553E+03-6.92140E+05-5.82077E-10 5.58316E-10
 -1       528-1.81242E+06-2.77627E+05-1.47274E+03-7.09913E+05-9.93850E-10 4.27235E-10
 -1       529-1.82791E+06-2.62030E+05-1.80016E+03-6.92174E+05-1.59650E-09-9.40645E-10
 -1       530-1.81286E+06-2.77754E+05-3.43347E+03-7.09654E+05-1.58389E-09 1.14403E-09
 -1       531-1.82747E+06-2.61920E+05-6.47836E+03-6.92363E+05-1.84400E-10 4.42924E-10
 -1       532-1.81586E+06-2.80763E+05-1.51934E+04-7.08707E+05 1.97360E-10 8.10360E-10
 -1       533-1.82491E+06-2.59556E+05-2.78299E+04-6.92890E+05-3.78236E-10-3.45608E-10
 -1       534-1.83966E+06-3.14062E+05-7.39804E+04-7.02964E+05-5.84521E-10 1.05865E-09
 -1       535-1.80442E+06-2.34332E+05-1.18013E+05-6.95928E+05-5.62068E-10 1.07684E-09
 -1       536 2.32640E+03-6.26836E+03 2.88195E+04-5.19837E+03 3.55612E-10 3.61979E-10
 -1       537 1.26797E+04 8.69109E+03 1.83418E+04-1.82818E+04-1.32400E-09 4.98858E-10
 -1       538 6.62320E+03-6.48847E+02 7.45099E+03-5.12933E+03-2.40561E-10-9.36780E-11
 -1       539 7.83863E+03 8.07222E+02 4.13526E+03-1.83538E+04 7.97627E-10-1.18644E-09
 -1       540 7.08793E+03-7.89232E+01 1.87277E+03-5.12432E+03-3.00133E-11-9.92600E-10
 -1       541 7.26255E+03 7.17881E+01 9.79774E+02-1.83578E+04-3.30942E-10-1.43962E-09
 -1       542 7.14198E+03-1.12104E+01 4.52038E+02-5.12546E+03 1.26192E-10-5.97367E-10
 -1       543 7.16535E+03 1.06814E+01 2.08270E+02-1.83560E+04-3.26054E-10 7.41892E-10
 -1       544 7.14910E+03 1.65687E+00 5.13997E+01-5.12608E+03 7.05995E-11 4.56623E-10
 -1       545 7.13368E+03-1.30936E+00-7.78418E+01-1.83553E+04-4.55429E-10 1.61094E-09
 -1       546 7.15884E+03 1.15716E+01-2.33581E+02-5.12620E+03 1.94802E-10 1.38169E-09
 -1       547 7.06099E+03-1.08642E+02-5.62559E+02-1.83531E+04-1.53148E-09 7.48400E-10
 -1       548 7.22819E+03 8.59041E+01-1.03670E+03-5.12825E+03-2.95927E-09 2.30216E-10
 -1       549 6.41164E+03-1.21983E+03-2.55808E+03-1.83140E+04-3.69801E-09-8.14453E-10
 -1       550 7.83582E+03 8.59788E+02-4.03280E+03-5.16531E+03-2.60070E-09 2.93539E-10
 -1       551 7.19489E+03-1.74173E+05 1.62705E+04-2.60136E+05-1.81899E-11 6.31007E-09
 -1       552 3.45376E+03-1.71346E+05 1.33219E+04-3.05584E+05-4.96584E-10 1.34355E-08
 -1       553 2.24056E+03-1.73824E+05 1.61235E+04-2.59698E+05-6.73026E-11 1.23246E-08
 -1       554 9.94289E+03-1.67545E+05 3.08108E+04-3.05652E+05-6.40284E-10 1.21004E-08
 -1       555 2.80993E+04-1.78177E+05 5.86322E+04-2.60034E+05-7.27596E-12 4.55020E-09
 -1       556-1.20730E+05-6.46349E+04 1.13916E+04-1.15984E+05-1.58434E-09-1.02227E-09
 -1       557-1.10513E+05-7.57107E+04 5.61169E+03-1.23834E+05 1.80080E-10-1.28512E-09
 -1       558-1.20885E+05-6.83646E+04 2.36110E+03-1.13760E+05-2.49929E-09-1.16006E-09
 -1       559-1.11543E+05-7.75610E+04 1.15848E+03-1.24191E+05-6.80302E-10-1.55683E-09
 -1       560-1.20985E+05-6.84065E+04 5.15303E+02-1.13723E+05-4.30737E-09 8.66066E-10
 -1       561-1.11734E+05-7.76003E+04 2.43177E+02-1.24328E+05-6.29370E-09 9.65534E-09
 -1       562-1.21068E+05-6.83436E+04 8.56706E+01-1.13779E+05-3.78350E-09 1.75112E-09
 -1       563-1.11825E+05-7.75618E+04-7.18572E+00-1.24394E+05-6.81666E-10 1.99861E-10
 -1       564-1.21114E+05-6.83051E+04-1.11941E+02-1.13814E+05 2.75759E-09-5.01586E-10
 -1       565-1.11879E+05-7.75421E+04-2.85173E+02-1.24425E+05 9.72295E-09 3.62206E-09
 -1       566-1.21111E+05-6.82867E+04-6.09633E+02-1.13823E+05 8.75684E-09 1.28712E-08
 -1       567-1.11991E+05-7.76023E+04-1.34829E+03-1.24416E+05 1.37561E-10-2.56478E-10
 -1       568-1.21008E+05-6.84856E+04-2.77072E+03-1.13721E+05-2.86582E-09-8.11997E-09
 -1       569-1.13507E+05-7.92663E+04-6.53497E+03-1.23992E+05 2.49656E-09 7.36418E-09
 -1       570-1.20404E+05-7.34780E+04-1.33101E+04-1.11606E+05 2.34104E-09 6.05792E-09
 -1       571 1.50081E+05 7.05755E+03 1.06944E+04-3.85679E+04 1.70985E-10-7.40556E-10
 -1       572 1.51704E+05 2.42294E+03 5.24830E+03-4.24414E+04-1.13232E-10-1.70166E-09
 -1       573 1.50740E+05 5.53772E+02 2.33387E+03-3.84662E+04-4.10182E-10-1.78034E-09
 -1       574 1.50933E+05 1.73920E+02 1.17096E+03-4.25541E+04 1.04592E-11-1.76806E-09
 -1       575 1.50815E+05 1.68596E+01 5.53425E+02-3.84531E+04 1.64846E-10 8.74479E-10
 -1       576 1.50833E+05 4.63222E-01 2.82649E+02-4.25689E+04 2.03215E-10 1.32832E-09
 -1       577 1.50826E+05-9.01824E+00 1.41046E+02-3.84513E+04 1.20735E-10 2.19188E-10
 -1       578 1.50822E+05-6.87562E+00 8.01594E+01-4.25707E+04-1.37561E-10 1.60981E-10
 -1       579 1.50835E+05-9.54893E+00 5.52079E+01-3.84513E+04-1.39607E-10-1.35969E-09
 -1       580 1.50835E+05-1.02995E+01 6.15378E+01-4.25684E+04 1.48248E-10-1.15551E-09
 -1       581 1.50849E+05-1.24070E+01 9.50058E+01-3.84536E+04-4.41105E-10-8.12179E-10
 -1       582 1.50870E+05 6.80326E+00 1.88487E+02-4.25450E+04-4.25189E-10 1.48793E-09
 -1       583 1.50859E+05 5.98585E+01 3.67702E+02-3.84747E+04-4.91127E-11 4.72255E-10
 -1       584 1.51019E+05 3.46984E+02 8.24786E+02-4.23663E+04-7.19865E-10 1.92131E-10
 -1       585 1.50781E+05 1.06981E+03 1.67658E+03-3.86331E+04 1.69166E-10 2.21007E-10
 -1       586 1.17722E+03 6.64275E+04 2.16617E+03-9.24153E+04 2.65572E-10 3.52429E-10
 -1       587 6.59437E+02 6.68005E+04 2.14314E+03-1.01955E+05 9.47693E-10-1.18484E-09
 -1       588 8.24485E+02 6.63998E+04 3.12892E+03-9.22959E+04 2.79215E-10-9.03810E-10
 -1       589 3.02563E+03 6.75859E+04 6.47192E+03-1.01991E+05 9.69976E-10 1.17944E-09
 -1       590 8.57063E+03 6.56131E+04 1.29324E+04-9.23774E+04 3.10592E-10 3.39696E-10
 -1       591-6.90877E+04-2.34774E+04-1.35989E+04-3.51713E+04 3.98359E-10 1.84627E-10
 -1       592-6.96157E+04-2.18107E+04-6.68100E+03-3.91015E+04-1.00044E-09 1.69302E-09
 -1       593-6.95059E+04-1.85335E+04-2.83516E+03-3.74462E+04 2.70416E-09 5.80508E-09
 -1       594-6.81598E+04-1.99874E+04-1.38742E+03-3.93344E+04 3.16857E-09 4.44487E-09
 -1       595-6.95718E+04-1.83559E+04-6.38931E+02-3.75467E+04 5.61613E-11 6.68848E-10
 -1       596-6.80508E+04-1.99162E+04-3.24012E+02-3.93243E+04-1.63652E-10 6.15273E-10
 -1       597-6.95842E+04-1.83657E+04-1.76305E+02-3.75473E+04 3.19218E-10-2.98314E-10
 -1       598-6.80398E+04-1.99172E+04-1.40889E+02-3.93195E+04 4.98403E-10-6.02824E-10
 -1       599-6.95833E+04-1.83661E+04-1.78593E+02-3.75468E+04 5.95605E-10-7.51015E-10
 -1       600-6.80499E+04-1.99170E+04-3.30179E+02-3.93231E+04-7.83075E-10 6.86668E-11
 -1       601-6.95683E+04-1.83568E+04-6.51637E+02-3.75452E+04-6.12022E-09-1.02104E-08
 -1       602-6.81611E+04-1.99889E+04-1.41586E+03-3.93304E+04 4.58158E-11 6.02540E-12
 -1       603-6.94987E+04-1.85407E+04-2.89322E+03-3.74435E+04-1.77351E-11-1.36879E-09
 -1       604-6.96602E+04-2.18344E+04-6.81747E+03-3.90739E+04-3.90889E-09-8.03698E-09
 -1       605-6.90554E+04-2.35980E+04-1.38761E+04-3.51364E+04-1.27557E-09-3.59705E-10
 -1       606 5.05606E+04-6.03389E+03-9.13288E+03 1.47287E+04-2.99269E-09 6.84850E-10
 -1       607 4.91518E+04-2.07098E+03-4.48090E+03 1.60550E+04-5.34783E-10 3.41061E-11
 -1       608 4.99785E+04-4.72275E+02-1.99258E+03 1.46309E+04 1.63618E-09-2.01601E-09
 -1       609 4.97900E+04-1.41167E+02-9.98260E+02 1.61634E+04-1.36242E-09-9.95783E-10
 -1       610 4.99008E+04-5.86475E+00-4.70506E+02 1.46182E+04-3.62570E-09-7.85690E-10
 -1       611 4.98646E+04 1.28299E+01-2.36830E+02 1.61773E+04-6.14591E-09-6.46310E-10
 -1       612 4.98847E+04 1.94444E+01-1.12364E+02 1.46167E+04-2.56432E-09-1.42086E-09
 -1       613 4.98716E+04 1.98316E+01-5.17833E+01 1.61792E+04-3.51315E-09-2.11401E-09
 -1       614 4.98781E+04 1.77576E+01-1.51457E+01 1.46163E+04-8.13998E-11-2.77362E-09
 -1       615 4.98711E+04 2.03802E+01 1.37775E+01 1.61794E+04 3.79896E-09-1.12800E-09
 -1       616 4.98731E+04 2.04507E+01 4.88657E+01 1.46165E+04-1.79193E-09 1.46588E-09
 -1       617 4.98782E+04 3.90359E+01 1.15350E+02 1.61789E+04 2.24645E-10-5.90944E-10
 -1       618 4.98624E+04 7.62684E+01 2.35556E+02 1.46168E+04 2.27374E-12 4.97266E-10
 -1       619 4.99536E+04 2.69168E+02 5.32946E+02 1.61766E+04-1.46036E-09-1.26113E-09
 -1       620 4.97928E+04 7.38975E+02 1.08751E+03 1.46181E+04-4.85500E-10-8.22411E-10
 -1       621 9.93538E+02 1.55236E+05 2.54769E+03-1.30723E+04-1.09571E-09 8.52765E-10
 -1       622 3.86688E+02 1.55722E+05 2.20634E+03-1.54281E+04-1.17291E-09 9.05061E-10
 -1       623 2.42087E+02 1.55332E+05 2.83115E+03-1.30890E+04-1.11231E-09-2.56705E-10
 -1       624 1.61451E+03 1.56467E+05 5.54187E+03-1.53550E+04-9.29049E-10 1.04592E-11
 -1       625 4.96216E+03 1.54502E+05 1.06238E+04-1.31445E+04-8.99490E-10 7.98536E-10
 -1       626 7.35642E+04 2.41345E+04-3.58501E+03 4.94393E+04-2.10775E-09-2.23827E-09
 -1       627 7.16810E+04 2.69055E+04-1.69901E+03 5.04532E+04-9.71340E-10-7.22650E-10
 -1       628 7.36577E+04 2.59047E+04-7.13351E+02 4.85630E+04-7.38873E-09-2.14288E-08
 -1       629 7.19373E+04 2.76521E+04-3.41955E+02 5.03993E+04-3.64025E-10-1.05086E-09
 -1       630 7.36528E+04 2.60285E+04-1.50217E+02 4.84904E+04 9.00400E-11-2.36329E-09
 -1       631 7.19551E+04 2.77082E+04-6.62468E+01 5.04005E+04-3.60228E-09 1.04336E-10
 -1       632 7.36457E+04 2.60327E+04-1.61449E+01 4.84839E+04-7.19047E-09-5.58748E-09
 -1       633 7.19561E+04 2.77109E+04 2.24691E+01 5.04015E+04 1.09833E-09 7.20092E-10
 -1       634 7.36401E+04 2.60289E+04 7.27029E+01 4.84829E+04-1.31081E-09 2.57842E-10
 -1       635 7.19648E+04 2.77132E+04 1.70873E+02 5.04034E+04 1.53960E-09 1.67643E-09
 -1       636 7.36325E+04 2.60377E+04 3.57331E+02 4.84768E+04 4.11097E-09 1.07796E-08
 -1       637 7.20508E+04 2.78135E+04 8.00032E+02 5.03872E+04 5.80940E-10 1.20599E-09
 -1       638 7.36140E+04 2.63397E+04 1.65958E+03 4.83455E+04-6.38408E-09-1.95087E-09
 -1       639 7.28946E+04 2.93117E+04 3.95128E+03 5.00153E+04-1.32707E-08 1.51495E-08
 -1       640 7.36601E+04 3.06578E+04 8.33760E+03 4.65546E+04-8.35416E-09 4.76348E-09
 -1       641 7.04085E+02 1.51809E+03-3.51219E+03-3.87038E+01-3.64677E-09 1.20167E-09
 -1       642-8.13743E+02-1.75725E+03-2.48231E+03 1.57548E+02-1.94968E-09 3.44974E-09
 -1       643 1.18195E+02 2.37853E+02-9.05517E+02-3.83312E+01-3.84227E-09 1.71258E-09
 -1       644-1.31537E+02-2.74489E+02-5.62707E+02 1.57115E+02-2.99742E-10 6.72074E-10
 -1       645 2.17888E+01 3.65650E+01-2.16913E+02-3.82718E+01 6.04049E-10 1.88557E-09
 -1       646-1.72129E+01-3.86228E+01-1.03057E+02 1.57036E+02-1.77269E-08-3.78552E-10
 -1       647 3.83227E+00 2.18376E+00 1.22810E-01-3.82523E+01-4.57585E-06 4.45848E-09
 -1       648 1.49447E+01 2.01646E+01 9.65248E+01 1.57009E+02-9.12795E-06 1.01122E-08
 -1       649-1.03801E+01-2.21813E+01 2.18677E+02-3.82447E+01-4.57475E-06 5.14135E-09
 -1       650 9.55142E+01 1.70872E+02 5.29444E+02 1.56944E+02-9.58559E-09 1.13613E-09
 -1       651-7.67244E+01-1.48437E+02 9.21440E+02-3.81872E+01-8.88922E-10 3.28498E-10
 -1       652 5.50456E+02 1.10103E+03 2.27999E+03 1.56605E+02 2.27009E-09 3.11709E-09
 -1       653-4.65274E+02-9.51672E+02 3.63228E+03-3.79063E+01 1.12606E-09 2.78192E-09
 -1       654 3.28834E+03 7.02822E+03 9.93525E+03 1.54920E+02-5.55462E-09 1.75748E-09
 -1       655-2.81430E+03-6.07087E+03 1.40420E+04-3.65050E+01 1.11863E-10 4.32919E-10
 -1       656 4.53794E+03-1.84131E+05-2.18119E+04 5.87767E+03 4.22915E-10 7.74889E-10
 -1       657-6.88915E+03-1.91970E+05-1.57971E+04 2.06414E+04-1.18439E-09 5.38620E-09
 -1       658 8.50309E+02-1.86944E+05-1.01244E+04 5.83998E+03-2.85837E-10 3.22160E-09
 -1       659-6.31893E+03-1.91634E+05-1.47653E+04 2.06640E+04-3.39242E-09-1.11056E-09
 -1       660 4.10075E+03-1.84479E+05-1.98447E+04 5.85541E+03-4.61114E-10 5.61954E-10
 -1       661 1.77797E+05 2.29586E+04 1.45279E+04 6.95069E+04 2.81716E-10-4.23643E-09
 -1       662 1.81094E+05 3.38254E+04 9.10821E+03 7.15926E+04 3.20750E-09-3.73950E-09
 -1       663 1.80266E+05 2.61169E+04 3.42905E+03 6.91974E+04-3.14787E-09 1.56888E-09
 -1       664 1.78252E+05 2.96398E+04 1.87558E+03 7.21812E+04-7.38453E-09-1.99077E-09
 -1       665 1.80538E+05 2.64509E+04 8.03653E+02 6.91775E+04-8.64361E-10 3.10433E-09
 -1       666 1.77939E+05 2.92104E+04 4.34895E+02 7.22209E+04-9.50848E-10 1.59942E-09
 -1       667 1.80569E+05 2.64881E+04 2.44460E+02 6.91787E+04-6.03426E-09 1.62298E-09
 -1       668 1.77910E+05 2.91723E+04 2.30242E+02 7.22210E+04-1.90009E-09 4.94310E-10
 -1       669 1.80566E+05 2.64855E+04 3.24867E+02 6.91784E+04 4.21358E-09 3.93550E-09
 -1       670 1.77965E+05 2.92386E+04 6.56717E+02 7.22210E+04 6.41430E-09-1.55686E-09
 -1       671 1.80516E+05 2.64271E+04 1.25473E+03 6.91772E+04 4.06317E-10-4.39854E-10
 -1       672 1.78463E+05 2.99151E+04 2.95405E+03 7.21560E+04 9.48120E-10-2.66414E-09
 -1       673 1.80083E+05 2.59012E+04 5.40946E+03 6.92096E+04 3.91219E-09-5.15911E-10
 -1       674 1.82949E+05 3.65236E+04 1.43762E+04 7.12273E+04 9.92230E-10 2.23440E-09
 -1       675 1.76188E+05 2.09142E+04 2.29320E+04 6.96956E+04-2.98974E-09-3.41061E-10
 -1       676 3.25674E+02-1.73906E+05-1.93477E+03 5.25189E+01-1.21796E-09 2.03204E-10
 -1       677-7.33479E+02-1.74641E+05-2.34705E+03-1.04252E+02-1.08976E-09-1.56469E-09
 -1       678 2.62174E+02-1.73936E+05-3.10149E+03 5.23470E+01-2.09639E-09 1.25267E-09
 -1       679-3.30009E+03-1.76198E+05-7.01562E+03-1.04058E+02-9.05220E-09-1.95432E-09
 -1       680 2.32581E+03-1.72350E+05-1.08257E+04 5.19607E+01-3.30056E-09-4.06448E-10
 -1       681 2.89285E+05-8.21911E+03 1.82424E+04 2.71853E+03-2.27089E-10-3.95630E-10
 -1       682 3.01191E+05 9.45567E+03 1.36081E+04-7.40244E+03-3.34033E-10-1.49817E-09
 -1       683 2.93769E+05-1.24615E+03 4.75428E+03 8.03958E+02-2.52925E-10 1.43768E-09
 -1       684 2.95844E+05 1.43897E+03 3.11180E+03-4.64481E+03-2.87585E-10-9.43601E-10
 -1       685 2.94594E+05-1.83134E+02 1.25144E+03-3.91433E+01 2.27104E-10 2.46206E-09
 -1       686 2.94876E+05 2.24035E+02 7.83072E+02-3.58871E+03 7.84905E-10-1.04755E-09
 -1       687 2.94728E+05-2.61578E+01 4.42562E+02-2.52137E+02 4.57411E-10 2.16612E-09
 -1       688 2.94828E+05 7.07819E+01 4.61784E+02-3.68518E+03 2.34948E-10 7.61826E-11
 -1       689 2.94643E+05-3.04421E+01 5.88806E+02 5.73230E+01-2.41953E-09 2.26936E-09
 -1       690 2.95454E+05 3.00314E+02 1.32257E+03-4.98188E+03-7.98877E-10-9.34335E-10
 -1       691 2.94114E+05-2.63445E+02 2.00881E+03 1.04456E+03 9.86745E-10 1.46429E-10
 -1       692 2.98549E+05 2.27364E+03 5.57386E+03-8.12890E+03 1.80802E-09 8.60780E-10
 -1       693 2.91598E+05-2.03541E+03 7.73523E+03 3.20448E+03-1.63828E-09-2.17824E-09
 -1       694 3.13598E+05 1.63217E+04 2.45882E+04-1.47600E+04-7.45345E-09 3.80578E-09
 -1       695 2.79266E+05-1.44325E+04 2.95006E+04 7.67773E+03-5.54974E-09-7.81074E-09
 -1       696-5.59933E+03 2.27213E+05 1.26118E+04-1.88746E+03 3.45608E-11-1.45641E-09
 -1       697 6.21248E+03 2.33792E+05 8.68138E+03 4.60321E+03 1.07775E-10-2.53266E-10
 -1       698-6.18235E+02 2.29950E+05 2.36152E+03-1.11922E+03-8.11724E-11 1.91044E-10
 -1       699-8.26884E+02 2.30023E+05-5.45771E+02 3.71274E+03-1.12152E-10 8.72541E-10
 -1       700 1.44264E+03 2.30972E+05-2.95830E+03-9.96957E+02-9.27685E-11 4.03588E-11
 -1       701-2.82291E+05-3.48489E+04-3.84153E+04-1.18146E+05-8.22183E-10 1.39335E-09
 -1       702-2.72295E+05-3.43507E+04-1.70899E+04-7.40721E+04-2.46837E-09-1.72486E-08
 -1       703-2.64372E+05-4.60132E+04-8.30187E+03-1.14898E+05 8.61019E-09 2.49920E-08
 -1       704-2.88298E+05-2.12105E+04-3.76816E+03-7.77461E+04 3.89809E-09 3.32736E-08
 -1       705-2.66656E+05-4.77058E+04-2.56180E+03-1.14771E+05 1.36075E-09 2.82974E-08
 -1       706-2.61026E+05-2.04589E+04 4.77515E+03-7.65384E+04 4.05387E-09 3.26179E-09
 -1       707-2.91225E+05-4.70752E+04-5.70990E+03-1.15771E+05 3.57022E-09 9.28571E-09
 -1       708-2.25259E+05-2.83067E+04 1.07684E+04-8.27104E+04-1.90244E-09 9.19650E-09
 -1       709-3.01951E+05-4.02136E+04-6.40344E+03-1.08244E+05 3.26247E-09 5.13384E-09
 -1       710-2.27896E+05-4.48950E+04 6.57261E+03-1.03603E+05 2.55272E-09-1.43713E-08
 -1       711-2.88904E+05-3.02520E+04-3.24065E+03-9.51339E+04 1.29756E-08 2.70934E-08
 -1       712-2.48389E+05-5.87323E+04-2.80450E+03-1.20916E+05 4.81907E-09 5.84222E-08
 -1       713-2.82007E+05-2.59627E+04-6.80007E+03-9.13333E+04-9.12792E-09 3.46154E-09
 -1       714-2.46742E+05-6.50441E+04-1.58650E+04-1.12752E+05-1.19303E-08-8.00810E-09
 -1       715-2.90343E+05-2.41060E+04-3.32852E+04-1.03145E+05-4.26417E-09-1.21290E-08
 -1       716-6.35303E+04-3.57324E+02-6.86157E+02-3.73041E+02 1.16777E-08-6.91167E-09
 -1       717-5.32340E+04 3.52969E+02 1.40675E+03-2.21000E+03 6.15033E-09 6.00965E-10
 -1       718-6.27985E+04-8.93913E+01-5.48330E+02 3.69669E+02 1.17763E-09-2.33971E-09
 -1       719-5.50553E+04 5.30514E+01 9.84109E+02-3.58594E+03-2.90817E-09-3.24997E-10
 -1       720-6.17526E+04-2.59111E+01-3.01350E+02 1.00172E+03 1.04566E-09 8.91887E-10
 -1       721-5.72048E+04 1.25403E+01 6.47901E+02-4.68000E+03 1.40413E-09-5.96957E-10
 -1       722-6.07034E+04-9.32104E+00 9.27419E+01 1.46323E+03 4.40360E-09 2.58936E-09
 -1       723-5.89448E+04 9.70280E+01 7.10024E+02-5.39471E+03 2.42134E-09-1.77155E-09
 -1       724-6.00580E+04-7.72684E+01 9.70487E+02 1.71648E+03 5.85090E-09 3.37354E-09
 -1       725-5.94099E+04 7.13126E+02 2.28726E+03-5.67347E+03 4.67737E-09-1.83087E-09
 -1       726-6.02582E+04-6.10441E+02 3.91516E+03 1.74211E+03 4.28367E-09 3.19096E-09
 -1       727-5.69810E+04 4.67391E+03 9.77869E+03-5.49782E+03 8.96510E-09-1.48896E-09
 -1       728-6.24735E+04-4.04429E+03 1.52678E+04 1.54075E+03 2.92967E-09 2.41835E-09
 -1       729-4.37258E+04 2.99337E+04 4.25483E+04-4.93494E+03 1.27590E-09 2.41926E-10
 -1       730-7.34661E+04-2.58782E+04 5.91329E+04 1.17910E+03 2.69071E-09-1.45519E-10
 -1       731-7.66125E+03 9.54803E+04 1.30117E+04-4.49188E+03-5.86897E-09-4.02122E-09
 -1       732 8.96672E+03 1.29692E+05 1.49469E+04 1.21918E+04 1.72440E-09-1.98952E-11
 -1       733-1.50000E+03 1.04741E+05 4.64669E+03-2.49130E+03-1.23191E-09-1.52261E-09
 -1       734 4.49433E+03 1.18091E+05 8.15071E+03 8.92618E+03 1.58818E-09-5.75176E-09
 -1       735-3.03009E+03 1.06846E+05 7.00465E+03-1.22365E+03 1.49657E-09-4.06962E-09
 -1       736-2.71204E+05-4.61914E+04-2.71607E+04-1.18405E+05 1.89343E-08-1.60362E-08
 -1       737-2.46565E+05-1.19990E+04-4.90013E+03-5.33751E+04 5.71953E-08 1.66101E-08
 -1       738-2.35605E+05-4.75342E+04-4.31730E+03-1.10939E+05 1.02992E-08 4.77642E-08
 -1       739-2.64308E+05-8.18046E+03 2.29770E+02-5.76537E+04-2.81162E-08-1.59334E-08
 -1       740-2.53814E+05-4.97474E+04-4.52558E+03-1.14421E+05-6.49322E-09-2.91652E-08
 -1       741-1.98434E+05-6.45811E+03 1.51135E+04-4.86871E+04-1.02166E-08-2.90163E-08
 -1       742-3.00375E+05-5.00688E+04-1.26535E+04-1.19011E+05-2.30468E-08-2.44177E-09
 -1       743-1.43264E+05-1.79259E+04 2.39291E+04-5.67303E+04-7.85315E-09 7.79116E-09
 -1       744-3.08216E+05-3.88548E+04-1.19770E+04-1.05837E+05 1.57861E-08-8.98871E-09
 -1       745-1.68868E+05-4.38903E+04 1.36757E+04-9.25803E+04 2.77803E-08 8.93738E-09
 -1       746-2.75634E+05-2.34683E+04-3.48000E+03-8.38487E+04 2.07099E-08 6.50225E-08
 -1       747-2.12445E+05-6.22560E+04 2.22128E+02-1.20302E+05-8.55948E-09 1.42484E-08
 -1       748-2.65711E+05-1.96850E+04-3.86692E+03-7.88758E+04 2.41161E-08 1.36383E-08
 -1       749-1.91932E+05-5.67095E+04-1.09195E+03-1.06206E+05-8.29737E-09 1.72232E-08
 -1       750-2.95598E+05-2.94297E+04-2.47128E+04-9.75612E+04-1.22941E-08-1.52104E-08
 -1       751 1.50166E+06-8.68387E+04 2.01128E+05 2.84721E+03-1.66692E-08 3.49246E-10
 -1       752 1.58904E+06 1.00543E+05 1.42273E+05-3.32542E+03-2.01195E-09-1.00044E-10
 -1       753 1.53542E+06-1.36095E+04 5.20961E+04 4.75924E+02-1.19244E-09 4.36557E-10
 -1       754 1.54979E+06 1.57510E+04 3.27618E+04-5.58723E+02-5.73262E-10 9.49058E-10
 -1       755 1.54097E+06-2.12926E+03 1.34124E+04 8.07444E+01 2.56422E-09-5.94810E-10
 -1       756 1.54334E+06 2.49534E+03 8.01596E+03-9.64218E+01 2.26059E-09-4.44174E-10
 -1       757 1.54189E+06-3.64538E+02 3.93696E+03 1.36222E+01 4.95448E-07 1.25499E-09
 -1       758 1.54238E+06 6.46182E+02 3.14261E+03-1.95718E+01 9.85472E-07-7.71813E-10
 -1       759 1.54194E+06-2.81371E+02 3.18791E+03 3.89318E+00 2.15309E-07-6.81496E-10
 -1       760 1.54296E+06 1.78020E+03 5.84991E+03-1.84716E+01-5.56326E-07 6.11919E-10
 -1       761 1.54131E+06-1.49775E+03 9.51315E+03 1.25220E+01-2.78202E-07-9.86802E-11
 -1       762 1.54746E+06 1.10547E+04 2.30332E+04-8.88584E+01 1.32952E-09 2.15368E-09
 -1       763 1.53742E+06-9.54850E+03 3.65612E+04 7.42805E+01 5.62741E-09 2.31012E-10
 -1       764 1.57488E+06 7.05114E+04 9.97720E+04-5.20160E+02-1.01986E-09-3.54703E-10
 -1       765 1.51383E+06-6.08993E+04 1.41049E+05 4.43799E+02-1.71910E-09-1.02591E-09
 -1       766-3.21298E+04 8.31494E+04 7.40261E+04 6.57573E+03 4.28918E-09-2.09664E-09
 -1       767 3.80831E+04 1.21072E+05 5.52541E+04-2.84807E+04 1.49521E-08-1.33798E-09
 -1       768-5.80801E+03 9.55851E+04 2.30722E+04 6.47485E+03 6.17547E-09 2.21073E-09
 -1       769 1.59046E+04 1.26299E+05 2.79099E+04-3.02251E+04 2.10869E-09-3.41146E-10
 -1       770-1.02364E+04 7.83010E+04 1.77139E+04 8.32103E+03-4.39559E-09-1.06672E-09
 -1       771-8.56051E+05-1.71962E+05-2.80968E+04-3.70674E+05-2.30193E-09 1.12777E-10
 -1       772-8.53529E+05-1.71993E+05-1.37904E+04-3.82780E+05-9.02219E-10-2.90129E-10
 -1       773-8.57216E+05-1.61507E+05-5.86498E+03-3.75186E+05-2.53567E-09 3.03771E-10
 -1       774-8.50396E+05-1.68444E+05-2.86379E+03-3.83631E+05-3.12866E-09-7.30597E-09
 -1       775-8.57466E+05-1.61057E+05-1.32548E+03-3.75417E+05 2.37924E-09 4.08227E-09
 -1       776-8.50228E+05-1.68296E+05-6.69213E+02-3.83719E+05 4.79304E-10-1.96991E-09
 -1       777-8.57574E+05-1.61030E+05-3.67383E+02-3.75453E+05 5.44060E-09 1.22851E-08
 -1       778-8.50258E+05-1.68281E+05-2.89124E+02-3.83773E+05 4.09273E-10 1.39957E-09
 -1       779-8.57626E+05-1.60998E+05-3.68837E+02-3.75478E+05 1.52795E-10 3.89718E-10
 -1       780-8.50315E+05-1.68270E+05-6.78421E+02-3.83820E+05-3.23780E-10-3.07296E-10
 -1       781-8.57624E+05-1.60961E+05-1.34177E+03-3.75489E+05 4.12592E-09-2.01817E-09
 -1       782-8.50561E+05-1.68414E+05-2.91655E+03-3.83851E+05 1.48211E-08 8.62019E-09
 -1       783-8.57485E+05-1.61337E+05-5.96327E+03-3.75282E+05 5.01512E-09-1.69439E-09
 -1       784-8.53652E+05-1.72222E+05-1.40595E+04-3.83315E+05-2.91493E-10-1.10140E-09
 -1       785-8.56557E+05-1.71777E+05-2.86215E+04-3.70521E+05 7.72161E-10 5.75710E-10
 -1       786 1.26103E+05-3.61968E+03 1.67752E+04-1.19291E+03 2.90811E-10-4.77485E-10
 -1       787 1.32064E+05 5.07777E+03 1.06689E+04-4.26231E+03-2.56875E-10 1.49839E-10
 -1       788 1.28609E+05-3.62424E+02 4.34279E+03-1.18510E+03-2.58012E-10 8.39009E-11
 -1       789 1.29279E+05 4.81679E+02 2.40925E+03-4.26805E+03 3.12639E-10 4.56339E-10
 -1       790 1.28885E+05-3.87086E+01 1.10185E+03-1.18695E+03 4.25473E-11 2.11628E-10
 -1       791 1.28967E+05 4.49873E+01 5.88391E+02-4.26526E+03 4.74756E-10 8.56446E-10
 -1       792 1.28920E+05-4.95883E+00 3.01566E+02-1.18790E+03 2.02434E-11 1.69464E-09
 -1       793 1.28928E+05 5.49405E+00 1.98119E+02-4.26468E+03-3.10379E-10-1.29559E-09
 -1       794 1.28924E+05-2.69853E+00 1.80637E+02-1.18753E+03-4.70379E-11 8.77087E-10
 -1       795 1.28939E+05 1.84120E+01 2.70913E+02-4.26690E+03-2.01794E-11 7.56099E-10
 -1       796 1.28910E+05-1.63492E+01 4.67352E+02-1.18567E+03-5.96856E-12-3.78506E-10
 -1       797 1.29067E+05 1.97437E+02 9.98535E+02-4.27091E+03-2.96922E-10-1.87583E-11
 -1       798 1.28797E+05-1.49839E+02 1.79021E+03-1.18353E+03-3.11275E-10-6.44263E-10
 -1       799 1.30215E+05 2.08816E+03 4.39185E+03-4.26446E+03-4.89763E-10-1.49498E-09
 -1       800 1.27766E+05-1.49076E+03 6.90277E+03-1.19223E+03 2.25896E-10-1.43655E-09
 -1       801-4.78115E+03 1.39969E+05 2.10799E+04-1.45073E+05-5.81895E-09 7.85803E-10
 -1       802 1.09497E+04 1.46524E+05 2.24577E+04-5.15823E+05-2.46109E-09-5.89353E-10
 -1       803-9.99469E+02 1.40172E+05 2.50503E+04-1.44624E+05-7.94716E-09 3.69403E-09
 -1       804 2.78881E+04 1.56887E+05 5.33252E+04-5.15797E+05-4.24006E-09-2.60661E-09
 -1       805-1.80419E+04 1.29717E+05 7.98670E+04-1.45102E+05-3.14321E-09 2.61571E-09
 -1       806-1.33389E+05-3.63766E+04-1.11262E+04-6.26927E+04 6.46367E-10-7.19410E-10
 -1       807-1.33336E+05-3.36082E+04-5.27266E+03-6.62048E+04 3.83784E-09 6.11146E-09
 -1       808-1.33317E+05-3.06285E+04-2.21585E+03-6.51055E+04-3.00361E-10-5.81281E-10
 -1       809-1.32237E+05-3.15859E+04-1.07001E+03-6.66820E+04-4.59363E-09-5.34484E-09
 -1       810-1.33343E+05-3.02249E+04-4.83086E+02-6.52852E+04-4.54747E-13 3.47654E-10
 -1       811-1.32127E+05-3.14486E+04-2.41590E+02-6.67029E+04 4.24143E-09 8.54914E-09
 -1       812-1.33352E+05-3.02117E+04-1.25370E+02-6.52939E+04 6.13085E-10-1.14585E-09
 -1       813-1.32115E+05-3.14445E+04-9.08608E+01-6.67003E+04 1.19638E-09-1.50317E-09
 -1       814-1.33352E+05-3.02134E+04-1.03393E+02-6.52932E+04 3.71608E-09 2.80875E-09
 -1       815-1.32122E+05-3.14489E+04-1.83224E+02-6.66999E+04-2.51475E-10-7.52880E-09
 -1       816-1.33343E+05-3.02248E+04-3.57557E+02-6.52857E+04 1.28921E-10 1.67552E-09
 -1       817-1.32204E+05-3.15478E+04-7.87946E+02-6.66793E+04 2.65800E-10 2.11935E-09
 -1       818-1.33320E+05-3.05260E+04-1.62961E+03-6.51557E+04-2.01590E-09-7.41784E-09
 -1       819-1.33035E+05-3.30091E+04-3.87623E+03-6.62971E+04 2.99497E-09 5.80167E-09
 -1       820-1.33346E+05-3.47734E+04-8.17853E+03-6.34065E+04 1.96451E-10-5.76165E-10
 -1       821-1.41176E+05 3.92609E+03-1.82045E+04 1.32631E+03-1.58525E-09 1.97542E-09
 -1       822-1.47640E+05-5.51040E+03-1.15781E+04 4.78477E+03-7.67557E-10-9.74069E-10
 -1       823-1.43898E+05 3.92335E+02-4.71477E+03 1.29949E+03 1.86617E-09-9.60881E-10
 -1       824-1.44624E+05-5.19833E+02-2.61763E+03 4.81824E+03-2.99167E-10-2.25890E-09
 -1       825-1.44198E+05 4.23841E+01-1.20320E+03 1.29259E+03-2.44552E-09-7.02073E-10
 -1       826-1.44289E+05-4.43274E+01-6.53345E+02 4.82914E+03-5.01859E-09 5.83725E-10
 -1       827-1.44236E+05 6.84695E+00-3.57036E+02 1.28854E+03-3.53356E-09-5.51097E-10
 -1       828-1.44252E+05-2.25092E+00-2.76280E+02 4.83558E+03-3.52543E-09-3.95492E-09
 -1       829-1.44237E+05 6.42254E+00-3.15745E+02 1.28614E+03-7.22764E-10-1.48361E-09
 -1       830-1.44282E+05-3.42607E+01-5.45315E+02 4.83826E+03 2.46628E-09-1.39648E-09
 -1       831-1.44207E+05 3.58025E+01-9.86810E+02 1.28586E+03-1.26818E-09-2.37520E-09
 -1       832-1.44556E+05-4.21007E+02-2.13739E+03 4.83653E+03 5.38762E-10-1.44678E-09
 -1       833-1.43963E+05 3.21641E+02-3.84502E+03 1.28792E+03-5.19663E-10-9.49058E-10
 -1       834-1.47017E+05-4.48931E+03-9.44069E+03 4.82147E+03 7.77618E-11-1.18507E-09
 -1       835-1.41745E+05 3.20333E+03-1.48422E+04 1.30137E+03 1.10163E-09 6.06633E-10
 -1       836-6.01761E+03 3.48747E+05 2.94764E+04-9.73238E+03-6.65750E-10-3.02339E-09
 -1       837 9.50912E+03 3.59421E+05 2.28745E+04-3.42938E+04 5.72982E-11 3.35149E-10
 -1       838-1.44558E+03 3.52185E+05 1.72326E+04-9.71194E+03-6.64841E-10 1.23443E-09
 -1       839 1.29513E+04 3.61506E+05 2.91365E+04-3.42928E+04 3.52884E-10-1.19167E-09
 -1       840-8.69730E+03 3.46659E+05 4.14063E+04-9.73321E+03-8.76753E-10 2.31239E-10
 -1       841 8.14754E+02 1.87456E+03-4.53599E+03-4.98442E+02 1.33014E-10-1.48088E-09
 -1       842-1.66075E+03-2.21156E+03-3.14788E+03 3.86319E+02-3.68701E-10-8.05926E-10
 -1       843-1.10444E+02 2.42931E+02-1.06208E+03-1.90173E+02 8.92186E-10 1.07781E-09
 -1       844-5.86050E+02-3.22119E+02-6.61003E+02 3.08217E+01 3.55300E-09 6.21412E-10
 -1       845-2.59851E+02-1.36530E+01-2.41343E+02-1.43446E+02-2.54225E-10-1.69004E-09
 -1       846-4.11359E+02-2.35063E+01-1.30948E+02-2.31591E+01-1.69257E-10 2.12452E-11
 -1       847-2.85138E+02-5.54894E+01-3.48233E+01-1.36277E+02 6.05898E-10 3.81696E-10
 -1       848-3.75176E+02 3.52428E+01 2.11354E+01-3.29270E+01-2.91801E-09 4.05229E-10
 -1       849-2.96043E+02-7.23629E+01 8.22616E+01-1.33700E+02-8.11934E-07 3.05532E-07
 -1       850-3.22105E+02 1.20790E+02 2.32873E+02-4.71113E+01-1.62110E-06 6.08018E-07
 -1       851-3.38205E+02-1.40989E+02 4.11177E+02-1.22112E+02-8.13429E-07 3.03762E-07
 -1       852-2.68343E+01 6.21278E+02 1.11535E+03-1.36892E+02-3.93888E-09 6.52435E-10
 -1       853-5.91264E+02-5.72553E+02 1.78713E+03-4.40264E+01-1.08716E-09 8.15589E-10
 -1       854 1.78450E+03 3.79939E+03 5.29706E+03-7.34343E+02 1.50879E-09-9.98398E-10
 -1       855-2.14918E+03-3.31701E+03 7.62948E+03 4.74592E+02 1.42109E-10 2.12367E-10
 -1       856-1.68877E+05 3.74576E+03-1.73786E+04 2.63381E+03-4.72892E-09-2.53021E-09
 -1       857-1.75043E+05-5.25112E+03-1.10506E+04 9.57734E+03-4.75438E-09-3.20415E-09
 -1       858-1.71476E+05 3.75622E+02-4.50035E+03 2.58923E+03-3.75712E-09-1.46269E-09
 -1       859-1.72172E+05-4.84459E+02-2.49644E+03 9.63415E+03 4.49199E-09-9.57414E-10
 -1       860-1.71764E+05 4.34526E+01-1.14502E+03 2.57649E+03 1.48941E-09-1.25249E-09
 -1       861-1.71857E+05-2.84954E+01-6.16009E+02 9.65242E+03-3.78662E-09-1.47679E-09
 -1       862-1.71801E+05 1.03479E+01-3.25993E+02 2.57085E+03 2.63356E-09-2.06902E-09
 -1       863-1.71822E+05 1.31622E+01-2.33344E+02 9.65934E+03 4.99553E-09-5.00677E-09
 -1       864-1.71804E+05 9.09611E+00-2.42287E+02 2.56955E+03 2.70525E-09-3.14159E-09
 -1       865-1.71840E+05-9.19578E+00-3.96577E+02 9.65717E+03 4.21051E-09-1.62868E-09
 -1       866-1.71782E+05 2.89165E+01-7.06046E+02 2.57303E+03-1.29035E-09-6.85873E-10
 -1       867-1.72030E+05-2.86028E+02-1.52113E+03 9.64463E+03-2.63668E-09-6.99842E-10
 -1       868-1.71607E+05 2.30110E+02-2.73488E+03 2.58216E+03 1.04183E-09-1.65687E-09
 -1       869-1.73770E+05-3.18067E+03-6.71002E+03 9.59773E+03-6.79165E-10-2.75702E-09
 -1       870-1.70028E+05 2.27512E+03-1.05517E+04 2.62034E+03 4.25098E-09-3.50838E-09
 -1       871-1.71486E+03-1.64380E+04-3.21001E+03 4.84173E+04-3.06545E-09-1.79625E-10
 -1       872-5.39318E+02-1.70161E+04-9.40255E+02 5.68372E+04-4.60386E-09-2.66482E-09
 -1       873 4.02125E+01-1.67954E+04 9.42946E+02 4.83241E+04-2.54977E-09-6.31587E-09
 -1       874 1.10988E+03-1.60338E+04 3.52115E+03 5.68776E+04-2.36969E-09-7.85224E-09
 -1       875 3.60553E+03-1.74417E+04 7.59302E+03 4.83802E+04-1.64164E-09-4.31419E-09
 -1       876 2.07950E+05 2.64940E+04 1.95966E+04 8.18175E+04-1.47065E-09 2.85581E-10
 -1       877 2.12280E+05 4.12792E+04 1.22863E+04 8.47770E+04-3.90253E-09-2.27010E-09
 -1       878 2.11279E+05 3.07566E+04 4.62416E+03 8.14010E+04-2.24867E-09-4.10864E-10
 -1       879 2.08447E+05 3.56292E+04 2.52803E+03 8.55644E+04-1.59162E-12-1.46002E-09
 -1       880 2.11643E+05 3.12106E+04 1.07933E+03 8.13771E+04 1.80762E-10 4.91923E-10
 -1       881 2.08028E+05 3.50450E+04 5.76948E+02 8.56104E+04-1.75640E-09-4.28528E-09
 -1       882 2.11682E+05 3.12640E+04 3.09741E+02 8.13815E+04-8.09968E-09-2.56445E-09
 -1       883 2.07989E+05 3.49873E+04 2.66886E+02 8.56046E+04-3.31715E-09-1.29711E-09
 -1       884 2.11678E+05 3.12647E+04 3.50277E+02 8.13831E+04 2.38771E-09-4.92037E-10
 -1       885 2.08046E+05 3.50527E+04 6.88504E+02 8.56016E+04 6.53117E-09-3.56158E-09
 -1       886 2.11626E+05 3.12045E+04 1.30654E+03 8.13823E+04 3.85776E-09-6.59384E-11
 -1       887 2.08564E+05 3.57557E+04 3.07052E+03 8.55348E+04-2.52356E-10-2.47928E-09
 -1       888 2.11177E+05 3.06572E+04 5.62065E+03 8.14152E+04 3.17686E-09-1.65755E-10
 -1       889 2.13225E+05 4.26219E+04 1.49361E+04 8.45720E+04 2.97867E-09-9.30413E-10
 -1       890 2.07130E+05 2.54754E+04 2.38242E+04 8.19201E+04 1.32968E-09-1.22236E-09
 -1       891 7.23541E+02-9.33056E+04-3.67166E+03 1.13960E+04-1.04023E-09 4.46630E-09
 -1       892-1.22383E+03-9.46077E+04-2.92220E+03 4.04823E+04-3.04487E-09 4.47716E-09
 -1       893 1.88211E+02-9.37224E+04-2.32544E+03 1.13506E+04-2.37605E-10 5.89857E-09
 -1       894-1.87037E+03-9.49964E+04-4.09644E+03 4.04790E+04-4.24814E-09 5.32646E-09
 -1       895 1.22490E+03-9.29130E+04-5.90875E+03 1.13991E+04-3.40947E-09 4.70550E-09
 -1       896 3.14648E+05-1.70324E+03 3.92196E+03-1.25142E+02 2.14669E-10 1.51272E-09
 -1       897 3.16410E+05 1.97259E+03 2.79288E+03 1.58442E+03 6.18099E-10 2.17824E-09
 -1       898 3.15339E+05-2.65810E+02 1.02208E+03 1.70338E+02 3.45736E-10 2.12577E-09
 -1       899 3.15605E+05 3.10114E+02 6.52730E+02 1.19497E+03-2.95891E-10 2.57173E-09
 -1       900 3.15453E+05-4.14794E+01 2.84883E+02 2.64316E+02 4.09725E-10 2.34871E-09
 -1       901 3.15479E+05 5.48087E+01 2.05246E+02 1.15754E+03 4.74444E-10 2.66628E-09
 -1       902 3.15465E+05-1.06542E+01 1.68172E+02 2.07766E+02 6.55746E-10 2.24420E-09
 -1       903 3.15505E+05 4.83870E+01 2.66238E+02 1.45180E+03 4.82549E-10 2.30212E-09
 -1       904 3.15428E+05-3.54872E+01 4.24191E+02-2.99491E+01 1.11213E-09 1.77820E-09
 -1       905 3.15751E+05 2.80016E+02 9.77381E+02 2.23686E+03-5.04087E-10 1.55296E-09
 -1       906 3.15222E+05-2.44041E+02 1.61617E+03-5.77305E+02 7.76168E-10 3.44130E-10
 -1       907 3.17059E+05 1.88918E+03 4.13985E+03 3.93819E+03 8.23995E-10-2.68756E-10
 -1       908 3.14131E+05-1.65148E+03 6.31207E+03-1.73132E+03 1.36552E-09-2.33922E-09
 -1       909 3.24184E+05 1.25421E+04 1.81253E+04 7.51254E+03 4.25601E-09-4.65457E-09
 -1       910 3.08147E+05-1.09219E+04 2.42753E+04-4.15194E+03 4.54031E-09-7.79255E-09
 -1       911 2.24348E+04 5.92986E+01-1.54220E+03-1.65864E+03-5.01296E-09-6.57872E-09
 -1       912 3.00142E+04-1.57320E+02 3.60861E+02 6.07740E+03-1.61252E-09-3.61689E-09
 -1       913 2.41501E+04 3.86300E+01-4.94720E+02-1.41852E+03 9.63524E-10 4.03986E-10
 -1       914 2.72536E+04-7.73668E+01 2.06626E+02 5.68210E+03 9.68313E-10 2.92687E-09
 -1       915 2.51251E+04 2.91372E+01-1.18411E+02-1.26294E+03-2.32964E-09 4.57958E-09
 -1       916 2.58577E+04-3.68292E+01 5.31389E+01 5.46037E+03-5.90892E-09 6.75067E-09
 -1       917 2.55106E+04 2.32394E+01 3.65617E+01-1.19684E+03-3.92839E-09 6.34016E-09
 -1       918 2.56149E+04-1.02241E+01 1.06458E+02 5.41817E+03-8.78908E-10 7.56934E-09
 -1       919 2.53615E+04 7.12399E+00 1.60182E+02-1.22076E+03-4.53586E-09 5.62085E-09
 -1       920 2.65312E+04 9.59441E+01 6.02083E+02 5.55621E+03-3.27887E-09 5.29170E-09
 -1       921 2.46157E+04-9.80901E+01 5.81085E+02-1.33481E+03-1.21182E-09 2.31736E-09
 -1       922 2.90202E+04 8.62369E+02 2.41759E+03 5.87520E+03 1.16563E-09 6.98918E-10
 -1       923 2.29255E+04-7.96232E+02 2.47647E+03-1.53985E+03 1.37197E-09-3.47609E-09
 -1       924 3.50971E+04 6.00416E+03 9.39270E+03 6.39869E+03 5.46115E-09-7.06541E-09
 -1       925 1.86318E+04-5.30152E+03 1.02969E+04-1.85935E+03 4.91360E-09-1.21709E-08
 -1       926-2.45304E+05 5.55034E+03-1.29028E+04 5.61651E+03-4.45655E-09-1.72204E-08
 -1       927-2.49984E+05-6.35356E+03-8.92063E+03-9.54609E+03 2.28842E-08-1.92150E-08
 -1       928-2.48712E+05 8.42224E+02-3.56524E+03 4.72512E+03-3.12224E-09-1.42447E-08
 -1       929-2.43743E+05-8.62144E+02-1.13536E+03-6.14698E+03-1.60793E-08-1.40299E-08
 -1       930-2.51448E+05-1.14196E+01-1.52266E+03 2.21637E+03-3.51872E-09-6.99720E-09
 -1       931-2.40550E+05 7.02175E+01 1.09065E+03-4.02347E+02 2.11315E-10-3.74764E-09
 -1       932-2.51834E+05-1.44487E+02-8.17733E+02-1.01923E+03 6.52943E-09 2.23389E-09
 -1       933-2.42330E+05 1.94309E+02 1.37740E+03 5.58716E+03 2.79115E-09 6.71381E-09
 -1       934-2.49717E+05-9.75258E+01 3.10203E+02-3.77236E+03 3.78756E-09 9.87538E-09
 -1       935-2.46110E+05 5.14896E+02 1.88917E+03 9.60113E+03 6.63476E-10 1.40963E-08
 -1       936-2.48158E+05-3.84495E+02 2.79253E+03-5.03377E+03-5.46052E-10 1.35025E-08
 -1       937-2.45517E+05 3.32882E+03 7.01972E+03 1.01933E+04 1.18856E-08 1.56033E-08
 -1       938-2.50329E+05-2.89355E+03 1.07550E+04-4.36480E+03 1.22735E-08 1.09999E-08
 -1       939-2.33678E+05 2.15537E+04 3.08640E+04 7.20016E+03 7.65988E-09 1.05297E-08
 -1       940-2.59900E+05-1.86640E+04 4.15933E+04-2.03988E+03-6.94342E-10 4.23279E-09
 -1       941 2.47776E+06-1.24417E+05 2.88471E+05 4.01842E+02-3.76869E-07-1.94996E-09
 -1       942 2.60254E+06 1.44074E+05 2.03935E+05 1.29596E+02-7.70848E-07-2.59024E-09
 -1       943 2.52596E+06-1.95092E+04 7.47361E+04 2.81175E+02-5.70200E-07 8.03993E-10
 -1       944 2.54654E+06 2.25814E+04 4.70103E+04 2.59740E+02-3.66384E-07-1.55433E-09
 -1       945 2.53393E+06-3.05373E+03 1.92791E+04 2.71744E+02-2.24852E-07 2.15186E-09
 -1       946 2.53731E+06 3.58599E+03 1.15702E+04 2.69934E+02-8.76820E-08 4.40991E-09
 -1       947 2.53525E+06-5.29925E+02 5.77528E+03 2.70990E+02-6.98944E-10 2.76464E-09
 -1       948 2.53596E+06 9.81387E+02 4.78086E+03 2.70529E+02 8.62368E-08 1.68434E-09
 -1       949 2.53530E+06-4.50960E+02 5.06390E+03 2.71151E+02 4.13237E-07-3.57818E-09
 -1       950 2.53694E+06 2.90709E+03 9.51355E+03 2.67433E+02 7.49046E-07 3.68084E-09
 -1       951 2.53426E+06-2.45426E+03 1.55770E+04 2.74084E+02 2.68067E-06-4.88672E-09
 -1       952 2.54433E+06 1.81240E+04 3.77777E+04 2.26157E+02 4.60452E-06-1.94495E-09
 -1       953 2.52786E+06-1.56553E+04 5.99928E+04 3.12420E+02 2.30306E-06 7.60338E-09
 -1       954 2.58927E+06 1.15609E+05 1.63651E+05-3.21287E+02 1.13254E-09 7.21047E-09
 -1       955 2.48917E+06-9.98396E+04 2.31423E+05 8.21448E+02-1.38580E-08 8.14907E-10
 -1       956-1.28799E+05-2.26749E+03-4.82920E+03 1.74274E+04-2.45973E-09 2.05546E-10
 -1       957-1.29689E+05-7.22135E+02-2.44127E+03 2.03025E+04-1.31513E-09-6.08111E-10
 -1       958-1.29197E+05-8.09587E+01-1.09806E+03 1.73239E+04 9.97716E-10-1.72236E-10
 -1       959-1.29278E+05-1.10255E+01-5.58758E+02 2.04159E+04-1.42791E-09-5.09772E-10
 -1       960-1.29240E+05 2.02464E+01-2.71204E+02 1.73134E+04-7.95353E-09-1.40062E-09
 -1       961-1.29248E+05 2.22716E+01-1.42879E+02 2.04275E+04-1.54459E-08 2.04750E-10
 -1       962-1.29250E+05 2.11247E+01-8.00487E+01 1.73122E+04-8.12656E-09 4.69299E-10
 -1       963-1.29248E+05 2.41576E+01-6.11866E+01 2.04291E+04-4.37979E-09-2.33058E-10
 -1       964-1.29254E+05 2.26696E+01-7.05242E+01 1.73119E+04-6.31542E-09-1.17689E-09
 -1       965-1.29254E+05 2.58808E+01-1.18800E+02 2.04289E+04-7.24742E-09-1.11231E-09
 -1       966-1.29251E+05 2.50384E+01-2.21309E+02 1.73124E+04-1.14236E-08-5.55588E-10
 -1       967-1.29284E+05 1.97864E+00-4.54400E+02 2.04227E+04-1.16180E-08 3.16390E-10
 -1       968-1.29221E+05-5.42893E+01-8.91700E+02 1.73181E+04-6.05496E-09 7.33962E-10
 -1       969-1.29623E+05-5.73142E+02-1.98303E+03 2.03604E+04 2.83080E-10-1.33412E-09
 -1       970-1.28901E+05-1.82888E+03-3.92211E+03 1.73757E+04-1.63709E-11-1.39516E-09
 -1       971-2.44774E+05 3.08443E+03-1.43200E+04 2.63645E+03-2.61502E-09-1.39244E-09
 -1       972-2.49842E+05-4.32573E+03-9.10555E+03 9.67532E+03-1.92733E-09-9.91577E-10
 -1       973-2.46916E+05 3.08845E+02-3.71102E+03 2.58190E+03-3.40083E-09-2.21485E-09
 -1       974-2.47480E+05-3.97159E+02-2.06225E+03 9.74833E+03-1.01397E-09-3.51292E-10
 -1       975-2.47153E+05 3.60415E+01-9.54799E+02 2.56306E+03-3.03885E-10-2.34547E-09
 -1       976-2.47224E+05-2.06640E+01-5.30384E+02 9.77655E+03-5.65387E-09 1.43066E-09
 -1       977-2.47184E+05 9.69465E+00-3.13801E+02 2.55360E+03 1.18428E-09-1.38613E-09
 -1       978-2.47201E+05 1.18136E+01-2.85326E+02 9.78903E+03 5.58509E-09 2.26549E-10
 -1       979-2.47182E+05 1.15836E+01-3.81107E+02 2.55056E+03 1.52010E-09-2.37848E-09
 -1       980-2.47243E+05-3.36800E+01-7.07785E+02 9.78832E+03 5.78694E-09-3.59067E-10
 -1       981-2.47141E+05 5.04137E+01-1.30850E+03 2.55432E+03 7.09633E-10-2.14845E-09
 -1       982-2.47606E+05-5.52405E+02-2.85046E+03 9.77319E+03-2.01226E-10 6.45429E-10
 -1       983-2.46813E+05 4.30813E+02-5.13571E+03 2.56580E+03 3.80044E-09-1.47224E-09
 -1       984-2.50888E+05-5.99142E+03-1.26129E+04 9.72108E+03 3.28237E-09 2.60297E-09
 -1       985-2.43848E+05 4.27916E+03-1.98329E+04 2.60721E+03 5.78348E-09-1.15142E-09
 -3
    1PSTEP                        41          21           1          
  100CL  121 3.81909E-01         841                     0   21           1
 -4  DISP        4    1
 -5  D1          1    2    1    0
 -5  D2          1    2    2    0
 -5  D3          1    2    3    0
 -5  ALL         1    2    0    0    1ALL
 -1         1 4.81673E-05 0.00000E+00 0.00000E+00
 -1         2 3.79630E-05 0.00000E+00 0.00000E+00
 -1         3 3.18954E-05 0.00000E+00 0.00000E+00
 -1         4 2.71448E-05 0.00000E+00 0.00000E+00
 -1         5 2.43405E-05 0.00000E+00 0.00000E+00
 -1         8 3.82220E-05-4.78807E-07 0.00000E+00
 -1         9 2.94676E-05 2.06448E-07 0.00000E+00
 -1        10 2.87545E-05-1.12507E-06 0.00000E+00
 -1        11 2.61948E-05-2.11102E-07 0.00000E+00
 -1        12 2.34718E-05 5.61147E-07 0.00000E+00
 -1        15 1.91788E-05-7.44686E-07 0.00000E+00
 -1        16 2.25979E-05 1.76551E-07 0.00000E+00
 -1        17 2.02722E-05-2.27406E-06 0.00000E+00
 -1        18 2.02880E-05-4.33716E-07 0.00000E+00
 -1        19 2.12423E-05 1.11306E-06 0.00000E+00
 -1        20 2.15602E-05 1.20454E-05 0.00000E+00
 -1        21 2.15491E-05 2.87624E-05 0.00000E+00
 -1        22 7.60280E-06-5.03560E-07 0.00000E+00
 -1        23 9.09255E-06 5.70228E-07 0.00000E+00
 -1        24 8.44311E-06-2.72396E-06 0.00000E+00
 -1        25 1.81351E-05-2.79518E-07 0.00000E+00
 -1        26 1.89422E-05 1.47989E-06 0.00000E+00
 -1        27 1.80282E-05 1.16073E-05 0.00000E+00
 -1        28 1.69319E-05 2.83474E-05 0.00000E+00
 -1        29 0.00000E+00 0.00000E+00 0.00000E+00
 -1        30 1.73865E-06 6.61051E-07 0.00000E+00
 -1        31 1.76310E-06-2.60830E-06 0.00000E+00
 -1        32 0.00000E+00 0.00000E+00 0.00000E+00
 -1        33 1.59824E-05 2.30345E-06 0.00000E+00
 -1        34 1.51566E-05 1.15648E-05 0.00000E+00
 -1        35 1.35796E-05 2.81244E-05 0.00000E+00
 -1        36 4.75488E-05-7.38701E-20 1.32349E-23
 -1        37 4.69110E-05-8.35560E-20-6.61744E-24
 -1        38 4.62745E-05 1.76973E-20 0.00000E+00
 -1        39 4.56343E-05 1.39157E-19-6.61744E-24
 -1        40 4.49939E-05 2.68996E-19 0.00000E+00
 -1        41 4.43529E-05 2.38954E-19 0.00000E+00
 -1        42 4.37117E-05 9.30702E-20 2.64698E-23
 -1        43 4.30705E-05-9.43009E-20 0.00000E+00
 -1        44 4.24292E-05-1.32938E-19 2.64698E-23
 -1        45 4.17879E-05-2.11330E-19 1.32349E-23
 -1        46 4.11468E-05-2.66676E-19-2.64698E-23
 -1        47 4.05061E-05-2.32894E-19 0.00000E+00
 -1        48 3.98655E-05-2.99849E-19 1.32349E-23
 -1        49 3.92275E-05-1.67592E-19 0.00000E+00
 -1        50 3.85886E-05-8.68808E-21-1.32349E-23
 -1        51 4.74114E-05-8.15278E-08 0.00000E+00
 -1        52 4.61648E-05-1.59522E-07 0.00000E+00
 -1        53 4.45226E-05-2.36945E-07 0.00000E+00
 -1        54 4.25845E-05-3.14856E-07 0.00000E+00
 -1        55 4.04508E-05-3.94277E-07 2.27475E-24
 -1        56 4.71868E-05-3.83865E-07 0.00000E+00
 -1        57 4.61773E-05-7.99587E-07 0.00000E+00
 -1        58 4.51693E-05-1.21299E-06-2.64698E-23
 -1        59 4.41470E-05-1.60705E-06-1.32349E-23
 -1        60 4.31092E-05-1.96035E-06 2.64698E-23
 -1        61 4.20481E-05-2.25490E-06 1.32349E-23
 -1        62 4.09587E-05-2.47455E-06-2.64698E-23
 -1        63 3.98358E-05-2.60515E-06 1.32349E-23
 -1        64 3.86754E-05-2.63603E-06 0.00000E+00
 -1        65 3.74745E-05-2.55867E-06-1.32349E-23
 -1        66 3.62316E-05-2.36897E-06 0.00000E+00
 -1        67 3.49470E-05-2.06499E-06 1.32349E-23
 -1        68 3.36209E-05-1.64993E-06-2.64698E-23
 -1        69 3.22609E-05-1.12707E-06-1.32349E-23
 -1        70 3.08629E-05-5.08907E-07 0.00000E+00
 -1        71 3.75859E-05-7.32723E-20 0.00000E+00
 -1        72 3.72061E-05-1.58577E-19 0.00000E+00
 -1        73 3.68264E-05-1.92053E-19 1.32349E-23
 -1        74 3.64463E-05-1.85645E-19-6.61744E-24
 -1        75 3.60661E-05-1.77070E-19 0.00000E+00
 -1        76 3.56858E-05-3.78271E-20 0.00000E+00
 -1        77 3.53055E-05 8.45933E-20-1.32349E-23
 -1        78 3.49252E-05 2.59849E-19 6.61744E-24
 -1        79 3.45449E-05 2.65513E-19-1.32349E-23
 -1        80 3.41646E-05 1.36701E-19-6.61744E-24
 -1        81 3.37844E-05 4.89887E-21 1.32349E-23
 -1        82 3.34045E-05-1.95463E-19-6.61744E-24
 -1        83 3.30246E-05-3.32629E-19 1.32349E-23
 -1        84 3.26461E-05-2.48799E-19-6.61744E-24
 -1        85 3.22671E-05-1.05644E-19 0.00000E+00
 -1        86 3.75435E-05 2.53253E-08 0.00000E+00
 -1        87 3.62940E-05 6.38450E-08 0.00000E+00
 -1        88 3.45420E-05 1.00693E-07 0.00000E+00
 -1        89 3.26136E-05 1.38109E-07 4.13590E-25
 -1        90 3.08188E-05 1.76477E-07-3.30872E-24
 -1        91 3.49396E-05 7.10794E-06 0.00000E+00
 -1        92 2.63571E-05 2.84484E-05 0.00000E+00
 -1        93 1.61391E-05 5.38856E-05 0.00000E+00
 -1        94 8.34103E-06 7.32755E-05 0.00000E+00
 -1        95 5.47901E-06 7.99476E-05 0.00000E+00
 -1        96 9.79639E-06 6.73149E-05 0.00000E+00
 -1        97 1.95153E-05 3.94251E-05 0.00000E+00
 -1        98 3.29491E-05 5.80517E-07-3.30872E-24
 -1        99 4.64737E-05-3.85337E-05-6.61744E-24
 -1       100 5.64696E-05-6.72262E-05-3.30872E-24
 -1       101 6.11586E-05-8.08894E-05 0.00000E+00
 -1       102 5.86605E-05-7.51696E-05 0.00000E+00
 -1       103 5.11052E-05-5.63930E-05 6.61744E-24
 -1       104 4.08958E-05-3.09740E-05-3.30872E-24
 -1       105 3.21194E-05-9.14432E-06 0.00000E+00
 -1       106 3.16020E-05-1.70535E-19 6.61744E-24
 -1       107 3.13048E-05-5.66525E-19 0.00000E+00
 -1       108 3.10078E-05-1.02004E-18-6.61744E-24
 -1       109 3.07100E-05-1.35228E-18 3.30872E-24
 -1       110 3.04122E-05-1.56204E-18-6.61744E-24
 -1       111 3.01143E-05-1.34939E-18-3.30872E-24
 -1       112 2.98164E-05-8.35470E-19 0.00000E+00
 -1       113 2.95184E-05-1.50796E-19 0.00000E+00
 -1       114 2.92205E-05 4.67388E-19 0.00000E+00
 -1       115 2.89226E-05 9.43136E-19 0.00000E+00
 -1       116 2.86247E-05 1.12826E-18-6.61744E-24
 -1       117 2.83270E-05 9.74286E-19 0.00000E+00
 -1       118 2.80294E-05 7.01101E-19 6.61744E-24
 -1       119 2.77328E-05 3.80057E-19-3.30872E-24
 -1       120 2.74359E-05 1.12981E-19-6.61744E-24
 -1       121 3.18200E-05-1.87941E-07 0.00000E+00
 -1       122 3.15804E-05-3.75319E-07 0.00000E+00
 -1       123 3.11651E-05-5.62755E-07 6.61744E-24
 -1       124 3.05629E-05-7.50154E-07-3.30872E-24
 -1       125 2.97628E-05-9.37673E-07 6.61744E-24
 -1       126 2.99329E-05 4.84774E-06 0.00000E+00
 -1       127 2.42214E-05 1.94272E-05 1.65436E-24
 -1       128 1.56471E-05 4.12589E-05 0.00000E+00
 -1       129 5.16122E-06 6.78490E-05 1.65436E-24
 -1       130-5.76454E-06 9.55267E-05 3.30872E-24
 -1       131-1.56454E-05 1.20620E-04-1.65436E-24
 -1       132-2.32846E-05 1.40098E-04 0.00000E+00
 -1       133-2.75387E-05 1.50936E-04 0.00000E+00
 -1       134-2.81466E-05 1.52217E-04 3.30872E-24
 -1       135-2.48860E-05 1.43064E-04-1.65436E-24
 -1       136-1.84613E-05 1.25138E-04 0.00000E+00
 -1       137-9.55599E-06 1.00161E-04-1.65436E-24
 -1       138 5.86030E-07 7.16182E-05 0.00000E+00
 -1       139 1.07446E-05 4.30276E-05-1.65436E-24
 -1       140 1.96967E-05 1.79175E-05 0.00000E+00
 -1       141 2.69693E-05-4.80313E-21 0.00000E+00
 -1       142 2.67929E-05-1.07176E-19 3.30872E-24
 -1       143 2.66166E-05-2.13310E-19 0.00000E+00
 -1       144 2.64401E-05-3.08788E-19 0.00000E+00
 -1       145 2.62636E-05-4.14732E-19 6.61744E-24
 -1       146 2.60870E-05-4.49106E-19 0.00000E+00
 -1       147 2.59105E-05-3.83076E-19-6.61744E-24
 -1       148 2.57339E-05-3.50598E-19 0.00000E+00
 -1       149 2.55574E-05-3.21573E-19-6.61744E-24
 -1       150 2.53810E-05-3.13764E-19 3.30872E-24
 -1       151 2.52046E-05-2.99722E-19-6.61744E-24
 -1       152 2.50287E-05-2.33740E-19 0.00000E+00
 -1       153 2.48527E-05-1.97477E-19 0.00000E+00
 -1       154 2.46789E-05-1.07999E-19 1.65436E-24
 -1       155 2.45043E-05-2.56634E-20 0.00000E+00
 -1       156 2.55315E-05-2.60051E-08-3.30872E-24
 -1       157 2.07587E-05-5.61699E-08-8.27181E-25
 -1       158 1.56541E-05-8.81872E-08 1.65436E-24
 -1       159 1.30456E-05-1.10169E-07 0.00000E+00
 -1       160 1.56538E-05-1.34494E-07 0.00000E+00
 -1       161 2.58686E-05 2.99406E-06 0.00000E+00
 -1       162 2.22813E-05 1.20471E-05 0.00000E+00
 -1       163 1.70298E-05 2.53993E-05 3.30872E-24
 -1       164 1.07918E-05 4.12744E-05 0.00000E+00
 -1       165 4.54738E-06 5.71654E-05 3.30872E-24
 -1       166-7.22806E-07 7.05666E-05 0.00000E+00
 -1       167-4.33742E-06 7.96907E-05 0.00000E+00
 -1       168-5.64346E-06 8.27680E-05 0.00000E+00
 -1       169-4.67070E-06 7.97702E-05-3.30872E-24
 -1       170-1.46201E-06 7.07040E-05 0.00000E+00
 -1       171 3.30968E-06 5.73350E-05 0.00000E+00
 -1       172 8.98131E-06 4.14605E-05 0.00000E+00
 -1       173 1.46428E-05 2.56148E-05 0.00000E+00
 -1       174 1.93853E-05 1.23323E-05 0.00000E+00
 -1       175 2.25482E-05 3.39617E-06-8.27181E-25
 -1       191 2.43080E-05 9.34136E-08-3.30872E-24
 -1       192 2.42285E-05 1.86984E-07 0.00000E+00
 -1       193 2.41033E-05 2.80590E-07 3.30872E-24
 -1       194 2.39341E-05 3.74191E-07 0.00000E+00
 -1       195 2.37230E-05 4.67748E-07-3.30872E-24
 -1       251 3.78747E-05 7.92273E-06 6.61744E-24
 -1       252 3.73356E-05 2.94362E-05-3.30872E-24
 -1       253 3.67294E-05 5.42127E-05 0.00000E+00
 -1       254 3.62596E-05 7.23570E-05 0.00000E+00
 -1       255 3.59199E-05 7.77606E-05 0.00000E+00
 -1       256 3.55097E-05 6.44964E-05 0.00000E+00
 -1       257 3.48277E-05 3.68245E-05 0.00000E+00
 -1       258 3.38332E-05-7.90817E-07-3.30872E-24
 -1       259 3.28438E-05-3.82573E-05-6.61744E-24
 -1       260 3.21733E-05-6.54834E-05-3.30872E-24
 -1       261 3.17704E-05-7.81699E-05-1.32349E-23
 -1       262 3.14277E-05-7.22244E-05 0.00000E+00
 -1       263 3.09519E-05-5.37242E-05 0.00000E+00
 -1       264 3.03453E-05-2.89248E-05 0.00000E+00
 -1       265 2.98113E-05-7.67965E-06 6.61744E-24
 -1       266 3.67829E-05-5.22067E-07 0.00000E+00
 -1       267 3.59670E-05-5.58169E-07-8.27181E-25
 -1       268 3.47653E-05-5.95125E-07 0.00000E+00
 -1       269 3.21691E-05-6.33093E-07-4.13590E-25
 -1       270 2.72739E-05-6.79740E-07-8.27181E-25
 -1       271 3.68241E-05 7.65846E-07 0.00000E+00
 -1       272 3.55418E-05 1.61926E-06 0.00000E+00
 -1       273 3.43877E-05 2.13374E-06 2.64698E-23
 -1       274 3.33402E-05 2.35222E-06 0.00000E+00
 -1       275 3.23852E-05 2.32279E-06-2.64698E-23
 -1       276 3.15042E-05 2.09413E-06 0.00000E+00
 -1       277 3.06788E-05 1.71662E-06 2.64698E-23
 -1       278 2.98899E-05 1.24168E-06 0.00000E+00
 -1       279 2.91179E-05 7.21464E-07 0.00000E+00
 -1       280 2.83433E-05 2.08491E-07-1.32349E-23
 -1       281 2.75465E-05-2.44828E-07-2.64698E-23
 -1       282 2.67085E-05-5.86431E-07-1.32349E-23
 -1       283 2.58099E-05-7.65247E-07 2.64698E-23
 -1       284 2.48352E-05-7.30304E-07 1.32349E-23
 -1       285 2.37619E-05-4.34812E-07-1.32349E-23
 -1       286 2.94166E-05 1.15329E-06 3.30872E-24
 -1       287 2.93722E-05 1.74300E-06 1.65436E-24
 -1       288 2.93275E-05 1.99491E-06-1.65436E-24
 -1       289 2.92840E-05 1.92897E-06 0.00000E+00
 -1       290 2.92405E-05 1.59453E-06 0.00000E+00
 -1       291 2.91972E-05 1.04146E-06-8.27181E-25
 -1       292 2.91538E-05 3.39791E-07 0.00000E+00
 -1       293 2.91104E-05-4.40173E-07 0.00000E+00
 -1       294 2.90670E-05-1.22090E-06 1.65436E-24
 -1       295 2.90236E-05-1.92487E-06 8.27181E-25
 -1       296 2.89802E-05-2.48163E-06 0.00000E+00
 -1       297 2.89368E-05-2.82100E-06 8.27181E-25
 -1       298 2.88934E-05-2.89286E-06 1.65436E-24
 -1       299 2.88488E-05-2.64758E-06 0.00000E+00
 -1       300 2.88046E-05-2.06488E-06 0.00000E+00
 -1       301 2.83199E-05 1.96349E-07 0.00000E+00
 -1       302 2.71656E-05 1.94737E-07 0.00000E+00
 -1       303 2.60104E-05 1.94524E-07 0.00000E+00
 -1       304 2.48601E-05 1.93936E-07 1.65436E-24
 -1       305 2.37207E-05 1.91135E-07 0.00000E+00
 -1       306 2.85846E-05 9.16678E-07 0.00000E+00
 -1       307 2.78260E-05 1.24952E-06 0.00000E+00
 -1       308 2.71878E-05 1.26255E-06-1.32349E-23
 -1       309 2.66473E-05 1.00859E-06 0.00000E+00
 -1       310 2.61857E-05 5.43316E-07 1.32349E-23
 -1       311 2.57818E-05-7.71833E-08 6.61744E-24
 -1       312 2.54146E-05-7.95946E-07-1.32349E-23
 -1       313 2.50627E-05-1.55560E-06-6.61744E-24
 -1       314 2.47045E-05-2.29853E-06 0.00000E+00
 -1       315 2.43186E-05-2.96721E-06 0.00000E+00
 -1       316 2.38836E-05-3.50451E-06 1.32349E-23
 -1       317 2.33787E-05-3.85391E-06 0.00000E+00
 -1       318 2.27829E-05-3.95991E-06-1.32349E-23
 -1       319 2.20781E-05-3.76741E-06 0.00000E+00
 -1       320 2.12413E-05-3.22470E-06 1.32349E-23
 -1       321 2.86482E-05 2.27227E-06 3.30872E-24
 -1       322 2.85207E-05 1.02116E-05 1.65436E-24
 -1       323 2.83622E-05 2.15525E-05 0.00000E+00
 -1       324 2.81775E-05 3.51409E-05 0.00000E+00
 -1       325 2.79843E-05 4.93761E-05 0.00000E+00
 -1       326 2.78039E-05 6.26550E-05 1.65436E-24
 -1       327 2.76504E-05 7.35642E-05 0.00000E+00
 -1       328 2.75297E-05 8.06999E-05 0.00000E+00
 -1       329 2.74294E-05 8.34036E-05 3.30872E-24
 -1       330 2.73299E-05 8.10358E-05 1.65436E-24
 -1       331 2.72094E-05 7.39547E-05 0.00000E+00
 -1       332 2.70503E-05 6.25388E-05 0.00000E+00
 -1       333 2.68534E-05 4.80208E-05-3.30872E-24
 -1       334 2.66291E-05 3.16470E-05-1.65436E-24
 -1       335 2.64010E-05 1.50315E-05 0.00000E+00
 -1       336 2.75347E-05-1.31673E-06 0.00000E+00
 -1       337 2.61692E-05-1.50892E-06-3.30872E-24
 -1       338 2.47089E-05-1.70116E-06 0.00000E+00
 -1       339 2.32051E-05-1.89310E-06 3.30872E-24
 -1       340 2.17092E-05-2.08507E-06 0.00000E+00
 -1       341 2.56447E-05 6.65988E-06 0.00000E+00
 -1       342 1.73205E-05 2.77899E-05-1.65436E-24
 -1       343 5.22831E-06 5.82700E-05 0.00000E+00
 -1       344-9.06382E-06 9.40908E-05 0.00000E+00
 -1       345-2.32602E-05 1.29679E-04 3.30872E-24
 -1       346-3.50666E-05 1.59462E-04-1.65436E-24
 -1       347-4.29804E-05 1.79559E-04 0.00000E+00
 -1       348-4.56139E-05 1.86111E-04-1.65436E-24
 -1       349-4.31528E-05 1.79069E-04 3.30872E-24
 -1       350-3.58112E-05 1.58472E-04-1.65436E-24
 -1       351-2.51100E-05 1.28232E-04-3.30872E-24
 -1       352-1.24954E-05 9.23537E-05 0.00000E+00
 -1       353 9.59410E-08 5.65455E-05-3.30872E-24
 -1       354 1.07260E-05 2.65160E-05-1.65436E-24
 -1       355 1.79586E-05 6.23103E-06 0.00000E+00
 -1       356 2.59808E-05-1.56576E-05-3.30872E-24
 -1       357 2.57379E-05-3.28820E-05 0.00000E+00
 -1       358 2.54951E-05-5.00968E-05-3.30872E-24
 -1       359 2.52803E-05-6.55144E-05 0.00000E+00
 -1       360 2.51072E-05-7.77205E-05-3.30872E-24
 -1       361 2.49781E-05-8.53158E-05-1.65436E-24
 -1       362 2.48731E-05-8.78538E-05-3.30872E-24
 -1       363 2.47670E-05-8.49106E-05 0.00000E+00
 -1       364 2.46371E-05-7.71922E-05-3.30872E-24
 -1       365 2.44694E-05-6.54264E-05 0.00000E+00
 -1       366 2.42714E-05-5.11788E-05 3.30872E-24
 -1       367 2.40609E-05-3.60257E-05 0.00000E+00
 -1       368 2.38624E-05-2.17326E-05-1.65436E-24
 -1       369 2.36980E-05-1.00606E-05-8.27181E-25
 -1       370 2.35683E-05-2.22886E-06-2.06795E-25
 -1       371 3.64466E-05-2.87076E-07 0.00000E+00
 -1       372 3.81930E-05-3.11561E-07 0.00000E+00
 -1       373 3.44149E-05-3.38623E-07 8.27181E-25
 -1       374 2.80982E-05-3.77443E-07-2.06795E-25
 -1       375 2.23528E-05-4.13267E-07 5.16988E-26
 -1       376 3.23238E-05-1.72819E-05 0.00000E+00
 -1       377 4.01759E-05-3.92250E-05-1.65436E-24
 -1       378 4.87444E-05-6.32103E-05 0.00000E+00
 -1       379 5.70319E-05-8.63928E-05 0.00000E+00
 -1       380 6.41026E-05-1.06121E-04-3.30872E-24
 -1       381 6.90028E-05-1.19769E-04-1.65436E-24
 -1       382 7.12556E-05-1.26150E-04 0.00000E+00
 -1       383 7.03744E-05-1.24122E-04-1.65436E-24
 -1       384 6.65969E-05-1.14498E-04 3.30872E-24
 -1       385 6.01889E-05-9.81186E-05-1.65436E-24
 -1       386 5.20662E-05-7.73986E-05 0.00000E+00
 -1       387 4.31783E-05-5.47606E-05 1.65436E-24
 -1       388 3.46715E-05-3.30781E-05 0.00000E+00
 -1       389 2.76852E-05-1.52223E-05 8.27181E-25
 -1       390 2.29692E-05-3.17194E-06 0.00000E+00
 -1       406 2.31726E-05 6.53671E-07 0.00000E+00
 -1       407 2.28392E-05 7.46253E-07-1.65436E-24
 -1       408 2.24755E-05 8.38780E-07-6.61744E-24
 -1       409 2.20854E-05 9.31081E-07-1.65436E-24
 -1       410 2.16729E-05 1.02290E-06 3.30872E-24
 -1       466 1.93583E-05 7.07538E-06 0.00000E+00
 -1       467 1.95679E-05 1.11727E-05-3.30872E-24
 -1       468 1.97844E-05 1.27623E-05-6.61744E-24
 -1       469 2.00037E-05 1.30341E-05 0.00000E+00
 -1       470 2.02230E-05 1.24205E-05 6.61744E-24
 -1       471 2.04422E-05 1.13453E-05 3.30872E-24
 -1       472 2.06612E-05 9.96550E-06 0.00000E+00
 -1       473 2.08799E-05 8.43541E-06 0.00000E+00
 -1       474 2.10985E-05 6.82229E-06-6.61744E-24
 -1       475 2.13169E-05 5.19264E-06-3.30872E-24
 -1       476 2.15353E-05 3.60342E-06 0.00000E+00
 -1       477 2.17531E-05 2.11194E-06-3.30872E-24
 -1       478 2.19711E-05 8.31947E-07 0.00000E+00
 -1       479 2.21856E-05-1.20705E-07 0.00000E+00
 -1       480 2.24018E-05-4.42505E-07 8.27181E-25
 -1       481 1.18171E-05-7.27093E-07 0.00000E+00
 -1       482 9.09184E-06-6.85097E-07-4.13590E-25
 -1       483 9.13380E-06-6.38743E-07 1.65436E-24
 -1       484 1.00795E-05-5.92609E-07 0.00000E+00
 -1       485 1.01596E-05-5.46249E-07 0.00000E+00
 -1       486 1.31738E-05 1.42377E-05 3.30872E-24
 -1       487 2.95702E-06 3.97897E-05-3.30872E-24
 -1       488-7.72997E-06 6.65106E-05 0.00000E+00
 -1       489-1.51207E-05 8.49925E-05-3.30872E-24
 -1       490-1.72825E-05 8.99602E-05 0.00000E+00
 -1       491-1.25164E-05 7.62199E-05 0.00000E+00
 -1       492-2.48473E-06 4.75614E-05 6.61744E-24
 -1       493 1.12384E-05 7.99111E-06 0.00000E+00
 -1       494 2.54103E-05-3.29228E-05 0.00000E+00
 -1       495 3.68138E-05-6.55855E-05 0.00000E+00
 -1       496 4.34829E-05-8.46517E-05 0.00000E+00
 -1       497 4.33247E-05-8.49889E-05-3.30872E-24
 -1       498 3.74952E-05-7.04834E-05 0.00000E+00
 -1       499 2.73581E-05-4.51302E-05 3.30872E-24
 -1       500 1.66338E-05-1.83167E-05 0.00000E+00
 -1       501 2.24507E-05 4.57178E-07 6.61744E-24
 -1       502 2.23080E-05-8.91520E-07 0.00000E+00
 -1       503 2.21625E-05-3.58387E-06 0.00000E+00
 -1       504 2.20146E-05-7.32585E-06 1.65436E-24
 -1       505 2.18652E-05-1.15276E-05 0.00000E+00
 -1       506 2.17164E-05-1.55962E-05 1.65436E-24
 -1       507 2.15701E-05-1.89763E-05 0.00000E+00
 -1       508 2.14270E-05-2.11167E-05 0.00000E+00
 -1       509 2.12860E-05-2.18155E-05-3.30872E-24
 -1       510 2.11447E-05-2.08794E-05-1.65436E-24
 -1       511 2.10014E-05-1.85754E-05 0.00000E+00
 -1       512 2.08551E-05-1.51792E-05 1.65436E-24
 -1       513 2.07071E-05-1.12737E-05-3.30872E-24
 -1       514 2.05596E-05-7.44530E-06 1.65436E-24
 -1       515 2.04140E-05-4.25854E-06 3.30872E-24
 -1       516 2.24587E-05 2.43991E-07 0.00000E+00
 -1       517 2.41835E-05 3.24287E-07 0.00000E+00
 -1       518 2.58213E-05 4.03690E-07 8.27181E-25
 -1       519 2.54212E-05 4.86382E-07 0.00000E+00
 -1       520 2.06337E-05 5.56673E-07 0.00000E+00
 -1       521 2.14504E-05 7.66845E-07 0.00000E+00
 -1       522 2.04109E-05 9.96505E-07 1.32349E-23
 -1       523 1.94855E-05 9.23780E-07 0.00000E+00
 -1       524 1.86507E-05 5.98915E-07 1.32349E-23
 -1       525 1.78895E-05 7.65245E-08 0.00000E+00
 -1       526 1.71810E-05-5.88384E-07 0.00000E+00
 -1       527 1.65046E-05-1.33955E-06 0.00000E+00
 -1       528 1.58392E-05-2.12020E-06-1.32349E-23
 -1       529 1.51635E-05-2.87331E-06 0.00000E+00
 -1       530 1.44563E-05-3.54207E-06 1.32349E-23
 -1       531 1.36966E-05-4.07031E-06 0.00000E+00
 -1       532 1.28641E-05-4.40284E-06-1.32349E-23
 -1       533 1.19386E-05-4.48607E-06 2.64698E-23
 -1       534 1.09036E-05-4.26727E-06-1.32349E-23
 -1       535 9.73632E-06-3.69833E-06 0.00000E+00
 -1       536 2.02667E-05-1.05834E-06 1.65436E-24
 -1       537 2.02668E-05-1.33897E-07 0.00000E+00
 -1       538 2.02670E-05 5.30035E-07 0.00000E+00
 -1       539 2.02681E-05 9.64526E-07 4.13590E-25
 -1       540 2.02695E-05 1.20056E-06 0.00000E+00
 -1       541 2.02710E-05 1.26916E-06 0.00000E+00
 -1       542 2.02725E-05 1.20131E-06 0.00000E+00
 -1       543 2.02740E-05 1.02803E-06 0.00000E+00
 -1       544 2.02756E-05 7.80321E-07-3.87741E-26
 -1       545 2.02772E-05 4.89179E-07 2.58494E-26
 -1       546 2.02787E-05 1.85609E-07-1.03398E-25
 -1       547 2.02803E-05-9.93867E-08-5.16988E-26
 -1       548 2.02819E-05-3.34810E-07 0.00000E+00
 -1       549 2.02837E-05-4.89665E-07-2.06795E-25
 -1       550 2.02854E-05-5.32926E-07 0.00000E+00
 -1       551 1.85020E-05-2.34784E-06-1.49926E-24
 -1       552 1.65317E-05-2.41979E-06-8.27181E-25
 -1       553 1.44502E-05-2.49182E-06 0.00000E+00
 -1       554 1.23481E-05-2.56476E-06 0.00000E+00
 -1       555 1.03160E-05-2.63960E-06 0.00000E+00
 -1       556 1.97538E-05-1.13376E-06 0.00000E+00
 -1       557 1.93359E-05-2.54622E-07 3.30872E-24
 -1       558 1.90074E-05 3.88131E-07-6.61744E-24
 -1       559 1.87578E-05 8.21738E-07 0.00000E+00
 -1       560 1.85765E-05 1.07348E-06 0.00000E+00
 -1       561 1.84532E-05 1.17086E-06 0.00000E+00
 -1       562 1.83774E-05 1.14144E-06 0.00000E+00
 -1       563 1.83389E-05 1.01276E-06 0.00000E+00
 -1       564 1.83273E-05 8.12416E-07 0.00000E+00
 -1       565 1.83323E-05 5.67992E-07 0.00000E+00
 -1       566 1.83434E-05 3.07083E-07-1.65436E-24
 -1       567 1.83504E-05 5.72901E-08 8.27181E-25
 -1       568 1.83430E-05-1.53796E-07 0.00000E+00
 -1       569 1.83110E-05-2.98606E-07-5.81611E-26
 -1       570 1.82444E-05-3.49596E-07 8.27181E-25
 -1       571 2.03454E-05-3.06669E-07-8.27181E-25
 -1       572 2.04044E-05-2.20395E-07 0.00000E+00
 -1       573 2.04640E-05-1.67379E-07 8.27181E-25
 -1       574 2.05238E-05-1.39726E-07 4.13590E-25
 -1       575 2.05837E-05-1.29511E-07 1.65436E-24
 -1       576 2.06436E-05-1.28758E-07-8.27181E-25
 -1       577 2.07035E-05-1.29486E-07-1.65436E-24
 -1       578 2.07635E-05-1.23709E-07 0.00000E+00
 -1       579 2.08234E-05-1.03441E-07 0.00000E+00
 -1       580 2.08834E-05-6.06933E-08 0.00000E+00
 -1       581 2.09433E-05 1.25186E-08 0.00000E+00
 -1       582 2.10032E-05 1.24174E-07 3.30872E-24
 -1       583 2.10631E-05 2.82243E-07 0.00000E+00
 -1       584 2.11230E-05 4.94617E-07 0.00000E+00
 -1       585 2.11828E-05 7.69143E-07 0.00000E+00
 -1       586 1.99804E-05-4.07507E-07 0.00000E+00
 -1       587 1.96274E-05-3.81096E-07 0.00000E+00
 -1       588 1.92475E-05-3.54713E-07 0.00000E+00
 -1       589 1.88596E-05-3.28584E-07 1.03398E-25
 -1       590 1.84826E-05-3.03028E-07 0.00000E+00
 -1       591 2.01954E-05-2.83330E-07 8.27181E-25
 -1       592 2.01098E-05-1.59067E-07 4.13590E-25
 -1       593 2.00316E-05-5.57948E-08-1.65436E-24
 -1       594 1.99592E-05 3.11360E-08 8.27181E-25
 -1       595 1.98912E-05 1.06371E-07 0.00000E+00
 -1       596 1.98257E-05 1.74523E-07 0.00000E+00
 -1       597 1.97611E-05 2.40197E-07 0.00000E+00
 -1       598 1.96957E-05 3.07995E-07 0.00000E+00
 -1       599 1.96278E-05 3.82519E-07-8.27181E-25
 -1       600 1.95557E-05 4.68369E-07-4.13590E-25
 -1       601 1.94776E-05 5.70146E-07-8.27181E-25
 -1       602 1.93919E-05 6.92456E-07 0.00000E+00
 -1       603 1.92968E-05 8.39906E-07 0.00000E+00
 -1       604 1.91908E-05 1.01713E-06 2.58494E-26
 -1       605 1.90725E-05 1.22878E-06 0.00000E+00
 -1       606 2.12643E-05 1.56924E-06 0.00000E+00
 -1       607 2.12848E-05 2.06934E-06 0.00000E+00
 -1       608 2.13049E-05 2.61077E-06 0.00000E+00
 -1       609 2.13247E-05 3.19059E-06 0.00000E+00
 -1       610 2.13445E-05 3.80584E-06 0.00000E+00
 -1       611 2.13643E-05 4.45348E-06 0.00000E+00
 -1       612 2.13840E-05 5.13050E-06 0.00000E+00
 -1       613 2.14036E-05 5.83386E-06 0.00000E+00
 -1       614 2.14233E-05 6.56054E-06 0.00000E+00
 -1       615 2.14429E-05 7.30749E-06 0.00000E+00
 -1       616 2.14625E-05 8.07170E-06 0.00000E+00
 -1       617 2.14822E-05 8.85013E-06-4.13590E-25
 -1       618 2.15018E-05 9.63973E-06 0.00000E+00
 -1       619 2.15213E-05 1.04375E-05 0.00000E+00
 -1       620 2.15408E-05 1.12404E-05 8.27181E-25
 -1       621 2.08147E-05 1.17442E-06 0.00000E+00
 -1       622 2.03988E-05 1.23610E-06-8.27181E-25
 -1       623 1.99991E-05 1.29778E-06 0.00000E+00
 -1       624 1.96202E-05 1.35931E-06 4.13590E-25
 -1       625 1.92665E-05 1.42047E-06 0.00000E+00
 -1       626 2.11088E-05 1.59255E-06 0.00000E+00
 -1       627 2.09573E-05 2.11802E-06 0.00000E+00
 -1       628 2.07901E-05 2.68516E-06 0.00000E+00
 -1       629 2.06089E-05 3.28910E-06 0.00000E+00
 -1       630 2.04157E-05 3.92498E-06 0.00000E+00
 -1       631 2.02123E-05 4.58782E-06-8.27181E-25
 -1       632 2.00007E-05 5.27267E-06 1.65436E-24
 -1       633 1.97827E-05 5.97458E-06 8.27181E-25
 -1       634 1.95601E-05 6.68857E-06 0.00000E+00
 -1       635 1.93348E-05 7.40967E-06 0.00000E+00
 -1       636 1.91087E-05 8.13293E-06-1.65436E-24
 -1       637 1.88837E-05 8.85337E-06-4.13590E-25
 -1       638 1.86615E-05 9.56601E-06-8.27181E-25
 -1       639 1.84439E-05 1.02659E-05-2.06795E-25
 -1       640 1.82326E-05 1.09480E-05 4.13590E-25
 -1       641 2.15606E-05 1.28795E-05 0.00000E+00
 -1       642 2.15604E-05 1.38002E-05 0.00000E+00
 -1       643 2.15601E-05 1.47950E-05-5.16988E-26
 -1       644 2.15597E-05 1.58514E-05 0.00000E+00
 -1       645 2.15592E-05 1.69567E-05-1.29247E-26
 -1       646 2.15586E-05 1.80985E-05 0.00000E+00
 -1       647 2.15580E-05 1.92642E-05 0.00000E+00
 -1       648 2.15574E-05 2.04413E-05 0.00000E+00
 -1       649 2.15568E-05 2.16172E-05 1.29247E-26
 -1       650 2.15562E-05 2.27794E-05 1.29247E-26
 -1       651 2.15556E-05 2.39153E-05 0.00000E+00
 -1       652 2.15549E-05 2.50125E-05 5.16988E-26
 -1       653 2.15543E-05 2.60583E-05 2.06795E-25
 -1       654 2.15532E-05 2.70403E-05 2.06795E-25
 -1       655 2.15524E-05 2.79458E-05 0.00000E+00
 -1       656 2.08389E-05 1.19748E-05 0.00000E+00
 -1       657 2.02170E-05 1.19006E-05 8.27181E-25
 -1       658 1.96599E-05 1.18265E-05 0.00000E+00
 -1       659 1.91326E-05 1.17524E-05-8.27181E-25
 -1       660 1.86003E-05 1.16782E-05 8.27181E-25
 -1       661 2.13281E-05 1.29043E-05 0.00000E+00
 -1       662 2.10737E-05 1.38312E-05 8.27181E-25
 -1       663 2.07978E-05 1.48151E-05 1.65436E-24
 -1       664 2.05046E-05 1.58464E-05-1.65436E-24
 -1       665 2.01973E-05 1.69152E-05 0.00000E+00
 -1       666 1.98797E-05 1.80116E-05 0.00000E+00
 -1       667 1.95554E-05 1.91260E-05-3.30872E-24
 -1       668 1.92280E-05 2.02484E-05-1.65436E-24
 -1       669 1.89012E-05 2.13693E-05 0.00000E+00
 -1       670 1.85787E-05 2.24788E-05 1.65436E-24
 -1       671 1.82641E-05 2.35672E-05 0.00000E+00
 -1       672 1.79610E-05 2.46247E-05-8.27181E-25
 -1       673 1.76731E-05 2.56415E-05 0.00000E+00
 -1       674 1.74035E-05 2.66077E-05 8.27181E-25
 -1       675 1.71567E-05 2.75135E-05 0.00000E+00
 -1       676 2.07772E-05 2.86929E-05 0.00000E+00
 -1       677 2.00057E-05 2.86232E-05 8.27181E-25
 -1       678 1.92351E-05 2.85536E-05 1.65436E-24
 -1       679 1.84656E-05 2.84842E-05 0.00000E+00
 -1       680 1.76978E-05 2.84148E-05 0.00000E+00
 -1       681 7.69896E-06 2.24335E-06 0.00000E+00
 -1       682 7.80152E-06 2.70914E-06-1.65436E-24
 -1       683 7.90347E-06 1.49861E-06-3.30872E-24
 -1       684 8.00414E-06-7.91269E-07 0.00000E+00
 -1       685 8.10297E-06-3.82904E-06 3.30872E-24
 -1       686 8.20058E-06-7.28678E-06 0.00000E+00
 -1       687 8.29755E-06-1.09400E-05 0.00000E+00
 -1       688 8.39464E-06-1.45652E-05-1.65436E-24
 -1       689 8.49257E-06-1.79319E-05 0.00000E+00
 -1       690 8.59195E-06-2.08085E-05 0.00000E+00
 -1       691 8.69322E-06-2.28424E-05 0.00000E+00
 -1       692 8.79599E-06-2.36773E-05 1.65436E-24
 -1       693 8.89831E-06-2.26614E-05 0.00000E+00
 -1       694 8.99428E-06-1.91345E-05 0.00000E+00
 -1       695 9.07001E-06-1.18215E-05 0.00000E+00
 -1       696 4.37621E-06-4.25491E-07 0.00000E+00
 -1       697 2.47881E-06-3.41977E-07-8.27181E-25
 -1       698 1.48076E-06-2.57277E-07 0.00000E+00
 -1       699 9.55698E-07-1.71726E-07-1.65436E-24
 -1       700 5.72360E-07-8.61207E-08-3.30872E-24
 -1       701 4.33111E-06 7.79647E-06 1.65436E-24
 -1       702-2.38373E-06 2.49304E-05 0.00000E+00
 -1       703-1.15151E-05 4.81545E-05 0.00000E+00
 -1       704-2.19880E-05 7.47076E-05-1.65436E-24
 -1       705-3.23520E-05 1.00990E-04 3.30872E-24
 -1       706-4.11596E-05 1.23402E-04 1.65436E-24
 -1       707-4.73989E-05 1.39323E-04 0.00000E+00
 -1       708-5.01120E-05 1.46147E-04 1.65436E-24
 -1       709-4.92640E-05 1.43532E-04 3.30872E-24
 -1       710-4.48447E-05 1.31183E-04 0.00000E+00
 -1       711-3.77077E-05 1.11243E-04 0.00000E+00
 -1       712-2.86803E-05 8.59085E-05 1.65436E-24
 -1       713-1.90255E-05 5.87694E-05 0.00000E+00
 -1       714-9.99390E-06 3.34303E-05 0.00000E+00
 -1       715-2.69465E-06 1.30274E-05 0.00000E+00
 -1       716 8.98364E-06 1.39467E-05 8.27181E-25
 -1       717 8.91043E-06 2.41733E-05 0.00000E+00
 -1       718 8.86257E-06 3.13761E-05 0.00000E+00
 -1       719 8.83068E-06 3.56841E-05 0.00000E+00
 -1       720 8.80648E-06 3.73688E-05 8.27181E-25
 -1       721 8.78339E-06 3.67041E-05 4.13590E-25
 -1       722 8.75736E-06 3.40794E-05 0.00000E+00
 -1       723 8.72615E-06 2.98860E-05 0.00000E+00
 -1       724 8.69001E-06 2.45924E-05 8.27181E-25
 -1       725 8.65038E-06 1.86684E-05 4.13590E-25
 -1       726 8.60997E-06 1.26144E-05-8.27181E-25
 -1       727 8.57123E-06 6.93119E-06 0.00000E+00
 -1       728 8.53666E-06 2.10125E-06-1.65436E-24
 -1       729 8.50535E-06-1.39402E-06 1.65436E-24
 -1       730 8.47902E-06-3.14011E-06 0.00000E+00
 -1       731-3.06887E-06 5.33412E-07-2.06795E-25
 -1       732-9.67614E-06 5.49160E-07 0.00000E+00
 -1       733-1.16815E-05 5.84532E-07 0.00000E+00
 -1       734-1.00294E-05 6.20717E-07 0.00000E+00
 -1       735-5.34832E-06 6.48171E-07 0.00000E+00
 -1       736 1.35402E-06 2.03242E-05 0.00000E+00
 -1       737-1.02790E-05 4.97504E-05 0.00000E+00
 -1       738-2.42420E-05 8.48566E-05 3.30872E-24
 -1       739-3.89044E-05 1.21646E-04-1.65436E-24
 -1       740-5.24467E-05 1.55727E-04-3.30872E-24
 -1       741-6.30835E-05 1.82707E-04 1.65436E-24
 -1       742-6.97954E-05 1.99847E-04-3.30872E-24
 -1       743-7.16461E-05 2.04427E-04 0.00000E+00
 -1       744-6.88575E-05 1.96581E-04 0.00000E+00
 -1       745-6.16669E-05 1.76500E-04 0.00000E+00
 -1       746-5.12604E-05 1.47206E-04 3.30872E-24
 -1       747-3.87707E-05 1.11785E-04 0.00000E+00
 -1       748-2.57567E-05 7.48114E-05 3.30872E-24
 -1       749-1.37633E-05 4.08674E-05 1.65436E-24
 -1       750-4.12693E-06 1.37974E-05 0.00000E+00
 -1       751 9.01176E-06-1.54745E-06 6.61744E-24
 -1       752 9.61746E-06-1.00700E-06 0.00000E+00
 -1       753 1.02210E-05-8.26191E-07 1.32349E-23
 -1       754 1.08315E-05-7.38799E-07-6.61744E-24
 -1       755 1.14422E-05-7.04198E-07 0.00000E+00
 -1       756 1.20542E-05-6.83219E-07 6.61744E-24
 -1       757 1.26665E-05-6.69914E-07-1.32349E-23
 -1       758 1.32790E-05-6.58551E-07 6.61744E-24
 -1       759 1.38915E-05-6.48140E-07 0.00000E+00
 -1       760 1.45038E-05-6.37718E-07-6.61744E-24
 -1       761 1.51161E-05-6.26296E-07 0.00000E+00
 -1       762 1.57274E-05-6.12857E-07-6.61744E-24
 -1       763 1.63385E-05-5.91460E-07-1.32349E-23
 -1       764 1.69448E-05-5.55944E-07 6.61744E-24
 -1       765 1.75528E-05-4.65934E-07 0.00000E+00
 -1       766 5.79422E-06-2.70853E-06 0.00000E+00
 -1       767 9.03260E-07-2.68804E-06 0.00000E+00
 -1       768-4.11772E-06-2.66903E-06 0.00000E+00
 -1       769-7.15724E-06-2.64023E-06-1.29247E-26
 -1       770-5.95319E-06-2.60913E-06-2.06795E-25
 -1       771 7.54429E-06-1.54939E-06 0.00000E+00
 -1       772 6.72783E-06-6.08995E-07 0.00000E+00
 -1       773 5.99046E-06 1.18259E-07 1.32349E-23
 -1       774 5.32456E-06 6.53779E-07 0.00000E+00
 -1       775 4.72245E-06 1.01902E-06-1.32349E-23
 -1       776 4.17609E-06 1.23557E-06 1.98523E-23
 -1       777 3.67739E-06 1.32505E-06 0.00000E+00
 -1       778 3.21823E-06 1.30912E-06-6.61744E-24
 -1       779 2.79048E-06 1.20951E-06-1.32349E-23
 -1       780 2.38597E-06 1.04797E-06 0.00000E+00
 -1       781 1.99657E-06 8.46261E-07-1.32349E-23
 -1       782 1.61415E-06 6.26193E-07 0.00000E+00
 -1       783 1.23064E-06 4.09574E-07 0.00000E+00
 -1       784 8.38251E-07 2.18284E-07-6.61744E-24
 -1       785 4.29273E-07 7.41959E-08 0.00000E+00
 -1       786 1.81823E-05-7.12722E-08 4.13590E-25
 -1       787 1.82326E-05 9.02140E-08 0.00000E+00
 -1       788 1.82829E-05 2.12153E-07 0.00000E+00
 -1       789 1.83336E-05 3.01779E-07 0.00000E+00
 -1       790 1.83844E-05 3.66308E-07 0.00000E+00
 -1       791 1.84352E-05 4.12951E-07 0.00000E+00
 -1       792 1.84861E-05 4.48906E-07 0.00000E+00
 -1       793 1.85370E-05 4.81371E-07 0.00000E+00
 -1       794 1.85880E-05 5.17542E-07 0.00000E+00
 -1       795 1.86389E-05 5.64615E-07 0.00000E+00
 -1       796 1.86898E-05 6.29790E-07-1.65436E-24
 -1       797 1.87407E-05 7.20277E-07 0.00000E+00
 -1       798 1.87915E-05 8.43294E-07-1.65436E-24
 -1       799 1.88422E-05 1.00607E-06-8.27181E-25
 -1       800 1.88928E-05 1.21586E-06-8.27181E-25
 -1       801 1.65395E-05-2.28616E-07 0.00000E+00
 -1       802 1.32107E-05-1.78391E-07 0.00000E+00
 -1       803 9.01960E-06-1.31242E-07-2.06795E-25
 -1       804 4.83920E-06-8.57599E-08 0.00000E+00
 -1       805 1.54226E-06-3.73309E-08 0.00000E+00
 -1       806 1.79939E-05-9.34702E-08 1.65436E-24
 -1       807 1.78583E-05 7.20029E-08 0.00000E+00
 -1       808 1.77284E-05 2.20839E-07 0.00000E+00
 -1       809 1.76031E-05 3.56724E-07 8.27181E-25
 -1       810 1.74812E-05 4.83323E-07 0.00000E+00
 -1       811 1.73613E-05 6.04282E-07 0.00000E+00
 -1       812 1.72422E-05 7.23237E-07 0.00000E+00
 -1       813 1.71225E-05 8.43823E-07 8.27181E-25
 -1       814 1.70008E-05 9.69676E-07 0.00000E+00
 -1       815 1.68757E-05 1.10443E-06-8.27181E-25
 -1       816 1.67460E-05 1.25172E-06-1.65436E-24
 -1       817 1.66102E-05 1.41517E-06 4.13590E-25
 -1       818 1.64670E-05 1.59843E-06 0.00000E+00
 -1       819 1.63153E-05 1.80512E-06 0.00000E+00
 -1       820 1.61538E-05 2.03890E-06 0.00000E+00
 -1       821 1.88886E-05 1.81861E-06 4.13590E-25
 -1       822 1.88316E-05 2.23520E-06 0.00000E+00
 -1       823 1.87746E-05 2.72149E-06 1.65436E-24
 -1       824 1.87171E-05 3.26923E-06 8.27181E-25
 -1       825 1.86594E-05 3.87015E-06 0.00000E+00
 -1       826 1.86017E-05 4.51595E-06 0.00000E+00
 -1       827 1.85439E-05 5.19831E-06 1.65436E-24
 -1       828 1.84861E-05 5.90891E-06 8.27181E-25
 -1       829 1.84282E-05 6.63938E-06-1.65436E-24
 -1       830 1.83704E-05 7.38138E-06 8.27181E-25
 -1       831 1.83126E-05 8.12654E-06 0.00000E+00
 -1       832 1.82549E-05 8.86650E-06 0.00000E+00
 -1       833 1.81972E-05 9.59290E-06 0.00000E+00
 -1       834 1.81399E-05 1.02974E-05-8.27181E-25
 -1       835 1.80827E-05 1.09716E-05-8.27181E-25
 -1       836 1.85549E-05 1.61465E-06 0.00000E+00
 -1       837 1.80485E-05 1.75417E-06 0.00000E+00
 -1       838 1.74806E-05 1.89342E-06 0.00000E+00
 -1       839 1.69086E-05 2.03232E-06 1.65436E-24
 -1       840 1.63900E-05 2.17146E-06 1.65436E-24
 -1       841 1.88164E-05 1.81850E-06 0.00000E+00
 -1       842 1.86575E-05 2.24258E-06-1.03398E-25
 -1       843 1.84702E-05 2.74243E-06 5.16988E-26
 -1       844 1.82581E-05 3.30789E-06-1.29247E-26
 -1       845 1.80251E-05 3.92902E-06-1.29247E-26
 -1       846 1.77749E-05 4.59574E-06 0.00000E+00
 -1       847 1.75113E-05 5.29805E-06 0.00000E+00
 -1       848 1.72381E-05 6.02591E-06-2.01948E-28
 -1       849 1.69591E-05 6.76929E-06-3.23117E-27
 -1       850 1.66780E-05 7.51818E-06 0.00000E+00
 -1       851 1.63986E-05 8.26254E-06 0.00000E+00
 -1       852 1.61247E-05 8.99235E-06 0.00000E+00
 -1       853 1.58599E-05 9.69758E-06 0.00000E+00
 -1       854 1.56079E-05 1.03681E-05 0.00000E+00
 -1       855 1.53727E-05 1.09941E-05 4.13590E-25
 -1       856 1.79632E-05 1.22910E-05 0.00000E+00
 -1       857 1.78950E-05 1.31002E-05 0.00000E+00
 -1       858 1.78268E-05 1.40187E-05 1.65436E-24
 -1       859 1.77579E-05 1.50300E-05 0.00000E+00
 -1       860 1.76890E-05 1.61174E-05 1.65436E-24
 -1       861 1.76198E-05 1.72643E-05 0.00000E+00
 -1       862 1.75507E-05 1.84542E-05 0.00000E+00
 -1       863 1.74814E-05 1.96704E-05 0.00000E+00
 -1       864 1.74122E-05 2.08962E-05 0.00000E+00
 -1       865 1.73429E-05 2.21149E-05 0.00000E+00
 -1       866 1.72737E-05 2.33100E-05 1.65436E-24
 -1       867 1.72046E-05 2.44646E-05 8.27181E-25
 -1       868 1.71356E-05 2.55623E-05 0.00000E+00
 -1       869 1.70670E-05 2.65863E-05 0.00000E+00
 -1       870 1.69984E-05 2.75202E-05 1.65436E-24
 -1       871 1.74933E-05 1.16012E-05 0.00000E+00
 -1       872 1.70032E-05 1.15946E-05 4.13590E-25
 -1       873 1.65414E-05 1.15878E-05 4.13590E-25
 -1       874 1.60910E-05 1.15808E-05 0.00000E+00
 -1       875 1.56349E-05 1.15735E-05 4.13590E-25
 -1       876 1.78683E-05 1.23144E-05 1.65436E-24
 -1       877 1.76720E-05 1.31298E-05 0.00000E+00
 -1       878 1.74407E-05 1.40383E-05 0.00000E+00
 -1       879 1.71801E-05 1.50264E-05 0.00000E+00
 -1       880 1.68948E-05 1.60803E-05 3.30872E-24
 -1       881 1.65900E-05 1.71862E-05 0.00000E+00
 -1       882 1.62708E-05 1.83306E-05 3.30872E-24
 -1       883 1.59423E-05 1.94999E-05-1.65436E-24
 -1       884 1.56094E-05 2.06806E-05-3.30872E-24
 -1       885 1.52774E-05 2.18592E-05 0.00000E+00
 -1       886 1.49512E-05 2.30221E-05-3.30872E-24
 -1       887 1.46358E-05 2.41558E-05 0.00000E+00
 -1       888 1.43365E-05 2.52467E-05-3.30872E-24
 -1       889 1.40576E-05 2.62810E-05 0.00000E+00
 -1       890 1.38052E-05 2.72454E-05 0.00000E+00
 -1       891 1.62718E-05 2.83105E-05 8.27181E-25
 -1       892 1.57437E-05 2.82730E-05 4.13590E-25
 -1       893 1.52790E-05 2.82356E-05 0.00000E+00
 -1       894 1.48091E-05 2.81983E-05 4.13590E-25
 -1       895 1.42655E-05 2.81608E-05-4.13590E-25
 -1       896 1.11008E-07 8.54552E-07-3.30872E-24
 -1       897 2.22212E-07 2.07286E-06 0.00000E+00
 -1       898 3.33055E-07 3.54719E-06 0.00000E+00
 -1       899 4.43782E-07 5.17106E-06-1.65436E-24
 -1       900 5.54378E-07 6.87817E-06-3.30872E-24
 -1       901 6.64966E-07 8.60273E-06-1.65436E-24
 -1       902 7.75625E-07 1.02836E-05 3.30872E-24
 -1       903 8.86446E-07 1.18593E-05-1.65436E-24
 -1       904 9.97535E-07 1.32402E-05 0.00000E+00
 -1       905 1.10893E-06 1.43358E-05-1.65436E-24
 -1       906 1.22067E-06 1.49786E-05-3.30872E-24
 -1       907 1.33247E-06 1.49989E-05 0.00000E+00
 -1       908 1.44375E-06 1.40598E-05 0.00000E+00
 -1       909 1.55232E-06 1.18193E-05 1.65436E-24
 -1       910 1.65470E-06 7.58667E-06 1.65436E-24
 -1       911 1.72693E-06-6.10617E-06 4.13590E-25
 -1       912 1.73038E-06-9.85329E-06 0.00000E+00
 -1       913 1.74007E-06-1.10805E-05-4.13590E-25
 -1       914 1.75014E-06-1.02869E-05 0.00000E+00
 -1       915 1.75797E-06-7.92453E-06-4.13590E-25
 -1       916 1.76265E-06-4.44466E-06-2.06795E-25
 -1       917 1.76484E-06-2.72654E-07 0.00000E+00
 -1       918 1.76591E-06 4.16663E-06 2.06795E-25
 -1       919 1.76761E-06 8.45444E-06 4.13590E-25
 -1       920 1.77149E-06 1.21719E-05 0.00000E+00
 -1       921 1.77837E-06 1.48871E-05-2.06795E-25
 -1       922 1.78796E-06 1.61674E-05 0.00000E+00
 -1       923 1.79796E-06 1.55468E-05 2.06795E-25
 -1       924 1.80354E-06 1.25585E-05 0.00000E+00
 -1       925 1.79668E-06 6.68108E-06 4.13590E-25
 -1       926 1.62250E-06-1.36113E-05 1.65436E-24
 -1       927 1.48008E-06-2.45951E-05 0.00000E+00
 -1       928 1.34668E-06-3.46851E-05 0.00000E+00
 -1       929 1.22853E-06-4.30102E-05-1.65436E-24
 -1       930 1.12611E-06-4.90106E-05-3.30872E-24
 -1       931 1.03622E-06-5.21352E-05 1.65436E-24
 -1       932 9.50957E-07-5.23398E-05 0.00000E+00
 -1       933 8.62044E-07-4.95912E-05-1.65436E-24
 -1       934 7.63921E-07-4.43764E-05 0.00000E+00
 -1       935 6.53969E-07-3.71918E-05 0.00000E+00
 -1       936 5.35786E-07-2.88812E-05 0.00000E+00
 -1       937 4.15027E-07-2.02931E-05-1.65436E-24
 -1       938 2.99040E-07-1.23243E-05-3.30872E-24
 -1       939 1.91973E-07-5.86973E-06 0.00000E+00
 -1       940 9.62693E-08-1.55552E-06 0.00000E+00
 -1       941 9.47176E-07 1.61166E-07 0.00000E+00
 -1       942 1.94674E-06 3.01452E-07-1.32349E-23
 -1       943 2.94298E-06 4.30994E-07 0.00000E+00
 -1       944 3.94920E-06 5.59431E-07 0.00000E+00
 -1       945 4.95570E-06 6.87298E-07-2.64698E-23
 -1       946 5.96420E-06 8.15109E-07-1.32349E-23
 -1       947 6.97292E-06 9.42891E-07 0.00000E+00
 -1       948 7.98198E-06 1.07067E-06 0.00000E+00
 -1       949 8.99108E-06 1.19845E-06-2.64698E-23
 -1       950 9.99992E-06 1.32625E-06 1.32349E-23
 -1       951 1.10086E-05 1.45418E-06 0.00000E+00
 -1       952 1.20157E-05 1.58235E-06 0.00000E+00
 -1       953 1.30225E-05 1.71298E-06 2.64698E-23
 -1       954 1.40214E-05 1.84840E-06 1.32349E-23
 -1       955 1.50229E-05 2.03053E-06 1.32349E-23
 -1       956 1.59318E-05 2.67057E-06 1.24077E-24
 -1       957 1.58804E-05 3.09394E-06 0.00000E+00
 -1       958 1.58288E-05 3.56790E-06-1.24077E-24
 -1       959 1.57771E-05 4.08642E-06-2.06795E-25
 -1       960 1.57253E-05 4.64343E-06 0.00000E+00
 -1       961 1.56735E-05 5.23283E-06 4.13590E-25
 -1       962 1.56217E-05 5.84851E-06-1.65436E-24
 -1       963 1.55699E-05 6.48438E-06 8.27181E-25
 -1       964 1.55180E-05 7.13431E-06 0.00000E+00
 -1       965 1.54662E-05 7.79218E-06-8.27181E-25
 -1       966 1.54144E-05 8.45191E-06 0.00000E+00
 -1       967 1.53625E-05 9.10737E-06-8.27181E-25
 -1       968 1.53107E-05 9.75245E-06 0.00000E+00
 -1       969 1.52590E-05 1.03811E-05 0.00000E+00
 -1       970 1.52075E-05 1.09872E-05 0.00000E+00
 -1       971 1.50609E-05 1.21850E-05 0.00000E+00
 -1       972 1.49624E-05 1.29392E-05 1.65436E-24
 -1       973 1.48639E-05 1.38106E-05 3.30872E-24
 -1       974 1.47649E-05 1.47827E-05 0.00000E+00
 -1       975 1.46657E-05 1.58384E-05 0.00000E+00
 -1       976 1.45664E-05 1.69611E-05 1.65436E-24
 -1       977 1.44671E-05 1.81336E-05 0.00000E+00
 -1       978 1.43677E-05 1.93389E-05 0.00000E+00
 -1       979 1.42682E-05 2.05602E-05-3.30872E-24
 -1       980 1.41688E-05 2.17803E-05 0.00000E+00
 -1       981 1.40695E-05 2.29822E-05 3.30872E-24
 -1       982 1.39703E-05 2.41488E-05-1.65436E-24
 -1       983 1.38712E-05 2.52633E-05 3.30872E-24
 -1       984 1.37727E-05 2.63086E-05 0.00000E+00
 -1       985 1.36743E-05 2.72679E-05 0.00000E+00
 -3
    1PSTEP                        42          21           1          
  100CL  121 3.81909E-01         841                     0   21           1
 -4  STRESS      6    1
 -5  SXX         1    4    1    1
 -5  SYY         1    4    2    2
 -5  SZZ         1    4    3    3
 -5  SXY         1    4    1    2
 -5  SYZ         1    4    2    3
 -5  SZX         1    4    3    1
 -1         1-1.51338E+06-4.98124E+05-3.09764E+05-4.65270E+05 4.41408E-10-9.70128E-12
 -1         2-8.15443E+05-2.12529E+04 1.08481E+04-3.93894E+04-1.67330E-09 1.54500E-10
 -1         3-5.32814E+05-1.67834E+05-2.53252E+04-1.91477E+04 1.70962E-09 5.94810E-10
 -1         4-3.89419E+05-3.94026E+04 2.42945E+03-3.70900E+04 2.03841E-09-1.01829E-09
 -1         5-2.64605E+05 3.54536E+04-9.72458E+04-5.37923E+03 7.84348E-09 3.60629E-09
 -1         8-6.85721E+05-2.71292E+05-8.11615E+04-2.94001E+05-3.03771E-10-9.56788E-10
 -1         9-7.77775E+05-1.86988E+05-7.96850E+04-1.98567E+05 1.13384E-10 9.94381E-10
 -1        10-1.88125E+05-1.47244E+05 3.60362E+04-3.48474E+04-6.16433E-09-2.72848E-09
 -1        11-1.47460E+05-2.05284E+04 7.36833E+03-5.43433E+04-1.91739E-08 2.55947E-10
 -1        12-1.48844E+05 5.40179E+04-7.05199E+04-2.48027E+04 1.61640E-09 1.18694E-09
 -1        15 2.19147E+04 2.39080E+04 8.93956E+03-1.50551E+04-5.30235E-10 5.51245E-09
 -1        16-6.03899E+05-1.03134E+05 1.41278E+04-2.31395E+05 5.52670E-10 1.86424E-09
 -1        17-3.28611E+05-2.05224E+05-3.67233E+04-1.67269E+05-2.47777E-09-1.11686E-09
 -1        18-1.53659E+04-1.83029E+04-1.84755E+04-5.37411E+04 4.10303E-09-1.55857E-09
 -1        19 1.80423E+04 5.62694E+04-1.60005E+04-8.24994E+03-6.34069E-10 6.02692E-10
 -1        20 5.07760E+04-3.85087E+04-6.61746E+03 2.75846E+04 1.87663E-09 1.24419E-09
 -1        21 1.03642E+03-7.62443E+04 2.12376E+04 1.82381E+01 5.04218E-09 1.90747E-10
 -1        22 2.97452E+04 8.89949E+04 5.05277E+03-4.22244E+03-4.98630E-10-9.71340E-10
 -1        23-7.08589E+04 6.32641E+04 1.03069E+04-1.40357E+04-5.36102E-09-2.93342E-09
 -1        24-1.57283E+05-1.93592E+04 1.32310E+05-2.49796E+05-7.85622E-09 2.04576E-09
 -1        25 2.95048E+05 9.86955E+04 9.05896E+04-1.50924E+05 5.76013E-10-2.69817E-11
 -1        26 8.34170E+02 8.06800E+04 4.03466E+03-1.38215E+04-4.60242E-10-7.12438E-12
 -1        27-1.73220E+04-3.21214E+04-1.38460E+04 3.89368E+04-4.02300E-10-6.71207E-10
 -1        28-6.12026E+03-6.06618E+04-3.33669E+02 2.92476E+04 4.27804E-10-2.22852E-09
 -1        29 1.56429E+05 1.27182E+05 5.40423E+02 3.46919E+03-1.83103E-10 3.00474E-10
 -1        30 4.36786E+04 1.95166E+04 4.77020E+03-1.31161E+04 1.99152E-09-9.05402E-09
 -1        31-7.04353E+04 2.20595E+04 9.92151E+03-2.87543E+04 3.48346E-09-1.48907E-08
 -1        32 5.18944E+05 2.62589E+05 3.21815E+05-2.48942E+05 5.49430E-09-3.74712E-10
 -1        33 7.05597E+05 2.80172E+05 2.15940E+05-2.14623E+04-1.39836E-08 4.77485E-11
 -1        34-1.02015E+05-1.25155E+04-2.01139E+03 2.28999E+04-4.90669E-10 1.61890E-10
 -1        35-1.73895E+04-2.02846E+04-3.64397E+02 4.39108E+04 1.21782E-09-2.18339E-09
 -1        36-1.80871E+06 5.22605E+04-1.20741E+05-4.35151E-08 6.20834E-11 3.92174E-09
 -1        37-1.86099E+06-6.04934E+04-8.54562E+04-3.18389E-08-2.72987E-09 2.53203E-09
 -1        38-1.82888E+06 8.19150E+03-3.12420E+04 1.87081E-08-7.84061E-10 1.25692E-09
 -1        39-1.83743E+06-9.47937E+03-1.96496E+04 1.47480E-07-2.56481E-09 2.58069E-10
 -1        40-1.83220E+06 1.28140E+03-8.02878E+03-7.81229E-08-2.54545E-09 3.70164E-10
 -1        41-1.83354E+06-1.50128E+03-4.79541E+03 1.61664E-07-2.70172E-09-2.19643E-09
 -1        42-1.83275E+06 2.19004E+02-2.34657E+03 8.67448E-08-2.97360E-10 1.46485E-09
 -1        43-1.83296E+06-3.86089E+02-1.86488E+03 1.02967E-07-3.41812E-09 1.52701E-09
 -1        44-1.83278E+06 1.66925E+02-1.88089E+03 1.16178E-07-1.69720E-09 1.07235E-09
 -1        45-1.83330E+06-1.05349E+03-3.44683E+03 1.60105E-07 1.98340E-09 5.33419E-10
 -1        46-1.83241E+06 8.85959E+02-5.60160E+03 2.38999E-07-1.28628E-09 3.28487E-09
 -1        47-1.83597E+06-6.53898E+03-1.35831E+04-1.32571E-07-2.25777E-09 3.03248E-09
 -1        48-1.83013E+06 5.64851E+03-2.15592E+04 1.01047E-07-7.05554E-10-2.85945E-09
 -1        49-1.85221E+06-4.17123E+04-5.89328E+04 1.64117E-07-1.00271E-09 1.34787E-09
 -1        50-1.81622E+06 3.60336E+04-8.32707E+04-1.24603E-07-2.76670E-09 2.05910E-09
 -1        51 1.76927E+04-2.11905E+05 2.81305E+04-5.54196E+05 1.45519E-11-2.17551E-09
 -1        52 7.60079E+03-2.08770E+05 1.69697E+04-6.10012E+05-1.81899E-11 1.97542E-09
 -1        53 4.60379E+03-2.13486E+05 1.36302E+04-5.52774E+05 7.27596E-12 9.24047E-10
 -1        54 1.09208E+04-2.10799E+05 2.06671E+04-6.11556E+05-1.74623E-10 1.96451E-10
 -1        55 2.63579E+04-2.17161E+05 3.74797E+04-5.52545E+05-1.01863E-10 1.12414E-09
 -1        56-2.52560E+06-2.84817E+05-2.09184E+05-9.77307E+05 2.00089E-10 2.89583E-09
 -1        57-2.62320E+06-4.55862E+05-1.40338E+05-9.53583E+05-1.87356E-10 9.64064E-11
 -1        58-2.56607E+06-3.51006E+05-4.92649E+04-9.66088E+05 5.63887E-11-1.98088E-09
 -1        59-2.57660E+06-3.77792E+05-2.92074E+04-9.66949E+05 2.41016E-10 1.30967E-09
 -1        60-2.57168E+06-3.60267E+05-1.15172E+04-9.64858E+05 1.81558E-09 3.05545E-09
 -1        61-2.57040E+06-3.66654E+05-6.51779E+03-9.68083E+05-7.93762E-10 3.20313E-10
 -1        62-2.57218E+06-3.61816E+05-3.17843E+03-9.65057E+05 5.88216E-10 2.31307E-09
 -1        63-2.57029E+06-3.64637E+05-2.66113E+03-9.67402E+05 3.24306E-09-1.32697E-09
 -1        64-2.57176E+06-3.62251E+05-3.09760E+03-9.65545E+05-2.06057E-10-2.54886E-10
 -1        65-2.57201E+06-3.64920E+05-6.27773E+03-9.66179E+05-2.99972E-09-5.54746E-09
 -1        66-2.57048E+06-3.61567E+05-1.10638E+04-9.66270E+05-1.14221E-09 1.39244E-09
 -1        67-2.57942E+06-3.74150E+05-2.80320E+04-9.63423E+05-2.59433E-10 2.78624E-09
 -1        68-2.56444E+06-3.53337E+05-4.72798E+04-9.68201E+05 6.53017E-10-3.87445E-10
 -1        69-2.62523E+06-4.47969E+05-1.34670E+05-9.49344E+05 1.28830E-09-2.52112E-09
 -1        70-2.52517E+06-2.90262E+05-2.00745E+05-9.79469E+05-3.34694E-10-1.02591E-09
 -1        71-1.08391E+06 7.48376E+03-1.73058E+04 3.88168E-08-1.11662E-09 2.43472E-09
 -1        72-1.09133E+06-8.66380E+03-1.22472E+04-1.98090E-07-4.07140E-10 3.92902E-09
 -1        73-1.08680E+06 1.17333E+03-4.48634E+03 1.18808E-07-9.40223E-10 6.70525E-10
 -1        74-1.08795E+06-1.35907E+03-2.83423E+03 1.64215E-07-2.00072E-09-2.55113E-09
 -1        75-1.08728E+06 1.84787E+02-1.18579E+03 2.29648E-07-1.49358E-09 1.02040E-09
 -1        76-1.08740E+06-2.24681E+02-7.61715E+02-2.43499E-07 5.51819E-11 2.80606E-09
 -1        77-1.08735E+06 3.97650E+01-4.75536E+02-7.21006E-10 9.43122E-10 1.14875E-09
 -1        78-1.08735E+06-1.18546E+02-5.73442E+02 7.98532E-08-4.56822E-10 8.28521E-10
 -1        79-1.08733E+06 7.87312E+01-8.24429E+02-4.98888E-08-9.86737E-10 2.17406E-09
 -1        80-1.08758E+06-5.59734E+02-1.77178E+03 5.04614E-08-1.38797E-10 2.95540E-09
 -1        81-1.08712E+06 4.80669E+02-3.00372E+03-2.92694E-08-7.32402E-10-1.17041E-09
 -1        82-1.08905E+06-3.55905E+03-7.37632E+03 5.74010E-08 6.38790E-10 5.22391E-10
 -1        83-1.08587E+06 3.07589E+03-1.17368E+04-6.97989E-08-5.45532E-10 2.64936E-09
 -1        84-1.09789E+06-2.27155E+04-3.20988E+04-8.70945E-08-2.89276E-10 2.08820E-09
 -1        85-1.07829E+06 1.96226E+04-4.53646E+04 1.28751E-08-1.70021E-09 1.25874E-09
 -1        86-3.93133E+04 1.02945E+05 9.24973E+04 1.16835E+03-7.63976E-11-4.14147E-10
 -1        87 4.95142E+04 1.45059E+05 7.26243E+04-4.92555E+03-3.74712E-10 3.51616E-10
 -1        88-1.01549E+04 1.16530E+05 3.83345E+04 8.51425E+02-8.19000E-10-6.15561E-10
 -1        89 3.73384E+04 1.39195E+05 5.67339E+04-4.68541E+03-4.18368E-11-1.78264E-09
 -1        90-2.71448E+04 1.08798E+05 6.52815E+04 9.28253E+02-8.76753E-10-2.96133E-10
 -1        91-7.62039E+05-1.46289E+05-1.25596E+04-3.16045E+05 1.70625E-08-2.84717E-09
 -1        92-6.61004E+05-7.36025E+03 2.84494E+04-1.50268E+05 3.58058E-08-1.07354E-09
 -1        93-6.73139E+05-1.27923E+05 1.43552E+01-3.04256E+05-9.02060E-09-2.43642E-09
 -1        94-5.68489E+05-2.39005E+04 3.95570E+04-1.47523E+05-2.10421E-08 4.40480E-09
 -1        95-8.52745E+05-1.31628E+05-3.62603E+04-3.17160E+05-5.03815E-09-2.14493E-09
 -1        96-4.64521E+05-8.60252E+04 4.68761E+04-2.14997E+05 3.33142E-08 3.54214E-09
 -1        97-7.76185E+05-6.67195E+04-1.00443E+04-2.36121E+05-2.40834E-09 4.16833E-09
 -1        98-5.48666E+05-1.49770E+05 1.76581E+04-3.00839E+05-1.73867E-08 1.26350E-08
 -1        99-7.71552E+05-6.48639E+04-9.13824E+03-2.33781E+05 1.85100E-08 5.07976E-09
 -1       100-4.66936E+05-8.91123E+04 4.49782E+04-2.18468E+05 1.46233E-08 9.77820E-09
 -1       101-8.55052E+05-1.30308E+05-3.82319E+04-3.16107E+05 6.45105E-09 5.23755E-09
 -1       102-5.63699E+05-2.69672E+04 3.60624E+04-1.47376E+05-1.33571E-09 5.84055E-09
 -1       103-6.75513E+05-1.26290E+05-8.12201E+03-3.05359E+05-1.77691E-08-9.07903E-10
 -1       104-6.72149E+05-2.29236E+04 6.17275E+03-1.47476E+05 4.00581E-09-3.28896E-09
 -1       105-7.48578E+05-1.32320E+05-4.28223E+04-3.17777E+05 1.15515E-08 8.40464E-09
 -1       106-8.47160E+05 1.06181E+04-2.45530E+04-1.30359E-07 1.41283E-09 1.14596E-10
 -1       107-8.57742E+05-1.22922E+04-1.73746E+04-5.86714E-08-6.86542E-10 1.38152E-09
 -1       108-8.51262E+05 1.66458E+03-6.35940E+03-1.20727E-07 6.47763E-10 7.59428E-11
 -1       109-8.52957E+05-1.92707E+03-4.00694E+03 1.24001E-07 4.37527E-10-3.63167E-09
 -1       110-8.51937E+05 2.61125E+02-1.65391E+03 4.49055E-08 6.39868E-10-1.39522E-09
 -1       111-8.52171E+05-3.10685E+02-1.01894E+03 1.24610E-07-1.73629E-11-1.58616E-09
 -1       112-8.52046E+05 4.93796E+01-5.58483E+02 1.26284E-07 5.60826E-10-8.10587E-10
 -1       113-8.52071E+05-1.15174E+02-5.57383E+02 1.04424E-07 4.64383E-10 9.79147E-10
 -1       114-8.52037E+05 6.57463E+01-7.05078E+02 1.52650E-08 8.21285E-10-2.27061E-10
 -1       115-8.52247E+05-4.51408E+02-1.44331E+03-8.75119E-08-1.06062E-09-1.10620E-09
 -1       116-8.51872E+05 3.85395E+02-2.41770E+03-6.92501E-08-7.33933E-10 1.77693E-10
 -1       117-8.53415E+05-2.85108E+03-5.91502E+03-4.29999E-08-7.72262E-10 1.64619E-09
 -1       118-8.50871E+05 2.46366E+03-9.40522E+03 7.82157E-09-1.48628E-09-3.13776E-10
 -1       119-8.60498E+05-1.81939E+04-2.57131E+04 4.33689E-08 7.42521E-10-1.12550E-09
 -1       120-8.44799E+05 1.57165E+04-3.63384E+04 5.69056E-08 2.52720E-10 1.46974E-09
 -1       121-7.86416E+02-5.36083E+05 3.48817E+03 2.21758E+03-3.80396E-10 3.10411E-09
 -1       122 1.02001E+03-5.34748E+05 2.03702E+03 7.83424E+03-9.62643E-10-9.85210E-10
 -1       123-6.07074E+01-5.35513E+05 4.55598E+02 2.34230E+03-1.06797E-09 2.11321E-09
 -1       124-4.53393E+02-5.35616E+05-6.28927E+02 7.55884E+03-2.16357E-09 5.07498E-10
 -1       125 3.43189E+02-5.35186E+05-1.59539E+03 2.49279E+03-1.99950E-09 2.02908E-09
 -1       126-3.08631E+05-6.23535E+04 1.28738E+04-1.17613E+05 1.41572E-08-1.84627E-10
 -1       127-2.26577E+05 1.92357E+03 2.77163E+04-6.54164E+04 2.92621E-08 7.31234E-10
 -1       128-2.64487E+05-5.18984E+04 3.33034E+03-1.16330E+05 1.23114E-08-2.14595E-09
 -1       129-2.80474E+05-1.01734E+04 5.25465E+03-6.84047E+04 3.37498E-08-2.98087E-10
 -1       130-2.55523E+05-4.96806E+04 9.55251E+02-1.15258E+05 4.42700E-08-7.17876E-10
 -1       131-2.53962E+05-1.17363E+04 7.92916E+03-6.43916E+04-2.81577E-08-5.53936E-09
 -1       132-2.90538E+05-5.06807E+04-6.92970E+03-1.19965E+05-8.56971E-09 4.34562E-09
 -1       133-1.94141E+05-1.78389E+04 1.78435E+04-6.46948E+04 2.87724E-08-8.36934E-10
 -1       134-3.14421E+05-4.42691E+04-1.05650E+04-1.14247E+05 6.11885E-09-3.99012E-09
 -1       135-1.88343E+05-3.78643E+04 1.47951E+04-8.92257E+04 3.05135E-09-3.27989E-09
 -1       136-2.96555E+05-3.04970E+04-4.95969E+03-9.56425E+04-6.22617E-09-1.32437E-09
 -1       137-2.25787E+05-5.85224E+04 2.71073E+03-1.19419E+05-2.05004E-08-2.82071E-09
 -1       138-2.77978E+05-2.28564E+04-1.58618E+03-8.47884E+04 3.50016E-08 5.65421E-09
 -1       139-2.26992E+05-5.98127E+04-1.17604E+03-1.19526E+05-2.73481E-08-2.43783E-08
 -1       140-2.95360E+05-2.92003E+04-1.31926E+04-9.55414E+04-2.16236E-08-2.32785E-09
 -1       141-5.03858E+05 2.43977E+03-5.64554E+03 4.53793E-08-7.96108E-10-1.17393E-09
 -1       142-5.06262E+05-2.82477E+03-4.00023E+03 3.88284E-08-2.95526E-10-1.13448E-09
 -1       143-5.04800E+05 3.82801E+02-1.47674E+03-2.32935E-07-7.20613E-10 8.40828E-10
 -1       144-5.05165E+05-4.45346E+02-9.52911E+02-2.48055E-07-1.50210E-10-2.26767E-09
 -1       145-5.04954E+05 6.22268E+01-4.41477E+02 7.01418E-08-2.25659E-10-3.86559E-09
 -1       146-5.04995E+05-8.84373E+01-3.65289E+02-1.36120E-07 2.97619E-11-4.43691E-09
 -1       147-5.04970E+05 2.61668E+01-3.73964E+02-9.43333E-08 1.93165E-10 4.45560E-10
 -1       148-5.05028E+05-1.38078E+02-6.68683E+02-5.47601E-08 3.84506E-10-1.52170E-10
 -1       149-5.04921E+05 1.11854E+02-1.14193E+03-9.80572E-08-2.03076E-10 7.54540E-10
 -1       150-5.05391E+05-8.25206E+02-2.58813E+03-8.42247E-08-9.30208E-10 1.40653E-09
 -1       151-5.04608E+05 7.12865E+02-4.44213E+03-3.43989E-08-5.46004E-10 2.43722E-09
 -1       152-5.07564E+05-5.28291E+03-1.09457E+04-2.92734E-08 2.90674E-10 7.96717E-10
 -1       153-5.02751E+05 4.56637E+03-1.74277E+04-7.90685E-08 2.07079E-09-2.04818E-09
 -1       154-5.20691E+05-3.37232E+04-4.76615E+04 2.61089E-08 3.42518E-10-3.52429E-09
 -1       155-4.91487E+05 2.91319E+04-6.73514E+04 4.27952E-08 4.50730E-09-2.18279E-10
 -1       156-1.54463E+04-6.24145E+04 3.41826E+04 9.96581E+03 3.26690E-09 2.66255E-10
 -1       157 1.82168E+04-3.48451E+04 2.78130E+04-4.00328E+04 8.89304E-09 2.00401E-10
 -1       158-2.59287E+03-5.48067E+04 1.18651E+04 9.99300E+03 4.45971E-09-5.12330E-10
 -1       159 1.17702E+04-1.20043E+04 2.20296E+04-3.87389E+04 1.87669E-09-2.28459E-09
 -1       160-9.48471E+03-8.45984E+04 8.81363E+03 8.67513E+03-6.62067E-09-2.52976E-09
 -1       161-3.32937E+05-5.49890E+04 2.71640E+03-1.28227E+05-1.42611E-08-2.81943E-11
 -1       162-3.10015E+05-2.59337E+04 8.87656E+03-1.00601E+05-1.58534E-08-2.44273E-09
 -1       163-3.13001E+05-5.36445E+04 1.01629E+03-1.29737E+05 1.38668E-08-4.68367E-09
 -1       164-3.30607E+05-2.75732E+04 1.76402E+03-9.92162E+04-6.12260E-09 3.50653E-10
 -1       165-3.12624E+05-5.31384E+04-1.36898E+02-1.29833E+05-2.99713E-08-4.18174E-09
 -1       166-3.12574E+05-3.02452E+04 4.07359E+03-9.97354E+04-1.33286E-08 2.33619E-09
 -1       167-3.30759E+05-5.11845E+04-3.61845E+03-1.28997E+05 8.40180E-09-7.97428E-10
 -1       168-2.87314E+05-3.94106E+04 6.81543E+03-1.08257E+05 2.03746E-08 4.67239E-10
 -1       169-3.37602E+05-4.41914E+04-4.17816E+03-1.21098E+05-3.82015E-08 1.70655E-09
 -1       170-2.89677E+05-5.42721E+04 2.32282E+03-1.26336E+05-8.44020E-08-3.57512E-09
 -1       171-3.28675E+05-3.61086E+04-3.27633E+03-1.11139E+05 3.39260E-08 1.46697E-08
 -1       172-3.00470E+05-6.48906E+04-6.76982E+03-1.35942E+05 1.08182E-08 4.73062E-09
 -1       173-3.27093E+05-3.33565E+04-1.26941E+04-1.11702E+05-2.70395E-08-3.28328E-10
 -1       174-3.03406E+05-7.79390E+04-3.17271E+04-1.21635E+05 2.82263E-08 4.51109E-09
 -1       175-3.25455E+05-2.32959E+04-5.58057E+04-1.25227E+05 1.49730E-08-2.74304E-09
 -1       191 7.65514E+02 2.67979E+05 1.21197E+03-1.00811E+04-3.81988E-10 3.24235E-09
 -1       192 2.74709E+02 2.68149E+05 6.87312E+02-1.08826E+04-4.93628E-10 3.05090E-09
 -1       193 1.09924E+02 2.68039E+05 4.90877E+02-9.95632E+03-9.60597E-10 1.07830E-08
 -1       194 2.66682E+02 2.68138E+05 6.66146E+02-1.11102E+04-1.17529E-09 1.90776E-08
 -1       195 7.35633E+02 2.67971E+05 1.15974E+03-9.85306E+03-1.42700E-09 9.99353E-09
 -1       251-9.65728E+05 3.86190E+03-4.73881E+04-4.03727E+04-8.00355E-11-6.33190E-09
 -1       252-7.96728E+05-8.71326E+03-7.95216E+02 1.11273E+05-9.05686E-10 7.43785E-09
 -1       253-9.03997E+05 6.39992E+03-1.04168E+04-5.32799E+04 3.99677E-09-9.00718E-09
 -1       254-7.03005E+05 3.33999E+03 3.22976E+04 7.05485E+04 4.60477E-09 8.31744E-09
 -1       255-1.05655E+06-1.11153E+04-3.67227E+04 3.68354E+02 6.16274E-09 8.40942E-10
 -1       256-6.75602E+05 7.68708E+03 4.15388E+04-4.34775E+04 8.47149E-09-6.57201E-09
 -1       257-9.30518E+05 1.18160E+03-8.92452E+03 6.06352E+04 2.87855E-10 1.36409E-08
 -1       258-8.02592E+05-2.92751E+02 1.56928E+04-1.03081E+05-1.00667E-09-1.69125E-08
 -1       259-9.33531E+05 8.68146E+02-9.54159E+03 6.00843E+04-1.35021E-08 1.17540E-08
 -1       260-6.73162E+05 7.85551E+03 4.20923E+04-4.16914E+04 1.71224E-09-8.60149E-09
 -1       261-1.05590E+06-1.10433E+04-3.64960E+04-8.66993E+02 6.12681E-09 2.65459E-09
 -1       262-7.05850E+05 3.21699E+03 3.18999E+04 7.21427E+04 3.97540E-09 5.26222E-09
 -1       263-9.01890E+05 6.54123E+03-9.62153E+03-5.36380E+04-8.23707E-09-1.22554E-08
 -1       264-7.95254E+05-7.94066E+03 3.89276E+02 1.10830E+05-4.45786E-08 8.68522E-09
 -1       265-9.69272E+05 2.90982E+03-4.67656E+04-3.95710E+04-1.67111E-08-6.36101E-09
 -1       266-1.72219E+04-1.07297E+05 3.96067E+04-3.43490E+03-1.81899E-12 7.12987E-10
 -1       267 1.92557E+04-8.89765E+04 2.71196E+04 1.43882E+04 5.77529E-11 2.71491E-09
 -1       268-2.03797E+03-1.01058E+05 7.80173E+03-3.22707E+03-2.36469E-11 3.78719E-09
 -1       269-1.01318E+03-9.35502E+04 1.18557E+03 1.30681E+04 1.63709E-11 4.19527E-09
 -1       270 2.93909E+03-1.02604E+05-7.89159E+03-2.11578E+03 1.20508E-10 6.25403E-09
 -1       271-2.08633E+06-2.65215E+05-1.62484E+05-8.07037E+05-5.27507E-10-1.28057E-09
 -1       272-2.13995E+06-3.70022E+05-1.01877E+05-8.10956E+05-1.77840E-09-2.29920E-09
 -1       273-2.11449E+06-3.00037E+05-3.83127E+04-8.02917E+05 1.77153E-10-1.19326E-09
 -1       274-2.10722E+06-3.24075E+05-2.09088E+04-8.18756E+05-1.23146E-09-4.41287E-09
 -1       275-2.11798E+06-3.03322E+05-8.90271E+03-8.02212E+05-1.52113E-10-1.38061E-09
 -1       276-2.10310E+06-3.19917E+05-4.68952E+03-8.20036E+05-7.45786E-10-1.09708E-09
 -1       277-2.11859E+06-3.03467E+05-2.40515E+03-8.01942E+05 1.64846E-10-1.09321E-09
 -1       278-2.10244E+06-3.19771E+05-1.86628E+03-8.20434E+05-6.63533E-10 4.35705E-11
 -1       279-2.11867E+06-3.03396E+05-2.21572E+03-8.01863E+05-3.72381E-10 1.86242E-09
 -1       280-2.10279E+06-3.20128E+05-4.17590E+03-8.20384E+05-7.03722E-10 4.21130E-09
 -1       281-2.11825E+06-3.03150E+05-7.84537E+03-8.01977E+05 1.03080E-09 5.14729E-09
 -1       282-2.10625E+06-3.23973E+05-1.84009E+04-8.19496E+05 3.52316E-10 2.00771E-09
 -1       283-2.11527E+06-3.00174E+05-3.36880E+04-8.02503E+05-5.85032E-10-1.90994E-09
 -1       284-2.13488E+06-3.64531E+05-8.95922E+04-8.12818E+05 5.52291E-10 5.67525E-10
 -1       285-2.09057E+06-2.69484E+05-1.42884E+05-8.06052E+05-2.07365E-10 1.52068E-09
 -1       286-1.31169E+05-1.69887E+04 3.92797E+04-6.58227E+01 8.85997E-10 6.38465E-10
 -1       287-1.13932E+05 1.96676E+04 2.78207E+04-3.44376E+02-1.12049E-10-3.54794E-09
 -1       288-1.24590E+05-2.66418E+03 1.01637E+04 1.14884E+02-1.41846E-10-2.83990E-09
 -1       289-1.21625E+05 3.08276E+03 6.41514E+03-6.77887E+02 3.96341E-11 5.87420E-10
 -1       290-1.23481E+05-4.17006E+02 2.61968E+03 2.67703E+02 5.24544E-10 1.47429E-09
 -1       291-1.22933E+05 4.90038E+02 1.58432E+03-9.15880E+02 1.23694E-09-1.57769E-10
 -1       292-1.23283E+05-7.25041E+01 7.96989E+02 3.52882E+02 7.70261E-08 1.97144E-09
 -1       293-1.23135E+05 1.39413E+02 6.79037E+02-1.00150E+03 1.51005E-07-2.06594E-09
 -1       294-1.23280E+05-6.62246E+01 7.40731E+02 3.53323E+02 7.68595E-08 2.58638E-11
 -1       295-1.22962E+05 4.36073E+02 1.42136E+03-9.17553E+02 7.72205E-10 2.35734E-09
 -1       296-1.23456E+05-3.69347E+02 2.32657E+03 2.68935E+02 5.78314E-10 3.85853E-10
 -1       297-1.21801E+05 2.72847E+03 5.68294E+03-6.80772E+02 1.09988E-09-3.21415E-09
 -1       298-1.24440E+05-2.35780E+03 8.99504E+03 1.16538E+02 9.15684E-10 3.11957E-10
 -1       299-1.14989E+05 1.74048E+04 2.46224E+04-3.46326E+02 4.47926E-10 1.03273E-09
 -1       300-1.30263E+05-1.50342E+04 3.47572E+04-6.55242E+01 5.07285E-10-2.05546E-09
 -1       301 2.81130E+04 3.27984E+03 6.31758E+04-1.91079E+04-2.61934E-10 8.66692E-10
 -1       302 9.54416E+03 1.52157E+04 3.89920E+04-2.25072E+04-4.37467E-10-1.56431E-09
 -1       303 2.66926E+03 7.49562E+03 3.16593E+04-1.91203E+04-4.44288E-10-6.23913E-09
 -1       304 1.27345E+04 1.71392E+04 4.76487E+04-2.24852E+04-4.74756E-10-9.18118E-09
 -1       305 3.84246E+04 1.36549E+03 8.41450E+04-1.91177E+04-4.25644E-10-3.70483E-09
 -1       306-1.37582E+06-1.80829E+05-8.93540E+04-5.33192E+05-2.00089E-11 2.91038E-11
 -1       307-1.39624E+06-2.47330E+05-5.59960E+04-5.45612E+05-6.33918E-10-1.94268E-09
 -1       308-1.39137E+06-1.99862E+05-2.10788E+04-5.30869E+05-1.36424E-10-1.08957E-09
 -1       309-1.37825E+06-2.22153E+05-1.15062E+04-5.50014E+05 3.45608E-10-7.54881E-10
 -1       310-1.39330E+06-2.01649E+05-4.91646E+03-5.30482E+05 1.26920E-09 1.80580E-09
 -1       311-1.37603E+06-2.19842E+05-2.61996E+03-5.50709E+05 7.70683E-10 1.10020E-09
 -1       312-1.39361E+06-2.01753E+05-1.40515E+03-5.30367E+05 6.68933E-10-1.61606E-09
 -1       313-1.37577E+06-2.19687E+05-1.20736E+03-5.50830E+05-1.86205E-10 2.42039E-10
 -1       314-1.39359E+06-2.01767E+05-1.58584E+03-5.30386E+05-2.36957E-09 6.70525E-10
 -1       315-1.37615E+06-2.19840E+05-3.11508E+03-5.50621E+05-3.71278E-09 9.45761E-10
 -1       316-1.39319E+06-2.01653E+05-5.92586E+03-5.30537E+05-4.00246E-09-3.57795E-09
 -1       317-1.37884E+06-2.22639E+05-1.39173E+04-5.49782E+05-3.12411E-10 1.54614E-09
 -1       318-1.39087E+06-1.99475E+05-2.55092E+04-5.30991E+05-5.67525E-10-9.85892E-10
 -1       319-1.40057E+06-2.53174E+05-6.77831E+04-5.44530E+05-1.70040E-09-4.91127E-10
 -1       320-1.37208E+06-1.76379E+05-1.08148E+05-5.33751E+05-1.31240E-09 5.89353E-10
 -1       321-2.88113E+05-1.03886E+04 1.93179E+04-4.15285E+03-3.52759E-09-2.39288E-09
 -1       322-2.56330E+05 1.18422E+04 1.77971E+04 1.35564E+04-1.40219E-08-7.15772E-10
 -1       323-2.76599E+05-1.48808E+03 5.11067E+03-8.42951E+03 6.27153E-09-6.19889E-09
 -1       324-2.70774E+05 1.68782E+03 3.86836E+03 1.86356E+04 2.80980E-08 5.88477E-09
 -1       325-2.73929E+05-4.09556E+01 1.40259E+03-9.23589E+03-7.49171E-09-4.55549E-09
 -1       326-2.66870E+05 3.31039E+02 2.09509E+03 1.64760E+04-1.33944E-08 3.07639E-09
 -1       327-2.80385E+05-2.26306E+02-1.01021E+03-6.26768E+03 6.20696E-09-3.23048E-09
 -1       328-2.54466E+05 5.67836E+02 3.95551E+03 7.81290E+03-1.32177E-08 9.52078E-10
 -1       329-2.86009E+05-5.31285E+02-2.50605E+03-5.71068E+02-3.78986E-09 7.84922E-10
 -1       330-2.52241E+05 5.89941E+02 4.09750E+03-3.96906E+03-2.14641E-10-2.37499E-10
 -1       331-2.82551E+05-2.94987E+02-2.17600E+03 5.50930E+03-1.90232E-09 4.04580E-09
 -1       332-2.63713E+05-1.51762E+02 1.05491E+03-1.39506E+04-2.62246E-08-6.38225E-09
 -1       333-2.74828E+05 4.37750E+02-1.82553E+03 9.41111E+03-2.20717E-08 5.80690E-09
 -1       334-2.73308E+05-2.65242E+03-3.86464E+03-1.81571E+04-1.74714E-08-8.45478E-09
 -1       335-2.73177E+05 2.37663E+03-6.22288E+03 9.72023E+03 1.29820E-08 6.55291E-09
 -1       336 6.69228E+02-5.47212E+05-3.77236E+03-8.96766E+03-2.59192E-09 2.41880E-09
 -1       337-1.29870E+03-5.48663E+05-4.26782E+03-3.36851E+04-4.80748E-09 7.50936E-09
 -1       338 4.77484E+02-5.47348E+05-5.34088E+03-8.87468E+03-2.99087E-09 4.51337E-09
 -1       339-5.46203E+03-5.51216E+05-1.18547E+04-3.37524E+04-5.29747E-09 5.57691E-09
 -1       340 3.93429E+03-5.44693E+05-1.82136E+04-8.90146E+03-2.79579E-09 5.85271E-09
 -1       341-3.89539E+05-7.82559E+04-5.50201E+03-1.53626E+05 3.89404E-08 3.65708E-09
 -1       342-2.51687E+05 9.20893E+03 3.00927E+04-5.84107E+04 2.05485E-08 6.27779E-10
 -1       343-3.08365E+05-6.48499E+04 8.26085E+02-1.44143E+05-2.74227E-08-1.69503E-08
 -1       344-3.32347E+05-4.33586E+03 6.10071E+03-6.81152E+04 6.86779E-08 6.66935E-09
 -1       345-3.10182E+05-6.37154E+04-1.94299E+03-1.45010E+05 6.77240E-08-1.83987E-09
 -1       346-2.52424E+05-3.01823E+03 2.06049E+04-5.53098E+04-4.84521E-08-6.15677E-09
 -1       347-3.86893E+05-6.72460E+04-1.78477E+04-1.55779E+05 1.74884E-08-5.02394E-09
 -1       348-1.59524E+05-1.74514E+04 3.54218E+04-6.29207E+04 1.63486E-08-4.33545E-09
 -1       349-4.01693E+05-5.03644E+04-1.79371E+04-1.36378E+05-1.49305E-08-2.90305E-09
 -1       350-2.02280E+05-5.79162E+04 1.84205E+04-1.17834E+05 1.63909E-08-1.68065E-08
 -1       351-3.45535E+05-2.57045E+04-4.17333E+03-1.01997E+05-9.22830E-09-1.80384E-08
 -1       352-2.60092E+05-8.25444E+04-9.26908E+02-1.52741E+05-7.97916E-08-4.45723E-08
 -1       353-3.45304E+05-2.46209E+04-1.07928E+04-1.02493E+05 2.24202E-08 2.03727E-10
 -1       354-2.07810E+05-6.82714E+04-2.57530E+03-1.15054E+05-3.10447E-08-5.85442E-09
 -1       355-3.96367E+05-4.11224E+04-5.40023E+04-1.38639E+05-1.12013E-08 1.90994E-10
 -1       356-2.87717E+05 2.82747E+03-7.61338E+03 1.05439E+04 1.44104E-09 6.20867E-09
 -1       357-2.87386E+05-3.19802E+03-4.66775E+03-2.01161E+04 3.63844E-08-7.28602E-09
 -1       358-2.88805E+05 5.60069E+02-2.13169E+03 1.05193E+04 1.43593E-08 5.52564E-09
 -1       359-2.76980E+05-2.29128E+02 1.00350E+03-1.58584E+04-1.38110E-08-6.06508E-09
 -1       360-2.97886E+05-3.25834E+02-2.56592E+03 6.28122E+03-1.85144E-08 6.96281E-09
 -1       361-2.63176E+05 6.73421E+02 4.55139E+03-4.75270E+03-3.27676E-08 6.15728E-10
 -1       362-3.02257E+05-6.18482E+02-3.23994E+03-5.87610E+02-6.65636E-10-4.79858E-10
 -1       363-2.65628E+05 5.38496E+02 3.92686E+03 8.58424E+03-1.20276E-08-1.84599E-10
 -1       364-2.95498E+05-1.40625E+02-2.37344E+03-7.04955E+03-1.76922E-08-3.69968E-09
 -1       365-2.80659E+05-5.25875E+02-4.10349E+02 1.83100E+04 4.03394E-08 5.01760E-09
 -1       366-2.87610E+05 7.46688E+02-3.16079E+03-1.03157E+04-2.78615E-08-6.96241E-09
 -1       367-2.86972E+05-3.77674E+03-7.31974E+03 2.04595E+04-3.69840E-08 7.07007E-09
 -1       368-2.89311E+05 3.20606E+03-1.30858E+04-9.20139E+03-1.11147E-08-5.56020E-09
 -1       369-2.83569E+05-2.27969E+04-3.08234E+04 1.41412E+04-2.83510E-08 6.34282E-09
 -1       370-2.90692E+05 1.94989E+04-5.08497E+04-3.99251E+03-2.82535E-09-3.52520E-09
 -1       371-9.38305E+03-9.44656E+04 5.14268E+03 9.52521E+03-7.28141E-09 2.02135E-10
 -1       372 8.48410E+03-1.46883E+04 1.58168E+04-4.24903E+04 4.63842E-09-5.68150E-11
 -1       373 5.90913E+02-5.88604E+04 3.89157E+02 1.10802E+04 5.36761E-09-2.50583E-09
 -1       374-4.03869E+03-4.91486E+04-3.40997E+03-4.38921E+04 1.04556E-08 5.37507E-09
 -1       375 3.66427E+03-6.07385E+04-1.08252E+04 1.09241E+04 4.53656E-09 3.78941E-09
 -1       376-2.69649E+05-2.67307E+04-9.35878E+03-8.86761E+04-1.68117E-09 8.31278E-10
 -1       377-2.27123E+05-5.50421E+04-2.61254E+03-1.12480E+05 1.51721E-08-7.53079E-09
 -1       378-2.62117E+05-2.43081E+04-1.47739E+03-8.30718E+04 1.30271E-09 5.19543E-09
 -1       379-2.21626E+05-5.12485E+04 2.05829E+03-1.09313E+05 2.84326E-08 8.91350E-09
 -1       380-2.75023E+05-3.06145E+04-3.80062E+03-9.17570E+04 3.36133E-08 2.83862E-09
 -1       381-1.99681E+05-3.58045E+04 9.93086E+03-8.74827E+04 1.77014E-08 2.00188E-09
 -1       382-2.83422E+05-4.02281E+04-7.00808E+03-1.04429E+05-1.34132E-08 4.75694E-09
 -1       383-2.08818E+05-2.15263E+04 1.08983E+04-7.04454E+04-1.08310E-08 2.82003E-09
 -1       384-2.65812E+05-4.49445E+04-4.85509E+03-1.08715E+05 7.12827E-08 5.08442E-09
 -1       385-2.49518E+05-1.67587E+04 3.16136E+03-6.87315E+04 7.00007E-08 4.10557E-09
 -1       386-2.43326E+05-4.45495E+04-2.12938E+03-1.06605E+05-4.91690E-08-1.13380E-09
 -1       387-2.67684E+05-1.85811E+04-4.21266E+03-6.99412E+04 3.59545E-08-4.84272E-09
 -1       388-2.47921E+05-4.29206E+04-9.97231E+03-1.07727E+05 3.70774E-08-2.69424E-08
 -1       389-2.44074E+05-3.34173E+04-1.80372E+04-6.51936E+04-3.62998E-08-9.95897E-09
 -1       390-2.66434E+05-3.00937E+04-4.33014E+04-1.10948E+05-1.70503E-08-2.19552E-09
 -1       406 5.90105E+02 2.65366E+05 1.30048E+03-2.24386E+04-1.95450E-09-1.09867E-09
 -1       407 4.03475E+02 2.65603E+05 1.63724E+03-2.46108E+04-2.25987E-09-6.67342E-10
 -1       408 6.83264E+02 2.65315E+05 2.74408E+03-2.23457E+04-2.25236E-09-9.26639E-09
 -1       409 2.74330E+03 2.66380E+05 5.91819E+03-2.47470E+04-2.74486E-09-1.56485E-08
 -1       410 7.90114E+03 2.64561E+05 1.19474E+04-2.22977E+04-2.57569E-09-7.61588E-09
 -1       466 6.11515E+05-2.46608E+04 5.41651E+04 1.04639E+04 4.66571E-10 9.48057E-09
 -1       467 6.50343E+05 2.82246E+04 4.09510E+04-1.67299E+04 2.44427E-11 2.57569E-09
 -1       468 6.26953E+05-3.63682E+03 1.42891E+04 2.94799E+03 7.18615E-10 2.01817E-09
 -1       469 6.32541E+05 4.17619E+03 9.22630E+03-6.60646E+03 1.05954E-09-8.71296E-10
 -1       470 6.29174E+05-5.43310E+02 3.78537E+03 3.39584E+02-2.61352E-10 3.88127E-10
 -1       471 6.29990E+05 6.58051E+02 2.40700E+03-3.10327E+03-1.08346E-09-8.91987E-10
 -1       472 6.29487E+05-1.10140E+02 1.44375E+03-5.55273E+02-7.88038E-10-2.07666E-09
 -1       473 6.29725E+05 3.29763E+02 1.64942E+03-1.96435E+03 6.94467E-12-2.12229E-09
 -1       474 6.29438E+05-2.13858E+02 2.30239E+03-7.99359E+02-1.43693E-09-2.17301E-09
 -1       475 6.30349E+05 1.53440E+03 4.88681E+03-1.83842E+03-4.23868E-11-1.87111E-09
 -1       476 6.28862E+05-1.31390E+03 8.26381E+03-6.81193E+02 1.23496E-09-2.21053E-09
 -1       477 6.34398E+05 9.75134E+03 2.02666E+04-2.57765E+03-4.57868E-10-1.19326E-09
 -1       478 6.25383E+05-8.42504E+03 3.22256E+04-6.01137E+01 3.67070E-10 1.38789E-09
 -1       479 6.59070E+05 6.23142E+04 8.81717E+04-5.12235E+03 2.48320E-09-9.20409E-10
 -1       480 6.04192E+05-5.38340E+04 1.24435E+05 1.86344E+03 3.62624E-09-1.39698E-09
 -1       481-6.21877E+03 1.21030E+05 9.73116E+03-7.77723E+03-9.09495E-11-1.72747E-09
 -1       482 6.78628E+03 1.48020E+05 1.11518E+04 2.68814E+04-7.50333E-11 1.80728E-09
 -1       483-6.87723E+02 1.33311E+05 3.93056E+03-6.04989E+03-5.07043E-11-4.66756E-10
 -1       484 2.66173E+03 1.39019E+05 5.05744E+03 2.56982E+04-2.51319E-11-4.68187E-10
 -1       485-1.97808E+03 1.29857E+05 3.47746E+03-6.59300E+03 2.22826E-11-1.23782E-09
 -1       486-5.97579E+05-9.62886E+04-6.76943E+04-2.70953E+05 1.47338E-09 5.13319E-09
 -1       487-5.95210E+05-3.40511E+04-2.25417E+04-1.18362E+05-2.35286E-09 1.63186E-08
 -1       488-5.84031E+05-1.08318E+05-1.86591E+04-2.64476E+05 7.69182E-09-3.98995E-09
 -1       489-4.51701E+05-2.07939E+04 3.15071E+04-1.15143E+05 7.62839E-09-3.97904E-09
 -1       490-7.38676E+05-1.11811E+05-3.75064E+04-2.72091E+05 3.38991E-09 1.83195E-09
 -1       491-3.69271E+05-7.29038E+04 4.26567E+04-1.77967E+05 3.63798E-10 1.24561E-08
 -1       492-6.65904E+05-5.67239E+04-1.10129E+04-2.01336E+05-2.30330E-10 2.65676E-08
 -1       493-4.65050E+05-1.32792E+05 1.31898E+04-2.61204E+05 2.41508E-09 4.71114E-08
 -1       494-6.45870E+05-4.91140E+04-5.74684E+03-1.91222E+05-5.71538E-09 1.07226E-08
 -1       495-3.84515E+05-8.60180E+04 3.72479E+04-1.95664E+05-9.99421E-10 9.12644E-09
 -1       496-7.43982E+05-1.05830E+05-3.70939E+04-2.64932E+05 7.13749E-09 7.65931E-09
 -1       497-4.20871E+05-2.41635E+04 3.74840E+04-1.17501E+05 8.90941E-09 6.86214E-10
 -1       498-6.09041E+05-1.11403E+05-2.26810E+04-2.68861E+05 1.41205E-08-9.37871E-09
 -1       499-5.93615E+05-3.20266E+04-1.91131E+04-1.18637E+05 3.96506E-09-1.87028E-08
 -1       500-5.74153E+05-9.52370E+04-5.74159E+04-2.66284E+05-1.32814E-08 2.15587E-08
 -1       501-4.10454E+05-1.45035E+04 3.29681E+04 4.50489E+02-1.03091E-09-6.16637E-10
 -1       502-3.92859E+05 1.67767E+04 2.38980E+04-3.23036E+03-1.29121E-09-4.13775E-09
 -1       503-4.04103E+05-2.26790E+03 8.49622E+03 2.94042E+03-2.08212E-09-5.09317E-09
 -1       504-4.00705E+05 2.61456E+03 5.48591E+03-6.57885E+03-8.06239E-10-6.03484E-09
 -1       505-4.02645E+05-3.17387E+02 2.19566E+03 3.79911E+03 2.69997E-09-6.35225E-09
 -1       506-4.01564E+05 4.11435E+02 1.39095E+03-6.15128E+03 4.43097E-09-2.96075E-09
 -1       507-4.03246E+05-7.80427E+01 3.87738E+02 2.51284E+03 4.20746E-09-3.09743E-09
 -1       508-4.00399E+05 1.25252E+02 6.68797E+02-2.16429E+03 2.97973E-09-2.38617E-09
 -1       509-4.03780E+05-6.72692E+01-1.98720E+02-1.87987E+02-1.14511E-10 1.44018E-09
 -1       510-4.00626E+05 1.88912E+01 2.71561E+02 3.09802E+03-6.88146E-10 6.68206E-09
 -1       511-4.03018E+05 3.87710E+01-3.74183E+02-2.74941E+03-5.48778E-09 3.04448E-09
 -1       512-4.02130E+05-3.48804E+02-6.24092E+02 6.61146E+03-6.47802E-09 4.40072E-09
 -1       513-4.02306E+05 3.36135E+02-1.15847E+03-3.70154E+03-2.95037E-09 4.77814E-09
 -1       514-4.02866E+05-2.20424E+03-3.07474E+03 6.36286E+03-2.16098E-09 6.56701E-09
 -1       515-4.02286E+05 1.88324E+03-4.70154E+03-2.50080E+03-2.30133E-09 3.15754E-09
 -1       516-3.93046E+04 2.22664E+05 9.12067E+04-6.88002E+03-3.09228E-10-2.71882E-09
 -1       517 4.67802E+04 2.67946E+05 6.83260E+04 2.90230E+04-8.28550E-10-5.73944E-09
 -1       518-7.40198E+03 2.36911E+05 2.95241E+04-6.88637E+03 9.44965E-10-2.13259E-09
 -1       519 2.17550E+04 2.76956E+05 3.78071E+04 3.39882E+04-4.32846E-09 1.96493E-09
 -1       520-1.46310E+04 2.14146E+05 2.64006E+04-1.18492E+04-1.06684E-09-1.03306E-08
 -1       521-2.07094E+06-2.67413E+05-1.40933E+05-7.98828E+05-6.42103E-10-7.05768E-10
 -1       522-2.11343E+06-3.62295E+05-8.83567E+04-8.06823E+05 1.71667E-10-3.92902E-10
 -1       523-2.09538E+06-2.97592E+05-3.32270E+04-7.95243E+05-2.98726E-10 9.22228E-10
 -1       524-2.08509E+06-3.22424E+05-1.81389E+04-8.13574E+05 5.37511E-10 1.59889E-09
 -1       525-2.09837E+06-3.00469E+05-7.72475E+03-7.94664E+05 1.15620E-09 1.25783E-09
 -1       526-2.08160E+06-3.18721E+05-4.08382E+03-8.14569E+05-7.77163E-10-2.20336E-09
 -1       527-2.09883E+06-3.00668E+05-2.11664E+03-7.94509E+05-8.74763E-10-3.09308E-09
 -1       528-2.08120E+06-3.18427E+05-1.69020E+03-8.14701E+05-1.03491E-09-8.83233E-10
 -1       529-2.09879E+06-3.00716E+05-2.06786E+03-7.94556E+05-2.65106E-09 1.74623E-09
 -1       530-2.08174E+06-3.18540E+05-3.94547E+03-8.14362E+05-7.11862E-09-3.28703E-09
 -1       531-2.09825E+06-3.00619E+05-7.44704E+03-7.94804E+05-1.64641E-09 2.32512E-09
 -1       532-2.08525E+06-3.21930E+05-1.74655E+04-8.13183E+05 2.57387E-10 1.49203E-09
 -1       533-2.09527E+06-2.97949E+05-3.19955E+04-7.95462E+05-7.50902E-10 8.27640E-10
 -1       534-2.11272E+06-3.60119E+05-8.50614E+04-8.06448E+05-4.50655E-10 3.63798E-11
 -1       535-2.07164E+06-2.69004E+05-1.35689E+05-7.99028E+05-7.91260E-10 6.62112E-10
 -1       536-8.99426E+02-7.11169E+03 3.26580E+04-5.92199E+03 6.64841E-10-6.05723E-10
 -1       537 1.08492E+04 9.84274E+03 2.07872E+04-2.08206E+04-1.78716E-09-9.45874E-10
 -1       538 3.96796E+03-7.39784E+02 8.44231E+03-5.84269E+03-6.04814E-11-5.34783E-10
 -1       539 5.35353E+03 9.11123E+02 4.68660E+03-2.09034E+04 1.11663E-09-1.04978E-09
 -1       540 4.49293E+03-9.15884E+01 2.12116E+03-5.83653E+03-2.06455E-10-8.54925E-11
 -1       541 4.69406E+03 8.03512E+01 1.10982E+03-2.09086E+04-1.07548E-10 7.72388E-10
 -1       542 4.55303E+03-1.32749E+01 5.10496E+02-5.83752E+03-9.39053E-11-8.20592E-10
 -1       543 4.57962E+03 1.27545E+01 2.33066E+02-2.09071E+04 1.96451E-10-2.43688E-10
 -1       544 4.56057E+03 2.25015E+00 5.22383E+01-5.83806E+03 1.79512E-10-1.09418E-09
 -1       545 4.54109E+03-1.01201E+00-1.00773E+02-2.09065E+04-3.70889E-10-2.82415E-09
 -1       546 4.57228E+03 1.43816E+01-2.88769E+02-5.83817E+03 3.01372E-09-1.27369E-09
 -1       547 4.45255E+03-1.32554E+02-6.90428E+02-2.09040E+04 5.75938E-09 2.13811E-09
 -1       548 4.65736E+03 1.05180E+02-1.27066E+03-5.84061E+03 4.58726E-09-4.46789E-11
 -1       549 3.65854E+03-1.49422E+03-3.13384E+03-2.08590E+04 3.35751E-09-9.13815E-10
 -1       550 5.40207E+03 1.05257E+03-4.94054E+03-5.88303E+03 2.83580E-09 1.04910E-09
 -1       551 8.38011E+03-1.98687E+05 1.87048E+04-2.95913E+05 3.74712E-10-5.73709E-09
 -1       552 4.12295E+03-1.95490E+05 1.53071E+04-3.47622E+05-6.43922E-10-8.01265E-10
 -1       553 2.70553E+03-1.98334E+05 1.85058E+04-2.95416E+05-5.45697E-11-5.17957E-10
 -1       554 1.15647E+04-1.91146E+05 3.53474E+04-3.47697E+05-4.43833E-10-4.57476E-09
 -1       555 3.23458E+04-2.03294E+05 6.72491E+04-2.95792E+05 8.73115E-11-3.40515E-09
 -1       556-1.38958E+05-7.38470E+04 1.29715E+04-1.32609E+05-4.53838E-09-5.61340E-09
 -1       557-1.27326E+05-8.64484E+04 6.39192E+03-1.41543E+05 3.92902E-10 2.60798E-10
 -1       558-1.39159E+05-7.80837E+04 2.68692E+03-1.30089E+05-3.83443E-09-7.74889E-09
 -1       559-1.28528E+05-8.85464E+04 1.31936E+03-1.41969E+05 5.96629E-10 8.59927E-10
 -1       560-1.39294E+05-7.81199E+04 5.85596E+02-1.30059E+05-2.86309E-09 1.60196E-09
 -1       561-1.28766E+05-8.85826E+04 2.76871E+02-1.42139E+05-4.15912E-09 8.26228E-09
 -1       562-1.39403E+05-7.80402E+04 9.68785E+01-1.30133E+05-2.60115E-09 1.28455E-09
 -1       563-1.28882E+05-8.85331E+04-8.56231E+00-1.42223E+05 2.35559E-10 6.02540E-11
 -1       564-1.39463E+05-7.79917E+04-1.28710E+02-1.30178E+05 2.92493E-09-2.14686E-09
 -1       565-1.28950E+05-8.85081E+04-3.27317E+02-1.42263E+05 7.79710E-09 5.40604E-09
 -1       566-1.39462E+05-7.79695E+04-7.00071E+02-1.30189E+05-3.08319E-10-5.49790E-09
 -1       567-1.29077E+05-8.85780E+04-1.54843E+03-1.42252E+05-6.26642E-10-2.37378E-10
 -1       568-1.39340E+05-7.82001E+04-3.18278E+03-1.30070E+05 6.01176E-10-1.62254E-09
 -1       569-1.30808E+05-9.04945E+04-7.50661E+03-1.41761E+05-1.01409E-10-8.14907E-10
 -1       570-1.38639E+05-8.39373E+04-1.52907E+04-1.27632E+05 4.80213E-10-1.15415E-09
 -1       571 1.70700E+05 8.00531E+03 1.21336E+04-4.39367E+04 2.82398E-10 2.69210E-10
 -1       572 1.72541E+05 2.74756E+03 5.95471E+03-4.83497E+04-2.31012E-10-7.67614E-10
 -1       573 1.71445E+05 6.27369E+02 2.64800E+03-4.38207E+04-1.77806E-10-5.40695E-10
 -1       574 1.71664E+05 1.96933E+02 1.32864E+03-4.84778E+04 1.36424E-10 3.61979E-10
 -1       575 1.71529E+05 1.89818E+01 6.27932E+02-4.38058E+04 1.58934E-10 9.03583E-10
 -1       576 1.71549E+05 5.64990E-01 3.20689E+02-4.84946E+04 6.73879E-11-1.24965E-09
 -1       577 1.71541E+05-1.03285E+01 1.59926E+02-4.38039E+04-1.55751E-11 9.53605E-10
 -1       578 1.71538E+05-8.10838E+00 9.07021E+01-4.84967E+04 1.22554E-10 1.75123E-09
 -1       579 1.71553E+05-1.16581E+01 6.20421E+01-4.38038E+04 4.41105E-11-5.81167E-10
 -1       580 1.71554E+05-1.31784E+01 6.86058E+01-4.84941E+04 7.63976E-11-2.01044E-09
 -1       581 1.71572E+05-1.65544E+01 1.05234E+02-4.38064E+04-3.81988E-10 5.81622E-10
 -1       582 1.71597E+05 3.48433E+00 2.08553E+02-4.84676E+04 2.54659E-11 3.49200E-09
 -1       583 1.71587E+05 6.07090E+01 4.06315E+02-4.38304E+04 5.82077E-11 4.38149E-10
 -1       584 1.71768E+05 3.76695E+02 9.11588E+02-4.82638E+04-9.84073E-10-1.44178E-09
 -1       585 1.71506E+05 1.17453E+03 1.85246E+03-4.40110E+04-1.81899E-12-1.63709E-11
 -1       586 1.37233E+03 7.61959E+04 2.50835E+03-1.04923E+05 3.08773E-10 1.66710E-09
 -1       587 7.70631E+02 7.66240E+04 2.47003E+03-1.15753E+05 9.37689E-10 7.28733E-10
 -1       588 9.55217E+02 7.61613E+04 3.59382E+03-1.04788E+05 2.65572E-10-3.79032E-10
 -1       589 3.47996E+03 7.75214E+04 7.42510E+03-1.15794E+05 1.08776E-09 4.48608E-10
 -1       590 9.83691E+03 7.52609E+04 1.48324E+04-1.04880E+05 3.16504E-10 1.86765E-09
 -1       591-7.87433E+04-2.67212E+04-1.55099E+04-4.00290E+04 1.91596E-09 1.45519E-10
 -1       592-7.93537E+04-2.48121E+04-7.61989E+03-4.45022E+04 6.98833E-10 8.99149E-10
 -1       593-7.92202E+04-2.10828E+04-3.23358E+03-4.26243E+04 4.73119E-09-3.56476E-09
 -1       594-7.76938E+04-2.27322E+04-1.58238E+03-4.47678E+04 1.19808E-08 1.34624E-09
 -1       595-7.92955E+04-2.08802E+04-7.28697E+02-4.27389E+04 7.79744E-09 2.91266E-09
 -1       596-7.75696E+04-2.26510E+04-3.69510E+02-4.47563E+04 9.32374E-10-8.35257E-10
 -1       597-7.93098E+04-2.08913E+04-2.01029E+02-4.27397E+04-1.77522E-09-7.25731E-09
 -1       598-7.75570E+04-2.26521E+04-1.60587E+02-4.47508E+04 4.00226E-09 7.90669E-09
 -1       599-7.93086E+04-2.08918E+04-2.03509E+02-4.27391E+04 5.23755E-10 1.26829E-09
 -1       600-7.75683E+04-2.26520E+04-3.76183E+02-4.47547E+04-1.35969E-10-6.53472E-10
 -1       601-7.92912E+04-2.08814E+04-7.42434E+02-4.27370E+04 5.27461E-09 1.06445E-08
 -1       602-7.76946E+04-2.27340E+04-1.61309E+03-4.47628E+04 3.84614E-09 5.20515E-09
 -1       603-7.92114E+04-2.10912E+04-3.29629E+03-4.26208E+04-3.11866E-09-6.70298E-09
 -1       604-7.94017E+04-2.48370E+04-7.76718E+03-4.44703E+04-4.69731E-09-7.20183E-09
 -1       605-7.87063E+04-2.68529E+04-1.58091E+04-3.99917E+04-1.47475E-09 5.75710E-10
 -1       606 5.77218E+04-6.88207E+03-1.04177E+04 1.67913E+04-2.94767E-09-5.33873E-10
 -1       607 5.61144E+04-2.36133E+03-5.11125E+03 1.83030E+04-1.47338E-10-1.99066E-09
 -1       608 5.70567E+04-5.37767E+02-2.27295E+03 1.66797E+04 2.02272E-09 3.42084E-10
 -1       609 5.68412E+04-1.59459E+02-1.13868E+03 1.84264E+04-1.77533E-09 1.76624E-09
 -1       610 5.69670E+04-5.13436E+00-5.36734E+02 1.66653E+04-4.25371E-09-8.03084E-10
 -1       611 5.69252E+04 1.67927E+01-2.70133E+02 1.84422E+04-6.81757E-09-1.26965E-09
 -1       612 5.69477E+04 2.42690E+01-1.28186E+02 1.66636E+04-3.14185E-09-1.40994E-09
 -1       613 5.69323E+04 2.52682E+01-5.90370E+01 1.84443E+04-4.82851E-09-7.87850E-10
 -1       614 5.69395E+04 2.27700E+01-1.72420E+01 1.66631E+04-2.11367E-09 1.67120E-10
 -1       615 5.69309E+04 2.62735E+01 1.58222E+01 1.84445E+04 1.03410E-09 1.89129E-09
 -1       616 5.69333E+04 2.61670E+01 5.59321E+01 1.66633E+04-4.52769E-09 9.30413E-10
 -1       617 5.69387E+04 4.78810E+01 1.32000E+02 1.84439E+04-2.43017E-09-1.56570E-09
 -1       618 5.69207E+04 9.02343E+01 2.69522E+02 1.66636E+04-1.88440E-08-1.26806E-09
 -1       619 5.70247E+04 3.11338E+02 6.09785E+02 1.84413E+04-3.72808E-08-1.32059E-09
 -1       620 5.68409E+04 8.48570E+02 1.24429E+03 1.66651E+04-1.72665E-08-3.59933E-10
 -1       621 1.13163E+03 1.77061E+05 2.90032E+03-1.46425E+04-1.39380E-09-1.07389E-09
 -1       622 4.41481E+02 1.77614E+05 2.51436E+03-1.72819E+04-1.27113E-09 8.64020E-11
 -1       623 2.77044E+02 1.77170E+05 3.22945E+03-1.46623E+04-1.29307E-09 5.11591E-10
 -1       624 1.84349E+03 1.78465E+05 6.32391E+03-1.71982E+04-1.04581E-09-1.01227E-09
 -1       625 5.66378E+03 1.76223E+05 1.21241E+04-1.47252E+04-8.61746E-10-2.23781E-09
 -1       626 8.41460E+04 2.75936E+04-4.06576E+03 5.64978E+04-2.76441E-09-2.56205E-09
 -1       627 8.19984E+04 3.07479E+04-1.92677E+03 5.76600E+04-1.76624E-09-1.84951E-09
 -1       628 8.42510E+04 2.96010E+04-8.09031E+02 5.55027E+04-7.36691E-11 5.46834E-10
 -1       629 8.22870E+04 3.15956E+04-3.87749E+02 5.75984E+04-1.46611E-09 4.67480E-10
 -1       630 8.42444E+04 2.97420E+04-1.70334E+02 5.54196E+04-8.04130E-09 2.61483E-09
 -1       631 8.23061E+04 3.16597E+04-7.50263E+01 5.75991E+04-2.25459E-08 3.39173E-09
 -1       632 8.42356E+04 2.97471E+04-1.81421E+01 5.54117E+04-1.32004E-08 2.50577E-09
 -1       633 8.23066E+04 3.16630E+04 2.58555E+01 5.75998E+04 2.96654E-09 5.40695E-10
 -1       634 8.42287E+04 2.97430E+04 8.31858E+01 5.54103E+04-8.30869E-09-8.20114E-09
 -1       635 8.23163E+04 3.16657E+04 1.95370E+02 5.76017E+04-7.32291E-09 1.80371E-08
 -1       636 8.42199E+04 2.97531E+04 4.08473E+02 5.54033E+04-1.02812E-08-8.62201E-10
 -1       637 8.24147E+04 3.17803E+04 9.14493E+02 5.75833E+04 3.09626E-10 1.90505E-09
 -1       638 8.41991E+04 3.00981E+04 1.89696E+03 5.52534E+04 9.17669E-09 1.25378E-08
 -1       639 8.33797E+04 3.34926E+04 4.51641E+03 5.71585E+04-2.25214E-10 5.33419E-10
 -1       640 8.42527E+04 3.50333E+04 9.53002E+03 5.32064E+04-4.42083E-09-4.69890E-09
 -1       641 9.55013E+02 1.72611E+03-3.99367E+03-4.41481E+01-2.77085E-09 1.46110E-09
 -1       642-7.69747E+02-1.99802E+03-2.82239E+03 1.80116E+02-2.08183E-09 1.01596E-09
 -1       643 2.89057E+02 2.70438E+02-1.02965E+03-4.36123E+01-3.91977E-09 7.83302E-11
 -1       644 5.56511E+00-3.12063E+02-6.39728E+02 1.79464E+02 1.05946E-09 1.71806E-09
 -1       645 1.79585E+02 4.15649E+01-2.46572E+02-4.34974E+01 6.03267E-10 2.02731E-09
 -1       646 1.35346E+02-4.38508E+01-1.16983E+02 1.79307E+02-2.42279E-08 1.64268E-09
 -1       647 1.59228E+02 2.45456E+00 4.86625E-01-4.34555E+01-5.90367E-06 7.22100E-09
 -1       648 1.71920E+02 2.31280E+01 1.10521E+02 1.79256E+02-1.17749E-05 1.43694E-08
 -1       649 1.42997E+02-2.53658E+01 2.50035E+02-4.34462E+01-5.90400E-06 9.56214E-09
 -1       650 2.64072E+02 1.95353E+02 6.05220E+02 1.79192E+02-1.48066E-08 2.10703E-09
 -1       651 6.70918E+01-1.69674E+02 1.05322E+03-4.33915E+01-2.32960E-09 1.72224E-09
 -1       652 7.84302E+02 1.25853E+03 2.60612E+03 1.78807E+02 5.87666E-10 5.20177E-09
 -1       653-3.77171E+02-1.08778E+03 4.15168E+03-4.30617E+01 1.19507E-09 3.48041E-09
 -1       654 3.91412E+03 8.03337E+03 1.13562E+04 1.76700E+02-5.02811E-09-2.91948E-10
 -1       655-3.06231E+03-6.93907E+03 1.60502E+04-4.12891E+01 1.28345E-09 1.28421E-09
 -1       656 5.18263E+03-2.10406E+05-2.49188E+04 6.71917E+03-1.02773E-10-2.92334E-09
 -1       657-7.87401E+03-2.19359E+05-1.80480E+04 2.35547E+04-2.32558E-09-3.96676E-09
 -1       658 9.70780E+02-2.13620E+05-1.15687E+04 6.67459E+03-6.20673E-10-6.17928E-09
 -1       659-7.22499E+03-2.18978E+05-1.68745E+04 2.35819E+04-1.30694E-09-5.66571E-09
 -1       660 4.68620E+03-2.10802E+05-2.26811E+04 6.69231E+03-3.18323E-10-3.76122E-09
 -1       661 2.02948E+05 2.62257E+04 1.65862E+04 7.93661E+04 8.33097E-10-1.01682E-09
 -1       662 2.06709E+05 3.86358E+04 1.03987E+04 8.17501E+04 3.31733E-09-4.12047E-09
 -1       663 2.05766E+05 2.98326E+04 3.91489E+03 7.90137E+04-8.34916E-10-5.08953E-09
 -1       664 2.03466E+05 3.38557E+04 2.14137E+03 8.24200E+04-1.00641E-09-7.90692E-10
 -1       665 2.06076E+05 3.02146E+04 9.17530E+02 7.89918E+04-1.37175E-09-4.37620E-09
 -1       666 2.03109E+05 3.33646E+04 4.96541E+02 8.24639E+04-8.73300E-10 1.12102E-09
 -1       667 2.06110E+05 3.02575E+04 2.79116E+02 7.89936E+04-7.58808E-09 8.40659E-10
 -1       668 2.03076E+05 3.33208E+04 2.62887E+02 8.24637E+04 9.27888E-10 2.26754E-09
 -1       669 2.06107E+05 3.02545E+04 3.70920E+02 7.89932E+04 3.65237E-09 2.75901E-09
 -1       670 2.03138E+05 3.33968E+04 7.49812E+02 8.24642E+04 2.32694E-09-1.10134E-09
 -1       671 2.06050E+05 3.01873E+04 1.43255E+03 7.89913E+04-1.21594E-09 1.82945E-09
 -1       672 2.03706E+05 3.41703E+04 3.37273E+03 8.23915E+04-5.49420E-10 9.19499E-10
 -1       673 2.05557E+05 2.95860E+04 6.17602E+03 7.90276E+04 6.11572E-09-1.10458E-09
 -1       674 2.08826E+05 4.17166E+04 1.64133E+04 8.13334E+04 4.41190E-09-4.92946E-10
 -1       675 2.01110E+05 2.38914E+04 2.61816E+04 7.95813E+04 1.52727E-09-2.58296E-10
 -1       676 3.72173E+02-1.98616E+05-2.21068E+03 7.53176E+01-2.69577E-09-1.61600E-09
 -1       677-8.37975E+02-1.99456E+05-2.68108E+03-1.11013E+02-4.49980E-09-7.60502E-09
 -1       678 2.99433E+02-1.98650E+05-3.54221E+03 7.50937E+01-5.98902E-10-3.02599E-09
 -1       679-3.76883E+03-2.01233E+05-8.01211E+03-1.10805E+02-6.67012E-09-1.51634E-09
 -1       680 2.65620E+03-1.96839E+05-1.23631E+04 7.46367E+01-3.55249E-09-6.38060E-10
 -1       681 2.89772E+05-8.00737E+03 1.73819E+04 3.33686E+03-7.98650E-11 1.22782E-10
 -1       682 3.03235E+05 9.18094E+03 1.33354E+04-8.97560E+03 1.36296E-10-1.65778E-09
 -1       683 2.94800E+05-1.19250E+03 4.54390E+03 9.99891E+02 4.74643E-12 1.63800E-09
 -1       684 2.97194E+05 1.37437E+03 3.03532E+03-5.60551E+03-1.99442E-10-1.49197E-09
 -1       685 2.95755E+05-1.68978E+02 1.20239E+03-3.33136E+01 4.02281E-10 2.53476E-09
 -1       686 2.96067E+05 2.09694E+02 7.58087E+02-4.30253E+03 1.46447E-09-8.75765E-10
 -1       687 2.95913E+05-1.98551E+01 4.32341E+02-3.03066E+02 7.84924E-10 3.22288E-09
 -1       688 2.96024E+05 6.02170E+01 4.56222E+02-4.38973E+03 1.18091E-09-6.45102E-10
 -1       689 2.95800E+05-2.00946E+01 5.82597E+02 5.38909E+01-1.46721E-09 1.97011E-09
 -1       690 2.96832E+05 2.65856E+02 1.35162E+03-5.91012E+03 2.18328E-09-6.36959E-10
 -1       691 2.95121E+05-2.36297E+02 1.97887E+03 1.21730E+03 8.06835E-10 5.39785E-10
 -1       692 3.00744E+05 2.20133E+03 5.75580E+03-9.62624E+03-1.24548E-09 1.88265E-09
 -1       693 2.91958E+05-2.00020E+03 7.58567E+03 3.77020E+03-2.76611E-09-2.28692E-09
 -1       694 3.19326E+05 1.65731E+04 2.55349E+04-1.74489E+04-8.73379E-09 3.90764E-09
 -1       695 2.76822E+05-1.47813E+04 2.87691E+04 9.04335E+03-7.57541E-09-1.01263E-08
 -1       696-5.86301E+03 2.41641E+05 1.30866E+04-2.45967E+03 4.82032E-11-1.16344E-09
 -1       697 6.52880E+03 2.49196E+05 9.19869E+03 5.94163E+03 1.05956E-10-3.50319E-10
 -1       698-6.76543E+02 2.44758E+05 2.60054E+03-1.41689E+03-7.86713E-11 4.91923E-10
 -1       699-5.76942E+02 2.45066E+05-1.49473E+02 4.73544E+03-1.28694E-10 8.51808E-10
 -1       700 1.25047E+03 2.45752E+05-2.49540E+03-1.25342E+03-1.16643E-10 7.58824E-11
 -1       701-2.93184E+05-3.88776E+04-4.20293E+04-1.23824E+05 1.23691E-10 1.64073E-09
 -1       702-2.63456E+05-2.80589E+04-1.44836E+04-6.54562E+04-3.30840E-09-2.04357E-08
 -1       703-2.63670E+05-4.84680E+04-8.76810E+03-1.18327E+05 1.16136E-08 2.99833E-08
 -1       704-2.90548E+05-1.63302E+04-3.29046E+03-7.13472E+04 4.88234E-09 4.07125E-08
 -1       705-2.66652E+05-5.01792E+04-3.01888E+03-1.18394E+05 1.53531E-09 3.45274E-08
 -1       706-2.50782E+05-1.47175E+04 7.91764E+03-6.74873E+04-1.01375E-08 2.15488E-09
 -1       707-3.02794E+05-5.05579E+04-8.52753E+03-1.21667E+05-4.42037E-09 7.52419E-09
 -1       708-1.99633E+05-2.34004E+04 1.67529E+04-7.29225E+04-1.62342E-08-3.29038E-09
 -1       709-3.17076E+05-4.20433E+04-9.57885E+03-1.12416E+05-4.90218E-10-4.20130E-10
 -1       710-2.07509E+05-4.49873E+04 1.05640E+04-1.00745E+05-2.62690E-09-1.09478E-08
 -1       711-2.95403E+05-2.86105E+04-4.12741E+03-9.42417E+04 1.05046E-08 3.30186E-08
 -1       712-2.40475E+05-6.30339E+04-2.08372E+03-1.24965E+05 6.36476E-09 7.12480E-08
 -1       713-2.84956E+05-2.33573E+04-6.88950E+03-8.88113E+04-9.42214E-09 3.49610E-09
 -1       714-2.33448E+05-6.70458E+04-1.37733E+04-1.14331E+05-1.45018E-08-1.14542E-08
 -1       715-3.02104E+05-2.48541E+04-3.59581E+04-1.04639E+05-4.61705E-09-1.55269E-08
 -1       716-6.94670E+04-2.48801E+02-1.44596E+03-6.10883E+02 1.45021E-08-6.86012E-09
 -1       717-5.58196E+04 2.12057E+02 1.52866E+03-2.28279E+03 9.41009E-09 1.62284E-09
 -1       718-6.86982E+04-8.97981E+01-8.96804E+02 3.30497E+02 7.52738E-09-2.84005E-09
 -1       719-5.80111E+04 3.65922E+01 1.27500E+03-4.03625E+03 5.32819E-09-8.74508E-10
 -1       720-6.73304E+04-3.34671E+01-4.76293E+02 1.14071E+03 9.07619E-10 1.31607E-09
 -1       721-6.09085E+04 1.10343E+01 8.64302E+02-5.44286E+03-2.87609E-09-6.12982E-10
 -1       722-6.58745E+04-1.04808E+01 5.31494E+01 1.73627E+03 6.80984E-10 3.60949E-09
 -1       723-6.33624E+04 1.08322E+02 8.62095E+02-6.36745E+03-8.01236E-10-2.10752E-09
 -1       724-6.49403E+04-8.41644E+01 1.10841E+03 2.06536E+03 6.04125E-09 4.46363E-09
 -1       725-6.41298E+04 8.17341E+02 2.63630E+03-6.73351E+03 8.72559E-09-2.01544E-09
 -1       726-6.51359E+04-6.97930E+02 4.50686E+03 2.10255E+03 6.41415E-09 4.54111E-09
 -1       727-6.12264E+04 5.38361E+03 1.12836E+04-6.51669E+03 8.91350E-09-5.81394E-10
 -1       728-6.78257E+04-4.65955E+03 1.75481E+04 1.84842E+03 3.01401E-09 2.45745E-09
 -1       729-4.55689E+04 3.45010E+04 4.90938E+04-5.80622E+03 1.36419E-09-4.94765E-10
 -1       730-8.07281E+04-2.98314E+04 6.79946E+04 1.39188E+03 3.45545E-09 1.96451E-10
 -1       731-7.99174E+03 9.18703E+04 1.21309E+04-5.00692E+03-6.82849E-09-4.51655E-09
 -1       732 9.23118E+03 1.35753E+05 1.60567E+04 1.32515E+04 1.99043E-09 7.81029E-11
 -1       733-1.50628E+03 1.03088E+05 4.17499E+03-2.68777E+03-1.51397E-09-6.18570E-10
 -1       734 4.40245E+03 1.21293E+05 8.52137E+03 9.38013E+03 2.14541E-09-6.56121E-09
 -1       735-2.95854E+03 1.06029E+05 6.45914E+03-1.13113E+03 1.76328E-09-4.48898E-09
 -1       736-2.75273E+05-4.92201E+04-2.86878E+04-1.21781E+05 2.10257E-08-1.86974E-08
 -1       737-2.42746E+05-7.33484E+03-3.45958E+03-4.77045E+04 6.57485E-08 1.82441E-08
 -1       738-2.32597E+05-4.87357E+04-4.20013E+03-1.12315E+05 2.04078E-08 5.64471E-08
 -1       739-2.62115E+05-4.60499E+03 1.11141E+03-5.24772E+04-4.09255E-08-7.64385E-09
 -1       740-2.56282E+05-5.16693E+04-5.59927E+03-1.17327E+05 3.90605E-09-3.13306E-08
 -1       741-1.81298E+05-1.64008E+03 1.91326E+04-3.99499E+04-4.43259E-09-2.56653E-08
 -1       742-3.12041E+05-5.27113E+04-1.56194E+04-1.23723E+05 3.86672E-09-5.83373E-09
 -1       743-1.17468E+05-1.42022E+04 2.94159E+04-4.82818E+04 1.35012E-08 4.39437E-09
 -1       744-3.19206E+05-3.97895E+04-1.44907E+04-1.08366E+05-3.33785E-09-7.33871E-09
 -1       745-1.52411E+05-4.41385E+04 1.65736E+04-9.03248E+04 2.94422E-08 1.43135E-08
 -1       746-2.78184E+05-2.19731E+04-3.93022E+03-8.25470E+04 2.48770E-08 6.78731E-08
 -1       747-2.06042E+05-6.49306E+04 6.83042E+02-1.22506E+05-5.08294E-09 7.57055E-09
 -1       748-2.66873E+05-1.80212E+04-4.04946E+03-7.70992E+04 2.01297E-08 1.54732E-08
 -1       749-1.78326E+05-5.67973E+04 1.21815E+03-1.05349E+05-1.09431E-08 1.96436E-08
 -1       750-3.05195E+05-3.06397E+04-2.71738E+04-9.92148E+04-1.32147E-08-1.66028E-08
 -1       751 1.70880E+06-9.90180E+04 2.29373E+05 3.60679E+03-1.94937E-08-1.13505E-09
 -1       752 1.80850E+06 1.14646E+05 1.62249E+05-4.08587E+03-2.75143E-09-1.31149E-09
 -1       753 1.74732E+06-1.55171E+04 5.94159E+04 5.27391E+02 5.63443E-10 1.24419E-09
 -1       754 1.76371E+06 1.79591E+04 3.73636E+04-5.69193E+02 2.60819E-09 1.88084E-09
 -1       755 1.75366E+06-2.42777E+03 1.52981E+04 9.04529E+01 3.90588E-10-1.18052E-09
 -1       756 1.75636E+06 2.84510E+03 9.14245E+03-6.90587E+01 5.60214E-11-2.71598E-10
 -1       757 1.75471E+06-4.15577E+02 4.48983E+03 2.72573E+01 5.49846E-07 1.84241E-09
 -1       758 1.75526E+06 7.36234E+02 3.58216E+03 1.96961E+00 1.09535E-06 6.69218E-10
 -1       759 1.75476E+06-3.20345E+02 3.63165E+03 1.94235E+01 2.24575E-07 5.78780E-10
 -1       760 1.75592E+06 2.02623E+03 6.66109E+03 1.56490E+00-6.46012E-07 6.81553E-10
 -1       761 1.75405E+06-1.70465E+03 1.08310E+04 2.76619E+01-3.22127E-07 2.43199E-09
 -1       762 1.76104E+06 1.25817E+04 2.62201E+04-7.24540E+01 5.41245E-09 2.60616E-09
 -1       763 1.74961E+06-1.08673E+04 4.16199E+04 9.34426E+01 6.16154E-09 5.92991E-10
 -1       764 1.79225E+06 8.02505E+04 1.13564E+05-5.99629E+02 1.15249E-09 1.30967E-10
 -1       765 1.72277E+06-6.93095E+04 1.60555E+05 5.54801E+02-4.80320E-10-8.94943E-10
 -1       766-3.62130E+04 8.04464E+04 8.33069E+04 7.15352E+03 4.90036E-09-1.67856E-09
 -1       767 4.27389E+04 1.23399E+05 6.19297E+04-3.09935E+04 1.65419E-08-1.96013E-09
 -1       768-6.35293E+03 9.46069E+04 2.53383E+04 7.03417E+03 6.90761E-09 2.89469E-09
 -1       769 1.67003E+04 1.29586E+05 2.98311E+04-3.28574E+04 2.60539E-09-1.15847E-10
 -1       770-1.05104E+04 7.47032E+04 1.71688E+04 9.01846E+03-4.47835E-09-1.17302E-09
 -1       771-9.79781E+05-1.96637E+05-3.20972E+04-4.23997E+05-6.38101E-09-1.11104E-08
 -1       772-9.76928E+05-1.96640E+05-1.57524E+04-4.37790E+05 1.51158E-09-1.18916E-09
 -1       773-9.81125E+05-1.84690E+05-6.70101E+03-4.29162E+05 1.29876E-09-6.99401E-10
 -1       774-9.73365E+05-1.92580E+05-3.27120E+03-4.38777E+05-2.58296E-10-8.30414E-09
 -1       775-9.81428E+05-1.84167E+05-1.51515E+03-4.29432E+05-1.93177E-09-6.11635E-09
 -1       776-9.73186E+05-1.92409E+05-7.64549E+02-4.38892E+05-2.60115E-10-1.64175E-09
 -1       777-9.81562E+05-1.84128E+05-4.20415E+02-4.29480E+05 6.09361E-09 1.23474E-08
 -1       778-9.73228E+05-1.92389E+05-3.30725E+02-4.38963E+05 8.60382E-10 2.18733E-09
 -1       779-9.81630E+05-1.84087E+05-4.22579E+02-4.29512E+05-2.72848E-10 8.34007E-10
 -1       780-9.73299E+05-1.92374E+05-7.77343E+02-4.39022E+05-1.94632E-10-2.19188E-10
 -1       781-9.81632E+05-1.84042E+05-1.53795E+03-4.29526E+05-5.53609E-09 1.58843E-09
 -1       782-9.73582E+05-1.92539E+05-3.34333E+03-4.39060E+05-1.19765E-08-1.88174E-09
 -1       783-9.81472E+05-1.84473E+05-6.83654E+03-4.29289E+05-5.02882E-09 2.14823E-09
 -1       784-9.77123E+05-1.96907E+05-1.61194E+04-4.38444E+05-8.14907E-10-1.01272E-09
 -1       785-9.80406E+05-1.96444E+05-3.28160E+04-4.23828E+05 4.88853E-09 1.34678E-08
 -1       786 1.42529E+05-4.10888E+03 1.90419E+04-1.35476E+03 1.34492E-10 3.55612E-10
 -1       787 1.49296E+05 5.76358E+03 1.21104E+04-4.84769E+03-4.50200E-11 1.73486E-10
 -1       788 1.45374E+05-4.11485E+02 4.92957E+03-1.34646E+03-2.22371E-10-2.75122E-11
 -1       789 1.46135E+05 5.46634E+02 2.73478E+03-4.85322E+03-1.20480E-10-4.23199E-10
 -1       790 1.45688E+05-4.39745E+01 1.25066E+03-1.34895E+03 3.48621E-10 7.63976E-11
 -1       791 1.45780E+05 5.10090E+01 6.67751E+02-4.84951E+03-9.92344E-11 1.48172E-09
 -1       792 1.45727E+05-5.63601E+00 3.42013E+02-1.35018E+03 3.21826E-10 4.27917E-10
 -1       793 1.45736E+05 6.17552E+00 2.24255E+02-4.84875E+03 1.01569E-10-2.60130E-10
 -1       794 1.45731E+05-3.06205E+00 2.03794E+02-1.34970E+03 2.29548E-09 1.21053E-09
 -1       795 1.45749E+05 2.06092E+01 3.04896E+02-4.85162E+03 5.70446E-09 1.82856E-09
 -1       796 1.45716E+05-1.84482E+01 5.25465E+02-1.34731E+03 2.44853E-09 6.16325E-10
 -1       797 1.45893E+05 2.21721E+02 1.12243E+03-4.85693E+03-4.98403E-10 1.15158E-09
 -1       798 1.45589E+05-1.68572E+02 2.01214E+03-1.34439E+03 1.51203E-10 1.40062E-10
 -1       799 1.47183E+05 2.34666E+03 4.93631E+03-4.85079E+03-8.45887E-10-2.27999E-10
 -1       800 1.44430E+05-1.67583E+03 7.75834E+03-1.35359E+03 1.05729E-10-1.23555E-09
 -1       801-5.59787E+03 1.60713E+05 2.40416E+04-1.65554E+05-6.63022E-09-2.47383E-10
 -1       802 1.30500E+04 1.67967E+05 2.57692E+04-5.88487E+05-2.76850E-09-2.86673E-09
 -1       803-9.70431E+02 1.60772E+05 2.86944E+04-1.65055E+05-8.95125E-09 3.81328E-09
 -1       804 3.24144E+04 1.79826E+05 6.10641E+04-5.88454E+05-4.66753E-09-3.20870E-09
 -1       805-2.07647E+04 1.48995E+05 9.12617E+04-1.65591E+05-3.51065E-09 2.81943E-09
 -1       806-1.52427E+05-4.15040E+04-1.26886E+04-7.15780E+04-4.70834E-10-3.12866E-10
 -1       807-1.52369E+05-3.83445E+04-6.01306E+03-7.55807E+04-3.81203E-09-6.38806E-09
 -1       808-1.52345E+05-3.49490E+04-2.52698E+03-7.43303E+04-6.23231E-10 1.20826E-09
 -1       809-1.51116E+05-3.60380E+04-1.22024E+03-7.61249E+04-9.58153E-10-8.26816E-10
 -1       810-1.52375E+05-3.44886E+04-5.50907E+02-7.45354E+04 8.42658E-09-3.44835E-09
 -1       811-1.50991E+05-3.58813E+04-2.75504E+02-7.61488E+04 2.12892E-08 3.87763E-09
 -1       812-1.52385E+05-3.44736E+04-1.42979E+02-7.45453E+04 8.19426E-09-1.97861E-09
 -1       813-1.50977E+05-3.58767E+04-1.03640E+02-7.61458E+04 3.31568E-10-4.48608E-10
 -1       814-1.52385E+05-3.44756E+04-1.17977E+02-7.45444E+04 3.00849E-09 7.01561E-09
 -1       815-1.50985E+05-3.58818E+04-2.09094E+02-7.61452E+04 2.54659E-10 1.77715E-09
 -1       816-1.52374E+05-3.44888E+04-4.08086E+02-7.45356E+04-2.48610E-09-7.11429E-09
 -1       817-1.51078E+05-3.59949E+04-8.99290E+02-7.61213E+04 1.17950E-09-7.09406E-11
 -1       818-1.52347E+05-3.48328E+04-1.85995E+03-7.43870E+04 8.98126E-09 2.27897E-08
 -1       819-1.52026E+05-3.76629E+04-4.42412E+03-7.56848E+04-2.42062E-09-7.02244E-09
 -1       820-1.52376E+05-3.96805E+04-9.33463E+03-7.23899E+04 7.53062E-10 3.43903E-10
 -1       821-1.61290E+05 4.48186E+03-2.07824E+04 1.50606E+03-1.98247E-09 5.76620E-10
 -1       822-1.68669E+05-6.29039E+03-1.32175E+04 5.45411E+03-6.35509E-10-9.89530E-10
 -1       823-1.64397E+05 4.47826E+02-5.38246E+03 1.47424E+03 1.83900E-09-1.79784E-09
 -1       824-1.65226E+05-5.92843E+02-2.98824E+03 5.49445E+03-1.85082E-10-6.95536E-10
 -1       825-1.64740E+05 4.84707E+01-1.37362E+03 1.46539E+03-3.48973E-09-6.23231E-10
 -1       826-1.64844E+05-4.97983E+01-7.45864E+02 5.50852E+03-5.80098E-09-1.63591E-09
 -1       827-1.64783E+05 8.01042E+00-4.07672E+02 1.46009E+03-3.77077E-09-9.21744E-10
 -1       828-1.64803E+05-1.64069E+00-3.15532E+02 5.51691E+03-4.48696E-09-1.79756E-09
 -1       829-1.64785E+05 7.58936E+00-3.60734E+02 1.45699E+03 9.12735E-10-3.04425E-09
 -1       830-1.64837E+05-3.81772E+01-6.23125E+02 5.52038E+03 2.69344E-09-1.49523E-09
 -1       831-1.64750E+05 4.11752E+01-1.12769E+03 1.45662E+03-2.97844E-09-1.12601E-09
 -1       832-1.65150E+05-4.80189E+02-2.44259E+03 5.51821E+03-7.36691E-10-2.33021E-09
 -1       833-1.64471E+05 3.67802E+02-4.39410E+03 1.45923E+03 2.30699E-09 5.52063E-10
 -1       834-1.67962E+05-5.12964E+03-1.07889E+04 5.50030E+03 4.32641E-09-1.27977E-09
 -1       835-1.61936E+05 3.66102E+03-1.69618E+04 1.47512E+03 2.56114E-09-5.14774E-10
 -1       836-6.87091E+03 3.98101E+05 3.36589E+04-1.10760E+04-5.69344E-10 6.63931E-10
 -1       837 1.08626E+04 4.10286E+05 2.61206E+04-3.89689E+04 1.99975E-10 7.82620E-10
 -1       838-1.64912E+03 4.02026E+05 1.96782E+04-1.10553E+04-1.13687E-09-4.66002E-10
 -1       839 1.47931E+04 4.12667E+05 3.32708E+04-3.89672E+04 4.12911E-10-2.20854E-09
 -1       840-9.93025E+03 3.95716E+05 4.72815E+04-1.10773E+04-9.64064E-10-6.52562E-10
 -1       841 1.41071E+03 2.18483E+03-5.12066E+03-3.78977E+02 1.95541E-10-3.44016E-10
 -1       842-1.38467E+03-2.42578E+03-3.55340E+03 6.22310E+02-1.00604E-09-1.12090E-09
 -1       843 3.66327E+02 3.43107E+02-1.19899E+03-3.07757E+01 5.10227E-10 2.19643E-10
 -1       844-1.71568E+02-2.93125E+02-7.46064E+02 2.20639E+02 3.80612E-09 1.13194E-09
 -1       845 1.97701E+02 5.35654E+01-2.72371E+02 2.21224E+01-2.94406E-10-1.65861E-09
 -1       846 2.55997E+01 4.38278E+01-1.47564E+02 1.59448E+02-4.33309E-10-6.23038E-10
 -1       847 1.69151E+02 6.37438E+00-3.88794E+01 3.03163E+01 4.68372E-10 1.02375E-10
 -1       848 6.65791E+01 1.10296E+02 2.49160E+01 1.48246E+02-3.13755E-09 1.96456E-09
 -1       849 1.56708E+02-1.28573E+01 9.47819E+01 3.32986E+01-1.06817E-06 4.03738E-07
 -1       850 1.27459E+02 2.08424E+02 2.67716E+02 1.31939E+02-2.13482E-06 8.02849E-07
 -1       851 1.08274E+02-9.16986E+01 4.72512E+02 4.65996E+01-1.07111E-06 4.02174E-07
 -1       852 4.66745E+02 7.83518E+02 1.28162E+03 2.88398E+01-4.59428E-09 1.30683E-09
 -1       853-1.82518E+02-5.87609E+02 2.05346E+03 1.36276E+02-3.24596E-09 7.26004E-10
 -1       854 2.54813E+03 4.43533E+03 6.08653E+03-6.57556E+02 1.02602E-09-1.19041E-09
 -1       855-1.97268E+03-3.74110E+03 8.76649E+03 7.32143E+02 1.19212E-09-1.35515E-10
 -1       856-1.92759E+05 4.27653E+03-1.98439E+04 2.98607E+03-1.42472E-09-1.67438E-09
 -1       857-1.99799E+05-5.99425E+03-1.26178E+04 1.09070E+04 1.99861E-09-9.04947E-10
 -1       858-1.95727E+05 4.28995E+02-5.13885E+03 2.93294E+03-1.96678E-09-1.26443E-09
 -1       859-1.96523E+05-5.50744E+02-2.85041E+03 1.09757E+04 1.06706E-09-2.89424E-09
 -1       860-1.96056E+05 5.01577E+01-1.30748E+03 2.91676E+03-6.59384E-12-9.06084E-10
 -1       861-1.96165E+05-2.95816E+01-7.03304E+02 1.09991E+04-3.10962E-09-1.79230E-09
 -1       862-1.96099E+05 1.26124E+01-3.72182E+02 2.90939E+03 6.03120E-09-2.92391E-09
 -1       863-1.96125E+05 1.82213E+01-2.66333E+02 1.10081E+04 1.16338E-08-2.43551E-09
 -1       864-1.96102E+05 1.12388E+01-2.76483E+02 2.90769E+03 6.66840E-09-2.80401E-09
 -1       865-1.96146E+05-7.34944E+00-4.52494E+02 1.10054E+04 7.89689E-09-3.48759E-09
 -1       866-1.96077E+05 3.37129E+01-8.05648E+02 2.91218E+03-3.23325E-10-1.44738E-09
 -1       867-1.96361E+05-3.23583E+02-1.73560E+03 1.09893E+04-2.25361E-09-4.63467E-09
 -1       868-1.95877E+05 2.62944E+02-3.12072E+03 2.92383E+03 3.13548E-10-3.61410E-09
 -1       869-1.98346E+05-3.62708E+03-7.65626E+03 1.09327E+04-3.58659E-09-8.20705E-10
 -1       870-1.94075E+05 2.59584E+03-1.20402E+04 2.96929E+03 3.31465E-09-1.73441E-09
 -1       871-1.96959E+03-1.87686E+04-3.67336E+03 5.53773E+04-3.69209E-09 1.72759E-09
 -1       872-6.24518E+02-1.94305E+04-1.07670E+03 6.50076E+04-2.89356E-09 8.33779E-10
 -1       873 3.98546E+01-1.91802E+04 1.07682E+03 5.52709E+04-2.54681E-09 6.72571E-09
 -1       874 1.26171E+03-1.83088E+04 4.02405E+03 6.50539E+04-5.02041E-09 1.74438E-08
 -1       875 4.11453E+03-1.99183E+04 8.67796E+03 5.53355E+04-3.44744E-09 9.59176E-09
 -1       876 2.37586E+05 3.02918E+04 2.23858E+04 9.35059E+04 2.95358E-10-9.97716E-10
 -1       877 2.42524E+05 4.71909E+04 1.40353E+04 9.68956E+04 2.75759E-09-1.48998E-09
 -1       878 2.41386E+05 3.51634E+04 5.28229E+03 9.30323E+04-9.33369E-11 1.45087E-09
 -1       879 2.38148E+05 4.07337E+04 2.88798E+03 9.77906E+04-1.03029E-09-1.54500E-09
 -1       880 2.41800E+05 3.56837E+04 1.23295E+03 9.30066E+04-7.73070E-11-9.81117E-11
 -1       881 2.37671E+05 4.00641E+04 6.59134E+02 9.78402E+04-2.92766E-09-1.70553E-09
 -1       882 2.41844E+05 3.57457E+04 3.53860E+02 9.30124E+04-9.80049E-09-1.20778E-10
 -1       883 2.37627E+05 3.99973E+04 3.04940E+02 9.78320E+04-4.58260E-09 4.39517E-10
 -1       884 2.41840E+05 3.57468E+04 4.00236E+02 9.30146E+04-3.02606E-10 1.00553E-09
 -1       885 2.37693E+05 4.00721E+04 7.86702E+02 9.78288E+04 7.31592E-09-1.34338E-09
 -1       886 2.41780E+05 3.56776E+04 1.49284E+03 9.30132E+04 4.87717E-11-4.80759E-09
 -1       887 2.38283E+05 4.08765E+04 3.50836E+03 9.77541E+04 8.77236E-10 1.95018E-09
 -1       888 2.41268E+05 3.50511E+04 6.42199E+03 9.30499E+04 6.77385E-09 3.79714E-10
 -1       889 2.43607E+05 4.87235E+04 1.70655E+04 9.66570E+04 1.43359E-09-8.98126E-11
 -1       890 2.36646E+05 2.91292E+04 2.72207E+04 9.36252E+04 1.22077E-09-1.10413E-09
 -1       891 8.23926E+02-1.06601E+05-4.19722E+03 1.30251E+04-2.16323E-09 1.09458E-09
 -1       892-1.40412E+03-1.08085E+05-3.33942E+03 4.62512E+04-4.67367E-09-1.07963E-09
 -1       893 2.13756E+02-1.07079E+05-2.65724E+03 1.29725E+04 9.74524E-10 4.26766E-09
 -1       894-2.14269E+03-1.08528E+05-4.68050E+03 4.62473E+04-5.01734E-09 4.18578E-09
 -1       895 1.39627E+03-1.06153E+05-6.75230E+03 1.30288E+04-1.36379E-09 3.30510E-09
 -1       896 3.19804E+05-1.52187E+03 3.49039E+03-1.82096E+02-1.14952E-10 1.78966E-09
 -1       897 3.21432E+05 1.76275E+03 2.49737E+03 1.99265E+03-1.86454E-10 2.54968E-09
 -1       898 3.20444E+05-2.36600E+02 9.11063E+02 2.00628E+02 1.51175E-10 2.59041E-09
 -1       899 3.20685E+05 2.77128E+02 5.84057E+02 1.48557E+03 1.82112E-10 3.18528E-09
 -1       900 3.20550E+05-3.64432E+01 2.56975E+02 3.24988E+02 3.36966E-11 2.87589E-09
 -1       901 3.20570E+05 4.94034E+01 1.89026E+02 1.42659E+03-7.73643E-10 3.20266E-09
 -1       902 3.20559E+05-8.96429E+00 1.61441E+02 2.59613E+02 7.07923E-10 2.73553E-09
 -1       903 3.20610E+05 4.47712E+01 2.64656E+02 1.78310E+03-8.82389E-10 2.92085E-09
 -1       904 3.20512E+05-3.24325E+01 4.22561E+02-3.15261E+01 2.92658E-10 2.09175E-09
 -1       905 3.20912E+05 2.68859E+02 9.90671E+02 2.75121E+03-1.49187E-09 1.82133E-09
 -1       906 3.20260E+05-2.35743E+02 1.61355E+03-7.08512E+02 2.35843E-10 3.11161E-10
 -1       907 3.22484E+05 1.87007E+03 4.21469E+03 4.86427E+03 8.72731E-10-5.09772E-10
 -1       908 3.18958E+05-1.64455E+03 6.29194E+03-2.14465E+03 8.14850E-11-2.88446E-09
 -1       909 3.30845E+05 1.26770E+04 1.85206E+04 9.32554E+03 5.14399E-09-5.39899E-09
 -1       910 3.11977E+05-1.10852E+04 2.41308E+04-5.17032E+03 5.71981E-09-9.83164E-09
 -1       911 2.58393E+04-9.18532E+01-1.72638E+03-1.98120E+03-5.64989E-09-8.41652E-09
 -1       912 3.65230E+04-1.93468E+01 7.89512E+02 7.06959E+03-8.57938E-10-5.02278E-09
 -1       913 2.82655E+04 2.67749E+01-5.83090E+02-1.64926E+03 4.29395E-10-2.58382E-10
 -1       914 3.26584E+04-7.82036E+01 3.59589E+02 6.52005E+03 2.32565E-09 2.80671E-09
 -1       915 2.96076E+04 3.50049E+01-1.48140E+02-1.43092E+03-1.71082E-09 5.05892E-09
 -1       916 3.07140E+04-4.69784E+01 9.04502E+01 6.20299E+03-6.01658E-09 7.38825E-09
 -1       917 3.01608E+04 3.02557E+01 3.63699E+01-1.33226E+03-4.19906E-09 7.25642E-09
 -1       918 3.02790E+04-1.81581E+01 1.05973E+02 6.12590E+03-1.25463E-09 8.52485E-09
 -1       919 3.00314E+04 1.41856E+01 1.64349E+02-1.35390E+03-4.70506E-09 6.33911E-09
 -1       920 3.13075E+04 8.71077E+01 6.25499E+02 6.28976E+03-3.84708E-09 6.35814E-09
 -1       921 2.91566E+04-9.21308E+01 5.65430E+02-1.49601E+03-1.45900E-09 2.97248E-09
 -1       922 3.42679E+04 8.64727E+02 2.54622E+03 6.69551E+03-6.50658E-10 1.39158E-09
 -1       923 2.71355E+04-8.08516E+02 2.41713E+03-1.75973E+03 1.35367E-09-3.31318E-09
 -1       924 4.13826E+04 6.15196E+03 9.80150E+03 7.36861E+03 5.50799E-09-7.30961E-09
 -1       925 2.21592E+04-5.45794E+03 1.01781E+04-2.17048E+03 3.96727E-09-1.29344E-08
 -1       926-2.40160E+05 5.48178E+03-1.27410E+04 5.83143E+03-3.19981E-09-1.81799E-08
 -1       927-2.44564E+05-6.26235E+03-8.76189E+03-9.76443E+03 2.01408E-08-2.02936E-08
 -1       928-2.43799E+05 8.20679E+02-3.57094E+03 4.80906E+03-1.43984E-10-1.48734E-08
 -1       929-2.37925E+05-8.29777E+02-9.74584E+02-6.11464E+03-1.09377E-08-1.44505E-08
 -1       930-2.46691E+05-2.94671E+01-1.58330E+03 2.18044E+03-1.44883E-09-7.21764E-09
 -1       931-2.34665E+05 9.22411E+01 1.26132E+03-1.65308E+02 3.53566E-11-3.89681E-09
 -1       932-2.46987E+05-1.56931E+02-8.37366E+02-1.13987E+03-2.55244E-09 2.47007E-09
 -1       933-2.36748E+05 2.19694E+02 1.54809E+03 5.94754E+03-2.25248E-09 7.22878E-09
 -1       934-2.44664E+05-1.12798E+02 4.52453E+02-3.93152E+03-4.31558E-09 1.03157E-08
 -1       935-2.40805E+05 6.31889E+02 2.27480E+03 9.99934E+03 2.28466E-09 1.47334E-08
 -1       936-2.43042E+05-4.82113E+02 3.43310E+03-5.19233E+03 1.37094E-09 1.41436E-08
 -1       937-2.39908E+05 4.09048E+03 8.60722E+03 1.05632E+04 1.19685E-08 1.63723E-08
 -1       938-2.45580E+05-3.55282E+03 1.32428E+04-4.49564E+03 1.42298E-08 1.14960E-08
 -1       939-2.25871E+05 2.64337E+04 3.77970E+04 7.50266E+03 7.83081E-09 1.09503E-08
 -1       940-2.56973E+05-2.28822E+04 5.12194E+04-2.13097E+03-1.41239E-09 4.46016E-09
 -1       941 2.82730E+06-1.42001E+05 3.29350E+05 5.23837E+02-4.97195E-07-4.07454E-09
 -1       942 2.96972E+06 1.64442E+05 2.32805E+05 1.75580E+02-1.01324E-06-2.98314E-09
 -1       943 2.88231E+06-2.22672E+04 8.53326E+04 3.64162E+02-7.23492E-07 1.41881E-09
 -1       944 2.90581E+06 2.57742E+04 5.36746E+04 3.44299E+02-4.27878E-07-1.21781E-09
 -1       945 2.89142E+06-3.48550E+03 2.20162E+04 3.55186E+02-2.63958E-07 2.07547E-09
 -1       946 2.89528E+06 4.09305E+03 1.32129E+04 3.53854E+02-9.96723E-08 4.08818E-09
 -1       947 2.89293E+06-6.04822E+02 6.59611E+03 3.54620E+02-7.19732E-09 3.09024E-09
 -1       948 2.89374E+06 1.11995E+03 5.45961E+03 3.54358E+02 8.76513E-08 2.59757E-09
 -1       949 2.89298E+06-5.14519E+02 5.78209E+03 3.54684E+02 4.54606E-07-4.53792E-09
 -1       950 2.89486E+06 3.31666E+03 1.08599E+04 3.52421E+02 8.19788E-07 2.51805E-09
 -1       951 2.89179E+06-2.79997E+03 1.77805E+04 3.56555E+02 3.09117E-06-8.03175E-09
 -1       952 2.90329E+06 2.06769E+04 4.31132E+04 3.15928E+02 5.35516E-06-7.49424E-10
 -1       953 2.88449E+06-1.78602E+04 6.84664E+04 3.91167E+02 2.67923E-06 9.31323E-09
 -1       954 2.95455E+06 1.31892E+05 1.86731E+05-3.80093E+02 4.23373E-09 6.91580E-09
 -1       955 2.84033E+06-1.13898E+05 2.64084E+05 1.05246E+03-1.50879E-08 9.02219E-10
 -1       956-1.47232E+05-2.59026E+03-5.51780E+03 1.98889E+04-2.42107E-09 3.55158E-10
 -1       957-1.48248E+05-8.23789E+02-2.78927E+03 2.31717E+04-6.03904E-10 4.48836E-10
 -1       958-1.47688E+05-9.12635E+01-1.25469E+03 1.97707E+04 2.14186E-09-5.92991E-10
 -1       959-1.47781E+05-1.03751E+01-6.38407E+02 2.33011E+04-1.80148E-09-1.15847E-09
 -1       960-1.47738E+05 2.52215E+01-3.09915E+02 1.97587E+04 1.20463E-09-6.81439E-10
 -1       961-1.47748E+05 2.84201E+01-1.63244E+02 2.33145E+04 3.47723E-09 4.69072E-10
 -1       962-1.47751E+05 2.68193E+01-9.14846E+01 1.97573E+04 1.90721E-09 1.41358E-09
 -1       963-1.47749E+05 3.10439E+01-6.99225E+01 2.33163E+04-4.25996E-09-8.61746E-10
 -1       964-1.47755E+05 2.89001E+01-8.06323E+01 1.97568E+04-6.91898E-10-1.71531E-09
 -1       965-1.47756E+05 3.31923E+01-1.35853E+02 2.33162E+04 3.83625E-09-9.25866E-10
 -1       966-1.47752E+05 3.16419E+01-2.53125E+02 1.97575E+04-5.66536E-09-8.59018E-10
 -1       967-1.47790E+05 5.74029E+00-5.19749E+02 2.33090E+04-9.18226E-09 1.38016E-10
 -1       968-1.47717E+05-5.93399E+01-1.02000E+03 1.97640E+04-3.93675E-09-2.37128E-09
 -1       969-1.48177E+05-6.52508E+02-2.26835E+03 2.32377E+04 1.17961E-09-1.34708E-09
 -1       970-1.47350E+05-2.08968E+03-4.48653E+03 1.98301E+04-4.37012E-10 5.79348E-10
 -1       971-2.79664E+05 3.52300E+03-1.63599E+04 2.98101E+03-1.91130E-09 3.39242E-10
 -1       972-2.85453E+05-4.94033E+03-1.04021E+04 1.10059E+04-1.86719E-09 1.79512E-09
 -1       973-2.82111E+05 3.52786E+02-4.23975E+03 2.91516E+03-2.60184E-09-1.16711E-09
 -1       974-2.82756E+05-4.51427E+02-2.35582E+03 1.10954E+04-3.96085E-10 1.10640E-09
 -1       975-2.82383E+05 4.16265E+01-1.09086E+03 2.89101E+03 3.38446E-09-1.51709E-09
 -1       976-2.82466E+05-2.07077E+01-6.05854E+02 1.11319E+04 8.37701E-10-2.74781E-10
 -1       977-2.82418E+05 1.18281E+01-3.58495E+02 2.87863E+03 5.99618E-09-2.35147E-09
 -1       978-2.82440E+05 1.66967E+01-3.25940E+02 1.11482E+04 1.17216E-08-5.95548E-10
 -1       979-2.82417E+05 1.40836E+01-4.35390E+02 2.87467E+03 5.84135E-09-1.99003E-09
 -1       980-2.82489E+05-3.52961E+01-8.08636E+02 1.11473E+04 5.73428E-09 4.76749E-10
 -1       981-2.82369E+05 5.83423E+01-1.49503E+03 2.87953E+03 5.50472E-10-1.33144E-09
 -1       982-2.82903E+05-6.28318E+02-3.25678E+03 1.11278E+04 1.80705E-10 6.71605E-10
 -1       983-2.81995E+05 4.92682E+02-5.86800E+03 2.89427E+03 3.66003E-09-1.43314E-09
 -1       984-2.86651E+05-6.84354E+03-1.44112E+04 1.10643E+04 1.07991E-09 5.09317E-10
 -1       985-2.78606E+05 4.88937E+03-2.26610E+04 2.94410E+03 1.97906E-09-2.42289E-09
 -3
    1PSTEP                        43          22           1          
  100CL  122 4.29423E-01         841                     0   22           1
 -4  DISP        4    1
 -5  D1          1    2    1    0
 -5  D2          1    2    2    0
 -5  D3          1    2    3    0
 -5  ALL         1    2    0    0    1ALL
 -1         1 5.42890E-05 0.00000E+00 0.00000E+00
 -1         2 4.32163E-05 0.00000E+00 0.00000E+00
 -1         3 3.63050E-05 0.00000E+00 0.00000E+00
 -1         4 3.08408E-05 0.00000E+00 0.00000E+00
 -1         5 2.73325E-05 0.00000E+00 0.00000E+00
 -1         8 4.31219E-05-5.39383E-07 0.00000E+00
 -1         9 3.31567E-05 1.63722E-07 0.00000E+00
 -1        10 3.24537E-05-1.26195E-06 0.00000E+00
 -1        11 2.95121E-05-2.35883E-07 0.00000E+00
 -1        12 2.63409E-05 6.29036E-07 0.00000E+00
 -1        15 2.21198E-05-7.92230E-07 0.00000E+00
 -1        16 2.55454E-05 1.26011E-07 0.00000E+00
 -1        17 2.27609E-05-2.54846E-06 0.00000E+00
 -1        18 2.27635E-05-4.85779E-07 0.00000E+00
 -1        19 2.38330E-05 1.24836E-06 0.00000E+00
 -1        20 2.41899E-05 1.35240E-05 0.00000E+00
 -1        21 2.41773E-05 3.22978E-05 0.00000E+00
 -1        22 8.80607E-06-5.31950E-07 0.00000E+00
 -1        23 1.02578E-05 4.96646E-07 0.00000E+00
 -1        24 9.50577E-06-3.05462E-06 0.00000E+00
 -1        25 2.03546E-05-3.11904E-07 0.00000E+00
 -1        26 2.12541E-05 1.66021E-06 0.00000E+00
 -1        27 2.02258E-05 1.30310E-05 0.00000E+00
 -1        28 1.89926E-05 3.18309E-05 0.00000E+00
 -1        29 0.00000E+00 0.00000E+00 0.00000E+00
 -1        30 1.75027E-06 5.47323E-07 0.00000E+00
 -1        31 1.77232E-06-2.95221E-06 0.00000E+00
 -1        32 0.00000E+00 0.00000E+00 0.00000E+00
 -1        33 1.79367E-05 2.58553E-06 0.00000E+00
 -1        34 1.70070E-05 1.29831E-05 0.00000E+00
 -1        35 1.52320E-05 3.15799E-05 0.00000E+00
 -1        36 5.36176E-05-4.20012E-19 0.00000E+00
 -1        37 5.29255E-05-1.42250E-18-6.61744E-24
 -1        38 5.22347E-05-2.34099E-18 2.64698E-23
 -1        39 5.15401E-05-2.36339E-18 1.32349E-23
 -1        40 5.08453E-05-1.64533E-18 0.00000E+00
 -1        41 5.01497E-05-6.89397E-19 0.00000E+00
 -1        42 4.94540E-05-1.18889E-20 0.00000E+00
 -1        43 4.87582E-05-6.66552E-20 0.00000E+00
 -1        44 4.80624E-05-5.61833E-19-2.64698E-23
 -1        45 4.73666E-05-1.22419E-18-1.32349E-23
 -1        46 4.66710E-05-1.66285E-18-2.64698E-23
 -1        47 4.59758E-05-1.52174E-18-1.32349E-23
 -1        48 4.52808E-05-1.21265E-18 2.64698E-23
 -1        49 4.45884E-05-4.98918E-19 6.61744E-24
 -1        50 4.38952E-05-1.37391E-20 0.00000E+00
 -1        51 5.34402E-05-9.17744E-08 0.00000E+00
 -1        52 5.20405E-05-1.79588E-07 0.00000E+00
 -1        53 5.01966E-05-2.66793E-07 0.00000E+00
 -1        54 4.80205E-05-3.54587E-07 0.00000E+00
 -1        55 4.56246E-05-4.44110E-07-2.06795E-24
 -1        56 5.31805E-05-4.36837E-07 0.00000E+00
 -1        57 5.20410E-05-9.14105E-07 0.00000E+00
 -1        58 5.09040E-05-1.39155E-06 0.00000E+00
 -1        59 4.97514E-05-1.84832E-06 0.00000E+00
 -1        60 4.85811E-05-2.25861E-06 0.00000E+00
 -1        61 4.73838E-05-2.60066E-06-1.32349E-23
 -1        62 4.61535E-05-2.85523E-06 0.00000E+00
 -1        63 4.48839E-05-3.00565E-06 1.32349E-23
 -1        64 4.35706E-05-3.03985E-06 2.64698E-23
 -1        65 4.22105E-05-2.94865E-06 1.32349E-23
 -1        66 4.08022E-05-2.72860E-06 0.00000E+00
 -1        67 3.93465E-05-2.37911E-06 0.00000E+00
 -1        68 3.78447E-05-1.90611E-06 2.64698E-23
 -1        69 3.63064E-05-1.31590E-06-1.32349E-23
 -1        70 3.47280E-05-6.25628E-07 2.64698E-23
 -1        71 4.27875E-05-9.87987E-20 0.00000E+00
 -1        72 4.23549E-05-1.88604E-19-6.61744E-24
 -1        73 4.19225E-05-3.34516E-19 0.00000E+00
 -1        74 4.14894E-05-4.11779E-19 0.00000E+00
 -1        75 4.10563E-05-2.77906E-19 0.00000E+00
 -1        76 4.06231E-05 4.40370E-21 6.61744E-24
 -1        77 4.01898E-05 2.16590E-19 0.00000E+00
 -1        78 3.97565E-05 3.17555E-19 6.61744E-24
 -1        79 3.93233E-05 1.91707E-19 0.00000E+00
 -1        80 3.88901E-05-6.64052E-20-6.61744E-24
 -1        81 3.84569E-05-4.36624E-19 0.00000E+00
 -1        82 3.80240E-05-6.95847E-19-6.61744E-24
 -1        83 3.75912E-05-6.81354E-19 0.00000E+00
 -1        84 3.71600E-05-3.77631E-19 6.61744E-24
 -1        85 3.67283E-05-1.01225E-19 1.32349E-23
 -1        86 4.27114E-05 1.80451E-08 0.00000E+00
 -1        87 4.12073E-05 4.98135E-08 0.00000E+00
 -1        88 3.91055E-05 7.95532E-08 0.00000E+00
 -1        89 3.68066E-05 1.09770E-07 0.00000E+00
 -1        90 3.46953E-05 1.41149E-07 0.00000E+00
 -1        91 3.97425E-05 8.26463E-06-1.32349E-23
 -1        92 2.97803E-05 3.30353E-05 0.00000E+00
 -1        93 1.79099E-05 6.25395E-05 6.61744E-24
 -1        94 8.88560E-06 8.50032E-05 0.00000E+00
 -1        95 5.60989E-06 9.27347E-05 0.00000E+00
 -1        96 1.06309E-05 7.81278E-05 3.30872E-24
 -1        97 2.18633E-05 4.58117E-05 6.61744E-24
 -1        98 3.73545E-05 7.24098E-07-3.30872E-24
 -1        99 5.29511E-05-4.46825E-05 0.00000E+00
 -1       100 6.45065E-05-7.79478E-05-3.30872E-24
 -1       101 6.99643E-05-9.37732E-05 0.00000E+00
 -1       102 6.71205E-05-8.71690E-05 0.00000E+00
 -1       103 5.83859E-05-6.54312E-05-6.61744E-24
 -1       104 4.65254E-05-3.59482E-05 0.00000E+00
 -1       105 3.63321E-05-1.05999E-05 0.00000E+00
 -1       106 3.59678E-05 6.12880E-20-6.61744E-24
 -1       107 3.56259E-05 1.15850E-19-6.61744E-24
 -1       108 3.52843E-05 9.42315E-20 0.00000E+00
 -1       109 3.49418E-05 1.45986E-19 0.00000E+00
 -1       110 3.45993E-05 1.43747E-19-1.32349E-23
 -1       111 3.42566E-05 2.60640E-19 0.00000E+00
 -1       112 3.39139E-05 3.42854E-19 1.32349E-23
 -1       113 3.35711E-05 2.99921E-19 0.00000E+00
 -1       114 3.32284E-05 2.59656E-19 0.00000E+00
 -1       115 3.28857E-05 1.64801E-19 0.00000E+00
 -1       116 3.25430E-05 4.32973E-20 0.00000E+00
 -1       117 3.22006E-05-6.02683E-20 0.00000E+00
 -1       118 3.18582E-05-3.95990E-20-1.32349E-23
 -1       119 3.15171E-05 7.72827E-20-3.30872E-24
 -1       120 3.11756E-05 3.81336E-20-6.61744E-24
 -1       121 3.62040E-05-2.10778E-07 0.00000E+00
 -1       122 3.58939E-05-4.20933E-07 3.30872E-24
 -1       123 3.53690E-05-6.31174E-07 6.61744E-24
 -1       124 3.46239E-05-8.41388E-07-3.30872E-24
 -1       125 3.36536E-05-1.05177E-06 0.00000E+00
 -1       126 3.40929E-05 5.49600E-06 6.61744E-24
 -1       127 2.76209E-05 2.20112E-05-1.65436E-24
 -1       128 1.78836E-05 4.67426E-05 0.00000E+00
 -1       129 5.95760E-06 7.68739E-05 0.00000E+00
 -1       130-6.47671E-06 1.08250E-04 3.30872E-24
 -1       131-1.77221E-05 1.36714E-04 0.00000E+00
 -1       132-2.64146E-05 1.58834E-04-3.30872E-24
 -1       133-3.12563E-05 1.71186E-04 1.65436E-24
 -1       134-3.19603E-05 1.72718E-04-3.30872E-24
 -1       135-2.82860E-05 1.62426E-04 0.00000E+00
 -1       136-2.10364E-05 1.42171E-04 0.00000E+00
 -1       137-1.09852E-05 1.13882E-04 0.00000E+00
 -1       138 4.68533E-07 8.15073E-05-3.30872E-24
 -1       139 1.19574E-05 4.90287E-05 1.65436E-24
 -1       140 2.21073E-05 2.04555E-05 0.00000E+00
 -1       141 3.06221E-05-1.17167E-19 0.00000E+00
 -1       142 3.04015E-05-2.52366E-19-3.30872E-24
 -1       143 3.01811E-05-2.54872E-19 0.00000E+00
 -1       144 2.99602E-05-1.84173E-19 3.30872E-24
 -1       145 2.97394E-05-1.55861E-19 6.61744E-24
 -1       146 2.95186E-05-8.65990E-20 0.00000E+00
 -1       147 2.92977E-05-3.04847E-20 0.00000E+00
 -1       148 2.90768E-05 2.36835E-20 0.00000E+00
 -1       149 2.88560E-05 1.19798E-19 0.00000E+00
 -1       150 2.86352E-05 1.33518E-19 0.00000E+00
 -1       151 2.84145E-05 7.28519E-20 0.00000E+00
 -1       152 2.81943E-05-5.16606E-20 0.00000E+00
 -1       153 2.79742E-05-9.45053E-20-6.61744E-24
 -1       154 2.77565E-05-7.42000E-20 0.00000E+00
 -1       155 2.75381E-05-5.71489E-21-1.65436E-24
 -1       156 2.89797E-05-2.67131E-08 0.00000E+00
 -1       157 2.34737E-05-5.98489E-08 8.27181E-25
 -1       158 1.75728E-05-9.54485E-08-1.65436E-24
 -1       159 1.45269E-05-1.17772E-07-8.27181E-25
 -1       160 1.74652E-05-1.42931E-07-1.65436E-24
 -1       161 2.92178E-05 3.90252E-06 0.00000E+00
 -1       162 2.45796E-05 1.56706E-05 0.00000E+00
 -1       163 1.77611E-05 3.30191E-05-3.30872E-24
 -1       164 9.64539E-06 5.36441E-05-1.65436E-24
 -1       165 1.52110E-06 7.42905E-05 0.00000E+00
 -1       166-5.32241E-06 9.17038E-05 0.00000E+00
 -1       167-9.99688E-06 1.03566E-04 0.00000E+00
 -1       168-1.16584E-05 1.07578E-04 1.65436E-24
 -1       169-1.03585E-05 1.03696E-04 0.00000E+00
 -1       170-6.16634E-06 9.19216E-05 0.00000E+00
 -1       171 4.18105E-08 7.45437E-05 0.00000E+00
 -1       172 7.40959E-06 5.38938E-05-1.65436E-24
 -1       173 1.47673E-05 3.32730E-05-3.30872E-24
 -1       174 2.09461E-05 1.59831E-05 0.00000E+00
 -1       175 2.50918E-05 4.34251E-06 8.27181E-25
 -1       191 2.72945E-05 1.04698E-07 3.30872E-24
 -1       192 2.72028E-05 2.09584E-07-3.30872E-24
 -1       193 2.70594E-05 3.14515E-07 0.00000E+00
 -1       194 2.68664E-05 4.19443E-07 0.00000E+00
 -1       195 2.66260E-05 5.24323E-07 3.30872E-24
 -1       251 4.27593E-05 9.06079E-06 0.00000E+00
 -1       252 4.21469E-05 3.37106E-05-3.30872E-24
 -1       253 4.14463E-05 6.21006E-05 0.00000E+00
 -1       254 4.09258E-05 8.28681E-05-3.30872E-24
 -1       255 4.05758E-05 8.90418E-05 0.00000E+00
 -1       256 4.01335E-05 7.38603E-05 3.30872E-24
 -1       257 3.93344E-05 4.21711E-05 0.00000E+00
 -1       258 3.81241E-05-9.41998E-07-3.30872E-24
 -1       259 3.69204E-05-4.38838E-05 0.00000E+00
 -1       260 3.61365E-05-7.50597E-05 0.00000E+00
 -1       261 3.57037E-05-8.95759E-05 0.00000E+00
 -1       262 3.53499E-05-8.27776E-05 0.00000E+00
 -1       263 3.48214E-05-6.15999E-05 6.61744E-24
 -1       264 3.41203E-05-3.31842E-05 0.00000E+00
 -1       265 3.35147E-05-8.84383E-06 0.00000E+00
 -1       266 4.15498E-05-5.79493E-07 0.00000E+00
 -1       267 4.07642E-05-6.11079E-07 0.00000E+00
 -1       268 3.95757E-05-6.43621E-07 0.00000E+00
 -1       269 3.67953E-05-6.77448E-07 0.00000E+00
 -1       270 3.13374E-05-7.22410E-07 4.13590E-25
 -1       271 4.15483E-05 8.58918E-07 0.00000E+00
 -1       272 4.01036E-05 1.81995E-06-1.32349E-23
 -1       273 3.88027E-05 2.40110E-06 2.64698E-23
 -1       274 3.76216E-05 2.64952E-06-1.32349E-23
 -1       275 3.65448E-05 2.61849E-06 2.64698E-23
 -1       276 3.55517E-05 2.36223E-06 1.32349E-23
 -1       277 3.46217E-05 1.93710E-06 0.00000E+00
 -1       278 3.37333E-05 1.40080E-06-1.32349E-23
 -1       279 3.28645E-05 8.11980E-07 0.00000E+00
 -1       280 3.19934E-05 2.29752E-07 1.32349E-23
 -1       281 3.10978E-05-2.86875E-07 2.64698E-23
 -1       282 3.01565E-05-6.79343E-07 1.32349E-23
 -1       283 2.91476E-05-8.90316E-07-2.64698E-23
 -1       284 2.80538E-05-8.62733E-07 1.32349E-23
 -1       285 2.68501E-05-5.44447E-07 0.00000E+00
 -1       286 3.31053E-05 1.20734E-06 0.00000E+00
 -1       287 3.30615E-05 1.84389E-06 0.00000E+00
 -1       288 3.30174E-05 2.09808E-06 0.00000E+00
 -1       289 3.29748E-05 1.99535E-06 0.00000E+00
 -1       290 3.29321E-05 1.59348E-06-1.65436E-24
 -1       291 3.28896E-05 9.50832E-07 0.00000E+00
 -1       292 3.28470E-05 1.47539E-07-1.65436E-24
 -1       293 3.28044E-05-7.36000E-07-8.27181E-25
 -1       294 3.27618E-05-1.61211E-06 0.00000E+00
 -1       295 3.27192E-05-2.39314E-06-8.27181E-25
 -1       296 3.26767E-05-3.00003E-06-1.65436E-24
 -1       297 3.26341E-05-3.35404E-06 8.27181E-25
 -1       298 3.25915E-05-3.39927E-06-1.65436E-24
 -1       299 3.25477E-05-3.08042E-06 1.65436E-24
 -1       300 3.25040E-05-2.37519E-06-3.30872E-24
 -1       301 3.18849E-05 1.51689E-07 0.00000E+00
 -1       302 3.06059E-05 1.49209E-07 0.00000E+00
 -1       303 2.93259E-05 1.48302E-07 0.00000E+00
 -1       304 2.80515E-05 1.46969E-07 0.00000E+00
 -1       305 2.67893E-05 1.43139E-07 0.00000E+00
 -1       306 3.21677E-05 9.47448E-07 0.00000E+00
 -1       307 3.13161E-05 1.31334E-06 0.00000E+00
 -1       308 3.05980E-05 1.32493E-06 1.32349E-23
 -1       309 2.99881E-05 1.04061E-06-6.61744E-24
 -1       310 2.94655E-05 5.22145E-07 0.00000E+00
 -1       311 2.90069E-05-1.68109E-07 0.00000E+00
 -1       312 2.85887E-05-9.66716E-07-2.64698E-23
 -1       313 2.81871E-05-1.80972E-06 1.32349E-23
 -1       314 2.77780E-05-2.63287E-06 0.00000E+00
 -1       315 2.73376E-05-3.37202E-06-6.61744E-24
 -1       316 2.68420E-05-3.96357E-06 0.00000E+00
 -1       317 2.62682E-05-4.34464E-06 6.61744E-24
 -1       318 2.55927E-05-4.45367E-06 0.00000E+00
 -1       319 2.47957E-05-4.22972E-06 0.00000E+00
 -1       320 2.38516E-05-3.61581E-06 0.00000E+00
 -1       321 3.23432E-05 2.72208E-06-3.30872E-24
 -1       322 3.22030E-05 1.20209E-05 0.00000E+00
 -1       323 3.20205E-05 2.52951E-05-3.30872E-24
 -1       324 3.18020E-05 4.11891E-05 1.65436E-24
 -1       325 3.15723E-05 5.78210E-05 0.00000E+00
 -1       326 3.13605E-05 7.33060E-05 0.00000E+00
 -1       327 3.11856E-05 8.59895E-05 0.00000E+00
 -1       328 3.10556E-05 9.42283E-05 1.65436E-24
 -1       329 3.09530E-05 9.72653E-05-3.30872E-24
 -1       330 3.08509E-05 9.43660E-05-1.65436E-24
 -1       331 3.07194E-05 8.59734E-05 3.30872E-24
 -1       332 3.05353E-05 7.25542E-05-1.65436E-24
 -1       333 3.03002E-05 5.55749E-05-3.30872E-24
 -1       334 3.00292E-05 3.65178E-05 0.00000E+00
 -1       335 2.97550E-05 1.72813E-05 0.00000E+00
 -1       336 3.10286E-05-1.47645E-06 6.61744E-24
 -1       337 2.94515E-05-1.69166E-06 0.00000E+00
 -1       338 2.77790E-05-1.90693E-06 6.61744E-24
 -1       339 2.60683E-05-2.12187E-06 3.30872E-24
 -1       340 2.43766E-05-2.33682E-06 0.00000E+00
 -1       341 2.90224E-05 7.35232E-06 6.61744E-24
 -1       342 1.98656E-05 3.05603E-05-1.65436E-24
 -1       343 6.56323E-06 6.39859E-05 3.30872E-24
 -1       344-9.16179E-06 1.03242E-04-1.65436E-24
 -1       345-2.47725E-05 1.42222E-04 0.00000E+00
 -1       346-3.77341E-05 1.74823E-04 1.65436E-24
 -1       347-4.64023E-05 1.96808E-04 3.30872E-24
 -1       348-4.92680E-05 2.03962E-04 1.65436E-24
 -1       349-4.65549E-05 1.96229E-04 0.00000E+00
 -1       350-3.85179E-05 1.73648E-04-1.65436E-24
 -1       351-2.68255E-05 1.40500E-04 0.00000E+00
 -1       352-1.30552E-05 1.01167E-04 0.00000E+00
 -1       353 6.87881E-07 6.19171E-05 0.00000E+00
 -1       354 1.22967E-05 2.90174E-05-1.65436E-24
 -1       355 2.02059E-05 6.80523E-06 1.65436E-24
 -1       356 2.92594E-05-1.80262E-05 0.00000E+00
 -1       357 2.89644E-05-3.80782E-05 0.00000E+00
 -1       358 2.86668E-05-5.82675E-05-3.30872E-24
 -1       359 2.84058E-05-7.64686E-05 0.00000E+00
 -1       360 2.82015E-05-9.09755E-05 0.00000E+00
 -1       361 2.80584E-05-1.00099E-04 1.65436E-24
 -1       362 2.79498E-05-1.03277E-04 0.00000E+00
 -1       363 2.78408E-05-9.99729E-05 0.00000E+00
 -1       364 2.76993E-05-9.10030E-05 0.00000E+00
 -1       365 2.75050E-05-7.72085E-05 1.65436E-24
 -1       366 2.72682E-05-6.04425E-05 3.30872E-24
 -1       367 2.70133E-05-4.25710E-05 0.00000E+00
 -1       368 2.67746E-05-2.56940E-05 0.00000E+00
 -1       369 2.65831E-05-1.19069E-05 0.00000E+00
 -1       370 2.64401E-05-2.65720E-06 5.16988E-26
 -1       371 4.12437E-05-3.27745E-07 1.65436E-24
 -1       372 4.32427E-05-3.52843E-07-4.13590E-25
 -1       373 3.89203E-05-3.81274E-07 0.00000E+00
 -1       374 3.16938E-05-4.25298E-07 2.06795E-25
 -1       375 2.51221E-05-4.65372E-07 1.29247E-26
 -1       376 3.64767E-05-1.96578E-05 3.30872E-24
 -1       377 4.53183E-05-4.44290E-05 0.00000E+00
 -1       378 5.49183E-05-7.13809E-05 3.30872E-24
 -1       379 6.41699E-05-9.73282E-05-1.65436E-24
 -1       380 7.20413E-05-1.19328E-04 0.00000E+00
 -1       381 7.74775E-05-1.34467E-04-1.65436E-24
 -1       382 7.99517E-05-1.41451E-04-3.30872E-24
 -1       383 7.89245E-05-1.39037E-04 1.65436E-24
 -1       384 7.46595E-05-1.28150E-04 3.30872E-24
 -1       385 6.74546E-05-1.09750E-04 0.00000E+00
 -1       386 5.83348E-05-8.65323E-05 3.30872E-24
 -1       387 4.83666E-05-6.12031E-05 0.00000E+00
 -1       388 3.88357E-05-3.69626E-05 0.00000E+00
 -1       389 3.10194E-05-1.70092E-05 8.27181E-25
 -1       390 2.57530E-05-3.54467E-06 8.27181E-25
 -1       406 2.60034E-05 7.32870E-07 3.30872E-24
 -1       407 2.56280E-05 8.36762E-07-1.65436E-24
 -1       408 2.52187E-05 9.40589E-07-3.30872E-24
 -1       409 2.47801E-05 1.04416E-06 0.00000E+00
 -1       410 2.43167E-05 1.14719E-06 0.00000E+00
 -1       466 2.22915E-05 8.15587E-06 0.00000E+00
 -1       467 2.25001E-05 1.28352E-05 0.00000E+00
 -1       468 2.27177E-05 1.46417E-05 0.00000E+00
 -1       469 2.29385E-05 1.49425E-05 3.30872E-24
 -1       470 2.31593E-05 1.42328E-05 0.00000E+00
 -1       471 2.33798E-05 1.29974E-05 0.00000E+00
 -1       472 2.36000E-05 1.14157E-05 0.00000E+00
 -1       473 2.38199E-05 9.66332E-06 0.00000E+00
 -1       474 2.40396E-05 7.81647E-06 6.61744E-24
 -1       475 2.42591E-05 5.95051E-06-3.30872E-24
 -1       476 2.44786E-05 4.12968E-06-6.61744E-24
 -1       477 2.46975E-05 2.41859E-06 3.30872E-24
 -1       478 2.49167E-05 9.45757E-07 0.00000E+00
 -1       479 2.51322E-05-1.57938E-07-1.65436E-24
 -1       480 2.53495E-05-5.48367E-07 0.00000E+00
 -1       481 1.37016E-05-7.77947E-07 0.00000E+00
 -1       482 1.06078E-05-7.32186E-07 0.00000E+00
 -1       483 1.06780E-05-6.80747E-07-1.65436E-24
 -1       484 1.17592E-05-6.29674E-07 0.00000E+00
 -1       485 1.18149E-05-5.78325E-07 0.00000E+00
 -1       486 1.52286E-05 1.64362E-05 0.00000E+00
 -1       487 3.42391E-06 4.58936E-05 0.00000E+00
 -1       488-8.92693E-06 7.66942E-05 6.61744E-24
 -1       489-1.74205E-05 9.79467E-05 3.30872E-24
 -1       490-1.98510E-05 1.03600E-04 0.00000E+00
 -1       491-1.43133E-05 8.76900E-05 0.00000E+00
 -1       492-2.75692E-06 5.45609E-05 6.61744E-24
 -1       493 1.29949E-05 8.82067E-06 0.00000E+00
 -1       494 2.92377E-05-3.84174E-05 6.61744E-24
 -1       495 4.23007E-05-7.60080E-05 0.00000E+00
 -1       496 4.99410E-05-9.78466E-05-6.61744E-24
 -1       497 4.97396E-05-9.80884E-05-3.30872E-24
 -1       498 4.29898E-05-8.12462E-05-6.61744E-24
 -1       499 3.12511E-05-5.19521E-05 0.00000E+00
 -1       500 1.88715E-05-2.10805E-05 3.30872E-24
 -1       501 2.53934E-05-8.31077E-07-6.61744E-24
 -1       502 2.52352E-05-6.12081E-06 3.30872E-24
 -1       503 2.50552E-05-1.46970E-05 0.00000E+00
 -1       504 2.48559E-05-2.54930E-05-1.65436E-24
 -1       505 2.46513E-05-3.68062E-05 0.00000E+00
 -1       506 2.44592E-05-4.69308E-05 0.00000E+00
 -1       507 2.42881E-05-5.45005E-05 3.30872E-24
 -1       508 2.41383E-05-5.81657E-05 0.00000E+00
 -1       509 2.39946E-05-5.76893E-05 3.30872E-24
 -1       510 2.38398E-05-5.28605E-05 0.00000E+00
 -1       511 2.36650E-05-4.47078E-05 3.30872E-24
 -1       512 2.34698E-05-3.42807E-05 1.65436E-24
 -1       513 2.32689E-05-2.32788E-05-3.30872E-24
 -1       514 2.30793E-05-1.34052E-05 0.00000E+00
 -1       515 2.29099E-05-6.04024E-06 0.00000E+00
 -1       516 2.54097E-05 1.92185E-07 3.30872E-24
 -1       517 2.73748E-05 2.72264E-07-2.06795E-25
 -1       518 2.92331E-05 3.51385E-07-8.27181E-25
 -1       519 2.87768E-05 4.34457E-07 4.13590E-25
 -1       520 2.33450E-05 5.01477E-07-8.27181E-25
 -1       521 2.42553E-05 7.74025E-07 2.64698E-23
 -1       522 2.30838E-05 1.02351E-06 0.00000E+00
 -1       523 2.20387E-05 9.38580E-07 0.00000E+00
 -1       524 2.10937E-05 5.74580E-07-1.32349E-23
 -1       525 2.02301E-05-7.98714E-09 0.00000E+00
 -1       526 1.94247E-05-7.47985E-07 0.00000E+00
 -1       527 1.86547E-05-1.58274E-06-2.64698E-23
 -1       528 1.78963E-05-2.44892E-06 0.00000E+00
 -1       529 1.71258E-05-3.28290E-06 0.00000E+00
 -1       530 1.63197E-05-4.02133E-06 0.00000E+00
 -1       531 1.54545E-05-4.60169E-06-2.64698E-23
 -1       532 1.45078E-05-4.96271E-06 0.00000E+00
 -1       533 1.34571E-05-5.04511E-06-2.64698E-23
 -1       534 1.22843E-05-4.79088E-06 1.32349E-23
 -1       535 1.09646E-05-4.14749E-06-2.64698E-23
 -1       536 2.27537E-05-1.18532E-06 0.00000E+00
 -1       537 2.27528E-05-1.48726E-07 0.00000E+00
 -1       538 2.27521E-05 5.95812E-07 8.27181E-25
 -1       539 2.27524E-05 1.08311E-06 0.00000E+00
 -1       540 2.27529E-05 1.34790E-06 0.00000E+00
 -1       541 2.27537E-05 1.42494E-06 0.00000E+00
 -1       542 2.27544E-05 1.34898E-06 0.00000E+00
 -1       543 2.27553E-05 1.15478E-06 0.00000E+00
 -1       544 2.27561E-05 8.77076E-07 0.00000E+00
 -1       545 2.27569E-05 5.50630E-07 0.00000E+00
 -1       546 2.27577E-05 2.10188E-07 0.00000E+00
 -1       547 2.27585E-05-1.09495E-07 0.00000E+00
 -1       548 2.27594E-05-3.73674E-07 2.06795E-25
 -1       549 2.27604E-05-5.47604E-07-4.13590E-25
 -1       550 2.27615E-05-5.96509E-07-4.13590E-25
 -1       551 2.07769E-05-2.63142E-06 1.03398E-25
 -1       552 1.85691E-05-2.71236E-06-1.24077E-24
 -1       553 1.62368E-05-2.79340E-06 3.30872E-24
 -1       554 1.38815E-05-2.87548E-06 0.00000E+00
 -1       555 1.16045E-05-2.95969E-06 0.00000E+00
 -1       556 2.21789E-05-1.27004E-06 0.00000E+00
 -1       557 2.17097E-05-2.84320E-07 3.30872E-24
 -1       558 2.13407E-05 4.36442E-07 0.00000E+00
 -1       559 2.10601E-05 9.22765E-07 0.00000E+00
 -1       560 2.08561E-05 1.20521E-06 6.61744E-24
 -1       561 2.07172E-05 1.31462E-06-3.30872E-24
 -1       562 2.06316E-05 1.28183E-06 0.00000E+00
 -1       563 2.05878E-05 1.13775E-06-1.65436E-24
 -1       564 2.05741E-05 9.13286E-07 3.30872E-24
 -1       565 2.05789E-05 6.39350E-07-1.65436E-24
 -1       566 2.05908E-05 3.46871E-07-3.30872E-24
 -1       567 2.05981E-05 6.67826E-08 0.00000E+00
 -1       568 2.05892E-05-1.69992E-07-1.65436E-24
 -1       569 2.05528E-05-3.32557E-07 8.19103E-25
 -1       570 2.04776E-05-3.90041E-07-8.27181E-25
 -1       571 2.28278E-05-3.43900E-07-4.13590E-25
 -1       572 2.28940E-05-2.47687E-07 6.20385E-25
 -1       573 2.29607E-05-1.88706E-07-8.27181E-25
 -1       574 2.30278E-05-1.58102E-07 4.13590E-25
 -1       575 2.30949E-05-1.46982E-07 0.00000E+00
 -1       576 2.31621E-05-1.46400E-07 8.27181E-25
 -1       577 2.32292E-05-1.47402E-07 3.30872E-24
 -1       578 2.32964E-05-1.41030E-07 0.00000E+00
 -1       579 2.33636E-05-1.18323E-07 3.30872E-24
 -1       580 2.34308E-05-7.03207E-08 0.00000E+00
 -1       581 2.34980E-05 1.19352E-08 0.00000E+00
 -1       582 2.35652E-05 1.37396E-07 0.00000E+00
 -1       583 2.36323E-05 3.15005E-07 3.30872E-24
 -1       584 2.36994E-05 5.53613E-07 0.00000E+00
 -1       585 2.37664E-05 8.62025E-07-3.30872E-24
 -1       586 2.24194E-05-4.56227E-07 1.65436E-24
 -1       587 2.20246E-05-4.26446E-07 0.00000E+00
 -1       588 2.15996E-05-3.96697E-07 0.00000E+00
 -1       589 2.11655E-05-3.67234E-07 2.06795E-25
 -1       590 2.07436E-05-3.38416E-07 0.00000E+00
 -1       591 2.26598E-05-3.17634E-07 8.27181E-25
 -1       592 2.25640E-05-1.78652E-07-1.65436E-24
 -1       593 2.24764E-05-6.30902E-08-1.65436E-24
 -1       594 2.23952E-05 3.42504E-08 0.00000E+00
 -1       595 2.23189E-05 1.18566E-07 1.65436E-24
 -1       596 2.22454E-05 1.95015E-07 0.00000E+00
 -1       597 2.21730E-05 2.68749E-07 0.00000E+00
 -1       598 2.20996E-05 3.44912E-07 0.00000E+00
 -1       599 2.20234E-05 4.28653E-07 8.27181E-25
 -1       600 2.19424E-05 5.25116E-07 0.00000E+00
 -1       601 2.18548E-05 6.39445E-07 0.00000E+00
 -1       602 2.17585E-05 7.76793E-07 4.13590E-25
 -1       603 2.16518E-05 9.42311E-07 0.00000E+00
 -1       604 2.15329E-05 1.14118E-06 1.03398E-25
 -1       605 2.14002E-05 1.37860E-06-4.13590E-25
 -1       606 2.38578E-05 1.76071E-06-3.30872E-24
 -1       607 2.38808E-05 2.32235E-06 0.00000E+00
 -1       608 2.39034E-05 2.93038E-06 0.00000E+00
 -1       609 2.39257E-05 3.58150E-06 1.65436E-24
 -1       610 2.39479E-05 4.27238E-06 0.00000E+00
 -1       611 2.39700E-05 4.99962E-06 0.00000E+00
 -1       612 2.39922E-05 5.75983E-06 1.65436E-24
 -1       613 2.40142E-05 6.54961E-06 0.00000E+00
 -1       614 2.40363E-05 7.36555E-06 0.00000E+00
 -1       615 2.40583E-05 8.20425E-06 8.27181E-25
 -1       616 2.40803E-05 9.06232E-06 0.00000E+00
 -1       617 2.41023E-05 9.93634E-06 0.00000E+00
 -1       618 2.41243E-05 1.08229E-05-8.27181E-25
 -1       619 2.41463E-05 1.17187E-05-4.13590E-25
 -1       620 2.41682E-05 1.26201E-05 0.00000E+00
 -1       621 2.33531E-05 1.31726E-06 0.00000E+00
 -1       622 2.28866E-05 1.38650E-06 0.00000E+00
 -1       623 2.24386E-05 1.45575E-06 0.00000E+00
 -1       624 2.20139E-05 1.52483E-06 4.13590E-25
 -1       625 2.16175E-05 1.59350E-06 0.00000E+00
 -1       626 2.36832E-05 1.78695E-06 0.00000E+00
 -1       627 2.35132E-05 2.37716E-06 0.00000E+00
 -1       628 2.33254E-05 3.01413E-06 0.00000E+00
 -1       629 2.31220E-05 3.69242E-06 0.00000E+00
 -1       630 2.29051E-05 4.40653E-06-3.30872E-24
 -1       631 2.26768E-05 5.15090E-06 0.00000E+00
 -1       632 2.24392E-05 5.91994E-06-1.65436E-24
 -1       633 2.21945E-05 6.70810E-06 0.00000E+00
 -1       634 2.19447E-05 7.50978E-06 1.65436E-24
 -1       635 2.16919E-05 8.31939E-06 0.00000E+00
 -1       636 2.14381E-05 9.13137E-06 0.00000E+00
 -1       637 2.11856E-05 9.94014E-06 0.00000E+00
 -1       638 2.09363E-05 1.07401E-05 1.65436E-24
 -1       639 2.06922E-05 1.15256E-05 2.06795E-25
 -1       640 2.04551E-05 1.22912E-05-8.27181E-25
 -1       641 2.41904E-05 1.44605E-05 0.00000E+00
 -1       642 2.41901E-05 1.54944E-05 5.16988E-26
 -1       643 2.41898E-05 1.66116E-05-5.16988E-26
 -1       644 2.41893E-05 1.77979E-05 0.00000E+00
 -1       645 2.41888E-05 1.90392E-05-2.58494E-26
 -1       646 2.41881E-05 2.03215E-05 0.00000E+00
 -1       647 2.41874E-05 2.16306E-05 3.23117E-27
 -1       648 2.41867E-05 2.29525E-05-1.61559E-27
 -1       649 2.41860E-05 2.42731E-05 1.29247E-26
 -1       650 2.41852E-05 2.55783E-05 0.00000E+00
 -1       651 2.41845E-05 2.68541E-05 0.00000E+00
 -1       652 2.41838E-05 2.80863E-05-5.16988E-26
 -1       653 2.41831E-05 2.92608E-05 2.06795E-25
 -1       654 2.41819E-05 3.03637E-05 0.00000E+00
 -1       655 2.41810E-05 3.13807E-05-8.27181E-25
 -1       656 2.33801E-05 1.34446E-05 0.00000E+00
 -1       657 2.26820E-05 1.33610E-05-8.27181E-25
 -1       658 2.20567E-05 1.32777E-05 1.65436E-24
 -1       659 2.14650E-05 1.31943E-05 0.00000E+00
 -1       660 2.08677E-05 1.31108E-05 8.27181E-25
 -1       661 2.39293E-05 1.44884E-05-1.65436E-24
 -1       662 2.36437E-05 1.55293E-05 0.00000E+00
 -1       663 2.33339E-05 1.66343E-05-3.30872E-24
 -1       664 2.30046E-05 1.77925E-05 1.65436E-24
 -1       665 2.26595E-05 1.89927E-05 3.30872E-24
 -1       666 2.23028E-05 2.02241E-05 1.65436E-24
 -1       667 2.19386E-05 2.14755E-05-3.30872E-24
 -1       668 2.15709E-05 2.27361E-05-1.65436E-24
 -1       669 2.12039E-05 2.39948E-05 3.30872E-24
 -1       670 2.08417E-05 2.52408E-05 1.65436E-24
 -1       671 2.04884E-05 2.64631E-05 0.00000E+00
 -1       672 2.01481E-05 2.76507E-05 0.00000E+00
 -1       673 1.98248E-05 2.87926E-05 0.00000E+00
 -1       674 1.95221E-05 2.98775E-05-8.27181E-25
 -1       675 1.92450E-05 3.08946E-05 0.00000E+00
 -1       676 2.33104E-05 3.22196E-05 0.00000E+00
 -1       677 2.24440E-05 3.21412E-05 0.00000E+00
 -1       678 2.15786E-05 3.20629E-05 0.00000E+00
 -1       679 2.07146E-05 3.19848E-05 0.00000E+00
 -1       680 1.98524E-05 3.19067E-05 0.00000E+00
 -1       681 8.90122E-06 2.70376E-06-1.65436E-24
 -1       682 9.00401E-06 3.30050E-06 1.65436E-24
 -1       683 9.10617E-06 1.95793E-06-3.30872E-24
 -1       684 9.20648E-06-6.33357E-07 0.00000E+00
 -1       685 9.30435E-06-4.09098E-06 0.00000E+00
 -1       686 9.40059E-06-8.03669E-06-1.65436E-24
 -1       687 9.49595E-06-1.22129E-05 3.30872E-24
 -1       688 9.59142E-06-1.63630E-05 0.00000E+00
 -1       689 9.68799E-06-2.02243E-05-3.30872E-24
 -1       690 9.78644E-06-2.35323E-05-1.65436E-24
 -1       691 9.88737E-06-2.58860E-05 3.30872E-24
 -1       692 9.99034E-06-2.68797E-05 0.00000E+00
 -1       693 1.00928E-05-2.57717E-05-3.30872E-24
 -1       694 1.01875E-05-2.18108E-05 0.00000E+00
 -1       695 1.02562E-05-1.35452E-05 0.00000E+00
 -1       696 5.03011E-06-4.50619E-07-1.65436E-24
 -1       697 2.82078E-06-3.62527E-07 0.00000E+00
 -1       698 1.66965E-06-2.72770E-07-3.30872E-24
 -1       699 1.07264E-06-1.82044E-07 1.65436E-24
 -1       700 6.44331E-07-9.12324E-08 3.30872E-24
 -1       701 4.99877E-06 9.15563E-06 1.65436E-24
 -1       702-2.83053E-06 2.91032E-05 0.00000E+00
 -1       703-1.34896E-05 5.61181E-05 3.30872E-24
 -1       704-2.57208E-05 8.69905E-05 0.00000E+00
 -1       705-3.78182E-05 1.17534E-04-3.30872E-24
 -1       706-4.80797E-05 1.43563E-04 0.00000E+00
 -1       707-5.53267E-05 1.62036E-04 0.00000E+00
 -1       708-5.84514E-05 1.69931E-04 0.00000E+00
 -1       709-5.74313E-05 1.66849E-04-3.30872E-24
 -1       710-5.22737E-05 1.52446E-04 1.65436E-24
 -1       711-4.39794E-05 1.29214E-04 0.00000E+00
 -1       712-3.35104E-05 9.97043E-05 0.00000E+00
 -1       713-2.23243E-05 6.81050E-05 0.00000E+00
 -1       714-1.18609E-05 3.86206E-05 1.65436E-24
 -1       715-3.39781E-06 1.49000E-05 1.65436E-24
 -1       716 1.01227E-05 1.56853E-05 0.00000E+00
 -1       717 1.00331E-05 2.73445E-05 0.00000E+00
 -1       718 9.97610E-06 3.55972E-05-8.27181E-25
 -1       719 9.93989E-06 4.05700E-05 0.00000E+00
 -1       720 9.91382E-06 4.25594E-05 0.00000E+00
 -1       721 9.88938E-06 4.18649E-05-4.13590E-25
 -1       722 9.86121E-06 3.89255E-05 8.27181E-25
 -1       723 9.82633E-06 3.41820E-05 0.00000E+00
 -1       724 9.78502E-06 2.81695E-05-8.27181E-25
 -1       725 9.73911E-06 2.14239E-05-4.13590E-25
 -1       726 9.69211E-06 1.45194E-05 8.27181E-25
 -1       727 9.64732E-06 8.03031E-06 8.27181E-25
 -1       728 9.60793E-06 2.50930E-06 0.00000E+00
 -1       729 9.57315E-06-1.49219E-06 1.65436E-24
 -1       730 9.54474E-06-3.50323E-06 0.00000E+00
 -1       731-3.56366E-06 4.38832E-07 0.00000E+00
 -1       732-1.11501E-05 4.47652E-07-4.13590E-25
 -1       733-1.35337E-05 4.82140E-07 8.27181E-25
 -1       734-1.17378E-05 5.17990E-07-4.13590E-25
 -1       735-6.42444E-06 5.42402E-07 0.00000E+00
 -1       736 1.58618E-06 2.25924E-05 0.00000E+00
 -1       737-1.12901E-05 5.50535E-05 0.00000E+00
 -1       738-2.66493E-05 9.35151E-05-3.30872E-24
 -1       739-4.26934E-05 1.33610E-04 1.65436E-24
 -1       740-5.74376E-05 1.70588E-04-3.30872E-24
 -1       741-6.89389E-05 1.99696E-04 1.65436E-24
 -1       742-7.61154E-05 2.18010E-04 0.00000E+00
 -1       743-7.79819E-05 2.22629E-04 0.00000E+00
 -1       744-7.48132E-05 2.13741E-04 0.00000E+00
 -1       745-6.68989E-05 1.91603E-04 0.00000E+00
 -1       746-5.55394E-05 1.59522E-04-3.30872E-24
 -1       747-4.19707E-05 1.20883E-04 0.00000E+00
 -1       748-2.78745E-05 8.06659E-05-3.30872E-24
 -1       749-1.49170E-05 4.38617E-05 0.00000E+00
 -1       750-4.53454E-06 1.46247E-05 1.65436E-24
 -1       751 1.01421E-05-1.74373E-06-6.61744E-24
 -1       752 1.08201E-05-1.16033E-06 6.61744E-24
 -1       753 1.14957E-05-9.79708E-07 0.00000E+00
 -1       754 1.21790E-05-8.89955E-07 0.00000E+00
 -1       755 1.28626E-05-8.50484E-07-2.64698E-23
 -1       756 1.35478E-05-8.22262E-07-1.32349E-23
 -1       757 1.42331E-05-8.00253E-07 0.00000E+00
 -1       758 1.49187E-05-7.79610E-07 0.00000E+00
 -1       759 1.56044E-05-7.59624E-07 0.00000E+00
 -1       760 1.62898E-05-7.39607E-07 0.00000E+00
 -1       761 1.69752E-05-7.18773E-07 0.00000E+00
 -1       762 1.76595E-05-6.96313E-07 0.00000E+00
 -1       763 1.83436E-05-6.66500E-07-1.32349E-23
 -1       764 1.90223E-05-6.23378E-07-6.61744E-24
 -1       765 1.97028E-05-5.21089E-07 1.32349E-23
 -1       766 6.58898E-06-3.04184E-06 0.00000E+00
 -1       767 1.26165E-06-3.02390E-06 0.00000E+00
 -1       768-4.21191E-06-3.00767E-06 0.00000E+00
 -1       769-7.56805E-06-2.98004E-06 0.00000E+00
 -1       770-6.38342E-06-2.94936E-06 2.06795E-25
 -1       771 8.49577E-06-1.73856E-06 0.00000E+00
 -1       772 7.57807E-06-6.84817E-07-6.61744E-24
 -1       773 6.74900E-06 1.30142E-07-1.32349E-23
 -1       774 6.00004E-06 7.30276E-07 6.61744E-24
 -1       775 5.32256E-06 1.13961E-06 0.00000E+00
 -1       776 4.70757E-06 1.38231E-06 6.61744E-24
 -1       777 4.14600E-06 1.48261E-06 0.00000E+00
 -1       778 3.62875E-06 1.46480E-06 6.61744E-24
 -1       779 3.14668E-06 1.35322E-06-1.32349E-23
 -1       780 2.69066E-06 1.17227E-06 0.00000E+00
 -1       781 2.25154E-06 9.46347E-07 0.00000E+00
 -1       782 1.82024E-06 6.99917E-07 0.00000E+00
 -1       783 1.38767E-06 4.57439E-07-1.32349E-23
 -1       784 9.45119E-07 2.43451E-07 6.61744E-24
 -1       785 4.83939E-07 8.24869E-08 1.32349E-23
 -1       786 2.04073E-05-7.87386E-08 4.13590E-25
 -1       787 2.04633E-05 1.02067E-07 0.00000E+00
 -1       788 2.05193E-05 2.38596E-07 1.65436E-24
 -1       789 2.05758E-05 3.38956E-07 0.00000E+00
 -1       790 2.06324E-05 4.11230E-07-1.65436E-24
 -1       791 2.06891E-05 4.63496E-07 0.00000E+00
 -1       792 2.07458E-05 5.03817E-07-1.65436E-24
 -1       793 2.08026E-05 5.40255E-07 0.00000E+00
 -1       794 2.08593E-05 5.80867E-07 1.65436E-24
 -1       795 2.09161E-05 6.33714E-07-8.27181E-25
 -1       796 2.09728E-05 7.06862E-07 0.00000E+00
 -1       797 2.10295E-05 8.08386E-07 8.27181E-25
 -1       798 2.10861E-05 9.46373E-07 1.65436E-24
 -1       799 2.11426E-05 1.12892E-06 0.00000E+00
 -1       800 2.11990E-05 1.36417E-06 1.65436E-24
 -1       801 1.85644E-05-2.54642E-07 0.00000E+00
 -1       802 1.48286E-05-1.98598E-07 0.00000E+00
 -1       803 1.01250E-05-1.46375E-07 0.00000E+00
 -1       804 5.43297E-06-9.60231E-08-1.65436E-24
 -1       805 1.73205E-06-4.19925E-08 0.00000E+00
 -1       806 2.01963E-05-1.03700E-07 1.65436E-24
 -1       807 2.00442E-05 8.15031E-08 0.00000E+00
 -1       808 1.98984E-05 2.48121E-07 0.00000E+00
 -1       809 1.97577E-05 4.00284E-07 0.00000E+00
 -1       810 1.96208E-05 5.42103E-07 3.30872E-24
 -1       811 1.94862E-05 6.77663E-07-8.27181E-25
 -1       812 1.93524E-05 8.11040E-07 1.65436E-24
 -1       813 1.92179E-05 9.46309E-07 8.27181E-25
 -1       814 1.90811E-05 1.08755E-06-1.65436E-24
 -1       815 1.89406E-05 1.23882E-06-8.27181E-25
 -1       816 1.87948E-05 1.40421E-06 1.65436E-24
 -1       817 1.86422E-05 1.58778E-06 8.27181E-25
 -1       818 1.84813E-05 1.79362E-06 8.27181E-25
 -1       819 1.83108E-05 2.02579E-06 4.13590E-25
 -1       820 1.81293E-05 2.28838E-06 8.27181E-25
 -1       821 2.11938E-05 2.04013E-06-8.27181E-25
 -1       822 2.11297E-05 2.50760E-06-8.27181E-25
 -1       823 2.10656E-05 3.05345E-06 0.00000E+00
 -1       824 2.10009E-05 3.66841E-06-8.27181E-25
 -1       825 2.09360E-05 4.34318E-06 0.00000E+00
 -1       826 2.08711E-05 5.06842E-06 8.27181E-25
 -1       827 2.08061E-05 5.83477E-06-1.65436E-24
 -1       828 2.07410E-05 6.63286E-06 0.00000E+00
 -1       829 2.06759E-05 7.45327E-06 1.65436E-24
 -1       830 2.06109E-05 8.28661E-06 0.00000E+00
 -1       831 2.05458E-05 9.12346E-06-1.65436E-24
 -1       832 2.04809E-05 9.95440E-06 0.00000E+00
 -1       833 2.04160E-05 1.07700E-05-1.65436E-24
 -1       834 2.03516E-05 1.15609E-05 8.27181E-25
 -1       835 2.02872E-05 1.23177E-05 0.00000E+00
 -1       836 2.08200E-05 1.81163E-06 0.00000E+00
 -1       837 2.02526E-05 1.96839E-06 1.65436E-24
 -1       838 1.96163E-05 2.12484E-06 0.00000E+00
 -1       839 1.89754E-05 2.28090E-06 0.00000E+00
 -1       840 1.83941E-05 2.43722E-06-1.65436E-24
 -1       841 2.11131E-05 2.04014E-06-4.13590E-25
 -1       842 2.09349E-05 2.51630E-06 0.00000E+00
 -1       843 2.07248E-05 3.07769E-06 0.00000E+00
 -1       844 2.04868E-05 3.71283E-06 2.58494E-26
 -1       845 2.02252E-05 4.41050E-06 0.00000E+00
 -1       846 1.99444E-05 5.15934E-06-6.46235E-27
 -1       847 1.96486E-05 5.94810E-06 1.29247E-26
 -1       848 1.93421E-05 6.76549E-06 0.00000E+00
 -1       849 1.90289E-05 7.60025E-06 0.00000E+00
 -1       850 1.87135E-05 8.44111E-06 3.23117E-27
 -1       851 1.84000E-05 9.27685E-06-2.58494E-26
 -1       852 1.80926E-05 1.00962E-05 0.00000E+00
 -1       853 1.77957E-05 1.08878E-05-1.03398E-25
 -1       854 1.75130E-05 1.16404E-05-1.03398E-25
 -1       855 1.72493E-05 1.23429E-05 0.00000E+00
 -1       856 2.01528E-05 1.37982E-05-8.27181E-25
 -1       857 2.00761E-05 1.47066E-05 8.27181E-25
 -1       858 1.99994E-05 1.57378E-05 0.00000E+00
 -1       859 1.99220E-05 1.68734E-05-8.27181E-25
 -1       860 1.98444E-05 1.80946E-05 0.00000E+00
 -1       861 1.97666E-05 1.93828E-05 0.00000E+00
 -1       862 1.96887E-05 2.07193E-05 0.00000E+00
 -1       863 1.96108E-05 2.20854E-05 0.00000E+00
 -1       864 1.95329E-05 2.34623E-05-1.65436E-24
 -1       865 1.94550E-05 2.48313E-05 8.27181E-25
 -1       866 1.93771E-05 2.61736E-05-1.65436E-24
 -1       867 1.92994E-05 2.74706E-05 0.00000E+00
 -1       868 1.92217E-05 2.87034E-05 0.00000E+00
 -1       869 1.91445E-05 2.98535E-05 0.00000E+00
 -1       870 1.90674E-05 3.09021E-05 0.00000E+00
 -1       871 1.96260E-05 1.30242E-05 0.00000E+00
 -1       872 1.90766E-05 1.30167E-05-4.13590E-25
 -1       873 1.85591E-05 1.30090E-05 0.00000E+00
 -1       874 1.80543E-05 1.30011E-05 2.06795E-25
 -1       875 1.75432E-05 1.29929E-05 0.00000E+00
 -1       876 2.00466E-05 1.38246E-05 0.00000E+00
 -1       877 1.98265E-05 1.47401E-05 0.00000E+00
 -1       878 1.95668E-05 1.57603E-05-3.30872E-24
 -1       879 1.92743E-05 1.68699E-05-1.65436E-24
 -1       880 1.89540E-05 1.80535E-05-3.30872E-24
 -1       881 1.86119E-05 1.92955E-05 1.65436E-24
 -1       882 1.82535E-05 2.05808E-05 0.00000E+00
 -1       883 1.78845E-05 2.18941E-05 0.00000E+00
 -1       884 1.75108E-05 2.32202E-05-3.30872E-24
 -1       885 1.71379E-05 2.45439E-05 1.65436E-24
 -1       886 1.67716E-05 2.58500E-05 0.00000E+00
 -1       887 1.64176E-05 2.71233E-05 0.00000E+00
 -1       888 1.60815E-05 2.83485E-05 0.00000E+00
 -1       889 1.57685E-05 2.95101E-05 0.00000E+00
 -1       890 1.54852E-05 3.05930E-05 0.00000E+00
 -1       891 1.82518E-05 3.17893E-05 1.65436E-24
 -1       892 1.76594E-05 3.17471E-05 0.00000E+00
 -1       893 1.71384E-05 3.17050E-05-8.27181E-25
 -1       894 1.66116E-05 3.16630E-05 0.00000E+00
 -1       895 1.60018E-05 3.16209E-05-8.27181E-25
 -1       896 1.12660E-07 9.68841E-07-3.30872E-24
 -1       897 2.25333E-07 2.35720E-06 0.00000E+00
 -1       898 3.37547E-07 4.04061E-06 3.30872E-24
 -1       899 4.49561E-07 5.89605E-06-1.65436E-24
 -1       900 5.61402E-07 7.84753E-06-3.30872E-24
 -1       901 6.73222E-07 9.81958E-06 1.65436E-24
 -1       902 7.85134E-07 1.17423E-05 3.30872E-24
 -1       903 8.97256E-07 1.35456E-05-1.65436E-24
 -1       904 1.00973E-06 1.51267E-05 0.00000E+00
 -1       905 1.12262E-06 1.63816E-05-1.65436E-24
 -1       906 1.23596E-06 1.71174E-05-3.30872E-24
 -1       907 1.34942E-06 1.71383E-05 1.65436E-24
 -1       908 1.46221E-06 1.60533E-05 3.30872E-24
 -1       909 1.57161E-06 1.34657E-05 0.00000E+00
 -1       910 1.67265E-06 8.56966E-06 1.65436E-24
 -1       911 1.73209E-06-7.34005E-06 4.13590E-25
 -1       912 1.73410E-06-1.18188E-05 0.00000E+00
 -1       913 1.74474E-06-1.34535E-05 0.00000E+00
 -1       914 1.75642E-06-1.28073E-05 0.00000E+00
 -1       915 1.76565E-06-1.03823E-05 0.00000E+00
 -1       916 1.77109E-06-6.67985E-06 0.00000E+00
 -1       917 1.77341E-06-2.16711E-06 0.00000E+00
 -1       918 1.77418E-06 2.68940E-06 0.00000E+00
 -1       919 1.77546E-06 7.43218E-06 4.13590E-25
 -1       920 1.77918E-06 1.16037E-05 2.06795E-25
 -1       921 1.78644E-06 1.47313E-05 0.00000E+00
 -1       922 1.79712E-06 1.63415E-05-1.03398E-25
 -1       923 1.80873E-06 1.59204E-05-2.06795E-25
 -1       924 1.81589E-06 1.29530E-05 0.00000E+00
 -1       925 1.80923E-06 6.85684E-06 0.00000E+00
 -1       926 1.62662E-06-1.45718E-05 0.00000E+00
 -1       927 1.48035E-06-2.60629E-05 8.27181E-25
 -1       928 1.34475E-06-3.65380E-05 1.65436E-24
 -1       929 1.22617E-06-4.51135E-05 0.00000E+00
 -1       930 1.12463E-06-5.12348E-05 0.00000E+00
 -1       931 1.03634E-06-5.43564E-05 0.00000E+00
 -1       932 9.52700E-07-5.44519E-05-3.30872E-24
 -1       933 8.64844E-07-5.15060E-05-1.65436E-24
 -1       934 7.66990E-07-4.60296E-05 3.30872E-24
 -1       935 6.56507E-07-3.85429E-05-1.65436E-24
 -1       936 5.37338E-07-2.99144E-05-3.30872E-24
 -1       937 4.15523E-07-2.10172E-05-1.65436E-24
 -1       938 2.98894E-07-1.27703E-05 0.00000E+00
 -1       939 1.91640E-07-6.09069E-06-1.65436E-24
 -1       940 9.65991E-08-1.62204E-06 6.61744E-24
 -1       941 1.06296E-06 1.81800E-07 0.00000E+00
 -1       942 2.18474E-06 3.39383E-07 1.32349E-23
 -1       943 3.30279E-06 4.84779E-07 0.00000E+00
 -1       944 4.43205E-06 6.29380E-07-1.32349E-23
 -1       945 5.56163E-06 7.73579E-07 0.00000E+00
 -1       946 6.69344E-06 9.17754E-07 0.00000E+00
 -1       947 7.82552E-06 1.06192E-06 0.00000E+00
 -1       948 8.95797E-06 1.20608E-06 0.00000E+00
 -1       949 1.00905E-05 1.35024E-06 0.00000E+00
 -1       950 1.12227E-05 1.49441E-06 0.00000E+00
 -1       951 1.23547E-05 1.63863E-06 0.00000E+00
 -1       952 1.34849E-05 1.78295E-06 0.00000E+00
 -1       953 1.46149E-05 1.92898E-06-2.64698E-23
 -1       954 1.57359E-05 2.07839E-06 0.00000E+00
 -1       955 1.68599E-05 2.28005E-06 0.00000E+00
 -1       956 1.78797E-05 2.99787E-06 4.13590E-25
 -1       957 1.78219E-05 3.47339E-06 4.13590E-25
 -1       958 1.77638E-05 4.00572E-06 4.13590E-25
 -1       959 1.77056E-05 4.58807E-06-4.13590E-25
 -1       960 1.76473E-05 5.21363E-06 1.65436E-24
 -1       961 1.75890E-05 5.87553E-06 0.00000E+00
 -1       962 1.75307E-05 6.56692E-06-8.27181E-25
 -1       963 1.74723E-05 7.28092E-06 0.00000E+00
 -1       964 1.74139E-05 8.01067E-06 0.00000E+00
 -1       965 1.73556E-05 8.74929E-06 8.27181E-25
 -1       966 1.72972E-05 9.48991E-06 0.00000E+00
 -1       967 1.72389E-05 1.02257E-05 0.00000E+00
 -1       968 1.71806E-05 1.09497E-05-1.65436E-24
 -1       969 1.71223E-05 1.16551E-05-8.27181E-25
 -1       970 1.70643E-05 1.23351E-05-1.65436E-24
 -1       971 1.68993E-05 1.36789E-05 1.65436E-24
 -1       972 1.67885E-05 1.45252E-05-1.65436E-24
 -1       973 1.66776E-05 1.55035E-05 0.00000E+00
 -1       974 1.65662E-05 1.65950E-05 0.00000E+00
 -1       975 1.64546E-05 1.77806E-05-3.30872E-24
 -1       976 1.63429E-05 1.90415E-05 0.00000E+00
 -1       977 1.62310E-05 2.03584E-05 0.00000E+00
 -1       978 1.61191E-05 2.17124E-05-1.65436E-24
 -1       979 1.60072E-05 2.30843E-05 3.30872E-24
 -1       980 1.58952E-05 2.44549E-05 0.00000E+00
 -1       981 1.57834E-05 2.58050E-05 0.00000E+00
 -1       982 1.56717E-05 2.71154E-05 0.00000E+00
 -1       983 1.55602E-05 2.83672E-05 0.00000E+00
 -1       984 1.54494E-05 2.95412E-05 0.00000E+00
 -1       985 1.53386E-05 3.06183E-05-1.65436E-24
 -3
    1PSTEP                        44          22           1          
  100CL  122 4.29423E-01         841                     0   22           1
 -4  STRESS      6    1
 -5  SXX         1    4    1    1
 -5  SYY         1    4    2    2
 -5  SZZ         1    4    3    3
 -5  SXY         1    4    1    2
 -5  SYZ         1    4    2    3
 -5  SZX         1    4    3    1
 -1         1-1.68287E+06-5.56048E+05-3.43844E+05-5.24597E+05-1.09139E-10-8.77966E-10
 -1         2-8.75966E+05-2.20369E+04 1.42832E+04-3.40861E+04-2.67016E-09-7.35099E-10
 -1         3-5.96743E+05-1.86366E+05-2.78783E+04-1.92468E+04 2.61934E-09 5.34328E-10
 -1         4-4.43844E+05-3.96791E+04 3.75714E+03-3.75518E+04 3.33773E-09 9.93396E-10
 -1         5-3.30504E+05 3.13626E+04-1.17289E+05-6.74388E+03 9.44601E-09 2.39248E-09
 -1         8-7.34912E+05-2.89882E+05-8.12534E+04-3.29412E+05-1.09139E-11 1.52431E-09
 -1         9-8.52503E+05-2.10316E+05-8.47561E+04-2.23622E+05 3.78350E-10 3.22567E-10
 -1        10-1.73441E+05-1.52089E+05 4.90306E+04-3.08269E+04-6.52449E-09-3.72953E-09
 -1        11-1.42839E+05-1.26170E+04 9.51503E+03-5.76614E+04-2.25086E-08-1.30710E-09
 -1        12-1.41821E+05 6.83084E+04-7.26574E+04-2.42679E+04 1.77869E-09 1.36936E-09
 -1        15 2.99707E+04 3.86536E+04 1.16414E+04-9.12397E+03 2.00544E-10 4.68935E-09
 -1        16-6.85361E+05-1.21949E+05 1.43841E+04-2.61684E+05 1.08260E-09 3.37225E-09
 -1        17-3.60786E+05-2.27950E+05-3.90064E+04-1.86891E+05-3.04802E-09 5.56611E-10
 -1        18-8.27948E+03-1.52308E+04-1.79264E+04-5.79265E+04 4.63009E-09-7.64582E-10
 -1        19 2.71543E+04 6.57619E+04-1.60940E+04-7.27264E+03-7.81862E-10 1.30967E-10
 -1        20 5.70973E+04-4.33116E+04-7.43420E+03 3.10000E+04 1.75419E-09-2.98314E-10
 -1        21 1.25589E+03-8.57083E+04 2.38999E+04 2.32224E+01 8.82039E-09-2.28896E-10
 -1        22 3.66666E+04 9.92601E+04 6.66910E+03-7.86731E+02-4.32919E-10-1.83172E-09
 -1        23-6.62327E+04 7.14501E+04 1.26033E+04-9.60600E+03-5.65827E-09-3.81715E-09
 -1        24-1.80322E+05-2.44354E+04 1.48000E+05-2.80996E+05-8.68204E-09 1.62860E-09
 -1        25 3.29925E+05 1.10931E+05 1.01457E+05-1.69388E+05 7.82317E-10 1.15657E-09
 -1        26 8.05974E+02 9.06476E+04 4.52535E+03-1.54097E+04-4.22726E-10-4.14123E-10
 -1        27-1.94383E+04-3.61208E+04-1.55749E+04 4.38034E+04-2.04636E-10-1.64770E-09
 -1        28-6.88640E+03-6.82117E+04-3.75860E+02 3.28824E+04-1.79591E-09-2.59099E-09
 -1        29 1.59422E+05 1.34134E+05 5.65330E+02 4.02509E+03-9.63825E-11 3.83125E-10
 -1        30 5.28563E+04 2.14756E+04 6.23774E+03-1.16899E+04 2.10942E-09-1.06616E-08
 -1        31-6.20010E+04 2.51213E+04 1.15824E+04-2.83202E+04 4.19726E-09-1.60144E-08
 -1        32 5.90582E+05 2.97630E+05 3.63875E+05-2.79847E+05 6.04869E-09-1.35333E-09
 -1        33 7.91896E+05 3.14570E+05 2.42420E+05-2.41044E+04-1.59298E-08 9.18590E-11
 -1        34-1.14626E+05-1.40211E+04-2.22236E+03 2.57932E+04-1.44209E-09-1.99407E-10
 -1        35-1.95673E+04-2.28016E+04-4.11006E+02 4.93854E+04 3.30457E-09-1.58677E-09
 -1        36-1.96265E+06 5.59959E+04-1.29359E+05 4.12127E-08-1.14178E-09 2.35013E-09
 -1        37-2.01866E+06-6.48168E+04-9.15575E+04 3.68656E-08 1.53689E-10 1.33514E-09
 -1        38-1.98426E+06 8.77692E+03-3.34701E+04 2.71377E-07-5.29437E-11 1.54250E-09
 -1        39-1.99341E+06-1.01568E+04-2.10513E+04-2.61617E-07-1.10450E-09 1.51317E-09
 -1        40-1.98782E+06 1.37301E+03-8.60152E+03-1.26168E-07-4.43665E-09 1.81353E-09
 -1        41-1.98925E+06-1.60881E+03-5.13883E+03 5.44491E-08-6.56479E-10-2.45836E-09
 -1        42-1.98840E+06 2.34872E+02-2.51708E+03-8.09293E-08-1.05920E-09 1.88481E-09
 -1        43-1.98862E+06-4.15322E+02-2.00547E+03 1.87559E-07-1.18988E-09-6.63903E-09
 -1        44-1.98844E+06 1.80279E+02-2.02906E+03-4.23959E-08 6.01672E-10-4.44970E-09
 -1        45-1.98899E+06-1.13941E+03-3.72547E+03-1.41971E-07 1.64489E-09-1.72895E-09
 -1        46-1.98804E+06 9.58477E+02-6.05776E+03-2.11257E-07-2.55125E-09 3.28600E-09
 -1        47-1.99188E+06-7.07454E+03-1.46929E+04-1.13468E-07-1.15459E-09 1.10958E-10
 -1        48-1.98556E+06 6.11119E+03-2.33215E+04 2.60898E-08-9.10127E-10-6.17547E-10
 -1        49-2.00946E+06-4.51292E+04-6.37558E+04-1.53809E-07-1.11617E-09 5.35965E-09
 -1        50-1.97052E+06 3.89856E+04-9.00846E+04 1.51794E-08-3.51878E-09-1.70985E-10
 -1        51 1.98567E+04-2.37627E+05 3.15857E+04-6.22169E+05 7.27596E-11-4.95493E-09
 -1        52 8.65803E+03-2.34300E+05 1.90717E+04-6.84829E+05-1.60071E-10-1.95359E-09
 -1        53 5.34378E+03-2.39813E+05 1.53053E+04-6.20565E+05 1.81899E-11 1.91358E-09
 -1        54 1.25561E+04-2.36955E+05 2.32056E+04-6.86561E+05-1.74623E-10 3.36513E-09
 -1        55 2.98815E+04-2.44157E+05 4.20605E+04-6.20299E+05-9.45874E-11 2.02817E-09
 -1        56-2.85691E+06-3.22024E+05-2.36903E+05-1.10552E+06 6.91216E-11 9.89530E-10
 -1        57-2.96716E+06-5.16099E+05-1.58948E+05-1.07898E+06 3.26509E-10-5.69344E-10
 -1        58-2.90275E+06-3.96993E+05-5.57854E+04-1.09279E+06-6.74845E-10-1.18234E-09
 -1        59-2.91438E+06-4.27643E+05-3.30737E+04-1.09411E+06 4.39968E-10 3.32739E-09
 -1        60-2.90908E+06-4.07513E+05-1.30389E+04-1.09142E+06-1.82808E-10-1.29739E-09
 -1        61-2.90743E+06-4.14936E+05-7.37838E+03-1.09529E+06-3.19574E-10-1.82945E-09
 -1        62-2.90959E+06-4.09328E+05-3.59738E+03-1.09172E+06-2.00464E-09 2.55500E-09
 -1        63-2.90746E+06-4.12511E+05-3.01088E+03-1.09436E+06-2.55204E-09 5.01953E-09
 -1        64-2.90903E+06-4.09901E+05-3.50478E+03-1.09236E+06 1.34048E-09-3.81647E-10
 -1        65-2.90956E+06-4.12671E+05-7.10294E+03-1.09279E+06 1.53014E-09-1.90755E-09
 -1        66-2.90750E+06-4.09207E+05-1.25190E+04-1.09327E+06 1.73259E-10 2.16460E-09
 -1        67-2.91809E+06-4.22982E+05-3.17251E+04-1.08951E+06-1.95325E-09 6.82303E-09
 -1        68-2.90060E+06-3.99949E+05-5.35084E+04-1.09553E+06 1.20963E-10-5.67525E-10
 -1        69-2.97006E+06-5.06476E+05-1.52445E+05-1.07347E+06 1.05956E-09-1.36242E-09
 -1        70-2.85613E+06-3.28558E+05-2.27223E+05-1.10832E+06-1.05865E-09 8.14907E-10
 -1        71-1.23397E+06 1.02638E+04-2.37321E+04-1.55597E-07-1.63476E-09-4.23825E-10
 -1        72-1.24416E+06-1.18821E+04-1.67944E+04-1.23034E-07-5.00643E-10 9.28594E-10
 -1        73-1.23794E+06 1.60913E+03-6.14957E+03-1.63982E-07-1.51573E-09-1.61185E-09
 -1        74-1.23954E+06-1.86351E+03-3.88130E+03 6.90370E-08 8.07045E-10-1.98378E-09
 -1        75-1.23859E+06 2.53064E+02-1.61592E+03-1.59816E-07 1.80009E-10-1.61833E-09
 -1        76-1.23878E+06-3.05357E+02-1.02306E+03-1.43130E-07-1.18850E-09-1.32746E-09
 -1        77-1.23869E+06 5.21160E+01-6.11948E+02 2.26403E-07-2.73072E-09 3.15283E-09
 -1        78-1.23870E+06-1.44356E+02-6.98090E+02 6.51498E-08-1.05982E-09 4.37004E-09
 -1        79-1.23867E+06 9.21802E+01-9.70578E+02-6.06865E-08-6.96345E-10 2.52891E-09
 -1        80-1.23897E+06-6.49852E+02-2.06137E+03-2.77032E-07-1.11960E-10-7.55676E-10
 -1        81-1.23843E+06 5.57284E+02-3.48470E+03 8.76180E-08 1.49105E-10 9.27685E-10
 -1        82-1.24066E+06-4.12548E+03-8.55077E+03 2.05010E-07-7.72836E-10 1.05672E-09
 -1        83-1.23698E+06 3.56533E+03-1.36033E+04 4.06848E-08-2.29039E-09-1.10322E-09
 -1        84-1.25091E+06-2.63299E+04-3.72041E+04 8.43019E-08-1.29883E-09 1.56660E-09
 -1        85-1.22820E+06 2.27450E+04-5.25788E+04 1.34432E-07-1.95674E-09 6.33008E-10
 -1        86-4.17077E+04 8.39484E+04 9.81035E+04 1.43306E+03-7.63976E-11-3.72287E-09
 -1        87 5.26041E+04 1.28913E+05 7.72138E+04-5.99855E+03-4.48381E-10-2.54008E-09
 -1        88-1.08455E+04 9.84483E+04 4.09547E+04 1.10266E+03-9.81345E-10-1.16839E-09
 -1        89 4.02047E+04 1.22859E+05 6.10235E+04-5.76276E+03-4.72937E-11-3.20447E-09
 -1        90-2.93144E+04 8.99888E+04 7.04219E+04 1.19732E+03-1.08048E-09-3.26034E-09
 -1        91-7.93440E+05-1.61216E+05-1.35354E+04-3.31856E+05 2.03883E-08 4.03816E-10
 -1        92-6.39783E+05 1.36580E+04 4.07478E+04-1.26868E+05 4.17862E-08-5.37148E-09
 -1        93-6.75162E+05-1.33322E+05 7.64229E+02-3.13956E+05-9.14974E-09-2.72689E-09
 -1        94-5.20889E+05-6.85552E+03 5.35157E+04-1.19316E+05-3.12557E-08 3.86990E-09
 -1        95-9.09916E+05-1.43243E+05-4.83374E+04-3.37212E+05-1.46465E-08-8.14680E-10
 -1        96-3.92835E+05-7.86825E+04 6.30403E+04-1.96349E+05 4.53169E-08 2.39123E-09
 -1        97-8.01954E+05-6.27550E+04-1.35440E+04-2.36049E+05 1.20258E-09 7.80165E-09
 -1        98-5.11228E+05-1.57460E+05 2.40679E+04-3.03857E+05-2.06345E-08 1.56232E-08
 -1        99-7.95498E+05-6.03686E+04-1.22139E+04-2.33003E+05 2.72789E-08 6.35555E-09
 -1       100-3.96436E+05-8.24688E+04 6.07227E+04-2.00753E+05 2.45648E-08 1.04187E-08
 -1       101-9.12897E+05-1.41722E+05-5.05092E+04-3.35962E+05 4.46516E-09 3.77941E-09
 -1       102-5.14131E+05-1.00285E+04 5.01460E+04-1.18931E+05 1.79574E-09 5.46675E-09
 -1       103-6.78790E+05-1.31827E+05-8.13366E+03-3.15459E+05-2.28866E-08 2.25532E-09
 -1       104-6.52177E+05-2.93635E+03 1.69607E+04-1.23999E+05 4.80190E-09-5.07282E-09
 -1       105-7.77493E+05-1.46060E+05-4.53189E+04-3.33282E+05 1.11177E-08 6.99401E-09
 -1       106-9.74135E+05 1.28453E+04-2.97008E+04-1.60925E-07 2.08696E-09 2.94676E-10
 -1       107-9.86941E+05-1.48704E+04-2.10174E+04 4.62394E-08-2.46453E-10-1.20713E-09
 -1       108-9.79097E+05 2.01370E+03-7.69188E+03-8.13349E-09-6.98529E-10 6.17092E-10
 -1       109-9.81152E+05-2.33118E+03-4.84585E+03 7.91271E-08-1.71010E-09-5.73016E-09
 -1       110-9.79914E+05 3.15827E+02-1.99863E+03 9.38773E-08-1.06008E-10-3.01725E-09
 -1       111-9.80201E+05-3.75346E+02-1.22857E+03 1.86452E-07 8.95768E-10-3.92447E-10
 -1       112-9.80046E+05 5.93015E+01-6.68247E+02 7.55463E-08-2.87369E-10-5.67482E-10
 -1       113-9.80078E+05-1.36057E+02-6.58280E+02 8.25038E-08 1.20192E-09 4.68454E-10
 -1       114-9.80036E+05 7.66988E+01-8.24039E+02 7.53921E-08-8.25949E-10 7.24242E-10
 -1       115-9.80281E+05-5.24930E+02-1.67959E+03 9.94004E-08-9.00924E-10-2.36287E-09
 -1       116-9.79844E+05 4.47922E+02-2.81038E+03 4.89775E-08-3.26335E-10-3.35217E-09
 -1       117-9.81639E+05-3.31338E+03-6.87386E+03-1.11018E-07-8.23065E-10-1.20735E-10
 -1       118-9.78681E+05 2.86311E+03-1.09291E+04-2.62587E-07-9.21069E-10 2.34695E-09
 -1       119-9.89871E+05-2.11438E+04-2.98806E+04 1.33746E-07-3.95270E-10 1.08412E-09
 -1       120-9.71626E+05 1.82649E+04-4.22275E+04 1.74069E-07 7.86850E-10 9.47693E-10
 -1       121-8.89420E+02-6.01178E+05 3.88012E+03 1.17010E+03-5.18412E-10-1.94177E-09
 -1       122 1.12487E+03-5.99679E+05 2.19706E+03 4.01583E+03-1.27815E-09-4.04293E-09
 -1       123-5.77326E+01-6.00528E+05 3.37170E+02 1.33863E+03-1.34992E-09 1.08685E-09
 -1       124-7.10627E+02-6.00779E+05-1.13389E+03 3.66596E+03-2.71615E-09 3.13685E-09
 -1       125 5.30770E+02-6.00063E+05-2.46713E+03 1.51967E+03-2.31216E-09-1.94677E-09
 -1       126-3.20901E+05-6.84849E+04 1.59691E+04-1.21846E+05 1.54437E-08 2.21917E-10
 -1       127-2.12755E+05 1.04669E+04 3.52074E+04-5.82269E+04 3.07702E-08 2.05432E-09
 -1       128-2.65487E+05-5.42377E+04 4.12571E+03-1.18984E+05 8.74297E-09-2.68619E-09
 -1       129-2.80616E+05-6.04237E+03 6.67694E+03-6.35098E+04 3.04540E-08 5.00904E-10
 -1       130-2.54051E+05-5.12376E+04 1.20390E+03-1.17380E+05 4.49621E-08-1.85395E-09
 -1       131-2.47453E+05-7.35087E+03 1.01321E+04-5.76309E+04-3.60920E-08-9.06365E-09
 -1       132-2.98064E+05-5.33683E+04-8.87127E+03-1.24377E+05-8.88485E-09 3.17823E-09
 -1       133-1.72784E+05-1.30373E+04 2.28862E+04-5.55565E+04 1.71632E-08 3.08773E-10
 -1       134-3.27534E+05-4.64400E+04-1.35318E+04-1.18544E+05 4.76848E-09-5.79178E-10
 -1       135-1.67429E+05-3.61863E+04 1.91145E+04-8.41032E+04 1.68700E-08-3.26116E-09
 -1       136-3.03689E+05-3.00252E+04-6.30294E+03-9.60973E+04-7.44853E-09-1.34906E-09
 -1       137-2.17089E+05-6.08528E+04 3.86349E+03-1.20941E+05-3.19052E-08-4.87159E-09
 -1       138-2.79162E+05-2.08005E+04-1.51561E+03-8.26475E+04 3.62311E-08 6.72389E-09
 -1       139-2.18544E+05-6.17441E+04-2.34892E+01-1.21495E+05-2.91150E-08-2.68937E-08
 -1       140-3.02257E+05-2.91169E+04-1.46554E+04-9.55601E+04-2.18776E-08-3.24508E-09
 -1       141-6.29493E+05 4.93910E+03-1.14255E+04 6.10620E-08-1.32554E-09-6.51198E-10
 -1       142-6.34395E+05-5.71818E+03-8.09078E+03-1.97362E-08-5.14518E-11 1.83536E-09
 -1       143-6.31401E+05 7.74647E+02-2.97513E+03-1.52588E-07-1.52448E-09-3.04681E-11
 -1       144-6.32171E+05-8.99182E+02-1.89904E+03-3.99083E-08-1.28529E-09 6.08793E-10
 -1       145-6.31713E+05 1.23892E+02-8.36347E+02-1.51117E-07-1.20076E-09-1.56732E-09
 -1       146-6.31817E+05-1.63108E+02-6.16958E+02-1.48758E-07-5.44561E-10 2.14689E-09
 -1       147-6.31754E+05 3.91287E+01-5.27545E+02-1.60138E-08 5.88198E-10 9.42315E-10
 -1       148-6.31832E+05-1.75270E+02-8.48584E+02 3.54162E-08-8.81252E-10 1.97974E-09
 -1       149-6.31698E+05 1.36068E+02-1.39617E+03-4.91772E-09-1.04108E-09-4.74529E-10
 -1       150-6.32265E+05-9.96630E+02-3.13128E+03-2.55902E-08-5.28229E-10-2.23662E-09
 -1       151-6.31322E+05 8.59977E+02-5.36158E+03 8.69661E-08-1.13618E-10-1.34241E-09
 -1       152-6.34885E+05-6.37205E+03-1.32029E+04 5.15960E-08-1.43968E-10-1.91380E-09
 -1       153-6.29083E+05 5.50767E+03-2.10186E+04 6.81637E-08 2.55364E-09 3.52884E-10
 -1       154-6.50720E+05-4.06746E+04-5.74833E+04-5.01500E-08 4.81372E-10 1.40790E-09
 -1       155-6.15498E+05 3.51373E+04-8.12266E+04 1.12623E-07 5.56666E-09-2.94676E-10
 -1       156-1.80341E+04-6.24336E+04 3.95262E+04 1.14645E+04 3.75803E-09 1.70530E-10
 -1       157 2.10356E+04-2.84888E+04 3.22682E+04-4.60594E+04 1.03082E-08 2.12291E-09
 -1       158-2.76784E+03-5.30794E+04 1.32096E+04 1.14827E+04 5.19549E-09 2.26237E-10
 -1       159 1.29788E+04 1.76859E+03 2.52147E+04-4.45758E+04 2.21667E-09-2.35133E-10
 -1       160-1.06152E+04-9.18267E+04 7.09938E+03 9.98586E+03-7.59019E-09-1.45951E-09
 -1       161-3.44301E+05-6.10234E+04 5.24450E+03-1.32777E+05-1.86150E-08 9.16771E-10
 -1       162-2.99616E+05-1.70134E+04 1.54485E+04-9.27274E+04-2.02594E-08-4.17367E-09
 -1       163-3.12419E+05-5.66242E+04 1.87307E+03-1.33209E+05 1.80915E-08-4.54941E-09
 -1       164-3.32612E+05-2.19448E+04 3.09619E+03-9.25122E+04-9.01496E-09 1.93984E-09
 -1       165-3.11764E+05-5.57260E+04-1.74036E+02-1.33369E+05-4.33850E-08-6.07211E-09
 -1       166-3.04104E+05-2.46331E+04 6.94703E+03-9.12500E+04-2.16629E-08 3.41515E-09
 -1       167-3.40476E+05-5.43034E+04-6.00063E+03-1.34097E+05 8.03800E-09-1.42393E-09
 -1       168-2.65894E+05-3.56231E+04 1.17308E+04-1.00555E+05 3.27043E-08-6.19195E-10
 -1       169-3.49507E+05-4.51174E+04-6.63795E+03-1.23704E+05-4.06441E-08 3.60633E-09
 -1       170-2.74061E+05-5.59235E+04 4.96905E+03-1.26039E+05-9.74392E-08-4.77360E-09
 -1       171-3.32767E+05-3.36319E+04-3.73660E+03-1.08986E+05 4.66437E-08 1.92433E-08
 -1       172-2.92857E+05-6.98296E+04-6.57598E+03-1.40531E+05 2.09727E-08 5.05679E-09
 -1       173-3.31179E+05-3.08303E+04-1.36672E+04-1.09565E+05-3.53018E-08 5.00222E-10
 -1       174-2.88052E+05-8.00236E+04-3.05768E+04-1.21213E+05 3.47512E-08 4.53019E-09
 -1       175-3.37102E+05-2.38396E+04-6.11017E+04-1.27941E+05 1.85428E-08-1.24055E-09
 -1       191 9.20043E+02 3.00417E+05 1.45192E+03-1.25986E+04-4.33829E-10 3.74075E-09
 -1       192 3.27225E+02 3.00622E+05 8.09807E+02-1.36292E+04-6.09759E-10 1.46974E-09
 -1       193 1.23076E+02 3.00490E+05 5.54426E+02-1.24565E+04-1.08219E-09 9.17498E-09
 -1       194 2.82744E+02 3.00595E+05 7.19159E+02-1.38860E+04-1.27352E-09 1.80626E-08
 -1       195 7.74219E+02 3.00417E+05 1.22706E+03-1.23412E+04-1.73532E-09 1.15569E-08
 -1       251-9.96929E+05-1.44931E+03-4.73400E+04-4.68724E+04-1.18143E-09-6.11726E-09
 -1       252-7.67667E+05-3.85602E+03 9.66446E+03 1.28609E+05 9.31408E-10 1.06397E-08
 -1       253-9.13175E+05 7.35350E+03-9.84152E+03-6.14442E+04 5.51381E-09-1.39662E-08
 -1       254-6.48645E+05 5.50662E+03 4.47193E+04 8.11284E+04 6.44525E-09 3.77418E-09
 -1       255-1.11216E+06-1.46671E+04-4.70586E+04 6.33397E+02 2.46428E-09-3.54248E-10
 -1       256-6.12980E+05 1.02619E+04 5.50593E+04-5.07581E+04 5.65251E-10-7.10725E-09
 -1       257-9.47677E+05 1.44840E+03-1.14829E+04 7.02742E+04-4.17003E-09 1.39341E-08
 -1       258-7.78680E+05-1.64741E+02 2.10442E+04-1.19616E+05 2.58336E-10-2.27744E-08
 -1       259-9.51662E+05 1.03356E+03-1.22986E+04 6.96613E+04-1.40271E-08 1.17609E-08
 -1       260-6.09737E+05 1.04866E+04 5.57963E+04-4.86869E+04-3.65571E-09-1.08956E-08
 -1       261-1.11132E+06-1.45738E+04-4.67590E+04-8.25085E+02 1.04619E-08 2.61235E-09
 -1       262-6.52400E+05 5.34830E+03 4.42021E+04 8.29892E+04 1.22635E-08 4.13763E-09
 -1       263-9.10380E+05 7.53813E+03-8.77592E+03-6.18456E+04-9.60063E-09-8.17636E-09
 -1       264-7.65740E+05-2.81491E+03 1.12561E+04 1.28092E+05-4.49839E-08 9.69817E-09
 -1       265-1.00160E+06-2.72550E+03-4.64655E+04-4.59537E+04-1.97992E-08-7.36236E-09
 -1       266-2.03237E+04-9.53544E+04 4.67810E+04-4.07656E+03 6.36646E-11 1.72042E-09
 -1       267 2.28333E+04-7.34124E+04 3.23075E+04 1.69563E+04 8.50378E-11-8.73172E-10
 -1       268-2.51441E+03-8.80835E+04 9.68111E+03-3.87517E+03 7.27596E-12-2.27070E-09
 -1       269-1.46761E+02-7.74529E+04 3.02016E+03 1.56189E+04-1.06866E-11 4.29637E-10
 -1       270 2.51300E+03-9.11499E+04-7.55678E+03-2.74060E+03 1.41881E-10 4.60528E-09
 -1       271-2.35001E+06-2.98820E+05-1.83242E+05-9.09244E+05-1.18234E-09-5.35510E-09
 -1       272-2.41096E+06-4.16555E+05-1.14896E+05-9.13086E+05-7.53062E-10-4.09636E-09
 -1       273-2.38185E+06-3.38030E+05-4.32045E+04-9.04511E+05 1.21986E-10 2.95586E-09
 -1       274-2.37392E+06-3.64849E+05-2.35760E+04-9.22037E+05 1.90994E-10-3.46336E-09
 -1       275-2.38583E+06-3.41677E+05-1.00382E+04-9.03655E+05-7.73980E-10 7.20775E-10
 -1       276-2.36919E+06-3.60247E+05-5.28581E+03-9.23590E+05-7.55790E-10 2.39538E-10
 -1       277-2.38656E+06-3.41803E+05-2.71007E+03-9.03311E+05-1.99861E-10 2.12935E-10
 -1       278-2.36841E+06-3.60128E+05-2.10062E+03-9.24097E+05-8.77890E-10-3.67061E-09
 -1       279-2.38666E+06-3.41709E+05-2.49177E+03-9.03208E+05-3.17755E-11-4.55657E-10
 -1       280-2.36880E+06-3.60531E+05-4.69499E+03-9.24043E+05-1.22071E-10-3.61069E-09
 -1       281-2.38618E+06-3.41445E+05-8.82064E+03-9.03348E+05 2.26123E-10-9.40872E-10
 -1       282-2.37272E+06-3.64815E+05-2.06902E+04-9.22990E+05-4.48949E-10 9.31323E-10
 -1       283-2.38279E+06-3.38131E+05-3.78812E+04-9.03977E+05 3.78463E-10 5.25688E-10
 -1       284-2.40501E+06-4.10351E+05-1.00757E+05-9.15374E+05-1.23691E-10 2.19734E-09
 -1       285-2.35497E+06-3.03664E+05-1.60686E+05-9.08034E+05-1.19871E-09 6.25732E-10
 -1       286-1.29977E+05-1.98794E+04 4.59615E+04-5.52329E+01 9.08216E-10 2.92857E-09
 -1       287-1.09790E+05 2.30142E+04 3.25562E+04-4.28325E+02 1.79057E-10-3.15777E-09
 -1       288-1.22276E+05-3.11753E+03 1.18918E+04 1.42404E+02-1.84912E-10-2.69210E-10
 -1       289-1.18799E+05 3.60723E+03 7.50710E+03-7.92458E+02 2.18851E-10 3.40708E-09
 -1       290-1.20975E+05-4.87861E+02 3.06436E+03 3.08918E+02 2.47343E-10-3.39469E-10
 -1       291-1.20335E+05 5.73090E+02 1.85212E+03-1.04914E+03-3.07710E-09-2.42980E-09
 -1       292-1.20742E+05-8.45374E+01 9.29369E+02 3.99094E+02-1.25706E-06-1.78250E-09
 -1       293-1.20572E+05 1.61545E+02 7.87332E+02-1.13515E+03-2.49931E-06 9.94486E-10
 -1       294-1.20738E+05-7.61366E+01 8.53372E+02 3.94924E+02-1.25800E-06-2.09133E-09
 -1       295-1.20369E+05 5.00540E+02 1.63376E+03-1.03323E+03-3.37449E-09 1.05157E-09
 -1       296-1.20944E+05-4.23839E+02 2.66924E+03 2.97178E+02 2.58684E-10 8.52083E-10
 -1       297-1.19030E+05 3.13053E+03 6.52292E+03-7.63455E+02-2.77574E-10-1.39653E-09
 -1       298-1.22076E+05-2.70531E+03 1.03184E+04 1.25140E+02-4.41545E-10 7.33053E-10
 -1       299-1.11209E+05 1.99690E+04 2.82525E+04-3.89754E+02-2.08413E-10 9.33142E-10
 -1       300-1.28759E+05-1.72491E+04 3.98748E+04-7.65396E+01-2.07621E-10 8.02174E-10
 -1       301 3.16509E+04 1.97315E+03 7.11265E+04-2.11241E+04-4.54747E-10 7.37543E-10
 -1       302 1.07497E+04 1.54099E+04 4.39177E+04-2.48880E+04-7.71706E-10 2.10834E-09
 -1       303 3.01325E+03 6.71629E+03 3.56907E+04-2.11424E+04-4.50655E-10 1.66960E-09
 -1       304 1.43751E+04 1.75960E+04 5.37551E+04-2.48630E+04-8.05812E-10 9.04492E-10
 -1       305 4.33695E+04-2.01274E+02 9.49573E+04-2.11337E+04-3.85626E-10-9.41782E-10
 -1       306-1.55056E+06-2.03753E+05-1.00627E+05-6.00823E+05-1.59162E-10-1.81171E-09
 -1       307-1.57394E+06-2.78252E+05-6.30594E+04-6.14348E+05 1.74850E-10-2.70302E-09
 -1       308-1.56812E+06-2.25149E+05-2.37371E+04-5.98162E+05-2.02135E-10-1.79170E-09
 -1       309-1.55363E+06-2.49958E+05-1.29558E+04-6.19387E+05 1.54614E-10 2.08183E-09
 -1       310-1.57032E+06-2.27132E+05-5.53599E+03-5.97696E+05 2.65482E-09 2.34218E-09
 -1       311-1.55110E+06-2.47392E+05-2.94971E+03-6.20218E+05 2.05773E-11-1.72111E-09
 -1       312-1.57068E+06-2.27236E+05-1.58218E+03-5.97555E+05-2.92971E-10 1.11180E-09
 -1       313-1.55079E+06-2.47225E+05-1.36002E+03-6.20364E+05 7.90976E-11-1.71212E-10
 -1       314-1.57065E+06-2.27256E+05-1.78746E+03-5.97579E+05 2.56694E-09 1.52454E-09
 -1       315-1.55124E+06-2.47376E+05-3.51163E+03-6.20100E+05 2.66311E-09-1.71099E-09
 -1       316-1.57018E+06-2.27148E+05-6.68233E+03-5.97770E+05 4.47972E-09 7.89441E-10
 -1       317-1.55432E+06-2.50484E+05-1.56928E+04-6.19090E+05 2.02658E-09-3.95903E-09
 -1       318-1.56753E+06-2.24728E+05-2.87674E+04-5.98319E+05-2.70347E-10-3.89264E-10
 -1       319-1.57890E+06-2.84850E+05-7.64420E+04-6.13070E+05-9.08159E-10-9.06766E-10
 -1       320-1.54630E+06-1.98725E+05-1.21965E+05-6.01483E+05-4.08363E-10 3.82715E-09
 -1       321-2.95488E+05-1.28121E+04 2.31819E+04-4.91441E+03-3.89048E-09-5.80985E-09
 -1       322-2.53426E+05 1.45776E+04 2.20502E+04 1.59534E+04-1.62364E-08 2.98246E-09
 -1       323-2.80241E+05-1.81368E+03 6.15816E+03-9.94389E+03 5.62392E-09-5.21368E-09
 -1       324-2.72537E+05 2.05296E+03 4.76629E+03 2.18981E+04 2.97581E-08 6.00710E-09
 -1       325-2.76732E+05-2.16986E+01 1.70137E+03-1.08652E+04-3.88670E-09-9.86290E-09
 -1       326-2.66926E+05 4.20499E+02 2.78015E+03 1.92990E+04-7.35707E-09 2.42495E-09
 -1       327-2.85685E+05-3.14606E+02-1.45610E+03-7.34123E+03 3.57772E-09-6.78219E-09
 -1       328-2.49939E+05 7.85681E+02 5.43327E+03 9.00076E+03-1.68413E-08 1.28423E-09
 -1       329-2.93276E+05-7.34326E+02-3.41745E+03-5.64315E+02 1.20212E-09-1.15026E-09
 -1       330-2.47242E+05 8.26633E+02 5.63088E+03-4.97037E+03 1.07320E-08-1.46522E-09
 -1       331-2.88311E+05-4.12059E+02-2.81532E+03 6.62184E+03 6.23356E-09 4.14619E-09
 -1       332-2.63103E+05-7.82743E+01 1.65571E+03-1.66532E+04-2.74423E-08-5.31921E-09
 -1       333-2.77819E+05 4.86919E+02-1.98277E+03 1.11198E+04-3.02664E-08 4.52962E-09
 -1       334-2.75452E+05-2.69789E+03-3.98409E+03-2.13776E+04-2.25441E-08-7.05995E-09
 -1       335-2.76254E+05 2.43416E+03-6.71503E+03 1.13530E+04 1.47638E-08 6.11089E-09
 -1       336 8.71859E+02-6.12129E+05-4.76313E+03-9.85975E+03-3.17891E-09-4.81987E-09
 -1       337-1.59995E+03-6.13958E+05-5.09995E+03-3.73981E+04-5.78984E-09-3.56397E-09
 -1       338 5.46413E+02-6.12368E+05-6.06873E+03-9.75842E+03-3.52406E-09-7.62384E-10
 -1       339-6.05718E+03-6.16688E+05-1.32207E+04-3.74625E+04-5.71754E-09 3.04803E-09
 -1       340 4.36567E+03-6.09433E+05-2.02211E+04-9.79679E+03-2.94403E-09 2.35991E-09
 -1       341-4.05380E+05-8.51632E+04-4.54424E+03-1.59689E+05 4.22970E-08 7.05313E-09
 -1       342-2.36190E+05 1.83169E+04 3.74381E+04-4.96589E+04 2.25774E-08 1.14846E-09
 -1       343-3.08881E+05-6.72250E+04 1.47701E+03-1.47155E+05-3.37554E-08-1.76749E-08
 -1       344-3.31921E+05 1.56416E+02 7.64058E+03-6.23481E+04 6.29785E-08 8.39165E-09
 -1       345-3.11201E+05-6.58152E+04-2.25558E+03-1.48309E+05 9.04218E-08 1.04033E-09
 -1       346-2.37185E+05 2.76931E+03 2.48353E+04-4.55994E+04-2.33049E-08-9.76678E-09
 -1       347-4.01945E+05-7.11326E+04-2.13728E+04-1.62490E+05 5.31554E-09-1.35219E-09
 -1       348-1.28526E+05-1.20826E+04 4.25347E+04-5.19075E+04-5.30406E-09-3.40060E-09
 -1       349-4.18194E+05-5.22636E+04-2.14131E+04-1.40782E+05-1.34969E-08-8.40168E-09
 -1       350-1.82335E+05-5.80186E+04 2.22831E+04-1.14896E+05 4.43279E-08-1.33954E-08
 -1       351-3.49811E+05-2.39043E+04-4.66215E+03-1.00865E+05-2.16369E-09-2.02799E-08
 -1       352-2.52419E+05-8.59605E+04-1.56014E+02-1.55482E+05-6.93974E-08-4.98882E-08
 -1       353-3.49820E+05-2.29772E+04-1.14738E+04-1.01416E+05 3.52577E-08-1.50067E-10
 -1       354-1.87062E+05-6.73639E+04 1.34659E+03-1.12109E+05-3.47015E-08-7.32962E-09
 -1       355-4.13424E+05-4.38812E+04-5.84060E+04-1.42989E+05-1.42672E-08-9.27685E-11
 -1       356-2.92333E+05 2.86832E+03-8.29854E+03 1.24182E+04 3.01873E-09 7.27005E-09
 -1       357-2.90394E+05-3.24121E+03-4.79204E+03-2.39438E+04 3.84282E-08-4.84442E-09
 -1       358-2.92820E+05 6.38058E+02-2.29341E+03 1.25824E+04 1.66421E-08 8.55653E-09
 -1       359-2.77053E+05-1.54768E+02 1.67246E+03-1.92098E+04-1.07332E-08-7.78780E-09
 -1       360-3.05360E+05-4.62644E+02-3.33745E+03 7.67640E+03-1.93988E-08 6.11769E-09
 -1       361-2.57540E+05 9.69726E+02 6.41930E+03-6.08520E+03-3.25889E-08 1.68041E-09
 -1       362-3.11833E+05-8.79456E+02-4.42487E+03-5.44451E+02-1.37902E-09 2.36407E-09
 -1       363-2.60404E+05 8.04076E+02 5.70072E+03 9.94952E+03-9.15992E-09 2.71974E-09
 -1       364-3.02571E+05-2.38035E+02-3.07994E+03-8.34806E+03-1.81354E-08-5.29985E-09
 -1       365-2.81304E+05-5.29089E+02 9.02807E+01 2.16859E+04 4.59651E-08 3.11866E-09
 -1       366-2.91468E+05 8.74868E+02-3.36695E+03-1.22844E+04-4.09336E-08-7.49355E-09
 -1       367-2.89834E+05-4.02582E+03-7.62735E+03 2.43270E+04-4.58939E-08 5.89307E-09
 -1       368-2.94223E+05 3.39827E+03-1.41394E+04-1.09932E+04-1.12248E-08-6.05542E-09
 -1       369-2.81973E+05-2.38462E+04-3.17518E+04 1.68114E+04-2.97293E-08 4.36376E-09
 -1       370-2.98880E+05 2.03254E+04-5.50611E+04-4.76091E+03-2.60991E-09-3.35785E-09
 -1       371-1.05687E+04-1.03261E+05 2.84237E+03 1.08979E+04-8.34370E-09 2.33058E-09
 -1       372 9.29877E+03-4.35636E+02 1.82811E+04-4.86640E+04 5.31145E-09 1.40372E-09
 -1       373 8.65166E+02-5.73863E+04 1.67846E+02 1.26766E+04 6.13386E-09-2.43404E-10
 -1       374-4.25438E+03-4.42399E+04-3.18945E+03-5.02780E+04 1.20181E-08 3.52801E-09
 -1       375 3.67373E+03-6.04170E+04-1.16940E+04 1.25075E+04 5.14592E-09 5.10022E-09
 -1       376-2.71486E+05-2.60010E+04-9.86259E+03-8.75541E+04-5.28539E-09 9.74069E-10
 -1       377-2.21767E+05-5.65787E+04-2.16888E+03-1.13979E+05 2.01935E-08-9.05237E-09
 -1       378-2.61949E+05-2.28408E+04-1.46282E+03-8.12596E+04 1.20343E-09 1.59234E-08
 -1       379-2.14421E+05-5.23979E+04 2.93147E+03-1.09613E+05 2.25671E-08 1.52355E-08
 -1       380-2.78662E+05-3.03085E+04-4.73326E+03-9.17998E+04 3.21853E-08 3.76511E-09
 -1       381-1.85963E+05-3.44374E+04 1.25556E+04-8.37233E+04 2.82436E-08 6.17396E-09
 -1       382-2.89610E+05-4.13953E+04-8.71017E+03-1.06561E+05 3.13230E-09 4.74529E-10
 -1       383-1.96231E+05-1.84532E+04 1.36277E+04-6.46353E+04-3.28789E-08-5.17332E-09
 -1       384-2.68314E+05-4.63468E+04-5.91470E+03-1.10795E+05 6.91839E-08-3.85654E-09
 -1       385-2.45587E+05-1.39112E+04 4.13469E+03-6.42368E+04 8.93248E-08-8.80891E-09
 -1       386-2.41008E+05-4.53795E+04-2.22648E+03-1.07538E+05-4.73389E-08-5.85294E-09
 -1       387-2.67239E+05-1.60991E+04-4.12367E+03-6.62876E+04 4.47277E-08-4.75865E-09
 -1       388-2.47001E+05-4.39117E+04-1.06509E+04-1.09018E+05 3.95535E-08-2.76523E-08
 -1       389-2.36725E+05-3.05766E+04-1.71408E+04-6.00111E+04-4.09420E-08-9.72432E-09
 -1       390-2.70895E+05-3.13740E+04-4.63199E+04-1.13308E+05-1.94495E-08 8.73115E-11
 -1       406 6.34113E+02 2.97807E+05 1.41445E+03-2.50302E+04-2.22281E-09 1.40562E-09
 -1       407 4.43980E+02 2.98065E+05 1.81370E+03-2.74525E+04-2.52447E-09 2.22371E-09
 -1       408 7.64980E+02 2.97745E+05 3.06562E+03-2.49269E+04-2.72166E-09 2.62980E-09
 -1       409 3.07538E+03 2.98937E+05 6.62706E+03-2.76037E+04-3.04499E-09 1.95359E-09
 -1       410 8.85545E+03 2.96900E+05 1.33856E+04-2.48730E+04-3.00224E-09 1.73168E-09
 -1       466 6.13760E+05-2.46782E+04 5.32887E+04 1.20309E+04 7.74207E-11 7.40329E-09
 -1       467 6.57043E+05 2.81417E+04 4.11566E+04-1.92228E+04-5.38876E-10 2.45200E-09
 -1       468 6.31070E+05-3.56664E+03 1.41422E+04 3.37609E+03-9.52127E-12 2.40925E-09
 -1       469 6.37122E+05 4.08436E+03 9.19959E+03-7.57195E+03 5.01927E-11-8.27640E-10
 -1       470 6.33490E+05-5.23783E+02 3.76471E+03 3.78784E+02 1.34424E-09-1.54000E-09
 -1       471 6.34349E+05 6.37754E+02 2.41199E+03-3.54967E+03 4.87759E-10-3.02529E-09
 -1       472 6.33821E+05-1.08025E+02 1.47594E+03-6.46274E+02 2.23489E-09-1.85206E-09
 -1       473 6.34072E+05 3.43456E+02 1.73079E+03-2.24506E+03 1.25327E-09-8.20307E-10
 -1       474 6.33765E+05-2.27888E+02 2.45686E+03-9.25843E+02-5.68936E-10-1.56456E-09
 -1       475 6.34746E+05 1.64826E+03 5.24473E+03-2.09822E+03 1.03937E-10-3.52480E-09
 -1       476 6.33144E+05-1.41185E+03 8.88213E+03-7.93111E+02 2.11062E-09-2.55159E-09
 -1       477 6.39111E+05 1.04850E+04 2.17936E+04-2.93530E+03-3.64082E-10-1.98042E-09
 -1       478 6.29395E+05-9.05859E+03 3.46530E+04-8.87352E+01 6.43610E-11-3.81260E-09
 -1       479 6.65734E+05 6.70206E+04 9.48403E+04-5.83446E+03 2.43773E-09-1.91358E-09
 -1       480 6.06528E+05-5.79021E+04 1.33804E+05 2.10596E+03 4.46485E-09 1.44064E-09
 -1       481-6.77735E+03 1.32143E+05 9.52632E+03-9.11984E+03-1.58707E-10-2.87571E-09
 -1       482 7.25485E+03 1.66263E+05 1.22878E+04 3.10917E+04-4.06999E-11 2.94392E-09
 -1       483-6.35743E+02 1.47840E+05 4.18818E+03-6.94321E+03-2.76259E-11 8.68710E-11
 -1       484 2.93605E+03 1.55017E+05 5.72125E+03 2.96294E+04 7.11253E-12-5.03206E-10
 -1       485-2.30732E+03 1.43163E+05 3.74520E+03-7.65600E+03 6.86668E-11-9.50877E-10
 -1       486-6.13199E+05-1.04737E+05-7.27166E+04-2.82974E+05-4.51655E-09 5.82077E-09
 -1       487-5.84959E+05-1.97668E+04-1.76064E+04-9.88994E+04 1.45292E-09 1.83645E-08
 -1       488-5.91994E+05-1.13945E+05-2.08361E+04-2.74970E+05 3.91253E-09-6.25187E-09
 -1       489-4.03180E+05-5.66792E+03 4.44834E+04-8.89397E+04 1.33548E-08-8.01992E-09
 -1       490-7.91780E+05-1.21875E+05-4.88404E+04-2.90151E+05 3.83261E-09 1.15529E-09
 -1       491-3.04204E+05-6.66802E+04 5.72175E+04-1.61576E+05-2.46234E-09 1.52570E-08
 -1       492-6.90224E+05-5.36274E+04-1.43891E+04-2.01942E+05-5.81258E-09 3.01403E-08
 -1       493-4.36091E+05-1.40434E+05 1.80051E+04-2.65333E+05-1.45178E-10 5.37957E-08
 -1       494-6.63851E+05-4.43505E+04-7.60630E+03-1.89528E+05-4.14684E-09 1.22263E-08
 -1       495-3.25115E+05-8.21922E+04 5.02501E+04-1.82763E+05-3.96722E-09 1.09898E-08
 -1       496-7.97905E+05-1.15026E+05-4.83810E+04-2.81924E+05 1.45724E-08 8.22615E-09
 -1       497-3.64767E+05-8.70020E+03 5.20878E+04-9.03944E+04 9.17299E-09 6.88715E-10
 -1       498-6.23616E+05-1.18377E+05-2.61919E+04-2.81208E+05 7.17880E-09-1.00072E-08
 -1       499-5.83346E+05-1.75696E+04-1.37846E+04-9.92234E+04-2.01692E-09-2.03754E-08
 -1       500-5.83180E+05-1.02511E+05-6.02314E+04-2.76404E+05-1.23200E-08 2.41125E-08
 -1       501-4.25869E+05-1.90277E+04 3.97837E+04 2.97688E+03-3.60251E-09-3.87263E-09
 -1       502-3.87066E+05 2.18222E+04 3.19294E+04-1.19267E+04-3.97199E-09-8.38054E-09
 -1       503-4.11837E+05-2.84611E+03 1.03637E+04 9.13674E+03-5.65075E-09-9.51331E-09
 -1       504-4.04264E+05 3.23153E+03 7.21365E+03-1.90551E+04-4.12824E-09-1.25721E-08
 -1       505-4.08912E+05-2.56350E+02 2.69022E+03 1.01078E+04 1.18717E-08-1.14412E-08
 -1       506-4.00385E+05 6.59093E+02 3.08199E+03-1.52088E+04 1.19519E-08-8.31579E-09
 -1       507-4.15582E+05-3.94184E+02-7.84023E+02 5.28857E+03 7.29688E-09-6.05220E-09
 -1       508-3.91678E+05 6.76100E+02 3.69007E+03-2.46710E+03-7.15659E-11-2.13959E-09
 -1       509-4.17385E+05-4.70996E+02-1.69660E+03-2.63377E+03-1.23557E-08 4.49596E-10
 -1       510-3.96850E+05 3.37025E+02 2.31614E+03 1.17678E+04-5.21754E-09 1.02822E-08
 -1       511-4.10543E+05 6.01056E+01-4.77223E+02-8.94433E+03-9.06721E-09 1.19372E-08
 -1       512-4.05868E+05-1.42263E+02 2.74737E+02 1.91533E+04-1.81686E-08 1.76594E-08
 -1       513-4.08603E+05 2.07134E+02-3.56354E+02-1.00216E+04-9.32550E-09 1.64812E-08
 -1       514-4.00878E+05 1.27284E+02 7.87900E+02 1.54954E+04-3.80227E-09 1.16802E-08
 -1       515-4.15403E+05-3.21948E+02-2.76208E+03-5.28476E+03-5.24039E-09 1.03609E-08
 -1       516-4.32636E+04 2.21861E+05 1.00250E+05-7.78820E+03-3.56522E-10-1.81700E-09
 -1       517 5.12317E+04 2.72493E+05 7.49267E+04 3.28629E+04-9.82254E-10-7.76942E-09
 -1       518-7.88045E+03 2.37571E+05 3.17774E+04-7.79494E+03 1.13687E-09 7.83473E-10
 -1       519 2.28907E+04 2.85858E+05 4.06860E+04 3.84782E+04-4.92651E-09-2.03755E-09
 -1       520-1.53717E+04 2.09128E+05 2.55235E+04-1.34093E+04-1.20599E-09-1.19608E-08
 -1       521-2.34084E+06-3.02200E+05-1.59289E+05-9.02862E+05-1.22964E-09-8.73115E-11
 -1       522-2.38939E+06-4.08936E+05-9.98673E+04-9.11282E+05 7.73070E-11-2.88128E-09
 -1       523-2.36851E+06-3.36264E+05-3.75507E+04-8.98742E+05-1.65500E-10-1.20781E-09
 -1       524-2.35726E+06-3.63952E+05-2.04980E+04-9.19024E+05 7.31006E-10-5.94355E-10
 -1       525-2.37194E+06-3.39477E+05-8.72860E+03-8.98047E+05 1.27761E-09 2.06001E-09
 -1       526-2.35328E+06-3.59814E+05-4.61419E+03-9.20211E+05 8.37417E-10 1.95496E-09
 -1       527-2.37247E+06-3.39687E+05-2.39164E+03-8.97854E+05 2.25612E-10 1.91648E-10
 -1       528-2.35281E+06-3.59488E+05-1.91065E+03-9.20368E+05-1.21696E-09-3.55521E-09
 -1       529-2.37241E+06-3.39750E+05-2.33921E+03-8.97916E+05 1.37152E-09-7.12589E-10
 -1       530-2.35346E+06-3.59579E+05-4.46438E+03-9.19938E+05 5.99812E-10-5.35374E-09
 -1       531-2.37177E+06-3.39673E+05-8.42910E+03-8.98231E+05 2.67210E-09 4.20641E-10
 -1       532-2.35751E+06-3.63340E+05-1.97692E+04-9.18505E+05 8.89486E-10-1.88720E-10
 -1       533-2.36835E+06-3.36701E+05-3.62197E+04-8.99034E+05-5.47288E-10-1.62254E-09
 -1       534-2.38872E+06-4.06469E+05-9.63008E+04-9.10740E+05-6.51426E-10-8.53106E-10
 -1       535-2.34153E+06-3.03991E+05-1.53615E+05-9.03150E+05-8.16726E-10 1.76806E-09
 -1       536-3.65272E+03-7.95216E+03 3.64751E+04-6.63895E+03 4.75666E-10-2.30648E-09
 -1       537 9.48685E+03 1.09866E+04 2.32193E+04-2.33357E+04-1.76669E-09-2.49884E-09
 -1       538 1.78166E+03-8.31207E+02 9.42785E+03-6.54947E+03-9.36780E-11-1.11868E-10
 -1       539 3.33812E+03 1.01366E+03 5.23504E+03-2.34292E+04 7.18501E-10-7.63976E-11
 -1       540 2.36617E+03-1.04652E+02 2.36804E+03-6.54215E+03 1.12323E-10-5.06361E-10
 -1       541 2.59425E+03 8.86697E+01 1.23927E+03-2.34358E+04-1.69166E-10-1.53591E-10
 -1       542 2.43201E+03-1.54498E+01 5.68711E+02-6.54297E+03-1.88720E-10 4.57703E-10
 -1       543 2.46176E+03 1.50100E+01 2.58039E+02-2.34346E+04-8.13998E-11 3.49226E-09
 -1       544 2.43982E+03 2.89831E+00 5.36285E+01-6.54342E+03-5.45697E-11-1.08520E-09
 -1       545 2.41613E+03-2.82639E-01-1.22400E+02-2.34341E+04-1.03651E-09-1.05001E-09
 -1       546 2.45339E+03 1.71948E+01-3.41433E+02-6.54352E+03-2.07956E-09 3.05761E-10
 -1       547 2.31262E+03-1.55087E+02-8.12720E+02-2.34312E+04-4.91946E-09 8.50889E-10
 -1       548 2.55367E+03 1.23584E+02-1.49462E+03-6.54636E+03-3.29010E-10 2.24486E-09
 -1       549 1.38110E+03-1.75684E+03-3.68488E+03-2.33805E+04 4.10898E-09 2.33013E-09
 -1       550 3.42984E+03 1.23664E+03-5.80963E+03-6.59409E+03 2.75259E-09-7.82393E-10
 -1       551 9.57204E+03-2.22846E+05 2.11057E+04-3.31080E+05 1.67347E-10-1.72804E-10
 -1       552 4.82112E+03-2.19296E+05 1.72825E+04-3.88944E+05-6.62112E-10 3.04499E-09
 -1       553 3.20068E+03-2.22503E+05 2.08953E+04-3.30523E+05 2.21917E-10 3.45608E-10
 -1       554 1.32314E+04-2.14404E+05 3.99138E+04-3.89027E+05-4.18368E-10-1.74623E-10
 -1       555 3.66489E+04-2.28067E+05 7.59293E+04-3.30940E+05 2.32831E-10-1.77351E-09
 -1       556-1.57079E+05-8.30062E+04 1.44974E+04-1.49093E+05 5.45697E-10 6.41376E-09
 -1       557-1.44052E+05-9.71077E+04 7.14604E+03-1.59107E+05 1.36606E-09 1.28921E-10
 -1       558-1.57334E+05-8.77287E+04 3.00114E+03-1.46289E+05-1.70985E-09-2.27374E-10
 -1       559-1.45427E+05-9.94436E+04 1.47479E+03-1.59605E+05-2.75395E-09-9.08767E-09
 -1       560-1.57507E+05-8.77562E+04 6.53149E+02-1.46270E+05 5.05679E-10-1.01500E-08
 -1       561-1.45715E+05-9.94745E+04 3.09385E+02-1.59811E+05 2.81761E-09-1.61911E-08
 -1       562-1.57645E+05-8.76579E+04 1.07474E+02-1.46363E+05 7.40692E-09 3.98177E-09
 -1       563-1.45860E+05-9.94128E+04-1.00879E+01-1.59915E+05 1.53523E-09 1.97861E-09
 -1       564-1.57723E+05-8.75984E+04-1.45445E+02-1.46420E+05 4.45289E-09-2.54704E-09
 -1       565-1.45942E+05-9.93820E+04-3.69162E+02-1.59965E+05 1.04942E-08 2.07456E-09
 -1       566-1.57723E+05-8.75722E+04-7.89924E+02-1.46434E+05 3.74803E-09-3.50155E-10
 -1       567-1.46084E+05-9.94616E+04-1.74729E+03-1.59952E+05 7.16682E-10 7.27596E-11
 -1       568-1.57581E+05-8.78348E+04-3.59239E+03-1.46295E+05 6.80302E-10-1.36242E-09
 -1       569-1.48027E+05-1.01630E+05-8.47242E+03-1.59394E+05-2.41926E-10-6.83940E-10
 -1       570-1.56782E+05-9.43134E+04-1.72597E+04-1.43536E+05 2.67937E-09 6.87419E-09
 -1       571 1.91337E+05 8.95055E+03 1.35697E+04-4.92910E+04 1.11095E-09-6.38465E-10
 -1       572 1.93395E+05 3.07114E+03 6.65961E+03-5.42421E+04 2.37515E-09-6.75755E-10
 -1       573 1.92168E+05 7.00595E+02 2.96147E+03-4.91608E+04 9.41327E-10 2.17369E-10
 -1       574 1.92412E+05 2.19811E+02 1.48599E+03-5.43855E+04-6.61203E-10-7.82165E-11
 -1       575 1.92260E+05 2.10679E+01 7.02295E+02-4.91441E+04-3.40606E-10 1.07320E-09
 -1       576 1.92282E+05 6.76257E-01 3.58673E+02-5.44043E+04-4.04725E-11 1.75851E-09
 -1       577 1.92274E+05-1.16629E+01 1.78791E+02-4.91420E+04-3.10592E-10 2.78760E-10
 -1       578 1.92271E+05-9.41859E+00 1.01265E+02-5.44066E+04-3.72438E-10-9.43601E-10
 -1       579 1.92289E+05-1.39719E+01 6.89188E+01-4.91419E+04-3.23780E-10-7.26232E-10
 -1       580 1.92291E+05-1.64072E+01 7.57807E+01-5.44038E+04 8.18545E-12 9.74069E-10
 -1       581 1.92312E+05-2.12577E+01 1.15644E+02-4.91447E+04-6.22094E-10-1.97815E-10
 -1       582 1.92343E+05-5.76434E-01 2.29034E+02-5.43741E+04-2.18733E-10 9.04947E-11
 -1       583 1.92334E+05 6.06665E+01 4.45690E+02-4.91716E+04-9.91349E-11 8.99945E-10
 -1       584 1.92536E+05 4.05881E+02 1.00017E+03-5.41455E+04-8.72205E-10-4.41901E-10
 -1       585 1.92251E+05 1.28009E+03 2.03185E+03-4.93743E+04 4.74756E-10 3.45608E-10
 -1       586 1.56408E+03 8.59422E+04 2.84286E+03-1.17374E+05 3.55158E-10 1.85082E-10
 -1       587 8.82202E+02 8.64233E+04 2.79266E+03-1.29488E+05 1.17325E-09-1.24419E-09
 -1       588 1.08724E+03 8.58992E+04 4.05562E+03-1.17222E+05 3.01952E-10 4.35193E-10
 -1       589 3.93486E+03 8.74322E+04 8.37403E+03-1.29534E+05 1.22327E-09 3.00815E-09
 -1       590 1.11002E+04 8.48859E+04 1.67248E+04-1.17325E+05 3.55612E-10 1.25328E-09
 -1       591-8.83513E+04-2.99534E+04-1.74197E+04-4.48629E+04 8.99149E-10 7.28505E-10
 -1       592-8.90447E+04-2.78015E+04-8.55813E+03-4.98782E+04-7.73639E-10 2.49997E-10
 -1       593-8.88869E+04-2.36210E+04-3.63172E+03-4.77784E+04 3.74052E-09-2.56978E-09
 -1       594-8.71809E+04-2.54651E+04-1.77719E+03-5.01764E+04 1.33382E-08 1.03772E-08
 -1       595-8.89717E+04-2.33933E+04-8.18395E+02-4.79074E+04 6.14250E-09 3.61513E-09
 -1       596-8.70416E+04-2.53738E+04-4.14965E+02-5.01636E+04 7.00538E-10-8.63565E-10
 -1       597-8.89877E+04-2.34058E+04-2.25720E+02-4.79082E+04 1.19516E-09 9.45420E-10
 -1       598-8.70275E+04-2.53751E+04-1.80238E+02-5.01573E+04-9.68441E-10-9.35438E-09
 -1       599-8.89862E+04-2.34064E+04-2.28342E+02-4.79075E+04 5.91399E-10 7.03267E-10
 -1       600-8.70399E+04-2.53751E+04-4.22013E+02-5.01615E+04-3.98131E-10 3.31829E-09
 -1       601-8.89664E+04-2.33950E+04-8.32884E+02-4.79050E+04 2.48542E-09 3.97904E-09
 -1       602-8.71810E+04-2.54673E+04-1.80955E+03-5.01702E+04 1.09776E-09-2.13504E-09
 -1       603-8.88764E+04-2.36306E+04-3.69780E+03-4.77743E+04-5.37511E-10-9.69521E-10
 -1       604-8.90954E+04-2.78267E+04-8.71321E+03-4.98417E+04-4.36239E-09-5.61704E-09
 -1       605-8.83095E+04-3.00938E+04-1.77347E+04-4.48241E+04-1.03660E-09 3.67800E-09
 -1       606 6.48812E+04-7.72895E+03-1.17009E+04 1.88521E+04-3.90628E-09-1.59662E-09
 -1       607 6.30755E+04-2.65105E+03-5.74076E+03 2.05489E+04-7.45786E-10-2.62344E-09
 -1       608 6.41330E+04-6.02939E+02-2.55297E+03 1.87267E+04 2.50657E-09-6.14591E-10
 -1       609 6.38904E+04-1.77340E+02-1.27890E+03 2.06872E+04-1.17871E-09 1.85082E-10
 -1       610 6.40312E+04-4.02155E+00-6.02883E+02 1.87104E+04-4.23006E-09-3.25144E-10
 -1       611 6.39835E+04 2.12817E+01-3.03389E+02 2.07049E+04-7.45604E-09-6.59156E-10
 -1       612 6.40085E+04 2.96020E+01-1.43992E+02 1.87085E+04-2.74031E-09-8.58790E-10
 -1       613 6.39904E+04 3.13495E+01-6.62766E+01 2.07072E+04-4.58886E-09 1.35492E-09
 -1       614 6.39984E+04 2.83951E+01-1.93335E+01 1.87081E+04-9.17680E-10-2.78305E-09
 -1       615 6.39882E+04 3.29039E+01 1.78771E+01 2.07074E+04 3.45017E-09-3.51520E-10
 -1       616 6.39908E+04 3.25738E+01 6.30099E+01 1.87083E+04-2.53976E-09-1.06479E-09
 -1       617 6.39964E+04 5.75313E+01 1.48676E+02 2.07068E+04-1.47611E-09-3.64321E-09
 -1       618 6.39763E+04 1.04952E+02 3.03537E+02 1.87086E+04 2.99906E-10-2.05523E-09
 -1       619 6.40929E+04 3.54396E+02 6.86730E+02 2.07038E+04 5.64455E-10 8.12861E-10
 -1       620 6.38863E+04 9.59069E+02 1.40128E+03 1.87102E+04 1.09060E-09 1.53250E-10
 -1       621 1.26788E+03 1.98823E+05 3.24826E+03-1.62048E+04-1.54205E-09 5.47061E-10
 -1       622 4.95870E+02 1.99443E+05 2.81963E+03-1.91259E+04-1.69416E-09 2.58183E-09
 -1       623 3.12045E+02 1.98946E+05 3.62572E+03-1.62276E+04-1.57706E-09 3.13776E-10
 -1       624 2.07199E+03 2.00400E+05 7.10317E+03-1.90315E+04-1.35697E-09-1.75010E-09
 -1       625 6.36342E+03 1.97882E+05 1.36197E+04-1.62977E+04-1.03637E-09-2.14186E-09
 -1       626 9.47326E+04 3.10560E+04-4.54410E+03 6.35589E+04 2.91129E-09 6.88669E-09
 -1       627 9.23206E+04 3.45930E+04-2.15336E+03 6.48697E+04-8.36735E-11-1.75197E-09
 -1       628 9.48488E+04 3.32997E+04-9.04236E+02 6.24453E+04-1.64891E-09-7.96263E-09
 -1       629 9.26411E+04 3.55414E+04-4.33302E+02 6.48003E+04-1.78534E-09 2.26393E-10
 -1       630 9.48401E+04 3.34578E+04-1.90350E+02 6.23515E+04 7.85712E-09 5.80039E-09
 -1       631 9.26612E+04 3.56135E+04-8.37490E+01 6.48003E+04 6.63226E-09-7.01948E-09
 -1       632 9.48294E+04 3.34640E+04-2.01152E+01 6.23421E+04-2.68301E-10-2.68142E-09
 -1       633 9.26609E+04 3.56176E+04 2.92585E+01 6.48005E+04 1.20667E-09 1.97792E-09
 -1       634 9.48211E+04 3.34596E+04 9.36772E+01 6.23403E+04-1.20008E-08-8.10655E-09
 -1       635 9.26716E+04 3.56207E+04 2.19874E+02 6.48025E+04-8.91009E-09 1.64821E-08
 -1       636 9.48112E+04 3.34710E+04 4.59619E+02 6.23324E+04-1.25321E-08-8.18068E-09
 -1       637 9.27825E+04 3.57496E+04 1.02896E+03 6.47818E+04-5.48539E-12-1.18689E-10
 -1       638 9.47882E+04 3.38590E+04 2.13433E+03 6.21639E+04 6.49152E-10-1.16370E-09
 -1       639 9.38689E+04 3.76758E+04 5.08153E+03 6.43042E+04-7.79437E-10 7.72116E-09
 -1       640 9.48493E+04 3.94112E+04 1.07224E+04 5.98608E+04-2.36309E-09 7.08042E-10
 -1       641 1.24680E+03 1.93236E+03-4.47112E+03-4.95567E+01-3.40662E-09 1.88697E-09
 -1       642-6.82873E+02-2.23674E+03-3.15956E+03 2.02825E+02-1.25456E-09 2.68921E-09
 -1       643 5.01511E+02 3.02746E+02-1.15275E+03-4.88147E+01-3.90146E-09 3.41015E-09
 -1       644 1.84661E+02-3.49308E+02-7.16076E+02 2.01889E+02 8.64812E-10 2.80716E-09
 -1       645 3.79121E+02 4.65199E+01-2.75964E+02-4.86221E+01 7.66459E-10 1.21331E-09
 -1       646 3.29714E+02-4.90185E+01-1.30742E+02 2.01622E+02-3.12755E-08-3.33628E-10
 -1       647 3.56397E+02 2.71619E+00 9.31932E-01-4.85478E+01-7.38005E-06 1.10403E-08
 -1       648 3.70669E+02 2.61155E+01 1.24585E+02 2.01536E+02-1.47172E-05 1.85011E-08
 -1       649 3.38147E+02-2.85587E+01 2.81467E+02-4.85368E+01-7.37850E-06 1.01781E-08
 -1       650 4.74439E+02 2.19888E+02 6.81141E+02 2.01482E+02-1.65063E-08 2.12675E-09
 -1       651 2.52648E+02-1.90949E+02 1.18522E+03-4.84934E+01-3.07882E-09 4.89553E-09
 -1       652 1.06013E+03 1.41631E+03 2.93282E+03 2.01068E+02 3.10197E-09 3.16584E-09
 -1       653-2.47459E+02-1.22413E+03 4.67197E+03-4.81234E+01 2.40832E-09 1.71372E-09
 -1       654 4.58265E+03 9.04027E+03 1.27796E+04 1.98523E+02-4.34131E-09 2.32080E-09
 -1       655-3.26934E+03-7.80879E+03 1.80618E+04-4.59532E+01-3.02816E-11 7.24867E-10
 -1       656 5.82706E+03-2.36691E+05-2.80264E+04 7.56324E+03-4.22006E-10 7.36236E-10
 -1       657-8.85998E+03-2.46757E+05-2.02995E+04 2.64666E+04-2.29920E-09 6.56598E-09
 -1       658 1.09109E+03-2.40306E+05-1.30135E+04 7.51140E+03-5.20856E-10 1.98588E-09
 -1       659-8.13229E+03-2.46332E+05-1.89848E+04 2.64989E+04-3.26963E-09-2.69106E-09
 -1       660 5.27179E+03-2.37135E+05-2.55191E+04 7.53143E+03-2.00089E-11-2.99451E-10
 -1       661 2.28084E+05 2.94957E+04 1.86438E+04 8.92259E+04 1.48157E-09 1.53887E-09
 -1       662 2.32308E+05 4.34496E+04 1.16888E+04 9.19090E+04 4.94171E-09-2.63663E-09
 -1       663 2.31250E+05 3.35512E+04 4.40054E+03 8.88311E+04 7.96263E-10-3.93902E-09
 -1       664 2.28663E+05 3.80749E+04 2.40707E+03 9.26596E+04-1.79108E-09-2.15778E-09
 -1       665 2.31597E+05 3.39815E+04 1.03137E+03 8.88073E+04 1.63703E-09 3.68374E-09
 -1       666 2.28263E+05 3.75217E+04 5.58171E+02 9.27075E+04 4.41219E-10-1.52659E-09
 -1       667 2.31636E+05 3.40301E+04 3.13763E+02 8.88097E+04-6.79225E-09 9.05658E-10
 -1       668 2.28226E+05 3.74722E+04 2.95525E+02 9.27067E+04-3.34511E-09 8.58648E-10
 -1       669 2.31632E+05 3.40268E+04 4.16964E+02 8.88092E+04 3.21927E-09 5.21823E-11
 -1       670 2.28296E+05 3.75581E+04 8.42886E+02 9.27079E+04 1.04396E-08-2.53303E-09
 -1       671 2.31568E+05 3.39507E+04 1.61032E+03 8.88066E+04-9.39053E-11 8.34007E-10
 -1       672 2.28934E+05 3.84288E+04 3.79128E+03 9.26279E+04 7.70427E-10-2.74349E-09
 -1       673 2.31015E+05 3.32739E+04 6.94235E+03 8.88464E+04 5.13370E-09-2.76805E-09
 -1       674 2.34688E+05 4.69130E+04 1.84499E+04 9.14410E+04 3.16342E-09 1.07389E-09
 -1       675 2.26018E+05 2.68716E+04 2.94302E+04 8.94676E+04 2.24509E-09 1.52431E-09
 -1       676 4.18731E+02-2.23325E+05-2.48686E+03 1.02069E+02-2.10412E-09 3.68220E-09
 -1       677-9.42552E+02-2.24270E+05-3.01527E+03-1.15230E+02-5.29825E-09 8.72309E-09
 -1       678 3.36695E+02-2.23364E+05-3.98297E+03 1.01785E+02-1.90857E-09 3.51946E-09
 -1       679-4.23757E+03-2.26268E+05-9.00861E+03-1.15011E+02-8.42635E-09-2.84082E-09
 -1       680 2.98658E+03-2.21328E+05-1.39005E+04 1.01252E+02-2.93585E-09 2.29658E-09
 -1       681 2.90053E+05-7.78991E+03 1.64924E+04 3.87934E+03 2.51248E-11-1.54614E-11
 -1       682 3.05143E+05 8.89832E+03 1.30564E+04-1.03674E+04-5.23187E-10-1.19212E-09
 -1       683 2.95651E+05-1.13704E+03 4.32661E+03 1.16947E+03-8.99547E-11 2.42994E-09
 -1       684 2.98377E+05 1.30759E+03 2.95670E+03-6.45653E+03 3.58227E-10-1.04683E-09
 -1       685 2.96742E+05-1.54300E+02 1.15173E+03-3.16173E+01 1.02440E-09 3.19375E-09
 -1       686 2.97086E+05 1.94853E+02 7.32252E+02-4.93618E+03 6.78227E-10-5.91655E-10
 -1       687 2.96924E+05-1.33082E+01 4.21627E+02-3.50832E+02 3.72134E-10 2.34716E-09
 -1       688 2.97047E+05 4.92294E+01 4.50087E+02-5.01744E+03 1.31632E-10-8.03475E-10
 -1       689 2.96782E+05-9.29835E+00 5.75534E+02 4.96405E+01-1.54449E-09 2.64694E-09
 -1       690 2.98043E+05 2.29652E+02 1.38000E+03-6.74029E+03 2.40737E-09-1.10549E-09
 -1       691 2.95949E+05-2.07680E+02 1.94529E+03 1.37197E+03 1.63550E-09 5.88898E-11
 -1       692 3.02800E+05 2.12307E+03 5.93744E+03-1.09685E+04 1.27648E-09 1.48515E-09
 -1       693 2.92116E+05-1.96080E+03 7.42024E+03 4.27810E+03-3.41635E-09-3.58159E-09
 -1       694 3.25040E+05 1.68138E+04 2.64882E+04-1.98527E+04-9.92043E-09 4.94197E-09
 -1       695 2.74076E+05-1.51257E+04 2.79691E+04 1.02612E+04-9.15918E-09-1.02973E-08
 -1       696-6.12853E+03 2.56191E+05 1.35671E+04-2.96648E+03 1.54614E-11-1.39471E-09
 -1       697 6.84851E+03 2.64725E+05 9.72210E+03 7.02061E+03 8.83347E-11-9.93907E-11
 -1       698-7.36416E+02 2.59688E+05 2.84581E+03-1.66553E+03-5.52518E-11 3.80041E-10
 -1       699-3.17241E+02 2.60236E+05 2.60903E+02 5.51353E+03-1.38698E-10 8.89218E-10
 -1       700 1.05002E+03 2.60654E+05-2.01249E+03-1.45930E+03-1.18462E-10-6.36149E-11
 -1       701-3.04240E+05-4.27745E+04-4.56652E+04-1.29333E+05 8.83119E-10 1.50976E-09
 -1       702-2.53931E+05-2.22205E+04-1.18502E+04-5.73407E+04-1.75942E-09-2.38645E-08
 -1       703-2.63230E+05-5.05647E+04-9.23467E+03-1.21328E+05 1.02827E-08 3.31834E-08
 -1       704-2.91974E+05-1.21101E+04-2.80026E+03-6.56811E+04 6.90352E-09 4.57487E-08
 -1       705-2.66950E+05-5.23138E+04-3.48796E+03-1.21617E+05 1.44797E-08 3.81763E-08
 -1       706-2.39777E+05-9.40096E+03 1.11059E+04-5.88741E+04-2.75503E-09-1.61367E-09
 -1       707-3.14561E+05-5.39194E+04-1.13790E+04-1.27425E+05 9.81413E-09 1.65793E-08
 -1       708-1.73599E+05-1.84865E+04 2.27987E+04-6.30620E+04 4.53826E-09 1.29429E-08
 -1       709-3.32148E+05-4.39691E+04-1.27814E+04-1.16699E+05-7.88305E-09 5.50273E-09
 -1       710-1.87259E+05-4.46504E+04 1.45929E+04-9.73510E+04-7.79187E-09-9.91858E-09
 -1       711-3.01555E+05-2.72684E+04-5.02348E+03-9.36797E+04 1.41073E-08 3.53689E-08
 -1       712-2.33095E+05-6.66417E+04-1.34942E+03-1.28196E+05-1.40665E-09 7.99928E-08
 -1       713-2.87458E+05-2.11083E+04-6.97702E+03-8.66810E+04-1.46157E-08 3.68982E-09
 -1       714-2.20491E+05-6.84274E+04-1.16370E+04-1.15187E+05-1.41995E-08-1.40751E-08
 -1       715-3.13712E+05-2.58307E+04-3.86458E+04-1.06370E+05-4.34648E-09-1.84336E-08
 -1       716-7.42301E+04-1.77153E+02-2.12695E+03-8.42146E+02 1.55125E-08-8.98575E-09
 -1       717-5.71270E+04 1.14811E+02 1.71961E+03-2.31974E+03 4.82763E-09 3.71905E-10
 -1       718-7.34346E+04-9.75325E+01-1.23192E+03 2.84861E+02 1.93705E-09-3.20058E-09
 -1       719-5.96798E+04 2.86024E+01 1.59495E+03-4.42776E+03 2.87471E-09-1.77623E-10
 -1       720-7.17427E+04-4.31634E+01-6.53525E+02 1.26322E+03 3.34154E-09 1.18627E-09
 -1       721-6.33455E+04 1.15604E+01 1.09615E+03-6.12935E+03 7.80258E-09-1.23918E-09
 -1       722-6.98625E+04-1.21782E+01 1.11571E+01 1.98520E+03 4.89254E-09 4.88251E-09
 -1       723-6.65498E+04 1.20064E+02 1.02095E+03-7.25142E+03 1.78606E-09-1.62076E-09
 -1       724-6.86215E+04-9.09241E+01 1.24813E+03 2.38537E+03 9.28500E-09 6.52346E-09
 -1       725-6.76407E+04 9.22807E+02 2.99105E+03-7.69912E+03 6.06551E-09-2.40539E-09
 -1       726-6.88098E+04-7.86344E+02 5.10719E+03 2.43322E+03 6.89841E-09 4.39468E-09
 -1       727-6.42474E+04 6.10377E+03 1.28124E+04-7.44344E+03 1.05283E-08-2.57864E-09
 -1       728-7.19916E+04-5.28408E+03 1.98593E+04 2.12951E+03 3.74632E-09 2.88492E-09
 -1       729-4.61270E+04 3.91369E+04 5.57418E+04-6.59714E+03 1.22218E-09 5.82077E-11
 -1       730-8.68459E+04-3.38442E+04 7.69798E+04 1.58662E+03 2.82131E-09 3.49246E-10
 -1       731-8.31942E+03 8.81389E+04 1.12029E+04-5.48335E+03-7.75526E-09-4.97721E-09
 -1       732 9.48924E+03 1.41916E+05 1.71764E+04 1.43000E+04 2.23145E-09 8.62315E-10
 -1       733-1.51081E+03 1.01366E+05 3.68994E+03-2.89215E+03-1.73554E-09-1.67097E-09
 -1       734 4.31348E+03 1.24547E+05 8.90856E+03 9.91301E+03 2.45470E-09-6.61703E-09
 -1       735-2.89255E+03 1.05138E+05 5.90907E+03-1.08986E+03 2.03158E-09-5.40149E-09
 -1       736-2.79510E+05-5.20848E+04-3.02071E+04-1.25055E+05 2.59197E-08-2.11021E-08
 -1       737-2.39230E+05-3.08827E+03-2.11708E+03-4.25661E+04 7.32498E-08 1.85020E-08
 -1       738-2.30089E+05-4.98177E+04-4.09850E+03-1.13624E+05 2.69866E-08 6.26449E-08
 -1       739-2.59914E+05-1.33895E+03 2.00027E+03-4.77228E+04-3.38735E-08-3.83807E-09
 -1       740-2.59224E+05-5.35395E+04-6.68577E+03-1.20236E+05 1.10277E-08-3.75394E-08
 -1       741-1.64560E+05 2.96602E+03 2.31043E+04-3.15653E+04-1.01995E-08-2.54382E-08
 -1       742-3.23806E+05-5.53279E+04-1.85292E+04-1.28439E+05 3.90992E-09 1.57718E-09
 -1       743-9.26100E+04-1.05836E+04 3.47719E+04-4.01129E+04-7.76845E-09 1.40913E-08
 -1       744-3.30134E+05-4.07753E+04-1.69320E+04-1.10978E+05 5.05565E-09-1.82686E-08
 -1       745-1.36911E+05-4.42898E+04 1.93765E+04-8.81002E+04 1.78698E-08 3.02146E-09
 -1       746-2.80812E+05-2.06557E+04-4.35887E+03-8.14968E+04 1.77828E-08 7.45320E-08
 -1       747-2.00315E+05-6.73560E+04 1.13229E+03-1.24511E+05-1.67344E-08 1.75447E-08
 -1       748-2.68249E+05-1.65650E+04-4.24358E+03-7.56285E+04 2.38359E-08 1.59389E-08
 -1       749-1.65352E+05-5.67287E+04 3.50289E+03-1.04376E+05-1.07927E-08 1.98525E-08
 -1       750-3.14913E+05-3.19356E+04-2.96135E+04-1.01038E+05-1.38364E-08-1.85892E-08
 -1       751 1.91292E+06-1.11088E+05 2.57374E+05 4.43479E+03-2.11677E-08 4.94765E-10
 -1       752 2.02485E+06 1.28623E+05 1.82053E+05-4.89361E+03-2.53366E-09-1.27511E-09
 -1       753 1.95618E+06-1.74074E+04 6.66732E+04 5.68751E+02 1.93550E-10-1.45519E-10
 -1       754 1.97457E+06 2.01470E+04 4.19257E+04-5.60718E+02 2.63356E-09 1.16415E-09
 -1       755 1.96330E+06-2.72356E+03 1.71679E+04 1.02366E+02 2.00596E-09 9.64064E-11
 -1       756 1.96632E+06 3.19167E+03 1.02593E+04-3.70121E+01 3.42688E-10 4.27917E-10
 -1       757 1.96447E+06-4.66127E+02 5.03778E+03 4.50464E+01 5.97301E-07 1.05092E-09
 -1       758 1.96509E+06 8.25277E+02 4.01717E+03 2.63637E+01 1.19038E-06 2.52726E-10
 -1       759 1.96454E+06-3.58798E+02 4.07005E+03 3.89890E+01 2.32693E-07 6.09361E-10
 -1       760 1.96583E+06 2.26878E+03 7.46150E+03 2.48800E+01-7.24332E-07 1.10595E-09
 -1       761 1.96373E+06-1.90860E+03 1.21309E+04 4.65300E+01-3.62020E-07 4.86125E-10
 -1       762 1.97157E+06 1.40868E+04 2.93626E+04-5.08174E+01 2.66769E-09 2.90311E-09
 -1       763 1.95877E+06-1.21673E+04 4.66082E+04 1.14686E+02 4.38441E-09 1.78261E-09
 -1       764 2.00650E+06 8.98500E+04 1.27160E+05-6.80697E+02 1.23794E-09 6.54836E-10
 -1       765 1.92870E+06-7.75989E+04 1.79787E+05 6.76359E+02-1.49535E-09-6.03904E-10
 -1       766-4.03117E+04 7.78925E+04 9.26289E+04 7.66876E+03 5.15502E-09-1.48978E-09
 -1       767 4.74180E+04 1.25858E+05 6.86328E+04-3.32402E+04 1.76178E-08-1.50453E-09
 -1       768-6.90552E+03 9.37816E+04 2.76247E+04 7.53131E+03 7.76890E-09 2.94284E-09
 -1       769 1.75090E+04 1.32890E+05 3.17553E+04-3.52083E+04 3.26719E-09-4.54747E-10
 -1       770-1.07878E+04 7.13677E+04 1.66885E+04 9.63807E+03-4.69208E-09-1.64118E-09
 -1       771-1.10369E+06-2.21277E+05-3.60900E+04-4.77298E+05 8.52197E-10 6.74481E-09
 -1       772-1.10052E+06-2.21237E+05-1.77103E+04-4.92761E+05 1.87174E-09-1.13596E-09
 -1       773-1.10522E+06-2.07840E+05-7.53567E+03-4.83117E+05-3.39787E-09 1.38789E-09
 -1       774-1.09653E+06-2.16668E+05-3.67776E+03-4.93887E+05-7.16682E-09-3.58295E-09
 -1       775-1.10557E+06-2.07241E+05-1.70466E+03-4.83429E+05 5.55156E-09 2.30466E-09
 -1       776-1.09634E+06-2.16471E+05-8.59696E+02-4.94031E+05 1.23709E-08-3.95971E-10
 -1       777-1.10574E+06-2.07189E+05-4.73469E+02-4.83489E+05-2.87400E-10-1.40608E-08
 -1       778-1.09640E+06-2.16446E+05-3.72268E+02-4.94121E+05 1.24055E-09 1.62100E-09
 -1       779-1.10582E+06-2.07138E+05-4.76334E+02-4.83529E+05 3.05681E-09-3.60615E-10
 -1       780-1.09648E+06-2.16428E+05-8.76261E+02-4.94194E+05 1.26965E-09-8.36280E-10
 -1       781-1.10583E+06-2.07085E+05-1.73422E+03-4.83547E+05 9.04402E-09-1.01813E-08
 -1       782-1.09680E+06-2.16614E+05-3.77037E+03-4.94238E+05 2.00409E-08-2.20043E-08
 -1       783-1.10565E+06-2.07571E+05-7.71051E+03-4.83279E+05 1.30901E-08-4.56384E-09
 -1       784-1.10080E+06-2.21542E+05-1.81812E+04-4.93543E+05 1.46088E-09-2.11185E-09
 -1       785-1.10444E+06-2.21074E+05-3.70146E+04-4.77117E+05 5.21209E-09 5.21868E-09
 -1       786 1.58825E+05-4.59455E+03 2.12922E+04-1.51547E+03 1.85082E-10-1.15051E-09
 -1       787 1.66392E+05 6.44434E+03 1.35416E+04-5.43060E+03-3.66015E-10-2.67801E-09
 -1       788 1.62007E+05-4.60213E+02 5.51210E+03-1.50682E+03-2.18165E-10-6.77346E-10
 -1       789 1.62857E+05 6.11088E+02 3.05796E+03-5.43570E+03 2.68983E-10-6.37556E-10
 -1       790 1.62357E+05-4.92107E+01 1.39840E+03-1.51002E+03 1.13687E-12 1.27216E-09
 -1       791 1.62460E+05 5.69736E+01 7.46533E+02-5.43095E+03 7.85150E-11-5.29667E-10
 -1       792 1.62401E+05-6.31057E+00 3.82152E+02-1.51157E+03 5.21204E-10-1.03310E-09
 -1       793 1.62412E+05 6.84061E+00 2.50168E+02-5.43000E+03 6.36732E-10-2.28177E-09
 -1       794 1.62405E+05-3.42674E+00 2.26714E+02-1.51097E+03 2.39726E-09-1.56378E-09
 -1       795 1.62425E+05 2.27584E+01 3.38486E+02-5.43357E+03 3.76573E-09 1.39908E-09
 -1       796 1.62389E+05-2.05384E+01 5.82870E+02-1.50799E+03 2.35281E-09 1.11466E-09
 -1       797 1.62585E+05 2.45660E+02 1.24481E+03-5.44037E+03 8.18545E-10-1.08068E-09
 -1       798 1.62248E+05-1.87112E+02 2.23132E+03-1.50417E+03 7.50333E-12-3.21506E-10
 -1       799 1.64016E+05 2.60189E+03 5.47406E+03-5.43483E+03-6.53017E-10 5.82190E-10
 -1       800 1.60963E+05-1.85868E+03 8.60333E+03-1.51372E+03-5.11591E-12 8.50378E-10
 -1       801-6.44617E+03 1.81767E+05 2.69967E+04-1.85870E+05-7.49424E-09 1.77533E-09
 -1       802 1.52753E+04 1.89666E+05 2.91089E+04-6.60524E+05-3.27782E-09-2.01908E-09
 -1       803-9.02135E+02 1.81641E+05 3.23579E+04-1.85324E+05-1.01791E-08 4.93890E-09
 -1       804 3.70694E+04 2.03025E+05 6.88391E+04-6.60483E+05-5.33328E-09-3.60978E-09
 -1       805-2.35235E+04 1.68581E+05 1.02666E+05-1.85916E+05-3.90355E-09 3.63434E-09
 -1       806-1.71422E+05-4.66199E+04-1.42501E+04-8.04404E+04 1.13801E-10-9.64974E-10
 -1       807-1.71359E+05-4.30691E+04-6.75304E+03-8.49329E+04 9.47239E-10-5.47516E-10
 -1       808-1.71330E+05-3.92584E+04-2.83793E+03-8.35320E+04 7.83075E-10 7.20775E-10
 -1       809-1.69952E+05-4.04784E+04-1.37038E+03-8.55441E+04-2.72394E-10 8.65612E-10
 -1       810-1.71363E+05-3.87413E+04-6.18682E+02-8.37625E+04 7.55495E-09-3.38832E-09
 -1       811-1.69812E+05-4.03024E+04-3.09389E+02-8.55710E+04 1.14630E-08-1.35273E-08
 -1       812-1.71375E+05-3.87244E+04-1.60562E+02-8.37737E+04 9.87842E-09 4.21687E-09
 -1       813-1.69797E+05-4.02973E+04-1.16381E+02-8.55676E+04 1.07153E-09-3.45494E-10
 -1       814-1.71374E+05-3.87267E+04-1.32492E+02-8.37725E+04-1.65346E-09-8.15999E-09
 -1       815-1.69805E+05-4.03031E+04-2.34819E+02-8.55667E+04 6.44832E-10 1.54705E-09
 -1       816-1.71362E+05-3.87418E+04-4.58326E+02-8.37625E+04-2.67460E-09-5.94446E-09
 -1       817-1.69909E+05-4.04303E+04-1.00999E+03-8.55395E+04 1.12004E-09 2.61480E-10
 -1       818-1.71331E+05-3.91284E+04-2.08896E+03-8.35952E+04-1.83309E-09-5.99402E-09
 -1       819-1.70973E+05-4.23039E+04-4.96885E+03-8.50487E+04-1.53318E-09-8.81482E-09
 -1       820-1.71364E+05-4.45730E+04-1.04841E+04-8.13516E+04 6.90761E-10-4.66116E-10
 -1       821-1.81365E+05 5.03642E+03-2.33549E+04 1.68329E+03-2.08615E-09-1.78079E-09
 -1       822-1.89656E+05-7.06869E+03-1.48535E+04 6.11946E+03-9.14724E-10-2.11207E-09
 -1       823-1.84856E+05 5.03184E+02-6.04877E+03 1.64617E+03 2.12572E-09-2.27328E-09
 -1       824-1.85787E+05-6.65554E+02-3.35807E+03 6.16719E+03-7.41579E-10-7.39874E-10
 -1       825-1.85241E+05 5.45637E+01-1.54370E+03 1.63514E+03-3.70471E-09-2.12026E-10
 -1       826-1.85359E+05-5.50580E+01-8.38185E+02 6.18485E+03-5.03718E-09-2.66922E-10
 -1       827-1.85290E+05 9.21763E+00-4.58210E+02 1.62843E+03-3.39605E-09-9.94362E-10
 -1       828-1.85313E+05-7.99816E-01-3.54708E+02 6.19543E+03-4.30151E-09-5.99186E-10
 -1       829-1.85292E+05 8.81499E+00-4.05648E+02 1.62454E+03 5.97908E-10-1.39302E-09
 -1       830-1.85351E+05-4.18444E+01-7.00813E+02 6.19979E+03 2.55678E-09-3.71107E-09
 -1       831-1.85253E+05 4.66028E+01-1.26835E+03 1.62407E+03-1.71710E-09-1.83724E-09
 -1       832-1.85704E+05-5.39050E+02-2.74733E+03 6.19712E+03-2.73799E-09 7.89782E-10
 -1       833-1.84939E+05 4.13950E+02-4.94236E+03 1.62729E+03-7.46513E-09 2.44427E-10
 -1       834-1.88867E+05-5.76885E+03-1.21352E+04 6.17621E+03-8.68405E-09-2.22303E-09
 -1       835-1.82088E+05 4.11809E+03-1.90783E+04 1.64573E+03-6.86259E-09-2.86764E-09
 -1       836-7.72218E+03 4.47346E+05 3.78323E+04-1.24148E+04-6.31189E-10-2.59206E-10
 -1       837 1.22142E+04 4.61039E+05 2.93600E+04-4.36132E+04-6.70752E-12 8.85279E-10
 -1       838-1.85191E+03 4.51757E+05 2.21195E+04-1.23946E+04-1.08116E-09 2.73218E-10
 -1       839 1.66328E+04 4.63715E+05 3.73982E+04-4.36109E+04 2.40107E-10-6.33975E-10
 -1       840-1.11610E+04 4.44665E+05 5.31473E+04-1.24169E+04-1.27147E-09 2.32149E-10
 -1       841 2.09317E+03 2.50330E+03-5.69530E+03-2.25361E+02 9.28253E-10 5.89807E-10
 -1       842-1.01682E+03-2.62222E+03-3.95192E+03 8.91121E+02-9.29091E-10-1.34310E-09
 -1       843 9.31640E+02 4.55173E+02-1.33356E+03 1.62170E+02 1.04643E-09 6.19139E-10
 -1       844 3.32324E+02-2.50652E+02-8.29633E+02 4.43920E+02 4.65710E-09 2.90314E-10
 -1       845 7.44113E+02 1.33287E+02-3.02853E+02 2.21196E+02-3.90401E-10-4.39258E-11
 -1       846 5.51604E+02 1.23910E+02-1.63843E+02 3.75540E+02 8.39719E-11-1.55958E-09
 -1       847 7.12345E+02 8.08581E+01-4.27852E+01 2.30436E+02 1.95843E-10 8.53962E-10
 -1       848 5.97339E+02 1.97968E+02 2.88302E+01 3.62866E+02-3.97744E-09 2.59689E-09
 -1       849 6.98362E+02 5.92818E+01 1.07447E+02 2.33840E+02-1.36801E-06 5.15288E-07
 -1       850 6.66080E+02 3.08748E+02 3.02868E+02 3.44413E+02-2.73368E-06 1.02549E-06
 -1       851 6.43607E+02-2.98592E+01 5.34358E+02 2.48863E+02-1.37171E-06 5.14262E-07
 -1       852 1.04973E+03 9.59075E+02 1.44925E+03 2.27912E+02-5.21095E-09-1.07285E-09
 -1       853 3.14775E+02-5.90659E+02 2.32198E+03 3.50203E+02-3.22359E-09 3.93015E-10
 -1       854 3.40339E+03 5.08850E+03 6.88248E+03-5.48108E+02 1.66244E-09-6.37101E-10
 -1       855-1.70954E+03-4.15655E+03 9.91282E+03 1.02392E+03 2.75122E-11 6.53472E-10
 -1       856-2.16627E+05 4.80704E+03-2.23087E+04 3.33288E+03-2.78760E-09-1.48339E-09
 -1       857-2.24541E+05-6.73680E+03-1.41845E+04 1.22289E+04-2.86047E-09-2.53976E-09
 -1       858-2.19964E+05 4.82371E+02-5.77724E+03 3.27067E+03-3.74757E-09-1.82354E-10
 -1       859-2.20860E+05-6.16421E+02-3.20427E+03 1.23103E+04-1.15722E-09-2.60883E-09
 -1       860-2.20334E+05 5.69868E+01-1.46991E+03 3.25062E+03 1.20053E-09-2.13458E-09
 -1       861-2.20459E+05-2.99432E+01-7.90560E+02 1.23395E+04-4.62768E-09-3.85216E-09
 -1       862-2.20383E+05 1.50653E+01-4.18352E+02 3.24128E+03 4.53457E-09-6.27608E-10
 -1       863-2.20415E+05 2.40633E+01-2.99296E+02 1.23510E+04 1.43202E-08-1.59824E-09
 -1       864-2.20386E+05 1.35842E+01-3.10647E+02 3.23914E+03 7.60778E-09-4.00337E-09
 -1       865-2.20438E+05-4.73256E+00-5.08354E+02 1.23475E+04 8.42567E-09-5.80925E-09
 -1       866-2.20358E+05 3.86747E+01-9.05168E+02 3.24476E+03 5.45583E-10-2.27101E-09
 -1       867-2.20679E+05-3.60422E+02-1.94986E+03 1.23275E+04-5.05395E-09-4.15821E-09
 -1       868-2.20133E+05 2.95835E+02-3.50626E+03 3.25924E+03 1.74441E-09-3.00508E-09
 -1       869-2.22907E+05-4.07257E+03-8.60165E+03 1.22605E+04-7.43512E-10 1.03682E-10
 -1       870-2.18109E+05 2.91624E+03-1.35275E+04 3.31244E+03-4.88853E-11-9.48603E-10
 -1       871-2.22669E+03-2.10997E+04-4.13778E+03 6.23480E+04-2.29147E-09-1.29558E-09
 -1       872-7.11723E+02-2.18456E+04-1.21357E+03 7.31906E+04-6.30780E-09-1.73122E-09
 -1       873 3.79959E+01-2.15661E+04 1.21063E+03 6.22284E+04-3.44994E-09 1.20690E-09
 -1       874 1.41195E+03-2.05848E+04 4.52723E+03 7.32428E+04-3.52975E-09-1.26718E-09
 -1       875 4.62228E+03-2.23961E+04 9.76352E+03 6.23015E+04-2.75350E-09-8.96534E-10
 -1       876 2.67230E+05 3.40962E+04 2.51757E+04 1.05205E+05 7.78982E-10-1.47520E-09
 -1       877 2.72775E+05 5.31121E+04 1.57847E+04 1.09027E+05 5.80104E-09-8.35144E-10
 -1       878 2.71502E+05 3.95775E+04 5.94058E+03 1.04675E+05-1.43018E-10-1.64709E-09
 -1       879 2.67857E+05 4.58467E+04 3.24806E+03 1.10029E+05-1.18689E-09-1.32331E-10
 -1       880 2.71966E+05 4.01645E+04 1.38660E+03 1.04648E+05-1.20394E-10-2.06069E-09
 -1       881 2.67322E+05 4.50913E+04 7.41355E+02 1.10081E+05-3.38042E-09-4.38844E-09
 -1       882 2.72014E+05 4.02354E+04 3.97995E+02 1.04655E+05-1.09016E-08 2.67016E-09
 -1       883 2.67273E+05 4.50150E+04 3.43016E+02 1.10070E+05-2.45129E-09 1.55771E-09
 -1       884 2.72009E+05 4.02369E+04 4.50223E+02 1.04658E+05 1.74423E-09 3.25713E-10
 -1       885 2.67347E+05 4.50992E+04 8.84952E+02 1.10067E+05 6.53006E-09-2.81466E-09
 -1       886 2.71942E+05 4.01587E+04 1.67923E+03 1.04656E+05 2.31910E-09-1.69632E-09
 -1       887 2.68010E+05 4.60054E+04 3.94641E+03 1.09985E+05-3.58682E-10 6.89511E-10
 -1       888 2.71368E+05 3.94528E+04 7.22367E+03 1.04696E+05 4.77911E-09 8.12634E-10
 -1       889 2.73996E+05 5.48340E+04 1.91958E+04 1.08754E+05 2.50148E-09 3.34671E-09
 -1       890 2.66170E+05 3.27899E+04 3.06186E+04 1.05341E+05 1.69302E-09 1.46792E-09
 -1       891 9.23630E+02-1.19901E+05-4.72337E+03 1.46565E+04-4.90013E-09 1.46338E-09
 -1       892-1.58586E+03-1.21565E+05-3.75687E+03 5.20237E+04-4.11103E-09-2.94131E-09
 -1       893 2.38991E+02-1.20439E+05-2.98919E+03 1.45965E+04-3.17254E-09-1.40719E-09
 -1       894-2.41651E+03-1.22063E+05-5.26479E+03 5.20192E+04-4.95425E-09-4.41241E-09
 -1       895 1.56689E+03-1.19396E+05-7.59646E+03 1.46607E+04-5.98675E-10-2.30511E-09
 -1       896 3.24652E+05-1.33180E+03 3.04032E+03-2.12667E+02 2.85347E-10 1.99771E-09
 -1       897 3.26131E+05 1.54293E+03 2.18739E+03 2.30400E+03-2.55291E-10 2.90993E-09
 -1       898 3.25235E+05-2.06100E+02 7.95190E+02 2.35000E+02 1.31486E-10 2.95583E-09
 -1       899 3.25449E+05 2.42630E+02 5.12135E+02 1.71073E+03 1.35353E-10 3.60291E-09
 -1       900 3.25333E+05-3.12288E+01 2.27776E+02 3.80611E+02 1.69258E-10 3.26921E-09
 -1       901 3.25346E+05 4.37522E+01 1.72041E+02 1.63994E+03-4.75016E-10 3.68424E-09
 -1       902 3.25338E+05-7.25944E+00 1.54306E+02 3.05790E+02 1.18042E-09 3.14218E-09
 -1       903 3.25399E+05 4.10685E+01 2.62641E+02 2.05191E+03 1.91351E-09 3.33326E-09
 -1       904 3.25281E+05-2.93509E+01 4.20616E+02-3.13629E+01 1.71769E-09 2.34532E-09
 -1       905 3.25756E+05 2.57340E+02 1.00273E+03 3.17688E+03 3.93271E-10 2.28255E-09
 -1       906 3.24986E+05-2.27125E+02 1.60997E+03-8.19198E+02-1.98000E-10 3.96881E-10
 -1       907 3.27588E+05 1.84879E+03 4.28534E+03 5.64406E+03-1.04896E-09-5.97538E-10
 -1       908 3.23473E+05-1.63573E+03 6.26741E+03-2.49863E+03 1.50948E-09-3.35694E-09
 -1       909 3.37196E+05 1.28025E+04 1.89042E+04 1.08744E+04 6.60057E-09-6.07361E-09
 -1       910 3.15484E+05-1.12411E+04 2.39643E+04-6.05043E+03 6.08463E-09-1.11741E-08
 -1       911 2.90441E+04-2.36914E+02-1.91828E+03-2.28144E+03-7.47787E-09-9.82863E-09
 -1       912 4.27814E+04 1.11178E+02 1.20399E+03 7.95582E+03-2.63731E-09-5.83117E-09
 -1       913 3.21823E+04 1.66228E+01-6.70725E+02-1.85424E+03 8.74991E-10-5.10894E-10
 -1       914 3.78238E+04-8.07985E+01 5.06196E+02 7.24645E+03 1.10072E-09 2.71318E-09
 -1       915 3.38797E+04 4.10511E+01-1.77454E+02-1.57097E+03-2.83694E-09 5.11637E-09
 -1       916 3.53518E+04-5.71945E+01 1.26946E+02 6.83061E+03-6.13358E-09 7.86731E-09
 -1       917 3.45921E+04 3.68901E+01 3.54021E+01-1.43846E+03-4.81268E-09 7.90222E-09
 -1       918 3.47314E+04-2.56187E+01 1.06417E+02 6.71668E+03-1.90811E-09 9.45526E-09
 -1       919 3.44842E+04 2.07568E+01 1.68308E+02-1.45712E+03-4.58519E-09 7.33426E-09
 -1       920 3.58555E+04 7.88714E+01 6.46868E+02 6.90554E+03-4.81083E-09 7.48241E-09
 -1       921 3.34946E+04-8.63795E+01 5.52675E+02-1.62720E+03-1.43345E-09 3.57642E-09
 -1       922 3.92492E+04 8.67149E+02 2.66582E+03 7.39879E+03-1.26272E-09 1.77337E-09
 -1       923 3.11657E+04-8.20055E+02 2.36633E+03-1.95045E+03-1.37788E-10-3.05431E-09
 -1       924 4.73572E+04 6.29722E+03 1.01941E+04 8.22432E+03 5.66729E-09-6.95559E-09
 -1       925 2.55269E+04-5.61114E+03 1.00761E+04-2.45441E+03 4.88706E-09-1.34410E-08
 -1       926-2.35539E+05 5.42201E+03-1.26034E+04 5.99180E+03-5.25689E-09-1.91740E-08
 -1       927-2.39655E+05-6.18265E+03-8.61728E+03-9.89726E+03 2.12274E-08-2.10938E-08
 -1       928-2.39390E+05 8.00799E+02-3.58035E+03 4.85393E+03-2.69026E-09-1.54062E-08
 -1       929-2.32684E+05-8.01417E+02-8.29854E+02-6.03782E+03-1.78703E-08-1.47345E-08
 -1       930-2.42393E+05-4.48415E+01-1.63456E+03 2.13105E+03-3.81812E-09-7.09696E-09
 -1       931-2.29408E+05 1.10369E+02 1.40807E+03 6.30011E+01-2.80679E-09-3.55193E-09
 -1       932-2.42593E+05-1.66790E+02-8.45266E+02-1.24637E+03 2.43995E-09 2.85826E-09
 -1       933-2.31766E+05 2.42752E+02 1.70099E+03 6.25105E+03-6.70440E-10 7.75714E-09
 -1       934-2.40098E+05-1.27545E+02 5.99240E+02-4.05603E+03 1.78593E-09 1.08555E-08
 -1       935-2.36037E+05 7.48508E+02 2.65458E+03 1.03127E+04 3.72972E-09 1.53620E-08
 -1       936-2.38441E+05-5.80363E+02 4.07105E+03-5.30874E+03 2.17177E-09 1.46122E-08
 -1       937-2.34826E+05 4.84932E+03 1.01869E+04 1.08475E+04 1.10192E-08 1.68278E-08
 -1       938-2.41328E+05-4.20935E+03 1.57248E+04-4.59106E+03 1.34221E-08 1.18835E-08
 -1       939-2.18652E+05 3.12910E+04 4.46918E+04 7.74539E+03 6.58117E-09 1.14032E-08
 -1       940-2.54500E+05-2.70800E+04 6.08233E+04-2.20579E+03-1.64960E-09 4.66025E-09
 -1       941 3.17369E+06-1.59459E+05 3.69962E+05 6.60736E+02-6.30433E-07-6.81030E-09
 -1       942 3.33364E+06 1.84666E+05 2.61480E+05 2.28980E+02-1.27814E-06-3.23780E-09
 -1       943 3.23549E+06-2.50057E+04 9.58613E+04 4.57112E+02-8.91212E-07 2.00089E-09
 -1       944 3.26188E+06 2.89445E+04 6.02961E+04 4.40366E+02-4.98365E-07-1.54250E-09
 -1       945 3.24573E+06-3.91422E+03 2.47367E+04 4.49444E+02-2.98042E-07 2.86036E-09
 -1       946 3.25005E+06 4.59651E+03 1.48456E+04 4.48457E+02-1.09468E-07 5.29872E-09
 -1       947 3.24742E+06-6.79171E+02 7.41201E+03 4.49037E+02-7.18422E-09 3.91378E-09
 -1       948 3.24832E+06 1.25741E+03 6.13390E+03 4.48854E+02 9.30540E-08 2.89538E-09
 -1       949 3.24748E+06-5.77518E+02 6.49511E+03 4.49051E+02 4.90761E-07-4.45812E-09
 -1       950 3.24958E+06 3.72254E+03 1.21955E+04 4.47842E+02 8.94229E-07 5.00222E-09
 -1       951 3.24614E+06-3.14253E+03 1.99663E+04 4.50046E+02 3.49182E-06-7.32689E-09
 -1       952 3.25904E+06 2.32065E+04 4.84035E+04 4.19458E+02 6.07947E-06-1.78807E-09
 -1       953 3.23794E+06-2.00449E+04 7.68685E+04 4.77422E+02 3.04116E-06 1.22054E-08
 -1       954 3.31656E+06 1.48026E+05 2.09607E+05-4.39750E+02 5.05816E-09 7.45058E-09
 -1       955 3.18837E+06-1.27827E+05 2.96464E+05 1.30909E+03-1.84696E-08-1.10595E-09
 -1       956-1.65681E+05-2.91325E+03-6.20716E+03 2.23487E+04-2.87582E-09-3.00133E-11
 -1       957-1.66826E+05-9.25232E+02-3.13764E+03 2.60392E+04-9.85892E-10-8.60837E-10
 -1       958-1.66197E+05-1.01274E+02-1.41151E+03 2.22158E+04 1.73168E-09-3.11002E-09
 -1       959-1.66302E+05-9.17587E+00-7.18137E+02 2.61847E+04-1.44337E-09-2.51794E-09
 -1       960-1.66255E+05 3.07169E+01-3.48679E+02 2.22022E+04-7.91624E-09-2.48292E-10
 -1       961-1.66266E+05 3.53081E+01-1.83628E+02 2.61999E+04-1.57406E-08 1.37061E-09
 -1       962-1.66270E+05 3.31809E+01-1.02935E+02 2.22006E+04-6.14045E-09 1.61026E-09
 -1       963-1.66269E+05 3.87851E+01-7.86639E+01 2.62020E+04-2.34786E-09 7.15318E-10
 -1       964-1.66276E+05 3.58745E+01-9.07510E+01 2.22000E+04 6.83258E-10-1.91039E-09
 -1       965-1.66277E+05 4.14016E+01-1.52925E+02 2.62018E+04 3.53904E-09-1.16506E-09
 -1       966-1.66272E+05 3.89961E+01-2.84986E+02 2.22007E+04 1.06528E-08 6.25050E-10
 -1       967-1.66315E+05 1.03647E+01-5.85196E+02 2.61938E+04 2.67800E-08-1.36811E-09
 -1       968-1.66232E+05-6.37203E+01-1.14851E+03 2.22082E+04 1.18766E-08-3.09115E-10
 -1       969-1.66750E+05-7.31240E+02-2.55413E+03 2.61135E+04 8.77662E-10-1.35321E-09
 -1       970-1.65818E+05-2.35032E+03-5.05188E+03 2.22828E+04 2.70938E-09-2.58024E-09
 -1       971-3.14568E+05 3.96149E+03-1.84003E+04 3.31804E+03-2.65345E-09 3.82897E-10
 -1       972-3.21077E+05-5.55474E+03-1.16990E+04 1.23253E+04-1.50749E-09 1.43336E-09
 -1       973-3.17321E+05 3.96717E+02-4.76867E+03 3.24000E+03-4.15116E-09 3.16504E-10
 -1       974-3.18047E+05-5.05155E+02-2.64943E+03 1.24328E+04-5.78893E-10 3.47882E-10
 -1       975-3.17627E+05 4.73130E+01-1.22698E+03 3.20990E+03 1.06661E-09-2.28363E-09
 -1       976-3.17722E+05-2.00436E+01-6.81326E+02 1.24785E+04-3.03294E-09 2.05159E-09
 -1       977-3.17666E+05 1.41368E+01-4.03200E+02 3.19421E+03 4.21358E-09-2.76771E-09
 -1       978-3.17694E+05 2.23660E+01-3.66557E+02 1.24991E+04 1.33311E-08-1.33826E-09
 -1       979-3.17665E+05 1.67831E+01-4.89683E+02 3.18918E+03 7.44258E-09-2.74835E-09
 -1       980-3.17749E+05-3.61318E+01-9.09515E+02 1.24981E+04 6.26287E-09-7.00169E-11
 -1       981-3.17611E+05 6.64460E+01-1.68164E+03 3.19529E+03-1.74566E-09-1.47230E-09
 -1       982-3.18213E+05-7.03568E+02-3.66325E+03 1.24737E+04 5.78495E-10 1.19877E-09
 -1       983-3.17190E+05 5.54677E+02-6.60063E+03 3.21371E+03 3.27304E-09-2.74599E-09
 -1       984-3.22428E+05-7.69551E+03-1.62102E+04 1.23977E+04-2.19632E-09 6.57565E-10
 -1       985-3.13378E+05 5.49985E+03-2.54903E+04 3.27258E+03 4.77576E-09-1.18234E-09
 -3
    1PSTEP                        45          23           1          
  100CL  123 4.76938E-01         841                     0   23           1
 -4  DISP        4    1
 -5  D1          1    2    1    0
 -5  D2          1    2    2    0
 -5  D3          1    2    3    0
 -5  ALL         1    2    0    0    1ALL
 -1         1 6.04136E-05 0.00000E+00 0.00000E+00
 -1         2 4.84724E-05 0.00000E+00 0.00000E+00
 -1         3 4.07163E-05 0.00000E+00 0.00000E+00
 -1         4 3.45366E-05 0.00000E+00 0.00000E+00
 -1         5 3.03227E-05 0.00000E+00 0.00000E+00
 -1         8 4.80249E-05-6.00209E-07 0.00000E+00
 -1         9 3.68480E-05 1.17304E-07 0.00000E+00
 -1        10 3.61552E-05-1.39852E-06 0.00000E+00
 -1        11 3.28304E-05-2.60315E-07 0.00000E+00
 -1        12 2.92083E-05 6.96932E-07 0.00000E+00
 -1        15 2.50690E-05-8.39842E-07 0.00000E+00
 -1        16 2.84970E-05 7.16003E-08 0.00000E+00
 -1        17 2.52486E-05-2.82238E-06 0.00000E+00
 -1        18 2.52377E-05-5.37086E-07 0.00000E+00
 -1        19 2.64226E-05 1.38367E-06 0.00000E+00
 -1        20 2.68182E-05 1.50017E-05 0.00000E+00
 -1        21 2.68040E-05 3.58314E-05 0.00000E+00
 -1        22 1.00085E-05-5.60434E-07 0.00000E+00
 -1        23 1.14207E-05 4.18008E-07 0.00000E+00
 -1        24 1.05685E-05-3.38505E-06 0.00000E+00
 -1        25 2.25732E-05-3.43530E-07 0.00000E+00
 -1        26 2.35650E-05 1.84052E-06 0.00000E+00
 -1        27 2.24225E-05 1.44537E-05 0.00000E+00
 -1        28 2.10520E-05 3.53126E-05 0.00000E+00
 -1        29 0.00000E+00 0.00000E+00 0.00000E+00
 -1        30 1.76121E-06 4.28032E-07 0.00000E+00
 -1        31 1.78072E-06-3.29572E-06 0.00000E+00
 -1        32 0.00000E+00 0.00000E+00 0.00000E+00
 -1        33 1.98903E-05 2.86755E-06 0.00000E+00
 -1        34 1.88567E-05 1.44005E-05 0.00000E+00
 -1        35 1.68834E-05 3.50337E-05 0.00000E+00
 -1        36 5.96893E-05-1.56193E-19 0.00000E+00
 -1        37 5.89430E-05-5.73970E-19-6.61744E-24
 -1        38 5.81980E-05-8.36334E-19-2.64698E-23
 -1        39 5.74488E-05-7.30580E-19-1.32349E-23
 -1        40 5.66996E-05-4.62518E-19 0.00000E+00
 -1        41 5.59494E-05-1.85881E-19-1.32349E-23
 -1        42 5.51992E-05-6.29484E-20-2.64698E-23
 -1        43 5.44489E-05-2.68803E-20 1.32349E-23
 -1        44 5.36985E-05-1.14769E-19 0.00000E+00
 -1        45 5.29482E-05-2.94664E-19 0.00000E+00
 -1        46 5.21980E-05-4.47568E-19 0.00000E+00
 -1        47 5.14483E-05-5.24365E-19 1.32349E-23
 -1        48 5.06988E-05-4.76747E-19 0.00000E+00
 -1        49 4.99522E-05-2.20590E-19-1.32349E-23
 -1        50 4.92046E-05-1.41531E-20 0.00000E+00
 -1        51 5.94721E-05-1.02045E-07 0.00000E+00
 -1        52 5.79194E-05-1.99707E-07 0.00000E+00
 -1        53 5.58738E-05-2.96733E-07 0.00000E+00
 -1        54 5.34596E-05-3.94457E-07 0.00000E+00
 -1        55 5.08015E-05-4.94135E-07 3.30872E-24
 -1        56 5.91776E-05-4.90837E-07 0.00000E+00
 -1        57 5.79088E-05-1.03242E-06 0.00000E+00
 -1        58 5.66442E-05-1.57787E-06-2.64698E-23
 -1        59 5.53629E-05-2.10185E-06 0.00000E+00
 -1        60 5.40617E-05-2.57359E-06 0.00000E+00
 -1        61 5.27294E-05-2.96697E-06 2.64698E-23
 -1        62 5.13591E-05-3.25918E-06 5.29396E-23
 -1        63 4.99432E-05-3.43069E-06-2.64698E-23
 -1        64 4.84768E-05-3.46792E-06-5.29396E-23
 -1        65 4.69566E-05-3.36103E-06 0.00000E+00
 -1        66 4.53815E-05-3.10749E-06-5.29396E-23
 -1        67 4.37531E-05-2.70849E-06-2.64698E-23
 -1        68 4.20739E-05-2.17327E-06 2.64698E-23
 -1        69 4.03556E-05-1.51185E-06 0.00000E+00
 -1        70 3.85956E-05-7.46790E-07 2.64698E-23
 -1        71 4.79918E-05-2.66170E-19 1.32349E-23
 -1        72 4.75063E-05-4.90444E-19 0.00000E+00
 -1        73 4.70212E-05-3.87039E-19 0.00000E+00
 -1        74 4.65351E-05-2.06001E-19 6.61744E-24
 -1        75 4.60490E-05-2.86817E-19 0.00000E+00
 -1        76 4.55627E-05-2.19354E-19 0.00000E+00
 -1        77 4.50765E-05-1.07899E-19 1.32349E-23
 -1        78 4.45901E-05 1.37617E-19 0.00000E+00
 -1        79 4.41038E-05 2.64553E-19 1.32349E-23
 -1        80 4.36176E-05 2.11610E-19-6.61744E-24
 -1        81 4.31314E-05 1.34459E-19-1.32349E-23
 -1        82 4.26456E-05-1.05994E-19-6.61744E-24
 -1        83 4.21598E-05-1.99717E-19 0.00000E+00
 -1        84 4.16759E-05-2.97318E-20 0.00000E+00
 -1        85 4.11913E-05-2.94600E-21 0.00000E+00
 -1        86 4.78821E-05 1.02252E-08 0.00000E+00
 -1        87 4.61236E-05 3.46323E-08 0.00000E+00
 -1        88 4.36722E-05 5.66017E-08 1.65436E-24
 -1        89 4.10021E-05 7.89434E-08 0.00000E+00
 -1        90 3.85738E-05 1.02688E-07 0.00000E+00
 -1        91 4.45998E-05 9.28320E-06 0.00000E+00
 -1        92 3.34122E-05 3.70719E-05 0.00000E+00
 -1        93 2.00742E-05 7.01497E-05 0.00000E+00
 -1        94 9.96637E-06 9.53069E-05 3.30872E-24
 -1        95 6.32557E-06 1.03969E-04 6.61744E-24
 -1        96 1.19542E-05 8.76447E-05 3.30872E-24
 -1        97 2.44942E-05 5.14531E-05-6.61744E-24
 -1        98 4.17620E-05 8.70752E-07 0.00000E+00
 -1        99 5.91497E-05-5.00802E-05 0.00000E+00
 -1       100 7.20585E-05-8.73685E-05 3.30872E-24
 -1       101 7.81891E-05-1.05100E-04-6.61744E-24
 -1       102 7.50491E-05-9.77429E-05-3.30872E-24
 -1       103 6.52789E-05-7.34257E-05-6.61744E-24
 -1       104 5.19520E-05-4.03721E-05 3.30872E-24
 -1       105 4.04956E-05-1.19172E-05 0.00000E+00
 -1       106 4.03352E-05 4.15056E-20 1.32349E-23
 -1       107 3.99485E-05 1.53772E-19 6.61744E-24
 -1       108 3.95622E-05 1.23703E-19-1.32349E-23
 -1       109 3.91749E-05 1.06418E-19 0.00000E+00
 -1       110 3.87875E-05 6.18282E-20-1.32349E-23
 -1       111 3.83999E-05 5.56806E-21 6.61744E-24
 -1       112 3.80122E-05 1.14004E-19 0.00000E+00
 -1       113 3.76246E-05 1.42719E-19-6.61744E-24
 -1       114 3.72369E-05-1.54145E-20 0.00000E+00
 -1       115 3.68493E-05-1.72206E-19 0.00000E+00
 -1       116 3.64618E-05-4.24661E-19 0.00000E+00
 -1       117 3.60745E-05-5.87381E-19-6.61744E-24
 -1       118 3.56873E-05-5.40867E-19 1.32349E-23
 -1       119 3.53015E-05-2.72750E-19 6.61744E-24
 -1       120 3.49152E-05-6.16690E-20 0.00000E+00
 -1       121 4.05898E-05-2.33549E-07 0.00000E+00
 -1       122 4.02095E-05-4.66418E-07-3.30872E-24
 -1       123 3.95751E-05-6.99406E-07-6.61744E-24
 -1       124 3.86873E-05-9.32386E-07 3.30872E-24
 -1       125 3.75468E-05-1.16560E-06 0.00000E+00
 -1       126 3.82807E-05 6.07487E-06 6.61744E-24
 -1       127 3.11259E-05 2.43180E-05-1.65436E-24
 -1       128 2.03423E-05 5.16382E-05 0.00000E+00
 -1       129 7.11789E-06 8.49322E-05-1.65436E-24
 -1       130-6.67693E-06 1.19611E-04-3.30872E-24
 -1       131-1.91515E-05 1.51085E-04-1.65436E-24
 -1       132-2.87906E-05 1.75563E-04 0.00000E+00
 -1       133-3.41585E-05 1.89264E-04-1.65436E-24
 -1       134-3.49475E-05 1.91018E-04 0.00000E+00
 -1       135-3.09045E-05 1.79706E-04 1.65436E-24
 -1       136-2.29221E-05 1.57367E-04 0.00000E+00
 -1       137-1.18560E-05 1.26117E-04 0.00000E+00
 -1       138 7.56985E-07 9.03163E-05 3.30872E-24
 -1       139 1.34201E-05 5.43660E-05 0.00000E+00
 -1       140 2.46268E-05 2.27063E-05 0.00000E+00
 -1       141 3.42745E-05 1.92458E-20-6.61744E-24
 -1       142 3.40097E-05 7.69485E-21-3.30872E-24
 -1       143 3.37450E-05 1.39573E-19-6.61744E-24
 -1       144 3.34798E-05 2.10404E-19 0.00000E+00
 -1       145 3.32146E-05 5.47113E-20 6.61744E-24
 -1       146 3.29493E-05-7.57809E-20 0.00000E+00
 -1       147 3.26839E-05-2.94074E-19 0.00000E+00
 -1       148 3.24186E-05-4.94497E-19-3.30872E-24
 -1       149 3.21533E-05-5.75796E-19 0.00000E+00
 -1       150 3.18882E-05-5.70338E-19 3.30872E-24
 -1       151 3.16231E-05-5.86638E-19 0.00000E+00
 -1       152 3.13585E-05-5.50304E-19 3.30872E-24
 -1       153 3.10941E-05-4.21581E-19 0.00000E+00
 -1       154 3.08325E-05-2.45211E-19-3.30872E-24
 -1       155 3.05700E-05-7.62637E-20 3.30872E-24
 -1       156 3.24539E-05-2.73670E-08 3.30872E-24
 -1       157 2.62921E-05-6.34634E-08-8.27181E-25
 -1       158 1.96767E-05-1.02663E-07 0.00000E+00
 -1       159 1.62330E-05-1.25311E-07 8.27181E-25
 -1       160 1.94549E-05-1.51197E-07 0.00000E+00
 -1       161 3.26319E-05 4.63741E-06 0.00000E+00
 -1       162 2.71377E-05 1.86008E-05 0.00000E+00
 -1       163 1.90387E-05 3.91810E-05 3.30872E-24
 -1       164 9.38504E-06 6.36494E-05 0.00000E+00
 -1       165-2.79526E-07 8.81446E-05 0.00000E+00
 -1       166-8.40997E-06 1.08806E-04 1.65436E-24
 -1       167-1.39497E-05 1.22887E-04 3.30872E-24
 -1       168-1.59016E-05 1.27660E-04 0.00000E+00
 -1       169-1.43399E-05 1.23067E-04 0.00000E+00
 -1       170-9.35900E-06 1.09105E-04-1.65436E-24
 -1       171-2.00100E-06 8.84819E-05 0.00000E+00
 -1       172 6.72297E-06 6.39628E-05 1.65436E-24
 -1       173 1.54368E-05 3.94736E-05 0.00000E+00
 -1       174 2.27652E-05 1.89408E-05 0.00000E+00
 -1       175 2.76988E-05 5.11537E-06 0.00000E+00
 -1       191 3.02790E-05 1.15983E-07 0.00000E+00
 -1       192 3.01753E-05 2.32187E-07 0.00000E+00
 -1       193 3.00137E-05 3.48443E-07 0.00000E+00
 -1       194 2.97967E-05 4.64699E-07 0.00000E+00
 -1       195 2.95272E-05 5.80904E-07 0.00000E+00
 -1       251 4.76469E-05 1.00857E-05 6.61744E-24
 -1       252 4.69608E-05 3.75353E-05-3.30872E-24
 -1       253 4.61657E-05 6.91358E-05 6.61744E-24
 -1       254 4.55949E-05 9.22156E-05 0.00000E+00
 -1       255 4.52349E-05 9.90528E-05-1.32349E-23
 -1       256 4.47604E-05 8.21622E-05 0.00000E+00
 -1       257 4.38442E-05 4.69038E-05 1.32349E-23
 -1       258 4.24172E-05-1.09692E-06 0.00000E+00
 -1       259 4.09988E-05-4.89035E-05-1.32349E-23
 -1       260 4.01016E-05-8.35809E-05-3.30872E-24
 -1       261 3.96393E-05-9.97177E-05 1.32349E-23
 -1       262 3.92744E-05-9.21720E-05 0.00000E+00
 -1       263 3.86934E-05-6.86268E-05 0.00000E+00
 -1       264 3.78977E-05-3.69975E-05 0.00000E+00
 -1       265 3.72203E-05-9.89855E-06 0.00000E+00
 -1       266 4.63053E-05-6.37082E-07-3.30872E-24
 -1       267 4.55069E-05-6.64053E-07 0.00000E+00
 -1       268 4.42872E-05-6.92102E-07 1.65436E-24
 -1       269 4.13042E-05-7.21740E-07 0.00000E+00
 -1       270 3.53122E-05-7.65024E-07 4.13590E-25
 -1       271 4.62755E-05 9.52024E-07-2.64698E-23
 -1       272 4.46682E-05 2.02127E-06 0.00000E+00
 -1       273 4.32201E-05 2.66970E-06 0.00000E+00
 -1       274 4.19053E-05 2.94855E-06-1.32349E-23
 -1       275 4.07066E-05 2.91615E-06 2.64698E-23
 -1       276 3.96014E-05 2.63223E-06 0.00000E+00
 -1       277 3.85669E-05 2.15911E-06 2.64698E-23
 -1       278 3.75792E-05 1.56085E-06 0.00000E+00
 -1       279 3.66139E-05 9.02631E-07-2.64698E-23
 -1       280 3.56465E-05 2.50284E-07-1.32349E-23
 -1       281 3.46526E-05-3.30500E-07 0.00000E+00
 -1       282 3.36082E-05-7.74588E-07 0.00000E+00
 -1       283 3.24892E-05-1.01832E-06-2.64698E-23
 -1       284 3.12765E-05-9.98521E-07 0.00000E+00
 -1       285 2.99423E-05-6.57724E-07 0.00000E+00
 -1       286 3.67961E-05 1.25742E-06-3.30872E-24
 -1       287 3.67530E-05 1.94057E-06-1.65436E-24
 -1       288 3.67096E-05 2.19705E-06-1.65436E-24
 -1       289 3.66678E-05 2.05790E-06 0.00000E+00
 -1       290 3.66259E-05 1.58931E-06-1.65436E-24
 -1       291 3.65842E-05 8.58115E-07-8.27181E-25
 -1       292 3.65424E-05-4.56296E-08 0.00000E+00
 -1       293 3.65006E-05-1.03157E-06-8.27181E-25
 -1       294 3.64588E-05-2.00204E-06 1.65436E-24
 -1       295 3.64171E-05-2.85944E-06 8.27181E-25
 -1       296 3.63754E-05-3.51616E-06 1.65436E-24
 -1       297 3.63337E-05-3.88495E-06-8.27181E-25
 -1       298 3.62920E-05-3.90404E-06 0.00000E+00
 -1       299 3.62488E-05-3.51229E-06 0.00000E+00
 -1       300 3.62058E-05-2.68508E-06 0.00000E+00
 -1       301 3.54525E-05 1.03306E-07 0.00000E+00
 -1       302 3.40490E-05 9.99267E-08 0.00000E+00
 -1       303 3.26447E-05 9.82957E-08 1.65436E-24
 -1       304 3.12465E-05 9.61886E-08 0.00000E+00
 -1       305 2.98617E-05 9.12998E-08 6.61744E-24
 -1       306 3.57530E-05 9.74358E-07 0.00000E+00
 -1       307 3.48083E-05 1.37335E-06 0.00000E+00
 -1       308 3.40101E-05 1.38365E-06 0.00000E+00
 -1       309 3.33305E-05 1.06916E-06 0.00000E+00
 -1       310 3.27469E-05 4.97680E-07 0.00000E+00
 -1       311 3.22334E-05-2.62167E-07 0.00000E+00
 -1       312 3.17640E-05-1.14046E-06 0.00000E+00
 -1       313 3.13125E-05-2.06662E-06 0.00000E+00
 -1       314 3.08524E-05-2.96974E-06 2.64698E-23
 -1       315 3.03573E-05-3.77904E-06-1.32349E-23
 -1       316 2.98009E-05-4.42440E-06 0.00000E+00
 -1       317 2.91578E-05-4.83662E-06 0.00000E+00
 -1       318 2.84024E-05-4.94809E-06 0.00000E+00
 -1       319 2.75128E-05-4.69210E-06 0.00000E+00
 -1       320 2.64613E-05-4.00657E-06-1.32349E-23
 -1       321 3.60406E-05 3.12739E-06-6.61744E-24
 -1       322 3.58877E-05 1.36512E-05 1.65436E-24
 -1       323 3.56808E-05 2.86559E-05 0.00000E+00
 -1       324 3.54281E-05 4.66057E-05-1.65436E-24
 -1       325 3.51615E-05 6.53691E-05 0.00000E+00
 -1       326 3.49181E-05 8.28109E-05 0.00000E+00
 -1       327 3.47221E-05 9.70632E-05 0.00000E+00
 -1       328 3.45831E-05 1.06272E-04 1.65436E-24
 -1       329 3.44786E-05 1.09593E-04 0.00000E+00
 -1       330 3.43739E-05 1.06211E-04-1.65436E-24
 -1       331 3.42314E-05 9.66440E-05 3.30872E-24
 -1       332 3.40218E-05 8.14391E-05 1.65436E-24
 -1       333 3.37481E-05 6.22708E-05 3.30872E-24
 -1       334 3.34302E-05 4.08310E-05-1.65436E-24
 -1       335 3.31098E-05 1.92704E-05 0.00000E+00
 -1       336 3.45245E-05-1.63584E-06 0.00000E+00
 -1       337 3.27351E-05-1.87404E-06 0.00000E+00
 -1       338 3.08497E-05-2.11231E-06 0.00000E+00
 -1       339 2.89314E-05-2.35023E-06 0.00000E+00
 -1       340 2.70434E-05-2.58814E-06 6.61744E-24
 -1       341 3.24214E-05 7.99342E-06 0.00000E+00
 -1       342 2.24898E-05 3.31244E-05 0.00000E+00
 -1       343 8.06188E-06 6.92680E-05-3.30872E-24
 -1       344-8.99586E-06 1.11689E-04-1.65436E-24
 -1       345-2.59205E-05 1.53793E-04 0.00000E+00
 -1       346-3.99522E-05 1.88985E-04 0.00000E+00
 -1       347-4.93166E-05 2.12704E-04 0.00000E+00
 -1       348-5.23951E-05 2.20408E-04 0.00000E+00
 -1       349-4.94496E-05 2.12036E-04 3.30872E-24
 -1       350-4.07754E-05 1.87627E-04-1.65436E-24
 -1       351-2.81773E-05 1.51798E-04 0.00000E+00
 -1       352-1.33524E-05 1.09279E-04 0.00000E+00
 -1       353 1.44141E-06 6.68552E-05 0.00000E+00
 -1       354 1.39436E-05 3.13130E-05-1.65436E-24
 -1       355 2.24714E-05 7.32849E-06-1.65436E-24
 -1       356 3.25392E-05-2.01250E-05 0.00000E+00
 -1       357 3.21920E-05-4.26825E-05 0.00000E+00
 -1       358 3.18390E-05-6.55098E-05 0.00000E+00
 -1       359 3.15309E-05-8.61816E-05 0.00000E+00
 -1       360 3.12949E-05-1.02732E-04 3.30872E-24
 -1       361 3.11378E-05-1.13216E-04 0.00000E+00
 -1       362 3.10259E-05-1.16965E-04-3.30872E-24
 -1       363 3.09144E-05-1.13346E-04 1.65436E-24
 -1       364 3.07615E-05-1.03268E-04 0.00000E+00
 -1       365 3.05406E-05-8.76751E-05-1.65436E-24
 -1       366 3.02645E-05-6.86738E-05 0.00000E+00
 -1       367 2.99645E-05-4.83875E-05 1.65436E-24
 -1       368 2.96850E-05-2.92139E-05-1.65436E-24
 -1       369 2.94660E-05-1.35459E-05 0.00000E+00
 -1       370 2.93097E-05-3.03357E-06 0.00000E+00
 -1       371 4.58644E-05-3.67830E-07 1.65436E-24
 -1       372 4.80684E-05-3.93398E-07 4.13590E-25
 -1       373 4.32406E-05-4.23191E-07 4.13590E-25
 -1       374 3.51853E-05-4.72474E-07 0.00000E+00
 -1       375 2.78642E-05-5.16804E-07 0.00000E+00
 -1       376 4.05326E-05-2.17722E-05 0.00000E+00
 -1       377 5.02524E-05-4.90747E-05 1.65436E-24
 -1       378 6.07713E-05-7.86927E-05 0.00000E+00
 -1       379 7.08852E-05-1.07133E-04 0.00000E+00
 -1       380 7.94759E-05-1.31188E-04 0.00000E+00
 -1       381 8.53970E-05-1.47682E-04 0.00000E+00
 -1       382 8.80749E-05-1.55222E-04 0.00000E+00
 -1       383 8.69201E-05-1.52472E-04-1.65436E-24
 -1       384 8.22179E-05-1.40458E-04 0.00000E+00
 -1       385 7.42929E-05-1.20242E-04-1.65436E-24
 -1       386 6.42692E-05-9.47749E-05-3.30872E-24
 -1       387 5.33193E-05-6.70181E-05 1.65436E-24
 -1       388 4.28571E-05-4.04676E-05-3.30872E-24
 -1       389 3.42859E-05-1.86179E-05-8.27181E-25
 -1       390 2.85189E-05-3.87273E-06-8.27181E-25
 -1       406 2.88326E-05 8.12076E-07 0.00000E+00
 -1       407 2.84151E-05 9.27278E-07 0.00000E+00
 -1       408 2.79604E-05 1.04240E-06 3.30872E-24
 -1       409 2.74734E-05 1.15725E-06-1.65436E-24
 -1       410 2.69591E-05 1.27149E-06 0.00000E+00
 -1       466 2.52326E-05 9.13007E-06 0.00000E+00
 -1       467 2.54398E-05 1.43346E-05 3.30872E-24
 -1       468 2.56584E-05 1.63348E-05-6.61744E-24
 -1       469 2.58804E-05 1.66592E-05 3.30872E-24
 -1       470 2.61024E-05 1.58598E-05 6.61744E-24
 -1       471 2.63240E-05 1.44773E-05 3.30872E-24
 -1       472 2.65452E-05 1.27108E-05 0.00000E+00
 -1       473 2.67660E-05 1.07553E-05 3.30872E-24
 -1       474 2.69866E-05 8.69531E-06 6.61744E-24
 -1       475 2.72070E-05 6.61410E-06 0.00000E+00
 -1       476 2.74273E-05 4.58262E-06 6.61744E-24
 -1       477 2.76471E-05 2.67219E-06 0.00000E+00
 -1       478 2.78671E-05 1.02514E-06 0.00000E+00
 -1       479 2.80834E-05-2.13579E-07 0.00000E+00
 -1       480 2.83017E-05-6.61631E-07 0.00000E+00
 -1       481 1.56827E-05-8.29071E-07 8.27181E-25
 -1       482 1.22241E-05-7.79593E-07-8.27181E-25
 -1       483 1.22778E-05-7.23002E-07 1.65436E-24
 -1       484 1.34377E-05-6.66876E-07-8.27181E-25
 -1       485 1.34375E-05-6.10472E-07 0.00000E+00
 -1       486 1.73763E-05 1.84075E-05-3.30872E-24
 -1       487 4.13829E-06 5.13540E-05 0.00000E+00
 -1       488-9.71052E-06 8.57884E-05 0.00000E+00
 -1       489-1.91887E-05 1.09496E-04 0.00000E+00
 -1       490-2.18567E-05 1.15753E-04 0.00000E+00
 -1       491-1.56414E-05 9.79242E-05 0.00000E+00
 -1       492-2.75043E-06 6.08296E-05 0.00000E+00
 -1       493 1.47740E-05 9.59576E-06-3.30872E-24
 -1       494 3.28272E-05-4.32786E-05 6.61744E-24
 -1       495 4.73466E-05-8.52579E-05 3.30872E-24
 -1       496 5.58471E-05-1.09573E-04 0.00000E+00
 -1       497 5.56179E-05-1.09760E-04-3.30872E-24
 -1       498 4.80556E-05-9.08678E-05 0.00000E+00
 -1       499 3.48801E-05-5.80756E-05 0.00000E+00
 -1       500 2.10073E-05-2.35821E-05-3.30872E-24
 -1       501 2.83413E-05-1.59528E-06 0.00000E+00
 -1       502 2.81671E-05-9.24503E-06-3.30872E-24
 -1       503 2.79511E-05-2.13751E-05 0.00000E+00
 -1       504 2.76980E-05-3.64550E-05 0.00000E+00
 -1       505 2.74367E-05-5.21049E-05-3.30872E-24
 -1       506 2.72015E-05-6.59414E-05-1.65436E-24
 -1       507 2.70074E-05-7.61018E-05 0.00000E+00
 -1       508 2.68527E-05-8.07475E-05 0.00000E+00
 -1       509 2.67075E-05-7.96128E-05 0.00000E+00
 -1       510 2.65383E-05-7.24697E-05-1.65436E-24
 -1       511 2.63296E-05-6.08014E-05 3.30872E-24
 -1       512 2.60826E-05-4.61207E-05 0.00000E+00
 -1       513 2.58268E-05-3.08046E-05-3.30872E-24
 -1       514 2.55951E-05-1.72340E-05 0.00000E+00
 -1       515 2.54032E-05-7.28791E-06-3.30872E-24
 -1       516 2.83464E-05 1.36408E-07 0.00000E+00
 -1       517 3.04970E-05 2.16229E-07 4.13590E-25
 -1       518 3.25158E-05 2.95034E-07 8.27181E-25
 -1       519 3.19697E-05 3.78363E-07-4.13590E-25
 -1       520 2.59235E-05 4.41785E-07-8.27181E-25
 -1       521 2.70642E-05 7.77210E-07-2.64698E-23
 -1       522 2.57607E-05 1.04658E-06-1.32349E-23
 -1       523 2.45956E-05 9.49551E-07 0.00000E+00
 -1       524 2.35402E-05 5.46481E-07-1.32349E-23
 -1       525 2.25741E-05-9.62649E-08 0.00000E+00
 -1       526 2.16717E-05-9.11407E-07 0.00000E+00
 -1       527 2.08078E-05-1.82982E-06 0.00000E+00
 -1       528 1.99562E-05-2.78154E-06-1.32349E-23
 -1       529 1.90908E-05-3.69629E-06 2.64698E-23
 -1       530 1.81855E-05-4.50411E-06 0.00000E+00
 -1       531 1.72145E-05-5.13611E-06 2.64698E-23
 -1       532 1.61532E-05-5.52494E-06 1.32349E-23
 -1       533 1.49768E-05-5.60571E-06 0.00000E+00
 -1       534 1.36659E-05-5.31521E-06 0.00000E+00
 -1       535 1.21932E-05-4.59668E-06 2.64698E-23
 -1       536 2.52398E-05-1.31189E-06 0.00000E+00
 -1       537 2.52378E-05-1.63183E-07 0.00000E+00
 -1       538 2.52362E-05 6.61951E-07 0.00000E+00
 -1       539 2.52357E-05 1.20207E-06 0.00000E+00
 -1       540 2.52354E-05 1.49564E-06-4.13590E-25
 -1       541 2.52354E-05 1.58117E-06 0.00000E+00
 -1       542 2.52354E-05 1.49714E-06 0.00000E+00
 -1       543 2.52354E-05 1.28206E-06 0.00000E+00
 -1       544 2.52355E-05 9.74431E-07 0.00000E+00
 -1       545 2.52355E-05 6.12733E-07-3.23117E-27
 -1       546 2.52355E-05 2.35469E-07-5.16988E-26
 -1       547 2.52356E-05-1.18861E-07 0.00000E+00
 -1       548 2.52357E-05-4.11767E-07 0.00000E+00
 -1       549 2.52361E-05-6.04758E-07 0.00000E+00
 -1       550 2.52364E-05-6.59310E-07 8.27181E-25
 -1       551 2.30511E-05-2.91456E-06-1.86116E-24
 -1       552 2.06060E-05-3.00452E-06 4.13590E-25
 -1       553 1.80231E-05-3.09462E-06 0.00000E+00
 -1       554 1.54147E-05-3.18589E-06 3.30872E-24
 -1       555 1.28931E-05-3.27951E-06 0.00000E+00
 -1       556 2.46031E-05-1.40590E-06 0.00000E+00
 -1       557 2.40826E-05-3.13643E-07 0.00000E+00
 -1       558 2.36731E-05 4.85118E-07 0.00000E+00
 -1       559 2.33615E-05 1.02417E-06-3.30872E-24
 -1       560 2.31349E-05 1.33735E-06 0.00000E+00
 -1       561 2.29803E-05 1.45881E-06 0.00000E+00
 -1       562 2.28848E-05 1.42271E-06 0.00000E+00
 -1       563 2.28356E-05 1.26327E-06 0.00000E+00
 -1       564 2.28199E-05 1.01473E-06 3.30872E-24
 -1       565 2.28247E-05 7.11331E-07 0.00000E+00
 -1       566 2.28372E-05 3.87327E-07 3.30872E-24
 -1       567 2.28447E-05 7.69831E-08 0.00000E+00
 -1       568 2.28344E-05-1.85449E-07 2.48154E-24
 -1       569 2.27936E-05-3.65746E-07-5.81611E-25
 -1       570 2.27099E-05-4.29716E-07 1.24077E-24
 -1       571 2.53090E-05-3.80411E-07-1.24077E-24
 -1       572 2.53823E-05-2.74295E-07-4.13590E-25
 -1       573 2.54563E-05-2.09387E-07 0.00000E+00
 -1       574 2.55305E-05-1.75869E-07 8.27181E-25
 -1       575 2.56049E-05-1.63885E-07-1.65436E-24
 -1       576 2.56793E-05-1.63513E-07 0.00000E+00
 -1       577 2.57537E-05-1.64832E-07 0.00000E+00
 -1       578 2.58281E-05-1.57908E-07 1.65436E-24
 -1       579 2.59026E-05-1.32808E-07 0.00000E+00
 -1       580 2.59770E-05-7.95986E-08 0.00000E+00
 -1       581 2.60514E-05 1.16509E-08 0.00000E+00
 -1       582 2.61258E-05 1.50864E-07 0.00000E+00
 -1       583 2.62002E-05 3.47956E-07 0.00000E+00
 -1       584 2.62745E-05 6.12739E-07 0.00000E+00
 -1       585 2.63487E-05 9.54975E-07 0.00000E+00
 -1       586 2.48573E-05-5.04190E-07-1.65436E-24
 -1       587 2.44206E-05-4.71037E-07 0.00000E+00
 -1       588 2.39505E-05-4.37921E-07 0.00000E+00
 -1       589 2.34704E-05-4.05123E-07-1.03398E-25
 -1       590 2.30036E-05-3.73044E-07 0.00000E+00
 -1       591 2.51231E-05-3.51220E-07 0.00000E+00
 -1       592 2.50170E-05-1.97560E-07 8.27181E-25
 -1       593 2.49200E-05-6.97512E-08 1.65436E-24
 -1       594 2.48301E-05 3.79551E-08 8.27181E-25
 -1       595 2.47455E-05 1.31306E-07 0.00000E+00
 -1       596 2.46641E-05 2.16005E-07 0.00000E+00
 -1       597 2.45838E-05 2.97750E-07 0.00000E+00
 -1       598 2.45024E-05 3.82230E-07 8.27181E-25
 -1       599 2.44179E-05 4.75138E-07 1.65436E-24
 -1       600 2.43281E-05 5.82163E-07 4.13590E-25
 -1       601 2.42309E-05 7.08993E-07 8.27181E-25
 -1       602 2.41242E-05 8.61327E-07 0.00000E+00
 -1       603 2.40059E-05 1.04486E-06-6.20385E-25
 -1       604 2.38741E-05 1.26533E-06 2.58494E-25
 -1       605 2.37270E-05 1.52847E-06 0.00000E+00
 -1       606 2.64500E-05 1.95212E-06 3.30872E-24
 -1       607 2.64756E-05 2.57524E-06 1.65436E-24
 -1       608 2.65006E-05 3.24981E-06 0.00000E+00
 -1       609 2.65254E-05 3.97216E-06 0.00000E+00
 -1       610 2.65500E-05 4.73861E-06 0.00000E+00
 -1       611 2.65746E-05 5.54539E-06 0.00000E+00
 -1       612 2.65991E-05 6.38873E-06 1.65436E-24
 -1       613 2.66235E-05 7.26487E-06-8.27181E-25
 -1       614 2.66480E-05 8.17002E-06 0.00000E+00
 -1       615 2.66724E-05 9.10041E-06 0.00000E+00
 -1       616 2.66968E-05 1.00523E-05 1.65436E-24
 -1       617 2.67212E-05 1.10219E-05-8.27181E-25
 -1       618 2.67456E-05 1.20053E-05 0.00000E+00
 -1       619 2.67699E-05 1.29990E-05-4.13590E-25
 -1       620 2.67942E-05 1.39990E-05 0.00000E+00
 -1       621 2.58904E-05 1.46009E-06 0.00000E+00
 -1       622 2.53734E-05 1.53690E-06 0.00000E+00
 -1       623 2.48769E-05 1.61372E-06 0.00000E+00
 -1       624 2.44065E-05 1.69035E-06 8.27181E-25
 -1       625 2.39675E-05 1.76653E-06-1.65436E-24
 -1       626 2.62564E-05 1.98129E-06 0.00000E+00
 -1       627 2.60678E-05 2.63616E-06 0.00000E+00
 -1       628 2.58595E-05 3.34292E-06 0.00000E+00
 -1       629 2.56339E-05 4.09548E-06 0.00000E+00
 -1       630 2.53933E-05 4.88777E-06 0.00000E+00
 -1       631 2.51402E-05 5.71360E-06 0.00000E+00
 -1       632 2.48767E-05 6.56677E-06 0.00000E+00
 -1       633 2.46052E-05 7.44111E-06 0.00000E+00
 -1       634 2.43282E-05 8.33042E-06 0.00000E+00
 -1       635 2.40478E-05 9.22849E-06 8.27181E-25
 -1       636 2.37665E-05 1.01291E-05 0.00000E+00
 -1       637 2.34864E-05 1.10262E-05 8.27181E-25
 -1       638 2.32100E-05 1.19134E-05-8.27181E-25
 -1       639 2.29394E-05 1.27845E-05 4.13590E-25
 -1       640 2.26766E-05 1.36335E-05 6.20385E-25
 -1       641 2.68188E-05 1.60406E-05-4.13590E-25
 -1       642 2.68185E-05 1.71877E-05 1.03398E-25
 -1       643 2.68182E-05 1.84271E-05 0.00000E+00
 -1       644 2.68176E-05 1.97432E-05 2.58494E-26
 -1       645 2.68170E-05 2.11205E-05 0.00000E+00
 -1       646 2.68162E-05 2.25431E-05 6.46235E-27
 -1       647 2.68154E-05 2.39956E-05 0.00000E+00
 -1       648 2.68146E-05 2.54623E-05 0.00000E+00
 -1       649 2.68138E-05 2.69275E-05 0.00000E+00
 -1       650 2.68129E-05 2.83757E-05-1.29247E-26
 -1       651 2.68121E-05 2.97912E-05 0.00000E+00
 -1       652 2.68113E-05 3.11584E-05 5.16988E-26
 -1       653 2.68105E-05 3.24617E-05 0.00000E+00
 -1       654 2.68091E-05 3.36854E-05 0.00000E+00
 -1       655 2.68081E-05 3.48139E-05 1.65436E-24
 -1       656 2.59200E-05 1.49134E-05 0.00000E+00
 -1       657 2.51457E-05 1.48205E-05 0.00000E+00
 -1       658 2.44523E-05 1.47279E-05 0.00000E+00
 -1       659 2.37962E-05 1.46353E-05-8.27181E-25
 -1       660 2.31341E-05 1.45424E-05 0.00000E+00
 -1       661 2.65292E-05 1.60716E-05-1.65436E-24
 -1       662 2.62123E-05 1.72264E-05 1.65436E-24
 -1       663 2.58686E-05 1.84523E-05-3.30872E-24
 -1       664 2.55032E-05 1.97374E-05-1.65436E-24
 -1       665 2.51203E-05 2.10691E-05 0.00000E+00
 -1       666 2.47246E-05 2.24352E-05-1.65436E-24
 -1       667 2.43204E-05 2.38237E-05-3.30872E-24
 -1       668 2.39125E-05 2.52223E-05 1.65436E-24
 -1       669 2.35053E-05 2.66189E-05 0.00000E+00
 -1       670 2.31035E-05 2.80014E-05-1.65436E-24
 -1       671 2.27115E-05 2.93575E-05 0.00000E+00
 -1       672 2.23338E-05 3.06751E-05 1.65436E-24
 -1       673 2.19751E-05 3.19420E-05 0.00000E+00
 -1       674 2.16393E-05 3.31456E-05 0.00000E+00
 -1       675 2.13320E-05 3.42740E-05-8.27181E-25
 -1       676 2.58422E-05 3.57446E-05-3.30872E-24
 -1       677 2.48809E-05 3.56574E-05 1.65436E-24
 -1       678 2.39208E-05 3.55704E-05 0.00000E+00
 -1       679 2.29622E-05 3.54837E-05 8.27181E-25
 -1       680 2.20058E-05 3.53969E-05 0.00000E+00
 -1       681 1.01026E-05 3.11705E-06-1.65436E-24
 -1       682 1.02055E-05 3.83081E-06 0.00000E+00
 -1       683 1.03079E-05 2.36676E-06 0.00000E+00
 -1       684 1.04078E-05-4.99420E-07 1.65436E-24
 -1       685 1.05046E-05-4.33918E-06-3.30872E-24
 -1       686 1.05994E-05-8.72861E-06 0.00000E+00
 -1       687 1.06930E-05-1.33801E-05 0.00000E+00
 -1       688 1.07868E-05-1.80074E-05 0.00000E+00
 -1       689 1.08820E-05-2.23181E-05 0.00000E+00
 -1       690 1.09794E-05-2.60183E-05 0.00000E+00
 -1       691 1.10799E-05-2.86628E-05 0.00000E+00
 -1       692 1.11831E-05-2.98013E-05 0.00000E+00
 -1       693 1.12857E-05-2.86103E-05 3.30872E-24
 -1       694 1.13791E-05-2.42553E-05-8.27181E-25
 -1       695 1.14405E-05-1.51240E-05 1.65436E-24
 -1       696 5.73023E-06-4.75882E-07 1.65436E-24
 -1       697 3.22296E-06-3.83217E-07-1.65436E-24
 -1       698 1.91045E-06-2.88382E-07 0.00000E+00
 -1       699 1.22170E-06-1.92444E-07 0.00000E+00
 -1       700 7.27634E-07-9.63835E-08 3.30872E-24
 -1       701 5.72329E-06 1.03602E-05 1.65436E-24
 -1       702-3.09516E-06 3.27861E-05 0.00000E+00
 -1       703-1.51096E-05 6.31309E-05 0.00000E+00
 -1       704-2.89007E-05 9.77922E-05 0.00000E+00
 -1       705-4.25338E-05 1.32069E-04 0.00000E+00
 -1       706-5.40792E-05 1.61261E-04-1.65436E-24
 -1       707-6.22123E-05 1.81965E-04 0.00000E+00
 -1       708-6.56961E-05 1.90789E-04 0.00000E+00
 -1       709-6.45228E-05 1.87290E-04-3.30872E-24
 -1       710-5.87199E-05 1.71083E-04 0.00000E+00
 -1       711-4.94184E-05 1.44957E-04 3.30872E-24
 -1       712-3.76984E-05 1.11780E-04-1.65436E-24
 -1       713-2.51849E-05 7.62639E-05 0.00000E+00
 -1       714-1.34805E-05 4.31432E-05 1.65436E-24
 -1       715-4.00777E-06 1.65162E-05 1.65436E-24
 -1       716 1.12593E-05 1.72546E-05 0.00000E+00
 -1       717 1.11532E-05 3.02172E-05-4.13590E-25
 -1       718 1.10871E-05 3.94248E-05 0.00000E+00
 -1       719 1.10468E-05 4.50008E-05 0.00000E+00
 -1       720 1.10191E-05 4.72643E-05-8.27181E-25
 -1       721 1.09935E-05 4.65380E-05 0.00000E+00
 -1       722 1.09635E-05 4.33058E-05 8.27181E-25
 -1       723 1.09251E-05 3.80546E-05-4.13590E-25
 -1       724 1.08788E-05 3.13803E-05 8.27181E-25
 -1       725 1.08267E-05 2.38803E-05-4.13590E-25
 -1       726 1.07732E-05 1.61966E-05 0.00000E+00
 -1       727 1.07225E-05 8.97163E-06-8.27181E-25
 -1       728 1.06785E-05 2.82259E-06-1.65436E-24
 -1       729 1.06405E-05-1.63450E-06 0.00000E+00
 -1       730 1.06103E-05-3.87722E-06 0.00000E+00
 -1       731-3.91140E-06 3.38755E-07 2.06795E-25
 -1       732-1.23920E-05 3.40418E-07-4.13590E-25
 -1       733-1.51287E-05 3.73947E-07 0.00000E+00
 -1       734-1.32190E-05 4.09493E-07 0.00000E+00
 -1       735-7.35924E-06 4.30959E-07 0.00000E+00
 -1       736 1.89321E-06 2.46482E-05-1.65436E-24
 -1       737-1.21299E-05 5.98860E-05 1.65436E-24
 -1       738-2.87807E-05 1.01424E-04 3.30872E-24
 -1       739-4.61054E-05 1.44557E-04 1.65436E-24
 -1       740-6.19640E-05 1.84200E-04 0.00000E+00
 -1       741-7.42667E-05 2.15268E-04 0.00000E+00
 -1       742-8.18747E-05 2.34669E-04 0.00000E+00
 -1       743-8.37588E-05 2.39331E-04 1.65436E-24
 -1       744-8.02440E-05 2.29492E-04 3.30872E-24
 -1       745-7.16694E-05 2.05464E-04 1.65436E-24
 -1       746-5.94408E-05 1.70821E-04 0.00000E+00
 -1       747-4.48882E-05 1.29218E-04 0.00000E+00
 -1       748-2.98053E-05 8.60138E-05 0.00000E+00
 -1       749-1.59686E-05 4.65783E-05-1.65436E-24
 -1       750-4.90547E-06 1.53513E-05 1.65436E-24
 -1       751 1.12725E-05-1.94057E-06 0.00000E+00
 -1       752 1.20227E-05-1.31625E-06 0.00000E+00
 -1       753 1.27702E-05-1.13745E-06 1.32349E-23
 -1       754 1.35264E-05-1.04521E-06 1.32349E-23
 -1       755 1.42828E-05-9.99969E-07 0.00000E+00
 -1       756 1.50410E-05-9.63761E-07 1.32349E-23
 -1       757 1.57994E-05-9.32452E-07-2.64698E-23
 -1       758 1.65581E-05-9.02071E-07 0.00000E+00
 -1       759 1.73168E-05-8.72128E-07-2.64698E-23
 -1       760 1.80753E-05-8.42149E-07-1.32349E-23
 -1       761 1.88337E-05-8.11525E-07 2.64698E-23
 -1       762 1.95909E-05-7.79625E-07 1.32349E-23
 -1       763 2.03479E-05-7.41035E-07 0.00000E+00
 -1       764 2.10989E-05-6.90112E-07-6.61744E-24
 -1       765 2.18519E-05-5.75479E-07-1.32349E-23
 -1       766 7.39035E-06-3.37492E-06 6.61744E-24
 -1       767 1.64584E-06-3.35957E-06-8.27181E-25
 -1       768-4.25978E-06-3.34618E-06 0.00000E+00
 -1       769-7.92210E-06-3.31973E-06 0.00000E+00
 -1       770-6.76857E-06-3.28940E-06 0.00000E+00
 -1       771 9.44732E-06-1.92749E-06 0.00000E+00
 -1       772 8.42834E-06-7.60378E-07 0.00000E+00
 -1       773 7.50753E-06 1.42319E-07 0.00000E+00
 -1       774 6.67547E-06 8.07100E-07 0.00000E+00
 -1       775 5.92261E-06 1.26055E-06 0.00000E+00
 -1       776 5.23898E-06 1.52942E-06 1.32349E-23
 -1       777 4.61453E-06 1.64055E-06 1.32349E-23
 -1       778 4.03917E-06 1.62086E-06 6.61744E-24
 -1       779 3.50279E-06 1.49729E-06 1.32349E-23
 -1       780 2.99526E-06 1.29689E-06 0.00000E+00
 -1       781 2.50644E-06 1.04672E-06 0.00000E+00
 -1       782 2.02626E-06 7.73878E-07 0.00000E+00
 -1       783 1.54464E-06 5.05484E-07 0.00000E+00
 -1       784 1.05195E-06 2.68740E-07 6.61744E-24
 -1       785 5.38588E-07 9.08384E-08 0.00000E+00
 -1       786 2.26312E-05-8.54727E-08 0.00000E+00
 -1       787 2.26930E-05 1.14618E-07 0.00000E+00
 -1       788 2.27548E-05 2.65699E-07 0.00000E+00
 -1       789 2.28171E-05 3.76751E-07 0.00000E+00
 -1       790 2.28795E-05 4.56728E-07 0.00000E+00
 -1       791 2.29420E-05 5.14572E-07 0.00000E+00
 -1       792 2.30046E-05 5.59212E-07 0.00000E+00
 -1       793 2.30671E-05 5.99573E-07 0.00000E+00
 -1       794 2.31297E-05 6.44575E-07-1.65436E-24
 -1       795 2.31923E-05 7.03144E-07 0.00000E+00
 -1       796 2.32548E-05 7.84209E-07-1.65436E-24
 -1       797 2.33174E-05 8.96712E-07-8.27181E-25
 -1       798 2.33798E-05 1.04961E-06 1.65436E-24
 -1       799 2.34421E-05 1.25188E-06-8.27181E-25
 -1       800 2.35043E-05 1.51252E-06 0.00000E+00
 -1       801 2.05884E-05-2.79938E-07 3.30872E-24
 -1       802 1.64458E-05-2.18211E-07 0.00000E+00
 -1       803 1.12298E-05-1.61128E-07 0.00000E+00
 -1       804 6.02645E-06-1.06122E-07 1.65436E-24
 -1       805 1.92174E-06-4.66232E-08 0.00000E+00
 -1       806 2.23977E-05-1.13199E-07 0.00000E+00
 -1       807 2.22290E-05 9.17015E-08 0.00000E+00
 -1       808 2.20673E-05 2.76063E-07 0.00000E+00
 -1       809 2.19113E-05 4.44464E-07 0.00000E+00
 -1       810 2.17595E-05 6.01458E-07 6.61744E-24
 -1       811 2.16101E-05 7.51571E-07-1.65436E-24
 -1       812 2.14617E-05 8.99320E-07 3.30872E-24
 -1       813 2.13124E-05 1.04922E-06 8.27181E-25
 -1       814 2.11606E-05 1.20578E-06-3.30872E-24
 -1       815 2.10047E-05 1.37353E-06-8.27181E-25
 -1       816 2.08429E-05 1.55696E-06 0.00000E+00
 -1       817 2.06735E-05 1.76059E-06-8.27181E-25
 -1       818 2.04949E-05 1.98894E-06-3.30872E-24
 -1       819 2.03056E-05 2.24653E-06-8.27181E-25
 -1       820 2.01041E-05 2.53787E-06-8.27181E-25
 -1       821 2.34980E-05 2.26158E-06 4.13590E-25
 -1       822 2.34268E-05 2.77986E-06 8.27181E-25
 -1       823 2.33556E-05 3.38521E-06 0.00000E+00
 -1       824 2.32837E-05 4.06732E-06 0.00000E+00
 -1       825 2.32117E-05 4.81587E-06-1.65436E-24
 -1       826 2.31395E-05 5.62048E-06 0.00000E+00
 -1       827 2.30673E-05 6.47076E-06 1.65436E-24
 -1       828 2.29950E-05 7.35627E-06-8.27181E-25
 -1       829 2.29227E-05 8.26657E-06 1.65436E-24
 -1       830 2.28504E-05 9.19120E-06 0.00000E+00
 -1       831 2.27781E-05 1.01197E-05 0.00000E+00
 -1       832 2.27059E-05 1.10416E-05 8.27181E-25
 -1       833 2.26338E-05 1.19463E-05 0.00000E+00
 -1       834 2.25622E-05 1.28236E-05 8.27181E-25
 -1       835 2.24906E-05 1.36628E-05 8.27181E-25
 -1       836 2.30842E-05 2.00859E-06 0.00000E+00
 -1       837 2.24559E-05 2.18258E-06 0.00000E+00
 -1       838 2.17513E-05 2.35623E-06 3.30872E-24
 -1       839 2.10414E-05 2.52944E-06 0.00000E+00
 -1       840 2.03974E-05 2.70294E-06 0.00000E+00
 -1       841 2.34089E-05 2.26173E-06 0.00000E+00
 -1       842 2.32115E-05 2.78994E-06-1.03398E-25
 -1       843 2.29785E-05 3.41285E-06-1.03398E-25
 -1       844 2.27145E-05 4.11765E-06-2.58494E-26
 -1       845 2.24245E-05 4.89182E-06-2.58494E-26
 -1       846 2.21131E-05 5.72274E-06-1.29247E-26
 -1       847 2.17851E-05 6.59788E-06-1.29247E-26
 -1       848 2.14451E-05 7.50473E-06-6.46235E-27
 -1       849 2.10979E-05 8.43078E-06-6.46235E-27
 -1       850 2.07482E-05 9.36354E-06 0.00000E+00
 -1       851 2.04006E-05 1.02905E-05-2.58494E-26
 -1       852 2.00598E-05 1.11993E-05 2.58494E-26
 -1       853 1.97306E-05 1.20773E-05 0.00000E+00
 -1       854 1.94173E-05 1.29119E-05 2.06795E-25
 -1       855 1.91251E-05 1.36907E-05-8.27181E-25
 -1       856 2.23414E-05 1.53044E-05 0.00000E+00
 -1       857 2.22562E-05 1.63119E-05 8.27181E-25
 -1       858 2.21709E-05 1.74558E-05 1.65436E-24
 -1       859 2.20849E-05 1.87156E-05-8.27181E-25
 -1       860 2.19987E-05 2.00705E-05 0.00000E+00
 -1       861 2.19122E-05 2.14999E-05 1.65436E-24
 -1       862 2.18257E-05 2.29830E-05 0.00000E+00
 -1       863 2.17391E-05 2.44990E-05-1.65436E-24
 -1       864 2.16524E-05 2.60270E-05 0.00000E+00
 -1       865 2.15658E-05 2.75462E-05-1.65436E-24
 -1       866 2.14793E-05 2.90358E-05 3.30872E-24
 -1       867 2.13929E-05 3.04750E-05 1.65436E-24
 -1       868 2.13066E-05 3.18429E-05 0.00000E+00
 -1       869 2.12208E-05 3.31190E-05 0.00000E+00
 -1       870 2.11351E-05 3.42823E-05-1.65436E-24
 -1       871 2.17578E-05 1.44462E-05 0.00000E+00
 -1       872 2.11491E-05 1.44378E-05 0.00000E+00
 -1       873 2.05759E-05 1.44293E-05-8.27181E-25
 -1       874 2.00168E-05 1.44205E-05-2.06795E-25
 -1       875 1.94507E-05 1.44113E-05 4.13590E-25
 -1       876 2.22239E-05 1.53338E-05 0.00000E+00
 -1       877 2.19799E-05 1.63494E-05 0.00000E+00
 -1       878 2.16920E-05 1.74812E-05 0.00000E+00
 -1       879 2.13675E-05 1.87124E-05-1.65436E-24
 -1       880 2.10122E-05 2.00255E-05 0.00000E+00
 -1       881 2.06327E-05 2.14037E-05 0.00000E+00
 -1       882 2.02350E-05 2.28298E-05 3.30872E-24
 -1       883 1.98258E-05 2.42871E-05 1.65436E-24
 -1       884 1.94111E-05 2.57585E-05 0.00000E+00
 -1       885 1.89975E-05 2.72273E-05-1.65436E-24
 -1       886 1.85911E-05 2.86765E-05 3.30872E-24
 -1       887 1.81983E-05 3.00893E-05 0.00000E+00
 -1       888 1.78255E-05 3.14487E-05 0.00000E+00
 -1       889 1.74783E-05 3.27374E-05 1.65436E-24
 -1       890 1.71641E-05 3.39389E-05-1.65436E-24
 -1       891 2.02305E-05 3.52664E-05 0.00000E+00
 -1       892 1.95739E-05 3.52195E-05 0.00000E+00
 -1       893 1.89966E-05 3.51728E-05 0.00000E+00
 -1       894 1.84129E-05 3.51261E-05 4.13590E-25
 -1       895 1.77370E-05 3.50793E-05-8.27181E-25
 -1       896 1.14245E-07 1.08226E-06 0.00000E+00
 -1       897 2.28323E-07 2.62525E-06-1.65436E-24
 -1       898 3.41855E-07 4.49180E-06-3.30872E-24
 -1       899 4.55110E-07 6.54636E-06-1.65436E-24
 -1       900 5.68157E-07 8.70557E-06 3.30872E-24
 -1       901 6.81173E-07 1.08867E-05 0.00000E+00
 -1       902 7.94301E-07 1.30129E-05 0.00000E+00
 -1       903 9.07687E-07 1.50071E-05 1.65436E-24
 -1       904 1.02150E-06 1.67558E-05-3.30872E-24
 -1       905 1.13583E-06 1.81441E-05-1.65436E-24
 -1       906 1.25072E-06 1.89569E-05 0.00000E+00
 -1       907 1.36579E-06 1.89762E-05-1.65436E-24
 -1       908 1.48002E-06 1.77641E-05 0.00000E+00
 -1       909 1.59023E-06 1.48762E-05-1.65436E-24
 -1       910 1.68990E-06 9.40454E-06-1.65436E-24
 -1       911 1.73660E-06-8.43168E-06 0.00000E+00
 -1       912 1.73712E-06-1.35386E-05 2.06795E-25
 -1       913 1.74863E-06-1.55170E-05 0.00000E+00
 -1       914 1.76183E-06-1.49889E-05-2.06795E-25
 -1       915 1.77240E-06-1.25016E-05 4.13590E-25
 -1       916 1.77861E-06-8.60072E-06 2.06795E-25
 -1       917 1.78110E-06-3.78971E-06 0.00000E+00
 -1       918 1.78162E-06 1.42882E-06 0.00000E+00
 -1       919 1.78254E-06 6.56439E-06-4.13590E-25
 -1       920 1.78613E-06 1.11265E-05-2.06795E-25
 -1       921 1.79377E-06 1.46073E-05-4.13590E-25
 -1       922 1.80547E-06 1.64986E-05 2.06795E-25
 -1       923 1.81860E-06 1.62439E-05-2.06795E-25
 -1       924 1.82726E-06 1.32857E-05 2.58494E-26
 -1       925 1.82081E-06 6.98592E-06-2.06795E-25
 -1       926 1.63015E-06-1.54700E-05 1.65436E-24
 -1       927 1.48033E-06-2.74090E-05 0.00000E+00
 -1       928 1.34280E-06-3.82166E-05 1.65436E-24
 -1       929 1.22395E-06-4.70012E-05 0.00000E+00
 -1       930 1.12332E-06-5.32155E-05 3.30872E-24
 -1       931 1.03654E-06-5.63215E-05 0.00000E+00
 -1       932 9.54373E-07-5.63100E-05 0.00000E+00
 -1       933 8.67456E-07-5.31830E-05-1.65436E-24
 -1       934 7.69824E-07-4.74724E-05 3.30872E-24
 -1       935 6.58861E-07-3.97195E-05 1.65436E-24
 -1       936 5.38820E-07-3.08135E-05 3.30872E-24
 -1       937 4.16086E-07-2.16480E-05-1.65436E-24
 -1       938 2.98913E-07-1.31603E-05 3.30872E-24
 -1       939 1.91489E-07-6.28553E-06-1.65436E-24
 -1       940 9.70461E-08-1.68199E-06-6.61744E-24
 -1       941 1.17870E-06 2.02373E-07 1.32349E-23
 -1       942 2.42266E-06 3.77194E-07-1.32349E-23
 -1       943 3.66248E-06 5.38420E-07 2.64698E-23
 -1       944 4.91474E-06 6.99221E-07 0.00000E+00
 -1       945 6.16735E-06 8.59810E-07-2.64698E-23
 -1       946 7.42244E-06 1.02040E-06-1.32349E-23
 -1       947 8.67782E-06 1.18098E-06 5.29396E-23
 -1       948 9.93363E-06 1.34156E-06 0.00000E+00
 -1       949 1.11895E-05 1.50214E-06 0.00000E+00
 -1       950 1.24450E-05 1.66272E-06-1.32349E-23
 -1       951 1.37003E-05 1.82332E-06 2.64698E-23
 -1       952 1.49536E-05 1.98394E-06 1.32349E-23
 -1       953 1.62067E-05 2.14543E-06-2.64698E-23
 -1       954 1.74498E-05 2.30870E-06 0.00000E+00
 -1       955 1.86962E-05 2.52965E-06 0.00000E+00
 -1       956 1.98270E-05 3.32506E-06 4.13590E-25
 -1       957 1.97627E-05 3.85267E-06 4.13590E-25
 -1       958 1.96981E-05 4.44330E-06 1.24077E-24
 -1       959 1.96334E-05 5.08942E-06 0.00000E+00
 -1       960 1.95686E-05 5.78347E-06 0.00000E+00
 -1       961 1.95038E-05 6.51782E-06-4.13590E-25
 -1       962 1.94389E-05 7.28485E-06 0.00000E+00
 -1       963 1.93741E-05 8.07694E-06-8.27181E-25
 -1       964 1.93092E-05 8.88645E-06-1.65436E-24
 -1       965 1.92443E-05 9.70574E-06 0.00000E+00
 -1       966 1.91794E-05 1.05272E-05-1.65436E-24
 -1       967 1.91145E-05 1.13432E-05 0.00000E+00
 -1       968 1.90497E-05 1.21461E-05 0.00000E+00
 -1       969 1.89849E-05 1.29283E-05 0.00000E+00
 -1       970 1.89204E-05 1.36822E-05 0.00000E+00
 -1       971 1.87370E-05 1.51718E-05 3.30872E-24
 -1       972 1.86139E-05 1.61102E-05-1.65436E-24
 -1       973 1.84907E-05 1.71953E-05 0.00000E+00
 -1       974 1.83668E-05 1.84060E-05-1.65436E-24
 -1       975 1.82427E-05 1.97215E-05-3.30872E-24
 -1       976 1.81185E-05 2.11205E-05 0.00000E+00
 -1       977 1.79941E-05 2.25819E-05 0.00000E+00
 -1       978 1.78697E-05 2.40845E-05 0.00000E+00
 -1       979 1.77452E-05 2.56069E-05 0.00000E+00
 -1       980 1.76208E-05 2.71280E-05 1.65436E-24
 -1       981 1.74964E-05 2.86262E-05 0.00000E+00
 -1       982 1.73722E-05 3.00805E-05 0.00000E+00
 -1       983 1.72482E-05 3.14695E-05-3.30872E-24
 -1       984 1.71250E-05 3.27720E-05 0.00000E+00
 -1       985 1.70019E-05 3.39671E-05 0.00000E+00
 -3
    1PSTEP                        46          23           1          
  100CL  123 4.76938E-01         841                     0   23           1
 -4  STRESS      6    1
 -5  SXX         1    4    1    1
 -5  SYY         1    4    2    2
 -5  SZZ         1    4    3    3
 -5  SXY         1    4    1    2
 -5  SYZ         1    4    2    3
 -5  SZX         1    4    3    1
 -1         1-1.85241E+06-6.13997E+05-3.77993E+05-5.83957E+05-2.57084E-10-3.00740E-10
 -1         2-9.36298E+05-2.33313E+04 1.77314E+04-2.90002E+04-3.36183E-09 1.83900E-09
 -1         3-6.60831E+05-2.04947E+05-3.04982E+04-1.93749E+04 3.44471E-09-2.38015E-09
 -1         4-4.98354E+05-4.00054E+04 5.08612E+03-3.79633E+04 4.10137E-09 4.98858E-10
 -1         5-3.96551E+05 2.72357E+04-1.37371E+05-8.11164E+03 1.05156E-08 2.45711E-09
 -1         8-7.83991E+05-3.08345E+05-8.13124E+04-3.65195E+05-3.45608E-11-6.98492E-10
 -1         9-9.27286E+05-2.33888E+05-8.98722E+04-2.48866E+05 1.41881E-10-2.69210E-10
 -1        10-1.58442E+05-1.57011E+05 6.20317E+04-2.70152E+04-7.46544E-09-1.64528E-09
 -1        11-1.38000E+05-4.48774E+03 1.16839E+04-6.05930E+04-2.53832E-08 8.18242E-10
 -1        12-1.34533E+05 8.27679E+04-7.47110E+04-2.36824E+04 2.05785E-09 7.06560E-10
 -1        15 3.83594E+04 5.33717E+04 1.43675E+04-3.46406E+03-2.70575E-10 6.94126E-09
 -1        16-7.65999E+05-1.40616E+05 1.48328E+04-2.91705E+05 6.87578E-10 4.09591E-09
 -1        17-3.91900E+05-2.50379E+05-4.10355E+04-2.06840E+05-3.25660E-09-2.04939E-10
 -1        18-1.19930E+03-1.20804E+04-1.73628E+04-6.19922E+04 4.77197E-09-1.94116E-09
 -1        19 3.61846E+04 7.52077E+04-1.62131E+04-6.33174E+03-6.96067E-10 1.69378E-09
 -1        20 6.34297E+04-4.81099E+04-8.24839E+03 3.44180E+04 1.85059E-09 6.07542E-10
 -1        21 1.49857E+03-9.51667E+04 2.65674E+04 2.93787E+01 5.41161E-09 9.82219E-10
 -1        22 4.36248E+04 1.09535E+05 8.28172E+03 2.45936E+03-4.89990E-10-2.17096E-09
 -1        23-6.12237E+04 7.94375E+04 1.49065E+04-5.43711E+03-6.55708E-09-2.94525E-09
 -1        24-2.03278E+05-2.94684E+04 1.63709E+05-3.12163E+05-9.71643E-09 2.10275E-09
 -1        25 3.64782E+05 1.23211E+05 1.12314E+05-1.87850E+05 7.20320E-10 2.05546E-10
 -1        26 7.77614E+02 1.00614E+05 5.01573E+03-1.70015E+04-5.57748E-10-1.16036E-09
 -1        27-2.15572E+04-4.01182E+04-1.73038E+04 4.86699E+04-8.45830E-11-1.33878E-09
 -1        28-7.65389E+03-7.57591E+04-4.18207E+02 3.65182E+04-6.46651E-10-4.49658E-10
 -1        29 1.62345E+05 1.41145E+05 5.89513E+02 4.46124E+03-4.10926E-10 4.17231E-10
 -1        30 6.19109E+04 2.35111E+04 7.70900E+03-1.02494E+04 2.72269E-09-1.20424E-08
 -1        31-5.37735E+04 2.81865E+04 1.32386E+04-2.78382E+04 4.13281E-09-1.70021E-08
 -1        32 6.62115E+05 3.32708E+05 4.05898E+05-3.10758E+05 7.18801E-09-2.54295E-09
 -1        33 8.78199E+05 3.48957E+05 2.68895E+05-2.67554E+04-1.73930E-08 8.50378E-11
 -1        34-1.27239E+05-1.55270E+04-2.43420E+03 2.86818E+04-1.65257E-09 1.79989E-09
 -1        35-2.17474E+04-2.53152E+04-4.57856E+02 5.48597E+04 2.89443E-09-5.23869E-10
 -1        36-2.11661E+06 5.97379E+04-1.37990E+05 3.17537E-07 1.16864E-09 4.38740E-09
 -1        37-2.17635E+06-6.91476E+04-9.76684E+04-2.17745E-07 4.94965E-10-8.18545E-10
 -1        38-2.13966E+06 9.36335E+03-3.57014E+04 6.70392E-08-2.64449E-09-4.33465E-09
 -1        39-2.14942E+06-1.08355E+04-2.24549E+04-6.85487E-08 2.92727E-10-1.63118E-09
 -1        40-2.14345E+06 1.46476E+03-9.17494E+03 9.23758E-08 2.49123E-10 7.03949E-10
 -1        41-2.14497E+06-1.71651E+03-5.48258E+03 7.27975E-08-2.00042E-09 1.45081E-09
 -1        42-2.14408E+06 2.50755E+02-2.68760E+03-1.95699E-07-3.24286E-09 2.58956E-09
 -1        43-2.14431E+06-4.44526E+02-2.14582E+03-5.67459E-08-3.74873E-09-1.82460E-10
 -1        44-2.14411E+06 1.93587E+02-2.17669E+03-2.10259E-07-8.81820E-10-1.09571E-09
 -1        45-2.14471E+06-1.22496E+03-4.00284E+03-2.07472E-07 3.30657E-09 1.29347E-09
 -1        46-2.14368E+06 1.03067E+03-6.51171E+03-2.03864E-07 1.22611E-09-3.39014E-10
 -1        47-2.14782E+06-7.60769E+03-1.57975E+04-2.57562E-07-1.85918E-09-5.03655E-09
 -1        48-2.14102E+06 6.57181E+03-2.50754E+04-1.09561E-07-2.67955E-09-4.70936E-09
 -1        49-2.16672E+06-4.85308E+04-6.85566E+04-1.22613E-07-1.38363E-09 6.18093E-09
 -1        50-2.12485E+06 4.19244E+04-9.68671E+04-1.11231E-07-5.69160E-09 1.27329E-09
 -1        51 2.20012E+04-2.63219E+05 3.50148E+04-6.90121E+05 5.82077E-11 1.01863E-09
 -1        52 9.73633E+03-2.59747E+05 2.11653E+04-7.59621E+05 2.25555E-10 6.08634E-09
 -1        53 6.12074E+03-2.66100E+05 1.69761E+04-6.88334E+05-1.09139E-10-8.20728E-09
 -1        54 1.42563E+04-2.63108E+05 2.57440E+04-7.61543E+05-2.32831E-10-1.73022E-08
 -1        55 3.34708E+04-2.71162E+05 4.66404E+04-6.88028E+05 5.09317E-11-1.00626E-08
 -1        56-3.18836E+06-3.59220E+05-2.64649E+05-1.23376E+06 2.58296E-10 9.89530E-10
 -1        57-3.31116E+06-5.76473E+05-1.77580E+05-1.20455E+06 3.23780E-10 1.17871E-09
 -1        58-3.23959E+06-4.42975E+05-6.23104E+04-1.21951E+06-7.20320E-10-5.32600E-09
 -1        59-3.25219E+06-4.77617E+05-3.69426E+04-1.22143E+06 6.45741E-11-2.39197E-09
 -1        60-3.24662E+06-4.54761E+05-1.45610E+04-1.21802E+06-9.66338E-11-1.58207E-09
 -1        61-3.24452E+06-4.63312E+05-8.23906E+03-1.22263E+06-1.38016E-10-1.91937E-09
 -1        62-3.24712E+06-4.56864E+05-4.01631E+03-1.21843E+06 9.85551E-10 1.16700E-09
 -1        63-3.24472E+06-4.60431E+05-3.36032E+03-1.22139E+06 8.52651E-10-2.42274E-09
 -1        64-3.24640E+06-4.57601E+05-3.91181E+03-1.21926E+06 2.40095E-09 1.37459E-09
 -1        65-3.24727E+06-4.60416E+05-7.92772E+03-1.21942E+06 1.21146E-09-1.60912E-09
 -1        66-3.24459E+06-4.56922E+05-1.39738E+04-1.22039E+06 6.54040E-10 1.04774E-09
 -1        67-3.25696E+06-4.71768E+05-3.54186E+04-1.21557E+06 8.62087E-10-5.42241E-09
 -1        68-3.23683E+06-4.46651E+05-5.97375E+04-1.22299E+06 6.14818E-10-3.05590E-09
 -1        69-3.31510E+06-5.64930E+05-1.70229E+05-1.19756E+06 4.03088E-09 8.96762E-10
 -1        70-3.18714E+06-3.66936E+05-2.53710E+05-1.23731E+06 4.00178E-11 1.04774E-09
 -1        71-1.38419E+06 1.30356E+04-3.01383E+04 6.10706E-08-2.00938E-09 5.67525E-10
 -1        72-1.39715E+06-1.50908E+04-2.13275E+04-2.23480E-09 4.41342E-10 2.11503E-09
 -1        73-1.38922E+06 2.04363E+03-7.80738E+03-1.31572E-07-1.25082E-09-1.16870E-10
 -1        74-1.39127E+06-2.36643E+03-4.92498E+03 1.63674E-07-2.52351E-09-1.36140E-09
 -1        75-1.39005E+06 3.21139E+02-2.04463E+03-1.13197E-07-2.28610E-09-1.94859E-10
 -1        76-1.39031E+06-3.85805E+02-1.28360E+03-3.97913E-08-7.17063E-10 4.14559E-10
 -1        77-1.39018E+06 6.44419E+01-7.48064E+02-6.63829E-08-1.23133E-09-2.94418E-09
 -1        78-1.39020E+06-1.70179E+02-8.22722E+02 6.12433E-08-1.73343E-09-4.69088E-09
 -1        79-1.39016E+06 1.05667E+02-1.11699E+03-2.21457E-07 3.87286E-10-1.22293E-09
 -1        80-1.39050E+06-7.40280E+02-2.35178E+03-3.77236E-07-3.75203E-10 8.45873E-09
 -1        81-1.38988E+06 6.34173E+02-3.96715E+03 3.50442E-08-9.32211E-10-1.02818E-09
 -1        82-1.39243E+06-4.69395E+03-9.72909E+03 3.54936E-07 9.08947E-10-2.15482E-09
 -1        83-1.38824E+06 4.05653E+03-1.54760E+04-8.95027E-08-2.02852E-09-2.16460E-10
 -1        84-1.40409E+06-2.99574E+04-4.23273E+04-2.24557E-07-9.16723E-10 4.05407E-09
 -1        85-1.37825E+06 2.58787E+04-5.98178E+04 2.66943E-07-2.00477E-09 1.69166E-09
 -1        86-4.40592E+04 6.33729E+04 1.03594E+05 1.69727E+03-8.73115E-11 2.66536E-09
 -1        87 5.56347E+04 1.11193E+05 8.17157E+04-7.04941E+03-5.17502E-10-2.77777E-09
 -1        88-1.15194E+04 7.88018E+04 4.35153E+04 1.37328E+03-1.13732E-09 1.26654E-09
 -1        89 4.29997E+04 1.04931E+05 6.52085E+04-6.82755E+03-1.81899E-11-2.49796E-09
 -1        90-3.14289E+04 6.96170E+04 7.54237E+04 1.47548E+03-1.24055E-09-8.65938E-10
 -1        91-8.25226E+05-1.75856E+05-1.45005E+04-3.47296E+05 2.29127E-08 6.93035E-10
 -1        92-6.17165E+05 3.36954E+04 5.31324E+04-1.04632E+05 4.48580E-08-2.21166E-09
 -1        93-6.77774E+05-1.38181E+05 1.49921E+03-3.23003E+05-4.00337E-09-5.29599E-09
 -1        94-4.72804E+05 9.31677E+03 6.73872E+04-9.21322E+04-2.24925E-08 3.84739E-09
 -1        95-9.66569E+05-1.54686E+05-6.02984E+04-3.57032E+05-2.42790E-09-3.17016E-09
 -1        96-3.21595E+05-7.10524E+04 7.91582E+04-1.77389E+05 4.35443E-08 3.57653E-09
 -1        97-8.27370E+05-5.94217E+04-1.71119E+04-2.36660E+05 1.16643E-09 6.97685E-09
 -1        98-4.74251E+05-1.64075E+05 3.05813E+04-3.05690E+05-2.48506E-08 1.58176E-08
 -1        99-8.18910E+05-5.64723E+04-1.53184E+04-2.32863E+05 2.81211E-08 7.57154E-11
 -1       100-3.26534E+05-7.55794E+04 7.63816E+04-1.82790E+05 2.75268E-08 5.69139E-09
 -1       101-9.70253E+05-1.52950E+05-6.26766E+04-3.55569E+05 8.70659E-09-2.35354E-09
 -1       102-4.63909E+05 6.05548E+03 6.41728E+04-9.14698E+04-1.43223E-08 4.18368E-09
 -1       103-6.82789E+05-1.36859E+05-8.20490E+03-3.24957E+05-2.10874E-08 9.19499E-10
 -1       104-6.30847E+05 1.60448E+04 2.77951E+04-1.01683E+05 4.84312E-09-1.72076E-09
 -1       105-8.06623E+05-1.59451E+05-4.78177E+04-3.48367E+05 1.30149E-08 6.75936E-09
 -1       106-1.10143E+06 1.50901E+04-3.48889E+04-8.13975E-08 2.79244E-09 1.96451E-10
 -1       107-1.11648E+06-1.74691E+04-2.46887E+04-5.05400E-08-8.73883E-10 2.05182E-09
 -1       108-1.10726E+06 2.36559E+03-9.03461E+03-4.80508E-08 1.62314E-10 1.37970E-09
 -1       109-1.10968E+06-2.73848E+03-5.69119E+03 2.14036E-07 2.90967E-10-1.31877E-09
 -1       110-1.10822E+06 3.70960E+02-2.34593E+03 3.32276E-07-4.06305E-10-1.78125E-09
 -1       111-1.10856E+06-4.40510E+02-1.43972E+03 1.89705E-07-4.53314E-10 1.22667E-09
 -1       112-1.10837E+06 6.92946E+01-7.78704E+02-2.05400E-07 5.86484E-11 4.76101E-09
 -1       113-1.10841E+06-1.57051E+02-7.59662E+02 2.83823E-07 1.36977E-09 2.24887E-09
 -1       114-1.10836E+06 8.76907E+01-9.43403E+02-1.32990E-07-4.77417E-10-2.81744E-10
 -1       115-1.10864E+06-5.98683E+02-1.91654E+03 1.22709E-08-4.13154E-10 2.80323E-10
 -1       116-1.10814E+06 5.10639E+02-3.20414E+03 1.56469E-09-2.18254E-09 2.23281E-10
 -1       117-1.11019E+06-3.77709E+03-7.83540E+03 1.13066E-07 2.75556E-10-4.62080E-09
 -1       118-1.10682E+06 3.26378E+03-1.24573E+04-1.31771E-07-1.74503E-09-2.60934E-09
 -1       119-1.11958E+06-2.41027E+04-3.40603E+04 2.60547E-08-1.02812E-09-1.31513E-09
 -1       120-1.09878E+06 2.08210E+04-4.81336E+04-1.11276E-07-3.54166E-10-1.76442E-09
 -1       121-9.96251E+02-6.66069E+05 4.27852E+03 1.42264E+02-6.28916E-10 3.11729E-09
 -1       122 1.23241E+03-6.64401E+05 2.36215E+03 2.47838E+02-1.52266E-09 2.11912E-09
 -1       123-5.56487E+01-6.65339E+05 2.20036E+02 3.59038E+02-1.58764E-09 4.20550E-09
 -1       124-9.66011E+02-6.65738E+05-1.63792E+03-1.84164E+02-3.25520E-09 2.97678E-09
 -1       125 7.18591E+02-6.64737E+05-3.33908E+03 5.73831E+02-2.73133E-09-2.82944E-09
 -1       126-3.33385E+05-7.45797E+04 1.90410E+04-1.26092E+05 1.68434E-08 8.00355E-11
 -1       127-1.98931E+05 1.87712E+04 4.26793E+04-5.13351E+04 3.58725E-08 4.41514E-09
 -1       128-2.66838E+05-5.64604E+04 4.91062E+03-1.21546E+05 2.00889E-08-8.60837E-10
 -1       129-2.80611E+05-2.25438E+03 8.09964E+03-5.90480E+04 4.73913E-08-5.57975E-10
 -1       130-2.52936E+05-5.26545E+04 1.45059E+03-1.19382E+05 4.85679E-08-1.61714E-09
 -1       131-2.40877E+05-3.24854E+03 1.23341E+04-5.12392E+04-3.11034E-08-7.32814E-09
 -1       132-3.05861E+05-5.59987E+04-1.08129E+04-1.28761E+05-1.29266E-08 3.62218E-09
 -1       133-1.51572E+05-8.34795E+03 2.79207E+04-4.65923E+04 3.86925E-08-4.03929E-10
 -1       134-3.40794E+05-4.86417E+04-1.64922E+04-1.22916E+05 4.01847E-08-3.67720E-09
 -1       135-1.46840E+05-3.44213E+04 2.34284E+04-7.89250E+04 1.76451E-08-7.12095E-09
 -1       136-3.10912E+05-2.96967E+04-7.65184E+03-9.67549E+04-1.48591E-08 2.88594E-10
 -1       137-2.08856E+05-6.29235E+04 5.01297E+03-1.22204E+05-1.90671E-08-5.97620E-09
 -1       138-2.80355E+05-1.89472E+04-1.45579E+03-8.07833E+04 2.97859E-08 7.55153E-09
 -1       139-2.10587E+05-6.34170E+04 1.10129E+03-1.23179E+05-3.30082E-08-3.03931E-08
 -1       140-3.09217E+05-2.91754E+04-1.61670E+04-9.58057E+04-2.81719E-08-3.79259E-09
 -1       141-7.55404E+05 7.44433E+03-1.72183E+04 6.30810E-08-1.16397E-09-6.49379E-10
 -1       142-7.62809E+05-8.61837E+03-1.21905E+04-1.73100E-08-2.54960E-09 4.76803E-10
 -1       143-7.58280E+05 1.16741E+03-4.47667E+03-3.10040E-07-1.51400E-09 1.49589E-09
 -1       144-7.59457E+05-1.35408E+03-2.84715E+03-1.39165E-08-4.55150E-10 2.45154E-09
 -1       145-7.58752E+05 1.85701E+02-1.23199E+03 4.91729E-08-9.28522E-10 8.97558E-11
 -1       146-7.58918E+05-2.37950E+02-8.69102E+02-4.10700E-07-2.09040E-09-8.42590E-10
 -1       147-7.58818E+05 5.21194E+01-6.81380E+02-3.42839E-07-4.38349E-10-1.49590E-09
 -1       148-7.58915E+05-2.12538E+02-1.02877E+03-6.98622E-08 4.79898E-10 4.40423E-10
 -1       149-7.58755E+05 1.60330E+02-1.65079E+03-1.46740E-07-6.03870E-10 3.08114E-09
 -1       150-7.59419E+05-1.16839E+03-3.67530E+03 8.75281E-08-1.95772E-09 3.23382E-10
 -1       151-7.58316E+05 1.00738E+03-6.28251E+03-4.48930E-08 2.45563E-10 1.43655E-09
 -1       152-7.62487E+05-7.46333E+03-1.54639E+04 1.70696E-08 1.13786E-09-1.46156E-09
 -1       153-7.55693E+05 6.45082E+03-2.46156E+04 3.87704E-08 2.34667E-09-8.23093E-10
 -1       154-7.81034E+05-4.76397E+04-6.73232E+04-1.67931E-07 4.29783E-10 4.97494E-10
 -1       155-7.39783E+05 4.11548E+04-9.51263E+04-7.28849E-08 6.09707E-09-1.33150E-09
 -1       156-2.06378E+04-6.22870E+04 4.48947E+04 1.28008E+04 4.26553E-09-1.56206E-09
 -1       157 2.38701E+04-2.19132E+04 3.67465E+04-5.14381E+04 1.14883E-08-1.69462E-09
 -1       158-2.94176E+03-5.11494E+04 1.45608E+04 1.28052E+04 5.80303E-09 3.46631E-10
 -1       159 1.41872E+04 1.57780E+04 2.84053E+04-4.97914E+04 2.54050E-09 5.79973E-10
 -1       160-1.17462E+04-9.89059E+04 5.36497E+03 1.11608E+04-8.37372E-09-1.12118E-09
 -1       161-3.55980E+05-6.69101E+04 7.77061E+03-1.37187E+05-2.24671E-08-3.71983E-10
 -1       162-2.88739E+05-8.74121E+03 2.20186E+04-8.56153E+04-2.76574E-08-6.24163E-09
 -1       163-3.12462E+05-5.91904E+04 2.72037E+03-1.36222E+05 2.51954E-08-6.72503E-09
 -1       164-3.33858E+05-1.72546E+04 4.42518E+03-8.68932E+04-3.91219E-09 1.53742E-09
 -1       165-3.11519E+05-5.78986E+04-2.18340E+02-1.36443E+05-5.18794E-08-6.66068E-09
 -1       166-2.95166E+05-1.96743E+04 9.81642E+03-8.35349E+04-2.30845E-08 3.58494E-09
 -1       167-3.50507E+05-5.72710E+04-8.38239E+03-1.39051E+05 9.70408E-09-7.40670E-10
 -1       168-2.44626E+05-3.18569E+04 1.66443E+04-9.29090E+04 2.08939E-08 3.15765E-11
 -1       169-3.61385E+05-4.62399E+04-9.09886E+03-1.26563E+05-5.03835E-08 3.76252E-09
 -1       170-2.59213E+05-5.69771E+04 7.61358E+03-1.25077E+05-1.11569E-07-5.17088E-09
 -1       171-3.36578E+05-3.16442E+04-4.20590E+03-1.07408E+05 4.95316E-08 2.21028E-08
 -1       172-2.86297E+05-7.39000E+04-6.38781E+03-1.44134E+05 1.93140E-08 7.40931E-09
 -1       173-3.34979E+05-2.87918E+04-1.46511E+04-1.08002E+05-3.83436E-08-2.64663E-09
 -1       174-2.73471E+05-8.15215E+04-2.94388E+04-1.20129E+05 4.22006E-08 6.20048E-09
 -1       175-3.48722E+05-2.45703E+04-6.64136E+04-1.30906E+05 2.14704E-08-2.17915E-09
 -1       191 1.07435E+03 3.32863E+05 1.69201E+03-1.51218E+04-4.98403E-10 4.07454E-10
 -1       192 3.79496E+02 3.33102E+05 9.32332E+02-1.63818E+04-6.47617E-10 1.19690E-09
 -1       193 1.35960E+02 3.32948E+05 6.17829E+02-1.49623E+04-1.28239E-09 1.08776E-08
 -1       194 2.98570E+02 3.33059E+05 7.71804E+02-1.66679E+04-1.53091E-09 2.36796E-08
 -1       195 8.12312E+02 3.32870E+05 1.29357E+03-1.48350E+04-1.86174E-09 1.18034E-08
 -1       251-1.02778E+06-6.77227E+03-4.72623E+04-5.28805E+04 7.58519E-10-7.95444E-09
 -1       252-7.38118E+05 1.05042E+03 2.01791E+04 1.44366E+05 3.13662E-09 1.05440E-08
 -1       253-9.22214E+05 8.27685E+03-9.30076E+03-6.87969E+04-1.64687E-09-1.38955E-08
 -1       254-5.94059E+05 7.66291E+03 5.71232E+04 9.05487E+04-6.02313E-09 6.44468E-09
 -1       255-1.16715E+06-1.81833E+04-5.73318E+04 9.71453E+02-1.42700E-09-1.87799E-09
 -1       256-5.50222E+05 1.28287E+04 6.85424E+04-5.75719E+04 3.42459E-09-1.32908E-08
 -1       257-9.64612E+05 1.68554E+03-1.40655E+04 7.90907E+04-2.62662E-09 1.53448E-08
 -1       258-7.54164E+05 3.62203E+01 2.64651E+04-1.34788E+05-3.33777E-10-1.81751E-08
 -1       259-9.69646E+05 1.16124E+03-1.50959E+04 7.84212E+04-1.23625E-08 1.77623E-08
 -1       260-5.46102E+05 1.31146E+04 6.94787E+04-5.52102E+04-3.39878E-09-1.03856E-08
 -1       261-1.16611E+06-1.80675E+04-5.69570E+04-7.20992E+02 1.65664E-09 3.66686E-09
 -1       262-5.98797E+05 7.46482E+03 5.64732E+04 9.26851E+04-1.45974E-10 6.57178E-09
 -1       263-9.18668E+05 8.51063E+03-7.94796E+03-6.92394E+04-1.31233E-08-9.99421E-09
 -1       264-7.35726E+05 2.36757E+03 2.21892E+04 1.43775E+05-5.41231E-08 9.28543E-09
 -1       265-1.03366E+06-8.38681E+03-4.61382E+04-5.18459E+04-2.27478E-08-1.06847E-08
 -1       266-2.34382E+04-8.30361E+04 5.39858E+04-4.62704E+03 1.09139E-11-2.52984E-09
 -1       267 2.64251E+04-5.74658E+04 3.75171E+04 1.91507E+04 3.18323E-12-5.00633E-09
 -1       268-2.99266E+03-7.47220E+04 1.15741E+04-4.43351E+03-1.36424E-11-2.57162E-09
 -1       269 7.30439E+02-6.09537E+04 4.87457E+03 1.78645E+04 6.36646E-12 7.81186E-09
 -1       270 2.07772E+03-7.93394E+04-7.20729E+03-3.34295E+03 1.50067E-10 1.04803E-08
 -1       271-2.61357E+06-3.32448E+05-2.04002E+05-1.01146E+06 1.05501E-10-1.58616E-09
 -1       272-2.68192E+06-4.63038E+05-1.27916E+05-1.01513E+06 7.02585E-11-4.50018E-09
 -1       273-2.64909E+06-3.76031E+05-4.80958E+04-1.00610E+06 7.72019E-10 5.63341E-09
 -1       274-2.64055E+06-4.05601E+05-2.62424E+04-1.02527E+06 6.85532E-10-1.12823E-09
 -1       275-2.65359E+06-3.80028E+05-1.11733E+04-1.00507E+06 1.36424E-11-4.82032E-10
 -1       276-2.63519E+06-4.00574E+05-5.88159E+03-1.02712E+06 2.72166E-10 4.27826E-09
 -1       277-2.65444E+06-3.80127E+05-3.01476E+03-1.00465E+06 8.99036E-10 1.52568E-10
 -1       278-2.63427E+06-4.00494E+05-2.33463E+03-1.02775E+06 6.47788E-10 2.83480E-09
 -1       279-2.65457E+06-3.80007E+05-2.76745E+03-1.00452E+06-6.56485E-10 1.14926E-09
 -1       280-2.63470E+06-4.00945E+05-5.21352E+03-1.02770E+06-1.12379E-10 2.97553E-09
 -1       281-2.65402E+06-3.79725E+05-9.79511E+03-1.00468E+06 5.38535E-10 2.45564E-10
 -1       282-2.63910E+06-4.05656E+05-2.29781E+04-1.02647E+06-3.04340E-10 4.78849E-10
 -1       283-2.65023E+06-3.76084E+05-4.20725E+04-1.00543E+06 3.45608E-10-2.04636E-09
 -1       284-2.67506E+06-4.56153E+05-1.11919E+05-1.01789E+06 2.14641E-10-4.11092E-09
 -1       285-2.61926E+06-3.37850E+05-1.78483E+05-1.01000E+06 2.76486E-10 9.67702E-10
 -1       286-1.28749E+05-2.27757E+04 5.26557E+04-4.27124E+01 6.93916E-10-1.73168E-09
 -1       287-1.05600E+05 2.63672E+04 3.73012E+04-5.15055E+02-2.72848E-12-1.10776E-09
 -1       288-1.19922E+05-3.57175E+03 1.36228E+04 1.70053E+02-3.53680E-10-7.93989E-10
 -1       289-1.15929E+05 4.13267E+03 8.60140E+03-9.06993E+02 1.35444E-10 1.55842E-09
 -1       290-1.18428E+05-5.58834E+02 3.50977E+03 3.49246E+02 7.82492E-10 3.11275E-10
 -1       291-1.17695E+05 6.56269E+02 2.12043E+03-1.18095E+03 1.16616E-09-5.42855E-12
 -1       292-1.18159E+05-9.65635E+01 1.06190E+03 4.44016E+02 5.13557E-10 1.84698E-09
 -1       293-1.17967E+05 1.83651E+02 8.95645E+02-1.26723E+03-2.46248E-10-4.58208E-10
 -1       294-1.18156E+05-8.60110E+01 9.65779E+02 4.35521E+02 4.44862E-10 8.37986E-10
 -1       295-1.17734E+05 5.64827E+02 1.84589E+03-1.14853E+03 5.81634E-10-1.28915E-09
 -1       296-1.18392E+05-4.78189E+02 3.01077E+03 3.25313E+02 2.73232E-10-8.51628E-10
 -1       297-1.16214E+05 3.53150E+03 7.36120E+03-8.47919E+02 5.70459E-10 3.20597E-10
 -1       298-1.19673E+05-3.05191E+03 1.16377E+04 1.34911E+02 3.87047E-10 1.54114E-09
 -1       299-1.07386E+05 2.25262E+04 3.18735E+04-4.37979E+02-1.27073E-10 2.44881E-09
 -1       300-1.27213E+05-1.94580E+04 4.49778E+04-8.46454E+01 3.83864E-10 3.67436E-10
 -1       301 3.51925E+04 6.21519E+02 7.90831E+04-2.31074E+04-7.09406E-10-1.39664E-10
 -1       302 1.19572E+04 1.55599E+04 4.88459E+04-2.72313E+04-7.67386E-10-1.95353E-10
 -1       303 3.35816E+03 5.89232E+03 3.97227E+04-2.31326E+04-6.68024E-10-3.63309E-09
 -1       304 1.60162E+04 1.80079E+04 5.98609E+04-2.72034E+04-9.14042E-10-5.01768E-09
 -1       305 4.83143E+04-1.81204E+03 1.05768E+05-2.31164E+04-4.72937E-10-3.78759E-09
 -1       306-1.72544E+06-2.26702E+05-1.11909E+05-6.68516E+05-6.88487E-10-7.93079E-10
 -1       307-1.75182E+06-3.09170E+05-7.01281E+04-6.83104E+05 3.66754E-10-3.04135E-09
 -1       308-1.74501E+06-2.50454E+05-2.63972E+04-6.65506E+05-1.33718E-09-2.28465E-09
 -1       309-1.72916E+06-2.77771E+05-1.44062E+04-6.88799E+05-2.07365E-10 2.32831E-10
 -1       310-1.74749E+06-2.52627E+05-6.15584E+03-6.64956E+05 4.29554E-09 7.17591E-09
 -1       311-1.72632E+06-2.74957E+05-3.27952E+03-6.89777E+05 1.01818E-09-5.22448E-10
 -1       312-1.74791E+06-2.52728E+05-1.75922E+03-6.64784E+05 5.44674E-10-1.28959E-09
 -1       313-1.72597E+06-2.74779E+05-1.51272E+03-6.89950E+05 1.09560E-09 1.64732E-09
 -1       314-1.74787E+06-2.52755E+05-1.98925E+03-6.64816E+05-1.57911E-09-2.24009E-09
 -1       315-1.72649E+06-2.74925E+05-3.90855E+03-6.89625E+05-1.08571E-09-2.65186E-09
 -1       316-1.74733E+06-2.52658E+05-7.43993E+03-6.65052E+05 9.09040E-10-2.63753E-11
 -1       317-1.72997E+06-2.78331E+05-1.74707E+04-6.88428E+05-3.29464E-10-1.43700E-10
 -1       318-1.74433E+06-2.50003E+05-3.20309E+04-6.65703E+05-7.55108E-10 2.05546E-10
 -1       319-1.75741E+06-3.16517E+05-8.51149E+04-6.81617E+05-8.35144E-10-2.86127E-09
 -1       320-1.72064E+06-2.21098E+05-1.35804E+05-6.69284E+05-5.72982E-10-1.67347E-10
 -1       321-3.02020E+05-1.52693E+04 2.70970E+04-5.61357E+03-4.20914E-09-8.65839E-10
 -1       322-2.49547E+05 1.73507E+04 2.63585E+04 1.81132E+04-1.91134E-08 5.78643E-09
 -1       323-2.82974E+05-2.14278E+03 7.22239E+03-1.12983E+04 4.13854E-09-6.42649E-09
 -1       324-2.73381E+05 2.42292E+03 5.67573E+03 2.48029E+04 3.68071E-08 6.77380E-09
 -1       325-2.78639E+05-2.46235E+00 2.00191E+03-1.23118E+04-1.10188E-08-8.87792E-09
 -1       326-2.65978E+05 5.13550E+02 3.48643E+03 2.18063E+04-2.11002E-08 5.92392E-09
 -1       327-2.90158E+05-4.06970E+02-1.91736E+03-8.29664E+03 5.77006E-09-4.76714E-09
 -1       328-2.44332E+05 1.00963E+03 6.94645E+03 1.00464E+04 1.36657E-09 6.95680E-09
 -1       329-2.99721E+05-9.41582E+02-4.34550E+03-5.48252E+02-3.75167E-12-1.12003E-09
 -1       330-2.41225E+05 1.06748E+03 7.18798E+03-5.88982E+03-6.16740E-09-2.55928E-09
 -1       331-2.93182E+05-5.29969E+02-3.45519E+03 7.62790E+03 9.54060E-10 4.67455E-09
 -1       332-2.61582E+05-9.11619E-01 2.26473E+03-1.90761E+04-3.65626E-08-8.12921E-09
 -1       333-2.79884E+05 5.34465E+02-2.12287E+03 1.26400E+04-3.21616E-08 7.61327E-09
 -1       334-2.76648E+05-2.71213E+03-4.06088E+03-2.42400E+04-2.63895E-08-7.16204E-09
 -1       335-2.78478E+05 2.46310E+03-7.16527E+03 1.28013E+04 1.65801E-08 9.99444E-09
 -1       336 1.07541E+03-6.76849E+05-5.75404E+03-1.07559E+04-3.53850E-09-1.25374E-09
 -1       337-1.89757E+03-6.79056E+05-5.93081E+03-4.11929E+04-6.41228E-09-4.37535E-09
 -1       338 6.15962E+02-6.77189E+05-6.79359E+03-1.06460E+04-3.83102E-09-1.52204E-09
 -1       339-6.64541E+03-6.81962E+05-1.45790E+04-4.12530E+04-6.42626E-09 3.52730E-09
 -1       340 4.79487E+03-6.73977E+05-2.22165E+04-1.06975E+04-3.40151E-09 3.01725E-09
 -1       341-4.21221E+05-9.20254E+04-3.59567E+03-1.65710E+05 4.62526E-08 5.68798E-09
 -1       342-2.20611E+05 2.72497E+04 4.47586E+04-4.11107E+04 2.17233E-08 1.88288E-09
 -1       343-3.09525E+05-6.94747E+04 2.12598E+03-1.50024E+05-3.84583E-08-2.12212E-08
 -1       344-3.31227E+05 4.40949E+03 9.18695E+03-5.68620E+04 6.55934E-08 8.93311E-09
 -1       345-3.12405E+05-6.78071E+04-2.58049E+03-1.51488E+05 7.40381E-08 4.79375E-10
 -1       346-2.21739E+05 8.41058E+03 2.90801E+04-3.60548E+04-1.08526E-08-9.27866E-09
 -1       347-4.17064E+05-7.49872E+04-2.49017E+04-1.69171E+05 3.92015E-09-6.58247E-10
 -1       348-9.75399E+04-6.71788E+03 4.96476E+04-4.08993E+04 2.11199E-08-8.75730E-10
 -1       349-4.34662E+05-5.41981E+04-2.48861E+04-1.45229E+05 3.74234E-09-2.34957E-09
 -1       350-1.62571E+05-5.79628E+04 2.61444E+04-1.11783E+05 2.54272E-08-1.94816E-08
 -1       351-3.53986E+05-2.22341E+04-5.15318E+03-9.98833E+04-1.34675E-08-2.17501E-08
 -1       352-2.44977E+05-8.91185E+04 6.23312E+02-1.57934E+05-8.34019E-08-5.48829E-08
 -1       353-3.54253E+05-2.14667E+04-1.21613E+04-1.00494E+05 3.42629E-08 6.88033E-10
 -1       354-1.66462E+05-6.62937E+04 5.27387E+03-1.08979E+05-3.73041E-08-6.83599E-09
 -1       355-4.30460E+05-4.66770E+04-6.28111E+04-1.47386E+05-1.17643E-08 3.41970E-10
 -1       356-2.95822E+05 2.86285E+03-8.92263E+03 1.40851E+04 4.85312E-09 5.93673E-09
 -1       357-2.92084E+05-3.23429E+03-4.84453E+03-2.73489E+04 4.53252E-08-9.20915E-09
 -1       358-2.95586E+05 7.13739E+02-2.43026E+03 1.44181E+04 2.22898E-08 1.26103E-08
 -1       359-2.75862E+05-7.39049E+01 2.36006E+03-2.22114E+04-1.51609E-08-3.99140E-09
 -1       360-3.11655E+05-6.01605E+02-4.11407E+03 8.93662E+03-3.43043E-08 8.19099E-09
 -1       361-2.50461E+05 1.27410E+03 8.33263E+03-7.29706E+03-4.58801E-08-4.93770E-10
 -1       362-3.20334E+05-1.14825E+03-5.63993E+03-4.99799E+02-4.23279E-09-4.86317E-10
 -1       363-2.53666E+05 1.07985E+03 7.53280E+03 1.11679E+04-2.29920E-08 2.06842E-09
 -1       364-3.08535E+05-3.41165E+02-3.80900E+03-9.51321E+03-3.20350E-08-4.25808E-09
 -1       365-2.80589E+05-5.27927E+02 6.20570E+02 2.47002E+04 5.03131E-08 6.26730E-09
 -1       366-2.94103E+05 1.00440E+03-3.56731E+03-1.40371E+04-3.77667E-08-7.59701E-09
 -1       367-2.91428E+05-4.26654E+03-7.91154E+03 2.77775E+04-4.45205E-08 7.41602E-09
 -1       368-2.97934E+05 3.58288E+03-1.51705E+04-1.25964E+04-1.46861E-08-1.04237E-08
 -1       369-2.78954E+05-2.48267E+04-3.25686E+04 1.92084E+04-3.61512E-08 3.68527E-09
 -1       370-3.05997E+05 2.10899E+04-5.91942E+04-5.45647E+03-4.06931E-09-4.26735E-09
 -1       371-1.17639E+04-1.11830E+05 5.23941E+02 1.21381E+04-9.25320E-09 1.46701E-09
 -1       372 1.01219E+04 1.42177E+04 2.07666E+04-5.42245E+04 5.91899E-09 7.11293E-09
 -1       373 1.14099E+03-5.55904E+04-4.47831E+01 1.41056E+04 6.88578E-09 5.50983E-10
 -1       374-4.45309E+03-3.89729E+04-2.94183E+03-5.60207E+04 1.33572E-08 4.24370E-09
 -1       375 3.66608E+03-5.98269E+04-1.25437E+04 1.39283E+04 5.80803E-09 5.78621E-09
 -1       376-2.73701E+05-2.54163E+04-1.04431E+04-8.67454E+04-3.27307E-09 2.85308E-09
 -1       377-2.17111E+05-5.80115E+04-1.77240E+03-1.15414E+05 1.73233E-08-8.07552E-09
 -1       378-2.62165E+05-2.15471E+04-1.46674E+03-7.97581E+04 9.10848E-09 1.05064E-08
 -1       379-2.07870E+05-5.34648E+04 3.79290E+03-1.09918E+05 3.69712E-08-1.12009E-09
 -1       380-2.82723E+05-3.01262E+04-5.66779E+03-9.20878E+04 2.96815E-08-3.89670E-09
 -1       381-1.72809E+05-3.31048E+04 1.51705E+04-8.01123E+04 1.71529E-08 9.00111E-09
 -1       382-2.96271E+05-4.26191E+04-1.04080E+04-1.08860E+05 1.00499E-10 8.70529E-09
 -1       383-1.84076E+05-1.55333E+04 1.63511E+04-5.91092E+04-2.90741E-08 3.34697E-09
 -1       384-2.71372E+05-4.77539E+04-6.97526E+03-1.12985E+05 8.23213E-08-9.85204E-09
 -1       385-2.41964E+05-1.13082E+04 5.10766E+03-6.01276E+04 1.01721E-07-8.82051E-09
 -1       386-2.39287E+05-4.61752E+04-2.32707E+03-1.08537E+05-5.79027E-08-5.56099E-09
 -1       387-2.67083E+05-1.38889E+04-4.04110E+03-6.30470E+04 4.87051E-08-1.04458E-08
 -1       388-2.46654E+05-4.48803E+04-1.13399E+04-1.10391E+05 4.54086E-08-3.83620E-08
 -1       389-2.29770E+05-2.79604E+04-1.62814E+04-5.51627E+04-4.27549E-08-1.18998E-08
 -1       390-2.75850E+05-3.26667E+04-4.93811E+04-1.15812E+05-2.23672E-08 6.89397E-10
 -1       406 6.77730E+02 3.30253E+05 1.52749E+03-2.76063E+04-2.32467E-09-2.67346E-09
 -1       407 4.84609E+02 3.30532E+05 1.98978E+03-3.02768E+04-2.79283E-09-3.10592E-10
 -1       408 8.47016E+02 3.30181E+05 3.38712E+03-2.74925E+04-2.76304E-09-9.88803E-09
 -1       409 3.40806E+03 3.31500E+05 7.33621E+03-3.04430E+04-3.24985E-09-2.01503E-08
 -1       410 9.81072E+03 3.29243E+05 1.48246E+04-2.74328E+04-3.15413E-09-1.06825E-08
 -1       466 6.15294E+05-2.46690E+04 5.23246E+04 1.34571E+04 4.33147E-10 1.35769E-08
 -1       467 6.63126E+05 2.80250E+04 4.13229E+04-2.14937E+04-4.14985E-10 3.85808E-09
 -1       468 6.34519E+05-3.49008E+03 1.39752E+04 3.76396E+03-7.01277E-10 1.08139E-09
 -1       469 6.41039E+05 3.98493E+03 9.16118E+03-8.45061E+03 5.93786E-10 4.23029E-10
 -1       470 6.37141E+05-5.03051E+02 3.73906E+03 4.12142E+02 1.56393E-09-9.81117E-10
 -1       471 6.38042E+05 6.16077E+02 2.41389E+03-3.95574E+03 3.26180E-09-5.31884E-10
 -1       472 6.37489E+05-1.05680E+02 1.50665E+03-7.31006E+02-9.53548E-11-3.30313E-09
 -1       473 6.37752E+05 3.56829E+02 1.81092E+03-2.50132E+03 1.62083E-09-3.96382E-09
 -1       474 6.37427E+05-2.41767E+02 2.61008E+03-1.04229E+03 7.81486E-10-2.91993E-09
 -1       475 6.38478E+05 1.76136E+03 5.60028E+03-2.33705E+03 4.44609E-10-4.51678E-10
 -1       476 6.36762E+05-1.50913E+03 9.49660E+03-8.95278E+02 2.15375E-09-2.59024E-09
 -1       477 6.43157E+05 1.12141E+04 2.33113E+04-3.26711E+03-1.78618E-10-3.46063E-10
 -1       478 6.32743E+05-9.68815E+03 3.70656E+04-1.12198E+02 2.66049E-10-1.69166E-09
 -1       479 6.71726E+05 7.16988E+04 1.01470E+05-6.50291E+03 2.97475E-09-1.49157E-10
 -1       480 6.08203E+05-6.19460E+04 1.43114E+05 2.34041E+03 3.97088E-09 3.49974E-09
 -1       481-7.33144E+03 1.43476E+05 9.32946E+03-1.03543E+04-1.81899E-10-1.22213E-09
 -1       482 7.71998E+03 1.84665E+05 1.34189E+04 3.47770E+04-9.95897E-11 3.51690E-09
 -1       483-5.85479E+02 1.62557E+05 4.44873E+03-7.71143E+03-5.63887E-11 7.76282E-10
 -1       484 3.21142E+03 1.71174E+05 6.38535E+03 3.30219E+04-8.30767E-11 2.47439E-10
 -1       485-2.63701E+03 1.56689E+05 4.03123E+03-8.59704E+03 7.04858E-12-1.82530E-09
 -1       486-6.28710E+05-1.12823E+05-7.77361E+04-2.94422E+05-1.01136E-09 6.99947E-09
 -1       487-5.72690E+05-6.15573E+03-1.25252E+04-8.00978E+04 4.08272E-09 2.00162E-08
 -1       488-6.00039E+05-1.19139E+05-2.30724E+04-2.84850E+05-4.74449E-09-4.63115E-09
 -1       489-3.53130E+05 9.00003E+03 5.75327E+04-6.30653E+04 5.89898E-09-9.07698E-09
 -1       490-8.44283E+05-1.31808E+05-6.01711E+04-3.07958E+05 2.81580E-09 3.53111E-09
 -1       491-2.38473E+05-6.00724E+04 7.18426E+04-1.44565E+05-5.49699E-09 1.73000E-08
 -1       492-7.13756E+05-5.09460E+04-1.78314E+04-2.02888E+05-7.21093E-09 3.37860E-08
 -1       493-4.06799E+05-1.47095E+05 2.29361E+04-2.68219E+05 2.45237E-10 6.05140E-08
 -1       494-6.80912E+05-4.00308E+04-9.51182E+03-1.88207E+05-4.30055E-09 1.69150E-08
 -1       495-2.65229E+05-7.79410E+04 6.32901E+04-1.69207E+05-4.61387E-09 8.33961E-09
 -1       496-8.51185E+05-1.24099E+05-5.96588E+04-2.98667E+05-2.20507E-09 4.83078E-09
 -1       497-3.07103E+05 6.36619E+03 6.67832E+04-6.35423E+04-4.26428E-09-2.34195E-11
 -1       498-6.38346E+05-1.24971E+05-2.97850E+04-2.93009E+05 1.18178E-08-1.51940E-08
 -1       499-5.71010E+05-3.79918E+03-8.30201E+03-8.04795E+04 1.11521E-08-2.52494E-08
 -1       500-5.92075E+05-1.09357E+05-6.30241E+04-2.85873E+05-1.29958E-08 2.73085E-08
 -1       501-4.36906E+05-2.37858E+04 4.69436E+04 4.53105E+03-6.17285E-09-6.27915E-09
 -1       502-3.75855E+05 2.71563E+04 4.03640E+04-1.72434E+04-6.47060E-09-1.42827E-08
 -1       503-4.14600E+05-3.39998E+03 1.23702E+04 1.29129E+04-1.06287E-08-1.83090E-08
 -1       504-4.02695E+05 3.93279E+03 9.06294E+03-2.66806E+04-9.20345E-09-2.23708E-08
 -1       505-4.10462E+05-1.63923E+02 3.18569E+03 1.39739E+04 8.14703E-09-2.32349E-08
 -1       506-3.93354E+05 9.66911E+02 4.98532E+03-2.08256E+04 1.96912E-08-1.59408E-08
 -1       507-4.23716E+05-7.44284E+02-2.08788E+03 7.05367E+03 1.59071E-09-9.26383E-09
 -1       508-3.76923E+05 1.27021E+03 6.94694E+03-2.74333E+03 3.63707E-09-4.64451E-09
 -1       509-4.26501E+05-8.84237E+02-3.26712E+03-4.10647E+03-1.28466E-08 4.27622E-09
 -1       510-3.87794E+05 6.90376E+02 4.45648E+03 1.70239E+04-3.78876E-09 1.68665E-08
 -1       511-4.13073E+05 1.33822E+02-5.22377E+02-1.27076E+04-1.01638E-08 1.91977E-08
 -1       512-4.04482E+05 1.46844E+02 1.29277E+03 2.67967E+04-2.51497E-08 2.26235E-08
 -1       513-4.10211E+05 7.65114E+01 5.23964E+02-1.38848E+04-5.30187E-09 1.85939E-08
 -1       514-3.92903E+05 2.77073E+03 5.16504E+03 2.11554E+04-7.04497E-09 1.81596E-08
 -1       515-4.24428E+05-2.78185E+03-5.45565E+02-7.06232E+03-6.24709E-09 1.24489E-08
 -1       516-4.72080E+04 2.20791E+05 1.09272E+05-8.59093E+03-4.36557E-10 5.99243E-10
 -1       517 5.56650E+04 2.76716E+05 8.15001E+04 3.62300E+04-1.07593E-09-7.77897E-09
 -1       518-8.35663E+03 2.37924E+05 3.40122E+04-8.60314E+03 1.21781E-09 4.45823E-10
 -1       519 2.40000E+04 2.94418E+05 4.35259E+04 4.24169E+04-5.45904E-09-9.48830E-10
 -1       520-1.60894E+04 2.03862E+05 2.46148E+04-1.47857E+04-1.42791E-09-1.40762E-08
 -1       521-2.61096E+06-3.37026E+05-1.77671E+05-1.00700E+06-1.14596E-09-6.18456E-10
 -1       522-2.66561E+06-4.55593E+05-1.11395E+05-1.01579E+06-5.86738E-10-2.64117E-09
 -1       523-2.64189E+06-3.74970E+05-4.18800E+04-1.00233E+06 2.12964E-10 1.21690E-09
 -1       524-2.62968E+06-4.05505E+05-2.28599E+04-1.02455E+06 8.74479E-10-1.61890E-10
 -1       525-2.64574E+06-3.78511E+05-9.73340E+03-1.00151E+06 1.20099E-09 1.09048E-09
 -1       526-2.62518E+06-4.00944E+05-5.14490E+03-1.02595E+06-1.50055E-09-1.21520E-09
 -1       527-2.64636E+06-3.78728E+05-2.66673E+03-1.00127E+06 3.97335E-11-1.04279E-09
 -1       528-2.62465E+06-4.00588E+05-2.13116E+03-1.02613E+06-9.43402E-10-1.26158E-09
 -1       529-2.64628E+06-3.78807E+05-2.61075E+03-1.00135E+06 5.75938E-10-1.22782E-09
 -1       530-2.62541E+06-4.00648E+05-4.98367E+03-1.02560E+06 5.88966E-09-2.44108E-09
 -1       531-2.64553E+06-3.78758E+05-9.41240E+03-1.00174E+06 4.70527E-09-4.34738E-10
 -1       532-2.63002E+06-4.04760E+05-2.20757E+04-1.02389E+06 9.84301E-10-2.30921E-09
 -1       533-2.64165E+06-3.75498E+05-4.04500E+04-1.00270E+06 2.05318E-09-2.77760E-09
 -1       534-2.66501E+06-4.52814E+05-1.07559E+05-1.01506E+06-1.73713E-10-2.25555E-09
 -1       535-2.61163E+06-3.39029E+05-1.71571E+05-1.00739E+06-9.00400E-10-4.36557E-10
 -1       536-6.45102E+03-8.79221E+03 4.02812E+04-7.35548E+03 6.60293E-10-6.00267E-11
 -1       537 8.07929E+03 1.21259E+04 2.56451E+04-2.58480E+04-2.06137E-09-1.46747E-09
 -1       538-4.51669E+02-9.23427E+02 1.04103E+04-7.25568E+03-1.49157E-10 1.01500E-09
 -1       539 1.27707E+03 1.11506E+03 5.78208E+03-2.59524E+04 1.29603E-09 1.35321E-09
 -1       540 1.91824E+02-1.18184E+02 2.61404E+03-7.24711E+03 4.04725E-11-5.63887E-10
 -1       541 4.47485E+02 9.67342E+01 1.36842E+03-2.59606E+04-1.58252E-10 5.78780E-10
 -1       542 2.63125E+02-1.77549E+01 6.26674E+02-7.24770E+03 7.77618E-11 9.03128E-10
 -1       543 2.96012E+02 1.74333E+01 2.82921E+02-2.59597E+04 6.93490E-12 1.56103E-09
 -1       544 2.71052E+02 3.61063E+00 5.49105E+01-7.24802E+03-5.17275E-11 2.11526E-09
 -1       545 2.42882E+02 7.72706E-01-1.44175E+02-2.59593E+04-4.27917E-10 1.83763E-09
 -1       546 2.86457E+02 2.01145E+01-3.94371E+02-7.24810E+03-2.07137E-10 1.02102E-09
 -1       547 1.24485E+02-1.77467E+02-9.35605E+02-2.59560E+04-1.94404E-10 4.42242E-11
 -1       548 4.02091E+02 1.42046E+02-1.71971E+03-7.25136E+03-3.06477E-09 1.09469E-09
 -1       549-9.44509E+02-2.02073E+03-4.23858E+03-2.58995E+04-5.29815E-09 1.52500E-09
 -1       550 1.41056E+03 1.42127E+03-6.68315E+03-7.30446E+03-2.92175E-09 1.29148E-09
 -1       551 1.07886E+04-2.46972E+05 2.35031E+04-3.66178E+05 3.94721E-10 7.56700E-10
 -1       552 5.55686E+03-2.43084E+05 1.92579E+04-4.30187E+05-1.07320E-09 3.95812E-09
 -1       553 3.72899E+03-2.46652E+05 2.32858E+04-3.65562E+05 1.09139E-11 2.21416E-09
 -1       554 1.49382E+04-2.37645E+05 4.44831E+04-4.30278E+05-4.07454E-10 8.91305E-10
 -1       555 4.09829E+04-2.52813E+05 8.46136E+04-3.66016E+05 1.92813E-10-1.61708E-09
 -1       556-1.75178E+05-9.21686E+04 1.60156E+04-1.65555E+05 2.05546E-10 2.86309E-09
 -1       557-1.60760E+05-1.07765E+05 7.89682E+03-1.76649E+05 3.98359E-10-1.36652E-09
 -1       558-1.75493E+05-9.73716E+04 3.31336E+03-1.62471E+05-3.39423E-09-2.90856E-09
 -1       559-1.62312E+05-1.10336E+05 1.62949E+03-1.77224E+05-1.79716E-09-3.56749E-10
 -1       560-1.75710E+05-9.73877E+04 7.20084E+02-1.62467E+05-4.62023E-09 2.53181E-09
 -1       561-1.62656E+05-1.10359E+05 3.41753E+02-1.77470E+05-3.33239E-09 1.66062E-08
 -1       562-1.75881E+05-9.72689E+04 1.17904E+02-1.62581E+05-3.30510E-09 4.97039E-10
 -1       563-1.62833E+05-1.10284E+05-1.15833E+01-1.77596E+05 4.92037E-10-1.28330E-09
 -1       564-1.75977E+05-9.71973E+04-1.62164E+02-1.62651E+05 5.46788E-09 5.35238E-09
 -1       565-1.62932E+05-1.10247E+05-4.10925E+02-1.77656E+05 3.90901E-09-5.39967E-09
 -1       566-1.75979E+05-9.71668E+04-8.79728E+02-1.62667E+05 2.99963E-09-1.92267E-09
 -1       567-1.63088E+05-1.10336E+05-1.94608E+03-1.77641E+05 3.80169E-10-2.88128E-09
 -1       568-1.75816E+05-9.74620E+04-4.00209E+03-1.62510E+05 7.42148E-10-1.16415E-09
 -1       569-1.65241E+05-1.12757E+05-9.43838E+03-1.77014E+05 2.67300E-09 5.70071E-09
 -1       570-1.74916E+05-1.04683E+05-1.92295E+04-1.59427E+05 2.70666E-09 5.40012E-09
 -1       571 2.11966E+05 9.89465E+03 1.50047E+04-5.46441E+04-7.53062E-10-1.17916E-09
 -1       572 2.14240E+05 3.39416E+03 7.36405E+03-6.01330E+04-2.40107E-09-2.31648E-09
 -1       573 2.12882E+05 7.73556E+02 3.27474E+03-5.44996E+04-1.16279E-09 3.53384E-09
 -1       574 2.13150E+05 2.42584E+02 1.64327E+03-6.02918E+04 1.53250E-09 9.27230E-10
 -1       575 2.12981E+05 2.31219E+01 7.76623E+02-5.44811E+04 2.30148E-09-7.63521E-10
 -1       576 2.13006E+05 8.00603E-01 3.96648E+02-6.03126E+04 1.67779E-09 5.37966E-10
 -1       577 2.12997E+05-1.30179E+01 1.97653E+02-5.44788E+04 1.18689E-10-1.59753E-09
 -1       578 2.12993E+05-1.08000E+01 1.11831E+02-6.03151E+04-5.25915E-10 1.61072E-09
 -1       579 2.13014E+05-1.64828E+01 7.57858E+01-5.44786E+04-3.99268E-10-1.47838E-09
 -1       580 2.13018E+05-1.99822E+01 8.29443E+01-6.03121E+04 1.87811E-10 9.78162E-10
 -1       581 2.13044E+05-2.65227E+01 1.25995E+02-5.44817E+04-6.73936E-10-2.19143E-09
 -1       582 2.13080E+05-5.45581E+00 2.49423E+02-6.02793E+04-2.82853E-10 1.25920E-09
 -1       583 2.13073E+05 5.94833E+01 4.84810E+02-5.45115E+04 2.00089E-11-9.99080E-10
 -1       584 2.13297E+05 4.33472E+02 1.08823E+03-6.00259E+04-7.97627E-10-3.70301E-09
 -1       585 2.12989E+05 1.38340E+03 2.21009E+03-5.47364E+04 8.43102E-10 2.24099E-09
 -1       586 1.75797E+03 9.56952E+04 3.17818E+03-1.29823E+05 3.00133E-10-1.00044E-10
 -1       587 9.96200E+02 9.62286E+04 3.11573E+03-1.43222E+05 1.18871E-09 1.48771E-09
 -1       588 1.22140E+03 9.56428E+04 4.51753E+03-1.29655E+05 2.32831E-10 1.38061E-09
 -1       589 4.39208E+03 9.73486E+04 9.32282E+03-1.43273E+05 1.37243E-09 2.18500E-09
 -1       590 1.23651E+04 9.45170E+04 1.86166E+04-1.29768E+05 4.13820E-10 9.07221E-10
 -1       591-9.79609E+04-3.31863E+04-1.93294E+04-4.96980E+04 1.14562E-09-1.97724E-09
 -1       592-9.87372E+04-3.07917E+04-9.49640E+03-5.52553E+04-7.15090E-11 2.30102E-09
 -1       593-9.85552E+04-2.61600E+04-4.02987E+03-5.29338E+04 3.51497E-09-1.82513E-09
 -1       594-9.66697E+04-2.81988E+04-1.97200E+03-5.55862E+04 6.09361E-09-7.18841E-09
 -1       595-9.86495E+04-2.59072E+04-9.08092E+02-5.30770E+04 8.67976E-09 3.71648E-09
 -1       596-9.65153E+04-2.80974E+04-4.60418E+02-5.55721E+04 2.91516E-09-1.05867E-08
 -1       597-9.86674E+04-2.59210E+04-2.50408E+02-5.30780E+04 3.99331E-09-2.95950E-09
 -1       598-9.64995E+04-2.80988E+04-1.99886E+02-5.55651E+04 2.19734E-09-4.36557E-11
 -1       599-9.86655E+04-2.59218E+04-2.53177E+02-5.30771E+04 1.17820E-08-1.20849E-08
 -1       600-9.65130E+04-2.80989E+04-4.67845E+02-5.55695E+04 1.99906E-08-3.52168E-08
 -1       601-9.86432E+04-2.59093E+04-9.23345E+02-5.30741E+04 1.71794E-08 2.53067E-10
 -1       602-9.66689E+04-2.82014E+04-2.00603E+03-5.55787E+04 4.53497E-09-3.69891E-09
 -1       603-9.85429E+04-2.61709E+04-4.09936E+03-5.29289E+04 5.74391E-09 2.17096E-09
 -1       604-9.87903E+04-3.08174E+04-9.65934E+03-5.52142E+04 3.57431E-10 1.53909E-09
 -1       605-9.79141E+04-3.33358E+04-1.96604E+04-4.96575E+04 1.74168E-09 7.87986E-09
 -1       606 7.20433E+04-8.57539E+03-1.29836E+04 2.09148E+04-3.85353E-09-1.09412E-09
 -1       607 7.00394E+04-2.94043E+03-6.37006E+03 2.27965E+04-5.29781E-10-2.16369E-09
 -1       608 7.12118E+04-6.67856E+02-2.83290E+03 2.07754E+04 3.25417E-09 8.03652E-10
 -1       609 7.09419E+04-1.94829E+02-1.41907E+03 2.29498E+04-1.16916E-09 2.10071E-09
 -1       610 7.10975E+04-2.52634E+00-6.69019E+02 2.07573E+04-5.06770E-09-1.39494E-09
 -1       611 7.10438E+04 2.63007E+01-3.36631E+02 2.29693E+04-8.65475E-09-5.32737E-10
 -1       612 7.10712E+04 3.54481E+01-1.59799E+02 2.07552E+04-3.80805E-09-3.20824E-09
 -1       613 7.10505E+04 3.80813E+01-7.35117E+01 2.29719E+04-5.26688E-09 1.55842E-09
 -1       614 7.10591E+04 3.46387E+01-2.14272E+01 2.07547E+04-3.12866E-10-3.29669E-09
 -1       615 7.10471E+04 4.02781E+01 1.99342E+01 2.29721E+04 4.73847E-09 9.69067E-10
 -1       616 7.10501E+04 3.96771E+01 7.00864E+01 2.07550E+04-2.28283E-09 9.35643E-10
 -1       617 7.10557E+04 6.79905E+01 1.65352E+02 2.29714E+04-1.02318E-10 3.67208E-10
 -1       618 7.10335E+04 1.20415E+02 3.37548E+02 2.07553E+04-8.03084E-10-1.62390E-09
 -1       619 7.11627E+04 3.98296E+02 7.63669E+02 2.29680E+04-1.45684E-09-2.68847E-09
 -1       620 7.09332E+04 1.07033E+03 1.55826E+03 2.07570E+04 1.46827E-10-1.74282E-09
 -1       621 1.40448E+03 2.20585E+05 3.59633E+03-1.77711E+04-1.73532E-09-4.88626E-10
 -1       622 5.50591E+02 2.21271E+05 3.12495E+03-2.09743E+04-1.78579E-09 1.24714E-09
 -1       623 3.47268E+02 2.20720E+05 4.02200E+03-1.77969E+04-1.56501E-09 1.92040E-09
 -1       624 2.30072E+03 2.22335E+05 7.88240E+03-2.08693E+04-1.48975E-09-1.73213E-09
 -1       625 7.06318E+03 2.19540E+05 1.51152E+04-1.78743E+04-1.31695E-09-1.44792E-09
 -1       626 1.05316E+05 3.45202E+04-5.02251E+03 7.06210E+04-7.58700E-09-1.50994E-08
 -1       627 1.02639E+05 3.84399E+04-2.37997E+03 7.20804E+04-9.37234E-10-3.27304E-10
 -1       628 1.05443E+05 3.70001E+04-9.99461E+02 6.93888E+04 1.00226E-08-5.85419E-09
 -1       629 1.02991E+05 3.94891E+04-4.78851E+02 7.20029E+04 2.08906E-08 3.62721E-09
 -1       630 1.05432E+05 3.71756E+04-2.10371E+02 6.92842E+04 8.72024E-09-5.17673E-09
 -1       631 1.03012E+05 3.95695E+04-9.24673E+01 7.20020E+04-5.04019E-09-1.44075E-09
 -1       632 1.05419E+05 3.71829E+04-2.20883E+01 6.92731E+04-1.08739E-08-1.09280E-08
 -1       633 1.03011E+05 3.95743E+04 3.26660E+01 7.20017E+04 3.35513E-09 5.47686E-10
 -1       634 1.05409E+05 3.71783E+04 1.04171E+02 6.92708E+04 7.92625E-10-1.84195E-09
 -1       635 1.03023E+05 3.95779E+04 2.44381E+02 7.20037E+04 1.33087E-09-8.42874E-10
 -1       636 1.05398E+05 3.71910E+04 5.10764E+02 6.92620E+04-5.08768E-09-9.74524E-09
 -1       637 1.03146E+05 3.97211E+04 1.14342E+03 7.19809E+04 1.30558E-09 3.06136E-09
 -1       638 1.05373E+05 3.76219E+04 2.37168E+03 6.90749E+04 2.14595E-09-7.29415E-10
 -1       639 1.04354E+05 4.18611E+04 5.64659E+03 7.14503E+04-3.93186E-09-8.07563E-09
 -1       640 1.05442E+05 4.37909E+04 1.19146E+04 6.65158E+04-3.25690E-09-6.90079E-09
 -1       641 1.58323E+03 2.13696E+03-4.94478E+03-5.49220E+01-4.60914E-09 1.84900E-09
 -1       642-5.49435E+02-2.47353E+03-3.49401E+03 2.25723E+02-1.80946E-09 1.29467E-09
 -1       643 7.59306E+02 3.34791E+02-1.27487E+03-5.39241E+01-4.77012E-09 2.70364E-09
 -1       644 4.09482E+02-3.86243E+02-7.91790E+02 2.24426E+02 8.89258E-10 5.17571E-09
 -1       645 6.24137E+02 5.14326E+01-3.05104E+02-5.36269E+01 5.48847E-10 3.54582E-09
 -1       646 5.69630E+02-5.41284E+01-1.44344E+02 2.24010E+02-3.48126E-08 3.81796E-09
 -1       647 5.99082E+02 2.96904E+00 1.45603E+00-5.35079E+01-8.99336E-06 1.44090E-08
 -1       648 6.14932E+02 2.91274E+01 1.38719E+02 2.23878E+02-1.79358E-05 2.81696E-08
 -1       649 5.78813E+02-3.17603E+01 3.12977E+02-5.34954E+01-8.99602E-06 1.42728E-08
 -1       650 7.30357E+02 2.44480E+02 7.57219E+02 2.23844E+02-2.59180E-08 1.47949E-10
 -1       651 4.83684E+02-2.12265E+02 1.31748E+03-5.34741E+01-1.83600E-09 3.89218E-09
 -1       652 1.38168E+03 1.57440E+03 3.26015E+03 2.23425E+02 1.30878E-10 5.04195E-09
 -1       653-7.24080E+01-1.36073E+03 5.19323E+03-5.30775E+01 5.00123E-10 2.55318E-09
 -1       654 5.29774E+03 1.00491E+04 1.42058E+04 2.20435E+02-3.44993E-09-2.24873E-10
 -1       655-3.43171E+03-8.68013E+03 2.00771E+04-5.04900E+01-5.00199E-10-6.23913E-10
 -1       656 6.47117E+03-2.62976E+05-3.11343E+04 8.41128E+03-7.78527E-10 1.19326E-09
 -1       657-9.84691E+03-2.74154E+05-2.25511E+04 2.93822E+04-3.05863E-09 4.71209E-09
 -1       658 1.21119E+03-2.66992E+05-1.44584E+04 8.35179E+03-1.83394E-09 1.70405E-09
 -1       659-9.04035E+03-2.73685E+05-2.10951E+04 2.94199E+04-4.52224E-09 2.05256E-09
 -1       660 5.85719E+03-2.63468E+05-2.83570E+04 8.37417E+03-5.67525E-10 1.40994E-09
 -1       661 2.53218E+05 3.27705E+04 2.07013E+04 9.90916E+04 1.98497E-09 1.18143E-09
 -1       662 2.57904E+05 4.82691E+04 1.29788E+04 1.02075E+05 5.60502E-09-2.20803E-09
 -1       663 2.56732E+05 3.72748E+04 4.88620E+03 9.86546E+04 1.68677E-09 3.38196E-09
 -1       664 2.53859E+05 4.22994E+04 2.67279E+03 1.02905E+05-1.39499E-09 7.39647E-10
 -1       665 2.57117E+05 3.77536E+04 1.14521E+03 9.86291E+04-1.50033E-09 9.28026E-10
 -1       666 2.53415E+05 4.16840E+04 6.19807E+02 1.02957E+05-1.20292E-09 3.55658E-09
 -1       667 2.57160E+05 3.78081E+04 3.48415E+02 9.86322E+04-8.53390E-09 2.79208E-09
 -1       668 2.53375E+05 4.16286E+04 3.28170E+02 1.02956E+05-2.20263E-09-2.62958E-09
 -1       669 2.57156E+05 3.78043E+04 4.63015E+02 9.86317E+04 1.45772E-09 2.41170E-09
 -1       670 2.53452E+05 4.17245E+04 9.35974E+02 1.02958E+05 9.48444E-09-2.47923E-09
 -1       671 2.57085E+05 3.77193E+04 1.78810E+03 9.86283E+04 3.54078E-10 1.01056E-09
 -1       672 2.54159E+05 4.26926E+04 4.20988E+03 1.02871E+05 9.19187E-10-4.94992E-10
 -1       673 2.56472E+05 3.69667E+04 7.70872E+03 9.86715E+04 7.89471E-09-2.51248E-09
 -1       674 2.60546E+05 5.21151E+04 2.04865E+04 1.01555E+05 1.25033E-09 7.03949E-10
 -1       675 2.50925E+05 2.98565E+04 3.26790E+04 9.93598E+04-2.06182E-09-1.65164E-09
 -1       676 4.65353E+02-2.48034E+05-2.76335E+03 1.32947E+02-5.92667E-09-2.94413E-11
 -1       677-1.04722E+03-2.49084E+05-3.34967E+03-1.16320E+02-6.08256E-09-5.01244E-09
 -1       678 3.73961E+02-2.48078E+05-4.42383E+03 1.32595E+02-2.56614E-09-7.07434E-10
 -1       679-4.70635E+03-2.51303E+05-1.00052E+04-1.16091E+02-7.23139E-09-3.53385E-09
 -1       680 3.31700E+03-2.45816E+05-1.54380E+04 1.31983E+02-3.64707E-09-1.10397E-10
 -1       681 2.90209E+05-7.56908E+03 1.55822E+04 4.37179E+03 1.30740E-10 1.28239E-10
 -1       682 3.06985E+05 8.61069E+03 1.27745E+04-1.16326E+04-7.76481E-11-1.26443E-09
 -1       683 2.96398E+05-1.08030E+03 4.10448E+03 1.32280E+03 9.81970E-11 1.51067E-09
 -1       684 2.99467E+05 1.23921E+03 2.87685E+03-7.22966E+03 5.32907E-11-2.23224E-09
 -1       685 2.97629E+05-1.39238E+02 1.09994E+03-3.12821E+01 2.94840E-10 3.01941E-09
 -1       686 2.98006E+05 1.79631E+02 7.05880E+02-5.51130E+03 3.53570E-10-2.40068E-09
 -1       687 2.97837E+05-6.59805E+00 4.10602E+02-3.95489E+02 4.59658E-10 3.01036E-09
 -1       688 2.97971E+05 3.79892E+01 4.43568E+02-5.58736E+03 7.57627E-10-2.59559E-09
 -1       689 2.97666E+05 1.76316E+00 5.68021E+02 4.47767E+01-1.53364E-10 2.64322E-09
 -1       690 2.99158E+05 1.92449E+02 1.40791E+03-7.49517E+03 3.85771E-09 1.88166E-10
 -1       691 2.96676E+05-1.78203E+02 1.90976E+03 1.51225E+03 3.56133E-09 1.41313E-09
 -1       692 3.04776E+05 2.04141E+03 6.11893E+03-1.21905E+04 3.71688E-09 1.57172E-09
 -1       693 2.92159E+05-1.91900E+03 7.24601E+03 4.74039E+03 5.49107E-10-3.14822E-09
 -1       694 3.30750E+05 1.70489E+04 2.74464E+04-2.20338E+04-1.02866E-08 5.87147E-09
 -1       695 2.71154E+05-1.54684E+04 2.71302E+04 1.13624E+04-1.06324E-08-1.12032E-08
 -1       696-6.39708E+03 2.70899E+05 1.40571E+04-3.43841E+03 7.54881E-11-2.38958E-09
 -1       697 7.17274E+03 2.80411E+05 1.02528E+04 7.93804E+03 1.22782E-10-2.78362E-10
 -1       698-7.97787E+02 2.74776E+05 3.09696E+03-1.88504E+03-1.06866E-10 2.78391E-10
 -1       699-4.99459E+01 2.75564E+05 6.82382E+02 6.13325E+03-1.50862E-10 6.49365E-10
 -1       700 8.43394E+02 2.75712E+05-1.51430E+03-1.63347E+03-1.24601E-10 2.84160E-10
 -1       701-3.15326E+05-4.65683E+04-4.92970E+04-1.34715E+05 8.73115E-10 1.58070E-09
 -1       702-2.44097E+05-1.67072E+04-9.22854E+03-4.95992E+04-3.28293E-09-2.75613E-08
 -1       703-2.62972E+05-5.24261E+04-9.69882E+03-1.24050E+05 8.78708E-09 3.83475E-08
 -1       704-2.92891E+05-8.33133E+03-2.30425E+03-6.05170E+04 2.16444E-08 5.38159E-08
 -1       705-2.67477E+05-5.42306E+04-3.96620E+03-1.24586E+05 1.31607E-08 4.61566E-08
 -1       706-2.28363E+05-4.37914E+03 1.43091E+04-5.05871E+04-2.47194E-08 2.78942E-09
 -1       707-3.26410E+05-5.71924E+04-1.42361E+04-1.33077E+05-5.17161E-09 1.15049E-08
 -1       708-1.47499E+05-1.36078E+04 2.88434E+04-5.32338E+04 1.13079E-08 4.53065E-09
 -1       709-3.47106E+05-4.59372E+04-1.59774E+04-1.21022E+05-8.65657E-09 3.70386E-09
 -1       710-1.67258E+05-4.40641E+04 1.86150E+04-9.36713E+04 1.33315E-08-1.58399E-08
 -1       711-3.07474E+05-2.61226E+04-5.91880E+03-9.33313E+04 3.28612E-09 4.48580E-08
 -1       712-2.26119E+05-6.97962E+04-6.11668E+02-1.30908E+05-1.16350E-08 9.16022E-08
 -1       713-2.89694E+05-1.91036E+04-7.06500E+03-8.48235E+04-1.50762E-08 5.41922E-09
 -1       714-2.07829E+05-6.94134E+04-9.48361E+03-1.15588E+05-1.19439E-08-1.52622E-08
 -1       715-3.25194E+05-2.69476E+04-4.13334E+04-1.08249E+05-4.76757E-09-2.03454E-08
 -1       716-7.82261E+04-1.30623E+02-2.75329E+03-1.06456E+03 1.72290E-08-9.73716E-09
 -1       717-5.76029E+04 4.74131E+01 1.95700E+03-2.33586E+03 3.22984E-09 1.66274E-09
 -1       718-7.74118E+04-1.10276E+02-1.55751E+03 2.36941E+02 2.86053E-09-3.99861E-09
 -1       719-6.05098E+04 2.64792E+01 1.93419E+03-4.77841E+03 6.42262E-09-6.03372E-10
 -1       720-7.53948E+04-5.43387E+01-8.32083E+02 1.37444E+03 1.62572E-10 1.25910E-09
 -1       721-6.49570E+04 1.35327E+01 1.33804E+03-6.75881E+03 7.85508E-09-1.25149E-09
 -1       722-7.30782E+04-1.42307E+01-3.23211E+01 2.21561E+03 5.30548E-09 4.02517E-09
 -1       723-6.89361E+04 1.32084E+02 1.18387E+03-8.06639E+03 3.97665E-09-3.17044E-09
 -1       724-7.15188E+04-9.75282E+01 1.38893E+03 2.68212E+03 1.23958E-08 5.40604E-09
 -1       725-7.03632E+04 1.02888E+03 3.34891E+03-8.58976E+03 9.05355E-09-1.43655E-09
 -1       726-7.16991E+04-8.75184E+02 5.71204E+03 2.73942E+03 9.64790E-09 6.23754E-09
 -1       727-6.64672E+04 6.82963E+03 1.43551E+04-8.29667E+03 1.23768E-08-1.39380E-09
 -1       728-7.53864E+04-5.91373E+03 2.21860E+04 2.38878E+03 3.90591E-09 3.48882E-09
 -1       729-4.58432E+04 4.38105E+04 6.24474E+04-7.32481E+03 1.71478E-09-3.91083E-11
 -1       730-9.22186E+04-3.78898E+04 8.60297E+04 1.76715E+03 4.23694E-09-2.32831E-10
 -1       731-8.64271E+03 8.43793E+04 1.02568E+04-5.91576E+03-8.62383E-09-5.33873E-09
 -1       732 9.74157E+03 1.48101E+05 1.82938E+04 1.52826E+04 2.52612E-09-7.86713E-11
 -1       733-1.51458E+03 9.96197E+04 3.19998E+03-3.08967E+03-1.95826E-09 2.13049E-10
 -1       734 4.22718E+03 1.27829E+05 9.30433E+03 1.04478E+04 2.83038E-09-6.89715E-09
 -1       735-2.83056E+03 1.04213E+05 5.35851E+03-1.07212E+03 2.23804E-09-4.92724E-09
 -1       736-2.84015E+05-5.48773E+04-3.17502E+04-1.28315E+05 2.47728E-08-2.34559E-08
 -1       737-2.35834E+05 9.13596E+02-8.09436E+02-3.77431E+04 7.53245E-08 2.13123E-08
 -1       738-2.27953E+05-5.08303E+04-4.00908E+03-1.14911E+05 1.17917E-08 6.41755E-08
 -1       739-2.57738E+05 1.74011E+03 2.89929E+03-4.32294E+04-6.67382E-08-9.81981E-09
 -1       740-2.62527E+05-5.53966E+04-7.78547E+03-1.23185E+05-1.20943E-08-3.46621E-08
 -1       741-1.48022E+05 7.47421E+03 2.70731E+04-2.33516E+04-1.15773E-09-3.24006E-08
 -1       742-3.35771E+05-5.79630E+04-2.14262E+04-1.33224E+05-8.99695E-09-3.26361E-09
 -1       743-6.81891E+04-6.98970E+03 4.00940E+04-3.20483E+04 2.56819E-09 7.99298E-09
 -1       744-3.41187E+05-4.18204E+04-1.93536E+04-1.13699E+05 2.53001E-08-2.05019E-08
 -1       745-1.21916E+05-4.43630E+04 2.21522E+04-8.58622E+04 3.77327E-08 1.51589E-08
 -1       746-2.83572E+05-1.94597E+04-4.78126E+03-8.06330E+04 2.97052E-08 8.13993E-08
 -1       747-1.95022E+05-6.96289E+04 1.58170E+03-1.26398E+05-1.07995E-08 1.62365E-08
 -1       748-2.69818E+05-1.52429E+04-4.44766E+03-7.43682E+04 2.90599E-08 1.75298E-08
 -1       749-1.52715E+05-5.65559E+04 5.79338E+03-1.03326E+05-5.56810E-09 1.98947E-08
 -1       750-3.24858E+05-3.33065E+04-3.20662E+04-1.03008E+05-1.59051E-08-1.92485E-08
 -1       751 2.11690E+06-1.23150E+05 2.85364E+05 5.33932E+03-2.42648E-08 4.36557E-10
 -1       752 2.24108E+06 1.42590E+05 2.01848E+05-5.75504E+03-3.08654E-09-5.67525E-10
 -1       753 2.16491E+06-1.92959E+04 7.39288E+04 6.00795E+02-1.98262E-09 6.33008E-10
 -1       754 2.18530E+06 2.23331E+04 4.64865E+04-5.32989E+02 2.75962E-09 1.49794E-09
 -1       755 2.17280E+06-3.01910E+03 1.90375E+04 1.17897E+02-1.76701E-09 2.80124E-10
 -1       756 2.17616E+06 3.53796E+03 1.13761E+04-1.21377E-02 2.48925E-09 4.90218E-10
 -1       757 2.17410E+06-5.16636E+02 5.58579E+03 6.78217E+01 6.41262E-07 1.69712E-09
 -1       758 2.17479E+06 9.14242E+02 4.45219E+03 5.45402E+01 1.27799E-06-6.48299E-10
 -1       759 2.17417E+06-3.97214E+02 4.50843E+03 6.33444E+01 2.44719E-07 1.76442E-10
 -1       760 2.17560E+06 2.51110E+03 8.26165E+03 5.24043E+01-7.91939E-07 2.07137E-09
 -1       761 2.17328E+06-2.11235E+03 1.34304E+04 6.99573E+01-3.96771E-07 6.70298E-10
 -1       762 2.18195E+06 1.55905E+04 3.25033E+04-2.29539E+01 6.28316E-09 3.02862E-09
 -1       763 2.16779E+06-1.34659E+04 5.15935E+04 1.38701E+02 5.98703E-09 3.08137E-09
 -1       764 2.22062E+06 9.94399E+04 1.40746E+05-7.62090E+02 4.98210E-11 3.39969E-09
 -1       765 2.13451E+06-8.58796E+04 1.99006E+05 8.09026E+02-2.07969E-09 7.27596E-11
 -1       766-4.44149E+04 7.54520E+04 1.01964E+05 8.14491E+03 5.51518E-09-2.13257E-09
 -1       767 5.21055E+04 1.28422E+05 7.53456E+04-3.53219E+04 1.88547E-08-2.70863E-09
 -1       768-7.46161E+03 9.30698E+04 2.99208E+04 7.98970E+03 8.21547E-09 3.32841E-09
 -1       769 1.83292E+04 1.36263E+05 3.36893E+04-3.73854E+04 3.54157E-09 2.39055E-10
 -1       770-1.10723E+04 6.81810E+04 1.62433E+04 1.02098E+04-4.98085E-09-1.72986E-09
 -1       771-1.22757E+06-2.45924E+05-4.00853E+04-5.30590E+05 1.61526E-09 6.31553E-09
 -1       772-1.22408E+06-2.45837E+05-1.96690E+04-5.47718E+05 2.19916E-09-1.08139E-09
 -1       773-1.22928E+06-2.30996E+05-8.37108E+03-5.37065E+05 2.67028E-09-1.92995E-09
 -1       774-1.21967E+06-2.40758E+05-4.08448E+03-5.48987E+05 6.36646E-09-9.91281E-09
 -1       775-1.22970E+06-2.30319E+05-1.89451E+03-5.37421E+05 7.39601E-09 1.39880E-09
 -1       776-1.21948E+06-2.40536E+05-9.54883E+02-5.49164E+05 4.74756E-10-2.41266E-09
 -1       777-1.22990E+06-2.30252E+05-5.26663E+02-5.37494E+05-2.67755E-09-5.18367E-09
 -1       778-1.21955E+06-2.40504E+05-4.13790E+02-5.49276E+05-2.98314E-10 3.06113E-09
 -1       779-1.23000E+06-2.30189E+05-5.30110E+02-5.37543E+05-1.12777E-10 1.24646E-09
 -1       780-1.21965E+06-2.40483E+05-9.75134E+02-5.49364E+05-3.30601E-10 4.18368E-11
 -1       781-1.23001E+06-2.30127E+05-1.93048E+03-5.37565E+05-1.23218E-08-1.02482E-08
 -1       782-1.22001E+06-2.40689E+05-4.19745E+03-5.49416E+05-1.14123E-08 6.09180E-09
 -1       783-1.22981E+06-2.30668E+05-8.58473E+03-5.37267E+05-2.14368E-09 7.29506E-09
 -1       784-1.22445E+06-2.46177E+05-2.02439E+04-5.48640E+05-4.61910E-10-1.56979E-09
 -1       785-1.22847E+06-2.45705E+05-4.12153E+04-5.30403E+05-3.13912E-09-3.78350E-09
 -1       786 1.75132E+05-5.08023E+03 2.35423E+04-1.67578E+03 5.12728E-11-9.73159E-10
 -1       787 1.83500E+05 7.12499E+03 1.49726E+04-6.01375E+03-3.66640E-10-7.86940E-10
 -1       788 1.78650E+05-5.08960E+02 6.09460E+03-1.66692E+03-2.27374E-13-7.01220E-10
 -1       789 1.79590E+05 6.75507E+02 3.38112E+03-6.01818E+03-9.70033E-11-1.43473E-09
 -1       790 1.79037E+05-5.44551E+01 1.54613E+03-1.67092E+03-6.84395E-11 1.34162E-09
 -1       791 1.79152E+05 6.29253E+01 8.25315E+02-6.01227E+03 5.47800E-10 1.92260E-09
 -1       792 1.79086E+05-6.98740E+00 4.22296E+02-1.67283E+03-3.06102E-11-1.36524E-09
 -1       793 1.79098E+05 7.49653E+00 2.76091E+02-6.01110E+03-2.14314E-10-2.31741E-09
 -1       794 1.79091E+05-3.79629E+00 2.49651E+02-1.67210E+03 1.45150E-10-6.63377E-10
 -1       795 1.79113E+05 2.48914E+01 3.72116E+02-6.01546E+03-1.53022E-10 8.10738E-10
 -1       796 1.79073E+05-2.26465E+01 6.40342E+02-1.66846E+03-1.63141E-10 2.74412E-10
 -1       797 1.79289E+05 2.69587E+02 1.36735E+03-6.02393E+03-4.27008E-10 1.69700E-09
 -1       798 1.78918E+05-2.05709E+02 2.45076E+03-1.66363E+03-1.21645E-10 5.62068E-10
 -1       799 1.80861E+05 2.85736E+03 6.01249E+03-6.01926E+03-9.79128E-10 1.22645E-09
 -1       800 1.77507E+05-2.04182E+03 9.44936E+03-1.67334E+03-2.31921E-11-8.25821E-10
 -1       801-7.32447E+03 2.02937E+05 2.99269E+04-2.06196E+05-8.25094E-09 1.30967E-09
 -1       802 1.76277E+04 2.11420E+05 3.24635E+04-7.32554E+05-3.37241E-09-2.12549E-09
 -1       803-7.90993E+02 2.02585E+05 3.60291E+04-2.05607E+05-1.12886E-08 5.56429E-09
 -1       804 4.18505E+04 2.26280E+05 7.66292E+04-7.32504E+05-5.83532E-09-4.42014E-09
 -1       805-2.63133E+04 1.88285E+05 1.14045E+05-2.06252E+05-4.27099E-09 4.05998E-09
 -1       806-1.90413E+05-5.17377E+04-1.58127E+04-8.93031E+04-2.80158E-09-8.81028E-09
 -1       807-1.90345E+05-4.77954E+04-7.49352E+03-9.42857E+04-3.76644E-10 1.04080E-09
 -1       808-1.90310E+05-4.35692E+04-3.14908E+03-9.27344E+04-4.20187E-10-1.17484E-09
 -1       809-1.88784E+05-4.49203E+04-1.52061E+03-9.49641E+04-8.06722E-10 6.36220E-10
 -1       810-1.90348E+05-4.29953E+04-6.86498E+02-9.29903E+04 9.59972E-10 2.17142E-10
 -1       811-1.88629E+05-4.47249E+04-3.43292E+02-9.49940E+04-2.13561E-10-8.14089E-09
 -1       812-1.90360E+05-4.29766E+04-1.78153E+02-9.30028E+04 8.22899E-09 1.66197E-08
 -1       813-1.88612E+05-4.47192E+04-1.29123E+02-9.49902E+04-4.39996E-10-8.09678E-10
 -1       814-1.90359E+05-4.29792E+04-1.47007E+02-9.30014E+04-1.47012E-08-2.72394E-09
 -1       815-1.88621E+05-4.47259E+04-2.60542E+02-9.49889E+04-2.31030E-08-1.75487E-09
 -1       816-1.90345E+05-4.29961E+04-5.08565E+02-9.29900E+04-8.35576E-09 5.18867E-09
 -1       817-1.88735E+05-4.48671E+04-1.12068E+03-9.49584E+04 1.97178E-09-2.86491E-10
 -1       818-1.90311E+05-4.34254E+04-2.31798E+03-9.28040E+04-2.31694E-09-5.88716E-09
 -1       819-1.89916E+05-4.69464E+04-5.51359E+03-9.44132E+04 2.52635E-09 7.80688E-09
 -1       820-1.90346E+05-4.94669E+04-1.16336E+04-9.03137E+04-6.32099E-11-1.06536E-09
 -1       821-2.01439E+05 5.59094E+03-2.59274E+04 1.85786E+03-2.29761E-09-3.50155E-10
 -1       822-2.10643E+05-7.84692E+03-1.64895E+04 6.78041E+03-1.54932E-09-2.71984E-09
 -1       823-2.05315E+05 5.58523E+02-6.71510E+03 1.81516E+03 2.11435E-09-1.76124E-09
 -1       824-2.06349E+05-7.38121E+02-3.72788E+03 6.83606E+03-1.08196E-09-2.59888E-10
 -1       825-2.05743E+05 6.06743E+01-1.71379E+03 1.80171E+03-4.21835E-09-7.21002E-10
 -1       826-2.05875E+05-6.01223E+01-9.30496E+02 6.85770E+03-7.38811E-09-3.11815E-10
 -1       827-2.05798E+05 1.04691E+01-5.08750E+02 1.79342E+03-4.15901E-09-1.05643E-09
 -1       828-2.05824E+05 2.68611E-01-3.93879E+02 6.87073E+03-5.72166E-09-1.05992E-09
 -1       829-2.05800E+05 1.00995E+01-4.50558E+02 1.78865E+03-2.15931E-09 7.82709E-10
 -1       830-2.05867E+05-4.52711E+01-7.78494E+02 6.87609E+03 3.33939E-09-1.01047E-09
 -1       831-2.05757E+05 5.20916E+01-1.40901E+03 1.78806E+03-8.60652E-10-1.46389E-09
 -1       832-2.06258E+05-5.97679E+02-3.05206E+03 6.87288E+03 5.86880E-10-6.40114E-10
 -1       833-2.05408E+05 4.60149E+02-5.49061E+03 1.79196E+03-4.65008E-09 1.42154E-09
 -1       834-2.09772E+05-6.40786E+03-1.34814E+04 6.84879E+03-6.01381E-09 3.58568E-10
 -1       835-2.02240E+05 4.57522E+03-2.11947E+04 1.81308E+03-2.30898E-09-1.27329E-09
 -1       836-8.57321E+03 4.96586E+05 4.20051E+04-1.37602E+04-5.69344E-10 6.22549E-10
 -1       837 1.35667E+04 5.11787E+05 3.25992E+04-4.82665E+04 4.18822E-10-1.64221E-10
 -1       838-2.05428E+03 5.01484E+05 2.45606E+04-1.37409E+04-1.22282E-09 4.44146E-10
 -1       839 1.84733E+04 5.14758E+05 4.15252E+04-4.82633E+04 5.23869E-10-2.46126E-09
 -1       840-1.23912E+04 4.93609E+05 5.90124E+04-1.37630E+04-1.12050E-09 2.33740E-10
 -1       841 2.76640E+03 2.82078E+03-6.27080E+03-7.53499E+01 9.11996E-10-1.29103E-09
 -1       842-6.58529E+02-2.82018E+03-4.35096E+03 1.15674E+03-8.52310E-10 1.81518E-09
 -1       843 1.48758E+03 5.66001E+02-1.46833E+03 3.51622E+02 1.22637E-09 5.70139E-11
 -1       844 8.26837E+02-2.09445E+02-9.13306E+02 6.63851E+02 4.85824E-09-7.86130E-10
 -1       845 1.28113E+03 2.11756E+02-3.33387E+02 4.16823E+02-3.08049E-10-6.23629E-10
 -1       846 1.06825E+03 2.02732E+02-1.80142E+02 5.88209E+02-6.13330E-10 1.76837E-09
 -1       847 1.24614E+03 1.54099E+02-4.67057E+01 4.27135E+02 7.81981E-10-3.23759E-10
 -1       848 1.11874E+03 2.84362E+02 3.27335E+01 5.74028E+02-5.22886E-09 3.79390E-09
 -1       849 1.23062E+03 1.30186E+02 1.20098E+02 4.30969E+02-1.70594E-06 6.45423E-07
 -1       850 1.19534E+03 4.07779E+02 3.37987E+02 5.53421E+02-3.40753E-06 1.28036E-06
 -1       851 1.16955E+03 3.07515E+01 5.96151E+02 4.47712E+02-1.70784E-06 6.41080E-07
 -1       852 1.62333E+03 1.13329E+03 1.61674E+03 4.23546E+02-5.61929E-09 1.05217E-09
 -1       853 8.02703E+02-5.94893E+02 2.59026E+03 5.60692E+02-3.13429E-09 1.27238E-09
 -1       854 4.24905E+03 5.73994E+03 7.67776E+03-4.41996E+02 2.13618E-10-1.74987E-09
 -1       855-1.45558E+03-4.57285E+03 1.10582E+04 1.31219E+03-4.69527E-10 1.84082E-09
 -1       856-2.40496E+05 5.33745E+03-2.47736E+04 3.67419E+03-7.56563E-09-1.51795E-09
 -1       857-2.49284E+05-7.47899E+03-1.57513E+04 1.35429E+04-8.49366E-09-2.81807E-09
 -1       858-2.44203E+05 5.35762E+02-6.41570E+03 3.60234E+03-7.29119E-09-1.02546E-09
 -1       859-2.45199E+05-6.81513E+02-3.55811E+03 1.36380E+04 1.79512E-10-1.81308E-09
 -1       860-2.44614E+05 6.39392E+01-1.63236E+03 3.57803E+03 1.25056E-11-3.50360E-09
 -1       861-2.44755E+05-2.95831E+01-8.77807E+02 1.36736E+04-6.08588E-09-2.52908E-09
 -1       862-2.44668E+05 1.77045E+01-4.64522E+02 3.56649E+03 4.04964E-09-2.02584E-09
 -1       863-2.44707E+05 3.06871E+01-3.32252E+02 1.36878E+04 1.09293E-08-1.88626E-09
 -1       864-2.44672E+05 1.61303E+01-3.44808E+02 3.56385E+03 2.98007E-09-2.37776E-09
 -1       865-2.44732E+05-1.35020E+00-5.64212E+02 1.36835E+04 3.80376E-09-4.84117E-09
 -1       866-2.44640E+05 4.38031E+01-1.00471E+03 3.57072E+03-9.68953E-10-4.26144E-09
 -1       867-2.44999E+05-3.96593E+02-2.16413E+03 1.36592E+04 4.80532E-09-2.90360E-09
 -1       868-2.44391E+05 3.28815E+02-3.89188E+03 3.58834E+03 1.29353E-09-3.01247E-09
 -1       869-2.47470E+05-4.51761E+03-9.54717E+03 1.35810E+04-2.39572E-09-1.14733E-09
 -1       870-2.42144E+05 3.23665E+03-1.50152E+04 3.64973E+03 2.12913E-09-1.75169E-09
 -1       871-2.48571E+03-2.34291E+04-4.60231E+03 6.93172E+04-3.63707E-09 2.59206E-11
 -1       872-8.00789E+02-2.42593E+04-1.35044E+03 8.13719E+04-6.86805E-09-2.12435E-09
 -1       873 3.46372E+01-2.39512E+04 1.34440E+03 6.91845E+04-4.12911E-09 1.73395E-09
 -1       874 1.56048E+03-2.28596E+04 5.03033E+03 8.14298E+04-5.70981E-09 3.61638E-10
 -1       875 5.12838E+03-2.48728E+04 1.08489E+04 6.92662E+04-3.82761E-09-8.69022E-10
 -1       876 2.96870E+05 3.79055E+04 2.79656E+04 1.16910E+05-2.01635E-09 6.21367E-09
 -1       877 3.03019E+05 5.90407E+04 1.75342E+04 1.21167E+05-9.75319E-10-1.00840E-09
 -1       878 3.01612E+05 4.39969E+04 6.59885E+03 1.16323E+05-4.30646E-09-2.11776E-09
 -1       879 2.97559E+05 5.09663E+04 3.60816E+03 1.22274E+05 7.29415E-10 2.86491E-11
 -1       880 3.02126E+05 4.46511E+04 1.54024E+03 1.16295E+05-2.83990E-10 2.95722E-09
 -1       881 2.96967E+05 5.01246E+04 8.23591E+02 1.22328E+05-2.57165E-09-2.25396E-09
 -1       882 3.02178E+05 4.47310E+04 4.42134E+02 1.16305E+05-1.50247E-08 1.31794E-09
 -1       883 2.96914E+05 5.00385E+04 3.81099E+02 1.22315E+05-7.44683E-09-3.68709E-09
 -1       884 3.02172E+05 4.47331E+04 5.00218E+02 1.16308E+05 1.55291E-09 8.63963E-10
 -1       885 2.96996E+05 5.01321E+04 9.83210E+02 1.22311E+05 1.18850E-08 2.61934E-09
 -1       886 3.02098E+05 4.46457E+04 1.86563E+03 1.16305E+05 3.71563E-09 2.77862E-09
 -1       887 2.97731E+05 5.11403E+04 4.38446E+03 1.22222E+05-1.39494E-10 9.28821E-11
 -1       888 3.01462E+05 4.38601E+04 8.02533E+03 1.16349E+05 7.70522E-09 9.10859E-10
 -1       889 3.04380E+05 6.09511E+04 2.13260E+04 1.20858E+05 2.47337E-09 5.86624E-11
 -1       890 2.95689E+05 3.64560E+04 3.40165E+04 1.17064E+05 1.71440E-09-8.65839E-10
 -1       891 1.02257E+03-1.33199E+05-5.24971E+03 1.62900E+04-1.30422E-09 1.03000E-09
 -1       892-1.76894E+03-1.35043E+05-4.17425E+03 5.77992E+04-4.44538E-09-3.80624E-10
 -1       893 2.63898E+02-1.33798E+05-3.32112E+03 1.62224E+04-2.50179E-09 1.64138E-09
 -1       894-2.69171E+03-1.35596E+05-5.84902E+03 5.77941E+04-4.43902E-09 3.65299E-09
 -1       895 1.73669E+03-1.32638E+05-8.44084E+03 1.62948E+04-2.50293E-09 4.28463E-09
 -1       896 3.29337E+05-1.13518E+03 2.57681E+03-2.25870E+02 1.91015E-10 2.26669E-09
 -1       897 3.30654E+05 1.31561E+03 1.86644E+03 2.55119E+03 8.36890E-10 3.25818E-09
 -1       898 3.29859E+05-1.74656E+02 6.75764E+02 2.72026E+02 5.26022E-10 3.28981E-09
 -1       899 3.30043E+05 2.07018E+02 4.37785E+02 1.89236E+03-4.64121E-10 4.00298E-09
 -1       900 3.29946E+05-2.58952E+01 1.97628E+02 4.32967E+02-3.56020E-10 3.60340E-09
 -1       901 3.29954E+05 3.79299E+01 1.54506E+02 1.81588E+03-6.94919E-10 4.06413E-09
 -1       902 3.29948E+05-5.56287E+00 1.46896E+02 3.48509E+02-1.34754E-10 3.44068E-09
 -1       903 3.30019E+05 3.73598E+01 2.60319E+02 2.27821E+03-1.16415E-10 3.62621E-09
 -1       904 3.29883E+05-2.63047E+01 4.18568E+02-2.93639E+01 1.32971E-10 2.50225E-09
 -1       905 3.30429E+05 2.45779E+02 1.01386E+03 3.54168E+03-6.86789E-10 2.22826E-09
 -1       906 3.29545E+05-2.18437E+02 1.60625E+03-9.14973E+02 1.30078E-09 3.60387E-10
 -1       907 3.32515E+05 1.82659E+03 4.35274E+03 6.32320E+03 1.06787E-09-5.13751E-10
 -1       908 3.27827E+05-1.62597E+03 6.24181E+03-2.81101E+03 1.65366E-09-3.68709E-09
 -1       909 3.43364E+05 1.29228E+04 1.92789E+04 1.22422E+04 6.38251E-09-6.72003E-09
 -1       910 3.18829E+05-1.13925E+04 2.37898E+04-6.83519E+03 6.79665E-09-1.23910E-08
 -1       911 3.21267E+04-3.77604E+02-2.11334E+03-2.56743E+03-8.51526E-09-1.10904E-08
 -1       912 4.88630E+04 2.36365E+02 1.60650E+03 8.77075E+03-3.01031E-09-6.88320E-09
 -1       913 3.59788E+04 7.88354E+00-7.56167E+02-2.04163E+03 9.37405E-10-9.24182E-10
 -1       914 4.28220E+04-8.47421E+01 6.46287E+02 7.89633E+03 9.06255E-10 2.77064E-09
 -1       915 3.80202E+04 4.72732E+01-2.05608E+02-1.69149E+03-1.84764E-09 5.32483E-09
 -1       916 3.98432E+04-6.74367E+01 1.61895E+02 7.37882E+03-6.65869E-09 8.38741E-09
 -1       917 3.88829E+04 4.32270E+01 3.41350E+01-1.52418E+03-4.74012E-09 8.28215E-09
 -1       918 3.90467E+04-3.27214E+01 1.07392E+02 7.22670E+03-1.45750E-09 1.02440E-08
 -1       919 3.87964E+04 2.69467E+01 1.72048E+02-1.53949E+03-4.98095E-09 7.76441E-09
 -1       920 4.02567E+04 7.10055E+01 6.67013E+02 7.44043E+03-4.46759E-09 8.19651E-09
 -1       921 3.77017E+04-8.07602E+01 5.41850E+02-1.73775E+03-1.73182E-09 4.12220E-09
 -1       922 4.40569E+04 8.69440E+02 2.77931E+03 8.02257E+03-1.50180E-09 2.23463E-09
 -1       923 3.50814E+04-8.30979E+02 2.32148E+03-2.12170E+03 7.11168E-10-3.05306E-09
 -1       924 5.31303E+04 6.44088E+03 1.05763E+04 9.00417E+03 5.76628E-09-7.54471E-09
 -1       925 2.87910E+04-5.76244E+03 9.98537E+03-2.72136E+03 5.35749E-09-1.41126E-08
 -1       926-2.31306E+05 5.36922E+03-1.24860E+04 6.11998E+03-4.78386E-09-2.00635E-08
 -1       927-2.35122E+05-6.11195E+03-8.48339E+03-9.98152E+03 2.40198E-08-2.17517E-08
 -1       928-2.35356E+05 7.82222E+02-3.59361E+03 4.87745E+03-1.63345E-09-1.60237E-08
 -1       929-2.27859E+05-7.75859E+02-6.94991E+02-5.93860E+03-1.65621E-08-1.51050E-08
 -1       930-2.38445E+05-5.85446E+01-1.68075E+03 2.07564E+03-3.88962E-09-7.21394E-09
 -1       931-2.24598E+05 1.26117E+02 1.54078E+03 2.83116E+02 9.16626E-09-3.50667E-09
 -1       932-2.38544E+05-1.75144E+02-8.46584E+02-1.34361E+03-4.47358E-11 3.05022E-09
 -1       933-2.27215E+05 2.64458E+02 1.84358E+03 6.52050E+03 8.40146E-11 8.07690E-09
 -1       934-2.35899E+05-1.41996E+02 7.48273E+02-4.16070E+03 4.46448E-09 1.12638E-08
 -1       935-2.31663E+05 8.64751E+02 3.03050E+03 1.05780E+04 3.49729E-09 1.59272E-08
 -1       936-2.34220E+05-6.78816E+02 4.70647E+03-5.40190E+03 1.62732E-09 1.50931E-08
 -1       937-2.30133E+05 5.60535E+03 1.17596E+04 1.10842E+04 1.44609E-08 1.73422E-08
 -1       938-2.37447E+05-4.86328E+03 1.81996E+04-4.66713E+03 1.38655E-08 1.22600E-08
 -1       939-2.11859E+05 3.61277E+04 5.15540E+04 7.95479E+03 7.81249E-09 1.16743E-08
 -1       940-2.52370E+05-3.12595E+04 7.03996E+04-2.27158E+03-1.19911E-09 4.83487E-09
 -1       941 3.52013E+06-1.76908E+05 4.10579E+05 8.12804E+02-7.79254E-07-1.00990E-08
 -1       942 3.69759E+06 2.04882E+05 2.90152E+05 2.90530E+02-1.57559E-06-4.04179E-09
 -1       943 3.58870E+06-2.77430E+04 1.06393E+05 5.60482E+02-1.07227E-06 2.75759E-09
 -1       944 3.61799E+06 3.21135E+04 6.69191E+04 5.48427E+02-5.57122E-07-1.00044E-09
 -1       945 3.60007E+06-4.34276E+03 2.74588E+04 5.55033E+02-3.37981E-07 2.90493E-09
 -1       946 3.60487E+06 5.09979E+03 1.64793E+04 5.54214E+02-1.19610E-07 5.64319E-09
 -1       947 3.60194E+06-7.53489E+02 8.22874E+03 5.54719E+02-8.21976E-09 3.65003E-09
 -1       948 3.60295E+06 1.39483E+03 6.80887E+03 5.54538E+02 1.05288E-07 2.51445E-09
 -1       949 3.60201E+06-6.40488E+02 7.20888E+03 5.54714E+02 5.34856E-07-4.71323E-09
 -1       950 3.60435E+06 4.12826E+03 1.35321E+04 5.54119E+02 9.79202E-07 5.13319E-09
 -1       951 3.60053E+06-3.48495E+03 2.21533E+04 5.55135E+02 3.87432E-06-8.80027E-09
 -1       952 3.61483E+06 2.57351E+04 5.36950E+04 5.37247E+02 6.76236E-06-2.02363E-09
 -1       953 3.59142E+06-2.22287E+04 8.52726E+04 5.71567E+02 3.38343E-06 1.42390E-08
 -1       954 3.67861E+06 1.64152E+05 2.32480E+05-4.99733E+02 5.73672E-09 1.00372E-08
 -1       955 3.53644E+06-1.41748E+05 3.28845E+05 1.59189E+03-1.83039E-08 2.47383E-09
 -1       956-1.84128E+05-3.23617E+03-6.89665E+03 2.48057E+04-3.41151E-09 1.31331E-09
 -1       957-1.85400E+05-1.02637E+03-3.48605E+03 2.89037E+04-1.45201E-09 1.80466E-09
 -1       958-1.84703E+05-1.10982E+02-1.56837E+03 2.46581E+04 1.13414E-09-4.82260E-10
 -1       959-1.84821E+05-7.42886E+00-7.97876E+02 2.90654E+04-3.02634E-09-2.13072E-09
 -1       960-1.84769E+05 3.67280E+01-3.87459E+02 2.46429E+04-7.94898E-09-9.89075E-11
 -1       961-1.84783E+05 4.29316E+01-2.04011E+02 2.90823E+04-1.45956E-08-1.01841E-09
 -1       962-1.84787E+05 4.02060E+01-1.14388E+02 2.46410E+04-5.34737E-09 4.19277E-10
 -1       963-1.84787E+05 4.73784E+01-8.73994E+01 2.90848E+04-2.53897E-09 1.21963E-09
 -1       964-1.84794E+05 4.35903E+01-1.00864E+02 2.46403E+04 6.30735E-10-1.87356E-10
 -1       965-1.84796E+05 5.05070E+01-1.69987E+02 2.90847E+04 3.77680E-09-2.25532E-09
 -1       966-1.84789E+05 4.70991E+01-3.16836E+02 2.46411E+04 1.05840E-08-5.07043E-10
 -1       967-1.84838E+05 1.58578E+01-6.50622E+02 2.90757E+04 2.72759E-08-4.56339E-10
 -1       968-1.84745E+05-6.74101E+01-1.27699E+03 2.46494E+04 1.48116E-08-1.10072E-09
 -1       969-1.85321E+05-8.09181E+02-2.83984E+03 2.89863E+04 1.26875E-09 1.86265E-09
 -1       970-1.84284E+05-2.61032E+03-5.61714E+03 2.47326E+04 3.69664E-09 1.05456E-09
 -1       971-3.49470E+05 4.39983E+03-2.04411E+04 3.64749E+03-3.52884E-09-4.63842E-11
 -1       972-3.56700E+05-6.16884E+03-1.29958E+04 1.36332E+04-3.54248E-09-1.70985E-09
 -1       973-3.52529E+05 4.40626E+02-5.29767E+03 3.55639E+03-4.53679E-09-3.10888E-09
 -1       974-3.53337E+05-5.58333E+02-2.94302E+03 1.37603E+04 1.47520E-09-3.48336E-10
 -1       975-3.52869E+05 5.30966E+01-1.36312E+03 3.51967E+03-1.37106E-10-2.97507E-09
 -1       976-3.52977E+05-1.86725E+01-7.56783E+02 1.38162E+04-5.33407E-09 1.78323E-09
 -1       977-3.52913E+05 1.66170E+01-4.47905E+02 3.50027E+03 7.04597E-09-1.68558E-09
 -1       978-3.52947E+05 2.88207E+01-4.07162E+02 1.38418E+04 1.58492E-08 5.82986E-10
 -1       979-3.52911E+05 1.96782E+01-5.43965E+02 3.49406E+03 8.75747E-09-2.24466E-09
 -1       980-3.53008E+05-3.61851E+01-1.01038E+03 1.38405E+04 5.67439E-09-1.43501E-09
 -1       981-3.52852E+05 7.47186E+01-1.86824E+03 3.50156E+03 2.28181E-09-2.48417E-09
 -1       982-3.53523E+05-7.78123E+02-4.06970E+03 1.38107E+04 2.39072E-09 9.91918E-11
 -1       983-3.52383E+05 6.16767E+02-7.33328E+03 3.52406E+03 5.85646E-09-3.57159E-09
 -1       984-3.58204E+05-8.54697E+03-1.80093E+04 1.37213E+04 1.95769E-09 8.64020E-11
 -1       985-3.48148E+05 6.11035E+03-2.83197E+04 3.59260E+03 5.09772E-09-2.57933E-09
 -3
    1PSTEP                        47          24           1          
  100CL  124 5.48210E-01         841                     0   24           1
 -4  DISP        4    1
 -5  D1          1    2    1    0
 -5  D2          1    2    2    0
 -5  D3          1    2    3    0
 -5  ALL         1    2    0    0    1ALL
 -1         1 6.96055E-05 0.00000E+00 0.00000E+00
 -1         2 5.63617E-05 0.00000E+00 0.00000E+00
 -1         3 4.73377E-05 0.00000E+00 0.00000E+00
 -1         4 4.00830E-05 0.00000E+00 0.00000E+00
 -1         5 3.48083E-05 0.00000E+00 0.00000E+00
 -1         8 5.53834E-05-6.91966E-07 0.00000E+00
 -1         9 4.23884E-05 4.70863E-08 0.00000E+00
 -1        10 4.17127E-05-1.60352E-06 0.00000E+00
 -1        11 3.78110E-05-2.96176E-07 0.00000E+00
 -1        12 3.35099E-05 7.98812E-07 0.00000E+00
 -1        15 2.94992E-05-9.11638E-07 0.00000E+00
 -1        16 3.29267E-05-1.07738E-08 0.00000E+00
 -1        17 2.89826E-05-3.23382E-06 0.00000E+00
 -1        18 2.89505E-05-6.12578E-07 0.00000E+00
 -1        19 3.03081E-05 1.58668E-06 0.00000E+00
 -1        20 3.07617E-05 1.72169E-05 0.00000E+00
 -1        21 3.07453E-05 4.11298E-05 0.00000E+00
 -1        22 1.18140E-05-6.03441E-07 0.00000E+00
 -1        23 1.31649E-05 2.97681E-07 0.00000E+00
 -1        24 1.21632E-05-3.88181E-06 0.00000E+00
 -1        25 2.59025E-05-3.89480E-07 0.00000E+00
 -1        26 2.70332E-05 2.11105E-06 0.00000E+00
 -1        27 2.57189E-05 1.65866E-05 0.00000E+00
 -1        28 2.41421E-05 4.05330E-05 0.00000E+00
 -1        29 0.00000E+00 0.00000E+00 0.00000E+00
 -1        30 1.77657E-06 2.45859E-07 0.00000E+00
 -1        31 1.79197E-06-3.81205E-06 0.00000E+00
 -1        32 0.00000E+00 0.00000E+00 0.00000E+00
 -1        33 2.28226E-05 3.29063E-06 0.00000E+00
 -1        34 2.16331E-05 1.65252E-05 0.00000E+00
 -1        35 1.93619E-05 4.02120E-05 0.00000E+00
 -1        36 6.88018E-05-3.46421E-19 1.32349E-23
 -1        37 6.79740E-05-1.19180E-18 1.32349E-23
 -1        38 6.71477E-05-1.70439E-18 2.64698E-23
 -1        39 6.63169E-05-1.52430E-18-1.32349E-23
 -1        40 6.54859E-05-1.02077E-18 2.64698E-23
 -1        41 6.46540E-05-3.82657E-19 1.32349E-23
 -1        42 6.38220E-05-2.92036E-20 2.64698E-23
 -1        43 6.29898E-05-2.65064E-19 0.00000E+00
 -1        44 6.21576E-05-6.13711E-19 2.64698E-23
 -1        45 6.13255E-05-1.08113E-18 1.32349E-23
 -1        46 6.04935E-05-1.35457E-18 0.00000E+00
 -1        47 5.96621E-05-1.19682E-18-1.32349E-23
 -1        48 5.88308E-05-1.03235E-18 0.00000E+00
 -1        49 5.80028E-05-5.80788E-19 1.32349E-23
 -1        50 5.71737E-05-9.68252E-20 0.00000E+00
 -1        51 6.85248E-05-1.17503E-07 0.00000E+00
 -1        52 6.67424E-05-2.29999E-07 0.00000E+00
 -1        53 6.43941E-05-3.41833E-07 0.00000E+00
 -1        54 6.16227E-05-4.54549E-07 0.00000E+00
 -1        55 5.85711E-05-5.69571E-07-1.24077E-24
 -1        56 6.81786E-05-5.73928E-07 0.00000E+00
 -1        57 6.67181E-05-1.21775E-06 0.00000E+00
 -1        58 6.52653E-05-1.87346E-06 0.00000E+00
 -1        59 6.37943E-05-2.50773E-06 2.64698E-23
 -1        60 6.23000E-05-3.08096E-06 5.29396E-23
 -1        61 6.07683E-05-3.55922E-06-2.64698E-23
 -1        62 5.91898E-05-3.91338E-06 5.29396E-23
 -1        63 5.75552E-05-4.11884E-06-2.64698E-23
 -1        64 5.58587E-05-4.15948E-06-5.29396E-23
 -1        65 5.40965E-05-4.02450E-06 0.00000E+00
 -1        66 5.22683E-05-3.71341E-06 0.00000E+00
 -1        67 5.03774E-05-3.23091E-06 0.00000E+00
 -1        68 4.84282E-05-2.59254E-06 5.29396E-23
 -1        69 4.64366E-05-1.81536E-06 0.00000E+00
 -1        70 4.44016E-05-9.31630E-07 0.00000E+00
 -1        71 5.58032E-05-3.85760E-19 1.32349E-23
 -1        72 5.52385E-05-1.21449E-18 0.00000E+00
 -1        73 5.46741E-05-1.96738E-18-1.32349E-23
 -1        74 5.41085E-05-2.20579E-18 6.61744E-24
 -1        75 5.35429E-05-2.00760E-18 1.32349E-23
 -1        76 5.29771E-05-1.13363E-18-6.61744E-24
 -1        77 5.24112E-05-2.04523E-19 0.00000E+00
 -1        78 5.18453E-05 2.59118E-19 0.00000E+00
 -1        79 5.12794E-05-8.99319E-20-1.32349E-23
 -1        80 5.07136E-05-1.04053E-18 6.61744E-24
 -1        81 5.01478E-05-1.96244E-18-1.32349E-23
 -1        82 4.95825E-05-2.36341E-18 6.61744E-24
 -1        83 4.90172E-05-2.12017E-18 0.00000E+00
 -1        84 4.84541E-05-1.15097E-18-6.61744E-24
 -1        85 4.78902E-05-2.75685E-19-1.32349E-23
 -1        86 5.56434E-05-1.47773E-09 6.61744E-24
 -1        87 5.35036E-05 1.18130E-08-1.65436E-24
 -1        88 5.05277E-05 2.19527E-08 0.00000E+00
 -1        89 4.73002E-05 3.22764E-08 0.00000E+00
 -1        90 4.43955E-05 4.44309E-08 3.30872E-24
 -1        91 5.19563E-05 1.06363E-05-1.32349E-23
 -1        92 3.91258E-05 4.24302E-05-3.30872E-24
 -1        93 2.38202E-05 8.02433E-05-6.61744E-24
 -1        94 1.22686E-05 1.08957E-04 3.30872E-24
 -1        95 8.14230E-06 1.18849E-04 0.00000E+00
 -1        96 1.45604E-05 1.00277E-04 0.00000E+00
 -1        97 2.88009E-05 5.89720E-05 6.61744E-24
 -1        98 4.83779E-05 1.09602E-06 0.00000E+00
 -1        99 6.80959E-05-5.72238E-05 6.61744E-24
 -1       100 8.27731E-05-9.98484E-05-3.30872E-24
 -1       101 8.97911E-05-1.20116E-04 0.00000E+00
 -1       102 8.62705E-05-1.11796E-04-3.30872E-24
 -1       103 7.51300E-05-8.40955E-05-6.61744E-24
 -1       104 5.98378E-05-4.63118E-05 0.00000E+00
 -1       105 4.66809E-05-1.37185E-05 6.61744E-24
 -1       106 4.68906E-05 5.32353E-21 0.00000E+00
 -1       107 4.64367E-05 7.72841E-20 0.00000E+00
 -1       108 4.59832E-05-2.97835E-20 1.32349E-23
 -1       109 4.55284E-05 6.33674E-20-6.61744E-24
 -1       110 4.50736E-05 2.09337E-19 1.32349E-23
 -1       111 4.46185E-05 3.41250E-19 6.61744E-24
 -1       112 4.41634E-05 3.86571E-19-1.32349E-23
 -1       113 4.37083E-05 2.50673E-19-6.61744E-24
 -1       114 4.32532E-05-2.28259E-19-1.32349E-23
 -1       115 4.27981E-05-6.40736E-19 0.00000E+00
 -1       116 4.23431E-05-8.97719E-19 0.00000E+00
 -1       117 4.18884E-05-9.27301E-19 0.00000E+00
 -1       118 4.14337E-05-7.04580E-19 0.00000E+00
 -1       119 4.09808E-05-3.36399E-19 0.00000E+00
 -1       120 4.05274E-05-4.07970E-20-1.32349E-23
 -1       121 4.71730E-05-2.67701E-07 6.61744E-24
 -1       122 4.66874E-05-5.34643E-07-3.30872E-24
 -1       123 4.58892E-05-8.01768E-07-6.61744E-24
 -1       124 4.47873E-05-1.06893E-06 0.00000E+00
 -1       125 4.33917E-05-1.33642E-06 0.00000E+00
 -1       126 4.46009E-05 6.85179E-06 6.61744E-24
 -1       127 3.65246E-05 2.74130E-05 0.00000E+00
 -1       128 2.43250E-05 5.82068E-05 0.00000E+00
 -1       129 9.33945E-06 9.57468E-05 0.00000E+00
 -1       130-6.30134E-06 1.34859E-04 0.00000E+00
 -1       131-2.04411E-05 1.70370E-04-1.65436E-24
 -1       132-3.13594E-05 1.98011E-04 0.00000E+00
 -1       133-3.74350E-05 2.13516E-04 0.00000E+00
 -1       134-3.83361E-05 2.15561E-04 3.30872E-24
 -1       135-3.37984E-05 2.02876E-04 0.00000E+00
 -1       136-2.48379E-05 1.77735E-04-3.30872E-24
 -1       137-1.24219E-05 1.42502E-04-1.65436E-24
 -1       138 1.72933E-06 1.02098E-04 3.30872E-24
 -1       139 1.59478E-05 6.14894E-05 1.65436E-24
 -1       140 2.85527E-05 2.56992E-05-3.30872E-24
 -1       141 3.97557E-05 2.02091E-20 6.61744E-24
 -1       142 3.94243E-05 2.90186E-19 0.00000E+00
 -1       143 3.90931E-05 7.65257E-19 0.00000E+00
 -1       144 3.87612E-05 1.21346E-18-6.61744E-24
 -1       145 3.84292E-05 1.43672E-18 1.32349E-23
 -1       146 3.80971E-05 1.24583E-18 0.00000E+00
 -1       147 3.77650E-05 7.87935E-19 0.00000E+00
 -1       148 3.74329E-05 9.95526E-20 6.61744E-24
 -1       149 3.71008E-05-5.65229E-19 0.00000E+00
 -1       150 3.67688E-05-1.06456E-18 0.00000E+00
 -1       151 3.64369E-05-1.29122E-18-1.32349E-23
 -1       152 3.61058E-05-1.27491E-18 3.30872E-24
 -1       153 3.57747E-05-1.06607E-18 0.00000E+00
 -1       154 3.54472E-05-7.07319E-19-3.30872E-24
 -1       155 3.51185E-05-2.44010E-19 3.30872E-24
 -1       156 3.77029E-05-2.82498E-08 0.00000E+00
 -1       157 3.06614E-05-6.87415E-08 0.00000E+00
 -1       158 2.30840E-05-1.13339E-07 1.65436E-24
 -1       159 1.90965E-05-1.36438E-07 0.00000E+00
 -1       160 2.26802E-05-1.63226E-07-1.65436E-24
 -1       161 3.78223E-05 5.56186E-06 0.00000E+00
 -1       162 3.12438E-05 2.22854E-05 0.00000E+00
 -1       163 2.15178E-05 4.69298E-05-3.30872E-24
 -1       164 9.90460E-06 7.62355E-05-1.65436E-24
 -1       165-1.72299E-06 1.05576E-04 0.00000E+00
 -1       166-1.14907E-05 1.30327E-04 1.65436E-24
 -1       167-1.81289E-05 1.47203E-04 3.30872E-24
 -1       168-2.04502E-05 1.52941E-04 0.00000E+00
 -1       169-1.85623E-05 1.47460E-04 0.00000E+00
 -1       170-1.25979E-05 1.30748E-04-1.65436E-24
 -1       171-3.80869E-06 1.06041E-04 0.00000E+00
 -1       172 6.60157E-06 7.66457E-05 1.65436E-24
 -1       173 1.70016E-05 4.72814E-05 0.00000E+00
 -1       174 2.57607E-05 2.26670E-05 8.27181E-25
 -1       175 3.16764E-05 6.09697E-06 0.00000E+00
 -1       191 3.47563E-05 1.32917E-07-6.61744E-24
 -1       192 3.46345E-05 2.66105E-07-3.30872E-24
 -1       193 3.44455E-05 3.99356E-07 0.00000E+00
 -1       194 3.41927E-05 5.32609E-07 0.00000E+00
 -1       195 3.38796E-05 6.65807E-07 0.00000E+00
 -1       251 5.49819E-05 1.14749E-05 0.00000E+00
 -1       252 5.41847E-05 4.26837E-05 0.00000E+00
 -1       253 5.32477E-05 7.85719E-05-6.61744E-24
 -1       254 5.26022E-05 1.04712E-04 0.00000E+00
 -1       255 5.22275E-05 1.12404E-04 0.00000E+00
 -1       256 5.17048E-05 9.32231E-05-6.61744E-24
 -1       257 5.06127E-05 5.31992E-05 1.32349E-23
 -1       258 4.88602E-05-1.33224E-06 0.00000E+00
 -1       259 4.71190E-05-5.56354E-05 0.00000E+00
 -1       260 4.60524E-05-9.49757E-05 0.00000E+00
 -1       261 4.55459E-05-1.13269E-04 1.32349E-23
 -1       262 4.51647E-05-1.04741E-04 0.00000E+00
 -1       263 4.45057E-05-7.80522E-05 0.00000E+00
 -1       264 4.35678E-05-4.21300E-05-3.30872E-24
 -1       265 4.27822E-05-1.13337E-05-6.61744E-24
 -1       266 5.34218E-05-7.23873E-07 3.30872E-24
 -1       267 5.25439E-05-7.43777E-07-1.65436E-24
 -1       268 5.12152E-05-7.64969E-07 1.65436E-24
 -1       269 4.79020E-05-7.88284E-07 0.00000E+00
 -1       270 4.11479E-05-8.29117E-07 0.00000E+00
 -1       271 5.33697E-05 1.09187E-06 0.00000E+00
 -1       272 5.15178E-05 2.32474E-06 0.00000E+00
 -1       273 4.98485E-05 3.07553E-06 2.64698E-23
 -1       274 4.83324E-05 3.40120E-06 1.32349E-23
 -1       275 4.69506E-05 3.36747E-06 0.00000E+00
 -1       276 4.56770E-05 3.04224E-06 0.00000E+00
 -1       277 4.44858E-05 2.49680E-06 0.00000E+00
 -1       278 4.33493E-05 1.80481E-06 0.00000E+00
 -1       279 4.22396E-05 1.04143E-06 2.64698E-23
 -1       280 4.11282E-05 2.82720E-07 0.00000E+00
 -1       281 3.99869E-05-3.95422E-07 0.00000E+00
 -1       282 3.87882E-05-9.17840E-07 0.00000E+00
 -1       283 3.75043E-05-1.21127E-06 2.64698E-23
 -1       284 3.61131E-05-1.20335E-06 0.00000E+00
 -1       285 3.45832E-05-8.28663E-07 0.00000E+00
 -1       286 4.23359E-05 1.33207E-06 0.00000E+00
 -1       287 4.22939E-05 2.08504E-06 1.65436E-24
 -1       288 4.22515E-05 2.34504E-06 0.00000E+00
 -1       289 4.22111E-05 2.15192E-06 8.27181E-25
 -1       290 4.21706E-05 1.58449E-06 1.65436E-24
 -1       291 4.21302E-05 7.22191E-07 8.27181E-25
 -1       292 4.20898E-05-3.30304E-07-1.65436E-24
 -1       293 4.20493E-05-1.46803E-06 0.00000E+00
 -1       294 4.20088E-05-2.57871E-06 0.00000E+00
 -1       295 4.19684E-05-3.55012E-06 0.00000E+00
 -1       296 4.19282E-05-4.28195E-06 1.65436E-24
 -1       297 4.18879E-05-4.67429E-06 0.00000E+00
 -1       298 4.18475E-05-4.65621E-06-1.65436E-24
 -1       299 4.18055E-05-4.15755E-06 0.00000E+00
 -1       300 4.17636E-05-3.14935E-06-3.30872E-24
 -1       301 4.08070E-05 3.01132E-08 3.30872E-24
 -1       302 3.92168E-05 2.53571E-08 1.65436E-24
 -1       303 3.76257E-05 2.26119E-08-3.30872E-24
 -1       304 3.60417E-05 1.93151E-08 1.65436E-24
 -1       305 3.44727E-05 1.28110E-08-6.61744E-24
 -1       306 4.11340E-05 1.01447E-06-1.32349E-23
 -1       307 4.00495E-05 1.46347E-06 0.00000E+00
 -1       308 3.91310E-05 1.47204E-06 0.00000E+00
 -1       309 3.83471E-05 1.11224E-06 0.00000E+00
 -1       310 3.76719E-05 4.60926E-07-2.64698E-23
 -1       311 3.70761E-05-4.03842E-07-1.32349E-23
 -1       312 3.65302E-05-1.40233E-06 2.64698E-23
 -1       313 3.60041E-05-2.45393E-06-1.32349E-23
 -1       314 3.54676E-05-3.47762E-06 0.00000E+00
 -1       315 3.48905E-05-4.39256E-06 0.00000E+00
 -1       316 3.42429E-05-5.11878E-06 0.00000E+00
 -1       317 3.34958E-05-5.57755E-06 0.00000E+00
 -1       318 3.26202E-05-5.69222E-06-2.64698E-23
 -1       319 3.15915E-05-5.38750E-06-1.32349E-23
 -1       320 3.03784E-05-4.59378E-06 1.32349E-23
 -1       321 4.15919E-05 3.67526E-06-6.61744E-24
 -1       322 4.14196E-05 1.58572E-05 0.00000E+00
 -1       323 4.11756E-05 3.31871E-05 0.00000E+00
 -1       324 4.08710E-05 5.38883E-05 0.00000E+00
 -1       325 4.05485E-05 7.54956E-05 0.00000E+00
 -1       326 4.02576E-05 9.55402E-05 1.65436E-24
 -1       327 4.00300E-05 1.11872E-04 0.00000E+00
 -1       328 3.98780E-05 1.22357E-04 1.65436E-24
 -1       329 3.97710E-05 1.26039E-04 0.00000E+00
 -1       330 3.96627E-05 1.21997E-04 0.00000E+00
 -1       331 3.95035E-05 1.10851E-04-3.30872E-24
 -1       332 3.92552E-05 9.32577E-05 0.00000E+00
 -1       333 3.89229E-05 7.11682E-05-3.30872E-24
 -1       334 3.85341E-05 4.65553E-05-1.65436E-24
 -1       335 3.81445E-05 2.19053E-05 0.00000E+00
 -1       336 3.97734E-05-1.87513E-06 0.00000E+00
 -1       337 3.76651E-05-2.14790E-06 0.00000E+00
 -1       338 3.54597E-05-2.42075E-06-6.61744E-24
 -1       339 3.32293E-05-2.69320E-06-3.30872E-24
 -1       340 3.10463E-05-2.96562E-06 0.00000E+00
 -1       341 3.75532E-05 8.87923E-06 6.61744E-24
 -1       342 2.65436E-05 3.66681E-05 0.00000E+00
 -1       343 1.05510E-05 7.65563E-05 0.00000E+00
 -1       344-8.35956E-06 1.23334E-04 0.00000E+00
 -1       345-2.71085E-05 1.69731E-04 3.30872E-24
 -1       346-4.26208E-05 2.08476E-04-1.65436E-24
 -1       347-5.29445E-05 2.34570E-04 0.00000E+00
 -1       348-5.63143E-05 2.43025E-04 0.00000E+00
 -1       349-5.30487E-05 2.33769E-04 3.30872E-24
 -1       350-4.35036E-05 2.06845E-04 1.65436E-24
 -1       351-2.96718E-05 1.67327E-04 0.00000E+00
 -1       352-1.34121E-05 1.20421E-04-1.65436E-24
 -1       353 2.81049E-06 7.36297E-05 3.30872E-24
 -1       354 1.65284E-05 3.44557E-05 0.00000E+00
 -1       355 2.58993E-05 8.03930E-06 0.00000E+00
 -1       356 3.74627E-05-2.29104E-05 0.00000E+00
 -1       357 3.70370E-05-4.87933E-05-1.65436E-24
 -1       358 3.66003E-05-7.51242E-05 0.00000E+00
 -1       359 3.62209E-05-9.90798E-05-1.65436E-24
 -1       360 3.59367E-05-1.18349E-04 0.00000E+00
 -1       361 3.57584E-05-1.30643E-04 0.00000E+00
 -1       362 3.56416E-05-1.35157E-04 0.00000E+00
 -1       363 3.55268E-05-1.31123E-04 1.65436E-24
 -1       364 3.53574E-05-1.19579E-04 0.00000E+00
 -1       365 3.50966E-05-1.01597E-04 0.00000E+00
 -1       366 3.47611E-05-7.96251E-05-3.30872E-24
 -1       367 3.43926E-05-5.61267E-05 0.00000E+00
 -1       368 3.40513E-05-3.38966E-05 1.65436E-24
 -1       369 3.37906E-05-1.57235E-05 0.00000E+00
 -1       370 3.36145E-05-3.52781E-06 4.13590E-25
 -1       371 5.25606E-05-4.26678E-07 0.00000E+00
 -1       372 5.50085E-05-4.52726E-07 0.00000E+00
 -1       373 4.94745E-05-4.84582E-07 4.13590E-25
 -1       374 4.02854E-05-5.41862E-07-1.03398E-25
 -1       375 3.19436E-05-5.92601E-07 0.00000E+00
 -1       376 4.64884E-05-2.45924E-05 3.30872E-24
 -1       377 5.73759E-05-5.52918E-05 1.65436E-24
 -1       378 6.91213E-05-8.85037E-05 0.00000E+00
 -1       379 8.03909E-05-1.20317E-04 1.65436E-24
 -1       380 8.99503E-05-1.47161E-04 0.00000E+00
 -1       381 9.65287E-05-1.65501E-04 0.00000E+00
 -1       382 9.94873E-05-1.73810E-04 0.00000E+00
 -1       383 9.81660E-05-1.70622E-04 0.00000E+00
 -1       384 9.28755E-05-1.57098E-04-3.30872E-24
 -1       385 8.39743E-05-1.34435E-04 0.00000E+00
 -1       386 7.27207E-05-1.05931E-04 0.00000E+00
 -1       387 6.04318E-05-7.48897E-05-1.65436E-24
 -1       388 4.86981E-05-4.52100E-05 0.00000E+00
 -1       389 3.90968E-05-2.07890E-05 0.00000E+00
 -1       390 3.26466E-05-4.30414E-06 4.13590E-25
 -1       406 3.30770E-05 9.30925E-07 0.00000E+00
 -1       407 3.25966E-05 1.06310E-06 0.00000E+00
 -1       408 3.20738E-05 1.19517E-06-6.61744E-24
 -1       409 3.15144E-05 1.32692E-06 0.00000E+00
 -1       410 3.09239E-05 1.45799E-06-3.30872E-24
 -1       466 2.96501E-05 1.04453E-05 0.00000E+00
 -1       467 2.98549E-05 1.63599E-05-3.30872E-24
 -1       468 3.00747E-05 1.86186E-05-6.61744E-24
 -1       469 3.02984E-05 1.89709E-05 3.30872E-24
 -1       470 3.05219E-05 1.80462E-05 6.61744E-24
 -1       471 3.07450E-05 1.64609E-05 3.30872E-24
 -1       472 3.09673E-05 1.44410E-05 0.00000E+00
 -1       473 3.11893E-05 1.22078E-05 3.30872E-24
 -1       474 3.14109E-05 9.85678E-06-6.61744E-24
 -1       475 3.16323E-05 7.48205E-06 0.00000E+00
 -1       476 3.18538E-05 5.16377E-06 0.00000E+00
 -1       477 3.20745E-05 2.98257E-06 3.30872E-24
 -1       478 3.22957E-05 1.10016E-06 0.00000E+00
 -1       479 3.25129E-05-3.18723E-07-8.27181E-25
 -1       480 3.27325E-05-8.37681E-07 3.30872E-24
 -1       481 1.87838E-05-9.06412E-07-8.27181E-25
 -1       482 1.47879E-05-8.51418E-07 0.00000E+00
 -1       483 1.47610E-05-7.86966E-07 0.00000E+00
 -1       484 1.59644E-05-7.23049E-07 0.00000E+00
 -1       485 1.58370E-05-6.58933E-07-1.65436E-24
 -1       486 2.07191E-05 2.10558E-05 0.00000E+00
 -1       487 5.54006E-06 5.86739E-05-3.30872E-24
 -1       488-1.03317E-05 9.79583E-05 6.61744E-24
 -1       489-2.11273E-05 1.24925E-04 3.30872E-24
 -1       490-2.41099E-05 1.31977E-04 6.61744E-24
 -1       491-1.70061E-05 1.11612E-04-3.30872E-24
 -1       492-2.36931E-06 6.92533E-05 6.61744E-24
 -1       493 1.74700E-05 1.06933E-05 3.30872E-24
 -1       494 3.78889E-05-4.97070E-05 6.61744E-24
 -1       495 5.43201E-05-9.75424E-05 3.30872E-24
 -1       496 6.39616E-05-1.25175E-04 0.00000E+00
 -1       497 6.37124E-05-1.25336E-04 0.00000E+00
 -1       498 5.50778E-05-1.03758E-04 0.00000E+00
 -1       499 3.99707E-05-6.63158E-05 3.30872E-24
 -1       500 2.40770E-05-2.69770E-05 0.00000E+00
 -1       501 3.27655E-05-2.42701E-06 6.61744E-24
 -1       502 3.25673E-05-1.26732E-05-3.30872E-24
 -1       503 3.22968E-05-2.87454E-05 0.00000E+00
 -1       504 3.19629E-05-4.86031E-05 0.00000E+00
 -1       505 3.16168E-05-6.91100E-05 3.30872E-24
 -1       506 3.13173E-05-8.71253E-05-1.65436E-24
 -1       507 3.10890E-05-1.00228E-04 0.00000E+00
 -1       508 3.09272E-05-1.06028E-04 0.00000E+00
 -1       509 3.07797E-05-1.04220E-04 0.00000E+00
 -1       510 3.05887E-05-9.45485E-05 1.65436E-24
 -1       511 3.03287E-05-7.89958E-05 3.30872E-24
 -1       512 3.00036E-05-5.95831E-05-1.65436E-24
 -1       513 2.96653E-05-3.94445E-05 3.30872E-24
 -1       514 2.93705E-05-2.17182E-05 0.00000E+00
 -1       515 2.91451E-05-8.84477E-06 0.00000E+00
 -1       516 3.27290E-05 5.18872E-08 0.00000E+00
 -1       517 3.50851E-05 1.31329E-07-8.27181E-25
 -1       518 3.72657E-05 2.09682E-07 0.00000E+00
 -1       519 3.65416E-05 2.93250E-07-4.13590E-25
 -1       520 2.96151E-05 3.50782E-07 8.27181E-25
 -1       521 3.12796E-05 7.81579E-07 2.64698E-23
 -1       522 2.97777E-05 1.08110E-06 1.32349E-23
 -1       523 2.84325E-05 9.65961E-07 0.00000E+00
 -1       524 2.72116E-05 5.03966E-07 0.00000E+00
 -1       525 2.60919E-05-2.29742E-07-2.64698E-23
 -1       526 2.50442E-05-1.15858E-06 0.00000E+00
 -1       527 2.40399E-05-2.20361E-06-2.64698E-23
 -1       528 2.30489E-05-3.28476E-06 0.00000E+00
 -1       529 2.20413E-05-4.32155E-06 2.64698E-23
 -1       530 2.09874E-05-5.23401E-06-1.32349E-23
 -1       531 1.98575E-05-5.94353E-06 2.64698E-23
 -1       532 1.86239E-05-6.37361E-06 1.32349E-23
 -1       533 1.72586E-05-6.45099E-06 0.00000E+00
 -1       534 1.57398E-05-6.10486E-06 1.32349E-23
 -1       535 1.40372E-05-5.27240E-06 0.00000E+00
 -1       536 2.89711E-05-1.50203E-06 3.30872E-24
 -1       537 2.89676E-05-1.84877E-07 0.00000E+00
 -1       538 2.89644E-05 7.61402E-07 0.00000E+00
 -1       539 2.89626E-05 1.38098E-06 0.00000E+00
 -1       540 2.89611E-05 1.71793E-06 0.00000E+00
 -1       541 2.89598E-05 1.81638E-06 0.00000E+00
 -1       542 2.89586E-05 1.72042E-06 0.00000E+00
 -1       543 2.89575E-05 1.47417E-06 1.03398E-25
 -1       544 2.89563E-05 1.12175E-06 0.00000E+00
 -1       545 2.89551E-05 7.07264E-07-5.16988E-26
 -1       546 2.89539E-05 2.74836E-07 0.00000E+00
 -1       547 2.89528E-05-1.31418E-07 0.00000E+00
 -1       548 2.89518E-05-4.67387E-07 0.00000E+00
 -1       549 2.89509E-05-6.88965E-07 0.00000E+00
 -1       550 2.89501E-05-7.52006E-07 0.00000E+00
 -1       551 2.64645E-05-3.33990E-06-1.65436E-24
 -1       552 2.36631E-05-3.44350E-06 0.00000E+00
 -1       553 2.07041E-05-3.54729E-06 3.30872E-24
 -1       554 1.77159E-05-3.65244E-06 0.00000E+00
 -1       555 1.48268E-05-3.76028E-06 0.00000E+00
 -1       556 2.82417E-05-1.60999E-06 0.00000E+00
 -1       557 2.76441E-05-3.57654E-07 0.00000E+00
 -1       558 2.71737E-05 5.58350E-07 0.00000E+00
 -1       559 2.68156E-05 1.17672E-06 0.00000E+00
 -1       560 2.65548E-05 1.53620E-06 0.00000E+00
 -1       561 2.63767E-05 1.67592E-06 0.00000E+00
 -1       562 2.62663E-05 1.63501E-06 6.61744E-24
 -1       563 2.62091E-05 1.45267E-06 6.61744E-24
 -1       564 2.61901E-05 1.16813E-06 0.00000E+00
 -1       565 2.61948E-05 8.20628E-07 1.65436E-24
 -1       566 2.62084E-05 4.49407E-07 0.00000E+00
 -1       567 2.62162E-05 9.37311E-08 1.65436E-24
 -1       568 2.62036E-05-2.07152E-07 0.00000E+00
 -1       569 2.61562E-05-4.14031E-07 7.49632E-25
 -1       570 2.60597E-05-4.87729E-07 8.27181E-25
 -1       571 2.90321E-05-4.33766E-07 4.13590E-25
 -1       572 2.91162E-05-3.12857E-07-2.06795E-25
 -1       573 2.92009E-05-2.39126E-07-8.27181E-25
 -1       574 2.92860E-05-2.01312E-07-8.27181E-25
 -1       575 2.93712E-05-1.88108E-07 0.00000E+00
 -1       576 2.94564E-05-1.88137E-07 0.00000E+00
 -1       577 2.95417E-05-1.90017E-07-3.30872E-24
 -1       578 2.96270E-05-1.82356E-07-1.65436E-24
 -1       579 2.97123E-05-1.53761E-07 0.00000E+00
 -1       580 2.97976E-05-9.28399E-08 0.00000E+00
 -1       581 2.98828E-05 1.17997E-08 0.00000E+00
 -1       582 2.99681E-05 1.71540E-07 0.00000E+00
 -1       583 3.00533E-05 3.97751E-07 0.00000E+00
 -1       584 3.01385E-05 7.01692E-07 0.00000E+00
 -1       585 3.02235E-05 1.09456E-06 6.61744E-24
 -1       586 2.85155E-05-5.74662E-07 0.00000E+00
 -1       587 2.80161E-05-5.36450E-07 0.00000E+00
 -1       588 2.74784E-05-4.98280E-07 0.00000E+00
 -1       589 2.69291E-05-4.60477E-07 4.13590E-25
 -1       590 2.63950E-05-4.23501E-07 0.00000E+00
 -1       591 2.88193E-05-4.00189E-07 0.00000E+00
 -1       592 2.86978E-05-2.24578E-07 1.65436E-24
 -1       593 2.85867E-05-7.84724E-08 0.00000E+00
 -1       594 2.84838E-05 4.47031E-08 0.00000E+00
 -1       595 2.83869E-05 1.51522E-07 1.65436E-24
 -1       596 2.82936E-05 2.48508E-07 0.00000E+00
 -1       597 2.82015E-05 3.42176E-07 0.00000E+00
 -1       598 2.81082E-05 4.39036E-07 0.00000E+00
 -1       599 2.80112E-05 5.45597E-07-8.27181E-25
 -1       600 2.79082E-05 6.68365E-07-4.13590E-25
 -1       601 2.77967E-05 8.13848E-07 0.00000E+00
 -1       602 2.76743E-05 9.88562E-07-4.13590E-25
 -1       603 2.75386E-05 1.19902E-06 1.65436E-24
 -1       604 2.73875E-05 1.45178E-06-3.10193E-25
 -1       605 2.72188E-05 1.75341E-06 0.00000E+00
 -1       606 3.03396E-05 2.23919E-06 0.00000E+00
 -1       607 3.03689E-05 2.95443E-06-1.65436E-24
 -1       608 3.03977E-05 3.72872E-06 3.30872E-24
 -1       609 3.04261E-05 4.55784E-06-1.65436E-24
 -1       610 3.04543E-05 5.43756E-06 3.30872E-24
 -1       611 3.04825E-05 6.36357E-06 0.00000E+00
 -1       612 3.05106E-05 7.33153E-06 0.00000E+00
 -1       613 3.05387E-05 8.33712E-06 0.00000E+00
 -1       614 3.05667E-05 9.37602E-06 0.00000E+00
 -1       615 3.05947E-05 1.04439E-05 8.27181E-25
 -1       616 3.06227E-05 1.15364E-05 0.00000E+00
 -1       617 3.06506E-05 1.26492E-05 1.65436E-24
 -1       618 3.06785E-05 1.37780E-05 0.00000E+00
 -1       619 3.07064E-05 1.49184E-05 0.00000E+00
 -1       620 3.07342E-05 1.60662E-05 8.27181E-25
 -1       621 2.96977E-05 1.67439E-06 1.65436E-24
 -1       622 2.91049E-05 1.76255E-06 8.27181E-25
 -1       623 2.85359E-05 1.85072E-06 1.65436E-24
 -1       624 2.79969E-05 1.93867E-06 0.00000E+00
 -1       625 2.74941E-05 2.02611E-06 1.65436E-24
 -1       626 3.01174E-05 2.27275E-06 3.30872E-24
 -1       627 2.99010E-05 3.02453E-06 0.00000E+00
 -1       628 2.96620E-05 3.83585E-06 0.00000E+00
 -1       629 2.94031E-05 4.69974E-06 0.00000E+00
 -1       630 2.91271E-05 5.60920E-06-3.30872E-24
 -1       631 2.88365E-05 6.55713E-06 0.00000E+00
 -1       632 2.85342E-05 7.53641E-06 0.00000E+00
 -1       633 2.82227E-05 8.53995E-06-1.65436E-24
 -1       634 2.79048E-05 9.56061E-06-1.65436E-24
 -1       635 2.75832E-05 1.05913E-05-8.27181E-25
 -1       636 2.72604E-05 1.16249E-05-1.65436E-24
 -1       637 2.69391E-05 1.26542E-05 0.00000E+00
 -1       638 2.66221E-05 1.36722E-05 8.27181E-25
 -1       639 2.63117E-05 1.46717E-05 0.00000E+00
 -1       640 2.60103E-05 1.56456E-05-6.20385E-25
 -1       641 3.07625E-05 1.84094E-05-4.13590E-25
 -1       642 3.07622E-05 1.97261E-05 0.00000E+00
 -1       643 3.07618E-05 2.11489E-05 0.00000E+00
 -1       644 3.07611E-05 2.26598E-05 2.58494E-26
 -1       645 3.07604E-05 2.42408E-05 0.00000E+00
 -1       646 3.07595E-05 2.58740E-05 1.29247E-26
 -1       647 3.07585E-05 2.75414E-05-1.29247E-26
 -1       648 3.07575E-05 2.92250E-05-1.61559E-27
 -1       649 3.07565E-05 3.09071E-05 0.00000E+00
 -1       650 3.07555E-05 3.25696E-05 1.29247E-26
 -1       651 3.07545E-05 3.41947E-05-5.16988E-26
 -1       652 3.07535E-05 3.57644E-05 0.00000E+00
 -1       653 3.07526E-05 3.72607E-05 0.00000E+00
 -1       654 3.07511E-05 3.86658E-05 0.00000E+00
 -1       655 3.07499E-05 3.99615E-05 1.65436E-24
 -1       656 2.97309E-05 1.71153E-05 0.00000E+00
 -1       657 2.88425E-05 1.70085E-05 0.00000E+00
 -1       658 2.80470E-05 1.69020E-05-3.30872E-24
 -1       659 2.72945E-05 1.67954E-05 8.27181E-25
 -1       660 2.65351E-05 1.66886E-05 0.00000E+00
 -1       661 3.04301E-05 1.84451E-05 0.00000E+00
 -1       662 3.00663E-05 1.97707E-05 0.00000E+00
 -1       663 2.96717E-05 2.11780E-05 0.00000E+00
 -1       664 2.92522E-05 2.26532E-05-1.65436E-24
 -1       665 2.88127E-05 2.41820E-05-3.30872E-24
 -1       666 2.83583E-05 2.57504E-05 0.00000E+00
 -1       667 2.78943E-05 2.73443E-05 3.30872E-24
 -1       668 2.74260E-05 2.89499E-05 1.65436E-24
 -1       669 2.69585E-05 3.05532E-05 0.00000E+00
 -1       670 2.64971E-05 3.21402E-05-1.65436E-24
 -1       671 2.60470E-05 3.36970E-05-3.30872E-24
 -1       672 2.56134E-05 3.52096E-05 0.00000E+00
 -1       673 2.52017E-05 3.66639E-05 3.30872E-24
 -1       674 2.48162E-05 3.80456E-05 1.65436E-24
 -1       675 2.44634E-05 3.93408E-05 1.65436E-24
 -1       676 2.96409E-05 4.10299E-05-3.30872E-24
 -1       677 2.85373E-05 4.09297E-05-1.65436E-24
 -1       678 2.74350E-05 4.08295E-05 3.30872E-24
 -1       679 2.63346E-05 4.07298E-05-1.65436E-24
 -1       680 2.52368E-05 4.06300E-05 0.00000E+00
 -1       681 1.19062E-05 3.68079E-06 1.65436E-24
 -1       682 1.20094E-05 4.55598E-06 0.00000E+00
 -1       683 1.21120E-05 2.92646E-06 0.00000E+00
 -1       684 1.22112E-05-3.15209E-07-1.65436E-24
 -1       685 1.23064E-05-4.67722E-06 0.00000E+00
 -1       686 1.23989E-05-9.67316E-06 1.65436E-24
 -1       687 1.24899E-05-1.49745E-05 3.30872E-24
 -1       688 1.25810E-05-2.02541E-05 0.00000E+00
 -1       689 1.26738E-05-2.51797E-05 0.00000E+00
 -1       690 1.27697E-05-2.94171E-05 0.00000E+00
 -1       691 1.28695E-05-3.24606E-05-3.30872E-24
 -1       692 1.29728E-05-3.37990E-05-1.65436E-24
 -1       693 1.30756E-05-3.24965E-05 0.00000E+00
 -1       694 1.31670E-05-2.76055E-05 0.00000E+00
 -1       695 1.32173E-05-1.72932E-05 0.00000E+00
 -1       696 6.83902E-06-5.14121E-07 0.00000E+00
 -1       697 3.90155E-06-4.14587E-07 0.00000E+00
 -1       698 2.33649E-06-3.12077E-07 0.00000E+00
 -1       699 1.48531E-06-2.08236E-07-1.65436E-24
 -1       700 8.66598E-07-1.04203E-07 3.30872E-24
 -1       701 6.88307E-06 1.19757E-05 0.00000E+00
 -1       702-3.26301E-06 3.77007E-05 0.00000E+00
 -1       703-1.70954E-05 7.24638E-05 0.00000E+00
 -1       704-3.29781E-05 1.12145E-04 0.00000E+00
 -1       705-4.86670E-05 1.51360E-04 0.00000E+00
 -1       706-6.19247E-05 1.84728E-04 1.65436E-24
 -1       707-7.12337E-05 2.08368E-04-3.30872E-24
 -1       708-7.51891E-05 2.18410E-04 0.00000E+00
 -1       709-7.38092E-05 2.14347E-04 3.30872E-24
 -1       710-6.71545E-05 1.95740E-04 0.00000E+00
 -1       711-5.65304E-05 1.65776E-04 3.30872E-24
 -1       712-4.31725E-05 1.27733E-04 0.00000E+00
 -1       713-2.89241E-05 8.70231E-05-3.30872E-24
 -1       714-1.55982E-05 4.90878E-05 0.00000E+00
 -1       715-4.80491E-06 1.86196E-05-1.65436E-24
 -1       716 1.29633E-05 1.93864E-05 0.00000E+00
 -1       717 1.28321E-05 3.41318E-05 4.13590E-25
 -1       718 1.27523E-05 4.46458E-05 0.00000E+00
 -1       719 1.27059E-05 5.10454E-05 0.00000E+00
 -1       720 1.26760E-05 5.36801E-05-8.27181E-25
 -1       721 1.26491E-05 5.29032E-05 0.00000E+00
 -1       722 1.26165E-05 4.92613E-05 8.27181E-25
 -1       723 1.25731E-05 4.33039E-05 0.00000E+00
 -1       724 1.25192E-05 3.57121E-05 8.27181E-25
 -1       725 1.24578E-05 2.71685E-05 0.00000E+00
 -1       726 1.23946E-05 1.84098E-05 0.00000E+00
 -1       727 1.23351E-05 1.01729E-05-8.27181E-25
 -1       728 1.22843E-05 3.16494E-06-1.65436E-24
 -1       729 1.22416E-05-1.90854E-06 1.65436E-24
 -1       730 1.22090E-05-4.45441E-06 0.00000E+00
 -1       731-4.23428E-06 1.85503E-07-2.06795E-25
 -1       732-1.39462E-05 1.76018E-07 4.13590E-25
 -1       733-1.71829E-05 2.07972E-07-8.27181E-25
 -1       734-1.51457E-05 2.43118E-07 0.00000E+00
 -1       735-8.58005E-06 2.60347E-07-8.27181E-25
 -1       736 2.45744E-06 2.74489E-05 0.00000E+00
 -1       737-1.31547E-05 6.64990E-05 0.00000E+00
 -1       738-3.15998E-05 1.12269E-04 3.30872E-24
 -1       739-5.07055E-05 1.59584E-04 0.00000E+00
 -1       740-6.81142E-05 2.02903E-04 0.00000E+00
 -1       741-8.15301E-05 2.36676E-04 1.65436E-24
 -1       742-8.97372E-05 2.57579E-04-3.30872E-24
 -1       743-9.16482E-05 2.62307E-04 0.00000E+00
 -1       744-8.76600E-05 2.51161E-04 0.00000E+00
 -1       745-7.81820E-05 2.24530E-04 1.65436E-24
 -1       746-6.47658E-05 1.86350E-04 0.00000E+00
 -1       747-4.88697E-05 1.40655E-04 1.65436E-24
 -1       748-3.24398E-05 9.33261E-05 0.00000E+00
 -1       749-1.74029E-05 5.02624E-05 0.00000E+00
 -1       750-5.41056E-06 1.62978E-05 1.65436E-24
 -1       751 1.29687E-05-2.23790E-06 0.00000E+00
 -1       752 1.38273E-05-1.55528E-06 6.61744E-24
 -1       753 1.46828E-05-1.38164E-06 0.00000E+00
 -1       754 1.55483E-05-1.28522E-06-1.32349E-23
 -1       755 1.64140E-05-1.22966E-06 0.00000E+00
 -1       756 1.72818E-05-1.18021E-06 0.00000E+00
 -1       757 1.81497E-05-1.13399E-06 0.00000E+00
 -1       758 1.90180E-05-1.08824E-06 1.32349E-23
 -1       759 1.98864E-05-1.04272E-06 0.00000E+00
 -1       760 2.07545E-05-9.97170E-07-1.32349E-23
 -1       761 2.16225E-05-9.51195E-07 0.00000E+00
 -1       762 2.24892E-05-9.04384E-07 1.32349E-23
 -1       763 2.33556E-05-8.51962E-07 2.64698E-23
 -1       764 2.42152E-05-7.88932E-07 0.00000E+00
 -1       765 2.50770E-05-6.55606E-07-1.32349E-23
 -1       766 8.60182E-06-3.87572E-06 6.61744E-24
 -1       767 2.25843E-06-3.86436E-06-1.65436E-24
 -1       768-4.26644E-06-3.85532E-06-8.27181E-25
 -1       769-8.37328E-06-3.83071E-06 0.00000E+00
 -1       770-7.28284E-06-3.80087E-06 2.06795E-25
 -1       771 1.08750E-05-2.21162E-06 0.00000E+00
 -1       772 9.70396E-06-8.74080E-07 0.00000E+00
 -1       773 8.64540E-06 1.60554E-07 2.64698E-23
 -1       774 7.68857E-06 9.22587E-07 1.32349E-23
 -1       775 6.82253E-06 1.44243E-06 0.00000E+00
 -1       776 6.03586E-06 1.75073E-06 0.00000E+00
 -1       777 5.31705E-06 1.87821E-06 0.00000E+00
 -1       778 4.65452E-06 1.85572E-06 0.00000E+00
 -1       779 4.03668E-06 1.71417E-06-2.64698E-23
 -1       780 3.45189E-06 1.48456E-06 1.32349E-23
 -1       781 2.88855E-06 1.19791E-06 0.00000E+00
 -1       782 2.33510E-06 8.85340E-07-6.61744E-24
 -1       783 1.77997E-06 5.77942E-07-1.32349E-23
 -1       784 1.21211E-06 3.06926E-07 6.61744E-24
 -1       785 6.20517E-07 1.03487E-07 0.00000E+00
 -1       786 2.59686E-05-9.41155E-08 4.13590E-25
 -1       787 2.60391E-05 1.34856E-07 0.00000E+00
 -1       788 2.61095E-05 3.07705E-07 0.00000E+00
 -1       789 2.61805E-05 4.34724E-07 8.27181E-25
 -1       790 2.62517E-05 5.26173E-07 1.65436E-24
 -1       791 2.63229E-05 5.92296E-07 0.00000E+00
 -1       792 2.63942E-05 6.43320E-07 1.65436E-24
 -1       793 2.64656E-05 6.89464E-07 0.00000E+00
 -1       794 2.65369E-05 7.40947E-07 0.00000E+00
 -1       795 2.66082E-05 8.07989E-07 0.00000E+00
 -1       796 2.66796E-05 9.00816E-07 1.65436E-24
 -1       797 2.67508E-05 1.02967E-06 0.00000E+00
 -1       798 2.68220E-05 1.20483E-06-1.65436E-24
 -1       799 2.68930E-05 1.43656E-06 0.00000E+00
 -1       800 2.69640E-05 1.73520E-06 0.00000E+00
 -1       801 2.36256E-05-3.16464E-07 0.00000E+00
 -1       802 1.88727E-05-2.46477E-07 0.00000E+00
 -1       803 1.28878E-05-1.82519E-07 0.00000E+00
 -1       804 6.91700E-06-1.20943E-07-3.30872E-24
 -1       805 2.20634E-06-5.35030E-08 6.61744E-24
 -1       806 2.57013E-05-1.25989E-07 0.00000E+00
 -1       807 2.55078E-05 1.08412E-07 1.65436E-24
 -1       808 2.53223E-05 3.19333E-07 0.00000E+00
 -1       809 2.51433E-05 5.12024E-07 0.00000E+00
 -1       810 2.49690E-05 6.91704E-07 3.30872E-24
 -1       811 2.47976E-05 8.63561E-07 0.00000E+00
 -1       812 2.46272E-05 1.03278E-06 0.00000E+00
 -1       813 2.44559E-05 1.20452E-06 0.00000E+00
 -1       814 2.42816E-05 1.38397E-06-1.65436E-24
 -1       815 2.41025E-05 1.57631E-06-1.65436E-24
 -1       816 2.39167E-05 1.78669E-06 1.65436E-24
 -1       817 2.37221E-05 2.02030E-06 8.27181E-25
 -1       818 2.35170E-05 2.28232E-06 1.65436E-24
 -1       819 2.32996E-05 2.57791E-06-4.13590E-25
 -1       820 2.30682E-05 2.91226E-06 8.27181E-25
 -1       821 2.69561E-05 2.59370E-06 0.00000E+00
 -1       822 2.68742E-05 3.18810E-06 8.27181E-25
 -1       823 2.67924E-05 3.88258E-06 0.00000E+00
 -1       824 2.67097E-05 4.66530E-06 0.00000E+00
 -1       825 2.66269E-05 5.52442E-06 0.00000E+00
 -1       826 2.65438E-05 6.44800E-06 0.00000E+00
 -1       827 2.64607E-05 7.42406E-06 0.00000E+00
 -1       828 2.63776E-05 8.44064E-06 0.00000E+00
 -1       829 2.62944E-05 9.48570E-06 0.00000E+00
 -1       830 2.62112E-05 1.05472E-05 0.00000E+00
 -1       831 2.61280E-05 1.16130E-05 0.00000E+00
 -1       832 2.60449E-05 1.26713E-05 1.65436E-24
 -1       833 2.59620E-05 1.37097E-05 0.00000E+00
 -1       834 2.58797E-05 1.47164E-05 0.00000E+00
 -1       835 2.57973E-05 1.56794E-05 1.65436E-24
 -1       836 2.64823E-05 2.30409E-06 0.00000E+00
 -1       837 2.57627E-05 2.50393E-06 1.65436E-24
 -1       838 2.49555E-05 2.70335E-06 0.00000E+00
 -1       839 2.41423E-05 2.90228E-06 0.00000E+00
 -1       840 2.34042E-05 3.10156E-06-1.65436E-24
 -1       841 2.68544E-05 2.59409E-06 0.00000E+00
 -1       842 2.66280E-05 3.20034E-06 0.00000E+00
 -1       843 2.63607E-05 3.91552E-06 1.03398E-25
 -1       844 2.60579E-05 4.72477E-06 0.00000E+00
 -1       845 2.57251E-05 5.61366E-06 0.00000E+00
 -1       846 2.53678E-05 6.56762E-06 0.00000E+00
 -1       847 2.49914E-05 7.57225E-06 0.00000E+00
 -1       848 2.46014E-05 8.61316E-06 0.00000E+00
 -1       849 2.42031E-05 9.67602E-06 1.29247E-26
 -1       850 2.38019E-05 1.07465E-05-3.23117E-27
 -1       851 2.34032E-05 1.18103E-05 0.00000E+00
 -1       852 2.30124E-05 1.28530E-05 0.00000E+00
 -1       853 2.26349E-05 1.38603E-05 2.06795E-25
 -1       854 2.22756E-05 1.48179E-05-2.06795E-25
 -1       855 2.19407E-05 1.57112E-05 0.00000E+00
 -1       856 2.56257E-05 1.75624E-05-1.65436E-24
 -1       857 2.55278E-05 1.87184E-05 0.00000E+00
 -1       858 2.54297E-05 2.00312E-05 3.30872E-24
 -1       859 2.53307E-05 2.14773E-05 0.00000E+00
 -1       860 2.52315E-05 2.30328E-05 3.30872E-24
 -1       861 2.51320E-05 2.46739E-05 0.00000E+00
 -1       862 2.50324E-05 2.63768E-05 3.30872E-24
 -1       863 2.49327E-05 2.81175E-05 0.00000E+00
 -1       864 2.48330E-05 2.98721E-05 3.30872E-24
 -1       865 2.47333E-05 3.16166E-05 1.65436E-24
 -1       866 2.46336E-05 3.33270E-05 0.00000E+00
 -1       867 2.45342E-05 3.49795E-05 0.00000E+00
 -1       868 2.44349E-05 3.65501E-05 0.00000E+00
 -1       869 2.43362E-05 3.80150E-05 3.30872E-24
 -1       870 2.42377E-05 3.93505E-05 0.00000E+00
 -1       871 2.49569E-05 1.65778E-05 0.00000E+00
 -1       872 2.42595E-05 1.65682E-05 0.00000E+00
 -1       873 2.36027E-05 1.65584E-05 0.00000E+00
 -1       874 2.29622E-05 1.65483E-05 2.06795E-25
 -1       875 2.23137E-05 1.65377E-05-8.27181E-25
 -1       876 2.54914E-05 1.75964E-05 0.00000E+00
 -1       877 2.52115E-05 1.87619E-05-1.65436E-24
 -1       878 2.48812E-05 2.00611E-05 0.00000E+00
 -1       879 2.45088E-05 2.14746E-05 0.00000E+00
 -1       880 2.41010E-05 2.29822E-05 3.30872E-24
 -1       881 2.36653E-05 2.45644E-05 0.00000E+00
 -1       882 2.32088E-05 2.62018E-05 3.30872E-24
 -1       883 2.27390E-05 2.78748E-05 1.65436E-24
 -1       884 2.22630E-05 2.95642E-05 3.30872E-24
 -1       885 2.17881E-05 3.12504E-05 1.65436E-24
 -1       886 2.13217E-05 3.29142E-05-3.30872E-24
 -1       887 2.08708E-05 3.45362E-05 0.00000E+00
 -1       888 2.04429E-05 3.60968E-05 3.30872E-24
 -1       889 2.00444E-05 3.75763E-05-1.65436E-24
 -1       890 1.96839E-05 3.89554E-05 1.65436E-24
 -1       891 2.31996E-05 4.04798E-05 1.65436E-24
 -1       892 2.24467E-05 4.04259E-05 0.00000E+00
 -1       893 2.17851E-05 4.03721E-05-1.65436E-24
 -1       894 2.11161E-05 4.03184E-05-8.27181E-25
 -1       895 2.03411E-05 4.02645E-05 0.00000E+00
 -1       896 1.16510E-07 1.25090E-06 0.00000E+00
 -1       897 2.32593E-07 3.00589E-06 0.00000E+00
 -1       898 3.48012E-07 5.11394E-06 3.30872E-24
 -1       899 4.63055E-07 7.42578E-06 0.00000E+00
 -1       900 5.77845E-07 9.84998E-06 3.30872E-24
 -1       901 6.92595E-07 1.22958E-05-1.65436E-24
 -1       902 8.07490E-07 1.46784E-05-3.30872E-24
 -1       903 9.22708E-07 1.69128E-05-1.65436E-24
 -1       904 1.03847E-06 1.88720E-05-3.30872E-24
 -1       905 1.15488E-06 2.04273E-05-1.65436E-24
 -1       906 1.27200E-06 2.13357E-05 3.30872E-24
 -1       907 1.38939E-06 2.13508E-05 0.00000E+00
 -1       908 1.50569E-06 1.99726E-05-3.30872E-24
 -1       909 1.61703E-06 1.66942E-05 1.65436E-24
 -1       910 1.71465E-06 1.04717E-05-1.65436E-24
 -1       911 1.74236E-06-9.88426E-06 4.13590E-25
 -1       912 1.74060E-06-1.58029E-05 2.06795E-25
 -1       913 1.75329E-06-1.82172E-05 0.00000E+00
 -1       914 1.76865E-06-1.78317E-05 2.06795E-25
 -1       915 1.78115E-06-1.52538E-05 0.00000E+00
 -1       916 1.78848E-06-1.10892E-05 2.06795E-25
 -1       917 1.79126E-06-5.88796E-06 0.00000E+00
 -1       918 1.79149E-06-1.99650E-07-2.06795E-25
 -1       919 1.79195E-06 5.44329E-06 4.13590E-25
 -1       920 1.79538E-06 1.05084E-05-2.06795E-25
 -1       921 1.80356E-06 1.44429E-05 0.00000E+00
 -1       922 1.81670E-06 1.66935E-05 0.00000E+00
 -1       923 1.83198E-06 1.66478E-05 0.00000E+00
 -1       924 1.84275E-06 1.36918E-05 5.16988E-26
 -1       925 1.83660E-06 7.11094E-06 0.00000E+00
 -1       926 1.63445E-06-1.67310E-05 0.00000E+00
 -1       927 1.47977E-06-2.92586E-05-8.27181E-25
 -1       928 1.33975E-06-4.04920E-05-1.65436E-24
 -1       929 1.22072E-06-4.95332E-05 8.27181E-25
 -1       930 1.12150E-06-5.58485E-05 0.00000E+00
 -1       931 1.03686E-06-5.89141E-05 0.00000E+00
 -1       932 9.56706E-07-5.87455E-05 0.00000E+00
 -1       933 8.71034E-07-5.53697E-05 0.00000E+00
 -1       934 7.73679E-07-4.93462E-05-3.30872E-24
 -1       935 6.62074E-07-4.12439E-05 1.65436E-24
 -1       936 5.40905E-07-3.19775E-05 3.30872E-24
 -1       937 4.16995E-07-2.24659E-05-1.65436E-24
 -1       938 2.99157E-07-1.36684E-05 0.00000E+00
 -1       939 1.91510E-07-6.54185E-06-3.30872E-24
 -1       940 9.78770E-08-1.76286E-06-6.61744E-24
 -1       941 1.35243E-06 2.33136E-07 0.00000E+00
 -1       942 2.77978E-06 4.33728E-07 0.00000E+00
 -1       943 4.20237E-06 6.18680E-07 2.64698E-23
 -1       944 5.63925E-06 8.03854E-07 0.00000E+00
 -1       945 7.07653E-06 9.89131E-07 0.00000E+00
 -1       946 8.51666E-06 1.17441E-06-2.64698E-23
 -1       947 9.95712E-06 1.35969E-06-5.29396E-23
 -1       948 1.13981E-05 1.54496E-06 2.64698E-23
 -1       949 1.28391E-05 1.73024E-06-5.29396E-23
 -1       950 1.42797E-05 1.91551E-06 0.00000E+00
 -1       951 1.57201E-05 2.10079E-06-5.29396E-23
 -1       952 1.71582E-05 2.28608E-06 0.00000E+00
 -1       953 1.85960E-05 2.47091E-06 5.29396E-23
 -1       954 2.00223E-05 2.65477E-06 1.32349E-23
 -1       955 2.14525E-05 2.90432E-06 0.00000E+00
 -1       956 2.27498E-05 3.81578E-06 1.24077E-24
 -1       957 2.26758E-05 4.42141E-06 2.06795E-25
 -1       958 2.26015E-05 5.09940E-06 4.13590E-25
 -1       959 2.25271E-05 5.84108E-06-8.27181E-25
 -1       960 2.24525E-05 6.63776E-06-1.65436E-24
 -1       961 2.23779E-05 7.48069E-06 0.00000E+00
 -1       962 2.23032E-05 8.36109E-06-1.65436E-24
 -1       963 2.22285E-05 9.27021E-06 0.00000E+00
 -1       964 2.21538E-05 1.01993E-05 0.00000E+00
 -1       965 2.20791E-05 1.11395E-05 8.27181E-25
 -1       966 2.20044E-05 1.20822E-05 0.00000E+00
 -1       967 2.19298E-05 1.30184E-05 0.00000E+00
 -1       968 2.18551E-05 1.39396E-05 0.00000E+00
 -1       969 2.17806E-05 1.48368E-05 0.00000E+00
 -1       970 2.17064E-05 1.57015E-05 0.00000E+00
 -1       971 2.14954E-05 1.74096E-05 0.00000E+00
 -1       972 2.13537E-05 1.84862E-05 1.65436E-24
 -1       973 2.12119E-05 1.97313E-05 3.30872E-24
 -1       974 2.10694E-05 2.11209E-05 1.65436E-24
 -1       975 2.09266E-05 2.26310E-05 0.00000E+00
 -1       976 2.07836E-05 2.42372E-05 1.65436E-24
 -1       977 2.06404E-05 2.59152E-05 0.00000E+00
 -1       978 2.04971E-05 2.76407E-05 0.00000E+00
 -1       979 2.03538E-05 2.93890E-05 3.30872E-24
 -1       980 2.02106E-05 3.11356E-05 0.00000E+00
 -1       981 2.00674E-05 3.28561E-05 3.30872E-24
 -1       982 1.99244E-05 3.45260E-05 1.65436E-24
 -1       983 1.97817E-05 3.61208E-05 0.00000E+00
 -1       984 1.96399E-05 3.76162E-05 1.65436E-24
 -1       985 1.94982E-05 3.89879E-05 3.30872E-24
 -3
    1PSTEP                        48          24           1          
  100CL  124 5.48210E-01         841                     0   24           1
 -4  STRESS      6    1
 -5  SXX         1    4    1    1
 -5  SYY         1    4    2    2
 -5  SZZ         1    4    3    3
 -5  SXY         1    4    1    2
 -5  SYZ         1    4    2    3
 -5  SZX         1    4    3    1
 -1         1-2.10666E+06-7.00915E+05-4.29306E+05-6.73050E+05-8.24609E-11 1.45519E-09
 -1         2-1.02641E+06-2.54312E+04 2.29302E+04-2.16043E+04-3.17073E-09 4.12001E-10
 -1         3-7.57082E+05-2.32884E+05-3.44655E+04-1.96028E+04 3.26281E-09-2.52567E-09
 -1         4-5.80186E+05-4.05067E+04 7.08181E+03-3.84642E+04 4.01110E-09 2.13504E-09
 -1         5-4.95810E+05 2.10029E+04-1.67545E+05-1.01673E+04 1.36024E-08 3.39810E-09
 -1         8-8.57567E+05-3.35893E+05-8.13792E+04-4.19353E+05-7.82165E-11 3.32511E-09
 -1         9-1.03937E+06-2.69153E+05-9.75190E+04-2.86928E+05 3.31662E-10 1.81899E-10
 -1        10-1.35590E+05-1.64534E+05 8.15634E+04-2.15555E+04-8.82953E-09 1.52492E-10
 -1        11-1.30522E+05 7.98720E+03 1.49661E+04-6.44719E+04-2.82728E-08 4.05673E-10
 -1        12-1.23315E+05 1.04639E+05-7.77041E+04-2.27621E+04 2.51083E-09 9.61229E-10
 -1        15 5.13297E+04 7.54011E+04 1.84716E+04 4.65334E+03 2.91948E-10 6.16637E-09
 -1        16-8.87020E+05-1.68680E+05 1.54788E+04-3.36608E+05 6.26945E-10 4.59310E-09
 -1        17-4.38475E+05-2.83988E+05-4.40636E+04-2.36930E+05-4.17519E-09 2.08456E-09
 -1        18 9.38410E+03-7.24943E+03-1.65025E+04-6.79392E+04 5.34131E-09-9.19802E-10
 -1        19 4.96484E+04 8.93286E+04-1.64188E+04-4.96327E+03-9.82709E-10 1.63072E-09
 -1        20 7.29497E+04-5.52987E+04-9.46491E+03 3.95502E+04 2.73280E-09-5.09317E-10
 -1        21 1.90636E+03-1.09344E+05 3.05783E+04 4.08878E+01 1.32634E-08 2.35118E-09
 -1        22 5.41085E+04 1.25022E+05 1.06946E+04 7.09326E+03-4.94992E-10-2.54113E-09
 -1        23-5.32980E+04 9.11449E+04 1.83606E+04 4.46329E+02-7.32803E-09-4.28918E-09
 -1        24-2.37512E+05-3.69486E+04 1.87311E+05-3.58870E+05-1.12971E-08 1.12535E-09
 -1        25 4.17125E+05 1.41731E+05 1.28602E+05-2.15567E+05 7.77770E-10 9.46784E-10
 -1        26 7.35781E+02 1.15567E+05 5.75106E+03-1.93986E+04-4.20944E-10-1.09011E-09
 -1        27-2.47418E+04-4.61111E+04-1.98978E+04 5.59689E+04 8.22486E-10-2.89704E-09
 -1        28-8.80769E+03-8.70757E+04-4.82022E+02 4.19738E+04-8.07063E-10-2.18359E-09
 -1        29 1.66619E+05 1.51798E+05 6.24724E+02 4.96171E+03-1.90716E-10 6.17320E-10
 -1        30 7.53141E+04 2.66609E+04 9.92353E+03-8.08389E+03 3.17937E-09-1.37077E-08
 -1        31-4.16851E+04 3.27979E+04 1.57239E+04-2.70356E+04 4.96888E-09-1.80632E-08
 -1        32 7.69425E+05 3.85434E+05 4.68908E+05-3.57158E+05 8.26939E-09-5.00950E-09
 -1        33 1.00781E+06 4.00558E+05 3.08634E+05-3.07508E+04-2.02611E-08 1.40653E-09
 -1        34-1.46164E+05-1.77879E+04-2.75461E+03 3.30046E+04 3.12223E-10-8.44921E-10
 -1        35-2.50215E+04-2.90791E+04-5.28582E+02 6.30708E+04 1.31208E-09-1.77776E-09
 -1        36-2.34744E+06 6.53584E+04-1.50951E+05 1.94396E-07-1.64921E-09 6.47560E-10
 -1        37-2.41280E+06-7.56525E+04-1.06845E+05 1.57861E-07-1.31773E-09 1.87356E-10
 -1        38-2.37266E+06 1.02442E+04-3.90516E+04-1.10287E-07 2.47591E-09 1.90630E-09
 -1        39-2.38333E+06-1.18547E+04-2.45625E+04 2.60356E-07 4.74695E-09-4.17185E-09
 -1        40-2.37681E+06 1.60258E+03-1.00357E+04 1.37566E-07 2.37699E-10-9.05402E-09
 -1        41-2.37847E+06-1.87827E+03-5.99857E+03 1.73264E-08-2.77661E-09-2.03408E-09
 -1        42-2.37749E+06 2.74609E+02-2.94347E+03-1.06027E-07-4.14333E-09-9.15975E-10
 -1        43-2.37774E+06-4.88367E+02-2.35638E+03-2.92606E-09-1.45013E-10-7.45332E-09
 -1        44-2.37752E+06 2.13557E+02-2.39807E+03-1.31340E-07-4.81592E-10-2.53601E-09
 -1        45-2.37818E+06-1.35332E+03-4.41881E+03-3.45647E-07-7.93241E-10-5.48994E-09
 -1        46-2.37705E+06 1.13900E+03-7.19247E+03-1.40586E-08-2.77179E-09 2.41016E-11
 -1        47-2.38162E+06-8.40767E+03-1.74542E+04-1.11867E-07-5.95078E-09 4.20209E-09
 -1        48-2.37411E+06 7.26293E+03-2.77061E+04 1.94782E-07 1.51453E-09 2.41744E-09
 -1        49-2.40251E+06-5.36348E+04-7.57589E+04-6.82062E-08 3.45516E-11 1.40608E-09
 -1        50-2.35624E+06 4.63341E+04-1.07042E+05 1.94848E-07-4.65767E-09 5.32600E-09
 -1        51 2.51786E+04-3.01383E+05 4.01053E+04-7.92061E+05-7.27596E-11 1.14960E-09
 -1        52 1.13925E+04-2.97780E+05 2.42881E+04-8.71824E+05 2.00089E-10 3.77986E-09
 -1        53 7.35573E+03-3.05480E+05 1.94740E+04-7.89996E+05-2.54659E-11 2.75031E-09
 -1        54 1.69295E+04-3.02352E+05 2.95525E+04-8.74028E+05 9.45874E-11-1.05247E-08
 -1        55 3.89812E+04-3.11710E+05 5.35122E+04-7.89627E+05 2.91038E-11-9.82254E-11
 -1        56-3.68544E+06-4.14949E+05-3.06285E+05-1.42606E+06 8.14907E-10 4.30737E-09
 -1        57-3.82685E+06-6.67241E+05-2.05544E+05-1.39308E+06 1.40426E-09-2.55204E-09
 -1        58-3.74478E+06-5.11875E+05-7.20984E+04-1.40948E+06 5.63887E-10-4.94765E-10
 -1        59-3.75857E+06-5.52779E+05-4.27466E+04-1.41262E+06-9.38371E-10-3.72165E-09
 -1        60-3.75286E+06-5.25576E+05-1.68432E+04-1.40782E+06 9.87711E-10 1.47065E-09
 -1        61-3.74989E+06-5.36018E+05-9.52918E+03-1.41378E+06-2.63287E-09-2.52930E-09
 -1        62-3.75329E+06-5.28154E+05-4.64424E+03-1.40846E+06-2.52817E-09 2.25475E-09
 -1        63-3.75044E+06-5.32349E+05-3.88347E+03-1.41196E+06-2.91948E-10 8.17795E-09
 -1        64-3.75227E+06-5.29199E+05-4.52183E+03-1.40964E+06-1.00397E-09 6.38852E-09
 -1        65-3.75376E+06-5.31957E+05-9.16338E+03-1.40925E+06-3.31283E-10-1.97042E-09
 -1        66-3.75000E+06-5.28597E+05-1.61543E+04-1.41116E+06-1.50499E-09-3.42152E-09
 -1        67-3.76530E+06-5.44784E+05-4.09566E+04-1.40445E+06-9.42805E-10-1.44610E-09
 -1        68-3.74090E+06-5.16835E+05-6.90772E+04-1.41431E+06-2.05273E-09 5.37693E-09
 -1        69-3.83273E+06-6.52434E+05-1.96910E+05-1.38345E+06-1.08685E-09 1.80989E-09
 -1        70-3.68341E+06-4.24618E+05-2.93439E+05-1.43092E+06-2.75759E-09 5.44242E-09
 -1        71-1.60957E+06 1.72007E+04-3.97625E+04-2.23985E-07-4.50093E-09-1.18052E-09
 -1        72-1.62668E+06-1.99122E+04-2.81377E+04 2.79027E-08-2.53060E-09-1.09549E-09
 -1        73-1.61621E+06 2.69651E+03-1.02975E+04 1.82003E-07-8.73993E-10-2.06865E-09
 -1        74-1.61893E+06-3.12212E+03-6.49264E+03 2.83229E-07-6.59265E-11 3.57932E-09
 -1        75-1.61730E+06 4.23425E+02-2.68844E+03 3.43757E-07-4.14434E-10-1.95882E-09
 -1        76-1.61766E+06-5.06680E+02-1.67484E+03-1.70903E-07 1.74915E-09 4.42137E-09
 -1        77-1.61747E+06 8.29595E+01-9.52386E+02-2.17340E-08 1.88186E-10-1.29056E-09
 -1        78-1.61751E+06-2.08960E+02-1.00975E+03-1.11473E-07 9.45931E-10 3.28077E-09
 -1        79-1.61745E+06 1.25913E+02-1.33663E+03-3.54967E-08 4.89781E-10-2.38890E-09
 -1        80-1.61786E+06-8.76024E+02-2.78749E+03-1.92756E-07-1.52955E-09 7.04745E-10
 -1        81-1.61713E+06 7.49591E+02-4.69098E+03 5.56706E-08-4.68508E-10-2.32285E-09
 -1        82-1.62013E+06-5.54729E+03-1.14973E+04 2.51719E-07 2.45175E-10-1.97110E-09
 -1        83-1.61518E+06 4.79387E+03-1.82862E+04-2.31194E-07 2.85399E-10 5.20231E-10
 -1        84-1.63392E+06-3.54026E+04-5.00164E+04-1.88279E-07-7.76023E-10-5.81167E-10
 -1        85-1.60338E+06 3.05829E+04-7.06824E+04 1.18482E-07-3.28975E-09-5.85715E-10
 -1        86-4.75947E+04 3.25894E+04 1.11823E+05 2.09310E+03-6.54836E-11-6.10933E-09
 -1        87 6.01892E+04 8.47972E+04 8.84847E+04-8.59161E+03-6.29370E-10-8.44959E-09
 -1        88-1.25301E+04 4.94647E+04 4.73607E+04 1.80861E+03-1.40881E-09-9.46660E-10
 -1        89 4.72018E+04 7.82053E+04 7.15013E+04-8.40324E+03-1.36424E-12 2.36773E-09
 -1        90-3.46095E+04 3.91586E+04 8.29320E+04 1.90481E+03-1.53159E-09-2.90034E-09
 -1        91-8.73395E+05-1.97487E+05-1.59949E+04-3.70049E+05 2.46309E-08-1.02591E-09
 -1        92-5.81466E+05 6.25851E+04 7.18099E+04-7.26544E+04 4.95183E-08-6.82076E-09
 -1        93-6.82474E+05-1.44828E+05 2.55833E+03-3.35785E+05-1.53759E-08-7.06245E-09
 -1        94-4.00335E+05 3.24349E+04 8.80206E+04-5.27162E+04-4.71668E-08 4.51314E-09
 -1        95-1.05062E+06-1.71556E+05-7.80283E+04-3.86369E+05-1.67483E-08-1.85560E-09
 -1        96-2.15409E+05-5.93255E+04 1.03240E+05-1.48679E+05 5.57886E-08 6.14148E-09
 -1        97-8.65244E+05-5.52184E+04-2.25850E+04-2.38424E+05 4.20187E-10 1.13870E-08
 -1        98-4.19107E+05-1.72651E+05 4.05329E+04-3.07005E+05-2.70232E-08 2.11647E-08
 -1        99-8.53455E+05-5.13677E+04-2.00242E+04-2.33418E+05 3.52725E-08 6.16433E-09
 -1       100-2.22637E+05-6.50385E+04 9.97058E+04-1.55692E+05 2.83890E-08 6.78654E-09
 -1       101-1.05541E+06-1.69474E+05-8.07206E+04-3.84557E+05 7.82666E-09 3.71392E-09
 -1       102-3.87931E+05 2.90793E+04 8.51061E+04-5.15676E+04-1.20747E-09-8.53652E-09
 -1       103-6.89818E+05-1.43835E+05-8.41476E+03-3.38510E+05-2.62324E-08-1.67188E-09
 -1       104-5.97110E+05 4.33533E+04 4.41424E+04-6.95852E+04 2.15721E-10 1.88606E-09
 -1       105-8.50530E+05-1.79138E+05-5.15468E+04-3.70499E+05 1.29544E-08 1.21620E-08
 -1       106-1.29266E+06 1.84692E+04-4.26969E+04-1.19768E-07 4.08583E-09-2.34104E-09
 -1       107-1.31108E+06-2.13807E+04-3.02141E+04-2.20567E-07 3.18179E-10 2.58296E-10
 -1       108-1.29979E+06 2.89526E+03-1.10551E+04-1.90083E-07 2.21902E-10 2.01635E-09
 -1       109-1.30275E+06-3.35157E+03-6.96324E+03 6.04117E-08-7.23068E-10 1.70348E-09
 -1       110-1.30096E+06 4.53948E+02-2.86844E+03 2.60414E-07-2.62989E-10-2.89083E-09
 -1       111-1.30139E+06-5.38594E+02-1.75737E+03 3.87893E-07 6.47270E-10 2.28724E-09
 -1       112-1.30115E+06 8.43334E+01-9.44810E+02 2.13505E-07 1.39786E-11 2.42608E-10
 -1       113-1.30121E+06-1.88629E+02-9.12065E+02 1.24127E-07-2.44360E-10 9.81400E-10
 -1       114-1.30114E+06 1.04218E+02-1.12277E+03 2.62234E-07-1.51376E-10-2.80471E-09
 -1       115-1.30148E+06-7.09560E+02-2.27263E+03 1.93763E-07-6.19318E-10-2.90558E-09
 -1       116-1.30089E+06 6.04926E+02-3.79583E+03-5.34084E-08-9.80092E-10-1.83877E-09
 -1       117-1.30331E+06-4.47420E+03-9.28051E+03-9.81405E-08-3.52539E-09-5.27280E-10
 -1       118-1.29932E+06 3.86612E+03-1.47541E+04-1.78746E-07-3.98863E-09-2.97405E-09
 -1       119-1.31443E+06-2.85510E+04-4.03431E+04-4.01010E-07-6.15814E-10 8.44011E-10
 -1       120-1.28979E+06 2.46638E+04-5.70113E+04 7.68447E-08 3.14290E-10 1.73168E-09
 -1       121-1.16140E+03-7.63371E+05 4.87756E+03-1.37424E+03-7.73070E-10-4.65207E-09
 -1       122 1.39543E+03-7.61442E+05 2.61219E+03-5.35116E+03-1.85605E-09-3.47472E-09
 -1       123-5.39049E+01-7.62523E+05 4.33682E+01-1.07670E+03-1.92779E-09-4.34738E-10
 -1       124-1.34671E+03-7.63142E+05-2.39538E+03-5.92075E+03-3.99359E-09-3.12866E-09
 -1       125 1.00143E+03-7.61714E+05-4.65067E+03-8.05326E+02-3.26577E-09 2.00544E-09
 -1       126-3.52356E+05-8.36847E+04 2.36341E+04-1.32471E+05 1.91267E-08 1.05319E-09
 -1       127-1.78135E+05 3.09456E+04 5.38798E+04-4.13543E+04 4.09489E-08 4.42742E-09
 -1       128-2.69287E+05-5.96435E+04 6.07626E+03-1.25260E+05 2.01605E-08-7.75344E-10
 -1       129-2.80359E+05 2.99530E+03 1.02404E+04-5.28958E+04 4.07628E-08-2.02158E-09
 -1       130-2.51693E+05-5.45929E+04 1.81812E+03-1.22214E+05 4.71547E-08-1.61549E-10
 -1       131-2.30864E+05 2.55458E+03 1.56430E+04-4.21002E+04-6.28416E-08-7.89541E-09
 -1       132-3.17886E+05-5.98749E+04-1.37307E+04-1.35298E+05-2.41614E-08 7.56717E-09
 -1       133-1.19872E+05-1.44698E+03 3.54683E+04-3.33446E+04 4.22301E-08 3.72273E-09
 -1       134-3.60843E+05-5.19754E+04-2.09252E+04-1.29552E+05 1.15035E-08-1.77988E-09
 -1       135-1.16324E+05-3.16640E+04 2.98933E+04-7.10801E+04-2.38233E-08-7.49901E-09
 -1       136-3.21826E+05-2.93789E+04-9.68208E+03-9.79820E+04-1.74621E-08 1.08565E-09
 -1       137-1.97065E+05-6.56902E+04 6.73386E+03-1.23754E+05-2.32450E-08-4.58465E-09
 -1       138-2.82112E+05-1.64252E+04-1.37716E+03-7.83319E+04 4.59734E-08 6.55757E-09
 -1       139-1.99202E+05-6.55730E+04 2.76858E+03-1.25313E+05-4.43818E-08-3.51288E-08
 -1       140-3.19744E+05-2.94529E+04-1.84980E+04-9.64620E+04-3.34002E-08-6.02586E-09
 -1       141-9.44627E+05 1.12135E+04-2.59321E+04 1.54001E-08-1.56272E-09-2.81398E-09
 -1       142-9.55798E+05-1.29817E+04-1.83576E+04 1.45835E-07-1.83673E-09-2.76009E-09
 -1       143-9.48958E+05 1.75832E+03-6.73505E+03 9.26717E-08-9.91794E-10-3.90855E-09
 -1       144-9.50747E+05-2.03846E+03-4.27313E+03-1.64676E-07 4.30049E-10 1.69376E-09
 -1       145-9.49669E+05 2.78690E+02-1.82691E+03 9.91837E-08-5.81073E-10-1.46940E-09
 -1       146-9.49930E+05-3.50541E+02-1.24820E+03 2.81389E-08 4.79236E-10 2.68827E-09
 -1       147-9.49773E+05 7.16571E+01-9.12562E+02 1.06104E-07 3.45101E-10 2.75567E-09
 -1       148-9.49900E+05-2.68560E+02-1.29945E+03-2.09261E-07-4.00692E-10 2.01226E-11
 -1       149-9.49700E+05 1.96791E+02-2.03322E+03 1.96472E-08-1.52077E-09 4.05646E-09
 -1       150-9.50510E+05-1.42650E+03-4.49243E+03 2.53897E-07-1.40457E-09-3.97159E-09
 -1       151-9.49165E+05 1.22888E+03-7.66577E+03 7.09056E-08-8.88509E-10-3.00452E-09
 -1       152-9.54251E+05-9.10321E+03-1.88607E+04-7.81788E-08-1.35404E-11 3.09228E-10
 -1       153-9.45968E+05 7.86814E+03-3.00193E+04-9.52370E-08 4.01119E-09-8.42192E-10
 -1       154-9.76875E+05-5.81064E+04-8.21078E+04 1.10297E-07 1.52566E-09-1.54705E-09
 -1       155-9.26564E+05 5.01977E+04-1.16009E+05-3.69176E-08 7.66742E-09-3.63798E-10
 -1       156-2.45639E+04-6.17730E+04 5.29799E+04 1.45873E+04 4.83487E-09 1.99168E-09
 -1       157 2.81432E+04-1.16995E+04 4.34932E+04-5.86397E+04 1.31258E-08 2.83720E-11
 -1       158-3.20243E+03-4.79049E+04 1.66010E+04 1.45625E+04 6.67569E-09-6.50175E-10
 -1       159 1.60022E+04 3.71217E+04 3.31950E+04-5.67889E+04 3.00250E-09-9.61336E-10
 -1       160-1.34438E+04-1.09211E+05 2.75962E+03 1.27463E+04-9.41372E-09-7.50106E-10
 -1       161-3.73734E+05-7.55884E+04 1.15616E+04-1.43643E+05-2.56762E-08 5.72982E-10
 -1       162-2.71829E+05 3.05756E+03 3.18867E+04-7.56685E+04-3.03645E-08-3.52065E-09
 -1       163-3.13067E+05-6.25896E+04 3.98946E+03-1.40253E+05 2.72965E-08-3.41106E-09
 -1       164-3.34827E+05-1.11143E+04 6.43472E+03-7.95241E+04-3.43343E-09 1.81899E-09
 -1       165-3.11676E+05-6.07038E+04-2.83413E+02-1.40559E+05-5.95230E-08-7.55759E-09
 -1       166-2.81184E+05-1.28565E+04 1.41265E+04-7.26964E+04-2.79401E-08 5.81002E-09
 -1       167-3.65786E+05-6.15629E+04-1.19546E+04-1.46316E+05 2.05387E-09-3.21467E-09
 -1       168-2.12781E+05-2.62140E+04 2.40170E+04-8.14582E+04 1.94001E-08-2.33740E-10
 -1       169-3.79109E+05-4.81021E+04-1.27921E+04-1.31073E+05-5.79907E-08 5.40609E-09
 -1       170-2.37594E+05-5.79291E+04 1.15902E+04-1.22935E+05-1.35804E-07-6.24320E-09
 -1       171-3.41913E+05-2.91229E+04-4.91106E+03-1.05596E+05 5.52599E-08 2.55235E-08
 -1       172-2.77385E+05-7.90771E+04-6.09168E+03-1.48506E+05 2.92981E-08 8.31767E-09
 -1       173-3.40294E+05-2.61932E+04-1.61291E+04-1.06212E+05-5.15627E-08-1.25692E-09
 -1       174-2.52253E+05-8.31464E+04-2.77281E+04-1.17806E+05 4.90443E-08 8.21819E-09
 -1       175-3.66061E+05-2.58389E+04-7.43924E+04-1.35573E+05 2.75186E-08 3.78350E-10
 -1       191 1.30526E+03 3.81558E+05 2.05225E+03-1.89140E+04-5.65706E-10 1.38607E-09
 -1       192 4.57402E+02 3.81848E+05 1.11613E+03-2.05188E+04-7.22025E-10 3.14685E-10
 -1       193 1.54806E+02 3.81660E+05 7.12742E+02-1.87283E+04-1.38061E-09 3.30201E-08
 -1       194 3.22001E+02 3.81780E+05 8.50352E+02-2.08486E+04-1.71985E-09 6.14727E-08
 -1       195 8.68925E+02 3.81574E+05 1.39240E+03-1.85832E+04-2.10457E-09 3.23662E-08
 -1       251-1.07361E+06-1.47623E+04-4.70956E+04-6.12866E+04-3.74257E-10-6.68069E-09
 -1       252-6.93256E+05 8.48621E+03 3.60220E+04 1.65996E+05 4.03788E-09 9.63860E-09
 -1       253-9.35783E+05 9.60361E+03-8.55713E+03-7.87859E+04 3.81351E-09-9.09108E-09
 -1       254-5.12164E+05 1.08739E+04 7.56681E+04 1.03171E+05 7.23333E-09 1.27229E-08
 -1       255-1.24867E+06-2.33840E+04-7.26034E+04 1.59003E+03 1.01086E-08-3.72529E-09
 -1       256-4.56262E+05 1.66588E+04 8.86660E+04-6.72419E+04 1.17154E-08-1.14746E-08
 -1       257-9.89834E+05 1.98596E+03-1.79772E+04 9.12842E+04-2.03499E-10 2.27837E-08
 -1       258-7.16628E+05 4.71455E+02 3.47084E+04-1.55849E+05 1.93062E-10-2.25110E-08
 -1       259-9.96580E+05 1.28316E+03-1.93586E+04 9.05407E+04-1.55881E-08 2.41605E-08
 -1       260-4.50695E+05 1.70454E+04 8.99291E+04-6.44366E+04-7.12998E-09-1.17492E-08
 -1       261-1.24732E+06-2.32329E+04-7.21135E+04-4.72258E+02 2.52476E-09 3.23740E-09
 -1       262-5.18502E+05 1.06068E+04 7.47928E+04 1.05735E+05 2.29961E-08 5.78621E-09
 -1       263-9.30996E+05 9.92298E+03-6.74828E+03-7.92856E+04-1.16331E-08-1.19334E-08
 -1       264-6.90153E+05 1.02205E+04 3.86654E+04 1.65292E+05-6.19193E-08 1.51770E-08
 -1       265-1.08142E+06-1.69009E+04-4.56203E+04-6.00807E+04-2.56614E-08-8.81028E-09
 -1       266-2.81290E+04-6.39987E+04 6.48431E+04-5.32844E+03 8.36735E-11 3.39583E-10
 -1       267 3.18345E+04-3.29992E+04 4.53626E+04 2.19177E+04 5.82077E-11-5.85253E-09
 -1       268-3.71350E+03-5.41060E+04 1.44354E+04-5.15007E+03-9.09495E-13-1.51181E-09
 -1       269 2.05877E+03-3.56617E+04 7.67616E+03 2.08139E+04-6.84395E-11 2.09957E-09
 -1       270 1.41586E+03-6.10609E+04-6.65244E+03-4.22781E+03 8.91305E-11 9.98000E-09
 -1       271-3.00887E+06-3.82958E+05-2.35156E+05-1.16488E+06-7.42148E-10-4.54020E-09
 -1       272-3.08846E+06-5.32703E+05-1.47458E+05-1.16812E+06-2.01999E-09-6.89215E-09
 -1       273-3.04995E+06-4.33080E+05-5.54353E+04-1.15853E+06 1.69098E-09 6.71207E-09
 -1       274-3.04053E+06-4.66714E+05-3.02422E+04-1.18010E+06 3.98813E-10 9.78616E-10
 -1       275-3.05524E+06-4.37576E+05-1.28763E+04-1.15723E+06 5.18412E-11 2.46564E-09
 -1       276-3.03419E+06-4.61088E+05-6.77475E+03-1.18245E+06 6.56428E-10 5.72481E-09
 -1       277-3.05629E+06-4.37615E+05-3.47157E+03-1.15666E+06 9.07221E-11 3.29749E-09
 -1       278-3.03305E+06-4.61087E+05-2.68522E+03-1.18329E+06-1.66665E-10-1.60313E-10
 -1       279-3.05647E+06-4.37450E+05-3.18051E+03-1.15648E+06 9.87939E-11 8.21274E-10
 -1       280-3.03354E+06-4.61611E+05-5.99080E+03-1.18323E+06-1.27613E-10 5.01086E-09
 -1       281-3.05582E+06-4.37148E+05-1.12563E+04-1.15670E+06 1.04365E-09 4.16549E-09
 -1       282-3.03868E+06-4.66947E+05-2.64098E+04-1.18172E+06-6.88146E-10-4.51109E-10
 -1       283-3.05139E+06-4.33029E+05-4.83601E+04-1.15762E+06 1.35287E-09 2.64117E-09
 -1       284-3.08018E+06-5.24855E+05-1.28670E+05-1.17165E+06-1.37334E-10-1.12050E-09
 -1       285-3.01569E+06-3.89163E+05-2.05188E+05-1.16302E+06-5.85715E-10-2.93949E-09
 -1       286-1.26563E+05-2.71341E+04 6.27281E+04-1.94990E+01 1.17839E-09 3.12866E-10
 -1       287-9.89462E+04 3.14129E+04 4.44425E+04-6.51902E+02 5.29148E-10-6.91216E-10
 -1       288-1.16041E+05-4.25528E+03 1.62271E+04 2.12009E+02 2.45286E-10-2.55477E-09
 -1       289-1.11267E+05 4.92334E+03 1.02486E+04-1.07925E+03 1.68907E-10-5.24733E-09
 -1       290-1.14254E+05-6.65601E+02 4.17987E+03 4.07874E+02 7.38744E-10-2.91811E-09
 -1       291-1.13380E+05 7.81392E+02 2.52426E+03-1.37581E+03 1.47289E-09 3.60501E-09
 -1       292-1.13931E+05-1.14616E+02 1.26135E+03 5.08577E+02 1.05322E-09-1.85315E-09
 -1       293-1.13706E+05 2.16879E+02 1.05870E+03-1.46219E+03 3.74628E-10-8.57417E-10
 -1       294-1.13929E+05-1.00841E+02 1.13487E+03 4.94251E+02 1.02940E-09 3.31266E-09
 -1       295-1.13424E+05 6.61555E+02 2.16557E+03-1.32105E+03 6.70369E-10 7.49992E-10
 -1       296-1.14211E+05-5.59993E+02 3.52445E+03 3.67432E+02 4.25501E-10-1.04137E-09
 -1       297-1.11631E+05 4.13503E+03 8.62394E+03-9.79271E+02 1.38645E-10 3.20597E-10
 -1       298-1.15719E+05-3.57367E+03 1.36226E+04 1.52470E+02-3.10223E-11 6.65750E-10
 -1       299-1.01283E+05 2.63754E+04 3.73252E+04-5.21872E+02-5.58433E-10 3.72893E-11
 -1       300-1.24551E+05-2.27831E+04 5.26573E+04-8.99905E+01 7.39988E-10-1.29148E-09
 -1       301 4.05070E+04-1.40723E+03 9.10191E+04-2.60484E+04-8.51287E-10-3.37417E-09
 -1       302 1.37703E+04 1.57831E+04 5.62389E+04-3.07084E+04-8.22638E-10-5.10930E-09
 -1       303 3.87728E+03 4.65475E+03 4.57719E+04-2.60855E+04-7.18956E-10-4.34738E-09
 -1       304 1.84804E+04 1.86242E+04 6.90217E+04-3.06759E+04-8.33097E-10-7.20456E-09
 -1       305 5.57358E+04-4.22937E+03 1.21989E+05-2.60560E+04-4.51109E-10-3.15140E-09
 -1       306-1.98779E+06-2.61148E+05-1.28842E+05-7.70090E+05-3.05590E-10-4.51109E-10
 -1       307-2.01871E+06-3.55525E+05-8.07368E+04-7.86209E+05-1.77579E-10-3.93266E-09
 -1       308-2.01040E+06-2.88418E+05-3.03894E+04-7.66538E+05-3.34467E-10 7.65795E-10
 -1       309-1.99251E+06-3.19491E+05-1.65821E+04-7.92926E+05 4.27463E-10 2.23281E-09
 -1       310-2.01330E+06-2.90864E+05-7.08583E+03-7.65847E+05 3.42652E-09 5.17775E-09
 -1       311-1.98917E+06-3.16321E+05-3.77406E+03-7.94144E+05 5.23528E-10 3.43789E-10
 -1       312-2.01380E+06-2.90955E+05-2.02462E+03-7.65624E+05 9.64747E-10 2.56014E-09
 -1       313-1.98876E+06-3.16131E+05-1.74157E+03-7.94364E+05 3.09228E-10 4.98630E-09
 -1       314-2.01375E+06-2.90994E+05-2.29184E+03-7.65669E+05-2.83535E-10-2.04864E-09
 -1       315-1.98939E+06-3.16257E+05-4.50369E+03-7.93934E+05-1.08503E-09-5.77711E-09
 -1       316-2.01309E+06-2.90922E+05-8.57671E+03-7.65981E+05-4.68481E-09-7.35690E-09
 -1       317-1.99349E+06-3.20090E+05-2.01379E+04-7.92427E+05 1.72440E-09-4.62023E-10
 -1       318-2.00957E+06-2.87931E+05-3.69282E+04-7.66803E+05 1.96997E-09 9.87711E-10
 -1       319-2.02527E+06-3.63978E+05-9.81302E+04-7.84386E+05-1.31624E-09-2.28465E-09
 -1       320-1.98217E+06-2.54689E+05-1.56573E+05-7.71031E+05-1.79898E-09-9.09495E-10
 -1       321-3.11004E+05-1.89920E+04 3.30322E+04-6.58146E+03-6.47401E-09-1.11322E-09
 -1       322-2.42819E+05 2.15517E+04 3.28774E+04 2.10399E+04-2.16953E-08 8.28186E-09
 -1       323-2.86189E+05-2.63983E+03 8.84041E+03-1.31177E+04 1.07837E-08-3.86717E-09
 -1       324-2.73771E+05 2.98357E+03 7.05195E+03 2.86848E+04 4.79496E-08 9.88075E-09
 -1       325-2.80650E+05 2.57638E+01 2.45335E+03-1.42395E+04-7.16022E-09-5.27871E-09
 -1       326-2.63560E+05 6.58508E+02 4.57411E+03 2.51496E+04-2.31216E-09 9.22965E-09
 -1       327-2.96103E+05-5.51236E+02-2.62935E+03-9.57458E+03 1.73300E-08-7.48881E-09
 -1       328-2.34850E+05 1.35290E+03 9.25741E+03 1.14265E+04-3.79441E-09 4.75177E-09
 -1       329-3.08611E+05-1.25680E+03-5.75510E+03-5.11211E+02 2.84103E-10 1.31094E-09
 -1       330-2.31235E+05 1.43240E+03 9.54441E+03-7.16377E+03-2.25805E-09-3.75879E-09
 -1       331-2.99622E+05-7.06728E+02-4.41250E+03 8.99783E+03 2.61286E-09 4.70624E-09
 -1       332-2.58459E+05 1.17778E+02 3.17966E+03-2.23424E+04-4.07400E-08-4.82947E-09
 -1       333-2.82085E+05 6.05256E+02-2.31514E+03 1.46709E+04-3.38732E-08 8.81141E-09
 -1       334-2.77530E+05-2.70368E+03-4.13600E+03-2.80607E+04-2.69112E-08-9.32027E-09
 -1       335-2.81016E+05 2.47838E+03-7.80873E+03 1.47303E+04 2.28213E-08 8.63201E-09
 -1       336 1.38299E+03-7.73901E+05-7.24431E+03-1.20735E+04-4.23995E-09 3.90037E-09
 -1       337-2.33893E+03-7.76683E+05-7.17931E+03-4.69165E+04-7.43125E-09-1.20474E-09
 -1       338 7.21866E+02-7.74395E+05-7.88152E+03-1.19505E+04-4.49495E-09 1.25880E-09
 -1       339-7.52181E+03-7.79849E+05-1.66162E+04-4.69681E+04-7.68046E-09 1.71190E-09
 -1       340 5.43928E+03-7.70765E+05-2.52092E+04-1.20240E+04-4.18186E-09 2.82921E-09
 -1       341-4.44939E+05-1.02257E+05-2.15608E+03-1.74669E+05 5.15063E-08 8.13816E-09
 -1       342-1.97176E+05 4.04023E+04 5.57052E+04-2.85949E+04 2.75065E-08 1.88174E-09
 -1       343-3.10669E+05-7.26702E+04 3.10224E+03-1.54117E+05-3.93838E-08-2.25373E-08
 -1       344-3.29796E+05 1.04527E+04 1.15208E+04-4.90350E+04 8.58548E-08 7.81648E-09
 -1       345-3.14484E+05-7.06460E+04-3.08738E+03-1.56090E+05 1.06514E-07 2.47746E-09
 -1       346-1.98297E+05 1.66663E+04 3.54648E+04-2.19778E+04-4.54155E-08-1.21295E-08
 -1       347-4.39805E+05-8.07210E+04-3.01935E+04-1.79140E+05 1.35581E-08-6.92341E-09
 -1       348-5.11449E+04 1.31075E+03 6.03016E+04-2.44186E+04 4.48492E-08-3.66276E-09
 -1       349-4.59280E+05-5.71397E+04-3.00830E+04-1.51942E+05-1.41233E-08-4.96675E-09
 -1       350-1.33217E+05-5.76611E+04 3.19265E+04-1.06882E+05 3.92621E-08-2.31710E-08
 -1       351-3.60101E+05-1.99168E+04-5.89311E+03-9.86249E+04-2.16521E-08-1.91735E-08
 -1       352-2.34139E+05-9.34811E+04 1.80646E+03-1.61199E+05-9.60206E-08-5.91418E-08
 -1       353-3.60787E+05-1.93941E+04-1.32033E+04-9.93355E+04 4.58175E-08 2.46928E-10
 -1       354-1.35802E+05-6.44652E+04 1.11656E+04-1.04037E+05-3.93396E-08-8.86303E-09
 -1       355-4.55950E+05-5.09116E+04-6.94116E+04-1.54032E+05-1.46783E-08-5.03860E-10
 -1       356-2.99981E+05 2.80812E+03-9.80777E+03 1.63100E+04 3.59626E-09 1.02655E-08
 -1       357-2.93319E+05-3.17448E+03-4.85185E+03-3.18914E+04 5.77633E-08-1.38629E-08
 -1       358-2.98511E+05 8.25878E+02-2.61061E+03 1.68654E+04 2.15269E-08 1.09586E-08
 -1       359-2.72863E+05 5.30748E+01 3.40504E+03-2.62434E+04-1.35953E-08-1.04166E-08
 -1       360-3.19937E+05-8.11605E+02-5.28180E+03 1.06458E+04-2.69771E-08 9.58480E-09
 -1       361-2.38445E+05 1.73833E+03 1.12450E+04-8.95199E+03-5.20608E-08-4.07653E-10
 -1       362-3.32042E+05-1.55916E+03-7.49273E+03-4.32161E+02 3.55612E-10 3.99581E-09
 -1       363-2.42062E+05 1.50454E+03 1.03421E+04 1.28015E+04-9.38644E-09 4.23080E-09
 -1       364-3.16415E+05-5.02849E+02-4.92824E+03-1.10840E+04-2.79001E-08-6.89852E-09
 -1       365-2.78168E+05-5.20637E+02 1.44922E+03 2.87365E+04 6.14594E-08 8.89912E-09
 -1       366-2.96867E+05 1.20003E+03-3.86297E+03-1.63746E+04-4.44485E-08-7.40192E-09
 -1       367-2.92583E+05-4.61917E+03-8.31476E+03 3.23904E+04-5.68455E-08 1.20808E-08
 -1       368-3.02329E+05 3.85243E+03-1.66954E+04-1.47474E+04-1.47838E-08-5.96447E-09
 -1       369-2.73035E+05-2.62303E+04-3.36853E+04 2.24366E+04-4.63971E-08 6.60975E-09
 -1       370-3.15634E+05 2.21764E+04-6.53202E+04-6.40281E+03-6.07156E-09-4.16912E-09
 -1       371-1.35710E+04-1.24327E+05-2.96333E+03 1.38257E+04-1.04546E-08 4.50473E-09
 -1       372 1.13712E+04 3.67356E+04 2.45242E+04-6.17504E+04 6.81280E-09 3.10962E-09
 -1       373 1.55629E+03-5.24259E+04-3.46959E+02 1.60220E+04 7.81438E-09-2.72962E-10
 -1       374-4.72477E+03-3.05621E+04-2.53033E+03-6.37740E+04 1.51822E-08-1.13446E-09
 -1       375 3.62895E+03-5.85593E+04-1.37906E+04 1.58407E+04 6.55109E-09 4.76359E-09
 -1       376-2.77414E+05-2.47249E+04-1.14007E+04-8.59004E+04-8.02217E-09 4.91445E-09
 -1       377-2.10898E+05-5.99892E+04-1.22354E+03-1.17425E+05 2.66176E-08-5.85874E-09
 -1       378-2.62852E+05-1.98201E+04-1.49124E+03-7.78673E+04 8.06693E-09 1.76349E-08
 -1       379-1.98790E+05-5.49349E+04 5.06940E+03-1.10332E+05 2.86365E-08 9.49373E-09
 -1       380-2.89232E+05-2.99966E+04-7.06960E+03-9.27911E+04 3.77020E-08 4.33772E-09
 -1       381-1.53693E+05-3.11332E+04 1.90793E+04-7.48428E+04 1.77768E-08 6.61771E-09
 -1       382-3.06757E+05-4.45114E+04-1.29495E+04-1.12482E+05 9.47534E-09-1.30359E-09
 -1       383-1.66266E+05-1.13328E+04 2.04322E+04-5.11378E+04-2.50238E-08-9.15264E-09
 -1       384-2.76569E+05-4.98559E+04-8.57023E+03-1.16367E+05 8.53776E-08-4.92747E-09
 -1       385-2.36786E+05-7.70629E+03 6.57076E+03-5.44198E+04 1.07884E-07-8.12906E-09
 -1       386-2.37365E+05-4.73021E+04-2.48248E+03-1.10069E+05-5.19943E-08-9.05106E-09
 -1       387-2.67091E+05-1.09171E+04-3.92319E+03-5.86870E+04 4.89496E-08-1.48071E-09
 -1       388-2.46759E+05-4.62836E+04-1.23842E+04-1.12506E+05 4.87830E-08-3.80101E-08
 -1       389-2.19715E+05-2.43078E+04-1.50316E+04-4.82828E+04-4.75613E-08-1.15251E-08
 -1       390-2.83806E+05-3.46104E+04-5.40176E+04-1.19709E+05-2.29629E-08-3.40151E-10
 -1       406 7.42951E+02 3.78945E+05 1.69613E+03-3.14556E+04-2.67210E-09-2.80124E-09
 -1       407 5.45979E+02 3.79256E+05 2.25365E+03-3.44963E+04-3.14935E-09 3.92902E-10
 -1       408 9.70747E+02 3.78857E+05 3.86961E+03-3.13263E+04-3.22416E-09-1.67101E-08
 -1       409 3.90836E+03 3.80366E+05 8.40084E+03-3.46849E+04-3.79464E-09-3.59862E-08
 -1       410 1.12458E+04 3.77780E+05 1.69849E+04-3.12574E+04-3.72529E-09-1.68957E-08
 -1       466 6.16842E+05-2.46277E+04 5.07763E+04 1.54042E+04-2.45677E-10 1.17070E-08
 -1       467 6.71652E+05 2.78137E+04 4.15337E+04-2.45968E+04-1.05044E-09 2.91720E-09
 -1       468 6.39012E+05-3.36760E+03 1.37022E+04 4.29076E+03-7.15090E-10 1.88629E-09
 -1       469 6.46240E+05 3.82668E+03 9.09058E+03-9.64942E+03-1.31958E-09 3.37423E-10
 -1       470 6.41939E+05-4.70467E+02 3.69511E+03 4.54031E+02 6.10484E-10 8.59927E-10
 -1       471 6.42902E+05 5.81879E+02 2.41326E+03-4.50916E+03 2.60316E-09 7.56586E-10
 -1       472 6.42313E+05-1.01876E+02 1.55113E+03-8.49617E+02 1.77472E-10-7.11765E-10
 -1       473 6.42595E+05 3.76526E+02 1.92977E+03-2.85188E+03 8.42670E-10-3.06616E-09
 -1       474 6.42241E+05-2.62416E+02 2.83862E+03-1.20326E+03-4.49882E-10-4.72585E-09
 -1       475 6.43396E+05 1.93023E+03 6.13124E+03-2.66631E+03 4.77030E-10-2.96211E-09
 -1       476 6.41509E+05-1.65437E+03 1.04145E+04-1.03519E+03 1.56449E-09-3.70119E-09
 -1       477 6.48546E+05 1.23031E+04 2.55788E+04-3.72937E+03 8.72575E-10-3.07546E-09
 -1       478 6.37087E+05-1.06284E+04 4.06698E+04-1.40159E+02 2.06761E-10-3.63070E-09
 -1       479 6.80035E+05 7.86890E+04 1.11378E+05-7.44731E+03 3.36936E-09-5.89353E-10
 -1       480 6.10037E+05-6.79887E+04 1.57023E+05 2.68260E+03 4.84241E-09 3.00497E-09
 -1       481-8.15612E+03 1.60938E+05 9.06321E+03-1.20782E+04-1.98270E-10-2.95074E-09
 -1       482 8.41471E+03 2.12572E+05 1.51083E+04 3.96224E+04-5.95719E-11 4.83050E-09
 -1       483-5.14381E+02 1.85020E+05 4.84787E+03-8.70106E+03 4.68390E-11 8.15504E-10
 -1       484 3.62795E+03 1.95731E+05 7.38348E+03 3.74034E+04-6.17035E-11 3.52152E-10
 -1       485-3.13270E+03 1.77422E+05 4.49498E+03-9.85605E+03 4.16094E-11-3.35854E-09
 -1       486-6.51914E+05-1.24484E+05-8.52590E+04-3.10886E+05-2.94131E-09 6.70116E-09
 -1       487-5.51898E+05 1.33573E+04-4.73489E+03-5.28508E+04 2.24873E-09 2.37051E-08
 -1       488-6.12444E+05-1.26422E+05-2.65214E+04-2.98946E+05 9.79838E-09-6.96946E-09
 -1       489-2.76754E+05 3.02743E+04 7.70817E+04-2.49461E+04 6.83562E-09-1.03973E-08
 -1       490-9.21891E+05-1.46430E+05-7.70351E+04-3.34213E+05 1.09035E-08 2.85308E-09
 -1       491-1.39717E+05-4.98063E+04 9.37400E+04-1.18534E+05-8.77571E-09 1.92290E-08
 -1       492-7.48239E+05-4.75064E+04-2.30875E+04-2.04804E+05-7.79710E-09 3.88832E-08
 -1       493-3.62624E+05-1.55816E+05 3.04856E+04-2.71048E+05-1.44024E-09 7.05470E-08
 -1       494-7.05440E+05-3.41639E+04-1.24214E+04-1.86750E+05-6.05428E-09 1.46238E-08
 -1       495-1.75558E+05-7.11797E+04 8.27541E+04-1.48352E+05-1.91176E-09 7.74980E-09
 -1       496-9.29898E+05-1.37427E+05-7.64297E+04-3.23310E+05-3.57113E-09 5.31873E-09
 -1       497-2.19205E+05 2.83166E+04 8.88376E+04-2.38595E+04 4.80463E-09-1.12962E-08
 -1       498-6.60934E+05-1.34443E+05-3.53136E+04-3.10099E+05 1.34559E-08-1.60471E-08
 -1       499-5.50043E+05 1.59338E+04 1.06811E+02-5.33318E+04 6.67831E-09-3.13148E-08
 -1       500-6.05269E+05-1.19052E+05-6.71596E+04-2.99242E+05-2.11421E-08 2.87873E-08
 -1       501-4.52903E+05-3.09643E+04 5.77339E+04 6.29661E+03-9.38769E-09-8.30914E-09
 -1       502-3.58540E+05 3.51177E+04 5.30224E+04-2.32191E+04-6.43618E-09-1.96596E-08
 -1       503-4.18248E+05-4.32972E+03 1.53590E+04 1.71430E+04-1.32807E-08-2.19588E-08
 -1       504-3.99856E+05 4.86208E+03 1.18009E+04-3.52417E+04-6.43357E-09-2.96181E-08
 -1       505-4.12349E+05-1.18008E+02 3.88641E+03 1.83336E+04 2.08876E-08-2.80716E-08
 -1       506-3.82150E+05 1.37985E+03 7.84743E+03-2.72401E+04 2.36255E-08-2.09352E-08
 -1       507-4.35430E+05-1.28650E+03-4.06387E+03 9.12962E+03 6.40603E-09-1.40286E-08
 -1       508-3.54129E+05 2.16386E+03 1.18499E+04-3.16192E+03 4.55884E-09-1.84230E-09
 -1       509-4.39619E+05-1.52235E+03-5.62996E+03-5.74100E+03-9.61575E-09 6.49134E-09
 -1       510-3.73714E+05 1.15278E+03 7.63867E+03 2.28975E+04-1.23942E-08 2.09753E-08
 -1       511-4.16364E+05 1.53199E+02-6.20173E+02-1.69181E+04-2.68864E-08 2.28631E-08
 -1       512-4.01907E+05 4.67031E+02 2.78725E+03 3.53798E+04-3.70018E-08 2.87294E-08
 -1       513-4.12184E+05-2.11280E+02 1.81254E+03-1.82373E+04-1.07482E-08 2.43142E-08
 -1       514-3.80270E+05 6.71702E+03 1.17730E+04 2.76357E+04-6.13818E-09 2.10019E-08
 -1       515-4.37488E+05-6.51517E+03 2.80754E+03-9.16279E+03-9.07619E-09 1.44419E-08
 -1       516-5.31085E+04 2.18948E+05 1.22794E+05-9.65588E+03-4.87489E-10 9.51331E-10
 -1       517 6.22965E+04 2.82726E+05 9.13323E+04 4.06540E+04-1.20872E-09-7.67592E-09
 -1       518-9.07052E+03 2.38150E+05 3.73455E+04-9.68198E+03 1.36060E-09-1.78738E-09
 -1       519 2.56343E+04 3.06892E+05 4.77410E+04 4.75905E+04-6.16217E-09-5.24301E-09
 -1       520-1.71387E+04 1.95762E+05 2.32302E+04-1.66038E+04-1.68893E-09-1.56740E-08
 -1       521-3.01612E+06-3.89291E+05-2.05253E+05-1.16325E+06-1.17143E-09 1.14960E-09
 -1       522-3.08000E+06-5.25553E+05-1.28694E+05-1.17251E+06-5.16593E-10-3.21234E-09
 -1       523-3.05195E+06-4.33035E+05-4.83742E+04-1.15772E+06-9.56675E-11-1.84627E-09
 -1       524-3.03830E+06-4.67843E+05-2.64021E+04-1.18285E+06 5.19321E-10 3.26554E-09
 -1       525-3.05648E+06-4.37052E+05-1.12400E+04-1.15669E+06 1.27511E-09 3.10092E-09
 -1       526-3.03302E+06-4.62669E+05-5.94039E+03-1.18459E+06-4.84761E-10 1.53307E-09
 -1       527-3.05721E+06-4.37271E+05-3.07889E+03-1.15639E+06-5.07043E-10-2.92795E-09
 -1       528-3.03239E+06-4.62269E+05-2.46150E+03-1.18481E+06-2.80210E-09-3.01679E-09
 -1       529-3.05711E+06-4.37381E+05-3.01779E+03-1.15650E+06-3.47791E-09-3.03135E-09
 -1       530-3.03334E+06-4.62264E+05-5.76215E+03-1.18410E+06-6.54950E-09-2.99565E-09
 -1       531-3.05618E+06-4.37388E+05-1.08875E+04-1.15702E+06-4.25734E-09 8.84029E-10
 -1       532-3.03882E+06-4.66870E+05-2.55359E+04-1.18193E+06-2.62071E-09 2.48110E-09
 -1       533-3.05159E+06-4.33719E+05-4.67978E+04-1.15824E+06-2.27033E-09 8.07631E-10
 -1       534-3.07954E+06-5.22266E+05-1.24456E+05-1.17144E+06-7.14863E-10 5.38421E-10
 -1       535-3.01673E+06-3.91635E+05-1.98520E+05-1.16382E+06-1.09139E-09 2.91038E-11
 -1       536-1.08099E+04-1.00521E+04 4.59729E+04-8.43077E+03 7.03039E-10-2.87764E-09
 -1       537 5.80717E+03 1.38268E+04 2.92737E+04-2.96154E+04-2.42881E-09-3.28600E-09
 -1       538-3.96647E+03-1.06333E+03 1.18791E+04-8.31521E+03-1.63709E-11-2.08502E-09
 -1       539-1.97657E+03 1.26509E+03 6.60042E+03-2.97365E+04 6.76664E-10 1.51886E-10
 -1       540-3.23552E+03-1.39376E+02 2.98159E+03-8.30454E+03 1.66892E-10-1.34764E-09
 -1       541-2.93728E+03 1.08350E+02 1.56163E+03-2.97473E+04-5.62522E-10-3.14083E-09
 -1       542-3.15657E+03-2.14632E+01 7.13164E+02-8.30464E+03 4.22915E-11-1.26215E-09
 -1       543-3.11898E+03 2.13779E+01 3.20038E+02-2.97472E+04 9.80435E-10 7.15886E-10
 -1       544-3.14876E+03 4.79989E+00 5.65336E+01-8.30468E+03-1.79057E-10 1.69388E-09
 -1       545-3.18414E+03 2.95063E+00-1.77331E+02-2.97472E+04-1.09321E-09 2.03187E-09
 -1       546-3.13061E+03 2.47100E+01-4.74720E+02-8.30472E+03 7.98877E-10-3.61524E-11
 -1       547-3.32484E+03-2.10939E+02-1.12199E+03-2.97432E+04-7.84439E-10 2.44722E-09
 -1       548-2.99153E+03 1.69993E+02-2.06121E+03-8.30867E+03 2.15573E-09 2.02249E-10
 -1       549-4.60109E+03-2.42095E+03-5.07834E+03-2.96779E+04 4.86762E-09-1.11049E-09
 -1       550-1.78207E+03 1.70071E+03-8.00833E+03-8.36992E+03 2.52930E-09-1.00363E-09
 -1       551 1.26627E+04-2.83160E+05 2.70971E+04-4.18777E+05 3.27418E-10-6.54836E-10
 -1       552 6.73238E+03-2.78789E+05 2.22224E+04-4.91999E+05-8.14907E-10 2.58660E-09
 -1       553 4.58426E+03-2.82898E+05 2.68722E+04-4.18071E+05 9.82254E-11 5.51154E-10
 -1       554 1.75729E+04-2.72536E+05 5.13379E+04-4.92100E+05-7.63976E-11 4.68572E-09
 -1       555 4.75381E+04-2.89939E+05 9.76379E+04-4.18582E+05 2.25555E-10-5.83896E-10
 -1       556-2.02295E+05-1.05928E+05 1.82867E+04-1.90229E+05-2.36832E-09-6.83940E-10
 -1       557-1.85790E+05-1.23762E+05 9.02087E+03-2.02941E+05 4.38376E-10 1.86219E-10
 -1       558-2.02711E+05-1.11846E+05 3.77970E+03-1.86732E+05-2.63753E-09 1.67347E-09
 -1       559-1.87622E+05-1.26680E+05 1.86103E+03-2.03641E+05 8.58563E-10-1.32059E-09
 -1       560-2.03003E+05-1.11840E+05 8.19705E+02-1.86756E+05-4.72937E-10 6.65523E-09
 -1       561-1.88058E+05-1.26688E+05 3.90218E+02-2.03952E+05-1.13214E-08-9.52753E-09
 -1       562-2.03229E+05-1.11686E+05 1.33318E+02-1.86906E+05-3.76167E-09 4.92150E-09
 -1       563-1.88288E+05-1.26590E+05-1.37352E+01-2.04116E+05 2.91038E-11-7.74889E-10
 -1       564-2.03356E+05-1.11594E+05-1.87212E+02-1.86997E+05-4.62387E-09-1.19235E-09
 -1       565-1.88414E+05-1.26542E+05-4.73442E+02-2.04193E+05-6.23095E-09 1.10676E-08
 -1       566-2.03362E+05-1.11557E+05-1.01442E+03-1.87019E+05-7.82143E-09-3.31511E-09
 -1       567-1.88591E+05-1.26647E+05-2.24434E+03-2.04174E+05-7.98082E-11-1.57888E-09
 -1       568-2.03166E+05-1.11902E+05-4.61715E+03-1.86832E+05 3.31693E-09-2.87400E-10
 -1       569-1.91055E+05-1.29448E+05-1.08885E+04-2.03441E+05-3.08773E-10-6.58474E-10
 -1       570-2.02111E+05-1.20240E+05-2.21872E+04-1.83259E+05 1.99725E-09 9.29390E-09
 -1       571 2.42897E+05 1.13094E+04 1.71565E+04-6.26765E+04 5.00222E-10-7.36236E-10
 -1       572 2.45495E+05 3.87787E+03 8.42036E+03-6.89724E+04 4.15457E-09-5.36602E-10
 -1       573 2.43939E+05 8.82555E+02 3.74450E+03-6.25104E+04 2.14823E-09 2.58342E-09
 -1       574 2.44244E+05 2.76570E+02 1.87914E+03-6.91541E+04 2.71939E-10-2.00134E-09
 -1       575 2.44050E+05 2.61470E+01 8.88101E+02-6.24893E+04 1.18575E-09-9.17225E-10
 -1       576 2.44077E+05 1.01588E+00 4.53622E+02-6.91778E+04 8.66578E-10 6.07542E-10
 -1       577 2.44068E+05-1.50855E+01 2.25953E+02-6.24866E+04-1.78943E-10 7.60792E-10
 -1       578 2.44065E+05-1.30013E+01 1.27695E+02-6.91808E+04-6.25960E-10 2.12913E-09
 -1       579 2.44090E+05-2.06153E+01 8.60691E+01-6.24864E+04-1.81899E-12-5.04315E-10
 -1       580 2.44097E+05-2.59906E+01 9.36647E+01-6.91775E+04-5.91172E-12 5.97083E-10
 -1       581 2.44129E+05-3.54722E+01 1.41403E+02-6.24899E+04-1.22600E-09-6.93944E-10
 -1       582 2.44176E+05-1.43131E+01 2.79809E+02-6.91400E+04-7.72161E-10 1.71804E-09
 -1       583 2.44172E+05 5.55561E+01 5.42964E+02-6.25238E+04 6.18456E-11-1.98725E-09
 -1       584 2.44431E+05 4.71816E+02 1.21925E+03-6.88494E+04-5.71163E-10-5.43650E-10
 -1       585 2.44088E+05 1.53397E+03 2.47507E+03-6.27820E+04 5.87534E-10 9.29504E-10
 -1       586 2.05366E+03 1.10344E+05 3.68393E+03-1.48509E+05 3.80169E-10-1.26911E-08
 -1       587 1.17207E+03 1.10955E+05 3.60188E+03-1.63835E+05 1.42427E-09-2.22012E-08
 -1       588 1.42679E+03 1.10276E+05 5.21109E+03-1.48316E+05 3.84716E-10-1.01013E-08
 -1       589 5.08255E+03 1.12240E+05 1.07464E+04-1.63893E+05 1.58980E-09 1.69166E-10
 -1       590 1.42660E+04 1.08982E+05 2.14543E+04-1.48445E+05 5.21140E-10-1.50521E-10
 -1       591-1.12390E+05-3.80403E+04-2.21951E+04-5.69582E+04 5.82986E-10 1.18780E-09
 -1       592-1.13290E+05-3.52818E+04-1.09043E+04-6.33292E+04-2.56659E-09-7.45331E-09
 -1       593-1.13072E+05-2.99727E+04-4.62730E+03-6.06749E+04 7.26232E-10-1.60594E-09
 -1       594-1.10917E+05-3.23039E+04-2.26431E+03-6.37093E+04-2.53476E-09-8.11453E-09
 -1       595-1.13181E+05-2.96822E+04-1.04268E+03-6.08396E+04-4.22119E-09-3.07352E-09
 -1       596-1.10740E+05-3.21872E+04-5.28615E+02-6.36933E+04-3.78429E-09-6.72742E-09
 -1       597-1.13201E+05-2.96980E+04-2.87452E+02-6.08408E+04 2.11756E-09 6.99401E-09
 -1       598-1.10722E+05-3.21890E+04-2.29369E+02-6.36852E+04 2.45564E-11-5.07498E-10
 -1       599-1.13199E+05-2.96991E+04-2.90454E+02-6.08395E+04 5.75255E-10 1.91949E-09
 -1       600-1.10737E+05-3.21893E+04-5.36639E+02-6.36898E+04-4.11319E-10-1.97929E-09
 -1       601-1.13173E+05-2.96852E+04-1.05915E+03-6.08358E+04 1.82172E-09 6.14455E-09
 -1       602-1.10915E+05-3.23071E+04-2.30097E+03-6.36997E+04 1.54068E-09-1.56524E-09
 -1       603-1.13057E+05-2.99857E+04-4.70218E+03-6.06686E+04 3.55658E-09 5.20004E-09
 -1       604-1.13347E+05-3.53084E+04-1.10796E+04-6.32808E+04-4.82032E-10-2.22462E-09
 -1       605-1.12335E+05-3.82039E+04-2.25513E+04-5.69148E+04-4.04498E-09-6.18365E-09
 -1       606 8.27921E+04-9.84469E+03-1.49076E+04 2.40121E+04-4.39832E-09-3.26509E-10
 -1       607 8.04905E+04-3.37403E+03-7.31396E+03 2.61716E+04-7.82620E-10-1.47679E-09
 -1       608 8.18351E+04-7.64794E+02-3.25282E+03 2.38518E+04 3.05772E-09 8.18545E-11
 -1       609 8.15240E+04-2.20341E+02-1.62931E+03 2.63472E+04-2.18779E-09-3.03953E-09
 -1       610 8.17016E+04 4.32734E-01-7.68238E+02 2.38310E+04-5.41422E-09-2.06865E-09
 -1       611 8.16387E+04 3.48237E+01-3.86489E+02 2.63696E+04-9.18953E-09 1.03455E-10
 -1       612 8.16695E+04 4.51810E+01-1.83521E+02 2.38287E+04-2.97223E-09-2.71530E-09
 -1       613 8.16444E+04 4.94003E+01-8.43612E+01 2.63724E+04-5.26234E-09-1.01500E-09
 -1       614 8.16541E+04 4.51655E+01-2.45742E+01 2.38281E+04-1.79352E-09-2.81420E-09
 -1       615 8.16392E+04 5.27355E+01 2.30223E+01 2.63727E+04 4.89854E-09-2.00271E-09
 -1       616 8.16426E+04 5.16395E+01 8.06977E+01 2.38284E+04-3.11729E-09 3.07864E-10
 -1       617 8.16479E+04 8.51973E+01 1.90367E+02 2.63718E+04-1.03500E-09-8.07177E-10
 -1       618 8.16227E+04 1.45011E+02 3.88558E+02 2.38288E+04 4.11546E-10-2.20848E-09
 -1       619 8.17705E+04 4.65727E+02 8.79062E+02 2.63679E+04 8.75389E-12-9.31550E-10
 -1       620 8.15069E+04 1.23864E+03 1.79368E+03 2.38305E+04 1.72815E-09-1.07707E-09
 -1       621 1.61037E+03 2.53239E+05 4.11943E+03-2.01291E+04-1.72599E-09 1.67415E-09
 -1       622 6.33416E+02 2.54025E+05 3.58353E+03-2.37563E+04-1.91221E-09-5.82077E-11
 -1       623 4.00556E+02 2.53394E+05 4.61683E+03-2.01595E+04-1.79716E-09-1.53977E-09
 -1       624 2.64439E+03 2.55249E+05 9.05179E+03-2.36354E+04-1.81353E-09-4.68094E-09
 -1       625 8.11355E+03 2.52040E+05 1.73594E+04-2.02477E+04-1.43632E-09 1.56433E-10
 -1       626 1.21185E+05 3.97189E+04-5.74105E+03 8.12162E+04-1.38079E-08-2.57924E-08
 -1       627 1.18111E+05 4.42135E+04-2.72028E+03 8.28981E+04-1.27284E-09-2.33899E-09
 -1       628 1.21328E+05 4.25538E+04-1.14249E+03 7.98054E+04-7.12680E-09 9.24047E-10
 -1       629 1.18510E+05 4.54143E+04-5.47243E+02 8.28080E+04-1.82954E-08 2.86080E-09
 -1       630 1.21313E+05 4.27556E+04-2.40447E+02 7.96843E+04-1.29630E-08-1.29704E-08
 -1       631 1.18531E+05 4.55071E+04-1.05553E+02 8.28055E+04-3.91356E-09-3.60924E-09
 -1       632 1.21296E+05 4.27648E+04-2.50555E+01 7.96705E+04 2.52157E-09 1.33904E-08
 -1       633 1.18529E+05 4.55133E+04 3.77820E+01 8.28041E+04 5.25074E-09-6.22322E-10
 -1       634 1.21284E+05 4.27600E+04 1.19913E+02 7.96673E+04-7.79892E-11-3.94039E-10
 -1       635 1.18541E+05 4.55176E+04 2.81148E+02 8.28060E+04 2.33877E-09 2.69438E-09
 -1       636 1.21271E+05 4.27747E+04 5.87481E+02 7.96570E+04-4.60727E-09-7.07405E-09
 -1       637 1.18683E+05 4.56821E+04 1.31510E+03 8.27799E+04-1.61538E-09-4.24734E-10
 -1       638 1.21243E+05 4.32699E+04 2.72767E+03 7.94422E+04 5.36693E-09 5.63614E-09
 -1       639 1.20074E+05 4.81428E+04 6.49409E+03 8.21703E+04 1.90175E-09 9.27866E-09
 -1       640 1.21324E+05 5.03638E+04 1.37027E+04 7.64991E+04 1.04592E-09 6.47697E-09
 -1       641 2.17213E+03 2.44074E+03-5.64817E+03-6.28688E+01-3.55996E-09 1.66983E-09
 -1       642-2.61426E+02-2.82511E+03-3.99056E+03 2.60492E+02-2.01628E-09 1.02841E-09
 -1       643 1.23156E+03 3.82369E+02-1.45623E+03-6.13809E+01-7.97438E-09 1.03000E-10
 -1       644 8.32992E+02-4.41065E+02-9.04169E+02 2.58489E+02 2.21942E-09 3.10929E-09
 -1       645 1.07748E+03 5.87226E+01-3.48344E+02-6.08682E+01 8.55924E-10 3.52057E-09
 -1       646 1.01545E+03-6.16851E+01-1.64452E+02 2.57762E+02-4.59195E-08 1.81742E-09
 -1       647 1.04900E+03 3.33203E+00 2.39012E+00-6.06551E+01-1.16584E-05 1.83143E-08
 -1       648 1.06721E+03 3.36912E+01 1.60051E+02 2.57535E+02-2.32531E-05 4.21550E-08
 -1       649 1.02570E+03-3.65789E+01 3.60389E+02-6.06406E+01-1.16605E-05 2.06673E-08
 -1       650 1.20019E+03 2.81475E+02 8.71629E+02 2.57557E+02-2.99418E-08 5.34499E-09
 -1       651 9.16057E+02-2.44319E+02 1.51632E+03-6.06773E+01 1.46838E-09 5.16104E-09
 -1       652 1.95029E+03 1.81210E+03 3.75234E+03 2.57189E+02 6.13454E-09 4.65320E-09
 -1       653 2.75724E+02-1.56612E+03 5.97693E+03-6.02749E+01 3.43733E-09 3.99609E-09
 -1       654 6.45823E+03 1.15659E+04 1.63501E+04 2.53542E+02-4.34565E-09 1.41085E-09
 -1       655-3.59099E+03-9.99024E+03 2.31073E+04-5.70373E+01-9.11182E-11 2.59297E-09
 -1       656 7.43674E+03-3.02403E+05-3.57970E+04 9.69085E+03 3.27418E-10 1.24783E-09
 -1       657-1.13291E+04-3.15250E+05-2.59290E+04 3.37628E+04-4.06453E-09 5.32373E-09
 -1       658 1.39096E+03-3.07022E+05-1.66258E+04 9.61918E+03-1.94689E-10 6.25073E-09
 -1       659-1.04039E+04-3.14715E+05-2.42606E+04 3.38093E+04-5.04292E-09-4.26681E-10
 -1       660 6.73490E+03-3.02968E+05-3.26138E+04 9.64514E+03-2.15186E-09 5.79803E-11
 -1       661 2.90918E+05 3.76917E+04 2.37876E+04 1.13902E+05 1.09844E-09-3.27600E-09
 -1       662 2.96295E+05 5.55094E+04 1.49140E+04 1.17336E+05 7.00965E-09-1.82672E-09
 -1       663 2.94954E+05 4.28699E+04 5.61471E+03 1.13402E+05-1.85253E-10-2.39811E-09
 -1       664 2.91650E+05 4.86464E+04 3.07141E+03 1.18286E+05-3.93993E-09-4.57817E-10
 -1       665 2.95395E+05 4.34218E+04 1.31598E+03 1.13375E+05-8.44977E-10-2.49253E-09
 -1       666 2.91142E+05 4.79372E+04 7.12280E+02 1.18343E+05-3.13719E-09-2.61048E-09
 -1       667 2.95443E+05 4.34851E+04 4.00405E+02 1.13379E+05-1.14422E-08 3.13619E-09
 -1       668 2.91096E+05 4.78730E+04 3.77150E+02 1.18340E+05-6.08969E-09 4.98693E-09
 -1       669 2.95438E+05 4.34807E+04 5.32107E+02 1.13378E+05 3.99953E-09 3.00923E-09
 -1       670 2.91184E+05 4.79841E+04 1.07564E+03 1.18344E+05 9.16842E-09-2.19120E-09
 -1       671 2.95358E+05 4.33821E+04 2.05482E+03 1.13373E+05 1.49060E-09 1.73031E-10
 -1       672 2.91994E+05 4.90988E+04 4.83788E+03 1.18247E+05-5.23642E-10-3.87024E-09
 -1       673 2.94655E+05 4.25154E+04 8.85842E+03 1.13421E+05 8.96895E-09-2.73985E-09
 -1       674 2.99331E+05 5.99296E+04 2.35418E+04 1.16740E+05 4.15653E-09-2.75077E-09
 -1       675 2.88283E+05 3.43427E+04 3.75528E+04 1.14210E+05-1.47247E-09-1.42245E-09
 -1       676 5.35403E+02-2.85098E+05-3.17868E+03 1.87030E+02-2.34132E-09 3.83348E-09
 -1       677-1.20441E+03-2.86306E+05-3.85165E+03-1.12008E+02-1.11612E-08 7.85036E-10
 -1       678 4.29868E+02-2.85148E+05-5.08528E+03 1.86561E+02-3.86103E-09 4.72556E-09
 -1       679-5.40961E+03-2.88856E+05-1.15003E+04-1.11769E+02-1.17375E-08 1.48557E-10
 -1       680 3.81269E+03-2.82549E+05-1.77444E+04 1.85822E+02-1.56160E-09 6.43020E-10
 -1       681 2.90282E+05-7.23310E+03 1.41823E+04 5.04823E+03 5.74119E-12-9.64064E-11
 -1       682 3.09693E+05 8.17170E+03 1.23485E+04-1.33696E+04-3.85768E-10-1.43700E-09
 -1       683 2.97396E+05-9.93059E+02 3.76325E+03 1.53314E+03 1.43558E-10 2.45291E-09
 -1       684 3.01000E+05 1.13395E+03 2.75537E+03-8.28969E+03-3.91310E-10-1.78622E-09
 -1       685 2.98845E+05-1.15973E+02 1.02044E+03-3.19219E+01 8.03652E-10 4.32215E-09
 -1       686 2.99274E+05 1.56128E+02 6.65507E+02-6.29813E+03 2.10360E-09-1.32775E-09
 -1       687 2.99092E+05 3.75133E+00 3.93626E+02-4.58306E+02-8.37851E-10 5.01411E-09
 -1       688 2.99243E+05 2.07149E+01 4.33267E+02-6.36646E+03-2.97007E-11-5.84265E-10
 -1       689 2.98877E+05 1.87925E+01 5.56249E+02 3.64019E+01-1.65642E-09 3.15694E-09
 -1       690 3.00721E+05 1.35098E+02 1.44952E+03-8.52806E+03 6.20986E-10-5.46663E-10
 -1       691 2.97648E+05-1.32655E+02 1.85413E+03 1.70317E+03 5.32290E-09 1.04069E-09
 -1       692 3.07660E+05 1.91424E+03 6.39337E+03-1.38639E+04 2.55520E-09 3.20415E-09
 -1       693 2.92082E+05-1.85319E+03 6.97341E+03 5.37270E+03-1.22606E-09-3.67208E-09
 -1       694 3.39368E+05 1.73998E+04 2.89031E+04-2.50070E+04-1.12216E-08 4.65980E-09
 -1       695 2.66522E+05-1.59861E+04 2.58201E+04 1.28563E+04-1.00588E-08-1.28421E-08
 -1       696-6.80666E+03 2.93311E+05 1.48117E+04-4.11416E+03 3.81988E-11-1.79210E-09
 -1       697 7.66884E+03 3.04290E+05 1.10643E+04 9.11826E+03 1.54955E-10-2.03265E-10
 -1       698-8.92812E+02 2.97757E+05 3.48550E+03-2.18185E+03-7.68523E-11 1.25978E-09
 -1       699 3.65776E+02 2.98911E+05 1.33631E+03 6.86105E+03-1.64050E-10 1.29930E-09
 -1       700 5.21504E+02 2.98644E+05-7.37672E+02-1.85674E+03-1.40062E-10 3.80261E-10
 -1       701-3.31981E+05-5.21381E+04-5.47436E+04-1.42641E+05 9.94987E-10 2.12458E-09
 -1       702-2.29017E+05-8.83765E+03-5.32077E+03-3.84517E+04-1.64619E-10-3.27982E-08
 -1       703-2.62818E+05-5.49281E+04-1.03920E+04-1.27789E+05 2.07647E-08 4.49368E-08
 -1       704-2.93637E+05-3.20407E+03-1.54983E+03-5.33903E+04 1.26996E-08 5.67409E-08
 -1       705-2.68588E+05-5.68468E+04-4.70129E+03-1.28739E+05-3.70574E-09 4.94534E-08
 -1       706-2.10717E+05 2.80466E+03 1.91425E+04-3.85415E+04-3.41242E-08 1.49532E-09
 -1       707-3.44310E+05-6.20045E+04-1.85331E+04-1.41442E+05-8.86371E-09 1.76892E-08
 -1       708-1.08275E+05-6.33655E+03 3.79101E+04-3.85366E+04 5.84623E-09 1.15520E-08
 -1       709-3.69414E+05-4.89333E+04-2.07604E+04-1.27549E+05 1.88941E-08 4.18993E-09
 -1       710-1.37583E+05-4.28925E+04 2.46366E+04-8.78235E+04-5.16047E-09-1.74484E-08
 -1       711-3.16080E+05-2.46455E+04-7.26080E+03-9.30726E+04 1.35374E-08 5.03924E-08
 -1       712-2.16160E+05-7.39688E+04 5.01257E+02-1.34340E+05 2.39325E-08 9.62496E-08
 -1       713-2.92738E+05-1.64040E+04-7.19878E+03-8.23842E+04-1.95799E-08 2.33285E-09
 -1       714-1.89178E+05-7.04018E+04-6.22352E+03-1.15629E+05-1.96892E-08-1.71003E-08
 -1       715-3.42305E+05-2.87991E+04-4.53685E+04-1.11257E+05-8.32620E-09-2.40234E-08
 -1       716-8.34464E+04-8.73113E+01-3.63757E+03-1.39134E+03 1.84895E-08-1.12807E-08
 -1       717-5.74470E+04-2.16213E+01 2.36593E+03-2.32341E+03 1.22176E-08 1.24011E-09
 -1       718-8.26254E+04-1.35487E+02-2.03988E+03 1.59196E+02-4.09443E-10-5.93516E-09
 -1       719-6.08633E+04 3.04837E+01 2.47062E+03-5.24549E+03-3.53850E-09-2.10740E-10
 -1       720-8.01203E+04-7.33069E+01-1.10515E+03 1.52568E+03 9.67987E-10 1.89908E-09
 -1       721-6.65057E+04 1.85592E+01 1.71702E+03-7.62641E+03 9.34244E-09-1.34307E-09
 -1       722-7.71275E+04-1.78508E+01-1.01057E+02 2.53755E+03 9.80464E-09 4.89905E-09
 -1       723-7.16908E+04 1.50418E+02 1.43445E+03-9.19845E+03 7.25066E-10-3.25184E-09
 -1       724-7.50691E+04-1.07031E+02 1.60100E+03 3.09784E+03 1.07066E-08 6.38079E-09
 -1       725-7.36448E+04 1.18834E+03 3.88893E+03-9.82786E+03 7.83316E-09-1.39926E-09
 -1       726-7.52367E+04-1.00860E+03 6.62356E+03 3.16761E+03 9.98304E-09 6.02859E-09
 -1       727-6.89715E+04 7.92416E+03 1.66850E+04-9.47981E+03 1.51625E-08-2.64868E-09
 -1       728-7.97053E+04-6.86358E+03 2.56891E+04 2.74943E+03 4.41355E-09 3.40515E-09
 -1       729-4.45302E+04 5.08597E+04 7.25689E+04-8.33210E+03 1.79209E-09 9.68612E-10
 -1       730-9.95418E+04-4.39923E+04 9.96633E+04 2.01930E+03 3.39872E-09-1.16415E-09
 -1       731-9.12380E+03 7.87109E+04 8.82001E+03-6.49546E+03-9.80526E-09-6.48083E-09
 -1       732 1.01152E+04 1.57415E+05 1.99716E+04 1.66329E+04 2.81409E-09 1.80080E-10
 -1       733-1.52017E+03 9.69714E+04 2.45982E+03-3.36908E+03-2.30375E-09-5.45811E-10
 -1       734 4.10401E+03 1.32805E+05 9.91493E+03 1.12181E+04 3.20767E-09-8.53518E-09
 -1       735-2.74495E+03 1.02782E+05 4.53470E+03-1.06777E+03 2.48428E-09-6.52665E-09
 -1       736-2.91094E+05-5.89775E+04-3.40920E+04-1.33177E+05 2.98892E-08-2.73621E-08
 -1       737-2.30829E+05 6.60795E+03 1.11611E+03-3.09065E+04 8.24874E-08 2.25009E-08
 -1       738-2.25189E+05-5.22426E+04-3.88744E+03-1.16786E+05 2.47026E-08 7.14224E-08
 -1       739-2.54415E+05 6.12116E+03 4.27104E+03-3.68095E+04-4.37457E-08-1.67290E-08
 -1       740-2.67948E+05-5.81668E+04-9.46196E+03-1.27655E+05-1.39801E-09-4.48082E-08
 -1       741-1.23330E+05 1.41325E+04 3.30450E+04-1.12026E+04-7.58837E-09-2.98629E-08
 -1       742-3.53985E+05-6.19423E+04-2.57670E+04-1.40492E+05-6.39670E-09-3.55419E-09
 -1       743-3.19902E+04-1.61466E+03 4.80521E+04-2.00436E+04-9.77047E-09 1.50171E-08
 -1       744-3.57918E+05-4.34604E+04-2.29676E+04-1.17911E+05 2.71982E-08-1.76847E-08
 -1       745-1.00003E+05-4.43576E+04 2.62878E+04-8.24580E+04 6.98687E-08 1.04728E-09
 -1       746-2.87831E+05-1.78218E+04-5.40659E+03-7.95683E+04 3.62851E-08 8.31369E-08
 -1       747-1.87599E+05-7.28170E+04 2.26026E+03-1.29041E+05-5.74570E-09 1.48920E-08
 -1       748-2.72387E+05-1.34379E+04-4.76911E+03-7.27473E+04 3.63991E-08 1.68302E-08
 -1       749-1.34083E+05-5.61290E+04 9.25800E+03-1.01601E+05-1.64500E-08 2.22866E-08
 -1       750-3.40083E+05-3.54696E+04-3.57704E+04-1.06153E+05-1.98382E-08-2.11639E-08
 -1       751 2.42311E+06-1.41245E+05 3.27371E+05 6.83949E+03-2.72722E-08 5.23869E-10
 -1       752 2.56569E+06 1.63545E+05 2.31557E+05-7.14618E+03-3.88875E-09-7.27596E-10
 -1       753 2.47826E+06-2.21286E+04 8.48198E+04 6.31043E+02-1.57164E-09 1.20781E-09
 -1       754 2.50164E+06 2.56121E+04 5.33317E+04-4.55340E+02 4.27914E-10 1.19144E-09
 -1       755 2.48731E+06-3.46241E+03 2.18447E+04 1.49593E+02-4.02176E-10-9.90440E-10
 -1       756 2.49117E+06 4.05738E+03 1.30528E+04 6.39877E+01 5.11778E-09 1.09139E-10
 -1       757 2.48881E+06-5.92398E+02 6.40884E+03 1.11722E+02 7.07777E-07 1.71735E-09
 -1       758 2.48960E+06 1.04771E+03 5.10557E+03 1.04436E+02 1.40064E-06 8.86374E-10
 -1       759 2.48889E+06-4.54854E+02 5.16693E+03 1.09145E+02 2.63502E-07 1.84832E-09
 -1       760 2.49053E+06 2.87470E+03 9.46325E+03 1.02015E+02-8.77171E-07-4.56794E-10
 -1       761 2.48787E+06-2.41807E+03 1.53817E+04 1.14143E+02-4.40491E-07 1.13505E-09
 -1       762 2.49780E+06 1.78467E+04 3.72182E+04 3.07924E+01 5.56634E-09 3.40970E-09
 -1       763 2.48158E+06-1.54144E+04 5.90778E+04 1.80365E+02 9.93154E-09 1.13141E-09
 -1       764 2.54205E+06 1.13829E+05 1.61136E+05-8.84007E+02 2.63625E-09-9.22228E-10
 -1       765 2.44347E+06-9.83043E+04 2.27855E+05 1.02884E+03-6.08992E-10-2.25555E-09
 -1       766-5.05735E+04 7.19211E+04 1.15978E+05 8.80384E+03 6.41012E-09-2.92462E-09
 -1       767 5.91456E+04 1.32388E+05 8.54242E+04-3.82111E+04 2.04964E-08-1.73867E-09
 -1       768-8.29992E+03 9.21308E+04 3.33760E+04 8.62248E+03 8.66385E-09 3.35814E-09
 -1       769 1.95748E+04 1.41401E+05 3.66037E+04-4.04052E+04 4.10989E-09-1.28921E-10
 -1       770-1.15086E+04 6.35691E+04 1.56190E+04 1.09996E+04-5.08453E-09-1.95246E-09
 -1       771-1.41331E+06-2.82916E+05-4.60842E+04-6.10512E+05-4.01269E-09-8.83301E-09
 -1       772-1.40935E+06-2.82753E+05-2.26094E+04-6.30135E+05 2.05182E-09-5.50244E-10
 -1       773-1.41531E+06-2.65747E+05-9.62588E+03-6.17977E+05 4.10728E-09-1.75714E-09
 -1       774-1.40431E+06-2.76907E+05-4.69500E+03-6.31627E+05 1.27511E-08 1.40426E-09
 -1       775-1.41582E+06-2.64949E+05-2.17998E+03-6.18402E+05 2.31012E-09-8.59472E-09
 -1       776-1.40412E+06-2.76644E+05-1.09777E+03-6.31858E+05-1.08957E-09-2.39584E-09
 -1       777-1.41607E+06-2.64857E+05-6.06735E+02-6.18498E+05-2.30466E-09-5.12239E-09
 -1       778-1.40422E+06-2.76603E+05-4.76043E+02-6.32008E+05 5.31145E-10 2.63231E-09
 -1       779-1.41621E+06-2.64773E+05-6.10818E+02-6.18562E+05 1.13505E-09 4.28599E-10
 -1       780-1.40434E+06-2.76575E+05-1.12336E+03-6.32122E+05 4.58385E-10-2.44654E-10
 -1       781-1.41623E+06-2.64697E+05-2.22487E+03-6.18591E+05-9.78980E-09-1.13077E-08
 -1       782-1.40476E+06-2.76812E+05-4.83818E+03-6.32185E+05-1.08564E-08-2.50839E-09
 -1       783-1.41600E+06-2.65321E+05-9.89656E+03-6.18248E+05-7.01186E-09-3.34967E-09
 -1       784-1.40988E+06-2.83142E+05-2.33396E+04-6.31286E+05-8.92442E-10-1.82263E-09
 -1       785-1.41444E+06-2.82660E+05-4.75201E+04-6.10330E+05 3.05045E-09 6.36828E-09
 -1       786 1.99645E+05-5.80941E+03 2.69205E+04-1.91567E+03 2.57614E-10 5.11136E-10
 -1       787 2.09214E+05 8.14671E+03 1.71210E+04-6.88957E+03-3.51747E-10-4.38263E-09
 -1       788 2.03667E+05-5.82183E+02 6.96910E+03-1.90676E+03-1.79284E-10 5.48880E-10
 -1       789 2.04743E+05 7.72164E+02 3.86629E+03-6.89255E+03-1.29432E-10 2.68437E-09
 -1       790 2.04110E+05-6.23440E+01 1.76793E+03-1.91213E+03 5.79746E-10 2.44086E-10
 -1       791 2.04241E+05 7.18375E+01 9.43605E+02-6.88466E+03 1.19940E-11 1.72179E-10
 -1       792 2.04166E+05-8.00777E+00 4.82582E+02-1.91465E+03-7.90692E-11 8.81158E-10
 -1       793 2.04179E+05 8.46502E+00 3.15042E+02-6.88310E+03 3.00133E-11 3.16021E-10
 -1       794 2.04171E+05-4.36037E+00 2.84145E+02-1.91369E+03-1.91449E-10 6.11195E-10
 -1       795 2.04196E+05 2.80678E+01 4.22725E+02-6.88880E+03 6.67796E-10 2.47157E-10
 -1       796 2.04151E+05-2.58479E+01 7.26842E+02-1.90895E+03-2.35559E-10 3.59137E-10
 -1       797 2.04397E+05 3.05530E+02 1.55181E+03-6.90011E+03-9.38087E-10 3.27012E-09
 -1       798 2.03976E+05-2.33768E+02 2.78108E+03-1.90238E+03 1.27557E-10-6.00608E-10
 -1       799 2.06181E+05 3.24178E+03 6.82299E+03-6.89731E+03-1.65824E-09-2.68295E-09
 -1       800 2.02374E+05-2.31762E+03 1.07228E+04-1.91203E+03-5.32054E-11-1.49385E-09
 -1       801-8.69816E+03 2.34890E+05 3.42726E+04-2.36733E+05-9.52969E-09 2.72848E-09
 -1       802 2.13958E+04 2.44128E+05 3.75219E+04-8.40695E+05-4.17276E-09-4.76575E-10
 -1       803-5.43097E+02 2.34113E+05 4.15491E+04-2.36085E+05-1.30058E-08 6.51562E-09
 -1       804 4.92594E+04 2.61244E+05 8.83396E+04-8.40631E+05-6.89761E-09-5.18048E-09
 -1       805-3.05558E+04 2.18041E+05 1.31062E+05-2.36806E+05-4.98403E-09 4.08181E-09
 -1       806-2.18898E+05-5.94209E+04-1.81592E+04-1.02603E+05 2.23531E-09 6.93944E-09
 -1       807-2.18823E+05-5.48908E+04-8.60550E+03-1.08321E+05-9.25866E-10 2.49747E-09
 -1       808-2.18781E+05-5.00406E+04-3.61634E+03-1.06544E+05-8.59927E-10-1.74771E-09
 -1       809-2.17032E+05-5.15887E+04-1.74620E+03-1.09101E+05-1.05604E-09-2.00819E-09
 -1       810-2.18824E+05-4.93813E+04-7.88329E+02-1.06838E+05-7.81029E-10-1.35265E-09
 -1       811-2.16854E+05-5.13641E+04-3.94194E+02-1.09135E+05-9.11655E-10 1.61435E-10
 -1       812-2.18839E+05-4.93598E+04-2.04561E+02-1.06853E+05-1.69638E-09-7.14635E-10
 -1       813-2.16834E+05-5.13576E+04-1.48247E+02-1.09131E+05 1.63143E-09 8.15839E-09
 -1       814-2.18838E+05-4.93629E+04-1.68795E+02-1.06851E+05-2.56730E-08-1.07857E-08
 -1       815-2.16844E+05-5.13655E+04-2.99146E+02-1.09129E+05-3.39041E-08 2.31855E-08
 -1       816-2.18821E+05-4.93827E+04-5.83976E+02-1.06837E+05-1.76756E-08 7.55335E-09
 -1       817-2.16974E+05-5.15280E+04-1.28682E+03-1.09093E+05-2.04363E-09-7.35736E-09
 -1       818-2.18780E+05-4.98763E+04-2.66175E+03-1.06623E+05-1.84991E-09 2.28374E-09
 -1       819-2.18329E+05-5.39161E+04-6.33127E+03-1.08466E+05-2.69029E-09 3.79646E-09
 -1       820-2.18820E+05-5.68138E+04-1.33590E+04-1.03762E+05-1.26920E-09 1.20394E-10
 -1       821-2.31558E+05 6.42284E+03-2.97872E+04 2.11478E+03-3.19164E-09 1.56797E-09
 -1       822-2.42132E+05-9.01445E+03-1.89441E+04 7.76369E+03-1.34651E-09 1.30967E-10
 -1       823-2.36012E+05 6.41516E+02-7.71488E+03 2.06315E+03 2.37355E-09-1.89857E-09
 -1       824-2.37200E+05-8.46734E+02-4.28271E+03 7.83220E+03-1.00863E-09-7.19751E-10
 -1       825-2.36504E+05 6.98736E+01-1.96900E+03 2.04560E+03-5.62568E-09-2.04477E-09
 -1       826-2.36656E+05-6.73571E+01-1.06898E+03 7.86056E+03-8.29561E-09 1.03319E-09
 -1       827-2.36566E+05 1.24276E+01-5.84581E+02 2.03464E+03-4.80907E-09-7.11680E-10
 -1       828-2.36597E+05 2.29594E+00-4.52638E+02 7.87775E+03-5.85169E-09-2.52507E-09
 -1       829-2.36569E+05 1.21349E+01-5.17928E+02 2.02839E+03 5.83157E-10-3.25658E-09
 -1       830-2.36647E+05-4.99634E+01-8.95024E+02 7.88480E+03 4.37976E-09-4.45271E-09
 -1       831-2.36519E+05 6.04388E+01-1.62001E+03 2.02760E+03-2.39299E-09-3.17362E-09
 -1       832-2.37097E+05-6.85202E+02-3.50921E+03 7.88069E+03-6.47901E-10-2.14112E-09
 -1       833-2.36118E+05 5.29556E+02-6.31308E+03 2.03262E+03-2.73633E-09-8.02629E-10
 -1       834-2.41137E+05-7.36615E+03-1.55010E+04 7.85151E+03-1.30285E-10 7.59428E-11
 -1       835-2.32476E+05 5.26109E+03-2.43698E+04 2.05798E+03-1.09435E-09-1.40972E-10
 -1       836-9.84967E+03 5.70465E+05 4.82652E+04-1.57924E+04-6.94854E-10 1.01409E-09
 -1       837 1.55977E+04 5.87925E+05 3.74587E+04-5.52706E+04 1.38698E-10 3.57886E-10
 -1       838-2.35712E+03 5.76090E+05 2.82229E+04-1.57759E+04-1.26147E-09-6.65636E-11
 -1       839 2.12363E+04 5.91338E+05 4.77164E+04-5.52657E+04 3.47427E-10-1.11828E-09
 -1       840-1.42363E+04 5.67043E+05 6.78111E+04-1.57967E+04-1.49885E-09 7.06677E-10
 -1       841 3.74601E+03 3.29397E+03-7.13726E+03 1.37764E+02 1.19155E-09 6.02995E-10
 -1       842-1.52800E+02-3.12272E+03-4.95168E+03 1.54429E+03-1.20576E-09 7.98252E-10
 -1       843 2.29061E+03 7.28146E+02-1.67126E+03 6.24209E+02 1.43845E-09 8.86985E-10
 -1       844 1.53760E+03-1.52036E+02-1.03925E+03 9.82453E+02 5.68821E-09 3.88989E-09
 -1       845 2.05569E+03 3.25233E+02-3.79372E+02 6.98772E+02 1.68420E-10 9.27116E-10
 -1       846 1.81231E+03 3.16691E+02-2.04684E+02 8.95772E+02-1.14254E-09-1.82179E-09
 -1       847 2.01586E+03 2.59738E+02-5.26381E+01 7.10737E+02 8.91397E-10 8.05514E-10
 -1       848 1.86994E+03 4.09664E+02 3.85473E+01 8.79265E+02-7.11517E-09 4.50696E-09
 -1       849 1.99803E+03 2.32331E+02 1.39026E+02 7.15235E+02-2.27717E-06 8.58903E-07
 -1       850 1.95830E+03 5.52002E+02 3.90563E+02 8.55421E+02-4.54689E-06 1.70836E-06
 -1       851 1.92750E+03 1.17481E+02 6.88664E+02 7.34546E+02-2.27965E-06 8.57033E-07
 -1       852 2.45270E+03 1.39010E+03 1.86753E+03 7.05549E+02-8.59450E-09 8.19796E-10
 -1       853 1.50373E+03-6.05267E+02 2.99194E+03 8.64933E+02-4.08573E-09-1.91903E-09
 -1       854 5.48581E+03 6.71130E+03 8.86852E+03-2.93987E+02 5.06589E-10-1.72349E-09
 -1       855-1.10491E+03-5.20020E+03 1.27730E+04 1.73286E+03-3.78122E-10 2.16914E-09
 -1       856-2.76304E+05 6.13286E+03-2.84715E+04 4.17583E+03-1.25842E-08-1.72622E-09
 -1       857-2.86403E+05-8.59161E+03-1.81016E+04 1.54989E+04-1.79359E-08-3.68527E-09
 -1       858-2.80565E+05 6.15877E+02-7.37356E+03 4.08849E+03-1.29721E-08-2.56978E-09
 -1       859-2.81712E+05-7.78062E+02-4.08886E+03 1.56164E+04-3.04340E-10-5.25870E-09
 -1       860-2.81039E+05 7.45935E+01-1.87609E+03 4.05701E+03 2.44290E-09-3.28066E-09
 -1       861-2.81205E+05-2.76957E+01-1.00866E+03 1.56628E+04-6.55160E-09-4.45505E-09
 -1       862-2.81101E+05 2.20064E+01-5.33777E+02 4.04173E+03 7.37475E-09-2.08848E-09
 -1       863-2.81151E+05 4.20839E+01-3.81677E+02 1.56815E+04 2.16928E-08-5.44156E-09
 -1       864-2.81105E+05 2.03199E+01-3.96046E+02 4.03824E+03 1.18652E-08-3.61376E-09
 -1       865-2.81179E+05 5.15351E+00-6.48002E+02 1.56760E+04 1.09870E-08-2.32726E-09
 -1       866-2.81069E+05 5.18026E+01-1.15406E+03 4.04725E+03-3.90673E-09-2.85799E-09
 -1       867-2.81484E+05-4.49605E+02-2.48561E+03 1.56443E+04-5.37955E-09-3.28768E-09
 -1       868-2.80782E+05 3.78449E+02-4.47054E+03 4.07014E+03 1.69257E-09-3.59341E-09
 -1       869-2.84318E+05-5.18438E+03-1.09658E+04 1.55480E+04-2.71825E-09-2.08308E-09
 -1       870-2.78200E+05 3.71731E+03-1.72474E+04 4.14469E+03 5.52745E-09-3.66890E-09
 -1       871-2.87777E+03-2.69208E+04-5.29924E+03 7.97668E+04-4.55384E-09-1.49521E-09
 -1       872-9.37865E+02-2.78774E+04-1.55575E+03 9.36388E+04-7.34872E-09-3.75258E-09
 -1       873 2.67871E+01-2.75275E+04 1.54500E+03 7.96144E+04-4.47426E-09 2.62389E-09
 -1       874 1.78005E+03-2.62701E+04 5.78481E+03 9.37055E+04-6.19229E-09-6.88942E-10
 -1       875 5.88437E+03-2.85862E+04 1.24764E+04 7.97092E+04-3.96449E-09-2.28579E-09
 -1       876 3.41319E+05 4.36281E+04 3.21503E+04 1.34477E+05-3.60114E-09-4.55293E-09
 -1       877 3.48371E+05 6.79470E+04 2.01584E+04 1.39391E+05 3.97944E-09 9.70203E-10
 -1       878 3.46767E+05 5.06359E+04 7.58620E+03 1.33807E+05 7.99332E-10-1.65528E-09
 -1       879 3.42100E+05 5.86577E+04 4.14837E+03 1.40654E+05 1.26056E-09-3.73802E-10
 -1       880 3.47354E+05 5.13915E+04 1.77070E+03 1.33778E+05 9.47239E-10-2.75872E-09
 -1       881 3.41422E+05 5.76855E+04 9.46968E+02 1.40710E+05-2.82949E-09-6.72571E-09
 -1       882 3.47412E+05 5.14856E+04 5.08348E+02 1.33791E+05-1.08540E-08-6.44349E-10
 -1       883 3.41363E+05 5.75843E+04 4.38237E+02 1.40691E+05-6.54029E-09-1.12228E-09
 -1       884 3.47405E+05 5.14886E+04 5.75220E+02 1.33795E+05 2.00286E-09 1.39840E-09
 -1       885 3.41457E+05 5.76922E+04 1.13061E+03 1.40687E+05 1.03718E-08 7.83416E-10
 -1       886 3.47320E+05 5.13872E+04 2.14522E+03 1.33791E+05 2.62651E-09 2.97337E-09
 -1       887 3.42301E+05 5.88539E+04 5.04154E+03 1.40588E+05 2.81324E-09-3.04340E-10
 -1       888 3.46591E+05 5.04816E+04 9.22776E+03 1.33839E+05 8.96057E-09-6.47560E-10
 -1       889 3.49942E+05 7.01387E+04 2.45212E+04 1.39027E+05 2.50634E-09 1.81899E-10
 -1       890 3.39956E+05 4.19651E+04 3.91129E+04 1.34658E+05 1.22782E-10-2.48110E-09
 -1       891 1.16953E+03-1.53142E+05-6.03953E+03 1.87442E+04-3.00952E-09 1.51385E-09
 -1       892-2.04607E+03-1.55254E+05-4.80016E+03 6.64680E+04-6.00107E-09-3.45995E-09
 -1       893 3.00639E+02-1.53834E+05-3.81892E+03 1.86649E+04-3.36740E-10 2.77653E-09
 -1       894-3.10709E+03-1.55888E+05-6.72520E+03 6.64619E+04-5.14501E-09-1.16142E-09
 -1       895 1.98982E+03-1.52498E+05-9.70778E+03 1.87500E+04-5.49608E-09 1.88993E-09
 -1       896 3.36101E+05-8.27749E+02 1.85555E+03-2.23127E+02-4.57746E-10 2.56955E-09
 -1       897 3.37148E+05 9.60311E+02 1.36416E+03 2.84014E+03-4.83780E-10 3.68107E-09
 -1       898 3.36520E+05-1.25674E+02 4.89766E+02 3.31073E+02-2.60364E-10 3.69383E-09
 -1       899 3.36656E+05 1.51465E+02 3.21631E+02 2.10962E+03-6.04033E-10 4.45570E-09
 -1       900 3.36591E+05-1.76587E+01 1.50584E+02 5.07397E+02 2.82338E-10 3.99302E-09
 -1       901 3.36589E+05 2.88703E+01 1.27153E+02 2.03243E+03 8.53222E-10 4.57497E-09
 -1       902 3.36587E+05-3.02843E+00 1.35267E+02 4.08271E+02 4.08892E-10 3.86686E-09
 -1       903 3.36671E+05 3.17934E+01 2.56301E+02 2.56370E+03-1.20816E-09 4.07326E-09
 -1       904 3.36510E+05-2.18048E+01 4.15339E+02-2.38812E+01-8.64418E-10 2.87008E-09
 -1       905 3.37156E+05 2.28418E+02 1.02901E+03 4.01145E+03-4.88853E-11 2.58045E-09
 -1       906 3.36112E+05-2.05329E+02 1.60053E+03-1.03949E+03-1.05180E-09 5.20913E-10
 -1       907 3.39612E+05 1.79192E+03 4.44845E+03 7.21413E+03 8.54868E-10-6.48242E-10
 -1       908 3.34093E+05-1.60984E+03 6.20217E+03-3.22671E+03 1.96263E-09-4.29736E-09
 -1       909 3.52314E+05 1.30951E+04 1.98265E+04 1.40650E+04 7.07649E-09-7.76890E-09
 -1       910 3.23584E+05-1.16126E+04 2.35165E+04-7.89220E+03 7.50561E-09-1.41754E-08
 -1       911 3.65113E+04-5.81282E+02-2.41414E+03-2.97846E+03-9.23069E-09-1.26946E-08
 -1       912 5.76691E+04 4.14978E+02 2.19090E+03 9.90045E+03-4.08158E-09-7.90024E-09
 -1       913 4.14416E+04-2.76871E+00-8.81465E+02-2.29990E+03-3.73802E-10-1.32442E-09
 -1       914 5.00123E+04-9.30704E+01 8.45569E+02 8.77093E+03-7.14891E-10 2.63512E-09
 -1       915 4.39824E+04 5.69739E+01-2.45942E+02-1.84675E+03-2.32956E-09 5.75598E-09
 -1       916 4.63046E+04-8.29313E+01 2.11313E+02 8.09692E+03-7.62903E-09 8.89131E-09
 -1       917 4.50567E+04 5.23185E+01 3.19377E+01-1.62593E+03-5.66376E-09 9.14885E-09
 -1       918 4.52592E+04-4.28746E+01 1.09247E+02 7.88564E+03-2.33993E-09 1.12209E-08
 -1       919 4.50013E+04 3.56837E+01 1.77298E+02-1.63564E+03-5.49866E-09 8.93861E-09
 -1       920 4.65844E+04 5.96427E+01 6.95050E+02 8.13612E+03-5.26479E-09 8.90068E-09
 -1       921 4.37631E+04-7.24369E+01 5.28034E+02-1.87621E+03-2.23886E-09 4.72136E-09
 -1       922 5.09555E+04 8.72053E+02 2.93942E+03 8.85297E+03-2.95699E-10 3.05181E-09
 -1       923 4.07293E+04-8.45940E+02 2.26121E+03-2.35253E+03 3.59194E-10-2.94938E-09
 -1       924 6.14374E+04 6.65071E+03 1.11302E+04 1.00733E+04 7.33425E-09-7.51015E-09
 -1       925 3.34765E+04-5.98393E+03 9.85841E+03-3.09902E+03 5.22709E-09-1.49694E-08
 -1       926-2.25496E+05 5.29936E+03-1.23387E+04 6.26717E+03-4.78574E-09-2.10321E-08
 -1       927-2.28834E+05-6.01819E+03-8.29660E+03-1.00407E+04 2.56234E-08-2.28966E-08
 -1       928-2.29823E+05 7.56235E+02-3.61877E+03 4.88372E+03-1.70485E-09-1.63514E-08
 -1       929-2.21195E+05-7.41592E+02-5.06993E+02-5.76023E+03-1.40098E-08-1.54487E-08
 -1       930-2.33000E+05-7.66119E+01-1.74244E+03 1.98513E+03-2.18910E-09-7.30250E-09
 -1       931-2.18003E+05 1.46282E+02 1.71942E+03 6.00326E+02 1.01267E-09-3.28781E-09
 -1       932-2.32945E+05-1.85525E+02-8.39075E+02-1.47598E+03-6.88203E-10 3.41413E-09
 -1       933-2.20981E+05 2.95118E+02 2.04272E+03 6.87677E+03-3.34217E-09 8.68448E-09
 -1       934-2.30102E+05-1.63282E+02 9.74940E+02-4.29018E+03-6.83883E-10 1.18508E-08
 -1       935-2.25644E+05 1.03859E+03 3.58894E+03 1.09098E+04-1.56818E-09 1.65455E-08
 -1       936-2.28414E+05-8.26771E+02 5.65591E+03-5.50990E+03-8.11582E-11 1.56792E-08
 -1       937-2.23628E+05 6.73529E+03 1.41085E+04 1.13742E+04 1.39877E-08 1.79841E-08
 -1       938-2.32135E+05-5.84035E+03 2.19012E+04-4.75491E+03 1.59478E-08 1.26365E-08
 -1       939-2.02261E+05 4.33526E+04 6.17998E+04 8.22325E+03 7.87162E-09 1.20899E-08
 -1       940-2.49645E+05-3.75022E+04 8.47238E+04-2.35785E+03-7.86201E-10 5.09317E-09
 -1       941 4.04042E+06-2.03087E+05 4.71566E+05 1.06929E+03-1.02050E-06-1.65601E-08
 -1       942 4.24417E+06 2.35213E+05 3.33189E+05 3.98490E+02-2.05918E-06-3.93266E-09
 -1       943 4.11916E+06-3.18500E+04 1.22209E+05 7.35253E+02-1.35561E-06 4.36557E-09
 -1       944 4.15280E+06 3.68684E+04 7.68646E+04 7.33102E+02-6.40602E-07-1.53250E-09
 -1       945 4.13222E+06-4.98577E+03 3.15484E+04 7.34866E+02-3.85820E-07 3.47427E-09
 -1       946 4.13774E+06 5.85497E+03 1.89339E+04 7.33888E+02-1.40264E-07 6.92580E-09
 -1       947 4.13438E+06-8.64996E+02 9.45644E+03 7.34502E+02-1.32520E-08 4.70823E-09
 -1       948 4.13554E+06 1.60105E+03 7.82352E+03 7.34270E+02 1.14667E-07 2.31856E-09
 -1       949 4.13446E+06-7.34983E+02 8.28198E+03 7.34492E+02 6.07710E-07-7.26322E-09
 -1       950 4.13714E+06 4.73718E+03 1.55406E+04 7.33924E+02 1.10443E-06 4.89422E-09
 -1       951 4.13276E+06-3.99883E+03 2.54398E+04 7.34842E+02 4.40687E-06-1.16288E-08
 -1       952 4.14917E+06 2.95299E+04 6.16427E+04 7.40658E+02 7.70114E-06-7.46695E-10
 -1       953 4.12230E+06-2.55059E+04 9.78957E+04 7.27730E+02 3.85086E-06 1.89975E-08
 -1       954 4.22234E+06 1.88354E+05 2.66821E+05-5.89721E+02 6.47020E-09 1.32895E-08
 -1       955 4.05919E+06-1.62640E+05 3.77470E+05 2.06489E+03-2.42319E-08 1.70257E-09
 -1       956-2.11791E+05-3.72039E+03-7.93108E+03 2.84864E+04-3.89173E-09 3.57886E-10
 -1       957-2.13255E+05-1.17751E+03-4.00871E+03 3.31954E+04-1.40790E-09 6.84850E-10
 -1       958-2.12455E+05-1.24983E+02-1.80373E+03 2.83166E+04 1.62981E-09-1.00295E-09
 -1       959-2.12592E+05-3.78423E+00-9.17494E+02 3.33813E+04-3.63070E-09-1.95132E-09
 -1       960-2.12533E+05 4.67087E+01-4.45656E+02 2.82989E+04-9.24410E-09-2.53794E-09
 -1       961-2.12552E+05 5.57438E+01-2.34582E+02 3.34011E+04-1.58666E-08 1.81217E-10
 -1       962-2.12557E+05 5.19858E+01-1.31571E+02 2.82966E+04-6.45150E-09 1.07343E-09
 -1       963-2.12558E+05 6.18646E+01-1.00490E+02 3.34041E+04-4.79713E-09 1.24260E-09
 -1       964-2.12565E+05 5.65527E+01-1.16021E+02 2.82958E+04-1.27079E-09 3.78122E-10
 -1       965-2.12569E+05 6.58447E+01-1.95555E+02 3.34040E+04 5.18330E-09-4.41787E-10
 -1       966-2.12560E+05 6.06571E+01-3.64580E+02 2.82967E+04 8.74252E-11-1.22236E-09
 -1       967-2.12618E+05 2.57268E+01-7.48705E+02 3.33936E+04 3.60603E-09-1.32809E-09
 -1       968-2.12508E+05-7.16475E+01-1.46962E+03 2.83063E+04 2.76350E-09 6.15046E-10
 -1       969-2.13172E+05-9.24587E+02-3.26823E+03 3.32906E+04 2.00589E-09-2.12503E-09
 -1       970-2.11976E+05-2.99906E+03-6.46470E+03 2.84025E+04 2.62071E-09-3.75258E-09
 -1       971-4.01819E+05 5.05700E+03-2.35025E+04 4.12743E+03-5.25324E-09-1.18598E-09
 -1       972-4.10129E+05-7.08941E+03-1.49411E+04 1.55737E+04-6.23186E-09 1.03410E-09
 -1       973-4.05336E+05 5.06438E+02-6.09131E+03 4.01508E+03-5.33691E-09-2.15869E-09
 -1       974-4.06267E+05-6.37079E+02-3.38336E+03 1.57328E+04 2.61980E-09-9.69749E-10
 -1       975-4.05728E+05 6.19457E+01-1.56738E+03 3.96721E+03-1.55865E-09-2.51521E-09
 -1       976-4.05856E+05-1.52976E+01-8.69939E+02 1.58062E+04-1.17387E-08 1.28011E-09
 -1       977-4.05779E+05 2.06501E+01-5.14960E+02 3.94151E+03 1.99952E-09-2.89441E-09
 -1       978-4.05823E+05 3.99693E+01-4.68048E+02 1.58400E+04 1.22583E-08-1.46846E-09
 -1       979-4.05778E+05 2.43791E+01-6.25365E+02 3.93328E+03 9.29053E-09-2.62736E-09
 -1       980-4.05893E+05-3.48037E+01-1.16165E+03 1.58384E+04 1.14049E-08-6.23123E-10
 -1       981-4.05709E+05 8.74354E+01-2.14811E+03 3.94314E+03-3.37002E-09-1.62453E-09
 -1       982-4.06484E+05-8.88655E+02-4.67930E+03 1.57995E+04-2.07842E-09-3.43562E-10
 -1       983-4.05170E+05 7.10070E+02-8.43225E+03 3.97252E+03 9.02946E-09-1.79625E-09
 -1       984-4.11863E+05-9.82316E+03-2.07078E+04 1.56880E+04 2.30023E-09 1.95450E-09
 -1       985-4.00299E+05 7.02609E+03-3.25638E+04 4.05676E+03 5.71981E-09-1.56797E-09
 -3
    1PSTEP                        49          25           1          
  100CL  125 6.55117E-01         841                     0   25           1
 -4  DISP        4    1
 -5  D1          1    2    1    0
 -5  D2          1    2    2    0
 -5  D3          1    2    3    0
 -5  ALL         1    2    0    0    1ALL
 -1         1 8.34039E-05 0.00000E+00 0.00000E+00
 -1         2 6.82067E-05 0.00000E+00 0.00000E+00
 -1         3 5.72802E-05 0.00000E+00 0.00000E+00
 -1         4 4.84091E-05 0.00000E+00 0.00000E+00
 -1         5 4.15388E-05 0.00000E+00 0.00000E+00
 -1         8 6.64296E-05-8.30775E-07 0.00000E+00
 -1         9 5.07062E-05-5.81487E-08 0.00000E+00
 -1        10 5.00593E-05-1.91149E-06 0.00000E+00
 -1        11 4.52875E-05-3.48081E-07 0.00000E+00
 -1        12 3.99647E-05 9.51722E-07 0.00000E+00
 -1        15 3.61536E-05-1.02045E-06 0.00000E+00
 -1        16 3.95751E-05-1.34577E-07 0.00000E+00
 -1        17 3.45894E-05-3.85252E-06 0.00000E+00
 -1        18 3.45232E-05-7.22558E-07 0.00000E+00
 -1        19 3.61398E-05 1.89134E-06 0.00000E+00
 -1        20 3.66801E-05 2.05376E-05 0.00000E+00
 -1        21 3.66601E-05 4.90734E-05 0.00000E+00
 -1        22 1.45307E-05-6.68724E-07 0.00000E+00
 -1        23 1.57854E-05 1.14003E-07 0.00000E+00
 -1        24 1.45569E-05-4.62981E-06 0.00000E+00
 -1        25 3.09002E-05-4.55093E-07 0.00000E+00
 -1        26 3.22398E-05 2.51699E-06 0.00000E+00
 -1        27 3.06676E-05 1.97834E-05 0.00000E+00
 -1        28 2.87800E-05 4.83594E-05 0.00000E+00
 -1        29 0.00000E+00 0.00000E+00 0.00000E+00
 -1        30 1.79750E-06-3.25714E-08 0.00000E+00
 -1        31 1.80611E-06-4.58964E-06 0.00000E+00
 -1        32 0.00000E+00 0.00000E+00 0.00000E+00
 -1        33 2.72259E-05 3.92538E-06 0.00000E+00
 -1        34 2.58021E-05 1.97097E-05 0.00000E+00
 -1        35 2.30830E-05 4.79752E-05 0.00000E+00
 -1        36 8.24812E-05-2.78876E-20-1.32349E-23
 -1        37 8.15313E-05-3.55207E-19 1.32349E-23
 -1        38 8.05831E-05-6.66553E-19 2.64698E-23
 -1        39 7.96297E-05-6.66441E-19-1.32349E-23
 -1        40 7.86762E-05-4.21608E-19-2.64698E-23
 -1        41 7.77216E-05-2.67661E-19 0.00000E+00
 -1        42 7.67670E-05-2.17600E-19 2.64698E-23
 -1        43 7.58121E-05-3.01515E-19 0.00000E+00
 -1        44 7.48572E-05-3.74343E-19-2.64698E-23
 -1        45 7.39025E-05-4.96980E-19 1.32349E-23
 -1        46 7.29478E-05-5.39753E-19 0.00000E+00
 -1        47 7.19938E-05-5.48338E-19 0.00000E+00
 -1        48 7.10400E-05-5.35868E-19 0.00000E+00
 -1        49 7.00899E-05-2.43574E-19 1.32349E-23
 -1        50 6.91385E-05 4.77465E-20 0.00000E+00
 -1        51 8.21143E-05-1.40807E-07 0.00000E+00
 -1        52 7.99872E-05-2.75695E-07 0.00000E+00
 -1        53 7.71846E-05-4.09920E-07 0.00000E+00
 -1        54 7.38767E-05-5.45341E-07-3.30872E-24
 -1        55 7.02345E-05-6.83629E-07 2.48154E-24
 -1        56 8.16928E-05-7.04077E-07 0.00000E+00
 -1        57 7.99502E-05-1.51657E-06 0.00000E+00
 -1        58 7.82230E-05-2.35974E-06 5.29396E-23
 -1        59 7.64769E-05-3.18485E-06 2.64698E-23
 -1        60 7.47023E-05-3.93540E-06 0.00000E+00
 -1        61 7.28792E-05-4.56226E-06 0.00000E+00
 -1        62 7.09938E-05-5.02404E-06 0.00000E+00
 -1        63 6.90333E-05-5.28642E-06-2.64698E-23
 -1        64 6.69901E-05-5.32882E-06 5.29396E-23
 -1        65 6.48600E-05-5.13914E-06 0.00000E+00
 -1        66 6.26445E-05-4.72165E-06 0.00000E+00
 -1        67 6.03501E-05-4.08882E-06 2.64698E-23
 -1        68 5.79858E-05-3.26924E-06 0.00000E+00
 -1        69 5.55748E-05-2.29447E-06-2.64698E-23
 -1        70 5.31207E-05-1.21547E-06 0.00000E+00
 -1        71 6.75315E-05 8.16750E-19 0.00000E+00
 -1        72 6.68477E-05 3.44092E-18-1.32349E-23
 -1        73 6.61645E-05 6.38663E-18 0.00000E+00
 -1        74 6.54796E-05 7.34902E-18 1.32349E-23
 -1        75 6.47947E-05 6.26018E-18 2.64698E-23
 -1        76 6.41094E-05 3.51213E-18-1.32349E-23
 -1        77 6.34241E-05 8.50841E-19 0.00000E+00
 -1        78 6.27388E-05 2.78338E-19 0.00000E+00
 -1        79 6.20534E-05 1.25312E-18 0.00000E+00
 -1        80 6.13682E-05 3.88046E-18 1.32349E-23
 -1        81 6.06830E-05 6.41284E-18 2.64698E-23
 -1        82 5.99984E-05 6.92634E-18 0.00000E+00
 -1        83 5.93138E-05 5.76537E-18 0.00000E+00
 -1        84 5.86319E-05 3.20036E-18 6.61744E-24
 -1        85 5.79491E-05 7.02117E-19-1.32349E-23
 -1        86 6.72968E-05-1.87373E-08 0.00000E+00
 -1        87 6.45859E-05-2.20472E-08-1.65436E-24
 -1        88 6.08234E-05-2.98038E-08 3.30872E-24
 -1        89 5.67580E-05-3.77313E-08 0.00000E+00
 -1        90 5.31366E-05-4.30412E-08-6.61744E-24
 -1        91 6.31005E-05 1.24037E-05-1.32349E-23
 -1        92 4.80977E-05 4.94224E-05 6.61744E-24
 -1        93 3.01919E-05 9.33991E-05 6.61744E-24
 -1        94 1.67485E-05 1.26720E-04 0.00000E+00
 -1        95 1.19878E-05 1.38207E-04-6.61744E-24
 -1        96 1.94065E-05 1.16757E-04-3.30872E-24
 -1        97 3.58050E-05 6.88368E-05 0.00000E+00
 -1        98 5.83105E-05 1.44666E-06 0.00000E+00
 -1        99 8.09881E-05-6.65017E-05 0.00000E+00
 -1       100 9.79239E-05-1.16080E-04 3.30872E-24
 -1       101 1.06090E-04-1.39662E-04 0.00000E+00
 -1       102 1.02096E-04-1.30157E-04 3.30872E-24
 -1       103 8.91775E-05-9.81154E-05 0.00000E+00
 -1       104 7.12888E-05-5.41768E-05 0.00000E+00
 -1       105 5.58722E-05-1.61587E-05 0.00000E+00
 -1       106 5.67338E-05 1.43540E-19-1.32349E-23
 -1       107 5.61788E-05 3.89288E-19-6.61744E-24
 -1       108 5.56243E-05 3.33787E-19-1.32349E-23
 -1       109 5.50682E-05 1.41690E-19 0.00000E+00
 -1       110 5.45120E-05-1.57461E-19 1.32349E-23
 -1       111 5.39555E-05-1.84111E-19 0.00000E+00
 -1       112 5.33990E-05 9.93278E-20 0.00000E+00
 -1       113 5.28424E-05 2.63464E-19 0.00000E+00
 -1       114 5.22858E-05 1.59195E-19 0.00000E+00
 -1       115 5.17293E-05-6.98037E-21 0.00000E+00
 -1       116 5.11728E-05-1.34702E-19-1.32349E-23
 -1       117 5.06168E-05-3.67005E-19 0.00000E+00
 -1       118 5.00608E-05-4.77796E-19 0.00000E+00
 -1       119 4.95070E-05-2.02947E-19-6.61744E-24
 -1       120 4.89524E-05-3.48977E-20 0.00000E+00
 -1       121 5.70583E-05-3.18945E-07 1.32349E-23
 -1       122 5.64150E-05-6.37026E-07-3.30872E-24
 -1       123 5.53708E-05-9.55412E-07 0.00000E+00
 -1       124 5.39480E-05-1.27393E-06 0.00000E+00
 -1       125 5.21695E-05-1.59297E-06 0.00000E+00
 -1       126 5.41446E-05 7.87561E-06 6.61744E-24
 -1       127 4.48450E-05 3.14898E-05-3.30872E-24
 -1       128 3.07586E-05 6.68596E-05 0.00000E+00
 -1       129 1.34193E-05 1.09998E-04 0.00000E+00
 -1       130-4.68961E-06 1.54954E-04-3.30872E-24
 -1       131-2.10511E-05 1.95783E-04 1.65436E-24
 -1       132-3.36700E-05 2.27583E-04 0.00000E+00
 -1       133-4.06799E-05 2.45457E-04-1.65436E-24
 -1       134-4.17252E-05 2.47874E-04 3.30872E-24
 -1       135-3.65352E-05 2.33369E-04 0.00000E+00
 -1       136-2.62947E-05 2.04522E-04 3.30872E-24
 -1       137-1.21206E-05 1.64026E-04-1.65436E-24
 -1       138 4.02687E-06 1.17544E-04-3.30872E-24
 -1       139 2.02588E-05 7.08015E-05 0.00000E+00
 -1       140 3.46709E-05 2.95912E-05-3.30872E-24
 -1       141 4.79838E-05-9.48377E-20 1.32349E-23
 -1       142 4.75523E-05-2.70084E-19 0.00000E+00
 -1       143 4.71211E-05-3.40155E-19 0.00000E+00
 -1       144 4.66888E-05-3.69581E-19 6.61744E-24
 -1       145 4.62564E-05-4.80422E-19-1.32349E-23
 -1       146 4.58238E-05-3.20464E-19 6.61744E-24
 -1       147 4.53912E-05-3.16432E-20-1.32349E-23
 -1       148 4.49586E-05 2.55733E-19 6.61744E-24
 -1       149 4.45260E-05 3.49520E-19 0.00000E+00
 -1       150 4.40936E-05 2.42032E-19 0.00000E+00
 -1       151 4.36613E-05 9.58940E-20 0.00000E+00
 -1       152 4.32299E-05-8.68349E-20-6.61744E-24
 -1       153 4.27987E-05-2.01118E-19 1.32349E-23
 -1       154 4.23719E-05-1.70143E-19 0.00000E+00
 -1       155 4.19436E-05-5.34909E-20 0.00000E+00
 -1       156 4.56382E-05-2.93595E-08-3.30872E-24
 -1       157 3.74400E-05-7.63040E-08-1.65436E-24
 -1       158 2.85917E-05-1.28944E-07 0.00000E+00
 -1       159 2.38699E-05-1.52632E-07 0.00000E+00
 -1       160 2.78965E-05-1.80372E-07 0.00000E+00
 -1       161 4.57019E-05 6.71564E-06 0.00000E+00
 -1       162 3.77584E-05 2.68818E-05 0.00000E+00
 -1       163 2.59758E-05 5.65975E-05 0.00000E+00
 -1       164 1.18774E-05 9.19460E-05 0.00000E+00
 -1       165-2.24103E-06 1.27343E-04 0.00000E+00
 -1       166-1.40815E-05 1.57204E-04 0.00000E+00
 -1       167-2.21068E-05 1.77578E-04-3.30872E-24
 -1       168-2.48952E-05 1.84530E-04 0.00000E+00
 -1       169-2.26054E-05 1.77950E-04 3.30872E-24
 -1       170-1.54272E-05 1.57810E-04 1.65436E-24
 -1       171-4.87513E-06 1.28001E-04 0.00000E+00
 -1       172 7.60950E-06 9.25041E-05 0.00000E+00
 -1       173 2.00837E-05 5.70395E-05 0.00000E+00
 -1       174 3.06049E-05 2.73270E-05 0.00000E+00
 -1       175 3.77326E-05 7.33685E-06 0.00000E+00
 -1       191 4.14744E-05 1.58336E-07-6.61744E-24
 -1       192 4.13254E-05 3.17014E-07 0.00000E+00
 -1       193 4.10955E-05 4.75773E-07 0.00000E+00
 -1       194 4.07890E-05 6.34537E-07 0.00000E+00
 -1       195 4.04104E-05 7.93237E-07 6.61744E-24
 -1       251 6.59923E-05 1.33306E-05 0.00000E+00
 -1       252 6.50268E-05 4.95004E-05 6.61744E-24
 -1       253 6.38765E-05 9.10067E-05 0.00000E+00
 -1       254 6.31206E-05 1.21104E-04-6.61744E-24
 -1       255 6.27248E-05 1.29859E-04 0.00000E+00
 -1       256 6.21297E-05 1.07666E-04 6.61744E-24
 -1       257 6.07738E-05 6.14029E-05-1.32349E-23
 -1       258 5.85315E-05-1.69082E-06 0.00000E+00
 -1       259 5.63053E-05-6.45046E-05 0.00000E+00
 -1       260 5.49854E-05-1.09930E-04 0.00000E+00
 -1       261 5.44132E-05-1.31033E-04 0.00000E+00
 -1       262 5.40083E-05-1.21248E-04 0.00000E+00
 -1       263 5.32332E-05-9.04734E-05 0.00000E+00
 -1       264 5.20817E-05-4.89245E-05-6.61744E-24
 -1       265 5.11326E-05-1.32596E-05 0.00000E+00
 -1       266 6.40721E-05-8.55049E-07 0.00000E+00
 -1       267 6.29777E-05-8.64083E-07 0.00000E+00
 -1       268 6.13860E-05-8.74781E-07 0.00000E+00
 -1       269 5.75365E-05-8.88581E-07 0.00000E+00
 -1       270 4.97013E-05-9.25932E-07 0.00000E+00
 -1       271 6.40185E-05 1.30214E-06 2.64698E-23
 -1       272 6.17983E-05 2.78352E-06-1.32349E-23
 -1       273 5.97955E-05 3.69118E-06 0.00000E+00
 -1       274 5.79762E-05 4.08990E-06 0.00000E+00
 -1       275 5.63187E-05 4.05600E-06-5.29396E-23
 -1       276 5.47921E-05 3.66937E-06-2.64698E-23
 -1       277 5.33658E-05 3.01480E-06 0.00000E+00
 -1       278 5.20066E-05 2.18054E-06-2.64698E-23
 -1       279 5.06808E-05 1.25707E-06 5.29396E-23
 -1       280 4.93542E-05 3.36184E-07 2.64698E-23
 -1       281 4.79926E-05-4.90483E-07 0.00000E+00
 -1       282 4.65629E-05-1.13238E-06 0.00000E+00
 -1       283 4.50317E-05-1.50157E-06-5.29396E-23
 -1       284 4.33727E-05-1.51184E-06-1.32349E-23
 -1       285 4.15488E-05-1.08598E-06 0.00000E+00
 -1       286 5.06530E-05 1.44456E-06 0.00000E+00
 -1       287 5.06129E-05 2.30209E-06 0.00000E+00
 -1       288 5.05724E-05 2.56758E-06-1.65436E-24
 -1       289 5.05342E-05 2.29503E-06 0.00000E+00
 -1       290 5.04959E-05 1.58206E-06 0.00000E+00
 -1       291 5.04578E-05 5.26986E-07 0.00000E+00
 -1       292 5.04195E-05-7.44346E-07-1.65436E-24
 -1       293 5.03812E-05-2.10578E-06 8.27181E-25
 -1       294 5.03429E-05-3.42388E-06 1.65436E-24
 -1       295 5.03048E-05-4.56529E-06-8.27181E-25
 -1       296 5.02669E-05-5.41087E-06-1.65436E-24
 -1       297 5.02289E-05-5.84193E-06 0.00000E+00
 -1       298 5.01909E-05-5.77308E-06-1.65436E-24
 -1       299 5.01507E-05-5.11978E-06-1.65436E-24
 -1       300 5.01107E-05-3.84470E-06-6.61744E-24
 -1       301 4.88454E-05-7.96405E-08 0.00000E+00
 -1       302 4.69745E-05-8.65174E-08 0.00000E+00
 -1       303 4.51027E-05-9.09905E-08 3.30872E-24
 -1       304 4.32393E-05-9.61275E-08 1.65436E-24
 -1       305 4.13937E-05-1.05110E-07 6.61744E-24
 -1       306 4.92125E-05 1.07564E-06 0.00000E+00
 -1       307 4.79178E-05 1.60050E-06-1.32349E-23
 -1       308 4.68185E-05 1.60690E-06 2.64698E-23
 -1       309 4.58779E-05 1.17894E-06 1.32349E-23
 -1       310 4.50657E-05 4.07041E-07 0.00000E+00
 -1       311 4.43469E-05-6.16490E-07 0.00000E+00
 -1       312 4.36867E-05-1.79699E-06 0.00000E+00
 -1       313 4.30493E-05-3.03857E-06-1.32349E-23
 -1       314 4.23986E-05-4.24474E-06 0.00000E+00
 -1       315 4.16988E-05-5.31932E-06 1.32349E-23
 -1       316 4.09144E-05-6.16735E-06-2.64698E-23
 -1       317 4.00112E-05-6.69572E-06-1.32349E-23
 -1       318 3.89548E-05-6.81424E-06 0.00000E+00
 -1       319 3.77168E-05-6.43494E-06 1.32349E-23
 -1       320 3.62604E-05-5.47732E-06 0.00000E+00
 -1       321 4.99293E-05 4.40458E-06 0.00000E+00
 -1       322 4.97271E-05 1.87981E-05 1.65436E-24
 -1       323 4.94262E-05 3.92002E-05-3.30872E-24
 -1       324 4.90426E-05 6.35167E-05 1.65436E-24
 -1       325 4.86354E-05 8.88463E-05 0.00000E+00
 -1       326 4.82730E-05 1.12283E-04-1.65436E-24
 -1       327 4.79983E-05 1.31312E-04 0.00000E+00
 -1       328 4.78274E-05 1.43434E-04 0.00000E+00
 -1       329 4.77171E-05 1.47556E-04 3.30872E-24
 -1       330 4.76034E-05 1.42619E-04 0.00000E+00
 -1       331 4.74185E-05 1.29384E-04-3.30872E-24
 -1       332 4.71111E-05 1.08652E-04 0.00000E+00
 -1       333 4.66901E-05 8.27380E-05 3.30872E-24
 -1       334 4.61945E-05 5.39840E-05 1.65436E-24
 -1       335 4.57012E-05 2.53142E-05 3.30872E-24
 -1       336 4.76569E-05-2.23473E-06 0.00000E+00
 -1       337 4.50697E-05-2.55953E-06-3.30872E-24
 -1       338 4.23833E-05-2.88446E-06 0.00000E+00
 -1       339 3.96837E-05-3.20890E-06 3.30872E-24
 -1       340 3.70572E-05-3.53324E-06 6.61744E-24
 -1       341 4.53083E-05 1.00802E-05 0.00000E+00
 -1       342 3.28230E-05 4.14746E-05-3.30872E-24
 -1       343 1.46915E-05 8.64205E-05 0.00000E+00
 -1       344-6.75259E-06 1.39073E-04 1.65436E-24
 -1       345-2.79917E-05 1.91250E-04 0.00000E+00
 -1       346-4.55152E-05 2.34768E-04 0.00000E+00
 -1       347-5.71348E-05 2.64044E-04 0.00000E+00
 -1       348-6.08939E-05 2.73499E-04 0.00000E+00
 -1       349-5.71964E-05 2.63046E-04-3.30872E-24
 -1       350-4.64883E-05 2.32730E-04 0.00000E+00
 -1       351-3.10154E-05 1.88237E-04-3.30872E-24
 -1       352-1.28514E-05 1.35410E-04-1.65436E-24
 -1       353 5.26705E-06 8.27269E-05-3.30872E-24
 -1       354 2.05994E-05 3.86646E-05-1.65436E-24
 -1       355 3.10923E-05 8.98160E-06-1.65436E-24
 -1       356 4.48547E-05-2.65219E-05-3.30872E-24
 -1       357 4.43116E-05-5.67194E-05 0.00000E+00
 -1       358 4.37489E-05-8.76027E-05 0.00000E+00
 -1       359 4.32615E-05-1.15830E-04 0.00000E+00
 -1       360 4.29039E-05-1.38639E-04 0.00000E+00
 -1       361 4.26934E-05-1.53295E-04 1.65436E-24
 -1       362 4.25696E-05-1.58813E-04 3.30872E-24
 -1       363 4.24505E-05-1.54251E-04 0.00000E+00
 -1       364 4.22566E-05-1.40807E-04-3.30872E-24
 -1       365 4.19359E-05-1.19724E-04 0.00000E+00
 -1       366 4.15108E-05-9.38880E-05 3.30872E-24
 -1       367 4.10385E-05-6.62074E-05 1.65436E-24
 -1       368 4.06034E-05-3.99944E-05 1.65436E-24
 -1       369 4.02797E-05-1.85547E-05 0.00000E+00
 -1       370 4.00737E-05-4.16006E-06 8.27181E-25
 -1       371 6.22377E-05-5.11956E-07 0.00000E+00
 -1       372 6.49513E-05-5.38284E-07 4.13590E-25
 -1       373 5.84395E-05-5.73324E-07 0.00000E+00
 -1       374 4.77212E-05-6.42837E-07 0.00000E+00
 -1       375 3.80113E-05-7.03253E-07 0.00000E+00
 -1       376 5.52221E-05-2.82703E-05 3.30872E-24
 -1       377 6.76257E-05-6.34351E-05-1.65436E-24
 -1       378 8.09712E-05-1.01398E-04-3.30872E-24
 -1       379 9.37560E-05-1.37688E-04 0.00000E+00
 -1       380 1.04593E-04-1.68247E-04 3.30872E-24
 -1       381 1.12046E-04-1.89061E-04 0.00000E+00
 -1       382 1.15385E-04-1.98417E-04 0.00000E+00
 -1       383 1.13852E-04-1.94674E-04 0.00000E+00
 -1       384 1.07785E-04-1.79167E-04 0.00000E+00
 -1       385 9.75841E-05-1.53273E-04-1.65436E-24
 -1       386 8.46850E-05-1.20746E-04 0.00000E+00
 -1       387 7.05993E-05-8.53449E-05 0.00000E+00
 -1       388 5.71578E-05-5.15048E-05 0.00000E+00
 -1       389 4.61733E-05-2.36610E-05 0.00000E+00
 -1       390 3.88059E-05-4.85472E-06-4.13590E-25
 -1       406 3.94461E-05 1.10930E-06 0.00000E+00
 -1       407 3.88715E-05 1.26693E-06 0.00000E+00
 -1       408 3.82469E-05 1.42445E-06 0.00000E+00
 -1       409 3.75789E-05 1.58157E-06 0.00000E+00
 -1       410 3.68743E-05 1.73787E-06 0.00000E+00
 -1       466 3.62847E-05 1.21877E-05 3.30872E-24
 -1       467 3.64856E-05 1.90441E-05-3.30872E-24
 -1       468 3.67068E-05 2.16398E-05 0.00000E+00
 -1       469 3.69327E-05 2.20220E-05 0.00000E+00
 -1       470 3.71584E-05 2.09236E-05 0.00000E+00
 -1       471 3.73832E-05 1.90625E-05 0.00000E+00
 -1       472 3.76071E-05 1.67002E-05-6.61744E-24
 -1       473 3.78304E-05 1.40931E-05-3.30872E-24
 -1       474 3.80533E-05 1.13512E-05-6.61744E-24
 -1       475 3.82760E-05 8.58282E-06 3.30872E-24
 -1       476 3.84987E-05 5.88071E-06 0.00000E+00
 -1       477 3.87207E-05 3.33813E-06 0.00000E+00
 -1       478 3.89433E-05 1.14381E-06 0.00000E+00
 -1       479 3.91616E-05-5.09962E-07 0.00000E+00
 -1       480 3.93827E-05-1.11070E-06 0.00000E+00
 -1       481 2.36398E-05-1.02403E-06 1.65436E-24
 -1       482 1.88584E-05-9.60855E-07 8.27181E-25
 -1       483 1.86278E-05-8.84322E-07-1.65436E-24
 -1       484 1.97822E-05-8.08276E-07 0.00000E+00
 -1       485 1.93941E-05-7.32319E-07 0.00000E+00
 -1       486 2.59214E-05 2.45463E-05 3.30872E-24
 -1       487 8.15426E-06 6.83006E-05 0.00000E+00
 -1       488-1.04052E-05 1.13930E-04 0.00000E+00
 -1       489-2.29294E-05 1.45126E-04 0.00000E+00
 -1       490-2.63202E-05 1.53204E-04 0.00000E+00
 -1       491-1.80822E-05 1.29568E-04 0.00000E+00
 -1       492-1.22390E-06 8.03782E-05 6.61744E-24
 -1       493 2.15549E-05 1.22484E-05-3.30872E-24
 -1       494 4.49808E-05-5.79999E-05-6.61744E-24
 -1       495 6.38569E-05-1.13491E-04-3.30872E-24
 -1       496 7.49792E-05-1.45484E-04-6.61744E-24
 -1       497 7.47342E-05-1.45696E-04 0.00000E+00
 -1       498 6.47208E-05-1.20696E-04 0.00000E+00
 -1       499 4.70641E-05-7.72072E-05 3.30872E-24
 -1       500 2.84786E-05-3.15134E-05-3.30872E-24
 -1       501 3.94058E-05-3.36101E-06 1.32349E-23
 -1       502 3.91718E-05-1.65636E-05 0.00000E+00
 -1       503 3.88201E-05-3.71688E-05 6.61744E-24
 -1       504 3.83652E-05-6.25572E-05 0.00000E+00
 -1       505 3.78918E-05-8.87138E-05 3.30872E-24
 -1       506 3.74959E-05-1.11618E-04 1.65436E-24
 -1       507 3.72162E-05-1.28196E-04 3.30872E-24
 -1       508 3.70439E-05-1.35414E-04 1.65436E-24
 -1       509 3.68931E-05-1.32910E-04 0.00000E+00
 -1       510 3.66697E-05-1.20383E-04 1.65436E-24
 -1       511 3.63332E-05-1.00383E-04-3.30872E-24
 -1       512 3.58912E-05-7.55097E-05-1.65436E-24
 -1       513 3.54291E-05-4.97745E-05 3.30872E-24
 -1       514 3.50397E-05-2.71952E-05 0.00000E+00
 -1       515 3.47639E-05-1.08687E-05 6.61744E-24
 -1       516 3.92683E-05-7.52458E-08-6.61744E-24
 -1       517 4.18203E-05 3.73356E-09 0.00000E+00
 -1       518 4.41221E-05 8.15268E-08-2.06795E-25
 -1       519 4.30648E-05 1.65225E-07 0.00000E+00
 -1       520 3.48832E-05 2.12948E-07 8.27181E-25
 -1       521 3.76060E-05 7.88737E-07 0.00000E+00
 -1       522 3.58061E-05 1.13417E-06 0.00000E+00
 -1       523 3.41906E-05 9.91906E-07 0.00000E+00
 -1       524 3.27215E-05 4.40661E-07 2.64698E-23
 -1       525 3.13718E-05-4.31241E-07-5.29396E-23
 -1       526 3.01070E-05-1.53307E-06 0.00000E+00
 -1       527 2.88928E-05-2.77082E-06 0.00000E+00
 -1       528 2.76936E-05-4.04886E-06 0.00000E+00
 -1       529 2.64734E-05-5.27100E-06 5.29396E-23
 -1       530 2.51967E-05-6.34183E-06 0.00000E+00
 -1       531 2.38287E-05-7.16792E-06 0.00000E+00
 -1       532 2.23361E-05-7.65895E-06 2.64698E-23
 -1       533 2.06864E-05-7.72921E-06 5.29396E-23
 -1       534 1.88546E-05-7.29686E-06-1.32349E-23
 -1       535 1.68058E-05-6.29068E-06 2.64698E-23
 -1       536 3.45737E-05-1.78810E-06-3.30872E-24
 -1       537 3.45676E-05-2.17630E-07 8.27181E-25
 -1       538 3.45620E-05 9.10967E-07 0.00000E+00
 -1       539 3.45581E-05 1.65028E-06 0.00000E+00
 -1       540 3.45546E-05 2.05281E-06 0.00000E+00
 -1       541 3.45514E-05 2.17106E-06 0.00000E+00
 -1       542 3.45482E-05 2.05757E-06 0.00000E+00
 -1       543 3.45451E-05 1.76489E-06 0.00000E+00
 -1       544 3.45420E-05 1.34555E-06 0.00000E+00
 -1       545 3.45389E-05 8.52100E-07 5.16988E-26
 -1       546 3.45358E-05 3.37082E-07 5.16988E-26
 -1       547 3.45327E-05-1.46951E-07 0.00000E+00
 -1       548 3.45297E-05-5.47459E-07 0.00000E+00
 -1       549 3.45270E-05-8.11905E-07-4.13590E-25
 -1       550 3.45243E-05-8.87712E-07 0.00000E+00
 -1       551 3.15898E-05-3.97964E-06 3.72231E-24
 -1       552 2.82533E-05-4.10390E-06 1.65436E-24
 -1       553 2.47294E-05-4.22848E-06 3.30872E-24
 -1       554 2.11707E-05-4.35469E-06-3.30872E-24
 -1       555 1.77298E-05-4.48408E-06 0.00000E+00
 -1       556 3.37050E-05-1.91700E-06 0.00000E+00
 -1       557 3.29914E-05-4.23928E-07 0.00000E+00
 -1       558 3.24294E-05 6.68524E-07 0.00000E+00
 -1       559 3.20013E-05 1.40640E-06 0.00000E+00
 -1       560 3.16892E-05 1.83582E-06 0.00000E+00
 -1       561 3.14756E-05 2.00335E-06-3.30872E-24
 -1       562 3.13428E-05 1.95559E-06 0.00000E+00
 -1       563 3.12732E-05 1.73922E-06 0.00000E+00
 -1       564 3.12494E-05 1.40094E-06 0.00000E+00
 -1       565 3.12538E-05 9.87482E-07 0.00000E+00
 -1       566 3.12689E-05 5.45597E-07 0.00000E+00
 -1       567 3.12772E-05 1.22041E-07 0.00000E+00
 -1       568 3.12613E-05-2.36439E-07-3.30872E-24
 -1       569 3.12039E-05-4.83145E-07 8.27181E-25
 -1       570 3.10881E-05-5.71419E-07 1.65436E-24
 -1       571 3.46204E-05-5.10662E-07 0.00000E+00
 -1       572 3.47205E-05-3.67705E-07-4.13590E-25
 -1       573 3.48214E-05-2.80896E-07 1.65436E-24
 -1       574 3.49228E-05-2.36807E-07-1.65436E-24
 -1       575 3.50242E-05-2.21957E-07-1.65436E-24
 -1       576 3.51257E-05-2.22781E-07 1.65436E-24
 -1       577 3.52273E-05-2.25706E-07 0.00000E+00
 -1       578 3.53288E-05-2.17151E-07 0.00000E+00
 -1       579 3.54304E-05-1.83530E-07 0.00000E+00
 -1       580 3.55320E-05-1.11261E-07 6.61744E-24
 -1       581 3.56335E-05 1.32407E-08 0.00000E+00
 -1       582 3.57350E-05 2.03547E-07 0.00000E+00
 -1       583 3.58365E-05 4.73217E-07 0.00000E+00
 -1       584 3.59379E-05 8.35676E-07 0.00000E+00
 -1       585 3.60391E-05 1.30428E-06 0.00000E+00
 -1       586 3.40064E-05-6.77104E-07-3.30872E-24
 -1       587 3.34130E-05-6.31293E-07 0.00000E+00
 -1       588 3.27738E-05-5.85533E-07 0.00000E+00
 -1       589 3.21209E-05-5.40214E-07 2.06795E-25
 -1       590 3.14859E-05-4.95884E-07 0.00000E+00
 -1       591 3.43672E-05-4.70510E-07-1.65436E-24
 -1       592 3.42228E-05-2.62116E-07 8.27181E-25
 -1       593 3.40906E-05-8.87257E-08 0.00000E+00
 -1       594 3.39681E-05 5.74783E-08 0.00000E+00
 -1       595 3.38527E-05 1.84311E-07 0.00000E+00
 -1       596 3.37416E-05 2.99527E-07 0.00000E+00
 -1       597 3.36319E-05 4.10874E-07 0.00000E+00
 -1       598 3.35207E-05 5.26089E-07 8.27181E-25
 -1       599 3.34052E-05 6.52910E-07-1.65436E-24
 -1       600 3.32825E-05 7.99075E-07-4.13590E-25
 -1       601 3.31496E-05 9.72317E-07-8.27181E-25
 -1       602 3.30037E-05 1.18038E-06 0.00000E+00
 -1       603 3.28420E-05 1.43102E-06 8.27181E-25
 -1       604 3.26620E-05 1.73201E-06 5.16988E-25
 -1       605 3.24610E-05 2.09118E-06 0.00000E+00
 -1       606 3.61774E-05 2.66975E-06 0.00000E+00
 -1       607 3.62124E-05 3.52301E-06 0.00000E+00
 -1       608 3.62467E-05 4.44670E-06 0.00000E+00
 -1       609 3.62805E-05 5.43582E-06 0.00000E+00
 -1       610 3.63142E-05 6.48530E-06 0.00000E+00
 -1       611 3.63478E-05 7.58999E-06 0.00000E+00
 -1       612 3.63813E-05 8.74472E-06-3.30872E-24
 -1       613 3.64147E-05 9.94435E-06 1.65436E-24
 -1       614 3.64481E-05 1.11837E-05 0.00000E+00
 -1       615 3.64814E-05 1.24576E-05 0.00000E+00
 -1       616 3.65147E-05 1.37609E-05-1.65436E-24
 -1       617 3.65479E-05 1.50885E-05 0.00000E+00
 -1       618 3.65812E-05 1.64350E-05 0.00000E+00
 -1       619 3.66143E-05 1.77955E-05-1.65436E-24
 -1       620 3.66474E-05 1.91648E-05 8.27181E-25
 -1       621 3.54122E-05 1.99598E-06-3.30872E-24
 -1       622 3.47059E-05 2.10116E-06 0.00000E+00
 -1       623 3.40284E-05 2.20637E-06-1.65436E-24
 -1       624 3.33868E-05 2.31131E-06-1.65436E-24
 -1       625 3.27883E-05 2.41564E-06-1.65436E-24
 -1       626 3.59124E-05 2.70989E-06 0.00000E+00
 -1       627 3.56544E-05 3.60686E-06 0.00000E+00
 -1       628 3.53694E-05 4.57486E-06 0.00000E+00
 -1       629 3.50606E-05 5.60555E-06 0.00000E+00
 -1       630 3.47313E-05 6.69060E-06-3.30872E-24
 -1       631 3.43848E-05 7.82151E-06 0.00000E+00
 -1       632 3.40242E-05 8.98978E-06 0.00000E+00
 -1       633 3.36528E-05 1.01869E-05 0.00000E+00
 -1       634 3.32736E-05 1.14045E-05 0.00000E+00
 -1       635 3.28900E-05 1.26339E-05 0.00000E+00
 -1       636 3.25051E-05 1.38667E-05 0.00000E+00
 -1       637 3.21220E-05 1.50944E-05-8.27181E-25
 -1       638 3.17440E-05 1.63084E-05-8.27181E-25
 -1       639 3.13740E-05 1.75004E-05 8.27181E-25
 -1       640 3.10147E-05 1.86616E-05 0.00000E+00
 -1       641 3.66811E-05 2.19603E-05 0.00000E+00
 -1       642 3.66808E-05 2.35313E-05-1.03398E-25
 -1       643 3.66803E-05 2.52291E-05-1.03398E-25
 -1       644 3.66795E-05 2.70319E-05 0.00000E+00
 -1       645 3.66785E-05 2.89184E-05-5.16988E-26
 -1       646 3.66774E-05 3.08671E-05 0.00000E+00
 -1       647 3.66762E-05 3.28566E-05 2.58494E-26
 -1       648 3.66749E-05 3.48655E-05-6.46235E-27
 -1       649 3.66736E-05 3.68726E-05 0.00000E+00
 -1       650 3.66723E-05 3.88565E-05 1.29247E-26
 -1       651 3.66711E-05 4.07958E-05 0.00000E+00
 -1       652 3.66699E-05 4.26691E-05-1.03398E-25
 -1       653 3.66687E-05 4.44551E-05 0.00000E+00
 -1       654 3.66669E-05 4.61322E-05 0.00000E+00
 -1       655 3.66656E-05 4.76788E-05 0.00000E+00
 -1       656 3.54505E-05 2.04160E-05 0.00000E+00
 -1       657 3.43910E-05 2.02882E-05 0.00000E+00
 -1       658 3.34425E-05 2.01607E-05-3.30872E-24
 -1       659 3.25455E-05 2.00332E-05 0.00000E+00
 -1       660 3.16403E-05 1.99055E-05-1.65436E-24
 -1       661 3.62844E-05 2.20028E-05 0.00000E+00
 -1       662 3.58504E-05 2.35845E-05 0.00000E+00
 -1       663 3.53794E-05 2.52638E-05-3.30872E-24
 -1       664 3.48788E-05 2.70242E-05 0.00000E+00
 -1       665 3.43542E-05 2.88484E-05 0.00000E+00
 -1       666 3.38119E-05 3.07199E-05-1.65436E-24
 -1       667 3.32581E-05 3.26219E-05 3.30872E-24
 -1       668 3.26991E-05 3.45378E-05-1.65436E-24
 -1       669 3.21411E-05 3.64509E-05 0.00000E+00
 -1       670 3.15904E-05 3.83446E-05-1.65436E-24
 -1       671 3.10532E-05 4.02024E-05 0.00000E+00
 -1       672 3.05358E-05 4.20073E-05 1.65436E-24
 -1       673 3.00443E-05 4.37428E-05 0.00000E+00
 -1       674 2.95843E-05 4.53915E-05-1.65436E-24
 -1       675 2.91633E-05 4.69370E-05-1.65436E-24
 -1       676 3.53420E-05 4.89538E-05-3.30872E-24
 -1       677 3.40247E-05 4.88339E-05-1.65436E-24
 -1       678 3.27091E-05 4.87141E-05 0.00000E+00
 -1       679 3.13959E-05 4.85948E-05 1.65436E-24
 -1       680 3.00860E-05 4.84754E-05 3.30872E-24
 -1       681 1.46199E-05 4.44531E-06-3.30872E-24
 -1       682 1.47233E-05 5.54469E-06 0.00000E+00
 -1       683 1.48262E-05 3.69514E-06-3.30872E-24
 -1       684 1.49242E-05-5.14949E-08 1.65436E-24
 -1       685 1.50169E-05-5.11760E-06-3.30872E-24
 -1       686 1.51057E-05-1.09319E-05-1.65436E-24
 -1       687 1.51925E-05-1.71107E-05-3.30872E-24
 -1       688 1.52794E-05-2.32718E-05-1.65436E-24
 -1       689 1.53685E-05-2.90290E-05 3.30872E-24
 -1       690 1.54618E-05-3.39940E-05 0.00000E+00
 -1       691 1.55604E-05-3.75796E-05 0.00000E+00
 -1       692 1.56639E-05-3.91924E-05 0.00000E+00
 -1       693 1.57670E-05-3.77452E-05 3.30872E-24
 -1       694 1.58551E-05-3.21367E-05-8.27181E-25
 -1       695 1.58884E-05-2.02366E-05-1.65436E-24
 -1       696 8.59319E-06-5.72359E-07 0.00000E+00
 -1       697 5.03468E-06-4.62473E-07-1.65436E-24
 -1       698 3.07494E-06-3.48297E-07-3.30872E-24
 -1       699 1.94227E-06-2.32392E-07 1.65436E-24
 -1       700 1.09676E-06-1.16163E-07-3.30872E-24
 -1       701 8.73585E-06 1.41165E-05 8.27181E-25
 -1       702-3.17102E-06 4.41696E-05 0.00000E+00
 -1       703-1.94119E-05 8.47047E-05 0.00000E+00
 -1       704-3.80645E-05 1.30928E-04 0.00000E+00
 -1       705-5.64697E-05 1.76568E-04-3.30872E-24
 -1       706-7.19780E-05 2.15353E-04-1.65436E-24
 -1       707-8.28223E-05 2.42789E-04 0.00000E+00
 -1       708-8.73849E-05 2.54391E-04 0.00000E+00
 -1       709-8.57287E-05 2.49572E-04 0.00000E+00
 -1       710-7.79688E-05 2.27824E-04 0.00000E+00
 -1       711-6.56403E-05 1.92845E-04-3.30872E-24
 -1       712-5.01809E-05 1.48445E-04-1.65436E-24
 -1       713-3.37110E-05 1.00958E-04 0.00000E+00
 -1       714-1.83101E-05 5.67528E-05 0.00000E+00
 -1       715-5.82526E-06 2.12948E-05 1.65436E-24
 -1       716 1.55221E-05 2.22403E-05 0.00000E+00
 -1       717 1.53523E-05 3.93961E-05 0.00000E+00
 -1       718 1.52515E-05 5.16791E-05 0.00000E+00
 -1       719 1.51958E-05 5.91933E-05-4.13590E-25
 -1       720 1.51629E-05 6.23265E-05 8.27181E-25
 -1       721 1.51343E-05 6.14720E-05 4.13590E-25
 -1       722 1.50979E-05 5.72613E-05-8.27181E-25
 -1       723 1.50469E-05 5.03296E-05 0.00000E+00
 -1       724 1.49815E-05 4.14754E-05 8.27181E-25
 -1       725 1.49059E-05 3.14994E-05 0.00000E+00
 -1       726 1.48277E-05 2.12693E-05-1.65436E-24
 -1       727 1.47547E-05 1.16534E-05-8.27181E-25
 -1       728 1.46936E-05 3.48285E-06 3.30872E-24
 -1       729 1.46443E-05-2.41335E-06 1.65436E-24
 -1       730 1.46084E-05-5.34630E-06 0.00000E+00
 -1       731-4.40623E-06-4.92440E-08 0.00000E+00
 -1       732-1.57986E-05-7.63527E-08 0.00000E+00
 -1       733-1.97452E-05-4.70645E-08 8.27181E-25
 -1       734-1.75872E-05-1.24049E-08 0.00000E+00
 -1       735-1.01382E-05-1.16831E-09 8.27181E-25
 -1       736 3.47172E-06 3.12033E-05 0.00000E+00
 -1       737-1.43133E-05 7.54023E-05 0.00000E+00
 -1       738-3.52167E-05 1.26892E-04 0.00000E+00
 -1       739-5.67637E-05 1.79864E-04 0.00000E+00
 -1       740-7.62944E-05 2.28154E-04 3.30872E-24
 -1       741-9.12288E-05 2.65586E-04 0.00000E+00
 -1       742-1.00250E-04 2.88519E-04 0.00000E+00
 -1       743-1.02198E-04 2.93335E-04 0.00000E+00
 -1       744-9.75714E-05 2.80419E-04 0.00000E+00
 -1       745-8.68805E-05 2.50258E-04 0.00000E+00
 -1       746-7.18742E-05 2.07281E-04 0.00000E+00
 -1       747-5.41825E-05 1.56028E-04 1.65436E-24
 -1       748-3.59539E-05 1.03105E-04 0.00000E+00
 -1       749-1.93149E-05 5.51316E-05 0.00000E+00
 -1       750-6.08255E-06 1.74754E-05-1.65436E-24
 -1       751 1.55145E-05-2.68839E-06 6.61744E-24
 -1       752 1.65359E-05-1.92387E-06 0.00000E+00
 -1       753 1.75535E-05-1.76213E-06-2.64698E-23
 -1       754 1.85831E-05-1.65816E-06 0.00000E+00
 -1       755 1.96129E-05-1.58376E-06 2.64698E-23
 -1       756 2.06452E-05-1.51211E-06 1.32349E-23
 -1       757 2.16777E-05-1.44188E-06-2.64698E-23
 -1       758 2.27106E-05-1.37177E-06 0.00000E+00
 -1       759 2.37436E-05-1.30173E-06 0.00000E+00
 -1       760 2.47763E-05-1.23167E-06-1.32349E-23
 -1       761 2.58089E-05-1.16144E-06 0.00000E+00
 -1       762 2.68398E-05-1.09084E-06-1.32349E-23
 -1       763 2.78705E-05-1.01637E-06-2.64698E-23
 -1       764 2.88930E-05-9.34334E-07 0.00000E+00
 -1       765 2.99182E-05-7.72567E-07 0.00000E+00
 -1       766 1.04352E-05-4.62993E-06 0.00000E+00
 -1       767 3.23860E-06-4.62484E-06 0.00000E+00
 -1       768-4.16662E-06-4.62261E-06 1.65436E-24
 -1       769-8.91546E-06-4.60097E-06 0.00000E+00
 -1       770-7.94753E-06-4.57175E-06 0.00000E+00
 -1       771 1.30177E-05-2.63974E-06 0.00000E+00
 -1       772 1.16180E-05-1.04568E-06 0.00000E+00
 -1       773 1.03524E-05 1.87640E-07 2.64698E-23
 -1       774 9.20816E-06 1.09622E-06 1.32349E-23
 -1       775 8.17213E-06 1.71619E-06 2.64698E-23
 -1       776 7.23075E-06 2.08401E-06 1.32349E-23
 -1       777 6.37028E-06 2.23627E-06 2.64698E-23
 -1       778 5.57694E-06 2.20971E-06 0.00000E+00
 -1       779 4.83690E-06 2.04117E-06 2.64698E-23
 -1       780 4.13628E-06 1.76762E-06 0.00000E+00
 -1       781 3.46122E-06 1.42609E-06 0.00000E+00
 -1       782 2.79794E-06 1.05367E-06 0.00000E+00
 -1       783 2.13265E-06 6.87475E-07-2.64698E-23
 -1       784 1.45215E-06 3.64754E-07 0.00000E+00
 -1       785 7.43316E-07 1.22719E-07 0.00000E+00
 -1       786 3.09785E-05-1.03823E-07-8.27181E-25
 -1       787 3.10620E-05 1.68374E-07 0.00000E+00
 -1       788 3.11454E-05 3.73744E-07-1.65436E-24
 -1       789 3.12295E-05 5.24556E-07 8.27181E-25
 -1       790 3.13138E-05 6.33034E-07 0.00000E+00
 -1       791 3.13983E-05 7.11376E-07-1.65436E-24
 -1       792 3.14828E-05 7.71762E-07 0.00000E+00
 -1       793 3.15673E-05 8.26356E-07 0.00000E+00
 -1       794 3.16518E-05 8.87321E-07 3.30872E-24
 -1       795 3.17363E-05 9.66825E-07 0.00000E+00
 -1       796 3.18208E-05 1.07704E-06-3.30872E-24
 -1       797 3.19053E-05 1.23018E-06 0.00000E+00
 -1       798 3.19897E-05 1.43846E-06 0.00000E+00
 -1       799 3.20737E-05 1.71415E-06 0.00000E+00
 -1       800 3.21578E-05 2.06956E-06 0.00000E+00
 -1       801 2.81848E-05-3.68089E-07 0.00000E+00
 -1       802 2.25156E-05-2.86301E-07 3.30872E-24
 -1       803 1.53765E-05-2.12959E-07 4.13590E-25
 -1       804 8.25370E-06-1.42452E-07 3.30872E-24
 -1       805 2.63346E-06-6.36811E-08 1.32349E-23
 -1       806 3.06603E-05-1.41922E-07-3.30872E-24
 -1       807 3.04297E-05 1.36641E-07-1.65436E-24
 -1       808 3.02085E-05 3.87286E-07 0.00000E+00
 -1       809 2.99951E-05 6.16268E-07 0.00000E+00
 -1       810 2.97873E-05 8.29811E-07 0.00000E+00
 -1       811 2.95828E-05 1.03410E-06 0.00000E+00
 -1       812 2.93796E-05 1.23531E-06-3.30872E-24
 -1       813 2.91751E-05 1.43960E-06 0.00000E+00
 -1       814 2.89672E-05 1.65316E-06 0.00000E+00
 -1       815 2.87535E-05 1.88213E-06 0.00000E+00
 -1       816 2.85317E-05 2.13270E-06-1.65436E-24
 -1       817 2.82995E-05 2.41103E-06 0.00000E+00
 -1       818 2.80547E-05 2.72328E-06 0.00000E+00
 -1       819 2.77953E-05 3.07562E-06 0.00000E+00
 -1       820 2.75191E-05 3.47424E-06 0.00000E+00
 -1       821 3.21477E-05 3.09185E-06 0.00000E+00
 -1       822 3.20498E-05 3.80020E-06 0.00000E+00
 -1       823 3.19519E-05 4.62815E-06 0.00000E+00
 -1       824 3.18530E-05 5.56157E-06-1.65436E-24
 -1       825 3.17539E-05 6.58632E-06 0.00000E+00
 -1       826 3.16546E-05 7.68814E-06-1.65436E-24
 -1       827 3.15551E-05 8.85273E-06-3.30872E-24
 -1       828 3.14556E-05 1.00657E-05 0.00000E+00
 -1       829 3.13561E-05 1.13128E-05 0.00000E+00
 -1       830 3.12565E-05 1.25794E-05 0.00000E+00
 -1       831 3.11570E-05 1.38513E-05 3.30872E-24
 -1       832 3.10576E-05 1.51138E-05-1.65436E-24
 -1       833 3.09583E-05 1.63527E-05 0.00000E+00
 -1       834 3.08598E-05 1.75535E-05-8.27181E-25
 -1       835 3.07613E-05 1.87019E-05 0.00000E+00
 -1       836 3.15840E-05 2.74750E-06-3.30872E-24
 -1       837 3.07273E-05 2.98610E-06 0.00000E+00
 -1       838 2.97664E-05 3.22420E-06-6.61744E-24
 -1       839 2.87981E-05 3.46170E-06 0.00000E+00
 -1       840 2.79191E-05 3.69963E-06-3.30872E-24
 -1       841 3.20270E-05 3.09265E-06 0.00000E+00
 -1       842 3.17572E-05 3.81588E-06 0.00000E+00
 -1       843 3.14385E-05 4.66942E-06 0.00000E+00
 -1       844 3.10772E-05 5.63530E-06 5.16988E-26
 -1       845 3.06803E-05 6.69618E-06 0.00000E+00
 -1       846 3.02541E-05 7.83456E-06-2.58494E-26
 -1       847 2.98052E-05 9.03324E-06 0.00000E+00
 -1       848 2.93401E-05 1.02750E-05 0.00000E+00
 -1       849 2.88652E-05 1.15428E-05 0.00000E+00
 -1       850 2.83869E-05 1.28196E-05 0.00000E+00
 -1       851 2.79116E-05 1.40883E-05 0.00000E+00
 -1       852 2.74457E-05 1.53318E-05 2.58494E-26
 -1       853 2.69957E-05 1.65330E-05 0.00000E+00
 -1       854 2.65676E-05 1.76746E-05 0.00000E+00
 -1       855 2.61685E-05 1.87397E-05-8.27181E-25
 -1       856 3.05561E-05 2.09468E-05 0.00000E+00
 -1       857 3.04389E-05 2.23254E-05 0.00000E+00
 -1       858 3.03216E-05 2.38914E-05-3.30872E-24
 -1       859 3.02031E-05 2.56167E-05 0.00000E+00
 -1       860 3.00843E-05 2.74728E-05-3.30872E-24
 -1       861 2.99652E-05 2.94314E-05 0.00000E+00
 -1       862 2.98459E-05 3.14639E-05 0.00000E+00
 -1       863 2.97265E-05 3.35417E-05-1.65436E-24
 -1       864 2.96070E-05 3.56360E-05-3.30872E-24
 -1       865 2.94876E-05 3.77184E-05-1.65436E-24
 -1       866 2.93683E-05 3.97601E-05-3.30872E-24
 -1       867 2.92492E-05 4.17325E-05 0.00000E+00
 -1       868 2.91304E-05 4.36070E-05-3.30872E-24
 -1       869 2.90122E-05 4.53552E-05-1.65436E-24
 -1       870 2.88943E-05 4.69486E-05 6.61744E-24
 -1       871 2.97597E-05 1.97729E-05 0.00000E+00
 -1       872 2.89291E-05 1.97614E-05 0.00000E+00
 -1       873 2.81472E-05 1.97496E-05 0.00000E+00
 -1       874 2.73847E-05 1.97374E-05 4.13590E-25
 -1       875 2.66126E-05 1.97247E-05 8.27181E-25
 -1       876 3.03964E-05 2.09877E-05 0.00000E+00
 -1       877 3.00628E-05 2.23782E-05 0.00000E+00
 -1       878 2.96687E-05 2.39285E-05 0.00000E+00
 -1       879 2.92244E-05 2.56152E-05 0.00000E+00
 -1       880 2.87379E-05 2.74144E-05 6.61744E-24
 -1       881 2.82179E-05 2.93027E-05 0.00000E+00
 -1       882 2.76732E-05 3.12567E-05-6.61744E-24
 -1       883 2.71125E-05 3.32533E-05 0.00000E+00
 -1       884 2.65444E-05 3.52693E-05 0.00000E+00
 -1       885 2.59777E-05 3.72817E-05 0.00000E+00
 -1       886 2.54211E-05 3.92672E-05 6.61744E-24
 -1       887 2.48830E-05 4.12027E-05 0.00000E+00
 -1       888 2.43724E-05 4.30651E-05 0.00000E+00
 -1       889 2.38970E-05 4.48305E-05 0.00000E+00
 -1       890 2.34670E-05 4.64761E-05 0.00000E+00
 -1       891 2.76561E-05 4.82956E-05 0.00000E+00
 -1       892 2.67589E-05 4.82311E-05 0.00000E+00
 -1       893 2.59708E-05 4.81668E-05 0.00000E+00
 -1       894 2.51740E-05 4.81025E-05-8.27181E-25
 -1       895 2.42506E-05 4.80381E-05 0.00000E+00
 -1       896 1.19681E-07 1.50206E-06 0.00000E+00
 -1       897 2.38560E-07 3.54514E-06 0.00000E+00
 -1       898 3.56636E-07 5.96532E-06 0.00000E+00
 -1       899 4.74211E-07 8.60068E-06 0.00000E+00
 -1       900 5.91487E-07 1.13522E-05 3.30872E-24
 -1       901 7.08720E-07 1.41215E-05 1.65436E-24
 -1       902 8.26147E-07 1.68156E-05 0.00000E+00
 -1       903 9.43992E-07 1.93407E-05 0.00000E+00
 -1       904 1.06253E-06 2.15540E-05-3.30872E-24
 -1       905 1.18191E-06 2.33107E-05 0.00000E+00
 -1       906 1.30221E-06 2.43329E-05 0.00000E+00
 -1       907 1.42288E-06 2.43384E-05-1.65436E-24
 -1       908 1.54211E-06 2.27482E-05-3.30872E-24
 -1       909 1.65502E-06 1.89745E-05 0.00000E+00
 -1       910 1.74953E-06 1.17946E-05 0.00000E+00
 -1       911 1.74901E-06-1.17872E-05 0.00000E+00
 -1       912 1.74376E-06-1.87299E-05-4.13590E-25
 -1       913 1.75803E-06-2.16823E-05 0.00000E+00
 -1       914 1.77640E-06-2.14632E-05 0.00000E+00
 -1       915 1.79161E-06-1.87591E-05 0.00000E+00
 -1       916 1.80055E-06-1.42545E-05 0.00000E+00
 -1       917 1.80381E-06-8.55882E-06 4.13590E-25
 -1       918 1.80369E-06-2.28015E-06-2.06795E-25
 -1       919 1.80358E-06 3.99760E-06 4.13590E-25
 -1       920 1.80683E-06 9.69053E-06 2.06795E-25
 -1       921 1.81575E-06 1.41904E-05 0.00000E+00
 -1       922 1.83087E-06 1.68879E-05 2.06795E-25
 -1       923 1.84912E-06 1.70982E-05 0.00000E+00
 -1       924 1.86286E-06 1.41348E-05 0.00000E+00
 -1       925 1.85714E-06 7.17934E-06 0.00000E+00
 -1       926 1.63884E-06-1.84789E-05 1.65436E-24
 -1       927 1.47772E-06-3.17505E-05 0.00000E+00
 -1       928 1.33471E-06-4.35013E-05 1.65436E-24
 -1       929 1.21586E-06-5.28337E-05-8.27181E-25
 -1       930 1.11883E-06-5.92386E-05 0.00000E+00
 -1       931 1.03717E-06-6.22171E-05 0.00000E+00
 -1       932 9.59707E-07-6.18200E-05 0.00000E+00
 -1       933 8.75642E-07-5.81098E-05-1.65436E-24
 -1       934 7.78628E-07-5.16810E-05-3.30872E-24
 -1       935 6.66228E-07-4.31369E-05 0.00000E+00
 -1       936 5.43695E-07-3.34217E-05-3.30872E-24
 -1       937 4.18396E-07-2.34832E-05 0.00000E+00
 -1       938 2.99836E-07-1.43049E-05 0.00000E+00
 -1       939 1.91931E-07-6.86766E-06 0.00000E+00
 -1       940 9.93817E-08-1.86939E-06 0.00000E+00
 -1       941 1.61331E-06 2.79088E-07 1.32349E-23
 -1       942 3.31604E-06 5.18198E-07 0.00000E+00
 -1       943 5.01310E-06 7.38733E-07 0.00000E+00
 -1       944 6.72720E-06 9.60611E-07 2.64698E-23
 -1       945 8.44178E-06 1.18311E-06 0.00000E+00
 -1       946 1.01598E-05 1.40556E-06 0.00000E+00
 -1       947 1.18782E-05 1.62800E-06 0.00000E+00
 -1       948 1.35971E-05 1.85043E-06-2.64698E-23
 -1       949 1.53161E-05 2.07286E-06-5.29396E-23
 -1       950 1.70347E-05 2.29528E-06 2.64698E-23
 -1       951 1.87530E-05 2.51780E-06 0.00000E+00
 -1       952 2.04686E-05 2.74051E-06-2.64698E-23
 -1       953 2.21838E-05 2.96061E-06-5.29396E-23
 -1       954 2.38853E-05 3.17506E-06 0.00000E+00
 -1       955 2.55914E-05 3.46691E-06 2.64698E-23
 -1       956 2.71388E-05 4.55177E-06-4.13590E-25
 -1       957 2.70503E-05 5.27421E-06 1.03398E-24
 -1       958 2.69614E-05 6.08302E-06-1.65436E-24
 -1       959 2.68722E-05 6.96784E-06 1.24077E-24
 -1       960 2.67830E-05 7.91828E-06-3.30872E-24
 -1       961 2.66937E-05 8.92388E-06 1.65436E-24
 -1       962 2.66043E-05 9.97417E-06-3.30872E-24
 -1       963 2.65149E-05 1.10587E-05-1.65436E-24
 -1       964 2.64255E-05 1.21669E-05 1.65436E-24
 -1       965 2.63361E-05 1.32884E-05 1.65436E-24
 -1       966 2.62466E-05 1.44127E-05 0.00000E+00
 -1       967 2.61572E-05 1.55293E-05 0.00000E+00
 -1       968 2.60679E-05 1.66276E-05-3.30872E-24
 -1       969 2.59787E-05 1.76974E-05 0.00000E+00
 -1       970 2.58898E-05 1.87281E-05 0.00000E+00
 -1       971 2.56374E-05 2.07637E-05 0.00000E+00
 -1       972 2.54679E-05 2.20473E-05 0.00000E+00
 -1       973 2.52983E-05 2.35322E-05-3.30872E-24
 -1       974 2.51277E-05 2.51900E-05 0.00000E+00
 -1       975 2.49567E-05 2.69918E-05 6.61744E-24
 -1       976 2.47854E-05 2.89087E-05 0.00000E+00
 -1       977 2.46140E-05 3.09116E-05 0.00000E+00
 -1       978 2.44424E-05 3.29712E-05 0.00000E+00
 -1       979 2.42707E-05 3.50583E-05 6.61744E-24
 -1       980 2.40991E-05 3.71434E-05-3.30872E-24
 -1       981 2.39276E-05 3.91972E-05 0.00000E+00
 -1       982 2.37564E-05 4.11904E-05 0.00000E+00
 -1       983 2.35855E-05 4.30939E-05 6.61744E-24
 -1       984 2.34157E-05 4.48784E-05-1.65436E-24
 -1       985 2.32461E-05 4.65150E-05 0.00000E+00
 -3
    1PSTEP                        50          25           1          
  100CL  125 6.55117E-01         841                     0   25           1
 -4  STRESS      6    1
 -5  SXX         1    4    1    1
 -5  SYY         1    4    2    2
 -5  SZZ         1    4    3    3
 -5  SXY         1    4    1    2
 -5  SYZ         1    4    2    3
 -5  SZX         1    4    3    1
 -1         1-2.48783E+06-8.31290E+05-5.06469E+05-8.06818E+05-2.27980E-10 4.78273E-09
 -1         2-1.16090E+06-2.85658E+04 3.07876E+04-1.07793E+04-3.04749E-09 2.40289E-09
 -1         3-9.01632E+05-2.74878E+05-4.04640E+04-1.99795E+04 3.47791E-09 7.92261E-09
 -1         4-7.03117E+05-4.12131E+04 1.00787E+04-3.89968E+04 4.49609E-09 7.81256E-10
 -1         5-6.45081E+05 1.15713E+04-2.12911E+05-1.32589E+04 1.66656E-08-1.09708E-09
 -1         8-9.67957E+05-3.76962E+05-8.14689E+04-5.01278E+05-5.69344E-10 5.09317E-11
 -1         9-1.20735E+06-3.21740E+05-1.08926E+05-3.44236E+05 7.28808E-10-2.61934E-09
 -1        10-1.00892E+05-1.76031E+05 1.10894E+05-1.37266E+04-1.00522E-08-2.20765E-09
 -1        11-1.19009E+05 2.71646E+04 1.99406E+04-6.94853E+04-3.17291E-08-2.13565E-09
 -1        12-1.06156E+05 1.37675E+05-8.20946E+04-2.13459E+04 2.34542E-09 4.17488E-09
 -1        15 7.13459E+04 1.08447E+05 2.46372E+04 1.62748E+04-5.32054E-10 9.69885E-09
 -1        16-1.06869E+06-2.10857E+05 1.63935E+04-4.03852E+05 3.73499E-10 1.81293E-09
 -1        17-5.08343E+05-3.34387E+05-4.86252E+04-2.82178E+05-5.12409E-09 4.08666E-10
 -1        18 2.51802E+04 1.82486E+02-1.51892E+04-7.66359E+04 6.01555E-09-1.09806E-09
 -1        19 6.97566E+04 1.10456E+05-1.67596E+04-2.96927E+03-1.19356E-09-7.72161E-10
 -1        20 8.72777E+04-6.60631E+04-1.12790E+04 4.72597E+04 2.39015E-09-1.18689E-09
 -1        21 2.61652E+03-1.30586E+05 3.66165E+04 6.33687E+01 1.32460E-08-2.30822E-10
 -1        22 6.99235E+04 1.48511E+05 1.43060E+04 1.37085E+04-7.21684E-10-3.41242E-09
 -1        23-4.09077E+04 1.08286E+05 2.35275E+04 8.67479E+03-8.77609E-09-4.01330E-09
 -1        24-2.88545E+05-4.80656E+04 2.22761E+05-4.28857E+05-1.30846E-08 1.31452E-09
 -1        25 4.95778E+05 1.69747E+05 1.53041E+05-2.57199E+05 8.99642E-10 3.95327E-10
 -1        26 6.76961E+02 1.38006E+05 6.85413E+03-2.30160E+04-8.32112E-10-1.83445E-09
 -1        27-2.95326E+04-5.50938E+04-2.37901E+04 6.69161E+04 6.48773E-11-2.82550E-09
 -1        28-1.05441E+04-1.04040E+05-5.78406E+02 5.01615E+04 2.17528E-09-2.50177E-09
 -1        29 1.72825E+05 1.68124E+05 6.75885E+02 5.47202E+03 2.29052E-10 1.25294E-09
 -1        30 9.51266E+04 3.15377E+04 1.32664E+04-4.84514E+03 3.78982E-09-1.59089E-08
 -1        31-2.39246E+04 3.97440E+04 1.94624E+04-2.56826E+04 5.21603E-09-1.98640E-08
 -1        32 9.30534E+05 4.64801E+05 5.63396E+05-4.26836E+05 1.07335E-08 4.64206E-09
 -1        33 1.20260E+06 4.78011E+05 3.68308E+05-3.67868E+04-2.37168E-08 3.65617E-10
 -1        34-1.74566E+05-2.11837E+04-3.24079E+03 3.94670E+04-2.43425E-10 5.42968E-10
 -1        35-2.99418E+04-3.47106E+04-6.35684E+02 7.53861E+04 5.12841E-09-1.81171E-09
 -1        36-2.69347E+06 7.38066E+04-1.70426E+05-8.51651E-09-1.59842E-09 4.33647E-09
 -1        37-2.76726E+06-8.54296E+04-1.20635E+05 4.16256E-07-1.57331E-09 1.82081E-09
 -1        38-2.72193E+06 1.15681E+04-4.40842E+04 1.09444E-07-2.60727E-09 3.42516E-09
 -1        39-2.73398E+06-1.33867E+04-2.77284E+04-4.93054E-08-2.05699E-09 7.37782E-09
 -1        40-2.72661E+06 1.80971E+03-1.13284E+04 1.51573E-07-3.37954E-09-8.20364E-10
 -1        41-2.72849E+06-2.12138E+03-6.77341E+03 3.39732E-07-3.03327E-09 2.29363E-09
 -1        42-2.72738E+06 3.10458E+02-3.32755E+03-2.26685E-07-2.55688E-09-1.92313E-09
 -1        43-2.72767E+06-5.54244E+02-2.67239E+03-8.94302E-07 2.53084E-09-9.61433E-09
 -1        44-2.72742E+06 2.43557E+02-2.73027E+03-4.04080E-07 1.39118E-10-1.71605E-09
 -1        45-2.72818E+06-1.54615E+03-5.04313E+03 1.11950E-07-4.78810E-10 2.34513E-09
 -1        46-2.72688E+06 1.30172E+03-8.21425E+03-3.80063E-07 2.24459E-10 4.39877E-09
 -1        47-2.73210E+06-9.60937E+03-1.99416E+04-1.88572E-07-1.62569E-09 3.81829E-09
 -1        48-2.72352E+06 8.30115E+03-3.16559E+04-2.09876E-07-2.12775E-09 2.16096E-09
 -1        49-2.75598E+06-6.13021E+04-8.65753E+04-2.89898E-07-1.70522E-09 5.21686E-09
 -1        50-2.70311E+06 5.29585E+04-1.22322E+05-1.63096E-07-5.59509E-09 1.97178E-09
 -1        51 2.98550E+04-3.58127E+05 4.76204E+04-9.45010E+05-1.01863E-10-1.30967E-10
 -1        52 1.39637E+04-3.54526E+05 2.89322E+04-1.04017E+06 9.45874E-11 1.43336E-09
 -1        53 9.36490E+03-3.64436E+05 2.32022E+04-9.42521E+05-2.98314E-10-4.59841E-09
 -1        54 2.12168E+04-3.61253E+05 3.52679E+04-1.04280E+06-3.34694E-10-5.92991E-09
 -1        55 4.75323E+04-3.72623E+05 6.38251E+04-9.42048E+05 1.01863E-10-4.87489E-09
 -1        56-4.43080E+06-4.98373E+05-3.68770E+05-1.71430E+06 2.47383E-10 2.80852E-09
 -1        57-4.59957E+06-8.03908E+05-2.47524E+05-1.67633E+06 2.27737E-09-3.98722E-09
 -1        58-4.50239E+06-6.15011E+05-8.67799E+04-1.69414E+06 1.63709E-11-5.80258E-09
 -1        59-4.51724E+06-6.66045E+05-5.14525E+04-1.69992E+06 7.83757E-10 6.86668E-10
 -1        60-4.51201E+06-6.31619E+05-2.02638E+04-1.69224E+06-4.45652E-11-9.10404E-10
 -1        61-4.50717E+06-6.45444E+05-1.14620E+04-1.70085E+06-2.43779E-09 4.58340E-09
 -1        62-4.51223E+06-6.35033E+05-5.58530E+03-1.69337E+06-1.86765E-09 1.94325E-09
 -1        63-4.50856E+06-6.40303E+05-4.66555E+03-1.69783E+06 2.35104E-10 5.42727E-09
 -1        64-4.51058E+06-6.36706E+05-5.43592E+03-1.69526E+06-5.13069E-10 5.34101E-10
 -1        65-4.51336E+06-6.39028E+05-1.10131E+04-1.69365E+06 2.58069E-10-2.36400E-09
 -1        66-4.50746E+06-6.36370E+05-1.94208E+04-1.69753E+06-2.83990E-10 4.60295E-09
 -1        67-4.52788E+06-6.53848E+05-4.92581E+04-1.68717E+06-1.51681E-09 8.62201E-10
 -1        68-4.49628E+06-6.22442E+05-8.30771E+04-1.70160E+06 2.42835E-09-5.23869E-10
 -1        69-4.60930E+06-7.83217E+05-2.36937E+05-1.66164E+06 3.55885E-09 2.07365E-09
 -1        70-4.42713E+06-5.11413E+05-3.53022E+05-1.72160E+06-1.09139E-10 1.78989E-09
 -1        71-1.94765E+06 2.34672E+04-5.42382E+04-2.48206E-07-2.07731E-09-2.49565E-09
 -1        72-1.97102E+06-2.71662E+04-3.83814E+04-3.49803E-07-8.02224E-10-2.83035E-09
 -1        73-1.95671E+06 3.67878E+03-1.40420E+04-2.49497E-07-5.51381E-10-3.89809E-09
 -1        74-1.96044E+06-4.25905E+03-8.84994E+03-4.52777E-08 9.63582E-10-4.68015E-09
 -1        75-1.95820E+06 5.77311E+02-3.65621E+03 6.29783E-07 6.85218E-10 1.07298E-09
 -1        76-1.95871E+06-6.88520E+02-2.26286E+03-9.14736E-08-1.56599E-09 6.86597E-09
 -1        77-1.95843E+06 1.10808E+02-1.25925E+03 4.44370E-07-1.60672E-09 7.60281E-10
 -1        78-1.95849E+06-2.67222E+02-1.29043E+03 1.77312E-07-6.47950E-10-6.19178E-10
 -1        79-1.95841E+06 1.56303E+02-1.66600E+03 4.52809E-08-1.78799E-09-3.01156E-10
 -1        80-1.95892E+06-1.07972E+03-3.44082E+03 1.85006E-07-1.64120E-09 5.51773E-09
 -1        81-1.95801E+06 9.22784E+02-5.77629E+03-1.97970E-07-1.65355E-09 1.00385E-09
 -1        82-1.96172E+06-6.82778E+03-1.41492E+04 4.12960E-07-1.02354E-09-4.45357E-09
 -1        83-1.95562E+06 5.90033E+03-2.25009E+04-3.74391E-07-1.66593E-09 2.53658E-09
 -1        84-1.97869E+06-4.35738E+04-6.15520E+04-2.26788E-07-2.79160E-09 4.77303E-09
 -1        85-1.94110E+06 3.76422E+04-8.69810E+04 2.18724E-08-3.97594E-09 4.48563E-09
 -1        86-5.29369E+04-1.27215E+04 1.24205E+05 2.68593E+03-8.73115E-11-2.05577E-09
 -1        87 6.70674E+04 4.63279E+04 9.87158E+04-1.08325E+04-7.72161E-10-9.49651E-09
 -1        88-1.40525E+04 6.44827E+03 5.31655E+04 2.52410E+03-1.75942E-09 6.48175E-10
 -1        89 5.35596E+04 3.91974E+04 8.10237E+04-1.07208E+04 4.22915E-11 2.95283E-09
 -1        90-3.94264E+04-5.62336E+03 9.42682E+04 2.57439E+03-1.93177E-09-6.66944E-10
 -1        91-9.46431E+05-2.29549E+05-1.83587E+04-4.03703E+05 2.75159E-08 2.02999E-09
 -1        92-5.25152E+05 1.04382E+05 1.00029E+05-2.65363E+04 6.15166E-08-3.18505E-09
 -1        93-6.90768E+05-1.53917E+05 4.04869E+03-3.53856E+05-6.35055E-09-4.93492E-09
 -1        94-2.91588E+05 6.53517E+04 1.18607E+05 4.27299E+03-3.47419E-08 5.64319E-09
 -1        95-1.17478E+06-1.96281E+05-1.04182E+05-4.29608E+05-8.56426E-09-2.65140E-09
 -1        96-5.72509E+04-4.14589E+04 1.39172E+05-1.05420E+05 6.25494E-08 7.06598E-09
 -1        97-9.22095E+05-5.01068E+04-3.10544E+04-2.42306E+05 3.21597E-09 9.04322E-09
 -1        98-3.36265E+05-1.83520E+05 5.58474E+04-3.06944E+05-3.34638E-08 2.45159E-08
 -1        99-9.04610E+05-4.47842E+04-2.71874E+04-2.35314E+05 3.90760E-08 4.89320E-09
 -1       100-6.85362E+04-4.91175E+04 1.34346E+05-1.15112E+05 3.26106E-08 8.96125E-09
 -1       101-1.18132E+06-1.93619E+05-1.07350E+05-4.27196E+05 1.17216E-08 4.71164E-09
 -1       102-2.73275E+05 6.19341E+04 1.16287E+05 6.29403E+03-1.34723E-08 1.47800E-08
 -1       103-7.02142E+05-1.53576E+05-8.95271E+03-3.57942E+05-3.28041E-08-4.57430E-09
 -1       104-5.43766E+05 8.28051E+04 6.88795E+04-2.32758E+04 3.25343E-09-5.52257E-09
 -1       105-9.16611E+05-2.08150E+05-5.71031E+04-4.03030E+05 1.78661E-08 1.08289E-08
 -1       106-1.58007E+06 2.35603E+04-5.44580E+04-2.00972E-07 3.66334E-09-8.47649E-10
 -1       107-1.60357E+06-2.72740E+04-3.85371E+04 4.66999E-08-2.17818E-09-2.47883E-09
 -1       108-1.58916E+06 3.69328E+03-1.40980E+04-2.49201E-08-2.02226E-09 1.55524E-09
 -1       109-1.59295E+06-4.27525E+03-8.87887E+03-5.56762E-07-1.57977E-09 3.87115E-09
 -1       110-1.59066E+06 5.78976E+02-3.65509E+03 1.78471E-07 1.85528E-09 1.14687E-09
 -1       111-1.59120E+06-6.86359E+02-2.23554E+03-2.34833E-08-4.63319E-10-1.28739E-09
 -1       112-1.59090E+06 1.06986E+02-1.19475E+03-1.34444E-07 5.77863E-10 1.88047E-09
 -1       113-1.59097E+06-2.36174E+02-1.14130E+03 9.42123E-08 1.08718E-09 7.47148E-10
 -1       114-1.59089E+06 1.29089E+02-1.39247E+03 3.67363E-07-1.92265E-09-9.56732E-10
 -1       115-1.59130E+06-8.76405E+02-2.80808E+03 1.79111E-07-1.59835E-10-4.69095E-09
 -1       116-1.59057E+06 7.46802E+02-4.68557E+03 3.15749E-08 9.44528E-10-3.95175E-10
 -1       117-1.59357E+06-5.52317E+03-1.14541E+04 4.78774E-08 4.52613E-10 2.28351E-09
 -1       118-1.58863E+06 4.77251E+03-1.82086E+04-5.30235E-08-1.56469E-09-2.39288E-09
 -1       119-1.60729E+06-3.52446E+04-4.97952E+04-3.13878E-07-2.37484E-09-6.94126E-09
 -1       120-1.57688E+06 3.04465E+04-7.03669E+04-5.97004E-09-4.12980E-10 1.12414E-09
 -1       121-1.41935E+03-9.09316E+05 5.77561E+03-3.60114E+03-1.04546E-09-1.71894E-10
 -1       122 1.64270E+03-9.06979E+05 2.99057E+03-1.36625E+04-2.56927E-09-1.98634E-09
 -1       123-5.44272E+01-9.08292E+05-2.24112E+02-3.16342E+03-2.62617E-09 1.80080E-09
 -1       124-1.91169E+03-9.09243E+05-3.53359E+03-1.44710E+04-4.88365E-09-1.71212E-09
 -1       125 1.42759E+03-9.07178E+05-6.62379E+03-2.79379E+03-4.06499E-09 1.50976E-10
 -1       126-3.81149E+05-9.73028E+04 3.05026E+04-1.42057E+05 1.95869E-08 5.80621E-09
 -1       127-1.46737E+05 4.88262E+04 7.06914E+04-2.68608E+04 4.35439E-08 4.33829E-09
 -1       128-2.73563E+05-6.41933E+04 7.80235E+03-1.30629E+05 1.43779E-08-1.65346E-09
 -1       129-2.79515E+05 1.02363E+04 1.34718E+04-4.44491E+04 5.61058E-08-4.80668E-09
 -1       130-2.50425E+05-5.72086E+04 2.36390E+03-1.26182E+05 5.46173E-08 4.50200E-10
 -1       131-2.15494E+05 1.07626E+04 2.06321E+04-2.90120E+04-5.70100E-08-1.10495E-08
 -1       132-3.36410E+05-6.56011E+04-1.81296E+04-1.45057E+05-1.66335E-08 1.15454E-08
 -1       133-7.23630E+04 8.73329E+03 4.68032E+04-1.37122E+04 2.99120E-08 2.26703E-09
 -1       134-3.91125E+05-5.70121E+04-2.75685E+04-1.39606E+05 7.83211E-09-5.14433E-09
 -1       135-7.09873E+04-2.73635E+04 3.95908E+04-5.91788E+04 2.87066E-08-1.00557E-08
 -1       136-3.38283E+05-2.91525E+04-1.27412E+04-1.00155E+05 4.69140E-09-1.21486E-09
 -1       137-1.80147E+05-6.93208E+04 9.31348E+03-1.25542E+05-2.90696E-08-6.81598E-09
 -1       138-2.84628E+05-1.30268E+04-1.27276E+03-7.51570E+04 5.24443E-08 8.34996E-09
 -1       139-1.82806E+05-6.82415E+04 5.26656E+03-1.27876E+05-5.26407E-08-3.76144E-08
 -1       140-3.35706E+05-3.01672E+04-2.21036E+04-9.78770E+04-3.64005E-08-2.49020E-09
 -1       141-1.22917E+06 1.68911E+04-3.90546E+04 2.21875E-08-3.52609E-09-2.42107E-09
 -1       142-1.24601E+06-1.95542E+04-2.76452E+04 3.24979E-07-2.61250E-09-1.00363E-09
 -1       143-1.23569E+06 2.64841E+03-1.01354E+04-1.63299E-07-1.55650E-09-1.18962E-09
 -1       144-1.23840E+06-3.06933E+03-6.42010E+03-3.87509E-07-3.51164E-10-6.53336E-09
 -1       145-1.23676E+06 4.18755E+02-2.72236E+03-8.89211E-08-1.18172E-09-5.12409E-09
 -1       146-1.23717E+06-5.20118E+02-1.81868E+03-4.54517E-07 1.42301E-10-4.73382E-09
 -1       147-1.23692E+06 1.01072E+02-1.26021E+03-2.55190E-07-4.41013E-10-3.30317E-10
 -1       148-1.23710E+06-3.52841E+02-1.70628E+03-6.51536E-08-1.18862E-10-1.20633E-09
 -1       149-1.23684E+06 2.51623E+02-2.60781E+03-2.96886E-07-4.49346E-10-3.22007E-09
 -1       150-1.23787E+06-1.81462E+03-5.72035E+03 1.40652E-07-6.25763E-10-5.19219E-09
 -1       151-1.23616E+06 1.56195E+03-9.74439E+03 3.11990E-08-6.70216E-10 4.19004E-09
 -1       152-1.24262E+06-1.15691E+04-2.39662E+04 1.17627E-07 1.75292E-10 4.75347E-09
 -1       153-1.23210E+06 9.99941E+03-3.81411E+04 1.42647E-08 3.50020E-09-1.78261E-10
 -1       154-1.27137E+06-7.38455E+04-1.04335E+05 2.79711E-07 1.73216E-09 5.37875E-09
 -1       155-1.20744E+06 6.37965E+04-1.47398E+05 1.24019E-07 1.00918E-08 8.73115E-10
 -1       156-3.04934E+04-6.03619E+04 6.51782E+04 1.69244E+04 5.63887E-09 4.34477E-09
 -1       157 3.45973E+04 4.33266E+03 5.36707E+04-6.80895E+04 1.52691E-08-2.19131E-09
 -1       158-3.59565E+03-4.22935E+04 1.96959E+04 1.68390E+04 7.79528E-09-3.55840E-09
 -1       159 1.87341E+04 6.97518E+04 4.03850E+04-6.60116E+04 3.61314E-09-1.08275E-09
 -1       160-1.59934E+04-1.23933E+05-1.11862E+03 1.48613E+04-1.07530E-08-4.01087E-10
 -1       161-4.00643E+05-8.84323E+04 1.72533E+04-1.53138E+05-3.21179E-08-2.87946E-09
 -1       162-2.45672E+05 1.99960E+04 4.67146E+04-6.16376E+04-3.92614E-08-3.17959E-09
 -1       163-3.14687E+05-6.71293E+04 5.88051E+03-1.45672E+05 2.74669E-08-8.07404E-09
 -1       164-3.35088E+05-3.05715E+03 9.47240E+03-6.98128E+04-1.89513E-08 4.73773E-09
 -1       165-3.12591E+05-6.43446E+04-3.87516E+02-1.46096E+05-6.67504E-08-1.09818E-08
 -1       166-2.59455E+05-3.41278E+03 2.06010E+04-5.73510E+04-3.56264E-08 6.38602E-09
 -1       167-3.88983E+05-6.78109E+04-1.73156E+04-1.57011E+05 2.03709E-08-3.13992E-09
 -1       168-1.65045E+05-1.77500E+04 3.50846E+04-6.42877E+04 2.61064E-08 3.72046E-09
 -1       169-4.05583E+05-5.11152E+04-1.83387E+04-1.38108E+05-7.00122E-08 4.80856E-09
 -1       170-2.05947E+05-5.85619E+04 1.75720E+04-1.18819E+05-1.69380E-07-1.01580E-08
 -1       171-3.49443E+05-2.59473E+04-5.98036E+03-1.03587E+05 8.14993E-08 3.16525E-08
 -1       172-2.65170E+05-8.56561E+04-5.62780E+03-1.53720E+05 3.58584E-08 8.13463E-09
 -1       173-3.47790E+05-2.29003E+04-1.83589E+04-1.04235E+05-5.92245E-08 7.54881E-11
 -1       174-2.21207E+05-8.47954E+04-2.51518E+04-1.13423E+05 5.92364E-08 1.41758E-08
 -1       175-3.91966E+05-2.79558E+04-8.63799E+04-1.42841E+05 3.20542E-08 5.15865E-09
 -1       191 1.65031E+03 4.54662E+05 2.59272E+03-2.46169E+04-6.89397E-10-1.63800E-09
 -1       192 5.73130E+02 4.55030E+05 1.39190E+03-2.67402E+04-8.75161E-10 1.04228E-09
 -1       193 1.82041E+02 4.54788E+05 8.54860E+02-2.43923E+04-1.77647E-09 8.05085E-09
 -1       194 3.56670E+02 4.54921E+05 9.67688E+02-2.71353E+04-1.93495E-09 1.78761E-08
 -1       195 9.53292E+02 4.54688E+05 1.53951E+03-2.42205E+04-2.50111E-09 1.08812E-08
 -1       251-1.14165E+06-2.67433E+04-4.67537E+04-7.30432E+04 1.89448E-09-1.30069E-08
 -1       252-6.25164E+05 1.97906E+04 5.99118E+04 1.95495E+05 5.93519E-09 1.70976E-08
 -1       253-9.56475E+05 1.14654E+04-7.59637E+03-9.22184E+04-2.03795E-09-1.31965E-08
 -1       254-3.89677E+05 1.56369E+04 1.03335E+05 1.19808E+05-9.42111E-09 1.31176E-08
 -1       255-1.36909E+06-3.10207E+04-9.51969E+04 2.72519E+03-1.31286E-09-5.17531E-09
 -1       256-3.16137E+05 2.23582E+04 1.18610E+05-8.10312E+04 9.21045E-09-1.06220E-08
 -1       257-1.02756E+06 2.31482E+03-2.39209E+04 1.08086E+05-4.63069E-09 2.51423E-08
 -1       258-6.59062E+05 1.41740E+03 4.73033E+04-1.85030E+05 6.26571E-10-2.59894E-08
 -1       259-1.03717E+06 1.31359E+03-2.58906E+04 1.07257E+05-1.35556E-08 2.38978E-08
 -1       260-3.08107E+05 2.29151E+04 1.20424E+05-7.75431E+04 1.33412E-08-1.29271E-08
 -1       261-1.36727E+06-3.08130E+04-9.45314E+04 6.59911E+01 1.08216E-08 6.97418E-09
 -1       262-3.98688E+05 1.52461E+04 1.02065E+05 1.23045E+05 1.25863E-09 7.62884E-09
 -1       263-9.49574E+05 1.19393E+04-5.04910E+03-9.27933E+04-1.27018E-08-1.56787E-08
 -1       264-6.20975E+05 2.21546E+04 6.35121E+04 1.94616E+05-8.18943E-08 1.59691E-08
 -1       265-1.15263E+06-2.97010E+04-4.48036E+04-7.15860E+04-2.88733E-08-9.11814E-09
 -1       266-3.52005E+04-3.43473E+04 8.12288E+04-6.18883E+03-7.27596E-12 1.90431E-09
 -1       267 3.99897E+04 4.73581E+03 5.71865E+04 2.52172E+04 1.09139E-10 6.97781E-10
 -1       268-4.80226E+03-2.20660E+04 1.87709E+04-6.04279E+03 2.09184E-11 3.50678E-09
 -1       269 4.07021E+03 3.26374E+03 1.19038E+04 2.45817E+04 2.54659E-11 3.47234E-09
 -1       270 4.12560E+02-3.25026E+04-5.75009E+03-5.55819E+03 1.26420E-10 1.01830E-08
 -1       271-3.60172E+06-4.58880E+05-2.81922E+05-1.39523E+06-1.57888E-09-2.53203E-09
 -1       272-3.69854E+06-6.37063E+05-1.76795E+05-1.39741E+06-2.36150E-09-4.00360E-09
 -1       273-3.65122E+06-5.18759E+05-6.64500E+04-1.38732E+06 6.06946E-10 3.34330E-09
 -1       274-3.64062E+06-5.58347E+05-3.62426E+04-1.41231E+06-1.12686E-09-2.30011E-09
 -1       275-3.65777E+06-5.23946E+05-1.54314E+04-1.38553E+06 7.91260E-11-6.07542E-10
 -1       276-3.63272E+06-5.51912E+05-8.11332E+03-1.41552E+06-1.04706E-09-3.28305E-09
 -1       277-3.65916E+06-5.23857E+05-4.15637E+03-1.38471E+06 2.86946E-10-2.69733E-09
 -1       278-3.63120E+06-5.52080E+05-3.21017E+03-1.41674E+06-9.12792E-10-1.23299E-09
 -1       279-3.65942E+06-5.23608E+05-3.79914E+03-1.38444E+06 3.87899E-10-5.74573E-09
 -1       280-3.63177E+06-5.52718E+05-7.15565E+03-1.41669E+06-2.22144E-10-3.16231E-09
 -1       281-3.65860E+06-5.23287E+05-1.34472E+04-1.38474E+06-3.95630E-11-4.49290E-09
 -1       282-3.63806E+06-5.58951E+05-3.15574E+04-1.41468E+06-1.16415E-10-8.31278E-10
 -1       283-3.65319E+06-5.18486E+05-5.77940E+04-1.38598E+06-8.64020E-11-1.41154E-09
 -1       284-3.68798E+06-6.27908E+05-1.53814E+05-1.40227E+06 6.23004E-11-3.01952E-09
 -1       285-3.61033E+06-4.66212E+05-2.45271E+05-1.39266E+06-4.03816E-10-1.60071E-09
 -1       286-1.22659E+05-3.36963E+04 7.78910E+04 2.56153E+01 1.03296E-09-7.42148E-10
 -1       287-8.82897E+04 3.90097E+04 5.51968E+04-8.72898E+02 4.56492E-10 3.61979E-09
 -1       288-1.09579E+05-5.28438E+03 2.01468E+04 2.76014E+02 1.19613E-10-1.09958E-09
 -1       289-1.03617E+05 6.11366E+03 1.27296E+04-1.33873E+03-7.82435E-10 4.16549E-10
 -1       290-1.07348E+05-8.26266E+02 5.18844E+03 4.91473E+02 5.96430E-10-5.98675E-10
 -1       291-1.06259E+05 9.69672E+02 3.13244E+03-1.66161E+03 1.62467E-09 4.77468E-09
 -1       292-1.06942E+05-1.41706E+02 1.56168E+03 5.98908E+02 1.34418E-09 2.51936E-09
 -1       293-1.06666E+05 2.66837E+02 1.30438E+03-1.74751E+03 4.19826E-10-1.52586E-09
 -1       294-1.06943E+05-1.23112E+02 1.38948E+03 5.77372E+02 1.24450E-09 7.82933E-10
 -1       295-1.06308E+05 8.07239E+02 2.64813E+03-1.57908E+03 1.60663E-09 2.18259E-09
 -1       296-1.07298E+05-6.83255E+02 4.29782E+03 4.30472E+02 7.51093E-10 2.48542E-09
 -1       297-1.04095E+05 5.04461E+03 1.05292E+04-1.18736E+03 9.12969E-10 2.42892E-09
 -1       298-1.09151E+05-4.36015E+03 1.66122E+04 1.85651E+02 2.98229E-10-4.16185E-09
 -1       299-9.14466E+04 3.21772E+04 4.55452E+04-6.75031E+02-1.23592E-09 6.78483E-09
 -1       300-1.19934E+05-2.77949E+04 6.42284E+04-8.18905E+01 2.12196E-10 3.01588E-09
 -1       301 4.84829E+04-4.43152E+03 1.08924E+05-3.03878E+04-7.45786E-10 7.41238E-11
 -1       302 1.64943E+04 1.61351E+04 6.73289E+04-3.58440E+04-8.57654E-10-1.43341E-09
 -1       303 4.65984E+03 2.81640E+03 5.48475E+04-3.04466E+04-8.10360E-10-5.72527E-10
 -1       304 2.21822E+04 1.95671E+04 8.27672E+04-3.58045E+04-1.31695E-09-6.37226E-09
 -1       305 6.68772E+04-7.83632E+03 1.46333E+05-3.03920E+04-7.42148E-10-1.85810E-09
 -1       306-2.38132E+06-3.12860E+05-1.54262E+05-9.22516E+05-5.74801E-10 2.92493E-09
 -1       307-2.41916E+06-4.25005E+05-9.66617E+04-9.40795E+05 1.67120E-10 4.21824E-09
 -1       308-2.40852E+06-3.45374E+05-3.63817E+04-9.18105E+05-1.32786E-10-5.32964E-10
 -1       309-2.38759E+06-3.82073E+05-1.98466E+04-9.49125E+05 1.50612E-09 2.88128E-09
 -1       310-2.41210E+06-3.48201E+05-8.48124E+03-9.17174E+05-4.72937E-10 1.74259E-09
 -1       311-2.38348E+06-3.78405E+05-4.51547E+03-9.50754E+05 2.58069E-09-6.12317E-10
 -1       312-2.41274E+06-3.48265E+05-2.42232E+03-9.16862E+05 2.70268E-09 6.88250E-09
 -1       313-2.38296E+06-3.78204E+05-2.08437E+03-9.51051E+05 1.33855E-09 8.90611E-09
 -1       314-2.41267E+06-3.48327E+05-2.74547E+03-9.16930E+05-1.11618E-09-3.42038E-09
 -1       315-2.38379E+06-3.78279E+05-5.39573E+03-9.50434E+05-4.12911E-10-3.24872E-09
 -1       316-2.41181E+06-3.48314E+05-1.02825E+04-9.17377E+05 2.30739E-09 2.81125E-09
 -1       317-2.38885E+06-3.82702E+05-2.41386E+04-9.48398E+05 1.52795E-10-1.45383E-09
 -1       318-2.40747E+06-3.44853E+05-4.42780E+04-9.18492E+05-7.27141E-10 1.09139E-10
 -1       319-2.42720E+06-4.35076E+05-1.17664E+05-9.38417E+05-2.67482E-09-4.01633E-09
 -1       320-2.37445E+06-3.05144E+05-1.87744E+05-9.23743E+05-2.29738E-09 2.45927E-09
 -1       321-3.23583E+05-2.46176E+04 4.20083E+04-7.91479E+03-6.83849E-09-5.67888E-09
 -1       322-2.31771E+05 2.78998E+04 4.27114E+04 2.49563E+04-2.89435E-08 1.10595E-08
 -1       323-2.90024E+05-3.38787E+03 1.12969E+04-1.55240E+04 9.35978E-09-6.27097E-09
 -1       324-2.73409E+05 3.83135E+03 9.12861E+03 3.37817E+04 5.56851E-08 9.35870E-09
 -1       325-2.82763E+05 6.63764E+01 3.12713E+03-1.67612E+04-2.13092E-09-1.29712E-08
 -1       326-2.58756E+05 8.85915E+02 6.25443E+03 2.95282E+04-1.91449E-10 7.10297E-09
 -1       327-3.04254E+05-7.78156E+02-3.73291E+03-1.12572E+04 1.77682E-08-1.30708E-08
 -1       328-2.19366E+05 1.87959E+03 1.27880E+04 1.32072E+04-1.35742E-10-3.95534E-09
 -1       329-3.21125E+05-1.73543E+03-7.89437E+03-4.32446E+02-3.72506E-09-1.37995E-09
 -1       330-2.15201E+05 1.98358E+03 1.31008E+04-8.92588E+03-1.82683E-08-6.19065E-09
 -1       331-3.08308E+05-9.70086E+02-5.84052E+03 1.08468E+04-6.86111E-09 3.66580E-09
 -1       332-2.52915E+05 2.96404E+02 4.54024E+03-2.66889E+04-4.21167E-08-7.71161E-09
 -1       333-2.84380E+05 7.13264E+02-2.58127E+03 1.73369E+04-4.18075E-08 9.19283E-09
 -1       334-2.77840E+05-2.65907E+03-4.20734E+03-3.30726E+04-3.64634E-08-1.25949E-08
 -1       335-2.84002E+05 2.46909E+03-8.75958E+03 1.72524E+04 2.71125E-08 1.29398E-08
 -1       336 1.84869E+03-9.19485E+05-9.48557E+03-1.39655E+04-5.07021E-09-4.11910E-09
 -1       337-2.98890E+03-9.23142E+05-9.05576E+03-5.54855E+04-9.08631E-09-9.54424E-09
 -1       338 8.84181E+02-9.20211E+05-9.51535E+03-1.38221E+04-5.64387E-09-3.73458E-09
 -1       339-8.82470E+03-9.26696E+05-1.96743E+04-5.55197E+04-8.94363E-09-8.06949E-10
 -1       340 6.40820E+03-9.15954E+05-2.97021E+04-1.39341E+04-5.16957E-09 8.54016E-10
 -1       341-4.80365E+05-1.17506E+05 5.06529E+01-1.87981E+05 5.93022E-08 8.11087E-09
 -1       342-1.61994E+05 5.97314E+04 7.20564E+04-1.03346E+04 3.10670E-08-3.03316E-10
 -1       343-3.12670E+05-7.71706E+04 4.57364E+03-1.59910E+05-5.15751E-08-2.47201E-08
 -1       344-3.26980E+05 1.89821E+04 1.50545E+04-3.79442E+04 8.25974E-08 1.12689E-08
 -1       345-3.18085E+05-7.46748E+04-3.88858E+03-1.62732E+05 9.63898E-08 1.23839E-09
 -1       346-1.62688E+05 2.87303E+04 4.50739E+04-1.23878E+03-3.18494E-08-1.74732E-08
 -1       347-4.73979E+05-8.92465E+04-3.81221E+04-1.94010E+05 9.59017E-09-6.51846E-09
 -1       348 1.82412E+04 1.33086E+04 7.62412E+04 2.25144E+02 9.72909E-09-4.85352E-09
 -1       349-4.96037E+05-6.15990E+04-3.78480E+04-1.62058E+05-2.96559E-08-4.02724E-09
 -1       350-8.96886E+04-5.68655E+04 4.05763E+04-9.91767E+04 2.31643E-08-2.17360E-08
 -1       351-3.69041E+05-1.67528E+04-7.01078E+03-9.70893E+04-8.52901E-09-2.49922E-08
 -1       352-2.18384E+05-9.94005E+04 3.61236E+03-1.65413E+05-1.13705E-07-6.59606E-08
 -1       353-3.70421E+05-1.66073E+04-1.47889E+04-9.79665E+04 3.37554E-08 1.76306E-09
 -1       354-9.02077E+04-6.13699E+04 2.00008E+04-9.62355E+04-4.19515E-08-1.09937E-08
 -1       355-4.94052E+05-5.73120E+04-7.92918E+04-1.64059E+05-1.71108E-08 1.71894E-09
 -1       356-3.05075E+05 2.67182E+03-1.10994E+04 1.92269E+04 4.92287E-09 7.82848E-09
 -1       357-2.93688E+05-3.02932E+03-4.78197E+03-3.78401E+04 6.63977E-08-4.39832E-09
 -1       358-3.01517E+05 9.94550E+02-2.85230E+03 2.00651E+04 3.41887E-08 1.24214E-08
 -1       359-2.67055E+05 2.48472E+02 4.97834E+03-3.15751E+04-4.51496E-09-1.48440E-08
 -1       360-3.31046E+05-1.12760E+03-7.03311E+03 1.29365E+04-2.29580E-08 7.17029E-09
 -1       361-2.18870E+05 2.44321E+03 1.56596E+04-1.11927E+04-4.87460E-08-4.68432E-10
 -1       362-3.48458E+05-2.18466E+03-1.03089E+04-3.28253E+02-3.42493E-09 4.67263E-09
 -1       363-2.22930E+05 2.15663E+03 1.46360E+04 1.49554E+04-1.90539E-08 3.77108E-09
 -1       364-3.27093E+05-7.56468E+02-6.64454E+03-1.31726E+04-3.27225E-08-9.61950E-09
 -1       365-2.72984E+05-5.00693E+02 2.73943E+03 3.40472E+04 7.44591E-08 7.00533E-09
 -1       366-2.99697E+05 1.49491E+03-4.30278E+03-1.94316E+04-5.72066E-08-7.82984E-09
 -1       367-2.92931E+05-5.13801E+03-8.89300E+03 3.84431E+04-6.51625E-08 1.63577E-08
 -1       368-3.07615E+05 4.24845E+03-1.89592E+04-1.75843E+04-2.07189E-08-9.31323E-09
 -1       369-2.62593E+05-2.82597E+04-3.52376E+04 2.67172E+04-5.16397E-08 6.20184E-09
 -1       370-3.28947E+05 2.37379E+04-7.44329E+04-7.67635E+03-5.76551E-09-4.64570E-09
 -1       371-1.63103E+04-1.42377E+05-8.19023E+03 1.61003E+04-1.19389E-08 1.90948E-09
 -1       372 1.32759E+04 7.14612E+04 3.02138E+04-7.17841E+04 8.07177E-09-2.43875E-09
 -1       373 2.18150E+03-4.67932E+04-7.63028E+02 1.85343E+04 9.19135E-09-8.23258E-09
 -1       374-5.08157E+03-1.70082E+04-1.83849E+03-7.40618E+04 1.77749E-08 5.11523E-09
 -1       375 3.52474E+03-5.59517E+04-1.56100E+04 1.83648E+04 7.65067E-09 6.31599E-09
 -1       376-2.83448E+05-2.39672E+04-1.29592E+04-8.51426E+04-4.77986E-09 2.56932E-09
 -1       377-2.02560E+05-6.26426E+04-4.49264E+02-1.20144E+05 3.04807E-08-9.53560E-09
 -1       378-2.64248E+05-1.75382E+04-1.54938E+03-7.55237E+04 6.53466E-09 1.96126E-08
 -1       379-1.86162E+05-5.69097E+04 6.95907E+03-1.10821E+05 3.83998E-08 5.24651E-09
 -1       380-2.99451E+05-2.99977E+04-9.16976E+03-9.41936E+04 2.80029E-08 1.74873E-09
 -1       381-1.25784E+05-2.81918E+04 2.49233E+04-6.70969E+04 3.98644E-08 7.09059E-09
 -1       382-3.23078E+05-4.74136E+04-1.67557E+04-1.18115E+05-1.65655E-08 4.75166E-09
 -1       383-1.39982E+05-5.27248E+03 2.65575E+04-3.95851E+04-4.98881E-08-7.87941E-09
 -1       384-2.85152E+05-5.29797E+04-1.09759E+04-1.21539E+05 9.54622E-08-1.05712E-08
 -1       385-2.29194E+05-2.74000E+03 8.77999E+03-4.64841E+04 1.21768E-07-1.72486E-08
 -1       386-2.35330E+05-4.88602E+04-2.72296E+03-1.12347E+05-6.02337E-08-5.93457E-09
 -1       387-2.67274E+05-6.96881E+03-3.75110E+03-5.28589E+04 6.03197E-08-3.06676E-09
 -1       388-2.47707E+05-4.82861E+04-1.39645E+04-1.15692E+05 5.77465E-08-4.54038E-08
 -1       389-2.05011E+05-1.92105E+04-1.32018E+04-3.84979E+04-5.75708E-08-1.46683E-08
 -1       390-2.96383E+05-3.75206E+04-6.10282E+04-1.25711E+05-2.57542E-08-6.93035E-10
 -1       406 8.41016E+02 4.52040E+05 1.94804E+03-3.72196E+04-3.41061E-09-1.77351E-09
 -1       407 6.39239E+02 4.52397E+05 2.64935E+03-4.08135E+04-3.86899E-09-1.54205E-09
 -1       408 1.15792E+03 4.51927E+05 4.59402E+03-3.70669E+04-3.89537E-09 1.09048E-09
 -1       409 4.66166E+03 4.53721E+05 9.99977E+03-4.10354E+04-4.56021E-09 7.30097E-09
 -1       410 1.34031E+04 4.50640E+05 2.02297E+04-3.69839E+04-4.61296E-09 3.13275E-09
 -1       466 6.18209E+05-2.45322E+04 4.83004E+04 1.80249E+04-7.39192E-10 1.41954E-08
 -1       467 6.83808E+05 2.74493E+04 4.18072E+04-2.87772E+04 1.48876E-09 1.00590E-09
 -1       468 6.44945E+05-3.17202E+03 1.32611E+04 4.99454E+03-2.09513E-09 2.82034E-09
 -1       469 6.53248E+05 3.57504E+03 8.96665E+03-1.12604E+04-2.55497E-10 1.99975E-10
 -1       470 6.48337E+05-4.19184E+02 3.62162E+03 5.03450E+02 1.55559E-09-5.21277E-09
 -1       471 6.49392E+05 5.27893E+02 2.40734E+03-5.25126E+03 3.29464E-09-4.79332E-09
 -1       472 6.48750E+05-9.57071E+01 1.61570E+03-1.01476E+03 7.79803E-10-4.16404E-09
 -1       473 6.49059E+05 4.05540E+02 2.10626E+03-3.32415E+03 8.90301E-10-1.17659E-09
 -1       474 6.48664E+05-2.93138E+02 3.17989E+03-1.42368E+03-1.24038E-10-3.90366E-09
 -1       475 6.49974E+05 2.18256E+03 6.92490E+03-3.11438E+03 2.16114E-09-4.69390E-09
 -1       476 6.47832E+05-1.87132E+03 1.17870E+04-1.22453E+03 2.39448E-09-6.02631E-09
 -1       477 6.55829E+05 1.39309E+04 2.89697E+04-4.36710E+03-7.90338E-10-3.20142E-09
 -1       478 6.42803E+05-1.20339E+04 4.60590E+04-1.70913E+02 7.67670E-11-3.58887E-09
 -1       479 6.91713E+05 8.91435E+04 1.26199E+05-8.77542E+03 4.41887E-09-2.77032E-09
 -1       480 6.11978E+05-7.70269E+04 1.77818E+05 3.18357E+03 4.64766E-09 2.19006E-09
 -1       481-9.38284E+03 1.88207E+05 8.74004E+03-1.45016E+04-1.75532E-10-4.77166E-09
 -1       482 9.45555E+03 2.55157E+05 1.76323E+04 4.58525E+04-9.93623E-11 2.68182E-09
 -1       483-4.17948E+02 2.19624E+05 5.46822E+03-9.93949E+03-5.78666E-11-3.55186E-10
 -1       484 4.26260E+03 2.33344E+05 8.88796E+03 4.28818E+04-2.43290E-11-1.42489E-09
 -1       485-3.87991E+03 2.09549E+05 5.26646E+03-1.15261E+04 7.98082E-11-1.96496E-09
 -1       486-6.86739E+05-1.41310E+05-9.65520E+04-3.34613E+05 2.45564E-10 8.72387E-09
 -1       487-5.17268E+05 4.13395E+04 7.22066E+03-1.34183E+04 7.98536E-10 2.71557E-08
 -1       488-6.31920E+05-1.36701E+05-3.18896E+04-3.19156E+05 1.53064E-08-7.21138E-09
 -1       489-1.61062E+05 6.09468E+04 1.06222E+05 3.09001E+04 8.58847E-09-3.43925E-09
 -1       490-1.03602E+06-1.67781E+05-1.01951E+05-3.72714E+05 7.90806E-10 4.23961E-09
 -1       491 7.88420E+03-3.40913E+04 1.26380E+05-7.91175E+04-1.36038E-09 2.23627E-08
 -1       492-7.99154E+05-4.32749E+04-3.11526E+04-2.08471E+05-9.05538E-09 4.43196E-08
 -1       493-2.96003E+05-1.66991E+05 4.20882E+04-2.73214E+05 2.04901E-09 8.22306E-08
 -1       494-7.40849E+05-2.63177E+04-1.68626E+04-1.85374E+05-9.29163E-09 1.74736E-08
 -1       495-4.22893E+04-6.07316E+04 1.11606E+05-1.16779E+05-8.69227E-09 1.23581E-08
 -1       496-1.04557E+06-1.56785E+05-1.01173E+05-3.59305E+05 1.09439E-08 1.12786E-08
 -1       497-8.59306E+04 6.01254E+04 1.21823E+05 3.44868E+04 9.88530E-09-5.06998E-09
 -1       498-6.96090E+05-1.48189E+05-4.39043E+04-3.35035E+05 1.74936E-08-1.83863E-08
 -1       499-5.15026E+05 4.42038E+04 1.30222E+04-1.40808E+04 1.51404E-08-2.79501E-08
 -1       500-6.24796E+05-1.32710E+05-7.32427E+04-3.18054E+05-2.12949E-08 3.74475E-08
 -1       501-4.76406E+05-4.17376E+04 7.39791E+04 8.40878E+03-1.07466E-08-1.36315E-08
 -1       502-3.32039E+05 4.71262E+04 7.20634E+04-3.02413E+04-8.27347E-09-2.82571E-08
 -1       503-4.23255E+05-5.67514E+03 1.98669E+04 2.20785E+04-1.32883E-08-2.83480E-08
 -1       504-3.95016E+05 6.34679E+03 1.59570E+04-4.52558E+04-7.11596E-09-3.47463E-08
 -1       505-4.14660E+05 3.54979E+00 4.96345E+03 2.34531E+04 1.58055E-08-3.14560E-08
 -1       506-3.64907E+05 2.03407E+03 1.21455E+04-3.48999E+04 2.42235E-08-2.45469E-08
 -1       507-4.52491E+05-2.09050E+03-7.01495E+03 1.16978E+04 1.12570E-08-1.65247E-08
 -1       508-3.19530E+05 3.50166E+03 1.91946E+04-3.80240E+03-3.88440E-09 1.56888E-10
 -1       509-4.58821E+05-2.46697E+03-9.16761E+03-7.63595E+03-1.46740E-08 9.81819E-09
 -1       510-3.52040E+05 1.89261E+03 1.24418E+04 2.97440E+04-1.15665E-08 2.29744E-08
 -1       511-4.20846E+05 2.30757E+02-7.54496E+02-2.18244E+04-3.27161E-08 3.22793E-08
 -1       512-3.97463E+05 1.03246E+03 5.07609E+03 4.54210E+04-4.62535E-08 3.63862E-08
 -1       513-4.14623E+05-5.94903E+02 3.77824E+03-2.33420E+04-1.54586E-08 3.42407E-08
 -1       514-3.60898E+05 1.26870E+04 2.17104E+04 3.53963E+04-5.79894E-09 2.38931E-08
 -1       515-4.56556E+05-1.21191E+04 7.89410E+03-1.17762E+04-9.51445E-09 1.72831E-08
 -1       516-6.19373E+04 2.15974E+05 1.43076E+05-1.10390E+04-5.60249E-10 4.37751E-10
 -1       517 7.22202E+04 2.91371E+05 1.06047E+05 4.63208E+04-1.34423E-09-1.21208E-08
 -1       518-1.01442E+04 2.38149E+05 4.23223E+04-1.10935E+04 1.48066E-09-2.65641E-09
 -1       519 2.80463E+04 3.25166E+05 5.40051E+04 5.42080E+04-7.11452E-09-6.01227E-09
 -1       520-1.86741E+04 1.83470E+05 2.11452E+04-1.89439E+04-2.07820E-09-1.57877E-08
 -1       521-3.62372E+06-4.67740E+05-2.46637E+05-1.39768E+06-1.16415E-09-4.03088E-09
 -1       522-3.70159E+06-6.30421E+05-1.54652E+05-1.40747E+06 2.89447E-10-6.84850E-09
 -1       523-3.66696E+06-5.20138E+05-5.81148E+04-1.39080E+06-1.31786E-09-1.05138E-09
 -1       524-3.65116E+06-5.61358E+05-3.17136E+04-1.42030E+06 1.28239E-09 2.97860E-10
 -1       525-3.67254E+06-5.24829E+05-1.34984E+04-1.38941E+06 9.53150E-10-7.86713E-10
 -1       526-3.64464E+06-5.55315E+05-7.13208E+03-1.42260E+06-1.15358E-09-2.88674E-09
 -1       527-3.67347E+06-5.25035E+05-3.69596E+03-1.38899E+06-9.08358E-11-1.92188E-09
 -1       528-3.64387E+06-5.54856E+05-2.95598E+03-1.42290E+06-2.51629E-09-3.73143E-09
 -1       529-3.67332E+06-5.25200E+05-3.62767E+03-1.38915E+06-1.96337E-09-1.91994E-09
 -1       530-3.64514E+06-5.54712E+05-6.92858E+03-1.42187E+06-2.19916E-09 3.36286E-10
 -1       531-3.67209E+06-5.25328E+05-1.31002E+04-1.38990E+06-2.28920E-09 1.50521E-09
 -1       532-3.65201E+06-5.59975E+05-3.07257E+04-1.41890E+06-2.28670E-09 1.77170E-09
 -1       533-3.66638E+06-5.21101E+05-5.63228E+04-1.39158E+06-1.34560E-09 3.20506E-09
 -1       534-3.70143E+06-6.26281E+05-1.49819E+05-1.40577E+06-1.62072E-09-5.82077E-11
 -1       535-3.62418E+06-4.70648E+05-2.38967E+05-1.39858E+06-1.46247E-09-8.29459E-10
 -1       536-1.76963E+04-1.19422E+04 5.44732E+04-1.00451E+04 9.66793E-10-1.98452E-09
 -1       537 2.05335E+03 1.63612E+04 3.46951E+04-3.52643E+04-2.60252E-09 3.62343E-09
 -1       538-9.59395E+03-1.27681E+03 1.40716E+04-9.90515E+03-3.34694E-10 2.52021E-09
 -1       539-7.20600E+03 1.48551E+03 7.82332E+03-3.54116E+04 1.62072E-09 1.16415E-09
 -1       540-8.73402E+03-1.73196E+02 3.52979E+03-9.89084E+03 2.27374E-11-5.57520E-10
 -1       541-8.36916E+03 1.24684E+02 1.85042E+03-3.54272E+04-4.24279E-10 1.26386E-09
 -1       542-8.64485E+03-2.75967E+01 8.41918E+02-9.88984E+03-3.20597E-10 1.92472E-10
 -1       543-8.60018E+03 2.79839E+01 3.75284E+02-3.54289E+04 4.53610E-10 3.84910E-09
 -1       544-8.63783E+03 6.85207E+00 5.83192E+01-9.88928E+03 3.93356E-11 2.76930E-09
 -1       545-8.68516E+03 7.55488E+00-2.28139E+02-3.54295E+04-8.15163E-10 1.63004E-09
 -1       546-8.61562E+03 3.20869E+01-5.97297E+02-9.88921E+03 8.16271E-10 3.10934E-09
 -1       547-8.85924E+03-2.60896E+02-1.40606E+03-3.54245E+04-7.60792E-10 1.06672E-09
 -1       548-8.44045E+03 2.12466E+02-2.58185E+03-9.89432E+03 1.82126E-09 8.27868E-10
 -1       549-1.04486E+04-3.03082E+03-6.35805E+03-3.53455E+04 5.02746E-09-7.00311E-10
 -1       550-6.92391E+03 2.12525E+03-1.00286E+04-9.96804E+03 2.25054E-09-1.76260E-09
 -1       551 1.55841E+04-3.37456E+05 3.24826E+04-4.97575E+05-9.45874E-11 3.07773E-09
 -1       552 8.65753E+03-3.32417E+05 2.66720E+04-5.84608E+05-1.73532E-09 8.84029E-10
 -1       553 6.00851E+03-3.37336E+05 3.22529E+04-4.96734E+05 9.45874E-11 1.76442E-10
 -1       554 2.16928E+04-3.24958E+05 6.16214E+04-5.84724E+05-1.60071E-10 9.70431E-10
 -1       555 5.74921E+04-3.45661E+05 1.17168E+05-4.97323E+05 2.21917E-10-3.68709E-09
 -1       556-2.42890E+05-1.26606E+05 2.16813E+04-2.27196E+05-2.93221E-09-2.91038E-11
 -1       557-2.23257E+05-1.47782E+05 1.07030E+04-2.42336E+05 1.06229E-09 1.06297E-09
 -1       558-2.43481E+05-1.33580E+05 4.47506E+03-2.23095E+05-1.21508E-09-3.16049E-09
 -1       559-2.25536E+05-1.51210E+05 2.20734E+03-2.43241E+05 2.60297E-09-1.49817E-09
 -1       560-2.43907E+05-1.33529E+05 9.67450E+02-2.23173E+05 7.75617E-09 1.42791E-09
 -1       561-2.26131E+05-1.51188E+05 4.62755E+02-2.43664E+05 4.92219E-09-1.08734E-08
 -1       562-2.44230E+05-1.33316E+05 1.55936E+02-2.23387E+05 4.01269E-09-1.36151E-09
 -1       563-2.26454E+05-1.51049E+05-1.67485E+01-2.43893E+05 8.21274E-10-4.87489E-10
 -1       564-2.44412E+05-1.33189E+05-2.24710E+02-2.23515E+05 6.03723E-09 4.05726E-09
 -1       565-2.26626E+05-1.50983E+05-5.66924E+02-2.44001E+05 1.19662E-08 1.04155E-08
 -1       566-2.44427E+05-1.33140E+05-1.21640E+03-2.23546E+05 6.02085E-09 5.30963E-09
 -1       567-2.26833E+05-1.51110E+05-2.69185E+03-2.43975E+05 1.26624E-09 1.14596E-09
 -1       568-2.44177E+05-1.33562E+05-5.54088E+03-2.23311E+05 5.56429E-09 1.30076E-08
 -1       569-2.29756E+05-1.54488E+05-1.30660E+04-2.43078E+05-3.27418E-10 2.60297E-09
 -1       570-2.42880E+05-1.43582E+05-2.66303E+04-2.18998E+05-2.67937E-09-5.42627E-09
 -1       571 2.89282E+05 1.34290E+04 2.03835E+04-7.47357E+04 5.45697E-10-9.08358E-10
 -1       572 2.92365E+05 4.60185E+03 1.00046E+04-8.22427E+04 1.26238E-09-2.14459E-09
 -1       573 2.90511E+05 1.04512E+03 4.44904E+03-7.45369E+04 5.89353E-10-4.67480E-10
 -1       574 2.90871E+05 3.27182E+02 2.23298E+03-8.24589E+04-8.56744E-10-2.45564E-11
 -1       575 2.90638E+05 3.05695E+01 1.05535E+03-7.45118E+04-1.85264E-09 5.63887E-10
 -1       576 2.90670E+05 1.41485E+00 5.39141E+02-8.24871E+04-3.11957E-10 7.38510E-10
 -1       577 2.90659E+05-1.82564E+01 2.68436E+02-7.45086E+04 6.48242E-10 2.76486E-10
 -1       578 2.90657E+05-1.65826E+01 1.51531E+02-8.24907E+04 7.50333E-12 3.06227E-09
 -1       579 2.90691E+05-2.76291E+01 1.01469E+02-7.45083E+04-4.66571E-10-1.80898E-09
 -1       580 2.90704E+05-3.64467E+01 1.09712E+02-8.24869E+04 2.81489E-10-1.73713E-10
 -1       581 2.90747E+05-5.12566E+01 1.64289E+02-7.45122E+04-4.12911E-10-5.21140E-10
 -1       582 2.90810E+05-3.10433E+01 3.25030E+02-8.24426E+04-1.13687E-10 4.92128E-09
 -1       583 2.90812E+05 4.48619E+01 6.29184E+02-7.45526E+04-1.07320E-10 1.51817E-09
 -1       584 2.91127E+05 5.22662E+02 1.41377E+03-8.20964E+04-1.70530E-09-3.44630E-09
 -1       585 2.90734E+05 1.75050E+03 2.86798E+03-7.48606E+04 6.76664E-10-2.60297E-09
 -1       586 2.50802E+03 1.32365E+05 4.44867E+03-1.76572E+05 5.12046E-10-8.80391E-10
 -1       587 1.44684E+03 1.33089E+05 4.33450E+03-1.94791E+05 1.54068E-09 1.63027E-09
 -1       588 1.74426E+03 1.32268E+05 6.25297E+03-1.76342E+05 3.89264E-10 4.61978E-09
 -1       589 6.12868E+03 1.34620E+05 1.28827E+04-1.94861E+05 1.96451E-09 9.72591E-10
 -1       590 1.71255E+04 1.30724E+05 2.57109E+04-1.76495E+05 5.12955E-10-3.33102E-09
 -1       591-1.34070E+05-4.53335E+04-2.64970E+04-6.78687E+04 1.61060E-09-2.34104E-09
 -1       592-1.35156E+05-4.20291E+04-1.30178E+04-7.54617E+04-3.17414E-10 1.66551E-09
 -1       593-1.34885E+05-3.57027E+04-5.52415E+03-7.23074E+04-1.37925E-09-1.17393E-09
 -1       594-1.32325E+05-3.84732E+04-2.70311E+03-7.59159E+04 2.22826E-11 9.56896E-09
 -1       595-1.35015E+05-3.53555E+04-1.24471E+03-7.25046E+04-2.63503E-09 3.41390E-09
 -1       596-1.32114E+05-3.83337E+04-6.30977E+02-7.58971E+04 2.22201E-10 9.00002E-09
 -1       597-1.35040E+05-3.53743E+04-3.43055E+02-7.25061E+04-2.94008E-09-9.02151E-09
 -1       598-1.32092E+05-3.83358E+04-2.73627E+02-7.58873E+04-1.90880E-10-2.86218E-09
 -1       599-1.35037E+05-3.53759E+04-3.46435E+02-7.25043E+04-6.10726E-10-1.02159E-09
 -1       600-1.32109E+05-3.83365E+04-6.39954E+02-7.58921E+04-4.61660E-09-8.08950E-09
 -1       601-1.35004E+05-3.53599E+04-1.26313E+03-7.24991E+04 4.43606E-09 1.32140E-08
 -1       602-1.32320E+05-3.84777E+04-2.74395E+03-7.59027E+04 1.68711E-09-1.60321E-09
 -1       603-1.34864E+05-3.57193E+04-5.60764E+03-7.22987E+04-6.21958E-09-1.09558E-08
 -1       604-1.35217E+05-4.20579E+04-1.32129E+04-7.54018E+04 7.73070E-11 9.24410E-09
 -1       605-1.34002E+05-4.55194E+04-2.68933E+04-6.78197E+04-2.18643E-09 2.24827E-09
 -1       606 9.89275E+04-1.17484E+04-1.77943E+04 2.86652E+04-5.35783E-09-5.41240E-09
 -1       607 9.61791E+04-4.02357E+03-8.73013E+03 3.12415E+04-1.14323E-09-9.51218E-10
 -1       608 9.77811E+04-9.09261E+02-3.88290E+03 2.84732E+04 3.45972E-09-1.38721E-09
 -1       609 9.74077E+04-2.56999E+02-1.94473E+03 3.14505E+04-3.46790E-09 2.31739E-09
 -1       610 9.76177E+04 6.48170E+00-9.17144E+02 2.84484E+04-6.60930E-09-1.32695E-09
 -1       611 9.75404E+04 4.98460E+01-4.61285E+02 3.14770E+04-1.03091E-08-2.35991E-09
 -1       612 9.75759E+04 6.19496E+01-2.19139E+02 2.84456E+04-4.86853E-09-5.28689E-09
 -1       613 9.75438E+04 6.91271E+01-1.00633E+02 3.14803E+04-6.93126E-09-3.77668E-09
 -1       614 9.75548E+04 6.35691E+01-2.93116E+01 2.84450E+04-1.13141E-09-3.31602E-09
 -1       615 9.75349E+04 7.45632E+01 2.76602E+01 3.14805E+04 5.60976E-09-3.95698E-09
 -1       616 9.75390E+04 7.25252E+01 9.66084E+01 2.84453E+04-5.19412E-09-3.78031E-09
 -1       617 9.75436E+04 1.14424E+02 2.27891E+02 3.14794E+04 9.39053E-11 5.77529E-10
 -1       618 9.75140E+04 1.85059E+02 4.65066E+02 2.84458E+04-4.00178E-10 1.53000E-09
 -1       619 9.76893E+04 5.70440E+02 1.05214E+03 3.14746E+04-1.12368E-09-5.04087E-10
 -1       620 9.73748E+04 1.49433E+03 2.14677E+03 2.84476E+04 3.68539E-09-2.05500E-09
 -1       621 1.92145E+03 3.02254E+05 4.90635E+03-2.36840E+04-2.16687E-09 1.56660E-09
 -1       622 7.59329E+02 3.03190E+05 4.27279E+03-2.79488E+04-2.34195E-09-3.00133E-10
 -1       623 4.81519E+02 3.02440E+05 5.51012E+03-2.37212E+04-2.08138E-09 4.27553E-09
 -1       624 3.16131E+03 3.04655E+05 1.08074E+04-2.78041E+04-2.05819E-09 1.52249E-09
 -1       625 9.69100E+03 3.00825E+05 2.07281E+04-2.38255E+04-1.80353E-09-1.42791E-09
 -1       626 1.44976E+05 4.75221E+04-6.82151E+03 9.71135E+04-2.05819E-09 2.62480E-09
 -1       627 1.41306E+05 5.28804E+04-3.23193E+03 9.91283E+04-2.76850E-09 2.22826E-09
 -1       628 1.45141E+05 5.08912E+04-1.35759E+03 9.54335E+04-6.82121E-11 9.33596E-10
 -1       629 1.41773E+05 5.43096E+04-6.50042E+02 9.90181E+04-1.50339E-09 1.21882E-09
 -1       630 1.45119E+05 5.11330E+04-2.85686E+02 9.52868E+04 8.24093E-09 1.58846E-08
 -1       631 1.41795E+05 5.44216E+04-1.25211E+02 9.90124E+04-4.23142E-09-5.28053E-09
 -1       632 1.45096E+05 5.11455E+04-2.95289E+01 9.52685E+04 4.71573E-09 2.52352E-08
 -1       633 1.41789E+05 5.44300E+04 4.54650E+01 9.90091E+04 4.71027E-09-2.31785E-09
 -1       634 1.45080E+05 5.11407E+04 1.43534E+02 9.52636E+04-3.11547E-09-8.22342E-09
 -1       635 1.41803E+05 5.44356E+04 3.36315E+02 9.90107E+04-2.95586E-11 3.45608E-10
 -1       636 1.45065E+05 5.11583E+04 7.02563E+02 9.52512E+04-3.81169E-09-1.90585E-09
 -1       637 1.41973E+05 5.46322E+04 1.57263E+03 9.89798E+04 4.43720E-10 2.16460E-10
 -1       638 1.45032E+05 5.17499E+04 3.26160E+03 9.49948E+04 5.54883E-09 9.16134E-09
 -1       639 1.43638E+05 5.75735E+04 7.76520E+03 9.82518E+04-3.32784E-09 1.03000E-09
 -1       640 1.45132E+05 6.02304E+04 1.63846E+04 9.14758E+04 2.49656E-10 6.49015E-09
 -1       641 3.24501E+03 2.88938E+03-6.68722E+03-7.44996E+01-6.83653E-09 6.70298E-09
 -1       642 3.68245E+02-3.34430E+03-4.72382E+03 3.13788E+02-7.67757E-09 5.78007E-09
 -1       643 2.13241E+03 4.52629E+02-1.72413E+03-7.20004E+01-8.02095E-09 1.66597E-09
 -1       644 1.66236E+03-5.21985E+02-1.07005E+03 3.10292E+02 1.22789E-10-1.56473E-09
 -1       645 1.95058E+03 6.94796E+01-4.12139E+02-7.10068E+01-2.11861E-09-5.44560E-11
 -1       646 1.87754E+03-7.27757E+01-1.93948E+02 3.08869E+02-6.23327E-08 2.85891E-09
 -1       647 1.91708E+03 3.84049E+00 4.12520E+00-7.05788E+01-1.61539E-05 3.42547E-08
 -1       648 1.93885E+03 4.06402E+01 1.92344E+02 3.08425E+02-3.22125E-05 6.56503E-08
 -1       649 1.88924E+03-4.38427E+01 4.31839E+02-7.05630E+01-1.61527E-05 3.42426E-08
 -1       650 2.09829E+03 3.37211E+02 1.04391E+03 3.08602E+02-4.57832E-08 1.41222E-09
 -1       651 1.75768E+03-2.92576E+02 1.81565E+03-7.07554E+01 6.17361E-10 2.99224E-10
 -1       652 2.99732E+03 2.16996E+03 4.49327E+03 3.08484E+02 9.16925E-10 5.60431E-09
 -1       653 9.90397E+02-1.87531E+03 7.15657E+03-7.04472E+01-5.84988E-10 5.94673E-09
 -1       654 8.39661E+03 1.38491E+04 1.95780E+04 3.03937E+02-1.48631E-08 2.94017E-09
 -1       655-3.64032E+03-1.19623E+04 2.76685E+04-6.62191E+01 2.80620E-09 7.31234E-10
 -1       656 8.88380E+03-3.61548E+05-4.27930E+04 1.16269E+04 5.11136E-10-1.24692E-09
 -1       657-1.35567E+04-3.76894E+05-3.09967E+04 4.03492E+04-3.50178E-09 1.56388E-09
 -1       658 1.65975E+03-3.67070E+05-1.98772E+04 1.15354E+04-1.93438E-09-5.17105E-09
 -1       659-1.24524E+04-3.76262E+05-2.90089E+04 4.04105E+04-4.82169E-09-3.35136E-09
 -1       660 8.05065E+03-3.62223E+05-3.89991E+04 1.15668E+04 3.94721E-10 1.95541E-11
 -1       661 3.47464E+05 4.50938E+04 2.84174E+04 1.36144E+05-4.54065E-10 2.19916E-09
 -1       662 3.53875E+05 6.63944E+04 1.78169E+04 1.40258E+05 2.06609E-09 2.73462E-09
 -1       663 3.52281E+05 5.12840E+04 6.70754E+03 1.35551E+05-2.90805E-09-2.36105E-09
 -1       664 3.48330E+05 5.81901E+04 3.66943E+03 1.41385E+05-4.09705E-09-7.72388E-10
 -1       665 3.52805E+05 5.19463E+04 1.57217E+03 1.35521E+05 5.09658E-10-2.21064E-09
 -1       666 3.47726E+05 5.73392E+04 8.51025E+02 1.41447E+05-4.57499E-09 2.04695E-09
 -1       667 3.52861E+05 5.20235E+04 4.78415E+02 1.35527E+05-1.20154E-08 1.60918E-09
 -1       668 3.47672E+05 5.72614E+04 4.50649E+02 1.41443E+05-4.64859E-09-1.54694E-09
 -1       669 3.52856E+05 5.20181E+04 6.35780E+02 1.35526E+05 1.78363E-09 7.04802E-10
 -1       670 3.47777E+05 5.73956E+04 1.28520E+03 1.41449E+05 9.81959E-09 1.63755E-09
 -1       671 3.52762E+05 5.18985E+04 2.45497E+03 1.35519E+05-5.01359E-10-2.25009E-09
 -1       672 3.48741E+05 5.87314E+04 5.78008E+03 1.41339E+05 3.93243E-09-1.33457E-09
 -1       673 3.51925E+05 5.08598E+04 1.05832E+04 1.35573E+05 5.62945E-09-5.59794E-10
 -1       674 3.57502E+05 7.16765E+04 2.81254E+04 1.39548E+05-3.13702E-09-2.16096E-09
 -1       675 3.44316E+05 4.10920E+04 4.48646E+04 1.36511E+05-1.17416E-09-2.15186E-09
 -1       676 6.40738E+02-3.40692E+05-3.80300E+03 2.85636E+02-3.84307E-09 1.12651E-09
 -1       677-1.44059E+03-3.42137E+05-4.60549E+03-9.21808E+01-9.42245E-09-1.28406E-09
 -1       678 5.13736E+02-3.40752E+05-6.07784E+03 2.84955E+02-2.82466E-09 1.16221E-09
 -1       679-6.46470E+03-3.45184E+05-1.37432E+04-9.19300E+01-1.32086E-08-6.32721E-09
 -1       680 4.55635E+03-3.37647E+05-2.12043E+04 2.84005E+02-2.53749E-09-1.09942E-09
 -1       681 2.90124E+05-6.72009E+03 1.20094E+04 5.97066E+03-1.04365E-10-2.11912E-10
 -1       682 3.13731E+05 7.49821E+03 1.17052E+04-1.57342E+04 4.38945E-10-7.62157E-10
 -1       683 2.98713E+05-8.57711E+02 3.23458E+03 1.82010E+03 5.05537E-10 4.18868E-09
 -1       684 3.03167E+05 9.70392E+02 2.56994E+03-9.72970E+03 4.13422E-10-4.79048E-10
 -1       685 3.00508E+05-7.96328E+01 8.97413E+02-3.42316E+01 3.04809E-10 4.47938E-09
 -1       686 3.01021E+05 1.19442E+02 6.03321E+02-7.36306E+03 6.11692E-10-2.04640E-09
 -1       687 3.00817E+05 1.98883E+01 3.67345E+02-5.46336E+02-1.75292E-10 4.06018E-09
 -1       688 3.00994E+05-6.06071E+00 4.16898E+02-7.41898E+03-3.63054E-09-6.83027E-10
 -1       689 3.00536E+05 4.52565E+01 5.37871E+02 2.16864E+01-8.28038E-10 4.07903E-09
 -1       690 3.02919E+05 4.59576E+01 1.51225E+03-9.92453E+03 6.06622E-09-1.94034E-09
 -1       691 2.98937E+05-6.16578E+01 1.76702E+03 1.95901E+03 2.94926E-09 6.18002E-10
 -1       692 3.11901E+05 1.71503E+03 6.81346E+03-1.61284E+04 3.34683E-09 2.64691E-09
 -1       693 2.91748E+05-1.74919E+03 6.54555E+03 6.22617E+03-6.48993E-09-3.69346E-09
 -1       694 3.52506E+05 1.79332E+04 3.11455E+04-2.90001E+04-1.65421E-08 7.24958E-09
 -1       695 2.59118E+05-1.67799E+04 2.37637E+04 1.48464E+04-1.14353E-08-1.50540E-08
 -1       696-7.43733E+03 3.27784E+05 1.59898E+04-5.10367E+03 4.45652E-11-3.22376E-09
 -1       697 8.43614E+03 3.40971E+05 1.23186E+04 1.06034E+04 1.14824E-10-4.43606E-10
 -1       698-1.04204E+03 3.33087E+05 4.09551E+03-2.58753E+03-1.18462E-10 9.10930E-10
 -1       699 1.02283E+03 3.34799E+05 2.36640E+03 7.63902E+03-1.57797E-10 1.59639E-09
 -1       700 1.17036E+01 3.33893E+05 4.92961E+02-2.13889E+03-1.49271E-10 8.88200E-10
 -1       701-3.56994E+05-6.03352E+04-6.29285E+04-1.54346E+05 5.91172E-10 2.10093E-09
 -1       702-2.05967E+05 2.39710E+03 4.92173E+02-2.23954E+04-2.63594E-09-3.68771E-08
 -1       703-2.62926E+05-5.82590E+04-1.14285E+04-1.32901E+05 1.52240E-08 5.20472E-08
 -1       704-2.93815E+05 3.71419E+03-3.93989E+02-4.35899E+04 8.17124E-09 6.86637E-08
 -1       705-2.70790E+05-6.04146E+04-5.84432E+03-1.34563E+05-1.46895E-09 6.17082E-08
 -1       706-1.83396E+05 1.31147E+04 2.64621E+04-2.09755E+04-2.99513E-08 4.55020E-09
 -1       707-3.71411E+05-6.91098E+04-2.50098E+04-1.53868E+05 2.56387E-09 2.25175E-08
 -1       708-4.92767E+04 4.51093E+03 5.15255E+04-1.65357E+04-1.50950E-08 1.70830E-08
 -1       709-4.02721E+05-5.34793E+04-2.79203E+04-1.37395E+05 5.01291E-09 7.66590E-10
 -1       710-9.35137E+04-4.07301E+04 3.36571E+04-7.86000E+04-9.65349E-09-1.68532E-08
 -1       711-3.28633E+05-2.27804E+04-9.27584E+03-9.30684E+04 3.04171E-08 5.66726E-08
 -1       712-2.01944E+05-7.94107E+04 2.18738E+03-1.38567E+05 8.76753E-10 1.17929E-07
 -1       713-2.96878E+05-1.28112E+04-7.40441E+03-7.92446E+04-2.04332E-08 6.01767E-09
 -1       714-1.61617E+05-7.11617E+04-1.26573E+03-1.14871E+05-2.30866E-08-2.12858E-08
 -1       715-3.67916E+05-3.18399E+04-5.14392E+04-1.16052E+05-9.14156E-09-2.78014E-08
 -1       716-9.04120E+04-5.36688E+01-4.90305E+03-1.88351E+03 2.17026E-08-1.38110E-08
 -1       717-5.61716E+04-8.55303E+01 3.05137E+03-2.22510E+03 1.03454E-08 1.33625E-09
 -1       718-8.96437E+04-1.82663E+02-2.76629E+03 2.56413E+01 3.40299E-09-4.55574E-09
 -1       719-6.02850E+04 4.77342E+01 3.32660E+03-5.84267E+03-9.23106E-09-8.51955E-10
 -1       720-8.64086E+04-1.06123E+02-1.53092E+03 1.72639E+03-4.80219E-09-2.79130E-10
 -1       721-6.77674E+04 3.00608E+01 2.31935E+03-8.80719E+03 4.76984E-09-2.59731E-09
 -1       722-8.23530E+04-2.44238E+01-2.13581E+02 2.98608E+03 9.04214E-09 5.67286E-09
 -1       723-7.48607E+04 1.78373E+02 1.82304E+03-1.07607E+04 3.20576E-09-3.96987E-09
 -1       724-7.94981E+04-1.20222E+02 1.91954E+03 3.68005E+03 1.62163E-08 9.01184E-09
 -1       725-7.76565E+04 1.42737E+03 4.70308E+03-1.15395E+04 1.25899E-08-2.90970E-09
 -1       726-7.96448E+04-1.20827E+03 7.99516E+03 3.76594E+03 1.17915E-08 7.86395E-09
 -1       727-7.17673E+04 9.57280E+03 2.02026E+04-1.11093E+04 1.73412E-08-2.44631E-09
 -1       728-8.53361E+04-8.29517E+03 3.09525E+04 3.24929E+03 6.19960E-09 3.78168E-09
 -1       729-4.14759E+04 6.14816E+04 8.78379E+04-9.71431E+03 2.20513E-09-9.45874E-11
 -1       730-1.09748E+05-5.31885E+04 1.20167E+05 2.36998E+03 4.91605E-09-1.01863E-09
 -1       731-9.84341E+03 7.01526E+04 6.64080E+03-7.24369E+03-1.13714E-08-7.55699E-09
 -1       732 1.06728E+04 1.71489E+05 2.25035E+04 1.84229E+04 3.15163E-09 3.93300E-10
 -1       733-1.52981E+03 9.29403E+04 1.34087E+03-3.75294E+03-2.75884E-09-1.14380E-09
 -1       734 3.93391E+03 1.40398E+05 1.08700E+04 1.22849E+04 3.78571E-09-1.08839E-08
 -1       735-2.63216E+03 1.00552E+05 3.30431E+03-1.08578E+03 2.80238E-09-7.85292E-09
 -1       736-3.02095E+05-6.49904E+04-3.76290E+04-1.40390E+05 3.25881E-08-3.01970E-08
 -1       737-2.23380E+05 1.46814E+04 3.95261E+03-2.12577E+04 9.34865E-08 2.62380E-08
 -1       738-2.21636E+05-5.41648E+04-3.71803E+03-1.19451E+05 1.99423E-08 8.06597E-08
 -1       739-2.49146E+05 1.23385E+04 6.38480E+03-2.76362E+04-5.98862E-08-1.61050E-08
 -1       740-2.76798E+05-6.23033E+04-1.20386E+04-1.34425E+05-1.05188E-08-4.92032E-08
 -1       741-8.62279E+04 2.39952E+04 4.20654E+04 6.83628E+03-1.62347E-08-3.94899E-08
 -1       742-3.81680E+05-6.79451E+04-3.22826E+04-1.51513E+05-2.51739E-08 1.98384E-10
 -1       743 2.18090E+04 6.43313E+03 5.99649E+04-2.13526E+03-4.74411E-08 1.71214E-08
 -1       744-3.83174E+05-4.60113E+04-2.83623E+04-1.24388E+05-8.81755E-10-1.45830E-08
 -1       745-6.79399E+04-4.41578E+04 3.24473E+04-7.72461E+04 4.90680E-08 1.12923E-08
 -1       746-2.94290E+05-1.56016E+04-6.32879E+03-7.83001E+04 4.16173E-08 1.00347E-07
 -1       747-1.77170E+05-7.72129E+04 3.29144E+03-1.32646E+05 1.85308E-08 1.76098E-08
 -1       748-2.76498E+05-1.10137E+04-5.28011E+03-7.07234E+04 3.88321E-08 2.36607E-08
 -1       749-1.06437E+05-5.51751E+04 1.45329E+04-9.87029E+04-1.58990E-08 2.57378E-08
 -1       750-3.63385E+05-3.88872E+04-4.13730E+04-1.11150E+05-1.93158E-08-2.32340E-08
 -1       751 2.88303E+06-1.68397E+05 3.90437E+05 9.40806E+03-3.16861E-08-8.44011E-10
 -1       752 3.05330E+06 1.94988E+05 2.76160E+05-9.44836E+03-3.20950E-09-2.23008E-09
 -1       753 2.94894E+06-2.63774E+04 1.01175E+05 6.35451E+02 3.45256E-10 1.30967E-10
 -1       754 2.97681E+06 3.05306E+04 6.36100E+04-2.58460E+02 6.53725E-09 1.28239E-10
 -1       755 2.95973E+06-4.12738E+03 2.60616E+04 2.19731E+02 1.62634E-09-5.00222E-11
 -1       756 2.96433E+06 4.83656E+03 1.55717E+04 1.77079E+02 5.64048E-09 1.62299E-09
 -1       757 2.96152E+06-7.06049E+02 7.64586E+03 1.99925E+02 8.08648E-07 1.07616E-09
 -1       758 2.96246E+06 1.24798E+03 6.08763E+03 1.97704E+02 1.61360E-06 1.47054E-10
 -1       759 2.96162E+06-5.41359E+02 6.15683E+03 1.99107E+02 3.12053E-07 1.12084E-09
 -1       760 2.96357E+06 3.42047E+03 1.12689E+04 1.95916E+02-9.88729E-07 1.32798E-09
 -1       761 2.96040E+06-2.87695E+03 1.83139E+04 2.01713E+02-4.96279E-07 1.03682E-10
 -1       762 2.97221E+06 2.12332E+04 4.43002E+04 1.38537E+02 3.30098E-09 1.11231E-09
 -1       763 2.95290E+06-1.83391E+04 7.03199E+04 2.56480E+02 1.03669E-08 1.91721E-09
 -1       764 3.02485E+06 1.35427E+05 1.91751E+05-1.06503E+03 3.62848E-09 1.57161E-09
 -1       765 2.90756E+06-1.16952E+05 2.71178E+05 1.40512E+03-1.71108E-09-1.26602E-09
 -1       766-5.98154E+04 6.67891E+04 1.37015E+05 9.69889E+03 7.10861E-09-4.38129E-09
 -1       767 6.97182E+04 1.38483E+05 1.00553E+05-4.21512E+04 2.41071E-08-1.29559E-09
 -1       768-9.56350E+03 9.08837E+04 3.85743E+04 9.47914E+03 1.01118E-08 3.60996E-09
 -1       769 2.14673E+04 1.49198E+05 4.09952E+04-4.45198E+04 5.63182E-09 6.82149E-10
 -1       770-1.21781E+04 5.68698E+04 1.47465E+04 1.20693E+04-5.08317E-09-1.51613E-09
 -1       771-1.69174E+06-3.38458E+05-5.50956E+04-7.30366E+05 1.45519E-10 6.06087E-09
 -1       772-1.68708E+06-3.38164E+05-2.70249E+04-7.53719E+05 2.29920E-09-1.30240E-09
 -1       773-1.69417E+06-3.17918E+05-1.15119E+04-7.39326E+05-3.51429E-09-7.65795E-09
 -1       774-1.68112E+06-3.31163E+05-5.61178E+03-7.55562E+05 6.71207E-10 2.27374E-11
 -1       775-1.69484E+06-3.16928E+05-2.60975E+03-7.39862E+05-3.13958E-09-7.11680E-09
 -1       776-1.68092E+06-3.30835E+05-1.31234E+03-7.55891E+05-5.22050E-10-3.42197E-09
 -1       777-1.69519E+06-3.16789E+05-7.27489E+02-7.39998E+05 3.60887E-09 5.17616E-09
 -1       778-1.68108E+06-3.30777E+05-5.69361E+02-7.56108E+05 1.03319E-09 2.69449E-09
 -1       779-1.69539E+06-3.16670E+05-7.31996E+02-7.40089E+05 2.85581E-10 9.09495E-10
 -1       780-1.68125E+06-3.30738E+05-1.34555E+03-7.56266E+05-6.91216E-10-1.00499E-10
 -1       781-1.69543E+06-3.16569E+05-2.66648E+03-7.40131E+05-7.98082E-09-4.02451E-09
 -1       782-1.68175E+06-3.31020E+05-5.79960E+03-7.56348E+05-7.57882E-09 2.37469E-09
 -1       783-1.69515E+06-3.17319E+05-1.18657E+04-7.39719E+05-7.28619E-10 8.82392E-09
 -1       784-1.68788E+06-3.38615E+05-2.79875E+04-7.55264E+05-1.37084E-09-1.81626E-09
 -1       785-1.69328E+06-3.38115E+05-5.69872E+04-7.30216E+05-9.73159E-11 1.68438E-09
 -1       786 2.36543E+05-6.90486E+03 3.19950E+04-2.27432E+03 3.73575E-10-9.56788E-10
 -1       787 2.47916E+05 9.68121E+03 2.03482E+04-8.20614E+03-3.81704E-10-1.47838E-09
 -1       788 2.41323E+05-6.92266E+02 8.28275E+03-2.26593E+03-7.34417E-11-7.02585E-10
 -1       789 2.42602E+05 9.17232E+02 4.59513E+03-8.20594E+03-4.68617E-10-2.47769E-09
 -1       790 2.41849E+05-7.42298E+01 2.10112E+03-2.27373E+03 2.82853E-10 9.12905E-11
 -1       791 2.42005E+05 8.51742E+01 1.12133E+03-8.19453E+03 5.27621E-10 1.27108E-09
 -1       792 2.41915E+05-9.54982E+00 5.73187E+02-2.27733E+03-1.40375E-10 1.96513E-09
 -1       793 2.41931E+05 9.88469E+00 3.73633E+02-8.19229E+03 1.88116E-10 2.61929E-09
 -1       794 2.41922E+05-5.22835E+00 3.36101E+02-2.27598E+03-1.89175E-10-2.59632E-10
 -1       795 2.41952E+05 3.27840E+01 4.99043E+02-8.20033E+03 2.39226E-10 1.54782E-09
 -1       796 2.41898E+05-3.07400E+01 8.57310E+02-2.26930E+03-2.13959E-10 2.44228E-10
 -1       797 2.42189E+05 3.59586E+02 1.83010E+03-8.21668E+03-3.49019E-11 9.81544E-10
 -1       798 2.41692E+05-2.76241E+02 3.27937E+03-2.25963E+03 7.75344E-11 1.00999E-09
 -1       799 2.44295E+05 3.82141E+03 8.04576E+03-8.21790E+03-1.96451E-09-1.74805E-09
 -1       800 2.39803E+05-2.73396E+03 1.26440E+04-2.26846E+03-1.65755E-10-2.74849E-09
 -1       801-1.08858E+04 2.83285E+05 4.06814E+04-2.82654E+05-1.14196E-08-1.49157E-09
 -1       802 2.75891E+04 2.93386E+05 4.51704E+04-1.00314E+06-4.69663E-09-2.99769E-09
 -1       803 1.20006E+01 2.81685E+05 4.98591E+04-2.81929E+05-1.52322E-08 8.04221E-09
 -1       804 6.09081E+04 3.13895E+05 1.05963E+05-1.00305E+06-8.30187E-09-5.41513E-09
 -1       805-3.70498E+04 2.63147E+05 1.56473E+05-2.82756E+05-6.00994E-09 5.02041E-09
 -1       806-2.61629E+05-7.09621E+04-2.16858E+04-1.22566E+05 2.09218E-09 6.90852E-09
 -1       807-2.61543E+05-6.55489E+04-1.02767E+04-1.29392E+05-8.74934E-10 1.44473E-09
 -1       808-2.61489E+05-5.97606E+04-4.31854E+03-1.27275E+05-9.29958E-10 2.36787E-09
 -1       809-2.59404E+05-6.16049E+04-2.08520E+03-1.30323E+05 1.55205E-09 9.99796E-09
 -1       810-2.61541E+05-5.89730E+04-9.41349E+02-1.27627E+05 7.10770E-10-1.03012E-09
 -1       811-2.59193E+05-6.13365E+04-4.70672E+02-1.30365E+05-9.51786E-10-8.55403E-09
 -1       812-2.61559E+05-5.89471E+04-2.44232E+02-1.27644E+05 8.56716E-10 1.09526E-09
 -1       813-2.59169E+05-6.13289E+04-1.76964E+02-1.30359E+05 8.79936E-10-1.93813E-09
 -1       814-2.61557E+05-5.89512E+04-2.01511E+02-1.27641E+05 2.70938E-09 5.87761E-09
 -1       815-2.59180E+05-6.13386E+04-3.57106E+02-1.30356E+05-4.82032E-10 2.01908E-10
 -1       816-2.61536E+05-5.89755E+04-6.97224E+02-1.27625E+05 1.95905E-09 8.39464E-09
 -1       817-2.59334E+05-6.15334E+04-1.53631E+03-1.30312E+05 1.17052E-09 4.83851E-10
 -1       818-2.61485E+05-5.95658E+04-3.17803E+03-1.27368E+05-2.60479E-09-7.04676E-09
 -1       819-2.60949E+05-6.43853E+04-7.55926E+03-1.29562E+05-1.70439E-09-2.77669E-09
 -1       820-2.61531E+05-6.78490E+04-1.59504E+04-1.23950E+05 1.89812E-09 7.44762E-09
 -1       821-2.76754E+05 7.67105E+03-3.55795E+04 2.48910E+03-3.41788E-09 6.73026E-11
 -1       822-2.89381E+05-1.07662E+04-2.26276E+04 9.22047E+03-1.92449E-09-2.17005E-09
 -1       823-2.82073E+05 7.65974E+02-9.21527E+03 2.42285E+03 3.16209E-09-1.42700E-09
 -1       824-2.83493E+05-1.00913E+03-5.11526E+03 9.31048E+03-3.97904E-11-3.97552E-09
 -1       825-2.82661E+05 8.37430E+01-2.35202E+03 2.39814E+03-5.62522E-09-1.97610E-09
 -1       826-2.82845E+05-7.74029E+01-1.27677E+03 9.35066E+03-9.08074E-09 2.35252E-09
 -1       827-2.82736E+05 1.55425E+01-6.98381E+02 2.38246E+03-5.96697E-09-4.61353E-09
 -1       828-2.82776E+05 6.28741E+00-5.40786E+02 9.37517E+03-6.57860E-09-4.44214E-09
 -1       829-2.82740E+05 1.54267E+01-6.18998E+02 2.37359E+03 6.20730E-10-1.41648E-09
 -1       830-2.82836E+05-5.59987E+01-1.06984E+03 9.38519E+03 5.51185E-09-2.98904E-09
 -1       831-2.82681E+05 7.32106E+01-1.93656E+03 2.37245E+03-2.62455E-09-2.99519E-09
 -1       832-2.83374E+05-8.15549E+02-4.19505E+03 9.37953E+03 5.36375E-10-2.94426E-09
 -1       833-2.82201E+05 6.33905E+02-7.54705E+03 2.37943E+03-2.59877E-09-3.45472E-09
 -1       834-2.88202E+05-8.80312E+03-1.85312E+04 9.34202E+03-4.61392E-09-3.07864E-09
 -1       835-2.77846E+05 6.29036E+03-2.91335E+04 2.41168E+03-1.51658E-09-1.19144E-09
 -1       836-1.17644E+04 6.81333E+05 5.76585E+04-1.88733E+04-7.47605E-10-1.63118E-09
 -1       837 1.86497E+04 7.02180E+05 4.47508E+04-6.58323E+04 3.18323E-10 1.21076E-10
 -1       838-2.80984E+03 6.88050E+05 3.37186E+04-1.88634E+04-1.93995E-09 1.14994E-09
 -1       839 2.53862E+04 7.06256E+05 5.70057E+04-6.58246E+04 4.98403E-10-4.88285E-10
 -1       840-1.70035E+04 6.77245E+05 8.10125E+04-1.88803E+04-1.68802E-09 9.34051E-10
 -1       841 5.15090E+03 3.99736E+03-8.44409E+03 4.32018E+02 1.10253E-09 1.19462E-09
 -1       842 5.38127E+02-3.58858E+03-5.85748E+03 2.10242E+03-1.33900E-09 1.53534E-10
 -1       843 3.42930E+03 9.62637E+02-1.97736E+03 1.00835E+03 1.53045E-09-1.91324E-09
 -1       844 2.53760E+03-7.53349E+01-1.22912E+03 1.43626E+03 6.45664E-09 2.24183E-09
 -1       845 3.15147E+03 4.86433E+02-4.48760E+02 1.09717E+03-1.32196E-10-1.40733E-09
 -1       846 2.86247E+03 4.78508E+02-2.41699E+02 1.33271E+03 1.42604E-10-3.02377E-09
 -1       847 3.10437E+03 4.09181E+02-6.16501E+01 1.11171E+03 3.82734E-10-8.66081E-10
 -1       848 2.93081E+03 5.88469E+02 4.71795E+01 1.31258E+03-9.10219E-09 2.81872E-09
 -1       849 3.08309E+03 3.76561E+02 1.67314E+02 1.11724E+03-3.28267E-06 1.23839E-06
 -1       850 3.03678E+03 7.59110E+02 4.69207E+02 1.28386E+03-6.55449E-06 2.46388E-06
 -1       851 2.99840E+03 2.38639E+02 8.27066E+02 1.14039E+03-3.28718E-06 1.23609E-06
 -1       852 3.63055E+03 1.76568E+03 2.24274E+03 1.10413E+03-1.05984E-08 1.03887E-09
 -1       853 2.48944E+03-6.29421E+02 3.59288E+03 1.29677E+03-4.50802E-09 1.13300E-09
 -1       854 7.27332E+03 8.15600E+03 1.06501E+04-9.57920E+01 5.76392E-10 4.72937E-10
 -1       855-6.43453E+02-6.14742E+03 1.53387E+04 2.33887E+03-5.40467E-10 4.76575E-10
 -1       856-3.30025E+05 7.32552E+03-3.40193E+04 4.90508E+03-1.02468E-08-2.87946E-09
 -1       857-3.42089E+05-1.02591E+04-2.16272E+04 1.83996E+04-7.72229E-09-5.58794E-09
 -1       858-3.35117E+05 7.36090E+02-8.81068E+03 4.79220E+03-1.03441E-08-3.60387E-09
 -1       859-3.36491E+05-9.20455E+02-4.88496E+03 1.85544E+04-4.53088E-09-2.84331E-09
 -1       860-3.35684E+05 9.10638E+01-2.24178E+03 4.74823E+03 2.16983E-09-3.77247E-09
 -1       861-3.35890E+05-2.18503E+01-1.20490E+03 1.86198E+04-3.98904E-09-6.02870E-09
 -1       862-3.35759E+05 2.92126E+01-6.37659E+02 4.72635E+03 7.27493E-09-2.23577E-09
 -1       863-3.35828E+05 6.24514E+01-4.55791E+02 1.86466E+04 2.23430E-08-3.24317E-09
 -1       864-3.35764E+05 2.74188E+01-4.72893E+02 4.72136E+03 1.20941E-08-5.55042E-09
 -1       865-3.35861E+05 1.81119E+01-7.73686E+02 1.86389E+04 1.62925E-08-7.75128E-09
 -1       866-3.35721E+05 6.44737E+01-1.37819E+03 4.73410E+03-3.24167E-09-3.08054E-09
 -1       867-3.36221E+05-5.26341E+02-2.96793E+03 1.85943E+04-5.87340E-09-6.10891E-09
 -1       868-3.35377E+05 4.53251E+02-5.33900E+03 4.76620E+03-6.54381E-10-5.56383E-09
 -1       869-3.39601E+05-6.18277E+03-1.30945E+04 1.84676E+04-4.13456E-09-7.01289E-09
 -1       870-3.32292E+05 4.43838E+03-2.05974E+04 4.86243E+03 3.96494E-09-1.01045E-09
 -1       871-3.47390E+03-3.21533E+04-6.34510E+03 9.54326E+04-4.71027E-09 1.78261E-10
 -1       872-1.15132E+03-3.33001E+04-1.86379E+03 1.12029E+05-7.53334E-09-3.60160E-09
 -1       873 8.68961E+00-3.28899E+04 1.84569E+03 9.52511E+04-4.91400E-09-1.03239E-08
 -1       874 2.10216E+03-3.13830E+04 6.91612E+03 1.12109E+05-6.17047E-09-1.68988E-08
 -1       875 7.01125E+03-3.41537E+04 1.49165E+04 9.53657E+04-4.15002E-09-1.01827E-08
 -1       876 4.07971E+05 5.22320E+04 3.84270E+04 1.60850E+05-7.05768E-10 1.93722E-09
 -1       877 4.16369E+05 8.13369E+04 2.40949E+04 1.66759E+05 5.30463E-09 2.61934E-09
 -1       878 4.14474E+05 6.06165E+04 9.06715E+03 1.60058E+05-5.16707E-10-2.53294E-10
 -1       879 4.08882E+05 7.02222E+04 4.95879E+03 1.68252E+05-3.01043E-10 7.96831E-10
 -1       880 4.15170E+05 6.15262E+04 2.11636E+03 1.60028E+05-7.37828E-10 2.21871E-09
 -1       881 4.08078E+05 6.90519E+04 1.13209E+03 1.68307E+05-2.64703E-09-2.38111E-09
 -1       882 4.15236E+05 6.16424E+04 6.07682E+02 1.60047E+05-1.30628E-08-8.47592E-10
 -1       883 4.08011E+05 6.89270E+04 5.23973E+02 1.68279E+05-3.10891E-09-1.33914E-09
 -1       884 4.15226E+05 6.16472E+04 6.87752E+02 1.60054E+05 3.28650E-09-2.48792E-09
 -1       885 4.08123E+05 6.90564E+04 1.35174E+03 1.68275E+05 1.31217E-08-3.35399E-09
 -1       886 4.15126E+05 6.15244E+04 2.56461E+03 1.60048E+05 3.31471E-09-3.81988E-11
 -1       887 4.09128E+05 7.04496E+04 6.02717E+03 1.68163E+05 5.47061E-10-2.94449E-09
 -1       888 4.14258E+05 6.04377E+04 1.10313E+04 1.60101E+05 7.40469E-09-2.22872E-09
 -1       889 4.18255E+05 8.39472E+04 2.93135E+04 1.66308E+05-3.40492E-09-5.70799E-09
 -1       890 4.06333E+05 5.02511E+04 4.67568E+04 1.61074E+05 1.60162E-09-9.78616E-10
 -1       891 1.38673E+03-1.83050E+05-7.22500E+03 2.24343E+04-8.00355E-10 1.53614E-09
 -1       892-2.46741E+03-1.85558E+05-5.73870E+03 7.94839E+04-1.50610E-08 1.54284E-09
 -1       893 3.54358E+02-1.83882E+05-4.56545E+03 2.23367E+04-4.72460E-09 3.71259E-09
 -1       894-3.73597E+03-1.86314E+05-8.03914E+03 7.94761E+04-1.04492E-08 2.94222E-10
 -1       895 2.36602E+03-1.82279E+05-1.16090E+04 2.24417E+04-3.15504E-09 2.28692E-09
 -1       896 3.45725E+05-3.38760E+02 7.14938E+02-1.83168E+02 1.85807E-10 3.01256E-09
 -1       897 3.46315E+05 3.95433E+02 5.64445E+02 3.14800E+03 4.97172E-10 4.25371E-09
 -1       898 3.45971E+05-4.81165E+01 1.95290E+02 4.25386E+02 5.82506E-10 4.17482E-09
 -1       899 3.46025E+05 6.33337E+01 1.37101E+02 2.35200E+03-4.83729E-11 5.10448E-09
 -1       900 3.46012E+05-4.75675E+00 7.59358E+01 6.12833E+02-5.04243E-10 4.59443E-09
 -1       901 3.45995E+05 1.45429E+01 8.37758E+01 2.28611E+03-4.07437E-10 5.13680E-09
 -1       902 3.46001E+05 7.65936E-01 1.16693E+02 4.91276E+02 2.23053E-09 4.41883E-09
 -1       903 3.46103E+05 2.34265E+01 2.49170E+02 2.91097E+03 1.70417E-09 4.73212E-09
 -1       904 3.45906E+05-1.51938E+01 4.10157E+02-1.20222E+01 3.33038E-10 3.31627E-09
 -1       905 3.46690E+05 2.02352E+02 1.04871E+03 4.59978E+03 4.24748E-10 2.88891E-09
 -1       906 3.45425E+05-1.85527E+02 1.59175E+03-1.19756E+03 2.49554E-09 5.04428E-10
 -1       907 3.49679E+05 1.73722E+03 4.58152E+03 8.35886E+03 1.86169E-09-7.93534E-10
 -1       908 3.42969E+05-1.58276E+03 6.14048E+03-3.77131E+03 1.71758E-09-4.80532E-09
 -1       909 3.65143E+05 1.33379E+04 2.06201E+04 1.64578E+04 8.98501E-09-9.06402E-09
 -1       910 3.30197E+05-1.19292E+04 2.30845E+04-9.29929E+03 9.15668E-09-1.63927E-08
 -1       911 4.25724E+04-8.72503E+02-2.88603E+03-3.56754E+03-1.10180E-08-1.48200E-08
 -1       912 7.02371E+04 6.64739E+02 3.03116E+03 1.14512E+04-5.25014E-09-9.34318E-09
 -1       913 4.91415E+04-1.38132E+01-1.06516E+03-2.65202E+03-1.00107E-09-2.01572E-09
 -1       914 6.01648E+04-1.10519E+02 1.12369E+03 9.92730E+03 4.71715E-10 2.45543E-09
 -1       915 5.24023E+04 7.23356E+01-3.02952E+02-2.04034E+03-3.67112E-09 6.10811E-09
 -1       916 5.54195E+04-1.06557E+02 2.79180E+02 9.01276E+03-7.28542E-09 9.80253E-09
 -1       917 5.37685E+04 6.52629E+01 2.82884E+01-1.73749E+03 4.62161E-07 7.31579E-09
 -1       918 5.40291E+04-5.72581E+01 1.12146E+02 8.70987E+03 9.32684E-07 6.08336E-09
 -1       919 5.37573E+04 4.78426E+01 1.84488E+02-1.73771E+03 4.61382E-07 6.99440E-09
 -1       920 5.55046E+04 4.32303E+01 7.32605E+02 9.01378E+03-3.69812E-09 9.85975E-09
 -1       921 5.23284E+04-6.00185E+01 5.10956E+02-2.04115E+03-3.72279E-09 5.45742E-09
 -1       922 6.06629E+04 8.73582E+02 3.15971E+03 9.93330E+03-3.55553E-09 3.65742E-09
 -1       923 4.87174E+04-8.65037E+02 2.18052E+03-2.65722E+03 9.48035E-10-2.72405E-09
 -1       924 7.31872E+04 6.95018E+03 1.19190E+04 1.15174E+04 7.75526E-09-7.75526E-09
 -1       925 4.00467E+04-6.30201E+03 9.67306E+03-3.62852E+03 4.49973E-09-1.61790E-08
 -1       926-2.17663E+05 5.20885E+03-1.21663E+04 6.41315E+03-3.68904E-09-2.25709E-08
 -1       927-2.20223E+05-5.89702E+03-8.03770E+03-1.00201E+04 2.86269E-08-2.39332E-08
 -1       928-2.22359E+05 7.20534E+02-3.66459E+03 4.84696E+03-2.39146E-09-1.70191E-08
 -1       929-2.12142E+05-6.97293E+02-2.50185E+02-5.44795E+03-1.84020E-08-1.58160E-08
 -1       930-2.25598E+05-9.92615E+01-1.82113E+03 1.83937E+03-1.23919E-09-7.17478E-09
 -1       931-2.09127E+05 1.70532E+02 1.95177E+03 1.05108E+03 4.71871E-09-2.96912E-09
 -1       932-2.25307E+05-1.97465E+02-8.11473E+02-1.65091E+03 1.07963E-09 3.94462E-09
 -1       933-2.12599E+05 3.37977E+02 2.31644E+03 7.33079E+03 5.50779E-09 9.36470E-09
 -1       934-2.22219E+05-1.94643E+02 1.32007E+03-4.43910E+03-2.97882E-09 1.25460E-08
 -1       935-2.17492E+05 1.29855E+03 4.41762E+03 1.12995E+04 1.87894E-09 1.74753E-08
 -1       936-2.20554E+05-1.04918E+03 7.07379E+03-5.62071E+03-1.86881E-09 1.63946E-08
 -1       937-2.14737E+05 8.42324E+03 1.76148E+04 1.17045E+04 1.22009E-08 1.88238E-08
 -1       938-2.24990E+05-7.29948E+03 2.74359E+04-4.84432E+03 1.64986E-08 1.31440E-08
 -1       939-1.88825E+05 5.41392E+04 7.70882E+04 8.55194E+03 9.60927E-09 1.26529E-08
 -1       940-2.46313E+05-4.68210E+04 1.06143E+05-2.46698E+03-1.83422E-09 5.44242E-09
 -1       941 4.82237E+06-2.42367E+05 5.63186E+05 1.51752E+03 3.57286E-08 5.82077E-09
 -1       942 5.06557E+06 2.80731E+05 3.97814E+05 5.96298E+02 3.73213E-08-6.28643E-09
 -1       943 4.91639E+06-3.80132E+04 1.45975E+05 1.04206E+03-3.58249E-07-1.99361E-09
 -1       944 4.95655E+06 4.40044E+04 9.18088E+04 1.06094E+03-7.35805E-07-1.85719E-09
 -1       945 4.93200E+06-5.95077E+03 3.76976E+04 1.05319E+03-4.50371E-07 4.95493E-09
 -1       946 4.93859E+06 6.98840E+03 2.26251E+04 1.05087E+03-1.74001E-07 8.73160E-09
 -1       947 4.93458E+06-1.03233E+03 1.13040E+04 1.05218E+03-2.39335E-08 5.45288E-09
 -1       948 4.93597E+06 1.91065E+03 9.35056E+03 1.05195E+03 1.36404E-07 2.67428E-09
 -1       949 4.93468E+06-8.76823E+02 9.89728E+03 1.05211E+03 7.31947E-07-6.97469E-09
 -1       950 4.93788E+06 5.65141E+03 1.85620E+04 1.04948E+03 1.34044E-06 6.06929E-09
 -1       951 4.93264E+06-4.77031E+03 3.03831E+04 1.05465E+03 5.12113E-06-1.41572E-08
 -1       952 4.95221E+06 3.52271E+04 7.35892E+04 1.10563E+03 8.88948E-06-3.61251E-09
 -1       953 4.92014E+06-3.04257E+04 1.16871E+05 9.95920E+02 4.44646E-06 2.62371E-08
 -1       954 5.03947E+06 2.24687E+05 3.18405E+05-7.23366E+02 1.09420E-08 2.11949E-08
 -1       955 4.84481E+06-1.93999E+05 4.50537E+05 2.88309E+03-2.57243E-08-2.03727E-10
 -1       956-2.53268E+05-4.44646E+03-9.48330E+03 3.39976E+04-5.15865E-09 2.77396E-10
 -1       957-2.55020E+05-1.40296E+03-4.79290E+03 3.96227E+04-2.72485E-09-2.52930E-09
 -1       958-2.54068E+05-1.44728E+02-2.15697E+03 3.37942E+04 2.97132E-09-1.75646E-09
 -1       959-2.54236E+05 3.97805E+00-1.09696E+03 3.98451E+04-1.76260E-09-1.46611E-09
 -1       960-2.54167E+05 6.38416E+01-5.33022E+02 3.37729E+04-9.17680E-09-1.57388E-09
 -1       961-2.54192E+05 7.80535E+01-2.80436E+02 3.98692E+04-1.97588E-08-1.90585E-09
 -1       962-2.54198E+05 7.24446E+01-1.57355E+02 3.37698E+04-8.96762E-09 4.85215E-10
 -1       963-2.54203E+05 8.71808E+01-1.20099E+02 3.98731E+04-7.38419E-09 1.79443E-09
 -1       964-2.54210E+05 7.91166E+01-1.38728E+02 3.37688E+04-2.26123E-09-2.01294E-09
 -1       965-2.54218E+05 9.26265E+01-2.33855E+02 3.98731E+04 4.18447E-09-1.72236E-09
 -1       966-2.54205E+05 8.41482E+01-4.36129E+02 3.37699E+04-1.08625E-08-1.52113E-10
 -1       967-2.54275E+05 4.41933E+01-8.95705E+02 3.98606E+04-1.18871E-08-1.38016E-10
 -1       968-2.54141E+05-7.50883E+01-1.75839E+03 3.37815E+04-9.27821E-09-1.52568E-10
 -1       969-2.54935E+05-1.09431E+03-3.91040E+03 3.97372E+04-6.80120E-09 9.06311E-10
 -1       970-2.53502E+05-3.57932E+03-7.73532E+03 3.38973E+04-4.50746E-09-6.62112E-10
 -1       971-4.80333E+05 6.04203E+03-2.80954E+04 4.81535E+03-4.52428E-09-3.51065E-10
 -1       972-4.90263E+05-8.46896E+03-1.78590E+04 1.84359E+04-3.87536E-09-5.60703E-10
 -1       973-4.84538E+05 6.05020E+02-7.28207E+03 4.66742E+03-3.55840E-09-1.50385E-09
 -1       974-4.85654E+05-7.52926E+02-4.04377E+03 1.86497E+04 1.26124E-09 1.14096E-09
 -1       975-4.85009E+05 7.55844E+01-1.87388E+03 4.60003E+03-1.04319E-09-2.57023E-09
 -1       976-4.85168E+05-7.29253E+00-1.03961E+03 1.87536E+04-1.05371E-08 2.93863E-09
 -1       977-4.85070E+05 2.73777E+01-6.15537E+02 4.56320E+03 5.92729E-09-6.04757E-09
 -1       978-4.85132E+05 5.99730E+01-5.59326E+02 1.88021E+04 1.74682E-08-3.33793E-09
 -1       979-4.85069E+05 3.22102E+01-7.47414E+02 4.55140E+03 8.36273E-09-1.98702E-09
 -1       980-4.85215E+05-2.94626E+01-1.38847E+03 1.87999E+04 1.50968E-08 6.11664E-10
 -1       981-4.84986E+05 1.07177E+02-2.56789E+03 4.56540E+03 3.16959E-10-4.53940E-09
 -1       982-4.85919E+05-1.05155E+03-5.59358E+03 1.87449E+04-2.50520E-09-1.80802E-09
 -1       983-4.84341E+05 8.50380E+02-1.00807E+04 4.60685E+03 9.58426E-09-5.15593E-09
 -1       984-4.92344E+05-1.17353E+04-2.47553E+04 1.85961E+04 4.44629E-09-3.97904E-10
 -1       985-4.78517E+05 8.39965E+03-3.89301E+04 4.71730E+03 7.96217E-09-3.55612E-09
 -3
    1PSTEP                        51          26           1          
  100CL  126 8.15479E-01         841                     0   26           1
 -4  DISP        4    1
 -5  D1          1    2    1    0
 -5  D2          1    2    2    0
 -5  D3          1    2    3    0
 -5  ALL         1    2    0    0    1ALL
 -1         1 1.04126E-04 0.00000E+00 0.00000E+00
 -1         2 8.59995E-05 0.00000E+00 0.00000E+00
 -1         3 7.22183E-05 0.00000E+00 0.00000E+00
 -1         4 6.09146E-05 0.00000E+00 0.00000E+00
 -1         5 5.16414E-05 0.00000E+00 0.00000E+00
 -1         8 8.30176E-05-1.04165E-06 0.00000E+00
 -1         9 6.31995E-05-2.14280E-07 0.00000E+00
 -1        10 6.26019E-05-2.37470E-06 0.00000E+00
 -1        11 5.65137E-05-4.21562E-07 0.00000E+00
 -1        12 4.96539E-05 1.18130E-06 0.00000E+00
 -1        15 4.61490E-05-1.18645E-06 0.00000E+00
 -1        16 4.95548E-05-3.19256E-07 0.00000E+00
 -1        17 4.30134E-05-4.78442E-06 0.00000E+00
 -1        18 4.28912E-05-8.80238E-07 0.00000E+00
 -1        19 4.48963E-05 2.34866E-06 0.00000E+00
 -1        20 4.55655E-05 2.55140E-05 0.00000E+00
 -1        21 4.55402E-05 6.09808E-05 0.00000E+00
 -1        22 1.86301E-05-7.68557E-07 0.00000E+00
 -1        23 1.97324E-05-1.66320E-07 0.00000E+00
 -1        24 1.81509E-05-5.75868E-06 0.00000E+00
 -1        25 3.84058E-05-5.46091E-07 0.00000E+00
 -1        26 4.00605E-05 3.12630E-06 0.00000E+00
 -1        27 3.81000E-05 2.45738E-05 0.00000E+00
 -1        28 3.57437E-05 6.00905E-05 0.00000E+00
 -1        29 0.00000E+00 0.00000E+00 0.00000E+00
 -1        30 1.82508E-06-4.59515E-07 0.00000E+00
 -1        31 1.82241E-06-5.76407E-06 0.00000E+00
 -1        32 0.00000E+00 0.00000E+00 0.00000E+00
 -1        33 3.38422E-05 4.87793E-06 0.00000E+00
 -1        34 3.20664E-05 2.44814E-05 0.00000E+00
 -1        35 2.86731E-05 5.96114E-05 0.00000E+00
 -1        36 1.03024E-04 4.85407E-19 2.64698E-23
 -1        37 1.01891E-04 2.21376E-18 1.32349E-23
 -1        38 1.00760E-04 3.39470E-18 0.00000E+00
 -1        39 9.96234E-05 2.14723E-18 1.32349E-23
 -1        40 9.84861E-05-1.11633E-19 2.64698E-23
 -1        41 9.73477E-05-1.56294E-18 1.32349E-23
 -1        42 9.62091E-05-1.92931E-18 2.64698E-23
 -1        43 9.50703E-05-2.60241E-19 0.00000E+00
 -1        44 9.39314E-05 1.58483E-18-2.64698E-23
 -1        45 9.27927E-05 1.09454E-18-1.32349E-23
 -1        46 9.16541E-05-7.73630E-19-2.64698E-23
 -1        47 9.05164E-05-3.38088E-18 0.00000E+00
 -1        48 8.93788E-05-4.75637E-18 2.64698E-23
 -1        49 8.82456E-05-2.99476E-18 0.00000E+00
 -1        50 8.71109E-05-6.77510E-19 0.00000E+00
 -1        51 1.02522E-04-1.76031E-07 0.00000E+00
 -1        52 9.98776E-05-3.44828E-07 0.00000E+00
 -1        53 9.63927E-05-5.13040E-07 0.00000E+00
 -1        54 9.22792E-05-6.83015E-07 0.00000E+00
 -1        55 8.77497E-05-8.56769E-07 4.54949E-24
 -1        56 1.01994E-04-9.15524E-07 0.00000E+00
 -1        57 9.98450E-05-2.02655E-06 0.00000E+00
 -1        58 9.77308E-05-3.21710E-06 0.00000E+00
 -1        59 9.56003E-05-4.40511E-06-2.64698E-23
 -1        60 9.34334E-05-5.49758E-06-5.29396E-23
 -1        61 9.11970E-05-6.41172E-06-2.64698E-23
 -1        62 8.88676E-05-7.07925E-06-5.29396E-23
 -1        63 8.64245E-05-7.44467E-06-2.64698E-23
 -1        64 8.38568E-05-7.47862E-06-5.29396E-23
 -1        65 8.11598E-05-7.16778E-06 0.00000E+00
 -1        66 7.83398E-05-6.52911E-06-5.29396E-23
 -1        67 7.54109E-05-5.59467E-06 2.64698E-23
 -1        68 7.23934E-05-4.42367E-06 5.29396E-23
 -1        69 6.93260E-05-3.08142E-06 0.00000E+00
 -1        70 6.62235E-05-1.65888E-06 0.00000E+00
 -1        71 8.51493E-05 2.71189E-19 2.64698E-23
 -1        72 8.42869E-05 1.11527E-18 0.00000E+00
 -1        73 8.34253E-05 1.98443E-18 0.00000E+00
 -1        74 8.25614E-05 2.14202E-18-1.32349E-23
 -1        75 8.16974E-05 1.53842E-18 0.00000E+00
 -1        76 8.08329E-05 7.42449E-19-1.32349E-23
 -1        77 7.99684E-05 1.09421E-19 2.64698E-23
 -1        78 7.91039E-05 3.27872E-19-1.32349E-23
 -1        79 7.82393E-05 6.76603E-19 0.00000E+00
 -1        80 7.73749E-05 1.25266E-18 1.32349E-23
 -1        81 7.65106E-05 1.67613E-18 0.00000E+00
 -1        82 7.56469E-05 1.46868E-18 0.00000E+00
 -1        83 7.47833E-05 9.27700E-19 0.00000E+00
 -1        84 7.39231E-05 2.23958E-19 1.32349E-23
 -1        85 7.30618E-05-1.03020E-19 0.00000E+00
 -1        86 8.48031E-05-4.37111E-08 0.00000E+00
 -1        87 8.12373E-05-7.14936E-08 0.00000E+00
 -1        88 7.62948E-05-1.06178E-07-3.30872E-24
 -1        89 7.09687E-05-1.41738E-07-1.65436E-24
 -1        90 6.62674E-05-1.73173E-07 6.61744E-24
 -1        91 7.99818E-05 1.46811E-05 0.00000E+00
 -1        92 6.21368E-05 5.84195E-05 0.00000E+00
 -1        93 4.08312E-05 1.10300E-04-1.32349E-23
 -1        94 2.49422E-05 1.49489E-04-3.30872E-24
 -1        95 1.93645E-05 1.63012E-04 0.00000E+00
 -1        96 2.80211E-05 1.37955E-04 3.30872E-24
 -1        97 4.70953E-05 8.16249E-05 6.61744E-24
 -1        98 7.32273E-05 2.00376E-06 3.30872E-24
 -1        99 9.95767E-05-7.83508E-05 0.00000E+00
 -1       100 1.19337E-04-1.36858E-04 3.30872E-24
 -1       101 1.28964E-04-1.64716E-04 0.00000E+00
 -1       102 1.24402E-04-1.53808E-04 0.00000E+00
 -1       103 1.09218E-04-1.16310E-04 6.61744E-24
 -1       104 8.79370E-05-6.44848E-05 0.00000E+00
 -1       105 6.95438E-05-1.94465E-05 0.00000E+00
 -1       106 7.15226E-05 3.87312E-19 0.00000E+00
 -1       107 7.08154E-05 1.96911E-18 0.00000E+00
 -1       108 7.01089E-05 3.51763E-18 0.00000E+00
 -1       109 6.94002E-05 4.08699E-18 0.00000E+00
 -1       110 6.86915E-05 3.63554E-18 0.00000E+00
 -1       111 6.79823E-05 2.16734E-18 1.32349E-23
 -1       112 6.72731E-05 5.63348E-19 0.00000E+00
 -1       113 6.65638E-05 1.22765E-19 0.00000E+00
 -1       114 6.58546E-05 4.45427E-19 2.64698E-23
 -1       115 6.51454E-05 1.86993E-18 1.32349E-23
 -1       116 6.44362E-05 3.29299E-18-2.64698E-23
 -1       117 6.37277E-05 3.65473E-18 1.32349E-23
 -1       118 6.30192E-05 3.34223E-18 2.64698E-23
 -1       119 6.23134E-05 1.99170E-18 0.00000E+00
 -1       120 6.16068E-05 5.48106E-19-1.32349E-23
 -1       121 7.19108E-05-3.95873E-07 0.00000E+00
 -1       122 7.10309E-05-7.90763E-07 0.00000E+00
 -1       123 6.96177E-05-1.18620E-06 1.32349E-23
 -1       124 6.77129E-05-1.58199E-06-6.61744E-24
 -1       125 6.53595E-05-1.97867E-06 1.32349E-23
 -1       126 6.85624E-05 9.20336E-06 0.00000E+00
 -1       127 5.76610E-05 3.67737E-05-3.30872E-24
 -1       128 4.10925E-05 7.80763E-05 0.00000E+00
 -1       129 2.06434E-05 1.28482E-04 0.00000E+00
 -1       130-7.27884E-07 1.81024E-04-3.30872E-24
 -1       131-2.00174E-05 2.28743E-04 1.65436E-24
 -1       132-3.48669E-05 2.65927E-04 3.30872E-24
 -1       133-4.30910E-05 2.86853E-04 0.00000E+00
 -1       134-4.43161E-05 2.89732E-04 0.00000E+00
 -1       135-3.82796E-05 2.72846E-04-1.65436E-24
 -1       136-2.63936E-05 2.39171E-04 0.00000E+00
 -1       137-9.97416E-06 1.91820E-04 0.00000E+00
 -1       138 8.71067E-06 1.37438E-04 0.00000E+00
 -1       139 2.74934E-05 8.27459E-05 0.00000E+00
 -1       140 4.41893E-05 3.45475E-05-3.30872E-24
 -1       141 6.03416E-05-2.19318E-19-1.32349E-23
 -1       142 5.97593E-05-6.28933E-19-6.61744E-24
 -1       143 5.91776E-05-7.34743E-19 0.00000E+00
 -1       144 5.85941E-05-4.17649E-19 0.00000E+00
 -1       145 5.80105E-05-2.22376E-19 1.32349E-23
 -1       146 5.74266E-05-6.45093E-20-6.61744E-24
 -1       147 5.68427E-05 3.26885E-20 0.00000E+00
 -1       148 5.62587E-05-1.08299E-19 6.61744E-24
 -1       149 5.56748E-05-3.59608E-19 0.00000E+00
 -1       150 5.50911E-05-6.55002E-19 6.61744E-24
 -1       151 5.45076E-05-8.75764E-19 0.00000E+00
 -1       152 5.39252E-05-8.88466E-19 0.00000E+00
 -1       153 5.33430E-05-6.72858E-19-1.32349E-23
 -1       154 5.27668E-05-3.38518E-19 6.61744E-24
 -1       155 5.21885E-05-6.88843E-20-6.61744E-24
 -1       156 5.76394E-05-3.05524E-08 0.00000E+00
 -1       157 4.79493E-05-8.67849E-08 1.65436E-24
 -1       158 3.74498E-05-1.51266E-07 0.00000E+00
 -1       159 3.17457E-05-1.75621E-07-8.27181E-25
 -1       160 3.62860E-05-2.03938E-07-1.65436E-24
 -1       161 5.76494E-05 8.14768E-06 6.61744E-24
 -1       162 4.79938E-05 3.25831E-05-3.30872E-24
 -1       163 3.36180E-05 6.85922E-05 0.00000E+00
 -1       164 1.63719E-05 1.11453E-04-1.65436E-24
 -1       165-9.03379E-07 1.54381E-04 0.00000E+00
 -1       166-1.53628E-05 1.90598E-04 1.65436E-24
 -1       167-2.51351E-05 2.15326E-04 0.00000E+00
 -1       168-2.85132E-05 2.23804E-04-1.65436E-24
 -1       169-2.57328E-05 2.15875E-04-3.30872E-24
 -1       170-1.70688E-05 1.91487E-04-1.65436E-24
 -1       171-4.36455E-06 1.55337E-04 0.00000E+00
 -1       172 1.06492E-05 1.12238E-04 1.65436E-24
 -1       173 2.56522E-05 6.91741E-05 0.00000E+00
 -1       174 3.83245E-05 3.31259E-05-8.27181E-25
 -1       175 4.69354E-05 8.89884E-06 0.00000E+00
 -1       191 5.15581E-05 1.96501E-07 6.61744E-24
 -1       192 5.13684E-05 3.93454E-07-1.32349E-23
 -1       193 5.10772E-05 5.90513E-07 0.00000E+00
 -1       194 5.06902E-05 7.87577E-07 3.30872E-24
 -1       195 5.02136E-05 9.84564E-07 0.00000E+00
 -1       251 8.25250E-05 1.57817E-05 1.32349E-23
 -1       252 8.13038E-05 5.84062E-05-6.61744E-24
 -1       253 7.98330E-05 1.07152E-04 1.32349E-23
 -1       254 7.89150E-05 1.42258E-04-6.61744E-24
 -1       255 7.84890E-05 1.52285E-04-1.32349E-23
 -1       256 7.77851E-05 1.26190E-04 0.00000E+00
 -1       257 7.60333E-05 7.18951E-05 0.00000E+00
 -1       258 7.30538E-05-2.24043E-06 0.00000E+00
 -1       259 7.00986E-05-7.60176E-05 1.32349E-23
 -1       260 6.84010E-05-1.29239E-04 6.61744E-24
 -1       261 6.77314E-05-1.53937E-04-1.32349E-23
 -1       262 6.72920E-05-1.42584E-04 0.00000E+00
 -1       263 6.63449E-05-1.06604E-04 0.00000E+00
 -1       264 6.48722E-05-5.77994E-05 6.61744E-24
 -1       265 6.36756E-05-1.58177E-05 1.32349E-23
 -1       266 8.00151E-05-1.05415E-06 0.00000E+00
 -1       267 7.84480E-05-1.04639E-06 0.00000E+00
 -1       268 7.63102E-05-1.04099E-06-8.27181E-25
 -1       269 7.15955E-05-1.04053E-06-1.03398E-25
 -1       270 6.22329E-05-1.07311E-06 4.13590E-25
 -1       271 8.00081E-05 1.61881E-06 0.00000E+00
 -1       272 7.72317E-05 3.48018E-06-2.64698E-23
 -1       273 7.47250E-05 4.63107E-06 5.29396E-23
 -1       274 7.24479E-05 5.14611E-06-2.64698E-23
 -1       275 7.03745E-05 5.11630E-06 0.00000E+00
 -1       276 6.84674E-05 4.63909E-06-2.64698E-23
 -1       277 6.66883E-05 3.81948E-06 0.00000E+00
 -1       278 6.49958E-05 2.76807E-06 2.64698E-23
 -1       279 6.33474E-05 1.59910E-06 0.00000E+00
 -1       280 6.16996E-05 4.28904E-07 0.00000E+00
 -1       281 6.00091E-05-6.26286E-07 5.29396E-23
 -1       282 5.82340E-05-1.45197E-06-2.64698E-23
 -1       283 5.63324E-05-1.93763E-06 0.00000E+00
 -1       284 5.42716E-05-1.97604E-06 2.64698E-23
 -1       285 5.20056E-05-1.47257E-06 0.00000E+00
 -1       286 6.31455E-05 1.61617E-06 6.61744E-24
 -1       287 6.31087E-05 2.63012E-06 0.00000E+00
 -1       288 6.30714E-05 2.90414E-06-3.30872E-24
 -1       289 6.30371E-05 2.51579E-06 0.00000E+00
 -1       290 6.30025E-05 1.59072E-06 1.65436E-24
 -1       291 6.29681E-05 2.55372E-07 0.00000E+00
 -1       292 6.29335E-05-1.33433E-06 8.27181E-25
 -1       293 6.28988E-05-3.02215E-06 0.00000E+00
 -1       294 6.28642E-05-4.64474E-06 0.00000E+00
 -1       295 6.28298E-05-6.03889E-06 0.00000E+00
 -1       296 6.27958E-05-7.05777E-06 0.00000E+00
 -1       297 6.27617E-05-7.55506E-06 0.00000E+00
 -1       298 6.27277E-05-7.42188E-06-1.65436E-24
 -1       299 6.26908E-05-6.55027E-06-1.65436E-24
 -1       300 6.26537E-05-4.88569E-06 6.61744E-24
 -1       301 6.09178E-05-2.42666E-07 0.00000E+00
 -1       302 5.86242E-05-2.52842E-07 1.65436E-24
 -1       303 5.63298E-05-2.60023E-07 3.30872E-24
 -1       304 5.40459E-05-2.68037E-07 3.30872E-24
 -1       305 5.17839E-05-2.80850E-07 1.32349E-23
 -1       306 6.13454E-05 1.17143E-06 0.00000E+00
 -1       307 5.97343E-05 1.81219E-06-1.32349E-23
 -1       308 5.83634E-05 1.81636E-06-2.64698E-23
 -1       309 5.71877E-05 1.28569E-06 1.32349E-23
 -1       310 5.61702E-05 3.30857E-07-2.64698E-23
 -1       311 5.52680E-05-9.34172E-07-1.32349E-23
 -1       312 5.44377E-05-2.39190E-06 0.00000E+00
 -1       313 5.36346E-05-3.92287E-06-1.32349E-23
 -1       314 5.28139E-05-5.40675E-06 2.64698E-23
 -1       315 5.19310E-05-6.72376E-06 0.00000E+00
 -1       316 5.09417E-05-7.75598E-06 0.00000E+00
 -1       317 4.98038E-05-8.38847E-06-1.32349E-23
 -1       318 4.84754E-05-8.51076E-06 0.00000E+00
 -1       319 4.69218E-05-8.01633E-06 0.00000E+00
 -1       320 4.50989E-05-6.80918E-06 0.00000E+00
 -1       321 6.24573E-05 5.36546E-06 6.61744E-24
 -1       322 6.22084E-05 2.26803E-05 3.30872E-24
 -1       323 6.18197E-05 4.70929E-05-3.30872E-24
 -1       324 6.13150E-05 7.60969E-05 0.00000E+00
 -1       325 6.07791E-05 1.06227E-04 0.00000E+00
 -1       326 6.03090E-05 1.34013E-04 1.65436E-24
 -1       327 5.99644E-05 1.56473E-04-3.30872E-24
 -1       328 5.97660E-05 1.70649E-04 0.00000E+00
 -1       329 5.96516E-05 1.75274E-04 0.00000E+00
 -1       330 5.95293E-05 1.69126E-04 1.65436E-24
 -1       331 5.93046E-05 1.53154E-04 0.00000E+00
 -1       332 5.89065E-05 1.28349E-04 0.00000E+00
 -1       333 5.83503E-05 9.75018E-05 0.00000E+00
 -1       334 5.76936E-05 6.34321E-05 0.00000E+00
 -1       335 5.70455E-05 2.96286E-05 3.30872E-24
 -1       336 5.95040E-05-2.77581E-06-1.32349E-23
 -1       337 5.61972E-05-3.17915E-06 6.61744E-24
 -1       338 5.27877E-05-3.58264E-06 0.00000E+00
 -1       339 4.93826E-05-3.98552E-06-6.61744E-24
 -1       340 4.60891E-05-4.38816E-06 0.00000E+00
 -1       341 5.70373E-05 1.16795E-05 6.61744E-24
 -1       342 4.25616E-05 4.78795E-05-3.30872E-24
 -1       343 2.15493E-05 9.95287E-05-3.30872E-24
 -1       344-3.30806E-06 1.59952E-04 1.65436E-24
 -1       345-2.78939E-05 2.19758E-04-3.30872E-24
 -1       346-4.81029E-05 2.69554E-04 1.65436E-24
 -1       347-6.14397E-05 3.03001E-04 0.00000E+00
 -1       348-6.57078E-05 3.13757E-04 0.00000E+00
 -1       349-6.14388E-05 3.01712E-04 3.30872E-24
 -1       350-4.92126E-05 2.66912E-04 1.65436E-24
 -1       351-3.16095E-05 2.15840E-04 0.00000E+00
 -1       352-1.09800E-05 1.55172E-04 1.65436E-24
 -1       353 9.59172E-06 9.46918E-05 3.30872E-24
 -1       354 2.70152E-05 4.41807E-05 0.00000E+00
 -1       355 3.89660E-05 1.02012E-05 1.65436E-24
 -1       356 5.59566E-05-3.11026E-05 0.00000E+00
 -1       357 5.52385E-05-6.67900E-05-1.65436E-24
 -1       358 5.44862E-05-1.03482E-04 0.00000E+00
 -1       359 5.38353E-05-1.37172E-04-1.65436E-24
 -1       360 5.33663E-05-1.64519E-04-3.30872E-24
 -1       361 5.31065E-05-1.82213E-04 1.65436E-24
 -1       362 5.29722E-05-1.89036E-04-3.30872E-24
 -1       363 5.28472E-05-1.83821E-04 0.00000E+00
 -1       364 5.26175E-05-1.67968E-04-3.30872E-24
 -1       365 5.22070E-05-1.42931E-04 0.00000E+00
 -1       366 5.16467E-05-1.12158E-04 0.00000E+00
 -1       367 5.10173E-05-7.91226E-05 0.00000E+00
 -1       368 5.04398E-05-4.78041E-05-1.65436E-24
 -1       369 5.00204E-05-2.21729E-05 0.00000E+00
 -1       370 4.97693E-05-4.95086E-06-1.65436E-24
 -1       371 7.62116E-05-6.33065E-07 0.00000E+00
 -1       372 7.91736E-05-6.58947E-07-2.06795E-25
 -1       373 7.13148E-05-6.98991E-07 0.00000E+00
 -1       374 5.85585E-05-7.87322E-07 0.00000E+00
 -1       375 4.70395E-05-8.62355E-07 0.00000E+00
 -1       376 6.80300E-05-3.29646E-05 0.00000E+00
 -1       377 8.23575E-05-7.38890E-05 1.65436E-24
 -1       378 9.77451E-05-1.18020E-04-3.30872E-24
 -1       379 1.12476E-04-1.60155E-04 0.00000E+00
 -1       380 1.24965E-04-1.95585E-04-3.30872E-24
 -1       381 1.33560E-04-2.19659E-04-1.65436E-24
 -1       382 1.37408E-04-2.30420E-04 0.00000E+00
 -1       383 1.35613E-04-2.25995E-04-1.65436E-24
 -1       384 1.28541E-04-2.07940E-04 3.30872E-24
 -1       385 1.16636E-04-1.77855E-04 0.00000E+00
 -1       386 1.01567E-04-1.40090E-04 0.00000E+00
 -1       387 8.51025E-05-9.89969E-05 0.00000E+00
 -1       388 6.93975E-05-5.97164E-05 1.65436E-24
 -1       389 5.65815E-05-2.73902E-05 8.27181E-25
 -1       390 4.79997E-05-5.53530E-06 0.00000E+00
 -1       406 4.90070E-05 1.37711E-06 0.00000E+00
 -1       407 4.82913E-05 1.57296E-06-3.30872E-24
 -1       408 4.75141E-05 1.76865E-06 6.61744E-24
 -1       409 4.66837E-05 1.96385E-06-3.30872E-24
 -1       410 4.58083E-05 2.15801E-06-6.61744E-24
 -1       466 4.62491E-05 1.44565E-05 0.00000E+00
 -1       467 4.64436E-05 2.25416E-05 3.30872E-24
 -1       468 4.66668E-05 2.55658E-05-6.61744E-24
 -1       469 4.68956E-05 2.59742E-05 3.30872E-24
 -1       470 4.71241E-05 2.46363E-05 0.00000E+00
 -1       471 4.73512E-05 2.24038E-05-3.30872E-24
 -1       472 4.75771E-05 1.95848E-05 0.00000E+00
 -1       473 4.78021E-05 1.64812E-05 0.00000E+00
 -1       474 4.80265E-05 1.32215E-05 6.61744E-24
 -1       475 4.82507E-05 9.93294E-06 0.00000E+00
 -1       476 4.84749E-05 6.72487E-06 0.00000E+00
 -1       477 4.86984E-05 3.70753E-06-3.30872E-24
 -1       478 4.89229E-05 1.10703E-06 0.00000E+00
 -1       479 4.91424E-05-8.46163E-07 0.00000E+00
 -1       480 4.93655E-05-1.53269E-06 0.00000E+00
 -1       481 3.12305E-05-1.20408E-06 0.00000E+00
 -1       482 2.53083E-05-1.12878E-06-1.65436E-24
 -1       483 2.46563E-05-1.03355E-06-3.30872E-24
 -1       484 2.55703E-05-9.38428E-07 1.65436E-24
 -1       485 2.46857E-05-8.44169E-07 0.00000E+00
 -1       486 3.40012E-05 2.90715E-05-3.30872E-24
 -1       487 1.28232E-05 8.07574E-05-3.30872E-24
 -1       488-9.26288E-06 1.34548E-04-6.61744E-24
 -1       489-2.40195E-05 1.71133E-04-3.30872E-24
 -1       490-2.79309E-05 1.80508E-04 0.00000E+00
 -1       491-1.82841E-05 1.52754E-04 3.30872E-24
 -1       492 1.32639E-06 9.48813E-05-6.61744E-24
 -1       493 2.77373E-05 1.44759E-05-3.30872E-24
 -1       494 5.48836E-05-6.84373E-05-6.61744E-24
 -1       495 7.68105E-05-1.33762E-04-3.30872E-24
 -1       496 8.98167E-05-1.71398E-04 0.00000E+00
 -1       497 8.96311E-05-1.71825E-04 0.00000E+00
 -1       498 7.78889E-05-1.42584E-04 0.00000E+00
 -1       499 5.69197E-05-9.13882E-05 3.30872E-24
 -1       500 3.47943E-05-3.75016E-05-3.30872E-24
 -1       501 4.93737E-05-4.41763E-06 0.00000E+00
 -1       502 4.90872E-05-2.10298E-05-3.30872E-24
 -1       503 4.86153E-05-4.69288E-05 0.00000E+00
 -1       504 4.79800E-05-7.88306E-05-3.30872E-24
 -1       505 4.73161E-05-1.11681E-04-6.61744E-24
 -1       506 4.67750E-05-1.40418E-04-1.65436E-24
 -1       507 4.64175E-05-1.61189E-04 0.00000E+00
 -1       508 4.62289E-05-1.70196E-04 1.65436E-24
 -1       509 4.60733E-05-1.66989E-04-3.30872E-24
 -1       510 4.58027E-05-1.51204E-04-1.65436E-24
 -1       511 4.53534E-05-1.26040E-04-3.30872E-24
 -1       512 4.47376E-05-9.47575E-05-1.65436E-24
 -1       513 4.40903E-05-6.24096E-05 0.00000E+00
 -1       514 4.35586E-05-3.40536E-05 0.00000E+00
 -1       515 4.32065E-05-1.35687E-05 0.00000E+00
 -1       516 4.90280E-05-2.65046E-07 6.61744E-24
 -1       517 5.17104E-05-1.86478E-07 1.65436E-24
 -1       518 5.40176E-05-1.09247E-07 0.00000E+00
 -1       519 5.23652E-05-2.58054E-08 0.00000E+00
 -1       520 4.23987E-05 5.23551E-09-4.13590E-25
 -1       521 4.71016E-05 8.02528E-07-5.29396E-23
 -1       522 4.48537E-05 1.21842E-06-2.64698E-23
 -1       523 4.28323E-05 1.03544E-06 0.00000E+00
 -1       524 4.09914E-05 3.48166E-07 0.00000E+00
 -1       525 3.92980E-05-7.35298E-07 0.00000E+00
 -1       526 3.77093E-05-2.10252E-06 2.64698E-23
 -1       527 3.61826E-05-3.63608E-06 5.29396E-23
 -1       528 3.46730E-05-5.21607E-06 2.64698E-23
 -1       529 3.31356E-05-6.72172E-06 5.29396E-23
 -1       530 3.15258E-05-8.03357E-06 2.64698E-23
 -1       531 2.98003E-05-9.03532E-06 0.00000E+00
 -1       532 2.79182E-05-9.61572E-06 0.00000E+00
 -1       533 2.58398E-05-9.67062E-06 5.29396E-23
 -1       534 2.35357E-05-9.10257E-06 0.00000E+00
 -1       535 2.09644E-05-7.82929E-06 0.00000E+00
 -1       536 4.29910E-05-2.21942E-06 0.00000E+00
 -1       537 4.29806E-05-2.67473E-07 1.65436E-24
 -1       538 4.29711E-05 1.13600E-06 1.65436E-24
 -1       539 4.29637E-05 2.05621E-06-1.65436E-24
 -1       540 4.29569E-05 2.55822E-06 0.00000E+00
 -1       541 4.29505E-05 2.70720E-06 8.27181E-25
 -1       542 4.29441E-05 2.56829E-06 0.00000E+00
 -1       543 4.29378E-05 2.20669E-06 0.00000E+00
 -1       544 4.29315E-05 1.68758E-06 4.13590E-25
 -1       545 4.29252E-05 1.07615E-06 0.00000E+00
 -1       546 4.29189E-05 4.37593E-07-1.03398E-25
 -1       547 4.29126E-05-1.62872E-07 2.58494E-26
 -1       548 4.29065E-05-6.60057E-07 0.00000E+00
 -1       549 4.29007E-05-9.88781E-07 0.00000E+00
 -1       550 4.28949E-05-1.08381E-06 0.00000E+00
 -1       551 3.92901E-05-4.94351E-06-1.65436E-24
 -1       552 3.51494E-05-5.09928E-06 2.48154E-24
 -1       553 3.07765E-05-5.25557E-06 6.61744E-24
 -1       554 2.63604E-05-5.41393E-06 0.00000E+00
 -1       555 2.20899E-05-5.57620E-06-1.32349E-23
 -1       556 4.19129E-05-2.37981E-06-1.32349E-23
 -1       557 4.10246E-05-5.24171E-07-6.61744E-24
 -1       558 4.03247E-05 8.34313E-07 1.32349E-23
 -1       559 3.97910E-05 1.75269E-06 0.00000E+00
 -1       560 3.94015E-05 2.28813E-06 0.00000E+00
 -1       561 3.91343E-05 2.49836E-06-1.32349E-23
 -1       562 3.89675E-05 2.44116E-06 0.00000E+00
 -1       563 3.88793E-05 2.17444E-06-3.30872E-24
 -1       564 3.88480E-05 1.75614E-06 6.61744E-24
 -1       565 3.88518E-05 1.24423E-06 3.30872E-24
 -1       566 3.88690E-05 6.96713E-07 6.61744E-24
 -1       567 3.88779E-05 1.71611E-07 1.65436E-24
 -1       568 3.88568E-05-2.73079E-07 3.30872E-24
 -1       569 3.87845E-05-5.79414E-07-3.61892E-25
 -1       570 3.86398E-05-6.89511E-07 0.00000E+00
 -1       571 4.30118E-05-6.18987E-07 2.89513E-24
 -1       572 4.31360E-05-4.43273E-07-1.65436E-24
 -1       573 4.32611E-05-3.37203E-07-1.65436E-24
 -1       574 4.33868E-05-2.84093E-07 0.00000E+00
 -1       575 4.35126E-05-2.67196E-07-3.30872E-24
 -1       576 4.36386E-05-2.69657E-07 0.00000E+00
 -1       577 4.37645E-05-2.74617E-07 0.00000E+00
 -1       578 4.38905E-05-2.65202E-07 3.30872E-24
 -1       579 4.40165E-05-2.24537E-07 0.00000E+00
 -1       580 4.41424E-05-1.35745E-07 0.00000E+00
 -1       581 4.42684E-05 1.80506E-08 0.00000E+00
 -1       582 4.43943E-05 2.53711E-07 0.00000E+00
 -1       583 4.45201E-05 5.88085E-07 6.61744E-24
 -1       584 4.46458E-05 1.03785E-06 3.30872E-24
 -1       585 4.47713E-05 1.61961E-06-6.61744E-24
 -1       586 4.22519E-05-8.23453E-07 0.00000E+00
 -1       587 4.15174E-05-7.66222E-07-3.30872E-24
 -1       588 4.07262E-05-7.09057E-07 0.00000E+00
 -1       589 3.99177E-05-6.52442E-07 0.00000E+00
 -1       590 3.91313E-05-5.97061E-07 0.00000E+00
 -1       591 4.26981E-05-5.68973E-07 0.00000E+00
 -1       592 4.25192E-05-3.11722E-07 3.30872E-24
 -1       593 4.23555E-05-9.77617E-08 0.00000E+00
 -1       594 4.22037E-05 8.25926E-08 1.65436E-24
 -1       595 4.20608E-05 2.39023E-07 0.00000E+00
 -1       596 4.19231E-05 3.81139E-07 0.00000E+00
 -1       597 4.17871E-05 5.18536E-07 0.00000E+00
 -1       598 4.16493E-05 6.60803E-07 0.00000E+00
 -1       599 4.15061E-05 8.17527E-07 0.00000E+00
 -1       600 4.13538E-05 9.98293E-07 0.00000E+00
 -1       601 4.11890E-05 1.21268E-06 0.00000E+00
 -1       602 4.10081E-05 1.47029E-06 4.13590E-25
 -1       603 4.08075E-05 1.78071E-06 0.00000E+00
 -1       604 4.05841E-05 2.15361E-06 8.27181E-25
 -1       605 4.03348E-05 2.59863E-06-8.27181E-25
 -1       606 4.49429E-05 3.31560E-06 0.00000E+00
 -1       607 4.49864E-05 4.37553E-06 0.00000E+00
 -1       608 4.50289E-05 5.52301E-06 0.00000E+00
 -1       609 4.50709E-05 6.75178E-06 0.00000E+00
 -1       610 4.51127E-05 8.05557E-06 0.00000E+00
 -1       611 4.51543E-05 9.42797E-06 0.00000E+00
 -1       612 4.51957E-05 1.08626E-05-3.30872E-24
 -1       613 4.52371E-05 1.23530E-05 0.00000E+00
 -1       614 4.52785E-05 1.38927E-05 3.30872E-24
 -1       615 4.53197E-05 1.54754E-05 0.00000E+00
 -1       616 4.53609E-05 1.70946E-05 3.30872E-24
 -1       617 4.54021E-05 1.87439E-05 0.00000E+00
 -1       618 4.54432E-05 2.04169E-05-1.65436E-24
 -1       619 4.54842E-05 2.21072E-05 8.27181E-25
 -1       620 4.55250E-05 2.38084E-05 0.00000E+00
 -1       621 4.39931E-05 2.47872E-06 0.00000E+00
 -1       622 4.31169E-05 2.60944E-06 1.65436E-24
 -1       623 4.22768E-05 2.74020E-06 3.30872E-24
 -1       624 4.14816E-05 2.87063E-06 8.27181E-25
 -1       625 4.07400E-05 3.00032E-06-3.30872E-24
 -1       626 4.46139E-05 3.36559E-06 6.61744E-24
 -1       627 4.42934E-05 4.47997E-06 0.00000E+00
 -1       628 4.39394E-05 5.68261E-06-6.61744E-24
 -1       629 4.35559E-05 6.96317E-06 0.00000E+00
 -1       630 4.31469E-05 8.31124E-06 0.00000E+00
 -1       631 4.27165E-05 9.71626E-06-1.65436E-24
 -1       632 4.22685E-05 1.11677E-05 3.30872E-24
 -1       633 4.18071E-05 1.26549E-05-1.65436E-24
 -1       634 4.13362E-05 1.41675E-05-6.61744E-24
 -1       635 4.08597E-05 1.56947E-05 0.00000E+00
 -1       636 4.03816E-05 1.72260E-05 3.30872E-24
 -1       637 3.99059E-05 1.87509E-05 8.27181E-25
 -1       638 3.94364E-05 2.02587E-05-3.30872E-24
 -1       639 3.89770E-05 2.17390E-05 4.13590E-25
 -1       640 3.85310E-05 2.31809E-05-1.65436E-24
 -1       641 4.55669E-05 2.72817E-05 0.00000E+00
 -1       642 4.55666E-05 2.92342E-05 0.00000E+00
 -1       643 4.55660E-05 3.13442E-05 0.00000E+00
 -1       644 4.55650E-05 3.35847E-05 5.16988E-26
 -1       645 4.55637E-05 3.59290E-05-5.16988E-26
 -1       646 4.55622E-05 3.83505E-05 0.00000E+00
 -1       647 4.55605E-05 4.08226E-05 0.00000E+00
 -1       648 4.55588E-05 4.33189E-05 1.29247E-26
 -1       649 4.55571E-05 4.58130E-05 0.00000E+00
 -1       650 4.55554E-05 4.82784E-05 1.29247E-26
 -1       651 4.55538E-05 5.06887E-05-1.03398E-25
 -1       652 4.55521E-05 5.30174E-05-1.03398E-25
 -1       653 4.55507E-05 5.52379E-05 4.13590E-25
 -1       654 4.55485E-05 5.73233E-05 4.13590E-25
 -1       655 4.55470E-05 5.92466E-05-1.65436E-24
 -1       656 4.40380E-05 2.53623E-05 0.00000E+00
 -1       657 4.27222E-05 2.52030E-05-1.65436E-24
 -1       658 4.15446E-05 2.50441E-05 3.30872E-24
 -1       659 4.04310E-05 2.48852E-05 1.65436E-24
 -1       660 3.93075E-05 2.47260E-05-1.65436E-24
 -1       661 4.50738E-05 2.73347E-05 0.00000E+00
 -1       662 4.45343E-05 2.93003E-05-1.65436E-24
 -1       663 4.39488E-05 3.13873E-05 0.00000E+00
 -1       664 4.33264E-05 3.35750E-05 3.30872E-24
 -1       665 4.26741E-05 3.58421E-05 6.61744E-24
 -1       666 4.19999E-05 3.81679E-05 3.30872E-24
 -1       667 4.13114E-05 4.05317E-05 6.61744E-24
 -1       668 4.06164E-05 4.29127E-05 3.30872E-24
 -1       669 3.99226E-05 4.52902E-05 6.61744E-24
 -1       670 3.92379E-05 4.76438E-05 0.00000E+00
 -1       671 3.85700E-05 4.99526E-05 0.00000E+00
 -1       672 3.79266E-05 5.21959E-05 0.00000E+00
 -1       673 3.73155E-05 5.43529E-05-3.30872E-24
 -1       674 3.67436E-05 5.64021E-05 0.00000E+00
 -1       675 3.62202E-05 5.83229E-05 0.00000E+00
 -1       676 4.39011E-05 6.08317E-05 0.00000E+00
 -1       677 4.22632E-05 6.06823E-05 1.65436E-24
 -1       678 4.06274E-05 6.05329E-05-3.30872E-24
 -1       679 3.89949E-05 6.03841E-05 0.00000E+00
 -1       680 3.73667E-05 6.02352E-05 0.00000E+00
 -1       681 1.87141E-05 5.47870E-06 3.30872E-24
 -1       682 1.88178E-05 6.89184E-06 0.00000E+00
 -1       683 1.89209E-05 4.75559E-06 3.30872E-24
 -1       684 1.90172E-05 3.37859E-07-1.65436E-24
 -1       685 1.91057E-05-5.66794E-06 0.00000E+00
 -1       686 1.91887E-05-1.25761E-05 0.00000E+00
 -1       687 1.92686E-05-1.99289E-05 0.00000E+00
 -1       688 1.93487E-05-2.72708E-05 1.65436E-24
 -1       689 1.94319E-05-3.41435E-05 0.00000E+00
 -1       690 1.95208E-05-4.00865E-05-1.65436E-24
 -1       691 1.96175E-05-4.44041E-05 3.30872E-24
 -1       692 1.97211E-05-4.63930E-05-1.65436E-24
 -1       693 1.98244E-05-4.47631E-05 0.00000E+00
 -1       694 1.99076E-05-3.82069E-05 0.00000E+00
 -1       695 1.99142E-05-2.41957E-05 0.00000E+00
 -1       696 1.13643E-05-6.61790E-07 0.00000E+00
 -1       697 6.90853E-06-5.36219E-07-1.65436E-24
 -1       698 4.33366E-06-4.04179E-07 0.00000E+00
 -1       699 2.72220E-06-2.69704E-07 1.65436E-24
 -1       700 1.47623E-06-1.34642E-07 0.00000E+00
 -1       701 1.16862E-05 1.69283E-05 8.27181E-25
 -1       702-2.53707E-06 5.25958E-05 8.27181E-25
 -1       703-2.19419E-05 1.00578E-04 0.00000E+00
 -1       704-4.42318E-05 1.55220E-04 0.00000E+00
 -1       705-6.61931E-05 2.09105E-04 0.00000E+00
 -1       706-8.46270E-05 2.54812E-04 0.00000E+00
 -1       707-9.74493E-05 2.87079E-04-3.30872E-24
 -1       708-1.02780E-04 3.00643E-04-1.65436E-24
 -1       709-1.00757E-04 2.94815E-04-3.30872E-24
 -1       710-9.15841E-05 2.69005E-04 0.00000E+00
 -1       711-7.70964E-05 2.27556E-04 3.30872E-24
 -1       712-5.89883E-05 1.74954E-04 0.00000E+00
 -1       713-3.97267E-05 1.18735E-04 0.00000E+00
 -1       714-2.17199E-05 6.64725E-05-1.65436E-24
 -1       715-7.10792E-06 2.46248E-05 0.00000E+00
 -1       716 1.93728E-05 2.60192E-05 8.27181E-25
 -1       717 1.91424E-05 4.64124E-05 0.00000E+00
 -1       718 1.90084E-05 6.10811E-05-8.27181E-25
 -1       719 1.89385E-05 7.01008E-05 4.13590E-25
 -1       720 1.89011E-05 7.39061E-05 0.00000E+00
 -1       721 1.88702E-05 7.29383E-05 4.13590E-25
 -1       722 1.88283E-05 6.79432E-05 8.27181E-25
 -1       723 1.87654E-05 5.96718E-05 4.13590E-25
 -1       724 1.86819E-05 4.90849E-05 0.00000E+00
 -1       725 1.85836E-05 3.71464E-05 4.13590E-25
 -1       726 1.84817E-05 2.49066E-05-1.65436E-24
 -1       727 1.83875E-05 1.34167E-05-8.27181E-25
 -1       728 1.83106E-05 3.67869E-06 3.30872E-24
 -1       729 1.82513E-05-3.30757E-06-3.30872E-24
 -1       730 1.82108E-05-6.72472E-06 0.00000E+00
 -1       731-4.19782E-06-4.09783E-07 4.13590E-25
 -1       732-1.78731E-05-4.65272E-07-4.13590E-25
 -1       733-2.28329E-05-4.40653E-07 0.00000E+00
 -1       734-2.06024E-05-4.06523E-07 0.00000E+00
 -1       735-1.20855E-05-4.03560E-07 0.00000E+00
 -1       736 5.25221E-06 3.61665E-05-1.65436E-24
 -1       737-1.54718E-05 8.72165E-05 1.65436E-24
 -1       738-3.97031E-05 1.46312E-04 0.00000E+00
 -1       739-6.45512E-05 2.06799E-04-1.65436E-24
 -1       740-8.69421E-05 2.61685E-04 0.00000E+00
 -1       741-1.03910E-04 3.03958E-04 1.65436E-24
 -1       742-1.14012E-04 3.29567E-04 0.00000E+00
 -1       743-1.16002E-04 3.34480E-04 0.00000E+00
 -1       744-1.10527E-04 3.19192E-04 3.30872E-24
 -1       745-9.82370E-05 2.84317E-04 1.65436E-24
 -1       746-8.11459E-05 2.34936E-04 0.00000E+00
 -1       747-6.11073E-05 1.76265E-04 0.00000E+00
 -1       748-4.05320E-05 1.15885E-04 3.30872E-24
 -1       749-2.18042E-05 6.13899E-05 0.00000E+00
 -1       750-6.95549E-06 1.88546E-05-1.65436E-24
 -1       751 1.93371E-05-3.37354E-06-1.32349E-23
 -1       752 2.06029E-05-2.49543E-06-1.32349E-23
 -1       753 2.18642E-05-2.35805E-06 0.00000E+00
 -1       754 2.31401E-05-2.23959E-06-1.32349E-23
 -1       755 2.44165E-05-2.13044E-06 0.00000E+00
 -1       756 2.56959E-05-2.02149E-06 2.64698E-23
 -1       757 2.69756E-05-1.91264E-06-5.29396E-23
 -1       758 2.82558E-05-1.80380E-06 0.00000E+00
 -1       759 2.95360E-05-1.69496E-06 5.29396E-23
 -1       760 3.08160E-05-1.58611E-06 0.00000E+00
 -1       761 3.20957E-05-1.47726E-06 2.64698E-23
 -1       762 3.33734E-05-1.36838E-06 0.00000E+00
 -1       763 3.46508E-05-1.25838E-06 2.64698E-23
 -1       764 3.59181E-05-1.14611E-06 0.00000E+00
 -1       765 3.71887E-05-9.40788E-07 0.00000E+00
 -1       766 1.32114E-05-5.76850E-06 0.00000E+00
 -1       767 4.80597E-06-5.77349E-06 0.00000E+00
 -1       768-3.84326E-06-5.78218E-06 0.00000E+00
 -1       769-9.51599E-06-5.76545E-06 0.00000E+00
 -1       770-8.77598E-06-5.73711E-06 4.13590E-25
 -1       771 1.62341E-05-3.28661E-06 0.00000E+00
 -1       772 1.44905E-05-1.30573E-06 1.32349E-23
 -1       773 1.29137E-05 2.27447E-07 0.00000E+00
 -1       774 1.14875E-05 1.35738E-06-1.32349E-23
 -1       775 1.01960E-05 2.12878E-06 0.00000E+00
 -1       776 9.02213E-06 2.58680E-06-1.32349E-23
 -1       777 7.94894E-06 2.77681E-06 0.00000E+00
 -1       778 6.95926E-06 2.74442E-06-1.32349E-23
 -1       779 6.03590E-06 2.53541E-06 0.00000E+00
 -1       780 5.16159E-06 2.19573E-06 1.32349E-23
 -1       781 4.31912E-06 1.77143E-06 2.64698E-23
 -1       782 3.49130E-06 1.30868E-06 0.00000E+00
 -1       783 2.66099E-06 8.53668E-07-2.64698E-23
 -1       784 1.81177E-06 4.52720E-07 1.32349E-23
 -1       785 9.27304E-07 1.52146E-07 0.00000E+00
 -1       786 3.85025E-05-1.11067E-07 8.27181E-25
 -1       787 3.86056E-05 2.25761E-07 0.00000E+00
 -1       788 3.87086E-05 4.79628E-07-3.30872E-24
 -1       789 3.88126E-05 6.65780E-07 1.65436E-24
 -1       790 3.89167E-05 7.99397E-07-3.30872E-24
 -1       791 3.90210E-05 8.95623E-07 0.00000E+00
 -1       792 3.91254E-05 9.69567E-07 3.30872E-24
 -1       793 3.92298E-05 1.03632E-06-1.65436E-24
 -1       794 3.93342E-05 1.11097E-06-3.30872E-24
 -1       795 3.94386E-05 1.20861E-06 1.65436E-24
 -1       796 3.95430E-05 1.34436E-06-3.30872E-24
 -1       797 3.96473E-05 1.53334E-06 0.00000E+00
 -1       798 3.97515E-05 1.79076E-06-3.30872E-24
 -1       799 3.98554E-05 2.13184E-06 0.00000E+00
 -1       800 3.99592E-05 2.57192E-06 0.00000E+00
 -1       801 3.50319E-05-4.38432E-07 6.61744E-24
 -1       802 2.79863E-05-3.40264E-07 0.00000E+00
 -1       803 1.91137E-05-2.54931E-07-4.13590E-25
 -1       804 1.02609E-05-1.73104E-07 0.00000E+00
 -1       805 3.27467E-06-7.86374E-08 0.00000E+00
 -1       806 3.81080E-05-1.58514E-07 3.30872E-24
 -1       807 3.78216E-05 1.86106E-07 0.00000E+00
 -1       808 3.75471E-05 4.96083E-07 6.61744E-24
 -1       809 3.72821E-05 7.79191E-07 3.30872E-24
 -1       810 3.70240E-05 1.04316E-06-3.30872E-24
 -1       811 3.67702E-05 1.29569E-06-1.65436E-24
 -1       812 3.65178E-05 1.54443E-06 0.00000E+00
 -1       813 3.62639E-05 1.79706E-06-1.65436E-24
 -1       814 3.60057E-05 2.06125E-06 3.30872E-24
 -1       815 3.57402E-05 2.34466E-06 1.65436E-24
 -1       816 3.54647E-05 2.65494E-06 0.00000E+00
 -1       817 3.51763E-05 2.99977E-06 1.65436E-24
 -1       818 3.48721E-05 3.38681E-06 0.00000E+00
 -1       819 3.45497E-05 3.82371E-06 8.27181E-25
 -1       820 3.42065E-05 4.31816E-06 1.65436E-24
 -1       821 3.99457E-05 3.83905E-06 8.27181E-25
 -1       822 3.98238E-05 4.71786E-06 0.00000E+00
 -1       823 3.97017E-05 5.74552E-06 3.30872E-24
 -1       824 3.95785E-05 6.90452E-06 1.65436E-24
 -1       825 3.94550E-05 8.17728E-06 0.00000E+00
 -1       826 3.93311E-05 9.54607E-06-1.65436E-24
 -1       827 3.92071E-05 1.09931E-05 3.30872E-24
 -1       828 3.90830E-05 1.25004E-05 1.65436E-24
 -1       829 3.89588E-05 1.40502E-05-3.30872E-24
 -1       830 3.88346E-05 1.56243E-05-1.65436E-24
 -1       831 3.87105E-05 1.72048E-05-3.30872E-24
 -1       832 3.85865E-05 1.87737E-05 0.00000E+00
 -1       833 3.84627E-05 2.03130E-05 0.00000E+00
 -1       834 3.83398E-05 2.18047E-05 0.00000E+00
 -1       835 3.82169E-05 2.32309E-05 1.65436E-24
 -1       836 3.92474E-05 3.41302E-06 0.00000E+00
 -1       837 3.81852E-05 3.70977E-06 0.00000E+00
 -1       838 3.69937E-05 4.00587E-06 0.00000E+00
 -1       839 3.57928E-05 4.30122E-06-3.30872E-24
 -1       840 3.47024E-05 4.59713E-06 0.00000E+00
 -1       841 3.97968E-05 3.84056E-06 0.00000E+00
 -1       842 3.94618E-05 4.73911E-06-2.06795E-25
 -1       843 3.90658E-05 5.80009E-06 0.00000E+00
 -1       844 3.86169E-05 7.00077E-06 0.00000E+00
 -1       845 3.81236E-05 8.31943E-06 1.03398E-25
 -1       846 3.75941E-05 9.73417E-06 0.00000E+00
 -1       847 3.70365E-05 1.12236E-05 0.00000E+00
 -1       848 3.64587E-05 1.27662E-05 0.00000E+00
 -1       849 3.58689E-05 1.43410E-05 5.16988E-26
 -1       850 3.52749E-05 1.59266E-05 0.00000E+00
 -1       851 3.46848E-05 1.75021E-05-3.23117E-27
 -1       852 3.41063E-05 1.90462E-05 2.58494E-26
 -1       853 3.35477E-05 2.05378E-05 0.00000E+00
 -1       854 3.30162E-05 2.19553E-05 0.00000E+00
 -1       855 3.25209E-05 2.32775E-05 8.27181E-25
 -1       856 3.79612E-05 2.60182E-05 0.00000E+00
 -1       857 3.78151E-05 2.77303E-05-1.65436E-24
 -1       858 3.76687E-05 2.96758E-05 0.00000E+00
 -1       859 3.75209E-05 3.18195E-05-1.65436E-24
 -1       860 3.73726E-05 3.41263E-05 3.30872E-24
 -1       861 3.72238E-05 3.65608E-05 1.65436E-24
 -1       862 3.70748E-05 3.90875E-05 0.00000E+00
 -1       863 3.69256E-05 4.16707E-05 1.65436E-24
 -1       864 3.67763E-05 4.42747E-05 3.30872E-24
 -1       865 3.66271E-05 4.68637E-05-1.65436E-24
 -1       866 3.64780E-05 4.94021E-05 0.00000E+00
 -1       867 3.63292E-05 5.18541E-05 0.00000E+00
 -1       868 3.61809E-05 5.41843E-05 3.30872E-24
 -1       869 3.60334E-05 5.63572E-05 0.00000E+00
 -1       870 3.58863E-05 5.83376E-05 3.30872E-24
 -1       871 3.69737E-05 2.45606E-05 0.00000E+00
 -1       872 3.59435E-05 2.45461E-05 0.00000E+00
 -1       873 3.49740E-05 2.45313E-05 8.27181E-25
 -1       874 3.40288E-05 2.45161E-05-4.13590E-25
 -1       875 3.30716E-05 2.45002E-05 0.00000E+00
 -1       876 3.77636E-05 2.60696E-05 0.00000E+00
 -1       877 3.73492E-05 2.77975E-05 3.30872E-24
 -1       878 3.68595E-05 2.97244E-05-6.61744E-24
 -1       879 3.63072E-05 3.18210E-05 3.30872E-24
 -1       880 3.57023E-05 3.40574E-05 0.00000E+00
 -1       881 3.50559E-05 3.64045E-05 0.00000E+00
 -1       882 3.43787E-05 3.88333E-05-6.61744E-24
 -1       883 3.36816E-05 4.13148E-05 0.00000E+00
 -1       884 3.29753E-05 4.38205E-05 6.61744E-24
 -1       885 3.22708E-05 4.63215E-05 3.30872E-24
 -1       886 3.15788E-05 4.87893E-05 0.00000E+00
 -1       887 3.09100E-05 5.11949E-05 0.00000E+00
 -1       888 3.02753E-05 5.35095E-05 0.00000E+00
 -1       889 2.96844E-05 5.57037E-05 0.00000E+00
 -1       890 2.91500E-05 5.77487E-05 0.00000E+00
 -1       891 3.43478E-05 6.00110E-05 0.00000E+00
 -1       892 3.32344E-05 5.99306E-05 0.00000E+00
 -1       893 3.22570E-05 5.98503E-05-1.65436E-24
 -1       894 3.12687E-05 5.97702E-05 0.00000E+00
 -1       895 3.01229E-05 5.96899E-05-1.65436E-24
 -1       896 1.24004E-07 1.87861E-06 0.00000E+00
 -1       897 2.46686E-07 4.31203E-06-1.65436E-24
 -1       898 3.68425E-07 7.12905E-06 3.30872E-24
 -1       899 4.89527E-07 1.01605E-05 0.00000E+00
 -1       900 6.10301E-07 1.33027E-05 3.30872E-24
 -1       901 7.31046E-07 1.64524E-05-1.65436E-24
 -1       902 8.52062E-07 1.95089E-05 0.00000E+00
 -1       903 9.73625E-07 2.23707E-05 0.00000E+00
 -1       904 1.09608E-06 2.48772E-05 0.00000E+00
 -1       905 1.21963E-06 2.68657E-05 0.00000E+00
 -1       906 1.34437E-06 2.80158E-05 0.00000E+00
 -1       907 1.46961E-06 2.80024E-05 0.00000E+00
 -1       908 1.59292E-06 2.61463E-05 0.00000E+00
 -1       909 1.70795E-06 2.17581E-05 0.00000E+00
 -1       910 1.79776E-06 1.33821E-05 1.65436E-24
 -1       911 1.75542E-06-1.42527E-05 0.00000E+00
 -1       912 1.74486E-06-2.24600E-05-4.13590E-25
 -1       913 1.76120E-06-2.60610E-05-8.27181E-25
 -1       914 1.78367E-06-2.60304E-05 0.00000E+00
 -1       915 1.80264E-06-2.31579E-05 8.27181E-25
 -1       916 1.81384E-06-1.82303E-05 0.00000E+00
 -1       917 1.81783E-06-1.19288E-05 0.00000E+00
 -1       918 1.81737E-06-4.93308E-06 0.00000E+00
 -1       919 1.81657E-06 2.11263E-06 8.27181E-25
 -1       920 1.81962E-06 8.56424E-06 0.00000E+00
 -1       921 1.82957E-06 1.37473E-05 0.00000E+00
 -1       922 1.84736E-06 1.69857E-05 0.00000E+00
 -1       923 1.86962E-06 1.75039E-05-4.13590E-25
 -1       924 1.88745E-06 1.45234E-05 0.00000E+00
 -1       925 1.88238E-06 7.08770E-06 5.16988E-26
 -1       926 1.64175E-06-2.08777E-05-1.65436E-24
 -1       927 1.47246E-06-3.50498E-05 0.00000E+00
 -1       928 1.32627E-06-4.73915E-05 0.00000E+00
 -1       929 1.20838E-06-5.70200E-05 0.00000E+00
 -1       930 1.11473E-06-6.34684E-05-1.65436E-24
 -1       931 1.03719E-06-6.62801E-05-8.27181E-25
 -1       932 9.63237E-07-6.55553E-05 0.00000E+00
 -1       933 8.81186E-07-6.14058E-05 0.00000E+00
 -1       934 7.84600E-07-5.44679E-05-1.65436E-24
 -1       935 6.71305E-07-4.53867E-05 0.00000E+00
 -1       936 5.47280E-07-3.51368E-05 0.00000E+00
 -1       937 4.20507E-07-2.46963E-05 0.00000E+00
 -1       938 3.01319E-07-1.50722E-05 0.00000E+00
 -1       939 1.93157E-07-7.26884E-06 0.00000E+00
 -1       940 1.02036E-07-2.00704E-06 0.00000E+00
 -1       941 2.00534E-06 3.47631E-07 2.64698E-23
 -1       942 4.12183E-06 6.44311E-07 0.00000E+00
 -1       943 6.23130E-06 9.18273E-07-5.29396E-23
 -1       944 8.36194E-06 1.19549E-06 0.00000E+00
 -1       945 1.04932E-05 1.47415E-06 0.00000E+00
 -1       946 1.26287E-05 1.75260E-06-2.64698E-23
 -1       947 1.47647E-05 2.03096E-06 0.00000E+00
 -1       948 1.69014E-05 2.30933E-06-2.64698E-23
 -1       949 1.90381E-05 2.58768E-06 0.00000E+00
 -1       950 2.11744E-05 2.86598E-06-2.64698E-23
 -1       951 2.33102E-05 3.14467E-06 5.29396E-23
 -1       952 2.54427E-05 3.42425E-06 2.64698E-23
 -1       953 2.75747E-05 3.69778E-06 5.29396E-23
 -1       954 2.96898E-05 3.95775E-06 0.00000E+00
 -1       955 3.18105E-05 4.31203E-06-2.64698E-23
 -1       956 3.37336E-05 5.65566E-06-3.30872E-24
 -1       957 3.36233E-05 6.55284E-06-1.65436E-24
 -1       958 3.35124E-05 7.55742E-06 2.48154E-24
 -1       959 3.34013E-05 8.65650E-06 0.00000E+00
 -1       960 3.32900E-05 9.83717E-06 1.65436E-24
 -1       961 3.31786E-05 1.10864E-05-1.65436E-24
 -1       962 3.30672E-05 1.23912E-05-1.65436E-24
 -1       963 3.29556E-05 1.37384E-05 1.65436E-24
 -1       964 3.28441E-05 1.51151E-05 0.00000E+00
 -1       965 3.27325E-05 1.65082E-05 1.65436E-24
 -1       966 3.26209E-05 1.79046E-05 0.00000E+00
 -1       967 3.25094E-05 1.92914E-05-1.65436E-24
 -1       968 3.23979E-05 2.06553E-05 3.30872E-24
 -1       969 3.22867E-05 2.19836E-05 1.65436E-24
 -1       970 3.21758E-05 2.32631E-05 0.00000E+00
 -1       971 3.18611E-05 2.57895E-05 0.00000E+00
 -1       972 3.16499E-05 2.73830E-05 3.30872E-24
 -1       973 3.14383E-05 2.92272E-05 0.00000E+00
 -1       974 3.12254E-05 3.12868E-05 3.30872E-24
 -1       975 3.10121E-05 3.35260E-05 0.00000E+00
 -1       976 3.07983E-05 3.59087E-05 0.00000E+00
 -1       977 3.05842E-05 3.83987E-05 0.00000E+00
 -1       978 3.03699E-05 4.09596E-05-3.30872E-24
 -1       979 3.01555E-05 4.35547E-05 6.61744E-24
 -1       980 2.99412E-05 4.61474E-05 3.30872E-24
 -1       981 2.97270E-05 4.87012E-05-6.61744E-24
 -1       982 2.95132E-05 5.11794E-05 0.00000E+00
 -1       983 2.92999E-05 5.35456E-05-6.61744E-24
 -1       984 2.90880E-05 5.57636E-05-3.30872E-24
 -1       985 2.88764E-05 5.77974E-05-3.30872E-24
 -3
    1PSTEP                        52          26           1          
  100CL  126 8.15479E-01         841                     0   26           1
 -4  STRESS      6    1
 -5  SXX         1    4    1    1
 -5  SYY         1    4    2    2
 -5  SZZ         1    4    3    3
 -5  SXY         1    4    1    2
 -5  SYZ         1    4    2    3
 -5  SZX         1    4    3    1
 -1         1-3.05902E+06-1.02688E+06-6.22640E+05-1.00781E+06-2.42532E-10-2.31861E-09
 -1         2-1.36145E+06-3.27222E+04 4.27013E+04 5.25453E+03-5.35965E-09 1.21690E-09
 -1         3-1.11874E+06-3.37985E+05-4.95233E+04-2.05481E+04 4.90036E-09 3.41788E-09
 -1         4-8.87996E+05-4.20890E+04 1.45778E+04-3.94278E+04 4.98858E-09-2.21371E-09
 -1         5-8.69798E+05-2.74818E+03-2.81189E+05-1.79135E+04 2.25391E-08 5.26359E-09
 -1         8-1.13375E+06-4.38080E+05-8.16208E+04-6.25040E+05 8.00355E-10-2.94676E-09
 -1         9-1.45909E+06-3.99780E+05-1.25894E+05-4.30279E+05 3.49246E-10-1.73410E-09
 -1        10-4.83984E+04-1.93551E+05 1.54930E+05-2.43252E+03-1.26443E-08-1.98785E-09
 -1        11-1.01276E+05 5.67140E+04 2.74971E+04-7.58441E+04-3.67529E-08 1.75608E-09
 -1        12-8.00570E+04 1.87517E+05-8.85781E+04-1.92005E+04 2.70381E-09 6.57580E-09
 -1        15 1.02158E+05 1.58282E+05 3.38817E+04 3.29770E+04-5.85260E-10 9.83709E-09
 -1        16-1.34150E+06-2.74218E+05 1.76572E+04-5.04567E+05 1.35939E-09 5.55641E-09
 -1        17-6.13357E+05-4.10018E+05-5.55614E+04-3.50066E+05-6.40284E-09-1.37031E-09
 -1        18 4.87137E+04 1.16649E+04-1.31816E+04-8.93813E+04 7.03706E-09-4.08121E-09
 -1        19 9.98482E+04 1.42102E+05-1.73049E+04-5.27370E+01-1.38046E-09 2.93585E-09
 -1        20 1.08877E+05-8.21682E+04-1.39762E+04 5.88486E+04 2.25737E-09-2.00907E-09
 -1        21 3.90344E+03-1.62396E+05 4.57227E+04 1.09189E+02 1.43938E-08-3.71268E-10
 -1        22 9.38233E+04 1.84466E+05 1.97147E+04 2.31900E+04-4.33374E-10-4.58112E-09
 -1        23-2.18138E+04 1.33388E+05 3.12292E+04 2.01081E+04-9.97261E-09-4.87004E-09
 -1        24-3.64544E+05-6.45758E+04 2.75998E+05-5.33723E+05-1.78673E-08 2.94919E-09
 -1        25 6.14096E+05 2.12308E+05 1.89722E+05-3.19778E+05 1.41578E-09-6.66356E-10
 -1        26 6.00501E+02 1.71692E+05 8.50974E+03-2.84911E+04-1.01287E-09-8.28398E-10
 -1        27-3.67499E+04-6.85535E+04-2.96313E+04 8.33341E+04-3.12563E-10-5.57278E-09
 -1        28-1.31618E+04-1.29464E+05-7.24470E+02 6.24526E+04-4.95902E-09-1.75029E-09
 -1        29 1.81785E+05 1.93448E+05 7.50834E+02 5.86493E+03 3.70579E-10 1.52994E-09
 -1        30 1.24414E+05 3.90900E+04 1.83313E+04-2.76578E+01 3.72500E-09-1.90703E-08
 -1        31 2.20901E+03 5.02229E+04 2.51020E+04-2.34020E+04 5.74210E-09-2.17251E-08
 -1        32 1.17273E+06 5.84539E+05 7.05117E+05-5.31526E+05 1.35065E-08 5.71890E-09
 -1        33 1.49567E+06 5.94320E+05 4.57973E+05-4.59357E+04-3.01210E-08 5.84805E-10
 -1        34-2.17200E+05-2.62873E+04-3.98220E+03 4.91125E+04-1.07846E-09 7.10315E-10
 -1        35-3.73429E+04-4.31252E+04-7.98621E+02 9.38567E+04 6.46567E-09 8.06419E-10
 -1        36-3.21198E+06 8.65177E+04-1.99713E+05-1.95600E-07-1.00278E-09-3.04135E-09
 -1        37-3.29847E+06-1.00139E+05-1.41375E+05 5.48217E-07 1.35748E-09-9.56425E-09
 -1        38-3.24533E+06 1.35599E+04-5.16497E+04-7.99704E-09-2.24194E-09-1.66256E-09
 -1        39-3.25944E+06-1.56915E+04-3.24878E+04-4.92552E-07 4.56509E-10-5.48744E-09
 -1        40-3.25081E+06 2.12133E+03-1.32707E+04-2.68040E-07-4.05260E-09 4.47108E-09
 -1        41-3.25300E+06-2.48714E+03-7.93762E+03 2.77656E-08-8.52936E-10 5.02223E-09
 -1        42-3.25171E+06 3.64389E+02-3.90437E+03-7.67344E-09 1.51172E-09-8.35848E-09
 -1        43-3.25205E+06-6.53345E+02-3.14697E+03 1.34624E-07 9.55294E-10-7.07066E-09
 -1        44-3.25176E+06 2.88686E+02-3.22912E+03-2.14305E-07 1.75704E-09 3.21165E-09
 -1        45-3.25265E+06-1.83622E+03-5.98107E+03 2.90607E-07-2.98553E-09-5.96970E-09
 -1        46-3.25111E+06 1.54649E+03-9.74941E+03-4.48538E-07-2.74105E-09 2.87127E-09
 -1        47-3.25732E+06-1.14171E+04-2.36804E+04-4.85459E-07-3.81781E-09 1.19599E-10
 -1        48-3.24713E+06 9.86298E+03-3.75929E+04-1.46216E-07-1.20058E-11 1.12050E-09
 -1        49-3.28570E+06-7.28365E+04-1.02841E+05-2.36607E-07-1.50953E-09 3.28873E-09
 -1        50-3.22289E+06 6.29245E+04-1.45299E+05-4.62798E-07-9.41494E-09 6.91216E-09
 -1        51 3.66657E+04-4.42116E+05 5.86193E+04-1.17454E+06-1.45519E-11-8.61473E-09
 -1        52 1.80158E+04-4.38963E+05 3.58076E+04-1.29280E+06 5.45697E-10-2.61934E-09
 -1        53 1.27318E+04-4.52620E+05 2.87522E+04-1.17140E+06 1.38243E-10-1.02009E-08
 -1        54 2.82740E+04-4.49689E+05 4.38474E+04-1.29606E+06-1.13505E-09-5.98448E-09
 -1        55 6.10042E+04-4.64207E+05 7.93073E+04-1.17075E+06-5.23869E-10-1.45519E-11
 -1        56-5.54821E+06-6.23031E+05-4.62556E+05-2.14604E+06 5.31145E-10 5.47152E-09
 -1        57-5.75636E+06-1.01031E+06-3.10563E+05-2.10252E+06 1.09685E-09-7.60338E-09
 -1        58-5.63847E+06-7.69018E+05-1.08798E+05-2.12015E+06-5.76620E-10 3.90719E-09
 -1        59-5.65270E+06-8.37483E+05-6.45097E+04-2.13243E+06-2.59661E-10 9.73432E-09
 -1        60-5.65033E+06-7.90068E+05-2.53885E+04-2.11799E+06 2.47110E-09 3.10138E-09
 -1        61-5.64098E+06-8.10657E+05-1.43543E+04-2.13248E+06-3.03658E-10-2.20632E-09
 -1        62-5.64983E+06-7.95123E+05-6.99641E+03-2.12027E+06 1.80671E-09-3.93243E-10
 -1        63-5.64450E+06-8.02396E+05-5.83088E+03-2.12662E+06-1.01602E-09 3.27998E-09
 -1        64-5.64673E+06-7.98271E+05-6.80674E+03-2.12384E+06-7.53971E-10 8.98626E-09
 -1        65-5.65252E+06-7.98806E+05-1.37776E+04-2.11911E+06-1.81501E-10 6.65932E-09
 -1        66-5.64186E+06-7.98787E+05-2.43112E+04-2.12776E+06-1.27307E-09 1.24965E-09
 -1        67-5.67219E+06-8.15982E+05-6.16959E+04-2.10940E+06-2.31012E-10-3.02316E-09
 -1        68-5.62739E+06-7.81783E+05-1.04052E+05-2.13340E+06-7.83984E-10 8.94943E-10
 -1        69-5.77463E+06-9.77989E+05-2.96984E+05-2.07711E+06 2.54659E-09 2.08456E-09
 -1        70-5.54095E+06-6.42301E+05-4.42366E+05-2.15829E+06-1.34605E-09 1.19326E-09
 -1        71-2.45466E+06 3.29110E+04-7.60434E+04-6.30073E-08-1.58336E-09-1.94632E-09
 -1        72-2.48745E+06-3.80976E+04-5.38125E+04-4.34330E-07-8.18380E-10 4.93674E-09
 -1        73-2.46735E+06 5.15901E+03-1.96804E+04 2.00458E-07-7.88404E-10 4.47199E-09
 -1        74-2.47261E+06-5.97231E+03-1.23994E+04 2.78699E-07-1.63596E-09 1.10176E-08
 -1        75-2.46943E+06 8.09197E+02-5.11268E+03-7.88706E-08-4.60113E-09 3.43562E-09
 -1        76-2.47017E+06-9.62499E+02-3.14756E+03-1.68895E-07-3.39186E-09 7.17347E-09
 -1        77-2.46977E+06 1.52741E+02-1.72038E+03-1.29920E-07-1.91869E-09 3.82425E-09
 -1        78-2.46986E+06-3.54794E+02-1.71159E+03-5.67271E-07-2.20706E-09-6.25484E-10
 -1        79-2.46974E+06 2.01905E+02-2.15954E+03-1.27987E-07-2.13851E-09-3.33102E-11
 -1        80-2.47040E+06-1.38525E+03-4.41962E+03 3.10912E-08 4.62236E-10 5.87568E-09
 -1        81-2.46924E+06 1.18253E+03-7.40210E+03 2.50915E-07-1.82614E-10 2.94767E-09
 -1        82-2.47399E+06-8.74823E+03-1.81234E+04-3.24167E-07 3.87780E-09-5.59521E-09
 -1        83-2.46617E+06 7.55978E+03-2.88170E+04-7.77696E-07-9.08903E-10-6.25005E-09
 -1        84-2.49574E+06-5.58289E+04-7.88466E+04-2.27623E-07-3.65316E-09-2.06637E-09
 -1        85-2.44757E+06 4.82303E+04-1.11415E+05-5.52759E-08-5.96814E-09 3.12139E-09
 -1        86-6.10589E+04-7.80061E+04 1.42913E+05 3.57361E+03-1.45519E-10 8.00893E-09
 -1        87 7.75179E+04-8.08800E+03 1.14281E+05-1.40436E+04-1.07775E-09-1.46011E-09
 -1        88-1.63586E+04-5.51085E+04 6.19833E+04 3.72716E+03-2.32103E-09 3.86319E-09
 -1        89 6.32540E+04-1.61167E+04 9.55462E+04-1.41022E+04 1.60071E-10 3.51958E-09
 -1        90-4.67828E+04-7.00270E+04 1.11503E+05 3.63249E+03-2.48838E-09-2.83470E-09
 -1        91-1.05719E+06-2.77346E+05-2.21904E+04-4.53785E+05 3.33039E-08-3.57977E-09
 -1        92-4.36472E+05 1.65367E+05 1.42767E+05 4.04870E+04 6.74727E-08-3.76258E-09
 -1        93-7.05104E+05-1.66483E+05 6.07169E+03-3.79553E+05-1.28862E-08-6.46833E-09
 -1        94-1.29389E+05 1.12125E+05 1.63750E+05 8.65274E+04-5.46228E-08 7.32393E-09
 -1        95-1.35715E+06-2.32232E+05-1.42519E+05-4.92976E+05-1.28884E-08-2.72257E-09
 -1        96 1.78189E+05-1.45706E+04 1.92693E+05-4.07031E+04 6.32590E-08 8.47035E-09
 -1        97-1.00832E+06-4.41385E+04-4.43015E+04-2.49789E+05-8.04903E-10 1.14998E-08
 -1        98-2.10485E+05-1.97012E+05 7.96208E+04-3.04222E+05-3.90687E-08 2.17317E-08
 -1        99-9.80791E+05-3.63602E+04-3.81443E+04-2.39460E+05 5.43641E-08 1.04984E-08
 -1       100 1.59438E+05-2.55157E+04 1.85591E+05-5.49884E+04 3.68836E-08 2.54538E-08
 -1       101-1.36646E+06-2.28550E+05-1.46396E+05-4.89475E+05 1.65064E-08 1.20444E-08
 -1       102-1.00859E+05 1.08773E+05 1.62628E+05 9.01459E+04-7.12919E-09 3.80624E-09
 -1       103-7.23695E+05-1.67462E+05-1.02369E+04-3.86130E+05-4.60186E-08-1.49669E-09
 -1       104-4.59514E+05 1.40363E+05 1.06462E+05 4.40835E+04 8.39839E-09-2.97405E-09
 -1       105-1.01579E+06-2.51105E+05-6.53660E+04-4.51036E+05 1.75194E-08 1.21363E-08
 -1       106-2.01243E+06 3.12454E+04-7.22046E+04-1.78963E-07 4.97502E-09-2.40107E-09
 -1       107-2.04360E+06-3.61698E+04-5.10965E+04-4.64198E-07-7.80691E-10-4.42833E-09
 -1       108-2.02448E+06 4.89785E+03-1.86879E+04-2.95604E-07-1.68474E-09 2.17369E-10
 -1       109-2.02951E+06-5.66948E+03-1.17685E+04-4.31582E-07-1.47532E-09-2.74031E-09
 -1       110-2.02647E+06 7.67693E+02-4.84122E+03-7.66683E-08 3.95251E-10 4.30600E-09
 -1       111-2.02719E+06-9.09387E+02-2.95646E+03 1.33547E-07 7.94231E-10 4.41833E-09
 -1       112-2.02679E+06 1.41170E+02-1.57133E+03 6.47007E-08 2.43892E-09 2.41755E-10
 -1       113-2.02688E+06-3.07879E+02-1.48654E+03 1.90708E-07-3.77965E-09-5.90017E-10
 -1       114-2.02677E+06 1.66581E+02-1.79847E+03 1.74198E-07-7.04312E-10-2.52123E-09
 -1       115-2.02731E+06-1.12787E+03-3.61428E+03-8.08870E-08-5.33390E-10-3.37417E-09
 -1       116-2.02636E+06 9.60632E+02-6.02520E+03 2.57325E-07 1.08061E-09 3.31397E-09
 -1       117-2.03022E+06-7.10416E+03-1.47279E+04-2.62221E-07-2.32513E-09 7.27141E-09
 -1       118-2.02388E+06 6.13861E+03-2.34117E+04-2.24799E-07-3.33115E-09 4.11092E-09
 -1       119-2.04788E+06-4.53333E+04-6.40371E+04 1.82636E-07 3.87457E-10-2.65209E-09
 -1       120-2.00877E+06 3.91626E+04-9.04890E+04-1.47784E-07 1.30776E-09 5.99175E-09
 -1       121-1.82842E+03-1.12830E+06 7.11690E+03-6.84130E+03-1.37970E-09 5.11136E-09
 -1       122 2.01823E+03-1.12532E+06 3.56301E+03-2.59608E+04-3.50389E-09-2.33786E-09
 -1       123-6.24272E+01-1.12702E+06-6.31392E+02-6.15029E+03-3.53316E-09-3.38787E-09
 -1       124-2.74463E+03-1.12847E+06-5.24411E+03-2.72010E+04-6.99038E-09-7.15363E-09
 -1       125 2.07032E+03-1.12545E+06-9.59353E+03-5.60300E+03-5.54201E-09-5.35783E-09
 -1       126-4.24776E+05-1.17716E+05 4.07757E+04-1.56484E+05 2.40407E-08 4.69299E-10
 -1       127-9.91583E+04 7.52017E+04 9.59704E+04-5.67703E+03 5.65824E-08 3.26781E-09
 -1       128-2.80803E+05-7.07169E+04 1.03471E+04-1.38393E+05 2.43019E-08-3.75530E-09
 -1       129-2.77417E+05 2.02433E+04 1.83715E+04-3.28208E+04 5.16638E-08 3.18823E-09
 -1       130-2.49309E+05-6.07071E+04 3.17017E+03-1.31710E+05 7.73171E-08-1.93450E-09
 -1       131-1.91726E+05 2.24421E+04 2.81894E+04-1.01462E+04-6.46438E-08-8.17926E-09
 -1       132-3.64904E+05-7.41124E+04-2.47910E+04-1.59674E+05-9.31891E-09 9.02719E-09
 -1       133-9.02495E+02 2.38211E+04 6.38664E+04 1.55132E+04 6.03186E-08 5.42258E-09
 -1       134-4.36815E+05-6.45988E+04-3.75349E+04-1.54800E+05 3.08141E-08-2.93608E-09
 -1       135-3.39436E+03-2.06906E+04 5.41563E+04-4.11215E+04 1.95183E-08-1.15705E-08
 -1       136-3.63066E+05-2.91432E+04-1.73586E+04-1.03834E+05-1.55019E-08-2.13817E-09
 -1       137-1.55738E+05-7.40230E+04 1.31869E+04-1.27441E+05-2.77068E-08-8.43903E-09
 -1       138-2.88125E+05-8.46767E+03-1.13179E+03-7.10834E+04 5.62844E-08 1.35174E-08
 -1       139-1.58879E+05-7.13895E+04 9.06031E+03-1.30735E+05-6.23714E-08-4.20328E-08
 -1       140-3.60039E+05-3.16852E+04-2.77136E+04-1.00618E+05-4.39085E-08-5.43241E-09
 -1       141-1.65749E+06 2.54593E+04-5.88498E+04-4.02173E-08-5.03240E-09-3.69619E-09
 -1       142-1.68289E+06-2.94726E+04-4.16564E+04-1.53316E-07-5.80354E-09 5.98084E-09
 -1       143-1.66732E+06 3.99158E+03-1.52631E+04-3.97069E-07-2.96170E-09 5.89353E-10
 -1       144-1.67142E+06-4.62493E+03-9.65771E+03-3.46848E-07-2.10657E-09-9.12564E-10
 -1       145-1.66893E+06 6.30107E+02-4.07206E+03-2.55951E-07-3.57458E-10 1.22554E-09
 -1       146-1.66955E+06-7.75972E+02-2.67830E+03-3.67892E-07 2.69248E-10 4.31132E-09
 -1       147-1.66918E+06 1.45429E+02-1.78353E+03-3.92199E-08-4.61266E-11 3.09252E-09
 -1       148-1.66942E+06-4.79798E+02-2.31826E+03-1.20551E-07 6.15435E-10-1.56012E-09
 -1       149-1.66907E+06 3.34170E+02-3.47172E+03-3.36150E-08-6.91480E-10-2.13697E-09
 -1       150-1.67043E+06-2.39886E+03-7.56690E+03 1.09674E-07-4.63987E-10 2.48974E-11
 -1       151-1.66818E+06 2.06332E+03-1.28702E+04-1.60014E-07-2.57668E-09 5.37057E-09
 -1       152-1.67671E+06-1.52811E+04-3.16466E+04 3.49958E-07-5.37042E-11 4.68981E-09
 -1       153-1.66282E+06 1.32078E+04-5.03586E+04 7.69113E-08 6.71104E-09 2.45564E-09
 -1       154-1.71470E+06-9.75387E+04-1.37784E+05-3.54748E-07 1.77923E-09-2.95768E-09
 -1       155-1.63026E+06 8.42692E+04-1.94624E+05-4.32163E-08 1.37025E-08-6.54836E-10
 -1       156-3.94698E+04-5.68399E+04 8.36353E+04 1.99178E+04 6.67933E-09-2.25043E-09
 -1       157 4.43717E+04 2.98469E+04 6.90520E+04-8.02660E+04 1.81226E-08 8.39790E-10
 -1       158-4.19384E+03-3.22719E+04 2.44215E+04 1.97052E+04 9.29595E-09-1.96462E-09
 -1       159 2.28555E+04 1.19883E+05 5.11726E+04-7.80066E+04 4.49833E-09-1.75419E-09
 -1       160-1.98233E+04-1.44341E+05-6.82125E+03 1.76818E+04-1.24214E-08-5.24460E-09
 -1       161-4.41314E+05-1.07522E+05 2.58094E+04-1.67171E+05-3.87017E-08 2.43017E-09
 -1       162-2.05373E+05 4.45270E+04 6.90189E+04-4.16225E+04-4.50500E-08-9.83164E-10
 -1       163-3.18028E+05-7.32577E+04 8.69094E+03-1.53028E+05 3.97771E-08-1.00708E-08
 -1       164-3.33877E+05 7.62947E+03 1.40825E+04-5.68760E+04 2.16119E-09 3.54441E-09
 -1       165-3.14804E+05-6.91063E+04-5.58576E+02-1.53605E+05-9.60126E-08-1.10530E-08
 -1       166-2.25868E+05 9.82605E+03 3.03375E+04-3.54058E+04-5.37287E-08 8.25275E-09
 -1       167-4.24087E+05-7.69737E+04-2.53654E+04-1.72830E+05 6.83531E-09-5.20686E-10
 -1       168-9.33941E+04-5.03780E+03 5.17092E+04-3.85010E+04 3.23452E-08-1.27818E-09
 -1       169-4.45184E+05-5.58868E+04-2.66751E+04-1.48971E+05-8.08700E-08 5.43173E-09
 -1       170-1.59312E+05-5.85256E+04 2.65846E+04-1.11514E+05-1.88935E-07-1.14795E-08
 -1       171-3.60161E+05-2.19440E+04-7.60981E+03-1.01457E+05 1.03505E-07 3.80024E-08
 -1       172-2.48157E+05-9.40198E+04-4.88548E+03-1.59834E+05 5.25670E-08 1.08877E-08
 -1       173-3.58454E+05-1.87197E+04-2.17311E+04-1.02152E+05-7.60472E-08 1.77079E-09
 -1       174-1.75465E+05-8.62888E+04-2.12554E+04-1.05718E+05 7.65743E-08 1.59916E-08
 -1       175-4.30721E+05-3.13789E+04-1.04396E+05-1.54051E+05 3.77868E-08 7.20320E-10
 -1       191 2.16484E+03 5.64463E+05 3.40366E+03-3.32026E+04-8.58563E-10 9.89530E-09
 -1       192 7.44184E+02 5.64946E+05 1.80578E+03-3.61062E+04-1.17495E-09 1.82263E-08
 -1       193 2.20635E+02 5.64622E+05 1.06770E+03-3.29198E+04-2.17551E-09 5.72982E-10
 -1       194 4.07883E+02 5.64772E+05 1.14317E+03-3.65986E+04-2.42744E-09-1.92076E-08
 -1       195 1.07940E+03 5.64498E+05 1.75877E+03-3.27083E+04-3.07773E-09-6.51835E-09
 -1       251-1.24253E+06-4.46902E+04-4.60681E+04-8.96113E+04-3.33330E-09-1.54705E-08
 -1       252-5.21737E+05 3.70572E+04 9.59860E+04 2.35756E+05 9.05771E-10 2.98005E-08
 -1       253-9.88627E+05 1.39803E+04-6.49681E+03-1.10222E+05 5.74528E-09-1.50412E-08
 -1       254-2.07140E+05 2.26672E+04 1.44497E+05 1.41469E+05-2.15914E-09 6.05360E-09
 -1       255-1.54604E+06-4.21210E+04-1.28406E+05 4.81052E+03-9.44965E-09-2.70450E-09
 -1       256-1.08189E+05 3.08124E+04 1.62984E+05-1.00966E+05 9.00559E-09-1.42625E-08
 -1       257-1.08425E+06 2.54322E+03-3.29896E+04 1.31341E+05-6.33918E-09 2.51786E-08
 -1       258-5.70520E+05 3.47110E+03 6.66632E+04-2.25726E+05 4.75706E-09-3.01250E-08
 -1       259-1.09877E+06 1.02964E+03-3.59718E+04 1.30439E+05-2.00253E-08 3.14524E-08
 -1       260-9.58324E+04 3.16666E+04 1.65757E+05-9.64167E+04 8.63884E-09-1.60835E-08
 -1       261-1.54351E+06-4.18230E+04-1.27476E+05 1.16201E+03 1.86265E-09 3.71801E-09
 -1       262-2.20726E+05 2.20487E+04 1.42517E+05 1.45786E+05 7.91101E-09 7.21047E-09
 -1       263-9.78012E+05 1.47428E+04-2.72594E+03-1.10885E+05-2.34104E-08-1.57147E-08
 -1       264-5.15914E+05 4.03685E+04 1.01026E+05 2.34603E+05-8.25291E-08 1.53432E-08
 -1       265-1.25881E+06-4.89427E+04-4.35169E+04-8.77904E+04-3.41693E-08-1.56142E-08
 -1       266-4.58799E+04 1.24106E+04 1.06017E+05-7.20775E+03 7.27596E-12 6.77738E-09
 -1       267 5.23083E+04 6.34557E+04 7.50336E+04 2.88358E+04-3.91083E-11 4.86606E-09
 -1       268-6.45233E+03 2.83122E+04 2.53661E+04-7.13649E+03-2.91038E-11 5.17844E-10
 -1       269 7.11966E+03 6.36071E+04 1.82788E+04 2.92594E+04-7.43512E-11 8.12611E-09
 -1       270-1.10414E+03 1.27708E+04-4.23574E+03-7.63939E+03 7.91260E-11 1.12858E-08
 -1       271-4.49086E+06-5.73124E+05-3.52149E+05-1.74126E+06-1.53523E-09-8.38190E-09
 -1       272-4.61429E+06-7.93286E+05-2.20859E+05-1.74092E+06-6.67569E-10-1.20199E-08
 -1       273-4.55314E+06-6.47531E+05-8.29857E+04-1.73082E+06 2.90129E-10 1.03901E-08
 -1       274-4.54109E+06-6.95713E+05-4.52452E+04-1.76054E+06 8.09905E-10-7.44149E-09
 -1       275-4.56170E+06-6.53622E+05-1.92660E+04-1.72816E+06-6.05723E-10-1.32786E-10
 -1       276-4.53065E+06-6.88274E+05-1.01186E+04-1.76530E+06-1.80080E-10-1.22559E-08
 -1       277-4.56369E+06-6.53246E+05-5.18279E+03-1.72685E+06-6.98947E-10-3.50178E-09
 -1       278-4.52844E+06-6.88815E+05-3.99550E+03-1.76725E+06-7.52607E-11-9.37320E-10
 -1       279-4.56412E+06-6.52832E+05-4.72499E+03-1.72641E+06-1.85423E-10-2.62185E-09
 -1       280-4.52914E+06-6.89634E+05-8.90072E+03-1.76721E+06 1.17666E-10-3.00133E-09
 -1       281-4.56302E+06-6.52508E+05-1.67319E+04-1.72687E+06 5.91626E-10 8.24093E-09
 -1       282-4.53723E+06-6.97120E+05-3.92800E+04-1.76435E+06-7.18501E-11-2.71393E-09
 -1       283-4.55606E+06-6.46765E+05-7.19525E+04-1.72868E+06 2.55159E-09 7.63976E-11
 -1       284-4.59999E+06-7.82494E+05-1.91577E+05-1.74817E+06 6.36646E-11 3.90355E-09
 -1       285-4.50233E+06-5.81969E+05-3.05461E+05-1.73742E+06-2.98314E-10 8.09086E-09
 -1       286-1.15574E+05-4.35862E+04 1.00737E+05 1.18079E+02 1.03273E-09 1.70985E-09
 -1       287-7.09704E+04 5.04587E+04 7.14091E+04-1.24250E+03 5.95151E-11 2.98314E-09
 -1       288-9.86270E+04-6.83522E+03 2.60514E+04 3.74612E+02-2.90072E-10 1.04592E-09
 -1       289-9.08509E+04 7.90722E+03 1.64707E+04-1.73095E+03-2.83649E-11-5.44787E-10
 -1       290-9.57186E+04-1.06819E+03 6.70776E+03 6.06573E+02 1.11896E-09-1.29876E-09
 -1       291-9.43000E+04 1.25319E+03 4.04938E+03-2.07529E+03 1.93683E-09-4.39400E-09
 -1       292-9.51850E+04-1.82351E+02 2.01442E+03 7.18956E+02 1.66141E-09-2.34240E-09
 -1       293-9.48301E+04 3.41995E+02 1.67507E+03-2.15885E+03 3.81196E-10 1.05876E-09
 -1       294-9.51902E+04-1.56550E+02 1.77350E+03 6.90135E+02 1.45027E-09 2.11878E-09
 -1       295-9.43498E+04 1.02695E+03 3.37820E+03-1.96436E+03 5.79856E-10-5.10926E-09
 -1       296-9.56619E+04-8.69251E+02 5.46424E+03 5.24461E+02 1.20014E-09 3.12525E-09
 -1       297-9.14861E+04 6.41802E+03 1.34107E+04-1.52585E+03 6.63569E-10-1.18621E-09
 -1       298-9.80463E+04-5.54805E+03 2.11231E+04 2.51621E+02-1.58977E-10 1.63709E-10
 -1       299-7.53391E+04 4.09402E+04 5.79676E+04-9.70805E+02-9.60704E-10 2.87400E-10
 -1       300-1.11790E+05-3.53652E+04 8.16957E+04-3.06224E+01 1.43160E-10 5.85715E-10
 -1       301 6.04556E+04-8.89305E+03 1.35784E+05-3.67213E+04-8.36735E-10 4.83857E-09
 -1       302 2.05895E+04 1.67346E+04 8.39648E+04-4.33519E+04-1.13459E-09-2.24263E-09
 -1       303 5.84210E+03 1.31920E+02 6.84649E+04-3.68214E+04-1.14414E-09-4.85443E-09
 -1       304 2.77467E+04 2.10549E+04 1.03395E+05-4.33011E+04-1.43336E-09-1.45008E-08
 -1       305 8.36092E+04-1.31713E+04 1.82873E+05-3.67177E+04-8.87667E-10-3.58659E-09
 -1       306-2.97162E+06-3.90528E+05-1.92441E+05-1.15130E+06-5.03860E-10-3.91447E-09
 -1       307-3.02009E+06-5.29108E+05-1.20577E+05-1.17250E+06 1.12846E-09-9.97534E-09
 -1       308-3.00582E+06-4.30832E+05-4.53800E+04-1.14550E+06 6.43468E-10-1.26784E-09
 -1       309-2.98031E+06-4.75952E+05-2.47451E+04-1.18344E+06 3.04681E-11 3.09274E-09
 -1       310-3.01046E+06-4.34165E+05-1.05755E+04-1.14414E+06 7.98082E-10 1.66347E-09
 -1       311-2.97497E+06-4.71617E+05-5.62669E+03-1.18580E+06 1.77624E-09 6.27779E-10
 -1       312-3.01135E+06-4.34157E+05-3.01800E+03-1.14366E+06 1.80830E-09 3.90496E-09
 -1       313-2.97428E+06-4.71417E+05-2.59745E+03-1.18624E+06 7.18899E-10 7.23981E-09
 -1       314-3.01122E+06-4.34263E+05-3.42533E+03-1.14377E+06-4.42992E-09-2.81170E-09
 -1       315-2.97544E+06-4.71365E+05-6.73217E+03-1.18527E+06-2.36219E-09 2.72303E-09
 -1       316-3.01001E+06-4.34389E+05-1.28427E+04-1.14447E+06 2.46700E-09 3.58705E-09
 -1       317-2.98205E+06-4.76560E+05-3.01392E+04-1.18229E+06 1.54614E-10-6.25187E-09
 -1       318-3.00436E+06-4.30304E+05-5.53105E+04-1.14611E+06-8.08086E-10 1.49885E-09
 -1       319-3.03044E+06-5.41513E+05-1.46986E+05-1.16918E+06-2.78931E-09-1.92631E-09
 -1       320-2.96283E+06-3.80983E+05-2.34537E+05-1.15301E+06-1.96997E-09-1.48430E-09
 -1       321-3.41588E+05-3.31001E+04 5.55515E+04-9.75822E+03-8.88190E-09-4.43833E-09
 -1       322-2.14370E+05 3.74710E+04 5.75054E+04 3.01690E+04-3.38866E-08 1.14233E-08
 -1       323-2.94787E+05-4.50952E+03 1.50223E+04-1.86767E+04 5.59737E-09-9.80617E-09
 -1       324-2.71976E+05 5.11122E+03 1.22548E+04 4.03946E+04 3.75844E-08 8.78686E-09
 -1       325-2.85126E+05 1.23320E+02 4.12468E+03-2.00191E+04-4.54702E-09-1.28223E-08
 -1       326-2.50221E+05 1.24650E+03 8.86548E+03 3.51951E+04-1.60080E-08 4.23356E-09
 -1       327-3.15920E+05-1.13895E+03-5.45568E+03-1.34542E+04 2.53817E-08-9.46477E-09
 -1       328-1.94703E+05 2.69025E+03 1.81936E+04 1.54596E+04-2.59206E-09 5.36807E-09
 -1       329-3.39195E+05-2.46190E+03-1.11423E+04-2.71503E+02 6.00858E-09 1.84772E-09
 -1       330-1.90148E+05 2.81410E+03 1.84568E+04-1.13877E+04 1.52437E-08-5.86056E-10
 -1       331-3.20352E+05-1.35976E+03-7.96377E+03 1.33441E+04 2.92971E-09 3.53904E-09
 -1       332-2.43922E+05 5.59616E+02 6.53893E+03-3.24438E+04-4.70083E-08-1.50777E-08
 -1       333-2.86807E+05 8.83074E+02-2.95292E+03 2.07965E+04-3.97881E-08 1.28633E-08
 -1       334-2.77296E+05-2.56298E+03-4.28011E+03-3.95723E+04-4.19589E-08-1.62655E-08
 -1       335-2.87816E+05 2.42060E+03-1.02240E+04 2.05080E+04 2.89406E-08 1.06033E-08
 -1       336 2.55585E+03-1.13796E+06-1.28572E+04-1.65811E+04-6.42012E-09-1.06729E-09
 -1       337-3.93616E+03-1.14295E+06-1.18772E+04-6.81886E+04-1.17604E-08 4.32556E-09
 -1       338 1.13511E+03-1.13903E+06-1.19710E+04-1.64057E+04-6.94035E-09 3.24606E-09
 -1       339-1.07548E+04-1.14708E+06-2.42699E+04-6.81861E+04-1.13814E-08 1.92870E-09
 -1       340 7.86770E+03-1.13383E+06-3.64559E+04-1.65876E+04-6.20639E-09 6.15000E-09
 -1       341-5.33108E+05-1.40240E+05 3.47157E+03-2.07749E+05 6.77583E-08 1.20781E-08
 -1       342-1.09361E+05 8.81343E+04 9.64506E+04 1.62578E+04 3.59994E-08 2.28329E-09
 -1       343-3.16093E+05-8.34797E+04 6.79496E+03-1.68060E+05-5.64390E-08-2.46673E-08
 -1       344-3.21658E+05 3.10074E+04 2.04299E+04-2.22655E+04 1.03612E-07 1.39371E-08
 -1       345-3.24306E+05-8.04093E+04-5.17658E+03-1.72339E+05 1.12076E-07 1.46497E-09
 -1       346-1.08577E+05 4.63928E+04 5.95501E+04 2.93493E+04-3.99050E-08-1.80728E-08
 -1       347-5.25267E+05-1.01932E+05-4.99902E+04-2.16194E+05 2.79033E-09-3.15924E-09
 -1       348 1.21876E+05 3.12065E+04 1.00056E+05 3.70236E+04 2.85399E-09-3.82784E-09
 -1       349-5.50853E+05-6.83186E+04-4.94304E+04-1.77241E+05-3.62525E-09-1.06018E-08
 -1       350-2.51897E+04-5.51821E+04 5.35029E+04-8.71365E+04 7.88868E-08-2.74154E-08
 -1       351-3.82122E+05-1.24909E+04-8.70613E+03-9.53231E+04 7.96899E-09-2.87499E-08
 -1       352-1.95422E+05-1.07303E+05 6.39133E+03-1.70681E+05-1.11670E-07-7.95544E-08
 -1       353-3.84679E+05-1.29311E+04-1.72160E+04-9.64844E+04 4.28953E-08 7.29415E-10
 -1       354-2.24071E+04-5.62192E+04 3.32469E+04-8.39877E+04-4.57211E-08-9.14520E-09
 -1       355-5.50952E+05-6.69453E+04-9.40635E+04-1.79136E+05-1.97269E-08 8.87667E-10
 -1       356-3.11714E+05 2.40852E+03-1.30535E+04 2.30066E+04 5.55167E-09 1.09962E-08
 -1       357-2.92705E+05-2.75645E+03-4.59529E+03-4.55369E+04 7.05034E-08-1.16052E-08
 -1       358-3.04627E+05 1.25319E+03-3.18393E+03 2.41931E+04 3.00057E-08 1.81187E-08
 -1       359-2.57148E+05 5.43180E+02 7.32183E+03-3.85726E+04-2.16876E-08-1.24919E-08
 -1       360-3.46373E+05-1.60107E+03-9.65264E+03 1.60015E+04-3.58937E-08 9.94470E-09
 -1       361-1.87984E+05 3.50942E+03 2.23252E+04-1.42387E+04-7.96140E-08-1.65682E-09
 -1       362-3.71999E+05-3.13338E+03-1.45789E+04-1.61043E+02-7.92579E-09 3.81256E-10
 -1       363-1.92382E+05 3.15647E+03 2.11862E+04 1.77625E+04-1.96879E-08 2.07658E-09
 -1       364-3.42091E+05-1.15598E+03-9.27807E+03-1.59333E+04-2.58392E-08-4.03344E-09
 -1       365-2.63557E+05-4.54875E+02 4.74664E+03 4.09587E+04 8.52754E-08 1.44953E-08
 -1       366-3.02667E+05 1.93871E+03-4.96307E+03-2.33759E+04-6.09878E-08-6.98424E-09
 -1       367-2.92075E+05-5.90436E+03-9.73156E+03 4.62877E+04-6.54851E-08 1.28121E-08
 -1       368-3.14260E+05 4.83393E+03-2.23335E+04-2.12898E+04-1.88112E-08-1.51849E-08
 -1       369-2.45349E+05-3.12255E+04-3.74396E+04 3.23490E+04-6.17708E-08 7.44785E-09
 -1       370-3.47842E+05 2.60102E+04-8.80431E+04-9.38725E+03-7.65203E-09-5.52245E-09
 -1       371-2.04731E+04-1.68014E+05-1.59861E+04 1.91696E+04-1.38380E-08 1.80080E-10
 -1       372 1.61948E+04 1.25292E+05 3.88417E+04-8.50312E+04 9.76252E-09-1.14992E-08
 -1       373 3.12266E+03-3.65928E+04-1.30507E+03 2.17473E+04 1.09699E-08-3.97642E-09
 -1       374-5.51730E+03 5.11338E+03-6.60013E+02-8.75169E+04 2.10184E-08 9.17456E-09
 -1       375 3.27447E+03-5.06493E+04-1.82360E+04 2.16348E+04 9.07221E-09 9.22887E-09
 -1       376-2.93040E+05-2.32318E+04-1.54772E+04-8.46811E+04-2.76364E-09 4.90991E-09
 -1       377-1.91166E+05-6.61003E+04 6.72464E+02-1.23675E+05 3.73608E-08 2.20854E-09
 -1       378-2.66604E+05-1.45353E+04-1.65813E+03-7.26380E+04 4.27667E-09 1.39206E-08
 -1       379-1.68463E+05-5.95043E+04 9.75127E+03-1.11284E+05 2.88380E-08 7.78633E-09
 -1       380-3.15195E+05-3.02432E+04-1.23120E+04-9.67009E+04 3.83463E-08-7.10429E-10
 -1       381-8.47779E+04-2.37758E+04 3.36633E+04-5.56264E+04 5.63214E-08 8.80163E-09
 -1       382-3.48204E+05-5.18278E+04-2.24608E+04-1.26777E+05-8.00424E-09 1.58074E-08
 -1       383-1.00858E+05 3.52614E+03 3.57724E+04-2.27130E+04-3.02911E-08 1.04686E-08
 -1       384-2.98998E+05-5.76136E+04-1.46198E+04-1.29384E+05 1.15356E-07-1.20149E-08
 -1       385-2.17737E+05 4.12795E+03 1.21355E+04-3.53701E+04 1.46793E-07-1.94195E-08
 -1       386-2.33293E+05-5.09674E+04-3.09649E+03-1.15645E+05-7.90215E-08-1.64083E-08
 -1       387-2.67532E+05-1.75477E+03-3.49170E+03-4.50665E+04 7.86090E-08-9.40349E-09
 -1       388-2.50051E+05-5.11097E+04-1.63522E+04-1.20403E+05 6.78465E-08-4.79649E-08
 -1       389-1.83230E+05-1.20592E+04-1.04984E+04-2.44925E+04-6.67931E-08-1.72513E-08
 -1       390-3.15972E+05-4.18686E+04-7.16114E+04-1.34868E+05-3.16077E-08-2.47383E-10
 -1       406 9.89517E+02 5.61815E+05 2.32481E+03-4.58726E+04-4.25825E-09-3.13685E-09
 -1       407 7.82156E+02 5.62241E+05 3.24328E+03-5.02946E+04-4.92059E-09 4.89763E-10
 -1       408 1.44231E+03 5.61663E+05 5.68237E+03-4.56852E+04-4.78258E-09 1.26420E-10
 -1       409 5.79802E+03 5.63884E+05 1.24026E+04-5.05660E+04-5.67434E-09 6.67569E-10
 -1       410 1.66496E+04 5.60058E+05 2.51061E+04-4.55801E+04-5.67525E-09-2.63753E-11
 -1       466 6.19058E+05-2.43464E+04 4.43410E+04 2.15122E+04 1.55478E-09 1.72513E-08
 -1       467 7.01481E+05 2.68363E+04 4.21711E+04-3.43470E+04 2.07876E-09 7.53971E-09
 -1       468 6.52940E+05-2.85892E+03 1.25522E+04 5.92177E+03-6.17035E-10 4.21915E-09
 -1       469 6.62878E+05 3.17387E+03 8.75358E+03-1.33990E+04-2.29818E-09-3.06045E-10
 -1       470 6.57044E+05-3.38165E+02 3.50032E+03 5.56358E+02-5.00265E-10 1.49726E-09
 -1       471 6.58232E+05 4.42394E+02 2.39080E+03-6.23270E+03 1.06223E-09-2.17045E-09
 -1       472 6.57514E+05-8.56674E+01 1.70950E+03-1.24468E+03-6.49088E-10-6.31673E-09
 -1       473 6.57862E+05 4.48253E+02 2.36855E+03-3.95230E+03-2.77883E-09-1.90451E-09
 -1       474 6.57405E+05-3.38834E+02 3.68994E+03-1.72405E+03-1.73644E-09-5.70492E-09
 -1       475 6.58949E+05 2.55984E+03 8.11225E+03-3.71799E+03 1.28045E-09-1.17207E-08
 -1       476 6.56424E+05-2.19555E+03 1.38409E+04-1.47898E+03 2.03788E-09-8.79845E-09
 -1       477 6.65865E+05 1.63659E+04 3.40453E+04-5.24127E+03-1.96295E-10 9.09495E-12
 -1       478 6.50484E+05-1.41363E+04 5.41243E+04-2.00727E+02 3.74243E-11-3.28146E-09
 -1       479 7.08381E+05 1.04794E+05 1.48394E+05-1.06435E+04 4.33172E-09-5.11136E-09
 -1       480 6.13959E+05-9.05587E+04 2.08937E+05 3.92288E+03 5.88579E-09-2.70666E-09
 -1       481-1.12069E+04 2.31564E+05 8.43432E+03-1.79814E+04-2.42835E-10-4.34125E-09
 -1       482 1.10227E+04 3.20728E+05 2.14074E+04 5.36976E+04-2.99906E-10 3.38107E-09
 -1       483-2.96258E+02 2.73629E+05 6.45059E+03-1.14504E+04-6.21867E-11 9.68981E-10
 -1       484 5.24080E+03 2.91581E+05 1.11670E+04 4.94752E+04 1.09139E-11-1.03140E-09
 -1       485-5.01163E+03 2.60075E+05 6.58730E+03-1.37509E+04 1.07320E-10-4.07874E-09
 -1       486-7.39102E+05-1.65721E+05-1.13551E+05-3.68998E+05 1.25874E-09 5.71163E-09
 -1       487-4.60489E+05 8.17662E+04 2.56084E+04 4.38689E+04 6.24118E-09 3.11102E-08
 -1       488-6.62925E+05-1.51463E+05-4.03316E+04-3.48436E+05-8.88804E-10-8.47012E-09
 -1       489 1.26366E+04 1.04993E+05 1.49403E+05 1.12342E+05 7.48969E-09-8.30732E-09
 -1       490-1.20271E+06-1.98617E+05-1.38428E+05-4.28762E+05-8.34461E-10 2.09184E-09
 -1       491 2.27321E+05-1.04810E+04 1.74788E+05-2.01943E+04-1.03919E-08 2.59429E-08
 -1       492-8.75158E+05-3.83122E+04-4.36130E+04-2.15109E+05-8.82073E-09 5.00963E-08
 -1       493-1.95224E+05-1.81058E+05 6.00080E+04-2.73845E+05 2.89685E-09 9.52853E-08
 -1       494-7.92270E+05-1.59196E+04-2.36332E+04-1.84393E+05-6.63567E-09 2.08382E-08
 -1       495 1.54062E+05-4.51721E+04 1.53994E+05-6.99673E+04-7.12726E-09 1.17473E-08
 -1       496-1.21435E+06-1.84462E+05-1.37310E+05-4.11327E+05-1.99816E-09 1.82617E-08
 -1       497 1.14902E+05 1.06049E+05 1.70963E+05 1.19903E+05-2.08918E-08 4.83988E-09
 -1       498-7.51577E+05-1.68522E+05-5.74113E+04-3.71881E+05 2.33440E-08-2.04782E-08
 -1       499-4.57510E+05 8.49466E+04 3.28996E+04 4.28255E+04 1.44771E-08-3.57286E-08
 -1       500-6.53399E+05-1.51897E+05-8.20971E+04-3.44470E+05-2.54331E-08 3.98632E-08
 -1       501-5.11330E+05-5.78921E+04 9.84082E+04 1.10331E+04-1.27200E-08-1.32786E-08
 -1       502-2.92026E+05 6.51529E+04 1.00654E+05-3.87235E+04-1.05335E-08-3.15422E-08
 -1       503-4.30723E+05-7.71581E+03 2.66009E+04 2.79702E+04-2.03336E-08-3.51611E-08
 -1       504-3.87479E+05 8.59637E+03 2.22127E+04-5.72330E+04-1.41913E-08-4.54436E-08
 -1       505-4.17813E+05 1.86982E+02 6.60155E+03 2.96014E+04 2.27855E-08-4.58977E-08
 -1       506-3.39235E+05 3.00583E+03 1.85138E+04-4.43085E+04 2.94255E-08-3.40294E-08
 -1       507-4.77583E+05-3.28055E+03-1.13821E+04 1.49966E+04 8.61814E-09-2.06429E-08
 -1       508-2.67775E+05 5.49290E+03 3.01406E+04-4.79804E+03 2.46114E-08-7.84837E-09
 -1       509-4.87357E+05-3.88144E+03-1.44620E+04-9.89147E+03-2.46089E-08 1.29701E-08
 -1       510-3.19177E+05 3.01795E+03 1.96780E+04 3.79221E+04-1.93119E-08 3.47006E-08
 -1       511-4.27551E+05 3.23969E+02-9.95396E+02-2.76751E+04-3.39591E-08 3.85544E-08
 -1       512-3.90507E+05 1.90138E+03 8.53194E+03 5.74356E+04-6.00822E-08 4.38650E-08
 -1       513-4.17958E+05-1.16741E+03 6.75478E+03-2.94626E+04-1.92736E-08 4.33183E-08
 -1       514-3.32088E+05 2.16256E+04 3.65342E+04 4.49620E+04-8.06722E-09 3.80760E-08
 -1       515-4.84613E+05-2.05031E+04 1.56134E+04-1.51549E+04-1.31222E-08 2.71739E-08
 -1       516-7.51501E+04 2.11406E+05 1.73524E+05-1.28034E+04-5.60249E-10 2.02834E-09
 -1       517 8.70762E+04 3.03963E+05 1.28081E+05 5.34084E+04-1.66983E-09-8.29198E-09
 -1       518-1.17641E+04 2.37798E+05 4.97589E+04-1.29087E+04 1.56433E-09-1.07951E-09
 -1       519 3.16120E+04 3.52091E+05 6.33278E+04 6.24513E+04-8.30983E-09-1.57479E-09
 -1       520-2.09238E+04 1.65030E+05 1.80386E+04-2.18757E+04-2.62662E-09-1.96103E-08
 -1       521-4.53470E+06-5.85514E+05-3.08732E+05-1.74942E+06-1.03319E-09-9.45874E-10
 -1       522-4.63389E+06-7.87543E+05-1.93606E+05-1.75958E+06 1.28398E-09-2.97223E-09
 -1       523-4.58920E+06-6.50787E+05-7.27224E+04-1.74035E+06 6.22094E-10 2.04091E-09
 -1       524-4.57013E+06-7.01637E+05-3.96757E+04-1.77640E+06 1.31490E-09 6.12545E-09
 -1       525-4.59643E+06-6.56394E+05-1.68820E+04-1.73832E+06 2.35286E-09 5.94446E-09
 -1       526-4.56164E+06-6.94409E+05-8.91591E+03-1.77973E+06-1.50112E-09-3.00815E-10
 -1       527-4.59771E+06-6.56543E+05-4.61877E+03-1.73767E+06 3.70278E-10 1.51647E-09
 -1       528-4.56065E+06-6.93871E+05-3.69519E+03-1.78015E+06-3.07642E-09-2.87764E-09
 -1       529-4.59744E+06-6.56817E+05-4.54084E+03-1.73795E+06-1.80717E-09-1.50067E-10
 -1       530-4.56249E+06-6.93420E+05-8.67491E+03-1.77851E+06-1.68075E-09-7.44194E-10
 -1       531-4.59568E+06-6.57210E+05-1.64189E+04-1.73914E+06 5.57520E-10-3.96722E-09
 -1       532-4.57162E+06-6.99473E+05-3.85078E+04-1.77410E+06 4.35557E-09 1.18689E-09
 -1       533-4.58816E+06-6.52273E+05-7.06148E+04-1.74164E+06 1.13732E-09-1.41881E-09
 -1       534-4.63440E+06-7.81907E+05-1.87894E+05-1.75668E+06-1.36993E-09-7.09406E-10
 -1       535-4.53482E+06-5.89387E+05-2.99680E+05-1.75095E+06-9.38599E-10 1.73168E-09
 -1       536-2.87924E+04-1.47786E+04 6.71431E+04-1.24700E+04 8.60382E-10-2.43745E-10
 -1       537-4.33725E+03 2.01253E+04 4.27814E+04-4.37332E+04-3.58978E-09-1.71894E-10
 -1       538-1.88175E+04-1.60526E+03 1.73372E+04-1.22919E+04-1.84627E-10-7.27596E-11
 -1       539-1.58180E+04 1.80579E+03 9.64772E+03-4.39220E+04 1.53841E-09 5.79348E-10
 -1       540-1.77690E+04-2.28537E+02 4.34523E+03-1.22709E+04-2.42835E-10-2.67823E-09
 -1       541-1.72980E+04 1.46694E+02 2.28138E+03-4.39472E+04 3.24235E-10-4.06089E-10
 -1       542-1.76673E+04-3.81055E+01 1.03289E+03-1.22673E+04-6.23004E-11-9.46670E-10
 -1       543-1.76120E+04 3.94150E+01 4.57221E+02-4.39529E+04-8.54243E-10 2.02675E-09
 -1       544-1.76629E+04 1.05231E+01 5.95649E+01-1.22654E+04 2.39424E-10-1.80773E-09
 -1       545-1.77307E+04 1.74600E+01-3.06725E+02-4.39552E+04-1.12161E-09-8.36673E-09
 -1       546-1.76347E+04 4.42370E+01-7.85705E+02-1.22651E+04 2.46018E-10 2.60786E-09
 -1       547-1.79547E+04-3.35236E+02-1.84209E+03-4.39484E+04-1.77783E-09 4.17481E-09
 -1       548-1.74034E+04 2.77399E+02-3.38143E+03-1.22722E+04-3.58614E-09 5.59794E-10
 -1       549-2.00183E+04-3.96679E+03-8.32209E+03-4.38478E+04-4.90172E-09-2.89583E-09
 -1       550-1.54138E+04 2.77398E+03-1.31312E+04-1.23653E+04-2.55204E-09-3.84352E-09
 -1       551 2.02147E+04-4.18956E+05 4.05479E+04-6.15556E+05 5.16593E-10-6.22094E-10
 -1       552 1.19097E+04-4.13043E+05 3.33521E+04-7.23286E+05-1.49885E-09 2.96859E-09
 -1       553 8.46330E+03-4.19167E+05 4.03260E+04-6.14512E+05 4.14730E-10 2.47928E-09
 -1       554 2.82504E+04-4.03803E+05 7.70490E+04-7.23422E+05-1.08412E-09 2.99042E-09
 -1       555 7.26960E+04-4.29342E+05 1.46449E+05-6.15208E+05 4.36557E-11-3.80533E-09
 -1       556-3.03590E+05-1.57706E+05 2.67484E+04-2.82550E+05-4.69299E-09 2.68483E-09
 -1       557-2.79274E+05-1.83870E+05 1.32183E+04-3.01327E+05 1.46974E-09 3.10411E-09
 -1       558-3.04504E+05-1.66234E+05 5.50917E+03-2.77573E+05-2.53931E-09-1.37607E-09
 -1       559-2.82284E+05-1.88040E+05 2.72479E+03-3.02583E+05 1.60435E-09-1.53568E-09
 -1       560-3.05175E+05-1.66089E+05 1.18536E+03-2.77763E+05 5.40604E-09 1.07116E-08
 -1       561-2.83164E+05-1.87952E+05 5.71245E+02-3.03207E+05 4.05635E-10 9.09841E-09
 -1       562-3.05678E+05-1.65768E+05 1.88740E+02-2.78094E+05-1.52795E-09 5.09067E-09
 -1       563-2.83656E+05-1.87741E+05-2.07753E+01-3.03556E+05 2.98496E-09 9.83368E-09
 -1       564-3.05962E+05-1.65578E+05-2.80786E+02-2.78290E+05-4.31464E-09 8.74024E-10
 -1       565-2.83911E+05-1.87640E+05-7.06477E+02-3.03719E+05-1.04010E-08-1.34787E-09
 -1       566-3.05995E+05-1.65509E+05-1.51925E+03-2.78337E+05-8.76435E-09-7.29051E-09
 -1       567-2.84161E+05-1.87804E+05-3.36335E+03-3.03680E+05-4.82487E-10-4.72664E-09
 -1       568-3.05653E+05-1.66053E+05-6.92893E+03-2.78026E+05-2.69574E-09-1.20071E-08
 -1       569-2.87752E+05-1.92053E+05-1.63378E+04-3.02525E+05-4.51109E-10-4.83851E-09
 -1       570-3.03971E+05-1.78609E+05-3.33097E+04-2.72585E+05-1.50976E-09 9.12223E-10
 -1       571 3.58853E+05 1.66038E+04 2.52237E+04-9.28541E+04 4.56566E-10-3.27418E-09
 -1       572 3.62662E+05 5.68459E+03 1.23811E+04-1.02180E+05 2.61934E-10 6.65750E-10
 -1       573 3.60357E+05 1.28695E+03 5.50594E+03-9.26055E+04-6.92125E-10-1.69348E-09
 -1       574 3.60797E+05 4.02323E+02 2.76395E+03-1.02448E+05-8.67658E-10-3.63161E-09
 -1       575 3.60504E+05 3.69756E+01 1.30635E+03-9.25745E+04 1.11868E-10-1.30331E-09
 -1       576 3.60543E+05 2.22261E+00 6.67585E+02-1.02483E+05 1.22685E-09-1.39516E-09
 -1       577 3.60530E+05-2.31338E+01 3.32255E+02-9.25705E+04 7.13044E-10 2.45291E-09
 -1       578 3.60532E+05-2.25431E+01 1.87396E+02-1.02487E+05 6.92125E-10 2.28010E-09
 -1       579 3.60578E+05-3.99501E+01 1.24528E+02-9.25699E+04 3.69255E-10 5.42059E-10
 -1       580 3.60604E+05-5.53451E+01 1.33735E+02-1.02483E+05 3.20142E-10-1.24419E-09
 -1       581 3.60666E+05-8.02192E+01 1.98159E+02-9.25746E+04-9.44056E-10-9.34961E-10
 -1       582 3.60759E+05-6.38556E+01 3.92161E+02-1.02429E+05-8.40373E-10 3.48791E-09
 -1       583 3.60774E+05 1.80630E+01 7.56441E+02-9.26242E+04-1.40608E-09-9.84983E-10
 -1       584 3.61179E+05 5.84127E+02 1.70146E+03-1.01999E+05-2.24827E-09-2.73872E-09
 -1       585 3.60716E+05 2.05485E+03 3.44801E+03-9.30072E+04 8.13088E-10 3.25963E-09
 -1       586 3.21385E+03 1.65508E+05 5.60942E+03-2.18754E+05 5.95719E-10-7.12771E-09
 -1       587 1.88368E+03 1.66395E+05 5.44103E+03-2.41322E+05 2.05546E-09 1.21645E-09
 -1       588 2.24158E+03 1.65358E+05 7.81921E+03-2.18469E+05 5.22050E-10-9.10632E-09
 -1       589 7.72146E+03 1.68290E+05 1.60890E+04-2.41409E+05 2.33194E-09-2.06801E-08
 -1       590 2.14331E+04 1.63443E+05 3.20958E+04-2.18656E+05 6.71207E-10-1.04187E-08
 -1       591-1.66681E+05-5.63031E+04-3.29589E+04-8.42829E+04-3.62547E-09-9.91167E-09
 -1       592-1.68046E+05-5.21799E+04-1.61926E+04-9.37130E+04-4.87262E-10-1.33809E-09
 -1       593-1.67696E+05-4.43242E+04-6.87129E+03-8.98071E+04 3.30783E-09 6.02427E-09
 -1       594-1.64526E+05-4.77554E+04-3.36219E+03-9.42790E+04 3.67891E-10-5.47850E-10
 -1       595-1.67860E+05-4.38915E+04-1.54815E+03-9.00533E+04 1.76669E-10 6.03927E-09
 -1       596-1.64265E+05-4.75815E+04-7.84704E+02-9.42564E+04 3.28191E-09 7.80324E-09
 -1       597-1.67891E+05-4.39148E+04-4.26564E+02-9.00553E+04-5.83697E-10-4.48836E-09
 -1       598-1.64238E+05-4.75843E+04-3.40103E+02-9.42439E+04 6.65864E-10 4.51655E-09
 -1       599-1.67886E+05-4.39174E+04-4.30571E+02-9.00525E+04-5.23869E-10 6.86668E-10
 -1       600-1.64257E+05-4.75858E+04-7.95234E+02-9.42485E+04-2.74940E-09 1.95996E-09
 -1       601-1.67843E+05-4.38988E+04-1.56979E+03-9.00448E+04-4.52792E-09-4.57931E-09
 -1       602-1.64516E+05-4.77624E+04-3.40986E+03-9.42595E+04-2.02408E-09-1.12234E-08
 -1       603-1.67666E+05-4.43472E+04-6.96887E+03-8.97938E+04 3.63707E-09 1.06984E-08
 -1       604-1.68112E+05-5.22134E+04-1.64198E+04-9.36341E+04-7.56836E-09-4.72846E-09
 -1       605-1.66593E+05-5.65253E+04-3.34208E+04-8.42233E+04-1.52386E-09 2.23554E-09
 -1       606 1.23158E+05-1.46042E+04-2.21271E+04 3.56598E+04-7.60338E-09-1.81353E-09
 -1       607 1.19738E+05-4.99616E+03-1.08556E+04 3.88615E+04-3.17232E-09 2.02363E-10
 -1       608 1.21725E+05-1.12390E+03-4.82872E+03 3.54198E+04 1.39116E-08 1.16393E-09
 -1       609 1.21256E+05-3.08379E+02-2.41810E+03 3.91203E+04 1.93259E-08 1.71667E-09
 -1       610 1.21514E+05 1.91763E+01-1.14073E+03 3.53889E+04 5.49880E-09-5.29690E-09
 -1       611 1.21414E+05 7.74140E+01-5.73528E+02 3.91529E+04-1.16543E-08-3.55385E-09
 -1       612 1.21456E+05 9.19846E+01-2.72663E+02 3.53855E+04-4.01815E-09-4.09273E-09
 -1       613 1.21412E+05 1.04902E+02-1.25042E+02 3.91568E+04-7.65294E-09-3.85353E-09
 -1       614 1.21424E+05 9.70562E+01-3.64582E+01 3.53847E+04-1.47065E-09-2.60798E-09
 -1       615 1.21396E+05 1.14374E+02 3.46296E+01 3.91569E+04 7.41784E-09 5.58703E-09
 -1       616 1.21401E+05 1.10476E+02 1.20462E+02 3.53852E+04-4.95766E-09-3.80169E-10
 -1       617 1.21403E+05 1.65954E+02 2.84192E+02 3.91554E+04-8.33552E-10-3.49564E-09
 -1       618 1.21367E+05 2.52232E+02 5.79824E+02 3.53858E+04-7.57154E-10-6.56792E-09
 -1       619 1.21583E+05 7.35545E+02 1.31174E+03 3.91493E+04 7.10543E-11-1.79989E-09
 -1       620 1.21193E+05 1.88516E+03 2.67636E+03 3.53874E+04 2.20552E-09-1.17188E-09
 -1       621 2.39312E+03 3.75863E+05 6.09192E+03-2.90544E+04-2.79033E-09-9.60881E-10
 -1       622 9.51989E+02 3.77026E+05 5.30987E+03-3.42790E+04-2.95177E-09-5.50426E-09
 -1       623 6.05306E+02 3.76097E+05 6.85257E+03-2.91018E+04-2.68255E-09 3.97540E-09
 -1       624 3.93996E+03 3.78854E+05 1.34444E+04-3.40987E+04-2.38288E-09 2.19552E-09
 -1       625 1.20617E+04 3.74090E+05 2.57876E+04-2.92296E+04-2.46837E-09-3.53793E-10
 -1       626 1.80638E+05 5.92376E+04-8.44895E+03 1.20970E+05-1.10867E-09 2.29011E-09
 -1       627 1.76071E+05 6.58951E+04-4.00241E+03 1.23482E+05-1.28784E-09-4.27451E-09
 -1       628 1.80833E+05 6.34121E+04-1.68164E+03 1.18883E+05 1.00772E-09 3.69937E-10
 -1       629 1.76638E+05 6.76692E+04-8.04792E+02 1.23339E+05 4.66571E-10 6.69260E-09
 -1       630 1.80798E+05 6.37156E+04-3.53858E+02 1.18696E+05-2.64299E-09-3.66498E-09
 -1       631 1.76657E+05 6.78111E+04-1.54783E+02 1.23327E+05-1.00058E-08-3.69994E-10
 -1       632 1.80764E+05 6.37340E+04-3.62967E+01 1.18670E+05-1.13359E-08-1.24053E-08
 -1       633 1.76645E+05 6.78234E+04 5.70064E+01 1.23319E+05 5.99357E-09-1.49521E-09
 -1       634 1.80741E+05 6.37295E+04 1.78978E+02 1.18662E+05 4.22597E-09 7.16409E-09
 -1       635 1.76661E+05 6.78312E+04 4.19102E+02 1.23320E+05 6.38636E-09-1.50476E-09
 -1       636 1.80721E+05 6.37518E+04 8.75206E+02 1.18646E+05-6.23686E-10-4.52701E-09
 -1       637 1.76874E+05 6.80757E+04 1.95894E+03 1.23282E+05 1.71815E-09-1.63868E-09
 -1       638 1.80683E+05 6.44874E+04 4.06244E+03 1.18328E+05 6.54290E-09 8.51378E-09
 -1       639 1.78952E+05 7.17372E+04 9.67166E+03 1.22377E+05-1.48430E-09 2.30148E-09
 -1       640 1.80813E+05 7.50463E+04 2.04067E+04 1.13945E+05-1.82672E-09 5.02359E-09
 -1       641 5.28094E+03 3.54647E+03-8.20960E+03-9.10860E+01-7.19091E-09 4.85397E-09
 -1       642 1.75769E+03-4.10467E+03-5.79761E+03 3.96963E+02-9.09444E-09 8.93431E-09
 -1       643 3.91697E+03 5.55523E+02-2.11664E+03-8.63196E+01-1.20544E-08 5.56031E-09
 -1       644 3.34330E+03-6.40403E+02-1.31281E+03 3.90036E+02-4.77129E-10 4.36043E-09
 -1       645 3.69483E+03 8.52162E+01-5.05427E+02-8.41656E+01-5.93898E-10 4.79488E-09
 -1       646 3.60591E+03-8.88590E+01-2.36688E+02 3.86924E+02-9.03752E-08 6.19937E-09
 -1       647 3.65414E+03 4.52485E+00 7.48099E+00-8.32085E+01-2.38305E-05 5.86904E-08
 -1       648 3.68121E+03 5.12976E+01 2.41448E+02 3.85952E+02-4.75167E-05 1.12587E-07
 -1       649 3.61946E+03-5.48158E+01 5.39761E+02-8.31948E+01-2.38254E-05 5.67617E-08
 -1       650 3.88070E+03 4.21360E+02 1.30382E+03 3.86563E+02-6.17326E-08 5.23733E-09
 -1       651 3.45472E+03-3.65354E+02 2.26701E+03-8.38196E+01-1.02321E-09 3.90685E-09
 -1       652 5.00479E+03 2.70966E+03 5.61068E+03 3.87336E+02 7.25272E-09 2.45416E-09
 -1       653 2.49567E+03-2.34154E+03 8.93527E+03-8.39707E+01 2.10844E-09 2.32512E-09
 -1       654 1.17491E+04 1.72922E+04 2.44456E+04 3.81855E+02-8.41941E-09 4.18322E-09
 -1       655-3.28753E+03-1.49361E+04 3.45464E+04-7.83531E+01 3.60967E-09 4.01633E-09
 -1       656 1.10515E+04-4.50276E+05-5.32914E+04 1.45684E+04 1.24965E-09 2.61343E-09
 -1       657-1.69076E+04-4.69366E+05-3.86007E+04 5.02627E+04-2.57046E-09 6.46969E-09
 -1       658 2.06100E+03-4.57157E+05-2.47551E+04 1.44433E+04-1.33184E-10-6.42103E-10
 -1       659-1.55327E+04-4.68590E+05-3.61322E+04 5.03495E+04-4.39877E-09 8.62649E-10
 -1       660 1.00225E+04-4.51119E+05-4.85775E+04 1.44834E+04-1.72622E-09-8.78572E-10
 -1       661 4.32273E+05 5.62425E+04 3.53624E+04 1.69564E+05 8.78572E-10 6.94854E-10
 -1       662 4.40226E+05 8.27774E+04 2.21718E+04 1.74706E+05 5.56861E-09 1.13505E-09
 -1       663 4.38260E+05 6.39532E+04 8.34691E+03 1.68834E+05 3.39253E-09-1.73486E-09
 -1       664 4.33335E+05 7.25573E+04 4.56666E+03 1.76093E+05-7.00311E-10-3.51520E-09
 -1       665 4.38907E+05 6.47831E+04 1.95651E+03 1.68802E+05-7.76492E-09-3.48632E-09
 -1       666 4.32590E+05 7.14916E+04 1.05923E+03 1.76161E+05-1.09632E-08 2.22258E-10
 -1       667 4.38974E+05 6.48819E+04 5.95485E+02 1.68813E+05-1.42603E-08 2.01159E-09
 -1       668 4.32524E+05 7.13927E+04 5.60961E+02 1.76153E+05-5.56093E-09 4.96001E-09
 -1       669 4.38967E+05 6.48749E+04 7.91366E+02 1.68811E+05 2.36176E-09 5.72754E-10
 -1       670 4.32651E+05 7.15625E+04 1.59969E+03 1.76165E+05 1.41953E-08-3.49701E-09
 -1       671 4.38853E+05 6.47229E+04 3.05536E+03 1.68799E+05-6.14716E-09-3.62820E-09
 -1       672 4.33845E+05 7.32325E+04 7.19384E+03 1.76038E+05-5.73709E-09-4.74938E-09
 -1       673 4.37818E+05 6.34242E+04 1.31710E+04 1.68860E+05 7.56270E-09-4.28918E-09
 -1       674 4.44738E+05 8.93530E+04 3.50022E+04 1.73825E+05 6.39852E-09 1.72167E-09
 -1       675 4.28356E+05 5.12611E+04 5.58346E+04 1.70019E+05-5.77802E-09 2.00089E-10
 -1       676 7.99299E+02-4.24081E+05-4.74248E+03 4.72909E+02-1.83701E-09 6.85162E-09
 -1       677-1.79580E+03-4.25883E+05-5.73819E+03-3.23942E+01-5.91783E-09 4.18280E-09
 -1       678 6.39534E+02-4.24158E+05-7.56755E+03 4.71822E+02-8.32642E-10 4.38626E-09
 -1       679-8.04778E+03-4.29675E+05-1.71086E+04-3.21137E+01-1.97945E-08-3.87229E-09
 -1       680 5.67211E+03-4.20292E+05-2.63950E+04 4.70495E+02-4.24370E-09-2.02502E-09
 -1       681 2.89444E+05-5.93150E+03 8.59547E+03 7.22302E+03 2.62276E-10 5.79348E-10
 -1       682 3.19856E+05 6.45624E+03 1.07310E+04-1.89367E+04-5.41917E-10-1.72122E-09
 -1       683 3.00430E+05-6.45162E+02 2.40600E+03 2.21072E+03 3.21450E-10 3.26679E-09
 -1       684 3.06255E+05 7.12989E+02 2.28491E+03-1.16749E+04-2.86065E-10-1.57078E-09
 -1       685 3.02782E+05-2.20563E+01 7.04940E+02-3.95804E+01-7.18643E-11 4.26681E-09
 -1       686 3.03432E+05 6.13809E+01 5.06640E+02-8.79375E+03 7.81398E-10-2.37940E-09
 -1       687 3.03193E+05 4.53944E+01 3.26305E+02-6.70014E+02-1.01057E-09 6.49234E-09
 -1       688 3.03406E+05-4.80248E+01 3.90655E+02-8.82896E+03-2.31074E-09 3.71482E-10
 -1       689 3.02809E+05 8.68788E+01 5.09217E+02-4.37621E+00-2.61376E-09 4.85105E-09
 -1       690 3.06027E+05-9.40963E+01 1.60802E+03-1.17970E+04 4.45813E-09-1.92472E-09
 -1       691 3.00635E+05 5.02786E+01 1.63029E+03 2.29767E+03 5.25614E-09 4.91468E-10
 -1       692 3.18208E+05 1.40027E+03 7.46612E+03-1.91675E+04 5.81633E-09 1.09503E-09
 -1       693 2.90900E+05-1.58382E+03 5.87021E+03 7.36705E+03-5.09954E-09-5.98493E-09
 -1       694 3.72792E+05 1.87614E+04 3.46505E+04-3.42937E+04-1.97574E-08 6.46969E-09
 -1       695 2.47159E+05-1.80190E+04 2.05121E+04 1.74499E+04-1.89830E-08-1.75296E-08
 -1       696-8.42100E+03 3.81510E+05 1.78618E+04-6.60856E+03 8.00355E-11-2.38992E-09
 -1       697 9.64003E+03 3.98029E+05 1.42838E+04 1.24309E+04 1.57343E-10-9.27102E-10
 -1       698-1.28036E+03 3.88107E+05 5.07101E+03-3.16249E+03-1.18462E-10 1.39273E-09
 -1       699 2.08133E+03 3.90679E+05 4.01849E+03 8.32109E+03-1.51431E-10 1.91425E-09
 -1       700-8.11415E+02 3.88771E+05 2.47977E+03-2.49816E+03-1.79192E-10 8.11703E-10
 -1       701-3.94525E+05-7.24526E+04-7.52646E+04-1.71708E+05 2.25009E-09 1.78989E-09
 -1       702-1.70898E+05 1.85006E+04 9.11746E+03 8.10634E+02-7.49787E-09-4.19350E-08
 -1       703-2.63550E+05-6.26757E+04-1.29835E+04-1.39884E+05 1.77511E-08 6.15037E-08
 -1       704-2.92713E+05 1.30729E+04 1.39538E+03-3.00710E+04 1.29765E-08 7.66922E-08
 -1       705-2.74963E+05-6.53251E+04-7.64769E+03-1.42804E+05 1.58017E-08 7.02672E-08
 -1       706-1.41051E+05 2.80401E+04 3.75968E+04 4.81877E+03 1.52232E-09 1.25783E-09
 -1       707-4.12517E+05-7.96728E+04-3.47974E+04-1.72428E+05-1.69443E-08 3.42878E-08
 -1       708 3.95623E+04 2.07205E+04 7.19999E+04 1.64516E+04 1.05448E-08 1.27353E-08
 -1       709-4.52532E+05-6.03411E+04-3.86426E+04-1.52217E+05 2.97173E-08-5.62522E-10
 -1       710-2.79360E+04-3.69703E+04 4.71842E+04-6.41935E+04 5.08534E-08-3.02622E-08
 -1       711-3.47051E+05-2.04631E+04-1.23118E+04-9.35847E+04 1.24614E-08 6.52039E-08
 -1       712-1.81543E+05-8.64409E+04 4.75894E+03-1.43649E+05-1.73438E-08 1.39232E-07
 -1       713-3.02549E+05-8.06427E+03-7.72541E+03-7.52714E+04-3.76857E-08 8.30005E-09
 -1       714-1.20648E+05-7.12933E+04 6.31319E+03-1.12597E+05-1.98576E-08-2.55156E-08
 -1       715-4.06457E+05-3.67721E+04-6.05982E+04-1.23642E+05-5.54246E-09-3.16413E-08
 -1       716-1.00000E+05-3.64361E+01-6.74123E+03-2.65212E+03 2.55236E-08-1.47047E-08
 -1       717-5.30884E+04-1.34407E+02 4.17770E+03-1.91052E+03 1.17572E-08 1.02705E-09
 -1       718-9.94796E+04-2.68876E+02-3.88187E+03-2.17717E+02 4.65207E-09-5.96350E-09
 -1       719-5.80569E+04 9.29355E+01 4.71165E+03-6.55917E+03-4.26809E-09-5.62821E-11
 -1       720-9.51668E+04-1.64685E+02-2.21188E+03 1.98423E+03 7.25765E-09 6.43141E-10
 -1       721-6.83910E+04 5.57499E+01 3.29694E+03-1.03975E+04 4.01153E-09-4.48693E-09
 -1       722-8.94105E+04-3.69721E+01-4.06072E+02 3.61363E+03 6.40216E-09 6.52858E-09
 -1       723-7.85704E+04 2.21212E+02 2.43379E+03-1.29153E+04-1.72585E-09-4.63683E-09
 -1       724-8.52494E+04-1.37438E+02 2.39618E+03 4.50227E+03 1.46651E-08 1.04066E-08
 -1       725-8.27486E+04 1.78437E+03 5.92978E+03-1.39087E+04 1.31311E-08-5.38569E-09
 -1       726-8.53591E+04-1.50563E+03 1.00557E+04 4.60884E+03 1.46325E-08 7.09406E-09
 -1       727-7.49256E+04 1.20536E+04 2.55148E+04-1.33529E+04 1.97924E-08-1.90630E-09
 -1       728-9.29971E+04-1.04514E+04 3.88412E+04 3.94549E+03 6.90241E-09 5.90444E-09
 -1       729-3.56012E+04 7.74732E+04 1.10866E+05-1.16052E+04 4.06156E-09 1.41154E-09
 -1       730-1.24409E+05-6.70356E+04 1.50945E+05 2.85959E+03 7.77413E-09-6.62112E-10
 -1       731-1.09262E+04 5.71999E+04 3.33702E+03-8.16299E+03-1.34705E-08-8.89395E-09
 -1       732 1.15122E+04 1.92845E+05 2.63473E+04 2.06972E+04 3.60160E-09-5.12500E-10
 -1       733-1.54834E+03 8.67703E+04-3.54907E+02-4.26408E+03-3.40106E-09-1.68950E-09
 -1       734 3.70901E+03 1.52085E+05 1.23867E+04 1.37030E+04 4.52118E-09-1.17939E-08
 -1       735-2.49389E+03 9.70414E+04 1.46498E+03-1.13618E+03 3.18323E-09-9.21807E-09
 -1       736-3.18951E+05-7.38121E+04-4.29393E+04-1.51039E+05 3.71729E-08-3.55294E-08
 -1       737-2.12214E+05 2.61224E+04 8.12923E+03-7.66372E+03 1.02771E-07 3.20598E-08
 -1       738-2.17037E+05-5.67108E+04-3.47361E+03-1.23146E+05 2.66092E-08 9.28376E-08
 -1       739-2.40492E+05 2.11882E+04 9.68185E+03-1.44595E+04-6.84911E-08-1.74560E-08
 -1       740-2.91172E+05-6.85138E+04-1.60385E+04-1.44691E+05 2.17462E-08-5.43156E-08
 -1       741-3.00761E+04 3.86849E+04 5.57506E+04 3.37772E+04 3.16555E-08-4.39582E-08
 -1       742-4.23702E+05-7.69871E+04-4.20783E+04-1.68194E+05-1.52795E-08 6.06883E-09
 -1       743 1.02012E+05 1.84843E+04 7.78127E+04 2.46308E+04 9.71011E-09 1.42722E-08
 -1       744-4.21166E+05-4.99269E+04-3.64147E+04-1.34255E+05 3.73461E-08-2.70347E-08
 -1       745-2.09015E+04-4.35696E+04 4.16171E+04-6.92478E+04 6.21050E-08 2.06748E-08
 -1       746-3.03904E+05-1.26091E+04-7.68386E+03-7.68327E+04 5.64730E-08 1.10973E-07
 -1       747-1.62402E+05-8.31725E+04 4.87224E+03-1.37428E+05-3.03726E-09 2.09143E-08
 -1       748-2.82954E+05-7.80724E+03-6.10176E+03-6.82732E+04 4.37998E-08 2.29688E-08
 -1       749-6.50694E+04-5.32068E+04 2.26189E+04-9.37790E+04-1.63905E-08 2.77023E-08
 -1       750-3.99020E+05-4.42734E+04-4.98595E+04-1.19026E+05-2.10030E-08-2.62526E-08
 -1       751 3.57433E+06-2.09146E+05 4.85170E+05 1.39668E+04-3.97325E-08 2.03727E-10
 -1       752 3.78638E+06 2.42181E+05 3.43158E+05-1.33690E+04-4.18003E-09-5.66070E-09
 -1       753 3.65649E+06-3.27506E+04 1.25752E+05 5.49076E+02-3.77892E-11-8.14907E-10
 -1       754 3.69112E+06 3.79088E+04 7.90524E+04 2.15372E+02 2.80318E-09 1.18143E-09
 -1       755 3.66991E+06-5.12488E+03 3.24019E+04 3.85339E+02-7.77575E-10-1.96451E-09
 -1       756 3.67562E+06 6.00544E+03 1.93588E+04 3.81131E+02-2.64137E-09-4.65729E-09
 -1       757 3.67214E+06-8.76542E+02 9.50708E+03 3.83337E+02 9.99343E-07-7.07132E-10
 -1       758 3.67331E+06 1.54855E+03 7.56536E+03 3.83163E+02 1.99242E-06-3.62468E-09
 -1       759 3.67226E+06-6.71226E+02 7.64675E+03 3.83311E+02 4.25969E-07 2.45245E-09
 -1       760 3.67468E+06 4.24001E+03 1.39852E+04 3.82829E+02-1.13336E-06 5.02291E-09
 -1       761 3.67075E+06-3.56601E+03 2.27244E+04 3.83668E+02-5.67944E-07 1.35333E-09
 -1       762 3.68539E+06 2.63185E+04 5.49462E+04 3.61980E+02 4.00853E-09 6.61294E-09
 -1       763 3.66144E+06-2.27305E+04 8.72201E+04 4.04146E+02 9.71302E-09 2.47383E-09
 -1       764 3.75061E+06 1.67858E+05 2.37747E+05-1.32823E+03 2.78479E-09-9.09495E-10
 -1       765 3.60521E+06-1.44949E+05 3.36285E+05 2.07358E+03-9.70147E-10-1.80444E-09
 -1       766-7.36807E+04 5.92774E+04 1.68585E+05 1.08933E+04 8.73115E-09-1.40392E-09
 -1       767 8.55927E+04 1.47783E+05 1.23258E+05-4.74381E+04 2.74940E-08-2.97055E-09
 -1       768-1.14672E+04 8.91917E+04 4.63910E+04 1.06176E+04 1.16779E-08 4.51990E-09
 -1       769 2.43433E+04 1.60992E+05 4.76144E+04-5.00346E+04 7.28755E-09 1.32025E-09
 -1       770-1.32062E+04 4.70620E+04 1.35236E+04 1.34918E+04-5.23585E-09-1.66051E-09
 -1       771-2.10898E+06-4.21888E+05-6.86419E+04-9.10080E+05-1.25510E-10 6.38829E-09
 -1       772-2.10327E+06-4.21366E+05-3.36590E+04-9.39008E+05 2.99769E-09-1.79080E-09
 -1       773-2.11210E+06-3.96273E+05-1.43493E+04-9.21310E+05-8.22183E-10-5.05679E-10
 -1       774-2.09596E+06-4.12622E+05-6.98916E+03-9.41418E+05 1.42245E-09-1.40517E-09
 -1       775-2.11305E+06-3.94973E+05-3.25799E+03-9.22029E+05 2.21917E-09 6.97491E-09
 -1       776-2.09580E+06-4.12191E+05-1.63476E+03-9.41924E+05-1.14233E-09-3.96562E-09
 -1       777-2.11357E+06-3.94746E+05-9.10105E+02-9.22238E+05 4.22006E-09 4.95470E-09
 -1       778-2.09605E+06-4.12101E+05-7.09214E+02-9.42264E+05 1.59889E-09 4.20755E-09
 -1       779-2.11387E+06-3.94562E+05-9.14055E+02-9.22379E+05 7.22139E-10 1.57570E-09
 -1       780-2.09630E+06-4.12042E+05-1.67852E+03-9.42503E+05-6.29370E-10-1.30058E-10
 -1       781-2.11395E+06-3.94419E+05-3.32908E+03-9.22444E+05-4.16094E-09-5.56702E-09
 -1       782-2.09695E+06-4.12391E+05-7.24267E+03-9.42618E+05 4.21096E-10-6.03904E-10
 -1       783-2.11360E+06-3.95356E+05-1.48228E+04-9.21929E+05 3.42379E-09 7.32325E-09
 -1       784-2.10459E+06-4.21887E+05-3.49699E+04-9.41251E+05-1.04910E-09-2.81943E-09
 -1       785-2.11124E+06-4.21350E+05-7.12119E+04-9.10042E+05 7.73070E-10 1.66256E-09
 -1       786 2.92196E+05-8.55208E+03 3.96244E+04-2.80978E+03-1.26192E-10 8.11269E-10
 -1       787 3.06284E+05 1.19876E+04 2.52002E+04-1.01880E+04-3.08773E-10 2.00225E-09
 -1       788 2.98115E+05-8.57977E+02 1.02578E+04-2.80351E+03-8.86757E-11 2.34104E-09
 -1       789 2.99701E+05 1.13506E+03 5.69099E+03-1.01807E+04-4.15241E-10-1.60253E-09
 -1       790 2.98766E+05-9.21784E+01 2.60212E+03-2.81584E+03 6.43126E-10 3.50167E-09
 -1       791 2.98960E+05 1.05114E+02 1.38861E+03-1.01627E+04 3.04624E-10 4.24507E-10
 -1       792 2.98848E+05-1.18881E+01 7.09513E+02-2.82144E+03-3.07381E-11-3.79998E-10
 -1       793 2.98869E+05 1.19444E+01 4.61907E+02-1.01592E+04-5.24778E-10-1.30743E-09
 -1       794 2.98857E+05-6.57851E+00 4.14543E+02-2.81936E+03 1.59218E-10 4.07967E-09
 -1       795 2.98894E+05 3.97570E+01 6.14475E+02-1.01715E+04-7.46070E-10 5.24627E-09
 -1       796 2.98828E+05-3.82823E+01 1.05471E+03-2.80915E+03-4.87944E-10-2.54798E-09
 -1       797 2.99188E+05 4.41026E+02 2.25132E+03-1.01972E+04 1.04626E-09-2.30136E-09
 -1       798 2.98574E+05-3.40844E+02 4.03345E+03-2.79369E+03-5.16593E-10 1.90312E-10
 -1       799 3.01780E+05 4.69798E+03 9.89650E+03-1.02072E+04-2.35332E-09 1.18860E-09
 -1       800 2.96252E+05-3.36464E+03 1.55514E+04-2.79969E+03 4.44970E-10-1.99907E-09
 -1       801-1.44541E+04 3.56955E+05 5.00486E+04-3.51803E+05-1.41918E-08 1.98634E-09
 -1       802 3.81023E+04 3.67744E+05 5.67823E+04-1.24736E+06-6.12999E-09-1.98452E-09
 -1       803 1.25909E+03 3.53698E+05 6.23933E+04-3.50989E+05-1.92667E-08 8.86803E-09
 -1       804 7.95914E+04 3.93361E+05 1.32530E+05-1.24722E+06-1.01427E-08-8.20364E-09
 -1       805-4.70853E+04 3.31897E+05 1.94333E+05-3.51960E+05-7.40692E-09 6.35919E-09
 -1       806-3.25732E+05-8.83129E+04-2.69919E+04-1.52545E+05 2.96609E-09 8.93851E-09
 -1       807-3.25628E+05-8.15718E+04-1.27910E+04-1.61038E+05-3.45608E-11 1.32138E-09
 -1       808-3.25558E+05-7.43713E+04-5.37501E+03-1.58409E+05 8.09450E-11 1.94268E-09
 -1       809-3.22969E+05-7.66620E+04-2.59518E+03-1.62198E+05 2.46109E-09 9.37422E-09
 -1       810-3.25625E+05-7.33903E+04-1.17153E+03-1.58848E+05 1.71099E-09-3.92674E-10
 -1       811-3.22706E+05-7.63276E+04-5.85689E+02-1.62251E+05 3.75849E-10-9.14042E-09
 -1       812-3.25648E+05-7.33580E+04-3.03881E+02-1.58870E+05 1.37788E-09-2.27828E-10
 -1       813-3.22677E+05-7.63182E+04-2.20115E+02-1.62244E+05 6.28916E-10 2.96086E-09
 -1       814-3.25644E+05-7.33637E+04-2.50673E+02-1.58866E+05-6.23459E-10 2.27374E-11
 -1       815-3.22688E+05-7.63309E+04-4.44176E+02-1.62239E+05-6.63022E-10-5.36602E-11
 -1       816-3.25615E+05-7.33952E+04-8.67405E+02-1.58844E+05-3.33330E-10-2.04773E-09
 -1       817-3.22877E+05-7.65744E+04-1.91119E+03-1.62181E+05 1.35697E-09-2.60115E-10
 -1       818-3.25548E+05-7.41313E+04-3.95392E+03-1.58522E+05-2.71211E-09-3.86626E-09
 -1       819-3.24882E+05-8.01240E+04-9.40471E+03-1.61245E+05-2.37560E-09 3.05363E-09
 -1       820-3.25603E+05-8.44369E+04-1.98451E+04-1.54266E+05-3.25508E-09-4.42469E-09
 -1       821-3.44585E+05 9.54425E+03-4.42742E+04 3.02583E+03-3.87399E-09-1.10595E-09
 -1       822-3.60296E+05-1.33952E+04-2.81566E+04 1.13652E+04-1.82354E-09-4.06362E-09
 -1       823-3.51206E+05 9.52584E+02-1.14676E+04 2.93485E+03 3.77986E-09-3.94039E-09
 -1       824-3.52973E+05-1.25161E+03-6.36484E+03 1.14924E+04-3.02043E-09-3.04328E-09
 -1       825-3.51938E+05 1.04688E+02-2.92703E+03 2.89711E+03-7.12498E-09 1.84627E-10
 -1       826-3.52169E+05-9.06798E+01-1.58859E+03 1.15542E+04-1.20306E-08 2.73644E-10
 -1       827-3.52032E+05 2.05941E+01-8.69210E+02 2.87275E+03-8.45773E-09-1.45025E-09
 -1       828-3.52086E+05 1.43956E+01-6.73034E+02 1.15921E+04-9.55595E-09-3.98151E-09
 -1       829-3.52036E+05 2.08821E+01-7.70640E+02 2.85909E+03 5.13921E-10-7.76886E-10
 -1       830-3.52162E+05-6.28099E+01-1.33212E+03 1.16076E+04 4.33491E-09-3.65947E-09
 -1       831-3.51963E+05 9.29142E+01-2.41150E+03 2.85729E+03-7.79380E-10-1.40676E-09
 -1       832-3.52831E+05-1.00898E+03-5.22412E+03 1.15992E+04 6.89536E-09-6.57906E-10
 -1       833-3.51366E+05 7.90949E+02-9.39862E+03 2.86781E+03 2.86002E-09-8.23093E-10
 -1       834-3.58843E+05-1.09576E+04-2.30781E+04 1.15476E+04-3.70028E-09-3.81988E-09
 -1       835-3.45942E+05 7.83530E+03-3.62816E+04 2.91154E+03 1.13346E-09-5.24051E-09
 -1       836-1.46369E+04 8.47766E+05 7.17568E+04-2.35685E+04-1.17871E-09-2.36014E-10
 -1       837 2.32405E+04 8.73690E+05 5.56960E+04-8.18026E+04 4.69072E-10 3.59819E-10
 -1       838-3.48544E+03 8.56120E+05 4.19675E+04-2.35743E+04-1.75351E-09 1.90994E-09
 -1       839 3.16237E+04 8.78759E+05 7.09466E+04-8.17892E+04 1.56615E-09-1.59878E-09
 -1       840-2.11535E+04 8.42678E+05 1.00824E+05-2.35806E+04-1.85901E-09 8.91305E-10
 -1       841 7.11720E+03 5.03862E+03-1.04202E+04 8.17769E+02 1.59071E-09-6.67114E-10
 -1       842 1.42659E+03-4.31398E+03-7.22672E+03 2.88881E+03-1.68984E-09 2.26237E-10
 -1       843 4.99330E+03 1.29528E+03-2.44030E+03 1.53042E+03 1.48424E-09 5.66160E-11
 -1       844 3.89304E+03 1.90387E+01-1.51607E+03 2.06421E+03 8.29690E-09 1.92856E-10
 -1       845 4.65073E+03 7.08474E+02-5.53755E+02 1.64109E+03-5.47800E-10-4.40727E-09
 -1       846 4.29354E+03 7.01237E+02-2.97674E+02 1.93468E+03-2.20581E-10-4.19390E-09
 -1       847 4.59270E+03 6.13576E+02-7.54199E+01 1.65969E+03 1.36546E-09 3.08543E-09
 -1       848 4.37793E+03 8.36645E+02 5.99328E+01 1.90884E+03-1.50865E-08 6.69578E-09
 -1       849 4.56626E+03 5.73186E+02 2.09521E+02 1.66685E+03-5.11218E-06 1.93652E-06
 -1       850 4.51024E+03 1.04958E+03 5.86695E+02 1.87278E+03-1.02059E-05 3.84249E-06
 -1       851 4.46040E+03 4.00767E+02 1.03386E+03 1.69570E+03-5.11912E-06 1.92639E-06
 -1       852 5.25261E+03 2.30800E+03 2.80346E+03 1.64853E+03-1.62423E-08-1.64647E-10
 -1       853 3.82405E+03-6.84500E+02 4.49085E+03 1.89084E+03-6.22299E-09 7.81256E-10
 -1       854 9.80676E+03 1.02960E+04 1.33124E+04 1.49327E+02-2.00998E-10-1.59798E-09
 -1       855-9.24862E+01-7.58192E+03 1.91726E+04 3.19314E+03 7.51243E-10-7.03039E-10
 -1       856-4.10623E+05 9.11343E+03-4.23429E+04 5.94676E+03-8.90668E-09-3.93266E-09
 -1       857-4.25634E+05-1.27570E+04-2.69160E+04 2.26752E+04-1.14703E-08-5.32418E-09
 -1       858-4.16963E+05 9.16447E+02-1.09671E+04 5.79037E+03-1.11349E-08-4.41651E-09
 -1       859-4.18681E+05-1.12865E+03-6.07901E+03 2.28951E+04-5.91399E-10-6.94445E-09
 -1       860-4.17671E+05 1.16807E+02-2.79054E+03 5.72375E+03 2.17278E-09-5.52109E-09
 -1       861-4.17941E+05-6.36021E+00-1.49916E+03 2.29950E+04-7.26334E-09-6.80484E-09
 -1       862-4.17765E+05 4.16529E+01-7.93481E+02 5.68974E+03 1.14040E-08-5.11051E-09
 -1       863-4.17868E+05 1.00314E+02-5.66905E+02 2.30366E+04 2.52799E-08-3.53162E-09
 -1       864-4.17772E+05 3.98366E+01-5.88138E+02 5.68198E+03 1.73837E-08-7.38368E-09
 -1       865-4.17908E+05 4.47038E+01-9.62210E+02 2.30248E+04 1.98511E-08-4.07641E-09
 -1       866-4.17717E+05 8.49303E+01-1.71460E+03 5.70155E+03-1.34060E-09-6.51303E-09
 -1       867-4.18350E+05-6.35238E+02-3.69165E+03 2.29569E+04-3.91424E-10-8.06446E-09
 -1       868-4.17288E+05 5.66184E+02-6.64270E+03 5.75037E+03 7.94171E-09-3.14867E-09
 -1       869-4.22543E+05-7.67638E+03-1.62890E+04 2.27775E+04 1.28352E-09-5.11477E-09
 -1       870-4.13449E+05 5.52006E+03-2.56261E+04 5.88348E+03 5.69571E-09-3.25417E-09
 -1       871-4.38620E+03-3.99928E+04-7.91508E+03 1.18913E+05-5.53428E-09 4.91309E-09
 -1       872-1.48912E+03-4.14258E+04-2.32607E+03 1.39594E+05-1.18262E-08 9.00172E-09
 -1       873-3.26574E+01-4.09305E+04 2.29626E+03 1.18689E+05-5.68025E-09 7.58428E-09
 -1       874 2.56906E+03-3.90473E+04 8.61214E+03 1.39694E+05-6.76118E-09 3.29067E-10
 -1       875 8.68563E+03-4.25004E+04 1.85741E+04 1.18834E+05-5.86806E-09 2.93312E-10
 -1       876 5.07899E+05 6.51828E+04 4.78418E+04 2.00460E+05 5.02496E-10 2.38651E-09
 -1       877 5.18296E+05 1.01491E+05 2.99998E+04 2.07886E+05 6.89306E-09-2.33285E-10
 -1       878 5.15981E+05 7.56378E+04 1.12884E+04 1.99489E+05-3.34035E-09-2.18552E-09
 -1       879 5.08991E+05 8.76306E+04 6.17468E+03 2.09712E+05-8.12179E-10-1.69950E-09
 -1       880 5.16836E+05 7.67825E+04 2.63481E+03 1.99464E+05-3.83602E-09-1.95996E-10
 -1       881 5.08003E+05 8.61583E+04 1.40990E+03 2.09759E+05-5.66615E-09-5.30235E-09
 -1       882 5.16912E+05 7.69343E+04 7.56715E+02 1.99494E+05-1.47924E-08 3.63249E-09
 -1       883 5.07925E+05 8.59955E+04 6.52645E+02 2.09714E+05-8.63699E-09 2.95026E-09
 -1       884 5.16897E+05 7.69423E+04 8.56612E+02 1.99503E+05 5.91918E-09 3.15168E-09
 -1       885 5.08064E+05 8.61571E+04 1.68350E+03 2.09709E+05 1.61539E-08 4.63842E-11
 -1       886 5.16776E+05 7.67865E+04 3.19371E+03 1.99493E+05 4.30055E-09 4.84715E-09
 -1       887 5.09308E+05 8.79003E+04 7.50565E+03 2.09582E+05-4.31243E-09 7.59428E-11
 -1       888 5.15702E+05 7.54256E+04 1.37363E+04 1.99552E+05 4.72994E-09-3.33785E-10
 -1       889 5.20662E+05 1.04721E+05 3.65012E+04 2.07295E+05 7.77732E-09 3.15595E-09
 -1       890 5.05845E+05 6.27308E+04 5.82214E+04 2.00753E+05 3.78986E-09 5.56611E-09
 -1       891 1.70519E+03-2.27896E+05-9.00488E+03 2.79896E+04-4.20596E-09 2.32103E-09
 -1       892-3.11213E+03-2.30987E+05-7.14577E+03 9.90361E+04-1.15153E-08-7.89032E-09
 -1       893 4.31803E+02-2.28940E+05-5.68487E+03 2.78626E+04-3.45017E-09 3.04033E-09
 -1       894-4.69238E+03-2.31926E+05-1.00093E+04 9.90254E+04-1.02254E-08-1.99998E-09
 -1       895 2.92241E+03-2.26935E+05-1.44629E+04 2.79996E+04-2.42198E-09 2.81398E-09
 -1       896 3.59214E+05 4.54135E+02-1.12321E+03-6.63426E+01 9.33468E-10 3.65941E-09
 -1       897 3.59018E+05-5.20165E+02-7.33466E+02 3.42239E+03-7.71720E-11 4.98125E-09
 -1       898 3.59160E+05 7.70285E+01-2.79899E+02 5.76373E+02-3.35021E-10 4.89575E-09
 -1       899 3.59078E+05-7.92219E+01-1.61639E+02 2.59418E+03-6.73905E-11 5.87369E-09
 -1       900 3.59150E+05 1.58131E+01-4.48185E+01 7.61877E+02-8.23684E-10 5.22459E-09
 -1       901 3.59111E+05-8.55866E+00 1.36775E+01 2.56490E+03-1.47288E-09 5.95489E-09
 -1       902 3.59127E+05 6.47373E+00 8.64344E+01 6.05652E+02 1.50473E-09 4.93451E-09
 -1       903 3.59253E+05 1.08163E+01 2.36275E+02 3.31639E+03-6.03961E-10 5.27793E-09
 -1       904 3.59011E+05-5.54634E+00 4.01692E+02 1.03784E+01 6.21114E-10 3.68235E-09
 -1       905 3.59979E+05 1.63241E+02 1.07267E+03 5.31606E+03 3.61170E-09 3.26668E-09
 -1       906 3.58416E+05-1.55594E+02 1.57827E+03-1.39403E+03 2.54104E-09 6.72230E-10
 -1       907 3.63725E+05 1.65016E+03 4.76146E+03 9.80233E+03-3.95431E-10-9.26150E-10
 -1       908 3.55335E+05-1.53670E+03 6.04436E+03-4.47620E+03 9.16145E-10-5.62659E-09
 -1       909 3.83298E+05 1.36734E+04 2.17595E+04 1.95620E+04 1.10387E-08-1.02675E-08
 -1       910 3.39170E+05-1.23794E+04 2.23968E+04-1.11582E+04 1.00131E-08-1.91958E-08
 -1       911 5.06812E+04-1.28367E+03-3.63713E+03-4.41009E+03-1.28421E-08-1.76330E-08
 -1       912 8.79096E+04 1.00615E+03 4.22726E+03 1.35633E+04-6.78918E-09-1.11870E-08
 -1       913 5.97596E+04-2.10310E+01-1.33397E+03-3.12792E+03-1.82922E-10-2.40836E-09
 -1       914 7.42127E+04-1.46181E+02 1.50280E+03 1.14320E+04 3.35021E-09 2.44353E-09
 -1       915 6.40502E+04 9.69832E+01-3.82145E+02-2.27349E+03-2.72397E-09 6.72493E-09
 -1       916 6.80084E+04-1.42853E+02 3.68886E+02 1.01500E+04-9.36923E-09 1.07064E-08
 -1       917 6.58096E+04 8.35403E+01 2.24911E+01-1.84595E+03-6.55639E-09 1.10911E-08
 -1       918 6.61521E+04-7.74340E+01 1.15918E+02 9.70639E+03-3.17441E-09 1.36355E-08
 -1       919 6.58595E+04 6.44816E+01 1.94025E+02-1.83022E+03-7.81770E-09 1.12072E-08
 -1       920 6.78159E+04 1.95357E+01 7.80490E+02 1.00865E+04-7.46059E-09 1.16481E-08
 -1       921 6.41859E+04-4.13866E+01 4.90670E+02-2.22569E+03-3.64986E-09 6.64329E-09
 -1       922 7.40363E+04 8.70567E+02 3.45359E+03 1.13075E+04-5.42013E-09 4.40232E-09
 -1       923 5.97834E+04-8.86879E+02 2.07270E+03-3.05117E+03-2.78703E-10-2.66982E-09
 -1       924 8.95025E+04 7.36613E+03 1.30206E+04 1.34424E+04 7.99821E-09-8.00014E-09
 -1       925 4.90301E+04-6.74887E+03 9.38947E+03-4.36498E+03 5.62159E-09-1.74914E-08
 -1       926-2.07293E+05 5.09344E+03-1.19867E+04 6.51786E+03-6.23042E-09-2.43681E-08
 -1       927-2.08562E+05-5.74436E+03-7.67953E+03-9.82724E+03 2.78242E-08-2.55001E-08
 -1       928-2.12445E+05 6.72750E+02-3.74465E+03 4.72642E+03-4.12331E-09-1.75714E-08
 -1       929-2.00030E+05-6.42654E+02 9.27214E+01-4.92259E+03-2.48603E-08-1.60614E-08
 -1       930-2.15665E+05-1.25672E+02-1.91558E+03 1.61150E+03-2.70558E-09-7.13874E-09
 -1       931-1.97397E+05 1.97294E+02 2.24252E+03 1.67926E+03 1.06082E-08-2.58201E-09
 -1       932-2.15021E+05-2.09796E+02-7.44315E+02-1.87384E+03 5.18594E-09 4.50433E-09
 -1       933-2.01520E+05 3.97644E+02 2.68825E+03 7.88616E+03-5.00518E-09 1.02956E-08
 -1       934-2.11653E+05-2.41000E+02 1.84512E+03-4.59406E+03 4.24444E-09 1.34240E-08
 -1       935-2.06617E+05 1.68735E+03 5.64704E+03 1.17234E+04 5.92922E-09 1.84981E-08
 -1       936-2.10074E+05-1.38336E+03 9.19029E+03-5.71234E+03 1.27662E-09 1.72959E-08
 -1       937-2.02742E+05 1.09437E+04 2.28461E+04 1.20464E+04 1.79054E-08 1.97747E-08
 -1       938-2.15540E+05-9.47737E+03 3.57089E+04-4.91734E+03 2.02379E-08 1.38007E-08
 -1       939-1.70162E+05 7.02359E+04 9.98898E+04 8.93575E+03 9.38402E-09 1.32004E-08
 -1       940-2.42477E+05-6.07252E+04 1.38163E+05-2.60030E+03-2.37878E-09 5.81349E-09
 -1       941 5.99881E+06-3.01319E+05 7.00944E+05 2.33156E+03 4.26797E-08 6.89761E-09
 -1       942 6.30125E+06 3.49060E+05 4.94915E+05 9.75780E+02 4.33631E-08-9.40054E-09
 -1       943 6.11579E+06-4.72649E+04 1.81722E+05 1.60369E+03-4.03337E-07-3.78350E-09
 -1       944 6.16577E+06 5.47175E+04 1.14285E+05 1.66714E+03-8.33809E-07-2.11185E-09
 -1       945 6.13525E+06-7.39944E+03 4.69557E+04 1.64079E+03-5.27288E-07 5.27871E-09
 -1       946 6.14346E+06 8.69017E+03 2.81831E+04 1.63363E+03-2.31780E-07 9.38280E-09
 -1       947 6.13847E+06-1.28352E+03 1.40890E+04 1.63731E+03-3.24335E-08 5.67479E-09
 -1       948 6.14019E+06 2.37567E+03 1.16528E+04 1.63773E+03 1.72522E-07 6.26196E-09
 -1       949 6.13859E+06-1.08981E+03 1.23332E+04 1.63671E+03 9.82910E-07-9.64678E-09
 -1       950 6.14257E+06 7.02478E+03 2.31139E+04 1.62618E+03 1.79634E-06 4.25325E-09
 -1       951 6.13604E+06-5.92909E+03 3.78298E+04 1.64884E+03 5.99807E-06-1.74241E-08
 -1       952 6.16037E+06 4.37848E+04 9.15666E+04 1.78701E+03 1.01756E-05-3.06318E-09
 -1       953 6.12048E+06-3.78150E+04 1.45427E+05 1.47579E+03 5.08740E-06 3.69546E-08
 -1       954 6.26877E+06 2.79258E+05 3.95955E+05-9.17175E+02 1.21481E-08 3.02389E-08
 -1       955 6.02676E+06-2.41091E+05 5.60438E+05 4.35200E+03-3.53357E-08-1.45519E-10
 -1       956-3.15449E+05-5.53502E+03-1.18130E+04 4.22434E+04-9.79526E-09 1.23782E-09
 -1       957-3.17635E+05-1.73837E+03-5.96965E+03 4.92420E+04-9.26138E-09-1.93495E-10
 -1       958-3.16456E+05-1.71555E+02-2.68728E+03 4.19895E+04 1.97906E-09-1.38016E-09
 -1       959-3.16672E+05 2.07553E+01-1.36625E+03 4.95196E+04-3.65981E-09-3.17914E-09
 -1       960-3.16590E+05 9.43796E+01-6.64235E+02 4.19623E+04-1.49348E-08-2.62480E-09
 -1       961-3.16627E+05 1.18450E+02-3.49213E+02 4.95504E+04-2.27960E-08 2.76123E-09
 -1       962-3.16635E+05 1.09388E+02-1.96057E+02 4.19581E+04-1.03355E-08 1.83582E-09
 -1       963-3.16647E+05 1.33207E+02-1.49452E+02 4.95559E+04-6.63294E-09-1.93631E-09
 -1       964-3.16654E+05 1.19967E+02-1.72728E+02 4.19566E+04 1.21872E-10-2.39470E-09
 -1       965-3.16667E+05 1.41279E+02-2.91185E+02 4.95560E+04 5.75994E-09-2.57251E-09
 -1       966-3.16647E+05 1.26468E+02-5.43303E+02 4.19579E+04-1.31195E-10-2.36469E-10
 -1       967-3.16737E+05 8.01218E+01-1.11593E+03 4.95403E+04 6.83303E-09-6.58929E-10
 -1       968-3.16565E+05-7.37027E+01-2.19114E+03 4.19727E+04 1.03414E-08-1.86924E-09
 -1       969-3.17554E+05-1.34132E+03-4.87274E+03 4.93862E+04 9.79435E-09-5.69798E-10
 -1       970-3.15763E+05-4.44335E+03-9.63971E+03 4.21183E+04 6.22276E-09-1.69166E-09
 -1       971-5.98085E+05 7.51787E+03-3.49864E+04 5.77529E+03-6.38738E-09-1.67893E-09
 -1       972-6.10442E+05-1.05355E+04-2.22358E+04 2.26205E+04-1.53364E-09-1.79716E-09
 -1       973-6.03324E+05 7.52513E+02-9.06890E+03 5.56563E+03-6.93353E-09-2.73940E-09
 -1       974-6.04718E+05-9.21687E+02-5.03415E+03 2.29307E+04-6.00949E-10-1.35390E-09
 -1       975-6.03911E+05 9.67772E+01-2.33386E+03 5.46269E+03-4.77485E-11-5.59317E-09
 -1       976-6.04124E+05 1.12560E+01-1.29396E+03 2.30903E+04-1.28213E-08 8.50719E-10
 -1       977-6.03990E+05 3.89051E+01-7.66393E+02 5.40539E+03 9.12769E-09-5.60237E-09
 -1       978-6.04084E+05 9.72964E+01-6.96131E+02 2.31658E+04 2.79968E-08-5.16815E-09
 -1       979-6.03988E+05 4.56230E+01-9.30375E+02 5.38703E+03 1.49709E-08-4.05382E-09
 -1       980-6.04187E+05-1.41600E+01-1.72856E+03 2.31626E+04 1.83962E-08-5.78462E-10
 -1       981-6.03885E+05 1.38203E+02-3.19747E+03 5.40860E+03-2.20871E-09-5.39558E-09
 -1       982-6.05059E+05-1.28945E+03-6.96472E+03 2.30784E+04-3.28293E-09-2.86377E-10
 -1       983-6.03080E+05 1.06156E+03-1.25534E+04 5.47205E+03 9.58607E-09-3.71620E-09
 -1       984-6.13049E+05-1.45987E+04-3.08263E+04 2.28639E+04 2.54840E-09 1.70485E-09
 -1       985-5.95826E+05 1.04599E+04-4.84798E+04 5.62783E+03 5.84396E-09-3.92174E-09
 -3
    1PSTEP                        53          27           1          
  100CL  127 1.000000000         841                     0   27           1
 -4  DISP        4    1
 -5  D1          1    2    1    0
 -5  D2          1    2    2    0
 -5  D3          1    2    3    0
 -5  ALL         1    2    0    0    1ALL
 -1         1 1.28006E-04 0.00000E+00 0.00000E+00
 -1         2 1.06512E-04 0.00000E+00 0.00000E+00
 -1         3 8.94452E-05 0.00000E+00 0.00000E+00
 -1         4 7.53296E-05 0.00000E+00 0.00000E+00
 -1         5 6.32774E-05 0.00000E+00 0.00000E+00
 -1         8 1.02133E-04-1.28830E-06 0.00000E+00
 -1         9 7.76004E-05-3.90700E-07 0.00000E+00
 -1        10 7.70682E-05-2.90971E-06 0.00000E+00
 -1        11 6.94485E-05-4.99532E-07 0.00000E+00
 -1        12 6.08147E-05 1.44579E-06 0.00000E+00
 -1        15 5.76658E-05-1.38184E-06 0.00000E+00
 -1        16 6.10478E-05-5.29490E-07 0.00000E+00
 -1        17 5.27282E-05-5.86272E-06 0.00000E+00
 -1        18 5.25343E-05-1.05082E-06 0.00000E+00
 -1        19 5.49859E-05 2.87543E-06 0.00000E+00
 -1        20 5.58023E-05 3.12337E-05 0.00000E+00
 -1        21 5.57709E-05 7.46713E-05 0.00000E+00
 -1        22 2.33861E-05-8.86400E-07 0.00000E+00
 -1        23 2.43022E-05-4.94742E-07 0.00000E+00
 -1        24 2.22920E-05-7.06822E-06 0.00000E+00
 -1        25 4.70565E-05-6.39743E-07 0.00000E+00
 -1        26 4.90763E-05 3.82803E-06 0.00000E+00
 -1        27 4.66674E-05 3.00790E-05 0.00000E+00
 -1        28 4.37680E-05 7.35774E-05 0.00000E+00
 -1        29 0.00000E+00 0.00000E+00 0.00000E+00
 -1        30 1.85259E-06-9.63269E-07 0.00000E+00
 -1        31 1.83603E-06-7.12831E-06 0.00000E+00
 -1        32 0.00000E+00 0.00000E+00 0.00000E+00
 -1        33 4.14729E-05 5.97467E-06 0.00000E+00
 -1        34 3.92912E-05 2.99648E-05 0.00000E+00
 -1        35 3.51184E-05 7.29887E-05 0.00000E+00
 -1        36 1.26700E-04 4.14186E-20-2.64698E-23
 -1        37 1.25356E-04 6.00765E-20 0.00000E+00
 -1        38 1.24015E-04 7.21285E-20 0.00000E+00
 -1        39 1.22667E-04-2.05141E-22 0.00000E+00
 -1        40 1.21318E-04-1.18626E-19 5.29396E-23
 -1        41 1.19968E-04-4.00750E-19 2.64698E-23
 -1        42 1.18618E-04-6.56441E-19-5.29396E-23
 -1        43 1.17268E-04-1.14312E-19 0.00000E+00
 -1        44 1.15917E-04 3.08521E-19-5.29396E-23
 -1        45 1.14567E-04 1.07304E-19-2.64698E-23
 -1        46 1.13217E-04-1.79994E-19-5.29396E-23
 -1        47 1.11868E-04-5.72903E-19 0.00000E+00
 -1        48 1.10519E-04-8.30552E-19 0.00000E+00
 -1        49 1.09175E-04-2.57688E-19-1.32349E-23
 -1        50 1.07830E-04 1.36793E-19 2.64698E-23
 -1        51 1.26042E-04-2.16964E-07 0.00000E+00
 -1        52 1.22800E-04-4.25260E-07 0.00000E+00
 -1        53 1.18529E-04-6.33186E-07 0.00000E+00
 -1        54 1.13487E-04-8.43663E-07 0.00000E+00
 -1        55 1.07934E-04-1.05908E-06 7.44463E-24
 -1        56 1.25404E-04-1.19536E-06 0.00000E+00
 -1        57 1.22826E-04-2.75357E-06-2.64698E-23
 -1        58 1.20323E-04-4.49579E-06 1.05879E-22
 -1        59 1.17816E-04-6.27868E-06-5.29396E-23
 -1        60 1.15264E-04-7.94091E-06 0.00000E+00
 -1        61 1.12607E-04-9.33529E-06 5.29396E-23
 -1        62 1.09805E-04-1.03421E-05 1.05879E-22
 -1        63 1.06821E-04-1.08656E-05 5.29396E-23
 -1        64 1.03639E-04-1.08620E-05 0.00000E+00
 -1        65 1.00254E-04-1.03184E-05 0.00000E+00
 -1        66 9.66836E-05-9.28058E-06 1.05879E-22
 -1        67 9.29573E-05-7.82236E-06 0.00000E+00
 -1        68 8.91185E-05-6.06442E-06-1.05879E-22
 -1        69 8.52343E-05-4.13866E-06 0.00000E+00
 -1        70 8.13424E-05-2.20810E-06-5.29396E-23
 -1        71 1.05460E-04-2.10208E-19 0.00000E+00
 -1        72 1.04392E-04-4.92476E-19 1.32349E-23
 -1        73 1.03325E-04-1.62649E-19 0.00000E+00
 -1        74 1.02255E-04 5.23932E-19 0.00000E+00
 -1        75 1.01185E-04 8.01791E-19-2.64698E-23
 -1        76 1.00115E-04 9.34129E-19 1.32349E-23
 -1        77 9.90440E-05 5.47440E-19 2.64698E-23
 -1        78 9.79731E-05 4.40653E-19 0.00000E+00
 -1        79 9.69023E-05 2.61883E-19 2.64698E-23
 -1        80 9.58317E-05 4.00157E-19 1.32349E-23
 -1        81 9.47611E-05 6.69558E-19 0.00000E+00
 -1        82 9.36914E-05 8.72952E-19 0.00000E+00
 -1        83 9.26218E-05 8.50026E-19 0.00000E+00
 -1        84 9.15565E-05 7.49052E-19 1.32349E-23
 -1        85 9.04897E-05 2.07181E-19 0.00000E+00
 -1        86 1.04987E-04-7.09691E-08-1.32349E-23
 -1        87 1.00440E-04-1.26148E-07 0.00000E+00
 -1        88 9.41396E-05-1.91819E-07 0.00000E+00
 -1        89 8.73574E-05-2.59451E-07 0.00000E+00
 -1        90 8.14067E-05-3.20742E-07 0.00000E+00
 -1        91 9.95764E-05 1.69508E-05 1.32349E-23
 -1        92 7.88508E-05 6.73709E-05 0.00000E+00
 -1        93 5.41025E-05 1.27085E-04 0.00000E+00
 -1        94 3.57686E-05 1.72045E-04 0.00000E+00
 -1        95 2.93775E-05 1.87575E-04 0.00000E+00
 -1        96 3.92101E-05 1.59042E-04-3.30872E-24
 -1        97 6.08348E-05 9.44651E-05 0.00000E+00
 -1        98 9.04164E-05 2.69532E-06-3.30872E-24
 -1        99 1.20266E-04-9.00151E-05-6.61744E-24
 -1       100 1.42746E-04-1.57381E-04 0.00000E+00
 -1       101 1.53809E-04-1.89510E-04 0.00000E+00
 -1       102 1.48733E-04-1.77349E-04 0.00000E+00
 -1       103 1.31324E-04-1.34576E-04 0.00000E+00
 -1       104 1.06612E-04-7.49450E-05 6.61744E-24
 -1       105 8.51807E-05-2.28808E-05 0.00000E+00
 -1       106 8.85769E-05 1.16729E-19 0.00000E+00
 -1       107 8.76938E-05 3.54987E-19 1.32349E-23
 -1       108 8.68116E-05 4.62169E-19 0.00000E+00
 -1       109 8.59266E-05 5.85930E-19-1.32349E-23
 -1       110 8.50416E-05 1.03626E-19-2.64698E-23
 -1       111 8.41559E-05-2.55704E-19 1.32349E-23
 -1       112 8.32702E-05-6.39543E-19 0.00000E+00
 -1       113 8.23844E-05-4.18315E-19 0.00000E+00
 -1       114 8.14987E-05 2.43777E-19 0.00000E+00
 -1       115 8.06130E-05 5.29149E-19-1.32349E-23
 -1       116 7.97274E-05 2.07796E-19 0.00000E+00
 -1       117 7.88426E-05-5.89323E-19-1.32349E-23
 -1       118 7.79578E-05-1.06627E-18 0.00000E+00
 -1       119 7.70764E-05-7.02004E-19 0.00000E+00
 -1       120 7.61939E-05-1.63265E-19 2.64698E-23
 -1       121 8.90394E-05-4.84509E-07-1.32349E-23
 -1       122 8.78871E-05-9.67951E-07 0.00000E+00
 -1       123 8.60487E-05-1.45232E-06 1.32349E-23
 -1       124 8.35884E-05-1.93740E-06 6.61744E-24
 -1       125 8.05720E-05-2.42390E-06 1.32349E-23
 -1       126 8.52655E-05 1.05311E-05-6.61744E-24
 -1       127 7.27452E-05 4.20536E-05 3.30872E-24
 -1       128 5.36543E-05 8.92877E-05 3.30872E-24
 -1       129 3.00290E-05 1.46971E-04-1.65436E-24
 -1       130 5.32405E-06 2.07107E-04 0.00000E+00
 -1       131-1.69469E-05 2.61714E-04-1.65436E-24
 -1       132-3.40550E-05 3.04267E-04-3.30872E-24
 -1       133-4.34952E-05 3.28222E-04-1.65436E-24
 -1       134-4.48911E-05 3.31535E-04 3.30872E-24
 -1       135-3.80065E-05 3.12245E-04 0.00000E+00
 -1       136-2.44909E-05 2.73715E-04 3.30872E-24
 -1       137-5.86471E-06 2.19474E-04 1.65436E-24
 -1       138 1.52999E-05 1.57168E-04 0.00000E+00
 -1       139 3.65655E-05 9.45328E-05-1.65436E-24
 -1       140 5.54779E-05 3.93964E-05 0.00000E+00
 -1       141 7.45860E-05 3.38227E-19 0.00000E+00
 -1       142 7.38293E-05 1.13403E-18 1.32349E-23
 -1       143 7.30734E-05 1.86666E-18-2.64698E-23
 -1       144 7.23150E-05 2.01589E-18 0.00000E+00
 -1       145 7.15566E-05 1.41413E-18 0.00000E+00
 -1       146 7.07977E-05 3.73854E-19 0.00000E+00
 -1       147 7.00388E-05-1.60679E-19-2.64698E-23
 -1       148 6.92798E-05-1.84231E-19-1.32349E-23
 -1       149 6.85208E-05 2.40514E-19 0.00000E+00
 -1       150 6.77622E-05 9.17875E-19 1.32349E-23
 -1       151 6.70037E-05 1.16372E-18 0.00000E+00
 -1       152 6.62468E-05 9.61445E-19 0.00000E+00
 -1       153 6.54901E-05 6.72921E-19 0.00000E+00
 -1       154 6.47409E-05 3.51727E-19 0.00000E+00
 -1       155 6.39892E-05 7.18576E-20 0.00000E+00
 -1       156 7.15551E-05-3.12422E-08 0.00000E+00
 -1       157 6.03875E-05-9.74890E-08 0.00000E+00
 -1       158 4.82382E-05-1.75142E-07 0.00000E+00
 -1       159 4.15171E-05-1.99929E-07 0.00000E+00
 -1       160 4.64977E-05-2.27726E-07-1.65436E-24
 -1       161 7.15200E-05 9.53517E-06 6.61744E-24
 -1       162 6.01868E-05 3.81028E-05 0.00000E+00
 -1       163 4.32549E-05 8.02096E-05 0.00000E+00
 -1       164 2.28897E-05 1.30364E-04 0.00000E+00
 -1       165 2.48418E-06 1.80612E-04 0.00000E+00
 -1       166-1.45632E-05 2.23001E-04-1.65436E-24
 -1       167-2.60556E-05 2.51963E-04 3.30872E-24
 -1       168-3.00159E-05 2.61938E-04 1.65436E-24
 -1       169-2.67690E-05 2.52719E-04 3.30872E-24
 -1       170-1.66872E-05 2.24223E-04 1.65436E-24
 -1       171-1.93494E-06 1.81918E-04 0.00000E+00
 -1       172 1.54821E-05 1.31420E-04-1.65436E-24
 -1       173 3.28883E-05 8.09583E-05 0.00000E+00
 -1       174 4.76076E-05 3.87611E-05 8.27181E-25
 -1       175 5.76339E-05 1.04369E-05 1.65436E-24
 -1       191 6.31725E-05 2.40476E-07 0.00000E+00
 -1       192 6.29359E-05 4.81529E-07-6.61744E-24
 -1       193 6.25741E-05 7.22713E-07 1.32349E-23
 -1       194 6.20947E-05 9.63904E-07 0.00000E+00
 -1       195 6.15053E-05 1.20500E-06-1.32349E-23
 -1       251 1.01574E-04 1.82839E-05 1.32349E-23
 -1       252 1.00055E-04 6.73933E-05-6.61744E-24
 -1       253 9.82142E-05 1.23334E-04 1.32349E-23
 -1       254 9.71143E-05 1.63310E-04-6.61744E-24
 -1       255 9.66557E-05 1.74485E-04 1.32349E-23
 -1       256 9.58260E-05 1.44490E-04-6.61744E-24
 -1       257 9.36188E-05 8.22259E-05 0.00000E+00
 -1       258 8.97881E-05-2.89015E-06 0.00000E+00
 -1       259 8.59923E-05-8.75566E-05 1.32349E-23
 -1       260 8.38629E-05-1.48475E-04 0.00000E+00
 -1       261 8.30828E-05-1.76712E-04-1.32349E-23
 -1       262 8.26051E-05-1.63863E-04 6.61744E-24
 -1       263 8.14632E-05-1.22776E-04-1.32349E-23
 -1       264 7.96197E-05-6.67557E-05 0.00000E+00
 -1       265 7.81350E-05-1.84455E-05 1.32349E-23
 -1       266 9.83362E-05-1.28684E-06-6.61744E-24
 -1       267 9.60753E-05-1.25922E-06-1.65436E-24
 -1       268 9.31571E-05-1.23494E-06 0.00000E+00
 -1       269 8.73882E-05-1.21814E-06 1.03398E-25
 -1       270 7.63624E-05-1.24586E-06 0.00000E+00
 -1       271 9.84310E-05 1.98534E-06 5.29396E-23
 -1       272 9.50092E-05 4.29526E-06 0.00000E+00
 -1       273 9.19170E-05 5.73845E-06 0.00000E+00
 -1       274 8.91079E-05 6.39801E-06 0.00000E+00
 -1       275 8.65524E-05 6.37997E-06 0.00000E+00
 -1       276 8.42055E-05 5.80109E-06 0.00000E+00
 -1       277 8.20204E-05 4.78962E-06 0.00000E+00
 -1       278 7.99457E-05 3.48260E-06 0.00000E+00
 -1       279 7.79282E-05 2.02280E-06 5.29396E-23
 -1       280 7.59135E-05 5.56278E-07 2.64698E-23
 -1       281 7.38470E-05-7.70900E-07-5.29396E-23
 -1       282 7.16764E-05-1.81533E-06 0.00000E+00
 -1       283 6.93494E-05-2.43951E-06 0.00000E+00
 -1       284 6.68257E-05-2.51172E-06-2.64698E-23
 -1       285 6.40497E-05-1.91771E-06 5.29396E-23
 -1       286 7.75461E-05 1.81896E-06-6.61744E-24
 -1       287 7.75137E-05 3.01200E-06 0.00000E+00
 -1       288 7.74806E-05 3.29590E-06 0.00000E+00
 -1       289 7.74513E-05 2.77904E-06 0.00000E+00
 -1       290 7.74217E-05 1.61921E-06 1.65436E-24
 -1       291 7.73921E-05-2.50378E-08 0.00000E+00
 -1       292 7.73621E-05-1.96579E-06 0.00000E+00
 -1       293 7.73321E-05-4.01481E-06 0.00000E+00
 -1       294 7.73022E-05-5.97727E-06-8.27181E-25
 -1       295 7.72728E-05-7.65845E-06 0.00000E+00
 -1       296 7.72439E-05-8.88065E-06 1.65436E-24
 -1       297 7.72149E-05-9.46670E-06 8.27181E-25
 -1       298 7.71860E-05-9.27790E-06-3.30872E-24
 -1       299 7.71534E-05-8.17649E-06 1.65436E-24
 -1       300 7.71203E-05-6.08068E-06 0.00000E+00
 -1       301 7.48313E-05-4.27182E-07 0.00000E+00
 -1       302 7.20484E-05-4.41316E-07 3.30872E-24
 -1       303 6.92652E-05-4.51778E-07 6.61744E-24
 -1       304 6.64951E-05-4.63262E-07 0.00000E+00
 -1       305 6.37516E-05-4.80641E-07 0.00000E+00
 -1       306 7.53297E-05 1.28893E-06 0.00000E+00
 -1       307 7.33528E-05 2.06662E-06 2.64698E-23
 -1       308 7.16681E-05 2.07001E-06 0.00000E+00
 -1       309 7.02217E-05 1.42052E-06 2.64698E-23
 -1       310 6.89690E-05 2.52059E-07 5.29396E-23
 -1       311 6.78572E-05-1.29607E-06 0.00000E+00
 -1       312 6.68331E-05-3.07937E-06-5.29396E-23
 -1       313 6.58415E-05-4.95031E-06 0.00000E+00
 -1       314 6.48271E-05-6.76011E-06-5.29396E-23
 -1       315 6.37348E-05-8.36087E-06 0.00000E+00
 -1       316 6.25104E-05-9.60750E-06-5.29396E-23
 -1       317 6.11021E-05-1.03596E-05 0.00000E+00
 -1       318 5.94590E-05-1.04833E-05-5.29396E-23
 -1       319 5.75401E-05-9.85160E-06-1.32349E-23
 -1       320 5.52927E-05-8.35183E-06 0.00000E+00
 -1       321 7.69057E-05 6.34659E-06 6.61744E-24
 -1       322 7.66003E-05 2.66534E-05 0.00000E+00
 -1       323 7.61070E-05 5.51223E-05-3.30872E-24
 -1       324 7.54596E-05 8.88318E-05 1.65436E-24
 -1       325 7.47733E-05 1.23751E-04 0.00000E+00
 -1       326 7.41786E-05 1.55846E-04 0.00000E+00
 -1       327 7.37542E-05 1.81676E-04 0.00000E+00
 -1       328 7.35254E-05 1.97828E-04-1.65436E-24
 -1       329 7.34068E-05 2.02877E-04 0.00000E+00
 -1       330 7.32739E-05 1.95450E-04 0.00000E+00
 -1       331 7.30012E-05 1.76690E-04 0.00000E+00
 -1       332 7.24958E-05 1.47789E-04 1.65436E-24
 -1       333 7.17815E-05 1.12018E-04 0.00000E+00
 -1       334 7.09383E-05 7.26784E-05 1.65436E-24
 -1       335 7.01131E-05 3.38227E-05-3.30872E-24
 -1       336 7.31686E-05-3.40111E-06 1.32349E-23
 -1       337 6.90318E-05-3.89552E-06 6.61744E-24
 -1       338 6.47881E-05-4.39015E-06-1.32349E-23
 -1       339 6.05690E-05-4.88399E-06 6.61744E-24
 -1       340 5.65057E-05-5.37734E-06 0.00000E+00
 -1       341 7.06418E-05 1.33136E-05 6.61744E-24
 -1       342 5.41020E-05 5.44292E-05 3.30872E-24
 -1       343 3.01075E-05 1.12892E-04 0.00000E+00
 -1       344 1.71454E-06 1.81199E-04-1.65436E-24
 -1       345-2.63283E-05 2.48726E-04 3.30872E-24
 -1       346-4.92894E-05 3.04847E-04 1.65436E-24
 -1       347-6.43707E-05 3.42480E-04-3.30872E-24
 -1       348-6.91484E-05 3.54531E-04-1.65436E-24
 -1       349-6.42998E-05 3.40861E-04-3.30872E-24
 -1       350-5.05580E-05 3.01518E-04 1.65436E-24
 -1       351-3.08414E-05 2.43776E-04 0.00000E+00
 -1       352-7.77262E-06 1.75144E-04-1.65436E-24
 -1       353 1.52245E-05 1.06749E-04 3.30872E-24
 -1       354 3.47180E-05 4.97182E-05 0.00000E+00
 -1       355 4.81168E-05 1.14104E-05 0.00000E+00
 -1       356 6.87519E-05-3.55631E-05 3.30872E-24
 -1       357 6.78341E-05-7.66325E-05-1.65436E-24
 -1       358 6.68634E-05-1.19047E-04 0.00000E+00
 -1       359 6.60229E-05-1.58138E-04 0.00000E+00
 -1       360 6.54237E-05-1.89988E-04 0.00000E+00
 -1       361 6.51059E-05-2.10714E-04 1.65436E-24
 -1       362 6.49591E-05-2.18861E-04 0.00000E+00
 -1       363 6.48278E-05-2.13036E-04 1.65436E-24
 -1       364 6.45575E-05-1.94832E-04 3.30872E-24
 -1       365 6.40441E-05-1.65904E-04 0.00000E+00
 -1       366 6.33274E-05-1.30256E-04 0.00000E+00
 -1       367 6.25155E-05-9.19202E-05 0.00000E+00
 -1       368 6.17721E-05-5.55398E-05 1.65436E-24
 -1       369 6.12412E-05-2.57482E-05 0.00000E+00
 -1       370 6.09374E-05-5.71328E-06 0.00000E+00
 -1       371 9.17674E-05-7.62348E-07 0.00000E+00
 -1       372 9.48658E-05-7.86579E-07 2.06795E-25
 -1       373 8.55721E-05-8.32724E-07 0.00000E+00
 -1       374 7.07218E-05-9.43252E-07-1.03398E-25
 -1       375 5.73609E-05-1.03515E-06 8.27181E-25
 -1       376 8.24894E-05-3.75614E-05-3.30872E-24
 -1       377 9.86901E-05-8.41977E-05 0.00000E+00
 -1       378 1.16079E-04-1.34495E-04 0.00000E+00
 -1       379 1.32729E-04-1.82503E-04 0.00000E+00
 -1       380 1.46860E-04-2.22852E-04 0.00000E+00
 -1       381 1.56604E-04-2.50240E-04-1.65436E-24
 -1       382 1.60976E-04-2.62455E-04 3.30872E-24
 -1       383 1.58934E-04-2.57391E-04-1.65436E-24
 -1       384 1.50861E-04-2.36815E-04 0.00000E+00
 -1       385 1.37234E-04-2.02547E-04 1.65436E-24
 -1       386 1.19959E-04-1.59535E-04 0.00000E+00
 -1       387 1.01067E-04-1.12721E-04 1.65436E-24
 -1       388 8.30480E-05-6.79615E-05 0.00000E+00
 -1       389 6.83615E-05-3.11151E-05 0.00000E+00
 -1       390 5.85401E-05-6.17605E-06 0.00000E+00
 -1       406 6.00205E-05 1.68563E-06 0.00000E+00
 -1       407 5.91427E-05 1.92550E-06 0.00000E+00
 -1       408 5.81904E-05 2.16516E-06 0.00000E+00
 -1       409 5.71735E-05 2.40420E-06 3.30872E-24
 -1       410 5.61019E-05 2.64197E-06 0.00000E+00
 -1       466 5.77288E-05 1.67286E-05 0.00000E+00
 -1       467 5.79155E-05 2.60464E-05 3.30872E-24
 -1       468 5.81407E-05 2.94876E-05 6.61744E-24
 -1       469 5.83728E-05 2.99071E-05 3.30872E-24
 -1       470 5.86042E-05 2.83139E-05 6.61744E-24
 -1       471 5.88337E-05 2.56959E-05 0.00000E+00
 -1       472 5.90614E-05 2.24073E-05 0.00000E+00
 -1       473 5.92881E-05 1.87957E-05 0.00000E+00
 -1       474 5.95140E-05 1.50083E-05 0.00000E+00
 -1       475 5.97396E-05 1.11905E-05-3.30872E-24
 -1       476 5.99653E-05 7.46919E-06 0.00000E+00
 -1       477 6.01903E-05 3.97188E-06 0.00000E+00
 -1       478 6.04166E-05 9.64678E-07-3.30872E-24
 -1       479 6.06373E-05-1.28112E-06 0.00000E+00
 -1       480 6.08625E-05-2.02999E-06 0.00000E+00
 -1       481 4.02686E-05-1.41652E-06 3.30872E-24
 -1       482 3.30768E-05-1.32738E-06 0.00000E+00
 -1       483 3.18330E-05-1.20987E-06-3.30872E-24
 -1       484 3.23105E-05-1.09169E-06 0.00000E+00
 -1       485 3.07511E-05-9.75698E-07 3.30872E-24
 -1       486 4.35653E-05 3.35936E-05 0.00000E+00
 -1       487 1.89095E-05 9.31941E-05 3.30872E-24
 -1       488-6.75741E-06 1.55090E-04 0.00000E+00
 -1       489-2.37436E-05 1.96977E-04 0.00000E+00
 -1       490-2.81719E-05 2.07627E-04-6.61744E-24
 -1       491-1.71865E-05 1.75902E-04 0.00000E+00
 -1       492 5.03655E-06 1.09544E-04 6.61744E-24
 -1       493 3.48854E-05 1.70062E-05 3.30872E-24
 -1       494 6.55598E-05-7.84658E-05 0.00000E+00
 -1       495 9.04108E-05-1.53535E-04-3.30872E-24
 -1       496 1.05266E-04-1.96815E-04 0.00000E+00
 -1       497 1.05203E-04-1.97633E-04 3.30872E-24
 -1       498 9.18026E-05-1.64375E-04 6.61744E-24
 -1       499 6.75182E-05-1.05628E-04 0.00000E+00
 -1       500 4.17999E-05-4.36061E-05 0.00000E+00
 -1       501 6.08536E-05-5.35791E-06-1.32349E-23
 -1       502 6.05087E-05-2.50804E-05 3.30872E-24
 -1       503 5.99011E-05-5.58781E-05 0.00000E+00
 -1       504 5.90602E-05-9.38653E-05 0.00000E+00
 -1       505 5.81777E-05-1.33010E-04 6.61744E-24
 -1       506 5.74687E-05-1.67274E-04 1.65436E-24
 -1       507 5.70203E-05-1.92067E-04 3.30872E-24
 -1       508 5.68119E-05-2.02865E-04-1.65436E-24
 -1       509 5.66514E-05-1.99125E-04-3.30872E-24
 -1       510 5.63289E-05-1.80403E-04 0.00000E+00
 -1       511 5.57530E-05-1.50488E-04-3.30872E-24
 -1       512 5.49397E-05-1.13241E-04 1.65436E-24
 -1       513 5.40805E-05-7.46930E-05 0.00000E+00
 -1       514 5.33846E-05-4.08775E-05 0.00000E+00
 -1       515 5.29434E-05-1.64139E-05-6.61744E-24
 -1       516 6.02134E-05-4.81308E-07 0.00000E+00
 -1       517 6.28902E-05-4.02858E-07-1.65436E-24
 -1       518 6.50366E-05-3.25981E-07 0.00000E+00
 -1       519 6.26110E-05-2.43518E-07 0.00000E+00
 -1       520 5.06867E-05-2.34380E-07 4.13590E-25
 -1       521 5.80357E-05 8.23870E-07 0.00000E+00
 -1       522 5.52708E-05 1.32327E-06 0.00000E+00
 -1       523 5.27820E-05 1.09331E-06 0.00000E+00
 -1       524 5.05141E-05 2.46033E-07 2.64698E-23
 -1       525 4.84272E-05-1.08765E-06 0.00000E+00
 -1       526 4.64688E-05-2.76956E-06 2.64698E-23
 -1       527 4.45859E-05-4.65416E-06 0.00000E+00
 -1       528 4.27226E-05-6.59197E-06 2.64698E-23
 -1       529 4.08228E-05-8.43241E-06 5.29396E-23
 -1       530 3.88314E-05-1.00270E-05-2.64698E-23
 -1       531 3.66944E-05-1.12320E-05 0.00000E+00
 -1       532 3.43624E-05-1.19120E-05 0.00000E+00
 -1       533 3.17874E-05-1.19418E-05 0.00000E+00
 -1       534 2.89354E-05-1.12077E-05-2.64698E-23
 -1       535 2.57586E-05-9.61698E-06 0.00000E+00
 -1       536 5.26972E-05-2.71926E-06 0.00000E+00
 -1       537 5.26814E-05-3.26026E-07 0.00000E+00
 -1       538 5.26668E-05 1.39589E-06-1.65436E-24
 -1       539 5.26549E-05 2.52619E-06 0.00000E+00
 -1       540 5.26439E-05 3.14443E-06 0.00000E+00
 -1       541 5.26334E-05 3.33029E-06 8.27181E-25
 -1       542 5.26230E-05 3.16345E-06 0.00000E+00
 -1       543 5.26126E-05 2.72363E-06 0.00000E+00
 -1       544 5.26022E-05 2.09060E-06 8.27181E-25
 -1       545 5.25917E-05 1.34411E-06 0.00000E+00
 -1       546 5.25813E-05 5.63917E-07-2.06795E-25
 -1       547 5.25709E-05-1.70182E-07 0.00000E+00
 -1       548 5.25607E-05-7.78433E-07 0.00000E+00
 -1       549 5.25510E-05-1.18109E-06 0.00000E+00
 -1       550 5.25413E-05-1.29835E-06 0.00000E+00
 -1       551 4.81696E-05-6.05926E-06 6.20385E-25
 -1       552 4.31011E-05-6.25202E-06-2.48154E-24
 -1       553 3.77489E-05-6.44565E-06 0.00000E+00
 -1       554 3.23435E-05-6.64186E-06 0.00000E+00
 -1       555 2.71155E-05-6.84274E-06 2.64698E-23
 -1       556 5.13777E-05-2.91598E-06 0.00000E+00
 -1       557 5.02873E-05-6.40909E-07 0.00000E+00
 -1       558 4.94277E-05 1.02576E-06 0.00000E+00
 -1       559 4.87718E-05 2.15372E-06 0.00000E+00
 -1       560 4.82926E-05 2.81283E-06 0.00000E+00
 -1       561 4.79631E-05 3.07366E-06 0.00000E+00
 -1       562 4.77568E-05 3.00688E-06 0.00000E+00
 -1       563 4.76467E-05 2.68329E-06 0.00000E+00
 -1       564 4.76065E-05 2.17379E-06-6.61744E-24
 -1       565 4.76093E-05 1.54929E-06-3.30872E-24
 -1       566 4.76287E-05 8.80772E-07 0.00000E+00
 -1       567 4.76381E-05 2.39223E-07 0.00000E+00
 -1       568 4.76111E-05-3.04389E-07 3.30872E-24
 -1       569 4.75215E-05-6.79173E-07-9.30578E-25
 -1       570 4.73435E-05-8.14315E-07 0.00000E+00
 -1       571 5.26817E-05-7.33179E-07 2.06795E-24
 -1       572 5.28336E-05-5.20246E-07-1.65436E-24
 -1       573 5.29866E-05-3.92548E-07 0.00000E+00
 -1       574 5.31403E-05-3.29648E-07 0.00000E+00
 -1       575 5.32942E-05-3.11030E-07-3.30872E-24
 -1       576 5.34481E-05-3.16049E-07 0.00000E+00
 -1       577 5.36022E-05-3.24055E-07 0.00000E+00
 -1       578 5.37562E-05-3.14377E-07 0.00000E+00
 -1       579 5.39103E-05-2.66345E-07-6.61744E-24
 -1       580 5.40643E-05-1.59286E-07 0.00000E+00
 -1       581 5.42183E-05 2.74725E-08 0.00000E+00
 -1       582 5.43723E-05 3.14588E-07 0.00000E+00
 -1       583 5.45261E-05 7.22703E-07 0.00000E+00
 -1       584 5.46799E-05 1.27226E-06 0.00000E+00
 -1       585 5.48333E-05 1.98358E-06 0.00000E+00
 -1       586 5.17541E-05-9.80963E-07 0.00000E+00
 -1       587 5.08574E-05-9.10557E-07 0.00000E+00
 -1       588 4.98912E-05-8.40237E-07 0.00000E+00
 -1       589 4.89036E-05-7.70592E-07 0.00000E+00
 -1       590 4.79429E-05-7.02461E-07 0.00000E+00
 -1       591 5.22984E-05-6.71817E-07 1.65436E-24
 -1       592 5.20800E-05-3.58817E-07 0.00000E+00
 -1       593 5.18801E-05-9.87044E-08 0.00000E+00
 -1       594 5.16949E-05 1.20362E-07 1.65436E-24
 -1       595 5.15203E-05 3.10221E-07 0.00000E+00
 -1       596 5.13522E-05 4.82622E-07 0.00000E+00
 -1       597 5.11862E-05 6.49300E-07 0.00000E+00
 -1       598 5.10179E-05 8.21978E-07-1.65436E-24
 -1       599 5.08430E-05 1.01238E-06 1.65436E-24
 -1       600 5.06570E-05 1.23223E-06-1.65436E-24
 -1       601 5.04557E-05 1.49323E-06 1.65436E-24
 -1       602 5.02346E-05 1.80713E-06 1.24077E-24
 -1       603 4.99895E-05 2.18565E-06 1.65436E-24
 -1       604 4.97164E-05 2.64059E-06 5.16988E-26
 -1       605 4.94116E-05 3.18377E-06 0.00000E+00
 -1       606 5.50430E-05 4.05878E-06 0.00000E+00
 -1       607 5.50962E-05 5.35606E-06 0.00000E+00
 -1       608 5.51482E-05 6.76057E-06 6.61744E-24
 -1       609 5.51995E-05 8.26465E-06 0.00000E+00
 -1       610 5.52505E-05 9.86063E-06 0.00000E+00
 -1       611 5.53013E-05 1.15406E-05 3.30872E-24
 -1       612 5.53519E-05 1.32968E-05 0.00000E+00
 -1       613 5.54024E-05 1.51213E-05 0.00000E+00
 -1       614 5.54527E-05 1.70063E-05 0.00000E+00
 -1       615 5.55030E-05 1.89439E-05 0.00000E+00
 -1       616 5.55532E-05 2.09262E-05 0.00000E+00
 -1       617 5.56033E-05 2.29454E-05 0.00000E+00
 -1       618 5.56533E-05 2.49936E-05 0.00000E+00
 -1       619 5.57033E-05 2.70630E-05 8.27181E-25
 -1       620 5.57530E-05 2.91456E-05 0.00000E+00
 -1       621 5.38813E-05 3.03473E-06 0.00000E+00
 -1       622 5.28101E-05 3.19485E-06 1.65436E-24
 -1       623 5.17834E-05 3.35502E-06 0.00000E+00
 -1       624 5.08119E-05 3.51480E-06 0.00000E+00
 -1       625 4.99061E-05 3.67369E-06-1.65436E-24
 -1       626 5.46405E-05 4.12009E-06 0.00000E+00
 -1       627 5.42483E-05 5.48413E-06 0.00000E+00
 -1       628 5.38150E-05 6.95628E-06 0.00000E+00
 -1       629 5.33456E-05 8.52383E-06 0.00000E+00
 -1       630 5.28450E-05 1.01741E-05 0.00000E+00
 -1       631 5.23180E-05 1.18940E-05 0.00000E+00
 -1       632 5.17697E-05 1.36707E-05 0.00000E+00
 -1       633 5.12048E-05 1.54913E-05 0.00000E+00
 -1       634 5.06283E-05 1.73428E-05 0.00000E+00
 -1       635 5.00449E-05 1.92122E-05-1.65436E-24
 -1       636 4.94597E-05 2.10866E-05-3.30872E-24
 -1       637 4.88774E-05 2.29530E-05-1.65436E-24
 -1       638 4.83028E-05 2.47985E-05 3.30872E-24
 -1       639 4.77405E-05 2.66100E-05-1.65436E-24
 -1       640 4.71948E-05 2.83747E-05-4.13590E-25
 -1       641 5.58042E-05 3.33982E-05 8.27181E-25
 -1       642 5.58039E-05 3.57894E-05 0.00000E+00
 -1       643 5.58033E-05 3.83736E-05 0.00000E+00
 -1       644 5.58020E-05 4.11174E-05 0.00000E+00
 -1       645 5.58003E-05 4.39881E-05-1.03398E-25
 -1       646 5.57983E-05 4.69528E-05 0.00000E+00
 -1       647 5.57961E-05 4.99793E-05 0.00000E+00
 -1       648 5.57938E-05 5.30354E-05 0.00000E+00
 -1       649 5.57915E-05 5.60889E-05 0.00000E+00
 -1       650 5.57893E-05 5.91078E-05 0.00000E+00
 -1       651 5.57872E-05 6.20596E-05 0.00000E+00
 -1       652 5.57851E-05 6.49122E-05-1.03398E-25
 -1       653 5.57833E-05 6.76327E-05-4.13590E-25
 -1       654 5.57807E-05 7.01884E-05 8.27181E-25
 -1       655 5.57789E-05 7.25458E-05 3.30872E-24
 -1       656 5.39325E-05 3.10474E-05-3.30872E-24
 -1       657 5.23221E-05 3.08517E-05 0.00000E+00
 -1       658 5.08812E-05 3.06566E-05 3.30872E-24
 -1       659 4.95189E-05 3.04614E-05 1.65436E-24
 -1       660 4.81445E-05 3.02659E-05-3.30872E-24
 -1       661 5.52000E-05 3.34631E-05 0.00000E+00
 -1       662 5.45391E-05 3.58701E-05 3.30872E-24
 -1       663 5.38219E-05 3.84258E-05 6.61744E-24
 -1       664 5.30593E-05 4.11049E-05 0.00000E+00
 -1       665 5.22600E-05 4.38813E-05 6.61744E-24
 -1       666 5.14339E-05 4.67294E-05 3.30872E-24
 -1       667 5.05903E-05 4.96239E-05 6.61744E-24
 -1       668 4.97387E-05 5.25396E-05 0.00000E+00
 -1       669 4.88886E-05 5.54511E-05-6.61744E-24
 -1       670 4.80496E-05 5.83333E-05 0.00000E+00
 -1       671 4.72312E-05 6.11608E-05 0.00000E+00
 -1       672 4.64427E-05 6.39083E-05 0.00000E+00
 -1       673 4.56939E-05 6.65501E-05 0.00000E+00
 -1       674 4.49930E-05 6.90600E-05 0.00000E+00
 -1       675 4.43517E-05 7.14127E-05 3.30872E-24
 -1       676 5.37621E-05 7.44882E-05 6.61744E-24
 -1       677 5.17547E-05 7.43045E-05 0.00000E+00
 -1       678 4.97503E-05 7.41209E-05 6.61744E-24
 -1       679 4.77501E-05 7.39381E-05 1.65436E-24
 -1       680 4.57556E-05 7.37552E-05 0.00000E+00
 -1       681 2.34633E-05 6.56069E-06 0.00000E+00
 -1       682 2.35671E-05 8.31486E-06-1.65436E-24
 -1       683 2.36705E-05 5.89107E-06 3.30872E-24
 -1       684 2.37644E-05 7.84388E-07 0.00000E+00
 -1       685 2.38478E-05-6.19082E-06-3.30872E-24
 -1       686 2.39236E-05-1.42293E-05 0.00000E+00
 -1       687 2.39952E-05-2.27969E-05 3.30872E-24
 -1       688 2.40668E-05-3.13617E-05 0.00000E+00
 -1       689 2.41426E-05-3.93917E-05-3.30872E-24
 -1       690 2.42261E-05-4.63520E-05-1.65436E-24
 -1       691 2.43201E-05-5.14346E-05-3.30872E-24
 -1       692 2.44237E-05-5.38230E-05 0.00000E+00
 -1       693 2.45272E-05-5.20164E-05 3.30872E-24
 -1       694 2.46045E-05-4.44940E-05 0.00000E+00
 -1       695 2.45791E-05-2.83139E-05 0.00000E+00
 -1       696 1.47005E-05-7.67795E-07 0.00000E+00
 -1       697 9.24510E-06-6.23885E-07 1.65436E-24
 -1       698 5.93985E-06-4.70737E-07 0.00000E+00
 -1       699 3.72004E-06-3.14217E-07-1.65436E-24
 -1       700 1.95069E-06-1.56706E-07-3.30872E-24
 -1       701 1.52565E-05 1.97885E-05 8.27181E-25
 -1       702-1.32986E-06 6.10941E-05 0.00000E+00
 -1       703-2.39582E-05 1.16512E-04-3.30872E-24
 -1       704-4.99525E-05 1.79538E-04 0.00000E+00
 -1       705-7.55234E-05 2.41609E-04 0.00000E+00
 -1       706-9.69029E-05 2.94157E-04-1.65436E-24
 -1       707-1.11697E-04 3.31174E-04 3.30872E-24
 -1       708-1.17778E-04 3.46641E-04 0.00000E+00
 -1       709-1.15378E-04 3.39771E-04-3.30872E-24
 -1       710-1.04810E-04 3.09896E-04 1.65436E-24
 -1       711-8.82104E-05 2.61988E-04 0.00000E+00
 -1       712-6.75270E-05 2.01195E-04 1.65436E-24
 -1       713-4.55595E-05 1.36263E-04 3.30872E-24
 -1       714-2.50288E-05 7.59907E-05-1.65436E-24
 -1       715-8.35293E-06 2.78142E-05 0.00000E+00
 -1       716 2.38263E-05 2.98874E-05 8.27181E-25
 -1       717 2.35220E-05 5.36540E-05-4.13590E-25
 -1       718 2.33473E-05 7.08259E-05 0.00000E+00
 -1       719 2.32599E-05 8.14336E-05 4.13590E-25
 -1       720 2.32174E-05 8.59519E-05-8.27181E-25
 -1       721 2.31839E-05 8.48642E-05 4.13590E-25
 -1       722 2.31355E-05 7.90350E-05-8.27181E-25
 -1       723 2.30581E-05 6.93352E-05-4.13590E-25
 -1       724 2.29522E-05 5.69009E-05 0.00000E+00
 -1       725 2.28257E-05 4.28716E-05 0.00000E+00
 -1       726 2.26944E-05 2.84959E-05 1.65436E-24
 -1       727 2.25741E-05 1.50236E-05 0.00000E+00
 -1       728 2.24780E-05 3.64112E-06 0.00000E+00
 -1       729 2.24069E-05-4.46808E-06-3.30872E-24
 -1       730 2.23614E-05-8.35341E-06-1.32349E-23
 -1       731-3.49914E-06-8.35546E-07 0.00000E+00
 -1       732-1.95790E-05-9.26439E-07 0.00000E+00
 -1       733-2.56624E-05-9.08178E-07 8.27181E-25
 -1       734-2.34586E-05-8.74442E-07 0.00000E+00
 -1       735-1.39602E-05-8.80086E-07-8.27181E-25
 -1       736 7.56443E-06 4.12220E-05 1.65436E-24
 -1       737-1.62244E-05 9.92836E-05 1.65436E-24
 -1       738-4.39236E-05 1.66144E-04 0.00000E+00
 -1       739-7.22028E-05 2.34287E-04-1.65436E-24
 -1       740-9.75527E-05 2.95876E-04 0.00000E+00
 -1       741-1.16606E-04 3.43045E-04 1.65436E-24
 -1       742-1.27801E-04 3.71339E-04 3.30872E-24
 -1       743-1.29822E-04 3.76316E-04 0.00000E+00
 -1       744-1.23476E-04 3.58578E-04 0.00000E+00
 -1       745-1.09571E-04 3.18866E-04 0.00000E+00
 -1       746-9.03878E-05 2.62922E-04 0.00000E+00
 -1       747-6.80044E-05 1.96653E-04 0.00000E+00
 -1       748-4.50893E-05 1.28647E-04 0.00000E+00
 -1       749-2.42810E-05 6.75149E-05 1.65436E-24
 -1       750-7.82248E-06 2.00414E-05 0.00000E+00
 -1       751 2.37415E-05-4.17483E-06-1.32349E-23
 -1       752 2.52890E-05-3.17568E-06-1.32349E-23
 -1       753 2.68312E-05-3.07237E-06 0.00000E+00
 -1       754 2.83913E-05-2.93259E-06-2.64698E-23
 -1       755 2.99519E-05-2.77558E-06 5.29396E-23
 -1       756 3.15162E-05-2.61933E-06-2.64698E-23
 -1       757 3.30808E-05-2.46345E-06 5.29396E-23
 -1       758 3.46461E-05-2.30754E-06-2.64698E-23
 -1       759 3.62115E-05-2.15163E-06 0.00000E+00
 -1       760 3.77765E-05-1.99572E-06 0.00000E+00
 -1       761 3.93412E-05-1.83976E-06 5.29396E-23
 -1       762 4.09034E-05-1.68372E-06-2.64698E-23
 -1       763 4.24653E-05-1.52980E-06 0.00000E+00
 -1       764 4.40148E-05-1.38039E-06 0.00000E+00
 -1       765 4.55684E-05-1.12361E-06 2.64698E-23
 -1       766 1.64332E-05-7.08983E-06 0.00000E+00
 -1       767 6.70809E-06-7.10744E-06 3.30872E-24
 -1       768-3.29541E-06-7.12975E-06 0.00000E+00
 -1       769-9.99165E-06-7.11938E-06 0.00000E+00
 -1       770-9.55861E-06-7.09206E-06 0.00000E+00
 -1       771 1.99389E-05-4.03818E-06 0.00000E+00
 -1       772 1.77982E-05-1.60907E-06 0.00000E+00
 -1       773 1.58618E-05 2.71924E-07 0.00000E+00
 -1       774 1.41102E-05 1.65894E-06 0.00000E+00
 -1       775 1.25239E-05 2.60646E-06 0.00000E+00
 -1       776 1.10820E-05 3.16966E-06 0.00000E+00
 -1       777 9.76363E-06 3.40399E-06 0.00000E+00
 -1       778 8.54784E-06 3.36533E-06 2.64698E-23
 -1       779 7.41351E-06 3.10976E-06 0.00000E+00
 -1       780 6.33948E-06 2.69364E-06 1.32349E-23
 -1       781 5.30458E-06 2.17348E-06 0.00000E+00
 -1       782 4.28774E-06 1.60595E-06 1.32349E-23
 -1       783 3.26789E-06 1.04776E-06 0.00000E+00
 -1       784 2.22490E-06 5.55789E-07 1.32349E-23
 -1       785 1.13869E-06 1.86881E-07-2.64698E-23
 -1       786 4.71745E-05-1.08492E-07-8.27181E-25
 -1       787 4.73003E-05 3.02407E-07-1.65436E-24
 -1       788 4.74261E-05 6.11656E-07 3.30872E-24
 -1       789 4.75530E-05 8.37952E-07 1.65436E-24
 -1       790 4.76801E-05 9.99896E-07-3.30872E-24
 -1       791 4.78074E-05 1.11603E-06 0.00000E+00
 -1       792 4.79349E-05 1.20486E-06-3.30872E-24
 -1       793 4.80623E-05 1.28484E-06-1.65436E-24
 -1       794 4.81898E-05 1.37443E-06 3.30872E-24
 -1       795 4.83172E-05 1.49211E-06 1.65436E-24
 -1       796 4.84446E-05 1.65637E-06-3.30872E-24
 -1       797 4.85720E-05 1.88576E-06-1.65436E-24
 -1       798 4.86992E-05 2.19888E-06 3.30872E-24
 -1       799 4.88259E-05 2.61443E-06 1.65436E-24
 -1       800 4.89527E-05 3.15121E-06-3.30872E-24
 -1       801 4.29234E-05-5.08803E-07 0.00000E+00
 -1       802 3.42914E-05-3.93757E-07 0.00000E+00
 -1       803 2.34207E-05-2.97735E-07 4.13590E-25
 -1       804 1.25739E-05-2.05974E-07 0.00000E+00
 -1       805 4.01334E-06-9.53863E-08 0.00000E+00
 -1       806 4.66921E-05-1.66710E-07-6.61744E-24
 -1       807 4.63417E-05 2.53651E-07 3.30872E-24
 -1       808 4.60058E-05 6.31532E-07 6.61744E-24
 -1       809 4.56815E-05 9.76462E-07 3.30872E-24
 -1       810 4.53659E-05 1.29792E-06-6.61744E-24
 -1       811 4.50554E-05 1.60533E-06 0.00000E+00
 -1       812 4.47467E-05 1.90810E-06 6.61744E-24
 -1       813 4.44361E-05 2.21562E-06 1.65436E-24
 -1       814 4.41202E-05 2.53731E-06 3.30872E-24
 -1       815 4.37955E-05 2.88254E-06 1.65436E-24
 -1       816 4.34585E-05 3.26071E-06-3.30872E-24
 -1       817 4.31056E-05 3.68123E-06 0.00000E+00
 -1       818 4.27334E-05 4.15347E-06-6.61744E-24
 -1       819 4.23388E-05 4.68683E-06 1.65436E-24
 -1       820 4.19188E-05 5.29072E-06 0.00000E+00
 -1       821 4.89354E-05 4.69883E-06-1.65436E-24
 -1       822 4.87857E-05 5.77309E-06 1.65436E-24
 -1       823 4.86359E-05 7.02987E-06 0.00000E+00
 -1       824 4.84845E-05 8.44775E-06 0.00000E+00
 -1       825 4.83328E-05 1.00052E-05 3.30872E-24
 -1       826 4.81806E-05 1.16807E-05 0.00000E+00
 -1       827 4.80282E-05 1.34521E-05 0.00000E+00
 -1       828 4.78757E-05 1.52977E-05 0.00000E+00
 -1       829 4.77230E-05 1.71953E-05-3.30872E-24
 -1       830 4.75703E-05 1.91229E-05 1.65436E-24
 -1       831 4.74177E-05 2.10584E-05 3.30872E-24
 -1       832 4.72653E-05 2.29795E-05 1.65436E-24
 -1       833 4.71131E-05 2.48641E-05-3.30872E-24
 -1       834 4.69620E-05 2.66903E-05 0.00000E+00
 -1       835 4.68111E-05 2.84358E-05-1.65436E-24
 -1       836 4.80825E-05 4.17946E-06 6.61744E-24
 -1       837 4.67839E-05 4.54313E-06 0.00000E+00
 -1       838 4.53269E-05 4.90596E-06-6.61744E-24
 -1       839 4.38584E-05 5.26788E-06-3.30872E-24
 -1       840 4.25248E-05 5.63051E-06 3.30872E-24
 -1       841 4.87540E-05 4.70130E-06 0.00000E+00
 -1       842 4.83440E-05 5.80128E-06 0.00000E+00
 -1       843 4.78591E-05 7.10072E-06 0.00000E+00
 -1       844 4.73093E-05 8.57134E-06-1.03398E-25
 -1       845 4.67051E-05 1.01863E-05 0.00000E+00
 -1       846 4.60566E-05 1.19186E-05 0.00000E+00
 -1       847 4.53738E-05 1.37420E-05 0.00000E+00
 -1       848 4.46665E-05 1.56302E-05 0.00000E+00
 -1       849 4.39445E-05 1.75575E-05 5.16988E-26
 -1       850 4.32175E-05 1.94979E-05-2.58494E-26
 -1       851 4.24952E-05 2.14257E-05 1.61559E-27
 -1       852 4.17873E-05 2.33151E-05 5.16988E-26
 -1       853 4.11036E-05 2.51401E-05-2.06795E-25
 -1       854 4.04532E-05 2.68745E-05 0.00000E+00
 -1       855 3.98472E-05 2.84921E-05 1.65436E-24
 -1       856 4.64969E-05 3.18463E-05 3.30872E-24
 -1       857 4.63174E-05 3.39417E-05 0.00000E+00
 -1       858 4.61375E-05 3.63232E-05 0.00000E+00
 -1       859 4.59557E-05 3.89480E-05 3.30872E-24
 -1       860 4.57731E-05 4.17730E-05 0.00000E+00
 -1       861 4.55900E-05 4.47547E-05 3.30872E-24
 -1       862 4.54064E-05 4.78498E-05 0.00000E+00
 -1       863 4.52226E-05 5.10143E-05 0.00000E+00
 -1       864 4.50387E-05 5.42044E-05 0.00000E+00
 -1       865 4.48548E-05 5.73763E-05-3.30872E-24
 -1       866 4.46712E-05 6.04861E-05-6.61744E-24
 -1       867 4.44880E-05 6.34899E-05 0.00000E+00
 -1       868 4.43054E-05 6.63442E-05 6.61744E-24
 -1       869 4.41240E-05 6.90056E-05 0.00000E+00
 -1       870 4.39432E-05 7.14308E-05-3.30872E-24
 -1       871 4.52899E-05 3.00626E-05 0.00000E+00
 -1       872 4.40305E-05 3.00447E-05 0.00000E+00
 -1       873 4.28453E-05 3.00264E-05 0.00000E+00
 -1       874 4.16901E-05 3.00076E-05 0.00000E+00
 -1       875 4.05200E-05 2.99880E-05 1.65436E-24
 -1       876 4.62559E-05 3.19101E-05 0.00000E+00
 -1       877 4.57483E-05 3.40262E-05 0.00000E+00
 -1       878 4.51484E-05 3.63863E-05 0.00000E+00
 -1       879 4.44717E-05 3.89544E-05 3.30872E-24
 -1       880 4.37305E-05 4.16937E-05 6.61744E-24
 -1       881 4.29384E-05 4.45685E-05-3.30872E-24
 -1       882 4.21085E-05 4.75431E-05 0.00000E+00
 -1       883 4.12544E-05 5.05822E-05 0.00000E+00
 -1       884 4.03890E-05 5.36507E-05 0.00000E+00
 -1       885 3.95258E-05 5.67136E-05 3.30872E-24
 -1       886 3.86779E-05 5.97357E-05 6.61744E-24
 -1       887 3.78585E-05 6.26817E-05-3.30872E-24
 -1       888 3.70809E-05 6.55164E-05 6.61744E-24
 -1       889 3.63570E-05 6.82036E-05 0.00000E+00
 -1       890 3.57025E-05 7.07079E-05 0.00000E+00
 -1       891 4.20592E-05 7.34796E-05 0.00000E+00
 -1       892 4.06972E-05 7.33808E-05 0.00000E+00
 -1       893 3.95022E-05 7.32823E-05-3.30872E-24
 -1       894 3.82941E-05 7.31839E-05 0.00000E+00
 -1       895 3.68927E-05 7.30852E-05 1.65436E-24
 -1       896 1.28446E-07 2.31595E-06 0.00000E+00
 -1       897 2.55041E-07 5.16111E-06-1.65436E-24
 -1       898 3.80631E-07 8.36814E-06 0.00000E+00
 -1       899 5.05494E-07 1.17717E-05 0.00000E+00
 -1       900 6.30043E-07 1.52689E-05 3.30872E-24
 -1       901 7.54601E-07 1.87575E-05 0.00000E+00
 -1       902 8.79524E-07 2.21324E-05 3.30872E-24
 -1       903 1.00513E-06 2.52880E-05 0.00000E+00
 -1       904 1.13182E-06 2.80489E-05 3.30872E-24
 -1       905 1.25986E-06 3.02372E-05 0.00000E+00
 -1       906 1.38934E-06 3.14936E-05 3.30872E-24
 -1       907 1.51947E-06 3.14530E-05 0.00000E+00
 -1       908 1.64708E-06 2.93390E-05 0.00000E+00
 -1       909 1.76429E-06 2.43629E-05 0.00000E+00
 -1       910 1.84869E-06 1.48344E-05-3.30872E-24
 -1       911 1.75893E-06-1.67311E-05 0.00000E+00
 -1       912 1.74225E-06-2.61435E-05-4.13590E-25
 -1       913 1.76065E-06-3.03470E-05 8.27181E-25
 -1       914 1.78742E-06-3.04821E-05-4.13590E-25
 -1       915 1.81032E-06-2.74415E-05 0.00000E+00
 -1       916 1.82396E-06-2.21137E-05 0.00000E+00
 -1       917 1.82883E-06-1.52471E-05 0.00000E+00
 -1       918 1.82814E-06-7.58796E-06 4.13590E-25
 -1       919 1.82676E-06 1.66171E-07-8.27181E-25
 -1       920 1.82969E-06 7.31778E-06 4.13590E-25
 -1       921 1.84073E-06 1.31325E-05-8.27181E-25
 -1       922 1.86127E-06 1.68740E-05 0.00000E+00
 -1       923 1.88770E-06 1.76789E-05 0.00000E+00
 -1       924 1.90982E-06 1.46801E-05 2.06795E-25
 -1       925 1.90548E-06 6.77911E-06-5.16988E-26
 -1       926 1.64137E-06-2.34186E-05 0.00000E+00
 -1       927 1.46432E-06-3.84151E-05-8.27181E-25
 -1       928 1.31581E-06-5.12581E-05 0.00000E+00
 -1       929 1.19972E-06-6.10952E-05-8.27181E-25
 -1       930 1.11003E-06-6.75114E-05 0.00000E+00
 -1       931 1.03681E-06-7.01026E-05-8.27181E-25
 -1       932 9.66342E-07-6.90206E-05-1.65436E-24
 -1       933 8.86212E-07-6.44291E-05 0.00000E+00
 -1       934 7.90048E-07-5.70023E-05 1.65436E-24
 -1       935 6.76037E-07-4.74233E-05 0.00000E+00
 -1       936 5.50853E-07-3.66892E-05 0.00000E+00
 -1       937 4.22989E-07-2.58008E-05 1.65436E-24
 -1       938 3.03516E-07-1.57806E-05 3.30872E-24
 -1       939 1.95177E-07-7.64892E-06-3.30872E-24
 -1       940 1.05492E-07-2.14467E-06-1.32349E-23
 -1       941 2.45751E-06 4.25969E-07 0.00000E+00
 -1       942 5.05121E-06 7.88702E-07 0.00000E+00
 -1       943 7.63630E-06 1.12430E-06 0.00000E+00
 -1       944 1.02474E-05 1.46554E-06 0.00000E+00
 -1       945 1.28592E-05 1.80919E-06-1.05879E-22
 -1       946 1.54762E-05 2.15233E-06 0.00000E+00
 -1       947 1.80938E-05 2.49526E-06 1.05879E-22
 -1       948 2.07122E-05 2.83825E-06 0.00000E+00
 -1       949 2.33308E-05 3.18118E-06 0.00000E+00
 -1       950 2.59487E-05 3.52391E-06 0.00000E+00
 -1       951 2.85661E-05 3.86755E-06 1.05879E-22
 -1       952 3.11795E-05 4.21333E-06 0.00000E+00
 -1       953 3.37922E-05 4.54902E-06 0.00000E+00
 -1       954 3.63842E-05 4.86117E-06-2.64698E-23
 -1       955 3.89830E-05 5.28625E-06-5.29396E-23
 -1       956 4.13396E-05 6.92579E-06 1.65436E-24
 -1       957 4.12041E-05 8.02333E-06 1.65436E-24
 -1       958 4.10680E-05 9.25251E-06 0.00000E+00
 -1       959 4.09315E-05 1.05975E-05 8.27181E-25
 -1       960 4.07948E-05 1.20425E-05 1.65436E-24
 -1       961 4.06580E-05 1.35715E-05 0.00000E+00
 -1       962 4.05210E-05 1.51686E-05 0.00000E+00
 -1       963 4.03839E-05 1.68177E-05-1.65436E-24
 -1       964 4.02468E-05 1.85029E-05-3.30872E-24
 -1       965 4.01097E-05 2.02080E-05 0.00000E+00
 -1       966 3.99725E-05 2.19172E-05 0.00000E+00
 -1       967 3.98355E-05 2.36145E-05 0.00000E+00
 -1       968 3.96985E-05 2.52837E-05-6.61744E-24
 -1       969 3.95618E-05 2.69090E-05 0.00000E+00
 -1       970 3.94256E-05 2.84745E-05 0.00000E+00
 -1       971 3.90392E-05 3.15647E-05 6.61744E-24
 -1       972 3.87797E-05 3.35143E-05 0.00000E+00
 -1       973 3.85197E-05 3.57714E-05-6.61744E-24
 -1       974 3.82581E-05 3.82928E-05 3.30872E-24
 -1       975 3.79957E-05 4.10348E-05 6.61744E-24
 -1       976 3.77327E-05 4.39531E-05 0.00000E+00
 -1       977 3.74693E-05 4.70035E-05 0.00000E+00
 -1       978 3.72056E-05 5.01410E-05 0.00000E+00
 -1       979 3.69417E-05 5.33206E-05 0.00000E+00
 -1       980 3.66779E-05 5.64974E-05 3.30872E-24
 -1       981 3.64144E-05 5.96264E-05 0.00000E+00
 -1       982 3.61513E-05 6.26625E-05 0.00000E+00
 -1       983 3.58889E-05 6.55610E-05-6.61744E-24
 -1       984 3.56284E-05 6.82775E-05-3.30872E-24
 -1       985 3.53683E-05 7.07679E-05 0.00000E+00
 -3
    1PSTEP                        54          27           1          
  100CL  127 1.000000000         841                     0   27           1
 -4  STRESS      6    1
 -5  SXX         1    4    1    1
 -5  SYY         1    4    2    2
 -5  SZZ         1    4    3    3
 -5  SXY         1    4    1    2
 -5  SYZ         1    4    2    3
 -5  SZX         1    4    3    1
 -1         1-3.71514E+06-1.25210E+06-7.56924E+05-1.23977E+06 4.36557E-10 8.24609E-09
 -1         2-1.59082E+06-3.63127E+04 5.65879E+04 2.37484E+04-3.91447E-09-2.01544E-09
 -1         3-1.36892E+06-4.10707E+05-6.00101E+04-2.11385E+04 5.70617E-09-9.38417E-09
 -1         4-1.10155E+06-4.27869E+04 1.97541E+04-3.95310E+04 6.55064E-09-7.43421E-09
 -1         5-1.12956E+06-1.94755E+04-3.60088E+05-2.32946E+04 2.83399E-08 1.46724E-09
 -1         8-1.32491E+06-5.07727E+05-8.18406E+04-7.68116E+05-2.76486E-10 3.32511E-09
 -1         9-1.74856E+06-4.88171E+05-1.45211E+05-5.28937E+05 1.00408E-09-1.76078E-09
 -1        10 1.23006E+04-2.13912E+05 2.05644E+05 1.02309E+04-1.42869E-08-2.43411E-09
 -1        11-8.02693E+04 9.16186E+04 3.63148E+04-8.20866E+04-4.19006E-08 1.40055E-09
 -1        12-4.97332E+04 2.45130E+05-9.59682E+04-1.67349E+04 3.14571E-09 4.56117E-09
 -1        15 1.38393E+05 2.16346E+05 4.45088E+04 5.16366E+04-1.25874E-09 9.85710E-09
 -1        16-1.65578E+06-3.47188E+05 1.89733E+04-6.20244E+05 8.88879E-10 8.70538E-09
 -1        17-7.34578E+05-4.97121E+05-6.36976E+04-4.28057E+05-8.09814E-09 3.25963E-09
 -1        18 7.55768E+04 2.52893E+04-1.08289E+04-1.03801E+05 7.89350E-09-5.79227E-09
 -1        19 1.34457E+05 1.78513E+05-1.79541E+04 3.24210E+03-1.55524E-09 4.27887E-09
 -1        20 1.33889E+05-1.00639E+05-1.70442E+04 7.22201E+04 5.55292E-09 3.48609E-09
 -1        21 5.71370E+03-1.98920E+05 5.62737E+04 1.80609E+02 2.17536E-08 2.01350E-09
 -1        22 1.21566E+05 2.27044E+05 2.59350E+04 3.37341E+04-9.34961E-10-3.98904E-09
 -1        23 3.88069E+02 1.61682E+05 4.00050E+04 3.23456E+04-1.18045E-08-5.68404E-09
 -1        24-4.51276E+05-8.33689E+04 3.37322E+05-6.54271E+05-2.13307E-08 4.15215E-09
 -1        25 7.50764E+05 2.62089E+05 2.31969E+05-3.91989E+05 1.31725E-09-1.53401E-10
 -1        26 5.32135E+02 2.10496E+05 1.04168E+04-3.48645E+04-1.10852E-09-3.12260E-11
 -1        27-4.51004E+04-8.40205E+04-3.63571E+04 1.02222E+05 1.20872E-09-5.13804E-09
 -1        28-1.61930E+04-1.58684E+05-8.94751E+02 7.66096E+04 1.14892E-09-3.60953E-09
 -1        29 1.91750E+05 2.23893E+05 8.37322E+02 5.91816E+03 4.08851E-11 2.29466E-09
 -1        30 1.57737E+05 4.80381E+04 2.42344E+04 5.44778E+03 4.67598E-09-2.13208E-08
 -1        31 3.18437E+04 6.23654E+04 3.16415E+04-2.05202E+04 6.71756E-09-2.38842E-08
 -1        32 1.45244E+06 7.23395E+05 8.68227E+05-6.52243E+05 1.69438E-08 7.22503E-09
 -1        33 1.83423E+06 7.28357E+05 5.61388E+05-5.66015E+04-3.61142E-08-3.31693E-09
 -1        34-2.66304E+05-3.21748E+04-4.85318E+03 6.01404E+04-3.10983E-09-9.02219E-10
 -1        35-4.58896E+04-5.27595E+04-9.89496E+02 1.15106E+05 3.00040E-09-3.63798E-10
 -1        36-3.80785E+06 1.01203E+05-2.33525E+05 1.51252E-07-3.08985E-09-2.08092E-09
 -1        37-3.90899E+06-1.17133E+05-1.65322E+05 1.29455E-06 2.72280E-09-1.02627E-08
 -1        38-3.84683E+06 1.58609E+04-6.03804E+04-4.25212E-08-2.87602E-09-6.87578E-10
 -1        39-3.86333E+06-1.83540E+04-3.79802E+04 1.32702E-08-2.61427E-09-1.21872E-10
 -1        40-3.85324E+06 2.48131E+03-1.55110E+04-3.78007E-07-6.11002E-09-1.69985E-09
 -1        41-3.85579E+06-2.90964E+03-9.28026E+03-5.20124E-07-2.38637E-09 1.02958E-08
 -1        42-3.85429E+06 4.26686E+02-4.56920E+03 6.69656E-08-4.71284E-09 1.84730E-09
 -1        43-3.85468E+06-7.67823E+02-3.69398E+03 5.41041E-07-5.41182E-09-1.55460E-08
 -1        44-3.85434E+06 3.40820E+02-3.80408E+03-3.58190E-07-2.93359E-09-6.20446E-09
 -1        45-3.85539E+06-2.17132E+03-7.06281E+03-2.68632E-07 8.04327E-11-4.58567E-09
 -1        46-3.85358E+06 1.82928E+03-1.15201E+04-4.28530E-07 1.77786E-09 1.58616E-09
 -1        47-3.86092E+06-1.35056E+04-2.79955E+04 3.26910E-07-4.90407E-10 9.20772E-09
 -1        48-3.84887E+06 1.16674E+04-4.44451E+04-3.04031E-07 1.89536E-09-1.36970E-09
 -1        49-3.89450E+06-8.61626E+04-1.21624E+05-3.87397E-08-5.56389E-09 6.05360E-09
 -1        50-3.82021E+06 7.44392E+04-1.71830E+05-2.76541E-07-5.32924E-09 1.13505E-09
 -1        51 4.41949E+04-5.37085E+05 7.08635E+04-1.43886E+06 0.00000E+00-3.94357E-09
 -1        52 2.29678E+04-5.35114E+05 4.35818E+04-1.58371E+06-2.47383E-10 3.95812E-09
 -1        53 1.71317E+04-5.53725E+05 3.50754E+04-1.43494E+06-3.12866E-10 3.76895E-09
 -1        54 3.73285E+04-5.51586E+05 5.37304E+04-1.58768E+06-4.36557E-10-1.81026E-08
 -1        55 7.74698E+04-5.69920E+05 9.71442E+04-1.43405E+06-4.80213E-10 4.06726E-09
 -1        56-6.83300E+06-7.65467E+05-5.70537E+05-2.64149E+06 7.71252E-10 1.34169E-08
 -1        57-7.08285E+06-1.25073E+06-3.83177E+05-2.59577E+06 1.39698E-09 7.38510E-10
 -1        58-6.94553E+06-9.44523E+05-1.34120E+05-2.60807E+06-4.87489E-10-7.39237E-09
 -1        59-6.95389E+06-1.03823E+06-7.95266E+04-2.63377E+06-4.20187E-10-3.99086E-09
 -1        60-6.95986E+06-9.70806E+05-3.12755E+04-2.60570E+06 1.11049E-09-2.12822E-09
 -1        61-6.94124E+06-1.00320E+06-1.76672E+04-2.63159E+06-2.41721E-09-4.61250E-09
 -1        62-6.95764E+06-9.78685E+05-8.62584E+03-2.61038E+06 1.93450E-09 6.13909E-11
 -1        63-6.94939E+06-9.89130E+05-7.15270E+03-2.61987E+06 4.22915E-10 1.72292E-10
 -1        64-6.95155E+06-9.84836E+05-8.39117E+03-2.61737E+06 4.66116E-11 4.27917E-10
 -1        65-6.96351E+06-9.80506E+05-1.69377E+04-2.60587E+06-7.04631E-10-2.89606E-09
 -1        66-6.94361E+06-9.87390E+05-2.99257E+04-2.62439E+06-2.44199E-09 2.74849E-09
 -1        67-6.99056E+06-9.99021E+05-7.59818E+04-2.59092E+06-8.39009E-11 3.78350E-10
 -1        68-6.92504E+06-9.67137E+05-1.28143E+05-2.63219E+06 9.09495E-10-6.84668E-09
 -1        69-7.11688E+06-1.19899E+06-3.66069E+05-2.55126E+06 2.33013E-09-1.14451E-08
 -1        70-6.81939E+06-7.94206E+05-5.45104E+05-2.66199E+06-2.47383E-09-2.03727E-09
 -1        71-3.03773E+06 4.38415E+04-1.01266E+05-1.64857E-09-4.55674E-09 1.33150E-09
 -1        72-3.08143E+06-5.07494E+04-7.16636E+04-1.80105E-07-3.53604E-09 1.36424E-09
 -1        73-3.05462E+06 6.87216E+03-2.61993E+04-3.44197E-07 1.56761E-09 7.12134E-09
 -1        74-3.06165E+06-7.95512E+03-1.65031E+04-1.24207E-07 2.04321E-09 6.00676E-09
 -1        75-3.05740E+06 1.07755E+03-6.79544E+03 3.13203E-07-2.47700E-09 3.04772E-09
 -1        76-3.05840E+06-1.27952E+03-4.16934E+03-3.39144E-07 1.34413E-09 7.31325E-09
 -1        77-3.05785E+06 2.01223E+02-2.25210E+03 6.27840E-10 4.09735E-11 6.05263E-09
 -1        78-3.05798E+06-4.55791E+02-2.19627E+03 2.72914E-07-3.48157E-09 6.17785E-09
 -1        79-3.05782E+06 2.54378E+02-2.72642E+03-6.61501E-08-2.72268E-09 7.38396E-10
 -1        80-3.05865E+06-1.73659E+03-5.54357E+03 9.46563E-08-1.08243E-10-9.43498E-09
 -1        81-3.05719E+06 1.48120E+03-9.26872E+03-4.73426E-08-7.26086E-11-8.60700E-09
 -1        82-3.06314E+06-1.09564E+04-2.26886E+04 4.90681E-07-3.06550E-09-5.32782E-09
 -1        83-3.05336E+06 9.46793E+03-3.60724E+04-5.17324E-07-2.07927E-09-3.23598E-09
 -1        84-3.09039E+06-6.99209E+04-9.87237E+04-3.45921E-07-1.24352E-09 1.72804E-10
 -1        85-3.03008E+06 6.04059E+04-1.39495E+05 3.49691E-07-5.77694E-09 2.29193E-09
 -1        86-7.05760E+04-1.48798E+05 1.64666E+05 4.59343E+03-1.74623E-10-6.88829E-10
 -1        87 8.97540E+04-6.54648E+04 1.32536E+05-1.75379E+04-1.38334E-09-7.44777E-10
 -1        88-1.90497E+04-1.21186E+05 7.23064E+04 5.28434E+03-2.99815E-09 9.27404E-09
 -1        89 7.46586E+04-7.46566E+04 1.12634E+05-1.78675E+04 1.30058E-10 1.16005E-08
 -1        90-5.54541E+04-1.39680E+05 1.31703E+05 4.92351E+03-3.24508E-09-3.80916E-09
 -1        91-1.18586E+06-3.32395E+05-2.70129E+04-5.11402E+05 4.00760E-08 1.29876E-09
 -1        92-3.30126E+05 2.34575E+05 1.92486E+05 1.16218E+05 8.24080E-08-1.09039E-08
 -1        93-7.23512E+05-1.80182E+05 8.10834E+03-4.08003E+05-1.08048E-08-1.11140E-08
 -1        94 5.51603E+04 1.63411E+05 2.14731E+05 1.77939E+05-4.71813E-08 1.09394E-08
 -1        95-1.56189E+06-2.72160E+05-1.85461E+05-5.64009E+05-3.51893E-08-1.18428E-09
 -1        96 4.47236E+05 1.60791E+04 2.53805E+05 3.30373E+04 6.69361E-08 3.81942E-09
 -1        97-1.10956E+06-3.88628E+04-6.02791E+04-2.59802E+05 6.37556E-10 1.05470E-08
 -1        98-6.26463E+04-2.09934E+05 1.08040E+05-2.99009E+05-4.13091E-08 2.69110E-08
 -1        99-1.06835E+06-2.79223E+04-5.10200E+04-2.45146E+05 5.14142E-08 1.59514E-08
 -1       100 4.17866E+05 8.13990E+02 2.43588E+05 1.26229E+04 5.15074E-08 2.79106E-08
 -1       101-1.57455E+06-2.67058E+05-1.90128E+05-5.58938E+05 1.80617E-08 1.36024E-08
 -1       102 9.73202E+04 1.60339E+05 2.15411E+05 1.83776E+05-4.51496E-09 3.67163E-09
 -1       103-7.52086E+05-1.83184E+05-1.23827E+04-4.18101E+05-4.06749E-08-5.59430E-09
 -1       104-3.58122E+05 2.05796E+05 1.50384E+05 1.20306E+05 1.13391E-09 6.31189E-10
 -1       105-1.12962E+06-3.00230E+05-7.47782E+04-5.05725E+05 2.36324E-08 1.40026E-08
 -1       106-2.51188E+06 4.01624E+04-9.27855E+04-2.99110E-07 7.51109E-09-8.96762E-09
 -1       107-2.55194E+06-4.64911E+04-6.56626E+04 6.24551E-08 3.03177E-09 4.60750E-09
 -1       108-2.52736E+06 6.29544E+03-2.40087E+04 1.13452E-07-2.10201E-09 4.47199E-09
 -1       109-2.53382E+06-7.28708E+03-1.51181E+04 2.32010E-07-4.49801E-09-1.18689E-09
 -1       110-2.52991E+06 9.86638E+02-6.21549E+03 3.95017E-07-1.76697E-10-1.38812E-09
 -1       111-2.53084E+06-1.16813E+03-3.79158E+03-5.92685E-07 1.15731E-09 3.86785E-09
 -1       112-2.53032E+06 1.80818E+02-2.00721E+03-9.09816E-08-2.34209E-09 7.39220E-09
 -1       113-2.53044E+06-3.90982E+02-1.88592E+03 3.53171E-07-2.84339E-09 1.52182E-08
 -1       114-2.53030E+06 2.10003E+02-2.26786E+03 1.90570E-07-1.16137E-09 2.16937E-09
 -1       115-2.53098E+06-1.41907E+03-4.54661E+03-7.00660E-07-2.06956E-09-6.87390E-09
 -1       116-2.52979E+06 1.20824E+03-7.57441E+03-2.00002E-07 3.66609E-10 1.04819E-09
 -1       117-2.53464E+06-8.93492E+03-1.85157E+04-5.51105E-07-4.69701E-09 9.33824E-10
 -1       118-2.52667E+06 7.72057E+03-2.94318E+04 9.07883E-08-5.81357E-09-8.70205E-09
 -1       119-2.55686E+06-5.70163E+04-8.05227E+04 1.53631E-07-2.01025E-09 3.71074E-10
 -1       120-2.50767E+06 4.92564E+04-1.13780E+05-2.63400E-07-1.98512E-09-4.00178E-10
 -1       121-2.33159E+03-1.38045E+06 8.64874E+03-1.04212E+04-1.85628E-09-3.04681E-09
 -1       122 2.45601E+03-1.37668E+06 4.22727E+03-3.98631E+04-4.49614E-09-1.47274E-08
 -1       123-8.27347E+01-1.37889E+06-1.10947E+03-9.37444E+03-4.51632E-09-1.44246E-09
 -1       124-3.68103E+03-1.38091E+06-7.21647E+03-4.17098E+04-8.89895E-09 7.60338E-09
 -1       125 2.81442E+03-1.37681E+06-1.30241E+04-8.57748E+03-6.84304E-09 6.46014E-09
 -1       126-4.75381E+05-1.41255E+05 5.25663E+04-1.73180E+05 2.51075E-08 6.54836E-10
 -1       127-4.37624E+04 1.05269E+05 1.25176E+05 1.83380E+04 5.81313E-08 1.09330E-08
 -1       128-2.89914E+05-7.79854E+04 1.32140E+04-1.47093E+05 3.72306E-08-6.85941E-09
 -1       129-2.74059E+05 3.10356E+04 2.40934E+04-2.03176E+04 6.39807E-08-2.56159E-09
 -1       130-2.48723E+05-6.43393E+04 4.07895E+03-1.37670E+05 8.63938E-08-3.15663E-09
 -1       131-1.63474E+05 3.53990E+04 3.70070E+04 1.10014E+04-6.57082E-08-1.40025E-08
 -1       132-3.98433E+05-8.39112E+04-3.25589E+04-1.76560E+05-2.08574E-08 8.65623E-09
 -1       133 8.17945E+04 4.10902E+04 8.36135E+04 4.90758E+04 8.62657E-08 5.17628E-09
 -1       134-4.89650E+05-7.33363E+04-4.90168E+04-1.72368E+05 2.63603E-08-1.03796E-09
 -1       135 7.42289E+04-1.28360E+04 7.09584E+04-2.01612E+04 3.30454E-08-1.28759E-08
 -1       136-3.91696E+05-2.94095E+04-2.27120E+04-1.08403E+05-3.18505E-09-1.39454E-09
 -1       137-1.28424E+05-7.87525E+04 1.76547E+04-1.28911E+05-5.55002E-08-9.81316E-09
 -1       138-2.91805E+05-3.71166E+03-9.82446E+02-6.70156E+04 5.38878E-08 1.47850E-08
 -1       139-1.31584E+05-7.41689E+04 1.35343E+04-1.33031E+05-5.50269E-08-4.94315E-08
 -1       140-3.88674E+05-3.38801E+04-3.44375E+04-1.04376E+05-4.40499E-08-8.47376E-09
 -1       141-2.15256E+06 3.53929E+04-8.17874E+04-2.60739E-07-6.07513E-09-7.83984E-09
 -1       142-2.18787E+06-4.09709E+04-5.78929E+04 5.85140E-07-8.94605E-09-2.12458E-09
 -1       143-2.16621E+06 5.54871E+03-2.12024E+04-1.00856E-07-4.84139E-09-3.06136E-09
 -1       144-2.17192E+06-6.42829E+03-1.34076E+04-3.81544E-07-2.03564E-11-1.57343E-10
 -1       145-2.16845E+06 8.75110E+02-5.63441E+03-3.79153E-07 3.42482E-10-2.89060E-09
 -1       146-2.16932E+06-1.07252E+03-3.67301E+03-3.44179E-08 2.96244E-09 4.50768E-11
 -1       147-2.16879E+06 1.96808E+02-2.38831E+03-1.89517E-07 1.26839E-09-2.39656E-09
 -1       148-2.16911E+06-6.26663E+02-3.02490E+03-1.71015E-07 6.93219E-10-6.25175E-09
 -1       149-2.16866E+06 4.29597E+02-4.46870E+03-1.26306E-08-8.15770E-10 2.90947E-09
 -1       150-2.17040E+06-3.07418E+03-9.69847E+03-3.61328E-07-9.58681E-10 3.62161E-09
 -1       151-2.16752E+06 2.64284E+03-1.64784E+04 3.22198E-07-5.23642E-10 4.42924E-09
 -1       152-2.17845E+06-1.95717E+04-4.05166E+04-3.90265E-07 2.64015E-09-2.76486E-10
 -1       153-2.16066E+06 1.69164E+04-6.44678E+04 4.04592E-07 5.28924E-09 3.91447E-09
 -1       154-2.22711E+06-1.24926E+05-1.76431E+05 4.48240E-07 4.85219E-09 3.47427E-09
 -1       155-2.11897E+06 1.07936E+05-2.49173E+05 4.03191E-07 1.79095E-08 4.83124E-09
 -1       156-4.99115E+04-5.07537E+04 1.05116E+05 2.28538E+04 7.69069E-09-3.56465E-09
 -1       157 5.57493E+04 6.12020E+04 8.69044E+04-9.23342E+04 2.08111E-08-3.22041E-09
 -1       158-4.89687E+03-1.84552E+04 2.99869E+04 2.24424E+04 1.08585E-08 6.66887E-10
 -1       159 2.76297E+04 1.79100E+05 6.35723E+04-9.00922E+04 5.43565E-09 1.21736E-09
 -1       160-2.42319E+04-1.65341E+05-1.31779E+04 2.06460E+04-1.40208E-08-1.63163E-09
 -1       161-4.88344E+05-1.29396E+05 3.56906E+04-1.83189E+05-4.50527E-08 2.47019E-09
 -1       162-1.58022E+05 7.21117E+04 9.47803E+04-1.93631E+04-5.52045E-08 4.95402E-09
 -1       163-3.22696E+05-7.97672E+04 1.18885E+04-1.60871E+05 4.32742E-08-8.98763E-09
 -1       164-3.31005E+05 1.88083E+04 1.94677E+04-4.33019E+04-7.25277E-09 5.99584E-09
 -1       165-3.18076E+05-7.40158E+04-7.77931E+02-1.61592E+05-9.44378E-08-1.27766E-08
 -1       166-1.86336E+05 2.43465E+04 4.15803E+04-1.09757E+04-6.10235E-08 1.17034E-08
 -1       167-4.64717E+05-8.73798E+04-3.46421E+04-1.90888E+05 2.93044E-08-2.97501E-09
 -1       168-1.08174E+04 9.62258E+03 7.08754E+04-8.76092E+03 4.06428E-08-8.68567E-10
 -1       169-4.90713E+05-6.15654E+04-3.62921E+04-1.61706E+05-1.17098E-07 6.65540E-09
 -1       170-1.06183E+05-5.76665E+04 3.70145E+04-1.02156E+05-2.41006E-07-1.31522E-08
 -1       171-3.72065E+05-1.79844E+04-9.52249E+03-9.97537E+04 1.16353E-07 4.35195E-08
 -1       172-2.29523E+05-1.02352E+05-3.96094E+03-1.65403E+05 6.64036E-08 1.04503E-08
 -1       173-3.70290E+05-1.45544E+04-2.56515E+04-1.00502E+05-9.71527E-08 1.52977E-09
 -1       174-1.23356E+05-8.71921E+04-1.67205E+04-9.59018E+04 8.53735E-08 1.46292E-08
 -1       175-4.75291E+05-3.55051E+04-1.25173E+05-1.67187E+05 4.39059E-08-1.16415E-10
 -1       191 2.75240E+03 6.91026E+05 4.33710E+03-4.31279E+04-1.09503E-09 5.08771E-09
 -1       192 9.37279E+02 6.91642E+05 2.28243E+03-4.69329E+04-1.39335E-09 1.04865E-09
 -1       193 2.61770E+02 6.91218E+05 1.31229E+03-4.27785E+04-2.59661E-09-2.66482E-09
 -1       194 4.65860E+02 6.91386E+05 1.34470E+03-4.75364E+04-3.28600E-09-4.11910E-09
 -1       195 1.22442E+03 6.91060E+05 2.00983E+03-4.25216E+04-3.76895E-09-5.09317E-11
 -1       251-1.35719E+06-6.53017E+04-4.50551E+04-1.07884E+05 2.33285E-10-3.94539E-09
 -1       252-4.01188E+05 5.73575E+04 1.37816E+05 2.78681E+05 4.14471E-09 2.23340E-08
 -1       253-1.02743E+06 1.64829E+04-5.71694E+03-1.29046E+05 6.77619E-09-2.16201E-08
 -1       254 1.02337E+03 3.06060E+04 1.91397E+05 1.63323E+05 7.50720E-09 2.20020E-08
 -1       255-1.74481E+06-5.44039E+04-1.65676E+05 7.68408E+03 2.43199E-09 9.22228E-10
 -1       256 1.27657E+05 4.04200E+04 2.13279E+05-1.23576E+05 6.97219E-09-1.43227E-08
 -1       257-1.14979E+06 2.43004E+03-4.36239E+04 1.56526E+05 6.16501E-09 3.04829E-08
 -1       258-4.66010E+05 6.73269E+03 8.95586E+04-2.70199E+05 3.14867E-09-2.87625E-08
 -1       259-1.17079E+06 2.37548E+02-4.79499E+04 1.55628E+05-2.52176E-08 2.56045E-08
 -1       260 1.45898E+05 4.16760E+04 2.17344E+05-1.17756E+05-3.64366E-09-3.08537E-08
 -1       261-1.74149E+06-5.39974E+04-1.64445E+05 2.75918E+03 1.52040E-08 3.30419E-09
 -1       262-1.85882E+04 2.96678E+04 1.88440E+05 1.68983E+05 7.16591E-09 7.10406E-09
 -1       263-1.01178E+06 1.76583E+04-3.75796E+02-1.29771E+05-2.15223E-08-1.26711E-08
 -1       264-3.93520E+05 6.17558E+04 1.44506E+05 2.77197E+05-9.50642E-08 2.67737E-08
 -1       265-1.38029E+06-7.11293E+04-4.19675E+04-1.05667E+05-3.99409E-08-1.31040E-08
 -1       266-5.82744E+04 6.94998E+04 1.34846E+05-8.14219E+03 6.54836E-11 3.91537E-09
 -1       267 6.66118E+04 1.34075E+05 9.57319E+04 3.16018E+04-3.09228E-11 6.83337E-09
 -1       268-8.37646E+03 8.96269E+04 3.30882E+04-8.20255E+03 3.63798E-11-9.69976E-10
 -1       269 1.06720E+04 1.35813E+05 2.56524E+04 3.36860E+04-5.95719E-11 1.03912E-08
 -1       270-2.85920E+03 6.84222E+04-2.25225E+03-1.02387E+04 7.00311E-11 1.74318E-08
 -1       271-5.51386E+06-7.05143E+05-4.33084E+05-2.14025E+06 2.27010E-09-6.19912E-09
 -1       272-5.66914E+06-9.72573E+05-2.71657E+05-2.13559E+06 1.19144E-10-8.62929E-09
 -1       273-5.59110E+06-7.96112E+05-1.02036E+05-2.12662E+06-4.02565E-10 2.15368E-09
 -1       274-5.57787E+06-8.53650E+05-5.56083E+04-2.16114E+06-1.10003E-09-3.22689E-09
 -1       275-5.60216E+06-8.03041E+05-2.36823E+04-2.12273E+06-1.95541E-10 1.20053E-10
 -1       276-5.56418E+06-8.45380E+05-1.24224E+04-2.16810E+06 1.77261E-09-2.82853E-09
 -1       277-5.60499E+06-8.02182E+05-6.36314E+03-2.12071E+06-7.53062E-10-8.81323E-09
 -1       278-5.56101E+06-8.46541E+05-4.89610E+03-2.17113E+06-1.34401E-09 3.50411E-09
 -1       279-5.60567E+06-8.01518E+05-5.78738E+03-2.12001E+06 4.35193E-10-5.92672E-09
 -1       280-5.56183E+06-8.47591E+05-1.09058E+04-2.17114E+06-1.12209E-10-3.28964E-09
 -1       281-5.60423E+06-8.01228E+05-2.05101E+04-2.12068E+06-1.91676E-10-1.34605E-09
 -1       282-5.57216E+06-8.56374E+05-4.81697E+04-2.16710E+06 3.32193E-10 1.75442E-09
 -1       283-5.59536E+06-7.94527E+05-8.82598E+04-2.12327E+06 9.08585E-10-1.12414E-09
 -1       284-5.65000E+06-9.60405E+05-2.35109E+05-2.14620E+06-8.67203E-10-2.40107E-09
 -1       285-5.52892E+06-7.15457E+05-3.74833E+05-2.13463E+06-1.88084E-09 6.73754E-09
 -1       286-1.05718E+05-5.50291E+04 1.27162E+05 2.64867E+02 1.07212E-09-1.17143E-09
 -1       287-4.91885E+04 6.37050E+04 9.01736E+04-1.73028E+03-5.04514E-10 7.85076E-09
 -1       288-8.42765E+04-8.62916E+03 3.28789E+04 4.92410E+02-1.09654E-09 4.41651E-09
 -1       289-7.43715E+04 9.98163E+03 2.08015E+04-2.18817E+03-3.94138E-10 5.93445E-11
 -1       290-8.05737E+04-1.34774E+03 8.46477E+03 7.22801E+02 1.74308E-09 1.56069E-09
 -1       291-7.87690E+04 1.58084E+03 5.11066E+03-2.52836E+03 3.06417E-09-7.29341E-09
 -1       292-7.98893E+04-2.29150E+02 2.53844E+03 8.32613E+02 2.46909E-09-5.72072E-10
 -1       293-7.94435E+04 4.28781E+02 2.10451E+03-2.60612E+03 4.21573E-10 1.44661E-09
 -1       294-7.99014E+04-1.95048E+02 2.21860E+03 8.00563E+02 2.17574E-09 2.34007E-09
 -1       295-7.88134E+04 1.28132E+03 4.22660E+03-2.40433E+03 1.50125E-09-1.90039E-09
 -1       296-8.05143E+04-1.08470E+03 6.81615E+03 6.30805E+02 8.35300E-10 1.89129E-09
 -1       297-7.51712E+04 8.01118E+03 1.67603E+04-1.95642E+03 3.23155E-11-2.48338E-09
 -1       298-8.35325E+04-6.92662E+03 2.63525E+04 3.52657E+02-9.83817E-11 1.24419E-09
 -1       299-5.49159E+04 5.11118E+04 7.23976E+04-1.41772E+03-1.31558E-09 1.54978E-09
 -1       300-1.00741E+05-4.41535E+04 1.01954E+05 9.20690E+01 8.15675E-10 1.28784E-09
 -1       301 7.42440E+04-1.38746E+04 1.66691E+05-4.36856E+04-1.21508E-09 5.76983E-09
 -1       302 2.53142E+04 1.75714E+04 1.03108E+05-5.16275E+04-1.42973E-09 6.92795E-09
 -1       303 7.21416E+03-2.80761E+03 8.41397E+04-4.38466E+04-1.29785E-09-3.75167E-11
 -1       304 3.41662E+04 2.29175E+04 1.27144E+05-5.15622E+04-1.77351E-09-6.39398E-09
 -1       305 1.02891E+05-1.91574E+04 2.24957E+05-4.36695E+04-9.38599E-10-1.16006E-09
 -1       306-3.65091E+06-4.80054E+05-2.36454E+05-1.41478E+06 1.67347E-10-2.96859E-09
 -1       307-3.71196E+06-6.48729E+05-1.48143E+05-1.43889E+06-1.93586E-09 5.88079E-09
 -1       308-3.69330E+06-5.29206E+05-5.57511E+04-1.40722E+06 6.55291E-10-2.02999E-09
 -1       309-3.66253E+06-5.83996E+05-3.03855E+04-1.45312E+06 1.06456E-09-5.84441E-09
 -1       310-3.69927E+06-5.33022E+05-1.29877E+04-1.40527E+06 3.66799E-09-4.10091E-09
 -1       311-3.65566E+06-5.79020E+05-6.90419E+03-1.45649E+06 1.59343E-09-6.13625E-09
 -1       312-3.70048E+06-5.32884E+05-3.70219E+03-1.40456E+06 1.33855E-09 1.63915E-09
 -1       313-3.65475E+06-5.78845E+05-3.18620E+03-1.45712E+06 9.45818E-10 3.54453E-09
 -1       314-3.70029E+06-5.33056E+05-4.20684E+03-1.40474E+06-2.72212E-09-8.01674E-09
 -1       315-3.65635E+06-5.78569E+05-8.26759E+03-1.45565E+06-9.47239E-10-2.10821E-09
 -1       316-3.69860E+06-5.33419E+05-1.57912E+04-1.40580E+06-5.36602E-10-2.03363E-09
 -1       317-3.66492E+06-5.84479E+05-3.70437E+04-1.45134E+06-3.23325E-10-1.38152E-09
 -1       318-3.69132E+06-5.28740E+05-6.80181E+04-1.40817E+06 6.66205E-10 5.37329E-09
 -1       319-3.72511E+06-6.63675E+05-1.80760E+05-1.43430E+06-2.95108E-09-1.27329E-09
 -1       320-3.63982E+06-4.68489E+05-2.88437E+05-1.41715E+06-3.43061E-09 1.92085E-09
 -1       321-3.61805E+05-4.28957E+04 7.11924E+04-1.17528E+04-1.26968E-08-1.21254E-08
 -1       322-1.93946E+05 4.85229E+04 7.45455E+04 3.55751E+04-3.88906E-08 5.70435E-09
 -1       323-2.99620E+05-5.79633E+03 1.93502E+04-2.18879E+04 1.42197E-08-7.99537E-09
 -1       324-2.69812E+05 6.59158E+03 1.58602E+04 4.70549E+04 6.38630E-08 8.55289E-09
 -1       325-2.87457E+05 1.83070E+02 5.24973E+03-2.32873E+04-2.29441E-08-2.10050E-08
 -1       326-2.39295E+05 1.68792E+03 1.19907E+04 4.08942E+04-2.19334E-08 1.33214E-08
 -1       327-3.29272E+05-1.58195E+03-7.52912E+03-1.56902E+04 1.84855E-10-9.61063E-09
 -1       328-1.65109E+05 3.64984E+03 2.45541E+04 1.76558E+04-1.14597E-08 1.34009E-08
 -1       329-3.59705E+05-3.30775E+03-1.49278E+04-3.17536E+01-2.21667E-09 1.53639E-09
 -1       330-1.60712E+05 3.77295E+03 2.46367E+04-1.40971E+04 2.54412E-08-7.87236E-09
 -1       331-3.33549E+05-1.80002E+03-1.03805E+04 1.59865E+04-6.81484E-09 8.20160E-09
 -1       332-2.33379E+05 8.51949E+02 8.76902E+03-3.83902E+04-7.04015E-08-1.39393E-08
 -1       333-2.88914E+05 1.09235E+03-3.35514E+03 2.42820E+04-6.00000E-08 1.80896E-08
 -1       334-2.75996E+05-2.43574E+03-4.34830E+03-4.61201E+04-4.14370E-08-2.38693E-08
 -1       335-2.92011E+05 2.33689E+03-1.20121E+04 2.37692E+04 2.90505E-08 1.61458E-08
 -1       336 3.38116E+03-1.38954E+06-1.67490E+04-1.92357E+04-8.28140E-09 2.92721E-09
 -1       337-4.98507E+03-1.39612E+06-1.51327E+04-8.24988E+04-1.50594E-08 6.62362E-09
 -1       338 1.43423E+03-1.39102E+06-1.48044E+04-1.90217E+04-8.27299E-09 2.10304E-09
 -1       339-1.29416E+04-1.40091E+06-2.95725E+04-8.24385E+04-1.38384E-08 5.47425E-09
 -1       340 9.55644E+03-1.38473E+06-4.42524E+04-1.93018E+04-6.98856E-09 8.59654E-09
 -1       341-5.93187E+05-1.66284E+05 7.56424E+03-2.30298E+05 7.80292E-08 6.69752E-09
 -1       342-4.91724E+04 1.20278E+05 1.24356E+05 4.60709E+04 3.67925E-08 2.99133E-09
 -1       343-3.20424E+05-9.03205E+04 9.36773E+03-1.76908E+05-5.39080E-08-3.46108E-08
 -1       344-3.14343E+05 4.41776E+04 2.67281E+04-5.09520E+03 1.27750E-07 1.33750E-08
 -1       345-3.32392E+05-8.67749E+04-6.77984E+03-1.83116E+05 1.55050E-07-7.45672E-10
 -1       346-4.55906E+04 6.63817E+04 7.62935E+04 6.41300E+04-7.21450E-08-2.00398E-08
 -1       347-5.84213E+05-1.16449E+05-6.36089E+04-2.41620E+05 1.60762E-08-6.23868E-09
 -1       348 2.40537E+05 5.16661E+04 1.27329E+05 7.91434E+04 5.14847E-08-8.57949E-09
 -1       349-6.13550E+05-7.60247E+04-6.26715E+04-1.94644E+05-4.55316E-08-8.08109E-09
 -1       350 4.82435E+04-5.28139E+04 6.83191E+04-7.28934E+04 8.15271E-09-2.85854E-08
 -1       351-3.96905E+05-8.06882E+03-1.06873E+04-9.38134E+04-1.82511E-08-3.34847E-08
 -1       352-1.69498E+05-1.15412E+05 9.69388E+03-1.75707E+05-1.53036E-07-8.52631E-08
 -1       353-4.00997E+05-9.20843E+03-2.00787E+04-9.53450E+04 4.79259E-08 1.66438E-09
 -1       354 5.50841E+04-4.98386E+04 4.84842E+04-6.94229E+04-5.25467E-08-1.47154E-08
 -1       355-6.16116E+05-7.80069E+04-1.10991E+05-1.96453E+05-2.29636E-08-3.49246E-10
 -1       356-3.18937E+05 2.05906E+03-1.53931E+04 2.68125E+04 6.63931E-11 1.34332E-08
 -1       357-2.90491E+05-2.40600E+03-4.32396E+03-5.32738E+04 8.27188E-08-1.95126E-08
 -1       358-3.07272E+05 1.56247E+03-3.54209E+03 2.83258E+04 2.96025E-08 1.83373E-08
 -1       359-2.45149E+05 8.78520E+02 9.97533E+03-4.57362E+04-5.20538E-09-1.93293E-08
 -1       360-3.63122E+05-2.14358E+03-1.26524E+04 1.92138E+04-4.61416E-08 1.13251E-08
 -1       361-1.51491E+05 4.74317E+03 3.00241E+04-1.74999E+04-7.25267E-08-4.51510E-09
 -1       362-3.98498E+05-4.23437E+03-1.95372E+04 5.56654E+01-8.49172E-09 4.12348E-09
 -1       363-1.55836E+05 4.33163E+03 2.88421E+04 2.05988E+04-2.13067E-08 3.00705E-09
 -1       364-3.58892E+05-1.64030E+03-1.23805E+04-1.87809E+04-3.55485E-08-7.31256E-09
 -1       365-2.51490E+05-3.81375E+02 7.14137E+03 4.79523E+04 1.04345E-07 1.11681E-08
 -1       366-3.05328E+05 2.45052E+03-5.72982E+03-2.73258E+04-7.98745E-08-1.35228E-08
 -1       367-2.90210E+05-6.77576E+03-1.06738E+04 5.41848E+04-8.93937E-08 1.38564E-08
 -1       368-3.21119E+05 5.50158E+03-2.62071E+04-2.50572E+04-2.40977E-08-1.51977E-08
 -1       369-2.24444E+05-3.45831E+04-3.98830E+04 3.81231E+04-7.14314E-08 7.85349E-09
 -1       370-3.69000E+05 2.85757E+04-1.03695E+05-1.11860E+04-8.81164E-09-6.25732E-09
 -1       371-2.53264E+04-1.95464E+05-2.48573E+04 2.24306E+04-1.55260E-08-2.55568E-09
 -1       372 1.96313E+04 1.89420E+05 4.88714E+04-9.86071E+04 1.16297E-08 1.32284E-08
 -1       373 4.20899E+03-2.24735E+04-1.80924E+03 2.48712E+04 1.29071E-08-4.97357E-09
 -1       374-5.88816E+03 3.29015E+04 8.72338E+02-1.01091E+05 2.44427E-08 6.90048E-09
 -1       375 2.86405E+03-4.26388E+04-2.11097E+04 2.48847E+04 1.05256E-08 7.65613E-09
 -1       376-3.04578E+05-2.27729E+04-1.85777E+04-8.47627E+04-8.99678E-09-1.00495E-08
 -1       377-1.78819E+05-6.95301E+04 1.95702E+03-1.27121E+05 3.35214E-08-2.12277E-08
 -1       378-2.69358E+05-1.14535E+04-1.79613E+03-6.98488E+04 4.42594E-09 2.08637E-08
 -1       379-1.49157E+05-6.21314E+04 1.29121E+04-1.11525E+05 3.70505E-08 1.16571E-08
 -1       380-3.33524E+05-3.07178E+04-1.59151E+04-9.98809E+04 5.15090E-08-4.13218E-09
 -1       381-3.82100E+04-1.86844E+04 4.36974E+04-4.25237E+04 2.74541E-08-7.81324E-09
 -1       382-3.77595E+05-5.69403E+04-2.90288E+04-1.36888E+05 5.03428E-09-4.05680E-09
 -1       383-5.58225E+04 1.34328E+04 4.64338E+04-3.60737E+03-4.78492E-08 2.69580E-09
 -1       384-3.15773E+05-6.29110E+04-1.88712E+04-1.38483E+05 1.39646E-07-3.62968E-09
 -1       385-2.04200E+05 1.15413E+04 1.60669E+04-2.32090E+04 1.63456E-07-1.01127E-08
 -1       386-2.31765E+05-5.31511E+04-3.54281E+03-1.19266E+05-9.69844E-08-2.00960E-08
 -1       387-2.67605E+05 3.60723E+03-3.18184E+03-3.69272E+04 9.11261E-08-7.82893E-09
 -1       388-2.53462E+05-5.41730E+04-1.91162E+04-1.25703E+05 6.72935E-08-5.92340E-08
 -1       389-1.58209E+05-4.23542E+03-7.40207E+03-8.91391E+03-7.37334E-08-2.48911E-08
 -1       390-3.39068E+05-4.68627E+04-8.38503E+04-1.45515E+05-3.46245E-08-4.64206E-09
 -1       406 1.16309E+03 6.88334E+05 2.75758E+03-5.58607E+04-5.15138E-09-1.70348E-09
 -1       407 9.51336E+02 6.88837E+05 3.92767E+03-6.12352E+04-5.99994E-09-6.83940E-10
 -1       408 1.77500E+03 6.88133E+05 6.93745E+03-5.56334E+04-6.08088E-09-8.69113E-09
 -1       409 7.11511E+03 6.90843E+05 1.51741E+04-6.15625E+04-7.26413E-09-1.68693E-08
 -1       410 2.04007E+04 6.86159E+05 3.07307E+04-5.55016E+04-6.84304E-09-5.56338E-09
 -1       466 6.18936E+05-2.40877E+04 3.94944E+04 2.50938E+04 1.60594E-09 1.86174E-08
 -1       467 7.21544E+05 2.60577E+04 4.25456E+04-4.00757E+04-2.27516E-09 5.37875E-09
 -1       468 6.61430E+05-2.47469E+03 1.16827E+04 6.86346E+03-7.05654E-10 3.99314E-09
 -1       469 6.73272E+05 2.68361E+03 8.47652E+03-1.55893E+04-2.98428E-10-1.25272E-09
 -1       470 6.66370E+05-2.39984E+02 3.34830E+03 5.95007E+02 4.32692E-10-2.62492E-09
 -1       471 6.67703E+05 3.38625E+02 2.36281E+03-7.23276E+03 4.85940E-11-1.28260E-09
 -1       472 6.66902E+05-7.31551E+01 1.81410E+03-1.49331E+03 1.60156E-09-7.59337E-09
 -1       473 6.67293E+05 4.96541E+02 2.66778E+03-4.59633E+03-5.86418E-10 2.95830E-09
 -1       474 6.66767E+05-3.90947E+02 4.27522E+03-2.04142E+03 2.68042E-10-7.29847E-09
 -1       475 6.68578E+05 2.99288E+03 9.47601E+03-4.34554E+03 8.35876E-10-1.05294E-08
 -1       476 6.65613E+05-2.56743E+03 1.62009E+04-1.74408E+03 2.23395E-09-1.26784E-09
 -1       477 6.76721E+05 1.91619E+04 3.98781E+04-6.16754E+03 3.44937E-10-2.07137E-09
 -1       478 6.58621E+05-1.65503E+04 6.33913E+04-2.19369E+02 2.13504E-10-2.85581E-09
 -1       479 7.26937E+05 1.22783E+05 1.73915E+05-1.26828E+04 4.84271E-09-2.52658E-09
 -1       480 6.15478E+05-1.06114E+05 2.44688E+05 4.77072E+03 7.26578E-09-1.64437E-09
 -1       481-1.32895E+04 2.85091E+05 8.34573E+03-2.19562E+04-1.65528E-10-1.97224E-09
 -1       482 1.28438E+04 3.98788E+05 2.57501E+04 6.12925E+04-1.17097E-10 1.21682E-08
 -1       483-1.89413E+02 3.38937E+05 7.65975E+03-1.28800E+04-1.54728E-10 3.41205E-09
 -1       484 6.41114E+03 3.61376E+05 1.38309E+04 5.54502E+04-6.31530E-11 9.78048E-10
 -1       485-6.33402E+03 3.21684E+05 8.33991E+03-1.61015E+04 1.74168E-10-6.68069E-09
 -1       486-7.99527E+05-1.93216E+05-1.33248E+05-4.07662E+05-2.29920E-09 1.04847E-08
 -1       487-3.90492E+05 1.27343E+05 4.73184E+04 1.08438E+05 2.54227E-09 3.73716E-08
 -1       488-7.00730E+05-1.68146E+05-5.05355E+04-3.81496E+05 6.17996E-09-1.12668E-08
 -1       489 2.11122E+05 1.53722E+05 1.98298E+05 2.03507E+05 2.79392E-08-1.28639E-08
 -1       490-1.38867E+06-2.32534E+05-1.79140E+05-4.91114E+05 2.28347E-08 4.68299E-09
 -1       491 4.76924E+05 1.62947E+04 2.29716E+05 4.66360E+04 4.80850E-09 2.51111E-08
 -1       492-9.63208E+05-3.39454E+04-5.84438E+04-2.23748E+05-5.26370E-09 5.95585E-08
 -1       493-7.78161E+04-1.94743E+05 8.12693E+04-2.72548E+05-3.35490E-10 1.10334E-07
 -1       494-8.49982E+05-5.19903E+03-3.15079E+04-1.84076E+05-1.14160E-08 2.78212E-08
 -1       495 3.74629E+05-2.80361E+04 2.01444E+05-1.77940E+04-8.87485E-09 2.18615E-08
 -1       496-1.40237E+06-2.14428E+05-1.77498E+05-4.68555E+05 1.71622E-09 1.87074E-08
 -1       497 3.45756E+05 1.57075E+05 2.26983E+05 2.15804E+05 1.17861E-08 6.73481E-10
 -1       498-8.18990E+05-1.92087E+05-7.37714E+04-4.14278E+05 2.45682E-08-2.58970E-08
 -1       499-3.86642E+05 1.30647E+05 5.63492E+04 1.06691E+05 1.08173E-08-4.72191E-08
 -1       500-6.85030E+05-1.72656E+05-9.18726E+04-3.73050E+05-3.05317E-08 4.89508E-08
 -1       501-5.51210E+05-7.64585E+04 1.26593E+05 1.36627E+04-1.44626E-08-1.10522E-08
 -1       502-2.45842E+05 8.59013E+04 1.33574E+05-4.69316E+04-1.36733E-08-3.52575E-08
 -1       503-4.39491E+05-1.00992E+04 3.42986E+04 3.35830E+04-1.87352E-08-4.73374E-08
 -1       504-3.78637E+05 1.12152E+04 2.94361E+04-6.86495E+04-1.96128E-09-5.71531E-08
 -1       505-4.21169E+05 4.00184E+02 8.52414E+03 3.54802E+04 3.13992E-08-4.97835E-08
 -1       506-3.10305E+05 4.10561E+03 2.57033E+04-5.35464E+04 4.39788E-08-4.27535E-08
 -1       507-5.05870E+05-4.62290E+03-1.63054E+04 1.83972E+04 2.05368E-08-2.15066E-08
 -1       508-2.08763E+05 7.75740E+03 4.26091E+04-5.99727E+03 8.08132E-09 9.81004E-10
 -1       509-5.19986E+05-5.50398E+03-2.05295E+04-1.20395E+04-1.34653E-08 1.51903E-08
 -1       510-2.81088E+05 4.33504E+03 2.80466E+04 4.57267E+04-2.81260E-08 4.11452E-08
 -1       511-4.35476E+05 3.93870E+02-1.33551E+03-3.32440E+04-3.35897E-08 4.32696E-08
 -1       512-3.82312E+05 2.92901E+03 1.25359E+04 6.88929E+04-6.25298E-08 4.90056E-08
 -1       513-4.21509E+05-1.81962E+03 1.02222E+04-3.53030E+04-2.78958E-08 4.94119E-08
 -1       514-2.99631E+05 3.18700E+04 5.34364E+04 5.43858E+04-1.43766E-08 4.36862E-08
 -1       515-5.16244E+05-3.01037E+04 2.46242E+04-1.86586E+04-1.55196E-08 2.64517E-08
 -1       516-9.03233E+04 2.06199E+05 2.08609E+05-1.45414E+04-8.14907E-10 4.31874E-09
 -1       517 1.04144E+05 3.18196E+05 1.53408E+05 6.02189E+04-1.94632E-09-1.64700E-08
 -1       518-1.36417E+04 2.37146E+05 5.82902E+04-1.47092E+04 1.56979E-09 1.05888E-09
 -1       519 3.56655E+04 3.82702E+05 7.39920E+04 7.03099E+04-9.59221E-09-1.26761E-10
 -1       520-2.34596E+04 1.43971E+05 1.45109E+04-2.46779E+04-3.33057E-09-2.10262E-08
 -1       521-5.58221E+06-7.21170E+05-3.80201E+05-2.15424E+06-1.57161E-09 3.34694E-10
 -1       522-5.70642E+06-9.68040E+05-2.38450E+05-2.16419E+06 7.71706E-10-7.97445E-09
 -1       523-5.64984E+06-8.01093E+05-8.95244E+04-2.14242E+06-6.02313E-10 2.33922E-09
 -1       524-5.62698E+06-8.63045E+05-4.88283E+04-2.18602E+06 1.59230E-09 3.15777E-09
 -1       525-5.65912E+06-8.07609E+05-2.07693E+04-2.13948E+06 1.86583E-09 2.81671E-09
 -1       526-5.61605E+06-8.54636E+05-1.09626E+04-2.19076E+06 2.99906E-10-8.48104E-11
 -1       527-5.66085E+06-8.07631E+05-5.67626E+03-2.13852E+06 3.13321E-10-1.12368E-09
 -1       528-5.61478E+06-8.54026E+05-4.54182E+03-2.19135E+06-2.41209E-09 2.06364E-09
 -1       529-5.66043E+06-8.08071E+05-5.58915E+03-2.13897E+06-3.32284E-09-3.83579E-09
 -1       530-5.61742E+06-8.53062E+05-1.06790E+04-2.18881E+06-5.14046E-09-8.77753E-09
 -1       531-5.65791E+06-8.08906E+05-2.02371E+04-2.14080E+06 4.06544E-10-1.03500E-09
 -1       532-5.62945E+06-8.59719E+05-4.74570E+04-2.18235E+06 3.65435E-09 4.01087E-10
 -1       533-5.64813E+06-8.03350E+05-8.70647E+04-2.14448E+06 6.62794E-10 1.05138E-09
 -1       534-5.70804E+06-9.60344E+05-2.31746E+05-2.15950E+06-1.06866E-09 4.34738E-09
 -1       535-5.58173E+06-7.26338E+05-3.69590E+05-2.15671E+06-1.62618E-09 4.64206E-09
 -1       536-4.26959E+04-1.80445E+04 8.16042E+04-1.52664E+04 1.58070E-09 1.12050E-09
 -1       537-1.28157E+04 2.44013E+04 5.20189E+04-5.34710E+04-5.07407E-09-4.18731E-09
 -1       538-3.05895E+04-1.99557E+03 2.10611E+04-1.50415E+04-7.45786E-11 1.00044E-11
 -1       539-2.68647E+04 2.15888E+03 1.17325E+04-5.37121E+04 1.69803E-09-3.09683E-10
 -1       540-2.93316E+04-2.99139E+02 5.27346E+03-1.50106E+04 2.66482E-10-2.81807E-09
 -1       541-2.87288E+04 1.68234E+02 2.77404E+03-5.37520E+04-4.53838E-10-6.14409E-09
 -1       542-2.92194E+04-5.21865E+01 1.24944E+03-1.50028E+04-3.44698E-10-9.63382E-10
 -1       543-2.91517E+04 5.47710E+01 5.50138E+02-5.37646E+04-8.53561E-10 3.13139E-09
 -1       544-2.92203E+04 1.56065E+01 5.88743E+01-1.49984E+04 4.98858E-10-3.94027E-09
 -1       545-2.93153E+04 3.32856E+01-4.00669E+02-5.37696E+04-1.13170E-09-4.14525E-09
 -1       546-2.91854E+04 5.98277E+01-1.00924E+03-1.49977E+04 7.26573E-10-3.17686E-09
 -1       547-2.95966E+04-4.19894E+02-2.35857E+03-5.37605E+04-1.29285E-09 5.79348E-10
 -1       548-2.88864E+04 3.53949E+02-4.32910E+03-1.50077E+04-1.06138E-09 2.16824E-09
 -1       549-3.22131E+04-5.07517E+03-1.06481E+04-5.36335E+04-9.96806E-10 1.60526E-09
 -1       550-2.63341E+04 3.53815E+03-1.68083E+04-1.51240E+04-4.82032E-11 2.13004E-09
 -1       551 2.59123E+04-5.12838E+05 4.98086E+04-7.51002E+05-3.16504E-10-3.80533E-09
 -1       552 1.61938E+04-5.06109E+05 4.10469E+04-8.82520E+05-2.07365E-09 2.06637E-09
 -1       553 1.17615E+04-5.13610E+05 4.96180E+04-7.49720E+05 7.78527E-10-2.59206E-09
 -1       554 3.63578E+04-4.94868E+05 9.48033E+04-8.82676E+05-2.87400E-10 8.51287E-10
 -1       555 9.05961E+04-5.25800E+05 1.80117E+05-7.50524E+05-1.45519E-11-3.65617E-09
 -1       556-3.73148E+05-1.93619E+05 3.25438E+04-3.46099E+05-3.76895E-09 1.50612E-09
 -1       557-3.43452E+05-2.25484E+05 1.61020E+04-3.69060E+05 3.25963E-09-1.21463E-09
 -1       558-3.74519E+05-2.03889E+05 6.68619E+03-3.40163E+05 1.18598E-09 4.43652E-09
 -1       559-3.47395E+05-2.30474E+05 3.31738E+03-3.70784E+05 6.29007E-09 8.45785E-09
 -1       560-3.75541E+05-2.03598E+05 1.43063E+03-3.40527E+05 2.98314E-09 1.62436E-09
 -1       561-3.48670E+05-2.30281E+05 6.95640E+02-3.71688E+05 3.53612E-09 5.02382E-09
 -1       562-3.76300E+05-2.03124E+05 2.24813E+02-3.41025E+05-5.44969E-09-1.53450E-08
 -1       563-3.49402E+05-2.29967E+05-2.46713E+01-3.72205E+05-2.67573E-09-5.00359E-09
 -1       564-3.76728E+05-2.02846E+05-3.45064E+02-3.41317E+05 1.58252E-09-4.44834E-09
 -1       565-3.49773E+05-2.29818E+05-8.66059E+02-3.72445E+05 1.05265E-08 1.59707E-09
 -1       566-3.76788E+05-2.02750E+05-1.86754E+03-3.41388E+05 5.37557E-09 5.31509E-09
 -1       567-3.50068E+05-2.30025E+05-4.13638E+03-3.72389E+05 1.42336E-09-5.56611E-10
 -1       568-3.76329E+05-2.03442E+05-8.52979E+03-3.40978E+05 4.65116E-09-1.26602E-09
 -1       569-3.54401E+05-2.35292E+05-2.01105E+04-3.70917E+05-6.58474E-10-4.26917E-09
 -1       570-3.74171E+05-2.18938E+05-4.10173E+04-3.34216E+05 2.21917E-10-1.37334E-10
 -1       571 4.38909E+05 2.02508E+04 3.07939E+04-1.13751E+05 1.38243E-10-4.23279E-09
 -1       572 4.43550E+05 6.92590E+03 1.51164E+04-1.25174E+05 8.50378E-10-4.44652E-09
 -1       573 4.40721E+05 1.56230E+03 6.72244E+03-1.13444E+05 5.27507E-11-2.18552E-09
 -1       574 4.41250E+05 4.87704E+02 3.37536E+03-1.25501E+05-2.45564E-10-1.36424E-09
 -1       575 4.40887E+05 4.40688E+01 1.59542E+03-1.13406E+05 7.89441E-10-3.12320E-09
 -1       576 4.40931E+05 3.53902E+00 8.15657E+02-1.25544E+05 8.10559E-10-3.53066E-09
 -1       577 4.40917E+05-2.88546E+01 4.05846E+02-1.13401E+05 5.58430E-10 2.85490E-09
 -1       578 4.40924E+05-3.01943E+01 2.28839E+02-1.25550E+05 4.79304E-10-2.31557E-09
 -1       579 4.40988E+05-5.67318E+01 1.51015E+02-1.13400E+05 8.02174E-10-1.16233E-09
 -1       580 4.41033E+05-8.17928E+01 1.61324E+02-1.25545E+05 1.29876E-09-2.67119E-09
 -1       581 4.41121E+05-1.21345E+02 2.36481E+02-1.13406E+05-8.96762E-10-4.34284E-09
 -1       582 4.41258E+05-1.13021E+02 4.68430E+02-1.25479E+05-4.12547E-09 2.44654E-09
 -1       583 4.41292E+05-2.87083E+01 8.99915E+02-1.13466E+05-4.85670E-09-7.19865E-10
 -1       584 4.41812E+05 6.32990E+02 2.02670E+03-1.24954E+05-3.85626E-09-4.70936E-09
 -1       585 4.41273E+05 2.37505E+03 4.10211E+03-1.13935E+05 1.61162E-09 6.29370E-10
 -1       586 4.06214E+03 2.03812E+05 6.96528E+03-2.67430E+05 6.49379E-10 2.92857E-10
 -1       587 2.42310E+03 2.04877E+05 6.72557E+03-2.95016E+05 2.58478E-09 1.03000E-09
 -1       588 2.84533E+03 2.03586E+05 9.62653E+03-2.67081E+05 5.16593E-10 1.24705E-08
 -1       589 9.58937E+03 2.07183E+05 1.97812E+04-2.95121E+05 2.67755E-09 2.65181E-08
 -1       590 2.64171E+04 2.01250E+05 3.94425E+04-2.67307E+05 7.78527E-10 1.25256E-08
 -1       591-2.04347E+05-6.89715E+04-4.04088E+04-1.03245E+05 4.81964E-09 4.37649E-09
 -1       592-2.06032E+05-6.39059E+04-1.98528E+04-1.14795E+05-7.79210E-10-1.34605E-09
 -1       593-2.05593E+05-5.42855E+04-8.42440E+03-1.10022E+05-5.63432E-10-4.74438E-09
 -1       594-2.01720E+05-5.84797E+04-4.12197E+03-1.15491E+05 1.37061E-09-6.66674E-10
 -1       595-2.05796E+05-5.37539E+04-1.89795E+03-1.10325E+05-3.20051E-09-6.22470E-09
 -1       596-2.01401E+05-5.82659E+04-9.61887E+02-1.15465E+05-5.45697E-12 3.64707E-09
 -1       597-2.05835E+05-5.37823E+04-5.22821E+02-1.10328E+05-2.03400E-09-1.00051E-08
 -1       598-2.01367E+05-5.82696E+04-4.16736E+02-1.15449E+05 1.11925E-09 3.43425E-09
 -1       599-2.05827E+05-5.37862E+04-5.27642E+02-1.10324E+05 4.78622E-10 2.63435E-09
 -1       600-2.01388E+05-5.82724E+04-9.74391E+02-1.15453E+05-8.50832E-10 2.48701E-09
 -1       601-2.05772E+05-5.37651E+04-1.92374E+03-1.10312E+05-1.34833E-09 4.81032E-09
 -1       602-2.01701E+05-5.84905E+04-4.17832E+03-1.15463E+05 3.15595E-10-6.12090E-09
 -1       603-2.05550E+05-5.43172E+04-8.53992E+03-1.10002E+05 1.72986E-09-3.04226E-09
 -1       604-2.06102E+05-6.39471E+04-2.01208E+04-1.14692E+05-1.39198E-09-6.01813E-09
 -1       605-2.04232E+05-6.92396E+04-4.09540E+04-1.03170E+05 1.59798E-09 5.30872E-09
 -1       606 1.51079E+05-1.78911E+04-2.71175E+04 4.37295E+04-1.00808E-08-2.19370E-09
 -1       607 1.46885E+05-6.11295E+03-1.33036E+04 4.76513E+04-2.32831E-09 1.52977E-09
 -1       608 1.49312E+05-1.36787E+03-5.91828E+03 4.34338E+04-1.21618E-08 1.86242E-09
 -1       609 1.48732E+05-3.62165E+02-2.96324E+03 4.79669E+04-4.12001E-08-4.66935E-09
 -1       610 1.49043E+05 3.91574E+01-1.39839E+03 4.33957E+04-2.74031E-08-1.50112E-09
 -1       611 1.48914E+05 1.16610E+02-7.02775E+02 4.80065E+04-1.72004E-08 3.52975E-09
 -1       612 1.48962E+05 1.33795E+02-3.34401E+02 4.33916E+04-9.18044E-09-3.62434E-10
 -1       613 1.48902E+05 1.55251E+02-1.53134E+02 4.80109E+04-1.17361E-08-1.33286E-09
 -1       614 1.48917E+05 1.44324E+02-4.47437E+01 4.33907E+04-3.27964E-09-2.46291E-09
 -1       615 1.48876E+05 1.70683E+02 4.26672E+01 4.80109E+04 8.14543E-09-7.30324E-10
 -1       616 1.48883E+05 1.63980E+02 1.47893E+02 4.33914E+04-7.09952E-09-5.08862E-10
 -1       617 1.48880E+05 2.36669E+02 3.49000E+02 4.80089E+04 6.78938E-10 1.95359E-09
 -1       618 1.48838E+05 3.40075E+02 7.11875E+02 4.33921E+04-1.05638E-09-1.88538E-09
 -1       619 1.49098E+05 9.37469E+02 1.61047E+03 4.80012E+04 3.13094E-09-2.62662E-09
 -1       620 1.48622E+05 2.34574E+03 3.28571E+03 4.33931E+04 3.70903E-09 1.45474E-09
 -1       621 2.94345E+03 4.60700E+05 7.46394E+03-3.52888E+04-3.49064E-09 5.77074E-09
 -1       622 1.17935E+03 4.62126E+05 6.50809E+03-4.16225E+04-3.47654E-09 8.07904E-09
 -1       623 7.51254E+02 4.60990E+05 8.40116E+03-3.53480E+04-3.54294E-09 6.18729E-09
 -1       624 4.84089E+03 4.64373E+05 1.64847E+04-4.14015E+04-2.78123E-09 4.08454E-09
 -1       625 1.47967E+04 4.58535E+05 3.16194E+04-3.55023E+04-2.57387E-09 3.65071E-09
 -1       626 2.21636E+05 7.27333E+04-1.03322E+04 1.48436E+05-3.55976E-09 2.57569E-09
 -1       627 2.16035E+05 8.08914E+04-4.89373E+03 1.51516E+05-3.27418E-09-6.88726E-09
 -1       628 2.21863E+05 7.78413E+04-2.05671E+03 1.45876E+05 2.40652E-09 8.47422E-10
 -1       629 2.16714E+05 8.30659E+04-9.83731E+02 1.51332E+05 1.00772E-09-3.52514E-10
 -1       630 2.21808E+05 7.82179E+04-4.32795E+02 1.45640E+05-2.41926E-10-9.70039E-09
 -1       631 2.16726E+05 8.32438E+04-1.88947E+02 1.51310E+05-7.12498E-09 7.69677E-09
 -1       632 2.21759E+05 7.82445E+04-4.41757E+01 1.45603E+05-9.74433E-09-4.20982E-09
 -1       633 2.16705E+05 8.32616E+04 7.03096E+01 1.51296E+05 7.06677E-09-1.27102E-09
 -1       634 2.21726E+05 7.82412E+04 2.19781E+02 1.45590E+05 1.42427E-09-1.00727E-09
 -1       635 2.16722E+05 8.32723E+04 5.14421E+02 1.51295E+05 2.19723E-09-9.66793E-10
 -1       636 2.21701E+05 7.82688E+04 1.07389E+03 1.45570E+05-1.07264E-09-2.03909E-09
 -1       637 2.16985E+05 8.35716E+04 2.40349E+03 1.51250E+05 3.90622E-09 1.54296E-09
 -1       638 2.21657E+05 7.91697E+04 4.98385E+03 1.45182E+05 3.58023E-09-6.87214E-09
 -1       639 2.19539E+05 8.80610E+04 1.18651E+04 1.50143E+05-2.85854E-09 3.96722E-09
 -1       640 2.21826E+05 9.21181E+04 2.50340E+04 1.39805E+05-4.28554E-09 5.77711E-09
 -1       641 8.25758E+03 4.27894E+03-9.90749E+03-1.08480E+02-8.09678E-09 2.68756E-10
 -1       642 4.01775E+03-4.95216E+03-6.99435E+03 4.98765E+02-9.60040E-09 3.03658E-09
 -1       643 6.61433E+03 6.70210E+02-2.55441E+03-9.97365E+01-1.08722E-08 4.06862E-09
 -1       644 5.92680E+03-7.72248E+02-1.58312E+03 4.85707E+02 4.07432E-09 6.44579E-09
 -1       645 6.34780E+03 1.02737E+02-6.09191E+02-9.54302E+01 4.91878E-09 6.42959E-09
 -1       646 6.24153E+03-1.06541E+02-2.83633E+02 4.79444E+02-1.26016E-07 5.32787E-09
 -1       647 6.29928E+03 5.20304E+00 1.24628E+01-9.34770E+01-3.36791E-05 1.03710E-07
 -1       648 6.33247E+03 6.39102E+01 2.98938E+02 4.77487E+02-6.71596E-05 2.04964E-07
 -1       649 6.25675E+03-6.75503E+01 6.65053E+02-9.34736E+01-3.36821E-05 1.08886E-07
 -1       650 6.57851E+03 5.19000E+02 1.60509E+03 4.78984E+02-1.02622E-07 1.26687E-08
 -1       651 6.05335E+03-4.49675E+02 2.78990E+03-9.49739E+01-4.91237E-09 6.96639E-09
 -1       652 7.96402E+03 3.33503E+03 6.90533E+03 4.81800E+02 3.94196E-09 5.92308E-09
 -1       653 4.87168E+03-2.88167E+03 1.09956E+04-9.62939E+01 1.52291E-09 7.63794E-09
 -1       654 1.62678E+04 2.12811E+04 3.00849E+04 4.76284E+02-7.90336E-09 1.13318E-08
 -1       655-2.24734E+03-1.83811E+04 4.25141E+04-8.94798E+01-9.72890E-10 3.73257E-09
 -1       656 1.35415E+04-5.52391E+05-6.53784E+04 1.80083E+04-1.64073E-09-5.67798E-09
 -1       657-2.07776E+04-5.75781E+05-4.73540E+04 6.17195E+04-3.79805E-09-7.55290E-09
 -1       658 2.51980E+03-5.60838E+05-3.03693E+04 1.78392E+04-3.00957E-10-5.05747E-09
 -1       659-1.90882E+04-5.74844E+05-4.43298E+04 6.18408E+04-5.11000E-09 8.65493E-10
 -1       660 1.22888E+04-5.53429E+05-5.95999E+04 1.78897E+04-7.89441E-10 1.43018E-10
 -1       661 5.29842E+05 6.91385E+04 4.33542E+04 2.08105E+05 3.34330E-09-9.07676E-10
 -1       662 5.39558E+05 1.01711E+05 2.71833E+04 2.14441E+05 1.08699E-08-5.51699E-09
 -1       663 5.37172E+05 7.86027E+04 1.02334E+04 2.07222E+05 8.27640E-10-2.34377E-09
 -1       664 5.31123E+05 8.91659E+04 5.59935E+03 2.16120E+05-7.20649E-09-6.56655E-10
 -1       665 5.37958E+05 7.96281E+04 2.39885E+03 2.07190E+05-2.01055E-09-2.00851E-09
 -1       666 5.30217E+05 8.78496E+04 1.29892E+03 2.16190E+05-5.76119E-09 4.65946E-10
 -1       667 5.38036E+05 7.97531E+04 7.30273E+02 2.07206E+05-2.11022E-08 5.68663E-09
 -1       668 5.30139E+05 8.77254E+04 6.87986E+02 2.16176E+05-1.05234E-08-5.10710E-10
 -1       669 5.38029E+05 7.97442E+04 9.70504E+02 2.07204E+05 7.07661E-09 8.33859E-09
 -1       670 5.30292E+05 8.79376E+04 1.96177E+03 2.16196E+05 1.45630E-08-1.65204E-09
 -1       671 5.37893E+05 7.95533E+04 3.74647E+03 2.07185E+05-3.54919E-09 1.58138E-09
 -1       672 5.31746E+05 8.99959E+04 8.82125E+03 2.16056E+05-3.75849E-10 6.74390E-10
 -1       673 5.36631E+05 7.79524E+04 1.61495E+04 2.07252E+05 1.48098E-08-2.82671E-09
 -1       674 5.45089E+05 1.09776E+05 4.29172E+04 2.13364E+05 1.02130E-08 1.98270E-09
 -1       675 5.25042E+05 6.30289E+04 6.84609E+04 2.08662E+05 3.87081E-09 1.18234E-09
 -1       676 9.82534E+02-5.20030E+05-5.82794E+03 7.46915E+02-1.13130E-09 6.30236E-09
 -1       677-2.20591E+03-5.22245E+05-7.04444E+03 8.10296E+01-1.52211E-08-2.64667E-09
 -1       678 7.84232E+02-5.20126E+05-9.28297E+03 7.45218E+02-3.48655E-09 1.67495E-09
 -1       679-9.87005E+03-5.26893E+05-2.09824E+04 8.13975E+01-6.01767E-09-5.80087E-09
 -1       680 6.95630E+03-5.15386E+05-3.23690E+04 7.43348E+02-6.81393E-09-1.61154E-09
 -1       681 2.88151E+05-4.99513E+03 4.44828E+03 8.53910E+03 2.10321E-10-6.64841E-10
 -1       682 3.27091E+05 5.21042E+03 9.59267E+03-2.22960E+04 6.86583E-10-2.23315E-09
 -1       683 3.02150E+05-3.86953E+02 1.40223E+03 2.62308E+03 4.66684E-10 1.82217E-09
 -1       684 3.09683E+05 3.99780E+02 1.94629E+03-1.37102E+04 5.26668E-10-5.56594E-09
 -1       685 3.05196E+05 4.86000E+01 4.72259E+02-4.79765E+01 4.42398E-10 4.81867E-09
 -1       686 3.06018E+05-9.54010E+00 3.90525E+02-1.02812E+04 3.08083E-09-2.43296E-09
 -1       687 3.05732E+05 7.66663E+01 2.76877E+02-8.05321E+02-4.15779E-10 7.86383E-09
 -1       688 3.05987E+05-9.86689E+01 3.58314E+02-1.02900E+04-1.94852E-10-3.88731E-09
 -1       689 3.05227E+05 1.37496E+02 4.75072E+02-3.91341E+01 1.47679E-10 5.98877E-09
 -1       690 3.09441E+05-2.63786E+02 1.72133E+03-1.37399E+04 8.54385E-10-3.00199E-09
 -1       691 3.02362E+05 1.86441E+02 1.46591E+03 2.64396E+03 1.59719E-09 4.57817E-10
 -1       692 3.25492E+05 1.01765E+03 8.25167E+03-2.23237E+04 1.24601E-10 3.01924E-09
 -1       693 2.89542E+05-1.38194E+03 5.05163E+03 8.54602E+03-5.97743E-09-5.82122E-09
 -1       694 3.97034E+05 1.97634E+04 3.88928E+04-3.96963E+04-1.95745E-08 1.06629E-08
 -1       695 2.32319E+05-1.95191E+04 1.65606E+04 2.00572E+04-1.76806E-08-2.12713E-08
 -1       696-9.60902E+03 4.46403E+05 2.01724E+04-8.43943E+03 1.37334E-10-2.74395E-09
 -1       697 1.11039E+04 4.66789E+05 1.66686E+04 1.41525E+04 2.52840E-10-1.33626E-09
 -1       698-1.57494E+03 4.54513E+05 6.28114E+03-3.82947E+03-1.64846E-10 1.21474E-09
 -1       699 3.40273E+03 4.58101E+05 6.07046E+03 8.58576E+03-2.21661E-10 3.83232E-09
 -1       700-1.84074E+03 4.54975E+05 4.96190E+03-2.87168E+03-2.29647E-10 1.82578E-09
 -1       701-4.37674E+05-8.62862E+04-8.95698E+04-1.91586E+05 5.82077E-10 4.24552E-09
 -1       702-1.30205E+05 3.64099E+04 1.89215E+04 2.67819E+04-5.49517E-09-4.89674E-08
 -1       703-2.64673E+05-6.72394E+04-1.47825E+04-1.47306E+05 1.98224E-08 7.05468E-08
 -1       704-2.90096E+05 2.29982E+04 3.53761E+03-1.55076E+04 8.67416E-09 8.84800E-08
 -1       705-2.80719E+05-7.06506E+04-9.84928E+03-1.51935E+05 1.19371E-08 8.48443E-08
 -1       706-9.08480E+04 4.48711E+04 5.06266E+04 3.41891E+04-2.50850E-09 7.00220E-09
 -1       707-4.60345E+05-9.18192E+04-4.61606E+04-1.93823E+05 1.57393E-08 2.74460E-08
 -1       708 1.42239E+05 3.93423E+04 9.56408E+04 5.44589E+04-2.37414E-08 1.32345E-08
 -1       709-5.09776E+05-6.82348E+04-5.09673E+04-1.69288E+05 1.96178E-08 2.83114E-09
 -1       710 4.71882E+04-3.22307E+04 6.27660E+04-4.71644E+04 2.99335E-08-2.95536E-08
 -1       711-3.67987E+05-1.82273E+04-1.58356E+04-9.46403E+04 3.20190E-08 7.54160E-08
 -1       712-1.58778E+05-9.34970E+04 7.78594E+03-1.48369E+05 1.81974E-08 1.62752E-07
 -1       713-3.08640E+05-3.19516E+03-8.11483E+03-7.13838E+04-2.27228E-08 1.34014E-08
 -1       714-7.35727E+04-7.05244E+04 1.52234E+04-1.08955E+05-3.12814E-08-2.83453E-08
 -1       715-4.51176E+05-4.27856E+04-7.12238E+04-1.32731E+05-7.41466E-09-3.64817E-08
 -1       716-1.10455E+05-3.67449E+01-8.81218E+03-3.60039E+03 3.10508E-08-1.66322E-08
 -1       717-4.86282E+04-1.49088E+02 5.56936E+03-1.32246E+03 1.59890E-08 3.70562E-09
 -1       718-1.10503E+05-3.85964E+02-5.21422E+03-5.64100E+02 1.09090E-08-7.63777E-09
 -1       719-5.42421E+04 1.70698E+02 6.44413E+03-7.17374E+03 6.55018E-09 1.23628E-09
 -1       720-1.05000E+05-2.45922E+02-3.06260E+03 2.23232E+03 3.53111E-10 2.89901E-12
 -1       721-6.79667E+04 9.82565E+01 4.53206E+03-1.20482E+04 2.93312E-11-3.94265E-09
 -1       722-9.71326E+04-5.58372E+01-6.65534E+02 4.29930E+03 1.01707E-08 7.02551E-09
 -1       723-8.20300E+04 2.72417E+02 3.17905E+03-1.52278E+04 6.50329E-09-7.27647E-09
 -1       724-9.12973E+04-1.52806E+02 2.94134E+03 5.41218E+03 1.84341E-08 1.17977E-08
 -1       725-8.79845E+04 2.19284E+03 7.34751E+03-1.64651E+04 1.36665E-08-1.07832E-09
 -1       726-9.13535E+04-1.84306E+03 1.24271E+04 5.53959E+03 1.63064E-08 9.78616E-09
 -1       727-7.77747E+04 1.49157E+04 3.16703E+04-1.57591E+04 2.18733E-08-3.85808E-09
 -1       728-1.01400E+05-1.29408E+04 4.78916E+04 4.70443E+03 7.51771E-09 5.74073E-09
 -1       729-2.76912E+04 9.59284E+04 1.37502E+05-1.36162E+04 3.94294E-09-3.63798E-10
 -1       730-1.41052E+05-8.30181E+04 1.86328E+05 3.39425E+03 6.04473E-09-1.68802E-09
 -1       731-1.21807E+04 4.21466E+04-5.00629E+02-8.99628E+03-1.56178E-08-9.38689E-09
 -1       732 1.24874E+04 2.17765E+05 3.08407E+04 2.28520E+04 4.22301E-09 1.03569E-09
 -1       733-1.57586E+03 7.94981E+04-2.33158E+03-4.77725E+03-4.16662E-09-1.97133E-10
 -1       734 3.48946E+03 1.65964E+05 1.42467E+04 1.51123E+04 5.16270E-09-1.30826E-08
 -1       735-2.37399E+03 9.27690E+04-6.54934E+02-1.20644E+03 3.59466E-09-9.83505E-09
 -1       736-3.38471E+05-8.37869E+04-4.90225E+04-1.63086E+05 3.91692E-08-3.86744E-08
 -1       737-1.99361E+05 3.86710E+04 1.28510E+04 7.13993E+03 1.25671E-07 3.33147E-08
 -1       738-2.12335E+05-5.92749E+04-3.19386E+03-1.27030E+05 2.00083E-08 1.09534E-07
 -1       739-2.29471E+05 3.09901E+04 1.36549E+04 2.59073E+02-6.07116E-08-1.07711E-08
 -1       740-3.08874E+05-7.57358E+04-2.08288E+04-1.56675E+05 2.56393E-08-6.52404E-08
 -1       741 3.53998E+04 5.55934E+04 7.17163E+04 6.48433E+04-3.20866E-08-4.10570E-08
 -1       742-4.72447E+05-8.74180E+04-5.33815E+04-1.87512E+05-2.13672E-08-3.04556E-09
 -1       743 1.93996E+05 3.23135E+04 9.83338E+04 5.53532E+04-3.83116E-08 1.27636E-08
 -1       744-4.64886E+05-5.44652E+04-4.56372E+04-1.45662E+05 2.99951E-09-3.16828E-08
 -1       745 3.23095E+04-4.26288E+04 5.20934E+04-5.98841E+04 7.39101E-08 9.37365E-09
 -1       746-3.14757E+05-9.48133E+03-9.21224E+03-7.55175E+04 5.59419E-08 1.24812E-07
 -1       747-1.46081E+05-8.93622E+04 6.74448E+03-1.42252E+05 6.42441E-09 2.37209E-08
 -1       748-2.90629E+05-4.54593E+03-7.11891E+03-6.60113E+04 4.15099E-08 2.75431E-08
 -1       749-1.72058E+04-5.03690E+04 3.21521E+04-8.74723E+04-2.76686E-08 2.96832E-08
 -1       750-4.40725E+05-5.07179E+04-5.97224E+04-1.28421E+05-2.65748E-08-2.80343E-08
 -1       751 4.37201E+06-2.56071E+05 5.94384E+05 2.02478E+04-4.82366E-08-8.73115E-11
 -1       752 4.63249E+06 2.96531E+05 4.20400E+05-1.85518E+04-1.18641E-09-3.57250E-09
 -1       753 4.47306E+06-4.00844E+04 1.54100E+05 3.13037E+02-1.96398E-10 6.91216E-10
 -1       754 4.51547E+06 4.63996E+04 9.68604E+04 1.02189E+03 3.74520E-09 5.94628E-09
 -1       755 4.48952E+06-6.27267E+03 3.97201E+04 6.79400E+02-5.44717E-09-1.43700E-09
 -1       756 4.49651E+06 7.35058E+03 2.37300E+04 6.63572E+02-4.82047E-09-2.30830E-09
 -1       757 4.49225E+06-1.07274E+03 1.16574E+04 6.71376E+02 1.26732E-06 1.53159E-09
 -1       758 4.49368E+06 1.89468E+03 9.27282E+03 6.71478E+02 2.52713E-06-5.66246E-10
 -1       759 4.49240E+06-8.20826E+02 9.36890E+03 6.71502E+02 6.00485E-07 2.19211E-09
 -1       760 4.49535E+06 5.18449E+03 1.71227E+04 6.70147E+02-1.34753E-06 3.74803E-09
 -1       761 4.49055E+06-4.36008E+03 2.78183E+04 6.72702E+02-4.96233E-06-1.65473E-08
 -1       762 4.50844E+06 3.21789E+04 6.72320E+04 7.12659E+02-8.55898E-06 8.21092E-09
 -1       763 4.47915E+06-2.77910E+04 1.06724E+05 6.28964E+02-4.28404E-06 7.27305E-08
 -1       764 4.58816E+06 2.05229E+05 2.90787E+05-1.61164E+03-7.08726E-09 6.83467E-08
 -1       765 4.41035E+06-1.77207E+05 4.11394E+05 2.99646E+03-2.94956E-09-5.52973E-09
 -1       766-8.96333E+04 5.07690E+04 2.04918E+05 1.21163E+04 1.02009E-08-3.76816E-09
 -1       767 1.03871E+05 1.58596E+05 1.49387E+05-5.28893E+04 3.23926E-08-4.18297E-09
 -1       768-1.36644E+04 8.73674E+04 5.54000E+04 1.17786E+04 1.37461E-08 5.14876E-09
 -1       769 2.76938E+04 1.74670E+05 5.52709E+04-5.57153E+04 9.18044E-09 1.78670E-09
 -1       770-1.44175E+04 3.59121E+04 1.21851E+04 1.49443E+04-4.94089E-09-1.42472E-09
 -1       771-2.58846E+06-5.18068E+05-8.42721E+04-1.11678E+06-3.70164E-09-1.93540E-09
 -1       772-2.58158E+06-5.17232E+05-4.13088E+04-1.15208E+06 3.90355E-09-2.47292E-09
 -1       773-2.59242E+06-4.86585E+05-1.76270E+04-1.13065E+06-3.62343E-09-7.31234E-09
 -1       774-2.57275E+06-5.06472E+05-8.57740E+03-1.15520E+06 2.99042E-09-3.52975E-09
 -1       775-2.59374E+06-4.84893E+05-4.00931E+03-1.13161E+06 1.68802E-09-4.30828E-09
 -1       776-2.57268E+06-5.05909E+05-2.00663E+03-1.15596E+06-9.02219E-10-5.60976E-09
 -1       777-2.59451E+06-4.84538E+05-1.12251E+03-1.13192E+06 2.24463E-09 9.11677E-09
 -1       778-2.57308E+06-5.05773E+05-8.69976E+02-1.15648E+06-1.80080E-10 5.46584E-09
 -1       779-2.59496E+06-4.84262E+05-1.12401E+03-1.13213E+06 9.31323E-10 6.94854E-10
 -1       780-2.57344E+06-5.05685E+05-2.06122E+03-1.15683E+06-3.89264E-10-8.28550E-10
 -1       781-2.59510E+06-4.84061E+05-4.09180E+03-1.13223E+06-4.29645E-09-5.87897E-09
 -1       782-2.57424E+06-5.06111E+05-8.90467E+03-1.15699E+06 2.20552E-10-6.46651E-10
 -1       783-2.59467E+06-4.85215E+05-1.82308E+04-1.13160E+06 3.36081E-09 7.37782E-09
 -1       784-2.58363E+06-5.17801E+05-4.30208E+04-1.15529E+06-1.67392E-09-2.83762E-09
 -1       785-2.59174E+06-5.17209E+05-8.76168E+04-1.11696E+06 8.66748E-10 2.08820E-09
 -1       786 3.56703E+05-1.04537E+04 4.84305E+04-3.42228E+03 6.67569E-10-6.27551E-10
 -1       787 3.73925E+05 1.46486E+04 3.08005E+04-1.24792E+04-7.52266E-10-3.84443E-09
 -1       788 3.63937E+05-1.04955E+03 1.25375E+04-3.42049E+03-2.59206E-10 1.80626E-09
 -1       789 3.65876E+05 1.38606E+03 6.95597E+03-1.24603E+04-1.59457E-09 1.59162E-09
 -1       790 3.64732E+05-1.13012E+02 3.18045E+03-3.43937E+03 1.25431E-09 5.60453E-09
 -1       791 3.64970E+05 1.27971E+02 1.69723E+03-1.24330E+04 8.32500E-10 7.22929E-09
 -1       792 3.64833E+05-1.46144E+01 8.67024E+02-3.44783E+03-7.32172E-10 2.20246E-09
 -1       793 3.64858E+05 1.42194E+01 5.64078E+02-1.24276E+04 9.43061E-10-3.27708E-09
 -1       794 3.64843E+05-8.20124E+00 5.05581E+02-3.44474E+03-6.13227E-10 1.25593E-09
 -1       795 3.64890E+05 4.76412E+01 7.48759E+02-1.24459E+04 8.45375E-10 6.38238E-10
 -1       796 3.64808E+05-4.72644E+01 1.28444E+03-3.42952E+03-3.17664E-09-1.78747E-09
 -1       797 3.65250E+05 5.35304E+02 2.74178E+03-1.24850E+04-6.58372E-09 3.62405E-09
 -1       798 3.64500E+05-4.16529E+02 4.91132E+03-3.40569E+03-3.22734E-09 1.06638E-09
 -1       799 3.68410E+05 5.71755E+03 1.20514E+04-1.25094E+04-8.53106E-10 1.08116E-09
 -1       800 3.61673E+05-4.09980E+03 1.89363E+04-3.40599E+03-6.13909E-10 8.64020E-11
 -1       801-1.89871E+04 4.43340E+05 6.04607E+04-4.31784E+05-1.73095E-08-1.09139E-09
 -1       802 5.20265E+04 4.54012E+05 7.03515E+04-1.52921E+06-7.12316E-09-7.39237E-09
 -1       803 3.31387E+03 4.37545E+05 7.69190E+04-4.30904E+05-2.32649E-08 9.97989E-09
 -1       804 1.02896E+05 4.85536E+05 1.63296E+05-1.52901E+06-1.27766E-08-8.43283E-09
 -1       805-5.90716E+04 4.12643E+05 2.37510E+05-4.32016E+05-9.18226E-09 7.87259E-09
 -1       806-3.99506E+05-1.08338E+05-3.31221E+04-1.87094E+05 2.54454E-09 8.46921E-09
 -1       807-3.99381E+05-1.00063E+05-1.56958E+04-1.97513E+05-3.63798E-11 8.86757E-11
 -1       808-3.99294E+05-9.12304E+04-6.59546E+03-1.94294E+05-2.41380E-09-5.55724E-09
 -1       809-3.96121E+05-9.40375E+04-3.18425E+03-1.98940E+05 2.48269E-09 8.40578E-09
 -1       810-3.99378E+05-9.00255E+04-1.43740E+03-1.94834E+05 3.91992E-10 2.74213E-10
 -1       811-3.95800E+05-9.36266E+04-7.18496E+02-1.99005E+05-2.06387E-09-7.54017E-09
 -1       812-3.99406E+05-8.99856E+04-3.72733E+02-1.94861E+05 9.32232E-11-1.46156E-09
 -1       813-3.95763E+05-9.36153E+04-2.69884E+02-1.98996E+05 5.71617E-10 8.73115E-11
 -1       814-3.99400E+05-8.99934E+04-3.07373E+02-1.94856E+05 2.59547E-09 8.22502E-09
 -1       815-3.95775E+05-9.36319E+04-5.44564E+02-1.98988E+05-1.13323E-09 5.72254E-09
 -1       816-3.99361E+05-9.00338E+04-1.06370E+03-1.94826E+05-1.49430E-09 1.70621E-09
 -1       817-3.96002E+05-9.39321E+04-2.34353E+03-1.98915E+05 2.30284E-09-2.49383E-09
 -1       818-3.99274E+05-9.09391E+04-4.84896E+03-1.94428E+05 2.14095E-09 9.60063E-09
 -1       819-3.98455E+05-9.82871E+04-1.15336E+04-1.97761E+05-2.81398E-09 1.40972E-09
 -1       820-3.99338E+05-1.03578E+05-2.43381E+04-1.89203E+05-9.55879E-10-7.11680E-10
 -1       821-4.22696E+05 1.17011E+04-5.42885E+04 3.60679E+03-4.41605E-09-4.43106E-09
 -1       822-4.41955E+05-1.64223E+04-3.45245E+04 1.37731E+04-2.98223E-09-6.11726E-09
 -1       823-4.30815E+05 1.16717E+03-1.40619E+04 3.48322E+03 4.65843E-09-6.09361E-09
 -1       824-4.32982E+05-1.52899E+03-7.80384E+03 1.39506E+04-2.53112E-09 3.18369E-09
 -1       825-4.31714E+05 1.28960E+02-3.58942E+03 3.42706E+03-8.60791E-09 3.32648E-10
 -1       826-4.32002E+05-1.03342E+02-1.94760E+03 1.40430E+04-1.52736E-08-5.92536E-10
 -1       827-4.31830E+05 2.69306E+01-1.06598E+03 3.39032E+03-7.31143E-09-4.55492E-09
 -1       828-4.31903E+05 2.68397E+01-8.25251E+02 1.41000E+04-1.12423E-08-6.42362E-09
 -1       829-4.31835E+05 2.78889E+01-9.45189E+02 3.36985E+03 1.79523E-09-2.66094E-09
 -1       830-4.31997E+05-6.73492E+01-1.63399E+03 1.41233E+04 1.04302E-08-3.88776E-09
 -1       831-4.31746E+05 1.16359E+02-2.95818E+03 3.36709E+03-8.76383E-10-4.89285E-09
 -1       832-4.32817E+05-1.22849E+03-6.40871E+03 1.41110E+04 4.57430E-09-6.52471E-09
 -1       833-4.31012E+05 9.72392E+02-1.15301E+04 3.38258E+03 1.94211E-09 2.27237E-09
 -1       834-4.40191E+05-1.34354E+04-2.83126E+04 1.40408E+04 2.88890E-09-1.55160E-09
 -1       835-4.24358E+05 9.61454E+03-4.45107E+04 3.44127E+03 1.57343E-10-4.76757E-09
 -1       836-1.79429E+04 1.03948E+06 8.79927E+04-2.90813E+04-1.60799E-09-1.61344E-09
 -1       837 2.85426E+04 1.07124E+06 6.83018E+04-1.00371E+05-7.52607E-11-2.70938E-09
 -1       838-4.25761E+03 1.04972E+06 5.14680E+04-2.91139E+04-2.66664E-09 2.16090E-09
 -1       839 3.88205E+04 1.07745E+06 8.69992E+04-1.00349E+05 5.49335E-10-4.13058E-09
 -1       840-2.59279E+04 1.03324E+06 1.23636E+05-2.91010E+04-2.99769E-09-5.26234E-09
 -1       841 9.17151E+03 6.21642E+03-1.27178E+04 1.17948E+03 9.89303E-10 3.27418E-11
 -1       842 2.23076E+03-5.18836E+03-8.81798E+03 3.71835E+03-1.56132E-09 8.10019E-10
 -1       843 6.58035E+03 1.64981E+03-2.97866E+03 2.05114E+03 1.18825E-09-2.00430E-10
 -1       844 5.23940E+03 9.68956E+01-1.84944E+03 2.70864E+03 9.87137E-09 4.91406E-09
 -1       845 6.16273E+03 9.34692E+02-6.75930E+02 2.18757E+03 6.90406E-10-4.08579E-09
 -1       846 5.72746E+03 9.27887E+02-3.62757E+02 2.54832E+03-3.22586E-10-5.10524E-09
 -1       847 6.09212E+03 8.19441E+02-9.16385E+01 2.21111E+03 1.91739E-09 1.26990E-09
 -1       848 5.83027E+03 1.09257E+03 7.43185E+01 2.51556E+03 1.05583E-09-1.83578E-09
 -1       849 6.05981E+03 7.70172E+02 2.57755E+02 2.22022E+03 3.06518E-09 3.57072E-09
 -1       850 5.99274E+03 1.35394E+03 7.21181E+02 2.47100E+03 2.32425E-09 2.29647E-10
 -1       851 5.92965E+03 5.58227E+02 1.27064E+03 2.25559E+03-1.50374E-09-5.98504E-09
 -1       852 6.90545E+03 2.90084E+03 3.44557E+03 2.19593E+03-2.17294E-09-6.67683E-10
 -1       853 5.14730E+03-7.75836E+02 5.51906E+03 2.49499E+03-6.47185E-09 2.88355E-09
 -1       854 1.25038E+04 1.27185E+04 1.63612E+04 3.54175E+02 1.53148E-09-2.11003E-10
 -1       855 3.33057E+02-9.25282E+03 2.35627E+04 4.09523E+03-5.01132E-10 4.30555E-09
 -1       856-5.03388E+05 1.11690E+04-5.19234E+04 7.06795E+03-7.37782E-09-6.82485E-09
 -1       857-5.21788E+05-1.56266E+04-3.30021E+04 2.74833E+04-1.03173E-08-6.42149E-09
 -1       858-5.11165E+05 1.12392E+03-1.34495E+04 6.85375E+03-1.27393E-08-3.69437E-09
 -1       859-5.13282E+05-1.36033E+03-7.45280E+03 2.77912E+04-9.24274E-10-8.64202E-09
 -1       860-5.12036E+05 1.47845E+02-3.42232E+03 6.75525E+03 3.14276E-09-6.60430E-09
 -1       861-5.12388E+05 2.13249E+01-1.83761E+03 2.79398E+04-8.54220E-09-6.50516E-09
 -1       862-5.12154E+05 5.82626E+01-9.72776E+02 6.70394E+03 1.70253E-08-4.77996E-09
 -1       863-5.12304E+05 1.54636E+02-6.94674E+02 2.80025E+04 2.66933E-08-6.29450E-09
 -1       864-5.12163E+05 5.66269E+01-7.20708E+02 6.69223E+03 1.04735E-08-9.82863E-09
 -1       865-5.12352E+05 8.58211E+01-1.17913E+03 2.79851E+04 1.97257E-08-9.48035E-09
 -1       866-5.12095E+05 1.10499E+02-2.10201E+03 6.72145E+03-3.10206E-09-6.10794E-09
 -1       867-5.12885E+05-7.51449E+02-4.52473E+03 2.78843E+04-3.02157E-09-1.17268E-09
 -1       868-5.11565E+05 6.97101E+02-8.14430E+03 6.79385E+03 2.18233E-09-5.17775E-09
 -1       869-5.18009E+05-9.38926E+03-1.99670E+04 2.76337E+04-4.57226E-09-6.60430E-09
 -1       870-5.06856E+05 6.76474E+03-3.14176E+04 6.97591E+03 7.83348E-09-7.01766E-09
 -1       871-5.46280E+03-4.90003E+04-9.72346E+03 1.45906E+05-8.62747E-09 3.54703E-11
 -1       872-1.90392E+03-5.07642E+04-2.85840E+03 1.71281E+05-1.29503E-08 6.19275E-09
 -1       873-1.01265E+02-5.01791E+04 2.81399E+03 1.45632E+05-5.92127E-09 6.95718E-09
 -1       874 3.08219E+03-4.78599E+04 1.05623E+04 1.71404E+05-1.04765E-08 1.69331E-09
 -1       875 1.05887E+04-5.20990E+04 2.27789E+04 1.45814E+05-9.00127E-09-2.75259E-09
 -1       876 6.22811E+05 8.01517E+04 5.86743E+04 2.46114E+05-3.46517E-10 2.78305E-09
 -1       877 6.35477E+05 1.24783E+05 3.67948E+04 2.55318E+05 5.22277E-09-2.75531E-09
 -1       878 6.32702E+05 9.29969E+04 1.38441E+04 2.44945E+05-3.24735E-09-5.64251E-09
 -1       879 6.24090E+05 1.07754E+05 7.57415E+03 2.57513E+05-8.92101E-10-2.57455E-09
 -1       880 6.33735E+05 9.44179E+04 3.23131E+03 2.44929E+05-1.43064E-09-5.74096E-09
 -1       881 6.22895E+05 1.05926E+05 1.72975E+03 2.57540E+05-1.14017E-09-2.59047E-09
 -1       882 6.33818E+05 9.46141E+04 9.28253E+02 2.44975E+05-2.62343E-08 6.25244E-09
 -1       883 6.22808E+05 1.05716E+05 8.00805E+02 2.57470E+05-1.55076E-08-1.13091E-09
 -1       884 6.33797E+05 9.46268E+04 1.05101E+03 2.44989E+05 4.45556E-09-2.11514E-10
 -1       885 6.22977E+05 1.05915E+05 2.06536E+03 2.57466E+05 1.92695E-08-1.24288E-09
 -1       886 6.33652E+05 9.44316E+04 3.91762E+03 2.44973E+05 6.36078E-10 1.65028E-09
 -1       887 6.24494E+05 1.08065E+05 9.20693E+03 2.57327E+05-1.29671E-09-7.42148E-10
 -1       888 6.32345E+05 9.27515E+04 1.68484E+04 2.45035E+05 1.15134E-08-1.31513E-09
 -1       889 6.38403E+05 1.28717E+05 4.47706E+04 2.54552E+05 8.58051E-09-2.61662E-09
 -1       890 6.20271E+05 7.71659E+04 7.14113E+04 2.46492E+05-6.48470E-10-4.35830E-09
 -1       891 2.06071E+03-2.79474E+05-1.10555E+04 3.44115E+04-1.05892E-08 1.69621E-09
 -1       892-3.87286E+03-2.83221E+05-8.76376E+03 1.21576E+05-9.61472E-09 5.47061E-10
 -1       893 5.16256E+02-2.80766E+05-6.97239E+03 3.42480E+04-4.62319E-09 3.76053E-09
 -1       894-5.81231E+03-2.84368E+05-1.22753E+04 1.21562E+05-9.52969E-09 9.32232E-10
 -1       895 3.55089E+03-2.78293E+05-1.77496E+04 3.44248E+04-5.42968E-09 5.87261E-09
 -1       896 3.73674E+05 1.44870E+03-3.41733E+03 1.30529E+02 3.55200E-10 4.37512E-09
 -1       897 3.72445E+05-1.66843E+03-2.36232E+03 3.54877E+03-7.59769E-10 5.71879E-09
 -1       898 3.73225E+05 2.33381E+02-8.73686E+02 7.61015E+02 2.14161E-10 5.50625E-09
 -1       899 3.72967E+05-2.57791E+02-5.35705E+02 2.75499E+03-7.17719E-11 6.55425E-09
 -1       900 3.73148E+05 4.12465E+01-1.96023E+02 9.24309E+02 2.70915E-10 5.80933E-09
 -1       901 3.73081E+05-3.74286E+01-7.39725E+01 2.78943E+03 2.69020E-10 6.52540E-09
 -1       902 3.73111E+05 1.31112E+01 4.83259E+01 7.26569E+02 9.78382E-10 5.44277E-09
 -1       903 3.73259E+05-3.80439E+00 2.18607E+02 3.67434E+03 9.15563E-10 5.63828E-09
 -1       904 3.72974E+05 5.21612E+00 3.91044E+02 3.94061E+01 1.43126E-09 4.00595E-09
 -1       905 3.74127E+05 1.18283E+02 1.09354E+03 5.98350E+03-1.20842E-10 3.64186E-09
 -1       906 3.72262E+05-1.20931E+02 1.56255E+03-1.58260E+03-2.32939E-09 6.11976E-10
 -1       907 3.78690E+05 1.54401E+03 4.94490E+03 1.12052E+04-1.03941E-09-7.42148E-10
 -1       908 3.68500E+05-1.47713E+03 5.93057E+03-5.18275E+03 2.65243E-09-6.23504E-09
 -1       909 4.02955E+05 1.40263E+04 2.30111E+04 2.26791E+04 1.45571E-08-1.17077E-08
 -1       910 3.48429E+05-1.28689E+04 2.15600E+04-1.30632E+04 1.24550E-08-2.18370E-08
 -1       911 5.88724E+04-1.72786E+03-4.55518E+03-5.33832E+03-1.30951E-08-1.99589E-08
 -1       912 1.06904E+05 1.36085E+03 5.53109E+03 1.57836E+04-3.56613E-09-1.29125E-08
 -1       913 7.09124E+04-1.80129E+01-1.63544E+03-3.62426E+03 5.84294E-10-3.01756E-09
 -1       914 8.90194E+04-1.98728E+02 1.89415E+03 1.29403E+04 1.05558E-09 2.59887E-09
 -1       915 7.63300E+04 1.27297E+02-4.65713E+02-2.48732E+03-1.20627E-09 7.15065E-09
 -1       916 8.12487E+04-1.85713E+02 4.57401E+02 1.12324E+04-8.48951E-09 1.17181E-08
 -1       917 7.84901E+04 1.03324E+02 1.57359E+01-1.91621E+03-9.08305E-09 1.23116E-08
 -1       918 7.89168E+04-9.91044E+01 1.19049E+02 1.06252E+04-1.83362E-09 1.49688E-08
 -1       919 7.86030E+04 8.18541E+01 2.03552E+02-1.88060E+03-7.84911E-09 1.22763E-08
 -1       920 8.07581E+04-6.75249E+00 8.25803E+02 1.10875E+04-6.56338E-09 1.29616E-08
 -1       921 7.66932E+04-1.99054E+01 4.72590E+02-2.37817E+03-4.65931E-09 7.54659E-09
 -1       922 8.80669E+04 8.60382E+02 3.74925E+03 1.26491E+04-3.83943E-09 5.51222E-09
 -1       923 7.14651E+04-9.03661E+02 1.96131E+03-3.44192E+03-1.13118E-10-2.40789E-09
 -1       924 1.06779E+05 7.80279E+03 1.41899E+04 1.54182E+04 8.38497E-09-8.08586E-09
 -1       925 5.83660E+04-7.22519E+03 9.04797E+03-5.15314E+03 5.70424E-09-1.87456E-08
 -1       926-1.96774E+05 4.97920E+03-1.18652E+04 6.52877E+03-8.76702E-09-2.60929E-08
 -1       927-1.96397E+05-5.59733E+03-7.29539E+03-9.45776E+03 2.79980E-08-2.69265E-08
 -1       928-2.02327E+05 6.24294E+02-3.84698E+03 4.53207E+03-7.39590E-10-1.81501E-08
 -1       929-1.87593E+05-5.92888E+02 4.41279E+02-4.27937E+03-1.84216E-08-1.62911E-08
 -1       930-2.05411E+05-1.48055E+02-1.99907E+03 1.34875E+03 2.18165E-09-6.84332E-09
 -1       931-1.85503E+05 2.18324E+02 2.51799E+03 2.34261E+03 9.74566E-09-2.01818E-09
 -1       932-2.04374E+05-2.18742E+02-6.41960E+02-2.08783E+03 1.68421E-09 5.24068E-09
 -1       933-1.90271E+05 4.62178E+02 3.07885E+03 8.40049E+03 2.28323E-09 1.12500E-08
 -1       934-2.00771E+05-2.94020E+02 2.45529E+03-4.70771E+03 2.00561E-09 1.41492E-08
 -1       935-1.95462E+05 2.13347E+03 7.04863E+03 1.20622E+04 3.89247E-09 1.94823E-08
 -1       936-1.99340E+05-1.76839E+03 1.16142E+04-5.75097E+03 3.01654E-10 1.80444E-08
 -1       937-1.90292E+05 1.38311E+04 2.88351E+04 1.23015E+04 2.09093E-08 2.06373E-08
 -1       938-2.05948E+05-1.19716E+04 4.51957E+04-4.94727E+03 2.14611E-08 1.43154E-08
 -1       939-1.50193E+05 8.86671E+04 1.25986E+05 9.27728E+03 8.88764E-09 1.38152E-08
 -1       940-2.39234E+05-7.66437E+04 1.74887E+05-2.72520E+03-4.72971E-09 6.28643E-09
 -1       941 7.35788E+06-3.69205E+05 8.59952E+05 3.47661E+03 5.17068E-08 8.90577E-09
 -1       942 7.72857E+06 4.27767E+05 6.06896E+05 1.53904E+03 4.97493E-08-1.02518E-08
 -1       943 7.50134E+06-5.79211E+04 2.23005E+05 2.40248E+03-4.23814E-07-4.20550E-09
 -1       944 7.56264E+06 6.70588E+04 1.40237E+05 2.53492E+03-8.92728E-07-4.31646E-09
 -1       945 7.52525E+06-9.06819E+03 5.76604E+04 2.48177E+03-6.00815E-07 7.45786E-09
 -1       946 7.53533E+06 1.06509E+04 3.46106E+04 2.46460E+03-3.32722E-07 1.20199E-08
 -1       947 7.52922E+06-1.57281E+03 1.73143E+04 2.47300E+03-6.75322E-08 9.15497E-09
 -1       948 7.53133E+06 2.91174E+03 1.43194E+04 2.47572E+03 1.98400E-07 4.74623E-09
 -1       949 7.52936E+06-1.33523E+03 1.51558E+04 2.47069E+03 1.34884E-06-1.30449E-08
 -1       950 7.53424E+06 8.60826E+03 2.83819E+04 2.44417E+03 2.50186E-06 7.01220E-09
 -1       951 7.52623E+06-7.26487E+03 4.64464E+04 2.50453E+03 6.71466E-06-2.19188E-08
 -1       952 7.55603E+06 5.36505E+04 1.12340E+05 2.76900E+03 1.09078E-05-4.77303E-09
 -1       953 7.50711E+06-4.63328E+04 1.78427E+05 2.14571E+03 5.45925E-06 4.89454E-08
 -1       954 7.68877E+06 3.42164E+05 4.85455E+05-1.12460E+03 3.13574E-09 3.52666E-08
 -1       955 7.39216E+06-2.95363E+05 6.87355E+05 6.39625E+03-4.00237E-08 1.04774E-09
 -1       956-3.86946E+05-6.78692E+03-1.44959E+04 5.17016E+04-1.94086E-09-4.63842E-10
 -1       957-3.89635E+05-2.12028E+03-7.32446E+03 6.02797E+04 6.60384E-09-1.37334E-10
 -1       958-3.88198E+05-1.98347E+02-3.29819E+03 5.13889E+04 1.07593E-08-9.49967E-10
 -1       959-3.88472E+05 4.76216E+01-1.67627E+03 6.06213E+04 8.36735E-10-3.58659E-09
 -1       960-3.88376E+05 1.36650E+02-8.15467E+02 5.13546E+04-2.29738E-09-5.75710E-10
 -1       961-3.88431E+05 1.75177E+02-4.28350E+02 6.06602E+04-8.59427E-09 7.09815E-09
 -1       962-3.88441E+05 1.61141E+02-2.40627E+02 5.13489E+04-3.99359E-09 3.58204E-09
 -1       963-3.88463E+05 1.98084E+02-1.83139E+02 6.06677E+04-7.08133E-09-3.48746E-09
 -1       964-3.88469E+05 1.77337E+02-2.11759E+02 5.13468E+04-1.14096E-09-3.97722E-09
 -1       965-3.88492E+05 2.09820E+02-3.56977E+02 6.06681E+04 5.54371E-09-3.89309E-09
 -1       966-3.88461E+05 1.85653E+02-6.66403E+02 5.13484E+04-4.10319E-09-1.18234E-10
 -1       967-3.88575E+05 1.33654E+02-1.36893E+03 6.06487E+04-3.37423E-10 1.24010E-09
 -1       968-3.88357E+05-6.24137E+01-2.68849E+03 5.13668E+04 1.58070E-09-5.82759E-10
 -1       969-3.89571E+05-1.61429E+03-5.97872E+03 6.04591E+04 3.58341E-09-1.31593E-09
 -1       970-3.87365E+05-5.42813E+03-1.18287E+04 5.15473E+04 1.98997E-09-3.16868E-09
 -1       971-7.33549E+05 9.21344E+03-4.29180E+04 6.77319E+03-8.28732E-09-2.23008E-09
 -1       972-7.48695E+05-1.29093E+04-2.72718E+04 2.72739E+04-6.97855E-09 1.72804E-10
 -1       973-7.39978E+05 9.21515E+02-1.11259E+04 6.48009E+03-5.10954E-09-5.32373E-09
 -1       974-7.41696E+05-1.10864E+03-6.17340E+03 2.77166E+04 1.66096E-09 2.88537E-10
 -1       975-7.40702E+05 1.22083E+02-2.86350E+03 6.32691E+03 2.28147E-09-4.80463E-09
 -1       976-7.40982E+05 4.21521E+01-1.58640E+03 2.79552E+04-1.29503E-08 5.17150E-09
 -1       977-7.40800E+05 5.41253E+01-9.39963E+02 6.24039E+03 1.84114E-08-6.94479E-09
 -1       978-7.40940E+05 1.50981E+02-8.53378E+02 2.80692E+04 4.02298E-08-7.04858E-09
 -1       979-7.40799E+05 6.33546E+01-1.14073E+03 6.21265E+03 2.28276E-08-1.01169E-08
 -1       980-7.41067E+05 1.41468E+01-2.11966E+03 2.80647E+04 1.67365E-08-1.57822E-09
 -1       981-7.40672E+05 1.75828E+02-3.92177E+03 6.24498E+03-1.76078E-09-5.35488E-09
 -1       982-7.42128E+05-1.55379E+03-8.54203E+03 2.79389E+04-5.12955E-10-1.90403E-09
 -1       983-7.39683E+05 1.30546E+03-1.53988E+04 6.33955E+03 5.29553E-09-7.66431E-09
 -1       984-7.51914E+05-1.78866E+04-3.78115E+04 2.76347E+04-2.12844E-09 3.26872E-09
 -1       985-7.30782E+05 1.28302E+04-5.94687E+04 6.55643E+03 1.24737E-08-2.85218E-09
 -3
 9999
