
 stresses (elem, integ.pnt.,sxx,syy,szz,sxy,sxz,syz) for set ELALL and time  0.1000000E+01

         1   1 -5.087960E+06 -5.996218E+05 -7.743910E+05 -1.154090E+05 -5.271135E+05  9.875361E+01
         1   2 -4.972377E+06  1.234443E+05 -3.326903E+05 -3.054692E+04 -3.460388E+05  1.715765E+01
         1   3 -5.086472E+06  2.431096E+04 -2.150152E+05  5.433048E+04 -1.649709E+05 -1.455105E+01
         1   4 -5.087975E+06 -5.996470E+05 -7.743946E+05  2.177415E-08 -5.271135E+05  6.562551E-11
         1   5 -4.972378E+06  1.234425E+05 -3.326905E+05 -7.708201E-08 -3.460388E+05  7.948561E-10
         1   6 -5.086475E+06  2.430537E+04 -2.150160E+05  1.111329E-08 -1.649709E+05  8.893082E-10
         1   7 -5.087960E+06 -5.996218E+05 -7.743910E+05  1.154090E+05 -5.271135E+05 -9.875361E+01
         1   8 -4.972377E+06  1.234443E+05 -3.326903E+05  3.054692E+04 -3.460388E+05 -1.715765E+01
         1   9 -5.086472E+06  2.431096E+04 -2.150152E+05 -5.433048E+04 -1.649709E+05  1.455105E+01
         1  10 -5.088261E+06 -5.996971E+05 -7.749174E+05 -1.154089E+05 -1.995824E-10  5.460066E-10
         1  11 -4.972506E+06  1.234118E+05 -3.329171E+05 -3.054691E+04 -2.602026E-09  6.303930E-10
         1  12 -5.086501E+06  2.430358E+04 -2.150668E+05  5.433048E+04 -3.923572E-09 -5.138933E-10
         1  13 -5.088275E+06 -5.997223E+05 -7.749210E+05 -1.259083E-08 -2.081670E-09  2.906876E-10
         1  14 -4.972507E+06  1.234100E+05 -3.329174E+05 -3.407875E-08 -2.176805E-09  5.961050E-10
         1  15 -5.086505E+06  2.429799E+04 -2.150676E+05 -1.687947E-08 -3.830038E-09 -4.922205E-11
         1  16 -5.088261E+06 -5.996971E+05 -7.749174E+05  1.154089E+05  2.893159E-10  1.693835E-10
         1  17 -4.972506E+06  1.234118E+05 -3.329171E+05  3.054691E+04  2.592879E-09  2.337829E-11
         1  18 -5.086501E+06  2.430358E+04 -2.150668E+05 -5.433048E+04  2.710839E-09  2.486790E-10
         1  19 -5.087960E+06 -5.996218E+05 -7.743910E+05 -1.154090E+05  5.271135E+05 -9.875361E+01
         1  20 -4.972377E+06  1.234443E+05 -3.326903E+05 -3.054692E+04  3.460388E+05 -1.715765E+01
         1  21 -5.086472E+06  2.431096E+04 -2.150152E+05  5.433048E+04  1.649709E+05  1.455105E+01
         1  22 -5.087975E+06 -5.996470E+05 -7.743946E+05  3.902106E-08  5.271135E+05  5.150855E-10
         1  23 -4.972378E+06  1.234425E+05 -3.326905E+05  8.923367E-09  3.460388E+05  4.525480E-10
         1  24 -5.086475E+06  2.430537E+04 -2.150160E+05  6.263819E-08  1.649709E+05 -1.062930E-09
         1  25 -5.087960E+06 -5.996218E+05 -7.743910E+05  1.154090E+05  5.271135E+05  9.875361E+01
         1  26 -4.972377E+06  1.234443E+05 -3.326903E+05  3.054692E+04  3.460388E+05  1.715765E+01
         1  27 -5.086472E+06  2.431096E+04 -2.150152E+05 -5.433048E+04  1.649709E+05 -1.455105E+01
         2   1 -5.043394E+06 -8.191039E+04 -1.771954E+05 -1.484033E+04 -1.302479E+05  3.137807E+00
         2   2 -5.026214E+06  1.696294E+04 -8.624187E+04 -3.595219E+03 -8.541155E+04  4.984804E-01
         2   3 -5.043119E+06  3.246541E+03 -5.279467E+04  7.649892E+03 -4.057404E+04 -5.038738E-01
         2   4 -5.043395E+06 -8.191081E+04 -1.771955E+05  3.985029E-08 -1.302479E+05  9.179169E-10
         2   5 -5.026214E+06  1.696291E+04 -8.624187E+04  1.657313E-08 -8.541155E+04  2.278380E-11
         2   6 -5.043119E+06  3.246430E+03 -5.279469E+04  3.411274E-08 -4.057404E+04 -5.980002E-10
         2   7 -5.043394E+06 -8.191039E+04 -1.771954E+05  1.484033E+04 -1.302479E+05 -3.137807E+00
         2   8 -5.026214E+06  1.696294E+04 -8.624187E+04  3.595219E+03 -8.541155E+04 -4.984804E-01
         2   9 -5.043119E+06  3.246541E+03 -5.279467E+04 -7.649892E+03 -4.057404E+04  5.038738E-01
         2  10 -5.043413E+06 -8.191499E+04 -1.772275E+05 -1.484033E+04  1.138499E-09  4.675338E-10
         2  11 -5.026222E+06  1.696096E+04 -8.625569E+04 -3.595219E+03 -1.839542E-09  8.505001E-10
         2  12 -5.043120E+06  3.246094E+03 -5.279779E+04  7.649892E+03 -1.036093E-09 -8.239773E-10
         2  13 -5.043413E+06 -8.191541E+04 -1.772276E+05  5.549389E-09  4.630180E-11 -7.711932E-11
         2  14 -5.026222E+06  1.696094E+04 -8.625569E+04  3.377058E-08 -5.090180E-09  9.155394E-11
         2  15 -5.043121E+06  3.245984E+03 -5.279781E+04  4.049661E-08  7.349843E-09 -5.944444E-10
         2  16 -5.043413E+06 -8.191499E+04 -1.772275E+05  1.484033E+04  2.286595E-09  6.214620E-10
         2  17 -5.026222E+06  1.696096E+04 -8.625569E+04  3.595219E+03 -1.002055E-09 -1.578054E-10
         2  18 -5.043120E+06  3.246094E+03 -5.279779E+04 -7.649892E+03  5.362140E-10 -1.074707E-09
         2  19 -5.043394E+06 -8.191039E+04 -1.771954E+05 -1.484033E+04  1.302479E+05 -3.137807E+00
         2  20 -5.026214E+06  1.696294E+04 -8.624187E+04 -3.595219E+03  8.541155E+04 -4.984804E-01
         2  21 -5.043119E+06  3.246541E+03 -5.279467E+04  7.649892E+03  4.057404E+04  5.038738E-01
         2  22 -5.043395E+06 -8.191081E+04 -1.771955E+05  9.158042E-08  1.302479E+05 -8.567640E-10
         2  23 -5.026214E+06  1.696291E+04 -8.624187E+04  5.095970E-08  8.541155E+04  7.418783E-10
         2  24 -5.043119E+06  3.246430E+03 -5.279469E+04  8.340717E-08  4.057404E+04 -3.885121E-10
         2  25 -5.043394E+06 -8.191039E+04 -1.771954E+05  1.484033E+04  1.302479E+05  3.137807E+00
         2  26 -5.026214E+06  1.696294E+04 -8.624187E+04  3.595219E+03  8.541155E+04  4.984804E-01
         2  27 -5.043119E+06  3.246541E+03 -5.279467E+04 -7.649892E+03  4.057404E+04 -5.038738E-01
         3   1 -5.036774E+06 -1.110525E+04 -4.198307E+04 -1.784057E+03 -3.211129E+04  9.299941E-02
         3   2 -5.034088E+06  2.329070E+03 -2.210072E+04 -3.456834E+02 -2.090030E+04  1.172854E-02
         3   3 -5.036720E+06  4.055588E+02 -1.340051E+04  1.092661E+03 -9.689333E+03 -1.718676E-02
         3   4 -5.036774E+06 -1.110526E+04 -4.198307E+04  5.150974E-08 -3.211129E+04 -9.619298E-10
         3   5 -5.034088E+06  2.329070E+03 -2.210072E+04  5.479204E-08 -2.090030E+04 -1.388323E-12
         3   6 -5.036720E+06  4.055566E+02 -1.340051E+04  7.093978E-08 -9.689333E+03  1.088553E-09
         3   7 -5.036774E+06 -1.110525E+04 -4.198307E+04  1.784057E+03 -3.211129E+04 -9.299941E-02
         3   8 -5.034088E+06  2.329070E+03 -2.210072E+04  3.456834E+02 -2.090030E+04 -1.172854E-02
         3   9 -5.036720E+06  4.055588E+02 -1.340051E+04 -1.092661E+03 -9.689333E+03  1.718676E-02
         3  10 -5.036775E+06 -1.110553E+04 -4.198502E+04 -1.784057E+03 -1.299959E-09 -2.176760E-09
         3  11 -5.034088E+06  2.328952E+03 -2.210155E+04 -3.456834E+02  3.481639E-09  2.081727E-11
         3  12 -5.036720E+06  4.055334E+02 -1.340069E+04  1.092661E+03  1.998500E-09 -4.766189E-10
         3  13 -5.036775E+06 -1.110554E+04 -4.198503E+04 -1.722463E-08  1.137501E-10 -9.094899E-10
         3  14 -5.034088E+06  2.328952E+03 -2.210155E+04 -5.388194E-09  3.224295E-09 -1.744500E-10
         3  15 -5.036720E+06  4.055311E+02 -1.340069E+04  3.655069E-08  9.406981E-10  4.517836E-10
         3  16 -5.036775E+06 -1.110553E+04 -4.198502E+04  1.784057E+03 -8.566711E-10 -6.053709E-10
         3  17 -5.034088E+06  2.328952E+03 -2.210155E+04  3.456834E+02 -8.964134E-09 -8.287075E-11
         3  18 -5.036720E+06  4.055334E+02 -1.340069E+04 -1.092661E+03 -1.828523E-09  1.440426E-09
         3  19 -5.036774E+06 -1.110525E+04 -4.198307E+04 -1.784057E+03  3.211129E+04 -9.299941E-02
         3  20 -5.034088E+06  2.329070E+03 -2.210072E+04 -3.456834E+02  2.090030E+04 -1.172853E-02
         3  21 -5.036720E+06  4.055588E+02 -1.340051E+04  1.092661E+03  9.689333E+03  1.718676E-02
         3  22 -5.036774E+06 -1.110526E+04 -4.198307E+04  6.877550E-08  3.211129E+04 -9.639251E-10
         3  23 -5.034088E+06  2.329070E+03 -2.210072E+04 -6.556423E-08  2.090030E+04  1.107887E-10
         3  24 -5.036720E+06  4.055566E+02 -1.340051E+04 -1.507484E-08  9.689333E+03 -4.288298E-10
         3  25 -5.036774E+06 -1.110525E+04 -4.198307E+04  1.784057E+03  3.211129E+04  9.299941E-02
         3  26 -5.034088E+06  2.329070E+03 -2.210072E+04  3.456834E+02  2.090030E+04  1.172853E-02
         3  27 -5.036720E+06  4.055588E+02 -1.340051E+04 -1.092661E+03  9.689333E+03 -1.718676E-02
         4   1 -5.035764E+06 -1.480839E+03 -1.064691E+04 -1.977250E+02 -7.531520E+03  2.417456E-03
         4   2 -5.035263E+06  3.480153E+02 -6.462839E+03 -1.536766E+01 -4.299025E+03  1.072487E-04
         4   3 -5.035754E+06 -8.661865E+01 -4.961998E+03  1.669921E+02 -1.066473E+03 -2.891050E-04
         4   4 -5.035764E+06 -1.480839E+03 -1.064691E+04  6.939891E-08 -7.531520E+03 -5.096432E-11
         4   5 -5.035263E+06  3.480153E+02 -6.462839E+03 -2.635973E-08 -4.299025E+03 -1.081509E-09
         4   6 -5.035754E+06 -8.661870E+01 -4.961998E+03 -1.465637E-08 -1.066473E+03  5.663845E-10
         4   7 -5.035764E+06 -1.480839E+03 -1.064691E+04  1.977250E+02 -7.531520E+03 -2.417454E-03
         4   8 -5.035263E+06  3.480153E+02 -6.462839E+03  1.536766E+01 -4.299025E+03 -1.072530E-04
         4   9 -5.035754E+06 -8.661865E+01 -4.961998E+03 -1.669921E+02 -1.066473E+03  2.891089E-04
         4  10 -5.035764E+06 -1.480854E+03 -1.064702E+04 -1.977250E+02  1.463715E-09 -4.377898E-10
         4  11 -5.035263E+06  3.480103E+02 -6.462874E+03 -1.536766E+01  2.882814E-09 -1.213478E-10
         4  12 -5.035754E+06 -8.661896E+01 -4.962001E+03  1.669921E+02 -7.461839E-10 -4.690749E-10
         4  13 -5.035764E+06 -1.480854E+03 -1.064702E+04  5.978338E-10 -4.593819E-09  3.570236E-11
         4  14 -5.035263E+06  3.480103E+02 -6.462874E+03 -5.669271E-10  2.276817E-10 -6.404967E-10
         4  15 -5.035754E+06 -8.661901E+01 -4.962001E+03 -2.750982E-08 -1.086785E-09  6.120857E-11
         4  16 -5.035764E+06 -1.480854E+03 -1.064702E+04  1.977250E+02 -4.580536E-09  2.356398E-10
         4  17 -5.035263E+06  3.480103E+02 -6.462874E+03  1.536766E+01  1.921876E-09 -8.939994E-10
         4  18 -5.035754E+06 -8.661896E+01 -4.962001E+03 -1.669921E+02  3.698660E-09 -3.989500E-10
         4  19 -5.035764E+06 -1.480839E+03 -1.064691E+04 -1.977250E+02  7.531520E+03 -2.417457E-03
         4  20 -5.035263E+06  3.480153E+02 -6.462839E+03 -1.536766E+01  4.299025E+03 -1.072463E-04
         4  21 -5.035754E+06 -8.661865E+01 -4.961998E+03  1.669921E+02  1.066473E+03  2.891087E-04
         4  22 -5.035764E+06 -1.480839E+03 -1.064691E+04  3.494285E-08  7.531520E+03 -5.273780E-11
         4  23 -5.035263E+06  3.480153E+02 -6.462839E+03  8.033470E-09  4.299025E+03  4.340957E-10
         4  24 -5.035754E+06 -8.661870E+01 -4.961998E+03  3.700041E-08  1.066473E+03 -4.128308E-10
         4  25 -5.035764E+06 -1.480839E+03 -1.064691E+04  1.977250E+02  7.531520E+03  2.417455E-03
         4  26 -5.035263E+06  3.480153E+02 -6.462839E+03  1.536766E+01  4.299025E+03  1.072472E-04
         4  27 -5.035754E+06 -8.661865E+01 -4.961998E+03 -1.669921E+02  1.066473E+03 -2.891076E-04
         5   1 -5.035709E+06 -1.559738E+02 -4.751966E+03 -1.239676E+02 -1.927192E+02  3.878420E-05
         5   2 -5.035318E+06  2.704699E+02 -5.299488E+03  1.490781E+01  2.455886E+03  5.943448E-05
         5   3 -5.035715E+06 -1.059492E+03 -8.020993E+03  1.537833E+02  5.104487E+03  1.274315E-03
         5   4 -5.035709E+06 -1.559738E+02 -4.751966E+03  2.472429E-08 -1.927192E+02  6.367231E-10
         5   5 -5.035318E+06  2.704699E+02 -5.299488E+03  3.617213E-09  2.455886E+03  3.164159E-10
         5   6 -5.035715E+06 -1.059492E+03 -8.020993E+03 -1.382737E-09  5.104487E+03  8.841378E-10
         5   7 -5.035709E+06 -1.559738E+02 -4.751966E+03  1.239676E+02 -1.927192E+02 -3.878158E-05
         5   8 -5.035318E+06  2.704699E+02 -5.299488E+03 -1.490781E+01  2.455886E+03 -5.943675E-05
         5   9 -5.035715E+06 -1.059492E+03 -8.020993E+03 -1.537833E+02  5.104487E+03 -1.274314E-03
         5  10 -5.035709E+06 -1.559738E+02 -4.751967E+03 -1.239676E+02 -2.067361E-09  3.506542E-10
         5  11 -5.035318E+06  2.704683E+02 -5.299499E+03  1.490781E+01  1.123461E-09  3.260710E-11
         5  12 -5.035715E+06 -1.059499E+03 -8.021043E+03  1.537833E+02  5.981996E-11 -2.764570E-10
         5  13 -5.035709E+06 -1.559739E+02 -4.751967E+03 -9.689820E-09  5.894634E-10  3.893162E-10
         5  14 -5.035318E+06  2.704683E+02 -5.299499E+03 -2.217977E-08 -5.146205E-09  2.115088E-10
         5  15 -5.035715E+06 -1.059499E+03 -8.021043E+03 -5.186211E-08 -1.722630E-09  6.385386E-11
         5  16 -5.035709E+06 -1.559738E+02 -4.751967E+03  1.239676E+02 -2.345608E-09  9.719167E-10
         5  17 -5.035318E+06  2.704683E+02 -5.299499E+03 -1.490781E+01  8.242288E-12 -1.398715E-10
         5  18 -5.035715E+06 -1.059499E+03 -8.021043E+03 -1.537833E+02 -1.033496E-09  3.790200E-11
         5  19 -5.035709E+06 -1.559738E+02 -4.751966E+03 -1.239676E+02  1.927192E+02 -3.878288E-05
         5  20 -5.035318E+06  2.704699E+02 -5.299488E+03  1.490781E+01 -2.455886E+03 -5.943322E-05
         5  21 -5.035715E+06 -1.059492E+03 -8.020993E+03  1.537833E+02 -5.104487E+03 -1.274313E-03
         5  22 -5.035709E+06 -1.559738E+02 -4.751966E+03  7.622814E-08  1.927192E+02 -2.232183E-10
         5  23 -5.035318E+06  2.704699E+02 -5.299488E+03  2.080543E-08 -2.455886E+03 -1.767924E-10
         5  24 -5.035715E+06 -1.059492E+03 -8.020993E+03 -6.683349E-09 -5.104487E+03 -1.074718E-09
         5  25 -5.035709E+06 -1.559738E+02 -4.751966E+03  1.239676E+02  1.927192E+02  3.878104E-05
         5  26 -5.035318E+06  2.704699E+02 -5.299488E+03 -1.490781E+01 -2.455886E+03  5.943229E-05
         5  27 -5.035715E+06 -1.059492E+03 -8.020993E+03 -1.537833E+02 -5.104487E+03  1.274309E-03
         6   1 -5.036387E+06  2.793346E+02 -9.905008E+03 -7.824182E+02  6.713141E+03 -8.526668E-03
         6   2 -5.034491E+06  1.673460E+03 -1.601810E+04  2.496175E+02  1.483662E+04  6.012060E-03
         6   3 -5.036425E+06 -7.965726E+03 -3.021027E+04  1.281642E+03  2.295991E+04  4.776951E-02
         6   4 -5.036387E+06  2.793334E+02 -9.905008E+03  6.884214E-08  6.713141E+03  1.052368E-09
         6   5 -5.034491E+06  1.673460E+03 -1.601810E+04  6.085654E-08  1.483662E+04 -2.852921E-10
         6   6 -5.036425E+06 -7.965729E+03 -3.021027E+04  5.502023E-08  2.295991E+04  5.780125E-10
         6   7 -5.036387E+06  2.793346E+02 -9.905008E+03  7.824182E+02  6.713141E+03  8.526671E-03
         6   8 -5.034491E+06  1.673460E+03 -1.601810E+04 -2.496175E+02  1.483662E+04 -6.012063E-03
         6   9 -5.036425E+06 -7.965726E+03 -3.021027E+04 -1.281642E+03  2.295991E+04 -4.776951E-02
         6  10 -5.036387E+06  2.793224E+02 -9.905093E+03 -7.824182E+02 -2.263129E-10 -3.412715E-10
         6  11 -5.034491E+06  1.673400E+03 -1.601851E+04  2.496175E+02  2.775564E-10  1.111520E-09
         6  12 -5.036426E+06 -7.965869E+03 -3.021127E+04  1.281642E+03 -2.028320E-09  1.029981E-09
         6  13 -5.036387E+06  2.793212E+02 -9.905093E+03  2.584850E-08 -3.006919E-09 -1.213991E-10
         6  14 -5.034491E+06  1.673400E+03 -1.601851E+04  3.507617E-08  6.196302E-10  1.153493E-10
         6  15 -5.036426E+06 -7.965872E+03 -3.021127E+04  6.150038E-08 -8.787303E-10  9.707065E-10
         6  16 -5.036387E+06  2.793224E+02 -9.905093E+03  7.824182E+02 -1.310665E-09  1.004141E-10
         6  17 -5.034491E+06  1.673400E+03 -1.601851E+04 -2.496175E+02 -1.270081E-09 -8.718180E-10
         6  18 -5.036426E+06 -7.965869E+03 -3.021127E+04 -1.281642E+03  4.643664E-09  6.459442E-10
         6  19 -5.036387E+06  2.793346E+02 -9.905008E+03 -7.824182E+02 -6.713141E+03  8.526671E-03
         6  20 -5.034491E+06  1.673460E+03 -1.601810E+04  2.496175E+02 -1.483662E+04 -6.012059E-03
         6  21 -5.036425E+06 -7.965726E+03 -3.021027E+04  1.281642E+03 -2.295991E+04 -4.776950E-02
         6  22 -5.036387E+06  2.793334E+02 -9.905008E+03  7.741950E-08 -6.713141E+03 -1.517365E-09
         6  23 -5.034491E+06  1.673460E+03 -1.601810E+04  4.367870E-08 -1.483662E+04  7.767188E-10
         6  24 -5.036425E+06 -7.965729E+03 -3.021027E+04  8.839734E-08 -2.295991E+04  1.365188E-09
         6  25 -5.036387E+06  2.793346E+02 -9.905008E+03  7.824182E+02 -6.713141E+03 -8.526673E-03
         6  26 -5.034491E+06  1.673460E+03 -1.601810E+04 -2.496175E+02 -1.483662E+04  6.012058E-03
         6  27 -5.036425E+06 -7.965726E+03 -3.021027E+04 -1.281642E+03 -2.295991E+04  4.776951E-02
         7   1 -5.040974E+06  2.327544E+03 -3.794321E+04 -5.486681E+03  2.904601E+04 -2.587100E-01
         7   2 -5.028847E+06  1.216785E+04 -6.190657E+04  2.579422E+03  6.122787E+04  2.563776E-01
         7   3 -5.041173E+06 -5.875603E+04 -1.271351E+05  1.064564E+04  9.340960E+04  1.614270E+00
         7   4 -5.040974E+06  2.327487E+03 -3.794322E+04  5.090790E-08  2.904601E+04 -3.052544E-10
         7   5 -5.028847E+06  1.216783E+04 -6.190657E+04 -3.749593E-08  6.122787E+04 -1.555627E-09
         7   6 -5.041173E+06 -5.875625E+04 -1.271351E+05  3.070135E-09  9.340960E+04 -1.586547E-10
         7   7 -5.040974E+06  2.327544E+03 -3.794321E+04  5.486681E+03  2.904601E+04  2.587100E-01
         7   8 -5.028847E+06  1.216785E+04 -6.190657E+04 -2.579422E+03  6.122787E+04 -2.563776E-01
         7   9 -5.041173E+06 -5.875603E+04 -1.271351E+05 -1.064564E+04  9.340960E+04 -1.614270E+00
         7  10 -5.040975E+06  2.327315E+03 -3.794481E+04 -5.486681E+03  1.693233E-09  3.450741E-10
         7  11 -5.028851E+06  1.216683E+04 -6.191367E+04  2.579422E+03 -6.085887E-09 -7.991895E-10
         7  12 -5.041183E+06 -5.875840E+04 -1.271516E+05  1.064564E+04 -6.268116E-10  7.283792E-10
         7  13 -5.040975E+06  2.327258E+03 -3.794482E+04  7.882374E-09 -3.979093E-09  4.601335E-10
         7  14 -5.028851E+06  1.216682E+04 -6.191367E+04 -2.030913E-08  8.477451E-10 -1.040117E-09
         7  15 -5.041183E+06 -5.875861E+04 -1.271517E+05 -9.802146E-09  1.761698E-09  4.209425E-11
         7  16 -5.040975E+06  2.327315E+03 -3.794481E+04  5.486681E+03  1.732118E-09  3.977218E-11
         7  17 -5.028851E+06  1.216683E+04 -6.191367E+04 -2.579422E+03  1.346739E-09 -7.875929E-10
         7  18 -5.041183E+06 -5.875840E+04 -1.271516E+05 -1.064564E+04  1.564414E-09 -2.842862E-10
         7  19 -5.040974E+06  2.327544E+03 -3.794321E+04 -5.486681E+03 -2.904601E+04  2.587100E-01
         7  20 -5.028847E+06  1.216785E+04 -6.190657E+04  2.579422E+03 -6.122787E+04 -2.563776E-01
         7  21 -5.041173E+06 -5.875603E+04 -1.271351E+05  1.064564E+04 -9.340960E+04 -1.614270E+00
         7  22 -5.040974E+06  2.327487E+03 -3.794322E+04  1.195925E-07 -2.904601E+04  1.180679E-09
         7  23 -5.028847E+06  1.216783E+04 -6.190657E+04  3.127621E-08 -6.122787E+04 -8.732975E-10
         7  24 -5.041173E+06 -5.875625E+04 -1.271351E+05  1.067739E-08 -9.340960E+04  7.150775E-10
         7  25 -5.040974E+06  2.327544E+03 -3.794321E+04  5.486681E+03 -2.904601E+04 -2.587100E-01
         7  26 -5.028847E+06  1.216785E+04 -6.190657E+04 -2.579422E+03 -6.122787E+04  2.563776E-01
         7  27 -5.041173E+06 -5.875603E+04 -1.271351E+05 -1.064564E+04 -9.340960E+04  1.614270E+00
         8   1 -5.072075E+06  1.743552E+04 -1.542649E+05 -3.897101E+04  1.183262E+05 -7.486135E+00
         8   2 -4.990239E+06  8.854512E+04 -2.387091E+05  2.190959E+04  2.482059E+05  8.827259E+00
         8   3 -5.073165E+06 -4.301239E+05 -5.556064E+05  8.278295E+04  3.780906E+05  5.080980E+01
         8   4 -5.072077E+06  1.743264E+04 -1.542653E+05  3.802145E-08  1.183262E+05  6.222238E-10
         8   5 -4.990240E+06  8.854421E+04 -2.387092E+05  5.081867E-09  2.482059E+05  1.565261E-09
         8   6 -5.073172E+06 -4.301369E+05 -5.556082E+05 -7.430114E-09  3.780906E+05  4.626245E-10
         8   7 -5.072075E+06  1.743552E+04 -1.542649E+05  3.897101E+04  1.183262E+05  7.486135E+00
         8   8 -4.990239E+06  8.854512E+04 -2.387091E+05 -2.190959E+04  2.482059E+05 -8.827259E+00
         8   9 -5.073165E+06 -4.301239E+05 -5.556064E+05 -8.278295E+04  3.780906E+05 -5.080980E+01
         8  10 -5.072091E+06  1.743172E+04 -1.542914E+05 -3.897101E+04 -9.345203E-11  6.906917E-10
         8  11 -4.990306E+06  8.852842E+04 -2.388258E+05  2.190959E+04  9.710668E-10  3.920095E-10
         8  12 -5.073319E+06 -4.301627E+05 -5.558772E+05  8.278294E+04  3.785513E-09  6.417850E-11
         8  13 -5.072092E+06  1.742885E+04 -1.542919E+05  2.081540E-08  3.143072E-26  7.085924E-10
         8  14 -4.990306E+06  8.852751E+04 -2.388259E+05 -3.791362E-08  2.373403E-09  1.382454E-10
         8  15 -5.073327E+06 -4.301757E+05 -5.558791E+05 -1.064369E-08 -2.070948E-09  1.269504E-10
         8  16 -5.072091E+06  1.743172E+04 -1.542914E+05  3.897101E+04  9.373375E-10  8.753590E-10
         8  17 -4.990306E+06  8.852842E+04 -2.388258E+05 -2.190959E+04 -4.330315E-09  2.034270E-10
         8  18 -5.073319E+06 -4.301627E+05 -5.558772E+05 -8.278294E+04  1.267704E-09 -5.561609E-10
         8  19 -5.072075E+06  1.743552E+04 -1.542649E+05 -3.897101E+04 -1.183262E+05  7.486135E+00
         8  20 -4.990239E+06  8.854512E+04 -2.387091E+05  2.190959E+04 -2.482059E+05 -8.827259E+00
         8  21 -5.073165E+06 -4.301239E+05 -5.556064E+05  8.278295E+04 -3.780906E+05 -5.080980E+01
         8  22 -5.072077E+06  1.743264E+04 -1.542653E+05  3.609329E-09 -1.183262E+05  8.946252E-10
         8  23 -4.990240E+06  8.854421E+04 -2.387092E+05 -2.932407E-08 -2.482059E+05 -7.985441E-10
         8  24 -5.073172E+06 -4.301369E+05 -5.556082E+05 -1.604610E-08 -3.780906E+05 -3.125395E-10
         8  25 -5.072075E+06  1.743552E+04 -1.542649E+05  3.897101E+04 -1.183262E+05 -7.486135E+00
         8  26 -4.990239E+06  8.854512E+04 -2.387091E+05 -2.190959E+04 -2.482059E+05  8.827259E+00
         8  27 -5.073165E+06 -4.301239E+05 -5.556064E+05 -8.278295E+04 -3.780906E+05  5.080980E+01
         9   1  2.249552E+06  8.005264E+06  2.147140E+06 -1.497314E+06  1.016494E+05  8.268915E+05
         9   2  1.780386E+06  6.839855E+06  1.444792E+06 -1.347214E+06  3.404938E+05  3.877832E+05
         9   3  1.463171E+06  5.773086E+06  1.064794E+06 -1.385292E+06  3.957633E+05 -5.027232E+04
         9   4  1.700899E+05 -4.634240E+05  1.815755E+05 -1.365987E+06  1.036937E+05  1.237112E+05
         9   5  5.203285E+04 -4.760271E+05  9.278626E+04 -1.272206E+06  3.419680E+05  7.752037E+04
         9   6  1.911346E+04 -4.581813E+05  5.589005E+04 -1.366545E+06  3.957489E+05  3.147596E+04
         9   7 -1.914093E+06 -8.865342E+06 -1.786970E+06 -1.236339E+06  1.054657E+05 -5.700456E+05
         9   8 -1.679305E+06 -7.740166E+06 -1.261101E+06 -1.198007E+06  3.433806E+05 -2.292148E+05
         9   9 -1.426905E+06 -6.651141E+06 -9.540649E+05 -1.347911E+06  3.957392E+05  1.124371E+05
         9  10  2.249359E+06  8.004535E+06  2.145850E+06 -1.497382E+06  2.115699E-09  7.565054E-12
         9  11  1.780221E+06  6.839663E+06  1.444293E+06 -1.347320E+06  2.847725E-09  4.258541E-10
         9  12  1.463002E+06  5.773042E+06  1.064495E+06 -1.385276E+06 -1.001693E-09  5.506018E-10
         9  13  1.700742E+05 -4.634434E+05  1.815264E+05 -1.365997E+06  4.299568E-09 -2.155913E-11
         9  14  5.190562E+04 -4.760650E+05  9.255501E+04 -1.272227E+06  1.079545E-09 -3.756690E-11
         9  15  1.894502E+04 -4.582244E+05  5.559382E+04 -1.366555E+06 -1.963899E-10 -6.137593E-11
         9  16 -1.914194E+06 -8.865698E+06 -1.787609E+06 -1.236290E+06 -3.280583E-09  1.938790E-11
         9  17 -1.679445E+06 -7.740254E+06 -1.261422E+06 -1.197943E+06  5.413879E-09 -6.054081E-10
         9  18 -1.427077E+06 -6.651196E+06 -9.543835E+05 -1.347947E+06  3.164721E-09 -6.677705E-10
         9  19  2.249552E+06  8.005264E+06  2.147140E+06 -1.497314E+06 -1.016494E+05 -8.268915E+05
         9  20  1.780386E+06  6.839855E+06  1.444792E+06 -1.347214E+06 -3.404938E+05 -3.877832E+05
         9  21  1.463171E+06  5.773086E+06  1.064794E+06 -1.385292E+06 -3.957633E+05  5.027232E+04
         9  22  1.700899E+05 -4.634240E+05  1.815755E+05 -1.365987E+06 -1.036937E+05 -1.237112E+05
         9  23  5.203285E+04 -4.760271E+05  9.278626E+04 -1.272206E+06 -3.419680E+05 -7.752037E+04
         9  24  1.911346E+04 -4.581813E+05  5.589005E+04 -1.366545E+06 -3.957489E+05 -3.147596E+04
         9  25 -1.914093E+06 -8.865342E+06 -1.786970E+06 -1.236339E+06 -1.054657E+05  5.700456E+05
         9  26 -1.679305E+06 -7.740166E+06 -1.261101E+06 -1.198007E+06 -3.433806E+05  2.292148E+05
         9  27 -1.426905E+06 -6.651141E+06 -9.540649E+05 -1.347911E+06 -3.957392E+05 -1.124371E+05
        10   1  1.293754E+06  5.057006E+06  9.183378E+05 -1.394917E+06  3.664552E+05 -5.881090E+04
        10   2  1.024261E+06  3.934879E+06  6.984077E+05 -1.285552E+06  3.171209E+05 -1.233362E+05
        10   3  7.763087E+05  2.827507E+06  5.255931E+05 -1.377485E+06  2.460142E+05 -1.879886E+05
        10   4  1.836994E+04 -4.621885E+05  4.585974E+04 -1.369481E+06  3.663342E+05  2.352410E+04
        10   5  1.398711E+04 -4.633273E+05  3.623888E+04 -1.268795E+06  3.165985E+05  5.346881E+03
        10   6  2.324559E+04 -4.589003E+05  4.174763E+04 -1.369488E+06  2.450108E+05 -1.306638E+04
        10   7 -1.258520E+06 -5.951188E+06 -8.273605E+05 -1.344211E+06  3.662191E+05  1.051578E+05
        10   8 -9.971955E+05 -4.842167E+06 -6.262581E+05 -1.252117E+06  3.160804E+05  1.331587E+05
        10   9 -7.303039E+05 -3.734401E+06 -4.421763E+05 -1.361508E+06  2.440082E+05  1.609711E+05
        10  10  1.293609E+06  5.056966E+06  9.180793E+05 -1.394900E+06 -1.112810E-10  3.952980E-09
        10  11  1.024149E+06  3.934836E+06  6.981907E+05 -1.285521E+06  4.880029E-09 -1.220869E-09
        10  12  7.762345E+05  2.827454E+06  5.254138E+05 -1.377448E+06 -1.472480E-10 -6.996170E-09
        10  13  1.822569E+04 -4.622252E+05  4.560649E+04 -1.369488E+06 -5.195279E-09  1.131210E-11
        10  14  1.387949E+04 -4.633542E+05  3.605050E+04 -1.268797E+06  2.829078E-10 -6.300433E-11
        10  15  2.318111E+04 -4.589166E+05  4.163457E+04 -1.369485E+06  3.595631E-10 -2.353946E-10
        10  16 -1.258667E+06 -5.951236E+06 -8.276338E+05 -1.344242E+06  2.093733E-09 -3.547668E-09
        10  17 -9.973077E+05 -4.842213E+06 -6.264798E+05 -1.252151E+06  1.033835E-09  9.892319E-10
        10  18 -7.303750E+05 -3.734445E+06 -4.423375E+05 -1.361540E+06  2.902384E-09  6.760776E-09
        10  19  1.293754E+06  5.057006E+06  9.183378E+05 -1.394917E+06 -3.664552E+05  5.881090E+04
        10  20  1.024261E+06  3.934879E+06  6.984077E+05 -1.285552E+06 -3.171209E+05  1.233362E+05
        10  21  7.763087E+05  2.827507E+06  5.255931E+05 -1.377485E+06 -2.460142E+05  1.879886E+05
        10  22  1.836994E+04 -4.621885E+05  4.585974E+04 -1.369481E+06 -3.663342E+05 -2.352410E+04
        10  23  1.398711E+04 -4.633273E+05  3.623888E+04 -1.268795E+06 -3.165985E+05 -5.346881E+03
        10  24  2.324559E+04 -4.589003E+05  4.174763E+04 -1.369488E+06 -2.450108E+05  1.306638E+04
        10  25 -1.258520E+06 -5.951188E+06 -8.273605E+05 -1.344211E+06 -3.662191E+05 -1.051578E+05
        10  26 -9.971955E+05 -4.842167E+06 -6.262581E+05 -1.252117E+06 -3.160804E+05 -1.331587E+05
        10  27 -7.303039E+05 -3.734401E+06 -4.421763E+05 -1.361508E+06 -2.440082E+05 -1.609711E+05
        11   1  6.189141E+05  2.131340E+06  4.255329E+05 -1.380857E+06  1.972289E+05 -1.952038E+05
        11   2  3.944053E+05  1.007559E+06  2.929571E+05 -1.227387E+06  1.136767E+05 -2.412553E+05
        11   3  2.389940E+05 -9.356865E+04  2.070594E+05 -1.276780E+06  2.764014E+04 -2.873183E+05
        11   4  2.686713E+04 -4.548293E+05  4.899282E+04 -1.369858E+06  1.961330E+05 -2.028406E+04
        11   5  5.806518E+04 -4.644668E+05  7.916675E+04 -1.268099E+06  1.124855E+05 -6.117791E+04
        11   6  1.575427E+05 -4.536866E+05  1.523558E+05 -1.369139E+06  2.635859E+04 -1.021538E+05
        11   7 -5.654718E+05 -3.034203E+06 -3.275446E+05 -1.358890E+06  1.950402E+05  1.539394E+05
        11   8 -2.783498E+05 -1.934235E+06 -1.345363E+05 -1.308705E+06  1.112688E+05  1.184910E+05
        11   9  7.613644E+04 -8.135820E+05  9.778324E+04 -1.461442E+06  2.502142E+04  8.290758E+04
        11  10  6.188623E+05  2.131288E+06  4.253889E+05 -1.380826E+06 -1.747212E-09  1.931915E-09
        11  11  3.943759E+05  1.007493E+06  2.928238E+05 -1.227365E+06 -4.784524E-10 -2.289815E-10
        11  12  2.389710E+05 -9.365747E+04  2.069028E+05 -1.276774E+06  3.166982E-09 -2.512559E-09
        11  13  2.682573E+04 -4.548401E+05  4.891982E+04 -1.369855E+06  2.390208E-09 -3.348938E-11
        11  14  5.805062E+04 -4.644741E+05  7.913601E+04 -1.268093E+06  4.073479E-09  7.561120E-11
        11  15  1.575392E+05 -4.536980E+05  1.523349E+05 -1.369137E+06  4.440501E-09  8.962577E-11
        11  16 -5.655191E+05 -3.034239E+06 -3.276611E+05 -1.358914E+06  6.522161E-09 -2.153721E-09
        11  17 -2.783669E+05 -1.934253E+06 -1.345862E+05 -1.308715E+06  1.180594E-09  3.163853E-10
        11  18  7.613392E+04 -8.135896E+05  9.776910E+04 -1.461444E+06 -4.513024E-10  2.545040E-09
        11  19  6.189141E+05  2.131340E+06  4.255329E+05 -1.380857E+06 -1.972289E+05  1.952038E+05
        11  20  3.944053E+05  1.007559E+06  2.929571E+05 -1.227387E+06 -1.136767E+05  2.412553E+05
        11  21  2.389940E+05 -9.356865E+04  2.070594E+05 -1.276780E+06 -2.764014E+04  2.873183E+05
        11  22  2.686713E+04 -4.548293E+05  4.899282E+04 -1.369858E+06 -1.961330E+05  2.028406E+04
        11  23  5.806518E+04 -4.644668E+05  7.916675E+04 -1.268099E+06 -1.124855E+05  6.117791E+04
        11  24  1.575427E+05 -4.536866E+05  1.523558E+05 -1.369139E+06 -2.635859E+04  1.021538E+05
        11  25 -5.654718E+05 -3.034203E+06 -3.275446E+05 -1.358890E+06 -1.950402E+05 -1.539394E+05
        11  26 -2.783498E+05 -1.934235E+06 -1.345363E+05 -1.308705E+06 -1.112688E+05 -1.184910E+05
        11  27  7.613644E+04 -8.135820E+05  9.778324E+04 -1.461442E+06 -2.502142E+04 -8.290758E+04
        12   1 -5.773343E+06 -1.703377E+06 -1.100293E+06 -2.002721E+06 -6.156829E+05 -2.264465E+05
        12   2 -5.579814E+06 -7.793490E+05 -5.157422E+05 -2.137144E+06 -3.969773E+05 -1.369157E+05
        12   3 -5.729026E+06 -8.391491E+05 -3.550962E+05 -2.073925E+06 -1.747954E+05 -5.663287E+04
        12   4 -5.388435E+06 -1.424977E+06 -9.675863E+05 -1.761980E+06 -6.126661E+05 -2.254831E+05
        12   5 -5.168086E+06 -5.888255E+05 -3.967257E+05 -1.989480E+06 -3.965402E+05 -1.367810E+05
        12   6 -5.289715E+06 -7.356401E+05 -2.474963E+05 -2.019419E+06 -1.769281E+05 -5.740809E+04
        12   7 -5.003337E+06 -1.146404E+06 -8.348901E+05 -1.521065E+06 -6.096472E+05 -2.245171E+05
        12   8 -4.756191E+06 -3.982660E+05 -2.777258E+05 -1.841718E+06 -3.961027E+05 -1.366461E+05
        12   9 -4.850210E+06 -6.321372E+05 -1.399078E+05 -1.964891E+06 -1.790624E+05 -5.818338E+04
        12  10 -5.773767E+06 -1.703536E+06 -1.101110E+06 -2.002834E+06  1.659438E-10 -3.624501E-10
        12  11 -5.579989E+06 -7.794121E+05 -5.160771E+05 -2.137188E+06  1.392961E-09 -5.214132E-10
        12  12 -5.729060E+06 -8.391609E+05 -3.551603E+05 -2.073933E+06  3.819506E-09 -2.840914E-10
        12  13 -5.388855E+06 -1.425134E+06 -9.683950E+05 -1.762092E+06 -4.498468E-09 -3.176314E-10
        12  14 -5.168261E+06 -5.888885E+05 -3.970596E+05 -1.989524E+06 -1.006782E-09 -3.077818E-10
        12  15 -5.289750E+06 -7.356522E+05 -2.475620E+05 -2.019428E+06  5.147104E-10  3.893015E-10
        12  16 -5.003752E+06 -1.146559E+06 -8.356903E+05 -1.521176E+06  2.173162E-09 -1.857702E-10
        12  17 -4.756365E+06 -3.983288E+05 -2.780587E+05 -1.841762E+06  7.063824E-09  1.307679E-10
        12  18 -4.850245E+06 -6.321495E+05 -1.399750E+05 -1.964900E+06  4.211167E-09  8.842310E-10
        12  19 -5.773343E+06 -1.703377E+06 -1.100293E+06 -2.002721E+06  6.156829E+05  2.264465E+05
        12  20 -5.579814E+06 -7.793490E+05 -5.157422E+05 -2.137144E+06  3.969773E+05  1.369157E+05
        12  21 -5.729026E+06 -8.391491E+05 -3.550962E+05 -2.073925E+06  1.747954E+05  5.663287E+04
        12  22 -5.388435E+06 -1.424977E+06 -9.675863E+05 -1.761980E+06  6.126661E+05  2.254831E+05
        12  23 -5.168086E+06 -5.888255E+05 -3.967257E+05 -1.989480E+06  3.965402E+05  1.367810E+05
        12  24 -5.289715E+06 -7.356401E+05 -2.474963E+05 -2.019419E+06  1.769281E+05  5.740809E+04
        12  25 -5.003337E+06 -1.146404E+06 -8.348901E+05 -1.521065E+06  6.096472E+05  2.245171E+05
        12  26 -4.756191E+06 -3.982660E+05 -2.777258E+05 -1.841718E+06  3.961027E+05  1.366461E+05
        12  27 -4.850210E+06 -6.321372E+05 -1.399078E+05 -1.964891E+06  1.790624E+05  5.818338E+04
        13   1 -5.482043E+06 -9.522665E+05 -2.685928E+05 -2.040881E+06 -1.391850E+05 -4.618466E+04
        13   2 -5.425177E+06 -7.807834E+05 -1.421723E+05 -2.015027E+06 -8.912335E+04 -2.883262E+04
        13   3 -5.366914E+06 -7.943842E+05 -8.808647E+04 -2.021606E+06 -3.856675E+04 -1.278922E+04
        13   4 -5.254640E+06 -8.494327E+05 -2.032320E+05 -1.961784E+06 -1.393689E+05 -4.625830E+04
        13   5 -5.248675E+06 -7.100457E+05 -9.326109E+04 -1.962999E+06 -8.966965E+04 -2.903733E+04
        13   6 -5.241225E+06 -7.556442E+05 -5.531234E+04 -1.996651E+06 -3.948006E+04 -1.312912E+04
        13   7 -5.027185E+06 -7.465891E+05 -1.378763E+05 -1.882658E+06 -1.395528E+05 -4.633197E+04
        13   8 -5.072144E+06 -6.393052E+05 -4.435291E+04 -1.910958E+06 -9.021613E+04 -2.924211E+04
        13   9 -5.115520E+06 -7.169046E+05 -2.253958E+04 -1.971693E+06 -4.039357E+04 -1.346906E+04
        13  10 -5.482064E+06 -9.522741E+05 -2.686337E+05 -2.040886E+06  1.553269E-09  1.733869E-09
        13  11 -5.425186E+06 -7.807865E+05 -1.421889E+05 -2.015029E+06 -1.812741E-09 -9.554809E-10
        13  12 -5.366916E+06 -7.943848E+05 -8.808961E+04 -2.021606E+06 -4.838590E-10 -1.242576E-09
        13  13 -5.254661E+06 -8.494403E+05 -2.032729E+05 -1.961789E+06 -1.311845E-10  3.788696E-10
        13  14 -5.248684E+06 -7.100488E+05 -9.327795E+04 -1.963001E+06 -6.837949E-09 -1.454666E-09
        13  15 -5.241226E+06 -7.556448E+05 -5.531563E+04 -1.996652E+06 -8.490150E-10 -2.471723E-09
        13  16 -5.027207E+06 -7.465967E+05 -1.379173E+05 -1.882663E+06  1.469662E-09  3.237977E-10
        13  17 -5.072153E+06 -6.393083E+05 -4.436997E+04 -1.910960E+06  3.366329E-09 -6.971592E-10
        13  18 -5.115522E+06 -7.169052E+05 -2.254302E+04 -1.971694E+06 -2.426477E-09 -1.677497E-09
        13  19 -5.482043E+06 -9.522665E+05 -2.685928E+05 -2.040881E+06  1.391850E+05  4.618466E+04
        13  20 -5.425177E+06 -7.807834E+05 -1.421723E+05 -2.015027E+06  8.912335E+04  2.883262E+04
        13  21 -5.366914E+06 -7.943842E+05 -8.808647E+04 -2.021606E+06  3.856675E+04  1.278922E+04
        13  22 -5.254640E+06 -8.494327E+05 -2.032320E+05 -1.961784E+06  1.393689E+05  4.625830E+04
        13  23 -5.248675E+06 -7.100457E+05 -9.326109E+04 -1.962999E+06  8.966965E+04  2.903733E+04
        13  24 -5.241225E+06 -7.556442E+05 -5.531234E+04 -1.996651E+06  3.948006E+04  1.312912E+04
        13  25 -5.027185E+06 -7.465891E+05 -1.378763E+05 -1.882658E+06  1.395528E+05  4.633197E+04
        13  26 -5.072144E+06 -6.393052E+05 -4.435291E+04 -1.910958E+06  9.021613E+04  2.924211E+04
        13  27 -5.115520E+06 -7.169046E+05 -2.253958E+04 -1.971693E+06  4.039357E+04  1.346906E+04
        14   1 -5.172910E+06 -7.489949E+05 -2.684962E+04 -1.973667E+06 -3.006767E+04 -1.149990E+04
        14   2 -5.136258E+06 -6.807207E+05  1.183638E+04 -1.926851E+06 -1.799949E+04 -9.639188E+03
        14   3 -5.050126E+06 -6.875653E+05  3.735639E+04 -1.942143E+06 -5.953488E+03 -7.712331E+03
        14   4 -5.236124E+06 -7.707354E+05 -4.387809E+04 -1.988529E+06 -3.074571E+04 -1.175285E+04
        14   5 -5.259956E+06 -7.268961E+05 -2.178409E+04 -1.959801E+06 -1.865949E+04 -9.885471E+03
        14   6 -5.234314E+06 -7.581817E+05 -1.286989E+04 -1.993182E+06 -6.596667E+03 -7.952459E+03
        14   7 -5.299334E+06 -7.924759E+05 -6.090697E+04 -2.003390E+06 -3.142368E+04 -1.200577E+04
        14   8 -5.383639E+06 -7.730709E+05 -5.540603E+04 -1.992745E+06 -1.931935E+04 -1.013170E+04
        14   9 -5.418469E+06 -8.287961E+05 -6.309936E+04 -2.044209E+06 -7.239635E+03 -8.192506E+03
        14  10 -5.172911E+06 -7.489953E+05 -2.685159E+04 -1.973667E+06  1.277318E-09 -2.902272E-10
        14  11 -5.136258E+06 -6.807208E+05  1.183559E+04 -1.926851E+06  4.419049E-09 -1.289122E-10
        14  12 -5.050126E+06 -6.875654E+05  3.735621E+04 -1.942143E+06  1.366262E-09 -9.483325E-11
        14  13 -5.236125E+06 -7.707358E+05 -4.388015E+04 -1.988529E+06  2.774225E-10 -1.607554E-09
        14  14 -5.259956E+06 -7.268963E+05 -2.178493E+04 -1.959801E+06  1.479605E-09  4.824215E-10
        14  15 -5.234314E+06 -7.581818E+05 -1.287009E+04 -1.993183E+06 -4.154496E-09 -2.289807E-11
        14  16 -5.299335E+06 -7.924763E+05 -6.090912E+04 -2.003390E+06 -1.505440E-09 -1.325260E-09
        14  17 -5.383640E+06 -7.730711E+05 -5.540693E+04 -1.992745E+06 -2.559431E-09 -1.460279E-09
        14  18 -5.418469E+06 -8.287962E+05 -6.309959E+04 -2.044209E+06 -1.221849E-09 -8.762655E-11
        14  19 -5.172910E+06 -7.489949E+05 -2.684962E+04 -1.973667E+06  3.006767E+04  1.149990E+04
        14  20 -5.136258E+06 -6.807207E+05  1.183638E+04 -1.926851E+06  1.799949E+04  9.639188E+03
        14  21 -5.050126E+06 -6.875653E+05  3.735639E+04 -1.942143E+06  5.953488E+03  7.712331E+03
        14  22 -5.236124E+06 -7.707354E+05 -4.387809E+04 -1.988529E+06  3.074571E+04  1.175285E+04
        14  23 -5.259956E+06 -7.268961E+05 -2.178409E+04 -1.959801E+06  1.865949E+04  9.885471E+03
        14  24 -5.234314E+06 -7.581817E+05 -1.286989E+04 -1.993182E+06  6.596667E+03  7.952459E+03
        14  25 -5.299334E+06 -7.924759E+05 -6.090697E+04 -2.003390E+06  3.142368E+04  1.200577E+04
        14  26 -5.383639E+06 -7.730709E+05 -5.540603E+04 -1.992745E+06  1.931935E+04  1.013170E+04
        14  27 -5.418469E+06 -8.287961E+05 -6.309936E+04 -2.044209E+06  7.239635E+03  8.192506E+03
        15   1 -4.888749E+06 -6.263337E+05  8.468858E+04 -1.895049E+06 -3.509355E+03 -8.349523E+03
        15   2 -4.862988E+06 -5.837784E+05  1.015340E+05 -1.856737E+06  2.146540E+02 -9.340750E+03
        15   3 -4.793426E+06 -5.884424E+05  1.155867E+05 -1.868976E+06  3.727491E+03 -9.758765E+03
        15   4 -5.236337E+06 -7.571534E+05 -1.020206E+04 -1.988703E+06 -4.195881E+03 -8.606159E+03
        15   5 -5.258123E+06 -7.328746E+05 -6.151719E+03 -1.963667E+06 -3.073888E+02 -9.536400E+03
        15   6 -5.236142E+06 -7.558511E+05 -5.026358E+03 -1.989184E+06  3.369624E+03 -9.893337E+03
        15   7 -5.583807E+06 -8.879660E+05 -1.051034E+05 -2.082310E+06 -4.881977E+03 -8.862637E+03
        15   8 -5.653106E+06 -8.819618E+05 -1.138515E+05 -2.070535E+06 -8.290619E+02 -9.731911E+03
        15   9 -5.678669E+06 -9.232487E+05 -1.256573E+05 -2.109313E+06  3.012040E+03 -1.002780E+04
        15  10 -4.888749E+06 -6.263338E+05  8.468842E+04 -1.895049E+06 -9.329767E-10  5.125732E-10
        15  11 -4.862988E+06 -5.837785E+05  1.015339E+05 -1.856737E+06  4.544256E-10  5.029639E-10
        15  12 -4.793426E+06 -5.884425E+05  1.155865E+05 -1.868976E+06 -2.434947E-09 -2.117783E-09
        15  13 -5.236337E+06 -7.571534E+05 -1.020224E+04 -1.988703E+06  2.388198E-09  5.819483E-10
        15  14 -5.258123E+06 -7.328747E+05 -6.151890E+03 -1.963667E+06  1.716233E-09 -1.019248E-09
        15  15 -5.236142E+06 -7.558512E+05 -5.026563E+03 -1.989184E+06 -2.223275E-09 -1.463543E-09
        15  16 -5.583808E+06 -8.879661E+05 -1.051036E+05 -2.082310E+06 -5.372141E-09 -1.115682E-09
        15  17 -5.653106E+06 -8.819619E+05 -1.138517E+05 -2.070535E+06 -5.510961E-09 -3.064813E-10
        15  18 -5.678669E+06 -9.232488E+05 -1.256575E+05 -2.109313E+06  2.067653E-09 -1.604977E-09
        15  19 -4.888749E+06 -6.263337E+05  8.468858E+04 -1.895049E+06  3.509355E+03  8.349523E+03
        15  20 -4.862988E+06 -5.837784E+05  1.015340E+05 -1.856737E+06 -2.146540E+02  9.340750E+03
        15  21 -4.793426E+06 -5.884424E+05  1.155867E+05 -1.868976E+06 -3.727491E+03  9.758765E+03
        15  22 -5.236337E+06 -7.571534E+05 -1.020206E+04 -1.988703E+06  4.195881E+03  8.606159E+03
        15  23 -5.258123E+06 -7.328746E+05 -6.151719E+03 -1.963667E+06  3.073888E+02  9.536400E+03
        15  24 -5.236142E+06 -7.558511E+05 -5.026358E+03 -1.989184E+06 -3.369624E+03  9.893337E+03
        15  25 -5.583807E+06 -8.879660E+05 -1.051034E+05 -2.082310E+06  4.881977E+03  8.862637E+03
        15  26 -5.653106E+06 -8.819618E+05 -1.138515E+05 -2.070535E+06  8.290619E+02  9.731911E+03
        15  27 -5.678669E+06 -9.232487E+05 -1.256573E+05 -2.109313E+06 -3.012040E+03  1.002780E+04
        16   1 -4.694786E+06 -5.440256E+05  1.441145E+05 -1.835005E+06  4.995172E+03 -1.026245E+04
        16   2 -4.683432E+06 -5.245289E+05  1.485143E+05 -1.816913E+06  8.474949E+03 -1.038598E+04
        16   3 -4.651667E+06 -5.282367E+05  1.502025E+05 -1.821465E+06  1.163871E+04 -9.662788E+03
        16   4 -5.241360E+06 -7.504057E+05 -5.023369E+03 -1.983040E+06  4.508863E+03 -1.044550E+04
        16   5 -5.251663E+06 -7.396154E+05 -6.464047E+03 -1.971404E+06  8.231516E+03 -1.047831E+04
        16   6 -5.241605E+06 -7.520813E+05 -1.081204E+04 -1.982412E+06  1.163791E+04 -9.664055E+03
        16   7 -5.787645E+06 -9.567686E+05 -1.541881E+05 -2.130956E+06  4.023029E+03 -1.062837E+04
        16   8 -5.819582E+06 -9.546833E+05 -1.614717E+05 -2.125766E+06  7.988329E+03 -1.057054E+04
        16   9 -5.831206E+06 -9.759059E+05 -1.718585E+05 -2.143221E+06  1.163709E+04 -9.665323E+03
        16  10 -4.694786E+06 -5.440257E+05  1.441143E+05 -1.835005E+06 -2.599647E-09 -8.161592E-10
        16  11 -4.683432E+06 -5.245290E+05  1.485139E+05 -1.816913E+06 -4.906742E-10  2.831373E-09
        16  12 -4.651667E+06 -5.282368E+05  1.502020E+05 -1.821465E+06  1.701093E-09 -2.803507E-10
        16  13 -5.241360E+06 -7.504058E+05 -5.023612E+03 -1.983040E+06 -4.151706E-09 -5.278410E-10
        16  14 -5.251663E+06 -7.396156E+05 -6.464380E+03 -1.971404E+06 -2.380109E-09  1.752344E-10
        16  15 -5.241605E+06 -7.520815E+05 -1.081247E+04 -1.982412E+06  1.173331E-09  7.691184E-10
        16  16 -5.787645E+06 -9.567688E+05 -1.541884E+05 -2.130956E+06 -3.537789E-09 -4.227155E-10
        16  17 -5.819582E+06 -9.546835E+05 -1.614720E+05 -2.125766E+06 -2.598057E-09  7.198793E-10
        16  18 -5.831207E+06 -9.759060E+05 -1.718589E+05 -2.143221E+06 -3.419064E-10 -3.197646E-10
        16  19 -4.694786E+06 -5.440256E+05  1.441145E+05 -1.835005E+06 -4.995172E+03  1.026245E+04
        16  20 -4.683432E+06 -5.245289E+05  1.485143E+05 -1.816913E+06 -8.474949E+03  1.038598E+04
        16  21 -4.651667E+06 -5.282367E+05  1.502025E+05 -1.821465E+06 -1.163871E+04  9.662788E+03
        16  22 -5.241360E+06 -7.504057E+05 -5.023369E+03 -1.983040E+06 -4.508863E+03  1.044550E+04
        16  23 -5.251663E+06 -7.396154E+05 -6.464047E+03 -1.971404E+06 -8.231516E+03  1.047831E+04
        16  24 -5.241605E+06 -7.520813E+05 -1.081204E+04 -1.982412E+06 -1.163791E+04  9.664055E+03
        16  25 -5.787645E+06 -9.567686E+05 -1.541881E+05 -2.130956E+06 -4.023029E+03  1.062837E+04
        16  26 -5.819582E+06 -9.546833E+05 -1.614717E+05 -2.125766E+06 -7.988329E+03  1.057054E+04
        16  27 -5.831206E+06 -9.759059E+05 -1.718585E+05 -2.143221E+06 -1.163709E+04  9.665323E+03
        17   1 -4.638855E+06 -5.134716E+05  1.526279E+05 -1.811271E+06  1.385595E+04 -9.007999E+03
        17   2 -4.642633E+06 -5.172513E+05  1.403240E+05 -1.816887E+06  2.562062E+04 -4.669568E+03
        17   3 -4.662327E+06 -5.307573E+05  1.144792E+05 -1.807762E+06  3.703404E+04  5.955613E+02
        17   4 -5.248882E+06 -7.434980E+05 -1.363244E+04 -1.976215E+06  1.369095E+04 -9.071154E+03
        17   5 -5.241886E+06 -7.453032E+05 -2.335470E+04 -1.981067E+06  2.571351E+04 -4.635505E+03
        17   6 -5.250867E+06 -7.568980E+05 -4.683372E+04 -1.971176E+06  3.738488E+04  7.272555E+02
        17   7 -5.858549E+06 -9.735037E+05 -1.799265E+05 -2.141012E+06  1.352611E+04 -9.134245E+03
        17   8 -5.840791E+06 -9.733333E+05 -1.870660E+05 -2.145103E+06  2.580630E+04 -4.601484E+03
        17   9 -5.839070E+06 -9.830157E+05 -2.081781E+05 -2.134449E+06  3.773534E+04  8.588003E+02
        17  10 -4.638855E+06 -5.134717E+05  1.526274E+05 -1.811271E+06 -1.582920E-09 -8.469520E-10
        17  11 -4.642634E+06 -5.172515E+05  1.403227E+05 -1.816887E+06 -4.022626E-09  7.565635E-10
        17  12 -4.662328E+06 -5.307577E+05  1.144766E+05 -1.807762E+06 -2.494924E-09  7.585144E-10
        17  13 -5.248882E+06 -7.434981E+05 -1.363295E+04 -1.976215E+06 -2.320092E-09  7.845413E-10
        17  14 -5.241887E+06 -7.453034E+05 -2.335599E+04 -1.981067E+06  1.200186E-09  4.248377E-10
        17  15 -5.250868E+06 -7.568984E+05 -4.683637E+04 -1.971176E+06 -3.193561E-09  1.498444E-09
        17  16 -5.858549E+06 -9.735039E+05 -1.799270E+05 -2.141012E+06  2.345769E-09  1.609744E-09
        17  17 -5.840792E+06 -9.733335E+05 -1.870673E+05 -2.145103E+06  5.095213E-09 -9.901714E-10
        17  18 -5.839072E+06 -9.830161E+05 -2.081808E+05 -2.134449E+06  2.610712E-09  8.563880E-10
        17  19 -4.638855E+06 -5.134716E+05  1.526279E+05 -1.811271E+06 -1.385595E+04  9.007999E+03
        17  20 -4.642633E+06 -5.172513E+05  1.403240E+05 -1.816887E+06 -2.562062E+04  4.669568E+03
        17  21 -4.662327E+06 -5.307573E+05  1.144792E+05 -1.807762E+06 -3.703404E+04 -5.955613E+02
        17  22 -5.248882E+06 -7.434980E+05 -1.363244E+04 -1.976215E+06 -1.369095E+04  9.071154E+03
        17  23 -5.241886E+06 -7.453032E+05 -2.335470E+04 -1.981067E+06 -2.571351E+04  4.635505E+03
        17  24 -5.250867E+06 -7.568980E+05 -4.683372E+04 -1.971176E+06 -3.738488E+04 -7.272555E+02
        17  25 -5.858549E+06 -9.735037E+05 -1.799265E+05 -2.141012E+06 -1.352611E+04  9.134245E+03
        17  26 -5.840791E+06 -9.733333E+05 -1.870660E+05 -2.145103E+06 -2.580630E+04  4.601484E+03
        17  27 -5.839070E+06 -9.830157E+05 -2.081781E+05 -2.134449E+06 -3.773534E+04 -8.588003E+02
        18   1 -4.735202E+06 -5.440687E+05  8.289694E+04 -1.838701E+06  4.565679E+04  4.503071E+03
        18   2 -4.743946E+06 -5.475702E+05  3.188332E+04 -1.856650E+06  9.757158E+04  2.545601E+04
        18   3 -4.846705E+06 -6.520867E+05 -9.570469E+04 -1.798779E+06  1.491102E+05  4.738024E+04
        18   4 -5.262085E+06 -7.351846E+05 -5.910413E+04 -1.973500E+06  4.581653E+04  4.563608E+03
        18   5 -5.222408E+06 -7.344265E+05 -9.975356E+04 -1.992574E+06  9.797397E+04  2.560720E+04
        18   6 -5.276837E+06 -8.347949E+05 -2.172133E+05 -1.935814E+06  1.497596E+05  4.762112E+04
        18   7 -5.788701E+06 -9.262905E+05 -2.011300E+05 -2.108198E+06  4.597609E+04  4.624088E+03
        18   8 -5.700650E+06 -9.212660E+05 -2.314117E+05 -2.128402E+06  9.837598E+04  2.575823E+04
        18   9 -5.706789E+06 -1.017479E+06 -3.387398E+05 -2.072757E+06  1.504084E+05  4.786174E+04
        18  10 -4.735204E+06 -5.440693E+05  8.289295E+04 -1.838702E+06 -4.398481E-10  9.919060E-10
        18  11 -4.743956E+06 -5.475735E+05  3.186405E+04 -1.856652E+06 -2.170730E-09  4.729304E-10
        18  12 -4.846730E+06 -6.520951E+05 -9.575111E+04 -1.798785E+06  2.550896E-10 -2.673447E-09
        18  13 -5.262088E+06 -7.351852E+05 -5.910815E+04 -1.973500E+06  1.937390E-09  3.307291E-10
        18  14 -5.222419E+06 -7.344298E+05 -9.977302E+04 -1.992576E+06 -3.124548E-09 -5.963166E-10
        18  15 -5.276862E+06 -8.348034E+05 -2.172602E+05 -1.935819E+06  2.492602E-09 -1.648708E-09
        18  16 -5.788704E+06 -9.262911E+05 -2.011341E+05 -2.108198E+06 -2.046383E-09 -6.294402E-10
        18  17 -5.700660E+06 -9.212693E+05 -2.314313E+05 -2.128404E+06 -1.245396E-09 -1.167486E-09
        18  18 -5.706814E+06 -1.017488E+06 -3.387871E+05 -2.072763E+06 -1.781183E-09  6.613322E-10
        18  19 -4.735202E+06 -5.440687E+05  8.289694E+04 -1.838701E+06 -4.565679E+04 -4.503071E+03
        18  20 -4.743946E+06 -5.475702E+05  3.188332E+04 -1.856650E+06 -9.757158E+04 -2.545601E+04
        18  21 -4.846705E+06 -6.520867E+05 -9.570469E+04 -1.798779E+06 -1.491102E+05 -4.738024E+04
        18  22 -5.262085E+06 -7.351846E+05 -5.910413E+04 -1.973500E+06 -4.581653E+04 -4.563608E+03
        18  23 -5.222408E+06 -7.344265E+05 -9.975356E+04 -1.992574E+06 -9.797397E+04 -2.560720E+04
        18  24 -5.276837E+06 -8.347949E+05 -2.172133E+05 -1.935814E+06 -1.497596E+05 -4.762112E+04
        18  25 -5.788701E+06 -9.262905E+05 -2.011300E+05 -2.108198E+06 -4.597609E+04 -4.624088E+03
        18  26 -5.700650E+06 -9.212660E+05 -2.314117E+05 -2.128402E+06 -9.837598E+04 -2.575823E+04
        18  27 -5.706789E+06 -1.017479E+06 -3.387398E+05 -2.072757E+06 -1.504084E+05 -4.786174E+04
        19   1 -4.963234E+06 -6.474665E+05 -1.822432E+05 -1.970071E+06  1.882382E+05  6.334189E+04
        19   2 -4.918285E+06 -4.845350E+05 -3.572903E+05 -1.923240E+06  4.202465E+05  1.539451E+05
        19   3 -5.340081E+06 -1.271563E+06 -9.827073E+05 -1.551054E+06  6.514073E+05  2.467353E+05
        19   4 -5.314234E+06 -7.136877E+05 -2.646326E+05 -1.998036E+06  1.884443E+05  6.344543E+04
        19   5 -5.135002E+06 -6.053909E+05 -4.240550E+05 -2.021451E+06  4.209950E+05  1.541976E+05
        19   6 -5.422790E+06 -1.447404E+06 -1.034386E+06 -1.719429E+06  6.527541E+05  2.470588E+05
        19   7 -5.665105E+06 -7.799104E+05 -3.470274E+05 -2.025996E+06  1.886501E+05  6.354899E+04
        19   8 -5.351670E+06 -7.262246E+05 -4.908240E+05 -2.119626E+06  4.217433E+05  1.544499E+05
        19   9 -5.505443E+06 -1.623119E+06 -1.086055E+06 -1.887763E+06  6.541008E+05  2.473813E+05
        19  10 -4.963274E+06 -6.474804E+05 -1.823180E+05 -1.970081E+06  1.330189E-09 -1.041617E-09
        19  11 -4.918482E+06 -4.846086E+05 -3.576702E+05 -1.923292E+06 -2.737449E-09  8.503421E-10
        19  12 -5.340556E+06 -1.271745E+06 -9.836277E+05 -1.551184E+06  8.567997E-11 -5.061066E-10
        19  13 -5.314273E+06 -7.137017E+05 -2.647077E+05 -1.998045E+06 -1.606675E-11 -2.518798E-10
        19  14 -5.135201E+06 -6.054648E+05 -4.244364E+05 -2.021504E+06 -4.654405E-09  6.344388E-09
        19  15 -5.423268E+06 -1.447586E+06 -1.035311E+06 -1.719560E+06 -1.818480E-09 -1.289018E-09
        19  16 -5.665145E+06 -7.799245E+05 -3.471026E+05 -2.026006E+06 -3.275071E-09  1.410428E-09
        19  17 -5.351869E+06 -7.262988E+05 -4.912069E+05 -2.119679E+06 -3.393867E-10 -5.917584E-10
        19  18 -5.505922E+06 -1.623302E+06 -1.086983E+06 -1.887894E+06 -1.492778E-09 -5.371540E-10
        19  19 -4.963234E+06 -6.474665E+05 -1.822432E+05 -1.970071E+06 -1.882382E+05 -6.334189E+04
        19  20 -4.918285E+06 -4.845350E+05 -3.572903E+05 -1.923240E+06 -4.202465E+05 -1.539451E+05
        19  21 -5.340081E+06 -1.271563E+06 -9.827073E+05 -1.551054E+06 -6.514073E+05 -2.467353E+05
        19  22 -5.314234E+06 -7.136877E+05 -2.646326E+05 -1.998036E+06 -1.884443E+05 -6.344543E+04
        19  23 -5.135002E+06 -6.053909E+05 -4.240550E+05 -2.021451E+06 -4.209950E+05 -1.541976E+05
        19  24 -5.422790E+06 -1.447404E+06 -1.034386E+06 -1.719429E+06 -6.527541E+05 -2.470588E+05
        19  25 -5.665105E+06 -7.799104E+05 -3.470274E+05 -2.025996E+06 -1.886501E+05 -6.354899E+04
        19  26 -5.351670E+06 -7.262246E+05 -4.908240E+05 -2.119626E+06 -4.217433E+05 -1.544499E+05
        19  27 -5.505443E+06 -1.623119E+06 -1.086055E+06 -1.887763E+06 -6.541008E+05 -2.473813E+05
        20   1 -2.242218E+06  2.080109E+04  2.688626E+04  4.016428E+03  1.832985E+04  1.189957E-01
        20   2 -2.246209E+06 -4.279807E+03  1.155904E+04  1.062834E+03  1.203966E+04  2.068299E-02
        20   3 -2.242243E+06 -8.435817E+02  7.467465E+03 -1.890699E+03  5.749544E+03 -1.757061E-02
        20   4 -2.242218E+06  2.080106E+04  2.688626E+04 -4.933237E-09  1.832985E+04 -6.502206E-10
        20   5 -2.246209E+06 -4.279810E+03  1.155904E+04  2.314201E-08  1.203966E+04 -1.683959E-09
        20   6 -2.242243E+06 -8.435884E+02  7.467464E+03  3.507789E-08  5.749544E+03 -1.624023E-10
        20   7 -2.242218E+06  2.080109E+04  2.688626E+04 -4.016428E+03  1.832985E+04 -1.189957E-01
        20   8 -2.246209E+06 -4.279807E+03  1.155904E+04 -1.062834E+03  1.203966E+04 -2.068299E-02
        20   9 -2.242243E+06 -8.435817E+02  7.467465E+03  1.890699E+03  5.749544E+03  1.757061E-02
        20  10 -2.242218E+06  2.080100E+04  2.688563E+04  4.016428E+03 -2.084051E-09 -1.174618E-10
        20  11 -2.246209E+06 -4.279846E+03  1.155876E+04  1.062834E+03  2.357213E-09 -3.602092E-11
        20  12 -2.242243E+06 -8.435906E+02  7.467402E+03 -1.890699E+03 -7.337521E-10  5.287242E-10
        20  13 -2.242218E+06  2.080097E+04  2.688562E+04 -4.957374E-09  2.367838E-10 -2.213761E-10
        20  14 -2.246209E+06 -4.279849E+03  1.155876E+04 -6.984651E-09 -4.304043E-09 -4.465979E-10
        20  15 -2.242243E+06 -8.435973E+02  7.467401E+03 -2.623187E-08 -1.478824E-09  1.593939E-10
        20  16 -2.242218E+06  2.080100E+04  2.688563E+04 -4.016428E+03  6.184564E-10 -3.242422E-10
        20  17 -2.246209E+06 -4.279846E+03  1.155876E+04 -1.062834E+03  1.327990E-09 -8.763094E-10
        20  18 -2.242243E+06 -8.435906E+02  7.467402E+03  1.890699E+03  2.693644E-09 -2.543110E-10
        20  19 -2.242218E+06  2.080109E+04  2.688626E+04  4.016428E+03 -1.832985E+04 -1.189957E-01
        20  20 -2.246209E+06 -4.279807E+03  1.155904E+04  1.062834E+03 -1.203966E+04 -2.068299E-02
        20  21 -2.242243E+06 -8.435817E+02  7.467465E+03 -1.890699E+03 -5.749544E+03  1.757061E-02
        20  22 -2.242218E+06  2.080106E+04  2.688626E+04  2.086784E-08 -1.832985E+04  2.577742E-10
        20  23 -2.246209E+06 -4.279810E+03  1.155904E+04  4.036626E-08 -1.203966E+04  7.591815E-10
        20  24 -2.242243E+06 -8.435884E+02  7.467464E+03  7.815764E-08 -5.749544E+03  3.941073E-10
        20  25 -2.242218E+06  2.080109E+04  2.688626E+04 -4.016428E+03 -1.832985E+04  1.189957E-01
        20  26 -2.246209E+06 -4.279807E+03  1.155904E+04 -1.062834E+03 -1.203966E+04  2.068299E-02
        20  27 -2.242243E+06 -8.435817E+02  7.467465E+03  1.890699E+03 -5.749544E+03 -1.757061E-02
        21   1 -2.243743E+06  2.840761E+03  6.152127E+03  5.162041E+02  4.540335E+03  3.788275E-03
        21   2 -2.244335E+06 -5.879636E+02  2.990718E+03  1.249243E+02  2.984258E+03  6.025818E-04
        21   3 -2.243747E+06 -1.129499E+02  1.821103E+03 -2.663612E+02  1.428160E+03 -6.148644E-04
        21   4 -2.243743E+06  2.840760E+03  6.152127E+03  1.053204E-08  4.540335E+03  3.701592E-10
        21   5 -2.244335E+06 -5.879637E+02  2.990718E+03  2.820439E-08  2.984258E+03  5.648053E-11
        21   6 -2.243747E+06 -1.129501E+02  1.821103E+03  3.912816E-09  1.428160E+03  1.904634E-09
        21   7 -2.243743E+06  2.840761E+03  6.152127E+03 -5.162041E+02  4.540335E+03 -3.788274E-03
        21   8 -2.244335E+06 -5.879636E+02  2.990718E+03 -1.249243E+02  2.984258E+03 -6.025820E-04
        21   9 -2.243747E+06 -1.129499E+02  1.821103E+03  2.663612E+02  1.428160E+03  6.148647E-04
        21  10 -2.243743E+06  2.840755E+03  6.152088E+03  5.162041E+02  3.828318E-09  6.590589E-11
        21  11 -2.244335E+06 -5.879660E+02  2.990701E+03  1.249243E+02 -2.741751E-10 -6.431411E-10
        21  12 -2.243747E+06 -1.129505E+02  1.821099E+03 -2.663612E+02 -8.008872E-10  7.139552E-10
        21  13 -2.243743E+06  2.840755E+03  6.152088E+03  2.770709E-08  4.730413E-10 -1.141355E-11
        21  14 -2.244335E+06 -5.879661E+02  2.990701E+03 -1.052733E-08  2.642935E-10 -5.005398E-10
        21  15 -2.243747E+06 -1.129506E+02  1.821099E+03  2.871643E-08 -1.092459E-09  8.509373E-10
        21  16 -2.243743E+06  2.840755E+03  6.152088E+03 -5.162041E+02 -1.399154E-09  2.506409E-10
        21  17 -2.244335E+06 -5.879660E+02  2.990701E+03 -1.249243E+02 -3.745493E-09 -4.891912E-10
        21  18 -2.243747E+06 -1.129505E+02  1.821099E+03  2.663612E+02  6.964401E-11  6.372703E-10
        21  19 -2.243743E+06  2.840761E+03  6.152127E+03  5.162041E+02 -4.540335E+03 -3.788275E-03
        21  20 -2.244335E+06 -5.879636E+02  2.990718E+03  1.249243E+02 -2.984258E+03 -6.025816E-04
        21  21 -2.243747E+06 -1.129499E+02  1.821103E+03 -2.663612E+02 -1.428160E+03  6.148654E-04
        21  22 -2.243743E+06  2.840760E+03  6.152127E+03  1.046170E-08 -4.540335E+03 -5.540836E-10
        21  23 -2.244335E+06 -5.879637E+02  2.990718E+03 -4.064267E-08 -2.984258E+03 -1.018489E-09
        21  24 -2.243747E+06 -1.129501E+02  1.821103E+03  2.232028E-08 -1.428160E+03 -1.387653E-10
        21  25 -2.243743E+06  2.840761E+03  6.152127E+03 -5.162041E+02 -4.540335E+03  3.788275E-03
        21  26 -2.244335E+06 -5.879636E+02  2.990718E+03 -1.249243E+02 -2.984258E+03  6.025808E-04
        21  27 -2.243747E+06 -1.129499E+02  1.821103E+03  2.663612E+02 -1.428160E+03 -6.148651E-04
        22   1 -2.243968E+06  3.851001E+02  1.440033E+03  6.158674E+01  1.136301E+03  1.131150E-04
        22   2 -2.244059E+06 -8.012784E+01  7.336491E+02  1.162634E+01  7.633937E+02  1.434709E-05
        22   3 -2.243969E+06 -1.658303E+01  4.028978E+02 -3.833406E+01  3.904866E+02 -2.419485E-05
        22   4 -2.243968E+06  3.851001E+02  1.440033E+03  2.603108E-08  1.136301E+03  1.465947E-09
        22   5 -2.244059E+06 -8.012784E+01  7.336491E+02  5.649049E-08  7.633937E+02 -6.760187E-10
        22   6 -2.243969E+06 -1.658303E+01  4.028978E+02  4.282765E-08  3.904866E+02 -8.867824E-10
        22   7 -2.243968E+06  3.851001E+02  1.440033E+03 -6.158674E+01  1.136301E+03 -1.131124E-04
        22   8 -2.244059E+06 -8.012784E+01  7.336491E+02 -1.162634E+01  7.633937E+02 -1.434686E-05
        22   9 -2.243969E+06 -1.658303E+01  4.028978E+02  3.833406E+01  3.904866E+02  2.419410E-05
        22  10 -2.243968E+06  3.850997E+02  1.440031E+03  6.158674E+01 -2.120346E-09  6.819734E-10
        22  11 -2.244059E+06 -8.012800E+01  7.336480E+02  1.162634E+01 -1.051605E-09 -6.769668E-10
        22  12 -2.243969E+06 -1.658307E+01  4.028975E+02 -3.833406E+01 -2.670071E-09  1.616336E-10
        22  13 -2.243968E+06  3.850997E+02  1.440031E+03  4.319983E-08 -4.236814E-09  6.716822E-10
        22  14 -2.244059E+06 -8.012800E+01  7.336480E+02  3.927555E-08 -2.619391E-09 -6.166774E-10
        22  15 -2.243969E+06 -1.658307E+01  4.028975E+02  1.814790E-08 -2.282550E-09  4.659556E-10
        22  16 -2.243968E+06  3.850997E+02  1.440031E+03 -6.158674E+01 -2.590709E-10  7.324958E-10
        22  17 -2.244059E+06 -8.012800E+01  7.336480E+02 -1.162634E+01 -1.100396E-09 -7.887875E-10
        22  18 -2.243969E+06 -1.658307E+01  4.028975E+02  3.833406E+01  2.240092E-09  3.367973E-10
        22  19 -2.243968E+06  3.851001E+02  1.440033E+03  6.158674E+01 -1.136301E+03 -1.131124E-04
        22  20 -2.244059E+06 -8.012784E+01  7.336491E+02  1.162634E+01 -7.633937E+02 -1.434568E-05
        22  21 -2.243969E+06 -1.658303E+01  4.028978E+02 -3.833406E+01 -3.904866E+02  2.419661E-05
        22  22 -2.243968E+06  3.851001E+02  1.440033E+03  4.313894E-08 -1.136301E+03 -2.281269E-10
        22  23 -2.244059E+06 -8.012784E+01  7.336491E+02  4.787725E-08 -7.633937E+02 -8.360296E-10
        22  24 -2.243969E+06 -1.658303E+01  4.028978E+02  1.387959E-08 -3.904866E+02  1.847247E-09
        22  25 -2.243968E+06  3.851001E+02  1.440033E+03 -6.158674E+01 -1.136301E+03  1.131120E-04
        22  26 -2.244059E+06 -8.012784E+01  7.336491E+02 -1.162634E+01 -7.633937E+02  1.434385E-05
        22  27 -2.243969E+06 -1.658303E+01  4.028978E+02  3.833406E+01 -3.904866E+02 -2.419303E-05
        23   1 -2.244006E+06  5.192669E+01  2.870445E+02  4.247734E+00  3.284855E+02  2.256829E-06
        23   2 -2.244015E+06 -7.537522E+00  8.025631E+01 -3.361950E-01  2.878611E+02 -1.544495E-07
        23   3 -2.244006E+06 -1.737150E+01 -8.760600E+01 -4.920057E+00  2.472373E+02 -1.965642E-06
        23   4 -2.244006E+06  5.192669E+01  2.870445E+02  7.870235E-09  3.284855E+02  5.526850E-10
        23   5 -2.244015E+06 -7.537522E+00  8.025631E+01  3.729288E-08  2.878611E+02  1.491603E-09
        23   6 -2.244006E+06 -1.737150E+01 -8.760600E+01  1.291133E-08  2.472373E+02 -1.258508E-10
        23   7 -2.244006E+06  5.192669E+01  2.870445E+02 -4.247734E+00  3.284855E+02 -2.256468E-06
        23   8 -2.244015E+06 -7.537522E+00  8.025631E+01  3.361950E-01  2.878611E+02  1.565510E-07
        23   9 -2.244006E+06 -1.737150E+01 -8.760600E+01  4.920057E+00  2.472373E+02  1.965208E-06
        23  10 -2.244006E+06  5.192666E+01  2.870443E+02  4.247734E+00  3.039809E-11  8.882353E-10
        23  11 -2.244015E+06 -7.537544E+00  8.025615E+01 -3.361950E-01  2.234072E-10  1.120373E-10
        23  12 -2.244006E+06 -1.737151E+01 -8.760612E+01 -4.920057E+00 -1.686072E-09  6.237898E-10
        23  13 -2.244006E+06  5.192666E+01  2.870443E+02  2.507048E-08 -4.743309E-09  8.597276E-10
        23  14 -2.244015E+06 -7.537544E+00  8.025615E+01  2.868068E-08 -6.366943E-10  9.324349E-11
        23  15 -2.244006E+06 -1.737151E+01 -8.760612E+01  6.460579E-09 -3.447329E-09 -7.928249E-12
        23  16 -2.244006E+06  5.192666E+01  2.870443E+02 -4.247734E+00 -7.594745E-10  1.236208E-09
        23  17 -2.244015E+06 -7.537544E+00  8.025615E+01  3.361952E-01 -1.431696E-09 -3.280897E-10
        23  18 -2.244006E+06 -1.737151E+01 -8.760612E+01  4.920057E+00 -1.482002E-10 -4.505282E-12
        23  19 -2.244006E+06  5.192669E+01  2.870445E+02  4.247734E+00 -3.284855E+02 -2.254322E-06
        23  20 -2.244015E+06 -7.537522E+00  8.025631E+01 -3.361951E-01 -2.878611E+02  1.555444E-07
        23  21 -2.244006E+06 -1.737150E+01 -8.760600E+01 -4.920057E+00 -2.472373E+02  1.966228E-06
        23  22 -2.244006E+06  5.192669E+01  2.870445E+02  7.821942E-09 -3.284855E+02  1.374573E-09
        23  23 -2.244015E+06 -7.537522E+00  8.025631E+01  2.005903E-08 -2.878611E+02 -1.501098E-09
        23  24 -2.244006E+06 -1.737150E+01 -8.760600E+01 -2.796407E-08 -2.472373E+02  1.429298E-10
        23  25 -2.244006E+06  5.192669E+01  2.870445E+02 -4.247734E+00 -3.284855E+02  2.256906E-06
        23  26 -2.244015E+06 -7.537522E+00  8.025631E+01  3.361952E-01 -2.878611E+02 -1.581582E-07
        23  27 -2.244006E+06 -1.737150E+01 -8.760600E+01  4.920057E+00 -2.472373E+02 -1.966962E-06
        24   1 -2.244024E+06  1.089336E+01 -1.737575E+02 -1.272144E+01  2.708047E+02 -5.568419E-06
        24   2 -2.243992E+06  2.406374E+01 -3.966455E+02  4.637481E-01  4.697646E+02  3.510091E-07
        24   3 -2.244025E+06 -1.198185E+02 -7.886780E+02  1.364914E+01  6.687274E+02  1.475548E-05
        24   4 -2.244024E+06  1.089336E+01 -1.737575E+02  8.488757E-09  2.708047E+02 -1.008061E-09
        24   5 -2.243992E+06  2.406374E+01 -3.966455E+02  3.376694E-09  4.697646E+02 -4.656483E-10
        24   6 -2.244025E+06 -1.198185E+02 -7.886780E+02  4.237748E-08  6.687274E+02  1.366733E-09
        24   7 -2.244024E+06  1.089336E+01 -1.737575E+02  1.272144E+01  2.708047E+02  5.567539E-06
        24   8 -2.243992E+06  2.406374E+01 -3.966455E+02 -4.637482E-01  4.697646E+02 -3.531968E-07
        24   9 -2.244025E+06 -1.198185E+02 -7.886780E+02 -1.364914E+01  6.687274E+02 -1.475281E-05
        24  10 -2.244024E+06  1.089334E+01 -1.737577E+02 -1.272144E+01  1.243648E-09  7.806751E-11
        24  11 -2.243992E+06  2.406368E+01 -3.966459E+02  4.637480E-01  1.398173E-09 -3.346990E-10
        24  12 -2.244025E+06 -1.198186E+02 -7.886788E+02  1.364914E+01  4.679651E-11 -3.846927E-10
        24  13 -2.244024E+06  1.089334E+01 -1.737577E+02  8.487708E-09 -2.219188E-09  2.377665E-10
        24  14 -2.243992E+06  2.406368E+01 -3.966459E+02  1.198154E-08  2.619462E-09  1.865952E-11
        24  15 -2.244025E+06 -1.198186E+02 -7.886788E+02 -6.042520E-09 -2.172520E-10 -6.493820E-11
        24  16 -2.244024E+06  1.089334E+01 -1.737577E+02  1.272144E+01 -2.747651E-10  2.647169E-10
        24  17 -2.243992E+06  2.406368E+01 -3.966459E+02 -4.637481E-01 -1.538880E-09  4.714216E-10
        24  18 -2.244025E+06 -1.198186E+02 -7.886788E+02 -1.364914E+01 -1.703946E-09  1.127268E-10
        24  19 -2.244024E+06  1.089336E+01 -1.737575E+02 -1.272144E+01 -2.708047E+02  5.569378E-06
        24  20 -2.243992E+06  2.406374E+01 -3.966455E+02  4.637481E-01 -4.697646E+02 -3.509722E-07
        24  21 -2.244025E+06 -1.198185E+02 -7.886780E+02  1.364914E+01 -6.687274E+02 -1.475463E-05
        24  22 -2.244024E+06  1.089336E+01 -1.737575E+02 -1.171422E-10 -2.708047E+02  1.432064E-09
        24  23 -2.243992E+06  2.406374E+01 -3.966455E+02 -4.827761E-08 -4.697646E+02  8.665773E-10
        24  24 -2.244025E+06 -1.198185E+02 -7.886780E+02  2.192928E-08 -6.687274E+02 -1.532864E-09
        24  25 -2.244024E+06  1.089336E+01 -1.737575E+02  1.272144E+01 -2.708047E+02 -5.567087E-06
        24  26 -2.243992E+06  2.406374E+01 -3.966455E+02 -4.637482E-01 -4.697646E+02  3.528600E-07
        24  27 -2.244025E+06 -1.198185E+02 -7.886780E+02 -1.364914E+01 -6.687274E+02  1.475053E-05
        25   1 -2.244105E+06  3.490848E+01 -1.029043E+03 -8.864589E+01  8.321685E+02 -1.192327E-04
        25   2 -2.243893E+06  1.870893E+02 -1.757241E+03  2.754886E+01  1.724698E+03  7.679628E-05
        25   3 -2.244107E+06 -8.949110E+02 -3.376635E+03  1.437437E+02  2.617228E+03  6.080831E-04
        25   4 -2.244105E+06  3.490846E+01 -1.029043E+03  3.489655E-08  8.321685E+02  9.066628E-10
        25   5 -2.243893E+06  1.870893E+02 -1.757241E+03  2.104793E-08  1.724698E+03 -1.338938E-09
        25   6 -2.244107E+06 -8.949111E+02 -3.376635E+03  1.042626E-08  2.617228E+03  9.961648E-10
        25   7 -2.244105E+06  3.490848E+01 -1.029043E+03  8.864589E+01  8.321685E+02  1.192337E-04
        25   8 -2.243893E+06  1.870893E+02 -1.757241E+03 -2.754886E+01  1.724698E+03 -7.679977E-05
        25   9 -2.244107E+06 -8.949110E+02 -3.376635E+03 -1.437437E+02  2.617228E+03 -6.080816E-04
        25  10 -2.244105E+06  3.490829E+01 -1.029044E+03 -8.864589E+01  7.331610E-10  1.971887E-10
        25  11 -2.243893E+06  1.870884E+02 -1.757246E+03  2.754886E+01  4.072208E-09 -3.756350E-10
        25  12 -2.244107E+06 -8.949129E+02 -3.376648E+03  1.437437E+02  2.104782E-09 -4.377719E-10
        25  13 -2.244105E+06  3.490828E+01 -1.029044E+03  1.767109E-08  2.624816E-09 -3.006903E-10
        25  14 -2.243893E+06  1.870884E+02 -1.757246E+03 -1.767130E-08 -4.056288E-10 -4.635505E-10
        25  15 -2.244107E+06 -8.949129E+02 -3.376648E+03 -2.073996E-08 -3.113734E-09  5.160311E-10
        25  16 -2.244105E+06  3.490829E+01 -1.029044E+03  8.864589E+01  1.435634E-09 -3.919243E-10
        25  17 -2.243893E+06  1.870884E+02 -1.757246E+03 -2.754886E+01  3.178241E-09 -4.885696E-11
        25  18 -2.244107E+06 -8.949129E+02 -3.376648E+03 -1.437437E+02 -3.581992E-10  1.108304E-09
        25  19 -2.244105E+06  3.490848E+01 -1.029043E+03 -8.864589E+01 -8.321685E+02  1.192337E-04
        25  20 -2.243893E+06  1.870893E+02 -1.757241E+03  2.754886E+01 -1.724698E+03 -7.679529E-05
        25  21 -2.244107E+06 -8.949110E+02 -3.376635E+03  1.437437E+02 -2.617228E+03 -6.080830E-04
        25  22 -2.244105E+06  3.490846E+01 -1.029043E+03  1.765325E-08 -8.321685E+02 -1.707464E-09
        25  23 -2.243893E+06  1.870893E+02 -1.757241E+03 -4.750890E-09 -1.724698E+03  9.368483E-10
        25  24 -2.244107E+06 -8.949111E+02 -3.376635E+03  1.803805E-08 -2.617228E+03  2.591587E-10
        25  25 -2.244105E+06  3.490848E+01 -1.029043E+03  8.864589E+01 -8.321685E+02 -1.192359E-04
        25  26 -2.243893E+06  1.870893E+02 -1.757241E+03 -2.754886E+01 -1.724698E+03  7.679743E-05
        25  27 -2.244107E+06 -8.949110E+02 -3.376635E+03 -1.437437E+02 -2.617228E+03  6.080818E-04
        26   1 -2.244620E+06  2.621062E+02 -4.254952E+03 -6.188072E+02  3.300268E+03 -3.300933E-03
        26   2 -2.243253E+06  1.366546E+03 -6.963041E+03  2.904898E+02  6.922968E+03  3.250532E-03
        26   3 -2.244630E+06 -6.601917E+03 -1.430424E+04  1.199773E+03  1.054561E+04  2.045044E-02
        26   4 -2.244620E+06  2.621055E+02 -4.254952E+03  3.759255E-08  3.300268E+03  1.198916E-09
        26   5 -2.243253E+06  1.366546E+03 -6.963041E+03  7.210426E-09  6.922968E+03 -8.949542E-10
        26   6 -2.244630E+06 -6.601920E+03 -1.430424E+04  6.183229E-08  1.054561E+04 -2.789436E-10
        26   7 -2.244620E+06  2.621062E+02 -4.254952E+03  6.188072E+02  3.300268E+03  3.300935E-03
        26   8 -2.243253E+06  1.366546E+03 -6.963041E+03 -2.904898E+02  6.922968E+03 -3.250535E-03
        26   9 -2.244630E+06 -6.601917E+03 -1.430424E+04 -1.199773E+03  1.054561E+04 -2.045044E-02
        26  10 -2.244620E+06  2.621033E+02 -4.254973E+03 -6.188072E+02  1.201807E-09  2.103318E-10
        26  11 -2.243253E+06  1.366533E+03 -6.963131E+03  2.904898E+02 -1.121649E-09  7.238925E-11
        26  12 -2.244630E+06 -6.601947E+03 -1.430445E+04  1.199773E+03  7.055905E-10  1.334098E-10
        26  13 -2.244620E+06  2.621026E+02 -4.254973E+03  2.033347E-08  2.252775E-09  4.170337E-10
        26  14 -2.243253E+06  1.366533E+03 -6.963132E+03 -2.722906E-08 -2.652629E-10 -5.830232E-10
        26  15 -2.244630E+06 -6.601950E+03 -1.430445E+04 -2.528696E-08 -8.426457E-11  1.612617E-10
        26  16 -2.244620E+06  2.621033E+02 -4.254973E+03  6.188072E+02 -2.336593E-09  9.606938E-10
        26  17 -2.243253E+06  1.366533E+03 -6.963131E+03 -2.904898E+02 -6.637338E-10 -5.670456E-10
        26  18 -2.244630E+06 -6.601947E+03 -1.430445E+04 -1.199773E+03  1.967369E-09  3.230967E-10
        26  19 -2.244620E+06  2.621062E+02 -4.254952E+03 -6.188072E+02 -3.300268E+03  3.300933E-03
        26  20 -2.243253E+06  1.366546E+03 -6.963041E+03  2.904898E+02 -6.922968E+03 -3.250533E-03
        26  21 -2.244630E+06 -6.601917E+03 -1.430424E+04  1.199773E+03 -1.054561E+04 -2.045044E-02
        26  22 -2.244620E+06  2.621055E+02 -4.254952E+03  4.611657E-08 -3.300268E+03 -3.907116E-10
        26  23 -2.243253E+06  1.366546E+03 -6.963041E+03 -1.431910E-08 -6.922968E+03  1.690744E-10
        26  24 -2.244630E+06 -6.601920E+03 -1.430424E+04  3.499843E-08 -1.054561E+04  5.144417E-10
        26  25 -2.244620E+06  2.621062E+02 -4.254952E+03  6.188072E+02 -3.300268E+03 -3.300935E-03
        26  26 -2.243253E+06  1.366546E+03 -6.963041E+03 -2.904898E+02 -6.922968E+03  3.250532E-03
        26  27 -2.244630E+06 -6.601917E+03 -1.430424E+04 -1.199773E+03 -1.054561E+04  2.045044E-02
        27   1 -2.248116E+06  1.960571E+03 -1.735883E+04 -4.393920E+03  1.335666E+04 -9.486028E-02
        27   2 -2.238898E+06  9.946388E+03 -2.686293E+04  2.470178E+03  2.797633E+04  1.116984E-01
        27   3 -2.248173E+06 -4.834135E+04 -6.247835E+04  9.334287E+03  4.259628E+04  6.426647E-01
        27   4 -2.248116E+06  1.960534E+03 -1.735884E+04  3.612890E-08  1.335666E+04  9.217701E-10
        27   5 -2.238898E+06  9.946377E+03 -2.686293E+04  8.307028E-09  2.797633E+04  8.016598E-10
        27   6 -2.248173E+06 -4.834151E+04 -6.247837E+04  3.643569E-08  4.259628E+04  1.678699E-10
        27   7 -2.248116E+06  1.960571E+03 -1.735883E+04  4.393920E+03  1.335666E+04  9.486029E-02
        27   8 -2.238898E+06  9.946388E+03 -2.686293E+04 -2.470178E+03  2.797633E+04 -1.116984E-01
        27   9 -2.248173E+06 -4.834135E+04 -6.247835E+04 -9.334287E+03  4.259628E+04 -6.426647E-01
        27  10 -2.248116E+06  1.960523E+03 -1.735917E+04 -4.393920E+03 -6.170629E-11  3.905521E-10
        27  11 -2.238899E+06  9.946177E+03 -2.686440E+04  2.470178E+03  1.073849E-09  1.414556E-10
        27  12 -2.248175E+06 -4.834184E+04 -6.248177E+04  9.334287E+03  4.350228E-10  4.003210E-11
        27  13 -2.248116E+06  1.960486E+03 -1.735918E+04  1.889703E-08  3.495610E-09  4.846724E-10
        27  14 -2.238899E+06  9.946166E+03 -2.686440E+04 -3.053678E-10 -1.212478E-09 -3.647345E-12
        27  15 -2.248175E+06 -4.834200E+04 -6.248180E+04  2.353649E-08 -2.151673E-09 -9.531465E-11
        27  16 -2.248116E+06  1.960523E+03 -1.735917E+04  4.393920E+03 -1.074125E-09  5.131736E-10
        27  17 -2.238899E+06  9.946177E+03 -2.686440E+04 -2.470178E+03 -1.157110E-10 -1.628939E-10
        27  18 -2.248175E+06 -4.834184E+04 -6.248177E+04 -9.334287E+03  1.381291E-09 -2.683478E-11
        27  19 -2.248116E+06  1.960571E+03 -1.735883E+04 -4.393920E+03 -1.335666E+04  9.486029E-02
        27  20 -2.238898E+06  9.946388E+03 -2.686293E+04  2.470178E+03 -2.797633E+04 -1.116984E-01
        27  21 -2.248173E+06 -4.834135E+04 -6.247835E+04  9.334287E+03 -4.259628E+04 -6.426647E-01
        27  22 -2.248116E+06  1.960534E+03 -1.735884E+04  3.608585E-08 -1.335666E+04 -4.708021E-11
        27  23 -2.238898E+06  9.946377E+03 -2.686293E+04  8.296530E-09 -2.797633E+04 -8.121861E-10
        27  24 -2.248173E+06 -4.834151E+04 -6.247837E+04  2.892796E-08 -4.259628E+04 -3.194092E-10
        27  25 -2.248116E+06  1.960571E+03 -1.735883E+04  4.393920E+03 -1.335666E+04 -9.486028E-02
        27  26 -2.238898E+06  9.946388E+03 -2.686293E+04 -2.470178E+03 -2.797633E+04  1.116984E-01
        27  27 -2.248173E+06 -4.834135E+04 -6.247835E+04 -9.334287E+03 -4.259628E+04  6.426647E-01
        28   1  5.394962E+05  9.859303E+05  6.942284E+05 -4.526642E+04  5.999041E+02  4.509119E+05
        28   2 -6.363819E+04  9.798877E+05  3.409630E+05 -3.203726E+04  3.145948E+03  2.895681E+05
        28   3  5.183044E+04  1.174643E+06  2.724231E+05  1.040095E+05  6.298005E+03  1.281915E+05
        28   4  5.187570E+05  9.027873E+05  6.735884E+05  5.588306E+04  6.732257E+02  4.502225E+05
        28   5 -1.078453E+05  8.024577E+05  2.972536E+05 -5.531834E+03  3.158483E+03  2.887073E+05
        28   6 -1.574201E+04  9.029501E+05  2.057801E+05  5.587149E+04  6.288554E+03  1.271834E+05
        28   7  4.980558E+05  8.196726E+05  6.529535E+05  1.570190E+05  7.463315E+02  4.495332E+05
        28   8 -1.520520E+05  6.250577E+05  2.535421E+05  2.096602E+04  3.170948E+03  2.878468E+05
        28   9 -8.331121E+04  6.313292E+05  1.391330E+05  7.754599E+03  6.279255E+03  1.261758E+05
        28  10  5.394417E+05  9.857123E+05  6.938469E+05 -4.526664E+04  4.359951E-10  1.238526E-09
        28  11 -6.366066E+04  9.797978E+05  3.408057E+05 -3.203799E+04 -2.743470E-09 -3.686797E-10
        28  12  5.182599E+04  1.174625E+06  2.723922E+05  1.040088E+05 -1.712423E-09 -1.815185E-09
        28  13  5.187027E+05  9.025700E+05  6.732081E+05  5.588282E+04  1.608674E-09  1.650303E-11
        28  14 -1.078676E+05  8.023683E+05  2.970971E+05 -5.532568E+03  3.582973E-09 -9.872071E-12
        28  15 -1.574638E+04  9.029327E+05  2.057497E+05  5.587085E+04  1.319999E-09  1.813207E-10
        28  16  4.980016E+05  8.194559E+05  6.525742E+05  1.570187E+05  2.590032E-09 -1.204246E-09
        28  17 -1.520742E+05  6.249688E+05  2.533866E+05  2.096528E+04  4.104623E-09  3.180275E-10
        28  18 -8.331552E+04  6.313121E+05  1.391030E+05  7.753961E+03  2.866353E-09  1.794620E-09
        28  19  5.394962E+05  9.859303E+05  6.942284E+05 -4.526642E+04 -5.999041E+02 -4.509119E+05
        28  20 -6.363819E+04  9.798877E+05  3.409630E+05 -3.203726E+04 -3.145948E+03 -2.895681E+05
        28  21  5.183044E+04  1.174643E+06  2.724231E+05  1.040095E+05 -6.298005E+03 -1.281915E+05
        28  22  5.187570E+05  9.027873E+05  6.735884E+05  5.588306E+04 -6.732257E+02 -4.502225E+05
        28  23 -1.078453E+05  8.024577E+05  2.972536E+05 -5.531834E+03 -3.158483E+03 -2.887073E+05
        28  24 -1.574201E+04  9.029501E+05  2.057801E+05  5.587149E+04 -6.288554E+03 -1.271834E+05
        28  25  4.980558E+05  8.196726E+05  6.529535E+05  1.570190E+05 -7.463315E+02 -4.495332E+05
        28  26 -1.520520E+05  6.250577E+05  2.535421E+05  2.096602E+04 -3.170948E+03 -2.878468E+05
        28  27 -8.331121E+04  6.313292E+05  1.391330E+05  7.754599E+03 -6.279255E+03 -1.261758E+05
        29   1  2.063057E+05  1.419056E+06  3.143535E+05  3.989660E+04  8.721902E+03  9.428830E+04
        29   2  1.381475E+05  1.492604E+06  2.756719E+05 -8.661151E+03  1.219135E+04  3.300357E+04
        29   3  2.227371E+05  1.614139E+06  3.153942E+05  6.982651E+04  1.345449E+04 -2.828745E+04
        29   4  6.923756E+04  8.688377E+05  1.786266E+05  5.683657E+04  8.725684E+03  9.291943E+04
        29   5 -2.311131E+04  8.449024E+05  1.162617E+05 -6.677960E+03  1.219311E+04  3.231968E+04
        29   6  3.725216E+04  8.688676E+05  1.318755E+05  5.685889E+04  1.345613E+04 -2.827683E+04
        29   7 -6.785210E+04  3.188947E+05  4.287749E+04  7.376156E+04  8.729394E+03  9.155173E+04
        29   8 -1.844013E+05  1.975816E+05 -4.317938E+04 -4.696713E+03  1.219486E+04  3.163650E+04
        29   9 -1.482734E+05  1.241007E+05 -5.168412E+04  4.390704E+04  1.345777E+04 -2.826621E+04
        29  10  2.063033E+05  1.419046E+06  3.143367E+05  3.989594E+04  2.344506E-09  9.960406E-10
        29  11  1.381470E+05  1.492603E+06  2.756696E+05 -8.661475E+03  5.916374E-09  8.371294E-10
        29  12  2.227367E+05  1.614138E+06  3.153924E+05  6.982682E+04  2.665686E-09  1.384689E-10
        29  13  6.923517E+04  8.688284E+05  1.786103E+05  5.683592E+04  2.537118E-10  4.936541E-10
        29  14 -2.311175E+04  8.449013E+05  1.162595E+05 -6.678277E+03  2.211579E-09 -3.578010E-11
        29  15  3.725175E+04  8.688667E+05  1.318736E+05  5.685920E+04  6.789722E-10  5.718639E-10
        29  16 -6.785443E+04  3.188857E+05  4.286160E+04  7.376092E+04  2.006420E-10 -9.700859E-10
        29  17 -1.844017E+05  1.975805E+05 -4.318154E+04 -4.697024E+03  4.948568E-10 -1.332705E-09
        29  18 -1.482738E+05  1.240998E+05 -5.168596E+04  4.390734E+04 -3.916813E-10 -1.561298E-10
        29  19  2.063057E+05  1.419056E+06  3.143535E+05  3.989660E+04 -8.721902E+03 -9.428830E+04
        29  20  1.381475E+05  1.492604E+06  2.756719E+05 -8.661151E+03 -1.219135E+04 -3.300357E+04
        29  21  2.227371E+05  1.614139E+06  3.153942E+05  6.982651E+04 -1.345449E+04  2.828745E+04
        29  22  6.923756E+04  8.688377E+05  1.786266E+05  5.683657E+04 -8.725684E+03 -9.291943E+04
        29  23 -2.311131E+04  8.449024E+05  1.162617E+05 -6.677960E+03 -1.219311E+04 -3.231968E+04
        29  24  3.725216E+04  8.688676E+05  1.318755E+05  5.685889E+04 -1.345613E+04  2.827683E+04
        29  25 -6.785210E+04  3.188947E+05  4.287749E+04  7.376156E+04 -8.729394E+03 -9.155173E+04
        29  26 -1.844013E+05  1.975816E+05 -4.317938E+04 -4.696713E+03 -1.219486E+04 -3.163650E+04
        29  27 -1.482734E+05  1.241007E+05 -5.168412E+04  4.390704E+04 -1.345777E+04  2.826621E+04
        30   1  2.558246E+05  1.923357E+06  3.965362E+05  2.816230E+04  1.868108E+04 -4.832769E+04
        30   2  2.207011E+05  1.966150E+06  4.605485E+05  2.582674E+03  2.408974E+04 -1.518024E+05
        30   3  6.065740E+05  2.133249E+06  6.981822E+05  1.142280E+05  9.465591E+03 -2.553744E+05
        30   4 -2.706255E+03  8.855192E+05  1.409515E+05  5.867161E+04  1.869138E+04 -5.264045E+04
        30   5 -6.344541E+04  8.237413E+05  1.798611E+05 -9.235248E+03  2.409014E+04 -1.501772E+05
        30   6  2.961902E+05  8.854509E+05  3.885017E+05  6.008864E+04  9.453995E+03 -2.477931E+05
        30   7 -2.613139E+05 -1.513402E+05 -1.147122E+05  8.913052E+04  1.870127E+04 -5.694597E+04
        30   8 -3.476881E+05 -3.174825E+05 -1.009221E+05 -2.103035E+04  2.409049E+04 -1.485548E+05
        30   9 -1.429820E+04 -3.609310E+05  7.870711E+04  6.059500E+03  9.441086E+03 -2.402266E+05
        30  10  2.558236E+05  1.923355E+06  3.965312E+05  2.816303E+04 -1.841039E-09 -8.547442E-10
        30  11  2.206943E+05  1.966125E+06  4.605043E+05  2.585615E+03 -3.703201E-10 -1.234821E-09
        30  12  6.065564E+05  2.133179E+06  6.980599E+05  1.142299E+05  4.915790E-10 -8.544736E-10
        30  13 -2.707373E+03  8.855161E+05  1.409456E+05  5.867240E+04  2.295399E-09  2.096804E-09
        30  14 -6.345207E+04  8.237170E+05  1.798177E+05 -9.232336E+03 -7.616683E-10  4.489516E-11
        30  15  2.961737E+05  8.853850E+05  3.883863E+05  6.009053E+04 -2.373438E-09  1.269952E-09
        30  16 -2.613151E+05 -1.513437E+05 -1.147189E+05  8.913137E+04 -1.552609E-09  7.787165E-10
        30  17 -3.476946E+05 -3.175063E+05 -1.009647E+05 -2.102746E+04 -1.928964E-09 -2.260084E-10
        30  18 -1.431380E+04 -3.609930E+05  7.859844E+04  6.061327E+03 -1.411131E-10  7.523675E-10
        30  19  2.558246E+05  1.923357E+06  3.965362E+05  2.816230E+04 -1.868108E+04  4.832769E+04
        30  20  2.207011E+05  1.966150E+06  4.605485E+05  2.582674E+03 -2.408974E+04  1.518024E+05
        30  21  6.065740E+05  2.133249E+06  6.981822E+05  1.142280E+05 -9.465591E+03  2.553744E+05
        30  22 -2.706255E+03  8.855192E+05  1.409515E+05  5.867161E+04 -1.869138E+04  5.264045E+04
        30  23 -6.344541E+04  8.237413E+05  1.798611E+05 -9.235248E+03 -2.409014E+04  1.501772E+05
        30  24  2.961902E+05  8.854509E+05  3.885017E+05  6.008864E+04 -9.453995E+03  2.477931E+05
        30  25 -2.613139E+05 -1.513402E+05 -1.147122E+05  8.913052E+04 -1.870127E+04  5.694597E+04
        30  26 -3.476881E+05 -3.174825E+05 -1.009221E+05 -2.103035E+04 -2.409049E+04  1.485548E+05
        30  27 -1.429820E+04 -3.609310E+05  7.870711E+04  6.059500E+03 -9.441086E+03  2.402266E+05
        31   1 -2.824332E+06 -5.475493E+05 -1.816595E+05 -1.027869E+06 -8.552580E+04 -3.063932E+04
        31   2 -2.794351E+06 -4.157363E+05 -9.949165E+04 -1.041884E+06 -5.556090E+04 -1.675771E+04
        31   3 -2.805285E+06 -4.261265E+05 -7.600056E+04 -1.035881E+06 -2.444350E+04 -5.950690E+03
        31   4 -2.659027E+06 -4.681578E+05 -1.328218E+05 -9.655916E+05 -8.450544E+04 -3.025973E+04
        31   5 -2.631967E+06 -3.500390E+05 -5.443249E+04 -9.932293E+05 -5.535903E+04 -1.668263E+04
        31   6 -2.645646E+06 -3.739398E+05 -3.405696E+04 -1.000852E+06 -2.506035E+04 -6.181335E+03
        31   7 -2.493696E+06 -3.887598E+05 -8.398695E+04 -9.032982E+05 -8.348479E+04 -2.987996E+04
        31   8 -2.469558E+06 -2.843393E+05 -9.375922E+03 -9.445626E+05 -5.515709E+04 -1.660754E+04
        31   9 -2.485982E+06 -3.217531E+05  7.884517E+03 -9.658153E+05 -2.567737E+04 -6.412025E+03
        31  10 -2.824340E+06 -5.475523E+05 -1.816751E+05 -1.027871E+06 -2.621739E-09 -1.150807E-09
        31  11 -2.794354E+06 -4.157375E+05 -9.949801E+04 -1.041885E+06 -5.078485E-09 -1.267240E-09
        31  12 -2.805285E+06 -4.261267E+05 -7.600175E+04 -1.035881E+06  5.968106E-10 -4.686731E-10
        31  13 -2.659035E+06 -4.681607E+05 -1.328370E+05 -9.655936E+05 -4.350283E-09 -5.117521E-10
        31  14 -2.631970E+06 -3.500401E+05 -5.443880E+04 -9.932301E+05 -1.900094E-09 -1.300475E-09
        31  15 -2.645646E+06 -3.739400E+05 -3.405822E+04 -1.000852E+06 -2.198916E-09  2.114438E-11
        31  16 -2.493704E+06 -3.887627E+05 -8.400179E+04 -9.033003E+05 -1.745418E-09  4.111579E-11
        31  17 -2.469561E+06 -2.843404E+05 -9.382186E+03 -9.445633E+05 -2.435091E-09 -2.252203E-09
        31  18 -2.485983E+06 -3.217534E+05  7.883195E+03 -9.658154E+05 -1.784112E-09 -9.081596E-10
        31  19 -2.824332E+06 -5.475493E+05 -1.816595E+05 -1.027869E+06  8.552580E+04  3.063932E+04
        31  20 -2.794351E+06 -4.157363E+05 -9.949165E+04 -1.041884E+06  5.556090E+04  1.675771E+04
        31  21 -2.805285E+06 -4.261265E+05 -7.600056E+04 -1.035881E+06  2.444350E+04  5.950690E+03
        31  22 -2.659027E+06 -4.681578E+05 -1.328218E+05 -9.655916E+05  8.450544E+04  3.025973E+04
        31  23 -2.631967E+06 -3.500390E+05 -5.443249E+04 -9.932293E+05  5.535903E+04  1.668263E+04
        31  24 -2.645646E+06 -3.739398E+05 -3.405696E+04 -1.000852E+06  2.506035E+04  6.181335E+03
        31  25 -2.493696E+06 -3.887598E+05 -8.398695E+04 -9.032982E+05  8.348479E+04  2.987996E+04
        31  26 -2.469558E+06 -2.843393E+05 -9.375922E+03 -9.445626E+05  5.515709E+04  1.660754E+04
        31  27 -2.485982E+06 -3.217531E+05  7.884517E+03 -9.658153E+05  2.567737E+04  6.412025E+03
        32   1 -2.746948E+06 -4.324073E+05 -5.745856E+04 -1.024481E+06 -1.969849E+04 -5.049314E+03
        32   2 -2.735679E+06 -4.017900E+05 -3.799486E+04 -1.014501E+06 -1.272186E+04 -2.676368E+03
        32   3 -2.716315E+06 -4.051000E+05 -2.863148E+04 -1.018068E+06 -5.574020E+03 -7.603186E+02
        32   4 -2.640450E+06 -3.900146E+05 -2.799016E+04 -9.932975E+05 -1.969565E+04 -5.048363E+03
        32   5 -2.643581E+06 -3.665242E+05 -1.280372E+04 -9.889673E+05 -1.284061E+04 -2.720841E+03
        32   6 -2.638593E+06 -3.769349E+05 -7.619567E+03 -9.981831E+05 -5.814584E+03 -8.503044E+02
        32   7 -2.533940E+06 -3.476208E+05  1.477259E+03 -9.621090E+05 -1.969280E+04 -5.047412E+03
        32   8 -2.551475E+06 -3.312578E+05  1.238663E+04 -9.634298E+05 -1.295938E+04 -2.765322E+03
        32   9 -2.560865E+06 -3.487697E+05  1.339171E+04 -9.782964E+05 -6.055180E+03 -9.403012E+02
        32  10 -2.746948E+06 -4.324074E+05 -5.745935E+04 -1.024481E+06  3.076015E-09  5.167459E-10
        32  11 -2.735679E+06 -4.017901E+05 -3.799518E+04 -1.014501E+06  2.492718E-09 -1.087741E-09
        32  12 -2.716315E+06 -4.051000E+05 -2.863154E+04 -1.018068E+06 -1.048901E-09  3.429636E-10
        32  13 -2.640450E+06 -3.900147E+05 -2.799094E+04 -9.932976E+05 -2.411992E-09  2.983277E-10
        32  14 -2.643581E+06 -3.665242E+05 -1.280404E+04 -9.889673E+05  1.873206E-09 -9.994424E-10
        32  15 -2.638593E+06 -3.769349E+05 -7.619632E+03 -9.981831E+05 -6.007107E-10 -7.802538E-10
        32  16 -2.533941E+06 -3.476209E+05  1.476478E+03 -9.621091E+05 -3.808327E-09  7.806951E-10
        32  17 -2.551475E+06 -3.312578E+05  1.238630E+04 -9.634298E+05 -4.112957E-09 -2.141894E-10
        32  18 -2.560866E+06 -3.487697E+05  1.339164E+04 -9.782964E+05 -1.413679E-09 -5.900522E-10
        32  19 -2.746948E+06 -4.324073E+05 -5.745856E+04 -1.024481E+06  1.969849E+04  5.049314E+03
        32  20 -2.735679E+06 -4.017900E+05 -3.799486E+04 -1.014501E+06  1.272186E+04  2.676368E+03
        32  21 -2.716315E+06 -4.051000E+05 -2.863148E+04 -1.018068E+06  5.574020E+03  7.603186E+02
        32  22 -2.640450E+06 -3.900146E+05 -2.799016E+04 -9.932975E+05  1.969565E+04  5.048363E+03
        32  23 -2.643581E+06 -3.665242E+05 -1.280372E+04 -9.889673E+05  1.284061E+04  2.720841E+03
        32  24 -2.638593E+06 -3.769349E+05 -7.619567E+03 -9.981831E+05  5.814584E+03  8.503044E+02
        32  25 -2.533940E+06 -3.476208E+05  1.477259E+03 -9.621090E+05  1.969280E+04  5.047412E+03
        32  26 -2.551475E+06 -3.312578E+05  1.238663E+04 -9.634298E+05  1.295938E+04  2.765322E+03
        32  27 -2.560865E+06 -3.487697E+05  1.339171E+04 -9.782964E+05  6.055180E+03  9.403012E+02
        33   1 -2.659965E+06 -3.880426E+05 -1.214661E+04 -1.003712E+06 -4.367314E+03 -8.170082E+02
        33   2 -2.650976E+06 -3.706941E+05 -4.492626E+03 -9.896454E+05 -2.582214E+03 -8.383386E+02
        33   3 -2.625931E+06 -3.730906E+05  1.308643E+03 -9.947590E+05 -7.782341E+02 -9.100364E+02
        33   4 -2.637609E+06 -3.793438E+05 -6.056632E+03 -9.973575E+05 -4.523018E+03 -8.752492E+02
        33   5 -2.645511E+06 -3.685745E+05 -2.993087E+03 -9.881022E+05 -2.751398E+03 -9.016190E+02
        33   6 -2.637354E+06 -3.775476E+05 -1.771408E+03 -9.980274E+05 -9.609429E+02 -9.783735E+02
        33   7 -2.615254E+06 -3.706449E+05  3.331078E+01 -9.910027E+05 -4.678729E+03 -9.334928E+02
        33   8 -2.640046E+06 -3.664550E+05 -1.493546E+03 -9.865590E+05 -2.920585E+03 -9.649003E+02
        33   9 -2.648776E+06 -3.820047E+05 -4.851486E+03 -1.001296E+06 -1.143649E+03 -1.046709E+03
        33  10 -2.659965E+06 -3.880426E+05 -1.214665E+04 -1.003712E+06  2.128895E-10  8.042317E-10
        33  11 -2.650977E+06 -3.706941E+05 -4.492640E+03 -9.896454E+05  3.567552E-10  6.108385E-10
        33  12 -2.625931E+06 -3.730906E+05  1.308640E+03 -9.947590E+05 -2.070185E-09 -1.113340E-09
        33  13 -2.637609E+06 -3.793438E+05 -6.056673E+03 -9.973575E+05 -2.338414E-10 -4.109992E-11
        33  14 -2.645511E+06 -3.685745E+05 -2.993103E+03 -9.881022E+05 -2.875064E-11 -2.214659E-10
        33  15 -2.637354E+06 -3.775476E+05 -1.771411E+03 -9.980274E+05 -2.079985E-09 -9.992140E-10
        33  16 -2.615254E+06 -3.706449E+05  3.326781E+01 -9.910027E+05  8.570794E-10  5.892677E-10
        33  17 -2.640046E+06 -3.664550E+05 -1.493564E+03 -9.865590E+05  9.176094E-10 -8.909169E-11
        33  18 -2.648776E+06 -3.820047E+05 -4.851490E+03 -1.001296E+06  2.168473E-09 -3.106135E-09
        33  19 -2.659965E+06 -3.880426E+05 -1.214661E+04 -1.003712E+06  4.367314E+03  8.170082E+02
        33  20 -2.650976E+06 -3.706941E+05 -4.492626E+03 -9.896454E+05  2.582214E+03  8.383386E+02
        33  21 -2.625931E+06 -3.730906E+05  1.308643E+03 -9.947590E+05  7.782341E+02  9.100364E+02
        33  22 -2.637609E+06 -3.793438E+05 -6.056632E+03 -9.973575E+05  4.523018E+03  8.752492E+02
        33  23 -2.645511E+06 -3.685745E+05 -2.993087E+03 -9.881022E+05  2.751398E+03  9.016190E+02
        33  24 -2.637354E+06 -3.775476E+05 -1.771408E+03 -9.980274E+05  9.609429E+02  9.783735E+02
        33  25 -2.615254E+06 -3.706449E+05  3.331078E+01 -9.910027E+05  4.678729E+03  9.334928E+02
        33  26 -2.640046E+06 -3.664550E+05 -1.493546E+03 -9.865590E+05  2.920585E+03  9.649003E+02
        33  27 -2.648776E+06 -3.820047E+05 -4.851486E+03 -1.001296E+06  1.143649E+03  1.046709E+03
        34   1 -2.571341E+06 -3.526639E+05  1.667132E+04 -9.796875E+05 -3.694871E+02 -1.211028E+03
        34   2 -2.563378E+06 -3.383044E+05  2.151859E+04 -9.661778E+05  2.739870E+02 -1.697220E+03
        34   3 -2.539511E+06 -3.404207E+05  2.596173E+04 -9.710526E+05  8.925565E+02 -2.116303E+03
        34   4 -2.637496E+06 -3.775682E+05 -1.407801E+03 -9.975725E+05 -5.497577E+02 -1.278467E+03
        34   5 -2.645431E+06 -3.692287E+05 -8.332051E+02 -9.884173E+05  1.116962E+02 -1.757961E+03
        34   6 -2.637466E+06 -3.773687E+05 -6.769804E+02 -9.976467E+05  7.482329E+02 -2.170347E+03
        34   7 -2.703645E+06 -4.024722E+05 -1.948723E+04 -1.015456E+06 -7.300061E+02 -1.345897E+03
        34   8 -2.727477E+06 -4.001526E+05 -2.318555E+04 -1.010654E+06 -5.057054E+01 -1.818694E+03
        34   9 -2.735413E+06 -4.143161E+05 -2.731654E+04 -1.024237E+06  6.039346E+02 -2.224381E+03
        34  10 -2.571341E+06 -3.526639E+05  1.667131E+04 -9.796875E+05 -1.563074E-09 -8.828971E-10
        34  11 -2.563378E+06 -3.383044E+05  2.151858E+04 -9.661778E+05 -7.022249E-10 -3.198522E-10
        34  12 -2.539511E+06 -3.404207E+05  2.596172E+04 -9.710526E+05  2.934167E-10  1.364852E-09
        34  13 -2.637496E+06 -3.775682E+05 -1.407804E+03 -9.975725E+05  4.747264E-10 -8.656995E-10
        34  14 -2.645431E+06 -3.692287E+05 -8.332109E+02 -9.884173E+05 -5.932026E-09  9.675664E-10
        34  15 -2.637466E+06 -3.773687E+05 -6.769903E+02 -9.976467E+05  6.350534E-10  1.052988E-11
        34  16 -2.703645E+06 -4.024722E+05 -1.948724E+04 -1.015456E+06  3.415493E-09 -2.941421E-10
        34  17 -2.727477E+06 -4.001526E+05 -2.318555E+04 -1.010654E+06 -1.284189E-09  1.522253E-09
        34  18 -2.735413E+06 -4.143161E+05 -2.731655E+04 -1.024237E+06 -6.772689E-10 -1.656934E-09
        34  19 -2.571341E+06 -3.526639E+05  1.667132E+04 -9.796875E+05  3.694871E+02  1.211028E+03
        34  20 -2.563378E+06 -3.383044E+05  2.151859E+04 -9.661778E+05 -2.739870E+02  1.697220E+03
        34  21 -2.539511E+06 -3.404207E+05  2.596173E+04 -9.710526E+05 -8.925565E+02  2.116303E+03
        34  22 -2.637496E+06 -3.775682E+05 -1.407801E+03 -9.975725E+05  5.497577E+02  1.278467E+03
        34  23 -2.645431E+06 -3.692287E+05 -8.332051E+02 -9.884173E+05 -1.116962E+02  1.757961E+03
        34  24 -2.637466E+06 -3.773687E+05 -6.769804E+02 -9.976467E+05 -7.482329E+02  2.170347E+03
        34  25 -2.703645E+06 -4.024722E+05 -1.948723E+04 -1.015456E+06  7.300061E+02  1.345897E+03
        34  26 -2.727477E+06 -4.001526E+05 -2.318555E+04 -1.010654E+06  5.057054E+01  1.818694E+03
        34  27 -2.735413E+06 -4.143161E+05 -2.731654E+04 -1.024237E+06 -6.039346E+02  2.224381E+03
        35   1 -2.493063E+06 -3.218619E+05  3.893149E+04 -9.574099E+05  1.152445E+03 -2.406464E+03
        35   2 -2.486906E+06 -3.107640E+05  4.209598E+04 -9.467719E+05  1.741732E+03 -2.807835E+03
        35   3 -2.468253E+06 -3.126251E+05  4.489272E+04 -9.504569E+05  2.276221E+03 -3.062055E+03
        35   4 -2.638227E+06 -3.765788E+05 -6.706472E+02 -9.967494E+05  9.860878E+02 -2.468791E+03
        35   5 -2.644487E+06 -3.702108E+05 -8.393412E+02 -9.895443E+05  1.614804E+03 -2.855446E+03
        35   6 -2.638260E+06 -3.768104E+05 -1.407242E+03 -9.966626E+05  2.188708E+03 -3.094934E+03
        35   7 -2.783372E+06 -4.312945E+05 -4.027475E+04 -1.036081E+06  8.197730E+02 -2.531103E+03
        35   8 -2.802045E+06 -4.296563E+05 -4.377694E+04 -1.032307E+06  1.487912E+03 -2.903044E+03
        35   9 -2.808238E+06 -4.409939E+05 -4.770982E+04 -1.042857E+06  2.101221E+03 -3.127802E+03
        35  10 -2.493063E+06 -3.218620E+05  3.893147E+04 -9.574099E+05  9.786188E-10 -6.885275E-11
        35  11 -2.486906E+06 -3.107640E+05  4.209596E+04 -9.467719E+05 -4.169973E-10 -2.031928E-09
        35  12 -2.468253E+06 -3.126251E+05  4.489269E+04 -9.504569E+05  7.979518E-10 -1.089551E-09
        35  13 -2.638227E+06 -3.765788E+05 -6.706604E+02 -9.967494E+05  2.390908E-09 -1.079008E-09
        35  14 -2.644487E+06 -3.702108E+05 -8.393614E+02 -9.895443E+05 -5.316140E-10 -6.095689E-10
        35  15 -2.638260E+06 -3.768104E+05 -1.407269E+03 -9.966626E+05  9.648518E-10 -6.174251E-10
        35  16 -2.783372E+06 -4.312945E+05 -4.027477E+04 -1.036081E+06  2.491967E-09 -1.815825E-09
        35  17 -2.802045E+06 -4.296563E+05 -4.377696E+04 -1.032307E+06 -2.835160E-09 -1.557188E-09
        35  18 -2.808238E+06 -4.409940E+05 -4.770984E+04 -1.042857E+06 -1.475039E-09  2.138625E-12
        35  19 -2.493063E+06 -3.218619E+05  3.893149E+04 -9.574099E+05 -1.152445E+03  2.406464E+03
        35  20 -2.486906E+06 -3.107640E+05  4.209598E+04 -9.467719E+05 -1.741732E+03  2.807835E+03
        35  21 -2.468253E+06 -3.126251E+05  4.489272E+04 -9.504569E+05 -2.276221E+03  3.062055E+03
        35  22 -2.638227E+06 -3.765788E+05 -6.706472E+02 -9.967494E+05 -9.860878E+02  2.468791E+03
        35  23 -2.644487E+06 -3.702108E+05 -8.393412E+02 -9.895443E+05 -1.614804E+03  2.855446E+03
        35  24 -2.638260E+06 -3.768104E+05 -1.407242E+03 -9.966626E+05 -2.188708E+03  3.094934E+03
        35  25 -2.783372E+06 -4.312945E+05 -4.027475E+04 -1.036081E+06 -8.197730E+02  2.531103E+03
        35  26 -2.802045E+06 -4.296563E+05 -4.377694E+04 -1.032307E+06 -1.487912E+03  2.903044E+03
        35  27 -2.808238E+06 -4.409939E+05 -4.770982E+04 -1.042857E+06 -2.101221E+03  3.127802E+03
        36   1 -2.436860E+06 -2.989916E+05  5.347864E+04 -9.405787E+05  2.670146E+03 -3.188568E+03
        36   2 -2.433169E+06 -2.921429E+05  5.413605E+04 -9.342565E+05  4.294552E+03 -3.000844E+03
        36   3 -2.423190E+06 -2.950130E+05  5.304560E+04 -9.355601E+05  5.830135E+03 -2.575773E+03
        36   4 -2.639537E+06 -3.753323E+05 -1.762611E+03 -9.954607E+05  2.538704E+03 -3.237953E+03
        36   5 -2.642804E+06 -3.713710E+05 -3.007933E+03 -9.913088E+05  4.226386E+03 -3.026536E+03
        36   6 -2.639796E+06 -3.771415E+05 -6.051875E+03 -9.947828E+05  5.825215E+03 -2.577742E+03
        36   7 -2.842174E+06 -4.516706E+05 -5.700750E+04 -1.050326E+06  2.407309E+03 -3.287321E+03
        36   8 -2.852396E+06 -4.505965E+05 -6.015589E+04 -1.048344E+06  4.158245E+03 -3.052219E+03
        36   9 -2.856356E+06 -4.592674E+05 -6.515370E+04 -1.053987E+06  5.820296E+03 -2.579709E+03
        36  10 -2.436860E+06 -2.989916E+05  5.347861E+04 -9.405787E+05 -3.365994E-10 -6.255503E-10
        36  11 -2.433169E+06 -2.921429E+05  5.413600E+04 -9.342565E+05 -1.161066E-09 -3.421354E-10
        36  12 -2.423190E+06 -2.950130E+05  5.304553E+04 -9.355601E+05 -1.872266E-09  2.898554E-10
        36  13 -2.639537E+06 -3.753323E+05 -1.762643E+03 -9.954607E+05 -1.361095E-09 -1.939855E-10
        36  14 -2.642804E+06 -3.713710E+05 -3.007984E+03 -9.913088E+05  4.310555E-09  1.186538E-12
        36  15 -2.639796E+06 -3.771416E+05 -6.051951E+03 -9.947828E+05 -3.249409E-10 -7.784037E-10
        36  16 -2.842174E+06 -4.516706E+05 -5.700753E+04 -1.050326E+06 -1.710321E-09  8.549399E-11
        36  17 -2.852397E+06 -4.505965E+05 -6.015594E+04 -1.048344E+06  1.135464E-09  3.748476E-10
        36  18 -2.856356E+06 -4.592674E+05 -6.515378E+04 -1.053987E+06  2.983727E-09 -2.206740E-09
        36  19 -2.436860E+06 -2.989916E+05  5.347864E+04 -9.405787E+05 -2.670146E+03  3.188568E+03
        36  20 -2.433169E+06 -2.921429E+05  5.413605E+04 -9.342565E+05 -4.294552E+03  3.000844E+03
        36  21 -2.423190E+06 -2.950130E+05  5.304560E+04 -9.355601E+05 -5.830135E+03  2.575773E+03
        36  22 -2.639537E+06 -3.753323E+05 -1.762611E+03 -9.954607E+05 -2.538704E+03  3.237953E+03
        36  23 -2.642804E+06 -3.713710E+05 -3.007933E+03 -9.913088E+05 -4.226386E+03  3.026536E+03
        36  24 -2.639796E+06 -3.771415E+05 -6.051875E+03 -9.947828E+05 -5.825215E+03  2.577742E+03
        36  25 -2.842174E+06 -4.516706E+05 -5.700750E+04 -1.050326E+06 -2.407309E+03  3.287321E+03
        36  26 -2.852396E+06 -4.505965E+05 -6.015589E+04 -1.048344E+06 -4.158245E+03  3.052219E+03
        36  27 -2.856356E+06 -4.592674E+05 -6.515370E+04 -1.053987E+06 -5.820296E+03  2.579709E+03
        37   1 -2.411131E+06 -2.875429E+05  5.508239E+04 -9.327091E+05  7.127247E+03 -2.261208E+03
        37   2 -2.409224E+06 -2.830933E+05  5.005214E+04 -9.304823E+05  1.380990E+04  6.899368E+01
        37   3 -2.413994E+06 -2.974670E+05  3.518619E+04 -9.244967E+05  2.026969E+04  2.991366E+03
        37   4 -2.641893E+06 -3.736186E+05 -7.615614E+03 -9.943395E+05  7.003560E+03 -2.307803E+03
        37   5 -2.639475E+06 -3.707165E+05 -1.282237E+04 -9.937679E+05  1.384296E+04  8.127826E+01
        37   6 -2.643767E+06 -3.866731E+05 -2.799228E+04 -9.894369E+05  2.045945E+04  3.062589E+03
        37   7 -2.872605E+06 -4.596916E+05 -7.031840E+04 -1.055949E+06  6.879923E+03 -2.354380E+03
        37   8 -2.869675E+06 -4.583364E+05 -7.570165E+04 -1.057032E+06  1.387600E+04  9.355731E+01
        37   9 -2.873489E+06 -4.758753E+05 -9.117551E+04 -1.054355E+06  2.064914E+04  3.133780E+03
        37  10 -2.411131E+06 -2.875429E+05  5.508228E+04 -9.327091E+05  8.169209E-10  1.480204E-09
        37  11 -2.409225E+06 -2.830934E+05  5.005178E+04 -9.304823E+05  4.336458E-09  1.140600E-09
        37  12 -2.413994E+06 -2.974672E+05  3.518540E+04 -9.244967E+05  2.105680E-09 -9.474310E-10
        37  13 -2.641894E+06 -3.736186E+05 -7.615716E+03 -9.943395E+05 -4.346432E-10 -6.153247E-11
        37  14 -2.639475E+06 -3.707165E+05 -1.282273E+04 -9.937679E+05  4.466741E-09  9.643440E-10
        37  15 -2.643767E+06 -3.866733E+05 -2.799309E+04 -9.894370E+05 -1.313911E-09 -1.872845E-10
        37  16 -2.872605E+06 -4.596916E+05 -7.031850E+04 -1.055949E+06  2.313899E-09 -1.033292E-09
        37  17 -2.869675E+06 -4.583364E+05 -7.570201E+04 -1.057032E+06 -1.946734E-09  1.838941E-09
        37  18 -2.873489E+06 -4.758754E+05 -9.117633E+04 -1.054355E+06 -2.374830E-10  7.413021E-10
        37  19 -2.411131E+06 -2.875429E+05  5.508239E+04 -9.327091E+05 -7.127247E+03  2.261208E+03
        37  20 -2.409224E+06 -2.830933E+05  5.005214E+04 -9.304823E+05 -1.380990E+04 -6.899368E+01
        37  21 -2.413994E+06 -2.974670E+05  3.518619E+04 -9.244967E+05 -2.026969E+04 -2.991366E+03
        37  22 -2.641893E+06 -3.736186E+05 -7.615614E+03 -9.943395E+05 -7.003560E+03  2.307803E+03
        37  23 -2.639475E+06 -3.707165E+05 -1.282237E+04 -9.937679E+05 -1.384296E+04 -8.127826E+01
        37  24 -2.643767E+06 -3.866731E+05 -2.799228E+04 -9.894369E+05 -2.045945E+04 -3.062589E+03
        37  25 -2.872605E+06 -4.596916E+05 -7.031840E+04 -1.055949E+06 -6.879923E+03  2.354380E+03
        37  26 -2.869675E+06 -4.583364E+05 -7.570165E+04 -1.057032E+06 -1.387600E+04 -9.355731E+01
        37  27 -2.873489E+06 -4.758753E+05 -9.117551E+04 -1.054355E+06 -2.064914E+04 -3.133780E+03
        38   1 -2.420480E+06 -2.913766E+05  2.677955E+04 -9.421119E+05  2.614311E+04  4.754538E+03
        38   2 -2.412831E+06 -2.694337E+05  4.769022E+03 -9.358710E+05  5.534207E+04  1.564323E+04
        38   3 -2.463639E+06 -3.713924E+05 -7.456960E+04 -8.890419E+05  8.333357E+04  2.973438E+04
        38   4 -2.649582E+06 -3.700150E+05 -3.407033E+04 -9.963295E+05  2.568070E+04  4.580659E+03
        38   5 -2.627023E+06 -3.550065E+05 -5.446012E+04 -9.989145E+05  5.573026E+04  1.578893E+04
        38   6 -2.663108E+06 -4.640965E+05 -1.328696E+05 -9.609061E+05  8.457287E+04  3.019899E+04
        38   7 -2.878634E+06 -4.486528E+05 -9.492477E+04 -1.050530E+06  2.521848E+04  4.406835E+03
        38   8 -2.841171E+06 -4.405752E+05 -1.136936E+05 -1.061938E+06  5.611830E+04  1.593457E+04
        38   9 -2.862537E+06 -5.567920E+05 -1.911735E+05 -1.032747E+06  8.581173E+04  3.066335E+04
        38  10 -2.420481E+06 -2.913768E+05  2.677821E+04 -9.421120E+05 -2.879467E-10 -1.883884E-09
        38  11 -2.412834E+06 -2.694348E+05  4.762779E+03 -9.358717E+05  1.424258E-09 -9.580593E-10
        38  12 -2.463647E+06 -3.713953E+05 -7.458438E+04 -8.890439E+05  6.583720E-10 -8.522878E-10
        38  13 -2.649583E+06 -3.700152E+05 -3.407161E+04 -9.963296E+05  1.949666E-09 -7.575469E-10
        38  14 -2.627026E+06 -3.550076E+05 -5.446645E+04 -9.989152E+05  6.109375E-10 -2.019349E-10
        38  15 -2.663116E+06 -4.640994E+05 -1.328848E+05 -9.609082E+05  1.117261E-10 -1.337934E-09
        38  16 -2.878635E+06 -4.486530E+05 -9.492601E+04 -1.050530E+06  1.377839E-09 -2.119069E-10
        38  17 -2.841175E+06 -4.405763E+05 -1.137000E+05 -1.061939E+06  4.053505E-11  9.886988E-10
        38  18 -2.862545E+06 -5.567950E+05 -1.911892E+05 -1.032750E+06 -1.783611E-10  1.494866E-10
        38  19 -2.420480E+06 -2.913766E+05  2.677955E+04 -9.421119E+05 -2.614311E+04 -4.754538E+03
        38  20 -2.412831E+06 -2.694337E+05  4.769022E+03 -9.358710E+05 -5.534207E+04 -1.564323E+04
        38  21 -2.463639E+06 -3.713924E+05 -7.456960E+04 -8.890419E+05 -8.333357E+04 -2.973438E+04
        38  22 -2.649582E+06 -3.700150E+05 -3.407033E+04 -9.963295E+05 -2.568070E+04 -4.580659E+03
        38  23 -2.627023E+06 -3.550065E+05 -5.446012E+04 -9.989145E+05 -5.573026E+04 -1.578893E+04
        38  24 -2.663108E+06 -4.640965E+05 -1.328696E+05 -9.609061E+05 -8.457287E+04 -3.019899E+04
        38  25 -2.878634E+06 -4.486528E+05 -9.492477E+04 -1.050530E+06 -2.521848E+04 -4.406835E+03
        38  26 -2.841171E+06 -4.405752E+05 -1.136936E+05 -1.061938E+06 -5.611830E+04 -1.593457E+04
        38  27 -2.862537E+06 -5.567920E+05 -1.911735E+05 -1.032747E+06 -8.581173E+04 -3.066335E+04
        39   1 -9.092158E+05  1.643584E+05  2.124874E+05  3.178431E+04  1.449843E+05  7.433265E+00
        39   2 -9.406798E+05 -3.380935E+04  9.139550E+04  8.410820E+03  9.524036E+04  1.292162E+00
        39   3 -9.093044E+05 -6.666898E+03  5.906298E+04 -1.496162E+04  4.549571E+04 -1.097957E+00
        39   4 -9.092169E+05  1.643565E+05  2.124871E+05 -4.930939E-09  1.449843E+05 -1.174689E-10
        39   5 -9.406799E+05 -3.380949E+04  9.139548E+04 -3.936000E-09  9.524036E+04  8.923473E-10
        39   6 -9.093047E+05 -6.667320E+03  5.906292E+04  1.213022E-08  4.549571E+04 -3.353631E-10
        39   7 -9.092158E+05  1.643584E+05  2.124874E+05 -3.178431E+04  1.449843E+05 -7.433265E+00
        39   8 -9.406798E+05 -3.380935E+04  9.139550E+04 -8.410820E+03  9.524036E+04 -1.292162E+00
        39   9 -9.093044E+05 -6.666898E+03  5.906298E+04  1.496162E+04  4.549571E+04  1.097957E+00
        39  10 -9.092384E+05  1.643527E+05  2.124478E+05  3.178431E+04  1.891154E-09  5.592413E-10
        39  11 -9.406895E+05 -3.381179E+04  9.137843E+04  8.410820E+03  1.824972E-09  9.077059E-10
        39  12 -9.093066E+05 -6.667455E+03  5.905908E+04 -1.496162E+04  3.679731E-10  1.577465E-10
        39  13 -9.092395E+05  1.643508E+05  2.124476E+05 -3.936102E-08 -6.726288E-11  2.803513E-10
        39  14 -9.406896E+05 -3.381193E+04  9.137841E+04 -2.116475E-08  5.163548E-10  6.346934E-10
        39  15 -9.093069E+05 -6.667876E+03  5.905902E+04 -5.125014E-09 -2.073887E-09 -1.811710E-11
        39  16 -9.092384E+05  1.643527E+05  2.124478E+05 -3.178431E+04 -8.060430E-10  1.542297E-10
        39  17 -9.406895E+05 -3.381179E+04  9.137843E+04 -8.410820E+03 -1.706867E-09  2.675609E-10
        39  18 -9.093066E+05 -6.667455E+03  5.905908E+04  1.496162E+04  2.677465E-09  4.214706E-11
        39  19 -9.092158E+05  1.643584E+05  2.124874E+05  3.178431E+04 -1.449843E+05 -7.433265E+00
        39  20 -9.406798E+05 -3.380935E+04  9.139550E+04  8.410820E+03 -9.524036E+04 -1.292162E+00
        39  21 -9.093044E+05 -6.666898E+03  5.906298E+04 -1.496162E+04 -4.549571E+04  1.097957E+00
        39  22 -9.092169E+05  1.643565E+05  2.124871E+05 -4.891070E-09 -1.449843E+05  6.912361E-10
        39  23 -9.406799E+05 -3.380949E+04  9.139548E+04 -2.978097E-08 -9.524036E+04  4.605164E-10
        39  24 -9.093047E+05 -6.667320E+03  5.906292E+04  2.176399E-08 -4.549571E+04  1.853339E-10
        39  25 -9.092158E+05  1.643584E+05  2.124874E+05 -3.178431E+04 -1.449843E+05  7.433265E+00
        39  26 -9.406798E+05 -3.380935E+04  9.139550E+04 -8.410820E+03 -9.524036E+04  1.292162E+00
        39  27 -9.093044E+05 -6.666898E+03  5.906298E+04  1.496162E+04 -4.549571E+04 -1.097957E+00
        40   1 -9.211779E+05  2.244400E+04  4.867203E+04  4.084864E+03  3.591962E+04  2.366761E-01
        40   2 -9.258465E+05 -4.644742E+03  2.370618E+04  9.889219E+02  2.358191E+04  3.761730E-02
        40   3 -9.211927E+05 -8.912757E+02  1.449279E+04 -2.106974E+03  1.124446E+04 -3.821566E-02
        40   4 -9.211779E+05  2.244397E+04  4.867202E+04  4.277892E-09  3.591962E+04 -1.179910E-10
        40   5 -9.258465E+05 -4.644744E+03  2.370618E+04 -9.022890E-09  2.358191E+04  4.834388E-10
        40   6 -9.211927E+05 -8.912841E+02  1.449278E+04  2.397137E-08  1.124446E+04 -2.352968E-12
        40   7 -9.211779E+05  2.244400E+04  4.867203E+04 -4.084864E+03  3.591962E+04 -2.366761E-01
        40   8 -9.258465E+05 -4.644742E+03  2.370618E+04 -9.889219E+02  2.358191E+04 -3.761729E-02
        40   9 -9.211927E+05 -8.912757E+02  1.449279E+04  2.106974E+03  1.124446E+04  3.821566E-02
        40  10 -9.211793E+05  2.244365E+04  4.866960E+04  4.084864E+03 -1.765508E-09  4.186917E-11
        40  11 -9.258471E+05 -4.644891E+03  2.370513E+04  9.889219E+02 -1.622211E-09  4.653457E-10
        40  12 -9.211928E+05 -8.913097E+02  1.449255E+04 -2.106974E+03 -5.040729E-10 -8.931278E-11
        40  13 -9.211793E+05  2.244362E+04  4.866960E+04 -1.293046E-08 -2.136398E-09 -1.629925E-10
        40  14 -9.258471E+05 -4.644893E+03  2.370513E+04 -9.018170E-09 -2.153190E-09  3.513646E-10
        40  15 -9.211928E+05 -8.913181E+02  1.449255E+04 -2.879620E-08 -1.169330E-09  1.300936E-11
        40  16 -9.211793E+05  2.244365E+04  4.866960E+04 -4.084864E+03  4.976669E-11 -2.005291E-10
        40  17 -9.258471E+05 -4.644891E+03  2.370513E+04 -9.889219E+02 -2.061856E-09  2.281805E-10
        40  18 -9.211928E+05 -8.913097E+02  1.449255E+04  2.106974E+03  1.359828E-09 -9.446698E-11
        40  19 -9.211779E+05  2.244400E+04  4.867203E+04  4.084864E+03 -3.591962E+04 -2.366761E-01
        40  20 -9.258465E+05 -4.644742E+03  2.370618E+04  9.889219E+02 -2.358191E+04 -3.761729E-02
        40  21 -9.211927E+05 -8.912757E+02  1.449279E+04 -2.106974E+03 -1.124446E+04  3.821566E-02
        40  22 -9.211779E+05  2.244397E+04  4.867202E+04  3.876239E-08 -3.591962E+04 -1.850316E-10
        40  23 -9.258465E+05 -4.644744E+03  2.370618E+04 -9.017123E-09 -2.358191E+04  2.062330E-10
        40  24 -9.211927E+05 -8.912841E+02  1.449278E+04  4.117175E-08 -1.124446E+04  1.777037E-11
        40  25 -9.211779E+05  2.244400E+04  4.867203E+04 -4.084864E+03 -3.591962E+04  2.366761E-01
        40  26 -9.258465E+05 -4.644742E+03  2.370618E+04 -9.889219E+02 -2.358191E+04  3.761730E-02
        40  27 -9.211927E+05 -8.912757E+02  1.449279E+04  2.106974E+03 -1.124446E+04 -3.821566E-02
        41   1 -9.229403E+05  3.042005E+03  1.150488E+04  4.893660E+02  8.914810E+03  7.037047E-03
        41   2 -9.236653E+05 -6.361106E+02  6.000341E+03  9.381306E+01  5.866136E+03  8.876873E-04
        41   3 -9.229431E+05 -1.176863E+02  3.532063E+03 -3.017463E+02  2.817427E+03 -1.371320E-03
        41   4 -9.229403E+05  3.042005E+03  1.150488E+04  2.577031E-08  8.914810E+03 -4.489020E-10
        41   5 -9.236653E+05 -6.361106E+02  6.000341E+03  1.127318E-08  5.866136E+03 -6.246686E-10
        41   6 -9.229431E+05 -1.176865E+02  3.532063E+03 -5.376518E-09  2.817427E+03  7.711468E-10
        41   7 -9.229403E+05  3.042005E+03  1.150488E+04 -4.893660E+02  8.914810E+03 -7.037048E-03
        41   8 -9.236653E+05 -6.361106E+02  6.000341E+03 -9.381306E+01  5.866136E+03 -8.876888E-04
        41   9 -9.229431E+05 -1.176863E+02  3.532063E+03  3.017463E+02  2.817427E+03  1.371321E-03
        41  10 -9.229404E+05  3.041984E+03  1.150473E+04  4.893660E+02 -2.358537E-09 -1.269867E-10
        41  11 -9.236653E+05 -6.361199E+02  6.000277E+03  9.381306E+01 -2.679236E-09 -2.856631E-10
        41  12 -9.229431E+05 -1.176884E+02  3.532048E+03 -3.017463E+02 -1.703026E-09 -7.994178E-10
        41  13 -9.229404E+05  3.041983E+03  1.150473E+04 -7.029304E-11 -2.153165E-09 -2.494500E-10
        41  14 -9.236653E+05 -6.361199E+02  6.000277E+03  4.572080E-08 -2.320296E-09 -2.265950E-10
        41  15 -9.229431E+05 -1.176886E+02  3.532048E+03  3.768347E-08 -3.531998E-09 -3.072972E-10
        41  16 -9.229404E+05  3.041984E+03  1.150473E+04 -4.893660E+02  2.670837E-09 -3.377674E-10
        41  17 -9.236653E+05 -6.361199E+02  6.000277E+03 -9.381306E+01  4.425095E-10 -3.320431E-10
        41  18 -9.229431E+05 -1.176884E+02  3.532048E+03  3.017463E+02  2.182195E-09  2.304566E-10
        41  19 -9.229403E+05  3.042005E+03  1.150488E+04  4.893660E+02 -8.914810E+03 -7.037047E-03
        41  20 -9.236653E+05 -6.361106E+02  6.000341E+03  9.381306E+01 -5.866136E+03 -8.876875E-04
        41  21 -9.229431E+05 -1.176863E+02  3.532063E+03 -3.017463E+02 -2.817427E+03  1.371318E-03
        41  22 -9.229403E+05  3.042005E+03  1.150488E+04  6.021823E-08 -8.914810E+03 -3.894763E-11
        41  23 -9.236653E+05 -6.361106E+02  6.000341E+03  5.433258E-08 -5.866136E+03  9.016024E-11
        41  24 -9.229431E+05 -1.176865E+02  3.532063E+03  7.213168E-08 -2.817427E+03 -1.305746E-09
        41  25 -9.229403E+05  3.042005E+03  1.150488E+04 -4.893660E+02 -8.914810E+03  7.037047E-03
        41  26 -9.236653E+05 -6.361106E+02  6.000341E+03 -9.381306E+01 -5.866136E+03  8.876877E-04
        41  27 -9.229431E+05 -1.176863E+02  3.532063E+03  3.017463E+02 -2.817427E+03 -1.371322E-03
        42   1 -9.232136E+05  4.069977E+02  2.721395E+03  4.744967E+01  2.254494E+03  1.725553E-04
        42   2 -9.233283E+05 -8.362461E+01  1.411264E+03  1.874109E+00  1.546523E+03  4.675868E-06
        42   3 -9.232142E+05 -2.872888E+01  6.989507E+02 -4.370149E+01  8.385527E+02 -5.911092E-05
        42   4 -9.232136E+05  4.069977E+02  2.721395E+03 -2.941291E-09  2.254494E+03  7.996276E-10
        42   5 -9.233283E+05 -8.362461E+01  1.411264E+03  2.014021E-08  1.546523E+03  1.066918E-10
        42   6 -9.232142E+05 -2.872888E+01  6.989507E+02 -1.993028E-09  8.385527E+02  1.438263E-10
        42   7 -9.232136E+05  4.069977E+02  2.721395E+03 -4.744967E+01  2.254494E+03 -1.725541E-04
        42   8 -9.233283E+05 -8.362461E+01  1.411264E+03 -1.874109E+00  1.546523E+03 -4.675655E-06
        42   9 -9.232142E+05 -2.872888E+01  6.989507E+02  4.370149E+01  8.385527E+02  5.911113E-05
        42  10 -9.232136E+05  4.069964E+02  2.721385E+03  4.744967E+01 -7.092523E-10 -1.726358E-10
        42  11 -9.233283E+05 -8.362525E+01  1.411260E+03  1.874109E+00 -3.123849E-09  4.674520E-10
        42  12 -9.232142E+05 -2.872907E+01  6.989494E+02 -4.370149E+01 -3.960627E-09  2.142343E-10
        42  13 -9.232136E+05  4.069964E+02  2.721385E+03 -1.153942E-08  2.520643E-09 -3.201678E-11
        42  14 -9.233283E+05 -8.362525E+01  1.411260E+03 -1.861247E-08 -1.251913E-09  5.193053E-10
        42  15 -9.232142E+05 -2.872907E+01  6.989494E+02  2.383580E-08 -6.643191E-09  3.796574E-10
        42  16 -9.232136E+05  4.069964E+02  2.721385E+03 -4.744967E+01 -2.762463E-09  3.112954E-10
        42  17 -9.233283E+05 -8.362525E+01  1.411260E+03 -1.874109E+00 -2.194309E-09  5.060528E-10
        42  18 -9.232142E+05 -2.872907E+01  6.989494E+02  4.370149E+01  1.871374E-09  4.259410E-10
        42  19 -9.232136E+05  4.069977E+02  2.721395E+03  4.744967E+01 -2.254494E+03 -1.725559E-04
        42  20 -9.233283E+05 -8.362461E+01  1.411264E+03  1.874109E+00 -1.546523E+03 -4.673707E-06
        42  21 -9.232142E+05 -2.872888E+01  6.989507E+02 -4.370149E+01 -8.385527E+02  5.911172E-05
        42  22 -9.232136E+05  4.069977E+02  2.721395E+03  4.015525E-08 -2.254494E+03 -9.828966E-10
        42  23 -9.233283E+05 -8.362461E+01  1.411264E+03 -3.152583E-08 -1.546523E+03  1.010316E-09
        42  24 -9.232142E+05 -2.872888E+01  6.989507E+02  7.442765E-08 -8.385527E+02  6.491699E-10
        42  25 -9.232136E+05  4.069977E+02  2.721395E+03 -4.744967E+01 -2.254494E+03  1.725536E-04
        42  26 -9.233283E+05 -8.362461E+01  1.411264E+03 -1.874109E+00 -1.546523E+03  4.675960E-06
        42  27 -9.232142E+05 -2.872888E+01  6.989507E+02  4.370149E+01 -8.385527E+02 -5.911091E-05
        43   1 -9.232700E+05  5.679809E+01  4.374779E+02 -9.835391E+00  7.359703E+02 -1.167581E-05
        43   2 -9.232589E+05  1.200050E+01 -3.575434E+01 -1.573924E+00  7.552683E+02 -1.917400E-06
        43   3 -9.232703E+05 -1.127323E+02 -5.415519E+02  6.687424E+00  7.745660E+02  8.355224E-06
        43   4 -9.232700E+05  5.679809E+01  4.374779E+02 -1.151720E-08  7.359703E+02 -1.242840E-10
        43   5 -9.232589E+05  1.200050E+01 -3.575434E+01 -1.342397E-08  7.552683E+02 -6.656417E-10
        43   6 -9.232703E+05 -1.127323E+02 -5.415519E+02  3.741849E-08  7.745660E+02 -1.437762E-10
        43   7 -9.232700E+05  5.679809E+01  4.374779E+02  9.835391E+00  7.359703E+02  1.167581E-05
        43   8 -9.232589E+05  1.200050E+01 -3.575434E+01  1.573924E+00  7.552683E+02  1.916476E-06
        43   9 -9.232703E+05 -1.127323E+02 -5.415519E+02 -6.687424E+00  7.745660E+02 -8.355688E-06
        43  10 -9.232700E+05  5.679795E+01  4.374769E+02 -9.835391E+00 -5.610716E-09 -4.549003E-10
        43  11 -9.232589E+05  1.200034E+01 -3.575541E+01 -1.573924E+00 -2.608000E-09 -4.312042E-10
        43  12 -9.232703E+05 -1.127325E+02 -5.415531E+02  6.687424E+00 -4.519283E-10 -2.872893E-10
        43  13 -9.232700E+05  5.679795E+01  4.374769E+02  5.694048E-09 -1.794185E-09 -5.074943E-11
        43  14 -9.232589E+05  1.200034E+01 -3.575541E+01  8.108031E-09 -1.827818E-09 -5.246283E-10
        43  15 -9.232703E+05 -1.127325E+02 -5.415531E+02  6.216772E-09 -1.526729E-09 -6.777204E-11
        43  16 -9.232700E+05  5.679795E+01  4.374769E+02  9.835391E+00  4.025282E-09  2.202710E-10
        43  17 -9.232589E+05  1.200034E+01 -3.575541E+01  1.573924E+00  1.429151E-09 -8.181897E-10
        43  18 -9.232703E+05 -1.127325E+02 -5.415531E+02 -6.687424E+00 -3.116768E-09 -1.529794E-11
        43  19 -9.232700E+05  5.679809E+01  4.374779E+02 -9.835392E+00 -7.359703E+02  1.167575E-05
        43  20 -9.232589E+05  1.200050E+01 -3.575434E+01 -1.573924E+00 -7.552683E+02  1.917519E-06
        43  21 -9.232703E+05 -1.127323E+02 -5.415519E+02  6.687424E+00 -7.745660E+02 -8.355422E-06
        43  22 -9.232700E+05  5.679809E+01  4.374779E+02  1.176356E-07 -7.359703E+02  1.069841E-10
        43  23 -9.232589E+05  1.200050E+01 -3.575434E+01  4.686337E-08 -7.552683E+02 -1.822315E-10
        43  24 -9.232703E+05 -1.127323E+02 -5.415519E+02  2.884190E-08 -7.745660E+02  3.535162E-11
        43  25 -9.232700E+05  5.679809E+01  4.374779E+02  9.835391E+00 -7.359703E+02 -1.167637E-05
        43  26 -9.232589E+05  1.200050E+01 -3.575434E+01  1.573924E+00 -7.552683E+02 -1.917886E-06
        43  27 -9.232703E+05 -1.127323E+02 -5.415519E+02 -6.687424E+00 -7.745660E+02  8.355769E-06
        44   1 -9.233515E+05  3.821188E+01 -8.113797E+02 -8.326461E+01  8.962283E+02 -1.203717E-04
        44   2 -9.231579E+05  1.725159E+02 -1.553810E+03  2.477158E+01  1.686774E+03  6.739883E-05
        44   3 -9.233522E+05 -8.320345E+02 -3.096196E+03  1.328094E+02  2.477331E+03  5.307106E-04
        44   4 -9.233515E+05  3.821187E+01 -8.113797E+02  3.236885E-08  8.962283E+02 -2.313806E-10
        44   5 -9.231579E+05  1.725159E+02 -1.553810E+03 -4.066678E-10  1.686774E+03 -5.016597E-10
        44   6 -9.233522E+05 -8.320345E+02 -3.096196E+03  6.652374E-09  2.477331E+03  1.070709E-09
        44   7 -9.233515E+05  3.821188E+01 -8.113797E+02  8.326461E+01  8.962283E+02  1.203709E-04
        44   8 -9.231579E+05  1.725159E+02 -1.553810E+03 -2.477158E+01  1.686774E+03 -6.740034E-05
        44   9 -9.233522E+05 -8.320345E+02 -3.096196E+03 -1.328094E+02  2.477331E+03 -5.307089E-04
        44  10 -9.233515E+05  3.821167E+01 -8.113812E+02 -8.326461E+01  4.039397E-10 -1.429027E-10
        44  11 -9.231579E+05  1.725152E+02 -1.553815E+03  2.477158E+01 -7.783528E-10 -6.623641E-11
        44  12 -9.233522E+05 -8.320361E+02 -3.096208E+03  1.328094E+02 -1.966805E-09  3.230089E-10
        44  13 -9.233515E+05  3.821165E+01 -8.113812E+02 -6.239094E-08 -3.420072E-10 -4.438896E-11
        44  14 -9.231579E+05  1.725152E+02 -1.553815E+03  8.214336E-09 -1.576975E-09 -2.851555E-10
        44  15 -9.233522E+05 -8.320361E+02 -3.096208E+03 -2.237940E-08  9.325299E-10  4.398540E-10
        44  16 -9.233515E+05  3.821167E+01 -8.113812E+02  8.326461E+01  9.761300E-10  5.542018E-11
        44  17 -9.231579E+05  1.725152E+02 -1.553815E+03 -2.477158E+01 -1.958595E-09 -9.307249E-10
        44  18 -9.233522E+05 -8.320361E+02 -3.096208E+03 -1.328094E+02  2.695204E-09  5.124002E-10
        44  19 -9.233515E+05  3.821188E+01 -8.113797E+02 -8.326461E+01 -8.962283E+02  1.203715E-04
        44  20 -9.231579E+05  1.725159E+02 -1.553810E+03  2.477158E+01 -1.686774E+03 -6.739828E-05
        44  21 -9.233522E+05 -8.320345E+02 -3.096196E+03  1.328094E+02 -2.477331E+03 -5.307100E-04
        44  22 -9.233515E+05  3.821187E+01 -8.113797E+02  3.232602E-08 -8.962283E+02  9.746445E-11
        44  23 -9.231579E+05  1.725159E+02 -1.553810E+03  4.266840E-08 -1.686774E+03 -7.815142E-11
        44  24 -9.233522E+05 -8.320345E+02 -3.096196E+03  6.700568E-08 -2.477331E+03 -1.270952E-10
        44  25 -9.233515E+05  3.821188E+01 -8.113797E+02  8.326461E+01 -8.962283E+02 -1.203713E-04
        44  26 -9.231579E+05  1.725159E+02 -1.553810E+03 -2.477158E+01 -1.686774E+03  6.739817E-05
        44  27 -9.233522E+05 -8.320345E+02 -3.096196E+03 -1.328094E+02 -2.477331E+03  5.307105E-04
        45   1 -9.238316E+05  2.444002E+02 -3.925385E+03 -5.765818E+02  3.106405E+03 -2.889106E-03
        45   2 -9.225596E+05  1.270097E+03 -6.461361E+03  2.701777E+02  6.469973E+03  2.819653E-03
        45   3 -9.238354E+05 -6.137949E+03 -1.329799E+04  1.116937E+03  9.833534E+03  1.771669E-02
        45   4 -9.238316E+05  2.443996E+02 -3.925385E+03  9.276178E-09  3.106405E+03  1.114990E-09
        45   5 -9.225596E+05  1.270097E+03 -6.461361E+03  5.321795E-09  6.469973E+03 -1.847020E-10
        45   6 -9.238354E+05 -6.137952E+03 -1.329799E+04  4.120016E-08  9.833534E+03 -3.425841E-10
        45   7 -9.238316E+05  2.444002E+02 -3.925385E+03  5.765818E+02  3.106405E+03  2.889108E-03
        45   8 -9.225596E+05  1.270097E+03 -6.461361E+03 -2.701777E+02  6.469973E+03 -2.819654E-03
        45   9 -9.238354E+05 -6.137949E+03 -1.329799E+04 -1.116937E+03  9.833534E+03 -1.771669E-02
        45  10 -9.238316E+05  2.443976E+02 -3.925403E+03 -5.765818E+02 -1.606486E-10  5.888649E-12
        45  11 -9.225596E+05  1.270086E+03 -6.461439E+03  2.701777E+02  1.249227E-09 -2.382589E-10
        45  12 -9.238355E+05 -6.137975E+03 -1.329817E+04  1.116937E+03 -2.052210E-09  2.722482E-12
        45  13 -9.238316E+05  2.443970E+02 -3.925404E+03 -2.521233E-08  2.522275E-11  3.166388E-10
        45  14 -9.225596E+05  1.270086E+03 -6.461439E+03  1.016273E-09  9.100135E-10 -5.682644E-10
        45  15 -9.238355E+05 -6.137978E+03 -1.329817E+04 -2.903367E-09  2.311674E-09  2.690697E-10
        45  16 -9.238316E+05  2.443976E+02 -3.925403E+03  5.765818E+02 -1.185973E-09  6.615747E-10
        45  17 -9.225596E+05  1.270086E+03 -6.461439E+03 -2.701777E+02  9.648244E-11 -7.633993E-10
        45  18 -9.238355E+05 -6.137975E+03 -1.329817E+04 -1.116937E+03  2.544425E-09  4.095291E-10
        45  19 -9.238316E+05  2.444002E+02 -3.925385E+03 -5.765818E+02 -3.106405E+03  2.889106E-03
        45  20 -9.225596E+05  1.270097E+03 -6.461361E+03  2.701777E+02 -6.469973E+03 -2.819654E-03
        45  21 -9.238354E+05 -6.137949E+03 -1.329799E+04  1.116937E+03 -9.833534E+03 -1.771669E-02
        45  22 -9.238316E+05  2.443996E+02 -3.925385E+03  3.503989E-08 -3.106405E+03 -4.967114E-10
        45  23 -9.225596E+05  1.270097E+03 -6.461361E+03 -3.291348E-09 -6.469973E+03 -8.764934E-10
        45  24 -9.238354E+05 -6.137952E+03 -1.329799E+04  7.356857E-08 -9.833534E+03  9.641475E-10
        45  25 -9.238316E+05  2.444002E+02 -3.925385E+03  5.765818E+02 -3.106405E+03 -2.889108E-03
        45  26 -9.225596E+05  1.270097E+03 -6.461361E+03 -2.701777E+02 -6.469973E+03  2.819652E-03
        45  27 -9.238354E+05 -6.137949E+03 -1.329799E+04 -1.116937E+03 -9.833534E+03  1.771669E-02
        46   1 -9.270826E+05  1.823693E+03 -1.614199E+04 -4.091939E+03  1.244982E+04 -8.217480E-02
        46   2 -9.185013E+05  9.246622E+03 -2.498345E+04  2.300408E+03  2.605290E+04  9.667223E-02
        46   3 -9.271039E+05 -4.494812E+04 -5.809473E+04  8.692581E+03  3.965584E+04  5.560321E-01
        46   4 -9.270826E+05  1.823662E+03 -1.614199E+04  1.920089E-08  1.244982E+04  6.655275E-11
        46   5 -9.185013E+05  9.246612E+03 -2.498345E+04  3.742488E-08  2.605290E+04  4.836723E-10
        46   6 -9.271040E+05 -4.494826E+04 -5.809475E+04  5.133878E-08  3.965584E+04  5.356312E-11
        46   7 -9.270826E+05  1.823693E+03 -1.614199E+04  4.091939E+03  1.244982E+04  8.217480E-02
        46   8 -9.185013E+05  9.246622E+03 -2.498345E+04 -2.300408E+03  2.605290E+04 -9.667223E-02
        46   9 -9.271039E+05 -4.494812E+04 -5.809473E+04 -8.692581E+03  3.965584E+04 -5.560321E-01
        46  10 -9.270827E+05  1.823652E+03 -1.614228E+04 -4.091939E+03 -3.744002E-11 -7.667115E-11
        46  11 -9.185021E+05  9.246440E+03 -2.498472E+04  2.300408E+03  1.519987E-09  2.584890E-11
        46  12 -9.271056E+05 -4.494854E+04 -5.809769E+04  8.692581E+03  8.532814E-11 -1.038450E-10
        46  13 -9.270827E+05  1.823620E+03 -1.614229E+04  1.056539E-08 -1.491361E-09  4.289390E-10
        46  14 -9.185021E+05  9.246430E+03 -2.498473E+04  1.157977E-08 -2.153100E-09 -3.734644E-10
        46  15 -9.271057E+05 -4.494868E+04 -5.809771E+04 -3.233976E-10  1.999614E-09 -2.046592E-10
        46  16 -9.270827E+05  1.823652E+03 -1.614228E+04  4.091939E+03 -2.807482E-10  8.688258E-10
        46  17 -9.185021E+05  9.246440E+03 -2.498472E+04 -2.300408E+03 -1.276035E-09 -4.859633E-10
        46  18 -9.271056E+05 -4.494854E+04 -5.809769E+04 -8.692581E+03 -1.673978E-10 -3.214133E-10
        46  19 -9.270826E+05  1.823693E+03 -1.614199E+04 -4.091939E+03 -1.244982E+04  8.217480E-02
        46  20 -9.185013E+05  9.246622E+03 -2.498345E+04  2.300408E+03 -2.605290E+04 -9.667223E-02
        46  21 -9.271039E+05 -4.494812E+04 -5.809473E+04  8.692581E+03 -3.965584E+04 -5.560321E-01
        46  22 -9.270826E+05  1.823662E+03 -1.614199E+04  3.637704E-08 -1.244982E+04  7.871356E-10
        46  23 -9.185013E+05  9.246612E+03 -2.498345E+04 -1.426530E-08 -2.605290E+04 -1.049152E-09
        46  24 -9.271040E+05 -4.494826E+04 -5.809475E+04  3.198334E-08 -3.965584E+04 -3.891252E-10
        46  25 -9.270826E+05  1.823693E+03 -1.614199E+04  4.091939E+03 -1.244982E+04 -8.217480E-02
        46  26 -9.185013E+05  9.246622E+03 -2.498345E+04 -2.300408E+03 -2.605290E+04  9.667223E-02
        46  27 -9.271039E+05 -4.494812E+04 -5.809473E+04 -8.692581E+03 -3.965584E+04  5.560321E-01
        47   1 -1.614026E+05 -2.983654E+06 -2.121443E+05  6.637582E+04  4.645205E+02 -1.489971E+05
        47   2  5.848506E+04 -2.901689E+06 -7.524378E+04  1.057734E+04  2.117584E+03 -9.513031E+04
        47   3  4.237793E+04 -2.885798E+06 -3.252229E+04  9.454226E+03  3.731479E+03 -4.125891E+04
        47   4 -1.737133E+05 -3.032794E+06 -2.243661E+05  2.757828E+04  4.738583E+02 -1.495413E+05
        47   5  3.401651E+04 -2.999620E+06 -9.934540E+04  2.395493E+02  2.119239E+03 -9.566603E+04
        47   6  5.729797E+03 -3.032530E+06 -6.851400E+04  2.758082E+04  3.730403E+03 -4.179040E+04
        47   7 -1.860185E+05 -3.081928E+06 -2.365873E+05 -1.121617E+04  4.832651E+02 -1.500853E+05
        47   8  9.547647E+03 -3.097542E+06 -1.234477E+05 -1.009660E+04  2.120912E+03 -9.620167E+04
        47   9 -3.091870E+04 -3.179242E+06 -1.045071E+05  4.570309E+04  3.729297E+03 -4.232176E+04
        47  10 -1.614086E+05 -2.983678E+06 -2.121862E+05  6.637588E+04  6.237069E-10  1.348186E-09
        47  11  5.848261E+04 -2.901699E+06 -7.526088E+04  1.057750E+04  2.719910E-09 -4.114924E-10
        47  12  4.237745E+04 -2.885800E+06 -3.252553E+04  9.454351E+03  3.379780E-10 -1.785822E-09
        47  13 -1.737193E+05 -3.032818E+06 -2.244084E+05  2.757834E+04  1.480881E-09  1.482137E-10
        47  14  3.401403E+04 -2.999630E+06 -9.936270E+04  2.397127E+02  4.517625E-09  2.284217E-11
        47  15  5.729311E+03 -3.032532E+06 -6.851732E+04  2.758094E+04  1.970588E-09  3.037795E-10
        47  16 -1.860245E+05 -3.081952E+06 -2.366299E+05 -1.121611E+04  1.701140E-09 -1.146787E-09
        47  17  9.545143E+03 -3.097552E+06 -1.234652E+05 -1.009644E+04 -2.972694E-09  3.209000E-10
        47  18 -3.091919E+04 -3.179244E+06 -1.045105E+05  4.570322E+04 -2.353239E-09  1.665494E-09
        47  19 -1.614026E+05 -2.983654E+06 -2.121443E+05  6.637582E+04 -4.645205E+02  1.489971E+05
        47  20  5.848506E+04 -2.901689E+06 -7.524378E+04  1.057734E+04 -2.117584E+03  9.513031E+04
        47  21  4.237793E+04 -2.885798E+06 -3.252229E+04  9.454226E+03 -3.731479E+03  4.125891E+04
        47  22 -1.737133E+05 -3.032794E+06 -2.243661E+05  2.757828E+04 -4.738583E+02  1.495413E+05
        47  23  3.401651E+04 -2.999620E+06 -9.934540E+04  2.395493E+02 -2.119239E+03  9.566603E+04
        47  24  5.729797E+03 -3.032530E+06 -6.851400E+04  2.758082E+04 -3.730403E+03  4.179040E+04
        47  25 -1.860185E+05 -3.081928E+06 -2.365873E+05 -1.121617E+04 -4.832651E+02  1.500853E+05
        47  26  9.547647E+03 -3.097542E+06 -1.234477E+05 -1.009660E+04 -2.120912E+03  9.620167E+04
        47  27 -3.091870E+04 -3.179242E+06 -1.045071E+05  4.570309E+04 -3.729297E+03  4.232176E+04
        48   1  4.181556E+04 -2.765660E+06  3.537014E+03  3.253370E+04  4.897388E+03 -2.976465E+04
        48   2  8.193618E+04 -2.714105E+06  3.425641E+04  1.982302E+03  6.578854E+03 -9.658209E+03
        48   3  7.330209E+04 -2.677083E+06  3.971532E+04  2.100407E+04  7.126315E+03  1.045019E+04
        48   4 -2.204848E+04 -3.021165E+06 -5.947520E+04  2.644200E+04  4.898001E+03 -3.050990E+04
        48   5  7.049534E+03 -3.013854E+06 -3.948174E+04  1.653133E+03  6.579270E+03 -1.003160E+04
        48   6 -1.268445E+04 -3.021147E+06 -4.501529E+04  2.643934E+04  7.126661E+03  1.044725E+04
        48   7 -8.591727E+04 -3.276611E+06 -1.224922E+05  2.035282E+04  4.898630E+03 -3.125484E+04
        48   8 -6.784382E+04 -3.313519E+06 -1.132265E+05  1.324135E+03  6.579686E+03 -1.040480E+04
        48   9 -9.867975E+04 -3.365102E+06 -1.297546E+05  3.187159E+04  7.127007E+03  1.044430E+04
        48  10  4.181529E+04 -2.765661E+06  3.535297E+03  3.253381E+04 -5.955104E-10 -1.427883E-09
        48  11  8.193610E+04 -2.714106E+06  3.425615E+04  1.982353E+03  3.252217E-09 -7.873661E-10
        48  12  7.330201E+04 -2.677083E+06  3.971502E+04  2.100401E+04 -2.312564E-09  2.725500E-09
        48  13 -2.204876E+04 -3.021167E+06 -5.947701E+04  2.644212E+04  1.133630E-10  2.316666E-10
        48  14  7.049461E+03 -3.013854E+06 -3.948201E+04  1.653186E+03  8.690182E-09 -7.408055E-11
        48  15 -1.268454E+04 -3.021147E+06 -4.501559E+04  2.643928E+04 -1.767801E-09  2.718353E-10
        48  16 -8.591756E+04 -3.276612E+06 -1.224941E+05  2.035295E+04  2.128991E-10  1.411037E-09
        48  17 -6.784389E+04 -3.313520E+06 -1.132268E+05  1.324190E+03  4.534229E-09  2.419505E-10
        48  18 -9.867983E+04 -3.365102E+06 -1.297549E+05  3.187153E+04 -8.297444E-10 -3.417817E-09
        48  19  4.181556E+04 -2.765660E+06  3.537014E+03  3.253370E+04 -4.897388E+03  2.976465E+04
        48  20  8.193618E+04 -2.714105E+06  3.425641E+04  1.982302E+03 -6.578854E+03  9.658209E+03
        48  21  7.330209E+04 -2.677083E+06  3.971532E+04  2.100407E+04 -7.126315E+03 -1.045019E+04
        48  22 -2.204848E+04 -3.021165E+06 -5.947520E+04  2.644200E+04 -4.898001E+03  3.050990E+04
        48  23  7.049534E+03 -3.013854E+06 -3.948174E+04  1.653133E+03 -6.579270E+03  1.003160E+04
        48  24 -1.268445E+04 -3.021147E+06 -4.501529E+04  2.643934E+04 -7.126661E+03 -1.044725E+04
        48  25 -8.591727E+04 -3.276611E+06 -1.224922E+05  2.035282E+04 -4.898630E+03  3.125484E+04
        48  26 -6.784382E+04 -3.313519E+06 -1.132265E+05  1.324135E+03 -6.579686E+03  1.040480E+04
        48  27 -9.867975E+04 -3.365102E+06 -1.297546E+05  3.187159E+04 -7.127007E+03 -1.044430E+04
        49   1  1.107803E+05 -2.589366E+06  5.938625E+04  3.509968E+04  9.306316E+03  2.082132E+04
        49   2  1.387372E+05 -2.534324E+06  5.329023E+04 -2.228707E+03  1.106392E+04  5.171690E+04
        49   3  2.328434E+04 -2.518493E+06 -8.680622E+03 -1.645273E+02  3.679526E+03  8.259915E+04
        49   4  1.535668E+03 -3.026730E+06 -4.825065E+04  2.423726E+04  9.308518E+03  1.868125E+04
        49   5  2.069132E+04 -3.006920E+06 -6.279159E+04  4.445035E+03  1.106368E+04  5.261620E+04
        49   6 -1.041521E+05 -3.026884E+06 -1.353564E+05  2.404740E+04  3.675528E+03  8.653582E+04
        49   7 -1.077228E+05 -3.463919E+06 -1.559016E+05  1.338257E+04  9.310796E+03  1.654269E+04
        49   8 -9.737105E+04 -3.479312E+06 -1.788899E+05  1.111374E+04  1.106346E+04  5.351480E+04
        49   9 -2.316060E+05 -3.535038E+06 -2.620513E+05  4.823952E+04  3.671838E+03  9.046924E+04
        49  10  1.107801E+05 -2.589367E+06  5.938527E+04  3.509952E+04 -3.499606E-09  3.453439E-09
        49  11  1.387363E+05 -2.534327E+06  5.328495E+04 -2.229169E+03 -5.461766E-09 -3.131217E-09
        49  12  2.328248E+04 -2.518500E+06 -8.693520E+03 -1.647723E+02 -3.284619E-09 -2.647986E-09
        49  13  1.535481E+03 -3.026730E+06 -4.825147E+04  2.423712E+04 -1.919369E-09  8.034838E-10
        49  14  2.069045E+04 -3.006923E+06 -6.279705E+04  4.444565E+03 -5.519081E-09 -6.542208E-10
        49  15 -1.041542E+05 -3.026892E+06 -1.353706E+05  2.404714E+04 -1.057660E-09  6.852960E-10
        49  16 -1.077230E+05 -3.463919E+06 -1.559023E+05  1.338245E+04 -3.606233E-10 -3.118963E-09
        49  17 -9.737196E+04 -3.479315E+06 -1.788955E+05  1.111326E+04  1.968742E-09  1.221563E-09
        49  18 -2.316082E+05 -3.535047E+06 -2.620668E+05  4.823925E+04 -2.324461E-10  1.242393E-09
        49  19  1.107803E+05 -2.589366E+06  5.938625E+04  3.509968E+04 -9.306316E+03 -2.082132E+04
        49  20  1.387372E+05 -2.534324E+06  5.329023E+04 -2.228707E+03 -1.106392E+04 -5.171690E+04
        49  21  2.328434E+04 -2.518493E+06 -8.680622E+03 -1.645273E+02 -3.679526E+03 -8.259915E+04
        49  22  1.535668E+03 -3.026730E+06 -4.825065E+04  2.423726E+04 -9.308518E+03 -1.868125E+04
        49  23  2.069132E+04 -3.006920E+06 -6.279159E+04  4.445035E+03 -1.106368E+04 -5.261620E+04
        49  24 -1.041521E+05 -3.026884E+06 -1.353564E+05  2.404740E+04 -3.675528E+03 -8.653582E+04
        49  25 -1.077228E+05 -3.463919E+06 -1.559016E+05  1.338257E+04 -9.310796E+03 -1.654269E+04
        49  26 -9.737105E+04 -3.479312E+06 -1.788899E+05  1.111374E+04 -1.106346E+04 -5.351480E+04
        49  27 -2.316060E+05 -3.535038E+06 -2.620513E+05  4.823952E+04 -3.671838E+03 -9.046924E+04
        50   1 -1.324225E+06 -1.260559E+05  8.435391E+04 -5.086834E+05  6.653027E+04  2.557940E+04
        50   2 -1.340076E+06 -2.169838E+05  2.377430E+04 -4.838314E+05  4.253811E+04  1.772804E+04
        50   3 -1.307135E+06 -2.107479E+05  9.251222E+03 -4.935248E+05  1.906172E+04  8.499527E+03
        50   4 -1.235163E+06 -1.059784E+05  1.061034E+05 -4.984274E+05  6.699307E+04  2.575110E+04
        50   5 -1.264909E+06 -1.922051E+05  4.348906E+04 -4.670650E+05  4.262657E+04  1.776087E+04
        50   6 -1.245795E+06 -1.812020E+05  2.722330E+04 -4.702468E+05  1.877633E+04  8.392820E+03
        50   7 -1.146093E+06 -8.590121E+04  1.278523E+05 -4.881707E+05  6.745595E+04  2.592279E+04
        50   8 -1.189737E+06 -1.674263E+05  6.320333E+04 -4.502969E+05  4.271504E+04  1.779371E+04
        50   9 -1.184451E+06 -1.516550E+05  4.519506E+04 -4.469664E+05  1.849090E+04  8.286095E+03
        50  10 -1.324230E+06 -1.260578E+05  8.434433E+04 -5.086848E+05  1.468829E-11 -5.765045E-10
        50  11 -1.340078E+06 -2.169846E+05  2.377030E+04 -4.838320E+05 -3.150555E-09 -5.083663E-10
        50  12 -1.307135E+06 -2.107481E+05  9.250401E+03 -4.935249E+05  2.157617E-09  7.597590E-10
        50  13 -1.235168E+06 -1.059803E+05  1.060937E+05 -4.984288E+05 -1.308995E-10  8.014409E-11
        50  14 -1.264911E+06 -1.922059E+05  4.348504E+04 -4.670656E+05 -3.792218E-10  5.839052E-10
        50  15 -1.245795E+06 -1.812022E+05  2.722251E+04 -4.702469E+05  1.922057E-09 -1.672885E-11
        50  16 -1.146098E+06 -8.590316E+04  1.278425E+05 -4.881721E+05 -5.832733E-12  2.915945E-10
        50  17 -1.189739E+06 -1.674271E+05  6.319930E+04 -4.502975E+05  2.755091E-09  6.386704E-10
        50  18 -1.184451E+06 -1.516552E+05  4.519429E+04 -4.469666E+05  5.654911E-10 -7.283000E-11
        50  19 -1.324225E+06 -1.260559E+05  8.435391E+04 -5.086834E+05 -6.653027E+04 -2.557940E+04
        50  20 -1.340076E+06 -2.169838E+05  2.377430E+04 -4.838314E+05 -4.253811E+04 -1.772804E+04
        50  21 -1.307135E+06 -2.107479E+05  9.251222E+03 -4.935248E+05 -1.906172E+04 -8.499527E+03
        50  22 -1.235163E+06 -1.059784E+05  1.061034E+05 -4.984274E+05 -6.699307E+04 -2.575110E+04
        50  23 -1.264909E+06 -1.922051E+05  4.348906E+04 -4.670650E+05 -4.262657E+04 -1.776087E+04
        50  24 -1.245795E+06 -1.812020E+05  2.722330E+04 -4.702468E+05 -1.877633E+04 -8.392820E+03
        50  25 -1.146093E+06 -8.590121E+04  1.278523E+05 -4.881707E+05 -6.745595E+04 -2.592279E+04
        50  26 -1.189737E+06 -1.674263E+05  6.320333E+04 -4.502969E+05 -4.271504E+04 -1.779371E+04
        50  27 -1.184451E+06 -1.516550E+05  4.519506E+04 -4.469664E+05 -1.849090E+04 -8.286095E+03
        51   1 -1.293587E+06 -1.841923E+05  1.062429E+04 -4.874942E+05  1.485362E+04  6.504645E+03
        51   2 -1.292776E+06 -1.911563E+05  4.855747E+02 -4.786074E+05  9.533179E+03  4.379577E+03
        51   3 -1.278432E+06 -1.910534E+05 -1.703370E+03 -4.818491E+05  4.283280E+03  2.066040E+03
        51   4 -1.249130E+06 -1.692233E+05  2.236645E+04 -4.772599E+05  1.484874E+04  6.502757E+03
        51   5 -1.256638E+06 -1.779759E+05  1.022573E+04 -4.692440E+05  9.477157E+03  4.358576E+03
        51   6 -1.250604E+06 -1.796520E+05  6.074873E+03 -4.733563E+05  4.176211E+03  2.025939E+03
        51   7 -1.204672E+06 -1.542542E+05  3.410846E+04 -4.670250E+05  1.484386E+04  6.500870E+03
        51   8 -1.220500E+06 -1.647955E+05  1.996575E+04 -4.598801E+05  9.421133E+03  4.337573E+03
        51   9 -1.222775E+06 -1.682506E+05  1.385300E+04 -4.648633E+05  4.069138E+03  1.985836E+03
        51  10 -1.293587E+06 -1.841924E+05  1.062380E+04 -4.874943E+05  1.182041E-09  3.009403E-10
        51  11 -1.292776E+06 -1.911563E+05  4.853674E+02 -4.786074E+05 -1.436268E-10 -6.345804E-10
        51  12 -1.278432E+06 -1.910534E+05 -1.703413E+03 -4.818491E+05 -9.217230E-10 -8.076997E-10
        51  13 -1.249130E+06 -1.692234E+05  2.236596E+04 -4.772600E+05  9.007448E-09  3.195841E-10
        51  14 -1.256639E+06 -1.779759E+05  1.022553E+04 -4.692440E+05  2.947358E-09  5.121537E-10
        51  15 -1.250604E+06 -1.796520E+05  6.074833E+03 -4.733564E+05  2.846370E-10 -1.353138E-10
        51  16 -1.204672E+06 -1.542543E+05  3.410796E+04 -4.670251E+05  1.550136E-09 -1.006287E-09
        51  17 -1.220500E+06 -1.647955E+05  1.996554E+04 -4.598801E+05 -1.275392E-09  9.519703E-11
        51  18 -1.222775E+06 -1.682506E+05  1.385296E+04 -4.648633E+05  1.659736E-09  6.371047E-10
        51  19 -1.293587E+06 -1.841923E+05  1.062429E+04 -4.874942E+05 -1.485362E+04 -6.504645E+03
        51  20 -1.292776E+06 -1.911563E+05  4.855747E+02 -4.786074E+05 -9.533179E+03 -4.379577E+03
        51  21 -1.278432E+06 -1.910534E+05 -1.703370E+03 -4.818491E+05 -4.283280E+03 -2.066040E+03
        51  22 -1.249130E+06 -1.692233E+05  2.236645E+04 -4.772599E+05 -1.484874E+04 -6.502757E+03
        51  23 -1.256638E+06 -1.779759E+05  1.022573E+04 -4.692440E+05 -9.477157E+03 -4.358576E+03
        51  24 -1.250604E+06 -1.796520E+05  6.074873E+03 -4.733563E+05 -4.176211E+03 -2.025939E+03
        51  25 -1.204672E+06 -1.542542E+05  3.410846E+04 -4.670250E+05 -1.484386E+04 -6.500870E+03
        51  26 -1.220500E+06 -1.647955E+05  1.996575E+04 -4.598801E+05 -9.421133E+03 -4.337573E+03
        51  27 -1.222775E+06 -1.682506E+05  1.385300E+04 -4.648633E+05 -4.069138E+03 -1.985836E+03
        52   1 -1.255222E+06 -1.793664E+05  3.761104E+03 -4.752633E+05  3.424158E+03  1.516970E+03
        52   2 -1.251907E+06 -1.745623E+05  3.318124E+03 -4.684741E+05  2.321230E+03  7.941482E+02
        52   3 -1.240060E+06 -1.753804E+05  4.316995E+03 -4.709137E+05  1.225553E+03  5.192005E+01
        52   4 -1.251093E+06 -1.780400E+05  4.814085E+03 -4.743723E+05  3.353666E+03  1.490563E+03
        52   5 -1.255461E+06 -1.759495E+05  2.341265E+03 -4.694885E+05  2.245506E+03  7.657813E+02
        52   6 -1.251297E+06 -1.794803E+05  1.314412E+03 -4.738336E+05  1.144614E+03  2.159907E+01
        52   7 -1.246964E+06 -1.767137E+05  5.867070E+03 -4.734814E+05  3.283173E+03  1.464156E+03
        52   8 -1.259015E+06 -1.773368E+05  1.364400E+03 -4.705029E+05  2.169782E+03  7.374146E+02
        52   9 -1.262534E+06 -1.835801E+05 -1.688194E+03 -4.767533E+05  1.063677E+03 -8.721457E+00
        52  10 -1.255222E+06 -1.793664E+05  3.761078E+03 -4.752633E+05 -1.926454E-09 -1.187265E-09
        52  11 -1.251907E+06 -1.745623E+05  3.318113E+03 -4.684741E+05 -3.007806E-09 -1.685945E-09
        52  12 -1.240060E+06 -1.753804E+05  4.316992E+03 -4.709137E+05  1.946795E-09  8.229903E-11
        52  13 -1.251093E+06 -1.780400E+05  4.814059E+03 -4.743724E+05  2.119213E-09  1.458241E-11
        52  14 -1.255461E+06 -1.759495E+05  2.341254E+03 -4.694885E+05 -5.809826E-09 -1.757153E-09
        52  15 -1.251297E+06 -1.794803E+05  1.314409E+03 -4.738336E+05  4.535417E-10 -1.134327E-09
        52  16 -1.246964E+06 -1.767137E+05  5.867045E+03 -4.734814E+05  3.227672E-09  9.154548E-10
        52  17 -1.259015E+06 -1.773368E+05  1.364390E+03 -4.705029E+05  1.626329E-09 -1.278697E-09
        52  18 -1.262534E+06 -1.835801E+05 -1.688196E+03 -4.767533E+05 -3.346747E-09 -1.144785E-09
        52  19 -1.255222E+06 -1.793664E+05  3.761104E+03 -4.752633E+05 -3.424158E+03 -1.516970E+03
        52  20 -1.251907E+06 -1.745623E+05  3.318124E+03 -4.684741E+05 -2.321230E+03 -7.941482E+02
        52  21 -1.240060E+06 -1.753804E+05  4.316995E+03 -4.709137E+05 -1.225553E+03 -5.192005E+01
        52  22 -1.251093E+06 -1.780400E+05  4.814085E+03 -4.743723E+05 -3.353666E+03 -1.490563E+03
        52  23 -1.255461E+06 -1.759495E+05  2.341265E+03 -4.694885E+05 -2.245506E+03 -7.657813E+02
        52  24 -1.251297E+06 -1.794803E+05  1.314412E+03 -4.738336E+05 -1.144614E+03 -2.159907E+01
        52  25 -1.246964E+06 -1.767137E+05  5.867070E+03 -4.734814E+05 -3.283173E+03 -1.464156E+03
        52  26 -1.259015E+06 -1.773368E+05  1.364400E+03 -4.705029E+05 -2.169782E+03 -7.374146E+02
        52  27 -1.262534E+06 -1.835801E+05 -1.688194E+03 -4.767533E+05 -1.063677E+03  8.721457E+00
        53   1 -1.216109E+06 -1.658356E+05  1.064058E+04 -4.642715E+05  1.097972E+03 -1.944256E+02
        53   2 -1.212586E+06 -1.596976E+05  1.201177E+04 -4.580533E+05  9.851701E+02 -5.614407E+02
        53   3 -1.201624E+06 -1.606345E+05  1.361253E+04 -4.602779E+05  8.665317E+02 -9.127661E+02
        53   4 -1.251453E+06 -1.791825E+05  9.923128E+02 -4.738916E+05  1.019156E+03 -2.239549E+02
        53   5 -1.255188E+06 -1.757569E+05  4.217611E+02 -4.696282E+05  9.105865E+02 -5.893907E+02
        53   6 -1.251485E+06 -1.794068E+05  7.743494E+01 -4.738076E+05  7.961824E+02 -9.391361E+02
        53   7 -1.286796E+06 -1.925292E+05 -8.656012E+03 -4.835111E+05  9.403456E+02 -2.534822E+02
        53   8 -1.297788E+06 -1.918160E+05 -1.116839E+04 -4.812024E+05  8.360086E+02 -6.173386E+02
        53   9 -1.301343E+06 -1.981791E+05 -1.345792E+04 -4.873364E+05  7.258391E+02 -9.655038E+02
        53  10 -1.216109E+06 -1.658356E+05  1.064058E+04 -4.642715E+05  2.190949E-09  6.503480E-11
        53  11 -1.212586E+06 -1.596976E+05  1.201177E+04 -4.580533E+05  1.519784E-09  2.705624E-10
        53  12 -1.201624E+06 -1.606345E+05  1.361252E+04 -4.602779E+05  1.524852E-09  9.043959E-11
        53  13 -1.251453E+06 -1.791825E+05  9.923108E+02 -4.738916E+05  9.373986E-11 -3.679504E-10
        53  14 -1.255188E+06 -1.757569E+05  4.217589E+02 -4.696282E+05 -5.105238E-09  7.917745E-11
        53  15 -1.251485E+06 -1.794068E+05  7.743210E+01 -4.738076E+05  9.610497E-10 -2.545143E-10
        53  16 -1.286796E+06 -1.925292E+05 -8.656013E+03 -4.835111E+05 -2.202263E-10 -1.191351E-09
        53  17 -1.297788E+06 -1.918160E+05 -1.116839E+04 -4.812024E+05 -1.800063E-09 -6.858379E-10
        53  18 -1.301343E+06 -1.981791E+05 -1.345792E+04 -4.873364E+05  1.134305E-09  6.401663E-10
        53  19 -1.216109E+06 -1.658356E+05  1.064058E+04 -4.642715E+05 -1.097972E+03  1.944256E+02
        53  20 -1.212586E+06 -1.596976E+05  1.201177E+04 -4.580533E+05 -9.851701E+02  5.614407E+02
        53  21 -1.201624E+06 -1.606345E+05  1.361253E+04 -4.602779E+05 -8.665317E+02  9.127661E+02
        53  22 -1.251453E+06 -1.791825E+05  9.923128E+02 -4.738916E+05 -1.019156E+03  2.239549E+02
        53  23 -1.255188E+06 -1.757569E+05  4.217611E+02 -4.696282E+05 -9.105865E+02  5.893907E+02
        53  24 -1.251485E+06 -1.794068E+05  7.743494E+01 -4.738076E+05 -7.961824E+02  9.391361E+02
        53  25 -1.286796E+06 -1.925292E+05 -8.656012E+03 -4.835111E+05 -9.403456E+02  2.534822E+02
        53  26 -1.297788E+06 -1.918160E+05 -1.116839E+04 -4.812024E+05 -8.360086E+02  6.173386E+02
        53  27 -1.301343E+06 -1.981791E+05 -1.345792E+04 -4.873364E+05 -7.258391E+02  9.655038E+02
        54   1 -1.179434E+06 -1.519320E+05  1.961910E+04 -4.540164E+05  9.306156E+02 -1.070234E+03
        54   2 -1.176252E+06 -1.462601E+05  2.098998E+04 -4.485287E+05  1.227324E+03 -1.259429E+03
        54   3 -1.166684E+06 -1.472928E+05  2.215564E+04 -4.504033E+05  1.509859E+03 -1.410614E+03
        54   4 -1.251697E+06 -1.791590E+05 -6.421467E+01 -4.736301E+05  8.545555E+02 -1.098753E+03
        54   5 -1.254904E+06 -1.759169E+05 -4.086688E+02 -4.699072E+05  1.161468E+03 -1.284135E+03
        54   6 -1.251728E+06 -1.793814E+05 -9.664359E+02 -4.735468E+05  1.454204E+03 -1.431505E+03
        54   7 -1.323955E+06 -2.063856E+05 -1.974800E+04 -4.932418E+05  7.785052E+02 -1.127268E+03
        54   8 -1.333550E+06 -2.055732E+05 -2.180785E+04 -4.912833E+05  1.095622E+03 -1.308837E+03
        54   9 -1.336765E+06 -2.114696E+05 -2.408912E+04 -4.966874E+05  1.398558E+03 -1.452392E+03
        54  10 -1.179434E+06 -1.519320E+05  1.961910E+04 -4.540164E+05  2.009636E-09 -5.607941E-10
        54  11 -1.176252E+06 -1.462601E+05  2.098997E+04 -4.485287E+05  1.282548E-09  1.256790E-11
        54  12 -1.166684E+06 -1.472928E+05  2.215563E+04 -4.504033E+05 -1.844659E-09 -1.076201E-10
        54  13 -1.251697E+06 -1.791590E+05 -6.421831E+01 -4.736301E+05  1.655493E-09 -5.764133E-10
        54  14 -1.254904E+06 -1.759169E+05 -4.086745E+02 -4.699072E+05  2.490544E-10  2.027782E-11
        54  15 -1.251728E+06 -1.793814E+05 -9.664437E+02 -4.735468E+05  2.226877E-10  2.729093E-10
        54  16 -1.323955E+06 -2.063856E+05 -1.974801E+04 -4.932418E+05  1.795825E-10  6.217108E-10
        54  17 -1.333550E+06 -2.055732E+05 -2.180786E+04 -4.912833E+05 -2.273900E-09 -4.287326E-10
        54  18 -1.336765E+06 -2.114696E+05 -2.408913E+04 -4.966874E+05  4.342789E-10  4.214262E-10
        54  19 -1.179434E+06 -1.519320E+05  1.961910E+04 -4.540164E+05 -9.306156E+02  1.070234E+03
        54  20 -1.176252E+06 -1.462601E+05  2.098998E+04 -4.485287E+05 -1.227324E+03  1.259429E+03
        54  21 -1.166684E+06 -1.472928E+05  2.215564E+04 -4.504033E+05 -1.509859E+03  1.410614E+03
        54  22 -1.251697E+06 -1.791590E+05 -6.421467E+01 -4.736301E+05 -8.545555E+02  1.098753E+03
        54  23 -1.254904E+06 -1.759169E+05 -4.086688E+02 -4.699072E+05 -1.161468E+03  1.284135E+03
        54  24 -1.251728E+06 -1.793814E+05 -9.664359E+02 -4.735468E+05 -1.454204E+03  1.431505E+03
        54  25 -1.323955E+06 -2.063856E+05 -1.974800E+04 -4.932418E+05 -7.785052E+02  1.127268E+03
        54  26 -1.333550E+06 -2.055732E+05 -2.180785E+04 -4.912833E+05 -1.095622E+03  1.308837E+03
        54  27 -1.336765E+06 -2.114696E+05 -2.408912E+04 -4.966874E+05 -1.398558E+03  1.452392E+03
        55   1 -1.147987E+06 -1.397280E+05  2.704411E+04 -4.451772E+05  1.763251E+03 -1.474409E+03
        55   2 -1.145268E+06 -1.348030E+05  2.740294E+04 -4.406390E+05  3.007704E+03 -1.262405E+03
        55   3 -1.138202E+06 -1.370070E+05  2.637672E+04 -4.415456E+05  4.220711E+03 -9.662865E+02
        55   4 -1.252097E+06 -1.788669E+05 -1.280570E+03 -4.733498E+05  1.691674E+03 -1.501282E+03
        55   5 -1.254368E+06 -1.760064E+05 -2.291372E+03 -4.703624E+05  2.958565E+03 -1.280874E+03
        55   6 -1.252298E+06 -1.802798E+05 -4.705248E+03 -4.728201E+05  4.193998E+03 -9.763495E+02
        55   7 -1.356197E+06 -2.180052E+05 -2.960627E+04 -5.015181E+05  1.620111E+03 -1.528150E+03
        55   8 -1.363457E+06 -2.172092E+05 -3.198678E+04 -5.000812E+05  2.909436E+03 -1.299340E+03
        55   9 -1.366381E+06 -2.235518E+05 -3.578839E+04 -5.040893E+05  4.167290E+03 -9.864104E+02
        55  10 -1.147987E+06 -1.397280E+05  2.704410E+04 -4.451772E+05 -3.997836E-09 -4.118009E-10
        55  11 -1.145268E+06 -1.348030E+05  2.740292E+04 -4.406390E+05 -2.855441E-09 -1.504765E-09
        55  12 -1.138202E+06 -1.370071E+05  2.637668E+04 -4.415456E+05  9.285739E-10 -1.359396E-09
        55  13 -1.252097E+06 -1.788669E+05 -1.280580E+03 -4.733498E+05  1.575929E-09 -2.491774E-10
        55  14 -1.254368E+06 -1.760064E+05 -2.291391E+03 -4.703624E+05  6.202710E-12 -1.404889E-09
        55  15 -1.252298E+06 -1.802798E+05 -4.705283E+03 -4.728200E+05 -5.816657E-10 -1.148247E-09
        55  16 -1.356197E+06 -2.180052E+05 -2.960628E+04 -5.015181E+05  5.502989E-09  3.895073E-10
        55  17 -1.363457E+06 -2.172092E+05 -3.198680E+04 -5.000812E+05  1.452745E-09 -1.730031E-09
        55  18 -1.366381E+06 -2.235518E+05 -3.578843E+04 -5.040893E+05 -1.146148E-09 -9.614119E-10
        55  19 -1.147987E+06 -1.397280E+05  2.704411E+04 -4.451772E+05 -1.763251E+03  1.474409E+03
        55  20 -1.145268E+06 -1.348030E+05  2.740294E+04 -4.406390E+05 -3.007704E+03  1.262405E+03
        55  21 -1.138202E+06 -1.370070E+05  2.637672E+04 -4.415456E+05 -4.220711E+03  9.662865E+02
        55  22 -1.252097E+06 -1.788669E+05 -1.280570E+03 -4.733498E+05 -1.691674E+03  1.501282E+03
        55  23 -1.254368E+06 -1.760064E+05 -2.291372E+03 -4.703624E+05 -2.958565E+03  1.280874E+03
        55  24 -1.252298E+06 -1.802798E+05 -4.705248E+03 -4.728201E+05 -4.193998E+03  9.763495E+02
        55  25 -1.356197E+06 -2.180052E+05 -2.960627E+04 -5.015181E+05 -1.620111E+03  1.528150E+03
        55  26 -1.363457E+06 -2.172092E+05 -3.198678E+04 -5.000812E+05 -2.909436E+03  1.299340E+03
        55  27 -1.366381E+06 -2.235518E+05 -3.578839E+04 -5.040893E+05 -4.167290E+03  9.864104E+02
        56   1 -1.124162E+06 -1.304811E+05  2.901459E+04 -4.391401E+05  5.219652E+03 -7.541718E+02
        56   2 -1.121174E+06 -1.244665E+05  2.586991E+04 -4.349454E+05  1.049133E+04  1.016758E+03
        56   3 -1.120577E+06 -1.360933E+05  1.500399E+04 -4.311893E+05  1.563341E+04  3.132838E+03
        56   4 -1.253186E+06 -1.782833E+05 -5.935999E+03 -4.733363E+05  5.123297E+03 -7.903855E+02
        56   5 -1.252705E+06 -1.745507E+05 -1.000409E+04 -4.712029E+05  1.048681E+04  1.015008E+03
        56   6 -1.254635E+06 -1.884797E+05 -2.186758E+04 -4.695078E+05  1.572070E+04  3.165553E+03
        56   7 -1.382194E+06 -2.260847E+05 -4.088802E+04 -5.075260E+05  5.026963E+03 -8.265912E+02
        56   8 -1.384219E+06 -2.246339E+05 -4.587966E+04 -5.074534E+05  1.048229E+04  1.013257E+03
        56   9 -1.388675E+06 -2.408648E+05 -5.874085E+04 -5.078188E+05  1.580796E+04  3.198258E+03
        56  10 -1.124162E+06 -1.304811E+05  2.901453E+04 -4.391401E+05  9.713266E-10 -1.563272E-09
        56  11 -1.121174E+06 -1.244665E+05  2.586970E+04 -4.349454E+05 -2.644081E-09  6.923853E-10
        56  12 -1.120578E+06 -1.360934E+05  1.500351E+04 -4.311893E+05 -1.095946E-09  1.694557E-10
        56  13 -1.253186E+06 -1.782834E+05 -5.936050E+03 -4.733363E+05  2.509006E-09 -9.950123E-10
        56  14 -1.252705E+06 -1.745508E+05 -1.000430E+04 -4.712029E+05 -2.761367E-09  2.195003E-10
        56  15 -1.254635E+06 -1.884798E+05 -2.186806E+04 -4.695078E+05  8.008183E-11 -8.305317E-10
        56  16 -1.382194E+06 -2.260847E+05 -4.088807E+04 -5.075260E+05  1.077323E-09 -1.180469E-09
        56  17 -1.384219E+06 -2.246340E+05 -4.587987E+04 -5.074534E+05  3.326525E-09 -1.230813E-09
        56  18 -1.388675E+06 -2.408648E+05 -5.874134E+04 -5.078188E+05 -1.536759E-09 -1.612793E-10
        56  19 -1.124162E+06 -1.304811E+05  2.901459E+04 -4.391401E+05 -5.219652E+03  7.541718E+02
        56  20 -1.121174E+06 -1.244665E+05  2.586991E+04 -4.349454E+05 -1.049133E+04 -1.016758E+03
        56  21 -1.120577E+06 -1.360933E+05  1.500399E+04 -4.311893E+05 -1.563341E+04 -3.132838E+03
        56  22 -1.253186E+06 -1.782833E+05 -5.935999E+03 -4.733363E+05 -5.123297E+03  7.903855E+02
        56  23 -1.252705E+06 -1.745507E+05 -1.000409E+04 -4.712029E+05 -1.048681E+04 -1.015008E+03
        56  24 -1.254635E+06 -1.884797E+05 -2.186758E+04 -4.695078E+05 -1.572070E+04 -3.165553E+03
        56  25 -1.382194E+06 -2.260847E+05 -4.088802E+04 -5.075260E+05 -5.026963E+03  8.265912E+02
        56  26 -1.384219E+06 -2.246339E+05 -4.587966E+04 -5.074534E+05 -1.048229E+04 -1.013257E+03
        56  27 -1.388675E+06 -2.408648E+05 -5.874085E+04 -5.078188E+05 -1.580796E+04 -3.198258E+03
        57   1 -1.110251E+06 -1.265002E+05  1.247522E+04 -4.417787E+05  2.022502E+04  4.404920E+03
        57   2 -1.101239E+06 -1.040171E+05 -3.064907E+03 -4.317227E+05  4.315834E+04  1.273492E+04
        57   3 -1.131739E+06 -1.844627E+05 -6.339719E+04 -3.970439E+05  6.522083E+04  2.337901E+04
        57   4 -1.258470E+06 -1.761814E+05 -2.661370E+04 -4.756994E+05  1.984095E+04  4.260704E+03
        57   5 -1.243878E+06 -1.613916E+05 -4.252601E+04 -4.741944E+05  4.339209E+04  1.282251E+04
        57   6 -1.268931E+06 -2.496676E+05 -1.037288E+05 -4.480641E+05  6.607248E+04  2.369781E+04
        57   7 -1.406667E+06 -2.258624E+05 -6.570445E+04 -5.096132E+05  1.945698E+04  4.116515E+03
        57   8 -1.386498E+06 -2.187641E+05 -8.198897E+04 -5.166570E+05  4.362578E+04  1.291006E+04
        57   9 -1.406104E+06 -3.148678E+05 -1.440623E+05 -4.990729E+05  6.692392E+04  2.401648E+04
        57  10 -1.110252E+06 -1.265004E+05  1.247441E+04 -4.417788E+05 -1.356650E-10  7.405170E-11
        57  11 -1.101241E+06 -1.040178E+05 -3.068720E+03 -4.317231E+05 -1.160902E-09  2.985489E-09
        57  12 -1.131743E+06 -1.844644E+05 -6.340623E+04 -3.970451E+05  1.058380E-09  1.533517E-09
        57  13 -1.258470E+06 -1.761816E+05 -2.661447E+04 -4.756994E+05  2.589846E-09 -4.669848E-10
        57  14 -1.243881E+06 -1.613923E+05 -4.252987E+04 -4.741949E+05  7.439190E-10  7.220344E-10
        57  15 -1.268936E+06 -2.496693E+05 -1.037381E+05 -4.480654E+05 -2.151286E-09  9.312963E-10
        57  16 -1.406668E+06 -2.258626E+05 -6.570519E+04 -5.096133E+05  7.150892E-10  1.589276E-09
        57  17 -1.386500E+06 -2.187648E+05 -8.199287E+04 -5.166575E+05 -1.363092E-09 -5.840175E-11
        57  18 -1.406109E+06 -3.148697E+05 -1.440718E+05 -4.990742E+05  2.012968E-10  1.112795E-09
        57  19 -1.110251E+06 -1.265002E+05  1.247522E+04 -4.417787E+05 -2.022502E+04 -4.404920E+03
        57  20 -1.101239E+06 -1.040171E+05 -3.064907E+03 -4.317227E+05 -4.315834E+04 -1.273492E+04
        57  21 -1.131739E+06 -1.844627E+05 -6.339719E+04 -3.970439E+05 -6.522083E+04 -2.337901E+04
        57  22 -1.258470E+06 -1.761814E+05 -2.661370E+04 -4.756994E+05 -1.984095E+04 -4.260704E+03
        57  23 -1.243878E+06 -1.613916E+05 -4.252601E+04 -4.741944E+05 -4.339209E+04 -1.282251E+04
        57  24 -1.268931E+06 -2.496676E+05 -1.037288E+05 -4.480641E+05 -6.607248E+04 -2.369781E+04
        57  25 -1.406667E+06 -2.258624E+05 -6.570445E+04 -5.096132E+05 -1.945698E+04 -4.116515E+03
        57  26 -1.386498E+06 -2.187641E+05 -8.198897E+04 -5.166570E+05 -4.362578E+04 -1.291006E+04
        57  27 -1.406104E+06 -3.148678E+05 -1.440623E+05 -4.990729E+05 -6.692392E+04 -2.401648E+04
        58   1 -2.292263E+05  6.579300E+04  8.504983E+04  1.273393E+04  5.807902E+04  1.191694E+00
        58   2 -2.418035E+05 -1.353305E+04  3.658343E+04  3.369829E+03  3.815967E+04  2.072050E-01
        58   3 -2.292358E+05 -2.669693E+03  2.363832E+04 -5.994238E+03  1.823989E+04 -1.761715E-01
        58   4 -2.292264E+05  6.579269E+04  8.504979E+04  2.575948E-08  5.807902E+04 -6.559543E-10
        58   5 -2.418036E+05 -1.353307E+04  3.658342E+04  4.940642E-10  3.815967E+04 -5.679657E-10
        58   6 -2.292358E+05 -2.669760E+03  2.363831E+04 -2.907853E-08  1.823989E+04  6.447125E-10
        58   7 -2.292263E+05  6.579300E+04  8.504983E+04 -1.273393E+04  5.807902E+04 -1.191694E+00
        58   8 -2.418035E+05 -1.353305E+04  3.658343E+04 -3.369829E+03  3.815967E+04 -2.072050E-01
        58   9 -2.292358E+05 -2.669693E+03  2.363832E+04  5.994238E+03  1.823989E+04  1.761715E-01
        58  10 -2.292299E+05  6.579209E+04  8.504349E+04  1.273393E+04 -1.356184E-09 -2.719752E-10
        58  11 -2.418051E+05 -1.353344E+04  3.658069E+04  3.369829E+03 -7.686410E-10 -5.910827E-10
        58  12 -2.292361E+05 -2.669782E+03  2.363769E+04 -5.994238E+03 -3.911532E-10  2.844038E-10
        58  13 -2.292301E+05  6.579179E+04  8.504345E+04  1.712727E-08 -9.747571E-11 -2.700218E-10
        58  14 -2.418051E+05 -1.353346E+04  3.658069E+04  1.342275E-08  2.073163E-09 -4.428900E-10
        58  15 -2.292362E+05 -2.669850E+03  2.363768E+04 -7.508961E-09 -4.382526E-10  4.353543E-10
        58  16 -2.292299E+05  6.579209E+04  8.504349E+04 -1.273393E+04 -2.449155E-09 -2.846435E-10
        58  17 -2.418051E+05 -1.353344E+04  3.658069E+04 -3.369829E+03  2.851686E-10 -2.929675E-10
        58  18 -2.292361E+05 -2.669782E+03  2.363769E+04  5.994238E+03  7.956253E-10  5.909965E-10
        58  19 -2.292263E+05  6.579300E+04  8.504983E+04  1.273393E+04 -5.807902E+04 -1.191694E+00
        58  20 -2.418035E+05 -1.353305E+04  3.658343E+04  3.369829E+03 -3.815967E+04 -2.072050E-01
        58  21 -2.292358E+05 -2.669693E+03  2.363832E+04 -5.994238E+03 -1.823989E+04  1.761715E-01
        58  22 -2.292264E+05  6.579269E+04  8.504979E+04  2.572507E-08 -5.807902E+04  1.542797E-10
        58  23 -2.418036E+05 -1.353307E+04  3.658342E+04  5.090767E-10 -3.815967E+04 -3.602833E-10
        58  24 -2.292358E+05 -2.669760E+03  2.363831E+04 -3.009100E-08 -1.823989E+04  2.317849E-10
        58  25 -2.292263E+05  6.579300E+04  8.504983E+04 -1.273393E+04 -5.807902E+04  1.191694E+00
        58  26 -2.418035E+05 -1.353305E+04  3.658343E+04 -3.369829E+03 -3.815967E+04  2.072050E-01
        58  27 -2.292358E+05 -2.669693E+03  2.363832E+04  5.994238E+03 -1.823989E+04 -1.761715E-01
        59   1 -2.339931E+05  8.983924E+03  1.947465E+04  1.636110E+03  1.440602E+04  3.797861E-02
        59   2 -2.358581E+05 -1.858840E+03  9.467544E+03  3.957725E+02  9.476778E+03  6.043514E-03
        59   3 -2.339946E+05 -3.576694E+02  5.756607E+03 -8.445648E+02  4.547552E+03 -6.188604E-03
        59   4 -2.339931E+05  8.983919E+03  1.947465E+04  1.103718E-08  1.440602E+04  2.357326E-10
        59   5 -2.358581E+05 -1.858840E+03  9.467544E+03 -4.257140E-08  9.476778E+03 -9.769389E-10
        59   6 -2.339946E+05 -3.576707E+02  5.756607E+03  2.012118E-08  4.547552E+03  5.878377E-10
        59   7 -2.339931E+05  8.983924E+03  1.947465E+04 -1.636110E+03  1.440602E+04 -3.797861E-02
        59   8 -2.358581E+05 -1.858840E+03  9.467544E+03 -3.957725E+02  9.476778E+03 -6.043516E-03
        59   9 -2.339946E+05 -3.576694E+02  5.756607E+03  8.445648E+02  4.547552E+03  6.188605E-03
        59  10 -2.339933E+05  8.983868E+03  1.947426E+04  1.636110E+03 -2.331552E-09  5.832310E-10
        59  11 -2.358582E+05 -1.858864E+03  9.467375E+03  3.957725E+02 -1.309719E-09  1.106123E-10
        59  12 -2.339946E+05 -3.576749E+02  5.756568E+03 -8.445648E+02 -4.111781E-11 -2.867834E-10
        59  13 -2.339933E+05  8.983863E+03  1.947426E+04 -1.483246E-08 -9.000139E-11  5.434973E-10
        59  14 -2.358582E+05 -1.858864E+03  9.467375E+03 -2.104301E-08  2.025069E-09 -2.513360E-10
        59  15 -2.339947E+05 -3.576763E+02  5.756568E+03 -2.079330E-08 -7.050392E-10 -3.098780E-10
        59  16 -2.339933E+05  8.983868E+03  1.947426E+04 -1.636110E+03  7.570184E-10  4.781836E-10
        59  17 -2.358582E+05 -1.858864E+03  9.467375E+03 -3.957725E+02  6.296211E-09 -5.457409E-10
        59  18 -2.339946E+05 -3.576749E+02  5.756568E+03  8.445648E+02  1.282466E-09 -2.954318E-10
        59  19 -2.339931E+05  8.983924E+03  1.947465E+04  1.636110E+03 -1.440602E+04 -3.797861E-02
        59  20 -2.358581E+05 -1.858840E+03  9.467544E+03  3.957725E+02 -9.476778E+03 -6.043514E-03
        59  21 -2.339946E+05 -3.576694E+02  5.756607E+03 -8.445648E+02 -4.547552E+03  6.188603E-03
        59  22 -2.339931E+05  8.983919E+03  1.947465E+04  3.683201E-08 -1.440602E+04  8.542004E-10
        59  23 -2.358581E+05 -1.858840E+03  9.467544E+03  9.100039E-09 -9.476778E+03  4.775365E-10
        59  24 -2.339946E+05 -3.576707E+02  5.756607E+03  2.982668E-08 -4.547552E+03 -1.210018E-09
        59  25 -2.339931E+05  8.983924E+03  1.947465E+04 -1.636110E+03 -1.440602E+04  3.797861E-02
        59  26 -2.358581E+05 -1.858840E+03  9.467544E+03 -3.957725E+02 -9.476778E+03  6.043515E-03
        59  27 -2.339946E+05 -3.576694E+02  5.756607E+03  8.445648E+02 -4.547552E+03 -6.188605E-03
        60   1 -2.346965E+05  1.217739E+03  4.544247E+03  1.946791E+02  3.624126E+03  1.136856E-03
        60   2 -2.349811E+05 -2.527306E+02  2.292082E+03  3.641312E+01  2.457907E+03  1.442138E-04
        60   3 -2.346968E+05 -5.485451E+01  1.216465E+03 -1.218506E+02  1.291706E+03 -2.536145E-04
        60   4 -2.346965E+05  1.217739E+03  4.544247E+03  2.916823E-09  3.624126E+03  1.181617E-09
        60   5 -2.349811E+05 -2.527306E+02  2.292082E+03  4.598325E-08  2.457907E+03  1.561874E-10
        60   6 -2.346968E+05 -5.485454E+01  1.216465E+03  7.182019E-08  1.291706E+03 -1.702918E-10
        60   7 -2.346965E+05  1.217739E+03  4.544247E+03 -1.946791E+02  3.624126E+03 -1.136854E-03
        60   8 -2.349811E+05 -2.527306E+02  2.292082E+03 -3.641312E+01  2.457907E+03 -1.442133E-04
        60   9 -2.346968E+05 -5.485451E+01  1.216465E+03  1.218506E+02  1.291706E+03  2.536142E-04
        60  10 -2.346965E+05  1.217736E+03  4.544222E+03  1.946791E+02  4.498341E-10 -2.219251E-10
        60  11 -2.349811E+05 -2.527322E+02  2.292071E+03  3.641312E+01  2.088391E-09  1.124432E-10
        60  12 -2.346968E+05 -5.485496E+01  1.216462E+03 -1.218506E+02  3.186611E-09 -5.031901E-10
        60  13 -2.346965E+05  1.217736E+03  4.544222E+03 -1.430458E-08  8.507540E-11 -5.405942E-11
        60  14 -2.349811E+05 -2.527322E+02  2.292071E+03  2.874924E-08 -2.149543E-09  6.922387E-11
        60  15 -2.346968E+05 -5.485499E+01  1.216462E+03  5.036522E-09  2.323895E-09 -4.285937E-10
        60  16 -2.346965E+05  1.217736E+03  4.544222E+03 -1.946791E+02  1.857223E-10  1.307806E-10
        60  17 -2.349811E+05 -2.527322E+02  2.292071E+03 -3.641312E+01  7.368365E-11 -2.894194E-11
        60  18 -2.346968E+05 -5.485496E+01  1.216462E+03  1.218506E+02 -2.268301E-09 -3.856069E-10
        60  19 -2.346965E+05  1.217739E+03  4.544247E+03  1.946791E+02 -3.624126E+03 -1.136856E-03
        60  20 -2.349811E+05 -2.527306E+02  2.292082E+03  3.641312E+01 -2.457907E+03 -1.442134E-04
        60  21 -2.346968E+05 -5.485451E+01  1.216465E+03 -1.218506E+02 -1.291706E+03  2.536136E-04
        60  22 -2.346965E+05  1.217739E+03  4.544247E+03  2.934633E-09 -3.624126E+03 -1.285923E-09
        60  23 -2.349811E+05 -2.527306E+02  2.292082E+03 -5.714907E-09 -2.457907E+03 -4.569278E-11
        60  24 -2.346968E+05 -5.485454E+01  1.216465E+03  1.255754E-08 -1.291706E+03 -7.198144E-10
        60  25 -2.346965E+05  1.217739E+03  4.544247E+03 -1.946791E+02 -3.624126E+03  1.136854E-03
        60  26 -2.349811E+05 -2.527306E+02  2.292082E+03 -3.641312E+01 -2.457907E+03  1.442132E-04
        60  27 -2.346968E+05 -5.485451E+01  1.216465E+03  1.218506E+02 -1.291706E+03 -2.536150E-04
        61   1 -2.348143E+05  1.647280E+02  8.296822E+02  1.090033E+01  1.107568E+03  1.945302E-05
        61   2 -2.348344E+05 -1.950649E+01  1.149819E+02 -1.953819E+00  1.048124E+03 -3.299857E-06
        61   3 -2.348144E+05 -7.436176E+01 -5.286564E+02 -1.480816E+01  9.886803E+02 -2.359019E-05
        61   4 -2.348143E+05  1.647280E+02  8.296822E+02  4.125402E-08  1.107568E+03 -2.037052E-10
        61   5 -2.348344E+05 -1.950649E+01  1.149819E+02  1.652486E-08  1.048124E+03 -1.731518E-10
        61   6 -2.348144E+05 -7.436176E+01 -5.286564E+02  2.194747E-08  9.886803E+02  4.669833E-10
        61   7 -2.348143E+05  1.647280E+02  8.296822E+02 -1.090033E+01  1.107568E+03 -1.945339E-05
        61   8 -2.348344E+05 -1.950649E+01  1.149819E+02  1.953819E+00  1.048124E+03  3.299448E-06
        61   9 -2.348144E+05 -7.436176E+01 -5.286564E+02  1.480816E+01  9.886803E+02  2.359095E-05
        61  10 -2.348143E+05  1.647276E+02  8.296799E+02  1.090033E+01  1.779150E-09 -3.261661E-10
        61  11 -2.348344E+05 -1.950679E+01  1.149798E+02 -1.953819E+00 -1.306865E-09  5.224961E-10
        61  12 -2.348144E+05 -7.436203E+01 -5.286582E+02 -1.480816E+01 -8.059895E-11 -3.367485E-11
        61  13 -2.348143E+05  1.647276E+02  8.296799E+02  3.266809E-08 -1.068461E-09 -2.576721E-10
        61  14 -2.348344E+05 -1.950679E+01  1.149798E+02  2.514148E-08  3.268852E-09  4.354957E-10
        61  15 -2.348144E+05 -7.436203E+01 -5.286582E+02 -1.899853E-08 -3.338726E-09 -8.370066E-11
        61  16 -2.348143E+05  1.647276E+02  8.296799E+02 -1.090033E+01 -2.354769E-09 -2.225565E-10
        61  17 -2.348344E+05 -1.950679E+01  1.149798E+02  1.953819E+00 -4.917290E-10  3.348083E-10
        61  18 -2.348144E+05 -7.436203E+01 -5.286582E+02  1.480816E+01 -1.705058E-10 -1.355963E-10
        61  19 -2.348143E+05  1.647280E+02  8.296822E+02  1.090033E+01 -1.107568E+03 -1.945345E-05
        61  20 -2.348344E+05 -1.950649E+01  1.149819E+02 -1.953819E+00 -1.048124E+03  3.301129E-06
        61  21 -2.348144E+05 -7.436176E+01 -5.286564E+02 -1.480816E+01 -9.886803E+02  2.359005E-05
        61  22 -2.348143E+05  1.647280E+02  8.296822E+02 -1.037820E-08 -1.107568E+03 -3.156665E-10
        61  23 -2.348344E+05 -1.950649E+01  1.149819E+02  1.652848E-08 -1.048124E+03  1.051695E-09
        61  24 -2.348144E+05 -7.436176E+01 -5.286564E+02  3.158898E-08 -9.886803E+02 -6.387825E-10
        61  25 -2.348143E+05  1.647280E+02  8.296822E+02 -1.090033E+01 -1.107568E+03  1.945292E-05
        61  26 -2.348344E+05 -1.950649E+01  1.149819E+02  1.953819E+00 -1.048124E+03 -3.298925E-06
        61  27 -2.348144E+05 -7.436176E+01 -5.286564E+02  1.480816E+01 -9.886803E+02 -2.359126E-05
        62   1 -2.348888E+05  3.968505E+01 -8.778629E+02 -5.668860E+01  1.115718E+03 -1.019129E-04
        62   2 -2.347414E+05  1.080065E+02 -1.817277E+03  2.294753E+00  2.027647E+03  7.497252E-06
        62   3 -2.348890E+05 -5.283374E+02 -3.526726E+03  6.127816E+01  2.939575E+03  2.902492E-04
        62   4 -2.348888E+05  3.968505E+01 -8.778629E+02  5.351497E-08  1.115718E+03  5.840848E-10
        62   5 -2.347414E+05  1.080065E+02 -1.817277E+03 -1.740446E-08  2.027647E+03  3.029758E-11
        62   6 -2.348890E+05 -5.283374E+02 -3.526726E+03  1.074769E-08  2.939575E+03 -7.252287E-10
        62   7 -2.348888E+05  3.968505E+01 -8.778629E+02  5.668860E+01  1.115718E+03  1.019143E-04
        62   8 -2.347414E+05  1.080065E+02 -1.817277E+03 -2.294753E+00  2.027647E+03 -7.497468E-06
        62   9 -2.348890E+05 -5.283374E+02 -3.526726E+03 -6.127816E+01  2.939575E+03 -2.902507E-04
        62  10 -2.348888E+05  3.968472E+01 -8.778653E+02 -5.668860E+01 -7.208337E-10 -1.744124E-10
        62  11 -2.347414E+05  1.080054E+02 -1.817285E+03  2.294753E+00  5.340555E-10  2.703198E-10
        62  12 -2.348890E+05 -5.283397E+02 -3.526742E+03  6.127816E+01 -2.573730E-10 -5.943283E-10
        62  13 -2.348888E+05  3.968471E+01 -8.778653E+02 -6.769197E-09  3.048563E-09 -1.470257E-10
        62  14 -2.347414E+05  1.080054E+02 -1.817285E+03 -3.032812E-08 -5.551684E-09  2.996080E-10
        62  15 -2.348890E+05 -5.283397E+02 -3.526742E+03 -1.727310E-08 -2.463137E-09 -2.604809E-10
        62  16 -2.348888E+05  3.968472E+01 -8.778653E+02  5.668860E+01  6.753207E-10 -1.527533E-10
        62  17 -2.347414E+05  1.080054E+02 -1.817285E+03 -2.294753E+00 -8.456315E-10  3.338890E-10
        62  18 -2.348890E+05 -5.283397E+02 -3.526742E+03 -6.127816E+01 -1.302880E-09  4.891155E-11
        62  19 -2.348888E+05  3.968505E+01 -8.778629E+02 -5.668860E+01 -1.115718E+03  1.019127E-04
        62  20 -2.347414E+05  1.080065E+02 -1.817277E+03  2.294753E+00 -2.027647E+03 -7.496619E-06
        62  21 -2.348890E+05 -5.283374E+02 -3.526726E+03  6.127816E+01 -2.939575E+03 -2.902503E-04
        62  22 -2.348888E+05  3.968505E+01 -8.778629E+02  4.494015E-08 -1.115718E+03 -8.941097E-10
        62  23 -2.347414E+05  1.080065E+02 -1.817277E+03 -1.740696E-08 -2.027647E+03  5.702303E-10
        62  24 -2.348890E+05 -5.283374E+02 -3.526726E+03 -2.914118E-08 -2.939575E+03  1.610802E-10
        62  25 -2.348888E+05  3.968505E+01 -8.778629E+02  5.668860E+01 -1.115718E+03 -1.019146E-04
        62  26 -2.347414E+05  1.080065E+02 -1.817277E+03 -2.294753E+00 -2.027647E+03  7.497906E-06
        62  27 -2.348890E+05 -5.283374E+02 -3.526726E+03 -6.127816E+01 -2.939575E+03  2.902506E-04
        63   1 -2.352406E+05  1.530924E+02 -4.582505E+03 -3.920828E+02  3.669980E+03 -2.318591E-03
        63   2 -2.343022E+05  8.255797E+02 -7.792463E+03  1.217436E+02  7.630294E+03  1.496819E-03
        63   3 -2.352415E+05 -3.948657E+03 -1.494308E+04  6.355634E+02  1.159053E+04  1.186983E-02
        63   4 -2.352406E+05  1.530921E+02 -4.582505E+03  1.218890E-08  3.669980E+03 -7.050962E-10
        63   5 -2.343022E+05  8.255797E+02 -7.792463E+03 -1.409167E-08  7.630294E+03  1.007508E-10
        63   6 -2.352415E+05 -3.948658E+03 -1.494309E+04  2.854770E-08  1.159053E+04  6.210124E-10
        63   7 -2.352406E+05  1.530924E+02 -4.582505E+03  3.920828E+02  3.669980E+03  2.318590E-03
        63   8 -2.343022E+05  8.255797E+02 -7.792463E+03 -1.217436E+02  7.630294E+03 -1.496819E-03
        63   9 -2.352415E+05 -3.948657E+03 -1.494308E+04 -6.355634E+02  1.159053E+04 -1.186983E-02
        63  10 -2.352407E+05  1.530888E+02 -4.582531E+03 -3.920828E+02 -7.447621E-10 -7.046349E-10
        63  11 -2.343023E+05  8.255640E+02 -7.792572E+03  1.217436E+02  1.766656E-09  1.016151E-10
        63  12 -2.352416E+05 -3.948693E+03 -1.494334E+04  6.355634E+02  1.390044E-09  1.668250E-10
        63  13 -2.352407E+05  1.530885E+02 -4.582531E+03  3.586261E-09 -1.072662E-09 -4.423392E-10
        63  14 -2.343023E+05  8.255640E+02 -7.792572E+03 -2.270255E-08  1.161043E-09 -5.486636E-11
        63  15 -2.352416E+05 -3.948694E+03 -1.494334E+04 -1.883823E-08  2.467128E-09 -3.494848E-11
        63  16 -2.352407E+05  1.530888E+02 -4.582531E+03  3.920828E+02  1.332646E-09 -1.805949E-10
        63  17 -2.343023E+05  8.255640E+02 -7.792572E+03 -1.217436E+02  9.077719E-10 -2.422291E-10
        63  18 -2.352416E+05 -3.948693E+03 -1.494334E+04 -6.355634E+02 -9.746756E-10 -2.196764E-10
        63  19 -2.352406E+05  1.530924E+02 -4.582505E+03 -3.920828E+02 -3.669980E+03  2.318590E-03
        63  20 -2.343022E+05  8.255797E+02 -7.792463E+03  1.217436E+02 -7.630294E+03 -1.496818E-03
        63  21 -2.352415E+05 -3.948657E+03 -1.494308E+04  6.355634E+02 -1.159053E+04 -1.186983E-02
        63  22 -2.352406E+05  1.530921E+02 -4.582505E+03  3.599340E-09 -3.669980E+03 -1.778833E-10
        63  23 -2.343022E+05  8.255797E+02 -7.792463E+03 -1.408260E-08 -7.630294E+03 -1.969594E-10
        63  24 -2.352415E+05 -3.948658E+03 -1.494309E+04  9.156913E-09 -1.159053E+04 -6.233448E-10
        63  25 -2.352406E+05  1.530924E+02 -4.582505E+03  3.920828E+02 -3.669980E+03 -2.318590E-03
        63  26 -2.343022E+05  8.255797E+02 -7.792463E+03 -1.217436E+02 -7.630294E+03  1.496818E-03
        63  27 -2.352415E+05 -3.948657E+03 -1.494308E+04 -6.355634E+02 -1.159053E+04  1.186983E-02
        64   1 -2.375117E+05  1.157351E+03 -1.882442E+04 -2.737411E+03  1.461806E+04 -6.447829E-02
        64   2 -2.314651E+05  6.029058E+03 -3.078812E+04  1.284672E+03  3.064693E+04  6.343935E-02
        64   3 -2.375155E+05 -2.913475E+04 -6.319761E+04  5.306815E+03  4.667589E+04  3.991242E-01
        64   4 -2.375117E+05  1.157337E+03 -1.882442E+04  7.261969E-09  1.461806E+04  7.049805E-10
        64   5 -2.314651E+05  6.029055E+03 -3.078812E+04 -4.755479E-09  3.064693E+04  3.572671E-10
        64   6 -2.375155E+05 -2.913480E+04 -6.319762E+04  1.337803E-08  4.667589E+04 -9.224758E-10
        64   7 -2.375117E+05  1.157351E+03 -1.882442E+04  2.737411E+03  1.461806E+04  6.447829E-02
        64   8 -2.314651E+05  6.029058E+03 -3.078812E+04 -1.284672E+03  3.064693E+04 -6.343935E-02
        64   9 -2.375155E+05 -2.913475E+04 -6.319761E+04 -5.306815E+03  4.667589E+04 -3.991242E-01
        64  10 -2.375119E+05  1.157294E+03 -1.882482E+04 -2.737411E+03  2.143935E-09 -1.916048E-10
        64  11 -2.314661E+05  6.028806E+03 -3.078989E+04  1.284672E+03  1.289527E-09 -4.895932E-10
        64  12 -2.375178E+05 -2.913534E+04 -6.320171E+04  5.306815E+03 -5.828469E-11  1.124543E-10
        64  13 -2.375119E+05  1.157280E+03 -1.882482E+04 -1.858481E-08  2.155812E-09 -1.330312E-10
        64  14 -2.314661E+05  6.028803E+03 -3.078989E+04 -3.060143E-08  4.305275E-09 -1.898013E-10
        64  15 -2.375179E+05 -2.913539E+04 -6.320171E+04 -5.123098E-08 -1.391174E-09 -1.598028E-10
        64  16 -2.375119E+05  1.157294E+03 -1.882482E+04  2.737411E+03 -5.695848E-10 -4.410793E-11
        64  17 -2.314661E+05  6.028806E+03 -3.078989E+04 -1.284672E+03 -1.460286E-10  9.199080E-11
        64  18 -2.375178E+05 -2.913534E+04 -6.320171E+04 -5.306815E+03 -1.836213E-10 -4.195065E-10
        64  19 -2.375117E+05  1.157351E+03 -1.882442E+04 -2.737411E+03 -1.461806E+04  6.447828E-02
        64  20 -2.314651E+05  6.029058E+03 -3.078812E+04  1.284672E+03 -3.064693E+04 -6.343934E-02
        64  21 -2.375155E+05 -2.913475E+04 -6.319761E+04  5.306815E+03 -4.667589E+04 -3.991242E-01
        64  22 -2.375117E+05  1.157337E+03 -1.882442E+04 -3.581580E-08 -1.461806E+04 -9.808436E-10
        64  23 -2.314651E+05  6.029055E+03 -3.078812E+04 -4.756258E-09 -3.064693E+04 -7.363176E-10
        64  24 -2.375155E+05 -2.913480E+04 -6.319762E+04  3.815171E-08 -4.667589E+04  6.009766E-10
        64  25 -2.375117E+05  1.157351E+03 -1.882442E+04  2.737411E+03 -1.461806E+04 -6.447829E-02
        64  26 -2.314651E+05  6.029058E+03 -3.078812E+04 -1.284672E+03 -3.064693E+04  6.343935E-02
        64  27 -2.375155E+05 -2.913475E+04 -6.319761E+04 -5.306815E+03 -4.667589E+04  3.991242E-01
        65   1 -2.529396E+05  8.659430E+03 -7.668114E+04 -1.943871E+04  5.911224E+04 -1.851558E+00
        65   2 -2.121780E+05  4.388931E+04 -1.186087E+05  1.093038E+04  1.237245E+05  2.178994E+00
        65   3 -2.529523E+05 -2.133598E+05 -2.757169E+05  4.129769E+04  1.883380E+05  1.253268E+01
        65   4 -2.529401E+05  8.658720E+03 -7.668124E+04 -6.457049E-09  5.911224E+04 -8.278715E-11
        65   5 -2.121781E+05  4.388908E+04 -1.186087E+05  2.898708E-09  1.237245E+05  2.409885E-09
        65   6 -2.529542E+05 -2.133630E+05 -2.757173E+05  3.270955E-08  1.883380E+05 -1.397919E-09
        65   7 -2.529396E+05  8.659430E+03 -7.668114E+04  1.943871E+04  5.911224E+04  1.851558E+00
        65   8 -2.121780E+05  4.388931E+04 -1.186087E+05 -1.093038E+04  1.237245E+05 -2.178994E+00
        65   9 -2.529523E+05 -2.133598E+05 -2.757169E+05 -4.129769E+04  1.883380E+05 -1.253268E+01
        65  10 -2.529434E+05  8.658492E+03 -7.668771E+04 -1.943871E+04  2.666958E-09  2.922321E-10
        65  11 -2.121944E+05  4.388520E+04 -1.186374E+05  1.093038E+04  8.811075E-10 -4.785032E-11
        65  12 -2.529904E+05 -2.133693E+05 -2.757836E+05  4.129769E+04  4.123333E-10 -1.246701E-10
        65  13 -2.529438E+05  8.657781E+03 -7.668781E+04 -2.368227E-08  2.335884E-09 -9.895312E-11
        65  14 -2.121945E+05  4.388497E+04 -1.186375E+05  2.899421E-09  8.660817E-10  5.440674E-12
        65  15 -2.529923E+05 -2.133725E+05 -2.757840E+05 -3.297589E-08  1.043681E-09 -3.302543E-14
        65  16 -2.529434E+05  8.658492E+03 -7.668771E+04  1.943871E+04 -2.704188E-09 -5.072717E-10
        65  17 -2.121944E+05  4.388520E+04 -1.186374E+05 -1.093038E+04 -4.119018E-10 -8.162971E-11
        65  18 -2.529904E+05 -2.133693E+05 -2.757836E+05 -4.129769E+04 -7.695147E-10  3.602580E-11
        65  19 -2.529396E+05  8.659430E+03 -7.668114E+04 -1.943871E+04 -5.911224E+04  1.851558E+00
        65  20 -2.121780E+05  4.388931E+04 -1.186087E+05  1.093038E+04 -1.237245E+05 -2.178994E+00
        65  21 -2.529523E+05 -2.133598E+05 -2.757169E+05  4.129769E+04 -1.883380E+05 -1.253268E+01
        65  22 -2.529401E+05  8.658720E+03 -7.668124E+04 -4.090828E-08 -5.911224E+04 -1.039418E-10
        65  23 -2.121781E+05  4.388908E+04 -1.186087E+05 -3.586977E-08 -1.237245E+05 -2.444752E-09
        65  24 -2.529542E+05 -2.133630E+05 -2.757173E+05  1.116920E-08 -1.883380E+05  3.205269E-10
        65  25 -2.529396E+05  8.659430E+03 -7.668114E+04  1.943871E+04 -5.911224E+04 -1.851558E+00
        65  26 -2.121780E+05  4.388931E+04 -1.186087E+05 -1.093038E+04 -1.237245E+05  2.178994E+00
        65  27 -2.529523E+05 -2.133598E+05 -2.757169E+05 -4.129769E+04 -1.883380E+05  1.253268E+01
        66   1  2.021717E+04 -5.722280E+05  1.920375E+04  7.197444E+03  6.729725E+02 -4.409250E+03
        66   2  2.793507E+04 -5.609715E+05  2.565038E+04 -2.933518E+02  2.171583E+03 -4.066606E+03
        66   3  3.080112E+04 -5.509269E+05  3.067011E+04  6.140885E+03  2.408589E+03 -3.723895E+03
        66   4 -4.384527E+03 -6.706683E+05 -5.297035E+03  6.438947E+03  6.729964E+02 -5.021519E+03
        66   5  7.336093E+02 -6.700294E+05 -1.225519E+03 -5.234549E+02  2.171644E+03 -4.315857E+03
        66   6  9.363506E+02 -6.706660E+05  1.166633E+03  6.439346E+03  2.408589E+03 -3.610126E+03
        66   7 -2.898695E+04 -7.690999E+05 -2.979855E+04  5.680571E+03  6.730218E+02 -5.633691E+03
        66   8 -2.646874E+04 -7.790765E+05 -2.810230E+04 -7.535172E+02  2.171705E+03 -4.565063E+03
        66   9 -2.892949E+04 -7.903920E+05 -2.833790E+04  6.737750E+03  2.408589E+03 -3.496378E+03
        66  10  2.021716E+04 -5.722280E+05  1.920372E+04  7.197446E+03  8.575325E-10 -2.207135E-09
        66  11  2.793506E+04 -5.609715E+05  2.565034E+04 -2.933447E+02  4.002208E-09  8.896367E-11
        66  12  3.080111E+04 -5.509269E+05  3.067007E+04  6.140892E+03 -1.027812E-10  3.584234E-09
        66  13 -4.384534E+03 -6.706684E+05 -5.297084E+03  6.438950E+03 -2.416319E-09 -3.582414E-11
        66  14  7.335992E+02 -6.700294E+05 -1.225563E+03 -5.234474E+02 -2.667966E-09 -7.749063E-11
        66  15  9.363409E+02 -6.706660E+05  1.166598E+03  6.439353E+03  2.077747E-09 -4.761021E-10
        66  16 -2.898696E+04 -7.690999E+05 -2.979861E+04  5.680574E+03 -4.149021E-09  2.165683E-09
        66  17 -2.646875E+04 -7.790766E+05 -2.810234E+04 -7.535092E+02 -7.273968E-10 -1.800424E-10
        66  18 -2.892950E+04 -7.903920E+05 -2.833794E+04  6.737757E+03  2.655677E-09 -3.379246E-09
        66  19  2.021717E+04 -5.722280E+05  1.920375E+04  7.197444E+03 -6.729725E+02  4.409250E+03
        66  20  2.793507E+04 -5.609715E+05  2.565038E+04 -2.933518E+02 -2.171583E+03  4.066606E+03
        66  21  3.080112E+04 -5.509269E+05  3.067011E+04  6.140885E+03 -2.408589E+03  3.723895E+03
        66  22 -4.384527E+03 -6.706683E+05 -5.297035E+03  6.438947E+03 -6.729964E+02  5.021519E+03
        66  23  7.336093E+02 -6.700294E+05 -1.225519E+03 -5.234549E+02 -2.171644E+03  4.315857E+03
        66  24  9.363506E+02 -6.706660E+05  1.166633E+03  6.439346E+03 -2.408589E+03  3.610126E+03
        66  25 -2.898695E+04 -7.690999E+05 -2.979855E+04  5.680571E+03 -6.730218E+02  5.633691E+03
        66  26 -2.646874E+04 -7.790765E+05 -2.810230E+04 -7.535172E+02 -2.171705E+03  4.565063E+03
        66  27 -2.892949E+04 -7.903920E+05 -2.833790E+04  6.737750E+03 -2.408589E+03  3.496378E+03
        67   1  3.656524E+04 -5.200648E+05  3.926111E+04  5.739214E+03  2.501773E+03 -3.685177E+03
        67   2  3.877391E+04 -5.113201E+05  4.467320E+04 -1.364462E+01  3.027794E+03 -6.611157E+03
        67   3  4.798958E+04 -5.003383E+05  5.376425E+04  7.096251E+03  2.976943E+03 -9.537345E+03
        67   4 -8.234128E+02 -6.698951E+05  2.247884E+03  6.201746E+03  2.501887E+03 -3.918635E+03
        67   5 -1.057677E+03 -6.709978E+05  5.295135E+03 -2.277310E+02  3.027880E+03 -6.677938E+03
        67   6  5.687083E+03 -6.698918E+05  1.190621E+04  6.205742E+03  2.976943E+03 -9.437401E+03
        67   7 -3.821375E+04 -8.197051E+05 -3.476701E+04  6.664167E+03  2.502000E+03 -4.152035E+03
        67   8 -4.089117E+04 -8.306523E+05 -3.408481E+04 -4.417592E+02  3.027967E+03 -6.744701E+03
        67   9 -3.661755E+04 -8.394192E+05 -2.995397E+04  5.315482E+03  2.976943E+03 -9.337485E+03
        67  10  3.656523E+04 -5.200648E+05  3.926107E+04  5.739222E+03 -7.716356E-10  5.827829E-10
        67  11  3.877389E+04 -5.113201E+05  4.467310E+04 -1.362850E+01  2.120598E-09 -2.790901E-10
        67  12  4.798954E+04 -5.003384E+05  5.376406E+04  7.096274E+03 -5.485807E-11  1.329532E-09
        67  13 -8.234236E+02 -6.698952E+05  2.247843E+03  6.201754E+03  2.544379E-09 -3.513789E-11
        67  14 -1.057699E+03 -6.709978E+05  5.295033E+03 -2.277147E+02  2.464419E-09 -2.424565E-10
        67  15  5.687050E+03 -6.698919E+05  1.190602E+04  6.205765E+03 -6.187913E-10 -1.199122E-09
        67  16 -3.821376E+04 -8.197051E+05 -3.476705E+04  6.664176E+03  2.502799E-09 -7.427762E-10
        67  17 -4.089119E+04 -8.306523E+05 -3.408492E+04 -4.417428E+02 -5.949099E-10  8.284992E-13
        67  18 -3.661759E+04 -8.394193E+05 -2.995415E+04  5.315504E+03 -1.074367E-09 -8.000266E-10
        67  19  3.656524E+04 -5.200648E+05  3.926111E+04  5.739214E+03 -2.501773E+03  3.685177E+03
        67  20  3.877391E+04 -5.113201E+05  4.467320E+04 -1.364462E+01 -3.027794E+03  6.611157E+03
        67  21  4.798958E+04 -5.003383E+05  5.376425E+04  7.096251E+03 -2.976943E+03  9.537345E+03
        67  22 -8.234128E+02 -6.698951E+05  2.247884E+03  6.201746E+03 -2.501887E+03  3.918635E+03
        67  23 -1.057677E+03 -6.709978E+05  5.295135E+03 -2.277310E+02 -3.027880E+03  6.677938E+03
        67  24  5.687083E+03 -6.698918E+05  1.190621E+04  6.205742E+03 -2.976943E+03  9.437401E+03
        67  25 -3.821375E+04 -8.197051E+05 -3.476701E+04  6.664167E+03 -2.502000E+03  4.152035E+03
        67  26 -4.089117E+04 -8.306523E+05 -3.408481E+04 -4.417592E+02 -3.027967E+03  6.744701E+03
        67  27 -3.661755E+04 -8.394192E+05 -2.995397E+04  5.315482E+03 -2.976943E+03  9.337485E+03
        68   1  4.733599E+04 -4.699746E+05  6.319679E+04  1.984219E+03  3.648714E+03 -1.115394E+04
        68   2  4.271437E+04 -4.692515E+05  7.361053E+04  2.150574E+03  4.233695E+03 -2.463312E+04
        68   3  9.515773E+04 -4.523301E+05  1.071064E+05  1.376653E+04  1.480954E+03 -3.811604E+04
        68   4 -1.778441E+03 -6.668259E+05  1.463471E+04  5.873161E+03  3.649222E+03 -1.179699E+04
        68   5 -8.551062E+03 -6.748360E+05  2.297302E+04  1.737352E+02  4.233547E+03 -2.431181E+04
        68   6  4.158374E+04 -6.668101E+05  5.372866E+04  5.924085E+03  1.479920E+03 -3.683016E+04
        68   7 -5.089571E+04 -8.636419E+05 -3.393023E+04  9.760875E+03  3.649721E+03 -1.243985E+04
        68   8 -5.981963E+04 -8.803819E+05 -2.766761E+04 -1.802438E+03  4.233397E+03 -2.399061E+04
        68   9 -1.199348E+04 -8.812482E+05  3.475103E+02 -1.915635E+03  1.478854E+03 -3.554473E+04
        68  10  4.733594E+04 -4.699748E+05  6.319653E+04  1.984251E+03 -8.716813E-10  1.509642E-09
        68  11  4.271418E+04 -4.692521E+05  7.360936E+04  2.150658E+03  1.279538E-09  4.453527E-10
        68  12  9.515733E+04 -4.523317E+05  1.071037E+05  1.376658E+04  2.466156E-09  3.582248E-10
        68  13 -1.778493E+03 -6.668261E+05  1.463443E+04  5.873196E+03  1.064801E-09  6.574767E-11
        68  14 -8.551240E+03 -6.748366E+05  2.297187E+04  1.738181E+02  3.105519E-09 -5.257326E-10
        68  15  4.158337E+04 -6.668116E+05  5.372611E+04  5.924129E+03  2.600434E-09 -2.124006E-09
        68  16 -5.089576E+04 -8.636421E+05 -3.393054E+04  9.760912E+03  2.064994E-09 -1.887964E-09
        68  17 -5.981980E+04 -8.803826E+05 -2.766873E+04 -1.802356E+03 -8.964887E-10 -1.052365E-09
        68  18 -1.199382E+04 -8.812496E+05  3.451287E+02 -1.915593E+03  1.526097E-09  5.526145E-10
        68  19  4.733599E+04 -4.699746E+05  6.319679E+04  1.984219E+03 -3.648714E+03  1.115394E+04
        68  20  4.271437E+04 -4.692515E+05  7.361053E+04  2.150574E+03 -4.233695E+03  2.463312E+04
        68  21  9.515773E+04 -4.523301E+05  1.071064E+05  1.376653E+04 -1.480954E+03  3.811604E+04
        68  22 -1.778441E+03 -6.668259E+05  1.463471E+04  5.873161E+03 -3.649222E+03  1.179699E+04
        68  23 -8.551062E+03 -6.748360E+05  2.297302E+04  1.737352E+02 -4.233547E+03  2.431181E+04
        68  24  4.158374E+04 -6.668101E+05  5.372866E+04  5.924085E+03 -1.479920E+03  3.683016E+04
        68  25 -5.089571E+04 -8.636419E+05 -3.393023E+04  9.760875E+03 -3.649721E+03  1.243985E+04
        68  26 -5.981963E+04 -8.803819E+05 -2.766761E+04 -1.802438E+03 -4.233397E+03  2.399061E+04
        68  27 -1.199348E+04 -8.812482E+05  3.475103E+02 -1.915635E+03 -1.478854E+03  3.554473E+04
        69   1 -6.903843E+05 -1.250802E+05 -3.154284E+04 -2.548393E+05 -1.286217E+04 -4.480983E+03
        69   2 -6.842993E+05 -1.025976E+05 -1.840057E+04 -2.541332E+05 -8.381836E+03 -2.201976E+03
        69   3 -6.810047E+05 -1.045632E+05 -1.404316E+04 -2.542476E+05 -3.607504E+03 -7.067350E+02
        69   4 -6.491628E+05 -1.070064E+05 -1.973328E+04 -2.410451E+05 -1.261570E+04 -4.388628E+03
        69   5 -6.468025E+05 -8.780771E+04 -8.094656E+03 -2.432569E+05 -8.346239E+03 -2.188645E+03
        69   6 -6.471904E+05 -9.301473E+04 -5.073287E+03 -2.462895E+05 -3.782818E+03 -7.724489E+02
        69   7 -6.079397E+05 -8.893239E+04 -7.923910E+03 -2.272501E+05 -1.236922E+04 -4.296264E+03
        69   8 -6.093044E+05 -7.301771E+04  2.211117E+03 -2.323801E+05 -8.310641E+03 -2.175313E+03
        69   9 -6.133750E+05 -8.146625E+04  3.896502E+03 -2.383310E+05 -3.958143E+03 -8.381660E+02
        69  10 -6.903845E+05 -1.250803E+05 -3.154319E+04 -2.548394E+05  1.216320E-09  4.612422E-11
        69  11 -6.842994E+05 -1.025976E+05 -1.840071E+04 -2.541332E+05 -5.593972E-09  5.442601E-11
        69  12 -6.810047E+05 -1.045632E+05 -1.404319E+04 -2.542476E+05  8.894126E-10 -1.603324E-10
        69  13 -6.491629E+05 -1.070065E+05 -1.973361E+04 -2.410452E+05 -2.184085E-09 -3.385421E-11
        69  14 -6.468026E+05 -8.780773E+04 -8.094796E+03 -2.432569E+05 -6.355949E-09  1.632046E-10
        69  15 -6.471904E+05 -9.301474E+04 -5.073315E+03 -2.462895E+05  4.008660E-09  9.350593E-10
        69  16 -6.079399E+05 -8.893245E+04 -7.924232E+03 -2.272502E+05  1.592524E-09 -2.920040E-10
        69  17 -6.093045E+05 -7.301773E+04  2.210978E+03 -2.323801E+05  2.083733E-09  5.203608E-10
        69  18 -6.133750E+05 -8.146626E+04  3.896471E+03 -2.383310E+05  8.122956E-10  1.082752E-09
        69  19 -6.903843E+05 -1.250802E+05 -3.154284E+04 -2.548393E+05  1.286217E+04  4.480983E+03
        69  20 -6.842993E+05 -1.025976E+05 -1.840057E+04 -2.541332E+05  8.381836E+03  2.201976E+03
        69  21 -6.810047E+05 -1.045632E+05 -1.404316E+04 -2.542476E+05  3.607504E+03  7.067350E+02
        69  22 -6.491628E+05 -1.070064E+05 -1.973328E+04 -2.410451E+05  1.261570E+04  4.388628E+03
        69  23 -6.468025E+05 -8.780771E+04 -8.094656E+03 -2.432569E+05  8.346239E+03  2.188645E+03
        69  24 -6.471904E+05 -9.301473E+04 -5.073287E+03 -2.462895E+05  3.782818E+03  7.724489E+02
        69  25 -6.079397E+05 -8.893239E+04 -7.923910E+03 -2.272501E+05  1.236922E+04  4.296264E+03
        69  26 -6.093044E+05 -7.301771E+04  2.211117E+03 -2.323801E+05  8.310641E+03  2.175313E+03
        69  27 -6.133750E+05 -8.146625E+04  3.896502E+03 -2.383310E+05  3.958143E+03  8.381660E+02
        70   1 -6.624400E+05 -1.016543E+05 -8.569049E+03 -2.497433E+05 -2.920737E+03 -7.172589E+02
        70   2 -6.593253E+05 -9.455030E+04 -4.902564E+03 -2.457942E+05 -1.833055E+03 -4.337694E+02
        70   3 -6.520872E+05 -9.541858E+04 -2.752743E+03 -2.472106E+05 -7.072437E+02 -2.519783E+02
        70   4 -6.465001E+05 -9.531553E+04 -4.173993E+03 -2.450675E+05 -2.936430E+03 -7.231438E+02
        70   5 -6.484279E+05 -9.036270E+04 -1.926257E+03 -2.427480E+05 -1.876120E+03 -4.499122E+02
        70   6 -6.462269E+05 -9.337666E+04 -1.173456E+03 -2.457940E+05 -7.776916E+02 -2.783827E+02
        70   7 -6.305600E+05 -8.897676E+04  2.210379E+02 -2.403917E+05 -2.952123E+03 -7.290290E+02
        70   8 -6.375304E+05 -8.617510E+04  1.050034E+03 -2.397017E+05 -1.919185E+03 -4.660552E+02
        70   9 -6.403665E+05 -9.133474E+04  4.058240E+02 -2.443773E+05 -8.481400E+02 -3.047873E+02
        70  10 -6.624400E+05 -1.016543E+05 -8.569066E+03 -2.497433E+05  1.900026E-09  1.410155E-10
        70  11 -6.593253E+05 -9.455031E+04 -4.902570E+03 -2.457942E+05 -1.995388E-09  3.694274E-10
        70  12 -6.520872E+05 -9.541858E+04 -2.752744E+03 -2.472106E+05  7.681706E-10 -7.080495E-10
        70  13 -6.465001E+05 -9.531553E+04 -4.174010E+03 -2.450675E+05  2.178971E-09  8.587704E-10
        70  14 -6.484279E+05 -9.036270E+04 -1.926264E+03 -2.427480E+05  2.767942E-10  5.348741E-10
        70  15 -6.462269E+05 -9.337666E+04 -1.173457E+03 -2.457940E+05 -8.266150E-11 -7.027739E-10
        70  16 -6.305601E+05 -8.897676E+04  2.210205E+02 -2.403917E+05 -9.581080E-10  1.008170E-09
        70  17 -6.375304E+05 -8.617510E+04  1.050027E+03 -2.397017E+05  1.685502E-10 -2.791248E-10
        70  18 -6.403665E+05 -9.133474E+04  4.058225E+02 -2.443773E+05 -1.738947E-09 -1.183281E-10
        70  19 -6.624400E+05 -1.016543E+05 -8.569049E+03 -2.497433E+05  2.920737E+03  7.172589E+02
        70  20 -6.593253E+05 -9.455030E+04 -4.902564E+03 -2.457942E+05  1.833055E+03  4.337694E+02
        70  21 -6.520872E+05 -9.541858E+04 -2.752743E+03 -2.472106E+05  7.072437E+02  2.519783E+02
        70  22 -6.465001E+05 -9.531553E+04 -4.173993E+03 -2.450675E+05  2.936430E+03  7.231438E+02
        70  23 -6.484279E+05 -9.036270E+04 -1.926257E+03 -2.427480E+05  1.876120E+03  4.499122E+02
        70  24 -6.462269E+05 -9.337666E+04 -1.173456E+03 -2.457940E+05  7.776916E+02  2.783827E+02
        70  25 -6.305600E+05 -8.897676E+04  2.210379E+02 -2.403917E+05  2.952123E+03  7.290290E+02
        70  26 -6.375304E+05 -8.617510E+04  1.050034E+03 -2.397017E+05  1.919185E+03  4.660552E+02
        70  27 -6.403665E+05 -9.133474E+04  4.058240E+02 -2.443773E+05  8.481400E+02  3.047873E+02
        71   1 -6.347908E+05 -8.944600E+04  2.140630E+03 -2.425750E+05 -5.016245E+02 -3.282284E+02
        71   2 -6.321334E+05 -8.451742E+04  3.949925E+03 -2.382172E+05 -1.508509E+02 -4.148164E+02
        71   3 -6.244084E+05 -8.523062E+04  5.445253E+03 -2.397846E+05  2.031118E+02 -5.098772E+02
        71   4 -6.461334E+05 -9.367926E+04 -9.529482E+02 -2.456113E+05 -5.519881E+02 -3.471056E+02
        71   5 -6.486495E+05 -9.073138E+04 -5.386546E+02 -2.426963E+05 -2.035027E+02 -4.345535E+02
        71   6 -6.460975E+05 -9.342483E+04 -4.364903E+02 -2.457066E+05  1.481690E+02 -5.304751E+02
        71   7 -6.574760E+05 -9.791253E+04 -4.046548E+03 -2.486476E+05 -6.023509E+02 -3.659824E+02
        71   8 -6.651655E+05 -9.694534E+04 -5.027271E+03 -2.471753E+05 -2.561531E+02 -4.542900E+02
        71   9 -6.677861E+05 -1.016190E+05 -6.318287E+03 -2.516284E+05  9.322829E+01 -5.510723E+02
        71  10 -6.347908E+05 -8.944600E+04  2.140629E+03 -2.425750E+05  7.603643E-10 -3.313083E-10
        71  11 -6.321334E+05 -8.451742E+04  3.949925E+03 -2.382172E+05 -2.257379E-09  6.620323E-10
        71  12 -6.244084E+05 -8.523062E+04  5.445252E+03 -2.397846E+05 -2.487638E-09 -7.948150E-10
        71  13 -6.461334E+05 -9.367926E+04 -9.529490E+02 -2.456113E+05 -1.312575E-10 -6.269526E-10
        71  14 -6.486495E+05 -9.073138E+04 -5.386550E+02 -2.426963E+05 -1.033382E-10 -1.647173E-10
        71  15 -6.460975E+05 -9.342483E+04 -4.364909E+02 -2.457066E+05 -1.950389E-09 -4.525247E-10
        71  16 -6.574760E+05 -9.791253E+04 -4.046549E+03 -2.486476E+05 -2.445206E-10 -1.160210E-10
        71  17 -6.651655E+05 -9.694534E+04 -5.027272E+03 -2.471753E+05 -4.420475E-09 -2.317557E-10
        71  18 -6.677861E+05 -1.016190E+05 -6.318288E+03 -2.516284E+05 -1.655152E-09  4.624163E-10
        71  19 -6.347908E+05 -8.944600E+04  2.140630E+03 -2.425750E+05  5.016245E+02  3.282284E+02
        71  20 -6.321334E+05 -8.451742E+04  3.949925E+03 -2.382172E+05  1.508509E+02  4.148164E+02
        71  21 -6.244084E+05 -8.523062E+04  5.445253E+03 -2.397846E+05 -2.031118E+02  5.098772E+02
        71  22 -6.461334E+05 -9.367926E+04 -9.529482E+02 -2.456113E+05  5.519881E+02  3.471056E+02
        71  23 -6.486495E+05 -9.073138E+04 -5.386546E+02 -2.426963E+05  2.035027E+02  4.345535E+02
        71  24 -6.460975E+05 -9.342483E+04 -4.364903E+02 -2.457066E+05 -1.481690E+02  5.304751E+02
        71  25 -6.574760E+05 -9.791253E+04 -4.046548E+03 -2.486476E+05  6.023509E+02  3.659824E+02
        71  26 -6.651655E+05 -9.694534E+04 -5.027271E+03 -2.471753E+05  2.561531E+02  4.542900E+02
        71  27 -6.677861E+05 -1.016190E+05 -6.318287E+03 -2.516284E+05 -9.322829E+01  5.510723E+02
        72   1 -6.077999E+05 -7.897004E+04  1.000238E+04 -2.352321E+05  3.187890E+02 -6.014547E+02
        72   2 -6.052974E+05 -7.450104E+04  1.124428E+04 -2.309845E+05  6.582907E+02 -6.976374E+02
        72   3 -5.978537E+05 -7.525140E+04  1.224075E+04 -2.324708E+05  9.946306E+02 -7.852790E+02
        72   4 -6.461367E+05 -9.340540E+04 -4.372493E+02 -2.456364E+05  2.648508E+02 -6.216790E+02
        72   5 -6.486109E+05 -9.082373E+04 -5.313438E+02 -2.427589E+05  6.066333E+02 -7.170114E+02
        72   6 -6.461446E+05 -9.346189E+04 -8.727190E+02 -2.456152E+05  9.452520E+02 -8.038030E+02
        72   7 -6.844719E+05 -1.078406E+05 -1.087698E+04 -2.560401E+05  2.109164E+02 -6.419019E+02
        72   8 -6.919226E+05 -1.071463E+05 -1.230713E+04 -2.545325E+05  5.549799E+02 -7.363838E+02
        72   9 -6.944333E+05 -1.116723E+05 -1.398641E+04 -2.587587E+05  8.958777E+02 -8.223255E+02
        72  10 -6.077999E+05 -7.897004E+04  1.000238E+04 -2.352321E+05 -3.239762E-09 -5.404126E-10
        72  11 -6.052974E+05 -7.450104E+04  1.124428E+04 -2.309845E+05  1.617347E-11  4.343836E-10
        72  12 -5.978537E+05 -7.525140E+04  1.224075E+04 -2.324708E+05 -1.025772E-09 -4.512753E-10
        72  13 -6.461367E+05 -9.340540E+04 -4.372501E+02 -2.456364E+05 -3.181979E-09 -1.723690E-10
        72  14 -6.486109E+05 -9.082373E+04 -5.313455E+02 -2.427589E+05 -5.774715E-10  2.022724E-10
        72  15 -6.461446E+05 -9.346189E+04 -8.727219E+02 -2.456152E+05 -1.703634E-10 -3.187005E-10
        72  16 -6.844719E+05 -1.078406E+05 -1.087698E+04 -2.560401E+05 -3.511047E-10  4.050397E-10
        72  17 -6.919226E+05 -1.071463E+05 -1.230713E+04 -2.545325E+05  8.908301E-10 -3.107707E-10
        72  18 -6.944333E+05 -1.116723E+05 -1.398641E+04 -2.587587E+05  8.685391E-10  9.023106E-11
        72  19 -6.077999E+05 -7.897004E+04  1.000238E+04 -2.352321E+05 -3.187890E+02  6.014547E+02
        72  20 -6.052974E+05 -7.450104E+04  1.124428E+04 -2.309845E+05 -6.582907E+02  6.976374E+02
        72  21 -5.978537E+05 -7.525140E+04  1.224075E+04 -2.324708E+05 -9.946306E+02  7.852790E+02
        72  22 -6.461367E+05 -9.340540E+04 -4.372493E+02 -2.456364E+05 -2.648508E+02  6.216790E+02
        72  23 -6.486109E+05 -9.082373E+04 -5.313438E+02 -2.427589E+05 -6.066333E+02  7.170114E+02
        72  24 -6.461446E+05 -9.346189E+04 -8.727190E+02 -2.456152E+05 -9.452520E+02  8.038030E+02
        72  25 -6.844719E+05 -1.078406E+05 -1.087698E+04 -2.560401E+05 -2.109164E+02  6.419019E+02
        72  26 -6.919226E+05 -1.071463E+05 -1.230713E+04 -2.545325E+05 -5.549799E+02  7.363838E+02
        72  27 -6.944333E+05 -1.116723E+05 -1.398641E+04 -2.587587E+05 -8.958777E+02  8.223255E+02
        73   1 -5.822802E+05 -6.921623E+04  1.629659E+04 -2.282434E+05  1.203335E+03 -8.329887E+02
        73   2 -5.798795E+05 -6.495839E+04  1.672725E+04 -2.242451E+05  2.238780E+03 -6.557892E+02
        73   3 -5.733028E+05 -6.631109E+04  1.618189E+04 -2.253482E+05  3.266987E+03 -4.591397E+02
        73   4 -6.462769E+05 -9.327636E+04 -1.109311E+03 -2.455771E+05  1.150782E+03 -8.527083E+02
        73   5 -6.484122E+05 -9.080848E+04 -1.908955E+03 -2.428998E+05  2.191360E+03 -6.735909E+02
        73   6 -6.463725E+05 -9.395221E+04 -3.688778E+03 -2.453237E+05  3.224693E+03 -4.750251E+02
        73   7 -7.102697E+05 -1.173362E+05 -1.851555E+04 -2.629093E+05  1.098236E+03 -8.724257E+02
        73   8 -7.169404E+05 -1.166583E+05 -2.054559E+04 -2.615526E+05  2.143946E+03 -6.913904E+02
        73   9 -7.194372E+05 -1.215931E+05 -2.355996E+04 -2.652971E+05  3.182405E+03 -4.909085E+02
        73  10 -5.822802E+05 -6.921623E+04  1.629658E+04 -2.282434E+05  1.592721E-09 -9.024140E-10
        73  11 -5.798795E+05 -6.495840E+04  1.672724E+04 -2.242451E+05  2.521304E-09 -1.371811E-09
        73  12 -5.733028E+05 -6.631109E+04  1.618187E+04 -2.253482E+05  3.514166E-10  3.256590E-10
        73  13 -6.462769E+05 -9.327636E+04 -1.109315E+03 -2.455771E+05  3.406241E-10 -8.415517E-10
        73  14 -6.484122E+05 -9.080848E+04 -1.908965E+03 -2.428998E+05 -1.476702E-10 -1.766028E-09
        73  15 -6.463725E+05 -9.395222E+04 -3.688798E+03 -2.453237E+05 -1.828414E-11  3.262900E-13
        73  16 -7.102697E+05 -1.173362E+05 -1.851556E+04 -2.629093E+05 -7.664817E-10 -8.264022E-10
        73  17 -7.169404E+05 -1.166583E+05 -2.054560E+04 -2.615526E+05  4.138586E-11 -2.064464E-09
        73  18 -7.194372E+05 -1.215931E+05 -2.355998E+04 -2.652971E+05 -9.114057E-11  2.118283E-10
        73  19 -5.822802E+05 -6.921623E+04  1.629659E+04 -2.282434E+05 -1.203335E+03  8.329887E+02
        73  20 -5.798795E+05 -6.495839E+04  1.672725E+04 -2.242451E+05 -2.238780E+03  6.557892E+02
        73  21 -5.733028E+05 -6.631109E+04  1.618189E+04 -2.253482E+05 -3.266987E+03  4.591397E+02
        73  22 -6.462769E+05 -9.327636E+04 -1.109311E+03 -2.455771E+05 -1.150782E+03  8.527083E+02
        73  23 -6.484122E+05 -9.080848E+04 -1.908955E+03 -2.428998E+05 -2.191360E+03  6.735909E+02
        73  24 -6.463725E+05 -9.395221E+04 -3.688778E+03 -2.453237E+05 -3.224693E+03  4.750251E+02
        73  25 -7.102697E+05 -1.173362E+05 -1.851555E+04 -2.629093E+05 -1.098236E+03  8.724257E+02
        73  26 -7.169404E+05 -1.166583E+05 -2.054559E+04 -2.615526E+05 -2.143946E+03  6.913904E+02
        73  27 -7.194372E+05 -1.215931E+05 -2.355996E+04 -2.652971E+05 -3.182405E+03  4.909085E+02
        74   1 -5.592431E+05 -6.048249E+04  1.898703E+04 -2.222882E+05  4.013568E+03 -2.969691E+02
        74   2 -5.564962E+05 -5.548071E+04  1.658675E+04 -2.182437E+05  8.310661E+03  1.124739E+03
        74   3 -5.527987E+05 -6.151383E+04  9.148793E+03 -2.171834E+05  1.258756E+04  2.600315E+03
        74   4 -6.467928E+05 -9.304881E+04 -4.747005E+03 -2.456454E+05  3.960810E+03 -3.167846E+02
        74   5 -6.476189E+05 -9.001820E+04 -8.224385E+03 -2.432193E+05  8.271816E+03  1.110131E+03
        74   6 -6.474976E+05 -9.802597E+04 -1.675105E+04 -2.437775E+05  1.256260E+04  2.590897E+03
        74   7 -7.343352E+05 -1.256148E+05 -2.848172E+04 -2.689997E+05  3.908061E+03 -3.365972E+02
        74   8 -7.387337E+05 -1.245552E+05 -3.303625E+04 -2.681916E+05  8.232977E+03  1.095525E+03
        74   9 -7.421878E+05 -1.345374E+05 -4.265166E+04 -2.703678E+05  1.253763E+04  2.581481E+03
        74  10 -5.592431E+05 -6.048249E+04  1.898700E+04 -2.222882E+05 -5.696557E-10  1.119100E-09
        74  11 -5.564963E+05 -5.548073E+04  1.658662E+04 -2.182437E+05 -1.448854E-09 -3.863828E-10
        74  12 -5.527989E+05 -6.151388E+04  9.148482E+03 -2.171834E+05  5.064449E-10  3.681890E-10
        74  13 -6.467928E+05 -9.304882E+04 -4.747035E+03 -2.456454E+05 -3.370838E-10  9.835950E-10
        74  14 -6.476190E+05 -9.001822E+04 -8.224516E+03 -2.432193E+05 -1.582381E-09  8.052914E-10
        74  15 -6.474978E+05 -9.802602E+04 -1.675136E+04 -2.437775E+05 -3.445078E-09 -4.276919E-11
        74  16 -7.343352E+05 -1.256148E+05 -2.848175E+04 -2.689997E+05  1.224443E-09  1.003330E-09
        74  17 -7.387338E+05 -1.245552E+05 -3.303638E+04 -2.681916E+05 -1.407517E-09  6.427372E-10
        74  18 -7.421880E+05 -1.345375E+05 -4.265197E+04 -2.703679E+05 -2.543903E-09  8.206007E-10
        74  19 -5.592431E+05 -6.048249E+04  1.898703E+04 -2.222882E+05 -4.013568E+03  2.969691E+02
        74  20 -5.564962E+05 -5.548071E+04  1.658675E+04 -2.182437E+05 -8.310661E+03 -1.124739E+03
        74  21 -5.527987E+05 -6.151383E+04  9.148793E+03 -2.171834E+05 -1.258756E+04 -2.600315E+03
        74  22 -6.467928E+05 -9.304881E+04 -4.747005E+03 -2.456454E+05 -3.960810E+03  3.167846E+02
        74  23 -6.476189E+05 -9.001820E+04 -8.224385E+03 -2.432193E+05 -8.271816E+03 -1.110131E+03
        74  24 -6.474976E+05 -9.802597E+04 -1.675105E+04 -2.437775E+05 -1.256260E+04 -2.590897E+03
        74  25 -7.343352E+05 -1.256148E+05 -2.848172E+04 -2.689997E+05 -3.908061E+03  3.365972E+02
        74  26 -7.387337E+05 -1.245552E+05 -3.303625E+04 -2.681916E+05 -8.232977E+03 -1.095525E+03
        74  27 -7.421878E+05 -1.345374E+05 -4.265166E+04 -2.703678E+05 -1.253763E+04 -2.581481E+03
        75   1 -5.399247E+05 -5.392398E+04  8.083973E+03 -2.203308E+05  1.581035E+04  3.671500E+03
        75   2 -5.336495E+05 -4.057664E+04 -5.414079E+03 -2.131539E+05  3.458332E+04  1.054632E+04
        75   3 -5.452319E+05 -8.070112E+04 -4.652896E+04 -1.971472E+05  5.324917E+04  1.770706E+04
        75   4 -6.495099E+05 -9.210888E+04 -2.110602E+04 -2.469204E+05  1.572790E+04  3.640596E+03
        75   5 -6.431322E+05 -8.342208E+04 -3.548532E+04 -2.445495E+05  3.457462E+04  1.054291E+04
        75   6 -6.546303E+05 -1.282276E+05 -7.754375E+04 -2.333483E+05  5.331420E+04  1.773082E+04
        75   7 -7.590839E+05 -1.302936E+05 -5.029709E+04 -2.735059E+05  1.564547E+04  3.609696E+03
        75   8 -7.526036E+05 -1.262666E+05 -6.555769E+04 -2.759401E+05  3.456592E+04  1.053951E+04
        75   9 -7.640172E+05 -1.757522E+05 -1.085597E+05 -2.695433E+05  5.337922E+04  1.775457E+04
        75  10 -5.399249E+05 -5.392406E+04  8.083477E+03 -2.203309E+05  1.001568E-09  8.057564E-10
        75  11 -5.336508E+05 -4.057708E+04 -5.416538E+03 -2.131542E+05  2.691810E-09  7.127475E-10
        75  12 -5.452350E+05 -8.070222E+04 -4.653489E+04 -1.971480E+05  3.862183E-10 -6.224343E-10
        75  13 -6.495102E+05 -9.210896E+04 -2.110651E+04 -2.469204E+05 -1.040956E-09  2.245273E-11
        75  14 -6.431336E+05 -8.342252E+04 -3.548778E+04 -2.445498E+05 -1.309909E-09  9.448123E-10
        75  15 -6.546335E+05 -1.282287E+05 -7.754969E+04 -2.333491E+05 -3.454619E-09 -1.227939E-09
        75  16 -7.590842E+05 -1.302936E+05 -5.029758E+04 -2.735060E+05 -4.716914E-09  5.968516E-10
        75  17 -7.526049E+05 -1.262671E+05 -6.556015E+04 -2.759404E+05 -3.293042E-09  1.563269E-09
        75  18 -7.640203E+05 -1.757533E+05 -1.085656E+05 -2.695441E+05 -3.524378E-09  1.651163E-09
        75  19 -5.399247E+05 -5.392398E+04  8.083973E+03 -2.203308E+05 -1.581035E+04 -3.671500E+03
        75  20 -5.336495E+05 -4.057664E+04 -5.414079E+03 -2.131539E+05 -3.458332E+04 -1.054632E+04
        75  21 -5.452319E+05 -8.070112E+04 -4.652896E+04 -1.971472E+05 -5.324917E+04 -1.770706E+04
        75  22 -6.495099E+05 -9.210888E+04 -2.110602E+04 -2.469204E+05 -1.572790E+04 -3.640596E+03
        75  23 -6.431322E+05 -8.342208E+04 -3.548532E+04 -2.445495E+05 -3.457462E+04 -1.054291E+04
        75  24 -6.546303E+05 -1.282276E+05 -7.754375E+04 -2.333483E+05 -5.331420E+04 -1.773082E+04
        75  25 -7.590839E+05 -1.302936E+05 -5.029709E+04 -2.735059E+05 -1.564547E+04 -3.609696E+03
        75  26 -7.526036E+05 -1.262666E+05 -6.555769E+04 -2.759401E+05 -3.456592E+04 -1.053951E+04
        75  27 -7.640172E+05 -1.757522E+05 -1.085597E+05 -2.695433E+05 -5.337922E+04 -1.775457E+04
        76   1 -5.272556E+05 -5.560965E+04 -6.079589E+04 -2.417066E+05  6.789311E+04  2.279236E+04
        76   2 -4.966262E+05  2.139963E+04 -1.165105E+05 -2.086531E+05  1.506044E+05  5.362956E+04
        76   3 -6.096721E+05 -2.636497E+05 -3.322987E+05 -8.483537E+04  2.325410E+05  8.653309E+04
        76   4 -6.669015E+05 -8.598815E+04 -9.436166E+04 -2.568337E+05  6.753995E+04  2.266254E+04
        76   5 -6.134820E+05 -3.510172E+04 -1.506916E+05 -2.532244E+05  1.507912E+05  5.369605E+04
        76   6 -7.038760E+05 -3.464277E+05 -3.675474E+05 -1.588412E+05  2.332708E+05  8.678565E+04
        76   7 -8.065278E+05 -1.163672E+05 -1.279285E+05 -2.719591E+05  6.718688E+04  2.253273E+04
        76   8 -7.303239E+05 -9.159936E+04 -1.848740E+05 -2.977872E+05  1.509780E+05  5.376251E+04
        76   9 -7.980652E+05 -4.291869E+05 -4.027960E+05 -2.328328E+05  2.340006E+05  8.703802E+04
        76  10 -5.272607E+05 -5.561145E+04 -6.080554E+04 -2.417079E+05 -9.845929E-10 -3.833194E-10
        76  11 -4.966514E+05  2.139044E+04 -1.165586E+05 -2.086596E+05  3.750629E-10  2.142791E-10
        76  12 -6.097323E+05 -2.636723E+05 -3.324145E+05 -8.485159E+04 -1.105621E-09 -4.631840E-10
        76  13 -6.669066E+05 -8.598993E+04 -9.437121E+04 -2.568349E+05  2.865924E-09 -2.481768E-09
        76  14 -6.135072E+05 -3.511094E+04 -1.507398E+05 -2.532310E+05 -4.394725E-09 -3.541482E-10
        76  15 -7.039365E+05 -3.464504E+05 -3.676639E+05 -1.588576E+05 -2.458543E-10  3.654084E-10
        76  16 -8.065328E+05 -1.163689E+05 -1.279379E+05 -2.719603E+05 -2.424444E-09  3.155329E-10
        76  17 -7.303492E+05 -9.160860E+04 -1.849223E+05 -2.977938E+05 -3.751412E-09  1.690638E-09
        76  18 -7.981262E+05 -4.292098E+05 -4.029133E+05 -2.328492E+05  1.179766E-09  8.646303E-11
        76  19 -5.272556E+05 -5.560965E+04 -6.079589E+04 -2.417066E+05 -6.789311E+04 -2.279236E+04
        76  20 -4.966262E+05  2.139963E+04 -1.165105E+05 -2.086531E+05 -1.506044E+05 -5.362956E+04
        76  21 -6.096721E+05 -2.636497E+05 -3.322987E+05 -8.483537E+04 -2.325410E+05 -8.653309E+04
        76  22 -6.669015E+05 -8.598815E+04 -9.436166E+04 -2.568337E+05 -6.753995E+04 -2.266254E+04
        76  23 -6.134820E+05 -3.510172E+04 -1.506916E+05 -2.532244E+05 -1.507912E+05 -5.369605E+04
        76  24 -7.038760E+05 -3.464277E+05 -3.675474E+05 -1.588412E+05 -2.332708E+05 -8.678565E+04
        76  25 -8.065278E+05 -1.163672E+05 -1.279285E+05 -2.719591E+05 -6.718688E+04 -2.253273E+04
        76  26 -7.303239E+05 -9.159936E+04 -1.848740E+05 -2.977872E+05 -1.509780E+05 -5.376251E+04
        76  27 -7.980652E+05 -4.291869E+05 -4.027960E+05 -2.328328E+05 -2.340006E+05 -8.703802E+04
        77   1  3.336468E+05  2.479587E+06  3.162007E+05 -5.067173E+04  1.787270E+04  1.412689E+05
        77   2  2.951206E+05  2.445836E+06  2.336500E+05 -4.052906E+04  6.215513E+04  7.720338E+04
        77   3  2.789573E+05  2.426083E+06  1.983223E+05 -3.313108E+04  7.982110E+04  1.314884E+04
        77   4  2.655559E+04  1.228896E+06  2.876332E+04 -3.262440E+04  1.789202E+04  1.926652E+04
        77   5  8.100529E+03  1.226790E+06  1.502196E+04 -3.125931E+04  6.218523E+04  1.161632E+04
        77   6  2.257929E+03  1.228928E+06  9.432768E+03 -3.263511E+04  7.983982E+04  3.971295E+03
        77   7 -2.806354E+05 -2.032001E+04 -2.587215E+05 -1.461352E+04  1.790430E+04 -1.024929E+05
        77   8 -2.789993E+05  9.197098E+03 -2.036471E+05 -2.200810E+04  6.221342E+04 -5.384601E+04
        77   9 -2.745122E+05  3.319564E+04 -1.794922E+05 -3.213994E+04  7.985855E+04 -5.189266E+03
        77  10  3.336411E+05  2.479565E+06  3.161628E+05 -5.067376E+04  1.810540E-09  2.444092E-08
        77  11  2.951148E+05  2.445829E+06  2.336315E+05 -4.053292E+04  3.660755E-09 -6.909276E-09
        77  12  2.789504E+05  2.426081E+06  1.983100E+05 -3.313193E+04  6.824907E-09 -3.827135E-08
        77  13  2.655515E+04  1.228895E+06  2.876202E+04 -3.262468E+04 -1.361092E-09 -2.479911E-11
        77  14  8.096338E+03  1.226789E+06  1.501443E+04 -3.125990E+04 -8.024868E-09 -2.817859E-10
        77  15  2.251076E+03  1.228926E+06  9.420752E+03 -3.263536E+04 -9.138557E-09 -3.373609E-10
        77  16 -2.806386E+05 -2.033138E+04 -2.587419E+05 -1.461205E+04  1.196475E-09 -2.436997E-08
        77  17 -2.790042E+05  9.192944E+03 -2.036598E+05 -2.200540E+04  7.696107E-10  6.337614E-09
        77  18 -2.745191E+05  3.319390E+04 -1.795042E+05 -3.213960E+04  7.804364E-09  3.855709E-08
        77  19  3.336468E+05  2.479587E+06  3.162007E+05 -5.067173E+04 -1.787270E+04 -1.412689E+05
        77  20  2.951206E+05  2.445836E+06  2.336500E+05 -4.052906E+04 -6.215513E+04 -7.720338E+04
        77  21  2.789573E+05  2.426083E+06  1.983223E+05 -3.313108E+04 -7.982110E+04 -1.314884E+04
        77  22  2.655559E+04  1.228896E+06  2.876332E+04 -3.262440E+04 -1.789202E+04 -1.926652E+04
        77  23  8.100529E+03  1.226790E+06  1.502196E+04 -3.125931E+04 -6.218523E+04 -1.161632E+04
        77  24  2.257929E+03  1.228928E+06  9.432768E+03 -3.263511E+04 -7.983982E+04 -3.971295E+03
        77  25 -2.806354E+05 -2.032001E+04 -2.587215E+05 -1.461352E+04 -1.790430E+04  1.024929E+05
        77  26 -2.789993E+05  9.197098E+03 -2.036471E+05 -2.200810E+04 -6.221342E+04  5.384601E+04
        77  27 -2.745122E+05  3.319564E+04 -1.794922E+05 -3.213994E+04 -7.985855E+04  5.189266E+03
        78   1  2.735700E+05  2.407375E+06  1.902866E+05 -3.475939E+04  8.144619E+04  1.173021E+04
        78   2  2.655568E+05  2.379605E+06  1.807885E+05 -3.118207E+04  8.289186E+04 -4.076029E+03
        78   3  2.620107E+05  2.355085E+06  1.826946E+05 -3.233093E+04  7.862133E+04 -1.988649E+04
        78   4  1.810557E+03  1.228248E+06  8.126389E+03 -3.307653E+04  8.146608E+04  2.629216E+03
        78   5  9.759534E+02  1.227681E+06  7.385294E+03 -3.071331E+04  8.290457E+04 -1.057834E+03
        78   6  2.513184E+03  1.228268E+06  9.658369E+03 -3.307681E+04  7.862146E+04 -4.749723E+03
        78   7 -2.700162E+05  5.050577E+04 -1.740652E+05 -3.139676E+04  8.148594E+04 -6.455206E+03
        78   8 -2.636678E+05  7.708265E+04 -1.660446E+05 -3.024520E+04  8.291729E+04  1.955002E+03
        78   9 -2.570454E+05  1.027165E+05 -1.634052E+05 -3.382099E+04  7.862157E+04  1.036071E+04
        78  10  2.735628E+05  2.407373E+06  1.902739E+05 -3.476016E+04  7.070222E-09  3.788559E-08
        78  11  2.655494E+05  2.379603E+06  1.807755E+05 -3.118180E+04  1.877302E-09  1.426829E-09
        78  12  2.620039E+05  2.355082E+06  1.826823E+05 -3.232968E+04  4.166946E-10 -3.062204E-08
        78  13  1.803425E+03  1.228246E+06  8.113897E+03 -3.307670E+04 -1.176110E-08 -5.527968E-10
        78  14  9.685683E+02  1.227679E+06  7.372368E+03 -3.071324E+04 -4.920738E-09 -8.161225E-10
        78  15  2.506536E+03  1.228266E+06  9.646704E+03 -3.307651E+04 -9.105985E-10 -5.138762E-10
        78  16 -2.700234E+05  5.050394E+04 -1.740777E+05 -3.139633E+04  7.046317E-09 -3.780901E-08
        78  17 -2.636752E+05  7.708080E+04 -1.660575E+05 -3.024534E+04  1.544273E-09 -2.907801E-09
        78  18 -2.570521E+05  1.027147E+05 -1.634170E+05 -3.382165E+04  1.753382E-09  3.163852E-08
        78  19  2.735700E+05  2.407375E+06  1.902866E+05 -3.475939E+04 -8.144619E+04 -1.173021E+04
        78  20  2.655568E+05  2.379605E+06  1.807885E+05 -3.118207E+04 -8.289186E+04  4.076029E+03
        78  21  2.620107E+05  2.355085E+06  1.826946E+05 -3.233093E+04 -7.862133E+04  1.988649E+04
        78  22  1.810557E+03  1.228248E+06  8.126389E+03 -3.307653E+04 -8.146608E+04 -2.629216E+03
        78  23  9.759534E+02  1.227681E+06  7.385294E+03 -3.071331E+04 -8.290457E+04  1.057834E+03
        78  24  2.513184E+03  1.228268E+06  9.658369E+03 -3.307681E+04 -7.862146E+04  4.749723E+03
        78  25 -2.700162E+05  5.050577E+04 -1.740652E+05 -3.139676E+04 -8.148594E+04  6.455206E+03
        78  26 -2.636678E+05  7.708265E+04 -1.660446E+05 -3.024520E+04 -8.291729E+04 -1.955002E+03
        78  27 -2.570454E+05  1.027165E+05 -1.634052E+05 -3.382099E+04 -7.862157E+04 -1.036071E+04
        79   1  2.598702E+05  2.341046E+06  1.859077E+05 -3.420571E+04  7.516181E+04 -2.157807E+04
        79   2  2.656154E+05  2.308542E+06  2.120523E+05 -1.885804E+04  5.687084E+04 -7.924926E+04
        79   3  2.967553E+05  2.289929E+06  2.820149E+05 -9.937698E+03  1.622772E+04 -1.369547E+05
        79   4  3.170642E+03  1.229285E+06  1.186282E+04 -3.345901E+04  7.515946E+04 -6.376112E+03
        79   5  1.129136E+04  1.226437E+06  2.015206E+04 -3.022771E+04  5.680928E+04 -1.668334E+04
        79   6  3.662214E+04  1.229287E+06  3.945078E+04 -3.342695E+04  1.609133E+04 -2.702432E+04
        79   7 -2.535895E+05  1.187533E+05 -1.622110E+05 -3.271338E+04  7.515716E+04  8.799727E+03
        79   8 -2.430943E+05  1.454796E+05 -1.717771E+05 -4.157671E+04  5.674537E+04  4.577702E+04
        79   9 -2.235804E+05  1.697098E+05 -2.031414E+05 -5.687552E+04  1.594652E+04  8.272046E+04
        79  10  2.598640E+05  2.341044E+06  1.858962E+05 -3.420440E+04  3.093516E-09 -7.892963E-11
        79  11  2.656102E+05  2.308534E+06  2.120344E+05 -1.885442E+04  1.346614E-09 -4.989074E-09
        79  12  2.967500E+05  2.289909E+06  2.819793E+05 -9.935910E+03  1.475842E-09 -3.642539E-09
        79  13  3.164562E+03  1.229284E+06  1.185212E+04 -3.345863E+04 -5.266316E-10 -1.072737E-09
        79  14  1.128782E+04  1.226435E+06  2.014547E+04 -3.022695E+04  2.657572E-09 -1.280990E-09
        79  15  3.662166E+04  1.229286E+06  3.944893E+04 -3.342660E+04  6.700879E-10 -8.142451E-10
        79  16 -2.535956E+05  1.187517E+05 -1.622218E+05 -3.271391E+04  3.831384E-10  3.282278E-10
        79  17 -2.430983E+05  1.454765E+05 -1.717871E+05 -4.157881E+04  8.817657E-10  2.724513E-09
        79  18 -2.235825E+05  1.697024E+05 -2.031548E+05 -5.687658E+04  1.161399E-09  5.145750E-09
        79  19  2.598702E+05  2.341046E+06  1.859077E+05 -3.420571E+04 -7.516181E+04  2.157807E+04
        79  20  2.656154E+05  2.308542E+06  2.120523E+05 -1.885804E+04 -5.687084E+04  7.924926E+04
        79  21  2.967553E+05  2.289929E+06  2.820149E+05 -9.937698E+03 -1.622772E+04  1.369547E+05
        79  22  3.170642E+03  1.229285E+06  1.186282E+04 -3.345901E+04 -7.515946E+04  6.376112E+03
        79  23  1.129136E+04  1.226437E+06  2.015206E+04 -3.022771E+04 -5.680928E+04  1.668334E+04
        79  24  3.662214E+04  1.229287E+06  3.945078E+04 -3.342695E+04 -1.609133E+04  2.702432E+04
        79  25 -2.535895E+05  1.187533E+05 -1.622110E+05 -3.271338E+04 -7.515716E+04 -8.799727E+03
        79  26 -2.430943E+05  1.454796E+05 -1.717771E+05 -4.157671E+04 -5.674537E+04 -4.577702E+04
        79  27 -2.235804E+05  1.697098E+05 -2.031414E+05 -5.687552E+04 -1.594652E+04 -8.272046E+04
        80   1 -3.249166E+06 -4.410251E+05 -4.815304E+05 -6.287515E+04 -1.344237E+05  7.339192E+03
        80   2 -3.182115E+06 -2.557273E+05 -3.621492E+05 -1.497552E+04 -8.544693E+04  2.309548E+04
        80   3 -3.166316E+06 -2.691120E+05 -3.234999E+05 -2.019307E+04 -3.639025E+04  2.034010E+04
        80   4 -2.067260E+06 -1.445975E+05 -1.865643E+05 -3.094246E+04 -1.274757E+05  7.363864E+03
        80   5 -2.042070E+06  2.932305E+04 -8.065319E+04 -4.711667E+03 -8.373418E+04  2.309749E+04
        80   6 -2.067117E+06  5.670129E+03 -5.172045E+04 -3.159482E+04 -3.991668E+04  2.033096E+04
        80   7 -8.840783E+05  1.517279E+05  1.082970E+05  1.049915E+03 -1.205142E+05  7.389237E+03
        80   8 -9.008371E+05  3.142764E+05  2.007464E+05  5.570150E+03 -8.201817E+04  2.309956E+04
        80   9 -9.668132E+05  2.803622E+05  2.199693E+05 -4.301745E+04 -4.344933E+04  2.032195E+04
        80  10 -3.249186E+06 -4.410300E+05 -4.815646E+05 -6.287436E+04 -2.391593E-09 -4.156443E-10
        80  11 -3.182123E+06 -2.557299E+05 -3.621640E+05 -1.497393E+04  1.691495E-09 -4.247294E-10
        80  12 -3.166318E+06 -2.691128E+05 -3.235032E+05 -2.019247E+04  1.610522E-09  5.315763E-10
        80  13 -2.067277E+06 -1.446019E+05 -1.865950E+05 -3.094170E+04  8.630601E-13 -2.037169E-10
        80  14 -2.042078E+06  2.932059E+04 -8.066741E+04 -4.710108E+03 -4.360822E-09  3.499358E-11
        80  15 -2.067119E+06  5.669256E+03 -5.172423E+04 -3.159417E+04  2.705657E-09  4.704864E-10
        80  16 -8.840940E+05  1.517239E+05  1.082696E+05  1.050633E+03 -3.071890E-09 -1.055737E-10
        80  17 -9.008445E+05  3.142740E+05  2.007327E+05  5.571676E+03 -3.137607E-09  1.167705E-11
        80  18 -9.668153E+05  2.803612E+05  2.199649E+05 -4.301674E+04 -3.447248E-09  3.286884E-10
        80  19 -3.249166E+06 -4.410251E+05 -4.815304E+05 -6.287515E+04  1.344237E+05 -7.339192E+03
        80  20 -3.182115E+06 -2.557273E+05 -3.621492E+05 -1.497552E+04  8.544693E+04 -2.309548E+04
        80  21 -3.166316E+06 -2.691120E+05 -3.234999E+05 -2.019307E+04  3.639025E+04 -2.034010E+04
        80  22 -2.067260E+06 -1.445975E+05 -1.865643E+05 -3.094246E+04  1.274757E+05 -7.363864E+03
        80  23 -2.042070E+06  2.932305E+04 -8.065319E+04 -4.711667E+03  8.373418E+04 -2.309749E+04
        80  24 -2.067117E+06  5.670129E+03 -5.172045E+04 -3.159482E+04  3.991668E+04 -2.033096E+04
        80  25 -8.840783E+05  1.517279E+05  1.082970E+05  1.049915E+03  1.205142E+05 -7.389237E+03
        80  26 -9.008371E+05  3.142764E+05  2.007464E+05  5.570150E+03  8.201817E+04 -2.309956E+04
        80  27 -9.668132E+05  2.803622E+05  2.199693E+05 -4.301745E+04  4.344933E+04 -2.032195E+04
        81   1 -3.005934E+06 -2.573598E+05 -2.774892E+05 -4.173397E+04 -3.196481E+04  1.659136E+04
        81   2 -2.943105E+06 -2.182754E+05 -2.406876E+05  9.041968E+02 -2.032250E+04  1.678587E+04
        81   3 -2.885771E+06 -2.063872E+05 -2.177154E+05 -3.490808E+04 -8.681544E+03  1.433254E+04
        81   4 -2.057083E+06 -2.007377E+04 -4.270958E+04 -3.700722E+04 -3.156646E+04  1.659014E+04
        81   5 -2.054399E+06  3.900055E+03 -2.103089E+04  2.200696E+03 -2.066891E+04  1.678409E+04
        81   6 -2.057068E+06  8.309930E+02 -1.264683E+04 -3.703514E+04 -9.773848E+03  1.433174E+04
        81   7 -1.107410E+06  2.171447E+05  1.920029E+05 -3.227351E+04 -3.116746E+04  1.658893E+04
        81   8 -1.164972E+06  2.260163E+05  1.985671E+05  3.498951E+03 -2.101580E+04  1.678231E+04
        81   9 -1.227739E+06  2.079977E+05  1.923706E+05 -3.916498E+04 -1.086761E+04  1.433094E+04
        81  10 -3.005935E+06 -2.573603E+05 -2.774916E+05 -4.173354E+04  1.366230E-09  8.303593E-10
        81  11 -2.943105E+06 -2.182758E+05 -2.406889E+05  9.044719E+02  4.677703E-09  1.583126E-10
        81  12 -2.885771E+06 -2.063875E+05 -2.177159E+05 -3.490798E+04  2.178663E-09 -4.798706E-10
        81  13 -2.057084E+06 -2.007434E+04 -4.271198E+04 -3.700680E+04 -2.190489E-09  2.942565E-10
        81  14 -2.054399E+06  3.899638E+03 -2.103222E+04  2.200976E+03  2.268101E-09 -4.998507E-10
        81  15 -2.057068E+06  8.307469E+02 -1.264740E+04 -3.703502E+04  4.319939E-10 -5.032380E-10
        81  16 -1.107411E+06  2.171442E+05  1.920006E+05 -3.227309E+04 -2.496748E-09  4.073065E-10
        81  17 -1.164972E+06  2.260159E+05  1.985658E+05  3.499235E+03 -3.309363E-09  2.675232E-10
        81  18 -1.227739E+06  2.079974E+05  1.923699E+05 -3.916485E+04 -1.979408E-09 -9.793222E-11
        81  19 -3.005934E+06 -2.573598E+05 -2.774892E+05 -4.173397E+04  3.196481E+04 -1.659136E+04
        81  20 -2.943105E+06 -2.182754E+05 -2.406876E+05  9.041968E+02  2.032250E+04 -1.678587E+04
        81  21 -2.885771E+06 -2.063872E+05 -2.177154E+05 -3.490808E+04  8.681544E+03 -1.433254E+04
        81  22 -2.057083E+06 -2.007377E+04 -4.270958E+04 -3.700722E+04  3.156646E+04 -1.659014E+04
        81  23 -2.054399E+06  3.900055E+03 -2.103089E+04  2.200696E+03  2.066891E+04 -1.678409E+04
        81  24 -2.057068E+06  8.309930E+02 -1.264683E+04 -3.703514E+04  9.773848E+03 -1.433174E+04
        81  25 -1.107410E+06  2.171447E+05  1.920029E+05 -3.227351E+04  3.116746E+04 -1.658893E+04
        81  26 -1.164972E+06  2.260163E+05  1.985671E+05  3.498951E+03  2.101580E+04 -1.678231E+04
        81  27 -1.227739E+06  2.079977E+05  1.923706E+05 -3.916498E+04  1.086761E+04 -1.433094E+04
        82   1 -2.687139E+06 -1.605703E+05 -1.660309E+05 -4.099430E+04 -7.202809E+03  1.259102E+04
        82   2 -2.613496E+06 -1.389461E+05 -1.433209E+05  7.508478E+03 -4.299668E+03  1.041300E+04
        82   3 -2.540364E+06 -1.208431E+05 -1.232361E+05 -3.988486E+04 -1.401407E+03  7.691005E+03
        82   4 -2.055899E+06 -2.811231E+03 -1.015860E+04 -4.090685E+04 -7.754455E+03  1.259064E+04
        82   5 -2.055658E+06  4.897556E+02 -5.446269E+03  7.040034E+03 -5.004963E+03  1.041337E+04
        82   6 -2.055903E+06  2.994111E+02 -3.249285E+03 -4.090386E+04 -2.260691E+03  7.692335E+03
        82   7 -1.424295E+06  1.549180E+05  1.456841E+05 -4.081922E+04 -8.306660E+03  1.259027E+04
        82   8 -1.497536E+06  1.399023E+05  1.324052E+05  6.571262E+03 -5.710892E+03  1.041373E+04
        82   9 -1.571229E+06  1.214243E+05  1.167200E+05 -4.192356E+04 -3.120646E+03  7.693668E+03
        82  10 -2.687139E+06 -1.605705E+05 -1.660313E+05 -4.099423E+04 -2.812992E-10 -1.132078E-10
        82  11 -2.613496E+06 -1.389462E+05 -1.433211E+05  7.508514E+03  2.116246E-10 -1.053290E-10
        82  12 -2.540364E+06 -1.208431E+05 -1.232362E+05 -3.988485E+04  1.681258E-09 -3.844239E-10
        82  13 -2.055899E+06 -2.811418E+03 -1.015901E+04 -4.090677E+04  4.763287E-11 -4.243475E-10
        82  14 -2.055658E+06  4.896325E+02 -5.446520E+03  7.040076E+03 -1.070196E-09  1.786723E-10
        82  15 -2.055903E+06  2.993463E+02 -3.249405E+03 -4.090385E+04 -1.309986E-09 -1.496551E-11
        82  16 -1.424295E+06  1.549178E+05  1.456837E+05 -4.081914E+04  1.456980E-09  2.452801E-10
        82  17 -1.497536E+06  1.399022E+05  1.324050E+05  6.571310E+03 -1.601776E-09  1.810253E-10
        82  18 -1.571229E+06  1.214242E+05  1.167199E+05 -4.192354E+04 -3.713138E-09  2.650671E-10
        82  19 -2.687139E+06 -1.605703E+05 -1.660309E+05 -4.099430E+04  7.202809E+03 -1.259102E+04
        82  20 -2.613496E+06 -1.389461E+05 -1.433209E+05  7.508478E+03  4.299668E+03 -1.041300E+04
        82  21 -2.540364E+06 -1.208431E+05 -1.232361E+05 -3.988486E+04  1.401407E+03 -7.691005E+03
        82  22 -2.055899E+06 -2.811231E+03 -1.015860E+04 -4.090685E+04  7.754455E+03 -1.259064E+04
        82  23 -2.055658E+06  4.897556E+02 -5.446269E+03  7.040034E+03  5.004963E+03 -1.041337E+04
        82  24 -2.055903E+06  2.994111E+02 -3.249285E+03 -4.090386E+04  2.260691E+03 -7.692335E+03
        82  25 -1.424295E+06  1.549180E+05  1.456841E+05 -4.081922E+04  8.306660E+03 -1.259027E+04
        82  26 -1.497536E+06  1.399023E+05  1.324052E+05  6.571262E+03  5.710892E+03 -1.041373E+04
        82  27 -1.571229E+06  1.214243E+05  1.167200E+05 -4.192356E+04  3.120646E+03 -7.693668E+03
        83   1 -2.313149E+06 -6.450572E+04 -6.601696E+04 -4.251392E+04 -9.717462E+02  6.025549E+03
        83   2 -2.232650E+06 -4.418612E+04 -4.547393E+04  9.799861E+03 -8.614017E+01  3.296530E+03
        83   3 -2.152826E+06 -2.409914E+04 -2.567324E+04 -4.262187E+04  7.977369E+02  4.519577E+02
        83   4 -2.055892E+06 -2.594072E+02 -2.674720E+03 -4.287079E+04 -1.738799E+03  6.027095E+03
        83   5 -2.055555E+06  7.082731E+01 -1.712079E+03  9.496514E+03 -8.861240E+02  3.298366E+03
        83   6 -2.055894E+06  1.745045E+02 -1.468484E+03 -4.286982E+04 -3.529291E+01  4.541184E+02
        83   7 -1.798574E+06  6.398197E+04  6.066263E+04 -4.322776E+04 -2.506170E+03  6.028641E+03
        83   8 -1.878432E+06  4.432543E+04  4.204744E+04  9.193097E+03 -1.686336E+03  3.300202E+03
        83   9 -1.958954E+06  2.444744E+04  2.273557E+04 -4.311781E+04 -8.684532E+02  4.562796E+02
        83  10 -2.313149E+06 -6.450576E+04 -6.601703E+04 -4.251391E+04 -3.128391E-11  1.054784E-13
        83  11 -2.232650E+06 -4.418614E+04 -4.547395E+04  9.799861E+03 -1.262082E-10  2.515926E-10
        83  12 -2.152826E+06 -2.409914E+04 -2.567324E+04 -4.262187E+04 -1.371730E-09 -1.296976E-10
        83  13 -2.055892E+06 -2.594469E+02 -2.674794E+03 -4.287078E+04 -9.287445E-11 -7.075618E-13
        83  14 -2.055555E+06  7.081543E+01 -1.712101E+03  9.496516E+03 -2.058044E-09  8.083509E-10
        83  15 -2.055894E+06  1.745043E+02 -1.468484E+03 -4.286982E+04 -3.618208E-09  8.724574E-10
        83  16 -1.798574E+06  6.398193E+04  6.066255E+04 -4.322775E+04 -1.616701E-09  1.495870E-10
        83  17 -1.878432E+06  4.432542E+04  4.204741E+04  9.193101E+03 -5.738609E-10  1.353271E-10
        83  18 -1.958954E+06  2.444744E+04  2.273556E+04 -4.311781E+04 -1.649710E-09  1.046002E-09
        83  19 -2.313149E+06 -6.450572E+04 -6.601696E+04 -4.251392E+04  9.717462E+02 -6.025549E+03
        83  20 -2.232650E+06 -4.418612E+04 -4.547393E+04  9.799861E+03  8.614017E+01 -3.296530E+03
        83  21 -2.152826E+06 -2.409914E+04 -2.567324E+04 -4.262187E+04 -7.977369E+02 -4.519577E+02
        83  22 -2.055892E+06 -2.594072E+02 -2.674720E+03 -4.287079E+04  1.738799E+03 -6.027095E+03
        83  23 -2.055555E+06  7.082731E+01 -1.712079E+03  9.496514E+03  8.861240E+02 -3.298366E+03
        83  24 -2.055894E+06  1.745045E+02 -1.468484E+03 -4.286982E+04  3.529291E+01 -4.541184E+02
        83  25 -1.798574E+06  6.398197E+04  6.066263E+04 -4.322776E+04  2.506170E+03 -6.028641E+03
        83  26 -1.878432E+06  4.432543E+04  4.204744E+04  9.193097E+03  1.686336E+03 -3.300202E+03
        83  27 -1.958954E+06  2.444744E+04  2.273557E+04 -4.311781E+04  8.684532E+02 -4.562796E+02
        84   1 -1.916108E+06  3.516791E+04  3.329206E+04 -4.309324E+04  1.060027E+03 -1.249162E+03
        84   2 -1.835993E+06  5.493976E+04  5.235271E+04  8.986652E+03  1.962331E+03 -4.089893E+03
        84   3 -1.756499E+06  7.440521E+04  7.065603E+04 -4.315295E+04  2.867021E+03 -6.794038E+03
        84   4 -2.055888E+06  1.915233E+02 -1.496337E+03 -4.275600E+04  2.247342E+02 -1.247020E+03
        84   5 -2.055570E+06  7.956988E+01 -1.893903E+03  9.354321E+03  1.165961E+03 -4.088144E+03
        84   6 -2.055885E+06 -3.452933E+02 -3.075697E+03 -4.275715E+04  2.109457E+03 -6.792641E+03
        84   7 -2.195650E+06 -3.478633E+04 -3.628620E+04 -4.241883E+04 -6.103704E+02 -1.244878E+03
        84   8 -2.275103E+06 -5.478423E+04 -5.614410E+04  9.721886E+03  3.698731E+02 -4.086396E+03
        84   9 -2.355190E+06 -7.510249E+04 -7.681405E+04 -4.236150E+04  1.352259E+03 -6.791245E+03
        84  10 -1.916108E+06  3.516790E+04  3.329206E+04 -4.309324E+04 -5.544786E-10 -1.779125E-10
        84  11 -1.835993E+06  5.493974E+04  5.235267E+04  8.986658E+03  1.405632E-09  4.383510E-10
        84  12 -1.756499E+06  7.440516E+04  7.065593E+04 -4.315293E+04 -2.104649E-09 -2.955971E-10
        84  13 -2.055888E+06  1.915217E+02 -1.496340E+03 -4.275600E+04  2.474588E-09  1.420917E-09
        84  14 -2.055570E+06  7.955159E+01 -1.893937E+03  9.354325E+03 -9.820069E-10  7.317848E-10
        84  15 -2.055885E+06 -3.453440E+02 -3.075792E+03 -4.275714E+04 -1.878497E-09 -5.429451E-10
        84  16 -2.195650E+06 -3.478633E+04 -3.628621E+04 -4.241883E+04 -1.788558E-09  1.344284E-09
        84  17 -2.275103E+06 -5.478424E+04 -5.614413E+04  9.721887E+03 -2.369661E-09  6.205979E-10
        84  18 -2.355190E+06 -7.510254E+04 -7.681414E+04 -4.236149E+04 -5.891132E-10 -1.784682E-09
        84  19 -1.916108E+06  3.516791E+04  3.329206E+04 -4.309324E+04 -1.060027E+03  1.249162E+03
        84  20 -1.835993E+06  5.493976E+04  5.235271E+04  8.986652E+03 -1.962331E+03  4.089893E+03
        84  21 -1.756499E+06  7.440521E+04  7.065603E+04 -4.315295E+04 -2.867021E+03  6.794038E+03
        84  22 -2.055888E+06  1.915233E+02 -1.496337E+03 -4.275600E+04 -2.247342E+02  1.247020E+03
        84  23 -2.055570E+06  7.956988E+01 -1.893903E+03  9.354321E+03 -1.165961E+03  4.088144E+03
        84  24 -2.055885E+06 -3.452933E+02 -3.075697E+03 -4.275715E+04 -2.109457E+03  6.792641E+03
        84  25 -2.195650E+06 -3.478633E+04 -3.628620E+04 -4.241883E+04  6.103704E+02  1.244878E+03
        84  26 -2.275103E+06 -5.478423E+04 -5.614410E+04  9.721886E+03 -3.698731E+02  4.086396E+03
        84  27 -2.355190E+06 -7.510249E+04 -7.681405E+04 -4.236150E+04 -1.352259E+03  6.791245E+03
        85   1 -1.531419E+06  1.313778E+05  1.260258E+05 -4.165650E+04  3.568649E+03 -8.443363E+03
        85   2 -1.458856E+06  1.496511E+05  1.410161E+05  6.215348E+03  6.628048E+03 -1.113294E+04
        85   3 -1.386779E+06  1.637840E+05  1.531646E+05 -4.033074E+04  9.693100E+03 -1.325604E+04
        85   4 -2.055919E+06  3.080183E+02 -3.776060E+03 -4.057788E+04  2.713865E+03 -8.442222E+03
        85   5 -2.055657E+06  5.806012E+02 -6.385787E+03  6.632582E+03  5.933357E+03 -1.113280E+04
        85   6 -2.055915E+06 -3.317396E+03 -1.195039E+04 -4.058064E+04  9.158144E+03 -1.325664E+04
        85   7 -2.580168E+06 -1.307824E+05 -1.335984E+05 -3.950005E+04  1.859804E+03 -8.441083E+03
        85   8 -2.652133E+06 -1.485166E+05 -1.538141E+05  7.049509E+03  5.239332E+03 -1.113265E+04
        85   9 -2.724643E+06 -1.704523E+05 -1.770986E+05 -4.083019E+04  8.623761E+03 -1.325724E+04
        85  10 -1.531419E+06  1.313777E+05  1.260256E+05 -4.165648E+04 -4.081279E-09 -5.756755E-10
        85  11 -1.458856E+06  1.496510E+05  1.410157E+05  6.215408E+03  3.063091E-09  8.998615E-11
        85  12 -1.386779E+06  1.637838E+05  1.531641E+05 -4.033064E+04 -1.230325E-09 -8.919604E-10
        85  13 -2.055919E+06  3.079398E+02 -3.776208E+03 -4.057786E+04 -2.339123E-09 -9.303041E-10
        85  14 -2.055657E+06  5.804588E+02 -6.386086E+03  6.632635E+03  8.911799E-10  6.498469E-10
        85  15 -2.055915E+06 -3.317607E+03 -1.195087E+04 -4.058054E+04  6.755987E-10 -1.459301E-09
        85  16 -2.580168E+06 -1.307825E+05 -1.335986E+05 -3.950004E+04  7.982503E-10 -8.672326E-10
        85  17 -2.652133E+06 -1.485167E+05 -1.538144E+05  7.049556E+03  2.650807E-10  6.298400E-10
        85  18 -2.724643E+06 -1.704525E+05 -1.770991E+05 -4.083010E+04  2.542841E-09 -1.669157E-09
        85  19 -1.531419E+06  1.313778E+05  1.260258E+05 -4.165650E+04 -3.568649E+03  8.443363E+03
        85  20 -1.458856E+06  1.496511E+05  1.410161E+05  6.215348E+03 -6.628048E+03  1.113294E+04
        85  21 -1.386779E+06  1.637840E+05  1.531646E+05 -4.033074E+04 -9.693100E+03  1.325604E+04
        85  22 -2.055919E+06  3.080183E+02 -3.776060E+03 -4.057788E+04 -2.713865E+03  8.442222E+03
        85  23 -2.055657E+06  5.806012E+02 -6.385787E+03  6.632582E+03 -5.933357E+03  1.113280E+04
        85  24 -2.055915E+06 -3.317396E+03 -1.195039E+04 -4.058064E+04 -9.158144E+03  1.325664E+04
        85  25 -2.580168E+06 -1.307824E+05 -1.335984E+05 -3.950005E+04 -1.859804E+03  8.441083E+03
        85  26 -2.652133E+06 -1.485166E+05 -1.538141E+05  7.049509E+03 -5.239332E+03  1.113265E+04
        85  27 -2.724643E+06 -1.704523E+05 -1.770986E+05 -4.083019E+04 -8.623761E+03  1.325724E+04
        86   1 -1.194791E+06  2.164081E+05  1.983101E+05 -3.883762E+04  1.262527E+04 -1.496880E+04
        86   2 -1.133190E+06  2.345830E+05  2.026042E+05  3.199081E+03  2.469856E+04 -1.736135E+04
        86   3 -1.078016E+06  2.210175E+05  1.917206E+05 -3.084421E+04  3.677485E+04 -1.706169E+04
        86   4 -2.057351E+06  9.484960E+02 -1.490530E+04 -3.651507E+04  1.153883E+04 -1.496994E+04
        86   5 -2.054071E+06  4.615120E+03 -2.475670E+04  1.548678E+03  2.436964E+04 -1.736333E+04
        86   6 -2.057370E+06 -2.361827E+04 -5.033051E+04 -3.647508E+04  3.720231E+04 -1.706290E+04
        86   7 -2.919232E+06 -2.145668E+05 -2.281761E+05 -3.419572E+04  1.045389E+04 -1.497110E+04
        86   8 -2.974177E+06 -2.254162E+05 -2.521806E+05 -9.943910E+01  2.404118E+04 -1.736531E+04
        86   9 -3.035850E+06 -2.683258E+05 -2.924529E+05 -4.209741E+04  3.762906E+04 -1.706412E+04
        86  10 -1.194791E+06  2.164078E+05  1.983094E+05 -3.883747E+04 -3.327011E-09 -1.027543E-09
        86  11 -1.133191E+06  2.345825E+05  2.026025E+05  3.199427E+03  1.900340E-09  8.023383E-10
        86  12 -1.078018E+06  2.210168E+05  1.917175E+05 -3.084370E+04 -3.930868E-09 -5.051450E-10
        86  13 -2.057351E+06  9.482197E+02 -1.490597E+04 -3.651493E+04  8.454967E-11 -9.683134E-10
        86  14 -2.054071E+06  4.614637E+03 -2.475838E+04  1.549019E+03 -2.245733E-09  1.035896E-09
        86  15 -2.057372E+06 -2.361895E+04 -5.033366E+04 -3.647457E+04 -8.243720E-10 -1.468702E-10
        86  16 -2.919232E+06 -2.145671E+05 -2.281767E+05 -3.419560E+04  3.819243E-09 -1.787601E-09
        86  17 -2.974178E+06 -2.254167E+05 -2.521823E+05 -9.910241E+01  4.859712E-10  5.921706E-10
        86  18 -3.035852E+06 -2.683265E+05 -2.924561E+05 -4.209689E+04  2.939030E-10  5.408842E-10
        86  19 -1.194791E+06  2.164081E+05  1.983101E+05 -3.883762E+04 -1.262527E+04  1.496880E+04
        86  20 -1.133190E+06  2.345830E+05  2.026042E+05  3.199081E+03 -2.469856E+04  1.736135E+04
        86  21 -1.078016E+06  2.210175E+05  1.917206E+05 -3.084421E+04 -3.677485E+04  1.706169E+04
        86  22 -2.057351E+06  9.484960E+02 -1.490530E+04 -3.651507E+04 -1.153883E+04  1.496994E+04
        86  23 -2.054071E+06  4.615120E+03 -2.475670E+04  1.548678E+03 -2.436964E+04  1.736333E+04
        86  24 -2.057370E+06 -2.361827E+04 -5.033051E+04 -3.647508E+04 -3.720231E+04  1.706290E+04
        86  25 -2.919232E+06 -2.145668E+05 -2.281761E+05 -3.419572E+04 -1.045389E+04  1.497110E+04
        86  26 -2.974177E+06 -2.254162E+05 -2.521806E+05 -9.943910E+01 -2.404118E+04  1.736531E+04
        86  27 -3.035850E+06 -2.683258E+05 -2.924529E+05 -4.209741E+04 -3.762906E+04  1.706412E+04
        87   1 -9.452426E+05  2.872802E+05  2.165607E+05 -4.441054E+04  5.060711E+04 -2.077532E+04
        87   2 -8.767691E+05  3.249213E+05  1.916899E+05  6.386414E+03  9.691921E+04 -2.344277E+04
        87   3 -8.671550E+05  1.308171E+05  7.976994E+04  7.257007E+03  1.431518E+05 -7.362719E+03
        87   4 -2.069273E+06  6.691694E+03 -6.097266E+04 -3.094303E+04  4.704960E+04 -2.078526E+04
        87   5 -2.039403E+06  3.460926E+04 -9.498978E+04 -5.561092E+03  9.867068E+04 -2.344048E+04
        87   6 -2.069443E+06 -1.703795E+05 -2.198703E+05 -3.011148E+04  1.502087E+05 -7.336572E+03
        87   7 -3.192150E+06 -2.739905E+05 -3.385997E+05 -1.750066E+04  4.349846E+04 -2.079537E+04
        87   8 -3.200804E+06 -2.558034E+05 -3.817696E+05 -1.748729E+04  1.004187E+05 -2.343825E+04
        87   9 -3.270414E+06 -4.716805E+05 -5.196186E+05 -6.740903E+04  1.572517E+05 -7.311258E+03
        87  10 -9.452454E+05  2.872790E+05  2.165551E+05 -4.440970E+04 -3.275412E-09  5.908587E-10
        87  11 -8.767793E+05  3.249182E+05  1.916712E+05  6.388243E+03  3.464376E-09  7.617738E-10
        87  12 -8.671771E+05  1.308115E+05  7.973127E+04  7.257856E+03  2.152582E-09 -2.858934E-10
        87  13 -2.069275E+06  6.690634E+03 -6.097764E+04 -3.094225E+04 -5.031778E-11 -1.649849E-10
        87  14 -2.039414E+06  3.460605E+04 -9.500917E+04 -5.559228E+03  1.165583E-09  3.641366E-10
        87  15 -2.069467E+06 -1.703856E+05 -2.199129E+05 -3.011059E+04 -1.688754E-09  5.218023E-10
        87  16 -3.192152E+06 -2.739915E+05 -3.386041E+05 -1.749993E+04  2.599019E-09 -3.183525E-11
        87  17 -3.200815E+06 -2.558067E+05 -3.817897E+05 -1.748539E+04  4.922109E-10  1.892091E-09
        87  18 -3.270440E+06 -4.716872E+05 -5.196654E+05 -6.740810E+04 -3.256226E-10  1.197315E-10
        87  19 -9.452426E+05  2.872802E+05  2.165607E+05 -4.441054E+04 -5.060711E+04  2.077532E+04
        87  20 -8.767691E+05  3.249213E+05  1.916899E+05  6.386414E+03 -9.691921E+04  2.344277E+04
        87  21 -8.671550E+05  1.308171E+05  7.976994E+04  7.257007E+03 -1.431518E+05  7.362719E+03
        87  22 -2.069273E+06  6.691694E+03 -6.097266E+04 -3.094303E+04 -4.704960E+04  2.078526E+04
        87  23 -2.039403E+06  3.460926E+04 -9.498978E+04 -5.561092E+03 -9.867068E+04  2.344048E+04
        87  24 -2.069443E+06 -1.703795E+05 -2.198703E+05 -3.011148E+04 -1.502087E+05  7.336572E+03
        87  25 -3.192150E+06 -2.739905E+05 -3.385997E+05 -1.750066E+04 -4.349846E+04  2.079537E+04
        87  26 -3.200804E+06 -2.558034E+05 -3.817696E+05 -1.748729E+04 -1.004187E+05  2.343825E+04
        87  27 -3.270414E+06 -4.716805E+05 -5.196186E+05 -6.740903E+04 -1.572517E+05  7.311258E+03
        88   1  7.208480E+05  1.983716E+06  7.495905E+05 -2.642690E+05  1.510808E+04  1.181841E+05
        88   2  4.767355E+05  1.561176E+06  5.573043E+05  8.080173E+03  4.187676E+04  7.183383E+04
        88   3  4.030855E+05  1.191114E+06  4.385689E+05 -2.339883E+05  2.577608E+04  2.517215E+04
        88   4  1.186104E+05 -4.284106E+05  1.500715E+05 -2.308759E+05  1.520199E+04  1.040960E+05
        88   5 -2.527175E+04 -4.536854E+05  6.187265E+04  2.601000E+04  4.189890E+04  7.024975E+04
        88   6 -5.724142E+02 -4.286366E+05  3.874404E+04 -2.316153E+05  2.566756E+04  3.606147E+04
        88   7 -4.840609E+05 -2.835264E+06 -4.498822E+05 -1.976033E+05  1.529459E+04  9.006196E+04
        88   8 -5.275802E+05 -2.464857E+06 -4.338582E+05  4.388892E+04  4.192100E+04  6.867050E+04
        88   9 -4.044259E+05 -2.046004E+06 -3.612747E+05 -2.292420E+05  2.555897E+04  4.692235E+04
        88  10  7.208441E+05  1.983701E+06  7.495639E+05 -2.642704E+05  4.074474E-09  7.928025E-10
        88  11  4.767322E+05  1.561170E+06  5.572914E+05  8.077753E+03  5.211383E-09 -1.179979E-09
        88  12  4.030846E+05  1.191113E+06  4.385664E+05 -2.339888E+05 -2.186493E-09 -1.626943E-09
        88  13  1.186072E+05 -4.284223E+05  1.500507E+05 -2.308772E+05 -1.843360E-09  5.040820E-11
        88  14 -2.527496E+04 -4.536911E+05  6.186007E+04  2.600763E+04  3.600651E-09  2.137658E-10
        88  15 -5.734714E+02 -4.286382E+05  3.874036E+04 -2.316161E+05  3.804553E-09  1.003868E-10
        88  16 -4.840634E+05 -2.835272E+06 -4.498979E+05 -1.976044E+05 -2.184259E-10 -7.596630E-10
        88  17 -5.275834E+05 -2.464862E+06 -4.338704E+05  4.388660E+04  1.035101E-09  1.154342E-09
        88  18 -4.044272E+05 -2.046006E+06 -3.612801E+05 -2.292430E+05  2.771494E-09  1.620143E-09
        88  19  7.208480E+05  1.983716E+06  7.495905E+05 -2.642690E+05 -1.510808E+04 -1.181841E+05
        88  20  4.767355E+05  1.561176E+06  5.573043E+05  8.080173E+03 -4.187676E+04 -7.183383E+04
        88  21  4.030855E+05  1.191114E+06  4.385689E+05 -2.339883E+05 -2.577608E+04 -2.517215E+04
        88  22  1.186104E+05 -4.284106E+05  1.500715E+05 -2.308759E+05 -1.520199E+04 -1.040960E+05
        88  23 -2.527175E+04 -4.536854E+05  6.187265E+04  2.601000E+04 -4.189890E+04 -7.024975E+04
        88  24 -5.724142E+02 -4.286366E+05  3.874404E+04 -2.316153E+05 -2.566756E+04 -3.606147E+04
        88  25 -4.840609E+05 -2.835264E+06 -4.498822E+05 -1.976033E+05 -1.529459E+04 -9.006196E+04
        88  26 -5.275802E+05 -2.464857E+06 -4.338582E+05  4.388892E+04 -4.192100E+04 -6.867050E+04
        88  27 -4.044259E+05 -2.046004E+06 -3.612747E+05 -2.292420E+05 -2.555897E+04 -4.692235E+04
        89   1  1.338683E+05  1.459525E+04  1.412842E+05 -2.381267E+05  1.017841E+04  2.706808E+04
        89   2  1.220714E+04 -3.805648E+05  2.247870E+04  2.611732E+04  8.213487E+02  2.246412E+04
        89   3 -8.968014E+04 -7.839582E+05 -9.128150E+04 -2.301642E+05 -8.752288E+03  1.785880E+04
        89   4  2.026465E+04 -4.408919E+05  2.933420E+04 -2.325309E+05  1.014973E+04  2.973708E+04
        89   5 -1.829487E+03 -4.367097E+05  8.629114E+03  2.760049E+04  7.917989E+02  2.520160E+04
        89   6 -4.145254E+03 -4.409075E+05 -7.056258E+03 -2.327945E+05 -8.783033E+03  2.066188E+04
        89   7 -9.335437E+04 -8.961901E+05 -8.263103E+04 -2.269386E+05  1.012108E+04  3.240412E+04
        89   8 -1.586633E+04 -4.928518E+05 -5.220675E+03  2.908354E+04  7.622610E+02  2.793884E+04
        89   9  8.138091E+04 -9.774943E+04  7.716036E+04 -2.354259E+05 -8.813793E+03  2.346651E+04
        89  10  1.338680E+05  1.459444E+04  1.412826E+05 -2.381269E+05 -4.534297E-09  2.957540E-09
        89  11  1.220700E+04 -3.805653E+05  2.247775E+04  2.611730E+04  3.682821E-09 -4.696497E-10
        89  12 -8.968031E+04 -7.839586E+05 -9.128224E+04 -2.301641E+05 -5.013680E-10 -1.468666E-09
        89  13  2.026430E+04 -4.408929E+05  2.933234E+04 -2.325311E+05  3.796316E-09 -8.173572E-13
        89  14 -1.829658E+03 -4.367104E+05  8.627919E+03  2.760047E+04  3.760644E-09  1.317461E-10
        89  15 -4.145451E+03 -4.409080E+05 -7.057205E+03 -2.327944E+05  1.806668E-10 -1.144529E-11
        89  16 -9.335477E+04 -8.961913E+05 -8.263320E+04 -2.269389E+05  7.198882E-10 -2.994250E-09
        89  17 -1.586654E+04 -4.928526E+05 -5.222144E+03  2.908352E+04  2.101430E-10  4.353608E-10
        89  18  8.138068E+04 -9.775005E+04  7.715918E+04 -2.354257E+05 -4.787249E-09  1.458480E-09
        89  19  1.338683E+05  1.459525E+04  1.412842E+05 -2.381267E+05 -1.017841E+04 -2.706808E+04
        89  20  1.220714E+04 -3.805648E+05  2.247870E+04  2.611732E+04 -8.213487E+02 -2.246412E+04
        89  21 -8.968014E+04 -7.839582E+05 -9.128150E+04 -2.301642E+05  8.752288E+03 -1.785880E+04
        89  22  2.026465E+04 -4.408919E+05  2.933420E+04 -2.325309E+05 -1.014973E+04 -2.973708E+04
        89  23 -1.829487E+03 -4.367097E+05  8.629114E+03  2.760049E+04 -7.917989E+02 -2.520160E+04
        89  24 -4.145254E+03 -4.409075E+05 -7.056258E+03 -2.327945E+05  8.783033E+03 -2.066188E+04
        89  25 -9.335437E+04 -8.961901E+05 -8.263103E+04 -2.269386E+05 -1.012108E+04 -3.240412E+04
        89  26 -1.586633E+04 -4.928518E+05 -5.220675E+03  2.908354E+04 -7.622610E+02 -2.793884E+04
        89  27  8.138091E+04 -9.774943E+04  7.716036E+04 -2.354259E+05  8.813793E+03 -2.346651E+04
        90   1 -3.667061E+05 -1.949237E+06 -3.846555E+05 -2.145058E+05 -2.404146E+04  1.141422E+04
        90   2 -4.645882E+05 -2.335429E+06 -4.975926E+05  3.496157E+04 -4.055079E+04  3.891933E+04
        90   3 -6.291552E+05 -2.739981E+06 -6.449123E+05 -2.315205E+05 -1.553154E+04  6.675209E+04
        90   4  9.679317E+03 -4.433653E+05 -1.208658E+04 -2.314672E+05 -2.415000E+04  2.208270E+04
        90   5  9.814725E+03 -4.351143E+05 -2.926240E+04  2.623872E+04 -4.053266E+04  3.770956E+04
        90   6 -5.451688E+04 -4.432015E+05 -7.246914E+04 -2.319120E+05 -1.544170E+04  5.368177E+04
        90   7  3.858956E+05  1.064572E+06  3.603141E+05 -2.484642E+05 -2.425898E+04  3.277704E+04
        90   8  4.839484E+05  1.468495E+06  4.388008E+05  1.749581E+04 -4.051452E+04  3.649595E+04
        90   9  5.197239E+05  1.858378E+06  4.995780E+05 -2.322963E+05 -1.535202E+04  4.056265E+04
        90  10 -3.667068E+05 -1.949237E+06 -3.846569E+05 -2.145055E+05 -4.272414E-09  3.433575E-09
        90  11 -4.645904E+05 -2.335431E+06 -4.975985E+05  3.496284E+04 -2.970583E-09  8.042908E-10
        90  12 -6.291566E+05 -2.739986E+06 -6.449211E+05 -2.315196E+05 -1.597322E-10 -9.573404E-10
        90  13  9.678561E+03 -4.433659E+05 -1.208859E+04 -2.314668E+05 -6.449039E-09 -6.792796E-11
        90  14  9.812579E+03 -4.351163E+05 -2.926816E+04  2.623995E+04 -2.172713E-09  9.212987E-11
        90  15 -5.451791E+04 -4.432047E+05 -7.247501E+04 -2.319113E+05 -1.228048E-09  1.154572E-12
        90  16  3.858947E+05  1.064571E+06  3.603110E+05 -2.484636E+05 -2.512864E-09 -3.502996E-09
        90  17  4.839463E+05  1.468493E+06  4.387952E+05  1.749700E+04 -4.048583E-09 -5.977143E-10
        90  18  5.197232E+05  1.858376E+06  4.995745E+05 -2.322958E+05  7.445134E-10  1.031901E-09
        90  19 -3.667061E+05 -1.949237E+06 -3.846555E+05 -2.145058E+05  2.404146E+04 -1.141422E+04
        90  20 -4.645882E+05 -2.335429E+06 -4.975926E+05  3.496157E+04  4.055079E+04 -3.891933E+04
        90  21 -6.291552E+05 -2.739981E+06 -6.449123E+05 -2.315205E+05  1.553154E+04 -6.675209E+04
        90  22  9.679317E+03 -4.433653E+05 -1.208658E+04 -2.314672E+05  2.415000E+04 -2.208270E+04
        90  23  9.814725E+03 -4.351143E+05 -2.926240E+04  2.623872E+04  4.053266E+04 -3.770956E+04
        90  24 -5.451688E+04 -4.432015E+05 -7.246914E+04 -2.319120E+05  1.544170E+04 -5.368177E+04
        90  25  3.858956E+05  1.064572E+06  3.603141E+05 -2.484642E+05  2.425898E+04 -3.277704E+04
        90  26  4.839484E+05  1.468495E+06  4.388008E+05  1.749581E+04  4.051452E+04 -3.649595E+04
        90  27  5.197239E+05  1.858378E+06  4.995780E+05 -2.322963E+05  1.535202E+04 -4.056265E+04
        91   1 -6.927431E+06 -2.130681E+06 -1.419283E+06 -2.371645E+06 -7.598872E+05 -2.811353E+05
        91   2 -6.731089E+06 -1.047579E+06 -7.173749E+05 -2.588237E+06 -4.918637E+05 -1.632594E+05
        91   3 -7.018683E+06 -1.103251E+06 -5.365365E+05 -2.488061E+06 -2.181859E+05 -6.029452E+04
        91   4 -6.233041E+06 -1.687527E+06 -1.191669E+06 -2.001345E+06 -7.538311E+05 -2.791052E+05
        91   5 -5.929075E+06 -6.946754E+05 -4.894002E+05 -2.320340E+06 -4.902152E+05 -1.626829E+05
        91   6 -6.107641E+06 -8.388849E+05 -3.042170E+05 -2.322752E+06 -2.208964E+05 -6.128681E+04
        91   7 -5.538099E+06 -1.244008E+06 -9.640993E+05 -1.630579E+06 -7.477671E+05 -2.770675E+05
        91   8 -5.126428E+06 -3.416682E+05 -2.614879E+05 -2.052103E+06 -4.885639E+05 -1.621049E+05
        91   9 -5.195784E+06 -5.745370E+05 -7.195873E+04 -2.157259E+06 -2.236112E+05 -6.227984E+04
        91  10 -6.928079E+06 -2.130925E+06 -1.420532E+06 -2.371819E+06 -2.618704E-10  5.653536E-10
        91  11 -6.731359E+06 -1.047674E+06 -7.178860E+05 -2.588303E+06 -4.030971E-09  1.615586E-09
        91  12 -7.018735E+06 -1.103268E+06 -5.366340E+05 -2.488071E+06 -1.098104E-09 -2.818666E-10
        91  13 -6.233678E+06 -1.687766E+06 -1.192897E+06 -2.001515E+06 -8.150639E-10  3.239171E-10
        91  14 -5.929343E+06 -6.947695E+05 -4.899071E+05 -2.320404E+06  1.979995E-10  9.766478E-10
        91  15 -6.107695E+06 -8.389023E+05 -3.043169E+05 -2.322763E+06 -1.166927E-09  5.958489E-10
        91  16 -5.538725E+06 -1.244243E+06 -9.653060E+05 -1.630747E+06  2.412416E-09  4.020939E-10
        91  17 -5.126694E+06 -3.417615E+05 -2.619907E+05 -2.052167E+06  7.099464E-09  2.818876E-10
        91  18 -5.195839E+06 -5.745548E+05 -7.206097E+04 -2.157270E+06  1.336946E-09  8.054789E-10
        91  19 -6.927431E+06 -2.130681E+06 -1.419283E+06 -2.371645E+06  7.598872E+05  2.811353E+05
        91  20 -6.731089E+06 -1.047579E+06 -7.173749E+05 -2.588237E+06  4.918637E+05  1.632594E+05
        91  21 -7.018683E+06 -1.103251E+06 -5.365365E+05 -2.488061E+06  2.181859E+05  6.029452E+04
        91  22 -6.233041E+06 -1.687527E+06 -1.191669E+06 -2.001345E+06  7.538311E+05  2.791052E+05
        91  23 -5.929075E+06 -6.946754E+05 -4.894002E+05 -2.320340E+06  4.902152E+05  1.626829E+05
        91  24 -6.107641E+06 -8.388849E+05 -3.042170E+05 -2.322752E+06  2.208964E+05  6.128681E+04
        91  25 -5.538099E+06 -1.244008E+06 -9.640993E+05 -1.630579E+06  7.477671E+05  2.770675E+05
        91  26 -5.126428E+06 -3.416682E+05 -2.614879E+05 -2.052103E+06  4.885639E+05  1.621049E+05
        91  27 -5.195784E+06 -5.745370E+05 -7.195873E+04 -2.157259E+06  2.236112E+05  6.227984E+04
        92   1 -6.870256E+06 -1.312433E+06 -4.752638E+05 -2.500840E+06 -1.759706E+05 -4.674555E+04
        92   2 -6.823951E+06 -1.139858E+06 -3.316214E+05 -2.502561E+06 -1.149065E+05 -2.268966E+04
        92   3 -6.813411E+06 -1.149527E+06 -2.757418E+05 -2.497200E+06 -5.278298E+04 -1.433889E+03
        92   4 -6.060168E+06 -9.821700E+05 -2.495299E+05 -2.256972E+06 -1.754281E+05 -4.655024E+04
        92   5 -6.034103E+06 -8.346084E+05 -1.151921E+05 -2.281759E+06 -1.151602E+05 -2.278837E+04
        92   6 -6.043563E+06 -8.690058E+05 -6.789080E+04 -2.299482E+06 -5.383567E+04 -1.829994E+03
        92   7 -5.249442E+06 -6.518412E+05 -2.385832E+04 -2.012804E+06 -1.748848E+05 -4.635452E+04
        92   8 -5.243649E+06 -5.293162E+05  1.011799E+05 -2.060698E+06 -1.154142E+05 -2.288719E+04
        92   9 -5.273139E+06 -5.884614E+05  1.399079E+05 -2.101544E+06 -5.488978E+04 -2.226584E+03
        92  10 -6.870290E+06 -1.312444E+06 -4.753269E+05 -2.500847E+06 -2.172303E-09 -4.218757E-10
        92  11 -6.823966E+06 -1.139862E+06 -3.316475E+05 -2.502563E+06 -2.705199E-09 -3.580338E-10
        92  12 -6.813414E+06 -1.149527E+06 -2.757471E+05 -2.497200E+06  4.495362E-10  4.514552E-10
        92  13 -6.060202E+06 -9.821808E+05 -2.495925E+05 -2.256979E+06 -3.984890E-10 -3.694476E-11
        92  14 -6.034117E+06 -8.346126E+05 -1.152183E+05 -2.281761E+06  1.943823E-09  3.577588E-10
        92  15 -6.043566E+06 -8.690066E+05 -6.789631E+04 -2.299482E+06  1.166531E-09  1.280354E-10
        92  16 -5.249475E+06 -6.518519E+05 -2.392042E+04 -2.012810E+06  2.603113E-09  1.337957E-09
        92  17 -5.243663E+06 -5.293204E+05  1.011537E+05 -2.060701E+06  1.929085E-09 -2.082840E-10
        92  18 -5.273142E+06 -5.884622E+05  1.399022E+05 -2.101544E+06  1.025595E-09 -6.615819E-10
        92  19 -6.870256E+06 -1.312433E+06 -4.752638E+05 -2.500840E+06  1.759706E+05  4.674555E+04
        92  20 -6.823951E+06 -1.139858E+06 -3.316214E+05 -2.502561E+06  1.149065E+05  2.268966E+04
        92  21 -6.813411E+06 -1.149527E+06 -2.757418E+05 -2.497200E+06  5.278298E+04  1.433889E+03
        92  22 -6.060168E+06 -9.821700E+05 -2.495299E+05 -2.256972E+06  1.754281E+05  4.655024E+04
        92  23 -6.034103E+06 -8.346084E+05 -1.151921E+05 -2.281759E+06  1.151602E+05  2.278837E+04
        92  24 -6.043563E+06 -8.690058E+05 -6.789080E+04 -2.299482E+06  5.383567E+04  1.829994E+03
        92  25 -5.249442E+06 -6.518412E+05 -2.385832E+04 -2.012804E+06  1.748848E+05  4.635452E+04
        92  26 -5.243649E+06 -5.293162E+05  1.011799E+05 -2.060698E+06  1.154142E+05  2.288719E+04
        92  27 -5.273139E+06 -5.884614E+05  1.399079E+05 -2.101544E+06  5.488978E+04  2.226584E+03
        93   1 -6.653472E+06 -1.132585E+06 -2.239223E+05 -2.469614E+06 -4.283650E+04  6.054884E+02
        93   2 -6.609637E+06 -1.055379E+06 -1.778025E+05 -2.418421E+06 -2.792202E+04  3.768747E+03
        93   3 -6.512679E+06 -1.060387E+06 -1.476465E+05 -2.432831E+06 -1.263503E+04  5.928120E+03
        93   4 -6.030598E+06 -8.941753E+05 -5.381670E+04 -2.297801E+06 -4.337234E+04  4.030062E+02
        93   5 -6.056082E+06 -8.455271E+05 -2.692725E+04 -2.267825E+06 -2.875682E+04  3.455095E+03
        93   6 -6.028381E+06 -8.790161E+05 -1.574888E+04 -2.303451E+06 -1.377071E+04  5.502964E+03
        93   7 -5.407346E+06 -6.557409E+05  1.162535E+05 -2.125831E+06 -4.390876E+04  2.003019E+02
        93   8 -5.502230E+06 -6.356574E+05  1.239201E+05 -2.117107E+06 -2.959244E+04  3.141136E+03
        93   9 -5.543857E+06 -6.976331E+05  1.161273E+05 -2.173980E+06 -1.490737E+04  5.077450E+03
        93  10 -6.653474E+06 -1.132585E+06 -2.239258E+05 -2.469614E+06  4.295962E-09  9.152716E-11
        93  11 -6.609637E+06 -1.055379E+06 -1.778040E+05 -2.418420E+06  3.133546E-09  7.608124E-10
        93  12 -6.512679E+06 -1.060387E+06 -1.476469E+05 -2.432831E+06  1.041022E-09  8.825194E-10
        93  13 -6.030600E+06 -8.941758E+05 -5.382027E+04 -2.297801E+06 -5.185401E-10 -3.065530E-11
        93  14 -6.056082E+06 -8.455273E+05 -2.692884E+04 -2.267825E+06  3.590018E-09  3.495331E-10
        93  15 -6.028381E+06 -8.790162E+05 -1.574929E+04 -2.303451E+06 -8.848531E-10  2.042576E-10
        93  16 -5.407348E+06 -6.557414E+05  1.162499E+05 -2.125831E+06 -7.587598E-10  4.473906E-11
        93  17 -5.502231E+06 -6.356576E+05  1.239184E+05 -2.117107E+06  3.831025E-09 -2.442622E-10
        93  18 -5.543858E+06 -6.976331E+05  1.161268E+05 -2.173980E+06  7.937866E-10 -2.298451E-10
        93  19 -6.653472E+06 -1.132585E+06 -2.239223E+05 -2.469614E+06  4.283650E+04 -6.054884E+02
        93  20 -6.609637E+06 -1.055379E+06 -1.778025E+05 -2.418421E+06  2.792202E+04 -3.768747E+03
        93  21 -6.512679E+06 -1.060387E+06 -1.476465E+05 -2.432831E+06  1.263503E+04 -5.928120E+03
        93  22 -6.030598E+06 -8.941753E+05 -5.381670E+04 -2.297801E+06  4.337234E+04 -4.030062E+02
        93  23 -6.056082E+06 -8.455271E+05 -2.692725E+04 -2.267825E+06  2.875682E+04 -3.455095E+03
        93  24 -6.028381E+06 -8.790161E+05 -1.574888E+04 -2.303451E+06  1.377071E+04 -5.502964E+03
        93  25 -5.407346E+06 -6.557409E+05  1.162535E+05 -2.125831E+06  4.390876E+04 -2.003019E+02
        93  26 -5.502230E+06 -6.356574E+05  1.239201E+05 -2.117107E+06  2.959244E+04 -3.141136E+03
        93  27 -5.543857E+06 -6.976331E+05  1.161273E+05 -2.173980E+06  1.490737E+04 -5.077450E+03
        94   1 -6.291086E+06 -9.865570E+05 -8.511317E+04 -2.379397E+06 -9.689605E+03  4.722332E+03
        94   2 -6.238334E+06 -9.094289E+05 -5.537817E+04 -2.309133E+06 -4.533535E+03  2.811981E+03
        94   3 -6.107598E+06 -9.151254E+05 -2.941604E+04 -2.329850E+06  7.245647E+02  6.242931E+02
        94   4 -6.023698E+06 -8.853707E+05 -1.257217E+04 -2.306748E+06 -1.069861E+04  4.345118E+03
        94   5 -6.062563E+06 -8.430745E+05 -7.535045E+03 -2.261588E+06 -5.627482E+03  2.403381E+03
        94   6 -6.023437E+06 -8.835846E+05 -6.201466E+03 -2.307411E+06 -4.550055E+02  1.841351E+02
        94   7 -5.756241E+06 -7.841798E+05  5.996261E+04 -2.234071E+06 -1.170810E+04  3.967722E+03
        94   8 -5.886762E+06 -7.767185E+05  4.030524E+04 -2.214030E+06 -6.721771E+03  1.994652E+03
        94   9 -5.939270E+06 -8.520435E+05  1.701234E+04 -2.284969E+06 -1.634747E+03 -2.560858E+02
        94  10 -6.291086E+06 -9.865570E+05 -8.511338E+04 -2.379397E+06  3.063557E-09  1.011993E-09
        94  11 -6.238334E+06 -9.094289E+05 -5.537823E+04 -2.309133E+06  4.427117E-09  1.460411E-09
        94  12 -6.107598E+06 -9.151254E+05 -2.941604E+04 -2.329850E+06  1.623825E-09  1.580807E-09
        94  13 -6.023699E+06 -8.853707E+05 -1.257242E+04 -2.306748E+06  2.128958E-09  9.377110E-10
        94  14 -6.062563E+06 -8.430745E+05 -7.535115E+03 -2.261588E+06  6.563011E-09  1.533967E-09
        94  15 -6.023437E+06 -8.835846E+05 -6.201466E+03 -2.307411E+06  3.678717E-09  1.449694E-09
        94  16 -5.756241E+06 -7.841799E+05  5.996232E+04 -2.234071E+06 -1.381135E-09  9.308938E-10
        94  17 -5.886762E+06 -7.767185E+05  4.030514E+04 -2.214030E+06 -1.891359E-09 -1.847608E-09
        94  18 -5.939270E+06 -8.520435E+05  1.701234E+04 -2.284969E+06 -4.375827E-10  1.833460E-09
        94  19 -6.291086E+06 -9.865570E+05 -8.511317E+04 -2.379397E+06  9.689605E+03 -4.722332E+03
        94  20 -6.238334E+06 -9.094289E+05 -5.537817E+04 -2.309133E+06  4.533535E+03 -2.811981E+03
        94  21 -6.107598E+06 -9.151254E+05 -2.941604E+04 -2.329850E+06 -7.245647E+02 -6.242931E+02
        94  22 -6.023698E+06 -8.853707E+05 -1.257217E+04 -2.306748E+06  1.069861E+04 -4.345118E+03
        94  23 -6.062563E+06 -8.430745E+05 -7.535045E+03 -2.261588E+06  5.627482E+03 -2.403381E+03
        94  24 -6.023437E+06 -8.835846E+05 -6.201466E+03 -2.307411E+06  4.550055E+02 -1.841351E+02
        94  25 -5.756241E+06 -7.841798E+05  5.996261E+04 -2.234071E+06  1.170810E+04 -3.967722E+03
        94  26 -5.886762E+06 -7.767185E+05  4.030524E+04 -2.214030E+06  6.721771E+03 -1.994652E+03
        94  27 -5.939270E+06 -8.520435E+05  1.701234E+04 -2.284969E+06  1.634747E+03  2.560858E+02
        95   1 -5.866859E+06 -8.241981E+05  3.675721E+04 -2.264898E+06  2.590120E+03 -1.227582E+03
        95   2 -5.815535E+06 -7.504671E+05  5.917935E+04 -2.195444E+06  7.827007E+03 -3.393829E+03
        95   3 -5.687884E+06 -7.579703E+05  7.782610E+04 -2.214901E+06  1.292425E+04 -5.175733E+03
        95   4 -6.023808E+06 -8.831661E+05 -6.257936E+03 -2.306982E+06  1.401383E+03 -1.671225E+03
        95   5 -6.062103E+06 -8.435370E+05 -7.916831E+03 -2.262152E+06  6.756448E+03 -3.793904E+03
        95   6 -6.024100E+06 -8.851694E+05 -1.344583E+04 -2.306238E+06  1.197122E+04 -5.532371E+03
        95   7 -6.180735E+06 -9.421329E+05 -4.927543E+04 -2.349057E+06  2.129774E+02 -2.114746E+03
        95   8 -6.308613E+06 -9.366039E+05 -7.501879E+04 -2.328836E+06  5.686355E+03 -4.193805E+03
        95   9 -6.360209E+06 -1.012363E+06 -1.047285E+05 -2.397530E+06  1.101875E+04 -5.888796E+03
        95  10 -5.866859E+06 -8.241981E+05  3.675719E+04 -2.264898E+06  1.428428E-09  3.232036E-09
        95  11 -5.815535E+06 -7.504672E+05  5.917921E+04 -2.195444E+06  3.175803E-09  1.602233E-09
        95  12 -5.687884E+06 -7.579704E+05  7.782573E+04 -2.214901E+06  1.505501E-09  3.209346E-10
        95  13 -6.023808E+06 -8.831661E+05 -6.257945E+03 -2.306982E+06  2.483941E-09  1.632814E-09
        95  14 -6.062103E+06 -8.435371E+05 -7.916944E+03 -2.262152E+06  4.171128E-09  3.087045E-10
        95  15 -6.024100E+06 -8.851695E+05 -1.344616E+04 -2.306238E+06  1.362153E-10  2.536222E-10
        95  16 -6.180735E+06 -9.421329E+05 -4.927543E+04 -2.349057E+06  1.340789E-09 -6.907091E-10
        95  17 -6.308613E+06 -9.366039E+05 -7.501888E+04 -2.328835E+06  1.240726E-09  1.380091E-09
        95  18 -6.360209E+06 -1.012363E+06 -1.047288E+05 -2.397530E+06 -1.360612E-09  1.630577E-10
        95  19 -5.866859E+06 -8.241981E+05  3.675721E+04 -2.264898E+06 -2.590120E+03  1.227582E+03
        95  20 -5.815535E+06 -7.504671E+05  5.917935E+04 -2.195444E+06 -7.827007E+03  3.393829E+03
        95  21 -5.687884E+06 -7.579703E+05  7.782610E+04 -2.214901E+06 -1.292425E+04  5.175733E+03
        95  22 -6.023808E+06 -8.831661E+05 -6.257936E+03 -2.306982E+06 -1.401383E+03  1.671225E+03
        95  23 -6.062103E+06 -8.435370E+05 -7.916831E+03 -2.262152E+06 -6.756448E+03  3.793904E+03
        95  24 -6.024100E+06 -8.851694E+05 -1.344583E+04 -2.306238E+06 -1.197122E+04  5.532371E+03
        95  25 -6.180735E+06 -9.421329E+05 -4.927543E+04 -2.349057E+06 -2.129774E+02  2.114746E+03
        95  26 -6.308613E+06 -9.366039E+05 -7.501879E+04 -2.328836E+06 -5.686355E+03  4.193805E+03
        95  27 -6.360209E+06 -1.012363E+06 -1.047285E+05 -2.397530E+06 -1.101875E+04  5.888796E+03
        96   1 -5.486534E+06 -6.745217E+05  1.308548E+05 -2.157007E+06  1.626571E+04 -6.120882E+03
        96   2 -5.448011E+06 -6.166579E+05  1.362078E+05 -2.104208E+06  3.194277E+04 -3.606074E+03
        96   3 -5.361610E+06 -6.376694E+05  1.249045E+05 -2.111038E+06  4.722448E+04 -1.772491E+01
        96   4 -6.029536E+06 -8.779371E+05 -1.690869E+04 -2.302272E+06  1.517282E+04 -6.530479E+03
        96   5 -6.054635E+06 -8.466333E+05 -2.903010E+04 -2.269405E+06  3.117039E+04 -3.896770E+03
        96   6 -6.031931E+06 -8.942874E+05 -5.807666E+04 -2.296172E+06  4.677081E+04 -1.897580E+02
        96   7 -6.572250E+06 -1.081336E+06 -1.646980E+05 -2.447420E+06  1.408099E+04 -6.939687E+03
        96   8 -6.660900E+06 -1.076586E+06 -1.943009E+05 -2.434455E+06  3.039885E+04 -4.187154E+03
        96   9 -6.701815E+06 -1.150876E+06 -2.410987E+05 -2.481123E+06  4.631766E+04 -3.615915E+02
        96  10 -5.486534E+06 -6.745218E+05  1.308542E+05 -2.157007E+06  1.818788E-09  1.111666E-09
        96  11 -5.448012E+06 -6.166582E+05  1.362058E+05 -2.104208E+06  1.766207E-09  1.810436E-11
        96  12 -5.361613E+06 -6.376700E+05  1.249003E+05 -2.111038E+06 -7.769948E-10  8.309896E-10
        96  13 -6.029536E+06 -8.779372E+05 -1.690920E+04 -2.302271E+06 -1.037651E-10  1.495456E-10
        96  14 -6.054636E+06 -8.466336E+05 -2.903197E+04 -2.269405E+06 -1.614283E-09  1.188173E-09
        96  15 -6.031933E+06 -8.942880E+05 -5.808081E+04 -2.296172E+06  1.664413E-09 -4.691521E-10
        96  16 -6.572250E+06 -1.081336E+06 -1.646985E+05 -2.447420E+06 -4.551200E-09  1.628719E-09
        96  17 -6.660901E+06 -1.076587E+06 -1.943027E+05 -2.434455E+06 -3.914113E-09 -3.261103E-10
        96  18 -6.701818E+06 -1.150877E+06 -2.411027E+05 -2.481123E+06 -1.560122E-09  2.333822E-10
        96  19 -5.486534E+06 -6.745217E+05  1.308548E+05 -2.157007E+06 -1.626571E+04  6.120882E+03
        96  20 -5.448011E+06 -6.166579E+05  1.362078E+05 -2.104208E+06 -3.194277E+04  3.606074E+03
        96  21 -5.361610E+06 -6.376694E+05  1.249045E+05 -2.111038E+06 -4.722448E+04  1.772491E+01
        96  22 -6.029536E+06 -8.779371E+05 -1.690869E+04 -2.302272E+06 -1.517282E+04  6.530479E+03
        96  23 -6.054635E+06 -8.466333E+05 -2.903010E+04 -2.269405E+06 -3.117039E+04  3.896770E+03
        96  24 -6.031931E+06 -8.942874E+05 -5.807666E+04 -2.296172E+06 -4.677081E+04  1.897580E+02
        96  25 -6.572250E+06 -1.081336E+06 -1.646980E+05 -2.447420E+06 -1.408099E+04  6.939687E+03
        96  26 -6.660900E+06 -1.076586E+06 -1.943009E+05 -2.434455E+06 -3.039885E+04  4.187154E+03
        96  27 -6.701815E+06 -1.150876E+06 -2.410987E+05 -2.481123E+06 -4.631766E+04  3.615915E+02
        97   1 -5.244896E+06 -5.759128E+05  1.426411E+05 -2.092665E+06  5.892248E+04  2.879286E+03
        97   2 -5.218806E+06 -5.203997E+05  9.807600E+04 -2.056512E+06  1.241713E+05  2.567286E+04
        97   3 -5.239944E+06 -6.520485E+05 -3.975629E+04 -2.002470E+06  1.883709E+05  5.125780E+04
        97   4 -6.045794E+06 -8.672997E+05 -7.329242E+04 -2.298198E+06  5.795624E+04  2.515359E+03
        97   5 -6.031037E+06 -8.346209E+05 -1.243597E+05 -2.284189E+06  1.239921E+05  2.560183E+04
        97   6 -6.063754E+06 -9.894048E+05 -2.694193E+05 -2.252275E+06  1.889766E+05  5.147601E+04
        97   7 -6.846073E+06 -1.158662E+06 -2.892832E+05 -2.503495E+06  5.699135E+04  2.151888E+03
        97   8 -6.842628E+06 -1.148797E+06 -3.468562E+05 -2.511593E+06  1.238130E+05  2.553085E+04
        97   9 -6.886904E+06 -1.326690E+06 -4.991463E+05 -2.501767E+06  1.895812E+05  5.169374E+04
        97  10 -5.244900E+06 -5.759137E+05  1.426345E+05 -2.092665E+06 -1.504059E-09 -7.301470E-10
        97  11 -5.218823E+06 -5.204046E+05  9.804550E+04 -2.056514E+06  1.226560E-09 -2.285801E-09
        97  12 -5.239983E+06 -6.520609E+05 -3.982860E+04 -2.002478E+06  1.684305E-09 -9.307451E-10
        97  13 -6.045798E+06 -8.673006E+05 -7.329881E+04 -2.298198E+06 -3.503647E-10 -8.766350E-10
        97  14 -6.031054E+06 -8.346258E+05 -1.243902E+05 -2.284192E+06 -7.500482E-10 -1.563205E-09
        97  15 -6.063794E+06 -9.894174E+05 -2.694921E+05 -2.252283E+06 -2.941967E-09 -1.206976E-09
        97  16 -6.846077E+06 -1.158663E+06 -2.892894E+05 -2.503495E+06  4.100915E-10 -1.452490E-09
        97  17 -6.842645E+06 -1.148801E+06 -3.468866E+05 -2.511596E+06 -1.592714E-09 -2.826754E-09
        97  18 -6.886943E+06 -1.326703E+06 -4.992198E+05 -2.501775E+06 -3.661308E-09 -2.743631E-09
        97  19 -5.244896E+06 -5.759128E+05  1.426411E+05 -2.092665E+06 -5.892248E+04 -2.879286E+03
        97  20 -5.218806E+06 -5.203997E+05  9.807600E+04 -2.056512E+06 -1.241713E+05 -2.567286E+04
        97  21 -5.239944E+06 -6.520485E+05 -3.975629E+04 -2.002470E+06 -1.883709E+05 -5.125780E+04
        97  22 -6.045794E+06 -8.672997E+05 -7.329242E+04 -2.298198E+06 -5.795624E+04 -2.515359E+03
        97  23 -6.031037E+06 -8.346209E+05 -1.243597E+05 -2.284189E+06 -1.239921E+05 -2.560183E+04
        97  24 -6.063754E+06 -9.894048E+05 -2.694193E+05 -2.252275E+06 -1.889766E+05 -5.147601E+04
        97  25 -6.846073E+06 -1.158662E+06 -2.892832E+05 -2.503495E+06 -5.699135E+04 -2.151888E+03
        97  26 -6.842628E+06 -1.148797E+06 -3.468562E+05 -2.511593E+06 -1.238130E+05 -2.553085E+04
        97  27 -6.886904E+06 -1.326690E+06 -4.991463E+05 -2.501767E+06 -1.895812E+05 -5.169374E+04
        98   1 -5.203826E+06 -5.780363E+05 -9.787971E+04 -2.165455E+06  2.404304E+05  6.877810E+04
        98   2 -5.132551E+06 -3.319955E+05 -3.042135E+05 -2.057177E+06  5.268418E+05  1.772858E+05
        98   3 -5.587280E+06 -1.305760E+06 -1.065042E+06 -1.600442E+06  8.076885E+05  3.004390E+05
        98   4 -6.114309E+06 -8.354663E+05 -3.284804E+05 -2.324178E+06  2.378939E+05  6.785731E+04
        98   5 -5.918374E+06 -6.826536E+05 -5.283552E+05 -2.324854E+06  5.284937E+05  1.778572E+05
        98   6 -6.249951E+06 -1.751524E+06 -1.286613E+06 -1.976842E+06  8.135879E+05  3.023719E+05
        98   7 -7.023975E+06 -1.092917E+06 -5.591406E+05 -2.482729E+06  2.353613E+05  6.693713E+04
        98   8 -6.703588E+06 -1.033204E+06 -7.525568E+05 -2.592198E+06  5.301429E+05  1.784271E+05
        98   9 -6.912100E+06 -2.196894E+06 -1.508221E+06 -2.352782E+06  8.194800E+05  3.042971E+05
        98  10 -5.203890E+06 -5.780571E+05 -9.799838E+04 -2.165469E+06 -1.016600E-09 -6.243745E-10
        98  11 -5.132860E+06 -3.321050E+05 -3.047998E+05 -2.057252E+06 -4.912474E-09  1.159788E-11
        98  12 -5.588010E+06 -1.306035E+06 -1.066451E+06 -1.600638E+06 -1.429096E-09  1.358396E-09
        98  13 -6.114371E+06 -8.354867E+05 -3.285967E+05 -2.324191E+06 -2.417381E-09  1.290522E-10
        98  14 -5.918685E+06 -6.827640E+05 -5.289461E+05 -2.324930E+06  1.209728E-10 -1.363852E-09
        98  15 -6.250693E+06 -1.751804E+06 -1.288045E+06 -1.977041E+06  4.212751E-09  1.831788E-09
        98  16 -7.024036E+06 -1.092937E+06 -5.592545E+05 -2.482741E+06 -8.704265E-12  2.418605E-10
        98  17 -6.703901E+06 -1.033316E+06 -7.531522E+05 -2.592275E+06 -2.929211E-09  1.266211E-09
        98  18 -6.912854E+06 -2.197178E+06 -1.509676E+06 -2.352985E+06  5.717369E-10  1.366541E-09
        98  19 -5.203826E+06 -5.780363E+05 -9.787971E+04 -2.165455E+06 -2.404304E+05 -6.877810E+04
        98  20 -5.132551E+06 -3.319955E+05 -3.042135E+05 -2.057177E+06 -5.268418E+05 -1.772858E+05
        98  21 -5.587280E+06 -1.305760E+06 -1.065042E+06 -1.600442E+06 -8.076885E+05 -3.004390E+05
        98  22 -6.114309E+06 -8.354663E+05 -3.284804E+05 -2.324178E+06 -2.378939E+05 -6.785731E+04
        98  23 -5.918374E+06 -6.826536E+05 -5.283552E+05 -2.324854E+06 -5.284937E+05 -1.778572E+05
        98  24 -6.249951E+06 -1.751524E+06 -1.286613E+06 -1.976842E+06 -8.135879E+05 -3.023719E+05
        98  25 -7.023975E+06 -1.092917E+06 -5.591406E+05 -2.482729E+06 -2.353613E+05 -6.693713E+04
        98  26 -6.703588E+06 -1.033204E+06 -7.525568E+05 -2.592198E+06 -5.301429E+05 -1.784271E+05
        98  27 -6.912100E+06 -2.196894E+06 -1.508221E+06 -2.352782E+06 -8.194800E+05 -3.042971E+05
        99   1 -2.241847E+06 -3.028216E+05 -3.057473E+05 -3.513049E+04 -2.026450E+04  7.598568E+03
        99   2 -2.200556E+06 -2.740942E+05 -2.820980E+05 -5.827228E+03 -1.059025E+04  2.265104E+04
        99   3 -2.161115E+06 -2.664922E+05 -2.691350E+05 -2.869403E+04 -8.351252E+02  1.992218E+04
        99   4 -1.092531E+06 -1.516853E+04 -1.929862E+04 -2.795780E+04 -1.341799E+04  7.631365E+03
        99   5 -1.092057E+06  2.723805E+03 -8.700103E+03 -1.912017E+03 -8.841635E+03  2.265505E+04
        99   6 -1.092533E+06  4.009819E+02 -5.227739E+03 -2.803072E+04 -4.185066E+03  1.991128E+04
        99   7  5.798719E+04  2.723851E+05  2.670509E+05 -2.077324E+04 -6.558757E+03  7.664292E+03
        99   8  1.756247E+04  2.794501E+05  2.646068E+05  2.009158E+03 -7.089880E+03  2.265909E+04
        99   9 -2.290873E+04  2.672088E+05  2.585948E+05 -2.736692E+04 -7.540777E+03  1.990037E+04
        99  10 -2.241848E+06 -3.028218E+05 -3.057482E+05 -3.513037E+04 -2.634247E-10  6.668742E-10
        99  11 -2.200556E+06 -2.740948E+05 -2.820992E+05 -5.827035E+03  6.977586E-09 -1.362673E-09
        99  12 -2.161115E+06 -2.664927E+05 -2.691357E+05 -2.869402E+04 -8.587157E-10 -6.197637E-10
        99  13 -1.092531E+06 -1.516864E+04 -1.929907E+04 -2.795772E+04  2.304880E-09 -1.506751E-09
        99  14 -1.092058E+06  2.723233E+03 -8.701214E+03 -1.911856E+03 -1.074244E-09 -5.436023E-10
        99  15 -1.092533E+06  4.005517E+02 -5.228517E+03 -2.803066E+04 -4.282171E-09 -8.325671E-10
        99  16  5.798713E+04  2.723850E+05  2.670507E+05 -2.077320E+04  1.239503E-09  1.914098E-09
        99  17  1.756228E+04  2.794495E+05  2.646058E+05  2.009287E+03 -1.922022E-09 -1.727765E-09
        99  18 -2.290890E+04  2.672084E+05  2.585939E+05 -2.736680E+04  1.349632E-09 -8.647762E-10
        99  19 -2.241847E+06 -3.028216E+05 -3.057473E+05 -3.513049E+04  2.026450E+04 -7.598568E+03
        99  20 -2.200556E+06 -2.740942E+05 -2.820980E+05 -5.827228E+03  1.059025E+04 -2.265104E+04
        99  21 -2.161115E+06 -2.664922E+05 -2.691350E+05 -2.869403E+04  8.351252E+02 -1.992218E+04
        99  22 -1.092531E+06 -1.516853E+04 -1.929862E+04 -2.795780E+04  1.341799E+04 -7.631365E+03
        99  23 -1.092057E+06  2.723805E+03 -8.700103E+03 -1.912017E+03  8.841635E+03 -2.265505E+04
        99  24 -1.092533E+06  4.009819E+02 -5.227739E+03 -2.803072E+04  4.185066E+03 -1.991128E+04
        99  25  5.798719E+04  2.723851E+05  2.670509E+05 -2.077324E+04  6.558757E+03 -7.664292E+03
        99  26  1.756247E+04  2.794501E+05  2.646068E+05  2.009158E+03  7.089880E+03 -2.265909E+04
        99  27 -2.290873E+04  2.672088E+05  2.585948E+05 -2.736692E+04  7.540777E+03 -1.990037E+04
       100   1 -2.027831E+06 -2.362072E+05 -2.357352E+05 -3.273051E+04 -3.807085E+03  1.632876E+04
       100   2 -1.978848E+06 -2.210293E+05 -2.210909E+05  8.721814E+02 -1.958868E+03  1.669808E+04
       100   3 -1.927967E+06 -2.087748E+05 -2.077994E+05 -3.072952E+04 -1.110997E+02  1.468331E+04
       100   4 -1.091790E+06 -2.387169E+03 -4.369951E+03 -3.090205E+04 -3.362923E+03  1.632807E+04
       100   5 -1.092804E+06  2.447284E+02 -2.322608E+03  1.695280E+03 -2.197925E+03  1.669630E+04
       100   6 -1.091799E+06  7.601065E+01 -1.150914E+03 -3.090609E+04 -1.033536E+03  1.468194E+04
       100   7 -1.549501E+05  2.313673E+05  2.269302E+05 -2.907120E+04 -2.918088E+03  1.632737E+04
       100   8 -2.060426E+05  2.214601E+05  2.163874E+05  2.519366E+03 -2.437322E+03  1.669452E+04
       100   9 -2.549931E+05  2.088745E+05  2.054456E+05 -3.108290E+04 -1.957215E+03  1.468057E+04
       100  10 -2.027831E+06 -2.362075E+05 -2.357358E+05 -3.273046E+04 -4.436199E-09 -8.364868E-10
       100  11 -1.978849E+06 -2.210296E+05 -2.210914E+05  8.722077E+02 -2.723140E-09  4.336509E-10
       100  12 -1.927967E+06 -2.087750E+05 -2.077998E+05 -3.072952E+04 -1.273108E-09 -7.960075E-10
       100  13 -1.091790E+06 -2.387458E+03 -4.370473E+03 -3.090201E+04 -2.071864E-09 -1.890205E-09
       100  14 -1.092804E+06  2.444279E+02 -2.323140E+03  1.695310E+03 -2.548101E-09  6.457744E-10
       100  15 -1.091799E+06  7.577901E+01 -1.151321E+03 -3.090607E+04 -2.955591E-09 -4.164216E-10
       100  16 -1.549502E+05  2.313670E+05  2.269297E+05 -2.907116E+04  1.177779E-09 -2.400009E-10
       100  17 -2.060427E+05  2.214598E+05  2.163869E+05  2.519399E+03  1.736919E-09  5.917740E-12
       100  18 -2.549932E+05  2.088743E+05  2.054452E+05 -3.108287E+04  3.541449E-10  5.256928E-10
       100  19 -2.027831E+06 -2.362072E+05 -2.357352E+05 -3.273051E+04  3.807085E+03 -1.632876E+04
       100  20 -1.978848E+06 -2.210293E+05 -2.210909E+05  8.721814E+02  1.958868E+03 -1.669808E+04
       100  21 -1.927967E+06 -2.087748E+05 -2.077994E+05 -3.072952E+04  1.110997E+02 -1.468331E+04
       100  22 -1.091790E+06 -2.387169E+03 -4.369951E+03 -3.090205E+04  3.362923E+03 -1.632807E+04
       100  23 -1.092804E+06  2.447284E+02 -2.322608E+03  1.695280E+03  2.197925E+03 -1.669630E+04
       100  24 -1.091799E+06  7.601065E+01 -1.150914E+03 -3.090609E+04  1.033536E+03 -1.468194E+04
       100  25 -1.549501E+05  2.313673E+05  2.269302E+05 -2.907120E+04  2.918088E+03 -1.632737E+04
       100  26 -2.060426E+05  2.214601E+05  2.163874E+05  2.519366E+03  2.437322E+03 -1.669452E+04
       100  27 -2.549931E+05  2.088745E+05  2.054456E+05 -3.108290E+04  1.957215E+03 -1.468057E+04
       101   1 -1.770442E+06 -1.698523E+05 -1.683807E+05 -3.294901E+04 -4.436577E+02  1.323935E+04
       101   2 -1.713683E+06 -1.551476E+05 -1.538969E+05  4.793920E+03 -7.850438E+01  1.155598E+04
       101   3 -1.655888E+06 -1.406953E+05 -1.394812E+05 -3.227599E+04  2.824217E+02  9.446497E+03
       101   4 -1.091936E+06 -4.467834E+02 -9.610837E+02 -3.304058E+04 -8.667869E+02  1.323857E+04
       101   5 -1.092468E+06 -2.969582E+01 -5.127603E+02  4.363763E+03 -6.238567E+02  1.155578E+04
       101   6 -1.091944E+06  1.573116E+02 -4.704638E+01 -3.304009E+04 -3.851867E+02  9.447058E+03
       101   7 -4.130107E+05  1.689243E+05  1.664244E+05 -3.313221E+04 -1.290379E+03  1.323780E+04
       101   8 -4.709006E+05  1.550593E+05  1.528427E+05  3.933259E+03 -1.169755E+03  1.155557E+04
       101   9 -5.277105E+05  1.409861E+05  1.393635E+05 -3.380476E+04 -1.053402E+03  9.447621E+03
       101  10 -1.770442E+06 -1.698525E+05 -1.683811E+05 -3.294900E+04  5.941828E-12 -5.801344E-11
       101  11 -1.713683E+06 -1.551477E+05 -1.538971E+05  4.793921E+03  2.252450E-09 -1.651150E-10
       101  12 -1.655888E+06 -1.406954E+05 -1.394814E+05 -3.227599E+04  4.894804E-10 -1.577705E-10
       101  13 -1.091936E+06 -4.469717E+02 -9.614143E+02 -3.304057E+04 -6.720277E-11 -1.160468E-10
       101  14 -1.092468E+06 -2.983924E+01 -5.130118E+02  4.363769E+03  2.448656E-09 -3.871341E-10
       101  15 -1.091944E+06  1.572158E+02 -4.721428E+01 -3.304009E+04  8.940455E-10  1.025617E-09
       101  16 -4.130107E+05  1.689241E+05  1.664241E+05 -3.313220E+04 -5.899010E-10 -7.027332E-11
       101  17 -4.709006E+05  1.550592E+05  1.528425E+05  3.933270E+03  1.859151E-09 -1.766492E-09
       101  18 -5.277106E+05  1.409860E+05  1.393633E+05 -3.380475E+04 -1.764535E-09 -2.211413E-10
       101  19 -1.770442E+06 -1.698523E+05 -1.683807E+05 -3.294901E+04  4.436577E+02 -1.323935E+04
       101  20 -1.713683E+06 -1.551476E+05 -1.538969E+05  4.793920E+03  7.850438E+01 -1.155598E+04
       101  21 -1.655888E+06 -1.406953E+05 -1.394812E+05 -3.227599E+04 -2.824217E+02 -9.446497E+03
       101  22 -1.091936E+06 -4.467834E+02 -9.610837E+02 -3.304058E+04  8.667869E+02 -1.323857E+04
       101  23 -1.092468E+06 -2.969582E+01 -5.127603E+02  4.363763E+03  6.238567E+02 -1.155578E+04
       101  24 -1.091944E+06  1.573116E+02 -4.704638E+01 -3.304009E+04  3.851867E+02 -9.447058E+03
       101  25 -4.130107E+05  1.689243E+05  1.664244E+05 -3.313221E+04  1.290379E+03 -1.323780E+04
       101  26 -4.709006E+05  1.550593E+05  1.528427E+05  3.933259E+03  1.169755E+03 -1.155557E+04
       101  27 -5.277105E+05  1.409861E+05  1.393635E+05 -3.380476E+04  1.053402E+03 -9.447621E+03
       102   1 -1.480792E+06 -9.701916E+04 -9.575808E+04 -3.382816E+04  1.923395E+02  8.163298E+03
       102   2 -1.418887E+06 -8.161708E+04 -8.034544E+04  6.585463E+03  5.839174E+01  6.063910E+03
       102   3 -1.356970E+06 -6.588972E+04 -6.478392E+04 -3.383667E+04 -7.808896E+01  3.850398E+03
       102   4 -1.092121E+06 -1.569200E+01  1.979098E+01 -3.437946E+04 -3.950421E+02  8.164119E+03
       102   5 -1.092132E+06 -3.887013E+01  3.219251E+02  6.037427E+03 -5.618862E+02  6.065112E+03
       102   6 -1.092126E+06  2.695482E+02  7.963219E+02 -3.437880E+04 -7.312496E+02  3.852020E+03
       102   7 -7.033135E+05  9.697650E+04  9.578649E+04 -3.493103E+04 -9.827916E+02  8.164940E+03
       102   8 -7.652791E+05  8.153136E+04  8.098137E+04  5.489156E+03 -1.182491E+03  6.066315E+03
       102   9 -8.272185E+05  6.642356E+04  6.637134E+04 -3.492111E+04 -1.384689E+03  3.853643E+03
       102  10 -1.480792E+06 -9.701923E+04 -9.575821E+04 -3.382817E+04  6.905071E-10  1.876056E-10
       102  11 -1.418887E+06 -8.161712E+04 -8.034551E+04  6.585462E+03  2.804616E-09 -3.412480E-11
       102  12 -1.356970E+06 -6.588973E+04 -6.478395E+04 -3.383667E+04  2.992017E-10 -8.872634E-10
       102  13 -1.092122E+06 -1.576357E+01  1.966549E+01 -3.437945E+04 -2.351411E-09 -7.573643E-10
       102  14 -1.092132E+06 -3.890969E+01  3.218554E+02  6.037429E+03  4.502841E-09 -4.535149E-11
       102  15 -1.092126E+06  2.695322E+02  7.962931E+02 -3.437879E+04 -2.874875E-10 -2.223937E-09
       102  16 -7.033135E+05  9.697643E+04  9.578636E+04 -3.493102E+04 -5.269061E-09  9.205252E-10
       102  17 -7.652792E+05  8.153132E+04  8.098130E+04  5.489161E+03 -6.629187E-10 -8.096114E-11
       102  18 -8.272185E+05  6.642354E+04  6.637131E+04 -3.492110E+04 -1.697655E-09 -2.922913E-09
       102  19 -1.480792E+06 -9.701916E+04 -9.575808E+04 -3.382816E+04 -1.923395E+02 -8.163298E+03
       102  20 -1.418887E+06 -8.161708E+04 -8.034544E+04  6.585463E+03 -5.839174E+01 -6.063910E+03
       102  21 -1.356970E+06 -6.588972E+04 -6.478392E+04 -3.383667E+04  7.808896E+01 -3.850398E+03
       102  22 -1.092121E+06 -1.569200E+01  1.979098E+01 -3.437946E+04  3.950421E+02 -8.164119E+03
       102  23 -1.092132E+06 -3.887013E+01  3.219251E+02  6.037427E+03  5.618862E+02 -6.065112E+03
       102  24 -1.092126E+06  2.695482E+02  7.963219E+02 -3.437880E+04  7.312496E+02 -3.852020E+03
       102  25 -7.033135E+05  9.697650E+04  9.578649E+04 -3.493103E+04  9.827916E+02 -8.164940E+03
       102  26 -7.652791E+05  8.153136E+04  8.098137E+04  5.489156E+03  1.182491E+03 -6.066315E+03
       102  27 -8.272185E+05  6.642356E+04  6.637134E+04 -3.492111E+04  1.384689E+03 -3.853643E+03
       103   1 -1.172417E+06 -1.986303E+04 -1.857248E+04 -3.465627E+04 -2.608198E+02  2.533800E+03
       103   2 -1.108733E+06 -4.282849E+03 -2.240265E+03  6.675772E+03 -1.210409E+03  3.097404E+02
       103   3 -1.045219E+06  1.235423E+04  1.485790E+04 -3.501208E+04 -2.160179E+03 -1.895867E+03
       103   4 -1.092148E+06  1.354664E+02  1.045344E+03 -3.486554E+04 -9.038857E+02  2.535547E+03
       103   5 -1.092060E+06 -1.209119E+02  1.875633E+03  6.645084E+03 -1.848212E+03  3.114836E+02
       103   6 -1.092148E+06  6.787692E+02  3.468297E+03 -3.486403E+04 -2.792623E+03 -1.894115E+03
       103   7 -1.011873E+06  2.013348E+04  2.066270E+04 -3.507483E+04 -1.547035E+03  2.537295E+03
       103   8 -1.075387E+06  4.041004E+03  5.991511E+03  6.614396E+03 -2.486033E+03  3.132269E+02
       103   9 -1.139074E+06 -1.099685E+04 -7.921468E+03 -3.471599E+04 -3.425020E+03 -1.892364E+03
       103  10 -1.172417E+06 -1.986303E+04 -1.857250E+04 -3.465627E+04 -7.215099E-10  1.346002E-09
       103  11 -1.108733E+06 -4.282849E+03 -2.240268E+03  6.675773E+03  6.269560E-10  4.587418E-09
       103  12 -1.045219E+06  1.235422E+04  1.485789E+04 -3.501209E+04  3.311632E-09 -1.536742E-09
       103  13 -1.092148E+06  1.354593E+02  1.045330E+03 -3.486554E+04  3.434872E-11 -5.447620E-10
       103  14 -1.092060E+06 -1.209129E+02  1.875626E+03  6.645085E+03  1.860754E-09 -1.820648E-09
       103  15 -1.092148E+06  6.787633E+02  3.468276E+03 -3.486404E+04 -1.162098E-09 -1.112919E-09
       103  16 -1.011873E+06  2.013347E+04  2.066269E+04 -3.507483E+04 -1.243186E-09 -4.899248E-10
       103  17 -1.075387E+06  4.041003E+03  5.991499E+03  6.614397E+03 -9.480408E-10  1.135289E-10
       103  18 -1.139074E+06 -1.099686E+04 -7.921497E+03 -3.471600E+04 -3.539864E-09  1.024086E-09
       103  19 -1.172417E+06 -1.986303E+04 -1.857248E+04 -3.465627E+04  2.608198E+02 -2.533800E+03
       103  20 -1.108733E+06 -4.282849E+03 -2.240265E+03  6.675772E+03  1.210409E+03 -3.097404E+02
       103  21 -1.045219E+06  1.235423E+04  1.485790E+04 -3.501208E+04  2.160179E+03  1.895867E+03
       103  22 -1.092148E+06  1.354664E+02  1.045344E+03 -3.486554E+04  9.038857E+02 -2.535547E+03
       103  23 -1.092060E+06 -1.209119E+02  1.875633E+03  6.645084E+03  1.848212E+03 -3.114836E+02
       103  24 -1.092148E+06  6.787692E+02  3.468297E+03 -3.486403E+04  2.792623E+03  1.894115E+03
       103  25 -1.011873E+06  2.013348E+04  2.066270E+04 -3.507483E+04  1.547035E+03 -2.537295E+03
       103  26 -1.075387E+06  4.041004E+03  5.991511E+03  6.614396E+03  2.486033E+03 -3.132269E+02
       103  27 -1.139074E+06 -1.099685E+04 -7.921468E+03 -3.471599E+04  3.425020E+03  1.892364E+03
       104   1 -8.597153E+05  5.800329E+04  6.195456E+04 -3.457970E+04 -2.830918E+03 -3.238910E+03
       104   2 -7.983127E+05  7.261594E+04  8.016139E+04  5.524670E+03 -6.756293E+03 -5.466520E+03
       104   3 -7.351759E+05  9.281912E+04  1.022842E+05 -3.561699E+04 -1.067940E+04 -7.403831E+03
       104   4 -1.091744E+06  5.657751E+01  4.494249E+03 -3.447415E+04 -3.515533E+03 -3.237138E+03
       104   5 -1.092598E+06 -8.281957E+02  7.541623E+03  6.154056E+03 -7.355767E+03 -5.465275E+03
       104   6 -1.091735E+06  3.864496E+03  1.444754E+04 -3.446613E+04 -1.119334E+04 -7.403046E+03
       104   7 -1.323724E+06 -5.789417E+04 -5.297008E+04 -3.436861E+04 -4.199891E+03 -3.235366E+03
       104   8 -1.386805E+06 -7.427881E+04 -6.508456E+04  6.783187E+03 -7.954956E+03 -5.464030E+03
       104   9 -1.448179E+06 -8.509960E+04 -7.339853E+04 -3.331586E+04 -1.170699E+04 -7.402262E+03
       104  10 -8.597153E+05  5.800328E+04  6.195453E+04 -3.457971E+04  1.038032E-09 -2.010396E-09
       104  11 -7.983128E+05  7.261590E+04  8.016125E+04  5.524641E+03  1.977524E-09  1.097983E-09
       104  12 -7.351761E+05  9.281903E+04  1.022839E+05 -3.561706E+04 -7.972028E-10  7.440814E-10
       104  13 -1.091744E+06  5.656294E+01  4.494206E+03 -3.447416E+04 -1.991683E-09 -9.512734E-10
       104  14 -1.092598E+06 -8.282423E+02  7.541465E+03  6.154023E+03 -5.560088E-09 -1.285937E-09
       104  15 -1.091736E+06  3.864404E+03  1.444720E+04 -3.446619E+04  3.498005E-09 -6.190325E-10
       104  16 -1.323724E+06 -5.789419E+04 -5.297013E+04 -3.436862E+04 -9.512808E-10  1.093188E-09
       104  17 -1.386805E+06 -7.427885E+04 -6.508474E+04  6.783152E+03 -1.645440E-09  3.604384E-09
       104  18 -1.448179E+06 -8.509970E+04 -7.339889E+04 -3.331593E+04  1.318455E-10  4.044433E-10
       104  19 -8.597153E+05  5.800329E+04  6.195456E+04 -3.457970E+04  2.830918E+03  3.238910E+03
       104  20 -7.983127E+05  7.261594E+04  8.016139E+04  5.524670E+03  6.756293E+03  5.466520E+03
       104  21 -7.351759E+05  9.281912E+04  1.022842E+05 -3.561699E+04  1.067940E+04  7.403831E+03
       104  22 -1.091744E+06  5.657751E+01  4.494249E+03 -3.447415E+04  3.515533E+03  3.237138E+03
       104  23 -1.092598E+06 -8.281957E+02  7.541623E+03  6.154056E+03  7.355767E+03  5.465275E+03
       104  24 -1.091735E+06  3.864496E+03  1.444754E+04 -3.446613E+04  1.119334E+04  7.403046E+03
       104  25 -1.323724E+06 -5.789417E+04 -5.297008E+04 -3.436861E+04  4.199891E+03  3.235366E+03
       104  26 -1.386805E+06 -7.427881E+04 -6.508456E+04  6.783187E+03  7.954956E+03  5.464030E+03
       104  27 -1.448179E+06 -8.509960E+04 -7.339853E+04 -3.331586E+04  1.170699E+04  7.402262E+03
       105   1 -5.559657E+05  1.321463E+05  1.500414E+05 -3.133132E+04 -1.322524E+04 -8.920091E+03
       105   2 -5.043856E+05  1.416237E+05  1.755345E+05  2.849744E+03 -2.924972E+04 -1.113987E+04
       105   3 -4.399829E+05  1.900982E+05  2.214127E+05 -3.857512E+04 -4.527059E+04 -1.146940E+04
       105   4 -1.089341E+06 -9.703751E+02  1.825931E+04 -3.322675E+04 -1.413541E+04 -8.918883E+03
       105   5 -1.095694E+06 -5.915921E+03  2.967656E+04  4.587687E+03 -2.960268E+04 -1.114020E+04
       105   6 -1.089311E+06  2.805931E+04  6.110610E+04 -3.320801E+04 -4.506486E+04 -1.147065E+04
       105   7 -1.622458E+06 -1.341083E+05 -1.135439E+05 -3.512042E+04 -1.504479E+04 -8.917669E+03
       105   8 -1.686683E+06 -1.534816E+05 -1.162073E+05  6.324061E+03 -2.995530E+04 -1.114053E+04
       105   9 -1.738255E+06 -1.340110E+05 -9.923172E+04 -2.784645E+04 -4.485933E+04 -1.147190E+04
       105  10 -5.559659E+05  1.321461E+05  1.500409E+05 -3.133142E+04 -2.150868E-09  7.388844E-10
       105  11 -5.043866E+05  1.416233E+05  1.755326E+05  2.849481E+03  2.003957E-10 -2.311825E-09
       105  12 -4.399851E+05  1.900975E+05  2.214086E+05 -3.857554E+04 -2.185669E-09  2.662661E-10
       105  13 -1.089341E+06 -9.705142E+02  1.825879E+04 -3.322685E+04  2.137070E-09  3.560087E-10
       105  14 -1.095695E+06 -5.916290E+03  2.967467E+04  4.587421E+03  2.551422E-09  9.583916E-10
       105  15 -1.089313E+06  2.805862E+04  6.110203E+04 -3.320842E+04  1.833643E-09  5.666370E-11
       105  16 -1.622458E+06 -1.341084E+05 -1.135445E+05 -3.512053E+04  3.139645E-09  1.084324E-10
       105  17 -1.686684E+06 -1.534820E+05 -1.162092E+05  6.323792E+03 -1.230147E-10  3.004094E-10
       105  18 -1.738257E+06 -1.340117E+05 -9.923576E+04 -2.784687E+04  1.921710E-10 -3.349058E-10
       105  19 -5.559657E+05  1.321463E+05  1.500414E+05 -3.133132E+04  1.322524E+04  8.920091E+03
       105  20 -5.043856E+05  1.416237E+05  1.755345E+05  2.849744E+03  2.924972E+04  1.113987E+04
       105  21 -4.399829E+05  1.900982E+05  2.214127E+05 -3.857512E+04  4.527059E+04  1.146940E+04
       105  22 -1.089341E+06 -9.703751E+02  1.825931E+04 -3.322675E+04  1.413541E+04  8.918883E+03
       105  23 -1.095694E+06 -5.915921E+03  2.967656E+04  4.587687E+03  2.960268E+04  1.114020E+04
       105  24 -1.089311E+06  2.805931E+04  6.110610E+04 -3.320801E+04  4.506486E+04  1.147065E+04
       105  25 -1.622458E+06 -1.341083E+05 -1.135439E+05 -3.512042E+04  1.504479E+04  8.917669E+03
       105  26 -1.686683E+06 -1.534816E+05 -1.162073E+05  6.324061E+03  2.995530E+04  1.114053E+04
       105  27 -1.738255E+06 -1.340110E+05 -9.923172E+04 -2.784645E+04  4.485933E+04  1.147190E+04
       106   1 -2.648574E+05  1.935290E+05  2.739105E+05 -1.244884E+04 -5.424448E+04 -1.477930E+04
       106   2 -2.547310E+05  1.718483E+05  3.263634E+05 -8.009838E+03 -1.208184E+05 -1.776119E+04
       106   3 -1.623402E+05  4.338659E+05  4.936377E+05 -7.021627E+04 -1.874166E+05 -6.393395E+03
       106   4 -1.074103E+06 -8.366820E+03  7.423613E+04 -3.113865E+04 -5.711703E+04 -1.477857E+04
       106   5 -1.114851E+06 -4.265632E+04  1.145052E+05  2.017844E+03 -1.194839E+05 -1.776371E+04
       106   6 -1.073961E+06  2.062275E+05  2.667835E+05 -3.147242E+04 -1.818690E+05 -6.396574E+03
       106   7 -1.882752E+06 -2.103102E+05 -1.254865E+05 -4.980403E+04 -5.998579E+04 -1.477767E+04
       106   8 -1.974297E+06 -2.572157E+05 -9.740757E+04  1.203146E+04 -1.181511E+05 -1.776620E+04
       106   9 -1.984824E+06 -2.146766E+04  3.986787E+04  7.214189E+03 -1.763294E+05 -6.399069E+03
       106  10 -2.648606E+05  1.935280E+05  2.739045E+05 -1.244948E+04  2.669917E-09  2.095420E-10
       106  11 -2.547467E+05  1.718440E+05  3.263353E+05 -8.011565E+03  5.251926E-10 -1.235604E-09
       106  12 -1.623780E+05  4.338564E+05  4.935716E+05 -7.021724E+04 -1.295160E-09 -9.190347E-10
       106  13 -1.074106E+06 -8.367932E+03  7.422957E+04 -3.113933E+04 -2.740897E-10 -1.422004E-10
       106  14 -1.114866E+06 -4.266050E+04  1.144777E+05  2.016134E+03  4.640861E-10  5.543742E-10
       106  15 -1.073997E+06  2.062186E+05  2.667211E+05 -3.147336E+04  1.081661E-09 -3.111206E-10
       106  16 -1.882755E+06 -2.103114E+05 -1.254937E+05 -4.980475E+04  3.358424E-10 -3.160123E-10
       106  17 -1.974312E+06 -2.572198E+05 -9.743447E+04  1.202977E+04 -1.113742E-09 -1.534542E-10
       106  18 -1.984857E+06 -2.147608E+04  3.980918E+04  7.213280E+03  9.404562E-10 -1.092886E-09
       106  19 -2.648574E+05  1.935290E+05  2.739105E+05 -1.244884E+04  5.424448E+04  1.477930E+04
       106  20 -2.547310E+05  1.718483E+05  3.263634E+05 -8.009838E+03  1.208184E+05  1.776119E+04
       106  21 -1.623402E+05  4.338659E+05  4.936377E+05 -7.021627E+04  1.874166E+05  6.393395E+03
       106  22 -1.074103E+06 -8.366820E+03  7.423613E+04 -3.113865E+04  5.711703E+04  1.477857E+04
       106  23 -1.114851E+06 -4.265632E+04  1.145052E+05  2.017844E+03  1.194839E+05  1.776371E+04
       106  24 -1.073961E+06  2.062275E+05  2.667835E+05 -3.147242E+04  1.818690E+05  6.396574E+03
       106  25 -1.882752E+06 -2.103102E+05 -1.254865E+05 -4.980403E+04  5.998579E+04  1.477767E+04
       106  26 -1.974297E+06 -2.572157E+05 -9.740757E+04  1.203146E+04  1.181511E+05  1.776620E+04
       106  27 -1.984824E+06 -2.146766E+04  3.986787E+04  7.214189E+03  1.763294E+05  6.399069E+03
       107   1  2.521783E+05  2.557181E+05  2.678984E+05 -1.812764E+05 -8.131412E+01  1.743129E+05
       107   2  8.567356E+04  2.129836E+05  1.385249E+05 -1.038415E+05  2.051646E+03  1.057581E+05
       107   3  2.906335E+04  2.065970E+05  8.125479E+04 -3.058648E+04  2.074605E+03  3.719464E+04
       107   4  2.278069E+05  1.654802E+05  2.461490E+05 -3.027569E+04 -8.061063E+00  1.685564E+05
       107   5  6.904535E+04  1.476914E+05  1.255450E+05 -2.874872E+04  2.072095E+03  1.043316E+05
       107   6  1.941310E+04  1.654929E+05  7.404159E+04 -3.139545E+04  2.058901E+03  4.009518E+04
       107   7  2.035203E+05  7.529859E+04  2.244113E+05  1.207028E+05  6.240008E+01  1.628006E+05
       107   8  5.243801E+04  8.241527E+04  1.125679E+05  4.633592E+04  2.092200E+03  1.029053E+05
       107   9  9.762760E+03  1.243906E+05  6.682836E+04 -3.220437E+04  2.043189E+03  4.299554E+04
       107  10  2.521702E+05  2.556854E+05  2.678413E+05 -1.812764E+05  1.241978E-09  3.813160E-09
       107  11  8.567056E+04  2.129716E+05  1.385039E+05 -1.038416E+05  3.163682E-09  1.610874E-09
       107  12  2.906297E+04  2.065955E+05  8.125219E+04 -3.058654E+04  1.200432E-10 -9.723549E-10
       107  13  2.277993E+05  1.654497E+05  2.460956E+05 -3.027569E+04 -2.339927E-09 -2.931237E-09
       107  14  6.904243E+04  1.476797E+05  1.255245E+05 -2.874889E+04 -2.031057E-09 -2.639193E-10
       107  15  1.941266E+04  1.654912E+05  7.403856E+04 -3.139552E+04  3.001571E-09 -3.599593E-09
       107  16  2.035132E+05  7.527013E+04  2.243615E+05  1.207028E+05  7.497108E-10 -4.031086E-09
       107  17  5.243516E+04  8.240390E+04  1.125480E+05  4.633574E+04  4.876576E-09 -3.771717E-09
       107  18  9.762259E+03  1.243886E+05  6.682488E+04 -3.220444E+04  2.411062E-09  8.305208E-10
       107  19  2.521783E+05  2.557181E+05  2.678984E+05 -1.812764E+05  8.131412E+01 -1.743129E+05
       107  20  8.567356E+04  2.129836E+05  1.385249E+05 -1.038415E+05 -2.051646E+03 -1.057581E+05
       107  21  2.906335E+04  2.065970E+05  8.125479E+04 -3.058648E+04 -2.074605E+03 -3.719464E+04
       107  22  2.278069E+05  1.654802E+05  2.461490E+05 -3.027569E+04  8.061063E+00 -1.685564E+05
       107  23  6.904535E+04  1.476914E+05  1.255450E+05 -2.874872E+04 -2.072095E+03 -1.043316E+05
       107  24  1.941310E+04  1.654929E+05  7.404159E+04 -3.139545E+04 -2.058901E+03 -4.009518E+04
       107  25  2.035203E+05  7.529859E+04  2.244113E+05  1.207028E+05 -6.240008E+01 -1.628006E+05
       107  26  5.243801E+04  8.241527E+04  1.125679E+05  4.633592E+04 -2.092200E+03 -1.029053E+05
       107  27  9.762760E+03  1.243906E+05  6.682836E+04 -3.220437E+04 -2.043189E+03 -4.299554E+04
       108   1  2.207905E+04  1.839551E+05  6.484715E+04 -4.029780E+04  1.224559E+03  2.705772E+04
       108   2  6.971029E+03  1.554064E+05  4.648451E+04 -2.992318E+04 -4.531383E+01  3.774592E+03
       108   3  6.226931E+03  1.334176E+05  4.685313E+04 -2.420431E+04 -1.314154E+03 -1.950755E+04
       108   4  1.610080E+04  1.590403E+05  6.043887E+04 -3.140768E+04  1.209374E+03  2.994072E+04
       108   5  7.041588E+03  1.557605E+05  4.653733E+04 -2.909008E+04 -6.086014E+01  6.654684E+03
       108   6  1.234672E+04  1.590405E+05  5.136947E+04 -3.142790E+04 -1.329462E+03 -1.663124E+04
       108   7  1.012282E+04  1.341263E+05  5.603063E+04 -2.251793E+04  1.194271E+03  3.282360E+04
       108   8  7.112153E+03  1.561146E+05  4.659017E+04 -2.825698E+04 -7.639871E+01  9.534778E+03
       108   9  1.846666E+04  1.846641E+05  5.588584E+04 -3.865180E+04 -1.344836E+03 -1.375482E+04
       108  10  2.207885E+04  1.839544E+05  6.484577E+04 -4.029783E+04 -1.728679E-09  2.668573E-09
       108  11  6.971025E+03  1.554064E+05  4.648448E+04 -2.992318E+04  2.750612E-09 -3.012170E-10
       108  12  6.226827E+03  1.334172E+05  4.685241E+04 -2.420433E+04  1.890270E-09 -2.374588E-09
       108  13  1.610056E+04  1.590393E+05  6.043718E+04 -3.140771E+04  2.781058E-10 -3.020345E-09
       108  14  7.041576E+03  1.557604E+05  4.653724E+04 -2.909008E+04  7.739115E-10 -1.333180E-11
       108  15  1.234664E+04  1.590402E+05  5.136894E+04 -3.142792E+04  1.982030E-09 -3.275359E-09
       108  16  1.012253E+04  1.341251E+05  5.602861E+04 -2.251796E+04  1.155242E-09 -2.774594E-09
       108  17  7.112129E+03  1.561145E+05  4.659000E+04 -2.825698E+04 -3.041153E-10 -1.079270E-09
       108  18  1.846661E+04  1.846639E+05  5.588548E+04 -3.865182E+04  2.155571E-09  2.976887E-09
       108  19  2.207905E+04  1.839551E+05  6.484715E+04 -4.029780E+04 -1.224559E+03 -2.705772E+04
       108  20  6.971029E+03  1.554064E+05  4.648451E+04 -2.992318E+04  4.531383E+01 -3.774592E+03
       108  21  6.226931E+03  1.334176E+05  4.685313E+04 -2.420431E+04  1.314154E+03  1.950755E+04
       108  22  1.610080E+04  1.590403E+05  6.043887E+04 -3.140768E+04 -1.209374E+03 -2.994072E+04
       108  23  7.041588E+03  1.557605E+05  4.653733E+04 -2.909008E+04  6.086014E+01 -6.654684E+03
       108  24  1.234672E+04  1.590405E+05  5.136947E+04 -3.142790E+04  1.329462E+03  1.663124E+04
       108  25  1.012282E+04  1.341263E+05  5.603063E+04 -2.251793E+04 -1.194271E+03 -3.282360E+04
       108  26  7.112153E+03  1.561146E+05  4.659017E+04 -2.825698E+04  7.639871E+01 -9.534778E+03
       108  27  1.846666E+04  1.846641E+05  5.588584E+04 -3.865180E+04  1.344836E+03  1.375482E+04
       109   1  4.934495E+03  1.216955E+05  5.233387E+04 -3.175632E+04 -2.170892E+03 -2.802199E+04
       109   2  3.466831E+04  8.402840E+04  8.211290E+04  2.708673E+04 -2.286982E+03 -7.235243E+04
       109   3  1.447641E+05  7.217372E+04  1.608359E+05  8.165575E+04 -3.024018E+02 -1.166691E+05
       109   4  1.475022E+04  1.634849E+05  5.965738E+04 -3.140941E+04 -2.186526E+03 -2.512762E+04
       109   5  5.123698E+04  1.502019E+05  9.521472E+04 -2.885874E+04 -2.272594E+03 -7.381496E+04
       109   6  1.688247E+05  1.634755E+05  1.827363E+05 -3.058157E+04 -2.500609E+02 -1.224905E+05
       109   7  2.456585E+04  2.052761E+05  6.698087E+04 -3.106247E+04 -2.202157E+03 -2.223305E+04
       109   8  6.781708E+04  2.163862E+05  1.083180E+05 -8.481032E+04 -2.257943E+03 -7.527764E+04
       109   9  1.929319E+05  2.548118E+05  2.046430E+05 -1.428356E+05 -1.956205E+02 -1.283127E+05
       109  10  4.934279E+03  1.216947E+05  5.233238E+04 -3.175637E+04 -1.857231E-09  4.000785E-09
       109  11  3.466690E+04  8.402278E+04  8.210305E+04  2.708660E+04  2.927995E-09  6.034080E-10
       109  12  1.447605E+05  7.215911E+04  1.608104E+05  8.165572E+04  2.624458E-09 -2.860858E-09
       109  13  1.475004E+04  1.634843E+05  5.965619E+04 -3.140945E+04 -2.373155E-09 -2.712297E-09
       109  14  5.123551E+04  1.501960E+05  9.520448E+04 -2.885887E+04  1.845795E-09 -7.314275E-11
       109  15  1.688207E+05  1.634594E+05  1.827081E+05 -3.058159E+04  7.083940E-11 -3.194067E-09
       109  16  2.456571E+04  2.052755E+05  6.697993E+04 -3.106251E+04  1.946770E-09 -4.270574E-09
       109  17  6.781556E+04  2.163802E+05  1.083073E+05 -8.481045E+04  1.674944E-09 -2.680063E-09
       109  18  1.929275E+05  2.547942E+05  2.046120E+05 -1.428356E+05  3.747409E-10  2.894971E-09
       109  19  4.934495E+03  1.216955E+05  5.233387E+04 -3.175632E+04  2.170892E+03  2.802199E+04
       109  20  3.466831E+04  8.402840E+04  8.211290E+04  2.708673E+04  2.286982E+03  7.235243E+04
       109  21  1.447641E+05  7.217372E+04  1.608359E+05  8.165575E+04  3.024018E+02  1.166691E+05
       109  22  1.475022E+04  1.634849E+05  5.965738E+04 -3.140941E+04  2.186526E+03  2.512762E+04
       109  23  5.123698E+04  1.502019E+05  9.521472E+04 -2.885874E+04  2.272594E+03  7.381496E+04
       109  24  1.688247E+05  1.634755E+05  1.827363E+05 -3.058157E+04  2.500609E+02  1.224905E+05
       109  25  2.456585E+04  2.052761E+05  6.698087E+04 -3.106247E+04  2.202157E+03  2.223305E+04
       109  26  6.781708E+04  2.163862E+05  1.083180E+05 -8.481032E+04  2.257943E+03  7.527764E+04
       109  27  1.929319E+05  2.548118E+05  2.046430E+05 -1.428356E+05  1.956205E+02  1.283127E+05
       110   1 -6.314901E+06 -1.945302E+06 -1.305902E+06 -2.146236E+06 -6.911038E+05 -2.554375E+05
       110   2 -6.147934E+06 -9.781372E+05 -6.737406E+05 -2.358461E+06 -4.479571E+05 -1.467857E+05
       110   3 -6.437785E+06 -1.027348E+06 -5.147974E+05 -2.263017E+06 -1.994295E+05 -5.234201E+04
       110   4 -5.622838E+06 -1.518978E+06 -1.082277E+06 -1.792696E+06 -6.850720E+05 -2.533663E+05
       110   5 -5.338169E+06 -6.264587E+05 -4.446007E+05 -2.092530E+06 -4.461354E+05 -1.461346E+05
       110   6 -5.509011E+06 -7.487062E+05 -2.763668E+05 -2.084865E+06 -2.017694E+05 -5.320142E+04
       110   7 -4.930245E+06 -1.092336E+06 -8.586972E+05 -1.438721E+06 -6.790323E+05 -2.512880E+05
       110   8 -4.527762E+06 -2.746830E+05 -2.155248E+05 -1.826263E+06 -4.443108E+05 -1.454819E+05
       110   9 -4.579394E+06 -4.700796E+05 -3.800217E+04 -1.906506E+06 -2.041130E+05 -5.406154E+04
       110  10 -6.315436E+06 -1.945503E+06 -1.306934E+06 -2.146380E+06 -3.311455E-10 -4.060844E-10
       110  11 -6.148158E+06 -9.782152E+05 -6.741630E+05 -2.358514E+06 -1.319309E-09  1.930702E-09
       110  12 -6.437829E+06 -1.027362E+06 -5.148782E+05 -2.263025E+06  1.944889E-09 -2.670279E-09
       110  13 -5.623364E+06 -1.519175E+06 -1.083290E+06 -1.792837E+06  3.116835E-09 -7.473202E-10
       110  14 -5.338390E+06 -6.265359E+05 -4.450191E+05 -2.092583E+06  4.578601E-09 -1.090553E-09
       110  15 -5.509056E+06 -7.487203E+05 -2.764495E+05 -2.084874E+06  1.707246E-09 -4.486851E-10
       110  16 -4.930761E+06 -1.092529E+06 -8.596909E+05 -1.438859E+06  2.994338E-09  8.074350E-11
       110  17 -4.527981E+06 -2.747595E+05 -2.159391E+05 -1.826316E+06 -6.539776E-10  1.686592E-09
       110  18 -4.579440E+06 -4.700941E+05 -3.808668E+04 -1.906515E+06  1.485478E-09 -6.212581E-10
       110  19 -6.314901E+06 -1.945302E+06 -1.305902E+06 -2.146236E+06  6.911038E+05  2.554375E+05
       110  20 -6.147934E+06 -9.781372E+05 -6.737406E+05 -2.358461E+06  4.479571E+05  1.467857E+05
       110  21 -6.437785E+06 -1.027348E+06 -5.147974E+05 -2.263017E+06  1.994295E+05  5.234201E+04
       110  22 -5.622838E+06 -1.518978E+06 -1.082277E+06 -1.792696E+06  6.850720E+05  2.533663E+05
       110  23 -5.338169E+06 -6.264587E+05 -4.446007E+05 -2.092530E+06  4.461354E+05  1.461346E+05
       110  24 -5.509011E+06 -7.487062E+05 -2.763668E+05 -2.084865E+06  2.017694E+05  5.320142E+04
       110  25 -4.930245E+06 -1.092336E+06 -8.586972E+05 -1.438721E+06  6.790323E+05  2.512880E+05
       110  26 -4.527762E+06 -2.746830E+05 -2.155248E+05 -1.826263E+06  4.443108E+05  1.454819E+05
       110  27 -4.579394E+06 -4.700796E+05 -3.800217E+04 -1.906506E+06  2.041130E+05  5.406154E+04
       111   1 -6.351845E+06 -1.236521E+06 -4.727685E+05 -2.288468E+06 -1.613479E+05 -3.970315E+04
       111   2 -6.320290E+06 -1.094280E+06 -3.471376E+05 -2.303667E+06 -1.060940E+05 -1.697479E+04
       111   3 -6.336037E+06 -1.101854E+06 -3.010870E+05 -2.294524E+06 -4.979865E+04  3.003030E+03
       111   4 -5.465384E+06 -8.791270E+05 -2.266518E+05 -2.025508E+06 -1.605834E+05 -3.942268E+04
       111   5 -5.434328E+06 -7.530412E+05 -1.047279E+05 -2.056976E+06 -1.061113E+05 -1.698469E+04
       111   6 -5.450336E+06 -7.764881E+05 -6.167176E+04 -2.064119E+06 -5.059854E+04  2.701012E+03
       111   7 -4.578157E+06 -5.216584E+05  1.939162E+04 -1.762196E+06 -1.598175E+05 -3.914162E+04
       111   8 -4.547604E+06 -4.117497E+05  1.376102E+05 -1.809961E+06 -1.061285E+05 -1.699455E+04
       111   9 -4.563876E+06 -4.510885E+05  1.776735E+05 -1.833419E+06 -5.139965E+04  2.398568E+03
       111  10 -6.351873E+06 -1.236530E+06 -4.728210E+05 -2.288473E+06  1.456437E-09 -7.081820E-10
       111  11 -6.320303E+06 -1.094283E+06 -3.471595E+05 -2.303669E+06  2.226806E-09  4.692939E-11
       111  12 -6.336039E+06 -1.101855E+06 -3.010917E+05 -2.294524E+06  5.846598E-10  1.721544E-10
       111  13 -5.465413E+06 -8.791357E+05 -2.267037E+05 -2.025514E+06  2.612698E-09 -6.120934E-10
       111  14 -5.434341E+06 -7.530446E+05 -1.047498E+05 -2.056977E+06  4.230564E-09 -1.823962E-10
       111  15 -5.450339E+06 -7.764888E+05 -6.167663E+04 -2.064119E+06 -2.956496E-09  9.058482E-10
       111  16 -4.578185E+06 -5.216669E+05  1.934032E+04 -1.762201E+06  3.371911E-10  4.605390E-10
       111  17 -4.547616E+06 -4.117531E+05  1.375883E+05 -1.809962E+06 -1.698968E-10 -5.503095E-10
       111  18 -4.563879E+06 -4.510892E+05  1.776685E+05 -1.833419E+06  1.309381E-09  1.708989E-09
       111  19 -6.351845E+06 -1.236521E+06 -4.727685E+05 -2.288468E+06  1.613479E+05  3.970315E+04
       111  20 -6.320290E+06 -1.094280E+06 -3.471376E+05 -2.303667E+06  1.060940E+05  1.697479E+04
       111  21 -6.336037E+06 -1.101854E+06 -3.010870E+05 -2.294524E+06  4.979865E+04 -3.003030E+03
       111  22 -5.465384E+06 -8.791270E+05 -2.266518E+05 -2.025508E+06  1.605834E+05  3.942268E+04
       111  23 -5.434328E+06 -7.530412E+05 -1.047279E+05 -2.056976E+06  1.061113E+05  1.698469E+04
       111  24 -5.450336E+06 -7.764881E+05 -6.167176E+04 -2.064119E+06  5.059854E+04 -2.701012E+03
       111  25 -4.578157E+06 -5.216584E+05  1.939162E+04 -1.762196E+06  1.598175E+05  3.914162E+04
       111  26 -4.547604E+06 -4.117497E+05  1.376102E+05 -1.809961E+06  1.061285E+05  1.699455E+04
       111  27 -4.563876E+06 -4.510885E+05  1.776735E+05 -1.833419E+06  5.139965E+04 -2.398568E+03
       112   1 -6.227660E+06 -1.102194E+06 -2.645425E+05 -2.281245E+06 -4.094450E+04  5.187285E+03
       112   2 -6.194575E+06 -1.040861E+06 -2.256443E+05 -2.243080E+06 -2.750097E+04  8.644426E+03
       112   3 -6.121873E+06 -1.044501E+06 -2.010929E+05 -2.253377E+06 -1.362531E+04  1.093664E+04
       112   4 -5.437191E+06 -8.006531E+05 -4.886754E+04 -2.064102E+06 -4.122923E+04  5.078365E+03
       112   5 -5.456033E+06 -7.613131E+05 -2.453451E+04 -2.042444E+06 -2.813297E+04  8.406149E+03
       112   6 -5.435183E+06 -7.868580E+05 -1.425620E+04 -2.069247E+06 -1.460600E+04  1.056912E+04
       112   7 -4.646118E+06 -4.990742E+05  1.667502E+05 -1.846707E+06 -4.151434E+04  4.969303E+03
       112   8 -4.716963E+06 -4.817337E+05  1.765258E+05 -1.841591E+06 -2.876578E+04  8.167564E+03
       112   9 -4.748035E+06 -5.291891E+05  1.725382E+05 -1.884933E+06 -1.558789E+04  1.020117E+04
       112  10 -6.227661E+06 -1.102194E+06 -2.645458E+05 -2.281245E+06 -6.674098E-10  2.903839E-10
       112  11 -6.194575E+06 -1.040861E+06 -2.256458E+05 -2.243079E+06  1.739301E-09 -1.824414E-10
       112  12 -6.121873E+06 -1.044501E+06 -2.010934E+05 -2.253377E+06 -1.639453E-09  6.345414E-10
       112  13 -5.437193E+06 -8.006535E+05 -4.887081E+04 -2.064102E+06  2.162683E-09  7.199495E-11
       112  14 -5.456034E+06 -7.613134E+05 -2.453614E+04 -2.042444E+06 -2.993836E-09 -5.029590E-10
       112  15 -5.435183E+06 -7.868582E+05 -1.425681E+04 -2.069247E+06  3.584234E-09  3.058245E-09
       112  16 -4.646120E+06 -4.990746E+05  1.667469E+05 -1.846707E+06 -4.047693E-10  2.821321E-10
       112  17 -4.716964E+06 -4.817340E+05  1.765241E+05 -1.841591E+06 -4.026134E-09 -1.412612E-09
       112  18 -4.748036E+06 -5.291893E+05  1.725375E+05 -1.884933E+06  2.870612E-10 -1.326177E-09
       112  19 -6.227660E+06 -1.102194E+06 -2.645425E+05 -2.281245E+06  4.094450E+04 -5.187285E+03
       112  20 -6.194575E+06 -1.040861E+06 -2.256443E+05 -2.243080E+06  2.750097E+04 -8.644426E+03
       112  21 -6.121873E+06 -1.044501E+06 -2.010929E+05 -2.253377E+06  1.362531E+04 -1.093664E+04
       112  22 -5.437191E+06 -8.006531E+05 -4.886754E+04 -2.064102E+06  4.122923E+04 -5.078365E+03
       112  23 -5.456033E+06 -7.613131E+05 -2.453451E+04 -2.042444E+06  2.813297E+04 -8.406149E+03
       112  24 -5.435183E+06 -7.868580E+05 -1.425620E+04 -2.069247E+06  1.460600E+04 -1.056912E+04
       112  25 -4.646118E+06 -4.990742E+05  1.667502E+05 -1.846707E+06  4.151434E+04 -4.969303E+03
       112  26 -4.716963E+06 -4.817337E+05  1.765258E+05 -1.841591E+06  2.876578E+04 -8.167564E+03
       112  27 -4.748035E+06 -5.291891E+05  1.725382E+05 -1.884933E+06  1.558789E+04 -1.020117E+04
       113   1 -5.934014E+06 -9.853779E+05 -1.485711E+05 -2.211375E+06 -1.106596E+04  9.965440E+03
       113   2 -5.886370E+06 -9.154018E+05 -1.215797E+05 -2.147615E+06 -6.353979E+03  8.422378E+03
       113   3 -5.767631E+06 -9.203103E+05 -9.795211E+04 -2.166331E+06 -1.430520E+03  6.299442E+03
       113   4 -5.428934E+06 -7.947542E+05 -1.138988E+04 -2.074651E+06 -1.188383E+04  9.659509E+03
       113   5 -5.464368E+06 -7.564449E+05 -6.837301E+03 -2.033743E+06 -7.349861E+03  8.050812E+03
       113   6 -5.428679E+06 -7.929790E+05 -5.503861E+03 -2.075310E+06 -2.605043E+03  5.862259E+03
       113   7 -4.923607E+06 -6.041156E+05  1.257685E+05 -1.937826E+06 -1.270244E+04  9.353301E+03
       113   8 -5.042194E+06 -5.974785E+05  1.078886E+05 -1.919802E+06 -8.346490E+03  7.678968E+03
       113   9 -5.089618E+06 -6.656423E+05  8.693331E+04 -1.984244E+06 -3.780269E+03  5.424815E+03
       113  10 -5.934014E+06 -9.853780E+05 -1.485715E+05 -2.211375E+06 -1.452641E-09 -1.954431E-09
       113  11 -5.886370E+06 -9.154019E+05 -1.215799E+05 -2.147615E+06  1.198355E-09 -3.901877E-10
       113  12 -5.767631E+06 -9.203104E+05 -9.795219E+04 -2.166331E+06 -1.113205E-09 -9.271437E-10
       113  13 -5.428934E+06 -7.947543E+05 -1.139032E+04 -2.074651E+06  3.051756E-09  2.848997E-10
       113  14 -5.464368E+06 -7.564450E+05 -6.837524E+03 -2.033743E+06  4.464630E-10 -9.377487E-11
       113  15 -5.428679E+06 -7.929790E+05 -5.503938E+03 -2.075310E+06 -7.685117E-10  5.357427E-10
       113  16 -4.923607E+06 -6.041158E+05  1.257680E+05 -1.937825E+06  6.687274E-10 -4.591326E-10
       113  17 -5.042194E+06 -5.974786E+05  1.078884E+05 -1.919802E+06 -3.278016E-09  1.467325E-09
       113  18 -5.089618E+06 -6.656423E+05  8.693322E+04 -1.984244E+06  2.920878E-09  2.495439E-09
       113  19 -5.934014E+06 -9.853779E+05 -1.485711E+05 -2.211375E+06  1.106596E+04 -9.965440E+03
       113  20 -5.886370E+06 -9.154018E+05 -1.215797E+05 -2.147615E+06  6.353979E+03 -8.422378E+03
       113  21 -5.767631E+06 -9.203103E+05 -9.795211E+04 -2.166331E+06  1.430520E+03 -6.299442E+03
       113  22 -5.428934E+06 -7.947542E+05 -1.138988E+04 -2.074651E+06  1.188383E+04 -9.659509E+03
       113  23 -5.464368E+06 -7.564449E+05 -6.837301E+03 -2.033743E+06  7.349861E+03 -8.050812E+03
       113  24 -5.428679E+06 -7.929790E+05 -5.503861E+03 -2.075310E+06  2.605043E+03 -5.862259E+03
       113  25 -4.923607E+06 -6.041156E+05  1.257685E+05 -1.937826E+06  1.270244E+04 -9.353301E+03
       113  26 -5.042194E+06 -5.974785E+05  1.078886E+05 -1.919802E+06  8.346490E+03 -7.678968E+03
       113  27 -5.089618E+06 -6.656423E+05  8.693331E+04 -1.984244E+06  3.780269E+03 -5.424815E+03
       114   1 -5.530589E+06 -8.344108E+05 -3.350837E+04 -2.106038E+06  2.419359E+02  4.446561E+03
       114   2 -5.476391E+06 -7.572828E+05 -9.549947E+03 -2.033165E+06  5.100648E+03  2.138520E+03
       114   3 -5.342266E+06 -7.646839E+05  1.096241E+04 -2.054065E+06  9.955039E+03 -1.561964E+02
       114   4 -5.426697E+06 -7.951643E+05 -5.576839E+03 -2.077795E+06 -8.887745E+02  4.026077E+03
       114   5 -5.466771E+06 -7.536995E+05 -6.942240E+03 -2.030611E+06  3.974070E+03  1.719562E+03
       114   6 -5.426929E+06 -7.967661E+05 -1.175667E+04 -2.077204E+06  8.831990E+03 -5.738178E+02
       114   7 -5.322794E+06 -7.559169E+05  2.235391E+04 -2.049546E+06 -2.019701E+03  3.605512E+03
       114   8 -5.457151E+06 -7.501163E+05 -4.334521E+03 -2.028056E+06  2.847467E+03  1.300594E+03
       114   9 -5.511586E+06 -8.288479E+05 -3.447648E+04 -2.100339E+06  7.709105E+03 -9.913764E+02
       114  10 -5.530589E+06 -8.344108E+05 -3.350841E+04 -2.106038E+06  1.460063E-10 -1.860210E-10
       114  11 -5.476391E+06 -7.572828E+05 -9.550005E+03 -2.033165E+06  1.935998E-09  1.144457E-09
       114  12 -5.342266E+06 -7.646840E+05  1.096223E+04 -2.054065E+06 -6.890661E-10 -7.544846E-10
       114  13 -5.426697E+06 -7.951643E+05 -5.576870E+03 -2.077795E+06 -1.345256E-09 -8.093515E-10
       114  14 -5.466771E+06 -7.536995E+05 -6.942275E+03 -2.030611E+06  3.843360E-09  3.585902E-09
       114  15 -5.426929E+06 -7.967661E+05 -1.175682E+04 -2.077204E+06 -1.855061E-10 -3.243428E-10
       114  16 -5.322794E+06 -7.559169E+05  2.235388E+04 -2.049546E+06  1.499975E-09  4.681568E-10
       114  17 -5.457151E+06 -7.501163E+05 -4.334540E+03 -2.028056E+06  1.567186E-09 -1.985387E-09
       114  18 -5.511586E+06 -8.288480E+05 -3.447660E+04 -2.100339E+06  7.314073E-10 -1.331714E-10
       114  19 -5.530589E+06 -8.344108E+05 -3.350837E+04 -2.106038E+06 -2.419359E+02 -4.446561E+03
       114  20 -5.476391E+06 -7.572828E+05 -9.549947E+03 -2.033165E+06 -5.100648E+03 -2.138520E+03
       114  21 -5.342266E+06 -7.646839E+05  1.096241E+04 -2.054065E+06 -9.955039E+03  1.561964E+02
       114  22 -5.426697E+06 -7.951643E+05 -5.576839E+03 -2.077795E+06  8.887745E+02 -4.026077E+03
       114  23 -5.466771E+06 -7.536995E+05 -6.942240E+03 -2.030611E+06 -3.974070E+03 -1.719562E+03
       114  24 -5.426929E+06 -7.967661E+05 -1.175667E+04 -2.077204E+06 -8.831990E+03  5.738178E+02
       114  25 -5.322794E+06 -7.559169E+05  2.235391E+04 -2.049546E+06  2.019701E+03 -3.605512E+03
       114  26 -5.457151E+06 -7.501163E+05 -4.334521E+03 -2.028056E+06 -2.847467E+03 -1.300594E+03
       114  27 -5.511586E+06 -8.288479E+05 -3.447648E+04 -2.100339E+06 -7.709105E+03  9.913764E+02
       115   1 -5.108154E+06 -6.731736E+05  7.260994E+04 -1.991169E+06  1.304201E+04 -1.516462E+03
       115   2 -5.058547E+06 -6.009587E+05  8.466229E+04 -1.924217E+06  2.711944E+04 -2.620569E+02
       115   3 -4.944454E+06 -6.209536E+05  8.201139E+04 -1.936771E+06  4.092523E+04  1.739752E+03
       115   4 -5.429584E+06 -7.926562E+05 -1.479538E+04 -2.076215E+06  1.182820E+04 -1.968168E+03
       115   5 -5.462826E+06 -7.536560E+05 -2.529030E+04 -2.033815E+06  2.613026E+04 -6.310487E+02
       115   6 -5.431638E+06 -8.069223E+05 -5.067546E+04 -2.070926E+06  4.015878E+04  1.452943E+03
       115   7 -5.750912E+06 -9.121329E+05 -1.022094E+05 -2.161221E+06  1.061510E+04 -2.419620E+03
       115   8 -5.866946E+06 -9.063435E+05 -1.352574E+05 -2.143347E+06  2.514179E+04 -9.997739E+02
       115   9 -5.918594E+06 -9.928766E+05 -1.833842E+05 -2.204985E+06  3.939298E+04  1.166385E+03
       115  10 -5.108155E+06 -6.731736E+05  7.260962E+04 -1.991169E+06 -4.306304E-09 -1.831851E-09
       115  11 -5.058548E+06 -6.009589E+05  8.466090E+04 -1.924217E+06  2.844544E-09 -3.326452E-10
       115  12 -4.944456E+06 -6.209540E+05  8.200821E+04 -1.936771E+06 -1.063433E-09  1.293693E-09
       115  13 -5.429585E+06 -7.926562E+05 -1.479565E+04 -2.076215E+06 -8.163428E-10 -1.198243E-09
       115  14 -5.462827E+06 -7.536562E+05 -2.529160E+04 -2.033815E+06 -2.420786E-10 -2.214828E-09
       115  15 -5.431640E+06 -8.069228E+05 -5.067852E+04 -2.070926E+06  9.700030E-11 -1.999056E-10
       115  16 -5.750913E+06 -9.121329E+05 -1.022096E+05 -2.161221E+06 -3.784016E-10 -1.038021E-09
       115  17 -5.866946E+06 -9.063437E+05 -1.352586E+05 -2.143347E+06  1.900766E-09  6.070171E-10
       115  18 -5.918596E+06 -9.928770E+05 -1.833872E+05 -2.204985E+06  4.642228E-10 -1.056766E-09
       115  19 -5.108154E+06 -6.731736E+05  7.260994E+04 -1.991169E+06 -1.304201E+04  1.516462E+03
       115  20 -5.058547E+06 -6.009587E+05  8.466229E+04 -1.924217E+06 -2.711944E+04  2.620569E+02
       115  21 -4.944454E+06 -6.209536E+05  8.201139E+04 -1.936771E+06 -4.092523E+04 -1.739752E+03
       115  22 -5.429584E+06 -7.926562E+05 -1.479538E+04 -2.076215E+06 -1.182820E+04  1.968168E+03
       115  23 -5.462826E+06 -7.536560E+05 -2.529030E+04 -2.033815E+06 -2.613026E+04  6.310487E+02
       115  24 -5.431638E+06 -8.069223E+05 -5.067546E+04 -2.070926E+06 -4.015878E+04 -1.452943E+03
       115  25 -5.750912E+06 -9.121329E+05 -1.022094E+05 -2.161221E+06 -1.061510E+04  2.419620E+03
       115  26 -5.866946E+06 -9.063435E+05 -1.352574E+05 -2.143347E+06 -2.514179E+04  9.997739E+02
       115  27 -5.918594E+06 -9.928766E+05 -1.833842E+05 -2.204985E+06 -3.939298E+04 -1.166385E+03
       116   1 -4.761733E+06 -5.384405E+05  1.193210E+05 -1.900838E+06  5.152966E+04  3.471564E+03
       116   2 -4.719707E+06 -4.630776E+05  8.947907E+04 -1.843412E+06  1.088309E+05  2.188223E+04
       116   3 -4.689799E+06 -5.800588E+05 -2.159716E+04 -1.804206E+06  1.650859E+05  4.310962E+04
       116   4 -5.442440E+06 -7.845841E+05 -6.391809E+04 -2.074011E+06  5.023113E+04  2.986477E+03
       116   5 -5.443972E+06 -7.416414E+05 -1.084235E+05 -2.044980E+06  1.083463E+05  2.169818E+04
       116   6 -5.457855E+06 -8.913201E+05 -2.348891E+05 -2.034162E+06  1.654103E+05  4.322284E+04
       116   7 -6.122698E+06 -1.030711E+06 -2.471981E+05 -2.247016E+06  4.893416E+04  2.501913E+03
       116   8 -6.167727E+06 -1.020170E+06 -3.063737E+05 -2.246333E+06  1.078623E+05  2.151434E+04
       116   9 -6.225337E+06 -1.202523E+06 -4.482360E+05 -2.263849E+06  1.657341E+05  4.333581E+04
       116  10 -4.761736E+06 -5.384412E+05  1.193159E+05 -1.900838E+06  2.752943E-09  8.396473E-10
       116  11 -4.719720E+06 -4.630814E+05  8.945572E+04 -1.843414E+06  5.712415E-10 -6.769875E-10
       116  12 -4.689829E+06 -5.800682E+05 -2.165233E+04 -1.804212E+06  4.079150E-10  2.426438E-10
       116  13 -5.442442E+06 -7.845848E+05 -6.392289E+04 -2.074011E+06  5.281510E-09  2.620506E-09
       116  14 -5.443984E+06 -7.416451E+05 -1.084467E+05 -2.044982E+06 -1.158753E-10 -9.728989E-10
       116  15 -5.457885E+06 -8.913296E+05 -2.349446E+05 -2.034168E+06  1.324286E-09  1.246664E-10
       116  16 -6.122701E+06 -1.030712E+06 -2.472027E+05 -2.247016E+06 -1.489158E-09 -9.331860E-10
       116  17 -6.167740E+06 -1.020173E+06 -3.063967E+05 -2.246335E+06  2.633922E-09 -1.228912E-09
       116  18 -6.225367E+06 -1.202532E+06 -4.482918E+05 -2.263855E+06  2.323111E-09 -8.356379E-10
       116  19 -4.761733E+06 -5.384405E+05  1.193210E+05 -1.900838E+06 -5.152966E+04 -3.471564E+03
       116  20 -4.719707E+06 -4.630776E+05  8.947907E+04 -1.843412E+06 -1.088309E+05 -2.188223E+04
       116  21 -4.689799E+06 -5.800588E+05 -2.159716E+04 -1.804206E+06 -1.650859E+05 -4.310962E+04
       116  22 -5.442440E+06 -7.845841E+05 -6.391809E+04 -2.074011E+06 -5.023113E+04 -2.986477E+03
       116  23 -5.443972E+06 -7.416414E+05 -1.084235E+05 -2.044980E+06 -1.083463E+05 -2.169818E+04
       116  24 -5.457855E+06 -8.913201E+05 -2.348891E+05 -2.034162E+06 -1.654103E+05 -4.322284E+04
       116  25 -6.122698E+06 -1.030711E+06 -2.471981E+05 -2.247016E+06 -4.893416E+04 -2.501913E+03
       116  26 -6.167727E+06 -1.020170E+06 -3.063737E+05 -2.246333E+06 -1.078623E+05 -2.151434E+04
       116  27 -6.225337E+06 -1.202523E+06 -4.482360E+05 -2.263849E+06 -1.657341E+05 -4.333581E+04
       117   1 -4.571272E+06 -4.814268E+05 -4.821597E+04 -1.922149E+06  2.120271E+05  5.720506E+04
       117   2 -4.490658E+06 -2.408339E+05 -2.194489E+05 -1.801982E+06  4.612373E+05  1.491214E+05
       117   3 -4.837184E+06 -1.092632E+06 -8.725392E+05 -1.412049E+06  7.040555E+05  2.580475E+05
       117   4 -5.502236E+06 -7.566349E+05 -2.863136E+05 -2.096167E+06  2.086602E+05  5.596973E+04
       117   5 -5.346083E+06 -6.093596E+05 -4.606484E+05 -2.080594E+06  4.628259E+05  1.496767E+05
       117   6 -5.618686E+06 -1.556455E+06 -1.121319E+06 -1.795068E+06  7.106261E+05  2.602930E+05
       117   7 -6.432357E+06 -1.031861E+06 -5.244772E+05 -2.269984E+06  2.052985E+05  5.473541E+04
       117   8 -6.200790E+06 -9.777790E+05 -7.019177E+05 -2.358835E+06  4.644117E+05  1.502306E+05
       117   9 -6.399517E+06 -2.019914E+06 -1.370156E+06 -2.177558E+06  7.171871E+05  2.625301E+05
       117  10 -4.571322E+06 -4.814425E+05 -4.830738E+04 -1.922159E+06  2.680660E-09  1.012093E-09
       117  11 -4.490893E+06 -2.409157E+05 -2.198943E+05 -1.802037E+06  3.768901E-09 -1.469455E-09
       117  12 -4.837738E+06 -1.092839E+06 -8.736049E+05 -1.412196E+06 -3.873249E-10 -5.880872E-10
       117  13 -5.502284E+06 -7.566501E+05 -2.864022E+05 -2.096176E+06  2.544062E-10  1.186187E-09
       117  14 -5.346320E+06 -6.094421E+05 -4.610975E+05 -2.080650E+06  7.596417E-09 -3.750499E-10
       117  15 -5.619251E+06 -1.556665E+06 -1.122407E+06 -1.795218E+06  2.259733E-09 -1.783258E-09
       117  16 -6.432403E+06 -1.031876E+06 -5.245631E+05 -2.269993E+06  1.550092E-09  2.044814E-10
       117  17 -6.201030E+06 -9.778623E+05 -7.023706E+05 -2.358891E+06  1.538501E-09  1.921947E-09
       117  18 -6.400093E+06 -2.020129E+06 -1.371264E+06 -2.177711E+06 -8.537839E-10  1.377592E-09
       117  19 -4.571272E+06 -4.814268E+05 -4.821597E+04 -1.922149E+06 -2.120271E+05 -5.720506E+04
       117  20 -4.490658E+06 -2.408339E+05 -2.194489E+05 -1.801982E+06 -4.612373E+05 -1.491214E+05
       117  21 -4.837184E+06 -1.092632E+06 -8.725392E+05 -1.412049E+06 -7.040555E+05 -2.580475E+05
       117  22 -5.502236E+06 -7.566349E+05 -2.863136E+05 -2.096167E+06 -2.086602E+05 -5.596973E+04
       117  23 -5.346083E+06 -6.093596E+05 -4.606484E+05 -2.080594E+06 -4.628259E+05 -1.496767E+05
       117  24 -5.618686E+06 -1.556455E+06 -1.121319E+06 -1.795068E+06 -7.106261E+05 -2.602930E+05
       117  25 -6.432357E+06 -1.031861E+06 -5.244772E+05 -2.269984E+06 -2.052985E+05 -5.473541E+04
       117  26 -6.200790E+06 -9.777790E+05 -7.019177E+05 -2.358835E+06 -4.644117E+05 -1.502306E+05
       117  27 -6.399517E+06 -2.019914E+06 -1.370156E+06 -2.177558E+06 -7.171871E+05 -2.625301E+05
       118   1 -1.107949E+06  1.672280E+05  2.436043E+05  3.891465E+04  2.270067E+05  2.931690E+03
       118   2 -1.142168E+06 -1.422340E+05  5.685107E+04  1.264896E+04  1.500230E+05  7.515960E+03
       118   3 -1.076738E+06 -9.556046E+04  9.452549E+03 -3.426146E+04  7.304523E+04  6.394246E+03
       118   4 -7.363328E+05  2.598841E+05  3.360809E+05 -1.081157E+04  2.292863E+05  2.917520E+03
       118   5 -7.863362E+05 -5.350091E+04  1.445251E+05 -2.405291E+02  1.506171E+05  7.513385E+03
       118   6 -7.364578E+05 -1.057190E+04  9.343633E+04 -1.031517E+04  7.195610E+04  6.395559E+03
       118   7 -3.645857E+05  3.525393E+05  4.285485E+05 -6.056766E+04  2.315674E+05  2.902992E+03
       118   8 -4.303888E+05  3.522335E+04  2.321899E+05 -1.313748E+04  1.512116E+05  7.510786E+03
       118   9 -3.960709E+05  7.441015E+04  1.774118E+05  1.364426E+04  7.086637E+04  6.396787E+03
       118  10 -1.108004E+06  1.672142E+05  2.435073E+05  3.891411E+04 -1.508092E-09  7.772788E-10
       118  11 -1.142192E+06 -1.422401E+05  5.680860E+04  1.264805E+04  2.465223E-09  3.609143E-10
       118  12 -1.076744E+06 -9.556194E+04  9.442428E+03 -3.426184E+04 -9.043149E-11 -4.127807E-10
       118  13 -7.363893E+05  2.598700E+05  3.359820E+05 -1.081210E+04 -3.779918E-11  5.571364E-10
       118  14 -7.863606E+05 -5.350706E+04  1.444823E+05 -2.414406E+02 -4.953677E-09 -1.451442E-09
       118  15 -7.364634E+05 -1.057333E+04  9.342652E+04 -1.031554E+04 -8.478343E-10  3.258197E-10
       118  16 -3.646433E+05  3.525248E+05  4.284477E+05 -6.056820E+04  8.788910E-10 -4.363679E-11
       118  17 -4.304134E+05  3.521715E+04  2.321468E+05 -1.313839E+04  1.855373E-10  2.757473E-10
       118  18 -3.960763E+05  7.440876E+04  1.774023E+05  1.364390E+04 -1.135185E-09  3.220347E-10
       118  19 -1.107949E+06  1.672280E+05  2.436043E+05  3.891465E+04 -2.270067E+05 -2.931690E+03
       118  20 -1.142168E+06 -1.422340E+05  5.685107E+04  1.264896E+04 -1.500230E+05 -7.515960E+03
       118  21 -1.076738E+06 -9.556046E+04  9.452549E+03 -3.426146E+04 -7.304523E+04 -6.394246E+03
       118  22 -7.363328E+05  2.598841E+05  3.360809E+05 -1.081157E+04 -2.292863E+05 -2.917520E+03
       118  23 -7.863362E+05 -5.350091E+04  1.445251E+05 -2.405291E+02 -1.506171E+05 -7.513385E+03
       118  24 -7.364578E+05 -1.057190E+04  9.343633E+04 -1.031517E+04 -7.195610E+04 -6.395559E+03
       118  25 -3.645857E+05  3.525393E+05  4.285485E+05 -6.056766E+04 -2.315674E+05 -2.902992E+03
       118  26 -4.303888E+05  3.522335E+04  2.321899E+05 -1.313748E+04 -1.512116E+05 -7.510786E+03
       118  27 -3.960709E+05  7.441015E+04  1.774118E+05  1.364426E+04 -7.086637E+04 -6.396787E+03
       119   1 -1.047240E+06 -3.740813E+04  4.890203E+03 -4.768105E+03  5.666206E+04  5.161302E+03
       119   2 -1.037144E+06 -7.581919E+04 -3.019175E+04  1.920124E+03  3.736744E+04  5.193737E+03
       119   3 -1.012045E+06 -6.550174E+04 -4.045118E+04 -1.437726E+04  1.807292E+04  4.483793E+03
       119   4 -7.552781E+05  3.544872E+04  7.699206E+04 -1.101147E+04  5.680160E+04  5.160693E+03
       119   5 -7.628058E+05 -7.361316E+03  3.749162E+04  4.977318E+02  3.728517E+04  5.193441E+03
       119   6 -7.552991E+05 -1.416198E+03  2.295961E+04 -1.097797E+04  1.776939E+04  4.483657E+03
       119   7 -4.632380E+05  1.082994E+05  1.490876E+05 -1.725781E+04  5.694120E+04  5.160080E+03
       119   8 -4.883990E+05  6.109095E+04  1.051694E+05 -9.253020E+02  3.720286E+04  5.193146E+03
       119   9 -4.984934E+05  6.266446E+04  8.636551E+04 -7.577275E+03  1.746574E+04  4.483517E+03
       119  10 -1.047244E+06 -3.740902E+04  4.884110E+03 -4.768341E+03 -4.988771E-09 -7.043511E-10
       119  11 -1.037146E+06 -7.581960E+04 -3.019443E+04  1.919967E+03  1.068517E-09  8.775396E-10
       119  12 -1.012045E+06 -6.550185E+04 -4.045183E+04 -1.437732E+04 -1.764797E-09 -1.143563E-09
       119  13 -7.552816E+05  3.544783E+04  7.698594E+04 -1.101171E+04 -2.186928E-09 -1.723164E-10
       119  14 -7.628073E+05 -7.361719E+03  3.748895E+04  4.975758E+02 -5.383351E-09 -3.105448E-11
       119  15 -7.552994E+05 -1.416305E+03  2.295897E+04 -1.097803E+04 -1.969039E-09 -1.242054E-09
       119  16 -4.632415E+05  1.082985E+05  1.490815E+05 -1.725804E+04  2.316608E-09  9.112533E-10
       119  17 -4.884005E+05  6.109055E+04  1.051668E+05 -9.254577E+02 -1.554718E-09 -1.059233E-09
       119  18 -4.984937E+05  6.266436E+04  8.636490E+04 -7.577338E+03  1.605243E-09 -8.442070E-10
       119  19 -1.047240E+06 -3.740813E+04  4.890203E+03 -4.768105E+03 -5.666206E+04 -5.161302E+03
       119  20 -1.037144E+06 -7.581919E+04 -3.019175E+04  1.920124E+03 -3.736744E+04 -5.193737E+03
       119  21 -1.012045E+06 -6.550174E+04 -4.045118E+04 -1.437726E+04 -1.807292E+04 -4.483793E+03
       119  22 -7.552781E+05  3.544872E+04  7.699206E+04 -1.101147E+04 -5.680160E+04 -5.160693E+03
       119  23 -7.628058E+05 -7.361316E+03  3.749162E+04  4.977318E+02 -3.728517E+04 -5.193441E+03
       119  24 -7.552991E+05 -1.416198E+03  2.295961E+04 -1.097797E+04 -1.776939E+04 -4.483657E+03
       119  25 -4.632380E+05  1.082994E+05  1.490876E+05 -1.725781E+04 -5.694120E+04 -5.160080E+03
       119  26 -4.883990E+05  6.109095E+04  1.051694E+05 -9.253020E+02 -3.720286E+04 -5.193146E+03
       119  27 -4.984934E+05  6.266446E+04  8.636551E+04 -7.577275E+03 -1.746574E+04 -4.483517E+03
       120   1 -9.609576E+05 -4.582893E+04 -3.178528E+04 -1.069888E+04  1.422157E+04  3.993015E+03
       120   2 -9.430260E+05 -4.686022E+04 -3.579381E+04  1.199130E+03  9.408545E+03  3.415252E+03
       120   3 -9.226879E+05 -4.126015E+04 -3.498266E+04 -1.188718E+04  4.594950E+03  2.719280E+03
       120   4 -7.580931E+05  4.785945E+03  1.823122E+04 -1.143287E+04  1.407575E+04  3.992880E+03
       120   5 -7.593010E+05 -1.013198E+03  9.540809E+03  1.059561E+03  9.227285E+03  3.415176E+03
       120   6 -7.580976E+05 -1.760294E+02  5.693504E+03 -1.143184E+04  4.378403E+03  2.719270E+03
       120   7 -5.551911E+05  5.539775E+04  6.824467E+04 -1.216711E+04  1.392987E+04  3.992744E+03
       120   8 -5.755452E+05  4.483130E+04  5.487293E+04  9.199502E+02  9.045971E+03  3.415099E+03
       120   9 -5.934827E+05  4.090607E+04  4.636766E+04 -1.097638E+04  4.161798E+03  2.719259E+03
       120  10 -9.609578E+05 -4.582900E+04 -3.178570E+04 -1.069893E+04 -1.966420E-09 -7.023766E-10
       120  11 -9.430261E+05 -4.686026E+04 -3.579400E+04  1.199104E+03  1.794247E-09  8.612137E-10
       120  12 -9.226879E+05 -4.126017E+04 -3.498271E+04 -1.188719E+04  4.477897E-10  2.259522E-10
       120  13 -7.580933E+05  4.785875E+03  1.823081E+04 -1.143292E+04 -5.027110E-11 -6.843408E-10
       120  14 -7.593011E+05 -1.013233E+03  9.540627E+03  1.059535E+03 -7.682562E-09  7.392187E-10
       120  15 -7.580976E+05 -1.760425E+02  5.693454E+03 -1.143185E+04  2.406221E-09 -1.063646E-10
       120  16 -5.551913E+05  5.539768E+04  6.824428E+04 -1.216715E+04  1.757744E-09 -5.698274E-10
       120  17 -5.755453E+05  4.483127E+04  5.487275E+04  9.199254E+02 -2.368524E-09  5.494250E-10
       120  18 -5.934827E+05  4.090606E+04  4.636761E+04 -1.097639E+04 -3.329334E-09  6.557890E-11
       120  19 -9.609576E+05 -4.582893E+04 -3.178528E+04 -1.069888E+04 -1.422157E+04 -3.993015E+03
       120  20 -9.430260E+05 -4.686022E+04 -3.579381E+04  1.199130E+03 -9.408545E+03 -3.415252E+03
       120  21 -9.226879E+05 -4.126015E+04 -3.498266E+04 -1.188718E+04 -4.594950E+03 -2.719280E+03
       120  22 -7.580931E+05  4.785945E+03  1.823122E+04 -1.143287E+04 -1.407575E+04 -3.992880E+03
       120  23 -7.593010E+05 -1.013198E+03  9.540809E+03  1.059561E+03 -9.227285E+03 -3.415176E+03
       120  24 -7.580976E+05 -1.760294E+02  5.693504E+03 -1.143184E+04 -4.378403E+03 -2.719270E+03
       120  25 -5.551911E+05  5.539775E+04  6.824467E+04 -1.216711E+04 -1.392987E+04 -3.992744E+03
       120  26 -5.755452E+05  4.483130E+04  5.487293E+04  9.199502E+02 -9.045971E+03 -3.415099E+03
       120  27 -5.934827E+05  4.090607E+04  4.636766E+04 -1.097638E+04 -4.161798E+03 -2.719259E+03
       121   1 -8.656147E+05 -2.606909E+04 -2.192589E+04 -1.160096E+04  3.659067E+03  2.299337E+03
       121   2 -8.457578E+05 -2.185407E+04 -1.901313E+04  1.414491E+03  2.433634E+03  1.612718E+03
       121   3 -8.255063E+05 -1.672541E+04 -1.507219E+04 -1.174495E+04  1.207960E+03  9.009650E+02
       121   4 -7.585402E+05  6.375900E+02  4.435682E+03 -1.169661E+04  3.465438E+03  2.299356E+03
       121   5 -7.587384E+05 -1.402709E+02  2.458621E+03  1.390644E+03  2.232577E+03  1.612767E+03
       121   6 -7.585413E+05 -3.253667E+00  1.514779E+03 -1.169676E+04  9.995145E+02  9.010455E+02
       121   7 -6.514553E+05  2.734342E+04  3.079641E+04 -1.179227E+04  3.271776E+03  2.299375E+03
       121   8 -6.717122E+05  2.157297E+04  2.392981E+04  1.366794E+03  2.031492E+03  1.612815E+03
       121   9 -6.915723E+05  1.671856E+04  1.810142E+04 -1.164858E+04  7.910468E+02  9.011260E+02
       121  10 -8.656147E+05 -2.606910E+04 -2.192592E+04 -1.160097E+04 -1.684244E-09 -2.326411E-10
       121  11 -8.457578E+05 -2.185408E+04 -1.901314E+04  1.414488E+03  3.763714E-09  2.238443E-10
       121  12 -8.255063E+05 -1.672541E+04 -1.507220E+04 -1.174495E+04 -3.071261E-10  2.864381E-10
       121  13 -7.585402E+05  6.375810E+02  4.435650E+03 -1.169661E+04  2.155339E-10 -1.676489E-10
       121  14 -7.587384E+05 -1.402750E+02  2.458607E+03  1.390641E+03 -2.282126E-09 -1.714048E-10
       121  15 -7.585413E+05 -3.254807E+00  1.514776E+03 -1.169676E+04 -4.159617E-09  2.400444E-10
       121  16 -6.514553E+05  2.734341E+04  3.079638E+04 -1.179227E+04  4.203323E-10 -6.791034E-10
       121  17 -6.717122E+05  2.157296E+04  2.392980E+04  1.366791E+03 -3.236543E-10  1.835610E-10
       121  18 -6.915723E+05  1.671856E+04  1.810141E+04 -1.164858E+04 -1.335658E-10  9.134882E-11
       121  19 -8.656147E+05 -2.606909E+04 -2.192589E+04 -1.160096E+04 -3.659067E+03 -2.299337E+03
       121  20 -8.457578E+05 -2.185407E+04 -1.901313E+04  1.414491E+03 -2.433634E+03 -1.612718E+03
       121  21 -8.255063E+05 -1.672541E+04 -1.507219E+04 -1.174495E+04 -1.207960E+03 -9.009650E+02
       121  22 -7.585402E+05  6.375900E+02  4.435682E+03 -1.169661E+04 -3.465438E+03 -2.299356E+03
       121  23 -7.587384E+05 -1.402709E+02  2.458621E+03  1.390644E+03 -2.232577E+03 -1.612767E+03
       121  24 -7.585413E+05 -3.253667E+00  1.514779E+03 -1.169676E+04 -9.995145E+02 -9.010455E+02
       121  25 -6.514553E+05  2.734342E+04  3.079641E+04 -1.179227E+04 -3.271776E+03 -2.299375E+03
       121  26 -6.717122E+05  2.157297E+04  2.392981E+04  1.366794E+03 -2.031492E+03 -1.612815E+03
       121  27 -6.915723E+05  1.671856E+04  1.810142E+04 -1.164858E+04 -7.910468E+02 -9.011260E+02
       122   1 -7.663418E+05 -1.828342E+03 -6.226186E+02 -1.175730E+04  9.588410E+02  4.794799E+02
       122   2 -7.460766E+05  3.104950E+03  3.954691E+03  1.474101E+03  5.306919E+02 -2.341455E+02
       122   3 -7.257258E+05  8.262789E+03  8.861479E+03 -1.179757E+04  1.025681E+02 -9.376886E+02
       122   4 -7.586089E+05  8.856045E+01  1.222288E+03 -1.176968E+04  7.519985E+02  4.795701E+02
       122   5 -7.586514E+05 -3.260320E+01  8.522328E+02  1.481867E+03  3.267463E+02 -2.340613E+02
       122   6 -7.586089E+05  7.038179E+01  8.097396E+02 -1.176969E+04 -9.846676E+01 -9.376091E+02
       122   7 -7.508758E+05  2.005459E+03  3.067190E+03 -1.178206E+04  5.451534E+02  4.796603E+02
       122   8 -7.712260E+05 -3.170168E+03 -2.250237E+03  1.489632E+03  1.228048E+02 -2.339771E+02
       122   9 -7.914910E+05 -8.122106E+03 -7.242079E+03 -1.174182E+04 -2.994910E+02 -9.375296E+02
       122  10 -7.663418E+05 -1.828343E+03 -6.226208E+02 -1.175730E+04 -2.317216E-10 -2.477751E-10
       122  11 -7.460766E+05  3.104950E+03  3.954691E+03  1.474101E+03  2.170861E-09 -5.694857E-10
       122  12 -7.257258E+05  8.262788E+03  8.861477E+03 -1.179757E+04  2.961415E-10 -2.973445E-10
       122  13 -7.586089E+05  8.856005E+01  1.222286E+03 -1.176968E+04 -7.517796E-10  5.387048E-10
       122  14 -7.586514E+05 -3.260329E+01  8.522325E+02  1.481867E+03  4.580865E-09  2.811164E-10
       122  15 -7.586089E+05  7.038084E+01  8.097379E+02 -1.176969E+04  3.855341E-10 -8.325116E-10
       122  16 -7.508758E+05  2.005459E+03  3.067189E+03 -1.178206E+04  2.171227E-10  3.468173E-10
       122  17 -7.712260E+05 -3.170168E+03 -2.250238E+03  1.489632E+03 -4.951670E-10  8.886240E-11
       122  18 -7.914910E+05 -8.122107E+03 -7.242080E+03 -1.174182E+04  1.050478E-09 -3.466218E-10
       122  19 -7.663418E+05 -1.828342E+03 -6.226186E+02 -1.175730E+04 -9.588410E+02 -4.794799E+02
       122  20 -7.460766E+05  3.104950E+03  3.954691E+03  1.474101E+03 -5.306919E+02  2.341455E+02
       122  21 -7.257258E+05  8.262789E+03  8.861479E+03 -1.179757E+04 -1.025681E+02  9.376886E+02
       122  22 -7.586089E+05  8.856045E+01  1.222288E+03 -1.176968E+04 -7.519985E+02 -4.795701E+02
       122  23 -7.586514E+05 -3.260320E+01  8.522328E+02  1.481867E+03 -3.267463E+02  2.340613E+02
       122  24 -7.586089E+05  7.038179E+01  8.097396E+02 -1.176969E+04  9.846676E+01  9.376091E+02
       122  25 -7.508758E+05  2.005459E+03  3.067190E+03 -1.178206E+04 -5.451534E+02 -4.796603E+02
       122  26 -7.712260E+05 -3.170168E+03 -2.250237E+03  1.489632E+03 -1.228048E+02  2.339771E+02
       122  27 -7.914910E+05 -8.122106E+03 -7.242079E+03 -1.174182E+04  2.994910E+02  9.375296E+02
       123   1 -6.666945E+05  2.293626E+04  2.359343E+04 -1.162569E+04 -3.093574E+01 -1.365885E+03
       123   2 -6.469468E+05  2.777350E+04  2.872345E+04  1.292115E+03 -6.419916E+02 -2.079369E+03
       123   3 -6.269103E+05  3.333563E+04  3.443819E+04 -1.174175E+04 -1.252812E+03 -2.698685E+03
       123   4 -7.585672E+05  1.272104E+00  8.633150E+02 -1.164725E+04 -2.498386E+02 -1.365816E+03
       123   5 -7.587085E+05 -1.105998E+02  1.151306E+03  1.328766E+03 -8.337079E+02 -2.079346E+03
       123   6 -7.585663E+05  4.977106E+02  2.005150E+03 -1.164717E+04 -1.417321E+03 -2.698699E+03
       123   7 -8.504322E+05 -2.293435E+04 -2.186743E+04 -1.166880E+04 -4.687091E+02 -1.365748E+03
       123   8 -8.704588E+05 -2.799564E+04 -2.642177E+04  1.365410E+03 -1.025390E+03 -2.079323E+03
       123   9 -8.902066E+05 -3.234150E+04 -3.042917E+04 -1.155262E+04 -1.581796E+03 -2.698713E+03
       123  10 -6.666945E+05  2.293626E+04  2.359343E+04 -1.162569E+04 -1.434196E-09  5.389712E-10
       123  11 -6.469468E+05  2.777350E+04  2.872344E+04  1.292114E+03  2.795606E-09  2.545975E-11
       123  12 -6.269103E+05  3.333562E+04  3.443818E+04 -1.174175E+04  1.714133E-09  6.051511E-11
       123  13 -7.585672E+05  1.270085E+00  8.633114E+02 -1.164725E+04 -2.402410E-09 -2.482951E-10
       123  14 -7.587085E+05 -1.106046E+02  1.151297E+03  1.328764E+03 -4.115371E-10 -3.131200E-10
       123  15 -7.585663E+05  4.977022E+02  2.005133E+03 -1.164718E+04 -1.619550E-09  7.915192E-11
       123  16 -8.504322E+05 -2.293435E+04 -2.186744E+04 -1.166880E+04  1.200226E-09  1.964598E-10
       123  17 -8.704588E+05 -2.799564E+04 -2.642178E+04  1.365408E+03 -2.003305E-09 -4.324051E-10
       123  18 -8.902066E+05 -3.234151E+04 -3.042919E+04 -1.155263E+04 -7.181253E-10 -1.088307E-10
       123  19 -6.666945E+05  2.293626E+04  2.359343E+04 -1.162569E+04  3.093574E+01  1.365885E+03
       123  20 -6.469468E+05  2.777350E+04  2.872345E+04  1.292115E+03  6.419916E+02  2.079369E+03
       123  21 -6.269103E+05  3.333563E+04  3.443819E+04 -1.174175E+04  1.252812E+03  2.698685E+03
       123  22 -7.585672E+05  1.272104E+00  8.633150E+02 -1.164725E+04  2.498386E+02  1.365816E+03
       123  23 -7.587085E+05 -1.105998E+02  1.151306E+03  1.328766E+03  8.337079E+02  2.079346E+03
       123  24 -7.585663E+05  4.977106E+02  2.005150E+03 -1.164717E+04  1.417321E+03  2.698699E+03
       123  25 -8.504322E+05 -2.293435E+04 -2.186743E+04 -1.166880E+04  4.687091E+02  1.365748E+03
       123  26 -8.704588E+05 -2.799564E+04 -2.642177E+04  1.365410E+03  1.025390E+03  2.079323E+03
       123  27 -8.902066E+05 -3.234150E+04 -3.042917E+04 -1.155262E+04  1.581796E+03  2.698713E+03
       124   1 -5.698055E+05  4.688298E+04  4.903742E+04 -1.099170E+04 -1.521978E+03 -3.191430E+03
       124   2 -5.518570E+05  5.092033E+04  5.509464E+04  8.021811E+02 -3.778611E+03 -3.913302E+03
       124   3 -5.321630E+05  6.012484E+04  6.394594E+04 -1.194450E+04 -6.035117E+03 -3.995647E+03
       124   4 -7.582547E+05 -1.438877E+02  2.489301E+03 -1.133332E+04 -1.821380E+03 -3.191479E+03
       124   5 -7.591100E+05 -7.833218E+02  3.977920E+03  9.365086E+02 -3.893331E+03 -3.913408E+03
       124   6 -7.582518E+05  3.713269E+03  8.132959E+03 -1.133472E+04 -5.965087E+03 -3.995719E+03
       124   7 -9.466716E+05 -4.717341E+04 -4.406145E+04 -1.167483E+04 -2.120692E+03 -3.191528E+03
       124   8 -9.663240E+05 -5.249018E+04 -4.714198E+04  1.070789E+03 -4.008013E+03 -3.913514E+03
       124   9 -9.842941E+05 -5.270212E+04 -4.768382E+04 -1.072518E+04 -5.895082E+03 -3.995790E+03
       124  10 -5.698055E+05  4.688297E+04  4.903740E+04 -1.099170E+04  2.885179E-10  6.998941E-11
       124  11 -5.518570E+05  5.092031E+04  5.509458E+04  8.021692E+02  1.557587E-09  4.627182E-10
       124  12 -5.321631E+05  6.012481E+04  6.394585E+04 -1.194451E+04 -8.873286E-10 -4.972741E-10
       124  13 -7.582547E+05 -1.438996E+02  2.489276E+03 -1.133332E+04  2.178523E-09  1.845427E-10
       124  14 -7.591101E+05 -7.833423E+02  3.977863E+03  9.364963E+02 -1.373840E-10  4.391533E-10
       124  15 -7.582519E+05  3.713242E+03  8.132862E+03 -1.133474E+04  9.203424E-10 -4.771298E-10
       124  16 -9.466716E+05 -4.717342E+04 -4.406148E+04 -1.167483E+04  1.055932E-09  1.305495E-10
       124  17 -9.663240E+05 -5.249020E+04 -4.714204E+04  1.070777E+03 -7.765386E-10  3.887144E-10
       124  18 -9.842942E+05 -5.270214E+04 -4.768391E+04 -1.072520E+04 -5.206474E-10  3.889135E-11
       124  19 -5.698055E+05  4.688298E+04  4.903742E+04 -1.099170E+04  1.521978E+03  3.191430E+03
       124  20 -5.518570E+05  5.092033E+04  5.509464E+04  8.021811E+02  3.778611E+03  3.913302E+03
       124  21 -5.321630E+05  6.012484E+04  6.394594E+04 -1.194450E+04  6.035117E+03  3.995647E+03
       124  22 -7.582547E+05 -1.438877E+02  2.489301E+03 -1.133332E+04  1.821380E+03  3.191479E+03
       124  23 -7.591100E+05 -7.833218E+02  3.977920E+03  9.365086E+02  3.893331E+03  3.913408E+03
       124  24 -7.582518E+05  3.713269E+03  8.132959E+03 -1.133472E+04  5.965087E+03  3.995719E+03
       124  25 -9.466716E+05 -4.717341E+04 -4.406145E+04 -1.167483E+04  2.120692E+03  3.191528E+03
       124  26 -9.663240E+05 -5.249018E+04 -4.714198E+04  1.070789E+03  4.008013E+03  3.913514E+03
       124  27 -9.842941E+05 -5.270212E+04 -4.768382E+04 -1.072518E+04  5.895082E+03  3.995790E+03
       125   1 -4.774445E+05  6.843365E+04  7.865643E+04 -8.220314E+03 -6.578113E+03 -5.111527E+03
       125   2 -4.657994E+05  6.812127E+04  8.807805E+04 -9.008876E+02 -1.629039E+04 -6.088871E+03
       125   3 -4.430897E+05  1.056055E+05  1.133461E+05 -1.587929E+04 -2.600790E+04 -2.120109E+03
       125   4 -7.562391E+05 -1.123766E+03  9.868362E+03 -1.082574E+04 -7.567269E+03 -5.112193E+03
       125   5 -7.616436E+05 -5.658606E+03  1.520773E+04  3.074652E+02 -1.585228E+04 -6.088711E+03
       125   6 -7.562266E+05  2.736477E+04  3.540695E+04 -1.085775E+04 -2.414227E+04 -2.118208E+03
       125   7 -1.034963E+06 -7.068696E+04 -5.892546E+04 -1.343000E+04 -8.555982E+03 -5.112850E+03
       125   8 -1.057408E+06 -7.944500E+04 -5.766905E+04  1.515223E+03 -1.541439E+04 -6.088549E+03
       125   9 -1.069274E+06 -5.088320E+04 -4.253956E+04 -5.838762E+03 -2.227758E+04 -2.116275E+03
       125  10 -4.774446E+05  6.843361E+04  7.865630E+04 -8.220341E+03 -1.853746E-09 -5.285229E-10
       125  11 -4.657997E+05  6.812116E+04  8.807748E+04 -9.009675E+02  2.044932E-09 -5.898763E-11
       125  12 -4.430905E+05  1.056053E+05  1.133449E+05 -1.587934E+04  1.378080E-10  7.168328E-10
       125  13 -7.562391E+05 -1.123810E+03  9.868205E+03 -1.082577E+04 -1.600305E-09 -1.434666E-09
       125  14 -7.616439E+05 -5.658713E+03  1.520719E+04  3.073874E+02 -1.085275E-09  2.376719E-10
       125  15 -7.562273E+05  2.736461E+04  3.540585E+04 -1.085779E+04  3.590936E-09 -2.254365E-10
       125  16 -1.034963E+06 -7.068701E+04 -5.892565E+04 -1.343003E+04 -7.897996E-10 -2.689249E-10
       125  17 -1.057408E+06 -7.944510E+04 -5.766957E+04  1.515148E+03  1.329691E-09 -3.027301E-11
       125  18 -1.069275E+06 -5.088334E+04 -4.254050E+04 -5.838800E+03  1.799970E-10  1.129981E-09
       125  19 -4.774445E+05  6.843365E+04  7.865643E+04 -8.220314E+03  6.578113E+03  5.111527E+03
       125  20 -4.657994E+05  6.812127E+04  8.807805E+04 -9.008876E+02  1.629039E+04  6.088871E+03
       125  21 -4.430897E+05  1.056055E+05  1.133461E+05 -1.587929E+04  2.600790E+04  2.120109E+03
       125  22 -7.562391E+05 -1.123766E+03  9.868362E+03 -1.082574E+04  7.567269E+03  5.112193E+03
       125  23 -7.616436E+05 -5.658606E+03  1.520773E+04  3.074652E+02  1.585228E+04  6.088711E+03
       125  24 -7.562266E+05  2.736477E+04  3.540695E+04 -1.085775E+04  2.414227E+04  2.118208E+03
       125  25 -1.034963E+06 -7.068696E+04 -5.892546E+04 -1.343000E+04  8.555982E+03  5.112850E+03
       125  26 -1.057408E+06 -7.944500E+04 -5.766905E+04  1.515223E+03  1.541439E+04  6.088549E+03
       125  27 -1.069274E+06 -5.088320E+04 -4.253956E+04 -5.838762E+03  2.227758E+04  2.116275E+03
       126   1  3.008122E+05 -1.388641E+06  2.689429E+05 -1.185325E+05  1.168159E+04 -6.008716E+04
       126   2  3.443519E+05 -1.636251E+06  2.585130E+05  1.271312E+04  3.146802E+04 -3.712369E+04
       126   3  2.601805E+05 -1.917099E+06  2.015629E+05 -1.510751E+05  2.053809E+04 -1.428256E+04
       126   4 -9.212304E+04 -2.959189E+06 -1.220837E+05 -1.367606E+05  1.171689E+04 -7.177742E+04
       126   5  1.862676E+04 -2.941539E+06 -6.176775E+04  1.090357E+04  3.147809E+04 -3.858156E+04
       126   6 -2.661765E+02 -2.959064E+06 -5.518119E+04 -1.365115E+05  2.049570E+04 -5.497936E+03
       126   7 -4.852430E+05 -4.527488E+06 -5.132952E+05 -1.549406E+05  1.175293E+04 -8.343787E+04
       126   8 -3.072252E+05 -4.245268E+06 -3.821739E+05  9.099290E+03  3.148817E+04 -4.003630E+04
       126   9 -2.607934E+05 -4.000035E+06 -3.120054E+05 -1.219710E+05  2.045369E+04  3.271932E+03
       126  10  3.008111E+05 -1.388645E+06  2.689359E+05 -1.185320E+05 -4.844030E-11 -1.777882E-09
       126  11  3.443504E+05 -1.636253E+06  2.585085E+05  1.271406E+04  7.434762E-11 -6.477267E-09
       126  12  2.601800E+05 -1.917100E+06  2.015617E+05 -1.510749E+05 -3.717348E-09  1.193599E-09
       126  13 -9.212458E+04 -2.959194E+06 -1.220937E+05 -1.367599E+05 -1.532383E-09  1.307590E-09
       126  14  1.862529E+04 -2.941540E+06 -6.177242E+04  1.090455E+04 -1.073768E-09 -2.058083E-09
       126  15 -2.666351E+02 -2.959064E+06 -5.518204E+04 -1.365114E+05  9.819674E-10  1.537995E-09
       126  16 -4.852451E+05 -4.527496E+06 -5.133086E+05 -1.549398E+05 -5.944991E-10  1.433776E-09
       126  17 -3.072267E+05 -4.245270E+06 -3.821788E+05  9.100308E+03  5.155909E-09  1.037403E-09
       126  18 -2.607939E+05 -4.000035E+06 -3.120062E+05 -1.219711E+05  1.463478E-09 -5.353305E-09
       126  19  3.008122E+05 -1.388641E+06  2.689429E+05 -1.185325E+05 -1.168159E+04  6.008716E+04
       126  20  3.443519E+05 -1.636251E+06  2.585130E+05  1.271312E+04 -3.146802E+04  3.712369E+04
       126  21  2.601805E+05 -1.917099E+06  2.015629E+05 -1.510751E+05 -2.053809E+04  1.428256E+04
       126  22 -9.212304E+04 -2.959189E+06 -1.220837E+05 -1.367606E+05 -1.171689E+04  7.177742E+04
       126  23  1.862676E+04 -2.941539E+06 -6.176775E+04  1.090357E+04 -3.147809E+04  3.858156E+04
       126  24 -2.661765E+02 -2.959064E+06 -5.518119E+04 -1.365115E+05 -2.049570E+04  5.497936E+03
       126  25 -4.852430E+05 -4.527488E+06 -5.132952E+05 -1.549406E+05 -1.175293E+04  8.343787E+04
       126  26 -3.072252E+05 -4.245268E+06 -3.821739E+05  9.099290E+03 -3.148817E+04  4.003630E+04
       126  27 -2.607934E+05 -4.000035E+06 -3.120054E+05 -1.219710E+05 -2.045369E+04 -3.271932E+03
       127   1  9.264261E+04 -2.549872E+06  4.369754E+04 -1.348718E+05  9.630422E+03  2.061751E+03
       127   2  4.303801E+04 -2.816153E+06 -3.098891E+04  1.381111E+04  2.608363E+03  3.421861E+04
       127   3 -8.098788E+04 -3.109336E+06 -1.461549E+05 -1.509114E+05 -4.911150E+03  6.635506E+04
       127   4 -8.934490E+03 -2.956981E+06 -5.626587E+04 -1.406312E+05  9.618778E+03  4.273235E+03
       127   5  1.119172E+04 -2.943516E+06 -6.232620E+04  1.598012E+04  2.595628E+03  3.658809E+04
       127   6 -4.313129E+04 -2.957048E+06 -1.089718E+05 -1.408217E+05 -4.924337E+03  6.889695E+04
       127   7 -1.105238E+05 -3.363938E+06 -1.562414E+05 -1.463867E+05  9.607090E+03  6.483266E+03
       127   8 -2.065576E+04 -3.070864E+06 -9.366466E+04  1.814870E+04  2.582910E+03  3.895708E+04
       127   9 -5.276013E+03 -2.804739E+06 -7.179031E+04 -1.307295E+05 -4.937439E+03  7.143946E+04
       127  10  9.264251E+04 -2.549872E+06  4.369736E+04 -1.348718E+05 -2.836816E-09  2.568085E-09
       127  11  4.303768E+04 -2.816154E+06 -3.099113E+04  1.381104E+04 -4.628414E-10 -6.408807E-09
       127  12 -8.098910E+04 -3.109341E+06 -1.461633E+05 -1.509112E+05  1.037781E-09  6.132155E-10
       127  13 -8.934594E+03 -2.956981E+06 -5.626608E+04 -1.406313E+05 -8.044291E-10  3.169924E-09
       127  14  1.119135E+04 -2.943517E+06 -6.232874E+04  1.598004E+04 -9.361814E-10 -2.406050E-09
       127  15 -4.313260E+04 -2.957053E+06 -1.089808E+05 -1.408214E+05  8.118955E-10  1.746647E-09
       127  16 -1.105239E+05 -3.363938E+06 -1.562417E+05 -1.463868E+05  1.119148E-09 -2.626556E-09
       127  17 -2.065618E+04 -3.070866E+06 -9.366754E+04  1.814862E+04 -1.658795E-11 -2.836520E-10
       127  18 -5.277417E+03 -2.804745E+06 -7.179999E+04 -1.307292E+05 -6.213391E-10 -4.915156E-09
       127  19  9.264261E+04 -2.549872E+06  4.369754E+04 -1.348718E+05 -9.630422E+03 -2.061751E+03
       127  20  4.303801E+04 -2.816153E+06 -3.098891E+04  1.381111E+04 -2.608363E+03 -3.421861E+04
       127  21 -8.098788E+04 -3.109336E+06 -1.461549E+05 -1.509114E+05  4.911150E+03 -6.635506E+04
       127  22 -8.934490E+03 -2.956981E+06 -5.626587E+04 -1.406312E+05 -9.618778E+03 -4.273235E+03
       127  23  1.119172E+04 -2.943516E+06 -6.232620E+04  1.598012E+04 -2.595628E+03 -3.658809E+04
       127  24 -4.313129E+04 -2.957048E+06 -1.089718E+05 -1.408217E+05  4.924337E+03 -6.889695E+04
       127  25 -1.105238E+05 -3.363938E+06 -1.562414E+05 -1.463867E+05 -9.607090E+03 -6.483266E+03
       127  26 -2.065576E+04 -3.070864E+06 -9.366466E+04  1.814870E+04 -2.582910E+03 -3.895708E+04
       127  27 -5.276013E+03 -2.804739E+06 -7.179031E+04 -1.307295E+05  4.937439E+03 -7.143946E+04
       128   1 -1.837757E+05 -3.772918E+06 -3.247969E+05 -9.867261E+04 -1.536581E+04  8.162258E+04
       128   2 -1.979651E+05 -3.976551E+06 -4.557526E+05 -4.564056E+03 -2.656786E+04  1.962564E+05
       128   3 -6.789813E+05 -4.312454E+06 -7.785318E+05 -2.125509E+05 -1.081491E+04  3.109585E+05
       128   4  1.502501E+04 -2.980114E+06 -1.289978E+05 -1.376991E+05 -1.541344E+04  8.977023E+04
       128   5  6.709046E+04 -2.915108E+06 -1.950023E+05  1.270544E+04 -2.655534E+04  1.955483E+05
       128   6 -3.456854E+05 -2.980624E+06 -4.463925E+05 -1.389835E+05 -1.074151E+04  3.014461E+05
       128   7  2.137839E+05 -2.186731E+06  6.675555E+04 -1.767750E+05 -1.546207E+04  9.792827E+04
       128   8  3.320633E+05 -1.852632E+06  6.566525E+04  3.000579E+04 -2.654288E+04  1.948389E+05
       128   9 -1.250223E+04 -1.647162E+06 -1.143834E+05 -6.525566E+04 -1.067049E+04  2.919127E+05
       128  10 -1.837777E+05 -3.772925E+06 -3.248100E+05 -9.867160E+04  8.100747E-10  1.192886E-09
       128  11 -1.979762E+05 -3.976593E+06 -4.558268E+05 -4.559849E+03  9.745577E-10 -5.500906E-09
       128  12 -6.790076E+05 -4.312559E+06 -7.787149E+05 -2.125482E+05 -9.614865E-11 -5.854790E-10
       128  13  1.502258E+04 -2.980123E+06 -1.290134E+05 -1.376980E+05  2.038993E-11  2.780823E-09
       128  14  6.707937E+04 -2.915150E+06 -1.950758E+05  1.270963E+04  1.199142E-09 -2.881778E-09
       128  15 -3.457100E+05 -2.980722E+06 -4.465642E+05 -1.389809E+05  3.631277E-09  5.999002E-10
       128  16  2.137811E+05 -2.186742E+06  6.673702E+04 -1.767738E+05 -5.327285E-10 -1.007569E-09
       128  17  3.320523E+05 -1.852673E+06  6.559236E+04  3.000996E+04  1.229769E-09 -2.569445E-10
       128  18 -1.252530E+04 -1.647254E+06 -1.145442E+05 -6.525315E+04  2.220086E-09 -2.074515E-09
       128  19 -1.837757E+05 -3.772918E+06 -3.247969E+05 -9.867261E+04  1.536581E+04 -8.162258E+04
       128  20 -1.979651E+05 -3.976551E+06 -4.557526E+05 -4.564056E+03  2.656786E+04 -1.962564E+05
       128  21 -6.789813E+05 -4.312454E+06 -7.785318E+05 -2.125509E+05  1.081491E+04 -3.109585E+05
       128  22  1.502501E+04 -2.980114E+06 -1.289978E+05 -1.376991E+05  1.541344E+04 -8.977023E+04
       128  23  6.709046E+04 -2.915108E+06 -1.950023E+05  1.270544E+04  2.655534E+04 -1.955483E+05
       128  24 -3.456854E+05 -2.980624E+06 -4.463925E+05 -1.389835E+05  1.074151E+04 -3.014461E+05
       128  25  2.137839E+05 -2.186731E+06  6.675555E+04 -1.767750E+05  1.546207E+04 -9.792827E+04
       128  26  3.320633E+05 -1.852632E+06  6.566525E+04  3.000579E+04  2.654288E+04 -1.948389E+05
       128  27 -1.250223E+04 -1.647162E+06 -1.143834E+05 -6.525566E+04  1.067049E+04 -2.919127E+05
       129   1 -3.055143E+06 -6.196606E+05 -2.353279E+05 -1.102898E+06 -1.181372E+05 -4.307155E+04
       129   2 -3.022561E+06 -4.531729E+05 -1.264831E+05 -1.138380E+06 -7.673264E+04 -2.442341E+04
       129   3 -3.065646E+06 -4.651813E+05 -9.882802E+04 -1.124409E+06 -3.424428E+04 -8.649529E+03
       129   4 -2.887407E+06 -5.323769E+05 -1.844180E+05 -1.032966E+06 -1.170626E+05 -4.267186E+04
       129   5 -2.840263E+06 -3.779167E+05 -7.557443E+04 -1.082275E+06 -7.641999E+04 -2.430660E+04
       129   6 -2.868615E+06 -4.017706E+05 -4.729727E+04 -1.082138E+06 -3.469257E+04 -8.817748E+03
       129   7 -2.719643E+06 -4.450832E+05 -1.335110E+05 -9.630149E+05 -1.159877E+05 -4.227194E+04
       129   8 -2.657932E+06 -3.026569E+05 -2.466894E+04 -1.026155E+06 -7.610724E+04 -2.418973E+04
       129   9 -2.671546E+06 -3.383599E+05  4.230411E+03 -1.039855E+06 -3.514102E+04 -8.986007E+03
       129  10 -3.055159E+06 -6.196664E+05 -2.353578E+05 -1.102902E+06 -2.601483E-10 -4.578317E-10
       129  11 -3.022568E+06 -4.531751E+05 -1.264953E+05 -1.138381E+06 -1.096029E-09 -1.759524E-09
       129  12 -3.065648E+06 -4.651817E+05 -9.883038E+04 -1.124410E+06  1.914347E-09 -5.647305E-10
       129  13 -2.887423E+06 -5.323825E+05 -1.844474E+05 -1.032970E+06 -2.375236E-09 -1.017499E-10
       129  14 -2.840269E+06 -3.779189E+05 -7.558658E+04 -1.082277E+06 -1.077205E-09  4.003193E-10
       129  15 -2.868616E+06 -4.017710E+05 -4.729969E+04 -1.082138E+06 -9.875778E-10  8.149098E-10
       129  16 -2.719658E+06 -4.450888E+05 -1.335398E+05 -9.630189E+05  1.099590E-09 -9.307734E-10
       129  17 -2.657939E+06 -3.026591E+05 -2.468098E+04 -1.026156E+06  3.684473E-10  9.564992E-10
       129  18 -2.671548E+06 -3.383603E+05  4.227926E+03 -1.039855E+06 -2.462950E-09  1.497424E-09
       129  19 -3.055143E+06 -6.196606E+05 -2.353279E+05 -1.102898E+06  1.181372E+05  4.307155E+04
       129  20 -3.022561E+06 -4.531729E+05 -1.264831E+05 -1.138380E+06  7.673264E+04  2.442341E+04
       129  21 -3.065646E+06 -4.651813E+05 -9.882802E+04 -1.124409E+06  3.424428E+04  8.649529E+03
       129  22 -2.887407E+06 -5.323769E+05 -1.844180E+05 -1.032966E+06  1.170626E+05  4.267186E+04
       129  23 -2.840263E+06 -3.779167E+05 -7.557443E+04 -1.082275E+06  7.641999E+04  2.430660E+04
       129  24 -2.868615E+06 -4.017706E+05 -4.729727E+04 -1.082138E+06  3.469257E+04  8.817748E+03
       129  25 -2.719643E+06 -4.450832E+05 -1.335110E+05 -9.630149E+05  1.159877E+05  4.227194E+04
       129  26 -2.657932E+06 -3.026569E+05 -2.466894E+04 -1.026155E+06  7.610724E+04  2.418973E+04
       129  27 -2.671546E+06 -3.383599E+05  4.230411E+03 -1.039855E+06  3.514102E+04  8.986007E+03
       130   1 -3.045066E+06 -4.968728E+05 -8.968819E+04 -1.125033E+06 -2.762565E+04 -6.638896E+03
       130   2 -3.038353E+06 -4.701729E+05 -6.753415E+04 -1.126473E+06 -1.817059E+04 -2.776578E+03
       130   3 -3.038407E+06 -4.724409E+05 -5.936749E+04 -1.125849E+06 -8.518736E+03  5.628344E+02
       130   4 -2.861287E+06 -4.241646E+05 -3.886971E+04 -1.071734E+06 -2.749027E+04 -6.588162E+03
       130   5 -2.856616E+06 -4.006356E+05 -1.781209E+04 -1.076170E+06 -1.817289E+04 -2.777557E+03
       130   6 -2.858682E+06 -4.060422E+05 -1.062908E+04 -1.078541E+06 -8.658809E+03  5.101094E+02
       130   7 -2.677476E+06 -3.514536E+05  1.194563E+04 -1.018421E+06 -2.735483E+04 -6.537409E+03
       130   8 -2.674847E+06 -3.310962E+05  3.190691E+04 -1.025853E+06 -1.817520E+04 -2.778535E+03
       130   9 -2.678926E+06 -3.396423E+05  3.810637E+04 -1.031221E+06 -8.798926E+03  4.573686E+02
       130  10 -3.045067E+06 -4.968731E+05 -8.968971E+04 -1.125033E+06  3.483364E-09  7.645090E-10
       130  11 -3.038353E+06 -4.701730E+05 -6.753479E+04 -1.126473E+06  6.856733E-10 -4.001549E-10
       130  12 -3.038408E+06 -4.724409E+05 -5.936763E+04 -1.125849E+06  1.159857E-09  7.900779E-10
       130  13 -2.861288E+06 -4.241648E+05 -3.887122E+04 -1.071734E+06  2.917177E-09 -5.922817E-10
       130  14 -2.856616E+06 -4.006357E+05 -1.781273E+04 -1.076170E+06  4.037376E-09 -1.058852E-09
       130  15 -2.858682E+06 -4.060423E+05 -1.062922E+04 -1.078541E+06  4.708479E-10  6.695138E-10
       130  16 -2.677477E+06 -3.514538E+05  1.194413E+04 -1.018421E+06 -2.521908E-09  6.772009E-10
       130  17 -2.674848E+06 -3.310963E+05  3.190627E+04 -1.025853E+06 -1.427907E-09 -6.827112E-11
       130  18 -2.678926E+06 -3.396423E+05  3.810622E+04 -1.031221E+06 -1.116199E-09  2.547459E-09
       130  19 -3.045066E+06 -4.968728E+05 -8.968819E+04 -1.125033E+06  2.762565E+04  6.638896E+03
       130  20 -3.038353E+06 -4.701729E+05 -6.753415E+04 -1.126473E+06  1.817059E+04  2.776578E+03
       130  21 -3.038407E+06 -4.724409E+05 -5.936749E+04 -1.125849E+06  8.518736E+03 -5.628344E+02
       130  22 -2.861287E+06 -4.241646E+05 -3.886971E+04 -1.071734E+06  2.749027E+04  6.588162E+03
       130  23 -2.856616E+06 -4.006356E+05 -1.781209E+04 -1.076170E+06  1.817289E+04  2.777557E+03
       130  24 -2.858682E+06 -4.060422E+05 -1.062908E+04 -1.078541E+06  8.658809E+03 -5.101094E+02
       130  25 -2.677476E+06 -3.514536E+05  1.194563E+04 -1.018421E+06  2.735483E+04  6.537409E+03
       130  26 -2.674847E+06 -3.310962E+05  3.190691E+04 -1.025853E+06  1.817520E+04  2.778535E+03
       130  27 -2.678926E+06 -3.396423E+05  3.810637E+04 -1.031221E+06  8.798926E+03 -4.573686E+02
       131   1 -3.013733E+06 -4.699207E+05 -5.140249E+04 -1.121395E+06 -6.976110E+03  9.109976E+02
       131   2 -3.008630E+06 -4.587681E+05 -4.479291E+04 -1.114409E+06 -4.627613E+03  1.533477E+03
       131   3 -2.995985E+06 -4.602010E+05 -4.081162E+04 -1.116906E+06 -2.208683E+03  1.968172E+03
       131   4 -2.856601E+06 -4.101035E+05 -8.477929E+03 -1.078213E+06 -7.013229E+03  8.969768E+02
       131   5 -2.860198E+06 -4.025725E+05 -4.296468E+03 -1.073937E+06 -4.714606E+03  1.500739E+03
       131   6 -2.856244E+06 -4.076164E+05 -2.703136E+03 -1.079145E+06 -2.345595E+03  1.916722E+03
       131   7 -2.699445E+06 -3.502847E+05  3.444446E+04 -1.035021E+06 -7.050358E+03  8.829520E+02
       131   8 -2.711746E+06 -3.463755E+05  3.619801E+04 -1.033457E+06 -4.801621E+03  1.467993E+03
       131   9 -2.716484E+06 -3.550307E+05  3.540358E+04 -1.041377E+06 -2.482541E+03  1.865259E+03
       131  10 -3.013733E+06 -4.699207E+05 -5.140258E+04 -1.121395E+06  1.516131E-09  1.477211E-09
       131  11 -3.008630E+06 -4.587681E+05 -4.479296E+04 -1.114409E+06 -1.093542E-09  8.330962E-10
       131  12 -2.995985E+06 -4.602011E+05 -4.081164E+04 -1.116906E+06 -2.769992E-09 -8.131388E-10
       131  13 -2.856601E+06 -4.101035E+05 -8.478023E+03 -1.078213E+06  1.201813E-09  9.740507E-10
       131  14 -2.860198E+06 -4.025725E+05 -4.296514E+03 -1.073937E+06 -1.504022E-09  6.835543E-11
       131  15 -2.856244E+06 -4.076164E+05 -2.703153E+03 -1.079145E+06  2.262940E-10 -2.748945E-10
       131  16 -2.699445E+06 -3.502847E+05  3.444436E+04 -1.035021E+06 -5.737717E-10  1.387821E-09
       131  17 -2.711746E+06 -3.463755E+05  3.619797E+04 -1.033457E+06  5.573904E-10 -6.452565E-10
       131  18 -2.716484E+06 -3.550307E+05  3.540357E+04 -1.041377E+06  5.218097E-10  2.042806E-10
       131  19 -3.013733E+06 -4.699207E+05 -5.140249E+04 -1.121395E+06  6.976110E+03 -9.109976E+02
       131  20 -3.008630E+06 -4.587681E+05 -4.479291E+04 -1.114409E+06  4.627613E+03 -1.533477E+03
       131  21 -2.995985E+06 -4.602010E+05 -4.081162E+04 -1.116906E+06  2.208683E+03 -1.968172E+03
       131  22 -2.856601E+06 -4.101035E+05 -8.477929E+03 -1.078213E+06  7.013229E+03 -8.969768E+02
       131  23 -2.860198E+06 -4.025725E+05 -4.296468E+03 -1.073937E+06  4.714606E+03 -1.500739E+03
       131  24 -2.856244E+06 -4.076164E+05 -2.703136E+03 -1.079145E+06  2.345595E+03 -1.916722E+03
       131  25 -2.699445E+06 -3.502847E+05  3.444446E+04 -1.035021E+06  7.050358E+03 -8.829520E+02
       131  26 -2.711746E+06 -3.463755E+05  3.619801E+04 -1.033457E+06  4.801621E+03 -1.467993E+03
       131  27 -2.716484E+06 -3.550307E+05  3.540358E+04 -1.041377E+06  2.482541E+03 -1.865259E+03
       132   1 -2.958836E+06 -4.480211E+05 -3.049866E+04 -1.108123E+06 -1.731090E+03  1.845275E+03
       132   2 -2.952419E+06 -4.362889E+05 -2.653236E+04 -1.097361E+06 -6.581422E+02  1.752166E+03
       132   3 -2.933485E+06 -4.381598E+05 -2.343446E+04 -1.101168E+06  4.499102E+02  1.565071E+03
       132   4 -2.855278E+06 -4.088375E+05 -2.286105E+03 -1.079901E+06 -1.835314E+03  1.806123E+03
       132   5 -2.861526E+06 -4.019484E+05 -1.748418E+03 -1.072651E+06 -7.874629E+02  1.703618E+03
       132   6 -2.855252E+06 -4.086571E+05 -2.059083E+03 -1.079969E+06  2.954684E+02  1.507127E+03
       132   7 -2.751709E+06 -3.696534E+05  2.592546E+04 -1.051674E+06 -1.939557E+03  1.766964E+03
       132   8 -2.770625E+06 -3.676074E+05  2.303473E+04 -1.047937E+06 -9.168043E+02  1.655063E+03
       132   9 -2.777014E+06 -3.791540E+05  1.931567E+04 -1.058767E+06  1.410056E+02  1.449176E+03
       132  10 -2.958836E+06 -4.480211E+05 -3.049867E+04 -1.108123E+06 -6.868907E-10  3.107669E-10
       132  11 -2.952419E+06 -4.362889E+05 -2.653237E+04 -1.097361E+06  1.437836E-09  3.099037E-10
       132  12 -2.933485E+06 -4.381598E+05 -2.343447E+04 -1.101168E+06  1.244797E-09 -4.749877E-10
       132  13 -2.855278E+06 -4.088375E+05 -2.286117E+03 -1.079901E+06 -2.196971E-09  9.394236E-11
       132  14 -2.861526E+06 -4.019484E+05 -1.748425E+03 -1.072651E+06  8.603451E-10 -1.039376E-10
       132  15 -2.855252E+06 -4.086571E+05 -2.059088E+03 -1.079969E+06 -7.917881E-10 -9.442282E-10
       132  16 -2.751709E+06 -3.696534E+05  2.592545E+04 -1.051674E+06  1.088160E-09 -1.219183E-10
       132  17 -2.770625E+06 -3.676074E+05  2.303472E+04 -1.047937E+06 -2.343859E-09 -7.093586E-10
       132  18 -2.777014E+06 -3.791540E+05  1.931567E+04 -1.058767E+06 -1.750047E-09 -7.290157E-10
       132  19 -2.958836E+06 -4.480211E+05 -3.049866E+04 -1.108123E+06  1.731090E+03 -1.845275E+03
       132  20 -2.952419E+06 -4.362889E+05 -2.653236E+04 -1.097361E+06  6.581422E+02 -1.752166E+03
       132  21 -2.933485E+06 -4.381598E+05 -2.343446E+04 -1.101168E+06 -4.499102E+02 -1.565071E+03
       132  22 -2.855278E+06 -4.088375E+05 -2.286105E+03 -1.079901E+06  1.835314E+03 -1.806123E+03
       132  23 -2.861526E+06 -4.019484E+05 -1.748418E+03 -1.072651E+06  7.874629E+02 -1.703618E+03
       132  24 -2.855252E+06 -4.086571E+05 -2.059083E+03 -1.079969E+06 -2.954684E+02 -1.507127E+03
       132  25 -2.751709E+06 -3.696534E+05  2.592546E+04 -1.051674E+06  1.939557E+03 -1.766964E+03
       132  26 -2.770625E+06 -3.676074E+05  2.303473E+04 -1.047937E+06  9.168043E+02 -1.655063E+03
       132  27 -2.777014E+06 -3.791540E+05  1.931567E+04 -1.058767E+06 -1.410056E+02 -1.449176E+03
       133   1 -2.887832E+06 -4.214396E+05 -1.134594E+04 -1.089568E+06  9.305789E+02  1.372784E+03
       133   2 -2.880436E+06 -4.082739E+05 -8.811568E+03 -1.077143E+06  3.042906E+03  1.548276E+03
       133   3 -2.859405E+06 -4.115834E+05 -8.211847E+03 -1.081017E+06  5.159483E+03  1.712370E+03
       133   4 -2.854948E+06 -4.089039E+05 -2.407778E+03 -1.080499E+06  7.869107E+02  1.318898E+03
       133   5 -2.861854E+06 -4.012822E+05 -3.750573E+03 -1.072120E+06  2.896229E+03  1.493265E+03
       133   6 -2.855125E+06 -4.101350E+05 -7.025531E+03 -1.080040E+06  5.009748E+03  1.656216E+03
       133   7 -2.822062E+06 -3.963680E+05  6.530321E+03 -1.071431E+06  6.432335E+02  1.265007E+03
       133   8 -2.843272E+06 -3.942904E+05  1.310405E+03 -1.067098E+06  2.749548E+03  1.438252E+03
       133   9 -2.850846E+06 -4.086866E+05 -5.839213E+03 -1.079063E+06  4.860012E+03  1.600061E+03
       133  10 -2.887832E+06 -4.214397E+05 -1.134595E+04 -1.089568E+06 -1.081870E-09 -6.482036E-10
       133  11 -2.880436E+06 -4.082739E+05 -8.811590E+03 -1.077143E+06  4.314190E-10  2.140747E-11
       133  12 -2.859405E+06 -4.115834E+05 -8.211903E+03 -1.081017E+06  1.967205E-10 -9.386822E-11
       133  13 -2.854948E+06 -4.089039E+05 -2.407782E+03 -1.080499E+06  2.644728E-10 -4.533059E-10
       133  14 -2.861854E+06 -4.012822E+05 -3.750593E+03 -1.072120E+06  1.424701E-10  9.967957E-11
       133  15 -2.855125E+06 -4.101350E+05 -7.025583E+03 -1.080040E+06  2.326470E-09  2.933061E-10
       133  16 -2.822062E+06 -3.963680E+05  6.530317E+03 -1.071431E+06  1.313662E-09 -5.810674E-10
       133  17 -2.843272E+06 -3.942904E+05  1.310386E+03 -1.067098E+06 -2.122742E-09  6.291347E-10
       133  18 -2.850846E+06 -4.086866E+05 -5.839263E+03 -1.079063E+06  6.418503E-11 -6.707888E-10
       133  19 -2.887832E+06 -4.214396E+05 -1.134594E+04 -1.089568E+06 -9.305789E+02 -1.372784E+03
       133  20 -2.880436E+06 -4.082739E+05 -8.811568E+03 -1.077143E+06 -3.042906E+03 -1.548276E+03
       133  21 -2.859405E+06 -4.115834E+05 -8.211847E+03 -1.081017E+06 -5.159483E+03 -1.712370E+03
       133  22 -2.854948E+06 -4.089039E+05 -2.407778E+03 -1.080499E+06 -7.869107E+02 -1.318898E+03
       133  23 -2.861854E+06 -4.012822E+05 -3.750573E+03 -1.072120E+06 -2.896229E+03 -1.493265E+03
       133  24 -2.855125E+06 -4.101350E+05 -7.025531E+03 -1.080040E+06 -5.009748E+03 -1.656216E+03
       133  25 -2.822062E+06 -3.963680E+05  6.530321E+03 -1.071431E+06 -6.432335E+02 -1.265007E+03
       133  26 -2.843272E+06 -3.942904E+05  1.310405E+03 -1.067098E+06 -2.749548E+03 -1.438252E+03
       133  27 -2.850846E+06 -4.086866E+05 -5.839213E+03 -1.079063E+06 -4.860012E+03 -1.600061E+03
       134   1 -2.812489E+06 -3.930268E+05  2.706250E+03 -1.069874E+06  6.622824E+03  1.869745E+03
       134   2 -2.804209E+06 -3.780947E+05 -8.451309E+01 -1.056955E+06  1.480189E+04  4.303663E+03
       134   3 -2.787891E+06 -3.903043E+05 -1.239900E+04 -1.056903E+06  2.294389E+04  6.837505E+03
       134   4 -2.855811E+06 -4.085426E+05 -8.991697E+03 -1.080763E+06  6.459831E+03  1.808627E+03
       134   5 -2.860499E+06 -3.996653E+05 -1.549121E+04 -1.072573E+06  1.466498E+04  4.252288E+03
       134   6 -2.857157E+06 -4.179358E+05 -3.153601E+04 -1.077250E+06  2.283289E+04  6.795778E+03
       134   7 -2.899130E+06 -4.240582E+05 -2.068978E+04 -1.091651E+06  6.296851E+03  1.747512E+03
       134   8 -2.916787E+06 -4.212356E+05 -3.089818E+04 -1.088189E+06  1.452808E+04  4.200919E+03
       134   9 -2.926419E+06 -4.455670E+05 -5.067349E+04 -1.097594E+06  2.272191E+04  6.754057E+03
       134  10 -2.812489E+06 -3.930268E+05  2.706161E+03 -1.069874E+06  9.840445E-10  6.830454E-10
       134  11 -2.804209E+06 -3.780948E+05 -8.496191E+01 -1.056955E+06  2.678586E-09  3.782601E-10
       134  12 -2.787892E+06 -3.903045E+05 -1.240008E+04 -1.056903E+06 -6.132298E-10 -2.150828E-10
       134  13 -2.855811E+06 -4.085426E+05 -8.991782E+03 -1.080763E+06  8.705977E-10  3.176157E-10
       134  14 -2.860499E+06 -3.996654E+05 -1.549165E+04 -1.072573E+06 -1.243701E-10 -9.097648E-10
       134  15 -2.857158E+06 -4.179360E+05 -3.153708E+04 -1.077250E+06 -2.684862E-10 -8.259893E-10
       134  16 -2.899130E+06 -4.240582E+05 -2.068986E+04 -1.091651E+06  2.711720E-09  6.314911E-10
       134  17 -2.916787E+06 -4.212357E+05 -3.089861E+04 -1.088189E+06  4.399456E-10 -1.743741E-10
       134  18 -2.926419E+06 -4.455672E+05 -5.067455E+04 -1.097594E+06 -4.459470E-10 -2.662894E-10
       134  19 -2.812489E+06 -3.930268E+05  2.706250E+03 -1.069874E+06 -6.622824E+03 -1.869745E+03
       134  20 -2.804209E+06 -3.780947E+05 -8.451309E+01 -1.056955E+06 -1.480189E+04 -4.303663E+03
       134  21 -2.787891E+06 -3.903043E+05 -1.239900E+04 -1.056903E+06 -2.294389E+04 -6.837505E+03
       134  22 -2.855811E+06 -4.085426E+05 -8.991697E+03 -1.080763E+06 -6.459831E+03 -1.808627E+03
       134  23 -2.860499E+06 -3.996653E+05 -1.549121E+04 -1.072573E+06 -1.466498E+04 -4.252288E+03
       134  24 -2.857157E+06 -4.179358E+05 -3.153601E+04 -1.077250E+06 -2.283289E+04 -6.795778E+03
       134  25 -2.899130E+06 -4.240582E+05 -2.068978E+04 -1.091651E+06 -6.296851E+03 -1.747512E+03
       134  26 -2.916787E+06 -4.212356E+05 -3.089818E+04 -1.088189E+06 -1.452808E+04 -4.200919E+03
       134  27 -2.926419E+06 -4.455670E+05 -5.067349E+04 -1.097594E+06 -2.272191E+04 -6.754057E+03
       135   1 -2.745317E+06 -3.685880E+05 -9.241017E+03 -1.057405E+06  2.902380E+04  8.721146E+03
       135   2 -2.731124E+06 -3.392193E+05 -3.336210E+04 -1.039837E+06  6.443189E+04  2.144334E+04
       135   3 -2.745846E+06 -4.156144E+05 -1.096100E+05 -1.011182E+06  9.965987E+04  3.464602E+04
       135   4 -2.861267E+06 -4.064377E+05 -3.972347E+04 -1.082795E+06  2.882195E+04  8.645715E+03
       135   5 -2.851669E+06 -3.876298E+05 -6.678708E+04 -1.075564E+06  6.435217E+04  2.141300E+04
       135   6 -2.871019E+06 -4.746224E+05 -1.460829E+05 -1.057245E+06  9.970205E+04  3.465947E+04
       135   7 -2.977203E+06 -4.442874E+05 -7.020699E+04 -1.108181E+06  2.862014E+04  8.570295E+03
       135   8 -2.972201E+06 -4.360390E+05 -1.002134E+05 -1.111285E+06  6.427246E+04  2.138267E+04
       135   9 -2.996177E+06 -5.336268E+05 -1.825574E+05 -1.103298E+06  9.974421E+04  3.467291E+04
       135  10 -2.745318E+06 -3.685883E+05 -9.242752E+03 -1.057406E+06  8.146363E-10 -7.864417E-11
       135  11 -2.731129E+06 -3.392209E+05 -3.337081E+04 -1.039839E+06  1.330320E-09  4.482718E-10
       135  12 -2.745857E+06 -4.156184E+05 -1.096311E+05 -1.011185E+06 -2.025111E-09  2.834182E-10
       135  13 -2.861267E+06 -4.064380E+05 -3.972519E+04 -1.082796E+06 -2.039214E-09 -1.468905E-10
       135  14 -2.851674E+06 -3.876314E+05 -6.679577E+04 -1.075566E+06 -8.876183E-10  3.094433E-10
       135  15 -2.871030E+06 -4.746264E+05 -1.461040E+05 -1.057248E+06 -1.172749E-09 -5.594827E-11
       135  16 -2.977204E+06 -4.442877E+05 -7.020868E+04 -1.108182E+06 -4.987927E-10 -3.246691E-10
       135  17 -2.972205E+06 -4.360406E+05 -1.002221E+05 -1.111286E+06 -1.027383E-09  5.304108E-10
       135  18 -2.996188E+06 -5.336308E+05 -1.825785E+05 -1.103301E+06 -1.416314E-10 -3.338840E-10
       135  19 -2.745317E+06 -3.685880E+05 -9.241017E+03 -1.057405E+06 -2.902380E+04 -8.721146E+03
       135  20 -2.731124E+06 -3.392193E+05 -3.336210E+04 -1.039837E+06 -6.443189E+04 -2.144334E+04
       135  21 -2.745846E+06 -4.156144E+05 -1.096100E+05 -1.011182E+06 -9.965987E+04 -3.464602E+04
       135  22 -2.861267E+06 -4.064377E+05 -3.972347E+04 -1.082795E+06 -2.882195E+04 -8.645715E+03
       135  23 -2.851669E+06 -3.876298E+05 -6.678708E+04 -1.075564E+06 -6.435217E+04 -2.141300E+04
       135  24 -2.871019E+06 -4.746224E+05 -1.460829E+05 -1.057245E+06 -9.970205E+04 -3.465947E+04
       135  25 -2.977203E+06 -4.442874E+05 -7.020699E+04 -1.108181E+06 -2.862014E+04 -8.570295E+03
       135  26 -2.972201E+06 -4.360390E+05 -1.002134E+05 -1.111285E+06 -6.427246E+04 -2.138267E+04
       135  27 -2.996177E+06 -5.336268E+05 -1.825574E+05 -1.103298E+06 -9.974421E+04 -3.467291E+04
       136   1 -2.701503E+06 -3.631807E+05 -1.333743E+05 -1.091267E+06  1.269657E+05  4.419016E+04
       136   2 -2.642890E+06 -2.165176E+05 -2.379214E+05 -1.027653E+06  2.830400E+05  1.023106E+05
       136   3 -2.853754E+06 -7.548554E+05 -6.447820E+05 -7.949701E+05  4.379893E+05  1.634422E+05
       136   4 -2.894756E+06 -3.942093E+05 -1.777713E+05 -1.100697E+06  1.264081E+05  4.399133E+04
       136   5 -2.795042E+06 -2.973123E+05 -2.839510E+05 -1.092967E+06  2.832480E+05  1.023754E+05
       136   6 -2.965043E+06 -8.856904E+05 -6.931141E+05 -9.161416E+05  4.389737E+05  1.637337E+05
       136   7 -3.087970E+06 -4.252376E+05 -2.221696E+05 -1.110127E+06  1.258506E+05  4.379247E+04
       136   8 -2.947170E+06 -3.780977E+05 -3.299827E+05 -1.158265E+06  2.834559E+05  1.024401E+05
       136   9 -3.076300E+06 -1.016469E+06 -7.414437E+05 -1.037282E+06  4.399580E+05  1.640247E+05
       136  10 -2.701520E+06 -3.631872E+05 -1.334084E+05 -1.091272E+06 -1.928079E-09  8.559133E-10
       136  11 -2.642979E+06 -2.165505E+05 -2.380925E+05 -1.027676E+06 -3.149659E-09  3.031492E-09
       136  12 -2.853968E+06 -7.549360E+05 -6.451948E+05 -7.950280E+05 -7.061577E-10  2.145630E-09
       136  13 -2.894774E+06 -3.942157E+05 -1.778051E+05 -1.100701E+06  1.996599E-09  3.840949E-10
       136  14 -2.795131E+06 -2.973453E+05 -2.841224E+05 -1.092991E+06  3.116086E-10  1.346961E-09
       136  15 -2.965258E+06 -8.857714E+05 -6.935288E+05 -9.161997E+05 -4.177489E-10  8.519236E-10
       136  16 -3.087987E+06 -4.252439E+05 -2.222031E+05 -1.110131E+06  2.586476E-09  6.260434E-10
       136  17 -2.947259E+06 -3.781307E+05 -3.301544E+05 -1.158288E+06  3.223445E-09  7.888747E-10
       136  18 -3.076516E+06 -1.016550E+06 -7.418603E+05 -1.037340E+06 -3.588491E-10  8.132126E-10
       136  19 -2.701503E+06 -3.631807E+05 -1.333743E+05 -1.091267E+06 -1.269657E+05 -4.419016E+04
       136  20 -2.642890E+06 -2.165176E+05 -2.379214E+05 -1.027653E+06 -2.830400E+05 -1.023106E+05
       136  21 -2.853754E+06 -7.548554E+05 -6.447820E+05 -7.949701E+05 -4.379893E+05 -1.634422E+05
       136  22 -2.894756E+06 -3.942093E+05 -1.777713E+05 -1.100697E+06 -1.264081E+05 -4.399133E+04
       136  23 -2.795042E+06 -2.973123E+05 -2.839510E+05 -1.092967E+06 -2.832480E+05 -1.023754E+05
       136  24 -2.965043E+06 -8.856904E+05 -6.931141E+05 -9.161416E+05 -4.389737E+05 -1.637337E+05
       136  25 -3.087970E+06 -4.252376E+05 -2.221696E+05 -1.110127E+06 -1.258506E+05 -4.379247E+04
       136  26 -2.947170E+06 -3.780977E+05 -3.299827E+05 -1.158265E+06 -2.834559E+05 -1.024401E+05
       136  27 -3.076300E+06 -1.016469E+06 -7.414437E+05 -1.037282E+06 -4.399580E+05 -1.640247E+05
       137   1 -6.582715E+05  1.858021E+04  4.381146E+04  7.668048E+03  7.371205E+04  1.872196E+03
       137   2 -6.608599E+05 -8.076451E+04 -1.498372E+04  4.603469E+03  4.909213E+04  5.243417E+03
       137   3 -6.307631E+05 -6.329879E+04 -2.847893E+04 -1.638900E+04  2.447554E+04  4.430475E+03
       137   4 -3.909765E+05  8.532525E+04  1.103283E+05 -8.602944E+03  7.531511E+04  1.872095E+03
       137   5 -4.074280E+05 -1.757262E+04  4.743492E+04  4.116310E+02  4.948101E+04  5.243297E+03
       137   6 -3.909974E+05 -3.475293E+03  3.067124E+04 -8.501061E+03  2.365083E+04  4.430130E+03
       137   7 -1.236159E+05  1.520659E+05  1.768400E+05 -2.488097E+04  7.691885E+04  1.871910E+03
       137   8 -1.539375E+05  4.561455E+04  1.098488E+05 -3.781936E+03  4.987004E+04  5.243173E+03
       137   9 -1.511792E+05  5.634415E+04  8.981719E+04 -6.100809E+02  2.282580E+04  4.429764E+03
       137  10 -6.582774E+05  1.857875E+04  4.380123E+04  7.667936E+03 -1.036768E-09 -1.125611E-09
       137  11 -6.608625E+05 -8.076518E+04 -1.498830E+04  4.603262E+03  2.976969E-10 -7.852336E-11
       137  12 -6.307638E+05 -6.329897E+04 -2.848010E+04 -1.638908E+04 -1.178816E-09 -9.056569E-10
       137  13 -3.909826E+05  8.532373E+04  1.103177E+05 -8.603058E+03 -1.154577E-10  6.122252E-10
       137  14 -4.074306E+05 -1.757331E+04  4.743027E+04  4.114220E+02 -1.225379E-09 -4.584569E-10
       137  15 -3.909980E+05 -3.475465E+03  3.067015E+04 -8.501146E+03  1.780982E-09 -9.021984E-10
       137  16 -1.236223E+05  1.520643E+05  1.768289E+05 -2.488109E+04 -1.626292E-09  5.870763E-10
       137  17 -1.539402E+05  4.561385E+04  1.098441E+05 -3.782147E+03 -2.514761E-10 -3.695102E-10
       137  18 -1.511798E+05  5.634399E+04  8.981617E+04 -6.101623E+02 -5.343456E-10  1.378440E-09
       137  19 -6.582715E+05  1.858021E+04  4.381146E+04  7.668048E+03 -7.371205E+04 -1.872196E+03
       137  20 -6.608599E+05 -8.076451E+04 -1.498372E+04  4.603469E+03 -4.909213E+04 -5.243417E+03
       137  21 -6.307631E+05 -6.329879E+04 -2.847893E+04 -1.638900E+04 -2.447554E+04 -4.430475E+03
       137  22 -3.909765E+05  8.532525E+04  1.103283E+05 -8.602944E+03 -7.531511E+04 -1.872095E+03
       137  23 -4.074280E+05 -1.757262E+04  4.743492E+04  4.116310E+02 -4.948101E+04 -5.243297E+03
       137  24 -3.909974E+05 -3.475293E+03  3.067124E+04 -8.501061E+03 -2.365083E+04 -4.430130E+03
       137  25 -1.236159E+05  1.520659E+05  1.768400E+05 -2.488097E+04 -7.691885E+04 -1.871910E+03
       137  26 -1.539375E+05  4.561455E+04  1.098488E+05 -3.781936E+03 -4.987004E+04 -5.243173E+03
       137  27 -1.511792E+05  5.634415E+04  8.981719E+04 -6.100809E+02 -2.282580E+04 -4.429764E+03
       138   1 -5.957634E+05 -3.790517E+04 -2.375058E+04 -6.708126E+03  1.860270E+04  3.501728E+03
       138   2 -5.837601E+05 -4.833439E+04 -3.311813E+04  1.160778E+03  1.236332E+04  3.474119E+03
       138   3 -5.668148E+05 -4.278389E+04 -3.439840E+04 -9.852416E+03  6.123794E+03  2.917388E+03
       138   4 -3.971906E+05  1.163195E+04  2.526466E+04 -8.748457E+03  1.867585E+04  3.501632E+03
       138   5 -3.996761E+05 -2.418355E+03  1.227747E+04  6.953852E+02  1.228236E+04  3.474015E+03
       138   6 -3.971946E+05 -4.647796E+02  7.482776E+03 -8.742484E+03  5.888857E+03  2.917315E+03
       138   7 -1.985819E+05  6.116614E+04  7.427698E+04 -1.078945E+04  1.874901E+04  3.501535E+03
       138   8 -2.155612E+05  4.349516E+04  5.767056E+04  2.298518E+02  1.220136E+04  3.473912E+03
       138   9 -2.275482E+05  4.185218E+04  4.936182E+04 -7.632249E+03  5.653856E+03  2.917242E+03
       138  10 -5.957638E+05 -3.790527E+04 -2.375126E+04 -6.708179E+03 -5.072056E-10 -7.027873E-10
       138  11 -5.837603E+05 -4.833445E+04 -3.311844E+04  1.160743E+03  3.031652E-09 -4.849969E-10
       138  12 -5.668149E+05 -4.278391E+04 -3.439849E+04 -9.852431E+03  1.730835E-11  7.640765E-10
       138  13 -3.971910E+05  1.163184E+04  2.526398E+04 -8.748509E+03  2.016736E-09  7.198138E-10
       138  14 -3.996763E+05 -2.418409E+03  1.227716E+04  6.953508E+02 -4.524897E-09  2.196675E-11
       138  15 -3.971946E+05 -4.647980E+02  7.482695E+03 -8.742498E+03  5.379032E-10  4.556690E-10
       138  16 -1.985823E+05  6.116603E+04  7.427629E+04 -1.078950E+04 -1.537879E-09  7.663606E-10
       138  17 -2.155614E+05  4.349510E+04  5.767026E+04  2.298176E+02 -2.475307E-10 -2.281238E-10
       138  18 -2.275482E+05  4.185217E+04  4.936175E+04 -7.632263E+03 -2.713445E-09  2.635946E-10
       138  19 -5.957634E+05 -3.790517E+04 -2.375058E+04 -6.708126E+03 -1.860270E+04 -3.501728E+03
       138  20 -5.837601E+05 -4.833439E+04 -3.311813E+04  1.160778E+03 -1.236332E+04 -3.474119E+03
       138  21 -5.668148E+05 -4.278389E+04 -3.439840E+04 -9.852416E+03 -6.123794E+03 -2.917388E+03
       138  22 -3.971906E+05  1.163195E+04  2.526466E+04 -8.748457E+03 -1.867585E+04 -3.501632E+03
       138  23 -3.996761E+05 -2.418355E+03  1.227747E+04  6.953852E+02 -1.228236E+04 -3.474015E+03
       138  24 -3.971946E+05 -4.647796E+02  7.482776E+03 -8.742484E+03 -5.888857E+03 -2.917315E+03
       138  25 -1.985819E+05  6.116614E+04  7.427698E+04 -1.078945E+04 -1.874901E+04 -3.501535E+03
       138  26 -2.155612E+05  4.349516E+04  5.767056E+04  2.298518E+02 -1.220136E+04 -3.473912E+03
       138  27 -2.275482E+05  4.185218E+04  4.936182E+04 -7.632249E+03 -5.653856E+03 -2.917242E+03
       139   1 -5.246077E+05 -2.997352E+04 -2.525419E+04 -8.649177E+03  4.809902E+03  2.534969E+03
       139   2 -5.100005E+05 -2.813934E+04 -2.450207E+04  9.377570E+02  3.306831E+03  2.071212E+03
       139   3 -4.946169E+05 -2.414296E+04 -2.222215E+04 -9.038435E+03  1.803564E+03  1.533969E+03
       139   4 -3.981204E+05  1.569590E+03  5.908665E+03 -8.895628E+03  4.687642E+03  2.534928E+03
       139   5 -3.985109E+05 -3.304031E+02  2.996112E+03  8.858471E+02  3.163138E+03  2.071197E+03
       139   6 -3.981214E+05 -6.462808E+01  1.626070E+03 -8.895582E+03  1.638473E+03  1.533985E+03
       139   7 -2.716185E+05  3.311150E+04  3.707034E+04 -9.142130E+03  4.565358E+03  2.534888E+03
       139   8 -2.870099E+05  2.747761E+04  3.049337E+04  8.339280E+02  3.019419E+03  2.071182E+03
       139   9 -3.016175E+05  2.401301E+04  2.547360E+04 -8.752706E+03  1.473356E+03  1.534001E+03
       139  10 -5.246077E+05 -2.997353E+04 -2.525425E+04 -8.649186E+03  2.302278E-09  5.087866E-10
       139  11 -5.100005E+05 -2.813935E+04 -2.450210E+04  9.377515E+02  3.053991E-09 -1.111029E-09
       139  12 -4.946169E+05 -2.414296E+04 -2.222216E+04 -9.038437E+03  1.201131E-09 -6.162884E-10
       139  13 -3.981204E+05  1.569577E+03  5.908612E+03 -8.895638E+03  1.229399E-09  8.020996E-10
       139  14 -3.985109E+05 -3.304104E+02  2.996085E+03  8.858418E+02 -2.153724E-09  2.697813E-10
       139  15 -3.981214E+05 -6.463133E+01  1.626060E+03 -8.895584E+03 -1.438412E-09  1.609631E-09
       139  16 -2.716186E+05  3.311149E+04  3.707029E+04 -9.142139E+03 -2.062448E-09  5.983419E-10
       139  17 -2.870099E+05  2.747760E+04  3.049334E+04  8.339230E+02 -3.663971E-09 -6.091377E-10
       139  18 -3.016175E+05  2.401300E+04  2.547359E+04 -8.752708E+03 -4.940864E-09 -1.321018E-09
       139  19 -5.246077E+05 -2.997352E+04 -2.525419E+04 -8.649177E+03 -4.809902E+03 -2.534969E+03
       139  20 -5.100005E+05 -2.813934E+04 -2.450207E+04  9.377570E+02 -3.306831E+03 -2.071212E+03
       139  21 -4.946169E+05 -2.414296E+04 -2.222215E+04 -9.038435E+03 -1.803564E+03 -1.533969E+03
       139  22 -3.981204E+05  1.569590E+03  5.908665E+03 -8.895628E+03 -4.687642E+03 -2.534928E+03
       139  23 -3.985109E+05 -3.304031E+02  2.996112E+03  8.858471E+02 -3.163138E+03 -2.071197E+03
       139  24 -3.981214E+05 -6.462808E+01  1.626070E+03 -8.895582E+03 -1.638473E+03 -1.533985E+03
       139  25 -2.716185E+05  3.311150E+04  3.707034E+04 -9.142130E+03 -4.565358E+03 -2.534888E+03
       139  26 -2.870099E+05  2.747761E+04  3.049337E+04  8.339280E+02 -3.019419E+03 -2.071182E+03
       139  27 -3.016175E+05  2.401301E+04  2.547360E+04 -8.752706E+03 -1.473356E+03 -1.534001E+03
       140   1 -4.504832E+05 -1.279835E+04 -1.169365E+04 -8.948183E+03  1.539897E+03  1.212144E+03
       140   2 -4.352539E+05 -9.243386E+03 -8.858594E+03  9.871454E+02  1.413725E+03  6.843179E+02
       140   3 -4.199678E+05 -5.495766E+03 -5.894883E+03 -8.986588E+03  1.287482E+03  1.461135E+02
       140   4 -3.982799E+05  2.131776E+02  1.135989E+03 -8.972443E+03  1.389519E+03  1.212172E+03
       140   5 -3.983085E+05 -2.843179E+01  2.536541E+02  9.820127E+02  1.260339E+03  6.843559E+02
       140   6 -3.982803E+05 -7.691854E+01 -4.980021E+02 -8.972518E+03  1.131091E+03  1.461619E+02
       140   7 -3.460742E+05  1.322451E+04  1.396543E+04 -8.996705E+03  1.239129E+03  1.212201E+03
       140   8 -3.613619E+05  9.186421E+03  9.365801E+03  9.768798E+02  1.106944E+03  6.843938E+02
       140   9 -3.765923E+05  5.341894E+03  4.898844E+03 -8.958448E+03  9.746943E+02  1.462102E+02
       140  10 -4.504832E+05 -1.279836E+04 -1.169366E+04 -8.948184E+03 -7.433392E-10 -3.514196E-10
       140  11 -4.352539E+05 -9.243387E+03 -8.858599E+03  9.871446E+02  6.397260E-11 -5.813656E-10
       140  12 -4.199678E+05 -5.495767E+03 -5.894887E+03 -8.986588E+03 -1.990673E-09  1.175564E-10
       140  13 -3.982799E+05  2.131755E+02  1.135983E+03 -8.972444E+03 -1.086338E-09  1.321123E-09
       140  14 -3.983085E+05 -2.843271E+01  2.536502E+02  9.820120E+02 -1.000965E-09  7.554919E-10
       140  15 -3.982803E+05 -7.691890E+01 -4.980045E+02 -8.972518E+03  1.033404E-09  2.084522E-10
       140  16 -3.460742E+05  1.322450E+04  1.396542E+04 -8.996706E+03 -4.058201E-10 -1.390360E-09
       140  17 -3.613619E+05  9.186420E+03  9.365798E+03  9.768792E+02  1.380354E-09 -4.288182E-10
       140  18 -3.765923E+05  5.341894E+03  4.898842E+03 -8.958449E+03  9.645849E-10  6.399731E-10
       140  19 -4.504832E+05 -1.279835E+04 -1.169365E+04 -8.948183E+03 -1.539897E+03 -1.212144E+03
       140  20 -4.352539E+05 -9.243386E+03 -8.858594E+03  9.871454E+02 -1.413725E+03 -6.843179E+02
       140  21 -4.199678E+05 -5.495766E+03 -5.894883E+03 -8.986588E+03 -1.287482E+03 -1.461135E+02
       140  22 -3.982799E+05  2.131776E+02  1.135989E+03 -8.972443E+03 -1.389519E+03 -1.212172E+03
       140  23 -3.983085E+05 -2.843179E+01  2.536541E+02  9.820127E+02 -1.260339E+03 -6.843559E+02
       140  24 -3.982803E+05 -7.691854E+01 -4.980021E+02 -8.972518E+03 -1.131091E+03 -1.461619E+02
       140  25 -3.460742E+05  1.322451E+04  1.396543E+04 -8.996705E+03 -1.239129E+03 -1.212201E+03
       140  26 -3.613619E+05  9.186421E+03  9.365801E+03  9.768798E+02 -1.106944E+03 -6.843938E+02
       140  27 -3.765923E+05  5.341894E+03  4.898844E+03 -8.958448E+03 -9.746943E+02 -1.462102E+02
       141   1 -3.753745E+05  5.796269E+03  4.823775E+03 -9.039051E+03  1.413064E+03 -1.710414E+02
       141   2 -3.599564E+05  9.655458E+03  7.493601E+03  9.761243E+02  2.383192E+03 -7.093807E+02
       141   3 -3.448606E+05  1.276140E+04  9.341549E+03 -8.914236E+03  3.353409E+03 -1.237228E+03
       141   4 -3.983647E+05  5.259722E+01 -8.942693E+02 -8.971680E+03  1.256620E+03 -1.709931E+02
       141   5 -3.982033E+05  1.163096E+02 -1.939243E+03  9.810511E+02  2.229708E+03 -7.093432E+02
       141   6 -3.983649E+05 -5.737602E+02 -3.808192E+03 -8.971831E+03  3.202863E+03 -1.237200E+03
       141   7 -4.213545E+05 -5.691114E+03 -6.612353E+03 -8.904311E+03  1.100182E+03 -1.709447E+02
       141   8 -4.364488E+05 -9.422948E+03 -1.137220E+04  9.859776E+02  2.076235E+03 -7.093056E+02
       141   9 -4.518666E+05 -1.390913E+04 -1.695814E+04 -9.029422E+03  3.052330E+03 -1.237173E+03
       141  10 -3.753745E+05  5.796268E+03  4.823771E+03 -9.039051E+03  5.142277E-10  1.228703E-10
       141  11 -3.599564E+05  9.655456E+03  7.493590E+03  9.761257E+02  2.090533E-09 -6.326647E-10
       141  12 -3.448606E+05  1.276140E+04  9.341525E+03 -8.914232E+03 -1.050248E-09  7.042525E-10
       141  13 -3.983647E+05  5.259677E+01 -8.942723E+02 -8.971680E+03  1.887081E-09 -2.878364E-10
       141  14 -3.982033E+05  1.163078E+02 -1.939253E+03  9.810524E+02 -2.877397E-10 -8.840466E-10
       141  15 -3.983649E+05 -5.737646E+02 -3.808214E+03 -8.971828E+03 -2.325921E-09  1.616023E-10
       141  16 -4.213545E+05 -5.691115E+03 -6.612355E+03 -8.904311E+03 -1.708592E-09  3.277735E-10
       141  17 -4.364488E+05 -9.422950E+03 -1.137220E+04  9.859788E+02  1.288483E-09 -1.686338E-10
       141  18 -4.518667E+05 -1.390914E+04 -1.695816E+04 -9.029419E+03  8.661945E-10 -4.832412E-11
       141  19 -3.753745E+05  5.796269E+03  4.823775E+03 -9.039051E+03 -1.413064E+03  1.710414E+02
       141  20 -3.599564E+05  9.655458E+03  7.493601E+03  9.761243E+02 -2.383192E+03  7.093807E+02
       141  21 -3.448606E+05  1.276140E+04  9.341549E+03 -8.914236E+03 -3.353409E+03  1.237228E+03
       141  22 -3.983647E+05  5.259722E+01 -8.942693E+02 -8.971680E+03 -1.256620E+03  1.709931E+02
       141  23 -3.982033E+05  1.163096E+02 -1.939243E+03  9.810511E+02 -2.229708E+03  7.093432E+02
       141  24 -3.983649E+05 -5.737602E+02 -3.808192E+03 -8.971831E+03 -3.202863E+03  1.237200E+03
       141  25 -4.213545E+05 -5.691114E+03 -6.612353E+03 -8.904311E+03 -1.100182E+03  1.709447E+02
       141  26 -4.364488E+05 -9.422948E+03 -1.137220E+04  9.859776E+02 -2.076235E+03  7.093056E+02
       141  27 -4.518666E+05 -1.390913E+04 -1.695814E+04 -9.029422E+03 -3.052330E+03  1.237173E+03
       142   1 -3.009478E+05  2.457026E+04  1.920979E+04 -9.334548E+03  4.157226E+03 -1.558944E+03
       142   2 -2.849624E+05  2.902030E+04  1.936308E+04  1.012226E+03  8.429755E+03 -2.095583E+03
       142   3 -2.709695E+05  2.756283E+04  1.526526E+04 -8.197329E+03  1.270249E+04 -2.557381E+03
       142   4 -3.987388E+05  1.713767E+02 -4.955261E+03 -8.894163E+03  3.991693E+03 -1.558926E+03
       142   5 -3.977411E+05  8.936930E+02 -8.449384E+03  8.841924E+02  8.285070E+03 -2.095600E+03
       142   6 -3.987400E+05 -4.295683E+03 -1.620963E+04 -8.894009E+03  1.257855E+04 -2.557436E+03
       142   7 -4.965211E+05 -2.422822E+04 -2.912102E+04 -8.453847E+03  3.826186E+03 -1.558909E+03
       142   8 -5.105083E+05 -2.723386E+04 -3.626279E+04  7.561825E+02  8.140410E+03 -2.095618E+03
       142   9 -5.264957E+05 -3.615541E+04 -4.768573E+04 -9.590545E+03  1.245463E+04 -2.557490E+03
       142  10 -3.009478E+05  2.457025E+04  1.920975E+04 -9.334543E+03 -2.009122E-10  2.263702E-10
       142  11 -2.849625E+05  2.902027E+04  1.936294E+04  1.012240E+03  2.538682E-10 -6.775170E-10
       142  12 -2.709697E+05  2.756278E+04  1.526495E+04 -8.197303E+03 -1.786898E-09  1.409751E-10
       142  13 -3.987388E+05  1.713699E+02 -4.955296E+03 -8.894158E+03  1.055799E-09  1.854784E-10
       142  14 -3.977412E+05  8.936699E+02 -8.449522E+03  8.842064E+02 -9.336096E-10 -3.999493E-10
       142  15 -3.987402E+05 -4.295732E+03 -1.620994E+04 -8.893983E+03  2.240772E-09  1.615767E-10
       142  16 -4.965212E+05 -2.422823E+04 -2.912105E+04 -8.453842E+03  8.428925E-10  1.562774E-10
       142  17 -5.105084E+05 -2.723388E+04 -3.626293E+04  7.561962E+02  1.436803E-09 -1.872456E-10
       142  18 -5.264958E+05 -3.615546E+04 -4.768603E+04 -9.590520E+03  9.505890E-10  3.644733E-10
       142  19 -3.009478E+05  2.457026E+04  1.920979E+04 -9.334548E+03 -4.157226E+03  1.558944E+03
       142  20 -2.849624E+05  2.902030E+04  1.936308E+04  1.012226E+03 -8.429755E+03  2.095583E+03
       142  21 -2.709695E+05  2.756283E+04  1.526526E+04 -8.197329E+03 -1.270249E+04  2.557381E+03
       142  22 -3.987388E+05  1.713767E+02 -4.955261E+03 -8.894163E+03 -3.991693E+03  1.558926E+03
       142  23 -3.977411E+05  8.936930E+02 -8.449384E+03  8.841924E+02 -8.285070E+03  2.095600E+03
       142  24 -3.987400E+05 -4.295683E+03 -1.620963E+04 -8.894009E+03 -1.257855E+04  2.557436E+03
       142  25 -4.965211E+05 -2.422822E+04 -2.912102E+04 -8.453847E+03 -3.826186E+03  1.558909E+03
       142  26 -5.105083E+05 -2.723386E+04 -3.626279E+04  7.561825E+02 -8.140410E+03  2.095618E+03
       142  27 -5.264957E+05 -3.615541E+04 -4.768573E+04 -9.590545E+03 -1.245463E+04  2.557490E+03
       143   1 -2.302880E+05  4.388295E+04  2.177132E+04 -1.169363E+04  1.609929E+04 -2.937771E+03
       143   2 -2.093428E+05  5.275872E+04  1.228371E+04  2.131127E+03  3.334233E+04 -3.481723E+03
       143   3 -2.013646E+05  1.820906E+04 -1.925950E+04 -2.879732E+03  5.058588E+04 -3.486226E+03
       143   4 -4.011874E+05  1.254850E+03 -2.041701E+04 -8.738840E+03  1.586108E+04 -2.937780E+03
       143   5 -3.946920E+05  6.536215E+03 -3.341458E+04  6.875013E+02  3.325476E+04 -3.481895E+03
       143   6 -4.011945E+05 -3.164130E+04 -6.857731E+04 -8.722295E+03  5.064856E+04 -3.486734E+03
       143   7 -5.720603E+05 -4.137540E+04 -6.260751E+04 -5.784864E+03  1.562294E+04 -2.937791E+03
       143   8 -5.800100E+05 -3.968885E+04 -7.911541E+04 -7.556958E+02  3.316722E+04 -3.482066E+03
       143   9 -6.009879E+05 -8.149452E+04 -1.178981E+05 -1.456298E+04  5.071121E+04 -3.487244E+03
       143  10 -2.302883E+05  4.388287E+04  2.177082E+04 -1.169359E+04  1.718774E-09 -1.697166E-10
       143  11 -2.093440E+05  5.275841E+04  1.228160E+04  2.131221E+03 -1.999793E-11 -1.490406E-09
       143  12 -2.013674E+05  1.820836E+04 -1.926433E+04 -2.879590E+03 -1.236381E-09  3.421249E-10
       143  13 -4.011877E+05  1.254773E+03 -2.041750E+04 -8.738803E+03 -2.157746E-09 -1.415312E-10
       143  14 -3.946932E+05  6.535904E+03 -3.341668E+04  6.875946E+02 -1.076325E-09 -1.309240E-09
       143  15 -4.011972E+05 -3.164201E+04 -6.858216E+04 -8.722153E+03 -3.320974E-10  3.557979E-10
       143  16 -5.720605E+05 -4.137547E+04 -6.260798E+04 -5.784827E+03 -1.745960E-09  5.801316E-12
       143  17 -5.800112E+05 -3.968916E+04 -7.911751E+04 -7.556028E+02  2.192876E-10 -2.102934E-10
       143  18 -6.009907E+05 -8.149523E+04 -1.179029E+05 -1.456284E+04  8.052678E-10  6.261622E-10
       143  19 -2.302880E+05  4.388295E+04  2.177132E+04 -1.169363E+04 -1.609929E+04  2.937771E+03
       143  20 -2.093428E+05  5.275872E+04  1.228371E+04  2.131127E+03 -3.334233E+04  3.481723E+03
       143  21 -2.013646E+05  1.820906E+04 -1.925950E+04 -2.879732E+03 -5.058588E+04  3.486226E+03
       143  22 -4.011874E+05  1.254850E+03 -2.041701E+04 -8.738840E+03 -1.586108E+04  2.937780E+03
       143  23 -3.946920E+05  6.536215E+03 -3.341458E+04  6.875013E+02 -3.325476E+04  3.481895E+03
       143  24 -4.011945E+05 -3.164130E+04 -6.857731E+04 -8.722295E+03 -5.064856E+04  3.486734E+03
       143  25 -5.720603E+05 -4.137540E+04 -6.260751E+04 -5.784864E+03 -1.562294E+04  2.937791E+03
       143  26 -5.800100E+05 -3.968885E+04 -7.911541E+04 -7.556958E+02 -3.316722E+04  3.482066E+03
       143  27 -6.009879E+05 -8.149452E+04 -1.178981E+05 -1.456298E+04 -5.071121E+04  3.487244E+03
       144   1 -1.767799E+05  6.948353E+04 -2.373982E+04 -2.949439E+04  6.498513E+04 -4.398821E+03
       144   2 -1.191638E+05  1.111233E+05 -6.602463E+04  1.240293E+04  1.339067E+05 -5.095391E+03
       144   3 -1.495333E+05 -1.643730E+05 -2.323937E+05  3.682709E+04  2.028269E+05 -1.531787E+03
       144   4 -4.179069E+05  9.383974E+03 -8.320330E+04 -8.516203E+03  6.413967E+04 -4.397288E+03
       144   5 -3.738073E+05  4.761451E+04 -1.287315E+05  3.596853E+02  1.342606E+05 -5.097753E+03
       144   6 -4.179406E+05 -2.315730E+05 -2.992144E+05 -8.236638E+03  2.043785E+05 -1.544614E+03
       144   7 -6.589800E+05 -5.071825E+04 -1.426708E+05  1.245382E+04  6.329454E+04 -4.395811E+03
       144   8 -6.283915E+05 -1.589855E+04 -1.914430E+05 -1.167863E+04  1.346143E+05 -5.100130E+03
       144   9 -6.862783E+05 -2.987707E+05 -3.660394E+05 -5.328089E+04  2.059293E+05 -1.557671E+03
       144  10 -1.767844E+05  6.948237E+04 -2.374780E+04 -2.949416E+04  6.502593E-10 -4.741767E-10
       144  11 -1.191831E+05  1.111184E+05 -6.605839E+04  1.240348E+04  1.432444E-09 -4.461205E-09
       144  12 -1.495774E+05 -1.643840E+05 -2.324710E+05  3.682734E+04  1.169737E-09 -1.810695E-09
       144  13 -4.179113E+05  9.382847E+03 -8.321107E+04 -8.515976E+03  4.052501E-10 -2.656505E-09
       144  14 -3.738267E+05  4.760964E+04 -1.287654E+05  3.602367E+02  6.860224E-10  1.510868E-10
       144  15 -4.179855E+05 -2.315842E+05 -2.992929E+05 -8.236384E+03 -8.825322E-10 -7.325199E-10
       144  16 -6.589844E+05 -5.071935E+04 -1.426784E+05  1.245404E+04 -1.287789E-09 -8.323421E-11
       144  17 -6.284110E+05 -1.590345E+04 -1.914772E+05 -1.167807E+04  7.672892E-10 -1.771313E-10
       144  18 -6.863238E+05 -2.987821E+05 -3.661192E+05 -5.328063E+04  1.052610E-10 -2.008346E-09
       144  19 -1.767799E+05  6.948353E+04 -2.373982E+04 -2.949439E+04 -6.498513E+04  4.398821E+03
       144  20 -1.191638E+05  1.111233E+05 -6.602463E+04  1.240293E+04 -1.339067E+05  5.095391E+03
       144  21 -1.495333E+05 -1.643730E+05 -2.323937E+05  3.682709E+04 -2.028269E+05  1.531787E+03
       144  22 -4.179069E+05  9.383974E+03 -8.320330E+04 -8.516203E+03 -6.413967E+04  4.397288E+03
       144  23 -3.738073E+05  4.761451E+04 -1.287315E+05  3.596853E+02 -1.342606E+05  5.097753E+03
       144  24 -4.179406E+05 -2.315730E+05 -2.992144E+05 -8.236638E+03 -2.043785E+05  1.544614E+03
       144  25 -6.589800E+05 -5.071825E+04 -1.426708E+05  1.245382E+04 -6.329454E+04  4.395811E+03
       144  26 -6.283915E+05 -1.589855E+04 -1.914430E+05 -1.167863E+04 -1.346143E+05  5.100130E+03
       144  27 -6.862783E+05 -2.987707E+05 -3.660394E+05 -5.328089E+04 -2.059293E+05  1.557671E+03
       145   1  3.064827E+05  4.340433E+05  3.220673E+05 -1.112046E+05  6.343313E+03  6.204412E+04
       145   2  1.907257E+05  2.535313E+05  2.309024E+05  6.313299E+03  1.710697E+04  4.021174E+04
       145   3  1.576474E+05  9.746314E+04  1.748034E+05 -9.503850E+04  1.020943E+04  1.834043E+04
       145   4  6.087969E+04 -5.491363E+05  7.747577E+04 -9.840590E+04  6.355086E+03  5.635322E+04
       145   5 -1.230059E+04 -5.609467E+05  3.048058E+04  1.097706E+04  1.711007E+04  3.963577E+04
       145   6 -3.628905E+03 -5.491893E+05  1.503969E+04 -9.852537E+04  1.019424E+04  2.287336E+04
       145   7 -1.847954E+05 -1.531438E+06 -1.671881E+05 -8.562700E+04  6.366634E+03  5.067127E+04
       145   8 -2.153762E+05 -1.374821E+06 -1.699902E+05  1.563507E+04  1.711316E+04  3.906051E+04
       145   9 -1.649364E+05 -1.195461E+06 -1.447550E+05 -1.020082E+05  1.017900E+04  2.740156E+04
       145  10  3.064816E+05  4.340391E+05  3.220600E+05 -1.112049E+05  5.902631E-10  2.000760E-09
       145  11  1.907249E+05  2.535295E+05  2.308988E+05  6.312746E+03  4.256666E-09  4.209370E-10
       145  12  1.576472E+05  9.746275E+04  1.748026E+05 -9.503865E+04 -1.159797E-09  1.793990E-09
       145  13  6.087879E+04 -5.491397E+05  7.746972E+04 -9.840619E+04  3.686397E-10 -3.994619E-11
       145  14 -1.230132E+04 -5.609485E+05  3.047708E+04  1.097652E+04 -9.644706E-10 -1.326370E-09
       145  15 -3.629157E+03 -5.491898E+05  1.503851E+04 -9.852556E+04  6.095397E-10 -5.875271E-09
       145  16 -1.847962E+05 -1.531441E+06 -1.671930E+05 -8.562726E+04 -3.779250E-10 -2.848133E-09
       145  17 -2.153769E+05 -1.374823E+06 -1.699936E+05  1.563453E+04 -7.312651E-10 -1.860139E-09
       145  18 -1.649367E+05 -1.195462E+06 -1.447566E+05 -1.020085E+05 -2.966043E-09  6.201377E-10
       145  19  3.064827E+05  4.340433E+05  3.220673E+05 -1.112046E+05 -6.343313E+03 -6.204412E+04
       145  20  1.907257E+05  2.535313E+05  2.309024E+05  6.313299E+03 -1.710697E+04 -4.021174E+04
       145  21  1.576474E+05  9.746314E+04  1.748034E+05 -9.503850E+04 -1.020943E+04 -1.834043E+04
       145  22  6.087969E+04 -5.491363E+05  7.747577E+04 -9.840590E+04 -6.355086E+03 -5.635322E+04
       145  23 -1.230059E+04 -5.609467E+05  3.048058E+04  1.097706E+04 -1.711007E+04 -3.963577E+04
       145  24 -3.628905E+03 -5.491893E+05  1.503969E+04 -9.852537E+04 -1.019424E+04 -2.287336E+04
       145  25 -1.847954E+05 -1.531438E+06 -1.671881E+05 -8.562700E+04 -6.366634E+03 -5.067127E+04
       145  26 -2.153762E+05 -1.374821E+06 -1.699902E+05  1.563507E+04 -1.711316E+04 -3.906051E+04
       145  27 -1.649364E+05 -1.195461E+06 -1.447550E+05 -1.020082E+05 -1.017900E+04 -2.740156E+04
       146   1  4.709618E+04 -4.039485E+05  4.618187E+04 -9.960282E+04  3.658104E+03  1.951770E+04
       146   2 -3.452704E+03 -5.718913E+05 -1.073225E+04  1.081100E+04 -4.364669E+02  2.271424E+04
       146   3 -6.098259E+04 -7.439421E+05 -7.188775E+04 -1.004843E+05 -4.469211E+03  2.591039E+04
       146   4  9.397816E+03 -5.552108E+05  9.045584E+03 -9.906660E+04  3.653776E+03  2.070052E+04
       146   5  1.213320E+03 -5.531511E+05 -6.112395E+03  1.174580E+04 -4.406325E+02  2.388084E+04
       146   6 -1.394558E+04 -5.552188E+05 -2.549481E+04 -9.915063E+04 -4.473275E+03  2.706164E+04
       146   7 -2.830225E+04 -7.064522E+05 -2.809238E+04 -9.853049E+04  3.649449E+03  2.188304E+04
       146   8  5.879322E+03 -5.344105E+05 -1.492562E+03  1.268062E+04 -4.447944E+02  2.504747E+04
       146   9  3.308879E+04 -3.664630E+05  2.089551E+04 -9.781654E+04 -4.477333E+03  2.821324E+04
       146  10  4.709606E+04 -4.039490E+05  4.618113E+04 -9.960288E+04  1.832176E-09  8.203350E-09
       146  11 -3.452843E+03 -5.718918E+05 -1.073322E+04  1.081101E+04  1.796054E-09  1.272195E-09
       146  12 -6.098280E+04 -7.439428E+05 -7.188905E+04 -1.004842E+05 -1.316804E-09 -2.383956E-09
       146  13  9.397686E+03 -5.552112E+05  9.044753E+03 -9.906666E+04  2.229369E-09 -3.715889E-12
       146  14  1.213167E+03 -5.531517E+05 -6.113468E+03  1.174581E+04  4.385003E-09 -1.938879E-09
       146  15 -1.394580E+04 -5.552196E+05 -2.549622E+04 -9.915053E+04 -1.458029E-10 -6.062612E-09
       146  16 -2.830239E+04 -7.064527E+05 -2.809331E+04 -9.853056E+04 -1.627377E-09 -1.010150E-08
       146  17  5.879153E+03 -5.344112E+05 -1.493742E+03  1.268063E+04  5.668292E-09 -3.146602E-09
       146  18  3.308855E+04 -3.664639E+05  2.089398E+04 -9.781644E+04  8.708820E-10  4.964553E-09
       146  19  4.709618E+04 -4.039485E+05  4.618187E+04 -9.960282E+04 -3.658104E+03 -1.951770E+04
       146  20 -3.452704E+03 -5.718913E+05 -1.073225E+04  1.081100E+04  4.364669E+02 -2.271424E+04
       146  21 -6.098259E+04 -7.439421E+05 -7.188775E+04 -1.004843E+05  4.469211E+03 -2.591039E+04
       146  22  9.397816E+03 -5.552108E+05  9.045584E+03 -9.906660E+04 -3.653776E+03 -2.070052E+04
       146  23  1.213320E+03 -5.531511E+05 -6.112395E+03  1.174580E+04  4.406325E+02 -2.388084E+04
       146  24 -1.394558E+04 -5.552188E+05 -2.549481E+04 -9.915063E+04  4.473275E+03 -2.706164E+04
       146  25 -2.830225E+04 -7.064522E+05 -2.809238E+04 -9.853049E+04 -3.649449E+03 -2.188304E+04
       146  26  5.879322E+03 -5.344105E+05 -1.492562E+03  1.268062E+04  4.447944E+02 -2.504747E+04
       146  27  3.308879E+04 -3.664630E+05  2.089551E+04 -9.781654E+04  4.477333E+03 -2.821324E+04
       147   1 -1.646559E+05 -1.246285E+06 -2.020906E+05 -8.732636E+04 -1.108248E+04  2.756980E+04
       147   2 -1.914231E+05 -1.394905E+06 -2.656702E+05  7.102472E+03 -1.812195E+04  6.331390E+04
       147   3 -3.583531E+05 -1.582058E+06 -3.873863E+05 -1.172749E+05 -6.866738E+03  9.909190E+04
       147   4  6.069524E+03 -5.627857E+05 -3.307952E+04 -9.838216E+04 -1.109795E+04  3.221842E+04
       147   5  2.084051E+04 -5.439888E+05 -5.607286E+04  1.092018E+04 -1.811844E+04  6.274071E+04
       147   6 -1.035351E+05 -5.627799E+05 -1.335096E+05 -9.856956E+04 -6.853512E+03  9.330690E+04
       147   7  1.767604E+05  1.211393E+05  1.358970E+05 -1.094498E+05 -1.111357E+04  3.687214E+04
       147   8  2.330502E+05  3.075873E+05  1.534710E+05  1.474354E+04 -1.811493E+04  6.216670E+04
       147   9  1.512060E+05  4.574435E+05  1.202893E+05 -7.983298E+04 -6.840648E+03  8.751227E+04
       147  10 -1.646562E+05 -1.246286E+06 -2.020923E+05 -8.732611E+04 -3.196019E-09  2.954233E-09
       147  11 -1.914245E+05 -1.394909E+06 -2.656784E+05  7.103397E+03  6.514859E-10  1.378754E-09
       147  12 -3.583558E+05 -1.582069E+06 -3.874049E+05 -1.172743E+05  4.658963E-10  8.429127E-10
       147  13  6.069113E+03 -5.627868E+05 -3.308171E+04 -9.838187E+04 -1.516158E-09 -1.304711E-10
       147  14  2.083910E+04 -5.439932E+05 -5.608088E+04  1.092110E+04 -3.601633E-09 -1.447793E-09
       147  15 -1.035375E+05 -5.627893E+05 -1.335261E+05 -9.856904E+04  1.165161E-09 -2.713729E-09
       147  16  1.767599E+05  1.211378E+05  1.358942E+05 -1.094495E+05 -5.081877E-10 -4.654124E-09
       147  17  2.330488E+05  3.075830E+05  1.534631E+05  1.474445E+04 -4.412535E-10 -2.621118E-09
       147  18  1.512039E+05  4.574353E+05  1.202749E+05 -7.983250E+04 -7.673674E-11  1.708955E-10
       147  19 -1.646559E+05 -1.246285E+06 -2.020906E+05 -8.732636E+04  1.108248E+04 -2.756980E+04
       147  20 -1.914231E+05 -1.394905E+06 -2.656702E+05  7.102472E+03  1.812195E+04 -6.331390E+04
       147  21 -3.583531E+05 -1.582058E+06 -3.873863E+05 -1.172749E+05  6.866738E+03 -9.909190E+04
       147  22  6.069524E+03 -5.627857E+05 -3.307952E+04 -9.838216E+04  1.109795E+04 -3.221842E+04
       147  23  2.084051E+04 -5.439888E+05 -5.607286E+04  1.092018E+04  1.811844E+04 -6.274071E+04
       147  24 -1.035351E+05 -5.627799E+05 -1.335096E+05 -9.856956E+04  6.853512E+03 -9.330690E+04
       147  25  1.767604E+05  1.211393E+05  1.358970E+05 -1.094498E+05  1.111357E+04 -3.687214E+04
       147  26  2.330502E+05  3.075873E+05  1.534710E+05  1.474354E+04  1.811493E+04 -6.216670E+04
       147  27  1.512060E+05  4.574435E+05  1.202893E+05 -7.983298E+04  6.840648E+03 -8.751227E+04
       148   1 -1.730011E+06 -4.243977E+05 -2.214339E+05 -6.109913E+05 -1.102094E+05 -4.002976E+04
       148   2 -1.695144E+06 -2.609947E+05 -1.175257E+05 -6.359041E+05 -7.151581E+04 -2.268244E+04
       148   3 -1.721082E+06 -2.733878E+05 -8.924320E+04 -6.257592E+05 -3.169265E+04 -8.334023E+03
       148   4 -1.564971E+06 -3.399396E+05 -1.716918E+05 -5.434812E+05 -1.091708E+05 -3.964378E+04
       148   5 -1.525989E+06 -1.913069E+05 -7.038753E+04 -5.838767E+05 -7.127485E+04 -2.259271E+04
       148   6 -1.547637E+06 -2.182852E+05 -4.405981E+04 -5.892198E+05 -3.224922E+04 -8.542660E+03
       148   7 -1.399903E+06 -2.554723E+05 -1.219523E+05 -4.759525E+05 -1.081319E+05 -3.925760E+04
       148   8 -1.356806E+06 -1.216158E+05 -2.325204E+04 -5.318359E+05 -7.103381E+04 -2.250294E+04
       148   9 -1.374163E+06 -1.631827E+05  1.121175E+03 -5.526721E+05 -3.280598E+04 -8.751337E+03
       148  10 -1.730025E+06 -4.244027E+05 -2.214598E+05 -6.109949E+05  1.255106E-09 -1.651350E-10
       148  11 -1.695149E+06 -2.609967E+05 -1.175363E+05 -6.359054E+05  1.622432E-09  1.497198E-09
       148  12 -1.721083E+06 -2.733882E+05 -8.924523E+04 -6.257594E+05  6.087525E-10  2.838729E-10
       148  13 -1.564984E+06 -3.399445E+05 -1.717172E+05 -5.434847E+05 -1.181282E-09  5.673509E-10
       148  14 -1.525995E+06 -1.913088E+05 -7.039807E+04 -5.838780E+05  3.456341E-09  1.009151E-09
       148  15 -1.547638E+06 -2.182855E+05 -4.406191E+04 -5.892200E+05 -7.091447E-10 -8.444152E-10
       148  16 -1.399916E+06 -2.554771E+05 -1.219772E+05 -4.759559E+05  7.130730E-10  7.455563E-10
       148  17 -1.356812E+06 -1.216177E+05 -2.326250E+04 -5.318372E+05  2.396925E-09 -2.246514E-10
       148  18 -1.374164E+06 -1.631831E+05  1.119003E+03 -5.526723E+05 -6.817956E-10  5.523873E-10
       148  19 -1.730011E+06 -4.243977E+05 -2.214339E+05 -6.109913E+05  1.102094E+05  4.002976E+04
       148  20 -1.695144E+06 -2.609947E+05 -1.175257E+05 -6.359041E+05  7.151581E+04  2.268244E+04
       148  21 -1.721082E+06 -2.733878E+05 -8.924320E+04 -6.257592E+05  3.169265E+04  8.334023E+03
       148  22 -1.564971E+06 -3.399396E+05 -1.716918E+05 -5.434812E+05  1.091708E+05  3.964378E+04
       148  23 -1.525989E+06 -1.913069E+05 -7.038753E+04 -5.838767E+05  7.127485E+04  2.259271E+04
       148  24 -1.547637E+06 -2.182852E+05 -4.405981E+04 -5.892198E+05  3.224922E+04  8.542660E+03
       148  25 -1.399903E+06 -2.554723E+05 -1.219523E+05 -4.759525E+05  1.081319E+05  3.925760E+04
       148  26 -1.356806E+06 -1.216158E+05 -2.325204E+04 -5.318359E+05  7.103381E+04  2.250294E+04
       148  27 -1.374163E+06 -1.631827E+05  1.121175E+03 -5.526721E+05  3.280598E+04  8.751337E+03
       149   1 -1.676201E+06 -2.923164E+05 -7.351045E+04 -6.184908E+05 -2.548777E+04 -6.733796E+03
       149   2 -1.666669E+06 -2.616422E+05 -5.110021E+04 -6.142133E+05 -1.658864E+04 -3.401502E+03
       149   3 -1.656824E+06 -2.646170E+05 -4.171340E+04 -6.156757E+05 -7.524488E+03 -5.082800E+02
       149   4 -1.541439E+06 -2.385113E+05 -3.621366E+04 -5.788183E+05 -2.543533E+04 -6.714283E+03
       149   5 -1.540406E+06 -2.132585E+05 -1.659052E+04 -5.791160E+05 -1.665249E+04 -3.425548E+03
       149   6 -1.539037E+06 -2.216285E+05 -9.896260E+03 -5.851541E+05 -7.704766E+03 -5.759682E+02
       149   7 -1.406659E+06 -1.847047E+05  1.081390E+03 -5.391378E+05 -2.538289E+04 -6.694764E+03
       149   8 -1.414129E+06 -1.648737E+05  1.791771E+04 -5.440122E+05 -1.671636E+04 -3.449601E+03
       149   9 -1.421237E+06 -1.786394E+05  2.191970E+04 -5.546274E+05 -7.885082E+03 -6.436696E+02
       149  10 -1.676202E+06 -2.923167E+05 -7.351176E+04 -6.184910E+05 -1.114472E-09 -6.708923E-10
       149  11 -1.666669E+06 -2.616423E+05 -5.110075E+04 -6.142133E+05  6.702764E-10 -6.346158E-11
       149  12 -1.656824E+06 -2.646170E+05 -4.171350E+04 -6.156758E+05 -5.037562E-10  5.361395E-11
       149  13 -1.541439E+06 -2.385116E+05 -3.621496E+04 -5.788184E+05 -4.557352E-09  1.025281E-09
       149  14 -1.540407E+06 -2.132586E+05 -1.659107E+04 -5.791160E+05  9.611464E-11 -6.603139E-10
       149  15 -1.539038E+06 -2.216285E+05 -9.896372E+03 -5.851541E+05  1.528850E-09  5.170043E-11
       149  16 -1.406659E+06 -1.847049E+05  1.080092E+03 -5.391379E+05  1.188754E-09 -9.818018E-11
       149  17 -1.414129E+06 -1.648738E+05  1.791717E+04 -5.440122E+05  1.074233E-09 -6.868771E-10
       149  18 -1.421238E+06 -1.786394E+05  2.191958E+04 -5.546274E+05 -5.405920E-10 -8.424050E-11
       149  19 -1.676201E+06 -2.923164E+05 -7.351045E+04 -6.184908E+05  2.548777E+04  6.733796E+03
       149  20 -1.666669E+06 -2.616422E+05 -5.110021E+04 -6.142133E+05  1.658864E+04  3.401502E+03
       149  21 -1.656824E+06 -2.646170E+05 -4.171340E+04 -6.156757E+05  7.524488E+03  5.082800E+02
       149  22 -1.541439E+06 -2.385113E+05 -3.621366E+04 -5.788183E+05  2.543533E+04  6.714283E+03
       149  23 -1.540406E+06 -2.132585E+05 -1.659052E+04 -5.791160E+05  1.665249E+04  3.425548E+03
       149  24 -1.539037E+06 -2.216285E+05 -9.896260E+03 -5.851541E+05  7.704766E+03  5.759682E+02
       149  25 -1.406659E+06 -1.847047E+05  1.081390E+03 -5.391378E+05  2.538289E+04  6.694764E+03
       149  26 -1.414129E+06 -1.648737E+05  1.791771E+04 -5.440122E+05  1.671636E+04  3.449601E+03
       149  27 -1.421237E+06 -1.786394E+05  2.191970E+04 -5.546274E+05  7.885082E+03  6.436696E+02
       150   1 -1.618392E+06 -2.554641E+05 -2.985969E+04 -6.063256E+05 -6.031502E+03 -3.010169E+02
       150   2 -1.611907E+06 -2.421018E+05 -2.277534E+04 -5.969292E+05 -3.819944E+03  8.608214E+01
       150   3 -1.595036E+06 -2.438819E+05 -1.811802E+04 -6.003198E+05 -1.576889E+03  3.889751E+02
       150   4 -1.537816E+06 -2.246915E+05 -7.884869E+03 -5.840270E+05 -6.125146E+03 -3.361861E+02
       150   5 -1.542847E+06 -2.159641E+05 -3.961206E+03 -5.780678E+05 -3.935977E+03  4.253020E+01
       150   6 -1.537486E+06 -2.223743E+05 -2.446496E+03 -5.848954E+05 -1.715355E+03  3.370270E+02
       150   7 -1.457234E+06 -1.939186E+05  1.408936E+04 -5.617259E+05 -6.218804E+03 -3.713604E+02
       150   8 -1.473782E+06 -1.898262E+05  1.485248E+04 -5.592045E+05 -4.052023E+03 -1.027086E+00
       150   9 -1.479933E+06 -2.008665E+05  1.322470E+04 -5.694698E+05 -1.853835E+03  2.850737E+02
       150  10 -1.618392E+06 -2.554641E+05 -2.985975E+04 -6.063256E+05  1.792084E-09 -3.491742E-10
       150  11 -1.611907E+06 -2.421018E+05 -2.277537E+04 -5.969292E+05  3.706026E-09 -1.991877E-10
       150  12 -1.595036E+06 -2.438819E+05 -1.811802E+04 -6.003198E+05 -2.096857E-10  3.170938E-11
       150  13 -1.537816E+06 -2.246915E+05 -7.884940E+03 -5.840270E+05 -5.616700E-10 -1.294215E-11
       150  14 -1.542847E+06 -2.159641E+05 -3.961236E+03 -5.780678E+05 -2.269969E-09 -3.166600E-10
       150  15 -1.537486E+06 -2.223743E+05 -2.446502E+03 -5.848954E+05  1.386538E-09 -1.255990E-11
       150  16 -1.457234E+06 -1.939186E+05  1.408928E+04 -5.617259E+05 -1.017960E-09 -3.916522E-10
       150  17 -1.473782E+06 -1.898262E+05  1.485245E+04 -5.592045E+05 -3.561961E-09 -7.233052E-10
       150  18 -1.479933E+06 -2.008665E+05  1.322469E+04 -5.694698E+05  1.827498E-09  6.768594E-10
       150  19 -1.618392E+06 -2.554641E+05 -2.985969E+04 -6.063256E+05  6.031502E+03  3.010169E+02
       150  20 -1.611907E+06 -2.421018E+05 -2.277534E+04 -5.969292E+05  3.819944E+03 -8.608214E+01
       150  21 -1.595036E+06 -2.438819E+05 -1.811802E+04 -6.003198E+05  1.576889E+03 -3.889751E+02
       150  22 -1.537816E+06 -2.246915E+05 -7.884869E+03 -5.840270E+05  6.125146E+03  3.361861E+02
       150  23 -1.542847E+06 -2.159641E+05 -3.961206E+03 -5.780678E+05  3.935977E+03 -4.253020E+01
       150  24 -1.537486E+06 -2.223743E+05 -2.446496E+03 -5.848954E+05  1.715355E+03 -3.370270E+02
       150  25 -1.457234E+06 -1.939186E+05  1.408936E+04 -5.617259E+05  6.218804E+03  3.713604E+02
       150  26 -1.473782E+06 -1.898262E+05  1.485248E+04 -5.592045E+05  4.052023E+03  1.027086E+00
       150  27 -1.479933E+06 -2.008665E+05  1.322470E+04 -5.694698E+05  1.853835E+03 -2.850737E+02
       151   1 -1.554930E+06 -2.295911E+05 -6.813620E+03 -5.897254E+05 -1.112936E+03  2.347890E+02
       151   2 -1.548679E+06 -2.182442E+05 -2.908633E+03 -5.792723E+05 -2.045458E+02  4.203548E+01
       151   3 -1.530264E+06 -2.200169E+05  2.814695E+02 -5.829950E+05  7.069767E+02 -1.590119E+02
       151   4 -1.537224E+06 -2.228641E+05 -2.029336E+03 -5.848517E+05 -1.237683E+03  1.879955E+02
       151   5 -1.543292E+06 -2.162054E+05 -1.441214E+03 -5.778009E+05 -3.315112E+02 -5.589203E+00
       151   6 -1.537196E+06 -2.226659E+05 -1.566260E+03 -5.849260E+05  5.777737E+02 -2.074734E+02
       151   7 -1.519518E+06 -2.161371E+05  2.754932E+03 -5.799780E+05 -1.362434E+03  1.412004E+02
       151   8 -1.537905E+06 -2.141666E+05  2.620127E+01 -5.763296E+05 -4.584777E+02 -5.321430E+01
       151   9 -1.544128E+06 -2.253148E+05 -3.413986E+03 -5.868570E+05  4.485728E+02 -2.559341E+02
       151  10 -1.554930E+06 -2.295911E+05 -6.813622E+03 -5.897254E+05 -5.502595E-10  2.289181E-10
       151  11 -1.548679E+06 -2.182442E+05 -2.908633E+03 -5.792723E+05 -1.393276E-09  6.029245E-10
       151  12 -1.530264E+06 -2.200169E+05  2.814686E+02 -5.829950E+05  7.374512E-10  7.291794E-11
       151  13 -1.537224E+06 -2.228641E+05 -2.029339E+03 -5.848517E+05  2.181651E-09  3.376295E-10
       151  14 -1.543292E+06 -2.162054E+05 -1.441214E+03 -5.778009E+05  1.470936E-09  4.493081E-10
       151  15 -1.537196E+06 -2.226659E+05 -1.566261E+03 -5.849260E+05  3.361660E-10 -2.335599E-10
       151  16 -1.519518E+06 -2.161371E+05  2.754929E+03 -5.799780E+05  1.759092E-09  1.123260E-09
       151  17 -1.537905E+06 -2.141666E+05  2.620087E+01 -5.763296E+05  3.005024E-09 -6.760931E-10
       151  18 -1.544128E+06 -2.253148E+05 -3.413987E+03 -5.868570E+05 -6.750676E-10  9.431801E-11
       151  19 -1.554930E+06 -2.295911E+05 -6.813620E+03 -5.897254E+05  1.112936E+03 -2.347890E+02
       151  20 -1.548679E+06 -2.182442E+05 -2.908633E+03 -5.792723E+05  2.045458E+02 -4.203548E+01
       151  21 -1.530264E+06 -2.200169E+05  2.814695E+02 -5.829950E+05 -7.069767E+02  1.590119E+02
       151  22 -1.537224E+06 -2.228641E+05 -2.029336E+03 -5.848517E+05  1.237683E+03 -1.879955E+02
       151  23 -1.543292E+06 -2.162054E+05 -1.441214E+03 -5.778009E+05  3.315112E+02  5.589203E+00
       151  24 -1.537196E+06 -2.226659E+05 -1.566260E+03 -5.849260E+05 -5.777737E+02  2.074734E+02
       151  25 -1.519518E+06 -2.161371E+05  2.754932E+03 -5.799780E+05  1.362434E+03 -1.412004E+02
       151  26 -1.537905E+06 -2.141666E+05  2.620127E+01 -5.763296E+05  4.584777E+02  5.321430E+01
       151  27 -1.544128E+06 -2.253148E+05 -3.413986E+03 -5.868570E+05 -4.485728E+02  2.559341E+02
       152   1 -1.490313E+06 -2.048230E+05  1.105181E+04 -5.721816E+05  1.093768E+03 -3.389420E+02
       152   2 -1.484239E+06 -1.939970E+05  1.334997E+04 -5.619369E+05  2.619480E+03 -3.062686E+02
       152   3 -1.466770E+06 -1.965437E+05  1.428967E+04 -5.651917E+05  4.130937E+03 -2.352324E+02
       152   4 -1.537333E+06 -2.224782E+05 -1.776941E+03 -5.848678E+05  9.612587E+02 -3.886499E+02
       152   5 -1.543091E+06 -2.162185E+05 -2.672297E+03 -5.779577E+05  2.497159E+03 -3.521716E+02
       152   6 -1.537455E+06 -2.233337E+05 -4.934264E+03 -5.845473E+05  4.018778E+03 -2.773388E+02
       152   7 -1.584352E+06 -2.401332E+05 -1.460592E+04 -5.975531E+05  8.287597E+02 -4.383538E+02
       152   8 -1.601940E+06 -2.384399E+05 -1.869493E+04 -5.939772E+05  2.374850E+03 -3.980700E+02
       152   9 -1.608136E+06 -2.501235E+05 -2.415875E+04 -6.039010E+05  3.906632E+03 -3.194401E+02
       152  10 -1.490313E+06 -2.048230E+05  1.105181E+04 -5.721816E+05 -6.094599E-10 -2.627600E-10
       152  11 -1.484239E+06 -1.939970E+05  1.334996E+04 -5.619369E+05 -3.421523E-09  5.105239E-10
       152  12 -1.466770E+06 -1.965437E+05  1.428964E+04 -5.651917E+05 -1.179497E-11 -3.538928E-10
       152  13 -1.537333E+06 -2.224782E+05 -1.776943E+03 -5.848678E+05  9.161772E-10  4.490139E-10
       152  14 -1.543091E+06 -2.162185E+05 -2.672309E+03 -5.779577E+05  2.612812E-10  6.173899E-10
       152  15 -1.537455E+06 -2.233337E+05 -4.934295E+03 -5.845473E+05 -2.163476E-09 -2.253762E-10
       152  16 -1.584352E+06 -2.401332E+05 -1.460592E+04 -5.975531E+05 -1.161786E-09  1.241873E-09
       152  17 -1.601940E+06 -2.384399E+05 -1.869494E+04 -5.939772E+05 -1.338028E-09  1.840073E-10
       152  18 -1.608136E+06 -2.501235E+05 -2.415878E+04 -6.039010E+05 -2.365169E-09 -1.028028E-10
       152  19 -1.490313E+06 -2.048230E+05  1.105181E+04 -5.721816E+05 -1.093768E+03  3.389420E+02
       152  20 -1.484239E+06 -1.939970E+05  1.334997E+04 -5.619369E+05 -2.619480E+03  3.062686E+02
       152  21 -1.466770E+06 -1.965437E+05  1.428967E+04 -5.651917E+05 -4.130937E+03  2.352324E+02
       152  22 -1.537333E+06 -2.224782E+05 -1.776941E+03 -5.848678E+05 -9.612587E+02  3.886499E+02
       152  23 -1.543091E+06 -2.162185E+05 -2.672297E+03 -5.779577E+05 -2.497159E+03  3.521716E+02
       152  24 -1.537455E+06 -2.233337E+05 -4.934264E+03 -5.845473E+05 -4.018778E+03  2.773388E+02
       152  25 -1.584352E+06 -2.401332E+05 -1.460592E+04 -5.975531E+05 -8.287597E+02  4.383538E+02
       152  26 -1.601940E+06 -2.384399E+05 -1.869493E+04 -5.939772E+05 -2.374850E+03  3.980700E+02
       152  27 -1.608136E+06 -2.501235E+05 -2.415875E+04 -6.039010E+05 -3.906632E+03  3.194401E+02
       153   1 -1.430312E+06 -1.818628E+05  2.298913E+04 -5.560473E+05  5.179144E+03 -1.464294E+02
       153   2 -1.424183E+06 -1.707615E+05  2.124553E+04 -5.463729E+05  1.090307E+04  1.507880E+03
       153   3 -1.411609E+06 -1.793541E+05  1.288003E+04 -5.465454E+05  1.658397E+04  3.277333E+03
       153   4 -1.538168E+06 -2.219792E+05 -6.297860E+03 -5.847726E+05  5.046471E+03 -1.962488E+02
       153   5 -1.541853E+06 -2.154008E+05 -1.082947E+04 -5.786220E+05  1.080035E+04  1.469265E+03
       153   6 -1.539101E+06 -2.285233E+05 -2.200771E+04 -5.823181E+05  1.651110E+04  3.249882E+03
       153   7 -1.646013E+06 -2.620949E+05 -3.558576E+04 -6.134933E+05  4.913824E+03 -2.460587E+02
       153   8 -1.659510E+06 -2.600392E+05 -4.290564E+04 -6.108655E+05  1.069764E+04  1.430658E+03
       153   9 -1.666576E+06 -2.776914E+05 -5.689692E+04 -6.180842E+05  1.643824E+04  3.222436E+03
       153  10 -1.430312E+06 -1.818628E+05  2.298908E+04 -5.560473E+05 -9.207440E-10  6.210678E-11
       153  11 -1.424183E+06 -1.707616E+05  2.124530E+04 -5.463729E+05 -6.267416E-10  3.495572E-10
       153  12 -1.411610E+06 -1.793542E+05  1.287950E+04 -5.465454E+05 -7.146328E-10  2.041417E-10
       153  13 -1.538168E+06 -2.219792E+05 -6.297908E+03 -5.847726E+05 -2.214405E-09 -2.083630E-10
       153  14 -1.541854E+06 -2.154009E+05 -1.082969E+04 -5.786220E+05 -1.199368E-09  2.509754E-10
       153  15 -1.539101E+06 -2.285234E+05 -2.200825E+04 -5.823182E+05 -3.621501E-09 -3.527712E-10
       153  16 -1.646013E+06 -2.620949E+05 -3.558580E+04 -6.134933E+05 -1.199011E-09 -5.663351E-10
       153  17 -1.659510E+06 -2.600392E+05 -4.290586E+04 -6.108655E+05 -1.728713E-09  5.699029E-10
       153  18 -1.666576E+06 -2.776915E+05 -5.689745E+04 -6.180842E+05 -3.585660E-09  4.782084E-10
       153  19 -1.430312E+06 -1.818628E+05  2.298913E+04 -5.560473E+05 -5.179144E+03  1.464294E+02
       153  20 -1.424183E+06 -1.707615E+05  2.124553E+04 -5.463729E+05 -1.090307E+04 -1.507880E+03
       153  21 -1.411609E+06 -1.793541E+05  1.288003E+04 -5.465454E+05 -1.658397E+04 -3.277333E+03
       153  22 -1.538168E+06 -2.219792E+05 -6.297860E+03 -5.847726E+05 -5.046471E+03  1.962488E+02
       153  23 -1.541853E+06 -2.154008E+05 -1.082947E+04 -5.786220E+05 -1.080035E+04 -1.469265E+03
       153  24 -1.539101E+06 -2.285233E+05 -2.200771E+04 -5.823181E+05 -1.651110E+04 -3.249882E+03
       153  25 -1.646013E+06 -2.620949E+05 -3.558576E+04 -6.134933E+05 -4.913824E+03  2.460587E+02
       153  26 -1.659510E+06 -2.600392E+05 -4.290564E+04 -6.108655E+05 -1.069764E+04 -1.430658E+03
       153  27 -1.666576E+06 -2.776914E+05 -5.689692E+04 -6.180842E+05 -1.643824E+04 -3.222436E+03
       154   1 -1.380427E+06 -1.635244E+05  1.550330E+04 -5.463277E+05  2.088020E+04  4.577259E+03
       154   2 -1.370420E+06 -1.427509E+05 -1.240971E+03 -5.337890E+05  4.555230E+04  1.342199E+04
       154   3 -1.380125E+06 -1.959333E+05 -5.423774E+04 -5.138585E+05  7.003427E+04  2.277409E+04
       154   4 -1.542059E+06 -2.204144E+05 -2.771571E+04 -5.860705E+05  2.070723E+04  4.512363E+03
       154   5 -1.535571E+06 -2.071504E+05 -4.659482E+04 -5.808488E+05  4.550936E+04  1.340559E+04
       154   6 -1.548828E+06 -2.678798E+05 -1.018373E+05 -5.682341E+05  7.012117E+04  2.280558E+04
       154   7 -1.703667E+06 -2.773038E+05 -7.093705E+04 -6.258044E+05  2.053430E+04  4.447483E+03
       154   8 -1.700696E+06 -2.715479E+05 -9.195120E+04 -6.278972E+05  4.546643E+04  1.338919E+04
       154   9 -1.717502E+06 -3.398224E+05 -1.494396E+05 -6.225955E+05  7.020805E+04  2.283705E+04
       154  10 -1.380427E+06 -1.635245E+05  1.550244E+04 -5.463278E+05 -1.277408E-09 -3.776281E-10
       154  11 -1.370422E+06 -1.427517E+05 -1.245220E+03 -5.337895E+05 -8.287060E-10  9.233429E-10
       154  12 -1.380131E+06 -1.959352E+05 -5.424796E+04 -5.138598E+05  1.175478E-09 -4.914093E-10
       154  13 -1.542060E+06 -2.204145E+05 -2.771655E+04 -5.860706E+05  5.163115E-10 -3.505344E-10
       154  14 -1.535573E+06 -2.071512E+05 -4.659906E+04 -5.808493E+05 -1.359995E-09  1.030509E-09
       154  15 -1.548833E+06 -2.678817E+05 -1.018476E+05 -5.682353E+05 -1.805982E-09 -1.227131E-09
       154  16 -1.703667E+06 -2.773039E+05 -7.093788E+04 -6.258045E+05  2.489196E-11  5.744493E-10
       154  17 -1.700698E+06 -2.715487E+05 -9.195543E+04 -6.278977E+05 -3.071499E-09  2.037292E-09
       154  18 -1.717508E+06 -3.398243E+05 -1.494499E+05 -6.225968E+05 -1.900366E-09  2.068307E-09
       154  19 -1.380427E+06 -1.635244E+05  1.550330E+04 -5.463277E+05 -2.088020E+04 -4.577259E+03
       154  20 -1.370420E+06 -1.427509E+05 -1.240971E+03 -5.337890E+05 -4.555230E+04 -1.342199E+04
       154  21 -1.380125E+06 -1.959333E+05 -5.423774E+04 -5.138585E+05 -7.003427E+04 -2.277409E+04
       154  22 -1.542059E+06 -2.204144E+05 -2.771571E+04 -5.860705E+05 -2.070723E+04 -4.512363E+03
       154  23 -1.535571E+06 -2.071504E+05 -4.659482E+04 -5.808488E+05 -4.550936E+04 -1.340559E+04
       154  24 -1.548828E+06 -2.678798E+05 -1.018373E+05 -5.682341E+05 -7.012117E+04 -2.280558E+04
       154  25 -1.703667E+06 -2.773038E+05 -7.093705E+04 -6.258044E+05 -2.053430E+04 -4.447483E+03
       154  26 -1.700696E+06 -2.715479E+05 -9.195120E+04 -6.278972E+05 -4.546643E+04 -1.338919E+04
       154  27 -1.717502E+06 -3.398224E+05 -1.494396E+05 -6.225955E+05 -7.020805E+04 -2.283705E+04
       155   1 -1.348027E+06 -1.591387E+05 -7.054248E+04 -5.694203E+05  8.943128E+04  2.935144E+04
       155   2 -1.307085E+06 -5.649799E+04 -1.433171E+05 -5.246731E+05  1.979176E+05  6.969790E+04
       155   3 -1.453302E+06 -4.311002E+05 -4.263006E+05 -3.624226E+05  3.051352E+05  1.134244E+05
       155   4 -1.565346E+06 -2.119351E+05 -1.239231E+05 -5.985854E+05  8.883721E+04  2.913296E+04
       155   5 -1.496088E+06 -1.442364E+05 -1.979290E+05 -5.929275E+05  1.981982E+05  6.979700E+04
       155   6 -1.614227E+06 -5.540517E+05 -4.828893E+05 -4.697467E+05  3.062954E+05  1.138235E+05
       155   7 -1.782619E+06 -2.647331E+05 -1.773066E+05 -6.277444E+05  8.824337E+04  2.891450E+04
       155   8 -1.685055E+06 -2.319668E+05 -2.525442E+05 -6.611612E+05  1.984786E+05  6.989603E+04
       155   9 -1.775116E+06 -6.769672E+05 -5.394791E+05 -5.770373E+05  3.074552E+05  1.142222E+05
       155  10 -1.348036E+06 -1.591418E+05 -7.055917E+04 -5.694224E+05 -1.277983E-09 -4.721956E-11
       155  11 -1.307128E+06 -5.651377E+04 -1.434001E+05 -5.246842E+05 -1.133908E-09  1.301575E-09
       155  12 -1.453406E+06 -4.311391E+05 -4.265002E+05 -3.624505E+05 -1.622038E-09  2.254763E-11
       155  13 -1.565355E+06 -2.119382E+05 -1.239396E+05 -5.985875E+05  1.653312E-09 -2.653838E-09
       155  14 -1.496131E+06 -1.442522E+05 -1.980122E+05 -5.929387E+05  5.037030E-11  2.466619E-10
       155  15 -1.614331E+06 -5.540909E+05 -4.830905E+05 -4.697748E+05  1.283929E-09  5.986117E-10
       155  16 -1.782628E+06 -2.647361E+05 -1.773229E+05 -6.277464E+05 -9.429630E-10  6.218276E-10
       155  17 -1.685099E+06 -2.319827E+05 -2.526277E+05 -6.611724E+05 -2.391702E-09  2.454265E-09
       155  18 -1.775221E+06 -6.770068E+05 -5.396819E+05 -5.770657E+05  3.520187E-10  2.294848E-10
       155  19 -1.348027E+06 -1.591387E+05 -7.054248E+04 -5.694203E+05 -8.943128E+04 -2.935144E+04
       155  20 -1.307085E+06 -5.649799E+04 -1.433171E+05 -5.246731E+05 -1.979176E+05 -6.969790E+04
       155  21 -1.453302E+06 -4.311002E+05 -4.263006E+05 -3.624226E+05 -3.051352E+05 -1.134244E+05
       155  22 -1.565346E+06 -2.119351E+05 -1.239231E+05 -5.985854E+05 -8.883721E+04 -2.913296E+04
       155  23 -1.496088E+06 -1.442364E+05 -1.979290E+05 -5.929275E+05 -1.981982E+05 -6.979700E+04
       155  24 -1.614227E+06 -5.540517E+05 -4.828893E+05 -4.697467E+05 -3.062954E+05 -1.138235E+05
       155  25 -1.782619E+06 -2.647331E+05 -1.773066E+05 -6.277444E+05 -8.824337E+04 -2.891450E+04
       155  26 -1.685055E+06 -2.319668E+05 -2.525442E+05 -6.611612E+05 -1.984786E+05 -6.989603E+04
       155  27 -1.775116E+06 -6.769672E+05 -5.394791E+05 -5.770373E+05 -3.074552E+05 -1.142222E+05
       156   1  2.796208E+05  2.206190E+06  2.683844E+05 -2.075633E+05  1.199090E+04  1.011984E+05
       156   2  2.132655E+05  2.049710E+06  1.783483E+05 -1.848070E+05  3.954808E+04  4.490523E+04
       156   3  1.692303E+05  1.906093E+06  1.304682E+05 -1.875943E+05  4.493382E+04 -1.140014E+04
       156   4  2.999113E+04  1.192649E+06  3.218344E+04 -1.863435E+05  1.212939E+04  1.955435E+04
       156   5  9.675647E+03  1.190336E+06  1.838401E+04 -1.735955E+05  3.961425E+04  1.023554E+04
       156   6  3.561375E+03  1.192747E+06  1.420607E+04 -1.863897E+05  4.491537E+04  8.897729E+02
       156   7 -2.197059E+05  1.800680E+05 -2.040618E+05 -1.651581E+05  1.226245E+04 -6.195776E+04
       156   8 -1.939555E+05  3.316779E+05 -1.416072E+05 -1.623994E+05  3.967924E+04 -2.438752E+04
       156   9 -1.621333E+05  4.799051E+05 -1.020699E+05 -1.851861E+05  4.489696E+04  1.316609E+04
       156  10  2.796179E+05  2.206179E+06  2.683649E+05 -2.075642E+05 -7.482841E-10  1.635668E-09
       156  11  2.132633E+05  2.049707E+06  1.783416E+05 -1.848085E+05 -1.518743E-09 -4.599381E-09
       156  12  1.692281E+05  1.906092E+06  1.304642E+05 -1.875939E+05 -1.941093E-09 -2.933679E-09
       156  13  2.999087E+04  1.192649E+06  3.218244E+04 -1.863437E+05 -8.095918E-10 -1.436150E-09
       156  14  9.673933E+03  1.190335E+06  1.838086E+04 -1.735958E+05  4.347264E-09 -1.609984E-09
       156  15  3.559208E+03  1.192747E+06  1.420227E+04 -1.863897E+05  1.317278E-09 -1.047016E-09
       156  16 -2.197071E+05  1.800639E+05 -2.040693E+05 -1.651575E+05  7.980810E-10 -1.662193E-09
       156  17 -1.939574E+05  3.316768E+05 -1.416113E+05 -1.623986E+05  1.656617E-09  1.458880E-09
       156  18 -1.621355E+05  4.799044E+05 -1.020741E+05 -1.851866E+05 -5.206494E-10  4.544163E-09
       156  19  2.796208E+05  2.206190E+06  2.683844E+05 -2.075633E+05 -1.199090E+04 -1.011984E+05
       156  20  2.132655E+05  2.049710E+06  1.783483E+05 -1.848070E+05 -3.954808E+04 -4.490523E+04
       156  21  1.692303E+05  1.906093E+06  1.304682E+05 -1.875943E+05 -4.493382E+04  1.140014E+04
       156  22  2.999113E+04  1.192649E+06  3.218344E+04 -1.863435E+05 -1.212939E+04 -1.955435E+04
       156  23  9.675647E+03  1.190336E+06  1.838401E+04 -1.735955E+05 -3.961425E+04 -1.023554E+04
       156  24  3.561375E+03  1.192747E+06  1.420607E+04 -1.863897E+05 -4.491537E+04 -8.897729E+02
       156  25 -2.197059E+05  1.800680E+05 -2.040618E+05 -1.651581E+05 -1.226245E+04  6.195776E+04
       156  26 -1.939555E+05  3.316779E+05 -1.416072E+05 -1.623994E+05 -3.967924E+04  2.438752E+04
       156  27 -1.621333E+05  4.799051E+05 -1.020699E+05 -1.851861E+05 -4.489696E+04 -1.316609E+04
       157   1  1.462209E+05  1.810320E+06  1.124579E+05 -1.893488E+05  4.071066E+04 -1.371930E+04
       157   2  1.109273E+05  1.658981E+06  8.807446E+04 -1.724296E+05  3.374084E+04 -2.746400E+04
       157   3  8.212849E+04  1.510976E+06  7.422042E+04 -1.825813E+05  2.444788E+04 -4.121195E+04
       157   4  3.153613E+03  1.192267E+06  1.415188E+04 -1.867277E+05  4.069039E+04 -1.367817E+03
       157   5  3.408143E+03  1.191057E+06  1.760513E+04 -1.731866E+05  3.370875E+04 -1.019085E+04
       157   6  9.307656E+03  1.192307E+06  2.817875E+04 -1.867168E+05  2.440320E+04 -1.902018E+04
       157   7 -1.399325E+05  5.745922E+05 -8.416341E+04 -1.841092E+05  4.067021E+04  1.097184E+04
       157   8 -1.041213E+05  7.233523E+05 -5.286748E+04 -1.739428E+05  3.367661E+04  7.069827E+03
       157   9 -6.351748E+04  8.737419E+05 -1.786269E+04 -1.908500E+05  2.435821E+04  3.160704E+03
       157  10  1.462190E+05  1.810320E+06  1.124544E+05 -1.893483E+05 -1.751381E-10  3.381927E-09
       157  11  1.109259E+05  1.658980E+06  8.807090E+04 -1.724288E+05  4.251994E-09 -3.617052E-09
       157  12  8.212739E+04  1.510974E+06  7.421612E+04 -1.825804E+05 -1.566117E-10 -1.161988E-09
       157  13  3.151834E+03  1.192266E+06  1.414876E+04 -1.867277E+05  3.810766E-10 -1.977294E-09
       157  14  3.406895E+03  1.191057E+06  1.760280E+04 -1.731863E+05 -9.832731E-10 -1.995824E-09
       157  15  9.306919E+03  1.192307E+06  2.817695E+04 -1.867164E+05 -2.047097E-09 -1.292427E-09
       157  16 -1.399344E+05  5.745916E+05 -8.416674E+04 -1.841095E+05 -9.097364E-10 -3.647999E-09
       157  17 -1.041225E+05  7.233519E+05 -5.286971E+04 -1.739430E+05  3.553657E-10 -1.473668E-10
       157  18 -6.351812E+04  8.737417E+05 -1.786383E+04 -1.908500E+05 -2.807663E-10  3.024622E-09
       157  19  1.462209E+05  1.810320E+06  1.124579E+05 -1.893488E+05 -4.071066E+04  1.371930E+04
       157  20  1.109273E+05  1.658981E+06  8.807446E+04 -1.724296E+05 -3.374084E+04  2.746400E+04
       157  21  8.212849E+04  1.510976E+06  7.422042E+04 -1.825813E+05 -2.444788E+04  4.121195E+04
       157  22  3.153613E+03  1.192267E+06  1.415188E+04 -1.867277E+05 -4.069039E+04  1.367817E+03
       157  23  3.408143E+03  1.191057E+06  1.760513E+04 -1.731866E+05 -3.370875E+04  1.019085E+04
       157  24  9.307656E+03  1.192307E+06  2.817875E+04 -1.867168E+05 -2.440320E+04  1.902018E+04
       157  25 -1.399325E+05  5.745922E+05 -8.416341E+04 -1.841092E+05 -4.067021E+04 -1.097184E+04
       157  26 -1.041213E+05  7.233523E+05 -5.286748E+04 -1.739428E+05 -3.367661E+04 -7.069827E+03
       157  27 -6.351748E+04  8.737419E+05 -1.786269E+04 -1.908500E+05 -2.435821E+04 -3.160704E+03
       158   1  6.258796E+04  1.420455E+06  6.769971E+04 -1.869077E+05  1.816234E+04 -4.604007E+04
       158   2  5.457474E+04  1.262271E+06  7.221159E+04 -1.329870E+05  8.868136E+03 -7.469791E+04
       158   3  1.021816E+05  1.121628E+06  1.092326E+05 -1.060683E+05  1.841149E+03 -1.033460E+05
       158   4  1.148914E+04  1.195848E+06  3.647135E+04 -1.867168E+05  1.811628E+04 -2.385519E+04
       158   5  3.829709E+04  1.186651E+06  6.535116E+04 -1.731130E+05  8.836480E+03 -5.731731E+04
       158   6  1.215525E+05  1.195790E+06  1.300657E+05 -1.865019E+05  1.827726E+03 -9.077585E+04
       158   7 -3.961165E+04  9.712929E+05  5.244227E+03 -1.865259E+05  1.807023E+04 -1.677969E+03
       158   8  2.202548E+04  1.111041E+06  5.849286E+04 -2.132339E+05  8.802580E+03 -3.993869E+04
       158   9  1.409473E+05  1.269971E+06  1.509023E+05 -2.669450E+05  1.811052E+03 -7.820414E+04
       158  10  6.258704E+04  1.420452E+06  6.769512E+04 -1.869070E+05 -2.973479E-09  6.832248E-08
       158  11  5.457316E+04  1.262265E+06  7.220098E+04 -1.329865E+05 -3.475310E-09 -2.680104E-09
       158  12  1.021788E+05  1.121617E+06  1.092126E+05 -1.060682E+05 -5.902444E-10 -6.417697E-08
       158  13  1.148863E+04  1.195847E+06  3.646967E+04 -1.867164E+05 -1.582638E-09 -1.819384E-09
       158  14  3.829612E+04  1.186647E+06  6.534485E+04 -1.731126E+05 -3.416816E-09 -1.886041E-09
       158  15  1.215503E+05  1.195781E+06  1.300502E+05 -1.865018E+05  9.279420E-10 -1.257759E-09
       158  16 -3.961201E+04  9.712928E+05  5.243608E+03 -1.865259E+05 -1.196930E-09 -6.814390E-08
       158  17  2.202497E+04  1.111039E+06  5.848973E+04 -2.132336E+05  1.448481E-09 -1.234583E-09
       158  18  1.409457E+05  1.269965E+06  1.508908E+05 -2.669449E+05 -3.953340E-10  6.596342E-08
       158  19  6.258796E+04  1.420455E+06  6.769971E+04 -1.869077E+05 -1.816234E+04  4.604007E+04
       158  20  5.457474E+04  1.262271E+06  7.221159E+04 -1.329870E+05 -8.868136E+03  7.469791E+04
       158  21  1.021816E+05  1.121628E+06  1.092326E+05 -1.060683E+05 -1.841149E+03  1.033460E+05
       158  22  1.148914E+04  1.195848E+06  3.647135E+04 -1.867168E+05 -1.811628E+04  2.385519E+04
       158  23  3.829709E+04  1.186651E+06  6.535116E+04 -1.731130E+05 -8.836480E+03  5.731731E+04
       158  24  1.215525E+05  1.195790E+06  1.300657E+05 -1.865019E+05 -1.827726E+03  9.077585E+04
       158  25 -3.961165E+04  9.712929E+05  5.244227E+03 -1.865259E+05 -1.807023E+04  1.677969E+03
       158  26  2.202548E+04  1.111041E+06  5.849286E+04 -2.132339E+05 -8.802580E+03  3.993869E+04
       158  27  1.409473E+05  1.269971E+06  1.509023E+05 -2.669450E+05 -1.811052E+03  7.820414E+04
       159   1  7.170036E+05 -1.139288E+03  1.028956E+05  7.824773E+03  3.005715E+05  1.080165E+04
       159   2  7.501191E+05 -3.971198E+05 -1.265044E+05  2.786498E+04  2.011426E+05  2.752125E+04
       159   3  9.229993E+05 -3.140624E+05 -1.699989E+05 -8.690031E+04  1.017843E+05  2.211847E+04
       159   4  2.125754E+06  3.493154E+05  4.525924E+05 -5.481114E+04  3.091954E+05  1.080963E+04
       159   5  2.055610E+06 -7.237315E+04  1.943038E+05  1.343303E+04  2.031730E+05  2.751911E+04
       159   6  2.126069E+06 -1.442748E+04  1.261918E+05 -5.310640E+04  9.723853E+04  2.211122E+04
       159   7  3.536311E+06  6.996376E+05  8.021439E+05 -1.175912E+05  3.178383E+05  1.081589E+04
       159   8  3.362647E+06  2.522482E+05  5.149871E+05 -1.030676E+03  2.052072E+05  2.751688E+04
       159   9  3.330454E+06  2.851041E+05  4.222765E+05 -1.924766E+04  9.268382E+04  2.210347E+04
       159  10  7.169067E+05 -1.163630E+03  1.027258E+05  7.822160E+03 -4.161624E-10  2.331987E-10
       159  11  7.500755E+05 -3.971315E+05 -1.265818E+05  2.786052E+04 -8.261768E-10  3.686290E-10
       159  12  9.229880E+05 -3.140657E+05 -1.700192E+05 -8.690212E+04 -6.592565E-10  5.526520E-10
       159  13  2.125651E+06  3.492897E+05  4.524131E+05 -5.481383E+04  1.392625E-09  1.766626E-10
       159  14  2.055565E+06 -7.238499E+04  1.942251E+05  1.342853E+04 -5.722283E-10  4.268124E-10
       159  15  2.126059E+06 -1.443053E+04  1.261732E+05 -5.310813E+04  3.480142E-10  2.973215E-10
       159  16  3.536203E+06  6.996105E+05  8.019549E+05 -1.175939E+05 -2.257940E-10  1.157906E-10
       159  17  3.362602E+06  2.522362E+05  5.149070E+05 -1.035215E+03 -8.776814E-10  1.830618E-10
       159  18  3.330445E+06  2.851013E+05  4.222596E+05 -1.924930E+04  8.646152E-10  3.242470E-10
       159  19  7.170036E+05 -1.139288E+03  1.028956E+05  7.824773E+03 -3.005715E+05 -1.080165E+04
       159  20  7.501191E+05 -3.971198E+05 -1.265044E+05  2.786498E+04 -2.011426E+05 -2.752125E+04
       159  21  9.229993E+05 -3.140624E+05 -1.699989E+05 -8.690031E+04 -1.017843E+05 -2.211847E+04
       159  22  2.125754E+06  3.493154E+05  4.525924E+05 -5.481114E+04 -3.091954E+05 -1.080963E+04
       159  23  2.055610E+06 -7.237315E+04  1.943038E+05  1.343303E+04 -2.031730E+05 -2.751911E+04
       159  24  2.126069E+06 -1.442748E+04  1.261918E+05 -5.310640E+04 -9.723853E+04 -2.211122E+04
       159  25  3.536311E+06  6.996376E+05  8.021439E+05 -1.175912E+05 -3.178383E+05 -1.081589E+04
       159  26  3.362647E+06  2.522482E+05  5.149871E+05 -1.030676E+03 -2.052072E+05 -2.751688E+04
       159  27  3.330454E+06  2.851041E+05  4.222765E+05 -1.924766E+04 -9.268382E+04 -2.210347E+04
       160   1  1.161663E+06 -1.862295E+05 -1.271820E+05 -3.995069E+04  7.643698E+04  1.670024E+04
       160   2  1.232692E+06 -2.230351E+05 -1.600855E+05  7.731925E+03  5.080934E+04  1.612142E+04
       160   3  1.326094E+06 -1.944362E+05 -1.594235E+05 -5.172224E+04  2.517471E+04  1.317896E+04
       160   4  2.099910E+06  4.726270E+04  1.038419E+05 -4.751826E+04  7.669902E+04  1.669798E+04
       160   5  2.088703E+06 -1.002183E+04  5.051160E+04  6.079316E+03  5.035399E+04  1.611954E+04
       160   6  2.099959E+06 -1.826335E+03  3.120817E+04 -4.744993E+04  2.400535E+04  1.317842E+04
       160   7  3.038955E+06  2.806898E+05  3.348010E+05 -5.509753E+04  7.696139E+04  1.669573E+04
       160   8  2.945379E+06  2.029371E+05  2.610548E+05  4.424317E+03  4.989798E+04  1.611767E+04
       160   9  2.874366E+06  1.907391E+05  2.217957E+05 -4.317224E+04  2.283452E+04  1.317787E+04
       160  10  1.161656E+06 -1.862314E+05 -1.271935E+05 -3.995172E+04 -1.704840E-09  4.917031E-10
       160  11  1.232689E+06 -2.230360E+05 -1.600909E+05  7.731266E+03  5.820408E-10  3.302658E-10
       160  12  1.326094E+06 -1.944365E+05 -1.594250E+05 -5.172250E+04 -1.258813E-09  7.639139E-10
       160  13  2.099903E+06  4.726083E+04  1.038304E+05 -4.751929E+04  5.078149E-10  4.482429E-10
       160  14  2.088700E+06 -1.002279E+04  5.050637E+04  6.078663E+03 -1.988715E-11  2.732076E-10
       160  15  2.099958E+06 -1.826676E+03  3.120677E+04 -4.745018E+04 -4.449264E-10  2.451693E-10
       160  16  3.038949E+06  2.806879E+05  3.347894E+05 -5.509857E+04  9.140302E-10  1.047151E-10
       160  17  2.945376E+06  2.029361E+05  2.610497E+05  4.423670E+03 -1.245445E-09  4.026407E-10
       160  18  2.874366E+06  1.907388E+05  2.217944E+05 -4.317249E+04 -5.434934E-11 -3.980318E-10
       160  19  1.161663E+06 -1.862295E+05 -1.271820E+05 -3.995069E+04 -7.643698E+04 -1.670024E+04
       160  20  1.232692E+06 -2.230351E+05 -1.600855E+05  7.731925E+03 -5.080934E+04 -1.612142E+04
       160  21  1.326094E+06 -1.944362E+05 -1.594235E+05 -5.172224E+04 -2.517471E+04 -1.317896E+04
       160  22  2.099910E+06  4.726270E+04  1.038419E+05 -4.751826E+04 -7.669902E+04 -1.669798E+04
       160  23  2.088703E+06 -1.002183E+04  5.051160E+04  6.079316E+03 -5.035399E+04 -1.611954E+04
       160  24  2.099959E+06 -1.826335E+03  3.120817E+04 -4.744993E+04 -2.400535E+04 -1.317842E+04
       160  25  3.038955E+06  2.806898E+05  3.348010E+05 -5.509753E+04 -7.696139E+04 -1.669573E+04
       160  26  2.945379E+06  2.029371E+05  2.610548E+05  4.424317E+03 -4.989798E+04 -1.611767E+04
       160  27  2.874366E+06  1.907391E+05  2.217957E+05 -4.317224E+04 -2.283452E+04 -1.317787E+04
       161   1  1.540870E+06 -1.317359E+05 -1.116167E+05 -4.257428E+04  1.959263E+04  1.123232E+04
       161   2  1.608809E+06 -1.221201E+05 -1.062770E+05  2.188652E+03  1.295674E+04  8.950730E+03
       161   3  1.680423E+06 -1.034577E+05 -9.425248E+04 -4.394915E+04  6.316463E+03  6.572211E+03
       161   4  2.095868E+06  6.318142E+03  2.474792E+04 -4.385794E+04  1.895799E+04  1.123208E+04
       161   5  2.094033E+06 -1.394667E+03  1.310202E+04  1.587865E+03  1.228873E+04  8.951046E+03
       161   6  2.095872E+06 -5.844395E+01  8.160200E+03 -4.386258E+04  5.615829E+03  6.573121E+03
       161   7  2.651145E+06  1.443494E+05  1.610899E+05 -4.514269E+04  1.832277E+04  1.123184E+04
       161   8  2.579470E+06  1.193133E+05  1.324637E+05  9.866707E+02  1.162020E+04  8.951364E+03
       161   9  2.511478E+06  1.033280E+05  1.105601E+05 -4.377588E+04  4.914727E+03  6.574030E+03
       161  10  1.540869E+06 -1.317362E+05 -1.116176E+05 -4.257445E+04 -8.395910E-10  4.445336E-10
       161  11  1.608809E+06 -1.221203E+05 -1.062774E+05  2.188558E+03  4.920848E-10 -4.760012E-10
       161  12  1.680423E+06 -1.034578E+05 -9.425264E+04 -4.394918E+04  1.303390E-10 -4.559432E-10
       161  13  2.095867E+06  6.317910E+03  2.474701E+04 -4.385811E+04  1.918518E-09  3.302977E-10
       161  14  2.094033E+06 -1.394793E+03  1.310158E+04  1.587777E+03  3.918909E-10 -2.748234E-11
       161  15  2.095872E+06 -5.849883E+01  8.160059E+03 -4.386261E+04 -1.278844E-10  1.000485E-10
       161  16  2.651144E+06  1.443492E+05  1.610890E+05 -4.514285E+04 -3.875639E-10  1.469344E-10
       161  17  2.579470E+06  1.193132E+05  1.324633E+05  9.865870E+02  2.407320E-10 -2.611342E-10
       161  18  2.511478E+06  1.033280E+05  1.105600E+05 -4.377591E+04  2.397932E-10 -2.378719E-11
       161  19  1.540870E+06 -1.317359E+05 -1.116167E+05 -4.257428E+04 -1.959263E+04 -1.123232E+04
       161  20  1.608809E+06 -1.221201E+05 -1.062770E+05  2.188652E+03 -1.295674E+04 -8.950730E+03
       161  21  1.680423E+06 -1.034577E+05 -9.425248E+04 -4.394915E+04 -6.316463E+03 -6.572211E+03
       161  22  2.095868E+06  6.318142E+03  2.474792E+04 -4.385794E+04 -1.895799E+04 -1.123208E+04
       161  23  2.094033E+06 -1.394667E+03  1.310202E+04  1.587865E+03 -1.228873E+04 -8.951046E+03
       161  24  2.095872E+06 -5.844395E+01  8.160200E+03 -4.386258E+04 -5.615829E+03 -6.573121E+03
       161  25  2.651145E+06  1.443494E+05  1.610899E+05 -4.514269E+04 -1.832277E+04 -1.123184E+04
       161  26  2.579470E+06  1.193133E+05  1.324637E+05  9.866707E+02 -1.162020E+04 -8.951364E+03
       161  27  2.511478E+06  1.033280E+05  1.105601E+05 -4.377588E+04 -4.914727E+03 -6.574030E+03
       162   1  1.872245E+06 -5.449181E+04 -4.809010E+04 -4.171808E+04  4.940767E+03  5.191892E+03
       162   2  1.935890E+06 -3.978938E+04 -3.484875E+04 -3.191454E+02  2.776864E+03  2.924482E+03
       162   3  1.999898E+06 -2.345971E+04 -1.986356E+04 -4.206835E+04  6.116529E+02  7.006499E+02
       162   4  2.095174E+06  9.249326E+02  6.545344E+03 -4.213770E+04  4.279735E+03  5.193013E+03
       162   5  2.094995E+06 -2.104745E+02  4.290064E+03 -5.648974E+02  2.127717E+03  2.925739E+03
       162   6  2.095174E+06  2.790883E+02  3.769949E+03 -4.213889E+04 -2.538903E+01  7.020509E+02
       162   7  2.318148E+06  5.633800E+04  6.117715E+04 -4.255745E+04  3.618467E+03  5.194135E+03
       162   8  2.254124E+06  3.936656E+04  4.342702E+04 -8.107007E+02  1.478404E+03  2.926997E+03
       162   9  2.190458E+06  2.401721E+04  2.740278E+04 -4.220943E+04 -6.625284E+02  7.034519E+02
       162  10  1.872245E+06 -5.449185E+04 -4.809019E+04 -4.171810E+04 -9.669066E-10  6.226513E-10
       162  11  1.935890E+06 -3.978939E+04 -3.484878E+04 -3.191520E+02  9.745813E-10  6.789308E-10
       162  12  1.999898E+06 -2.345971E+04 -1.986356E+04 -4.206835E+04 -2.274838E-10  4.621402E-10
       162  13  2.095174E+06  9.248987E+02  6.545259E+03 -4.213772E+04 -3.883940E-10  8.785340E-11
       162  14  2.094995E+06 -2.104849E+02  4.290039E+03 -5.649024E+02  1.820369E-10  8.782648E-10
       162  15  2.095174E+06  2.790878E+02  3.769948E+03 -4.213889E+04 -1.432548E-09  3.160045E-10
       162  16  2.318148E+06  5.633797E+04  6.117708E+04 -4.255747E+04  5.898041E-11  3.671254E-10
       162  17  2.254124E+06  3.936655E+04  4.342700E+04 -8.107042E+02 -1.148684E-09  3.892109E-10
       162  18  2.190458E+06  2.401721E+04  2.740278E+04 -4.220943E+04  2.873913E-10 -1.802218E-10
       162  19  1.872245E+06 -5.449181E+04 -4.809010E+04 -4.171808E+04 -4.940767E+03 -5.191892E+03
       162  20  1.935890E+06 -3.978938E+04 -3.484875E+04 -3.191454E+02 -2.776864E+03 -2.924482E+03
       162  21  1.999898E+06 -2.345971E+04 -1.986356E+04 -4.206835E+04 -6.116529E+02 -7.006499E+02
       162  22  2.095174E+06  9.249326E+02  6.545344E+03 -4.213770E+04 -4.279735E+03 -5.193013E+03
       162  23  2.094995E+06 -2.104745E+02  4.290064E+03 -5.648974E+02 -2.127717E+03 -2.925739E+03
       162  24  2.095174E+06  2.790883E+02  3.769949E+03 -4.213889E+04  2.538903E+01 -7.020509E+02
       162  25  2.318148E+06  5.633800E+04  6.117715E+04 -4.255745E+04 -3.618467E+03 -5.194135E+03
       162  26  2.254124E+06  3.936656E+04  4.342702E+04 -8.107007E+02 -1.478404E+03 -2.926997E+03
       162  27  2.190458E+06  2.401721E+04  2.740278E+04 -4.220943E+04  6.625284E+02 -7.034519E+02
       163   1  2.183824E+06  2.231953E+04  2.588860E+04 -4.215472E+04 -8.620883E+01 -5.787562E+02
       163   2  2.247373E+06  3.765061E+04  4.246080E+04 -8.249507E+02 -2.573372E+03 -2.801192E+03
       163   3  2.311391E+06  5.490026E+04  6.105625E+04 -4.255746E+04 -5.059779E+03 -5.064166E+03
       163   4  2.095199E+06  2.376818E+02  3.893454E+03 -4.212060E+04 -7.235694E+02 -5.773518E+02
       163   5  2.094965E+06 -2.551079E+02  4.976622E+03 -5.879574E+02 -3.221957E+03 -2.799926E+03
       163   6  2.095198E+06  1.173187E+03  8.091488E+03 -4.211883E+04 -5.719336E+03 -5.063030E+03
       163   7  2.006581E+06 -2.184475E+04 -1.810227E+04 -4.208649E+04 -1.360839E+03 -5.759473E+02
       163   8  1.942577E+06 -3.816255E+04 -3.250927E+04 -3.510114E+02 -3.870383E+03 -2.798660E+03
       163   9  1.879047E+06 -5.255734E+04 -4.487669E+04 -4.168034E+04 -6.378663E+03 -5.061896E+03
       163  10  2.183824E+06  2.231953E+04  2.588860E+04 -4.215472E+04 -9.065847E-10 -5.249953E-10
       163  11  2.247373E+06  3.765060E+04  4.246078E+04 -8.249565E+02  1.758806E-09 -9.006793E-10
       163  12  2.311391E+06  5.490022E+04  6.105615E+04 -4.255748E+04 -1.159157E-09  7.624181E-10
       163  13  2.095199E+06  2.376813E+02  3.893453E+03 -4.212060E+04  3.482490E-10  1.603619E-11
       163  14  2.094965E+06 -2.551191E+02  4.976588E+03 -5.879646E+02  1.783582E-10 -1.766172E-10
       163  15  2.095198E+06  1.173151E+03  8.091378E+03 -4.211886E+04 -4.938111E-10  7.086783E-10
       163  16  2.006581E+06 -2.184475E+04 -1.810228E+04 -4.208649E+04  5.192001E-10 -7.959315E-10
       163  17  1.942577E+06 -3.816256E+04 -3.250931E+04 -3.510202E+02 -1.778046E-09  1.936744E-11
       163  18  1.879047E+06 -5.255737E+04 -4.487682E+04 -4.168037E+04  4.907264E-10 -7.883010E-11
       163  19  2.183824E+06  2.231953E+04  2.588860E+04 -4.215472E+04  8.620883E+01  5.787562E+02
       163  20  2.247373E+06  3.765061E+04  4.246080E+04 -8.249507E+02  2.573372E+03  2.801192E+03
       163  21  2.311391E+06  5.490026E+04  6.105625E+04 -4.255746E+04  5.059779E+03  5.064166E+03
       163  22  2.095199E+06  2.376818E+02  3.893454E+03 -4.212060E+04  7.235694E+02  5.773518E+02
       163  23  2.094965E+06 -2.551079E+02  4.976622E+03 -5.879574E+02  3.221957E+03  2.799926E+03
       163  24  2.095198E+06  1.173187E+03  8.091488E+03 -4.211883E+04  5.719336E+03  5.063030E+03
       163  25  2.006581E+06 -2.184475E+04 -1.810227E+04 -4.208649E+04  1.360839E+03  5.759473E+02
       163  26  1.942577E+06 -3.816255E+04 -3.250927E+04 -3.510114E+02  3.870383E+03  2.798660E+03
       163  27  1.879047E+06 -5.255734E+04 -4.487669E+04 -4.168034E+04  6.378663E+03  5.061896E+03
       164   1  2.504521E+06  1.014785E+05  1.108602E+05 -4.353827E+04 -6.681035E+03 -6.440848E+03
       164   2  2.571891E+06  1.171078E+05  1.342372E+05  8.612423E+02 -1.520828E+04 -8.811471E+03
       164   3  2.643777E+06  1.443062E+05  1.661427E+05 -4.539499E+04 -2.373270E+04 -1.108525E+04
       164   4  2.096059E+06 -1.311412E+02  1.021697E+04 -4.381074E+04 -7.380278E+03 -6.439914E+03
       164   5  2.093799E+06 -1.774449E+03  1.668140E+04  1.522439E+03 -1.587377E+04 -8.811128E+03
       164   6  2.096050E+06  8.151144E+03  3.165636E+04 -4.380438E+04 -2.436348E+04 -1.108547E+04
       164   7  1.687748E+06 -1.017532E+05 -9.043855E+04 -4.408296E+04 -8.079062E+03 -6.438979E+03
       164   8  1.615915E+06 -1.206736E+05 -1.008913E+05  2.183187E+03 -1.653874E+04 -8.810786E+03
       164   9  1.548595E+06 -1.280261E+05 -1.028520E+05 -4.221510E+04 -2.499370E+04 -1.108570E+04
       164  10  2.504521E+06  1.014785E+05  1.108600E+05 -4.353830E+04 -4.985939E-10  3.418967E-10
       164  11  2.571891E+06  1.171076E+05  1.342367E+05  8.611345E+02 -8.400809E-10 -9.249199E-10
       164  12  2.643776E+06  1.443059E+05  1.661414E+05 -4.539521E+04 -1.923972E-09 -4.827527E-10
       164  13  2.096059E+06 -1.312004E+02  1.021679E+04 -4.381078E+04 -1.324840E-09 -2.601603E-10
       164  14  2.093799E+06 -1.774600E+03  1.668078E+04  1.522326E+03 -1.040478E-09 -7.838523E-10
       164  15  2.096050E+06  8.150853E+03  3.165501E+04 -4.380459E+04 -4.933725E-10  4.969689E-12
       164  16  1.687748E+06 -1.017533E+05 -9.043875E+04 -4.408301E+04 -6.540347E-10 -1.804784E-10
       164  17  1.615914E+06 -1.206738E+05 -1.008919E+05  2.183070E+03 -2.883326E-09 -5.009056E-10
       164  18  1.548595E+06 -1.280264E+05 -1.028534E+05 -4.221533E+04  5.967538E-10  6.743628E-10
       164  19  2.504521E+06  1.014785E+05  1.108602E+05 -4.353827E+04  6.681035E+03  6.440848E+03
       164  20  2.571891E+06  1.171078E+05  1.342372E+05  8.612423E+02  1.520828E+04  8.811471E+03
       164  21  2.643777E+06  1.443062E+05  1.661427E+05 -4.539499E+04  2.373270E+04  1.108525E+04
       164  22  2.096059E+06 -1.311412E+02  1.021697E+04 -4.381074E+04  7.380278E+03  6.439914E+03
       164  23  2.093799E+06 -1.774449E+03  1.668140E+04  1.522439E+03  1.587377E+04  8.811128E+03
       164  24  2.096050E+06  8.151144E+03  3.165636E+04 -4.380438E+04  2.436348E+04  1.108547E+04
       164  25  1.687748E+06 -1.017532E+05 -9.043855E+04 -4.408296E+04  8.079062E+03  6.438979E+03
       164  26  1.615915E+06 -1.206736E+05 -1.008913E+05  2.183187E+03  1.653874E+04  8.810786E+03
       164  27  1.548595E+06 -1.280261E+05 -1.028520E+05 -4.221510E+04  2.499370E+04  1.108570E+04
       165   1  2.867271E+06  1.881361E+05  2.284604E+05 -4.182189E+04 -2.965300E+04 -1.302423E+04
       165   2  2.935186E+06  1.980029E+05  2.732017E+05  3.668188E+03 -6.414921E+04 -1.596173E+04
       165   3  3.031188E+06  2.919387E+05  3.618688E+05 -5.752892E+04 -9.864706E+04 -1.656487E+04
       165   4  2.101189E+06 -2.358857E+03  3.992038E+04 -4.735011E+04 -3.081417E+04 -1.302460E+04
       165   5  2.087160E+06 -1.280701E+04  6.478407E+04  5.955401E+03 -6.459491E+04 -1.596365E+04
       165   6  2.101122E+06  6.075220E+04  1.331220E+05 -4.743421E+04 -9.837276E+04 -1.656779E+04
       165   7  1.335638E+06 -1.928972E+05 -1.486629E+05 -5.287145E+04 -3.197390E+04 -1.302496E+04
       165   8  1.239784E+06 -2.236701E+05 -1.436864E+05  8.239395E+03 -6.503996E+04 -1.596558E+04
       165   9  1.171839E+06 -1.704980E+05 -9.568835E+04 -3.735484E+04 -9.809877E+04 -1.657069E+04
       165  10  2.867270E+06  1.881357E+05  2.284585E+05 -4.182220E+04 -9.283527E-10  2.475801E-10
       165  11  2.935182E+06  1.980015E+05  2.731935E+05  3.667364E+03 -2.320237E-09  5.365899E-11
       165  12  3.031177E+06  2.919358E+05  3.618501E+05 -5.753023E+04  2.979631E-12  5.892036E-10
       165  13  2.101188E+06 -2.359293E+03  3.991828E+04 -4.735043E+04 -2.446651E-10  3.899168E-10
       165  14  2.087155E+06 -1.280840E+04  6.477578E+04  5.954571E+03  2.340788E-09 -6.650150E-11
       165  15  2.101111E+06  6.074932E+04  1.331033E+05 -4.743552E+04  2.532620E-09  3.682783E-10
       165  16  1.335637E+06 -1.928977E+05 -1.486651E+05 -5.287179E+04  9.902556E-10  2.293624E-10
       165  17  1.239779E+06 -2.236715E+05 -1.436948E+05  8.238559E+03  1.652376E-10 -5.359193E-10
       165  18  1.171829E+06 -1.705008E+05 -9.570692E+04 -3.735615E+04  1.916201E-09  5.306340E-10
       165  19  2.867271E+06  1.881361E+05  2.284604E+05 -4.182189E+04  2.965300E+04  1.302423E+04
       165  20  2.935186E+06  1.980029E+05  2.732017E+05  3.668188E+03  6.414921E+04  1.596173E+04
       165  21  3.031188E+06  2.919387E+05  3.618688E+05 -5.752892E+04  9.864706E+04  1.656487E+04
       165  22  2.101189E+06 -2.358857E+03  3.992038E+04 -4.735011E+04  3.081417E+04  1.302460E+04
       165  23  2.087160E+06 -1.280701E+04  6.478407E+04  5.955401E+03  6.459491E+04  1.596365E+04
       165  24  2.101122E+06  6.075220E+04  1.331220E+05 -4.743421E+04  9.837276E+04  1.656779E+04
       165  25  1.335638E+06 -1.928972E+05 -1.486629E+05 -5.287145E+04  3.197390E+04  1.302496E+04
       165  26  1.239784E+06 -2.236701E+05 -1.436864E+05  8.239395E+03  6.503996E+04  1.596558E+04
       165  27  1.171839E+06 -1.704980E+05 -9.568835E+04 -3.735484E+04  9.809877E+04  1.657069E+04
       166   1  3.328402E+06  2.785610E+05  4.552511E+05 -1.012696E+04 -1.201949E+05 -2.196306E+04
       166   2  3.341442E+06  2.292574E+05  5.673453E+05 -6.343727E+03 -2.626303E+05 -2.747362E+04
       166   3  3.533442E+06  7.953660E+05  9.270637E+05 -1.371752E+05 -4.051752E+05 -1.110963E+04
       166   4  2.134430E+06 -1.842544E+04  1.617219E+05 -5.293821E+04 -1.246898E+05 -2.196719E+04
       166   5  2.045143E+06 -9.266287E+04  2.493058E+05  1.329609E+04 -2.605555E+05 -2.747959E+04
       166   6  2.134028E+06  4.480445E+05  5.803349E+05 -5.508436E+04 -3.965058E+05 -1.112593E+04
       166   7  9.417520E+05 -3.155108E+05 -1.319112E+05 -9.566800E+04 -1.291758E+05 -2.197071E+04
       166   8  7.503666E+05 -4.147058E+05 -6.885651E+04  3.289367E+04 -2.584845E+05 -2.748545E+04
       166   9  7.363987E+05  1.006037E+05  2.334648E+05  2.682023E+04 -3.878549E+05 -1.114001E+04
       166  10  3.328387E+06  2.785566E+05  4.552232E+05 -1.012908E+04  1.253671E-09  1.132784E-09
       166  11  3.341368E+06  2.292382E+05  5.672150E+05 -6.349527E+03 -1.256211E-09  2.199461E-10
       166  12  3.533267E+06  7.953221E+05  9.267566E+05 -1.371788E+05  4.447967E-10 -8.424115E-10
       166  13  2.134413E+06 -1.843011E+04  1.616918E+05 -5.294042E+04 -5.163719E-10  1.041581E-09
       166  14  2.045070E+06 -9.268183E+04  2.491772E+05  1.329033E+04  9.301341E-10 -3.598183E-10
       166  15  2.133860E+06  4.480024E+05  5.800402E+05 -5.508791E+04  2.010808E-10  9.114810E-11
       166  16  9.417339E+05 -3.155158E+05 -1.319434E+05 -9.567029E+04  5.197143E-10  8.533337E-10
       166  17  7.502947E+05 -4.147245E+05 -6.898331E+04  3.288795E+04  1.804151E-09  1.392659E-09
       166  18  7.362373E+05  1.005632E+05  2.331822E+05  2.681675E+04  1.636655E-09 -6.716068E-11
       166  19  3.328402E+06  2.785610E+05  4.552511E+05 -1.012696E+04  1.201949E+05  2.196306E+04
       166  20  3.341442E+06  2.292574E+05  5.673453E+05 -6.343727E+03  2.626303E+05  2.747362E+04
       166  21  3.533442E+06  7.953660E+05  9.270637E+05 -1.371752E+05  4.051752E+05  1.110963E+04
       166  22  2.134430E+06 -1.842544E+04  1.617219E+05 -5.293821E+04  1.246898E+05  2.196719E+04
       166  23  2.045143E+06 -9.266287E+04  2.493058E+05  1.329609E+04  2.605555E+05  2.747959E+04
       166  24  2.134028E+06  4.480445E+05  5.803349E+05 -5.508436E+04  3.965058E+05  1.112593E+04
       166  25  9.417520E+05 -3.155108E+05 -1.319112E+05 -9.566800E+04  1.291758E+05  2.197071E+04
       166  26  7.503666E+05 -4.147058E+05 -6.885651E+04  3.289367E+04  2.584845E+05  2.748545E+04
       166  27  7.363987E+05  1.006037E+05  2.334648E+05  2.682023E+04  3.878549E+05  1.114001E+04
       167   1 -6.891132E+04 -1.703475E+05 -4.397150E+04 -3.319104E+02 -4.400233E+03  6.834737E+04
       167   2 -1.617522E+05 -1.614574E+05 -9.644737E+04 -5.619759E+03 -1.208133E+04  4.573781E+04
       167   3 -1.415439E+05 -1.198239E+05 -1.056461E+05  2.208827E+04 -1.039678E+04  2.317328E+04
       167   4  8.222323E+04  4.356609E+05  1.067106E+05  1.329374E+04 -4.417181E+03  7.198932E+04
       167   5 -1.711700E+04  4.190739E+05  4.643317E+04 -3.420751E+03 -1.208457E+04  4.666135E+04
       167   6 -2.992963E+03  4.356719E+05  3.129016E+04  1.285829E+04 -1.038932E+04  2.137939E+04
       167   7  2.333310E+05  1.042003E+06  2.573653E+05  2.693312E+04 -4.433962E+03  7.563480E+04
       167   8  1.274932E+05  9.999117E+05  1.892889E+05 -1.219331E+03 -1.208780E+04  4.758573E+04
       167   9  1.355353E+05  9.914484E+05  1.682037E+05  3.620316E+03 -1.038182E+04  1.958389E+04
       167  10 -6.891260E+04 -1.703525E+05 -4.398032E+04 -3.316681E+02  1.914246E-09  7.802964E-10
       167  11 -1.617529E+05 -1.614597E+05 -9.645158E+04 -5.619314E+03  8.857599E-10 -3.659609E-10
       167  12 -1.415442E+05 -1.198246E+05 -1.056473E+05  2.208847E+04 -6.162193E-10 -7.811128E-10
       167  13  8.222182E+04  4.356554E+05  1.067008E+05  1.329399E+04  2.360508E-09 -9.381414E-11
       167  14 -1.711774E+04  4.190715E+05  4.642880E+04 -3.420297E+03  5.593044E-10 -1.427816E-10
       167  15 -2.993201E+03  4.356714E+05  3.128910E+04  1.285847E+04  5.778432E-10 -6.657150E-11
       167  16  2.333295E+05  1.041997E+06  2.573545E+05  2.693339E+04  1.115983E-09 -8.266353E-10
       167  17  1.274924E+05  9.999092E+05  1.892843E+05 -1.218868E+03  4.462355E-09  1.898811E-10
       167  18  1.355351E+05  9.914480E+05  1.682028E+05  3.620480E+03  1.350188E-10  6.222705E-10
       167  19 -6.891132E+04 -1.703475E+05 -4.397150E+04 -3.319104E+02  4.400233E+03 -6.834737E+04
       167  20 -1.617522E+05 -1.614574E+05 -9.644737E+04 -5.619759E+03  1.208133E+04 -4.573781E+04
       167  21 -1.415439E+05 -1.198239E+05 -1.056461E+05  2.208827E+04  1.039678E+04 -2.317328E+04
       167  22  8.222323E+04  4.356609E+05  1.067106E+05  1.329374E+04  4.417181E+03 -7.198932E+04
       167  23 -1.711700E+04  4.190739E+05  4.643317E+04 -3.420751E+03  1.208457E+04 -4.666135E+04
       167  24 -2.992963E+03  4.356719E+05  3.129016E+04  1.285829E+04  1.038932E+04 -2.137939E+04
       167  25  2.333310E+05  1.042003E+06  2.573653E+05  2.693312E+04  4.433962E+03 -7.563480E+04
       167  26  1.274932E+05  9.999117E+05  1.892889E+05 -1.219331E+03  1.208780E+04 -4.758573E+04
       167  27  1.355353E+05  9.914484E+05  1.682037E+05  3.620316E+03  1.038182E+04 -1.958389E+04
       168   1 -1.100875E+05 -5.569136E+04 -9.324943E+04  1.135901E+04 -8.532336E+03  1.590626E+04
       168   2 -1.183576E+05 -3.609713E+04 -9.858850E+04 -1.918396E+03 -8.775121E+03  8.366517E+03
       168   3 -1.065632E+05 -9.530744E+03 -9.380513E+04  1.492972E+04 -7.379025E+03  8.308412E+02
       168   4  1.095028E+04  4.298842E+05  2.652896E+04  1.238322E+04 -8.533038E+03  1.622876E+04
       168   5 -3.092120E+03  4.263588E+05  1.536244E+04 -2.694522E+03 -8.774206E+03  8.211606E+03
       168   6  3.004869E+03  4.298837E+05  1.464440E+04  1.235179E+04 -7.376988E+03  1.987963E+02
       168   7  1.319705E+05  9.156741E+05  1.462899E+05  1.340842E+04 -8.533738E+03  1.655151E+04
       168   8  1.121574E+05  8.890093E+05  1.292976E+05 -3.471072E+03 -8.773291E+03  8.056578E+03
       168   9  1.125586E+05  8.694736E+05  1.230796E+05  9.772146E+03 -7.374947E+03 -4.336953E+02
       168  10 -1.100877E+05 -5.569166E+04 -9.325004E+04  1.135912E+04 -2.274506E-09  2.849062E-09
       168  11 -1.183577E+05 -3.609723E+04 -9.858878E+04 -1.918337E+03 -5.701716E-10 -5.304580E-11
       168  12 -1.065633E+05 -9.530759E+03 -9.380523E+04  1.492973E+04  1.524679E-10 -2.681027E-09
       168  13  1.095013E+04  4.298839E+05  2.652833E+04  1.238333E+04 -2.122753E-09 -5.881388E-11
       168  14 -3.092221E+03  4.263587E+05  1.536217E+04 -2.694464E+03  1.071701E-10 -7.304768E-11
       168  15  3.004811E+03  4.298837E+05  1.464430E+04  1.235179E+04 -2.114355E-09 -8.464401E-11
       168  16  1.319704E+05  9.156738E+05  1.462893E+05  1.340853E+04 -1.720713E-09 -2.864878E-09
       168  17  1.121573E+05  8.890092E+05  1.292973E+05 -3.471015E+03 -1.889298E-09  1.997741E-10
       168  18  1.125585E+05  8.694736E+05  1.230795E+05  9.772144E+03 -6.747749E-10  2.627047E-09
       168  19 -1.100875E+05 -5.569136E+04 -9.324943E+04  1.135901E+04  8.532336E+03 -1.590626E+04
       168  20 -1.183576E+05 -3.609713E+04 -9.858850E+04 -1.918396E+03  8.775121E+03 -8.366517E+03
       168  21 -1.065632E+05 -9.530744E+03 -9.380513E+04  1.492972E+04  7.379025E+03 -8.308412E+02
       168  22  1.095028E+04  4.298842E+05  2.652896E+04  1.238322E+04  8.533038E+03 -1.622876E+04
       168  23 -3.092120E+03  4.263588E+05  1.536244E+04 -2.694522E+03  8.774206E+03 -8.211606E+03
       168  24  3.004869E+03  4.298837E+05  1.464440E+04  1.235179E+04  7.376988E+03 -1.987963E+02
       168  25  1.319705E+05  9.156741E+05  1.462899E+05  1.340842E+04  8.533738E+03 -1.655151E+04
       168  26  1.121574E+05  8.890093E+05  1.292976E+05 -3.471072E+03  8.773291E+03 -8.056578E+03
       168  27  1.125586E+05  8.694736E+05  1.230796E+05  9.772146E+03  7.374947E+03  4.336953E+02
       169   1 -9.294787E+04  5.628855E+04 -7.754095E+04  1.001514E+04 -7.402672E+03 -2.970101E+03
       169   2 -9.359582E+04  7.233586E+04 -7.020282E+04 -3.063568E+02 -7.044599E+03 -1.069186E+04
       169   3 -5.708029E+04  9.925401E+04 -4.842939E+04  1.753413E+04 -2.213333E+03 -1.840649E+04
       169   4  3.646856E+02  4.307995E+05  1.467054E+04  1.190733E+04 -7.403738E+03 -2.424483E+03
       169   5 -5.646400E+03  4.252511E+05  1.667920E+04 -2.150753E+03 -7.042756E+03 -1.143904E+04
       169   6  2.571941E+04  4.307927E+05  3.401510E+04  1.195202E+04 -2.209611E+03 -2.044621E+04
       169   7  9.366682E+04  8.054379E+05  1.068717E+05  1.380075E+04 -7.404800E+03 -1.878537E+03
       169   8  8.229376E+04  7.782797E+05  1.035520E+05 -3.996140E+03 -7.040908E+03 -1.218664E+04
       169   9  1.085110E+05  7.624312E+05  1.164514E+05  6.366965E+03 -2.205852E+03 -2.248701E+04
       169  10 -9.294793E+04  5.628853E+04 -7.754107E+04  1.001512E+04 -2.230167E-12 -1.733150E-10
       169  11 -9.359590E+04  7.233573E+04 -7.020313E+04 -3.064175E+02  2.312240E-09  2.608313E-10
       169  12 -5.708039E+04  9.925365E+04 -4.843004E+04  1.753410E+04  7.855387E-10 -1.620887E-10
       169  13  3.646252E+02  4.307994E+05  1.467043E+04  1.190732E+04  1.139817E-11 -1.140705E-10
       169  14 -5.646489E+03  4.252510E+05  1.667886E+04 -2.150818E+03  9.845334E-10 -1.533521E-11
       169  15  2.571929E+04  4.307923E+05  3.401431E+04  1.195198E+04  5.419973E-10  3.651652E-11
       169  16  9.366676E+04  8.054379E+05  1.068716E+05  1.380074E+04 -1.102770E-09  2.658275E-10
       169  17  8.229367E+04  7.782795E+05  1.035517E+05 -3.996209E+03  2.543533E-10 -3.079718E-10
       169  18  1.085108E+05  7.624306E+05  1.164504E+05  6.366925E+03  6.038899E-10  1.182817E-10
       169  19 -9.294787E+04  5.628855E+04 -7.754095E+04  1.001514E+04  7.402672E+03  2.970101E+03
       169  20 -9.359582E+04  7.233586E+04 -7.020282E+04 -3.063568E+02  7.044599E+03  1.069186E+04
       169  21 -5.708029E+04  9.925401E+04 -4.842939E+04  1.753413E+04  2.213333E+03  1.840649E+04
       169  22  3.646856E+02  4.307995E+05  1.467054E+04  1.190733E+04  7.403738E+03  2.424483E+03
       169  23 -5.646400E+03  4.252511E+05  1.667920E+04 -2.150753E+03  7.042756E+03  1.143904E+04
       169  24  2.571941E+04  4.307927E+05  3.401510E+04  1.195202E+04  2.209611E+03  2.044621E+04
       169  25  9.366682E+04  8.054379E+05  1.068717E+05  1.380075E+04  7.404800E+03  1.878537E+03
       169  26  8.229376E+04  7.782797E+05  1.035520E+05 -3.996140E+03  7.040908E+03  1.218664E+04
       169  27  1.085110E+05  7.624312E+05  1.164514E+05  6.366965E+03  2.205852E+03  2.248701E+04
       170   1 -2.709313E+06 -8.999217E+05 -6.396531E+05 -8.921730E+05 -3.036344E+05 -1.107454E+05
       170   2 -2.623939E+06 -4.699656E+05 -3.594166E+05 -9.804789E+05 -1.978079E+05 -6.047794E+04
       170   3 -2.727760E+06 -5.007976E+05 -2.873400E+05 -9.457439E+05 -8.832549E+04 -1.981283E+04
       170   4 -2.146661E+06 -6.239670E+05 -4.723164E+05 -6.753268E+05 -3.002104E+05 -1.094786E+05
       170   5 -2.028015E+06 -2.270932E+05 -1.937130E+05 -8.002774E+05 -1.968758E+05 -6.013092E+04
       170   6 -2.097904E+06 -2.902511E+05 -1.211392E+05 -8.022390E+05 -8.988071E+04 -2.039864E+04
       170   7 -1.583694E+06 -3.479270E+05 -3.050116E+05 -4.582821E+05 -2.967829E+05 -1.082095E+05
       170   8 -1.431748E+06  1.581512E+04 -2.804291E+04 -6.199142E+05 -1.959426E+05 -5.978342E+04
       170   9 -1.467666E+06 -7.970147E+04  4.502877E+04 -6.586121E+05 -9.143764E+04 -2.098491E+04
       170  10 -2.709415E+06 -8.999598E+05 -6.398504E+05 -8.922002E+05 -6.197679E-10  2.195330E-10
       170  11 -2.623982E+06 -4.699801E+05 -3.594974E+05 -9.804886E+05 -1.782880E-09  5.304079E-10
       170  12 -2.727768E+06 -5.008001E+05 -2.873555E+05 -9.457453E+05  1.239775E-09  2.116909E-10
       170  13 -2.146761E+06 -6.240042E+05 -4.725090E+05 -6.753534E+05  1.314920E-09  9.531596E-11
       170  14 -2.028058E+06 -2.271076E+05 -1.937930E+05 -8.002870E+05  3.196947E-10  7.333131E-10
       170  15 -2.097913E+06 -2.902538E+05 -1.211552E+05 -8.022405E+05  4.139896E-09  3.352002E-10
       170  16 -1.583792E+06 -3.479633E+05 -3.051997E+05 -4.583080E+05 -3.621945E-11 -6.333144E-11
       170  17 -1.431790E+06  1.580093E+04 -2.812199E+04 -6.199237E+05  2.912593E-09  3.938742E-10
       170  18 -1.467676E+06 -7.970419E+04  4.501219E+04 -6.586137E+05 -1.227489E-09  1.196254E-10
       170  19 -2.709313E+06 -8.999217E+05 -6.396531E+05 -8.921730E+05  3.036344E+05  1.107454E+05
       170  20 -2.623939E+06 -4.699656E+05 -3.594166E+05 -9.804789E+05  1.978079E+05  6.047794E+04
       170  21 -2.727760E+06 -5.007976E+05 -2.873400E+05 -9.457439E+05  8.832549E+04  1.981283E+04
       170  22 -2.146661E+06 -6.239670E+05 -4.723164E+05 -6.753268E+05  3.002104E+05  1.094786E+05
       170  23 -2.028015E+06 -2.270932E+05 -1.937130E+05 -8.002774E+05  1.968758E+05  6.013092E+04
       170  24 -2.097904E+06 -2.902511E+05 -1.211392E+05 -8.022390E+05  8.988071E+04  2.039864E+04
       170  25 -1.583694E+06 -3.479270E+05 -3.050116E+05 -4.582821E+05  2.967829E+05  1.082095E+05
       170  26 -1.431748E+06  1.581512E+04 -2.804291E+04 -6.199142E+05  1.959426E+05  5.978342E+04
       170  27 -1.467666E+06 -7.970147E+04  4.502877E+04 -6.586121E+05  9.143764E+04  2.098491E+04
       171   1 -2.662840E+06 -5.768989E+05 -2.605264E+05 -9.432250E+05 -7.168431E+04 -1.519310E+04
       171   2 -2.644825E+06 -5.056756E+05 -2.029587E+05 -9.443787E+05 -4.746910E+04 -5.095798E+03
       171   3 -2.640003E+06 -5.115651E+05 -1.810054E+05 -9.433248E+05 -2.265081E+04  3.407450E+03
       171   4 -2.079536E+06 -3.472374E+05 -9.954434E+04 -7.751069E+05 -7.129981E+04 -1.504939E+04
       171   5 -2.069635E+06 -2.855345E+05 -4.566745E+04 -7.849789E+05 -4.749082E+04 -5.105024E+03
       171   6 -2.072821E+06 -3.008253E+05 -2.705571E+04 -7.926488E+05 -2.307935E+04  3.245251E+03
       171   7 -1.495905E+06 -1.175493E+05  6.140595E+04 -6.068437E+05 -7.091489E+04 -1.490551E+04
       171   8 -1.494127E+06 -6.537213E+04  1.115937E+05 -6.254451E+05 -4.751255E+04 -5.114252E+03
       171   9 -1.505330E+06 -9.006950E+04  1.268654E+05 -6.418495E+05 -2.350831E+04  3.082898E+03
       171  10 -2.662845E+06 -5.769005E+05 -2.605365E+05 -9.432259E+05 -2.374177E-10 -1.860886E-10
       171  11 -2.644828E+06 -5.056763E+05 -2.029631E+05 -9.443789E+05 -1.405848E-09 -4.242483E-10
       171  12 -2.640003E+06 -5.115652E+05 -1.810064E+05 -9.433248E+05 -1.400762E-09 -3.110250E-12
       171  13 -2.079541E+06 -3.472391E+05 -9.955436E+04 -7.751078E+05 -4.718980E-10 -2.172903E-10
       171  14 -2.069637E+06 -2.855351E+05 -4.567175E+04 -7.849791E+05  1.446414E-10 -8.949085E-10
       171  15 -2.072822E+06 -3.008254E+05 -2.705673E+04 -7.926487E+05  1.165208E-10  2.306236E-10
       171  16 -1.495911E+06 -1.175508E+05  6.139605E+04 -6.068446E+05 -1.474389E-09  2.232873E-10
       171  17 -1.494129E+06 -6.537277E+04  1.115894E+05 -6.254453E+05  1.572988E-09 -4.688917E-10
       171  18 -1.505330E+06 -9.006966E+04  1.268643E+05 -6.418495E+05  6.237111E-10  6.770785E-10
       171  19 -2.662840E+06 -5.768989E+05 -2.605264E+05 -9.432250E+05  7.168431E+04  1.519310E+04
       171  20 -2.644825E+06 -5.056756E+05 -2.029587E+05 -9.443787E+05  4.746910E+04  5.095798E+03
       171  21 -2.640003E+06 -5.115651E+05 -1.810054E+05 -9.433248E+05  2.265081E+04 -3.407450E+03
       171  22 -2.079536E+06 -3.472374E+05 -9.954434E+04 -7.751069E+05  7.129981E+04  1.504939E+04
       171  23 -2.069635E+06 -2.855345E+05 -4.566745E+04 -7.849789E+05  4.749082E+04  5.105024E+03
       171  24 -2.072821E+06 -3.008253E+05 -2.705571E+04 -7.926488E+05  2.307935E+04 -3.245251E+03
       171  25 -1.495905E+06 -1.175493E+05  6.140595E+04 -6.068437E+05  7.091489E+04  1.490551E+04
       171  26 -1.494127E+06 -6.537213E+04  1.115937E+05 -6.254451E+05  4.751255E+04  5.114252E+03
       171  27 -1.505330E+06 -9.006950E+04  1.268654E+05 -6.418495E+05  2.350831E+04 -3.082898E+03
       172   1 -2.569676E+06 -5.019327E+05 -1.585070E+05 -9.294068E+05 -1.875773E+04  4.179819E+03
       172   2 -2.556238E+06 -4.717041E+05 -1.410031E+05 -9.100187E+05 -1.288263E+04  5.667909E+03
       172   3 -2.520892E+06 -4.753052E+05 -1.299124E+05 -9.166910E+05 -6.823973E+03  6.663574E+03
       172   4 -2.067850E+06 -3.109804E+05 -2.151437E+04 -7.914596E+05 -1.887109E+04  4.136450E+03
       172   5 -2.078353E+06 -2.908326E+05 -1.071050E+04 -7.796513E+05 -1.312384E+04  5.576648E+03
       172   6 -2.066921E+06 -3.044827E+05 -6.213862E+03 -7.939024E+05 -7.193344E+03  6.524494E+03
       172   7 -1.565782E+06 -1.200126E+05  1.154554E+05 -6.534114E+05 -1.898455E+04  4.093045E+03
       172   8 -1.600249E+06 -1.099480E+05  1.195614E+05 -6.491933E+05 -1.336525E+04  5.485312E+03
       172   9 -1.612753E+06 -1.336492E+05  1.174659E+05 -6.710331E+05 -7.563012E+03  6.385304E+03
       172  10 -2.569676E+06 -5.019329E+05 -1.585077E+05 -9.294067E+05 -1.380519E-09  1.597914E-11
       172  11 -2.556238E+06 -4.717042E+05 -1.410035E+05 -9.100186E+05 -4.864170E-10 -1.436647E-09
       172  12 -2.520892E+06 -4.753052E+05 -1.299126E+05 -9.166910E+05 -1.790052E-10 -2.144283E-12
       172  13 -2.067850E+06 -3.109805E+05 -2.151508E+04 -7.914595E+05  1.485808E-09  1.066002E-10
       172  14 -2.078353E+06 -2.908327E+05 -1.071088E+04 -7.796512E+05  8.608649E-10  5.195216E-10
       172  15 -2.066921E+06 -3.044828E+05 -6.214039E+03 -7.939023E+05  1.990334E-10  8.061056E-10
       172  16 -1.565782E+06 -1.200127E+05  1.154546E+05 -6.534113E+05 -7.498500E-11  9.805359E-10
       172  17 -1.600250E+06 -1.099481E+05  1.195610E+05 -6.491933E+05  6.934799E-10  2.000605E-10
       172  18 -1.612753E+06 -1.336493E+05  1.174657E+05 -6.710331E+05  9.496503E-11  8.872782E-10
       172  19 -2.569676E+06 -5.019327E+05 -1.585070E+05 -9.294068E+05  1.875773E+04 -4.179819E+03
       172  20 -2.556238E+06 -4.717041E+05 -1.410031E+05 -9.100187E+05  1.288263E+04 -5.667909E+03
       172  21 -2.520892E+06 -4.753052E+05 -1.299124E+05 -9.166910E+05  6.823973E+03 -6.663574E+03
       172  22 -2.067850E+06 -3.109804E+05 -2.151437E+04 -7.914596E+05  1.887109E+04 -4.136450E+03
       172  23 -2.078353E+06 -2.908326E+05 -1.071050E+04 -7.796513E+05  1.312384E+04 -5.576648E+03
       172  24 -2.066921E+06 -3.044827E+05 -6.213862E+03 -7.939024E+05  7.193344E+03 -6.524494E+03
       172  25 -1.565782E+06 -1.200126E+05  1.154554E+05 -6.534114E+05  1.898455E+04 -4.093045E+03
       172  26 -1.600249E+06 -1.099480E+05  1.195614E+05 -6.491933E+05  1.336525E+04 -5.485312E+03
       172  27 -1.612753E+06 -1.336492E+05  1.174659E+05 -6.710331E+05  7.563012E+03 -6.385304E+03
       173   1 -2.421472E+06 -4.423616E+05 -1.020895E+05 -8.927607E+05 -5.733627E+03  6.262628E+03
       173   2 -2.404717E+06 -4.112994E+05 -9.092740E+04 -8.642028E+05 -3.766515E+03  5.675242E+03
       173   3 -2.354089E+06 -4.157183E+05 -8.118062E+04 -8.743751E+05 -1.708554E+03  4.840914E+03
       173   4 -2.064629E+06 -3.075925E+05 -4.958358E+03 -7.956775E+05 -6.013966E+03  6.157182E+03
       173   5 -2.081509E+06 -2.894166E+05 -2.900367E+03 -7.764791E+05 -4.112334E+03  5.545478E+03
       173   6 -2.064506E+06 -3.067072E+05 -2.205124E+03 -7.960102E+05 -2.119972E+03  4.686863E+03
       173   7 -1.707663E+06 -1.728159E+05  9.216144E+04 -6.985437E+05 -6.294482E+03  6.051669E+03
       173   8 -1.758201E+06 -1.675278E+05  8.511730E+04 -6.887142E+05 -4.458351E+03  5.415640E+03
       173   9 -1.774843E+06 -1.976915E+05  7.676279E+04 -7.176123E+05 -2.531602E+03  4.532733E+03
       173  10 -2.421472E+06 -4.423616E+05 -1.020896E+05 -8.927607E+05  3.796894E-10  7.378380E-10
       173  11 -2.404717E+06 -4.112994E+05 -9.092748E+04 -8.642028E+05 -3.478515E-10 -8.534018E-11
       173  12 -2.354089E+06 -4.157184E+05 -8.118067E+04 -8.743751E+05  4.096560E-10  6.022952E-10
       173  13 -2.064629E+06 -3.075926E+05 -4.958497E+03 -7.956774E+05 -2.596822E-10  7.211279E-10
       173  14 -2.081509E+06 -2.894166E+05 -2.900457E+03 -7.764791E+05 -1.202271E-10  3.349969E-10
       173  15 -2.064506E+06 -3.067073E+05 -2.205173E+03 -7.960102E+05 -5.381266E-10  2.429828E-10
       173  16 -1.707663E+06 -1.728159E+05  9.216129E+04 -6.985437E+05 -8.218508E-10  9.463870E-10
       173  17 -1.758201E+06 -1.675279E+05  8.511721E+04 -6.887142E+05 -7.407882E-10 -2.500112E-10
       173  18 -1.774843E+06 -1.976915E+05  7.676274E+04 -7.176123E+05 -1.085011E-09 -3.618740E-10
       173  19 -2.421472E+06 -4.423616E+05 -1.020895E+05 -8.927607E+05  5.733627E+03 -6.262628E+03
       173  20 -2.404717E+06 -4.112994E+05 -9.092740E+04 -8.642028E+05  3.766515E+03 -5.675242E+03
       173  21 -2.354089E+06 -4.157183E+05 -8.118062E+04 -8.743751E+05  1.708554E+03 -4.840914E+03
       173  22 -2.064629E+06 -3.075925E+05 -4.958358E+03 -7.956775E+05  6.013966E+03 -6.157182E+03
       173  23 -2.081509E+06 -2.894166E+05 -2.900367E+03 -7.764791E+05  4.112334E+03 -5.545478E+03
       173  24 -2.064506E+06 -3.067072E+05 -2.205124E+03 -7.960102E+05  2.119972E+03 -4.686863E+03
       173  25 -1.707663E+06 -1.728159E+05  9.216144E+04 -6.985437E+05  6.294482E+03 -6.051669E+03
       173  26 -1.758201E+06 -1.675278E+05  8.511730E+04 -6.887142E+05  4.458351E+03 -5.415640E+03
       173  27 -1.774843E+06 -1.976915E+05  7.676279E+04 -7.176123E+05  2.531602E+03 -4.532733E+03
       174   1 -2.232654E+06 -3.717312E+05 -4.812953E+04 -8.432829E+05 -1.061032E+03  4.101325E+03
       174   2 -2.213169E+06 -3.370147E+05 -3.803216E+04 -8.100512E+05  7.982664E+02  3.150148E+03
       174   3 -2.154953E+06 -3.428201E+05 -2.923603E+04 -8.217539E+05  2.686488E+03  2.119611E+03
       174   4 -2.063426E+06 -3.079409E+05 -2.181538E+03 -7.973391E+05 -1.438671E+03  3.960074E+03
       174   5 -2.082833E+06 -2.879600E+05 -2.556564E+03 -7.747689E+05  3.995893E+02  3.001141E+03
       174   6 -2.063507E+06 -3.084963E+05 -4.215884E+03 -7.971333E+05  2.266678E+03  1.962826E+03
       174   7 -1.894170E+06 -2.441490E+05  4.376381E+04 -7.513841E+05 -1.816422E+03  3.818781E+03
       174   8 -1.952481E+06 -2.389043E+05  3.291750E+04 -7.394800E+05  8.198361E-01  2.852099E+03
       174   9 -1.972052E+06 -2.741719E+05  2.080354E+04 -7.725094E+05  1.846800E+03  1.806016E+03
       174  10 -2.232654E+06 -3.717312E+05 -4.812957E+04 -8.432829E+05  6.381345E-10  8.391670E-10
       174  11 -2.213169E+06 -3.370147E+05 -3.803218E+04 -8.100512E+05 -5.147830E-10  7.499071E-11
       174  12 -2.154953E+06 -3.428201E+05 -2.923605E+04 -8.217539E+05 -1.451280E-09 -1.548327E-09
       174  13 -2.063426E+06 -3.079409E+05 -2.181571E+03 -7.973391E+05 -2.779306E-10  1.019749E-09
       174  14 -2.082833E+06 -2.879600E+05 -2.556581E+03 -7.747689E+05  4.214612E-10  1.502088E-09
       174  15 -2.063507E+06 -3.084963E+05 -4.215901E+03 -7.971333E+05 -1.252467E-09  1.607964E-09
       174  16 -1.894170E+06 -2.441490E+05  4.376378E+04 -7.513841E+05 -1.363975E-09  1.888828E-10
       174  17 -1.952481E+06 -2.389043E+05  3.291748E+04 -7.394800E+05 -6.262979E-10 -6.182836E-10
       174  18 -1.972052E+06 -2.741720E+05  2.080353E+04 -7.725094E+05  4.398849E-10 -4.845767E-10
       174  19 -2.232654E+06 -3.717312E+05 -4.812953E+04 -8.432829E+05  1.061032E+03 -4.101325E+03
       174  20 -2.213169E+06 -3.370147E+05 -3.803216E+04 -8.100512E+05 -7.982664E+02 -3.150148E+03
       174  21 -2.154953E+06 -3.428201E+05 -2.923603E+04 -8.217539E+05 -2.686488E+03 -2.119611E+03
       174  22 -2.063426E+06 -3.079409E+05 -2.181538E+03 -7.973391E+05  1.438671E+03 -3.960074E+03
       174  23 -2.082833E+06 -2.879600E+05 -2.556564E+03 -7.747689E+05 -3.995893E+02 -3.001141E+03
       174  24 -2.063507E+06 -3.084963E+05 -4.215884E+03 -7.971333E+05 -2.266678E+03 -1.962826E+03
       174  25 -1.894170E+06 -2.441490E+05  4.376381E+04 -7.513841E+05  1.816422E+03 -3.818781E+03
       174  26 -1.952481E+06 -2.389043E+05  3.291750E+04 -7.394800E+05 -8.198361E-01 -2.852099E+03
       174  27 -1.972052E+06 -2.741719E+05  2.080354E+04 -7.725094E+05 -1.846800E+03 -1.806016E+03
       175   1 -2.024927E+06 -2.936937E+05  5.331067E+03 -7.877907E+05  3.843444E+03  1.477094E+03
       175   2 -2.004469E+06 -2.573218E+05  1.234466E+04 -7.534571E+05  8.958131E+03  1.621103E+03
       175   3 -1.947512E+06 -2.683184E+05  1.394310E+04 -7.632377E+05  1.400615E+04  1.945595E+03
       175   4 -2.063696E+06 -3.078225E+05 -5.277504E+03 -7.977709E+05  3.402138E+03  1.312307E+03
       175   5 -2.082315E+06 -2.867993E+05 -8.873803E+03 -7.747191E+05  8.564734E+03  1.474130E+03
       175   6 -2.064449E+06 -3.131552E+05 -1.792381E+04 -7.957824E+05  1.366034E+04  1.816322E+03
       175   7 -2.102462E+06 -3.219512E+05 -1.588621E+04 -8.077506E+05  2.960863E+03  1.147531E+03
       175   8 -2.160157E+06 -3.162764E+05 -3.009280E+04 -7.959786E+05  8.171392E+03  1.327177E+03
       175   9 -2.181372E+06 -3.579910E+05 -4.979191E+04 -8.283214E+05  1.331460E+04  1.687078E+03
       175  10 -2.024927E+06 -2.936937E+05  5.331035E+03 -7.877907E+05  1.003033E-09 -5.436799E-10
       175  11 -2.004469E+06 -2.573218E+05  1.234450E+04 -7.534572E+05  1.145710E-09 -1.015425E-09
       175  12 -1.947513E+06 -2.683185E+05  1.394273E+04 -7.632377E+05 -5.178749E-10 -6.116490E-12
       175  13 -2.063696E+06 -3.078225E+05 -5.277529E+03 -7.977709E+05 -1.175360E-09  1.311821E-09
       175  14 -2.082316E+06 -2.867993E+05 -8.873946E+03 -7.747191E+05  8.340372E-10  1.720247E-09
       175  15 -2.064449E+06 -3.131553E+05 -1.792417E+04 -7.957824E+05 -5.913845E-10 -1.084737E-11
       175  16 -2.102462E+06 -3.219513E+05 -1.588623E+04 -8.077506E+05 -3.883344E-10 -5.889038E-10
       175  17 -2.160157E+06 -3.162764E+05 -3.009293E+04 -7.959787E+05  7.027539E-10  1.999899E-10
       175  18 -2.181373E+06 -3.579911E+05 -4.979225E+04 -8.283214E+05  6.059666E-10 -1.685868E-10
       175  19 -2.024927E+06 -2.936937E+05  5.331067E+03 -7.877907E+05 -3.843444E+03 -1.477094E+03
       175  20 -2.004469E+06 -2.573218E+05  1.234466E+04 -7.534571E+05 -8.958131E+03 -1.621103E+03
       175  21 -1.947512E+06 -2.683184E+05  1.394310E+04 -7.632377E+05 -1.400615E+04 -1.945595E+03
       175  22 -2.063696E+06 -3.078225E+05 -5.277504E+03 -7.977709E+05 -3.402138E+03 -1.312307E+03
       175  23 -2.082315E+06 -2.867993E+05 -8.873803E+03 -7.747191E+05 -8.564734E+03 -1.474130E+03
       175  24 -2.064449E+06 -3.131552E+05 -1.792381E+04 -7.957824E+05 -1.366034E+04 -1.816322E+03
       175  25 -2.102462E+06 -3.219512E+05 -1.588621E+04 -8.077506E+05 -2.960863E+03 -1.147531E+03
       175  26 -2.160157E+06 -3.162764E+05 -3.009280E+04 -7.959786E+05 -8.171392E+03 -1.327177E+03
       175  27 -2.181372E+06 -3.579910E+05 -4.979191E+04 -8.283214E+05 -1.331460E+04 -1.687078E+03
       176   1 -1.823137E+06 -2.174811E+05  4.339416E+04 -7.356127E+05  1.794769E+04  2.244060E+03
       176   2 -1.800767E+06 -1.751166E+05  3.754008E+04 -7.007156E+05  3.825548E+04  8.102633E+03
       176   3 -1.764884E+06 -2.220515E+05  2.433845E+03 -6.934091E+05  5.812069E+04  1.515145E+04
       176   4 -2.067273E+06 -3.060528E+05 -2.252725E+04 -7.982629E+05  1.737361E+04  2.029467E+03
       176   5 -2.076732E+06 -2.807085E+05 -3.787476E+04 -7.772335E+05  3.799261E+04  8.003950E+03
       176   6 -2.072752E+06 -3.447428E+05 -8.273254E+04 -7.837952E+05  5.816781E+04  1.516811E+04
       176   7 -2.311352E+06 -3.946224E+05 -8.845404E+04 -8.608915E+05  1.679977E+04  1.814958E+03
       176   8 -2.352625E+06 -3.862956E+05 -1.132966E+05 -8.537206E+05  3.772986E+04  7.905316E+03
       176   9 -2.380529E+06 -4.674257E+05 -1.679077E+05 -8.741396E+05  5.821491E+04  1.518476E+04
       176  10 -1.823137E+06 -2.174812E+05  4.339354E+04 -7.356127E+05  3.341690E-10  5.745166E-10
       176  11 -1.800768E+06 -1.751171E+05  3.753719E+04 -7.007159E+05 -9.837571E-10  1.021823E-10
       176  12 -1.764887E+06 -2.220526E+05  2.427043E+03 -6.934099E+05 -1.335419E-10 -3.214975E-10
       176  13 -2.067273E+06 -3.060529E+05 -2.252783E+04 -7.982629E+05  6.663312E-10  1.542298E-10
       176  14 -2.076734E+06 -2.807090E+05 -3.787760E+04 -7.772338E+05 -5.898752E-10  2.364019E-10
       176  15 -2.072756E+06 -3.447439E+05 -8.273936E+04 -7.837959E+05 -2.784978E-10  2.951783E-11
       176  16 -2.311352E+06 -3.946224E+05 -8.845458E+04 -8.608915E+05  1.446543E-10 -4.290126E-10
       176  17 -2.352627E+06 -3.862961E+05 -1.132994E+05 -8.537209E+05  4.661179E-10  4.269839E-10
       176  18 -2.380533E+06 -4.674269E+05 -1.679146E+05 -8.741403E+05 -8.680669E-10  2.633131E-10
       176  19 -1.823137E+06 -2.174811E+05  4.339416E+04 -7.356127E+05 -1.794769E+04 -2.244060E+03
       176  20 -1.800767E+06 -1.751166E+05  3.754008E+04 -7.007156E+05 -3.825548E+04 -8.102633E+03
       176  21 -1.764884E+06 -2.220515E+05  2.433845E+03 -6.934091E+05 -5.812069E+04 -1.515145E+04
       176  22 -2.067273E+06 -3.060528E+05 -2.252725E+04 -7.982629E+05 -1.737361E+04 -2.029467E+03
       176  23 -2.076732E+06 -2.807085E+05 -3.787476E+04 -7.772335E+05 -3.799261E+04 -8.003950E+03
       176  24 -2.072752E+06 -3.447428E+05 -8.273254E+04 -7.837952E+05 -5.816781E+04 -1.516811E+04
       176  25 -2.311352E+06 -3.946224E+05 -8.845404E+04 -8.608915E+05 -1.679977E+04 -1.814958E+03
       176  26 -2.352625E+06 -3.862956E+05 -1.132966E+05 -8.537206E+05 -3.772986E+04 -7.905316E+03
       176  27 -2.380529E+06 -4.674257E+05 -1.679077E+05 -8.741396E+05 -5.821491E+04 -1.518476E+04
       177   1 -1.653523E+06 -1.579769E+05  1.285840E+04 -7.134799E+05  7.546596E+04  1.949182E+04
       177   2 -1.609236E+06 -5.422904E+04 -4.025951E+04 -6.572938E+05  1.627422E+05  5.027394E+04
       177   3 -1.692354E+06 -3.613258E+05 -2.628652E+05 -5.325043E+05  2.469829E+05  8.915391E+04
       177   4 -2.087408E+06 -2.978716E+05 -1.006391E+05 -8.068687E+05  7.388048E+04  1.890055E+04
       177   5 -2.043263E+06 -2.312496E+05 -1.608756E+05 -7.889444E+05  1.632734E+05  5.046858E+04
       177   6 -2.127053E+06 -5.760668E+05 -3.923766E+05 -7.023889E+05  2.496294E+05  9.012411E+04
       177   7 -2.521110E+06 -4.377667E+05 -2.141517E+05 -9.002040E+05  7.229621E+04  1.830958E+04
       177   8 -2.477108E+06 -4.082505E+05 -2.815093E+05 -9.205088E+05  1.638040E+05  5.066302E+04
       177   9 -2.561564E+06 -7.907540E+05 -5.219069E+05 -8.721529E+05  2.522739E+05  9.109296E+04
       177  10 -1.653529E+06 -1.579788E+05  1.284695E+04 -7.134811E+05  2.567948E-10 -6.464670E-11
       177  11 -1.609266E+06 -5.423889E+04 -4.031420E+04 -6.573004E+05 -2.209409E-10 -2.035831E-10
       177  12 -1.692422E+06 -3.613508E+05 -2.629952E+05 -5.325221E+05 -1.887308E-10 -1.563583E-10
       177  13 -2.087414E+06 -2.978735E+05 -1.006501E+05 -8.068698E+05 -1.020331E-09 -5.164607E-10
       177  14 -2.043293E+06 -2.312595E+05 -1.609307E+05 -7.889511E+05  2.895487E-10 -3.627546E-10
       177  15 -2.127122E+06 -5.760923E+05 -3.925095E+05 -7.024071E+05 -3.311721E-10  3.248186E-10
       177  16 -2.521116E+06 -4.377684E+05 -2.141622E+05 -9.002051E+05 -2.911714E-10 -5.164675E-10
       177  17 -2.477138E+06 -4.082605E+05 -2.815648E+05 -9.205155E+05  7.889708E-10 -5.503737E-10
       177  18 -2.561635E+06 -7.907802E+05 -5.220427E+05 -8.721715E+05  3.175596E-10 -1.607070E-10
       177  19 -1.653523E+06 -1.579769E+05  1.285840E+04 -7.134799E+05 -7.546596E+04 -1.949182E+04
       177  20 -1.609236E+06 -5.422904E+04 -4.025951E+04 -6.572938E+05 -1.627422E+05 -5.027394E+04
       177  21 -1.692354E+06 -3.613258E+05 -2.628652E+05 -5.325043E+05 -2.469829E+05 -8.915391E+04
       177  22 -2.087408E+06 -2.978716E+05 -1.006391E+05 -8.068687E+05 -7.388048E+04 -1.890055E+04
       177  23 -2.043263E+06 -2.312496E+05 -1.608756E+05 -7.889444E+05 -1.632734E+05 -5.046858E+04
       177  24 -2.127053E+06 -5.760668E+05 -3.923766E+05 -7.023889E+05 -2.496294E+05 -9.012411E+04
       177  25 -2.521110E+06 -4.377667E+05 -2.141517E+05 -9.002040E+05 -7.229621E+04 -1.830958E+04
       177  26 -2.477108E+06 -4.082505E+05 -2.815093E+05 -9.205088E+05 -1.638040E+05 -5.066302E+04
       177  27 -2.561564E+06 -7.907540E+05 -5.219069E+05 -8.721529E+05 -2.522739E+05 -9.109296E+04
       178   1 -1.490951E+06 -2.521866E+05 -2.231239E+05 -2.819900E+04  7.406455E+04  9.578665E+03
       178   2 -1.443383E+06 -3.474549E+05 -2.721603E+05  4.796672E+03  5.205307E+04  2.711531E+04
       178   3 -1.354284E+06 -3.149628E+05 -2.735790E+05 -5.117677E+04  3.013092E+04  2.308550E+04
       178   4 -1.083005E+05  9.325881E+04  1.210880E+05 -4.124917E+04  8.236102E+04  9.615324E+03
       178   5 -1.295890E+05 -1.973241E+04  5.153428E+04  3.453832E+03  5.409574E+04  2.711839E+04
       178   6 -1.083320E+05 -4.016599E+03  3.386959E+04 -4.079970E+04  2.592255E+04  2.307423E+04
       178   7  1.276088E+06  4.385613E+05  4.651569E+05 -5.433051E+04  9.067583E+04  9.651596E+03
       178   8  1.185777E+06  3.078615E+05  3.751013E+05  2.106765E+03  5.614263E+04  2.712146E+04
       178   9  1.139033E+06  3.068141E+05  3.412033E+05 -3.040243E+04  2.170570E+04  2.306284E+04
       178  10 -1.490957E+06 -2.521882E+05 -2.231344E+05 -2.819957E+04  2.704983E-09  5.546970E-10
       178  11 -1.443386E+06 -3.474564E+05 -2.721668E+05  4.795534E+03  1.150509E-09 -1.898902E-09
       178  12 -1.354285E+06 -3.149637E+05 -2.735817E+05 -5.117733E+04 -1.560480E-09 -5.228663E-11
       178  13 -1.083078E+05  9.325688E+04  1.210751E+05 -4.124980E+04  1.340799E-09 -1.577509E-09
       178  14 -1.295923E+05 -1.973399E+04  5.152740E+04  3.452650E+03  4.855112E-10 -1.045340E-09
       178  15 -1.083329E+05 -4.017352E+03  3.386733E+04 -4.080018E+04 -4.819078E-11 -8.428947E-10
       178  16  1.276079E+06  4.385590E+05  4.651413E+05 -5.433121E+04 -2.193977E-09  1.665082E-09
       178  17  1.185774E+06  3.078599E+05  3.750940E+05  2.105540E+03 -1.267531E-09 -1.912301E-09
       178  18  1.139033E+06  3.068134E+05  3.412014E+05 -3.040283E+04  1.298330E-09 -7.643454E-10
       178  19 -1.490951E+06 -2.521866E+05 -2.231239E+05 -2.819900E+04 -7.406455E+04 -9.578665E+03
       178  20 -1.443383E+06 -3.474549E+05 -2.721603E+05  4.796672E+03 -5.205307E+04 -2.711531E+04
       178  21 -1.354284E+06 -3.149628E+05 -2.735790E+05 -5.117677E+04 -3.013092E+04 -2.308550E+04
       178  22 -1.083005E+05  9.325881E+04  1.210880E+05 -4.124917E+04 -8.236102E+04 -9.615324E+03
       178  23 -1.295890E+05 -1.973241E+04  5.153428E+04  3.453832E+03 -5.409574E+04 -2.711839E+04
       178  24 -1.083320E+05 -4.016599E+03  3.386959E+04 -4.079970E+04 -2.592255E+04 -2.307423E+04
       178  25  1.276088E+06  4.385613E+05  4.651569E+05 -5.433051E+04 -9.067583E+04 -9.651596E+03
       178  26  1.185777E+06  3.078615E+05  3.751013E+05  2.106765E+03 -5.614263E+04 -2.712146E+04
       178  27  1.139033E+06  3.068141E+05  3.412033E+05 -3.040243E+04 -2.170570E+04 -2.306284E+04
       179   1 -1.161394E+06 -2.485916E+05 -2.303911E+05 -4.009307E+04  1.997643E+04  1.836997E+04
       179   2 -1.096459E+06 -2.464435E+05 -2.275278E+05  4.178989E+03  1.378069E+04  1.839643E+04
       179   3 -1.022977E+06 -2.268016E+05 -2.155667E+05 -4.190272E+04  7.580090E+03  1.574904E+04
       179   4 -1.157090E+05  1.233359E+04  2.778572E+04 -4.125357E+04  2.039406E+04  1.836850E+04
       179   5 -1.200531E+05 -2.855134E+03  1.330057E+04  3.926878E+03  1.341899E+04  1.839444E+04
       179   6 -1.157264E+05 -4.275655E+02  8.444580E+03 -4.123749E+04  6.439734E+03  1.574836E+04
       179   7  9.309715E+05  2.731771E+05  2.858815E+05 -4.241635E+04  2.081237E+04  1.836703E+04
       179   8  8.572209E+05  2.406621E+05  2.540584E+05  3.674285E+03  1.305670E+04  1.839244E+04
       179   9  7.922736E+05  2.258850E+05  2.323948E+05 -4.057113E+04  5.297706E+03  1.574768E+04
       179  10 -1.161395E+06 -2.485920E+05 -2.303925E+05 -4.009336E+04 -4.397638E-10 -1.681349E-10
       179  11 -1.096459E+06 -2.464439E+05 -2.275288E+05  4.178785E+03  1.049012E-09 -1.597889E-10
       179  12 -1.022977E+06 -2.268019E+05 -2.155673E+05 -4.190282E+04 -1.531544E-09  9.816672E-11
       179  13 -1.157095E+05  1.233311E+04  2.778431E+04 -4.125387E+04 -6.607338E-10 -1.324640E-09
       179  14 -1.200534E+05 -2.855545E+03  1.329960E+04  3.926680E+03 -1.600625E-09  4.206255E-10
       179  15 -1.157265E+05 -4.278430E+02  8.444036E+03 -4.123757E+04 -8.556617E-10  3.919537E-10
       179  16  9.309710E+05  2.731766E+05  2.858800E+05 -4.241665E+04 -2.998018E-10  3.492184E-11
       179  17  8.572207E+05  2.406617E+05  2.540574E+05  3.674091E+03 -2.758785E-09 -3.767073E-10
       179  18  7.922735E+05  2.258847E+05  2.323943E+05 -4.057120E+04 -3.056050E-10  8.410366E-10
       179  19 -1.161394E+06 -2.485916E+05 -2.303911E+05 -4.009307E+04 -1.997643E+04 -1.836997E+04
       179  20 -1.096459E+06 -2.464435E+05 -2.275278E+05  4.178989E+03 -1.378069E+04 -1.839643E+04
       179  21 -1.022977E+06 -2.268016E+05 -2.155667E+05 -4.190272E+04 -7.580090E+03 -1.574904E+04
       179  22 -1.157090E+05  1.233359E+04  2.778572E+04 -4.125357E+04 -2.039406E+04 -1.836850E+04
       179  23 -1.200531E+05 -2.855134E+03  1.330057E+04  3.926878E+03 -1.341899E+04 -1.839444E+04
       179  24 -1.157264E+05 -4.275655E+02  8.444580E+03 -4.123749E+04 -6.439734E+03 -1.574836E+04
       179  25  9.309715E+05  2.731771E+05  2.858815E+05 -4.241635E+04 -2.081237E+04 -1.836703E+04
       179  26  8.572209E+05  2.406621E+05  2.540584E+05  3.674285E+03 -1.305670E+04 -1.839244E+04
       179  27  7.922736E+05  2.258850E+05  2.323948E+05 -4.057113E+04 -5.297706E+03 -1.574768E+04
       180   1 -8.208724E+05 -1.739323E+05 -1.668071E+05 -4.063980E+04  5.629314E+03  1.391302E+04
       180   2 -7.517420E+05 -1.585116E+05 -1.528751E+05  5.122478E+03  3.972896E+03  1.175685E+04
       180   3 -6.807608E+05 -1.404430E+05 -1.370051E+05 -4.055903E+04  2.310874E+03  9.258125E+03
       180   4 -1.171327E+05  1.579831E+03  6.615449E+03 -4.148309E+04  5.061445E+03  1.391268E+04
       180   5 -1.180699E+05 -4.511824E+02  3.418768E+03  4.235132E+03  3.304658E+03  1.175729E+04
       180   6 -1.171435E+05  1.826691E+02  2.228843E+03 -4.148462E+04  1.542452E+03  9.259513E+03
       180   7  5.870580E+05  1.770550E+05  1.800014E+05 -4.232719E+04  4.492931E+03  1.391234E+04
       180   8  5.159677E+05  1.575793E+05  1.596830E+05  3.347041E+03  2.635737E+03  1.175773E+04
       180   9  4.467627E+05  1.407846E+05  1.414393E+05 -4.241087E+04  7.733331E+02  9.260903E+03
       180  10 -8.208725E+05 -1.739325E+05 -1.668075E+05 -4.063986E+04 -1.309075E-10  3.506502E-10
       180  11 -7.517420E+05 -1.585117E+05 -1.528754E+05  5.122440E+03  1.498479E-09  3.947397E-10
       180  12 -6.807608E+05 -1.404431E+05 -1.370053E+05 -4.055905E+04 -1.636555E-09 -6.567952E-10
       180  13 -1.171328E+05  1.579617E+03  6.615037E+03 -4.148315E+04 -1.363333E-09  4.493929E-11
       180  14 -1.180699E+05 -4.513337E+02  3.418488E+03  4.235100E+03 -4.510342E-09  7.810679E-10
       180  15 -1.171436E+05  1.825764E+02  2.228677E+03 -4.148464E+04 -4.732862E-10  2.402634E-09
       180  16  5.870579E+05  1.770548E+05  1.800010E+05 -4.232725E+04  2.407253E-10  6.296912E-12
       180  17  5.159677E+05  1.575791E+05  1.596827E+05  3.347016E+03 -9.976241E-10 -1.906405E-09
       180  18  4.467626E+05  1.407845E+05  1.414391E+05 -4.241088E+04  3.687907E-10  1.802912E-10
       180  19 -8.208724E+05 -1.739323E+05 -1.668071E+05 -4.063980E+04 -5.629314E+03 -1.391302E+04
       180  20 -7.517420E+05 -1.585116E+05 -1.528751E+05  5.122478E+03 -3.972896E+03 -1.175685E+04
       180  21 -6.807608E+05 -1.404430E+05 -1.370051E+05 -4.055903E+04 -2.310874E+03 -9.258125E+03
       180  22 -1.171327E+05  1.579831E+03  6.615449E+03 -4.148309E+04 -5.061445E+03 -1.391268E+04
       180  23 -1.180699E+05 -4.511824E+02  3.418768E+03  4.235132E+03 -3.304658E+03 -1.175729E+04
       180  24 -1.171435E+05  1.826691E+02  2.228843E+03 -4.148462E+04 -1.542452E+03 -9.259513E+03
       180  25  5.870580E+05  1.770550E+05  1.800014E+05 -4.232719E+04 -4.492931E+03 -1.391234E+04
       180  26  5.159677E+05  1.575793E+05  1.596830E+05  3.347041E+03 -2.635737E+03 -1.175773E+04
       180  27  4.467627E+05  1.407846E+05  1.414393E+05 -4.241087E+04 -7.733331E+02 -9.260903E+03
       181   1 -4.756376E+05 -8.893622E+04 -8.637434E+04 -4.086738E+04  1.868941E+03  7.763231E+03
       181   2 -4.050086E+05 -7.179383E+04 -6.979634E+04  5.058880E+03  1.315973E+03  5.319700E+03
       181   3 -3.345153E+05 -5.383928E+04 -5.274239E+04 -4.108008E+04  7.605429E+02  2.832286E+03
       181   4 -1.175267E+05  3.338715E+02  1.728305E+03 -4.162269E+04  1.171886E+03  7.764885E+03
       181   5 -1.174606E+05 -8.217229E+01  1.114771E+03  4.408593E+03  6.059768E+02  5.321708E+03
       181   6 -1.175316E+05  3.167666E+02  9.865989E+02 -4.162268E+04  3.766629E+01  2.834672E+03
       181   7  2.407010E+05  8.959442E+04  8.982150E+04 -4.237835E+04  4.744303E+02  7.766540E+03
       181   8  1.701626E+05  7.162332E+04  7.201977E+04  3.758061E+03 -1.043484E+02  5.323716E+03
       181   9  9.949489E+04  5.446929E+04  5.471209E+04 -4.216544E+04 -6.854628E+02  2.837059E+03
       181  10 -4.756377E+05 -8.893629E+04 -8.637446E+04 -4.086739E+04 -3.994193E-10  3.692313E-10
       181  11 -4.050086E+05 -7.179386E+04 -6.979640E+04  5.058874E+03  1.183160E-09 -1.586509E-10
       181  12 -3.345153E+05 -5.383929E+04 -5.274241E+04 -4.108009E+04  1.051367E-09 -1.060847E-09
       181  13 -1.175267E+05  3.338064E+02  1.728189E+03 -4.162270E+04  3.325429E-10 -1.283591E-09
       181  14 -1.174606E+05 -8.220280E+01  1.114718E+03  4.408590E+03 -3.839690E-10  2.548049E-11
       181  15 -1.175316E+05  3.167579E+02  9.865838E+02 -4.162268E+04 -7.780648E-11 -2.363192E-09
       181  16  2.407009E+05  8.959436E+04  8.982138E+04 -4.237835E+04  1.865076E-09  1.248404E-09
       181  17  1.701626E+05  7.162329E+04  7.201971E+04  3.758061E+03 -2.674448E-09 -1.121279E-09
       181  18  9.949488E+04  5.446928E+04  5.471207E+04 -4.216543E+04 -6.995302E-10 -3.660494E-09
       181  19 -4.756376E+05 -8.893622E+04 -8.637434E+04 -4.086738E+04 -1.868941E+03 -7.763231E+03
       181  20 -4.050086E+05 -7.179383E+04 -6.979634E+04  5.058880E+03 -1.315973E+03 -5.319700E+03
       181  21 -3.345153E+05 -5.383928E+04 -5.274239E+04 -4.108008E+04 -7.605429E+02 -2.832286E+03
       181  22 -1.175267E+05  3.338715E+02  1.728305E+03 -4.162269E+04 -1.171886E+03 -7.764885E+03
       181  23 -1.174606E+05 -8.217229E+01  1.114771E+03  4.408593E+03 -6.059768E+02 -5.321708E+03
       181  24 -1.175316E+05  3.167666E+02  9.865989E+02 -4.162268E+04 -3.766629E+01 -2.834672E+03
       181  25  2.407010E+05  8.959442E+04  8.982150E+04 -4.237835E+04 -4.744303E+02 -7.766540E+03
       181  26  1.701626E+05  7.162332E+04  7.201977E+04  3.758061E+03  1.043484E+02 -5.323716E+03
       181  27  9.949489E+04  5.446929E+04  5.471209E+04 -4.216544E+04  6.854628E+02 -2.837059E+03
       182   1 -1.281193E+05 -2.308539E+03 -1.388315E+03 -4.161347E+04  5.726113E+02  1.370299E+03
       182   2 -5.719746E+04  1.492593E+04  1.608840E+04  4.299893E+03 -7.100285E+01 -1.116091E+03
       182   3  1.328499E+04  3.307665E+04  3.405525E+04 -4.200576E+04 -7.141183E+02 -3.571435E+03
       182   4 -1.175852E+05  2.741566E+02  9.883265E+02 -4.165785E+04 -1.484663E+02  1.372791E+03
       182   5 -1.173614E+05 -7.524276E+01  1.255196E+03  4.452282E+03 -7.831356E+02 -1.113707E+03
       182   6 -1.175841E+05  4.901866E+02  2.006121E+03 -4.165713E+04 -1.417234E+03 -3.569141E+03
       182   7 -1.070509E+05  2.856845E+03  3.364963E+03 -4.170224E+04 -8.695560E+02  1.375282E+03
       182   8 -1.775220E+05 -1.507668E+04 -1.357827E+04  4.604660E+03 -1.495199E+03 -1.111323E+03
       182   9 -2.484376E+05 -3.209754E+04 -3.004426E+04 -4.130857E+04 -2.120202E+03 -3.566848E+03
       182  10 -1.281193E+05 -2.308541E+03 -1.388319E+03 -4.161347E+04  3.033610E-10  1.980547E-09
       182  11 -5.719746E+04  1.492593E+04  1.608839E+04  4.299893E+03  4.570897E-09  5.594445E-09
       182  12  1.328499E+04  3.307663E+04  3.405523E+04 -4.200576E+04  1.492947E-09 -3.443933E-09
       182  13 -1.175852E+05  2.741546E+02  9.883229E+02 -4.165785E+04 -9.033683E-10  1.703157E-10
       182  14 -1.173614E+05 -7.524426E+01  1.255193E+03  4.452282E+03  1.677639E-09 -6.492601E-10
       182  15 -1.175841E+05  4.901724E+02  2.006093E+03 -4.165714E+04 -9.940038E-10 -4.176441E-10
       182  16 -1.070509E+05  2.856843E+03  3.364958E+03 -4.170224E+04  2.336738E-09  7.004427E-11
       182  17 -1.775220E+05 -1.507669E+04 -1.357828E+04  4.604658E+03 -2.502009E-09  1.318228E-10
       182  18 -2.484376E+05 -3.209756E+04 -3.004430E+04 -4.130857E+04 -4.204148E-09 -4.281227E-10
       182  19 -1.281193E+05 -2.308539E+03 -1.388315E+03 -4.161347E+04 -5.726113E+02 -1.370299E+03
       182  20 -5.719746E+04  1.492593E+04  1.608840E+04  4.299893E+03  7.100285E+01  1.116091E+03
       182  21  1.328499E+04  3.307665E+04  3.405525E+04 -4.200576E+04  7.141183E+02  3.571435E+03
       182  22 -1.175852E+05  2.741566E+02  9.883265E+02 -4.165785E+04  1.484663E+02 -1.372791E+03
       182  23 -1.173614E+05 -7.524276E+01  1.255196E+03  4.452282E+03  7.831356E+02  1.113707E+03
       182  24 -1.175841E+05  4.901866E+02  2.006121E+03 -4.165713E+04  1.417234E+03  3.569141E+03
       182  25 -1.070509E+05  2.856845E+03  3.364963E+03 -4.170224E+04  8.695560E+02 -1.375282E+03
       182  26 -1.775220E+05 -1.507668E+04 -1.357827E+04  4.604660E+03  1.495199E+03  1.111323E+03
       182  27 -2.484376E+05 -3.209754E+04 -3.004426E+04 -4.130857E+04  2.120202E+03  3.566848E+03
       183   1  2.199144E+05  8.431759E+04  8.590238E+04 -4.221286E+04 -1.074601E+03 -5.063190E+03
       183   2  2.898730E+05  1.011513E+05  1.046010E+05  3.480502E+03 -3.263309E+03 -7.563414E+03
       183   3  3.608844E+05  1.212518E+05  1.255255E+05 -4.272055E+04 -5.448361E+03 -9.775343E+03
       183   4 -1.172863E+05  2.118767E+02  2.558165E+03 -4.158774E+04 -1.837626E+03 -5.060932E+03
       183   5 -1.177999E+05 -4.743299E+02  4.113884E+03  4.363536E+03 -3.942072E+03 -7.561883E+03
       183   6 -1.172792E+05  2.092892E+03  7.838381E+03 -4.158334E+04 -6.042617E+03 -9.774441E+03
       183   7 -4.543837E+05 -8.390233E+04 -8.079449E+04 -4.096288E+04 -2.600237E+03 -5.058675E+03
       183   8 -5.253216E+05 -1.021124E+05 -9.638549E+04  5.246091E+03 -4.620390E+03 -7.560353E+03
       183   9 -5.952348E+05 -1.170831E+05 -1.098656E+05 -4.044687E+04 -6.636414E+03 -9.773540E+03
       183  10  2.199143E+05  8.431756E+04  8.590233E+04 -4.221286E+04 -8.176824E-10 -3.996055E-09
       183  11  2.898729E+05  1.011513E+05  1.046008E+05  3.480482E+03 -2.028729E-10  5.330135E-10
       183  12  3.608844E+05  1.212517E+05  1.255252E+05 -4.272059E+04  6.095920E-11  2.191045E-10
       183  13 -1.172863E+05  2.118483E+02  2.558111E+03 -4.158775E+04 -8.152376E-10 -4.539605E-10
       183  14 -1.177999E+05 -4.743955E+02  4.113748E+03  4.363512E+03  2.308910E-09 -9.295683E-10
       183  15 -1.172792E+05  2.092780E+03  7.838132E+03 -4.158338E+04  1.420189E-10 -8.301361E-10
       183  16 -4.543837E+05 -8.390236E+04 -8.079456E+04 -4.096289E+04  2.435229E-09 -5.954575E-10
       183  17 -5.253217E+05 -1.021124E+05 -9.638564E+04  5.246063E+03 -1.643397E-09  2.927079E-09
       183  18 -5.952349E+05 -1.170832E+05 -1.098658E+05 -4.044692E+04  5.821999E-10  8.806839E-11
       183  19  2.199144E+05  8.431759E+04  8.590238E+04 -4.221286E+04  1.074601E+03  5.063190E+03
       183  20  2.898730E+05  1.011513E+05  1.046010E+05  3.480502E+03  3.263309E+03  7.563414E+03
       183  21  3.608844E+05  1.212518E+05  1.255255E+05 -4.272055E+04  5.448361E+03  9.775343E+03
       183  22 -1.172863E+05  2.118767E+02  2.558165E+03 -4.158774E+04  1.837626E+03  5.060932E+03
       183  23 -1.177999E+05 -4.743299E+02  4.113884E+03  4.363536E+03  3.942072E+03  7.561883E+03
       183  24 -1.172792E+05  2.092892E+03  7.838381E+03 -4.158334E+04  6.042617E+03  9.774441E+03
       183  25 -4.543837E+05 -8.390233E+04 -8.079449E+04 -4.096288E+04  2.600237E+03  5.058675E+03
       183  26 -5.253216E+05 -1.021124E+05 -9.638549E+04  5.246091E+03  4.620390E+03  7.560353E+03
       183  27 -5.952348E+05 -1.170831E+05 -1.098656E+05 -4.044687E+04  6.636414E+03  9.773540E+03
       184   1  5.675223E+05  1.699384E+05  1.785639E+05 -4.104255E+04 -6.574256E+03 -1.155928E+04
       184   2  6.333559E+05  1.844251E+05  2.015276E+05  2.842342E+03 -1.558248E+04 -1.418117E+04
       184   3  7.073575E+05  2.201605E+05  2.360012E+05 -4.436364E+04 -2.458475E+04 -1.452869E+04
       184   4 -1.157960E+05 -4.044431E+02  9.954228E+03 -4.141233E+04 -7.656559E+03 -1.155794E+04
       184   5 -1.198172E+05 -3.278108E+03  1.595800E+04  4.140247E+03 -1.600017E+04 -1.418180E+04
       184   6 -1.157819E+05  1.499516E+04  3.302041E+04 -4.140477E+04 -2.433682E+04 -1.453012E+04
       184   7 -7.986901E+05 -1.707821E+05 -1.586900E+05 -4.178148E+04 -8.737669E+03 -1.155659E+04
       184   8 -8.724746E+05 -1.910236E+05 -1.696535E+05  5.436723E+03 -1.641734E+04 -1.418244E+04
       184   9 -9.383056E+05 -1.902206E+05 -1.700105E+05 -3.844974E+04 -2.408919E+04 -1.453155E+04
       184  10  5.675222E+05  1.699382E+05  1.785636E+05 -4.104261E+04  6.791654E-10  2.353885E-10
       184  11  6.333556E+05  1.844249E+05  2.015268E+05  2.842164E+03  2.483815E-09 -2.933879E-09
       184  12  7.073568E+05  2.201601E+05  2.359996E+05 -4.436393E+04  2.283441E-10 -1.493131E-09
       184  13 -1.157961E+05 -4.046023E+02  9.953867E+03 -4.141240E+04 -5.001356E-10 -1.650819E-10
       184  14 -1.198175E+05 -3.278392E+03  1.595714E+04  4.140064E+03 -1.722842E-09  8.762178E-10
       184  15 -1.157826E+05  1.499477E+04  3.301890E+04 -4.140505E+04 -1.917177E-09  1.902791E-10
       184  16 -7.986902E+05 -1.707822E+05 -1.586904E+05 -4.178156E+04  1.326303E-09  3.229117E-10
       184  17 -8.724750E+05 -1.910239E+05 -1.696544E+05  5.436535E+03 -2.220837E-09  1.432184E-10
       184  18 -9.383063E+05 -1.902210E+05 -1.700120E+05 -3.845002E+04 -1.263931E-09  4.708849E-10
       184  19  5.675223E+05  1.699384E+05  1.785639E+05 -4.104255E+04  6.574256E+03  1.155928E+04
       184  20  6.333559E+05  1.844251E+05  2.015276E+05  2.842342E+03  1.558248E+04  1.418117E+04
       184  21  7.073575E+05  2.201605E+05  2.360012E+05 -4.436364E+04  2.458475E+04  1.452869E+04
       184  22 -1.157960E+05 -4.044431E+02  9.954228E+03 -4.141233E+04  7.656559E+03  1.155794E+04
       184  23 -1.198172E+05 -3.278108E+03  1.595800E+04  4.140247E+03  1.600017E+04  1.418180E+04
       184  24 -1.157819E+05  1.499516E+04  3.302041E+04 -4.140477E+04  2.433682E+04  1.453012E+04
       184  25 -7.986901E+05 -1.707821E+05 -1.586900E+05 -4.178148E+04  8.737669E+03  1.155659E+04
       184  26 -8.724746E+05 -1.910236E+05 -1.696535E+05  5.436723E+03  1.641734E+04  1.418244E+04
       184  27 -9.383056E+05 -1.902206E+05 -1.700105E+05 -3.844974E+04  2.408919E+04  1.453155E+04
       185   1  9.186672E+05  2.511095E+05  2.930279E+05 -3.084308E+04 -2.718367E+04 -1.875523E+04
       185   2  9.639572E+05  2.494301E+05  3.308979E+05 -8.361746E+02 -6.614154E+04 -2.255322E+04
       185   3  1.057183E+06  4.016867E+05  4.334738E+05 -6.074089E+04 -1.051399E+05 -8.002202E+03
       185   4 -1.072338E+05 -4.539582E+03  4.020012E+04 -4.107434E+04 -3.088504E+04 -1.875739E+04
       185   5 -1.307575E+05 -2.325025E+04  6.158272E+04  3.752605E+03 -6.449881E+04 -2.255413E+04
       185   6 -1.072050E+05  1.111894E+05  1.440397E+05 -4.133961E+04 -9.814827E+04 -7.989511E+03
       185   7 -1.132178E+06 -2.602666E+05 -2.127054E+05 -5.128871E+04 -3.458028E+04 -1.875942E+04
       185   8 -1.224383E+06 -2.960196E+05 -2.078208E+05  8.332920E+03 -6.285888E+04 -2.255502E+04
       185   9 -1.270363E+06 -1.794081E+05 -1.454954E+05 -2.197541E+04 -9.116964E+04 -7.976374E+03
       185  10  9.186663E+05  2.511089E+05  2.930259E+05 -3.084349E+04 -3.164136E-09  7.334657E-11
       185  11  9.639524E+05  2.494283E+05  3.308888E+05 -8.373750E+02 -2.448660E-09  4.529014E-10
       185  12  1.057171E+06  4.016837E+05  4.334529E+05 -6.074156E+04 -7.298773E-10  1.318540E-10
       185  13 -1.072350E+05 -4.540216E+03  4.019767E+04 -4.107481E+04 -2.130288E-09  4.798719E-10
       185  14 -1.307621E+05 -2.325191E+04  6.157395E+04  3.751434E+03 -2.033224E-09  2.326479E-09
       185  15 -1.072154E+05  1.111867E+05  1.440215E+05 -4.134024E+04 -2.838010E-10 -5.203692E-10
       185  16 -1.132180E+06 -2.602673E+05 -2.127083E+05 -5.128923E+04 -5.055656E-10  2.750318E-10
       185  17 -1.224387E+06 -2.960212E+05 -2.078292E+05  8.331777E+03  3.102186E-09  4.173865E-10
       185  18 -1.270372E+06 -1.794104E+05 -1.455112E+05 -2.197600E+04  3.976561E-10 -1.082676E-09
       185  19  9.186672E+05  2.511095E+05  2.930279E+05 -3.084308E+04  2.718367E+04  1.875523E+04
       185  20  9.639572E+05  2.494301E+05  3.308979E+05 -8.361746E+02  6.614154E+04  2.255322E+04
       185  21  1.057183E+06  4.016867E+05  4.334738E+05 -6.074089E+04  1.051399E+05  8.002202E+03
       185  22 -1.072338E+05 -4.539582E+03  4.020012E+04 -4.107434E+04  3.088504E+04  1.875739E+04
       185  23 -1.307575E+05 -2.325025E+04  6.158272E+04  3.752605E+03  6.449881E+04  2.255413E+04
       185  24 -1.072050E+05  1.111894E+05  1.440397E+05 -4.133961E+04  9.814827E+04  7.989511E+03
       185  25 -1.132178E+06 -2.602666E+05 -2.127054E+05 -5.128871E+04  3.458028E+04  1.875942E+04
       185  26 -1.224383E+06 -2.960196E+05 -2.078208E+05  8.332920E+03  6.285888E+04  2.255502E+04
       185  27 -1.270363E+06 -1.794081E+05 -1.454954E+05 -2.197541E+04  9.116964E+04  7.976374E+03
       186   1  2.381095E+05  6.418075E+05  2.874877E+05 -1.131705E+05  8.615039E+02  1.476094E+05
       186   2 -8.955095E+02  4.790194E+05  1.321732E+05 -3.857076E+03  2.817448E+03  9.240267E+04
       186   3 -1.805896E+03  3.806246E+05  7.183913E+04 -6.406961E+04 -1.648554E+03  3.716921E+04
       186   4  1.704686E+05  3.726823E+05  2.204756E+05 -7.891812E+04  8.773536E+02  1.461767E+05
       186   5 -3.547356E+04  3.406468E+05  9.819830E+04  5.365658E+03  2.816314E+03  9.284182E+04
       186   6 -3.611744E+03  3.726963E+05  6.963465E+04 -7.987282E+04 -1.662906E+03  3.946857E+04
       186   7  1.028265E+05  1.036251E+05  1.534586E+05 -4.468051E+04  8.930501E+02  1.447447E+05
       186   8 -7.005272E+04  2.022919E+05  6.422200E+04  1.458636E+04  2.815194E+03  9.328087E+04
       186   9 -5.416655E+03  3.647687E+05  6.743032E+04 -9.567583E+04 -1.677375E+03  4.176791E+04
       186  10  2.381036E+05  6.417842E+05  2.874468E+05 -1.131706E+05 -6.819735E-12  6.214538E-10
       186  11 -8.978077E+02  4.790102E+05  1.321572E+05 -3.857285E+03  2.842018E-10 -2.715914E-10
       186  12 -1.806269E+03  3.806231E+05  7.183653E+04 -6.406956E+04 -2.277646E-09 -6.165659E-10
       186  13  1.704628E+05  3.726593E+05  2.204355E+05 -7.891822E+04  2.085045E-09  4.347887E-09
       186  14 -3.547588E+04  3.406376E+05  9.818210E+04  5.365447E+03 -1.773618E-09  1.002099E-10
       186  15 -3.612165E+03  3.726947E+05  6.963172E+04 -7.987276E+04  3.010748E-11  1.541260E-09
       186  16  1.028209E+05  1.036026E+05  1.534192E+05 -4.468061E+04  4.691718E-10 -6.368506E-10
       186  17 -7.005506E+04  2.022826E+05  6.420564E+04  1.458614E+04  5.649221E-09 -1.872634E-09
       186  18 -5.417126E+03  3.647668E+05  6.742703E+04 -9.567577E+04 -7.528763E-10  3.824853E-10
       186  19  2.381095E+05  6.418075E+05  2.874877E+05 -1.131705E+05 -8.615039E+02 -1.476094E+05
       186  20 -8.955095E+02  4.790194E+05  1.321732E+05 -3.857076E+03 -2.817448E+03 -9.240267E+04
       186  21 -1.805896E+03  3.806246E+05  7.183913E+04 -6.406961E+04  1.648554E+03 -3.716921E+04
       186  22  1.704686E+05  3.726823E+05  2.204756E+05 -7.891812E+04 -8.773536E+02 -1.461767E+05
       186  23 -3.547356E+04  3.406468E+05  9.819830E+04  5.365658E+03 -2.816314E+03 -9.284182E+04
       186  24 -3.611744E+03  3.726963E+05  6.963465E+04 -7.987282E+04  1.662906E+03 -3.946857E+04
       186  25  1.028265E+05  1.036251E+05  1.534586E+05 -4.468051E+04 -8.930501E+02 -1.447447E+05
       186  26 -7.005272E+04  2.022919E+05  6.422200E+04  1.458636E+04 -2.815194E+03 -9.328087E+04
       186  27 -5.416655E+03  3.647687E+05  6.743032E+04 -9.567583E+04  1.677375E+03 -4.176791E+04
       187   1 -6.985362E+04 -1.216047E+04 -3.098577E+04 -8.412252E+04 -5.687827E+03  2.632978E+04
       187   2 -1.346368E+05 -1.515092E+05 -8.142902E+04  7.356711E+03 -9.583923E+03  4.356197E+03
       187   3 -1.411345E+05 -2.747083E+05 -1.032683E+05 -7.222195E+04 -1.170340E+04 -1.759792E+04
       187   4  2.339100E+04  3.620075E+05  6.148518E+04 -7.983628E+04 -5.695523E+03  2.775672E+04
       187   5 -8.642041E+03  3.539093E+05  4.312140E+04  5.663923E+03 -9.588041E+03  5.258006E+03
       187   6  1.767874E+04  3.620242E+05  5.371374E+04 -7.988390E+04 -1.170421E+04 -1.722584E+04
       187   7  1.166253E+05  7.363028E+05  1.539458E+05 -7.554726E+04 -5.703198E+03  2.918452E+04
       187   8  1.173337E+05  8.595600E+05  1.676529E+05  3.970050E+03 -9.592163E+03  6.160547E+03
       187   9  1.764619E+05  9.991255E+05  2.106658E+05 -8.755327E+04 -1.170503E+04 -1.685338E+04
       187  10 -6.985384E+04 -1.216123E+04 -3.098714E+04 -8.412240E+04 -3.891591E-09  3.333681E-09
       187  11 -1.346369E+05 -1.515092E+05 -8.142923E+04  7.356744E+03  5.961248E-10 -2.799969E-10
       187  12 -1.411347E+05 -2.747086E+05 -1.032691E+05 -7.222212E+04 -5.217529E-10 -2.976163E-09
       187  13  2.339076E+04  3.620067E+05  6.148367E+04 -7.983615E+04 -2.950883E-09  4.451085E-09
       187  14 -8.642147E+03  3.539092E+05  4.312117E+04  5.663963E+03  1.860891E-09 -6.034048E-11
       187  15  1.767851E+04  3.620239E+05  5.371293E+04 -7.988406E+04 -9.074753E-10  1.111484E-09
       187  16  1.166250E+05  7.363019E+05  1.539441E+05 -7.554713E+04 -1.170752E-09 -3.325372E-09
       187  17  1.173336E+05  8.595599E+05  1.676527E+05  3.970098E+03 -1.522593E-09 -1.743565E-09
       187  18  1.764617E+05  9.991252E+05  2.106650E+05 -8.755343E+04 -8.493544E-10  2.794036E-09
       187  19 -6.985362E+04 -1.216047E+04 -3.098577E+04 -8.412252E+04  5.687827E+03 -2.632978E+04
       187  20 -1.346368E+05 -1.515092E+05 -8.142902E+04  7.356711E+03  9.583923E+03 -4.356197E+03
       187  21 -1.411345E+05 -2.747083E+05 -1.032683E+05 -7.222195E+04  1.170340E+04  1.759792E+04
       187  22  2.339100E+04  3.620075E+05  6.148518E+04 -7.983628E+04  5.695523E+03 -2.775672E+04
       187  23 -8.642041E+03  3.539093E+05  4.312140E+04  5.663923E+03  9.588041E+03 -5.258006E+03
       187  24  1.767874E+04  3.620242E+05  5.371374E+04 -7.988390E+04  1.170421E+04  1.722584E+04
       187  25  1.166253E+05  7.363028E+05  1.539458E+05 -7.554726E+04  5.703198E+03 -2.918452E+04
       187  26  1.173337E+05  8.595600E+05  1.676529E+05  3.970050E+03  9.592163E+03 -6.160547E+03
       187  27  1.764619E+05  9.991255E+05  2.106658E+05 -8.755327E+04  1.170503E+04  1.685338E+04
       188   1 -2.565475E+05 -6.524099E+05 -1.932854E+05 -9.010966E+04 -1.777853E+04 -3.217786E+04
       188   2 -3.169086E+05 -8.140106E+05 -2.062046E+05  1.576746E+04 -2.380543E+04 -6.867409E+04
       188   3 -1.893928E+05 -9.204801E+05 -1.476816E+05 -5.271586E+04 -8.369458E+03 -1.051068E+05
       188   4 -1.506095E+03  3.706842E+05  5.915360E+04 -8.072506E+04 -1.779736E+04 -2.734677E+04
       188   5 -2.849237E+04  3.426441E+05  7.855322E+04  6.566124E+03 -2.379778E+04 -7.008725E+04
       188   6  1.332977E+05  3.707023E+05  1.736324E+05 -8.047974E+04 -8.350703E+03 -1.127724E+05
       188   7  2.534577E+05  1.394731E+06  3.115153E+05 -7.132391E+04 -1.781603E+04 -2.250769E+04
       188   8  2.598245E+05  1.500517E+06  3.632124E+05 -2.651537E+03 -2.379010E+04 -7.150293E+04
       188   9  4.558656E+05  1.663400E+06  4.948221E+05 -1.083007E+05 -8.331286E+03 -1.204538E+05
       188  10 -2.565481E+05 -6.524111E+05 -1.932879E+05 -9.011012E+04 -1.471199E-09  3.423077E-10
       188  11 -3.169104E+05 -8.140158E+05 -2.062145E+05  1.576615E+04  1.038109E-09  3.980967E-10
       188  12 -1.893958E+05 -9.204920E+05 -1.477025E+05 -5.271657E+04  3.266514E-10 -1.079345E-10
       188  13 -1.506636E+03  3.706833E+05  5.915160E+04 -8.072545E+04  2.047599E-10  3.245121E-09
       188  14 -2.849430E+04  3.426387E+05  7.854293E+04  6.564781E+03  1.835292E-10 -1.630758E-10
       188  15  1.332942E+05  3.706887E+05  1.736084E+05 -8.048049E+04  1.594833E-09  4.810486E-10
       188  16  2.534572E+05  1.394730E+06  3.115137E+05 -7.132423E+04 -1.988945E-09 -2.095925E-10
       188  17  2.598225E+05  1.500511E+06  3.632017E+05 -2.652906E+03  2.279367E-09 -1.613395E-09
       188  18  4.558616E+05  1.663384E+06  4.947947E+05 -1.083015E+05  1.076002E-09 -1.632723E-11
       188  19 -2.565475E+05 -6.524099E+05 -1.932854E+05 -9.010966E+04  1.777853E+04  3.217786E+04
       188  20 -3.169086E+05 -8.140106E+05 -2.062046E+05  1.576746E+04  2.380543E+04  6.867409E+04
       188  21 -1.893928E+05 -9.204801E+05 -1.476816E+05 -5.271586E+04  8.369458E+03  1.051068E+05
       188  22 -1.506095E+03  3.706842E+05  5.915360E+04 -8.072506E+04  1.779736E+04  2.734677E+04
       188  23 -2.849237E+04  3.426441E+05  7.855322E+04  6.566124E+03  2.379778E+04  7.008725E+04
       188  24  1.332977E+05  3.707023E+05  1.736324E+05 -8.047974E+04  8.350703E+03  1.127724E+05
       188  25  2.534577E+05  1.394731E+06  3.115153E+05 -7.132391E+04  1.781603E+04  2.250769E+04
       188  26  2.598245E+05  1.500517E+06  3.632124E+05 -2.651537E+03  2.379010E+04  7.150293E+04
       188  27  4.558656E+05  1.663400E+06  4.948221E+05 -1.083007E+05  8.331286E+03  1.204538E+05
       189   1 -5.440818E+06 -1.726025E+06 -1.170960E+06 -1.834768E+06 -5.782255E+05 -2.109242E+05
       189   2 -5.293007E+06 -9.072256E+05 -6.396034E+05 -1.997364E+06 -3.760045E+05 -1.151209E+05
       189   3 -5.508236E+06 -9.487153E+05 -5.026184E+05 -1.921392E+06 -1.670741E+05 -3.697945E+04
       189   4 -4.555398E+06 -1.253168E+06 -8.996329E+05 -1.455389E+06 -5.709334E+05 -2.083052E+05
       189   5 -4.327553E+06 -5.038624E+05 -3.698431E+05 -1.696042E+06 -3.739734E+05 -1.143798E+05
       189   6 -4.461213E+06 -6.130116E+05 -2.297862E+05 -1.698284E+06 -1.702809E+05 -3.817561E+04
       189   7 -3.669168E+06 -7.800053E+05 -6.283838E+05 -1.075440E+06 -5.636293E+05 -2.056774E+05
       189   8 -3.361190E+06 -1.003880E+05 -1.001711E+05 -1.394274E+06 -3.719383E+05 -1.136368E+05
       189   9 -3.413128E+06 -2.773128E+05  4.295715E+04 -1.474869E+06 -1.734935E+05 -3.937317E+04
       189  10 -5.441192E+06 -1.726164E+06 -1.171679E+06 -1.834867E+06 -1.656906E-09 -6.890650E-10
       189  11 -5.293163E+06 -9.072784E+05 -6.398968E+05 -1.997399E+06  3.720779E-10  1.130784E-09
       189  12 -5.508267E+06 -9.487243E+05 -5.026740E+05 -1.921397E+06  1.678545E-09 -8.279605E-10
       189  13 -4.555762E+06 -1.253304E+06 -9.003327E+05 -1.455485E+06  3.176207E-10 -1.292666E-09
       189  14 -4.327707E+06 -5.039145E+05 -3.701328E+05 -1.696077E+06 -2.608730E-10 -2.228924E-09
       189  15 -4.461245E+06 -6.130211E+05 -2.298439E+05 -1.698290E+06  8.572841E-10 -7.369474E-10
       189  16 -3.669522E+06 -7.801369E+05 -6.290646E+05 -1.075533E+06  2.319913E-11  3.362588E-10
       189  17 -3.361343E+06 -1.004394E+05 -1.004572E+05 -1.394308E+06 -3.588751E-10 -6.807686E-10
       189  18 -3.413161E+06 -2.773226E+05  4.289729E+04 -1.474874E+06 -4.653416E-10 -5.106725E-12
       189  19 -5.440818E+06 -1.726025E+06 -1.170960E+06 -1.834768E+06  5.782255E+05  2.109242E+05
       189  20 -5.293007E+06 -9.072256E+05 -6.396034E+05 -1.997364E+06  3.760045E+05  1.151209E+05
       189  21 -5.508236E+06 -9.487153E+05 -5.026184E+05 -1.921392E+06  1.670741E+05  3.697945E+04
       189  22 -4.555398E+06 -1.253168E+06 -8.996329E+05 -1.455389E+06  5.709334E+05  2.083052E+05
       189  23 -4.327553E+06 -5.038624E+05 -3.698431E+05 -1.696042E+06  3.739734E+05  1.143798E+05
       189  24 -4.461213E+06 -6.130116E+05 -2.297862E+05 -1.698284E+06  1.702809E+05  3.817561E+04
       189  25 -3.669168E+06 -7.800053E+05 -6.283838E+05 -1.075440E+06  5.636293E+05  2.056774E+05
       189  26 -3.361190E+06 -1.003880E+05 -1.001711E+05 -1.394274E+06  3.719383E+05  1.136368E+05
       189  27 -3.413128E+06 -2.773128E+05  4.295715E+04 -1.474869E+06  1.734935E+05  3.937317E+04
       190   1 -5.385241E+06 -1.103799E+06 -4.538261E+05 -1.929395E+06 -1.361852E+05 -2.828651E+04
       190   2 -5.347708E+06 -9.683110E+05 -3.436595E+05 -1.925807E+06 -8.989816E+04 -9.476342E+03
       190   3 -5.330451E+06 -9.755337E+05 -2.996330E+05 -1.922649E+06 -4.248484E+04  6.349866E+03
       190   4 -4.424338E+06 -7.221150E+05 -1.884811E+05 -1.649735E+06 -1.355029E+05 -2.803592E+04
       190   5 -4.408108E+06 -6.081804E+05 -8.718988E+04 -1.665576E+06 -9.007856E+04 -9.547606E+03
       190   6 -4.411909E+06 -6.366698E+05 -5.127043E+04 -1.681861E+06 -4.353056E+04  5.955692E+03
       190   7 -3.462539E+06 -3.403514E+05  7.677862E+04 -1.369672E+06 -1.348194E+05 -2.778477E+04
       190   8 -3.467652E+06 -2.479921E+05  1.691996E+05 -1.404984E+06 -9.025917E+04 -9.618950E+03
       190   9 -3.492552E+06 -2.977676E+05  1.970169E+05 -1.440754E+06 -4.457796E+04  5.560925E+03
       190  10 -5.385261E+06 -1.103805E+06 -4.538628E+05 -1.929398E+06  1.201446E-09 -4.802757E-10
       190  11 -5.347717E+06 -9.683133E+05 -3.436750E+05 -1.925807E+06 -2.613722E-09 -1.197300E-09
       190  12 -5.330453E+06 -9.755343E+05 -2.996365E+05 -1.922649E+06 -3.064785E-10 -1.081610E-09
       190  13 -4.424359E+06 -7.221208E+05 -1.885174E+05 -1.649738E+06 -4.499830E-09 -1.162918E-10
       190  14 -4.408117E+06 -6.081827E+05 -8.720541E+04 -1.665576E+06 -3.443262E-09 -1.014532E-09
       190  15 -4.411911E+06 -6.366703E+05 -5.127408E+04 -1.681861E+06 -1.349719E-09 -7.332090E-10
       190  16 -3.462559E+06 -3.403572E+05  7.674279E+04 -1.369675E+06 -3.831437E-09  6.085599E-10
       190  17 -3.467660E+06 -2.479944E+05  1.691841E+05 -1.404985E+06 -4.325922E-09 -8.525392E-10
       190  18 -3.492554E+06 -2.977681E+05  1.970131E+05 -1.440753E+06 -1.743589E-09 -8.980091E-10
       190  19 -5.385241E+06 -1.103799E+06 -4.538261E+05 -1.929395E+06  1.361852E+05  2.828651E+04
       190  20 -5.347708E+06 -9.683110E+05 -3.436595E+05 -1.925807E+06  8.989816E+04  9.476342E+03
       190  21 -5.330451E+06 -9.755337E+05 -2.996330E+05 -1.922649E+06  4.248484E+04 -6.349866E+03
       190  22 -4.424338E+06 -7.221150E+05 -1.884811E+05 -1.649735E+06  1.355029E+05  2.803592E+04
       190  23 -4.408108E+06 -6.081804E+05 -8.718988E+04 -1.665576E+06  9.007856E+04  9.547606E+03
       190  24 -4.411909E+06 -6.366698E+05 -5.127043E+04 -1.681861E+06  4.353056E+04 -5.955692E+03
       190  25 -3.462539E+06 -3.403514E+05  7.677862E+04 -1.369672E+06  1.348194E+05  2.778477E+04
       190  26 -3.467652E+06 -2.479921E+05  1.691996E+05 -1.404984E+06  9.025917E+04  9.618950E+03
       190  27 -3.492552E+06 -2.977676E+05  1.970169E+05 -1.440754E+06  4.457796E+04 -5.560925E+03
       191   1 -5.186317E+06 -9.553262E+05 -2.544120E+05 -1.896886E+06 -3.504827E+04  7.512965E+03
       191   2 -5.147134E+06 -8.874806E+05 -2.164921E+05 -1.849178E+06 -2.356772E+04  9.637767E+03
       191   3 -5.056876E+06 -8.915701E+05 -1.904602E+05 -1.862410E+06 -1.171519E+04  1.075360E+04
       191   4 -4.401144E+06 -6.567719E+05 -4.065315E+04 -1.681824E+06 -3.551324E+04  7.336768E+03
       191   5 -4.425879E+06 -6.150552E+05 -2.040994E+04 -1.653513E+06 -2.433447E+04  9.349600E+03
       191   6 -4.399477E+06 -6.451965E+05 -1.180153E+04 -1.686140E+06 -1.278513E+04  1.035351E+04
       191   7 -3.615375E+06 -3.581806E+05  1.730494E+05 -1.466515E+06 -3.597884E+04  7.160334E+03
       191   8 -3.704121E+06 -3.425998E+05  1.756253E+05 -1.457641E+06 -2.510219E+04  9.061069E+03
       191   9 -3.741659E+06 -3.987994E+05  1.668185E+05 -1.509700E+06 -1.385633E+04  9.952954E+03
       191  10 -5.186319E+06 -9.553266E+05 -2.544144E+05 -1.896886E+06  2.409371E-10 -1.729777E-09
       191  11 -5.147135E+06 -8.874809E+05 -2.164933E+05 -1.849178E+06 -2.469152E-09 -1.262956E-09
       191  12 -5.056877E+06 -8.915702E+05 -1.904606E+05 -1.862410E+06 -4.332788E-10  4.557081E-10
       191  13 -4.401145E+06 -6.567723E+05 -4.065563E+04 -1.681824E+06 -6.911428E-10 -1.115894E-09
       191  14 -4.425880E+06 -6.150554E+05 -2.041122E+04 -1.653513E+06 -2.642939E-09 -1.128652E-09
       191  15 -4.399477E+06 -6.451966E+05 -1.180204E+04 -1.686140E+06  1.878224E-09  2.844399E-09
       191  16 -3.615376E+06 -3.581810E+05  1.730469E+05 -1.466514E+06 -2.547532E-09 -1.878634E-09
       191  17 -3.704122E+06 -3.426001E+05  1.756239E+05 -1.457641E+06 -3.994094E-09 -9.416495E-10
       191  18 -3.741660E+06 -3.987996E+05  1.668179E+05 -1.509700E+06 -1.728117E-09 -2.509455E-09
       191  19 -5.186317E+06 -9.553262E+05 -2.544120E+05 -1.896886E+06  3.504827E+04 -7.512965E+03
       191  20 -5.147134E+06 -8.874806E+05 -2.164921E+05 -1.849178E+06  2.356772E+04 -9.637767E+03
       191  21 -5.056876E+06 -8.915701E+05 -1.904602E+05 -1.862410E+06  1.171519E+04 -1.075360E+04
       191  22 -4.401144E+06 -6.567719E+05 -4.065315E+04 -1.681824E+06  3.551324E+04 -7.336768E+03
       191  23 -4.425879E+06 -6.150552E+05 -2.040994E+04 -1.653513E+06  2.433447E+04 -9.349600E+03
       191  24 -4.399477E+06 -6.451965E+05 -1.180153E+04 -1.686140E+06  1.278513E+04 -1.035351E+04
       191  25 -3.615375E+06 -3.581806E+05  1.730494E+05 -1.466515E+06  3.597884E+04 -7.160334E+03
       191  26 -3.704121E+06 -3.425998E+05  1.756253E+05 -1.457641E+06  2.510219E+04 -9.061069E+03
       191  27 -3.741659E+06 -3.987994E+05  1.668185E+05 -1.509700E+06  1.385633E+04 -9.952954E+03
       192   1 -4.850568E+06 -8.230636E+05 -1.329591E+05 -1.813413E+06 -9.431530E+03  9.470811E+03
       192   2 -4.800271E+06 -7.499305E+05 -1.054904E+05 -1.746106E+06 -5.314386E+03  7.407067E+03
       192   3 -4.674939E+06 -7.550244E+05 -8.076827E+04 -1.765969E+06 -1.044886E+03  4.922385E+03
       192   4 -4.394762E+06 -6.513761E+05 -9.418396E+03 -1.690156E+06 -1.035612E+04  9.125737E+03
       192   5 -4.432180E+06 -6.115135E+05 -5.558854E+03 -1.646856E+06 -6.368346E+03  7.014512E+03
       192   6 -4.394546E+06 -6.498477E+05 -4.340574E+03 -1.690723E+06 -2.228737E+03  4.482327E+03
       192   7 -3.938756E+06 -4.796768E+05  1.141037E+05 -1.566817E+06 -1.128145E+04  8.780383E+03
       192   8 -4.063959E+06 -4.730890E+05  9.436037E+04 -1.547551E+06 -7.422997E+03  6.621699E+03
       192   9 -4.114077E+06 -5.446670E+05  7.207987E+04 -1.615447E+06 -3.413177E+03  4.042050E+03
       192  10 -4.850568E+06 -8.230637E+05 -1.329595E+05 -1.813413E+06  2.187168E-09  9.043591E-11
       192  11 -4.800271E+06 -7.499306E+05 -1.054905E+05 -1.746106E+06  1.234948E-09 -1.859850E-09
       192  12 -4.674939E+06 -7.550244E+05 -8.076832E+04 -1.765969E+06 -3.025975E-09  7.617209E-10
       192  13 -4.394763E+06 -6.513762E+05 -9.418754E+03 -1.690156E+06  6.555396E-10 -1.352758E-09
       192  14 -4.432180E+06 -6.115135E+05 -5.559022E+03 -1.646855E+06  1.130919E-09  3.352858E-09
       192  15 -4.394546E+06 -6.498477E+05 -4.340621E+03 -1.690723E+06 -2.800805E-09  9.840156E-11
       192  16 -3.938756E+06 -4.796769E+05  1.141033E+05 -1.566817E+06 -2.270019E-10 -7.124945E-10
       192  17 -4.063959E+06 -4.730891E+05  9.436018E+04 -1.547551E+06 -1.746710E-09 -3.727893E-10
       192  18 -4.114077E+06 -5.446670E+05  7.207982E+04 -1.615447E+06  1.746288E-09  6.789673E-10
       192  19 -4.850568E+06 -8.230636E+05 -1.329591E+05 -1.813413E+06  9.431530E+03 -9.470811E+03
       192  20 -4.800271E+06 -7.499305E+05 -1.054904E+05 -1.746106E+06  5.314386E+03 -7.407067E+03
       192  21 -4.674939E+06 -7.550244E+05 -8.076827E+04 -1.765969E+06  1.044886E+03 -4.922385E+03
       192  22 -4.394762E+06 -6.513761E+05 -9.418396E+03 -1.690156E+06  1.035612E+04 -9.125737E+03
       192  23 -4.432180E+06 -6.115135E+05 -5.558854E+03 -1.646856E+06  6.368346E+03 -7.014512E+03
       192  24 -4.394546E+06 -6.498477E+05 -4.340574E+03 -1.690723E+06  2.228737E+03 -4.482327E+03
       192  25 -3.938756E+06 -4.796768E+05  1.141037E+05 -1.566817E+06  1.128145E+04 -8.780383E+03
       192  26 -4.063959E+06 -4.730890E+05  9.436037E+04 -1.547551E+06  7.422997E+03 -6.621699E+03
       192  27 -4.114077E+06 -5.446670E+05  7.207987E+04 -1.615447E+06  3.413177E+03 -4.042050E+03
       193   1 -4.434572E+06 -6.667582E+05 -1.517420E+04 -1.703471E+06  4.556228E+02  2.976060E+03
       193   2 -4.380406E+06 -5.899217E+05  9.225644E+03 -1.630651E+06  4.430635E+03  2.883744E+02
       193   3 -4.246007E+06 -5.967721E+05  3.105695E+04 -1.651745E+06  8.376480E+03 -2.317475E+03
       193   4 -4.393388E+06 -6.511732E+05 -4.321175E+03 -1.692174E+06 -7.014054E+02  2.546262E+03
       193   5 -4.433581E+06 -6.099187E+05 -5.207113E+03 -1.644995E+06  3.298868E+03 -1.321765E+02
       193   6 -4.393557E+06 -6.523581E+05 -8.681737E+03 -1.691736E+06  7.269521E+03 -2.728905E+03
       193   7 -4.352201E+06 -6.355881E+05  6.531730E+03 -1.680875E+06 -1.858520E+03  2.116431E+03
       193   8 -4.486754E+06 -6.299156E+05 -1.964013E+04 -1.659339E+06  2.167207E+03 -5.526879E+02
       193   9 -4.541087E+06 -7.079430E+05 -4.842236E+04 -1.731718E+06  6.162852E+03 -3.140227E+03
       193  10 -4.434572E+06 -6.667582E+05 -1.517422E+04 -1.703471E+06 -3.672092E-09  3.890805E-09
       193  11 -4.380406E+06 -5.899217E+05  9.225607E+03 -1.630651E+06  1.659387E-09  5.803150E-09
       193  12 -4.246007E+06 -5.967721E+05  3.105681E+04 -1.651745E+06  2.223575E-09 -2.479809E-09
       193  13 -4.393388E+06 -6.511732E+05 -4.321188E+03 -1.692174E+06 -1.414184E-09 -1.612915E-10
       193  14 -4.433581E+06 -6.099187E+05 -5.207134E+03 -1.644995E+06 -2.373564E-09 -3.239678E-09
       193  15 -4.393557E+06 -6.523582E+05 -8.681851E+03 -1.691736E+06  2.564143E-09 -4.882141E-10
       193  16 -4.352201E+06 -6.355881E+05  6.531715E+03 -1.680875E+06 -8.798054E-10 -1.195574E-09
       193  17 -4.486754E+06 -6.299156E+05 -1.964014E+04 -1.659339E+06 -3.406459E-09 -1.918173E-09
       193  18 -4.541087E+06 -7.079430E+05 -4.842245E+04 -1.731718E+06 -1.050421E-09  9.053852E-11
       193  19 -4.434572E+06 -6.667582E+05 -1.517420E+04 -1.703471E+06 -4.556228E+02 -2.976060E+03
       193  20 -4.380406E+06 -5.899217E+05  9.225644E+03 -1.630651E+06 -4.430635E+03 -2.883744E+02
       193  21 -4.246007E+06 -5.967721E+05  3.105695E+04 -1.651745E+06 -8.376480E+03  2.317475E+03
       193  22 -4.393388E+06 -6.511732E+05 -4.321175E+03 -1.692174E+06  7.014054E+02 -2.546262E+03
       193  23 -4.433581E+06 -6.099187E+05 -5.207113E+03 -1.644995E+06 -3.298868E+03  1.321765E+02
       193  24 -4.393557E+06 -6.523581E+05 -8.681737E+03 -1.691736E+06 -7.269521E+03  2.728905E+03
       193  25 -4.352201E+06 -6.355881E+05  6.531730E+03 -1.680875E+06  1.858520E+03 -2.116431E+03
       193  26 -4.486754E+06 -6.299156E+05 -1.964013E+04 -1.659339E+06 -2.167207E+03  5.526879E+02
       193  27 -4.541087E+06 -7.079430E+05 -4.842236E+04 -1.731718E+06 -6.162852E+03  3.140227E+03
       194   1 -4.014139E+06 -5.062367E+05  9.290431E+04 -1.588524E+06  1.088574E+04 -3.859967E+03
       194   2 -3.965472E+06 -4.356567E+05  1.075735E+05 -1.522547E+06  2.149322E+04 -3.869555E+03
       194   3 -3.850332E+06 -4.514582E+05  1.115933E+05 -1.536610E+06  3.183290E+04 -3.141212E+03
       194   4 -4.396065E+06 -6.486847E+05 -1.086553E+04 -1.690264E+06  9.680134E+03 -4.308516E+03
       194   5 -4.430025E+06 -6.107252E+05 -1.855966E+04 -1.648288E+06  2.051102E+04 -4.235974E+03
       194   6 -4.397567E+06 -6.592033E+05 -3.708745E+04 -1.686360E+06  3.107266E+04 -3.425772E+03
       194   7 -4.777849E+06 -7.911251E+05 -1.146483E+05 -1.791946E+06  8.475353E+03 -4.756764E+03
       194   8 -4.894370E+06 -7.857814E+05 -1.447123E+05 -1.773944E+06  1.952964E+04 -4.602090E+03
       194   9 -4.944513E+06 -8.669305E+05 -1.857955E+05 -1.835989E+06  3.031315E+04 -3.710055E+03
       194  10 -4.014140E+06 -5.062367E+05  9.290406E+04 -1.588524E+06  5.607422E-10 -4.113403E-09
       194  11 -3.965473E+06 -4.356569E+05  1.075726E+05 -1.522547E+06  1.965522E-09  1.028369E-09
       194  12 -3.850333E+06 -4.514585E+05  1.115913E+05 -1.536610E+06  6.717572E-10  1.612371E-09
       194  13 -4.396065E+06 -6.486848E+05 -1.086574E+04 -1.690264E+06  2.276761E-09 -1.260238E-09
       194  14 -4.430026E+06 -6.107253E+05 -1.856049E+04 -1.648288E+06  3.235757E-10 -1.801302E-09
       194  15 -4.397568E+06 -6.592035E+05 -3.708929E+04 -1.686359E+06 -5.054043E-10 -6.424559E-10
       194  16 -4.777849E+06 -7.911251E+05 -1.146485E+05 -1.791946E+06  2.296757E-09  1.817477E-09
       194  17 -4.894370E+06 -7.857815E+05 -1.447130E+05 -1.773944E+06  2.318910E-09  2.238027E-09
       194  18 -4.944514E+06 -8.669307E+05 -1.857972E+05 -1.835989E+06  2.195271E-11 -8.349777E-10
       194  19 -4.014139E+06 -5.062367E+05  9.290431E+04 -1.588524E+06 -1.088574E+04  3.859967E+03
       194  20 -3.965472E+06 -4.356567E+05  1.075735E+05 -1.522547E+06 -2.149322E+04  3.869555E+03
       194  21 -3.850332E+06 -4.514582E+05  1.115933E+05 -1.536610E+06 -3.183290E+04  3.141212E+03
       194  22 -4.396065E+06 -6.486847E+05 -1.086553E+04 -1.690264E+06 -9.680134E+03  4.308516E+03
       194  23 -4.430025E+06 -6.107252E+05 -1.855966E+04 -1.648288E+06 -2.051102E+04  4.235974E+03
       194  24 -4.397567E+06 -6.592033E+05 -3.708745E+04 -1.686360E+06 -3.107266E+04  3.425772E+03
       194  25 -4.777849E+06 -7.911251E+05 -1.146483E+05 -1.791946E+06 -8.475353E+03  4.756764E+03
       194  26 -4.894370E+06 -7.857814E+05 -1.447123E+05 -1.773944E+06 -1.952964E+04  4.602090E+03
       194  27 -4.944513E+06 -8.669305E+05 -1.857955E+05 -1.835989E+06 -3.031315E+04  3.710055E+03
       195   1 -3.666864E+06 -3.710638E+05  1.527504E+05 -1.495504E+06  3.997889E+04 -2.365793E+03
       195   2 -3.626847E+06 -3.019610E+05  1.354229E+05 -1.440133E+06  8.195645E+04  1.023759E+04
       195   3 -3.579867E+06 -3.881534E+05  5.912412E+04 -1.415038E+06  1.228573E+05  2.573879E+04
       195   4 -4.406284E+06 -6.419062E+05 -4.673603E+04 -1.687539E+06  3.865071E+04 -2.862644E+03
       195   5 -4.415265E+06 -6.031606E+05 -7.937495E+04 -1.657814E+06  8.148274E+04  1.005779E+04
       195   6 -4.417510E+06 -7.199731E+05 -1.717261E+05 -1.658358E+06  1.232338E+05  2.587448E+04
       195   7 -5.145177E+06 -9.127255E+05 -2.462711E+05 -1.879371E+06  3.732425E+04 -3.358892E+03
       195   8 -5.203082E+06 -9.043202E+05 -2.942290E+05 -1.875241E+06  8.100964E+04  9.878220E+03
       195   9 -5.254472E+06 -1.051733E+06 -4.026408E+05 -1.901373E+06  1.236096E+05  2.600989E+04
       195  10 -3.666866E+06 -3.710642E+05  1.527474E+05 -1.495504E+06  1.190409E-09 -4.809870E-11
       195  11 -3.626854E+06 -3.019629E+05  1.354100E+05 -1.440134E+06  2.225096E-10 -2.343708E-09
       195  12 -3.579883E+06 -3.881582E+05  5.909432E+04 -1.415040E+06 -4.294039E-10 -2.922926E-11
       195  13 -4.406286E+06 -6.419067E+05 -4.673887E+04 -1.687539E+06  6.687339E-10  4.412048E-10
       195  14 -4.415272E+06 -6.031625E+05 -7.938771E+04 -1.657814E+06  2.447694E-09  3.580597E-10
       195  15 -4.417526E+06 -7.199780E+05 -1.717561E+05 -1.658361E+06 -1.293613E-09 -1.004029E-09
       195  16 -5.145179E+06 -9.127259E+05 -2.462737E+05 -1.879370E+06 -9.805579E-10 -2.557937E-09
       195  17 -5.203089E+06 -9.043221E+05 -2.942416E+05 -1.875242E+06 -1.893137E-10 -9.542810E-10
       195  18 -5.254488E+06 -1.051738E+06 -4.026711E+05 -1.901376E+06  3.302106E-10 -1.279505E-09
       195  19 -3.666864E+06 -3.710638E+05  1.527504E+05 -1.495504E+06 -3.997889E+04  2.365793E+03
       195  20 -3.626847E+06 -3.019610E+05  1.354229E+05 -1.440133E+06 -8.195645E+04 -1.023759E+04
       195  21 -3.579867E+06 -3.881534E+05  5.912412E+04 -1.415038E+06 -1.228573E+05 -2.573879E+04
       195  22 -4.406284E+06 -6.419062E+05 -4.673603E+04 -1.687539E+06 -3.865071E+04  2.862644E+03
       195  23 -4.415265E+06 -6.031606E+05 -7.937495E+04 -1.657814E+06 -8.148274E+04 -1.005779E+04
       195  24 -4.417510E+06 -7.199731E+05 -1.717261E+05 -1.658358E+06 -1.232338E+05 -2.587448E+04
       195  25 -5.145177E+06 -9.127255E+05 -2.462711E+05 -1.879371E+06 -3.732425E+04  3.358892E+03
       195  26 -5.203082E+06 -9.043202E+05 -2.942290E+05 -1.875241E+06 -8.100964E+04 -9.878220E+03
       195  27 -5.254472E+06 -1.051733E+06 -4.026408E+05 -1.901373E+06 -1.236096E+05 -2.600989E+04
       196   1 -3.457626E+06 -3.009799E+05  4.955966E+04 -1.489761E+06  1.590324E+05  3.536483E+04
       196   2 -3.393431E+06 -1.161565E+05 -7.297366E+04 -1.393333E+06  3.396866E+05  1.010525E+05
       196   3 -3.630152E+06 -7.379829E+05 -5.456613E+05 -1.110133E+06  5.133647E+05  1.852572E+05
       196   4 -4.451109E+06 -6.203308E+05 -2.092940E+05 -1.702281E+06  1.553369E+05  3.399009E+04
       196   5 -4.342311E+06 -5.081439E+05 -3.369145E+05 -1.685602E+06  3.415037E+05  1.017130E+05
       196   6 -4.536016E+06 -1.204490E+06 -8.195047E+05 -1.482012E+06  5.207011E+05  1.879060E+05
       196   7 -5.443639E+06 -9.396858E+05 -4.682282E+05 -1.914524E+06  1.516479E+05  3.261691E+04
       196   8 -5.290315E+06 -9.000295E+05 -6.009398E+05 -1.977447E+06  3.433174E+05  1.023720E+05
       196   9 -5.441040E+06 -1.670717E+06 -1.093428E+06 -1.853327E+06  5.280250E+05  1.905462E+05
       196  10 -3.457653E+06 -3.009881E+05  4.950946E+04 -1.489765E+06  8.402044E-11  1.765492E-11
       196  11 -3.393558E+06 -1.161987E+05 -7.321121E+04 -1.393361E+06 -4.854639E-10 -1.910011E-09
       196  12 -3.630445E+06 -7.380913E+05 -5.462247E+05 -1.110210E+06 -1.292381E-09 -5.619557E-10
       196  13 -4.451135E+06 -6.203386E+05 -2.093419E+05 -1.702286E+06  1.047869E-09 -2.413770E-10
       196  14 -4.342440E+06 -5.081867E+05 -3.371551E+05 -1.685630E+06 -5.824795E-10 -1.633468E-09
       196  15 -4.536318E+06 -1.204602E+06 -8.200853E+05 -1.482091E+06  2.581287E-09 -2.314706E-09
       196  16 -5.443664E+06 -9.396932E+05 -4.682738E+05 -1.914528E+06 -1.943089E-10 -6.783272E-10
       196  17 -5.290445E+06 -9.000729E+05 -6.011833E+05 -1.977476E+06 -7.113909E-10  1.446848E-09
       196  18 -5.441352E+06 -1.670832E+06 -1.094026E+06 -1.853408E+06 -1.011019E-09  1.377360E-09
       196  19 -3.457626E+06 -3.009799E+05  4.955966E+04 -1.489761E+06 -1.590324E+05 -3.536483E+04
       196  20 -3.393431E+06 -1.161565E+05 -7.297366E+04 -1.393333E+06 -3.396866E+05 -1.010525E+05
       196  21 -3.630152E+06 -7.379829E+05 -5.456613E+05 -1.110133E+06 -5.133647E+05 -1.852572E+05
       196  22 -4.451109E+06 -6.203308E+05 -2.092940E+05 -1.702281E+06 -1.553369E+05 -3.399009E+04
       196  23 -4.342311E+06 -5.081439E+05 -3.369145E+05 -1.685602E+06 -3.415037E+05 -1.017130E+05
       196  24 -4.536016E+06 -1.204490E+06 -8.195047E+05 -1.482012E+06 -5.207011E+05 -1.879060E+05
       196  25 -5.443639E+06 -9.396858E+05 -4.682282E+05 -1.914524E+06 -1.516479E+05 -3.261691E+04
       196  26 -5.290315E+06 -9.000295E+05 -6.009398E+05 -1.977447E+06 -3.433174E+05 -1.023720E+05
       196  27 -5.441040E+06 -1.670717E+06 -1.093428E+06 -1.853327E+06 -5.280250E+05 -1.905462E+05
       197   1  5.602758E+05  1.692279E+05  2.575096E+05  4.997003E+04  2.644481E+05  4.844704E+03
       197   2  5.367128E+05 -1.869448E+05  4.410319E+04  1.995200E+04  1.753693E+05  1.241876E+04
       197   3  6.281761E+05 -1.329247E+05 -8.583038E+03 -4.823385E+04  8.630636E+04  1.054774E+04
       197   4  1.108259E+06  3.054380E+05  3.933757E+05 -1.701994E+04  2.688331E+05  4.827398E+03
       197   5  1.050590E+06 -5.920995E+04  1.698054E+05  2.482247E+03  1.765014E+05  1.241551E+04
       197   6  1.108408E+06 -1.329251E+04  1.091106E+05 -1.618285E+04  8.419116E+04  1.054780E+04
       197   7  1.656525E+06  4.416428E+05  5.292221E+05 -8.406920E+04  2.732219E+05  4.809164E+03
       197   8  1.564709E+06  6.850656E+04  2.954885E+05 -1.500212E+04  1.776345E+05  1.241221E+04
       197   9  1.588851E+06  1.063264E+05  2.267880E+05  1.589288E+04  8.207431E+04  1.054763E+04
       197  10  5.602008E+05  1.692091E+05  2.573782E+05  4.996900E+04 -5.403792E-10  7.592906E-10
       197  11  5.366798E+05 -1.869532E+05  4.404516E+04  1.995025E+04 -6.202670E-10 -5.015202E-10
       197  12  6.281681E+05 -1.329268E+05 -8.597230E+03 -4.823458E+04 -6.276819E-10  3.242926E-10
       197  13  1.108182E+06  3.054186E+05  3.932401E+05 -1.702099E+04  7.164564E-10  3.526636E-10
       197  14  1.050557E+06 -5.921846E+04  1.697467E+05  2.480483E+03 -5.552387E-10 -3.098638E-09
       197  15  1.108400E+06 -1.329453E+04  1.090971E+05 -1.618356E+04  1.453438E-09  4.701874E-10
       197  16  1.656445E+06  4.416228E+05  5.290821E+05 -8.407026E+04  1.827597E-10 -1.811036E-10
       197  17  1.564675E+06  6.849795E+04  2.954290E+05 -1.500389E+04 -1.331195E-09  1.493081E-10
       197  18  1.588844E+06  1.063244E+05  2.267751E+05  1.589218E+04 -1.708996E-09 -1.108242E-09
       197  19  5.602758E+05  1.692279E+05  2.575096E+05  4.997003E+04 -2.644481E+05 -4.844704E+03
       197  20  5.367128E+05 -1.869448E+05  4.410319E+04  1.995200E+04 -1.753693E+05 -1.241876E+04
       197  21  6.281761E+05 -1.329247E+05 -8.583038E+03 -4.823385E+04 -8.630636E+04 -1.054774E+04
       197  22  1.108259E+06  3.054380E+05  3.933757E+05 -1.701994E+04 -2.688331E+05 -4.827398E+03
       197  23  1.050590E+06 -5.920995E+04  1.698054E+05  2.482247E+03 -1.765014E+05 -1.241551E+04
       197  24  1.108408E+06 -1.329251E+04  1.091106E+05 -1.618285E+04 -8.419116E+04 -1.054780E+04
       197  25  1.656525E+06  4.416428E+05  5.292221E+05 -8.406920E+04 -2.732219E+05 -4.809164E+03
       197  26  1.564709E+06  6.850656E+04  2.954885E+05 -1.500212E+04 -1.776345E+05 -1.241221E+04
       197  27  1.588851E+06  1.063264E+05  2.267880E+05  1.589288E+04 -8.207431E+04 -1.054763E+04
       198   1  6.784935E+05 -6.185499E+04 -1.032226E+04 -7.654917E+03  6.645752E+04  8.402460E+03
       198   2  7.000693E+05 -1.018346E+05 -4.847759E+04  2.994522E+03  4.389364E+04  8.263862E+03
       198   3  7.384101E+05 -8.834679E+04 -5.848987E+04 -1.983745E+04  2.132975E+04  7.139548E+03
       198   4  1.086459E+06  3.964255E+04  8.974628E+04 -1.544222E+04  6.661803E+04  8.401479E+03
       198   5  1.078067E+06 -7.791211E+03  4.413167E+04  1.328699E+03  4.370907E+04  8.263171E+03
       198   6  1.086488E+06 -1.715729E+03  2.688632E+04 -1.538031E+04  2.080119E+04  7.138970E+03
       198   7  1.494576E+06  1.411280E+05  1.898026E+05 -2.323470E+04  6.677864E+04  8.400494E+03
       198   8  1.456194E+06  8.624166E+04  1.367305E+05 -3.381800E+02  4.352439E+04  8.262482E+03
       198   9  1.434675E+06  8.490643E+04  1.122536E+05 -1.092069E+04  2.027234E+04  7.138386E+03
       198  10  6.784888E+05 -6.185625E+04 -1.033068E+04 -7.655367E+03 -3.212731E-10 -6.437921E-10
       198  11  7.000672E+05 -1.018352E+05 -4.848133E+04  2.994230E+03 -1.709328E-09  9.747335E-10
       198  12  7.384096E+05 -8.834696E+04 -5.849082E+04 -1.983758E+04 -4.927735E-10 -8.607683E-10
       198  13  1.086454E+06  3.964128E+04  8.973782E+04 -1.544267E+04  4.398639E-10 -6.721815E-10
       198  14  1.078064E+06 -7.791796E+03  4.412796E+04  1.328408E+03 -5.380850E-10 -5.981536E-10
       198  15  1.086487E+06 -1.715900E+03  2.688541E+04 -1.538043E+04 -5.166678E-10 -1.137604E-09
       198  16  1.494571E+06  1.411267E+05  1.897942E+05 -2.323516E+04  9.173676E-10 -4.904866E-11
       198  17  1.456192E+06  8.624108E+04  1.367268E+05 -3.384694E+02  5.570496E-10 -2.055569E-09
       198  18  1.434675E+06  8.490626E+04  1.122528E+05 -1.092080E+04  3.909681E-10 -3.814194E-10
       198  19  6.784935E+05 -6.185499E+04 -1.032226E+04 -7.654917E+03 -6.645752E+04 -8.402460E+03
       198  20  7.000693E+05 -1.018346E+05 -4.847759E+04  2.994522E+03 -4.389364E+04 -8.263862E+03
       198  21  7.384101E+05 -8.834679E+04 -5.848987E+04 -1.983745E+04 -2.132975E+04 -7.139548E+03
       198  22  1.086459E+06  3.964255E+04  8.974628E+04 -1.544222E+04 -6.661803E+04 -8.401479E+03
       198  23  1.078067E+06 -7.791211E+03  4.413167E+04  1.328699E+03 -4.370907E+04 -8.263171E+03
       198  24  1.086488E+06 -1.715729E+03  2.688632E+04 -1.538031E+04 -2.080119E+04 -7.138970E+03
       198  25  1.494576E+06  1.411280E+05  1.898026E+05 -2.323470E+04 -6.677864E+04 -8.400494E+03
       198  26  1.456194E+06  8.624166E+04  1.367305E+05 -3.381800E+02 -4.352439E+04 -8.262482E+03
       198  27  1.434675E+06  8.490643E+04  1.122536E+05 -1.092069E+04 -2.027234E+04 -7.138386E+03
       199   1  8.007710E+05 -6.522252E+04 -4.788242E+04 -1.399735E+04  1.677289E+04  6.382525E+03
       199   2  8.267968E+05 -6.453056E+04 -5.123938E+04  6.077038E+02  1.107125E+04  5.485269E+03
       199   3  8.554982E+05 -5.691825E+04 -4.911567E+04 -1.537819E+04  5.368653E+03  4.518573E+03
       199   4  1.083354E+06  5.070207E+03  2.129620E+04 -1.475944E+04  1.648913E+04  6.382110E+03
       199   5  1.082018E+06 -1.031679E+03  1.130033E+04  5.374067E+02  1.076179E+04  5.484966E+03
       199   6  1.083360E+06 -2.105196E+02  6.801071E+03 -1.475587E+04  5.033735E+03  4.518384E+03
       199   7  1.366010E+06  7.535704E+04  9.046899E+04 -1.552189E+04  1.620525E+04  6.381696E+03
       199   8  1.337299E+06  6.246238E+04  7.383528E+04  4.670732E+02  1.045220E+04  5.484664E+03
       199   9  1.311269E+06  5.649337E+04  6.271400E+04 -1.413332E+04  4.698695E+03  4.518195E+03
       199  10  8.007707E+05 -6.522264E+04 -4.788302E+04 -1.399743E+04  7.071562E-10  1.230936E-10
       199  11  8.267967E+05 -6.453063E+04 -5.123967E+04  6.076549E+02  6.974961E-10  1.176561E-10
       199  12  8.554981E+05 -5.691828E+04 -4.911576E+04 -1.537821E+04 -7.483949E-10 -1.515571E-10
       199  13  1.083354E+06  5.070091E+03  2.129562E+04 -1.475952E+04  1.263915E-09 -4.580962E-10
       199  14  1.082018E+06 -1.031742E+03  1.130006E+04  5.373592E+02  1.828091E-09  6.966024E-11
       199  15  1.083360E+06 -2.105484E+02  6.800985E+03 -1.475588E+04  6.595460E-10  5.187750E-11
       199  16  1.366010E+06  7.535692E+04  9.046842E+04 -1.552197E+04 -3.460010E-10 -3.835853E-10
       199  17  1.337299E+06  6.246232E+04  7.383502E+04  4.670270E+02 -9.791449E-11 -1.123055E-10
       199  18  1.311269E+06  5.649334E+04  6.271392E+04 -1.413333E+04 -1.276811E-09 -2.172554E-10
       199  19  8.007710E+05 -6.522252E+04 -4.788242E+04 -1.399735E+04 -1.677289E+04 -6.382525E+03
       199  20  8.267968E+05 -6.453056E+04 -5.123938E+04  6.077038E+02 -1.107125E+04 -5.485269E+03
       199  21  8.554982E+05 -5.691825E+04 -4.911567E+04 -1.537819E+04 -5.368653E+03 -4.518573E+03
       199  22  1.083354E+06  5.070207E+03  2.129620E+04 -1.475944E+04 -1.648913E+04 -6.382110E+03
       199  23  1.082018E+06 -1.031679E+03  1.130033E+04  5.374067E+02 -1.076179E+04 -5.484966E+03
       199  24  1.083360E+06 -2.105196E+02  6.801071E+03 -1.475587E+04 -5.033735E+03 -4.518384E+03
       199  25  1.366010E+06  7.535704E+04  9.046899E+04 -1.552189E+04 -1.620525E+04 -6.381696E+03
       199  26  1.337299E+06  6.246238E+04  7.383528E+04  4.670732E+02 -1.045220E+04 -5.484664E+03
       199  27  1.311269E+06  5.649337E+04  6.271400E+04 -1.413332E+04 -4.698695E+03 -4.518195E+03
       200   1  9.157935E+05 -4.092633E+04 -3.550928E+04 -1.429570E+04  4.250616E+03  3.952887E+03
       200   2  9.413100E+05 -3.530474E+04 -3.144175E+04  3.500845E+01  2.651614E+03  3.028660E+03
       200   3  9.673242E+05 -2.874295E+04 -2.608823E+04 -1.443170E+04  1.052175E+03  2.118543E+03
       200   4  1.082882E+06  6.270255E+02  5.352380E+03 -1.435851E+04  3.938125E+03  3.952768E+03
       200   5  1.082635E+06 -1.453917E+02  3.187549E+03  4.003553E+01  2.343482E+03  3.028602E+03
       200   6  1.082883E+06  2.153065E+01  2.305470E+03 -1.435843E+04  7.484682E+02  2.118547E+03
       200   7  1.249997E+06  4.217832E+04  4.621200E+04 -1.442134E+04  3.625550E+03  3.952650E+03
       200   8  1.223978E+06  3.501248E+04  3.781539E+04  4.506355E+01  2.035281E+03  3.028544E+03
       200   9  1.198455E+06  2.878502E+04  3.069819E+04 -1.428514E+04  4.447051E+02  2.118550E+03
       200  10  9.157935E+05 -4.092635E+04 -3.550934E+04 -1.429572E+04 -5.420015E-10 -1.672044E-10
       200  11  9.413100E+05 -3.530475E+04 -3.144178E+04  3.500198E+01 -1.297312E-09  2.434527E-10
       200  12  9.673241E+05 -2.874295E+04 -2.608824E+04 -1.443170E+04  9.337961E-12  6.696004E-12
       200  13  1.082882E+06  6.270045E+02  5.352321E+03 -1.435853E+04  7.885441E-10 -4.458907E-10
       200  14  1.082635E+06 -1.454031E+02  3.187522E+03  4.002981E+01 -3.036859E-09 -5.729608E-11
       200  15  1.082883E+06  2.152568E+01  2.305460E+03 -1.435843E+04 -1.044312E-09  2.021111E-10
       200  16  1.249997E+06  4.217830E+04  4.621194E+04 -1.442135E+04 -1.168597E-09 -3.966540E-11
       200  17  1.223978E+06  3.501247E+04  3.781536E+04  4.505859E+01 -9.532306E-10 -3.578006E-10
       200  18  1.198455E+06  2.878501E+04  3.069818E+04 -1.428514E+04  6.179883E-10  2.699535E-10
       200  19  9.157935E+05 -4.092633E+04 -3.550928E+04 -1.429570E+04 -4.250616E+03 -3.952887E+03
       200  20  9.413100E+05 -3.530474E+04 -3.144175E+04  3.500845E+01 -2.651614E+03 -3.028660E+03
       200  21  9.673242E+05 -2.874295E+04 -2.608823E+04 -1.443170E+04 -1.052175E+03 -2.118543E+03
       200  22  1.082882E+06  6.270255E+02  5.352380E+03 -1.435851E+04 -3.938125E+03 -3.952768E+03
       200  23  1.082635E+06 -1.453917E+02  3.187549E+03  4.003553E+01 -2.343482E+03 -3.028602E+03
       200  24  1.082883E+06  2.153065E+01  2.305470E+03 -1.435843E+04 -7.484682E+02 -2.118547E+03
       200  25  1.249997E+06  4.217832E+04  4.621200E+04 -1.442134E+04 -3.625550E+03 -3.952650E+03
       200  26  1.223978E+06  3.501248E+04  3.781539E+04  4.506355E+01 -2.035281E+03 -3.028544E+03
       200  27  1.198455E+06  2.878502E+04  3.069819E+04 -1.428514E+04 -4.447051E+02 -2.118550E+03
       201   1  1.025426E+06 -1.420213E+04 -1.186875E+04 -1.413593E+04  6.530792E+02  1.592062E+03
       201   2  1.050353E+06 -8.132693E+03 -5.740795E+03 -1.794408E+02 -4.423322E+02  6.921775E+02
       201   3  1.075560E+06 -1.484110E+03  1.242399E+03 -1.423646E+04 -1.537853E+03 -1.949505E+02
       201   4  1.082838E+06  6.449659E+01  2.119222E+03 -1.418433E+04  3.481657E+02  1.592095E+03
       201   5  1.082699E+06 -8.618358E+01  2.184589E+03 -1.775938E+02 -7.430194E+02  6.922222E+02
       201   6  1.082838E+06  3.416764E+02  3.102375E+03 -1.418427E+04 -1.834270E+03 -1.948923E+02
       201   7  1.140253E+06  1.433088E+04  1.610695E+04 -1.423273E+04  4.322403E+01  1.592128E+03
       201   8  1.115045E+06  7.960249E+03  1.010990E+04 -1.757468E+02 -1.043722E+03  6.922669E+02
       201   9  1.090116E+06  2.167458E+03  4.962346E+03 -1.413209E+04 -2.130691E+03 -1.948340E+02
       201  10  1.025426E+06 -1.420213E+04 -1.186875E+04 -1.413593E+04 -6.419227E-11 -4.371321E-10
       201  11  1.050353E+06 -8.132694E+03 -5.740797E+03 -1.794406E+02  1.098157E-09 -5.303358E-10
       201  12  1.075560E+06 -1.484110E+03  1.242395E+03 -1.423646E+04  7.584021E-10  4.664419E-10
       201  13  1.082838E+06  6.449383E+01  2.119217E+03 -1.418433E+04 -2.490910E-09 -1.508391E-11
       201  14  1.082699E+06 -8.618424E+01  2.184587E+03 -1.775934E+02  1.225023E-09 -5.344087E-10
       201  15  1.082838E+06  3.416754E+02  3.102368E+03 -1.418428E+04  2.775275E-09  3.289607E-10
       201  16  1.140253E+06  1.433087E+04  1.610695E+04 -1.423273E+04  8.232621E-11  8.439910E-11
       201  17  1.115045E+06  7.960248E+03  1.010989E+04 -1.757462E+02 -5.413823E-10 -5.092595E-10
       201  18  1.090116E+06  2.167457E+03  4.962338E+03 -1.413209E+04  2.422795E-09  4.724159E-10
       201  19  1.025426E+06 -1.420213E+04 -1.186875E+04 -1.413593E+04 -6.530792E+02 -1.592062E+03
       201  20  1.050353E+06 -8.132693E+03 -5.740795E+03 -1.794408E+02  4.423322E+02 -6.921775E+02
       201  21  1.075560E+06 -1.484110E+03  1.242399E+03 -1.423646E+04  1.537853E+03  1.949505E+02
       201  22  1.082838E+06  6.449659E+01  2.119222E+03 -1.418433E+04 -3.481657E+02 -1.592095E+03
       201  23  1.082699E+06 -8.618358E+01  2.184589E+03 -1.775938E+02  7.430194E+02 -6.922222E+02
       201  24  1.082838E+06  3.416764E+02  3.102375E+03 -1.418427E+04  1.834270E+03  1.948923E+02
       201  25  1.140253E+06  1.433088E+04  1.610695E+04 -1.423273E+04 -4.322403E+01 -1.592128E+03
       201  26  1.115045E+06  7.960249E+03  1.010990E+04 -1.757468E+02  1.043722E+03 -6.922669E+02
       201  27  1.090116E+06  2.167458E+03  4.962346E+03 -1.413209E+04  2.130691E+03  1.948340E+02
       202   1  1.133342E+06  1.242552E+04  1.618231E+04 -1.393202E+04 -2.142410E+03 -7.239946E+02
       202   2  1.157923E+06  1.824838E+04  2.455813E+04 -2.200854E+02 -5.231240E+03 -1.624564E+03
       202   3  1.183828E+06  2.773024E+04  3.585818E+04 -1.471424E+04 -8.320052E+03 -2.465824E+03
       202   4  1.083069E+06 -9.553725E+01  3.787933E+03 -1.422724E+04 -2.455393E+03 -7.239392E+02
       202   5  1.082407E+06 -5.360322E+02  6.058188E+03 -1.240208E+02 -5.523939E+03 -1.624546E+03
       202   6  1.083066E+06  2.679200E+03  1.123888E+04 -1.422708E+04 -8.592344E+03 -2.465842E+03
       202   7  1.032798E+06 -1.261679E+04 -8.606635E+03 -1.452244E+04 -2.768351E+03 -7.238836E+02
       202   8  1.006897E+06 -1.932087E+04 -1.244217E+04 -2.796769E+01 -5.816604E+03 -1.624528E+03
       202   9  9.823124E+05 -2.237259E+04 -1.338116E+04 -1.374000E+04 -8.864592E+03 -2.465861E+03
       202  10  1.133342E+06  1.242552E+04  1.618231E+04 -1.393202E+04 -1.900748E-10  7.458193E-10
       202  11  1.157923E+06  1.824837E+04  2.455807E+04 -2.200923E+02  2.089842E-10  8.520300E-12
       202  12  1.183828E+06  2.773021E+04  3.585803E+04 -1.471425E+04 -1.253143E-09  1.337256E-10
       202  13  1.083069E+06 -9.553943E+01  3.787921E+03 -1.422724E+04 -7.116602E-10  6.057767E-10
       202  14  1.082407E+06 -5.360432E+02  6.058125E+03 -1.240280E+02  2.740871E-09 -4.866613E-10
       202  15  1.083066E+06  2.679173E+03  1.123873E+04 -1.422710E+04  2.853242E-09  8.405547E-11
       202  16  1.032798E+06 -1.261679E+04 -8.606650E+03 -1.452244E+04 -8.721150E-10  8.182713E-10
       202  17  1.006897E+06 -1.932088E+04 -1.244224E+04 -2.797530E+01  1.498292E-09 -7.456127E-10
       202  18  9.823123E+05 -2.237262E+04 -1.338132E+04 -1.374002E+04  1.280913E-09  5.696365E-10
       202  19  1.133342E+06  1.242552E+04  1.618231E+04 -1.393202E+04  2.142410E+03  7.239946E+02
       202  20  1.157923E+06  1.824838E+04  2.455813E+04 -2.200854E+02  5.231240E+03  1.624564E+03
       202  21  1.183828E+06  2.773024E+04  3.585818E+04 -1.471424E+04  8.320052E+03  2.465824E+03
       202  22  1.083069E+06 -9.553725E+01  3.787933E+03 -1.422724E+04  2.455393E+03  7.239392E+02
       202  23  1.082407E+06 -5.360322E+02  6.058188E+03 -1.240208E+02  5.523939E+03  1.624546E+03
       202  24  1.083066E+06  2.679200E+03  1.123888E+04 -1.422708E+04  8.592344E+03  2.465842E+03
       202  25  1.032798E+06 -1.261679E+04 -8.606635E+03 -1.452244E+04  2.768351E+03  7.238836E+02
       202  26  1.006897E+06 -1.932087E+04 -1.244217E+04 -2.796769E+01  5.816604E+03  1.624528E+03
       202  27  9.823124E+05 -2.237259E+04 -1.338116E+04 -1.374000E+04  8.864592E+03  2.465861E+03
       203   1  1.244421E+06  3.886130E+04  5.335113E+04 -1.226660E+04 -1.043748E+04 -3.096691E+03
       203   2  1.266364E+06  4.218747E+04  6.873525E+04 -8.298814E+02 -2.268247E+04 -4.057784E+03
       203   3  1.297025E+06  7.363011E+04  9.912924E+04 -1.877760E+04 -3.492780E+04 -4.392981E+03
       203   4  1.084700E+06 -8.818739E+02  1.415018E+04 -1.448715E+04 -1.086397E+04 -3.096712E+03
       203   5  1.080350E+06 -4.077306E+03  2.317995E+04  2.017625E+02 -2.289515E+04 -4.057942E+03
       203   6  1.084685E+06  2.081142E+04  4.707480E+04 -1.449418E+04 -3.492615E+04 -4.393320E+03
       203   7  9.250020E+05 -4.062692E+04 -2.505263E+04 -1.670713E+04 -1.129034E+04 -3.096730E+03
       203   8  8.943681E+05 -5.034463E+04 -2.237788E+04  1.233096E+03 -2.310776E+04 -4.058101E+03
       203   9  8.723850E+05 -3.201053E+04 -4.982936E+03 -1.021222E+04 -3.492450E+04 -4.393659E+03
       203  10  1.244421E+06  3.886126E+04  5.335090E+04 -1.226662E+04  2.074605E-09  8.135216E-11
       203  11  1.266363E+06  4.218731E+04  6.873425E+04 -8.299555E+02  8.929912E-11 -2.865788E-10
       203  12  1.297024E+06  7.362976E+04  9.912691E+04 -1.877773E+04  5.372010E-10  2.502059E-10
       203  13  1.084700E+06 -8.819159E+02  1.414994E+04 -1.448718E+04  3.262381E-09  6.972050E-11
       203  14  1.080350E+06 -4.077464E+03  2.317894E+04  2.016877E+02  1.827673E-09 -9.107178E-10
       203  15  1.084683E+06  2.081108E+04  4.707247E+04 -1.449430E+04  2.532482E-09  4.569407E-10
       203  16  9.250018E+05 -4.062697E+04 -2.505289E+04 -1.670716E+04  4.952395E-10  1.495136E-10
       203  17  8.943675E+05 -5.034479E+04 -2.237891E+04  1.233020E+03  1.823233E-09 -1.414905E-09
       203  18  8.723837E+05 -3.201088E+04 -4.985262E+03 -1.021234E+04 -1.156727E-10  6.504723E-10
       203  19  1.244421E+06  3.886130E+04  5.335113E+04 -1.226660E+04  1.043748E+04  3.096691E+03
       203  20  1.266364E+06  4.218747E+04  6.873525E+04 -8.298814E+02  2.268247E+04  4.057784E+03
       203  21  1.297025E+06  7.363011E+04  9.912924E+04 -1.877760E+04  3.492780E+04  4.392981E+03
       203  22  1.084700E+06 -8.818739E+02  1.415018E+04 -1.448715E+04  1.086397E+04  3.096712E+03
       203  23  1.080350E+06 -4.077306E+03  2.317995E+04  2.017625E+02  2.289515E+04  4.057942E+03
       203  24  1.084685E+06  2.081142E+04  4.707480E+04 -1.449418E+04  3.492615E+04  4.393320E+03
       203  25  9.250020E+05 -4.062692E+04 -2.505263E+04 -1.670713E+04  1.129034E+04  3.096730E+03
       203  26  8.943681E+05 -5.034463E+04 -2.237788E+04  1.233096E+03  2.310776E+04  4.058101E+03
       203  27  8.723850E+05 -3.201053E+04 -4.982936E+03 -1.021222E+04  3.492450E+04  4.393659E+03
       204   1  1.370903E+06  6.140173E+04  1.245303E+05  1.629627E+03 -4.272642E+04 -5.862620E+03
       204   2  1.368895E+06  4.426495E+04  1.631141E+05 -8.647994E+03 -9.314911E+04 -7.184357E+03
       204   3  1.427600E+06  2.427415E+05  2.884377E+05 -5.059924E+04 -1.435780E+05 -2.604362E+03
       204   4  1.096188E+06 -6.947284E+03  5.722174E+04 -1.494918E+04 -4.414189E+04 -5.862329E+03
       204   5  1.065948E+06 -3.104006E+04  8.904342E+04  8.057963E+02 -9.255865E+04 -7.185570E+03
       204   6  1.096103E+06  1.601869E+05  2.062444E+05 -1.511186E+04 -1.409792E+05 -2.610038E+03
       204   7  8.215426E+05 -7.530085E+04 -1.009218E+04 -3.152066E+04 -4.555674E+04 -5.861963E+03
       204   8  7.630854E+05 -1.063515E+05  1.496610E+04  1.025496E+04 -9.196848E+04 -7.186767E+03
       204   9  7.647091E+05  7.762884E+04  1.240435E+05  2.035657E+04 -1.383817E+05 -2.615420E+03
       204  10  1.370901E+06  6.140120E+04  1.245268E+05  1.629425E+03  3.140515E-10  3.560948E-10
       204  11  1.368885E+06  4.426257E+04  1.630977E+05 -8.648533E+03 -4.419915E-10 -3.117937E-10
       204  12  1.427578E+06  2.427359E+05  2.883991E+05 -5.059954E+04 -7.169687E-10  3.064877E-10
       204  13  1.096186E+06 -6.947842E+03  5.721803E+04 -1.494939E+04 -6.324337E-10 -1.654127E-10
       204  14  1.065939E+06 -3.104241E+04  8.902725E+04  8.052610E+02 -2.154938E-09 -8.471646E-11
       204  15  1.096082E+06  1.601816E+05  2.062071E+05 -1.511216E+04  1.916086E-10 -6.220896E-10
       204  16  8.215404E+05 -7.530144E+04 -1.009613E+04 -3.152087E+04 -4.545686E-10  1.132106E-09
       204  17  7.630763E+05 -1.063538E+05  1.495012E+04  1.025442E+04  1.310130E-09 -6.054185E-10
       204  18  7.646885E+05  7.762370E+04  1.240076E+05  2.035628E+04  1.703913E-09  6.535154E-10
       204  19  1.370903E+06  6.140173E+04  1.245303E+05  1.629627E+03  4.272642E+04  5.862620E+03
       204  20  1.368895E+06  4.426495E+04  1.631141E+05 -8.647994E+03  9.314911E+04  7.184357E+03
       204  21  1.427600E+06  2.427415E+05  2.884377E+05 -5.059924E+04  1.435780E+05  2.604362E+03
       204  22  1.096188E+06 -6.947284E+03  5.722174E+04 -1.494918E+04  4.414189E+04  5.862329E+03
       204  23  1.065948E+06 -3.104006E+04  8.904342E+04  8.057963E+02  9.255865E+04  7.185570E+03
       204  24  1.096103E+06  1.601869E+05  2.062444E+05 -1.511186E+04  1.409792E+05  2.610038E+03
       204  25  8.215426E+05 -7.530085E+04 -1.009218E+04 -3.152066E+04  4.555674E+04  5.861963E+03
       204  26  7.630854E+05 -1.063515E+05  1.496610E+04  1.025496E+04  9.196848E+04  7.186767E+03
       204  27  7.647091E+05  7.762884E+04  1.240435E+05  2.035657E+04  1.383817E+05  2.615420E+03
       205   1  7.035962E+05  2.093635E+06  6.762837E+05 -7.821255E+05  2.543487E+04  2.245702E+05
       205   2  4.832086E+05  1.475045E+06  4.123408E+05 -7.015761E+05  7.985766E+04  8.469319E+04
       205   3  3.207012E+05  8.888620E+05  2.536939E+05 -7.287225E+05  7.727476E+04 -5.519560E+04
       205   4  8.026002E+04 -4.286559E+05  8.169458E+04 -7.242814E+05  2.617100E+04  5.413796E+04
       205   5  2.750613E+04 -4.341338E+05  4.313026E+04 -6.705783E+05  8.011224E+04  3.234317E+04
       205   6  1.228829E+04 -4.279152E+05  2.808448E+04 -7.245647E+05  7.697865E+04  1.039430E+04
       205   7 -5.435043E+05 -2.945037E+06 -5.132232E+05 -6.666640E+05  2.687729E+04 -1.156078E+05
       205   8 -4.284090E+05 -2.339807E+06 -3.262401E+05 -6.396724E+05  8.036210E+04 -1.984989E+04
       205   9 -2.962149E+05 -1.742980E+06 -1.975669E+05 -7.204133E+05  7.668302E+04  7.584958E+04
       205  10  7.035820E+05  2.093581E+06  6.761880E+05 -7.821302E+05  4.781688E-10 -9.027446E-10
       205  11  4.831998E+05  1.475036E+06  4.123153E+05 -7.015816E+05 -5.607083E-11 -2.591893E-09
       205  12  3.206940E+05  8.888571E+05  2.536770E+05 -7.287190E+05  9.254256E-10 -1.204038E-10
       205  13  8.025849E+04 -4.286592E+05  8.168777E+04 -7.242826E+05  2.421011E-09  3.016430E-09
       205  14  2.749895E+04 -4.341367E+05  4.311623E+04 -6.705804E+05  7.829878E-10  2.503159E-10
       205  15  1.228190E+04 -4.279169E+05  2.807314E+04 -7.245654E+05  1.249921E-09  2.130618E-09
       205  16 -5.435087E+05 -2.945052E+06 -5.132498E+05 -6.666615E+05  2.714346E-10 -9.680830E-10
       205  17 -4.284161E+05 -2.339809E+06 -3.262529E+05 -6.396711E+05  5.512602E-09  2.110459E-09
       205  18 -2.962227E+05 -1.742988E+06 -1.975889E+05 -7.204180E+05  5.913036E-10 -2.183496E-09
       205  19  7.035962E+05  2.093635E+06  6.762837E+05 -7.821255E+05 -2.543487E+04 -2.245702E+05
       205  20  4.832086E+05  1.475045E+06  4.123408E+05 -7.015761E+05 -7.985766E+04 -8.469319E+04
       205  21  3.207012E+05  8.888620E+05  2.536939E+05 -7.287225E+05 -7.727476E+04  5.519560E+04
       205  22  8.026002E+04 -4.286559E+05  8.169458E+04 -7.242814E+05 -2.617100E+04 -5.413796E+04
       205  23  2.750613E+04 -4.341338E+05  4.313026E+04 -6.705783E+05 -8.011224E+04 -3.234317E+04
       205  24  1.228829E+04 -4.279152E+05  2.808448E+04 -7.245647E+05 -7.697865E+04 -1.039430E+04
       205  25 -5.435043E+05 -2.945037E+06 -5.132232E+05 -6.666640E+05 -2.687729E+04  1.156078E+05
       205  26 -4.284090E+05 -2.339807E+06 -3.262401E+05 -6.396724E+05 -8.036210E+04  1.984989E+04
       205  27 -2.962149E+05 -1.742980E+06 -1.975669E+05 -7.204133E+05 -7.668302E+04 -7.584958E+04
       206   1  2.299347E+05  5.044554E+05  1.828107E+05 -7.318609E+05  5.654351E+04 -5.885422E+04
       206   2  8.573999E+04 -9.917903E+04  7.503153E+04 -6.699714E+05  2.429849E+04 -7.443129E+04
       206   3 -4.956587E+04 -6.991497E+05 -2.066767E+04 -7.195807E+05 -9.573985E+03 -9.000709E+04
       206   4  1.146739E+04 -4.297494E+05  2.486303E+04 -7.253930E+05  5.623615E+04  6.193977E+03
       206   5  9.186537E+03 -4.310433E+05  2.420064E+04 -6.696365E+05  2.396857E+04 -6.044818E+03
       206   6  1.523138E+04 -4.296135E+05  3.329488E+04 -7.253773E+05 -9.927129E+03 -1.829636E+04
       206   7 -2.070436E+05 -1.363086E+06 -1.330968E+05 -7.189338E+05  5.592984E+04  7.114751E+04
       206   8 -6.736972E+04 -7.627872E+05 -2.661506E+04 -6.693018E+05  2.363860E+04  6.230651E+04
       206   9  8.002704E+04 -1.599968E+05  8.727311E+04 -7.311763E+05 -1.028152E+04  5.344491E+04
       206  10  2.299304E+05  5.044508E+05  1.827982E+05 -7.318582E+05  1.373901E-09 -9.896386E-11
       206  11  8.573788E+04 -9.918513E+04  7.502002E+04 -6.699699E+05  2.133439E-09 -2.017959E-09
       206  12 -4.956815E+04 -6.991585E+05 -2.068308E+04 -7.195814E+05  1.104289E-10  9.663764E-10
       206  13  1.146398E+04 -4.297503E+05  2.485702E+04 -7.253933E+05  8.475226E-10  4.188734E-09
       206  14  9.185911E+03 -4.310435E+05  2.419950E+04 -6.696364E+05 -3.576821E-09 -2.740434E-10
       206  15  1.523119E+04 -4.296139E+05  3.329406E+04 -7.253774E+05 -2.623740E-10  2.293347E-09
       206  16 -2.070483E+05 -1.363092E+06 -1.331122E+05 -7.189370E+05  1.607974E-09 -2.600297E-09
       206  17 -6.737137E+04 -7.627915E+05 -2.662342E+04 -6.693030E+05 -1.030074E-09  7.063235E-11
       206  18  8.002616E+04 -1.599999E+05  8.726755E+04 -7.311759E+05  3.433180E-10 -3.285331E-09
       206  19  2.299347E+05  5.044554E+05  1.828107E+05 -7.318609E+05 -5.654351E+04  5.885422E+04
       206  20  8.573999E+04 -9.917903E+04  7.503153E+04 -6.699714E+05 -2.429849E+04  7.443129E+04
       206  21 -4.956587E+04 -6.991497E+05 -2.066767E+04 -7.195807E+05  9.573985E+03  9.000709E+04
       206  22  1.146739E+04 -4.297494E+05  2.486303E+04 -7.253930E+05 -5.623615E+04 -6.193977E+03
       206  23  9.186537E+03 -4.310433E+05  2.420064E+04 -6.696365E+05 -2.396857E+04  6.044818E+03
       206  24  1.523138E+04 -4.296135E+05  3.329488E+04 -7.253773E+05  9.927129E+03  1.829636E+04
       206  25 -2.070436E+05 -1.363086E+06 -1.330968E+05 -7.189338E+05 -5.592984E+04 -7.114751E+04
       206  26 -6.736972E+04 -7.627872E+05 -2.661506E+04 -6.693018E+05 -2.363860E+04 -6.230651E+04
       206  27  8.002704E+04 -1.599968E+05  8.727311E+04 -7.311763E+05  1.028152E+04 -5.344491E+04
       207   1 -1.371577E+05 -1.076663E+06 -7.812722E+04 -7.231805E+05 -3.171841E+04 -9.608931E+04
       207   2 -2.549649E+05 -1.680182E+06 -1.786778E+05 -6.233701E+05 -4.555358E+04 -4.435608E+04
       207   3 -3.246289E+05 -2.278791E+06 -3.011315E+05 -6.323751E+05 -1.657386E+04  7.460218E+03
       207   4  1.703526E+04 -4.258754E+05  4.144148E+04 -7.248066E+05 -3.206856E+04 -2.404019E+04
       207   5  4.465270E+04 -4.360292E+05  7.133388E+04 -6.701727E+05 -4.546767E+04 -6.054069E+04
       207   6  1.356941E+05 -4.263433E+05  1.406310E+05 -7.242961E+05 -1.609897E+04 -9.690916E+04
       207   7  1.712069E+05  2.253352E+05  1.610123E+05 -7.264338E+05 -3.241885E+04  4.808257E+04
       207   8  3.441824E+05  8.096073E+05  3.212686E+05 -7.170686E+05 -4.537942E+04 -7.675706E+04
       207   9  5.958045E+05  1.429300E+06  5.821974E+05 -8.164884E+05 -1.559397E+04 -2.015890E+05
       207  10 -1.371612E+05 -1.076673E+06 -7.814650E+04 -7.231829E+05  7.890408E-10  6.348453E-08
       207  11 -2.549677E+05 -1.680184E+06 -1.786854E+05 -6.233718E+05  4.672411E-10 -2.071745E-09
       207  12 -3.246292E+05 -2.278791E+06 -3.011321E+05 -6.323750E+05  1.947789E-10 -6.254696E-08
       207  13  1.703400E+04 -4.258763E+05  4.143846E+04 -7.248072E+05  1.409440E-09  3.842954E-09
       207  14  4.464949E+04 -4.360337E+05  7.132309E+04 -6.701749E+05 -3.569067E-09 -3.670916E-10
       207  15  1.356913E+05 -4.263535E+05  1.406129E+05 -7.242974E+05  6.837843E-10  1.827357E-09
       207  16  1.712051E+05  2.253324E+05  1.610060E+05 -7.264325E+05 -8.316087E-10 -6.618090E-08
       207  17  3.441786E+05  8.096004E+05  3.212537E+05 -7.170714E+05  8.356744E-10  3.486264E-10
       207  18  5.957933E+05  1.429257E+06  5.821207E+05 -8.164909E+05  5.878481E-10  6.091725E-08
       207  19 -1.371577E+05 -1.076663E+06 -7.812722E+04 -7.231805E+05  3.171841E+04  9.608931E+04
       207  20 -2.549649E+05 -1.680182E+06 -1.786778E+05 -6.233701E+05  4.555358E+04  4.435608E+04
       207  21 -3.246289E+05 -2.278791E+06 -3.011315E+05 -6.323751E+05  1.657386E+04 -7.460218E+03
       207  22  1.703526E+04 -4.258754E+05  4.144148E+04 -7.248066E+05  3.206856E+04  2.404019E+04
       207  23  4.465270E+04 -4.360292E+05  7.133388E+04 -6.701727E+05  4.546767E+04  6.054069E+04
       207  24  1.356941E+05 -4.263433E+05  1.406310E+05 -7.242961E+05  1.609897E+04  9.690916E+04
       207  25  1.712069E+05  2.253352E+05  1.610123E+05 -7.264338E+05  3.241885E+04 -4.808257E+04
       207  26  3.441824E+05  8.096073E+05  3.212686E+05 -7.170686E+05  4.537942E+04  7.675706E+04
       207  27  5.958045E+05  1.429300E+06  5.821974E+05 -8.164884E+05  1.559397E+04  2.015890E+05
       208   1 -2.727467E+06 -1.057280E+06 -5.556616E+05 -1.007840E+06 -1.928882E+05 -3.341408E+04
       208   2 -2.536821E+06 -9.903594E+05 -4.106052E+05 -9.494943E+05 -1.250566E+05  8.540331E+04
       208   3 -2.333698E+06 -9.468606E+05 -3.383530E+05 -9.237426E+05 -3.537694E+04  1.466291E+05
       208   4 -3.363649E+05 -1.855033E+05  5.038869E+04 -3.790698E+05  1.965993E+04  4.687163E+04
       208   5 -3.562268E+05 -2.039864E+05  2.374849E+04 -3.554815E+05 -2.334541E+04  1.237374E+05
       208   6 -3.415954E+05 -2.238810E+05  1.243979E+04 -3.644952E+05 -4.458138E+04  1.431066E+05
       208   7  2.060343E+06  6.865710E+05  6.561533E+05  2.518692E+05  2.331014E+05  1.274710E+05
       208   8  1.829290E+06  5.827684E+05  4.579146E+05  2.404532E+05  7.875014E+04  1.622113E+05
       208   9  1.654750E+06  4.995046E+05  3.631174E+05  1.964449E+05 -5.381769E+04  1.395722E+05
       208  10 -2.727507E+06 -1.057292E+06 -5.557340E+05 -1.007846E+06 -2.197371E-08 -6.890188E-09
       208  11 -2.536840E+06 -9.903714E+05 -4.106483E+05 -9.494857E+05  5.632001E-09  6.356058E-09
       208  12 -2.333705E+06 -9.468840E+05 -3.383957E+05 -9.237385E+05  3.333794E-08  2.049822E-08
       208  13 -3.363659E+05 -1.855058E+05  5.038383E+04 -3.790706E+05  1.472655E-09 -1.363484E-09
       208  14 -3.562315E+05 -2.040030E+05  2.371870E+04 -3.554792E+05  4.236201E-09 -1.002686E-08
       208  15 -3.416030E+05 -2.239036E+05  1.239758E+04 -3.644901E+05  1.231622E-08 -8.805032E-09
       208  16  2.060280E+06  6.865391E+05  6.560211E+05  2.518453E+05  2.021061E-08  6.848607E-09
       208  17  1.829276E+06  5.827385E+05  4.578536E+05  2.404430E+05 -5.675087E-09  2.924644E-10
       208  18  1.654741E+06  4.994830E+05  3.630753E+05  1.964509E+05 -3.162222E-08 -2.892909E-09
       208  19 -2.727467E+06 -1.057280E+06 -5.556616E+05 -1.007840E+06  1.928882E+05  3.341408E+04
       208  20 -2.536821E+06 -9.903594E+05 -4.106052E+05 -9.494943E+05  1.250566E+05 -8.540331E+04
       208  21 -2.333698E+06 -9.468606E+05 -3.383530E+05 -9.237426E+05  3.537694E+04 -1.466291E+05
       208  22 -3.363649E+05 -1.855033E+05  5.038869E+04 -3.790698E+05 -1.965993E+04 -4.687163E+04
       208  23 -3.562268E+05 -2.039864E+05  2.374849E+04 -3.554815E+05  2.334541E+04 -1.237374E+05
       208  24 -3.415954E+05 -2.238810E+05  1.243979E+04 -3.644952E+05  4.458138E+04 -1.431066E+05
       208  25  2.060343E+06  6.865710E+05  6.561533E+05  2.518692E+05 -2.331014E+05 -1.274710E+05
       208  26  1.829290E+06  5.827684E+05  4.579146E+05  2.404532E+05 -7.875014E+04 -1.622113E+05
       208  27  1.654750E+06  4.995046E+05  3.631174E+05  1.964449E+05  5.381769E+04 -1.395722E+05
       209   1 -2.213915E+06 -9.006229E+05 -3.139415E+05 -8.890967E+05 -3.912486E+04  1.402149E+05
       209   2 -2.039334E+06 -8.190324E+05 -2.743610E+05 -8.216314E+05 -2.814281E+04  1.379063E+05
       209   3 -1.838822E+06 -7.650212E+05 -2.414256E+05 -7.850623E+05 -1.497037E+04  1.297532E+05
       209   4 -3.422829E+05 -2.248177E+05  9.271420E+03 -3.657282E+05 -4.433448E+04  1.382033E+05
       209   5 -3.563613E+05 -2.130466E+05  4.803623E+03 -3.498891E+05 -4.461110E+04  1.316656E+05
       209   6 -3.423132E+05 -2.266175E+05  2.630280E+03 -3.649531E+05 -4.270353E+04  1.192916E+05
       209   7  1.533074E+06  4.513326E+05  3.323827E+05  1.591196E+05 -4.956097E+04  1.361856E+05
       209   8  1.329635E+06  3.932237E+05  2.838988E+05  1.230531E+05 -6.112690E+04  1.254072E+05
       209   9  1.156583E+06  3.120114E+05  2.466357E+05  5.610532E+04 -7.050749E+04  1.088033E+05
       209  10 -2.213922E+06 -9.006444E+05 -3.139814E+05 -8.890923E+05 -2.868212E-08 -5.084985E-09
       209  11 -2.039340E+06 -8.190530E+05 -2.743982E+05 -8.216283E+05 -4.618409E-09  2.367118E-09
       209  12 -1.838827E+06 -7.650394E+05 -2.414576E+05 -7.850607E+05  2.381183E-08  1.019044E-08
       209  13 -3.422902E+05 -2.248388E+05  9.231842E+03 -3.657233E+05  8.329622E-09 -9.058261E-09
       209  14 -3.563681E+05 -2.130657E+05  4.767314E+03 -3.498844E+05  5.559837E-09 -6.959966E-09
       209  15 -3.423190E+05 -2.266333E+05  2.600119E+03 -3.649490E+05 -6.476005E-10 -1.792969E-09
       209  16  1.533067E+06  4.513120E+05  3.323433E+05  1.591250E+05  3.238921E-08  2.229860E-08
       209  17  1.329626E+06  3.932058E+05  2.838622E+05  1.230593E+05  2.368756E-09  6.652994E-09
       209  18  1.156575E+06  3.119973E+05  2.466041E+05  5.611149E+04 -2.329164E-08 -8.287609E-09
       209  19 -2.213915E+06 -9.006229E+05 -3.139415E+05 -8.890967E+05  3.912486E+04 -1.402149E+05
       209  20 -2.039334E+06 -8.190324E+05 -2.743610E+05 -8.216314E+05  2.814281E+04 -1.379063E+05
       209  21 -1.838822E+06 -7.650212E+05 -2.414256E+05 -7.850623E+05  1.497037E+04 -1.297532E+05
       209  22 -3.422829E+05 -2.248177E+05  9.271420E+03 -3.657282E+05  4.433448E+04 -1.382033E+05
       209  23 -3.563613E+05 -2.130466E+05  4.803623E+03 -3.498891E+05  4.461110E+04 -1.316656E+05
       209  24 -3.423132E+05 -2.266175E+05  2.630280E+03 -3.649531E+05  4.270353E+04 -1.192916E+05
       209  25  1.533074E+06  4.513326E+05  3.323827E+05  1.591196E+05  4.956097E+04 -1.361856E+05
       209  26  1.329635E+06  3.932237E+05  2.838988E+05  1.230531E+05  6.112690E+04 -1.254072E+05
       209  27  1.156583E+06  3.120114E+05  2.466357E+05  5.610532E+04  7.050749E+04 -1.088033E+05
       210   1 -1.719667E+06 -7.215846E+05 -2.212848E+05 -7.515726E+05 -1.249852E+04  1.209312E+05
       210   2 -1.545866E+06 -6.401834E+05 -1.910474E+05 -6.833469E+05 -6.397417E+03  1.066835E+05
       210   3 -1.344727E+06 -5.861293E+05 -1.612677E+05 -6.462042E+05 -8.427173E+01  9.183413E+04
       210   4 -3.423297E+05 -2.266010E+05  1.953672E+03 -3.651244E+05 -3.984513E+04  1.106247E+05
       210   5 -3.559862E+05 -2.128868E+05  1.029671E+03 -3.495992E+05 -3.490514E+04  9.595451E+04
       210   6 -3.421229E+05 -2.262927E+05  5.611733E+02 -3.651689E+05 -2.975358E+04  8.068325E+04
       210   7  1.037063E+06  2.685852E+05  2.251598E+05  2.213592E+04 -6.725655E+04  1.002938E+05
       210   8  8.354235E+05  2.145596E+05  1.930831E+05 -1.524669E+04 -6.347108E+04  8.520363E+04
       210   9  6.615636E+05  1.336484E+05  1.623732E+05 -8.370575E+04 -5.947378E+04  6.951325E+04
       210  10 -1.719671E+06 -7.216003E+05 -2.213126E+05 -7.515714E+05 -5.168182E-10  2.085388E-09
       210  11 -1.545869E+06 -6.401956E+05 -1.910689E+05 -6.833464E+05  7.682568E-09  4.394450E-09
       210  12 -1.344729E+06 -5.861383E+05 -1.612835E+05 -6.462042E+05  7.480557E-09  3.830648E-09
       210  13 -3.423347E+05 -2.266146E+05  1.927698E+03 -3.651209E+05  2.672571E-09  1.935527E-09
       210  14 -3.559900E+05 -2.128970E+05  1.010085E+03 -3.495965E+05  7.037478E-09  2.771620E-09
       210  15 -3.421256E+05 -2.262999E+05  5.472802E+02 -3.651669E+05  1.563230E-09  2.093820E-09
       210  16  1.037055E+06  2.685732E+05  2.251325E+05  2.214135E+04  5.054934E-09  1.815350E-09
       210  17  8.354172E+05  2.145507E+05  1.930618E+05 -1.524233E+04  4.666951E-09  2.500917E-09
       210  18  6.615585E+05  1.336422E+05  1.623575E+05 -8.370242E+04 -6.062442E-09 -5.144689E-10
       210  19 -1.719667E+06 -7.215846E+05 -2.212848E+05 -7.515726E+05  1.249852E+04 -1.209312E+05
       210  20 -1.545866E+06 -6.401834E+05 -1.910474E+05 -6.833469E+05  6.397417E+03 -1.066835E+05
       210  21 -1.344727E+06 -5.861293E+05 -1.612677E+05 -6.462042E+05  8.427173E+01 -9.183413E+04
       210  22 -3.423297E+05 -2.266010E+05  1.953672E+03 -3.651244E+05  3.984513E+04 -1.106247E+05
       210  23 -3.559862E+05 -2.128868E+05  1.029671E+03 -3.495992E+05  3.490514E+04 -9.595451E+04
       210  24 -3.421229E+05 -2.262927E+05  5.611733E+02 -3.651689E+05  2.975358E+04 -8.068325E+04
       210  25  1.037063E+06  2.685852E+05  2.251598E+05  2.213592E+04  6.725655E+04 -1.002938E+05
       210  26  8.354235E+05  2.145596E+05  1.930831E+05 -1.524669E+04  6.347108E+04 -8.520363E+04
       210  27  6.615636E+05  1.336484E+05  1.623732E+05 -8.370575E+04  5.947378E+04 -6.951325E+04
       211   1 -1.225439E+06 -5.430378E+05 -1.412839E+05 -6.128189E+05  3.179766E+03  8.282088E+04
       211   2 -1.051281E+06 -4.619019E+05 -1.116375E+05 -5.445423E+05  9.007941E+03  6.743894E+04
       211   3 -8.497382E+05 -4.080605E+05 -8.200645E+04 -5.074587E+05  1.485097E+04  5.199393E+04
       211   4 -3.420952E+05 -2.262299E+05  3.977877E+02 -3.652093E+05 -2.646338E+04  7.168664E+04
       211   5 -3.557186E+05 -2.124690E+05  1.568746E+02 -3.496335E+05 -2.075913E+04  5.626678E+04
       211   6 -3.419713E+05 -2.259812E+05 -6.202755E+00 -3.652638E+05 -1.504002E+04  4.078375E+04
       211   7  5.420792E+05  9.065556E+04  1.420650E+05 -1.172702E+05 -5.615096E+04  6.053571E+04
       211   8  3.403660E+05  3.701461E+04  1.119453E+05 -1.545187E+05 -5.056159E+04  4.508133E+04
       211   9  1.660800E+05 -4.387254E+04  8.199412E+04 -2.229575E+05 -4.495726E+04  2.956372E+04
       211  10 -1.225441E+06 -5.430452E+05 -1.412968E+05 -6.128191E+05  2.006754E-09  3.218383E-10
       211  11 -1.051283E+06 -4.619068E+05 -1.116462E+05 -5.445428E+05 -6.675317E-10  6.922819E-10
       211  12 -8.497392E+05 -4.080635E+05 -8.201195E+04 -5.074593E+05 -1.314655E-09  6.971738E-10
       211  13 -3.420973E+05 -2.262357E+05  3.868174E+02 -3.652077E+05 -2.155062E-09  4.612047E-10
       211  14 -3.557199E+05 -2.124725E+05  1.501171E+02 -3.496326E+05  1.081234E-09  4.057997E-10
       211  15 -3.419720E+05 -2.259831E+05 -9.752598E+00 -3.652633E+05  4.887756E-10  8.140852E-10
       211  16  5.420748E+05  9.065078E+04  1.420522E+05 -1.172675E+05 -2.030120E-09  1.366948E-09
       211  17  3.403627E+05  3.701174E+04  1.119367E+05 -1.545169E+05 -2.585894E-09  8.232817E-10
       211  18  1.660776E+05 -4.387402E+04  8.198868E+04 -2.229564E+05 -6.182556E-10  8.642580E-10
       211  19 -1.225439E+06 -5.430378E+05 -1.412839E+05 -6.128189E+05 -3.179766E+03 -8.282088E+04
       211  20 -1.051281E+06 -4.619019E+05 -1.116375E+05 -5.445423E+05 -9.007941E+03 -6.743894E+04
       211  21 -8.497382E+05 -4.080605E+05 -8.200645E+04 -5.074587E+05 -1.485097E+04 -5.199393E+04
       211  22 -3.420952E+05 -2.262299E+05  3.977877E+02 -3.652093E+05  2.646338E+04 -7.168664E+04
       211  23 -3.557186E+05 -2.124690E+05  1.568746E+02 -3.496335E+05  2.075913E+04 -5.626678E+04
       211  24 -3.419713E+05 -2.259812E+05 -6.202755E+00 -3.652638E+05  1.504002E+04 -4.078375E+04
       211  25  5.420792E+05  9.065556E+04  1.420650E+05 -1.172702E+05  5.615096E+04 -6.053571E+04
       211  26  3.403660E+05  3.701461E+04  1.119453E+05 -1.545187E+05  5.056159E+04 -4.508133E+04
       211  27  1.660800E+05 -4.387254E+04  8.199412E+04 -2.229575E+05  4.495726E+04 -2.956372E+04
       212   1 -7.302626E+05 -3.650524E+05 -6.199549E+04 -4.740855E+05  1.824716E+04  4.298035E+04
       212   2 -5.558532E+05 -2.840480E+05 -3.241023E+04 -4.057965E+05  2.414847E+04  2.754449E+04
       212   3 -3.541006E+05 -2.303329E+05 -2.889756E+03 -3.687478E+05  3.003598E+04  1.213797E+04
       212   4 -3.419590E+05 -2.259473E+05 -9.211693E+01 -3.652794E+05 -1.165097E+04  3.177070E+04
       212   5 -3.555865E+05 -2.122528E+05 -3.031464E+02 -3.496626E+05 -5.696783E+03  1.635717E+04
       212   6 -3.419209E+05 -2.258620E+05 -6.245550E+02 -3.653001E+05  2.435826E+02  9.729634E+02
       212   7  4.650854E+04 -8.682586E+04  6.181216E+04 -2.564088E+05 -4.156890E+04  2.055362E+04
       212   8 -1.552760E+05 -1.404531E+05  3.180662E+04 -2.935115E+05 -3.555206E+04  5.166082E+03
       212   9 -3.297392E+05 -2.213903E+05  1.644409E+03 -3.618518E+05 -2.954910E+04 -1.019215E+04
       212  10 -7.302635E+05 -3.650545E+05 -6.199959E+04 -4.740862E+05 -1.347142E-09  7.397774E-10
       212  11 -5.558540E+05 -2.840489E+05 -3.241275E+04 -4.057970E+05 -2.196809E-09  7.578034E-10
       212  12 -3.541016E+05 -2.303333E+05 -2.891730E+03 -3.687481E+05  8.848436E-10 -1.021608E-10
       212  13 -3.419594E+05 -2.259484E+05 -9.426828E+01 -3.652791E+05  6.048724E-10  9.668441E-10
       212  14 -3.555866E+05 -2.122531E+05 -3.037100E+02 -3.496625E+05 -9.983955E-11  1.036034E-09
       212  15 -3.419209E+05 -2.258620E+05 -6.245568E+02 -3.653001E+05 -2.308287E-10  9.261900E-10
       212  16  4.650657E+04 -8.682678E+04  6.180812E+04 -2.564081E+05  2.295375E-10  1.363250E-09
       212  17 -1.552774E+05 -1.404535E+05  3.180420E+04 -2.935113E+05  1.723361E-10  1.666588E-09
       212  18 -3.297401E+05 -2.213906E+05  1.642571E+03 -3.618521E+05 -1.108054E-09  1.966285E-09
       212  19 -7.302626E+05 -3.650524E+05 -6.199549E+04 -4.740855E+05 -1.824716E+04 -4.298035E+04
       212  20 -5.558532E+05 -2.840480E+05 -3.241023E+04 -4.057965E+05 -2.414847E+04 -2.754449E+04
       212  21 -3.541006E+05 -2.303329E+05 -2.889756E+03 -3.687478E+05 -3.003598E+04 -1.213797E+04
       212  22 -3.419590E+05 -2.259473E+05 -9.211693E+01 -3.652794E+05  1.165097E+04 -3.177070E+04
       212  23 -3.555865E+05 -2.122528E+05 -3.031464E+02 -3.496626E+05  5.696783E+03 -1.635717E+04
       212  24 -3.419209E+05 -2.258620E+05 -6.245550E+02 -3.653001E+05 -2.435826E+02 -9.729634E+02
       212  25  4.650854E+04 -8.682586E+04  6.181216E+04 -2.564088E+05  4.156890E+04 -2.055362E+04
       212  26 -1.552760E+05 -1.404531E+05  3.180662E+04 -2.935115E+05  3.555206E+04 -5.166082E+03
       212  27 -3.297392E+05 -2.213903E+05  1.644409E+03 -3.618518E+05  2.954910E+04  1.019215E+04
       213   1 -2.345165E+05 -1.873584E+05  1.701803E+04 -3.353694E+05  3.355751E+04  3.198092E+03
       213   2 -6.005973E+04 -1.064029E+05  4.636247E+04 -2.670358E+05  3.935850E+04 -1.201917E+04
       213   3  1.417238E+05 -5.272079E+04  7.565234E+04 -2.299105E+05  4.502224E+04 -2.686164E+04
       213   4 -3.419519E+05 -2.258565E+05 -8.557899E+02 -3.653067E+05  3.737240E+03 -7.977696E+03
       213   5 -3.555590E+05 -2.122612E+05 -1.601317E+03 -3.496588E+05  1.025605E+04 -2.292953E+04
       213   6 -3.420240E+05 -2.260889E+05 -2.974252E+03 -3.652368E+05  1.663755E+04 -3.750646E+04
       213   7 -4.493744E+05 -2.643531E+05 -1.872642E+04 -3.952388E+05 -2.607789E+04 -1.915157E+04
       213   8 -6.509647E+05 -3.181106E+05 -4.956384E+04 -4.322448E+05 -1.883190E+04 -3.383446E+04
       213   9 -8.255195E+05 -3.994327E+05 -8.160250E+04 -5.004637E+05 -1.172371E+04 -4.814250E+04
       213  10 -2.345177E+05 -1.873587E+05  1.701589E+04 -3.353695E+05 -1.424249E-09 -8.146348E-10
       213  11 -6.006143E+04 -1.064035E+05  4.635929E+04 -2.670354E+05 -3.338705E-09 -4.338605E-10
       213  12  1.417214E+05 -5.272211E+04  7.564717E+04 -2.299095E+05 -3.879319E-09 -1.655695E-09
       213  13 -3.419520E+05 -2.258565E+05 -8.559357E+02 -3.653066E+05 -6.408183E-10  8.561666E-10
       213  14 -3.555593E+05 -2.122618E+05 -1.602502E+03 -3.496586E+05  1.322888E-09  1.395857E-09
       213  15 -3.420246E+05 -2.260905E+05 -2.977415E+03 -3.652363E+05 -6.598633E-10  8.274598E-10
       213  16 -4.493752E+05 -2.643536E+05 -1.872839E+04 -3.952392E+05  1.091420E-09  2.863372E-09
       213  17 -6.509654E+05 -3.181119E+05 -4.956666E+04 -4.322453E+05  2.414710E-09  3.033520E-09
       213  18 -8.255203E+05 -3.994352E+05 -8.160711E+04 -5.004641E+05  2.820489E-09  3.758212E-09
       213  19 -2.345165E+05 -1.873584E+05  1.701803E+04 -3.353694E+05 -3.355751E+04 -3.198092E+03
       213  20 -6.005973E+04 -1.064029E+05  4.636247E+04 -2.670358E+05 -3.935850E+04  1.201917E+04
       213  21  1.417238E+05 -5.272079E+04  7.565234E+04 -2.299105E+05 -4.502224E+04  2.686164E+04
       213  22 -3.419519E+05 -2.258565E+05 -8.557899E+02 -3.653067E+05 -3.737240E+03  7.977696E+03
       213  23 -3.555590E+05 -2.122612E+05 -1.601317E+03 -3.496588E+05 -1.025605E+04  2.292953E+04
       213  24 -3.420240E+05 -2.260889E+05 -2.974252E+03 -3.652368E+05 -1.663755E+04  3.750646E+04
       213  25 -4.493744E+05 -2.643531E+05 -1.872642E+04 -3.952388E+05  2.607789E+04  1.915157E+04
       213  26 -6.509647E+05 -3.181106E+05 -4.956384E+04 -4.322448E+05  1.883190E+04  3.383446E+04
       213  27 -8.255195E+05 -3.994327E+05 -8.160250E+04 -5.004637E+05  1.172371E+04  4.814250E+04
       214   1  2.614634E+05 -9.784905E+03  9.521235E+04 -1.966721E+05  4.909224E+04 -3.528738E+04
       214   2  4.349263E+05  7.156582E+04  1.249940E+05 -1.273841E+05  5.055783E+04 -4.953268E+04
       214   3  6.356849E+05  1.250237E+05  1.570758E+05 -8.863280E+04  5.064495E+04 -6.009164E+04
       214   4 -3.422827E+05 -2.261030E+05 -3.979289E+03 -3.652521E+05  2.045208E+04 -4.603171E+04
       214   5 -3.555214E+05 -2.133177E+05 -7.363171E+03 -3.492962E+05  2.903752E+04 -5.761499E+04
       214   6 -3.429105E+05 -2.298422E+05 -1.408893E+04 -3.638940E+05  3.624456E+04 -6.550887E+04
       214   7 -9.456305E+05 -4.423814E+05 -1.031739E+05 -5.336760E+05 -8.158251E+03 -5.676488E+04
       214   8 -1.145302E+06 -4.981373E+05 -1.397342E+05 -5.709431E+05  7.546293E+03 -6.568633E+04
       214   9 -1.320503E+06 -5.846163E+05 -1.852852E+05 -6.387520E+05  2.186816E+04 -7.091700E+04
       214  10  2.614604E+05 -9.786888E+03  9.520549E+04 -1.966707E+05 -2.185276E-09 -3.505662E-09
       214  11  4.349229E+05  7.156251E+04  1.249846E+05 -1.273821E+05 -2.925924E-08 -1.643107E-08
       214  12  6.356812E+05  1.250191E+05  1.570642E+05 -8.863035E+04 -6.885245E-08 -2.434662E-08
       214  13 -3.422837E+05 -2.261054E+05 -3.984055E+03 -3.652513E+05 -1.013157E-10 -1.174915E-09
       214  14 -3.555232E+05 -2.133215E+05 -7.370991E+03 -3.492949E+05 -7.735974E-09 -9.340431E-09
       214  15 -3.429131E+05 -2.298471E+05 -1.409946E+04 -3.638921E+05 -2.232793E-08 -2.208277E-08
       214  16 -9.456314E+05 -4.423848E+05 -1.031801E+05 -5.336764E+05  2.487762E-09  5.548460E-09
       214  17 -1.145303E+06 -4.981420E+05 -1.397424E+05 -5.709427E+05  2.040927E-08  1.546684E-08
       214  18 -1.320505E+06 -5.846218E+05 -1.852956E+05 -6.387507E+05  2.932128E-08  1.601519E-08
       214  19  2.614634E+05 -9.784905E+03  9.521235E+04 -1.966721E+05 -4.909224E+04  3.528738E+04
       214  20  4.349263E+05  7.156582E+04  1.249940E+05 -1.273841E+05 -5.055783E+04  4.953268E+04
       214  21  6.356849E+05  1.250237E+05  1.570758E+05 -8.863280E+04 -5.064495E+04  6.009164E+04
       214  22 -3.422827E+05 -2.261030E+05 -3.979289E+03 -3.652521E+05 -2.045208E+04  4.603171E+04
       214  23 -3.555214E+05 -2.133177E+05 -7.363171E+03 -3.492962E+05 -2.903752E+04  5.761499E+04
       214  24 -3.429105E+05 -2.298422E+05 -1.408893E+04 -3.638940E+05 -3.624456E+04  6.550887E+04
       214  25 -9.456305E+05 -4.423814E+05 -1.031739E+05 -5.336760E+05  8.158251E+03  5.676488E+04
       214  26 -1.145302E+06 -4.981373E+05 -1.397342E+05 -5.709431E+05 -7.546293E+03  6.568633E+04
       214  27 -1.320503E+06 -5.846163E+05 -1.852852E+05 -6.387520E+05 -2.186816E+04  7.091700E+04
       215   1  7.572704E+05  1.669282E+05  1.771426E+05 -5.771073E+04  5.760256E+04 -6.443703E+04
       215   2  9.148821E+05  2.540159E+05  2.235758E+05  3.028328E+04  2.520034E+03 -7.435679E+04
       215   3  1.096949E+06  2.966414E+05  3.027256E+05  9.759196E+04 -6.626888E+04 -4.793280E+04
       215   4 -3.454979E+05 -2.301154E+05 -1.886815E+04 -3.640573E+05  4.065217E+04 -7.081589E+04
       215   5 -3.549446E+05 -2.300134E+05 -3.620669E+04 -3.428128E+05  5.591639E+04 -5.431118E+04
       215   6 -3.539152E+05 -2.883478E+05 -7.656057E+04 -3.422710E+05  5.747688E+04 -1.414455E+03
       215   7 -1.446991E+06 -6.270473E+05 -2.149197E+05 -6.698993E+05  2.373372E+04 -7.718288E+04
       215   8 -1.623077E+06 -7.138534E+05 -2.960520E+05 -7.151810E+05  1.091945E+05 -3.431435E+04
       215   9 -1.802624E+06 -8.730709E+05 -4.559417E+05 -7.811426E+05  1.809011E+05  4.496219E+04
       215  10  7.572658E+05  1.669229E+05  1.771286E+05 -5.770774E+04  2.436084E-08  1.574187E-08
       215  11  9.148806E+05  2.540100E+05  2.235654E+05  3.028343E+04  1.997075E-08  1.670724E-08
       215  12  1.096944E+06  2.966377E+05  3.027130E+05  9.758940E+04  2.918745E-09  3.686140E-09
       215  13 -3.455011E+05 -2.301212E+05 -1.888067E+04 -3.640550E+05 -2.416463E-08 -2.058422E-08
       215  14 -3.549487E+05 -2.300174E+05 -3.621810E+04 -3.428104E+05 -7.626688E-09 -9.169371E-09
       215  15 -3.539187E+05 -2.883487E+05 -7.656678E+04 -3.422710E+05  1.305986E-09 -1.108807E-09
       215  16 -1.446994E+06 -6.270539E+05 -2.149319E+05 -6.698979E+05 -6.399084E-08 -2.339649E-08
       215  17 -1.623090E+06 -7.138579E+05 -2.960767E+05 -7.151780E+05 -2.949243E-08 -1.458790E-08
       215  18 -1.802660E+06 -8.730819E+05 -4.560072E+05 -7.811492E+05 -2.820143E-09 -1.615507E-09
       215  19  7.572704E+05  1.669282E+05  1.771426E+05 -5.771073E+04 -5.760256E+04  6.443703E+04
       215  20  9.148821E+05  2.540159E+05  2.235758E+05  3.028328E+04 -2.520034E+03  7.435679E+04
       215  21  1.096949E+06  2.966414E+05  3.027256E+05  9.759196E+04  6.626888E+04  4.793280E+04
       215  22 -3.454979E+05 -2.301154E+05 -1.886815E+04 -3.640573E+05 -4.065217E+04  7.081589E+04
       215  23 -3.549446E+05 -2.300134E+05 -3.620669E+04 -3.428128E+05 -5.591639E+04  5.431118E+04
       215  24 -3.539152E+05 -2.883478E+05 -7.656057E+04 -3.422710E+05 -5.747688E+04  1.414455E+03
       215  25 -1.446991E+06 -6.270473E+05 -2.149197E+05 -6.698993E+05 -2.373372E+04  7.718288E+04
       215  26 -1.623077E+06 -7.138534E+05 -2.960520E+05 -7.151810E+05 -1.091945E+05  3.431435E+04
       215  27 -1.802624E+06 -8.730709E+05 -4.559417E+05 -7.811426E+05 -1.809011E+05 -4.496219E+04
       216   1 -6.735618E+05 -2.232489E+05 -1.926503E+05 -1.138829E+05 -2.194979E+04  1.831692E+04
       216   2 -5.132403E+05 -2.614914E+05 -1.637977E+05 -1.443572E+05  7.754880E+03  6.101742E+04
       216   3 -3.437828E+05 -2.485604E+05 -1.414918E+05 -2.024238E+05  3.750605E+04  7.220483E+04
       216   4  7.756764E+05  1.338112E+05  1.443990E+05 -2.021793E+05  1.015031E+05  1.840938E+04
       216   5  7.654586E+05  4.129837E+04  7.193185E+04 -1.883551E+05  6.467578E+04  6.103871E+04
       216   6  7.758604E+05  1.143990E+04  3.909079E+04 -2.021134E+05  2.788856E+04  7.218905E+04
       216   7  2.226903E+06  4.907608E+05  4.813684E+05 -2.906834E+05  2.252421E+05  1.846664E+04
       216   8  2.045754E+06  3.440040E+05  3.076069E+05 -2.324460E+05  1.217108E+05  6.105192E+04
       216   9  1.896748E+06  2.713769E+05  2.196397E+05 -2.018024E+05  1.825431E+04  7.217328E+04
       216  10 -6.735624E+05 -2.232494E+05 -1.926518E+05 -1.138826E+05  1.041233E-09  3.720174E-10
       216  11 -5.132413E+05 -2.614954E+05 -1.638048E+05 -1.443576E+05  9.702209E-10  1.277899E-09
       216  12 -3.437857E+05 -2.485664E+05 -1.415043E+05 -2.024260E+05 -2.522815E-09  9.713704E-10
       216  13  7.756653E+05  1.338080E+05  1.443790E+05 -2.021808E+05  2.510757E-10  8.677840E-10
       216  14  7.654531E+05  4.129325E+04  7.191699E+04 -1.883583E+05 -3.267156E-09  8.536163E-10
       216  15  7.758582E+05  1.143409E+04  3.907953E+04 -2.021151E+05 -7.235593E-10  1.492087E-10
       216  16  2.226849E+06  4.907469E+05  4.812727E+05 -2.906868E+05  1.006676E-10  7.819131E-10
       216  17  2.045738E+06  3.439961E+05  3.075722E+05 -2.324520E+05  1.943867E-09  7.997125E-10
       216  18  1.896746E+06  2.713712E+05  2.196293E+05 -2.018035E+05  3.655916E-09  1.347799E-09
       216  19 -6.735618E+05 -2.232489E+05 -1.926503E+05 -1.138829E+05  2.194979E+04 -1.831692E+04
       216  20 -5.132403E+05 -2.614914E+05 -1.637977E+05 -1.443572E+05 -7.754880E+03 -6.101742E+04
       216  21 -3.437828E+05 -2.485604E+05 -1.414918E+05 -2.024238E+05 -3.750605E+04 -7.220483E+04
       216  22  7.756764E+05  1.338112E+05  1.443990E+05 -2.021793E+05 -1.015031E+05 -1.840938E+04
       216  23  7.654586E+05  4.129837E+04  7.193185E+04 -1.883551E+05 -6.467578E+04 -6.103871E+04
       216  24  7.758604E+05  1.143990E+04  3.909079E+04 -2.021134E+05 -2.788856E+04 -7.218905E+04
       216  25  2.226903E+06  4.907608E+05  4.813684E+05 -2.906834E+05 -2.252421E+05 -1.846664E+04
       216  26  2.045754E+06  3.440040E+05  3.076069E+05 -2.324460E+05 -1.217108E+05 -6.105192E+04
       216  27  1.896748E+06  2.713769E+05  2.196397E+05 -2.018024E+05 -1.825431E+04 -7.217328E+04
       217   1 -2.428132E+05 -2.257317E+05 -1.302784E+05 -1.979595E+05  3.253819E+04  6.835355E+04
       217   2 -7.892533E+04 -1.930882E+05 -1.113051E+05 -1.857988E+05  3.245390E+04  6.187243E+04
       217   3  8.598995E+04 -1.568668E+05 -9.135616E+04 -2.033768E+05  3.236698E+04  5.166014E+04
       217   4  7.718428E+05  9.065588E+03  2.933750E+04 -2.026024E+05  2.282048E+04  6.833995E+04
       217   5  7.707098E+05  2.228140E+03  1.595403E+04 -1.877342E+05  1.484575E+04  6.186106E+04
       217   6  7.719425E+05  3.349604E+02  9.017222E+03 -2.026013E+05  6.868465E+03  5.165366E+04
       217   7  1.787525E+06  2.438122E+05  1.889285E+05 -2.072531E+05  1.308746E+04  6.832650E+04
       217   8  1.621070E+06  1.975106E+05  1.432002E+05 -1.896723E+05 -2.785542E+03  6.184981E+04
       217   9  1.458370E+06  1.575153E+05  1.093849E+05 -2.018249E+05 -1.865706E+04  5.164713E+04
       217  10 -2.428156E+05 -2.257370E+05 -1.302891E+05 -1.979613E+05 -5.871898E-08 -6.234498E-10
       217  11 -7.892749E+04 -1.930926E+05 -1.113143E+05 -1.858004E+05  3.208982E-09 -3.388295E-09
       217  12  8.598810E+04 -1.568700E+05 -9.136314E+04 -2.033781E+05  6.363174E-08 -2.572277E-09
       217  13  7.718410E+05  9.060431E+03  2.932774E+04 -2.026036E+05 -7.727524E-10  3.154317E-10
       217  14  7.707085E+05  2.223970E+03  1.594642E+04 -1.877349E+05 -2.693933E-09 -2.358025E-09
       217  15  7.719418E+05  3.320815E+02  9.012117E+03 -2.026016E+05 -4.719037E-09 -2.803347E-09
       217  16  1.787523E+06  2.438071E+05  1.889194E+05 -2.072538E+05  6.093183E-08  9.039421E-12
       217  17  1.621069E+06  1.975064E+05  1.431930E+05 -1.896721E+05 -2.793348E-09 -1.905696E-09
       217  18  1.458369E+06  1.575124E+05  1.093793E+05 -2.018241E+05 -6.537815E-08 -2.640110E-09
       217  19 -2.428132E+05 -2.257317E+05 -1.302784E+05 -1.979595E+05 -3.253819E+04 -6.835355E+04
       217  20 -7.892533E+04 -1.930882E+05 -1.113051E+05 -1.857988E+05 -3.245390E+04 -6.187243E+04
       217  21  8.598995E+04 -1.568668E+05 -9.135616E+04 -2.033768E+05 -3.236698E+04 -5.166014E+04
       217  22  7.718428E+05  9.065588E+03  2.933750E+04 -2.026024E+05 -2.282048E+04 -6.833995E+04
       217  23  7.707098E+05  2.228140E+03  1.595403E+04 -1.877342E+05 -1.484575E+04 -6.186106E+04
       217  24  7.719425E+05  3.349604E+02  9.017222E+03 -2.026013E+05 -6.868465E+03 -5.165366E+04
       217  25  1.787525E+06  2.438122E+05  1.889285E+05 -2.072531E+05 -1.308746E+04 -6.832650E+04
       217  26  1.621070E+06  1.975106E+05  1.432002E+05 -1.896723E+05  2.785542E+03 -6.184981E+04
       217  27  1.458370E+06  1.575153E+05  1.093849E+05 -2.018249E+05  1.865706E+04 -5.164713E+04
       218   1  1.887311E+05 -1.331212E+05 -7.762091E+04 -2.028779E+05  3.102331E+04  4.449223E+04
       218   2  3.528767E+05 -9.579887E+04 -5.642410E+04 -1.878921E+05  3.004734E+04  3.219654E+04
       218   3  5.172623E+05 -5.827991E+04 -3.453143E+04 -2.028784E+05  2.906822E+04  1.946139E+04
       218   4  7.715250E+05  2.643538E+02  6.819850E+03 -2.026541E+05  5.516300E+03  4.448860E+04
       218   5  7.713609E+05 -9.848973E+01  3.855826E+03 -1.876688E+05  3.607158E+03  3.219621E+04
       218   6  7.715727E+05 -1.018723E+02  2.233025E+03 -2.026543E+05  1.695137E+03  1.946451E+04
       218   7  1.354663E+06  1.336347E+05  9.125754E+04 -2.024300E+05 -2.001365E+04  4.448495E+04
       218   8  1.190023E+06  9.559427E+04  6.413564E+04 -1.874453E+05 -2.285008E+04  3.219587E+04
       218   9  1.025950E+06  5.807361E+04  3.899926E+04 -2.024301E+05 -2.568868E+04  1.946760E+04
       218  10  1.887295E+05 -1.331236E+05 -7.762644E+04 -2.028791E+05 -5.543513E-10 -9.724800E-10
       218  11  3.528755E+05 -9.580022E+04 -5.642775E+04 -1.878929E+05 -4.244923E-11  1.937538E-10
       218  12  5.172613E+05 -5.828055E+04 -3.453373E+04 -2.028789E+05  3.537501E-09  3.335821E-10
       218  13  7.715245E+05  2.622194E+02  6.816071E+03 -2.026543E+05 -2.407274E-09 -1.383239E-09
       218  14  7.713606E+05 -9.960680E+01  3.853853E+03 -1.876689E+05 -1.009179E-09  4.405574E-10
       218  15  7.715726E+05 -1.022800E+02  2.232307E+03 -2.026544E+05  2.613021E-10  7.470155E-10
       218  16  1.354662E+06  1.336325E+05  9.125307E+04 -2.024293E+05 -2.052063E-09 -1.682808E-09
       218  17  1.190022E+06  9.559302E+04  6.413271E+04 -1.874447E+05 -1.002911E-09  3.571357E-10
       218  18  1.025949E+06  5.807303E+04  3.899731E+04 -2.024297E+05 -1.817454E-09  1.249996E-09
       218  19  1.887311E+05 -1.331212E+05 -7.762091E+04 -2.028779E+05 -3.102331E+04 -4.449223E+04
       218  20  3.528767E+05 -9.579887E+04 -5.642410E+04 -1.878921E+05 -3.004734E+04 -3.219654E+04
       218  21  5.172623E+05 -5.827991E+04 -3.453143E+04 -2.028784E+05 -2.906822E+04 -1.946139E+04
       218  22  7.715250E+05  2.643538E+02  6.819850E+03 -2.026541E+05 -5.516300E+03 -4.448860E+04
       218  23  7.713609E+05 -9.848973E+01  3.855826E+03 -1.876688E+05 -3.607158E+03 -3.219621E+04
       218  24  7.715727E+05 -1.018723E+02  2.233025E+03 -2.026543E+05 -1.695137E+03 -1.946451E+04
       218  25  1.354663E+06  1.336347E+05  9.125754E+04 -2.024300E+05  2.001365E+04 -4.448495E+04
       218  26  1.190023E+06  9.559427E+04  6.413564E+04 -1.874453E+05  2.285008E+04 -3.219587E+04
       218  27  1.025950E+06  5.807361E+04  3.899926E+04 -2.024301E+05  2.568868E+04 -1.946760E+04
       219   1  6.201423E+05 -3.461464E+04 -1.972469E+04 -2.028130E+05  2.871572E+04  1.190624E+04
       219   2  7.843514E+05  2.850529E+03  2.779469E+03 -1.877630E+05  2.830808E+04 -1.066863E+03
       219   3  9.486629E+05  4.031154E+04  2.555408E+04 -2.027075E+05  2.790044E+04 -1.408444E+04
       219   4  7.715168E+05 -7.660569E+01  1.710070E+03 -2.026596E+05  1.341139E+03  1.191033E+04
       219   5  7.714718E+05 -7.425940E+01  1.022433E+03 -1.876623E+05  8.356424E+02 -1.062859E+03
       219   6  7.715156E+05 -5.920351E+01  6.701682E+02 -2.026597E+05  3.302541E+02 -1.408054E+04
       219   7  9.229161E+05  3.446080E+04  2.314732E+04 -2.025062E+05 -2.603982E+04  1.191440E+04
       219   8  7.585940E+05 -2.998650E+03 -7.317729E+02 -1.875617E+05 -2.663625E+04 -1.058864E+03
       219   9  5.944016E+05 -4.043094E+04 -2.421130E+04 -2.026119E+05 -2.723242E+04 -1.407665E+04
       219  10  6.201414E+05 -3.461501E+04 -1.972650E+04 -2.028133E+05  4.611231E-09 -1.251584E-10
       219  11  7.843506E+05  2.850313E+03  2.777963E+03 -1.877629E+05  4.795404E-09 -5.051188E-10
       219  12  9.486620E+05  4.031112E+04  2.555225E+04 -2.027072E+05  3.123322E-09 -4.931862E-10
       219  13  7.715167E+05 -7.675856E+01  1.709800E+03 -2.026596E+05 -1.497647E-13  5.092235E-10
       219  14  7.714718E+05 -7.426080E+01  1.022429E+03 -1.876623E+05  2.054388E-09  1.126899E-10
       219  15  7.715155E+05 -5.941651E+01  6.697953E+02 -2.026597E+05  1.923479E-09 -6.026598E-11
       219  16  9.229153E+05  3.446046E+04  2.314578E+04 -2.025059E+05 -2.316061E-09  1.156629E-09
       219  17  7.585932E+05 -2.998842E+03 -7.331067E+02 -1.875617E+05 -4.382454E-10  7.039262E-10
       219  18  5.944008E+05 -4.043135E+04 -2.421307E+04 -2.026122E+05 -1.914028E-09  3.365658E-10
       219  19  6.201423E+05 -3.461464E+04 -1.972469E+04 -2.028130E+05 -2.871572E+04 -1.190624E+04
       219  20  7.843514E+05  2.850529E+03  2.779469E+03 -1.877630E+05 -2.830808E+04  1.066863E+03
       219  21  9.486629E+05  4.031154E+04  2.555408E+04 -2.027075E+05 -2.790044E+04  1.408444E+04
       219  22  7.715168E+05 -7.660569E+01  1.710070E+03 -2.026596E+05 -1.341139E+03 -1.191033E+04
       219  23  7.714718E+05 -7.425940E+01  1.022433E+03 -1.876623E+05 -8.356424E+02  1.062859E+03
       219  24  7.715156E+05 -5.920351E+01  6.701682E+02 -2.026597E+05 -3.302541E+02  1.408054E+04
       219  25  9.229161E+05  3.446080E+04  2.314732E+04 -2.025062E+05  2.603982E+04 -1.191440E+04
       219  26  7.585940E+05 -2.998650E+03 -7.317729E+02 -1.875617E+05  2.663625E+04  1.058864E+03
       219  27  5.944016E+05 -4.043094E+04 -2.421130E+04 -2.026119E+05  2.723242E+04  1.407665E+04
       220   1  1.051609E+06  6.392388E+04  4.072862E+04 -2.026948E+05  2.779128E+04 -2.167722E+04
       220   2  1.215913E+06  1.013343E+05  6.380738E+04 -1.876291E+05  2.741917E+04 -3.468526E+04
       220   3  1.380338E+06  1.387600E+05  8.714257E+04 -2.025662E+05  2.705032E+04 -4.763405E+04
       220   4  7.715028E+05 -6.835759E+01  5.758386E+02 -2.026618E+05  2.163739E+02 -2.167444E+04
       220   5  7.714424E+05 -1.168015E+02  5.068220E+02 -1.876597E+05 -3.380905E+01 -3.468612E+04
       220   6  7.714531E+05 -1.705491E+02  6.076919E+02 -2.026618E+05 -2.806436E+02 -4.763856E+04
       220   7  4.914778E+05 -6.406375E+04 -3.957528E+04 -2.026288E+05 -2.734664E+04 -2.167166E+04
       220   8  3.271727E+05 -1.015764E+05 -6.279379E+04 -1.876904E+05 -2.746801E+04 -3.468698E+04
       220   9  1.629443E+05 -1.391174E+05 -8.592971E+04 -2.027572E+05 -2.758601E+04 -4.764307E+04
       220  10  1.051608E+06  6.392317E+04  4.072628E+04 -2.026943E+05  2.547217E-08 -8.860573E-10
       220  11  1.215912E+06  1.013328E+05  6.380371E+04 -1.876283E+05 -4.166976E-09 -2.690504E-09
       220  12  1.380336E+06  1.387573E+05  8.713694E+04 -2.025652E+05 -4.058171E-08 -5.069745E-09
       220  13  7.715026E+05 -6.886224E+01  5.749553E+02 -2.026618E+05  1.660373E-09  1.694778E-09
       220  14  7.714421E+05 -1.180939E+02  5.045602E+02 -1.876597E+05  8.183997E-11  7.335897E-09
       220  15  7.714525E+05 -1.729869E+02  6.034255E+02 -2.026618E+05 -5.748184E-10  1.220223E-08
       220  16  4.914769E+05 -6.406446E+04 -3.957757E+04 -2.026293E+05 -2.570062E-08 -2.575729E-10
       220  17  3.271716E+05 -1.015779E+05 -6.279747E+04 -1.876911E+05  5.198647E-09 -2.699548E-09
       220  18  1.629429E+05 -1.391200E+05 -8.593541E+04 -2.027583E+05  3.854207E-08 -5.727458E-09
       220  19  1.051609E+06  6.392388E+04  4.072862E+04 -2.026948E+05 -2.779128E+04  2.167722E+04
       220  20  1.215913E+06  1.013343E+05  6.380738E+04 -1.876291E+05 -2.741917E+04  3.468526E+04
       220  21  1.380338E+06  1.387600E+05  8.714257E+04 -2.025662E+05 -2.705032E+04  4.763405E+04
       220  22  7.715028E+05 -6.835759E+01  5.758386E+02 -2.026618E+05 -2.163739E+02  2.167444E+04
       220  23  7.714424E+05 -1.168015E+02  5.068220E+02 -1.876597E+05  3.380905E+01  3.468612E+04
       220  24  7.714531E+05 -1.705491E+02  6.076919E+02 -2.026618E+05  2.806436E+02  4.763856E+04
       220  25  4.914778E+05 -6.406375E+04 -3.957528E+04 -2.026288E+05  2.734664E+04  2.167166E+04
       220  26  3.271727E+05 -1.015764E+05 -6.279379E+04 -1.876904E+05  2.746801E+04  3.468698E+04
       220  27  1.629443E+05 -1.391174E+05 -8.592971E+04 -2.027572E+05  2.758601E+04  4.764307E+04
       221   1  1.483440E+06  1.623757E+05  1.026224E+05 -2.025059E+05  2.694023E+04 -5.517427E+04
       221   2  1.647803E+06  1.998665E+05  1.267024E+05 -1.873828E+05  2.517778E+04 -6.780707E+04
       221   3  1.812592E+06  2.376524E+05  1.520276E+05 -2.022530E+05  2.342101E+04 -7.986857E+04
       221   4  7.714544E+05 -2.126674E+02  7.255187E+02 -2.026599E+05 -3.986038E+02 -5.518197E+04
       221   5  7.713094E+05 -2.978810E+02  1.129239E+03 -1.876620E+05 -9.541915E+02 -6.782160E+04
       221   6  7.713564E+05 -2.956368E+02  1.941049E+03 -2.026599E+05 -1.503694E+03 -7.988954E+04
       221   7  5.998137E+04 -1.628236E+05 -1.011762E+05 -2.028137E+05 -2.770748E+04 -5.518965E+04
       221   8 -1.044085E+05 -2.004967E+05 -1.244530E+05 -1.879407E+05 -2.705092E+04 -6.783612E+04
       221   9 -2.687863E+05 -2.382928E+05 -1.481602E+05 -2.030659E+05 -2.638846E+04 -7.991049E+04
       221  10  1.483439E+06  1.623722E+05  1.026154E+05 -2.025047E+05  3.720878E-08 -4.535421E-09
       221  11  1.647801E+06  1.998614E+05  1.266925E+05 -1.873814E+05  5.488937E-09 -2.699821E-09
       221  12  1.812590E+06  2.376454E+05  1.520145E+05 -2.022515E+05 -2.696806E-08 -2.515281E-10
       221  13  7.714536E+05 -2.159385E+02  7.197940E+02 -2.026599E+05  1.124071E-09  1.248931E-08
       221  14  7.713082E+05 -3.028225E+02  1.120590E+03 -1.876621E+05 -1.296424E-10  7.631681E-09
       221  15  7.713547E+05 -3.024934E+02  1.929047E+03 -2.026600E+05 -1.488653E-09  1.641631E-09
       221  16  5.997973E+04 -1.628271E+05 -1.011834E+05 -2.028150E+05 -3.633089E-08 -5.588443E-09
       221  17 -1.044105E+05 -2.005019E+05 -1.244630E+05 -1.879422E+05 -3.211957E-09 -2.158975E-09
       221  18 -2.687888E+05 -2.382998E+05 -1.481736E+05 -2.030676E+05  2.676461E-08 -2.528704E-10
       221  19  1.483440E+06  1.623757E+05  1.026224E+05 -2.025059E+05 -2.694023E+04  5.517427E+04
       221  20  1.647803E+06  1.998665E+05  1.267024E+05 -1.873828E+05 -2.517778E+04  6.780707E+04
       221  21  1.812592E+06  2.376524E+05  1.520276E+05 -2.022530E+05 -2.342101E+04  7.986857E+04
       221  22  7.714544E+05 -2.126674E+02  7.255187E+02 -2.026599E+05  3.986038E+02  5.518197E+04
       221  23  7.713094E+05 -2.978810E+02  1.129239E+03 -1.876620E+05  9.541915E+02  6.782160E+04
       221  24  7.713564E+05 -2.956368E+02  1.941049E+03 -2.026599E+05  1.503694E+03  7.988954E+04
       221  25  5.998137E+04 -1.628236E+05 -1.011762E+05 -2.028137E+05  2.770748E+04  5.518965E+04
       221  26 -1.044085E+05 -2.004967E+05 -1.244530E+05 -1.879407E+05  2.705092E+04  6.783612E+04
       221  27 -2.687863E+05 -2.382928E+05 -1.481602E+05 -2.030659E+05  2.638846E+04  7.991049E+04
       222   1  1.916245E+06  2.615144E+05  1.687960E+05 -2.019274E+05  2.304097E+04 -8.690246E+04
       222   2  2.079844E+06  3.002846E+05  1.987919E+05 -1.876029E+05  1.051093E+04 -9.624589E+04
       222   3  2.246080E+06  3.422175E+05  2.377674E+05 -2.029615E+05 -2.020522E+03 -1.007237E+05
       222   4  7.714549E+05 -3.304880E+02  2.552265E+03 -2.025910E+05 -1.882185E+03 -8.692831E+04
       222   5  7.709687E+05  8.482691E+01  4.467905E+03 -1.877481E+05 -4.103876E+03 -9.627454E+04
       222   6  7.713088E+05  1.880187E+03  8.222339E+03 -2.025921E+05 -6.323627E+03 -1.007499E+05
       222   7 -3.720159E+05 -2.622352E+05 -1.637108E+05 -2.032531E+05 -2.676142E+04 -8.695413E+04
       222   8 -5.361886E+05 -3.001951E+05 -1.898873E+05 -1.878930E+05 -1.868920E+04 -9.630322E+04
       222   9 -7.012979E+05 -3.385634E+05 -2.213739E+05 -2.022237E+05 -1.061691E+04 -1.007761E+05
       222  10  1.916243E+06  2.615061E+05  1.687808E+05 -2.019258E+05 -1.680794E-09 -2.791517E-10
       222  11  2.079841E+06  3.002746E+05  1.987742E+05 -1.876021E+05 -7.595719E-10 -1.822233E-09
       222  12  2.246077E+06  3.422066E+05  2.377483E+05 -2.029617E+05 -1.515865E-10 -3.465547E-09
       222  13  7.714529E+05 -3.386063E+02  2.538053E+03 -2.025911E+05 -1.085341E-09 -5.594583E-10
       222  14  7.709662E+05  7.486559E+01  4.450449E+03 -1.877484E+05 -2.872932E-10 -1.785472E-09
       222  15  7.713060E+05  1.869272E+03  8.203181E+03 -2.025926E+05 -9.982166E-10 -2.820477E-09
       222  16 -3.720187E+05 -2.622435E+05 -1.637263E+05 -2.032550E+05  2.564164E-09 -4.859452E-10
       222  17 -5.361915E+05 -3.002052E+05 -1.899054E+05 -1.878944E+05  4.024880E-09  3.852475E-10
       222  18 -7.013007E+05 -3.385743E+05 -2.213932E+05 -2.022245E+05 -1.717722E-09 -1.512895E-09
       222  19  1.916245E+06  2.615144E+05  1.687960E+05 -2.019274E+05 -2.304097E+04  8.690246E+04
       222  20  2.079844E+06  3.002846E+05  1.987919E+05 -1.876029E+05 -1.051093E+04  9.624589E+04
       222  21  2.246080E+06  3.422175E+05  2.377674E+05 -2.029615E+05  2.020522E+03  1.007237E+05
       222  22  7.714549E+05 -3.304880E+02  2.552265E+03 -2.025910E+05  1.882185E+03  8.692831E+04
       222  23  7.709687E+05  8.482691E+01  4.467905E+03 -1.877481E+05  4.103876E+03  9.627454E+04
       222  24  7.713088E+05  1.880187E+03  8.222339E+03 -2.025921E+05  6.323627E+03  1.007499E+05
       222  25 -3.720159E+05 -2.622352E+05 -1.637108E+05 -2.032531E+05  2.676142E+04  8.695413E+04
       222  26 -5.361886E+05 -3.001951E+05 -1.898873E+05 -1.878930E+05  1.868920E+04  9.630322E+04
       222  27 -7.012979E+05 -3.385634E+05 -2.213739E+05 -2.022237E+05  1.061691E+04  1.007761E+05
       223   1  2.353268E+06  3.685272E+05  2.632347E+05 -2.007277E+05 -3.555909E+03 -1.034294E+05
       223   2  2.508270E+06  4.213389E+05  3.373832E+05 -1.995212E+05 -1.009382E+05 -8.495600E+04
       223   3  2.684419E+06  5.069214E+05  4.830302E+05 -2.251517E+05 -1.984384E+05 -2.538432E+04
       223   4  7.724155E+05  2.482028E+03  1.095918E+04 -2.019526E+05 -7.743663E+03 -1.034579E+05
       223   5  7.692834E+05  1.079607E+04  2.012063E+04 -1.885553E+05 -1.800250E+04 -8.488063E+04
       223   6  7.722186E+05  3.683317E+04  4.043438E+04 -2.019898E+05 -2.834573E+04 -2.515603E+04
       223   7 -8.059603E+05 -3.636880E+05 -2.413815E+05 -2.031744E+05 -1.192115E+04 -1.034865E+05
       223   8 -9.667589E+05 -3.999130E+05 -2.972382E+05 -1.776213E+05  6.470796E+04 -8.480226E+04
       223   9 -1.136552E+06 -4.334939E+05 -4.022974E+05 -1.789001E+05  1.412287E+05 -2.491479E+04
       223  10  2.353265E+06  3.685157E+05  2.632146E+05 -2.007280E+05 -2.291409E-09 -4.276605E-09
       223  11  2.508257E+06  4.213284E+05  3.373505E+05 -1.995281E+05 -2.005162E-09 -5.078215E-09
       223  12  2.684377E+06  5.069102E+05  4.829553E+05 -2.251558E+05 -3.072190E-09 -1.374623E-09
       223  13  7.724125E+05  2.470514E+03  1.093895E+04 -2.019532E+05 -8.441180E-10 -7.322164E-09
       223  14  7.692811E+05  1.078825E+04  2.010648E+04 -1.885565E+05  1.543055E-10  1.130041E-09
       223  15  7.722176E+05  3.683227E+04  4.043168E+04 -2.019904E+05 -2.504948E-09 -5.102719E-10
       223  16 -8.059634E+05 -3.636996E+05 -2.414019E+05 -2.031754E+05  2.151258E-09 -2.728835E-09
       223  17 -9.667653E+05 -3.999218E+05 -2.972596E+05 -1.776169E+05  2.391046E-09  3.019773E-11
       223  18 -1.136574E+06 -4.334999E+05 -4.023361E+05 -1.788972E+05  4.354704E-09 -2.134236E-09
       223  19  2.353268E+06  3.685272E+05  2.632347E+05 -2.007277E+05  3.555909E+03  1.034294E+05
       223  20  2.508270E+06  4.213389E+05  3.373832E+05 -1.995212E+05  1.009382E+05  8.495600E+04
       223  21  2.684419E+06  5.069214E+05  4.830302E+05 -2.251517E+05  1.984384E+05  2.538432E+04
       223  22  7.724155E+05  2.482028E+03  1.095918E+04 -2.019526E+05  7.743663E+03  1.034579E+05
       223  23  7.692834E+05  1.079607E+04  2.012063E+04 -1.885553E+05  1.800250E+04  8.488063E+04
       223  24  7.722186E+05  3.683317E+04  4.043438E+04 -2.019898E+05  2.834573E+04  2.515603E+04
       223  25 -8.059603E+05 -3.636880E+05 -2.413815E+05 -2.031744E+05  1.192115E+04  1.034865E+05
       223  26 -9.667589E+05 -3.999130E+05 -2.972382E+05 -1.776213E+05 -6.470796E+04  8.480226E+04
       223  27 -1.136552E+06 -4.334939E+05 -4.022974E+05 -1.789001E+05 -1.412287E+05  2.491479E+04
       224   1  5.559332E+05  2.351082E+06  5.317150E+05 -7.141083E+05  2.109966E+04  1.544124E+05
       224   2  3.871010E+05  1.774238E+06  3.205096E+05 -6.570557E+05  6.380954E+04  4.559035E+04
       224   3  2.460875E+05  1.218640E+06  1.868996E+05 -6.992444E+05  5.806404E+04 -6.317592E+04
       224   4  2.208101E+04  1.890902E+05  2.150790E+04 -6.971652E+05  2.143982E+04  1.319327E+04
       224   5  8.486366E+03  1.877844E+05  1.225067E+04 -6.475595E+05  6.392125E+04  7.060955E+03
       224   6  4.977401E+03  1.896825E+05  9.463485E+03 -6.972045E+05  5.789260E+04  8.831619E+02
       224   7 -5.120938E+05 -1.968572E+06 -4.889472E+05 -6.802766E+05  2.177310E+04 -1.275382E+05
       224   8 -3.702777E+05 -1.396254E+06 -2.961217E+05 -6.380854E+05  6.403197E+04 -3.137241E+04
       224   9 -2.361873E+05 -8.382286E+05 -1.679935E+05 -6.951669E+05  5.772138E+04  6.483952E+04
       224  10  5.559264E+05  2.351056E+06  5.316695E+05 -7.141109E+05  1.801001E-09  1.774001E-11
       224  11  3.870961E+05  1.774235E+06  3.204980E+05 -6.570581E+05  9.128078E-10  9.544474E-10
       224  12  2.460829E+05  1.218635E+06  1.868858E+05 -6.992415E+05  1.385288E-09 -1.070790E-09
       224  13  2.208047E+04  1.890898E+05  2.150671E+04 -6.971654E+05  2.886552E-09 -1.372291E-09
       224  14  8.481964E+03  1.877833E+05  1.224290E+04 -6.475599E+05  1.597296E-09  8.461984E-10
       224  15  4.973802E+03  1.896816E+05  9.457184E+03 -6.972046E+05  1.358175E-09 -7.755663E-10
       224  16 -5.120987E+05 -1.968589E+06 -4.889788E+05 -6.802743E+05 -3.505655E-10 -2.179226E-09
       224  17 -3.702823E+05 -1.396257E+06 -2.961312E+05 -6.380838E+05  1.863967E-09  2.762227E-09
       224  18 -2.361920E+05 -8.382340E+05 -1.680077E+05 -6.951699E+05 -9.462413E-10  2.007715E-09
       224  19  5.559332E+05  2.351082E+06  5.317150E+05 -7.141083E+05 -2.109966E+04 -1.544124E+05
       224  20  3.871010E+05  1.774238E+06  3.205096E+05 -6.570557E+05 -6.380954E+04 -4.559035E+04
       224  21  2.460875E+05  1.218640E+06  1.868996E+05 -6.992444E+05 -5.806404E+04  6.317592E+04
       224  22  2.208101E+04  1.890902E+05  2.150790E+04 -6.971652E+05 -2.143982E+04 -1.319327E+04
       224  23  8.486366E+03  1.877844E+05  1.225067E+04 -6.475595E+05 -6.392125E+04 -7.060955E+03
       224  24  4.977401E+03  1.896825E+05  9.463485E+03 -6.972045E+05 -5.789260E+04 -8.831619E+02
       224  25 -5.120938E+05 -1.968572E+06 -4.889472E+05 -6.802766E+05 -2.177310E+04  1.275382E+05
       224  26 -3.702777E+05 -1.396254E+06 -2.961217E+05 -6.380854E+05 -6.403197E+04  3.137241E+04
       224  27 -2.361873E+05 -8.382286E+05 -1.679935E+05 -6.951669E+05 -5.772138E+04 -6.483952E+04
       225   1  1.619853E+05  8.603592E+05  1.244784E+05 -7.002978E+05  3.839518E+04 -6.485013E+04
       225   2  2.901964E+04  2.939985E+05  2.739476E+04 -6.459836E+05  7.795698E+03 -7.175848E+04
       225   3 -9.973673E+04 -2.704679E+05 -6.426712E+04 -6.940517E+05 -2.332609E+04 -7.866386E+04
       225   4  4.844118E+03  1.893907E+05  9.369146E+03 -6.978987E+05  3.821373E+04 -6.831350E+02
       225   5  4.799661E+03  1.887170E+05  1.151167E+04 -6.467033E+05  7.609438E+03 -6.514311E+03
       225   6  8.789482E+03  1.894302E+05  1.831853E+04 -6.978888E+05 -2.351755E+04 -1.234835E+04
       225   7 -1.523189E+05 -4.811272E+05 -1.057398E+05 -6.955017E+05  3.803265E+04  6.341676E+04
       225   8 -1.941856E+04  8.345573E+04 -4.355649E+03 -6.474228E+05  7.423004E+03  5.871924E+04
       225   9  1.173063E+05  6.495439E+05  1.009126E+05 -7.017286E+05 -2.370972E+04  5.401492E+04
       225  10  1.619826E+05  8.603543E+05  1.244678E+05 -7.002958E+05  5.254439E-10  2.686445E-09
       225  11  2.901819E+04  2.939930E+05  2.738498E+04 -6.459831E+05 -2.375007E-10  1.916993E-09
       225  12 -9.973898E+04 -2.704747E+05 -6.427979E+04 -6.940532E+05 -2.765617E-09 -2.131144E-09
       225  13  4.842550E+03  1.893903E+05  9.366401E+03 -6.978987E+05  7.694903E-10 -2.011078E-09
       225  14  4.799587E+03  1.887169E+05  1.151148E+04 -6.467032E+05 -3.881045E-10  1.069221E-09
       225  15  8.788846E+03  1.894298E+05  1.831720E+04 -6.978891E+05 -1.513049E-09 -6.601371E-10
       225  16 -1.523215E+05 -4.811319E+05 -1.057501E+05 -6.955036E+05 -1.603381E-09 -5.623508E-09
       225  17 -1.941954E+04  8.345202E+04 -4.362234E+03 -6.474232E+05 -2.396528E-09  2.067838E-09
       225  18  1.173049E+05  6.495406E+05  1.009060E+05 -7.017276E+05 -6.655046E-10  3.438236E-09
       225  19  1.619853E+05  8.603592E+05  1.244784E+05 -7.002978E+05 -3.839518E+04  6.485013E+04
       225  20  2.901964E+04  2.939985E+05  2.739476E+04 -6.459836E+05 -7.795698E+03  7.175848E+04
       225  21 -9.973673E+04 -2.704679E+05 -6.426712E+04 -6.940517E+05  2.332609E+04  7.866386E+04
       225  22  4.844118E+03  1.893907E+05  9.369146E+03 -6.978987E+05 -3.821373E+04  6.831350E+02
       225  23  4.799661E+03  1.887170E+05  1.151167E+04 -6.467033E+05 -7.609438E+03  6.514311E+03
       225  24  8.789482E+03  1.894302E+05  1.831853E+04 -6.978888E+05  2.351755E+04  1.234835E+04
       225  25 -1.523189E+05 -4.811272E+05 -1.057398E+05 -6.955017E+05 -3.803265E+04 -6.341676E+04
       225  26 -1.941856E+04  8.345573E+04 -4.355649E+03 -6.474228E+05 -7.423004E+03 -5.871924E+04
       225  27  1.173063E+05  6.495439E+05  1.009126E+05 -7.017286E+05  2.370972E+04 -5.401492E+04
       226   1 -1.822599E+05 -6.254392E+05 -1.205594E+05 -6.956491E+05 -4.347281E+04 -8.173175E+04
       226   2 -3.025075E+05 -1.188575E+06 -2.285763E+05 -6.190165E+05 -5.302592E+04 -1.033594E+04
       226   3 -4.018337E+05 -1.755639E+06 -3.779565E+05 -6.420058E+05 -1.851133E+04  6.104089E+04
       226   4  1.006127E+04  1.916790E+05  2.366760E+04 -6.972769E+05 -4.365703E+04 -1.555558E+04
       226   5  2.678906E+04  1.854776E+05  4.222000E+04 -6.474040E+05 -5.294581E+04 -3.711158E+04
       226   6  8.056364E+04  1.911596E+05  8.397854E+04 -6.971147E+05 -1.821799E+04 -5.862086E+04
       226   7  2.023482E+05  1.009460E+06  1.678866E+05 -6.989061E+05 -4.384143E+04  5.070519E+04
       226   8  3.559743E+05  1.561343E+06  3.129272E+05 -6.758538E+05 -5.286337E+04 -6.394524E+04
       226   9  5.627067E+05  2.141482E+06  5.457049E+05 -7.523937E+05 -1.790401E+04 -1.786565E+05
       226  10 -1.822638E+05 -6.254469E+05 -1.205755E+05 -6.956519E+05 -1.034646E-09  1.409120E-09
       226  11 -3.025106E+05 -1.188576E+06 -2.285818E+05 -6.190169E+05  3.192396E-09  2.996848E-09
       226  12 -4.018351E+05 -1.755643E+06 -3.779641E+05 -6.420049E+05  7.217998E-10  7.547717E-10
       226  13  1.005915E+04  1.916782E+05  2.366356E+04 -6.972774E+05 -1.299857E-09 -1.933178E-09
       226  14  2.678568E+04  1.854754E+05  4.221214E+04 -6.474056E+05 -7.320122E-10  7.499036E-10
       226  15  8.056236E+04  1.911558E+05  8.397146E+04 -6.971155E+05 -3.799923E-10 -5.509972E-10
       226  16  2.023455E+05  1.009456E+06  1.678781E+05 -6.989043E+05 -5.621826E-10 -3.784620E-09
       226  17  3.559702E+05  1.561338E+06  3.129143E+05 -6.758565E+05 -1.899896E-09  1.137728E-09
       226  18  5.626978E+05  2.141447E+06  5.456445E+05 -7.523963E+05 -1.433091E-09  2.037026E-10
       226  19 -1.822599E+05 -6.254392E+05 -1.205594E+05 -6.956491E+05  4.347281E+04  8.173175E+04
       226  20 -3.025075E+05 -1.188575E+06 -2.285763E+05 -6.190165E+05  5.302592E+04  1.033594E+04
       226  21 -4.018337E+05 -1.755639E+06 -3.779565E+05 -6.420058E+05  1.851133E+04 -6.104089E+04
       226  22  1.006127E+04  1.916790E+05  2.366760E+04 -6.972769E+05  4.365703E+04  1.555558E+04
       226  23  2.678906E+04  1.854776E+05  4.222000E+04 -6.474040E+05  5.294581E+04  3.711158E+04
       226  24  8.056364E+04  1.911596E+05  8.397854E+04 -6.971147E+05  1.821799E+04  5.862086E+04
       226  25  2.023482E+05  1.009460E+06  1.678866E+05 -6.989061E+05  4.384143E+04 -5.070519E+04
       226  26  3.559743E+05  1.561343E+06  3.129272E+05 -6.758538E+05  5.286337E+04  6.394524E+04
       226  27  5.627067E+05  2.141482E+06  5.457049E+05 -7.523937E+05  1.790401E+04  1.786565E+05
       227   1 -1.051714E+06 -5.355225E+05 -3.052742E+05 -4.392556E+05 -1.411298E+05 -4.048160E+04
       227   2 -9.807712E+05 -4.081865E+05 -1.901839E+05 -4.099123E+05 -8.809267E+04  8.705975E+03
       227   3 -9.276843E+05 -3.446345E+05 -1.361704E+05 -3.808776E+05 -2.789626E+04  3.891010E+04
       227   4 -3.153036E+05 -2.018853E+05 -1.062958E+05 -1.784008E+05 -7.340300E+04 -1.502838E+04
       227   5 -3.042913E+05 -1.332751E+05 -5.025944E+04 -1.934041E+05 -5.698156E+04  2.039319E+04
       227   6 -3.038490E+05 -1.211563E+05 -2.622680E+04 -2.087272E+05 -3.341427E+04  3.683136E+04
       227   7  4.216432E+05  1.318605E+05  9.265055E+04  8.275758E+04 -5.589705E+03  1.047324E+04
       227   8  3.726636E+05  1.417065E+05  8.964476E+04  2.333295E+04 -2.583424E+04  3.209754E+04
       227   9  3.204023E+05  1.023594E+05  8.370582E+04 -3.641464E+04 -3.893823E+04  3.475044E+04
       227  10 -1.051736E+06 -5.355296E+05 -3.053147E+05 -4.392602E+05  3.483834E-11  6.158348E-10
       227  11 -9.807795E+05 -4.081887E+05 -1.901987E+05 -4.099116E+05 -1.029699E-09 -4.928119E-10
       227  12 -9.276855E+05 -3.446363E+05 -1.361747E+05 -3.808767E+05 -3.832512E-09  1.088906E-10
       227  13 -3.153095E+05 -2.018870E+05 -1.063064E+05 -1.784017E+05 -1.090796E-09  8.282239E-10
       227  14 -3.042949E+05 -1.332764E+05 -5.026632E+04 -1.934032E+05 -8.423646E-10  1.976367E-10
       227  15 -3.038506E+05 -1.211581E+05 -2.623144E+04 -2.087262E+05 -1.721682E-09  9.366156E-10
       227  16  4.216431E+05  1.318603E+05  9.265029E+04  8.275762E+04 -1.374184E-09  5.943804E-10
       227  17  3.726626E+05  1.417052E+05  8.964157E+04  2.333361E+04 -1.956787E-09 -6.005552E-10
       227  18  3.204004E+05  1.023577E+05  8.370071E+04 -3.641355E+04  2.304287E-09  3.484136E-09
       227  19 -1.051714E+06 -5.355225E+05 -3.052742E+05 -4.392556E+05  1.411298E+05  4.048160E+04
       227  20 -9.807712E+05 -4.081865E+05 -1.901839E+05 -4.099123E+05  8.809267E+04 -8.705975E+03
       227  21 -9.276843E+05 -3.446345E+05 -1.361704E+05 -3.808776E+05  2.789626E+04 -3.891010E+04
       227  22 -3.153036E+05 -2.018853E+05 -1.062958E+05 -1.784008E+05  7.340300E+04  1.502838E+04
       227  23 -3.042913E+05 -1.332751E+05 -5.025944E+04 -1.934041E+05  5.698156E+04 -2.039319E+04
       227  24 -3.038490E+05 -1.211563E+05 -2.622680E+04 -2.087272E+05  3.341427E+04 -3.683136E+04
       227  25  4.216432E+05  1.318605E+05  9.265055E+04  8.275758E+04  5.589705E+03 -1.047324E+04
       227  26  3.726636E+05  1.417065E+05  8.964476E+04  2.333295E+04  2.583424E+04 -3.209754E+04
       227  27  3.204023E+05  1.023594E+05  8.370582E+04 -3.641464E+04  3.893823E+04 -3.475044E+04
       228   1 -8.709523E+05 -3.288495E+05 -1.187876E+05 -3.701380E+05 -2.545604E+04  3.733560E+04
       228   2 -7.987676E+05 -2.895458E+05 -9.249416E+04 -3.422672E+05 -1.540639E+04  3.754136E+04
       228   3 -7.179940E+05 -2.652048E+05 -7.380978E+04 -3.265087E+05 -4.634249E+03  3.582307E+04
       228   4 -3.006507E+05 -1.204951E+05 -1.958113E+04 -2.080581E+05 -2.964514E+04  3.575707E+04
       228   5 -3.049512E+05 -1.109219E+05 -1.024090E+04 -2.029193E+05 -2.330449E+04  3.457090E+04
       228   6 -2.999308E+05 -1.155739E+05 -5.564474E+03 -2.098951E+05 -1.624275E+04  3.146108E+04
       228   7  2.699898E+05  8.789099E+04  7.961393E+04 -4.583975E+04 -3.383829E+04  3.417697E+04
       228   8  1.891259E+05  6.772753E+04  7.200667E+04 -6.346718E+04 -3.120926E+04  3.159790E+04
       228   9  1.183245E+05  3.407628E+04  6.267885E+04 -9.320653E+04 -2.785967E+04  2.709595E+04
       228  10 -8.709534E+05 -3.288512E+05 -1.187914E+05 -3.701372E+05  1.585248E-09  2.634608E-09
       228  11 -7.987682E+05 -2.895474E+05 -9.249725E+04 -3.422667E+05  1.192582E-09  1.234812E-09
       228  12 -7.179944E+05 -2.652061E+05 -7.381223E+04 -3.265085E+05 -1.009811E-09 -5.141676E-10
       228  13 -3.006520E+05 -1.204967E+05 -1.958519E+04 -2.080572E+05  6.234406E-10  1.139768E-09
       228  14 -3.049521E+05 -1.109233E+05 -1.024417E+04 -2.029187E+05 -2.202675E-09 -5.930241E-10
       228  15 -2.999314E+05 -1.155751E+05 -5.566829E+03 -2.098947E+05 -9.619530E-10  5.218674E-10
       228  16  2.699883E+05  8.788943E+04  7.960958E+04 -4.583882E+04 -2.684816E-09  1.121772E-09
       228  17  1.891246E+05  6.772620E+04  7.200296E+04 -6.346638E+04 -5.866760E-10  1.134857E-09
       228  18  1.183235E+05  3.407528E+04  6.267601E+04 -9.320592E+04  1.455448E-09  4.787776E-10
       228  19 -8.709523E+05 -3.288495E+05 -1.187876E+05 -3.701380E+05  2.545604E+04 -3.733560E+04
       228  20 -7.987676E+05 -2.895458E+05 -9.249416E+04 -3.422672E+05  1.540639E+04 -3.754136E+04
       228  21 -7.179940E+05 -2.652048E+05 -7.380978E+04 -3.265087E+05  4.634249E+03 -3.582307E+04
       228  22 -3.006507E+05 -1.204951E+05 -1.958113E+04 -2.080581E+05  2.964514E+04 -3.575707E+04
       228  23 -3.049512E+05 -1.109219E+05 -1.024090E+04 -2.029193E+05  2.330449E+04 -3.457090E+04
       228  24 -2.999308E+05 -1.155739E+05 -5.564474E+03 -2.098951E+05  1.624275E+04 -3.146108E+04
       228  25  2.699898E+05  8.789099E+04  7.961393E+04 -4.583975E+04  3.383829E+04 -3.417697E+04
       228  26  1.891259E+05  6.772753E+04  7.200667E+04 -6.346718E+04  3.120926E+04 -3.159790E+04
       228  27  1.183245E+05  3.407628E+04  6.267885E+04 -9.320653E+04  2.785967E+04 -2.709595E+04
       229   1 -6.682495E+05 -2.477178E+05 -6.391837E+04 -3.129932E+05 -2.673129E+03  3.250574E+04
       229   2 -5.964505E+05 -2.141323E+05 -4.933448E+04 -2.849794E+05  1.116703E+03  2.703468E+04
       229   3 -5.137145E+05 -1.920359E+05 -3.594628E+04 -2.697853E+05  4.978795E+03  2.136766E+04
       229   4 -2.996335E+05 -1.155604E+05 -4.173128E+03 -2.098185E+05 -1.415020E+04  2.819421E+04
       229   5 -3.051115E+05 -1.097373E+05 -2.287885E+03 -2.034476E+05 -1.073834E+04  2.258265E+04
       229   6 -2.995843E+05 -1.153286E+05 -1.298855E+03 -2.098981E+05 -7.254451E+03  1.677513E+04
       229   7  6.912832E+04  1.661099E+04  5.556975E+04 -1.065862E+05 -2.563450E+04  2.387996E+04
       229   8 -1.368293E+04 -5.334285E+03  4.475706E+04 -1.218802E+05 -2.259922E+04  1.812844E+04
       229   9 -8.540701E+04 -3.861750E+04  3.334755E+04 -1.499922E+05 -1.949203E+04  1.218097E+04
       229  10 -6.682498E+05 -2.477190E+05 -6.392037E+04 -3.129931E+05  5.468559E-10 -6.713565E-10
       229  11 -5.964507E+05 -2.141330E+05 -4.933585E+04 -2.849795E+05  1.621619E-09 -7.970803E-10
       229  12 -5.137147E+05 -1.920364E+05 -3.594718E+04 -2.697854E+05 -3.458801E-09  3.021447E-10
       229  13 -2.996339E+05 -1.155613E+05 -4.174998E+03 -2.098181E+05  8.626290E-11 -5.497263E-10
       229  14 -3.051118E+05 -1.097379E+05 -2.289060E+03 -2.034474E+05 -3.197491E-09  9.090992E-10
       229  15 -2.995844E+05 -1.153289E+05 -1.299482E+03 -2.098980E+05 -5.010800E-10 -1.241701E-10
       229  16  6.912746E+04  1.661020E+04  5.556744E+04 -1.065857E+05 -1.532228E-09 -1.744937E-10
       229  17 -1.368357E+04 -5.334775E+03  4.475548E+04 -1.218799E+05  1.623603E-09  2.829962E-10
       229  18 -8.540746E+04 -3.861776E+04  3.334656E+04 -1.499920E+05  3.527207E-09 -5.980041E-10
       229  19 -6.682495E+05 -2.477178E+05 -6.391837E+04 -3.129932E+05  2.673129E+03 -3.250574E+04
       229  20 -5.964505E+05 -2.141323E+05 -4.933448E+04 -2.849794E+05 -1.116703E+03 -2.703468E+04
       229  21 -5.137145E+05 -1.920359E+05 -3.594628E+04 -2.697853E+05 -4.978795E+03 -2.136766E+04
       229  22 -2.996335E+05 -1.155604E+05 -4.173128E+03 -2.098185E+05  1.415020E+04 -2.819421E+04
       229  23 -3.051115E+05 -1.097373E+05 -2.287885E+03 -2.034476E+05  1.073834E+04 -2.258265E+04
       229  24 -2.995843E+05 -1.153286E+05 -1.298855E+03 -2.098981E+05  7.254451E+03 -1.677513E+04
       229  25  6.912832E+04  1.661099E+04  5.556975E+04 -1.065862E+05  2.563450E+04 -2.387996E+04
       229  26 -1.368293E+04 -5.334285E+03  4.475706E+04 -1.218802E+05  2.259922E+04 -1.812844E+04
       229  27 -8.540701E+04 -3.861750E+04  3.334755E+04 -1.499922E+05  1.949203E+04 -1.218097E+04
       230   1 -4.645288E+05 -1.743907E+05 -2.737716E+04 -2.560684E+05  6.543434E+03  1.774200E+04
       230   2 -3.928082E+05 -1.411102E+05 -1.475318E+04 -2.279985E+05  9.285829E+03  1.154106E+04
       230   3 -3.099045E+05 -1.190729E+05 -2.401245E+03 -2.127773E+05  1.203458E+04  5.322031E+03
       230   4 -2.995485E+05 -1.153319E+05 -1.009560E+03 -2.098878E+05 -5.678151E+03  1.315440E+04
       230   5 -3.051362E+05 -1.097110E+05 -6.581632E+02 -2.034615E+05 -2.971406E+03  6.940496E+03
       230   6 -2.995423E+05 -1.153277E+05 -5.517292E+02 -2.098869E+05 -2.583623E+02  7.084930E+02
       230   7 -1.345366E+05 -5.626934E+04  2.535868E+04 -1.636951E+05 -1.790332E+04  8.565461E+03
       230   8 -2.174551E+05 -7.831060E+04  1.343749E+04 -1.789210E+05 -1.523055E+04  2.339217E+03
       230   9 -2.891797E+05 -1.115823E+05  1.298433E+03 -2.069963E+05 -1.255153E+04 -3.905129E+03
       230  10 -4.645290E+05 -1.743911E+05 -2.737783E+04 -2.560685E+05 -3.401310E-09  4.334730E-10
       230  11 -3.928083E+05 -1.411104E+05 -1.475360E+04 -2.279985E+05  4.625173E-09  2.324863E-09
       230  12 -3.099046E+05 -1.190730E+05 -2.401571E+03 -2.127774E+05  3.766065E-09  1.982444E-09
       230  13 -2.995486E+05 -1.153321E+05 -1.009945E+03 -2.098877E+05  9.505669E-10  8.224344E-10
       230  14 -3.051362E+05 -1.097110E+05 -6.582703E+02 -2.034614E+05  7.506431E-09  2.023481E-09
       230  15 -2.995423E+05 -1.153277E+05 -5.517303E+02 -2.098869E+05  2.596288E-09  2.694586E-09
       230  16 -1.345370E+05 -5.626950E+04  2.535794E+04 -1.636949E+05  9.830712E-09  1.507345E-09
       230  17 -2.174553E+05 -7.831067E+04  1.343705E+04 -1.789210E+05  8.739775E-09  3.221976E-09
       230  18 -2.891798E+05 -1.115824E+05  1.298108E+03 -2.069964E+05  6.229657E-10  2.992537E-09
       230  19 -4.645288E+05 -1.743907E+05 -2.737716E+04 -2.560684E+05 -6.543434E+03 -1.774200E+04
       230  20 -3.928082E+05 -1.411102E+05 -1.475318E+04 -2.279985E+05 -9.285829E+03 -1.154106E+04
       230  21 -3.099045E+05 -1.190729E+05 -2.401245E+03 -2.127773E+05 -1.203458E+04 -5.322031E+03
       230  22 -2.995485E+05 -1.153319E+05 -1.009560E+03 -2.098878E+05  5.678151E+03 -1.315440E+04
       230  23 -3.051362E+05 -1.097110E+05 -6.581632E+02 -2.034615E+05  2.971406E+03 -6.940496E+03
       230  24 -2.995423E+05 -1.153277E+05 -5.517292E+02 -2.098869E+05  2.583623E+02 -7.084930E+02
       230  25 -1.345366E+05 -5.626934E+04  2.535868E+04 -1.636951E+05  1.790332E+04 -8.565461E+03
       230  26 -2.174551E+05 -7.831060E+04  1.343749E+04 -1.789210E+05  1.523055E+04 -2.339217E+03
       230  27 -2.891797E+05 -1.115823E+05  1.298433E+03 -2.069963E+05  1.255153E+04  3.905129E+03
       231   1 -2.607695E+05 -1.014117E+05  5.837108E+03 -1.990482E+05  1.351978E+04  1.652155E+03
       231   2 -1.890372E+05 -6.813981E+04  1.788108E+04 -1.709765E+05  1.625467E+04 -4.570618E+03
       231   3 -1.061198E+05 -4.610137E+04  2.966490E+04 -1.557555E+05  1.898294E+04 -1.077428E+04
       231   4 -2.995450E+05 -1.153276E+05 -5.726381E+02 -2.098878E+05  1.226315E+03 -2.961607E+03
       231   5 -3.051338E+05 -1.097068E+05 -7.739217E+02 -2.034626E+05  3.997048E+03 -9.171490E+03
       231   6 -2.995507E+05 -1.153272E+05 -1.264040E+03 -2.098905E+05  6.761123E+03 -1.536232E+04
       231   7 -3.383181E+05 -1.292431E+05 -6.981650E+03 -2.207267E+05 -1.106620E+04 -7.575013E+03
       231   8 -4.212157E+05 -1.512724E+05 -1.942855E+04 -2.359429E+05 -8.258147E+03 -1.377145E+04
       231   9 -4.929433E+05 -1.845499E+05 -3.219367E+04 -2.640102E+05 -5.456790E+03 -1.994889E+04
       231  10 -2.607697E+05 -1.014117E+05  5.836759E+03 -1.990482E+05 -5.378484E-10  1.383874E-09
       231  11 -1.890375E+05 -6.813990E+04  1.788054E+04 -1.709764E+05 -3.622471E-09  1.342887E-09
       231  12 -1.061202E+05 -4.610159E+04  2.966400E+04 -1.557554E+05 -3.252277E-09  3.554206E-10
       231  13 -2.995450E+05 -1.153276E+05 -5.726574E+02 -2.098878E+05 -1.777055E-09  1.966362E-09
       231  14 -3.051339E+05 -1.097069E+05 -7.741098E+02 -2.034626E+05  1.729996E-09  1.468928E-09
       231  15 -2.995508E+05 -1.153275E+05 -1.264569E+03 -2.098904E+05 -2.659783E-09  5.345561E-10
       231  16 -3.383183E+05 -1.292432E+05 -6.981988E+03 -2.207267E+05  1.502625E-09  2.720468E-09
       231  17 -4.212158E+05 -1.512726E+05 -1.942903E+04 -2.359430E+05  2.581920E-09  3.082782E-09
       231  18 -4.929435E+05 -1.845504E+05 -3.219447E+04 -2.640103E+05  2.961493E-09  2.420921E-09
       231  19 -2.607695E+05 -1.014117E+05  5.837108E+03 -1.990482E+05 -1.351978E+04 -1.652155E+03
       231  20 -1.890372E+05 -6.813981E+04  1.788108E+04 -1.709765E+05 -1.625467E+04  4.570618E+03
       231  21 -1.061198E+05 -4.610137E+04  2.966490E+04 -1.557555E+05 -1.898294E+04  1.077428E+04
       231  22 -2.995450E+05 -1.153276E+05 -5.726381E+02 -2.098878E+05 -1.226315E+03  2.961607E+03
       231  23 -3.051338E+05 -1.097068E+05 -7.739217E+02 -2.034626E+05 -3.997048E+03  9.171490E+03
       231  24 -2.995507E+05 -1.153272E+05 -1.264040E+03 -2.098905E+05 -6.761123E+03  1.536232E+04
       231  25 -3.383181E+05 -1.292431E+05 -6.981650E+03 -2.207267E+05  1.106620E+04  7.575013E+03
       231  26 -4.212157E+05 -1.512724E+05 -1.942855E+04 -2.359429E+05  8.258147E+03  1.377145E+04
       231  27 -4.929433E+05 -1.845499E+05 -3.219367E+04 -2.640102E+05  5.456790E+03  1.994889E+04
       232   1 -5.699575E+04 -2.845710E+04  3.755753E+04 -1.420673E+05  2.062169E+04 -1.437001E+04
       232   2  1.475195E+04  4.827991E+03  4.866818E+04 -1.139450E+05  2.404138E+04 -2.019414E+04
       232   3  9.752046E+04  2.671343E+04  5.893211E+04 -9.864233E+04  2.738647E+04 -2.581542E+04
       232   4 -2.995995E+05 -1.153236E+05 -1.650193E+03 -2.099069E+05  8.386990E+03 -1.896354E+04
       232   5 -3.050983E+05 -1.097300E+05 -2.943608E+03 -2.034452E+05  1.219671E+04 -2.464281E+04
       232   6 -2.996598E+05 -1.156144E+05 -5.393401E+03 -2.098062E+05  1.593166E+04 -3.011922E+04
       232   7 -5.421397E+05 -2.021840E+05 -4.085848E+04 -2.777214E+05 -3.842637E+03 -2.355517E+04
       232   8 -6.248367E+05 -2.242766E+05 -5.455637E+04 -2.929016E+05  3.585746E+02 -2.908904E+04
       232   9 -6.966660E+05 -2.579244E+05 -6.972040E+04 -3.209021E+05  4.484745E+03 -3.442007E+04
       232  10 -5.699626E+04 -2.845744E+04  3.755635E+04 -1.420671E+05 -2.275574E-08 -6.622529E-09
       232  11  1.475122E+04  4.827398E+03  4.866633E+04 -1.139446E+05  1.655315E-09  6.288485E-09
       232  12  9.751948E+04  2.671251E+04  5.892945E+04 -9.864176E+04  3.642798E-08  1.885592E-08
       232  13 -2.995997E+05 -1.153240E+05 -1.651001E+03 -2.099067E+05  1.569203E-09 -1.288817E-09
       232  14 -3.050987E+05 -1.097307E+05 -2.945028E+03 -2.034450E+05  4.701843E-09 -7.253487E-09
       232  15 -2.996603E+05 -1.156155E+05 -5.395582E+03 -2.098058E+05  1.414808E-08 -9.848737E-09
       232  16 -5.421398E+05 -2.021846E+05 -4.085955E+04 -2.777215E+05  2.086763E-08  7.939222E-09
       232  17 -6.248369E+05 -2.242775E+05 -5.455796E+04 -2.929016E+05 -2.840626E-10 -6.636318E-10
       232  18 -6.966664E+05 -2.579257E+05 -6.972266E+04 -3.209019E+05 -2.166372E-08 -2.706670E-09
       232  19 -5.699575E+04 -2.845710E+04  3.755753E+04 -1.420673E+05 -2.062169E+04  1.437001E+04
       232  20  1.475195E+04  4.827991E+03  4.866818E+04 -1.139450E+05 -2.404138E+04  2.019414E+04
       232  21  9.752046E+04  2.671343E+04  5.893211E+04 -9.864233E+04 -2.738647E+04  2.581542E+04
       232  22 -2.995995E+05 -1.153236E+05 -1.650193E+03 -2.099069E+05 -8.386990E+03  1.896354E+04
       232  23 -3.050983E+05 -1.097300E+05 -2.943608E+03 -2.034452E+05 -1.219671E+04  2.464281E+04
       232  24 -2.996598E+05 -1.156144E+05 -5.393401E+03 -2.098062E+05 -1.593166E+04  3.011922E+04
       232  25 -5.421397E+05 -2.021840E+05 -4.085848E+04 -2.777214E+05  3.842637E+03  2.355517E+04
       232  26 -6.248367E+05 -2.242766E+05 -5.455637E+04 -2.929016E+05 -3.585746E+02  2.908904E+04
       232  27 -6.966660E+05 -2.579244E+05 -6.972040E+04 -3.209021E+05 -4.484745E+03  3.442007E+04
       233   1  1.467141E+05  4.409393E+04  6.563649E+04 -8.538170E+04  2.983663E+04 -2.894020E+04
       233   2  2.173377E+05  7.781895E+04  7.364733E+04 -5.509535E+04  3.455656E+04 -3.287322E+04
       233   3  2.975076E+05  9.717162E+04  7.866829E+04 -3.674139E+04  3.853051E+04 -3.481513E+04
       233   4 -3.000336E+05 -1.156334E+05 -7.195986E+03 -2.099104E+05  1.824462E+04 -3.329670E+04
       233   5 -3.048857E+05 -1.112417E+05 -1.325148E+04 -2.027555E+05  2.680701E+04 -3.578868E+04
       233   6 -3.009619E+05 -1.219885E+05 -2.534538E+04 -2.075373E+05  3.462271E+04 -3.628872E+04
       233   7 -7.465727E+05 -2.753427E+05 -8.003372E+04 -3.343565E+05  6.661328E+03 -3.764995E+04
       233   8 -8.268210E+05 -3.002750E+05 -1.001575E+05 -3.502997E+05  1.906433E+04 -3.870152E+04
       233   9 -8.990517E+05 -3.411105E+05 -1.293697E+05 -3.781782E+05  3.071891E+04 -3.776075E+04
       233  10  1.467129E+05  4.409280E+04  6.563324E+04 -8.538100E+04 -1.905707E-08 -4.409493E-09
       233  11  2.173361E+05  7.781747E+04  7.364306E+04 -5.509443E+04 -8.328098E-09 -3.005520E-09
       233  12  2.975057E+05  9.716992E+04  7.866323E+04 -3.674031E+04  1.612065E-08  5.575472E-09
       233  13 -3.000342E+05 -1.156347E+05 -7.198694E+03 -2.099099E+05  1.698236E-08 -1.065694E-08
       233  14 -3.048868E+05 -1.112433E+05 -1.325523E+04 -2.027547E+05 -1.443259E-10 -9.592562E-09
       233  15 -3.009635E+05 -1.219902E+05 -2.535011E+04 -2.075363E+05 -1.371177E-09 -3.016260E-09
       233  16 -7.465731E+05 -2.753442E+05 -8.003647E+04 -3.343563E+05  2.798262E-08  1.812974E-08
       233  17 -8.268217E+05 -3.002768E+05 -1.001610E+05 -3.502991E+05 -7.053631E-09  3.574024E-09
       233  18 -8.990531E+05 -3.411123E+05 -1.293741E+05 -3.781773E+05 -2.232230E-08 -6.790541E-09
       233  19  1.467141E+05  4.409393E+04  6.563649E+04 -8.538170E+04 -2.983663E+04  2.894020E+04
       233  20  2.173377E+05  7.781895E+04  7.364733E+04 -5.509535E+04 -3.455656E+04  3.287322E+04
       233  21  2.975076E+05  9.717162E+04  7.866829E+04 -3.674139E+04 -3.853051E+04  3.481513E+04
       233  22 -3.000336E+05 -1.156334E+05 -7.195986E+03 -2.099104E+05 -1.824462E+04  3.329670E+04
       233  23 -3.048857E+05 -1.112417E+05 -1.325148E+04 -2.027555E+05 -2.680701E+04  3.578868E+04
       233  24 -3.009619E+05 -1.219885E+05 -2.534538E+04 -2.075373E+05 -3.462271E+04  3.628872E+04
       233  25 -7.465727E+05 -2.753427E+05 -8.003372E+04 -3.343565E+05 -6.661328E+03  3.764995E+04
       233  26 -8.268210E+05 -3.002750E+05 -1.001575E+05 -3.502997E+05 -1.906433E+04  3.870152E+04
       233  27 -8.990517E+05 -3.411105E+05 -1.293697E+05 -3.781782E+05 -3.071891E+04  3.776075E+04
       234   1  3.480588E+05  1.104309E+05  8.088851E+04 -2.870368E+04  4.452766E+04 -3.498961E+04
       234   2  3.952133E+05  1.511835E+05  8.038206E+04  4.105909E+04  3.762362E+04 -2.947821E+04
       234   3  4.331893E+05  1.293910E+05  6.854850E+04  1.138646E+05  2.332538E+04 -4.320317E+03
       234   4 -3.050411E+05 -1.228947E+05 -3.394790E+04 -2.084681E+05  3.923989E+04 -3.698246E+04
       234   5 -3.040913E+05 -1.400848E+05 -6.505478E+04 -1.903622E+05  7.030398E+04 -1.719730E+04
       234   6 -3.198750E+05 -2.273919E+05 -1.375941E+05 -1.692130E+05  9.396814E+04  2.224577E+04
       234   7 -9.576893E+05 -3.561810E+05 -1.487973E+05 -3.880568E+05  3.395804E+04 -3.897315E+04
       234   8 -1.002870E+06 -4.312614E+05 -2.105084E+05 -4.215228E+05  1.029444E+05 -4.936193E+03
       234   9 -1.072333E+06 -5.840153E+05 -3.437580E+05 -4.519334E+05  1.645152E+05  4.875448E+04
       234  10  3.480564E+05  1.104291E+05  8.088249E+04 -2.870242E+04  6.104741E-09  1.664811E-09
       234  11  3.952116E+05  1.511822E+05  8.037777E+04  4.105998E+04  2.827944E-09  2.589251E-09
       234  12  4.331887E+05  1.293908E+05  6.854744E+04  1.138646E+05  2.328869E-09  1.201287E-09
       234  13 -3.050431E+05 -1.228966E+05 -3.395337E+04 -2.084670E+05  2.113060E-09 -6.166491E-12
       234  14 -3.040967E+05 -1.400865E+05 -6.506463E+04 -1.903612E+05 -6.843615E-10  2.596277E-09
       234  15 -3.198846E+05 -2.273948E+05 -1.376116E+05 -1.692147E+05 -2.755133E-10  3.277456E-09
       234  16 -9.576909E+05 -3.561830E+05 -1.488023E+05 -3.880557E+05 -7.370172E-10 -1.701502E-09
       234  17 -1.002882E+06 -4.312642E+05 -2.105284E+05 -4.215224E+05 -3.158017E-09 -2.519533E-12
       234  18 -1.072363E+06 -5.840251E+05 -3.438134E+05 -4.519398E+05 -1.676892E-09 -2.403645E-10
       234  19  3.480588E+05  1.104309E+05  8.088851E+04 -2.870368E+04 -4.452766E+04  3.498961E+04
       234  20  3.952133E+05  1.511835E+05  8.038206E+04  4.105909E+04 -3.762362E+04  2.947821E+04
       234  21  4.331893E+05  1.293910E+05  6.854850E+04  1.138646E+05 -2.332538E+04  4.320317E+03
       234  22 -3.050411E+05 -1.228947E+05 -3.394790E+04 -2.084681E+05 -3.923989E+04  3.698246E+04
       234  23 -3.040913E+05 -1.400848E+05 -6.505478E+04 -1.903622E+05 -7.030398E+04  1.719730E+04
       234  24 -3.198750E+05 -2.273919E+05 -1.375941E+05 -1.692130E+05 -9.396814E+04 -2.224577E+04
       234  25 -9.576893E+05 -3.561810E+05 -1.487973E+05 -3.880568E+05 -3.395804E+04  3.897315E+04
       234  26 -1.002870E+06 -4.312614E+05 -2.105084E+05 -4.215228E+05 -1.029444E+05  4.936193E+03
       234  27 -1.072333E+06 -5.840153E+05 -3.437580E+05 -4.519334E+05 -1.645152E+05 -4.875448E+04
       235   1  1.183461E+06  1.687888E+05  1.474476E+05  8.978933E+03  3.500595E+04 -1.390640E+04
       235   2  1.136706E+06  2.007970E+05  1.300616E+05  3.157779E+04  1.141813E+04 -4.810476E+04
       235   3  1.085838E+06  2.039156E+05  1.208419E+05  6.133028E+04 -1.220436E+04 -6.083747E+04
       235   4  1.751360E+05 -7.900744E+04 -8.517527E+04  6.000479E+04 -5.987332E+04 -1.409158E+04
       235   5  1.811479E+05 -2.453957E+04 -4.244134E+04  5.634882E+04 -3.806903E+04 -4.821474E+04
       235   6  1.751586E+05 -6.864031E+03 -2.304701E+04  5.984610E+04 -1.630118E+04 -6.085510E+04
       235   7 -8.322253E+05 -3.268600E+05 -3.178305E+05  1.109468E+05 -1.545998E+05 -1.429249E+04
       235   8 -7.735155E+05 -2.499234E+05 -2.149705E+05  8.108026E+04 -8.748222E+04 -4.832877E+04
       235   9 -7.346955E+05 -2.176847E+05 -1.669566E+05  5.836370E+04 -2.039220E+04 -6.087273E+04
       235  10  1.183460E+06  1.687883E+05  1.474449E+05  8.979325E+03  6.855800E-09 -1.173797E-09
       235  11  1.136705E+06  2.007944E+05  1.300570E+05  3.157824E+04  2.964341E-09 -5.528110E-09
       235  12  1.085836E+06  2.039115E+05  1.208346E+05  6.132968E+04  1.309104E-09 -3.594039E-09
       235  13  1.751321E+05 -7.900861E+04 -8.518237E+04  6.000411E+04  2.232143E-09  9.898594E-10
       235  14  1.811457E+05 -2.454245E+04 -4.244843E+04  5.634735E+04 -2.146666E-09 -3.467151E-09
       235  15  1.751573E+05 -6.868080E+03 -2.305447E+04  5.984530E+04 -9.053921E-10 -5.010108E-10
       235  16 -8.322511E+05 -3.268667E+05 -3.178758E+05  1.109450E+05 -3.249384E-09  3.290352E-10
       235  17 -7.735243E+05 -2.499280E+05 -2.149893E+05  8.107685E+04  5.588735E-10 -7.130492E-09
       235  18 -7.346970E+05 -2.176888E+05 -1.669643E+05  5.836270E+04 -8.590993E-10 -7.151593E-09
       235  19  1.183461E+06  1.687888E+05  1.474476E+05  8.978933E+03 -3.500595E+04  1.390640E+04
       235  20  1.136706E+06  2.007970E+05  1.300616E+05  3.157779E+04 -1.141813E+04  4.810476E+04
       235  21  1.085838E+06  2.039156E+05  1.208419E+05  6.133028E+04  1.220436E+04  6.083747E+04
       235  22  1.751360E+05 -7.900744E+04 -8.517527E+04  6.000479E+04  5.987332E+04  1.409158E+04
       235  23  1.811479E+05 -2.453957E+04 -4.244134E+04  5.634882E+04  3.806903E+04  4.821474E+04
       235  24  1.751586E+05 -6.864031E+03 -2.304701E+04  5.984610E+04  1.630118E+04  6.085510E+04
       235  25 -8.322253E+05 -3.268600E+05 -3.178305E+05  1.109468E+05  1.545998E+05  1.429249E+04
       235  26 -7.735155E+05 -2.499234E+05 -2.149705E+05  8.108026E+04  8.748222E+04  4.832877E+04
       235  27 -7.346955E+05 -2.176847E+05 -1.669566E+05  5.836370E+04  2.039220E+04  6.087273E+04
       236   1  1.056465E+06  1.973274E+05  1.182135E+05  5.881282E+04 -9.271751E+03 -6.115345E+04
       236   2  1.008157E+06  1.890134E+05  1.129808E+05  5.613353E+04 -9.928741E+03 -6.180185E+04
       236   3  9.594521E+05  1.787713E+05  1.076980E+05  6.210592E+04 -1.059255E+04 -5.990759E+04
       236   4  1.775396E+05 -5.418274E+03 -1.729983E+04  6.019069E+04 -1.331430E+04 -6.117118E+04
       236   5  1.782186E+05 -1.332098E+03 -9.414103E+03  5.585771E+04 -8.598936E+03 -6.180674E+04
       236   6  1.775655E+05 -1.075977E+02 -5.308528E+03  6.017722E+04 -3.890336E+03 -5.989788E+04
       236   7 -7.006141E+05 -2.082014E+05 -1.528305E+05  6.156609E+04 -1.735135E+04 -6.118894E+04
       236   8 -6.510276E+05 -1.917097E+05 -1.318214E+05  5.558185E+04 -7.270828E+03 -6.181163E+04
       236   9 -6.037048E+05 -1.790145E+05 -1.183247E+05  5.825064E+04  2.803809E+03 -5.988821E+04
       236  10  1.056463E+06  1.973234E+05  1.182063E+05  5.881236E+04 -7.534075E-09 -4.414569E-09
       236  11  1.008156E+06  1.890093E+05  1.129735E+05  5.613303E+04 -5.591114E-10  1.919174E-09
       236  12  9.594510E+05  1.787674E+05  1.076910E+05  6.210541E+04 -5.124189E-10  3.435192E-09
       236  13  1.775384E+05 -5.422340E+03 -1.730720E+04  6.019004E+04 -1.064423E-09 -3.030403E-09
       236  14  1.782174E+05 -1.336220E+03 -9.421421E+03  5.585728E+04  9.460077E-11  6.109065E-10
       236  15  1.775645E+05 -1.114547E+02 -5.315299E+03  6.017703E+04 -1.817915E-10 -1.309016E-09
       236  16 -7.006155E+05 -2.082055E+05 -1.528381E+05  6.156523E+04  6.596567E-09  1.686468E-10
       236  17 -6.510287E+05 -1.917138E+05 -1.318287E+05  5.558149E+04  2.833372E-09  3.794221E-09
       236  18 -6.037058E+05 -1.790183E+05 -1.183314E+05  5.825078E+04 -2.069856E-10  1.855032E-09
       236  19  1.056465E+06  1.973274E+05  1.182135E+05  5.881282E+04  9.271751E+03  6.115345E+04
       236  20  1.008157E+06  1.890134E+05  1.129808E+05  5.613353E+04  9.928741E+03  6.180185E+04
       236  21  9.594521E+05  1.787713E+05  1.076980E+05  6.210592E+04  1.059255E+04  5.990759E+04
       236  22  1.775396E+05 -5.418274E+03 -1.729983E+04  6.019069E+04  1.331430E+04  6.117118E+04
       236  23  1.782186E+05 -1.332098E+03 -9.414103E+03  5.585771E+04  8.598936E+03  6.180674E+04
       236  24  1.775655E+05 -1.075977E+02 -5.308528E+03  6.017722E+04  3.890336E+03  5.989788E+04
       236  25 -7.006141E+05 -2.082014E+05 -1.528305E+05  6.156609E+04  1.735135E+04  6.118894E+04
       236  26 -6.510276E+05 -1.917097E+05 -1.318214E+05  5.558185E+04  7.270828E+03  6.181163E+04
       236  27 -6.037048E+05 -1.790145E+05 -1.183247E+05  5.825064E+04 -2.803809E+03  5.988821E+04
       237   1  9.291791E+05  1.717564E+05  1.040355E+05  6.181476E+04 -9.803844E+03 -5.796643E+04
       237   2  8.807946E+05  1.608033E+05  9.823750E+04  5.737925E+04 -9.320131E+03 -5.464491E+04
       237   3  8.323118E+05  1.497972E+05  9.210527E+04  6.176369E+04 -8.838723E+03 -5.102310E+04
       237   4  1.778234E+05 -2.999893E+01 -4.013515E+03  6.021576E+04 -3.097564E+03 -5.795577E+04
       237   5  1.779403E+05  2.155810E+02 -2.265629E+03  5.580505E+04 -1.980275E+03 -5.463104E+04
       237   6  1.778463E+05  2.981464E+02 -1.292420E+03  6.021487E+04 -8.652552E+02 -5.100585E+04
       237   7 -5.729628E+05 -1.718421E+05 -1.120711E+05  5.861840E+04  3.600956E+03 -5.794513E+04
       237   8 -5.244151E+05 -1.603945E+05 -1.027759E+05  5.423237E+04  5.351637E+03 -5.461720E+04
       237   9 -4.761865E+05 -1.492203E+05 -9.469618E+04  5.866744E+04  7.100176E+03 -5.098863E+04
       237  10  9.291781E+05  1.717527E+05  1.040290E+05  6.181430E+04 -4.401459E-09  5.879290E-09
       237  11  8.807937E+05  1.608001E+05  9.823172E+04  5.737884E+04  4.570324E-10  4.376847E-09
       237  12  8.323110E+05  1.497944E+05  9.210023E+04  6.176332E+04  7.215552E-09  1.089168E-09
       237  13  1.778225E+05 -3.360863E+01 -4.019846E+03  6.021562E+04 -1.268986E-10 -2.287777E-09
       237  14  1.779395E+05  2.123748E+02 -2.271245E+03  5.580496E+04  1.237925E-09  5.003494E-09
       237  15  1.778456E+05  2.953523E+02 -1.297310E+03  6.021483E+04  2.127315E-10  5.869176E-09
       237  16 -5.729637E+05 -1.718457E+05 -1.120774E+05  5.861857E+04  6.141302E-09  2.704525E-09
       237  17 -5.244160E+05 -1.603977E+05 -1.027816E+05  5.423260E+04 -3.216120E-10  5.412494E-09
       237  18 -4.761872E+05 -1.492231E+05 -9.470116E+04  5.866773E+04 -5.176093E-09  1.027771E-09
       237  19  9.291791E+05  1.717564E+05  1.040355E+05  6.181476E+04  9.803844E+03  5.796643E+04
       237  20  8.807946E+05  1.608033E+05  9.823750E+04  5.737925E+04  9.320131E+03  5.464491E+04
       237  21  8.323118E+05  1.497972E+05  9.210527E+04  6.176369E+04  8.838723E+03  5.102310E+04
       237  22  1.778234E+05 -2.999893E+01 -4.013515E+03  6.021576E+04  3.097564E+03  5.795577E+04
       237  23  1.779403E+05  2.155810E+02 -2.265629E+03  5.580505E+04  1.980275E+03  5.463104E+04
       237  24  1.778463E+05  2.981464E+02 -1.292420E+03  6.021487E+04  8.652552E+02  5.100585E+04
       237  25 -5.729628E+05 -1.718421E+05 -1.120711E+05  5.861840E+04 -3.600956E+03  5.794513E+04
       237  26 -5.244151E+05 -1.603945E+05 -1.027759E+05  5.423237E+04 -5.351637E+03  5.461720E+04
       237  27 -4.761865E+05 -1.492203E+05 -9.469618E+04  5.866744E+04 -7.100176E+03  5.098863E+04
       238   1  8.019909E+05  1.428244E+05  8.786963E+04  6.168237E+04 -8.639182E+03 -4.881689E+04
       238   2  7.536250E+05  1.317673E+05  8.140985E+04  5.716753E+04 -8.446116E+03 -4.502845E+04
       238   3  7.052096E+05  1.207663E+05  7.482638E+04  6.148522E+04 -8.254450E+03 -4.120520E+04
       238   4  1.778860E+05  3.016540E+02 -9.786065E+02  6.021776E+04 -6.669249E+02 -4.879874E+04
       238   5  1.779281E+05  2.936617E+02 -5.567597E+02  5.580125E+04 -4.008535E+02 -4.500871E+04
       238   6  1.779049E+05  3.289743E+02 -3.098002E+02  6.021773E+04 -1.361696E+02 -4.118384E+04
       238   7 -4.458253E+05 -1.422386E+05 -8.983225E+04  5.875441E+04  7.297671E+03 -4.878062E+04
       238   8 -3.974338E+05 -1.311949E+05 -8.252793E+04  5.443604E+04  7.637276E+03 -4.498899E+04
       238   9 -3.491188E+05 -1.201209E+05 -7.544979E+04  5.895114E+04  7.975518E+03 -4.116252E+04
       238  10  8.019902E+05  1.428218E+05  8.786501E+04  6.168203E+04 -2.368973E-10  1.330821E-09
       238  11  7.536243E+05  1.317651E+05  8.140590E+04  5.716723E+04 -1.254000E-09  7.553180E-09
       238  12  7.052090E+05  1.207644E+05  7.482306E+04  6.148495E+04 -5.647412E-09  7.593192E-09
       238  13  1.778853E+05  2.990965E+02 -9.830826E+02  6.021774E+04  7.367664E-12  1.694912E-09
       238  14  1.779276E+05  2.914861E+02 -5.605671E+02  5.580124E+04 -1.898403E-10  6.970112E-09
       238  15  1.779044E+05  3.271528E+02 -3.129878E+02  6.021772E+04  2.305239E-09  7.995453E-10
       238  16 -4.458260E+05 -1.422412E+05 -8.983682E+04  5.875469E+04 -9.698653E-10 -1.956786E-10
       238  17 -3.974344E+05 -1.311971E+05 -8.253184E+04  5.443632E+04  4.281819E-09  2.883963E-09
       238  18 -3.491193E+05 -1.201227E+05 -7.545309E+04  5.895140E+04  7.004375E-09  8.670329E-11
       238  19  8.019909E+05  1.428244E+05  8.786963E+04  6.168237E+04  8.639182E+03  4.881689E+04
       238  20  7.536250E+05  1.317673E+05  8.140985E+04  5.716753E+04  8.446116E+03  4.502845E+04
       238  21  7.052096E+05  1.207663E+05  7.482638E+04  6.148522E+04  8.254450E+03  4.120520E+04
       238  22  1.778860E+05  3.016540E+02 -9.786065E+02  6.021776E+04  6.669249E+02  4.879874E+04
       238  23  1.779281E+05  2.936617E+02 -5.567597E+02  5.580125E+04  4.008535E+02  4.500871E+04
       238  24  1.779049E+05  3.289743E+02 -3.098002E+02  6.021773E+04  1.361696E+02  4.118384E+04
       238  25 -4.458253E+05 -1.422386E+05 -8.983225E+04  5.875441E+04 -7.297671E+03  4.878062E+04
       238  26 -3.974338E+05 -1.311949E+05 -8.252793E+04  5.443604E+04 -7.637276E+03  4.498899E+04
       238  27 -3.491188E+05 -1.201209E+05 -7.544979E+04  5.895114E+04 -7.975518E+03  4.116252E+04
       239   1  6.748990E+05  1.138123E+05  7.040901E+04  6.142272E+04 -8.210017E+03 -3.896895E+04
       239   2  6.265638E+05  1.027684E+05  6.372550E+04  5.690417E+04 -8.172534E+03 -3.512724E+04
       239   3  5.781854E+05  9.178402E+04  5.701572E+04  6.121961E+04 -8.136072E+03 -3.128190E+04
       239   4  1.779150E+05  3.340463E+02 -2.283115E+02  6.021804E+04 -9.324690E+01 -3.894687E+04
       239   5  1.779455E+05  3.159200E+02 -1.125880E+02  5.580085E+04 -4.838292E+01 -3.510405E+04
       239   6  1.779297E+05  3.562189E+02 -2.824128E+01  6.021802E+04 -4.535905E+00 -3.125760E+04
       239   7 -3.188192E+05 -1.131553E+05 -7.086893E+04  5.901418E+04  8.017311E+03 -3.892482E+04
       239   8 -2.704694E+05 -1.021456E+05 -6.395334E+04  5.469820E+04  8.070155E+03 -3.508088E+04
       239   9 -2.221639E+05 -9.107880E+04 -5.707429E+04  5.921696E+04  8.121987E+03 -3.123331E+04
       239  10  6.748985E+05  1.138106E+05  7.040603E+04  6.142246E+04 -1.098925E-08  2.163215E-09
       239  11  6.265634E+05  1.027671E+05  6.372306E+04  5.690393E+04  9.667475E-09  1.604441E-09
       239  12  5.781850E+05  9.178295E+04  5.701375E+04  6.121941E+04  2.899234E-08  2.989221E-09
       239  13  1.779146E+05  3.324173E+02 -2.311622E+02  6.021804E+04  3.330757E-09  6.830786E-09
       239  14  1.779451E+05  3.145966E+02 -1.149039E+02  5.580085E+04  8.696429E-10 -6.226618E-09
       239  15  1.779295E+05  3.551697E+02 -3.007748E+01  6.021802E+04  2.048791E-09 -1.578968E-08
       239  16 -3.188197E+05 -1.131569E+05 -7.087190E+04  5.901443E+04  1.344430E-08  4.038011E-09
       239  17 -2.704698E+05 -1.021470E+05 -6.395577E+04  5.469843E+04 -8.971089E-09 -1.076473E-09
       239  18 -2.221643E+05 -9.107986E+04 -5.707625E+04  5.921716E+04 -2.971696E-08  3.083524E-09
       239  19  6.748990E+05  1.138123E+05  7.040901E+04  6.142272E+04  8.210017E+03  3.896895E+04
       239  20  6.265638E+05  1.027684E+05  6.372550E+04  5.690417E+04  8.172534E+03  3.512724E+04
       239  21  5.781854E+05  9.178402E+04  5.701572E+04  6.121961E+04  8.136072E+03  3.128190E+04
       239  22  1.779150E+05  3.340463E+02 -2.283115E+02  6.021804E+04  9.324690E+01  3.894687E+04
       239  23  1.779455E+05  3.159200E+02 -1.125880E+02  5.580085E+04  4.838292E+01  3.510405E+04
       239  24  1.779297E+05  3.562189E+02 -2.824128E+01  6.021802E+04  4.535905E+00  3.125760E+04
       239  25 -3.188192E+05 -1.131553E+05 -7.086893E+04  5.901418E+04 -8.017311E+03  3.892482E+04
       239  26 -2.704694E+05 -1.021456E+05 -6.395334E+04  5.469820E+04 -8.070155E+03  3.508088E+04
       239  27 -2.221639E+05 -9.107880E+04 -5.707429E+04  5.921696E+04 -8.121987E+03  3.123331E+04
       240   1  5.478931E+05  8.483555E+04  5.256121E+04  6.115279E+04 -8.139525E+03 -2.904292E+04
       240   2  4.995808E+05  7.379900E+04  4.585246E+04  5.662468E+04 -8.196040E+03 -2.519557E+04
       240   3  4.512309E+05  6.283341E+04  3.917851E+04  6.092535E+04 -8.253279E+03 -2.134696E+04
       240   4  1.779354E+05  3.615697E+02  7.750591E+00  6.021684E+04 -9.200348E+00 -2.901807E+04
       240   5  1.779609E+05  3.441537E+02  8.518681E+01  5.580228E+04 -6.334296E+01 -2.516993E+04
       240   6  1.779460E+05  3.973423E+02  1.955841E+02  6.021675E+04 -1.182117E+02 -2.132053E+04
       240   7 -1.918838E+05 -8.411855E+04 -5.254741E+04  5.928136E+04  8.116492E+03 -2.899324E+04
       240   8 -1.435544E+05 -7.311533E+04 -4.568334E+04  5.498024E+04  8.065325E+03 -2.514430E+04
       240   9 -9.526332E+04 -6.204207E+04 -3.878818E+04  5.950842E+04  8.013430E+03 -2.129411E+04
       240  10  5.478928E+05  8.483463E+04  5.255950E+04  6.115260E+04 -4.044498E-08  7.613501E-09
       240  11  4.995805E+05  7.379830E+04  4.585115E+04  5.662451E+04 -9.509267E-09  4.757926E-09
       240  12  4.512308E+05  6.283290E+04  3.917752E+04  6.092521E+04  2.194164E-08  1.079142E-09
       240  13  1.779352E+05  3.606655E+02  6.168086E+00  6.021684E+04  2.153996E-09 -9.892953E-09
       240  14  1.779607E+05  3.434733E+02  8.399618E+01  5.580228E+04 -2.397730E-10 -4.541471E-09
       240  15  1.779459E+05  3.968542E+02  1.947298E+02  6.021675E+04  1.574155E-11  7.034413E-11
       240  16 -1.918840E+05 -8.411947E+04 -5.254911E+04  5.928154E+04  4.370625E-08  1.045902E-08
       240  17 -1.435546E+05 -7.311603E+04 -4.568465E+04  5.498040E+04  1.159594E-08 -5.163420E-09
       240  18 -9.526351E+04 -6.204258E+04 -3.878916E+04  5.950855E+04 -2.255555E-08 -1.177928E-09
       240  19  5.478931E+05  8.483555E+04  5.256121E+04  6.115279E+04  8.139525E+03  2.904292E+04
       240  20  4.995808E+05  7.379900E+04  4.585246E+04  5.662468E+04  8.196040E+03  2.519557E+04
       240  21  4.512309E+05  6.283341E+04  3.917851E+04  6.092535E+04  8.253279E+03  2.134696E+04
       240  22  1.779354E+05  3.615697E+02  7.750591E+00  6.021684E+04  9.200348E+00  2.901807E+04
       240  23  1.779609E+05  3.441537E+02  8.518681E+01  5.580228E+04  6.334296E+01  2.516993E+04
       240  24  1.779460E+05  3.973423E+02  1.955841E+02  6.021675E+04  1.182117E+02  2.132053E+04
       240  25 -1.918838E+05 -8.411855E+04 -5.254741E+04  5.928136E+04 -8.116492E+03  2.899324E+04
       240  26 -1.435544E+05 -7.311533E+04 -4.568334E+04  5.498024E+04 -8.065325E+03  2.514430E+04
       240  27 -9.526332E+04 -6.204207E+04 -3.878818E+04  5.950842E+04 -8.013430E+03  2.129411E+04
       241   1  4.209649E+05  5.589058E+04  3.476641E+04  6.086670E+04 -8.299299E+03 -1.910720E+04
       241   2  3.726417E+05  4.491570E+04  2.821939E+04  5.624192E+04 -8.582510E+03 -1.525344E+04
       241   3  3.243419E+05  3.416098E+04  2.189002E+04  6.044300E+04 -8.866170E+03 -1.138907E+04
       241   4  1.779615E+05  4.051155E+02  2.698974E+02  6.021617E+04 -1.650526E+02 -1.908040E+04
       241   5  1.779565E+05  4.452262E+02  4.964947E+02  5.580268E+04 -4.261153E+02 -1.522610E+04
       241   6  1.779679E+05  7.015373E+02  9.249869E+02  6.021520E+04 -6.876467E+02 -1.136117E+04
       241   7 -6.498193E+04 -5.508297E+04 -3.422721E+04  5.956586E+04  7.966149E+03 -1.905362E+04
       241   8 -1.669017E+04 -4.402692E+04 -2.722670E+04  5.536356E+04  7.727833E+03 -1.519876E+04
       241   9  3.161568E+04 -3.275884E+04 -2.004012E+04  5.998744E+04  7.489032E+03 -1.133328E+04
       241  10  4.209647E+05  5.589017E+04  3.476559E+04  6.086657E+04 -4.682595E-09  6.213902E-09
       241  11  3.726416E+05  4.491543E+04  2.821882E+04  5.624181E+04  1.334927E-09  4.242810E-10
       241  12  3.243418E+05  3.416082E+04  2.188963E+04  6.044292E+04  9.692883E-09  5.049791E-09
       241  13  1.779614E+05  4.047245E+02  2.692131E+02  6.021617E+04 -1.027709E-11  3.613912E-09
       241  14  1.779565E+05  4.449772E+02  4.960586E+02  5.580268E+04  3.460522E-10  5.396863E-09
       241  15  1.779679E+05  7.013986E+02  9.247435E+02  6.021519E+04  1.243999E-10 -3.305941E-09
       241  16 -6.498210E+04 -5.508338E+04 -3.422801E+04  5.956598E+04  7.420683E-09  3.903933E-09
       241  17 -1.669029E+04 -4.402719E+04 -2.722725E+04  5.536365E+04 -1.162892E-09  2.034485E-09
       241  18  3.161558E+04 -3.275900E+04 -2.004047E+04  5.998750E+04 -1.242142E-08 -9.831484E-09
       241  19  4.209649E+05  5.589058E+04  3.476641E+04  6.086670E+04  8.299299E+03  1.910720E+04
       241  20  3.726417E+05  4.491570E+04  2.821939E+04  5.624192E+04  8.582510E+03  1.525344E+04
       241  21  3.243419E+05  3.416098E+04  2.189002E+04  6.044300E+04  8.866170E+03  1.138907E+04
       241  22  1.779615E+05  4.051155E+02  2.698974E+02  6.021617E+04  1.650526E+02  1.908040E+04
       241  23  1.779565E+05  4.452262E+02  4.964947E+02  5.580268E+04  4.261153E+02  1.522610E+04
       241  24  1.779679E+05  7.015373E+02  9.249869E+02  6.021520E+04  6.876467E+02  1.136117E+04
       241  25 -6.498193E+04 -5.508297E+04 -3.422721E+04  5.956586E+04 -7.966149E+03  1.905362E+04
       241  26 -1.669017E+04 -4.402692E+04 -2.722670E+04  5.536356E+04 -7.727833E+03  1.519876E+04
       241  27  3.161568E+04 -3.275884E+04 -2.004012E+04  5.998744E+04 -7.489032E+03  1.133328E+04
       242   1  2.942030E+05  2.729563E+04  1.772906E+04  6.051927E+04 -9.033264E+03 -9.140309E+03
       242   2  2.456006E+05  1.720792E+04  1.208205E+04  5.456120E+04 -1.040598E+04 -5.228259E+03
       242   3  1.976224E+05  9.195978E+03  7.824156E+03  5.743121E+04 -1.177908E+04 -1.224578E+03
       242   4  1.780966E+05  7.807688E+02  1.235047E+03  6.021677E+04 -8.550181E+02 -9.112226E+03
       242   5  1.778031E+05  1.702009E+03  2.278264E+03  5.579614E+04 -2.034322E+03 -5.199364E+03
       242   6  1.780986E+05  4.665761E+03  4.576365E+03  6.020355E+04 -3.214101E+03 -1.194875E+03
       242   7  6.200407E+04 -2.573466E+04 -1.525891E+04  5.991432E+04  7.321765E+03 -9.084148E+03
       242   8  1.100105E+05 -1.380407E+04 -7.525332E+03  5.703094E+04  6.336457E+03 -5.170434E+03
       242   9  1.585753E+05  1.355930E+02  1.328842E+03  6.297580E+04  5.350616E+03 -1.165094E+03
       242  10  2.942029E+05  2.729551E+04  1.772875E+04  6.051920E+04 -9.686306E-10  5.842842E-09
       242  11  2.456004E+05  1.720786E+04  1.208180E+04  5.456115E+04 -9.759530E-10 -4.411043E-09
       242  12  1.976222E+05  9.195939E+03  7.823892E+03  5.743120E+04  2.961476E-09 -1.395140E-10
       242  13  1.780966E+05  7.806795E+02  1.234890E+03  6.021676E+04  1.301213E-10  7.376854E-09
       242  14  1.778031E+05  1.701979E+03  2.278205E+03  5.579613E+04  1.868840E-09 -7.228209E-09
       242  15  1.780986E+05  4.665757E+03  4.576342E+03  6.020355E+04 -7.184798E-10  9.131429E-10
       242  16  6.200399E+04 -2.573476E+04 -1.525917E+04  5.991437E+04  1.077741E-09 -1.683187E-09
       242  17  1.100105E+05 -1.380411E+04 -7.525458E+03  5.703096E+04  1.281100E-09  2.514937E-09
       242  18  1.585753E+05  1.355839E+02  1.328786E+03  6.297581E+04 -3.956928E-10  1.752252E-10
       242  19  2.942030E+05  2.729563E+04  1.772906E+04  6.051927E+04  9.033264E+03  9.140309E+03
       242  20  2.456006E+05  1.720792E+04  1.208205E+04  5.456120E+04  1.040598E+04  5.228259E+03
       242  21  1.976224E+05  9.195978E+03  7.824156E+03  5.743121E+04  1.177908E+04  1.224578E+03
       242  22  1.780966E+05  7.807688E+02  1.235047E+03  6.021677E+04  8.550181E+02  9.112226E+03
       242  23  1.778031E+05  1.702009E+03  2.278264E+03  5.579614E+04  2.034322E+03  5.199364E+03
       242  24  1.780986E+05  4.665761E+03  4.576365E+03  6.020355E+04  3.214101E+03  1.194875E+03
       242  25  6.200407E+04 -2.573466E+04 -1.525891E+04  5.991432E+04 -7.321765E+03  9.084148E+03
       242  26  1.100105E+05 -1.380407E+04 -7.525332E+03  5.703094E+04 -6.336457E+03  5.170434E+03
       242  27  1.585753E+05  1.355930E+02  1.328842E+03  6.297580E+04 -5.350616E+03  1.165094E+03
       243   1 -4.664249E+04  4.057158E+05 -3.943650E+04 -1.091136E+05 -5.357529E+03 -2.477698E+04
       243   2 -7.505290E+04  3.260083E+05 -4.718116E+04 -9.525765E+04 -2.048067E+04 -1.967768E+04
       243   3 -9.631832E+04  2.473684E+05 -5.648581E+04 -9.658471E+04 -3.022887E+04 -1.456812E+04
       243   4  1.878013E+04  6.736171E+05  2.022141E+04 -9.707895E+04 -5.430325E+03  1.198182E+04
       243   5  5.883326E+03  6.721168E+05  1.171971E+04 -8.950321E+04 -2.052894E+04  5.980261E+03
       243   6  2.055529E+03  6.736034E+05  9.360829E+03 -9.710871E+04 -3.025408E+04 -1.053579E+01
       243   7  8.419917E+04  9.415886E+05  7.987999E+04 -8.503907E+04 -5.501680E+03  4.875630E+04
       243   8  8.681369E+04  1.018345E+06  7.061916E+04 -8.374540E+04 -2.057672E+04  3.165204E+04
       243   9  1.004207E+05  1.100020E+06  7.520415E+04 -9.763300E+04 -3.027930E+04  1.455666E+04
       243  10 -4.664268E+04  4.057151E+05 -3.943770E+04 -1.091137E+05  2.750791E-09 -2.085566E-09
       243  11 -7.505345E+04  3.260078E+05 -4.718268E+04 -9.525798E+04  2.307332E-09 -2.826337E-09
       243  12 -9.631936E+04  2.473679E+05 -5.648793E+04 -9.658506E+04  6.267249E-10  6.496883E-10
       243  13  1.878006E+04  6.736170E+05  2.022108E+04 -9.707890E+04  2.161191E-09  2.161455E-09
       243  14  5.882864E+03  6.721167E+05  1.171886E+04 -8.950311E+04  1.254977E-09 -1.533043E-09
       243  15  2.054546E+03  6.736032E+05  9.359108E+03 -9.710871E+04  7.050996E-10  2.234845E-09
       243  16  8.419850E+04  9.415860E+05  7.987547E+04 -8.503885E+04 -2.050576E-09  1.266323E-09
       243  17  8.681297E+04  1.018343E+06  7.061648E+04 -8.374487E+04  1.264685E-09  1.861334E-09
       243  18  1.004196E+05  1.100020E+06  7.520203E+04 -9.763265E+04 -2.122005E-09 -2.035592E-09
       243  19 -4.664249E+04  4.057158E+05 -3.943650E+04 -1.091136E+05  5.357529E+03  2.477698E+04
       243  20 -7.505290E+04  3.260083E+05 -4.718116E+04 -9.525765E+04  2.048067E+04  1.967768E+04
       243  21 -9.631832E+04  2.473684E+05 -5.648581E+04 -9.658471E+04  3.022887E+04  1.456812E+04
       243  22  1.878013E+04  6.736171E+05  2.022141E+04 -9.707895E+04  5.430325E+03 -1.198182E+04
       243  23  5.883326E+03  6.721168E+05  1.171971E+04 -8.950321E+04  2.052894E+04 -5.980261E+03
       243  24  2.055529E+03  6.736034E+05  9.360829E+03 -9.710871E+04  3.025408E+04  1.053579E+01
       243  25  8.419917E+04  9.415886E+05  7.987999E+04 -8.503907E+04  5.501680E+03 -4.875630E+04
       243  26  8.681369E+04  1.018345E+06  7.061916E+04 -8.374540E+04  2.057672E+04 -3.165204E+04
       243  27  1.004207E+05  1.100020E+06  7.520415E+04 -9.763300E+04  3.027930E+04 -1.455666E+04
       244   1 -1.078942E+05  1.974309E+05 -6.336742E+04 -9.749026E+04 -3.422831E+04 -1.615271E+04
       244   2 -1.258727E+05  1.177304E+05 -7.269070E+04 -8.798548E+04 -3.995523E+04 -1.663887E+04
       244   3 -1.410175E+05  3.877221E+04 -8.100064E+04 -9.317545E+04 -4.295974E+04 -1.711919E+04
       244   4  1.808003E+03  6.733110E+05  9.509207E+03 -9.699845E+04 -3.425257E+04 -1.520459E+03
       244   5  2.004413E+03  6.724398E+05  1.219717E+04 -8.964775E+04 -3.996743E+04 -7.631071E+03
       244   6  6.008880E+03  6.732789E+05  1.980007E+04 -9.699065E+04 -4.296114E+04 -1.373592E+04
       244   7  1.114994E+05  1.149418E+06  8.238171E+04 -9.650613E+04 -3.427679E+04  1.312257E+04
       244   8  1.298667E+05  1.227457E+06  9.707867E+04 -9.131141E+04 -3.997968E+04  1.384466E+03
       244   9  1.530153E+05  1.308186E+06  1.205905E+05 -1.008097E+05 -4.296258E+04 -1.034931E+04
       244  10 -1.078955E+05  1.974303E+05 -6.337012E+04 -9.749070E+04  7.922928E-10 -2.320268E-08
       244  11 -1.258744E+05  1.177297E+05 -7.269422E+04 -8.798602E+04 -1.001204E-09  5.381110E-09
       244  12 -1.410196E+05  3.877140E+04 -8.100466E+04 -9.317604E+04 -6.640995E-09  3.951567E-08
       244  13  1.806742E+03  6.733107E+05  9.506997E+03 -9.699849E+04  3.178795E-09  1.800373E-09
       244  14  2.002682E+03  6.724393E+05  1.219406E+04 -8.964799E+04  9.627175E-09 -1.626876E-09
       244  15  6.006846E+03  6.732782E+05  1.979625E+04 -9.699113E+04  8.171969E-09  1.884382E-09
       244  16  1.114981E+05  1.149417E+06  8.237918E+04 -9.650577E+04 -3.402878E-10  2.206386E-08
       244  17  1.298650E+05  1.227457E+06  9.707566E+04 -9.131136E+04 -4.082297E-09 -6.161831E-09
       244  18  1.530133E+05  1.308185E+06  1.205869E+05 -1.008101E+05 -7.139372E-09 -4.097006E-08
       244  19 -1.078942E+05  1.974309E+05 -6.336742E+04 -9.749026E+04  3.422831E+04  1.615271E+04
       244  20 -1.258727E+05  1.177304E+05 -7.269070E+04 -8.798548E+04  3.995523E+04  1.663887E+04
       244  21 -1.410175E+05  3.877221E+04 -8.100064E+04 -9.317545E+04  4.295974E+04  1.711919E+04
       244  22  1.808003E+03  6.733110E+05  9.509207E+03 -9.699845E+04  3.425257E+04  1.520459E+03
       244  23  2.004413E+03  6.724398E+05  1.219717E+04 -8.964775E+04  3.996743E+04  7.631071E+03
       244  24  6.008880E+03  6.732789E+05  1.980007E+04 -9.699065E+04  4.296114E+04  1.373592E+04
       244  25  1.114994E+05  1.149418E+06  8.238171E+04 -9.650613E+04  3.427679E+04 -1.312257E+04
       244  26  1.298667E+05  1.227457E+06  9.707867E+04 -9.131141E+04  3.997968E+04 -1.384466E+03
       244  27  1.530153E+05  1.308186E+06  1.205905E+05 -1.008097E+05  4.296258E+04  1.034931E+04
       245   1 -1.520622E+05 -9.670768E+03 -8.564313E+04 -9.633837E+04 -4.460706E+04 -2.069757E+04
       245   2 -1.545271E+05 -9.253053E+04 -9.438657E+04 -6.114468E+04 -3.710528E+04 -6.043629E+03
       245   3 -1.227072E+05 -1.687166E+05 -1.040897E+05 -3.929690E+04 -1.107270E+04  8.629514E+03
       245   4  7.257308E+03  6.758412E+05  2.568541E+04 -9.669939E+04 -4.460822E+04 -1.712473E+04
       245   5  2.596631E+04  6.691635E+05  4.612604E+04 -8.996801E+04 -3.704959E+04 -4.072475E+04
       245   6  8.557151E+04  6.757761E+05  9.215210E+04 -9.657991E+04 -1.097196E+04 -6.430417E+04
       245   7  1.665530E+05  1.361819E+06  1.370009E+05 -9.706060E+04 -4.460939E+04 -1.354807E+04
       245   8  2.064303E+05  1.431424E+06  1.866195E+05 -1.188274E+05 -3.699073E+04 -7.544728E+04
       245   9  2.938149E+05  1.520945E+06  2.883676E+05 -1.539412E+05 -1.085784E+04 -1.373363E+05
       245  10 -1.520645E+05 -9.671763E+03 -8.564768E+04 -9.633911E+04 -6.582590E-09  2.822000E-08
       245  11 -1.545286E+05 -9.253094E+04 -9.438923E+04 -6.114486E+04 -2.591560E-09 -6.455560E-09
       245  12 -1.227073E+05 -1.687168E+05 -1.040901E+05 -3.929682E+04 -1.311254E-09 -3.803609E-08
       245  13  7.255092E+03  6.758403E+05  2.568112E+04 -9.670000E+04  8.852367E-09  1.660596E-09
       245  14  2.596439E+04  6.691613E+05  4.612035E+04 -8.996922E+04  6.872649E-09 -1.548632E-09
       245  15  8.557027E+04  6.757716E+05  9.214411E+04 -9.658048E+04  5.799254E-10  1.414427E-09
       245  16  1.665508E+05  1.361818E+06  1.369968E+05 -9.706109E+04 -9.218707E-09 -2.894757E-08
       245  17  2.064273E+05  1.431418E+06  1.866063E+05 -1.188296E+05 -6.228023E-09  5.334057E-09
       245  18  2.938098E+05  1.520925E+06  2.883320E+05 -1.539424E+05 -1.865940E-09  3.684596E-08
       245  19 -1.520622E+05 -9.670768E+03 -8.564313E+04 -9.633837E+04  4.460706E+04  2.069757E+04
       245  20 -1.545271E+05 -9.253053E+04 -9.438657E+04 -6.114468E+04  3.710528E+04  6.043629E+03
       245  21 -1.227072E+05 -1.687166E+05 -1.040897E+05 -3.929690E+04  1.107270E+04 -8.629514E+03
       245  22  7.257308E+03  6.758412E+05  2.568541E+04 -9.669939E+04  4.460822E+04  1.712473E+04
       245  23  2.596631E+04  6.691635E+05  4.612604E+04 -8.996801E+04  3.704959E+04  4.072475E+04
       245  24  8.557151E+04  6.757761E+05  9.215210E+04 -9.657991E+04  1.097196E+04  6.430417E+04
       245  25  1.665530E+05  1.361819E+06  1.370009E+05 -9.706060E+04  4.460939E+04  1.354807E+04
       245  26  2.064303E+05  1.431424E+06  1.866195E+05 -1.188274E+05  3.699073E+04  7.544728E+04
       245  27  2.938149E+05  1.520945E+06  2.883676E+05 -1.539412E+05  1.085784E+04  1.373363E+05
       246   1  1.179592E+06  3.851632E+05  1.851928E+05  4.227689E+05  5.693914E+04  5.956682E+03
       246   2  1.107615E+06  3.871547E+05  1.454424E+05  4.035423E+05  3.786067E+04 -3.814079E+04
       246   3  1.026046E+06  3.839163E+05  1.250000E+05  3.992304E+05  1.038314E+04 -5.994356E+04
       246   4  2.242280E+05  5.552405E+04 -5.244003E+04  1.896252E+05 -2.908830E+04 -2.650103E+04
       246   5  2.362458E+05  8.232283E+04 -2.486975E+04  1.746975E+05 -4.008267E+03 -5.395119E+04
       246   6  2.299179E+05  9.513765E+04 -1.295813E+04  1.746875E+05  1.266151E+04 -5.909177E+04
       246   7 -7.301905E+05 -2.740687E+05 -2.901002E+05 -4.319529E+04 -1.149672E+05 -5.891269E+04
       246   8 -6.343164E+05 -2.224494E+05 -1.952035E+05 -5.385138E+04 -4.581318E+04 -6.973980E+04
       246   9 -5.655369E+05 -1.935764E+05 -1.509343E+05 -4.958577E+04  1.493677E+04 -5.824117E+04
       246  10  1.179588E+06  3.851622E+05  1.851867E+05  4.227686E+05 -5.375973E-08 -2.180335E-08
       246  11  1.107613E+06  3.871527E+05  1.454370E+05  4.035434E+05 -3.952038E-08 -1.941357E-08
       246  12  1.026045E+06  3.839125E+05  1.249930E+05  3.992309E+05 -1.038930E-08 -4.885732E-09
       246  13  2.242269E+05  5.552307E+04 -5.244294E+04  1.896246E+05 -3.462002E-09 -1.612016E-09
       246  14  2.362450E+05  8.231970E+04 -2.487525E+04  1.746973E+05 -1.100156E-08 -2.034177E-08
       246  15  2.299168E+05  9.513386E+04 -1.296499E+04  1.746881E+05 -1.596850E-08 -1.947161E-08
       246  16 -7.302057E+05 -2.740760E+05 -2.901316E+05 -4.320075E+04  4.642544E-08  2.141407E-08
       246  17 -6.343200E+05 -2.224552E+05 -1.952165E+05 -5.385395E+04  1.362599E-08  2.599673E-09
       246  18 -5.655381E+05 -1.935801E+05 -1.509411E+05 -4.958507E+04 -1.929843E-08 -9.209239E-09
       246  19  1.179592E+06  3.851632E+05  1.851928E+05  4.227689E+05 -5.693914E+04 -5.956682E+03
       246  20  1.107615E+06  3.871547E+05  1.454424E+05  4.035423E+05 -3.786067E+04  3.814079E+04
       246  21  1.026046E+06  3.839163E+05  1.250000E+05  3.992304E+05 -1.038314E+04  5.994356E+04
       246  22  2.242280E+05  5.552405E+04 -5.244003E+04  1.896252E+05  2.908830E+04  2.650103E+04
       246  23  2.362458E+05  8.232283E+04 -2.486975E+04  1.746975E+05  4.008267E+03  5.395119E+04
       246  24  2.299179E+05  9.513765E+04 -1.295813E+04  1.746875E+05 -1.266151E+04  5.909177E+04
       246  25 -7.301905E+05 -2.740687E+05 -2.901002E+05 -4.319529E+04  1.149672E+05  5.891269E+04
       246  26 -6.343164E+05 -2.224494E+05 -1.952035E+05 -5.385138E+04  4.581318E+04  6.973980E+04
       246  27 -5.655369E+05 -1.935764E+05 -1.509343E+05 -4.958577E+04 -1.493677E+04  5.824117E+04
       247   1  9.845029E+05  3.668061E+05  1.180315E+05  3.859491E+05  1.266084E+04 -5.757673E+04
       247   2  9.211362E+05  3.393263E+05  1.062698E+05  3.618104E+05  1.000587E+04 -5.670855E+04
       247   3  8.483083E+05  3.207048E+05  9.584174E+04  3.487641E+05  6.474713E+03 -5.352518E+04
       247   4  2.311312E+05  9.597675E+04 -9.659799E+03  1.753666E+05  1.362040E+04 -5.722234E+04
       247   5  2.365158E+05  9.328634E+04 -5.044935E+03  1.693416E+05  1.554859E+04 -5.462146E+04
       247   6  2.315273E+05  9.854634E+04 -2.727586E+03  1.744083E+05  1.659991E+04 -4.970396E+04
       247   7 -5.216467E+05 -1.748003E+05 -1.373688E+05 -3.498012E+04  1.457874E+04 -5.686841E+04
       247   8 -4.476074E+05 -1.527071E+05 -1.163709E+05 -2.292961E+04  2.108488E+04 -5.253680E+04
       247   9 -3.848454E+05 -1.235718E+05 -1.013039E+05  2.151804E+02  2.671446E+04 -4.588679E+04
       247  10  9.845018E+05  3.668025E+05  1.180250E+05  3.859497E+05  4.478357E-08  2.133113E-08
       247  11  9.211352E+05  3.393229E+05  1.062636E+05  3.618109E+05  2.985522E-08  1.814850E-08
       247  12  8.483075E+05  3.207017E+05  9.583628E+04  3.487644E+05  8.905920E-09  9.489075E-09
       247  13  2.311301E+05  9.597319E+04 -9.666302E+03  1.753673E+05 -1.084376E-08 -2.233178E-08
       247  14  2.365147E+05  9.328307E+04 -5.050996E+03  1.693423E+05  1.419075E-09 -2.204359E-08
       247  15  2.315264E+05  9.854362E+04 -2.732747E+03  1.744090E+05  3.495167E-09 -3.949513E-09
       247  16 -5.216478E+05 -1.748038E+05 -1.373753E+05 -3.497946E+04 -6.831232E-08 -2.746990E-08
       247  17 -4.476086E+05 -1.527102E+05 -1.163769E+05 -2.292872E+04 -2.999130E-08 -1.602038E-08
       247  18 -3.848467E+05 -1.235743E+05 -1.013092E+05  2.161680E+02  2.222621E-09 -5.570655E-09
       247  19  9.845029E+05  3.668061E+05  1.180315E+05  3.859491E+05 -1.266084E+04  5.757673E+04
       247  20  9.211362E+05  3.393263E+05  1.062698E+05  3.618104E+05 -1.000587E+04  5.670855E+04
       247  21  8.483083E+05  3.207048E+05  9.584174E+04  3.487641E+05 -6.474713E+03  5.352518E+04
       247  22  2.311312E+05  9.597675E+04 -9.659799E+03  1.753666E+05 -1.362040E+04  5.722234E+04
       247  23  2.365158E+05  9.328634E+04 -5.044935E+03  1.693416E+05 -1.554859E+04  5.462146E+04
       247  24  2.315273E+05  9.854634E+04 -2.727586E+03  1.744083E+05 -1.659991E+04  4.970396E+04
       247  25 -5.216467E+05 -1.748003E+05 -1.373688E+05 -3.498012E+04 -1.457874E+04  5.686841E+04
       247  26 -4.476074E+05 -1.527071E+05 -1.163709E+05 -2.292961E+04 -2.108488E+04  5.253680E+04
       247  27 -3.848454E+05 -1.235718E+05 -1.013039E+05  2.151804E+02 -2.671446E+04  4.588679E+04
       248   1  8.056578E+05  3.051382E+05  8.915679E+04  3.366382E+05  5.836092E+03 -5.028965E+04
       248   2  7.429855E+05  2.761414E+05  7.902502E+04  3.121377E+05  3.962146E+03 -4.509974E+04
       248   3  6.707062E+05  2.567570E+05  6.884143E+04  2.985505E+05  1.996014E+03 -3.967142E+04
       248   4  2.316430E+05  9.860785E+04 -2.038680E+03  1.744806E+05  1.582041E+04 -4.652026E+04
       248   5  2.365219E+05  9.393077E+04 -1.096646E+03  1.689994E+05  1.441811E+04 -4.114991E+04
       248   6  2.316938E+05  9.877262E+04 -5.814482E+02  1.744303E+05  1.292359E+04 -3.554102E+04
       248   7 -3.420109E+05 -1.078850E+05 -9.323807E+04  1.246574E+04  2.579486E+04 -4.275460E+04
       248   8 -2.696656E+05 -8.825253E+04 -8.122252E+04  2.597077E+04  2.486506E+04 -3.720351E+04
       248   9 -2.071161E+05 -5.919313E+04 -7.000872E+04  5.039128E+04  2.384310E+04 -3.141367E+04
       248  10  8.056571E+05  3.051355E+05  8.915198E+04  3.366385E+05  1.921101E-08  1.083240E-08
       248  11  7.429849E+05  2.761392E+05  7.902116E+04  3.121379E+05 -2.525564E-09  1.175883E-09
       248  12  6.707058E+05  2.567553E+05  6.883846E+04  2.985506E+05 -9.932993E-09  3.677326E-10
       248  13  2.316422E+05  9.860546E+04 -2.043218E+03  1.744812E+05  3.123314E-09  9.593127E-10
       248  14  2.365212E+05  9.392889E+04 -1.100219E+03  1.689998E+05 -4.262446E-09 -1.752160E-09
       248  15  2.316933E+05  9.877121E+04 -5.841362E+02  1.744307E+05 -4.184381E-09  5.074675E-10
       248  16 -3.420121E+05 -1.078872E+05 -9.324276E+04  1.246663E+04 -1.599297E-08 -7.146379E-09
       248  17 -2.696667E+05 -8.825418E+04 -8.122628E+04  2.597151E+04 -1.188107E-08 -4.403872E-10
       248  18 -2.071170E+05 -5.919435E+04 -7.001164E+04  5.039189E+04  6.989793E-10  2.576717E-09
       248  19  8.056578E+05  3.051382E+05  8.915679E+04  3.366382E+05 -5.836092E+03  5.028965E+04
       248  20  7.429855E+05  2.761414E+05  7.902502E+04  3.121377E+05 -3.962146E+03  4.509974E+04
       248  21  6.707062E+05  2.567570E+05  6.884143E+04  2.985505E+05 -1.996014E+03  3.967142E+04
       248  22  2.316430E+05  9.860785E+04 -2.038680E+03  1.744806E+05 -1.582041E+04  4.652026E+04
       248  23  2.365219E+05  9.393077E+04 -1.096646E+03  1.689994E+05 -1.441811E+04  4.114991E+04
       248  24  2.316938E+05  9.877262E+04 -5.814482E+02  1.744303E+05 -1.292359E+04  3.554102E+04
       248  25 -3.420109E+05 -1.078850E+05 -9.323807E+04  1.246574E+04 -2.579486E+04  4.275460E+04
       248  26 -2.696656E+05 -8.825253E+04 -8.122252E+04  2.597077E+04 -2.486506E+04  3.720351E+04
       248  27 -2.071161E+05 -5.919313E+04 -7.000872E+04  5.039128E+04 -2.384310E+04  3.141367E+04
       249   1  6.280375E+05  2.413511E+05  6.193386E+04  2.865081E+05  8.782447E+02 -3.641471E+04
       249   2  5.654620E+05  2.123341E+05  5.165243E+04  2.619976E+05 -1.161471E+03 -3.087334E+04
       249   3  4.932666E+05  1.929499E+05  4.133878E+04  2.483956E+05 -3.210918E+03 -2.530975E+04
       249   4  2.317135E+05  9.878162E+04 -4.206719E+02  1.744368E+05  1.178861E+04 -3.228973E+04
       249   5  2.365399E+05  9.398270E+04 -1.858641E+02  1.689821E+05  9.792515E+03 -2.673040E+04
       249   6  2.317323E+05  9.880717E+04 -1.875176E+01  1.744339E+05  7.786699E+03 -2.114888E+04
       249   7 -1.644410E+05 -4.377092E+04 -6.277740E+04  6.243294E+04  2.269160E+04 -2.816753E+04
       249   8 -9.226345E+04 -2.435631E+04 -5.202500E+04  7.601346E+04  2.074029E+04 -2.258982E+04
       249   9 -2.972499E+04  4.673061E+03 -4.137614E+04  1.005023E+05  1.877928E+04 -1.698991E+04
       249  10  6.280371E+05  2.413497E+05  6.193136E+04  2.865081E+05  1.249745E-08  7.394900E-09
       249  11  5.654617E+05  2.123331E+05  5.165064E+04  2.619976E+05  7.826408E-09  6.933235E-09
       249  12  4.932664E+05  1.929492E+05  4.133756E+04  2.483955E+05  3.824110E-09 -1.188782E-09
       249  13  2.317130E+05  9.878046E+04 -4.228927E+02  1.744371E+05 -5.358424E-10  2.875899E-09
       249  14  2.365396E+05  9.398191E+04 -1.873873E+02  1.689823E+05  6.163925E-09 -3.727899E-10
       249  15  2.317321E+05  9.880668E+04 -1.970636E+01  1.744340E+05  7.268740E-11 -3.660029E-09
       249  16 -1.644418E+05 -4.377191E+04 -6.277986E+04  6.243345E+04 -1.250509E-08 -2.870045E-09
       249  17 -9.226405E+04 -2.435698E+04 -5.202677E+04  7.601384E+04 -3.167074E-09 -3.503286E-09
       249  18 -2.972545E+04  4.672656E+03 -4.137735E+04  1.005026E+05 -5.895892E-09 -7.542394E-09
       249  19  6.280375E+05  2.413511E+05  6.193386E+04  2.865081E+05 -8.782447E+02  3.641471E+04
       249  20  5.654620E+05  2.123341E+05  5.165243E+04  2.619976E+05  1.161471E+03  3.087334E+04
       249  21  4.932666E+05  1.929499E+05  4.133878E+04  2.483956E+05  3.210918E+03  2.530975E+04
       249  22  2.317135E+05  9.878162E+04 -4.206719E+02  1.744368E+05 -1.178861E+04  3.228973E+04
       249  23  2.365399E+05  9.398270E+04 -1.858641E+02  1.689821E+05 -9.792515E+03  2.673040E+04
       249  24  2.317323E+05  9.880717E+04 -1.875176E+01  1.744339E+05 -7.786699E+03  2.114888E+04
       249  25 -1.644410E+05 -4.377092E+04 -6.277740E+04  6.243294E+04 -2.269160E+04  2.816753E+04
       249  26 -9.226345E+04 -2.435631E+04 -5.202500E+04  7.601346E+04 -2.074029E+04  2.258982E+04
       249  27 -2.972499E+04  4.673061E+03 -4.137614E+04  1.005023E+05 -1.877928E+04  1.698991E+04
       250   1  4.506237E+05  1.775599E+05  3.437629E+04  2.363640E+05 -4.435445E+03 -2.207484E+04
       250   2  3.880771E+05  1.485492E+05  2.408519E+04  2.118697E+05 -6.629218E+03 -1.655931E+04
       250   3  3.159216E+05  1.291707E+05  1.386475E+04  1.982841E+05 -8.819603E+03 -1.105433E+04
       250   4  2.317438E+05  9.881131E+04  5.571066E+01  1.744361E+05  6.559320E+03 -1.791442E+04
       250   5  2.365514E+05  9.399476E+04  2.303974E+02  1.689831E+05  4.344312E+03 -1.240622E+04
       250   6  2.317507E+05  9.881480E+04  4.925159E+02  1.744375E+05  2.132690E+03 -6.908604E+03
       250   7  1.291320E+04  2.006698E+04 -3.426590E+04  1.125280E+05  1.755011E+04 -1.375550E+04
       250   8  8.504965E+04  3.944254E+04 -2.362454E+04  1.261062E+05  1.531507E+04 -8.254182E+03
       250   9  1.475875E+05  6.845972E+04 -1.287934E+04  1.505940E+05  1.308342E+04 -2.763471E+03
       250  10  4.506236E+05  1.775594E+05  3.437534E+04  2.363639E+05 -1.496470E-08 -5.298222E-09
       250  11  3.880770E+05  1.485489E+05  2.408459E+04  2.118696E+05  5.228479E-08  2.501770E-08
       250  12  3.159215E+05  1.291706E+05  1.386437E+04  1.982841E+05  1.188511E-07  3.823791E-08
       250  13  2.317437E+05  9.881096E+04  5.502662E+01  1.744362E+05 -1.290946E-09  5.537832E-09
       250  14  2.365513E+05  9.399459E+04  2.300727E+02  1.689831E+05  3.984086E-09  1.851603E-09
       250  15  2.317507E+05  9.881475E+04  4.924176E+02  1.744375E+05  1.487228E-08  3.505565E-08
       250  16  1.291282E+04  2.006669E+04 -3.426683E+04  1.125282E+05  1.118879E-08 -7.390336E-10
       250  17  8.504938E+04  3.944241E+04 -2.362511E+04  1.261063E+05 -4.158601E-08 -1.834571E-08
       250  18  1.475874E+05  6.845966E+04 -1.287968E+04  1.505941E+05 -8.746563E-08 -4.033571E-08
       250  19  4.506237E+05  1.775599E+05  3.437629E+04  2.363640E+05  4.435445E+03  2.207484E+04
       250  20  3.880771E+05  1.485492E+05  2.408519E+04  2.118697E+05  6.629218E+03  1.655931E+04
       250  21  3.159216E+05  1.291707E+05  1.386475E+04  1.982841E+05  8.819603E+03  1.105433E+04
       250  22  2.317438E+05  9.881131E+04  5.571066E+01  1.744361E+05 -6.559320E+03  1.791442E+04
       250  23  2.365514E+05  9.399476E+04  2.303974E+02  1.689831E+05 -4.344312E+03  1.240622E+04
       250  24  2.317507E+05  9.881480E+04  4.925159E+02  1.744375E+05 -2.132690E+03  6.908604E+03
       250  25  1.291320E+04  2.006698E+04 -3.426590E+04  1.125280E+05 -1.755011E+04  1.375550E+04
       250  26  8.504965E+04  3.944254E+04 -2.362454E+04  1.261062E+05 -1.531507E+04  8.254182E+03
       250  27  1.475875E+05  6.845972E+04 -1.287934E+04  1.505940E+05 -1.308342E+04  2.763471E+03
       251   1  2.732970E+05  1.137886E+05  7.001755E+03  1.862792E+05 -1.014306E+04 -7.865764E+03
       251   2  2.107436E+05  8.476014E+04 -2.981353E+03  1.617738E+05 -1.260901E+04 -2.534201E+03
       251   3  1.386538E+05  6.543167E+04 -1.265282E+04  1.481645E+05 -1.502983E+04  2.678710E+03
       251   4  2.317731E+05  9.881162E+04  6.754664E+02  1.744454E+05  8.153109E+02 -3.717582E+03
       251   5  2.365282E+05  9.399708E+04  1.256964E+03  1.689761E+05 -1.886097E+03  1.524725E+03
       251   6  2.317883E+05  9.892837E+04  2.336150E+03  1.744006E+05 -4.542440E+03  6.648391E+03
       251   7  1.902518E+05  8.383507E+04 -5.650197E+03  1.626127E+05  1.177278E+04  4.302561E+02
       251   8  2.623139E+05  1.032342E+05  5.495759E+03  1.761786E+05  8.837284E+03  5.583827E+03
       251   9  3.249334E+05  1.324265E+05  1.732571E+04  2.006407E+05  5.946734E+03  1.061874E+04
       251  10  2.732969E+05  1.137885E+05  7.001446E+03  1.862791E+05 -8.118520E-08 -3.568115E-08
       251  11  2.107434E+05  8.476009E+04 -2.981663E+03  1.617738E+05 -4.733746E-08 -2.426309E-08
       251  12  1.386536E+05  6.543160E+04 -1.265325E+04  1.481645E+05  3.119125E-09 -6.208921E-09
       251  13  2.317731E+05  9.881160E+04  6.754392E+02  1.744454E+05  1.565627E-08  2.294094E-08
       251  14  2.365282E+05  9.399707E+04  1.256953E+03  1.689761E+05  9.827508E-10  9.528901E-09
       251  15  2.317883E+05  9.892831E+04  2.336028E+03  1.744006E+05  5.953268E-10  3.062733E-10
       251  16  1.902516E+05  8.383504E+04 -5.650457E+03  1.626127E+05  1.119052E-07  4.140498E-08
       251  17  2.623138E+05  1.032341E+05  5.495554E+03  1.761786E+05  5.258446E-08  2.423185E-08
       251  18  3.249333E+05  1.324263E+05  1.732543E+04  2.006406E+05 -6.648031E-09  4.083756E-09
       251  19  2.732970E+05  1.137886E+05  7.001755E+03  1.862792E+05  1.014306E+04  7.865764E+03
       251  20  2.107436E+05  8.476014E+04 -2.981353E+03  1.617738E+05  1.260901E+04  2.534201E+03
       251  21  1.386538E+05  6.543167E+04 -1.265282E+04  1.481645E+05  1.502983E+04 -2.678710E+03
       251  22  2.317731E+05  9.881162E+04  6.754664E+02  1.744454E+05 -8.153109E+02  3.717582E+03
       251  23  2.365282E+05  9.399708E+04  1.256964E+03  1.689761E+05  1.886097E+03 -1.524725E+03
       251  24  2.317883E+05  9.892837E+04  2.336150E+03  1.744006E+05  4.542440E+03 -6.648391E+03
       251  25  1.902518E+05  8.383507E+04 -5.650197E+03  1.626127E+05 -1.177278E+04 -4.302561E+02
       251  26  2.623139E+05  1.032342E+05  5.495759E+03  1.761786E+05 -8.837284E+03 -5.583827E+03
       251  27  3.249334E+05  1.324265E+05  1.732571E+04  2.006407E+05 -5.946734E+03 -1.061874E+04
       252   1  9.597447E+04  5.015196E+04 -1.905638E+04  1.363442E+05 -1.670914E+04  5.631949E+03
       252   2  3.392741E+04  2.088971E+04 -2.798445E+04  1.108934E+05 -1.915813E+04  1.015272E+04
       252   3 -3.707595E+04  2.550767E+03 -3.605888E+04  9.593986E+04 -2.117376E+04  1.353016E+04
       252   4  2.319542E+05  9.893743E+04  3.126824E+03  1.744442E+05 -6.154369E+03  9.626870E+03
       252   5  2.364093E+05  9.467111E+04  5.771404E+03  1.686576E+05 -1.086620E+04  1.329036E+04
       252   6  2.323513E+05  1.017752E+05  1.106276E+04  1.733661E+05 -1.514481E+04  1.581071E+04
       252   7  3.679540E+05  1.477249E+05  2.531008E+04  2.125521E+05  4.402856E+03  1.362270E+04
       252   8  4.389339E+05  1.684565E+05  3.952620E+04  2.264393E+05 -2.571444E+03  1.642908E+04
       252   9  5.018524E+05  2.010064E+05  5.818146E+04  2.508230E+05 -9.113136E+03  1.809232E+04
       252  10  9.597416E+04  5.015185E+04 -1.905696E+04  1.363443E+05 -3.471121E-09 -1.056868E-08
       252  11  3.392699E+04  2.088950E+04 -2.798533E+04  1.108935E+05 -5.471844E-09  3.224320E-09
       252  12 -3.707648E+04  2.550450E+03 -3.606006E+04  9.594009E+04 -4.861300E-09  4.340542E-10
       252  13  2.319542E+05  9.893732E+04  3.126578E+03  1.744443E+05  5.444574E-10 -1.752378E-09
       252  14  2.364091E+05  9.467089E+04  5.770850E+03  1.686578E+05  8.493568E-10  6.386591E-09
       252  15  2.323510E+05  1.017749E+05  1.106186E+04  1.733663E+05 -6.796110E-10 -1.362301E-09
       252  16  3.679539E+05  1.477246E+05  2.530970E+04  2.125520E+05  3.911016E-09  7.076019E-09
       252  17  4.389338E+05  1.684562E+05  3.952568E+04  2.264394E+05  6.044417E-09  5.484835E-09
       252  18  5.018522E+05  2.010060E+05  5.818069E+04  2.508232E+05  3.680363E-09  1.273229E-10
       252  19  9.597447E+04  5.015196E+04 -1.905638E+04  1.363442E+05  1.670914E+04 -5.631949E+03
       252  20  3.392741E+04  2.088971E+04 -2.798445E+04  1.108934E+05  1.915813E+04 -1.015272E+04
       252  21 -3.707595E+04  2.550767E+03 -3.605888E+04  9.593986E+04  2.117376E+04 -1.353016E+04
       252  22  2.319542E+05  9.893743E+04  3.126824E+03  1.744442E+05  6.154369E+03 -9.626870E+03
       252  23  2.364093E+05  9.467111E+04  5.771404E+03  1.686576E+05  1.086620E+04 -1.329036E+04
       252  24  2.323513E+05  1.017752E+05  1.106276E+04  1.733661E+05  1.514481E+04 -1.581071E+04
       252  25  3.679540E+05  1.477249E+05  2.531008E+04  2.125521E+05 -4.402856E+03 -1.362270E+04
       252  26  4.389339E+05  1.684565E+05  3.952620E+04  2.264393E+05  2.571444E+03 -1.642908E+04
       252  27  5.018524E+05  2.010064E+05  5.818146E+04  2.508230E+05  9.113136E+03 -1.809232E+04
       253   1 -8.039493E+04 -1.105979E+04 -4.089753E+04  8.613490E+04 -2.435456E+04  1.494158E+04
       253   2 -1.319089E+05 -4.351273E+04 -4.852155E+04  4.383620E+04 -1.652151E+04  1.547947E+04
       253   3 -1.851525E+05 -4.559005E+04 -5.543503E+04  5.500798E+03 -4.529348E+03  5.014512E+03
       253   4  2.341410E+05  1.022885E+05  1.484242E+04  1.736760E+05 -1.768011E+04  1.746598E+04
       253   5  2.360893E+05  1.076288E+05  2.846790E+04  1.631101E+05 -3.160480E+04  9.771538E+03
       253   6  2.406119E+05  1.476470E+05  6.005105E+04  1.565075E+05 -4.137197E+04 -8.921806E+03
       253   7  5.487868E+05  2.156481E+05  7.058085E+04  2.612598E+05 -1.100194E+04  1.999175E+04
       253   8  6.042278E+05  2.587918E+05  1.054510E+05  2.824527E+05 -4.669764E+04  4.059011E+03
       253   9  6.665501E+05  3.409178E+05  1.755242E+05  3.076137E+05 -7.824137E+04 -2.287317E+04
       253  10 -8.039563E+04 -1.106019E+04 -4.089907E+04  8.613519E+04 -4.530044E-09  3.892554E-09
       253  11 -1.319093E+05 -4.351306E+04 -4.852252E+04  4.383641E+04 -3.103800E-09  1.620008E-09
       253  12 -1.851525E+05 -4.559008E+04 -5.543512E+04  5.500816E+03  1.501304E-09 -1.061526E-09
       253  13  2.341406E+05  1.022880E+05  1.484126E+04  1.736762E+05  2.616107E-09  7.703846E-09
       253  14  2.360882E+05  1.076284E+05  2.846584E+04  1.631104E+05 -4.491529E-09  3.391756E-09
       253  15  2.406101E+05  1.476464E+05  6.004768E+04  1.565072E+05 -7.587181E-11  5.025648E-09
       253  16  5.487866E+05  2.156476E+05  7.057987E+04  2.612600E+05  4.110884E-09 -4.273389E-09
       253  17  6.042254E+05  2.587912E+05  1.054468E+05  2.824529E+05 -5.547712E-10  3.378351E-09
       253  18  6.665434E+05  3.409156E+05  1.755117E+05  3.076123E+05 -2.437407E-09 -3.760953E-10
       253  19 -8.039493E+04 -1.105979E+04 -4.089753E+04  8.613490E+04  2.435456E+04 -1.494158E+04
       253  20 -1.319089E+05 -4.351273E+04 -4.852155E+04  4.383620E+04  1.652151E+04 -1.547947E+04
       253  21 -1.851525E+05 -4.559005E+04 -5.543503E+04  5.500798E+03  4.529348E+03 -5.014512E+03
       253  22  2.341410E+05  1.022885E+05  1.484242E+04  1.736760E+05  1.768011E+04 -1.746598E+04
       253  23  2.360893E+05  1.076288E+05  2.846790E+04  1.631101E+05  3.160480E+04 -9.771538E+03
       253  24  2.406119E+05  1.476470E+05  6.005105E+04  1.565075E+05  4.137197E+04  8.921806E+03
       253  25  5.487868E+05  2.156481E+05  7.058085E+04  2.612598E+05  1.100194E+04 -1.999175E+04
       253  26  6.042278E+05  2.587918E+05  1.054510E+05  2.824527E+05  4.669764E+04 -4.059011E+03
       253  27  6.665501E+05  3.409178E+05  1.755242E+05  3.076137E+05  7.824137E+04  2.287317E+04
       254   1  3.360843E+05  5.823426E+04  5.104175E+04  6.183984E+03 -1.868033E+04 -2.239352E+03
       254   2  3.238537E+05  8.199217E+04  6.327296E+04 -1.193091E+03 -1.305751E+04 -6.399666E+03
       254   3  3.031431E+05  7.423750E+04  6.400356E+04  1.280943E+04 -7.453441E+03 -5.450106E+03
       254   4  9.534978E+03 -2.326964E+04 -3.016471E+04  9.849627E+03 -2.061340E+04 -2.246316E+03
       254   5  1.390425E+04  4.765958E+03 -1.300706E+04 -8.836594E+02 -1.352153E+04 -6.401663E+03
       254   6  9.533781E+03  1.025397E+03 -8.374503E+03  9.763387E+03 -6.448261E+03 -5.446076E+03
       254   7 -3.169176E+05 -1.047815E+05 -1.113791E+05  1.351326E+04 -2.254544E+04 -2.253305E+03
       254   8 -2.959578E+05 -7.246740E+04 -8.929418E+04 -5.744657E+02 -1.398533E+04 -6.403660E+03
       254   9 -2.839971E+05 -7.219310E+04 -8.075893E+04  6.718707E+03 -5.443555E+03 -5.442056E+03
       254  10  3.360839E+05  5.823416E+04  5.104109E+04  6.183950E+03 -4.289972E-09  3.333545E-09
       254  11  3.238535E+05  8.199208E+04  6.327257E+04 -1.193158E+03  1.415715E-10  1.835939E-08
       254  12  3.031430E+05  7.423745E+04  6.400340E+04  1.280939E+04  1.582181E-09  9.821562E-09
       254  13  9.534521E+03 -2.326976E+04 -3.016552E+04  9.849590E+03 -1.516958E-10 -2.382274E-09
       254  14  1.390404E+04  4.765865E+03 -1.300748E+04 -8.837291E+02  2.626687E-09 -5.331490E-09
       254  15  9.533728E+03  1.025354E+03 -8.374637E+03  9.763359E+03  5.186070E-10  5.882133E-09
       254  16 -3.169182E+05 -1.047816E+05 -1.113801E+05  1.351322E+04  2.617862E-09  1.021369E-09
       254  17 -2.959580E+05 -7.246750E+04 -8.929462E+04 -5.745379E+02 -1.057375E-09  1.103011E-08
       254  18 -2.839972E+05 -7.219314E+04 -8.075905E+04  6.718683E+03 -1.213040E-09  3.658685E-10
       254  19  3.360843E+05  5.823426E+04  5.104175E+04  6.183984E+03  1.868033E+04  2.239352E+03
       254  20  3.238537E+05  8.199217E+04  6.327296E+04 -1.193091E+03  1.305751E+04  6.399666E+03
       254  21  3.031431E+05  7.423750E+04  6.400356E+04  1.280943E+04  7.453441E+03  5.450106E+03
       254  22  9.534978E+03 -2.326964E+04 -3.016471E+04  9.849627E+03  2.061340E+04  2.246316E+03
       254  23  1.390425E+04  4.765958E+03 -1.300706E+04 -8.836594E+02  1.352153E+04  6.401663E+03
       254  24  9.533781E+03  1.025397E+03 -8.374503E+03  9.763387E+03  6.448261E+03  5.446076E+03
       254  25 -3.169176E+05 -1.047815E+05 -1.113791E+05  1.351326E+04  2.254544E+04  2.253305E+03
       254  26 -2.959578E+05 -7.246740E+04 -8.929418E+04 -5.744657E+02  1.398533E+04  6.403660E+03
       254  27 -2.839971E+05 -7.219310E+04 -8.075893E+04  6.718707E+03  5.443555E+03  5.442056E+03
       255   1  2.569827E+05  5.815378E+04  5.372372E+04  1.000395E+04 -5.005082E+03 -4.330962E+03
       255   2  2.412545E+05  5.782164E+04  5.316068E+04 -2.443184E+02 -3.432652E+03 -4.332932E+03
       255   3  2.242237E+05  5.334301E+04  5.052601E+04  1.084981E+04 -1.863428E+03 -3.706429E+03
       255   4  1.118754E+04 -3.121586E+03 -6.906957E+03  9.794205E+03 -5.096772E+03 -4.331470E+03
       255   5  1.185454E+04  6.394372E+02 -3.371766E+03 -8.845312E+02 -3.343895E+03 -4.332631E+03
       255   6  1.118667E+04  2.216904E+02 -2.034154E+03  9.779650E+03 -1.594186E+03 -3.705219E+03
       255   7 -2.345527E+05 -6.440145E+04 -6.754210E+04  9.584478E+03 -5.188425E+03 -4.331979E+03
       255   8 -2.174976E+05 -5.654668E+04 -5.990810E+04 -1.524561E+03 -3.255171E+03 -4.332330E+03
       255   9 -2.018092E+05 -5.290301E+04 -5.459768E+04  8.709805E+03 -1.325035E+03 -3.704009E+03
       255  10  2.569827E+05  5.815375E+04  5.372363E+04  1.000394E+04 -2.965926E-09 -2.104476E-09
       255  11  2.412545E+05  5.782161E+04  5.316062E+04 -2.443304E+02 -5.703604E-10  4.318022E-09
       255  12  2.242237E+05  5.334300E+04  5.052598E+04  1.084981E+04  3.954312E-09  1.312272E-08
       255  13  1.118751E+04 -3.121613E+03 -6.907041E+03  9.794187E+03  3.275233E-09  1.262205E-08
       255  14  1.185452E+04  6.394140E+02 -3.371822E+03 -8.845429E+02  3.328583E-09 -3.337934E-08
       255  15  1.118666E+04  2.216750E+02 -2.034184E+03  9.779645E+03  2.216939E-09  1.305351E-08
       255  16 -2.345527E+05 -6.440148E+04 -6.754219E+04  9.584460E+03  1.875117E-09 -9.410225E-09
       255  17 -2.174976E+05 -5.654671E+04 -5.990815E+04 -1.524573E+03  1.360916E-09 -7.839163E-09
       255  18 -2.018092E+05 -5.290303E+04 -5.459771E+04  8.709801E+03 -2.874555E-09  2.900300E-09
       255  19  2.569827E+05  5.815378E+04  5.372372E+04  1.000395E+04  5.005082E+03  4.330962E+03
       255  20  2.412545E+05  5.782164E+04  5.316068E+04 -2.443184E+02  3.432652E+03  4.332932E+03
       255  21  2.242237E+05  5.334301E+04  5.052601E+04  1.084981E+04  1.863428E+03  3.706429E+03
       255  22  1.118754E+04 -3.121586E+03 -6.906957E+03  9.794205E+03  5.096772E+03  4.331470E+03
       255  23  1.185454E+04  6.394372E+02 -3.371766E+03 -8.845312E+02  3.343895E+03  4.332631E+03
       255  24  1.118667E+04  2.216904E+02 -2.034154E+03  9.779650E+03  1.594186E+03  3.705219E+03
       255  25 -2.345527E+05 -6.440145E+04 -6.754210E+04  9.584478E+03  5.188425E+03  4.331979E+03
       255  26 -2.174976E+05 -5.654668E+04 -5.990810E+04 -1.524561E+03  3.255171E+03  4.332330E+03
       255  27 -2.018092E+05 -5.290301E+04 -5.459768E+04  8.709805E+03  1.325035E+03  3.704009E+03
       256   1  1.766862E+05  4.084393E+04  3.909024E+04  1.031786E+04 -1.405155E+03 -3.273837E+03
       256   2  1.605098E+05  3.720386E+04  3.589311E+04 -3.291642E+02 -1.014836E+03 -2.767917E+03
       256   3  1.439950E+05  3.318796E+04  3.230788E+04  1.034360E+04 -6.251727E+02 -2.185086E+03
       256   4  1.141309E+04 -3.500522E+02 -1.611439E+03  9.781034E+03 -1.270826E+03 -3.273233E+03
       256   5  1.158391E+04  7.644086E+01 -8.171996E+02 -8.801893E+02 -8.584519E+02 -2.767169E+03
       256   6  1.141251E+04  1.232510E+02 -4.263778E+02  9.778693E+03 -4.467233E+02 -2.184184E+03
       256   7 -1.538352E+05 -4.154606E+04 -4.231514E+04  9.244320E+03 -1.136534E+03 -3.272630E+03
       256   8 -1.373218E+05 -3.705263E+04 -3.752915E+04 -1.431107E+03 -7.021058E+02 -2.766421E+03
       256   9 -1.211540E+05 -3.294277E+04 -3.316194E+04  9.213888E+03 -2.683119E+02 -2.183283E+03
       256  10  1.766862E+05  4.084391E+04  3.909022E+04  1.031786E+04  2.905032E-09 -7.865916E-09
       256  11  1.605098E+05  3.720386E+04  3.589310E+04 -3.291665E+02 -4.107233E-09 -1.024088E-08
       256  12  1.439950E+05  3.318795E+04  3.230787E+04  1.034360E+04 -4.570329E-09 -7.285749E-09
       256  13  1.141308E+04 -3.500642E+02 -1.611462E+03  9.781031E+03  2.591963E-10 -1.892745E-09
       256  14  1.158390E+04  7.643244E+01 -8.172153E+02 -8.801912E+02  1.868271E-10 -1.382530E-08
       256  15  1.141251E+04  1.232458E+02 -4.263871E+02  9.778692E+03  1.750464E-09 -3.804011E-09
       256  16 -1.538352E+05 -4.154607E+04 -4.231516E+04  9.244317E+03 -3.504198E-09 -8.425160E-09
       256  17 -1.373218E+05 -3.705264E+04 -3.752917E+04 -1.431109E+03  3.222894E-09  1.885792E-09
       256  18 -1.211540E+05 -3.294277E+04 -3.316195E+04  9.213888E+03  3.569205E-09  1.368494E-08
       256  19  1.766862E+05  4.084393E+04  3.909024E+04  1.031786E+04  1.405155E+03  3.273837E+03
       256  20  1.605098E+05  3.720386E+04  3.589311E+04 -3.291642E+02  1.014836E+03  2.767917E+03
       256  21  1.439950E+05  3.318796E+04  3.230788E+04  1.034360E+04  6.251727E+02  2.185086E+03
       256  22  1.141309E+04 -3.500522E+02 -1.611439E+03  9.781034E+03  1.270826E+03  3.273233E+03
       256  23  1.158391E+04  7.644086E+01 -8.171996E+02 -8.801893E+02  8.584519E+02  2.767169E+03
       256  24  1.141251E+04  1.232510E+02 -4.263778E+02  9.778693E+03  4.467233E+02  2.184184E+03
       256  25 -1.538352E+05 -4.154606E+04 -4.231514E+04  9.244320E+03  1.136534E+03  3.272630E+03
       256  26 -1.373218E+05 -3.705263E+04 -3.752915E+04 -1.431107E+03  7.021058E+02  2.766421E+03
       256  27 -1.211540E+05 -3.294277E+04 -3.316194E+04  9.213888E+03  2.683119E+02  2.183283E+03
       257   1  9.630328E+04  2.118492E+04  2.057726E+04  1.010741E+04 -5.464327E+02 -1.837842E+03
       257   2  8.008322E+04  1.708259E+04  1.685526E+04 -6.002344E+02 -5.319264E+02 -1.270926E+03
       257   3  6.363669E+04  1.315680E+04  1.311229E+04  9.994236E+03 -5.175907E+02 -6.956872E+02
       257   4  1.144144E+04  3.747346E+01 -2.932275E+02  9.775805E+03 -3.843349E+02 -1.837001E+03
       257   5  1.155488E+04 -2.856838E+00 -3.850963E+01 -8.755798E+02 -3.674386E+02 -1.270055E+03
       257   6  1.144117E+04  1.329557E+02  1.935947E+02  9.775294E+03 -3.507124E+02 -6.947846E+02
       257   7 -7.341385E+04 -2.111051E+04 -2.116425E+04  9.444238E+03 -2.222592E+02 -1.836160E+03
       257   8 -5.696920E+04 -1.708865E+04 -1.693262E+04 -1.150900E+03 -2.029689E+02 -1.269184E+03
       257   9 -4.075187E+04 -1.289109E+04 -1.272530E+04  9.556368E+03 -1.838481E+02 -6.938822E+02
       257  10  9.630328E+04  2.118492E+04  2.057725E+04  1.010741E+04  3.979991E-10 -1.169806E-08
       257  11  8.008322E+04  1.708259E+04  1.685525E+04 -6.002350E+02 -5.508703E-09  7.088922E-09
       257  12  6.363669E+04  1.315680E+04  1.311229E+04  9.994236E+03 -5.204342E-09 -1.495082E-09
       257  13  1.144144E+04  3.746979E+01 -2.932341E+02  9.775805E+03 -7.586957E-10  2.148220E-09
       257  14  1.155488E+04 -2.858606E+00 -3.851292E+01 -8.755802E+02  1.800353E-09 -1.146135E-08
       257  15  1.144117E+04  1.329551E+02  1.935936E+02  9.775294E+03  2.063753E-09 -1.033439E-08
       257  16 -7.341385E+04 -2.111052E+04 -2.116425E+04  9.444238E+03 -5.906531E-10  8.228805E-09
       257  17 -5.696920E+04 -1.708866E+04 -1.693263E+04 -1.150901E+03  6.605561E-09  1.947405E-08
       257  18 -4.075187E+04 -1.289110E+04 -1.272530E+04  9.556368E+03  4.595456E-09  3.051588E-09
       257  19  9.630328E+04  2.118492E+04  2.057726E+04  1.010741E+04  5.464327E+02  1.837842E+03
       257  20  8.008322E+04  1.708259E+04  1.685526E+04 -6.002344E+02  5.319264E+02  1.270926E+03
       257  21  6.363669E+04  1.315680E+04  1.311229E+04  9.994236E+03  5.175907E+02  6.956872E+02
       257  22  1.144144E+04  3.747346E+01 -2.932275E+02  9.775805E+03  3.843349E+02  1.837001E+03
       257  23  1.155488E+04 -2.856837E+00 -3.850963E+01 -8.755798E+02  3.674386E+02  1.270055E+03
       257  24  1.144117E+04  1.329557E+02  1.935947E+02  9.775294E+03  3.507124E+02  6.947846E+02
       257  25 -7.341385E+04 -2.111051E+04 -2.116425E+04  9.444238E+03  2.222592E+02  1.836160E+03
       257  26 -5.696920E+04 -1.708865E+04 -1.693262E+04 -1.150900E+03  2.029689E+02  1.269184E+03
       257  27 -4.075187E+04 -1.289109E+04 -1.272530E+04  9.556368E+03  1.838481E+02  6.938822E+02
       258   1  1.596433E+04  1.201954E+03  1.376177E+03  9.812943E+03 -5.654472E+02 -3.584437E+02
       258   2 -3.013873E+02 -2.997040E+03 -2.259833E+03 -9.233759E+02 -8.958093E+02  2.146830E+02
       258   3 -1.669278E+04 -6.718223E+03 -5.620999E+03  9.637819E+03 -1.226100E+03  7.810179E+02
       258   4  1.146456E+04  8.996091E+01  3.178022E+02  9.774833E+03 -3.988955E+02 -3.575365E+02
       258   5  1.152750E+04 -4.773133E+01  6.562736E+02 -8.744592E+02 -7.312241E+02  2.155760E+02
       258   6  1.146461E+04  2.926805E+02  1.270899E+03  9.773733E+03 -1.063490E+03  7.818974E+02
       258   7  6.964806E+03 -1.022033E+03 -7.405735E+02  9.736724E+03 -2.323450E+02 -3.566293E+02
       258   8  2.335651E+04  2.901567E+03  3.572370E+03 -8.255418E+02 -5.666358E+02  2.164689E+02
       258   9  3.962272E+04  7.303525E+03  8.162740E+03  9.909653E+03 -9.008720E+02  7.827769E+02
       258  10  1.596433E+04  1.201953E+03  1.376176E+03  9.812943E+03 -4.599285E-09 -2.020774E-09
       258  11 -3.013882E+02 -2.997040E+03 -2.259835E+03 -9.233758E+02 -3.033885E-09 -7.576916E-09
       258  12 -1.669278E+04 -6.718224E+03 -5.621003E+03  9.637820E+03 -5.812153E-09 -8.250219E-09
       258  13  1.146456E+04  8.996073E+01  3.178017E+02  9.774833E+03  2.560171E-09  9.670680E-09
       258  14  1.152750E+04 -4.773152E+01  6.562725E+02 -8.744591E+02  4.011742E-09 -8.491178E-09
       258  15  1.146461E+04  2.926796E+02  1.270896E+03  9.773734E+03  8.621479E-10 -6.569957E-09
       258  16  6.964806E+03 -1.022033E+03 -7.405738E+02  9.736724E+03  3.414360E-09 -4.943936E-10
       258  17  2.335651E+04  2.901567E+03  3.572369E+03 -8.255417E+02  3.521230E-09 -2.318032E-08
       258  18  3.962272E+04  7.303524E+03  8.162738E+03  9.909653E+03  6.137361E-09 -1.504591E-08
       258  19  1.596433E+04  1.201954E+03  1.376177E+03  9.812943E+03  5.654472E+02  3.584437E+02
       258  20 -3.013873E+02 -2.997040E+03 -2.259833E+03 -9.233759E+02  8.958093E+02 -2.146830E+02
       258  21 -1.669278E+04 -6.718223E+03 -5.620999E+03  9.637819E+03  1.226100E+03 -7.810179E+02
       258  22  1.146456E+04  8.996091E+01  3.178022E+02  9.774833E+03  3.988955E+02  3.575365E+02
       258  23  1.152750E+04 -4.773133E+01  6.562736E+02 -8.744592E+02  7.312241E+02 -2.155760E+02
       258  24  1.146461E+04  2.926805E+02  1.270899E+03  9.773733E+03  1.063490E+03 -7.818974E+02
       258  25  6.964806E+03 -1.022033E+03 -7.405735E+02  9.736724E+03  2.323450E+02  3.566293E+02
       258  26  2.335651E+04  2.901567E+03  3.572370E+03 -8.255418E+02  5.666358E+02 -2.164689E+02
       258  27  3.962272E+04  7.303525E+03  8.162740E+03  9.909653E+03  9.008720E+02 -7.827769E+02
       259   1 -6.425693E+04 -1.887092E+04 -1.709854E+04  9.609906E+03 -1.505223E+03  1.124447E+03
       259   2 -8.082744E+04 -2.329398E+04 -1.992038E+04 -1.284140E+03 -2.916342E+03  1.697034E+03
       259   3 -9.692208E+04 -2.553872E+04 -2.133131E+04  9.118481E+03 -4.326945E+03  2.205420E+03
       259   4  1.159739E+04  5.099306E+01  1.653331E+03  9.776773E+03 -1.329034E+03  1.125389E+03
       259   5  1.135809E+04 -3.078316E+02  2.806483E+03 -8.752730E+02 -2.758833E+03  1.697851E+03
       259   6  1.159778E+04  1.514811E+03  5.383435E+03  9.769148E+03 -4.188152E+03  2.206115E+03
       259   7  8.745694E+04  1.897248E+04  2.040478E+04  9.943654E+03 -1.152824E+03  1.126330E+03
       259   8  1.035514E+05  2.267769E+04  2.553272E+04 -4.663554E+02 -2.601300E+03  1.698667E+03
       259   9  1.201284E+05  2.856747E+04  3.209731E+04  1.041991E+04 -4.049334E+03  2.206810E+03
       259  10 -6.425693E+04 -1.887092E+04 -1.709855E+04  9.609907E+03 -8.469576E-09 -3.127053E-09
       259  11 -8.082745E+04 -2.329399E+04 -1.992040E+04 -1.284136E+03 -2.592865E-09 -1.009765E-08
       259  12 -9.692210E+04 -2.553873E+04 -2.133135E+04  9.118489E+03  3.261574E-09  2.134832E-09
       259  13  1.159739E+04  5.099122E+01  1.653326E+03  9.776774E+03  1.456593E-09 -4.176800E-09
       259  14  1.135808E+04 -3.078368E+02  2.806463E+03 -8.752692E+02  2.819167E-09  9.232931E-10
       259  15  1.159776E+04  1.514801E+03  5.383393E+03  9.769155E+03  2.350658E-09  9.328325E-09
       259  16  8.745693E+04  1.897248E+04  2.040477E+04  9.943655E+03  9.422660E-09  8.303821E-09
       259  17  1.035513E+05  2.267768E+04  2.553270E+04 -4.663519E+02  3.474330E-09 -1.206761E-08
       259  18  1.201283E+05  2.856746E+04  3.209727E+04  1.041992E+04 -1.108919E-09  1.550069E-08
       259  19 -6.425693E+04 -1.887092E+04 -1.709854E+04  9.609906E+03  1.505223E+03 -1.124447E+03
       259  20 -8.082744E+04 -2.329398E+04 -1.992038E+04 -1.284140E+03  2.916342E+03 -1.697034E+03
       259  21 -9.692208E+04 -2.553872E+04 -2.133131E+04  9.118481E+03  4.326945E+03 -2.205420E+03
       259  22  1.159739E+04  5.099306E+01  1.653331E+03  9.776773E+03  1.329034E+03 -1.125389E+03
       259  23  1.135809E+04 -3.078316E+02  2.806483E+03 -8.752730E+02  2.758833E+03 -1.697851E+03
       259  24  1.159778E+04  1.514811E+03  5.383435E+03  9.769148E+03  4.188152E+03 -2.206115E+03
       259  25  8.745694E+04  1.897248E+04  2.040478E+04  9.943654E+03  1.152824E+03 -1.126330E+03
       259  26  1.035514E+05  2.267769E+04  2.553272E+04 -4.663554E+02  2.601300E+03 -1.698667E+03
       259  27  1.201284E+05  2.856747E+04  3.209731E+04  1.041991E+04  4.049334E+03 -2.206810E+03
       260   1 -1.438169E+05 -3.927250E+04 -3.178079E+04  1.016927E+04 -5.533798E+03  2.614454E+03
       260   2 -1.622660E+05 -4.522150E+04 -3.145328E+04 -1.974759E+03 -1.115734E+04  3.200085E+03
       260   3 -1.764906E+05 -3.656412E+04 -2.384567E+04  7.151056E+03 -1.677795E+04  3.261628E+03
       260   4  1.243143E+04 -3.151072E+02  6.787069E+03  9.785727E+03 -5.282422E+03  2.615707E+03
       260   5  1.030727E+04 -2.186595E+03  1.108544E+04 -8.750182E+02 -1.105830E+04  3.200507E+03
       260   6  1.243239E+04  1.057255E+04  2.276822E+04  9.733674E+03 -1.683139E+04  3.261258E+03
       260   7  1.687020E+05  3.864047E+04  4.535312E+04  9.402061E+03 -5.030984E+03  2.616959E+03
       260   8  1.829076E+05  4.084609E+04  5.362196E+04  2.249951E+02 -1.095924E+04  3.200929E+03
       260   9  2.013879E+05  5.770658E+04  6.937947E+04  1.231704E+04 -1.688486E+04  3.260887E+03
       260  10 -1.438169E+05 -3.927252E+04 -3.178086E+04  1.016928E+04  1.017932E-08  1.159004E-09
       260  11 -1.622661E+05 -4.522154E+04 -3.145353E+04 -1.974730E+03 -1.981860E-09  6.558660E-09
       260  12 -1.764909E+05 -3.656420E+04 -2.384621E+04  7.151100E+03 -2.586266E-09 -1.006073E-08
       260  13  1.243140E+04 -3.151221E+02  6.787003E+03  9.785738E+03  2.458099E-09 -1.271726E-08
       260  14  1.030714E+04 -2.186639E+03  1.108519E+04 -8.749897E+02  1.476197E-10  1.029486E-08
       260  15  1.243208E+04  1.057246E+04  2.276767E+04  9.733718E+03  6.237843E-10 -5.561372E-09
       260  16  1.687019E+05  3.864045E+04  4.535306E+04  9.402072E+03 -9.859003E-09 -2.061573E-09
       260  17  1.829075E+05  4.084605E+04  5.362172E+04  2.250234E+02 -4.685550E-10 -3.021129E-08
       260  18  2.013876E+05  5.770649E+04  6.937891E+04  1.231708E+04  4.434838E-09  9.482859E-10
       260  19 -1.438169E+05 -3.927250E+04 -3.178079E+04  1.016927E+04  5.533798E+03 -2.614454E+03
       260  20 -1.622660E+05 -4.522150E+04 -3.145328E+04 -1.974759E+03  1.115734E+04 -3.200085E+03
       260  21 -1.764906E+05 -3.656412E+04 -2.384567E+04  7.151056E+03  1.677795E+04 -3.261628E+03
       260  22  1.243143E+04 -3.151072E+02  6.787069E+03  9.785727E+03  5.282422E+03 -2.615707E+03
       260  23  1.030727E+04 -2.186595E+03  1.108544E+04 -8.750182E+02  1.105830E+04 -3.200507E+03
       260  24  1.243239E+04  1.057255E+04  2.276822E+04  9.733674E+03  1.683139E+04 -3.261258E+03
       260  25  1.687020E+05  3.864047E+04  4.535312E+04  9.402061E+03  5.030984E+03 -2.616959E+03
       260  26  1.829076E+05  4.084609E+04  5.362196E+04  2.249951E+02  1.095924E+04 -3.200929E+03
       260  27  2.013879E+05  5.770658E+04  6.937947E+04  1.231704E+04  1.688486E+04 -3.260887E+03
       261   1 -2.187323E+05 -6.198454E+04 -3.073309E+04  1.599658E+04 -2.218367E+04  4.221788E+03
       261   2 -2.496556E+05 -7.893733E+04 -1.956495E+04 -5.605778E+03 -4.421854E+04  5.004926E+03
       261   3 -2.513700E+05  9.482939E+03  3.229651E+04 -6.211632E+03 -6.623429E+04  1.524183E+03
       261   4  1.801677E+04 -3.028291E+03  2.763467E+04  9.819593E+03 -2.132097E+04  4.225923E+03
       261   5  3.313131E+03 -1.583291E+04  4.272062E+04 -8.436058E+02 -4.459199E+04  5.002886E+03
       261   6  1.802027E+04  7.692674E+04  9.934619E+04  9.488989E+03 -6.784450E+04  1.515955E+03
       261   7  2.548169E+05  5.592395E+04  8.599831E+04  3.640191E+03 -2.045793E+04  4.230039E+03
       261   8  2.563401E+05  4.726681E+04  1.050015E+05  3.920448E+03 -4.496558E+04  5.000841E+03
       261   9  2.874768E+05  1.443660E+05  1.663906E+05  2.519636E+04 -6.945541E+04  1.507649E+03
       261  10 -2.187328E+05 -6.198470E+04 -3.073405E+04  1.599665E+04  2.424666E-09 -1.196706E-08
       261  11 -2.496577E+05 -7.893788E+04 -1.956867E+04 -5.605600E+03  4.358895E-09 -1.249266E-09
       261  12 -2.513747E+05  9.481758E+03  3.228826E+04 -6.211551E+03  2.939639E-09  7.563936E-09
       261  13  1.801628E+04 -3.028433E+03  2.763378E+04  9.819665E+03  2.305761E-09  9.704017E-10
       261  14  3.310989E+03 -1.583348E+04  4.271684E+04 -8.434261E+02  1.098368E-09  1.468678E-09
       261  15  1.801532E+04  7.692550E+04  9.933754E+04  9.489072E+03 -2.044265E-09 -1.905627E-09
       261  16  2.548165E+05  5.592381E+04  8.599749E+04  3.640260E+03 -2.102104E-09  9.197447E-09
       261  17  2.563380E+05  4.726624E+04  1.049976E+05  3.920629E+03 -4.149773E-09  9.239371E-09
       261  18  2.874717E+05  1.443647E+05  1.663815E+05  2.519645E+04 -3.862606E-09  2.165712E-10
       261  19 -2.187323E+05 -6.198454E+04 -3.073309E+04  1.599658E+04  2.218367E+04 -4.221788E+03
       261  20 -2.496556E+05 -7.893733E+04 -1.956495E+04 -5.605778E+03  4.421854E+04 -5.004926E+03
       261  21 -2.513700E+05  9.482939E+03  3.229651E+04 -6.211632E+03  6.623429E+04 -1.524183E+03
       261  22  1.801677E+04 -3.028291E+03  2.763467E+04  9.819593E+03  2.132097E+04 -4.225923E+03
       261  23  3.313131E+03 -1.583291E+04  4.272062E+04 -8.436058E+02  4.459199E+04 -5.002886E+03
       261  24  1.802027E+04  7.692674E+04  9.934619E+04  9.488989E+03  6.784450E+04 -1.515955E+03
       261  25  2.548169E+05  5.592395E+04  8.599831E+04  3.640191E+03  2.045793E+04 -4.230039E+03
       261  26  2.563401E+05  4.726681E+04  1.050015E+05  3.920448E+03  4.496558E+04 -5.000841E+03
       261  27  2.874768E+05  1.443660E+05  1.663906E+05  2.519636E+04  6.945541E+04 -1.507649E+03
       262   1 -2.788779E+05 -1.365285E+06 -3.304771E+05  7.440202E+04 -2.445346E+03 -1.556686E+05
       262   2 -5.032072E+04 -1.275772E+06 -1.878628E+05  1.431330E+04 -7.877597E+03 -9.685246E+04
       262   3 -6.668224E+04 -1.254449E+06 -1.446888E+05  1.561774E+04 -5.735583E+03 -3.800823E+04
       262   4 -1.790101E+05 -9.671541E+05 -2.313818E+05  3.330753E+04 -2.444714E+03 -1.526992E+05
       262   5  3.513742E+04 -9.332560E+05 -1.038926E+05  2.902617E+03 -7.876993E+03 -9.639279E+04
       262   6  4.873889E+03 -9.670732E+05 -7.405406E+04  3.389344E+04 -5.731210E+03 -4.006380E+04
       262   7 -7.914794E+04 -5.688759E+05 -1.322975E+05 -7.813276E+03 -2.444478E+03 -1.497279E+05
       262   8  1.205873E+05 -5.906329E+05 -1.993087E+04 -8.514310E+03 -7.876405E+03 -9.593286E+04
       262   9  7.642517E+04 -6.796218E+05 -3.425169E+03  5.217768E+04 -5.726959E+03 -4.212031E+04
       262  10 -2.788845E+05 -1.365311E+06 -3.305227E+05  7.440172E+04  8.884187E-10 -1.427031E-10
       262  11 -5.032331E+04 -1.275782E+06 -1.878806E+05  1.431269E+04 -1.309866E-09 -2.438971E-09
       262  12 -6.668267E+04 -1.254450E+06 -1.446916E+05  1.561756E+04  2.285397E-09  1.396180E-11
       262  13 -1.790164E+05 -9.671791E+05 -2.314257E+05  3.330723E+04  3.301727E-09  1.143016E-09
       262  14  3.513485E+04 -9.332660E+05 -1.039102E+05  2.902006E+03  2.289928E-10  5.310140E-09
       262  15  4.873422E+03 -9.670749E+05 -7.405714E+04  3.389326E+04 -2.077116E-10  1.578419E-09
       262  16 -7.915397E+04 -5.689000E+05 -1.323396E+05 -7.813571E+03  1.975452E-09  3.197570E-09
       262  17  1.205848E+05 -5.906428E+05 -1.994830E+04 -8.514919E+03  4.331997E-09 -2.669807E-09
       262  18  7.642466E+04 -6.796237E+05 -3.428569E+03  5.217749E+04 -5.021314E-10  1.096724E-09
       262  19 -2.788779E+05 -1.365285E+06 -3.304771E+05  7.440202E+04  2.445346E+03  1.556686E+05
       262  20 -5.032072E+04 -1.275772E+06 -1.878628E+05  1.431330E+04  7.877597E+03  9.685246E+04
       262  21 -6.668224E+04 -1.254449E+06 -1.446888E+05  1.561774E+04  5.735583E+03  3.800823E+04
       262  22 -1.790101E+05 -9.671541E+05 -2.313818E+05  3.330753E+04  2.444714E+03  1.526992E+05
       262  23  3.513742E+04 -9.332560E+05 -1.038926E+05  2.902617E+03  7.876993E+03  9.639279E+04
       262  24  4.873889E+03 -9.670732E+05 -7.405406E+04  3.389344E+04  5.731210E+03  4.006380E+04
       262  25 -7.914794E+04 -5.688759E+05 -1.322975E+05 -7.813276E+03  2.444478E+03  1.497279E+05
       262  26  1.205873E+05 -5.906329E+05 -1.993087E+04 -8.514310E+03  7.876405E+03  9.593286E+04
       262  27  7.642517E+04 -6.796218E+05 -3.425169E+03  5.217768E+04  5.726959E+03  4.212031E+04
       263   1 -6.177692E+04 -1.113024E+06 -1.043801E+05  4.158180E+04 -3.376501E+03 -2.733829E+04
       263   2 -1.629148E+04 -1.047026E+06 -7.285244E+04  2.637347E+03 -2.181631E+03 -2.136315E+03
       263   3 -3.076622E+04 -9.988925E+05 -7.265737E+04  2.745969E+04 -6.168778E+02  2.306841E+04
       263   4 -2.257890E+04 -9.559925E+05 -6.581986E+04  3.421327E+04 -3.375227E+03 -2.770233E+04
       263   5  8.630880E+03 -9.470700E+05 -4.831320E+04  2.334453E+03 -2.180436E+03 -2.619900E+03
       263   6 -2.009322E+04 -9.559910E+05 -6.205138E+04  3.422245E+04 -6.152242E+02  2.246298E+04
       263   7  1.661749E+04 -7.989383E+05 -2.726145E+04  2.684289E+04 -3.373945E+03 -2.806646E+04
       263   8  3.355250E+04 -8.471047E+05 -2.377469E+04  2.031514E+03 -2.179241E+03 -3.103562E+03
       263   9 -9.420183E+03 -9.130877E+05 -5.144549E+04  4.098567E+04 -6.135838E+02  2.185752E+04
       263  10 -6.177713E+04 -1.113025E+06 -1.043815E+05  4.158173E+04  1.962397E-09  1.558326E-09
       263  11 -1.629149E+04 -1.047026E+06 -7.285246E+04  2.637344E+03  5.567840E-10  6.082430E-10
       263  12 -3.076636E+04 -9.988931E+05 -7.265838E+04  2.745970E+04 -2.062458E-09  1.351616E-09
       263  13 -2.257911E+04 -9.559934E+05 -6.582133E+04  3.421320E+04  6.428074E-10  1.846293E-11
       263  14  8.630873E+03 -9.470700E+05 -4.831322E+04  2.334448E+03 -2.841238E-10  3.422449E-09
       263  15 -2.009335E+04 -9.559916E+05 -6.205233E+04  3.422246E+04 -5.335875E-10 -3.872005E-10
       263  16  1.661727E+04 -7.989392E+05 -2.726295E+04  2.684281E+04 -2.764601E-09  1.056547E-09
       263  17  3.355249E+04 -8.471048E+05 -2.377471E+04  2.031509E+03 -5.020664E-10 -9.454761E-10
       263  18 -9.420312E+03 -9.130882E+05 -5.144639E+04  4.098568E+04  2.940621E-09 -3.174583E-10
       263  19 -6.177692E+04 -1.113024E+06 -1.043801E+05  4.158180E+04  3.376501E+03  2.733829E+04
       263  20 -1.629148E+04 -1.047026E+06 -7.285244E+04  2.637347E+03  2.181631E+03  2.136315E+03
       263  21 -3.076622E+04 -9.988925E+05 -7.265737E+04  2.745969E+04  6.168778E+02 -2.306841E+04
       263  22 -2.257890E+04 -9.559925E+05 -6.581986E+04  3.421327E+04  3.375227E+03  2.770233E+04
       263  23  8.630880E+03 -9.470700E+05 -4.831320E+04  2.334453E+03  2.180436E+03  2.619900E+03
       263  24 -2.009322E+04 -9.559910E+05 -6.205138E+04  3.422245E+04  6.152242E+02 -2.246298E+04
       263  25  1.661749E+04 -7.989383E+05 -2.726145E+04  2.684289E+04  3.373945E+03  2.806646E+04
       263  26  3.355250E+04 -8.471047E+05 -2.377469E+04  2.031514E+03  2.179241E+03  3.103562E+03
       263  27 -9.420183E+03 -9.130877E+05 -5.144549E+04  4.098567E+04  6.135838E+02 -2.185752E+04
       264   1  2.592253E+04 -8.765904E+05 -4.684605E+04  5.113150E+04  1.339000E+03  3.548740E+04
       264   2  6.810311E+04 -7.892383E+05 -5.865022E+04 -7.404708E+03  3.376861E+03  8.517304E+04
       264   3 -1.099565E+05 -7.629781E+05 -1.577872E+05 -2.736361E+03  1.081209E+03  1.348528E+05
       264   4  3.796154E+03 -9.656473E+05 -6.880291E+04  3.424735E+04  1.341413E+03  3.403200E+04
       264   5  3.172524E+04 -9.350003E+05 -9.435375E+04  2.431311E+03  3.378261E+03  8.516018E+04
       264   6 -1.608682E+05 -9.657195E+05 -2.082577E+05  3.382155E+04  1.085424E+03  1.362778E+05
       264   7 -1.832973E+04 -1.054696E+06 -9.076019E+04  1.736562E+04  1.343905E+03  3.257680E+04
       264   8 -4.653851E+03 -1.080743E+06 -1.300588E+05  1.226503E+04  3.379661E+03  8.514732E+04
       264   9 -2.117780E+05 -1.168421E+06 -2.587307E+05  7.036751E+04  1.089809E+03  1.377024E+05
       264  10  2.592219E+04 -8.765918E+05 -4.684843E+04  5.113147E+04 -8.217788E-10  2.091204E-09
       264  11  6.810115E+04 -7.892461E+05 -5.866389E+04 -7.404940E+03  2.503021E-09 -5.158428E-09
       264  12 -1.099614E+05 -7.629976E+05 -1.578214E+05 -2.736478E+03  5.472805E-10 -3.044786E-09
       264  13  3.795841E+03 -9.656485E+05 -6.880509E+04  3.424731E+04  1.534446E-09  1.145961E-09
       264  14  3.172328E+04 -9.350081E+05 -9.436742E+04  2.431079E+03  1.251924E-10  2.166814E-09
       264  15 -1.608732E+05 -9.657395E+05 -2.082927E+05  3.382143E+04  7.827793E-10  4.106743E-09
       264  16 -1.833001E+04 -1.054697E+06 -9.076219E+04  1.736558E+04  1.057058E-09  2.992088E-10
       264  17 -4.655814E+03 -1.080751E+06 -1.300725E+05  1.226479E+04  5.382817E-10  4.828229E-10
       264  18 -2.117831E+05 -1.168441E+06 -2.587664E+05  7.036739E+04 -3.370901E-10  1.075421E-09
       264  19  2.592253E+04 -8.765904E+05 -4.684605E+04  5.113150E+04 -1.339000E+03 -3.548740E+04
       264  20  6.810311E+04 -7.892383E+05 -5.865022E+04 -7.404708E+03 -3.376861E+03 -8.517304E+04
       264  21 -1.099565E+05 -7.629781E+05 -1.577872E+05 -2.736361E+03 -1.081209E+03 -1.348528E+05
       264  22  3.796154E+03 -9.656473E+05 -6.880291E+04  3.424735E+04 -1.341413E+03 -3.403200E+04
       264  23  3.172524E+04 -9.350003E+05 -9.435375E+04  2.431311E+03 -3.378261E+03 -8.516018E+04
       264  24 -1.608682E+05 -9.657195E+05 -2.082577E+05  3.382155E+04 -1.085424E+03 -1.362778E+05
       264  25 -1.832973E+04 -1.054696E+06 -9.076019E+04  1.736562E+04 -1.343905E+03 -3.257680E+04
       264  26 -4.653851E+03 -1.080743E+06 -1.300588E+05  1.226503E+04 -3.379661E+03 -8.514732E+04
       264  27 -2.117780E+05 -1.168421E+06 -2.587307E+05  7.036751E+04 -1.089809E+03 -1.377024E+05
       265   1  1.335691E+06  4.415221E+05  2.944138E+05  4.597130E+05  1.356470E+05  4.862272E+04
       265   2  1.288107E+06  2.325364E+05  1.645608E+05  4.791552E+05  8.830571E+04  2.537339E+04
       265   3  1.304782E+06  2.436345E+05  1.265767E+05  4.669866E+05  3.877793E+04  7.895235E+03
       265   4  1.045229E+06  3.001382E+05  2.087040E+05  3.481576E+05  1.332311E+05  4.769856E+04
       265   5  1.002640E+06  1.160308E+05  8.585926E+04  3.921196E+05  8.772902E+04  2.515293E+04
       265   6  1.023981E+06  1.516983E+05  5.346055E+04  4.044617E+05  4.003919E+04  8.374995E+03
       265   7  7.548511E+05  1.587775E+05  1.229864E+05  2.366552E+05  1.308165E+05  4.677516E+04
       265   8  7.172511E+05 -4.660994E+02  7.150281E+03  3.051214E+05  8.715261E+04  2.493259E+04
       265   9  7.432551E+05  5.976208E+04 -1.966220E+04  3.419597E+05  4.129982E+04  8.854590E+03
       265  10  1.335671E+06  4.415147E+05  2.943749E+05  4.597077E+05 -8.623964E-10  7.433841E-09
       265  11  1.288098E+06  2.325336E+05  1.645450E+05  4.791534E+05 -2.062452E-10  1.756954E-08
       265  12  1.304780E+06  2.436340E+05  1.265738E+05  4.669864E+05 -1.518836E-09  4.190772E-09
       265  13  1.045209E+06  3.001310E+05  2.086664E+05  3.481525E+05 -6.043140E-10 -7.431216E-09
       265  14  1.002631E+06  1.160280E+05  8.584364E+04  3.921178E+05 -3.851984E-09 -1.196655E-08
       265  15  1.023979E+06  1.516977E+05  5.345741E+04  4.044614E+05 -2.019068E-09 -2.588968E-09
       265  16  7.548321E+05  1.587706E+05  1.229501E+05  2.366503E+05 -1.282919E-09 -1.006206E-08
       265  17  7.172428E+05 -4.688016E+02  7.134861E+03  3.051197E+05 -2.736145E-09 -1.549311E-08
       265  18  7.432533E+05  5.976154E+04 -1.966555E+04  3.419594E+05 -1.982207E-09 -7.069744E-09
       265  19  1.335691E+06  4.415221E+05  2.944138E+05  4.597130E+05 -1.356470E+05 -4.862272E+04
       265  20  1.288107E+06  2.325364E+05  1.645608E+05  4.791552E+05 -8.830571E+04 -2.537339E+04
       265  21  1.304782E+06  2.436345E+05  1.265767E+05  4.669866E+05 -3.877793E+04 -7.895235E+03
       265  22  1.045229E+06  3.001382E+05  2.087040E+05  3.481576E+05 -1.332311E+05 -4.769856E+04
       265  23  1.002640E+06  1.160308E+05  8.585926E+04  3.921196E+05 -8.772902E+04 -2.515293E+04
       265  24  1.023981E+06  1.516983E+05  5.346055E+04  4.044617E+05 -4.003919E+04 -8.374995E+03
       265  25  7.548511E+05  1.587775E+05  1.229864E+05  2.366552E+05 -1.308165E+05 -4.677516E+04
       265  26  7.172511E+05 -4.660994E+02  7.150281E+03  3.051214E+05 -8.715261E+04 -2.493259E+04
       265  27  7.432551E+05  5.976208E+04 -1.966220E+04  3.419597E+05 -4.129982E+04 -8.854590E+03
       266   1  1.234213E+06  2.607600E+05  1.032840E+05  4.542306E+05  3.167840E+04  6.734014E+03
       266   2  1.218409E+06  2.198495E+05  7.449599E+04  4.444008E+05  2.074448E+04  2.725860E+03
       266   3  1.197695E+06  2.224543E+05  6.119016E+04  4.464803E+05  9.571940E+03 -6.540202E+02
       266   4  1.017601E+06  1.746438E+05  4.384973E+04  3.905642E+05  3.161191E+04  6.708389E+03
       266   5  1.018661E+06  1.430672E+05  2.026635E+04  3.883499E+05  2.087960E+04  2.777066E+03
       266   6  1.014775E+06  1.549716E+05  1.200971E+04  3.980441E+05  9.908322E+03 -5.261311E+02
       266   7  8.010333E+05  8.853180E+04 -1.558884E+04  3.269181E+05  3.154545E+04  6.682773E+03
       266   8  8.189521E+05  6.628770E+04 -3.396681E+04  3.323153E+05  2.101468E+04  2.828253E+03
       266   9  8.318874E+05  8.749057E+04 -3.717360E+04  3.496206E+05  1.024459E+04 -3.982812E+02
       266  10  1.234212E+06  2.607596E+05  1.032820E+05  4.542305E+05 -3.472404E-10  4.487181E-09
       266  11  1.218409E+06  2.198493E+05  7.449516E+04  4.444008E+05  6.002180E-10  4.533333E-09
       266  12  1.197695E+06  2.224543E+05  6.118999E+04  4.464803E+05  2.257430E-10 -2.987468E-09
       266  13  1.017599E+06  1.746435E+05  4.384777E+04  3.905640E+05 -2.669439E-09  3.042623E-09
       266  14  1.018661E+06  1.430671E+05  2.026552E+04  3.883498E+05 -2.109311E-09 -1.959817E-08
       266  15  1.014775E+06  1.549716E+05  1.200952E+04  3.980441E+05 -4.458439E-09 -8.040593E-11
       266  16  8.010322E+05  8.853149E+04 -1.559079E+04  3.269180E+05 -1.854653E-09 -8.668440E-10
       266  17  8.189516E+05  6.628757E+04 -3.396766E+04  3.323152E+05 -3.305462E-09 -9.050515E-09
       266  18  8.318873E+05  8.749054E+04 -3.717380E+04  3.496206E+05 -1.704083E-09  6.258183E-09
       266  19  1.234213E+06  2.607600E+05  1.032840E+05  4.542306E+05 -3.167840E+04 -6.734014E+03
       266  20  1.218409E+06  2.198495E+05  7.449599E+04  4.444008E+05 -2.074448E+04 -2.725860E+03
       266  21  1.197695E+06  2.224543E+05  6.119016E+04  4.464803E+05 -9.571940E+03  6.540202E+02
       266  22  1.017601E+06  1.746438E+05  4.384973E+04  3.905642E+05 -3.161191E+04 -6.708389E+03
       266  23  1.018661E+06  1.430672E+05  2.026635E+04  3.883499E+05 -2.087960E+04 -2.777066E+03
       266  24  1.014775E+06  1.549716E+05  1.200971E+04  3.980441E+05 -9.908322E+03  5.261311E+02
       266  25  8.010333E+05  8.853180E+04 -1.558884E+04  3.269181E+05 -3.154545E+04 -6.682773E+03
       266  26  8.189521E+05  6.628770E+04 -3.396681E+04  3.323153E+05 -2.101468E+04 -2.828253E+03
       266  27  8.318874E+05  8.749057E+04 -3.717360E+04  3.496206E+05 -1.024459E+04  3.982812E+02
       267   1  1.149174E+06  2.095095E+05  4.612287E+04  4.336712E+05  7.759033E+03 -7.582048E+02
       267   2  1.138595E+06  1.918953E+05  3.671635E+04  4.208686E+05  5.052664E+03 -1.074043E+03
       267   3  1.114418E+06  1.931807E+05  3.013109E+04  4.244232E+05  2.327547E+03 -1.341275E+03
       267   4  1.014042E+06  1.577289E+05  9.510206E+03  3.959093E+05  7.946828E+03 -6.868182E+02
       267   5  1.020657E+06  1.469953E+05  4.772944E+03  3.882200E+05  5.256316E+03 -9.965737E+02
       267   6  1.013672E+06  1.551590E+05  2.844994E+03  3.968881E+05  2.546981E+03 -1.257748E+03
       267   7  8.789274E+05  1.059493E+05 -2.710416E+04  3.581547E+05  8.134579E+03 -6.154490E+02
       267   8  9.027331E+05  1.020962E+05 -2.717174E+04  3.555770E+05  5.459926E+03 -9.191206E+02
       267   9  9.129360E+05  1.171378E+05 -2.444201E+04  3.693570E+05  2.766376E+03 -1.174237E+03
       267  10  1.149174E+06  2.095095E+05  4.612276E+04  4.336712E+05 -7.314878E-09 -1.084324E-08
       267  11  1.138595E+06  1.918953E+05  3.671630E+04  4.208686E+05 -6.450536E-09  4.530631E-09
       267  12  1.114418E+06  1.931807E+05  3.013108E+04  4.244232E+05 -2.058947E-09 -8.137489E-09
       267  13  1.014042E+06  1.577289E+05  9.510086E+03  3.959093E+05 -3.099395E-09  4.846833E-09
       267  14  1.020657E+06  1.469953E+05  4.772891E+03  3.882200E+05 -2.616013E-09  5.165481E-09
       267  15  1.013672E+06  1.551590E+05  2.844979E+03  3.968881E+05 -3.936191E-09  3.215725E-09
       267  16  8.789274E+05  1.059493E+05 -2.710429E+04  3.581547E+05  2.415472E-09  5.804654E-09
       267  17  9.027331E+05  1.020961E+05 -2.717179E+04  3.555770E+05 -9.754260E-09  2.109915E-08
       267  18  9.129360E+05  1.171378E+05 -2.444203E+04  3.693570E+05 -6.593820E-09 -1.766819E-10
       267  19  1.149174E+06  2.095095E+05  4.612287E+04  4.336712E+05 -7.759033E+03  7.582048E+02
       267  20  1.138595E+06  1.918953E+05  3.671635E+04  4.208686E+05 -5.052664E+03  1.074043E+03
       267  21  1.114418E+06  1.931807E+05  3.013109E+04  4.244232E+05 -2.327547E+03  1.341275E+03
       267  22  1.014042E+06  1.577289E+05  9.510206E+03  3.959093E+05 -7.946828E+03  6.868182E+02
       267  23  1.020657E+06  1.469953E+05  4.772944E+03  3.882200E+05 -5.256316E+03  9.965737E+02
       267  24  1.013672E+06  1.551590E+05  2.844994E+03  3.968881E+05 -2.546981E+03  1.257748E+03
       267  25  8.789274E+05  1.059493E+05 -2.710416E+04  3.581547E+05 -8.134579E+03  6.154490E+02
       267  26  9.027331E+05  1.020962E+05 -2.717174E+04  3.555770E+05 -5.459926E+03  9.191206E+02
       267  27  9.129360E+05  1.171378E+05 -2.444201E+04  3.693570E+05 -2.766376E+03  1.174237E+03
       268   1  1.071018E+06  1.772372E+05  1.775467E+04  4.123875E+05  1.768357E+03 -1.102409E+03
       268   2  1.061503E+06  1.631165E+05  1.245092E+04  3.996071E+05  7.962572E+02 -7.279635E+02
       268   3  1.037630E+06  1.642180E+05  7.836523E+03  4.031731E+05 -1.750579E+02 -3.557585E+02
       268   4  1.013658E+06  1.553928E+05  2.279230E+03  3.964868E+05  1.973522E+03 -1.024292E+03
       268   5  1.020818E+06  1.476469E+05  1.434191E+03  3.883649E+05  1.000780E+03 -6.500760E+02
       268   6  1.013619E+06  1.551233E+05  1.279106E+03  3.965895E+05  2.879939E+01 -2.781080E+02
       268   7  9.563012E+05  1.335487E+05 -1.319648E+04  3.805874E+05  2.178665E+03 -9.461822E+02
       268   8  9.801341E+05  1.321773E+05 -9.582685E+03  3.771234E+05  1.205288E+03 -5.721941E+02
       268   9  9.896089E+05  1.460286E+05 -5.278374E+03  3.900062E+05  2.326484E+02 -2.004606E+02
       268  10  1.071018E+06  1.772372E+05  1.775467E+04  4.123875E+05 -8.609095E-09 -1.089224E-08
       268  11  1.061503E+06  1.631165E+05  1.245092E+04  3.996071E+05 -7.175664E-10  1.603328E-08
       268  12  1.037630E+06  1.642180E+05  7.836522E+03  4.031731E+05  6.942538E-09  9.795322E-10
       268  13  1.013658E+06  1.553928E+05  2.279221E+03  3.964868E+05 -9.341223E-10 -4.229917E-09
       268  14  1.020818E+06  1.476469E+05  1.434188E+03  3.883649E+05  8.711118E-10  2.170466E-08
       268  15  1.013619E+06  1.551233E+05  1.279106E+03  3.965895E+05 -3.030825E-09 -1.181243E-08
       268  16  9.563012E+05  1.335487E+05 -1.319649E+04  3.805874E+05  6.809465E-09  5.397769E-09
       268  17  9.801341E+05  1.321773E+05 -9.582689E+03  3.771234E+05 -3.271558E-09 -8.819099E-09
       268  18  9.896089E+05  1.460286E+05 -5.278374E+03  3.900062E+05 -4.760100E-09  4.488589E-09
       268  19  1.071018E+06  1.772372E+05  1.775467E+04  4.123875E+05 -1.768357E+03  1.102409E+03
       268  20  1.061503E+06  1.631165E+05  1.245092E+04  3.996071E+05 -7.962572E+02  7.279635E+02
       268  21  1.037630E+06  1.642180E+05  7.836523E+03  4.031731E+05  1.750579E+02  3.557585E+02
       268  22  1.013658E+06  1.553928E+05  2.279230E+03  3.964868E+05 -1.973522E+03  1.024292E+03
       268  23  1.020818E+06  1.476469E+05  1.434191E+03  3.883649E+05 -1.000780E+03  6.500760E+02
       268  24  1.013619E+06  1.551233E+05  1.279106E+03  3.965895E+05 -2.879939E+01  2.781080E+02
       268  25  9.563012E+05  1.335487E+05 -1.319648E+04  3.805874E+05 -2.178665E+03  9.461822E+02
       268  26  9.801341E+05  1.321773E+05 -9.582685E+03  3.771234E+05 -1.205288E+03  5.721941E+02
       268  27  9.896089E+05  1.460286E+05 -5.278374E+03  3.900062E+05 -2.326484E+02  2.004606E+02
       269   1  9.954121E+05  1.482150E+05 -3.643654E+03  3.916276E+05 -5.357437E+02 -6.206172E+01
       269   2  9.859331E+05  1.343698E+05 -7.628438E+03  3.787428E+05 -1.698872E+03  2.365785E+02
       269   3  9.622209E+05  1.359056E+05 -1.073006E+04  3.821317E+05 -2.862285E+03  5.363263E+02
       269   4  1.013638E+06  1.550953E+05  1.344515E+03  3.965975E+05 -3.318691E+02  1.559658E+01
       269   5  1.020786E+06  1.476256E+05  1.810168E+03  3.883765E+05 -1.494710E+03  3.143321E+02
       269   6  1.013701E+06  1.555367E+05  3.158698E+03  3.964291E+05 -2.657862E+03  6.141658E+02
       269   7  1.031864E+06  1.619755E+05  6.332653E+03  4.015675E+05 -1.279879E+02  9.325734E+01
       269   8  1.055641E+06  1.608815E+05  1.124866E+04  3.980107E+05 -1.290536E+03  3.920904E+02
       269   9  1.065184E+06  1.751680E+05  1.704720E+04  4.107276E+05 -2.453421E+03  6.920123E+02
       269  10  9.954121E+05  1.482150E+05 -3.643655E+03  3.916276E+05  2.477316E-09 -1.653977E-08
       269  11  9.859331E+05  1.343698E+05 -7.628443E+03  3.787428E+05 -1.225721E-09 -1.304884E-08
       269  12  9.622209E+05  1.359056E+05 -1.073008E+04  3.821317E+05 -9.846433E-10 -7.011595E-09
       269  13  1.013638E+06  1.550953E+05  1.344514E+03  3.965975E+05  4.702414E-10  7.892909E-10
       269  14  1.020786E+06  1.476256E+05  1.810164E+03  3.883765E+05  7.682813E-10 -5.072840E-09
       269  15  1.013701E+06  1.555367E+05  3.158684E+03  3.964291E+05  3.535842E-09  1.296968E-08
       269  16  1.031864E+06  1.619755E+05  6.332653E+03  4.015675E+05  7.084885E-10 -2.889938E-10
       269  17  1.055641E+06  1.608815E+05  1.124865E+04  3.980107E+05  4.460547E-09 -1.706038E-09
       269  18  1.065184E+06  1.751680E+05  1.704718E+04  4.107276E+05  1.062584E-09 -6.782537E-09
       269  19  9.954121E+05  1.482150E+05 -3.643654E+03  3.916276E+05  5.357437E+02  6.206172E+01
       269  20  9.859331E+05  1.343698E+05 -7.628438E+03  3.787428E+05  1.698872E+03 -2.365785E+02
       269  21  9.622209E+05  1.359056E+05 -1.073006E+04  3.821317E+05  2.862285E+03 -5.363263E+02
       269  22  1.013638E+06  1.550953E+05  1.344515E+03  3.965975E+05  3.318691E+02 -1.559658E+01
       269  23  1.020786E+06  1.476256E+05  1.810168E+03  3.883765E+05  1.494710E+03 -3.143321E+02
       269  24  1.013701E+06  1.555367E+05  3.158698E+03  3.964291E+05  2.657862E+03 -6.141658E+02
       269  25  1.031864E+06  1.619755E+05  6.332653E+03  4.015675E+05  1.279879E+02 -9.325734E+01
       269  26  1.055641E+06  1.608815E+05  1.124866E+04  3.980107E+05  1.290536E+03 -3.920904E+02
       269  27  1.065184E+06  1.751680E+05  1.704720E+04  4.107276E+05  2.453421E+03 -6.920123E+02
       270   1  9.189595E+05  1.194552E+05 -2.165001E+04  3.711528E+05 -3.618597E+03  6.986514E+02
       270   2  9.086331E+05  1.041398E+05 -2.343048E+04  3.572690E+05 -7.390252E+03  3.048233E+01
       270   3  8.855269E+05  1.092587E+05 -2.117144E+04  3.592708E+05 -1.114310E+04 -6.862656E+02
       270   4  1.013799E+06  1.551123E+05  4.016019E+03  3.969313E+05 -3.400002E+03  7.818668E+02
       270   5  1.020457E+06  1.467671E+05  6.871432E+03  3.882750E+05 -7.187604E+03  1.075786E+02
       270   6  1.014338E+06  1.588585E+05  1.377851E+04  3.955042E+05 -1.095650E+04 -6.153297E+02
       270   7  1.108647E+06  1.907700E+05  2.968129E+04  4.227134E+05 -3.181369E+03  8.650960E+02
       270   8  1.132293E+06  1.893951E+05  3.717226E+04  4.192860E+05 -6.984914E+03  1.846904E+02
       270   9  1.143165E+06  2.084596E+05  4.872697E+04  4.317443E+05 -1.076986E+04 -5.443770E+02
       270  10  9.189595E+05  1.194552E+05 -2.165003E+04  3.711528E+05  1.148094E-08  9.483216E-09
       270  11  9.086330E+05  1.041398E+05 -2.343058E+04  3.572690E+05  6.019777E-09  2.027981E-09
       270  12  8.855268E+05  1.092586E+05 -2.117167E+04  3.592708E+05 -1.037412E-08 -2.761952E-09
       270  13  1.013799E+06  1.551123E+05  4.015996E+03  3.969313E+05  5.165725E-09 -8.039170E-09
       270  14  1.020457E+06  1.467670E+05  6.871335E+03  3.882750E+05  1.167663E-08 -9.161196E-09
       270  15  1.014338E+06  1.588585E+05  1.377829E+04  3.955042E+05  1.181462E-10 -1.121642E-10
       270  16  1.108647E+06  1.907700E+05  2.968127E+04  4.227134E+05 -8.628514E-09 -1.802614E-09
       270  17  1.132293E+06  1.893951E+05  3.717217E+04  4.192860E+05  1.016315E-08 -3.269267E-09
       270  18  1.143165E+06  2.084595E+05  4.872676E+04  4.317443E+05  1.363379E-08  4.459768E-09
       270  19  9.189595E+05  1.194552E+05 -2.165001E+04  3.711528E+05  3.618597E+03 -6.986514E+02
       270  20  9.086331E+05  1.041398E+05 -2.343048E+04  3.572690E+05  7.390252E+03 -3.048233E+01
       270  21  8.855269E+05  1.092587E+05 -2.117144E+04  3.592708E+05  1.114310E+04  6.862656E+02
       270  22  1.013799E+06  1.551123E+05  4.016019E+03  3.969313E+05  3.400002E+03 -7.818668E+02
       270  23  1.020457E+06  1.467671E+05  6.871432E+03  3.882750E+05  7.187604E+03 -1.075786E+02
       270  24  1.014338E+06  1.588585E+05  1.377851E+04  3.955042E+05  1.095650E+04  6.153297E+02
       270  25  1.108647E+06  1.907700E+05  2.968129E+04  4.227134E+05  3.181369E+03 -8.650960E+02
       270  26  1.132293E+06  1.893951E+05  3.717226E+04  4.192860E+05  6.984914E+03 -1.846904E+02
       270  27  1.143165E+06  2.084596E+05  4.872697E+04  4.317443E+05  1.076986E+04  5.443770E+02
       271   1  8.384577E+05  9.032738E+04 -3.002010E+04  3.525332E+05 -1.404169E+04 -1.208987E+03
       271   2  8.245997E+05  6.664075E+04 -2.302351E+04  3.340833E+05 -2.964062E+04 -6.277169E+03
       271   3  8.111042E+05  9.844051E+04  6.068246E+03  3.243298E+05 -4.500601E+04 -1.195766E+04
       271   4  1.015538E+06  1.547081E+05  1.741504E+04  3.984476E+05 -1.370994E+04 -1.082796E+03
       271   5  1.017393E+06  1.412409E+05  2.942517E+04  3.886644E+05 -2.950650E+04 -6.226376E+03
       271   6  1.019645E+06  1.832909E+05  6.368151E+04  3.875780E+05 -4.507003E+04 -1.198261E+04
       271   7  1.192649E+06  2.190900E+05  6.484735E+04  4.443733E+05 -1.337808E+04 -9.565704E+02
       271   8  1.210222E+06  2.158438E+05  8.187048E+04  4.432609E+05 -2.937235E+04 -6.175564E+03
       271   9  1.228227E+06  2.681459E+05  1.212909E+05  4.508460E+05 -4.513407E+04 -1.200756E+04
       271  10  8.384575E+05  9.032733E+04 -3.002048E+04  3.525332E+05 -7.943949E-09  3.800518E-09
       271  11  8.245987E+05  6.664048E+04 -2.302523E+04  3.340831E+05 -4.160271E-09  2.033205E-08
       271  12  8.111020E+05  9.843981E+04  6.064177E+03  3.243294E+05  1.171502E-09  1.589607E-08
       271  13  1.015538E+06  1.547080E+05  1.741468E+04  3.984475E+05 -5.391137E-09 -8.168432E-09
       271  14  1.017392E+06  1.412407E+05  2.942346E+04  3.886643E+05  9.982617E-10  1.044763E-08
       271  15  1.019642E+06  1.832902E+05  6.367743E+04  3.875775E+05 -4.498274E-09  7.713087E-09
       271  16  1.192648E+06  2.190899E+05  6.484702E+04  4.443733E+05  4.297067E-09  2.603692E-09
       271  17  1.210221E+06  2.158435E+05  8.186879E+04  4.432608E+05 -5.924520E-10 -1.433035E-08
       271  18  1.228225E+06  2.681452E+05  1.212868E+05  4.508456E+05 -8.953096E-09 -1.165904E-08
       271  19  8.384577E+05  9.032738E+04 -3.002010E+04  3.525332E+05  1.404169E+04  1.208987E+03
       271  20  8.245997E+05  6.664075E+04 -2.302351E+04  3.340833E+05  2.964062E+04  6.277169E+03
       271  21  8.111042E+05  9.844051E+04  6.068246E+03  3.243298E+05  4.500601E+04  1.195766E+04
       271  22  1.015538E+06  1.547081E+05  1.741504E+04  3.984476E+05  1.370994E+04  1.082796E+03
       271  23  1.017393E+06  1.412409E+05  2.942517E+04  3.886644E+05  2.950650E+04  6.226376E+03
       271  24  1.019645E+06  1.832909E+05  6.368151E+04  3.875780E+05  4.507003E+04  1.198261E+04
       271  25  1.192649E+06  2.190900E+05  6.484735E+04  4.443733E+05  1.337808E+04  9.565704E+02
       271  26  1.210222E+06  2.158438E+05  8.187048E+04  4.432609E+05  2.937235E+04  6.175564E+03
       271  27  1.228227E+06  2.681459E+05  1.212909E+05  4.508460E+05  4.513407E+04  1.200756E+04
       272   1  7.508098E+05  6.531354E+04  6.465049E+03  3.523705E+05 -5.829991E+04 -1.550224E+04
       272   2  7.186276E+05 -1.418769E+04  4.801086E+04  3.063910E+05 -1.255644E+05 -3.971614E+04
       272   3  7.874640E+05  2.166298E+05  2.195194E+05  2.047619E+05 -1.906962E+05 -6.954125E+04
       272   4  1.029108E+06  1.497512E+05  7.763999E+04  4.075216E+05 -5.706963E+04 -1.503284E+04
       272   5  9.938860E+05  1.022506E+05  1.247233E+05  3.944470E+05 -1.261327E+05 -3.993502E+04
       272   6  1.059983E+06  3.653381E+05  3.031475E+05  3.257373E+05 -1.930632E+05 -7.045587E+04
       272   7  1.307482E+06  2.341879E+05  1.488091E+05  4.626920E+05 -5.583874E+04 -1.456331E+04
       272   8  1.269217E+06  2.186985E+05  2.014283E+05  4.825398E+05 -1.267013E+05 -4.015403E+04
       272   9  1.332577E+06  5.140773E+05  3.867679E+05  4.467676E+05 -1.954313E+05 -7.137134E+04
       272  10  7.508061E+05  6.531237E+04  6.458220E+03  3.523698E+05  3.589413E-09  1.089932E-08
       272  11  7.186103E+05 -1.419360E+04  4.797832E+04  3.063870E+05 -3.150169E-09  1.272699E-09
       272  12  7.874237E+05  2.166149E+05  2.194421E+05  2.047512E+05 -3.485966E-09 -9.824087E-09
       272  13  1.029105E+06  1.497501E+05  7.763346E+04  4.075209E+05  2.539903E-09  5.792240E-09
       272  14  9.938685E+05  1.022446E+05  1.246904E+05  3.944430E+05 -1.434190E-09 -1.717504E-08
       272  15  1.059942E+06  3.653228E+05  3.030683E+05  3.257264E+05  2.865044E-09 -2.923245E-09
       272  16  1.307478E+06  2.341868E+05  1.488029E+05  4.626913E+05 -8.418690E-09 -5.065644E-09
       272  17  1.269199E+06  2.186924E+05  2.013952E+05  4.825357E+05  3.762448E-09 -2.949102E-10
       272  18  1.332534E+06  5.140616E+05  3.866867E+05  4.467564E+05  3.502449E-09  1.365889E-09
       272  19  7.508098E+05  6.531354E+04  6.465049E+03  3.523705E+05  5.829991E+04  1.550224E+04
       272  20  7.186276E+05 -1.418769E+04  4.801086E+04  3.063910E+05  1.255644E+05  3.971614E+04
       272  21  7.874640E+05  2.166298E+05  2.195194E+05  2.047619E+05  1.906962E+05  6.954125E+04
       272  22  1.029108E+06  1.497512E+05  7.763999E+04  4.075216E+05  5.706963E+04  1.503284E+04
       272  23  9.938860E+05  1.022506E+05  1.247233E+05  3.944470E+05  1.261327E+05  3.993502E+04
       272  24  1.059983E+06  3.653381E+05  3.031475E+05  3.257373E+05  1.930632E+05  7.045587E+04
       272  25  1.307482E+06  2.341879E+05  1.488091E+05  4.626920E+05  5.583874E+04  1.456331E+04
       272  26  1.269217E+06  2.186985E+05  2.014283E+05  4.825398E+05  1.267013E+05  4.015403E+04
       272  27  1.332577E+06  5.140773E+05  3.867679E+05  4.467676E+05  1.954313E+05  7.137134E+04
       273   1 -1.161636E+05 -1.085984E+06 -1.359785E+05  3.072342E+04 -1.197467E+03 -5.858218E+04
       273   2 -2.913524E+04 -1.051972E+06 -8.234286E+04  7.927257E+03 -3.909577E+03 -3.549889E+04
       273   3 -3.608582E+04 -1.044185E+06 -6.719734E+04  8.235706E+03 -3.078986E+03 -1.240102E+04
       273   4 -6.807646E+04 -8.942161E+05 -8.826297E+04  1.482205E+04 -1.201731E+03 -5.711917E+04
       273   5  1.346857E+04 -8.811953E+05 -4.047806E+04  3.404873E+03 -3.910333E+03 -3.521882E+04
       273   6  1.253859E+03 -8.941858E+05 -3.035266E+04  1.509271E+04 -3.075814E+03 -1.330473E+04
       273   7 -1.999116E+04 -7.024140E+05 -4.055009E+04 -1.084206E+03 -1.206071E+03 -5.565570E+04
       273   8  5.607028E+04 -7.103914E+05  1.384608E+03 -1.118735E+03 -3.911093E+03 -3.493867E+04
       273   9  3.859205E+04 -7.441663E+05  6.490400E+03  2.195139E+04 -3.072663E+03 -1.420865E+04
       273  10 -1.161645E+05 -1.085988E+06 -1.359849E+05  3.072336E+04  2.191236E-09  8.008282E-09
       273  11 -2.913559E+04 -1.051974E+06 -8.234526E+04  7.927145E+03  2.138469E-09  1.118921E-08
       273  12 -3.608587E+04 -1.044185E+06 -6.719764E+04  8.235675E+03 -1.723035E-09  4.044716E-09
       273  13 -6.807734E+04 -8.942196E+05 -8.826911E+04  1.482200E+04  1.519768E-09 -2.011122E-09
       273  14  1.346822E+04 -8.811966E+05 -4.048042E+04  3.404762E+03  3.356779E-09  1.907462E-09
       273  15  1.253801E+03 -8.941860E+05 -3.035301E+04  1.509267E+04 -3.113549E-09  7.494672E-09
       273  16 -1.999200E+04 -7.024173E+05 -4.055592E+04 -1.084260E+03  2.203203E-09  1.666807E-09
       273  17  5.606993E+04 -7.103927E+05  1.382282E+03 -1.118845E+03  3.662837E-09 -7.996110E-10
       273  18  3.859199E+04 -7.441665E+05  6.490002E+03  2.195135E+04 -4.935460E-09 -4.375541E-10
       273  19 -1.161636E+05 -1.085984E+06 -1.359785E+05  3.072342E+04  1.197467E+03  5.858218E+04
       273  20 -2.913524E+04 -1.051972E+06 -8.234286E+04  7.927257E+03  3.909577E+03  3.549889E+04
       273  21 -3.608582E+04 -1.044185E+06 -6.719734E+04  8.235706E+03  3.078986E+03  1.240102E+04
       273  22 -6.807646E+04 -8.942161E+05 -8.826297E+04  1.482205E+04  1.201731E+03  5.711917E+04
       273  23  1.346857E+04 -8.811953E+05 -4.047806E+04  3.404873E+03  3.910333E+03  3.521882E+04
       273  24  1.253859E+03 -8.941858E+05 -3.035266E+04  1.509271E+04  3.075814E+03  1.330473E+04
       273  25 -1.999116E+04 -7.024140E+05 -4.055009E+04 -1.084206E+03  1.206071E+03  5.565570E+04
       273  26  5.607028E+04 -7.103914E+05  1.384608E+03 -1.118735E+03  3.911093E+03  3.493867E+04
       273  27  3.859205E+04 -7.441663E+05  6.490400E+03  2.195139E+04  3.072663E+03  1.420865E+04
       274   1 -3.353285E+04 -9.908560E+05 -5.257599E+04  1.868905E+04 -2.099743E+03 -8.064636E+03
       274   2 -1.551277E+04 -9.648301E+05 -4.251365E+04  3.143867E+03 -1.737607E+03  4.061311E+03
       274   3 -2.626430E+04 -9.473523E+05 -4.750097E+04  1.188580E+04 -1.085358E+03  1.618854E+04
       274   4 -8.432282E+03 -8.903041E+05 -2.787104E+04  1.526248E+04 -2.099367E+03 -8.152785E+03
       274   5  4.129062E+03 -8.860398E+05 -2.317269E+04  3.113224E+03 -1.736950E+03  3.877266E+03
       274   6 -1.206257E+04 -8.903063E+05 -3.345593E+04  1.525101E+04 -1.084304E+03  1.590817E+04
       274   7  1.666757E+04 -7.897430E+05 -3.166822E+03  1.183537E+04 -2.098989E+03 -8.240949E+03
       274   8  2.377043E+04 -8.072439E+05 -3.832184E+03  3.082583E+03 -1.736292E+03  3.693199E+03
       274   9  2.138958E+03 -8.332573E+05 -1.941113E+04  1.861654E+04 -1.083254E+03  1.562779E+04
       274  10 -3.353287E+04 -9.908560E+05 -5.257612E+04  1.868903E+04 -1.844781E-09  1.042584E-08
       274  11 -1.551278E+04 -9.648302E+05 -4.251369E+04  3.143872E+03 -1.905900E-10  1.123502E-08
       274  12 -2.626437E+04 -9.473525E+05 -4.750146E+04  1.188582E+04 -1.085579E-09  3.857286E-09
       274  13 -8.432304E+03 -8.903042E+05 -2.787117E+04  1.526247E+04 -2.441687E-09  2.184991E-09
       274  14  4.129055E+03 -8.860399E+05 -2.317272E+04  3.113230E+03 -2.943921E-09 -7.989415E-10
       274  15 -1.206264E+04 -8.903066E+05 -3.345641E+04  1.525103E+04 -1.629848E-09 -5.811199E-09
       274  16  1.666755E+04 -7.897431E+05 -3.166958E+03  1.183536E+04 -3.915626E-09 -3.916564E-09
       274  17  2.377043E+04 -8.072439E+05 -3.832215E+03  3.082588E+03 -1.972455E-09 -5.364285E-09
       274  18  2.138891E+03 -8.332576E+05 -1.941159E+04  1.861655E+04 -1.250774E-09 -2.193871E-09
       274  19 -3.353285E+04 -9.908560E+05 -5.257599E+04  1.868905E+04  2.099743E+03  8.064636E+03
       274  20 -1.551277E+04 -9.648301E+05 -4.251365E+04  3.143867E+03  1.737607E+03 -4.061311E+03
       274  21 -2.626430E+04 -9.473523E+05 -4.750097E+04  1.188580E+04  1.085358E+03 -1.618854E+04
       274  22 -8.432282E+03 -8.903041E+05 -2.787104E+04  1.526248E+04  2.099367E+03  8.152785E+03
       274  23  4.129062E+03 -8.860398E+05 -2.317269E+04  3.113224E+03  1.736950E+03 -3.877266E+03
       274  24 -1.206257E+04 -8.903063E+05 -3.345593E+04  1.525101E+04  1.084304E+03 -1.590817E+04
       274  25  1.666757E+04 -7.897430E+05 -3.166822E+03  1.183537E+04  2.098989E+03  8.240949E+03
       274  26  2.377043E+04 -8.072439E+05 -3.832184E+03  3.082583E+03  1.736292E+03 -3.693199E+03
       274  27  2.138958E+03 -8.332573E+05 -1.941113E+04  1.861654E+04  1.083254E+03 -1.562779E+04
       275   1  1.199882E+03 -9.027759E+05 -3.970509E+04  2.533027E+04 -4.335320E+02  2.266945E+04
       275   2  2.249221E+04 -8.629521E+05 -5.081427E+04 -2.623670E+03  2.597575E+02  5.195726E+04
       275   3 -8.540133E+04 -8.590422E+05 -1.132603E+05 -6.315380E+03 -3.796799E+01  8.124256E+04
       275   4  2.865726E+03 -8.963937E+05 -3.816905E+04  1.537280E+04 -4.324277E+02  2.223674E+04
       275   5  1.859022E+04 -8.784276E+05 -5.460096E+04  3.074124E+03  2.605783E+02  5.185598E+04
       275   6 -9.493171E+04 -8.964359E+05 -1.226018E+05  1.503761E+04 -3.596510E+01  8.147166E+04
       275   7  4.531940E+03 -8.900112E+05 -3.663296E+04  5.415239E+03 -4.313096E+02  2.180404E+04
       275   8  1.468834E+04 -8.939028E+05 -5.838766E+04  8.771776E+03  2.613972E+02  5.175470E+04
       275   9 -1.044605E+05 -9.338275E+05 -1.319432E+05  3.638930E+04 -3.394631E+01  8.170076E+04
       275  10  1.199744E+03 -9.027764E+05 -3.970606E+04  2.533028E+04 -1.662848E-09  1.212861E-08
       275  11  2.249148E+04 -8.629550E+05 -5.081935E+04 -2.623681E+03  3.162514E-10  1.309860E-08
       275  12 -8.540311E+04 -8.590493E+05 -1.132727E+05 -6.315378E+03  1.831792E-10  5.825106E-10
       275  13  2.865593E+03 -8.963942E+05 -3.816998E+04  1.537281E+04 -1.170621E-09  4.391443E-09
       275  14  1.858950E+04 -8.784305E+05 -5.460602E+04  3.074113E+03 -1.634591E-09  1.543378E-09
       275  15 -9.493350E+04 -8.964431E+05 -1.226143E+05  1.503761E+04 -1.295668E-10 -2.529912E-09
       275  16  4.531812E+03 -8.900117E+05 -3.663386E+04  5.415246E+03 -4.925002E-10 -1.369815E-09
       275  17  1.468762E+04 -8.939057E+05 -5.839270E+04  8.771765E+03  1.363180E-09 -1.036985E-08
       275  18 -1.044623E+05 -9.338347E+05 -1.319558E+05  3.638930E+04 -3.906009E-10  1.899260E-09
       275  19  1.199882E+03 -9.027759E+05 -3.970509E+04  2.533027E+04  4.335320E+02 -2.266945E+04
       275  20  2.249221E+04 -8.629521E+05 -5.081427E+04 -2.623670E+03 -2.597575E+02 -5.195726E+04
       275  21 -8.540133E+04 -8.590422E+05 -1.132603E+05 -6.315380E+03  3.796799E+01 -8.124256E+04
       275  22  2.865726E+03 -8.963937E+05 -3.816905E+04  1.537280E+04  4.324277E+02 -2.223674E+04
       275  23  1.859022E+04 -8.784276E+05 -5.460096E+04  3.074124E+03 -2.605783E+02 -5.185598E+04
       275  24 -9.493171E+04 -8.964359E+05 -1.226018E+05  1.503761E+04  3.596510E+01 -8.147166E+04
       275  25  4.531940E+03 -8.900112E+05 -3.663296E+04  5.415239E+03  4.313096E+02 -2.180404E+04
       275  26  1.468834E+04 -8.939028E+05 -5.838766E+04  8.771776E+03 -2.613972E+02 -5.175470E+04
       275  27 -1.044605E+05 -9.338275E+05 -1.319432E+05  3.638930E+04  3.394631E+01 -8.170076E+04
       276   1  3.566224E+05 -1.608510E+04  3.881079E+03  1.831873E+03  5.724132E+04  2.300542E+03
       276   2  3.631880E+05 -9.193747E+04 -3.987347E+04  5.074775E+03  3.843776E+04  6.477520E+03
       276   3  3.955374E+05 -7.609174E+04 -4.838313E+04 -1.697815E+04  1.964029E+04  5.423040E+03
       276   4  6.898436E+05  6.703937E+04  8.671231E+04 -1.078047E+04  5.922832E+04  2.302275E+03
       276   5  6.768379E+05 -1.381955E+04  3.728601E+04  1.917873E+03  3.890772E+04  6.477661E+03
       276   6  6.898651E+05 -2.742379E+03  2.414384E+04 -1.067856E+04  1.859382E+04  5.422176E+03
       276   7  1.023166E+06  1.501561E+05  1.695353E+05 -2.339962E+04  6.121639E+04  2.303926E+03
       276   8  9.905773E+05  6.429109E+04  1.144382E+05 -1.240652E+03  3.937791E+04  6.477797E+03
       276   9  9.842717E+05  7.060068E+04  9.666443E+04 -4.375989E+03  1.754685E+04  5.421291E+03
       276  10  3.566188E+05 -1.608599E+04  3.874915E+03  1.831767E+03  5.016127E-10 -4.963254E-11
       276  11  3.631864E+05 -9.193791E+04 -3.987633E+04  5.074574E+03 -8.448208E-11 -1.721176E-10
       276  12  3.955370E+05 -7.609187E+04 -4.838391E+04 -1.697824E+04  1.703191E-10  1.461083E-10
       276  13  6.898399E+05  6.703842E+04  8.670572E+04 -1.078058E+04  5.673963E-10 -7.657267E-11
       276  14  6.768363E+05 -1.382000E+04  3.728309E+04  1.917670E+03  2.816969E-10 -1.047515E-10
       276  15  6.898647E+05 -2.742504E+03  2.414313E+04 -1.067864E+04  6.093902E-11  4.829642E-11
       276  16  1.023162E+06  1.501551E+05  1.695283E+05 -2.339973E+04 -3.444655E-12 -1.307109E-10
       276  17  9.905756E+05  6.429063E+04  1.144353E+05 -1.240858E+03 -1.145955E-09 -2.026620E-10
       276  18  9.842713E+05  7.060056E+04  9.666380E+04 -4.376066E+03 -4.899210E-10  7.031048E-11
       276  19  3.566224E+05 -1.608510E+04  3.881079E+03  1.831873E+03 -5.724132E+04 -2.300542E+03
       276  20  3.631880E+05 -9.193747E+04 -3.987347E+04  5.074775E+03 -3.843776E+04 -6.477520E+03
       276  21  3.955374E+05 -7.609174E+04 -4.838313E+04 -1.697815E+04 -1.964029E+04 -5.423040E+03
       276  22  6.898436E+05  6.703937E+04  8.671231E+04 -1.078047E+04 -5.922832E+04 -2.302275E+03
       276  23  6.768379E+05 -1.381955E+04  3.728601E+04  1.917873E+03 -3.890772E+04 -6.477661E+03
       276  24  6.898651E+05 -2.742379E+03  2.414384E+04 -1.067856E+04 -1.859382E+04 -5.422176E+03
       276  25  1.023166E+06  1.501561E+05  1.695353E+05 -2.339962E+04 -6.121639E+04 -2.303926E+03
       276  26  9.905773E+05  6.429109E+04  1.144382E+05 -1.240652E+03 -3.937791E+04 -6.477797E+03
       276  27  9.842717E+05  7.060068E+04  9.666443E+04 -4.375989E+03 -1.754685E+04 -5.421291E+03
       277   1  4.445538E+05 -5.078218E+04 -3.937770E+04 -8.693358E+03  1.459215E+04  4.237670E+03
       277   2  4.603201E+05 -5.737641E+04 -4.513902E+04  1.659605E+03  9.715404E+03  4.193343E+03
       277   3  4.800527E+05 -5.143170E+04 -4.455203E+04 -1.111842E+04  4.838511E+03  3.536060E+03
       277   4  6.849714E+05  9.123809E+03  1.989611E+04 -1.023313E+04  1.467247E+04  4.237582E+03
       277   5  6.829753E+05 -1.904696E+03  9.704443E+03  1.335204E+03  9.617344E+03  4.193195E+03
       277   6  6.849747E+05 -3.657830E+02  5.983108E+03 -1.022690E+04  4.562216E+03  3.535930E+03
       277   7  9.254416E+05  6.902550E+04  7.916566E+04 -1.177351E+04  1.475281E+04  4.237494E+03
       277   8  9.056756E+05  5.356333E+04  6.454425E+04  1.010681E+03  9.519248E+03  4.193048E+03
       277   9  8.899349E+05  5.069701E+04  5.651514E+04 -9.335083E+03  4.285830E+03  3.535800E+03
       277  10  4.445535E+05 -5.078225E+04 -3.937814E+04 -8.693408E+03  1.314610E-10  1.068334E-10
       277  11  4.603200E+05 -5.737645E+04 -4.513923E+04  1.659572E+03 -4.806471E-10 -8.957895E-11
       277  12  4.800526E+05 -5.143172E+04 -4.455210E+04 -1.111844E+04  9.253308E-11  2.089965E-10
       277  13  6.849712E+05  9.123732E+03  1.989568E+04 -1.023318E+04  1.482857E-10  1.917334E-10
       277  14  6.829752E+05 -1.904740E+03  9.704236E+03  1.335171E+03 -4.508484E-10 -1.225093E-10
       277  15  6.849747E+05 -3.658020E+02  5.983045E+03 -1.022691E+04  8.811647E-10  1.377975E-10
       277  16  9.254414E+05  6.902542E+04  7.916522E+04 -1.177356E+04 -1.139335E-10  5.883765E-11
       277  17  9.056755E+05  5.356328E+04  6.454404E+04  1.010648E+03  6.243811E-12 -1.013949E-10
       277  18  8.899348E+05  5.069699E+04  5.651508E+04 -9.335095E+03  1.410165E-10  1.748231E-10
       277  19  4.445538E+05 -5.078218E+04 -3.937770E+04 -8.693358E+03 -1.459215E+04 -4.237670E+03
       277  20  4.603201E+05 -5.737641E+04 -4.513902E+04  1.659605E+03 -9.715404E+03 -4.193343E+03
       277  21  4.800527E+05 -5.143170E+04 -4.455203E+04 -1.111842E+04 -4.838511E+03 -3.536060E+03
       277  22  6.849714E+05  9.123809E+03  1.989611E+04 -1.023313E+04 -1.467247E+04 -4.237582E+03
       277  23  6.829753E+05 -1.904696E+03  9.704443E+03  1.335204E+03 -9.617344E+03 -4.193195E+03
       277  24  6.849747E+05 -3.657830E+02  5.983108E+03 -1.022690E+04 -4.562216E+03 -3.535930E+03
       277  25  9.254416E+05  6.902550E+04  7.916566E+04 -1.177351E+04 -1.475281E+04 -4.237494E+03
       277  26  9.056756E+05  5.356333E+04  6.454425E+04  1.010681E+03 -9.519248E+03 -4.193048E+03
       277  27  8.899349E+05  5.069701E+04  5.651514E+04 -9.335083E+03 -4.285830E+03 -3.535800E+03
       278   1  5.293100E+05 -3.736558E+04 -3.335689E+04 -9.726505E+03  3.738588E+03  3.087567E+03
       278   2  5.456276E+05 -3.471523E+04 -3.149823E+04  9.799474E+02  2.450559E+03  2.561945E+03
       278   3  5.626067E+05 -3.034780E+04 -2.835917E+04 -1.001578E+04  1.162265E+03  1.979314E+03
       278   4  6.842395E+05  1.225211E+03  4.770822E+03 -9.911357E+03  3.595957E+03  3.087500E+03
       278   5  6.839076E+05 -2.646250E+02  2.568037E+03  9.396431E+02  2.291207E+03  2.561911E+03
       278   6  6.842398E+05 -3.462606E+01  1.657099E+03 -9.911234E+03  9.862273E+02  1.979320E+03
       278   7  8.391909E+05  3.981422E+04  4.289677E+04 -1.009626E+04  3.453290E+03  3.087433E+03
       278   8  8.222049E+05  3.418456E+04  3.663289E+04  8.993298E+02  2.131820E+03  2.561878E+03
       278   9  8.058863E+05  3.027745E+04  3.167227E+04 -9.806667E+03  8.101548E+02  1.979327E+03
       278  10  5.293100E+05 -3.736560E+04 -3.335693E+04 -9.726514E+03  3.442287E-10  1.556617E-10
       278  11  5.456276E+05 -3.471524E+04 -3.149825E+04  9.799424E+02  8.470490E-11 -2.625196E-12
       278  12  5.626067E+05 -3.034781E+04 -2.835918E+04 -1.001578E+04  1.658510E-10  9.834239E-12
       278  13  6.842395E+05  1.225198E+03  4.770780E+03 -9.911366E+03  2.863052E-10  6.192932E-11
       278  14  6.839076E+05 -2.646334E+02  2.568014E+03  9.396383E+02 -1.262427E-10 -1.615200E-10
       278  15  6.842398E+05 -3.463053E+01  1.657089E+03 -9.911236E+03  4.027710E-11  4.509594E-11
       278  16  8.391908E+05  3.981421E+04  4.289673E+04 -1.009626E+04 -3.291054E-10  1.144781E-10
       278  17  8.222049E+05  3.418455E+04  3.663287E+04  8.993254E+02 -2.654292E-10 -1.643488E-10
       278  18  8.058863E+05  3.027744E+04  3.167226E+04 -9.806668E+03 -6.057204E-11  1.744590E-11
       278  19  5.293100E+05 -3.736558E+04 -3.335689E+04 -9.726505E+03 -3.738588E+03 -3.087567E+03
       278  20  5.456276E+05 -3.471523E+04 -3.149823E+04  9.799474E+02 -2.450559E+03 -2.561945E+03
       278  21  5.626067E+05 -3.034780E+04 -2.835917E+04 -1.001578E+04 -1.162265E+03 -1.979314E+03
       278  22  6.842395E+05  1.225211E+03  4.770822E+03 -9.911357E+03 -3.595957E+03 -3.087500E+03
       278  23  6.839076E+05 -2.646250E+02  2.568037E+03  9.396431E+02 -2.291207E+03 -2.561911E+03
       278  24  6.842398E+05 -3.462606E+01  1.657099E+03 -9.911234E+03 -9.862273E+02 -1.979320E+03
       278  25  8.391909E+05  3.981422E+04  4.289677E+04 -1.009626E+04 -3.453290E+03 -3.087433E+03
       278  26  8.222049E+05  3.418456E+04  3.663289E+04  8.993298E+02 -2.131820E+03 -2.561878E+03
       278  27  8.058863E+05  3.027745E+04  3.167227E+04 -9.806667E+03 -8.101548E+02 -1.979327E+03
       279   1  6.100376E+05 -1.828576E+04 -1.681633E+04 -9.700051E+03  8.734676E+02  1.635069E+03
       279   2  6.260157E+05 -1.450792E+04 -1.324858E+04  7.405353E+02  3.481707E+02  1.072169E+03
       279   3  6.421396E+05 -1.040927E+04 -9.259563E+03 -9.748165E+03 -1.772520E+02  5.100588E+02
       279   4  6.841274E+05  1.621954E+02  1.386300E+03 -9.739522E+03  7.111382E+02  1.635095E+03
       279   5  6.840547E+05 -4.885088E+01  1.049633E+03  7.250504E+02  1.860145E+02  1.072209E+03
       279   6  6.841273E+05  6.081584E+01  1.134030E+03 -9.739540E+03 -3.392215E+02  5.101140E+02
       279   7  7.582223E+05  1.860974E+04  1.958853E+04 -9.778998E+03  5.487894E+02  1.635120E+03
       279   8  7.420968E+05  1.440996E+04  1.534760E+04  7.095642E+02  2.384311E+01  1.072249E+03
       279   9  7.261165E+05  1.053077E+04  1.152749E+04 -9.730915E+03 -5.012019E+02  5.101692E+02
       279  10  6.100376E+05 -1.828576E+04 -1.681634E+04 -9.700052E+03 -3.170389E-10  2.750055E-11
       279  11  6.260157E+05 -1.450792E+04 -1.324858E+04  7.405350E+02 -3.979545E-10  1.317818E-10
       279  12  6.421396E+05 -1.040927E+04 -9.259563E+03 -9.748165E+03  6.190112E-11 -2.481295E-11
       279  13  6.841274E+05  1.621924E+02  1.386294E+03 -9.739523E+03  9.773380E-10  5.426615E-11
       279  14  6.840547E+05 -4.885213E+01  1.049630E+03  7.250502E+02 -3.088269E-11  7.212421E-11
       279  15  6.841273E+05  6.081553E+01  1.134030E+03 -9.739540E+03 -1.750433E-10 -6.401955E-11
       279  16  7.582223E+05  1.860974E+04  1.958853E+04 -9.778999E+03  4.097705E-10  1.222430E-10
       279  17  7.420968E+05  1.440996E+04  1.534759E+04  7.095642E+02 -1.564575E-10  1.656289E-10
       279  18  7.261165E+05  1.053077E+04  1.152749E+04 -9.730915E+03  2.293719E-10 -1.702356E-11
       279  19  6.100376E+05 -1.828576E+04 -1.681633E+04 -9.700051E+03 -8.734676E+02 -1.635069E+03
       279  20  6.260157E+05 -1.450792E+04 -1.324858E+04  7.405353E+02 -3.481707E+02 -1.072169E+03
       279  21  6.421396E+05 -1.040927E+04 -9.259563E+03 -9.748165E+03  1.772520E+02 -5.100588E+02
       279  22  6.841274E+05  1.621954E+02  1.386300E+03 -9.739522E+03 -7.111382E+02 -1.635095E+03
       279  23  6.840547E+05 -4.885088E+01  1.049633E+03  7.250504E+02 -1.860145E+02 -1.072209E+03
       279  24  6.841273E+05  6.081584E+01  1.134030E+03 -9.739540E+03  3.392215E+02 -5.101140E+02
       279  25  7.582223E+05  1.860974E+04  1.958853E+04 -9.778998E+03 -5.487894E+02 -1.635120E+03
       279  26  7.420968E+05  1.440996E+04  1.534760E+04  7.095642E+02 -2.384311E+01 -1.072249E+03
       279  27  7.261165E+05  1.053077E+04  1.152749E+04 -9.730915E+03  5.012019E+02 -5.101692E+02
       280   1  6.886852E+05  1.148953E+03  2.447508E+03 -9.657226E+03 -3.955483E+02  1.826211E+02
       280   2  7.044858E+05  4.996104E+03  6.915351E+03  6.748892E+02 -1.336118E+03 -3.781821E+02
       280   3  7.205625E+05  9.520675E+03  1.216103E+04 -9.772677E+03 -2.276676E+03 -9.349681E+02
       280   4  6.841568E+05  1.092585E+01  1.282073E+03 -9.706378E+03 -5.578604E+02  1.826806E+02
       280   5  6.840188E+05 -1.025137E+02  1.873536E+03  6.835564E+02 -1.497247E+03 -3.781288E+02
       280   6  6.841565E+05  4.612979E+02  3.242060E+03 -9.706232E+03 -2.436597E+03 -9.349202E+02
       280   7  6.796285E+05 -1.127103E+03  1.166373E+02 -9.755530E+03 -7.201714E+02  1.827401E+02
       280   8  6.635522E+05 -5.201163E+03 -3.168309E+03  6.922234E+02 -1.658371E+03 -3.780755E+02
       280   9  6.477516E+05 -8.598177E+03 -5.677006E+03 -9.639790E+03 -2.596509E+03 -9.348724E+02
       280  10  6.886852E+05  1.148953E+03  2.447507E+03 -9.657226E+03 -3.113554E-10 -8.476813E-11
       280  11  7.044858E+05  4.996104E+03  6.915347E+03  6.748888E+02 -7.330760E-10  5.903763E-11
       280  12  7.205625E+05  9.520673E+03  1.216102E+04 -9.772679E+03 -6.573670E-10  7.096314E-11
       280  13  6.841568E+05  1.092574E+01  1.282073E+03 -9.706378E+03 -3.455275E-12  1.023339E-10
       280  14  6.840188E+05 -1.025144E+02  1.873532E+03  6.835560E+02 -1.655155E-10  5.784399E-11
       280  15  6.841564E+05  4.612954E+02  3.242047E+03 -9.706233E+03  1.658583E-10  1.136204E-10
       280  16  6.796285E+05 -1.127103E+03  1.166362E+02 -9.755530E+03  1.866520E-12  2.092487E-11
       280  17  6.635522E+05 -5.201164E+03 -3.168314E+03  6.922229E+02 -1.903710E-11  1.766573E-11
       280  18  6.477516E+05 -8.598180E+03 -5.677021E+03 -9.639792E+03  5.283100E-10 -1.219070E-10
       280  19  6.886852E+05  1.148953E+03  2.447508E+03 -9.657226E+03  3.955483E+02 -1.826211E+02
       280  20  7.044858E+05  4.996104E+03  6.915351E+03  6.748892E+02  1.336118E+03  3.781821E+02
       280  21  7.205625E+05  9.520675E+03  1.216103E+04 -9.772677E+03  2.276676E+03  9.349681E+02
       280  22  6.841568E+05  1.092585E+01  1.282073E+03 -9.706378E+03  5.578604E+02 -1.826806E+02
       280  23  6.840188E+05 -1.025137E+02  1.873536E+03  6.835564E+02  1.497247E+03  3.781288E+02
       280  24  6.841565E+05  4.612979E+02  3.242060E+03 -9.706232E+03  2.436597E+03  9.349202E+02
       280  25  6.796285E+05 -1.127103E+03  1.166373E+02 -9.755530E+03  7.201714E+02 -1.827401E+02
       280  26  6.635522E+05 -5.201163E+03 -3.168309E+03  6.922234E+02  1.658371E+03  3.780755E+02
       280  27  6.477516E+05 -8.598177E+03 -5.677006E+03 -9.639790E+03  2.596509E+03  9.348724E+02
       281   1  7.677533E+05  2.063590E+04  2.469233E+04 -9.490103E+03 -2.928629E+03 -1.272893E+03
       281   2  7.832216E+05  2.408696E+04  3.139668E+04  6.967353E+02 -6.434044E+03 -1.845282E+03
       281   3  8.003588E+05  3.229184E+04  4.157441E+04 -1.037141E+04 -9.939325E+03 -2.364839E+03
       281   4  6.844639E+05 -1.216083E+02  4.125726E+03 -9.812138E+03 -3.101206E+03 -1.272853E+03
       281   5  6.836298E+05 -7.214728E+02  6.865331E+03  8.156224E+02 -6.590892E+03 -1.845274E+03
       281   6  6.844620E+05  3.430301E+03  1.306792E+04 -9.811811E+03 -1.008035E+04 -2.364865E+03
       281   7  6.011809E+05 -2.087964E+04 -1.644139E+04 -1.013413E+04 -3.273759E+03 -1.272812E+03
       281   8  5.840469E+05 -2.553064E+04 -1.766675E+04  9.344908E+02 -6.747715E+03 -1.845267E+03
       281   9  5.685775E+05 -2.543224E+04 -1.543956E+04 -9.252313E+03 -1.022136E+04 -2.364891E+03
       281  10  7.677533E+05  2.063590E+04  2.469231E+04 -9.490106E+03 -4.293503E-10 -4.932204E-11
       281  11  7.832216E+05  2.408694E+04  3.139659E+04  6.967257E+02 -4.534670E-10 -1.335319E-10
       281  12  8.003587E+05  3.229181E+04  4.157421E+04 -1.037143E+04 -4.280986E-10 -6.998190E-11
       281  13  6.844639E+05 -1.216127E+02  4.125705E+03 -9.812141E+03 -3.842480E-10 -6.374846E-11
       281  14  6.836297E+05 -7.214882E+02  6.865243E+03  8.156126E+02 -3.339263E-10 -1.060000E-10
       281  15  6.844619E+05  3.430268E+03  1.306772E+04 -9.811830E+03  7.608936E-11 -2.076015E-10
       281  16  6.011808E+05 -2.087964E+04 -1.644141E+04 -1.013413E+04  1.215289E-10 -2.183607E-11
       281  17  5.840469E+05 -2.553065E+04 -1.766684E+04  9.344807E+02 -5.012602E-10 -5.831408E-11
       281  18  5.685774E+05 -2.543227E+04 -1.543977E+04 -9.252333E+03  1.915513E-10 -1.674201E-10
       281  19  7.677533E+05  2.063590E+04  2.469233E+04 -9.490103E+03  2.928629E+03  1.272893E+03
       281  20  7.832216E+05  2.408696E+04  3.139668E+04  6.967353E+02  6.434044E+03  1.845282E+03
       281  21  8.003588E+05  3.229184E+04  4.157441E+04 -1.037141E+04  9.939325E+03  2.364839E+03
       281  22  6.844639E+05 -1.216083E+02  4.125726E+03 -9.812138E+03  3.101206E+03  1.272853E+03
       281  23  6.836298E+05 -7.214728E+02  6.865331E+03  8.156224E+02  6.590892E+03  1.845274E+03
       281  24  6.844620E+05  3.430301E+03  1.306792E+04 -9.811811E+03  1.008035E+04  2.364865E+03
       281  25  6.011809E+05 -2.087964E+04 -1.644139E+04 -1.013413E+04  3.273759E+03  1.272812E+03
       281  26  5.840469E+05 -2.553064E+04 -1.766675E+04  9.344908E+02  6.747715E+03  1.845267E+03
       281  27  5.685775E+05 -2.543224E+04 -1.543956E+04 -9.252313E+03  1.022136E+04  2.364891E+03
       282   1  8.510040E+05  3.999117E+04  5.702495E+04 -7.672208E+03 -1.247204E+04 -2.791370E+03
       282   2  8.628285E+05  4.000190E+04  7.159263E+04  3.223302E+01 -2.661016E+04 -3.427263E+03
       282   3  8.853321E+05  7.488960E+04  1.041002E+05 -1.463177E+04 -4.074886E+04 -3.529841E+03
       282   4  6.864570E+05 -1.005638E+03  1.644717E+04 -1.005686E+04 -1.272971E+04 -2.791371E+03
       282   5  6.811244E+05 -5.256081E+03  2.684807E+04  1.122751E+03 -2.671048E+04 -3.427396E+03
       282   6  6.864465E+05  2.534871E+04  5.508355E+04 -1.006634E+04 -4.069143E+04 -3.530194E+03
       282   7  5.219346E+05 -4.200444E+04 -2.413260E+04 -1.244088E+04 -1.298731E+04 -2.791370E+03
       282   8  4.994503E+05 -5.051651E+04 -1.789891E+04  2.212949E+03 -2.681077E+04 -3.427528E+03
       282   9  4.875969E+05 -2.419505E+04  6.063967E+03 -5.502381E+03 -4.063403E+04 -3.530545E+03
       282  10  8.510039E+05  3.999112E+04  5.702464E+04 -7.672236E+03 -6.902252E-10 -2.007997E-10
       282  11  8.628277E+05  4.000170E+04  7.159128E+04  3.215959E+01  1.105135E-09  9.911149E-11
       282  12  8.853303E+05  7.488914E+04  1.040971E+05 -1.463189E+04  2.176235E-11  1.336003E-10
       282  13  6.864569E+05 -1.005690E+03  1.644685E+04 -1.005689E+04 -3.230019E-10 -1.454705E-10
       282  14  6.811236E+05 -5.256285E+03  2.684671E+04  1.122678E+03 -1.189811E-09  2.308303E-11
       282  15  6.864447E+05  2.534825E+04  5.508041E+04 -1.006646E+04  2.923685E-10  8.265340E-11
       282  16  5.219344E+05 -4.200450E+04 -2.413293E+04 -1.244091E+04  1.844645E-10 -1.205470E-10
       282  17  4.994495E+05 -5.051672E+04 -1.790028E+04  2.212875E+03 -1.469320E-09 -2.450698E-10
       282  18  4.875951E+05 -2.419551E+04  6.060844E+03 -5.502497E+03 -4.074304E-10  1.934901E-10
       282  19  8.510040E+05  3.999117E+04  5.702495E+04 -7.672208E+03  1.247204E+04  2.791370E+03
       282  20  8.628285E+05  4.000190E+04  7.159263E+04  3.223302E+01  2.661016E+04  3.427263E+03
       282  21  8.853321E+05  7.488960E+04  1.041002E+05 -1.463177E+04  4.074886E+04  3.529841E+03
       282  22  6.864570E+05 -1.005638E+03  1.644717E+04 -1.005686E+04  1.272971E+04  2.791371E+03
       282  23  6.811244E+05 -5.256081E+03  2.684807E+04  1.122751E+03  2.671048E+04  3.427396E+03
       282  24  6.864465E+05  2.534871E+04  5.508355E+04 -1.006634E+04  4.069143E+04  3.530194E+03
       282  25  5.219346E+05 -4.200444E+04 -2.413260E+04 -1.244088E+04  1.298731E+04  2.791370E+03
       282  26  4.994503E+05 -5.051651E+04 -1.789891E+04  2.212949E+03  2.681077E+04  3.427528E+03
       282  27  4.875969E+05 -2.419505E+04  6.063967E+03 -5.502381E+03  4.063403E+04  3.530545E+03
       283   1  9.506208E+05  5.491410E+04  1.286021E+05  6.613631E+03 -5.062279E+04 -4.602492E+03
       283   2  9.334903E+05  2.878785E+04  1.695693E+05 -7.738533E+03 -1.082433E+05 -5.612308E+03
       283   3  9.878441E+05  2.575462E+05  3.117962E+05 -4.640866E+04 -1.658690E+05 -2.081302E+03
       283   4  6.999285E+05 -7.552459E+03  6.684207E+04 -1.043161E+04 -5.154486E+04 -4.601713E+03
       283   5  6.642584E+05 -3.823437E+04  1.033645E+05  1.625593E+03 -1.078359E+05 -5.613787E+03
       283   6  6.998719E+05  1.857943E+05  2.402555E+05 -1.063370E+04 -1.641303E+05 -2.089071E+03
       283   7  4.492938E+05 -7.002261E+04  5.077584E+03 -2.746997E+04 -5.246656E+04 -4.600883E+03
       283   8  3.950925E+05 -1.052616E+05  3.715434E+04  1.098564E+04 -1.074287E+05 -5.615255E+03
       283   9  4.119777E+05  1.140410E+05  1.687092E+05  2.512466E+04 -1.623923E+05 -2.096644E+03
       283  10  9.506181E+05  5.491339E+04  1.285972E+05  6.613443E+03  1.146287E-10  3.624701E-10
       283  11  9.334777E+05  2.878468E+04  1.695472E+05 -7.739022E+03 -7.363580E-10  6.652448E-11
       283  12  9.878146E+05  2.575389E+05  3.117445E+05 -4.640894E+04 -3.319326E-11 -1.562521E-10
       283  13  6.999256E+05 -7.553194E+03  6.683704E+04 -1.043180E+04  8.507469E-10  1.937080E-10
       283  14  6.642459E+05 -3.823752E+04  1.033426E+05  1.625105E+03  9.689291E-11 -1.355673E-10
       283  15  6.998430E+05  1.857871E+05  2.402049E+05 -1.063398E+04  4.105851E-10 -2.679158E-11
       283  16  4.492909E+05 -7.002337E+04  5.072375E+03 -2.747017E+04  1.696624E-10  9.972378E-11
       283  17  3.950801E+05 -1.052648E+05  3.713261E+04  1.098516E+04 -4.824470E-11  3.331431E-10
       283  18  4.119494E+05  1.140340E+05  1.686597E+05  2.512438E+04  8.959718E-11  3.442852E-11
       283  19  9.506208E+05  5.491410E+04  1.286021E+05  6.613631E+03  5.062279E+04  4.602492E+03
       283  20  9.334903E+05  2.878785E+04  1.695693E+05 -7.738533E+03  1.082433E+05  5.612308E+03
       283  21  9.878441E+05  2.575462E+05  3.117962E+05 -4.640866E+04  1.658690E+05  2.081302E+03
       283  22  6.999285E+05 -7.552459E+03  6.684207E+04 -1.043161E+04  5.154486E+04  4.601713E+03
       283  23  6.642584E+05 -3.823437E+04  1.033645E+05  1.625593E+03  1.078359E+05  5.613787E+03
       283  24  6.998719E+05  1.857943E+05  2.402555E+05 -1.063370E+04  1.641303E+05  2.089071E+03
       283  25  4.492938E+05 -7.002261E+04  5.077584E+03 -2.746997E+04  5.246656E+04  4.600883E+03
       283  26  3.950925E+05 -1.052616E+05  3.715434E+04  1.098564E+04  1.074287E+05  5.615255E+03
       283  27  4.119777E+05  1.140410E+05  1.687092E+05  2.512466E+04  1.623923E+05  2.096644E+03
       284   1  1.224241E+05  9.111947E+05  1.415344E+05 -3.793246E+04  1.328082E+03  6.179656E+04
       284   2  3.112312E+04  8.589456E+05  8.082402E+04 -2.804483E+03  3.732555E+03  4.072106E+04
       284   3  3.181857E+04  8.322951E+05  5.679474E+04 -1.893976E+04  2.170930E+03  1.963891E+04
       284   4  6.753746E+04  6.914582E+05  8.690956E+04 -2.464432E+04  1.331611E+03  6.052903E+04
       284   5 -1.375771E+04  6.787655E+05  3.652945E+04  9.252995E+02  3.733077E+03  4.060341E+04
       284   6 -3.241052E+03  6.914801E+05  2.204230E+04 -2.476862E+04  2.168588E+03  2.066978E+04
       284   7  1.264787E+04  4.717659E+05  3.228116E+04 -1.136086E+04  1.335088E+03  5.926194E+04
       284   8 -5.864089E+04  4.986149E+05 -7.767491E+03  4.654013E+03  3.733598E+03  4.048579E+04
       284   9 -3.830202E+04  5.506831E+05 -1.271158E+04 -3.059614E+04  2.166226E+03  2.170042E+04
       284  10  1.224230E+05  9.111906E+05  1.415273E+05 -3.793253E+04  5.942845E-11 -3.685692E-10
       284  11  3.112266E+04  8.589438E+05  8.082088E+04 -2.804606E+03 -5.983541E-11  6.784198E-12
       284  12  3.181846E+04  8.322947E+05  5.679401E+04 -1.893979E+04  6.285301E-10  5.177538E-10
       284  13  6.753647E+04  6.914543E+05  8.690268E+04 -2.464439E+04  9.864720E-10 -1.045445E-10
       284  14 -1.375816E+04  6.787637E+05  3.652633E+04  9.251774E+02 -3.227556E-09  2.067852E-10
       284  15 -3.241171E+03  6.914796E+05  2.204149E+04 -2.476865E+04  3.821712E-10  6.600718E-12
       284  16  1.264692E+04  4.717621E+05  3.227456E+04 -1.136093E+04 -4.126375E-10  2.968644E-10
       284  17 -5.864134E+04  4.986131E+05 -7.770595E+03  4.653892E+03 -1.090762E-09  9.736444E-11
       284  18 -3.830215E+04  5.506826E+05 -1.271247E+04 -3.059618E+04 -2.134271E-11 -5.926560E-10
       284  19  1.224241E+05  9.111947E+05  1.415344E+05 -3.793246E+04 -1.328082E+03 -6.179656E+04
       284  20  3.112312E+04  8.589456E+05  8.082402E+04 -2.804483E+03 -3.732555E+03 -4.072106E+04
       284  21  3.181857E+04  8.322951E+05  5.679474E+04 -1.893976E+04 -2.170930E+03 -1.963891E+04
       284  22  6.753746E+04  6.914582E+05  8.690956E+04 -2.464432E+04 -1.331611E+03 -6.052903E+04
       284  23 -1.375771E+04  6.787655E+05  3.652945E+04  9.252995E+02 -3.733077E+03 -4.060341E+04
       284  24 -3.241052E+03  6.914801E+05  2.204230E+04 -2.476862E+04 -2.168588E+03 -2.066978E+04
       284  25  1.264787E+04  4.717659E+05  3.228116E+04 -1.136086E+04 -1.335088E+03 -5.926194E+04
       284  26 -5.864089E+04  4.986149E+05 -7.767491E+03  4.654013E+03 -3.733598E+03 -4.048579E+04
       284  27 -3.830202E+04  5.506831E+05 -1.271158E+04 -3.059614E+04 -2.166226E+03 -2.170042E+04
       285   1  1.616219E+04  7.130471E+05  2.368530E+04 -2.588555E+04  6.810532E+02  1.690566E+04
       285   2 -3.991705E+03  6.732440E+05  1.939619E+03  1.786646E+02 -2.595782E+02  1.435146E+04
       285   3 -1.748065E+04  6.351706E+05 -1.653422E+04 -2.449233E+04 -1.158205E+03  1.179756E+04
       285   4  9.480351E+03  6.862187E+05  1.711668E+04 -2.459097E+04  6.804850E+02  1.718430E+04
       285   5 -9.776168E+02  6.853564E+05  4.921905E+03  7.613310E+02 -2.601339E+02  1.461831E+04
       285   6 -4.768309E+03  6.862252E+05 -3.992185E+03 -2.462147E+04 -1.158747E+03  1.205247E+04
       285   7  2.798463E+03  6.593909E+05  1.054801E+04 -2.329644E+04  6.799179E+02  1.746294E+04
       285   8  2.036462E+03  6.974690E+05  7.904181E+03  1.344009E+03 -2.606890E+02  1.488517E+04
       285   9  7.943839E+03  7.372821E+05  8.549655E+03 -2.475062E+04 -1.159288E+03  1.230739E+04
       285  10  1.616211E+04  7.130468E+05  2.368476E+04 -2.588556E+04 -3.530545E-10 -3.314737E-10
       285  11 -3.991761E+03  6.732438E+05  1.939232E+03  1.786676E+02  4.992531E-10 -3.391798E-10
       285  12 -1.748069E+04  6.351704E+05 -1.653448E+04 -2.449231E+04 -8.504217E-10  8.762406E-10
       285  13  9.480271E+03  6.862184E+05  1.711613E+04 -2.459098E+04  2.028866E-10  9.129581E-12
       285  14 -9.776742E+02  6.853562E+05  4.921504E+03  7.613341E+02  1.151356E-09 -1.512404E-10
       285  15 -4.768350E+03  6.862250E+05 -3.992461E+03 -2.462146E+04  2.052108E-09 -1.621686E-10
       285  16  2.798381E+03  6.593906E+05  1.054744E+04 -2.329645E+04  4.036482E-10  3.711242E-10
       285  17  2.036403E+03  6.974688E+05  7.903765E+03  1.344012E+03 -1.553458E-09  3.772304E-10
       285  18  7.943797E+03  7.372820E+05  8.549368E+03 -2.475061E+04  1.115096E-10 -7.683994E-10
       285  19  1.616219E+04  7.130471E+05  2.368530E+04 -2.588555E+04 -6.810532E+02 -1.690566E+04
       285  20 -3.991705E+03  6.732440E+05  1.939619E+03  1.786646E+02  2.595782E+02 -1.435146E+04
       285  21 -1.748065E+04  6.351706E+05 -1.653422E+04 -2.449233E+04  1.158205E+03 -1.179756E+04
       285  22  9.480351E+03  6.862187E+05  1.711668E+04 -2.459097E+04 -6.804850E+02 -1.718430E+04
       285  23 -9.776168E+02  6.853564E+05  4.921905E+03  7.613310E+02  2.601339E+02 -1.461831E+04
       285  24 -4.768309E+03  6.862252E+05 -3.992185E+03 -2.462147E+04  1.158747E+03 -1.205247E+04
       285  25  2.798463E+03  6.593909E+05  1.054801E+04 -2.329644E+04 -6.799179E+02 -1.746294E+04
       285  26  2.036462E+03  6.974690E+05  7.904181E+03  1.344009E+03  2.606890E+02 -1.488517E+04
       285  27  7.943839E+03  7.372821E+05  8.549655E+03 -2.475062E+04  1.159288E+03 -1.230739E+04
       286   1 -3.850413E+04  5.179357E+05 -4.815126E+04 -2.171473E+04 -2.702781E+03  1.195501E+04
       286   2 -4.449255E+04  4.844361E+05 -6.670763E+04 -4.447454E+02 -4.350993E+03  2.217500E+04
       286   3 -9.389825E+04  4.386620E+05 -1.027894E+05 -3.077884E+04 -1.656540E+03  3.240216E+04
       286   4  2.687021E+03  6.831500E+05 -7.373781E+03 -2.477942E+04 -2.705070E+03  1.305239E+04
       286   5  6.492896E+03  6.891851E+05 -1.636239E+04  9.923950E+02 -4.350563E+03  2.202370E+04
       286   6 -3.289404E+04  6.831651E+05 -4.200540E+04 -2.483920E+04 -1.653868E+03  3.100287E+04
       286   7  4.387617E+04  8.483891E+05  3.340169E+04 -2.784490E+04 -2.707369E+03  1.415006E+04
       286   8  5.747524E+04  8.939722E+05  3.397976E+04  2.430027E+03 -4.350133E+03  2.187235E+04
       286   9  2.810583E+04  9.277225E+05  1.877418E+04 -1.889719E+04 -1.651224E+03  2.960303E+04
       286  10 -3.850417E+04  5.179356E+05 -4.815154E+04 -2.171470E+04  1.543262E-10  1.720868E-09
       286  11 -4.449271E+04  4.844356E+05 -6.670858E+04 -4.446677E+02  2.358571E-10 -1.929859E-10
       286  12 -9.389854E+04  4.386609E+05 -1.027914E+05 -3.077879E+04 -3.615449E-10 -1.254908E-09
       286  13  2.686967E+03  6.831498E+05 -7.374115E+03 -2.477939E+04 -1.198500E-09  1.268504E-10
       286  14  6.492745E+03  6.891846E+05 -1.636334E+04  9.924722E+02  3.411286E-10 -1.134944E-10
       286  15 -3.289430E+04  6.831641E+05 -4.200720E+04 -2.483915E+04 -6.571007E-10  6.123727E-11
       286  16  4.387611E+04  8.483889E+05  3.340130E+04 -2.784487E+04  7.972719E-10 -1.785121E-09
       286  17  5.747509E+04  8.939717E+05  3.397883E+04  2.430104E+03 -7.824174E-10  3.697791E-11
       286  18  2.810560E+04  9.277215E+05  1.877253E+04 -1.889715E+04 -8.283424E-10  1.320226E-09
       286  19 -3.850413E+04  5.179357E+05 -4.815126E+04 -2.171473E+04  2.702781E+03 -1.195501E+04
       286  20 -4.449255E+04  4.844361E+05 -6.670763E+04 -4.447454E+02  4.350993E+03 -2.217500E+04
       286  21 -9.389825E+04  4.386620E+05 -1.027894E+05 -3.077884E+04  1.656540E+03 -3.240216E+04
       286  22  2.687021E+03  6.831500E+05 -7.373781E+03 -2.477942E+04  2.705070E+03 -1.305239E+04
       286  23  6.492896E+03  6.891851E+05 -1.636239E+04  9.923950E+02  4.350563E+03 -2.202370E+04
       286  24 -3.289404E+04  6.831651E+05 -4.200540E+04 -2.483920E+04  1.653868E+03 -3.100287E+04
       286  25  4.387617E+04  8.483891E+05  3.340169E+04 -2.784490E+04  2.707369E+03 -1.415006E+04
       286  26  5.747524E+04  8.939722E+05  3.397976E+04  2.430027E+03  4.350133E+03 -2.187235E+04
       286  27  2.810583E+04  9.277225E+05  1.877418E+04 -1.889719E+04  1.651224E+03 -2.960303E+04
       287   1 -8.207230E+05 -3.197561E+05 -2.533017E+05 -2.626121E+05 -1.294159E+05 -4.726147E+04
       287   2 -7.814601E+05 -1.307228E+05 -1.321961E+05 -2.947998E+05 -8.393787E+04 -2.719659E+04
       287   3 -8.170532E+05 -1.448263E+05 -9.984327E+04 -2.818493E+05 -3.731748E+04 -1.016182E+04
       287   4 -6.518881E+05 -2.299548E+05 -2.017843E+05 -1.900222E+05 -1.283418E+05 -4.686354E+04
       287   5 -6.043850E+05 -5.701897E+04 -8.274506E+04 -2.395013E+05 -8.366913E+04 -2.709662E+04
       287   6 -6.315567E+05 -8.702762E+04 -5.180089E+04 -2.438492E+05 -3.785357E+04 -1.036271E+04
       287   7 -4.830244E+05 -1.401425E+05 -1.502698E+05 -1.174118E+05 -1.272673E+05 -4.646538E+04
       287   8 -4.272797E+05  1.668851E+04 -3.329703E+04 -1.841879E+05 -8.340030E+04 -2.699662E+04
       287   9 -4.460269E+05 -2.922928E+04 -3.761164E+03 -2.058400E+05 -3.838984E+04 -1.056365E+04
       287  10 -8.207416E+05 -3.197630E+05 -2.533375E+05 -2.626171E+05  3.264269E-10  1.083536E-11
       287  11 -7.814679E+05 -1.307255E+05 -1.322107E+05 -2.948017E+05  4.616103E-10 -1.424491E-10
       287  12 -8.170547E+05 -1.448267E+05 -9.984609E+04 -2.818496E+05  3.481564E-10 -1.580468E-11
       287  13 -6.519064E+05 -2.299616E+05 -2.018194E+05 -1.900270E+05  1.159622E-09 -2.446156E-11
       287  14 -6.043927E+05 -5.702164E+04 -8.275961E+04 -2.395031E+05 -8.778300E-10 -1.894422E-10
       287  15 -6.315583E+05 -8.702812E+04 -5.180379E+04 -2.438495E+05 -5.938309E-10 -9.984644E-11
       287  16 -4.830424E+05 -1.401492E+05 -1.503043E+05 -1.174165E+05  5.514450E-10  3.747914E-11
       287  17 -4.272873E+05  1.668586E+04 -3.331148E+04 -1.841897E+05 -6.041536E-10 -6.392067E-11
       287  18 -4.460286E+05 -2.922980E+04 -3.764146E+03 -2.058403E+05 -5.452900E-10  1.747164E-11
       287  19 -8.207230E+05 -3.197561E+05 -2.533017E+05 -2.626121E+05  1.294159E+05  4.726147E+04
       287  20 -7.814601E+05 -1.307228E+05 -1.321961E+05 -2.947998E+05  8.393787E+04  2.719659E+04
       287  21 -8.170532E+05 -1.448263E+05 -9.984327E+04 -2.818493E+05  3.731748E+04  1.016182E+04
       287  22 -6.518881E+05 -2.299548E+05 -2.017843E+05 -1.900222E+05  1.283418E+05  4.686354E+04
       287  23 -6.043850E+05 -5.701897E+04 -8.274506E+04 -2.395013E+05  8.366913E+04  2.709662E+04
       287  24 -6.315567E+05 -8.702762E+04 -5.180089E+04 -2.438492E+05  3.785357E+04  1.036271E+04
       287  25 -4.830244E+05 -1.401425E+05 -1.502698E+05 -1.174118E+05  1.272673E+05  4.646538E+04
       287  26 -4.272797E+05  1.668851E+04 -3.329703E+04 -1.841879E+05  8.340030E+04  2.699662E+04
       287  27 -4.460269E+05 -2.922928E+04 -3.761164E+03 -2.058400E+05  3.838984E+04  1.056365E+04
       288   1 -7.789167E+05 -1.720444E+05 -8.524628E+04 -2.766883E+05 -2.998049E+04 -8.070599E+03
       288   2 -7.703080E+05 -1.406024E+05 -6.031107E+04 -2.761011E+05 -1.959448E+04 -4.034962E+03
       288   3 -7.665816E+05 -1.434175E+05 -5.064751E+04 -2.762129E+05 -9.052093E+03 -4.149068E+02
       288   4 -6.246772E+05 -1.103702E+05 -4.257197E+04 -2.311319E+05 -2.989932E+04 -8.040327E+03
       288   5 -6.208417E+05 -8.333876E+04 -1.949661E+04 -2.345097E+05 -1.962280E+04 -4.045697E+03
       288   6 -6.218641E+05 -9.053859E+04 -1.160312E+04 -2.385870E+05 -9.189992E+03 -4.667360E+02
       288   7 -4.704151E+05 -4.869384E+04  1.000675E+02 -1.855652E+05 -2.981813E+04 -8.010046E+03
       288   8 -4.713540E+05 -2.607363E+04  2.131583E+04 -1.929091E+05 -1.965113E+04 -4.056434E+03
       288   9 -4.771264E+05 -3.765875E+04  2.743947E+04 -2.009533E+05 -9.327927E+03 -5.185775E+02
       288  10 -7.789177E+05 -1.720448E+05 -8.524809E+04 -2.766885E+05 -4.257612E-10 -3.277461E-11
       288  11 -7.703084E+05 -1.406025E+05 -6.031182E+04 -2.761012E+05 -2.043151E-10 -1.552051E-10
       288  12 -7.665817E+05 -1.434175E+05 -5.064766E+04 -2.762129E+05 -1.176156E-10  1.830719E-10
       288  13 -6.246782E+05 -1.103705E+05 -4.257377E+04 -2.311321E+05 -2.796854E-10 -6.916127E-11
       288  14 -6.208421E+05 -8.333888E+04 -1.949736E+04 -2.345097E+05 -2.538708E-10  1.506329E-11
       288  15 -6.218642E+05 -9.053861E+04 -1.160328E+04 -2.385870E+05 -2.877853E-10  2.792087E-10
       288  16 -4.704161E+05 -4.869415E+04  9.827460E+01 -1.855654E+05 -3.450978E-10 -1.068854E-10
       288  17 -4.713544E+05 -2.607375E+04  2.131508E+04 -1.929092E+05  2.245523E-11  1.170379E-10
       288  18 -4.771265E+05 -3.765878E+04  2.743931E+04 -2.009533E+05  1.224830E-10  2.483096E-10
       288  19 -7.789167E+05 -1.720444E+05 -8.524628E+04 -2.766883E+05  2.998049E+04  8.070599E+03
       288  20 -7.703080E+05 -1.406024E+05 -6.031107E+04 -2.761011E+05  1.959448E+04  4.034962E+03
       288  21 -7.665816E+05 -1.434175E+05 -5.064751E+04 -2.762129E+05  9.052093E+03  4.149068E+02
       288  22 -6.246772E+05 -1.103702E+05 -4.257197E+04 -2.311319E+05  2.989932E+04  8.040327E+03
       288  23 -6.208417E+05 -8.333876E+04 -1.949661E+04 -2.345097E+05  1.962280E+04  4.045697E+03
       288  24 -6.218641E+05 -9.053859E+04 -1.160312E+04 -2.385870E+05  9.189992E+03  4.667360E+02
       288  25 -4.704151E+05 -4.869384E+04  1.000675E+02 -1.855652E+05  2.981813E+04  8.010046E+03
       288  26 -4.713540E+05 -2.607363E+04  2.131583E+04 -1.929091E+05  1.965113E+04  4.056434E+03
       288  27 -4.771264E+05 -3.765875E+04  2.743947E+04 -2.009533E+05  9.327927E+03  5.185775E+02
       289   1 -7.406491E+05 -1.396080E+05 -4.192406E+04 -2.701110E+05 -7.338557E+03 -2.118947E+01
       289   2 -7.361448E+05 -1.294237E+05 -3.523811E+04 -2.643900E+05 -4.873755E+03  6.379350E+02
       289   3 -7.257069E+05 -1.306858E+05 -3.135099E+04 -2.664450E+05 -2.381502E+03  1.223638E+03
       289   4 -6.206557E+05 -9.390261E+04 -9.221985E+03 -2.369908E+05 -7.392538E+03 -4.150778E+01
       289   5 -6.234311E+05 -8.681503E+04 -4.567932E+03 -2.336159E+05 -4.947062E+03  6.103802E+02
       289   6 -6.202689E+05 -9.116935E+04 -2.696949E+03 -2.380168E+05 -2.474169E+03  1.188838E+03
       289   7 -5.006486E+05 -4.819628E+04  2.347879E+04 -2.038649E+05 -7.446531E+03 -6.183044E+01
       289   8 -5.107053E+05 -4.420561E+04  2.610107E+04 -2.028367E+05 -5.020383E+03  5.828199E+02
       289   9 -5.148205E+05 -5.165236E+04  2.595605E+04 -2.095843E+05 -2.566854E+03  1.154031E+03
       289  10 -7.406492E+05 -1.396081E+05 -4.192416E+04 -2.701110E+05  5.380404E-10  4.810053E-10
       289  11 -7.361448E+05 -1.294238E+05 -3.523815E+04 -2.643900E+05  1.450761E-09  8.015798E-10
       289  12 -7.257069E+05 -1.306858E+05 -3.135101E+04 -2.664450E+05  8.423290E-10  2.073804E-10
       289  13 -6.206558E+05 -9.390262E+04 -9.222088E+03 -2.369908E+05  1.253220E-09  4.603272E-10
       289  14 -6.234311E+05 -8.681504E+04 -4.567978E+03 -2.336159E+05  1.950844E-09  8.254983E-10
       289  15 -6.202689E+05 -9.116935E+04 -2.696963E+03 -2.380168E+05  9.938135E-10  3.767508E-10
       289  16 -5.006486E+05 -4.819629E+04  2.347868E+04 -2.038649E+05  1.058872E-09  4.710654E-10
       289  17 -5.107054E+05 -4.420561E+04  2.610103E+04 -2.028367E+05  2.289205E-09  4.876978E-10
       289  18 -5.148205E+05 -5.165236E+04  2.595604E+04 -2.095843E+05  9.459725E-10  2.358291E-10
       289  19 -7.406491E+05 -1.396080E+05 -4.192406E+04 -2.701110E+05  7.338557E+03  2.118947E+01
       289  20 -7.361448E+05 -1.294237E+05 -3.523811E+04 -2.643900E+05  4.873755E+03 -6.379350E+02
       289  21 -7.257069E+05 -1.306858E+05 -3.135099E+04 -2.664450E+05  2.381502E+03 -1.223638E+03
       289  22 -6.206557E+05 -9.390261E+04 -9.221985E+03 -2.369908E+05  7.392538E+03  4.150778E+01
       289  23 -6.234311E+05 -8.681503E+04 -4.567932E+03 -2.336159E+05  4.947062E+03 -6.103802E+02
       289  24 -6.202689E+05 -9.116935E+04 -2.696949E+03 -2.380168E+05  2.474169E+03 -1.188838E+03
       289  25 -5.006486E+05 -4.819628E+04  2.347879E+04 -2.038649E+05  7.446531E+03  6.183044E+01
       289  26 -5.107053E+05 -4.420561E+04  2.610107E+04 -2.028367E+05  5.020383E+03 -5.828199E+02
       289  27 -5.148205E+05 -5.165236E+04  2.595605E+04 -2.095843E+05  2.566854E+03 -1.154031E+03
       290   1 -6.995558E+05 -1.217890E+05 -2.376873E+04 -2.596340E+05 -1.925245E+03  1.181702E+03
       290   2 -6.953937E+05 -1.140937E+05 -2.070070E+04 -2.527778E+05 -1.161654E+03  1.123815E+03
       290   3 -6.832711E+05 -1.152425E+05 -1.827341E+04 -2.552276E+05 -3.902207E+02  1.044826E+03
       290   4 -6.199789E+05 -9.173383E+04 -2.148382E+03 -2.379275E+05 -2.003857E+03  1.152189E+03
       290   5 -6.239363E+05 -8.714786E+04 -1.269694E+03 -2.333362E+05 -1.245870E+03  1.092212E+03
       290   6 -6.199325E+05 -9.140477E+04 -1.027285E+03 -2.380509E+05 -4.800510E+02  1.011131E+03
       290   7 -5.403957E+05 -6.167827E+04  1.947143E+04 -2.162183E+05 -2.082480E+03  1.122672E+03
       290   8 -5.524740E+05 -6.020171E+04  1.816086E+04 -2.138925E+05 -1.330097E+03  1.060606E+03
       290   9 -5.565900E+05 -6.756683E+04  1.621848E+04 -2.208726E+05 -5.698914E+02  9.774326E+02
       290  10 -6.995558E+05 -1.217890E+05 -2.376873E+04 -2.596340E+05 -3.686999E-10  5.451073E-11
       290  11 -6.953937E+05 -1.140937E+05 -2.070070E+04 -2.527778E+05 -3.375990E-11 -1.225875E-10
       290  12 -6.832711E+05 -1.152425E+05 -1.827341E+04 -2.552276E+05 -1.044040E-09 -4.512136E-12
       290  13 -6.199789E+05 -9.173383E+04 -2.148392E+03 -2.379275E+05  2.573657E-10  1.104394E-10
       290  14 -6.239363E+05 -8.714786E+04 -1.269700E+03 -2.333362E+05  3.817836E-10  1.700959E-10
       290  15 -6.199325E+05 -9.140477E+04 -1.027287E+03 -2.380509E+05 -5.177453E-10  3.121182E-11
       290  16 -5.403957E+05 -6.167827E+04  1.947142E+04 -2.162183E+05  4.678022E-10  1.791050E-10
       290  17 -5.524740E+05 -6.020171E+04  1.816086E+04 -2.138925E+05  3.392593E-10  2.870262E-10
       290  18 -5.565900E+05 -6.756683E+04  1.621848E+04 -2.208726E+05 -2.933283E-10 -3.086444E-10
       290  19 -6.995558E+05 -1.217890E+05 -2.376873E+04 -2.596340E+05  1.925245E+03 -1.181702E+03
       290  20 -6.953937E+05 -1.140937E+05 -2.070070E+04 -2.527778E+05  1.161654E+03 -1.123815E+03
       290  21 -6.832711E+05 -1.152425E+05 -1.827341E+04 -2.552276E+05  3.902207E+02 -1.044826E+03
       290  22 -6.199789E+05 -9.173383E+04 -2.148382E+03 -2.379275E+05  2.003857E+03 -1.152189E+03
       290  23 -6.239363E+05 -8.714786E+04 -1.269694E+03 -2.333362E+05  1.245870E+03 -1.092212E+03
       290  24 -6.199325E+05 -9.140477E+04 -1.027285E+03 -2.380509E+05  4.800510E+02 -1.011131E+03
       290  25 -5.403957E+05 -6.167827E+04  1.947143E+04 -2.162183E+05  2.082480E+03 -1.122672E+03
       290  26 -5.524740E+05 -6.020171E+04  1.816086E+04 -2.138925E+05  1.330097E+03 -1.060606E+03
       290  27 -5.565900E+05 -6.756683E+04  1.621848E+04 -2.208726E+05  5.698914E+02 -9.774326E+02
       291   1 -6.559391E+05 -1.051164E+05 -1.081228E+04 -2.479905E+05 -1.508422E+02  9.156733E+02
       291   2 -6.516394E+05 -9.745163E+04 -8.766936E+03 -2.407246E+05  6.121528E+02  8.311730E+02
       291   3 -6.390569E+05 -9.896743E+04 -7.358636E+03 -2.431667E+05  1.376195E+03  7.437992E+02
       291   4 -6.198607E+05 -9.148419E+04 -1.027536E+03 -2.381381E+05 -2.379898E+02  8.829927E+02
       291   5 -6.240245E+05 -8.705186E+04 -1.260493E+03 -2.332251E+05  5.242595E+02  7.982180E+02
       291   6 -6.199055E+05 -9.179996E+04 -2.129887E+03 -2.380199E+05  1.287548E+03  7.105665E+02
       291   7 -5.837812E+05 -7.785190E+04  8.757075E+03 -2.282852E+05 -3.251429E+02  8.503101E+02
       291   8 -5.964089E+05 -7.665204E+04  6.245882E+03 -2.257252E+05  4.363620E+02  7.652614E+02
       291   9 -6.007537E+05 -8.463247E+04  3.098837E+03 -2.328730E+05  1.198897E+03  6.773326E+02
       291  10 -6.559391E+05 -1.051164E+05 -1.081228E+04 -2.479905E+05 -1.057619E-09 -2.741050E-10
       291  11 -6.516394E+05 -9.745163E+04 -8.766938E+03 -2.407246E+05 -1.077470E-11  1.436051E-10
       291  12 -6.390569E+05 -9.896743E+04 -7.358641E+03 -2.431667E+05  4.659512E-10  2.537323E-10
       291  13 -6.198607E+05 -9.148419E+04 -1.027537E+03 -2.381381E+05 -9.097005E-10 -1.459110E-10
       291  14 -6.240245E+05 -8.705186E+04 -1.260495E+03 -2.332251E+05  2.607462E-10  1.514339E-10
       291  15 -6.199055E+05 -9.179996E+04 -2.129891E+03 -2.380199E+05  7.766063E-10  1.256508E-10
       291  16 -5.837812E+05 -7.785190E+04  8.757073E+03 -2.282852E+05 -4.943892E-11 -1.242184E-10
       291  17 -5.964089E+05 -7.665204E+04  6.245880E+03 -2.257252E+05  2.901223E-10 -1.503962E-10
       291  18 -6.007537E+05 -8.463247E+04  3.098834E+03 -2.328730E+05  5.376037E-10  3.043258E-10
       291  19 -6.559391E+05 -1.051164E+05 -1.081228E+04 -2.479905E+05  1.508422E+02 -9.156733E+02
       291  20 -6.516394E+05 -9.745163E+04 -8.766936E+03 -2.407246E+05 -6.121528E+02 -8.311730E+02
       291  21 -6.390569E+05 -9.896743E+04 -7.358636E+03 -2.431667E+05 -1.376195E+03 -7.437992E+02
       291  22 -6.198607E+05 -9.148419E+04 -1.027536E+03 -2.381381E+05  2.379898E+02 -8.829927E+02
       291  23 -6.240245E+05 -8.705186E+04 -1.260493E+03 -2.332251E+05 -5.242595E+02 -7.982180E+02
       291  24 -6.199055E+05 -9.179996E+04 -2.129887E+03 -2.380199E+05 -1.287548E+03 -7.105665E+02
       291  25 -5.837812E+05 -7.785190E+04  8.757075E+03 -2.282852E+05  3.251429E+02 -8.503101E+02
       291  26 -5.964089E+05 -7.665204E+04  6.245882E+03 -2.257252E+05 -4.363620E+02 -7.652614E+02
       291  27 -6.007537E+05 -8.463247E+04  3.098837E+03 -2.328730E+05 -1.198897E+03 -6.773326E+02
       292   1 -6.111798E+05 -8.828868E+04 -2.780468E+02 -2.361199E+05  1.854278E+03  6.956042E+02
       292   2 -6.065309E+05 -7.997774E+04  1.630046E+02 -2.285289E+05  4.304740E+03  1.233770E+03
       292   3 -5.949875E+05 -8.407979E+04 -2.158649E+03 -2.299056E+05  6.742437E+03  1.806065E+03
       292   4 -6.200559E+05 -9.139333E+04 -2.675776E+03 -2.382772E+05  1.759768E+03  6.601755E+02
       292   5 -6.236927E+05 -8.653562E+04 -4.519828E+03 -2.332877E+05  4.219360E+03  1.201759E+03
       292   6 -6.204369E+05 -9.409278E+04 -9.133882E+03 -2.372658E+05  6.666152E+03  1.777456E+03
       292   7 -6.289319E+05 -9.449799E+04 -5.073512E+03 -2.404344E+05  1.665259E+03  6.247474E+02
       292   8 -6.408542E+05 -9.309348E+04 -9.202683E+03 -2.380463E+05  4.133984E+03  1.169749E+03
       292   9 -6.458856E+05 -1.041057E+05 -1.610916E+04 -2.446257E+05  6.589871E+03  1.748849E+03
       292  10 -6.111799E+05 -8.828868E+04 -2.780542E+02 -2.361199E+05  6.484388E-10  2.132960E-10
       292  11 -6.065309E+05 -7.997775E+04  1.629669E+02 -2.285289E+05 -1.763209E-10  1.019991E-10
       292  12 -5.949876E+05 -8.407980E+04 -2.158741E+03 -2.299056E+05 -2.739107E-10 -5.509193E-11
       292  13 -6.200559E+05 -9.139334E+04 -2.675783E+03 -2.382772E+05  8.611640E-10  1.443418E-10
       292  14 -6.236927E+05 -8.653563E+04 -4.519864E+03 -2.332877E+05  2.015274E-10  7.438514E-11
       292  15 -6.204369E+05 -9.409280E+04 -9.133972E+03 -2.372658E+05  9.080401E-12 -7.796271E-11
       292  16 -6.289319E+05 -9.449799E+04 -5.073518E+03 -2.404344E+05  7.369930E-10  3.150818E-10
       292  17 -6.408542E+05 -9.309349E+04 -9.202717E+03 -2.380463E+05  2.457982E-10  1.028995E-10
       292  18 -6.458856E+05 -1.041057E+05 -1.610925E+04 -2.446257E+05  1.487199E-11 -1.513573E-11
       292  19 -6.111798E+05 -8.828868E+04 -2.780468E+02 -2.361199E+05 -1.854278E+03 -6.956042E+02
       292  20 -6.065309E+05 -7.997774E+04  1.630046E+02 -2.285289E+05 -4.304740E+03 -1.233770E+03
       292  21 -5.949875E+05 -8.407979E+04 -2.158649E+03 -2.299056E+05 -6.742437E+03 -1.806065E+03
       292  22 -6.200559E+05 -9.139333E+04 -2.675776E+03 -2.382772E+05 -1.759768E+03 -6.601755E+02
       292  23 -6.236927E+05 -8.653562E+04 -4.519828E+03 -2.332877E+05 -4.219360E+03 -1.201759E+03
       292  24 -6.204369E+05 -9.409278E+04 -9.133882E+03 -2.372658E+05 -6.666152E+03 -1.777456E+03
       292  25 -6.289319E+05 -9.449799E+04 -5.073512E+03 -2.404344E+05 -1.665259E+03 -6.247474E+02
       292  26 -6.408542E+05 -9.309348E+04 -9.202683E+03 -2.380463E+05 -4.133984E+03 -1.169749E+03
       292  27 -6.458856E+05 -1.041057E+05 -1.610916E+04 -2.446257E+05 -6.589871E+03 -1.748849E+03
       293   1 -5.670532E+05 -7.209374E+04  3.001345E+03 -2.259693E+05  8.579282E+03  2.234462E+03
       293   2 -5.604318E+05 -5.915207E+04 -2.595302E+03 -2.165699E+05  1.886045E+04  5.698446E+03
       293   3 -5.569932E+05 -8.180678E+04 -2.318977E+04 -2.098642E+05  2.904673E+04  9.416423E+03
       293   4 -6.215042E+05 -9.090161E+04 -1.149379E+04 -2.390014E+05  8.452106E+03  2.186800E+03
       293   5 -6.212917E+05 -8.291784E+04 -1.929891E+04 -2.339718E+05  1.880068E+04  5.675991E+03
       293   6 -6.242766E+05 -1.105458E+05 -4.215658E+04 -2.316360E+05  2.905426E+04  9.419038E+03
       293   7 -6.759524E+05 -1.097094E+05 -2.598920E+04 -2.520325E+05  8.324941E+03  2.139141E+03
       293   8 -6.821480E+05 -1.066833E+05 -3.600287E+04 -2.513722E+05  1.874092E+04  5.653539E+03
       293   9 -6.915557E+05 -1.392842E+05 -6.112381E+04 -2.534055E+05  2.906178E+04  9.421652E+03
       293  10 -5.670533E+05 -7.209377E+04  3.001197E+03 -2.259693E+05  5.648726E-13  6.723787E-11
       293  11 -5.604322E+05 -5.915220E+04 -2.596032E+03 -2.165700E+05  1.036798E-11 -1.484967E-11
       293  12 -5.569941E+05 -8.180710E+04 -2.319153E+04 -2.098645E+05  1.431647E-10 -4.631738E-11
       293  13 -6.215043E+05 -9.090163E+04 -1.149393E+04 -2.390014E+05  3.871049E-10 -5.881628E-11
       293  14 -6.212921E+05 -8.291797E+04 -1.929963E+04 -2.339719E+05 -5.865416E-10 -1.812119E-10
       293  15 -6.242776E+05 -1.105461E+05 -4.215833E+04 -2.316362E+05 -9.349518E-11 -5.519777E-12
       293  16 -6.759525E+05 -1.097095E+05 -2.598933E+04 -2.520325E+05  1.698787E-10 -3.309420E-10
       293  17 -6.821484E+05 -1.066835E+05 -3.600359E+04 -2.513723E+05 -2.515839E-10  6.599502E-11
       293  18 -6.915566E+05 -1.392845E+05 -6.112557E+04 -2.534058E+05 -2.097122E-10  1.075563E-10
       293  19 -5.670532E+05 -7.209374E+04  3.001345E+03 -2.259693E+05 -8.579282E+03 -2.234462E+03
       293  20 -5.604318E+05 -5.915207E+04 -2.595302E+03 -2.165699E+05 -1.886045E+04 -5.698446E+03
       293  21 -5.569932E+05 -8.180678E+04 -2.318977E+04 -2.098642E+05 -2.904673E+04 -9.416423E+03
       293  22 -6.215042E+05 -9.090161E+04 -1.149379E+04 -2.390014E+05 -8.452106E+03 -2.186800E+03
       293  23 -6.212917E+05 -8.291784E+04 -1.929891E+04 -2.339718E+05 -1.880068E+04 -5.675991E+03
       293  24 -6.242766E+05 -1.105458E+05 -4.215658E+04 -2.316360E+05 -2.905426E+04 -9.419038E+03
       293  25 -6.759524E+05 -1.097094E+05 -2.598920E+04 -2.520325E+05 -8.324941E+03 -2.139141E+03
       293  26 -6.821480E+05 -1.066833E+05 -3.600287E+04 -2.513722E+05 -1.874092E+04 -5.653539E+03
       293  27 -6.915557E+05 -1.392842E+05 -6.112381E+04 -2.534055E+05 -2.906178E+04 -9.421652E+03
       294   1 -5.263599E+05 -6.021479E+04 -2.522854E+04 -2.283630E+05  3.727145E+04  1.197048E+04
       294   2 -5.065522E+05 -1.279247E+04 -5.383270E+04 -2.049752E+05  8.214409E+04  2.830435E+04
       294   3 -5.582919E+05 -1.686155E+05 -1.692789E+05 -1.396930E+05  1.263021E+05  4.654618E+04
       294   4 -6.309866E+05 -8.754149E+04 -5.129615E+04 -2.443494E+05  3.689085E+04  1.182856E+04
       294   5 -6.051624E+05 -5.668129E+04 -8.192327E+04 -2.387168E+05  8.227015E+04  2.835053E+04
       294   6 -6.509997E+05 -2.291877E+05 -1.998054E+05 -1.911864E+05  1.269351E+05  4.677733E+04
       294   7 -7.356025E+05 -1.148685E+05 -7.736449E+04 -2.603339E+05  3.651032E+04  1.168665E+04
       294   8 -7.037628E+05 -1.005683E+05 -1.100147E+05 -2.724531E+05  8.239619E+04  2.839670E+04
       294   9 -7.436971E+05 -2.897526E+05 -2.303324E+05 -2.426709E+05  1.275681E+05  4.700838E+04
       294  10 -5.263615E+05 -6.021531E+04 -2.523142E+04 -2.283634E+05 -2.764384E-10 -1.041161E-10
       294  11 -5.065596E+05 -1.279514E+04 -5.384690E+04 -2.049771E+05  8.501785E-11 -1.086982E-10
       294  12 -5.583096E+05 -1.686221E+05 -1.693130E+05 -1.396977E+05 -3.625972E-10  1.193261E-12
       294  13 -6.309881E+05 -8.754200E+04 -5.129898E+04 -2.443497E+05  3.868708E-10  6.919842E-11
       294  14 -6.051699E+05 -5.668397E+04 -8.193752E+04 -2.387187E+05  5.527958E-10 -2.563303E-10
       294  15 -6.510176E+05 -2.291944E+05 -1.998398E+05 -1.911912E+05  1.164359E-12  8.543003E-11
       294  16 -7.356040E+05 -1.148690E+05 -7.736726E+04 -2.603343E+05  1.548335E-11  1.032475E-10
       294  17 -7.037704E+05 -1.005710E+05 -1.100290E+05 -2.724549E+05 -1.963745E-10 -2.038858E-10
       294  18 -7.437152E+05 -2.897593E+05 -2.303672E+05 -2.426757E+05 -9.856677E-11 -1.113160E-10
       294  19 -5.263599E+05 -6.021479E+04 -2.522854E+04 -2.283630E+05 -3.727145E+04 -1.197048E+04
       294  20 -5.065522E+05 -1.279247E+04 -5.383270E+04 -2.049752E+05 -8.214409E+04 -2.830435E+04
       294  21 -5.582919E+05 -1.686155E+05 -1.692789E+05 -1.396930E+05 -1.263021E+05 -4.654618E+04
       294  22 -6.309866E+05 -8.754149E+04 -5.129615E+04 -2.443494E+05 -3.689085E+04 -1.182856E+04
       294  23 -6.051624E+05 -5.668129E+04 -8.192327E+04 -2.387168E+05 -8.227015E+04 -2.835053E+04
       294  24 -6.509997E+05 -2.291877E+05 -1.998054E+05 -1.911864E+05 -1.269351E+05 -4.677733E+04
       294  25 -7.356025E+05 -1.148685E+05 -7.736449E+04 -2.603339E+05 -3.651032E+04 -1.168665E+04
       294  26 -7.037628E+05 -1.005683E+05 -1.100147E+05 -2.724531E+05 -8.239619E+04 -2.839670E+04
       294  27 -7.436971E+05 -2.897526E+05 -2.303324E+05 -2.426709E+05 -1.275681E+05 -4.700838E+04
       295   1 -3.415117E+05 -4.568167E+04 -5.042078E+03 -2.290888E+03  1.158530E+05  4.952855E+03
       295   2 -3.206360E+05 -1.977893E+05 -9.189776E+04  9.626121E+03  7.799037E+04  1.400775E+04
       295   3 -2.465596E+05 -1.634051E+05 -1.071289E+05 -4.017945E+04  4.013130E+04  1.152182E+04
       295   4  3.868757E+05  1.361637E+05  1.761253E+05 -2.814418E+04  1.202269E+05  4.951623E+03
       295   5  3.600204E+05 -2.814997E+04  7.563954E+04  2.772628E+03  7.899860E+04  1.400614E+04
       295   6  3.868900E+05 -5.497917E+03  4.905558E+04 -2.802852E+04  3.777704E+04  1.152306E+04
       295   7  1.115746E+06  3.179718E+05  3.572534E+05 -5.402793E+04  1.246059E+05  4.950030E+03
       295   8  1.041098E+06  1.414551E+05  2.431427E+05 -4.088418E+03  8.000789E+04  1.400450E+04
       295   9  1.020705E+06  1.523799E+05  2.052105E+05 -1.586512E+04  3.542037E+04  1.152420E+04
       295  10 -3.415261E+05 -4.568530E+04 -5.067359E+03 -2.291350E+03  5.044567E-10  2.002604E-10
       295  11 -3.206426E+05 -1.977912E+05 -9.190956E+04  9.625241E+03 -3.526195E-10 -3.047166E-10
       295  12 -2.465614E+05 -1.634057E+05 -1.071322E+05 -4.017983E+04  3.056349E-10  2.560032E-11
       295  13  3.868602E+05  1.361598E+05  1.760981E+05 -2.814466E+04  5.002462E-10 -2.846616E-10
       295  14  3.600136E+05 -2.815185E+04  7.562745E+04  2.771738E+03  8.037621E-10 -2.469721E-10
       295  15  3.868884E+05 -5.498442E+03  4.905265E+04 -2.802887E+04 -8.758476E-11  1.795860E-10
       295  16  1.115729E+06  3.179676E+05  3.572242E+05 -5.402843E+04  6.670550E-12  2.128432E-10
       295  17  1.041091E+06  1.414532E+05  2.431303E+05 -4.089320E+03 -6.228211E-10 -3.704875E-10
       295  18  1.020703E+06  1.523794E+05  2.052079E+05 -1.586545E+04 -2.477752E-10  4.592216E-10
       295  19 -3.415117E+05 -4.568167E+04 -5.042078E+03 -2.290888E+03 -1.158530E+05 -4.952855E+03
       295  20 -3.206360E+05 -1.977893E+05 -9.189776E+04  9.626121E+03 -7.799037E+04 -1.400775E+04
       295  21 -2.465596E+05 -1.634051E+05 -1.071289E+05 -4.017945E+04 -4.013130E+04 -1.152182E+04
       295  22  3.868757E+05  1.361637E+05  1.761253E+05 -2.814418E+04 -1.202269E+05 -4.951623E+03
       295  23  3.600204E+05 -2.814997E+04  7.563954E+04  2.772628E+03 -7.899860E+04 -1.400614E+04
       295  24  3.868900E+05 -5.497917E+03  4.905558E+04 -2.802852E+04 -3.777704E+04 -1.152306E+04
       295  25  1.115746E+06  3.179718E+05  3.572534E+05 -5.402793E+04 -1.246059E+05 -4.950030E+03
       295  26  1.041098E+06  1.414551E+05  2.431427E+05 -4.088418E+03 -8.000789E+04 -1.400450E+04
       295  27  1.020705E+06  1.523799E+05  2.052105E+05 -1.586512E+04 -3.542037E+04 -1.152420E+04
       296   1 -1.216435E+05 -1.057317E+05 -8.255838E+04 -2.380727E+04  2.967274E+04  8.806718E+03
       296   2 -8.032623E+04 -1.168203E+05 -9.197844E+04  3.367333E+03  1.983403E+04  8.518019E+03
       296   3 -3.079688E+04 -1.022514E+05 -8.847151E+04 -2.868872E+04  9.991022E+03  6.843325E+03
       296   4  3.768328E+05  1.854813E+04  4.038957E+04 -2.749098E+04  2.980263E+04  8.805996E+03
       296   5  3.726955E+05 -3.897548E+03  1.965895E+04  2.114149E+03  1.955743E+04  8.517956E+03
       296   6  3.768322E+05 -6.254336E+02  1.212999E+04 -2.750848E+04  9.308651E+03  6.844293E+03
       296   7  8.755349E+05  1.428094E+05  1.633192E+05 -3.117760E+04  2.993263E+04  8.805273E+03
       296   8  8.259038E+05  1.090099E+05  1.312812E+05  8.601097E+02  1.928063E+04  8.517893E+03
       296   9  7.846124E+05  1.009882E+05  1.127192E+05 -2.632740E+04  8.625832E+03  6.845259E+03
       296  10 -1.216444E+05 -1.057320E+05 -8.256018E+04 -2.380748E+04  4.928207E-11  2.351719E-11
       296  11 -8.032667E+04 -1.168205E+05 -9.197932E+04  3.367197E+03  2.207769E-10 -2.655675E-10
       296  12 -3.079700E+04 -1.022515E+05 -8.847178E+04 -2.868878E+04 -3.255591E-10  7.281002E-10
       296  13  3.768318E+05  1.854781E+04  4.038776E+04 -2.749119E+04 -1.277460E-09  4.898689E-10
       296  14  3.726951E+05 -3.897728E+03  1.965810E+04  2.114015E+03  9.401021E-10 -1.667287E-09
       296  15  3.768321E+05 -6.255071E+02  1.212974E+04 -2.750854E+04  1.089212E-09  5.303474E-10
       296  16  8.755339E+05  1.428091E+05  1.633173E+05 -3.117781E+04 -1.119398E-10  2.231968E-10
       296  17  8.259034E+05  1.090098E+05  1.312804E+05  8.599775E+02 -1.567107E-11 -7.641951E-10
       296  18  7.846123E+05  1.009881E+05  1.127189E+05 -2.632745E+04 -7.499236E-11  1.844090E-10
       296  19 -1.216435E+05 -1.057317E+05 -8.255838E+04 -2.380727E+04 -2.967274E+04 -8.806718E+03
       296  20 -8.032623E+04 -1.168203E+05 -9.197844E+04  3.367333E+03 -1.983403E+04 -8.518019E+03
       296  21 -3.079688E+04 -1.022514E+05 -8.847151E+04 -2.868872E+04 -9.991022E+03 -6.843325E+03
       296  22  3.768328E+05  1.854813E+04  4.038957E+04 -2.749098E+04 -2.980263E+04 -8.805996E+03
       296  23  3.726955E+05 -3.897548E+03  1.965895E+04  2.114149E+03 -1.955743E+04 -8.517956E+03
       296  24  3.768322E+05 -6.254336E+02  1.212999E+04 -2.750848E+04 -9.308651E+03 -6.844293E+03
       296  25  8.755349E+05  1.428094E+05  1.633192E+05 -3.117760E+04 -2.993263E+04 -8.805273E+03
       296  26  8.259038E+05  1.090099E+05  1.312812E+05  8.601097E+02 -1.928063E+04 -8.517893E+03
       296  27  7.846124E+05  1.009882E+05  1.127192E+05 -2.632740E+04 -8.625832E+03 -6.845259E+03
       297   1  9.833315E+04 -6.643862E+04 -5.850900E+04 -2.635823E+04  7.730732E+03  5.713261E+03
       297   2  1.420547E+05 -5.853028E+04 -5.220698E+04  2.166868E+03  5.166086E+03  4.307815E+03
       297   3  1.869024E+05 -4.692144E+04 -4.333860E+04 -2.706426E+04  2.599801E+03  2.748045E+03
       297   4  3.752733E+05  2.567323E+03  9.634983E+03 -2.717094E+04  7.348753E+03  5.713859E+03
       297   5  3.747067E+05 -5.437364E+02  5.130328E+03  1.703929E+03  4.738588E+03  4.308663E+03
       297   6  3.752717E+05  5.295979E+01  3.222877E+03 -2.717605E+04  2.126966E+03  2.749173E+03
       297   7  6.522833E+05  7.156756E+04  7.777332E+04 -2.798399E+04  6.966603E+03  5.714459E+03
       297   8  6.074078E+05  5.743878E+04  6.246364E+04  1.240843E+03  4.310931E+03  4.309512E+03
       297   9  5.636732E+05  4.702471E+04  4.978172E+04 -2.728785E+04  1.653988E+03  2.750300E+03
       297  10  9.833307E+04 -6.643867E+04 -5.850918E+04 -2.635826E+04  3.593520E-10 -5.043347E-11
       297  11  1.420547E+05 -5.853031E+04 -5.220706E+04  2.166850E+03  5.793415E-10  1.952674E-10
       297  12  1.869024E+05 -4.692145E+04 -4.333862E+04 -2.706427E+04 -1.086566E-09 -1.102801E-09
       297  13  3.752733E+05  2.567273E+03  9.634821E+03 -2.717098E+04 -4.975797E-10  2.282595E-10
       297  14  3.747066E+05 -5.437624E+02  5.130251E+03  1.703912E+03  4.375966E-10  1.065202E-09
       297  15  3.752717E+05  5.295046E+01  3.222854E+03 -2.717605E+04 -5.833253E-10  2.124711E-09
       297  16  6.522832E+05  7.156751E+04  7.777316E+04 -2.798402E+04 -6.104242E-10  2.731688E-10
       297  17  6.074078E+05  5.743875E+04  6.246357E+04  1.240828E+03  1.681348E-10 -1.770358E-09
       297  18  5.636732E+05  4.702470E+04  4.978170E+04 -2.728786E+04  2.251269E-10  1.488920E-11
       297  19  9.833315E+04 -6.643862E+04 -5.850900E+04 -2.635823E+04 -7.730732E+03 -5.713261E+03
       297  20  1.420547E+05 -5.853028E+04 -5.220698E+04  2.166868E+03 -5.166086E+03 -4.307815E+03
       297  21  1.869024E+05 -4.692144E+04 -4.333860E+04 -2.706426E+04 -2.599801E+03 -2.748045E+03
       297  22  3.752733E+05  2.567323E+03  9.634983E+03 -2.717094E+04 -7.348753E+03 -5.713859E+03
       297  23  3.747067E+05 -5.437364E+02  5.130328E+03  1.703929E+03 -4.738588E+03 -4.308663E+03
       297  24  3.752717E+05  5.295979E+01  3.222877E+03 -2.717605E+04 -2.126966E+03 -2.749173E+03
       297  25  6.522833E+05  7.156756E+04  7.777332E+04 -2.798399E+04 -6.966603E+03 -5.714459E+03
       297  26  6.074078E+05  5.743878E+04  6.246364E+04  1.240843E+03 -4.310931E+03 -4.309512E+03
       297  27  5.636732E+05  4.702471E+04  4.978172E+04 -2.728785E+04 -1.653988E+03 -2.750300E+03
       298   1  3.150991E+05 -1.445720E+04 -1.200970E+04 -2.689455E+04  2.034313E+03  1.822850E+03
       298   2  3.589996E+05 -4.089432E+03 -2.146623E+03  1.590340E+03  1.132338E+03  2.956623E+02
       298   3  4.028583E+05  7.094944E+03  8.431698E+03 -2.714419E+04  2.301915E+02 -1.248453E+03
       298   4  3.750212E+05  4.497218E+02  2.622468E+03 -2.705479E+04  1.596152E+03  1.823964E+03
       298   5  3.750422E+05 -9.148639E+01  1.806429E+03  1.554537E+03  6.892213E+02  2.967978E+02
       298   6  3.750211E+05  1.850490E+02  1.709305E+03 -2.705546E+04 -2.178172E+02 -1.247290E+03
       298   7  4.349465E+05  1.535638E+04  1.725438E+04 -2.721504E+04  1.157948E+03  1.825079E+03
       298   8  3.910849E+05  3.906440E+03  5.759463E+03  1.518732E+03  2.460932E+02  2.979332E+02
       298   9  3.471846E+05 -6.724902E+03 -5.013142E+03 -2.696674E+04 -6.658059E+02 -1.246128E+03
       298  10  3.150991E+05 -1.445721E+04 -1.200972E+04 -2.689455E+04 -4.834159E-10 -1.282940E-10
       298  11  3.589996E+05 -4.089432E+03 -2.146625E+03  1.590340E+03  1.220155E-09 -1.983364E-11
       298  12  4.028583E+05  7.094942E+03  8.431695E+03 -2.714419E+04 -7.828741E-11 -6.687545E-10
       298  13  3.750212E+05  4.497176E+02  2.622457E+03 -2.705479E+04 -1.304319E-09 -1.527323E-09
       298  14  3.750422E+05 -9.148661E+01  1.806428E+03  1.554536E+03  2.005823E-10  5.700448E-10
       298  15  3.750211E+05  1.850474E+02  1.709302E+03 -2.705546E+04  3.130841E-10 -1.560882E-09
       298  16  4.349465E+05  1.535638E+04  1.725437E+04 -2.721504E+04 -1.037980E-09  9.466433E-10
       298  17  3.910849E+05  3.906440E+03  5.759463E+03  1.518732E+03 -2.733928E-10 -6.873057E-10
       298  18  3.471846E+05 -6.724904E+03 -5.013146E+03 -2.696674E+04 -7.487147E-10 -2.318353E-09
       298  19  3.150991E+05 -1.445720E+04 -1.200970E+04 -2.689455E+04 -2.034313E+03 -1.822850E+03
       298  20  3.589996E+05 -4.089432E+03 -2.146623E+03  1.590340E+03 -1.132338E+03 -2.956623E+02
       298  21  4.028583E+05  7.094944E+03  8.431698E+03 -2.714419E+04 -2.301915E+02  1.248453E+03
       298  22  3.750212E+05  4.497218E+02  2.622468E+03 -2.705479E+04 -1.596152E+03 -1.823964E+03
       298  23  3.750422E+05 -9.148639E+01  1.806429E+03  1.554537E+03 -6.892213E+02 -2.967978E+02
       298  24  3.750211E+05  1.850490E+02  1.709305E+03 -2.705546E+04  2.178172E+02  1.247290E+03
       298  25  4.349465E+05  1.535638E+04  1.725438E+04 -2.721504E+04 -1.157948E+03 -1.825079E+03
       298  26  3.910849E+05  3.906440E+03  5.759463E+03  1.518732E+03 -2.460932E+02 -2.979332E+02
       298  27  3.471846E+05 -6.724902E+03 -5.013142E+03 -2.696674E+04  6.658059E+02  1.246128E+03
       299   1  5.312292E+05  3.910154E+04  4.045824E+04 -2.738465E+04 -9.484313E+01 -2.153086E+03
       299   2  5.753058E+05  4.977785E+04  5.184928E+04  1.316268E+03 -1.346398E+03 -3.700203E+03
       299   3  6.196255E+05  6.154457E+04  6.428578E+04 -2.759846E+04 -2.597053E+03 -5.240986E+03
       299   4  3.750762E+05  1.633822E+02  1.843575E+03 -2.714392E+04 -5.424163E+02 -2.151980E+03
       299   5  3.749569E+05 -1.446269E+02  2.483156E+03  1.664974E+03 -1.791815E+03 -3.699248E+03
       299   6  3.750781E+05  6.375383E+02  4.166924E+03 -2.714292E+04 -3.040225E+03 -5.240176E+03
       299   7  2.189454E+05 -3.877660E+04 -3.677290E+04 -2.690324E+04 -9.898772E+02 -2.150874E+03
       299   8  1.746446E+05 -5.007010E+04 -4.688593E+04  2.013588E+03 -2.237088E+03 -3.698293E+03
       299   9  1.305850E+05 -6.027393E+04 -5.595633E+04 -2.668754E+04 -3.483223E+03 -5.239365E+03
       299  10  5.312291E+05  3.910154E+04  4.045823E+04 -2.738465E+04 -1.379690E-09  1.134133E-09
       299  11  5.753058E+05  4.977784E+04  5.184925E+04  1.316264E+03  1.409400E-10  4.302158E-09
       299  12  6.196254E+05  6.154454E+04  6.428571E+04 -2.759847E+04  1.395824E-09 -2.165185E-09
       299  13  3.750762E+05  1.633771E+02  1.843565E+03 -2.714392E+04 -1.353535E-09  5.410709E-10
       299  14  3.749569E+05 -1.446425E+02  2.483125E+03  1.664969E+03  1.026015E-10  7.984886E-11
       299  15  3.750780E+05  6.375063E+02  4.166855E+03 -2.714294E+04 -5.738670E-10  7.026017E-10
       299  16  2.189454E+05 -3.877661E+04 -3.677292E+04 -2.690324E+04  4.483310E-10 -1.860240E-11
       299  17  1.746446E+05 -5.007011E+04 -4.688596E+04  2.013582E+03 -5.083572E-11  3.629890E-10
       299  18  1.305850E+05 -6.027397E+04 -5.595640E+04 -2.668756E+04 -1.597050E-09 -6.663569E-10
       299  19  5.312292E+05  3.910154E+04  4.045824E+04 -2.738465E+04  9.484313E+01  2.153086E+03
       299  20  5.753058E+05  4.977785E+04  5.184928E+04  1.316268E+03  1.346398E+03  3.700203E+03
       299  21  6.196255E+05  6.154457E+04  6.428578E+04 -2.759846E+04  2.597053E+03  5.240986E+03
       299  22  3.750762E+05  1.633822E+02  1.843575E+03 -2.714392E+04  5.424163E+02  2.151980E+03
       299  23  3.749569E+05 -1.446269E+02  2.483156E+03  1.664974E+03  1.791815E+03  3.699248E+03
       299  24  3.750781E+05  6.375383E+02  4.166924E+03 -2.714292E+04  3.040225E+03  5.240176E+03
       299  25  2.189454E+05 -3.877660E+04 -3.677290E+04 -2.690324E+04  9.898772E+02  2.150874E+03
       299  26  1.746446E+05 -5.007010E+04 -4.688593E+04  2.013588E+03  2.237088E+03  3.698293E+03
       299  27  1.305850E+05 -6.027393E+04 -5.595633E+04 -2.668754E+04  3.483223E+03  5.239365E+03
       300   1  7.503931E+05  9.337621E+04  9.778826E+04 -2.757580E+04 -3.415578E+03 -6.185639E+03
       300   2  7.943768E+05  1.037072E+05  1.121673E+05  1.448746E+03 -7.892244E+03 -7.772695E+03
       300   3  8.408727E+05  1.202034E+05  1.310763E+05 -2.848737E+04 -1.236694E+04 -9.178394E+03
       300   4  3.755546E+05 -4.031456E+01  5.300235E+03 -2.744463E+04 -3.899949E+03 -6.184935E+03
       300   5  3.743050E+05 -9.500026E+02  8.679267E+03  2.039334E+03 -8.321689E+03 -7.772398E+03
       300   6  3.755577E+05  4.298309E+03  1.655241E+04 -2.743981E+04 -1.274113E+04 -9.178450E+03
       300   7  8.438332E+02 -9.346731E+04 -8.719819E+04 -2.731348E+04 -4.384027E+03 -6.184231E+03
       300   8 -4.560641E+04 -1.056203E+05 -9.482184E+04  2.629581E+03 -8.750842E+03 -7.772103E+03
       300   9 -8.956059E+04 -1.116229E+05 -9.798747E+04 -2.639299E+04 -1.311504E+04 -9.178508E+03
       300  10  7.503930E+05  9.337617E+04  9.778816E+04 -2.757582E+04 -6.024296E-10 -2.175501E-09
       300  11  7.943767E+05  1.037071E+05  1.121671E+05  1.448697E+03  6.103592E-10  1.095404E-09
       300  12  8.408726E+05  1.202033E+05  1.310759E+05 -2.848746E+04 -8.559278E-10  3.155499E-10
       300  13  3.755546E+05 -4.035973E+01  5.300134E+03 -2.744465E+04 -1.628910E-09 -7.022056E-11
       300  14  3.743049E+05 -9.500860E+02  8.679024E+03  2.039282E+03  3.368011E-10  6.542275E-10
       300  15  3.755575E+05  4.298175E+03  1.655195E+04 -2.743991E+04 -2.690730E-10 -4.204576E-10
       300  16  8.438023E+02 -9.346736E+04 -8.719830E+04 -2.731350E+04  2.245229E-10 -4.907768E-10
       300  17 -4.560650E+04 -1.056204E+05 -9.482210E+04  2.629526E+03  6.809691E-10  1.571429E-09
       300  18 -8.956079E+04 -1.116230E+05 -9.798795E+04 -2.639309E+04  4.557168E-10  7.597341E-10
       300  19  7.503931E+05  9.337621E+04  9.778826E+04 -2.757580E+04  3.415578E+03  6.185639E+03
       300  20  7.943768E+05  1.037072E+05  1.121673E+05  1.448746E+03  7.892244E+03  7.772695E+03
       300  21  8.408727E+05  1.202034E+05  1.310763E+05 -2.848737E+04  1.236694E+04  9.178394E+03
       300  22  3.755546E+05 -4.031456E+01  5.300235E+03 -2.744463E+04  3.899949E+03  6.184935E+03
       300  23  3.743050E+05 -9.500026E+02  8.679267E+03  2.039334E+03  8.321689E+03  7.772398E+03
       300  24  3.755577E+05  4.298309E+03  1.655241E+04 -2.743981E+04  1.274113E+04  9.178450E+03
       300  25  8.438332E+02 -9.346731E+04 -8.719819E+04 -2.731348E+04  4.384027E+03  6.184231E+03
       300  26 -4.560641E+04 -1.056203E+05 -9.482184E+04  2.629581E+03  8.750842E+03  7.772103E+03
       300  27 -8.956059E+04 -1.116229E+05 -9.798747E+04 -2.639299E+04  1.311504E+04  9.178508E+03
       301   1  9.779537E+05  1.481937E+05  1.687344E+05 -2.530291E+04 -1.536065E+04 -1.039452E+04
       301   2  1.017574E+06  1.543598E+05  1.931476E+05  1.263541E+03 -3.353863E+04 -1.215875E+04
       301   3  1.072036E+06  2.047523E+05  2.407259E+05 -3.346712E+04 -5.171556E+04 -1.219352E+04
       301   4  3.782377E+05 -1.222953E+03  2.087584E+04 -2.795925E+04 -1.611122E+04 -1.039453E+04
       301   5  3.708552E+05 -6.734893E+03  3.387973E+04  2.682561E+03 -3.377418E+04 -1.215962E+04
       301   6  3.782378E+05  3.191521E+04  6.970881E+04 -2.797646E+04 -5.143471E+04 -1.219469E+04
       301   7 -2.211517E+05 -1.506664E+05 -1.270093E+05 -3.061296E+04 -1.686105E+04 -1.039454E+04
       301   8 -2.754835E+05 -1.678607E+05 -1.254190E+05  4.100105E+03 -3.400946E+04 -1.216050E+04
       301   9 -3.151228E+05 -1.409576E+05 -1.013438E+05 -2.249200E+04 -5.115414E+04 -1.219586E+04
       301  10  9.779534E+05  1.481936E+05  1.687338E+05 -2.530304E+04 -9.322088E-10  5.830881E-10
       301  11  1.017573E+06  1.543594E+05  1.931452E+05  1.263213E+03  3.610288E-10  2.804122E-10
       301  12  1.072033E+06  2.047514E+05  2.407206E+05 -3.346763E+04 -2.759120E-10 -7.812150E-11
       301  13  3.782374E+05 -1.223139E+03  2.087515E+04 -2.795939E+04  1.808104E-10  7.316058E-10
       301  14  3.708539E+05 -6.735358E+03  3.387731E+04  2.682231E+03 -1.278360E-10 -1.212084E-10
       301  15  3.782349E+05  3.191434E+04  6.970356E+04 -2.797697E+04  6.659227E-11  1.109320E-09
       301  16 -2.211520E+05 -1.506666E+05 -1.270100E+05 -3.061310E+04  1.202891E-11  1.134197E-09
       301  17 -2.754848E+05 -1.678612E+05 -1.254215E+05  4.099772E+03  1.763069E-11  9.798316E-10
       301  18 -3.151256E+05 -1.409584E+05 -1.013490E+05 -2.249250E+04  5.069032E-10  4.185421E-10
       301  19  9.779537E+05  1.481937E+05  1.687344E+05 -2.530291E+04  1.536065E+04  1.039452E+04
       301  20  1.017574E+06  1.543598E+05  1.931476E+05  1.263541E+03  3.353863E+04  1.215875E+04
       301  21  1.072036E+06  2.047523E+05  2.407259E+05 -3.346712E+04  5.171556E+04  1.219352E+04
       301  22  3.782377E+05 -1.222953E+03  2.087584E+04 -2.795925E+04  1.611122E+04  1.039453E+04
       301  23  3.708552E+05 -6.734893E+03  3.387973E+04  2.682561E+03  3.377418E+04  1.215962E+04
       301  24  3.782378E+05  3.191521E+04  6.970881E+04 -2.797646E+04  5.143471E+04  1.219469E+04
       301  25 -2.211517E+05 -1.506664E+05 -1.270093E+05 -3.061296E+04  1.686105E+04  1.039454E+04
       301  26 -2.754835E+05 -1.678607E+05 -1.254190E+05  4.100105E+03  3.400946E+04  1.216050E+04
       301  27 -3.151228E+05 -1.409576E+05 -1.013438E+05 -2.249200E+04  5.115414E+04  1.219586E+04
       302   1  1.229781E+06  1.982274E+05  2.901418E+05 -6.535573E+03 -6.234429E+04 -1.543968E+04
       302   2  1.232989E+06  1.714702E+05  3.479320E+05 -7.074061E+03 -1.377525E+05 -1.837162E+04
       302   3  1.329690E+06  4.676890E+05  5.360978E+05 -7.280581E+04 -2.132038E+05 -6.817288E+03
       302   4  3.955373E+05 -9.622115E+03  8.465451E+04 -2.862763E+04 -6.519248E+04 -1.544194E+04
       302   5  3.490897E+05 -4.856952E+04  1.305760E+05  3.627943E+03 -1.363343E+05 -1.837304E+04
       302   6  3.955179E+05  2.349592E+05  3.040433E+05 -2.931040E+04 -2.075126E+05 -6.816756E+03
       302   7 -4.380738E+05 -2.175216E+05 -1.208839E+05 -5.069016E+04 -6.803680E+04 -1.544400E+04
       302   8 -5.340998E+05 -2.686668E+05 -8.683745E+04  1.431435E+04 -1.349180E+05 -1.837441E+04
       302   9 -5.378595E+05  2.171480E+03  7.192475E+04  1.411910E+04 -2.018297E+05 -6.815437E+03
       302  10  1.229777E+06  1.982261E+05  2.901340E+05 -6.536347E+03  9.479215E-11  6.137493E-10
       302  11  1.232969E+06  1.714647E+05  3.478958E+05 -7.076097E+03 -5.330894E-10  7.775674E-10
       302  12  1.329642E+06  4.676768E+05  5.360125E+05 -7.280698E+04  1.589779E-09 -7.172736E-10
       302  13  3.955326E+05 -9.623511E+03  8.464608E+04 -2.862844E+04  1.782062E-10  2.115625E-09
       302  14  3.490697E+05 -4.857487E+04  1.305405E+05  3.625926E+03  4.517091E-10  3.289880E-09
       302  15  3.954716E+05  2.349476E+05  3.039623E+05 -2.931153E+04  3.110599E-10  1.091324E-10
       302  16 -4.380788E+05 -2.175231E+05 -1.208930E+05 -5.069100E+04  1.512354E-10  1.292973E-09
       302  17 -5.341195E+05 -2.686720E+05 -8.687232E+04  1.431235E+04 -1.274866E-09  6.013315E-10
       302  18 -5.379033E+05  2.160484E+03  7.184805E+04  1.411799E+04 -1.357145E-10 -9.415271E-10
       302  19  1.229781E+06  1.982274E+05  2.901418E+05 -6.535573E+03  6.234429E+04  1.543968E+04
       302  20  1.232989E+06  1.714702E+05  3.479320E+05 -7.074061E+03  1.377525E+05  1.837162E+04
       302  21  1.329690E+06  4.676890E+05  5.360978E+05 -7.280581E+04  2.132038E+05  6.817288E+03
       302  22  3.955373E+05 -9.622115E+03  8.465451E+04 -2.862763E+04  6.519248E+04  1.544194E+04
       302  23  3.490897E+05 -4.856952E+04  1.305760E+05  3.627943E+03  1.363343E+05  1.837304E+04
       302  24  3.955179E+05  2.349592E+05  3.040433E+05 -2.931040E+04  2.075126E+05  6.816756E+03
       302  25 -4.380738E+05 -2.175216E+05 -1.208839E+05 -5.069016E+04  6.803680E+04  1.544400E+04
       302  26 -5.340998E+05 -2.686668E+05 -8.683745E+04  1.431435E+04  1.349180E+05  1.837441E+04
       302  27 -5.378595E+05  2.171480E+03  7.192475E+04  1.411910E+04  2.018297E+05  6.815437E+03
       303   1  2.084052E+05  6.290537E+05  2.418845E+05 -6.907722E+04  2.253169E+03  1.048213E+05
       303   2  4.860932E+04  5.294252E+05  1.361304E+05 -2.336667E+03  6.102418E+03  6.767601E+04
       303   3  4.875487E+04  4.744849E+05  9.450482E+04 -3.609228E+04  3.087246E+03  3.052288E+04
       303   4  1.163236E+05  2.604757E+05  1.502275E+05 -4.618732E+04  2.259992E+03  1.027007E+05
       303   5 -2.393376E+04  2.382969E+05  6.454249E+04  3.976573E+03  6.103456E+03  6.755278E+04
       303   6 -4.554167E+03  2.604818E+05  4.162771E+04 -4.635628E+04  3.083064E+03  3.239231E+04
       303   7  2.423371E+04 -1.079780E+05  5.856060E+04 -2.331096E+04  2.266661E+03  1.005814E+05
       303   8 -9.648300E+04 -5.275427E+04 -7.051647E+03  1.028688E+04  6.104491E+03  6.742960E+04
       303   9 -5.786622E+04  4.652057E+04 -1.125273E+04 -5.661671E+04  3.078818E+03  3.426110E+04
       303  10  2.084022E+05  6.290419E+05  2.418639E+05 -6.907741E+04  8.279306E-11 -7.213176E-11
       303  11  4.860805E+04  5.294203E+05  1.361217E+05 -2.337000E+03  3.665997E-10 -4.710936E-11
       303  12  4.875461E+04  4.744839E+05  9.450306E+04 -3.609236E+04  8.768002E-10 -1.411936E-10
       303  13  1.163207E+05  2.604644E+05  1.502077E+05 -4.618751E+04  1.862987E-10  9.962713E-10
       303  14 -2.393502E+04  2.382920E+05  6.453385E+04  3.976241E+03 -1.292585E-09  1.569109E-10
       303  15 -4.554459E+03  2.604807E+05  4.162572E+04 -4.635636E+04  1.869008E-10  5.101327E-10
       303  16  2.423099E+04 -1.079889E+05  5.854158E+04 -2.331115E+04 -3.215328E-10  8.840988E-11
       303  17 -9.648426E+04 -5.275917E+04 -7.060261E+03  1.028655E+04 -3.626961E-10 -6.633606E-10
       303  18 -5.786654E+04  4.651931E+04 -1.125495E+04 -5.661680E+04  2.807647E-10  1.340109E-10
       303  19  2.084052E+05  6.290537E+05  2.418845E+05 -6.907722E+04 -2.253169E+03 -1.048213E+05
       303  20  4.860932E+04  5.294252E+05  1.361304E+05 -2.336667E+03 -6.102418E+03 -6.767601E+04
       303  21  4.875487E+04  4.744849E+05  9.450482E+04 -3.609228E+04 -3.087246E+03 -3.052288E+04
       303  22  1.163236E+05  2.604757E+05  1.502275E+05 -4.618732E+04 -2.259992E+03 -1.027007E+05
       303  23 -2.393376E+04  2.382969E+05  6.454249E+04  3.976573E+03 -6.103456E+03 -6.755278E+04
       303  24 -4.554167E+03  2.604818E+05  4.162771E+04 -4.635628E+04 -3.083064E+03 -3.239231E+04
       303  25  2.423371E+04 -1.079780E+05  5.856060E+04 -2.331096E+04 -2.266661E+03 -1.005814E+05
       303  26 -9.648300E+04 -5.275427E+04 -7.051647E+03  1.028688E+04 -6.104491E+03 -6.742960E+04
       303  27 -5.786622E+04  4.652057E+04 -1.125273E+04 -5.661671E+04 -3.078818E+03 -3.426110E+04
       304   1  1.331415E+04  2.410652E+05  3.141451E+04 -4.909211E+04  2.736755E+02  2.501931E+04
       304   2 -2.516492E+04  1.609939E+05 -5.287239E+03  3.343266E+03 -1.695478E+03  1.657205E+04
       304   3 -4.180564E+04  8.703444E+04 -3.112629E+04 -4.459575E+04 -3.354409E+03  8.127049E+03
       304   4  1.604341E+04  2.519949E+05  3.420436E+04 -4.624625E+04  2.725181E+02  2.563760E+04
       304   5 -3.249828E+03  2.489357E+05  1.638065E+04  3.923641E+03 -1.696463E+03  1.710105E+04
       304   6 -6.898466E+02  2.519990E+05  9.482594E+03 -4.627970E+04 -3.355194E+03  8.565738E+03
       304   7  1.877270E+04  2.629247E+05  3.699420E+04 -4.340034E+04  2.713665E+02  2.625589E+04
       304   8  1.866469E+04  3.368845E+05  3.804796E+04  4.504103E+03 -1.697446E+03  1.763013E+04
       304   9  4.042393E+04  4.169883E+05  5.008947E+04 -4.796409E+04 -3.355980E+03  9.004544E+03
       304  10  1.331398E+04  2.410646E+05  3.141334E+04 -4.909212E+04  5.125225E-10 -2.099570E-09
       304  11 -2.516499E+04  1.609936E+05 -5.287760E+03  3.343289E+03  1.011201E-09 -1.960071E-10
       304  12 -4.180567E+04  8.703437E+04 -3.112643E+04 -4.459573E+04 -7.271602E-10  2.195868E-09
       304  13  1.604324E+04  2.519942E+05  3.420313E+04 -4.624626E+04  9.281338E-11  1.649023E-09
       304  14 -3.249909E+03  2.489353E+05  1.638009E+04  3.923665E+03  1.645514E-09 -3.895079E-11
       304  15 -6.898784E+02  2.519989E+05  9.482435E+03 -4.627968E+04  1.206863E-09  4.000796E-10
       304  16  1.877251E+04  2.629239E+05  3.699291E+04 -4.340034E+04 -4.254231E-11  2.172132E-09
       304  17  1.866460E+04  3.368841E+05  3.804737E+04  4.504127E+03 -1.653930E-09 -6.402378E-10
       304  18  4.042390E+04  4.169882E+05  5.008929E+04 -4.796406E+04  1.105573E-10 -2.321681E-09
       304  19  1.331415E+04  2.410652E+05  3.141451E+04 -4.909211E+04 -2.736755E+02 -2.501931E+04
       304  20 -2.516492E+04  1.609939E+05 -5.287239E+03  3.343266E+03  1.695478E+03 -1.657205E+04
       304  21 -4.180564E+04  8.703444E+04 -3.112629E+04 -4.459575E+04  3.354409E+03 -8.127049E+03
       304  22  1.604341E+04  2.519949E+05  3.420436E+04 -4.624625E+04 -2.725181E+02 -2.563760E+04
       304  23 -3.249828E+03  2.489357E+05  1.638065E+04  3.923641E+03  1.696463E+03 -1.710105E+04
       304  24 -6.898466E+02  2.519990E+05  9.482594E+03 -4.627970E+04  3.355194E+03 -8.565738E+03
       304  25  1.877270E+04  2.629247E+05  3.699420E+04 -4.340034E+04 -2.713665E+02 -2.625589E+04
       304  26  1.866469E+04  3.368845E+05  3.804796E+04  4.504103E+03  1.697446E+03 -1.763013E+04
       304  27  4.042393E+04  4.169883E+05  5.008947E+04 -4.796409E+04  3.355980E+03 -9.004544E+03
       305   1 -9.496616E+04 -1.395562E+05 -8.916063E+04 -4.614027E+04 -6.519270E+03  4.738759E+03
       305   2 -1.168499E+05 -2.175197E+05 -1.125465E+05  4.405645E+03 -9.810776E+03  6.161219E+03
       305   3 -1.376426E+05 -2.949315E+05 -1.364970E+05 -4.615576E+04 -3.597974E+03  7.594108E+03
       305   4  2.380708E+03  2.508241E+05  7.209277E+03 -4.642779E+04 -6.522959E+03  7.057542E+03
       305   5 -2.571625E+02  2.503185E+05  2.575370E+03  4.121103E+03 -9.809813E+03  5.743135E+03
       305   6 -1.328712E+03  2.508336E+05 -7.222590E+02 -4.643259E+04 -3.595496E+03  4.439383E+03
       305   7  9.971621E+04  6.413431E+05  1.035679E+05 -4.671543E+04 -6.526649E+03  9.377780E+03
       305   8  1.163193E+05  7.183559E+05  1.176811E+05  3.836403E+03 -9.808850E+03  5.324734E+03
       305   9  1.349628E+05  7.968690E+05  1.350302E+05 -4.670960E+04 -3.593017E+03  1.281885E+03
       305  10 -9.496622E+04 -1.395563E+05 -8.916075E+04 -4.614024E+04 -2.830392E-10  3.447457E-10
       305  11 -1.168500E+05 -2.175198E+05 -1.125468E+05  4.405694E+03  1.344726E-10 -8.354525E-11
       305  12 -1.376427E+05 -2.949316E+05 -1.364972E+05 -4.615574E+04  1.054221E-11  1.926750E-10
       305  13  2.380649E+03  2.508241E+05  7.209103E+03 -4.642775E+04 -1.454009E-09  1.538993E-09
       305  14 -2.572747E+02  2.503184E+05  2.575127E+03  4.121148E+03 -1.753816E-10  5.525040E-11
       305  15 -1.328732E+03  2.508336E+05 -7.223203E+02 -4.643258E+04 -6.170314E-10  1.731848E-10
       305  16  9.971615E+04  6.413430E+05  1.035677E+05 -4.671538E+04  7.255398E-10 -3.578513E-10
       305  17  1.163192E+05  7.183558E+05  1.176809E+05  3.836445E+03 -9.262131E-10 -4.145353E-10
       305  18  1.349628E+05  7.968690E+05  1.350302E+05 -4.670960E+04 -7.667055E-10 -1.257352E-10
       305  19 -9.496616E+04 -1.395562E+05 -8.916063E+04 -4.614027E+04  6.519270E+03 -4.738759E+03
       305  20 -1.168499E+05 -2.175197E+05 -1.125465E+05  4.405645E+03  9.810776E+03 -6.161219E+03
       305  21 -1.376426E+05 -2.949315E+05 -1.364970E+05 -4.615576E+04  3.597974E+03 -7.594108E+03
       305  22  2.380708E+03  2.508241E+05  7.209277E+03 -4.642779E+04  6.522959E+03 -7.057542E+03
       305  23 -2.571625E+02  2.503185E+05  2.575370E+03  4.121103E+03  9.809813E+03 -5.743135E+03
       305  24 -1.328712E+03  2.508336E+05 -7.222590E+02 -4.643259E+04  3.595496E+03 -4.439383E+03
       305  25  9.971621E+04  6.413431E+05  1.035679E+05 -4.671543E+04  6.526649E+03 -9.377780E+03
       305  26  1.163193E+05  7.183559E+05  1.176811E+05  3.836403E+03  9.808850E+03 -5.324734E+03
       305  27  1.349628E+05  7.968690E+05  1.350302E+05 -4.670960E+04  3.593017E+03 -1.281885E+03
       306   1 -2.084791E+06 -6.120779E+05 -3.997745E+05 -7.088696E+05 -2.095589E+05 -7.672687E+04
       306   2 -2.023832E+06 -3.102089E+05 -2.048132E+05 -7.658712E+05 -1.357872E+05 -4.477160E+04
       306   3 -2.090082E+06 -3.324202E+05 -1.538208E+05 -7.430733E+05 -6.043676E+04 -1.701652E+04
       306   4 -1.852515E+06 -4.822270E+05 -3.275517E+05 -6.026192E+05 -2.080614E+05 -7.618128E+04
       306   5 -1.772504E+06 -2.042628E+05 -1.342710E+05 -6.861271E+05 -1.353952E+05 -4.462744E+04
       306   6 -1.819436E+06 -2.500839E+05 -8.403842E+04 -6.898503E+05 -6.114822E+04 -1.728148E+04
       306   7 -1.620182E+06 -3.523504E+05 -2.553340E+05 -4.963263E+05 -2.065633E+05 -7.563518E+04
       306   8 -1.521115E+06 -9.830863E+04 -6.373477E+04 -6.063523E+05 -1.350030E+05 -4.448319E+04
       306   9 -1.548720E+06 -1.677489E+05 -1.426185E+04 -6.366092E+05 -6.186001E+04 -1.754652E+04
       306  10 -2.084839E+06 -6.120961E+05 -3.998684E+05 -7.088826E+05  4.998939E-10 -3.264211E-11
       306  11 -2.023852E+06 -3.102160E+05 -2.048517E+05 -7.658761E+05 -3.710151E-10  1.351088E-10
       306  12 -2.090086E+06 -3.324215E+05 -1.538282E+05 -7.430741E+05  6.590001E-10  1.861903E-10
       306  13 -1.852563E+06 -4.822449E+05 -3.276442E+05 -6.026320E+05  1.503892E-09 -3.929873E-10
       306  14 -1.772524E+06 -2.042699E+05 -1.343093E+05 -6.861319E+05  1.087507E-09 -2.889751E-10
       306  15 -1.819440E+06 -2.500852E+05 -8.404603E+04 -6.898511E+05  1.548454E-09  4.632357E-10
       306  16 -1.620229E+06 -3.523681E+05 -2.554252E+05 -4.963389E+05  3.112261E-10 -3.450857E-10
       306  17 -1.521135E+06 -9.831567E+04 -6.377285E+04 -6.063571E+05 -4.353198E-10 -7.240442E-11
       306  18 -1.548724E+06 -1.677502E+05 -1.426964E+04 -6.366101E+05  1.275261E-09  4.141292E-10
       306  19 -2.084791E+06 -6.120779E+05 -3.997745E+05 -7.088696E+05  2.095589E+05  7.672687E+04
       306  20 -2.023832E+06 -3.102089E+05 -2.048132E+05 -7.658712E+05  1.357872E+05  4.477160E+04
       306  21 -2.090082E+06 -3.324202E+05 -1.538208E+05 -7.430733E+05  6.043676E+04  1.701652E+04
       306  22 -1.852515E+06 -4.822270E+05 -3.275517E+05 -6.026192E+05  2.080614E+05  7.618128E+04
       306  23 -1.772504E+06 -2.042628E+05 -1.342710E+05 -6.861271E+05  1.353952E+05  4.462744E+04
       306  24 -1.819436E+06 -2.500839E+05 -8.403842E+04 -6.898503E+05  6.114822E+04  1.728148E+04
       306  25 -1.620182E+06 -3.523504E+05 -2.553340E+05 -4.963263E+05  2.065633E+05  7.563518E+04
       306  26 -1.521115E+06 -9.830863E+04 -6.373477E+04 -6.063523E+05  1.350030E+05  4.448319E+04
       306  27 -1.548720E+06 -1.677489E+05 -1.426185E+04 -6.366092E+05  6.186001E+04  1.754652E+04
       307   1 -2.041080E+06 -3.823587E+05 -1.338087E+05 -7.391924E+05 -4.848168E+04 -1.335995E+04
       307   2 -2.028480E+06 -3.337083E+05 -9.408267E+04 -7.405275E+05 -3.166950E+04 -6.776033E+03
       307   3 -2.026501E+06 -3.379178E+05 -7.913298E+04 -7.398658E+05 -1.460905E+04 -8.524483E+02
       307   4 -1.807596E+06 -2.886819E+05 -6.906156E+04 -6.700178E+05 -4.834133E+04 -1.330793E+04
       307   5 -1.800017E+06 -2.461633E+05 -3.161653E+04 -6.770525E+05 -3.170070E+04 -6.787948E+03
       307   6 -1.803019E+06 -2.564603E+05 -1.880440E+04 -6.820917E+05 -1.481200E+04 -9.285275E+02
       307   7 -1.574060E+06 -1.949999E+05 -4.319378E+03 -6.008188E+05 -4.820093E+04 -1.325589E+04
       307   8 -1.571504E+06 -1.586149E+05  3.084492E+04 -6.135561E+05 -3.173191E+04 -6.799868E+03
       307   9 -1.579489E+06 -1.750007E+05  4.151975E+04 -6.242992E+05 -1.501504E+04 -1.004634E+03
       307  10 -2.041082E+06 -3.823595E+05 -1.338135E+05 -7.391929E+05  1.083878E-09  7.780547E-10
       307  11 -2.028481E+06 -3.337086E+05 -9.408465E+04 -7.405277E+05  5.716579E-10 -2.704422E-10
       307  12 -2.026502E+06 -3.379179E+05 -7.913338E+04 -7.398658E+05  3.950277E-10  2.820008E-10
       307  13 -1.807599E+06 -2.886827E+05 -6.906630E+04 -6.700183E+05  1.356862E-09  6.630680E-10
       307  14 -1.800018E+06 -2.461636E+05 -3.161851E+04 -6.770526E+05 -4.045713E-11 -2.176173E-10
       307  15 -1.803019E+06 -2.564603E+05 -1.880482E+04 -6.820917E+05 -4.564193E-10  1.789622E-11
       307  16 -1.574063E+06 -1.950007E+05 -4.324088E+03 -6.008193E+05  1.361432E-09 -3.521164E-11
       307  17 -1.571505E+06 -1.586152E+05  3.084294E+04 -6.135563E+05  3.004431E-10  2.140261E-10
       307  18 -1.579489E+06 -1.750007E+05  4.151933E+04 -6.242992E+05 -5.412833E-10  1.113531E-10
       307  19 -2.041080E+06 -3.823587E+05 -1.338087E+05 -7.391924E+05  4.848168E+04  1.335995E+04
       307  20 -2.028480E+06 -3.337083E+05 -9.408267E+04 -7.405275E+05  3.166950E+04  6.776033E+03
       307  21 -2.026501E+06 -3.379178E+05 -7.913298E+04 -7.398658E+05  1.460905E+04  8.524483E+02
       307  22 -1.807596E+06 -2.886819E+05 -6.906156E+04 -6.700178E+05  4.834133E+04  1.330793E+04
       307  23 -1.800017E+06 -2.461633E+05 -3.161653E+04 -6.770525E+05  3.170070E+04  6.787948E+03
       307  24 -1.803019E+06 -2.564603E+05 -1.880440E+04 -6.820917E+05  1.481200E+04  9.285275E+02
       307  25 -1.574060E+06 -1.949999E+05 -4.319378E+03 -6.008188E+05  4.820093E+04  1.325589E+04
       307  26 -1.571504E+06 -1.586149E+05  3.084492E+04 -6.135561E+05  3.173191E+04  6.799868E+03
       307  27 -1.579489E+06 -1.750007E+05  4.151975E+04 -6.242992E+05  1.501504E+04  1.004634E+03
       308   1 -1.988241E+06 -3.339751E+05 -6.617124E+04 -7.318495E+05 -1.184705E+04 -1.728371E+02
       308   2 -1.981022E+06 -3.175881E+05 -5.535889E+04 -7.226888E+05 -7.854196E+03  9.269472E+02
       308   3 -1.964315E+06 -3.195976E+05 -4.908794E+04 -7.259894E+05 -3.795995E+03  1.851570E+03
       308   4 -1.800486E+06 -2.625056E+05 -1.494464E+04 -6.801695E+05 -1.191911E+04 -1.999264E+02
       308   5 -1.804920E+06 -2.510877E+05 -7.396659E+03 -6.747705E+05 -7.972216E+03  8.826990E+02
       308   6 -1.799856E+06 -2.580558E+05 -4.352496E+03 -6.818330E+05 -3.960066E+03  1.790151E+03
       308   7 -1.612698E+06 -1.910341E+05  3.627869E+04 -6.284755E+05 -1.199118E+04 -2.270247E+02
       308   8 -1.628789E+06 -1.845855E+05  4.056277E+04 -6.268400E+05 -8.090273E+03  8.384370E+02
       308   9 -1.635371E+06 -1.965125E+05  4.038058E+04 -6.376660E+05 -4.124185E+03  1.728713E+03
       308  10 -1.988241E+06 -3.339751E+05 -6.617150E+04 -7.318495E+05  4.742381E-11  4.635976E-10
       308  11 -1.981022E+06 -3.175882E+05 -5.535901E+04 -7.226888E+05 -1.728015E-10  1.613858E-10
       308  12 -1.964315E+06 -3.195976E+05 -4.908797E+04 -7.259894E+05 -4.390775E-10 -2.822961E-10
       308  13 -1.800486E+06 -2.625056E+05 -1.494491E+04 -6.801695E+05 -3.723853E-10  1.919276E-10
       308  14 -1.804920E+06 -2.510877E+05 -7.396780E+03 -6.747705E+05 -8.123197E-10 -3.544175E-11
       308  15 -1.799856E+06 -2.580558E+05 -4.352532E+03 -6.818330E+05  9.949951E-11  8.773070E-10
       308  16 -1.612698E+06 -1.910341E+05  3.627842E+04 -6.284755E+05 -3.495815E-10  1.644207E-10
       308  17 -1.628789E+06 -1.845855E+05  4.056265E+04 -6.268400E+05  7.529366E-10 -3.045554E-10
       308  18 -1.635371E+06 -1.965125E+05  4.038054E+04 -6.376660E+05 -1.507768E-09 -3.630778E-10
       308  19 -1.988241E+06 -3.339751E+05 -6.617124E+04 -7.318495E+05  1.184705E+04  1.728371E+02
       308  20 -1.981022E+06 -3.175881E+05 -5.535889E+04 -7.226888E+05  7.854196E+03 -9.269472E+02
       308  21 -1.964315E+06 -3.195976E+05 -4.908794E+04 -7.259894E+05  3.795995E+03 -1.851570E+03
       308  22 -1.800486E+06 -2.625056E+05 -1.494464E+04 -6.801695E+05  1.191911E+04  1.999264E+02
       308  23 -1.804920E+06 -2.510877E+05 -7.396659E+03 -6.747705E+05  7.972216E+03 -8.826990E+02
       308  24 -1.799856E+06 -2.580558E+05 -4.352496E+03 -6.818330E+05  3.960066E+03 -1.790151E+03
       308  25 -1.612698E+06 -1.910341E+05  3.627869E+04 -6.284755E+05  1.199118E+04  2.270247E+02
       308  26 -1.628789E+06 -1.845855E+05  4.056277E+04 -6.268400E+05  8.090273E+03 -8.384370E+02
       308  27 -1.635371E+06 -1.965125E+05  4.038058E+04 -6.376660E+05  4.124185E+03 -1.728713E+03
       309   1 -1.918767E+06 -3.045457E+05 -3.602396E+04 -7.146895E+05 -3.061653E+03  1.756365E+03
       309   2 -1.911212E+06 -2.906755E+05 -3.059758E+04 -7.022060E+05 -1.817003E+03  1.619331E+03
       309   3 -1.889152E+06 -2.927204E+05 -2.620106E+04 -7.067020E+05 -5.454375E+02  1.409644E+03
       309   4 -1.799000E+06 -2.593684E+05 -3.461682E+03 -6.821383E+05 -3.194333E+03  1.706719E+03
       309   5 -1.806216E+06 -2.511391E+05 -2.024048E+03 -6.737509E+05 -1.969021E+03  1.562490E+03
       309   6 -1.798923E+06 -2.588209E+05 -1.600724E+03 -6.823428E+05 -7.168235E+02  1.345603E+03
       309   7 -1.679219E+06 -2.141904E+05  2.909930E+04 -6.495815E+05 -3.327042E+03  1.657063E+03
       309   8 -1.701209E+06 -2.116022E+05  2.654847E+04 -6.452915E+05 -2.121067E+03  1.505637E+03
       309   9 -1.708686E+06 -2.249209E+05  2.299884E+04 -6.579805E+05 -8.882367E+02  1.281551E+03
       309  10 -1.918767E+06 -3.045457E+05 -3.602398E+04 -7.146895E+05 -9.374444E-11  3.046000E-10
       309  11 -1.911212E+06 -2.906755E+05 -3.059759E+04 -7.022060E+05 -7.044844E-10 -7.040980E-10
       309  12 -1.889152E+06 -2.927205E+05 -2.620107E+04 -7.067020E+05 -2.327404E-10 -3.093216E-10
       309  13 -1.799000E+06 -2.593685E+05 -3.461706E+03 -6.821383E+05 -1.094958E-09  2.217758E-10
       309  14 -1.806216E+06 -2.511391E+05 -2.024060E+03 -6.737509E+05 -4.926805E-10 -9.732866E-11
       309  15 -1.798923E+06 -2.588209E+05 -1.600729E+03 -6.823428E+05 -2.832052E-10 -3.089223E-10
       309  16 -1.679219E+06 -2.141904E+05  2.909928E+04 -6.495815E+05 -1.961529E-09 -4.948525E-10
       309  17 -1.701209E+06 -2.116022E+05  2.654845E+04 -6.452915E+05 -7.663029E-10 -3.108824E-10
       309  18 -1.708686E+06 -2.249209E+05  2.299883E+04 -6.579805E+05 -5.510647E-12 -9.947242E-10
       309  19 -1.918767E+06 -3.045457E+05 -3.602396E+04 -7.146895E+05  3.061653E+03 -1.756365E+03
       309  20 -1.911212E+06 -2.906755E+05 -3.059758E+04 -7.022060E+05  1.817003E+03 -1.619331E+03
       309  21 -1.889152E+06 -2.927204E+05 -2.620106E+04 -7.067020E+05  5.454375E+02 -1.409644E+03
       309  22 -1.799000E+06 -2.593684E+05 -3.461682E+03 -6.821383E+05  3.194333E+03 -1.706719E+03
       309  23 -1.806216E+06 -2.511391E+05 -2.024048E+03 -6.737509E+05  1.969021E+03 -1.562490E+03
       309  24 -1.798923E+06 -2.588209E+05 -1.600724E+03 -6.823428E+05  7.168235E+02 -1.345603E+03
       309  25 -1.679219E+06 -2.141904E+05  2.909930E+04 -6.495815E+05  3.327042E+03 -1.657063E+03
       309  26 -1.701209E+06 -2.116022E+05  2.654847E+04 -6.452915E+05  2.121067E+03 -1.505637E+03
       309  27 -1.708686E+06 -2.249209E+05  2.299884E+04 -6.579805E+05  8.882367E+02 -1.281551E+03
       310   1 -1.837756E+06 -2.738854E+05 -1.217672E+04 -6.933200E+05 -1.544880E+02  1.140406E+03
       310   2 -1.829623E+06 -2.594601E+05 -8.172309E+03 -6.795707E+05  1.040241E+03  8.919236E+02
       310   3 -1.805735E+06 -2.621517E+05 -5.130883E+03 -6.843033E+05  2.237902E+03  6.355511E+02
       310   4 -1.798648E+06 -2.591189E+05 -1.583858E+03 -6.826645E+05 -3.174179E+02  1.079544E+03
       310   5 -1.806559E+06 -2.507922E+05 -1.898933E+03 -6.733372E+05  8.752231E+02  8.302883E+02
       310   6 -1.798713E+06 -2.595819E+05 -3.175383E+03 -6.824921E+05  2.070768E+03  5.731336E+02
       310   7 -1.759538E+06 -2.443524E+05  9.008885E+03 -6.720083E+05 -4.803594E+02  1.018677E+03
       310   8 -1.783493E+06 -2.421242E+05  4.374400E+03 -6.671035E+05  7.101984E+02  7.686504E+02
       310   9 -1.791692E+06 -2.570122E+05 -1.219888E+03 -6.806808E+05  1.903632E+03  5.107153E+02
       310  10 -1.837756E+06 -2.738854E+05 -1.217672E+04 -6.933200E+05 -8.295230E-10  2.269267E-10
       310  11 -1.829623E+06 -2.594601E+05 -8.172312E+03 -6.795707E+05  8.803057E-10  1.436431E-09
       310  12 -1.805735E+06 -2.621517E+05 -5.130893E+03 -6.843033E+05 -3.186473E-10 -2.011799E-10
       310  13 -1.798648E+06 -2.591189E+05 -1.583860E+03 -6.826645E+05  1.679352E-11 -2.529010E-11
       310  14 -1.806559E+06 -2.507922E+05 -1.898936E+03 -6.733372E+05  8.428782E-10  2.448811E-09
       310  15 -1.798713E+06 -2.595819E+05 -3.175392E+03 -6.824921E+05  1.517043E-10 -2.241086E-10
       310  16 -1.759538E+06 -2.443524E+05  9.008882E+03 -6.720083E+05 -1.006628E-10  1.564515E-10
       310  17 -1.783493E+06 -2.421242E+05  4.374398E+03 -6.671035E+05 -1.072752E-09 -2.142012E-09
       310  18 -1.791692E+06 -2.570122E+05 -1.219895E+03 -6.806808E+05  9.256653E-10  5.120085E-10
       310  19 -1.837756E+06 -2.738854E+05 -1.217672E+04 -6.933200E+05  1.544880E+02 -1.140406E+03
       310  20 -1.829623E+06 -2.594601E+05 -8.172309E+03 -6.795707E+05 -1.040241E+03 -8.919236E+02
       310  21 -1.805735E+06 -2.621517E+05 -5.130883E+03 -6.843033E+05 -2.237902E+03 -6.355511E+02
       310  22 -1.798648E+06 -2.591189E+05 -1.583858E+03 -6.826645E+05  3.174179E+02 -1.079544E+03
       310  23 -1.806559E+06 -2.507922E+05 -1.898933E+03 -6.733372E+05 -8.752231E+02 -8.302883E+02
       310  24 -1.798713E+06 -2.595819E+05 -3.175383E+03 -6.824921E+05 -2.070768E+03 -5.731336E+02
       310  25 -1.759538E+06 -2.443524E+05  9.008885E+03 -6.720083E+05  4.803594E+02 -1.018677E+03
       310  26 -1.783493E+06 -2.421242E+05  4.374400E+03 -6.671035E+05 -7.101984E+02 -7.686504E+02
       310  27 -1.791692E+06 -2.570122E+05 -1.219888E+03 -6.806808E+05 -1.903632E+03 -5.107153E+02
       311   1 -1.753263E+06 -2.420180E+05  8.462186E+03 -6.707571E+05  2.985180E+03  4.806974E+02
       311   2 -1.744832E+06 -2.270077E+05  9.946593E+03 -6.568741E+05  6.659094E+03  1.140315E+03
       311   3 -1.723097E+06 -2.334900E+05  7.336483E+03 -6.598899E+05  1.029806E+04  1.894144E+03
       311   4 -1.799026E+06 -2.588823E+05 -3.978902E+03 -6.827653E+05  2.804129E+03  4.130790E+02
       311   5 -1.805959E+06 -2.501441E+05 -6.709234E+03 -6.735659E+05  6.503030E+03  1.082004E+03
       311   6 -1.799593E+06 -2.629040E+05 -1.355427E+04 -6.812654E+05  1.016690E+04  1.845105E+03
       311   7 -1.844786E+06 -2.757465E+05 -1.642016E+04 -6.947727E+05  2.623093E+03  3.454659E+02
       311   8 -1.867082E+06 -2.732803E+05 -2.336540E+04 -6.902561E+05  6.346984E+03  1.023699E+03
       311   9 -1.876085E+06 -2.923177E+05 -3.444559E+04 -7.026385E+05  1.003575E+04  1.796073E+03
       311  10 -1.753263E+06 -2.420180E+05  8.462169E+03 -6.707571E+05 -1.954512E-09 -4.302150E-10
       311  11 -1.744832E+06 -2.270077E+05  9.946506E+03 -6.568741E+05 -1.754988E-09  1.959350E-09
       311  12 -1.723097E+06 -2.334900E+05  7.336276E+03 -6.598899E+05 -1.076782E-09 -1.594579E-11
       311  13 -1.799026E+06 -2.588823E+05 -3.978917E+03 -6.827653E+05 -5.390492E-10  1.032275E-09
       311  14 -1.805959E+06 -2.501441E+05 -6.709316E+03 -6.735659E+05 -8.164253E-10  4.351751E-10
       311  15 -1.799594E+06 -2.629041E+05 -1.355447E+04 -6.812654E+05  5.200575E-11 -5.412208E-10
       311  16 -1.844786E+06 -2.757465E+05 -1.642017E+04 -6.947727E+05  8.196489E-10  1.963712E-10
       311  17 -1.867083E+06 -2.732803E+05 -2.336548E+04 -6.902561E+05 -1.893575E-09  4.769474E-10
       311  18 -1.876085E+06 -2.923177E+05 -3.444579E+04 -7.026385E+05 -7.866140E-11  1.363066E-09
       311  19 -1.753263E+06 -2.420180E+05  8.462186E+03 -6.707571E+05 -2.985180E+03 -4.806974E+02
       311  20 -1.744832E+06 -2.270077E+05  9.946593E+03 -6.568741E+05 -6.659094E+03 -1.140315E+03
       311  21 -1.723097E+06 -2.334900E+05  7.336483E+03 -6.598899E+05 -1.029806E+04 -1.894144E+03
       311  22 -1.799026E+06 -2.588823E+05 -3.978902E+03 -6.827653E+05 -2.804129E+03 -4.130790E+02
       311  23 -1.805959E+06 -2.501441E+05 -6.709234E+03 -6.735659E+05 -6.503030E+03 -1.082004E+03
       311  24 -1.799593E+06 -2.629040E+05 -1.355427E+04 -6.812654E+05 -1.016690E+04 -1.845105E+03
       311  25 -1.844786E+06 -2.757465E+05 -1.642016E+04 -6.947727E+05 -2.623093E+03 -3.454659E+02
       311  26 -1.867082E+06 -2.732803E+05 -2.336540E+04 -6.902561E+05 -6.346984E+03 -1.023699E+03
       311  27 -1.876085E+06 -2.923177E+05 -3.444559E+04 -7.026385E+05 -1.003575E+04 -1.796073E+03
       312   1 -1.674138E+06 -2.123803E+05  1.716244E+04 -6.515468E+05  1.307474E+04  2.463706E+03
       312   2 -1.663601E+06 -1.918928E+05  9.241040E+03 -6.363305E+05  2.832646E+04  7.481604E+03
       312   3 -1.656266E+06 -2.257505E+05 -2.091943E+04 -6.268499E+05  4.338041E+04  1.302939E+04
       312   4 -1.801528E+06 -2.577956E+05 -1.705124E+04 -6.834256E+05  1.284040E+04  2.376156E+03
       312   5 -1.801974E+06 -2.452162E+05 -2.864134E+04 -6.751003E+05  2.823135E+04  7.445921E+03
       312   6 -1.805653E+06 -2.870157E+05 -6.258506E+04 -6.725102E+05  4.342419E+04  1.304528E+04
       312   7 -1.928901E+06 -3.032103E+05 -5.126633E+04 -7.152987E+05  1.260612E+04  2.288624E+03
       312   8 -1.940327E+06 -2.985382E+05 -6.652544E+04 -7.138621E+05  2.813626E+04  7.410246E+03
       312   9 -1.955018E+06 -3.482784E+05 -1.042527E+05 -7.181601E+05  4.346797E+04  1.306117E+04
       312  10 -1.674139E+06 -2.123803E+05  1.716210E+04 -6.515468E+05 -1.109175E-10 -1.434244E-09
       312  11 -1.663602E+06 -1.918931E+05  9.239422E+03 -6.363307E+05  4.285565E-10 -2.468077E-09
       312  12 -1.656268E+06 -2.257512E+05 -2.092330E+04 -6.268504E+05 -4.155871E-10 -6.327770E-10
       312  13 -1.801528E+06 -2.577956E+05 -1.705156E+04 -6.834256E+05  1.419768E-09  1.402845E-09
       312  14 -1.801974E+06 -2.452165E+05 -2.864295E+04 -6.751004E+05  1.674772E-09 -7.470243E-10
       312  15 -1.805655E+06 -2.870164E+05 -6.258893E+04 -6.725107E+05 -1.937170E-10 -6.813493E-10
       312  16 -1.928901E+06 -3.032104E+05 -5.126664E+04 -7.152988E+05  6.331703E-11  7.637556E-10
       312  17 -1.940328E+06 -2.985385E+05 -6.652704E+04 -7.138623E+05  1.314323E-09  7.773989E-10
       312  18 -1.955020E+06 -3.482791E+05 -1.042566E+05 -7.181606E+05  5.625023E-10  2.220788E-10
       312  19 -1.674138E+06 -2.123803E+05  1.716244E+04 -6.515468E+05 -1.307474E+04 -2.463706E+03
       312  20 -1.663601E+06 -1.918928E+05  9.241040E+03 -6.363305E+05 -2.832646E+04 -7.481604E+03
       312  21 -1.656266E+06 -2.257505E+05 -2.091943E+04 -6.268499E+05 -4.338041E+04 -1.302939E+04
       312  22 -1.801528E+06 -2.577956E+05 -1.705124E+04 -6.834256E+05 -1.284040E+04 -2.376156E+03
       312  23 -1.801974E+06 -2.452162E+05 -2.864134E+04 -6.751003E+05 -2.823135E+04 -7.445921E+03
       312  24 -1.805653E+06 -2.870157E+05 -6.258506E+04 -6.725102E+05 -4.342419E+04 -1.304528E+04
       312  25 -1.928901E+06 -3.032103E+05 -5.126633E+04 -7.152987E+05 -1.260612E+04 -2.288624E+03
       312  26 -1.940327E+06 -2.985382E+05 -6.652544E+04 -7.138621E+05 -2.813626E+04 -7.410246E+03
       312  27 -1.955018E+06 -3.482784E+05 -1.042527E+05 -7.181601E+05 -4.346797E+04 -1.306117E+04
       313   1 -1.610306E+06 -1.926033E+05 -2.365259E+04 -6.533531E+05  5.577121E+04  1.675243E+04
       313   2 -1.581476E+06 -1.232011E+05 -6.646812E+04 -6.195654E+05  1.222228E+05  4.083652E+04
       313   3 -1.659866E+06 -3.546425E+05 -2.381413E+05 -5.223609E+05  1.873277E+05  6.852597E+04
       313   4 -1.816189E+06 -2.522230E+05 -7.615293E+04 -6.906879E+05  5.508656E+04  1.649809E+04
       313   5 -1.777356E+06 -2.069536E+05 -1.216590E+05 -6.829886E+05  1.224865E+05  4.093273E+04
       313   6 -1.845971E+06 -4.627773E+05 -2.968084E+05 -6.118628E+05  1.885404E+05  6.896612E+04
       313   7 -2.022030E+06 -3.118438E+05 -1.286565E+05 -7.280134E+05  5.440215E+04  1.624379E+04
       313   8 -1.973199E+06 -2.907007E+05 -1.768535E+05 -7.463926E+05  1.227501E+05  4.102889E+04
       313   9 -2.032038E+06 -5.708925E+05 -3.554784E+05 -7.013355E+05  1.897528E+05  6.940592E+04
       313  10 -1.610310E+06 -1.926044E+05 -2.365898E+04 -6.533539E+05  7.917073E-11  1.428486E-09
       313  11 -1.581493E+06 -1.232069E+05 -6.649942E+04 -6.195694E+05  3.817724E-10 -7.227798E-11
       313  12 -1.659905E+06 -3.546570E+05 -2.382163E+05 -5.223713E+05  6.732063E-10  1.321717E-10
       313  13 -1.816192E+06 -2.522241E+05 -7.615917E+04 -6.906886E+05 -6.713683E-10 -3.132006E-10
       313  14 -1.777373E+06 -2.069595E+05 -1.216905E+05 -6.829926E+05  1.246639E-10  3.687535E-10
       313  15 -1.846011E+06 -4.627920E+05 -2.968844E+05 -6.118733E+05  2.979638E-10  4.448791E-10
       313  16 -2.022033E+06 -3.118449E+05 -1.286626E+05 -7.280141E+05 -6.577041E-10 -6.731218E-10
       313  17 -1.973216E+06 -2.907066E+05 -1.768851E+05 -7.463967E+05 -1.022321E-09 -3.687653E-10
       313  18 -2.032078E+06 -5.709074E+05 -3.555554E+05 -7.013461E+05 -4.329807E-10 -1.082481E-10
       313  19 -1.610306E+06 -1.926033E+05 -2.365259E+04 -6.533531E+05 -5.577121E+04 -1.675243E+04
       313  20 -1.581476E+06 -1.232011E+05 -6.646812E+04 -6.195654E+05 -1.222228E+05 -4.083652E+04
       313  21 -1.659866E+06 -3.546425E+05 -2.381413E+05 -5.223609E+05 -1.873277E+05 -6.852597E+04
       313  22 -1.816189E+06 -2.522230E+05 -7.615293E+04 -6.906879E+05 -5.508656E+04 -1.649809E+04
       313  23 -1.777356E+06 -2.069536E+05 -1.216590E+05 -6.829886E+05 -1.224865E+05 -4.093273E+04
       313  24 -1.845971E+06 -4.627773E+05 -2.968084E+05 -6.118628E+05 -1.885404E+05 -6.896612E+04
       313  25 -2.022030E+06 -3.118438E+05 -1.286565E+05 -7.280134E+05 -5.440215E+04 -1.624379E+04
       313  26 -1.973199E+06 -2.907007E+05 -1.768535E+05 -7.463926E+05 -1.227501E+05 -4.102889E+04
       313  27 -2.032038E+06 -5.708925E+05 -3.554784E+05 -7.013355E+05 -1.897528E+05 -6.940592E+04
       314   1  2.755167E+06  5.555349E+05  7.617118E+05  1.141736E+05  6.175134E+05  5.899764E+03
       314   2  2.667493E+06 -2.795627E+05  2.572976E+05  4.607391E+04  4.073959E+05  1.220994E+04
       314   3  2.848760E+06 -1.528913E+05  1.301740E+05 -8.350291E+04  1.972724E+05  9.440827E+03
       314   4  3.346774E+06  7.016906E+05  9.081360E+05 -2.079762E+04  6.212672E+05  5.775936E+03
       314   5  3.212733E+06 -1.443269E+05  3.910094E+05  1.102928E+04  4.083258E+05  1.218807E+04
       314   6  3.347851E+06 -2.857869E+04  2.528682E+05 -1.862914E+04  1.953951E+05  9.457076E+03
       314   7  3.938737E+06  8.478891E+05  1.054544E+06 -1.558972E+05  6.250243E+05  5.650589E+03
       314   8  3.758245E+06 -9.108325E+03  5.247002E+05 -2.404622E+04  4.092564E+05  1.216612E+04
       314   9  3.847175E+06  9.573106E+04  3.755464E+05  4.629655E+04  1.935162E+05  9.472923E+03
       314  10  2.754759E+06  5.554331E+05  7.609983E+05  1.141707E+05 -9.294216E-11  1.723022E-09
       314  11  2.667316E+06 -2.796072E+05  2.569869E+05  4.606991E+04 -2.356147E-09  2.346300E-11
       314  12  2.848718E+06 -1.529018E+05  1.301010E+05 -8.350441E+04  1.524232E-09  1.746603E-10
       314  13  3.346361E+06  7.015877E+05  9.074144E+05 -2.080050E+04  1.623506E-09  9.560859E-10
       314  14  3.212555E+06 -1.443715E+05  3.906975E+05  1.102528E+04 -9.225713E-10 -2.779080E-09
       314  15  3.347810E+06 -2.858897E+04  2.527967E+05 -1.863063E+04  1.870699E-10 -5.813128E-11
       314  16  3.938319E+06  8.477850E+05  1.053815E+06 -1.559000E+05  1.880460E-09  2.523911E-10
       314  17  3.758066E+06 -9.153094E+03  5.243871E+05 -2.405022E+04 -2.794116E-10  6.085369E-10
       314  18  3.847135E+06  9.572099E+04  3.754763E+05  4.629508E+04 -1.431946E-09 -1.393244E-09
       314  19  2.755167E+06  5.555349E+05  7.617118E+05  1.141736E+05 -6.175134E+05 -5.899764E+03
       314  20  2.667493E+06 -2.795627E+05  2.572976E+05  4.607391E+04 -4.073959E+05 -1.220994E+04
       314  21  2.848760E+06 -1.528913E+05  1.301740E+05 -8.350291E+04 -1.972724E+05 -9.440827E+03
       314  22  3.346774E+06  7.016906E+05  9.081360E+05 -2.079762E+04 -6.212672E+05 -5.775936E+03
       314  23  3.212733E+06 -1.443269E+05  3.910094E+05  1.102928E+04 -4.083258E+05 -1.218807E+04
       314  24  3.347851E+06 -2.857869E+04  2.528682E+05 -1.862914E+04 -1.953951E+05 -9.457076E+03
       314  25  3.938737E+06  8.478891E+05  1.054544E+06 -1.558972E+05 -6.250243E+05 -5.650589E+03
       314  26  3.758245E+06 -9.108325E+03  5.247002E+05 -2.404622E+04 -4.092564E+05 -1.216612E+04
       314  27  3.847175E+06  9.573106E+04  3.755464E+05  4.629655E+04 -1.935162E+05 -9.472923E+03
       315   1  2.908469E+06 -7.107741E+02  1.129693E+05  1.838437E+03  1.541020E+05  7.099846E+03
       315   2  2.920999E+06 -1.081883E+05  1.433357E+04  1.001274E+04  1.013988E+05  6.796030E+03
       315   3  2.973780E+06 -8.415134E+04 -1.709888E+04 -2.426689E+04  4.869546E+04  5.605334E+03
       315   4  3.296723E+06  9.569007E+04  2.083969E+05 -1.518036E+04  1.542326E+05  7.095467E+03
       315   5  3.276688E+06 -1.983089E+04  1.016974E+05  6.125123E+03  1.012428E+05  6.794898E+03
       315   6  3.296928E+06 -3.830288E+03  6.236916E+04 -1.502132E+04  4.825567E+04  5.605456E+03
       315   7  3.685114E+06  1.920809E+05  3.038136E+05 -3.220981E+04  1.543632E+05  7.091083E+03
       315   8  3.632492E+06  6.851719E+04  1.890520E+05  2.235243E+03  1.010867E+05  6.793769E+03
       315   9  3.620170E+06  7.648335E+04  1.418296E+05 -5.770980E+03  4.781564E+04  5.605565E+03
       315  10  2.908444E+06 -7.171667E+02  1.129248E+05  1.837556E+03 -6.014441E-10 -1.303918E-09
       315  11  2.920988E+06 -1.081911E+05  1.431425E+04  1.001219E+04  9.422110E-10  6.144986E-10
       315  12  2.973777E+06 -8.415201E+04 -1.710338E+04 -2.426711E+04 -3.318383E-10 -6.399681E-10
       315  13  3.296698E+06  9.568367E+04  2.083523E+05 -1.518124E+04  8.478357E-10 -1.508012E-09
       315  14  3.276677E+06 -1.983367E+04  1.016782E+05  6.124570E+03 -3.023923E-10 -8.904417E-10
       315  15  3.296925E+06 -3.830943E+03  6.236475E+04 -1.502154E+04 -3.678565E-10 -8.160841E-10
       315  16  3.685089E+06  1.920745E+05  3.037690E+05 -3.221069E+04  1.258112E-09 -3.520109E-10
       315  17  3.632481E+06  6.851442E+04  1.890328E+05  2.234690E+03 -7.751213E-10 -2.670762E-09
       315  18  3.620168E+06  7.648271E+04  1.418253E+05 -5.771196E+03  1.712432E-10  4.454679E-10
       315  19  2.908469E+06 -7.107741E+02  1.129693E+05  1.838437E+03 -1.541020E+05 -7.099846E+03
       315  20  2.920999E+06 -1.081883E+05  1.433357E+04  1.001274E+04 -1.013988E+05 -6.796030E+03
       315  21  2.973780E+06 -8.415134E+04 -1.709888E+04 -2.426689E+04 -4.869546E+04 -5.605334E+03
       315  22  3.296723E+06  9.569007E+04  2.083969E+05 -1.518036E+04 -1.542326E+05 -7.095467E+03
       315  23  3.276688E+06 -1.983089E+04  1.016974E+05  6.125123E+03 -1.012428E+05 -6.794898E+03
       315  24  3.296928E+06 -3.830288E+03  6.236916E+04 -1.502132E+04 -4.825567E+04 -5.605456E+03
       315  25  3.685114E+06  1.920809E+05  3.038136E+05 -3.220981E+04 -1.543632E+05 -7.091083E+03
       315  26  3.632492E+06  6.851719E+04  1.890520E+05  2.235243E+03 -1.010867E+05 -6.793769E+03
       315  27  3.620170E+06  7.648335E+04  1.418296E+05 -5.770980E+03 -4.781564E+04 -5.605565E+03
       316   1  3.047264E+06 -4.720776E+04 -9.810339E+03 -1.068867E+04  3.841452E+04  4.854206E+03
       316   2  3.068287E+06 -5.686177E+04 -2.733168E+04  3.432113E+03  2.508379E+04  4.024840E+03
       316   3  3.095713E+06 -4.861264E+04 -3.168707E+04 -1.396481E+04  1.175194E+04  3.226859E+03
       316   4  3.289378E+06  1.292492E+04  4.960057E+04 -1.264651E+04  3.818291E+04  4.853786E+03
       316   5  3.286199E+06 -2.725088E+03  2.620298E+04  3.116705E+03  2.485657E+04  4.024615E+03
       316   6  3.289418E+06 -4.765269E+02  1.596443E+04 -1.263700E+04  1.152963E+04  3.226756E+03
       316   7  3.531546E+06  7.305328E+04  1.090072E+05 -1.460513E+04  3.795120E+04  4.853368E+03
       316   8  3.504154E+06  5.140808E+04  7.973415E+04  2.801182E+03  2.462927E+04  4.024390E+03
       316   9  3.483157E+06  4.765682E+04  6.361318E+04 -1.130877E+04  1.130726E+04  3.226652E+03
       316  10  3.047262E+06 -4.720818E+04 -9.813143E+03 -1.068882E+04  1.815934E-09  3.505187E-10
       316  11  3.068286E+06 -5.686195E+04 -2.733288E+04  3.432032E+03  1.830037E-09  2.080588E-10
       316  12  3.095713E+06 -4.861269E+04 -3.168735E+04 -1.396484E+04  1.845440E-10  6.921973E-10
       316  13  3.289377E+06  1.292450E+04  4.959780E+04 -1.264666E+04  2.150998E-10 -9.268113E-12
       316  14  3.286198E+06 -2.725270E+03  2.620179E+04  3.116625E+03  8.624413E-10 -5.111605E-10
       316  15  3.289418E+06 -4.765736E+02  1.596417E+04 -1.263703E+04 -5.239980E-10  8.187576E-10
       316  16  3.531545E+06  7.305287E+04  1.090045E+05 -1.460528E+04 -2.176112E-09 -7.021812E-10
       316  17  3.504153E+06  5.140790E+04  7.973298E+04  2.801102E+03 -2.377511E-09 -1.200786E-09
       316  18  3.483157E+06  4.765677E+04  6.361293E+04 -1.130880E+04 -1.728571E-09  7.942139E-11
       316  19  3.047264E+06 -4.720776E+04 -9.810339E+03 -1.068867E+04 -3.841452E+04 -4.854206E+03
       316  20  3.068287E+06 -5.686177E+04 -2.733168E+04  3.432113E+03 -2.508379E+04 -4.024840E+03
       316  21  3.095713E+06 -4.861264E+04 -3.168707E+04 -1.396481E+04 -1.175194E+04 -3.226859E+03
       316  22  3.289378E+06  1.292492E+04  4.960057E+04 -1.264651E+04 -3.818291E+04 -4.853786E+03
       316  23  3.286199E+06 -2.725088E+03  2.620298E+04  3.116705E+03 -2.485657E+04 -4.024615E+03
       316  24  3.289418E+06 -4.765269E+02  1.596443E+04 -1.263700E+04 -1.152963E+04 -3.226756E+03
       316  25  3.531546E+06  7.305328E+04  1.090072E+05 -1.460513E+04 -3.795120E+04 -4.853368E+03
       316  26  3.504154E+06  5.140808E+04  7.973415E+04  2.801182E+03 -2.462927E+04 -4.024390E+03
       316  27  3.483157E+06  4.765682E+04  6.361318E+04 -1.130877E+04 -1.130726E+04 -3.226652E+03
       317   1  3.156983E+06 -3.089207E+04 -1.947225E+04 -1.104704E+04  9.155732E+03  2.776702E+03
       317   2  3.175813E+06 -2.819688E+04 -1.965472E+04  1.400873E+03  5.211750E+03  2.052317E+03
       317   3  3.195867E+06 -2.284559E+04 -1.660528E+04 -1.145127E+04  1.267407E+03  1.401487E+03
       317   4  3.288270E+06  1.708894E+03  1.271240E+04 -1.125845E+04  8.937116E+03  2.776619E+03
       317   5  3.287664E+06 -4.108114E+02  7.823477E+03  1.391588E+03  5.013668E+03  2.052277E+03
       317   6  3.288276E+06  1.217410E+02  6.151782E+03 -1.125814E+04  1.089981E+03  1.401481E+03
       317   7  3.419572E+06  3.430858E+04  4.489580E+04 -1.146991E+04  8.718454E+03  2.776537E+03
       317   8  3.399525E+06  2.737434E+04  3.530076E+04  1.382301E+03  4.815550E+03  2.052236E+03
       317   9  3.380694E+06  2.308844E+04  2.890821E+04 -1.106498E+04  9.125289E+02  1.401476E+03
       317  10  3.156983E+06 -3.089210E+04 -1.947242E+04 -1.104706E+04 -2.434080E-09  1.673578E-10
       317  11  3.175813E+06 -2.819690E+04 -1.965478E+04  1.400864E+03 -2.942929E-09 -7.210811E-10
       317  12  3.195867E+06 -2.284559E+04 -1.660528E+04 -1.145128E+04 -1.129757E-09 -1.350229E-10
       317  13  3.288270E+06  1.708864E+03  1.271224E+04 -1.125847E+04 -5.291948E-10  3.929289E-10
       317  14  3.287664E+06 -4.108227E+02  7.823422E+03  1.391579E+03  1.132602E-09 -1.662800E-10
       317  15  3.288276E+06  1.217385E+02  6.151776E+03 -1.125814E+04  2.108784E-09 -3.578287E-10
       317  16  3.419572E+06  3.430856E+04  4.489564E+04 -1.146993E+04  2.684203E-09  9.924941E-10
       317  17  3.399525E+06  2.737433E+04  3.530071E+04  1.382293E+03  1.850313E-09 -7.249574E-10
       317  18  3.380694E+06  2.308844E+04  2.890821E+04 -1.106498E+04  6.467840E-10 -9.721735E-10
       317  19  3.156983E+06 -3.089207E+04 -1.947225E+04 -1.104704E+04 -9.155732E+03 -2.776702E+03
       317  20  3.175813E+06 -2.819688E+04 -1.965472E+04  1.400873E+03 -5.211750E+03 -2.052317E+03
       317  21  3.195867E+06 -2.284559E+04 -1.660528E+04 -1.145127E+04 -1.267407E+03 -1.401487E+03
       317  22  3.288270E+06  1.708894E+03  1.271240E+04 -1.125845E+04 -8.937116E+03 -2.776619E+03
       317  23  3.287664E+06 -4.108114E+02  7.823477E+03  1.391588E+03 -5.013668E+03 -2.052277E+03
       317  24  3.288276E+06  1.217410E+02  6.151782E+03 -1.125814E+04 -1.089981E+03 -1.401481E+03
       317  25  3.419572E+06  3.430858E+04  4.489580E+04 -1.146991E+04 -8.718454E+03 -2.776537E+03
       317  26  3.399525E+06  2.737434E+04  3.530076E+04  1.382301E+03 -4.815550E+03 -2.052236E+03
       317  27  3.380694E+06  2.308844E+04  2.890821E+04 -1.106498E+04 -9.125289E+02 -1.401476E+03
       318   1  3.248656E+06 -9.645546E+03 -3.693278E+03 -1.053558E+04  1.782943E+02  1.036893E+03
       318   2  3.265657E+06 -5.827030E+03  1.416675E+03  6.748549E+02 -3.256462E+03  4.038430E+02
       318   3  3.283659E+06  2.333037E+02  9.313692E+03 -1.089360E+04 -6.691312E+03 -2.037557E+02
       318   4  3.288230E+06  1.733309E+02  5.970014E+03 -1.069806E+04 -8.482351E+00  1.036903E+03
       318   5  3.287727E+06 -3.445017E+02  6.838661E+03  6.914345E+02 -3.436005E+03  4.038587E+02
       318   6  3.288225E+06  1.378282E+03  1.048941E+04 -1.069791E+04 -6.863526E+03 -2.037362E+02
       318   7  3.327805E+06  9.992093E+03  1.563319E+04 -1.086055E+04 -1.952708E+02  1.036914E+03
       318   8  3.309798E+06  5.137991E+03  1.226061E+04  7.080148E+02 -3.615554E+03  4.038744E+02
       318   9  3.292791E+06  2.523259E+03  1.166512E+04 -1.050221E+04 -7.035741E+03 -2.037168E+02
       318  10  3.248656E+06 -9.645548E+03 -3.693280E+03 -1.053558E+04  7.196593E-10 -3.703358E-10
       318  11  3.265657E+06 -5.827033E+03  1.416655E+03  6.748559E+02  6.379014E-10 -1.345446E-10
       318  12  3.283659E+06  2.332917E+02  9.313608E+03 -1.089360E+04 -3.823504E-10  4.387321E-11
       318  13  3.288230E+06  1.733298E+02  5.970012E+03 -1.069806E+04  1.040951E-09  2.015845E-10
       318  14  3.287727E+06 -3.445050E+02  6.838638E+03  6.914357E+02  7.003828E-10  3.197149E-10
       318  15  3.288225E+06  1.378270E+03  1.048932E+04 -1.069791E+04  1.739669E-09  1.173425E-10
       318  16  3.327805E+06  9.992092E+03  1.563319E+04 -1.086055E+04 -2.333952E-10 -6.520549E-10
       318  17  3.309798E+06  5.137987E+03  1.226059E+04  7.080160E+02 -8.959499E-10  6.313946E-11
       318  18  3.292791E+06  2.523246E+03  1.166503E+04 -1.050221E+04  1.135669E-09 -1.863862E-10
       318  19  3.248656E+06 -9.645546E+03 -3.693278E+03 -1.053558E+04 -1.782943E+02 -1.036893E+03
       318  20  3.265657E+06 -5.827030E+03  1.416675E+03  6.748549E+02  3.256462E+03 -4.038430E+02
       318  21  3.283659E+06  2.333037E+02  9.313692E+03 -1.089360E+04  6.691312E+03  2.037557E+02
       318  22  3.288230E+06  1.733309E+02  5.970014E+03 -1.069806E+04  8.482351E+00 -1.036903E+03
       318  23  3.287727E+06 -3.445017E+02  6.838661E+03  6.914345E+02  3.436005E+03 -4.038587E+02
       318  24  3.288225E+06  1.378282E+03  1.048941E+04 -1.069791E+04  6.863526E+03  2.037362E+02
       318  25  3.327805E+06  9.992093E+03  1.563319E+04 -1.086055E+04  1.952708E+02 -1.036914E+03
       318  26  3.309798E+06  5.137991E+03  1.226061E+04  7.080148E+02  3.615554E+03 -4.038744E+02
       318  27  3.292791E+06  2.523259E+03  1.166512E+04 -1.050221E+04  7.035741E+03  2.037168E+02
       319   1  3.335493E+06  1.116653E+04  2.444396E+04 -9.851150E+03 -8.801563E+03 -5.633697E+02
       319   2  3.351107E+06  1.384846E+04  3.690928E+04  5.869913E+02 -1.952137E+04 -1.190720E+03
       319   3  3.371700E+06  3.086301E+04  5.991153E+04 -1.255125E+04 -3.024163E+04 -1.792226E+03
       319   4  3.289111E+06 -3.650900E+02  1.299683E+04 -1.087529E+04 -8.986441E+03 -5.633370E+02
       319   5  3.286606E+06 -2.173047E+03  2.106668E+04  9.128715E+02 -1.969779E+04 -1.190731E+03
       319   6  3.289079E+06  1.035103E+04  3.966850E+04 -1.087545E+04 -3.040929E+04 -1.792326E+03
       319   7  3.242732E+06 -1.189686E+04  1.549547E+03 -1.189935E+04 -9.171306E+03 -5.633037E+02
       319   8  3.222109E+06 -1.819486E+04  5.223774E+03  1.238718E+03 -1.987420E+04 -1.190743E+03
       319   9  3.206464E+06 -1.016144E+04  1.942497E+04 -9.199872E+03 -3.057693E+04 -1.792427E+03
       319  10  3.335493E+06  1.116651E+04  2.444381E+04 -9.851154E+03 -1.257727E-09 -1.028365E-10
       319  11  3.351107E+06  1.384836E+04  3.690857E+04  5.869726E+02  7.853280E-10 -9.775438E-10
       319  12  3.371699E+06  3.086276E+04  5.990981E+04 -1.255129E+04 -1.734655E-11  5.762445E-11
       319  13  3.289111E+06 -3.651119E+02  1.299668E+04 -1.087529E+04  1.171070E-09  3.571912E-10
       319  14  3.286606E+06 -2.173152E+03  2.106595E+04  9.128527E+02  1.778273E-09 -4.594798E-10
       319  15  3.289078E+06  1.035078E+04  3.966677E+04 -1.087549E+04  1.176228E-09 -3.179836E-10
       319  16  3.242731E+06 -1.189689E+04  1.549389E+03 -1.189935E+04  1.166807E-09  3.951253E-10
       319  17  3.222108E+06 -1.819497E+04  5.223033E+03  1.238699E+03  3.186478E-09 -3.723768E-10
       319  18  3.206463E+06 -1.016169E+04  1.942322E+04 -9.199916E+03  1.672143E-09 -1.926166E-11
       319  19  3.335493E+06  1.116653E+04  2.444396E+04 -9.851150E+03  8.801563E+03  5.633697E+02
       319  20  3.351107E+06  1.384846E+04  3.690928E+04  5.869913E+02  1.952137E+04  1.190720E+03
       319  21  3.371700E+06  3.086301E+04  5.991153E+04 -1.255125E+04  3.024163E+04  1.792226E+03
       319  22  3.289111E+06 -3.650900E+02  1.299683E+04 -1.087529E+04  8.986441E+03  5.633370E+02
       319  23  3.286606E+06 -2.173047E+03  2.106668E+04  9.128715E+02  1.969779E+04  1.190731E+03
       319  24  3.289079E+06  1.035103E+04  3.966850E+04 -1.087545E+04  3.040929E+04  1.792326E+03
       319  25  3.242732E+06 -1.189686E+04  1.549547E+03 -1.189935E+04  9.171306E+03  5.633037E+02
       319  26  3.222109E+06 -1.819486E+04  5.223774E+03  1.238718E+03  1.987420E+04  1.190743E+03
       319  27  3.206464E+06 -1.016144E+04  1.942497E+04 -9.199872E+03  3.057693E+04  1.792427E+03
       320   1  3.434156E+06  3.152332E+04  8.404309E+04 -4.593847E+03 -3.817344E+04 -2.277464E+03
       320   2  3.439545E+06  2.403346E+04  1.206125E+05 -1.261010E+03 -8.064004E+04 -3.038162E+03
       320   3  3.476767E+06  1.215949E+05  2.110075E+05 -2.576962E+04 -1.231090E+05 -3.298406E+03
       320   4  3.295068E+06 -3.035831E+03  4.982712E+04 -1.181400E+04 -3.845814E+04 -2.277080E+03
       320   5  3.279077E+06 -1.581937E+04  8.121217E+04  2.090860E+03 -8.077070E+04 -3.038683E+03
       320   6  3.294902E+06  7.643654E+04  1.663267E+05 -1.184581E+04 -1.230841E+05 -3.301213E+03
       320   7  3.155998E+06 -3.759622E+04  1.560975E+04 -1.903253E+04 -3.874277E+04 -2.276689E+03
       320   8  3.118633E+06 -5.567405E+04  4.180991E+04  5.441865E+03 -8.090132E+04 -3.039206E+03
       320   9  3.113066E+06  3.127645E+04  1.216437E+05  2.073923E+03 -1.230593E+05 -3.304020E+03
       320  10  3.434154E+06  3.152293E+04  8.404036E+04 -4.593916E+03  1.515207E-09  1.383291E-09
       320  11  3.439538E+06  2.403171E+04  1.206004E+05 -1.261207E+03  3.624046E-10 -8.594743E-10
       320  12  3.476751E+06  1.215909E+05  2.109791E+05 -2.576994E+04 -1.284458E-10 -3.222453E-10
       320  13  3.295066E+06 -3.036231E+03  4.982434E+04 -1.181407E+04  6.147356E-11  1.576432E-10
       320  14  3.279070E+06 -1.582112E+04  8.119996E+04  2.090663E+03 -4.885654E-10 -4.706468E-10
       320  15  3.294885E+06  7.643249E+04  1.662984E+05 -1.184614E+04  8.014143E-10 -1.382245E-10
       320  16  3.155996E+06 -3.759663E+04  1.560693E+04 -1.903261E+04  1.820766E-10 -3.905698E-10
       320  17  3.118626E+06 -5.567581E+04  4.179766E+04  5.441667E+03 -1.067161E-09 -1.135535E-09
       320  18  3.113050E+06  3.127240E+04  1.216153E+05  2.073595E+03  1.056247E-09  6.480907E-10
       320  19  3.434156E+06  3.152332E+04  8.404309E+04 -4.593847E+03  3.817344E+04  2.277464E+03
       320  20  3.439545E+06  2.403346E+04  1.206125E+05 -1.261010E+03  8.064004E+04  3.038162E+03
       320  21  3.476767E+06  1.215949E+05  2.110075E+05 -2.576962E+04  1.231090E+05  3.298406E+03
       320  22  3.295068E+06 -3.035831E+03  4.982712E+04 -1.181400E+04  3.845814E+04  2.277080E+03
       320  23  3.279077E+06 -1.581937E+04  8.121217E+04  2.090860E+03  8.077070E+04  3.038683E+03
       320  24  3.294902E+06  7.643654E+04  1.663267E+05 -1.184581E+04  1.230841E+05  3.301213E+03
       320  25  3.155998E+06 -3.759622E+04  1.560975E+04 -1.903253E+04  3.874277E+04  2.276689E+03
       320  26  3.118633E+06 -5.567405E+04  4.180991E+04  5.441865E+03  8.090132E+04  3.039206E+03
       320  27  3.113066E+06  3.127645E+04  1.216437E+05  2.073923E+03  1.230593E+05  3.304020E+03
       321   1  3.587505E+06  3.987525E+04  2.636770E+05  3.773301E+04 -1.548835E+05 -4.610836E+03
       321   2  3.507944E+06 -4.574976E+04  3.806355E+05 -2.418337E+04 -3.263258E+05 -6.013180E+03
       321   3  3.642611E+06  6.363764E+05  8.008356E+05 -1.228712E+05 -4.977690E+05 -2.496243E+03
       321   4  3.335628E+06 -2.275914E+04  2.017865E+05 -1.361292E+04 -1.559278E+05 -4.598810E+03
       321   5  3.228154E+06 -1.151640E+05  3.120479E+05  4.447320E+03 -3.258922E+05 -6.028036E+03
       321   6  3.334740E+06  5.600886E+05  7.246261E+05 -1.425038E+04 -4.958495E+05 -2.580953E+03
       321   7  3.083815E+06 -8.538839E+04  1.398927E+05 -6.493810E+04 -1.569716E+05 -4.586609E+03
       321   8  2.948436E+06 -1.845809E+05  2.434549E+05  3.306513E+04 -3.254588E+05 -6.042858E+03
       321   9  3.026980E+06  4.838381E+05  6.484158E+05  9.431686E+04 -4.939309E+05 -2.665032E+03
       321  10  3.587479E+06  3.986883E+04  2.636322E+05  3.773244E+04 -2.708723E-11 -3.152857E-10
       321  11  3.507830E+06 -4.577817E+04  3.804365E+05 -2.418495E+04 -1.189315E-09 -4.580487E-11
       321  12  3.642346E+06  6.363103E+05  8.003727E+05 -1.228722E+05 -3.802982E-11  5.940903E-10
       321  13  3.335602E+06 -2.276565E+04  2.017410E+05 -1.361350E+04 -2.527606E-09 -7.191486E-10
       321  14  3.228040E+06 -1.151924E+05  3.118493E+05  4.445740E+03  5.391386E-10  4.466080E-10
       321  15  3.334477E+06  5.600231E+05  7.241665E+05 -1.425141E+04 -8.335735E-11 -6.170814E-10
       321  16  3.083788E+06 -8.539499E+04  1.398466E+05 -6.493868E+04 -4.333489E-12  7.474001E-10
       321  17  2.948323E+06 -1.846092E+05  2.432568E+05  3.306355E+04 -6.974646E-10 -5.846947E-10
       321  18  3.026719E+06  4.837729E+05  6.479595E+05  9.431581E+04  8.868736E-10  8.706270E-10
       321  19  3.587505E+06  3.987525E+04  2.636770E+05  3.773301E+04  1.548835E+05  4.610836E+03
       321  20  3.507944E+06 -4.574976E+04  3.806355E+05 -2.418337E+04  3.263258E+05  6.013180E+03
       321  21  3.642611E+06  6.363764E+05  8.008356E+05 -1.228712E+05  4.977690E+05  2.496243E+03
       321  22  3.335628E+06 -2.275914E+04  2.017865E+05 -1.361292E+04  1.559278E+05  4.598810E+03
       321  23  3.228154E+06 -1.151640E+05  3.120479E+05  4.447320E+03  3.258922E+05  6.028036E+03
       321  24  3.334740E+06  5.600886E+05  7.246261E+05 -1.425038E+04  4.958495E+05  2.580953E+03
       321  25  3.083815E+06 -8.538839E+04  1.398927E+05 -6.493810E+04  1.569716E+05  4.586609E+03
       321  26  2.948436E+06 -1.845809E+05  2.434549E+05  3.306513E+04  3.254588E+05  6.042858E+03
       321  27  3.026980E+06  4.838381E+05  6.484158E+05  9.431686E+04  4.939309E+05  2.665032E+03
       322   1  1.780369E+05  3.001135E+05  2.655966E+05 -5.111039E+04 -3.853586E+03  2.489427E+05
       322   2 -1.721069E+05  2.535131E+05  5.859724E+04 -1.655888E+04 -9.514819E+03  1.593895E+05
       322   3 -1.168178E+05  3.207132E+05  1.143014E+04  3.182188E+04 -8.373869E+03  6.985098E+04
       322   4  2.916879E+05  7.572710E+05  3.791457E+05  4.779320E+03 -3.839441E+03  2.517677E+05
       322   5 -6.090638E+04  7.002785E+05  1.685016E+05 -2.593089E+03 -9.512725E+03  1.601921E+05
       322   6 -7.878455E+03  7.573544E+05  1.190103E+05  3.865187E+03 -8.373899E+03  6.863289E+04
       322   7  4.053351E+05  1.214625E+06  4.926809E+05  6.071032E+04 -3.824800E+03  2.545948E+05
       322   8  5.028008E+04  1.147226E+06  2.783913E+05  1.138288E+04 -9.510597E+03  1.609952E+05
       322   9  1.010496E+05  1.194171E+06  2.265767E+05 -2.411109E+04 -8.373818E+03  6.741394E+04
       322  10  1.780203E+05  3.000470E+05  2.654802E+05 -5.110962E+04 -2.921187E-10 -9.224205E-10
       322  11 -1.721138E+05  2.534858E+05  5.854935E+04 -1.655766E+04 -1.364429E-10 -3.205628E-09
       322  12 -1.168192E+05  3.207079E+05  1.142085E+04  3.182235E+04  1.206870E-09 -3.273265E-10
       322  13  2.916709E+05  7.572030E+05  3.790267E+05  4.780098E+03  1.316269E-09  1.482623E-10
       322  14 -6.091335E+04  7.002510E+05  1.684532E+05 -2.591862E+03 -2.902480E-09 -8.097135E-10
       322  15 -7.879793E+03  7.573494E+05  1.190013E+05  3.865650E+03  1.079596E-09  5.721497E-11
       322  16  4.053178E+05  1.214555E+06  4.925593E+05  6.071111E+04 -1.429245E-10 -5.884055E-11
       322  17  5.027304E+04  1.147198E+06  2.783426E+05  1.138412E+04 -7.266953E-10  1.518956E-09
       322  18  1.010483E+05  1.194166E+06  2.265681E+05 -2.411064E+04  8.821457E-10 -8.886597E-10
       322  19  1.780369E+05  3.001135E+05  2.655966E+05 -5.111039E+04  3.853586E+03 -2.489427E+05
       322  20 -1.721069E+05  2.535131E+05  5.859724E+04 -1.655888E+04  9.514819E+03 -1.593895E+05
       322  21 -1.168178E+05  3.207132E+05  1.143014E+04  3.182188E+04  8.373869E+03 -6.985098E+04
       322  22  2.916879E+05  7.572710E+05  3.791457E+05  4.779320E+03  3.839441E+03 -2.517677E+05
       322  23 -6.090638E+04  7.002785E+05  1.685016E+05 -2.593089E+03  9.512725E+03 -1.601921E+05
       322  24 -7.878455E+03  7.573544E+05  1.190103E+05  3.865187E+03  8.373899E+03 -6.863289E+04
       322  25  4.053351E+05  1.214625E+06  4.926809E+05  6.071032E+04  3.824800E+03 -2.545948E+05
       322  26  5.028008E+04  1.147226E+06  2.783913E+05  1.138288E+04  9.510597E+03 -1.609952E+05
       322  27  1.010496E+05  1.194171E+06  2.265767E+05 -2.411109E+04  8.373818E+03 -6.741394E+04
       323   1 -6.402482E+04  3.263928E+05  3.014157E+03 -6.232509E+03 -7.201007E+03  4.831864E+04
       323   2 -1.152867E+05  3.189257E+05 -2.726736E+04 -1.514984E+03 -7.671345E+03  1.097549E+04
       323   3 -7.115666E+04  3.407645E+05 -9.270679E+03  1.263501E+04 -6.739188E+03 -2.636610E+04
       323   4  3.863123E+04  7.385130E+05  1.046392E+05  3.210986E+03 -7.200662E+03  4.869955E+04
       323   5 -1.440338E+04  7.238339E+05  7.246477E+04 -1.525371E+03 -7.670951E+03  1.093014E+04
       323   6  2.799410E+04  7.385166E+05  8.884250E+04  3.170227E+03 -6.738014E+03 -2.683727E+04
       323   7  1.412750E+05  1.150788E+06  2.062518E+05  1.266083E+04 -7.200305E+03  4.908071E+04
       323   8  8.646775E+04  1.128891E+06  1.721848E+05 -1.535709E+03 -7.670557E+03  1.088477E+04
       323   9  1.271334E+05  1.136413E+06  1.869440E+05 -6.300585E+03 -6.736827E+03 -2.730874E+04
       323  10 -6.402551E+04  3.263903E+05  3.009674E+03 -6.232229E+03 -1.626681E-10 -6.056978E-10
       323  11 -1.152868E+05  3.189255E+05 -2.726769E+04 -1.514916E+03 -1.834643E-10 -1.892197E-09
       323  12 -7.115690E+04  3.407637E+05 -9.272070E+03  1.263487E+04 -4.573192E-10 -7.645949E-11
       323  13  3.863054E+04  7.385104E+05  1.046347E+05  3.211268E+03  3.913956E-10  2.448450E-10
       323  14 -1.440347E+04  7.238338E+05  7.246444E+04 -1.525304E+03  4.429725E-10 -4.674649E-10
       323  15  2.799386E+04  7.385159E+05  8.884107E+04  3.170081E+03  6.075766E-10  3.373911E-10
       323  16  1.412743E+05  1.150785E+06  2.062472E+05  1.266111E+04  9.368307E-10  1.214001E-10
       323  17  8.646766E+04  1.128891E+06  1.721845E+05 -1.535642E+03 -1.576150E-09  1.340174E-09
       323  18  1.271331E+05  1.136412E+06  1.869425E+05 -6.300733E+03 -2.039007E-10 -4.431531E-10
       323  19 -6.402482E+04  3.263928E+05  3.014157E+03 -6.232509E+03  7.201007E+03 -4.831864E+04
       323  20 -1.152867E+05  3.189257E+05 -2.726736E+04 -1.514984E+03  7.671345E+03 -1.097549E+04
       323  21 -7.115666E+04  3.407645E+05 -9.270679E+03  1.263501E+04  6.739188E+03  2.636610E+04
       323  22  3.863123E+04  7.385130E+05  1.046392E+05  3.210986E+03  7.200662E+03 -4.869955E+04
       323  23 -1.440338E+04  7.238339E+05  7.246477E+04 -1.525371E+03  7.670951E+03 -1.093014E+04
       323  24  2.799410E+04  7.385166E+05  8.884250E+04  3.170227E+03  6.738014E+03  2.683727E+04
       323  25  1.412750E+05  1.150788E+06  2.062518E+05  1.266083E+04  7.200305E+03 -4.908071E+04
       323  26  8.646775E+04  1.128891E+06  1.721848E+05 -1.535709E+03  7.670557E+03 -1.088477E+04
       323  27  1.271334E+05  1.136413E+06  1.869440E+05 -6.300585E+03  6.736827E+03  2.730874E+04
       324   1 -9.821585E+04  3.704377E+05  3.264622E+03 -1.796743E+04 -7.287642E+03 -4.425028E+04
       324   2 -1.394047E+05  3.322157E+05  3.640069E+04  1.049374E+04 -7.546741E+03 -1.126197E+05
       324   3  1.238457E+05  3.794954E+05  1.902623E+05  4.501794E+04 -2.496135E+03 -1.809864E+05
       324   4 -3.435511E+03  7.510632E+05  9.697728E+04  2.404240E+03 -7.289534E+03 -4.341204E+04
       324   5 -4.573994E+04  7.081674E+05  1.289096E+05 -6.128222E+02 -7.544125E+03 -1.133502E+05
       324   6  2.165661E+05  7.509953E+05  2.826053E+05  2.431101E+03 -2.483503E+03 -1.832853E+05
       324   7  9.133563E+04  1.131821E+06  1.906795E+05  2.278844E+04 -7.291370E+03 -4.257329E+04
       324   8  4.791474E+04  1.084248E+06  2.214081E+05 -1.172610E+04 -7.541484E+03 -1.140811E+05
       324   9  3.092830E+05  1.122624E+06  3.749389E+05 -4.018122E+04 -2.470562E+03 -1.855855E+05
       324  10 -9.821643E+04  3.704355E+05  3.260845E+03 -1.796769E+04  1.336464E-10 -5.201672E-10
       324  11 -1.394081E+05  3.322021E+05  3.637677E+04  1.049306E+04 -2.717205E-10 -5.701863E-10
       324  12  1.238369E+05  3.794602E+05  1.902007E+05  4.501758E+04 -5.769457E-11 -4.433360E-11
       324  13 -3.436073E+03  7.510612E+05  9.697365E+04  2.403985E+03 -2.993673E-10  4.068264E-10
       324  14 -4.574345E+04  7.081536E+05  1.288854E+05 -6.135106E+02 -4.299110E-10 -3.721943E-10
       324  15  2.165571E+05  7.509592E+05  2.825422E+05  2.430735E+03  9.002515E-11 -5.004411E-10
       324  16  9.133509E+04  1.131819E+06  1.906760E+05  2.278819E+04  6.687409E-10  3.002169E-10
       324  17  4.791119E+04  1.084234E+06  2.213836E+05 -1.172680E+04 -2.245644E-10  5.141780E-10
       324  18  3.092737E+05  1.122587E+06  3.748743E+05 -4.018159E+04 -5.641941E-10  1.238307E-11
       324  19 -9.821585E+04  3.704377E+05  3.264622E+03 -1.796743E+04  7.287642E+03  4.425028E+04
       324  20 -1.394047E+05  3.322157E+05  3.640069E+04  1.049374E+04  7.546741E+03  1.126197E+05
       324  21  1.238457E+05  3.794954E+05  1.902623E+05  4.501794E+04  2.496135E+03  1.809864E+05
       324  22 -3.435511E+03  7.510632E+05  9.697728E+04  2.404240E+03  7.289534E+03  4.341204E+04
       324  23 -4.573994E+04  7.081674E+05  1.289096E+05 -6.128222E+02  7.544125E+03  1.133502E+05
       324  24  2.165661E+05  7.509953E+05  2.826053E+05  2.431101E+03  2.483503E+03  1.832853E+05
       324  25  9.133563E+04  1.131821E+06  1.906795E+05  2.278844E+04  7.291370E+03  4.257329E+04
       324  26  4.791474E+04  1.084248E+06  2.214081E+05 -1.172610E+04  7.541484E+03  1.140811E+05
       324  27  3.092830E+05  1.122624E+06  3.749389E+05 -4.018122E+04  2.470562E+03  1.855855E+05
       325   1 -3.424942E+06 -1.234463E+06 -6.505078E+05 -1.272716E+06 -3.055018E+05 -8.511893E+04
       325   2 -3.343722E+06 -1.015111E+06 -4.256331E+05 -1.239720E+06 -1.988334E+05  2.858223E+04
       325   3 -3.307804E+06 -9.102707E+05 -3.265311E+05 -1.196850E+06 -7.605197E+04  9.987948E+04
       325   4 -1.746997E+06 -4.926100E+05 -2.019988E+05 -6.988800E+05 -1.414743E+05 -2.311630E+04
       325   5 -1.721472E+06 -3.670073E+05 -9.549647E+04 -7.326708E+05 -1.162655E+05  5.975716E+04
       325   6 -1.724913E+06 -3.395569E+05 -4.980471E+04 -7.566235E+05 -7.499074E+04  1.002461E+05
       325   7 -6.623755E+04  2.497511E+05  2.463661E+05 -1.235220E+05  2.303537E+04  3.914192E+04
       325   8 -9.646340E+04  2.814734E+05  2.345371E+05 -2.243354E+05 -3.346549E+04  9.103766E+04
       325   9 -1.393306E+05  2.314069E+05  2.268524E+05 -3.153385E+05 -7.392656E+04  1.006139E+05
       325  10 -3.425045E+06 -1.234496E+06 -6.506979E+05 -1.272737E+06 -1.885368E-09 -6.756943E-10
       325  11 -3.343765E+06 -1.015122E+06 -4.257093E+05 -1.239716E+06 -1.347106E-09  8.748339E-10
       325  12 -3.307813E+06 -9.102829E+05 -3.265607E+05 -1.196843E+06  1.857595E-09 -4.413274E-11
       325  13 -1.747019E+06 -4.926159E+05 -2.020376E+05 -6.988826E+05  1.751642E-09  9.727770E-10
       325  14 -1.721487E+06 -3.670147E+05 -9.552861E+04 -7.326652E+05 -1.681301E-09 -2.667556E-09
       325  15 -1.724922E+06 -3.395692E+05 -4.983414E+04 -7.566175E+05 -1.852980E-09  1.177161E-09
       325  16 -6.623853E+04  2.497493E+05  2.463622E+05 -1.235228E+05  1.457571E-09  3.161198E-10
       325  17 -9.646682E+04  2.814642E+05  2.345194E+05 -2.243329E+05  7.587789E-10  7.902474E-10
       325  18 -1.393392E+05  2.313946E+05  2.268231E+05 -3.153325E+05 -3.360162E-09  6.944491E-10
       325  19 -3.424942E+06 -1.234463E+06 -6.505078E+05 -1.272716E+06  3.055018E+05  8.511893E+04
       325  20 -3.343722E+06 -1.015111E+06 -4.256331E+05 -1.239720E+06  1.988334E+05 -2.858223E+04
       325  21 -3.307804E+06 -9.102707E+05 -3.265311E+05 -1.196850E+06  7.605197E+04 -9.987948E+04
       325  22 -1.746997E+06 -4.926100E+05 -2.019988E+05 -6.988800E+05  1.414743E+05  2.311630E+04
       325  23 -1.721472E+06 -3.670073E+05 -9.549647E+04 -7.326708E+05  1.162655E+05 -5.975716E+04
       325  24 -1.724913E+06 -3.395569E+05 -4.980471E+04 -7.566235E+05  7.499074E+04 -1.002461E+05
       325  25 -6.623755E+04  2.497511E+05  2.463661E+05 -1.235220E+05 -2.303537E+04 -3.914192E+04
       325  26 -9.646340E+04  2.814734E+05  2.345371E+05 -2.243354E+05  3.346549E+04 -9.103766E+04
       325  27 -1.393306E+05  2.314069E+05  2.268524E+05 -3.153385E+05  7.392656E+04 -1.006139E+05
       326   1 -3.237147E+06 -8.934474E+05 -2.989776E+05 -1.186816E+06 -7.310007E+04  1.000439E+05
       326   2 -3.154424E+06 -8.434071E+05 -2.566894E+05 -1.155065E+06 -5.498161E+04  1.068214E+05
       326   3 -3.063974E+06 -8.134958E+05 -2.298302E+05 -1.136505E+06 -3.523374E+04  1.092787E+05
       326   4 -1.718730E+06 -3.384003E+05 -3.718684E+04 -7.554628E+05 -6.908993E+04  1.015244E+05
       326   5 -1.722695E+06 -3.244610E+05 -1.946303E+04 -7.506176E+05 -5.925381E+04  1.051774E+05
       326   6 -1.717282E+06 -3.289890E+05 -1.055751E+04 -7.589634E+05 -4.779329E+04  1.045147E+05
       326   7 -1.978502E+05  2.168899E+05  2.245382E+05 -3.231121E+05 -6.506929E+04  1.030090E+05
       326   8 -2.887725E+05  1.946975E+05  2.177127E+05 -3.452902E+05 -6.353650E+04  1.035295E+05
       326   9 -3.686541E+05  1.556986E+05  2.086725E+05 -3.806527E+05 -6.038176E+04  9.973982E+04
       326  10 -3.237156E+06 -8.934595E+05 -2.990064E+05 -1.186810E+06 -1.273120E-09 -8.237611E-10
       326  11 -3.154431E+06 -8.434202E+05 -2.567165E+05 -1.155061E+06 -2.942293E-09  3.399743E-10
       326  12 -3.063978E+06 -8.135090E+05 -2.298550E+05 -1.136502E+06 -7.594263E-10 -1.202141E-09
       326  13 -1.718738E+06 -3.384126E+05 -3.721515E+04 -7.554572E+05 -1.409242E-09  1.453582E-10
       326  14 -1.722702E+06 -3.244738E+05 -1.949039E+04 -7.506126E+05 -1.285581E-09 -1.812644E-09
       326  15 -1.717288E+06 -3.290014E+05 -1.058231E+04 -7.589593E+05 -3.628618E-10 -1.002740E-09
       326  16 -1.978576E+05  2.168774E+05  2.245103E+05 -3.231067E+05 -3.063398E-10  1.958270E-09
       326  17 -2.887797E+05  1.946849E+05  2.176850E+05 -3.452850E+05  1.628813E-09  9.148006E-10
       326  18 -3.686607E+05  1.556869E+05  2.086469E+05 -3.806479E+05  8.989289E-10  4.808663E-10
       326  19 -3.237147E+06 -8.934474E+05 -2.989776E+05 -1.186816E+06  7.310007E+04 -1.000439E+05
       326  20 -3.154424E+06 -8.434071E+05 -2.566894E+05 -1.155065E+06  5.498161E+04 -1.068214E+05
       326  21 -3.063974E+06 -8.134958E+05 -2.298302E+05 -1.136505E+06  3.523374E+04 -1.092787E+05
       326  22 -1.718730E+06 -3.384003E+05 -3.718684E+04 -7.554628E+05  6.908993E+04 -1.015244E+05
       326  23 -1.722695E+06 -3.244610E+05 -1.946303E+04 -7.506176E+05  5.925381E+04 -1.051774E+05
       326  24 -1.717282E+06 -3.289890E+05 -1.055751E+04 -7.589634E+05  4.779329E+04 -1.045147E+05
       326  25 -1.978502E+05  2.168899E+05  2.245382E+05 -3.231121E+05  6.506929E+04 -1.030090E+05
       326  26 -2.887725E+05  1.946975E+05  2.177127E+05 -3.452902E+05  6.353650E+04 -1.035295E+05
       326  27 -3.686541E+05  1.556986E+05  2.086725E+05 -3.806527E+05  6.038176E+04 -9.973982E+04
       327   1 -3.006385E+06 -7.933785E+05 -2.171278E+05 -1.121071E+06 -3.257038E+04  1.058018E+05
       327   2 -2.923677E+06 -7.540773E+05 -1.983338E+05 -1.088665E+06 -2.701549E+04  1.003300E+05
       327   3 -2.828424E+06 -7.282785E+05 -1.819071E+05 -1.071007E+06 -2.129258E+04  9.439561E+04
       327   4 -1.716682E+06 -3.289815E+05 -7.919738E+03 -7.588714E+05 -4.487334E+04  1.011387E+05
       327   5 -1.722956E+06 -3.220425E+05 -4.345531E+03 -7.515829E+05 -4.020290E+04  9.534002E+04
       327   6 -1.716521E+06 -3.284290E+05 -2.434634E+03 -7.590427E+05 -3.536512E+04  8.907921E+04
       327   7 -4.251726E+05  1.355941E+05  2.012581E+05 -3.959573E+05 -5.720368E+04  9.646524E+04
       327   8 -5.206740E+05  1.101451E+05  1.896159E+05 -4.138825E+05 -5.341756E+04  9.033985E+04
       327   9 -6.032847E+05  7.154912E+04  1.770135E+05 -4.465504E+05 -4.946451E+04  8.375274E+04
       327  10 -3.006389E+06 -7.933908E+05 -2.171508E+05 -1.121068E+06  3.248137E-11  4.001565E-10
       327  11 -2.923680E+06 -7.540883E+05 -1.983541E+05 -1.088663E+06 -5.786393E-10 -3.180850E-10
       327  12 -2.828427E+06 -7.282882E+05 -1.819246E+05 -1.071006E+06  1.140329E-09 -8.330121E-10
       327  13 -1.716687E+06 -3.289930E+05 -7.942722E+03 -7.588677E+05 -9.842301E-10 -3.480120E-10
       327  14 -1.722960E+06 -3.220526E+05 -4.365630E+03 -7.515798E+05  3.805616E-09 -2.612219E-09
       327  15 -1.716524E+06 -3.284379E+05 -2.451879E+03 -7.590401E+05 -5.427348E-10  4.134819E-10
       327  16 -4.251786E+05  1.355833E+05  2.012345E+05 -3.959529E+05  4.611813E-10 -3.495994E-10
       327  17 -5.206793E+05  1.101356E+05  1.895952E+05 -4.138786E+05  7.936333E-11 -4.923007E-10
       327  18 -6.032892E+05  7.154094E+04  1.769957E+05 -4.465471E+05 -2.534564E-10 -1.288151E-09
       327  19 -3.006385E+06 -7.933785E+05 -2.171278E+05 -1.121071E+06  3.257038E+04 -1.058018E+05
       327  20 -2.923677E+06 -7.540773E+05 -1.983338E+05 -1.088665E+06  2.701549E+04 -1.003300E+05
       327  21 -2.828424E+06 -7.282785E+05 -1.819071E+05 -1.071007E+06  2.129258E+04 -9.439561E+04
       327  22 -1.716682E+06 -3.289815E+05 -7.919738E+03 -7.588714E+05  4.487334E+04 -1.011387E+05
       327  23 -1.722956E+06 -3.220425E+05 -4.345531E+03 -7.515829E+05  4.020290E+04 -9.534002E+04
       327  24 -1.716521E+06 -3.284290E+05 -2.434634E+03 -7.590427E+05  3.536512E+04 -8.907921E+04
       327  25 -4.251726E+05  1.355941E+05  2.012581E+05 -3.959573E+05  5.720368E+04 -9.646524E+04
       327  26 -5.206740E+05  1.101451E+05  1.896159E+05 -4.138825E+05  5.341756E+04 -9.033985E+04
       327  27 -6.032847E+05  7.154912E+04  1.770135E+05 -4.465504E+05  4.946451E+04 -8.375274E+04
       328   1 -2.771407E+06 -7.077154E+05 -1.716942E+05 -1.055074E+06 -1.931691E+04  9.025873E+04
       328   2 -2.688064E+06 -6.687256E+05 -1.566033E+05 -1.022324E+06 -1.583402E+04  8.317736E+04
       328   3 -2.591614E+06 -6.428611E+05 -1.420197E+05 -1.004523E+06 -1.233150E+04  7.602859E+04
       328   4 -1.716408E+06 -3.284310E+05 -1.873582E+03 -7.590558E+05 -3.339871E+04  8.494260E+04
       328   5 -1.722932E+06 -3.218143E+05 -1.175925E+03 -7.515930E+05 -3.004394E+04  7.781872E+04
       328   6 -1.716333E+06 -3.282979E+05 -8.849565E+02 -7.590810E+05 -2.666964E+04  7.062741E+04
       328   7 -6.602216E+05  5.096464E+04  1.679222E+05 -4.625653E+05 -4.750583E+04  7.961696E+04
       328   8 -7.567967E+05  2.519377E+04  1.542335E+05 -4.804640E+05 -4.427737E+04  7.245125E+04
       328   9 -8.402163E+05 -1.365145E+04  1.402378E+05 -5.133098E+05 -4.102945E+04  6.521810E+04
       328  10 -2.771409E+06 -7.077242E+05 -1.717102E+05 -1.055073E+06 -3.659644E-10 -7.578124E-10
       328  11 -2.688066E+06 -6.687331E+05 -1.566168E+05 -1.022323E+06 -9.213282E-09 -1.991074E-09
       328  12 -2.591615E+06 -6.428673E+05 -1.420308E+05 -1.004522E+06 -8.333392E-09 -1.406029E-09
       328  13 -1.716411E+06 -3.284391E+05 -1.889222E+03 -7.590536E+05 -3.113413E-09 -1.541858E-09
       328  14 -1.722935E+06 -3.218211E+05 -1.188989E+03 -7.515911E+05 -5.131541E-09 -3.586455E-09
       328  15 -1.716335E+06 -3.283035E+05 -8.956567E+02 -7.590795E+05 -3.661322E-09 -6.045711E-10
       328  16 -6.602257E+05  5.095724E+04  1.679060E+05 -4.625623E+05 -6.129259E-09 -9.017722E-10
       328  17 -7.568002E+05  2.518762E+04  1.542200E+05 -4.804614E+05 -5.939137E-09 -1.443537E-09
       328  18 -8.402192E+05 -1.365647E+04  1.402266E+05 -5.133076E+05  2.318578E-09 -1.091832E-10
       328  19 -2.771407E+06 -7.077154E+05 -1.716942E+05 -1.055074E+06  1.931691E+04 -9.025873E+04
       328  20 -2.688064E+06 -6.687256E+05 -1.566033E+05 -1.022324E+06  1.583402E+04 -8.317736E+04
       328  21 -2.591614E+06 -6.428611E+05 -1.420197E+05 -1.004523E+06  1.233150E+04 -7.602859E+04
       328  22 -1.716408E+06 -3.284310E+05 -1.873582E+03 -7.590558E+05  3.339871E+04 -8.494260E+04
       328  23 -1.722932E+06 -3.218143E+05 -1.175925E+03 -7.515930E+05  3.004394E+04 -7.781872E+04
       328  24 -1.716333E+06 -3.282979E+05 -8.849565E+02 -7.590810E+05  2.666964E+04 -7.062741E+04
       328  25 -6.602216E+05  5.096464E+04  1.679222E+05 -4.625653E+05  4.750583E+04 -7.961696E+04
       328  26 -7.567967E+05  2.519377E+04  1.542335E+05 -4.804640E+05  4.427737E+04 -7.245125E+04
       328  27 -8.402163E+05 -1.365145E+04  1.402378E+05 -5.133098E+05  4.102945E+04 -6.521810E+04
       329   1 -2.534206E+06 -6.221275E+05 -1.323228E+05 -9.884695E+05 -1.052325E+04  7.175326E+04
       329   2 -2.450178E+06 -5.829341E+05 -1.181317E+05 -9.555283E+05 -7.141444E+03  6.449660E+04
       329   3 -2.352971E+06 -5.569407E+05 -1.043498E+05 -9.376640E+05 -3.756584E+03  5.722004E+04
       329   4 -1.716294E+06 -3.282878E+05 -8.693983E+02 -7.591110E+05 -2.488989E+04  6.634432E+04
       329   5 -1.722849E+06 -3.216244E+05 -1.073971E+03 -7.515863E+05 -2.154548E+04  5.907796E+04
       329   6 -1.716227E+06 -3.281536E+05 -1.659594E+03 -7.591403E+05 -1.819811E+04  5.179169E+04
       329   7 -8.976612E+05 -3.437862E+04  1.305715E+05 -5.294673E+05 -3.927665E+04  6.092783E+04
       329   8 -9.949536E+05 -6.026148E+04  1.159727E+05 -5.474198E+05 -3.596737E+04  5.365262E+04
       329   9 -1.079053E+06 -9.932714E+04  1.010212E+05 -5.804457E+05 -3.265522E+04  4.635748E+04
       329  10 -2.534207E+06 -6.221331E+05 -1.323327E+05 -9.884689E+05  8.489308E-11  4.979150E-10
       329  11 -2.450179E+06 -5.829385E+05 -1.181396E+05 -9.555279E+05 -2.604226E-10 -6.105097E-10
       329  12 -2.352971E+06 -5.569442E+05 -1.043560E+05 -9.376638E+05 -1.422521E-09 -8.690254E-10
       329  13 -1.716296E+06 -3.282927E+05 -8.788248E+02 -7.591097E+05  3.000239E-10 -2.224153E-10
       329  14 -1.722850E+06 -3.216283E+05 -1.081395E+03 -7.515853E+05 -3.288372E-10 -4.766274E-10
       329  15 -1.716228E+06 -3.281566E+05 -1.665252E+03 -7.591396E+05  1.191235E-09 -6.201328E-10
       329  16 -8.976639E+05 -3.438302E+04  1.305616E+05 -5.294653E+05  3.022229E-10 -7.634354E-10
       329  17 -9.949558E+05 -6.026492E+04  1.159649E+05 -5.474183E+05  1.508416E-09 -9.339081E-10
       329  18 -1.079055E+06 -9.932973E+04  1.010152E+05 -5.804445E+05  1.667245E-09 -1.100644E-10
       329  19 -2.534206E+06 -6.221275E+05 -1.323228E+05 -9.884695E+05  1.052325E+04 -7.175326E+04
       329  20 -2.450178E+06 -5.829341E+05 -1.181317E+05 -9.555283E+05  7.141444E+03 -6.449660E+04
       329  21 -2.352971E+06 -5.569407E+05 -1.043498E+05 -9.376640E+05  3.756584E+03 -5.722004E+04
       329  22 -1.716294E+06 -3.282878E+05 -8.693983E+02 -7.591110E+05  2.488989E+04 -6.634432E+04
       329  23 -1.722849E+06 -3.216244E+05 -1.073971E+03 -7.515863E+05  2.154548E+04 -5.907796E+04
       329  24 -1.716227E+06 -3.281536E+05 -1.659594E+03 -7.591403E+05  1.819811E+04 -5.179169E+04
       329  25 -8.976612E+05 -3.437862E+04  1.305715E+05 -5.294673E+05  3.927665E+04 -6.092783E+04
       329  26 -9.949536E+05 -6.026148E+04  1.159727E+05 -5.474198E+05  3.596737E+04 -5.365262E+04
       329  27 -1.079053E+06 -9.932714E+04  1.010212E+05 -5.804457E+05  3.265522E+04 -4.635748E+04
       330   1 -2.295177E+06 -5.361289E+05 -9.509272E+04 -9.215951E+05 -1.777927E+03  5.297707E+04
       330   2 -2.210549E+06 -4.967697E+05 -8.225814E+04 -8.884275E+05  2.902525E+03  4.617325E+04
       330   3 -2.112986E+06 -4.709929E+05 -7.088376E+04 -8.704183E+05  7.574688E+03  3.938444E+04
       330   4 -1.716260E+06 -3.281389E+05 -2.147572E+03 -7.591929E+05 -1.624358E+04  4.754180E+04
       330   5 -1.722719E+06 -3.214629E+05 -3.792017E+03 -7.515607E+05 -1.153332E+04  4.075205E+04
       330   6 -1.716262E+06 -3.283766E+05 -6.921939E+03 -7.590900E+05 -6.831636E+03  3.397721E+04
       330   7 -1.136974E+06 -1.201113E+05  9.079370E+04 -5.966457E+05 -3.072374E+04  4.210108E+04
       330   8 -1.234629E+06 -1.461302E+05  7.467104E+04 -6.145913E+05 -2.598131E+04  3.532629E+04
       330   9 -1.319367E+06 -1.857437E+05  5.703761E+04 -6.476944E+05 -2.124775E+04  2.856629E+04
       330  10 -2.295178E+06 -5.361320E+05 -9.509799E+04 -9.215950E+05  1.222674E-10 -4.739984E-10
       330  11 -2.210550E+06 -4.967720E+05 -8.226216E+04 -8.884276E+05  1.114622E-11 -6.796607E-10
       330  12 -2.112987E+06 -4.709945E+05 -7.088678E+04 -8.704185E+05 -1.022632E-10 -8.022679E-10
       330  13 -1.716261E+06 -3.281414E+05 -2.152310E+03 -7.591922E+05 -4.167937E-11 -3.669982E-10
       330  14 -1.722720E+06 -3.214648E+05 -3.795385E+03 -7.515603E+05  9.645564E-10 -7.171241E-10
       330  15 -1.716262E+06 -3.283778E+05 -6.924195E+03 -7.590898E+05 -8.896060E-12 -4.393375E-10
       330  16 -1.136975E+06 -1.201134E+05  9.078860E+04 -5.966447E+05  1.105008E-09 -6.468037E-10
       330  17 -1.234630E+06 -1.461317E+05  7.466743E+04 -6.145906E+05 -1.658430E-10 -5.089975E-10
       330  18 -1.319368E+06 -1.857447E+05  5.703523E+04 -6.476939E+05  3.264730E-10 -3.147614E-11
       330  19 -2.295177E+06 -5.361289E+05 -9.509272E+04 -9.215951E+05  1.777927E+03 -5.297707E+04
       330  20 -2.210549E+06 -4.967697E+05 -8.225814E+04 -8.884275E+05 -2.902525E+03 -4.617325E+04
       330  21 -2.112986E+06 -4.709929E+05 -7.088376E+04 -8.704183E+05 -7.574688E+03 -3.938444E+04
       330  22 -1.716260E+06 -3.281389E+05 -2.147572E+03 -7.591929E+05  1.624358E+04 -4.754180E+04
       330  23 -1.722719E+06 -3.214629E+05 -3.792017E+03 -7.515607E+05  1.153332E+04 -4.075205E+04
       330  24 -1.716262E+06 -3.283766E+05 -6.921939E+03 -7.590900E+05  6.831636E+03 -3.397721E+04
       330  25 -1.136974E+06 -1.201113E+05  9.079370E+04 -5.966457E+05  3.072374E+04 -4.210108E+04
       330  26 -1.234629E+06 -1.461302E+05  7.467104E+04 -6.145913E+05  2.598131E+04 -3.532629E+04
       330  27 -1.319367E+06 -1.857437E+05  5.703761E+04 -6.476944E+05  2.124775E+04 -2.856629E+04
       331   1 -2.054911E+06 -4.505632E+05 -6.338380E+04 -8.549021E+05  1.050341E+04  3.549995E+04
       331   2 -1.971062E+06 -4.107065E+05 -5.639451E+04 -8.185877E+05  2.131507E+04  3.115871E+04
       331   3 -1.876839E+06 -3.892176E+05 -5.675779E+04 -7.965120E+05  3.202579E+04  2.708535E+04
       331   4 -1.716694E+06 -3.284088E+05 -9.234688E+03 -7.592766E+05 -3.936224E+03  3.008156E+04
       331   5 -1.722391E+06 -3.231902E+05 -1.699772E+04 -7.506484E+05  7.393328E+03  2.593594E+04
       331   6 -1.717825E+06 -3.364426E+05 -3.252439E+04 -7.562628E+05  1.862090E+04  2.205759E+04
       331   7 -1.378357E+06 -2.062434E+05  4.491204E+04 -6.636028E+05 -1.838406E+04  2.466005E+04
       331   8 -1.473653E+06 -2.356680E+05  2.239875E+04 -6.826834E+05 -6.534338E+03  2.071103E+04
       331   9 -1.558782E+06 -2.836651E+05 -8.290104E+03 -7.160036E+05  5.212228E+03  1.702864E+04
       331  10 -2.054912E+06 -4.505645E+05 -6.338638E+04 -8.549024E+05  5.510420E-10 -4.139787E-10
       331  11 -1.971062E+06 -4.107076E+05 -5.639719E+04 -8.185883E+05 -7.321684E-11  1.568640E-10
       331  12 -1.876840E+06 -3.892187E+05 -5.676110E+04 -7.965127E+05 -8.775335E-10 -2.723743E-10
       331  13 -1.716694E+06 -3.284097E+05 -9.236416E+03 -7.592766E+05 -2.107963E-10 -1.296654E-10
       331  14 -1.722391E+06 -3.231909E+05 -1.699909E+04 -7.506485E+05 -4.191260E-10  1.274145E-10
       331  15 -1.717826E+06 -3.364432E+05 -3.252596E+04 -7.562631E+05 -3.759283E-10  2.134858E-10
       331  16 -1.378358E+06 -2.062441E+05  4.491027E+04 -6.636024E+05  3.038845E-10  1.231352E-10
       331  17 -1.473653E+06 -2.356684E+05  2.239786E+04 -6.826833E+05  7.480079E-10  2.215348E-10
       331  18 -1.558782E+06 -2.836654E+05 -8.290701E+03 -7.160036E+05 -1.204028E-10  4.010430E-10
       331  19 -2.054911E+06 -4.505632E+05 -6.338380E+04 -8.549021E+05 -1.050341E+04 -3.549995E+04
       331  20 -1.971062E+06 -4.107065E+05 -5.639451E+04 -8.185877E+05 -2.131507E+04 -3.115871E+04
       331  21 -1.876839E+06 -3.892176E+05 -5.675779E+04 -7.965120E+05 -3.202579E+04 -2.708535E+04
       331  22 -1.716694E+06 -3.284088E+05 -9.234688E+03 -7.592766E+05  3.936224E+03 -3.008156E+04
       331  23 -1.722391E+06 -3.231902E+05 -1.699772E+04 -7.506484E+05 -7.393328E+03 -2.593594E+04
       331  24 -1.717825E+06 -3.364426E+05 -3.252439E+04 -7.562628E+05 -1.862090E+04 -2.205759E+04
       331  25 -1.378357E+06 -2.062434E+05  4.491204E+04 -6.636028E+05  1.838406E+04 -2.466005E+04
       331  26 -1.473653E+06 -2.356680E+05  2.239875E+04 -6.826834E+05  6.534338E+03 -2.071103E+04
       331  27 -1.558782E+06 -2.836651E+05 -8.290104E+03 -7.160036E+05 -5.212228E+03 -1.702864E+04
       332   1 -1.817862E+06 -3.751300E+05 -5.764962E+04 -7.881427E+05  3.868377E+04  2.481070E+04
       332   2 -1.761518E+06 -3.279935E+05 -8.053576E+04 -6.982142E+05  7.886032E+04  3.338477E+04
       332   3 -1.725500E+06 -3.702253E+05 -1.525354E+05 -6.046629E+05  1.180204E+05  4.468518E+04
       332   4 -1.722791E+06 -3.378268E+05 -4.356926E+04 -7.577689E+05  2.507984E+04  1.970932E+04
       332   5 -1.721615E+06 -3.597782E+05 -8.350773E+04 -7.344115E+05  7.049751E+04  3.024114E+04
       332   6 -1.741827E+06 -4.721570E+05 -1.767265E+05 -7.074426E+05  1.148944E+05  4.348999E+04
       332   7 -1.627709E+06 -3.005216E+05 -2.948797E+04 -7.273902E+05  1.147362E+04  1.460690E+04
       332   8 -1.681706E+06 -3.915536E+05 -8.647800E+04 -7.706100E+05  6.213427E+04  2.709891E+04
       332   9 -1.758131E+06 -5.740335E+05 -2.009113E+05 -8.102087E+05  1.117686E+05  4.229610E+04
       332  10 -1.817864E+06 -3.751311E+05 -5.765360E+04 -7.881435E+05  8.642972E-10  1.191176E-10
       332  11 -1.761525E+06 -3.279963E+05 -8.054959E+04 -6.982163E+05  5.595766E-10 -2.181815E-10
       332  12 -1.725515E+06 -3.702312E+05 -1.525654E+05 -6.046671E+05 -1.098625E-10 -2.793143E-10
       332  13 -1.722792E+06 -3.378274E+05 -4.357117E+04 -7.577693E+05  1.047583E-09  1.941681E-10
       332  14 -1.721621E+06 -3.597805E+05 -8.351882E+04 -7.344132E+05  1.247323E-09 -1.003226E-10
       332  15 -1.741842E+06 -4.721626E+05 -1.767550E+05 -7.074466E+05  2.086935E-10 -9.398678E-11
       332  16 -1.627709E+06 -3.005219E+05 -2.948862E+04 -7.273904E+05 -8.034539E-10  7.691386E-11
       332  17 -1.681711E+06 -3.915554E+05 -8.648667E+04 -7.706114E+05  1.538471E-11 -1.249451E-10
       332  18 -1.758145E+06 -5.740387E+05 -2.009382E+05 -8.102125E+05 -3.547370E-10 -1.608594E-10
       332  19 -1.817862E+06 -3.751300E+05 -5.764962E+04 -7.881427E+05 -3.868377E+04 -2.481070E+04
       332  20 -1.761518E+06 -3.279935E+05 -8.053576E+04 -6.982142E+05 -7.886032E+04 -3.338477E+04
       332  21 -1.725500E+06 -3.702253E+05 -1.525354E+05 -6.046629E+05 -1.180204E+05 -4.468518E+04
       332  22 -1.722791E+06 -3.378268E+05 -4.356926E+04 -7.577689E+05 -2.507984E+04 -1.970932E+04
       332  23 -1.721615E+06 -3.597782E+05 -8.350773E+04 -7.344115E+05 -7.049751E+04 -3.024114E+04
       332  24 -1.741827E+06 -4.721570E+05 -1.767265E+05 -7.074426E+05 -1.148944E+05 -4.348999E+04
       332  25 -1.627709E+06 -3.005216E+05 -2.948797E+04 -7.273902E+05 -1.147362E+04 -1.460690E+04
       332  26 -1.681706E+06 -3.915536E+05 -8.647800E+04 -7.706100E+05 -6.213427E+04 -2.709891E+04
       332  27 -1.758131E+06 -5.740335E+05 -2.009113E+05 -8.102087E+05 -1.117686E+05 -4.229610E+04
       333   1  1.146594E+06  1.952939E+05  2.675508E+05  4.793339E+04  2.189914E+05  1.943241E+03
       333   2  1.115718E+06 -1.000350E+05  8.878568E+04  1.627157E+04  1.445172E+05  4.999276E+03
       333   3  1.178876E+06 -5.847343E+04  4.272160E+04 -3.342988E+04  7.004226E+04  4.165957E+03
       333   4  1.369924E+06  2.508007E+05  3.229027E+05 -7.813112E+03  2.207635E+05  1.925595E+03
       333   5  1.322891E+06 -4.856029E+04  1.394379E+05  1.357035E+03  1.449530E+05  4.996107E+03
       333   6  1.370086E+06 -1.086612E+04  8.956630E+04 -7.513252E+03  6.914395E+04  4.168055E+03
       333   7  1.593306E+06  3.063154E+05  3.782525E+05 -6.357965E+04  2.225363E+05  1.907638E+03
       333   8  1.530103E+06  2.912051E+03  1.900872E+05 -1.356249E+04  1.453890E+05  4.992918E+03
       333   9  1.561331E+06  3.674099E+04  1.364087E+05  1.841136E+04  6.824535E+04  4.170078E+03
       333  10  1.146543E+06  1.952810E+05  2.674609E+05  4.793305E+04 -3.499837E-10 -1.444066E-09
       333  11  1.115695E+06 -1.000406E+05  8.874646E+04  1.627099E+04 -5.489286E-10 -3.831889E-10
       333  12  1.178871E+06 -5.847476E+04  4.271237E+04 -3.343012E+04 -1.718727E-09 -7.786175E-10
       333  13  1.369872E+06  2.507876E+05  3.228113E+05 -7.813455E+03  1.133205E-09  5.570587E-10
       333  14  1.322868E+06 -4.856594E+04  1.393985E+05  1.356452E+03  1.831857E-09 -5.690830E-10
       333  15  1.370081E+06 -1.086742E+04  8.955730E+04 -7.513484E+03  1.007688E-09 -8.943794E-10
       333  16  1.593253E+06  3.063021E+05  3.781597E+05 -6.358000E+04  2.678375E-10  4.519351E-10
       333  17  1.530080E+06  2.906368E+03  1.900475E+05 -1.356307E+04  1.087222E-09 -4.272095E-10
       333  18  1.561326E+06  3.673972E+04  1.363999E+05  1.841113E+04  2.679967E-09  1.936761E-09
       333  19  1.146594E+06  1.952939E+05  2.675508E+05  4.793339E+04 -2.189914E+05 -1.943241E+03
       333  20  1.115718E+06 -1.000350E+05  8.878568E+04  1.627157E+04 -1.445172E+05 -4.999276E+03
       333  21  1.178876E+06 -5.847343E+04  4.272160E+04 -3.342988E+04 -7.004226E+04 -4.165957E+03
       333  22  1.369924E+06  2.508007E+05  3.229027E+05 -7.813112E+03 -2.207635E+05 -1.925595E+03
       333  23  1.322891E+06 -4.856029E+04  1.394379E+05  1.357035E+03 -1.449530E+05 -4.996107E+03
       333  24  1.370086E+06 -1.086612E+04  8.956630E+04 -7.513252E+03 -6.914395E+04 -4.168055E+03
       333  25  1.593306E+06  3.063154E+05  3.782525E+05 -6.357965E+04 -2.225363E+05 -1.907638E+03
       333  26  1.530103E+06  2.912051E+03  1.900872E+05 -1.356249E+04 -1.453890E+05 -4.992918E+03
       333  27  1.561331E+06  3.674099E+04  1.364087E+05  1.841136E+04 -6.824535E+04 -4.170078E+03
       334   1  1.195178E+06 -6.421444E+03  3.521094E+04 -4.234355E+02  5.467622E+04  3.246339E+03
       334   2  1.202629E+06 -4.187234E+04  1.304551E+03  2.396257E+03  3.599536E+04  3.123653E+03
       334   3  1.223566E+06 -3.337819E+04 -9.453398E+03 -1.063317E+04  1.731439E+04  2.597293E+03
       334   4  1.352109E+06  3.260315E+04  7.368353E+04 -7.135403E+03  5.471673E+04  3.245719E+03
       334   5  1.345371E+06 -6.375192E+03  3.626014E+04  8.007968E+02  3.589567E+04  3.123451E+03
       334   6  1.352138E+06 -1.389958E+03  2.207814E+04 -7.111770E+03  1.707492E+04  2.597245E+03
       334   7  1.509062E+06  7.162610E+04  1.121543E+05 -1.384907E+04  5.475726E+04  3.245098E+03
       334   8  1.488130E+06  2.912046E+04  7.121424E+04 -7.950327E+02  3.579596E+04  3.123251E+03
       334   9  1.480726E+06  3.059709E+04  5.360848E+04 -3.589645E+03  1.683540E+04  2.597194E+03
       334  10  1.195175E+06 -6.422256E+03  3.520532E+04 -4.235784E+02 -5.233774E-10 -6.692101E-10
       334  11  1.202628E+06 -4.187270E+04  1.302103E+03  2.396166E+03 -4.361031E-10  4.092421E-10
       334  12  1.223566E+06 -3.337827E+04 -9.453973E+03 -1.063320E+04  7.604778E-10 -2.296745E-10
       334  13  1.352105E+06  3.260234E+04  7.367790E+04 -7.135546E+03  8.293177E-10  1.377013E-09
       334  14  1.345369E+06 -6.375548E+03  3.625771E+04  8.007065E+02  1.411568E-09  4.487109E-10
       334  15  1.352138E+06 -1.390043E+03  2.207758E+04 -7.111805E+03 -2.034046E-09 -6.728122E-10
       334  16  1.509059E+06  7.162529E+04  1.121487E+05 -1.384921E+04  1.628442E-10  1.112626E-09
       334  17  1.488129E+06  2.912011E+04  7.121182E+04 -7.951227E+02 -1.534514E-09 -6.975431E-10
       334  18  1.480725E+06  3.059701E+04  5.360793E+04 -3.589680E+03  1.100051E-10  1.732476E-10
       334  19  1.195178E+06 -6.421444E+03  3.521094E+04 -4.234355E+02 -5.467622E+04 -3.246339E+03
       334  20  1.202629E+06 -4.187234E+04  1.304551E+03  2.396257E+03 -3.599536E+04 -3.123653E+03
       334  21  1.223566E+06 -3.337819E+04 -9.453398E+03 -1.063317E+04 -1.731439E+04 -2.597293E+03
       334  22  1.352109E+06  3.260315E+04  7.368353E+04 -7.135403E+03 -5.471673E+04 -3.245719E+03
       334  23  1.345371E+06 -6.375192E+03  3.626014E+04  8.007968E+02 -3.589567E+04 -3.123451E+03
       334  24  1.352138E+06 -1.389958E+03  2.207814E+04 -7.111770E+03 -1.707492E+04 -2.597245E+03
       334  25  1.509062E+06  7.162610E+04  1.121543E+05 -1.384907E+04 -5.475726E+04 -3.245098E+03
       334  26  1.488130E+06  2.912046E+04  7.121424E+04 -7.950327E+02 -3.579596E+04 -3.123251E+03
       334  27  1.480726E+06  3.059709E+04  5.360848E+04 -3.589645E+03 -1.683540E+04 -2.597194E+03
       335   1  1.252079E+06 -2.004931E+04 -6.351166E+03 -6.105933E+03  1.367248E+04  2.249432E+03
       335   2  1.264077E+06 -2.184947E+04 -1.137930E+04  5.643722E+02  8.962859E+03  1.816835E+03
       335   3  1.278143E+06 -1.794869E+04 -1.191438E+04 -7.322111E+03  4.253132E+03  1.355331E+03
       335   4  1.349594E+06  4.195475E+03  1.750140E+04 -6.833097E+03  1.353380E+04  2.249336E+03
       335   5  1.348563E+06 -8.380702E+02  9.314665E+03  4.460850E+02  8.813770E+03  1.816768E+03
       335   6  1.349600E+06 -1.692983E+02  5.627724E+03 -6.831393E+03  4.093739E+03  1.355284E+03
       335   7  1.447118E+06  2.843956E+04  4.135326E+04 -7.560376E+03  1.339509E+04  2.249241E+03
       335   8  1.433054E+06  2.017280E+04  3.000811E+04  3.277811E+02  8.664661E+03  1.816700E+03
       335   9  1.421061E+06  1.760972E+04  2.316946E+04 -6.340619E+03  3.934328E+03  1.355236E+03
       335  10  1.252079E+06 -2.004936E+04 -6.351526E+03 -6.105958E+03 -2.716764E-10 -5.795179E-10
       335  11  1.264077E+06 -2.184949E+04 -1.137946E+04  5.643591E+02 -1.157209E-09 -5.479008E-10
       335  12  1.278143E+06 -1.794870E+04 -1.191442E+04 -7.322116E+03 -2.993436E-10 -2.309334E-10
       335  13  1.349594E+06  4.195420E+03  1.750104E+04 -6.833122E+03 -1.761945E-10 -7.665034E-11
       335  14  1.348563E+06 -8.380945E+02  9.314514E+03  4.460721E+02  6.313985E-10  1.501868E-10
       335  15  1.349600E+06 -1.693048E+02  5.627689E+03 -6.831397E+03 -8.708286E-10 -7.891087E-10
       335  16  1.447117E+06  2.843950E+04  4.135292E+04 -7.560401E+03 -1.033777E-09  2.787126E-10
       335  17  1.433054E+06  2.017278E+04  3.000797E+04  3.277684E+02 -2.642023E-09 -3.080810E-10
       335  18  1.421061E+06  1.760971E+04  2.316942E+04 -6.340623E+03 -9.672649E-10 -4.091549E-11
       335  19  1.252079E+06 -2.004931E+04 -6.351166E+03 -6.105933E+03 -1.367248E+04 -2.249432E+03
       335  20  1.264077E+06 -2.184947E+04 -1.137930E+04  5.643722E+02 -8.962859E+03 -1.816835E+03
       335  21  1.278143E+06 -1.794869E+04 -1.191438E+04 -7.322111E+03 -4.253132E+03 -1.355331E+03
       335  22  1.349594E+06  4.195475E+03  1.750140E+04 -6.833097E+03 -1.353380E+04 -2.249336E+03
       335  23  1.348563E+06 -8.380702E+02  9.314665E+03  4.460850E+02 -8.813770E+03 -1.816768E+03
       335  24  1.349600E+06 -1.692983E+02  5.627724E+03 -6.831393E+03 -4.093739E+03 -1.355284E+03
       335  25  1.447118E+06  2.843956E+04  4.135326E+04 -7.560376E+03 -1.339509E+04 -2.249241E+03
       335  26  1.433054E+06  2.017280E+04  3.000811E+04  3.277811E+02 -8.664661E+03 -1.816700E+03
       335  27  1.421061E+06  1.760972E+04  2.316946E+04 -6.340619E+03 -3.934328E+03 -1.355236E+03
       336   1  1.306877E+06 -9.997751E+03 -5.875326E+03 -6.624193E+03  3.334818E+03  1.085948E+03
       336   2  1.319138E+06 -7.554582E+03 -4.593095E+03  2.657898E+02  1.969090E+03  6.409336E+02
       336   3  1.331784E+06 -4.321469E+03 -2.223632E+03 -6.760036E+03  6.032780E+02  1.979729E+02
       336   4  1.349226E+06  5.265786E+02  4.459105E+03 -6.689578E+03  3.184945E+03  1.085909E+03
       336   5  1.349035E+06 -1.195369E+02  2.729847E+03  2.683600E+02  1.819823E+03  6.409015E+02
       336   6  1.349227E+06  2.411788E+01  2.087300E+03 -6.689467E+03  4.546443E+02  1.979474E+02
       336   7  1.391577E+06  1.105078E+04  1.479341E+04 -6.754967E+03  3.035062E+03  1.085871E+03
       336   8  1.378932E+06  7.315442E+03  1.005272E+04  2.709301E+02  1.670549E+03  6.408693E+02
       336   9  1.366670E+06  4.369682E+03  6.398209E+03 -6.618896E+03  3.060064E+02  1.979219E+02
       336  10  1.306876E+06 -9.997755E+03 -5.875349E+03 -6.624196E+03  6.459572E-10 -3.504831E-10
       336  11  1.319138E+06 -7.554584E+03 -4.593103E+03  2.657888E+02  1.626548E-10 -3.029589E-10
       336  12  1.331784E+06 -4.321469E+03 -2.223633E+03 -6.760036E+03 -4.723552E-14 -2.519923E-10
       336  13  1.349226E+06  5.265746E+02  4.459084E+03 -6.689580E+03  1.205928E-09 -1.885970E-10
       336  14  1.349035E+06 -1.195383E+02  2.729840E+03  2.683590E+02 -1.866958E-10 -4.676840E-11
       336  15  1.349227E+06  2.411778E+01  2.087299E+03 -6.689467E+03 -1.634236E-10  7.539847E-11
       336  16  1.391577E+06  1.105077E+04  1.479339E+04 -6.754970E+03  6.648581E-10  3.087255E-10
       336  17  1.378932E+06  7.315441E+03  1.005272E+04  2.709293E+02 -1.209646E-09  6.880938E-11
       336  18  1.366670E+06  4.369682E+03  6.398209E+03 -6.618896E+03  5.053498E-10 -3.917109E-11
       336  19  1.306877E+06 -9.997751E+03 -5.875326E+03 -6.624193E+03 -3.334818E+03 -1.085948E+03
       336  20  1.319138E+06 -7.554582E+03 -4.593095E+03  2.657898E+02 -1.969090E+03 -6.409336E+02
       336  21  1.331784E+06 -4.321469E+03 -2.223632E+03 -6.760036E+03 -6.032780E+02 -1.979729E+02
       336  22  1.349226E+06  5.265786E+02  4.459105E+03 -6.689578E+03 -3.184945E+03 -1.085909E+03
       336  23  1.349035E+06 -1.195369E+02  2.729847E+03  2.683600E+02 -1.819823E+03 -6.409015E+02
       336  24  1.349227E+06  2.411788E+01  2.087300E+03 -6.689467E+03 -4.546443E+02 -1.979474E+02
       336  25  1.391577E+06  1.105078E+04  1.479341E+04 -6.754967E+03 -3.035062E+03 -1.085871E+03
       336  26  1.378932E+06  7.315442E+03  1.005272E+04  2.709301E+02 -1.670549E+03 -6.408693E+02
       336  27  1.366670E+06  4.369682E+03  6.398209E+03 -6.618896E+03 -3.060064E+02 -1.979219E+02
       337   1  1.360183E+06  2.785052E+03  4.723481E+03 -6.631066E+03  2.341488E+02 -5.906852E+01
       337   2  1.372452E+06  5.725764E+03  7.963779E+03  2.576543E+02 -8.817591E+02 -5.014898E+02
       337   3  1.385026E+06  9.273430E+03  1.208280E+04 -6.732481E+03 -1.997660E+03 -9.446924E+02
       337   4  1.349210E+06  4.835328E+01  1.997145E+03 -6.681286E+03  8.544738E+01 -5.909357E+01
       337   5  1.349057E+06 -9.226636E+01  2.233484E+03  2.581229E+02 -1.030693E+03 -5.015200E+02
       337   6  1.349209E+06  3.741352E+02  3.348740E+03 -6.681356E+03 -2.146803E+03 -9.447274E+02
       337   7  1.338236E+06 -2.688354E+03 -7.291997E+02 -6.731505E+03 -6.325146E+01 -5.911860E+01
       337   8  1.325662E+06 -5.910338E+03 -3.496850E+03  2.585915E+02 -1.179621E+03 -5.015502E+02
       337   9  1.313393E+06 -8.525254E+03 -5.385411E+03 -6.630233E+03 -2.295938E+03 -9.447624E+02
       337  10  1.360183E+06  2.785052E+03  4.723481E+03 -6.631066E+03  7.992593E-10 -2.262257E-10
       337  11  1.372452E+06  5.725764E+03  7.963777E+03  2.576539E+02  3.426753E-10  1.086478E-10
       337  12  1.385026E+06  9.273428E+03  1.208279E+04 -6.732483E+03 -7.869556E-10  1.460861E-10
       337  13  1.349210E+06  4.835328E+01  1.997145E+03 -6.681286E+03 -2.148099E-11  2.611656E-10
       337  14  1.349057E+06 -9.226692E+01  2.233482E+03  2.581225E+02  4.905507E-10  5.050631E-10
       337  15  1.349209E+06  3.741330E+02  3.348729E+03 -6.681357E+03  1.123855E-09  9.879906E-11
       337  16  1.338236E+06 -2.688354E+03 -7.291997E+02 -6.731505E+03 -4.477853E-10  1.917853E-10
       337  17  1.325662E+06 -5.910338E+03 -3.496853E+03  2.585910E+02 -2.295333E-09  1.109783E-10
       337  18  1.313393E+06 -8.525256E+03 -5.385422E+03 -6.630235E+03 -7.173359E-10 -1.328287E-10
       337  19  1.360183E+06  2.785052E+03  4.723481E+03 -6.631066E+03 -2.341488E+02  5.906852E+01
       337  20  1.372452E+06  5.725764E+03  7.963779E+03  2.576543E+02  8.817591E+02  5.014898E+02
       337  21  1.385026E+06  9.273430E+03  1.208280E+04 -6.732481E+03  1.997660E+03  9.446924E+02
       337  22  1.349210E+06  4.835328E+01  1.997145E+03 -6.681286E+03 -8.544738E+01  5.909357E+01
       337  23  1.349057E+06 -9.226636E+01  2.233484E+03  2.581229E+02  1.030693E+03  5.015200E+02
       337  24  1.349209E+06  3.741352E+02  3.348740E+03 -6.681356E+03  2.146803E+03  9.447274E+02
       337  25  1.338236E+06 -2.688354E+03 -7.291997E+02 -6.731505E+03  6.325146E+01  5.911860E+01
       337  26  1.325662E+06 -5.910338E+03 -3.496850E+03  2.585915E+02  1.179621E+03  5.015502E+02
       337  27  1.313393E+06 -8.525254E+03 -5.385411E+03 -6.630233E+03  2.295938E+03  9.447624E+02
       338   1  1.414248E+06  1.599870E+04  2.004894E+04 -6.456121E+03 -2.663528E+03 -1.212330E+03
       338   2  1.426432E+06  1.872402E+04  2.575506E+04  3.335817E+02 -6.079890E+03 -1.670275E+03
       338   3  1.440104E+06  2.552636E+04  3.470622E+04 -7.324130E+03 -9.496193E+03 -2.099349E+03
       338   4  1.349471E+06 -1.179670E+02  4.144514E+03 -6.807318E+03 -2.822015E+03 -1.212374E+03
       338   5  1.348725E+06 -5.995994E+02  6.723408E+03  4.158785E+02 -6.228281E+03 -1.670336E+03
       338   6  1.349467E+06  2.994397E+03  1.254072E+04 -6.808449E+03 -9.634418E+03 -2.099429E+03
       338   7  1.284698E+06 -1.623494E+04 -1.176022E+04 -7.158480E+03 -2.980485E+03 -1.212417E+03
       338   8  1.271024E+06 -1.992367E+04 -1.230868E+04  4.981646E+02 -6.376654E+03 -1.670396E+03
       338   9  1.258837E+06 -1.953817E+04 -9.625376E+03 -6.292844E+03 -9.772623E+03 -2.099509E+03
       338  10  1.414248E+06  1.599869E+04  2.004892E+04 -6.456123E+03 -1.046177E-09  5.538974E-10
       338  11  1.426432E+06  1.872401E+04  2.575498E+04  3.335735E+02 -2.612214E-09 -3.697365E-10
       338  12  1.440104E+06  2.552633E+04  3.470604E+04 -7.324146E+03  5.739068E-10  8.006598E-12
       338  13  1.349471E+06 -1.179707E+02  4.144496E+03 -6.807321E+03  1.352854E-10  3.294769E-10
       338  14  1.348725E+06 -5.996128E+02  6.723330E+03  4.158702E+02  1.215895E-09  2.250229E-10
       338  15  1.349467E+06  2.994367E+03  1.254054E+04 -6.808465E+03  1.129871E-09 -1.326729E-10
       338  16  1.284698E+06 -1.623495E+04 -1.176024E+04 -7.158483E+03 -8.348573E-10 -4.077969E-10
       338  17  1.271024E+06 -1.992368E+04 -1.230876E+04  4.981560E+02  1.574829E-09  5.912493E-11
       338  18  1.258837E+06 -1.953820E+04 -9.625563E+03 -6.292860E+03  7.661759E-11  2.058697E-10
       338  19  1.414248E+06  1.599870E+04  2.004894E+04 -6.456121E+03  2.663528E+03  1.212330E+03
       338  20  1.426432E+06  1.872402E+04  2.575506E+04  3.335817E+02  6.079890E+03  1.670275E+03
       338  21  1.440104E+06  2.552636E+04  3.470622E+04 -7.324130E+03  9.496193E+03  2.099349E+03
       338  22  1.349471E+06 -1.179670E+02  4.144514E+03 -6.807318E+03  2.822015E+03  1.212374E+03
       338  23  1.348725E+06 -5.995994E+02  6.723408E+03  4.158785E+02  6.228281E+03  1.670336E+03
       338  24  1.349467E+06  2.994397E+03  1.254072E+04 -6.808449E+03  9.634418E+03  2.099429E+03
       338  25  1.284698E+06 -1.623494E+04 -1.176022E+04 -7.158480E+03  2.980485E+03  1.212417E+03
       338  26  1.271024E+06 -1.992367E+04 -1.230868E+04  4.981646E+02  6.376654E+03  1.670396E+03
       338  27  1.258837E+06 -1.953817E+04 -9.625376E+03 -6.292844E+03  9.772623E+03  2.099509E+03
       339   1  1.472681E+06  2.920366E+04  4.556906E+04 -4.547369E+03 -1.193466E+04 -2.441277E+03
       339   2  1.481840E+06  2.911122E+04  5.906611E+04 -3.822729E+02 -2.551968E+04 -2.956980E+03
       339   3  1.500681E+06  6.043601E+04  8.926058E+04 -1.186557E+04 -3.910539E+04 -3.081635E+03
       339   4  1.351285E+06 -9.937917E+02  1.580030E+04 -7.069677E+03 -1.217032E+04 -2.441361E+03
       339   5  1.346444E+06 -4.554293E+03  2.591474E+04  7.466567E+02 -2.562115E+04 -2.957126E+03
       339   6  1.351263E+06  2.328292E+04  5.263623E+04 -7.085480E+03 -3.907236E+04 -3.081965E+03
       339   7  1.229903E+06 -3.119232E+04 -1.396953E+04 -9.591493E+03 -1.240592E+04 -2.441443E+03
       339   8  1.211064E+06 -3.822115E+04 -7.237969E+03  1.875338E+03 -2.572259E+04 -2.957272E+03
       339   9  1.201866E+06 -1.387174E+04  1.601025E+04 -2.306545E+03 -3.903934E+04 -3.082294E+03
       339  10  1.472680E+06  2.920362E+04  4.556878E+04 -4.547392E+03  1.046054E-09 -2.852962E-10
       339  11  1.481839E+06  2.911103E+04  5.906487E+04 -3.823336E+02  7.626705E-10 -9.157868E-10
       339  12  1.500680E+06  6.043559E+04  8.925769E+04 -1.186567E+04  1.580433E-09 -6.701876E-10
       339  13  1.351285E+06 -9.938377E+02  1.580001E+04 -7.069701E+03  2.744057E-10 -8.266894E-11
       339  14  1.346443E+06 -4.554478E+03  2.591349E+04  7.465957E+02  6.921239E-10 -3.442728E-10
       339  15  1.351262E+06  2.328250E+04  5.263335E+04 -7.085577E+03 -1.091137E-09 -7.505614E-10
       339  16  1.229902E+06 -3.119236E+04 -1.396983E+04 -9.591518E+03 -1.683304E-09  3.229888E-11
       339  17  1.211063E+06 -3.822134E+04 -7.239227E+03  1.875277E+03  2.910256E-10  1.026991E-09
       339  18  1.201864E+06 -1.387216E+04  1.600738E+04 -2.306642E+03  2.505806E-10  9.715206E-12
       339  19  1.472681E+06  2.920366E+04  4.556906E+04 -4.547369E+03  1.193466E+04  2.441277E+03
       339  20  1.481840E+06  2.911122E+04  5.906611E+04 -3.822729E+02  2.551968E+04  2.956980E+03
       339  21  1.500681E+06  6.043601E+04  8.926058E+04 -1.186557E+04  3.910539E+04  3.081635E+03
       339  22  1.351285E+06 -9.937917E+02  1.580030E+04 -7.069677E+03  1.217032E+04  2.441361E+03
       339  23  1.346444E+06 -4.554293E+03  2.591474E+04  7.466567E+02  2.562115E+04  2.957126E+03
       339  24  1.351263E+06  2.328292E+04  5.263623E+04 -7.085480E+03  3.907236E+04  3.081965E+03
       339  25  1.229903E+06 -3.119232E+04 -1.396953E+04 -9.591493E+03  1.240592E+04  2.441443E+03
       339  26  1.211064E+06 -3.822115E+04 -7.237969E+03  1.875338E+03  2.572259E+04  2.957272E+03
       339  27  1.201866E+06 -1.387174E+04  1.601025E+04 -2.306545E+03  3.903934E+04  3.082294E+03
       340   1  1.547364E+06  3.783984E+04  1.088626E+05  1.107827E+04 -4.850464E+04 -3.973831E+03
       340   2  1.529325E+06  1.474222E+04  1.482150E+05 -9.356643E+03 -1.039353E+05 -4.755946E+03
       340   3  1.578820E+06  2.325664E+05  2.838554E+05 -4.745427E+04 -1.593705E+05 -1.768617E+03
       340   4  1.364106E+06 -7.764155E+03  6.397746E+04 -7.459142E+03 -4.937770E+04 -3.973131E+03
       340   5  1.330380E+06 -3.468646E+04  9.958444E+04  1.270106E+03 -1.035258E+05 -4.757453E+03
       340   6  1.363987E+06  1.791290E+05  2.306120E+05 -7.661540E+03 -1.576770E+05 -1.776999E+03
       340   7  1.180879E+06 -5.336935E+04  1.909004E+04 -2.599109E+04 -5.025050E+04 -3.972379E+03
       340   8  1.131472E+06 -8.411763E+04  5.095101E+04  1.189344E+04 -1.031165E+05 -4.758947E+03
       340   9  1.149199E+06  1.256940E+05  1.773660E+05  3.211744E+04 -1.559840E+05 -1.785166E+03
       340  10  1.547362E+06  3.783919E+04  1.088582E+05  1.107812E+04  6.216198E-10 -1.428949E-09
       340  11  1.529313E+06  1.473930E+04  1.481947E+05 -9.357041E+03 -3.322538E-09 -2.680649E-09
       340  12  1.578792E+06  2.325596E+05  2.838078E+05 -4.745450E+04  3.669431E-10 -6.632129E-10
       340  13  1.364104E+06 -7.764825E+03  6.397286E+04 -7.459300E+03 -1.006607E-09 -3.714925E-09
       340  14  1.330369E+06 -3.468935E+04  9.956430E+04  1.269709E+03  2.224385E-09  1.556253E-09
       340  15  1.363960E+06  1.791223E+05  2.305653E+05 -7.661766E+03  2.889742E-10 -1.467120E-10
       340  16  1.180877E+06 -5.337004E+04  1.908528E+04 -2.599125E+04 -1.036221E-09 -9.395483E-10
       340  17  1.131461E+06 -8.412050E+04  5.093102E+04  1.189305E+04 -9.300114E-10  9.023372E-10
       340  18  1.149173E+06  1.256875E+05  1.773204E+05  3.211721E+04  1.574079E-11 -1.136365E-09
       340  19  1.547364E+06  3.783984E+04  1.088626E+05  1.107827E+04  4.850464E+04  3.973831E+03
       340  20  1.529325E+06  1.474222E+04  1.482150E+05 -9.356643E+03  1.039353E+05  4.755946E+03
       340  21  1.578820E+06  2.325664E+05  2.838554E+05 -4.745427E+04  1.593705E+05  1.768617E+03
       340  22  1.364106E+06 -7.764155E+03  6.397746E+04 -7.459142E+03  4.937770E+04  3.973131E+03
       340  23  1.330380E+06 -3.468646E+04  9.958444E+04  1.270106E+03  1.035258E+05  4.757453E+03
       340  24  1.363987E+06  1.791290E+05  2.306120E+05 -7.661540E+03  1.576770E+05  1.776999E+03
       340  25  1.180879E+06 -5.336935E+04  1.909004E+04 -2.599109E+04  5.025050E+04  3.972379E+03
       340  26  1.131472E+06 -8.411763E+04  5.095101E+04  1.189344E+04  1.031165E+05  4.758947E+03
       340  27  1.149199E+06  1.256940E+05  1.773660E+05  3.211744E+04  1.559840E+05  1.785166E+03
       341   1  1.089191E+06  4.672629E+06  1.150353E+06 -4.492958E+05  2.452036E+04  2.091955E+05
       341   2  6.473113E+05  3.927173E+06  8.131394E+05 -2.964089E+04  6.641405E+04  1.141533E+05
       341   3  5.247987E+05  3.284438E+06  6.193420E+05 -3.814719E+05  3.982751E+04  1.887059E+04
       341   4  2.209005E+05  1.184346E+06  2.867731E+05 -3.919199E+05  2.461980E+04  1.829297E+05
       341   5 -4.597366E+04  1.135070E+06  1.318087E+05 -6.395391E+03  6.644943E+04  1.114011E+05
       341   6  3.236004E+03  1.184462E+06  1.045311E+05 -3.925325E+05  3.967384E+04  3.952405E+04
       341   7 -6.482868E+05 -2.292942E+06 -5.777072E+05 -3.348536E+05  2.471478E+04  1.568081E+05
       341   8 -7.398313E+05 -1.649962E+06 -5.500889E+05  1.675473E+04  6.648471E+04  1.086602E+05
       341   9 -5.186514E+05 -9.115147E+05 -4.106010E+05 -4.035469E+05  3.951917E+04  6.010789E+04
       341  10  1.089179E+06  4.672582E+06  1.150270E+06 -4.493000E+05  1.374645E-09 -3.161972E-09
       341  11  6.473031E+05  3.927158E+06  8.131067E+05 -2.964698E+04  2.301867E-12 -8.889930E-09
       341  12  5.247969E+05  3.284437E+06  6.193384E+05 -3.814725E+05  2.831490E-10  1.257703E-08
       341  13  2.208909E+05  1.184310E+06  2.867092E+05 -3.919235E+05  2.207615E-09 -6.204164E-11
       341  14 -4.598172E+04  1.135055E+06  1.317771E+05 -6.401350E+03  1.085118E-09 -2.638784E-09
       341  15  3.233893E+03  1.184460E+06  1.045252E+05 -3.925338E+05  1.102416E-09 -8.609995E-10
       341  16 -6.482941E+05 -2.292968E+06 -5.777548E+05 -3.348568E+05  8.722246E-10  3.141457E-09
       341  17 -7.398392E+05 -1.649976E+06 -5.501194E+05  1.674890E+04  5.464285E-09  1.479765E-08
       341  18 -5.186541E+05 -9.115190E+05 -4.106108E+05 -4.035488E+05  6.506010E-10 -9.061136E-09
       341  19  1.089191E+06  4.672629E+06  1.150353E+06 -4.492958E+05 -2.452036E+04 -2.091955E+05
       341  20  6.473113E+05  3.927173E+06  8.131394E+05 -2.964089E+04 -6.641405E+04 -1.141533E+05
       341  21  5.247987E+05  3.284438E+06  6.193420E+05 -3.814719E+05 -3.982751E+04 -1.887059E+04
       341  22  2.209005E+05  1.184346E+06  2.867731E+05 -3.919199E+05 -2.461980E+04 -1.829297E+05
       341  23 -4.597366E+04  1.135070E+06  1.318087E+05 -6.395391E+03 -6.644943E+04 -1.114011E+05
       341  24  3.236004E+03  1.184462E+06  1.045311E+05 -3.925325E+05 -3.967384E+04 -3.952405E+04
       341  25 -6.482868E+05 -2.292942E+06 -5.777072E+05 -3.348536E+05 -2.471478E+04 -1.568081E+05
       341  26 -7.398313E+05 -1.649962E+06 -5.500889E+05  1.675473E+04 -6.648471E+04 -1.086602E+05
       341  27 -5.186514E+05 -9.115147E+05 -4.106010E+05 -4.035469E+05 -3.951917E+04 -6.010789E+04
       342   1  1.631304E+05  1.697217E+06  2.256772E+05 -4.035736E+05  1.389808E+04  1.537893E+04
       342   2 -5.223889E+04  1.007109E+06  4.921545E+04 -7.817091E+03 -3.065340E+03 -2.928870E+04
       342   3 -1.543291E+05  3.367554E+05 -7.303374E+04 -3.714745E+05 -1.947903E+04 -7.389566E+04
       342   4  3.142277E+04  1.168107E+06  9.663916E+04 -3.895331E+05  1.384879E+04  2.129598E+04
       342   5 -1.456869E+04  1.158427E+06  8.628192E+04 -9.758072E+03 -3.111479E+03 -2.355366E+04
       342   6  5.276778E+04  1.168093E+06  1.302876E+05 -3.893689E+05 -1.952112E+04 -6.839087E+04
       342   7 -1.003048E+05  6.392523E+05 -3.241906E+04 -3.755038E+05  1.379974E+04  2.720799E+04
       342   8  2.309984E+04  1.309766E+06  1.233468E+05 -1.169948E+04 -3.157648E+03 -1.781722E+04
       342   9  2.598145E+05  2.000060E+06  3.335588E+05 -4.072859E+05 -1.956349E+04 -6.287867E+04
       342  10  1.631301E+05  1.697217E+06  2.256764E+05 -4.035738E+05 -2.173515E-09 -1.852422E-09
       342  11 -5.223913E+04  1.007108E+06  4.921382E+04 -7.817163E+03  2.390659E-09 -1.742109E-08
       342  12 -1.543310E+05  3.367495E+05 -7.304472E+04 -3.714756E+05 -1.681883E-09  1.321995E-08
       342  13  3.142244E+04  1.168107E+06  9.663795E+04 -3.895333E+05 -5.446731E-10  1.221558E-10
       342  14 -1.456885E+04  1.158427E+06  8.628086E+04 -9.758131E+03  5.122286E-09 -4.542930E-09
       342  15  5.276612E+04  1.168088E+06  1.302782E+05 -3.893700E+05  8.634222E-09 -1.282212E-09
       342  16 -1.003052E+05  6.392514E+05 -3.242081E+04 -3.755041E+05 -1.349324E-10  2.001148E-09
       342  17  2.309974E+04  1.309766E+06  1.233462E+05 -1.169953E+04 -7.158421E-09  2.618596E-08
       342  18  2.598131E+05  2.000056E+06  3.335507E+05 -4.072869E+05  9.868729E-10 -9.086486E-09
       342  19  1.631304E+05  1.697217E+06  2.256772E+05 -4.035736E+05 -1.389808E+04 -1.537893E+04
       342  20 -5.223889E+04  1.007109E+06  4.921545E+04 -7.817091E+03  3.065340E+03  2.928870E+04
       342  21 -1.543291E+05  3.367554E+05 -7.303374E+04 -3.714745E+05  1.947903E+04  7.389566E+04
       342  22  3.142277E+04  1.168107E+06  9.663916E+04 -3.895331E+05 -1.384879E+04 -2.129598E+04
       342  23 -1.456869E+04  1.158427E+06  8.628192E+04 -9.758072E+03  3.111479E+03  2.355366E+04
       342  24  5.276778E+04  1.168093E+06  1.302876E+05 -3.893689E+05  1.952112E+04  6.839087E+04
       342  25 -1.003048E+05  6.392523E+05 -3.241906E+04 -3.755038E+05 -1.379974E+04 -2.720799E+04
       342  26  2.309984E+04  1.309766E+06  1.233468E+05 -1.169948E+04  3.157648E+03  1.781722E+04
       342  27  2.598145E+05  2.000060E+06  3.335588E+05 -4.072859E+05  1.956349E+04  6.287867E+04
       343   1 -6.042723E+05 -1.202119E+06 -4.379361E+05 -4.194768E+05 -4.589401E+04 -1.152337E+05
       343   2 -8.480011E+05 -1.975852E+06 -5.405604E+05  2.683033E+04 -7.326782E+04 -2.083220E+05
       343   3 -5.645507E+05 -2.588607E+06 -4.473027E+05 -3.019740E+05 -2.699436E+04 -3.009899E+05
       343   4 -6.634232E+03  1.198713E+06  1.519595E+05 -3.933524E+05 -4.604842E+04 -9.378361E+04
       343   5 -7.733708E+04  1.116560E+06  2.167978E+05 -5.555808E+03 -7.322037E+04 -2.120785E+05
       343   6  3.821579E+05  1.198518E+06  4.942663E+05 -3.925757E+05 -2.688908E+04 -3.300611E+05
       343   7  5.905803E+05  3.604796E+06  7.414342E+05 -3.671155E+05 -4.620070E+04 -7.225003E+04
       343   8  6.926218E+05  4.217694E+06  9.734569E+05 -3.809458E+04 -7.317270E+04 -2.158516E+05
       343   9  1.327819E+06  4.998701E+06  1.434769E+06 -4.837222E+05 -2.677578E+04 -3.593049E+05
       343  10 -6.042782E+05 -1.202134E+06 -4.379651E+05 -4.194811E+05 -2.521220E-10  2.315537E-10
       343  11 -8.480185E+05 -1.975900E+06 -5.406522E+05  2.681802E+04 -1.916098E-09 -1.105433E-08
       343  12 -5.645759E+05 -2.588705E+06 -4.474750E+05 -3.019806E+05 -1.215834E-09 -6.020381E-10
       343  13 -6.638870E+03  1.198703E+06  1.519390E+05 -3.933559E+05 -3.664576E-09  1.844391E-10
       343  14 -7.735488E+04  1.116510E+06  2.167034E+05 -5.568307E+03 -2.012035E-09 -2.552250E-09
       343  15  3.821280E+05  1.198401E+06  4.940606E+05 -3.925828E+05 -2.272493E-09 -9.792712E-11
       343  16  5.905766E+05  3.604790E+06  7.414204E+05 -3.671182E+05  3.816820E-09 -4.428190E-10
       343  17  6.926037E+05  4.217642E+06  9.733599E+05 -3.810727E+04 -5.133410E-09  1.520729E-08
       343  18  1.327784E+06  4.998563E+06  1.434527E+06 -4.837300E+05 -3.571460E-09  1.362703E-09
       343  19 -6.042723E+05 -1.202119E+06 -4.379361E+05 -4.194768E+05  4.589401E+04  1.152337E+05
       343  20 -8.480011E+05 -1.975852E+06 -5.405604E+05  2.683033E+04  7.326782E+04  2.083220E+05
       343  21 -5.645507E+05 -2.588607E+06 -4.473027E+05 -3.019740E+05  2.699436E+04  3.009899E+05
       343  22 -6.634232E+03  1.198713E+06  1.519595E+05 -3.933524E+05  4.604842E+04  9.378361E+04
       343  23 -7.733708E+04  1.116560E+06  2.167978E+05 -5.555808E+03  7.322037E+04  2.120785E+05
       343  24  3.821579E+05  1.198518E+06  4.942663E+05 -3.925757E+05  2.688908E+04  3.300611E+05
       343  25  5.905803E+05  3.604796E+06  7.414342E+05 -3.671155E+05  4.620070E+04  7.225003E+04
       343  26  6.926218E+05  4.217694E+06  9.734569E+05 -3.809458E+04  7.317270E+04  2.158516E+05
       343  27  1.327819E+06  4.998701E+06  1.434769E+06 -4.837222E+05  2.677578E+04  3.593049E+05
       344   1 -1.253636E+06 -5.501254E+05 -2.878549E+05 -5.340138E+05 -1.481637E+05 -4.746460E+04
       344   2 -1.202638E+06 -3.959449E+05 -1.653651E+05 -5.081248E+05 -9.164022E+04 -7.203302E+03
       344   3 -1.178291E+06 -3.202540E+05 -1.087469E+05 -4.752797E+05 -3.031318E+04  2.032954E+04
       344   4 -7.895578E+05 -2.921239E+05 -1.534870E+05 -3.206019E+05 -1.027641E+05 -3.040771E+04
       344   5 -7.704810E+05 -1.972913E+05 -7.274508E+04 -3.459121E+05 -7.136336E+04  4.155314E+02
       344   6 -7.730492E+05 -1.759417E+05 -3.791582E+04 -3.642760E+05 -3.516633E+04  1.850231E+04
       344   7 -3.252536E+05 -3.402023E+04 -1.913129E+04 -1.070221E+05 -5.732840E+04 -1.332174E+04
       344   8 -3.381260E+05  1.412285E+03  1.986659E+04 -1.835843E+05 -5.107150E+04  8.043378E+03
       344   9 -3.676300E+05 -3.161340E+04  3.291114E+04 -2.532041E+05 -4.002288E+04  1.667384E+04
       344  10 -1.253660E+06 -5.501338E+05 -2.879005E+05 -5.340195E+05 -2.030533E-09  6.969653E-10
       344  11 -1.202647E+06 -3.959472E+05 -1.653810E+05 -5.081253E+05 -2.593483E-09  1.025700E-09
       344  12 -1.178293E+06 -3.202547E+05 -1.087494E+05 -4.752792E+05  1.533067E-09  1.348529E-09
       344  13 -7.895694E+05 -2.921277E+05 -1.535086E+05 -3.206044E+05  4.185346E-10  1.400495E-09
       344  14 -7.704865E+05 -1.972926E+05 -7.275467E+04 -3.459121E+05  2.628931E-09  7.397325E-10
       344  15 -7.730506E+05 -1.759424E+05 -3.791879E+04 -3.642755E+05  1.144687E-08  3.605431E-09
       344  16 -3.252572E+05 -3.402131E+04 -1.913780E+04 -1.070228E+05  3.587657E-10 -3.256813E-10
       344  17 -3.381288E+05  1.411515E+03  1.986157E+04 -1.835840E+05  5.155364E-09  1.977776E-09
       344  18 -3.676318E+05 -3.161413E+04  3.290761E+04 -2.532036E+05  1.334165E-08  6.404443E-09
       344  19 -1.253636E+06 -5.501254E+05 -2.878549E+05 -5.340138E+05  1.481637E+05  4.746460E+04
       344  20 -1.202638E+06 -3.959449E+05 -1.653651E+05 -5.081248E+05  9.164022E+04  7.203302E+03
       344  21 -1.178291E+06 -3.202540E+05 -1.087469E+05 -4.752797E+05  3.031318E+04 -2.032954E+04
       344  22 -7.895578E+05 -2.921239E+05 -1.534870E+05 -3.206019E+05  1.027641E+05  3.040771E+04
       344  23 -7.704810E+05 -1.972913E+05 -7.274508E+04 -3.459121E+05  7.136336E+04 -4.155314E+02
       344  24 -7.730492E+05 -1.759417E+05 -3.791582E+04 -3.642760E+05  3.516633E+04 -1.850231E+04
       344  25 -3.252536E+05 -3.402023E+04 -1.913129E+04 -1.070221E+05  5.732840E+04  1.332174E+04
       344  26 -3.381260E+05  1.412285E+03  1.986659E+04 -1.835843E+05  5.107150E+04 -8.043378E+03
       344  27 -3.676300E+05 -3.161340E+04  3.291114E+04 -2.532041E+05  4.002288E+04 -1.667384E+04
       345   1 -1.130454E+06 -3.089496E+05 -9.097615E+04 -4.686333E+05 -2.612847E+04  1.984868E+04
       345   2 -1.073991E+06 -2.747794E+05 -6.474458E+04 -4.468755E+05 -1.504619E+04  2.089242E+04
       345   3 -1.012198E+06 -2.542351E+05 -4.735231E+04 -4.339579E+05 -3.465086E+03  2.061060E+04
       345   4 -7.686231E+05 -1.744417E+05 -2.826310E+04 -3.632974E+05 -3.023035E+04  1.830426E+04
       345   5 -7.710191E+05 -1.642149E+05 -1.475358E+04 -3.602541E+05 -2.176144E+04  1.836621E+04
       345   6 -7.675674E+05 -1.670938E+05 -8.006204E+03 -3.660524E+05 -1.279473E+04  1.710252E+04
       345   7 -4.066565E+05 -3.992031E+04  3.444509E+04 -2.579042E+05 -3.433473E+04  1.675883E+04
       345   8 -4.679483E+05 -5.364018E+04  3.523550E+04 -2.735926E+05 -2.848016E+04  1.583864E+04
       345   9 -5.228694E+05 -7.994545E+04  3.133983E+04 -2.981210E+05 -2.212838E+04  1.359296E+04
       345  10 -1.130455E+06 -3.089502E+05 -9.097817E+04 -4.686329E+05  1.545405E-08  5.964950E-09
       345  11 -1.073992E+06 -2.747799E+05 -6.474582E+04 -4.468753E+05  4.395002E-09  8.228951E-10
       345  12 -1.012198E+06 -2.542356E+05 -4.735313E+04 -4.339579E+05 -3.935128E-09 -1.318611E-09
       345  13 -7.686241E+05 -1.744423E+05 -2.826544E+04 -3.632969E+05  1.251406E-08  3.113499E-09
       345  14 -7.710197E+05 -1.642153E+05 -1.475511E+04 -3.602538E+05  5.538305E-09 -4.616138E-10
       345  15 -7.675677E+05 -1.670942E+05 -8.007061E+03 -3.660522E+05 -1.710874E-10 -2.616492E-10
       345  16 -4.066578E+05 -3.992093E+04  3.444235E+04 -2.579038E+05 -2.920062E-09  1.148681E-09
       345  17 -4.679492E+05 -5.364067E+04  3.523350E+04 -2.735922E+05 -4.400926E-09  2.572537E-09
       345  18 -5.228699E+05 -7.994578E+04  3.133857E+04 -2.981207E+05  8.453532E-10  2.246234E-09
       345  19 -1.130454E+06 -3.089496E+05 -9.097615E+04 -4.686333E+05  2.612847E+04 -1.984868E+04
       345  20 -1.073991E+06 -2.747794E+05 -6.474458E+04 -4.468755E+05  1.504619E+04 -2.089242E+04
       345  21 -1.012198E+06 -2.542351E+05 -4.735231E+04 -4.339579E+05  3.465086E+03 -2.061060E+04
       345  22 -7.686231E+05 -1.744417E+05 -2.826310E+04 -3.632974E+05  3.023035E+04 -1.830426E+04
       345  23 -7.710191E+05 -1.642149E+05 -1.475358E+04 -3.602541E+05  2.176144E+04 -1.836621E+04
       345  24 -7.675674E+05 -1.670938E+05 -8.006204E+03 -3.660524E+05  1.279473E+04 -1.710252E+04
       345  25 -4.066565E+05 -3.992031E+04  3.444509E+04 -2.579042E+05  3.433473E+04 -1.675883E+04
       345  26 -4.679483E+05 -5.364018E+04  3.523550E+04 -2.735926E+05  2.848016E+04 -1.583864E+04
       345  27 -5.228694E+05 -7.994545E+04  3.133983E+04 -2.981210E+05  2.212838E+04 -1.359296E+04
       346   1 -9.731426E+05 -2.407800E+05 -3.885601E+04 -4.235661E+05 -1.405392E+03  1.820215E+04
       346   2 -9.168978E+05 -2.145049E+05 -2.641969E+04 -4.017998E+05  2.292184E+03  1.416464E+04
       346   3 -8.524460E+05 -1.971739E+05 -1.549490E+04 -3.898234E+05  6.041483E+03  9.988433E+03
       346   4 -7.671529E+05 -1.670430E+05 -5.998393E+03 -3.659282E+05 -1.066025E+04  1.472267E+04
       346   5 -7.712548E+05 -1.624341E+05 -3.276517E+03 -3.610926E+05 -7.236381E+03  1.058285E+04
       346   6 -7.670993E+05 -1.667151E+05 -1.848925E+03 -3.660482E+05 -3.760996E+03  6.304283E+03
       346   7 -5.611174E+05 -9.330162E+04  2.685875E+04 -3.082723E+05 -1.991836E+04  1.124198E+04
       346   8 -6.255897E+05 -1.103614E+05  1.986639E+04 -3.203767E+05 -1.676726E+04  7.000201E+03
       346   9 -6.817457E+05 -1.362558E+05  1.179703E+04 -3.422702E+05 -1.356479E+04  2.619646E+03
       346  10 -9.731427E+05 -2.407804E+05 -3.885663E+04 -4.235661E+05 -1.424294E-09 -2.586366E-10
       346  11 -9.168978E+05 -2.145051E+05 -2.642007E+04 -4.017998E+05  1.785481E-10  8.642508E-10
       346  12 -8.524461E+05 -1.971740E+05 -1.549515E+04 -3.898235E+05  2.161391E-09 -1.619785E-10
       346  13 -7.671531E+05 -1.670433E+05 -5.999014E+03 -3.659281E+05 -2.200580E-09  2.985446E-10
       346  14 -7.712549E+05 -1.624343E+05 -3.276826E+03 -3.610926E+05  2.507187E-09  7.469045E-10
       346  15 -7.670994E+05 -1.667151E+05 -1.849027E+03 -3.660482E+05  2.302193E-10 -2.382011E-10
       346  16 -5.611179E+05 -9.330186E+04  2.685776E+04 -3.082721E+05 -8.151502E-10  1.907665E-09
       346  17 -6.255900E+05 -1.103615E+05  1.986577E+04 -3.203766E+05 -9.815783E-10  2.189390E-10
       346  18 -6.817459E+05 -1.362559E+05  1.179667E+04 -3.422702E+05 -2.334072E-09 -1.006560E-10
       346  19 -9.731426E+05 -2.407800E+05 -3.885601E+04 -4.235661E+05  1.405392E+03 -1.820215E+04
       346  20 -9.168978E+05 -2.145049E+05 -2.641969E+04 -4.017998E+05 -2.292184E+03 -1.416464E+04
       346  21 -8.524460E+05 -1.971739E+05 -1.549490E+04 -3.898234E+05 -6.041483E+03 -9.988433E+03
       346  22 -7.671529E+05 -1.670430E+05 -5.998393E+03 -3.659282E+05  1.066025E+04 -1.472267E+04
       346  23 -7.712548E+05 -1.624341E+05 -3.276517E+03 -3.610926E+05  7.236381E+03 -1.058285E+04
       346  24 -7.670993E+05 -1.667151E+05 -1.848925E+03 -3.660482E+05  3.760996E+03 -6.304283E+03
       346  25 -5.611174E+05 -9.330162E+04  2.685875E+04 -3.082723E+05  1.991836E+04 -1.124198E+04
       346  26 -6.255897E+05 -1.103614E+05  1.986639E+04 -3.203767E+05  1.676726E+04 -7.000201E+03
       346  27 -6.817457E+05 -1.362558E+05  1.179703E+04 -3.422702E+05  1.356479E+04 -2.619646E+03
       347   1 -8.141298E+05 -1.834766E+05 -8.747157E+03 -3.791434E+05  7.391139E+03  7.194291E+03
       347   2 -7.580088E+05 -1.576044E+05  1.182377E+03 -3.573165E+05  9.730536E+03  2.406857E+03
       347   3 -6.933651E+05 -1.403413E+05  1.075636E+04 -3.453084E+05  1.207453E+04 -2.392622E+03
       347   4 -7.670500E+05 -1.667230E+05 -1.426282E+03 -3.660278E+05 -2.404551E+03  3.512848E+03
       347   5 -7.713120E+05 -1.624275E+05 -9.014613E+02 -3.611147E+05 -8.954087E+01 -1.283826E+03
       347   6 -7.670520E+05 -1.667372E+05 -7.136156E+02 -3.660225E+05  2.230017E+03 -6.092555E+03
       347   7 -7.199669E+05 -1.499689E+05  5.895124E+03 -3.529111E+05 -1.220114E+04 -1.689293E+02
       347   8 -7.846149E+05 -1.672504E+05 -2.984911E+03 -3.649129E+05 -9.909454E+03 -4.974446E+03
       347   9 -8.407329E+05 -1.931325E+05 -1.218327E+04 -3.867342E+05 -7.613268E+03 -9.792024E+03
       347  10 -8.141299E+05 -1.834766E+05 -8.747357E+03 -3.791434E+05 -8.322564E-10 -1.574379E-09
       347  11 -7.580089E+05 -1.576045E+05  1.182188E+03 -3.573165E+05 -1.545650E-09  6.439918E-10
       347  12 -6.933653E+05 -1.403413E+05  1.075607E+04 -3.453084E+05 -6.068684E-10  9.567944E-10
       347  13 -7.670500E+05 -1.667230E+05 -1.426316E+03 -3.660278E+05 -3.986720E-10 -5.505820E-10
       347  14 -7.713120E+05 -1.624275E+05 -9.014644E+02 -3.611147E+05 -3.294568E-10 -4.927593E-10
       347  15 -7.670521E+05 -1.667372E+05 -7.136947E+02 -3.660224E+05 -5.231160E-10  1.352392E-09
       347  16 -7.199671E+05 -1.499689E+05  5.894844E+03 -3.529111E+05 -3.535311E-10  8.495751E-10
       347  17 -7.846151E+05 -1.672505E+05 -2.985143E+03 -3.649129E+05 -1.408591E-09  1.596091E-10
       347  18 -8.407330E+05 -1.931326E+05 -1.218356E+04 -3.867342E+05 -5.267012E-10  1.553019E-09
       347  19 -8.141298E+05 -1.834766E+05 -8.747157E+03 -3.791434E+05 -7.391139E+03 -7.194291E+03
       347  20 -7.580088E+05 -1.576044E+05  1.182377E+03 -3.573165E+05 -9.730536E+03 -2.406857E+03
       347  21 -6.933651E+05 -1.403413E+05  1.075636E+04 -3.453084E+05 -1.207453E+04  2.392622E+03
       347  22 -7.670500E+05 -1.667230E+05 -1.426282E+03 -3.660278E+05  2.404551E+03 -3.512848E+03
       347  23 -7.713120E+05 -1.624275E+05 -9.014613E+02 -3.611147E+05  8.954087E+01  1.283826E+03
       347  24 -7.670520E+05 -1.667372E+05 -7.136156E+02 -3.660225E+05 -2.230017E+03  6.092555E+03
       347  25 -7.199669E+05 -1.499689E+05  5.895124E+03 -3.529111E+05  1.220114E+04  1.689293E+02
       347  26 -7.846149E+05 -1.672504E+05 -2.984911E+03 -3.649129E+05  9.909454E+03  4.974446E+03
       347  27 -8.407329E+05 -1.931325E+05 -1.218327E+04 -3.867342E+05  7.613268E+03  9.792024E+03
       348   1 -6.551402E+05 -1.266127E+05  1.706152E+04 -3.346117E+05  1.328373E+04 -5.249301E+03
       348   2 -5.990492E+05 -1.007481E+05  2.624271E+04 -3.127916E+05  1.557256E+04 -1.006418E+04
       348   3 -5.344286E+05 -8.347733E+04  3.511106E+04 -3.007847E+05  1.785467E+04 -1.485948E+04
       348   4 -7.670552E+05 -1.667386E+05 -7.166754E+02 -3.660211E+05  3.440035E+03 -8.949133E+03
       348   5 -7.713180E+05 -1.624400E+05 -9.185647E+02 -3.611144E+05  5.766708E+03 -1.375045E+04
       348   6 -7.670623E+05 -1.667430E+05 -1.463441E+03 -3.660224E+05  8.086632E+03 -1.853223E+04
       348   7 -8.789552E+05 -2.068626E+05 -1.849433E+04 -3.974249E+05 -6.401674E+03 -1.264822E+04
       348   8 -9.435545E+05 -2.241287E+05 -2.807996E+04 -4.094246E+05 -4.036265E+03 -1.743565E+04
       348   9 -9.996402E+05 -2.500040E+05 -3.803922E+04 -4.312377E+05 -1.677638E+03 -2.220357E+04
       348  10 -6.551404E+05 -1.266128E+05  1.706114E+04 -3.346116E+05  2.090706E-09  6.726553E-10
       348  11 -5.990495E+05 -1.007483E+05  2.624207E+04 -3.127915E+05 -1.027912E-09  1.451495E-09
       348  12 -5.344290E+05 -8.347765E+04  3.511004E+04 -3.007844E+05  1.168421E-09 -2.611659E-10
       348  13 -7.670552E+05 -1.667387E+05 -7.168481E+02 -3.660211E+05 -1.850914E-09  1.002872E-09
       348  14 -7.713180E+05 -1.624402E+05 -9.189823E+02 -3.611144E+05 -1.115587E-09 -1.453017E-09
       348  15 -7.670625E+05 -1.667434E+05 -1.464209E+03 -3.660222E+05 -8.475572E-10 -2.049061E-09
       348  16 -8.789552E+05 -2.068628E+05 -1.849471E+04 -3.974249E+05 -1.679403E-09  5.924407E-10
       348  17 -9.435546E+05 -2.241290E+05 -2.808056E+04 -4.094247E+05 -2.352584E-09 -4.794932E-10
       348  18 -9.996403E+05 -2.500045E+05 -3.804015E+04 -4.312377E+05 -7.524001E-10 -1.693698E-09
       348  19 -6.551402E+05 -1.266127E+05  1.706152E+04 -3.346117E+05 -1.328373E+04  5.249301E+03
       348  20 -5.990492E+05 -1.007481E+05  2.624271E+04 -3.127916E+05 -1.557256E+04  1.006418E+04
       348  21 -5.344286E+05 -8.347733E+04  3.511106E+04 -3.007847E+05 -1.785467E+04  1.485948E+04
       348  22 -7.670552E+05 -1.667386E+05 -7.166754E+02 -3.660211E+05 -3.440035E+03  8.949133E+03
       348  23 -7.713180E+05 -1.624400E+05 -9.185647E+02 -3.611144E+05 -5.766708E+03  1.375045E+04
       348  24 -7.670623E+05 -1.667430E+05 -1.463441E+03 -3.660224E+05 -8.086632E+03  1.853223E+04
       348  25 -8.789552E+05 -2.068626E+05 -1.849433E+04 -3.974249E+05  6.401674E+03  1.264822E+04
       348  26 -9.435545E+05 -2.241287E+05 -2.807996E+04 -4.094246E+05  4.036265E+03  1.743565E+04
       348  27 -9.996402E+05 -2.500040E+05 -3.803922E+04 -4.312377E+05  1.677638E+03  2.220357E+04
       349   1 -4.962492E+05 -6.977516E+04  4.099852E+04 -2.901453E+05  1.922328E+04 -1.763768E+04
       349   2 -4.401912E+05 -4.391149E+04  4.905295E+04 -2.682708E+05  2.236369E+04 -2.199575E+04
       349   3 -3.758179E+05 -2.685962E+04  5.606926E+04 -2.561647E+05  2.543488E+04 -2.616635E+04
       349   4 -7.671192E+05 -1.667375E+05 -1.900044E+03 -3.660403E+05  9.448114E+03 -2.131371E+04
       349   5 -7.712719E+05 -1.624730E+05 -3.372238E+03 -3.610916E+05  1.295726E+04 -2.553442E+04
       349   6 -7.671862E+05 -1.670944E+05 -6.175541E+03 -3.659134E+05  1.639701E+04 -2.956765E+04
       349   7 -1.037910E+06 -2.636921E+05 -4.479952E+04 -4.419040E+05 -3.225251E+02 -2.498805E+04
       349   8 -1.102232E+06 -2.810223E+05 -5.579849E+04 -4.538653E+05  3.556194E+03 -2.907108E+04
       349   9 -1.158385E+06 -3.073114E+05 -6.842159E+04 -4.755958E+05  7.365282E+03 -3.296665E+04
       349  10 -4.962497E+05 -6.977559E+04  4.099724E+04 -2.901450E+05  1.182147E-09 -6.278698E-10
       349  11 -4.401918E+05 -4.391214E+04  4.905110E+04 -2.682704E+05 -1.044233E-09 -2.602925E-09
       349  12 -3.758188E+05 -2.686052E+04  5.606676E+04 -2.561642E+05 -5.926870E-10 -3.455467E-10
       349  13 -7.671194E+05 -1.667380E+05 -1.901065E+03 -3.660401E+05  8.772981E-10 -1.432977E-09
       349  14 -7.712722E+05 -1.624738E+05 -3.373778E+03 -3.610914E+05  9.704177E-11 -5.487987E-10
       349  15 -7.671867E+05 -1.670954E+05 -6.177688E+03 -3.659130E+05  9.178809E-10 -8.496352E-10
       349  16 -1.037910E+06 -2.636928E+05 -4.480069E+04 -4.419040E+05 -5.325843E-10 -1.531399E-09
       349  17 -1.102233E+06 -2.810232E+05 -5.580010E+04 -4.538653E+05  1.139934E-09 -2.080094E-09
       349  18 -1.158385E+06 -3.073126E+05 -6.842373E+04 -4.755956E+05  3.734525E-10  5.825387E-10
       349  19 -4.962492E+05 -6.977516E+04  4.099852E+04 -2.901453E+05 -1.922328E+04  1.763768E+04
       349  20 -4.401912E+05 -4.391149E+04  4.905295E+04 -2.682708E+05 -2.236369E+04  2.199575E+04
       349  21 -3.758179E+05 -2.685962E+04  5.606926E+04 -2.561647E+05 -2.543488E+04  2.616635E+04
       349  22 -7.671192E+05 -1.667375E+05 -1.900044E+03 -3.660403E+05 -9.448114E+03  2.131371E+04
       349  23 -7.712719E+05 -1.624730E+05 -3.372238E+03 -3.610916E+05 -1.295726E+04  2.553442E+04
       349  24 -7.671862E+05 -1.670944E+05 -6.175541E+03 -3.659134E+05 -1.639701E+04  2.956765E+04
       349  25 -1.037910E+06 -2.636921E+05 -4.479952E+04 -4.419040E+05  3.225251E+02  2.498805E+04
       349  26 -1.102232E+06 -2.810223E+05 -5.579849E+04 -4.538653E+05 -3.556194E+03  2.907108E+04
       349  27 -1.158385E+06 -3.073114E+05 -6.842159E+04 -4.755958E+05 -7.365282E+03  3.296665E+04
       350   1 -3.376313E+05 -1.351079E+04  6.054265E+04 -2.460235E+05  2.768490E+04 -2.845060E+04
       350   2 -2.829552E+05  1.278801E+04  6.465130E+04 -2.215084E+05  3.324430E+04 -3.062065E+04
       350   3 -2.218448E+05  2.659741E+04  6.458571E+04 -2.057430E+05  3.813680E+04 -3.101384E+04
       350   4 -7.676181E+05 -1.671429E+05 -8.241537E+03 -3.660305E+05  1.854779E+04 -3.189010E+04
       350   5 -7.710345E+05 -1.643382E+05 -1.518975E+04 -3.602347E+05  2.761279E+04 -3.274308E+04
       350   6 -7.687186E+05 -1.747224E+05 -2.909636E+04 -3.631917E+05  3.601020E+04 -3.181857E+04
       350   7 -1.197411E+06 -3.207582E+05 -7.703042E+04 -4.859608E+05  9.417270E+03 -3.532716E+04
       350   8 -1.258861E+06 -3.414398E+05 -9.503677E+04 -4.988589E+05  2.198595E+04 -3.486373E+04
       350   9 -1.315274E+06 -3.760091E+05 -1.227867E+05 -5.205091E+05  3.388557E+04 -3.262251E+04
       350  10 -3.376324E+05 -1.351186E+04  6.053969E+04 -2.460229E+05  3.446901E-09  1.614785E-09
       350  11 -2.829567E+05  1.278671E+04  6.464746E+04 -2.215076E+05  3.344362E-09  1.711835E-09
       350  12 -2.218466E+05  2.659598E+04  6.458117E+04 -2.057421E+05  2.374488E-09  2.572401E-09
       350  13 -7.676188E+05 -1.671441E+05 -8.244093E+03 -3.660300E+05 -1.636566E-10 -6.504504E-11
       350  14 -7.710357E+05 -1.643395E+05 -1.519320E+04 -3.602340E+05 -1.934567E-10 -3.256111E-10
       350  15 -7.687202E+05 -1.747238E+05 -2.910070E+04 -3.631907E+05 -8.526186E-10  3.989255E-11
       350  16 -1.197412E+06 -3.207596E+05 -7.703293E+04 -4.859606E+05 -4.262656E-09 -9.702539E-10
       350  17 -1.258862E+06 -3.414413E+05 -9.503996E+04 -4.988583E+05 -2.538404E-09 -1.384650E-09
       350  18 -1.315275E+06 -3.760105E+05 -1.227909E+05 -5.205083E+05  1.221732E-10 -2.407277E-09
       350  19 -3.376313E+05 -1.351079E+04  6.054265E+04 -2.460235E+05 -2.768490E+04  2.845060E+04
       350  20 -2.829552E+05  1.278801E+04  6.465130E+04 -2.215084E+05 -3.324430E+04  3.062065E+04
       350  21 -2.218448E+05  2.659741E+04  6.458571E+04 -2.057430E+05 -3.813680E+04  3.101384E+04
       350  22 -7.676181E+05 -1.671429E+05 -8.241537E+03 -3.660305E+05 -1.854779E+04  3.189010E+04
       350  23 -7.710345E+05 -1.643382E+05 -1.518975E+04 -3.602347E+05 -2.761279E+04  3.274308E+04
       350  24 -7.687186E+05 -1.747224E+05 -2.909636E+04 -3.631917E+05 -3.601020E+04  3.181857E+04
       350  25 -1.197411E+06 -3.207582E+05 -7.703042E+04 -4.859608E+05 -9.417270E+03  3.532716E+04
       350  26 -1.258861E+06 -3.414398E+05 -9.503677E+04 -4.988589E+05 -2.198595E+04  3.486373E+04
       350  27 -1.315274E+06 -3.760091E+05 -1.227867E+05 -5.205091E+05 -3.388557E+04  3.262251E+04
       351   1 -1.827081E+05  3.493860E+04  6.336950E+04 -2.011431E+05  4.406262E+04 -3.040179E+04
       351   2 -1.546831E+05  6.847832E+04  5.349807E+04 -1.307615E+05  4.652330E+04 -2.153110E+04
       351   3 -1.427265E+05  3.364288E+04  2.311403E+04 -5.263017E+04  4.255753E+04  4.399390E+03
       351   4 -7.733220E+05 -1.762223E+05 -3.903234E+04 -3.641443E+05  4.092808E+04 -3.158611E+04
       351   5 -7.704450E+05 -1.984523E+05 -7.489042E+04 -3.455341E+05  7.709069E+04 -1.002912E+04
       351   6 -7.903531E+05 -2.957918E+05 -1.580097E+05 -3.191716E+05  1.068210E+05  2.859448E+04
       351   7 -1.363565E+06 -3.873504E+05 -1.414442E+05 -5.270010E+05  3.779671E+04 -3.276926E+04
       351   8 -1.385794E+06 -4.652969E+05 -2.032905E+05 -5.600890E+05  1.076251E+05  1.455208E+03
       351   9 -1.437517E+06 -6.250674E+05 -3.391458E+05 -5.854140E+05  1.710093E+05  5.273870E+04
       351  10 -1.827104E+05  3.493708E+04  6.336411E+04 -2.011420E+05  5.623698E-08  2.282401E-08
       351  11 -1.546855E+05  6.847724E+04  5.349314E+04 -1.307607E+05  1.228197E-08  4.275002E-09
       351  12 -1.427285E+05  3.364238E+04  2.311059E+04 -5.263032E+04 -4.336594E-08 -1.654139E-08
       351  13 -7.733240E+05 -1.762238E+05 -3.903736E+04 -3.641433E+05  2.906734E-09  7.747594E-11
       351  14 -7.704514E+05 -1.984541E+05 -7.490179E+04 -3.455334E+05  9.781716E-09  9.660620E-09
       351  15 -7.903656E+05 -2.957957E+05 -1.580328E+05 -3.191740E+05  1.676082E-09  3.928597E-09
       351  16 -1.363567E+06 -3.873519E+05 -1.414489E+05 -5.270000E+05 -4.805093E-08 -1.755047E-08
       351  17 -1.385806E+06 -4.653000E+05 -2.033123E+05 -5.600891E+05  7.815846E-09  7.656021E-09
       351  18 -1.437549E+06 -6.250782E+05 -3.392062E+05 -5.854213E+05  5.129410E-08  1.999379E-08
       351  19 -1.827081E+05  3.493860E+04  6.336950E+04 -2.011431E+05 -4.406262E+04  3.040179E+04
       351  20 -1.546831E+05  6.847832E+04  5.349807E+04 -1.307615E+05 -4.652330E+04  2.153110E+04
       351  21 -1.427265E+05  3.364288E+04  2.311403E+04 -5.263017E+04 -4.255753E+04 -4.399390E+03
       351  22 -7.733220E+05 -1.762223E+05 -3.903234E+04 -3.641443E+05 -4.092808E+04  3.158611E+04
       351  23 -7.704450E+05 -1.984523E+05 -7.489042E+04 -3.455341E+05 -7.709069E+04  1.002912E+04
       351  24 -7.903531E+05 -2.957918E+05 -1.580097E+05 -3.191716E+05 -1.068210E+05 -2.859448E+04
       351  25 -1.363565E+06 -3.873504E+05 -1.414442E+05 -5.270010E+05 -3.779671E+04  3.276926E+04
       351  26 -1.385794E+06 -4.652969E+05 -2.032905E+05 -5.600890E+05 -1.076251E+05 -1.455208E+03
       351  27 -1.437517E+06 -6.250674E+05 -3.391458E+05 -5.854140E+05 -1.710093E+05 -5.273870E+04
       352   1 -6.330930E+05 -1.123461E+05 -1.660429E+05 -3.652079E+04 -1.613924E+05 -2.436592E+03
       352   2 -6.089428E+05  1.072062E+05 -3.345786E+04 -1.222979E+04 -1.068229E+05 -6.834734E+03
       352   3 -6.542461E+05  7.676131E+04  1.129676E+03  2.390484E+04 -5.226327E+04 -6.127610E+03
       352   4 -9.295690E+05 -1.863070E+05 -2.397144E+05  4.665059E+03 -1.636925E+05 -2.450381E+03
       352   5 -8.946379E+05  3.605867E+04 -1.034749E+05 -1.385825E+03 -1.074345E+05 -6.837790E+03
       352   6 -9.294877E+05  8.068576E+03 -6.644000E+04  4.406682E+03 -5.118520E+04 -6.124241E+03
       352   7 -1.225962E+06 -2.602681E+05 -3.133916E+05  4.583119E+04 -1.659914E+05 -2.464481E+03
       352   8 -1.180258E+06 -3.509449E+04 -1.734980E+05  9.453106E+03 -1.080458E+05 -6.840869E+03
       352   9 -1.204659E+06 -6.062839E+04 -1.340151E+05 -1.508284E+04 -5.010761E+04 -6.120939E+03
       352  10 -6.331209E+05 -1.123531E+05 -1.660919E+05 -3.652111E+04 -2.969147E-10  3.047866E-10
       352  11 -6.089551E+05  1.072031E+05 -3.347941E+04 -1.223038E+04  6.135999E-11 -1.607244E-09
       352  12 -6.542490E+05  7.676054E+04  1.124467E+03  2.390458E+04  4.236275E-09 -2.810687E-09
       352  13 -9.295978E+05 -1.863142E+05 -2.397649E+05  4.664736E+03 -7.238023E-10  1.692583E-09
       352  14 -8.946503E+05  3.605551E+04 -1.034968E+05 -1.386417E+03  3.981622E-10  2.140178E-10
       352  15 -9.294905E+05  8.067831E+03 -6.644500E+04  4.406429E+03 -1.372991E-10  2.315165E-10
       352  16 -1.225991E+06 -2.602755E+05 -3.134435E+05  4.583086E+04  1.832101E-10  1.171729E-09
       352  17 -1.180271E+06 -3.509768E+04 -1.735200E+05  9.452510E+03 -1.367948E-09 -2.518859E-09
       352  18 -1.204662E+06 -6.062910E+04 -1.340199E+05 -1.508308E+04 -3.168260E-09 -4.233180E-09
       352  19 -6.330930E+05 -1.123461E+05 -1.660429E+05 -3.652079E+04  1.613924E+05  2.436592E+03
       352  20 -6.089428E+05  1.072062E+05 -3.345786E+04 -1.222979E+04  1.068229E+05  6.834734E+03
       352  21 -6.542461E+05  7.676131E+04  1.129676E+03  2.390484E+04  5.226327E+04  6.127610E+03
       352  22 -9.295690E+05 -1.863070E+05 -2.397144E+05  4.665059E+03  1.636925E+05  2.450381E+03
       352  23 -8.946379E+05  3.605867E+04 -1.034749E+05 -1.385825E+03  1.074345E+05  6.837790E+03
       352  24 -9.294877E+05  8.068576E+03 -6.644000E+04  4.406682E+03  5.118520E+04  6.124241E+03
       352  25 -1.225962E+06 -2.602681E+05 -3.133916E+05  4.583119E+04  1.659914E+05  2.464481E+03
       352  26 -1.180258E+06 -3.509449E+04 -1.734980E+05  9.453106E+03  1.080458E+05  6.840869E+03
       352  27 -1.204659E+06 -6.062839E+04 -1.340151E+05 -1.508284E+04  5.010761E+04  6.120939E+03
       353   1 -6.672228E+05  3.782507E+04  6.531324E+03  2.732477E+02 -4.038078E+04 -5.114224E+03
       353   2 -6.745730E+05  6.370630E+04  3.119613E+04 -2.804072E+03 -2.662735E+04 -5.204100E+03
       353   3 -6.917930E+05  5.701212E+04  3.877145E+04  7.885501E+03 -1.287533E+04 -4.694148E+03
       353   4 -9.162001E+05 -2.423007E+04 -5.466189E+04  4.957444E+03 -4.050944E+04 -5.114930E+03
       353   5 -9.112386E+05  4.719349E+03 -2.689529E+04 -1.951116E+03 -2.655967E+04 -5.204135E+03
       353   6 -9.161851E+05  1.052324E+03 -1.635950E+04  4.907571E+03 -1.261103E+04 -4.693580E+03
       353   7 -1.165121E+06 -8.628974E+04 -1.158597E+05  9.639730E+03 -4.063804E+04 -5.115638E+03
       353   8 -1.147853E+06 -5.427176E+04 -8.499082E+04 -1.098512E+03 -2.649200E+04 -5.204169E+03
       353   9 -1.140531E+06 -5.491118E+04 -7.149415E+04  1.930694E+03 -1.234682E+04 -4.693015E+03
       353  10 -6.672246E+05  3.782460E+04  6.528207E+03  2.730814E+02 -9.548942E-10 -4.951125E-09
       353  11 -6.745737E+05  6.370608E+04  3.119475E+04 -2.804184E+03 -8.669612E-10  1.389250E-09
       353  12 -6.917932E+05  5.701205E+04  3.877110E+04  7.885452E+03 -1.990725E-09  3.349100E-09
       353  13 -9.162019E+05 -2.423054E+04 -5.466503E+04  4.957277E+03  2.172504E-09 -3.740669E-09
       353  14 -9.112394E+05  4.719131E+03 -2.689667E+04 -1.951227E+03  5.836035E-10 -1.866409E-09
       353  15 -9.161853E+05  1.052258E+03 -1.635984E+04  4.907523E+03  1.832407E-09 -1.166492E-09
       353  16 -1.165123E+06 -8.629021E+04 -1.158628E+05  9.639562E+03 -3.602136E-10 -1.437949E-09
       353  17 -1.147854E+06 -5.427197E+04 -8.499220E+04 -1.098623E+03 -1.834759E-09 -7.924405E-10
       353  18 -1.140531E+06 -5.491125E+04 -7.149448E+04  1.930647E+03  3.420009E-09  2.350602E-09
       353  19 -6.672228E+05  3.782507E+04  6.531324E+03  2.732477E+02  4.038078E+04  5.114224E+03
       353  20 -6.745730E+05  6.370630E+04  3.119613E+04 -2.804072E+03  2.662735E+04  5.204100E+03
       353  21 -6.917930E+05  5.701212E+04  3.877145E+04  7.885501E+03  1.287533E+04  4.694148E+03
       353  22 -9.162001E+05 -2.423007E+04 -5.466189E+04  4.957444E+03  4.050944E+04  5.114930E+03
       353  23 -9.112386E+05  4.719349E+03 -2.689529E+04 -1.951116E+03  2.655967E+04  5.204135E+03
       353  24 -9.161851E+05  1.052324E+03 -1.635950E+04  4.907571E+03  1.261103E+04  4.693580E+03
       353  25 -1.165121E+06 -8.628974E+04 -1.158597E+05  9.639730E+03  4.063804E+04  5.115638E+03
       353  26 -1.147853E+06 -5.427176E+04 -8.499082E+04 -1.098512E+03  2.649200E+04  5.204169E+03
       353  27 -1.140531E+06 -5.491118E+04 -7.149415E+04  1.930694E+03  1.234682E+04  4.693015E+03
       354   1 -7.199453E+05  4.534033E+04  3.471988E+04  5.073241E+03 -1.012013E+04 -4.332147E+03
       354   2 -7.328939E+05  4.564668E+04  3.744073E+04 -2.143539E+03 -6.649954E+03 -3.908367E+03
       354   3 -7.473529E+05  4.179341E+04  3.685669E+04  5.976524E+03 -3.180325E+03 -3.393866E+03
       354   4 -9.143189E+05 -3.105948E+03 -1.297474E+04  5.278812E+03 -9.993866E+03 -4.331931E+03
       354   5 -9.135593E+05  6.092034E+02 -6.915599E+03 -2.393833E+03 -6.494216E+03 -3.908033E+03
       354   6 -9.143160E+05  1.588760E+02 -4.182582E+03  5.270655E+03 -2.995036E+03 -3.393405E+03
       354   7 -1.108658E+06 -5.155503E+04 -6.067215E+04  5.484298E+03 -9.867642E+03 -4.331716E+03
       354   8 -1.094195E+06 -4.443070E+04 -5.127433E+04 -2.644073E+03 -6.338524E+03 -3.907698E+03
       354   9 -1.081254E+06 -4.147773E+04 -4.522391E+04  4.564958E+03 -2.809797E+03 -3.392945E+03
       354  10 -7.199454E+05  4.534028E+04  3.471965E+04  5.073205E+03 -1.297142E-09  5.563645E-09
       354  11 -7.328939E+05  4.564665E+04  3.744062E+04 -2.143560E+03 -2.147569E-09  3.678105E-09
       354  12 -7.473529E+05  4.179339E+04  3.685665E+04  5.976515E+03  1.240271E-09 -1.860097E-10
       354  13 -9.143190E+05 -3.105995E+03 -1.297497E+04  5.278778E+03  1.975266E-09 -1.283172E-09
       354  14 -9.135593E+05  6.091757E+02 -6.915707E+03 -2.393853E+03  6.920741E-10  3.756421E-09
       354  15 -9.143160E+05  1.588612E+02 -4.182621E+03  5.270646E+03  6.742033E-10  7.543182E-09
       354  16 -1.108658E+06 -5.155508E+04 -6.067236E+04  5.484264E+03  3.585947E-11  4.076732E-09
       354  17 -1.094195E+06 -4.443073E+04 -5.127444E+04 -2.644093E+03 -2.768273E-09  4.255502E-09
       354  18 -1.081254E+06 -4.147775E+04 -4.522395E+04  4.564951E+03 -5.840805E-10  5.100994E-09
       354  19 -7.199453E+05  4.534033E+04  3.471988E+04  5.073241E+03  1.012013E+04  4.332147E+03
       354  20 -7.328939E+05  4.564668E+04  3.744073E+04 -2.143539E+03  6.649954E+03  3.908367E+03
       354  21 -7.473529E+05  4.179341E+04  3.685669E+04  5.976524E+03  3.180325E+03  3.393866E+03
       354  22 -9.143189E+05 -3.105948E+03 -1.297474E+04  5.278812E+03  9.993866E+03  4.331931E+03
       354  23 -9.135593E+05  6.092034E+02 -6.915599E+03 -2.393833E+03  6.494216E+03  3.908033E+03
       354  24 -9.143160E+05  1.588760E+02 -4.182582E+03  5.270655E+03  2.995036E+03  3.393405E+03
       354  25 -1.108658E+06 -5.155503E+04 -6.067215E+04  5.484298E+03  9.867642E+03  4.331716E+03
       354  26 -1.094195E+06 -4.443070E+04 -5.127433E+04 -2.644073E+03  6.338524E+03  3.907698E+03
       354  27 -1.081254E+06 -4.147773E+04 -4.522391E+04  4.564958E+03  2.809797E+03  3.392945E+03
       355   1 -7.799520E+05  3.305933E+04  2.955514E+04  5.760365E+03 -2.488427E+03 -3.084360E+03
       355   2 -7.945093E+05  2.983881E+04  2.723834E+04 -2.449092E+03 -1.463699E+03 -2.571630E+03
       355   3 -8.094121E+05  2.611539E+04  2.411004E+04  5.821518E+03 -4.392654E+02 -2.033789E+03
       355   4 -9.140534E+05 -3.633400E+02 -3.328558E+03  5.528186E+03 -2.321183E+03 -3.083922E+03
       355   5 -9.138794E+05  7.949847E+01 -2.070955E+03 -2.712495E+03 -1.288225E+03 -2.571140E+03
       355   6 -9.140528E+05  1.787412E+01 -1.630746E+03  5.527089E+03 -2.555370E+02 -2.033244E+03
       355   7 -1.048138E+06 -3.378734E+04 -3.621357E+04  5.296045E+03 -2.153975E+03 -3.083485E+03
       355   8 -1.033237E+06 -2.968088E+04 -3.138130E+04 -2.975858E+03 -1.112785E+03 -2.570651E+03
       355   9 -1.018684E+06 -2.608045E+04 -2.737234E+04  5.232702E+03 -7.183949E+01 -2.032699E+03
       355  10 -7.799520E+05  3.305932E+04  2.955511E+04  5.760359E+03  1.835595E-09 -3.782085E-10
       355  11 -7.945093E+05  2.983881E+04  2.723832E+04 -2.449095E+03 -1.695989E-09  6.848732E-09
       355  12 -8.094121E+05  2.611538E+04  2.411003E+04  5.821518E+03  4.468541E-11  6.273195E-09
       355  13 -9.140534E+05 -3.633517E+02 -3.328586E+03  5.528180E+03  4.361327E-10  2.238192E-09
       355  14 -9.138794E+05  7.949093E+01 -2.070971E+03 -2.712498E+03 -9.462144E-10  6.334043E-09
       355  15 -9.140529E+05  1.786967E+01 -1.630754E+03  5.527089E+03 -1.874144E-09 -5.685555E-10
       355  16 -1.048138E+06 -3.378735E+04 -3.621360E+04  5.296040E+03 -3.887994E-09  3.694313E-09
       355  17 -1.033237E+06 -2.968088E+04 -3.138131E+04 -2.975860E+03 -1.257625E-09 -2.231408E-09
       355  18 -1.018684E+06 -2.608046E+04 -2.737235E+04  5.232702E+03  3.233785E-09 -2.457805E-09
       355  19 -7.799520E+05  3.305933E+04  2.955514E+04  5.760365E+03  2.488427E+03  3.084360E+03
       355  20 -7.945093E+05  2.983881E+04  2.723834E+04 -2.449092E+03  1.463699E+03  2.571630E+03
       355  21 -8.094121E+05  2.611539E+04  2.411004E+04  5.821518E+03  4.392654E+02  2.033789E+03
       355  22 -9.140534E+05 -3.633400E+02 -3.328558E+03  5.528186E+03  2.321183E+03  3.083922E+03
       355  23 -9.138794E+05  7.949847E+01 -2.070955E+03 -2.712495E+03  1.288225E+03  2.571140E+03
       355  24 -9.140528E+05  1.787412E+01 -1.630746E+03  5.527089E+03  2.555370E+02  2.033244E+03
       355  25 -1.048138E+06 -3.378734E+04 -3.621357E+04  5.296045E+03  2.153975E+03  3.083485E+03
       355  26 -1.033237E+06 -2.968088E+04 -3.138130E+04 -2.975858E+03  1.112785E+03  2.570651E+03
       355  27 -1.018684E+06 -2.608045E+04 -2.737234E+04  5.232702E+03  7.183949E+01  2.032699E+03
       356   1 -8.441497E+05  1.742247E+04  1.552374E+04  5.796989E+03 -1.469235E+02 -1.715834E+03
       356   2 -8.592969E+05  1.367640E+04  1.154854E+04 -2.765762E+03  7.751926E+02 -1.170772E+03
       356   3 -8.747968E+05  9.515118E+03  6.841742E+03  5.820768E+03  1.697196E+03 -6.202226E+02
       356   4 -9.140522E+05  4.573831E+00 -1.593740E+03  5.675856E+03  3.413848E+01 -1.715279E+03
       356   5 -9.138759E+05  6.904982E+01 -1.853084E+03 -2.898369E+03  9.580209E+02 -1.170199E+03
       356   6 -9.140526E+05 -2.819507E+02 -2.845215E+03  5.676781E+03  1.881813E+03 -6.196288E+02
       356   7 -9.839503E+05 -1.741369E+04 -1.871158E+04  5.554733E+03  2.151801E+02 -1.714725E+03
       356   8 -9.684522E+05 -1.353853E+04 -1.525492E+04 -3.030966E+03  1.140833E+03 -1.169625E+03
       356   9 -9.533069E+05 -1.007913E+04 -1.253229E+04  5.532802E+03  2.066419E+03 -6.190350E+02
       356  10 -8.441497E+05  1.742247E+04  1.552373E+04  5.796988E+03  9.500675E-10  1.690243E-09
       356  11 -8.592969E+05  1.367640E+04  1.154853E+04 -2.765761E+03 -4.094682E-10 -5.021778E-10
       356  12 -8.747968E+05  9.515117E+03  6.841736E+03  5.820769E+03  9.524105E-11 -6.082133E-09
       356  13 -9.140522E+05  4.570673E+00 -1.593745E+03  5.675856E+03  1.015620E-09  9.356380E-09
       356  14 -9.138759E+05  6.904811E+01 -1.853088E+03 -2.898368E+03  1.584701E-09  3.421900E-09
       356  15 -9.140526E+05 -2.819520E+02 -2.845223E+03  5.676782E+03  4.282356E-10 -5.317400E-09
       356  16 -9.839503E+05 -1.741369E+04 -1.871158E+04  5.554733E+03 -7.005248E-10  4.315957E-09
       356  17 -9.684522E+05 -1.353853E+04 -1.525493E+04 -3.030965E+03 -6.738044E-10  1.070940E-09
       356  18 -9.533069E+05 -1.007914E+04 -1.253230E+04  5.532803E+03  2.751930E-09 -4.266458E-09
       356  19 -8.441497E+05  1.742247E+04  1.552374E+04  5.796989E+03  1.469235E+02  1.715834E+03
       356  20 -8.592969E+05  1.367640E+04  1.154854E+04 -2.765762E+03 -7.751926E+02  1.170772E+03
       356  21 -8.747968E+05  9.515118E+03  6.841742E+03  5.820768E+03 -1.697196E+03  6.202226E+02
       356  22 -9.140522E+05  4.573831E+00 -1.593740E+03  5.675856E+03 -3.413848E+01  1.715279E+03
       356  23 -9.138759E+05  6.904982E+01 -1.853084E+03 -2.898369E+03 -9.580209E+02  1.170199E+03
       356  24 -9.140526E+05 -2.819507E+02 -2.845215E+03  5.676781E+03 -1.881813E+03  6.196288E+02
       356  25 -9.839503E+05 -1.741369E+04 -1.871158E+04  5.554733E+03 -2.151801E+02  1.714725E+03
       356  26 -9.684522E+05 -1.353853E+04 -1.525492E+04 -3.030966E+03 -1.140833E+03  1.169625E+03
       356  27 -9.533069E+05 -1.007913E+04 -1.253229E+04  5.532802E+03 -2.066419E+03  6.190350E+02
       357   1 -9.106168E+05  1.047399E+03 -2.689909E+03  5.425322E+03  2.262694E+03 -2.898010E+02
       357   2 -9.253998E+05 -2.433841E+03 -8.680400E+03 -2.885395E+03  5.200426E+03  2.743039E+02
       357   3 -9.415631E+05 -9.346102E+03 -1.747240E+04  6.122304E+03  8.138212E+03  8.020771E+02
       357   4 -9.142797E+05  1.460883E+02 -3.541101E+03  5.710810E+03  2.454947E+03 -2.891768E+02
       357   5 -9.135918E+05  5.093253E+02 -5.781821E+03 -2.944047E+03  5.380538E+03  2.748837E+02
       357   6 -9.142822E+05 -2.556272E+03 -1.081551E+04  5.719501E+03  8.306254E+03  8.026099E+02
       357   7 -9.179426E+05 -7.552226E+02 -4.392294E+03  5.996295E+03  2.647199E+03 -2.885523E+02
       357   8 -9.017837E+05  3.452481E+03 -2.883252E+03 -3.002700E+03  5.560652E+03  2.754634E+02
       357   9 -8.870006E+05  4.233504E+03 -4.158673E+03  5.316681E+03  8.474304E+03  8.031426E+02
       357  10 -9.106168E+05  1.047397E+03 -2.689919E+03  5.425323E+03 -6.054668E-09  1.389673E-10
       357  11 -9.253999E+05 -2.433848E+03 -8.680451E+03 -2.885397E+03 -2.530389E-10  9.398232E-10
       357  12 -9.415632E+05 -9.346120E+03 -1.747253E+04  6.122298E+03  1.775787E-09 -4.262160E-10
       357  13 -9.142797E+05  1.460866E+02 -3.541113E+03  5.710810E+03  2.859032E-09 -5.488268E-10
       357  14 -9.135919E+05  5.093174E+02 -5.781875E+03 -2.944048E+03  1.392286E-09  3.864134E-09
       357  15 -9.142822E+05 -2.556291E+03 -1.081564E+04  5.719496E+03  1.126761E-09  1.037724E-09
       357  16 -9.179426E+05 -7.552246E+02 -4.392307E+03  5.996296E+03  6.143592E-09  7.408088E-10
       357  17 -9.017837E+05  3.452473E+03 -2.883310E+03 -3.002701E+03  4.483619E-11 -5.608703E-09
       357  18 -8.870006E+05  4.233484E+03 -4.158809E+03  5.316675E+03  5.141925E-10 -8.752559E-10
       357  19 -9.106168E+05  1.047399E+03 -2.689909E+03  5.425322E+03 -2.262694E+03  2.898010E+02
       357  20 -9.253998E+05 -2.433841E+03 -8.680400E+03 -2.885395E+03 -5.200426E+03 -2.743039E+02
       357  21 -9.415631E+05 -9.346102E+03 -1.747240E+04  6.122304E+03 -8.138212E+03 -8.020771E+02
       357  22 -9.142797E+05  1.460883E+02 -3.541101E+03  5.710810E+03 -2.454947E+03  2.891768E+02
       357  23 -9.135918E+05  5.093253E+02 -5.781821E+03 -2.944047E+03 -5.380538E+03 -2.748837E+02
       357  24 -9.142822E+05 -2.556272E+03 -1.081551E+04  5.719501E+03 -8.306254E+03 -8.026099E+02
       357  25 -9.179426E+05 -7.552226E+02 -4.392294E+03  5.996295E+03 -2.647199E+03  2.885523E+02
       357  26 -9.017837E+05  3.452481E+03 -2.883252E+03 -3.002700E+03 -5.560652E+03 -2.754634E+02
       357  27 -8.870006E+05  4.233504E+03 -4.158673E+03  5.316681E+03 -8.474304E+03 -8.031426E+02
       358   1 -9.785157E+05 -1.475231E+04 -2.906772E+04  3.330955E+03  1.024395E+04  1.177146E+03
       358   2 -9.894928E+05 -1.546948E+04 -4.148553E+04 -2.009411E+03  2.195817E+04  1.775402E+03
       358   3 -1.008895E+06 -4.329684E+04 -6.834062E+04  9.670823E+03  3.367297E+04  2.048168E+03
       358   4 -9.158426E+05  9.001380E+02 -1.362963E+04  5.626177E+03  1.048764E+04  1.177953E+03
       358   5 -9.116462E+05  3.930797E+03 -2.237791E+04 -2.851894E+03  2.209391E+04  1.775775E+03
       358   6 -9.158553E+05 -2.012810E+04 -4.548699E+04  5.690623E+03  3.370103E+04  2.048007E+03
       358   7 -8.531659E+05  1.655231E+04  1.808171E+03  7.921629E+03  1.073136E+04  1.178762E+03
       358   8 -8.337941E+05  2.333062E+04 -3.270725E+03 -3.694488E+03  2.222965E+04  1.776148E+03
       358   9 -8.228077E+05  3.040060E+03 -2.263398E+04  1.709818E+03  3.372909E+04  2.047846E+03
       358  10 -9.785158E+05 -1.475234E+04 -2.906792E+04  3.330946E+03 -1.991813E-09  5.708077E-09
       358  11 -9.894933E+05 -1.546961E+04 -4.148645E+04 -2.009443E+03 -2.214542E-09  5.677573E-09
       358  12 -1.008896E+06 -4.329715E+04 -6.834276E+04  9.670768E+03  1.845862E-09  6.030875E-09
       358  13 -9.158427E+05  9.001069E+02 -1.362984E+04  5.626167E+03  1.707574E-09  2.175874E-09
       358  14 -9.116468E+05  3.930662E+03 -2.237883E+04 -2.851926E+03  1.367976E-09  8.149520E-09
       358  15 -9.158565E+05 -2.012841E+04 -4.548913E+04  5.690567E+03  6.092115E-10 -9.351674E-11
       358  16 -8.531661E+05  1.655228E+04  1.807951E+03  7.921618E+03  2.660723E-09  5.255367E-10
       358  17 -8.337947E+05  2.333049E+04 -3.271661E+03 -3.694520E+03 -1.731801E-10 -1.389466E-09
       358  18 -8.228089E+05  3.039750E+03 -2.263613E+04  1.709762E+03  2.169489E-10 -5.264864E-09
       358  19 -9.785157E+05 -1.475231E+04 -2.906772E+04  3.330955E+03 -1.024395E+04 -1.177146E+03
       358  20 -9.894928E+05 -1.546948E+04 -4.148553E+04 -2.009411E+03 -2.195817E+04 -1.775402E+03
       358  21 -1.008895E+06 -4.329684E+04 -6.834062E+04  9.670823E+03 -3.367297E+04 -2.048168E+03
       358  22 -9.158426E+05  9.001380E+02 -1.362963E+04  5.626177E+03 -1.048764E+04 -1.177953E+03
       358  23 -9.116462E+05  3.930797E+03 -2.237791E+04 -2.851894E+03 -2.209391E+04 -1.775775E+03
       358  24 -9.158553E+05 -2.012810E+04 -4.548699E+04  5.690623E+03 -3.370103E+04 -2.048007E+03
       358  25 -8.531659E+05  1.655231E+04  1.808171E+03  7.921629E+03 -1.073136E+04 -1.178762E+03
       358  26 -8.337941E+05  2.333062E+04 -3.270725E+03 -3.694488E+03 -2.222965E+04 -1.776148E+03
       358  27 -8.228077E+05  3.040060E+03 -2.263398E+04  1.709818E+03 -3.372909E+04 -2.047846E+03
       359   1 -1.054033E+06 -2.507294E+04 -8.654006E+04 -1.081634E+04  4.188261E+04  2.803812E+03
       359   2 -1.039433E+06 -5.219380E+03 -1.207839E+05  6.350620E+03  8.962489E+04  3.599735E+03
       359   3 -1.083258E+06 -1.938120E+05 -2.382690E+05  3.999291E+04  1.373754E+05  1.550391E+03
       359   4 -9.269153E+05  6.744250E+03 -5.528667E+04  5.377712E+03  4.258546E+04  2.806959E+03
       359   5 -8.978261E+05  3.000839E+04 -8.608681E+04 -2.636936E+03  8.938116E+04  3.597644E+03
       359   6 -9.269852E+05 -1.549857E+05 -1.994564E+05  5.824778E+03  1.361862E+05  1.539466E+03
       359   7 -7.997820E+05  3.856121E+04 -2.403433E+04  2.157508E+04  4.328846E+04  2.810143E+03
       359   8 -7.562010E+05  6.523498E+04 -5.139110E+04 -1.162656E+04  8.913737E+04  3.595560E+03
       359   9 -7.706879E+05 -1.161569E+05 -1.606449E+05 -2.835198E+04  1.349968E+05  1.528674E+03
       359  10 -1.054035E+06 -2.507342E+04 -8.654338E+04 -1.081644E+04 -1.390310E-09  1.055987E-10
       359  11 -1.039441E+06 -5.221555E+03 -1.207991E+05  6.350360E+03  4.726895E-10 -3.689294E-09
       359  12 -1.083278E+06 -1.938171E+05 -2.383046E+05  3.999273E+04  2.014261E-09 -1.083055E-10
       359  13 -9.269173E+05  6.743753E+03 -5.529009E+04  5.377616E+03  9.607675E-10  6.323234E-09
       359  14 -8.978347E+05  3.000622E+04 -8.610187E+04 -2.637195E+03  1.419416E-09 -6.231415E-09
       359  15 -9.270052E+05 -1.549907E+05 -1.994913E+05  5.824609E+03 -7.356446E-10  3.570067E-09
       359  16 -7.997841E+05  3.856070E+04 -2.403787E+04  2.157498E+04 -1.995009E-10  2.107502E-09
       359  17 -7.562096E+05  6.523283E+04 -5.140608E+04 -1.162682E+04 -2.614357E-09  2.866363E-09
       359  18 -7.707075E+05 -1.161618E+05 -1.606792E+05 -2.835215E+04  1.835379E-11 -9.279411E-11
       359  19 -1.054033E+06 -2.507294E+04 -8.654006E+04 -1.081634E+04 -4.188261E+04 -2.803812E+03
       359  20 -1.039433E+06 -5.219380E+03 -1.207839E+05  6.350620E+03 -8.962489E+04 -3.599735E+03
       359  21 -1.083258E+06 -1.938120E+05 -2.382690E+05  3.999291E+04 -1.373754E+05 -1.550391E+03
       359  22 -9.269153E+05  6.744250E+03 -5.528667E+04  5.377712E+03 -4.258546E+04 -2.806959E+03
       359  23 -8.978261E+05  3.000839E+04 -8.608681E+04 -2.636936E+03 -8.938116E+04 -3.597644E+03
       359  24 -9.269852E+05 -1.549857E+05 -1.994564E+05  5.824778E+03 -1.361862E+05 -1.539466E+03
       359  25 -7.997820E+05  3.856121E+04 -2.403433E+04  2.157508E+04 -4.328846E+04 -2.810143E+03
       359  26 -7.562010E+05  6.523498E+04 -5.139110E+04 -1.162656E+04 -8.913737E+04 -3.595560E+03
       359  27 -7.706879E+05 -1.161569E+05 -1.606449E+05 -2.835198E+04 -1.349968E+05 -1.528674E+03
       360   1  7.252319E+05  4.112478E+06  8.479317E+05 -2.295884E+05  8.158318E+03  3.657923E+05
       360   2  1.646950E+05  3.804138E+06  4.908293E+05 -3.435182E+04  2.327196E+04  2.235244E+05
       360   3  1.822968E+05  3.659463E+06  3.706434E+05 -9.109673E+04  1.474714E+04  8.124323E+04
       360   4  4.199830E+05  2.886591E+06  5.445799E+05 -1.330180E+05  8.231248E+03  3.563592E+05
       360   5 -8.314143E+04  2.805617E+06  2.473306E+05 -7.412873E+03  2.328644E+04  2.223036E+05
       360   6 -9.044104E+03  2.887152E+06  1.816459E+05 -1.337812E+05  1.471818E+04  8.818179E+04
       360   7  1.146565E+05  1.662079E+06  2.411217E+05 -3.663653E+04  8.301376E+03  3.469441E+05
       360   8 -3.310486E+05  1.808000E+06  3.759942E+03  1.948345E+04  2.330083E+04  2.210844E+05
       360   9 -2.004218E+05  2.115384E+06 -7.393734E+03 -1.764123E+05  1.468824E+04  9.511173E+04
       360  10  7.251962E+05  4.112335E+06  8.476818E+05 -2.295908E+05 -1.375095E-09 -4.301145E-09
       360  11  1.646811E+05  3.804085E+06  4.907349E+05 -3.435601E+04 -3.896924E-09 -1.350148E-09
       360  12  1.822948E+05  3.659456E+06  3.706306E+05 -9.109770E+04  2.273284E-09 -1.398970E-09
       360  13  4.199490E+05  2.886455E+06  5.443422E+05 -1.330203E+05 -1.205135E-09  1.187362E-09
       360  14 -8.315520E+04  2.805563E+06  2.472371E+05 -7.417037E+03 -2.687555E-09  3.041980E-09
       360  15 -9.046413E+03  2.887143E+06  1.816310E+05 -1.337823E+05  1.140972E-09  3.998094E-09
       360  16  1.146242E+05  1.661950E+06  2.408959E+05 -3.663885E+04 -2.008068E-09  1.743252E-09
       360  17 -3.310622E+05  1.807947E+06  3.667349E+03  1.947930E+04 -1.991259E-09  1.235395E-09
       360  18 -2.004245E+05  2.115374E+06 -7.411082E+03 -1.764134E+05 -2.429565E-09  3.016422E-09
       360  19  7.252319E+05  4.112478E+06  8.479317E+05 -2.295884E+05 -8.158318E+03 -3.657923E+05
       360  20  1.646950E+05  3.804138E+06  4.908293E+05 -3.435182E+04 -2.327196E+04 -2.235244E+05
       360  21  1.822968E+05  3.659463E+06  3.706434E+05 -9.109673E+04 -1.474714E+04 -8.124323E+04
       360  22  4.199830E+05  2.886591E+06  5.445799E+05 -1.330180E+05 -8.231248E+03 -3.563592E+05
       360  23 -8.314143E+04  2.805617E+06  2.473306E+05 -7.412873E+03 -2.328644E+04 -2.223036E+05
       360  24 -9.044104E+03  2.887152E+06  1.816459E+05 -1.337812E+05 -1.471818E+04 -8.818179E+04
       360  25  1.146565E+05  1.662079E+06  2.411217E+05 -3.663653E+04 -8.301376E+03 -3.469441E+05
       360  26 -3.310486E+05  1.808000E+06  3.759942E+03  1.948345E+04 -2.330083E+04 -2.210844E+05
       360  27 -2.004218E+05  2.115384E+06 -7.393734E+03 -1.764123E+05 -1.468824E+04 -9.511173E+04
       361   1  1.200736E+05  3.132445E+06  2.303732E+05 -1.496807E+05  6.276162E+03  5.571437E+04
       361   2 -9.144951E+03  2.893741E+06  1.432540E+05 -1.047534E+04  1.254127E+03 -1.174673E+04
       361   3  2.219954E+04  2.701741E+06  1.395952E+05 -1.112195E+05 -3.958706E+03 -7.918665E+04
       361   4  5.265937E+04  2.861440E+06  1.642383E+05 -1.307668E+05  6.271419E+03  5.744873E+04
       361   5 -2.295332E+04  2.838106E+06  1.296555E+05 -1.077497E+04  1.247389E+03 -9.933958E+03
       361   6  6.199429E+04  2.861423E+06  1.784928E+05 -1.307274E+05 -3.963452E+03 -7.731853E+04
       361   7 -1.475893E+04  2.590502E+06  9.809815E+04 -1.118611E+05  6.266780E+03  5.918232E+04
       361   8 -3.676191E+04  2.782474E+06  1.160567E+05 -1.107457E+04  1.240648E+03 -8.121349E+03
       361   9  1.017886E+05  3.021129E+06  2.173888E+05 -1.502402E+05 -3.968314E+03 -7.544992E+04
       361  10  1.200727E+05  3.132442E+06  2.303674E+05 -1.496810E+05  8.103018E-10 -8.087875E-09
       361  11 -9.144990E+03  2.893741E+06  1.432538E+05 -1.047532E+04 -1.211517E-09 -3.193653E-09
       361  12  2.219785E+04  2.701734E+06  1.395834E+05 -1.112198E+05 -4.650341E-10 -5.548832E-09
       361  13  5.265845E+04  2.861436E+06  1.642320E+05 -1.307671E+05  1.116444E-09  4.067235E-09
       361  14 -2.295335E+04  2.838106E+06  1.296553E+05 -1.077496E+04  7.501069E-10  3.111544E-09
       361  15  6.199267E+04  2.861417E+06  1.784816E+05 -1.307276E+05  4.176424E-09  3.649265E-09
       361  16 -1.475991E+04  2.590498E+06  9.809152E+04 -1.118614E+05 -1.033375E-09  2.439385E-09
       361  17 -3.676193E+04  2.782474E+06  1.160566E+05 -1.107456E+04 -3.058275E-09  3.285067E-09
       361  18  1.017870E+05  3.021123E+06  2.173781E+05 -1.502404E+05  2.645499E-09  7.762254E-09
       361  19  1.200736E+05  3.132445E+06  2.303732E+05 -1.496807E+05 -6.276162E+03 -5.571437E+04
       361  20 -9.144951E+03  2.893741E+06  1.432540E+05 -1.047534E+04 -1.254127E+03  1.174673E+04
       361  21  2.219954E+04  2.701741E+06  1.395952E+05 -1.112195E+05  3.958706E+03  7.918665E+04
       361  22  5.265937E+04  2.861440E+06  1.642383E+05 -1.307668E+05 -6.271419E+03 -5.744873E+04
       361  23 -2.295332E+04  2.838106E+06  1.296555E+05 -1.077497E+04 -1.247389E+03  9.933958E+03
       361  24  6.199429E+04  2.861423E+06  1.784928E+05 -1.307274E+05  3.963452E+03  7.731853E+04
       361  25 -1.475893E+04  2.590502E+06  9.809815E+04 -1.118611E+05 -6.266780E+03 -5.918232E+04
       361  26 -3.676191E+04  2.782474E+06  1.160567E+05 -1.107457E+04 -1.240648E+03  8.121349E+03
       361  27  1.017886E+05  3.021129E+06  2.173888E+05 -1.502402E+05  3.968314E+03  7.544992E+04
       362   1 -1.761353E+05  2.234728E+06  4.037169E+04 -1.829316E+05 -1.206841E+04 -1.175938E+05
       362   2 -3.151231E+05  1.917531E+06  6.828221E+04  2.282261E+04 -2.042846E+04 -2.638991E+05
       362   3  2.126147E+05  1.786331E+06  3.580807E+05 -2.051390E+04 -7.166011E+03 -4.100805E+05
       362   4 -1.313160E+04  2.892621E+06  2.015443E+05 -1.332335E+05 -1.210123E+04 -1.110615E+05
       362   5 -9.607009E+04  2.798841E+06  2.834343E+05 -8.173600E+03 -2.041153E+04 -2.648542E+05
       362   6  4.884711E+05  2.891970E+06  6.320975E+05 -1.321642E+05 -7.075009E+03 -4.185769E+05
       362   7  1.498498E+05  3.550912E+06  3.626869E+05 -8.348243E+04 -1.213298E+04 -1.045222E+05
       362   8  1.229291E+05  3.680858E+06  4.985305E+05 -3.921329E+04 -2.039453E+04 -2.658105E+05
       362   9  7.642824E+05  3.998741E+06  9.060301E+05 -2.440123E+05 -6.981093E+03 -4.270879E+05
       362  10 -1.761392E+05  2.234713E+06  4.034552E+04 -1.829328E+05  3.002290E-09 -8.108087E-09
       362  11 -3.151421E+05  1.917456E+06  6.815098E+04  2.281827E+04  2.206843E-09 -2.462317E-09
       362  12  2.125697E+05  1.786151E+06  3.577655E+05 -2.051627E+04 -7.396609E-10 -6.217277E-10
       362  13 -1.313505E+04  2.892608E+06  2.015210E+05 -1.332346E+05 -3.067171E-10  4.164100E-09
       362  14 -9.608926E+04  2.798766E+06  2.833023E+05 -8.177949E+03  3.285647E-10  2.282551E-09
       362  15  4.884243E+05  2.891783E+06  6.317697E+05 -1.321666E+05 -1.220418E-09  2.389847E-09
       362  16  1.498467E+05  3.550900E+06  3.626662E+05 -8.348345E+04  3.364373E-09  2.037949E-09
       362  17  1.229099E+05  3.680782E+06  4.983977E+05 -3.921765E+04 -3.058447E-10  1.358334E-09
       362  18  7.642337E+05  3.998546E+06  9.056894E+05 -2.440148E+05 -1.042251E-09  2.057064E-09
       362  19 -1.761353E+05  2.234728E+06  4.037169E+04 -1.829316E+05  1.206841E+04  1.175938E+05
       362  20 -3.151231E+05  1.917531E+06  6.828221E+04  2.282261E+04  2.042846E+04  2.638991E+05
       362  21  2.126147E+05  1.786331E+06  3.580807E+05 -2.051390E+04  7.166011E+03  4.100805E+05
       362  22 -1.313160E+04  2.892621E+06  2.015443E+05 -1.332335E+05  1.210123E+04  1.110615E+05
       362  23 -9.607009E+04  2.798841E+06  2.834343E+05 -8.173600E+03  2.041153E+04  2.648542E+05
       362  24  4.884711E+05  2.891970E+06  6.320975E+05 -1.321642E+05  7.075009E+03  4.185769E+05
       362  25  1.498498E+05  3.550912E+06  3.626869E+05 -8.348243E+04  1.213298E+04  1.045222E+05
       362  26  1.229291E+05  3.680858E+06  4.985305E+05 -3.921329E+04  2.039453E+04  2.658105E+05
       362  27  7.642824E+05  3.998741E+06  9.060301E+05 -2.440123E+05  6.981093E+03  4.270879E+05
       363   1 -2.271783E+05 -9.210039E+04 -9.020817E+04 -8.151654E+04 -9.743133E+04 -3.860977E+04
       363   2 -2.032156E+05  4.359988E+04 -6.156969E+02 -1.170930E+05 -6.172884E+04 -2.894598E+04
       363   3 -2.495691E+05  3.433690E+04  2.134750E+04 -1.032055E+05 -2.751276E+04 -1.533901E+04
       363   4 -4.849509E+05 -1.694582E+05 -1.569345E+05 -1.311863E+05 -9.882320E+04 -3.913782E+04
       363   5 -4.417843E+05 -4.127096E+04 -6.436848E+04 -1.768448E+05 -6.207257E+04 -2.907633E+04
       363   6 -4.691648E+05 -5.829044E+04 -4.028435E+04 -1.730329E+05 -2.680726E+04 -1.507251E+04
       363   7 -7.426581E+05 -2.468168E+05 -2.236656E+05 -1.808399E+05 -1.002144E+05 -3.966575E+04
       363   8 -6.802978E+05 -1.261398E+05 -1.281260E+05 -2.365764E+05 -6.241615E+04 -2.920663E+04
       363   9 -6.887139E+05 -1.509116E+05 -1.019207E+05 -2.428368E+05 -2.610203E+04 -1.480614E+04
       363  10 -2.271889E+05 -9.210454E+04 -9.022882E+04 -8.151957E+04 -9.658004E-10  9.175571E-10
       363  11 -2.032199E+05  4.359796E+04 -6.244358E+02 -1.170945E+05 -8.777644E-10  7.917915E-10
       363  12 -2.495699E+05  3.433645E+04  2.134563E+04 -1.032058E+05  7.549881E-10 -9.090108E-10
       363  13 -4.849618E+05 -1.694625E+05 -1.569558E+05 -1.311894E+05  3.163036E-11  2.300343E-09
       363  14 -4.417887E+05 -4.127290E+04 -6.437732E+04 -1.768462E+05 -1.746430E-09  9.613163E-10
       363  15 -4.691657E+05 -5.829088E+04 -4.028612E+04 -1.730332E+05 -1.308366E-09 -1.373408E-09
       363  16 -7.426694E+05 -2.468212E+05 -2.236875E+05 -1.808431E+05  1.038835E-09  2.786388E-09
       363  17 -6.803022E+05 -1.261418E+05 -1.281349E+05 -2.365778E+05 -1.484629E-10 -1.487641E-09
       363  18 -6.887147E+05 -1.509120E+05 -1.019224E+05 -2.428371E+05 -1.062779E-09  1.434260E-10
       363  19 -2.271783E+05 -9.210039E+04 -9.020817E+04 -8.151654E+04  9.743133E+04  3.860977E+04
       363  20 -2.032156E+05  4.359988E+04 -6.156969E+02 -1.170930E+05  6.172884E+04  2.894598E+04
       363  21 -2.495691E+05  3.433690E+04  2.134750E+04 -1.032055E+05  2.751276E+04  1.533901E+04
       363  22 -4.849509E+05 -1.694582E+05 -1.569345E+05 -1.311863E+05  9.882320E+04  3.913782E+04
       363  23 -4.417843E+05 -4.127096E+04 -6.436848E+04 -1.768448E+05  6.207257E+04  2.907633E+04
       363  24 -4.691648E+05 -5.829044E+04 -4.028435E+04 -1.730329E+05  2.680726E+04  1.507251E+04
       363  25 -7.426581E+05 -2.468168E+05 -2.236656E+05 -1.808399E+05  1.002144E+05  3.966575E+04
       363  26 -6.802978E+05 -1.261398E+05 -1.281260E+05 -2.365764E+05  6.241615E+04  2.920663E+04
       363  27 -6.887139E+05 -1.509116E+05 -1.019207E+05 -2.428368E+05  2.610203E+04  1.480614E+04
       364   1 -2.644172E+05 -3.017433E+03  2.079548E+04 -1.106810E+05 -2.099337E+04 -1.198158E+04
       364   2 -2.649142E+05  8.615974E+03  3.614878E+04 -1.225259E+05 -1.306671E+04 -9.124894E+03
       364   3 -2.837584E+05  8.341802E+03  3.982668E+04 -1.182030E+05 -5.340128E+03 -5.738582E+03
       364   4 -4.642901E+05 -7.597839E+04 -3.310764E+04 -1.626115E+05 -2.109097E+04 -1.201862E+04
       364   5 -4.540015E+05 -6.229969E+04 -1.516511E+04 -1.736039E+05 -1.302407E+04 -9.108903E+03
       364   6 -4.620907E+05 -6.056033E+04 -9.012110E+03 -1.684277E+05 -5.157132E+03 -5.669496E+03
       364   7 -6.641250E+05 -1.489378E+05 -8.701438E+04 -2.145274E+05 -2.118853E+04 -1.205564E+04
       364   8 -6.430547E+05 -1.332135E+05 -6.648225E+04 -2.246680E+05 -1.298144E+04 -9.092918E+03
       364   9 -6.403925E+05 -1.294602E+05 -5.785381E+04 -2.186393E+05 -4.974194E+03 -5.600434E+03
       364  10 -2.644177E+05 -3.017705E+03  2.079438E+04 -1.106812E+05 -2.415268E-09 -2.360492E-09
       364  11 -2.649144E+05  8.615839E+03  3.614830E+04 -1.225260E+05 -3.212795E-09  3.253397E-09
       364  12 -2.837584E+05  8.341759E+03  3.982657E+04 -1.182030E+05  1.439797E-09 -2.771441E-09
       364  13 -4.642906E+05 -7.597867E+04 -3.310875E+04 -1.626117E+05  1.615331E-10 -4.166173E-10
       364  14 -4.540017E+05 -6.229982E+04 -1.516559E+04 -1.736040E+05  3.230497E-10 -1.001735E-08
       364  15 -4.620907E+05 -6.056037E+04 -9.012221E+03 -1.684277E+05  2.891537E-09  3.770129E-10
       364  16 -6.641256E+05 -1.489381E+05 -8.701549E+04 -2.145276E+05  1.658780E-09  4.720873E-09
       364  17 -6.430549E+05 -1.332136E+05 -6.648272E+04 -2.246681E+05  2.919740E-10  4.031464E-09
       364  18 -6.403926E+05 -1.294603E+05 -5.785391E+04 -2.186393E+05  5.941355E-10  4.815606E-09
       364  19 -2.644172E+05 -3.017433E+03  2.079548E+04 -1.106810E+05  2.099337E+04  1.198158E+04
       364  20 -2.649142E+05  8.615974E+03  3.614878E+04 -1.225259E+05  1.306671E+04  9.124894E+03
       364  21 -2.837584E+05  8.341802E+03  3.982668E+04 -1.182030E+05  5.340128E+03  5.738582E+03
       364  22 -4.642901E+05 -7.597839E+04 -3.310764E+04 -1.626115E+05  2.109097E+04  1.201862E+04
       364  23 -4.540015E+05 -6.229969E+04 -1.516511E+04 -1.736039E+05  1.302407E+04  9.108903E+03
       364  24 -4.620907E+05 -6.056033E+04 -9.012110E+03 -1.684277E+05  5.157132E+03  5.669496E+03
       364  25 -6.641250E+05 -1.489378E+05 -8.701438E+04 -2.145274E+05  2.118853E+04  1.205564E+04
       364  26 -6.430547E+05 -1.332135E+05 -6.648225E+04 -2.246680E+05  1.298144E+04  9.092918E+03
       364  27 -6.403925E+05 -1.294602E+05 -5.785381E+04 -2.186393E+05  4.974194E+03  5.600434E+03
       365   1 -3.135494E+05 -7.138178E+03  3.301742E+04 -1.266107E+05 -4.013997E+03 -4.899769E+03
       365   2 -3.179206E+05 -1.333394E+04  3.392554E+04 -1.357328E+05 -2.336707E+03 -3.899600E+03
       365   3 -3.338317E+05 -1.222379E+04  3.270334E+04 -1.324808E+05 -6.919860E+02 -2.813933E+03
       365   4 -4.615039E+05 -6.283771E+04 -7.159633E+03 -1.667956E+05 -3.938253E+03 -4.871199E+03
       365   5 -4.555788E+05 -6.542217E+04 -3.530811E+03 -1.733857E+05 -2.238333E+03 -3.862446E+03
       365   6 -4.611987E+05 -6.070536E+04 -2.050653E+03 -1.676014E+05 -5.709492E+02 -2.768174E+03
       365   7 -6.094372E+05 -1.185359E+05 -4.733859E+04 -2.069718E+05 -3.862528E+03 -4.842638E+03
       365   8 -5.932188E+05 -1.175093E+05 -4.098887E+04 -2.110311E+05 -2.139982E+03 -3.825301E+03
       365   9 -5.885504E+05 -1.091860E+05 -3.680617E+04 -2.027155E+05 -4.499396E+02 -2.722425E+03
       365  10 -3.135494E+05 -7.138208E+03  3.301734E+04 -1.266107E+05  1.680475E-09 -1.861104E-09
       365  11 -3.179207E+05 -1.333396E+04  3.392550E+04 -1.357328E+05  1.386578E-09 -4.686671E-09
       365  12 -3.338317E+05 -1.222380E+04  3.270333E+04 -1.324808E+05 -8.202067E-10 -2.918316E-09
       365  13 -4.615039E+05 -6.283774E+04 -7.159707E+03 -1.667956E+05  1.614742E-09 -5.791187E-09
       365  14 -4.555788E+05 -6.542218E+04 -3.530848E+03 -1.733857E+05  2.138548E-09 -8.286991E-09
       365  15 -4.611987E+05 -6.070537E+04 -2.050668E+03 -1.676014E+05 -1.830737E-09 -2.621703E-09
       365  16 -6.094372E+05 -1.185360E+05 -4.733866E+04 -2.069719E+05 -1.759278E-09  5.201972E-09
       365  17 -5.932188E+05 -1.175093E+05 -4.098890E+04 -2.110311E+05 -3.747163E-10  7.780122E-10
       365  18 -5.885504E+05 -1.091860E+05 -3.680619E+04 -2.027155E+05 -1.377783E-09  1.760199E-09
       365  19 -3.135494E+05 -7.138178E+03  3.301742E+04 -1.266107E+05  4.013997E+03  4.899769E+03
       365  20 -3.179206E+05 -1.333394E+04  3.392554E+04 -1.357328E+05  2.336707E+03  3.899600E+03
       365  21 -3.338317E+05 -1.222379E+04  3.270334E+04 -1.324808E+05  6.919860E+02  2.813933E+03
       365  22 -4.615039E+05 -6.283771E+04 -7.159633E+03 -1.667956E+05  3.938253E+03  4.871199E+03
       365  23 -4.555788E+05 -6.542217E+04 -3.530811E+03 -1.733857E+05  2.238333E+03  3.862446E+03
       365  24 -4.611987E+05 -6.070536E+04 -2.050653E+03 -1.676014E+05  5.709492E+02  2.768174E+03
       365  25 -6.094372E+05 -1.185359E+05 -4.733859E+04 -2.069718E+05  3.862528E+03  4.842638E+03
       365  26 -5.932188E+05 -1.175093E+05 -4.098887E+04 -2.110311E+05  2.139982E+03  3.825301E+03
       365  27 -5.885504E+05 -1.091860E+05 -3.680617E+04 -2.027155E+05  4.499396E+02  2.722425E+03
       366   1 -3.674784E+05 -2.542856E+04  2.386127E+04 -1.415958E+05 -4.665309E+02 -2.447619E+03
       366   2 -3.726091E+05 -3.448347E+04  2.173557E+04 -1.507163E+05 -1.757632E+02 -1.883195E+03
       366   3 -3.887690E+05 -3.313599E+04  1.916956E+04 -1.474742E+05  1.070882E+02 -1.298250E+03
       366   4 -4.612106E+05 -6.091597E+04 -1.611034E+03 -1.672628E+05 -3.620484E+02 -2.408101E+03
       366   5 -4.556753E+05 -6.597538E+04 -8.798283E+02 -1.734976E+05 -6.580992E+01 -1.841587E+03
       366   6 -4.611704E+05 -6.063351E+04 -5.933470E+02 -1.673698E+05  2.225196E+02 -1.254549E+03
       366   7 -5.549345E+05 -9.640286E+04 -2.708413E+04 -1.929264E+05 -2.575834E+02 -2.368590E+03
       366   8 -5.387347E+05 -9.746686E+04 -2.349583E+04 -1.962762E+05  4.412705E+01 -1.799986E+03
       366   9 -5.335666E+05 -8.813068E+04 -2.035670E+04 -1.872633E+05  3.379361E+02 -1.210853E+03
       366  10 -3.674784E+05 -2.542857E+04  2.386126E+04 -1.415958E+05 -1.190185E-09  8.368696E-10
       366  11 -3.726091E+05 -3.448348E+04  2.173556E+04 -1.507163E+05 -1.485624E-09 -3.601897E-09
       366  12 -3.887690E+05 -3.313599E+04  1.916955E+04 -1.474742E+05 -7.062157E-10 -3.644568E-10
       366  13 -4.612106E+05 -6.091598E+04 -1.611045E+03 -1.672628E+05 -1.211295E-09  3.645451E-10
       366  14 -4.556753E+05 -6.597539E+04 -8.798347E+02 -1.734976E+05  1.880941E-09 -4.099774E-09
       366  15 -4.611704E+05 -6.063352E+04 -5.933500E+02 -1.673698E+05 -1.593000E-10  1.172126E-09
       366  16 -5.549345E+05 -9.640286E+04 -2.708414E+04 -1.929264E+05 -1.663359E-09 -5.701648E-10
       366  17 -5.387347E+05 -9.746686E+04 -2.349584E+04 -1.962762E+05  3.862642E-09 -3.142263E-09
       366  18 -5.335666E+05 -8.813068E+04 -2.035670E+04 -1.872633E+05 -1.087595E-09  2.005077E-09
       366  19 -3.674784E+05 -2.542856E+04  2.386127E+04 -1.415958E+05  4.665309E+02  2.447619E+03
       366  20 -3.726091E+05 -3.448347E+04  2.173557E+04 -1.507163E+05  1.757632E+02  1.883195E+03
       366  21 -3.887690E+05 -3.313599E+04  1.916956E+04 -1.474742E+05 -1.070882E+02  1.298250E+03
       366  22 -4.612106E+05 -6.091597E+04 -1.611034E+03 -1.672628E+05  3.620484E+02  2.408101E+03
       366  23 -4.556753E+05 -6.597538E+04 -8.798283E+02 -1.734976E+05  6.580992E+01  1.841587E+03
       366  24 -4.611704E+05 -6.063351E+04 -5.933470E+02 -1.673698E+05 -2.225196E+02  1.254549E+03
       366  25 -5.549345E+05 -9.640286E+04 -2.708413E+04 -1.929264E+05  2.575834E+02  2.368590E+03
       366  26 -5.387347E+05 -9.746686E+04 -2.349583E+04 -1.962762E+05 -4.412705E+01  1.799986E+03
       366  27 -5.335666E+05 -8.813068E+04 -2.035670E+04 -1.872633E+05 -3.379361E+02  1.210853E+03
       367   1 -4.239150E+05 -4.647180E+04  9.583667E+03 -1.570568E+05  1.086824E+02 -1.014676E+03
       367   2 -4.292223E+05 -5.607043E+04  6.681831E+03 -1.663323E+05  2.061475E+02 -4.983458E+02
       367   3 -4.457604E+05 -5.477740E+04  3.529130E+03 -1.629903E+05  3.035775E+02  1.796313E+01
       367   4 -4.612245E+05 -6.060136E+04 -5.309846E+02 -1.672835E+05  2.216870E+02 -9.718821E+02
       367   5 -4.556146E+05 -6.608420E+04 -5.056135E+02 -1.735782E+05  3.191357E+02 -4.555515E+02
       367   6 -4.612353E+05 -6.067528E+04 -7.310383E+02 -1.672556E+05  4.165541E+02  6.075978E+01
       367   7 -4.985327E+05 -7.473086E+04 -1.064578E+04 -1.775096E+05  3.346842E+02 -9.290908E+02
       367   8 -4.820062E+05 -7.609794E+04 -7.693127E+03 -1.808240E+05  4.321188E+02 -4.127591E+02
       367   9 -4.767100E+05 -6.657314E+04 -4.991229E+03 -1.715207E+05  5.295276E+02  1.035552E+02
       367  10 -4.239150E+05 -4.647180E+04  9.583665E+03 -1.570568E+05  5.599847E-09  3.727337E-09
       367  11 -4.292223E+05 -5.607043E+04  6.681831E+03 -1.663323E+05  1.941033E-09 -3.921561E-11
       367  12 -4.457604E+05 -5.477740E+04  3.529130E+03 -1.629903E+05 -2.575897E-09 -2.819657E-09
       367  13 -4.612245E+05 -6.060136E+04 -5.309865E+02 -1.672835E+05  5.740892E-10 -3.041708E-11
       367  14 -4.556146E+05 -6.608420E+04 -5.056141E+02 -1.735782E+05  3.903033E-10 -7.847468E-10
       367  15 -4.612353E+05 -6.067528E+04 -7.310386E+02 -1.672556E+05  1.265547E-09 -2.396226E-09
       367  16 -4.985327E+05 -7.473087E+04 -1.064578E+04 -1.775096E+05 -3.914224E-09  9.247129E-10
       367  17 -4.820062E+05 -7.609794E+04 -7.693128E+03 -1.808240E+05  1.066990E-09 -2.882854E-09
       367  18 -4.767100E+05 -6.657314E+04 -4.991229E+03 -1.715207E+05  4.190534E-09 -1.355461E-08
       367  19 -4.239150E+05 -4.647180E+04  9.583667E+03 -1.570568E+05 -1.086824E+02  1.014676E+03
       367  20 -4.292223E+05 -5.607043E+04  6.681831E+03 -1.663323E+05 -2.061475E+02  4.983458E+02
       367  21 -4.457604E+05 -5.477740E+04  3.529130E+03 -1.629903E+05 -3.035775E+02 -1.796313E+01
       367  22 -4.612245E+05 -6.060136E+04 -5.309846E+02 -1.672835E+05 -2.216870E+02  9.718821E+02
       367  23 -4.556146E+05 -6.608420E+04 -5.056135E+02 -1.735782E+05 -3.191357E+02  4.555515E+02
       367  24 -4.612353E+05 -6.067528E+04 -7.310383E+02 -1.672556E+05 -4.165541E+02 -6.075978E+01
       367  25 -4.985327E+05 -7.473086E+04 -1.064578E+04 -1.775096E+05 -3.346842E+02  9.290908E+02
       367  26 -4.820062E+05 -7.609794E+04 -7.693127E+03 -1.808240E+05 -4.321188E+02  4.127591E+02
       367  27 -4.767100E+05 -6.657314E+04 -4.991229E+03 -1.715207E+05 -5.295276E+02 -1.035552E+02
       368   1 -4.812850E+05 -6.822733E+04 -6.394051E+03 -1.729042E+05  3.323366E+02  3.203944E+02
       368   2 -4.864919E+05 -7.764636E+04 -9.874856E+03 -1.820683E+05  9.288865E+02  1.034591E+03
       368   3 -5.033448E+05 -7.716678E+04 -1.424677E+04 -1.783894E+05  1.543044E+03  1.702418E+03
       368   4 -4.612777E+05 -6.055167E+04 -8.875791E+02 -1.673357E+05  4.536620E+02  3.663532E+02
       368   5 -4.555169E+05 -6.592572E+04 -1.446541E+03 -1.735968E+05  1.037751E+03  1.075821E+03
       368   6 -4.613994E+05 -6.139871E+04 -2.886656E+03 -1.670150E+05  1.639462E+03  1.738928E+03
       368   7 -4.412701E+05 -5.287600E+04  4.618847E+03 -1.617670E+05  5.749916E+02  4.123135E+02
       368   8 -4.245409E+05 -5.420503E+04  6.981687E+03 -1.651249E+05  1.146621E+03  1.117054E+03
       368   9 -4.194523E+05 -4.563051E+04  8.473317E+03 -1.556398E+05  1.735887E+03  1.775440E+03
       368  10 -4.812850E+05 -6.822733E+04 -6.394051E+03 -1.729042E+05 -5.861471E-10  2.861757E-09
       368  11 -4.864920E+05 -7.764636E+04 -9.874860E+03 -1.820683E+05  2.071197E-09  5.091493E-09
       368  12 -5.033448E+05 -7.716679E+04 -1.424678E+04 -1.783894E+05 -1.668458E-11 -2.911862E-09
       368  13 -4.612777E+05 -6.055167E+04 -8.875798E+02 -1.673357E+05  1.535211E-09 -3.040151E-09
       368  14 -4.555169E+05 -6.592573E+04 -1.446545E+03 -1.735968E+05 -3.669973E-09  5.400304E-09
       368  15 -4.613994E+05 -6.139871E+04 -2.886667E+03 -1.670150E+05 -2.651962E-09  9.147665E-10
       368  16 -4.412701E+05 -5.287601E+04  4.618846E+03 -1.617670E+05  3.752272E-10 -3.606596E-09
       368  17 -4.245409E+05 -5.420504E+04  6.981682E+03 -1.651249E+05 -4.395301E-09 -1.024830E-08
       368  18 -4.194523E+05 -4.563052E+04  8.473306E+03 -1.556398E+05 -1.688569E-09  1.461990E-09
       368  19 -4.812850E+05 -6.822733E+04 -6.394051E+03 -1.729042E+05 -3.323366E+02 -3.203944E+02
       368  20 -4.864919E+05 -7.764636E+04 -9.874856E+03 -1.820683E+05 -9.288865E+02 -1.034591E+03
       368  21 -5.033448E+05 -7.716678E+04 -1.424677E+04 -1.783894E+05 -1.543044E+03 -1.702418E+03
       368  22 -4.612777E+05 -6.055167E+04 -8.875791E+02 -1.673357E+05 -4.536620E+02 -3.663532E+02
       368  23 -4.555169E+05 -6.592572E+04 -1.446541E+03 -1.735968E+05 -1.037751E+03 -1.075821E+03
       368  24 -4.613994E+05 -6.139871E+04 -2.886656E+03 -1.670150E+05 -1.639462E+03 -1.738928E+03
       368  25 -4.412701E+05 -5.287600E+04  4.618847E+03 -1.617670E+05 -5.749916E+02 -4.123135E+02
       368  26 -4.245409E+05 -5.420503E+04  6.981687E+03 -1.651249E+05 -1.146621E+03 -1.117054E+03
       368  27 -4.194523E+05 -4.563051E+04  8.473317E+03 -1.556398E+05 -1.735887E+03 -1.775440E+03
       369   1 -5.381462E+05 -9.005191E+04 -2.460468E+04 -1.892073E+05  1.898689E+03  2.173700E+03
       369   2 -5.425701E+05 -9.767420E+04 -2.989571E+04 -1.974815E+05  5.036456E+03  3.866594E+03
       369   3 -5.614183E+05 -1.030763E+05 -3.998799E+04 -1.913528E+05  8.302996E+03  5.219347E+03
       369   4 -4.616388E+05 -6.048093E+04 -3.623157E+03 -1.676608E+05  2.063730E+03  2.236187E+03
       369   5 -4.548786E+05 -6.468565E+04 -6.077301E+03 -1.736948E+05  5.110297E+03  3.894523E+03
       369   6 -4.625241E+05 -6.665142E+04 -1.325977E+04 -1.653263E+05  8.285692E+03  5.212756E+03
       369   7 -3.851259E+05 -3.090955E+04  1.735783E+04 -1.461118E+05  2.228793E+03  2.298682E+03
       369   8 -3.671798E+05 -3.169670E+04  1.774040E+04 -1.499052E+05  5.184149E+03  3.922457E+03
       369   9 -3.636206E+05 -3.022614E+04  1.346755E+04 -1.392962E+05  8.268384E+03  5.206164E+03
       369  10 -5.381462E+05 -9.005192E+04 -2.460469E+04 -1.892073E+05 -1.117112E-09 -2.055606E-09
       369  11 -5.425702E+05 -9.767422E+04 -2.989579E+04 -1.974815E+05  9.241330E-10  5.749005E-09
       369  12 -5.614184E+05 -1.030764E+05 -3.998818E+04 -1.913529E+05  2.178032E-09  3.541526E-09
       369  13 -4.616388E+05 -6.048094E+04 -3.623175E+03 -1.676608E+05 -3.171587E-10  1.150489E-10
       369  14 -4.548787E+05 -6.468567E+04 -6.077379E+03 -1.736949E+05 -4.386097E-09  1.519155E-08
       369  15 -4.625242E+05 -6.665147E+04 -1.325995E+04 -1.653264E+05  6.960419E-10 -6.706573E-10
       369  16 -3.851259E+05 -3.090956E+04  1.735781E+04 -1.461118E+05  4.045742E-09 -3.213993E-09
       369  17 -3.671798E+05 -3.169673E+04  1.774032E+04 -1.499052E+05  1.363539E-09  1.460533E-09
       369  18 -3.636207E+05 -3.022619E+04  1.346737E+04 -1.392962E+05 -2.247621E-09  3.778126E-09
       369  19 -5.381462E+05 -9.005191E+04 -2.460468E+04 -1.892073E+05 -1.898689E+03 -2.173700E+03
       369  20 -5.425701E+05 -9.767420E+04 -2.989571E+04 -1.974815E+05 -5.036456E+03 -3.866594E+03
       369  21 -5.614183E+05 -1.030763E+05 -3.998799E+04 -1.913528E+05 -8.302996E+03 -5.219347E+03
       369  22 -4.616388E+05 -6.048093E+04 -3.623157E+03 -1.676608E+05 -2.063730E+03 -2.236187E+03
       369  23 -4.548786E+05 -6.468565E+04 -6.077301E+03 -1.736948E+05 -5.110297E+03 -3.894523E+03
       369  24 -4.625241E+05 -6.665142E+04 -1.325977E+04 -1.653263E+05 -8.285692E+03 -5.212756E+03
       369  25 -3.851259E+05 -3.090955E+04  1.735783E+04 -1.461118E+05 -2.228793E+03 -2.298682E+03
       369  26 -3.671798E+05 -3.169670E+04  1.774040E+04 -1.499052E+05 -5.184149E+03 -3.922457E+03
       369  27 -3.636206E+05 -3.022614E+04  1.346755E+04 -1.392962E+05 -8.268384E+03 -5.206164E+03
       370   1 -5.934036E+05 -1.123467E+05 -5.202301E+04 -2.088251E+05  9.949672E+03  6.552640E+03
       370   2 -5.933445E+05 -1.083972E+05 -6.430498E+04 -2.120539E+05  2.462270E+04  1.277885E+04
       370   3 -6.285677E+05 -1.558245E+05 -1.045568E+05 -1.876757E+05  4.026972E+04  1.642879E+04
       370   4 -4.644262E+05 -5.961041E+04 -1.612994E+04 -1.695473E+05  1.045774E+04  6.744898E+03
       370   5 -4.500376E+05 -5.622917E+04 -2.577261E+04 -1.749490E+05  2.443985E+04  1.270954E+04
       370   6 -4.707888E+05 -1.040790E+05 -6.283178E+04 -1.527449E+05  3.939620E+04  1.609798E+04
       370   7 -3.354325E+05 -6.872224E+03  1.976166E+04 -1.302618E+05  1.096592E+04  6.937208E+03
       370   8 -3.067111E+05 -4.060341E+03  1.275794E+04 -1.378365E+05  2.425696E+04  1.264022E+04
       370   9 -3.129865E+05 -5.233360E+04 -2.110891E+04 -1.178070E+05  3.852245E+04  1.576711E+04
       370  10 -5.934037E+05 -1.123468E+05 -5.202328E+04 -2.088251E+05  1.554556E-09 -6.708116E-09
       370  11 -5.933452E+05 -1.083975E+05 -6.430643E+04 -2.120541E+05  1.940652E-09  3.456115E-10
       370  12 -6.285696E+05 -1.558252E+05 -1.045604E+05 -1.876762E+05 -1.146533E-09 -2.086985E-10
       370  13 -4.644263E+05 -5.961049E+04 -1.613023E+04 -1.695474E+05 -1.286576E-10  4.241060E-09
       370  14 -4.500383E+05 -5.622950E+04 -2.577404E+04 -1.749492E+05 -1.062791E-10  3.051103E-09
       370  15 -4.707905E+05 -1.040797E+05 -6.283518E+04 -1.527454E+05 -1.079494E-09  4.866752E-09
       370  16 -3.354326E+05 -6.872308E+03  1.976135E+04 -1.302619E+05 -1.846901E-09  6.248076E-09
       370  17 -3.067118E+05 -4.060671E+03  1.275653E+04 -1.378368E+05 -2.897971E-09  1.115950E-08
       370  18 -3.129882E+05 -5.233427E+04 -2.111217E+04 -1.178074E+05 -3.171769E-09  4.287535E-10
       370  19 -5.934036E+05 -1.123467E+05 -5.202301E+04 -2.088251E+05 -9.949672E+03 -6.552640E+03
       370  20 -5.933445E+05 -1.083972E+05 -6.430498E+04 -2.120539E+05 -2.462270E+04 -1.277885E+04
       370  21 -6.285677E+05 -1.558245E+05 -1.045568E+05 -1.876757E+05 -4.026972E+04 -1.642879E+04
       370  22 -4.644262E+05 -5.961041E+04 -1.612994E+04 -1.695473E+05 -1.045774E+04 -6.744898E+03
       370  23 -4.500376E+05 -5.622917E+04 -2.577261E+04 -1.749490E+05 -2.443985E+04 -1.270954E+04
       370  24 -4.707888E+05 -1.040790E+05 -6.283178E+04 -1.527449E+05 -3.939620E+04 -1.609798E+04
       370  25 -3.354325E+05 -6.872224E+03  1.976166E+04 -1.302618E+05 -1.096592E+04 -6.937208E+03
       370  26 -3.067111E+05 -4.060341E+03  1.275794E+04 -1.378365E+05 -2.425696E+04 -1.264022E+04
       370  27 -3.129865E+05 -5.233360E+04 -2.110891E+04 -1.178070E+05 -3.852245E+04 -1.576711E+04
       371   1 -5.135749E+05 -3.880250E+04 -9.044975E+04 -2.642330E+04 -1.522141E+05 -4.637335E+03
       371   2 -5.079675E+05  1.666284E+05  3.111035E+04 -1.286278E+04 -1.016147E+05 -1.276646E+04
       371   3 -5.681064E+05  1.335811E+05  6.021974E+04  3.123322E+04 -5.104831E+04 -1.114709E+04
       371   4 -1.072109E+06 -1.781044E+05 -2.292362E+05  1.203894E+04 -1.565304E+05 -4.659650E+03
       371   5 -1.038879E+06  3.441890E+04 -9.899748E+04 -3.504508E+03 -1.027019E+05 -1.277251E+04
       371   6 -1.072016E+06  7.789746E+03 -6.351364E+04  1.148910E+04 -4.890385E+04 -1.113797E+04
       371   7 -1.630357E+06 -3.174240E+05 -3.680450E+05  5.046633E+04 -1.608428E+05 -4.682514E+03
       371   8 -1.569532E+06 -9.781116E+04 -2.291259E+05  5.845522E+03 -1.037882E+05 -1.277860E+04
       371   9 -1.575694E+06 -1.180192E+05 -1.872655E+05 -8.239159E+03 -4.676111E+04 -1.112898E+04
       371  10 -5.135998E+05 -3.880875E+04 -9.049337E+04 -2.642387E+04 -5.731796E-09  2.681820E-09
       371  11 -5.079786E+05  1.666255E+05  3.109063E+04 -1.286382E+04 -8.072960E-10  1.544259E-08
       371  12 -5.681093E+05  1.335803E+05  6.021461E+04  3.123276E+04  3.956422E-09  6.742163E-09
       371  13 -1.072136E+06 -1.781110E+05 -2.292823E+05  1.203835E+04  2.265496E-09 -1.434081E-09
       371  14 -1.038890E+06  3.441589E+04 -9.901764E+04 -3.505565E+03  3.269235E-09 -7.857541E-09
       371  15 -1.072019E+06  7.788970E+03 -6.351837E+04  1.148867E+04  1.150966E-09  3.197814E-10
       371  16 -1.630384E+06 -3.174310E+05 -3.680938E+05  5.046572E+04  5.237175E-09  3.589320E-09
       371  17 -1.569544E+06 -9.781424E+04 -2.291465E+05  5.844453E+03 -5.631233E-10  8.896709E-09
       371  18 -1.575696E+06 -1.180199E+05 -1.872699E+05 -8.239579E+03 -9.117921E-10 -2.074691E-09
       371  19 -5.135749E+05 -3.880250E+04 -9.044975E+04 -2.642330E+04  1.522141E+05  4.637335E+03
       371  20 -5.079675E+05  1.666284E+05  3.111035E+04 -1.286278E+04  1.016147E+05  1.276646E+04
       371  21 -5.681064E+05  1.335811E+05  6.021974E+04  3.123322E+04  5.104831E+04  1.114709E+04
       371  22 -1.072109E+06 -1.781044E+05 -2.292362E+05  1.203894E+04  1.565304E+05  4.659650E+03
       371  23 -1.038879E+06  3.441890E+04 -9.899748E+04 -3.504508E+03  1.027019E+05  1.277251E+04
       371  24 -1.072016E+06  7.789746E+03 -6.351364E+04  1.148910E+04  4.890385E+04  1.113797E+04
       371  25 -1.630357E+06 -3.174240E+05 -3.680450E+05  5.046633E+04  1.608428E+05  4.682514E+03
       371  26 -1.569532E+06 -9.781116E+04 -2.291259E+05  5.845522E+03  1.037882E+05  1.277860E+04
       371  27 -1.575694E+06 -1.180192E+05 -1.872655E+05 -8.239159E+03  4.676111E+04  1.112898E+04
       372   1 -6.222249E+05  8.584558E+04  5.516866E+04  9.121372E+03 -3.854894E+04 -9.054437E+03
       372   2 -6.483373E+05  1.057490E+05  7.400034E+04 -4.500140E+03 -2.558286E+04 -8.962850E+03
       372   3 -6.838146E+05  9.480042E+04  7.668252E+04  1.634748E+04 -1.262350E+04 -7.725000E+03
       372   4 -1.059370E+06 -2.310991E+04 -5.226485E+04  1.261981E+04 -3.870993E+04 -9.055794E+03
       372   5 -1.054642E+06  4.471699E+03 -2.573408E+04 -4.665739E+03 -2.536744E+04 -8.962319E+03
       372   6 -1.059353E+06  1.124216E+03 -1.562286E+04  1.251951E+04 -1.203102E+04 -7.722404E+03
       372   7 -1.496342E+06 -1.320796E+05 -1.597124E+05  1.611561E+04 -3.887080E+04 -9.057155E+03
       372   8 -1.460797E+06 -9.681790E+04 -1.254806E+05 -4.831394E+03 -2.515216E+04 -8.961789E+03
       372   9 -1.434763E+06 -9.256245E+04 -1.079386E+05  8.693705E+03 -1.143891E+04 -7.719814E+03
       372  10 -6.222265E+05  8.584509E+04  5.516571E+04  9.121091E+03 -4.281385E-09 -1.593860E-09
       372  11 -6.483380E+05  1.057488E+05  7.399895E+04 -4.500325E+03 -1.884652E-09  4.019720E-09
       372  12 -6.838148E+05  9.480032E+04  7.668210E+04  1.634740E+04  6.477250E-09  1.317371E-08
       372  13 -1.059372E+06 -2.311040E+04 -5.226782E+04  1.261953E+04  1.370325E-09  9.786763E-09
       372  14 -1.054643E+06  4.471439E+03 -2.573544E+04 -4.665922E+03  2.959038E-09 -2.671493E-08
       372  15 -1.059353E+06  1.124113E+03 -1.562325E+04  1.251943E+04 -2.329480E-09  1.449651E-08
       372  16 -1.496343E+06 -1.320801E+05 -1.597154E+05  1.611532E+04  5.844797E-09 -1.056752E-08
       372  17 -1.460798E+06 -9.681815E+04 -1.254820E+05 -4.831575E+03 -1.759181E-09 -8.117697E-09
       372  18 -1.434763E+06 -9.256255E+04 -1.079390E+05  8.693634E+03 -5.253615E-09 -7.682158E-10
       372  19 -6.222249E+05  8.584558E+04  5.516866E+04  9.121372E+03  3.854894E+04  9.054437E+03
       372  20 -6.483373E+05  1.057490E+05  7.400034E+04 -4.500140E+03  2.558286E+04  8.962850E+03
       372  21 -6.838146E+05  9.480042E+04  7.668252E+04  1.634748E+04  1.262350E+04  7.725000E+03
       372  22 -1.059370E+06 -2.310991E+04 -5.226485E+04  1.261981E+04  3.870993E+04  9.055794E+03
       372  23 -1.054642E+06  4.471699E+03 -2.573408E+04 -4.665739E+03  2.536744E+04  8.962319E+03
       372  24 -1.059353E+06  1.124216E+03 -1.562286E+04  1.251951E+04  1.203102E+04  7.722404E+03
       372  25 -1.496342E+06 -1.320796E+05 -1.597124E+05  1.611561E+04  3.887080E+04  9.057155E+03
       372  26 -1.460797E+06 -9.681790E+04 -1.254806E+05 -4.831394E+03  2.515216E+04  8.961789E+03
       372  27 -1.434763E+06 -9.256245E+04 -1.079386E+05  8.693705E+03  1.143891E+04  7.719814E+03
       373   1 -7.562992E+05  7.223587E+04  6.151209E+04  1.379849E+04 -9.865618E+03 -6.878721E+03
       373   2 -7.889016E+05  6.734275E+04  5.917263E+04 -4.553936E+03 -6.584186E+03 -5.807713E+03
       373   3 -8.231534E+05  5.878336E+04  5.371469E+04  1.450746E+04 -3.304632E+03 -4.569477E+03
       373   4 -1.057612E+06 -2.868579E+03 -1.239733E+04  1.321817E+04 -9.536599E+03 -6.877305E+03
       373   5 -1.056780E+06  5.524980E+02 -6.603122E+03 -5.497213E+03 -6.200497E+03 -5.805877E+03
       373   6 -1.057609E+06  2.969034E+02 -3.966374E+03  1.320226E+04 -2.866096E+03 -4.567191E+03
       373   7 -1.358842E+06 -7.797977E+04 -8.631341E+04  1.263802E+04 -9.207739E+03 -6.875890E+03
       373   8 -1.324593E+06 -6.624309E+04 -7.238415E+04 -6.440166E+03 -5.816972E+03 -5.804042E+03
       373   9 -1.292014E+06 -5.819364E+04 -6.165149E+04  1.189748E+04 -2.427725E+03 -4.564905E+03
       373  10 -7.562994E+05  7.223579E+04  6.151182E+04  1.379844E+04  2.193088E-09 -4.281562E-09
       373  11 -7.889017E+05  6.734270E+04  5.917248E+04 -4.553967E+03 -2.736288E-09 -8.371645E-09
       373  12 -8.231534E+05  5.878333E+04  5.371463E+04  1.450745E+04  1.790578E-09 -8.812241E-09
       373  13 -1.057612E+06 -2.868654E+03 -1.239759E+04  1.321811E+04  2.684078E-09 -3.063649E-09
       373  14 -1.056780E+06  5.524514E+02 -6.603258E+03 -5.497242E+03  1.820358E-09 -4.922072E-09
       373  15 -1.057609E+06  2.968788E+02 -3.966429E+03  1.320225E+04  2.830722E-09 -1.049361E-08
       373  16 -1.358842E+06 -7.797984E+04 -8.631366E+04  1.263797E+04 -3.628221E-09 -9.149253E-09
       373  17 -1.324593E+06 -6.624313E+04 -7.238428E+04 -6.440193E+03  2.766000E-10  4.232300E-09
       373  18 -1.292014E+06 -5.819367E+04 -6.165154E+04  1.189747E+04  1.595553E-09  1.322874E-08
       373  19 -7.562992E+05  7.223587E+04  6.151209E+04  1.379849E+04  9.865618E+03  6.878721E+03
       373  20 -7.889016E+05  6.734275E+04  5.917263E+04 -4.553936E+03  6.584186E+03  5.807713E+03
       373  21 -8.231534E+05  5.878336E+04  5.371469E+04  1.450746E+04  3.304632E+03  4.569477E+03
       373  22 -1.057612E+06 -2.868579E+03 -1.239733E+04  1.321817E+04  9.536599E+03  6.877305E+03
       373  23 -1.056780E+06  5.524980E+02 -6.603122E+03 -5.497213E+03  6.200497E+03  5.805877E+03
       373  24 -1.057609E+06  2.969034E+02 -3.966374E+03  1.320226E+04  2.866096E+03  4.567191E+03
       373  25 -1.358842E+06 -7.797977E+04 -8.631341E+04  1.263802E+04  9.207739E+03  6.875890E+03
       373  26 -1.324593E+06 -6.624309E+04 -7.238415E+04 -6.440166E+03  5.816972E+03  5.804042E+03
       373  27 -1.292014E+06 -5.819364E+04 -6.165149E+04  1.189748E+04  2.427725E+03  4.564905E+03
       374   1 -9.020311E+05  3.850316E+04  3.489654E+04  1.418183E+04 -2.637338E+03 -3.829402E+03
       374   2 -9.366541E+05  3.007090E+04  2.764541E+04 -5.465945E+03 -1.696256E+03 -2.600121E+03
       374   3 -9.719495E+05  2.150175E+04  1.963914E+04  1.400849E+04 -7.558473E+02 -1.337360E+03
       374   4 -1.057380E+06 -2.130024E+02 -3.149120E+03  1.358856E+04 -2.231793E+03 -3.827207E+03
       374   5 -1.057042E+06  5.044860E+01 -1.918875E+03 -5.973860E+03 -1.279697E+03 -2.597796E+03
       374   6 -1.057380E+06  1.751022E+02 -1.451515E+03  1.358640E+04 -3.282204E+02 -1.334899E+03
       374   7 -1.212708E+06 -3.893096E+04 -4.119654E+04  1.299541E+04 -1.826348E+03 -3.825012E+03
       374   8 -1.177417E+06 -2.997108E+04 -3.148423E+04 -6.481695E+03 -8.632175E+02 -2.595472E+03
       374   9 -1.142803E+06 -2.115209E+04 -2.254271E+04  1.316436E+04  9.934768E+01 -1.332438E+03
       374  10 -9.020311E+05  3.850315E+04  3.489650E+04  1.418182E+04  9.606908E-10 -1.357363E-08
       374  11 -9.366541E+05  3.007089E+04  2.764540E+04 -5.465949E+03 -5.812428E-09  7.020265E-09
       374  12 -9.719495E+05  2.150175E+04  1.963913E+04  1.400849E+04 -5.987668E-09  7.433112E-09
       374  13 -1.057380E+06 -2.130194E+02 -3.149157E+03  1.358856E+04  2.972182E-09  3.178748E-09
       374  14 -1.057042E+06  5.044091E+01 -1.918890E+03 -5.973863E+03  6.805226E-10 -5.628124E-09
       374  15 -1.057380E+06  1.751003E+02 -1.451519E+03  1.358640E+04  3.261979E-10 -1.041306E-08
       374  16 -1.212708E+06 -3.893097E+04 -4.119658E+04  1.299540E+04 -1.000835E-09  5.285619E-09
       374  17 -1.177417E+06 -2.997109E+04 -3.148424E+04 -6.481697E+03  1.955849E-09  1.623874E-08
       374  18 -1.142803E+06 -2.115209E+04 -2.254271E+04  1.316436E+04  7.824095E-09 -3.786379E-09
       374  19 -9.020311E+05  3.850316E+04  3.489654E+04  1.418183E+04  2.637338E+03  3.829402E+03
       374  20 -9.366541E+05  3.007090E+04  2.764541E+04 -5.465945E+03  1.696256E+03  2.600121E+03
       374  21 -9.719495E+05  2.150175E+04  1.963914E+04  1.400849E+04  7.558473E+02  1.337360E+03
       374  22 -1.057380E+06 -2.130024E+02 -3.149120E+03  1.358856E+04  2.231793E+03  3.827207E+03
       374  23 -1.057042E+06  5.044860E+01 -1.918875E+03 -5.973860E+03  1.279697E+03  2.597796E+03
       374  24 -1.057380E+06  1.751022E+02 -1.451515E+03  1.358640E+04  3.282204E+02  1.334899E+03
       374  25 -1.212708E+06 -3.893096E+04 -4.119654E+04  1.299541E+04  1.826348E+03  3.825012E+03
       374  26 -1.177417E+06 -2.997108E+04 -3.148423E+04 -6.481695E+03  8.632175E+02  2.595472E+03
       374  27 -1.142803E+06 -2.115209E+04 -2.254271E+04  1.316436E+04 -9.934768E+01  1.332438E+03
       375   1 -1.053228E+06  1.164438E+03 -4.756591E+02  1.365682E+04 -5.032524E+02 -5.935408E+02
       375   2 -1.088205E+06 -7.740152E+03 -9.184217E+03 -6.215129E+03  2.596715E+02  6.728366E+02
       375   3 -1.123844E+06 -1.663138E+04 -1.850485E+04  1.343101E+04  1.022744E+03  1.923437E+03
       375   4 -1.057375E+06  1.528416E+02 -1.384212E+03  1.367456E+04 -7.714224E+01 -5.910671E+02
       375   5 -1.057044E+06  3.108311E+01 -1.531196E+03 -6.083761E+03  6.804981E+02  6.752592E+02
       375   6 -1.057375E+06 -7.641613E+01 -2.286603E+03  1.367587E+04  1.438330E+03  1.925813E+03
       375   7 -1.061521E+06 -8.587556E+02 -2.292764E+03  1.369230E+04  3.489651E+02 -5.885933E+02
       375   8 -1.025881E+06  7.802246E+03  6.121754E+03 -5.952388E+03  1.101346E+03  6.776820E+02
       375   9 -9.909020E+05  1.647822E+04  1.393132E+04  1.392076E+04  1.853961E+03  1.928189E+03
       375  10 -1.053228E+06  1.164437E+03 -4.756603E+02  1.365682E+04 -5.921336E-09  6.361727E-10
       375  11 -1.088205E+06 -7.740153E+03 -9.184218E+03 -6.215129E+03 -2.577946E-09 -8.374562E-09
       375  12 -1.123844E+06 -1.663138E+04 -1.850485E+04  1.343100E+04 -9.568850E-09 -6.427494E-09
       375  13 -1.057375E+06  1.528412E+02 -1.384212E+03  1.367456E+04  1.256613E-09  8.514999E-09
       375  14 -1.057044E+06  3.108250E+01 -1.531198E+03 -6.083762E+03  2.148474E-09 -5.106173E-09
       375  15 -1.057375E+06 -7.642067E+01 -2.286614E+03  1.367587E+04 -4.244771E-10 -7.283966E-09
       375  16 -1.061521E+06 -8.587560E+02 -2.292765E+03  1.369230E+04  3.033289E-09 -2.090031E-09
       375  17 -1.025881E+06  7.802245E+03  6.121751E+03 -5.952388E+03  2.080324E-09 -2.364717E-08
       375  18 -9.909020E+05  1.647821E+04  1.393130E+04  1.392075E+04  1.243967E-08 -1.410606E-08
       375  19 -1.053228E+06  1.164438E+03 -4.756591E+02  1.365682E+04  5.032524E+02  5.935408E+02
       375  20 -1.088205E+06 -7.740152E+03 -9.184217E+03 -6.215129E+03 -2.596715E+02 -6.728366E+02
       375  21 -1.123844E+06 -1.663138E+04 -1.850485E+04  1.343101E+04 -1.022744E+03 -1.923437E+03
       375  22 -1.057375E+06  1.528416E+02 -1.384212E+03  1.367456E+04  7.714224E+01  5.910671E+02
       375  23 -1.057044E+06  3.108311E+01 -1.531196E+03 -6.083761E+03 -6.804981E+02 -6.752592E+02
       375  24 -1.057375E+06 -7.641613E+01 -2.286603E+03  1.367587E+04 -1.438330E+03 -1.925813E+03
       375  25 -1.061521E+06 -8.587556E+02 -2.292764E+03  1.369230E+04 -3.489651E+02  5.885933E+02
       375  26 -1.025881E+06  7.802246E+03  6.121754E+03 -5.952388E+03 -1.101346E+03 -6.776820E+02
       375  27 -9.909020E+05  1.647822E+04  1.393132E+04  1.392076E+04 -1.853961E+03 -1.928189E+03
       376   1 -1.204705E+06 -3.646263E+04 -3.907713E+04  1.259829E+04  1.449533E+03  2.675336E+03
       376   2 -1.238495E+06 -4.492769E+04 -4.919391E+04 -6.501061E+03  3.807090E+03  3.939243E+03
       376   3 -1.273638E+06 -5.577980E+04 -6.153878E+04  1.297842E+04  6.165931E+03  5.065427E+03
       376   4 -1.057532E+06  2.682212E+02 -2.819226E+03  1.346218E+04  1.892535E+03  2.677818E+03
       376   5 -1.056861E+06  3.720699E+02 -4.583083E+03 -5.821043E+03  4.204486E+03  3.941360E+03
       376   6 -1.057534E+06 -1.902470E+03 -8.542586E+03  1.347388E+04  6.517852E+03  5.067198E+03
       376   7 -9.103391E+05  3.699746E+04  3.343708E+04  1.432624E+04  2.335641E+03  2.680302E+03
       376   8 -8.751957E+05  4.566938E+04  4.002532E+04 -5.140867E+03  4.601998E+03  3.943478E+03
       376   9 -8.413871E+05  5.197139E+04  4.445018E+04  1.396945E+04  6.869895E+03  5.068970E+03
       376  10 -1.204705E+06 -3.646264E+04 -3.907715E+04  1.259829E+04 -6.075057E-09  4.711109E-09
       376  11 -1.238495E+06 -4.492771E+04 -4.919397E+04 -6.501073E+03 -3.435695E-09 -1.351136E-08
       376  12 -1.273638E+06 -5.577984E+04 -6.153890E+04  1.297840E+04 -8.554204E-10 -2.446520E-09
       376  13 -1.057532E+06  2.682126E+02 -2.819246E+03  1.346217E+04  3.023363E-09  3.241022E-10
       376  14 -1.056861E+06  3.720485E+02 -4.583145E+03 -5.821056E+03  3.975688E-10  8.056683E-09
       376  15 -1.057534E+06 -1.902509E+03 -8.542714E+03  1.347385E+04 -1.297756E-09  8.828659E-09
       376  16 -9.103391E+05  3.699745E+04  3.343706E+04  1.432623E+04  5.263885E-09  4.717030E-09
       376  17 -8.751958E+05  4.566936E+04  4.002525E+04 -5.140882E+03  9.074918E-10 -1.005398E-08
       376  18 -8.413872E+05  5.197135E+04  4.445004E+04  1.396942E+04  2.753730E-09  1.170327E-08
       376  19 -1.204705E+06 -3.646263E+04 -3.907713E+04  1.259829E+04 -1.449533E+03 -2.675336E+03
       376  20 -1.238495E+06 -4.492769E+04 -4.919391E+04 -6.501061E+03 -3.807090E+03 -3.939243E+03
       376  21 -1.273638E+06 -5.577980E+04 -6.153878E+04  1.297842E+04 -6.165931E+03 -5.065427E+03
       376  22 -1.057532E+06  2.682212E+02 -2.819226E+03  1.346218E+04 -1.892535E+03 -2.677818E+03
       376  23 -1.056861E+06  3.720699E+02 -4.583083E+03 -5.821043E+03 -4.204486E+03 -3.941360E+03
       376  24 -1.057534E+06 -1.902470E+03 -8.542586E+03  1.347388E+04 -6.517852E+03 -5.067198E+03
       376  25 -9.103391E+05  3.699746E+04  3.343708E+04  1.432624E+04 -2.335641E+03 -2.680302E+03
       376  26 -8.751957E+05  4.566938E+04  4.002532E+04 -5.140867E+03 -4.601998E+03 -3.943478E+03
       376  27 -8.413871E+05  5.197139E+04  4.445018E+04  1.396945E+04 -6.869895E+03 -5.068970E+03
       377   1 -1.352203E+06 -7.240203E+04 -8.293740E+04  1.010018E+04  7.649744E+03  5.918046E+03
       377   2 -1.381333E+06 -7.821945E+04 -9.771512E+04 -5.589595E+03  1.714177E+04  7.195784E+03
       377   3 -1.417172E+06 -1.051891E+05 -1.240099E+05  1.509495E+04  2.663902E+04  7.465813E+03
       377   4 -1.058723E+06  8.398783E+02 -1.074755E+04  1.294993E+04  8.233624E+03  5.920943E+03
       377   5 -1.055405E+06  3.060439E+03 -1.767691E+04 -5.197602E+03  1.739191E+04  7.196753E+03
       377   6 -1.058735E+06 -1.580683E+04 -3.588672E+04  1.302811E+04  2.655592E+04  7.465012E+03
       377   7 -7.651640E+05  7.407539E+04  6.143595E+04  1.580093E+04  8.817780E+03  5.923844E+03
       377   8 -7.293797E+05  8.433242E+04  6.235347E+04 -4.805522E+03  1.764218E+04  7.197721E+03
       377   9 -7.001802E+05  7.356592E+04  5.222702E+04  1.095994E+04  2.647278E+04  7.464212E+03
       377  10 -1.352203E+06 -7.240209E+04 -8.293758E+04  1.010015E+04  7.689741E-09 -3.051049E-09
       377  11 -1.381333E+06 -7.821958E+04 -9.771577E+04 -5.589694E+03 -2.650306E-09  1.169332E-08
       377  12 -1.417173E+06 -1.051894E+05 -1.240114E+05  1.509479E+04 -8.567951E-10 -3.750023E-09
       377  13 -1.058723E+06  8.398224E+02 -1.074774E+04  1.294989E+04  1.944242E-09 -8.509110E-09
       377  14 -1.055405E+06  3.060302E+03 -1.767758E+04 -5.197703E+03  1.805138E-09  4.259212E-09
       377  15 -1.058735E+06 -1.580708E+04 -3.588815E+04  1.302795E+04  7.585446E-11 -1.693283E-09
       377  16 -7.651641E+05  7.407534E+04  6.143574E+04  1.580089E+04 -9.230452E-09 -7.625044E-09
       377  17 -7.293801E+05  8.433228E+04  6.235279E+04 -4.805624E+03  1.270681E-10 -2.323223E-08
       377  18 -7.001810E+05  7.356567E+04  5.222560E+04  1.095978E+04  4.305011E-09  6.101615E-10
       377  19 -1.352203E+06 -7.240203E+04 -8.293740E+04  1.010018E+04 -7.649744E+03 -5.918046E+03
       377  20 -1.381333E+06 -7.821945E+04 -9.771512E+04 -5.589595E+03 -1.714177E+04 -7.195784E+03
       377  21 -1.417172E+06 -1.051891E+05 -1.240099E+05  1.509495E+04 -2.663902E+04 -7.465813E+03
       377  22 -1.058723E+06  8.398783E+02 -1.074755E+04  1.294993E+04 -8.233624E+03 -5.920943E+03
       377  23 -1.055405E+06  3.060439E+03 -1.767691E+04 -5.197602E+03 -1.739191E+04 -7.196753E+03
       377  24 -1.058735E+06 -1.580683E+04 -3.588672E+04  1.302811E+04 -2.655592E+04 -7.465012E+03
       377  25 -7.651640E+05  7.407539E+04  6.143595E+04  1.580093E+04 -8.817780E+03 -5.923844E+03
       377  26 -7.293797E+05  8.433242E+04  6.235347E+04 -4.805522E+03 -1.764218E+04 -7.197721E+03
       377  27 -7.001802E+05  7.356592E+04  5.222702E+04  1.095994E+04 -2.647278E+04 -7.464212E+03
       378   1 -1.497206E+06 -1.019403E+05 -1.492128E+05 -1.894520E+03  3.159375E+04  9.412760E+03
       378   2 -1.503713E+06 -9.078839E+04 -1.805405E+05  1.722554E+03  7.139205E+04  1.106266E+04
       378   3 -1.556390E+06 -2.442276E+05 -2.789349E+05  3.843817E+04  1.112207E+05  4.085244E+03
       378   4 -1.067399E+06  5.407543E+03 -4.360273E+04  1.208844E+04  3.355154E+04  9.421668E+03
       378   5 -1.044614E+06  2.361251E+04 -6.796784E+04 -4.225775E+03  7.047999E+04  1.105765E+04
       378   6 -1.067466E+06 -1.222106E+05 -1.573689E+05  1.255885E+04  1.074409E+05  4.066549E+03
       378   7 -6.374238E+05  1.127423E+05  6.199380E+04  2.608094E+04  3.551068E+04  9.430662E+03
       378   8 -5.853219E+05  1.379979E+05  4.458938E+04 -1.017871E+04  6.956724E+04  1.105266E+04
       378   9 -5.783223E+05 -2.089541E+02 -3.582028E+04 -1.334110E+04  1.036581E+05  4.048179E+03
       378  10 -1.497207E+06 -1.019407E+05 -1.492148E+05 -1.894760E+03  1.067154E-09 -6.420928E-09
       378  11 -1.503719E+06 -9.078989E+04 -1.805503E+05  1.721918E+03  2.117582E-09 -1.697412E-09
       378  12 -1.556404E+06 -2.442310E+05 -2.789583E+05  3.843781E+04  4.732034E-09  1.090560E-08
       378  13 -1.067401E+06  5.407145E+03 -4.360502E+04  1.208819E+04  2.375717E-09  9.767302E-09
       378  14 -1.044619E+06  2.361105E+04 -6.797742E+04 -4.226403E+03  2.107978E-09  4.769509E-09
       378  15 -1.067478E+06 -1.222137E+05 -1.573906E+05  1.255850E+04 -1.344616E-09  4.139897E-09
       378  16 -6.374252E+05  1.127419E+05  6.199126E+04  2.608067E+04 -2.026293E-09  9.754506E-09
       378  17 -5.853271E+05  1.379965E+05  4.458004E+04 -1.017933E+04 -4.467607E-09  1.459394E-08
       378  18 -5.783338E+05 -2.118596E+02 -3.584052E+04 -1.334144E+04 -3.287867E-09 -6.013799E-10
       378  19 -1.497206E+06 -1.019403E+05 -1.492128E+05 -1.894520E+03 -3.159375E+04 -9.412760E+03
       378  20 -1.503713E+06 -9.078839E+04 -1.805405E+05  1.722554E+03 -7.139205E+04 -1.106266E+04
       378  21 -1.556390E+06 -2.442276E+05 -2.789349E+05  3.843817E+04 -1.112207E+05 -4.085244E+03
       378  22 -1.067399E+06  5.407543E+03 -4.360273E+04  1.208844E+04 -3.355154E+04 -9.421668E+03
       378  23 -1.044614E+06  2.361251E+04 -6.796784E+04 -4.225775E+03 -7.047999E+04 -1.105765E+04
       378  24 -1.067466E+06 -1.222106E+05 -1.573689E+05  1.255885E+04 -1.074409E+05 -4.066549E+03
       378  25 -6.374238E+05  1.127423E+05  6.199380E+04  2.608094E+04 -3.551068E+04 -9.430662E+03
       378  26 -5.853219E+05  1.379979E+05  4.458938E+04 -1.017871E+04 -6.956724E+04 -1.105266E+04
       378  27 -5.783223E+05 -2.089541E+02 -3.582028E+04 -1.334110E+04 -1.036581E+05 -4.048179E+03
       379   1 -1.488746E+05 -5.700071E+05 -1.426213E+05  1.346927E+05 -5.995855E+03 -5.197063E+04
       379   2 -1.085637E+05 -4.640749E+05 -8.983163E+04  1.204645E+05 -1.930565E+04 -2.335563E+04
       379   3 -7.971193E+04 -3.645975E+05 -5.854472E+04  1.244253E+05 -2.052262E+04  5.298049E+03
       379   4 -1.560084E+04 -3.078349E+04 -1.598442E+04  1.239346E+05 -6.092740E+03 -1.219610E+04
       379   5 -5.110058E+03 -2.970335E+04 -7.217463E+03  1.148568E+05 -1.934007E+04 -8.517423E+03
       379   6 -1.742304E+03 -3.075392E+04 -2.624294E+03  1.239683E+05 -2.049800E+04 -4.805680E+03
       379   7  1.176535E+05  5.087116E+05  1.106386E+05  1.131672E+05 -6.190964E+03  2.761279E+04
       379   8  9.833276E+04  4.048507E+05  7.538908E+04  1.092451E+05 -1.937475E+04  6.330924E+03
       379   9  7.622155E+04  3.031999E+05  5.329305E+04  1.235112E+05 -2.047338E+04 -1.491467E+04
       379  10 -1.488754E+05 -5.700100E+05 -1.426265E+05  1.346925E+05 -9.779808E-10 -3.498640E-10
       379  11 -1.085643E+05 -4.640756E+05 -8.983335E+04  1.204641E+05 -1.326953E-09 -3.368392E-09
       379  12 -7.971239E+04 -3.645976E+05 -5.854556E+04  1.244254E+05 -1.288455E-09 -7.135403E-09
       379  13 -1.560092E+04 -3.078366E+04 -1.598476E+04  1.239345E+05  1.174612E-09 -2.149617E-09
       379  14 -5.110479E+03 -2.970353E+04 -7.218302E+03  1.148566E+05 -5.130213E-09 -3.898386E-09
       379  15 -1.742761E+03 -3.075406E+04 -2.625127E+03  1.239682E+05 -2.354952E-09  1.651228E-09
       379  16  1.176532E+05  5.087108E+05  1.106371E+05  1.131673E+05  6.293667E-10  3.761677E-09
       379  17  9.833235E+04  4.048506E+05  7.538829E+04  1.092452E+05 -8.857832E-11  3.352284E-09
       379  18  7.622104E+04  3.031995E+05  5.329184E+04  1.235109E+05 -5.691588E-09  6.854313E-09
       379  19 -1.488746E+05 -5.700071E+05 -1.426213E+05  1.346927E+05  5.995855E+03  5.197063E+04
       379  20 -1.085637E+05 -4.640749E+05 -8.983163E+04  1.204645E+05  1.930565E+04  2.335563E+04
       379  21 -7.971193E+04 -3.645975E+05 -5.854472E+04  1.244253E+05  2.052262E+04 -5.298049E+03
       379  22 -1.560084E+04 -3.078349E+04 -1.598442E+04  1.239346E+05  6.092740E+03  1.219610E+04
       379  23 -5.110058E+03 -2.970335E+04 -7.217463E+03  1.148568E+05  1.934007E+04  8.517423E+03
       379  24 -1.742304E+03 -3.075392E+04 -2.624294E+03  1.239683E+05  2.049800E+04  4.805680E+03
       379  25  1.176535E+05  5.087116E+05  1.106386E+05  1.131672E+05  6.190964E+03 -2.761279E+04
       379  26  9.833276E+04  4.048507E+05  7.538908E+04  1.092451E+05  1.937475E+04 -6.330924E+03
       379  27  7.622155E+04  3.031999E+05  5.329305E+04  1.235112E+05  2.047338E+04  1.491467E+04
       380   1 -6.401783E+04 -2.986967E+05 -4.493343E+04  1.249364E+05 -1.721213E+04  5.401280E+03
       380   2 -3.841296E+04 -1.961180E+05 -2.282045E+04  1.156751E+05 -1.196656E+04  5.816491E+03
       380   3 -1.240682E+04 -9.335848E+04 -8.453232E+02  1.254386E+05 -5.907177E+03  6.233227E+03
       380   4 -1.492113E+03 -3.017038E+04 -8.999015E+02  1.241500E+05 -1.718837E+04 -4.585147E+03
       380   5 -1.840472E+02 -3.039590E+04  2.554603E+03  1.146417E+05 -1.193951E+04 -5.849989E+03
       380   6  1.817542E+03 -3.015882E+04  7.038377E+03  1.241578E+05 -5.876962E+03 -7.113381E+03
       380   7  6.102996E+04  2.384276E+05  4.313192E+04  1.233633E+05 -1.716460E+04 -1.457575E+04
       380   8  3.804361E+04  1.353540E+05  2.792957E+04  1.136080E+05 -1.191243E+04 -1.751946E+04
       380   9  1.604184E+04  3.304534E+04  1.492274E+04  1.228769E+05 -5.846693E+03 -2.046128E+04
       380  10 -6.401816E+04 -2.986968E+05 -4.493404E+04  1.249365E+05 -1.051362E-09 -2.420141E-08
       380  11 -3.841312E+04 -1.961181E+05 -2.282078E+04  1.156751E+05 -2.742101E-09  2.610259E-09
       380  12 -1.240686E+04 -9.335854E+04 -8.454618E+02  1.254386E+05 -6.298624E-09  3.152263E-08
       380  13 -1.492436E+03 -3.017049E+04 -9.004961E+02  1.241500E+05 -4.980717E-10  1.066690E-09
       380  14 -1.842094E+02 -3.039597E+04  2.554271E+03  1.146416E+05  1.051514E-08 -1.611175E-09
       380  15  1.817491E+03 -3.015888E+04  7.038217E+03  1.241578E+05  1.253444E-08  1.737086E-09
       380  16  6.102959E+04  2.384272E+05  4.313096E+04  1.233631E+05 -3.499775E-09  2.580456E-08
       380  17  3.804338E+04  1.353536E+05  2.792872E+04  1.136079E+05 -4.319684E-09 -2.108536E-09
       380  18  1.604169E+04  3.304488E+04  1.492189E+04  1.228768E+05 -7.570033E-09 -3.218548E-08
       380  19 -6.401783E+04 -2.986967E+05 -4.493343E+04  1.249364E+05  1.721213E+04 -5.401280E+03
       380  20 -3.841296E+04 -1.961180E+05 -2.282045E+04  1.156751E+05  1.196656E+04 -5.816491E+03
       380  21 -1.240682E+04 -9.335848E+04 -8.453232E+02  1.254386E+05  5.907177E+03 -6.233227E+03
       380  22 -1.492113E+03 -3.017038E+04 -8.999015E+02  1.241500E+05  1.718837E+04  4.585147E+03
       380  23 -1.840472E+02 -3.039590E+04  2.554603E+03  1.146417E+05  1.193951E+04  5.849989E+03
       380  24  1.817542E+03 -3.015882E+04  7.038377E+03  1.241578E+05  5.876962E+03  7.113381E+03
       380  25  6.102996E+04  2.384276E+05  4.313192E+04  1.233633E+05  1.716460E+04  1.457575E+04
       380  26  3.804361E+04  1.353540E+05  2.792957E+04  1.136080E+05  1.191243E+04  1.751946E+04
       380  27  1.604184E+04  3.304534E+04  1.492274E+04  1.228769E+05  5.846693E+03  2.046128E+04
       381   1  3.315019E+03 -2.724026E+04  1.292629E+04  1.238545E+05 -1.891757E+03  5.042659E+03
       381   2  3.579423E+04  7.175934E+04  4.235102E+04  1.265192E+05  2.166190E+03 -1.505753E+04
       381   3  8.743822E+04  1.782949E+05  8.968131E+04  1.479761E+05  1.279151E+03 -3.517340E+04
       381   4  2.373023E+03 -2.898127E+04  9.964049E+03  1.240981E+05 -1.861539E+03 -8.341581E+03
       381   5  1.053084E+04 -3.186348E+04  1.932607E+04  1.147427E+05  2.173752E+03 -1.823513E+04
       381   6  3.608425E+04 -2.898758E+04  3.950795E+04  1.241777E+05  1.264456E+03 -2.814116E+04
       381   7  1.431122E+03 -3.072190E+04  7.002489E+03  1.243418E+05 -1.831332E+03 -2.172576E+04
       381   8 -1.473275E+04 -1.354760E+05 -3.699433E+03  1.029681E+05  2.181434E+03 -2.141221E+04
       381   9 -1.527068E+04 -2.362295E+05 -1.066799E+04  1.003874E+05  1.249220E+03 -2.111127E+04
       381  10  3.315009E+03 -2.724029E+04  1.292623E+04  1.238545E+05 -4.327071E-09 -3.581212E-08
       381  11  3.579417E+04  7.175910E+04  4.235059E+04  1.265193E+05 -2.317689E-09 -1.062008E-08
       381  12  8.743789E+04  1.782936E+05  8.967898E+04  1.479762E+05 -5.132757E-10  2.030375E-08
       381  13  2.373001E+03 -2.898135E+04  9.963912E+03  1.240981E+05  9.296475E-09 -1.081264E-09
       381  14  1.053074E+04 -3.186384E+04  1.932544E+04  1.147427E+05  7.101373E-09 -3.752444E-09
       381  15  3.608404E+04 -2.898844E+04  3.950646E+04  1.241778E+05  1.535130E-09  1.596772E-09
       381  16  1.430991E+03 -3.072241E+04  7.001596E+03  1.243417E+05 -7.979765E-09  3.740859E-08
       381  17 -1.473288E+04 -1.354765E+05 -3.700303E+03  1.029682E+05 -1.703928E-09  7.907629E-09
       381  18 -1.527080E+04 -2.362299E+05 -1.066883E+04  1.003874E+05 -2.774963E-10 -1.981734E-08
       381  19  3.315019E+03 -2.724026E+04  1.292629E+04  1.238545E+05  1.891757E+03 -5.042659E+03
       381  20  3.579423E+04  7.175934E+04  4.235102E+04  1.265192E+05 -2.166190E+03  1.505753E+04
       381  21  8.743822E+04  1.782949E+05  8.968131E+04  1.479761E+05 -1.279151E+03  3.517340E+04
       381  22  2.373023E+03 -2.898127E+04  9.964049E+03  1.240981E+05  1.861539E+03  8.341581E+03
       381  23  1.053084E+04 -3.186348E+04  1.932607E+04  1.147427E+05 -2.173752E+03  1.823513E+04
       381  24  3.608425E+04 -2.898758E+04  3.950795E+04  1.241777E+05 -1.264456E+03  2.814116E+04
       381  25  1.431122E+03 -3.072190E+04  7.002489E+03  1.243418E+05  1.831332E+03  2.172576E+04
       381  26 -1.473275E+04 -1.354760E+05 -3.699433E+03  1.029681E+05 -2.181434E+03  2.141221E+04
       381  27 -1.527068E+04 -2.362295E+05 -1.066799E+04  1.003874E+05 -1.249220E+03  2.111127E+04
       382   1  1.549558E+06  5.393360E+05  3.727023E+05  5.255648E+05  1.649238E+05  5.848188E+04
       382   2  1.490396E+06  2.842123E+05  2.145546E+05  5.470800E+05  1.075909E+05  2.934244E+04
       382   3  1.507069E+06  2.978752E+05  1.679386E+05  5.329578E+05  4.721978E+04  8.238201E+03
       382   4  1.138310E+06  3.458416E+05  2.526983E+05  3.743132E+05  1.615261E+05  5.718404E+04
       382   5  1.087801E+06  1.217559E+05  1.039397E+05  4.261767E+05  1.067616E+05  2.902572E+04
       382   6  1.112678E+06  1.660435E+05  6.473716E+04  4.423870E+05  4.895656E+04  8.898015E+03
       382   7  7.272311E+05  1.523868E+05  1.326786E+05  2.231617E+05  1.581308E+05  5.588763E+04
       382   8  6.853621E+05 -4.068429E+04 -6.689891E+03  3.053462E+05  1.059329E+05  2.870924E+04
       382   9  7.184357E+05  3.421290E+04 -3.847734E+04  3.518637E+05  5.069212E+04  9.557492E+03
       382  10  1.549528E+06  5.393251E+05  3.726449E+05  5.255570E+05 -1.339793E-09  3.886903E-09
       382  11  1.490383E+06  2.842082E+05  2.145313E+05  5.470775E+05 -3.089712E-09  1.350530E-08
       382  12  1.507067E+06  2.978746E+05  1.679343E+05  5.329575E+05  2.724070E-10  3.379480E-09
       382  13  1.138282E+06  3.458311E+05  2.526433E+05  3.743058E+05  2.365282E-11 -7.555915E-09
       382  14  1.087788E+06  1.217520E+05  1.039167E+05  4.261742E+05 -7.499328E-09 -1.237682E-08
       382  15  1.112676E+06  1.660428E+05  6.473252E+04  4.423866E+05 -5.198095E-09  2.015789E-10
       382  16  7.272034E+05  1.523768E+05  1.326258E+05  2.231546E+05 -5.770928E-10 -7.833612E-09
       382  17  6.853498E+05 -4.068819E+04 -6.712497E+03  3.053438E+05 -3.956454E-09 -1.662270E-08
       382  18  7.184329E+05  3.421211E+04 -3.848233E+04  3.518634E+05 -2.882736E-09 -9.807399E-09
       382  19  1.549558E+06  5.393360E+05  3.727023E+05  5.255648E+05 -1.649238E+05 -5.848188E+04
       382  20  1.490396E+06  2.842123E+05  2.145546E+05  5.470800E+05 -1.075909E+05 -2.934244E+04
       382  21  1.507069E+06  2.978752E+05  1.679386E+05  5.329578E+05 -4.721978E+04 -8.238201E+03
       382  22  1.138310E+06  3.458416E+05  2.526983E+05  3.743132E+05 -1.615261E+05 -5.718404E+04
       382  23  1.087801E+06  1.217559E+05  1.039397E+05  4.261767E+05 -1.067616E+05 -2.902572E+04
       382  24  1.112678E+06  1.660435E+05  6.473716E+04  4.423870E+05 -4.895656E+04 -8.898015E+03
       382  25  7.272311E+05  1.523868E+05  1.326786E+05  2.231617E+05 -1.581308E+05 -5.588763E+04
       382  26  6.853621E+05 -4.068429E+04 -6.689891E+03  3.053462E+05 -1.059329E+05 -2.870924E+04
       382  27  7.184357E+05  3.421290E+04 -3.847734E+04  3.518637E+05 -5.069212E+04 -9.557492E+03
       383   1  1.416475E+06  3.164925E+05  1.383352E+05  5.159479E+05  3.878173E+04  7.138160E+03
       383   2  1.396291E+06  2.655859E+05  1.029855E+05  5.027228E+05  2.552548E+04  2.237267E+03
       383   3  1.368781E+06  2.688786E+05  8.642833E+04  5.056588E+05  1.194041E+04 -1.797522E+03
       383   4  1.105066E+06  1.936775E+05  5.309279E+04  4.254005E+05  3.866783E+04  7.094318E+03
       383   5  1.107048E+06  1.546980E+05  2.452657E+04  4.218423E+05  2.569092E+04  2.299806E+03
       383   6  1.101654E+06  1.698724E+05  1.453905E+04  4.344439E+05  1.238461E+04 -1.628784E+03
       383   7  7.937497E+05  7.087047E+04 -3.215843E+04  3.348948E+05  3.855399E+04  7.050500E+03
       383   8  8.178853E+05  4.381572E+04 -5.393976E+04  3.409958E+05  2.585627E+04  2.362310E+03
       383   9  8.345962E+05  7.086989E+04 -5.735638E+04  3.632562E+05  1.282859E+04 -1.460122E+03
       383  10  1.416473E+06  3.164921E+05  1.383323E+05  5.159476E+05  2.268913E-09  3.328499E-09
       383  11  1.396290E+06  2.655857E+05  1.029842E+05  5.027228E+05  1.169776E-09 -2.081153E-10
       383  12  1.368781E+06  2.688785E+05  8.642805E+04  5.056588E+05  7.073653E-10 -5.110812E-09
       383  13  1.105064E+06  1.936770E+05  5.308989E+04  4.254003E+05  1.472339E-10  6.673274E-10
       383  14  1.107047E+06  1.546978E+05  2.452533E+04  4.218422E+05 -4.082586E-09 -2.023327E-08
       383  15  1.101654E+06  1.698723E+05  1.453876E+04  4.344439E+05  3.261992E-09  1.331973E-09
       383  16  7.937481E+05  7.087002E+04 -3.216132E+04  3.348946E+05 -5.936166E-09 -2.183207E-09
       383  17  8.178846E+05  4.381553E+04 -5.394102E+04  3.409957E+05  2.288399E-09 -6.524648E-09
       383  18  8.345960E+05  7.086984E+04 -5.735670E+04  3.632562E+05  6.355351E-09  8.319147E-09
       383  19  1.416475E+06  3.164925E+05  1.383352E+05  5.159479E+05 -3.878173E+04 -7.138160E+03
       383  20  1.396291E+06  2.655859E+05  1.029855E+05  5.027228E+05 -2.552548E+04 -2.237267E+03
       383  21  1.368781E+06  2.688786E+05  8.642833E+04  5.056588E+05 -1.194041E+04  1.797522E+03
       383  22  1.105066E+06  1.936775E+05  5.309279E+04  4.254005E+05 -3.866783E+04 -7.094318E+03
       383  23  1.107048E+06  1.546980E+05  2.452657E+04  4.218423E+05 -2.569092E+04 -2.299806E+03
       383  24  1.101654E+06  1.698724E+05  1.453905E+04  4.344439E+05 -1.238461E+04  1.628784E+03
       383  25  7.937497E+05  7.087047E+04 -3.215843E+04  3.348948E+05 -3.855399E+04 -7.050500E+03
       383  26  8.178853E+05  4.381572E+04 -5.393976E+04  3.409958E+05 -2.585627E+04 -2.362310E+03
       383  27  8.345962E+05  7.086989E+04 -5.735638E+04  3.632562E+05 -1.282859E+04  1.460122E+03
       384   1  1.306605E+06  2.517512E+05  6.722059E+04  4.890534E+05  9.751764E+03 -1.863401E+03
       384   2  1.293139E+06  2.295385E+05  5.552256E+04  4.727032E+05  6.471511E+03 -2.204291E+03
       384   3  1.262292E+06  2.311784E+05  4.724274E+04  4.772660E+05  3.168442E+03 -2.486535E+03
       384   4  1.100871E+06  1.730848E+05  1.150491E+04  4.317250E+05  9.990264E+03 -1.772826E+03
       384   5  1.109341E+06  1.596096E+05  5.755346E+03  4.218587E+05  6.729486E+03 -2.106212E+03
       384   6  1.100425E+06  1.699846E+05  3.409622E+03  4.329056E+05  3.445776E+03 -2.380990E+03
       384   7  8.951771E+05  9.442096E+04 -4.421466E+04  3.744136E+05  1.022868E+04 -1.682284E+03
       384   8  9.255748E+05  8.968281E+04 -4.401493E+04  3.710276E+05  6.987376E+03 -2.008165E+03
       384   9  9.385838E+05  1.087922E+05 -4.042584E+04  3.885554E+05  3.723030E+03 -2.275475E+03
       384  10  1.306605E+06  2.517511E+05  6.722041E+04  4.890534E+05 -1.039803E-08 -1.356928E-08
       384  11  1.293139E+06  2.295385E+05  5.552247E+04  4.727032E+05 -7.096903E-09  5.002915E-09
       384  12  1.262292E+06  2.311784E+05  4.724271E+04  4.772661E+05 -2.341182E-10 -7.045143E-09
       384  13  1.100871E+06  1.730847E+05  1.150472E+04  4.317250E+05 -2.935250E-10  4.841306E-09
       384  14  1.109341E+06  1.596096E+05  5.755253E+03  4.218587E+05  5.733916E-10  4.785091E-09
       384  15  1.100425E+06  1.699845E+05  3.409589E+03  4.329056E+05 -1.312808E-09 -4.042052E-09
       384  16  8.951770E+05  9.442093E+04 -4.421487E+04  3.744136E+05  6.084369E-09  5.279903E-09
       384  17  9.255747E+05  8.968279E+04 -4.401503E+04  3.710276E+05 -3.639668E-09  2.037547E-08
       384  18  9.385838E+05  1.087922E+05 -4.042588E+04  3.885554E+05  3.525810E-10 -1.298776E-09
       384  19  1.306605E+06  2.517512E+05  6.722059E+04  4.890534E+05 -9.751764E+03  1.863401E+03
       384  20  1.293139E+06  2.295385E+05  5.552256E+04  4.727032E+05 -6.471511E+03  2.204291E+03
       384  21  1.262292E+06  2.311784E+05  4.724274E+04  4.772660E+05 -3.168442E+03  2.486535E+03
       384  22  1.100871E+06  1.730848E+05  1.150491E+04  4.317250E+05 -9.990264E+03  1.772826E+03
       384  23  1.109341E+06  1.596096E+05  5.755346E+03  4.218587E+05 -6.729486E+03  2.106212E+03
       384  24  1.100425E+06  1.699846E+05  3.409622E+03  4.329056E+05 -3.445776E+03  2.380990E+03
       384  25  8.951771E+05  9.442096E+04 -4.421466E+04  3.744136E+05 -1.022868E+04  1.682284E+03
       384  26  9.255748E+05  8.968281E+04 -4.401493E+04  3.710276E+05 -6.987376E+03  2.008165E+03
       384  27  9.385838E+05  1.087922E+05 -4.042584E+04  3.885554E+05 -3.723030E+03  2.275475E+03
       385   1  1.207669E+06  2.109567E+05  3.165395E+04  4.619877E+05  2.491063E+03 -2.173372E+03
       385   2  1.195794E+06  1.933570E+05  2.502561E+04  4.460342E+05  1.352049E+03 -1.672580E+03
       385   3  1.165981E+06  1.947183E+05  1.919218E+04  4.504941E+05  2.175200E+02 -1.184143E+03
       385   4  1.100491E+06  1.701707E+05  2.708951E+03  4.323123E+05  2.750020E+03 -2.074773E+03
       385   5  1.109436E+06  1.605227E+05  1.644463E+03  4.221692E+05  1.607258E+03 -1.575369E+03
       385   6  1.100443E+06  1.698369E+05  1.378011E+03  4.324396E+05  4.689469E+02 -1.088331E+03
       385   7  9.933243E+05  1.293855E+05 -2.623702E+04  4.026416E+05  3.008928E+03 -1.976194E+03
       385   8  1.023086E+06  1.276890E+05 -2.173735E+04  3.983072E+05  1.862427E+03 -1.478173E+03
       385   9  1.034909E+06  1.449557E+05 -1.643657E+04  4.143868E+05  7.203450E+02 -9.925300E+02
       385  10  1.207669E+06  2.109567E+05  3.165393E+04  4.619877E+05 -7.744038E-09 -1.028141E-08
       385  11  1.195794E+06  1.933570E+05  2.502560E+04  4.460342E+05 -1.553140E-09  1.917366E-08
       385  12  1.165981E+06  1.947183E+05  1.919217E+04  4.504941E+05  8.150009E-09 -4.490103E-09
       385  13  1.100491E+06  1.701707E+05  2.708929E+03  4.323123E+05  2.932555E-10 -7.577246E-09
       385  14  1.109436E+06  1.605227E+05  1.644454E+03  4.221692E+05  2.038855E-09  2.447339E-08
       385  15  1.100443E+06  1.698369E+05  1.378009E+03  4.324396E+05 -3.822991E-09 -1.195214E-08
       385  16  9.933243E+05  1.293855E+05 -2.623704E+04  4.026416E+05  1.091245E-08 -1.033378E-09
       385  17  1.023086E+06  1.276890E+05 -2.173736E+04  3.983072E+05 -5.681854E-09 -8.466132E-09
       385  18  1.034909E+06  1.449557E+05 -1.643657E+04  4.143868E+05 -1.008115E-08  6.633771E-09
       385  19  1.207669E+06  2.109567E+05  3.165395E+04  4.619877E+05 -2.491063E+03  2.173372E+03
       385  20  1.195794E+06  1.933570E+05  2.502561E+04  4.460342E+05 -1.352049E+03  1.672580E+03
       385  21  1.165981E+06  1.947183E+05  1.919218E+04  4.504941E+05 -2.175200E+02  1.184143E+03
       385  22  1.100491E+06  1.701707E+05  2.708951E+03  4.323123E+05 -2.750020E+03  2.074773E+03
       385  23  1.109436E+06  1.605227E+05  1.644463E+03  4.221692E+05 -1.607258E+03  1.575369E+03
       385  24  1.100443E+06  1.698369E+05  1.378011E+03  4.324396E+05 -4.689469E+02  1.088331E+03
       385  25  9.933243E+05  1.293855E+05 -2.623702E+04  4.026416E+05 -3.008928E+03  1.976194E+03
       385  26  1.023086E+06  1.276890E+05 -2.173735E+04  3.983072E+05 -1.862427E+03  1.478173E+03
       385  27  1.034909E+06  1.449557E+05 -1.643657E+04  4.143868E+05 -7.203450E+02  9.925300E+02
       386   1  1.113852E+06  1.748559E+05  4.941140E+03  4.361014E+05 -1.912409E+02 -8.071574E+02
       386   2  1.102267E+06  1.579179E+05 -1.236931E+02  4.203230E+05 -1.399930E+03 -3.533395E+02
       386   3  1.073118E+06  1.596549E+05 -4.321573E+03  4.245265E+05 -2.606127E+03  9.415297E+01
       386   4  1.100523E+06  1.697450E+05  1.401619E+03  4.323550E+05  6.135729E+01 -7.108833E+02
       386   5  1.109335E+06  1.606143E+05  1.791769E+03  4.222852E+05 -1.149344E+03 -2.578369E+02
       386   6  1.100583E+06  1.701588E+05  3.050441E+03  4.321970E+05 -2.357586E+03  1.888731E+02
       386   7  1.087195E+06  1.646342E+05 -2.137916E+03  4.286087E+05  3.139495E+02 -6.146116E+02
       386   8  1.116404E+06  1.633107E+05  3.707226E+03  4.242475E+05 -8.987555E+02 -1.623332E+02
       386   9  1.128049E+06  1.806627E+05  1.042237E+04  4.398679E+05 -2.109033E+03  2.835977E+02
       386  10  1.113852E+06  1.748559E+05  4.941138E+03  4.361014E+05  8.770693E-09 -2.156711E-08
       386  11  1.102267E+06  1.579179E+05 -1.236970E+02  4.203230E+05  5.211312E-10 -9.880111E-09
       386  12  1.073118E+06  1.596549E+05 -4.321586E+03  4.245265E+05 -1.067397E-09 -1.137062E-08
       386  13  1.100523E+06  1.697450E+05  1.401618E+03  4.323550E+05  3.597725E-09 -1.841996E-10
       386  14  1.109335E+06  1.606143E+05  1.791767E+03  4.222852E+05 -3.007747E-10 -7.681307E-09
       386  15  1.100583E+06  1.701588E+05  3.050430E+03  4.321970E+05  8.601939E-09  9.898993E-09
       386  16  1.087195E+06  1.646342E+05 -2.137917E+03  4.286087E+05 -3.327533E-09  4.655055E-10
       386  17  1.116404E+06  1.633107E+05  3.707224E+03  4.242475E+05  1.276233E-08  3.268489E-09
       386  18  1.128049E+06  1.806627E+05  1.042237E+04  4.398679E+05  6.770603E-09 -8.086935E-09
       386  19  1.113852E+06  1.748559E+05  4.941140E+03  4.361014E+05  1.912409E+02  8.071574E+02
       386  20  1.102267E+06  1.579179E+05 -1.236931E+02  4.203230E+05  1.399930E+03  3.533395E+02
       386  21  1.073118E+06  1.596549E+05 -4.321573E+03  4.245265E+05  2.606127E+03 -9.415297E+01
       386  22  1.100523E+06  1.697450E+05  1.401619E+03  4.323550E+05 -6.135729E+01  7.108833E+02
       386  23  1.109335E+06  1.606143E+05  1.791769E+03  4.222852E+05  1.149344E+03  2.578369E+02
       386  24  1.100583E+06  1.701588E+05  3.050441E+03  4.321970E+05  2.357586E+03 -1.888731E+02
       386  25  1.087195E+06  1.646342E+05 -2.137916E+03  4.286087E+05 -3.139495E+02  6.146116E+02
       386  26  1.116404E+06  1.633107E+05  3.707226E+03  4.242475E+05  8.987555E+02  1.623332E+02
       386  27  1.128049E+06  1.806627E+05  1.042237E+04  4.398679E+05  2.109033E+03 -2.835977E+02
       387   1  1.020571E+06  1.396349E+05 -1.784017E+04  4.109011E+05 -3.374841E+03  3.472078E+02
       387   2  1.008244E+06  1.213899E+05 -2.072983E+04  3.942508E+05 -7.045354E+03 -1.197753E+02
       387   3  9.798237E+05  1.265348E+05 -1.976277E+04  3.971072E+05 -1.069384E+04 -6.436138E+02
       387   4  1.100696E+06  1.697342E+05  3.860157E+03  4.326519E+05 -3.109838E+03  4.481828E+02
       387   5  1.108997E+06  1.598233E+05  6.574467E+03  4.222178E+05 -6.798828E+03 -2.589228E+01
       387   6  1.101210E+06  1.733054E+05  1.315974E+04  4.312902E+05 -1.046591E+04 -5.568693E+02
       387   7  1.180826E+06  1.998340E+05  2.555995E+04  4.544053E+05 -2.844797E+03  5.491721E+02
       387   8  1.209761E+06  1.982575E+05  3.387788E+04  4.501889E+05 -6.552256E+03  6.800777E+01
       387   9  1.222610E+06  2.200771E+05  4.608093E+04  4.654792E+05 -1.023793E+04 -4.701055E+02
       387  10  1.020571E+06  1.396349E+05 -1.784019E+04  4.109011E+05  8.093567E-09  1.735840E-09
       387  11  1.008244E+06  1.213899E+05 -2.072992E+04  3.942508E+05  1.441932E-09 -7.076781E-09
       387  12  9.798236E+05  1.265348E+05 -1.976299E+04  3.971072E+05 -1.365424E-08  1.176137E-09
       387  13  1.100696E+06  1.697342E+05  3.860139E+03  4.326519E+05  1.453644E-09 -1.025146E-09
       387  14  1.108997E+06  1.598233E+05  6.574380E+03  4.222178E+05  5.996567E-09 -4.222457E-09
       387  15  1.101210E+06  1.733054E+05  1.315953E+04  4.312902E+05  1.105372E-09 -8.183286E-11
       387  16  1.180826E+06  1.998340E+05  2.555994E+04  4.544053E+05  1.770734E-09 -3.943499E-09
       387  17  1.209761E+06  1.982575E+05  3.387780E+04  4.501889E+05  1.164373E-08  4.663920E-09
       387  18  1.222610E+06  2.200770E+05  4.608073E+04  4.654792E+05  1.291892E-08  1.050558E-08
       387  19  1.020571E+06  1.396349E+05 -1.784017E+04  4.109011E+05  3.374841E+03 -3.472078E+02
       387  20  1.008244E+06  1.213899E+05 -2.072983E+04  3.942508E+05  7.045354E+03  1.197753E+02
       387  21  9.798237E+05  1.265348E+05 -1.976277E+04  3.971072E+05  1.069384E+04  6.436138E+02
       387  22  1.100696E+06  1.697342E+05  3.860157E+03  4.326519E+05  3.109838E+03 -4.481828E+02
       387  23  1.108997E+06  1.598233E+05  6.574467E+03  4.222178E+05  6.798828E+03  2.589228E+01
       387  24  1.101210E+06  1.733054E+05  1.315974E+04  4.312902E+05  1.046591E+04  5.568693E+02
       387  25  1.180826E+06  1.998340E+05  2.555995E+04  4.544053E+05  2.844797E+03 -5.491721E+02
       387  26  1.209761E+06  1.982575E+05  3.387788E+04  4.501889E+05  6.552256E+03 -6.800777E+01
       387  27  1.222610E+06  2.200771E+05  4.608093E+04  4.654792E+05  1.023793E+04  4.701055E+02
       388   1  9.235300E+05  1.041805E+05 -3.131077E+04  3.875736E+05 -1.352682E+04 -1.037288E+03
       388   2  9.077291E+05  7.781404E+04 -2.585871E+04  3.664433E+05 -2.845822E+04 -5.688182E+03
       388   3  8.882570E+05  1.084246E+05  6.634675E+02  3.581206E+05 -4.313292E+04 -1.101119E+04
       388   4  1.102327E+06  1.693801E+05  1.663051E+04  4.341367E+05 -1.313926E+04 -8.897463E+02
       388   5  1.106105E+06  1.545078E+05  2.808976E+04  4.225436E+05 -2.828709E+04 -5.623262E+03
       388   6  1.106249E+06  1.966469E+05  6.078513E+04  4.237581E+05 -4.317881E+04 -1.102923E+04
       388   7  1.281154E+06  2.345809E+05  6.456891E+04  4.807116E+05 -1.275158E+04 -7.421621E+02
       388   8  1.304518E+06  2.312043E+05  8.203468E+04  4.786601E+05 -2.811591E+04 -5.558319E+03
       388   9  1.324287E+06  2.848742E+05  1.209025E+05  4.894169E+05 -4.322471E+04 -1.104727E+04
       388  10  9.235298E+05  1.041804E+05 -3.131111E+04  3.875736E+05 -4.449172E-09  1.134477E-08
       388  11  9.077282E+05  7.781378E+04 -2.586029E+04  3.664432E+05 -4.668696E-09  2.367969E-08
       388  12  8.882549E+05  1.084240E+05  6.597496E+02  3.581203E+05 -5.227178E-09  1.473303E-08
       388  13  1.102327E+06  1.693800E+05  1.663019E+04  4.341367E+05 -6.296650E-09 -2.752036E-09
       388  14  1.106104E+06  1.545075E+05  2.808820E+04  4.225435E+05 -1.008388E-08  1.512617E-08
       388  15  1.106247E+06  1.966463E+05  6.078141E+04  4.237577E+05 -3.468030E-09  1.349548E-08
       388  16  1.281154E+06  2.345808E+05  6.456860E+04  4.807116E+05  2.708068E-09  6.018523E-09
       388  17  1.304517E+06  2.312041E+05  8.203314E+04  4.786599E+05 -1.797977E-09 -1.006474E-08
       388  18  1.324285E+06  2.848735E+05  1.208988E+05  4.894166E+05 -3.643231E-09  1.641251E-09
       388  19  9.235300E+05  1.041805E+05 -3.131077E+04  3.875736E+05  1.352682E+04  1.037288E+03
       388  20  9.077291E+05  7.781404E+04 -2.585871E+04  3.664433E+05  2.845822E+04  5.688182E+03
       388  21  8.882570E+05  1.084246E+05  6.634675E+02  3.581206E+05  4.313292E+04  1.101119E+04
       388  22  1.102327E+06  1.693801E+05  1.663051E+04  4.341367E+05  1.313926E+04  8.897463E+02
       388  23  1.106105E+06  1.545078E+05  2.808976E+04  4.225436E+05  2.828709E+04  5.623262E+03
       388  24  1.106249E+06  1.966469E+05  6.078513E+04  4.237581E+05  4.317881E+04  1.102923E+04
       388  25  1.281154E+06  2.345809E+05  6.456891E+04  4.807116E+05  1.275158E+04  7.421621E+02
       388  26  1.304518E+06  2.312043E+05  8.203468E+04  4.786601E+05  2.811591E+04  5.558319E+03
       388  27  1.324287E+06  2.848742E+05  1.209025E+05  4.894169E+05  4.322471E+04  1.104727E+04
       389   1  8.185160E+05  7.231999E+04 -2.238143E+03  3.816429E+05 -5.609686E+04 -1.423749E+04
       389   2  7.849585E+05 -7.682657E+03  3.607607E+04  3.339096E+05 -1.201288E+05 -3.702994E+04
       389   3  8.434560E+05  2.128412E+05  1.982447E+05  2.379839E+05 -1.818176E+05 -6.598381E+04
       389   4  1.115198E+06  1.647356E+05  7.411089E+04  4.429023E+05 -5.472153E+04 -1.371281E+04
       389   5  1.083750E+06  1.171833E+05  1.190393E+05  4.279410E+05 -1.207264E+05 -3.725987E+04
       389   6  1.144690E+06  3.704586E+05  2.893367E+05  3.648016E+05 -1.843888E+05 -6.697500E+04
       389   7  1.411966E+06  2.571506E+05  1.504532E+05  5.041849E+05 -5.334546E+04 -1.318795E+04
       389   8  1.382627E+06  2.420597E+05  2.019939E+05  5.220148E+05 -1.213244E+05 -3.748995E+04
       389   9  1.446015E+06  5.281079E+05  3.804192E+05  4.916821E+05 -1.869615E+05 -6.796714E+04
       389  10  8.185126E+05  7.231893E+04 -2.244427E+03  3.816422E+05  2.898534E-09  1.536325E-08
       389  11  7.849427E+05 -7.687995E+03  3.604642E+04  3.339060E+05  7.634779E-11  8.544727E-09
       389  12  8.434194E+05  2.128277E+05  1.981745E+05  2.379742E+05 -1.441328E-09 -9.488799E-09
       389  13  1.115195E+06  1.647346E+05  7.410492E+04  4.429017E+05 -3.377422E-10  4.840793E-09
       389  14  1.083734E+06  1.171779E+05  1.190093E+05  4.279374E+05 -2.950120E-09 -1.462381E-08
       389  15  1.144653E+06  3.704447E+05  2.892645E+05  3.647917E+05  7.762955E-10  1.685257E-09
       389  16  1.411963E+06  2.571497E+05  1.504475E+05  5.041843E+05 -1.148217E-08 -7.496280E-09
       389  17  1.382611E+06  2.420543E+05  2.019637E+05  5.220112E+05  6.457397E-10  1.685630E-10
       389  18  1.445976E+06  5.280936E+05  3.803450E+05  4.916718E+05 -1.665761E-09 -1.055718E-09
       389  19  8.185160E+05  7.231999E+04 -2.238143E+03  3.816429E+05  5.609686E+04  1.423749E+04
       389  20  7.849585E+05 -7.682657E+03  3.607607E+04  3.339096E+05  1.201288E+05  3.702994E+04
       389  21  8.434560E+05  2.128412E+05  1.982447E+05  2.379839E+05  1.818176E+05  6.598381E+04
       389  22  1.115198E+06  1.647356E+05  7.411089E+04  4.429023E+05  5.472153E+04  1.371281E+04
       389  23  1.083750E+06  1.171833E+05  1.190393E+05  4.279410E+05  1.207264E+05  3.725987E+04
       389  24  1.144690E+06  3.704586E+05  2.893367E+05  3.648016E+05  1.843888E+05  6.697500E+04
       389  25  1.411966E+06  2.571506E+05  1.504532E+05  5.041849E+05  5.334546E+04  1.318795E+04
       389  26  1.382627E+06  2.420597E+05  2.019939E+05  5.220148E+05  1.213244E+05  3.748995E+04
       389  27  1.446015E+06  5.281079E+05  3.804192E+05  4.916821E+05  1.869615E+05  6.796714E+04
       390   1 -1.951414E+05 -1.138714E+06 -2.016306E+05  8.276754E+04 -4.806328E+03 -2.640266E+04
       390   2 -1.297903E+05 -1.001515E+06 -1.486881E+05  4.024602E+03 -1.300838E+04 -1.327739E+04
       390   3 -1.021461E+05 -8.736837E+05 -1.133953E+05  7.316059E+04 -7.803531E+03 -1.127024E+02
       390   4 -2.654668E+04 -4.643223E+05 -3.393354E+04  7.525939E+04 -4.821402E+03 -2.142951E+04
       390   5  5.139713E+03 -4.600221E+05 -1.605110E+04  1.364770E+03 -1.300893E+04 -1.279379E+04
       390   6 -8.137849E+01 -4.643161E+05 -1.268472E+04  7.534219E+04 -7.794490E+03 -4.121596E+03
       390   7  1.420140E+05  2.104833E+05  1.337296E+05  6.774336E+04 -4.836589E+03 -1.645094E+04
       390   8  1.400480E+05  8.173825E+04  1.165644E+05 -1.297210E+03 -1.300948E+04 -1.230977E+04
       390   9  1.019709E+05 -5.479578E+04  8.801360E+04  7.752531E+04 -7.785480E+03 -8.133130E+03
       390  10 -1.951416E+05 -1.138715E+06 -2.016320E+05  8.276744E+04  6.447393E-10  3.086291E-09
       390  11 -1.297906E+05 -1.001515E+06 -1.486888E+05  4.024463E+03 -3.157892E-10  1.170297E-08
       390  12 -1.021462E+05 -8.736837E+05 -1.133954E+05  7.316059E+04 -3.991388E-10  8.895023E-09
       390  13 -2.654683E+04 -4.643228E+05 -3.393445E+04  7.525930E+04  2.110268E-09  7.992901E-11
       390  14  5.139488E+03 -4.600223E+05 -1.605173E+04  1.364636E+03 -2.753728E-09  9.316668E-09
       390  15 -8.144827E+01 -4.643161E+05 -1.268486E+04  7.534217E+04 -8.452742E-10  1.713043E-09
       390  16  1.420139E+05  2.104830E+05  1.337290E+05  6.774329E+04  6.012255E-10  6.172503E-09
       390  17  1.400478E+05  8.173804E+04  1.165638E+05 -1.297339E+03  1.539405E-09 -7.339374E-09
       390  18  1.019708E+05 -5.479587E+04  8.801336E+04  7.752526E+04 -1.967475E-09 -4.552898E-09
       390  19 -1.951414E+05 -1.138714E+06 -2.016306E+05  8.276754E+04  4.806328E+03  2.640266E+04
       390  20 -1.297903E+05 -1.001515E+06 -1.486881E+05  4.024602E+03  1.300838E+04  1.327739E+04
       390  21 -1.021461E+05 -8.736837E+05 -1.133953E+05  7.316059E+04  7.803531E+03  1.127024E+02
       390  22 -2.654668E+04 -4.643223E+05 -3.393354E+04  7.525939E+04  4.821402E+03  2.142951E+04
       390  23  5.139713E+03 -4.600221E+05 -1.605110E+04  1.364770E+03  1.300893E+04  1.279379E+04
       390  24 -8.137849E+01 -4.643161E+05 -1.268472E+04  7.534219E+04  7.794490E+03  4.121596E+03
       390  25  1.420140E+05  2.104833E+05  1.337296E+05  6.774336E+04  4.836589E+03  1.645094E+04
       390  26  1.400480E+05  8.173825E+04  1.165644E+05 -1.297210E+03  1.300948E+04  1.230977E+04
       390  27  1.019709E+05 -5.479578E+04  8.801360E+04  7.752531E+04  7.785480E+03  8.133130E+03
       391   1 -2.908428E+04 -5.660263E+05 -3.724091E+04  7.722025E+04 -2.746427E+03 -7.569174E+02
       391   2  9.642539E+03 -4.308399E+05 -3.791790E+03  8.031147E+02  6.561467E+02  5.071690E+03
       391   3  3.364547E+04 -2.992637E+05  2.234292E+04  7.349796E+04  3.947878E+03  1.090163E+04
       391   4 -3.466523E+03 -4.631658E+05 -1.211026E+04  7.559300E+04 -2.744020E+03 -1.922359E+03
       391   5  2.039445E+03 -4.613496E+05 -1.127736E+04  1.032522E+03  6.585489E+02  3.943451E+03
       391   6 -7.184125E+03 -4.631669E+05 -1.778382E+04  7.558487E+04  3.950265E+03  9.809350E+03
       391   7  2.215046E+04 -3.602956E+05  1.301963E+04  7.396549E+04 -2.741607E+03 -3.087994E+03
       391   8 -5.563717E+03 -4.918585E+05 -1.876299E+04  1.261919E+03  6.609502E+02  2.815267E+03
       391   9 -4.801570E+04 -6.270457E+05 -5.791253E+04  7.767124E+04  3.952644E+03  8.717361E+03
       391  10 -2.908429E+04 -5.660263E+05 -3.724093E+04  7.722025E+04 -2.132110E-09  5.407212E-09
       391  11  9.642531E+03 -4.308400E+05 -3.791840E+03  8.031120E+02 -1.040735E-09  1.360796E-08
       391  12  3.364542E+04 -2.992638E+05  2.234267E+04  7.349792E+04  3.199084E-09  7.760085E-09
       391  13 -3.466532E+03 -4.631658E+05 -1.211028E+04  7.559300E+04 -2.764694E-10 -4.099819E-12
       391  14  2.039440E+03 -4.613496E+05 -1.127739E+04  1.032520E+03 -1.289612E-10  2.521161E-09
       391  15 -7.184167E+03 -4.631670E+05 -1.778403E+04  7.558484E+04  4.725732E-09 -1.128584E-09
       391  16  2.215045E+04 -3.602956E+05  1.301960E+04  7.396548E+04 -1.577578E-09  3.823966E-10
       391  17 -5.563720E+03 -4.918585E+05 -1.876301E+04  1.261918E+03 -1.019884E-10 -7.421852E-10
       391  18 -4.801573E+04 -6.270458E+05 -5.791270E+04  7.767121E+04  2.180646E-09 -1.571622E-09
       391  19 -2.908428E+04 -5.660263E+05 -3.724091E+04  7.722025E+04  2.746427E+03  7.569174E+02
       391  20  9.642539E+03 -4.308399E+05 -3.791790E+03  8.031147E+02 -6.561467E+02 -5.071690E+03
       391  21  3.364547E+04 -2.992637E+05  2.234292E+04  7.349796E+04 -3.947878E+03 -1.090163E+04
       391  22 -3.466523E+03 -4.631658E+05 -1.211026E+04  7.559300E+04  2.744020E+03  1.922359E+03
       391  23  2.039445E+03 -4.613496E+05 -1.127736E+04  1.032522E+03 -6.585489E+02 -3.943451E+03
       391  24 -7.184125E+03 -4.631669E+05 -1.778382E+04  7.558487E+04 -3.950265E+03 -9.809350E+03
       391  25  2.215046E+04 -3.602956E+05  1.301963E+04  7.396549E+04  2.741607E+03  3.087994E+03
       391  26 -5.563717E+03 -4.918585E+05 -1.876299E+04  1.261919E+03 -6.609502E+02 -2.815267E+03
       391  27 -4.801570E+04 -6.270457E+05 -5.791253E+04  7.767124E+04 -3.952644E+03 -8.717361E+03
       392   1  1.187338E+05  3.853737E+03  9.500331E+04  8.006676E+04  9.116021E+03  1.740453E+04
       392   2  1.603051E+05  1.450221E+05  1.170443E+05 -3.052723E+03  1.436584E+04  2.907949E+04
       392   3  1.298488E+05  2.686758E+05  1.138892E+05  6.133436E+04  5.213569E+03  4.071539E+04
       392   4  1.547011E+03 -4.665039E+05 -2.060593E+04  7.529453E+04  9.125805E+03  1.320326E+04
       392   5  1.030430E+04 -4.573152E+05 -3.040830E+04  1.444757E+03  1.436511E+04  2.970424E+04
       392   6 -5.384115E+04 -4.665167E+05 -6.877851E+04  7.511212E+04  5.196525E+03  4.616349E+04
       392   7 -1.156561E+05 -9.366599E+05 -1.362314E+05  7.052603E+04  9.135657E+03  9.005156E+03
       392   8 -1.397233E+05 -1.059322E+06 -1.778875E+05  5.938101E+03  1.436438E+04  3.032837E+04
       392   9 -2.375710E+05 -1.201218E+06 -2.514865E+05  8.887395E+04  5.179714E+03  5.160511E+04
       392  10  1.187336E+05  3.853390E+03  9.500259E+04  8.006663E+04  4.035202E-09  1.055774E-08
       392  11  1.603046E+05  1.450211E+05  1.170423E+05 -3.053059E+03 -2.778891E-10  1.392102E-08
       392  12  1.298483E+05  2.686740E+05  1.138861E+05  6.133419E+04 -1.368016E-09  7.278996E-09
       392  13  1.546875E+03 -4.665041E+05 -2.060641E+04  7.529443E+04  1.945000E-09 -4.393698E-09
       392  14  1.030385E+04 -4.573162E+05 -3.041034E+04  1.444414E+03  5.853678E-10  5.423839E-09
       392  15 -5.384175E+04 -4.665190E+05 -6.878256E+04  7.511193E+04 -6.438015E-10 -7.270596E-10
       392  16 -1.156562E+05 -9.366600E+05 -1.362317E+05  7.052596E+04  1.870687E-09 -9.401377E-10
       392  17 -1.397237E+05 -1.059323E+06 -1.778896E+05  5.937750E+03 -1.649837E-10 -2.028990E-09
       392  18 -2.375718E+05 -1.201221E+06 -2.514916E+05  8.887373E+04 -1.461670E-09 -3.844532E-09
       392  19  1.187338E+05  3.853737E+03  9.500331E+04  8.006676E+04 -9.116021E+03 -1.740453E+04
       392  20  1.603051E+05  1.450221E+05  1.170443E+05 -3.052723E+03 -1.436584E+04 -2.907949E+04
       392  21  1.298488E+05  2.686758E+05  1.138892E+05  6.133436E+04 -5.213569E+03 -4.071539E+04
       392  22  1.547011E+03 -4.665039E+05 -2.060593E+04  7.529453E+04 -9.125805E+03 -1.320326E+04
       392  23  1.030430E+04 -4.573152E+05 -3.040830E+04  1.444757E+03 -1.436511E+04 -2.970424E+04
       392  24 -5.384115E+04 -4.665167E+05 -6.877851E+04  7.511212E+04 -5.196525E+03 -4.616349E+04
       392  25 -1.156561E+05 -9.366599E+05 -1.362314E+05  7.052603E+04 -9.135657E+03 -9.005156E+03
       392  26 -1.397233E+05 -1.059322E+06 -1.778875E+05  5.938101E+03 -1.436438E+04 -3.032837E+04
       392  27 -2.375710E+05 -1.201218E+06 -2.514865E+05  8.887395E+04 -5.179714E+03 -5.160511E+04
       393   1  8.287602E+05 -3.505882E+04 -2.468872E+04 -1.807652E+03  2.877259E+04  1.889138E+03
       393   2  8.380819E+05 -7.246582E+04 -4.541385E+04  3.722110E+03  1.959349E+04  5.401737E+03
       393   3  8.606414E+05 -6.286980E+04 -4.835989E+04 -1.143626E+04  1.041968E+04  4.554070E+03
       393   4  1.107361E+06  3.442400E+04  4.453560E+04 -8.183301E+03  3.042677E+04  1.891147E+03
       393   5  1.100645E+06 -7.100943E+03  1.914737E+04  2.185323E+03  1.998655E+04  5.401995E+03
       393   6  1.107380E+06 -1.414952E+03  1.240717E+04 -8.133489E+03  9.551858E+03  4.553242E+03
       393   7  1.386032E+06  1.039012E+05  1.137542E+05 -1.456183E+04  3.208170E+04  1.893121E+03
       393   8  1.363271E+06  5.825882E+04  8.370352E+04  6.478671E+02  2.037978E+04  5.402250E+03
       393   9  1.354173E+06  6.003541E+04  7.316975E+04 -4.829421E+03  8.683693E+03  4.552404E+03
       393  10  8.287593E+05 -3.505905E+04 -2.469028E+04 -1.807695E+03 -4.496044E-10 -1.410180E-10
       393  11  8.380815E+05 -7.246595E+04 -4.541462E+04  3.722025E+03 -6.200014E-10 -1.479626E-10
       393  12  8.606413E+05 -6.286985E+04 -4.836013E+04 -1.143629E+04  2.780984E-10 -1.452836E-10
       393  13  1.107360E+06  3.442375E+04  4.453386E+04 -8.183348E+03 -3.113304E-11 -2.591985E-11
       393  14  1.100645E+06 -7.101082E+03  1.914657E+04  2.185236E+03 -9.862461E-13 -9.317604E-12
       393  15  1.107380E+06 -1.414998E+03  1.240696E+04 -8.133524E+03 -1.111686E-11 -1.505430E-10
       393  16  1.386031E+06  1.039009E+05  1.137522E+05 -1.456188E+04  8.600304E-11  3.109177E-11
       393  17  1.363271E+06  5.825868E+04  8.370268E+04  6.477785E+02  7.475094E-10  1.017065E-10
       393  18  1.354173E+06  6.003537E+04  7.316957E+04 -4.829453E+03 -2.432421E-10 -1.622287E-10
       393  19  8.287602E+05 -3.505882E+04 -2.468872E+04 -1.807652E+03 -2.877259E+04 -1.889138E+03
       393  20  8.380819E+05 -7.246582E+04 -4.541385E+04  3.722110E+03 -1.959349E+04 -5.401737E+03
       393  21  8.606414E+05 -6.286980E+04 -4.835989E+04 -1.143626E+04 -1.041968E+04 -4.554070E+03
       393  22  1.107361E+06  3.442400E+04  4.453560E+04 -8.183301E+03 -3.042677E+04 -1.891147E+03
       393  23  1.100645E+06 -7.100943E+03  1.914737E+04  2.185323E+03 -1.998655E+04 -5.401995E+03
       393  24  1.107380E+06 -1.414952E+03  1.240717E+04 -8.133489E+03 -9.551858E+03 -4.553242E+03
       393  25  1.386032E+06  1.039012E+05  1.137542E+05 -1.456183E+04 -3.208170E+04 -1.893121E+03
       393  26  1.363271E+06  5.825882E+04  8.370352E+04  6.478671E+02 -2.037978E+04 -5.402250E+03
       393  27  1.354173E+06  6.003541E+04  7.316975E+04 -4.829421E+03 -8.683693E+03 -4.552404E+03
       394   1  9.009276E+05 -4.611289E+04 -4.003114E+04 -6.770283E+03  7.463536E+03  3.580566E+03
       394   2  9.135589E+05 -4.835604E+04 -4.185085E+04  1.520467E+03  5.006998E+03  3.576611E+03
       394   3  9.282638E+05 -4.417598E+04 -4.043695E+04 -7.992413E+03  2.550488E+03  3.078572E+03
       394   4  1.104858E+06  4.678060E+03  1.022464E+04 -7.510373E+03  7.535809E+03  3.580535E+03
       394   5  1.103811E+06 -9.799134E+02  4.989259E+03  1.393009E+03  4.936063E+03  3.576501E+03
       394   6  1.104861E+06 -1.909252E+02  3.086069E+03 -7.506885E+03  2.336399E+03  3.078443E+03
       394   7  1.308827E+06  5.546592E+04  6.047735E+04 -8.250713E+03  7.608105E+03  3.580504E+03
       394   8  1.294096E+06  4.639352E+04  5.182670E+04  1.265507E+03  4.865106E+03  3.576390E+03
       394   9  1.281487E+06  4.379181E+04  4.660679E+04 -7.021222E+03  2.122249E+03  3.078315E+03
       394  10  9.009275E+05 -4.611292E+04 -4.003127E+04 -6.770305E+03 -8.340602E-11 -3.691536E-10
       394  11  9.135589E+05 -4.835606E+04 -4.185093E+04  1.520452E+03 -3.138988E-10  2.241248E-10
       394  12  9.282638E+05 -4.417600E+04 -4.043698E+04 -7.992419E+03  1.369660E-10  3.031007E-10
       394  13  1.104858E+06  4.678031E+03  1.022451E+04 -7.510395E+03 -8.023495E-12 -8.771286E-11
       394  14  1.103811E+06 -9.799337E+02  4.989190E+03  1.392995E+03  1.345203E-11  2.220546E-10
       394  15  1.104861E+06 -1.909369E+02  3.086041E+03 -7.506891E+03 -2.449064E-11  1.707451E-10
       394  16  1.308827E+06  5.546589E+04  6.047721E+04 -8.250735E+03 -1.223604E-10  8.791109E-11
       394  17  1.294096E+06  4.639350E+04  5.182664E+04  1.265493E+03  2.990216E-10  1.293137E-11
       394  18  1.281487E+06  4.379180E+04  4.660676E+04 -7.021227E+03 -1.303577E-10  6.289365E-11
       394  19  9.009276E+05 -4.611289E+04 -4.003114E+04 -6.770283E+03 -7.463536E+03 -3.580566E+03
       394  20  9.135589E+05 -4.835604E+04 -4.185085E+04  1.520467E+03 -5.006998E+03 -3.576611E+03
       394  21  9.282638E+05 -4.417598E+04 -4.043695E+04 -7.992413E+03 -2.550488E+03 -3.078572E+03
       394  22  1.104858E+06  4.678060E+03  1.022464E+04 -7.510373E+03 -7.535809E+03 -3.580535E+03
       394  23  1.103811E+06 -9.799134E+02  4.989259E+03  1.393009E+03 -4.936063E+03 -3.576501E+03
       394  24  1.104861E+06 -1.909252E+02  3.086069E+03 -7.506885E+03 -2.336399E+03 -3.078443E+03
       394  25  1.308827E+06  5.546592E+04  6.047735E+04 -8.250713E+03 -7.608105E+03 -3.580504E+03
       394  26  1.294096E+06  4.639352E+04  5.182670E+04  1.265507E+03 -4.865106E+03 -3.576390E+03
       394  27  1.281487E+06  4.379181E+04  4.660679E+04 -7.021222E+03 -2.122249E+03 -3.078315E+03
       395   1  9.652486E+05 -3.404145E+04 -3.179008E+04 -6.983682E+03  1.942663E+03  2.735522E+03
       395   2  9.771759E+05 -3.179280E+04 -2.996078E+04  8.396751E+02  1.270513E+03  2.351922E+03
       395   3  9.894707E+05 -2.866441E+04 -2.746219E+04 -7.118606E+03  5.981976E+02  1.935275E+03
       395   4  1.104480E+06  6.242314E+02  2.465369E+03 -7.058744E+03  1.837143E+03  2.735456E+03
       395   5  1.104296E+06 -1.373919E+02  1.341852E+03  8.320507E+02  1.155328E+03  2.351877E+03
       395   6  1.104481E+06 -1.765141E+01  8.942735E+02 -7.058592E+03  4.733609E+02  1.935254E+03
       395   7  1.243730E+06  3.528848E+04  3.671939E+04 -7.133823E+03  1.731599E+03  2.735390E+03
       395   8  1.231431E+06  3.151682E+04  3.264329E+04  8.244242E+02  1.040119E+03  2.351832E+03
       395   9  1.219503E+06  2.862813E+04  2.924976E+04 -6.998567E+03  3.485011E+02  1.935233E+03
       395  10  9.652486E+05 -3.404146E+04 -3.179010E+04 -6.983687E+03 -7.693557E-11  1.232428E-10
       395  11  9.771759E+05 -3.179281E+04 -2.996079E+04  8.396727E+02 -6.795425E-11 -1.792178E-10
       395  12  9.894707E+05 -2.866442E+04 -2.746220E+04 -7.118607E+03  7.435587E-11 -1.687791E-10
       395  13  1.104480E+06  6.242225E+02  2.465349E+03 -7.058748E+03  2.557119E-11  4.240471E-11
       395  14  1.104296E+06 -1.373982E+02  1.341839E+03  8.320485E+02  1.010091E-10 -2.187033E-10
       395  15  1.104481E+06 -1.765549E+01  8.942661E+02 -7.058593E+03  1.218986E-10  4.410750E-11
       395  16  1.243730E+06  3.528847E+04  3.671937E+04 -7.133827E+03 -6.999869E-13 -3.193404E-10
       395  17  1.231431E+06  3.151681E+04  3.264328E+04  8.244222E+02  1.125436E-10  4.939356E-10
       395  18  1.219503E+06  2.862812E+04  2.924975E+04 -6.998567E+03  3.157436E-11  3.257325E-10
       395  19  9.652486E+05 -3.404145E+04 -3.179008E+04 -6.983682E+03 -1.942663E+03 -2.735522E+03
       395  20  9.771759E+05 -3.179280E+04 -2.996078E+04  8.396751E+02 -1.270513E+03 -2.351922E+03
       395  21  9.894707E+05 -2.866441E+04 -2.746219E+04 -7.118606E+03 -5.981976E+02 -1.935275E+03
       395  22  1.104480E+06  6.242314E+02  2.465369E+03 -7.058744E+03 -1.837143E+03 -2.735456E+03
       395  23  1.104296E+06 -1.373919E+02  1.341852E+03  8.320507E+02 -1.155328E+03 -2.351877E+03
       395  24  1.104481E+06 -1.765141E+01  8.942735E+02 -7.058592E+03 -4.733609E+02 -1.935254E+03
       395  25  1.243730E+06  3.528848E+04  3.671939E+04 -7.133823E+03 -1.731599E+03 -2.735390E+03
       395  26  1.231431E+06  3.151682E+04  3.264329E+04  8.244242E+02 -1.040119E+03 -2.351832E+03
       395  27  1.219503E+06  2.862813E+04  2.924976E+04 -6.998567E+03 -3.485011E+02 -1.935233E+03
       396   1  1.023134E+06 -2.015501E+04 -1.921414E+04 -6.760638E+03  4.388200E+02  1.690411E+03
       396   2  1.034228E+06 -1.749563E+04 -1.663992E+04  4.931524E+02  1.190351E+02  1.294087E+03
       396   3  1.045422E+06 -1.465420E+04 -1.380982E+04 -6.780829E+03 -2.008466E+02  9.088375E+02
       396   4  1.104423E+06  7.993183E+01  7.672227E+02 -6.780017E+03  3.229627E+02  1.690405E+03
       396   5  1.104373E+06 -2.860782E+01  6.329877E+02  4.838197E+02  6.335307E+00  1.294093E+03
       396   6  1.104422E+06  4.432774E+01  7.523803E+02 -6.780014E+03 -3.103832E+02  9.088560E+02
       396   7  1.185717E+06  2.031438E+04  2.074810E+04 -6.799397E+03  2.070903E+02  1.690399E+03
       396   8  1.174523E+06  1.743805E+04  1.790553E+04  4.744860E+02 -1.063772E+02  1.294100E+03
       396   9  1.163426E+06  1.474259E+04  1.531433E+04 -6.779198E+03 -4.199302E+02  9.088745E+02
       396  10  1.023134E+06 -2.015501E+04 -1.921415E+04 -6.760639E+03  2.637469E-11  6.294846E-11
       396  11  1.034228E+06 -1.749564E+04 -1.663992E+04  4.931523E+02  2.329812E-10  3.872917E-10
       396  12  1.045422E+06 -1.465420E+04 -1.380982E+04 -6.780828E+03 -3.661938E-11  4.704363E-13
       396  13  1.104423E+06  7.992873E+01  7.672172E+02 -6.780017E+03 -1.521535E-10 -1.135488E-10
       396  14  1.104373E+06 -2.860962E+01  6.329846E+02  4.838196E+02 -8.352833E-11  1.411642E-10
       396  15  1.104422E+06  4.432682E+01  7.523786E+02 -6.780013E+03 -1.705069E-11  9.276110E-11
       396  16  1.185717E+06  2.031438E+04  2.074809E+04 -6.799397E+03  7.266839E-11 -5.167894E-11
       396  17  1.174523E+06  1.743805E+04  1.790553E+04  4.744861E+02 -3.895111E-11  5.001907E-10
       396  18  1.163426E+06  1.474259E+04  1.531432E+04 -6.779198E+03 -1.774572E-10  9.761636E-11
       396  19  1.023134E+06 -2.015501E+04 -1.921414E+04 -6.760638E+03 -4.388200E+02 -1.690411E+03
       396  20  1.034228E+06 -1.749563E+04 -1.663992E+04  4.931524E+02 -1.190351E+02 -1.294087E+03
       396  21  1.045422E+06 -1.465420E+04 -1.380982E+04 -6.780829E+03  2.008466E+02 -9.088375E+02
       396  22  1.104423E+06  7.993183E+01  7.672227E+02 -6.780017E+03 -3.229627E+02 -1.690405E+03
       396  23  1.104373E+06 -2.860782E+01  6.329877E+02  4.838197E+02 -6.335307E+00 -1.294093E+03
       396  24  1.104422E+06  4.432774E+01  7.523803E+02 -6.780014E+03  3.103832E+02 -9.088560E+02
       396  25  1.185717E+06  2.031438E+04  2.074810E+04 -6.799397E+03 -2.070903E+02 -1.690399E+03
       396  26  1.174523E+06  1.743805E+04  1.790553E+04  4.744860E+02  1.063772E+02 -1.294100E+03
       396  27  1.163426E+06  1.474259E+04  1.531433E+04 -6.779198E+03  4.199302E+02 -9.088745E+02
       397   1  1.077156E+06 -6.788091E+03 -5.807070E+03 -6.615116E+03 -3.468816E+02  6.863136E+02
       397   2  1.087776E+06 -4.200029E+03 -2.740987E+03  3.306244E+02 -1.020915E+03  3.052429E+02
       397   3  1.098598E+06 -1.123484E+03  8.837943E+02 -6.697558E+03 -1.694979E+03 -6.743297E+01
       397   4  1.104446E+06  5.753496E-01  8.786403E+02 -6.656987E+03 -4.580396E+02  6.863390E+02
       397   5  1.104345E+06 -7.414064E+01  1.339153E+03  3.300100E+02 -1.129669E+03  3.052704E+02
       397   6  1.104446E+06  3.392131E+02  2.356700E+03 -6.656893E+03 -1.801316E+03 -6.740328E+01
       397   7  1.131737E+06  6.789187E+03  7.564297E+03 -6.698859E+03 -5.692026E+02  6.863643E+02
       397   8  1.120915E+06  4.051728E+03  5.419273E+03  3.293956E+02 -1.238425E+03  3.052978E+02
       397   9  1.110294E+06  1.801908E+03  3.829604E+03 -6.616226E+03 -1.907655E+03 -6.737361E+01
       397  10  1.077156E+06 -6.788092E+03 -5.807071E+03 -6.615116E+03  6.687299E-11  8.473223E-11
       397  11  1.087776E+06 -4.200030E+03 -2.740990E+03  3.306247E+02  1.386807E-10 -6.785763E-11
       397  12  1.098598E+06 -1.123485E+03  8.837889E+02 -6.697559E+03 -4.044679E-11 -1.110944E-11
       397  13  1.104446E+06  5.747873E-01  8.786390E+02 -6.656986E+03 -3.239434E-11  5.783951E-12
       397  14  1.104345E+06 -7.414108E+01  1.339150E+03  3.300103E+02 -1.618648E-11 -8.738026E-11
       397  15  1.104446E+06  3.392122E+02  2.356694E+03 -6.656893E+03 -1.345226E-10  1.093122E-10
       397  16  1.131737E+06  6.789186E+03  7.564295E+03 -6.698859E+03 -6.776192E-11 -2.154067E-10
       397  17  1.120915E+06  4.051727E+03  5.419270E+03  3.293959E+02 -1.511481E-10  7.791149E-11
       397  18  1.110294E+06  1.801907E+03  3.829597E+03 -6.616226E+03  8.277170E-11  7.799659E-11
       397  19  1.077156E+06 -6.788091E+03 -5.807070E+03 -6.615116E+03  3.468816E+02 -6.863136E+02
       397  20  1.087776E+06 -4.200029E+03 -2.740987E+03  3.306244E+02  1.020915E+03 -3.052429E+02
       397  21  1.098598E+06 -1.123484E+03  8.837943E+02 -6.697558E+03  1.694979E+03  6.743297E+01
       397  22  1.104446E+06  5.753496E-01  8.786403E+02 -6.656987E+03  4.580396E+02 -6.863390E+02
       397  23  1.104345E+06 -7.414064E+01  1.339153E+03  3.300100E+02  1.129669E+03 -3.052704E+02
       397  24  1.104446E+06  3.392131E+02  2.356700E+03 -6.656893E+03  1.801316E+03  6.740328E+01
       397  25  1.131737E+06  6.789187E+03  7.564297E+03 -6.698859E+03  5.692026E+02 -6.863643E+02
       397  26  1.120915E+06  4.051728E+03  5.419273E+03  3.293956E+02  1.238425E+03 -3.052978E+02
       397  27  1.110294E+06  1.801908E+03  3.829604E+03 -6.616226E+03  1.907655E+03  6.737361E+01
       398   1  1.130055E+06  6.236830E+03  9.291752E+03 -6.440384E+03 -2.171010E+03 -2.908114E+02
       398   2  1.140271E+06  8.487561E+03  1.393749E+04  2.805899E+02 -4.733608E+03 -6.711876E+02
       398   3  1.151688E+06  1.422079E+04  2.111911E+04 -7.097121E+03 -7.296170E+03 -1.021209E+03
       398   4  1.104667E+06 -9.111568E+01  3.007391E+03 -6.684882E+03 -2.285202E+03 -2.907800E+02
       398   5  1.104067E+06 -5.271608E+02  5.023667E+03  3.647492E+02 -4.838912E+03 -6.711664E+02
       398   6  1.104665E+06  2.517929E+03  9.569849E+03 -6.684355E+03 -7.392541E+03 -1.021200E+03
       398   7  1.079280E+06 -6.419109E+03 -3.277018E+03 -6.929371E+03 -2.399389E+03 -2.907485E+02
       398   8  1.067863E+06 -9.541980E+03 -3.890249E+03  4.489036E+02 -4.944210E+03 -6.711452E+02
       398   9  1.057644E+06 -9.185097E+03 -1.979577E+03 -6.271620E+03 -7.488905E+03 -1.021191E+03
       398  10  1.130055E+06  6.236828E+03  9.291743E+03 -6.440384E+03  1.753301E-10  2.885594E-10
       398  11  1.140271E+06  8.487554E+03  1.393744E+04  2.805874E+02  1.400978E-10 -2.683131E-10
       398  12  1.151688E+06  1.422078E+04  2.111901E+04 -7.097127E+03 -8.891252E-11 -1.374660E-10
       398  13  1.104667E+06 -9.111717E+01  3.007381E+03 -6.684883E+03  2.511576E-10 -2.259056E-10
       398  14  1.104067E+06 -5.271676E+02  5.023623E+03  3.647466E+02 -1.401080E-12 -1.842098E-10
       398  15  1.104665E+06  2.517913E+03  9.569745E+03 -6.684361E+03  2.386402E-10 -2.244526E-10
       398  16  1.079280E+06 -6.419110E+03 -3.277029E+03 -6.929371E+03  5.824160E-11 -6.152227E-11
       398  17  1.067863E+06 -9.541987E+03 -3.890296E+03  4.489009E+02  3.749825E-11 -2.466480E-10
       398  18  1.057644E+06 -9.185113E+03 -1.979684E+03 -6.271626E+03 -2.021160E-10 -3.286778E-11
       398  19  1.130055E+06  6.236830E+03  9.291752E+03 -6.440384E+03  2.171010E+03  2.908114E+02
       398  20  1.140271E+06  8.487561E+03  1.393749E+04  2.805899E+02  4.733608E+03  6.711876E+02
       398  21  1.151688E+06  1.422079E+04  2.111911E+04 -7.097121E+03  7.296170E+03  1.021209E+03
       398  22  1.104667E+06 -9.111568E+01  3.007391E+03 -6.684882E+03  2.285202E+03  2.907800E+02
       398  23  1.104067E+06 -5.271608E+02  5.023667E+03  3.647492E+02  4.838912E+03  6.711664E+02
       398  24  1.104665E+06  2.517929E+03  9.569849E+03 -6.684355E+03  7.392541E+03  1.021200E+03
       398  25  1.079280E+06 -6.419109E+03 -3.277018E+03 -6.929371E+03  2.399389E+03  2.907485E+02
       398  26  1.067863E+06 -9.541980E+03 -3.890249E+03  4.489036E+02  4.944210E+03  6.711452E+02
       398  27  1.057644E+06 -9.185097E+03 -1.979577E+03 -6.271620E+03  7.488905E+03  1.021191E+03
       399   1  1.185416E+06  1.901476E+04  3.160003E+04 -5.125460E+03 -9.170066E+03 -1.295220E+03
       399   2  1.192977E+06  1.874453E+04  4.200467E+04 -2.360985E+02 -1.950255E+04 -1.710979E+03
       399   3  1.208290E+06  4.401999E+04  6.551847E+04 -1.025053E+04 -2.983533E+04 -1.825655E+03
       399   4  1.106119E+06 -7.350429E+02  1.204428E+04 -6.863705E+03 -9.332960E+03 -1.295179E+03
       399   5  1.102243E+06 -3.845955E+03  1.967133E+04  5.880510E+02 -1.957729E+04 -1.711016E+03
       399   6  1.106105E+06  1.857557E+04  4.034783E+04 -6.864036E+03 -2.982174E+04 -1.825836E+03
       399   7  1.026827E+06 -2.048530E+04 -7.511931E+03 -8.601727E+03 -9.495833E+03 -1.295136E+03
       399   8  1.011517E+06 -2.643705E+04 -2.662610E+03  1.412080E+03 -1.965203E+04 -1.711054E+03
       399   9  1.003930E+06 -6.869586E+03  1.517642E+04 -3.478100E+03 -2.980815E+04 -1.826017E+03
       399  10  1.185416E+06  1.901474E+04  3.159987E+04 -5.125469E+03  6.981153E-11 -7.527548E-11
       399  11  1.192977E+06  1.874442E+04  4.200395E+04 -2.361253E+02  2.712508E-10  8.195107E-11
       399  12  1.208289E+06  4.401975E+04  6.551679E+04 -1.025057E+04 -1.368597E-10  2.617734E-10
       399  13  1.106119E+06 -7.350680E+02  1.204411E+04 -6.863714E+03  1.855570E-11 -3.960134E-11
       399  14  1.102243E+06 -3.846061E+03  1.967061E+04  5.880240E+02 -1.018816E-10  1.606330E-10
       399  15  1.106104E+06  1.857533E+04  4.034615E+04 -6.864080E+03 -6.507831E-11  1.505496E-10
       399  16  1.026827E+06 -2.048533E+04 -7.512103E+03 -8.601737E+03 -2.223912E-11  9.571556E-11
       399  17  1.011516E+06 -2.643716E+04 -2.663340E+03  1.412053E+03 -3.291404E-10  2.244872E-10
       399  18  1.003929E+06 -6.869827E+03  1.517475E+04 -3.478144E+03  1.181871E-11  1.518181E-10
       399  19  1.185416E+06  1.901476E+04  3.160003E+04 -5.125460E+03  9.170066E+03  1.295220E+03
       399  20  1.192977E+06  1.874453E+04  4.200467E+04 -2.360985E+02  1.950255E+04  1.710979E+03
       399  21  1.208290E+06  4.401999E+04  6.551847E+04 -1.025053E+04  2.983533E+04  1.825655E+03
       399  22  1.106119E+06 -7.350429E+02  1.204428E+04 -6.863705E+03  9.332960E+03  1.295179E+03
       399  23  1.102243E+06 -3.845955E+03  1.967133E+04  5.880510E+02  1.957729E+04  1.711016E+03
       399  24  1.106105E+06  1.857557E+04  4.034783E+04 -6.864036E+03  2.982174E+04  1.825836E+03
       399  25  1.026827E+06 -2.048530E+04 -7.511931E+03 -8.601727E+03  9.495833E+03  1.295136E+03
       399  26  1.011517E+06 -2.643705E+04 -2.662610E+03  1.412080E+03  1.965203E+04  1.711054E+03
       399  27  1.003930E+06 -6.869586E+03  1.517642E+04 -3.478100E+03  2.980815E+04  1.826017E+03
       400   1  1.253011E+06  2.860055E+04  8.270794E+04  5.231955E+03 -3.722417E+04 -2.474131E+03
       400   2  1.239543E+06  9.249416E+03  1.124965E+05 -5.940504E+03 -7.922426E+04 -3.099860E+03
       400   3  1.278260E+06  1.765484E+05  2.162725E+05 -3.358526E+04 -1.212256E+05 -1.120063E+03
       400   4  1.115972E+06 -5.524809E+03  4.895664E+04 -7.196092E+03 -3.777311E+04 -2.473479E+03
       400   5  1.089903E+06 -2.799248E+04  7.571451E+04  1.011810E+03 -7.901362E+04 -3.100741E+03
       400   6  1.115898E+06  1.360810E+05  1.759459E+05 -7.251713E+03 -1.202545E+05 -1.124819E+03
       400   7  9.789517E+05 -3.965099E+04  1.520404E+04 -1.962140E+04 -3.832192E+04 -2.472804E+03
       400   8  9.402834E+05 -6.523586E+04  3.893089E+04  7.962447E+03 -7.880303E+04 -3.101617E+03
       400   9  9.535622E+05  9.561426E+04  1.356176E+05  1.907495E+04 -1.192836E+05 -1.129494E+03
       400  10  1.253009E+06  2.860017E+04  8.270533E+04  5.231881E+03  1.358951E-10  4.434675E-11
       400  11  1.239536E+06  9.247725E+03  1.124847E+05 -5.940702E+03 -6.804005E-11  5.685883E-11
       400  12  1.278244E+06  1.765445E+05  2.162449E+05 -3.358537E+04  8.801450E-11  1.181021E-11
       400  13  1.115971E+06 -5.525198E+03  4.895395E+04 -7.196167E+03 -8.439025E-12  8.141036E-11
       400  14  1.089896E+06 -2.799417E+04  7.570278E+04  1.011613E+03 -1.161389E-10 -6.310730E-11
       400  15  1.115883E+06  1.360771E+05  1.759187E+05 -7.251822E+03 -1.936521E-10 -7.189373E-11
       400  16  9.789501E+05 -3.965139E+04  1.520127E+04 -1.962147E+04  1.066000E-10  4.569096E-11
       400  17  9.402767E+05 -6.523754E+04  3.891922E+04  7.962250E+03  2.822985E-10  1.860198E-11
       400  18  9.535470E+05  9.561045E+04  1.355909E+05  1.907484E+04  1.025418E-10  8.764190E-11
       400  19  1.253011E+06  2.860055E+04  8.270794E+04  5.231955E+03  3.722417E+04  2.474131E+03
       400  20  1.239543E+06  9.249416E+03  1.124965E+05 -5.940504E+03  7.922426E+04  3.099860E+03
       400  21  1.278260E+06  1.765484E+05  2.162725E+05 -3.358526E+04  1.212256E+05  1.120063E+03
       400  22  1.115972E+06 -5.524809E+03  4.895664E+04 -7.196092E+03  3.777311E+04  2.473479E+03
       400  23  1.089903E+06 -2.799248E+04  7.571451E+04  1.011810E+03  7.901362E+04  3.100741E+03
       400  24  1.115898E+06  1.360810E+05  1.759459E+05 -7.251713E+03  1.202545E+05  1.124819E+03
       400  25  9.789517E+05 -3.965099E+04  1.520404E+04 -1.962140E+04  3.832192E+04  2.472804E+03
       400  26  9.402834E+05 -6.523586E+04  3.893089E+04  7.962447E+03  7.880303E+04  3.101617E+03
       400  27  9.535622E+05  9.561426E+04  1.356176E+05  1.907495E+04  1.192836E+05  1.129494E+03
       401   1  1.010046E+05 -5.357771E+04 -4.581030E+04 -5.437446E+03  2.056844E+04  2.111821E+03
       401   2  1.134958E+05 -7.974509E+04 -5.944190E+04  2.288420E+03  1.430054E+04  6.129418E+03
       401   3  1.357825E+05 -7.123386E+04 -6.026081E+04 -1.252558E+04  8.033638E+03  5.183581E+03
       401   4  4.174650E+05  2.543169E+04  3.288696E+04 -1.027536E+04  2.244889E+04  2.112274E+03
       401   5  4.124474E+05 -5.257746E+03  1.412573E+04  9.983765E+02  1.474794E+04  6.129226E+03
       401   6  4.174692E+05 -1.028726E+03  9.167352E+03 -1.026706E+04  7.048197E+03  5.183721E+03
       401   7  7.340163E+05  1.044337E+05  1.115767E+05 -1.511575E+04  2.433030E+04  2.112698E+03
       401   8  7.114802E+05  6.922296E+04  8.768678E+04 -2.922898E+02  1.519555E+04  6.129032E+03
       401   9  6.992280E+05  6.917052E+04  7.858966E+04 -8.007504E+03  6.062308E+03  5.183853E+03
       401  10  1.010042E+05 -5.357783E+04 -4.581110E+04 -5.437481E+03 -3.563252E-11  1.712988E-10
       401  11  1.134956E+05 -7.974519E+04 -5.944236E+04  2.288349E+03  2.575848E-10  1.730138E-10
       401  12  1.357824E+05 -7.123391E+04 -6.026099E+04 -1.252561E+04 -3.658239E-10 -1.208697E-10
       401  13  4.174645E+05  2.543155E+04  3.288601E+04 -1.027540E+04  8.492133E-11 -1.503233E-10
       401  14  4.124471E+05 -5.257845E+03  1.412525E+04  9.983037E+02 -7.153085E-11 -4.259758E-11
       401  15  4.174691E+05 -1.028768E+03  9.167208E+03 -1.026709E+04 -1.117244E-10  3.642084E-11
       401  16  7.340156E+05  1.044335E+05  1.115756E+05 -1.511579E+04  1.121436E-10  1.577540E-10
       401  17  7.114799E+05  6.922286E+04  8.768628E+04 -2.923648E+02 -1.232811E-10  1.142061E-10
       401  18  6.992280E+05  6.917048E+04  7.858954E+04 -8.007530E+03 -5.609856E-11  1.015813E-10
       401  19  1.010046E+05 -5.357771E+04 -4.581030E+04 -5.437446E+03 -2.056844E+04 -2.111821E+03
       401  20  1.134958E+05 -7.974509E+04 -5.944190E+04  2.288420E+03 -1.430054E+04 -6.129418E+03
       401  21  1.357825E+05 -7.123386E+04 -6.026081E+04 -1.252558E+04 -8.033638E+03 -5.183581E+03
       401  22  4.174650E+05  2.543169E+04  3.288696E+04 -1.027536E+04 -2.244889E+04 -2.112274E+03
       401  23  4.124474E+05 -5.257746E+03  1.412573E+04  9.983765E+02 -1.474794E+04 -6.129226E+03
       401  24  4.174692E+05 -1.028726E+03  9.167352E+03 -1.026706E+04 -7.048197E+03 -5.183721E+03
       401  25  7.340163E+05  1.044337E+05  1.115767E+05 -1.511575E+04 -2.433030E+04 -2.112698E+03
       401  26  7.114802E+05  6.922296E+04  8.768678E+04 -2.922898E+02 -1.519555E+04 -6.129032E+03
       401  27  6.992280E+05  6.917052E+04  7.858966E+04 -8.007504E+03 -6.062308E+03 -5.183853E+03
       402   1  1.829934E+05 -5.451542E+04 -4.981267E+04 -9.303460E+03  5.475626E+03  4.082657E+03
       402   2  1.986036E+05 -5.461096E+04 -4.958379E+04  9.284021E+02  3.725680E+03  4.065835E+03
       402   3  2.157625E+05 -4.992970E+04 -4.699576E+04 -1.019848E+04  1.975012E+03  3.456354E+03
       402   4  4.155956E+05  3.463945E+03  7.553293E+03 -1.000542E+04  5.557324E+03  4.082519E+03
       402   5  4.148070E+05 -7.301386E+02  3.686436E+03  6.729014E+02  3.636018E+03  4.065801E+03
       402   6  4.155957E+05 -1.186239E+02  2.297005E+03 -1.000704E+04  1.714035E+03  3.456512E+03
       402   7  6.482470E+05  6.143928E+04  6.491526E+04 -1.070763E+04  5.639051E+03  4.082382E+03
       402   8  6.310528E+05  5.314720E+04  5.695321E+04  4.173185E+02  3.546325E+03  4.065767E+03
       402   9  6.154651E+05  4.968948E+04  5.158681E+04 -9.815536E+03  1.452974E+03  3.456670E+03
       402  10  1.829933E+05 -5.451544E+04 -4.981276E+04 -9.303478E+03  2.222696E-10  3.594940E-11
       402  11  1.986036E+05 -5.461098E+04 -4.958385E+04  9.283899E+02  4.937637E-10 -1.333979E-10
       402  12  2.157625E+05 -4.992971E+04 -4.699579E+04 -1.019849E+04 -5.476645E-10  2.953888E-10
       402  13  4.155955E+05  3.463919E+03  7.553204E+03 -1.000544E+04 -3.482514E-10  2.273336E-10
       402  14  4.148069E+05 -7.301599E+02  3.686380E+03  6.728895E+02  8.633188E-11 -8.159060E-10
       402  15  4.155957E+05 -1.186375E+02  2.296977E+03 -1.000705E+04 -1.789821E-10  2.782554E-10
       402  16  6.482469E+05  6.143925E+04  6.491517E+04 -1.070765E+04  4.273969E-11 -2.408177E-11
       402  17  6.310527E+05  5.314718E+04  5.695316E+04  4.173069E+02 -2.349578E-10 -1.655853E-10
       402  18  6.154651E+05  4.968946E+04  5.158679E+04 -9.815540E+03  2.574014E-10  4.323493E-11
       402  19  1.829934E+05 -5.451542E+04 -4.981267E+04 -9.303460E+03 -5.475626E+03 -4.082657E+03
       402  20  1.986036E+05 -5.461096E+04 -4.958379E+04  9.284021E+02 -3.725680E+03 -4.065835E+03
       402  21  2.157625E+05 -4.992970E+04 -4.699576E+04 -1.019848E+04 -1.975012E+03 -3.456354E+03
       402  22  4.155956E+05  3.463945E+03  7.553293E+03 -1.000542E+04 -5.557324E+03 -4.082519E+03
       402  23  4.148070E+05 -7.301386E+02  3.686436E+03  6.729014E+02 -3.636018E+03 -4.065801E+03
       402  24  4.155957E+05 -1.186239E+02  2.297005E+03 -1.000704E+04 -1.714035E+03 -3.456512E+03
       402  25  6.482470E+05  6.143928E+04  6.491526E+04 -1.070763E+04 -5.639051E+03 -4.082382E+03
       402  26  6.310528E+05  5.314720E+04  5.695321E+04  4.173185E+02 -3.546325E+03 -4.065767E+03
       402  27  6.154651E+05  4.968948E+04  5.158681E+04 -9.815536E+03 -1.452974E+03 -3.456670E+03
       403   1  2.622453E+05 -3.766053E+04 -3.584063E+04 -9.631483E+03  1.473718E+03  3.036111E+03
       403   2  2.778524E+05 -3.432866E+04 -3.281525E+04  5.677198E+02  9.697449E+02  2.544640E+03
       403   3  2.937073E+05 -3.029851E+04 -2.928591E+04 -9.747123E+03  4.654569E+02  1.991466E+03
       403   4  4.153061E+05  4.769832E+02  1.840975E+03 -9.818437E+03  1.341093E+03  3.036193E+03
       403   5  4.151806E+05 -1.048306E+02  1.026544E+03  4.382138E+02  8.192284E+02  2.544772E+03
       403   6  4.153057E+05  1.466934E+01  7.284188E+02 -9.818897E+03  2.970616E+02  1.991655E+03
       403   7  5.683881E+05  3.861276E+04  3.952085E+04 -1.000543E+04  1.208435E+03  3.036275E+03
       403   8  5.525259E+05  3.411759E+04  3.486694E+04  3.086840E+02  6.686786E+02  2.544904E+03
       403   9  5.369175E+05  3.032675E+04  3.074165E+04 -9.890680E+03  1.286333E+02  1.991844E+03
       403  10  2.622453E+05 -3.766055E+04 -3.584065E+04 -9.631487E+03  6.000633E-10  6.276379E-11
       403  11  2.778524E+05 -3.432867E+04 -3.281526E+04  5.677178E+02  7.086997E-10  2.486357E-10
       403  12  2.937073E+05 -3.029852E+04 -2.928592E+04 -9.747124E+03 -6.747845E-10 -5.499418E-10
       403  13  4.153061E+05  4.769729E+02  1.840954E+03 -9.818441E+03  1.389678E-10  1.200499E-10
       403  14  4.151806E+05 -1.048378E+02  1.026531E+03  4.382121E+02 -2.512003E-10  5.640148E-10
       403  15  4.153057E+05  1.466506E+01  7.284112E+02 -9.818897E+03  8.790669E-11  1.080913E-09
       403  16  5.683881E+05  3.861275E+04  3.952083E+04 -1.000544E+04 -3.178856E-10 -3.112238E-11
       403  17  5.525259E+05  3.411759E+04  3.486693E+04  3.086826E+02 -5.888179E-10 -8.012834E-10
       403  18  5.369175E+05  3.032674E+04  3.074164E+04 -9.890680E+03  1.263489E-10 -7.164854E-12
       403  19  2.622453E+05 -3.766053E+04 -3.584063E+04 -9.631483E+03 -1.473718E+03 -3.036111E+03
       403  20  2.778524E+05 -3.432866E+04 -3.281525E+04  5.677198E+02 -9.697449E+02 -2.544640E+03
       403  21  2.937073E+05 -3.029851E+04 -2.928591E+04 -9.747123E+03 -4.654569E+02 -1.991466E+03
       403  22  4.153061E+05  4.769832E+02  1.840975E+03 -9.818437E+03 -1.341093E+03 -3.036193E+03
       403  23  4.151806E+05 -1.048306E+02  1.026544E+03  4.382138E+02 -8.192284E+02 -2.544772E+03
       403  24  4.153057E+05  1.466934E+01  7.284188E+02 -9.818897E+03 -2.970616E+02 -1.991655E+03
       403  25  5.683881E+05  3.861276E+04  3.952085E+04 -1.000543E+04 -1.208435E+03 -3.036275E+03
       403  26  5.525259E+05  3.411759E+04  3.486694E+04  3.086840E+02 -6.686786E+02 -2.544904E+03
       403  27  5.369175E+05  3.032675E+04  3.074165E+04 -9.890680E+03 -1.286333E+02 -1.991844E+03
       404   1  3.389554E+05 -1.892608E+04 -1.810273E+04 -9.623416E+03  3.257993E+02  1.663065E+03
       404   2  3.543038E+05 -1.521296E+04 -1.439725E+04  3.713704E+02  1.623026E+01  1.126530E+03
       404   3  3.696890E+05 -1.128705E+04 -1.044891E+04 -9.671343E+03 -2.934500E+02  5.877748E+02
       404   4  4.152612E+05  8.024115E+01  6.539192E+02 -9.712851E+03  1.714279E+02  1.663257E+03
       404   5  4.152425E+05 -2.684930E+01  6.197738E+02  3.058396E+02 -1.388109E+02  1.126738E+03
       404   6  4.152609E+05  7.902557E+01  8.290071E+02 -9.712846E+03 -4.491534E+02  5.879989E+02
       404   7  4.915722E+05  1.908613E+04  1.941014E+04 -9.802296E+03  1.703754E+01  1.663449E+03
       404   8  4.761846E+05  1.515898E+04  1.563653E+04  2.403035E+02 -2.938673E+02  1.126946E+03
       404   9  4.608347E+05  1.144495E+04  1.210677E+04 -9.754352E+03 -6.048682E+02  5.882230E+02
       404  10  3.389554E+05 -1.892608E+04 -1.810274E+04 -9.623416E+03  5.648144E-10  4.622243E-11
       404  11  3.543038E+05 -1.521296E+04 -1.439725E+04  3.713703E+02  1.017899E-09  9.324127E-12
       404  12  3.696890E+05 -1.128705E+04 -1.044892E+04 -9.671343E+03 -1.443814E-10 -5.585609E-10
       404  13  4.152612E+05  8.023817E+01  6.539140E+02 -9.712852E+03  2.006135E-10 -7.955876E-10
       404  14  4.152425E+05 -2.685067E+01  6.197714E+02  3.058397E+02 -4.748945E-10  2.798209E-10
       404  15  4.152609E+05  7.902514E+01  8.290060E+02 -9.712846E+03  2.920900E-10 -8.299573E-10
       404  16  4.915722E+05  1.908612E+04  1.941014E+04 -9.802296E+03  9.796536E-11  5.508013E-10
       404  17  4.761846E+05  1.515898E+04  1.563652E+04  2.403038E+02 -1.014393E-09 -3.810545E-10
       404  18  4.608347E+05  1.144495E+04  1.210677E+04 -9.754351E+03 -2.013112E-10 -1.351619E-09
       404  19  3.389554E+05 -1.892608E+04 -1.810273E+04 -9.623416E+03 -3.257993E+02 -1.663065E+03
       404  20  3.543038E+05 -1.521296E+04 -1.439725E+04  3.713704E+02 -1.623026E+01 -1.126530E+03
       404  21  3.696890E+05 -1.128705E+04 -1.044891E+04 -9.671343E+03  2.934500E+02 -5.877748E+02
       404  22  4.152612E+05  8.024115E+01  6.539192E+02 -9.712851E+03 -1.714279E+02 -1.663257E+03
       404  23  4.152425E+05 -2.684930E+01  6.197738E+02  3.058396E+02  1.388109E+02 -1.126738E+03
       404  24  4.152609E+05  7.902557E+01  8.290071E+02 -9.712846E+03  4.491534E+02 -5.879989E+02
       404  25  4.915722E+05  1.908613E+04  1.941014E+04 -9.802296E+03 -1.703754E+01 -1.663449E+03
       404  26  4.761846E+05  1.515898E+04  1.563653E+04  2.403035E+02  2.938673E+02 -1.126946E+03
       404  27  4.608347E+05  1.144495E+04  1.210677E+04 -9.754352E+03  6.048682E+02 -5.882230E+02
       405   1  4.143634E+05 -2.033392E+02  8.228841E+02 -9.642545E+03 -4.596336E+02  2.730759E+02
       405   2  4.295483E+05  3.484916E+03  5.134377E+03  2.566023E+02 -1.263586E+03 -2.639927E+02
       405   3  4.449261E+05  7.810015E+03  1.011344E+04 -9.769976E+03 -2.067540E+03 -7.957638E+02
       405   4  4.152961E+05  1.968291E+01  1.004913E+03 -9.688265E+03 -6.154820E+02  2.733051E+02
       405   5  4.151999E+05 -9.057701E+01  1.598791E+03  2.749109E+02 -1.417894E+03 -2.637697E+02
       405   6  4.152959E+05  4.357131E+02  2.859151E+03 -9.687664E+03 -2.220286E+03 -7.955463E+02
       405   7  4.162288E+05  2.427050E+02  1.186943E+03 -9.733986E+03 -7.713308E+02  2.735343E+02
       405   8  4.008516E+05 -3.666085E+03 -1.936810E+03  2.932193E+02 -1.572198E+03 -2.635467E+02
       405   9  3.856664E+05 -6.938653E+03 -4.395204E+03 -9.605357E+03 -2.373026E+03 -7.953289E+02
       405  10  4.143634E+05 -2.033393E+02  8.228836E+02 -9.642545E+03  1.085044E-10  5.257584E-10
       405  11  4.295483E+05  3.484915E+03  5.134374E+03  2.566020E+02  6.444457E-10  2.094480E-09
       405  12  4.449261E+05  7.810013E+03  1.011343E+04 -9.769977E+03  6.967367E-10 -1.297549E-09
       405  13  4.152961E+05  1.968273E+01  1.004913E+03 -9.688265E+03 -1.346816E-10  4.198275E-11
       405  14  4.151999E+05 -9.057763E+01  1.598787E+03  2.749106E+02  1.755211E-10 -4.107636E-10
       405  15  4.152959E+05  4.357111E+02  2.859140E+03 -9.687666E+03 -2.326747E-11  3.771655E-12
       405  16  4.162288E+05  2.427047E+02  1.186942E+03 -9.733985E+03  4.768871E-10  2.749182E-11
       405  17  4.008516E+05 -3.666086E+03 -1.936815E+03  2.932189E+02 -6.502366E-10 -2.514997E-10
       405  18  3.856664E+05 -6.938656E+03 -4.395216E+03 -9.605358E+03 -7.343702E-10 -2.982255E-10
       405  19  4.143634E+05 -2.033392E+02  8.228841E+02 -9.642545E+03  4.596336E+02 -2.730759E+02
       405  20  4.295483E+05  3.484916E+03  5.134377E+03  2.566023E+02  1.263586E+03  2.639927E+02
       405  21  4.449261E+05  7.810015E+03  1.011344E+04 -9.769976E+03  2.067540E+03  7.957638E+02
       405  22  4.152961E+05  1.968291E+01  1.004913E+03 -9.688265E+03  6.154820E+02 -2.733051E+02
       405  23  4.151999E+05 -9.057701E+01  1.598791E+03  2.749109E+02  1.417894E+03  2.637697E+02
       405  24  4.152959E+05  4.357131E+02  2.859151E+03 -9.687664E+03  2.220286E+03  7.955463E+02
       405  25  4.162288E+05  2.427050E+02  1.186943E+03 -9.733986E+03  7.713308E+02 -2.735343E+02
       405  26  4.008516E+05 -3.666085E+03 -1.936810E+03  2.932193E+02  1.572198E+03  2.635467E+02
       405  27  3.856664E+05 -6.938653E+03 -4.395204E+03 -9.605357E+03  2.373026E+03  7.953289E+02
       406   1  4.900002E+05  1.846564E+04  2.204891E+04 -9.518176E+03 -2.643639E+03 -1.118291E+03
       406   2  5.047508E+05  2.175373E+04  2.828418E+04  1.611654E+02 -5.777861E+03 -1.660492E+03
       406   3  5.209478E+05  2.934884E+04  3.762741E+04 -1.033245E+04 -8.911948E+03 -2.148340E+03
       406   4  4.155726E+05 -8.886082E+01  3.661992E+03 -9.744377E+03 -2.808720E+03 -1.118066E+03
       406   5  4.148503E+05 -6.477549E+02  6.133331E+03  3.441533E+02 -5.926877E+03 -1.660314E+03
       406   6  4.155717E+05  3.097973E+03  1.170185E+04 -9.740445E+03 -9.044822E+03 -2.148208E+03
       406   7  3.411500E+05 -1.864377E+04 -1.472534E+04 -9.970548E+03 -2.973781E+03 -1.117840E+03
       406   8  3.249572E+05 -2.304984E+04 -1.601811E+04  5.271170E+02 -6.075871E+03 -1.660136E+03
       406   9  3.102057E+05 -2.315371E+04 -1.422452E+04 -9.148539E+03 -9.177672E+03 -2.148077E+03
       406  10  4.900002E+05  1.846564E+04  2.204889E+04 -9.518179E+03  3.204810E-10 -1.812594E-09
       406  11  5.047508E+05  2.175371E+04  2.828411E+04  1.611577E+02  3.934818E-10 -3.850958E-10
       406  12  5.209477E+05  2.934881E+04  3.762725E+04 -1.033246E+04 -7.879912E-10  6.106216E-10
       406  13  4.155726E+05 -8.886428E+01  3.661975E+03 -9.744379E+03 -8.822229E-11 -2.290281E-10
       406  14  4.148503E+05 -6.477673E+02  6.133260E+03  3.441454E+02  7.437953E-11 -9.105748E-10
       406  15  4.155716E+05  3.097947E+03  1.170169E+04 -9.740461E+03  2.572021E-10 -4.635686E-10
       406  16  3.411499E+05 -1.864378E+04 -1.472535E+04 -9.970551E+03 -3.468765E-10 -5.324055E-10
       406  17  3.249571E+05 -2.304985E+04 -1.601819E+04  5.271089E+02 -7.132438E-10  1.434507E-09
       406  18  3.102056E+05 -2.315374E+04 -1.422469E+04 -9.148555E+03  5.730251E-10 -3.371658E-11
       406  19  4.900002E+05  1.846564E+04  2.204891E+04 -9.518176E+03  2.643639E+03  1.118291E+03
       406  20  5.047508E+05  2.175373E+04  2.828418E+04  1.611654E+02  5.777861E+03  1.660492E+03
       406  21  5.209478E+05  2.934884E+04  3.762741E+04 -1.033245E+04  8.911948E+03  2.148340E+03
       406  22  4.155726E+05 -8.886082E+01  3.661992E+03 -9.744377E+03  2.808720E+03  1.118066E+03
       406  23  4.148503E+05 -6.477549E+02  6.133331E+03  3.441533E+02  5.926877E+03  1.660314E+03
       406  24  4.155717E+05  3.097973E+03  1.170185E+04 -9.740445E+03  9.044822E+03  2.148208E+03
       406  25  3.411500E+05 -1.864377E+04 -1.472534E+04 -9.970548E+03  2.973781E+03  1.117840E+03
       406  26  3.249572E+05 -2.304984E+04 -1.601811E+04  5.271170E+02  6.075871E+03  1.660136E+03
       406  27  3.102057E+05 -2.315371E+04 -1.422452E+04 -9.148539E+03  9.177672E+03  2.148077E+03
       407   1  5.685081E+05  3.678487E+04  5.201870E+04 -7.876528E+03 -1.117621E+04 -2.545338E+03
       407   2  5.796920E+05  3.691835E+04  6.521939E+04 -6.095102E+02 -2.385266E+04 -3.125581E+03
       407   3  6.003989E+05  6.837252E+04  9.450682E+04 -1.411737E+04 -3.652865E+04 -3.207122E+03
       407   4  4.173593E+05 -8.795978E+02  1.473346E+04 -9.883718E+03 -1.141741E+04 -2.545064E+03
       407   5  4.126065E+05 -4.714281E+03  2.406158E+04  5.135460E+02 -2.394717E+04 -3.125583E+03
       407   6  4.173540E+05  2.275098E+04  4.937790E+04 -9.864381E+03 -3.647613E+04 -3.207467E+03
       407   7  2.662313E+05 -3.854576E+04 -2.255346E+04 -1.189041E+04 -1.165855E+04 -2.544788E+03
       407   8  2.455464E+05 -4.634898E+04 -1.709829E+04  1.636306E+03 -2.404164E+04 -3.125585E+03
       407   9  2.343396E+05 -2.287299E+04  4.246516E+03 -5.612639E+03 -3.642363E+04 -3.207813E+03
       407  10  5.685080E+05  3.678483E+04  5.201845E+04 -7.876550E+03 -3.456129E-10  8.691030E-10
       407  11  5.796914E+05  3.691818E+04  6.521830E+04 -6.095703E+02 -1.203918E-09 -1.194564E-09
       407  12  6.003975E+05  6.837216E+04  9.450429E+04 -1.411747E+04 -2.142661E-09  1.322028E-10
       407  13  4.173592E+05 -8.796398E+02  1.473320E+04 -9.883742E+03  1.310519E-10  2.773736E-10
       407  14  4.126059E+05 -4.714446E+03  2.406048E+04  5.134858E+02 -1.461493E-10 -4.191750E-10
       407  15  4.173526E+05  2.275062E+04  4.937538E+04 -9.864476E+03 -2.171490E-10 -2.014436E-09
       407  16  2.662312E+05 -3.854580E+04 -2.255373E+04 -1.189044E+04  5.354349E-10  4.948559E-10
       407  17  2.455458E+05 -4.634915E+04 -1.709940E+04  1.636245E+03  1.310491E-09  7.524436E-10
       407  18  2.343382E+05 -2.287335E+04  4.244005E+03 -5.612733E+03  2.169830E-09  6.240389E-10
       407  19  5.685081E+05  3.678487E+04  5.201870E+04 -7.876528E+03  1.117621E+04  2.545338E+03
       407  20  5.796920E+05  3.691835E+04  6.521939E+04 -6.095102E+02  2.385266E+04  3.125581E+03
       407  21  6.003989E+05  6.837252E+04  9.450682E+04 -1.411737E+04  3.652865E+04  3.207122E+03
       407  22  4.173593E+05 -8.795978E+02  1.473346E+04 -9.883718E+03  1.141741E+04  2.545064E+03
       407  23  4.126065E+05 -4.714281E+03  2.406158E+04  5.135460E+02  2.394717E+04  3.125583E+03
       407  24  4.173540E+05  2.275098E+04  4.937790E+04 -9.864381E+03  3.647613E+04  3.207467E+03
       407  25  2.662313E+05 -3.854576E+04 -2.255346E+04 -1.189041E+04  1.165855E+04  2.544788E+03
       407  26  2.455464E+05 -4.634898E+04 -1.709829E+04  1.636306E+03  2.404164E+04  3.125585E+03
       407  27  2.343396E+05 -2.287299E+04  4.246516E+03 -5.612639E+03  3.642363E+04  3.207813E+03
       408   1  6.600321E+05  5.068338E+04  1.167385E+05  4.969260E+03 -4.535904E+04 -4.178324E+03
       408   2  6.447564E+05  2.731485E+04  1.534938E+05 -7.839182E+03 -9.704019E+04 -5.036413E+03
       408   3  6.935216E+05  2.325368E+05  2.810599E+05 -4.237765E+04 -1.487217E+05 -1.724695E+03
       408   4  4.294352E+05 -6.748042E+03  5.992013E+04 -1.010474E+04 -4.620486E+04 -4.176751E+03
       408   5  3.974943E+05 -3.428337E+04  9.266712E+04  7.758121E+02 -9.666747E+04 -5.038024E+03
       408   6  4.294071E+05  1.666070E+05  2.154050E+05 -1.007212E+04 -1.471289E+05 -1.732701E+03
       408   7  1.988872E+05 -6.418256E+04  3.097944E+03 -2.517312E+04 -4.705035E+04 -4.175137E+03
       408   8  1.502880E+05 -9.588586E+04  3.183599E+04  9.387378E+03 -9.629489E+04 -5.039626E+03
       408   9  1.653581E+05  1.006758E+05  1.497454E+05  2.221967E+04 -1.455368E+05 -1.740544E+03
       408  10  6.600299E+05  5.068281E+04  1.167346E+05  4.969108E+03  1.948081E-09 -1.448593E-10
       408  11  6.447463E+05  2.731230E+04  1.534760E+05 -7.839576E+03  1.953139E-09 -2.455176E-10
       408  12  6.934979E+05  2.325309E+05  2.810183E+05 -4.237786E+04  4.157946E-10 -1.426056E-10
       408  13  4.294329E+05 -6.748633E+03  5.991609E+04 -1.010489E+04  1.382788E-10 -2.631430E-09
       408  14  3.974843E+05 -3.428590E+04  9.264952E+04  7.754199E+02  2.010789E-10 -1.208051E-09
       408  15  4.293839E+05  1.666012E+05  2.153643E+05 -1.007233E+04 -2.761684E-10 -2.920282E-10
       408  16  1.988848E+05 -6.418317E+04  3.093753E+03 -2.517328E+04 -1.568564E-09  1.456613E-10
       408  17  1.502780E+05 -9.588837E+04  3.181853E+04  9.386988E+03 -1.729192E-09  3.773891E-10
       408  18  1.653354E+05  1.006701E+05  1.497056E+05  2.221947E+04 -5.488666E-10  2.484677E-10
       408  19  6.600321E+05  5.068338E+04  1.167385E+05  4.969260E+03  4.535904E+04  4.178324E+03
       408  20  6.447564E+05  2.731485E+04  1.534938E+05 -7.839182E+03  9.704019E+04  5.036413E+03
       408  21  6.935216E+05  2.325368E+05  2.810599E+05 -4.237765E+04  1.487217E+05  1.724695E+03
       408  22  4.294352E+05 -6.748042E+03  5.992013E+04 -1.010474E+04  4.620486E+04  4.176751E+03
       408  23  3.974943E+05 -3.428337E+04  9.266712E+04  7.758121E+02  9.666747E+04  5.038024E+03
       408  24  4.294071E+05  1.666070E+05  2.154050E+05 -1.007212E+04  1.471289E+05  1.732701E+03
       408  25  1.988872E+05 -6.418256E+04  3.097944E+03 -2.517312E+04  4.705035E+04  4.175137E+03
       408  26  1.502880E+05 -9.588586E+04  3.183599E+04  9.387378E+03  9.629489E+04  5.039626E+03
       408  27  1.653581E+05  1.006758E+05  1.497454E+05  2.221967E+04  1.455368E+05  1.740544E+03
       409   1 -1.354360E+06 -1.011173E+05 -1.430898E+05 -2.444396E+04 -1.251115E+05 -1.117754E+03
       409   2 -1.332933E+06  6.973135E+04 -3.966134E+04 -7.879716E+03 -8.257509E+04 -3.320426E+03
       409   3 -1.365960E+06  4.470303E+04 -1.291273E+04  1.624533E+04 -4.003992E+04 -2.912852E+03
       409   4 -1.521812E+06 -1.430078E+05 -1.848113E+05  3.197581E+03 -1.260953E+05 -1.123361E+03
       409   5 -1.494458E+06  2.941442E+04 -7.948643E+04 -5.852599E+02 -8.281955E+04 -3.321498E+03
       409   6 -1.521703E+06  5.802229E+03 -5.137048E+04  3.192211E+03 -3.954455E+04 -2.911886E+03
       409   7 -1.689236E+06 -1.848976E+05 -2.265346E+05  3.083165E+04 -1.270789E+05 -1.129058E+03
       409   8 -1.655960E+06 -1.090426E+04 -1.193134E+05  6.707290E+03 -8.306394E+04 -3.322577E+03
       409   9 -1.677424E+06 -3.309974E+04 -8.982995E+04 -9.857623E+03 -3.904930E+04 -2.910940E+03
       409  10 -1.354377E+06 -1.011215E+05 -1.431193E+05 -2.444408E+04  1.091033E-10  4.045013E-10
       409  11 -1.332940E+06  6.972950E+04 -3.967420E+04 -7.879937E+03  3.136794E-10  1.845617E-10
       409  12 -1.365961E+06  4.470259E+04 -1.291576E+04  1.624523E+04  4.061830E-11 -6.147598E-10
       409  13 -1.521829E+06 -1.430121E+05 -1.848413E+05  3.197467E+03  2.690531E-10 -3.308440E-10
       409  14 -1.494466E+06  2.941256E+04 -7.949937E+04 -5.854816E+02  9.395193E-10 -4.546365E-10
       409  15 -1.521705E+06  5.801799E+03 -5.137345E+04  3.192118E+03 -4.262371E-10  1.966109E-10
       409  16 -1.689253E+06 -1.849019E+05 -2.265650E+05  3.083153E+04  3.072759E-10 -2.143628E-10
       409  17 -1.655968E+06 -1.090613E+04 -1.193264E+05  6.707068E+03  7.113035E-10 -1.751066E-09
       409  18 -1.677426E+06 -3.310016E+04 -8.983284E+04 -9.857714E+03  1.186173E-10 -2.164992E-10
       409  19 -1.354360E+06 -1.011173E+05 -1.430898E+05 -2.444396E+04  1.251115E+05  1.117754E+03
       409  20 -1.332933E+06  6.973135E+04 -3.966134E+04 -7.879716E+03  8.257509E+04  3.320426E+03
       409  21 -1.365960E+06  4.470303E+04 -1.291273E+04  1.624533E+04  4.003992E+04  2.912852E+03
       409  22 -1.521812E+06 -1.430078E+05 -1.848113E+05  3.197581E+03  1.260953E+05  1.123361E+03
       409  23 -1.494458E+06  2.941442E+04 -7.948643E+04 -5.852599E+02  8.281955E+04  3.321498E+03
       409  24 -1.521703E+06  5.802229E+03 -5.137048E+04  3.192211E+03  3.954455E+04  2.911886E+03
       409  25 -1.689236E+06 -1.848976E+05 -2.265346E+05  3.083165E+04  1.270789E+05  1.129058E+03
       409  26 -1.655960E+06 -1.090426E+04 -1.193134E+05  6.707290E+03  8.306394E+04  3.322577E+03
       409  27 -1.677424E+06 -3.309974E+04 -8.982995E+04 -9.857623E+03  3.904930E+04  2.910940E+03
       410   1 -1.375724E+06  1.434708E+04 -8.812682E+03  2.708540E+02 -3.116255E+04 -2.384399E+03
       410   2 -1.379477E+06  3.596362E+04  1.093495E+04 -2.110102E+03 -2.052894E+04 -2.423270E+03
       410   3 -1.391281E+06  3.077659E+04  1.705684E+04  5.667978E+03 -9.895842E+03 -2.101662E+03
       410   4 -1.511389E+06 -1.953098E+04 -4.233847E+04  3.780418E+03 -3.122224E+04 -2.384637E+03
       410   5 -1.507345E+06  4.037376E+03 -2.063083E+04 -1.303867E+03 -2.048710E+04 -2.423306E+03
       410   6 -1.511370E+06  7.813712E+02 -1.262172E+04  3.771090E+03 -9.752343E+03 -2.101557E+03
       410   7 -1.647038E+06 -5.341036E+04 -7.586563E+04  7.289210E+03 -3.128191E+04 -2.384876E+03
       410   8 -1.635197E+06 -2.789009E+04 -5.219782E+04 -4.978006E+02 -2.044527E+04 -2.423343E+03
       410   9 -1.631446E+06 -2.921492E+04 -4.230134E+04  1.874568E+03 -9.608871E+03 -2.101453E+03
       410  10 -1.375725E+06  1.434681E+04 -8.814521E+03  2.707942E+02  1.872514E-10 -9.102492E-10
       410  11 -1.379478E+06  3.596350E+04  1.093415E+04 -2.110142E+03 -4.771019E-10  1.187282E-10
       410  12 -1.391281E+06  3.077656E+04  1.705665E+04  5.667961E+03  5.952776E-11 -6.691418E-12
       410  13 -1.511390E+06 -1.953124E+04 -4.234032E+04  3.780358E+03 -3.362524E-10  4.291438E-10
       410  14 -1.507345E+06  4.037257E+03 -2.063163E+04 -1.303907E+03 -1.343940E-10  1.509311E-10
       410  15 -1.511370E+06  7.813409E+02 -1.262191E+04  3.771073E+03  4.781881E-10 -6.771555E-10
       410  16 -1.647039E+06 -5.341063E+04 -7.586748E+04  7.289150E+03 -5.029578E-10  1.966959E-10
       410  17 -1.635198E+06 -2.789021E+04 -5.219862E+04 -4.978405E+02  8.880469E-10 -1.717688E-09
       410  18 -1.631446E+06 -2.921495E+04 -4.230153E+04  1.874552E+03 -3.680830E-10 -7.939576E-10
       410  19 -1.375724E+06  1.434708E+04 -8.812682E+03  2.708540E+02  3.116255E+04  2.384399E+03
       410  20 -1.379477E+06  3.596362E+04  1.093495E+04 -2.110102E+03  2.052894E+04  2.423270E+03
       410  21 -1.391281E+06  3.077659E+04  1.705684E+04  5.667978E+03  9.895842E+03  2.101662E+03
       410  22 -1.511389E+06 -1.953098E+04 -4.233847E+04  3.780418E+03  3.122224E+04  2.384637E+03
       410  23 -1.507345E+06  4.037376E+03 -2.063083E+04 -1.303867E+03  2.048710E+04  2.423306E+03
       410  24 -1.511370E+06  7.813712E+02 -1.262172E+04  3.771090E+03  9.752343E+03  2.101557E+03
       410  25 -1.647038E+06 -5.341036E+04 -7.586563E+04  7.289210E+03  3.128191E+04  2.384876E+03
       410  26 -1.635197E+06 -2.789009E+04 -5.219782E+04 -4.978006E+02  2.044527E+04  2.423343E+03
       410  27 -1.631446E+06 -2.921492E+04 -4.230134E+04  1.874568E+03  9.608871E+03  2.101453E+03
       411   1 -1.414840E+06  2.107843E+04  1.340984E+04  3.822363E+03 -7.792713E+03 -1.875122E+03
       411   2 -1.423431E+06  2.197456E+04  1.591568E+04 -1.855130E+03 -5.137108E+03 -1.601754E+03
       411   3 -1.433279E+06  1.923755E+04  1.578121E+04  4.509657E+03 -2.481641E+03 -1.258908E+03
       411   4 -1.509858E+06 -2.643811E+03 -1.003272E+04  4.194397E+03 -7.723914E+03 -1.875093E+03
       411   5 -1.509227E+06  5.509603E+02 -5.268463E+03 -1.827878E+03 -5.048702E+03 -1.601693E+03
       411   6 -1.509854E+06  1.089143E+02 -3.158417E+03  4.192231E+03 -2.373589E+03 -1.258814E+03
       411   7 -1.604868E+06 -2.636672E+04 -3.347596E+04  4.566371E+03 -7.655125E+03 -1.875063E+03
       411   8 -1.595015E+06 -2.087319E+04 -2.645316E+04 -1.800631E+03 -4.960309E+03 -1.601632E+03
       411   9 -1.586424E+06 -1.902016E+04 -2.209848E+04  3.874843E+03 -2.265550E+03 -1.258720E+03
       411  10 -1.414840E+06  2.107841E+04  1.340972E+04  3.822352E+03 -5.319514E-10  9.616235E-10
       411  11 -1.423431E+06  2.197455E+04  1.591563E+04 -1.855136E+03 -7.314387E-10  3.602836E-10
       411  12 -1.433279E+06  1.923755E+04  1.578120E+04  4.509654E+03  5.127958E-10 -2.452307E-10
       411  13 -1.509858E+06 -2.643831E+03 -1.003284E+04  4.194385E+03  8.416826E-11 -6.701762E-11
       411  14 -1.509227E+06  5.509507E+02 -5.268516E+03 -1.827884E+03 -1.551527E-10  3.777725E-10
       411  15 -1.509854E+06  1.089111E+02 -3.158430E+03  4.192229E+03 -1.155013E-10  4.388333E-10
       411  16 -1.604868E+06 -2.636674E+04 -3.347607E+04  4.566360E+03  2.361663E-10 -5.383639E-10
       411  17 -1.595015E+06 -2.087320E+04 -2.645321E+04 -1.800638E+03  6.940625E-10 -6.483238E-10
       411  18 -1.586424E+06 -1.902016E+04 -2.209849E+04  3.874841E+03  9.373515E-11 -7.625883E-10
       411  19 -1.414840E+06  2.107843E+04  1.340984E+04  3.822363E+03  7.792713E+03  1.875122E+03
       411  20 -1.423431E+06  2.197456E+04  1.591568E+04 -1.855130E+03  5.137108E+03  1.601754E+03
       411  21 -1.433279E+06  1.923755E+04  1.578121E+04  4.509657E+03  2.481641E+03  1.258908E+03
       411  22 -1.509858E+06 -2.643811E+03 -1.003272E+04  4.194397E+03  7.723914E+03  1.875093E+03
       411  23 -1.509227E+06  5.509603E+02 -5.268463E+03 -1.827878E+03  5.048702E+03  1.601693E+03
       411  24 -1.509854E+06  1.089143E+02 -3.158417E+03  4.192231E+03  2.373589E+03  1.258814E+03
       411  25 -1.604868E+06 -2.636672E+04 -3.347596E+04  4.566371E+03  7.655125E+03  1.875063E+03
       411  26 -1.595015E+06 -2.087319E+04 -2.645316E+04 -1.800631E+03  4.960309E+03  1.601632E+03
       411  27 -1.586424E+06 -1.902016E+04 -2.209848E+04  3.874843E+03  2.265550E+03  1.258720E+03
       412   1 -1.461479E+06  1.167225E+04  9.377433E+03  4.425528E+03 -1.961828E+03 -1.050498E+03
       412   2 -1.471414E+06  9.588536E+03  7.976922E+03 -2.104126E+03 -1.251254E+03 -7.089390E+02
       412   3 -1.481591E+06  7.015664E+03  5.984743E+03  4.496821E+03 -5.407520E+02 -3.495104E+02
       412   4 -1.509628E+06 -3.453840E+02 -2.482980E+03  4.435054E+03 -1.866314E+03 -1.050409E+03
       412   5 -1.509505E+06  7.632058E+01 -1.429128E+03 -2.130448E+03 -1.150654E+03 -7.088384E+02
       412   6 -1.509627E+06  7.960671E+00 -9.705144E+02  4.434702E+03 -4.350539E+02 -3.493980E+02
       412   7 -1.557775E+06 -1.236319E+04 -1.434356E+04  4.444578E+03 -1.770807E+03 -1.050319E+03
       412   8 -1.547596E+06 -9.436004E+03 -1.083529E+04 -2.156769E+03 -1.050060E+03 -7.087378E+02
       412   9 -1.537663E+06 -6.999801E+03 -7.925830E+03  4.372585E+03 -3.293606E+02 -3.492856E+02
       412  10 -1.461479E+06  1.167224E+04  9.377423E+03  4.425526E+03 -2.478053E-10 -1.747186E-10
       412  11 -1.471414E+06  9.588535E+03  7.976918E+03 -2.104126E+03  8.994829E-11 -5.050064E-10
       412  12 -1.481591E+06  7.015663E+03  5.984742E+03  4.496821E+03  1.193682E-09 -7.457497E-10
       412  13 -1.509628E+06 -3.453862E+02 -2.482989E+03  4.435052E+03  2.939329E-10 -1.032194E-09
       412  14 -1.509505E+06  7.631969E+01 -1.429132E+03 -2.130448E+03 -2.906097E-10  1.100352E-09
       412  15 -1.509627E+06  7.960489E+00 -9.705150E+02  4.434702E+03 -4.285235E-10  3.902653E-10
       412  16 -1.557775E+06 -1.236319E+04 -1.434357E+04  4.444577E+03 -2.479931E-10  1.182837E-09
       412  17 -1.547596E+06 -9.436004E+03 -1.083529E+04 -2.156769E+03  4.322831E-10  3.091395E-10
       412  18 -1.537663E+06 -6.999801E+03 -7.925831E+03  4.372585E+03 -1.200389E-09  5.923113E-10
       412  19 -1.461479E+06  1.167225E+04  9.377433E+03  4.425528E+03  1.961828E+03  1.050498E+03
       412  20 -1.471414E+06  9.588536E+03  7.976922E+03 -2.104126E+03  1.251254E+03  7.089390E+02
       412  21 -1.481591E+06  7.015664E+03  5.984743E+03  4.496821E+03  5.407520E+02  3.495104E+02
       412  22 -1.509628E+06 -3.453840E+02 -2.482980E+03  4.435054E+03  1.866314E+03  1.050409E+03
       412  23 -1.509505E+06  7.632058E+01 -1.429128E+03 -2.130448E+03  1.150654E+03  7.088384E+02
       412  24 -1.509627E+06  7.960671E+00 -9.705144E+02  4.434702E+03  4.350539E+02  3.493980E+02
       412  25 -1.557775E+06 -1.236319E+04 -1.434356E+04  4.444578E+03  1.770807E+03  1.050319E+03
       412  26 -1.547596E+06 -9.436004E+03 -1.083529E+04 -2.156769E+03  1.050060E+03  7.087378E+02
       412  27 -1.537663E+06 -6.999801E+03 -7.925830E+03  4.372585E+03  3.293606E+02  3.492856E+02
       413   1 -1.511482E+06 -5.064541E+02 -1.349161E+03  4.468632E+03 -3.754742E+02 -1.352788E+02
       413   2 -1.521644E+06 -2.990493E+03 -3.769235E+03 -2.200892E+03  1.587092E+01  2.252798E+02
       413   3 -1.531944E+06 -5.682716E+03 -6.503831E+03  4.488917E+03  4.072262E+02  5.777058E+02
       413   4 -1.509603E+06 -3.094022E+01 -8.534510E+02  4.485619E+03 -2.707765E+02 -1.351656E+02
       413   5 -1.509535E+06  3.347357E+01 -7.790607E+02 -2.193998E+03  1.182333E+02  2.253883E+02
       413   6 -1.509604E+06 -1.099173E+02 -1.017596E+03  4.485701E+03  5.072598E+02  5.778100E+02
       413   7 -1.507725E+06  4.445734E+02 -3.577416E+02  4.502607E+03 -1.660785E+02 -1.350524E+02
       413   8 -1.497425E+06  3.057430E+03  2.211103E+03 -2.187104E+03  2.205977E+02  2.254968E+02
       413   9 -1.487263E+06  5.462844E+03  4.468602E+03  4.482486E+03  6.072969E+02  5.779143E+02
       413  10 -1.511482E+06 -5.064541E+02 -1.349161E+03  4.468631E+03 -4.322429E-10 -1.927068E-11
       413  11 -1.521644E+06 -2.990494E+03 -3.769235E+03 -2.200892E+03 -7.229022E-10  7.091926E-10
       413  12 -1.531944E+06 -5.682716E+03 -6.503832E+03  4.488916E+03  8.043523E-10 -9.630317E-11
       413  13 -1.509603E+06 -3.094026E+01 -8.534512E+02  4.485619E+03  5.126700E-10 -1.578714E-09
       413  14 -1.509535E+06  3.347351E+01 -7.790608E+02 -2.193998E+03  6.804310E-10 -8.978929E-10
       413  15 -1.509604E+06 -1.099177E+02 -1.017598E+03  4.485701E+03 -8.556660E-10  1.457915E-09
       413  16 -1.507725E+06  4.445733E+02 -3.577417E+02  4.502606E+03  4.649437E-11 -6.181077E-10
       413  17 -1.497425E+06  3.057430E+03  2.211103E+03 -2.187104E+03  1.339155E-09 -8.003658E-10
       413  18 -1.487263E+06  5.462844E+03  4.468600E+03  4.482485E+03 -9.200851E-10 -3.509694E-11
       413  19 -1.511482E+06 -5.064541E+02 -1.349161E+03  4.468632E+03  3.754742E+02  1.352788E+02
       413  20 -1.521644E+06 -2.990493E+03 -3.769235E+03 -2.200892E+03 -1.587092E+01 -2.252798E+02
       413  21 -1.531944E+06 -5.682716E+03 -6.503831E+03  4.488917E+03 -4.072262E+02 -5.777058E+02
       413  22 -1.509603E+06 -3.094022E+01 -8.534510E+02  4.485619E+03  2.707765E+02  1.351656E+02
       413  23 -1.509535E+06  3.347357E+01 -7.790607E+02 -2.193998E+03 -1.182333E+02 -2.253883E+02
       413  24 -1.509604E+06 -1.099173E+02 -1.017596E+03  4.485701E+03 -5.072598E+02 -5.778100E+02
       413  25 -1.507725E+06  4.445734E+02 -3.577416E+02  4.502607E+03  1.660785E+02  1.350524E+02
       413  26 -1.497425E+06  3.057430E+03  2.211103E+03 -2.187104E+03 -2.205977E+02 -2.254968E+02
       413  27 -1.487263E+06  5.462844E+03  4.468602E+03  4.482486E+03 -6.072969E+02 -5.779143E+02
       414   1 -1.561453E+06 -1.289771E+04 -1.402690E+04  4.211558E+03  5.972642E+02  7.926677E+02
       414   2 -1.570962E+06 -1.517386E+04 -1.706462E+04 -2.028905E+03  1.564485E+03  1.147811E+03
       414   3 -1.580925E+06 -1.868839E+04 -2.104657E+04  4.440984E+03  2.531825E+03  1.445456E+03
       414   4 -1.509674E+06  3.985089E+01 -1.208368E+03  4.341109E+03  7.073754E+02  7.927772E+02
       414   5 -1.509449E+06  1.878363E+02 -1.874843E+03 -2.013601E+03  1.658152E+03  1.147894E+03
       414   6 -1.509675E+06 -8.995822E+02 -3.474003E+03  4.341964E+03  2.609063E+03  1.445514E+03
       414   7 -1.457892E+06  1.297721E+04  1.160997E+04  4.470669E+03  8.174957E+02  7.928868E+02
       414   8 -1.447932E+06  1.554925E+04  1.331465E+04 -1.998296E+03  1.751829E+03  1.147976E+03
       414   9 -1.438420E+06  1.688884E+04  1.409819E+04  4.242931E+03  2.686309E+03  1.445573E+03
       414  10 -1.561453E+06 -1.289771E+04 -1.402691E+04  4.211558E+03  3.073282E-10 -1.136106E-09
       414  11 -1.570962E+06 -1.517386E+04 -1.706463E+04 -2.028906E+03 -6.467522E-10  8.911675E-10
       414  12 -1.580925E+06 -1.868839E+04 -2.104659E+04  4.440981E+03  7.221253E-10 -1.420533E-10
       414  13 -1.509674E+06  3.985008E+01 -1.208370E+03  4.341108E+03 -5.457893E-10  9.555289E-10
       414  14 -1.509449E+06  1.878341E+02 -1.874851E+03 -2.013602E+03 -8.193488E-10  1.847852E-09
       414  15 -1.509675E+06 -8.995863E+02 -3.474020E+03  4.341961E+03  5.246518E-11 -4.056598E-10
       414  16 -1.457892E+06  1.297721E+04  1.160997E+04  4.470669E+03  1.150847E-10 -1.138985E-09
       414  17 -1.447932E+06  1.554925E+04  1.331464E+04 -1.998297E+03 -2.166627E-10  1.708903E-09
       414  18 -1.438420E+06  1.688884E+04  1.409817E+04  4.242928E+03 -9.434159E-10  8.016962E-10
       414  19 -1.561453E+06 -1.289771E+04 -1.402690E+04  4.211558E+03 -5.972642E+02 -7.926677E+02
       414  20 -1.570962E+06 -1.517386E+04 -1.706462E+04 -2.028905E+03 -1.564485E+03 -1.147811E+03
       414  21 -1.580925E+06 -1.868839E+04 -2.104657E+04  4.440984E+03 -2.531825E+03 -1.445456E+03
       414  22 -1.509674E+06  3.985089E+01 -1.208368E+03  4.341109E+03 -7.073754E+02 -7.927772E+02
       414  23 -1.509449E+06  1.878363E+02 -1.874843E+03 -2.013601E+03 -1.658152E+03 -1.147894E+03
       414  24 -1.509675E+06 -8.995822E+02 -3.474003E+03  4.341964E+03 -2.609063E+03 -1.445514E+03
       414  25 -1.457892E+06  1.297721E+04  1.160997E+04  4.470669E+03 -8.174957E+02 -7.928868E+02
       414  26 -1.447932E+06  1.554925E+04  1.331465E+04 -1.998296E+03 -1.751829E+03 -1.147976E+03
       414  27 -1.438420E+06  1.688884E+04  1.409819E+04  4.242931E+03 -2.686309E+03 -1.445573E+03
       415   1 -1.608468E+06 -2.427838E+04 -2.864709E+04  3.320546E+03  3.164310E+03  1.681697E+03
       415   2 -1.615689E+06 -2.531032E+04 -3.346419E+04 -1.365289E+03  6.939148E+03  2.024284E+03
       415   3 -1.625680E+06 -3.552396E+04 -4.303542E+04  5.177087E+03  1.071424E+04  2.040067E+03
       415   4 -1.510187E+06  2.730566E+02 -4.348573E+03  4.010454E+03  3.309214E+03  1.681806E+03
       415   5 -1.508813E+06  1.378895E+03 -7.077366E+03 -1.601364E+03  6.990678E+03  2.024297E+03
       415   6 -1.510194E+06 -6.679845E+03 -1.449473E+04  4.014921E+03  1.067245E+04  2.039996E+03
       415   7 -1.411897E+06  2.482377E+04  1.994922E+04  4.700471E+03  3.454141E+03  1.681916E+03
       415   8 -1.401927E+06  2.806725E+04  1.930861E+04 -1.837481E+03  7.042218E+03  2.024309E+03
       415   9 -1.394695E+06  2.216328E+04  1.404497E+04  2.852536E+03  1.063065E+04  2.039924E+03
       415  10 -1.608468E+06 -2.427839E+04 -2.864711E+04  3.320541E+03 -4.123422E-10  7.401332E-10
       415  11 -1.615689E+06 -2.531034E+04 -3.346428E+04 -1.365301E+03 -6.226340E-10 -2.658728E-11
       415  12 -1.625681E+06 -3.552399E+04 -4.303565E+04  5.177069E+03 -3.810479E-11 -4.181357E-10
       415  13 -1.510187E+06  2.730506E+02 -4.348599E+03  4.010450E+03  6.754769E-11 -2.210341E-10
       415  14 -1.508813E+06  1.378877E+03 -7.077465E+03 -1.601375E+03 -3.060153E-10 -7.635858E-11
       415  15 -1.510194E+06 -6.679880E+03 -1.449495E+04  4.014903E+03  2.219271E-10 -9.792822E-11
       415  16 -1.411897E+06  2.482377E+04  1.994920E+04  4.700466E+03 -2.992677E-10 -6.006372E-10
       415  17 -1.401927E+06  2.806724E+04  1.930851E+04 -1.837493E+03  8.397885E-10 -5.090633E-10
       415  18 -1.394695E+06  2.216324E+04  1.404475E+04  2.852518E+03  1.935961E-10  5.647143E-10
       415  19 -1.608468E+06 -2.427838E+04 -2.864709E+04  3.320546E+03 -3.164310E+03 -1.681697E+03
       415  20 -1.615689E+06 -2.531032E+04 -3.346419E+04 -1.365289E+03 -6.939148E+03 -2.024284E+03
       415  21 -1.625680E+06 -3.552396E+04 -4.303542E+04  5.177087E+03 -1.071424E+04 -2.040067E+03
       415  22 -1.510187E+06  2.730566E+02 -4.348573E+03  4.010454E+03 -3.309214E+03 -1.681806E+03
       415  23 -1.508813E+06  1.378895E+03 -7.077366E+03 -1.601364E+03 -6.990678E+03 -2.024297E+03
       415  24 -1.510194E+06 -6.679845E+03 -1.449473E+04  4.014921E+03 -1.067245E+04 -2.039996E+03
       415  25 -1.411897E+06  2.482377E+04  1.994922E+04  4.700471E+03 -3.454141E+03 -1.681916E+03
       415  26 -1.401927E+06  2.806725E+04  1.930861E+04 -1.837481E+03 -7.042218E+03 -2.024309E+03
       415  27 -1.394695E+06  2.216328E+04  1.404497E+04  2.852536E+03 -1.063065E+04 -2.039924E+03
       416   1 -1.652054E+06 -3.256755E+04 -5.174983E+04 -9.998718E+02  1.305220E+04  2.557293E+03
       416   2 -1.649614E+06 -2.619063E+04 -6.300884E+04  1.482255E+03  2.854459E+04  2.991186E+03
       416   3 -1.665940E+06 -8.699304E+04 -1.011561E+05  1.294855E+04  4.403736E+04  1.030652E+03
       416   4 -1.513717E+06  1.988298E+03 -1.758107E+04  3.508003E+03  1.352074E+04  2.557607E+03
       416   5 -1.504415E+06  1.005883E+04 -2.720388E+04 -9.773841E+02  2.832790E+04  2.990942E+03
       416   6 -1.513755E+06 -4.892256E+04 -6.323371E+04  3.521545E+03  4.313563E+04  1.029747E+03
       416   7 -1.375362E+06  3.654279E+04  1.658627E+04  8.016883E+03  1.398939E+04  2.557927E+03
       416   8 -1.359196E+06  4.630675E+04  8.599527E+03 -3.437602E+03  2.811115E+04  2.990699E+03
       416   9 -1.361549E+06 -1.085349E+04 -2.531305E+04 -5.907783E+03  4.223368E+04  1.028870E+03
       416  10 -1.652054E+06 -3.256761E+04 -5.175016E+04 -9.998987E+02  1.874801E-11  8.149029E-11
       416  11 -1.649615E+06 -2.619086E+04 -6.301039E+04  1.482186E+03 -8.459586E-11  8.679115E-11
       416  12 -1.665942E+06 -8.699356E+04 -1.011597E+05  1.294852E+04 -1.992903E-10  2.277504E-10
       416  13 -1.513717E+06  1.988242E+03 -1.758143E+04  3.507975E+03  1.034838E-09 -8.347378E-10
       416  14 -1.504416E+06  1.005861E+04 -2.720541E+04 -9.774524E+02 -6.065207E-14  1.552409E-10
       416  15 -1.513757E+06 -4.892306E+04 -6.323722E+04  3.521509E+03  2.026227E-10 -4.274836E-11
       416  16 -1.375362E+06  3.654273E+04  1.658589E+04  8.016854E+03  1.649413E-10  4.938620E-10
       416  17 -1.359197E+06  4.630653E+04  8.598022E+03 -3.437670E+03  5.398390E-10 -9.722663E-11
       416  18 -1.361550E+06 -1.085397E+04 -2.531642E+04 -5.907818E+03 -3.638621E-10  1.719570E-10
       416  19 -1.652054E+06 -3.256755E+04 -5.174983E+04 -9.998718E+02 -1.305220E+04 -2.557293E+03
       416  20 -1.649614E+06 -2.619063E+04 -6.300884E+04  1.482255E+03 -2.854459E+04 -2.991186E+03
       416  21 -1.665940E+06 -8.699304E+04 -1.011561E+05  1.294855E+04 -4.403736E+04 -1.030652E+03
       416  22 -1.513717E+06  1.988298E+03 -1.758107E+04  3.508003E+03 -1.352074E+04 -2.557607E+03
       416  23 -1.504415E+06  1.005883E+04 -2.720388E+04 -9.773841E+02 -2.832790E+04 -2.990942E+03
       416  24 -1.513755E+06 -4.892256E+04 -6.323371E+04  3.521545E+03 -4.313563E+04 -1.029747E+03
       416  25 -1.375362E+06  3.654279E+04  1.658627E+04  8.016883E+03 -1.398939E+04 -2.557927E+03
       416  26 -1.359196E+06  4.630675E+04  8.599527E+03 -3.437602E+03 -2.811115E+04 -2.990699E+03
       416  27 -1.361549E+06 -1.085349E+04 -2.531305E+04 -5.907783E+03 -4.223368E+04 -1.028870E+03
       417   1  4.648658E+06  9.318755E+05  1.201294E+06  1.818390E+05  8.121907E+05 -1.010603E+01
       417   2  4.470756E+06 -1.736337E+05  5.252351E+05  4.818021E+04  5.337616E+05 -1.015718E+03
       417   3  4.642257E+06 -2.369052E+04  3.436301E+05 -8.014587E+04  2.553047E+05 -9.592867E+02
       417   4  4.585573E+06  9.160611E+05  1.185668E+06  3.542189E+03  8.117803E+05 -2.418060E+02
       417   5  4.411879E+06 -1.882724E+05  5.108096E+05  9.968481E+02  5.336500E+05 -1.056033E+03
       417   6  4.587535E+06 -3.720546E+04  3.302243E+05  3.752586E+03  2.554900E+05 -9.249682E+02
       417   7  4.522559E+06  9.003650E+05  1.170059E+06 -1.747366E+05  8.113699E+05 -4.732922E+02
       417   8  4.353010E+06 -2.029030E+05  4.963849E+05 -4.618206E+04  5.335385E+05 -1.096336E+03
       417   9  4.532830E+06 -5.069436E+04  3.168219E+05  8.764369E+04  2.556753E+05 -8.905973E+02
       417  10  4.647954E+06  9.317000E+05  1.200064E+06  1.818391E+05 -3.779859E-10 -9.070841E-10
       417  11  4.470452E+06 -1.737094E+05  5.247037E+05  4.818065E+04  1.862739E-09 -1.693360E-09
       417  12  4.642188E+06 -2.370785E+04  3.435086E+05 -8.014568E+04 -1.729936E-09 -1.813370E-09
       417  13  4.584869E+06  9.158857E+05  1.184439E+06  3.542347E+03  1.562289E-09 -5.101541E-10
       417  14  4.411575E+06 -1.883481E+05  5.102783E+05  9.973012E+02  1.621416E-09 -1.464650E-09
       417  15  4.587465E+06 -3.722282E+04  3.301025E+05  3.752776E+03 -1.897780E-09 -1.256616E-09
       417  16  4.521856E+06  9.001898E+05  1.168831E+06 -1.747364E+05  1.003424E-09 -6.331043E-10
       417  17  4.352706E+06 -2.029788E+05  4.958538E+05 -4.618160E+04  2.202340E-09 -1.321144E-09
       417  18  4.532760E+06 -5.071175E+04  3.167000E+05  8.764387E+04  3.174785E-09  5.004928E-10
       417  19  4.648658E+06  9.318755E+05  1.201294E+06  1.818390E+05 -8.121907E+05  1.010603E+01
       417  20  4.470756E+06 -1.736337E+05  5.252351E+05  4.818021E+04 -5.337616E+05  1.015718E+03
       417  21  4.642257E+06 -2.369052E+04  3.436301E+05 -8.014587E+04 -2.553047E+05  9.592867E+02
       417  22  4.585573E+06  9.160611E+05  1.185668E+06  3.542189E+03 -8.117803E+05  2.418060E+02
       417  23  4.411879E+06 -1.882724E+05  5.108096E+05  9.968481E+02 -5.336500E+05  1.056033E+03
       417  24  4.587535E+06 -3.720546E+04  3.302243E+05  3.752586E+03 -2.554900E+05  9.249682E+02
       417  25  4.522559E+06  9.003650E+05  1.170059E+06 -1.747366E+05 -8.113699E+05  4.732922E+02
       417  26  4.353010E+06 -2.029030E+05  4.963849E+05 -4.618206E+04 -5.335385E+05  1.096336E+03
       417  27  4.532830E+06 -5.069436E+04  3.168219E+05  8.764369E+04 -2.556753E+05  8.905973E+02
       418   1  4.566514E+06  1.363849E+05  2.834004E+05  2.599822E+04  2.016993E+05 -7.110875E+02
       418   2  4.538608E+06 -1.507286E+04  1.435850E+05  7.268097E+03  1.323980E+05 -7.539654E+02
       418   3  4.562540E+06  5.260569E+03  9.161353E+04 -8.662946E+03  6.309947E+04 -7.184143E+02
       418   4  4.520886E+06  1.250435E+05  2.721959E+05  3.088489E+03  2.016753E+05 -7.184870E+02
       418   5  4.495154E+06 -2.585780E+04  1.329267E+05  1.713098E+03  1.324000E+05 -7.551417E+02
       418   6  4.521258E+06 -4.967010E+03  8.148772E+04  3.136747E+03  6.312735E+04 -7.172124E+02
       418   7  4.475260E+06  1.137040E+05  2.609915E+05 -1.981957E+04  2.016512E+05 -7.258852E+02
       418   8  4.451701E+06 -3.664277E+04  1.222683E+05 -3.841514E+03  1.324020E+05 -7.563182E+02
       418   9  4.479979E+06 -1.519419E+04  7.136186E+04  1.493566E+04  6.315522E+04 -7.160095E+02
       418  10  4.566471E+06  1.363740E+05  2.833245E+05  2.599834E+04 -1.408072E-09 -4.735350E-10
       418  11  4.538589E+06 -1.507753E+04  1.435523E+05  7.268178E+03  1.407402E-09  5.547894E-10
       418  12  4.562535E+06  5.259509E+03  9.160610E+04 -8.662909E+03  6.222352E-10 -5.753286E-10
       418  13  4.520842E+06  1.250327E+05  2.721200E+05  3.088605E+03  1.885610E-09 -2.498347E-11
       418  14  4.495135E+06 -2.586247E+04  1.328940E+05  1.713179E+03  2.288141E-09  3.121558E-10
       418  15  4.521254E+06 -4.968071E+03  8.148029E+04  3.136784E+03 -1.535785E-09 -5.766350E-10
       418  16  4.475217E+06  1.136932E+05  2.609157E+05 -1.981945E+04  7.665719E-10 -1.604902E-10
       418  17  4.451683E+06 -3.664744E+04  1.222356E+05 -3.841434E+03  1.330366E-09 -8.560231E-10
       418  18  4.479975E+06 -1.519526E+04  7.135442E+04  1.493570E+04 -9.461372E-10 -5.330045E-10
       418  19  4.566514E+06  1.363849E+05  2.834004E+05  2.599822E+04 -2.016993E+05  7.110875E+02
       418  20  4.538608E+06 -1.507286E+04  1.435850E+05  7.268097E+03 -1.323980E+05  7.539654E+02
       418  21  4.562540E+06  5.260569E+03  9.161353E+04 -8.662946E+03 -6.309947E+04  7.184143E+02
       418  22  4.520886E+06  1.250435E+05  2.721959E+05  3.088489E+03 -2.016753E+05  7.184870E+02
       418  23  4.495154E+06 -2.585780E+04  1.329267E+05  1.713098E+03 -1.324000E+05  7.551417E+02
       418  24  4.521258E+06 -4.967010E+03  8.148772E+04  3.136747E+03 -6.312735E+04  7.172124E+02
       418  25  4.475260E+06  1.137040E+05  2.609915E+05 -1.981957E+04 -2.016512E+05  7.258852E+02
       418  26  4.451701E+06 -3.664277E+04  1.222683E+05 -3.841514E+03 -1.324020E+05  7.563182E+02
       418  27  4.479979E+06 -1.519419E+04  7.136186E+04  1.493566E+04 -6.315522E+04  7.160095E+02
       419   1  4.548796E+06  2.620222E+04  7.398388E+04  5.422890E+03  4.994542E+04 -6.757340E+02
       419   2  4.544182E+06  5.561574E+03  4.329279E+04  2.824907E+03  3.251102E+04 -6.558251E+02
       419   3  4.547671E+06  8.342713E+03  2.974774E+04  1.000300E+03  1.507723E+04 -6.619399E+02
       419   4  4.511475E+06  1.694159E+04  6.483102E+04  2.664333E+03  4.995539E+04 -6.759512E+02
       419   5  4.507460E+06 -3.548804E+03  3.428398E+04  2.281906E+03  3.251434E+04 -6.558534E+02
       419   6  4.511548E+06 -6.155051E+02  2.088828E+04  2.672841E+03  1.507387E+04 -6.619035E+02
       419   7  4.474155E+06  7.680886E+03  5.567806E+04 -9.405886E+01  4.996535E+04 -6.761685E+02
       419   8  4.470738E+06 -1.265928E+04  2.527508E+04  1.738937E+03  3.251765E+04 -6.558817E+02
       419   9  4.475426E+06 -9.573809E+03  1.202873E+04  4.345286E+03  1.507051E+04 -6.618671E+02
       419  10  4.548793E+06  2.620155E+04  7.397922E+04  5.422917E+03 -5.024405E-10 -6.960339E-10
       419  11  4.544181E+06  5.561292E+03  4.329081E+04  2.824924E+03 -3.825843E-09 -1.180705E-09
       419  12  4.547671E+06  8.342652E+03  2.974731E+04  1.000308E+03 -4.915238E-10 -5.259602E-10
       419  13  4.511472E+06  1.694092E+04  6.482636E+04  2.664360E+03 -1.624527E-09 -1.696581E-10
       419  14  4.507458E+06 -3.549086E+03  3.428201E+04  2.281923E+03 -3.366614E-10  1.075894E-09
       419  15  4.511548E+06 -6.155660E+02  2.088786E+04  2.672849E+03 -3.539994E-09  2.022997E-10
       419  16  4.474152E+06  7.680222E+03  5.567341E+04 -9.403170E+01 -2.393610E-09 -4.046029E-10
       419  17  4.470737E+06 -1.265956E+04  2.527311E+04  1.738954E+03 -1.523085E-09 -8.170521E-10
       419  18  4.475426E+06 -9.573869E+03  1.202831E+04  4.345294E+03  1.380844E-10 -9.754518E-10
       419  19  4.548796E+06  2.620222E+04  7.398388E+04  5.422890E+03 -4.994542E+04  6.757340E+02
       419  20  4.544182E+06  5.561574E+03  4.329279E+04  2.824907E+03 -3.251102E+04  6.558251E+02
       419  21  4.547671E+06  8.342713E+03  2.974774E+04  1.000300E+03 -1.507723E+04  6.619399E+02
       419  22  4.511475E+06  1.694159E+04  6.483102E+04  2.664333E+03 -4.995539E+04  6.759512E+02
       419  23  4.507460E+06 -3.548804E+03  3.428398E+04  2.281906E+03 -3.251434E+04  6.558534E+02
       419  24  4.511548E+06 -6.155051E+02  2.088828E+04  2.672841E+03 -1.507387E+04  6.619035E+02
       419  25  4.474155E+06  7.680886E+03  5.567806E+04 -9.405886E+01 -4.996535E+04  6.761685E+02
       419  26  4.470738E+06 -1.265928E+04  2.527508E+04  1.738937E+03 -3.251765E+04  6.558817E+02
       419  27  4.475426E+06 -9.573809E+03  1.202873E+04  4.345286E+03 -1.507051E+04  6.618671E+02
       420   1  4.546577E+06  1.131009E+04  2.560738E+04  2.569284E+03  1.167563E+04 -6.637238E+02
       420   2  4.546676E+06  8.732030E+03  1.945166E+04  2.850325E+03  6.526312E+03 -6.785644E+02
       420   3  4.548317E+06  9.642054E+03  1.750359E+04  2.008973E+03  1.376958E+03 -7.327838E+02
       420   4  4.510083E+06  2.256930E+03  1.665519E+04  2.247828E+03  1.167742E+04 -6.637310E+02
       420   5  4.509318E+06 -5.353485E+02  1.028674E+04  2.809627E+03  6.516958E+03 -6.785729E+02
       420   6  4.510096E+06  1.625029E+02  8.133801E+03  2.249035E+03  1.356470E+03 -7.327994E+02
       420   7  4.473591E+06 -6.796329E+03  7.702910E+03  1.926390E+03  1.167921E+04 -6.637381E+02
       420   8  4.471961E+06 -9.802830E+03  1.121727E+03  2.768931E+03  6.507604E+03 -6.785815E+02
       420   9  4.471877E+06 -9.317156E+03 -1.236098E+03  2.489081E+03  1.335983E+03 -7.328150E+02
       420  10  4.546577E+06  1.131005E+04  2.560712E+04  2.569291E+03  1.204647E-09 -1.484100E-09
       420  11  4.546676E+06  8.732018E+03  1.945158E+04  2.850328E+03 -6.574592E-10 -1.573180E-09
       420  12  4.548317E+06  9.642053E+03  1.750359E+04  2.008974E+03 -2.200579E-09 -1.528347E-09
       420  13  4.510083E+06  2.256893E+03  1.665494E+04  2.247834E+03 -6.075820E-10  9.312333E-10
       420  14  4.509317E+06 -5.353603E+02  1.028666E+04  2.809630E+03 -4.075101E-10 -5.945793E-10
       420  15  4.510096E+06  1.625018E+02  8.133796E+03  2.249035E+03  1.652823E-09 -1.070955E-10
       420  16  4.473591E+06 -6.796366E+03  7.702655E+03  1.926396E+03 -7.204925E-10 -1.007334E-09
       420  17  4.471961E+06 -9.802842E+03  1.121647E+03  2.768934E+03 -7.554676E-10 -1.715318E-09
       420  18  4.471877E+06 -9.317157E+03 -1.236103E+03  2.489082E+03  1.684451E-09 -1.405046E-09
       420  19  4.546577E+06  1.131009E+04  2.560738E+04  2.569284E+03 -1.167563E+04  6.637238E+02
       420  20  4.546676E+06  8.732030E+03  1.945166E+04  2.850325E+03 -6.526312E+03  6.785644E+02
       420  21  4.548317E+06  9.642054E+03  1.750359E+04  2.008973E+03 -1.376958E+03  7.327838E+02
       420  22  4.510083E+06  2.256930E+03  1.665519E+04  2.247828E+03 -1.167742E+04  6.637310E+02
       420  23  4.509318E+06 -5.353485E+02  1.028674E+04  2.809627E+03 -6.516958E+03  6.785729E+02
       420  24  4.510096E+06  1.625029E+02  8.133801E+03  2.249035E+03 -1.356470E+03  7.327994E+02
       420  25  4.473591E+06 -6.796329E+03  7.702910E+03  1.926390E+03 -1.167921E+04  6.637381E+02
       420  26  4.471961E+06 -9.802830E+03  1.121727E+03  2.768931E+03 -6.507604E+03  6.785815E+02
       420  27  4.471877E+06 -9.317156E+03 -1.236098E+03  2.489081E+03 -1.335983E+03  7.328150E+02
       421   1  4.553045E+06  1.089514E+04  1.847733E+04  2.014016E+03 -8.773713E+01 -7.663428E+02
       421   2  4.554865E+06  1.082547E+04  2.030121E+04  3.402199E+03 -4.658244E+03 -8.347899E+02
       421   3  4.558036E+06  1.375006E+04  2.583572E+04  1.539158E+03 -9.228738E+03 -9.491580E+02
       421   4  4.510053E+06  2.292101E+02  7.926687E+03  1.775942E+03 -1.000085E+02 -7.663544E+02
       421   5  4.509372E+06 -4.597544E+02  9.140728E+03  3.400930E+03 -4.683525E+03 -8.348121E+02
       421   6  4.510044E+06  1.847928E+03  1.407458E+04  1.774681E+03 -9.267011E+03 -9.491959E+02
       421   7  4.467063E+06 -1.043685E+04 -2.624093E+03  1.537883E+03 -1.122790E+02 -7.663659E+02
       421   8  4.463881E+06 -1.174513E+04 -2.019901E+03  3.399661E+03 -4.708805E+03 -8.348344E+02
       421   9  4.462055E+06 -1.005437E+04  2.313267E+03  2.010185E+03 -9.305281E+03 -9.492338E+02
       421  10  4.553045E+06  1.089514E+04  1.847733E+04  2.014016E+03 -2.346579E-09 -4.757163E-10
       421  11  4.554865E+06  1.082546E+04  2.030116E+04  3.402196E+03  1.096631E-09  7.097411E-10
       421  12  4.558036E+06  1.375003E+04  2.583556E+04  1.539151E+03  5.223706E-11  6.757251E-11
       421  13  4.510053E+06  2.292095E+02  7.926686E+03  1.775942E+03  3.321416E-09  1.066061E-09
       421  14  4.509372E+06 -4.597610E+02  9.140686E+03  3.400927E+03  3.388270E-09  2.602272E-09
       421  15  4.510044E+06  1.847904E+03  1.407441E+04  1.774673E+03 -5.551255E-10  3.552119E-10
       421  16  4.467063E+06 -1.043685E+04 -2.624094E+03  1.537883E+03  2.788059E-09  1.752635E-09
       421  17  4.463881E+06 -1.174513E+04 -2.019943E+03  3.399658E+03 -3.719656E-10  1.330327E-09
       421  18  4.462054E+06 -1.005439E+04  2.313104E+03  2.010178E+03 -1.048806E-09 -4.510503E-10
       421  19  4.553045E+06  1.089514E+04  1.847733E+04  2.014016E+03  8.773713E+01  7.663428E+02
       421  20  4.554865E+06  1.082547E+04  2.030121E+04  3.402199E+03  4.658244E+03  8.347899E+02
       421  21  4.558036E+06  1.375006E+04  2.583572E+04  1.539158E+03  9.228738E+03  9.491580E+02
       421  22  4.510053E+06  2.292101E+02  7.926687E+03  1.775942E+03  1.000085E+02  7.663544E+02
       421  23  4.509372E+06 -4.597544E+02  9.140728E+03  3.400930E+03  4.683525E+03  8.348121E+02
       421  24  4.510044E+06  1.847928E+03  1.407458E+04  1.774681E+03  9.267011E+03  9.491959E+02
       421  25  4.467063E+06 -1.043685E+04 -2.624093E+03  1.537883E+03  1.122790E+02  7.663659E+02
       421  26  4.463881E+06 -1.174513E+04 -2.019901E+03  3.399661E+03  4.708805E+03  8.348344E+02
       421  27  4.462055E+06 -1.005437E+04  2.313267E+03  2.010185E+03  9.305281E+03  9.492338E+02
       422   1  4.569354E+06  1.392626E+04  3.172053E+04  2.577681E+03 -1.208532E+04 -1.025951E+03
       422   2  4.570622E+06  1.265450E+04  4.370855E+04  3.779658E+03 -2.647864E+04 -1.173784E+03
       422   3  4.578576E+06  3.061148E+04  6.982959E+04 -1.061586E+03 -4.087201E+04 -1.353708E+03
       422   4  4.511235E+06 -4.954904E+02  1.745356E+04  1.159425E+03 -1.211933E+04 -1.025957E+03
       422   5  4.507861E+06 -2.913268E+03  2.831289E+04  4.174424E+03 -2.652069E+04 -1.173846E+03
       422   6  4.511175E+06  1.390022E+04  5.331184E+04  1.146139E+03 -4.092199E+04 -1.353911E+03
       422   7  4.453119E+06 -1.491749E+04  3.186352E+03 -2.587002E+02 -1.215333E+04 -1.025963E+03
       422   8  4.445104E+06 -1.848132E+04  1.291695E+04  4.569151E+03 -2.656273E+04 -1.173908E+03
       422   9  4.443778E+06 -2.811358E+03  3.679377E+04  3.353625E+03 -4.097196E+04 -1.354114E+03
       422  10  4.569354E+06  1.392622E+04  3.172025E+04  2.577671E+03 -1.607447E-09  7.525993E-10
       422  11  4.570622E+06  1.265431E+04  4.370724E+04  3.779633E+03 -4.741494E-09 -1.697891E-10
       422  12  4.578574E+06  3.061104E+04  6.982647E+04 -1.061631E+03  3.361707E-09  5.770209E-10
       422  13  4.511235E+06 -4.955306E+02  1.745329E+04  1.159415E+03 -2.037227E-10  5.704548E-10
       422  14  4.507860E+06 -2.913456E+03  2.831158E+04  4.174399E+03 -6.858903E-10  2.149057E-10
       422  15  4.511173E+06  1.389977E+04  5.330871E+04  1.146095E+03 -1.282346E-09 -6.959972E-10
       422  16  4.453119E+06 -1.491753E+04  3.186075E+03 -2.587102E+02  2.848348E-10 -4.960447E-10
       422  17  4.445103E+06 -1.848151E+04  1.291563E+04  4.569125E+03  2.696948E-10  8.028950E-10
       422  18  4.443776E+06 -2.811807E+03  3.679063E+04  3.353581E+03 -2.232984E-09 -1.820121E-10
       422  19  4.569354E+06  1.392626E+04  3.172053E+04  2.577681E+03  1.208532E+04  1.025951E+03
       422  20  4.570622E+06  1.265450E+04  4.370855E+04  3.779658E+03  2.647864E+04  1.173784E+03
       422  21  4.578576E+06  3.061148E+04  6.982959E+04 -1.061586E+03  4.087201E+04  1.353708E+03
       422  22  4.511235E+06 -4.954904E+02  1.745356E+04  1.159425E+03  1.211933E+04  1.025957E+03
       422  23  4.507861E+06 -2.913268E+03  2.831289E+04  4.174424E+03  2.652069E+04  1.173846E+03
       422  24  4.511175E+06  1.390022E+04  5.331184E+04  1.146139E+03  4.092199E+04  1.353911E+03
       422  25  4.453119E+06 -1.491749E+04  3.186352E+03 -2.587002E+02  1.215333E+04  1.025963E+03
       422  26  4.445104E+06 -1.848132E+04  1.291695E+04  4.569151E+03  2.656273E+04  1.173908E+03
       422  27  4.443778E+06 -2.811358E+03  3.679377E+04  3.353625E+03  4.097196E+04  1.354114E+03
       423   1  4.604098E+06  1.700325E+04  8.780189E+04  1.004270E+04 -5.165042E+04 -1.533206E+03
       423   2  4.590389E+06  1.745472E+03  1.318546E+05  8.176551E+02 -1.085957E+05 -1.845399E+03
       423   3  4.619281E+06  1.274724E+05  2.480501E+05 -1.854495E+04 -1.655445E+05 -1.949504E+03
       423   4  4.519207E+06 -4.080895E+03  6.695979E+04  2.849744E+02 -5.174979E+04 -1.532515E+03
       423   5  4.497755E+06 -2.122010E+04  1.091400E+05  5.291997E+03 -1.086281E+05 -1.846241E+03
       423   6  4.518899E+06  1.026246E+05  2.234245E+05  1.617404E+02 -1.655091E+05 -1.954457E+03
       423   7  4.434324E+06 -2.516521E+04  4.611722E+04 -9.471426E+03 -5.184916E+04 -1.531820E+03
       423   8  4.405130E+06 -4.418623E+04  8.642485E+04  9.765672E+03 -1.086604E+05 -1.847082E+03
       423   9  4.418528E+06  7.777734E+04  1.987985E+05  1.886542E+04 -1.654738E+05 -1.959408E+03
       423  10  4.604095E+06  1.700253E+04  8.779690E+04  1.004264E+04  8.706177E-10  1.485299E-10
       423  11  4.590376E+06  1.742331E+03  1.318326E+05  8.174940E+02 -3.046476E-10 -1.083202E-09
       423  12  4.619252E+06  1.274651E+05  2.479990E+05 -1.854521E+04  1.150038E-09 -8.788885E-10
       423  13  4.519204E+06 -4.081610E+03  6.695479E+04  2.849106E+02 -6.707420E-11 -4.911030E-10
       423  14  4.497743E+06 -2.122325E+04  1.091180E+05  5.291835E+03  2.705320E-10 -1.127923E-09
       423  15  4.518870E+06  1.026173E+05  2.233734E+05  1.614803E+02  7.318038E-10 -1.306221E-09
       423  16  4.434321E+06 -2.516593E+04  4.611220E+04 -9.471490E+03 -1.089620E-10 -1.019999E-09
       423  17  4.405117E+06 -4.418938E+04  8.640281E+04  9.765511E+03  4.464096E-09  3.103738E-09
       423  18  4.418498E+06  7.777005E+04  1.987474E+05  1.886516E+04  1.232996E-09 -8.557512E-10
       423  19  4.604098E+06  1.700325E+04  8.780189E+04  1.004270E+04  5.165042E+04  1.533206E+03
       423  20  4.590389E+06  1.745472E+03  1.318546E+05  8.176551E+02  1.085957E+05  1.845399E+03
       423  21  4.619281E+06  1.274724E+05  2.480501E+05 -1.854495E+04  1.655445E+05  1.949504E+03
       423  22  4.519207E+06 -4.080895E+03  6.695979E+04  2.849744E+02  5.174979E+04  1.532515E+03
       423  23  4.497755E+06 -2.122010E+04  1.091400E+05  5.291997E+03  1.086281E+05  1.846241E+03
       423  24  4.518899E+06  1.026246E+05  2.234245E+05  1.617404E+02  1.655091E+05  1.954457E+03
       423  25  4.434324E+06 -2.516521E+04  4.611722E+04 -9.471426E+03  5.184916E+04  1.531820E+03
       423  26  4.405130E+06 -4.418623E+04  8.642485E+04  9.765672E+03  1.086604E+05  1.847082E+03
       423  27  4.418528E+06  7.777734E+04  1.987985E+05  1.886542E+04  1.654738E+05  1.959408E+03
       424   1  4.702100E+06  1.540749E+03  3.025951E+05  6.805085E+04 -2.091880E+05 -2.623727E+03
       424   2  4.570521E+06 -1.196547E+05  4.537123E+05 -3.151512E+04 -4.382397E+05 -3.464693E+03
       424   3  4.725861E+06  7.895791E+05  1.010944E+06 -1.482989E+05 -6.672826E+05 -1.865524E+03
       424   4  4.573611E+06 -3.055011E+04  2.710375E+05 -9.453149E+02 -2.096742E+05 -2.601316E+03
       424   5  4.429371E+06 -1.545296E+05  4.191734E+05  7.061655E+03 -4.379963E+05 -3.491541E+03
       424   6  4.571968E+06  7.518761E+05  9.729812E+05 -2.125336E+03 -6.663048E+05 -2.020228E+03
       424   7  4.445146E+06 -6.262446E+04  2.394813E+05 -6.992727E+04 -2.101603E+05 -2.578793E+03
       424   8  4.288243E+06 -1.894004E+05  3.846338E+05  4.562969E+04 -4.377530E+05 -3.518365E+03
       424   9  4.418143E+06  7.142512E+05  9.350279E+05  1.440123E+05 -6.653272E+05 -2.174507E+03
       424  10  4.702053E+06  1.529104E+03  3.025134E+05  6.805041E+04  3.498918E-10 -1.720556E-09
       424  11  4.570316E+06 -1.197057E+05  4.533541E+05 -3.151634E+04 -2.754716E-09 -3.489693E-09
       424  12  4.725386E+06  7.894606E+05  1.010114E+06 -1.483000E+05 -8.788223E-10 -9.353290E-10
       424  13  4.573564E+06 -3.056181E+04  2.709555E+05 -9.457534E+02 -5.275188E-09 -6.232201E-09
       424  14  4.429167E+06 -1.545806E+05  4.188155E+05  7.060426E+03  4.740743E-09  2.952166E-09
       424  15  4.571495E+06  7.517580E+05  9.721529E+05 -2.126417E+03  1.163622E-09  4.149106E-10
       424  16  4.445099E+06 -6.263622E+04  2.393988E+05 -6.992771E+04  7.951105E-10 -3.178995E-09
       424  17  4.288038E+06 -1.894514E+05  3.842762E+05  4.562846E+04  5.157622E-09  2.591659E-09
       424  18  4.417670E+06  7.141334E+05  9.342019E+05  1.440112E+05  3.617454E-10 -8.220034E-10
       424  19  4.702100E+06  1.540749E+03  3.025951E+05  6.805085E+04  2.091880E+05  2.623727E+03
       424  20  4.570521E+06 -1.196547E+05  4.537123E+05 -3.151512E+04  4.382397E+05  3.464693E+03
       424  21  4.725861E+06  7.895791E+05  1.010944E+06 -1.482989E+05  6.672826E+05  1.865524E+03
       424  22  4.573611E+06 -3.055011E+04  2.710375E+05 -9.453149E+02  2.096742E+05  2.601316E+03
       424  23  4.429371E+06 -1.545296E+05  4.191734E+05  7.061655E+03  4.379963E+05  3.491541E+03
       424  24  4.571968E+06  7.518761E+05  9.729812E+05 -2.125336E+03  6.663048E+05  2.020228E+03
       424  25  4.445146E+06 -6.262446E+04  2.394813E+05 -6.992727E+04  2.101603E+05  2.578793E+03
       424  26  4.288243E+06 -1.894004E+05  3.846338E+05  4.562969E+04  4.377530E+05  3.518365E+03
       424  27  4.418143E+06  7.142512E+05  9.350279E+05  1.440123E+05  6.653272E+05  2.174507E+03
       425   1  5.422791E+05  1.824318E+05  1.695337E+05  5.048814E+04  6.203110E+04 -1.078648E+04
       425   2  4.912976E+05  1.716222E+05  1.283891E+05  5.101865E+04  3.021988E+04 -3.716163E+04
       425   3  4.444401E+05  1.606936E+05  1.079466E+05  5.928211E+04 -1.613173E+03 -4.634003E+04
       425   4 -2.520467E+05 -1.314918E+04 -1.437273E+04  5.821194E+04 -1.008341E+04 -1.091018E+04
       425   5 -2.510124E+05 -3.905663E+03 -7.147146E+03  5.433423E+04 -6.369747E+03 -3.723191E+04
       425   6 -2.520224E+05 -9.482074E+02 -3.881748E+03  5.818896E+04 -2.681644E+03 -4.634698E+04
       425   7 -1.045778E+06 -2.087714E+05 -1.983018E+05  6.592552E+04 -8.210639E+04 -1.103577E+04
       425   8 -9.927841E+05 -1.794639E+05 -1.427006E+05  5.764549E+04 -4.291683E+04 -3.730262E+04
       425   9 -9.480032E+05 -1.626144E+05 -1.157230E+05  5.709685E+04 -3.748958E+03 -4.635392E+04
       425  10  5.422749E+05  1.824306E+05  1.695262E+05  5.048868E+04  3.590574E-09 -3.173171E-09
       425  11  4.912962E+05  1.716205E+05  1.283848E+05  5.101956E+04 -5.489581E-10 -5.598150E-09
       425  12  4.444395E+05  1.606913E+05  1.079425E+05  5.928205E+04  1.787725E-10 -3.651384E-09
       425  13 -2.520469E+05 -1.314934E+04 -1.437314E+04  5.821185E+04 -6.396926E-10  1.190196E-09
       425  14 -2.510128E+05 -3.907162E+03 -7.149827E+03  5.433404E+04  9.353955E-10 -1.754129E-09
       425  15 -2.520230E+05 -9.505156E+02 -3.885798E+03  5.818886E+04  1.660480E-10 -3.105386E-09
       425  16 -1.045786E+06 -2.087734E+05 -1.983147E+05  6.592479E+04 -2.851131E-09  1.042897E-09
       425  17 -9.927865E+05 -1.794659E+05 -1.427067E+05  5.764420E+04 -3.681685E-11 -3.004403E-09
       425  18 -9.480038E+05 -1.626167E+05 -1.157271E+05  5.709671E+04 -1.136896E-09 -3.026303E-09
       425  19  5.422791E+05  1.824318E+05  1.695337E+05  5.048814E+04 -6.203110E+04  1.078648E+04
       425  20  4.912976E+05  1.716222E+05  1.283891E+05  5.101865E+04 -3.021988E+04  3.716163E+04
       425  21  4.444401E+05  1.606936E+05  1.079466E+05  5.928211E+04  1.613173E+03  4.634003E+04
       425  22 -2.520467E+05 -1.314918E+04 -1.437273E+04  5.821194E+04  1.008341E+04  1.091018E+04
       425  23 -2.510124E+05 -3.905663E+03 -7.147146E+03  5.433423E+04  6.369747E+03  3.723191E+04
       425  24 -2.520224E+05 -9.482074E+02 -3.881748E+03  5.818896E+04  2.681644E+03  4.634698E+04
       425  25 -1.045778E+06 -2.087714E+05 -1.983018E+05  6.592552E+04  8.210639E+04  1.103577E+04
       425  26 -9.927841E+05 -1.794639E+05 -1.427006E+05  5.764549E+04  4.291683E+04  3.730262E+04
       425  27 -9.480032E+05 -1.626144E+05 -1.157230E+05  5.709685E+04  3.748958E+03  4.635392E+04
       426   1  4.130978E+05  1.530525E+05  1.014024E+05  5.900996E+04 -9.372837E+02 -4.602073E+04
       426   2  3.640142E+05  1.415252E+05  9.095697E+04  5.475892E+04 -4.240780E+03 -4.563671E+04
       426   3  3.154142E+05  1.302738E+05  8.272869E+04  5.947222E+04 -7.548854E+03 -4.326629E+04
       426   4 -2.516115E+05 -7.381634E+02 -2.918653E+03  5.846465E+04 -2.179530E+03 -4.602790E+04
       426   5 -2.514864E+05 -7.566006E+01 -1.593518E+03  5.398127E+04 -1.381040E+03 -4.563515E+04
       426   6 -2.515913E+05  1.509726E+02 -8.989996E+02  5.846277E+04 -5.873178E+02 -4.325500E+04
       426   7 -9.158804E+05 -1.545506E+05 -1.072504E+05  5.791972E+04 -3.420496E+03 -4.603506E+04
       426   8 -8.666069E+05 -1.416945E+05 -9.415152E+04  5.320421E+04  1.475979E+03 -4.563361E+04
       426   9 -8.182732E+05 -1.299869E+05 -8.453228E+04  5.745410E+04  6.368124E+03 -4.324372E+04
       426  10  4.130972E+05  1.530502E+05  1.013984E+05  5.900992E+04 -4.215263E-09 -3.765255E-09
       426  11  3.640137E+05  1.415230E+05  9.095302E+04  5.475877E+04 -8.544662E-10  2.064918E-09
       426  12  3.154136E+05  1.302718E+05  8.272506E+04  5.947196E+04  2.578467E-09  2.144620E-09
       426  13 -2.516121E+05 -7.404394E+02 -2.922643E+03  5.846457E+04  4.274881E-12 -1.448274E-09
       426  14 -2.514869E+05 -7.789662E+01 -1.597435E+03  5.398121E+04  3.227920E-09  1.692853E-09
       426  15 -2.515918E+05  1.489637E+02 -9.025158E+02  5.846275E+04  1.490857E-09 -2.563599E-09
       426  16 -9.158810E+05 -1.545529E+05 -1.072544E+05  5.791959E+04  4.923707E-09  1.839540E-09
       426  17 -8.666075E+05 -1.416967E+05 -9.415544E+04  5.320426E+04  6.576189E-10  2.547107E-09
       426  18 -8.182737E+05 -1.299889E+05 -8.453587E+04  5.745432E+04 -3.532727E-09 -2.698820E-10
       426  19  4.130978E+05  1.530525E+05  1.014024E+05  5.900996E+04  9.372837E+02  4.602073E+04
       426  20  3.640142E+05  1.415252E+05  9.095697E+04  5.475892E+04  4.240780E+03  4.563671E+04
       426  21  3.154142E+05  1.302738E+05  8.272869E+04  5.947222E+04  7.548854E+03  4.326629E+04
       426  22 -2.516115E+05 -7.381634E+02 -2.918653E+03  5.846465E+04  2.179530E+03  4.602790E+04
       426  23 -2.514864E+05 -7.566006E+01 -1.593518E+03  5.398127E+04  1.381040E+03  4.563515E+04
       426  24 -2.515913E+05  1.509726E+02 -8.989996E+02  5.846277E+04  5.873178E+02  4.325500E+04
       426  25 -9.158804E+05 -1.545506E+05 -1.072504E+05  5.791972E+04  3.420496E+03  4.603506E+04
       426  26 -8.666069E+05 -1.416945E+05 -9.415152E+04  5.320421E+04 -1.475979E+03  4.563361E+04
       426  27 -8.182732E+05 -1.299869E+05 -8.453228E+04  5.745410E+04 -6.368124E+03  4.324372E+04
       427   1  2.846169E+05  1.231295E+05  7.797170E+04  5.941942E+04 -7.398593E+03 -4.123228E+04
       427   2  2.357323E+05  1.118721E+05  7.071177E+04  5.480755E+04 -7.687182E+03 -3.775550E+04
       427   3  1.868773E+05  1.007072E+05  6.365332E+04  5.930694E+04 -7.977328E+03 -3.404852E+04
       427   4 -2.515460E+05  1.680385E+02 -6.814034E+02  5.849556E+04 -4.555675E+02 -4.122032E+04
       427   5 -2.515103E+05  2.020045E+02 -3.887450E+02  5.393965E+04 -2.691984E+02 -3.774138E+04
       427   6 -2.515299E+05  2.460836E+02 -2.245969E+02  5.849541E+04 -8.440710E+01 -3.403215E+04
       427   7 -7.874193E+05 -1.228068E+05 -7.933933E+04  5.757237E+04  6.481711E+03 -4.120837E+04
       427   8 -7.385135E+05 -1.114791E+05 -7.149307E+04  5.307232E+04  7.143207E+03 -3.772728E+04
       427   9 -6.897431E+05 -1.002239E+05 -6.410550E+04  5.768435E+04  7.803174E+03 -3.401580E+04
       427  10  2.846163E+05  1.231277E+05  7.796840E+04  5.941917E+04 -2.411523E-09  3.421791E-09
       427  11  2.357318E+05  1.118706E+05  7.070898E+04  5.480732E+04  1.160501E-09  3.501565E-09
       427  12  1.868769E+05  1.007060E+05  6.365102E+04  5.930672E+04  5.576766E-09  9.030800E-10
       427  13 -2.515465E+05  1.662141E+02 -6.845964E+02  5.849554E+04 -3.545457E-10 -2.903551E-09
       427  14 -2.515107E+05  2.004751E+02 -3.914215E+02  5.393964E+04  1.004521E-10  2.473063E-09
       427  15 -2.515302E+05  2.448400E+02 -2.267731E+02  5.849540E+04 -1.452371E-10  5.447566E-09
       427  16 -7.874198E+05 -1.228086E+05 -7.934260E+04  5.757258E+04  2.183203E-09  8.930479E-10
       427  17 -7.385139E+05 -1.114806E+05 -7.149584E+04  5.307254E+04 -8.637919E-10  5.183582E-09
       427  18 -6.897435E+05 -1.002252E+05 -6.410778E+04  5.768457E+04 -6.717595E-09  9.259710E-10
       427  19  2.846169E+05  1.231295E+05  7.797170E+04  5.941942E+04  7.398593E+03  4.123228E+04
       427  20  2.357323E+05  1.118721E+05  7.071177E+04  5.480755E+04  7.687182E+03  3.775550E+04
       427  21  1.868773E+05  1.007072E+05  6.365332E+04  5.930694E+04  7.977328E+03  3.404852E+04
       427  22 -2.515460E+05  1.680385E+02 -6.814034E+02  5.849556E+04  4.555675E+02  4.122032E+04
       427  23 -2.515103E+05  2.020045E+02 -3.887450E+02  5.393965E+04  2.691984E+02  3.774138E+04
       427  24 -2.515299E+05  2.460836E+02 -2.245969E+02  5.849541E+04  8.440710E+01  3.403215E+04
       427  25 -7.874193E+05 -1.228068E+05 -7.933933E+04  5.757237E+04 -6.481711E+03  4.120837E+04
       427  26 -7.385135E+05 -1.114791E+05 -7.149307E+04  5.307232E+04 -7.143207E+03  3.772728E+04
       427  27 -6.897431E+05 -1.002239E+05 -6.410550E+04  5.768435E+04 -7.803174E+03  3.401580E+04
       428   1  1.561300E+05  9.362649E+04  5.901866E+04  5.925960E+04 -7.945435E+03 -3.181503E+04
       428   2  1.072446E+05  8.242241E+04  5.201337E+04  5.461164E+04 -7.954655E+03 -2.797910E+04
       428   3  5.833155E+04  7.127151E+04  4.501401E+04  5.909628E+04 -7.964764E+03 -2.411667E+04
       428   4 -2.515216E+05  2.523018E+02 -1.735841E+02  5.850014E+04 -5.342265E+01 -3.179807E+04
       428   5 -2.514955E+05  2.431237E+02 -1.081600E+02  5.393367E+04 -8.318888E+00 -2.796114E+04
       428   6 -2.515097E+05  2.775407E+02 -7.495555E+01  5.850010E+04  3.589573E+01 -2.409770E+04
       428   7 -6.590055E+05 -9.312950E+04 -5.936832E+04  5.774109E+04  7.833626E+03 -3.178111E+04
       428   8 -6.101056E+05 -8.194206E+04 -5.223158E+04  5.325603E+04  7.933619E+03 -2.794318E+04
       428   9 -5.612540E+05 -7.072082E+04 -4.516527E+04  5.790417E+04  8.032729E+03 -2.407874E+04
       428  10  1.561296E+05  9.362538E+04  5.901664E+04  5.925940E+04  1.167028E-09 -4.304300E-10
       428  11  1.072444E+05  8.242156E+04  5.201179E+04  5.461146E+04 -1.745821E-09  7.034162E-09
       428  12  5.833133E+04  7.127087E+04  4.501280E+04  5.909613E+04 -2.903113E-09  5.108617E-09
       428  13 -2.515219E+05  2.512162E+02 -1.754840E+02  5.850014E+04  5.280282E-10  8.777428E-10
       428  14 -2.514957E+05  2.422842E+02 -1.096291E+02  5.393367E+04  1.626856E-09  7.238747E-09
       428  15 -2.515099E+05  2.769172E+02 -7.604667E+01  5.850010E+04 -2.192759E-10  2.283320E-09
       428  16 -6.590058E+05 -9.313060E+04 -5.937033E+04  5.774130E+04 -1.190205E-09  6.141151E-10
       428  17 -6.101059E+05 -8.194292E+04 -5.223316E+04  5.325621E+04  1.145502E-11  3.035408E-09
       428  18 -5.612542E+05 -7.072146E+04 -4.516648E+04  5.790433E+04  2.403851E-09  2.925876E-09
       428  19  1.561300E+05  9.362649E+04  5.901866E+04  5.925960E+04  7.945435E+03  3.181503E+04
       428  20  1.072446E+05  8.242241E+04  5.201337E+04  5.461164E+04  7.954655E+03  2.797910E+04
       428  21  5.833155E+04  7.127151E+04  4.501401E+04  5.909628E+04  7.964764E+03  2.411667E+04
       428  22 -2.515216E+05  2.523018E+02 -1.735841E+02  5.850014E+04  5.342265E+01  3.179807E+04
       428  23 -2.514955E+05  2.431237E+02 -1.081600E+02  5.393367E+04  8.318888E+00  2.796114E+04
       428  24 -2.515097E+05  2.775407E+02 -7.495555E+01  5.850010E+04 -3.589573E+01  2.409770E+04
       428  25 -6.590055E+05 -9.312950E+04 -5.936832E+04  5.774109E+04 -7.833626E+03  3.178111E+04
       428  26 -6.101056E+05 -8.194206E+04 -5.223158E+04  5.325603E+04 -7.933619E+03  2.794318E+04
       428  27 -5.612540E+05 -7.072082E+04 -4.516527E+04  5.790417E+04 -8.032729E+03  2.407874E+04
       429   1  2.757439E+04  6.419370E+04  4.036423E+04  5.904217E+04 -7.957830E+03 -2.185955E+04
       429   2 -2.132218E+04  5.299016E+04  3.333771E+04  5.437833E+04 -7.924163E+03 -1.798481E+04
       429   3 -7.026401E+04  4.183047E+04  2.628388E+04  5.885556E+04 -7.891023E+03 -1.411369E+04
       429   4 -2.515074E+05  2.825585E+02 -6.861499E+01  5.850196E+04  4.355343E+01 -2.184015E+04
       429   5 -2.514808E+05  2.684732E+02 -7.138319E+01  5.393132E+04  6.948704E+01 -1.796487E+04
       429   6 -2.514998E+05  2.998278E+02 -9.603889E+01  5.850193E+04  9.489730E+01 -1.409321E+04
       429   7 -5.305105E+05 -6.363213E+04 -4.050248E+04  5.796195E+04  8.041492E+03 -2.182076E+04
       429   8 -4.815858E+05 -5.245562E+04 -3.348111E+04  5.348444E+04  8.060298E+03 -1.794494E+04
       429   9 -4.327023E+05 -4.123230E+04 -2.647627E+04  5.814839E+04  8.078583E+03 -1.407274E+04
       429  10  2.757419E+04  6.419317E+04  4.036322E+04  5.904203E+04  9.329582E-09  1.144262E-09
       429  11 -2.132234E+04  5.298980E+04  3.333699E+04  5.437822E+04 -8.275429E-10  2.001304E-09
       429  12 -7.026413E+04  4.183024E+04  2.628339E+04  5.885547E+04 -1.068237E-08  1.447638E-09
       429  13 -2.515076E+05  2.820464E+02 -6.951125E+01  5.850196E+04 -1.922189E-10  8.216087E-09
       429  14 -2.514809E+05  2.681267E+02 -7.198961E+01  5.393132E+04 -1.015624E-10  2.018520E-09
       429  15 -2.514998E+05  2.996145E+02 -9.641211E+01  5.850194E+04 -1.208448E-09 -3.490357E-10
       429  16 -5.305107E+05 -6.363266E+04 -4.050350E+04  5.796209E+04 -9.497345E-09  4.128236E-09
       429  17 -4.815860E+05 -5.245599E+04 -3.348183E+04  5.348456E+04 -9.960571E-10 -4.149649E-10
       429  18 -4.327024E+05 -4.123253E+04 -2.647676E+04  5.814849E+04  8.657373E-09 -1.096175E-09
       429  19  2.757439E+04  6.419370E+04  4.036423E+04  5.904217E+04  7.957830E+03  2.185955E+04
       429  20 -2.132218E+04  5.299016E+04  3.333771E+04  5.437833E+04  7.924163E+03  1.798481E+04
       429  21 -7.026401E+04  4.183047E+04  2.628388E+04  5.885556E+04  7.891023E+03  1.411369E+04
       429  22 -2.515074E+05  2.825585E+02 -6.861499E+01  5.850196E+04 -4.355343E+01  2.184015E+04
       429  23 -2.514808E+05  2.684732E+02 -7.138319E+01  5.393132E+04 -6.948704E+01  1.796487E+04
       429  24 -2.514998E+05  2.998278E+02 -9.603889E+01  5.850193E+04 -9.489730E+01  1.409321E+04
       429  25 -5.305105E+05 -6.363213E+04 -4.050248E+04  5.796195E+04 -8.041492E+03  2.182076E+04
       429  26 -4.815858E+05 -5.245562E+04 -3.348111E+04  5.348444E+04 -8.060298E+03  1.794494E+04
       429  27 -4.327023E+05 -4.123230E+04 -2.647627E+04  5.814839E+04 -8.078583E+03  1.407274E+04
       430   1 -1.010343E+05  3.474699E+04  2.159740E+04  5.879118E+04 -7.878505E+03 -1.185908E+04
       430   2 -1.499229E+05  2.352498E+04  1.444695E+04  5.412526E+04 -7.662845E+03 -8.019249E+03
       430   3 -1.988935E+05  1.231039E+04  7.140341E+03  5.859803E+04 -7.447281E+03 -4.241243E+03
       430   4 -2.515015E+05  3.034164E+02 -1.194064E+02  5.850137E+04  1.084550E+02 -1.183836E+04
       430   5 -2.514688E+05  2.818856E+02 -1.968734E+02  5.393201E+04  1.962165E+02 -7.998620E+03
       430   6 -2.514982E+05  2.900574E+02 -3.418450E+02  5.850142E+04  2.838986E+02 -4.220711E+03
       430   7 -4.019458E+05 -3.414116E+04 -2.183633E+04  5.821162E+04  8.093561E+03 -1.181764E+04
       430   8 -3.530041E+05 -2.296164E+04 -1.484063E+04  5.373878E+04  8.054047E+03 -7.977994E+03
       430   9 -3.041000E+05 -1.173037E+04 -7.823846E+03  5.840481E+04  8.014451E+03 -4.200180E+03
       430  10 -1.010344E+05  3.474683E+04  2.159702E+04  5.879110E+04 -8.032198E-09  5.975673E-09
       430  11 -1.499230E+05  2.352489E+04  1.444672E+04  5.412521E+04 -4.092795E-08  7.513655E-09
       430  12 -1.988935E+05  1.231036E+04  7.140203E+03  5.859801E+04 -6.657098E-08  6.471237E-09
       430  13 -2.515016E+05  3.032660E+02 -1.196698E+02  5.850137E+04 -1.604748E-09 -2.656515E-10
       430  14 -2.514688E+05  2.818169E+02 -1.969937E+02  5.393201E+04  1.079765E-09 -6.328020E-09
       430  15 -2.514982E+05  2.900383E+02 -3.418786E+02  5.850142E+04  9.043406E-10 -1.156643E-08
       430  16 -4.019459E+05 -3.414133E+04 -2.183671E+04  5.821170E+04  8.147477E-09  4.959583E-09
       430  17 -3.530041E+05 -2.296173E+04 -1.484087E+04  5.373883E+04  3.956899E-08 -3.371951E-09
       430  18 -3.041000E+05 -1.173041E+04 -7.824000E+03  5.840483E+04  6.621635E-08  2.387448E-09
       430  19 -1.010343E+05  3.474699E+04  2.159740E+04  5.879118E+04  7.878505E+03  1.185908E+04
       430  20 -1.499229E+05  2.352498E+04  1.444695E+04  5.412526E+04  7.662845E+03  8.019249E+03
       430  21 -1.988935E+05  1.231039E+04  7.140341E+03  5.859803E+04  7.447281E+03  4.241243E+03
       430  22 -2.515015E+05  3.034164E+02 -1.194064E+02  5.850137E+04 -1.084550E+02  1.183836E+04
       430  23 -2.514688E+05  2.818856E+02 -1.968734E+02  5.393201E+04 -1.962165E+02  7.998620E+03
       430  24 -2.514982E+05  2.900574E+02 -3.418450E+02  5.850142E+04 -2.838986E+02  4.220711E+03
       430  25 -4.019458E+05 -3.414116E+04 -2.183633E+04  5.821162E+04 -8.093561E+03  1.181764E+04
       430  26 -3.530041E+05 -2.296164E+04 -1.484063E+04  5.373878E+04 -8.054047E+03  7.977994E+03
       430  27 -3.041000E+05 -1.173037E+04 -7.823846E+03  5.840481E+04 -8.014451E+03  4.200180E+03
       431   1 -2.297134E+05  5.197111E+03  2.288474E+03  5.850019E+04 -7.390782E+03 -2.039506E+03
       431   2 -2.784719E+05 -6.196513E+03 -5.593966E+03  5.398468E+04 -5.886045E+03  1.443596E+03
       431   3 -3.275790E+05 -1.797758E+04 -1.457048E+04  5.857052E+04 -4.380034E+03  4.385858E+03
       431   4 -2.515190E+05  2.871150E+02 -4.503961E+02  5.849297E+04  3.459071E+02 -2.018906E+03
       431   5 -2.514406E+05  1.707377E+02 -7.950663E+02  5.394288E+04  7.344104E+02  1.461175E+03
       431   6 -2.515200E+05 -1.393355E+02 -1.458730E+03  5.849409E+04  1.124316E+03  4.400429E+03
       431   7 -2.733240E+05 -4.622868E+03 -3.189042E+03  5.848575E+04  8.082338E+03 -1.998305E+03
       431   8 -2.244084E+05  6.537971E+03  4.003971E+03  5.390107E+04  7.355146E+03  1.478753E+03
       431   9 -1.754552E+05  1.769861E+04  1.165294E+04  5.841765E+04  6.629320E+03  4.414997E+03
       431  10 -2.297134E+05  5.197092E+03  2.288364E+03  5.850018E+04 -4.689366E-09  7.017609E-09
       431  11 -2.784719E+05 -6.196524E+03 -5.594035E+03  5.398469E+04  3.700887E-08  1.646352E-09
       431  12 -3.275790E+05 -1.797760E+04 -1.457056E+04  5.857054E+04  7.670392E-08  3.749882E-09
       431  13 -2.515190E+05  2.871106E+02 -4.504040E+02  5.849297E+04  4.357514E-10 -1.026348E-08
       431  14 -2.514406E+05  1.707353E+02 -7.950713E+02  5.394288E+04  2.102966E-09 -8.291885E-09
       431  15 -2.515200E+05 -1.393566E+02 -1.458769E+03  5.849409E+04  1.129999E-09 -4.958882E-09
       431  16 -2.733241E+05 -4.622890E+03 -3.189173E+03  5.848577E+04  4.139218E-09  4.023344E-09
       431  17 -2.244085E+05  6.537954E+03  4.003865E+03  5.390106E+04 -3.864607E-08  1.206231E-09
       431  18 -1.754553E+05  1.769858E+04  1.165282E+04  5.841763E+04 -7.789480E-08 -6.436391E-09
       431  19 -2.297134E+05  5.197111E+03  2.288474E+03  5.850019E+04  7.390782E+03  2.039506E+03
       431  20 -2.784719E+05 -6.196513E+03 -5.593966E+03  5.398468E+04  5.886045E+03 -1.443596E+03
       431  21 -3.275790E+05 -1.797758E+04 -1.457048E+04  5.857052E+04  4.380034E+03 -4.385858E+03
       431  22 -2.515190E+05  2.871150E+02 -4.503961E+02  5.849297E+04 -3.459071E+02  2.018906E+03
       431  23 -2.514406E+05  1.707377E+02 -7.950663E+02  5.394288E+04 -7.344104E+02 -1.461175E+03
       431  24 -2.515200E+05 -1.393355E+02 -1.458730E+03  5.849409E+04 -1.124316E+03 -4.400429E+03
       431  25 -2.733240E+05 -4.622868E+03 -3.189042E+03  5.848575E+04 -8.082338E+03  1.998305E+03
       431  26 -2.244084E+05  6.537971E+03  4.003971E+03  5.390107E+04 -7.355146E+03 -1.478753E+03
       431  27 -1.754552E+05  1.769861E+04  1.165294E+04  5.841765E+04 -6.629320E+03 -4.414997E+03
       432   1 -3.588333E+05 -2.537997E+04 -2.048713E+04  5.816716E+04 -4.180954E+03  6.121292E+03
       432   2 -4.064224E+05 -3.880232E+04 -3.368300E+04  5.591274E+04  7.314800E+03  6.499539E+03
       432   3 -4.567649E+05 -5.703897E+04 -5.558150E+04  6.242959E+04  1.882139E+04  2.191555E+03
       432   4 -2.517248E+05 -2.405619E+02 -1.940750E+03  5.841935E+04  1.370820E+03  6.135896E+03
       432   5 -2.511902E+05 -1.734349E+03 -3.570790E+03  5.404166E+04  3.199440E+03  6.488594E+03
       432   6 -2.517307E+05 -6.362466E+03 -7.186795E+03  5.843524E+04  5.039716E+03  2.155522E+03
       432   7 -1.446051E+05  2.489825E+04  1.660534E+04  5.867158E+04  6.923522E+03  6.150503E+03
       432   8 -9.593473E+04  3.533220E+04  2.654035E+04  5.217008E+04 -9.169264E+02  6.477676E+03
       432   9 -4.665727E+04  4.431120E+04  4.120573E+04  5.443954E+04 -8.746486E+03  2.119674E+03
       432  10 -3.588333E+05 -2.538002E+04 -2.048723E+04  5.816718E+04 -2.657561E-09  4.479298E-09
       432  11 -4.064225E+05 -3.880238E+04 -3.368318E+04  5.591270E+04  6.572508E-10  1.689441E-09
       432  12 -4.567653E+05 -5.703907E+04 -5.558218E+04  6.242956E+04  5.857187E-09 -5.511476E-10
       432  13 -2.517249E+05 -2.406028E+02 -1.940824E+03  5.841934E+04 -1.737569E-10  5.120650E-09
       432  14 -2.511902E+05 -1.734397E+03 -3.570889E+03  5.404164E+04  7.353388E-10 -6.253812E-09
       432  15 -2.517307E+05 -6.362478E+03 -7.186851E+03  5.843523E+04 -7.458944E-10  6.982308E-09
       432  16 -1.446051E+05  2.489819E+04  1.660518E+04  5.867155E+04  2.742401E-09  1.288071E-09
       432  17 -9.593474E+04  3.533216E+04  2.654027E+04  5.217008E+04 -1.976491E-09  4.465915E-09
       432  18 -4.665735E+04  4.431117E+04  4.120558E+04  5.443955E+04 -7.106213E-09  3.135042E-10
       432  19 -3.588333E+05 -2.537997E+04 -2.048713E+04  5.816716E+04  4.180954E+03 -6.121292E+03
       432  20 -4.064224E+05 -3.880232E+04 -3.368300E+04  5.591274E+04 -7.314800E+03 -6.499539E+03
       432  21 -4.567649E+05 -5.703897E+04 -5.558150E+04  6.242959E+04 -1.882139E+04 -2.191555E+03
       432  22 -2.517248E+05 -2.405619E+02 -1.940750E+03  5.841935E+04 -1.370820E+03 -6.135896E+03
       432  23 -2.511902E+05 -1.734349E+03 -3.570790E+03  5.404166E+04 -3.199440E+03 -6.488594E+03
       432  24 -2.517307E+05 -6.362466E+03 -7.186795E+03  5.843524E+04 -5.039716E+03 -2.155522E+03
       432  25 -1.446051E+05  2.489825E+04  1.660534E+04  5.867158E+04 -6.923522E+03 -6.150503E+03
       432  26 -9.593473E+04  3.533220E+04  2.654035E+04  5.217008E+04  9.169264E+02 -6.477676E+03
       432  27 -4.665727E+04  4.431120E+04  4.120573E+04  5.443954E+04  8.746486E+03 -2.119674E+03
       433   1 -6.857967E+05 -2.478229E+04 -7.214441E+04 -2.508463E+04 -1.390207E+05 -4.548812E+03
       433   2 -6.802480E+05  1.634038E+05  3.912806E+04 -1.236013E+04 -9.292448E+04 -1.267940E+04
       433   3 -7.347979E+05  1.332425E+05  6.591292E+04  2.777658E+04 -4.685841E+04 -1.117784E+04
       433   4 -1.240139E+06 -1.631022E+05 -2.099207E+05  1.011857E+04 -1.433188E+05 -4.568640E+03
       433   5 -1.209734E+06  3.151206E+04 -9.065918E+04 -3.823453E+03 -9.402896E+04 -1.268501E+04
       433   6 -1.240038E+06  7.120819E+03 -5.815961E+04  9.648135E+03 -4.476714E+04 -1.116958E+04
       433   7 -1.794198E+06 -3.014404E+05 -3.477193E+05  4.529010E+04 -1.476130E+05 -4.588967E+03
       433   8 -1.738964E+06 -1.004002E+05 -2.204669E+05  4.705722E+03 -9.513248E+04 -1.269065E+04
       433   9 -1.745045E+06 -1.190187E+05 -1.822508E+05 -8.465719E+03 -4.267755E+04 -1.116144E+04
       433  10 -6.858174E+05 -2.478751E+04 -7.218081E+04 -2.508514E+04 -2.983729E-09  2.892776E-09
       433  11 -6.802574E+05  1.634013E+05  3.911151E+04 -1.236108E+04  1.817106E-09  1.322845E-08
       433  12 -7.348003E+05  1.332418E+05  6.590856E+04  2.777616E+04  9.393925E-10  4.779822E-09
       433  13 -1.240161E+06 -1.631077E+05 -2.099594E+05  1.011804E+04 -7.746337E-10 -2.123337E-09
       433  14 -1.209744E+06  3.150951E+04 -9.067613E+04 -3.824414E+03  3.001920E-09 -5.338149E-09
       433  15 -1.240040E+06  7.120145E+03 -5.816361E+04  9.647732E+03 -9.420158E-11 -2.586388E-09
       433  16 -1.794222E+06 -3.014463E+05 -3.477604E+05  4.528955E+04  3.577840E-09  8.511523E-10
       433  17 -1.738974E+06 -1.004028E+05 -2.204843E+05  4.704749E+03 -3.323454E-09  9.235160E-09
       433  18 -1.745047E+06 -1.190193E+05 -1.822544E+05 -8.466103E+03  8.718802E-10 -1.157538E-09
       433  19 -6.857967E+05 -2.478229E+04 -7.214441E+04 -2.508463E+04  1.390207E+05  4.548812E+03
       433  20 -6.802480E+05  1.634038E+05  3.912806E+04 -1.236013E+04  9.292448E+04  1.267940E+04
       433  21 -7.347979E+05  1.332425E+05  6.591292E+04  2.777658E+04  4.685841E+04  1.117784E+04
       433  22 -1.240139E+06 -1.631022E+05 -2.099207E+05  1.011857E+04  1.433188E+05  4.568640E+03
       433  23 -1.209734E+06  3.151206E+04 -9.065918E+04 -3.823453E+03  9.402896E+04  1.268501E+04
       433  24 -1.240038E+06  7.120819E+03 -5.815961E+04  9.648135E+03  4.476714E+04  1.116958E+04
       433  25 -1.794198E+06 -3.014404E+05 -3.477193E+05  4.529010E+04  1.476130E+05  4.588967E+03
       433  26 -1.738964E+06 -1.004002E+05 -2.204669E+05  4.705722E+03  9.513248E+04  1.269065E+04
       433  27 -1.745045E+06 -1.190187E+05 -1.822508E+05 -8.465719E+03  4.267755E+04  1.116144E+04
       434   1 -7.844592E+05  8.951910E+04  6.128338E+04  7.777216E+03 -3.524921E+04 -9.159484E+03
       434   2 -8.088912E+05  1.076195E+05  7.837940E+04 -4.948997E+03 -2.340418E+04 -9.143079E+03
       434   3 -8.418329E+05  9.747049E+04  8.071742E+04  1.443337E+04 -1.156549E+04 -7.981346E+03
       434   4 -1.228463E+06 -2.117308E+04 -4.786020E+04  1.091302E+04 -3.543419E+04 -9.160866E+03
       434   5 -1.224162E+06  4.086932E+03 -2.357524E+04 -5.185856E+03 -2.321253E+04 -9.142698E+03
       434   6 -1.228445E+06  1.021262E+03 -1.431793E+04  1.082542E+04 -1.099666E+04 -7.978992E+03
       434   7 -1.672286E+06 -1.318799E+05 -1.570183E+05  1.404639E+04 -3.561903E+04 -9.162252E+03
       434   8 -1.639276E+06 -9.945842E+04 -1.255426E+05 -5.422721E+03 -2.302100E+04 -9.142317E+03
       434   9 -1.614920E+06 -9.543906E+04 -1.093643E+05  7.219565E+03 -1.042819E+04 -7.976644E+03
       434  10 -7.844606E+05  8.951867E+04  6.128088E+04  7.776956E+03 -2.241297E-09 -3.398760E-09
       434  11 -8.088918E+05  1.076192E+05  7.837821E+04 -4.949170E+03  2.192769E-09  1.083671E-09
       434  12 -8.418331E+05  9.747038E+04  8.071704E+04  1.443329E+04  8.236220E-10  1.197720E-08
       434  13 -1.228464E+06 -2.117351E+04 -4.786272E+04  1.091276E+04  1.834271E-10  1.453218E-08
       434  14 -1.224163E+06  4.086698E+03 -2.357642E+04 -5.186027E+03  3.026417E-09 -2.469242E-08
       434  15 -1.228445E+06  1.021161E+03 -1.431828E+04  1.082535E+04 -1.120264E-09  9.854611E-09
       434  16 -1.672288E+06 -1.318803E+05 -1.570209E+05  1.404613E+04  3.196674E-09 -1.014649E-08
       434  17 -1.639276E+06 -9.945866E+04 -1.255437E+05 -5.422890E+03 -5.695658E-09 -1.028921E-09
       434  18 -1.614920E+06 -9.543915E+04 -1.093646E+05  7.219498E+03 -7.678076E-10 -3.899052E-10
       434  19 -7.844592E+05  8.951910E+04  6.128338E+04  7.777216E+03  3.524921E+04  9.159484E+03
       434  20 -8.088912E+05  1.076195E+05  7.837940E+04 -4.948997E+03  2.340418E+04  9.143079E+03
       434  21 -8.418329E+05  9.747049E+04  8.071742E+04  1.443337E+04  1.156549E+04  7.981346E+03
       434  22 -1.228463E+06 -2.117308E+04 -4.786020E+04  1.091302E+04  3.543419E+04  9.160866E+03
       434  23 -1.224162E+06  4.086932E+03 -2.357524E+04 -5.185856E+03  2.321253E+04  9.142698E+03
       434  24 -1.228445E+06  1.021262E+03 -1.431793E+04  1.082542E+04  1.099666E+04  7.978992E+03
       434  25 -1.672286E+06 -1.318799E+05 -1.570183E+05  1.404639E+04  3.561903E+04  9.162252E+03
       434  26 -1.639276E+06 -9.945842E+04 -1.255426E+05 -5.422721E+03  2.302100E+04  9.142317E+03
       434  27 -1.614920E+06 -9.543906E+04 -1.093643E+05  7.219565E+03  1.042819E+04  7.976644E+03
       435   1 -9.103027E+05  7.628482E+04  6.630038E+04  1.229822E+04 -9.017642E+03 -7.175956E+03
       435   2 -9.414356E+05  7.148822E+04  6.382728E+04 -5.205098E+03 -6.002355E+03 -6.166740E+03
       435   3 -9.740451E+05  6.333925E+04  5.849963E+04  1.296797E+04 -2.988964E+03 -4.980665E+03
       435   4 -1.226856E+06 -2.634995E+03 -1.137087E+04  1.165714E+04 -8.710526E+03 -7.174722E+03
       435   5 -1.226110E+06  4.978450E+02 -6.084954E+03 -6.188627E+03 -5.637294E+03 -6.165078E+03
       435   6 -1.226852E+06  2.673564E+02 -3.694811E+03  1.164304E+04 -2.565804E+03 -4.978542E+03
       435   7 -1.543317E+06 -8.156226E+04 -8.904948E+04  1.101627E+04 -8.403566E+03 -7.173487E+03
       435   8 -1.510710E+06 -7.049856E+04 -7.600315E+04 -7.171795E+03 -5.272401E+03 -6.163417E+03
       435   9 -1.479601E+06 -6.280929E+04 -6.589397E+04  1.031856E+04 -2.142816E+03 -4.976419E+03
       435  10 -9.103028E+05  7.628474E+04  6.630013E+04  1.229817E+04  2.626825E-09 -7.296345E-09
       435  11 -9.414357E+05  7.148817E+04  6.382714E+04 -5.205128E+03  1.239858E-09 -9.200940E-09
       435  12 -9.740451E+05  6.333922E+04  5.849957E+04  1.296796E+04 -2.128613E-09 -7.021385E-09
       435  13 -1.226856E+06 -2.635071E+03 -1.137111E+04  1.165709E+04  6.141914E-11 -2.305452E-09
       435  14 -1.226110E+06  4.977957E+02 -6.085085E+03 -6.188655E+03  1.833349E-09 -5.925538E-09
       435  15 -1.226852E+06  2.673280E+02 -3.694870E+03  1.164303E+04  6.574521E-10 -4.085162E-09
       435  16 -1.543317E+06 -8.156233E+04 -8.904971E+04  1.101622E+04 -3.078139E-09 -1.110410E-08
       435  17 -1.510710E+06 -7.049860E+04 -7.600328E+04 -7.171821E+03 -6.647114E-09  8.134474E-09
       435  18 -1.479601E+06 -6.280932E+04 -6.589403E+04  1.031855E+04  1.333826E-09  1.120451E-08
       435  19 -9.103027E+05  7.628482E+04  6.630038E+04  1.229822E+04  9.017642E+03  7.175956E+03
       435  20 -9.414356E+05  7.148822E+04  6.382728E+04 -5.205098E+03  6.002355E+03  6.166740E+03
       435  21 -9.740451E+05  6.333925E+04  5.849963E+04  1.296797E+04  2.988964E+03  4.980665E+03
       435  22 -1.226856E+06 -2.634995E+03 -1.137087E+04  1.165714E+04  8.710526E+03  7.174722E+03
       435  23 -1.226110E+06  4.978450E+02 -6.084954E+03 -6.188627E+03  5.637294E+03  6.165078E+03
       435  24 -1.226852E+06  2.673564E+02 -3.694811E+03  1.164304E+04  2.565804E+03  4.978542E+03
       435  25 -1.543317E+06 -8.156226E+04 -8.904948E+04  1.101627E+04  8.403566E+03  7.173487E+03
       435  26 -1.510710E+06 -7.049856E+04 -7.600315E+04 -7.171795E+03  5.272401E+03  6.163417E+03
       435  27 -1.479601E+06 -6.280929E+04 -6.589397E+04  1.031856E+04  2.142816E+03  4.976419E+03
       436   1 -1.049917E+06  4.385904E+04  4.034068E+04  1.280200E+04 -2.361266E+03 -4.268196E+03
       436   2 -1.083435E+06  3.568179E+04  3.319218E+04 -6.208082E+03 -1.429305E+03 -3.083601E+03
       436   3 -1.117582E+06  2.737166E+04  2.530431E+04  1.264689E+04 -4.981200E+02 -1.857435E+03
       436   4 -1.226652E+06 -1.982574E+02 -2.968656E+03  1.213531E+04 -1.972077E+03 -4.266159E+03
       436   5 -1.226336E+06  4.155216E+01 -1.906605E+03 -6.798424E+03 -1.026411E+03 -3.081411E+03
       436   6 -1.226651E+06  1.460908E+02 -1.593538E+03  1.213344E+04 -8.146955E+01 -1.855084E+03
       436   7 -1.403358E+06 -4.425787E+04 -4.628029E+04  1.146877E+04 -1.582999E+03 -4.264122E+03
       436   8 -1.369218E+06 -3.560020E+04 -3.700689E+04 -7.388655E+03 -6.236093E+02 -3.079222E+03
       436   9 -1.335710E+06 -2.708037E+04 -2.849226E+04  1.162006E+04  3.351077E+02 -1.852733E+03
       436  10 -1.049917E+06  4.385901E+04  4.034064E+04  1.280199E+04 -1.384653E-09 -9.408403E-09
       436  11 -1.083435E+06  3.568177E+04  3.319216E+04 -6.208086E+03 -4.160610E-10  6.141095E-09
       436  12 -1.117582E+06  2.737166E+04  2.530430E+04  1.264689E+04 -4.067463E-09  1.612371E-09
       436  13 -1.226652E+06 -1.982780E+02 -2.968697E+03  1.213530E+04 -2.202080E-11  6.244636E-09
       436  14 -1.226336E+06  4.154169E+01 -1.906624E+03 -6.798427E+03  2.928836E-09 -7.224064E-09
       436  15 -1.226651E+06  1.460871E+02 -1.593544E+03  1.213344E+04  1.077798E-09 -8.230502E-09
       436  16 -1.403358E+06 -4.425789E+04 -4.628032E+04  1.146876E+04  2.693022E-10  5.148402E-09
       436  17 -1.369218E+06 -3.560021E+04 -3.700691E+04 -7.388657E+03 -6.024652E-09  2.527363E-08
       436  18 -1.335710E+06 -2.708037E+04 -2.849227E+04  1.162006E+04  5.045430E-09 -3.228404E-09
       436  19 -1.049917E+06  4.385904E+04  4.034068E+04  1.280200E+04  2.361266E+03  4.268196E+03
       436  20 -1.083435E+06  3.568179E+04  3.319218E+04 -6.208082E+03  1.429305E+03  3.083601E+03
       436  21 -1.117582E+06  2.737166E+04  2.530431E+04  1.264689E+04  4.981200E+02  1.857435E+03
       436  22 -1.226652E+06 -1.982574E+02 -2.968656E+03  1.213531E+04  1.972077E+03  4.266159E+03
       436  23 -1.226336E+06  4.155216E+01 -1.906605E+03 -6.798424E+03  1.026411E+03  3.081411E+03
       436  24 -1.226651E+06  1.460908E+02 -1.593538E+03  1.213344E+04  8.146955E+01  1.855084E+03
       436  25 -1.403358E+06 -4.425787E+04 -4.628029E+04  1.146877E+04  1.582999E+03  4.264122E+03
       436  26 -1.369218E+06 -3.560020E+04 -3.700689E+04 -7.388655E+03  6.236093E+02  3.079222E+03
       436  27 -1.335710E+06 -2.708037E+04 -2.849226E+04  1.162006E+04 -3.351077E+02  1.852733E+03
       437   1 -1.196673E+06  7.605533E+03  5.646546E+03  1.237008E+04 -2.107963E+02 -1.133137E+03
       437   2 -1.230779E+06 -1.065789E+03 -3.095674E+03 -7.013018E+03  7.840108E+02  1.016475E+02
       437   3 -1.265603E+06 -9.891436E+03 -1.263977E+04  1.218181E+04  1.778821E+03  1.326220E+03
       437   4 -1.226667E+06  1.461447E+02 -1.614605E+03  1.229170E+04  2.032828E+02 -1.130768E+03
       437   5 -1.226308E+06  4.926763E+01 -1.997702E+03 -6.996261E+03  1.194650E+03  1.039923E+02
       437   6 -1.226668E+06 -2.013699E+02 -3.180313E+03  1.229368E+04  2.186076E+03  1.328545E+03
       437   7 -1.256661E+06 -7.313310E+03 -8.875820E+03  1.221332E+04  6.173420E+02 -1.128399E+03
       437   8 -1.221838E+06  1.164322E+03 -8.997306E+02 -6.979503E+03  1.605293E+03  1.063372E+02
       437   9 -1.187731E+06  9.488585E+03  6.279033E+03  1.240556E+04  2.593357E+03  1.330870E+03
       437  10 -1.196673E+06  7.605532E+03  5.646543E+03  1.237008E+04 -8.134328E-09 -1.875721E-09
       437  11 -1.230779E+06 -1.065789E+03 -3.095675E+03 -7.013018E+03  1.908511E-09 -1.455365E-08
       437  12 -1.265603E+06 -9.891439E+03 -1.263978E+04  1.218181E+04 -7.447802E-09 -7.083891E-09
       437  13 -1.226667E+06  1.461433E+02 -1.614608E+03  1.229170E+04 -2.949878E-10  7.024530E-09
       437  14 -1.226308E+06  4.926724E+01 -1.997704E+03 -6.996261E+03  2.387683E-09 -8.862418E-09
       437  15 -1.226668E+06 -2.013730E+02 -3.180325E+03  1.229368E+04 -4.249609E-10 -1.044933E-08
       437  16 -1.256661E+06 -7.313311E+03 -8.875824E+03  1.221332E+04  6.177080E-09 -4.629878E-09
       437  17 -1.221838E+06  1.164322E+03 -8.997354E+02 -6.979503E+03 -4.072087E-09 -2.220630E-08
       437  18 -1.187731E+06  9.488581E+03  6.279017E+03  1.240556E+04  9.255599E-09 -1.809312E-08
       437  19 -1.196673E+06  7.605533E+03  5.646546E+03  1.237008E+04  2.107963E+02  1.133137E+03
       437  20 -1.230779E+06 -1.065789E+03 -3.095674E+03 -7.013018E+03 -7.840108E+02 -1.016475E+02
       437  21 -1.265603E+06 -9.891436E+03 -1.263977E+04  1.218181E+04 -1.778821E+03 -1.326220E+03
       437  22 -1.226667E+06  1.461447E+02 -1.614605E+03  1.229170E+04 -2.032828E+02  1.130768E+03
       437  23 -1.226308E+06  4.926763E+01 -1.997702E+03 -6.996261E+03 -1.194650E+03 -1.039923E+02
       437  24 -1.226668E+06 -2.013699E+02 -3.180313E+03  1.229368E+04 -2.186076E+03 -1.328545E+03
       437  25 -1.256661E+06 -7.313310E+03 -8.875820E+03  1.221332E+04 -6.173420E+02  1.128399E+03
       437  26 -1.221838E+06  1.164322E+03 -8.997306E+02 -6.979503E+03 -1.605293E+03 -1.063372E+02
       437  27 -1.187731E+06  9.488585E+03  6.279033E+03  1.240556E+04 -2.593357E+03 -1.330870E+03
       438   1 -1.344815E+06 -2.914172E+04 -3.305599E+04  1.126883E+04  2.393077E+03  2.062727E+03
       438   2 -1.377659E+06 -3.727581E+04 -4.382089E+04 -7.300879E+03  5.753985E+03  3.305182E+03
       438   3 -1.412316E+06 -4.904710E+04 -5.778410E+04  1.191273E+04  9.115973E+03  4.418726E+03
       438   4 -1.226913E+06  2.947627E+02 -3.984748E+03  1.210997E+04  2.825516E+03  2.065160E+03
       438   5 -1.226012E+06  5.508339E+02 -6.569314E+03 -6.772959E+03  6.143905E+03  3.307285E+03
       438   6 -1.226916E+06 -2.822071E+03 -1.232177E+04  1.212687E+04  9.463557E+03  4.420513E+03
       438   7 -1.108998E+06  2.973021E+04  2.508547E+04  1.295124E+04  3.258037E+03  2.067594E+03
       438   8 -1.074344E+06  3.837577E+04  3.068057E+04 -6.244938E+03  6.533921E+03  3.309389E+03
       438   9 -1.041485E+06  4.340040E+04  3.313804E+04  1.234103E+04  9.811244E+03  4.422300E+03
       438  10 -1.344815E+06 -2.914173E+04 -3.305601E+04  1.126883E+04 -1.248541E-08 -1.256391E-09
       438  11 -1.377659E+06 -3.727583E+04 -4.382097E+04 -7.300895E+03  1.764775E-09 -1.076799E-08
       438  12 -1.412316E+06 -4.904714E+04 -5.778429E+04  1.191270E+04  1.466893E-09  4.676438E-09
       438  13 -1.226913E+06  2.947560E+02 -3.984771E+03  1.210996E+04 -4.797295E-10 -6.572243E-09
       438  14 -1.226012E+06  5.508120E+02 -6.569405E+03 -6.772975E+03  9.175688E-10  6.688029E-09
       438  15 -1.226917E+06 -2.822117E+03 -1.232197E+04  1.212684E+04 -1.567319E-09  9.348704E-09
       438  16 -1.108998E+06  2.973020E+04  2.508544E+04  1.295124E+04  9.342571E-09  6.367853E-09
       438  17 -1.074344E+06  3.837574E+04  3.068047E+04 -6.244956E+03 -3.226746E-09 -3.299984E-09
       438  18 -1.041486E+06  4.340035E+04  3.313782E+04  1.234100E+04 -4.944127E-10  1.777652E-08
       438  19 -1.344815E+06 -2.914172E+04 -3.305599E+04  1.126883E+04 -2.393077E+03 -2.062727E+03
       438  20 -1.377659E+06 -3.727581E+04 -4.382089E+04 -7.300879E+03 -5.753985E+03 -3.305182E+03
       438  21 -1.412316E+06 -4.904710E+04 -5.778410E+04  1.191273E+04 -9.115973E+03 -4.418726E+03
       438  22 -1.226913E+06  2.947627E+02 -3.984748E+03  1.210997E+04 -2.825516E+03 -2.065160E+03
       438  23 -1.226012E+06  5.508339E+02 -6.569314E+03 -6.772959E+03 -6.143905E+03 -3.307285E+03
       438  24 -1.226916E+06 -2.822071E+03 -1.232177E+04  1.212687E+04 -9.463557E+03 -4.420513E+03
       438  25 -1.108998E+06  2.973021E+04  2.508547E+04  1.295124E+04 -3.258037E+03 -2.067594E+03
       438  26 -1.074344E+06  3.837577E+04  3.068057E+04 -6.244938E+03 -6.533921E+03 -3.309389E+03
       438  27 -1.041485E+06  4.340040E+04  3.313804E+04  1.234103E+04 -9.811244E+03 -4.422300E+03
       439   1 -1.489797E+06 -6.406152E+04 -7.978188E+04  8.097652E+03  1.138032E+04  5.250360E+03
       439   2 -1.516703E+06 -6.858825E+04 -9.745999E+04 -6.070993E+03  2.492580E+04  6.519140E+03
       439   3 -1.553293E+06 -1.038465E+05 -1.317046E+05  1.533048E+04  3.847592E+04  6.847091E+03
       439   4 -1.228662E+06  1.133875E+03 -1.552568E+04  1.158510E+04  1.194338E+04  5.253243E+03
       439   5 -1.223859E+06  4.447728E+03 -2.553582E+04 -6.141761E+03  2.517887E+04  6.520166E+03
       439   6 -1.228682E+06 -2.290776E+04 -5.189094E+04  1.170062E+04  3.841969E+04  6.846302E+03
       439   7 -9.674642E+05  6.632422E+04  4.872549E+04  1.507393E+04  1.250669E+04  5.256131E+03
       439   8 -9.309361E+05  7.747732E+04  4.638203E+04 -6.212661E+03  2.543206E+04  6.521192E+03
       439   9 -9.039740E+05  5.802319E+04  2.791499E+04  8.068739E+03  3.836343E+04  6.845513E+03
       439  10 -1.489797E+06 -6.406159E+04 -7.978217E+04  8.097603E+03  1.873808E-09  5.857275E-09
       439  11 -1.516704E+06 -6.858846E+04 -9.746124E+04 -6.071123E+03 -1.802311E-09  1.466055E-08
       439  12 -1.553295E+06 -1.038469E+05 -1.317075E+05  1.533027E+04 -3.590218E-10 -9.657022E-09
       439  13 -1.228662E+06  1.133807E+03 -1.552600E+04  1.158505E+04  3.066135E-10 -5.018551E-09
       439  14 -1.223859E+06  4.447511E+03 -2.553710E+04 -6.141894E+03 -5.602501E-10  1.734181E-08
       439  15 -1.228683E+06 -2.290821E+04 -5.189381E+04  1.170041E+04 -3.078203E-10  3.638078E-09
       439  16 -9.674644E+05  6.632415E+04  4.872514E+04  1.507388E+04 -3.586360E-09 -8.005426E-10
       439  17 -9.309368E+05  7.747710E+04  4.638074E+04 -6.212794E+03 -3.777826E-09 -1.715092E-08
       439  18 -9.039756E+05  5.802274E+04  2.791213E+04  8.068528E+03  1.779656E-09  6.300269E-09
       439  19 -1.489797E+06 -6.406152E+04 -7.978188E+04  8.097652E+03 -1.138032E+04 -5.250360E+03
       439  20 -1.516703E+06 -6.858825E+04 -9.745999E+04 -6.070993E+03 -2.492580E+04 -6.519140E+03
       439  21 -1.553293E+06 -1.038465E+05 -1.317046E+05  1.533048E+04 -3.847592E+04 -6.847091E+03
       439  22 -1.228662E+06  1.133875E+03 -1.552568E+04  1.158510E+04 -1.194338E+04 -5.253243E+03
       439  23 -1.223859E+06  4.447728E+03 -2.553582E+04 -6.141761E+03 -2.517887E+04 -6.520166E+03
       439  24 -1.228682E+06 -2.290776E+04 -5.189094E+04  1.170062E+04 -3.841969E+04 -6.846302E+03
       439  25 -9.674642E+05  6.632422E+04  4.872549E+04  1.507393E+04 -1.250669E+04 -5.256131E+03
       439  26 -9.309361E+05  7.747732E+04  4.638203E+04 -6.212661E+03 -2.543206E+04 -6.521192E+03
       439  27 -9.039740E+05  5.802319E+04  2.791499E+04  8.068739E+03 -3.836343E+04 -6.845513E+03
       440   1 -1.635291E+06 -9.074821E+04 -1.599210E+05 -8.847016E+03  4.670607E+04  8.695141E+03
       440   2 -1.630676E+06 -7.106198E+04 -2.018590E+05  4.140024E+03  1.027554E+05  1.035502E+04
       440   3 -1.692794E+06 -2.893313E+05 -3.398238E+05  4.941208E+04  1.588337E+05  4.010339E+03
       440   4 -1.241247E+06  7.765120E+03 -6.306051E+04  1.065174E+04  4.854125E+04  8.704549E+03
       440   5 -1.208187E+06  3.418952E+04 -9.825548E+04 -5.133623E+03  1.019371E+05  1.034941E+04
       440   6 -1.241356E+06 -1.767961E+05 -2.275853E+05  1.136769E+04  1.553648E+05  3.986890E+03
       440   7 -8.470599E+05  1.062682E+05  3.378878E+04  3.016277E+04  5.037759E+04  8.714069E+03
       440   8 -7.855354E+05  1.394281E+05  5.334998E+03 -1.441377E+04  1.011182E+05  1.034383E+04
       440   9 -7.897289E+05 -6.427070E+04 -1.153613E+05 -2.670461E+04  1.518933E+05  3.963879E+03
       440  10 -1.635293E+06 -9.074888E+04 -1.599253E+05 -8.847343E+03  4.303925E-09 -8.330576E-09
       440  11 -1.630687E+06 -7.106494E+04 -2.018791E+05  4.139166E+03  6.895341E-09 -2.608586E-11
       440  12 -1.692822E+06 -2.893381E+05 -3.398713E+05  4.941157E+04  7.434758E-10  1.037486E-08
       440  13 -1.241249E+06  7.764404E+03 -6.306509E+04  1.065140E+04 -3.260224E-11  1.327436E-09
       440  14 -1.208198E+06  3.418661E+04 -9.827525E+04 -5.134473E+03  1.087647E-09  9.999839E-10
       440  15 -1.241382E+06 -1.768026E+05 -2.276308E+05  1.136719E+04 -1.347484E-09  7.431510E-09
       440  16 -8.470627E+05  1.062675E+05  3.378386E+04  3.016241E+04 -5.375719E-09  8.717978E-09
       440  17 -7.855464E+05  1.394253E+05  5.315557E+03 -1.441462E+04 -1.057350E-08  4.884651E-09
       440  18 -7.897537E+05 -6.427692E+04 -1.154047E+05 -2.670510E+04 -6.638932E-10 -2.308288E-10
       440  19 -1.635291E+06 -9.074821E+04 -1.599210E+05 -8.847016E+03 -4.670607E+04 -8.695141E+03
       440  20 -1.630676E+06 -7.106198E+04 -2.018590E+05  4.140024E+03 -1.027554E+05 -1.035502E+04
       440  21 -1.692794E+06 -2.893313E+05 -3.398238E+05  4.941208E+04 -1.588337E+05 -4.010339E+03
       440  22 -1.241247E+06  7.765120E+03 -6.306051E+04  1.065174E+04 -4.854125E+04 -8.704549E+03
       440  23 -1.208187E+06  3.418952E+04 -9.825548E+04 -5.133623E+03 -1.019371E+05 -1.034941E+04
       440  24 -1.241356E+06 -1.767961E+05 -2.275853E+05  1.136769E+04 -1.553648E+05 -3.986890E+03
       440  25 -8.470599E+05  1.062682E+05  3.378878E+04  3.016277E+04 -5.037759E+04 -8.714069E+03
       440  26 -7.855354E+05  1.394281E+05  5.334998E+03 -1.441377E+04 -1.011182E+05 -1.034383E+04
       440  27 -7.897289E+05 -6.427070E+04 -1.153613E+05 -2.670461E+04 -1.518933E+05 -3.963879E+03
