    1C
    1UUSER                                                              
    1UDATE              11.october.2022                                 
    1UTIME              17:39:35                                        
    1UHOST                                                              
    1UPGM               CalculiX                                        
    1UVERSION           Version 2.20                             
    1UCOMPILETIME       Sun Jul 31 18:08:37 CEST 2022                    
    1UDIR                                                               
    1UDBN                                                               
    1UMAT    1MESH_MATERIAL                                             
    2C                           841                                     1
 -1         1 0.00000E+00 0.00000E+00 0.00000E+00
 -1         2 1.66667E-02 0.00000E+00 0.00000E+00
 -1         3 3.33333E-02 0.00000E+00 0.00000E+00
 -1         4 5.00000E-02 0.00000E+00 0.00000E+00
 -1         5 6.66667E-02 0.00000E+00 0.00000E+00
 -1         8 0.00000E+00 6.25000E-03 0.00000E+00
 -1         9 1.66667E-02 6.25000E-03 0.00000E+00
 -1        10 3.33333E-02 6.25000E-03 0.00000E+00
 -1        11 5.00000E-02 6.25000E-03 0.00000E+00
 -1        12 6.66667E-02 6.25000E-03 0.00000E+00
 -1        15 0.00000E+00 1.25000E-02 0.00000E+00
 -1        16 1.66667E-02 1.25000E-02 0.00000E+00
 -1        17 3.33333E-02 1.25000E-02 0.00000E+00
 -1        18 5.00000E-02 1.25000E-02 0.00000E+00
 -1        19 6.66667E-02 1.25000E-02 0.00000E+00
 -1        20 8.33333E-02 1.25000E-02 0.00000E+00
 -1        21 1.00000E-01 1.25000E-02 0.00000E+00
 -1        22 0.00000E+00 1.87500E-02 0.00000E+00
 -1        23 1.66667E-02 1.87500E-02 0.00000E+00
 -1        24 3.33333E-02 1.87500E-02 0.00000E+00
 -1        25 5.00000E-02 1.87500E-02 0.00000E+00
 -1        26 6.66667E-02 1.87500E-02 0.00000E+00
 -1        27 8.33333E-02 1.87500E-02 0.00000E+00
 -1        28 1.00000E-01 1.87500E-02 0.00000E+00
 -1        29 0.00000E+00 2.50000E-02 0.00000E+00
 -1        30 1.66667E-02 2.50000E-02 0.00000E+00
 -1        31 3.33333E-02 2.50000E-02 0.00000E+00
 -1        32 5.00000E-02 2.50000E-02 0.00000E+00
 -1        33 6.66667E-02 2.50000E-02 0.00000E+00
 -1        34 8.33333E-02 2.50000E-02 0.00000E+00
 -1        35 1.00000E-01 2.50000E-02 0.00000E+00
 -1        36 1.04167E-03 0.00000E+00 0.00000E+00
 -1        37 2.08333E-03 0.00000E+00 0.00000E+00
 -1        38 3.12500E-03 0.00000E+00 0.00000E+00
 -1        39 4.16667E-03 0.00000E+00 0.00000E+00
 -1        40 5.20833E-03 0.00000E+00 0.00000E+00
 -1        41 6.25000E-03 0.00000E+00 0.00000E+00
 -1        42 7.29167E-03 0.00000E+00 0.00000E+00
 -1        43 8.33333E-03 0.00000E+00 0.00000E+00
 -1        44 9.37500E-03 0.00000E+00 0.00000E+00
 -1        45 1.04167E-02 0.00000E+00 0.00000E+00
 -1        46 1.14583E-02 0.00000E+00 0.00000E+00
 -1        47 1.25000E-02 0.00000E+00 0.00000E+00
 -1        48 1.35417E-02 0.00000E+00 0.00000E+00
 -1        49 1.45833E-02 0.00000E+00 0.00000E+00
 -1        50 1.56250E-02 0.00000E+00 0.00000E+00
 -1        51 0.00000E+00 1.04167E-03 0.00000E+00
 -1        52 0.00000E+00 2.08333E-03 0.00000E+00
 -1        53 0.00000E+00 3.12500E-03 0.00000E+00
 -1        54 0.00000E+00 4.16667E-03 0.00000E+00
 -1        55 0.00000E+00 5.20833E-03 0.00000E+00
 -1        56 1.04167E-03 3.90630E-04 0.00000E+00
 -1        57 2.08333E-03 7.81250E-04 0.00000E+00
 -1        58 3.12500E-03 1.17188E-03 0.00000E+00
 -1        59 4.16667E-03 1.56250E-03 0.00000E+00
 -1        60 5.20833E-03 1.95312E-03 0.00000E+00
 -1        61 6.25000E-03 2.34375E-03 0.00000E+00
 -1        62 7.29167E-03 2.73438E-03 0.00000E+00
 -1        63 8.33333E-03 3.12500E-03 0.00000E+00
 -1        64 9.37500E-03 3.51563E-03 0.00000E+00
 -1        65 1.04167E-02 3.90625E-03 0.00000E+00
 -1        66 1.14583E-02 4.29688E-03 0.00000E+00
 -1        67 1.25000E-02 4.68750E-03 0.00000E+00
 -1        68 1.35417E-02 5.07813E-03 0.00000E+00
 -1        69 1.45833E-02 5.46875E-03 0.00000E+00
 -1        70 1.56250E-02 5.85938E-03 0.00000E+00
 -1        71 1.77083E-02 0.00000E+00 0.00000E+00
 -1        72 1.87500E-02 0.00000E+00 0.00000E+00
 -1        73 1.97917E-02 0.00000E+00 0.00000E+00
 -1        74 2.08333E-02 0.00000E+00 0.00000E+00
 -1        75 2.18750E-02 0.00000E+00 0.00000E+00
 -1        76 2.29167E-02 0.00000E+00 0.00000E+00
 -1        77 2.39583E-02 0.00000E+00 0.00000E+00
 -1        78 2.50000E-02 0.00000E+00 0.00000E+00
 -1        79 2.60417E-02 0.00000E+00 0.00000E+00
 -1        80 2.70833E-02 0.00000E+00 0.00000E+00
 -1        81 2.81250E-02 0.00000E+00 0.00000E+00
 -1        82 2.91667E-02 0.00000E+00 0.00000E+00
 -1        83 3.02083E-02 0.00000E+00 0.00000E+00
 -1        84 3.12500E-02 0.00000E+00 0.00000E+00
 -1        85 3.22917E-02 0.00000E+00 0.00000E+00
 -1        86 1.66667E-02 1.04167E-03 0.00000E+00
 -1        87 1.66667E-02 2.08333E-03 0.00000E+00
 -1        88 1.66667E-02 3.12500E-03 0.00000E+00
 -1        89 1.66667E-02 4.16667E-03 0.00000E+00
 -1        90 1.66667E-02 5.20833E-03 0.00000E+00
 -1        91 1.77083E-02 3.90630E-04 0.00000E+00
 -1        92 1.87500E-02 7.81250E-04 0.00000E+00
 -1        93 1.97917E-02 1.17188E-03 0.00000E+00
 -1        94 2.08333E-02 1.56250E-03 0.00000E+00
 -1        95 2.18750E-02 1.95312E-03 0.00000E+00
 -1        96 2.29167E-02 2.34375E-03 0.00000E+00
 -1        97 2.39583E-02 2.73438E-03 0.00000E+00
 -1        98 2.50000E-02 3.12500E-03 0.00000E+00
 -1        99 2.60417E-02 3.51563E-03 0.00000E+00
 -1       100 2.70833E-02 3.90625E-03 0.00000E+00
 -1       101 2.81250E-02 4.29688E-03 0.00000E+00
 -1       102 2.91667E-02 4.68750E-03 0.00000E+00
 -1       103 3.02083E-02 5.07813E-03 0.00000E+00
 -1       104 3.12500E-02 5.46875E-03 0.00000E+00
 -1       105 3.22917E-02 5.85938E-03 0.00000E+00
 -1       106 3.43750E-02 0.00000E+00 0.00000E+00
 -1       107 3.54167E-02 0.00000E+00 0.00000E+00
 -1       108 3.64583E-02 0.00000E+00 0.00000E+00
 -1       109 3.75000E-02 0.00000E+00 0.00000E+00
 -1       110 3.85417E-02 0.00000E+00 0.00000E+00
 -1       111 3.95833E-02 0.00000E+00 0.00000E+00
 -1       112 4.06250E-02 0.00000E+00 0.00000E+00
 -1       113 4.16667E-02 0.00000E+00 0.00000E+00
 -1       114 4.27083E-02 0.00000E+00 0.00000E+00
 -1       115 4.37500E-02 0.00000E+00 0.00000E+00
 -1       116 4.47917E-02 0.00000E+00 0.00000E+00
 -1       117 4.58333E-02 0.00000E+00 0.00000E+00
 -1       118 4.68750E-02 0.00000E+00 0.00000E+00
 -1       119 4.79167E-02 0.00000E+00 0.00000E+00
 -1       120 4.89583E-02 0.00000E+00 0.00000E+00
 -1       121 3.33333E-02 1.04167E-03 0.00000E+00
 -1       122 3.33333E-02 2.08333E-03 0.00000E+00
 -1       123 3.33333E-02 3.12500E-03 0.00000E+00
 -1       124 3.33333E-02 4.16667E-03 0.00000E+00
 -1       125 3.33333E-02 5.20833E-03 0.00000E+00
 -1       126 3.43750E-02 3.90630E-04 0.00000E+00
 -1       127 3.54167E-02 7.81250E-04 0.00000E+00
 -1       128 3.64583E-02 1.17188E-03 0.00000E+00
 -1       129 3.75000E-02 1.56250E-03 0.00000E+00
 -1       130 3.85417E-02 1.95312E-03 0.00000E+00
 -1       131 3.95833E-02 2.34375E-03 0.00000E+00
 -1       132 4.06250E-02 2.73438E-03 0.00000E+00
 -1       133 4.16667E-02 3.12500E-03 0.00000E+00
 -1       134 4.27083E-02 3.51563E-03 0.00000E+00
 -1       135 4.37500E-02 3.90625E-03 0.00000E+00
 -1       136 4.47917E-02 4.29688E-03 0.00000E+00
 -1       137 4.58333E-02 4.68750E-03 0.00000E+00
 -1       138 4.68750E-02 5.07813E-03 0.00000E+00
 -1       139 4.79167E-02 5.46875E-03 0.00000E+00
 -1       140 4.89583E-02 5.85938E-03 0.00000E+00
 -1       141 5.10417E-02 0.00000E+00 0.00000E+00
 -1       142 5.20833E-02 0.00000E+00 0.00000E+00
 -1       143 5.31250E-02 0.00000E+00 0.00000E+00
 -1       144 5.41667E-02 0.00000E+00 0.00000E+00
 -1       145 5.52083E-02 0.00000E+00 0.00000E+00
 -1       146 5.62500E-02 0.00000E+00 0.00000E+00
 -1       147 5.72917E-02 0.00000E+00 0.00000E+00
 -1       148 5.83333E-02 0.00000E+00 0.00000E+00
 -1       149 5.93750E-02 0.00000E+00 0.00000E+00
 -1       150 6.04167E-02 0.00000E+00 0.00000E+00
 -1       151 6.14583E-02 0.00000E+00 0.00000E+00
 -1       152 6.25000E-02 0.00000E+00 0.00000E+00
 -1       153 6.35417E-02 0.00000E+00 0.00000E+00
 -1       154 6.45833E-02 0.00000E+00 0.00000E+00
 -1       155 6.56250E-02 0.00000E+00 0.00000E+00
 -1       156 5.00000E-02 1.04167E-03 0.00000E+00
 -1       157 5.00000E-02 2.08333E-03 0.00000E+00
 -1       158 5.00000E-02 3.12500E-03 0.00000E+00
 -1       159 5.00000E-02 4.16667E-03 0.00000E+00
 -1       160 5.00000E-02 5.20833E-03 0.00000E+00
 -1       161 5.10417E-02 3.90630E-04 0.00000E+00
 -1       162 5.20833E-02 7.81250E-04 0.00000E+00
 -1       163 5.31250E-02 1.17188E-03 0.00000E+00
 -1       164 5.41667E-02 1.56250E-03 0.00000E+00
 -1       165 5.52083E-02 1.95312E-03 0.00000E+00
 -1       166 5.62500E-02 2.34375E-03 0.00000E+00
 -1       167 5.72917E-02 2.73438E-03 0.00000E+00
 -1       168 5.83333E-02 3.12500E-03 0.00000E+00
 -1       169 5.93750E-02 3.51563E-03 0.00000E+00
 -1       170 6.04167E-02 3.90625E-03 0.00000E+00
 -1       171 6.14583E-02 4.29688E-03 0.00000E+00
 -1       172 6.25000E-02 4.68750E-03 0.00000E+00
 -1       173 6.35417E-02 5.07813E-03 0.00000E+00
 -1       174 6.45833E-02 5.46875E-03 0.00000E+00
 -1       175 6.56250E-02 5.85938E-03 0.00000E+00
 -1       191 6.66667E-02 1.04167E-03 0.00000E+00
 -1       192 6.66667E-02 2.08333E-03 0.00000E+00
 -1       193 6.66667E-02 3.12500E-03 0.00000E+00
 -1       194 6.66667E-02 4.16667E-03 0.00000E+00
 -1       195 6.66667E-02 5.20833E-03 0.00000E+00
 -1       251 1.04167E-03 6.25000E-03 0.00000E+00
 -1       252 2.08333E-03 6.25000E-03 0.00000E+00
 -1       253 3.12500E-03 6.25000E-03 0.00000E+00
 -1       254 4.16667E-03 6.25000E-03 0.00000E+00
 -1       255 5.20833E-03 6.25000E-03 0.00000E+00
 -1       256 6.25000E-03 6.25000E-03 0.00000E+00
 -1       257 7.29167E-03 6.25000E-03 0.00000E+00
 -1       258 8.33333E-03 6.25000E-03 0.00000E+00
 -1       259 9.37500E-03 6.25000E-03 0.00000E+00
 -1       260 1.04167E-02 6.25000E-03 0.00000E+00
 -1       261 1.14583E-02 6.25000E-03 0.00000E+00
 -1       262 1.25000E-02 6.25000E-03 0.00000E+00
 -1       263 1.35417E-02 6.25000E-03 0.00000E+00
 -1       264 1.45833E-02 6.25000E-03 0.00000E+00
 -1       265 1.56250E-02 6.25000E-03 0.00000E+00
 -1       266 0.00000E+00 7.29167E-03 0.00000E+00
 -1       267 0.00000E+00 8.33333E-03 0.00000E+00
 -1       268 0.00000E+00 9.37500E-03 0.00000E+00
 -1       269 0.00000E+00 1.04167E-02 0.00000E+00
 -1       270 0.00000E+00 1.14583E-02 0.00000E+00
 -1       271 1.04167E-03 6.64063E-03 0.00000E+00
 -1       272 2.08333E-03 7.03125E-03 0.00000E+00
 -1       273 3.12500E-03 7.42188E-03 0.00000E+00
 -1       274 4.16667E-03 7.81250E-03 0.00000E+00
 -1       275 5.20833E-03 8.20313E-03 0.00000E+00
 -1       276 6.25000E-03 8.59375E-03 0.00000E+00
 -1       277 7.29167E-03 8.98438E-03 0.00000E+00
 -1       278 8.33333E-03 9.37500E-03 0.00000E+00
 -1       279 9.37500E-03 9.76562E-03 0.00000E+00
 -1       280 1.04167E-02 1.01562E-02 0.00000E+00
 -1       281 1.14583E-02 1.05469E-02 0.00000E+00
 -1       282 1.25000E-02 1.09375E-02 0.00000E+00
 -1       283 1.35417E-02 1.13281E-02 0.00000E+00
 -1       284 1.45833E-02 1.17188E-02 0.00000E+00
 -1       285 1.56250E-02 1.21094E-02 0.00000E+00
 -1       286 1.77083E-02 6.25000E-03 0.00000E+00
 -1       287 1.87500E-02 6.25000E-03 0.00000E+00
 -1       288 1.97917E-02 6.25000E-03 0.00000E+00
 -1       289 2.08333E-02 6.25000E-03 0.00000E+00
 -1       290 2.18750E-02 6.25000E-03 0.00000E+00
 -1       291 2.29167E-02 6.25000E-03 0.00000E+00
 -1       292 2.39583E-02 6.25000E-03 0.00000E+00
 -1       293 2.50000E-02 6.25000E-03 0.00000E+00
 -1       294 2.60417E-02 6.25000E-03 0.00000E+00
 -1       295 2.70833E-02 6.25000E-03 0.00000E+00
 -1       296 2.81250E-02 6.25000E-03 0.00000E+00
 -1       297 2.91667E-02 6.25000E-03 0.00000E+00
 -1       298 3.02083E-02 6.25000E-03 0.00000E+00
 -1       299 3.12500E-02 6.25000E-03 0.00000E+00
 -1       300 3.22917E-02 6.25000E-03 0.00000E+00
 -1       301 1.66667E-02 7.29167E-03 0.00000E+00
 -1       302 1.66667E-02 8.33333E-03 0.00000E+00
 -1       303 1.66667E-02 9.37500E-03 0.00000E+00
 -1       304 1.66667E-02 1.04167E-02 0.00000E+00
 -1       305 1.66667E-02 1.14583E-02 0.00000E+00
 -1       306 1.77083E-02 6.64063E-03 0.00000E+00
 -1       307 1.87500E-02 7.03125E-03 0.00000E+00
 -1       308 1.97917E-02 7.42188E-03 0.00000E+00
 -1       309 2.08333E-02 7.81250E-03 0.00000E+00
 -1       310 2.18750E-02 8.20313E-03 0.00000E+00
 -1       311 2.29167E-02 8.59375E-03 0.00000E+00
 -1       312 2.39583E-02 8.98438E-03 0.00000E+00
 -1       313 2.50000E-02 9.37500E-03 0.00000E+00
 -1       314 2.60417E-02 9.76562E-03 0.00000E+00
 -1       315 2.70833E-02 1.01562E-02 0.00000E+00
 -1       316 2.81250E-02 1.05469E-02 0.00000E+00
 -1       317 2.91667E-02 1.09375E-02 0.00000E+00
 -1       318 3.02083E-02 1.13281E-02 0.00000E+00
 -1       319 3.12500E-02 1.17188E-02 0.00000E+00
 -1       320 3.22917E-02 1.21094E-02 0.00000E+00
 -1       321 3.43750E-02 6.25000E-03 0.00000E+00
 -1       322 3.54167E-02 6.25000E-03 0.00000E+00
 -1       323 3.64583E-02 6.25000E-03 0.00000E+00
 -1       324 3.75000E-02 6.25000E-03 0.00000E+00
 -1       325 3.85417E-02 6.25000E-03 0.00000E+00
 -1       326 3.95833E-02 6.25000E-03 0.00000E+00
 -1       327 4.06250E-02 6.25000E-03 0.00000E+00
 -1       328 4.16667E-02 6.25000E-03 0.00000E+00
 -1       329 4.27083E-02 6.25000E-03 0.00000E+00
 -1       330 4.37500E-02 6.25000E-03 0.00000E+00
 -1       331 4.47917E-02 6.25000E-03 0.00000E+00
 -1       332 4.58333E-02 6.25000E-03 0.00000E+00
 -1       333 4.68750E-02 6.25000E-03 0.00000E+00
 -1       334 4.79167E-02 6.25000E-03 0.00000E+00
 -1       335 4.89583E-02 6.25000E-03 0.00000E+00
 -1       336 3.33333E-02 7.29167E-03 0.00000E+00
 -1       337 3.33333E-02 8.33333E-03 0.00000E+00
 -1       338 3.33333E-02 9.37500E-03 0.00000E+00
 -1       339 3.33333E-02 1.04167E-02 0.00000E+00
 -1       340 3.33333E-02 1.14583E-02 0.00000E+00
 -1       341 3.43750E-02 6.64063E-03 0.00000E+00
 -1       342 3.54167E-02 7.03125E-03 0.00000E+00
 -1       343 3.64583E-02 7.42188E-03 0.00000E+00
 -1       344 3.75000E-02 7.81250E-03 0.00000E+00
 -1       345 3.85417E-02 8.20313E-03 0.00000E+00
 -1       346 3.95833E-02 8.59375E-03 0.00000E+00
 -1       347 4.06250E-02 8.98438E-03 0.00000E+00
 -1       348 4.16667E-02 9.37500E-03 0.00000E+00
 -1       349 4.27083E-02 9.76562E-03 0.00000E+00
 -1       350 4.37500E-02 1.01562E-02 0.00000E+00
 -1       351 4.47917E-02 1.05469E-02 0.00000E+00
 -1       352 4.58333E-02 1.09375E-02 0.00000E+00
 -1       353 4.68750E-02 1.13281E-02 0.00000E+00
 -1       354 4.79167E-02 1.17188E-02 0.00000E+00
 -1       355 4.89583E-02 1.21094E-02 0.00000E+00
 -1       356 5.10417E-02 6.25000E-03 0.00000E+00
 -1       357 5.20833E-02 6.25000E-03 0.00000E+00
 -1       358 5.31250E-02 6.25000E-03 0.00000E+00
 -1       359 5.41667E-02 6.25000E-03 0.00000E+00
 -1       360 5.52083E-02 6.25000E-03 0.00000E+00
 -1       361 5.62500E-02 6.25000E-03 0.00000E+00
 -1       362 5.72917E-02 6.25000E-03 0.00000E+00
 -1       363 5.83333E-02 6.25000E-03 0.00000E+00
 -1       364 5.93750E-02 6.25000E-03 0.00000E+00
 -1       365 6.04167E-02 6.25000E-03 0.00000E+00
 -1       366 6.14583E-02 6.25000E-03 0.00000E+00
 -1       367 6.25000E-02 6.25000E-03 0.00000E+00
 -1       368 6.35417E-02 6.25000E-03 0.00000E+00
 -1       369 6.45833E-02 6.25000E-03 0.00000E+00
 -1       370 6.56250E-02 6.25000E-03 0.00000E+00
 -1       371 5.00000E-02 7.29167E-03 0.00000E+00
 -1       372 5.00000E-02 8.33333E-03 0.00000E+00
 -1       373 5.00000E-02 9.37500E-03 0.00000E+00
 -1       374 5.00000E-02 1.04167E-02 0.00000E+00
 -1       375 5.00000E-02 1.14583E-02 0.00000E+00
 -1       376 5.10417E-02 6.64063E-03 0.00000E+00
 -1       377 5.20833E-02 7.03125E-03 0.00000E+00
 -1       378 5.31250E-02 7.42188E-03 0.00000E+00
 -1       379 5.41667E-02 7.81250E-03 0.00000E+00
 -1       380 5.52083E-02 8.20313E-03 0.00000E+00
 -1       381 5.62500E-02 8.59375E-03 0.00000E+00
 -1       382 5.72917E-02 8.98438E-03 0.00000E+00
 -1       383 5.83333E-02 9.37500E-03 0.00000E+00
 -1       384 5.93750E-02 9.76562E-03 0.00000E+00
 -1       385 6.04167E-02 1.01562E-02 0.00000E+00
 -1       386 6.14583E-02 1.05469E-02 0.00000E+00
 -1       387 6.25000E-02 1.09375E-02 0.00000E+00
 -1       388 6.35417E-02 1.13281E-02 0.00000E+00
 -1       389 6.45833E-02 1.17188E-02 0.00000E+00
 -1       390 6.56250E-02 1.21094E-02 0.00000E+00
 -1       406 6.66667E-02 7.29167E-03 0.00000E+00
 -1       407 6.66667E-02 8.33333E-03 0.00000E+00
 -1       408 6.66667E-02 9.37500E-03 0.00000E+00
 -1       409 6.66667E-02 1.04167E-02 0.00000E+00
 -1       410 6.66667E-02 1.14583E-02 0.00000E+00
 -1       466 1.04167E-03 1.25000E-02 0.00000E+00
 -1       467 2.08333E-03 1.25000E-02 0.00000E+00
 -1       468 3.12500E-03 1.25000E-02 0.00000E+00
 -1       469 4.16667E-03 1.25000E-02 0.00000E+00
 -1       470 5.20833E-03 1.25000E-02 0.00000E+00
 -1       471 6.25000E-03 1.25000E-02 0.00000E+00
 -1       472 7.29167E-03 1.25000E-02 0.00000E+00
 -1       473 8.33333E-03 1.25000E-02 0.00000E+00
 -1       474 9.37500E-03 1.25000E-02 0.00000E+00
 -1       475 1.04167E-02 1.25000E-02 0.00000E+00
 -1       476 1.14583E-02 1.25000E-02 0.00000E+00
 -1       477 1.25000E-02 1.25000E-02 0.00000E+00
 -1       478 1.35417E-02 1.25000E-02 0.00000E+00
 -1       479 1.45833E-02 1.25000E-02 0.00000E+00
 -1       480 1.56250E-02 1.25000E-02 0.00000E+00
 -1       481 0.00000E+00 1.35417E-02 0.00000E+00
 -1       482 0.00000E+00 1.45833E-02 0.00000E+00
 -1       483 0.00000E+00 1.56250E-02 0.00000E+00
 -1       484 0.00000E+00 1.66667E-02 0.00000E+00
 -1       485 0.00000E+00 1.77083E-02 0.00000E+00
 -1       486 1.04167E-03 1.28906E-02 0.00000E+00
 -1       487 2.08333E-03 1.32813E-02 0.00000E+00
 -1       488 3.12500E-03 1.36719E-02 0.00000E+00
 -1       489 4.16667E-03 1.40625E-02 0.00000E+00
 -1       490 5.20833E-03 1.44531E-02 0.00000E+00
 -1       491 6.25000E-03 1.48437E-02 0.00000E+00
 -1       492 7.29167E-03 1.52344E-02 0.00000E+00
 -1       493 8.33333E-03 1.56250E-02 0.00000E+00
 -1       494 9.37500E-03 1.60156E-02 0.00000E+00
 -1       495 1.04167E-02 1.64062E-02 0.00000E+00
 -1       496 1.14583E-02 1.67969E-02 0.00000E+00
 -1       497 1.25000E-02 1.71875E-02 0.00000E+00
 -1       498 1.35417E-02 1.75781E-02 0.00000E+00
 -1       499 1.45833E-02 1.79687E-02 0.00000E+00
 -1       500 1.56250E-02 1.83594E-02 0.00000E+00
 -1       501 1.77083E-02 1.25000E-02 0.00000E+00
 -1       502 1.87500E-02 1.25000E-02 0.00000E+00
 -1       503 1.97917E-02 1.25000E-02 0.00000E+00
 -1       504 2.08333E-02 1.25000E-02 0.00000E+00
 -1       505 2.18750E-02 1.25000E-02 0.00000E+00
 -1       506 2.29167E-02 1.25000E-02 0.00000E+00
 -1       507 2.39583E-02 1.25000E-02 0.00000E+00
 -1       508 2.50000E-02 1.25000E-02 0.00000E+00
 -1       509 2.60417E-02 1.25000E-02 0.00000E+00
 -1       510 2.70833E-02 1.25000E-02 0.00000E+00
 -1       511 2.81250E-02 1.25000E-02 0.00000E+00
 -1       512 2.91667E-02 1.25000E-02 0.00000E+00
 -1       513 3.02083E-02 1.25000E-02 0.00000E+00
 -1       514 3.12500E-02 1.25000E-02 0.00000E+00
 -1       515 3.22917E-02 1.25000E-02 0.00000E+00
 -1       516 1.66667E-02 1.35417E-02 0.00000E+00
 -1       517 1.66667E-02 1.45833E-02 0.00000E+00
 -1       518 1.66667E-02 1.56250E-02 0.00000E+00
 -1       519 1.66667E-02 1.66667E-02 0.00000E+00
 -1       520 1.66667E-02 1.77083E-02 0.00000E+00
 -1       521 1.77083E-02 1.28906E-02 0.00000E+00
 -1       522 1.87500E-02 1.32813E-02 0.00000E+00
 -1       523 1.97917E-02 1.36719E-02 0.00000E+00
 -1       524 2.08333E-02 1.40625E-02 0.00000E+00
 -1       525 2.18750E-02 1.44531E-02 0.00000E+00
 -1       526 2.29167E-02 1.48437E-02 0.00000E+00
 -1       527 2.39583E-02 1.52344E-02 0.00000E+00
 -1       528 2.50000E-02 1.56250E-02 0.00000E+00
 -1       529 2.60417E-02 1.60156E-02 0.00000E+00
 -1       530 2.70833E-02 1.64062E-02 0.00000E+00
 -1       531 2.81250E-02 1.67969E-02 0.00000E+00
 -1       532 2.91667E-02 1.71875E-02 0.00000E+00
 -1       533 3.02083E-02 1.75781E-02 0.00000E+00
 -1       534 3.12500E-02 1.79687E-02 0.00000E+00
 -1       535 3.22917E-02 1.83594E-02 0.00000E+00
 -1       536 3.43750E-02 1.25000E-02 0.00000E+00
 -1       537 3.54167E-02 1.25000E-02 0.00000E+00
 -1       538 3.64583E-02 1.25000E-02 0.00000E+00
 -1       539 3.75000E-02 1.25000E-02 0.00000E+00
 -1       540 3.85417E-02 1.25000E-02 0.00000E+00
 -1       541 3.95833E-02 1.25000E-02 0.00000E+00
 -1       542 4.06250E-02 1.25000E-02 0.00000E+00
 -1       543 4.16667E-02 1.25000E-02 0.00000E+00
 -1       544 4.27083E-02 1.25000E-02 0.00000E+00
 -1       545 4.37500E-02 1.25000E-02 0.00000E+00
 -1       546 4.47917E-02 1.25000E-02 0.00000E+00
 -1       547 4.58333E-02 1.25000E-02 0.00000E+00
 -1       548 4.68750E-02 1.25000E-02 0.00000E+00
 -1       549 4.79167E-02 1.25000E-02 0.00000E+00
 -1       550 4.89583E-02 1.25000E-02 0.00000E+00
 -1       551 3.33333E-02 1.35417E-02 0.00000E+00
 -1       552 3.33333E-02 1.45833E-02 0.00000E+00
 -1       553 3.33333E-02 1.56250E-02 0.00000E+00
 -1       554 3.33333E-02 1.66667E-02 0.00000E+00
 -1       555 3.33333E-02 1.77083E-02 0.00000E+00
 -1       556 3.43750E-02 1.28906E-02 0.00000E+00
 -1       557 3.54167E-02 1.32813E-02 0.00000E+00
 -1       558 3.64583E-02 1.36719E-02 0.00000E+00
 -1       559 3.75000E-02 1.40625E-02 0.00000E+00
 -1       560 3.85417E-02 1.44531E-02 0.00000E+00
 -1       561 3.95833E-02 1.48437E-02 0.00000E+00
 -1       562 4.06250E-02 1.52344E-02 0.00000E+00
 -1       563 4.16667E-02 1.56250E-02 0.00000E+00
 -1       564 4.27083E-02 1.60156E-02 0.00000E+00
 -1       565 4.37500E-02 1.64062E-02 0.00000E+00
 -1       566 4.47917E-02 1.67969E-02 0.00000E+00
 -1       567 4.58333E-02 1.71875E-02 0.00000E+00
 -1       568 4.68750E-02 1.75781E-02 0.00000E+00
 -1       569 4.79167E-02 1.79687E-02 0.00000E+00
 -1       570 4.89583E-02 1.83594E-02 0.00000E+00
 -1       571 5.10417E-02 1.25000E-02 0.00000E+00
 -1       572 5.20833E-02 1.25000E-02 0.00000E+00
 -1       573 5.31250E-02 1.25000E-02 0.00000E+00
 -1       574 5.41667E-02 1.25000E-02 0.00000E+00
 -1       575 5.52083E-02 1.25000E-02 0.00000E+00
 -1       576 5.62500E-02 1.25000E-02 0.00000E+00
 -1       577 5.72917E-02 1.25000E-02 0.00000E+00
 -1       578 5.83333E-02 1.25000E-02 0.00000E+00
 -1       579 5.93750E-02 1.25000E-02 0.00000E+00
 -1       580 6.04167E-02 1.25000E-02 0.00000E+00
 -1       581 6.14583E-02 1.25000E-02 0.00000E+00
 -1       582 6.25000E-02 1.25000E-02 0.00000E+00
 -1       583 6.35417E-02 1.25000E-02 0.00000E+00
 -1       584 6.45833E-02 1.25000E-02 0.00000E+00
 -1       585 6.56250E-02 1.25000E-02 0.00000E+00
 -1       586 5.00000E-02 1.35417E-02 0.00000E+00
 -1       587 5.00000E-02 1.45833E-02 0.00000E+00
 -1       588 5.00000E-02 1.56250E-02 0.00000E+00
 -1       589 5.00000E-02 1.66667E-02 0.00000E+00
 -1       590 5.00000E-02 1.77083E-02 0.00000E+00
 -1       591 5.10417E-02 1.28906E-02 0.00000E+00
 -1       592 5.20833E-02 1.32813E-02 0.00000E+00
 -1       593 5.31250E-02 1.36719E-02 0.00000E+00
 -1       594 5.41667E-02 1.40625E-02 0.00000E+00
 -1       595 5.52083E-02 1.44531E-02 0.00000E+00
 -1       596 5.62500E-02 1.48437E-02 0.00000E+00
 -1       597 5.72917E-02 1.52344E-02 0.00000E+00
 -1       598 5.83333E-02 1.56250E-02 0.00000E+00
 -1       599 5.93750E-02 1.60156E-02 0.00000E+00
 -1       600 6.04167E-02 1.64062E-02 0.00000E+00
 -1       601 6.14583E-02 1.67969E-02 0.00000E+00
 -1       602 6.25000E-02 1.71875E-02 0.00000E+00
 -1       603 6.35417E-02 1.75781E-02 0.00000E+00
 -1       604 6.45833E-02 1.79687E-02 0.00000E+00
 -1       605 6.56250E-02 1.83594E-02 0.00000E+00
 -1       606 6.77083E-02 1.25000E-02 0.00000E+00
 -1       607 6.87500E-02 1.25000E-02 0.00000E+00
 -1       608 6.97917E-02 1.25000E-02 0.00000E+00
 -1       609 7.08333E-02 1.25000E-02 0.00000E+00
 -1       610 7.18750E-02 1.25000E-02 0.00000E+00
 -1       611 7.29167E-02 1.25000E-02 0.00000E+00
 -1       612 7.39583E-02 1.25000E-02 0.00000E+00
 -1       613 7.50000E-02 1.25000E-02 0.00000E+00
 -1       614 7.60417E-02 1.25000E-02 0.00000E+00
 -1       615 7.70833E-02 1.25000E-02 0.00000E+00
 -1       616 7.81250E-02 1.25000E-02 0.00000E+00
 -1       617 7.91667E-02 1.25000E-02 0.00000E+00
 -1       618 8.02083E-02 1.25000E-02 0.00000E+00
 -1       619 8.12500E-02 1.25000E-02 0.00000E+00
 -1       620 8.22917E-02 1.25000E-02 0.00000E+00
 -1       621 6.66667E-02 1.35417E-02 0.00000E+00
 -1       622 6.66667E-02 1.45833E-02 0.00000E+00
 -1       623 6.66667E-02 1.56250E-02 0.00000E+00
 -1       624 6.66667E-02 1.66667E-02 0.00000E+00
 -1       625 6.66667E-02 1.77083E-02 0.00000E+00
 -1       626 6.77083E-02 1.28906E-02 0.00000E+00
 -1       627 6.87500E-02 1.32813E-02 0.00000E+00
 -1       628 6.97917E-02 1.36719E-02 0.00000E+00
 -1       629 7.08333E-02 1.40625E-02 0.00000E+00
 -1       630 7.18750E-02 1.44531E-02 0.00000E+00
 -1       631 7.29167E-02 1.48437E-02 0.00000E+00
 -1       632 7.39583E-02 1.52344E-02 0.00000E+00
 -1       633 7.50000E-02 1.56250E-02 0.00000E+00
 -1       634 7.60417E-02 1.60156E-02 0.00000E+00
 -1       635 7.70833E-02 1.64062E-02 0.00000E+00
 -1       636 7.81250E-02 1.67969E-02 0.00000E+00
 -1       637 7.91667E-02 1.71875E-02 0.00000E+00
 -1       638 8.02083E-02 1.75781E-02 0.00000E+00
 -1       639 8.12500E-02 1.79687E-02 0.00000E+00
 -1       640 8.22917E-02 1.83594E-02 0.00000E+00
 -1       641 8.43750E-02 1.25000E-02 0.00000E+00
 -1       642 8.54167E-02 1.25000E-02 0.00000E+00
 -1       643 8.64583E-02 1.25000E-02 0.00000E+00
 -1       644 8.75000E-02 1.25000E-02 0.00000E+00
 -1       645 8.85417E-02 1.25000E-02 0.00000E+00
 -1       646 8.95833E-02 1.25000E-02 0.00000E+00
 -1       647 9.06250E-02 1.25000E-02 0.00000E+00
 -1       648 9.16667E-02 1.25000E-02 0.00000E+00
 -1       649 9.27083E-02 1.25000E-02 0.00000E+00
 -1       650 9.37500E-02 1.25000E-02 0.00000E+00
 -1       651 9.47917E-02 1.25000E-02 0.00000E+00
 -1       652 9.58333E-02 1.25000E-02 0.00000E+00
 -1       653 9.68750E-02 1.25000E-02 0.00000E+00
 -1       654 9.79167E-02 1.25000E-02 0.00000E+00
 -1       655 9.89583E-02 1.25000E-02 0.00000E+00
 -1       656 8.33333E-02 1.35417E-02 0.00000E+00
 -1       657 8.33333E-02 1.45833E-02 0.00000E+00
 -1       658 8.33333E-02 1.56250E-02 0.00000E+00
 -1       659 8.33333E-02 1.66667E-02 0.00000E+00
 -1       660 8.33333E-02 1.77083E-02 0.00000E+00
 -1       661 8.43750E-02 1.28906E-02 0.00000E+00
 -1       662 8.54167E-02 1.32813E-02 0.00000E+00
 -1       663 8.64583E-02 1.36719E-02 0.00000E+00
 -1       664 8.75000E-02 1.40625E-02 0.00000E+00
 -1       665 8.85417E-02 1.44531E-02 0.00000E+00
 -1       666 8.95833E-02 1.48437E-02 0.00000E+00
 -1       667 9.06250E-02 1.52344E-02 0.00000E+00
 -1       668 9.16667E-02 1.56250E-02 0.00000E+00
 -1       669 9.27083E-02 1.60156E-02 0.00000E+00
 -1       670 9.37500E-02 1.64062E-02 0.00000E+00
 -1       671 9.47917E-02 1.67969E-02 0.00000E+00
 -1       672 9.58333E-02 1.71875E-02 0.00000E+00
 -1       673 9.68750E-02 1.75781E-02 0.00000E+00
 -1       674 9.79167E-02 1.79687E-02 0.00000E+00
 -1       675 9.89583E-02 1.83594E-02 0.00000E+00
 -1       676 1.00000E-01 1.35417E-02 0.00000E+00
 -1       677 1.00000E-01 1.45833E-02 0.00000E+00
 -1       678 1.00000E-01 1.56250E-02 0.00000E+00
 -1       679 1.00000E-01 1.66667E-02 0.00000E+00
 -1       680 1.00000E-01 1.77083E-02 0.00000E+00
 -1       681 1.04167E-03 1.87500E-02 0.00000E+00
 -1       682 2.08333E-03 1.87500E-02 0.00000E+00
 -1       683 3.12500E-03 1.87500E-02 0.00000E+00
 -1       684 4.16667E-03 1.87500E-02 0.00000E+00
 -1       685 5.20833E-03 1.87500E-02 0.00000E+00
 -1       686 6.25000E-03 1.87500E-02 0.00000E+00
 -1       687 7.29167E-03 1.87500E-02 0.00000E+00
 -1       688 8.33333E-03 1.87500E-02 0.00000E+00
 -1       689 9.37500E-03 1.87500E-02 0.00000E+00
 -1       690 1.04167E-02 1.87500E-02 0.00000E+00
 -1       691 1.14583E-02 1.87500E-02 0.00000E+00
 -1       692 1.25000E-02 1.87500E-02 0.00000E+00
 -1       693 1.35417E-02 1.87500E-02 0.00000E+00
 -1       694 1.45833E-02 1.87500E-02 0.00000E+00
 -1       695 1.56250E-02 1.87500E-02 0.00000E+00
 -1       696 0.00000E+00 1.97917E-02 0.00000E+00
 -1       697 0.00000E+00 2.08333E-02 0.00000E+00
 -1       698 0.00000E+00 2.18750E-02 0.00000E+00
 -1       699 0.00000E+00 2.29167E-02 0.00000E+00
 -1       700 0.00000E+00 2.39583E-02 0.00000E+00
 -1       701 1.04167E-03 1.91406E-02 0.00000E+00
 -1       702 2.08333E-03 1.95312E-02 0.00000E+00
 -1       703 3.12500E-03 1.99219E-02 0.00000E+00
 -1       704 4.16667E-03 2.03125E-02 0.00000E+00
 -1       705 5.20833E-03 2.07031E-02 0.00000E+00
 -1       706 6.25000E-03 2.10938E-02 0.00000E+00
 -1       707 7.29167E-03 2.14844E-02 0.00000E+00
 -1       708 8.33333E-03 2.18750E-02 0.00000E+00
 -1       709 9.37500E-03 2.22656E-02 0.00000E+00
 -1       710 1.04167E-02 2.26563E-02 0.00000E+00
 -1       711 1.14583E-02 2.30469E-02 0.00000E+00
 -1       712 1.25000E-02 2.34375E-02 0.00000E+00
 -1       713 1.35417E-02 2.38281E-02 0.00000E+00
 -1       714 1.45833E-02 2.42187E-02 0.00000E+00
 -1       715 1.56250E-02 2.46094E-02 0.00000E+00
 -1       716 1.77083E-02 1.87500E-02 0.00000E+00
 -1       717 1.87500E-02 1.87500E-02 0.00000E+00
 -1       718 1.97917E-02 1.87500E-02 0.00000E+00
 -1       719 2.08333E-02 1.87500E-02 0.00000E+00
 -1       720 2.18750E-02 1.87500E-02 0.00000E+00
 -1       721 2.29167E-02 1.87500E-02 0.00000E+00
 -1       722 2.39583E-02 1.87500E-02 0.00000E+00
 -1       723 2.50000E-02 1.87500E-02 0.00000E+00
 -1       724 2.60417E-02 1.87500E-02 0.00000E+00
 -1       725 2.70833E-02 1.87500E-02 0.00000E+00
 -1       726 2.81250E-02 1.87500E-02 0.00000E+00
 -1       727 2.91667E-02 1.87500E-02 0.00000E+00
 -1       728 3.02083E-02 1.87500E-02 0.00000E+00
 -1       729 3.12500E-02 1.87500E-02 0.00000E+00
 -1       730 3.22917E-02 1.87500E-02 0.00000E+00
 -1       731 1.66667E-02 1.97917E-02 0.00000E+00
 -1       732 1.66667E-02 2.08333E-02 0.00000E+00
 -1       733 1.66667E-02 2.18750E-02 0.00000E+00
 -1       734 1.66667E-02 2.29167E-02 0.00000E+00
 -1       735 1.66667E-02 2.39583E-02 0.00000E+00
 -1       736 1.77083E-02 1.91406E-02 0.00000E+00
 -1       737 1.87500E-02 1.95312E-02 0.00000E+00
 -1       738 1.97917E-02 1.99219E-02 0.00000E+00
 -1       739 2.08333E-02 2.03125E-02 0.00000E+00
 -1       740 2.18750E-02 2.07031E-02 0.00000E+00
 -1       741 2.29167E-02 2.10938E-02 0.00000E+00
 -1       742 2.39583E-02 2.14844E-02 0.00000E+00
 -1       743 2.50000E-02 2.18750E-02 0.00000E+00
 -1       744 2.60417E-02 2.22656E-02 0.00000E+00
 -1       745 2.70833E-02 2.26563E-02 0.00000E+00
 -1       746 2.81250E-02 2.30469E-02 0.00000E+00
 -1       747 2.91667E-02 2.34375E-02 0.00000E+00
 -1       748 3.02083E-02 2.38281E-02 0.00000E+00
 -1       749 3.12500E-02 2.42187E-02 0.00000E+00
 -1       750 3.22917E-02 2.46094E-02 0.00000E+00
 -1       751 3.43750E-02 1.87500E-02 0.00000E+00
 -1       752 3.54167E-02 1.87500E-02 0.00000E+00
 -1       753 3.64583E-02 1.87500E-02 0.00000E+00
 -1       754 3.75000E-02 1.87500E-02 0.00000E+00
 -1       755 3.85417E-02 1.87500E-02 0.00000E+00
 -1       756 3.95833E-02 1.87500E-02 0.00000E+00
 -1       757 4.06250E-02 1.87500E-02 0.00000E+00
 -1       758 4.16667E-02 1.87500E-02 0.00000E+00
 -1       759 4.27083E-02 1.87500E-02 0.00000E+00
 -1       760 4.37500E-02 1.87500E-02 0.00000E+00
 -1       761 4.47917E-02 1.87500E-02 0.00000E+00
 -1       762 4.58333E-02 1.87500E-02 0.00000E+00
 -1       763 4.68750E-02 1.87500E-02 0.00000E+00
 -1       764 4.79167E-02 1.87500E-02 0.00000E+00
 -1       765 4.89583E-02 1.87500E-02 0.00000E+00
 -1       766 3.33333E-02 1.97917E-02 0.00000E+00
 -1       767 3.33333E-02 2.08333E-02 0.00000E+00
 -1       768 3.33333E-02 2.18750E-02 0.00000E+00
 -1       769 3.33333E-02 2.29167E-02 0.00000E+00
 -1       770 3.33333E-02 2.39583E-02 0.00000E+00
 -1       771 3.43750E-02 1.91406E-02 0.00000E+00
 -1       772 3.54167E-02 1.95312E-02 0.00000E+00
 -1       773 3.64583E-02 1.99219E-02 0.00000E+00
 -1       774 3.75000E-02 2.03125E-02 0.00000E+00
 -1       775 3.85417E-02 2.07031E-02 0.00000E+00
 -1       776 3.95833E-02 2.10938E-02 0.00000E+00
 -1       777 4.06250E-02 2.14844E-02 0.00000E+00
 -1       778 4.16667E-02 2.18750E-02 0.00000E+00
 -1       779 4.27083E-02 2.22656E-02 0.00000E+00
 -1       780 4.37500E-02 2.26563E-02 0.00000E+00
 -1       781 4.47917E-02 2.30469E-02 0.00000E+00
 -1       782 4.58333E-02 2.34375E-02 0.00000E+00
 -1       783 4.68750E-02 2.38281E-02 0.00000E+00
 -1       784 4.79167E-02 2.42187E-02 0.00000E+00
 -1       785 4.89583E-02 2.46094E-02 0.00000E+00
 -1       786 5.10417E-02 1.87500E-02 0.00000E+00
 -1       787 5.20833E-02 1.87500E-02 0.00000E+00
 -1       788 5.31250E-02 1.87500E-02 0.00000E+00
 -1       789 5.41667E-02 1.87500E-02 0.00000E+00
 -1       790 5.52083E-02 1.87500E-02 0.00000E+00
 -1       791 5.62500E-02 1.87500E-02 0.00000E+00
 -1       792 5.72917E-02 1.87500E-02 0.00000E+00
 -1       793 5.83333E-02 1.87500E-02 0.00000E+00
 -1       794 5.93750E-02 1.87500E-02 0.00000E+00
 -1       795 6.04167E-02 1.87500E-02 0.00000E+00
 -1       796 6.14583E-02 1.87500E-02 0.00000E+00
 -1       797 6.25000E-02 1.87500E-02 0.00000E+00
 -1       798 6.35417E-02 1.87500E-02 0.00000E+00
 -1       799 6.45833E-02 1.87500E-02 0.00000E+00
 -1       800 6.56250E-02 1.87500E-02 0.00000E+00
 -1       801 5.00000E-02 1.97917E-02 0.00000E+00
 -1       802 5.00000E-02 2.08333E-02 0.00000E+00
 -1       803 5.00000E-02 2.18750E-02 0.00000E+00
 -1       804 5.00000E-02 2.29167E-02 0.00000E+00
 -1       805 5.00000E-02 2.39583E-02 0.00000E+00
 -1       806 5.10417E-02 1.91406E-02 0.00000E+00
 -1       807 5.20833E-02 1.95312E-02 0.00000E+00
 -1       808 5.31250E-02 1.99219E-02 0.00000E+00
 -1       809 5.41667E-02 2.03125E-02 0.00000E+00
 -1       810 5.52083E-02 2.07031E-02 0.00000E+00
 -1       811 5.62500E-02 2.10938E-02 0.00000E+00
 -1       812 5.72917E-02 2.14844E-02 0.00000E+00
 -1       813 5.83333E-02 2.18750E-02 0.00000E+00
 -1       814 5.93750E-02 2.22656E-02 0.00000E+00
 -1       815 6.04167E-02 2.26563E-02 0.00000E+00
 -1       816 6.14583E-02 2.30469E-02 0.00000E+00
 -1       817 6.25000E-02 2.34375E-02 0.00000E+00
 -1       818 6.35417E-02 2.38281E-02 0.00000E+00
 -1       819 6.45833E-02 2.42187E-02 0.00000E+00
 -1       820 6.56250E-02 2.46094E-02 0.00000E+00
 -1       821 6.77083E-02 1.87500E-02 0.00000E+00
 -1       822 6.87500E-02 1.87500E-02 0.00000E+00
 -1       823 6.97917E-02 1.87500E-02 0.00000E+00
 -1       824 7.08333E-02 1.87500E-02 0.00000E+00
 -1       825 7.18750E-02 1.87500E-02 0.00000E+00
 -1       826 7.29167E-02 1.87500E-02 0.00000E+00
 -1       827 7.39583E-02 1.87500E-02 0.00000E+00
 -1       828 7.50000E-02 1.87500E-02 0.00000E+00
 -1       829 7.60417E-02 1.87500E-02 0.00000E+00
 -1       830 7.70833E-02 1.87500E-02 0.00000E+00
 -1       831 7.81250E-02 1.87500E-02 0.00000E+00
 -1       832 7.91667E-02 1.87500E-02 0.00000E+00
 -1       833 8.02083E-02 1.87500E-02 0.00000E+00
 -1       834 8.12500E-02 1.87500E-02 0.00000E+00
 -1       835 8.22917E-02 1.87500E-02 0.00000E+00
 -1       836 6.66667E-02 1.97917E-02 0.00000E+00
 -1       837 6.66667E-02 2.08333E-02 0.00000E+00
 -1       838 6.66667E-02 2.18750E-02 0.00000E+00
 -1       839 6.66667E-02 2.29167E-02 0.00000E+00
 -1       840 6.66667E-02 2.39583E-02 0.00000E+00
 -1       841 6.77083E-02 1.91406E-02 0.00000E+00
 -1       842 6.87500E-02 1.95312E-02 0.00000E+00
 -1       843 6.97917E-02 1.99219E-02 0.00000E+00
 -1       844 7.08333E-02 2.03125E-02 0.00000E+00
 -1       845 7.18750E-02 2.07031E-02 0.00000E+00
 -1       846 7.29167E-02 2.10938E-02 0.00000E+00
 -1       847 7.39583E-02 2.14844E-02 0.00000E+00
 -1       848 7.50000E-02 2.18750E-02 0.00000E+00
 -1       849 7.60417E-02 2.22656E-02 0.00000E+00
 -1       850 7.70833E-02 2.26563E-02 0.00000E+00
 -1       851 7.81250E-02 2.30469E-02 0.00000E+00
 -1       852 7.91667E-02 2.34375E-02 0.00000E+00
 -1       853 8.02083E-02 2.38281E-02 0.00000E+00
 -1       854 8.12500E-02 2.42187E-02 0.00000E+00
 -1       855 8.22917E-02 2.46094E-02 0.00000E+00
 -1       856 8.43750E-02 1.87500E-02 0.00000E+00
 -1       857 8.54167E-02 1.87500E-02 0.00000E+00
 -1       858 8.64583E-02 1.87500E-02 0.00000E+00
 -1       859 8.75000E-02 1.87500E-02 0.00000E+00
 -1       860 8.85417E-02 1.87500E-02 0.00000E+00
 -1       861 8.95833E-02 1.87500E-02 0.00000E+00
 -1       862 9.06250E-02 1.87500E-02 0.00000E+00
 -1       863 9.16667E-02 1.87500E-02 0.00000E+00
 -1       864 9.27083E-02 1.87500E-02 0.00000E+00
 -1       865 9.37500E-02 1.87500E-02 0.00000E+00
 -1       866 9.47917E-02 1.87500E-02 0.00000E+00
 -1       867 9.58333E-02 1.87500E-02 0.00000E+00
 -1       868 9.68750E-02 1.87500E-02 0.00000E+00
 -1       869 9.79167E-02 1.87500E-02 0.00000E+00
 -1       870 9.89583E-02 1.87500E-02 0.00000E+00
 -1       871 8.33333E-02 1.97917E-02 0.00000E+00
 -1       872 8.33333E-02 2.08333E-02 0.00000E+00
 -1       873 8.33333E-02 2.18750E-02 0.00000E+00
 -1       874 8.33333E-02 2.29167E-02 0.00000E+00
 -1       875 8.33333E-02 2.39583E-02 0.00000E+00
 -1       876 8.43750E-02 1.91406E-02 0.00000E+00
 -1       877 8.54167E-02 1.95312E-02 0.00000E+00
 -1       878 8.64583E-02 1.99219E-02 0.00000E+00
 -1       879 8.75000E-02 2.03125E-02 0.00000E+00
 -1       880 8.85417E-02 2.07031E-02 0.00000E+00
 -1       881 8.95833E-02 2.10938E-02 0.00000E+00
 -1       882 9.06250E-02 2.14844E-02 0.00000E+00
 -1       883 9.16667E-02 2.18750E-02 0.00000E+00
 -1       884 9.27083E-02 2.22656E-02 0.00000E+00
 -1       885 9.37500E-02 2.26563E-02 0.00000E+00
 -1       886 9.47917E-02 2.30469E-02 0.00000E+00
 -1       887 9.58333E-02 2.34375E-02 0.00000E+00
 -1       888 9.68750E-02 2.38281E-02 0.00000E+00
 -1       889 9.79167E-02 2.42187E-02 0.00000E+00
 -1       890 9.89583E-02 2.46094E-02 0.00000E+00
 -1       891 1.00000E-01 1.97917E-02 0.00000E+00
 -1       892 1.00000E-01 2.08333E-02 0.00000E+00
 -1       893 1.00000E-01 2.18750E-02 0.00000E+00
 -1       894 1.00000E-01 2.29167E-02 0.00000E+00
 -1       895 1.00000E-01 2.39583E-02 0.00000E+00
 -1       896 1.04167E-03 2.50000E-02 0.00000E+00
 -1       897 2.08333E-03 2.50000E-02 0.00000E+00
 -1       898 3.12500E-03 2.50000E-02 0.00000E+00
 -1       899 4.16667E-03 2.50000E-02 0.00000E+00
 -1       900 5.20833E-03 2.50000E-02 0.00000E+00
 -1       901 6.25000E-03 2.50000E-02 0.00000E+00
 -1       902 7.29167E-03 2.50000E-02 0.00000E+00
 -1       903 8.33333E-03 2.50000E-02 0.00000E+00
 -1       904 9.37500E-03 2.50000E-02 0.00000E+00
 -1       905 1.04167E-02 2.50000E-02 0.00000E+00
 -1       906 1.14583E-02 2.50000E-02 0.00000E+00
 -1       907 1.25000E-02 2.50000E-02 0.00000E+00
 -1       908 1.35417E-02 2.50000E-02 0.00000E+00
 -1       909 1.45833E-02 2.50000E-02 0.00000E+00
 -1       910 1.56250E-02 2.50000E-02 0.00000E+00
 -1       911 1.77083E-02 2.50000E-02 0.00000E+00
 -1       912 1.87500E-02 2.50000E-02 0.00000E+00
 -1       913 1.97917E-02 2.50000E-02 0.00000E+00
 -1       914 2.08333E-02 2.50000E-02 0.00000E+00
 -1       915 2.18750E-02 2.50000E-02 0.00000E+00
 -1       916 2.29167E-02 2.50000E-02 0.00000E+00
 -1       917 2.39583E-02 2.50000E-02 0.00000E+00
 -1       918 2.50000E-02 2.50000E-02 0.00000E+00
 -1       919 2.60417E-02 2.50000E-02 0.00000E+00
 -1       920 2.70833E-02 2.50000E-02 0.00000E+00
 -1       921 2.81250E-02 2.50000E-02 0.00000E+00
 -1       922 2.91667E-02 2.50000E-02 0.00000E+00
 -1       923 3.02083E-02 2.50000E-02 0.00000E+00
 -1       924 3.12500E-02 2.50000E-02 0.00000E+00
 -1       925 3.22917E-02 2.50000E-02 0.00000E+00
 -1       926 3.43750E-02 2.50000E-02 0.00000E+00
 -1       927 3.54167E-02 2.50000E-02 0.00000E+00
 -1       928 3.64583E-02 2.50000E-02 0.00000E+00
 -1       929 3.75000E-02 2.50000E-02 0.00000E+00
 -1       930 3.85417E-02 2.50000E-02 0.00000E+00
 -1       931 3.95833E-02 2.50000E-02 0.00000E+00
 -1       932 4.06250E-02 2.50000E-02 0.00000E+00
 -1       933 4.16667E-02 2.50000E-02 0.00000E+00
 -1       934 4.27083E-02 2.50000E-02 0.00000E+00
 -1       935 4.37500E-02 2.50000E-02 0.00000E+00
 -1       936 4.47917E-02 2.50000E-02 0.00000E+00
 -1       937 4.58333E-02 2.50000E-02 0.00000E+00
 -1       938 4.68750E-02 2.50000E-02 0.00000E+00
 -1       939 4.79167E-02 2.50000E-02 0.00000E+00
 -1       940 4.89583E-02 2.50000E-02 0.00000E+00
 -1       941 5.10417E-02 2.50000E-02 0.00000E+00
 -1       942 5.20833E-02 2.50000E-02 0.00000E+00
 -1       943 5.31250E-02 2.50000E-02 0.00000E+00
 -1       944 5.41667E-02 2.50000E-02 0.00000E+00
 -1       945 5.52083E-02 2.50000E-02 0.00000E+00
 -1       946 5.62500E-02 2.50000E-02 0.00000E+00
 -1       947 5.72917E-02 2.50000E-02 0.00000E+00
 -1       948 5.83333E-02 2.50000E-02 0.00000E+00
 -1       949 5.93750E-02 2.50000E-02 0.00000E+00
 -1       950 6.04167E-02 2.50000E-02 0.00000E+00
 -1       951 6.14583E-02 2.50000E-02 0.00000E+00
 -1       952 6.25000E-02 2.50000E-02 0.00000E+00
 -1       953 6.35417E-02 2.50000E-02 0.00000E+00
 -1       954 6.45833E-02 2.50000E-02 0.00000E+00
 -1       955 6.56250E-02 2.50000E-02 0.00000E+00
 -1       956 6.77083E-02 2.50000E-02 0.00000E+00
 -1       957 6.87500E-02 2.50000E-02 0.00000E+00
 -1       958 6.97917E-02 2.50000E-02 0.00000E+00
 -1       959 7.08333E-02 2.50000E-02 0.00000E+00
 -1       960 7.18750E-02 2.50000E-02 0.00000E+00
 -1       961 7.29167E-02 2.50000E-02 0.00000E+00
 -1       962 7.39583E-02 2.50000E-02 0.00000E+00
 -1       963 7.50000E-02 2.50000E-02 0.00000E+00
 -1       964 7.60417E-02 2.50000E-02 0.00000E+00
 -1       965 7.70833E-02 2.50000E-02 0.00000E+00
 -1       966 7.81250E-02 2.50000E-02 0.00000E+00
 -1       967 7.91667E-02 2.50000E-02 0.00000E+00
 -1       968 8.02083E-02 2.50000E-02 0.00000E+00
 -1       969 8.12500E-02 2.50000E-02 0.00000E+00
 -1       970 8.22917E-02 2.50000E-02 0.00000E+00
 -1       971 8.43750E-02 2.50000E-02 0.00000E+00
 -1       972 8.54167E-02 2.50000E-02 0.00000E+00
 -1       973 8.64583E-02 2.50000E-02 0.00000E+00
 -1       974 8.75000E-02 2.50000E-02 0.00000E+00
 -1       975 8.85417E-02 2.50000E-02 0.00000E+00
 -1       976 8.95833E-02 2.50000E-02 0.00000E+00
 -1       977 9.06250E-02 2.50000E-02 0.00000E+00
 -1       978 9.16667E-02 2.50000E-02 0.00000E+00
 -1       979 9.27083E-02 2.50000E-02 0.00000E+00
 -1       980 9.37500E-02 2.50000E-02 0.00000E+00
 -1       981 9.47917E-02 2.50000E-02 0.00000E+00
 -1       982 9.58333E-02 2.50000E-02 0.00000E+00
 -1       983 9.68750E-02 2.50000E-02 0.00000E+00
 -1       984 9.79167E-02 2.50000E-02 0.00000E+00
 -1       985 9.89583E-02 2.50000E-02 0.00000E+00
 -3
    3C                           440                                     1
 -1         1   12    0    1
 -2         1        37        36
 -1         2   12    0    1
 -2        37        39        38
 -1         3   12    0    1
 -2        39        41        40
 -1         4   12    0    1
 -2        41        43        42
 -1         5   12    0    1
 -2        43        45        44
 -1         6   12    0    1
 -2        45        47        46
 -1         7   12    0    1
 -2        47        49        48
 -1         8   12    0    1
 -2        49         2        50
 -1         9   12    0    1
 -2         1        52        51
 -1        10   12    0    1
 -2        52        54        53
 -1        11   12    0    1
 -2        54         8        55
 -1        12   12    0    1
 -2         1        57        56
 -1        13   12    0    1
 -2        57        59        58
 -1        14   12    0    1
 -2        59        61        60
 -1        15   12    0    1
 -2        61        63        62
 -1        16   12    0    1
 -2        63        65        64
 -1        17   12    0    1
 -2        65        67        66
 -1        18   12    0    1
 -2        67        69        68
 -1        19   12    0    1
 -2        69         9        70
 -1        20   12    0    1
 -2         2        72        71
 -1        21   12    0    1
 -2        72        74        73
 -1        22   12    0    1
 -2        74        76        75
 -1        23   12    0    1
 -2        76        78        77
 -1        24   12    0    1
 -2        78        80        79
 -1        25   12    0    1
 -2        80        82        81
 -1        26   12    0    1
 -2        82        84        83
 -1        27   12    0    1
 -2        84         3        85
 -1        28   12    0    1
 -2         2        87        86
 -1        29   12    0    1
 -2        87        89        88
 -1        30   12    0    1
 -2        89         9        90
 -1        31   12    0    1
 -2         2        92        91
 -1        32   12    0    1
 -2        92        94        93
 -1        33   12    0    1
 -2        94        96        95
 -1        34   12    0    1
 -2        96        98        97
 -1        35   12    0    1
 -2        98       100        99
 -1        36   12    0    1
 -2       100       102       101
 -1        37   12    0    1
 -2       102       104       103
 -1        38   12    0    1
 -2       104        10       105
 -1        39   12    0    1
 -2         3       107       106
 -1        40   12    0    1
 -2       107       109       108
 -1        41   12    0    1
 -2       109       111       110
 -1        42   12    0    1
 -2       111       113       112
 -1        43   12    0    1
 -2       113       115       114
 -1        44   12    0    1
 -2       115       117       116
 -1        45   12    0    1
 -2       117       119       118
 -1        46   12    0    1
 -2       119         4       120
 -1        47   12    0    1
 -2         3       122       121
 -1        48   12    0    1
 -2       122       124       123
 -1        49   12    0    1
 -2       124        10       125
 -1        50   12    0    1
 -2         3       127       126
 -1        51   12    0    1
 -2       127       129       128
 -1        52   12    0    1
 -2       129       131       130
 -1        53   12    0    1
 -2       131       133       132
 -1        54   12    0    1
 -2       133       135       134
 -1        55   12    0    1
 -2       135       137       136
 -1        56   12    0    1
 -2       137       139       138
 -1        57   12    0    1
 -2       139        11       140
 -1        58   12    0    1
 -2         4       142       141
 -1        59   12    0    1
 -2       142       144       143
 -1        60   12    0    1
 -2       144       146       145
 -1        61   12    0    1
 -2       146       148       147
 -1        62   12    0    1
 -2       148       150       149
 -1        63   12    0    1
 -2       150       152       151
 -1        64   12    0    1
 -2       152       154       153
 -1        65   12    0    1
 -2       154         5       155
 -1        66   12    0    1
 -2         4       157       156
 -1        67   12    0    1
 -2       157       159       158
 -1        68   12    0    1
 -2       159        11       160
 -1        69   12    0    1
 -2         4       162       161
 -1        70   12    0    1
 -2       162       164       163
 -1        71   12    0    1
 -2       164       166       165
 -1        72   12    0    1
 -2       166       168       167
 -1        73   12    0    1
 -2       168       170       169
 -1        74   12    0    1
 -2       170       172       171
 -1        75   12    0    1
 -2       172       174       173
 -1        76   12    0    1
 -2       174        12       175
 -1        77   12    0    1
 -2         5       192       191
 -1        78   12    0    1
 -2       192       194       193
 -1        79   12    0    1
 -2       194        12       195
 -1        80   12    0    1
 -2         8       252       251
 -1        81   12    0    1
 -2       252       254       253
 -1        82   12    0    1
 -2       254       256       255
 -1        83   12    0    1
 -2       256       258       257
 -1        84   12    0    1
 -2       258       260       259
 -1        85   12    0    1
 -2       260       262       261
 -1        86   12    0    1
 -2       262       264       263
 -1        87   12    0    1
 -2       264         9       265
 -1        88   12    0    1
 -2         8       267       266
 -1        89   12    0    1
 -2       267       269       268
 -1        90   12    0    1
 -2       269        15       270
 -1        91   12    0    1
 -2         8       272       271
 -1        92   12    0    1
 -2       272       274       273
 -1        93   12    0    1
 -2       274       276       275
 -1        94   12    0    1
 -2       276       278       277
 -1        95   12    0    1
 -2       278       280       279
 -1        96   12    0    1
 -2       280       282       281
 -1        97   12    0    1
 -2       282       284       283
 -1        98   12    0    1
 -2       284        16       285
 -1        99   12    0    1
 -2         9       287       286
 -1       100   12    0    1
 -2       287       289       288
 -1       101   12    0    1
 -2       289       291       290
 -1       102   12    0    1
 -2       291       293       292
 -1       103   12    0    1
 -2       293       295       294
 -1       104   12    0    1
 -2       295       297       296
 -1       105   12    0    1
 -2       297       299       298
 -1       106   12    0    1
 -2       299        10       300
 -1       107   12    0    1
 -2         9       302       301
 -1       108   12    0    1
 -2       302       304       303
 -1       109   12    0    1
 -2       304        16       305
 -1       110   12    0    1
 -2         9       307       306
 -1       111   12    0    1
 -2       307       309       308
 -1       112   12    0    1
 -2       309       311       310
 -1       113   12    0    1
 -2       311       313       312
 -1       114   12    0    1
 -2       313       315       314
 -1       115   12    0    1
 -2       315       317       316
 -1       116   12    0    1
 -2       317       319       318
 -1       117   12    0    1
 -2       319        17       320
 -1       118   12    0    1
 -2        10       322       321
 -1       119   12    0    1
 -2       322       324       323
 -1       120   12    0    1
 -2       324       326       325
 -1       121   12    0    1
 -2       326       328       327
 -1       122   12    0    1
 -2       328       330       329
 -1       123   12    0    1
 -2       330       332       331
 -1       124   12    0    1
 -2       332       334       333
 -1       125   12    0    1
 -2       334        11       335
 -1       126   12    0    1
 -2        10       337       336
 -1       127   12    0    1
 -2       337       339       338
 -1       128   12    0    1
 -2       339        17       340
 -1       129   12    0    1
 -2        10       342       341
 -1       130   12    0    1
 -2       342       344       343
 -1       131   12    0    1
 -2       344       346       345
 -1       132   12    0    1
 -2       346       348       347
 -1       133   12    0    1
 -2       348       350       349
 -1       134   12    0    1
 -2       350       352       351
 -1       135   12    0    1
 -2       352       354       353
 -1       136   12    0    1
 -2       354        18       355
 -1       137   12    0    1
 -2        11       357       356
 -1       138   12    0    1
 -2       357       359       358
 -1       139   12    0    1
 -2       359       361       360
 -1       140   12    0    1
 -2       361       363       362
 -1       141   12    0    1
 -2       363       365       364
 -1       142   12    0    1
 -2       365       367       366
 -1       143   12    0    1
 -2       367       369       368
 -1       144   12    0    1
 -2       369        12       370
 -1       145   12    0    1
 -2        11       372       371
 -1       146   12    0    1
 -2       372       374       373
 -1       147   12    0    1
 -2       374        18       375
 -1       148   12    0    1
 -2        11       377       376
 -1       149   12    0    1
 -2       377       379       378
 -1       150   12    0    1
 -2       379       381       380
 -1       151   12    0    1
 -2       381       383       382
 -1       152   12    0    1
 -2       383       385       384
 -1       153   12    0    1
 -2       385       387       386
 -1       154   12    0    1
 -2       387       389       388
 -1       155   12    0    1
 -2       389        19       390
 -1       156   12    0    1
 -2        12       407       406
 -1       157   12    0    1
 -2       407       409       408
 -1       158   12    0    1
 -2       409        19       410
 -1       159   12    0    1
 -2        15       467       466
 -1       160   12    0    1
 -2       467       469       468
 -1       161   12    0    1
 -2       469       471       470
 -1       162   12    0    1
 -2       471       473       472
 -1       163   12    0    1
 -2       473       475       474
 -1       164   12    0    1
 -2       475       477       476
 -1       165   12    0    1
 -2       477       479       478
 -1       166   12    0    1
 -2       479        16       480
 -1       167   12    0    1
 -2        15       482       481
 -1       168   12    0    1
 -2       482       484       483
 -1       169   12    0    1
 -2       484        22       485
 -1       170   12    0    1
 -2        15       487       486
 -1       171   12    0    1
 -2       487       489       488
 -1       172   12    0    1
 -2       489       491       490
 -1       173   12    0    1
 -2       491       493       492
 -1       174   12    0    1
 -2       493       495       494
 -1       175   12    0    1
 -2       495       497       496
 -1       176   12    0    1
 -2       497       499       498
 -1       177   12    0    1
 -2       499        23       500
 -1       178   12    0    1
 -2        16       502       501
 -1       179   12    0    1
 -2       502       504       503
 -1       180   12    0    1
 -2       504       506       505
 -1       181   12    0    1
 -2       506       508       507
 -1       182   12    0    1
 -2       508       510       509
 -1       183   12    0    1
 -2       510       512       511
 -1       184   12    0    1
 -2       512       514       513
 -1       185   12    0    1
 -2       514        17       515
 -1       186   12    0    1
 -2        16       517       516
 -1       187   12    0    1
 -2       517       519       518
 -1       188   12    0    1
 -2       519        23       520
 -1       189   12    0    1
 -2        16       522       521
 -1       190   12    0    1
 -2       522       524       523
 -1       191   12    0    1
 -2       524       526       525
 -1       192   12    0    1
 -2       526       528       527
 -1       193   12    0    1
 -2       528       530       529
 -1       194   12    0    1
 -2       530       532       531
 -1       195   12    0    1
 -2       532       534       533
 -1       196   12    0    1
 -2       534        24       535
 -1       197   12    0    1
 -2        17       537       536
 -1       198   12    0    1
 -2       537       539       538
 -1       199   12    0    1
 -2       539       541       540
 -1       200   12    0    1
 -2       541       543       542
 -1       201   12    0    1
 -2       543       545       544
 -1       202   12    0    1
 -2       545       547       546
 -1       203   12    0    1
 -2       547       549       548
 -1       204   12    0    1
 -2       549        18       550
 -1       205   12    0    1
 -2        17       552       551
 -1       206   12    0    1
 -2       552       554       553
 -1       207   12    0    1
 -2       554        24       555
 -1       208   12    0    1
 -2        17       557       556
 -1       209   12    0    1
 -2       557       559       558
 -1       210   12    0    1
 -2       559       561       560
 -1       211   12    0    1
 -2       561       563       562
 -1       212   12    0    1
 -2       563       565       564
 -1       213   12    0    1
 -2       565       567       566
 -1       214   12    0    1
 -2       567       569       568
 -1       215   12    0    1
 -2       569        25       570
 -1       216   12    0    1
 -2        18       572       571
 -1       217   12    0    1
 -2       572       574       573
 -1       218   12    0    1
 -2       574       576       575
 -1       219   12    0    1
 -2       576       578       577
 -1       220   12    0    1
 -2       578       580       579
 -1       221   12    0    1
 -2       580       582       581
 -1       222   12    0    1
 -2       582       584       583
 -1       223   12    0    1
 -2       584        19       585
 -1       224   12    0    1
 -2        18       587       586
 -1       225   12    0    1
 -2       587       589       588
 -1       226   12    0    1
 -2       589        25       590
 -1       227   12    0    1
 -2        18       592       591
 -1       228   12    0    1
 -2       592       594       593
 -1       229   12    0    1
 -2       594       596       595
 -1       230   12    0    1
 -2       596       598       597
 -1       231   12    0    1
 -2       598       600       599
 -1       232   12    0    1
 -2       600       602       601
 -1       233   12    0    1
 -2       602       604       603
 -1       234   12    0    1
 -2       604        26       605
 -1       235   12    0    1
 -2        19       607       606
 -1       236   12    0    1
 -2       607       609       608
 -1       237   12    0    1
 -2       609       611       610
 -1       238   12    0    1
 -2       611       613       612
 -1       239   12    0    1
 -2       613       615       614
 -1       240   12    0    1
 -2       615       617       616
 -1       241   12    0    1
 -2       617       619       618
 -1       242   12    0    1
 -2       619        20       620
 -1       243   12    0    1
 -2        19       622       621
 -1       244   12    0    1
 -2       622       624       623
 -1       245   12    0    1
 -2       624        26       625
 -1       246   12    0    1
 -2        19       627       626
 -1       247   12    0    1
 -2       627       629       628
 -1       248   12    0    1
 -2       629       631       630
 -1       249   12    0    1
 -2       631       633       632
 -1       250   12    0    1
 -2       633       635       634
 -1       251   12    0    1
 -2       635       637       636
 -1       252   12    0    1
 -2       637       639       638
 -1       253   12    0    1
 -2       639        27       640
 -1       254   12    0    1
 -2        20       642       641
 -1       255   12    0    1
 -2       642       644       643
 -1       256   12    0    1
 -2       644       646       645
 -1       257   12    0    1
 -2       646       648       647
 -1       258   12    0    1
 -2       648       650       649
 -1       259   12    0    1
 -2       650       652       651
 -1       260   12    0    1
 -2       652       654       653
 -1       261   12    0    1
 -2       654        21       655
 -1       262   12    0    1
 -2        20       657       656
 -1       263   12    0    1
 -2       657       659       658
 -1       264   12    0    1
 -2       659        27       660
 -1       265   12    0    1
 -2        20       662       661
 -1       266   12    0    1
 -2       662       664       663
 -1       267   12    0    1
 -2       664       666       665
 -1       268   12    0    1
 -2       666       668       667
 -1       269   12    0    1
 -2       668       670       669
 -1       270   12    0    1
 -2       670       672       671
 -1       271   12    0    1
 -2       672       674       673
 -1       272   12    0    1
 -2       674        28       675
 -1       273   12    0    1
 -2        21       677       676
 -1       274   12    0    1
 -2       677       679       678
 -1       275   12    0    1
 -2       679        28       680
 -1       276   12    0    1
 -2        22       682       681
 -1       277   12    0    1
 -2       682       684       683
 -1       278   12    0    1
 -2       684       686       685
 -1       279   12    0    1
 -2       686       688       687
 -1       280   12    0    1
 -2       688       690       689
 -1       281   12    0    1
 -2       690       692       691
 -1       282   12    0    1
 -2       692       694       693
 -1       283   12    0    1
 -2       694        23       695
 -1       284   12    0    1
 -2        22       697       696
 -1       285   12    0    1
 -2       697       699       698
 -1       286   12    0    1
 -2       699        29       700
 -1       287   12    0    1
 -2        22       702       701
 -1       288   12    0    1
 -2       702       704       703
 -1       289   12    0    1
 -2       704       706       705
 -1       290   12    0    1
 -2       706       708       707
 -1       291   12    0    1
 -2       708       710       709
 -1       292   12    0    1
 -2       710       712       711
 -1       293   12    0    1
 -2       712       714       713
 -1       294   12    0    1
 -2       714        30       715
 -1       295   12    0    1
 -2        23       717       716
 -1       296   12    0    1
 -2       717       719       718
 -1       297   12    0    1
 -2       719       721       720
 -1       298   12    0    1
 -2       721       723       722
 -1       299   12    0    1
 -2       723       725       724
 -1       300   12    0    1
 -2       725       727       726
 -1       301   12    0    1
 -2       727       729       728
 -1       302   12    0    1
 -2       729        24       730
 -1       303   12    0    1
 -2        23       732       731
 -1       304   12    0    1
 -2       732       734       733
 -1       305   12    0    1
 -2       734        30       735
 -1       306   12    0    1
 -2        23       737       736
 -1       307   12    0    1
 -2       737       739       738
 -1       308   12    0    1
 -2       739       741       740
 -1       309   12    0    1
 -2       741       743       742
 -1       310   12    0    1
 -2       743       745       744
 -1       311   12    0    1
 -2       745       747       746
 -1       312   12    0    1
 -2       747       749       748
 -1       313   12    0    1
 -2       749        31       750
 -1       314   12    0    1
 -2        24       752       751
 -1       315   12    0    1
 -2       752       754       753
 -1       316   12    0    1
 -2       754       756       755
 -1       317   12    0    1
 -2       756       758       757
 -1       318   12    0    1
 -2       758       760       759
 -1       319   12    0    1
 -2       760       762       761
 -1       320   12    0    1
 -2       762       764       763
 -1       321   12    0    1
 -2       764        25       765
 -1       322   12    0    1
 -2        24       767       766
 -1       323   12    0    1
 -2       767       769       768
 -1       324   12    0    1
 -2       769        31       770
 -1       325   12    0    1
 -2        24       772       771
 -1       326   12    0    1
 -2       772       774       773
 -1       327   12    0    1
 -2       774       776       775
 -1       328   12    0    1
 -2       776       778       777
 -1       329   12    0    1
 -2       778       780       779
 -1       330   12    0    1
 -2       780       782       781
 -1       331   12    0    1
 -2       782       784       783
 -1       332   12    0    1
 -2       784        32       785
 -1       333   12    0    1
 -2        25       787       786
 -1       334   12    0    1
 -2       787       789       788
 -1       335   12    0    1
 -2       789       791       790
 -1       336   12    0    1
 -2       791       793       792
 -1       337   12    0    1
 -2       793       795       794
 -1       338   12    0    1
 -2       795       797       796
 -1       339   12    0    1
 -2       797       799       798
 -1       340   12    0    1
 -2       799        26       800
 -1       341   12    0    1
 -2        25       802       801
 -1       342   12    0    1
 -2       802       804       803
 -1       343   12    0    1
 -2       804        32       805
 -1       344   12    0    1
 -2        25       807       806
 -1       345   12    0    1
 -2       807       809       808
 -1       346   12    0    1
 -2       809       811       810
 -1       347   12    0    1
 -2       811       813       812
 -1       348   12    0    1
 -2       813       815       814
 -1       349   12    0    1
 -2       815       817       816
 -1       350   12    0    1
 -2       817       819       818
 -1       351   12    0    1
 -2       819        33       820
 -1       352   12    0    1
 -2        26       822       821
 -1       353   12    0    1
 -2       822       824       823
 -1       354   12    0    1
 -2       824       826       825
 -1       355   12    0    1
 -2       826       828       827
 -1       356   12    0    1
 -2       828       830       829
 -1       357   12    0    1
 -2       830       832       831
 -1       358   12    0    1
 -2       832       834       833
 -1       359   12    0    1
 -2       834        27       835
 -1       360   12    0    1
 -2        26       837       836
 -1       361   12    0    1
 -2       837       839       838
 -1       362   12    0    1
 -2       839        33       840
 -1       363   12    0    1
 -2        26       842       841
 -1       364   12    0    1
 -2       842       844       843
 -1       365   12    0    1
 -2       844       846       845
 -1       366   12    0    1
 -2       846       848       847
 -1       367   12    0    1
 -2       848       850       849
 -1       368   12    0    1
 -2       850       852       851
 -1       369   12    0    1
 -2       852       854       853
 -1       370   12    0    1
 -2       854        34       855
 -1       371   12    0    1
 -2        27       857       856
 -1       372   12    0    1
 -2       857       859       858
 -1       373   12    0    1
 -2       859       861       860
 -1       374   12    0    1
 -2       861       863       862
 -1       375   12    0    1
 -2       863       865       864
 -1       376   12    0    1
 -2       865       867       866
 -1       377   12    0    1
 -2       867       869       868
 -1       378   12    0    1
 -2       869        28       870
 -1       379   12    0    1
 -2        27       872       871
 -1       380   12    0    1
 -2       872       874       873
 -1       381   12    0    1
 -2       874        34       875
 -1       382   12    0    1
 -2        27       877       876
 -1       383   12    0    1
 -2       877       879       878
 -1       384   12    0    1
 -2       879       881       880
 -1       385   12    0    1
 -2       881       883       882
 -1       386   12    0    1
 -2       883       885       884
 -1       387   12    0    1
 -2       885       887       886
 -1       388   12    0    1
 -2       887       889       888
 -1       389   12    0    1
 -2       889        35       890
 -1       390   12    0    1
 -2        28       892       891
 -1       391   12    0    1
 -2       892       894       893
 -1       392   12    0    1
 -2       894        35       895
 -1       393   12    0    1
 -2        29       897       896
 -1       394   12    0    1
 -2       897       899       898
 -1       395   12    0    1
 -2       899       901       900
 -1       396   12    0    1
 -2       901       903       902
 -1       397   12    0    1
 -2       903       905       904
 -1       398   12    0    1
 -2       905       907       906
 -1       399   12    0    1
 -2       907       909       908
 -1       400   12    0    1
 -2       909        30       910
 -1       401   12    0    1
 -2        30       912       911
 -1       402   12    0    1
 -2       912       914       913
 -1       403   12    0    1
 -2       914       916       915
 -1       404   12    0    1
 -2       916       918       917
 -1       405   12    0    1
 -2       918       920       919
 -1       406   12    0    1
 -2       920       922       921
 -1       407   12    0    1
 -2       922       924       923
 -1       408   12    0    1
 -2       924        31       925
 -1       409   12    0    1
 -2        31       927       926
 -1       410   12    0    1
 -2       927       929       928
 -1       411   12    0    1
 -2       929       931       930
 -1       412   12    0    1
 -2       931       933       932
 -1       413   12    0    1
 -2       933       935       934
 -1       414   12    0    1
 -2       935       937       936
 -1       415   12    0    1
 -2       937       939       938
 -1       416   12    0    1
 -2       939        32       940
 -1       417   12    0    1
 -2        32       942       941
 -1       418   12    0    1
 -2       942       944       943
 -1       419   12    0    1
 -2       944       946       945
 -1       420   12    0    1
 -2       946       948       947
 -1       421   12    0    1
 -2       948       950       949
 -1       422   12    0    1
 -2       950       952       951
 -1       423   12    0    1
 -2       952       954       953
 -1       424   12    0    1
 -2       954        33       955
 -1       425   12    0    1
 -2        33       957       956
 -1       426   12    0    1
 -2       957       959       958
 -1       427   12    0    1
 -2       959       961       960
 -1       428   12    0    1
 -2       961       963       962
 -1       429   12    0    1
 -2       963       965       964
 -1       430   12    0    1
 -2       965       967       966
 -1       431   12    0    1
 -2       967       969       968
 -1       432   12    0    1
 -2       969        34       970
 -1       433   12    0    1
 -2        34       972       971
 -1       434   12    0    1
 -2       972       974       973
 -1       435   12    0    1
 -2       974       976       975
 -1       436   12    0    1
 -2       976       978       977
 -1       437   12    0    1
 -2       978       980       979
 -1       438   12    0    1
 -2       980       982       981
 -1       439   12    0    1
 -2       982       984       983
 -1       440   12    0    1
 -2       984        35       985
 -3
    1PSTEP                         1           1           1          
  100CL  101 1.000000000         841                     0    1           1
 -4  DISP        4    1
 -5  D1          1    2    1    0
 -5  D2          1    2    2    0
 -5  D3          1    2    3    0
 -5  ALL         1    2    0    0    1ALL
 -1         1 1.16772E-04 0.00000E+00 0.00000E+00
 -1         2 8.86816E-05 0.00000E+00 0.00000E+00
 -1         3 7.61176E-05 0.00000E+00 0.00000E+00
 -1         4 7.09319E-05 0.00000E+00 0.00000E+00
 -1         5 6.96418E-05 0.00000E+00 0.00000E+00
 -1         8 8.94957E-05-1.07118E-06 0.00000E+00
 -1         9 7.79872E-05 1.65503E-06 0.00000E+00
 -1        10 7.18038E-05-6.30119E-06 0.00000E+00
 -1        11 6.75088E-05-1.41377E-06 0.00000E+00
 -1        12 6.53015E-05 2.56076E-06 0.00000E+00
 -1        15 3.29012E-05-2.26383E-06 0.00000E+00
 -1        16 4.44343E-05 1.82770E-06 0.00000E+00
 -1        17 4.36924E-05-1.24987E-05 0.00000E+00
 -1        18 4.96618E-05-2.59682E-06 0.00000E+00
 -1        19 5.39388E-05 5.02307E-06 0.00000E+00
 -1        20 5.48767E-05 5.34452E-05 0.00000E+00
 -1        21 5.47346E-05 1.34187E-04 0.00000E+00
 -1        22 1.22757E-05-1.42038E-06 0.00000E+00
 -1        23 1.60571E-05 2.46303E-06 0.00000E+00
 -1        24 1.80676E-05-1.34797E-05 0.00000E+00
 -1        25 3.62082E-05-2.22775E-06 0.00000E+00
 -1        26 4.36760E-05 6.40795E-06 0.00000E+00
 -1        27 3.85519E-05 5.14783E-05 0.00000E+00
 -1        28 3.24810E-05 1.32308E-04 0.00000E+00
 -1        29 0.00000E+00 0.00000E+00 0.00000E+00
 -1        30 6.14323E-06 2.96254E-06 0.00000E+00
 -1        31 8.42562E-06-1.20345E-05 0.00000E+00
 -1        32 0.00000E+00 0.00000E+00 0.00000E+00
 -1        33 2.48798E-05 1.22068E-05 0.00000E+00
 -1        34 2.34311E-05 5.13914E-05 0.00000E+00
 -1        35 1.64224E-05 1.31329E-04 0.00000E+00
 -1        36 1.15070E-04-1.70135E-20 0.00000E+00
 -1        37 1.13314E-04-5.74030E-20 0.00000E+00
 -1        38 1.11561E-04-7.32849E-20 0.00000E+00
 -1        39 1.09799E-04-5.84751E-20-2.64698E-23
 -1        40 1.08036E-04-6.94468E-20 5.29396E-23
 -1        41 1.06271E-04-6.75376E-20 0.00000E+00
 -1        42 1.04506E-04-9.63467E-20 5.29396E-23
 -1        43 1.02740E-04-1.26420E-19-2.64698E-23
 -1        44 1.00975E-04-1.09353E-19 0.00000E+00
 -1        45 9.92093E-05-1.05849E-19 0.00000E+00
 -1        46 9.74442E-05-5.74891E-20-5.29396E-23
 -1        47 9.56803E-05-1.77877E-20 0.00000E+00
 -1        48 9.39169E-05 1.45385E-20-5.29396E-23
 -1        49 9.21603E-05 3.49203E-20 2.64698E-23
 -1        50 9.04018E-05 2.13380E-20 0.00000E+00
 -1        51 1.14859E-04-1.83931E-07 0.00000E+00
 -1        52 1.11519E-04-3.56196E-07 0.00000E+00
 -1        53 1.07026E-04-5.28004E-07 0.00000E+00
 -1        54 1.01666E-04-7.02253E-07 0.00000E+00
 -1        55 9.57263E-05-8.80869E-07 0.00000E+00
 -1        56 1.14890E-04-1.13486E-06-5.29396E-23
 -1        57 1.13193E-04-2.97182E-06 0.00000E+00
 -1        58 1.11682E-04-5.29592E-06-5.29396E-23
 -1        59 1.10263E-04-7.90212E-06 0.00000E+00
 -1        60 1.08861E-04-1.05530E-05 0.00000E+00
 -1        61 1.07385E-04-1.30137E-05 2.64698E-23
 -1        62 1.05756E-04-1.50643E-05 0.00000E+00
 -1        63 1.03898E-04-1.65038E-05 2.64698E-23
 -1        64 1.01754E-04-1.71809E-05 5.29396E-23
 -1        65 9.92805E-05-1.69787E-05 0.00000E+00
 -1        66 9.64589E-05-1.58519E-05 5.29396E-23
 -1        67 9.32892E-05-1.37965E-05 0.00000E+00
 -1        68 8.97958E-05-1.08847E-05 0.00000E+00
 -1        69 8.60318E-05-7.22247E-06 0.00000E+00
 -1        70 8.20451E-05-2.98670E-06 5.29396E-23
 -1        71 8.78939E-05-2.85692E-20-2.64698E-23
 -1        72 8.71080E-05-4.06675E-20 0.00000E+00
 -1        73 8.63220E-05-1.85090E-20-2.64698E-23
 -1        74 8.55364E-05-4.74802E-22-1.32349E-23
 -1        75 8.47508E-05-2.32206E-20-2.64698E-23
 -1        76 8.39652E-05-5.02198E-20 0.00000E+00
 -1        77 8.31797E-05-7.66151E-20 0.00000E+00
 -1        78 8.23942E-05-1.17774E-19 0.00000E+00
 -1        79 8.16086E-05-1.24064E-19-2.64698E-23
 -1        80 8.08232E-05-1.26565E-19 0.00000E+00
 -1        81 8.00377E-05-8.81857E-20 0.00000E+00
 -1        82 7.92524E-05-6.94749E-20-1.32349E-23
 -1        83 7.84672E-05-3.24834E-20 2.64698E-23
 -1        84 7.76827E-05-2.84170E-20 0.00000E+00
 -1        85 7.68980E-05-1.31323E-20 2.64698E-23
 -1        86 8.86377E-05 2.44521E-07-6.61744E-24
 -1        87 8.83437E-05 5.34213E-07-2.06795E-25
 -1        88 8.74702E-05 8.20874E-07 0.00000E+00
 -1        89 8.56837E-05 1.10988E-06 0.00000E+00
 -1        90 8.26403E-05 1.39779E-06-1.65436E-24
 -1        91 8.76926E-05-5.41216E-07 2.64698E-23
 -1        92 8.67978E-05-1.36232E-06 1.32349E-23
 -1        93 8.59852E-05-2.40131E-06 0.00000E+00
 -1        94 8.52288E-05-3.59522E-06 1.32349E-23
 -1        95 8.45033E-05-4.87197E-06 0.00000E+00
 -1        96 8.37810E-05-6.15801E-06 0.00000E+00
 -1        97 8.30344E-05-7.37940E-06 0.00000E+00
 -1        98 8.22365E-05-8.46392E-06 0.00000E+00
 -1        99 8.13629E-05-9.34603E-06 0.00000E+00
 -1       100 8.03909E-05-9.96520E-06 0.00000E+00
 -1       101 7.93025E-05-1.02741E-05 0.00000E+00
 -1       102 7.80831E-05-1.02331E-05 0.00000E+00
 -1       103 7.67241E-05-9.82007E-06 0.00000E+00
 -1       104 7.52219E-05-9.02152E-06-1.32349E-23
 -1       105 7.35765E-05-7.84457E-06 0.00000E+00
 -1       106 7.57772E-05-8.04020E-21 0.00000E+00
 -1       107 7.54515E-05 2.23107E-20 0.00000E+00
 -1       108 7.51251E-05 4.57472E-20-1.32349E-23
 -1       109 7.48012E-05 3.60824E-20 6.61744E-24
 -1       110 7.44775E-05 1.98126E-20 0.00000E+00
 -1       111 7.41543E-05-2.83475E-21 6.61744E-24
 -1       112 7.38312E-05-6.93508E-21 1.32349E-23
 -1       113 7.35083E-05 9.30165E-21 6.61744E-24
 -1       114 7.31853E-05 1.73617E-20-1.32349E-23
 -1       115 7.28624E-05 3.73753E-20 6.61744E-24
 -1       116 7.25396E-05 1.95479E-20 0.00000E+00
 -1       117 7.22169E-05 2.22371E-20-6.61744E-24
 -1       118 7.18942E-05 8.87565E-21-1.32349E-23
 -1       119 7.15722E-05 2.39394E-20-3.30872E-24
 -1       120 7.12501E-05 1.60870E-20 0.00000E+00
 -1       121 7.60966E-05-1.03838E-06 2.64698E-23
 -1       122 7.59565E-05-2.09190E-06 0.00000E+00
 -1       123 7.55724E-05-3.14467E-06 0.00000E+00
 -1       124 7.48238E-05-4.19872E-06 1.32349E-23
 -1       125 7.36011E-05-5.25388E-06 0.00000E+00
 -1       126 7.56334E-05-2.57842E-07-1.32349E-23
 -1       127 7.52019E-05-6.33754E-07-6.61744E-24
 -1       128 7.48040E-05-1.10060E-06 0.00000E+00
 -1       129 7.44298E-05-1.62660E-06 0.00000E+00
 -1       130 7.40657E-05-2.17957E-06 1.32349E-23
 -1       131 7.36996E-05-2.72647E-06 0.00000E+00
 -1       132 7.33190E-05-3.23470E-06 0.00000E+00
 -1       133 7.29119E-05-3.67199E-06-6.61744E-24
 -1       134 7.24668E-05-4.00773E-06 0.00000E+00
 -1       135 7.19726E-05-4.21252E-06-6.61744E-24
 -1       136 7.14195E-05-4.26007E-06 0.00000E+00
 -1       137 7.07985E-05-4.12586E-06 0.00000E+00
 -1       138 7.01017E-05-3.78985E-06 0.00000E+00
 -1       139 6.93237E-05-3.23387E-06 6.61744E-24
 -1       140 6.84581E-05-2.44606E-06 1.32349E-23
 -1       141 7.08428E-05-3.74961E-21 0.00000E+00
 -1       142 7.07596E-05-2.08425E-20 0.00000E+00
 -1       143 7.06761E-05-1.55537E-20-3.30872E-24
 -1       144 7.05937E-05 1.67173E-21 0.00000E+00
 -1       145 7.05113E-05 4.12039E-21-3.30872E-24
 -1       146 7.04291E-05 6.54610E-21 0.00000E+00
 -1       147 7.03469E-05 2.80373E-21-3.30872E-24
 -1       148 7.02649E-05-9.09175E-21 1.65436E-24
 -1       149 7.01828E-05-2.85495E-20-3.30872E-24
 -1       150 7.01010E-05-4.55309E-20 0.00000E+00
 -1       151 7.00192E-05-4.00910E-20 1.65436E-24
 -1       152 6.99381E-05-2.57991E-20 8.27181E-25
 -1       153 6.98572E-05-1.09275E-20-8.27181E-25
 -1       154 6.97797E-05 9.59188E-21-4.13590E-25
 -1       155 6.97013E-05 1.37291E-20 3.30872E-24
 -1       156 7.08642E-05-2.34010E-07 0.00000E+00
 -1       157 7.06423E-05-4.68572E-07 0.00000E+00
 -1       158 7.02301E-05-7.03228E-07 0.00000E+00
 -1       159 6.95923E-05-9.38729E-07 0.00000E+00
 -1       160 6.86958E-05-1.17424E-06-6.61744E-24
 -1       161 7.06886E-05-1.32948E-07 0.00000E+00
 -1       162 7.04677E-05-3.29581E-07 0.00000E+00
 -1       163 7.02621E-05-5.67014E-07 0.00000E+00
 -1       164 7.00630E-05-8.22759E-07 0.00000E+00
 -1       165 6.98623E-05-1.07387E-06-6.61744E-24
 -1       166 6.96512E-05-1.29754E-06 0.00000E+00
 -1       167 6.94214E-05-1.47132E-06 6.61744E-24
 -1       168 6.91647E-05-1.57306E-06-3.30872E-24
 -1       169 6.88730E-05-1.58150E-06 6.61744E-24
 -1       170 6.85386E-05-1.47588E-06 0.00000E+00
 -1       171 6.81544E-05-1.23696E-06-6.61744E-24
 -1       172 6.77139E-05-8.45985E-07 0.00000E+00
 -1       173 6.72104E-05-2.86595E-07 0.00000E+00
 -1       174 6.66422E-05 4.58376E-07 1.65436E-24
 -1       175 6.59983E-05 1.40006E-06 0.00000E+00
 -1       191 6.94946E-05 4.25894E-07-1.32349E-23
 -1       192 6.91091E-05 8.53703E-07 0.00000E+00
 -1       193 6.84902E-05 1.28181E-06 0.00000E+00
 -1       194 6.76445E-05 1.70967E-06 0.00000E+00
 -1       195 6.65788E-05 2.13670E-06 0.00000E+00
 -1       251 8.87823E-05 3.25326E-06 0.00000E+00
 -1       252 8.80615E-05 5.96235E-06 0.00000E+00
 -1       253 8.73442E-05 7.22282E-06 0.00000E+00
 -1       254 8.66254E-05 7.22441E-06 0.00000E+00
 -1       255 8.59060E-05 6.19340E-06-2.64698E-23
 -1       256 8.51851E-05 4.37232E-06-1.32349E-23
 -1       257 8.44632E-05 2.02670E-06 2.64698E-23
 -1       258 8.37405E-05-5.69669E-07-1.32349E-23
 -1       259 8.30180E-05-3.13578E-06 2.64698E-23
 -1       260 8.22962E-05-5.39101E-06-1.32349E-23
 -1       261 8.15756E-05-7.06380E-06 0.00000E+00
 -1       262 8.08565E-05-7.89181E-06 0.00000E+00
 -1       263 8.01378E-05-7.63721E-06-2.64698E-23
 -1       264 7.94207E-05-6.07926E-06 0.00000E+00
 -1       265 7.86994E-05-3.03493E-06 0.00000E+00
 -1       266 8.25658E-05-1.26007E-06 0.00000E+00
 -1       267 7.27921E-05-1.46087E-06 0.00000E+00
 -1       268 6.15541E-05-1.67628E-06-6.61744E-24
 -1       269 5.02367E-05-1.88979E-06 0.00000E+00
 -1       270 4.02256E-05-2.09057E-06 0.00000E+00
 -1       271 8.54435E-05 2.62566E-06 0.00000E+00
 -1       272 8.17646E-05 5.08591E-06 0.00000E+00
 -1       273 7.85448E-05 6.34462E-06-5.29396E-23
 -1       274 7.57418E-05 6.45490E-06-2.64698E-23
 -1       275 7.33115E-05 5.57077E-06-5.29396E-23
 -1       276 7.11774E-05 3.88831E-06-2.64698E-23
 -1       277 6.92443E-05 1.66760E-06-5.29396E-23
 -1       278 6.74052E-05-8.06197E-07 2.64698E-23
 -1       279 6.55467E-05-3.22787E-06 5.29396E-23
 -1       280 6.35561E-05-5.29461E-06 0.00000E+00
 -1       281 6.13304E-05-6.73196E-06 0.00000E+00
 -1       282 5.87800E-05-7.29495E-06 0.00000E+00
 -1       283 5.58356E-05-6.80825E-06-5.29396E-23
 -1       284 5.24632E-05-5.14086E-06 0.00000E+00
 -1       285 4.86284E-05-2.26608E-06 0.00000E+00
 -1       286 7.75958E-05 6.38305E-06 0.00000E+00
 -1       287 7.72091E-05 9.54289E-06 6.61744E-24
 -1       288 7.68258E-05 1.12860E-05-1.32349E-23
 -1       289 7.64436E-05 1.17757E-05 0.00000E+00
 -1       290 7.60615E-05 1.11951E-05 1.32349E-23
 -1       291 7.56784E-05 9.73595E-06 6.61744E-24
 -1       292 7.52942E-05 7.60366E-06 0.00000E+00
 -1       293 7.49090E-05 5.00929E-06 0.00000E+00
 -1       294 7.45230E-05 2.17109E-06 1.32349E-23
 -1       295 7.41369E-05-6.90655E-07 6.61744E-24
 -1       296 7.37512E-05-3.35538E-06-1.32349E-23
 -1       297 7.33658E-05-5.60406E-06 6.61744E-24
 -1       298 7.29813E-05-7.22418E-06 0.00000E+00
 -1       299 7.25945E-05-8.00847E-06 0.00000E+00
 -1       300 7.22088E-05-7.76269E-06 0.00000E+00
 -1       301 7.24060E-05 1.66964E-06 0.00000E+00
 -1       302 6.68115E-05 1.70135E-06 8.27181E-25
 -1       303 6.12104E-05 1.73683E-06 0.00000E+00
 -1       304 5.56094E-05 1.77289E-06 0.00000E+00
 -1       305 5.00152E-05 1.80651E-06 0.00000E+00
 -1       306 7.40185E-05 5.83092E-06 5.29396E-23
 -1       307 7.04334E-05 8.76762E-06 0.00000E+00
 -1       308 6.73339E-05 1.04329E-05 0.00000E+00
 -1       309 6.47042E-05 1.08136E-05 0.00000E+00
 -1       310 6.25237E-05 9.99692E-06-5.29396E-23
 -1       311 6.07388E-05 8.11678E-06 0.00000E+00
 -1       312 5.92722E-05 5.38346E-06 0.00000E+00
 -1       313 5.80313E-05 2.04333E-06 2.64698E-23
 -1       314 5.69084E-05-1.61390E-06-5.29396E-23
 -1       315 5.57910E-05-5.28475E-06 0.00000E+00
 -1       316 5.45660E-05-8.66540E-06 5.29396E-23
 -1       317 5.31266E-05-1.14637E-05 2.64698E-23
 -1       318 5.13773E-05-1.34299E-05 0.00000E+00
 -1       319 4.92496E-05-1.43451E-05 0.00000E+00
 -1       320 4.66719E-05-1.40747E-05-5.29396E-23
 -1       321 7.15092E-05-4.45326E-06 0.00000E+00
 -1       322 7.12386E-05-3.10822E-06 6.61744E-24
 -1       323 7.09673E-05-2.20981E-06-1.32349E-23
 -1       324 7.07003E-05-1.69913E-06 0.00000E+00
 -1       325 7.04338E-05-1.51308E-06 6.61744E-24
 -1       326 7.01681E-05-1.58668E-06-3.30872E-24
 -1       327 6.99024E-05-1.85216E-06 6.61744E-24
 -1       328 6.96369E-05-2.24062E-06-3.30872E-24
 -1       329 6.93715E-05-2.68182E-06 6.61744E-24
 -1       330 6.91060E-05-3.10527E-06 3.30872E-24
 -1       331 6.88406E-05-3.44060E-06 6.61744E-24
 -1       332 6.85751E-05-3.61801E-06 0.00000E+00
 -1       333 6.83096E-05-3.56937E-06 6.61744E-24
 -1       334 6.80437E-05-3.22786E-06 0.00000E+00
 -1       335 6.77777E-05-2.52985E-06 6.61744E-24
 -1       336 6.86973E-05-7.32918E-06 2.64698E-23
 -1       337 6.40048E-05-8.37009E-06-1.32349E-23
 -1       338 5.84332E-05-9.41427E-06-2.64698E-23
 -1       339 5.27068E-05-1.04553E-05 0.00000E+00
 -1       340 4.75542E-05-1.14951E-05 2.64698E-23
 -1       341 6.99397E-05-4.76742E-06-2.64698E-23
 -1       342 6.81803E-05-3.55049E-06-1.32349E-23
 -1       343 6.65393E-05-2.64565E-06 2.64698E-23
 -1       344 6.50107E-05-2.04603E-06 1.32349E-23
 -1       345 6.35871E-05-1.72632E-06 0.00000E+00
 -1       346 6.22564E-05-1.65468E-06-1.32349E-23
 -1       347 6.10016E-05-1.78561E-06 2.64698E-23
 -1       348 5.98038E-05-2.06830E-06 1.32349E-23
 -1       349 5.86408E-05-2.44356E-06-2.64698E-23
 -1       350 5.74896E-05-2.84971E-06 0.00000E+00
 -1       351 5.63266E-05-3.22368E-06 0.00000E+00
 -1       352 5.51298E-05-3.50274E-06-1.32349E-23
 -1       353 5.38763E-05-3.63015E-06-2.64698E-23
 -1       354 5.25543E-05-3.54973E-06 0.00000E+00
 -1       355 5.11368E-05-3.22352E-06 0.00000E+00
 -1       356 6.73599E-05-2.64718E-07 6.61744E-24
 -1       357 6.72188E-05 5.26328E-07 0.00000E+00
 -1       358 6.70776E-05 1.00788E-06 0.00000E+00
 -1       359 6.69378E-05 1.22940E-06 0.00000E+00
 -1       360 6.67982E-05 1.24186E-06-3.30872E-24
 -1       361 6.66588E-05 1.09684E-06 0.00000E+00
 -1       362 6.65195E-05 8.46832E-07 0.00000E+00
 -1       363 6.63802E-05 5.44647E-07 0.00000E+00
 -1       364 6.62409E-05 2.43378E-07 0.00000E+00
 -1       365 6.61019E-05-3.87190E-09 0.00000E+00
 -1       366 6.59630E-05-1.44309E-07 0.00000E+00
 -1       367 6.58248E-05-1.25469E-07-1.65436E-24
 -1       368 6.56869E-05 1.04218E-07 0.00000E+00
 -1       369 6.55524E-05 5.95666E-07 0.00000E+00
 -1       370 6.54168E-05 1.39836E-06 0.00000E+00
 -1       371 6.54494E-05-1.61600E-06 6.61744E-24
 -1       372 6.22397E-05-1.81533E-06-3.30872E-24
 -1       373 5.84667E-05-2.01658E-06 0.00000E+00
 -1       374 5.47202E-05-2.21513E-06 1.65436E-24
 -1       375 5.15897E-05-2.41213E-06 3.30872E-24
 -1       376 6.64610E-05-4.52101E-07 1.32349E-23
 -1       377 6.55098E-05 2.16220E-07 0.00000E+00
 -1       378 6.46540E-05 6.32942E-07 0.00000E+00
 -1       379 6.38754E-05 8.37694E-07 6.61744E-24
 -1       380 6.31584E-05 8.78072E-07-1.32349E-23
 -1       381 6.24843E-05 8.03184E-07 0.00000E+00
 -1       382 6.18336E-05 6.65775E-07-1.32349E-23
 -1       383 6.11862E-05 5.19375E-07-6.61744E-24
 -1       384 6.05221E-05 4.17834E-07 1.32349E-23
 -1       385 5.98213E-05 4.14407E-07 6.61744E-24
 -1       386 5.90650E-05 5.59258E-07-1.32349E-23
 -1       387 5.82361E-05 9.00762E-07 0.00000E+00
 -1       388 5.73177E-05 1.48096E-06 1.32349E-23
 -1       389 5.63008E-05 2.34084E-06 6.61744E-24
 -1       390 5.51658E-05 3.50832E-06 0.00000E+00
 -1       406 6.37010E-05 2.97254E-06-1.32349E-23
 -1       407 6.19328E-05 3.38609E-06-6.61744E-24
 -1       408 6.00340E-05 3.79961E-06 0.00000E+00
 -1       409 5.80430E-05 4.21208E-06 0.00000E+00
 -1       410 5.59984E-05 4.62218E-06 0.00000E+00
 -1       466 3.35848E-05 2.37107E-06-1.32349E-23
 -1       467 3.43062E-05 5.16797E-06 0.00000E+00
 -1       468 3.50291E-05 6.45555E-06-2.64698E-23
 -1       469 3.57584E-05 6.53815E-06 0.00000E+00
 -1       470 3.64877E-05 5.68435E-06 0.00000E+00
 -1       471 3.72174E-05 4.14764E-06 0.00000E+00
 -1       472 3.79465E-05 2.16114E-06 2.64698E-23
 -1       473 3.86752E-05-4.92204E-08 0.00000E+00
 -1       474 3.94040E-05-2.26429E-06 2.64698E-23
 -1       475 4.01330E-05-4.26493E-06 0.00000E+00
 -1       476 4.08624E-05-5.82558E-06 0.00000E+00
 -1       477 4.15913E-05-6.71368E-06 0.00000E+00
 -1       478 4.23200E-05-6.67652E-06 1.32349E-23
 -1       479 4.30409E-05-5.44657E-06 0.00000E+00
 -1       480 4.37608E-05-2.72085E-06 6.61744E-24
 -1       481 2.76905E-05-2.13599E-06 0.00000E+00
 -1       482 2.32990E-05-1.99713E-06 0.00000E+00
 -1       483 1.96422E-05-1.85581E-06 0.00000E+00
 -1       484 1.66378E-05-1.71149E-06 1.65436E-24
 -1       485 1.42078E-05-1.56545E-06 3.30872E-24
 -1       486 3.01724E-05 2.56663E-06 1.32349E-23
 -1       487 2.77960E-05 6.37054E-06-1.32349E-23
 -1       488 2.57995E-05 9.17738E-06-2.64698E-23
 -1       489 2.41609E-05 1.10201E-05 0.00000E+00
 -1       490 2.28570E-05 1.19745E-05 0.00000E+00
 -1       491 2.18517E-05 1.21313E-05 0.00000E+00
 -1       492 2.10994E-05 1.16134E-05 0.00000E+00
 -1       493 2.05488E-05 1.05565E-05 0.00000E+00
 -1       494 2.01409E-05 9.11786E-06-2.64698E-23
 -1       495 1.98144E-05 7.46200E-06 0.00000E+00
 -1       496 1.95044E-05 5.76214E-06 0.00000E+00
 -1       497 1.91467E-05 4.19254E-06 0.00000E+00
 -1       498 1.86774E-05 2.92188E-06-2.64698E-23
 -1       499 1.80400E-05 2.11490E-06 0.00000E+00
 -1       500 1.71736E-05 1.91406E-06 0.00000E+00
 -1       501 4.43730E-05 6.38794E-06 0.00000E+00
 -1       502 4.43266E-05 9.09220E-06 0.00000E+00
 -1       503 4.42828E-05 1.01781E-05 0.00000E+00
 -1       504 4.42410E-05 9.88487E-06 0.00000E+00
 -1       505 4.41985E-05 8.45413E-06 0.00000E+00
 -1       506 4.41547E-05 6.12852E-06 0.00000E+00
 -1       507 4.41093E-05 3.15220E-06 0.00000E+00
 -1       508 4.40627E-05-2.30154E-07-8.27181E-25
 -1       509 4.40156E-05-3.77311E-06 0.00000E+00
 -1       510 4.39687E-05-7.23111E-06-8.27181E-25
 -1       511 4.39228E-05-1.03588E-05 0.00000E+00
 -1       512 4.38781E-05-1.29110E-05 0.00000E+00
 -1       513 4.38349E-05-1.46437E-05 0.00000E+00
 -1       514 4.37911E-05-1.53133E-05 0.00000E+00
 -1       515 4.37478E-05-1.46784E-05 3.30872E-24
 -1       516 3.86760E-05 1.91908E-06 0.00000E+00
 -1       517 3.27223E-05 2.02404E-06 0.00000E+00
 -1       518 2.70271E-05 2.12950E-06 1.65436E-24
 -1       519 2.20451E-05 2.23918E-06 4.13590E-25
 -1       520 1.82346E-05 2.35443E-06-8.27181E-25
 -1       521 4.09132E-05 6.02677E-06-2.64698E-23
 -1       522 3.78694E-05 8.77744E-06 0.00000E+00
 -1       523 3.53635E-05 1.01151E-05 0.00000E+00
 -1       524 3.33566E-05 1.00952E-05-2.64698E-23
 -1       525 3.18054E-05 8.85888E-06 5.29396E-23
 -1       526 3.06395E-05 6.58616E-06 0.00000E+00
 -1       527 2.97701E-05 3.51741E-06 0.00000E+00
 -1       528 2.90970E-05-7.96468E-08 2.64698E-23
 -1       529 2.85094E-05-3.90669E-06 0.00000E+00
 -1       530 2.78936E-05-7.65731E-06-2.64698E-23
 -1       531 2.71375E-05-1.10297E-05 0.00000E+00
 -1       532 2.61347E-05-1.37348E-05 0.00000E+00
 -1       533 2.47901E-05-1.55227E-05 0.00000E+00
 -1       534 2.30302E-05-1.61721E-05 0.00000E+00
 -1       535 2.07832E-05-1.55345E-05-2.64698E-23
 -1       536 4.40347E-05-9.82332E-06-1.65436E-24
 -1       537 4.44056E-05-7.76891E-06 0.00000E+00
 -1       538 4.47762E-05-6.25160E-06 0.00000E+00
 -1       539 4.51521E-05-5.19109E-06 0.00000E+00
 -1       540 4.55287E-05-4.51187E-06 0.00000E+00
 -1       541 4.59063E-05-4.14107E-06-6.61744E-24
 -1       542 4.62842E-05-4.00904E-06 1.32349E-23
 -1       543 4.66623E-05-4.04778E-06 6.61744E-24
 -1       544 4.70403E-05-4.19109E-06 0.00000E+00
 -1       545 4.74183E-05-4.37348E-06-6.61744E-24
 -1       546 4.77963E-05-4.52988E-06-1.32349E-23
 -1       547 4.81738E-05-4.59503E-06-6.61744E-24
 -1       548 4.85510E-05-4.50274E-06-1.32349E-23
 -1       549 4.89258E-05-4.18570E-06 0.00000E+00
 -1       550 4.93011E-05-3.57427E-06 6.61744E-24
 -1       551 3.98515E-05-1.26635E-05 5.79026E-24
 -1       552 3.56292E-05-1.28239E-05-9.82277E-25
 -1       553 3.11810E-05-1.29841E-05 3.30872E-24
 -1       554 2.66657E-05-1.31450E-05 3.30872E-24
 -1       555 2.22424E-05-1.33078E-05 1.32349E-23
 -1       556 4.25297E-05-1.00296E-05 0.00000E+00
 -1       557 4.15650E-05-8.07325E-06 0.00000E+00
 -1       558 4.07747E-05-6.57674E-06 1.32349E-23
 -1       559 4.01362E-05-5.48196E-06 0.00000E+00
 -1       560 3.96272E-05-4.73056E-06 0.00000E+00
 -1       561 3.92252E-05-4.26358E-06 0.00000E+00
 -1       562 3.89079E-05-4.02197E-06 0.00000E+00
 -1       563 3.86530E-05-3.94660E-06 0.00000E+00
 -1       564 3.84384E-05-3.97830E-06 6.61744E-24
 -1       565 3.82418E-05-4.05784E-06-3.30872E-24
 -1       566 3.80409E-05-4.12602E-06-3.30872E-24
 -1       567 3.78137E-05-4.12363E-06 1.65436E-24
 -1       568 3.75379E-05-3.99147E-06-1.18907E-24
 -1       569 3.71920E-05-3.67051E-06-3.30872E-24
 -1       570 3.67544E-05-3.10183E-06 0.00000E+00
 -1       571 4.99157E-05-1.71696E-06 8.27181E-25
 -1       572 5.01801E-05-1.08718E-06-1.13737E-24
 -1       573 5.04472E-05-6.67263E-07-3.30872E-24
 -1       574 5.07158E-05-4.14973E-07 0.00000E+00
 -1       575 5.09849E-05-2.87940E-07-6.61744E-24
 -1       576 5.12542E-05-2.43572E-07-3.30872E-24
 -1       577 5.15236E-05-2.39273E-07-6.61744E-24
 -1       578 5.17931E-05-2.32426E-07 0.00000E+00
 -1       579 5.20626E-05-1.80410E-07-1.32349E-23
 -1       580 5.23320E-05-4.05973E-08 0.00000E+00
 -1       581 5.26014E-05 2.29645E-07 1.32349E-23
 -1       582 5.28706E-05 6.72946E-07 0.00000E+00
 -1       583 5.31395E-05 1.33193E-06-1.32349E-23
 -1       584 5.34078E-05 2.24892E-06 0.00000E+00
 -1       585 5.36750E-05 3.46614E-06 0.00000E+00
 -1       586 4.77123E-05-2.53440E-06 0.00000E+00
 -1       587 4.54535E-05-2.47098E-06 0.00000E+00
 -1       588 4.30283E-05-2.40767E-06 0.00000E+00
 -1       589 4.05822E-05-2.34497E-06 0.00000E+00
 -1       590 3.82612E-05-2.28356E-06 0.00000E+00
 -1       591 4.91467E-05-1.63298E-06 0.00000E+00
 -1       592 4.86857E-05-8.36802E-07 0.00000E+00
 -1       593 4.82765E-05-1.83319E-07 6.61744E-24
 -1       594 4.79107E-05 3.51836E-07-3.30872E-24
 -1       595 4.75799E-05 7.93029E-07 0.00000E+00
 -1       596 4.72751E-05 1.16461E-06 0.00000E+00
 -1       597 4.69872E-05 1.49091E-06 0.00000E+00
 -1       598 4.67072E-05 1.79626E-06-1.65436E-24
 -1       599 4.64260E-05 2.10500E-06 0.00000E+00
 -1       600 4.61343E-05 2.44148E-06 0.00000E+00
 -1       601 4.58232E-05 2.83003E-06 0.00000E+00
 -1       602 4.54835E-05 3.29499E-06-1.65436E-24
 -1       603 4.51064E-05 3.86071E-06-2.68834E-24
 -1       604 4.46836E-05 4.55162E-06 1.65436E-24
 -1       605 4.42070E-05 5.39219E-06 0.00000E+00
 -1       606 5.40078E-05 7.07288E-06 6.61744E-24
 -1       607 5.40705E-05 9.30968E-06 3.30872E-24
 -1       608 5.41313E-05 1.17226E-05 0.00000E+00
 -1       609 5.41908E-05 1.42993E-05-3.30872E-24
 -1       610 5.42498E-05 1.70276E-05 6.61744E-24
 -1       611 5.43083E-05 1.98947E-05 0.00000E+00
 -1       612 5.43663E-05 2.28882E-05 0.00000E+00
 -1       613 5.44240E-05 2.59956E-05 0.00000E+00
 -1       614 5.44814E-05 2.92042E-05 6.61744E-24
 -1       615 5.45385E-05 3.25015E-05-1.65436E-24
 -1       616 5.45954E-05 3.58750E-05 0.00000E+00
 -1       617 5.46520E-05 3.93120E-05 0.00000E+00
 -1       618 5.47085E-05 4.28001E-05 0.00000E+00
 -1       619 5.47648E-05 4.63267E-05-3.30872E-24
 -1       620 5.48209E-05 4.98793E-05 0.00000E+00
 -1       621 5.19841E-05 5.25437E-06 0.00000E+00
 -1       622 5.00991E-05 5.48702E-06-3.30872E-24
 -1       623 4.83049E-05 5.71989E-06 0.00000E+00
 -1       624 4.66226E-05 5.95228E-06-2.48154E-24
 -1       625 4.50731E-05 6.18328E-06-4.96308E-24
 -1       626 5.32774E-05 7.14784E-06 0.00000E+00
 -1       627 5.25372E-05 9.47003E-06 0.00000E+00
 -1       628 5.17282E-05 1.19719E-05 0.00000E+00
 -1       629 5.08585E-05 1.46330E-05 0.00000E+00
 -1       630 4.99362E-05 1.74330E-05 0.00000E+00
 -1       631 4.89691E-05 2.03512E-05 0.00000E+00
 -1       632 4.79652E-05 2.33669E-05 0.00000E+00
 -1       633 4.69322E-05 2.64594E-05 0.00000E+00
 -1       634 4.58779E-05 2.96079E-05 0.00000E+00
 -1       635 4.48103E-05 3.27918E-05 1.65436E-24
 -1       636 4.37371E-05 3.59905E-05-3.30872E-24
 -1       637 4.26660E-05 3.91831E-05 1.65436E-24
 -1       638 4.16049E-05 4.23489E-05-1.65436E-24
 -1       639 4.05612E-05 4.54673E-05 4.13590E-25
 -1       640 3.95422E-05 4.85174E-05 4.13590E-25
 -1       641 5.48764E-05 5.71981E-05 8.27181E-25
 -1       642 5.48724E-05 6.13884E-05 0.00000E+00
 -1       643 5.48669E-05 6.59593E-05 0.00000E+00
 -1       644 5.48595E-05 7.08540E-05 0.00000E+00
 -1       645 5.48509E-05 7.60157E-05 2.06795E-25
 -1       646 5.48411E-05 8.13875E-05-1.03398E-25
 -1       647 5.48305E-05 8.69128E-05 0.00000E+00
 -1       648 5.48194E-05 9.25349E-05 5.16988E-26
 -1       649 5.48080E-05 9.81969E-05 1.03398E-25
 -1       650 5.47966E-05 1.03842E-04 1.29247E-26
 -1       651 5.47856E-05 1.09414E-04 0.00000E+00
 -1       652 5.47751E-05 1.14856E-04-1.03398E-25
 -1       653 5.47654E-05 1.20111E-04 0.00000E+00
 -1       654 5.47558E-05 1.25122E-04 0.00000E+00
 -1       655 5.47478E-05 1.29833E-04 0.00000E+00
 -1       656 5.16085E-05 5.31262E-05-3.30872E-24
 -1       657 4.87557E-05 5.27930E-05 0.00000E+00
 -1       658 4.61720E-05 5.24615E-05-6.61744E-24
 -1       659 4.37095E-05 5.21299E-05-3.30872E-24
 -1       660 4.12191E-05 5.17975E-05 0.00000E+00
 -1       661 5.38553E-05 5.73378E-05 0.00000E+00
 -1       662 5.26913E-05 6.16507E-05 0.00000E+00
 -1       663 5.13941E-05 6.63119E-05-1.32349E-23
 -1       664 4.99909E-05 7.12594E-05-6.61744E-24
 -1       665 4.85020E-05 7.64325E-05 1.32349E-23
 -1       666 4.69497E-05 8.17737E-05-6.61744E-24
 -1       667 4.53545E-05 8.72274E-05 1.32349E-23
 -1       668 4.37374E-05 9.27391E-05-6.61744E-24
 -1       669 4.21187E-05 9.82549E-05-1.32349E-23
 -1       670 4.05188E-05 1.03721E-04 6.61744E-24
 -1       671 3.89584E-05 1.09083E-04-1.32349E-23
 -1       672 3.74580E-05 1.14286E-04 6.61744E-24
 -1       673 3.60399E-05 1.19271E-04-1.32349E-23
 -1       674 3.47231E-05 1.23980E-04 0.00000E+00
 -1       675 3.35360E-05 1.28350E-04-6.61744E-24
 -1       676 5.06945E-05 1.33876E-04 6.61744E-24
 -1       677 4.68616E-05 1.33559E-04 0.00000E+00
 -1       678 4.31803E-05 1.33244E-04 6.61744E-24
 -1       679 3.95945E-05 1.32930E-04 3.30872E-24
 -1       680 3.60472E-05 1.32615E-04 0.00000E+00
 -1       681 1.25066E-05 4.31897E-08 6.61744E-24
 -1       682 1.27439E-05 1.06439E-06 3.30872E-24
 -1       683 1.29813E-05 1.70838E-06 0.00000E+00
 -1       684 1.32199E-05 2.03838E-06 0.00000E+00
 -1       685 1.34586E-05 2.11454E-06-6.61744E-24
 -1       686 1.36975E-05 1.99570E-06 0.00000E+00
 -1       687 1.39364E-05 1.73880E-06-6.61744E-24
 -1       688 1.41753E-05 1.40007E-06 0.00000E+00
 -1       689 1.44141E-05 1.03491E-06 0.00000E+00
 -1       690 1.46529E-05 6.98617E-07 0.00000E+00
 -1       691 1.48916E-05 4.46744E-07 0.00000E+00
 -1       692 1.51297E-05 3.35294E-07 3.30872E-24
 -1       693 1.53677E-05 4.21639E-07 0.00000E+00
 -1       694 1.56027E-05 7.64180E-07 0.00000E+00
 -1       695 1.58383E-05 1.42381E-06 1.65436E-24
 -1       696 1.04128E-05-1.18953E-06 6.61744E-24
 -1       697 8.29583E-06-9.53044E-07 3.30872E-24
 -1       698 6.06060E-06-7.17053E-07 0.00000E+00
 -1       699 3.84244E-06-4.79431E-07-3.30872E-24
 -1       700 1.77685E-06-2.41564E-07 0.00000E+00
 -1       701 1.14633E-05 3.62355E-08 0.00000E+00
 -1       702 1.07507E-05 1.18472E-06-3.30872E-24
 -1       703 1.01431E-05 2.05644E-06 0.00000E+00
 -1       704 9.62700E-06 2.67763E-06 0.00000E+00
 -1       705 9.19316E-06 3.07953E-06 6.61744E-24
 -1       706 8.82930E-06 3.29370E-06 0.00000E+00
 -1       707 8.52306E-06 3.35419E-06-6.61744E-24
 -1       708 8.26133E-06 3.29580E-06 0.00000E+00
 -1       709 8.03058E-06 3.15478E-06 6.61744E-24
 -1       710 7.81712E-06 2.96787E-06 0.00000E+00
 -1       711 7.60695E-06 2.77233E-06 0.00000E+00
 -1       712 7.38647E-06 2.60560E-06 0.00000E+00
 -1       713 7.14147E-06 2.50452E-06 0.00000E+00
 -1       714 6.86053E-06 2.50655E-06 0.00000E+00
 -1       715 6.52718E-06 2.64586E-06-3.30872E-24
 -1       716 1.61733E-05 3.18671E-06 0.00000E+00
 -1       717 1.63020E-05 2.94978E-06 0.00000E+00
 -1       718 1.64296E-05 1.91404E-06 0.00000E+00
 -1       719 1.65585E-05 2.39066E-07 1.65436E-24
 -1       720 1.66867E-05-1.91898E-06 0.00000E+00
 -1       721 1.68146E-05-4.40527E-06 1.65436E-24
 -1       722 1.69421E-05-7.06672E-06 0.00000E+00
 -1       723 1.70696E-05-9.75083E-06-1.65436E-24
 -1       724 1.71974E-05-1.23051E-05 3.30872E-24
 -1       725 1.73258E-05-1.45768E-05 0.00000E+00
 -1       726 1.74548E-05-1.64116E-05 0.00000E+00
 -1       727 1.75840E-05-1.76538E-05 0.00000E+00
 -1       728 1.77136E-05-1.81449E-05 1.65436E-24
 -1       729 1.78394E-05-1.77238E-05 0.00000E+00
 -1       730 1.79653E-05-1.62250E-05 0.00000E+00
 -1       731 1.45399E-05 2.53720E-06-8.27181E-25
 -1       732 1.26119E-05 2.62106E-06 0.00000E+00
 -1       733 1.05406E-05 2.70415E-06 0.00000E+00
 -1       734 8.59344E-06 2.78935E-06 0.00000E+00
 -1       735 7.03817E-06 2.87530E-06 3.30872E-24
 -1       736 1.49785E-05 3.22823E-06 1.32349E-23
 -1       737 1.40396E-05 3.55257E-06 6.61744E-24
 -1       738 1.32561E-05 3.46656E-06 0.00000E+00
 -1       739 1.26121E-05 2.99671E-06 0.00000E+00
 -1       740 1.20957E-05 2.18592E-06 0.00000E+00
 -1       741 1.16885E-05 1.08124E-06-1.32349E-23
 -1       742 1.13695E-05-2.59723E-07-2.64698E-23
 -1       743 1.11158E-05-1.77569E-06 0.00000E+00
 -1       744 1.09023E-05-3.39925E-06 2.64698E-23
 -1       745 1.07032E-05-5.06117E-06 0.00000E+00
 -1       746 1.04923E-05-6.69102E-06 0.00000E+00
 -1       747 1.02438E-05-8.21863E-06 0.00000E+00
 -1       748 9.93258E-06-9.57775E-06-2.64698E-23
 -1       749 9.53813E-06-1.07035E-05-6.61744E-24
 -1       750 9.03484E-06-1.15421E-05-1.32349E-23
 -1       751 1.91357E-05-1.04891E-05 1.32349E-23
 -1       752 2.02682E-05-8.26422E-06-1.32349E-23
 -1       753 2.13988E-05-6.66413E-06-2.64698E-23
 -1       754 2.25411E-05-5.56368E-06 0.00000E+00
 -1       755 2.36845E-05-4.86109E-06-2.64698E-23
 -1       756 2.48301E-05-4.46459E-06 0.00000E+00
 -1       757 2.59762E-05-4.29682E-06 0.00000E+00
 -1       758 2.71227E-05-4.28615E-06 0.00000E+00
 -1       759 2.82692E-05-4.36836E-06-2.64698E-23
 -1       760 2.94155E-05-4.48157E-06 0.00000E+00
 -1       761 3.05615E-05-4.56536E-06-2.64698E-23
 -1       762 3.17057E-05-4.55855E-06-1.32349E-23
 -1       763 3.28494E-05-4.39573E-06-2.64698E-23
 -1       764 3.39842E-05-4.00753E-06-1.32349E-23
 -1       765 3.51213E-05-3.31408E-06-1.32349E-23
 -1       766 1.49795E-05-1.32597E-05 1.65436E-24
 -1       767 1.25214E-05-1.30128E-05 8.27181E-25
 -1       768 1.06621E-05-1.27662E-05-3.30872E-24
 -1       769 9.37377E-06-1.25175E-05 0.00000E+00
 -1       770 8.63457E-06-1.22669E-05 1.03398E-25
 -1       771 1.61991E-05-1.06256E-05-2.64698E-23
 -1       772 1.44649E-05-8.17134E-06 0.00000E+00
 -1       773 1.28674E-05-6.08863E-06-2.64698E-23
 -1       774 1.13978E-05-4.34969E-06 0.00000E+00
 -1       775 1.00468E-05-2.92665E-06 2.64698E-23
 -1       776 8.80394E-06-1.79140E-06 0.00000E+00
 -1       777 7.65870E-06-9.15765E-07 2.64698E-23
 -1       778 6.60044E-06-2.71391E-07 0.00000E+00
 -1       779 5.61845E-06 1.70155E-07 2.64698E-23
 -1       780 4.70199E-06 4.37459E-07-1.32349E-23
 -1       781 3.84031E-06 5.59171E-07 2.64698E-23
 -1       782 3.02277E-06 5.64080E-07-1.32349E-23
 -1       783 2.23874E-06 4.81047E-07 0.00000E+00
 -1       784 1.47843E-06 3.39273E-07 0.00000E+00
 -1       785 7.32415E-07 1.68113E-07 0.00000E+00
 -1       786 3.66521E-05-1.05865E-06 6.61744E-24
 -1       787 3.71186E-05-1.39786E-07 6.61744E-24
 -1       788 3.75842E-05 5.68655E-07-1.32349E-23
 -1       789 3.80538E-05 1.10468E-06 0.00000E+00
 -1       790 3.85237E-05 1.50406E-06 0.00000E+00
 -1       791 3.89944E-05 1.80140E-06-6.61744E-24
 -1       792 3.94653E-05 2.02995E-06 0.00000E+00
 -1       793 3.99363E-05 2.22240E-06 0.00000E+00
 -1       794 4.04074E-05 2.41094E-06 1.32349E-23
 -1       795 4.08783E-05 2.62773E-06 0.00000E+00
 -1       796 4.13492E-05 2.90532E-06 0.00000E+00
 -1       797 4.18195E-05 3.27675E-06 0.00000E+00
 -1       798 4.22895E-05 3.77633E-06-1.32349E-23
 -1       799 4.27567E-05 4.43941E-06-6.61744E-24
 -1       800 4.32244E-05 5.30355E-06-6.61744E-24
 -1       801 3.26733E-05-1.85142E-06-6.61744E-24
 -1       802 2.57685E-05-1.47289E-06 3.30872E-24
 -1       803 1.72759E-05-1.10656E-06-6.61744E-24
 -1       804 8.96622E-06-7.41293E-07-3.30872E-24
 -1       805 2.61190E-06-3.61622E-07 0.00000E+00
 -1       806 3.54525E-05-1.16002E-06 1.32349E-23
 -1       807 3.47257E-05-2.03317E-07 6.61744E-24
 -1       808 3.40301E-05 6.63047E-07 0.00000E+00
 -1       809 3.33599E-05 1.45792E-06 0.00000E+00
 -1       810 3.27090E-05 2.20006E-06-1.32349E-23
 -1       811 3.20707E-05 2.90812E-06 0.00000E+00
 -1       812 3.14382E-05 3.60070E-06-1.32349E-23
 -1       813 3.08044E-05 4.29638E-06 0.00000E+00
 -1       814 3.01625E-05 5.01377E-06-6.61744E-24
 -1       815 2.95055E-05 5.77144E-06 3.30872E-24
 -1       816 2.88265E-05 6.58796E-06 6.61744E-24
 -1       817 2.81185E-05 7.48192E-06 6.61744E-24
 -1       818 2.73749E-05 8.47191E-06 6.61744E-24
 -1       819 2.65896E-05 9.57661E-06 0.00000E+00
 -1       820 2.57571E-05 1.08148E-05 3.30872E-24
 -1       821 4.33751E-05 7.82506E-06 3.30872E-24
 -1       822 4.30572E-05 9.58836E-06 3.30872E-24
 -1       823 4.27394E-05 1.16691E-05 0.00000E+00
 -1       824 4.24181E-05 1.40367E-05 0.00000E+00
 -1       825 4.20960E-05 1.66579E-05 0.00000E+00
 -1       826 4.17728E-05 1.94980E-05 6.61744E-24
 -1       827 4.14489E-05 2.25204E-05 1.32349E-23
 -1       828 4.11246E-05 2.56875E-05 0.00000E+00
 -1       829 4.07999E-05 2.89604E-05 0.00000E+00
 -1       830 4.04751E-05 3.22993E-05 0.00000E+00
 -1       831 4.01502E-05 3.56643E-05-6.61744E-24
 -1       832 3.98259E-05 3.90149E-05 0.00000E+00
 -1       833 3.95019E-05 4.23111E-05 6.61744E-24
 -1       834 3.91806E-05 4.55129E-05 0.00000E+00
 -1       835 3.88591E-05 4.85814E-05 0.00000E+00
 -1       836 4.16574E-05 7.35579E-06-1.32349E-23
 -1       837 3.84356E-05 8.33644E-06 1.32349E-23
 -1       838 3.45845E-05 9.31273E-06 0.00000E+00
 -1       839 3.06663E-05 1.02877E-05 0.00000E+00
 -1       840 2.72415E-05 1.12668E-05 0.00000E+00
 -1       841 4.29655E-05 7.78354E-06 0.00000E+00
 -1       842 4.20969E-05 9.54535E-06 1.65436E-24
 -1       843 4.10959E-05 1.16602E-05 0.00000E+00
 -1       844 3.99746E-05 1.40880E-05 3.30872E-24
 -1       845 3.87505E-05 1.67876E-05 6.61744E-24
 -1       846 3.74395E-05 1.97160E-05 0.00000E+00
 -1       847 3.60589E-05 2.28282E-05 0.00000E+00
 -1       848 3.46259E-05 2.60786E-05 3.30872E-24
 -1       849 3.31583E-05 2.94202E-05-6.61744E-24
 -1       850 3.16742E-05 3.28057E-05-3.30872E-24
 -1       851 3.01915E-05 3.61874E-05 0.00000E+00
 -1       852 2.87284E-05 3.95177E-05-3.30872E-24
 -1       853 2.73028E-05 4.27492E-05 0.00000E+00
 -1       854 2.59330E-05 4.58355E-05-3.30872E-24
 -1       855 2.46352E-05 4.87306E-05-3.30872E-24
 -1       856 3.81963E-05 5.46203E-05 6.61744E-24
 -1       857 3.78226E-05 5.84058E-05 3.30872E-24
 -1       858 3.74475E-05 6.27611E-05-1.32349E-23
 -1       859 3.70674E-05 6.76090E-05 6.61744E-24
 -1       860 3.66852E-05 7.28667E-05-1.32349E-23
 -1       861 3.63008E-05 7.84491E-05 0.00000E+00
 -1       862 3.59149E-05 8.42677E-05 1.32349E-23
 -1       863 3.55282E-05 9.02322E-05 6.61744E-24
 -1       864 3.51411E-05 9.62509E-05 1.32349E-23
 -1       865 3.47543E-05 1.02232E-04 0.00000E+00
 -1       866 3.43683E-05 1.08084E-04 0.00000E+00
 -1       867 3.39839E-05 1.13715E-04 0.00000E+00
 -1       868 3.36012E-05 1.19037E-04 0.00000E+00
 -1       869 3.32223E-05 1.23965E-04-3.30872E-24
 -1       870 3.28451E-05 1.28415E-04-6.61744E-24
 -1       871 3.59036E-05 5.14657E-05 0.00000E+00
 -1       872 3.33421E-05 5.14522E-05 0.00000E+00
 -1       873 3.08412E-05 5.14384E-05-1.65436E-24
 -1       874 2.83738E-05 5.14242E-05 0.00000E+00
 -1       875 2.59127E-05 5.14093E-05-1.65436E-24
 -1       876 3.78002E-05 5.47549E-05-6.61744E-24
 -1       877 3.68454E-05 5.86213E-05-6.61744E-24
 -1       878 3.57016E-05 6.29830E-05 1.32349E-23
 -1       879 3.44041E-05 6.77586E-05-6.61744E-24
 -1       880 3.29790E-05 7.28699E-05 0.00000E+00
 -1       881 3.14550E-05 7.82431E-05 0.00000E+00
 -1       882 2.98581E-05 8.38077E-05 0.00000E+00
 -1       883 2.82144E-05 8.94952E-05 0.00000E+00
 -1       884 2.65494E-05 9.52389E-05-1.32349E-23
 -1       885 2.48881E-05 1.00973E-04 6.61744E-24
 -1       886 2.32558E-05 1.06630E-04 0.00000E+00
 -1       887 2.16777E-05 1.12143E-04-6.61744E-24
 -1       888 2.01803E-05 1.17444E-04 0.00000E+00
 -1       889 1.87875E-05 1.22459E-04 6.61744E-24
 -1       890 1.75321E-05 1.27116E-04-6.61744E-24
 -1       891 2.93191E-05 1.32144E-04 0.00000E+00
 -1       892 2.68133E-05 1.31980E-04-1.65436E-24
 -1       893 2.46176E-05 1.31817E-04 0.00000E+00
 -1       894 2.23849E-05 1.31654E-04 1.65436E-24
 -1       895 1.97684E-05 1.31490E-04 3.30872E-24
 -1       896 3.81168E-07 1.39933E-06 1.32349E-23
 -1       897 7.65833E-07 2.42858E-06 0.00000E+00
 -1       898 1.15062E-06 3.14007E-06 0.00000E+00
 -1       899 1.53609E-06 3.58342E-06-6.61744E-24
 -1       900 1.92168E-06 3.80408E-06 1.32349E-23
 -1       901 2.30738E-06 3.84559E-06 0.00000E+00
 -1       902 2.69310E-06 3.74869E-06 0.00000E+00
 -1       903 3.07881E-06 3.55295E-06 0.00000E+00
 -1       904 3.46449E-06 3.29636E-06 0.00000E+00
 -1       905 3.85008E-06 3.01642E-06 6.61744E-24
 -1       906 4.23559E-06 2.75026E-06 0.00000E+00
 -1       907 4.62071E-06 2.53511E-06 0.00000E+00
 -1       908 5.00569E-06 2.40903E-06 1.32349E-23
 -1       909 5.38854E-06 2.41080E-06 0.00000E+00
 -1       910 5.77197E-06 2.58124E-06 6.61744E-24
 -1       911 6.28560E-06 3.23425E-06-3.30872E-24
 -1       912 6.43026E-06 3.08415E-06-1.65436E-24
 -1       913 6.57469E-06 2.57118E-06-3.30872E-24
 -1       914 6.71933E-06 1.75320E-06 1.65436E-24
 -1       915 6.86378E-06 6.86221E-07-3.30872E-24
 -1       916 7.00808E-06-5.74489E-07-1.65436E-24
 -1       917 7.15221E-06-1.97481E-06 0.00000E+00
 -1       918 7.29622E-06-3.46112E-06-1.65436E-24
 -1       919 7.44015E-06-4.98023E-06-3.30872E-24
 -1       920 7.58401E-06-6.47909E-06 1.65436E-24
 -1       921 7.72788E-06-7.90455E-06 0.00000E+00
 -1       922 7.87141E-06-9.20320E-06-1.65436E-24
 -1       923 8.01497E-06-1.03209E-05 0.00000E+00
 -1       924 8.15613E-06-1.12029E-05 0.00000E+00
 -1       925 8.29823E-06-1.17931E-05 8.27181E-25
 -1       926 7.91261E-06-1.19679E-05 1.32349E-23
 -1       927 7.38682E-06-1.16728E-05 6.61744E-24
 -1       928 6.86160E-06-1.11718E-05-1.32349E-23
 -1       929 6.33400E-06-1.04899E-05-6.61744E-24
 -1       930 5.80616E-06-9.65596E-06 0.00000E+00
 -1       931 5.27777E-06-8.70069E-06 0.00000E+00
 -1       932 4.74922E-06-7.65726E-06 0.00000E+00
 -1       933 4.22054E-06-6.55994E-06 6.61744E-24
 -1       934 3.69182E-06-5.44414E-06 1.32349E-23
 -1       935 3.16312E-06-4.34547E-06-6.61744E-24
 -1       936 2.63450E-06-3.29918E-06 1.32349E-23
 -1       937 2.10611E-06-2.33992E-06 6.61744E-24
 -1       938 1.57787E-06-1.50048E-06-1.32349E-23
 -1       939 1.05051E-06-8.12242E-07-6.61744E-24
 -1       940 5.23037E-07-3.03398E-07-1.32349E-23
 -1       941 1.47465E-06 2.40563E-07-1.32349E-23
 -1       942 3.03078E-06 5.63734E-07 1.32349E-23
 -1       943 4.58287E-06 9.57427E-07 0.00000E+00
 -1       944 6.14938E-06 1.41206E-06 0.00000E+00
 -1       945 7.71681E-06 1.92193E-06 0.00000E+00
 -1       946 9.28701E-06 2.48330E-06 0.00000E+00
 -1       947 1.08576E-05 3.09571E-06 0.00000E+00
 -1       948 1.24287E-05 3.76048E-06 2.64698E-23
 -1       949 1.39998E-05 4.48236E-06 0.00000E+00
 -1       950 1.55705E-05 5.26801E-06 0.00000E+00
 -1       951 1.71407E-05 6.12824E-06-5.29396E-23
 -1       952 1.87086E-05 7.07647E-06 0.00000E+00
 -1       953 2.02756E-05 8.13176E-06 0.00000E+00
 -1       954 2.18307E-05 9.31689E-06-1.32349E-23
 -1       955 2.33888E-05 1.06630E-05 0.00000E+00
 -1       956 2.47919E-05 1.39839E-05-8.27181E-25
 -1       957 2.47027E-05 1.59098E-05 1.65436E-24
 -1       958 2.46130E-05 1.79727E-05 0.00000E+00
 -1       959 2.45229E-05 2.01600E-05 1.24077E-24
 -1       960 2.44326E-05 2.24588E-05-1.65436E-24
 -1       961 2.43420E-05 2.48562E-05-2.06795E-25
 -1       962 2.42512E-05 2.73391E-05 0.00000E+00
 -1       963 2.41602E-05 2.98946E-05 4.13590E-25
 -1       964 2.40691E-05 3.25097E-05 2.48154E-24
 -1       965 2.39779E-05 3.51713E-05-8.27181E-25
 -1       966 2.38866E-05 3.78665E-05-3.30872E-24
 -1       967 2.37953E-05 4.05823E-05 0.00000E+00
 -1       968 2.37039E-05 4.33056E-05 3.30872E-24
 -1       969 2.36127E-05 4.60235E-05 0.00000E+00
 -1       970 2.35216E-05 4.87230E-05 0.00000E+00
 -1       971 2.30152E-05 5.43309E-05-6.61744E-24
 -1       972 2.25828E-05 5.79121E-05 0.00000E+00
 -1       973 2.21489E-05 6.20683E-05 0.00000E+00
 -1       974 2.17103E-05 6.67279E-05-6.61744E-24
 -1       975 2.12696E-05 7.18135E-05 0.00000E+00
 -1       976 2.08267E-05 7.72442E-05-6.61744E-24
 -1       977 2.03823E-05 8.29352E-05 1.32349E-23
 -1       978 1.99369E-05 8.87994E-05 0.00000E+00
 -1       979 1.94909E-05 9.47479E-05 0.00000E+00
 -1       980 1.90452E-05 1.00691E-04 6.61744E-24
 -1       981 1.86000E-05 1.06539E-04 1.32349E-23
 -1       982 1.81564E-05 1.12203E-04 0.00000E+00
 -1       983 1.77144E-05 1.17597E-04 0.00000E+00
 -1       984 1.72769E-05 1.22635E-04 0.00000E+00
 -1       985 1.68407E-05 1.27238E-04-6.61744E-24
 -3
    1PSTEP                         2           1           1          
  100CL  101 1.000000000         841                     0    1           1
 -4  STRESS      6    1
 -5  SXX         1    4    1    1
 -5  SYY         1    4    2    2
 -5  SZZ         1    4    3    3
 -5  SXY         1    4    1    2
 -5  SYZ         1    4    2    3
 -5  SZX         1    4    3    1
 -1         1-3.48810E+06-1.07062E+06-6.53743E+05-1.02950E+06-3.39545E-11-1.32907E-09
 -1         2-2.30142E+06-5.44222E+04 3.12750E+03-2.14231E+05 1.17325E-10 5.42877E-09
 -1         3-1.15955E+06-7.32684E+05 1.03265E+04-1.17054E+05-7.72616E-10-1.05683E-09
 -1         4-4.52691E+05-1.88677E+05 5.01671E+02-5.73661E+04 1.09026E-10 1.75260E-09
 -1         5-1.22944E+05 4.44173E+05-1.54382E+05-1.67848E+04 2.30284E-09 3.91333E-09
 -1         8-2.02568E+06-8.18980E+05-3.38697E+05-9.33958E+05-2.69210E-10 2.21189E-09
 -1         9-2.29827E+06-5.05389E+05-3.62194E+05-5.39099E+05 6.18456E-10 3.83200E-10
 -1        10-1.27748E+06-1.06479E+06 5.89059E+03-3.70165E+05-2.25464E-09 5.63402E-09
 -1        11-6.39885E+05-2.88575E+05-1.05122E+00-1.92570E+05-4.21475E-09-1.72683E-09
 -1        12-2.79672E+05 3.87395E+05-1.86969E+05-8.96736E+04 2.39470E-09 7.26401E-09
 -1        15 1.16304E+03-6.52496E+04 3.47926E+03-2.73829E+05 1.21872E-10-1.37516E-09
 -1        16-1.42286E+06-4.14330E+05-2.28776E+05-5.81338E+05-1.80322E-09 2.40107E-09
 -1        17-9.15173E+05-8.31914E+05-1.88706E+05-5.25355E+05-1.67104E-09-2.04454E-09
 -1        18-2.70445E+05-2.28252E+05-1.18216E+05-3.57612E+05-2.27192E-09 1.33393E-10
 -1        19-5.59665E+04 1.84069E+05-9.04862E+04-1.10163E+05-4.59750E-09 5.52730E-09
 -1        20 2.41858E+05-1.56507E+05-1.43443E+04 1.15813E+05 1.61790E-08 9.16771E-10
 -1        21-4.07666E+04-3.89539E+05 7.19389E+03 1.94625E+04 2.83435E-08-3.52966E-09
 -1        22 4.23003E+04 2.30986E+05 1.30102E+03-5.16813E+04-6.00267E-11-1.88265E-09
 -1        23-4.23823E+05-3.22476E+04 3.02345E+03-2.52208E+05 1.70257E-09-1.05623E-09
 -1        24-3.16198E+05-3.67333E+04 1.46127E+05-4.86161E+05-3.06803E-09 1.58131E-09
 -1        25 6.86472E+05 3.46367E+05 2.46711E+05-3.46194E+05-1.06350E-09-3.72287E-10
 -1        26 6.35478E+04 5.18561E+05 6.84134E+04-9.89776E+04-1.99846E-09 7.14256E-10
 -1        27-1.51462E+05-1.53804E+05-7.01603E+04 1.21075E+05 6.03298E-10-2.39864E-09
 -1        28-4.47800E+04-2.67595E+05-2.44378E+03 1.16644E+05 3.02680E-08 1.17667E-09
 -1        29 5.29693E+05 3.67271E+05 1.41196E+03-2.85675E+04 5.55644E-12-1.92813E-10
 -1        30 2.18746E+05 4.84048E+04 1.98454E+03-7.00366E+04 9.48830E-10 2.39197E-10
 -1        31-6.56266E+05 5.59752E+04 4.06562E+03-1.46593E+05 1.22564E-09 8.29459E-10
 -1        32 5.11279E+05 5.34520E+05 4.49334E+05-3.34578E+05 1.18098E-09 3.80533E-09
 -1        33 1.09982E+06 9.52359E+05 4.46598E+05-1.18065E+05-7.46610E-10 1.21236E-09
 -1        34-4.87182E+05-1.05958E+05-7.52193E+04 1.75053E+04 1.50267E-08-4.90763E-09
 -1        35-5.65398E+04-8.47576E+04-1.91451E+03 1.61291E+05 4.55720E-08-9.91956E-10
 -1        36-4.97251E+06 1.23480E+05-3.32516E+05-9.50113E-08 5.25072E-10 5.83532E-09
 -1        37-5.10861E+06-1.45403E+05-2.28051E+05 1.06174E-07-4.99286E-10 6.51926E-09
 -1        38-5.02646E+06 1.69645E+04-8.62350E+04-2.89197E-09 3.13850E-10-3.91083E-09
 -1        39-5.04630E+06-1.98959E+04-5.18643E+04-2.12654E-08-5.27706E-10-5.02496E-09
 -1        40-5.03434E+06 2.32914E+03-2.21012E+04-9.54268E-08 9.14358E-10-2.26464E-10
 -1        41-5.03709E+06-2.73849E+03-1.26682E+04 6.91954E-08 3.57584E-10-1.54614E-10
 -1        42-5.03552E+06 3.48015E+02-6.46315E+03 9.96276E-09-1.68311E-10 7.39624E-09
 -1        43-5.03583E+06-6.24106E+02-5.01487E+03 3.11964E-08 1.49538E-09-5.35761E-09
 -1        44-5.03557E+06 2.70468E+02-5.29976E+03-8.49324E-08-1.22730E-09 2.99849E-09
 -1        45-5.03662E+06-1.98756E+03-9.43200E+03-2.88302E-08-7.95888E-10 3.08103E-09
 -1        46-5.03474E+06 1.67349E+03-1.60186E+04 4.79140E-08-7.81820E-10 5.73891E-10
 -1        47-5.04320E+06-1.42744E+04-3.72878E+04 1.40300E-07-4.24874E-10-2.74576E-09
 -1        48-5.02910E+06 1.21686E+04-6.19040E+04-3.67187E-08-2.19602E-09-6.15910E-09
 -1        49-5.08790E+06-1.04301E+05-1.63609E+05-1.86119E-08-5.47245E-10-4.27099E-09
 -1        50-4.99043E+06 8.85631E+04-2.38623E+05 1.59143E-08-1.37167E-09 7.27596E-11
 -1        51 4.95033E+04-4.32597E+05 9.13768E+04-1.27297E+06 8.73115E-11-3.15777E-09
 -1        52 2.26336E+04-4.25975E+05 5.26975E+04-1.43294E+06 1.00408E-09 1.68802E-09
 -1        53 1.32717E+04-4.46796E+05 3.60664E+04-1.26893E+06-2.18279E-11 5.73345E-09
 -1        54 2.93021E+04-4.45677E+05 4.72984E+04-1.43706E+06-2.76486E-10 2.41562E-09
 -1        55 5.80061E+04-4.62180E+05 7.92751E+04-1.26811E+06-5.82077E-11-6.91216E-10
 -1        56-5.16805E+06-5.88763E+05-3.96470E+05-1.98946E+06-1.89175E-10-6.54836E-09
 -1        57-5.32242E+06-9.43849E+05-2.66037E+05-1.97919E+06-1.40062E-10-5.18048E-09
 -1        58-5.24890E+06-7.10077E+05-9.32543E+04-1.96308E+06-3.96540E-10 8.73115E-11
 -1        59-5.22912E+06-8.00602E+05-5.52892E+04-2.01047E+06-1.07912E-09 1.49157E-10
 -1        60-5.26020E+06-7.26932E+05-2.17859E+04-1.95989E+06-1.03000E-09 4.39286E-10
 -1        61-5.21940E+06-7.77212E+05-1.23457E+04-2.00992E+06-2.33194E-09 2.93676E-09
 -1        62-5.25826E+06-7.32904E+05-6.16372E+03-1.96371E+06-2.32376E-09-7.15104E-10
 -1        63-5.22762E+06-7.64622E+05-5.21763E+03-1.99823E+06-1.67142E-09-7.98207E-09
 -1        64-5.25166E+06-7.39637E+05-6.48864E+03-1.97140E+06 5.05224E-10 1.13932E-08
 -1        65-5.24388E+06-7.52397E+05-1.30323E+04-1.98075E+06-7.80574E-10-3.93197E-09
 -1        66-5.24186E+06-7.45322E+05-2.33821E+04-1.98105E+06-2.38606E-09 2.83399E-09
 -1        67-5.27343E+06-7.58213E+05-5.89986E+04-1.95944E+06-1.59156E-09 3.79896E-09
 -1        68-5.22248E+06-7.34447E+05-9.97601E+04-1.99259E+06 1.52068E-09 2.23008E-09
 -1        69-5.38191E+06-9.03319E+05-2.84408E+05-1.91746E+06 3.07864E-09 4.16185E-09
 -1        70-5.13504E+06-6.05334E+05-4.23749E+05-2.02148E+06-4.66389E-09 8.93488E-09
 -1        71-2.24632E+06-4.27969E+03 1.15600E+04-2.35937E-08-7.55080E-10 3.36922E-09
 -1        72-2.24138E+06 5.04217E+03 7.91634E+03 9.39660E-08 8.87590E-10-1.17052E-09
 -1        73-2.24445E+06-5.87952E+02 2.99090E+03 1.75147E-08-4.77155E-10-2.33570E-09
 -1        74-2.24354E+06 6.89151E+02 1.78542E+03 2.70758E-08 6.82956E-10 1.55819E-09
 -1        75-2.24417E+06-8.01264E+01 7.33690E+02-1.02819E-07-3.79398E-10 4.66662E-09
 -1        76-2.24386E+06 8.98892E+01 3.65849E+02-6.58820E-08 1.49529E-09 2.42810E-09
 -1        77-2.24413E+06-7.53739E+00 8.02608E+01-1.45296E-09-3.89011E-10-1.35709E-09
 -1        78-2.24393E+06-1.66746E+01-1.34898E+02 2.49634E-08 1.12402E-10 1.05952E-08
 -1        79-2.24410E+06 2.40634E+01-3.96667E+02-4.62900E-08-9.85772E-11 3.24042E-09
 -1        80-2.24406E+06-2.16187E+02-9.59482E+02 3.21527E-08-4.02983E-10-3.52215E-09
 -1        81-2.24400E+06 1.87087E+02-1.75733E+03 1.34649E-08-4.89658E-10-2.09536E-09
 -1        82-2.24480E+06-1.60250E+03-4.17601E+03-1.64273E-08 1.98274E-10 1.22827E-08
 -1        83-2.24337E+06 1.36654E+03-6.96336E+03-5.90825E-08-9.33782E-10 2.31103E-09
 -1        84-2.24982E+06-1.17181E+04-1.84035E+04 7.68812E-08 7.41045E-10-3.96312E-10
 -1        85-2.23901E+06 9.94647E+03-2.68633E+04-4.30559E-08-1.94160E-10 4.82032E-09
 -1        86-1.07817E+05 8.02610E+05 2.97407E+05-5.53312E+03 2.76486E-10-3.61297E-10
 -1        87 1.35413E+05 9.27448E+05 2.22008E+05 9.79989E+04 3.92902E-10 6.98947E-10
 -1        88-2.31359E+04 8.45269E+05 1.16248E+05-6.67775E+03 1.82263E-09 4.05726E-09
 -1        89 8.86643E+04 9.06331E+05 1.56221E+05 1.01687E+05 2.86127E-09-1.08776E-09
 -1        90-6.35168E+04 8.24798E+05 1.79832E+05-9.21385E+03 4.88944E-09 6.62749E-09
 -1        91-2.63208E+06-3.50055E+05-5.44324E+04-9.93268E+05-1.76988E-09 2.98314E-10
 -1        92-2.64753E+06-4.05379E+05-3.66564E+04-9.98162E+05 2.43858E-10-7.55927E-09
 -1        93-2.64371E+06-3.66542E+05-1.28048E+04-9.89014E+05 2.96154E-10-1.11322E-09
 -1        94-2.63385E+06-3.86244E+05-7.64180E+03-1.00349E+06-6.42871E-10 4.26667E-09
 -1        95-2.64564E+06-3.68593E+05-2.99325E+03-9.88152E+05 1.33366E-09 8.72183E-09
 -1        96-2.63197E+06-3.83464E+05-1.70775E+03-1.00406E+06 1.50627E-09 1.99389E-09
 -1        97-2.64556E+06-3.69247E+05-8.33715E+02-9.88465E+05 2.96325E-09 2.51187E-09
 -1        98-2.63299E+06-3.81834E+05-7.04446E+02-1.00262E+06 8.40714E-10-4.50947E-09
 -1        99-2.64460E+06-3.70228E+05-8.41279E+02-9.89586E+05-3.42766E-10 1.25397E-09
 -1       100-2.63562E+06-3.79723E+05-1.69526E+03-9.99712E+05-1.31911E-09 4.64684E-09
 -1       101-2.64290E+06-3.71388E+05-3.01138E+03-9.91344E+05 6.22776E-10 2.11935E-09
 -1       102-2.64065E+06-3.79310E+05-7.62714E+03-9.95457E+05-4.23427E-10-4.73653E-09
 -1       103-2.63956E+06-3.70732E+05-1.28268E+04-9.93800E+05 1.61107E-09 2.74758E-09
 -1       104-2.65657E+06-3.96259E+05-3.66592E+04-9.87656E+05 2.32302E-09-6.12545E-10
 -1       105-2.62712E+06-3.55021E+05-5.44615E+04-9.98947E+05 3.21961E-10-2.04818E-09
 -1       106-9.40718E+05-3.38059E+04 9.14155E+04 2.07001E-09-1.30783E-09 4.69663E-09
 -1       107-9.03183E+05 3.98349E+04 6.26071E+04 4.61450E-08-5.53562E-10-1.03319E-09
 -1       108-9.25892E+05-4.64453E+03 2.37084E+04-3.16356E-08 1.32609E-10-5.32327E-09
 -1       109-9.20236E+05 5.44724E+03 1.42230E+04-4.25117E-08-4.30880E-10 1.54796E-09
 -1       110-9.23711E+05-6.36092E+02 6.00073E+03-3.48975E-08-4.46397E-10-1.41563E-09
 -1       111-9.22762E+05 7.36813E+02 3.29934E+03-7.09755E-08-6.66299E-10-4.94936E-10
 -1       112-9.23374E+05-8.36228E+01 1.41134E+03-1.38769E-07 4.42847E-10 7.39192E-10
 -1       113-9.23171E+05 7.22643E+01 5.86483E+02-3.91582E-08 6.15341E-11 5.59572E-09
 -1       114-9.23305E+05 1.20004E+01-3.57557E+01-4.33263E-08-3.64758E-10 4.30214E-09
 -1       115-9.23342E+05-1.89410E+02-7.20186E+02 3.53989E-08 1.85425E-10-7.61280E-09
 -1       116-9.23204E+05 1.72514E+02-1.55389E+03-3.15042E-08-4.06332E-10 2.94108E-10
 -1       117-9.24044E+05-1.48821E+03-3.84506E+03 2.90119E-09 8.43928E-10 6.18684E-09
 -1       118-9.22606E+05 1.27009E+03-6.46166E+03-4.65943E-08-8.72467E-10-3.57431E-10
 -1       119-9.28709E+05-1.08938E+04-1.71108E+04 4.24587E-08 7.18578E-10 6.82530E-09
 -1       120-9.18547E+05 9.24668E+03-2.49838E+04-4.99276E-08-3.27509E-10 4.37103E-09
 -1       121 3.40187E+04-2.99975E+06-9.93366E+04 2.40663E+02-2.58296E-10 2.81602E-10
 -1       122-4.32622E+04-3.04013E+06-7.36618E+04 4.43858E+04 1.20963E-10-2.06342E-10
 -1       123 7.04391E+03-3.01394E+06-3.94889E+04 1.65370E+03-1.21372E-09 5.15183E-09
 -1       124-2.93517E+04-3.03275E+06-5.31772E+04 4.01829E+04 2.27374E-11-4.62933E-10
 -1       125 2.06782E+04-3.00690E+06-6.28041E+04 4.44125E+03-3.82352E-09-1.96769E-09
 -1       126-1.26497E+06-1.92213E+05 4.34948E+04-4.67087E+05 6.23004E-10-1.15142E-09
 -1       127-1.23768E+06-1.62535E+05 2.92960E+04-4.79746E+05 1.18155E-09 9.73159E-10
 -1       128-1.25670E+06-1.77985E+05 1.02264E+04-4.69267E+05-1.17575E-09-8.84802E-09
 -1       129-1.24721E+06-1.79250E+05 6.08613E+03-4.77160E+05-8.76184E-10-5.36875E-09
 -1       130-1.25552E+06-1.75958E+05 2.34140E+03-4.69512E+05-1.31945E-09-7.12760E-09
 -1       131-1.24868E+06-1.81529E+05 1.24393E+03-4.76756E+05 6.61274E-10 3.05039E-09
 -1       132-1.25525E+06-1.75766E+05 4.21663E+02-4.69651E+05 3.33642E-10 4.33323E-09
 -1       133-1.24923E+06-1.81573E+05 7.53576E+00-4.76333E+05 1.87299E-10-2.51532E-09
 -1       134-1.25496E+06-1.75925E+05-4.09138E+02-4.69929E+05 1.13687E-12 1.15538E-08
 -1       135-1.25006E+06-1.81337E+05-1.21000E+03-4.75594E+05 9.49740E-10 1.00739E-08
 -1       136-1.25442E+06-1.76015E+05-2.29240E+03-4.70382E+05-1.13164E-09 1.85571E-09
 -1       137-1.25227E+06-1.82767E+05-5.94461E+03-4.74275E+05-1.06047E-09-1.80080E-09
 -1       138-1.25275E+06-1.74559E+05-1.00058E+04-4.71221E+05-6.86327E-10 8.64293E-09
 -1       139-1.26284E+06-1.97840E+05-2.86376E+04-4.70280E+05-1.63976E-09 5.68070E-09
 -1       140-1.24392E+06-1.61398E+05-4.25268E+04-4.74210E+05-2.97041E-09 6.81393E-09
 -1       141-2.41814E+05-1.35324E+04 3.65880E+04-1.13833E-07-6.92346E-12 1.95541E-09
 -1       142-2.26794E+05 1.59445E+04 2.50550E+04-4.82214E-09 1.23744E-09 4.86943E-09
 -1       143-2.35870E+05-1.85879E+03 9.46822E+03-4.37202E-08-1.27354E-10 8.61201E-09
 -1       144-2.33620E+05 2.17834E+03 5.63969E+03 3.79728E-09-2.13783E-10 4.30077E-10
 -1       145-2.34993E+05-2.52725E+02 2.29222E+03-5.21962E-08 9.42447E-11-3.81124E-09
 -1       146-2.34645E+05 2.79364E+02 1.08768E+03-2.67627E-08-6.62653E-10-1.06297E-09
 -1       147-2.34846E+05-1.95060E+01 1.14990E+02-5.78759E-09 4.49508E-10 2.20535E-09
 -1       148-2.34885E+05-8.92874E+01-7.25831E+02-6.27352E-09-5.01503E-10 6.19571E-09
 -1       149-2.34753E+05 1.08006E+02-1.81737E+03-2.54830E-08 2.62213E-10 4.85977E-09
 -1       150-2.35418E+05-9.55754E+02-4.27849E+03 4.62897E-08-6.46246E-10 2.94148E-09
 -1       151-2.34314E+05 8.25580E+02-7.79280E+03-1.95936E-08-1.11147E-10-2.66891E-09
 -1       152-2.38696E+05-7.07053E+03-1.84729E+04-2.18412E-08-1.48425E-10-2.31307E-09
 -1       153-2.31476E+05 6.02920E+03-3.07884E+04-3.09134E-08 6.50072E-10 2.72848E-09
 -1       154-2.60824E+05-5.17079E+04-8.12897E+04-8.43829E-09-3.85399E-11-4.70300E-09
 -1       155-2.12175E+05 4.38934E+04-1.18591E+05-3.24108E-08 1.66785E-09 2.32831E-09
 -1       156 7.32860E+02-6.70054E+05-1.22631E+03-5.23314E+02-1.99861E-10 1.86833E-09
 -1       157 3.12725E+02-6.70084E+05 1.78772E+03 1.07847E+04-1.33593E-09 3.84870E-09
 -1       158-1.05923E+03-6.71012E+05 5.29393E+03-2.27572E+02-8.56289E-10 5.54223E-09
 -1       159 9.91880E+03-6.65267E+05 1.54564E+04 1.00873E+04-3.15140E-09-8.62428E-10
 -1       160-8.55336E+03-6.74837E+05 2.29727E+04 1.74414E+02-1.64800E-09 3.07136E-09
 -1       161-6.46834E+05-8.78122E+04-8.09514E+03-2.43269E+05-1.49612E-10-2.79670E-10
 -1       162-6.46465E+05-9.86799E+04-5.46056E+03-2.47028E+05 3.41686E-10-4.24467E-09
 -1       163-6.48460E+05-9.03673E+04-1.92638E+03-2.42760E+05-2.04352E-10-7.09099E-09
 -1       164-6.44604E+05-9.56697E+04-1.18361E+03-2.47621E+05-1.30093E-10-5.91770E-09
 -1       165-6.48682E+05-9.07360E+04-5.38715E+02-2.42708E+05 4.52019E-10-3.28995E-09
 -1       166-6.44419E+05-9.51989E+04-4.60886E+02-2.47613E+05-5.13850E-10-5.46834E-09
 -1       167-6.48642E+05-9.08282E+04-5.31505E+02-2.42770E+05-2.58154E-10-9.54361E-09
 -1       168-6.44657E+05-9.51254E+04-1.03979E+03-2.47408E+05-1.51772E-10-6.07722E-09
 -1       169-6.48441E+05-9.08129E+04-1.90941E+03-2.42910E+05-1.76252E-09-2.82057E-10
 -1       170-6.45654E+05-9.59586E+04-4.53743E+03-2.46938E+05 1.30001E-09 3.00179E-09
 -1       171-6.47645E+05-9.00224E+04-8.22534E+03-2.43229E+05-1.68677E-09 8.00765E-09
 -1       172-6.50970E+05-1.03553E+05-2.11506E+04-2.45213E+05-1.43018E-10 7.38169E-09
 -1       173-6.43154E+05-8.34256E+04-3.54862E+04-2.44557E+05 4.68390E-10 6.44286E-09
 -1       174-6.85359E+05-1.60069E+05-1.01552E+05-2.34621E+05 8.81755E-10-3.56522E-09
 -1       175-6.13480E+05-3.50940E+04-1.50660E+05-2.53223E+05 8.73115E-11 2.68483E-09
 -1       191 8.03548E+03 1.22806E+06 1.49951E+04-3.12762E+04 9.82254E-11 8.28004E-09
 -1       192 2.66134E+03 1.23061E+06 9.10311E+03-3.40994E+04 1.09139E-09 1.92813E-08
 -1       193 9.27779E+02 1.22885E+06 7.37068E+03-3.07155E+04-6.77574E-11 7.64703E-09
 -1       194 3.67741E+03 1.23091E+06 1.11858E+04-3.51309E+04 1.22918E-09-3.33966E-09
 -1       195 1.12420E+04 1.22746E+06 2.01351E+04-3.02126E+04-5.49335E-10 6.94854E-09
 -1       251-2.04118E+06 2.92438E+04-8.07271E+04-4.69745E+03-5.84805E-10 4.60568E-09
 -1       252-2.07047E+06-3.52915E+04-5.47005E+04-5.62824E+04 1.92449E-09-4.41469E-09
 -1       253-2.05390E+06 3.85081E+03-2.10802E+04 2.20142E+03 3.71983E-10-8.96762E-10
 -1       254-2.05696E+06-4.81807E+03-1.23859E+04-6.80297E+04-1.04546E-09 6.94467E-09
 -1       255-2.05552E+06 4.70257E+02-5.46581E+03 7.03915E+03-8.07631E-10 6.12340E-09
 -1       256-2.05590E+06-4.13814E+02-3.09484E+03-7.53240E+04 3.34921E-10-4.66676E-09
 -1       257-2.05563E+06 6.87251E+01-1.71424E+03 9.49588E+03-4.26326E-10-4.19220E-12
 -1       258-2.05602E+06 1.63353E+02-1.53060E+03-7.76377E+04 6.03222E-10 2.16653E-09
 -1       259-2.05563E+06 7.64218E+01-1.89711E+03 9.35366E+03-5.22732E-10-2.54011E-09
 -1       260-2.05588E+06-5.52084E+02-3.57990E+03-7.47744E+04-1.32923E-09 6.84054E-09
 -1       261-2.05549E+06 5.58330E+02-6.40811E+03 6.63170E+03 3.07409E-09 2.84990E-09
 -1       262-2.05728E+06-5.70945E+03-1.45940E+04-6.69704E+04-2.24964E-09 2.08411E-09
 -1       263-2.05353E+06 4.56238E+03-2.48094E+04 1.54981E+03-3.00133E-10 2.44017E-09
 -1       264-2.07346E+06-4.15710E+04-6.44993E+04-5.47817E+04-5.42286E-09-5.74073E-09
 -1       265-2.03847E+06 3.45277E+04-9.50632E+04-5.54414E+03-4.24734E-09-2.03727E-10
 -1       266-2.55254E+04-4.50582E+05 6.16303E+04 2.59613E+04 1.85537E-10 1.50067E-09
 -1       267 3.42701E+04-4.26862E+05 4.01946E+04-4.04602E+05-1.18234E-11-6.83212E-09
 -1       268-1.83333E+03-4.36680E+05 8.62645E+03 2.75958E+04-8.00355E-11 5.56838E-10
 -1       269-1.84645E+03-4.45509E+05-1.13864E+04-4.04860E+05-1.25056E-10 1.88356E-09
 -1       270 9.58610E+03-4.32344E+05-2.94890E+04 2.62198E+04-3.49246E-10 4.02724E-09
 -1       271-5.92860E+06-6.94527E+05-4.89036E+05-2.32011E+06 1.18598E-09-4.36557E-10
 -1       272-6.16148E+06-1.07683E+06-3.26293E+05-2.25594E+06 2.17278E-09 6.53381E-09
 -1       273-6.03389E+06-8.34612E+05-1.15224E+05-2.28166E+06 6.64841E-10-2.19734E-09
 -1       274-6.03245E+06-9.18423E+05-6.75687E+04-2.31083E+06 1.02779E-09-7.41056E-09
 -1       275-6.05613E+06-8.45555E+05-2.69509E+04-2.26784E+06 3.96540E-10-1.69166E-10
 -1       276-6.00368E+06-9.08670E+05-1.51006E+04-2.33142E+06 1.02375E-09-4.63706E-09
 -1       277-6.06284E+06-8.43116E+05-7.53796E+03-2.26169E+06-4.99313E-10-1.36265E-09
 -1       278-5.99762E+06-9.10409E+05-6.50578E+03-2.33719E+06 2.03649E-09 1.12628E-08
 -1       279-6.06235E+06-8.43577E+05-7.92223E+03-2.26224E+06 1.93268E-10 7.26368E-09
 -1       280-6.00558E+06-9.07169E+05-1.61851E+04-2.32925E+06 8.84143E-10-3.82533E-09
 -1       281-6.05464E+06-8.46657E+05-2.90577E+04-2.26940E+06 1.61185E-09 3.41242E-09
 -1       282-6.03699E+06-9.17448E+05-7.29373E+04-2.30677E+06-5.94042E-10-2.04818E-09
 -1       283-6.03079E+06-8.34621E+05-1.24391E+05-2.28407E+06 5.98448E-10-4.59841E-09
 -1       284-6.17544E+06-1.08950E+06-3.52330E+05-2.24879E+06 4.57294E-09-4.04543E-09
 -1       285-5.91788E+06-6.82484E+05-5.27917E+05-2.32462E+06-3.55067E-09-8.14907E-10
 -1       286-1.09118E+06 2.64722E+03-8.77635E+03-1.90764E+03 4.73665E-09-1.46701E-09
 -1       287-1.09117E+06-3.93801E+03-5.40450E+03-4.90305E+04 2.06364E-09 3.32454E-09
 -1       288-1.09226E+06 1.95881E+02-2.37106E+03 1.69555E+03 7.46695E-10 2.83615E-09
 -1       289-1.09087E+06-5.91075E+02-1.06674E+03-5.53076E+04-1.56433E-10 3.08758E-09
 -1       290-1.09223E+06-5.37348E+01-5.36563E+02 4.36295E+03 9.04947E-10 3.59258E-10
 -1       291-1.09164E+06 9.66251E+01 1.38335E+01-5.96496E+04 2.05637E-09-2.07180E-09
 -1       292-1.09210E+06-4.55852E+01 3.15302E+02 6.03672E+03 2.60457E-09 5.69516E-09
 -1       293-1.09210E+06 4.12946E+02 9.54736E+02-6.19303E+04 2.00362E-09 5.34696E-09
 -1       294-1.09211E+06-1.21020E+02 1.87563E+03 6.64458E+03 3.99366E-09-4.53599E-09
 -1       295-1.09163E+06 1.23432E+03 4.20196E+03-6.20467E+04 6.95150E-09 5.12102E-10
 -1       296-1.09259E+06-8.33633E+02 7.53672E+03 6.15335E+03 3.45767E-09-1.75396E-09
 -1       297-1.08793E+06 7.01589E+03 1.79256E+04-5.99886E+04 3.82488E-09-4.51928E-09
 -1       298-1.09548E+06-5.93738E+03 2.96581E+04 4.58591E+03 7.39874E-10-1.23327E-09
 -1       299-1.06554E+06 4.99947E+04 7.87462E+04-5.58434E+04 1.33696E-10 1.57797E-09
 -1       300-1.11433E+06-4.26970E+04 1.14489E+05 2.00532E+03 3.72893E-11-2.82307E-09
 -1       301 6.90772E+04 1.47728E+05 1.25574E+05-2.87579E+04 2.42289E-09-3.09512E-09
 -1       302 2.34444E+04 1.69282E+05 7.00104E+04-3.29507E+04 7.49424E-10 1.07298E-09
 -1       303 7.04226E+03 1.55769E+05 4.65406E+04-2.90917E+04 2.05932E-09 4.84313E-10
 -1       304 1.79727E+04 1.66774E+05 5.76767E+04-3.29664E+04 5.92991E-10 2.67391E-09
 -1       305 5.12552E+04 1.50227E+05 9.52316E+04-2.88660E+04 3.43789E-09 5.33134E-09
 -1       306-5.33770E+06-6.26331E+05-4.44313E+05-2.09231E+06 1.16415E-10-4.04543E-09
 -1       307-5.56288E+06-9.59361E+05-2.96347E+05-2.01803E+06 1.11322E-09-3.74712E-10
 -1       308-5.43395E+06-7.53033E+05-1.04775E+05-2.05681E+06-1.64073E-09-2.63390E-09
 -1       309-5.44325E+06-8.17784E+05-6.13242E+04-2.07026E+06 1.95564E-09 4.06362E-09
 -1       310-5.45586E+06-7.61325E+05-2.45759E+04-2.04236E+06-2.81489E-10 3.86717E-09
 -1       311-5.41295E+06-8.13172E+05-1.36383E+04-2.09390E+06 2.71393E-09 1.14960E-09
 -1       312-5.46450E+06-7.56475E+05-6.85138E+03-2.03379E+06-9.84073E-10 1.79875E-09
 -1       313-5.40222E+06-8.20355E+05-5.77788E+03-2.10592E+06-3.19733E-09-1.14693E-09
 -1       314-5.46704E+06-7.53738E+05-6.94281E+03-2.03071E+06-9.49626E-10 1.75851E-09
 -1       315-5.40381E+06-8.23223E+05-1.41744E+04-2.10584E+06 2.31924E-09-2.65868E-09
 -1       316-5.46296E+06-7.53686E+05-2.53030E+04-2.03386E+06 3.24588E-09 1.72804E-09
 -1       317-5.42689E+06-8.36465E+05-6.36352E+04-2.09108E+06-6.42842E-10-1.81717E-09
 -1       318-5.44381E+06-7.41647E+05-1.08449E+05-2.04490E+06-1.25965E-09-5.71890E-09
 -1       319-5.54540E+06-9.88030E+05-3.07084E+05-2.04196E+06 6.12999E-10 3.73984E-09
 -1       320-5.34554E+06-6.09215E+05-4.60340E+05-2.08033E+06-2.60479E-09 2.70666E-09
 -1       321-7.86256E+05-5.35005E+04 1.44562E+05-2.46963E+02-6.54381E-10-3.57250E-09
 -1       322-7.26617E+05 6.29488E+04 9.90522E+04-1.78942E+04-2.64254E-09-4.42014E-10
 -1       323-7.62785E+05-7.36552E+03 3.74913E+04 4.97046E+02-3.81533E-10 7.36509E-09
 -1       324-7.53719E+05 8.59234E+03 2.25407E+04-1.91968E+04-4.33488E-10 6.61294E-09
 -1       325-7.59313E+05-1.01526E+03 9.53939E+03 1.05934E+03 1.00999E-09 3.00406E-09
 -1       326-7.57807E+05 1.17376E+03 5.34292E+03-2.00902E+04-8.10815E-10 1.35503E-09
 -1       327-7.58770E+05-1.40747E+02 2.45829E+03 1.39045E+03-2.34650E-10 7.28392E-10
 -1       328-7.58464E+05 1.87080E+02 1.41266E+03-2.05126E+04-1.18519E-10 7.74691E-10
 -1       329-7.58689E+05-3.26221E+01 8.52260E+02 1.48168E+03 1.32829E-10-1.12459E-09
 -1       330-7.58493E+05 1.55511E+02 8.72042E+02-2.04507E+04-5.03718E-10 4.14668E-09
 -1       331-7.58737E+05-1.11382E+02 1.15060E+03 1.32857E+03-2.38742E-11 3.85685E-09
 -1       332-7.58028E+05 9.06824E+02 2.45671E+03-1.99053E+04 4.24279E-10-6.67853E-10
 -1       333-7.59115E+05-7.85978E+02 3.97552E+03 9.36274E+02 7.81256E-10 1.57388E-09
 -1       334-7.55078E+05 6.61441E+03 1.04699E+04-1.88837E+04-5.39330E-10-2.97928E-09
 -1       335-7.61615E+05-5.66388E+03 1.52036E+04 3.06751E+02-1.72690E-09-1.01227E-09
 -1       336 1.85194E+04-2.94036E+06-6.18746E+04 1.09077E+04-9.03310E-09 3.50883E-09
 -1       337-2.94777E+04-2.96784E+06-6.27724E+04-2.39963E+05-6.18184E-09-7.12748E-09
 -1       338 1.11892E+04-2.94363E+06-6.23295E+04 1.59786E+04-1.22964E-08-4.12967E-09
 -1       339-8.01925E+04-2.99450E+06-1.37403E+05-2.41794E+05-5.90626E-09 1.95837E-09
 -1       340 6.70311E+04-2.91433E+06-1.95022E+05 1.27358E+04-8.30187E-09 1.05083E-08
 -1       341-2.84037E+06-3.77932E+05-7.55710E+04-1.08231E+06-6.70298E-10 6.60293E-09
 -1       342-2.87734E+06-4.39309E+05-5.09038E+04-1.07138E+06-7.84439E-10 1.09503E-09
 -1       343-2.85673E+06-4.00654E+05-1.78151E+04-1.07621E+06-5.92195E-10 2.10912E-09
 -1       344-2.85721E+06-4.13836E+05-1.06645E+04-1.07999E+06 2.26845E-09-2.13686E-09
 -1       345-2.86032E+06-4.02592E+05-4.29831E+03-1.07398E+06 1.26249E-10 2.52567E-09
 -1       346-2.85226E+06-4.12404E+05-2.66476E+03-1.08355E+06-8.31221E-10 3.10320E-09
 -1       347-2.86166E+06-4.01968E+05-1.74917E+03-1.07270E+06-6.05610E-10 1.36427E-09
 -1       348-2.85061E+06-4.13673E+05-2.34453E+03-1.08537E+06-5.44333E-10 3.13251E-09
 -1       349-2.86200E+06-4.01302E+05-3.75078E+03-1.07217E+06 8.94318E-10 3.14753E-09
 -1       350-2.85166E+06-4.15999E+05-8.61698E+03-1.08544E+06-3.05533E-11-3.41515E-09
 -1       351-2.86064E+06-3.99685E+05-1.54919E+04-1.07263E+06-8.29232E-10 1.12050E-09
 -1       352-2.86196E+06-4.30051E+05-3.98278E+04-1.08188E+06 1.80080E-10-7.64567E-09
 -1       353-2.85180E+06-3.87648E+05-6.67845E+04-1.07561E+06-9.04038E-10-3.49974E-09
 -1       354-2.92813E+06-5.35452E+05-1.91383E+05-1.06047E+06-1.63709E-10 1.30422E-09
 -1       355-2.79508E+06-2.97291E+05-2.83820E+05-1.09299E+06-3.83443E-09 5.98084E-09
 -1       356-4.07397E+05-1.75755E+04 4.74377E+04 4.10009E+02 6.33690E-10 4.10910E-09
 -1       357-3.87735E+05 2.06612E+04 3.25155E+04-1.47508E+04-7.41238E-10 1.71303E-09
 -1       358-3.99670E+05-2.42038E+03 1.22763E+04 6.95124E+02-6.88942E-10 1.81899E-12
 -1       359-3.96667E+05 2.81810E+03 7.33441E+03-1.52257E+04 1.63766E-09 3.41970E-10
 -1       360-3.98521E+05-3.31171E+02 2.99553E+03 8.85690E+02-2.13390E-09 5.03314E-09
 -1       361-3.98041E+05 3.69276E+02 1.46678E+03-1.55124E+04-3.30613E-09 2.27831E-09
 -1       362-3.98327E+05-2.85210E+01 2.53581E+02 9.81863E+02-2.38478E-09-1.90107E-09
 -1       363-3.98351E+05-8.11508E+01-7.18543E+02-1.56076E+04 6.44498E-11-2.84103E-09
 -1       364-3.98222E+05 1.16213E+02-1.93944E+03 9.80900E+02 7.46525E-10-2.39993E-10
 -1       365-3.98918E+05-1.03304E+03-4.62344E+03-1.55099E+04-5.92593E-11 2.96995E-09
 -1       366-3.97751E+05 8.92902E+02-8.45052E+03 8.84055E+02-5.17389E-10 3.83397E-09
 -1       367-4.02429E+05-7.68185E+03-2.00341E+04-1.52166E+04 7.31688E-10 4.80486E-09
 -1       368-3.94685E+05 6.53426E+03-3.34168E+04 6.87679E+02-4.47471E-10-4.18004E-09
 -1       369-4.26368E+05-5.61398E+04-8.81996E+04-1.46939E+04-1.09571E-09 1.38243E-10
 -1       370-3.73760E+05 4.76156E+04-1.28714E+05 3.63721E+02 1.64050E-09 4.07454E-09
 -1       371-1.23419E+04-5.60462E+05 3.04432E+04 1.09701E+04-3.87445E-09-1.03682E-09
 -1       372 1.23579E+04-5.48803E+05 1.45567E+04-1.72225E+05-1.43118E-08 3.47313E-10
 -1       373 1.21269E+03-5.53169E+05-6.11272E+03 1.17442E+04-6.42831E-09 4.37117E-09
 -1       374-2.20285E+04-5.65772E+05-3.42830E+04-1.72181E+05-1.32068E-08-6.94627E-11
 -1       375 2.07956E+04-5.43454E+05-5.61154E+04 1.09243E+04-4.00541E-09 1.18143E-09
 -1       376-1.52604E+06-1.91313E+05-7.03848E+04-5.83893E+05 5.55701E-10 1.09867E-09
 -1       377-1.55342E+06-2.55639E+05-4.74173E+04-5.81971E+05 2.29852E-09 6.74845E-10
 -1       378-1.54047E+06-2.13269E+05-1.65922E+04-5.79140E+05-9.35870E-10 1.25056E-09
 -1       379-1.53642E+06-2.30218E+05-9.92817E+03-5.88050E+05 9.20650E-10 4.79940E-09
 -1       380-1.54292E+06-2.15975E+05-3.96178E+03-5.78095E+05-3.71667E-10 2.57614E-10
 -1       381-1.53351E+06-2.27166E+05-2.39632E+03-5.89401E+05-1.73067E-10-6.92444E-09
 -1       382-1.54337E+06-2.16216E+05-1.44130E+03-5.77830E+05 5.87974E-11-4.99670E-09
 -1       383-1.53327E+06-2.26902E+05-1.75482E+03-5.89515E+05 7.39981E-10 1.69604E-09
 -1       384-1.54317E+06-2.16229E+05-2.67275E+03-5.77986E+05 3.08390E-10-8.21728E-10
 -1       385-1.53471E+06-2.27746E+05-6.03869E+03-5.88680E+05-8.59472E-10 6.20639E-09
 -1       386-1.54192E+06-2.15411E+05-1.08309E+04-5.78646E+05-6.12147E-10-2.89174E-09
 -1       387-1.54229E+06-2.37098E+05-2.77811E+04-5.85693E+05-6.63704E-10-8.33552E-10
 -1       388-1.53562E+06-2.07159E+05-4.65959E+04-5.80868E+05 8.97671E-10-6.75391E-09
 -1       389-1.58846E+06-3.10381E+05-1.33380E+05-5.70637E+05 1.01045E-09-2.99406E-09
 -1       390-1.49610E+06-1.44225E+05-1.97871E+05-5.92929E+05 8.58563E-10 1.46974E-09
 -1       406 9.64107E+03 1.19100E+06 1.83647E+04-1.73618E+05-3.96540E-10-2.10275E-09
 -1       407 4.27864E+03 1.19402E+06 1.46338E+04-1.95324E+05 2.26100E-09-1.84627E-10
 -1       408 3.40024E+03 1.19131E+06 1.76046E+04-1.73195E+05-1.02591E-09 4.35648E-09
 -1       409 1.31835E+04 1.19755E+06 3.36946E+04-1.95734E+05 1.76806E-09 4.26144E-09
 -1       410 3.83072E+04 1.18673E+06 6.53624E+04-1.73121E+05-1.01863E-09 2.18142E-09
 -1       466 2.05705E+06-7.24644E+04 1.94277E+05 1.34047E+04 4.40195E-10-5.27507E-09
 -1       467 2.14097E+06 8.43073E+04 1.33843E+05-9.04754E+04-2.91038E-11 9.89530E-10
 -1       468 2.08937E+06-1.00664E+04 5.04737E+04 6.07673E+03 3.46517E-10-1.58252E-09
 -1       469 2.10252E+06 1.15325E+04 3.06604E+04-7.86485E+04 1.35196E-09 6.84850E-10
 -1       470 2.09432E+06-1.40922E+03 1.30885E+04 1.58674E+03 1.06411E-10-2.08638E-09
 -1       471 2.09619E+06 1.78884E+03 7.74766E+03-7.20064E+04 3.96199E-10-3.72029E-09
 -1       472 2.09512E+06-2.12120E+02 4.28868E+03-5.65799E+02-8.18545E-11 1.17780E-10
 -1       473 2.09524E+06 7.34141E+02 3.95178E+03-6.98305E+04 1.28347E-10 6.65494E-09
 -1       474 2.09509E+06-2.56623E+02 4.97541E+03-5.88855E+02-1.44246E-09 2.21212E-09
 -1       475 2.09645E+06 2.22864E+03 9.65031E+03-7.19178E+04 1.64584E-09-2.94631E-09
 -1       476 2.09408E+06-1.78854E+03 1.66687E+04 1.52129E+03 7.23048E-10 2.28829E-09
 -1       477 2.10428E+06 1.48097E+04 3.92031E+04-7.84584E+04 6.41194E-10-3.27918E-09
 -1       478 2.08781E+06-1.28502E+04 6.47505E+04 5.95216E+03-6.63931E-10-2.73940E-09
 -1       479 2.15292E+06 1.08241E+05 1.71485E+05-9.02092E+04-2.19416E-09 1.53523E-09
 -1       480 2.04658E+06-9.27434E+04 2.49327E+05 1.32587E+04-2.24281E-09-1.06229E-09
 -1       481-1.71369E+04 4.19353E+05 4.64188E+04-3.41857E+03 2.36469E-11 1.98224E-09
 -1       482 2.06073E+04 4.39673E+05 3.35327E+04 2.31064E+04-4.63388E-10 1.10888E-08
 -1       483-3.10529E+03 4.26543E+05 1.53504E+04-2.69472E+03 7.59428E-11 4.05998E-09
 -1       484 8.83778E+03 4.33474E+05 1.66704E+04 2.18378E+04 1.46684E-10-1.38721E-09
 -1       485-5.65397E+03 4.25367E+05 1.66728E+04-2.15134E+03 2.27374E-10-2.72303E-09
 -1       486-2.02779E+06-2.27063E+05-1.93683E+05-8.00173E+05 4.07454E-10 2.69210E-09
 -1       487-2.11888E+06-3.87327E+05-1.30310E+05-7.75627E+05 2.56478E-10 2.47383E-10
 -1       488-2.06947E+06-2.85531E+05-4.56915E+04-7.84906E+05-1.56888E-11-3.20506E-09
 -1       489-2.06813E+06-3.21439E+05-2.70736E+04-7.97004E+05 6.58815E-10-8.42647E-10
 -1       490-2.07827E+06-2.90836E+05-1.07281E+04-7.79615E+05-5.49790E-10-2.94403E-09
 -1       491-2.05620E+06-3.17154E+05-5.96379E+03-8.05656E+05-4.76348E-10-5.94696E-10
 -1       492-2.08153E+06-2.89426E+05-2.90830E+03-7.76484E+05-1.44883E-09-2.54204E-10
 -1       493-2.05172E+06-3.19869E+05-2.29022E+03-8.10608E+05-8.95852E-10-3.16163E-10
 -1       494-2.08292E+06-2.87974E+05-2.55801E+03-7.74802E+05-1.58684E-09 4.89536E-10
 -1       495-2.05093E+06-3.22449E+05-5.09760E+03-8.12391E+05-4.57067E-09-1.84809E-09
 -1       496-2.08241E+06-2.86814E+05-8.87466E+03-7.74756E+05-8.90054E-10 1.67620E-09
 -1       497-2.05709E+06-3.29957E+05-2.25946E+04-8.09840E+05-5.95492E-10-1.47338E-09
 -1       498-2.07677E+06-2.80719E+05-3.78803E+04-7.77246E+05-1.19962E-09-1.28057E-09
 -1       499-2.09648E+06-3.87340E+05-1.08314E+05-7.94974E+05-1.91130E-09 1.45519E-09
 -1       500-2.04319E+06-2.31237E+05-1.60852E+05-7.88905E+05-3.36513E-10-4.58385E-10
 -1       501-1.28281E+05-1.98386E+04 5.14357E+04 3.44955E+03 3.84898E-09-2.89583E-09
 -1       502-1.02482E+05 2.23155E+04 3.60603E+04-7.08668E+04 1.93904E-09-1.53295E-09
 -1       503-1.19334E+05-2.91426E+03 1.32430E+04 3.92587E+03-2.01908E-10 1.41881E-09
 -1       504-1.14174E+05 3.08911E+03 8.34099E+03-7.16547E+04-6.94399E-10 1.20963E-09
 -1       505-1.17770E+05-4.76157E+02 3.39426E+03 4.23384E+03 1.32195E-09 1.41131E-09
 -1       506-1.16879E+05 7.24433E+02 2.11539E+03-7.21366E+04 5.52768E-09 1.31581E-09
 -1       507-1.17402E+05-8.74034E+01 1.10966E+03 4.40769E+03 3.05863E-09 1.26192E-11
 -1       508-1.17639E+05 5.65741E+02 1.01992E+03-7.23530E+04 1.97815E-09-1.99918E-09
 -1       509-1.17363E+05-7.55793E+01 1.25493E+03 4.45157E+03 3.88019E-09 6.18829E-09
 -1       510-1.17289E+05 9.20956E+02 2.41045E+03-7.23080E+04 4.58920E-09 4.27718E-10
 -1       511-1.17678E+05-4.84717E+02 4.10385E+03 4.36245E+03 1.76851E-09-1.15608E-09
 -1       512-1.14760E+05 3.90629E+03 9.78556E+03-7.19961E+04 4.57544E-09-4.13684E-09
 -1       513-1.19392E+05-3.31322E+03 1.59245E+04 4.13841E+03 1.20053E-10 4.32010E-10
 -1       514-1.01665E+05 2.69248E+04 4.27015E+04-7.13793E+04-4.43379E-10-2.89992E-09
 -1       515-1.29850E+05-2.33230E+04 6.15194E+04 3.74466E+03 1.60617E-09-5.19140E-09
 -1       516-3.54715E+04 3.40693E+05 9.82170E+04 5.36080E+03 6.57383E-09 7.62157E-10
 -1       517 4.69965E+04 3.80755E+05 7.55881E+04-1.36678E+05 9.46147E-09 9.54969E-09
 -1       518-8.65798E+03 3.54126E+05 4.31085E+04 5.66119E+03 5.31600E-09 7.65021E-09
 -1       519 3.90079E+04 3.78923E+05 6.49318E+04-1.37880E+05 8.45012E-09 2.00725E-09
 -1       520-2.85736E+04 3.43687E+05 7.84836E+04 6.55017E+03 2.77214E-09-2.95586E-09
 -1       521-4.32687E+06-5.03742E+05-3.69685E+05-1.69572E+06 2.78669E-09 3.78350E-10
 -1       522-4.49941E+06-7.93983E+05-2.46321E+05-1.64934E+06 2.55386E-09 1.90630E-09
 -1       523-4.40761E+06-6.08162E+05-8.72484E+04-1.66536E+06-2.33013E-09-3.60160E-10
 -1       524-4.39979E+06-6.77005E+05-5.09664E+04-1.69379E+06 8.67658E-10 2.70120E-09
 -1       525-4.42568E+06-6.15061E+05-2.04494E+04-1.65342E+06-1.22782E-10-2.74758E-09
 -1       526-4.37555E+06-6.72524E+05-1.12825E+04-1.71293E+06 1.09594E-09-5.60021E-10
 -1       527-4.43229E+06-6.11538E+05-5.56949E+03-1.64689E+06 1.10686E-09-1.60503E-09
 -1       528-4.36786E+06-6.77268E+05-4.51797E+03-1.72163E+06-5.77268E-09-2.80814E-09
 -1       529-4.43380E+06-6.09950E+05-5.20783E+03-1.64508E+06-2.54667E-09-3.38605E-09
 -1       530-4.37004E+06-6.78169E+05-1.04252E+04-1.72016E+06 8.22763E-09 3.36331E-09
 -1       531-4.43007E+06-6.10746E+05-1.85764E+04-1.64830E+06 3.64776E-09 1.74714E-09
 -1       532-4.38851E+06-6.85932E+05-4.65139E+04-1.70698E+06-4.18049E-09 2.06455E-10
 -1       533-4.41498E+06-6.03157E+05-7.94155E+04-1.65768E+06 3.17914E-09 1.44428E-09
 -1       534-4.47738E+06-7.93983E+05-2.24394E+05-1.66782E+06-2.19006E-09 4.11455E-09
 -1       535-4.34168E+06-5.08041E+05-3.36794E+05-1.68530E+06-3.69619E-09 1.16415E-09
 -1       536 1.05088E+06-5.92139E+04 1.69850E+05 2.46951E+03-4.85215E-10-1.35333E-09
 -1       537 1.11960E+06 7.03289E+04 1.15175E+05-2.76836E+04-3.41265E-09-5.36238E-09
 -1       538 1.07823E+06-7.79936E+03 4.41286E+04 1.32764E+03-1.03000E-09-1.96633E-09
 -1       539 1.08820E+06 9.11833E+03 2.62095E+04-2.57422E+04 1.86651E-09 5.82577E-09
 -1       540 1.08212E+06-1.03565E+03 1.12972E+04 5.37122E+02 2.32376E-10-2.34149E-09
 -1       541 1.08364E+06 1.17610E+03 6.37105E+03-2.44543E+04-6.84281E-10-4.50598E-09
 -1       542 1.08270E+06-1.46629E+02 3.18651E+03 3.97540E+01 1.78943E-10 7.16682E-10
 -1       543 1.08295E+06 2.31309E+02 2.27444E+03-2.37394E+04 3.43050E-10 5.09283E-09
 -1       544 1.08275E+06-8.62606E+01 2.18463E+03-1.77883E+02-1.22898E-09 1.73659E-09
 -1       545 1.08318E+06 6.47032E+02 3.60153E+03-2.35753E+04 7.17648E-10-7.45192E-09
 -1       546 1.08247E+06-5.36380E+02 6.05821E+03-1.24318E+02-6.46878E-11 6.56883E-10
 -1       547 1.08552E+06 4.81116E+03 1.38021E+04-2.39544E+04 1.41790E-09-8.45830E-10
 -1       548 1.08043E+06-4.07923E+03 2.31800E+04 2.01224E+02 1.11640E-10-2.47292E-09
 -1       549 1.10196E+06 3.69142E+04 6.04023E+04-2.48822E+04 1.69643E-09 5.29326E-10
 -1       550 1.06608E+06-3.10421E+04 8.90569E+04 8.01437E+02-1.55842E-09-1.35697E-09
 -1       551 2.73187E+04-4.31127E+05 4.30034E+04-6.70697E+05-3.78714E-09-7.78527E-10
 -1       552 1.42658E+04-4.25482E+05 2.75007E+04-7.61497E+05-8.53470E-09 4.16185E-09
 -1       553 9.17947E+03-4.30845E+05 2.42134E+04-6.69673E+05-5.94810E-09 9.68612E-10
 -1       554 1.97348E+04-4.23911E+05 3.89759E+04-7.61794E+05-8.33097E-09 4.76257E-09
 -1       555 4.45744E+04-4.34700E+05 7.12774E+04-6.70299E+05-5.20595E-09-4.31100E-09
 -1       556-3.52134E+05-2.03678E+05 2.36133E+04-3.53895E+05 1.13287E-08-9.77161E-09
 -1       557-3.28545E+05-2.31119E+05 1.14587E+04-3.73356E+05 2.01871E-08-5.80258E-09
 -1       558-3.53844E+05-2.12808E+05 4.76718E+03-3.48905E+05 8.65839E-09-4.40377E-09
 -1       559-3.31215E+05-2.35310E+05 2.35509E+03-3.74574E+05 1.07320E-09-5.37852E-10
 -1       560-3.54713E+05-2.12765E+05 1.02316E+03-3.49110E+05 3.12866E-09 2.95063E-09
 -1       561-3.32166E+05-2.35236E+05 4.91414E+02-3.75252E+05 9.64064E-10-5.48130E-09
 -1       562-3.55288E+05-2.12434E+05 1.56564E+02-3.49475E+05 8.18545E-10-3.71074E-10
 -1       563-3.32668E+05-2.35022E+05-4.25892E+01-3.75605E+05 7.78527E-10-2.19188E-09
 -1       564-3.55554E+05-2.12258E+05-3.00110E+02-3.49661E+05 1.26602E-09-1.27693E-09
 -1       565-3.32858E+05-2.34950E+05-7.44634E+02-3.75715E+05 8.93579E-10-1.14596E-09
 -1       566-3.55485E+05-2.12263E+05-1.59921E+03-3.49641E+05 1.28057E-09-1.66438E-09
 -1       567-3.33016E+05-2.35261E+05-3.55474E+03-3.75523E+05 5.23869E-10 6.98492E-10
 -1       568-3.54971E+05-2.13272E+05-7.37097E+03-3.49089E+05 6.73754E-09-6.18093E-09
 -1       569-3.36634E+05-2.40547E+05-1.74302E+04-3.73628E+05 8.19273E-09-2.24318E-08
 -1       570-3.53540E+05-2.29865E+05-3.62535E+04-3.42217E+05 5.93718E-09-2.94403E-09
 -1       571 7.66840E+05 4.12334E+04 7.19026E+04-1.88445E+05 1.37516E-09 1.19735E-09
 -1       572 7.78593E+05 1.32079E+04 3.56905E+04-2.11888E+05-6.23913E-10-6.59020E-09
 -1       573 7.71362E+05 2.20200E+03 1.59484E+04-1.87746E+05-3.21234E-09 1.30603E-09
 -1       574 7.72490E+05 5.62322E+02 8.07160E+03-2.12570E+05-2.09548E-09 4.51109E-09
 -1       575 7.71557E+05-1.04397E+02 3.85740E+03-1.87678E+05 4.89308E-10-1.12414E-09
 -1       576 7.71617E+05-5.56954E+01 1.99505E+03-2.12643E+05 8.93124E-10-2.07729E-09
 -1       577 7.71521E+05-7.41900E+01 1.02510E+03-1.87672E+05 1.75646E-10-9.42237E-10
 -1       578 7.71540E+05-5.47919E+01 6.31390E+02-2.12653E+05-1.47793E-10-4.80577E-09
 -1       579 7.71658E+05-1.23308E+02 5.08553E+02-1.87669E+05-9.49512E-09-3.53430E-09
 -1       580 7.71825E+05-1.93013E+02 6.77240E+02-2.12653E+05-1.83518E-08 1.14596E-09
 -1       581 7.72004E+05-3.23707E+02 1.12754E+03-1.87671E+05-9.83709E-09-1.61526E-09
 -1       582 7.72540E+05-2.74546E+02 2.29300E+03-2.12563E+05-9.24047E-10-5.94810E-09
 -1       583 7.72448E+05 2.34526E+01 4.45197E+03-1.87757E+05-1.58252E-09-1.36697E-09
 -1       584 7.74913E+05 2.94208E+03 9.99009E+03-2.11676E+05-6.84850E-09 2.68574E-09
 -1       585 7.71782E+05 1.06578E+04 2.00523E+04-1.88592E+05 5.23869E-10 4.96948E-09
 -1       586 8.35139E+03 1.89901E+05 1.21570E+04-6.47613E+05 1.86628E-09-2.30284E-09
 -1       587 5.71651E+03 1.90789E+05 9.75000E+03-7.31132E+05-1.43336E-09-5.67888E-09
 -1       588 4.79648E+03 1.88848E+05 1.15239E+04-6.46737E+05 2.08092E-09-2.26464E-09
 -1       589 1.14247E+04 1.92993E+05 2.19126E+04-7.31219E+05-1.90994E-09 4.83942E-09
 -1       590 2.66887E+04 1.87095E+05 4.21492E+04-6.47497E+05 2.56114E-09-4.31100E-09
 -1       591-3.03907E+05-1.33222E+05-5.02736E+04-1.93222E+05 1.38198E-09-3.96903E-09
 -1       592-3.01348E+05-1.27065E+05-2.42151E+04-2.12410E+05 3.94084E-09-4.56112E-09
 -1       593-3.04747E+05-1.10905E+05-1.02444E+04-2.02842E+05 1.97906E-09 1.36333E-09
 -1       594-2.96195E+05-1.19480E+05-4.98451E+03-2.14079E+05 7.42148E-10-2.09371E-09
 -1       595-3.05050E+05-1.09736E+05-2.28853E+03-2.03428E+05-2.17915E-09 3.57250E-09
 -1       596-2.95824E+05-1.19082E+05-1.16833E+03-2.14158E+05-1.62663E-09 1.99975E-09
 -1       597-3.05141E+05-1.09715E+05-6.57501E+02-2.03468E+05 2.71211E-09 3.13230E-09
 -1       598-2.95808E+05-1.19069E+05-5.66907E+02-2.14164E+05 2.18984E-09-4.79940E-09
 -1       599-3.05135E+05-1.09711E+05-7.73552E+02-2.03467E+05 1.25692E-09-7.67614E-10
 -1       600-2.95836E+05-1.19083E+05-1.47605E+03-2.14162E+05-4.84306E-10 6.28370E-09
 -1       601-3.05018E+05-1.09725E+05-2.94357E+03-2.03418E+05 7.71979E-09-2.35741E-09
 -1       602-2.96329E+05-1.19599E+05-6.44635E+03-2.14081E+05 2.46891E-08 2.93221E-09
 -1       603-3.04658E+05-1.11223E+05-1.32560E+04-2.02669E+05 8.60564E-09-8.40555E-09
 -1       604-3.02956E+05-1.29478E+05-3.13444E+04-2.12030E+05-2.94040E-09-1.95723E-09
 -1       605-3.03663E+05-1.40012E+05-6.50639E+04-1.90152E+05 2.64845E-09-4.03452E-09
 -1       606 1.81905E+05-2.45791E+04-4.24594E+04 5.63187E+04-1.44919E-08 1.71167E-09
 -1       607 1.74786E+05-7.91684E+03-2.10560E+04 6.26451E+04-3.16140E-09 1.23873E-09
 -1       608 1.78806E+05-1.35651E+03-9.42057E+03 5.58608E+04 1.12850E-08-2.94995E-09
 -1       609 1.77924E+05-2.30025E+02-4.74830E+03 6.31073E+04-3.32693E-09 1.38971E-09
 -1       610 1.78366E+05 1.99024E+02-2.26803E+03 5.58092E+04-1.59234E-08-4.57567E-09
 -1       611 1.78157E+05 2.88290E+02-1.14602E+03 6.31573E+04-3.02462E-08 5.42059E-10
 -1       612 1.78217E+05 2.82649E+02-5.58037E+02 5.58050E+04-1.14433E-08 7.64430E-10
 -1       613 1.78105E+05 3.40172E+02-2.70254E+02 6.31608E+04-1.67238E-08 1.11186E-09
 -1       614 1.78125E+05 3.09250E+02-1.13244E+02 5.58043E+04 5.84077E-09 1.50612E-09
 -1       615 1.78035E+05 3.74532E+02-9.52763E+00 6.31594E+04 3.31056E-08 2.13140E-09
 -1       616 1.78058E+05 3.40738E+02 8.49698E+01 5.58055E+04-6.35737E-10-3.03135E-09
 -1       617 1.77998E+05 4.27901E+02 2.37795E+02 6.31569E+04-3.45608E-11 1.27375E-09
 -1       618 1.77998E+05 4.43996E+02 4.96585E+02 5.58057E+04 4.16549E-10-1.50294E-09
 -1       619 1.78140E+05 8.55969E+02 1.12745E+03 6.31569E+04-2.30762E-09-2.65800E-09
 -1       620 1.77817E+05 1.70198E+03 2.27861E+03 5.57989E+04 2.85331E-09-8.33097E-10
 -1       621 5.87911E+03 6.72252E+05 1.17201E+04-8.95053E+04-7.51243E-10-2.61753E-09
 -1       622 2.54822E+03 6.74382E+05 9.73693E+03-1.02032E+05-9.49512E-09 1.34423E-09
 -1       623 1.99313E+03 6.72732E+05 1.21943E+04-8.96535E+04-1.28421E-09-1.10049E-08
 -1       624 8.67454E+03 6.77394E+05 2.37307E+04-1.01519E+05-6.64659E-09-2.58806E-08
 -1       625 2.59447E+04 6.69673E+05 4.61174E+04-9.00033E+04-4.73392E-10-1.25983E-08
 -1       626 2.36932E+05 8.23770E+04-2.48849E+04 1.74953E+05-3.23962E-09-1.64000E-08
 -1       627 2.26637E+05 9.72963E+04-1.19438E+04 1.78549E+05 1.06484E-08-9.54469E-09
 -1       628 2.36944E+05 9.33319E+04-5.05103E+03 1.69515E+05 3.24108E-08 6.70525E-09
 -1       629 2.28574E+05 1.01694E+05-2.43934E+03 1.78165E+05 2.46582E-08 1.51283E-08
 -1       630 2.36766E+05 9.39599E+04-1.09776E+03 1.69100E+05 1.45446E-08-1.14494E-08
 -1       631 2.28625E+05 1.01989E+05-5.07993E+02 1.78120E+05 1.22236E-09-4.20187E-09
 -1       632 2.36652E+05 9.39985E+04-1.85550E+02 1.69030E+05-1.07193E-08 2.83262E-09
 -1       633 2.28572E+05 1.02022E+05 1.94143E+01 1.78083E+05 8.42010E-09 2.20643E-09
 -1       634 2.36585E+05 9.40016E+04 2.30516E+02 1.69000E+05 3.24690E-09 6.37101E-10
 -1       635 2.28570E+05 1.02032E+05 5.92943E+02 1.78072E+05-1.75282E-08 1.93809E-08
 -1       636 2.36543E+05 9.40023E+04 1.25755E+03 1.68986E+05-2.25859E-08 3.18505E-09
 -1       637 2.28843E+05 1.02252E+05 2.79942E+03 1.78059E+05-1.19442E-08 3.62024E-09
 -1       638 2.36458E+05 9.46795E+04 5.77111E+03 1.68681E+05-6.34964E-09 3.90628E-09
 -1       639 2.31881E+05 1.06616E+05 1.36733E+04 1.77123E+05-7.78527E-09 6.06997E-09
 -1       640 2.36219E+05 1.07653E+05 2.84657E+04 1.63176E+05 3.63798E-12-2.99224E-10
 -1       641 1.39779E+04 4.75997E+03-1.30135E+04-8.83696E+02-1.54882E-08-5.78166E-09
 -1       642 8.73636E+03-5.52070E+03-8.86780E+03 1.68947E+04-1.43614E-08-1.77431E-09
 -1       643 1.18951E+04 6.36167E+02-3.37517E+03-8.84206E+02-1.77859E-08-2.57455E-09
 -1       644 1.10472E+04-6.17340E+02-1.99011E+03 1.68899E+04 9.98966E-10 2.43972E-10
 -1       645 1.16014E+04 7.50631E+01-8.18607E+02-8.79930E+02-8.55948E-10 1.75982E-09
 -1       646 1.13407E+04 7.31811E+01-3.80728E+02 1.68807E+04-1.79847E-08 3.27962E-09
 -1       647 1.15591E+04-3.15189E+00-3.88050E+01-8.75389E+02 2.53219E-08-6.26650E-09
 -1       648 1.13943E+04 2.12631E+02 2.63957E+02 1.68748E+04 5.48530E-08 3.57659E-10
 -1       649 1.15283E+04-4.77438E+01 6.56295E+02-8.74289E+02 3.15068E-08-4.39036E-09
 -1       650 1.15916E+04 5.23162E+02 1.54315E+03 1.68745E+04 3.24760E-08-5.13876E-09
 -1       651 1.13652E+04-3.08355E+02 2.80612E+03-8.75062E+02-3.42550E-09-8.77844E-09
 -1       652 1.28156E+04 2.71512E+03 6.66059E+03 1.68747E+04-4.42861E-09-4.12047E-09
 -1       653 1.03306E+04-2.18838E+03 1.10844E+04-8.74627E+02 6.56155E-09-6.57019E-09
 -1       654 2.08683E+04 1.87767E+04 2.92967E+04 1.68396E+04-1.13982E-08 5.72072E-10
 -1       655 3.36411E+03-1.58360E+04 4.27224E+04-8.41827E+02 9.98671E-09-1.68438E-09
 -1       656 3.51331E+04-9.33203E+05-1.03890E+05 2.89745E+03-5.67888E-09 1.04637E-09
 -1       657-4.63818E+04-9.75712E+05-8.02496E+04 5.49596E+04-2.05582E-08 6.87658E-09
 -1       658 8.63019E+03-9.47108E+05-4.83158E+04 2.33498E+03-2.77839E-09 6.49106E-09
 -1       659-4.27301E+04-9.73978E+05-7.49393E+04 5.54299E+04-2.21580E-08-3.13449E-10
 -1       660 3.17262E+04-9.35023E+05-9.43482E+04 2.42938E+03-8.38554E-09-3.59091E-09
 -1       661 1.00276E+06 1.16050E+05 8.58719E+04 3.92172E+05 1.21490E-08 4.77303E-09
 -1       662 1.02929E+06 1.97672E+05 5.72977E+04 3.97781E+05 2.15646E-08 5.05679E-10
 -1       663 1.01874E+06 1.43077E+05 2.02653E+04 3.88383E+05 4.39742E-08 4.36103E-09
 -1       664 1.01112E+06 1.65497E+05 1.19486E+04 4.02153E+05 2.34523E-08-4.09091E-09
 -1       665 1.02072E+06 1.47004E+05 4.77218E+03 3.88244E+05 2.59258E-08-1.63882E-08
 -1       666 1.00895E+06 1.60789E+05 2.73259E+03 4.02188E+05 2.88314E-08 5.65757E-09
 -1       667 1.02087E+06 1.47654E+05 1.43414E+03 3.88385E+05-4.53143E-08 1.48131E-09
 -1       668 1.00882E+06 1.60152E+05 1.36912E+03 4.02034E+05-5.22430E-08-5.11523E-09
 -1       669 1.02084E+06 1.47633E+05 1.81016E+03 3.88396E+05-3.10197E-09 2.53078E-09
 -1       670 1.00918E+06 1.61048E+05 3.83094E+03 4.02118E+05-3.02474E-09-2.36355E-09
 -1       671 1.02052E+06 1.46775E+05 6.87098E+03 3.88299E+05 1.19750E-08 1.12723E-08
 -1       672 1.01259E+06 1.67630E+05 1.73213E+04 4.01751E+05-9.10308E-09-1.93995E-09
 -1       673 1.01747E+06 1.41251E+05 2.94255E+04 3.88697E+05-1.06961E-08-5.92809E-09
 -1       674 1.03939E+06 2.13926E+05 8.32080E+04 3.94884E+05-7.90806E-09-1.55342E-08
 -1       675 9.94013E+05 1.02274E+05 1.24753E+05 3.94501E+05 3.70328E-08-6.62112E-10
 -1       676 1.34670E+04-8.81216E+05-4.04801E+04 3.40416E+03-2.72667E-09-1.28102E-09
 -1       677-1.87006E+04-8.97952E+05-3.32659E+04 2.30972E+04-8.29004E-09 3.90742E-09
 -1       678 4.12863E+03-8.86079E+05-2.31742E+04 3.11358E+03 1.07834E-08 4.38001E-09
 -1       679-2.40804E+04-9.00728E+05-4.11667E+04 2.34267E+04 6.51880E-09-2.80818E-09
 -1       680 1.85909E+04-8.78469E+05-5.45997E+04 3.07421E+03 1.24674E-08 7.13086E-10
 -1       681 6.76948E+05-1.38249E+04 3.72846E+04 1.91633E+03-1.34150E-10 1.82081E-09
 -1       682 6.92451E+05 1.62169E+04 2.56003E+04-1.85179E+04 1.47679E-10 5.76620E-10
 -1       683 6.83047E+05-1.90771E+03 9.70210E+03 1.33495E+03-2.86491E-11-2.01908E-10
 -1       684 6.85381E+05 2.21015E+03 5.88272E+03-1.75403E+04 3.47541E-10-6.11635E-10
 -1       685 6.83956E+05-2.65807E+02 2.56701E+03 9.39468E+02-4.01315E-11-6.68365E-10
 -1       686 6.84299E+05 3.18987E+02 1.59833E+03-1.69303E+04 1.38698E-10-1.29796E-09
 -1       687 6.84092E+05-4.90642E+01 1.04948E+03 7.24876E+02 1.15278E-10-1.62261E-09
 -1       688 6.84185E+05 1.62020E+02 1.24670E+03-1.66742E+04-2.64038E-11-1.36487E-09
 -1       689 6.84053E+05-1.02543E+02 1.87361E+03 6.83383E+02 1.01281E-10 2.30273E-10
 -1       690 6.84609E+05 8.48769E+02 3.88217E+03-1.67647E+04 3.82926E-10-1.56035E-10
 -1       691 6.83672E+05-7.22070E+02 6.86517E+03 8.15439E+02 1.30854E-10-4.01087E-10
 -1       692 6.87501E+05 6.15323E+03 1.61448E+04-1.72037E+04-3.97904E-11 1.21190E-10
 -1       693 6.81184E+05-5.25786E+03 2.68487E+04 1.12233E+03-1.90994E-11-8.00355E-11
 -1       694 7.06858E+05 4.50064E+04 7.08508E+04-1.80119E+04-5.55701E-10-1.60526E-09
 -1       695 6.64358E+05-3.82344E+04 1.03385E+05 1.62193E+03-2.35104E-10-1.12050E-09
 -1       696-1.37590E+04 6.78826E+05 3.65322E+04 9.23774E+02 5.82077E-11-1.51135E-09
 -1       697 1.54195E+04 6.93352E+05 2.29234E+04-4.16848E+04 1.52795E-10-5.73948E-10
 -1       698-9.77604E+02 6.85391E+05 4.92242E+03 7.60856E+02-3.01952E-10 2.25506E-09
 -1       699-5.57694E+03 6.82949E+05-6.92854E+03-4.17546E+04-4.32465E-10 3.20634E-09
 -1       700 6.49028E+03 6.89252E+05-1.63653E+04 9.92411E+02-2.46473E-10 1.76192E-09
 -1       701-6.04384E+05-5.70178E+04-8.27398E+04-2.39499E+05-1.52795E-10-1.35697E-09
 -1       702-6.40050E+05-1.29269E+05-5.57415E+04-2.33442E+05 1.00954E-10-1.30058E-09
 -1       703-6.20855E+05-8.33419E+04-1.94988E+04-2.34514E+05-5.54792E-11 2.91038E-10
 -1       704-6.20864E+05-9.85845E+04-1.16292E+04-2.39654E+05 1.32960E-10 1.10822E-09
 -1       705-6.23452E+05-8.68189E+04-4.56913E+03-2.33623E+05 6.93689E-10 9.24047E-10
 -1       706-6.17751E+05-9.46535E+04-2.59993E+03-2.40873E+05 4.53326E-11-1.05456E-09
 -1       707-6.23963E+05-8.71520E+04-1.27013E+03-2.33346E+05 3.31625E-10-2.19416E-11
 -1       708-6.17156E+05-9.43977E+04-1.07792E+03-2.41271E+05-4.94538E-10-5.78630E-10
 -1       709-6.24055E+05-8.70563E+04-1.26062E+03-2.33237E+05-1.21133E-10 2.29647E-11
 -1       710-6.17402E+05-9.50188E+04-2.58081E+03-2.41317E+05 3.09626E-10 1.52767E-10
 -1       711-6.23724E+05-8.65400E+04-4.52007E+03-2.33299E+05 1.03284E-10 7.02585E-11
 -1       712-6.20154E+05-9.92652E+04-1.15230E+04-2.40530E+05-2.55341E-10-8.91305E-11
 -1       713-6.21320E+05-8.29220E+04-1.92997E+04-2.33982E+05-1.60071E-10-3.73802E-10
 -1       714-6.38823E+05-1.29994E+05-5.52033E+04-2.34780E+05 1.62345E-10 2.91038E-10
 -1       715-6.05178E+05-5.66817E+04-8.19165E+04-2.38722E+05 2.78305E-10 2.03727E-10
 -1       716 3.60397E+05-2.81763E+04 7.56256E+04 2.76565E+03 2.89219E-10 1.36788E-09
 -1       717 3.92424E+05 3.30408E+04 5.20287E+04-4.79003E+04 5.93900E-10 7.38510E-10
 -1       718 3.72871E+05-3.91014E+03 1.96481E+04 2.11298E+03-8.34461E-10-2.14550E-09
 -1       719 3.77695E+05 4.65580E+03 1.19183E+04-4.68366E+04-5.60135E-10-1.11959E-09
 -1       720 3.74767E+05-5.47114E+02 5.12729E+03 1.70332E+03 2.10184E-09-1.01659E-09
 -1       721 3.75326E+05 8.40859E+02 3.07411E+03-4.62774E+04 3.53288E-09-1.27233E-09
 -1       722 3.75062E+05-9.15439E+01 1.80647E+03 1.55404E+03 2.86005E-09-2.76748E-09
 -1       723 3.75074E+05 4.37825E+02 1.83412E+03-4.62385E+04 1.23862E-09-2.03660E-09
 -1       724 3.75007E+05-1.47149E+02 2.48080E+03 1.66441E+03 2.86991E-09-2.50975E-09
 -1       725 3.75832E+05 1.21945E+03 5.00083E+03-4.67234E+04 2.72814E-09-2.81875E-09
 -1       726 3.74458E+05-9.60923E+02 8.66902E+03 2.03859E+03 2.06501E-09 1.28557E-09
 -1       727 3.79976E+05 7.81140E+03 2.05148E+04-4.77399E+04 3.75167E-09-5.50926E-10
 -1       728 3.71192E+05-6.76040E+03 3.38578E+04 2.68096E+03 8.50378E-11-5.02041E-10
 -1       729 4.05256E+05 5.68334E+04 8.97939E+04-4.93197E+04-1.01318E-09-1.15415E-09
 -1       730 3.49718E+05-4.86112E+04 1.30566E+05 3.61426E+03-8.48559E-10 1.95723E-09
 -1       731-2.39373E+04 2.38380E+05 6.45483E+04 3.97273E+03 2.16096E-09-1.19280E-09
 -1       732 2.84150E+04 2.64654E+05 4.40931E+04-7.97857E+04 3.41424E-09 6.66205E-11
 -1       733-3.25032E+03 2.48956E+05 1.63814E+04 3.92281E+03 2.03181E-09 2.68631E-09
 -1       734 3.79610E+03 2.52654E+05 9.16268E+03-7.99342E+04 2.81761E-09 1.85094E-09
 -1       735-2.70897E+02 2.50499E+05 2.56193E+03 4.12015E+03 8.16954E-10 1.15961E-09
 -1       736-1.77252E+06-2.04262E+05-1.34251E+05-6.86131E+05 9.36780E-10-2.48838E-09
 -1       737-1.83424E+06-3.17594E+05-9.04408E+04-6.71729E+05 1.00363E-09-4.72937E-10
 -1       738-1.80006E+06-2.46173E+05-3.16206E+04-6.77068E+05 4.97039E-10-8.05812E-10
 -1       739-1.80154E+06-2.69318E+05-1.88474E+04-6.83592E+05 6.86128E-10 1.35765E-09
 -1       740-1.80499E+06-2.51099E+05-7.39931E+03-6.74794E+05-8.42022E-10-2.51475E-10
 -1       741-1.79530E+06-2.64133E+05-4.19286E+03-6.86965E+05-5.82986E-10 8.18318E-10
 -1       742-1.80630E+06-2.51151E+05-2.02500E+03-6.73781E+05 3.93015E-10 1.95644E-09
 -1       743-1.79366E+06-2.64391E+05-1.67066E+03-6.88413E+05-1.29248E-09-1.50254E-09
 -1       744-1.80665E+06-2.50805E+05-1.89908E+03-6.73371E+05-7.46923E-10-1.01102E-09
 -1       745-1.79392E+06-2.65399E+05-3.84218E+03-6.88595E+05-3.63798E-12 1.41381E-09
 -1       746-1.80605E+06-2.50157E+05-6.70983E+03-6.73598E+05-6.79165E-10-4.00996E-09
 -1       747-1.79854E+06-2.71152E+05-1.70982E+04-6.86773E+05 2.02544E-09-8.89031E-10
 -1       748-1.80205E+06-2.45228E+05-2.86430E+04-6.75127E+05 2.60115E-10-2.94676E-10
 -1       749-1.82740E+06-3.15662E+05-8.19626E+04-6.76891E+05-7.68978E-10-2.72121E-09
 -1       750-1.77740E+06-2.06956E+05-1.21642E+05-6.83002E+05 3.03771E-10 5.96629E-10
 -1       751 3.21328E+06-1.44289E+05 3.91281E+05 1.10025E+04-3.68800E-09-1.45519E-10
 -1       752 3.37393E+06 1.69870E+05 2.67938E+05-3.40529E+04-3.72688E-09-1.56797E-09
 -1       753 3.27696E+06-1.98358E+04 1.01712E+05 6.12326E+03-8.68567E-10 1.08412E-09
 -1       754 3.30087E+06 2.31800E+04 6.12212E+04-2.61483E+04 3.27145E-09 5.46970E-09
 -1       755 3.28640E+06-2.72783E+03 2.62025E+04 3.11649E+03-4.06317E-10 4.45652E-11
 -1       756 3.29000E+06 3.18012E+03 1.50956E+04-2.14160E+04 8.64759E-10-2.86263E-10
 -1       757 3.28784E+06-4.11574E+02 7.82318E+03 1.39141E+03 4.83624E-10-9.53150E-10
 -1       758 3.28850E+06 7.59588E+02 6.25408E+03-1.89909E+04 1.28725E-09-3.21585E-09
 -1       759 3.28789E+06-3.44529E+02 6.83902E+03 6.91241E+02 2.19273E-10-1.20394E-09
 -1       760 3.28954E+06 2.57666E+03 1.23498E+04-1.85121E+04 3.27219E-10 3.20506E-09
 -1       761 3.28677E+06-2.17318E+03 2.10682E+04 9.12656E+02-8.78288E-10-1.42609E-09
 -1       762 3.29809E+06 1.85496E+04 4.89192E+04-1.99109E+04 1.26698E-09 3.82533E-09
 -1       763 3.27927E+06-1.58190E+04 8.12256E+04 2.08998E+03 6.41649E-10 4.05635E-09
 -1       764 3.35620E+06 1.35663E+05 2.13814E+05-2.34401E+04 8.77208E-10 1.23691E-10
 -1       765 3.22848E+06-1.15132E+05 3.12232E+05 4.43579E+03-2.36855E-09 3.30328E-09
 -1       766-6.09088E+04 7.00492E+05 1.68542E+05-2.58479E+03 2.70666E-09-1.03728E-09
 -1       767 7.78531E+04 7.71948E+05 1.28977E+05 7.34272E+03 3.78714E-09 6.54836E-10
 -1       768-1.44129E+04 7.23996E+05 7.24608E+04-1.52532E+03 6.77574E-10 1.29376E-09
 -1       769 6.21632E+04 7.64059E+05 1.06623E+05 5.36894E+03 4.14730E-10 6.74845E-10
 -1       770-4.57431E+04 7.08324E+05 1.28931E+05-6.18103E+02 4.22006E-10 1.59798E-09
 -1       771-1.71925E+06-3.66705E+05-9.55614E+04-7.31635E+05 1.01500E-09 3.15777E-09
 -1       772-1.72134E+06-3.47749E+05-4.60000E+04-7.59681E+05-2.22644E-09-1.46974E-09
 -1       773-1.72095E+06-3.24292E+05-1.94898E+04-7.49924E+05-1.89175E-09 3.51429E-09
 -1       774-1.71158E+06-3.33469E+05-9.45996E+03-7.63173E+05 1.58616E-09-2.11730E-09
 -1       775-1.72174E+06-3.21924E+05-4.35484E+03-7.51107E+05-6.18456E-10-1.15324E-09
 -1       776-1.71104E+06-3.32686E+05-2.18187E+03-7.63567E+05 6.33008E-10-1.04319E-09
 -1       777-1.72218E+06-3.21745E+05-1.18227E+03-7.51300E+05-2.03727E-10-5.23960E-09
 -1       778-1.71121E+06-3.32595E+05-8.82020E+02-7.63817E+05 1.32422E-09 4.50882E-10
 -1       779-1.72246E+06-3.21593E+05-1.07811E+03-7.51436E+05-7.49424E-10-8.58336E-10
 -1       780-1.71149E+06-3.32536E+05-1.92678E+03-7.64057E+05-7.63976E-11-3.02208E-10
 -1       781-1.72258E+06-3.21456E+05-3.79239E+03-7.51512E+05-4.18368E-10-5.33873E-10
 -1       782-1.71235E+06-3.33144E+05-8.27326E+03-7.64220E+05-4.40195E-10-2.46655E-09
 -1       783-1.72242E+06-3.23201E+05-1.69979E+04-7.50663E+05-2.27374E-10-1.18871E-09
 -1       784-1.72078E+06-3.46083E+05-4.02262E+04-7.62196E+05 1.07320E-10-1.14960E-09
 -1       785-1.72169E+06-3.59781E+05-8.35002E+04-7.34444E+05-1.45519E-10 1.08776E-09
 -1       786 1.32301E+06-4.85544E+04 1.39477E+05 1.35261E+03 1.26147E-09 1.27329E-09
 -1       787 1.37903E+06 5.78055E+04 9.45347E+04-1.29479E+04-6.91216E-11-4.34557E-09
 -1       788 1.34545E+06-6.37599E+03 3.62630E+04 8.00391E+02-6.60407E-10-2.03181E-09
 -1       789 1.35342E+06 7.52397E+03 2.15208E+04-1.20378E+04-6.01915E-10 3.48155E-09
 -1       790 1.34864E+06-8.38478E+02 9.31487E+03 4.45953E+02 6.07997E-10 2.47383E-09
 -1       791 1.34977E+06 9.79447E+02 5.28275E+03-1.15056E+04 1.12664E-10-4.40639E-09
 -1       792 1.34910E+06-1.19592E+02 2.72994E+03 2.68235E+02 3.52600E-10 1.51510E-09
 -1       793 1.34928E+06 2.08772E+02 2.09883E+03-1.13176E+04-1.02574E-10 6.51056E-09
 -1       794 1.34912E+06-9.23016E+01 2.23357E+03 2.57997E+02-8.40117E-10 1.03506E-09
 -1       795 1.34959E+06 7.05628E+02 3.91999E+03-1.14651E+04 8.62229E-10 3.72893E-10
 -1       796 1.34880E+06-5.99953E+02 6.72347E+03 4.15749E+02-9.02560E-10-1.73713E-09
 -1       797 1.35219E+06 5.37200E+03 1.54076E+04-1.19535E+04-1.13778E-09-6.16615E-09
 -1       798 1.34653E+06-4.55517E+03 2.59161E+04 7.46343E+02-9.71681E-10-1.70076E-09
 -1       799 1.37049E+06 4.12825E+04 6.75294E+04-1.28071E+04-3.66879E-09 1.16415E-10
 -1       800 1.33049E+06-3.46844E+04 9.96052E+04 1.26703E+03-1.15961E-10-2.47383E-09
 -1       801-4.64588E+04 1.14118E+06 1.31353E+05-6.49339E+03-5.55156E-09-5.96629E-10
 -1       802 7.14000E+04 1.19726E+06 1.15105E+05-6.46217E+05-1.33516E-08-3.30920E-09
 -1       803-1.45801E+04 1.15864E+06 8.62778E+04-9.77158E+03-6.69206E-09 7.97195E-09
 -1       804 1.03425E+05 1.21596E+06 1.62993E+05-6.47017E+05-1.42099E-08 1.10704E-08
 -1       805-7.79217E+04 1.12407E+06 2.16289E+05-5.70866E+03-2.76486E-09 5.73345E-09
 -1       806-7.70349E+05-1.97256E+05-7.27475E+04-3.45832E+05 1.79398E-09-2.79761E-09
 -1       807-7.72182E+05-1.81690E+05-3.49360E+04-3.67018E+05 4.37649E-09 7.73798E-09
 -1       808-7.70974E+05-1.64214E+05-1.47551E+04-3.60238E+05 1.08412E-09-2.42744E-09
 -1       809-7.64860E+05-1.70212E+05-7.17235E+03-3.69256E+05 1.85264E-09-2.84925E-09
 -1       810-7.71273E+05-1.62440E+05-3.27664E+03-3.61103E+05-2.50111E-10-1.27352E-09
 -1       811-7.64241E+05-1.69603E+05-1.65909E+03-3.69300E+05-1.42836E-09-6.73026E-11
 -1       812-7.71349E+05-1.62435E+05-9.01113E+02-3.61132E+05 5.17275E-10-3.49110E-09
 -1       813-7.64176E+05-1.69599E+05-7.21758E+02-3.69277E+05 5.50131E-10 3.09774E-09
 -1       814-7.71328E+05-1.62445E+05-9.18459E+02-3.61122E+05 7.12134E-10 1.74441E-09
 -1       815-7.64209E+05-1.69618E+05-1.70439E+03-3.69269E+05 1.26056E-09 6.29370E-10
 -1       816-7.71208E+05-1.62470E+05-3.37223E+03-3.61070E+05-1.68893E-09 1.58980E-09
 -1       817-7.64818E+05-1.70251E+05-7.38430E+03-3.69184E+05-3.13958E-09 8.38554E-10
 -1       818-7.70861E+05-1.64325E+05-1.51934E+04-3.60168E+05-1.27329E-10 1.72258E-09
 -1       819-7.72383E+05-1.82012E+05-3.59669E+04-3.66778E+05-8.76753E-10 3.00133E-09
 -1       820-7.70133E+05-1.98386E+05-7.48940E+04-3.45368E+05 5.47607E-09 1.32386E-08
 -1       821-8.94610E+05 3.60571E+04-1.03467E+05-1.38995E+03-6.83121E-09 3.04863E-09
 -1       822-9.36032E+05-4.29442E+04-7.01395E+04 8.93978E+03-4.73801E-09-3.11775E-09
 -1       823-9.11241E+05 4.71598E+03-2.68991E+04-1.95132E+03 7.99878E-09-5.27871E-09
 -1       824-9.17085E+05-5.55792E+03-1.59483E+04 9.94137E+03-3.38537E-09-2.33626E-09
 -1       825-9.13580E+05 6.07186E+02-6.91790E+03-2.39374E+03-1.51233E-08-1.20326E-09
 -1       826-9.14441E+05-6.72157E+02-3.93122E+03 1.07018E+04-2.63537E-08 8.25821E-10
 -1       827-9.13914E+05 7.86147E+01-2.07193E+03-2.71243E+03-1.49973E-08 1.51283E-09
 -1       828-9.14127E+05-9.39912E+01-1.65643E+03 1.12062E+04-2.08630E-08-7.50582E-10
 -1       829-9.13919E+05 6.88603E+01-1.85337E+03-2.89833E+03-9.41725E-10-3.98217E-10
 -1       830-9.14418E+05-5.32915E+02-3.34248E+03 1.14377E+04 1.37570E-08-6.04774E-09
 -1       831-9.13637E+05 5.09309E+02-5.78210E+03-2.94402E+03-7.30853E-09-3.50656E-09
 -1       832-9.16654E+05-4.58127E+03-1.32926E+04 1.13920E+04-1.57613E-09-4.09386E-09
 -1       833-9.11687E+05 3.93047E+03-2.23788E+04-2.85196E+03 1.61970E-09-5.63523E-09
 -1       834-9.32445E+05-3.56802E+04-5.83698E+04 1.10909E+04-5.26597E-09-9.74978E-09
 -1       835-8.97848E+05 3.00094E+04-8.60802E+04-2.63873E+03 6.37783E-10-1.89175E-10
 -1       836-8.31821E+04 2.80658E+06 2.47369E+05-7.45854E+03-6.46105E-09-3.93720E-09
 -1       837 1.12861E+05 2.90928E+06 1.97958E+05-2.14282E+05-1.22618E-08-1.89448E-09
 -1       838-2.29529E+04 2.83827E+06 1.29667E+05-1.07799E+04-1.30867E-08 5.29633E-09
 -1       839 1.26613E+05 2.91600E+06 2.18060E+05-2.13515E+05-1.16706E-08 7.42102E-09
 -1       840-9.60896E+04 2.79966E+06 2.83521E+05-8.22122E+03-1.24273E-08 7.77709E-09
 -1       841-4.41757E+05-4.12710E+04-6.43686E+04-1.76835E+05 3.72893E-10-1.34605E-10
 -1       842-4.80507E+05-8.63530E+04-4.33432E+04-1.59481E+05 4.13456E-09 2.94585E-09
 -1       843-4.53996E+05-6.23013E+04-1.51683E+04-1.73601E+05 6.54609E-09-2.87582E-09
 -1       844-4.66607E+05-6.15014E+04-9.02917E+03-1.63203E+05 3.02271E-09-6.59236E-09
 -1       845-4.55587E+05-6.54244E+04-3.53240E+03-1.73388E+05-1.49498E-09 7.82165E-11
 -1       846-4.64920E+05-5.77226E+04-1.96629E+03-1.63349E+05-1.25397E-08-9.76384E-09
 -1       847-4.55693E+05-6.59782E+04-8.80379E+02-1.73504E+05-2.57660E-09-1.86485E-09
 -1       848-4.64883E+05-5.70400E+04-5.89692E+02-1.63165E+05 3.83102E-09 2.92590E-09
 -1       849-4.55637E+05-6.60874E+04-5.05702E+02-1.73587E+05 8.97890E-09 3.48943E-09
 -1       850-4.65042E+05-5.70893E+04-8.67058E+02-1.63067E+05 2.29424E-08-2.85593E-09
 -1       851-4.55539E+05-6.59289E+04-1.44669E+03-1.73605E+05-3.57107E-09 9.49058E-10
 -1       852-4.65784E+05-5.85264E+04-3.63427E+03-1.62935E+05 1.43677E-09 5.55929E-09
 -1       853-4.54895E+05-6.46885E+04-6.07818E+03-1.73701E+05-9.93418E-09 5.57543E-09
 -1       854-4.71305E+05-6.85063E+04-1.73561E+04-1.61476E+05-2.18670E-08 1.65960E-09
 -1       855-4.50043E+05-5.62315E+04-2.57745E+04-1.74951E+05 4.18368E-11-1.68984E-09
 -1       856-1.03871E+06 3.44046E+04-9.90035E+04-3.51132E+03-1.36879E-08 2.25555E-10
 -1       857-1.07811E+06-4.09252E+04-6.70389E+04 2.28648E+04-1.00681E-08-5.76529E-09
 -1       858-1.05457E+06 4.46157E+03-2.57446E+04-4.66562E+03-2.14568E-08-4.82032E-09
 -1       859-1.06020E+06-5.11401E+03-1.52268E+04 2.48446E+04-8.19068E-09-1.56040E-08
 -1       860-1.05678E+06 5.48049E+02-6.60781E+03-5.49683E+03-5.65456E-09-8.91259E-09
 -1       861-1.05781E+06-3.94253E+02-3.72342E+03 2.61506E+04-2.69038E-08-8.58779E-09
 -1       862-1.05708E+06 4.95282E+01-1.91988E+03-5.97370E+03 1.77187E-08-8.67533E-09
 -1       863-1.05756E+06 1.87989E+02-1.45733E+03 2.67367E+04 5.67155E-08-1.02929E-08
 -1       864-1.05710E+06 3.09958E+01-1.53136E+03-6.08366E+03 2.37776E-08-5.90661E-09
 -1       865-1.05774E+06-1.57591E+02-2.67011E+03 2.65841E+04 4.13355E-08-7.62566E-09
 -1       866-1.05689E+06 3.70007E+02-4.58534E+03-5.82081E+03-2.16846E-09-6.60179E-09
 -1       867-1.05937E+06-3.39313E+03-1.04820E+04 2.56994E+04-1.02378E-08-9.03651E-09
 -1       868-1.05538E+06 3.05388E+03-1.76839E+04-5.19740E+03 2.18461E-09-8.86394E-09
 -1       869-1.07162E+06-2.79879E+04-4.60242E+04 2.41134E+04-4.74211E-09-7.93989E-09
 -1       870-1.04450E+06 2.36007E+04-6.79768E+04-4.22961E+03 1.37825E-08-1.74987E-09
 -1       871-5.11979E+03-2.95497E+04-7.22381E+03 1.14859E+05 2.48110E-09-1.25237E-09
 -1       872-1.92429E+03-3.06671E+04-1.89273E+03 1.30259E+05-1.36242E-09-5.64296E-09
 -1       873-1.85163E+02-3.03708E+04 2.55481E+03 1.14647E+05 4.59295E-09-9.30231E-09
 -1       874 2.89836E+03-2.85347E+04 8.90458E+03 1.30420E+05-2.69756E-09-2.04082E-08
 -1       875 1.05314E+04-3.18527E+04 1.93271E+04 1.14751E+05 5.56793E-09-6.00801E-09
 -1       876 1.08800E+06 1.21783E+05 1.03954E+05 4.26261E+05 6.89579E-09-4.73665E-09
 -1       877 1.11865E+06 2.22260E+05 6.93870E+04 4.34957E+05 1.68484E-08-1.52795E-10
 -1       878 1.10717E+06 1.54711E+05 2.45228E+04 4.21892E+05 4.10714E-08-6.96673E-10
 -1       879 1.09692E+06 1.82969E+05 1.44649E+04 4.39836E+05 3.04567E-08 2.46473E-09
 -1       880 1.10942E+06 1.59620E+05 5.75317E+03 4.21891E+05 3.03600E-08-1.01604E-08
 -1       881 1.09451E+06 1.77006E+05 3.26600E+03 4.39562E+05 2.57346E-08-1.24255E-08
 -1       882 1.10950E+06 1.60531E+05 1.64400E+03 4.22193E+05-3.78013E-08-2.69290E-09
 -1       883 1.09452E+06 1.76003E+05 1.45057E+03 4.39134E+05-4.58547E-08-2.89918E-09
 -1       884 1.10939E+06 1.60623E+05 1.79185E+03 4.22307E+05-1.35671E-09-2.03897E-10
 -1       885 1.09496E+06 1.76722E+05 3.68820E+03 4.39077E+05-2.03479E-08-7.52379E-09
 -1       886 1.10906E+06 1.59832E+05 6.57416E+03 4.22243E+05 1.08120E-09-4.20459E-09
 -1       887 1.09821E+06 1.83014E+05 1.65412E+04 4.38745E+05-1.07012E-08-6.67319E-09
 -1       888 1.10619E+06 1.54519E+05 2.80898E+04 4.22579E+05-1.46354E-08-3.15777E-09
 -1       889 1.12367E+06 2.27340E+05 7.94259E+04 4.32361E+05-1.69330E-08-2.06337E-08
 -1       890 1.08389E+06 1.17208E+05 1.19066E+05 4.28001E+05 3.69619E-08-6.25732E-10
 -1       891 5.12107E+03-4.59817E+05-1.60701E+04 1.36422E+03 1.39280E-08 1.91631E-09
 -1       892-8.18827E+03-4.65708E+05-1.40849E+04 1.24971E+05-1.06905E-09-1.42779E-09
 -1       893 2.03892E+03-4.61367E+05-1.12784E+04 1.03394E+03 9.09222E-09-2.96126E-10
 -1       894-1.36709E+04-4.68408E+05-2.20928E+04 1.24891E+05 1.01500E-08 1.65153E-09
 -1       895 1.02815E+04-4.57057E+05-3.04313E+04 1.44230E+03 1.10776E-08 1.49430E-09
 -1       896 1.10075E+06-7.10497E+03 1.91449E+04 2.18465E+03 5.57066E-11-1.21418E-09
 -1       897 1.10871E+06 8.31816E+03 1.31575E+04-1.42328E+04-4.14730E-10-3.32193E-10
 -1       898 1.10389E+06-9.82131E+02 4.98737E+03 1.39287E+03 7.04858E-12-6.48015E-10
 -1       899 1.10506E+06 1.12895E+03 3.03703E+03-1.28798E+04-1.67063E-10-4.49063E-11
 -1       900 1.10436E+06-1.38390E+02 1.34094E+03 8.31934E+02-9.16316E-11 1.67120E-11
 -1       901 1.10449E+06 1.63570E+02 8.71819E+02-1.19706E+04 4.82714E-10 1.15051E-10
 -1       902 1.10443E+06-2.89139E+01 6.32719E+02 4.83698E+02 3.68061E-10 6.57963E-11
 -1       903 1.10444E+06 1.06693E+02 8.41848E+02-1.14686E+04 1.21304E-10-8.97025E-11
 -1       904 1.10440E+06-7.41588E+01 1.33921E+03 3.29886E+02 2.18733E-10 3.07011E-10
 -1       905 1.10475E+06 6.20384E+02 2.82648E+03-1.13495E+04 2.89027E-10-2.70575E-10
 -1       906 1.10412E+06-5.27231E+02 5.02390E+03 3.64623E+02 1.68058E-10-5.21595E-10
 -1       907 1.10684E+06 4.51164E+03 1.18211E+04-1.16074E+04 2.73985E-11 3.01043E-10
 -1       908 1.10230E+06-3.84631E+03 1.96726E+04 5.87833E+02-2.84217E-12 3.69255E-10
 -1       909 1.12098E+06 3.29724E+04 5.18894E+04-1.22536E+04 3.51747E-10-1.03682E-09
 -1       910 1.08998E+06-2.79914E+04 7.57277E+04 1.01023E+03 2.43290E-11-1.02955E-09
 -1       911 4.12536E+05-5.26314E+03 1.41214E+04 9.97671E+02 1.69166E-10 3.46517E-10
 -1       912 4.18502E+05 6.16969E+03 9.72597E+03-1.74510E+04 2.75236E-10 5.96742E-10
 -1       913 4.14863E+05-7.33021E+02 3.68380E+03 6.72657E+02-2.75350E-10 6.66432E-10
 -1       914 4.15763E+05 8.68046E+02 2.26446E+03-1.68912E+04-1.64448E-10 3.30829E-10
 -1       915 4.15216E+05-1.06000E+02 1.02544E+03 4.38011E+02 1.23453E-09 1.05439E-09
 -1       916 4.15322E+05 1.65670E+02 7.23458E+02-1.65242E+04 2.11173E-09 5.96401E-10
 -1       917 4.15266E+05-2.70836E+01 6.19575E+02 3.05650E+02 1.24874E-09 9.25837E-10
 -1       918 4.15301E+05 1.60537E+02 9.46350E+02-1.63609E+04 5.83469E-10 6.95266E-10
 -1       919 4.15221E+05-9.05929E+01 1.59886E+03 2.74725E+02 1.10899E-09 8.93692E-10
 -1       920 4.15692E+05 7.95181E+02 3.43748E+03-1.63991E+04 2.27317E-09-1.10242E-09
 -1       921 4.14877E+05-6.48241E+02 6.13323E+03 3.43951E+02 1.33525E-09 3.78577E-10
 -1       922 4.18286E+05 5.55484E+03 1.44613E+04-1.66374E+04 2.33922E-09-3.33785E-10
 -1       923 4.12649E+05-4.71579E+03 2.40621E+04 5.13129E+02 1.39721E-09 7.60338E-10
 -1       924 4.35637E+05 4.03932E+04 6.35145E+04-1.70662E+04 2.40806E-09 2.17369E-10
 -1       925 3.97570E+05-3.42835E+04 9.26839E+04 7.72685E+02 2.39447E-09 3.56522E-10
 -1       926-1.49451E+06 2.94146E+04-7.94817E+04-5.86796E+02 4.35421E-10-1.25146E-09
 -1       927-1.52691E+06-3.46597E+04-5.44591E+04 6.44149E+03-4.23597E-10 1.08230E-10
 -1       928-1.50741E+06 4.03640E+03-2.06323E+04-1.30396E+03 1.21645E-10-4.72937E-10
 -1       929-1.51210E+06-4.73123E+03-1.23910E+04 7.68261E+03 3.90855E-10-1.61594E-09
 -1       930-1.50930E+06 5.50498E+02-5.26917E+03-1.82785E+03-5.84350E-11-7.04858E-10
 -1       931-1.50993E+06-6.31726E+02-2.97229E+03 8.50895E+03 2.00146E-10-9.34506E-11
 -1       932-1.50958E+06 7.62273E+01-1.42929E+03-2.13042E+03 1.52230E-09-1.16819E-09
 -1       933-1.50962E+06-9.63636E+01-9.41336E+02 8.87503E+03-1.67653E-10-4.53724E-10
 -1       934-1.50961E+06 3.34616E+01-7.79114E+02-2.19397E+03 3.31966E-11-9.75788E-10
 -1       935-1.50968E+06-2.13055E+02-1.16773E+03 8.75820E+03 1.00640E-09-1.19888E-09
 -1       936-1.50952E+06 1.87597E+02-1.87518E+03-2.01357E+03 7.43512E-11-6.90591E-10
 -1       937-1.51040E+06-1.60953E+03-4.27509E+03 8.16565E+03 1.21466E-09-1.27147E-09
 -1       938-1.50888E+06 1.37817E+03-7.07839E+03-1.60136E+03 1.09321E-09-1.91721E-09
 -1       939-1.51545E+06-1.18513E+04-1.86376E+04 7.12999E+03 1.56831E-10-4.62705E-10
 -1       940-1.50447E+06 1.00576E+04-2.72055E+04-9.77830E+02-1.30740E-10 1.23691E-10
 -1       941 4.41238E+06-1.88177E+05 5.11294E+05 1.00084E+03 4.73523E-09 4.54020E-09
 -1       942 4.62100E+06 2.21891E+05 3.49825E+05 4.77833E+03 4.94583E-09-4.77303E-09
 -1       943 4.49540E+06-2.58531E+04 1.32962E+05 1.71350E+03 1.49180E-09-4.58385E-10
 -1       944 4.52620E+06 3.03414E+04 7.99733E+04 3.49832E+03-1.11442E-09-3.05590E-09
 -1       945 4.50769E+06-3.54858E+03 3.42875E+04 2.28204E+03 6.40938E-10 2.37196E-09
 -1       946 4.51225E+06 4.18125E+03 1.97547E+04 2.40254E+03 5.27351E-10 6.66660E-09
 -1       947 4.50954E+06-5.35413E+02 1.02873E+04 2.80976E+03 4.13280E-10 4.21778E-09
 -1       948 4.51038E+06 1.00673E+03 8.28502E+03 1.28363E+03 6.08622E-10 1.54505E-09
 -1       949 4.50960E+06-4.59866E+02 9.14115E+03 3.40107E+03-2.67482E-09-7.33326E-09
 -1       950 4.51180E+06 3.45108E+03 1.65781E+04-8.11787E+01 3.44161E-09 4.86762E-09
 -1       951 4.50809E+06-2.91330E+03 2.83153E+04 4.17455E+03-2.17284E-09-6.37192E-09
 -1       952 4.52325E+06 2.48957E+04 6.57309E+04-1.97257E+03-2.66709E-09-1.88084E-09
 -1       953 4.49800E+06-2.12173E+04 1.09164E+05 5.29165E+03-3.35365E-09 1.54250E-09
 -1       954 4.60108E+06 1.82104E+05 2.87145E+05-4.86246E+03-6.61197E-09-3.76531E-09
 -1       955 4.42980E+06-1.54466E+05 4.19503E+05 7.05435E+03-4.54088E-09-3.11411E-09
 -1       956-2.50576E+05-3.93113E+03-7.15980E+03 5.43334E+04-4.80213E-09 1.42427E-09
 -1       957-2.51801E+05-1.15748E+03-3.55579E+03 6.11072E+04-1.81535E-09-2.04363E-09
 -1       958-2.51181E+05-8.93583E+01-1.59757E+03 5.39846E+04 1.06575E-08-2.70029E-09
 -1       959-2.51351E+05 1.37205E+02-8.04833E+02 6.14902E+04-2.82762E-09-1.97679E-09
 -1       960-2.51322E+05 1.93872E+02-3.90169E+02 5.39429E+04-1.08212E-08 1.21145E-09
 -1       961-2.51382E+05 2.55957E+02-2.00701E+02 6.15366E+04-2.35132E-08 1.23418E-09
 -1       962-2.51399E+05 2.38760E+02-1.08737E+02 5.39367E+04-1.17361E-08-3.95630E-10
 -1       963-2.51441E+05 2.92579E+02-7.19476E+01 6.15446E+04-1.43764E-08 1.56706E-09
 -1       964-2.51448E+05 2.66692E+02-7.14848E+01 5.39342E+04-1.03228E-09 2.04227E-09
 -1       965-2.51486E+05 3.15498E+02-1.08386E+02 6.15461E+04 1.43186E-08 1.73577E-09
 -1       966-2.51472E+05 2.81556E+02-1.96726E+02 5.39348E+04-9.60426E-10-7.34872E-10
 -1       967-2.51535E+05 2.91327E+02-4.03135E+02 6.15348E+04 1.76958E-08-8.21274E-10
 -1       968-2.51452E+05 1.70699E+02-7.94992E+02 5.39457E+04 5.32123E-09 1.02636E-09
 -1       969-2.51812E+05-3.30467E+02-1.77554E+03 6.14322E+04 1.53102E-09 1.16961E-09
 -1       970-2.51183E+05-1.73573E+03-3.57185E+03 5.40440E+04 9.29913E-09 3.95175E-10
 -1       971-1.20957E+06 3.14972E+04-9.06674E+04-3.82966E+03-9.41782E-09-4.68208E-09
 -1       972-1.24557E+06-3.74916E+04-6.13860E+04 2.01811E+04-1.30458E-08-1.46338E-09
 -1       973-1.22409E+06 4.07633E+03-2.35862E+04-5.18574E+03-1.94523E-08-6.01267E-09
 -1       974-1.22918E+06-4.69240E+03-1.39567E+04 2.25349E+04-5.02041E-09-6.89261E-09
 -1       975-1.22611E+06 4.92823E+02-6.09018E+03-6.18827E+03 1.84627E-10-1.01995E-08
 -1       976-1.22702E+06-3.65306E+02-3.48344E+03 2.41455E+04-1.92589E-08-4.16816E-09
 -1       977-1.22638E+06 4.02672E+01-1.90797E+03-6.79829E+03 2.77740E-08-1.21057E-08
 -1       978-1.22683E+06 1.47966E+02-1.64843E+03 2.49527E+04 5.45070E-08-1.35442E-08
 -1       979-1.22637E+06 4.92398E+01-1.99783E+03-6.99622E+03 1.88676E-08-1.25290E-08
 -1       980-1.22716E+06-3.82673E+02-3.75135E+03 2.49273E+04 2.20863E-08-1.11403E-08
 -1       981-1.22606E+06 5.49389E+02-6.57104E+03-6.77283E+03 6.12795E-09-1.04321E-08
 -1       982-1.22961E+06-5.04116E+03-1.51392E+04 2.40747E+04 5.84396E-09-4.28827E-09
 -1       983-1.22385E+06 4.44249E+03-2.55415E+04-6.14180E+03 2.57082E-08-1.21063E-08
 -1       984-1.24745E+06-4.05801E+04-6.65710E+04 2.24484E+04-1.51615E-08-4.63479E-09
 -1       985-1.20810E+06 3.41815E+04-9.82554E+04-5.13914E+03 1.42518E-08-8.49832E-09
 -3
 9999
